# vtk DataFile Version 2.0
Time step 49
ASCII
DATASET UNSTRUCTURED_GRID
POINTS 5000 float
202705.0 304716.0 0
207628.0 302888.0 0
213157.0 304025.0 0
209442.0 306106.0 0
221916.0 306132.0 0
231907.0 305144.0 0
272025.0 305880.0 0
279420.0 304857.0 0
291045.0 304289.0 0
297464.0 302478.0 0
202414.0 309753.0 0
206555.0 307197.0 0
206990.0 311503.0 0
211302.0 309203.0 0
217056.0 308275.0 0
228405.0 307287.0 0
224698.0 309680.0 0
232532.0 308451.0 0
230103.0 311714.0 0
237247.0 307055.0 0
242614.0 309268.0 0
249254.0 309864.0 0
255545.0 309074.0 0
260514.0 310656.0 0
267059.0 308482.0 0
271327.0 310378.0 0
275842.0 309884.0 0
281311.0 310590.0 0
286464.0 308073.0 0
292190.0 309778.0 0
297176.0 307756.0 0
203008.0 315016.0 0
210053.0 315554.0 0
214572.0 312936.0 0
217576.0 316493.0 0
220754.0 312474.0 0
225950.0 313829.0 0
231874.0 315698.0 0
235040.0 312147.0 0
244819.0 314404.0 0
239844.0 313949.0 0
249133.0 315384.0 0
253039.0 314439.0 0
257180.0 313491.0 0
264367.0 312521.0 0
260998.0 315075.0 0
268659.0 313375.0 0
273402.0 314600.0 0
278145.0 314177.0 0
285101.0 312926.0 0
282409.0 314584.0 0
288653.0 312458.0 0
289144.0 315845.0 0
292648.0 316826.0 0
296666.0 313825.0 0
201914.0 319573.0 0
206467.0 319214.0 0
213551.0 319511.0 0
218211.0 320771.0 0
222556.0 318063.0 0
228054.0 318503.0 0
225693.0 321852.0 0
232628.0 319856.0 0
236216.0 317176.0 0
236571.0 321628.0 0
241241.0 319282.0 0
246775.0 318961.0 0
251627.0 318744.0 0
256457.0 318200.0 0
260896.0 319360.0 0
265403.0 317379.0 0
269994.0 317236.0 0
268673.0 320760.0 0
273075.0 320193.0 0
276548.0 317828.0 0
280754.0 317978.0 0
285406.0 317125.0 0
283895.0 322104.0 0
289543.0 320047.0 0
296210.0 321287.0 0
203734.0 323534.0 0
209794.0 323934.0 0
216066.0 325711.0 0
222057.0 323848.0 0
229141.0 323308.0 0
233123.0 323422.0 0
235847.0 325792.0 0
240182.0 324998.0 0
244905.0 323440.0 0
249655.0 323034.0 0
254313.0 322664.0 0
252213.0 327014.0 0
258880.0 323399.0 0
256071.0 326443.0 0
264406.0 323437.0 0
269245.0 325391.0 0
270770.0 322960.0 0
273472.0 324849.0 0
278045.0 322638.0 0
281604.0 326219.0 0
285650.0 327172.0 0
288072.0 323929.0 0
289960.0 326913.0 0
291611.0 323761.0 0
293540.0 326437.0 0
297550.0 327064.0 0
202022.0 327483.0 0
202046.0 331199.0 0
206247.0 328454.0 0
211576.0 329675.0 0
216598.0 331361.0 0
221107.0 329172.0 0
226170.0 327475.0 0
229048.0 331143.0 0
231809.0 327725.0 0
232438.0 331997.0 0
237050.0 330819.0 0
243899.0 327110.0 0
241573.0 329043.0 0
245024.0 330060.0 0
247808.0 327619.0 0
250511.0 331470.0 0
254856.0 330392.0 0
259978.0 328740.0 0
266135.0 329697.0 0
271761.0 328716.0 0
277261.0 328944.0 0
282581.0 330042.0 0
286734.0 330917.0 0
290878.0 330519.0 0
294597.0 329692.0 0
297864.0 331427.0 0
202314.0 335107.0 0
207390.0 333607.0 0
213269.0 335039.0 0
220413.0 333862.0 0
222997.0 336842.0 0
225010.0 332958.0 0
229913.0 334623.0 0
234062.0 335743.0 0
239337.0 336657.0 0
242543.0 333044.0 0
246955.0 333148.0 0
245068.0 337423.0 0
249384.0 335807.0 0
253524.0 335027.0 0
257772.0 333419.0 0
262318.0 334114.0 0
266862.0 335413.0 0
270491.0 332940.0 0
274480.0 333560.0 0
270094.0 336384.0 0
280469.0 332551.0 0
277919.0 333598.0 0
276765.0 336126.0 0
279878.0 335875.0 0
283996.0 334206.0 0
288967.0 334339.0 0
294169.0 334121.0 0
298381.0 334995.0 0
201930.0 338938.0 0
201648.0 341944.0 0
205519.0 338332.0 0
204535.0 342301.0 0
208503.0 342162.0 0
209608.0 337851.0 0
213121.0 340150.0 0
218470.0 338700.0 0
223807.0 341116.0 0
227220.0 337830.0 0
231560.0 339657.0 0
236110.0 340411.0 0
241409.0 341035.0 0
245429.0 342163.0 0
249236.0 340105.0 0
253731.0 339945.0 0
258576.0 338411.0 0
263974.0 339119.0 0
261404.0 342323.0 0
268779.0 340376.0 0
273403.0 337946.0 0
277550.0 339967.0 0
282402.0 339073.0 0
286693.0 337917.0 0
288805.0 341953.0 0
291452.0 338129.0 0
295506.0 338413.0 0
293872.0 342425.0 0
298507.0 337865.0 0
297890.0 341243.0 0
202326.0 345352.0 0
205646.0 346069.0 0
212186.0 344149.0 0
209378.0 347064.0 0
213095.0 347301.0 0
216292.0 344230.0 0
220929.0 344454.0 0
228317.0 342719.0 0
225518.0 346253.0 0
233164.0 345119.0 0
238473.0 344130.0 0
242798.0 346071.0 0
248188.0 343776.0 0
247294.0 347240.0 0
252118.0 345261.0 0
257239.0 343835.0 0
261339.0 346439.0 0
265125.0 343771.0 0
269368.0 345390.0 0
273257.0 342602.0 0
273461.0 347394.0 0
280480.0 343477.0 0
276743.0 344579.0 0
284435.0 342771.0 0
282813.0 347196.0 0
286437.0 345922.0 0
290303.0 346343.0 0
294516.0 346623.0 0
297844.0 345089.0 0
202707.0 349557.0 0
206779.0 350352.0 0
211370.0 351170.0 0
216323.0 349213.0 0
214594.0 352303.0 0
221272.0 349460.0 0
229511.0 348567.0 0
226147.0 351356.0 0
230366.0 353114.0 0
233209.0 350205.0 0
237975.0 349123.0 0
242763.0 350887.0 0
246719.0 351331.0 0
250751.0 350642.0 0
256478.0 350371.0 0
261848.0 351240.0 0
265833.0 348908.0 0
269926.0 350481.0 0
273856.0 352391.0 0
278144.0 348856.0 0
282709.0 351937.0 0
286832.0 349386.0 0
291815.0 351068.0 0
297298.0 349809.0 0
201730.0 353140.0 0
202570.0 356640.0 0
204951.0 353419.0 0
208361.0 353880.0 0
206390.0 356742.0 0
210507.0 356866.0 0
213207.0 354724.0 0
214947.0 357726.0 0
217757.0 353973.0 0
222593.0 354706.0 0
226769.0 356035.0 0
229637.0 357311.0 0
233211.0 356518.0 0
235677.0 353427.0 0
239905.0 354266.0 0
244769.0 355625.0 0
241532.0 358064.0 0
249257.0 355198.0 0
253037.0 354552.0 0
256685.0 357450.0 0
260346.0 354691.0 0
264892.0 354430.0 0
269349.0 355250.0 0
273643.0 357553.0 0
278135.0 353838.0 0
281700.0 356139.0 0
284330.0 357345.0 0
286952.0 353736.0 0
287608.0 357545.0 0
291121.0 355312.0 0
296434.0 355253.0 0
202995.0 360941.0 0
207974.0 360321.0 0
212529.0 360710.0 0
216373.0 360853.0 0
219135.0 358416.0 0
219631.0 362155.0 0
223471.0 359331.0 0
227723.0 360978.0 0
232332.0 360995.0 0
237519.0 359034.0 0
241406.0 361260.0 0
244298.0 360413.0 0
247847.0 359599.0 0
246527.0 363077.0 0
251847.0 359196.0 0
259153.0 361569.0 0
261959.0 358221.0 0
263465.0 362889.0 0
266052.0 358861.0 0
267488.0 362738.0 0
269653.0 360090.0 0
272798.0 362326.0 0
277904.0 358053.0 0
276340.0 361849.0 0
281207.0 360819.0 0
286092.0 361774.0 0
291081.0 358730.0 0
294094.0 360287.0 0
297476.0 360071.0 0
202589.0 365769.0 0
206268.0 364504.0 0
210574.0 364791.0 0
215502.0 365019.0 0
223180.0 363664.0 0
219890.0 366397.0 0
223622.0 367957.0 0
226708.0 365241.0 0
231108.0 365862.0 0
234621.0 368417.0 0
235713.0 364211.0 0
239847.0 364058.0 0
238080.0 367913.0 0
243501.0 363981.0 0
242034.0 367615.0 0
249839.0 363637.0 0
246551.0 367423.0 0
254721.0 363749.0 0
259485.0 365780.0 0
262784.0 367314.0 0
266352.0 366448.0 0
270096.0 365370.0 0
274639.0 365989.0 0
278100.0 364208.0 0
278265.0 367755.0 0
281747.0 365336.0 0
290686.0 363641.0 0
285814.0 367361.0 0
290785.0 367564.0 0
296266.0 365039.0 0
197394.0 372207.0 0
202751.0 369734.0 0
207258.0 368582.0 0
209787.0 371590.0 0
211679.0 368957.0 0
212928.0 372786.0 0
215799.0 369746.0 0
220130.0 370666.0 0
224100.0 372190.0 0
227709.0 369507.0 0
232083.0 371609.0 0
236477.0 371630.0 0
239929.0 371260.0 0
244136.0 371438.0 0
247604.0 372517.0 0
251251.0 368800.0 0
254639.0 372407.0 0
256419.0 368936.0 0
257811.0 373270.0 0
260438.0 370353.0 0
264870.0 370764.0 0
268342.0 369027.0 0
269046.0 373137.0 0
271692.0 369188.0 0
272675.0 372893.0 0
275134.0 370356.0 0
278915.0 371614.0 0
281607.0 368998.0 0
283014.0 372076.0 0
287675.0 371025.0 0
292295.0 370504.0 0
297058.0 369333.0 0
296721.0 373409.0 0
196641.0 379542.0 0
200402.0 375676.0 0
199720.0 378385.0 0
202991.0 375337.0 0
201534.0 372744.0 0
203182.0 378696.0 0
205752.0 376268.0 0
205996.0 372894.0 0
209747.0 375297.0 0
213817.0 376562.0 0
216776.0 373813.0 0
217759.0 377674.0 0
220805.0 374874.0 0
224403.0 376286.0 0
228106.0 374208.0 0
227943.0 378522.0 0
231442.0 376649.0 0
234960.0 375339.0 0
238439.0 374754.0 0
237272.0 378708.0 0
241667.0 374255.0 0
240929.0 377509.0 0
244891.0 375694.0 0
248159.0 377391.0 0
251196.0 374293.0 0
255294.0 375906.0 0
258792.0 376756.0 0
261361.0 374224.0 0
262651.0 378503.0 0
264824.0 375040.0 0
267388.0 377788.0 0
271911.0 376926.0 0
275412.0 374281.0 0
275740.0 378364.0 0
279273.0 375549.0 0
282684.0 376717.0 0
285369.0 374158.0 0
289021.0 374396.0 0
286229.0 377871.0 0
293125.0 374639.0 0
291376.0 377582.0 0
298374.0 377590.0 0
294820.0 377078.0 0
297742.0 380763.0 0
301742.0 378744.0 0
304376.0 379593.0 0
189014.0 384187.0 0
194117.0 381292.0 0
197182.0 382247.0 0
192020.0 383618.0 0
200153.0 381470.0 0
197047.0 384418.0 0
199338.0 385406.0 0
201320.0 383454.0 0
204242.0 382202.0 0
207160.0 379080.0 0
210726.0 379504.0 0
207667.0 382867.0 0
210310.0 382634.0 0
213738.0 380337.0 0
216642.0 381033.0 0
219873.0 382030.0 0
221559.0 378784.0 0
224917.0 381055.0 0
228008.0 383122.0 0
230419.0 380822.0 0
233605.0 379975.0 0
235921.0 383566.0 0
239951.0 381743.0 0
243939.0 380064.0 0
245444.0 383509.0 0
247206.0 381018.0 0
248464.0 384484.0 0
252315.0 378251.0 0
250383.0 381181.0 0
253281.0 381609.0 0
255720.0 379342.0 0
259054.0 380055.0 0
261299.0 383164.0 0
265758.0 382183.0 0
269904.0 380466.0 0
273248.0 382034.0 0
277032.0 382559.0 0
279629.0 379850.0 0
283173.0 381719.0 0
287068.0 381794.0 0
291139.0 382201.0 0
289122.0 379806.0 0
289050.0 384322.0 0
293929.0 380175.0 0
294781.0 384134.0 0
298192.0 383774.0 0
301809.0 381479.0 0
301796.0 384689.0 0
305954.0 381716.0 0
308657.0 382719.0 0
305036.0 384341.0 0
307449.0 386036.0 0
310502.0 385048.0 0
178903.0 390957.0 0
184030.0 387605.0 0
181238.0 389135.0 0
184118.0 391076.0 0
186883.0 386538.0 0
189824.0 388100.0 0
194426.0 386165.0 0
192669.0 389284.0 0
197946.0 388528.0 0
201277.0 389128.0 0
202163.0 386140.0 0
205155.0 385552.0 0
205427.0 389490.0 0
209167.0 386813.0 0
213356.0 384467.0 0
212655.0 389267.0 0
216384.0 387644.0 0
217104.0 384132.0 0
219309.0 385994.0 0
222837.0 384321.0 0
222575.0 388212.0 0
225962.0 385482.0 0
228798.0 386307.0 0
231691.0 384325.0 0
230899.0 389176.0 0
233892.0 387559.0 0
239061.0 385333.0 0
237431.0 388259.0 0
240668.0 388090.0 0
242455.0 384828.0 0
245323.0 387151.0 0
249382.0 388677.0 0
251952.0 384680.0 0
254423.0 388546.0 0
256402.0 383847.0 0
259509.0 387457.0 0
263750.0 387026.0 0
267330.0 386434.0 0
269492.0 384067.0 0
269683.0 389305.0 0
272049.0 386137.0 0
275836.0 386857.0 0
279851.0 385142.0 0
283507.0 386247.0 0
288664.0 386864.0 0
286036.0 384765.0 0
286226.0 388504.0 0
292515.0 386088.0 0
290871.0 389147.0 0
298046.0 386878.0 0
295752.0 388864.0 0
301796.0 388613.0 0
305227.0 387616.0 0
306742.0 389844.0 0
313128.0 386782.0 0
309198.0 388594.0 0
313066.0 389841.0 0
316228.0 387303.0 0
318226.0 390143.0 0
321630.0 391092.0 0
173725.0 394111.0 0
171154.0 396097.0 0
176371.0 392407.0 0
177897.0 394548.0 0
175863.0 396061.0 0
180940.0 393200.0 0
184611.0 394020.0 0
181572.0 395956.0 0
184919.0 396275.0 0
187621.0 391476.0 0
187617.0 394905.0 0
190659.0 392405.0 0
195672.0 391585.0 0
192928.0 394873.0 0
196722.0 395781.0 0
198575.0 393620.0 0
201598.0 392539.0 0
203280.0 395904.0 0
206178.0 392920.0 0
209302.0 391093.0 0
209609.0 394459.0 0
212643.0 393211.0 0
216282.0 391653.0 0
219299.0 389848.0 0
219073.0 393062.0 0
222300.0 392636.0 0
226292.0 389510.0 0
228822.0 392537.0 0
232123.0 393364.0 0
234920.0 391376.0 0
238924.0 392690.0 0
242832.0 390295.0 0
246093.0 391131.0 0
247987.0 394019.0 0
251733.0 392417.0 0
254823.0 393783.0 0
257924.0 391405.0 0
257493.0 394919.0 0
260198.0 393827.0 0
261937.0 390713.0 0
265851.0 390394.0 0
268505.0 393584.0 0
273582.0 389589.0 0
272045.0 393070.0 0
275881.0 391982.0 0
278325.0 390012.0 0
281395.0 388852.0 0
280638.0 392750.0 0
284003.0 391138.0 0
286779.0 392422.0 0
288448.0 391220.0 0
288253.0 394737.0 0
290897.0 393552.0 0
294005.0 391914.0 0
297565.0 394403.0 0
299343.0 391436.0 0
302083.0 393616.0 0
304821.0 392031.0 0
305271.0 395406.0 0
308665.0 394443.0 0
310191.0 391422.0 0
312957.0 394160.0 0
315983.0 392458.0 0
317463.0 396040.0 0
324074.0 392404.0 0
320501.0 393823.0 0
322102.0 395411.0 0
326397.0 394382.0 0
329247.0 396258.0 0
168156.0 397419.0 0
165573.0 399493.0 0
169078.0 399725.0 0
172450.0 398532.0 0
171320.0 401189.0 0
175396.0 398682.0 0
178870.0 396715.0 0
178413.0 398586.0 0
175959.0 401290.0 0
179615.0 400915.0 0
181641.0 398603.0 0
185514.0 398646.0 0
183486.0 400533.0 0
189631.0 396784.0 0
187900.0 400084.0 0
191442.0 399833.0 0
194094.0 398409.0 0
196832.0 397611.0 0
199712.0 396356.0 0
198875.0 399484.0 0
202991.0 399989.0 0
207207.0 396448.0 0
206944.0 399509.0 0
210142.0 398272.0 0
211987.0 396636.0 0
216278.0 396661.0 0
220581.0 396285.0 0
223680.0 397230.0 0
225617.0 394440.0 0
228920.0 396483.0 0
226228.0 399893.0 0
232255.0 397135.0 0
235396.0 395650.0 0
238346.0 398032.0 0
243373.0 395792.0 0
247546.0 398719.0 0
251211.0 396718.0 0
255098.0 398401.0 0
260054.0 398555.0 0
264204.0 394691.0 0
268065.0 397357.0 0
271102.0 396663.0 0
273476.0 399794.0 0
274772.0 395911.0 0
278551.0 395049.0 0
277415.0 399319.0 0
281418.0 399113.0 0
284248.0 395808.0 0
288249.0 399073.0 0
291004.0 397016.0 0
293551.0 399204.0 0
294223.0 395853.0 0
298191.0 399433.0 0
301817.0 397153.0 0
305533.0 398795.0 0
314195.0 398173.0 0
309962.0 398862.0 0
317345.0 399496.0 0
320129.0 398478.0 0
323603.0 399278.0 0
324627.0 396601.0 0
327658.0 398621.0 0
326523.0 400762.0 0
332058.0 398022.0 0
331261.0 400600.0 0
334846.0 399351.0 0
336679.0 401339.0 0
154778.0 406419.0 0
159058.0 402835.0 0
156957.0 404413.0 0
158862.0 406375.0 0
162213.0 401927.0 0
161766.0 405448.0 0
165121.0 405367.0 0
166169.0 402284.0 0
168883.0 403343.0 0
167455.0 405709.0 0
173258.0 403018.0 0
170713.0 405394.0 0
174925.0 404959.0 0
177025.0 403806.0 0
180183.0 404480.0 0
184058.0 403714.0 0
188282.0 403030.0 0
195556.0 401445.0 0
192178.0 403079.0 0
193938.0 405891.0 0
196727.0 404544.0 0
199585.0 403283.0 0
202282.0 404536.0 0
205675.0 403644.0 0
209565.0 402407.0 0
213403.0 400694.0 0
215463.0 404480.0 0
217696.0 401120.0 0
219411.0 404792.0 0
221215.0 400453.0 0
223756.0 403648.0 0
230146.0 400087.0 0
227851.0 403735.0 0
231210.0 402922.0 0
233899.0 399955.0 0
234153.0 404756.0 0
236736.0 401496.0 0
239065.0 404266.0 0
241307.0 400650.0 0
243529.0 404103.0 0
244779.0 400596.0 0
247648.0 403512.0 0
250636.0 401016.0 0
253873.0 402873.0 0
257512.0 403406.0 0
261771.0 403777.0 0
264865.0 399965.0 0
266567.0 403104.0 0
269808.0 401154.0 0
272782.0 404292.0 0
276233.0 403522.0 0
280464.0 404110.0 0
284543.0 403074.0 0
285059.0 400314.0 0
288178.0 403505.0 0
291773.0 401416.0 0
291836.0 405056.0 0
296030.0 403737.0 0
300596.0 405766.0 0
301199.0 402168.0 0
304093.0 401684.0 0
308363.0 403047.0 0
312588.0 402774.0 0
312146.0 405702.0 0
315961.0 402256.0 0
318778.0 405958.0 0
315649.0 405747.0 0
319989.0 402711.0 0
322943.0 401597.0 0
323570.0 405602.0 0
325461.0 403212.0 0
328901.0 404948.0 0
329457.0 402242.0 0
333023.0 402411.0 0
332821.0 405774.0 0
335743.0 404172.0 0
338996.0 404892.0 0
339668.0 402442.0 0
342453.0 403845.0 0
341048.0 406713.0 0
345033.0 405463.0 0
148791.0 409280.0 0
146668.0 410720.0 0
151736.0 407262.0 0
151099.0 409783.0 0
154543.0 411662.0 0
155495.0 408850.0 0
158559.0 409043.0 0
165072.0 408382.0 0
161845.0 408961.0 0
165047.0 411753.0 0
168456.0 408178.0 0
167654.0 411085.0 0
172432.0 406932.0 0
175510.0 407608.0 0
171179.0 409823.0 0
174130.0 410797.0 0
179148.0 408044.0 0
182615.0 409510.0 0
185859.0 407152.0 0
189900.0 405946.0 0
188368.0 410604.0 0
191556.0 408296.0 0
195403.0 408333.0 0
193711.0 410791.0 0
197743.0 406989.0 0
197761.0 409816.0 0
200133.0 406755.0 0
200607.0 410108.0 0
204016.0 407804.0 0
208344.0 406889.0 0
211213.0 409138.0 0
212105.0 405618.0 0
214474.0 408855.0 0
217064.0 407271.0 0
218524.0 410162.0 0
221655.0 407376.0 0
222437.0 410474.0 0
225500.0 407419.0 0
227693.0 409533.0 0
230032.0 407055.0 0
233086.0 409347.0 0
236582.0 407695.0 0
238030.0 409682.0 0
241285.0 408342.0 0
245435.0 408016.0 0
248726.0 407706.0 0
251410.0 405633.0 0
251589.0 410293.0 0
255342.0 407742.0 0
258918.0 407203.0 0
262036.0 408980.0 0
265111.0 406246.0 0
269545.0 406454.0 0
273352.0 407823.0 0
275013.0 406520.0 0
277188.0 407671.0 0
280083.0 408138.0 0
284301.0 407256.0 0
288206.0 407343.0 0
290687.0 408048.0 0
290675.0 411265.0 0
293679.0 408408.0 0
297329.0 408521.0 0
301224.0 409588.0 0
304946.0 405873.0 0
304471.0 409838.0 0
307906.0 410746.0 0
309200.0 407475.0 0
311906.0 409733.0 0
314498.0 408952.0 0
317801.0 408590.0 0
321380.0 407941.0 0
324030.0 409679.0 0
320811.0 410737.0 0
327227.0 408185.0 0
331370.0 409214.0 0
334321.0 409956.0 0
336277.0 408381.0 0
337450.0 406557.0 0
343802.0 407699.0 0
340060.0 409257.0 0
343424.0 411080.0 0
346585.0 408786.0 0
347884.0 407221.0 0
348408.0 411266.0 0
350390.0 409134.0 0
352748.0 411130.0 0
139970.0 415033.0 0
142794.0 414118.0 0
144471.0 411889.0 0
143344.0 417429.0 0
145981.0 414410.0 0
147674.0 412780.0 0
147199.0 415918.0 0
149343.0 415360.0 0
150315.0 412908.0 0
153214.0 414339.0 0
158147.0 412530.0 0
157290.0 415504.0 0
161597.0 412479.0 0
162426.0 415660.0 0
169519.0 413164.0 0
166413.0 414771.0 0
172495.0 413368.0 0
170644.0 415624.0 0
173907.0 415130.0 0
177410.0 412686.0 0
185112.0 412018.0 0
181207.0 412960.0 0
184425.0 414903.0 0
187520.0 415098.0 0
191199.0 413778.0 0
194604.0 414810.0 0
196424.0 412422.0 0
199345.0 414600.0 0
203720.0 412981.0 0
207294.0 410649.0 0
207320.0 415127.0 0
210845.0 412750.0 0
215068.0 412638.0 0
218185.0 414307.0 0
221012.0 413723.0 0
225155.0 412071.0 0
229243.0 412139.0 0
226208.0 415162.0 0
232380.0 412893.0 0
234293.0 415206.0 0
236029.0 411974.0 0
240168.0 412698.0 0
244223.0 412001.0 0
247649.0 411487.0 0
250163.0 413964.0 0
252982.0 414594.0 0
255049.0 412027.0 0
258848.0 412092.0 0
262090.0 414228.0 0
263112.0 412352.0 0
266541.0 410600.0 0
269317.0 413485.0 0
271165.0 410502.0 0
272688.0 414028.0 0
275446.0 410883.0 0
275295.0 414559.0 0
278980.0 411103.0 0
278771.0 415375.0 0
281586.0 413247.0 0
282353.0 410114.0 0
283930.0 415180.0 0
284470.0 412089.0 0
287625.0 414956.0 0
287045.0 410597.0 0
292091.0 415966.0 0
294636.0 412298.0 0
296536.0 415680.0 0
298473.0 412065.0 0
299453.0 415173.0 0
302087.0 412813.0 0
305670.0 413803.0 0
309134.0 415837.0 0
311026.0 412518.0 0
312795.0 416506.0 0
317670.0 411917.0 0
314373.0 413245.0 0
316002.0 416540.0 0
318585.0 415522.0 0
323839.0 412791.0 0
320979.0 414093.0 0
322180.0 416397.0 0
327513.0 412361.0 0
324777.0 416203.0 0
327889.0 415962.0 0
331566.0 412736.0 0
331074.0 416166.0 0
335221.0 413562.0 0
337995.0 411809.0 0
339055.0 415673.0 0
337338.0 416618.0 0
340987.0 413274.0 0
344019.0 415509.0 0
341457.0 416044.0 0
345871.0 413019.0 0
348838.0 416330.0 0
350783.0 413966.0 0
353492.0 415652.0 0
355399.0 412708.0 0
357594.0 414507.0 0
360741.0 415086.0 0
132847.0 419674.0 0
130252.0 421848.0 0
135491.0 418174.0 0
137987.0 416873.0 0
136509.0 421014.0 0
138824.0 420789.0 0
140721.0 418748.0 0
143258.0 421879.0 0
146117.0 418071.0 0
148346.0 420430.0 0
150135.0 417101.0 0
153847.0 417396.0 0
151880.0 420527.0 0
159185.0 417487.0 0
156475.0 420004.0 0
158401.0 421832.0 0
160780.0 419629.0 0
163872.0 418666.0 0
167281.0 417629.0 0
167539.0 420771.0 0
170864.0 418133.0 0
174304.0 418000.0 0
177589.0 416614.0 0
177816.0 420375.0 0
180907.0 416742.0 0
181188.0 420063.0 0
184541.0 418204.0 0
188142.0 418138.0 0
185728.0 420722.0 0
191380.0 417612.0 0
192555.0 420668.0 0
195609.0 417822.0 0
199343.0 418768.0 0
203528.0 417651.0 0
205427.0 421513.0 0
208608.0 418273.0 0
212029.0 416319.0 0
212779.0 419744.0 0
215816.0 416636.0 0
219889.0 418371.0 0
216059.0 420335.0 0
223402.0 415625.0 0
224488.0 419514.0 0
229664.0 417365.0 0
234108.0 418423.0 0
237718.0 416415.0 0
240588.0 420134.0 0
242544.0 416098.0 0
244806.0 420562.0 0
246875.0 416187.0 0
251330.0 418853.0 0
256292.0 416677.0 0
260553.0 417315.0 0
264046.0 419727.0 0
265701.0 415703.0 0
270728.0 417421.0 0
275533.0 418411.0 0
282011.0 417137.0 0
285171.0 419304.0 0
288836.0 418967.0 0
295065.0 418802.0 0
298834.0 418903.0 0
302597.0 416726.0 0
302505.0 420765.0 0
305897.0 418750.0 0
309867.0 419876.0 0
313354.0 419976.0 0
317248.0 420041.0 0
320567.0 418798.0 0
324624.0 419273.0 0
327737.0 418857.0 0
334287.0 417015.0 0
331216.0 419014.0 0
335032.0 420145.0 0
338089.0 419220.0 0
340051.0 418059.0 0
342722.0 419132.0 0
341932.0 421817.0 0
346097.0 418183.0 0
347019.0 421036.0 0
353941.0 418275.0 0
350293.0 421858.0 0
351040.0 419041.0 0
357361.0 417444.0 0
355190.0 421027.0 0
359516.0 420244.0 0
362510.0 417557.0 0
364570.0 421115.0 0
365369.0 417926.0 0
367290.0 419391.0 0
369324.0 421514.0 0
121538.0 426987.0 0
124251.0 425595.0 0
127762.0 424117.0 0
134179.0 423100.0 0
131763.0 425038.0 0
135944.0 425661.0 0
139966.0 423730.0 0
140810.0 426776.0 0
143417.0 426113.0 0
146472.0 424468.0 0
153966.0 423530.0 0
150377.0 425012.0 0
157401.0 424187.0 0
161179.0 422661.0 0
164574.0 422519.0 0
160362.0 425312.0 0
163118.0 426515.0 0
166915.0 425175.0 0
170507.0 421945.0 0
174212.0 421767.0 0
170346.0 425840.0 0
173812.0 425694.0 0
177417.0 424220.0 0
180553.0 423890.0 0
183594.0 422575.0 0
185289.0 425862.0 0
188949.0 422505.0 0
192532.0 424848.0 0
195878.0 422085.0 0
200485.0 422985.0 0
204384.0 425585.0 0
207168.0 425551.0 0
209831.0 422762.0 0
214013.0 424053.0 0
218365.0 422662.0 0
221571.0 422439.0 0
223418.0 426079.0 0
224980.0 423092.0 0
228418.0 422375.0 0
227172.0 425117.0 0
232148.0 422184.0 0
234572.0 425171.0 0
236296.0 421002.0 0
238424.0 424688.0 0
242437.0 424261.0 0
248092.0 421329.0 0
245942.0 424867.0 0
249727.0 424917.0 0
252660.0 423504.0 0
255077.0 420976.0 0
258485.0 421513.0 0
261607.0 422042.0 0
264522.0 424814.0 0
268144.0 421413.0 0
271073.0 425062.0 0
272876.0 421699.0 0
274723.0 425678.0 0
276577.0 422589.0 0
280705.0 421252.0 0
285026.0 423810.0 0
287746.0 422113.0 0
289481.0 426021.0 0
291710.0 421421.0 0
293945.0 425696.0 0
295768.0 422270.0 0
299384.0 422923.0 0
297298.0 425509.0 0
302513.0 424037.0 0
306741.0 423373.0 0
309635.0 426686.0 0
311357.0 423625.0 0
315147.0 423549.0 0
318852.0 423271.0 0
317834.0 425564.0 0
322079.0 422418.0 0
325691.0 422358.0 0
328812.0 421527.0 0
326158.0 425547.0 0
329340.0 424836.0 0
332350.0 422259.0 0
334038.0 425176.0 0
338831.0 421971.0 0
336988.0 423643.0 0
339041.0 426598.0 0
341244.0 424983.0 0
344549.0 426601.0 0
345384.0 423394.0 0
348343.0 424500.0 0
350671.0 426765.0 0
353670.0 424343.0 0
357703.0 423654.0 0
359424.0 426320.0 0
361608.0 423070.0 0
363467.0 425551.0 0
366682.0 423734.0 0
368039.0 426551.0 0
371974.0 423308.0 0
375167.0 424074.0 0
371830.0 426538.0 0
376826.0 426327.0 0
116502.0 429124.0 0
118590.0 428320.0 0
114678.0 431233.0 0
117291.0 431640.0 0
120500.0 430164.0 0
124944.0 429640.0 0
128911.0 427959.0 0
129335.0 431321.0 0
132522.0 427873.0 0
133808.0 430353.0 0
137496.0 428811.0 0
142459.0 429278.0 0
139742.0 430872.0 0
144854.0 428679.0 0
147690.0 429165.0 0
150969.0 427969.0 0
154680.0 427401.0 0
149966.0 431482.0 0
153374.0 430909.0 0
158208.0 427844.0 0
157129.0 431704.0 0
161747.0 430284.0 0
166267.0 428439.0 0
169908.0 429435.0 0
173926.0 429560.0 0
177908.0 428017.0 0
179843.0 431098.0 0
181178.0 426816.0 0
182611.0 429327.0 0
189216.0 427238.0 0
186288.0 430325.0 0
191884.0 429493.0 0
196442.0 427602.0 0
201429.0 428409.0 0
206153.0 429825.0 0
210047.0 427075.0 0
213261.0 428637.0 0
216513.0 426237.0 0
217135.0 429838.0 0
219643.0 426000.0 0
220874.0 430389.0 0
224795.0 430806.0 0
226994.0 427884.0 0
228645.0 430637.0 0
230492.0 426692.0 0
233324.0 428024.0 0
236626.0 429098.0 0
240911.0 427830.0 0
244009.0 427274.0 0
243342.0 430181.0 0
247093.0 429319.0 0
251784.0 429279.0 0
256138.0 426279.0 0
259517.0 430822.0 0
260598.0 426277.0 0
263864.0 430329.0 0
267972.0 427219.0 0
272220.0 429719.0 0
276377.0 429324.0 0
279439.0 426532.0 0
282369.0 430088.0 0
282972.0 426143.0 0
285592.0 428549.0 0
293631.0 429979.0 0
297434.0 428888.0 0
300331.0 426677.0 0
301003.0 430699.0 0
304150.0 427607.0 0
307637.0 428710.0 0
313944.0 427399.0 0
311077.0 429835.0 0
315176.0 431378.0 0
318612.0 428854.0 0
322240.0 426452.0 0
321275.0 431388.0 0
324157.0 429987.0 0
327189.0 428520.0 0
329229.0 430959.0 0
331463.0 427973.0 0
334803.0 431222.0 0
336292.0 427714.0 0
339199.0 430994.0 0
342072.0 429029.0 0
344216.0 431830.0 0
347750.0 429018.0 0
351330.0 431779.0 0
352783.0 429329.0 0
355552.0 431923.0 0
356028.0 428044.0 0
359059.0 431342.0 0
364271.0 428663.0 0
360959.0 429336.0 0
368058.0 429717.0 0
372268.0 429606.0 0
379633.0 427925.0 0
375724.0 429790.0 0
379951.0 430777.0 0
382517.0 428292.0 0
384184.0 429924.0 0
383033.0 432371.0 0
386687.0 431913.0 0
103832.0 437494.0 0
107263.0 436307.0 0
109292.0 433932.0 0
112517.0 433415.0 0
112224.0 436439.0 0
118075.0 434227.0 0
115689.0 435113.0 0
118833.0 437155.0 0
120869.0 433056.0 0
121367.0 436171.0 0
124601.0 432735.0 0
128092.0 433481.0 0
124786.0 436134.0 0
128735.0 437066.0 0
131712.0 432481.0 0
132816.0 435351.0 0
135942.0 432756.0 0
135840.0 437212.0 0
138947.0 434727.0 0
143023.0 432892.0 0
144445.0 436216.0 0
146264.0 432193.0 0
148754.0 435270.0 0
152857.0 434701.0 0
156416.0 435229.0 0
159925.0 434280.0 0
162887.0 434312.0 0
165983.0 431976.0 0
166190.0 435686.0 0
169462.0 433312.0 0
172774.0 432971.0 0
172092.0 435906.0 0
176577.0 432619.0 0
175100.0 435574.0 0
178908.0 435078.0 0
182970.0 433790.0 0
186626.0 435281.0 0
189292.0 432141.0 0
190660.0 435797.0 0
192760.0 432962.0 0
194936.0 436073.0 0
195057.0 432036.0 0
198308.0 432435.0 0
198833.0 436647.0 0
201819.0 431809.0 0
201215.0 434489.0 0
204082.0 433804.0 0
207181.0 435127.0 0
210147.0 431604.0 0
211283.0 436169.0 0
214320.0 433069.0 0
218218.0 434268.0 0
222294.0 434913.0 0
226307.0 434590.0 0
229694.0 433900.0 0
232427.0 431304.0 0
235334.0 433659.0 0
239523.0 432687.0 0
244822.0 434806.0 0
249786.0 433670.0 0
253539.0 434359.0 0
255782.0 431534.0 0
257781.0 434954.0 0
261760.0 435306.0 0
268428.0 431675.0 0
266348.0 435305.0 0
271371.0 435144.0 0
275225.0 433210.0 0
278228.0 434606.0 0
279262.0 431458.0 0
281758.0 434092.0 0
285100.0 433167.0 0
289541.0 431611.0 0
292338.0 435376.0 0
294288.0 433339.0 0
297764.0 433292.0 0
304834.0 431739.0 0
302019.0 435002.0 0
308655.0 432023.0 0
306688.0 435556.0 0
312599.0 432671.0 0
310784.0 435571.0 0
315111.0 435623.0 0
318202.0 433370.0 0
323232.0 434907.0 0
326487.0 432489.0 0
328442.0 435108.0 0
331293.0 433113.0 0
332274.0 435596.0 0
335764.0 435617.0 0
339686.0 434655.0 0
342874.0 434456.0 0
345311.0 436397.0 0
347677.0 433967.0 0
350061.0 436976.0 0
352621.0 434779.0 0
356211.0 435549.0 0
360185.0 434359.0 0
363756.0 432303.0 0
363433.0 435862.0 0
367672.0 432866.0 0
367420.0 436527.0 0
371654.0 432929.0 0
374982.0 433059.0 0
371950.0 436878.0 0
375147.0 436113.0 0
377928.0 432721.0 0
378593.0 436228.0 0
381673.0 434913.0 0
384914.0 434999.0 0
383041.0 437061.0 0
388799.0 434156.0 0
387192.0 436947.0 0
391910.0 435418.0 0
395147.0 437366.0 0
95449.6 442366.0 0
98756.5 440816.0 0
101314.0 439339.0 0
102836.0 441420.0 0
105954.0 440108.0 0
109599.0 438090.0 0
112204.0 439815.0 0
115644.0 437600.0 0
115705.0 440723.0 0
119566.0 439821.0 0
122966.0 439214.0 0
126418.0 440235.0 0
132122.0 438953.0 0
130139.0 441635.0 0
134215.0 439845.0 0
137650.0 440191.0 0
140730.0 437915.0 0
141212.0 441761.0 0
144654.0 440381.0 0
148425.0 439044.0 0
152686.0 438069.0 0
151353.0 441035.0 0
159396.0 438016.0 0
155662.0 438739.0 0
162853.0 437589.0 0
159718.0 441538.0 0
163739.0 441362.0 0
169024.0 437584.0 0
166040.0 438614.0 0
168020.0 441635.0 0
172630.0 439330.0 0
177083.0 438906.0 0
181122.0 437361.0 0
180738.0 441091.0 0
183857.0 438223.0 0
187318.0 438931.0 0
190853.0 439387.0 0
194055.0 439955.0 0
197901.0 440920.0 0
203161.0 438447.0 0
207809.0 439402.0 0
212039.0 440514.0 0
215506.0 437547.0 0
219537.0 438704.0 0
224556.0 439763.0 0
228523.0 437269.0 0
229735.0 440439.0 0
232477.0 436603.0 0
233818.0 440942.0 0
236956.0 437430.0 0
240386.0 436275.0 0
241446.0 439595.0 0
248515.0 437794.0 0
245480.0 440711.0 0
251781.0 437775.0 0
255644.0 437848.0 0
264713.0 438811.0 0
268734.0 438857.0 0
272589.0 438798.0 0
275468.0 436918.0 0
279656.0 437886.0 0
284333.0 438248.0 0
288447.0 436570.0 0
288464.0 441439.0 0
292415.0 440021.0 0
299459.0 437067.0 0
296039.0 437244.0 0
298753.0 440096.0 0
301819.0 439508.0 0
304830.0 438354.0 0
309197.0 440042.0 0
312792.0 441749.0 0
313061.0 438530.0 0
316479.0 440507.0 0
319484.0 437426.0 0
320941.0 441410.0 0
323525.0 439455.0 0
326347.0 437727.0 0
327566.0 441123.0 0
330416.0 438273.0 0
334024.0 438680.0 0
335966.0 440518.0 0
338730.0 438868.0 0
342227.0 437839.0 0
343813.0 440915.0 0
347247.0 439558.0 0
351500.0 440915.0 0
354032.0 438643.0 0
356786.0 441244.0 0
359170.0 438507.0 0
361441.0 442062.0 0
362659.0 439098.0 0
366735.0 440768.0 0
370750.0 440452.0 0
374367.0 441086.0 0
376052.0 438954.0 0
380043.0 439855.0 0
384933.0 438453.0 0
383668.0 441629.0 0
387068.0 441593.0 0
388461.0 439685.0 0
391971.0 439341.0 0
394890.0 441485.0 0
397744.0 438822.0 0
400089.0 441328.0 0
93440.2 444662.0 0
90462.9 445950.0 0
98215.9 443633.0 0
97704.9 447026.0 0
102049.0 444142.0 0
101413.0 446900.0 0
107479.0 442808.0 0
104973.0 445294.0 0
106851.0 447440.0 0
108913.0 446178.0 0
110638.0 442678.0 0
112454.0 444803.0 0
116217.0 444517.0 0
119103.0 446950.0 0
120030.0 442872.0 0
123089.0 442340.0 0
121547.0 445326.0 0
126496.0 443679.0 0
124292.0 447206.0 0
130527.0 444341.0 0
133207.0 442746.0 0
129272.0 445977.0 0
132450.0 445528.0 0
136548.0 443619.0 0
135455.0 447284.0 0
139145.0 447405.0 0
140016.0 444583.0 0
143754.0 445521.0 0
147551.0 443646.0 0
147258.0 446634.0 0
151428.0 445536.0 0
155526.0 442202.0 0
155850.0 446160.0 0
159493.0 445489.0 0
163541.0 445092.0 0
167651.0 445911.0 0
171599.0 442814.0 0
170928.0 445331.0 0
175568.0 443465.0 0
179285.0 444717.0 0
182684.0 444805.0 0
184897.0 441920.0 0
188470.0 442768.0 0
191658.0 442522.0 0
190640.0 446091.0 0
194541.0 443988.0 0
197484.0 445984.0 0
201158.0 443577.0 0
205217.0 442467.0 0
206809.0 444737.0 0
208851.0 442993.0 0
212594.0 445226.0 0
216299.0 441781.0 0
217355.0 446008.0 0
220321.0 443245.0 0
223908.0 445453.0 0
227521.0 443698.0 0
231280.0 444553.0 0
235130.0 445211.0 0
237911.0 442212.0 0
238644.0 446172.0 0
242162.0 444617.0 0
249586.0 441491.0 0
246749.0 444904.0 0
253838.0 442333.0 0
250125.0 445125.0 0
260196.0 441275.0 0
256690.0 445783.0 0
264123.0 445767.0 0
266199.0 441851.0 0
268045.0 445329.0 0
271002.0 442608.0 0
274720.0 445921.0 0
276341.0 441628.0 0
281436.0 442685.0 0
285150.0 443101.0 0
288090.0 445552.0 0
292114.0 445232.0 0
296206.0 442492.0 0
301029.0 444165.0 0
305526.0 442283.0 0
306067.0 446159.0 0
310734.0 445117.0 0
314670.0 444397.0 0
319099.0 444908.0 0
322978.0 446429.0 0
324424.0 443226.0 0
326209.0 446551.0 0
329052.0 445107.0 0
332072.0 442186.0 0
333110.0 445668.0 0
340150.0 442686.0 0
336264.0 443963.0 0
339597.0 446455.0 0
343535.0 443967.0 0
343033.0 446618.0 0
346318.0 444270.0 0
349062.0 443055.0 0
350702.0 445680.0 0
353801.0 443698.0 0
356494.0 446684.0 0
359153.0 444162.0 0
364144.0 443716.0 0
362192.0 445437.0 0
366060.0 446900.0 0
368773.0 444604.0 0
370118.0 447347.0 0
372391.0 444290.0 0
377816.0 442917.0 0
381569.0 443984.0 0
375763.0 445862.0 0
380138.0 445961.0 0
382785.0 445756.0 0
385377.0 445529.0 0
390904.0 442770.0 0
388587.0 444558.0 0
388064.0 447583.0 0
394197.0 445068.0 0
391784.0 446822.0 0
397418.0 443316.0 0
396577.0 447374.0 0
399388.0 445858.0 0
403122.0 443416.0 0
403670.0 446846.0 0
406650.0 444330.0 0
408983.0 446677.0 0
82298.7 452319.0 0
85366.2 450196.0 0
88166.4 447997.0 0
87502.5 452310.0 0
90765.5 450121.0 0
93990.7 448096.0 0
95415.6 451797.0 0
103520.0 449647.0 0
99274.3 450329.0 0
107582.0 450040.0 0
111219.0 447981.0 0
110690.0 451543.0 0
114892.0 448601.0 0
114347.0 452048.0 0
118130.0 449555.0 0
117713.0 452184.0 0
121131.0 449403.0 0
127823.0 448089.0 0
124932.0 450893.0 0
128372.0 450421.0 0
131288.0 448271.0 0
133596.0 450114.0 0
137363.0 450881.0 0
141803.0 449469.0 0
145885.0 449031.0 0
148750.0 448335.0 0
151504.0 449518.0 0
154340.0 448886.0 0
157465.0 449317.0 0
161096.0 449389.0 0
164935.0 448972.0 0
167788.0 451172.0 0
169863.0 448507.0 0
171180.0 450581.0 0
173085.0 447568.0 0
173961.0 451571.0 0
177215.0 448399.0 0
181443.0 448348.0 0
183292.0 451320.0 0
186299.0 447173.0 0
186538.0 451584.0 0
190110.0 450350.0 0
193988.0 448606.0 0
197326.0 450342.0 0
199956.0 447723.0 0
201076.0 451200.0 0
203913.0 446987.0 0
208517.0 447137.0 0
210981.0 450776.0 0
214600.0 448740.0 0
217562.0 449738.0 0
220423.0 447505.0 0
220280.0 451053.0 0
223761.0 450034.0 0
228181.0 448630.0 0
232931.0 448796.0 0
236579.0 448444.0 0
240353.0 449895.0 0
244174.0 448351.0 0
248344.0 449539.0 0
252906.0 447368.0 0
256017.0 449728.0 0
260083.0 448187.0 0
263780.0 450067.0 0
267198.0 449282.0 0
271234.0 447819.0 0
275536.0 450357.0 0
279520.0 447358.0 0
282362.0 451220.0 0
284565.0 447389.0 0
289477.0 449779.0 0
293604.0 449915.0 0
296319.0 446821.0 0
297276.0 451405.0 0
299900.0 448208.0 0
301142.0 451292.0 0
303658.0 448903.0 0
307464.0 450542.0 0
308990.0 448197.0 0
311483.0 450195.0 0
315642.0 448658.0 0
320659.0 449300.0 0
324849.0 449734.0 0
328333.0 449269.0 0
331944.0 448435.0 0
330708.0 451745.0 0
334315.0 451877.0 0
336503.0 448322.0 0
340648.0 449586.0 0
344852.0 449855.0 0
347741.0 447320.0 0
348115.0 451027.0 0
350424.0 449530.0 0
352587.0 451046.0 0
353230.0 448331.0 0
355472.0 450614.0 0
360205.0 447758.0 0
358499.0 450251.0 0
363217.0 448148.0 0
362624.0 451794.0 0
368645.0 448789.0 0
366510.0 451231.0 0
370773.0 450906.0 0
373075.0 448598.0 0
378146.0 448242.0 0
376055.0 451493.0 0
380792.0 449846.0 0
383211.0 448429.0 0
384694.0 452284.0 0
386658.0 449444.0 0
389847.0 448437.0 0
389677.0 450999.0 0
392722.0 449779.0 0
394819.0 449241.0 0
398748.0 450206.0 0
396469.0 452181.0 0
401299.0 448574.0 0
403768.0 450997.0 0
406198.0 448759.0 0
408378.0 451427.0 0
411063.0 452317.0 0
411979.0 448841.0 0
415179.0 450630.0 0
418253.0 451779.0 0
75449.8 455240.0 0
78935.7 454009.0 0
79284.7 457122.0 0
84324.9 455472.0 0
88048.5 455365.0 0
91530.6 453227.0 0
90088.0 457860.0 0
93065.0 455797.0 0
96531.2 454878.0 0
100099.0 453841.0 0
100649.0 456698.0 0
103957.0 453320.0 0
107400.0 453084.0 0
104451.0 456507.0 0
108241.0 455993.0 0
110816.0 454301.0 0
111154.0 457702.0 0
114268.0 455409.0 0
117907.0 455340.0 0
121471.0 453086.0 0
121632.0 457552.0 0
127016.0 453091.0 0
124782.0 455123.0 0
128966.0 456304.0 0
130893.0 452471.0 0
132984.0 455958.0 0
134479.0 452893.0 0
136941.0 455290.0 0
139950.0 452930.0 0
140935.0 456105.0 0
144230.0 457202.0 0
144380.0 453060.0 0
149137.0 452674.0 0
147310.0 456851.0 0
154406.0 453048.0 0
151107.0 456711.0 0
154270.0 457170.0 0
158773.0 452668.0 0
157067.0 456086.0 0
163417.0 453219.0 0
160089.0 456015.0 0
167000.0 455229.0 0
170675.0 453627.0 0
174095.0 455636.0 0
178809.0 453318.0 0
183941.0 455653.0 0
188774.0 454392.0 0
193505.0 453609.0 0
198004.0 454752.0 0
202115.0 454927.0 0
205849.0 451541.0 0
208904.0 454693.0 0
205711.0 456069.0 0
212526.0 455268.0 0
214754.0 451826.0 0
217497.0 454723.0 0
222692.0 454354.0 0
226638.0 453294.0 0
228920.0 456272.0 0
230897.0 452951.0 0
235832.0 452833.0 0
244253.0 452606.0 0
240422.0 454462.0 0
248347.0 455558.0 0
252304.0 452215.0 0
255830.0 453640.0 0
258485.0 452300.0 0
261736.0 453479.0 0
265916.0 453474.0 0
271238.0 452817.0 0
275709.0 454282.0 0
279249.0 452742.0 0
283432.0 455968.0 0
285802.0 451917.0 0
288763.0 455629.0 0
291985.0 453066.0 0
294431.0 453216.0 0
297096.0 455742.0 0
300635.0 454667.0 0
304857.0 453949.0 0
310084.0 455504.0 0
314389.0 452853.0 0
316599.0 455456.0 0
319242.0 452843.0 0
323904.0 453371.0 0
327929.0 453028.0 0
331858.0 455333.0 0
338591.0 452573.0 0
335887.0 455070.0 0
339296.0 457144.0 0
342852.0 452544.0 0
341373.0 454769.0 0
344220.0 456669.0 0
346572.0 453845.0 0
350755.0 453002.0 0
353693.0 452376.0 0
354423.0 456055.0 0
358827.0 454152.0 0
355942.0 452753.0 0
362966.0 456519.0 0
366008.0 454751.0 0
369312.0 453986.0 0
372854.0 454081.0 0
380633.0 453531.0 0
376837.0 456200.0 0
385887.0 455845.0 0
382677.0 457313.0 0
388346.0 453207.0 0
390578.0 456006.0 0
393294.0 453444.0 0
396127.0 456942.0 0
398873.0 454984.0 0
401343.0 457545.0 0
401288.0 452980.0 0
403587.0 455270.0 0
405659.0 453134.0 0
406152.0 457265.0 0
408317.0 455034.0 0
411664.0 454748.0 0
414190.0 453561.0 0
414400.0 457358.0 0
415740.0 455320.0 0
418086.0 455358.0 0
421160.0 454044.0 0
422304.0 457745.0 0
423992.0 455088.0 0
426580.0 456419.0 0
428640.0 457251.0 0
67018.0 461732.0 0
68843.4 458616.0 0
72373.1 458274.0 0
70905.1 461855.0 0
75869.6 458094.0 0
76619.1 460793.0 0
74287.4 461844.0 0
82751.0 458693.0 0
79276.5 460577.0 0
81960.9 462328.0 0
86967.7 458064.0 0
85877.1 460763.0 0
89676.4 461527.0 0
93627.4 458708.0 0
97275.3 458241.0 0
96526.9 461442.0 0
93774.1 461978.0 0
102445.0 459354.0 0
99734.8 460398.0 0
100511.0 462770.0 0
106648.0 459620.0 0
109809.0 461095.0 0
113179.0 461901.0 0
115019.0 459129.0 0
118386.0 458619.0 0
119658.0 461349.0 0
122906.0 461365.0 0
125570.0 458396.0 0
127550.0 461670.0 0
130614.0 459284.0 0
134420.0 459242.0 0
138361.0 459137.0 0
139810.0 462437.0 0
142227.0 459704.0 0
145348.0 459935.0 0
149019.0 459918.0 0
152713.0 460395.0 0
156804.0 459556.0 0
163717.0 457511.0 0
160481.0 459424.0 0
166622.0 459094.0 0
168846.0 462151.0 0
169958.0 457511.0 0
173547.0 460654.0 0
177171.0 457842.0 0
178247.0 461226.0 0
180322.0 457888.0 0
182723.0 461362.0 0
187096.0 458907.0 0
190550.0 461913.0 0
191070.0 457616.0 0
194678.0 459156.0 0
198613.0 458372.0 0
202679.0 459477.0 0
208822.0 459177.0 0
214373.0 460126.0 0
220400.0 458952.0 0
225378.0 457765.0 0
229141.0 460714.0 0
233052.0 457782.0 0
237455.0 456800.0 0
236800.0 460841.0 0
239971.0 458315.0 0
243539.0 457452.0 0
246451.0 461616.0 0
250841.0 459983.0 0
253543.0 456870.0 0
258342.0 457286.0 0
255066.0 461596.0 0
263860.0 458844.0 0
268578.0 456844.0 0
268556.0 460398.0 0
273424.0 458722.0 0
278615.0 457266.0 0
281645.0 461324.0 0
286786.0 461065.0 0
290795.0 460018.0 0
293453.0 457087.0 0
293921.0 461692.0 0
297745.0 460305.0 0
303126.0 457447.0 0
300411.0 457964.0 0
302524.0 460985.0 0
306038.0 458793.0 0
309604.0 461228.0 0
314175.0 457086.0 0
313432.0 460375.0 0
319319.0 457114.0 0
317045.0 459065.0 0
320342.0 460396.0 0
322680.0 457273.0 0
324817.0 461540.0 0
327651.0 457506.0 0
331746.0 459341.0 0
335239.0 458255.0 0
338776.0 461451.0 0
342534.0 460096.0 0
344767.0 462109.0 0
349675.0 457179.0 0
346507.0 460099.0 0
354584.0 460027.0 0
358551.0 458157.0 0
358143.0 461976.0 0
362106.0 460766.0 0
365995.0 459374.0 0
368732.0 457530.0 0
369351.0 460942.0 0
372808.0 458303.0 0
379555.0 458839.0 0
376358.0 461041.0 0
380982.0 462114.0 0
384475.0 460882.0 0
388009.0 459348.0 0
393534.0 458848.0 0
391345.0 462326.0 0
396282.0 462891.0 0
398830.0 460093.0 0
403835.0 459352.0 0
401733.0 462304.0 0
405704.0 462762.0 0
411139.0 458234.0 0
408249.0 459717.0 0
416177.0 459911.0 0
412913.0 461524.0 0
419235.0 458485.0 0
421185.0 461313.0 0
424634.0 458223.0 0
424645.0 460788.0 0
430637.0 459020.0 0
427952.0 460481.0 0
430986.0 462878.0 0
432813.0 460795.0 0
435469.0 462513.0 0
56741.0 466895.0 0
60087.7 465519.0 0
63409.6 463520.0 0
67514.6 465130.0 0
64397.3 466276.0 0
71946.8 465164.0 0
69064.4 467999.0 0
75793.6 464610.0 0
77563.1 467331.0 0
79272.6 463945.0 0
81576.8 467417.0 0
84456.6 464250.0 0
88087.6 465675.0 0
85803.7 468078.0 0
91947.2 464665.0 0
97817.1 463676.0 0
94966.6 465181.0 0
100209.0 466686.0 0
104065.0 463061.0 0
107622.0 463913.0 0
104605.0 467066.0 0
107650.0 466565.0 0
110753.0 465146.0 0
116867.0 462827.0 0
113944.0 465097.0 0
116950.0 465603.0 0
119785.0 464695.0 0
123928.0 465819.0 0
128692.0 465637.0 0
131789.0 462632.0 0
132874.0 466326.0 0
135951.0 463110.0 0
136325.0 466269.0 0
143419.0 463175.0 0
139544.0 466065.0 0
143609.0 466930.0 0
146894.0 462466.0 0
146583.0 465002.0 0
150391.0 463963.0 0
152965.0 467329.0 0
158663.0 462704.0 0
154821.0 463546.0 0
158116.0 467031.0 0
163394.0 462792.0 0
167434.0 466350.0 0
172013.0 465329.0 0
176029.0 464674.0 0
179671.0 465115.0 0
183615.0 466807.0 0
186617.0 463380.0 0
188691.0 466665.0 0
193795.0 465219.0 0
197978.0 462358.0 0
198169.0 466393.0 0
201653.0 464709.0 0
205862.0 462991.0 0
210111.0 464628.0 0
214529.0 465043.0 0
218411.0 463347.0 0
221001.0 466382.0 0
224300.0 462853.0 0
229062.0 465674.0 0
233108.0 463215.0 0
237051.0 465294.0 0
241242.0 462339.0 0
243681.0 466075.0 0
240245.0 466299.0 0
247501.0 466063.0 0
251074.0 464280.0 0
257380.0 464501.0 0
259622.0 462139.0 0
263105.0 464074.0 0
266885.0 463774.0 0
270831.0 462850.0 0
274782.0 464416.0 0
277541.0 461609.0 0
279156.0 465912.0 0
283809.0 465888.0 0
288083.0 466473.0 0
290827.0 463756.0 0
293716.0 465190.0 0
297085.0 464408.0 0
300199.0 463647.0 0
303702.0 465261.0 0
306191.0 462466.0 0
308674.0 466832.0 0
313151.0 464724.0 0
316965.0 462551.0 0
316920.0 466506.0 0
321297.0 464938.0 0
326270.0 466270.0 0
329675.0 463260.0 0
334744.0 462191.0 0
334096.0 466572.0 0
338514.0 465602.0 0
342750.0 464618.0 0
347080.0 464295.0 0
350676.0 467115.0 0
350819.0 462109.0 0
354730.0 464670.0 0
358667.0 465845.0 0
361397.0 464116.0 0
362749.0 466986.0 0
366235.0 463557.0 0
369920.0 466667.0 0
372504.0 463500.0 0
378175.0 465074.0 0
386009.0 463976.0 0
381448.0 467714.0 0
383232.0 465155.0 0
387400.0 462920.0 0
388865.0 465500.0 0
393034.0 466417.0 0
400314.0 465151.0 0
396874.0 467426.0 0
403869.0 465653.0 0
402370.0 467593.0 0
410040.0 463347.0 0
407779.0 466360.0 0
411622.0 466273.0 0
414655.0 464319.0 0
418011.0 463613.0 0
417947.0 467274.0 0
420910.0 465682.0 0
422734.0 463668.0 0
425191.0 464927.0 0
427440.0 463305.0 0
429757.0 465096.0 0
428002.0 467077.0 0
433960.0 464935.0 0
432544.0 467403.0 0
436717.0 466284.0 0
438342.0 463972.0 0
440789.0 465936.0 0
439056.0 468284.0 0
443577.0 467654.0 0
46568.2 473436.0 0
49478.3 471431.0 0
53743.8 469838.0 0
57384.9 469395.0 0
52170.9 472914.0 0
56182.8 472577.0 0
61130.6 468753.0 0
58195.0 471705.0 0
61250.3 472359.0 0
65360.9 469022.0 0
64956.7 471580.0 0
71193.5 471928.0 0
74528.8 468204.0 0
75743.7 472171.0 0
77741.4 470219.0 0
80595.4 472974.0 0
84332.6 471363.0 0
88605.9 470303.0 0
91729.8 468039.0 0
90567.4 473148.0 0
96519.8 468608.0 0
93341.5 471427.0 0
98088.6 471632.0 0
102023.0 470275.0 0
106547.0 470279.0 0
110574.0 468991.0 0
114938.0 467865.0 0
114396.0 472581.0 0
118877.0 468482.0 0
122954.0 470816.0 0
126671.0 468658.0 0
127686.0 471803.0 0
129161.0 468592.0 0
131923.0 470016.0 0
136342.0 469301.0 0
134682.0 472459.0 0
140401.0 470200.0 0
144437.0 470624.0 0
148358.0 468443.0 0
151363.0 471087.0 0
154788.0 470634.0 0
162793.0 467631.0 0
165482.0 471211.0 0
171052.0 470104.0 0
175334.0 467970.0 0
175766.0 471913.0 0
179071.0 469048.0 0
182271.0 470826.0 0
186167.0 470718.0 0
191290.0 470755.0 0
196318.0 469749.0 0
200856.0 469184.0 0
205249.0 467349.0 0
208397.0 469250.0 0
212627.0 469414.0 0
216176.0 471458.0 0
216969.0 467672.0 0
220079.0 470405.0 0
224880.0 468606.0 0
228862.0 470729.0 0
233401.0 468530.0 0
237463.0 469069.0 0
241038.0 469877.0 0
245761.0 470474.0 0
250436.0 469072.0 0
254745.0 466971.0 0
257081.0 469963.0 0
260048.0 467377.0 0
265099.0 468377.0 0
270576.0 467556.0 0
273014.0 471492.0 0
275611.0 468626.0 0
279234.0 470059.0 0
276327.0 471687.0 0
283898.0 470909.0 0
289391.0 471157.0 0
291849.0 467323.0 0
293719.0 470363.0 0
295753.0 467908.0 0
300169.0 467946.0 0
304353.0 469597.0 0
310811.0 470858.0 0
314365.0 469764.0 0
319281.0 469618.0 0
323283.0 468820.0 0
326820.0 470367.0 0
330115.0 468579.0 0
333936.0 471010.0 0
338101.0 469494.0 0
341315.0 471850.0 0
342103.0 468637.0 0
345232.0 472094.0 0
346542.0 468355.0 0
350463.0 472024.0 0
355137.0 469342.0 0
359780.0 469095.0 0
358970.0 471982.0 0
363196.0 471531.0 0
366336.0 468553.0 0
369991.0 470347.0 0
372185.0 468875.0 0
374990.0 467997.0 0
379084.0 469366.0 0
377005.0 471550.0 0
380553.0 472795.0 0
386142.0 468127.0 0
383104.0 470745.0 0
385855.0 472647.0 0
390875.0 468886.0 0
388685.0 471328.0 0
391870.0 472710.0 0
394258.0 470362.0 0
400224.0 468844.0 0
398416.0 471213.0 0
405762.0 468286.0 0
403226.0 471059.0 0
409854.0 468562.0 0
407789.0 471381.0 0
414573.0 468230.0 0
412118.0 471323.0 0
416348.0 471747.0 0
419749.0 469810.0 0
423122.0 468232.0 0
426354.0 469110.0 0
424075.0 472134.0 0
430534.0 469688.0 0
428152.0 472064.0 0
435876.0 469887.0 0
433082.0 472227.0 0
441609.0 469962.0 0
438020.0 473089.0 0
440080.0 471091.0 0
446185.0 469993.0 0
443179.0 472080.0 0
449680.0 470958.0 0
453027.0 473310.0 0
40349.9 477609.0 0
43667.5 475899.0 0
46364.7 478343.0 0
49177.3 475608.0 0
51780.5 477748.0 0
54809.4 475564.0 0
58272.4 474489.0 0
62663.2 475653.0 0
59345.7 476774.0 0
66995.3 474648.0 0
69754.5 478103.0 0
77161.5 474817.0 0
73249.5 476504.0 0
79548.1 477678.0 0
82819.3 475916.0 0
86650.2 474414.0 0
84813.3 477636.0 0
88582.3 477555.0 0
91598.2 475737.0 0
95271.5 474221.0 0
97771.8 476764.0 0
100491.0 474317.0 0
104768.0 473804.0 0
106418.0 476933.0 0
109295.0 473813.0 0
109350.0 477684.0 0
112673.0 476984.0 0
116974.0 476226.0 0
118906.0 472651.0 0
120228.0 475035.0 0
124060.0 475270.0 0
131262.0 473407.0 0
128669.0 475961.0 0
133948.0 476589.0 0
137974.0 473271.0 0
139267.0 477142.0 0
142578.0 473950.0 0
147473.0 473356.0 0
149066.0 477200.0 0
152243.0 474577.0 0
155663.0 473381.0 0
156211.0 476622.0 0
160006.0 472559.0 0
164199.0 475663.0 0
168295.0 475335.0 0
172488.0 474544.0 0
175880.0 476867.0 0
179295.0 473234.0 0
180214.0 476770.0 0
183098.0 474463.0 0
187640.0 475653.0 0
192164.0 475038.0 0
194803.0 473388.0 0
194981.0 476776.0 0
199218.0 474067.0 0
204731.0 472582.0 0
207976.0 477056.0 0
209339.0 472808.0 0
213147.0 475397.0 0
218598.0 474928.0 0
223502.0 473104.0 0
227607.0 475628.0 0
232004.0 472840.0 0
232513.0 476541.0 0
236535.0 473391.0 0
240931.0 473703.0 0
244750.0 475670.0 0
248922.0 473582.0 0
253862.0 473159.0 0
259791.0 472430.0 0
257766.0 476385.0 0
264248.0 472763.0 0
268607.0 472074.0 0
271696.0 475082.0 0
275030.0 474208.0 0
279266.0 475091.0 0
283764.0 475774.0 0
286901.0 474594.0 0
290080.0 476012.0 0
293486.0 474093.0 0
298077.0 472484.0 0
300165.0 476847.0 0
303220.0 473975.0 0
307696.0 472216.0 0
307668.0 476506.0 0
312255.0 474506.0 0
317968.0 474427.0 0
322727.0 472329.0 0
323402.0 477035.0 0
326622.0 474103.0 0
328613.0 477122.0 0
330535.0 473212.0 0
334346.0 474735.0 0
337832.0 473545.0 0
342203.0 476059.0 0
347593.0 476225.0 0
352455.0 477502.0 0
355743.0 474191.0 0
358464.0 476886.0 0
360964.0 474930.0 0
365250.0 476786.0 0
367452.0 473014.0 0
370280.0 476222.0 0
373322.0 473059.0 0
377804.0 474976.0 0
380949.0 476149.0 0
384013.0 475056.0 0
388602.0 475042.0 0
395959.0 473399.0 0
393409.0 476212.0 0
400833.0 474202.0 0
397996.0 476590.0 0
401815.0 477005.0 0
403976.0 478247.0 0
405484.0 475124.0 0
409820.0 475037.0 0
416044.0 475184.0 0
413307.0 474495.0 0
412786.0 477484.0 0
415345.0 478155.0 0
420721.0 473944.0 0
418921.0 477714.0 0
426365.0 475033.0 0
423905.0 476750.0 0
430878.0 474509.0 0
429058.0 476820.0 0
435013.0 474687.0 0
433286.0 476851.0 0
441701.0 474807.0 0
437974.0 477351.0 0
446569.0 473527.0 0
445437.0 476791.0 0
450186.0 473708.0 0
449569.0 476997.0 0
455680.0 474770.0 0
452943.0 476998.0 0
458356.0 476457.0 0
460929.0 478337.0 0
30379.1 483394.0 0
37159.2 479558.0 0
34031.6 481779.0 0
36567.6 483344.0 0
42074.1 480354.0 0
39069.6 481993.0 0
45177.7 481739.0 0
49205.4 480394.0 0
48222.0 483393.0 0
53202.8 480963.0 0
56606.8 478606.0 0
56557.0 482529.0 0
59594.4 479717.0 0
62765.8 479188.0 0
59308.8 481844.0 0
62036.0 482231.0 0
66368.9 478840.0 0
65690.8 482370.0 0
71798.7 480274.0 0
69091.3 481438.0 0
76032.0 479224.0 0
73971.3 481965.0 0
82116.0 479546.0 0
78342.0 481688.0 0
81411.1 482401.0 0
85691.8 480528.0 0
90750.2 480362.0 0
93999.5 478237.0 0
94100.4 482188.0 0
97297.0 480053.0 0
102209.0 478558.0 0
99955.7 482432.0 0
103639.0 482952.0 0
106481.0 480573.0 0
108098.0 483054.0 0
110453.0 481054.0 0
115048.0 480217.0 0
120168.0 479378.0 0
125204.0 479413.0 0
126690.0 482946.0 0
129396.0 479491.0 0
132913.0 480767.0 0
136718.0 481283.0 0
141226.0 481677.0 0
144672.0 478031.0 0
148383.0 480685.0 0
152571.0 479524.0 0
156759.0 480121.0 0
160982.0 478279.0 0
163158.0 481799.0 0
166192.0 479914.0 0
171115.0 479111.0 0
174141.0 481616.0 0
178534.0 480518.0 0
183151.0 479383.0 0
187608.0 480943.0 0
191506.0 478533.0 0
194497.0 480212.0 0
198375.0 479184.0 0
203280.0 477771.0 0
201812.0 482212.0 0
206363.0 481465.0 0
211500.0 481232.0 0
216749.0 479413.0 0
222302.0 477609.0 0
225244.0 480191.0 0
229585.0 480742.0 0
233234.0 480005.0 0
236378.0 478443.0 0
239967.0 477006.0 0
242146.0 478688.0 0
245122.0 480683.0 0
249902.0 478138.0 0
254533.0 478308.0 0
258580.0 481162.0 0
262079.0 477156.0 0
267291.0 476896.0 0
269077.0 480938.0 0
271585.0 479120.0 0
274895.0 477537.0 0
274000.0 481342.0 0
277919.0 480408.0 0
282216.0 479676.0 0
286785.0 479161.0 0
291159.0 480663.0 0
293289.0 477636.0 0
295084.0 481120.0 0
296693.0 477154.0 0
299054.0 480843.0 0
303540.0 479664.0 0
307818.0 480557.0 0
311625.0 479377.0 0
315437.0 478194.0 0
315430.0 482009.0 0
319410.0 480501.0 0
323929.0 481557.0 0
327033.0 479870.0 0
330361.0 480701.0 0
332452.0 477594.0 0
334269.0 481745.0 0
337281.0 478253.0 0
341492.0 480403.0 0
345209.0 479691.0 0
349353.0 481372.0 0
354259.0 482619.0 0
356775.0 478877.0 0
358302.0 481746.0 0
360961.0 479018.0 0
361568.0 482415.0 0
365068.0 480989.0 0
369693.0 480273.0 0
375323.0 478542.0 0
373358.0 482279.0 0
379488.0 478121.0 0
380371.0 481225.0 0
382533.0 478686.0 0
386131.0 478430.0 0
384486.0 482278.0 0
390468.0 479071.0 0
387830.0 482095.0 0
391351.0 482746.0 0
395953.0 480912.0 0
400581.0 479491.0 0
400735.0 482586.0 0
404262.0 481778.0 0
408723.0 479772.0 0
413650.0 481979.0 0
417493.0 480746.0 0
421447.0 482520.0 0
421877.0 478870.0 0
424870.0 480437.0 0
427004.0 478590.0 0
430961.0 478930.0 0
428737.0 481110.0 0
430872.0 483112.0 0
435259.0 479471.0 0
432905.0 481021.0 0
441771.0 479629.0 0
438481.0 481833.0 0
446333.0 480471.0 0
443512.0 482971.0 0
449687.0 480228.0 0
452867.0 480597.0 0
456065.0 478709.0 0
455554.0 483455.0 0
458828.0 481069.0 0
462656.0 483679.0 0
463673.0 480746.0 0
467180.0 482572.0 0
24320.8 486768.0 0
27690.6 485771.0 0
30483.3 487662.0 0
33015.7 485442.0 0
36745.7 485911.0 0
39834.4 484997.0 0
42328.5 483763.0 0
41590.5 487005.0 0
38743.3 488139.0 0
44724.3 485798.0 0
48140.3 487018.0 0
51784.4 484371.0 0
55763.7 486246.0 0
59733.7 484933.0 0
59577.4 488561.0 0
63487.4 485679.0 0
67622.8 485118.0 0
71083.6 484207.0 0
69417.1 487392.0 0
72417.8 487500.0 0
75633.3 485009.0 0
79082.9 484656.0 0
78767.8 488165.0 0
81340.4 486012.0 0
84097.7 484277.0 0
87057.2 486883.0 0
88241.5 483195.0 0
91455.1 484754.0 0
96714.2 483618.0 0
94622.3 485919.0 0
101588.0 484764.0 0
98777.6 486542.0 0
106052.0 484125.0 0
103755.0 487510.0 0
112420.0 484404.0 0
108459.0 485590.0 0
113788.0 487653.0 0
117492.0 484714.0 0
122493.0 483131.0 0
121332.0 486348.0 0
124984.0 486329.0 0
130402.0 483302.0 0
129515.0 487290.0 0
133987.0 484830.0 0
137849.0 485291.0 0
141892.0 485575.0 0
145471.0 482950.0 0
146084.0 486887.0 0
148732.0 487255.0 0
150388.0 484425.0 0
155020.0 483452.0 0
159781.0 483349.0 0
164964.0 484602.0 0
169585.0 483354.0 0
173148.0 485279.0 0
176620.0 483934.0 0
180664.0 483858.0 0
184396.0 483446.0 0
183084.0 487254.0 0
187574.0 485705.0 0
191455.0 482570.0 0
191625.0 485972.0 0
196446.0 484394.0 0
201069.0 486563.0 0
204773.0 485018.0 0
208434.0 485714.0 0
212902.0 486529.0 0
215794.0 483242.0 0
217563.0 486775.0 0
220768.0 482458.0 0
225868.0 484229.0 0
230881.0 485938.0 0
234665.0 482705.0 0
239761.0 482395.0 0
244231.0 485784.0 0
248928.0 483887.0 0
253439.0 482332.0 0
256637.0 485940.0 0
260441.0 485802.0 0
264742.0 482857.0 0
270960.0 484013.0 0
275929.0 485009.0 0
281001.0 484263.0 0
284898.0 482996.0 0
288785.0 484265.0 0
293071.0 484570.0 0
296681.0 484061.0 0
301097.0 485703.0 0
306116.0 484175.0 0
310305.0 483655.0 0
313138.0 483013.0 0
314185.0 486205.0 0
317612.0 484661.0 0
321720.0 485699.0 0
325446.0 483924.0 0
328031.0 482869.0 0
331298.0 484300.0 0
335459.0 486107.0 0
338636.0 482788.0 0
339947.0 486341.0 0
344723.0 484573.0 0
350422.0 485985.0 0
354834.0 486925.0 0
359135.0 485681.0 0
364336.0 485163.0 0
368339.0 484349.0 0
370782.0 487019.0 0
372155.0 484484.0 0
374381.0 487443.0 0
377268.0 484241.0 0
382497.0 485869.0 0
388530.0 486719.0 0
393854.0 485830.0 0
398549.0 485340.0 0
403422.0 486060.0 0
407574.0 484810.0 0
410766.0 484188.0 0
411057.0 487726.0 0
414901.0 486599.0 0
418206.0 484783.0 0
426234.0 483898.0 0
422882.0 486224.0 0
426364.0 488082.0 0
429148.0 485486.0 0
429590.0 488501.0 0
435167.0 484044.0 0
432247.0 486156.0 0
436421.0 487783.0 0
440577.0 485779.0 0
444952.0 488078.0 0
447830.0 484783.0 0
451533.0 483722.0 0
450630.0 488194.0 0
453156.0 486107.0 0
457594.0 486955.0 0
459877.0 483890.0 0
461748.0 487306.0 0
465536.0 486033.0 0
468966.0 486092.0 0
470541.0 483743.0 0
473085.0 486558.0 0
476631.0 488624.0 0
18681.4 490699.0 0
20150.3 493154.0 0
22033.0 489324.0 0
26165.9 489094.0 0
23618.3 492377.0 0
26974.6 493059.0 0
28971.0 490797.0 0
32815.2 490646.0 0
34908.5 488637.0 0
35128.4 493988.0 0
37315.7 490632.0 0
40801.7 489604.0 0
40427.4 493401.0 0
44395.4 489868.0 0
44910.2 494145.0 0
48165.0 490604.0 0
51706.6 488341.0 0
49002.1 494002.0 0
55611.2 489778.0 0
52734.7 492244.0 0
58049.1 491852.0 0
63025.1 489495.0 0
66344.9 488572.0 0
61933.8 492617.0 0
69817.6 490411.0 0
66307.4 492598.0 0
75421.4 488667.0 0
73256.5 491117.0 0
76944.2 491448.0 0
83251.7 488812.0 0
80519.9 491499.0 0
86262.6 490183.0 0
87973.3 492233.0 0
90707.1 488883.0 0
95332.5 489648.0 0
99644.8 490236.0 0
102792.0 492800.0 0
107443.0 489572.0 0
110824.0 488096.0 0
112098.0 492282.0 0
115926.0 489393.0 0
117110.0 493078.0 0
119193.0 489103.0 0
122716.0 489194.0 0
120787.0 491959.0 0
124094.0 492117.0 0
125855.0 489508.0 0
128729.0 492066.0 0
134439.0 489489.0 0
138732.0 490906.0 0
139015.0 488004.0 0
142395.0 489116.0 0
146234.0 490904.0 0
150113.0 489302.0 0
152804.0 492541.0 0
154939.0 488127.0 0
160452.0 487605.0 0
162634.0 490902.0 0
168609.0 487370.0 0
164933.0 488054.0 0
166850.0 491442.0 0
172172.0 488513.0 0
173855.0 490651.0 0
177593.0 488536.0 0
181851.0 491241.0 0
185895.0 490188.0 0
189970.0 489306.0 0
193905.0 488400.0 0
192988.0 491595.0 0
198130.0 490947.0 0
204788.0 489710.0 0
210003.0 490408.0 0
215055.0 491473.0 0
219522.0 490692.0 0
222387.0 487371.0 0
223468.0 492008.0 0
226675.0 488905.0 0
229952.0 490158.0 0
236036.0 487172.0 0
238551.0 491741.0 0
240457.0 487480.0 0
243508.0 490886.0 0
248115.0 489432.0 0
252539.0 487496.0 0
256346.0 490480.0 0
263015.0 488820.0 0
267778.0 488090.0 0
272462.0 488319.0 0
275848.0 488737.0 0
279799.0 489191.0 0
283544.0 491826.0 0
285274.0 487744.0 0
290875.0 488878.0 0
295738.0 487657.0 0
298998.0 490434.0 0
303285.0 491471.0 0
305746.0 488225.0 0
308195.0 492258.0 0
309900.0 487853.0 0
313691.0 491161.0 0
318019.0 488794.0 0
322835.0 491114.0 0
327305.0 487583.0 0
330276.0 491026.0 0
331993.0 487854.0 0
334379.0 491397.0 0
338318.0 489379.0 0
342870.0 489776.0 0
347531.0 489570.0 0
352371.0 490631.0 0
357955.0 490826.0 0
363397.0 489766.0 0
367890.0 488141.0 0
368316.0 492029.0 0
371359.0 489971.0 0
375085.0 490889.0 0
379018.0 489449.0 0
384392.0 490544.0 0
388512.0 490848.0 0
393234.0 489155.0 0
396276.0 488513.0 0
391912.0 491888.0 0
396712.0 491757.0 0
399954.0 489118.0 0
401335.0 492930.0 0
403835.0 490073.0 0
407136.0 488919.0 0
410123.0 491570.0 0
415102.0 491845.0 0
419571.0 488764.0 0
420000.0 492863.0 0
423114.0 488910.0 0
424698.0 491862.0 0
429749.0 492700.0 0
432825.0 488949.0 0
434556.0 491772.0 0
440664.0 489802.0 0
438070.0 490899.0 0
448449.0 490954.0 0
454282.0 488653.0 0
453122.0 492524.0 0
457812.0 491284.0 0
461889.0 490820.0 0
466163.0 489569.0 0
465041.0 492965.0 0
470403.0 490042.0 0
474845.0 491176.0 0
477577.0 493516.0 0
480052.0 490519.0 0
480644.0 493728.0 0
483489.0 492389.0 0
11744.9 496244.0 0
8083.53 497412.0 0
15882.9 494066.0 0
14251.5 498797.0 0
20544.2 495987.0 0
24038.8 496260.0 0
27653.9 495970.0 0
30919.2 494098.0 0
30846.4 498131.0 0
34961.2 498009.0 0
38467.7 496997.0 0
42315.1 498249.0 0
51760.1 496742.0 0
47323.3 497865.0 0
55570.2 494688.0 0
55055.9 498207.0 0
59338.9 496158.0 0
63688.1 496035.0 0
67267.7 496377.0 0
70636.2 494402.0 0
74905.6 494087.0 0
73676.3 497125.0 0
78953.8 495521.0 0
84112.4 493280.0 0
83795.6 497529.0 0
91922.4 493444.0 0
88061.5 495872.0 0
91998.4 497415.0 0
96846.9 494553.0 0
107262.0 493325.0 0
104990.0 496871.0 0
108942.0 497155.0 0
114029.0 497666.0 0
117869.0 496120.0 0
121196.0 495518.0 0
125133.0 495187.0 0
128362.0 496869.0 0
132367.0 494293.0 0
134344.0 496628.0 0
136680.0 494295.0 0
139607.0 496843.0 0
141991.0 493265.0 0
143383.0 497046.0 0
146307.0 494782.0 0
149310.0 492701.0 0
150089.0 496199.0 0
157847.0 492721.0 0
154405.0 496709.0 0
162672.0 494882.0 0
167745.0 496666.0 0
171091.0 492438.0 0
172835.0 496665.0 0
175574.0 493562.0 0
176356.0 497199.0 0
179641.0 495108.0 0
184405.0 494537.0 0
189161.0 493873.0 0
193828.0 494984.0 0
198043.0 496605.0 0
202646.0 494423.0 0
207298.0 494312.0 0
211707.0 494915.0 0
216027.0 496442.0 0
219793.0 494374.0 0
223797.0 496153.0 0
227977.0 493694.0 0
233322.0 492463.0 0
237079.0 496543.0 0
241790.0 495598.0 0
247204.0 495291.0 0
252106.0 492608.0 0
259318.0 496793.0 0
256090.0 494964.0 0
260346.0 492710.0 0
262505.0 496422.0 0
265641.0 493295.0 0
269558.0 496264.0 0
270162.0 492233.0 0
275015.0 493045.0 0
277331.0 497073.0 0
280239.0 494248.0 0
284410.0 495725.0 0
287242.0 492346.0 0
288660.0 497057.0 0
290751.0 493521.0 0
295040.0 493056.0 0
299929.0 495023.0 0
304426.0 496284.0 0
308462.0 496871.0 0
311513.0 494536.0 0
311497.0 497371.0 0
315038.0 496993.0 0
318374.0 493584.0 0
322048.0 495050.0 0
325670.0 496180.0 0
327070.0 492359.0 0
330230.0 494765.0 0
334487.0 496715.0 0
339735.0 494286.0 0
345229.0 493663.0 0
343671.0 497793.0 0
349059.0 493550.0 0
347890.0 497575.0 0
352653.0 495911.0 0
355245.0 493585.0 0
358295.0 496173.0 0
361555.0 494055.0 0
365155.0 494252.0 0
368324.0 496050.0 0
372587.0 494146.0 0
376161.0 497644.0 0
377210.0 493836.0 0
381249.0 493575.0 0
379652.0 496792.0 0
383113.0 497563.0 0
384864.0 494870.0 0
388135.0 493931.0 0
391513.0 496473.0 0
395049.0 495024.0 0
399461.0 496827.0 0
406385.0 493429.0 0
403856.0 496665.0 0
410835.0 495485.0 0
414862.0 496760.0 0
418544.0 496411.0 0
422988.0 496121.0 0
426909.0 495799.0 0
431823.0 496775.0 0
434380.0 494781.0 0
438575.0 494594.0 0
443714.0 493434.0 0
445741.0 497889.0 0
449122.0 495139.0 0
457408.0 494936.0 0
454025.0 497742.0 0
461375.0 495212.0 0
458794.0 498188.0 0
465398.0 496878.0 0
468566.0 494326.0 0
473147.0 494521.0 0
470430.0 498664.0 0
476005.0 498262.0 0
480133.0 496837.0 0
482494.0 494805.0 0
483486.0 496909.0 0
486619.0 495230.0 0
490695.0 497416.0 0
494045.0 498131.0 0
5321.13 499108.0 0
2547.94 500716.0 0
10699.9 499688.0 0
7950.3 501222.0 0
9205.22 503932.0 0
5865.64 503062.0 0
13314.4 502691.0 0
18114.5 498973.0 0
20934.9 502363.0 0
17582.8 503000.0 0
22520.7 499430.0 0
26266.0 499487.0 0
24274.1 502662.0 0
28683.1 501778.0 0
33480.6 502260.0 0
37975.4 500774.0 0
41140.5 502680.0 0
45633.1 502413.0 0
50926.2 500811.0 0
54727.2 501632.0 0
58364.5 500191.0 0
61786.7 499053.0 0
61439.5 502399.0 0
65368.2 499942.0 0
69932.9 498371.0 0
68751.7 502554.0 0
72831.9 500990.0 0
76449.2 499388.0 0
75360.7 502826.0 0
80425.5 499745.0 0
78393.3 502359.0 0
83257.0 502695.0 0
87811.7 500550.0 0
92193.1 500872.0 0
95329.3 499097.0 0
97305.4 501315.0 0
100701.0 498407.0 0
105350.0 500798.0 0
110002.0 501619.0 0
114767.0 502786.0 0
118742.0 499694.0 0
121763.0 501536.0 0
123975.0 499026.0 0
127862.0 501014.0 0
131841.0 498160.0 0
131716.0 501814.0 0
136110.0 499839.0 0
141436.0 500333.0 0
146547.0 499400.0 0
151276.0 500365.0 0
158849.0 497958.0 0
155441.0 501350.0 0
163137.0 499136.0 0
170918.0 500537.0 0
174810.0 500200.0 0
178514.0 499736.0 0
182599.0 498860.0 0
187005.0 498313.0 0
189914.0 501901.0 0
190741.0 497668.0 0
194289.0 499692.0 0
198604.0 501789.0 0
201394.0 498343.0 0
202702.0 500986.0 0
205069.0 497995.0 0
209038.0 498373.0 0
206235.0 502398.0 0
213013.0 498705.0 0
216725.0 502136.0 0
220051.0 498368.0 0
223561.0 500458.0 0
227900.0 498784.0 0
232708.0 497861.0 0
236364.0 501722.0 0
243557.0 499323.0 0
239816.0 499037.0 0
240881.0 502203.0 0
248106.0 501667.0 0
252272.0 497399.0 0
253347.0 501921.0 0
256735.0 499409.0 0
261291.0 500504.0 0
265753.0 498352.0 0
269679.0 500836.0 0
273552.0 498279.0 0
277847.0 501157.0 0
280080.0 497875.0 0
282846.0 499924.0 0
286658.0 501179.0 0
293219.0 497563.0 0
290889.0 501261.0 0
296974.0 497465.0 0
295943.0 501524.0 0
301138.0 499894.0 0
306514.0 501138.0 0
311196.0 500462.0 0
315455.0 501872.0 0
320640.0 499502.0 0
325703.0 500410.0 0
329708.0 499410.0 0
334004.0 501078.0 0
339073.0 500374.0 0
344363.0 502236.0 0
348510.0 501557.0 0
351215.0 499617.0 0
355648.0 499829.0 0
359687.0 500357.0 0
363528.0 498461.0 0
368058.0 499676.0 0
370967.0 502824.0 0
372072.0 498620.0 0
375347.0 501825.0 0
379874.0 501138.0 0
384749.0 501658.0 0
387607.0 498154.0 0
388925.0 502284.0 0
391920.0 500645.0 0
395474.0 499112.0 0
395697.0 503036.0 0
399655.0 501431.0 0
403405.0 500084.0 0
406470.0 502235.0 0
407662.0 498472.0 0
409949.0 501992.0 0
412263.0 499532.0 0
416504.0 500267.0 0
420644.0 500020.0 0
425258.0 499635.0 0
428846.0 498251.0 0
428393.0 502487.0 0
431942.0 500758.0 0
436306.0 498616.0 0
435311.0 502751.0 0
441450.0 498575.0 0
439348.0 502365.0 0
443619.0 502117.0 0
446353.0 500801.0 0
448674.0 502097.0 0
449703.0 499093.0 0
452067.0 503116.0 0
456314.0 502021.0 0
460354.0 500985.0 0
462765.0 499052.0 0
463878.0 503175.0 0
466590.0 500363.0 0
467737.0 503736.0 0
469912.0 502246.0 0
473576.0 502412.0 0
477662.0 502454.0 0
480738.0 500572.0 0
481039.0 504174.0 0
483660.0 499567.0 0
487370.0 499964.0 0
484204.0 502718.0 0
488727.0 503881.0 0
492503.0 501388.0 0
496095.0 499841.0 0
497350.0 502385.0 0
3426.4 505938.0 0
7874.3 506249.0 0
11720.1 506581.0 0
19939.3 505388.0 0
16283.3 506502.0 0
23172.2 506974.0 0
26608.1 504833.0 0
30071.0 505320.0 0
26871.4 508395.0 0
33567.4 506272.0 0
35207.6 508761.0 0
37378.5 505359.0 0
41688.9 507243.0 0
46621.5 506868.0 0
49671.0 504370.0 0
50100.6 507245.0 0
53390.8 505314.0 0
56889.1 507476.0 0
57741.0 504003.0 0
60710.1 505999.0 0
64459.5 504347.0 0
63962.7 508327.0 0
67946.9 507015.0 0
72330.3 505405.0 0
76183.0 505809.0 0
79754.1 505541.0 0
82966.9 507983.0 0
86314.5 504984.0 0
87386.3 507607.0 0
90095.0 504557.0 0
90063.3 507571.0 0
92733.4 507429.0 0
94690.2 503751.0 0
96241.7 507278.0 0
100768.0 504352.0 0
106145.0 504939.0 0
111117.0 506090.0 0
115726.0 507390.0 0
119027.0 504421.0 0
124265.0 504339.0 0
129534.0 505422.0 0
132429.0 507756.0 0
134051.0 504678.0 0
138645.0 504354.0 0
143867.0 504120.0 0
148462.0 503048.0 0
147609.0 506694.0 0
152102.0 505120.0 0
156238.0 505183.0 0
160329.0 502964.0 0
159121.0 507669.0 0
163231.0 507331.0 0
166355.0 502728.0 0
168041.0 507483.0 0
171486.0 504386.0 0
176584.0 504666.0 0
180935.0 502803.0 0
185122.0 502692.0 0
188161.0 506451.0 0
194329.0 504800.0 0
199101.0 506520.0 0
201774.0 503961.0 0
203746.0 506920.0 0
208531.0 506715.0 0
211268.0 502497.0 0
213482.0 506811.0 0
222022.0 504629.0 0
226741.0 503464.0 0
225608.0 506975.0 0
229545.0 507017.0 0
231360.0 502657.0 0
234443.0 506839.0 0
239228.0 506433.0 0
243720.0 505138.0 0
252095.0 506336.0 0
257210.0 504768.0 0
261495.0 505002.0 0
265499.0 503258.0 0
270024.0 506409.0 0
273513.0 502782.0 0
276366.0 505905.0 0
281818.0 504964.0 0
287840.0 506163.0 0
292848.0 504940.0 0
299658.0 504041.0 0
296602.0 506764.0 0
303654.0 504737.0 0
308014.0 506256.0 0
311726.0 504301.0 0
315250.0 505770.0 0
319281.0 505380.0 0
324118.0 504414.0 0
327815.0 503150.0 0
331091.0 503925.0 0
335828.0 505901.0 0
340562.0 504779.0 0
343641.0 507298.0 0
348036.0 505678.0 0
352750.0 504130.0 0
356373.0 507320.0 0
358261.0 503930.0 0
360021.0 507575.0 0
362049.0 503246.0 0
363966.0 507175.0 0
366375.0 503381.0 0
374173.0 505681.0 0
378310.0 505738.0 0
383070.0 506162.0 0
387494.0 505887.0 0
392033.0 505282.0 0
396199.0 507071.0 0
399188.0 505114.0 0
403447.0 504570.0 0
405599.0 508094.0 0
408780.0 505714.0 0
413903.0 503729.0 0
412736.0 507853.0 0
417324.0 507795.0 0
419092.0 503873.0 0
422169.0 507491.0 0
423647.0 503551.0 0
424716.0 508150.0 0
427067.0 506429.0 0
432123.0 505534.0 0
437324.0 506468.0 0
442091.0 505498.0 0
447174.0 505111.0 0
445017.0 508261.0 0
451265.0 507108.0 0
455601.0 506725.0 0
459687.0 504750.0 0
463073.0 506827.0 0
459887.0 508453.0 0
466591.0 507121.0 0
471353.0 505987.0 0
476735.0 506121.0 0
481072.0 507782.0 0
484841.0 505830.0 0
488865.0 508137.0 0
493713.0 505739.0 0
493555.0 510013.0 0
498239.0 505500.0 0
497749.0 508317.0 0
1348.72 509211.0 0
2337.36 511875.0 0
9694.42 509580.0 0
6054.65 510158.0 0
10190.2 513441.0 0
5898.23 513739.0 0
14018.4 510144.0 0
19211.6 509785.0 0
20885.9 513207.0 0
23625.7 510994.0 0
30902.3 509402.0 0
27029.3 511669.0 0
30089.5 513602.0 0
34153.5 512013.0 0
38026.3 510096.0 0
41261.1 512551.0 0
37075.8 513979.0 0
44588.9 510390.0 0
48476.5 510440.0 0
52842.5 509999.0 0
56657.0 510985.0 0
59928.9 509613.0 0
58785.5 513529.0 0
62991.6 512412.0 0
67129.0 510975.0 0
71051.1 509622.0 0
70165.2 513240.0 0
74605.7 508749.0 0
74720.9 512761.0 0
78200.3 509359.0 0
80032.5 512977.0 0
85573.6 511913.0 0
90130.6 510086.0 0
94225.3 511214.0 0
99219.5 510130.0 0
103256.0 508554.0 0
107102.0 509547.0 0
111953.0 510967.0 0
116341.0 512189.0 0
120694.0 509117.0 0
126047.0 509071.0 0
130050.0 509416.0 0
132883.0 511640.0 0
136048.0 508427.0 0
140395.0 508518.0 0
142924.0 511259.0 0
143901.0 508082.0 0
146044.0 509896.0 0
150197.0 510108.0 0
155055.0 509259.0 0
159637.0 512491.0 0
165076.0 510456.0 0
168459.0 511556.0 0
172566.0 508473.0 0
176800.0 509902.0 0
182366.0 507918.0 0
179981.0 512382.0 0
187429.0 511599.0 0
191891.0 509185.0 0
194771.0 511978.0 0
195968.0 508674.0 0
198505.0 511310.0 0
201924.0 510267.0 0
206162.0 511403.0 0
210889.0 510409.0 0
214785.0 511446.0 0
218027.0 507842.0 0
222765.0 509487.0 0
227166.0 510704.0 0
232007.0 511339.0 0
237781.0 511948.0 0
242937.0 509832.0 0
247530.0 507792.0 0
246675.0 511739.0 0
250921.0 510867.0 0
255457.0 509795.0 0
259733.0 508729.0 0
264350.0 508489.0 0
268325.0 511778.0 0
274240.0 511285.0 0
279240.0 509145.0 0
283787.0 510327.0 0
288531.0 512369.0 0
292689.0 509722.0 0
297369.0 511929.0 0
300794.0 508281.0 0
304745.0 508646.0 0
307804.0 511611.0 0
312693.0 509231.0 0
317852.0 510014.0 0
322746.0 509115.0 0
328529.0 508226.0 0
333906.0 511206.0 0
339705.0 509392.0 0
343632.0 512173.0 0
347325.0 509859.0 0
352159.0 509878.0 0
357474.0 511138.0 0
361897.0 511078.0 0
365551.0 510629.0 0
369784.0 508018.0 0
368718.0 512649.0 0
373010.0 513003.0 0
375772.0 509789.0 0
380828.0 510255.0 0
386689.0 510924.0 0
389842.0 508250.0 0
392647.0 510368.0 0
401026.0 508657.0 0
397362.0 510724.0 0
400290.0 513124.0 0
404337.0 511698.0 0
409545.0 510883.0 0
414910.0 512018.0 0
420310.0 511560.0 0
426185.0 511375.0 0
430525.0 509365.0 0
432242.0 513249.0 0
434351.0 509406.0 0
436096.0 512182.0 0
437499.0 510186.0 0
441051.0 509335.0 0
439919.0 512870.0 0
444897.0 512563.0 0
448660.0 509418.0 0
457298.0 510568.0 0
453494.0 510980.0 0
460759.0 511990.0 0
463439.0 509731.0 0
466375.0 510766.0 0
464110.0 513309.0 0
469850.0 509997.0 0
472290.0 513074.0 0
474192.0 509771.0 0
475541.0 513925.0 0
478246.0 510574.0 0
484712.0 509046.0 0
482318.0 511430.0 0
486216.0 511628.0 0
490014.0 511647.0 0
493017.0 513932.0 0
497383.0 511869.0 0
2410.44 515710.0 0
6740.81 517577.0 0
11868.6 517557.0 0
16044.4 514163.0 0
20209.2 516286.0 0
24983.3 515717.0 0
29611.4 517354.0 0
33408.9 515883.0 0
36251.6 518358.0 0
39532.2 516148.0 0
45861.2 513974.0 0
42977.3 516712.0 0
50183.4 514133.0 0
47470.1 518070.0 0
51605.2 517074.0 0
54567.8 514289.0 0
54915.4 517906.0 0
57569.8 516153.0 0
58277.9 518241.0 0
61435.5 516526.0 0
66365.9 515149.0 0
71250.3 518142.0 0
76392.3 516462.0 0
79973.5 517778.0 0
83103.8 515884.0 0
86638.2 516418.0 0
90174.5 514010.0 0
93617.0 515599.0 0
97819.5 514760.0 0
102991.0 513479.0 0
105115.0 517713.0 0
108270.0 514301.0 0
112961.0 515624.0 0
117145.0 516964.0 0
120104.0 513832.0 0
121827.0 517785.0 0
124142.0 513435.0 0
126668.0 517368.0 0
128711.0 513136.0 0
132047.0 516583.0 0
138037.0 513475.0 0
142961.0 514818.0 0
146363.0 512910.0 0
146444.0 516920.0 0
149488.0 514298.0 0
153472.0 513536.0 0
156373.0 516768.0 0
164579.0 514087.0 0
168650.0 515098.0 0
172695.0 513240.0 0
176852.0 513836.0 0
179822.0 516355.0 0
183333.0 513539.0 0
189189.0 516436.0 0
191680.0 513279.0 0
196424.0 515978.0 0
201776.0 514733.0 0
206838.0 516583.0 0
211227.0 514444.0 0
219143.0 512796.0 0
215590.0 516129.0 0
223922.0 514247.0 0
220490.0 517808.0 0
228711.0 515297.0 0
233817.0 516120.0 0
243620.0 515078.0 0
248993.0 514692.0 0
253435.0 514206.0 0
258848.0 513905.0 0
263863.0 512955.0 0
262867.0 516657.0 0
266579.0 515856.0 0
271024.0 516113.0 0
279833.0 513822.0 0
275998.0 517383.0 0
284683.0 515709.0 0
289447.0 517209.0 0
293200.0 514586.0 0
297442.0 517291.0 0
302686.0 512818.0 0
301886.0 517158.0 0
306652.0 517405.0 0
312715.0 515305.0 0
317754.0 514531.0 0
320456.0 512562.0 0
322879.0 512778.0 0
325756.0 512587.0 0
322694.0 517303.0 0
329526.0 513812.0 0
333775.0 517355.0 0
338866.0 514259.0 0
344109.0 517796.0 0
348590.0 514288.0 0
354171.0 515727.0 0
359781.0 515245.0 0
364812.0 515123.0 0
369767.0 516898.0 0
374063.0 516908.0 0
378108.0 514806.0 0
382963.0 514257.0 0
386394.0 515871.0 0
391052.0 515257.0 0
394983.0 518106.0 0
395973.0 514236.0 0
399173.0 517098.0 0
403558.0 516027.0 0
407674.0 514870.0 0
412145.0 516174.0 0
417818.0 515526.0 0
423085.0 515562.0 0
428338.0 516436.0 0
432808.0 518156.0 0
437213.0 515928.0 0
442432.0 516300.0 0
447868.0 517361.0 0
449632.0 512978.0 0
457434.0 514638.0 0
453184.0 516118.0 0
461399.0 515290.0 0
459834.0 519070.0 0
464452.0 517339.0 0
468586.0 514648.0 0
473284.0 517022.0 0
477068.0 518565.0 0
479380.0 514917.0 0
484103.0 515378.0 0
488626.0 515142.0 0
491622.0 518606.0 0
496808.0 516044.0 0
2053.52 519321.0 0
2077.81 522758.0 0
5620.81 521502.0 0
9310.86 521025.0 0
10240.3 524247.0 0
13402.2 521740.0 0
16929.8 519013.0 0
17935.9 523333.0 0
21633.4 520152.0 0
26988.9 521585.0 0
32401.6 519949.0 0
35448.1 522219.0 0
39750.5 519482.0 0
39250.4 523448.0 0
43678.4 520821.0 0
51142.2 521347.0 0
47044.0 522935.0 0
56417.9 521364.0 0
60770.4 520648.0 0
63504.1 523252.0 0
65269.3 519355.0 0
68172.6 522978.0 0
76005.5 520671.0 0
79884.3 522060.0 0
84438.7 520427.0 0
90154.3 519147.0 0
92139.4 523335.0 0
95348.4 518924.0 0
96838.9 522721.0 0
100632.0 518895.0 0
105694.0 521667.0 0
109449.0 518829.0 0
113915.0 520058.0 0
118667.0 521348.0 0
123884.0 522305.0 0
129245.0 521258.0 0
133043.0 520888.0 0
136725.0 518988.0 0
135283.0 522549.0 0
141716.0 519106.0 0
146358.0 522046.0 0
151220.0 518216.0 0
151305.0 522860.0 0
155303.0 521075.0 0
161326.0 518746.0 0
166288.0 518043.0 0
167725.0 522433.0 0
170619.0 518383.0 0
173104.0 522673.0 0
175182.0 517797.0 0
178860.0 521819.0 0
184142.0 518466.0 0
188655.0 521709.0 0
192864.0 519308.0 0
197132.0 521384.0 0
202625.0 520489.0 0
207154.0 520830.0 0
211408.0 519620.0 0
216534.0 521134.0 0
220383.0 521722.0 0
225138.0 518804.0 0
227251.0 521902.0 0
230319.0 519640.0 0
234646.0 521102.0 0
238832.0 518047.0 0
242788.0 521430.0 0
247332.0 519236.0 0
251348.0 517611.0 0
251756.0 521893.0 0
255294.0 518398.0 0
259758.0 519524.0 0
264172.0 520306.0 0
268179.0 519616.0 0
272588.0 521206.0 0
280790.0 518904.0 0
285686.0 521126.0 0
293325.0 518556.0 0
291041.0 521630.0 0
296636.0 521928.0 0
301171.0 521411.0 0
305572.0 522271.0 0
310487.0 519130.0 0
309512.0 522241.0 0
313168.0 520567.0 0
317176.0 519157.0 0
328332.0 518428.0 0
331510.0 522721.0 0
335587.0 521802.0 0
338802.0 519667.0 0
342239.0 522476.0 0
346219.0 522826.0 0
349876.0 519695.0 0
353885.0 522601.0 0
357980.0 519928.0 0
362535.0 518820.0 0
362243.0 522679.0 0
366849.0 521030.0 0
372296.0 520731.0 0
377195.0 520344.0 0
382714.0 519360.0 0
388526.0 519990.0 0
392980.0 521207.0 0
397898.0 521739.0 0
403135.0 520674.0 0
407769.0 518987.0 0
411499.0 521357.0 0
415761.0 519388.0 0
420715.0 519097.0 0
418895.0 522481.0 0
425533.0 519944.0 0
423011.0 522988.0 0
429819.0 521155.0 0
436342.0 520045.0 0
433691.0 522361.0 0
440413.0 519832.0 0
444494.0 520011.0 0
448114.0 522246.0 0
452170.0 520723.0 0
455964.0 519232.0 0
460391.0 523126.0 0
464245.0 521847.0 0
469226.0 519979.0 0
471462.0 523981.0 0
474401.0 521200.0 0
478509.0 522414.0 0
481534.0 519488.0 0
486493.0 519556.0 0
488905.0 523582.0 0
493477.0 522898.0 0
497110.0 520505.0 0
1773.65 525816.0 0
6212.76 525921.0 0
14232.4 525774.0 0
10628.4 528302.0 0
18260.4 527578.0 0
22325.8 524760.0 0
22064.1 528992.0 0
26994.5 527472.0 0
31596.7 524316.0 0
31872.1 528755.0 0
35592.1 526097.0 0
43553.2 525053.0 0
46519.6 525750.0 0
49445.9 526233.0 0
54076.8 525113.0 0
52258.9 528142.0 0
59179.3 524977.0 0
62287.8 525974.0 0
65430.4 526629.0 0
69672.0 527599.0 0
72824.7 523821.0 0
77249.9 525133.0 0
82375.7 525841.0 0
86153.5 528241.0 0
87548.9 524269.0 0
90328.9 528163.0 0
94076.5 526603.0 0
97727.5 526642.0 0
101695.0 524190.0 0
105975.0 526244.0 0
109979.0 523268.0 0
114867.0 524688.0 0
119657.0 525890.0 0
123591.0 526937.0 0
127841.0 525911.0 0
132776.0 525068.0 0
139123.0 524267.0 0
143669.0 526630.0 0
149077.0 527723.0 0
154438.0 525539.0 0
158623.0 523511.0 0
158118.0 527704.0 0
162744.0 523881.0 0
165865.0 526267.0 0
170495.0 526346.0 0
175635.0 527096.0 0
180354.0 526557.0 0
184016.0 524045.0 0
188272.0 527293.0 0
192995.0 524340.0 0
196927.0 526611.0 0
200062.0 524679.0 0
204197.0 525897.0 0
200242.0 527846.0 0
208787.0 524230.0 0
213213.0 524292.0 0
219268.0 525799.0 0
223666.0 523040.0 0
226155.0 527321.0 0
230653.0 524415.0 0
238744.0 523007.0 0
235367.0 525443.0 0
241709.0 525886.0 0
246860.0 524907.0 0
251570.0 526181.0 0
256645.0 523355.0 0
258970.0 527370.0 0
261700.0 523979.0 0
267058.0 524317.0 0
271926.0 526118.0 0
276719.0 524520.0 0
280962.0 523176.0 0
283926.0 526087.0 0
288754.0 525985.0 0
294011.0 525478.0 0
298867.0 525671.0 0
303648.0 525976.0 0
307491.0 525355.0 0
311124.0 526315.0 0
315560.0 524233.0 0
320401.0 522947.0 0
319286.0 527752.0 0
325664.0 523080.0 0
329074.0 527896.0 0
334615.0 527278.0 0
338357.0 524304.0 0
338776.0 528078.0 0
342622.0 526661.0 0
346753.0 526445.0 0
350102.0 524585.0 0
354026.0 527804.0 0
357861.0 524650.0 0
361348.0 525997.0 0
365993.0 527335.0 0
370709.0 524520.0 0
374930.0 524397.0 0
376087.0 527920.0 0
380082.0 525356.0 0
385731.0 524492.0 0
390392.0 523848.0 0
394595.0 525789.0 0
399472.0 526068.0 0
407468.0 523386.0 0
403321.0 525161.0 0
406978.0 528228.0 0
411248.0 526230.0 0
415346.0 524164.0 0
420142.0 526604.0 0
426076.0 527089.0 0
424079.0 526300.0 0
427132.0 524188.0 0
428897.0 528475.0 0
431394.0 525226.0 0
435140.0 525898.0 0
438080.0 523667.0 0
443317.0 524505.0 0
448075.0 526037.0 0
452058.0 525141.0 0
456315.0 523263.0 0
462870.0 525812.0 0
459174.0 526199.0 0
464806.0 529158.0 0
467378.0 525501.0 0
471391.0 527615.0 0
479845.0 526216.0 0
475389.0 525971.0 0
483842.0 524048.0 0
487538.0 528783.0 0
492719.0 527042.0 0
497674.0 524920.0 0
2664.03 529427.0 0
2517.48 533605.0 0
7326.59 531483.0 0
14573.7 530128.0 0
12003.7 533241.0 0
18657.0 533249.0 0
24489.6 532400.0 0
29257.9 532136.0 0
35474.8 530233.0 0
40048.6 528505.0 0
45514.3 529208.0 0
42792.9 532532.0 0
49718.0 531266.0 0
56519.3 528865.0 0
53214.3 530174.0 0
54143.6 532965.0 0
61611.1 529559.0 0
58544.7 532620.0 0
66234.9 530852.0 0
70705.7 532060.0 0
74096.7 528652.0 0
75273.8 533262.0 0
78646.8 529279.0 0
79262.4 533046.0 0
82718.3 530746.0 0
87418.8 532678.0 0
92107.6 532276.0 0
95455.0 530019.0 0
100776.0 530050.0 0
106020.0 531451.0 0
110569.0 528184.0 0
115566.0 529868.0 0
120911.0 531220.0 0
126314.0 530493.0 0
131120.0 529501.0 0
136012.0 528860.0 0
140360.0 529062.0 0
144364.0 531398.0 0
154049.0 530298.0 0
158633.0 532170.0 0
162357.0 528644.0 0
167574.0 529977.0 0
172197.0 530184.0 0
179685.0 531637.0 0
183753.0 528362.0 0
185533.0 532065.0 0
189804.0 531529.0 0
193289.0 529055.0 0
197750.0 530983.0 0
203128.0 531037.0 0
208417.0 529179.0 0
214334.0 529208.0 0
219549.0 530709.0 0
223709.0 531343.0 0
228565.0 532423.0 0
232410.0 528903.0 0
237640.0 529669.0 0
244235.0 529281.0 0
241494.0 532566.0 0
249286.0 530443.0 0
254811.0 529048.0 0
263961.0 528537.0 0
268526.0 528882.0 0
273821.0 530750.0 0
279859.0 529646.0 0
285950.0 530749.0 0
291669.0 530599.0 0
296658.0 529858.0 0
301347.0 529845.0 0
306897.0 528707.0 0
310420.0 530730.0 0
314712.0 529015.0 0
317835.0 531773.0 0
323819.0 528135.0 0
321524.0 531693.0 0
331969.0 532381.0 0
337006.0 531989.0 0
341184.0 530540.0 0
345929.0 531208.0 0
349667.0 528450.0 0
351315.0 532392.0 0
355440.0 532349.0 0
359548.0 529898.0 0
369094.0 531737.0 0
371964.0 528805.0 0
372602.0 532814.0 0
375302.0 531010.0 0
378728.0 530828.0 0
383789.0 530296.0 0
389625.0 528587.0 0
388357.0 532988.0 0
391883.0 532973.0 0
394028.0 530256.0 0
397882.0 529696.0 0
400649.0 533258.0 0
402258.0 529395.0 0
405666.0 533317.0 0
411260.0 531908.0 0
415608.0 528826.0 0
419926.0 530455.0 0
421640.0 533448.0 0
424375.0 530146.0 0
429574.0 532821.0 0
434003.0 530001.0 0
439330.0 528632.0 0
442801.0 532069.0 0
445525.0 529093.0 0
447469.0 533133.0 0
450330.0 529603.0 0
455583.0 528995.0 0
460920.0 529045.0 0
459300.0 531928.0 0
463145.0 532966.0 0
468989.0 530410.0 0
473916.0 531026.0 0
478213.0 529618.0 0
477582.0 533157.0 0
482798.0 529025.0 0
481007.0 531963.0 0
484636.0 532826.0 0
488235.0 533386.0 0
492449.0 531937.0 0
497298.0 528956.0 0
497408.0 533291.0 0
2078.29 537526.0 0
6324.37 536761.0 0
9451.03 534896.0 0
11189.1 537645.0 0
14728.2 536282.0 0
22258.5 536625.0 0
27070.6 536694.0 0
33372.4 534213.0 0
38505.7 533682.0 0
46185.1 533974.0 0
42581.6 536599.0 0
46899.3 538163.0 0
50864.6 536016.0 0
56974.8 537779.0 0
62229.1 534329.0 0
66843.6 535208.0 0
71675.4 536205.0 0
76042.8 537798.0 0
79172.7 535987.0 0
82570.2 535031.0 0
86420.6 537970.0 0
91491.8 536630.0 0
96546.1 534612.0 0
102321.0 535579.0 0
99056.7 538030.0 0
110802.0 533897.0 0
115854.0 534733.0 0
119669.0 536029.0 0
123225.0 535837.0 0
126099.0 534442.0 0
129427.0 533645.0 0
131750.0 537008.0 0
133869.0 533110.0 0
135505.0 536995.0 0
139124.0 533783.0 0
144147.0 536808.0 0
149449.0 533814.0 0
152776.0 537393.0 0
154333.0 534232.0 0
157639.0 537492.0 0
163341.0 533301.0 0
168407.0 535409.0 0
174239.0 534652.0 0
178505.0 536717.0 0
182909.0 536305.0 0
188778.0 535295.0 0
193511.0 534044.0 0
200231.0 534379.0 0
203902.0 536210.0 0
207012.0 533454.0 0
208594.0 537237.0 0
210966.0 533391.0 0
215385.0 534618.0 0
220030.0 535066.0 0
224489.0 535745.0 0
233531.0 533144.0 0
233580.0 537410.0 0
237532.0 534995.0 0
241798.0 537252.0 0
245494.0 534177.0 0
249388.0 535512.0 0
253740.0 534281.0 0
259823.0 532908.0 0
266699.0 533441.0 0
272027.0 535662.0 0
277362.0 535127.0 0
281533.0 534343.0 0
284924.0 535366.0 0
289026.0 534705.0 0
293654.0 535512.0 0
299104.0 534594.0 0
305393.0 533680.0 0
310545.0 535034.0 0
314213.0 533325.0 0
313819.0 537723.0 0
317745.0 535801.0 0
322083.0 536515.0 0
326274.0 533172.0 0
330224.0 536605.0 0
334842.0 536671.0 0
341554.0 535066.0 0
346443.0 536476.0 0
350717.0 536772.0 0
354605.0 535959.0 0
358841.0 535099.0 0
364515.0 533711.0 0
369755.0 535373.0 0
373458.0 535896.0 0
376336.0 533970.0 0
376507.0 538201.0 0
380826.0 535448.0 0
385705.0 535314.0 0
390104.0 536646.0 0
395933.0 533711.0 0
394388.0 537570.0 0
398981.0 537481.0 0
402822.0 536294.0 0
408066.0 538070.0 0
417013.0 533589.0 0
413319.0 537262.0 0
421726.0 536833.0 0
418092.0 537622.0 0
425614.0 534874.0 0
430576.0 537677.0 0
433849.0 534539.0 0
436195.0 538540.0 0
438519.0 533972.0 0
443926.0 536492.0 0
449019.0 537225.0 0
452300.0 533877.0 0
456392.0 533695.0 0
455487.0 537586.0 0
459822.0 535797.0 0
464255.0 537767.0 0
467171.0 534188.0 0
471142.0 533947.0 0
469613.0 538059.0 0
474969.0 536723.0 0
480943.0 536120.0 0
486371.0 537215.0 0
491906.0 536986.0 0
497358.0 537452.0 0
3354.41 542035.0 0
8488.43 540569.0 0
12421.4 541476.0 0
18152.5 540677.0 0
23805.6 540151.0 0
27574.9 541746.0 0
31537.2 538851.0 0
37257.2 539137.0 0
42559.6 541075.0 0
46915.5 542892.0 0
51381.5 540511.0 0
55096.8 542905.0 0
59999.4 543072.0 0
63133.3 538699.0 0
65595.7 543280.0 0
68160.5 539304.0 0
72151.6 540752.0 0
76469.4 542662.0 0
80971.5 539733.0 0
85264.1 542975.0 0
90261.8 541489.0 0
95492.5 540122.0 0
101301.0 540294.0 0
106906.0 538688.0 0
112665.0 538971.0 0
117235.0 538601.0 0
116529.0 543281.0 0
121395.0 540091.0 0
126926.0 539041.0 0
132671.0 542066.0 0
138998.0 540109.0 0
144337.0 542118.0 0
148857.0 539494.0 0
153864.0 541692.0 0
159410.0 542072.0 0
163345.0 538744.0 0
168790.0 541404.0 0
171598.0 538119.0 0
174748.0 540551.0 0
180245.0 540717.0 0
186648.0 539160.0 0
191701.0 538998.0 0
197407.0 538236.0 0
202200.0 539929.0 0
199624.0 542870.0 0
205635.0 539934.0 0
212914.0 538590.0 0
209572.0 542478.0 0
217565.0 539071.0 0
214697.0 542772.0 0
222207.0 539709.0 0
228911.0 538004.0 0
226971.0 542378.0 0
232309.0 542601.0 0
237545.0 540126.0 0
242348.0 542190.0 0
246600.0 539228.0 0
251559.0 539167.0 0
256975.0 539315.0 0
263254.0 538658.0 0
268354.0 538323.0 0
272115.0 540673.0 0
276730.0 540012.0 0
281642.0 538754.0 0
285995.0 538867.0 0
289875.0 539008.0 0
293173.0 538884.0 0
292860.0 542378.0 0
296796.0 539604.0 0
302603.0 539666.0 0
308369.0 539189.0 0
312899.0 542886.0 0
317481.0 540170.0 0
322161.0 541647.0 0
326327.0 538862.0 0
330867.0 541319.0 0
335472.0 541302.0 0
338888.0 538943.0 0
343305.0 540188.0 0
348664.0 541382.0 0
353226.0 539834.0 0
357316.0 539415.0 0
360283.0 542580.0 0
361930.0 538528.0 0
364135.0 541822.0 0
366775.0 538651.0 0
371932.0 539747.0 0
368156.0 543232.0 0
377035.0 542782.0 0
379812.0 539838.0 0
381797.0 542980.0 0
386142.0 540287.0 0
391971.0 541516.0 0
396186.0 540486.0 0
399453.0 541585.0 0
403495.0 540028.0 0
407446.0 543277.0 0
412737.0 542755.0 0
416548.0 540513.0 0
420638.0 540790.0 0
425603.0 539528.0 0
423701.0 543454.0 0
429130.0 541055.0 0
433111.0 543233.0 0
438036.0 542661.0 0
440940.0 539961.0 0
446220.0 541496.0 0
451851.0 540954.0 0
456304.0 541549.0 0
459769.0 539734.0 0
463180.0 541790.0 0
467490.0 542273.0 0
473098.0 542556.0 0
478471.0 540703.0 0
482676.0 539801.0 0
482390.0 543945.0 0
485515.0 541583.0 0
489673.0 542030.0 0
494596.0 541384.0 0
498302.0 541109.0 0
3681.5 548286.0 0
8855.16 544968.0 0
14005.6 545795.0 0
19228.4 547065.0 0
23525.3 544225.0 0
27981.3 545964.0 0
32824.3 543978.0 0
38872.7 545045.0 0
43468.8 543888.0 0
44285.1 547425.0 0
51447.1 545743.0 0
56445.4 547036.0 0
61523.8 548259.0 0
66337.1 547615.0 0
71142.5 545968.0 0
76595.6 547594.0 0
80774.2 544857.0 0
80600.6 548697.0 0
84573.2 547708.0 0
89083.4 546299.0 0
93781.5 545071.0 0
99023.1 544097.0 0
102273.0 547993.0 0
104103.0 543398.0 0
109828.0 544404.0 0
114166.0 548100.0 0
118600.0 547571.0 0
121746.0 544736.0 0
126637.0 544735.0 0
135916.0 545843.0 0
140462.0 545662.0 0
145331.0 547046.0 0
149401.0 544376.0 0
153662.0 546558.0 0
158655.0 546611.0 0
163681.0 544438.0 0
168270.0 546896.0 0
172160.0 544723.0 0
176210.0 545440.0 0
180401.0 545382.0 0
184316.0 543364.0 0
189101.0 543373.0 0
194624.0 544494.0 0
204180.0 544093.0 0
199833.0 547707.0 0
207790.0 547474.0 0
212579.0 547158.0 0
219060.0 543276.0 0
216690.0 546126.0 0
223000.0 543719.0 0
220635.0 547576.0 0
226004.0 547404.0 0
230709.0 547398.0 0
238759.0 544213.0 0
241957.0 547555.0 0
247263.0 544069.0 0
246691.0 548040.0 0
253208.0 543358.0 0
250594.0 547016.0 0
257199.0 544151.0 0
255166.0 547633.0 0
259710.0 547081.0 0
260644.0 543080.0 0
264379.0 548003.0 0
267291.0 543224.0 0
269163.0 548020.0 0
271897.0 544971.0 0
276204.0 544587.0 0
280852.0 543757.0 0
284738.0 545150.0 0
288462.0 543366.0 0
292403.0 546601.0 0
297346.0 545134.0 0
302293.0 544760.0 0
304167.0 547983.0 0
307215.0 544691.0 0
318164.0 545086.0 0
323261.0 546476.0 0
326691.0 544146.0 0
330864.0 545718.0 0
335147.0 545715.0 0
339488.0 543477.0 0
344480.0 545422.0 0
349566.0 546530.0 0
355008.0 544839.0 0
359584.0 546030.0 0
363860.0 546473.0 0
369383.0 548155.0 0
372768.0 544472.0 0
375894.0 547595.0 0
379899.0 546601.0 0
384411.0 547038.0 0
388626.0 544969.0 0
396397.0 544697.0 0
392596.0 548052.0 0
402355.0 545480.0 0
406930.0 547923.0 0
410352.0 546759.0 0
414878.0 548038.0 0
417844.0 544334.0 0
421274.0 545506.0 0
427779.0 544126.0 0
424595.0 547355.0 0
429091.0 548328.0 0
433250.0 548202.0 0
437735.0 546838.0 0
441677.0 544344.0 0
441648.0 548403.0 0
445684.0 546744.0 0
450351.0 545477.0 0
453340.0 548215.0 0
454701.0 544877.0 0
457171.0 548410.0 0
459570.0 544412.0 0
464358.0 545497.0 0
469119.0 547587.0 0
473964.0 547252.0 0
477926.0 545767.0 0
482538.0 548960.0 0
486756.0 546230.0 0
493409.0 546080.0 0
497883.0 544448.0 0
497507.0 548458.0 0
3224.45 554420.0 0
9510.09 550342.0 0
15067.9 551434.0 0
20182.1 551397.0 0
24252.6 549281.0 0
22859.9 553393.0 0
29265.3 550022.0 0
26726.9 553621.0 0
34378.6 549363.0 0
39866.5 550505.0 0
44301.7 553212.0 0
48912.5 550389.0 0
52991.5 552726.0 0
57425.5 551717.0 0
65012.7 550900.0 0
61854.5 553576.0 0
68605.1 550189.0 0
72908.1 552076.0 0
78320.1 551834.0 0
82978.7 552009.0 0
88156.6 551616.0 0
92243.8 549378.0 0
96940.6 548771.0 0
94477.1 553353.0 0
99866.8 551810.0 0
107152.0 549555.0 0
103683.0 552722.0 0
111518.0 552211.0 0
117403.0 552267.0 0
121960.0 548813.0 0
122798.0 552818.0 0
125843.0 549518.0 0
131279.0 548536.0 0
137391.0 550383.0 0
142086.0 550071.0 0
145768.0 551665.0 0
149649.0 549220.0 0
153879.0 551118.0 0
158654.0 551803.0 0
162955.0 549485.0 0
167136.0 551638.0 0
172898.0 549453.0 0
178546.0 549743.0 0
184144.0 548686.0 0
190030.0 548624.0 0
195216.0 550831.0 0
204107.0 548445.0 0
200153.0 552975.0 0
204487.0 551923.0 0
210021.0 553005.0 0
216289.0 549852.0 0
219898.0 552500.0 0
224973.0 552734.0 0
230264.0 552067.0 0
235766.0 547984.0 0
239482.0 552267.0 0
245180.0 552997.0 0
252031.0 552667.0 0
258309.0 551896.0 0
262780.0 552054.0 0
267387.0 552758.0 0
273899.0 549235.0 0
271806.0 552851.0 0
279277.0 548259.0 0
277609.0 553088.0 0
283584.0 548827.0 0
282379.0 552654.0 0
288049.0 548256.0 0
286081.0 552113.0 0
290502.0 553061.0 0
295290.0 550404.0 0
300392.0 549627.0 0
304631.0 551858.0 0
309451.0 549338.0 0
314042.0 548274.0 0
318805.0 550169.0 0
323416.0 551551.0 0
327957.0 549328.0 0
333096.0 549926.0 0
339730.0 549158.0 0
346492.0 551045.0 0
352584.0 550870.0 0
358999.0 550577.0 0
365089.0 551984.0 0
369729.0 552692.0 0
373115.0 550895.0 0
377211.0 552402.0 0
381217.0 550383.0 0
385704.0 552429.0 0
388469.0 548936.0 0
390458.0 552091.0 0
394616.0 552583.0 0
398369.0 549539.0 0
403648.0 550983.0 0
411133.0 550049.0 0
408592.0 553120.0 0
414301.0 553464.0 0
420144.0 549348.0 0
425479.0 552354.0 0
431472.0 552318.0 0
436141.0 551071.0 0
444500.0 551172.0 0
449629.0 550729.0 0
454919.0 552151.0 0
461861.0 549183.0 0
459460.0 553381.0 0
464184.0 553259.0 0
468724.0 552808.0 0
473725.0 551867.0 0
478223.0 550298.0 0
484481.0 553112.0 0
486743.0 550316.0 0
490212.0 549059.0 0
493975.0 550600.0 0
497989.0 552334.0 0
2025.77 558995.0 0
8703.12 555199.0 0
6023.74 559049.0 0
13669.3 556889.0 0
19014.9 555838.0 0
23759.6 557080.0 0
28660.2 558418.0 0
31563.7 553977.0 0
33334.1 557944.0 0
36745.5 554738.0 0
45210.8 557425.0 0
41186.0 556810.0 0
49156.8 555621.0 0
55705.8 556289.0 0
60269.6 557969.0 0
67189.0 554751.0 0
76458.3 555324.0 0
73239.9 557466.0 0
80386.0 555750.0 0
85514.6 555659.0 0
90220.5 556867.0 0
95225.6 558081.0 0
98910.9 555601.0 0
103338.0 557219.0 0
107427.0 553795.0 0
108277.0 557823.0 0
113846.0 557294.0 0
119948.0 557644.0 0
124911.0 556536.0 0
128078.0 553358.0 0
133256.0 554324.0 0
138249.0 555262.0 0
142743.0 555307.0 0
146320.0 554861.0 0
146690.0 558228.0 0
149979.0 554178.0 0
154768.0 555582.0 0
158981.0 556248.0 0
163061.0 554209.0 0
166034.0 557435.0 0
170807.0 553828.0 0
169900.0 557579.0 0
175571.0 554384.0 0
180476.0 554018.0 0
184587.0 553643.0 0
189501.0 554220.0 0
193818.0 554885.0 0
193816.0 557881.0 0
204561.0 556656.0 0
213925.0 556787.0 0
215414.0 553445.0 0
217626.0 556336.0 0
222106.0 557107.0 0
227196.0 557324.0 0
232534.0 557735.0 0
235024.0 553341.0 0
238137.0 557137.0 0
242531.0 557324.0 0
250255.0 557290.0 0
259009.0 557081.0 0
264111.0 557285.0 0
270908.0 557801.0 0
275988.0 557303.0 0
281192.0 557825.0 0
286442.0 556091.0 0
295415.0 555883.0 0
300268.0 554258.0 0
304818.0 557443.0 0
308636.0 553575.0 0
314281.0 554345.0 0
320166.0 554953.0 0
325294.0 556599.0 0
330530.0 554239.0 0
336256.0 554244.0 0
341059.0 553944.0 0
344684.0 556326.0 0
349678.0 554908.0 0
355788.0 555850.0 0
361635.0 556290.0 0
367838.0 555817.0 0
373059.0 555543.0 0
377284.0 556915.0 0
381384.0 555267.0 0
391780.0 555622.0 0
387900.0 556979.0 0
396228.0 557631.0 0
400122.0 554232.0 0
400511.0 557612.0 0
405193.0 554007.0 0
405075.0 558048.0 0
411217.0 557854.0 0
417515.0 558051.0 0
419170.0 553676.0 0
422212.0 556471.0 0
426353.0 558470.0 0
428896.0 555506.0 0
435421.0 555572.0 0
438893.0 558184.0 0
440437.0 553623.0 0
446626.0 555116.0 0
451666.0 555999.0 0
456493.0 556476.0 0
461725.0 557178.0 0
467080.0 557744.0 0
471384.0 555707.0 0
475453.0 556535.0 0
480017.0 554318.0 0
484192.0 557857.0 0
490173.0 554712.0 0
496708.0 556454.0 0
2741.96 563258.0 0
9981.06 559211.0 0
8217.08 563614.0 0
13191.7 561840.0 0
17675.0 560659.0 0
21313.0 559283.0 0
24475.5 561187.0 0
21100.1 563688.0 0
27922.9 562540.0 0
31528.4 562848.0 0
37538.0 560507.0 0
43040.6 560600.0 0
47894.2 560501.0 0
51479.0 562348.0 0
52091.0 558843.0 0
56172.1 561726.0 0
61661.0 562656.0 0
64548.8 559068.0 0
66647.5 563187.0 0
69185.6 559270.0 0
73060.9 563793.0 0
77440.5 559355.0 0
79254.3 563665.0 0
83013.9 559991.0 0
84754.3 563774.0 0
87763.7 561292.0 0
92798.4 562871.0 0
99433.4 560381.0 0
104843.0 562636.0 0
110929.0 562191.0 0
115429.0 561752.0 0
119389.0 562821.0 0
124459.0 561508.0 0
129393.0 558457.0 0
135644.0 560245.0 0
142080.0 560641.0 0
147346.0 562772.0 0
151412.0 559024.0 0
156521.0 560366.0 0
162109.0 558735.0 0
160761.0 562861.0 0
165215.0 561916.0 0
170246.0 562390.0 0
173842.0 559017.0 0
175629.0 562311.0 0
179224.0 559086.0 0
182810.0 562976.0 0
185477.0 558616.0 0
190465.0 558863.0 0
193809.0 562454.0 0
198537.0 558379.0 0
203009.0 561326.0 0
210042.0 560025.0 0
215993.0 560590.0 0
221836.0 560895.0 0
219681.0 562982.0 0
225757.0 562759.0 0
231054.0 562592.0 0
236000.0 561938.0 0
241234.0 561387.0 0
246581.0 558719.0 0
254113.0 558417.0 0
251263.0 561012.0 0
256316.0 562529.0 0
261048.0 561830.0 0
266632.0 562250.0 0
276764.0 561663.0 0
286163.0 561210.0 0
290659.0 558387.0 0
295708.0 561934.0 0
299595.0 558501.0 0
301811.0 562711.0 0
310432.0 559142.0 0
306963.0 562683.0 0
315667.0 560642.0 0
320766.0 559638.0 0
325815.0 562569.0 0
329706.0 558882.0 0
331181.0 563074.0 0
333969.0 559005.0 0
339922.0 558477.0 0
342557.0 562686.0 0
346764.0 560762.0 0
351401.0 559249.0 0
356781.0 561838.0 0
361931.0 561204.0 0
366299.0 559752.0 0
370794.0 559414.0 0
375134.0 560907.0 0
380186.0 559995.0 0
385254.0 561575.0 0
391415.0 561390.0 0
396636.0 562848.0 0
400260.0 560729.0 0
409292.0 562607.0 0
414939.0 562764.0 0
422112.0 561852.0 0
431562.0 558889.0 0
428302.0 563500.0 0
435923.0 559761.0 0
434145.0 563241.0 0
443134.0 558463.0 0
439063.0 562616.0 0
448170.0 559924.0 0
453239.0 560973.0 0
458419.0 560988.0 0
463702.0 562068.0 0
468757.0 562976.0 0
472155.0 559523.0 0
475622.0 560757.0 0
479107.0 559047.0 0
478053.0 563675.0 0
482122.0 562179.0 0
488534.0 560625.0 0
493110.0 559964.0 0
494279.0 563851.0 0
497568.0 561405.0 0
4722.73 568142.0 0
9255.49 568241.0 0
12497.0 566164.0 0
16725.1 565214.0 0
20319.9 568366.0 0
25870.4 566147.0 0
35130.5 565050.0 0
31412.7 567654.0 0
40824.9 564517.0 0
45418.2 564495.0 0
42923.3 567898.0 0
52664.7 566775.0 0
58581.9 566883.0 0
63804.3 567305.0 0
68363.0 567270.0 0
77665.4 568432.0 0
82750.6 566857.0 0
87794.5 566051.0 0
92278.0 568701.0 0
98486.2 566055.0 0
103456.0 567633.0 0
108821.0 566933.0 0
114510.0 565985.0 0
119467.0 567597.0 0
124715.0 566725.0 0
130090.0 564529.0 0
136378.0 566852.0 0
140239.0 564366.0 0
143750.0 566296.0 0
152380.0 564153.0 0
148342.0 566834.0 0
157704.0 567415.0 0
163644.0 566342.0 0
168489.0 567576.0 0
174098.0 566512.0 0
178749.0 564446.0 0
188163.0 563769.0 0
184073.0 567656.0 0
189989.0 568113.0 0
199008.0 563933.0 0
194564.0 567779.0 0
202172.0 565957.0 0
206378.0 565000.0 0
213564.0 565583.0 0
218068.0 565862.0 0
221870.0 565977.0 0
228236.0 567547.0 0
233431.0 566632.0 0
238286.0 566203.0 0
242642.0 565663.0 0
246358.0 563552.0 0
249023.0 567030.0 0
252359.0 564319.0 0
256052.0 566696.0 0
260463.0 566818.0 0
265173.0 567416.0 0
271952.0 563557.0 0
276387.0 567593.0 0
281465.0 563906.0 0
281473.0 568273.0 0
290569.0 563994.0 0
286104.0 567102.0 0
298410.0 567841.0 0
303853.0 567063.0 0
308113.0 566971.0 0
311548.0 563978.0 0
315733.0 565460.0 0
320199.0 564512.0 0
323044.0 568197.0 0
327621.0 567673.0 0
332850.0 568023.0 0
336983.0 563625.0 0
341499.0 568059.0 0
346645.0 565749.0 0
351820.0 564641.0 0
356819.0 567310.0 0
360881.0 565380.0 0
364957.0 564108.0 0
366814.0 568278.0 0
370294.0 564133.0 0
374834.0 565401.0 0
378579.0 564105.0 0
378040.0 568682.0 0
382705.0 566444.0 0
388338.0 566893.0 0
393906.0 566666.0 0
398742.0 566770.0 0
403777.0 564539.0 0
411778.0 566775.0 0
416449.0 568224.0 0
420394.0 566326.0 0
424437.0 566996.0 0
432084.0 566828.0 0
428515.0 568627.0 0
436806.0 567506.0 0
442017.0 568579.0 0
444364.0 563833.0 0
447262.0 568488.0 0
450161.0 564619.0 0
451891.0 568143.0 0
455162.0 565600.0 0
460355.0 566153.0 0
465545.0 566891.0 0
473413.0 563858.0 0
470464.0 567369.0 0
475814.0 567510.0 0
481350.0 567469.0 0
485758.0 564545.0 0
490375.0 564760.0 0
493692.0 567980.0 0
497893.0 565877.0 0
1213.5 569851.0 0
2833.34 573471.0 0
7927.77 572352.0 0
12990.7 570996.0 0
17526.1 571750.0 0
23825.5 570152.0 0
21673.1 573512.0 0
27882.1 571829.0 0
33493.5 572509.0 0
38073.3 569042.0 0
42830.7 572404.0 0
47304.0 569109.0 0
51213.7 571745.0 0
55925.9 571539.0 0
61119.4 571458.0 0
66832.3 571946.0 0
71658.6 569593.0 0
74871.5 573065.0 0
80033.9 573076.0 0
85827.9 571761.0 0
91166.2 573306.0 0
96299.3 571783.0 0
100978.0 570965.0 0
106065.0 571584.0 0
111444.0 570551.0 0
115378.0 570391.0 0
118787.0 571856.0 0
122902.0 571121.0 0
129192.0 571703.0 0
135046.0 571710.0 0
140659.0 569636.0 0
147715.0 570176.0 0
144246.0 571735.0 0
147973.0 573133.0 0
152021.0 569741.0 0
162468.0 571196.0 0
167353.0 572417.0 0
173061.0 572637.0 0
178724.0 568964.0 0
177684.0 572391.0 0
181947.0 572639.0 0
187280.0 572180.0 0
193339.0 573493.0 0
199235.0 568533.0 0
203470.0 570083.0 0
199863.0 572710.0 0
208015.0 572688.0 0
209619.0 568645.0 0
213294.0 571077.0 0
218196.0 570070.0 0
222603.0 570097.0 0
226421.0 571932.0 0
231211.0 571138.0 0
236126.0 570933.0 0
241367.0 570199.0 0
246962.0 571739.0 0
253037.0 570905.0 0
258237.0 570634.0 0
262236.0 570636.0 0
270284.0 568658.0 0
266355.0 572258.0 0
273625.0 572481.0 0
278824.0 572568.0 0
282633.0 571586.0 0
286498.0 572274.0 0
290555.0 573259.0 0
292356.0 568850.0 0
306070.0 571213.0 0
301673.0 571987.0 0
310113.0 572942.0 0
312552.0 569049.0 0
318217.0 569762.0 0
324820.0 573299.0 0
330488.0 572672.0 0
336992.0 570497.0 0
345770.0 571363.0 0
350252.0 569560.0 0
355122.0 572505.0 0
361446.0 570872.0 0
372388.0 569945.0 0
382342.0 571400.0 0
387545.0 572795.0 0
392021.0 570686.0 0
396694.0 571250.0 0
402327.0 570234.0 0
407490.0 568998.0 0
407579.0 573817.0 0
404151.0 573659.0 0
412234.0 571895.0 0
417227.0 573223.0 0
421292.0 570632.0 0
426018.0 572349.0 0
432675.0 571819.0 0
438701.0 572968.0 0
444648.0 573322.0 0
451014.0 573156.0 0
457308.0 571042.0 0
462622.0 570570.0 0
467647.0 571938.0 0
473153.0 571350.0 0
478061.0 571383.0 0
482380.0 572268.0 0
486372.0 569662.0 0
490480.0 570529.0 0
493601.0 572634.0 0
497788.0 570187.0 0
1348.82 577317.0 0
6379.56 577636.0 0
11263.3 575899.0 0
16928.1 576935.0 0
25000.6 577374.0 0
29914.9 576728.0 0
34785.7 577749.0 0
38191.2 574289.0 0
39574.5 578521.0 0
43917.7 577294.0 0
47568.7 574295.0 0
52149.3 576266.0 0
57482.1 576728.0 0
62856.7 576250.0 0
67368.9 576853.0 0
71663.5 576870.0 0
77248.7 577428.0 0
83032.8 578097.0 0
88476.5 576687.0 0
94514.1 576622.0 0
99753.8 575725.0 0
105070.0 577179.0 0
110379.0 575238.0 0
115670.0 574842.0 0
113402.0 578928.0 0
120824.0 575829.0 0
125764.0 577073.0 0
130086.0 577619.0 0
134312.0 576019.0 0
139033.0 573822.0 0
143633.0 576963.0 0
151757.0 575445.0 0
157437.0 573735.0 0
163460.0 576037.0 0
167832.0 576930.0 0
172361.0 578560.0 0
177750.0 576051.0 0
182317.0 577572.0 0
186519.0 576766.0 0
198445.0 577565.0 0
203716.0 575284.0 0
208268.0 577263.0 0
213220.0 576283.0 0
217979.0 575154.0 0
221995.0 575059.0 0
225669.0 576191.0 0
230646.0 576618.0 0
236489.0 576130.0 0
242398.0 576055.0 0
247971.0 577231.0 0
252270.0 576286.0 0
256642.0 575283.0 0
261134.0 577110.0 0
266580.0 578039.0 0
272148.0 576923.0 0
277599.0 577659.0 0
282978.0 575917.0 0
288212.0 577594.0 0
295653.0 573689.0 0
293128.0 578166.0 0
300723.0 576506.0 0
307015.0 577492.0 0
314566.0 574221.0 0
319542.0 574779.0 0
322220.0 577878.0 0
331318.0 577535.0 0
334946.0 574382.0 0
340867.0 574682.0 0
345626.0 577456.0 0
349587.0 574880.0 0
355139.0 578302.0 0
360453.0 576994.0 0
367338.0 574145.0 0
371913.0 577945.0 0
377333.0 574818.0 0
383309.0 576188.0 0
389301.0 577926.0 0
393246.0 574990.0 0
400440.0 575290.0 0
405732.0 578286.0 0
412733.0 577129.0 0
417502.0 577816.0 0
421635.0 575475.0 0
426305.0 577514.0 0
430859.0 576528.0 0
435049.0 576698.0 0
441403.0 577980.0 0
446314.0 578066.0 0
456172.0 576633.0 0
461525.0 574806.0 0
466137.0 577609.0 0
472458.0 577117.0 0
478508.0 576432.0 0
483201.0 576197.0 0
488765.0 574214.0 0
492942.0 577884.0 0
497579.0 574796.0 0
497915.0 579267.0 0
2443.9 580696.0 0
6098.43 581956.0 0
11137.9 581739.0 0
17525.6 583331.0 0
22736.6 581676.0 0
28265.0 581705.0 0
33753.5 583056.0 0
39207.5 583307.0 0
43687.9 583412.0 0
48329.0 580892.0 0
54282.8 580946.0 0
59415.7 581746.0 0
64790.9 581285.0 0
69617.0 580884.0 0
74105.1 580968.0 0
78660.3 581814.0 0
84517.9 582848.0 0
87841.6 581049.0 0
92577.0 581409.0 0
97868.9 580891.0 0
102524.0 581113.0 0
109238.0 580427.0 0
117556.0 579675.0 0
122686.0 580101.0 0
127869.0 580965.0 0
133307.0 581659.0 0
138450.0 578911.0 0
148229.0 579098.0 0
154579.0 580392.0 0
159557.0 578768.0 0
190504.0 578876.0 0
297026.0 579605.0 0
312840.0 579073.0 0
317913.0 579472.0 0
326496.0 578877.0 0
336366.0 579414.0 0
341524.0 580608.0 0
345854.0 581408.0 0
350329.0 580242.0 0
358600.0 581746.0 0
363951.0 580877.0 0
367695.0 579175.0 0
371571.0 582413.0 0
375890.0 580145.0 0
380437.0 579054.0 0
385167.0 580971.0 0
392319.0 581989.0 0
396452.0 578897.0 0
401146.0 580422.0 0
405372.0 583268.0 0
410143.0 581586.0 0
415778.0 582881.0 0
421782.0 580479.0 0
426375.0 582685.0 0
431487.0 581264.0 0
437030.0 581196.0 0
442047.0 583215.0 0
446631.0 582354.0 0
451379.0 579798.0 0
456492.0 581228.0 0
461178.0 580333.0 0
465534.0 582842.0 0
470745.0 583144.0 0
476627.0 581546.0 0
481633.0 580446.0 0
486976.0 579434.0 0
491032.0 582911.0 0
495374.0 582356.0 0
453824.0 585142.0 0
487080.0 584539.0 0
POINT_DATA 5000
SCALARS Radius float 1
LOOKUP_TABLE default
5415.48 5120.0 6182.6 2356.98 5258.36 3163.97 5580.89 6810.52 5840.26 5073.35 4834.9 3863.18 5085.53 4998.37 5492.18 5061.3 3951.75 3642.12 4499.64 5812.43 5906.14 7513.1 5254.28 4436.4 5733.48 3588.44 5645.7 5553.16 6110.27 5561.06 5670.04 6044.04 5484.83 5351.6 4715.55 5867.73 5013.56 4375.68 5542.27 5484.19 5122.66 3557.27 4688.68 4402.52 4182.53 4517.56 4672.91 5176.86 4366.19 3672.51 2938.66 4008.92 3615.22 4380.59 6716.79 3850.77 5325.36 5538.89 4730.36 6059.59 5701.86 2720.68 4238.81 5054.98 4468.59 6030.06 5170.02 4927.31 5185.34 4432.58 5903.42 3761.32 3955.56 5292.64 4118.05 5065.13 4940.78 5936.02 5305.17 7613.27 5546.39 6759.9 7021.47 5926.61 4955.55 3563.63 4345.55 5885.03 5325.02 5200.76 4862.64 5017.13 5205.43 3673.74 6684.56 3968.64 2635.86 4385.06 6166.5 4290.3 4861.08 4231.61 3942.53 3379.84 3607.45 4951.03 4133.88 4094.62 5945.65 5418.62 5493.32 5416.38 6051.14 4195.44 5836.15 3261.21 6704.06 2837.58 3653.41 3871.88 5246.2 4390.66 4827.23 6116.18 7447.37 4688.67 7184.19 3867.67 4003.05 4827.82 3589.27 4333.2 4665.12 6483.19 6230.49 4601.27 3641.64 5740.68 4277.89 5539.32 6496.85 5600.93 3856.01 5541.59 4124.71 5279.39 4911.47 5803.39 4381.97 4924.6 4733.32 3255.82 2924.37 2899.43 2812.98 4065.69 5399.73 4805.87 5759.91 3260.67 3936.02 3383.4 4927.02 3856.1 5980.74 4174.52 5109.54 7054.71 5489.43 5747.75 4796.33 5360.19 4874.39 4839.34 5083.08 5728.85 6337.56 5863.59 3998.5 6257.19 5242.73 5603.15 5390.22 4712.33 6038.78 5227.21 3997.1 5123.52 3038.33 4295.38 4780.03 4044.71 3829.13 5816.2 3091.3 6458.82 5527.54 5054.25 5573.7 7325.81 4794.96 6186.19 2980.99 4840.01 6834.49 5525.39 5938.34 4024.3 5555.28 4737.14 5169.36 4695.45 4686.65 4660.72 5556.96 3888.21 5697.78 4667.36 4392.68 5495.39 4487.31 5693.81 5789.98 2540.31 6138.47 4727.62 5697.4 5206.78 4055.8 6425.26 5143.58 4484.76 5611.2 7933.0 5173.87 6394.38 5118.27 5932.23 5834.74 6052.7 3921.18 6902.81 5529.52 3554.9 5252.48 3996.0 4002.16 4015.92 4778.34 4138.16 4684.5 6029.66 6302.8 4270.95 4005.44 5555.88 5280.17 5028.96 6362.12 3866.16 5152.36 4220.65 6820.42 4455.12 5380.13 5711.87 5791.61 5788.23 3798.62 3666.57 5891.05 4254.17 4091.31 7199.21 6124.89 5708.81 5043.05 3486.22 5120.49 4414.54 5409.61 6038.2 5713.22 6732.43 3183.98 4524.28 4511.82 3778.1 5826.64 4816.2 4894.16 6321.41 4896.52 3372.79 4941.22 5282.64 5581.75 4479.66 6392.01 6644.76 5615.42 4523.7 5255.32 5337.48 5542.21 5924.89 6894.71 5262.61 5201.36 4306.53 5094.81 5972.06 4312.67 5861.71 5017.78 4359.04 3794.63 5015.69 4727.24 6175.81 6959.81 4829.35 4089.76 4751.02 5184.56 4715.72 3369.13 5367.2 5308.1 6372.62 6730.19 4937.02 7565.34 4929.8 5637.59 5481.78 3307.12 4937.14 4467.94 5551.36 6038.14 5024.9 6135.57 5998.38 4270.24 4989.15 4947.52 4520.1 6677.09 4305.57 5813.4 3791.79 5201.67 5526.55 3192.41 6084.93 4987.87 3315.57 4669.66 4808.52 3043.85 5461.13 4907.89 5629.19 6037.08 6756.95 4382.74 4049.23 5601.05 3586.91 3103.0 4948.92 3115.91 6084.86 5478.92 4933.21 4850.81 5375.47 4723.12 4717.05 5659.17 5287.2 4562.29 5423.8 3417.33 5080.66 4164.13 4926.42 4642.34 5153.74 5874.89 4293.03 4424.7 4754.05 4925.44 4951.47 5246.61 5215.15 4764.96 5046.33 5607.24 4726.76 3599.45 5655.21 5839.13 5091.39 5090.24 6324.23 2240.39 5096.78 4727.24 3320.52 4151.94 4651.28 4384.42 6355.42 4516.43 4362.19 3693.63 4493.48 4749.8 5810.84 5094.44 4230.54 3748.24 4655.49 4566.18 4964.09 4809.42 5856.11 4109.88 4234.94 5013.13 5714.58 5110.45 5248.77 3296.27 4083.97 4607.02 4165.81 4528.09 3556.85 4389.21 4128.98 5882.89 6246.22 4307.28 5804.71 5020.12 5053.92 6352.26 3735.44 4786.6 4073.93 4907.06 5923.5 4645.41 5740.84 4612.68 5530.87 5293.9 4129.43 4973.83 3912.37 6142.94 4931.38 4685.34 4329.05 6082.81 5927.43 5492.26 5690.56 5244.78 5762.84 5478.47 3937.74 5082.6 6142.37 6061.47 6163.38 5806.08 4997.27 3459.9 4093.08 5543.27 5628.24 3327.49 3960.8 4980.85 5070.39 4923.9 3329.99 4973.78 3947.47 5208.32 4713.25 6243.0 3895.51 6673.96 6291.51 5174.89 5370.52 4188.32 4100.38 5774.81 4739.42 5538.93 5727.3 4242.52 3057.03 3847.38 5356.51 5163.9 5495.68 4433.59 6043.3 6445.94 4310.18 4320.28 6342.25 4281.49 4218.06 3843.58 6691.39 4602.25 4792.73 5513.6 4736.58 3485.26 4556.36 5110.37 3191.99 5664.98 4659.59 6327.9 4048.37 4220.88 6640.13 6519.71 3092.35 5210.03 5351.39 6022.17 5119.37 3982.23 4336.42 5243.29 4853.39 4449.22 3130.65 5365.89 5992.26 4511.54 5196.0 4613.31 6119.09 5091.68 4204.84 5069.25 5048.89 3991.03 5441.96 3161.47 3435.9 4288.3 4652.29 4495.87 3697.96 5344.77 4723.48 4899.11 4745.45 4278.07 5281.28 2631.9 3818.59 4087.15 4863.72 5489.34 5708.14 5952.75 4262.82 5537.72 3920.42 6332.36 5542.14 4931.53 7134.64 5480.13 4194.5 4270.53 4790.08 5191.63 5344.25 4501.51 5379.87 3708.04 4901.41 5138.31 5264.06 3240.09 3369.23 4551.24 5358.59 3688.8 4548.16 4515.71 5449.18 5367.52 4322.15 4714.54 3629.96 3320.11 5507.24 6851.54 4583.31 4503.89 4306.11 3402.32 7589.94 5004.67 4466.03 5409.33 4898.94 5985.29 4178.15 4733.04 5788.66 7531.29 4755.47 5935.03 6390.78 7435.25 6826.57 4788.87 3746.31 5498.32 5027.98 5097.87 5346.27 6475.1 7267.18 6255.18 4143.08 4758.21 5002.48 7500.97 6623.85 5102.36 6122.55 8332.24 2739.94 5978.9 4187.56 5082.47 4840.84 4997.27 5344.0 5135.69 4593.7 6045.46 5681.38 4043.57 4478.15 4138.42 5925.6 5987.17 3979.82 6013.14 4602.86 2765.2 4621.75 4581.13 4219.07 3610.4 6387.01 6202.55 5025.39 5030.91 5893.5 4547.19 4377.07 5101.59 3813.22 5570.3 5935.47 5903.66 5313.66 4528.49 5512.23 5419.37 5275.32 4247.23 4649.22 4268.65 4694.83 5509.42 4354.08 5936.36 4520.62 5229.48 3903.75 5475.7 4485.99 5475.8 5314.69 6050.81 5543.46 4249.46 6022.72 4643.31 5527.33 6917.52 4969.21 2691.29 6256.02 4277.88 4668.71 7228.46 6362.14 3948.23 5228.18 5787.31 4342.9 5065.11 6155.31 4223.33 4553.56 6308.71 3629.62 5911.67 4716.19 5514.76 4301.06 3456.98 6405.76 4290.14 3815.26 4763.45 4150.99 5445.87 4216.92 4107.03 4271.69 3771.48 5198.77 5643.58 5147.67 4292.06 5006.58 5011.31 4481.53 5586.81 3948.17 3856.59 5413.79 4746.52 5572.95 6338.89 5584.06 7111.16 3817.13 6480.17 5023.15 3844.9 4564.34 3695.36 3963.86 3848.93 5076.35 6020.48 5200.05 4091.8 5234.29 4645.58 2651.49 5670.2 4711.62 4114.24 5349.31 2976.22 5394.55 5094.52 4256.43 2682.24 5928.32 5415.19 4016.18 5127.16 5526.75 5435.74 4244.99 5327.45 5560.26 5965.81 3702.37 2330.66 4177.19 3691.0 5402.21 4880.14 2845.98 4982.31 5320.92 5269.18 4406.1 6719.88 5034.59 4942.77 5978.82 3927.99 5069.84 4051.44 5329.64 3323.28 4050.9 6695.82 5835.78 3498.2 4877.67 4020.32 4704.72 4245.72 5908.1 4571.7 4177.94 4344.58 4742.68 5634.83 4502.5 5922.5 3929.19 5347.48 3633.87 3970.25 2775.04 4138.46 4850.01 5215.05 5577.04 4986.77 6318.18 5423.0 5077.33 5330.45 3689.45 3824.16 3868.18 6723.16 3686.21 5372.61 5402.24 4519.22 6445.22 3838.56 4871.44 6248.81 6375.99 5273.35 4853.02 6259.23 5181.4 3457.48 4662.56 5166.79 5417.15 3405.98 3688.16 4681.72 4946.74 5996.33 3950.63 4612.62 3619.07 4467.04 4275.57 6385.23 2614.4 2983.99 6185.89 3997.96 4750.17 4439.35 5660.85 3460.94 3990.25 6184.4 3758.07 4752.51 4373.45 3587.05 6229.37 4989.09 6718.19 5289.52 4307.48 5314.85 3848.54 4305.43 5450.44 6510.17 5080.18 4263.33 5868.82 5266.5 4454.63 4523.88 6049.55 4066.38 3279.1 5709.62 4241.89 5054.74 5941.72 4981.9 5794.24 6562.18 3066.13 4127.74 4541.21 4156.38 4302.5 6048.7 6009.88 5896.46 4164.68 5495.84 6268.1 3784.5 4862.21 5782.6 5113.21 5499.11 4011.77 4527.08 4374.35 6396.74 4810.12 6898.19 3821.72 6035.6 5526.14 5137.34 5198.29 4044.45 3975.31 5344.43 5125.78 4373.47 5045.38 5350.88 5130.91 4959.34 4948.5 5383.07 4527.02 4531.14 4247.15 5013.42 4602.85 5651.07 4962.77 5872.05 6101.92 5323.3 5088.44 4635.6 4998.21 6079.11 4256.67 3931.07 6430.39 7440.72 3949.6 4945.39 6326.18 5661.62 4867.08 6631.19 6648.68 5626.61 5817.25 5061.98 6363.92 6205.93 5830.72 3828.81 5309.98 4236.14 4407.87 5282.91 5941.4 4425.84 5331.02 4871.96 5742.65 5592.32 5912.61 4978.31 4099.77 4537.32 4414.48 5163.02 4656.78 2476.04 5105.16 5991.09 6006.16 4678.38 5316.75 5448.61 5050.65 5022.8 4827.33 7055.53 6133.92 5013.67 3719.84 4178.4 5669.65 5253.55 5820.48 7034.11 6261.42 2586.12 6125.34 5965.78 5252.34 2965.79 7099.43 6449.45 5315.4 3627.82 5262.19 6070.58 4244.9 4285.32 5490.43 6034.41 5452.83 5022.28 5197.52 5178.99 4790.78 4591.87 6422.84 6552.22 5379.09 5210.48 7552.94 4051.34 3627.55 6239.84 5865.39 4427.28 3082.32 5949.46 3658.37 4765.02 3178.54 5376.71 4448.13 5703.6 5070.29 4807.28 4266.03 5075.55 5280.69 4220.03 4713.74 5407.78 4084.49 6179.96 6632.99 4537.6 4923.24 5147.36 4419.61 7177.44 4563.46 4082.57 6553.94 5733.62 5255.18 5169.9 5282.51 3004.16 3797.33 7256.35 4105.55 4800.69 4863.23 4402.67 3555.86 5381.16 4403.98 4948.98 5565.13 4560.84 5227.52 6086.96 4092.24 4729.43 5233.78 4562.74 5776.57 5126.91 3942.07 5133.97 7443.72 3937.08 5371.02 5513.57 5260.34 5729.23 5206.48 5934.22 3780.23 6586.45 5826.04 3471.03 4359.62 5188.81 3745.84 5011.84 6057.22 6946.21 5062.71 5433.8 4497.59 5975.63 4410.55 4274.61 4287.63 5776.37 4516.28 5678.96 4190.31 5486.68 6048.86 5100.25 6894.26 4986.51 5339.38 6169.11 5615.35 5172.53 4027.09 4135.62 4502.18 5801.99 5534.94 7644.38 6004.68 6799.4 4409.63 5521.25 3661.9 5107.23 5370.85 5136.08 5558.68 3776.94 4010.57 5629.39 2684.03 6157.04 4768.61 2261.36 4522.21 5506.19 6719.94 6923.84 5227.59 5449.46 6166.29 5703.07 6113.54 4662.43 6260.79 4043.66 3963.76 5528.53 5726.66 5460.65 4460.92 4767.78 5945.89 4042.28 6566.1 4340.76 4435.36 6065.22 6386.78 4221.28 4996.99 4470.61 4631.83 6193.35 6887.27 3701.27 6008.49 4806.34 5653.9 7144.24 5598.74 3600.43 4906.82 6600.94 5131.24 6155.1 4788.58 4709.35 5876.71 5624.49 5226.0 5339.78 3095.48 4166.08 5762.59 4861.06 4298.67 5960.66 3979.26 6608.73 3999.48 4730.41 4203.26 3923.03 5696.88 4004.04 5690.26 4156.2 5607.14 6915.83 4289.17 6072.45 5564.02 4470.98 6444.77 6314.07 5083.41 3921.08 7055.42 5683.61 5805.86 4049.02 4470.4 5311.03 4611.53 5255.12 4285.66 3872.61 4896.11 4238.4 4318.48 6132.95 5266.22 4860.33 5226.97 3685.13 5754.18 3312.06 5180.76 5132.68 3361.26 3418.99 4480.95 4993.35 5278.36 6218.95 5222.16 5533.72 5533.42 4802.32 4599.38 5246.47 4187.31 6191.29 7422.36 5161.01 4298.15 4950.67 4628.4 5832.37 5453.6 6051.83 5409.63 5294.77 3077.84 4709.05 4630.82 4813.08 6799.88 4540.86 3062.43 5426.78 5235.17 5652.0 4779.5 5463.41 4421.12 5225.33 4929.75 5254.49 6649.96 4456.39 4896.39 4384.88 3633.79 6081.14 5480.83 4220.46 4287.53 5683.26 5612.21 5046.21 5894.61 5687.83 5196.67 5004.23 6496.67 6442.69 5474.8 4373.3 6320.71 4648.04 4750.78 6262.72 5029.78 3365.82 3664.11 6481.79 5374.51 5320.28 5224.12 3637.61 4569.12 4796.58 4472.17 5873.69 4962.09 5654.31 4643.85 6062.05 5082.74 5411.85 4844.57 4027.46 5092.37 3901.8 5511.88 5759.46 4512.11 6248.6 5443.58 3836.45 5687.85 5346.68 4558.46 5296.29 5020.71 5997.88 5094.48 2681.29 5839.71 5576.92 6408.83 3930.79 5365.24 4004.35 4763.96 5008.63 4270.74 6293.89 6595.03 4983.39 5366.52 4690.55 5146.37 7132.12 3678.08 4836.16 5518.57 5151.11 5463.48 3240.51 5730.33 4527.99 5545.46 4376.7 5190.61 3764.06 4642.93 3973.12 4263.16 6024.75 6109.49 5860.67 5567.93 5987.42 2967.38 5990.52 3764.1 4835.83 4159.35 6477.91 3091.67 4237.98 6439.37 6045.22 4081.97 4614.3 4303.19 5134.39 5514.84 4256.57 3914.2 5421.53 4607.85 5937.08 6070.3 5128.57 4929.14 6000.7 5945.08 3979.54 5139.5 7493.3 4814.55 5833.06 3527.05 6607.87 4163.5 6515.84 4143.78 4123.6 7092.87 4970.88 4850.14 6739.08 5463.38 4471.58 6098.14 5945.21 5750.71 3493.7 6222.42 4938.74 4200.03 3474.39 5470.77 4831.47 6939.12 4406.4 4735.33 3999.94 4413.85 6171.13 6853.85 2395.5 4864.22 4020.4 3497.9 5941.61 5782.48 4031.78 4933.65 6098.1 5708.99 2435.33 6333.29 6401.43 4558.47 5731.57 5662.55 5737.92 4360.23 3755.95 6234.32 4585.31 4586.19 5293.51 4446.06 3450.93 5323.91 5097.45 4185.61 5737.75 4558.15 2761.07 3778.02 6552.21 5417.8 4350.12 5227.02 5670.0 4232.16 5300.96 4344.51 5680.94 3781.77 5581.55 4543.1 5193.01 6550.44 3474.5 8325.01 3860.83 5732.27 4440.81 4523.39 5941.9 5434.47 6642.76 5829.22 4497.78 4243.79 5811.18 5332.65 6451.33 5604.35 5413.31 6316.56 4332.87 6420.81 4715.58 5401.99 3317.83 5580.92 5784.3 3532.3 6088.68 5769.98 3583.21 2221.99 5442.32 4643.56 4135.08 4863.01 5620.74 5233.29 5604.21 4968.03 3169.67 5204.04 5304.13 3306.14 5944.09 5698.77 3464.83 4863.79 4702.06 2477.07 5117.47 4538.95 5724.64 2990.77 5965.15 4925.63 4763.66 4888.6 4666.81 7042.12 4780.2 4797.52 6326.39 6643.85 6343.14 5501.93 4020.95 5462.21 6313.06 5374.98 6470.3 6345.13 4719.7 5516.95 5313.22 5563.79 5328.22 4151.76 4216.17 3905.51 3493.47 4721.02 4254.37 4596.75 3374.08 5564.23 5950.04 4231.83 4074.48 3614.96 4477.04 3886.68 5703.74 4747.55 5464.68 3056.7 2685.81 5591.76 4510.8 5889.35 5010.04 4394.56 6625.18 4570.98 4275.07 5825.38 4573.72 4047.87 5099.21 5742.47 4917.99 5636.4 4367.78 4095.75 3603.51 4298.45 5222.51 6609.84 5135.96 3834.43 5658.37 4707.06 6074.94 5491.37 4250.88 6348.03 3475.67 4792.39 5278.56 5146.37 6917.62 4013.38 5631.14 6137.8 4343.78 5433.65 5263.3 4442.22 4008.15 4887.76 4669.06 3012.99 4811.32 6400.08 4743.59 5208.14 4450.7 5151.52 3763.05 5092.24 5973.33 4347.74 5291.9 5067.46 4009.62 3580.58 2081.58 5356.79 4011.37 4312.56 4778.82 4612.06 6124.08 3361.92 5467.84 4750.58 5490.58 5395.14 6710.88 3967.48 4923.41 6213.04 4497.31 3163.78 4721.32 4305.16 3293.56 5882.65 5092.28 5078.86 4918.77 5163.55 4819.73 3382.7 6817.32 6471.55 5085.71 4319.79 5960.56 5122.63 5774.97 5862.86 6049.79 4703.08 4390.41 5226.56 5274.19 4050.08 5599.49 4097.57 5452.42 5017.5 3436.15 5005.85 5711.11 4575.94 6484.17 5021.88 3546.71 4938.72 5956.65 5768.57 4498.25 4188.87 5151.21 3735.24 5398.64 3573.73 6574.95 6817.57 4693.52 6853.04 4568.41 3624.7 4745.43 3420.08 5831.96 4912.04 4539.07 4475.83 5480.3 7509.24 5896.26 5388.78 6101.13 5599.7 4163.74 6969.28 3665.95 4296.69 5698.96 3319.67 6471.42 5283.8 4076.59 4428.14 5164.1 6464.15 4972.17 4479.11 6685.4 5699.53 4222.77 3783.54 5268.38 5527.23 7038.89 3863.67 4814.12 6193.08 5067.56 6069.3 3352.35 2735.53 5116.6 4909.65 6523.86 7693.4 4286.49 4437.07 6184.88 5829.32 4396.25 5551.95 5369.08 3918.87 5549.49 4518.04 3101.75 5423.42 4766.06 4874.18 2511.46 6505.78 5657.36 2775.69 6519.43 3619.79 5029.47 5053.95 6667.68 5926.11 5211.38 5235.11 3830.46 6031.67 6413.11 5529.42 5274.14 5257.12 4739.14 4434.19 4636.5 4903.82 5100.1 4940.42 3954.91 4371.99 3703.1 4946.42 5923.4 3561.29 4623.61 4082.47 3295.83 6413.02 2965.01 6263.44 6235.57 4863.27 4584.5 3492.19 6766.43 4118.84 3623.87 2315.64 5916.16 6934.37 4890.5 6113.95 3731.84 4488.85 4901.07 3981.07 3554.48 5186.3 5966.61 4893.49 5325.44 5102.75 3672.21 5760.22 4597.29 5938.17 4200.09 5931.77 5108.06 4914.45 4222.4 4000.43 4661.03 5160.59 5262.35 4691.91 4320.42 4255.34 5344.83 5064.79 7046.11 3427.63 4863.97 4146.81 6342.48 5756.75 5093.82 4587.67 5951.81 3924.14 6918.35 6238.32 6804.79 6372.13 5369.5 5404.01 6016.19 4124.49 5535.91 3230.13 5714.25 6176.67 5325.96 4850.06 6332.01 5412.24 7044.29 4805.33 4234.18 7085.01 5980.95 6153.94 6836.82 3862.77 5887.01 4631.99 5168.35 2783.85 3747.03 5388.39 4356.49 5335.47 4326.48 4526.81 3449.37 3994.07 4219.94 5491.9 5907.46 6405.0 4264.91 4659.16 5789.55 4633.05 2275.45 6605.86 4901.2 5012.5 4785.25 5435.19 5461.55 4270.15 5876.64 3298.2 6306.21 5253.37 5424.46 5266.01 5767.9 6515.8 5384.76 7016.27 6622.11 6138.12 4428.78 4689.15 6790.73 5746.28 4965.89 5187.7 5659.95 6090.91 5409.66 4152.85 4537.14 4219.78 5551.9 4188.3 4963.34 5081.78 4260.92 5499.39 5644.82 4440.57 4407.9 5203.08 6736.03 5412.31 3087.09 5548.29 7480.41 5163.77 6027.62 3766.55 3423.15 4579.69 5010.2 6123.03 6496.52 3991.42 4997.83 3718.69 4388.63 4834.87 4514.79 2216.82 4509.89 6752.75 5269.38 4795.43 5607.3 5097.95 2928.82 4698.87 5313.12 5351.56 3984.88 3344.57 5318.53 5220.76 4281.98 4732.09 6945.98 7165.9 5783.48 4701.5 4449.98 4771.65 5589.37 4840.44 5439.49 6639.64 5212.43 3687.65 5454.12 4834.3 6348.54 4066.57 5642.35 5156.76 6357.47 6101.57 4891.38 4793.65 5955.86 4532.89 2949.12 4533.37 4848.46 2779.99 5016.02 4581.37 4920.21 4049.16 5851.61 3936.95 5478.11 5526.31 5030.15 3858.17 3477.1 4740.98 3185.39 5128.77 3728.18 7122.87 5633.61 5048.19 4243.26 6799.23 4888.27 6740.71 5399.29 6487.56 4854.11 5971.22 4909.31 5417.21 6522.59 5711.62 4383.56 3562.79 4990.79 7093.13 4953.1 6865.76 6449.64 2978.76 3940.49 4857.84 2040.66 4908.49 4962.21 5089.62 5884.9 3685.13 3685.65 5243.43 4590.55 4655.16 4741.26 5920.32 4916.22 3701.16 4186.6 5251.4 3867.19 4453.64 4345.67 5019.93 5511.6 3885.86 4459.28 5235.29 4517.73 5177.64 4541.8 4255.31 6116.33 4479.94 5453.3 3838.47 6250.23 2588.37 5887.15 4718.54 4435.51 8659.64 5374.07 4055.54 4588.7 6419.12 5683.95 5469.13 5765.42 4233.8 6098.95 4976.12 4817.16 5453.98 5148.08 6192.0 4940.28 7610.49 5885.28 6579.31 3004.34 5323.55 3022.6 5375.1 4811.76 4172.6 5498.42 4196.37 6448.66 3556.79 4453.97 5138.2 6412.67 7001.83 4504.35 4593.7 5012.97 4036.91 5110.11 6379.14 5216.26 4887.52 5478.95 3851.85 6318.23 4058.87 4206.98 5174.75 5932.07 4984.46 5948.71 3856.53 5460.89 6040.74 5260.85 5742.09 2884.65 5887.38 5807.46 6942.34 4393.16 3658.05 4549.69 3311.29 6423.81 6192.77 3644.78 4312.15 4078.93 5934.82 4501.78 3572.94 5797.36 5001.58 4153.84 5119.86 4592.15 5084.17 4901.44 3776.8 4998.22 5096.43 5533.19 6156.21 6602.43 4798.17 3568.28 5425.98 5166.79 4516.53 2895.63 5818.95 4093.99 4122.92 4997.91 6464.8 5079.22 3604.14 4684.44 4452.54 4406.05 4749.59 3468.42 4858.44 4673.35 5799.69 3876.21 5571.72 5869.4 5689.26 4992.42 5297.19 6022.7 4255.85 4940.84 5097.69 5895.77 6261.75 4765.72 3757.34 5857.79 2908.7 6415.61 4039.91 4338.08 4752.14 5037.06 5660.16 5842.56 6134.99 5191.08 5424.88 4062.5 5415.85 4199.45 7234.66 4207.54 4886.12 6599.66 4936.96 4301.61 6107.89 3184.64 5206.33 4446.84 5530.49 4304.41 5660.55 5653.03 3989.7 5578.94 4157.29 4777.03 4246.61 4286.17 3684.56 6028.09 3804.5 5452.36 6486.37 4638.18 6083.28 5211.6 5806.31 4745.79 5456.71 3503.41 4908.75 7317.04 3971.08 6204.65 4482.9 6550.4 4349.13 3766.69 4891.67 6818.91 3503.65 3634.5 4027.63 6631.28 6571.31 5420.67 4392.65 6413.15 6103.11 5048.55 6459.51 4024.31 4955.16 5844.72 3992.97 5989.05 4054.22 7228.94 5393.65 4441.22 4961.99 4648.21 4595.12 3110.13 6484.43 4625.67 3485.54 4458.64 4583.52 6418.11 3492.83 6015.02 4922.49 5244.22 5585.14 7039.98 4820.17 6456.58 4729.42 4159.81 5089.26 3886.72 5415.45 6592.93 6350.71 6436.74 6104.26 2460.79 5583.61 6063.64 5996.66 4986.71 6479.39 4405.42 3598.08 4599.81 5381.54 4680.94 5810.77 5828.35 5089.1 2711.19 4028.32 5876.72 5236.43 4771.13 3809.69 4099.92 3208.96 7051.9 5285.07 4608.41 4680.14 4732.09 4184.23 3988.3 4833.46 6136.49 5750.07 4642.66 6543.13 5276.7 5149.72 4378.3 4687.64 4419.71 4888.12 4244.21 4950.97 5411.02 3197.63 5175.29 4989.56 4863.96 4094.73 5199.44 6200.54 5148.58 4652.01 3548.39 5421.64 3583.49 3673.28 4858.51 5052.84 3375.28 4366.74 5625.65 4603.5 4481.76 4647.67 4214.44 5375.12 5452.78 5065.26 4356.36 4892.44 6789.23 4741.28 4215.2 5069.89 2205.51 5107.0 6212.15 6813.72 5327.75 4946.23 4609.02 4896.65 5561.74 5975.23 6100.73 4198.94 5470.04 4211.82 6556.26 2628.22 5684.25 5438.92 4244.49 5036.98 5513.8 5188.53 4521.75 3429.57 5569.2 5350.88 5410.33 4642.74 6735.97 5305.59 5416.45 4330.58 5754.6 3288.01 4904.51 4147.31 2202.77 5751.15 5950.88 4149.55 6201.86 5853.89 6551.93 3380.69 4140.4 4386.8 3639.44 5446.4 4725.01 5966.75 5510.9 3657.69 4505.28 4883.63 4971.29 6280.13 3684.15 5832.29 4438.76 3994.39 6006.89 4618.73 3814.65 3965.3 5244.98 4960.64 5792.98 4385.81 4034.05 5690.96 5798.38 4456.11 3862.91 4653.83 4125.9 5096.24 6171.71 7382.3 3628.89 2995.67 4668.88 4022.56 5522.21 5027.43 5698.23 3772.3 4855.01 7300.58 4714.83 3608.06 5474.15 7519.2 6633.61 4884.59 6355.68 3858.06 4478.6 4083.79 4144.57 4511.7 4304.63 4351.38 4187.94 5933.7 5550.75 4809.67 5021.77 4757.74 5036.58 5469.47 5776.96 5329.59 4209.49 6119.63 5464.25 3498.16 5439.9 4752.9 5512.16 4617.55 4287.16 3645.12 3456.47 3875.05 5471.74 4344.34 5713.03 5849.65 4928.27 5134.67 5775.31 4165.21 5297.16 3332.49 4215.0 5354.66 3566.79 5116.66 3629.44 5378.23 5374.67 4787.97 4981.43 3746.36 4061.6 2603.64 5473.72 2856.55 6214.73 5361.87 4553.68 3703.49 6502.97 4783.07 3758.22 4757.2 4852.58 6200.63 4532.7 4504.86 4473.29 4788.08 5079.64 996.652 6163.54 5212.37 6003.78 5058.51 4901.29 4124.76 4050.03 4775.04 4120.07 4813.33 4952.52 4882.66 3840.21 6746.66 4954.76 3908.56 4844.83 5244.78 3636.15 5652.87 6114.89 5135.63 6384.7 4355.83 6870.97 5351.86 6056.87 5474.01 5307.35 4342.18 7554.58 5166.89 5491.63 5725.37 3868.62 5138.33 3743.76 3425.69 6711.21 5510.45 4730.14 2606.51 4941.02 3864.92 6119.99 2955.36 3668.93 4128.1 5372.82 4983.3 4402.17 7778.01 5127.82 5124.17 5805.1 5366.11 5039.12 3419.87 3908.98 4824.81 6589.82 6328.42 7307.21 5522.75 5867.64 6208.9 4923.57 3340.09 6059.93 5602.53 5217.95 5484.36 4867.7 4829.35 3953.55 4075.28 5980.59 4063.9 5263.27 6834.41 6300.92 7248.4 4356.25 5161.1 3796.15 6045.67 4216.95 5466.33 5742.74 3946.28 3821.94 5984.81 5721.05 4209.31 3805.67 5486.48 4409.27 5718.28 4247.69 5301.47 4947.24 4588.99 6242.79 4321.21 3540.11 6506.86 5950.45 5391.48 5088.57 5580.34 4803.57 3852.6 5966.42 5131.15 4110.59 4847.14 5210.38 4706.5 5717.8 3950.27 4811.22 3683.86 5003.78 4918.76 3299.24 4208.41 6246.56 5826.78 4508.18 6358.93 5175.89 3894.64 6618.21 4268.19 5232.85 4374.74 4062.56 3717.47 4051.18 3205.68 5969.37 6816.66 3844.54 3217.67 5034.69 4509.46 4680.69 4420.11 6500.49 5965.58 4972.18 4607.18 3352.34 5329.76 3899.7 2403.72 7200.89 4147.49 4802.98 4833.55 4081.34 3646.95 7224.99 6334.53 5377.37 5869.67 4311.48 5483.7 4899.73 5018.69 3152.86 5952.38 5973.89 3896.27 5807.52 5963.36 5230.02 5087.14 5169.48 6016.08 4731.21 3124.7 6064.71 3719.11 6102.98 6060.17 5153.18 4763.4 5902.67 4236.86 5454.11 5393.76 5806.61 4983.1 6010.59 7123.04 3756.96 4009.24 5906.57 4446.58 5401.4 5053.15 5910.86 6239.68 7320.78 4064.58 4834.44 4234.88 4384.28 5769.14 5944.3 3563.14 3381.82 3619.72 5135.5 5347.9 4646.51 5640.72 4438.58 4565.93 4504.52 7107.63 6061.63 5073.02 2279.05 6545.43 6760.92 4277.24 4989.2 4314.56 4469.54 5291.05 3928.53 6650.77 6226.14 5599.29 5280.12 4801.8 7216.98 4444.97 5046.12 5271.02 3000.29 4807.4 6329.53 4350.15 7013.17 4139.3 4590.01 5367.73 4514.39 4640.06 6101.86 5078.31 4227.41 5993.0 4923.43 6047.14 5009.83 4568.64 5666.95 4642.2 4127.53 5210.75 4474.83 4548.45 6555.44 5293.75 5658.14 5730.61 5114.07 4385.49 7124.45 5064.67 4383.68 5836.26 6666.67 2617.39 5144.44 4583.94 5046.31 4928.35 1937.5 5241.75 4731.53 5849.53 3763.9 4651.99 3538.53 4788.7 6127.39 5863.0 5640.12 6638.25 5078.59 4759.99 5134.33 2646.13 5419.57 5162.67 5760.98 4705.68 5469.35 5384.86 4749.96 4658.24 4906.11 4387.39 4564.1 5457.66 6394.19 4848.14 5366.22 6193.73 5518.11 3742.11 4192.21 5712.35 3597.43 5701.52 4158.91 4743.9 6776.22 3360.86 5321.17 4869.25 4467.13 5545.21 3877.8 6273.6 5136.87 5024.32 4708.17 3779.45 2741.2 5790.42 5784.37 3142.09 5591.77 3682.35 5182.13 6110.48 7541.76 4775.49 4932.29 4681.29 4990.23 5499.59 3220.29 5749.6 3845.9 4141.21 4439.71 5782.43 4708.31 4456.26 5113.6 4027.33 4198.9 3873.92 4810.98 5026.76 5091.22 6282.38 5851.63 4546.44 5727.79 5212.92 4831.93 5788.97 3472.91 4928.85 4023.93 5868.89 8137.11 4711.04 5484.32 4173.54 7144.05 5606.51 4619.2 5166.41 5740.65 6038.68 6542.5 7104.73 5067.56 2596.96 3834.47 6349.67 5701.75 3272.75 4264.54 5262.47 3516.27 5261.19 3104.96 3512.94 7043.44 6541.45 4263.65 3831.52 4263.78 4601.74 4750.49 4643.9 6106.43 5228.75 4807.35 6761.81 5467.63 4728.55 4929.6 3919.62 4368.28 5750.35 4489.99 5984.8 4945.0 4658.11 3127.83 4551.26 4212.15 5678.58 6570.35 4242.63 4263.18 3269.54 7142.95 4559.74 6015.22 4454.74 6063.44 2904.46 4826.52 5120.92 4337.32 4685.4 6240.42 5146.0 5721.14 4577.73 5084.5 4987.28 4918.64 4815.47 4368.12 4365.58 5214.4 4636.53 5399.43 3629.49 5766.05 5117.64 3835.81 3916.42 4019.34 4869.48 5429.3 3623.19 6653.07 4745.16 4697.91 5825.55 5509.51 5719.79 4316.5 3199.4 4371.08 7261.51 5254.24 4968.14 4914.03 5086.29 5144.56 5139.18 5311.55 5551.43 3034.16 5049.99 4201.03 4333.87 5001.87 3667.93 5684.05 5638.7 5813.79 4644.88 5293.13 7350.26 3768.46 5167.53 5003.3 6245.52 5800.81 3954.77 3784.94 6016.87 3125.13 6715.73 4174.44 5209.55 5667.51 4564.41 6331.74 5951.86 5431.29 4252.18 4833.67 5023.41 4659.88 5325.91 4092.07 4213.05 5657.55 4224.3 4184.21 4700.07 5188.82 5615.84 4464.73 5043.14 4717.73 6440.38 4732.37 5556.0 4985.3 5072.5 3904.07 3274.85 5007.21 5748.9 5545.59 4506.18 4067.96 5610.53 4824.12 4099.26 2970.9 5206.47 4580.06 4834.39 4608.34 4383.47 6162.3 3926.11 5971.21 5493.89 4057.17 5464.83 7066.96 4467.0 4991.35 4587.7 4994.65 5601.55 4258.98 5196.92 4462.87 3787.08 4013.86 5644.81 6545.99 5334.36 3903.91 2918.64 5630.9 4140.92 4554.68 4512.07 4692.32 4896.43 5463.06 5236.24 4585.04 5260.52 6102.49 3185.09 3469.18 5114.23 2945.34 3372.95 5495.0 4489.29 7407.91 5064.23 6061.85 5268.15 5512.44 6449.06 4924.07 3200.6 4629.02 5914.5 6006.16 4288.45 4608.62 5407.96 4071.75 6206.98 4626.72 5131.77 6562.03 5549.71 4410.82 6443.99 3889.98 5193.58 5490.64 5695.44 4507.46 3422.21 5036.14 5603.68 5510.96 4944.51 5532.72 4584.81 3220.8 5179.17 5071.98 5579.39 5270.51 5148.1 5224.64 5949.73 4312.48 5527.13 6370.33 4278.57 5081.08 6318.25 6864.06 4493.79 4279.44 4932.56 4899.19 5058.34 4028.22 3918.94 5575.11 5487.63 3852.82 4507.36 7145.73 4168.52 5403.97 5106.46 6793.1 4068.31 5166.05 3671.06 4506.66 5077.29 5515.73 4850.5 5426.4 5763.05 5129.68 5357.39 5076.84 3791.41 5853.12 4208.37 5157.38 6203.03 4841.7 5702.4 5235.87 5069.9 5273.37 952.938 5473.89 6089.45 5810.17 4966.07 5713.36 4657.24 4749.18 5553.94 5494.28 3663.0 4704.92 4954.81 6304.49 5755.15 5134.72 4835.97 5695.79 6419.64 5287.25 3622.8 4589.06 2781.96 4770.51 4431.23 5414.58 5577.41 4184.47 5917.34 5740.98 3999.5 4346.07 5759.79 4012.92 5034.05 4598.54 4177.47 5218.42 4816.51 4218.16 4933.49 6139.64 3990.94 4756.8 4357.11 5477.8 4176.32 4639.8 4462.35 3986.41 6069.78 4241.68 5532.75 6949.65 4095.83 5695.25 5676.61 4301.93 5846.95 5716.42 5701.63 5819.0 6347.72 3460.93 5124.86 4927.73 4602.57 3763.85 3565.32 3419.07 5710.33 5344.44 6432.8 3186.07 4369.86 4967.51 5173.82 7212.97 3720.7 5698.53 5034.34 3856.73 3769.2 4450.49 3468.45 5635.32 4526.34 4316.45 5610.95 5042.75 4598.92 5241.22 6647.08 4979.52 5490.75 3422.29 4407.79 5214.63 3495.68 5783.94 5352.24 7362.42 4202.77 5836.14 5473.05 6008.81 5537.34 5192.49 3487.31 5726.42 6643.4 4674.9 5461.72 6599.28 6224.85 4556.19 5368.66 4795.08 6562.92 5501.73 4697.24 3612.44 7035.54 4983.43 5117.52 5233.76 5866.91 6405.69 2820.07 5679.74 5247.01 4825.73 4165.36 5288.33 6296.54 5797.21 5685.74 6740.35 4678.7 6028.63 3673.6 3450.07 3306.84 5265.21 4550.92 6215.87 4400.14 3669.32 5866.42 4762.1 3742.31 4316.0 3987.69 4546.96 4287.25 5424.55 4392.75 4921.1 3814.16 4271.07 4191.01 4420.6 4475.38 5340.05 4920.88 5995.4 5890.25 6511.37 4216.44 6710.14 4726.2 4426.02 4711.15 3825.48 5345.73 4658.59 4770.63 5188.22 3810.68 4841.23 4196.62 2804.54 2809.19 5005.6 5486.89 7208.19 4549.51 5196.08 3587.93 4517.29 4975.85 4495.75 5323.95 6171.01 4468.26 5796.26 4603.04 4870.94 4620.95 5293.37 5368.93 5271.88 4488.39 6121.56 7168.2 4571.74 4096.86 4796.12 3622.48 5001.51 5385.86 5115.42 4082.4 5482.76 3745.02 4887.73 4211.36 5378.24 3604.31 5817.74 5887.71 5661.6 4827.61 5409.08 5285.75 5481.64 5385.03 5673.75 5360.67 6263.3 4501.05 4537.03 6548.29 3990.96 4114.2 4326.06 5034.46 5793.12 5757.29 5469.17 5061.75 4373.2 6022.78 5884.99 4087.32 6647.85 7025.09 4433.12 3392.26 2549.95 4361.24 7336.37 5138.93 6945.69 6406.8 7086.69 5648.78 6875.73 5226.42 6081.3 5615.35 3967.76 6311.89 4683.28 4217.36 6549.8 4150.76 4851.18 5005.72 5368.52 4871.77 5811.26 5062.77 6019.35 6075.99 5262.79 5927.2 5146.1 6485.77 5191.26 5544.27 6060.06 3484.81 5960.5 5308.33 6502.99 4666.12 4685.65 6219.34 6023.07 5674.63 6470.23 6506.63 4140.04 4215.05 4668.8 3495.3 4271.93 5322.11 5700.79 4697.49 5735.08 7133.44 4750.81 3953.26 4474.39 5467.51 5459.92 6478.35 4096.47 5453.77 4916.7 4104.04 5589.53 5593.79 5025.42 4965.24 6379.38 6257.79 5438.55 4849.5 5353.23 6229.83 4523.81 5578.18 5106.33 5198.94 5933.54 5559.79 2980.31 5879.24 3148.79 5740.78 6824.53 5997.91 4332.64 4742.82 6791.86 4209.0 6031.22 4930.72 5485.84 5728.58 6424.77 6297.99 5918.95 4538.89 5689.56 6556.86 3242.31 6099.28 5372.25 3234.26 4169.15 3494.16 4778.37 5134.17 5968.54 4904.35 5592.54 3247.97 5390.33 5124.34 4904.37 4358.81 4651.64 5729.92 5016.46 6224.13 3769.24 4761.84 3661.67 5517.65 4009.68 2569.12 4622.73 4161.32 5161.74 5099.9 5932.28 2960.5 5118.86 4298.7 4183.4 6170.9 4733.79 5833.78 4436.48 4823.06 5758.98 5288.64 6213.24 6734.39 5942.45 4228.53 6123.46 6142.88 5155.28 5111.26 5388.73 5205.38 4574.54 4884.93 4949.55 4600.71 4494.15 3957.38 5035.71 4419.79 4710.88 5407.69 3869.39 4117.9 5393.43 6896.55 4753.76 4638.09 4441.91 5377.01 5330.26 5339.6 5828.25 5939.22 3626.86 6371.96 5125.17 4604.1 4859.01 5524.45 5076.11 5990.75 5600.21 5101.6 4282.11 4625.53 2347.41 4542.16 5114.67 3543.37 5353.66 2638.82 5030.33 5104.39 5234.2 4612.13 5846.6 4109.44 5327.05 4903.84 4290.49 4434.65 5977.66 5209.5 5065.74 5791.25 4873.23 4028.35 5464.05 5453.2 6348.93 5136.51 6815.51 5232.16 4422.23 4457.05 4820.68 3989.26 3618.64 5703.84 4335.79 5453.69 5797.32 5432.04 3921.27 3702.45 5265.63 3161.1 4898.29 4431.06 5730.2 4830.13 5620.88 5370.9 4074.16 4529.77 4325.13 6172.27 3783.79 5078.73 4248.14 5278.54 5729.0 5192.92 5275.57 4179.87 4786.66 5891.25 5370.1 5129.4 5114.51 3303.49 4655.37 5585.25 5256.75 5023.61 6351.89 6530.78 5560.23 4975.32 3043.77 5237.55 3902.48 4304.64 6030.39 4905.53 3799.01 7392.65 5254.49 3757.23 4181.93 6828.8 5987.88 3579.59 6161.94 4065.28 4461.14 5057.59 5939.29 5418.98 5285.6 5615.06 1969.87 3132.34 4764.83 5203.54 4841.28 4047.95 5507.38 6889.5 4416.87 5300.17 5152.78 4057.4 4052.43 4896.67 5534.23 3934.11 4781.9 6025.77 6815.96 6153.71 5917.08 4725.11 5418.12 5092.93 5934.05 5322.07 4714.66 6771.18 5770.07 4984.17 4656.01 6589.13 5602.62 4037.86 5714.51 5628.97 2030.03 4938.33 5527.27 4484.78 5157.73 4541.22 5847.91 4946.08 4934.66 3539.68 4984.01 6217.33 4605.39 4557.1 6688.53 5927.1 6175.27 5876.51 6731.89 5410.6 4733.41 5264.83 3901.53 5431.14 5313.86 5178.07 5189.91 5777.26 4171.02 7012.36 3530.82 5028.06 4002.99 4886.99 5159.67 5764.52 5684.88 6523.78 4645.86 4045.67 6005.95 4941.52 5900.0 4262.74 4581.1 6241.77 5317.19 5279.19 4016.6 5821.49 7050.08 5580.44 5998.13 5095.52 4746.15 3720.38 4758.84 4731.37 3976.0 4672.86 4068.41 5059.37 5783.38 4139.39 6264.03 3909.94 5088.64 3562.8 6589.8 3729.16 5319.1 3783.36 3038.91 3922.28 6570.43 6883.86 3445.92 3820.19 3350.99 4979.5 4586.82 4745.37 6026.04 6200.05 5575.11 4052.49 4034.41 5490.54 5326.03 6189.67 6142.94 4948.96 5001.69 5117.83 5256.82 6581.56 3980.46 4061.87 5165.31 5383.9 5158.44 4466.22 4288.5 4496.51 3886.56 4511.05 3456.3 6561.94 5483.37 5259.21 4256.08 5881.93 2803.01 4399.52 4444.0 4554.24 6182.19 5327.39 5781.62 4138.59 4981.81 5141.03 4970.55 8123.59 4621.33 5765.14 4767.54 5121.08 2927.84 4696.03 6177.68 4698.7 6270.59 6045.26 2848.44 6500.45 4907.55 4103.76 4286.61 2932.52 4603.66 4757.87 4969.68 3557.46 6636.43 5971.95 6298.8 3979.46 3689.24 6321.97 5151.19 6509.54 6119.0 3792.06 5128.59 4293.3 5587.3 3572.73 4864.38 3770.22 4848.98 4390.64 5150.84 4608.01 5087.97 4308.49 4519.03 4930.17 5110.27 4745.44 4085.96 5762.82 7360.12 6223.98 5462.6 5617.29 3035.06 4262.19 4597.88 4878.93 6275.25 6892.33 4505.3 4452.36 4491.26 4511.34 4832.21 6463.71 4742.35 5394.79 5645.54 5264.08 4526.87 4151.74 5192.82 6920.92 4174.22 3573.84 4067.89 4515.02 6294.09 4571.57 5131.07 5236.69 4121.07 5524.28 3133.28 5731.43 5859.17 6353.81 4150.44 3518.14 5061.74 5771.98 4420.35 5899.78 5717.45 5772.57 4813.81 5268.27 4013.86 5244.95 4645.93 5448.64 4585.37 3798.09 5901.8 6417.61 5715.51 5783.69 6074.39 5317.83 6738.9 4460.89 4157.1 8052.53 3939.96 4867.12 5910.66 7415.84 4637.3 5734.07 4840.44 3997.68 6033.28 4819.83 6286.27 4801.16 5071.38 5616.66 5688.77 5368.28 5466.13 6229.64 4220.43 6263.87 5743.8 4094.63 6666.34 5084.76 6605.11 6834.92 6379.33 5130.57 5652.73 5402.45 3985.93 6412.84 6071.59 2589.19 6079.55 5485.61 4993.49 5310.33 6583.37 3688.83 4569.32 3402.44 4491.96 6084.88 5184.98 4397.06 4467.51 5339.82 4479.5 6261.67 5460.57 5065.78 5703.34 4612.68 6668.98 6649.52 4232.33 4939.56 4747.68 5770.92 3093.38 4845.91 2002.78 4461.67 5631.32 6322.0 5793.14 6345.2 4609.65 5704.61 5009.21 5410.73 4379.91 4574.03 5290.37 5850.38 4227.66 4691.01 4730.97 4594.89 3677.85 5245.95 5821.42 5214.71 4811.11 3463.53 4924.52 6126.03 6044.69 2970.24 4197.87 5105.54 5462.1 6032.45 3414.67 5444.36 5522.34 4026.03 2649.69 6908.32 3467.11 5000.74 6153.26 5637.53 3882.37 4634.25 4095.4 5188.57 6351.48 5395.12 3721.69 5357.33 3830.7 6210.0 5350.9 3483.61 7430.48 5992.06 5545.68 6080.69 4970.12 4967.93 6044.01 6520.19 1458.87 5973.57 6241.48 5125.45 5957.82 4188.16 6327.54 5507.07 4802.36 2943.17 5327.71 4880.78 5257.38 5075.23 5625.02 4975.56 7282.36 4829.77 3826.01 4645.91 5581.01 4125.75 5749.53 5247.73 5090.48 5034.02 5582.28 5945.25 5181.31 3856.4 4696.06 4137.16 4937.36 5308.4 6581.13 5537.61 5803.3 4721.98 5252.82 4199.44 3543.98 4053.12 5056.26 5878.55 4014.44 3435.13 6002.77 4431.46 3794.47 4521.42 4610.55 3207.84 4967.02 4614.49 3977.98 5400.69 6043.34 4462.5 4128.93 4959.72 4712.17 3808.04 4723.71 4405.61 6126.5 4034.88 3511.5 6007.1 5488.96 3188.21 5128.03 3720.92 5087.3 4942.63 6139.74 4975.57 7066.26 3057.3 6150.31 5873.62 4677.84 4996.91 3920.44 5379.52 4866.8 5658.05 5314.67 6593.1 4066.36 4000.51 6033.93 5011.37 2827.92 5044.68 5092.44 4441.44 4232.44 5336.61 4817.75 3312.3 5563.09 4848.15 3282.57 4439.09 4798.13 5523.81 4718.61 6697.45 3873.79 5717.67 5515.59 5252.37 5432.4 4262.52 5037.58 6457.89 5640.67 6572.17 3751.73 5555.89 3374.62 4766.47 4926.62 6369.66 5678.08 5872.45 5922.62 4414.09 5191.29 3784.68 4947.64 3717.22 6649.21 4654.92 5286.55 5522.18 4322.56 5509.09 5223.1 3873.72 5212.05 4592.49 5479.86 6474.5 3928.99 4702.32 4444.92 6959.88 5971.9 3746.62 4532.67 4876.37 4769.62 5260.13 4649.5 4810.74 5985.75 5475.83 6189.29 5984.55 5672.46 3228.27 5202.33 3956.24 7558.99 4142.1 5043.14 5333.04 5445.91 6604.72 4812.59 6842.54 7115.67 5675.45 3361.11 6038.56 5573.31 2807.46 5004.68 5599.16 4023.88 4179.8 5348.11 3488.34 5658.35 5428.24 5108.84 4582.12 4520.14 5067.92 5357.14 4850.95 5919.27 4793.06 6637.38 6188.33 6111.23 6916.18 5786.06 4137.41 3868.69 5447.74 4450.51 6033.72 3768.62 3851.47 4966.74 5563.47 5651.46 3162.27 5639.4 6185.73 5516.37 6520.96 5432.2 4612.4 4746.19 6381.58 5212.2 5648.59 4611.21 5108.42 4630.5 6296.36 4432.32 4451.76 3224.81 4499.54 3775.38 4046.22 4104.97 4844.2 4575.72 5114.61 6118.13 4420.3 6332.64 4871.1 3917.09 6009.93 3482.73 4083.1 5270.1 5130.56 4957.99 6305.9 3470.69 4542.62 4859.95 4132.08 6009.88 4699.77 4850.49 4981.55 3625.98 5144.23 6188.62 6153.07 4414.06 4763.04 5944.52 4413.56 5050.2 2513.38 4821.41 5316.05 4908.32 3995.08 5019.84 3874.12 3900.93 4028.13 5784.38 4149.17 4329.8 5728.27 3074.49 3053.19 5580.95 3549.92 3393.59 4032.06 5246.81 5089.1 5888.95 4521.99 5394.78 3463.34 2853.68 4998.37 5329.84 6559.82 3879.83 6565.95 4577.98 5886.81 4487.51 6805.02 4295.25 7394.47 4729.45 6261.13 5374.09 6271.22 3421.81 5378.75 3920.64 6186.24 5822.7 3780.07 5466.49 4038.17 5007.41 3692.99 4907.48 6213.74 4959.94 2329.93 1635.31 6938.87 5412.07 5512.57 4083.24 4806.99 4813.55 3771.91 5217.62 3839.0 6178.19 4616.81 5715.25 4362.94 4469.82 6545.78 3354.94 4404.87 5237.27 5767.65 7885.41 5782.25 5497.27 4081.77 5617.91 4948.21 4987.01 2181.29 4202.12 4706.31 2694.25 4735.99 6492.44 4613.32 5145.39 3352.46 3996.93 6351.95 5195.09 4063.26 5345.05 4997.89 7679.2 5093.28 4881.51 6131.52 2626.41 4311.92 6729.99 5093.41 6842.35 5464.34 3621.63 4777.96 5801.89 5908.57 7296.47 5742.39 4780.16 4924.53 5616.11 4499.52 4433.23 4813.24 5759.19 4457.73 3113.64 6476.35 4304.75 6260.58 4067.24 6139.9 6571.26 4313.38 6598.99 5250.56 2468.16 3633.58 6294.14 4339.97 5203.75 5169.09 5122.38 5262.85 2459.88 4210.24 5470.67 5901.71 5342.9 5733.12 5043.34 6436.29 4246.24 5402.81 5354.48 4600.81 5640.63 4900.26 5783.88 4167.55 5002.38 4720.34 5244.47 4865.11 4731.16 5510.89 6470.87 4495.33 5282.67 4159.89 5178.55 5146.69 6203.24 6818.23 4488.41 4369.87 5652.19 5806.74 6578.62 5856.43 6284.12 3465.03 4796.04 5349.85 5229.56 5799.86 5172.1 6052.22 5376.41 5003.63 4870.14 2932.2 5105.72 4944.08 4082.01 5003.49 4750.76 3964.03 4907.03 5832.72 3903.9 4444.95 4721.2 5161.02 6265.48 4203.68 5003.81 4739.56 4701.03 3818.37 6225.05 5434.04 5200.1 3997.52 5779.9 4909.74 5310.33 5299.03 6664.54 3922.98 5161.73 5259.48 5254.93 4803.4 6833.5 6608.94 2613.78 5417.07 5738.37 3834.01 6789.66 4739.41 5312.2 5847.27 4490.2 5480.86 5734.84 3982.31 4720.22 4950.07 2832.83 5827.3 6036.99 3010.1 3825.98 4589.22 5087.03 4667.84 3906.41 4691.15 4123.08 4512.6 4260.38 4636.45 4932.27 5225.11 6793.49 5252.22 3563.33 4962.35 6060.19 6786.37 4333.23 4328.76 4919.13 4124.33 5168.97 4358.06 5093.51 5647.93 6705.93 6201.49 5449.09 5502.14 4605.61 4465.56 4131.08 5386.95 5747.9 3864.19 4287.93 5332.11 5315.71 6158.93 5081.65 4823.14 6679.12 4621.32 5699.4 3878.8 4698.94 3948.21 4286.84 5669.15 5296.05 6011.4 5263.86 4672.34 3330.85 5056.32 5533.52 5410.33 4695.7 4747.24 4380.86 5576.16 5269.39 4305.35 5210.22 4216.33 2451.27 5677.42 4929.35 5606.22 3943.77 3124.49 5242.38 6081.35 5459.52 6262.18 5566.5 5663.36 4276.59 5579.04 5125.53 5994.21 4444.54 5403.81 5082.25 6964.78 4374.05 5036.84 4565.36 5813.68 4025.08 4008.67 3618.53 4770.21 8013.28 3846.55 3796.73 3082.16 4644.68 2892.36 5656.84 5416.41 4694.27 6760.64 4706.59 2515.5 5177.88 5551.79 6981.47 4582.24 4474.96 3916.15 4758.76 4084.87 4790.63 5259.29 3584.05 4916.75 4818.53 5097.85 5584.64 6189.04 6224.64 4221.03 3799.55 5638.51 5082.66 4550.77 4337.93 3550.88 4345.51 4048.73 5536.0 5145.13 3860.8 3747.96 5561.63 5940.5 6568.45 5004.22 4280.92 4696.92 5154.74 6437.99 6898.8 6540.57 4893.72 6004.72 4072.4 5373.78 5345.65 5438.5 4489.18 2489.44 5863.36 4632.75 5237.76 4994.98 6423.96 6058.13 5894.69 6988.4 6635.51 4060.17 6051.35 5302.53 4909.13 4287.61 5648.02 3308.75 4604.34 4439.17 2701.42 5442.79 5051.39 6673.92 5151.68 4884.94 5362.15 4609.98 4455.61 4738.72 4752.31 5240.97 5569.85 5405.6 3929.35 4884.93 4759.38 6960.97 4287.15 5282.51 5504.65 5669.41 5732.11 5040.9 3919.47 5596.68 4868.66 4004.39 5159.9 5283.65 5943.61 5981.54 5911.29 4542.25 4414.23 5233.88 4849.21 4785.55 3793.83 6189.81 5367.05 4449.73 5647.11 4088.72 3945.62 3743.85 6236.46 5342.17 6379.3 5015.67 3795.63 5189.4 4576.71 6538.04 4894.15 6157.59 5201.3 5848.41 6223.33 4090.28 5438.6 7370.52 5611.29 4521.88 3724.23 4963.88 4601.54 7263.57 3832.09 5705.96 5267.65 5739.69 6632.04 5360.88 7360.62 4977.64 4985.45 4983.56 5699.51 5499.37 4883.13 4836.76 4752.94 5551.09 3950.53 4501.1 5581.47 4384.91 4987.01 4713.56 6094.34 6779.82 5543.67 3999.81 4867.13 6377.45 4863.27 4182.05 4502.12 3255.93 6853.07 6327.61 4633.59 5733.59 5575.8 5268.93 3695.72 6874.6 5106.9 5306.31 5523.96 4223.53 4733.37 4535.94 3037.72 4523.9 5126.08 5604.0 3760.4 4951.02 4602.7 3783.35 4037.16 6395.63 4987.48 4248.58 5479.17 5020.37 5245.4 4246.83 4726.5 5467.05 5103.3 5888.94 4727.98 4122.2 5175.88 4516.26 4790.16 3509.34 3647.26 3731.58 3166.37 5369.42 5207.08 5205.53 4714.52 4587.19 5543.05 6028.89 5333.16 4888.17 5755.98 5392.85 5077.2 4274.05 6550.61 4277.54 5529.09 4531.46 5925.82 5448.68 4739.5 6210.48 4491.62 3865.5 5275.27 4072.95 
SCALARS Velocity float 1
LOOKUP_TABLE default
1.54065 1.54434 1.54763 1.54523 1.54666 1.57541 1.5473 1.57274 1.51478 1.51604 1.54073 1.54318 1.54275 1.54538 1.54277 1.56912 1.55331 1.57607 1.57115 1.5785 1.5891 1.5939 1.59232 1.54291 1.53265 1.54765 1.55725 1.57881 1.60278 1.50665 1.51391 1.5409 1.54179 1.54067 1.54689 1.54992 1.55524 1.57438 1.58107 1.58782 1.58971 1.5918 1.6041 1.59154 1.51753 1.52108 1.5383 1.556 1.55378 1.56881 1.56885 1.5968 1.5954 1.56722 1.50783 1.54008 1.54275 1.5475 1.54661 1.55126 1.5597 1.55897 1.57854 1.58411 1.58217 1.58685 1.59308 1.59853 1.59231 1.50937 1.53371 1.54464 1.56058 1.50667 1.54513 1.54331 1.5835 1.56112 1.5894 1.59542 1.54419 1.54466 1.54507 1.5514 1.55973 1.57917 1.59476 1.56641 1.59309 1.6109 1.59244 1.60688 1.51134 1.5624 1.52156 1.45563 1.52357 1.49612 1.53822 1.55199 1.55535 1.5623 1.59602 1.6261 1.65524 1.58192 1.55137 1.55377 1.54478 1.54589 1.54455 1.5567 1.55312 1.54467 1.56624 1.56882 1.61133 1.56065 1.56857 1.52738 1.62948 1.617 1.57358 1.5127 1.50864 1.42403 1.56991 1.53779 1.5184 1.55551 1.60469 1.59248 1.55571 1.54666 1.55063 1.55813 1.55859 1.56697 1.55444 1.55807 1.63888 1.58333 1.42183 1.49105 1.22855 1.60704 1.53029 1.52314 1.51312 1.43389 1.62803 1.47612 1.54445 1.55902 1.57477 1.5374 1.49947 1.54024 1.59131 1.58811 1.55838 1.5576 1.54923 1.54602 1.55536 1.55193 1.56449 1.56358 1.55816 1.58838 1.5708 1.5182 1.53795 1.62134 1.27544 1.61216 1.52937 1.51225 1.52539 1.51536 1.61425 1.55994 1.50927 1.5262 1.54847 1.56387 1.5821 1.57224 1.57982 1.572 1.55411 1.54542 1.56476 1.57169 1.57455 1.5973 1.54153 1.61691 1.54372 1.54603 1.36575 1.49887 1.30694 1.25345 1.56023 1.54792 1.54745 1.52467 1.54879 1.58536 1.5716 1.50473 1.57121 1.51794 1.50692 1.54296 1.55475 1.56921 1.55831 1.55009 1.57371 1.59022 1.6252 1.64329 1.54525 1.43545 1.46449 1.40795 1.56171 1.40601 1.45911 1.33098 1.47782 1.56471 1.55668 1.53327 1.58927 1.56247 1.56576 1.49199 1.54536 1.56285 1.54131 1.5488 1.54923 1.55269 1.57767 1.5478 1.59838 1.61362 1.63095 1.63149 1.50607 1.4535 1.39822 1.22021 1.43456 1.45479 1.43404 1.45319 1.44243 1.50044 1.53176 1.56062 1.5451 1.61705 1.55271 1.56207 1.51447 1.62674 1.57715 1.57218 1.57014 1.51769 1.55662 1.55286 1.62344 1.67638 1.59876 1.51294 1.43811 1.39999 1.31331 1.42453 1.45796 1.45639 1.47238 1.47786 1.48832 1.52841 1.54518 1.54432 1.55085 1.53541 1.64136 1.52388 1.53452 1.53268 1.57022 1.61273 1.57985 1.50375 1.50187 1.59783 1.56969 1.5613 1.72769 1.3445 1.43171 1.41061 1.40089 1.35627 1.39592 1.42349 1.44918 1.42647 1.47148 1.47361 1.49517 1.49785 1.51467 1.5281 1.53595 1.52364 1.42353 1.51156 1.55778 1.54056 1.60817 1.58672 1.63648 1.60995 1.50292 2.0732 1.82107 1.57256 1.53838 1.59488 1.69447 1.64105 1.3642 1.33338 1.3633 1.37139 1.37784 1.43807 1.49486 1.57274 1.51359 1.51244 1.5134 1.52121 1.5114 1.51333 1.45415 1.43584 1.44556 1.47751 1.48316 1.52861 1.59916 1.62712 1.65804 1.58152 1.54589 1.456 1.56091 20.2748 1.56405 1.55344 1.37047 2.22717 2.1286 1.71275 1.69805 1.78626 1.56411 1.47488 1.37809 1.36765 1.3423 1.34928 1.34841 1.36222 1.40065 1.4434 1.44052 1.42657 1.53058 1.2774 1.46329 1.51582 1.50353 1.49034 1.43545 1.50112 1.4128 1.45184 1.49416 1.50351 1.60017 1.64398 1.60515 1.74057 1.56724 1.65936 1.67982 1.75551 2.16666 0.800224 1.58289 1.31327 1.16298 1.27804 1.29571 1.1929 1.15487 1.27834 1.33249 1.37702 1.94434 1.07463 1.72235 1.3553 1.79323 1.65903 1.34497 1.47764 1.52057 1.46962 1.24166 1.34697 1.36124 1.55609 1.45009 1.4587 1.27162 1.21848 1.15613 1.4224 1.2678 1.41903 1.47128 1.45193 1.36666 1.33151 1.46722 1.38273 1.48778 1.64562 1.55839 1.36336 1.11048 0.901888 1.37138 1.48315 1.25358 1.18309 1.23798 1.17586 1.10937 1.07365 1.17653 1.08517 1.07299 0.945585 1.08644 0.977594 0.988491 1.12748 1.1681 1.22451 1.12439 1.20902 1.25983 1.18091 1.41521 1.38571 1.59841 1.49338 1.34471 1.31542 1.19171 1.44133 1.30493 1.30201 1.40189 1.31011 1.45841 1.24918 1.96519 1.28009 1.29695 1.57768 1.61565 1.16601 1.26503 1.29894 1.23342 1.38267 1.26529 1.31744 1.28174 1.50608 1.1657 1.33993 1.48283 1.55161 1.4369 1.32265 1.29341 1.1746 1.25409 1.26247 1.19258 1.17435 1.12894 1.1122 1.10127 1.01099 0.988791 0.968845 0.986854 0.979943 0.977837 0.962904 0.951998 0.959943 0.936965 0.938541 0.96809 1.05983 0.953144 0.959914 1.07344 0.953774 1.06134 1.11605 1.10483 1.09436 1.11871 1.09806 1.02885 1.01286 1.39842 1.32356 1.27543 1.22302 1.36026 1.32786 1.46838 1.46664 1.32871 0.663888 1.47946 1.41549 0.823004 1.25991 1.21261 1.26712 1.09427 1.10294 1.02606 1.10484 1.26229 1.34046 1.32517 1.23855 1.25262 1.1486 1.69435 1.56777 1.83709 1.25805 1.21822 1.17501 1.25981 1.24113 1.19276 1.1561 1.18818 1.13917 1.14723 1.11508 1.22927 0.962305 0.985213 0.971246 0.967375 0.964238 0.980445 0.963471 0.934744 0.907977 0.94337 0.960088 0.92101 0.938024 0.896681 0.932786 0.955376 0.942635 0.926012 0.985328 0.9423 0.990277 1.08066 1.15853 1.37289 1.08983 1.06438 1.08123 1.08557 1.06797 1.03033 1.10541 1.0623 1.33094 1.34107 1.18739 1.63352 1.26789 1.2878 1.07981 1.07544 0.78003 1.37923 1.51423 1.12448 1.11029 1.24009 0.975793 1.06917 1.33263 1.3871 1.2419 1.36558 1.22778 1.10994 1.33284 0.94272 1.43254 1.2808 1.21477 1.15212 1.07933 1.10952 1.14459 1.0475 0.841824 1.10523 0.857094 0.915764 0.929997 0.943882 0.929797 0.941403 0.871426 0.913916 0.852307 0.84746 0.957599 0.892426 0.910987 0.878391 0.880196 0.86977 0.873172 0.85267 0.880237 0.895721 0.903831 0.906299 0.939149 0.958962 0.982445 1.03519 1.0404 0.990239 0.899579 0.904096 0.848056 0.905212 0.965589 0.916322 1.14017 1.16864 0.967088 0.931865 1.16958 1.30686 1.14534 1.12358 1.11622 1.19651 1.16274 1.29911 1.45595 0.798579 1.10739 1.16007 1.18186 1.16209 1.07938 0.850575 1.04887 1.05738 1.4923 1.03319 1.23922 1.34925 1.4918 1.03326 1.26625 1.25951 1.25887 0.945108 0.887067 1.09307 1.09763 1.09973 1.08824 1.05744 1.04411 0.890794 1.00339 0.963967 0.965015 0.939653 0.935996 0.936453 0.940856 0.934516 0.963839 0.961916 0.957168 1.02456 0.790529 0.883271 0.846412 0.822164 0.859108 0.662472 0.708512 0.908959 0.942118 0.91612 0.83147 0.879621 0.892969 0.886669 0.903659 0.912894 0.938934 0.946118 0.988305 0.961594 0.994329 1.03412 0.848474 0.825822 0.966182 0.993459 0.956758 0.892776 0.949701 0.891358 0.943815 0.918046 0.906428 0.873889 1.03713 1.21034 1.09091 1.20933 1.22029 0.969496 1.00017 1.10715 1.17915 1.20308 1.20007 1.2143 1.04053 1.01824 0.936737 1.121 1.09647 1.05304 1.10166 0.967123 1.11029 0.93785 0.333237 1.0935 1.02883 1.89441 1.22505 1.09195 1.37094 1.14722 0.77452 0.933713 0.963806 1.05619 1.07608 1.11107 1.12336 1.13431 1.07347 0.967234 0.968414 0.979542 0.947657 0.957806 0.965449 0.941016 0.900765 0.949309 0.923321 1.10736 0.778569 1.03832 0.936411 0.871947 0.870335 0.928919 0.886294 0.908917 0.926918 0.900929 0.802638 0.722095 0.878779 0.861865 0.827397 0.956167 1.05438 0.948959 0.868479 0.877146 0.87409 0.872747 0.934174 0.906992 0.988168 0.930151 0.901669 0.940047 0.958717 0.896573 0.968282 0.930435 0.944212 0.966019 0.930188 0.986677 0.990023 1.10678 1.30301 1.40107 0.986617 0.875945 1.0581 1.18649 1.25197 1.30613 1.14568 1.02836 1.01807 0.923431 0.972091 1.07389 1.17703 1.08433 1.01675 0.970461 0.977946 0.954726 0.688402 0.924701 1.20953 1.1775 0.757808 0.825899 1.0825 1.02706 1.1819 1.1788 0.71422 0.617043 0.995959 1.3484 0.682644 1.05389 0.913434 1.06734 0.897578 1.02546 0.996793 0.955462 1.14193 1.01767 1.00456 1.02755 0.976377 1.00852 0.941576 0.963137 0.969013 0.948669 0.968966 0.954612 0.907068 0.965085 0.886817 1.05333 0.86763 0.903898 1.07941 0.848556 0.921157 0.983201 0.902471 0.944315 0.922871 0.91006 0.906784 0.908683 0.81157 0.836693 1.00189 0.9581 0.909247 0.542842 0.547792 0.826495 0.79151 0.975406 0.943623 0.970295 1.05561 0.873676 0.905474 0.886707 0.882387 0.880287 0.868301 0.856833 0.8707 0.88892 0.894379 0.918411 0.927182 0.993955 0.967126 0.957208 0.944387 1.02318 0.8399 1.00073 1.09937 1.08663 0.630179 0.511263 0.925698 1.03551 0.96 0.942616 1.02247 1.21579 1.44791 1.18487 0.940393 0.881723 0.91204 0.933856 0.985342 0.954151 1.24919 1.05035 0.97378 0.942201 0.886157 0.940191 0.836629 0.934821 0.903461 0.962972 0.749975 0.896068 0.924617 0.906872 0.878868 0.859351 0.936354 0.961648 0.989264 0.976943 0.99665 0.91931 0.951359 0.901105 0.921193 0.888086 0.926109 0.847074 0.874157 0.894211 0.911103 0.886721 0.894939 0.89953 0.916224 0.876613 0.890613 0.869567 0.889629 0.865047 0.812037 0.833313 0.839668 0.82736 0.75082 0.751188 0.915144 0.79867 0.803966 0.776571 0.865992 0.910664 0.945683 0.87417 0.873508 0.873829 0.858609 0.843378 0.81786 0.900413 0.93139 0.880776 0.845576 0.782981 0.951187 0.892267 0.957287 0.832991 0.868121 1.0138 0.923712 0.704552 0.805552 0.909015 1.08425 1.1392 1.16483 0.325385 1.61544 1.10626 1.34394 1.04703 0.974565 0.837765 0.926682 0.98149 0.839224 0.972711 0.581663 1.54012 1.17769 1.0006 0.944709 0.941767 0.95896 0.955574 0.934854 0.908932 0.89418 0.88248 0.920327 0.913204 0.896523 0.864054 0.825973 0.868158 0.950808 0.849908 0.92445 0.842976 0.79807 0.816893 0.8963 0.942317 0.826697 0.954817 0.931489 0.99254 0.853412 0.935444 0.953391 0.939399 0.874772 0.905662 0.8905 0.868379 0.852436 0.875885 0.879127 0.839759 0.890404 0.95193 0.938191 0.847933 0.815908 0.822799 0.807028 0.769169 0.78996 0.862354 0.783999 0.783293 0.790843 0.771609 0.801231 0.847228 0.8405 0.782104 0.859297 0.830263 0.870557 0.828187 0.867113 0.84387 0.934909 0.926079 0.888549 0.857056 0.829294 0.821574 0.830482 0.838679 0.863204 0.88487 0.956634 1.05442 1.01951 0.819571 1.08693 0.871012 0.784157 0.842682 0.908078 1.05077 0.801157 0.800589 0.945647 1.0432 1.01255 1.01725 1.08478 0.764962 0.754074 1.05336 1.2142 1.20044 1.01038 1.00925 0.977566 0.964825 0.927569 0.850319 0.721061 1.22218 1.11339 1.00015 0.969058 0.989556 0.96313 0.892021 0.890435 0.882523 0.888383 0.902889 0.825948 0.841377 0.894194 0.874538 0.868251 0.803528 0.789034 0.784388 0.837359 0.752069 0.913741 0.770877 1.06039 0.880776 0.836027 0.893719 0.877025 0.922546 0.859411 0.827604 0.818018 0.832907 0.801594 0.809104 0.793459 0.858257 0.691339 0.960296 0.977293 0.979322 0.844962 0.736797 0.823229 0.781445 0.77351 0.806919 0.762787 0.797256 0.798905 0.799722 0.80689 0.792684 0.820582 0.84683 0.830109 0.866725 0.85501 0.88011 0.875166 0.848106 0.873853 0.806787 0.8473 0.833798 0.85337 0.838105 0.808687 0.818814 0.864771 0.842778 0.877386 0.834066 0.87651 0.906059 0.667817 0.78271 0.883503 0.90791 0.906077 0.88204 0.821142 0.821021 0.808228 0.880688 0.862956 0.946221 0.803116 0.77335 0.807741 0.867782 0.839711 0.821773 0.819185 0.825545 0.805276 0.921844 0.993514 0.969368 1.00088 0.874916 0.830755 0.569375 1.07107 1.04136 0.991561 0.963593 0.930768 0.836578 0.855595 1.19116 1.26562 0.934236 1.00131 1.0843 0.987374 0.929855 0.908562 0.878672 0.886471 0.874618 0.93008 0.964147 0.820638 0.823064 0.833684 0.840945 0.793976 0.8269 0.764807 0.8198 0.816814 0.827053 0.777319 1.01954 0.923261 0.876965 0.902898 0.88958 0.873862 0.854045 0.837443 0.835132 0.843198 0.832834 0.866717 0.771692 0.754087 0.803568 0.62808 0.757193 0.800251 0.78181 0.712432 0.836569 0.74035 0.723621 0.807749 0.823524 0.733653 0.75497 0.814787 0.736807 0.63571 0.671938 0.783945 0.799857 0.756778 0.760684 0.774074 0.796561 0.853073 0.822322 0.840466 0.841223 0.788433 0.861095 0.831697 0.814401 0.807077 0.848089 0.775481 0.828775 0.856668 0.932965 0.992466 1.07445 0.99722 0.873101 0.892082 0.642176 0.896379 0.810757 0.852708 0.820052 0.822444 0.863384 0.864152 0.859216 0.799736 0.79363 0.881637 0.872183 0.914579 0.939965 0.942618 0.921909 0.887412 0.854096 0.925617 0.930359 1.03453 0.993509 0.983794 0.987384 0.968135 0.916165 0.963132 0.868218 0.922721 1.0084 1.04151 0.981616 0.946653 0.920611 0.88425 0.875391 0.88246 0.911013 0.836435 0.853855 0.853087 0.85233 0.829661 0.815727 0.823253 0.815562 0.827804 0.824121 0.813802 0.81015 0.714129 0.747634 0.87427 0.839501 0.850352 0.850043 0.834157 0.819395 0.848482 0.871786 0.859635 0.859823 0.881123 0.813147 0.806017 0.789849 0.776889 0.718893 0.712322 0.520326 0.755503 0.620293 0.789032 0.782365 0.696404 0.665048 0.63279 0.642524 0.667515 0.703005 0.769847 0.798926 0.767062 0.756406 0.777531 0.759035 0.795218 0.797287 0.80618 0.833466 0.833826 0.803369 0.816292 0.811182 0.821876 0.814955 0.81289 0.825419 0.788943 0.817764 0.773959 0.766224 0.754365 0.745382 0.73052 0.774229 0.898621 0.774196 0.984992 0.831976 0.888544 0.957883 0.768532 0.836149 0.7994 0.78263 0.839325 0.886058 0.813171 0.794533 0.827225 0.836 0.854766 0.883082 0.865476 0.903702 0.929665 0.92601 0.932666 0.941219 0.923133 0.924358 0.907394 0.911031 0.915426 0.950365 0.974911 0.97258 0.957766 0.967773 0.932051 0.955105 0.846977 0.907687 0.764778 0.85844 0.844961 0.948825 0.923857 0.976995 0.947768 0.943004 0.922386 0.886812 0.883694 0.886939 0.869709 0.860091 0.845327 0.856565 0.832877 0.830195 0.833193 0.863254 0.82678 0.833683 0.770618 0.834711 0.819445 0.852068 0.851632 0.830513 0.855248 0.820114 0.830031 0.918156 0.945065 0.875768 0.891209 0.893811 0.766301 0.835201 0.813126 0.76811 0.860865 0.8697 0.765305 0.350264 0.850424 1.14194 0.645384 0.678805 0.767868 0.741371 0.740338 0.742819 0.772918 0.704777 0.78675 0.775008 0.678056 0.819401 0.762264 0.81772 0.750207 0.750437 0.727805 0.736519 0.77597 0.767915 0.786124 0.753427 0.785608 0.740903 0.821239 0.785795 0.803774 0.757818 0.769469 0.735345 0.798185 0.782918 0.746103 0.671616 0.750507 0.793601 0.777424 0.812043 0.789073 1.03021 0.869085 0.828656 0.830983 0.788875 0.797265 0.843484 0.8273 0.862355 0.85687 0.868545 0.870071 0.865469 0.880772 0.858577 0.885238 0.877154 0.883451 0.854517 0.901203 0.929535 0.924513 0.941796 0.921893 0.932677 0.926447 0.917238 0.915263 0.923024 0.936422 0.961759 0.97105 0.946134 0.963117 0.920385 0.880653 0.884202 0.848652 0.863012 0.889534 0.935553 0.942598 0.936163 0.91248 0.8978 0.875947 0.870624 0.867463 0.87139 0.860143 0.86316 0.866399 0.858933 0.843993 0.845168 0.834492 0.847512 0.856413 0.810808 0.795046 0.81081 0.818969 0.834812 0.816543 0.868695 0.802781 0.83905 0.86805 0.82636 1.03587 0.999652 0.956755 0.696653 0.901193 0.789668 0.741267 0.880722 0.790281 0.89976 0.768335 0.812058 0.948311 0.791612 0.839848 0.815176 0.806835 0.805051 0.802619 0.800192 0.798472 0.770929 0.804447 0.797763 0.838102 0.829926 0.851597 0.849363 0.900686 0.952349 0.748784 0.750406 0.747832 0.753643 0.741655 0.71852 0.738767 0.804075 0.787797 0.773446 0.764103 0.743647 0.745773 0.763837 0.789338 0.77833 0.753771 0.715944 0.796324 0.777905 0.82127 0.697639 0.728645 0.818674 0.797833 0.783718 0.812026 0.72538 0.733503 0.66113 0.703086 0.640972 0.900333 0.850978 0.86056 0.876156 0.845614 0.807221 0.81114 0.824367 0.830174 0.851129 0.863284 0.871802 0.879175 0.905948 0.909438 0.88716 0.865413 1.00584 0.955631 0.907111 0.917576 0.902791 0.926284 0.914061 0.923019 0.940677 0.954227 0.954862 0.972458 0.943727 0.933061 0.896316 0.896175 0.888316 0.877039 0.874375 0.897399 0.931646 0.960099 0.94579 0.906774 0.882081 0.844466 0.874223 0.874292 0.892807 0.872901 0.865405 0.855227 0.840625 0.854811 0.840559 0.837166 0.828494 0.824812 0.826511 0.813063 0.807727 0.832933 0.883847 0.856619 0.815322 0.889044 0.871579 0.939245 0.869442 0.970228 0.883974 0.835751 0.925818 0.785674 0.81613 0.730298 0.819769 0.834458 0.783812 0.758304 0.750156 0.711878 0.733971 0.698223 0.77206 0.746224 0.794915 0.698903 0.789202 0.809994 0.900974 0.614438 0.888849 0.964199 1.00894 0.352771 1.12274 1.09967 0.988575 0.717273 0.730671 0.745371 0.734253 0.738091 0.7427 0.740727 0.76033 0.774132 0.706621 0.747623 0.719031 0.683311 0.784861 0.772476 0.761439 0.779902 0.755339 0.754193 0.751819 0.760642 0.750975 0.800175 0.807356 0.926072 0.816964 0.764937 0.815517 0.70046 0.685197 0.719661 0.677994 0.764741 0.729276 0.806658 0.849588 0.857203 0.822831 0.83872 0.838357 0.858769 0.869992 0.866971 0.87296 0.8877 0.898407 0.902077 0.920408 0.902496 0.878095 0.892419 0.848035 0.749573 0.945982 0.885756 0.891911 0.912368 0.929552 0.947517 0.97617 0.997038 1.04444 1.07222 0.944796 0.851401 0.842288 0.875788 0.886136 0.864952 0.908616 0.929093 0.938753 0.975821 0.981234 0.989722 0.83667 0.828356 0.865193 0.854973 0.9156 0.876974 0.882527 0.891596 0.871251 0.865971 0.839922 0.849486 0.85874 0.855612 0.858379 0.835463 0.841904 0.831898 0.831776 0.82299 0.803618 0.784145 0.797197 0.885435 0.857564 0.826441 0.79235 0.709396 0.703779 0.891567 0.902589 0.82743 0.863088 0.75669 0.816599 0.724025 0.805286 0.835486 0.720206 0.801456 0.71197 0.68916 0.70345 0.697672 0.734324 0.666158 0.700399 0.62326 0.713908 0.773009 0.782817 0.209816 0.70466 0.830507 0.642845 0.667067 0.720573 0.679477 0.681922 0.699424 0.711489 0.696874 0.700111 0.700283 0.705156 0.663516 0.703716 0.687159 0.698113 0.68743 0.686299 0.681074 0.754838 0.765138 0.776691 0.73634 0.765315 0.764755 0.749196 0.749516 0.774951 0.849401 0.850528 0.798818 0.815047 0.770326 0.759387 0.767291 0.82245 0.785558 0.813674 0.812486 0.783888 0.804475 0.837108 0.821384 0.843057 0.823761 0.834588 0.841399 0.833577 0.854436 0.871286 0.889155 0.875565 0.948867 0.906104 0.894839 0.885288 0.862434 0.822727 0.861003 0.912929 0.92325 0.886004 0.882097 0.892666 0.887108 0.928319 0.927097 0.998154 1.11216 1.04311 0.928641 1.11882 0.768939 0.774571 0.895962 0.921057 0.939899 0.917871 0.971994 0.998703 1.01769 1.06552 1.00137 0.871442 0.870183 0.816956 0.938909 0.91932 0.888357 0.884828 0.880995 0.869067 0.864952 0.880905 0.874957 0.853471 0.829038 0.829701 0.831997 0.808978 0.795363 0.8171 0.829848 0.87758 0.834414 0.718833 0.707693 0.679882 0.819274 0.803005 0.769295 0.804303 0.781974 0.845612 0.741084 0.799306 0.751496 0.714728 0.684451 0.590033 0.713742 0.72564 0.713382 0.751822 0.69715 0.709198 0.796517 0.724524 0.752411 0.789972 0.682876 0.659674 0.672355 0.70278 0.674459 0.680059 0.671751 0.677859 0.697638 0.670082 0.712527 0.617097 0.592331 0.68495 0.691495 0.65357 0.688407 0.700368 0.727252 0.766249 0.695779 0.727018 0.732446 0.701063 0.691277 0.664851 0.693682 0.675797 0.688582 0.725932 0.713794 0.74642 0.737739 0.729499 0.736468 0.731301 0.739035 0.765426 0.809899 0.795736 0.752442 0.72664 0.703809 0.624748 0.780962 0.776056 0.778307 0.789316 0.81171 0.821488 0.809308 0.816724 0.865602 0.867541 0.872368 0.860202 0.904064 0.937503 0.924986 0.901495 0.884467 0.877213 0.894705 0.903114 0.887649 0.888819 0.867661 0.867771 0.862467 0.949393 0.83926 0.986696 1.26337 1.1853 0.969692 0.719711 0.871492 0.952111 0.98939 0.931895 0.951066 0.988812 0.968162 1.00923 0.995248 0.912699 0.822235 0.947987 1.00721 0.897603 0.939163 0.873064 0.896274 0.893009 0.896587 0.886338 0.870582 0.841548 0.841296 0.823397 0.836105 0.815309 0.832914 0.822273 0.828541 0.790137 0.701506 0.782979 0.692362 0.693654 0.657231 0.893397 0.713371 0.74285 0.686749 0.701709 0.795709 0.82356 0.816456 0.796869 0.852508 0.861123 0.789071 0.530106 0.694612 0.739616 0.585966 0.754665 0.665494 0.701834 0.717196 0.742958 0.746535 0.677668 0.695533 0.685144 0.70802 0.749056 0.669806 0.723719 0.720417 0.678251 0.648847 0.744423 0.687291 0.764027 0.5931 0.703919 0.660815 0.609322 0.591153 0.713295 0.717607 0.746474 0.691843 0.715911 0.715372 0.783127 0.70004 0.756623 0.602068 0.616186 0.676086 0.752592 0.760503 0.755621 0.750843 0.794843 0.772301 0.753613 0.718231 0.770962 0.786952 0.813677 0.762843 0.799863 0.736519 0.726765 0.769732 0.743085 0.786533 0.790318 0.816718 0.808147 0.815422 0.817595 0.80434 0.823274 0.830454 0.860958 0.885032 0.885471 0.880061 0.935714 0.941644 0.950039 0.930322 0.909968 0.891149 0.883778 0.891181 0.891717 0.896926 0.904772 0.893289 0.903679 0.880793 0.95278 0.882148 1.03158 1.12771 1.17173 1.15461 0.776181 1.21567 0.920095 0.993377 0.977156 0.919069 0.96909 1.02181 0.990027 0.983772 0.916977 0.875055 0.872188 0.930003 0.913643 0.882685 0.826372 0.886334 0.867194 0.904381 0.92799 0.907428 0.945057 0.882604 0.873542 0.856431 0.853424 0.834364 0.854246 0.838929 0.828009 0.80003 0.790266 0.772511 0.762024 0.713377 0.720079 0.732181 0.710891 0.716996 0.766252 0.833179 0.841617 0.852306 0.78775 0.864001 0.681199 0.411095 0.659392 0.652195 0.882328 0.824399 0.512451 0.53063 0.831004 0.93071 0.761295 0.961056 0.751051 0.694614 0.70927 0.668834 0.626936 0.629064 0.652683 0.639128 0.720738 0.670795 0.576672 0.588674 0.605718 0.598525 0.765222 0.762653 0.823718 0.800556 0.723056 0.722808 0.663763 0.638218 0.652327 0.685644 0.731461 0.697767 0.804504 0.702823 0.752629 0.527849 0.694621 0.455276 0.671645 0.712957 0.596627 0.627968 0.722221 0.649715 0.721526 0.822397 0.795573 0.777304 0.77033 0.778709 0.749963 0.762408 0.732698 0.731821 0.865034 0.876657 0.753957 0.737558 0.746408 0.752166 0.75646 0.790318 0.814271 0.838099 0.830923 0.826367 0.800099 0.836426 0.917133 0.971834 0.900126 0.86432 0.978014 0.959548 0.937134 0.923076 0.897715 0.891782 0.895293 0.896668 0.900094 0.902589 0.906585 0.893747 0.969823 0.934199 0.923651 1.24289 1.08046 1.0447 0.882513 0.838916 0.996125 0.954809 0.966278 0.94494 0.957528 0.982989 1.06074 0.990972 0.985041 0.97025 0.948646 0.90169 0.902303 0.915015 0.930769 0.926698 0.932296 0.827924 0.871859 0.887475 0.941116 0.918213 0.981035 1.03459 0.876152 0.913821 0.874739 0.87766 0.849014 0.859176 0.84401 0.835765 0.820741 0.806715 0.80904 0.785559 0.802164 0.79505 0.755118 0.730495 0.747818 0.718899 0.72719 0.73654 0.785432 0.746766 0.885997 0.781053 0.867055 0.95741 0.982082 1.12766 0.76123 0.635714 0.405708 0.587006 0.474544 1.02552 0.844419 0.768327 0.673805 0.760134 0.710019 0.650157 0.697134 0.640685 0.582791 0.695611 0.655501 0.702021 0.637259 0.566445 0.498101 0.546432 0.545263 0.572162 0.588307 0.741137 0.758887 0.714679 0.815003 0.630236 0.697462 0.654886 0.39764 0.413309 0.411276 0.547414 0.745196 0.7391 0.573094 0.798222 0.397052 0.931143 0.751101 1.10561 0.800415 0.750048 0.738472 0.743371 0.808497 0.853025 0.814037 0.830537 0.748296 0.774583 0.760317 0.743417 0.737719 0.807015 0.726569 0.717754 0.621477 0.773781 0.729882 0.734916 0.74644 0.752203 0.770398 0.771471 0.808519 0.826038 0.835963 0.834514 0.844908 0.870824 0.854531 0.825389 1.01221 0.863176 0.825595 1.01753 0.963285 0.941223 0.936398 0.944642 0.933352 0.890115 0.905628 0.9041 0.902875 0.903879 0.908002 0.909691 0.921003 0.976653 0.991596 0.937924 0.745928 1.02798 0.951823 0.913501 0.95151 0.961219 0.963914 1.00124 0.951124 0.903286 0.971718 0.964496 0.933234 0.914101 0.915469 0.929726 0.967212 0.851784 0.862882 0.883267 0.887301 0.934866 0.979189 1.0914 0.894258 0.895083 0.85327 0.843227 0.817843 0.855599 0.841313 0.835394 0.822397 0.810955 0.781348 0.774174 0.760821 0.769154 0.751333 0.750313 0.794504 0.906733 0.982901 1.03765 0.841564 1.22256 0.962083 0.435652 0.735096 0.601156 0.457405 0.521566 0.373087 0.470383 0.754426 0.707344 0.826299 0.589122 0.705867 0.676884 0.62208 0.681026 0.60594 0.444494 0.518806 0.472459 0.576132 0.623435 0.582133 0.590915 0.591452 0.718364 1.21876 0.736572 0.76062 1.2225 0.894776 0.58335 0.316087 0.470687 0.574376 0.598697 0.47867 0.432653 0.404368 0.377231 0.546114 0.647218 0.465701 0.812752 0.547856 0.735459 0.909107 1.37712 0.391676 0.612923 0.685698 0.768023 0.688225 0.66995 0.797189 0.741324 0.794096 0.723684 0.742227 0.735896 0.715314 0.735498 0.707386 0.736449 0.749067 0.739433 0.762205 0.750802 0.758854 0.764132 0.765112 0.761965 0.776926 0.818882 0.835018 0.828494 0.840414 0.830092 0.805354 0.796787 0.733907 0.888077 0.883573 0.792281 0.851175 0.849477 1.05247 1.0095 0.942284 0.963262 0.937748 0.915285 0.908086 0.909231 0.9052 0.909435 0.917918 0.928483 0.986412 0.966896 0.901135 0.873361 0.809583 1.03016 0.967132 0.948054 0.927174 0.950837 0.954056 0.971075 0.943144 0.912735 0.937578 0.969145 0.981545 0.978861 0.949642 0.922157 0.929359 0.960887 0.98444 0.891601 0.855509 0.845721 0.884764 0.936091 0.983938 1.02531 0.996773 0.934138 0.901977 0.808645 0.816915 0.84108 0.841722 0.836345 0.822576 0.790807 0.801742 0.778082 0.775092 0.753191 0.73894 0.747165 0.81931 0.853741 0.722235 0.716681 0.86201 0.779493 0.818548 0.809383 0.983111 0.726613 0.67632 0.738736 0.590585 0.684508 0.410396 0.797522 0.941583 0.659448 0.950755 0.675993 0.602839 0.710933 0.543146 0.5983 0.576862 0.671966 0.604813 0.565345 0.529216 0.62952 0.511526 0.687332 1.24614 1.2004 0.927399 0.7089 0.595524 0.423642 0.0856714 0.41912 0.513619 0.545748 0.414838 0.436659 0.545677 0.438841 0.429713 0.409257 0.281792 0.636619 0.787778 0.679941 0.599771 0.678625 0.686313 0.742015 0.712562 0.731539 0.705485 0.726161 0.73075 0.735214 0.743284 0.759382 0.762878 0.770324 0.773394 0.781155 0.782454 0.826082 0.843958 0.832605 0.837572 0.838887 0.845041 0.8419 0.823575 0.836433 0.843178 0.85356 0.880879 0.935282 1.03518 1.01045 0.988002 1.02176 1.00292 0.941164 0.918187 0.911554 0.907381 0.909483 0.917718 0.928071 0.907474 0.968764 0.911302 0.834379 1.06253 1.00333 0.945414 0.967831 0.970207 0.917931 0.960917 0.89825 0.891831 0.917678 0.936816 0.934898 0.953254 0.957109 0.999963 0.993063 0.941601 0.92714 0.906044 0.945117 0.955313 0.99633 0.84271 0.872497 0.838711 0.886931 0.93839 0.983406 0.984982 0.997305 0.973156 0.881015 0.812155 0.820092 0.821913 0.845037 0.823469 0.860906 0.820396 0.839393 0.82069 0.817257 0.806898 0.791046 0.781387 0.769985 0.764395 0.771131 0.765291 0.751757 0.76687 0.739004 0.690146 0.777514 0.806511 0.781393 0.861621 0.744617 0.79379 0.868889 1.08975 0.556507 0.698395 0.889576 0.737799 0.90218 0.961195 0.515648 0.87501 0.514486 0.209782 0.461452 0.616226 0.496549 0.508611 0.484688 0.54849 0.466825 0.533573 0.712662 0.922152 1.47001 1.18728 1.95593 0.942289 0.84595 0.425956 1.69378 0.43989 0.629464 0.849654 0.527036 0.262727 0.492884 0.902747 0.580207 0.49355 0.393366 0.415735 0.436234 0.500273 0.534544 0.45683 0.680078 0.701904 0.729182 0.687296 0.684478 0.727931 0.745406 0.742448 0.693665 0.740539 0.726317 0.714567 0.735355 0.744598 0.759083 0.753631 0.764151 0.772152 0.780117 0.779015 0.796235 0.789208 0.771011 0.857291 0.831649 0.817386 0.848815 0.86777 0.870578 0.880965 0.880896 0.917695 0.959409 1.05107 1.00094 0.966043 0.928202 0.92067 0.916226 0.914875 0.910115 0.909235 0.911345 0.91722 0.927596 0.935357 0.912929 0.912859 0.960353 0.889045 0.875622 1.05821 1.04107 0.930494 0.99817 1.00237 1.00761 0.980149 0.975448 0.965879 0.899608 0.920528 0.941135 0.944512 0.964947 0.983453 0.968802 0.873282 0.963902 0.946174 0.973826 0.974889 0.995464 0.954898 0.835352 0.888009 0.958679 0.977114 0.973168 0.882202 0.777807 0.816073 0.821228 0.836365 0.883343 0.842919 0.81506 0.814883 0.809808 0.801134 0.7941 0.77935 0.771295 0.758891 0.780274 0.75244 0.707168 0.748544 0.772082 0.772211 0.777599 0.786364 0.736414 0.772649 0.707542 0.699474 0.650948 1.27614 0.934135 0.669871 0.444927 0.674425 1.03448 0.434274 1.09343 0.978264 1.01586 0.911112 0.646887 0.679086 0.536206 0.315903 0.160257 0.322369 0.288902 0.350432 0.403735 0.485576 0.568387 0.521926 0.495192 0.583064 0.528413 0.508584 0.753938 1.91611 1.38313 1.25856 0.983025 0.553656 0.814433 0.518939 0.909273 0.435739 0.418222 0.414956 0.390219 0.255112 0.333552 0.36556 0.461672 0.509254 0.565472 0.58309 0.631263 0.577439 0.689139 0.707579 0.698753 0.698526 0.725769 0.744393 0.75682 0.749384 0.733538 0.751386 0.747949 0.754799 0.777212 0.765448 0.790088 0.778132 0.784261 0.787517 0.795626 0.791984 0.788411 0.812026 0.797245 0.819643 0.821415 0.908539 0.891209 0.900998 0.896418 0.906519 0.919589 0.903754 0.972026 0.94323 0.847872 0.902702 0.999625 0.968206 0.942017 0.934947 0.922417 0.906437 0.918708 0.949796 0.943186 0.929157 0.931175 0.871117 0.904379 0.880059 0.987119 0.993402 1.01775 1.00969 1.06465 0.990588 0.982935 0.901316 0.930362 0.95149 0.957776 0.964429 0.97044 0.905076 0.964479 0.983496 0.983835 0.930605 0.96372 0.851764 0.834174 0.971527 0.954959 0.959376 0.99396 0.855767 0.739645 0.817372 0.824288 0.842253 0.845849 0.875949 0.869363 0.803816 0.812433 0.825803 0.799312 0.793821 0.783853 0.788395 0.780623 0.779111 0.778203 0.774787 0.774418 0.754819 0.749164 0.75256 0.756414 0.720553 0.750428 0.740161 0.810706 0.81195 0.68444 0.643214 0.784748 0.563846 0.628595 0.772603 0.54764 0.439167 0.3377 0.486993 0.222515 0.0958019 0.346829 0.371039 0.452121 0.413802 0.670099 0.556002 0.906709 0.625811 1.00009 0.767634 0.654363 0.854609 0.585767 0.683936 0.442277 0.253429 0.475438 0.676507 0.37739 0.4595 0.436431 0.231 0.211778 0.420773 0.180472 0.449345 0.585226 0.623937 0.673536 0.694146 0.709672 0.714739 0.716837 0.731904 0.741649 0.737059 0.754035 0.759508 0.772441 0.773319 0.767737 0.805812 0.808075 0.793687 0.803699 0.794269 0.807033 0.800428 0.820042 0.808969 0.776649 0.795706 0.798578 0.921706 0.911088 0.931715 0.923527 0.915275 0.873173 0.856736 0.822945 0.973889 0.976373 0.954147 0.954275 0.941479 0.935603 0.941567 0.931778 0.957423 0.966898 0.960218 0.943939 0.860153 0.885277 0.91041 1.00577 1.01963 1.02372 1.05449 1.04658 1.0586 1.00836 0.989132 0.962029 0.940957 0.96513 0.955743 0.973299 0.968875 1.0093 0.965892 0.981546 0.967312 0.953863 0.966701 0.9147 1.00325 0.980388 0.928697 0.814714 0.917211 0.862253 0.819149 0.836169 0.853861 0.842454 0.818778 0.825015 0.831598 0.837085 0.804441 0.799307 0.79827 0.790758 0.794835 0.784554 0.792902 0.794791 0.77593 0.764167 0.759819 0.773012 0.774167 0.725582 0.730825 0.718107 0.724258 0.693559 0.807599 0.767894 0.779242 0.721336 0.475081 0.747032 0.545343 0.474314 0.487082 0.649435 0.236279 0.22972 0.272205 0.457107 0.301096 0.424476 0.557662 0.468466 0.451952 0.483223 0.5325 0.714607 0.559284 0.402025 0.448459 0.570082 0.611315 0.531659 0.235981 0.283937 0.481016 0.638356 0.759099 0.639111 0.656188 0.697878 0.688992 0.724845 0.723704 0.738343 0.732886 0.734146 0.752709 0.765056 0.791436 0.79801 0.789043 0.78222 0.829257 0.844063 0.813572 0.79878 0.804813 0.797563 0.808849 0.793484 0.797283 0.819586 0.829234 0.81747 0.748778 0.80881 0.997055 0.957739 0.927388 0.92343 0.920734 0.888245 0.828199 0.856441 0.979693 0.968715 0.957225 0.949921 0.956767 0.942825 0.963323 0.968758 0.991965 0.967017 0.897005 0.879305 0.959476 0.90838 1.03668 1.03734 1.06611 1.02205 1.00348 0.992532 0.966336 0.974825 0.983971 0.977713 0.964156 0.94799 0.986826 1.00188 0.982659 0.994545 0.965338 0.963379 0.979685 0.965436 1.003 0.994698 0.983299 1.0085 0.988679 0.888436 0.87027 0.895281 0.881876 0.844353 0.849145 0.858098 0.826389 0.847393 0.838642 0.815105 0.808178 0.812134 0.80591 0.82068 0.804634 0.808913 0.781487 0.768718 0.768332 0.766681 0.755877 0.742301 0.728567 0.71683 0.756713 0.820801 0.930956 0.551013 1.16024 0.649951 0.452064 0.660822 0.648316 0.734187 1.09213 0.743118 0.493192 0.490848 0.476573 0.484579 0.668441 0.592312 0.626937 0.252377 0.330271 0.369053 0.507121 0.504213 0.63111 0.587127 0.388521 0.288159 0.915742 0.863739 0.655685 0.735751 0.757456 0.740197 0.739808 0.742119 0.742169 0.751669 0.776711 0.802352 0.822171 0.795123 0.64047 0.880685 0.824738 0.834927 0.788319 0.806336 0.780371 0.826904 0.732348 0.789772 0.784201 0.776251 0.742375 1.02886 0.935528 0.90805 0.92367 0.899914 0.854047 0.835407 0.852572 0.865907 0.946351 0.97002 0.95936 0.960233 0.967464 0.980223 0.976994 0.98645 1.0019 0.960095 0.880442 0.91647 1.00426 1.0201 1.05291 1.04831 1.03362 1.01471 1.0296 1.04201 1.03974 1.0155 0.979708 0.984084 1.00469 0.991738 0.979297 0.999936 0.99013 0.999548 1.00279 0.984311 0.994178 0.978286 0.991665 0.983163 1.00567 0.868549 0.874427 0.882375 0.897519 0.908475 0.900033 0.863081 0.879424 0.864291 0.864608 0.870403 0.895023 0.859617 0.823763 0.819517 0.824291 0.83911 0.836513 0.788529 0.776351 0.774049 0.773538 0.756289 0.76929 0.73766 0.753349 0.731615 0.715371 0.725081 0.692179 0.709583 0.757216 0.808337 1.44808 0.259725 0.369625 0.514711 0.569898 0.569768 0.901566 0.595554 0.502691 0.510931 0.530348 0.509107 0.629255 0.659547 0.350372 0.252725 0.56585 0.634036 0.624994 0.583514 0.238765 0.251759 0.447474 0.838623 0.76347 0.762984 0.742758 0.776374 0.738192 0.741756 0.748067 0.762845 0.765059 0.791892 0.80466 0.808493 0.808954 0.86645 0.783817 0.872501 0.883451 0.71644 0.804011 0.764142 0.906197 0.770484 0.804258 0.816467 0.98889 0.923981 0.94493 0.919055 0.872681 0.895961 0.900911 0.886621 0.903227 1.03362 0.976056 0.972785 0.973021 0.951696 0.924254 0.981944 0.990729 0.961776 0.994263 0.954338 0.918809 1.00879 1.00106 1.06 1.03296 1.04381 1.02016 1.03436 1.04732 0.962483 0.987944 0.989926 0.997452 0.991177 1.08487 0.992848 1.00455 1.00635 0.998355 0.99506 0.997664 1.00252 1.00764 1.00544 1.01495 1.00915 0.931576 0.933384 0.857111 0.889734 0.894429 0.921457 0.91568 0.876094 0.875105 0.870366 0.872004 0.890789 0.901405 0.851898 0.876525 0.82347 0.83395 0.835566 0.842989 0.849239 0.784952 0.792771 0.79002 0.769956 0.779361 0.781774 0.746185 0.764214 0.728182 0.691412 0.729441 0.7528 0.705661 0.651753 0.767051 0.868917 0.974993 0.36852 0.502874 0.318284 0.385686 0.608809 0.970015 0.572224 0.611797 0.549684 0.569033 0.558168 0.686223 0.584923 0.650986 0.546745 1.01621 0.610596 0.630325 0.408113 0.897829 0.933382 0.815007 0.821855 0.79202 0.753883 0.787751 0.780072 0.736963 0.745994 0.759329 0.762103 0.771638 0.77963 0.82261 0.831688 0.818071 0.829144 0.946064 0.873985 0.900997 0.693966 0.885541 0.670907 0.834148 0.80168 0.86129 0.979432 0.957428 0.943702 0.924196 0.90792 0.9111 0.931688 1.10325 0.967395 0.955377 0.921818 0.960181 0.943297 0.909153 1.01732 1.00786 1.00681 0.900868 1.02053 1.00246 1.06859 1.0359 1.04036 1.06117 1.0572 1.03917 0.992818 1.00541 0.979321 1.06455 1.01343 1.01793 0.992775 1.00562 1.01214 1.01624 1.02537 1.04348 0.922597 0.964217 0.958438 0.868152 0.92346 0.943573 0.904248 0.911127 0.871573 0.872247 0.907667 0.911473 0.911881 0.893527 0.906403 0.840845 0.843577 0.842896 0.856182 0.846614 0.856831 0.86264 0.839003 0.843256 0.756975 0.781419 0.780724 0.758865 0.802 0.634946 0.763706 0.727773 0.816252 0.739025 0.746125 0.795099 0.939076 0.513583 0.832978 0.668474 0.729185 0.607967 0.814817 0.681784 0.658768 0.434339 0.54703 0.486157 0.620463 0.60746 0.629863 0.577192 0.557293 0.628144 0.761417 1.14801 0.681603 0.573948 0.993212 0.825041 0.764422 0.754389 0.727967 0.799764 0.758243 0.731247 0.733001 0.783133 0.816952 0.8348 0.835694 0.828247 0.918737 0.863971 0.793953 0.799893 1.04319 0.880036 0.817425 0.915394 0.870866 0.87863 0.964221 0.968825 1.00288 0.985528 0.957199 0.940949 0.931151 0.932547 0.922428 0.937957 0.940653 1.04047 0.978357 0.93889 0.946721 0.942316 0.986413 1.01776 1.02809 1.04034 1.01614 1.02185 0.923855 1.0239 1.10504 1.09115 1.0485 1.05539 1.06087 1.07044 1.04744 1.00227 1.00374 0.945811 1.03943 1.08366 1.00694 1.02904 1.02982 1.00696 1.01814 1.0235 1.03094 1.03455 1.0514 0.916936 0.962927 1.00061 0.911866 0.931468 0.961158 0.907 0.858216 0.873628 0.899803 0.914133 0.915558 0.90623 0.904235 0.900154 0.833202 0.844966 0.849059 0.834284 0.850113 0.871103 0.900146 0.798922 0.754158 0.726513 0.784956 0.849835 0.707001 0.724121 0.707603 0.63877 0.775072 0.765693 0.812545 0.860891 0.792005 0.727299 0.746671 0.973149 0.750055 0.891178 0.783993 0.495444 0.453039 0.621833 0.652273 0.578192 0.650607 0.780523 0.992034 0.649251 0.75409 1.00879 0.821498 0.712907 0.682882 0.767349 0.779768 0.777688 0.762172 0.789319 0.747546 0.825438 0.837509 0.830388 0.826413 0.874471 0.890561 0.826286 1.03278 0.925721 0.846771 0.899409 0.858413 0.973339 0.961428 0.977687 0.961664 0.944191 0.929851 0.925142 0.941342 0.973234 0.988959 1.02487 0.976508 0.986841 0.925398 1.01181 1.00165 1.01804 1.04196 1.04805 1.05015 0.984001 0.988432 1.03517 1.02391 1.02732 1.08437 1.06828 1.05607 1.04928 1.10795 1.0812 1.0285 0.982591 0.957495 1.04859 1.03435 1.00427 1.04471 1.03035 1.03865 1.03513 1.00087 1.0445 1.05858 1.0439 0.917506 0.951348 1.00594 0.913556 0.966355 0.97595 0.968554 0.881166 0.859082 0.912057 0.901767 0.91143 0.913176 0.91877 0.913886 0.90379 0.906745 0.918759 0.839949 0.835672 0.832464 0.859577 0.886481 0.902475 0.811594 0.780878 0.745958 0.814971 0.838535 0.754993 0.743188 0.703821 0.686322 0.740689 0.800193 0.816501 0.78015 0.819568 0.88438 0.851415 0.686896 0.491014 0.684622 0.31015 0.568159 0.650618 0.665054 0.621631 0.652383 0.920662 0.936053 0.820988 0.732486 0.895686 0.776926 0.762484 0.766953 0.774461 0.779879 0.807542 0.821942 0.849387 0.852957 0.817113 0.807669 0.81421 0.862332 0.885577 0.896656 0.974533 0.988309 0.942029 0.91356 0.871497 0.815073 0.973823 0.878736 0.962051 0.980902 0.952165 0.931503 0.928807 0.957725 0.989216 1.01246 1.03272 1.00112 1.03944 0.94283 1.05637 1.06451 1.02937 1.06053 1.07592 1.0188 1.02324 1.03693 1.02558 1.03392 1.10974 1.0705 1.0548 1.0238 0.973234 1.10632 1.14806 1.08384 1.09648 1.06859 1.05194 0.982773 0.98722 0.979105 0.981554 1.05425 1.05987 1.05176 1.06419 1.03858 1.06051 0.99186 1.01225 1.07289 1.04851 1.12928 0.94675 1.00094 0.919205 0.958129 0.993098 0.987527 0.90757 0.932723 0.915809 0.912125 0.921324 0.929224 0.920242 0.925217 0.864052 0.834591 0.877446 0.886048 0.912777 0.867691 0.838998 0.775359 0.917552 0.775414 0.84326 0.777294 0.796311 0.718459 0.692344 0.694799 0.734784 0.80988 0.812888 0.818724 0.829609 0.817996 0.858636 0.870712 0.889603 0.696977 0.655607 0.875916 0.703972 0.669742 0.677691 0.68742 0.671136 0.945653 0.885997 0.814235 0.830389 0.749665 0.79474 0.827612 0.757714 0.802894 0.86312 0.994439 0.790272 0.826404 0.823088 0.843299 0.884203 0.865793 0.800376 0.844681 0.880949 0.905016 0.905881 0.952608 0.962419 0.963827 0.940095 0.895788 0.828296 0.911612 0.979605 0.947159 0.917744 0.977466 0.999987 0.963479 0.926676 0.920627 0.971694 1.00626 1.034 1.01837 1.05984 0.97297 0.954974 1.09826 1.03255 1.14125 1.07678 1.03798 1.03262 1.05231 1.12414 1.08884 1.06893 1.00887 1.12464 1.08083 0.984206 0.982586 1.01633 1.02816 1.06714 1.05288 1.04967 1.03376 1.06284 1.05035 1.07044 1.06382 1.08213 1.01668 1.07351 1.05739 1.07783 1.16146 0.947734 0.929003 0.945776 1.02532 0.963289 0.965565 0.933432 0.91219 0.922413 0.930245 0.931809 0.928982 0.882181 0.868434 0.901863 0.833817 0.899617 0.862722 0.841655 0.862917 0.936426 0.862589 0.787657 0.824258 0.728747 0.796815 0.797229 0.812772 0.779294 0.819567 0.862774 0.879335 0.674283 0.733019 0.84534 0.967661 1.0287 0.727027 0.695153 0.746219 0.809707 0.962855 0.883799 0.82161 0.809613 0.781264 0.763245 0.801743 0.863522 0.859158 0.896054 0.868436 0.879688 0.844084 0.862055 0.885973 0.843445 0.816848 0.875554 0.922968 0.948143 0.961644 0.963559 0.97621 0.93999 0.886496 0.910222 0.961142 0.956623 0.90304 1.05136 1.00536 1.01732 0.954044 0.924585 0.925702 0.988341 1.00767 1.05731 1.06027 1.03558 1.00692 1.06383 0.970337 0.96899 0.969038 1.14917 1.04785 1.03911 1.02521 1.03958 1.07323 1.08139 1.10872 1.08563 1.03238 1.16303 1.0799 1.04783 1.06499 1.0467 1.04186 1.05854 1.0787 1.07247 1.02093 1.06293 1.05938 1.09781 1.17016 0.940808 0.941772 0.94319 0.993366 1.00011 1.00104 0.962405 0.928247 0.933976 0.926504 0.925704 0.868101 0.957742 0.920283 0.845958 0.854933 0.875438 0.869268 0.854098 0.882566 0.895365 0.847204 0.848774 0.867909 0.840746 0.896329 0.947454 0.785384 0.813678 0.777477 0.787504 0.84332 0.880966 0.913667 0.802138 0.755156 0.8524 0.759735 0.753102 0.763052 0.841437 0.909353 0.853592 0.860753 0.830315 0.833086 0.78736 1.0274 0.821362 0.891384 0.872307 0.852264 0.839277 0.870999 0.886635 0.895213 0.87431 0.818295 0.806792 0.849463 0.87423 0.870441 0.909777 0.935121 0.970813 0.943881 0.962299 0.980693 0.937193 0.894635 0.915026 0.974175 0.936575 1.05099 1.03046 0.954723 0.933319 1.00112 1.01129 0.994225 1.05724 1.04865 1.03258 1.01653 1.02911 1.0439 0.931047 0.979418 1.06118 1.14979 1.07753 1.04346 1.05656 0.959201 1.10771 1.11691 1.05703 1.05469 1.00932 1.09254 1.15593 1.16313 1.1361 1.1076 1.05075 1.07228 1.07239 1.08054 1.0771 1.04873 1.03895 1.02978 1.07372 1.09377 1.17104 0.99516 1.03664 1.03436 1.02883 1.00021 0.967892 1.02258 1.02796 0.967143 0.890134 0.954374 0.929077 0.929187 0.960456 0.967665 0.925577 0.861183 0.869036 0.871373 0.858501 0.898292 0.878659 0.889839 0.906004 0.942227 0.909462 0.775958 0.869703 0.771333 0.845746 0.887271 0.921849 0.897858 0.834399 0.855555 0.790366 0.823017 0.833776 0.81855 0.761687 0.847421 0.865479 0.897527 0.837887 0.849996 0.855469 0.800671 0.983556 0.879885 0.884296 0.878914 0.875025 0.883155 0.880403 0.863662 0.880443 0.916017 0.9335 0.966491 0.944288 0.980565 0.976479 0.938255 0.887957 0.907079 0.97281 0.955138 1.10298 1.16563 0.986852 0.970652 1.08007 1.00004 1.06122 1.02965 1.02992 1.04266 1.01205 1.06673 1.08011 1.00232 0.976591 1.0935 1.06691 0.948835 0.987904 1.14635 1.15701 1.07647 1.08479 1.00572 1.06932 1.20208 1.15901 1.13521 1.10643 1.05451 1.0596 1.09671 1.1009 1.0864 1.09573 1.10316 1.08355 1.0472 1.0596 1.07688 1.08382 1.08771 1.18687 1.05469 1.09075 1.02911 0.976787 1.03053 1.04451 0.995041 0.926157 0.958381 0.962804 0.928295 0.93836 0.939566 0.960472 0.961932 0.961382 0.912025 0.875296 0.874422 0.87523 0.851084 0.852096 0.902233 0.878821 0.910527 0.916471 0.938558 0.951271 0.808049 0.848558 0.920672 0.799935 0.880603 0.920152 0.881119 0.893408 0.898842 0.865564 0.768137 0.809642 0.782717 0.934149 0.910891 0.879499 0.897798 0.935952 0.849012 0.926099 0.859818 0.917433 0.879456 0.871768 0.877858 0.881935 0.887602 0.883538 0.860919 0.808852 0.897836 0.894052 0.929394 0.963686 0.983249 0.972592 1.00089 0.941778 0.966913 0.905954 0.918721 0.977327 0.968631 1.07969 0.957503 1.04264 0.946435 0.997661 1.03316 1.09262 1.0475 1.03833 1.07956 1.00258 1.03679 1.01599 1.09265 1.16503 1.04114 1.06872 1.08964 1.1498 1.2091 1.24191 1.1492 1.13652 1.1513 1.07973 1.11036 1.1439 1.1386 1.12618 1.05904 1.09078 1.05977 1.10808 1.13363 1.10564 1.09758 1.10061 1.06299 1.08801 1.08215 1.0714 1.08182 1.08684 1.05497 0.985068 1.06327 1.02007 1.00409 1.0061 0.923155 0.95524 0.951242 0.96854 0.886192 0.90606 0.869366 0.864099 0.922895 0.881053 0.873634 0.865694 0.893083 0.908943 0.909134 0.936779 0.911019 0.904149 1.0191 0.887939 0.847566 0.933012 0.894435 0.847411 0.878573 0.805796 0.796819 0.923275 0.902523 0.897893 0.937285 1.01265 0.850465 0.913678 0.897011 0.906474 0.871795 0.8742 0.896648 0.913466 0.903025 0.862516 0.936066 0.942911 0.920499 0.946528 0.980082 0.981432 0.996632 0.953664 0.943694 0.933718 0.90245 0.928542 0.999385 0.967869 1.07615 1.05537 1.0004 1.10276 1.06422 1.10672 1.03707 1.08223 0.996557 1.05265 1.04661 1.14466 1.06781 1.14818 1.19177 1.19196 1.15099 1.13767 1.15165 1.08722 1.1095 1.18819 1.13584 1.15351 1.0901 1.05309 1.12594 1.1302 1.11095 1.1037 1.10896 1.08639 1.09236 1.07847 1.08267 1.0757 1.05814 0.976818 1.01788 0.993674 1.03652 1.00761 0.999464 0.964591 0.997129 0.942865 0.952133 0.931183 0.969378 0.896067 0.91992 0.886873 0.869124 0.87295 0.88637 0.918949 0.907837 0.920956 0.94567 0.877337 1.11796 0.895287 0.851914 0.933678 0.903172 0.871773 0.80159 0.808025 0.809642 0.94684 0.900111 0.90734 0.942117 1.0632 0.904862 0.952241 0.919564 1.17375 0.89503 0.905321 0.937166 0.927696 0.911425 0.964942 0.921608 0.921574 0.928169 0.980827 0.98229 0.985002 0.957191 0.918671 0.914441 0.971085 0.975114 1.07221 0.938742 1.05607 1.14481 1.0636 1.0867 1.0864 1.0913 1.08855 0.989955 1.02094 0.994805 1.04072 1.00387 0.961361 0.964503 0.98908 0.961202 0.945141 0.927828 0.954647 0.995424 0.903094 0.896364 0.984234 0.93359 0.870546 0.886886 0.931276 0.922509 0.923165 0.942431 0.912307 0.876999 1.00799 0.917132 0.897144 0.909525 0.920211 0.901235 0.838016 0.807038 0.898688 0.906071 
SCALARS Stress float 1
LOOKUP_TABLE default
-210606000000.0 -149936000000.0 -268199000000.0 -152186000000.0 -214815000000.0 -60482200000.0 -242562000000.0 -330171000000.0 -201122000000.0 -133601000000.0 -385448000000.0 -322870000000.0 -1.04406e+12 -657731000000.0 -510095000000.0 -247177000000.0 -487497000000.0 -265222000000.0 -348116000000.0 -275982000000.0 -422742000000.0 -666542000000.0 -230258000000.0 -133819000000.0 -290090000000.0 -262670000000.0 -724181000000.0 -993884000000.0 -404539000000.0 -1.0095e+12 -607740000000.0 -1.18888e+12 -1.20274e+12 -1.16462e+12 -1.44406e+12 -675870000000.0 -835897000000.0 -934846000000.0 -1.09181e+12 -1.36051e+12 -1.13897e+12 -399531000000.0 -1.00068e+12 -897673000000.0 -456467000000.0 -1.02251e+12 -597314000000.0 -530326000000.0 -782953000000.0 -646814000000.0 -465743000000.0 -1.16606e+12 -1.25895e+12 -1.84153e+12 -1.00374e+12 -721001000000.0 -1.53912e+12 -1.31885e+12 -2.33197e+12 -1.64846e+12 -2.02802e+12 -409047000000.0 -839766000000.0 -1.27395e+12 -1.02558e+12 -744136000000.0 -1.59749e+12 -1.44201e+12 -638758000000.0 -1.36076e+12 -1.6541e+12 -966887000000.0 -1.13319e+12 -1.81409e+12 -1.49801e+12 -1.79432e+12 -1.1604e+12 -2.11883e+12 -1.49994e+12 -1.31301e+12 -1.80861e+12 -2.62672e+12 -2.93307e+12 -2.334e+12 -1.67823e+12 -1.23012e+12 -2.45126e+12 -2.70844e+12 -2.57658e+12 -2.47461e+12 -1.40909e+12 -2.47565e+12 -2.00703e+12 -1.40214e+12 -2.5011e+12 -1.16151e+12 -1.02819e+12 -1.25099e+12 -1.9669e+12 -2.07209e+12 -1.78981e+12 -2.48838e+12 -1.46048e+12 -962515000000.0 -706809000000.0 -1.37301e+12 -1.73171e+12 -846734000000.0 -3.49432e+12 -1.56768e+12 -3.2835e+12 -2.126e+12 -3.09926e+12 -2.62574e+12 -2.87195e+12 -1.17745e+12 -2.78918e+12 -798658000000.0 -1.77706e+12 -2.15052e+12 -2.40804e+12 -694082000000.0 -2.06969e+12 -2.27987e+12 -5.23825e+12 -2.04947e+12 -3.76444e+12 -804159000000.0 -1.57829e+12 -2.36965e+12 -1.35914e+12 -1.27258e+12 -1.56307e+12 -3.82946e+12 -3.72013e+12 -2.43712e+12 -1.72058e+12 -2.66174e+12 -2.24039e+12 -3.4676e+12 -5.47601e+12 -4.18455e+12 -1.13595e+12 -2.35046e+12 -1.46324e+12 -2.3627e+12 -3.38117e+12 -3.8923e+12 -1.83403e+12 -3.10739e+12 -2.73734e+12 -2.05566e+12 -857691000000.0 -1.26824e+12 -1.09008e+12 -1.86552e+12 -2.36037e+12 -2.28795e+12 -2.86298e+12 -618510000000.0 -1.65812e+12 -1.54831e+12 -3.29857e+12 -2.32883e+12 -5.13226e+12 -2.95468e+12 -3.75564e+12 -4.44362e+12 -3.8565e+12 -3.99683e+12 -2.87221e+12 -4.05231e+12 -2.84435e+12 -3.45426e+12 -2.76995e+12 -4.4861e+12 -4.26424e+12 -4.53748e+12 -2.53951e+12 -4.54036e+12 -3.29824e+12 -3.4503e+12 -3.54215e+12 -2.96337e+12 -5.54908e+12 -3.60472e+12 -2.02631e+12 -2.5781e+12 -777635000000.0 -1.65937e+12 -2.89668e+12 -2.38495e+12 -3.14315e+12 -6.0261e+12 -2.03939e+12 -6.46123e+12 -4.64214e+12 -3.57732e+12 -3.81821e+12 -6.5824e+12 -3.88541e+12 -5.13594e+12 -1.83058e+12 -3.13582e+12 -5.85889e+12 -3.83245e+12 -5.64351e+12 -1.12913e+12 -4.24083e+12 -2.52212e+12 -3.7147e+12 -3.21128e+12 -3.55246e+12 -3.51035e+12 -4.50273e+12 -3.01089e+12 -5.37074e+12 -4.19414e+12 -1.54246e+12 -3.16582e+12 -3.3652e+12 -4.92155e+12 -5.61455e+12 -2.19034e+12 -5.52105e+12 -3.56169e+12 -5.15474e+12 -3.53055e+12 -2.76386e+12 -5.3893e+12 -4.25233e+12 -3.42924e+12 -5.01577e+12 -7.44847e+12 -5.70727e+12 -5.86511e+12 -4.32648e+12 -5.47444e+12 -4.61221e+12 -5.46898e+12 -1.76655e+12 -7.21368e+12 -3.19431e+12 -1.93663e+12 -3.6182e+12 -2.81836e+12 -2.79518e+12 -2.82405e+12 -3.71577e+12 -3.55432e+12 -4.09819e+12 -6.3052e+12 -7.19251e+12 -2.58582e+12 -3.44737e+12 -6.19677e+12 -4.33482e+12 -3.85183e+12 -6.20704e+12 -3.40301e+12 -4.2778e+12 -3.4495e+12 -6.67565e+12 -3.9769e+12 -3.99333e+12 -4.70947e+12 -5.15791e+12 -5.89814e+12 -2.78913e+12 -2.42121e+12 -5.49216e+12 -3.98938e+12 -3.5807e+12 -4.97619e+12 -4.90345e+12 -6.10945e+12 -4.98796e+12 -2.93671e+12 -5.03903e+12 -3.85095e+12 -5.07902e+12 -5.75464e+12 -6.31476e+12 -6.61098e+12 -2.21566e+12 -3.7731e+12 -3.25829e+12 -2.93432e+12 -5.68006e+12 -4.77111e+12 -4.07913e+12 -6.60194e+12 -3.98909e+12 -2.18504e+12 -4.25456e+12 -5.33853e+12 -6.28696e+12 -3.64858e+12 -7.00116e+12 -7.8504e+12 -5.60127e+12 -5.01118e+12 -4.54848e+12 -4.11034e+12 -6.89396e+12 -7.33884e+12 -8.6056e+12 -5.33085e+12 -5.57043e+12 -4.03957e+12 -5.75265e+12 -6.03444e+12 -4.0614e+12 -6.63516e+12 -4.59239e+12 -3.81285e+12 -2.62905e+12 -4.8145e+12 -3.58122e+12 -6.00091e+12 -7.45583e+12 -4.55003e+12 -3.82763e+12 -4.25874e+12 -4.30918e+12 -3.53183e+12 -2.43785e+12 -5.61123e+12 -5.81165e+12 -8.14949e+12 -7.95969e+12 -5.06378e+12 -7.48304e+12 -37977400000.0 -5.01195e+12 -6.06044e+12 -2.95702e+12 -5.16636e+12 -4.41616e+12 -6.44704e+12 -7.32228e+12 -5.43264e+12 -7.71156e+12 -6.34139e+12 -3.62742e+12 -4.8176e+12 -4.78903e+12 -3.33505e+12 -7.06315e+12 -4.24789e+12 -6.4337e+12 -2.84287e+12 -5.09261e+12 -5.43363e+12 -2.30456e+12 -6.60349e+12 -4.48256e+12 -2.60739e+12 -4.3232e+12 -4.78804e+12 -2.37808e+12 -5.27392e+12 -5.15245e+12 -6.61781e+12 -6.17541e+12 -8.26234e+12 -4.09599e+12 -6.58442e+12 -6.48349e+12 -3.23365e+12 -1.68903e+12 -6.32213e+12 -3.05596e+12 -7.25683e+12 -6.53041e+12 -5.53346e+12 -5.36545e+12 -6.18813e+12 -5.06818e+12 -4.99267e+12 -6.90506e+12 -5.94944e+12 -4.31494e+12 -5.64656e+12 -2.31642e+12 -5.09074e+12 -3.94829e+12 -4.88405e+12 -3.83634e+12 -4.41188e+12 -6.38587e+12 -3.64865e+12 -3.68906e+12 -4.27406e+12 -4.31301e+12 -5.35687e+12 -5.50387e+12 -4.70531e+12 -4.58674e+12 -5.55373e+12 -6.36794e+12 -5.02385e+12 -3.6384e+12 -7.25046e+12 -7.68775e+12 -6.48763e+12 -6.59117e+12 -8.32308e+12 -2.41068e+12 -7.07206e+12 -4.44784e+12 -2.60611e+12 -3.9959e+12 -4.62224e+12 -5.54766e+12 -7.78143e+12 -5.68922e+12 -5.34383e+12 -4.35742e+12 -4.97501e+12 -5.96657e+12 -7.57457e+12 -6.05158e+12 -4.92997e+12 -3.89153e+12 -5.18401e+12 -5.0809e+12 -5.6375e+12 -5.26875e+12 -6.85168e+12 -3.73419e+12 -3.90774e+12 -4.98087e+12 -6.13669e+12 -5.48751e+12 -4.70634e+12 -2.73376e+12 -3.89049e+12 -4.38312e+12 -3.48992e+12 -4.02472e+12 -3.04692e+12 -3.95321e+12 -3.9381e+12 -7.15565e+12 -7.33096e+12 -4.40405e+12 -6.26252e+12 -5.84604e+12 -5.63272e+12 -8.2708e+12 -4.23247e+12 -6.08819e+12 -4.39e+12 -5.49714e+12 -8.72861e+12 -6.16423e+12 -8.40146e+12 -6.86981e+12 -8.48122e+12 -5.43071e+12 -3.94868e+12 -7.11859e+12 -4.99389e+12 -7.04533e+12 -4.97512e+12 -4.74419e+12 -4.45811e+12 -1.04156e+13 -7.87213e+12 -8.90173e+12 -9.19884e+12 -7.61256e+12 -8.65032e+12 -7.11255e+12 -4.43616e+12 -6.82821e+12 -9.33903e+12 -8.9282e+12 -8.55884e+12 -8.18578e+12 -6.14584e+12 -3.54698e+12 -4.37764e+12 -6.65072e+12 -6.98204e+12 -2.72239e+12 -3.76566e+12 -4.90549e+12 -5.37896e+12 -5.36394e+12 -3.07323e+12 -5.20332e+12 -3.40914e+12 -4.99263e+12 -4.6102e+12 -7.32209e+12 -3.17312e+12 -8.49644e+12 -7.59752e+12 -6.00847e+12 -5.85441e+12 -3.96825e+12 -3.99086e+12 -6.52462e+12 -4.95463e+12 -5.99135e+12 -7.12957e+12 -4.88051e+12 -2.98171e+12 -4.19113e+12 -6.68368e+12 -6.65629e+12 -7.89122e+12 -6.09927e+12 -9.24815e+12 -1.05758e+13 -5.99377e+12 -5.74152e+12 -8.59463e+12 -6.10026e+12 -5.57238e+12 -3.52169e+12 -8.85804e+12 -4.56478e+12 -4.59539e+12 -6.3118e+12 -4.86767e+12 -4.39263e+12 -6.51129e+12 -7.28104e+12 -4.48004e+12 -8.92795e+12 -5.77974e+12 -1.08468e+13 -4.47663e+12 -5.85001e+12 -1.07704e+13 -1.02703e+13 -3.42032e+12 -6.9577e+12 -7.22732e+12 -8.76483e+12 -6.90494e+12 -4.89874e+12 -4.84047e+12 -7.02798e+12 -6.27579e+12 -4.94159e+12 -3.32705e+12 -6.43539e+12 -7.42733e+12 -5.26632e+12 -5.81949e+12 -4.79043e+12 -7.18414e+12 -5.34206e+12 -4.31109e+12 -5.49256e+12 -5.94705e+12 -3.37136e+12 -6.06771e+12 -2.97795e+12 -3.37152e+12 -4.15884e+12 -4.76067e+12 -4.68077e+12 -3.61396e+12 -6.17984e+12 -4.78264e+12 -4.97571e+12 -5.59339e+12 -4.90506e+12 -6.61554e+12 -2.52352e+12 -4.03575e+12 -4.93544e+12 -6.07892e+12 -7.95264e+12 -8.85398e+12 -8.95234e+12 -5.75844e+12 -8.45562e+12 -5.68294e+12 -1.06398e+13 -8.77271e+12 -8.50665e+12 -1.31889e+13 -8.87351e+12 -3.99571e+12 -6.74709e+12 -7.07797e+12 -5.7643e+12 -6.0843e+12 -4.07828e+12 -5.84991e+12 -5.62633e+12 -7.10633e+12 -7.59262e+12 -7.80054e+12 -3.53118e+12 -4.07159e+12 -6.29625e+12 -8.69982e+12 -4.14841e+12 -5.38206e+12 -6.14326e+12 -8.20232e+12 -7.86463e+12 -5.76158e+12 -6.26423e+12 -3.88728e+12 -3.59632e+12 -7.46747e+12 -1.09353e+13 -5.74007e+12 -5.87431e+12 -5.06242e+12 -3.79451e+12 -1.19068e+13 -6.03561e+12 -4.99431e+12 -6.41709e+12 -5.52629e+12 -7.38093e+12 -4.17544e+12 -4.7559e+12 -6.64693e+12 -1.01135e+13 -4.7431e+12 -7.20298e+12 -7.96535e+12 -1.10755e+13 -9.39152e+12 -5.37902e+12 -3.30499e+12 -6.75094e+12 -5.94207e+12 -5.77177e+12 -7.00712e+12 -9.28609e+12 -1.13569e+13 -8.99344e+12 -4.81156e+12 -6.43108e+12 -7.19752e+12 -1.29673e+13 -1.09312e+13 -7.78609e+12 -1.07087e+13 -1.65903e+13 -3.8969e+12 -1.06589e+13 -5.81822e+12 -8.0404e+12 -7.55154e+12 -7.21485e+12 -5.58669e+12 -8.2049e+12 -4.65378e+12 -7.48555e+12 -7.03507e+12 -4.13758e+12 -4.27556e+12 -6.07621e+12 -7.58778e+12 -1.07135e+13 -5.48483e+12 -9.99626e+12 -6.01063e+12 -3.51572e+12 -5.86162e+12 -6.08123e+12 -5.03342e+12 -4.81745e+12 -1.06024e+13 -9.65483e+12 -7.25791e+12 -6.74641e+12 -8.83479e+12 -5.16012e+12 -4.97216e+12 -7.04858e+12 -4.68802e+12 -8.13834e+12 -8.38642e+12 -8.45584e+12 -6.44105e+12 -5.7157e+12 -6.56102e+12 -6.66668e+12 -6.44405e+12 -4.19225e+12 -4.83814e+12 -4.09411e+12 -4.17693e+12 -5.95385e+12 -4.44397e+12 -7.0504e+12 -4.65171e+12 -6.06629e+12 -3.76813e+12 -5.35553e+12 -4.41446e+12 -6.20605e+12 -6.11283e+12 -7.79643e+12 -7.25772e+12 -4.79406e+12 -7.52327e+12 -5.23798e+12 -6.84933e+12 -1.02233e+13 -6.45846e+12 -2.82086e+12 -8.71178e+12 -5.30143e+12 -6.02933e+12 -1.24161e+13 -1.00637e+13 -4.91716e+12 -7.91436e+12 -9.85606e+12 -6.29284e+12 -7.28698e+12 -1.07878e+13 -5.65561e+12 -5.98096e+12 -1.04201e+13 -5.17016e+12 -9.47741e+12 -6.40041e+12 -9.28151e+12 -5.79575e+12 -4.54101e+12 -1.2069e+13 -5.94298e+12 -5.01083e+12 -4.874e+12 -3.88543e+12 -9.09889e+12 -4.14997e+12 -3.59787e+12 -3.84511e+12 -3.18744e+12 -7.33845e+12 -9.33104e+12 -7.63459e+12 -6.53364e+12 -7.85624e+12 -7.52339e+12 -6.20365e+12 -8.61789e+12 -5.53904e+12 -5.2066e+12 -8.34233e+12 -6.66232e+12 -8.25101e+12 -9.89147e+12 -7.91906e+12 -1.22969e+13 -4.87772e+12 -1.02105e+13 -6.85956e+12 -4.19295e+12 -5.36864e+12 -3.76942e+12 -3.99207e+12 -4.16199e+12 -6.71183e+12 -9.04318e+12 -7.08799e+12 -4.66696e+12 -6.78131e+12 -5.02922e+12 -2.41003e+12 -6.4768e+12 -5.37876e+12 -4.28974e+12 -5.95969e+12 -2.84098e+12 -5.79063e+12 -5.21265e+12 -4.06521e+12 -2.50221e+12 -7.05204e+12 -5.80081e+12 -3.8836e+12 -5.38768e+12 -5.87697e+12 -5.26116e+12 -4.21979e+12 -6.33984e+12 -7.28015e+12 -7.57574e+12 -3.4805e+12 -1.82107e+12 -4.18378e+12 -3.72031e+12 -6.93682e+12 -5.84604e+12 -2.64199e+12 -6.35008e+12 -7.14338e+12 -7.7687e+12 -5.79235e+12 -1.08251e+13 -6.71431e+12 -6.75093e+12 -8.91782e+12 -4.74578e+12 -6.82162e+12 -5.26827e+12 -7.70629e+12 -4.36714e+12 -5.10412e+12 -1.23269e+13 -1.00764e+13 -5.45566e+12 -7.21745e+12 -5.07506e+12 -6.76787e+12 -6.11079e+12 -1.06677e+13 -7.35118e+12 -3.46427e+12 -6.44168e+12 -5.21857e+12 -6.67088e+12 -4.65341e+12 -6.93012e+12 -3.63718e+12 -8.2704e+12 -4.88012e+12 -4.88047e+12 -2.61405e+12 -5.58543e+12 -7.24013e+12 -7.63862e+12 -8.82206e+12 -7.64771e+12 -1.04363e+13 -7.72525e+12 -6.74851e+12 -8.27639e+12 -4.44573e+12 -4.53107e+12 -4.78336e+12 -1.12923e+13 -4.79638e+12 -7.95544e+12 -6.92431e+12 -5.75885e+12 -9.67748e+12 -4.28391e+12 -5.82088e+12 -9.17136e+12 -9.66834e+12 -7.2444e+12 -6.03973e+12 -8.04728e+12 -6.03707e+12 -3.1178e+12 -4.65452e+12 -5.45966e+12 -5.82296e+12 -3.20902e+12 -3.6266e+12 -5.11882e+12 -5.10406e+12 -7.34296e+12 -3.26325e+12 -4.5381e+12 -3.27122e+12 -4.50983e+12 -4.1154e+12 -6.86147e+12 -2.19702e+12 -2.51964e+12 -8.0638e+12 -4.50036e+12 -5.19657e+12 -4.56222e+12 -6.35921e+12 -3.55141e+12 -3.92919e+12 -7.60332e+12 -3.7556e+12 -5.01017e+12 -4.58459e+12 -3.68775e+12 -8.71809e+12 -5.92043e+12 -9.91704e+12 -7.13259e+12 -5.24294e+12 -6.78259e+12 -4.3488e+12 -5.42605e+12 -7.6181e+12 -9.77182e+12 -6.51006e+12 -5.27689e+12 -8.61695e+12 -6.87612e+12 -5.66767e+12 -5.67223e+12 -9.94047e+12 -5.16005e+12 -3.90126e+12 -9.1179e+12 -5.21631e+12 -7.40906e+12 -9.38688e+12 -6.7549e+12 -8.54617e+12 -1.12766e+13 -3.28482e+12 -5.35635e+12 -6.4664e+12 -6.21519e+12 -4.78469e+12 -1.1087e+13 -9.47475e+12 -1.07834e+13 -6.64855e+12 -6.50132e+12 -8.94116e+12 -3.37465e+12 -5.3831e+12 -6.91021e+12 -5.77755e+12 -6.34831e+12 -5.89704e+12 -6.8601e+12 -6.16056e+12 -1.26982e+13 -6.78123e+12 -1.37738e+13 -5.24342e+12 -9.39183e+12 -8.8993e+12 -7.28791e+12 -7.93355e+12 -4.95799e+12 -5.25338e+12 -8.65045e+12 -6.75476e+12 -6.10053e+12 -6.75691e+12 -7.30193e+12 -7.09824e+12 -6.83925e+12 -7.12162e+12 -7.20517e+12 -5.5432e+12 -5.41273e+12 -5.07274e+12 -6.25038e+12 -5.82093e+12 -7.40074e+12 -6.49625e+12 -8.24495e+12 -8.55381e+12 -6.55753e+12 -5.99074e+12 -5.40073e+12 -5.57607e+12 -6.66753e+12 -4.45956e+12 -3.89115e+12 -7.94836e+12 -1.02799e+13 -4.17157e+12 -5.06559e+12 -8.03873e+12 -6.71737e+12 -4.94442e+12 -7.75647e+12 -7.74302e+12 -5.83688e+12 -6.45411e+12 -5.9971e+12 -7.62573e+12 -7.91113e+12 -6.8561e+12 -4.14269e+12 -6.26242e+12 -5.09798e+12 -5.26703e+12 -6.73243e+12 -8.16707e+12 -5.61222e+12 -7.76209e+12 -6.76082e+12 -8.23303e+12 -7.86876e+12 -8.63943e+12 -6.99397e+12 -4.84683e+12 -6.08056e+12 -6.03147e+12 -7.48043e+12 -5.96606e+12 -2.29921e+12 -6.90432e+12 -9.21865e+12 -1.03008e+13 -6.47058e+12 -8.58507e+12 -8.07643e+12 -8.00574e+12 -7.79554e+12 -7.57366e+12 -1.35664e+13 -8.55792e+12 -9.20251e+12 -3.2931e+12 -4.16735e+12 -7.19933e+12 -6.11379e+12 -7.79079e+12 -9.8068e+12 -1.13852e+13 -3.95478e+12 -9.79681e+12 -9.60726e+12 -8.28518e+12 -3.89038e+12 -1.26393e+13 -1.0776e+13 -9.25203e+12 -4.78439e+12 -7.22839e+12 -8.76735e+12 -5.25622e+12 -5.85752e+12 -7.91796e+12 -9.31475e+12 -7.76123e+12 -6.72943e+12 -7.39865e+12 -6.70239e+12 -6.27176e+12 -5.6466e+12 -9.56529e+12 -9.70745e+12 -7.53216e+12 -7.00324e+12 -1.23841e+13 -4.87954e+12 -3.81448e+12 -8.38924e+12 -6.83635e+12 -3.97734e+12 -1.91163e+12 -6.65255e+12 -3.46239e+12 -5.19241e+12 -2.88816e+12 -6.23147e+12 -4.58344e+12 -6.80913e+12 -5.72755e+12 -4.8145e+12 -4.00403e+12 -4.92824e+12 -5.11334e+12 -4.05518e+12 -5.06884e+12 -5.43137e+12 -3.97203e+12 -7.9523e+12 -8.60118e+12 -4.89888e+12 -5.78954e+12 -5.87404e+12 -4.92788e+12 -9.25259e+12 -4.40358e+12 -4.4414e+12 -8.4931e+12 -7.42006e+12 -6.3817e+12 -6.40112e+12 -6.34267e+12 -2.89926e+12 -4.57056e+12 -1.129e+13 -4.83126e+12 -6.67631e+12 -6.72447e+12 -5.64225e+12 -4.20373e+12 -7.7288e+12 -5.24894e+12 -6.69332e+12 -7.85552e+12 -6.15005e+12 -7.06725e+12 -9.71657e+12 -4.71462e+12 -5.85212e+12 -6.95885e+12 -6.19088e+12 -8.96062e+12 -7.20647e+12 -6.03131e+12 -7.86941e+12 -1.42103e+13 -6.51174e+12 -8.90085e+12 -8.96953e+12 -8.52322e+12 -1.01473e+13 -8.70371e+12 -7.35742e+12 -3.77342e+12 -1.25509e+13 -7.41581e+12 -2.77258e+12 -3.99735e+12 -5.63288e+12 -5.15944e+12 -7.45902e+12 -1.14915e+13 -1.30435e+13 -7.94391e+12 -9.31462e+12 -6.31702e+12 -1.00622e+13 -5.61391e+12 -6.59719e+12 -6.00429e+12 -8.78044e+12 -6.25245e+12 -8.85201e+12 -5.81528e+12 -7.68486e+12 -8.96726e+12 -7.55434e+12 -1.16607e+13 -6.69187e+12 -7.1603e+12 -8.76561e+12 -7.75006e+12 -6.3906e+12 -4.32009e+12 -4.81581e+12 -5.44972e+12 -7.54477e+12 -6.96338e+12 -1.23853e+13 -8.48498e+12 -8.83205e+12 -4.50008e+12 -6.41127e+12 -3.52947e+12 -5.77909e+12 -5.7759e+12 -5.57056e+12 -6.24582e+12 -3.76108e+12 -3.47237e+12 -5.54292e+12 -2.46792e+12 -7.37026e+12 -4.81134e+12 -1.33695e+12 -4.75879e+12 -5.15627e+12 -8.07642e+12 -8.37234e+12 -5.19126e+12 -5.93497e+12 -6.92185e+12 -7.06827e+12 -7.41081e+12 -5.46221e+12 -7.48262e+12 -3.17605e+12 -3.60136e+12 -6.17015e+12 -6.73944e+12 -6.53514e+12 -4.96724e+12 -5.58737e+12 -7.94931e+12 -4.28844e+12 -9.63814e+12 -4.7737e+12 -5.14141e+12 -8.67118e+12 -9.44722e+12 -5.23095e+12 -6.60577e+12 -5.60986e+12 -5.72697e+12 -8.98629e+12 -1.11718e+13 -4.54596e+12 -9.13144e+12 -6.8608e+12 -8.92502e+12 -1.27638e+13 -8.46227e+12 -4.95886e+12 -7.19838e+12 -1.18052e+13 -7.4032e+12 -1.09391e+13 -7.16924e+12 -7.17732e+12 -9.6594e+12 -6.39314e+12 -9.49172e+12 -8.56748e+12 -2.72114e+12 -3.81306e+12 -8.71633e+12 -5.12101e+12 -4.2652e+12 -7.02067e+12 -3.54438e+12 -8.69529e+12 -5.17404e+12 -6.70253e+12 -5.5483e+12 -4.80823e+12 -9.2874e+12 -5.62105e+12 -8.87859e+12 -5.59547e+12 -9.47888e+12 -1.21592e+13 -5.98274e+12 -9.57547e+12 -9.1086e+12 -6.14985e+12 -1.03489e+13 -1.08403e+13 -7.30093e+12 -4.93796e+12 -1.16938e+13 -8.23339e+12 -8.37108e+12 -5.21567e+12 -5.6898e+12 -7.5299e+12 -5.74719e+12 -6.66636e+12 -5.18206e+12 -4.34576e+12 -6.16847e+12 -4.78734e+12 -5.09942e+12 -8.11297e+12 -6.41862e+12 -5.70475e+12 -6.2708e+12 -3.88829e+12 -6.45688e+12 -3.26357e+12 -5.91546e+12 -6.1515e+12 -3.21044e+12 -3.35624e+12 -4.82523e+12 -5.37094e+12 -6.12112e+12 -7.85214e+12 -5.99254e+12 -6.12924e+12 -6.27226e+12 -4.70712e+12 -4.57721e+12 -5.03754e+12 -3.89754e+12 -7.30854e+12 -9.32031e+12 -4.83158e+12 -3.32752e+12 -5.28478e+12 -3.94018e+12 -5.89339e+12 -6.75194e+12 -6.99855e+12 -5.15335e+12 -5.70433e+12 -2.40177e+12 -4.59545e+12 -4.24702e+12 -4.40802e+12 -9.06447e+12 -4.88024e+12 -2.4603e+12 -5.82105e+12 -6.54706e+12 -6.44714e+12 -5.59516e+12 -6.84079e+12 -4.70296e+12 -6.43407e+12 -5.85221e+12 -6.98375e+12 -1.02376e+13 -5.33451e+12 -6.27752e+12 -5.01992e+12 -4.17136e+12 -8.79152e+12 -7.82034e+12 -4.7491e+12 -5.43522e+12 -8.97684e+12 -8.13354e+12 -7.23288e+12 -9.16731e+12 -8.43447e+12 -8.13303e+12 -7.89741e+12 -1.19077e+13 -1.12438e+13 -8.73628e+12 -6.83418e+12 -1.13936e+13 -6.47574e+12 -6.9426e+12 -1.05067e+13 -7.8475e+12 -5.09734e+12 -5.09705e+12 -8.46545e+12 -8.29142e+12 -6.27149e+12 -6.21004e+12 -2.94801e+12 -4.4326e+12 -5.16871e+12 -6.33251e+12 -1.00895e+13 -7.7758e+12 -8.89106e+12 -7.0074e+12 -9.66015e+12 -7.21608e+12 -7.64213e+12 -7.43362e+12 -5.44302e+12 -7.27856e+12 -4.8197e+12 -8.01309e+12 -9.07102e+12 -6.26461e+12 -9.71776e+12 -7.77972e+12 -4.60714e+12 -8.2035e+12 -7.06573e+12 -5.69508e+12 -6.672e+12 -6.22413e+12 -7.85457e+12 -6.30261e+12 -2.9051e+12 -7.50839e+12 -7.57407e+12 -8.76744e+12 -4.31868e+12 -6.23304e+12 -4.01694e+12 -5.35348e+12 -5.25611e+12 -4.40487e+12 -7.58973e+12 -8.01497e+12 -5.21794e+12 -5.97187e+12 -4.51364e+12 -5.22673e+12 -7.99162e+12 -3.34619e+12 -4.50989e+12 -5.1352e+12 -4.94026e+12 -5.37746e+12 -3.2591e+12 -6.39005e+12 -4.53292e+12 -5.75222e+12 -3.30717e+12 -5.51959e+12 -3.2081e+12 -3.91317e+12 -3.40891e+12 -3.76025e+12 -7.17845e+12 -6.5027e+12 -7.03657e+12 -6.09026e+12 -7.05397e+12 -2.43824e+12 -6.93002e+12 -3.48879e+12 -4.97802e+12 -4.46808e+12 -8.50837e+12 -3.13453e+12 -4.82742e+12 -8.74956e+12 -8.3252e+12 -4.66328e+12 -5.63851e+12 -5.16559e+12 -6.40164e+12 -7.21047e+12 -5.0551e+12 -4.41558e+12 -7.26574e+12 -5.67511e+12 -8.31022e+12 -8.93407e+12 -7.16304e+12 -7.10878e+12 -8.7404e+12 -9.2808e+12 -5.02114e+12 -7.27128e+12 -1.35251e+13 -7.76399e+12 -9.4787e+12 -4.92262e+12 -1.17996e+13 -5.32588e+12 -1.08648e+13 -5.49696e+12 -5.21213e+12 -1.42257e+13 -8.63516e+12 -5.13965e+12 -9.13287e+12 -6.74457e+12 -4.99591e+12 -9.22611e+12 -9.95047e+12 -9.91354e+12 -4.97243e+12 -1.03421e+13 -7.00177e+12 -5.74345e+12 -4.17325e+12 -8.40239e+12 -7.09131e+12 -1.20294e+13 -6.18829e+12 -6.90324e+12 -5.45852e+12 -5.48478e+12 -9.1012e+12 -1.13385e+13 -2.27627e+12 -6.33136e+12 -4.6422e+12 -3.7993e+12 -8.67993e+12 -8.09885e+12 -5.05551e+12 -6.33932e+12 -9.00962e+12 -8.53831e+12 -2.38374e+12 -9.49935e+12 -9.64831e+12 -5.62517e+12 -7.68067e+12 -7.52019e+12 -6.87816e+12 -4.74115e+12 -3.50957e+12 -8.24062e+12 -5.19337e+12 -5.38665e+12 -6.06796e+12 -4.59337e+12 -3.18413e+12 -6.08215e+12 -5.5538e+12 -3.33967e+12 -6.54121e+12 -4.54852e+12 -2.20857e+12 -3.07122e+12 -7.52658e+12 -5.63535e+12 -3.48139e+12 -4.95583e+12 -5.88604e+12 -3.89274e+12 -5.24437e+12 -3.59019e+12 -6.06979e+12 -3.10731e+12 -4.94773e+12 -3.82588e+12 -4.8739e+12 -7.14418e+12 -2.37626e+12 -9.06455e+12 -2.99401e+12 -6.05281e+12 -3.41575e+12 -4.41555e+12 -6.04901e+12 -6.26902e+12 -7.73626e+12 -6.39054e+12 -4.3552e+12 -4.1092e+12 -5.66118e+12 -5.69047e+12 -7.09305e+12 -6.46075e+12 -6.0124e+12 -6.88094e+12 -4.99611e+12 -8.64865e+12 -5.52046e+12 -6.29269e+12 -3.26571e+12 -6.72249e+12 -7.99486e+12 -3.84788e+12 -8.56334e+12 -7.6122e+12 -4.0419e+12 -2.47701e+12 -6.95151e+12 -5.75041e+12 -4.67262e+12 -5.91245e+12 -7.99622e+12 -7.1392e+12 -7.71484e+12 -6.91316e+12 -3.25699e+12 -6.6287e+12 -7.69166e+12 -3.894e+12 -9.30354e+12 -8.62548e+12 -4.44065e+12 -6.97943e+12 -6.19834e+12 -2.80653e+12 -7.27621e+12 -6.77816e+12 -8.64435e+12 -3.15562e+12 -9.7006e+12 -6.60537e+12 -7.47107e+12 -6.84297e+12 -8.01316e+12 -9.78739e+12 -7.28229e+12 -5.39662e+12 -7.75462e+12 -8.24745e+12 -8.32159e+12 -5.91349e+12 -5.8642e+12 -8.69895e+12 -1.11948e+13 -8.57152e+12 -1.125e+13 -1.12644e+13 -6.4486e+12 -8.27675e+12 -7.40729e+12 -8.82221e+12 -7.15034e+12 -5.08291e+12 -5.27636e+12 -4.70322e+12 -3.89289e+12 -6.12635e+12 -5.07432e+12 -5.73502e+12 -3.89129e+12 -7.72293e+12 -8.69554e+12 -5.35601e+12 -4.631e+12 -4.47003e+12 -5.37228e+12 -4.29283e+12 -7.52963e+12 -5.84752e+12 -6.10316e+12 -2.70798e+12 -2.17451e+12 -6.4725e+12 -4.8513e+12 -7.81694e+12 -5.85419e+12 -4.66999e+12 -7.9828e+12 -4.65505e+12 -3.7937e+12 -6.47388e+12 -3.97256e+12 -3.72752e+12 -5.23271e+12 -6.43946e+12 -5.07817e+12 -5.63946e+12 -4.23076e+12 -2.96994e+12 -2.04214e+12 -3.89499e+12 -4.96281e+12 -7.05624e+12 -5.0467e+12 -3.29659e+12 -4.65454e+12 -4.52042e+12 -5.3811e+12 -5.2965e+12 -3.32016e+12 -6.20153e+12 -2.53611e+12 -4.25077e+12 -5.28097e+12 -5.06671e+12 -7.8094e+12 -3.27057e+12 -5.21587e+12 -5.87707e+12 -3.3692e+12 -5.76509e+12 -5.02498e+12 -4.66735e+12 -4.03683e+12 -4.70074e+12 -4.81317e+12 -2.88339e+12 -4.79083e+12 -7.2989e+12 -5.16855e+12 -5.74865e+12 -4.57386e+12 -6.02332e+12 -3.75778e+12 -6.10822e+12 -7.7452e+12 -4.9267e+12 -6.53622e+12 -6.11509e+12 -4.39397e+12 -3.66193e+12 -1.65406e+12 -6.70688e+12 -4.02018e+12 -5.38332e+12 -5.72372e+12 -5.64786e+12 -9.03222e+12 -3.41971e+12 -7.52312e+12 -6.44033e+12 -7.71924e+12 -7.48729e+12 -1.10756e+13 -5.24712e+12 -6.67011e+12 -9.86956e+12 -5.66112e+12 -3.61781e+12 -6.35959e+12 -5.63205e+12 -4.19215e+12 -9.67889e+12 -7.10749e+12 -7.70999e+12 -7.2912e+12 -7.87341e+12 -7.67085e+12 -4.44902e+12 -8.80917e+12 -7.99855e+12 -5.16376e+12 -4.09785e+12 -6.88323e+12 -7.54731e+12 -9.41266e+12 -8.5658e+12 -1.00118e+13 -6.70284e+12 -5.71135e+12 -7.67697e+12 -8.03052e+12 -4.93066e+12 -8.07939e+12 -4.92767e+12 -7.64162e+12 -6.5476e+12 -3.87732e+12 -6.84413e+12 -7.97541e+12 -5.85097e+12 -9.75232e+12 -6.58703e+12 -4.09321e+12 -6.70408e+12 -8.2871e+12 -8.06184e+12 -5.63748e+12 -4.92261e+12 -6.7758e+12 -4.44368e+12 -6.94603e+12 -3.81971e+12 -9.89141e+12 -1.02898e+13 -5.62603e+12 -9.80936e+12 -5.43055e+12 -3.83223e+12 -5.48905e+12 -3.36982e+12 -7.28906e+12 -5.28007e+12 -4.62147e+12 -4.417e+12 -6.58044e+12 -1.04025e+13 -6.33764e+12 -5.74377e+12 -5.95741e+12 -5.01858e+12 -3.72636e+12 -8.64288e+12 -3.15921e+12 -4.275e+12 -5.95813e+12 -2.64561e+12 -6.68488e+12 -5.05351e+12 -2.40244e+12 -3.81666e+12 -4.36563e+12 -6.41322e+12 -3.85618e+12 -3.14728e+12 -6.03567e+12 -5.72846e+12 -3.70009e+12 -2.90541e+12 -4.41017e+12 -5.55427e+12 -8.24412e+12 -3.30288e+12 -3.79751e+12 -5.48469e+12 -5.18954e+12 -5.38725e+12 -2.24628e+12 -1.5661e+12 -5.00382e+12 -5.07542e+12 -7.96996e+12 -9.5264e+12 -4.19164e+12 -4.49347e+12 -7.03914e+12 -6.74745e+12 -4.3091e+12 -6.25638e+12 -6.39322e+12 -4.02475e+12 -6.46933e+12 -4.85099e+12 -3.02145e+12 -6.33669e+12 -5.56629e+12 -5.86908e+12 -2.16103e+12 -9.259e+12 -8.00542e+12 -2.77668e+12 -9.51324e+12 -4.29865e+12 -6.5134e+12 -6.96409e+12 -1.1044e+13 -9.35299e+12 -7.68402e+12 -7.175e+12 -4.56402e+12 -9.27757e+12 -1.01971e+13 -8.14629e+12 -8.02941e+12 -7.328e+12 -6.75834e+12 -5.69353e+12 -6.58399e+12 -6.93204e+12 -7.4455e+12 -6.87255e+12 -4.76023e+12 -6.34217e+12 -3.92353e+12 -7.06154e+12 -7.38739e+12 -4.68099e+12 -4.45674e+12 -3.41472e+12 -2.47623e+12 -7.28808e+12 -2.65464e+12 -7.54613e+12 -9.7599e+12 -6.45534e+12 -6.42432e+12 -4.46725e+12 -1.13188e+13 -5.66643e+12 -5.18141e+12 -2.90456e+12 -9.63397e+12 -1.14178e+13 -7.04863e+12 -9.26605e+12 -4.33638e+12 -5.82409e+12 -6.74878e+12 -4.62368e+12 -4.16077e+12 -7.37377e+12 -8.07915e+12 -6.29737e+12 -7.04762e+12 -6.23718e+12 -3.79236e+12 -7.91932e+12 -5.8226e+12 -8.26181e+12 -4.89251e+12 -7.77993e+12 -6.42105e+12 -5.55505e+12 -4.5762e+12 -3.93496e+12 -5.09455e+12 -5.90891e+12 -5.63075e+12 -5.02695e+12 -4.70078e+12 -4.30944e+12 -5.95126e+12 -5.5842e+12 -9.20014e+12 -3.20448e+12 -5.07634e+12 -4.18931e+12 -6.86567e+12 -6.588e+12 -4.66914e+12 -4.70802e+12 -5.19929e+12 -3.74442e+12 -7.47123e+12 -6.00634e+12 -6.5245e+12 -6.80085e+12 -4.72987e+12 -4.55398e+12 -4.90804e+12 -3.51324e+12 -5.16223e+12 -2.01744e+12 -5.14673e+12 -4.81905e+12 -5.22731e+12 -3.81072e+12 -5.66925e+12 -3.50685e+12 -6.45812e+12 -5.12182e+12 -3.80893e+12 -7.3311e+12 -6.46507e+12 -6.49064e+12 -6.43072e+12 -3.05546e+12 -5.4266e+12 -3.71412e+12 -3.9023e+12 -1.92973e+12 -3.25909e+12 -4.74151e+12 -3.58318e+12 -4.89628e+12 -4.40324e+12 -4.02898e+12 -3.00743e+12 -3.45729e+12 -3.91985e+12 -6.11354e+12 -6.98968e+12 -7.64578e+12 -4.49806e+12 -4.84043e+12 -6.96528e+12 -5.1558e+12 -2.0139e+12 -9.25985e+12 -5.88586e+12 -6.12302e+12 -6.07003e+12 -6.65868e+12 -7.24045e+12 -5.14787e+12 -7.58507e+12 -3.72719e+12 -9.34097e+12 -7.15007e+12 -8.1361e+12 -7.1259e+12 -8.0324e+12 -1.01483e+13 -8.62157e+12 -1.14828e+13 -1.1087e+13 -9.64445e+12 -6.01819e+12 -6.2483e+12 -1.10689e+13 -8.67625e+12 -7.15374e+12 -7.15396e+12 -8.50115e+12 -9.96792e+12 -7.58117e+12 -4.95842e+12 -6.01583e+12 -3.70303e+12 -8.20656e+12 -5.20751e+12 -5.19586e+12 -4.9518e+12 -3.91982e+12 -5.83773e+12 -6.23765e+12 -6.54006e+12 -6.51035e+12 -7.51579e+12 -1.11515e+13 -7.8435e+12 -4.12059e+12 -8.21962e+12 -1.34688e+13 -7.57702e+12 -9.7366e+12 -5.10929e+12 -4.48667e+12 -5.53366e+12 -6.61114e+12 -9.03928e+12 -9.71207e+12 -4.5546e+12 -6.49735e+12 -4.08931e+12 -5.29495e+12 -5.87863e+12 -4.89622e+12 -1.98002e+12 -5.31864e+12 -9.79685e+12 -6.37424e+12 -5.97363e+12 -6.61854e+12 -6.11262e+12 -2.72991e+12 -4.74998e+12 -5.97244e+12 -6.17345e+12 -3.82198e+12 -3.135e+12 -5.92382e+12 -5.705e+12 -4.64714e+12 -4.96341e+12 -8.72224e+12 -9.00461e+12 -6.81818e+12 -4.51902e+12 -4.10071e+12 -4.30513e+12 -4.58424e+12 -5.006e+12 -4.84969e+12 -6.09509e+12 -4.9943e+12 -2.81121e+12 -5.39493e+12 -4.90057e+12 -5.53539e+12 -3.15009e+12 -5.41289e+12 -5.27775e+12 -5.5555e+12 -5.70497e+12 -2.93688e+12 -3.08252e+12 -4.85798e+12 -2.89234e+12 -1.57607e+12 -3.6569e+12 -3.27908e+12 -1.87367e+12 -4.02594e+12 -3.78751e+12 -3.78528e+12 -3.62186e+12 -5.8042e+12 -3.18737e+12 -4.12221e+12 -4.95878e+12 -3.49633e+12 -2.16443e+12 -2.24559e+12 -3.92437e+12 -1.88106e+12 -4.72483e+12 -2.90612e+12 -6.87154e+12 -5.72309e+12 -5.13439e+12 -4.11418e+12 -8.15973e+12 -4.66963e+12 -7.96026e+12 -6.19331e+12 -8.09831e+12 -4.9314e+12 -6.98268e+12 -5.56364e+12 -6.47081e+12 -9.00861e+12 -7.52359e+12 -4.66819e+12 -3.55642e+12 -5.77632e+12 -1.02682e+13 -6.09951e+12 -1.02943e+13 -9.3508e+12 -2.97476e+12 -4.35207e+12 -6.1662e+12 -2.14847e+12 -6.25834e+12 -7.09807e+12 -6.92153e+12 -8.38927e+12 -4.1648e+12 -4.0619e+12 -7.7181e+12 -5.86963e+12 -6.01796e+12 -6.67627e+12 -9.47956e+12 -6.57604e+12 -4.5606e+12 -5.35763e+12 -7.28427e+12 -4.56473e+12 -5.51006e+12 -5.44878e+12 -7.2777e+12 -7.73655e+12 -5.55334e+12 -3.9572e+12 -5.23798e+12 -6.08056e+12 -5.1879e+12 -3.99385e+12 -3.91005e+12 -6.47045e+12 -6.14301e+12 -7.94912e+12 -4.92927e+12 -1.0282e+13 -2.74146e+12 -8.70649e+12 -6.23537e+12 -6.21964e+12 -1.6495e+13 -8.69373e+12 -5.61645e+12 -6.05161e+12 -1.01306e+13 -8.66609e+12 -8.23862e+12 -8.42482e+12 -4.54046e+12 -8.60973e+12 -6.23993e+12 -5.81979e+12 -7.39613e+12 -6.6121e+12 -8.76157e+12 -6.1645e+12 -1.17732e+13 -7.8552e+12 -8.89544e+12 -2.94529e+12 -6.14216e+12 -2.60511e+12 -5.99051e+12 -4.9692e+12 -4.27335e+12 -6.29271e+12 -4.46694e+12 -7.97744e+12 -2.8095e+12 -4.00861e+12 -6.15824e+12 -8.06322e+12 -8.5767e+12 -3.90279e+12 -3.77692e+12 -3.83208e+12 -3.10133e+12 -4.09389e+12 -5.65549e+12 -4.38463e+12 -3.69376e+12 -4.85525e+12 -2.75239e+12 -5.75473e+12 -3.19268e+12 -2.90063e+12 -4.64175e+12 -5.4296e+12 -3.73938e+12 -3.85582e+12 -2.72533e+12 -3.88072e+12 -4.92048e+12 -4.00414e+12 -4.06417e+12 -1.96677e+12 -4.23111e+12 -4.32054e+12 -6.91515e+12 -2.84091e+12 -1.44118e+12 -3.10214e+12 -1.93497e+12 -4.57383e+12 -4.96903e+12 -1.80093e+12 -3.40682e+12 -2.55752e+12 -5.19331e+12 -3.4906e+12 -3.17064e+12 -4.61465e+12 -4.69795e+12 -3.89256e+12 -4.78743e+12 -3.5443e+12 -4.91034e+12 -4.82849e+12 -3.40347e+12 -4.83767e+12 -5.02854e+12 -5.86652e+12 -6.33448e+12 -8.50133e+12 -5.20786e+12 -3.46717e+12 -5.97269e+12 -6.54398e+12 -5.20101e+12 -2.7352e+12 -7.4277e+12 -4.42467e+12 -4.45679e+12 -5.47389e+12 -9.21124e+12 -5.79734e+12 -3.70241e+12 -5.64253e+12 -5.11849e+12 -4.97326e+12 -5.75968e+12 -3.89131e+12 -6.0726e+12 -5.84002e+12 -8.39684e+12 -4.41338e+12 -7.88547e+12 -8.42067e+12 -7.9339e+12 -7.0031e+12 -7.32475e+12 -9.33743e+12 -5.70056e+12 -7.16752e+12 -6.8701e+12 -8.51839e+12 -9.94934e+12 -6.5444e+12 -4.59229e+12 -8.88143e+12 -3.1985e+12 -7.90145e+12 -4.86677e+12 -3.92306e+12 -4.12103e+12 -4.70693e+12 -6.0026e+12 -8.35232e+12 -9.56896e+12 -7.19389e+12 -7.3291e+12 -4.80809e+12 -7.57474e+12 -5.05091e+12 -1.27351e+13 -5.37202e+12 -6.65941e+12 -1.06596e+13 -6.21549e+12 -5.11211e+12 -8.54036e+12 -3.39195e+12 -6.13778e+12 -4.92438e+12 -6.87797e+12 -5.0346e+12 -7.85278e+12 -7.57841e+12 -4.30477e+12 -7.28533e+12 -4.18598e+12 -5.27854e+12 -4.49041e+12 -4.74467e+12 -3.39401e+12 -7.5936e+12 -3.92826e+12 -6.11733e+12 -7.26574e+12 -4.53105e+12 -7.12245e+12 -5.42008e+12 -5.98818e+12 -5.00659e+12 -5.21772e+12 -3.42191e+12 -4.71762e+12 -8.93288e+12 -3.52929e+12 -7.27266e+12 -4.43604e+12 -6.51842e+12 -3.10345e+12 -2.85635e+12 -3.80589e+12 -6.29492e+12 -2.4469e+12 -2.63021e+12 -2.39134e+12 -5.98769e+12 -5.7701e+12 -3.80177e+12 -3.5758e+12 -4.93864e+12 -5.86985e+12 -3.99269e+12 -4.49025e+12 -2.37926e+12 -3.46897e+12 -2.42912e+12 -2.72346e+12 -3.78593e+12 -2.35562e+12 -5.51467e+12 -3.4905e+12 -3.42906e+12 -3.67987e+12 -2.84581e+12 -3.09225e+12 -1.79291e+12 -4.45565e+12 -3.9017e+12 -2.07417e+12 -2.96154e+12 -3.32359e+12 -5.27859e+12 -1.97667e+12 -4.66693e+12 -3.81443e+12 -3.9687e+12 -4.01504e+12 -6.76405e+12 -4.43248e+12 -6.59707e+12 -4.63921e+12 -2.70695e+12 -3.81492e+12 -3.25201e+12 -5.64727e+12 -7.6749e+12 -7.63618e+12 -7.61818e+12 -6.94245e+12 -1.89072e+12 -6.19859e+12 -6.63782e+12 -7.59537e+12 -5.76516e+12 -8.38798e+12 -4.74157e+12 -3.14121e+12 -4.58563e+12 -6.58058e+12 -5.51373e+12 -7.69946e+12 -7.58126e+12 -6.37937e+12 -2.39883e+12 -4.5714e+12 -8.41012e+12 -7.31147e+12 -5.88298e+12 -4.08067e+12 -4.84566e+12 -3.31185e+12 -1.17599e+13 -6.90505e+12 -5.64879e+12 -5.59636e+12 -5.56825e+12 -4.55027e+12 -4.82449e+12 -5.99568e+12 -9.86117e+12 -9.0571e+12 -6.68305e+12 -1.01865e+13 -7.34168e+12 -6.91343e+12 -3.98544e+12 -6.52664e+12 -3.81633e+12 -4.66116e+12 -3.49285e+12 -4.25694e+12 -4.97841e+12 -3.28286e+12 -6.99074e+12 -6.51257e+12 -6.33514e+12 -5.296e+12 -6.76904e+12 -9.01393e+12 -6.82876e+12 -5.73379e+12 -3.48581e+12 -7.16348e+12 -3.47669e+12 -4.03805e+12 -6.54838e+12 -6.38196e+12 -3.58632e+12 -4.79405e+12 -7.4324e+12 -5.18992e+12 -4.71032e+12 -5.21335e+12 -4.24211e+12 -6.47396e+12 -6.81846e+12 -6.13768e+12 -4.66402e+12 -5.61642e+12 -9.68864e+12 -5.42341e+12 -4.37523e+12 -5.59107e+12 -1.59659e+12 -5.3143e+12 -7.87814e+12 -8.81258e+12 -5.98512e+12 -4.9843e+12 -4.45616e+12 -5.48142e+12 -6.23716e+12 -6.70927e+12 -6.34867e+12 -3.76157e+12 -4.80961e+12 -4.10489e+12 -7.32909e+12 -1.98153e+12 -4.63459e+12 -4.85689e+12 -2.47151e+12 -4.05118e+12 -3.53023e+12 -3.86258e+12 -3.25835e+12 -2.03184e+12 -4.67527e+12 -3.71275e+12 -4.20211e+12 -2.19916e+12 -4.68677e+12 -3.67503e+12 -4.22302e+12 -2.92384e+12 -4.03595e+12 -2.37229e+12 -3.17016e+12 -1.7767e+12 -902712000000.0 -4.61112e+12 -2.77244e+12 -2.58317e+12 -4.43768e+12 -4.83363e+12 -5.95692e+12 -2.59042e+12 -2.51698e+12 -2.77816e+12 -1.92495e+12 -4.12919e+12 -2.9692e+12 -4.72474e+12 -4.7986e+12 -2.6215e+12 -3.05639e+12 -3.66122e+12 -3.54448e+12 -4.64169e+12 -2.6924e+12 -5.19989e+12 -3.78932e+12 -2.53868e+12 -4.97973e+12 -3.99206e+12 -2.72144e+12 -2.5197e+12 -4.48568e+12 -3.84367e+12 -5.2787e+12 -3.99251e+12 -3.81325e+12 -5.81925e+12 -4.95714e+12 -3.99154e+12 -3.25749e+12 -3.90298e+12 -3.8859e+12 -5.21216e+12 -6.97131e+12 -9.76575e+12 -3.70667e+12 -2.49686e+12 -4.32293e+12 -3.65999e+12 -6.54608e+12 -4.96526e+12 -7.43793e+12 -3.88937e+12 -6.14935e+12 -1.09283e+13 -5.38875e+12 -3.8016e+12 -7.1064e+12 -1.19044e+13 -9.33895e+12 -6.13666e+12 -9.26317e+12 -4.58015e+12 -5.57991e+12 -4.45012e+12 -4.09677e+12 -4.9507e+12 -4.72879e+12 -5.11776e+12 -4.6949e+12 -9.29936e+12 -7.8742e+12 -6.86374e+12 -6.92708e+12 -6.28621e+12 -6.74199e+12 -8.11515e+12 -8.713e+12 -7.37539e+12 -5.15762e+12 -6.91414e+12 -5.43891e+12 -2.48595e+12 -5.00902e+12 -5.73628e+12 -7.27594e+12 -5.46946e+12 -4.51634e+12 -4.20194e+12 -3.60941e+12 -4.00691e+12 -7.12911e+12 -5.428e+12 -7.77783e+12 -8.01506e+12 -6.35147e+12 -6.37774e+12 -7.68827e+12 -4.59568e+12 -6.30002e+12 -3.25249e+12 -4.36244e+12 -6.2684e+12 -3.54971e+12 -5.81182e+12 -3.57495e+12 -6.52874e+12 -6.44429e+12 -5.75329e+12 -5.75081e+12 -3.66609e+12 -3.98979e+12 -2.44266e+12 -6.29321e+12 -2.13024e+12 -6.67374e+12 -5.78699e+12 -3.83472e+12 -3.07081e+12 -7.07996e+12 -4.72531e+12 -3.37757e+12 -4.52648e+12 -5.28694e+12 -6.76579e+12 -4.06769e+12 -3.33894e+12 -3.46679e+12 -3.97293e+12 -4.23739e+12 -725085000000.0 -5.58372e+12 -5.24464e+12 -5.79709e+12 -2.63143e+12 -2.64973e+12 -1.93118e+12 -3.05648e+12 -3.19518e+12 -2.9168e+12 -2.85468e+12 -2.21796e+12 -3.3504e+12 -2.53878e+12 -4.8667e+12 -4.23751e+12 -2.50058e+12 -2.13562e+12 -3.0482e+12 -1.80583e+12 -4.38722e+12 -3.76924e+12 -3.15297e+12 -4.41146e+12 -2.33532e+12 -4.36885e+12 -3.49394e+12 -4.66567e+12 -3.74878e+12 -4.14024e+12 -3.06021e+12 -5.58744e+12 -2.34513e+12 -3.0004e+12 -4.31312e+12 -2.1328e+12 -3.28794e+12 -1.05128e+12 -1.67631e+12 -3.82155e+12 -4.64977e+12 -3.75623e+12 -1.68529e+12 -2.82108e+12 -2.57723e+12 -5.24802e+12 -2.44187e+12 -2.37716e+12 -2.45773e+12 -3.81493e+12 -3.80707e+12 -3.85955e+12 -8.48886e+12 -3.97456e+12 -5.06278e+12 -5.32424e+12 -5.51752e+12 -4.8762e+12 -2.68493e+12 -2.96357e+12 -4.42192e+12 -7.62567e+12 -7.26527e+12 -8.08024e+12 -6.92986e+12 -7.52129e+12 -7.94453e+12 -5.92376e+12 -3.66433e+12 -7.72629e+12 -7.30032e+12 -6.79766e+12 -7.03711e+12 -5.75991e+12 -5.31426e+12 -3.99739e+12 -4.19979e+12 -8.4776e+12 -4.26253e+12 -6.53926e+12 -1.02673e+13 -9.77641e+12 -1.13394e+13 -5.71061e+12 -6.69679e+12 -4.18173e+12 -8.43907e+12 -5.49891e+12 -7.84586e+12 -8.14374e+12 -5.17353e+12 -2.76656e+12 -6.45944e+12 -5.50793e+12 -3.28333e+12 -4.40657e+12 -5.1248e+12 -5.28888e+12 -7.31098e+12 -4.86775e+12 -6.52348e+12 -6.16553e+12 -5.30884e+12 -8.39983e+12 -4.91952e+12 -3.72956e+12 -9.32188e+12 -8.20432e+12 -7.04955e+12 -6.41628e+12 -7.60097e+12 -5.81821e+12 -4.19969e+12 -7.82653e+12 -6.13909e+12 -4.45931e+12 -5.68431e+12 -6.26954e+12 -5.23117e+12 -6.85681e+12 -3.99686e+12 -5.16364e+12 -3.55219e+12 -5.50107e+12 -5.54642e+12 -2.88676e+12 -4.25079e+12 -7.72498e+12 -7.31933e+12 -4.81461e+12 -6.98616e+12 -5.23156e+12 -3.62937e+12 -6.83569e+12 -3.89001e+12 -4.61179e+12 -3.82512e+12 -3.37904e+12 -2.91845e+12 -2.97689e+12 -2.49135e+12 -5.56702e+12 -6.18096e+12 -3.14425e+12 -1.9546e+12 -4.63557e+12 -3.25594e+12 -3.19334e+12 -2.56517e+12 -5.67915e+12 -5.0116e+12 -4.78985e+12 -2.23414e+12 -1.95264e+12 -3.91728e+12 -1.91833e+12 -1.54563e+12 -4.89925e+12 -2.3052e+12 -2.7436e+12 -3.48578e+12 -3.08652e+12 -2.08925e+12 -4.61385e+12 -3.77089e+12 -2.76475e+12 -2.99964e+12 -2.93005e+12 -4.27195e+12 -2.87205e+12 -3.31048e+12 -1.95975e+12 -4.11479e+12 -4.85762e+12 -2.00998e+12 -4.30865e+12 -4.25209e+12 -3.43755e+12 -2.90157e+12 -3.13628e+12 -4.44128e+12 -2.81189e+12 -2.21945e+12 -3.94034e+12 -1.96308e+12 -3.66684e+12 -3.10729e+12 -3.07373e+12 -3.70442e+12 -4.5438e+12 -2.90943e+12 -3.02534e+12 -4.00371e+12 -3.2863e+12 -3.02315e+12 -4.25156e+12 -7.39367e+12 -2.90423e+12 -3.20196e+12 -4.78588e+12 -3.82872e+12 -4.93989e+12 -3.75361e+12 -5.11765e+12 -6.17639e+12 -8.78342e+12 -3.13536e+12 -4.08711e+12 -3.38393e+12 -4.06359e+12 -5.33331e+12 -6.2216e+12 -3.5407e+12 -2.22818e+12 -3.36504e+12 -4.2661e+12 -4.75628e+12 -5.05348e+12 -6.43731e+12 -4.8915e+12 -4.85124e+12 -5.06036e+12 -9.5953e+12 -7.82228e+12 -6.25072e+12 -2.20603e+12 -8.50858e+12 -8.16465e+12 -4.52858e+12 -5.86061e+12 -5.32937e+12 -4.82401e+12 -7.37649e+12 -4.73028e+12 -9.87834e+12 -9.04243e+12 -7.42266e+12 -7.16576e+12 -6.05546e+12 -1.17462e+13 -5.73135e+12 -6.88586e+12 -4.60284e+12 -3.08821e+12 -3.84376e+12 -6.54185e+12 -3.66379e+12 -8.3726e+12 -5.36645e+12 -5.80308e+12 -6.77309e+12 -5.13176e+12 -5.71551e+12 -7.95048e+12 -6.39465e+12 -5.00205e+12 -7.78495e+12 -5.75904e+12 -8.16254e+12 -5.95657e+12 -4.62834e+12 -6.93102e+12 -5.19592e+12 -4.18263e+12 -5.65078e+12 -4.60534e+12 -4.14364e+12 -7.46927e+12 -5.31587e+12 -6.42359e+12 -7.03105e+12 -5.31555e+12 -3.42392e+12 -8.72466e+12 -5.61996e+12 -4.44011e+12 -6.17517e+12 -6.9537e+12 -2.17495e+12 -4.23636e+12 -4.15858e+12 -4.09023e+12 -4.20471e+12 -1.06657e+12 -4.10627e+12 -4.58357e+12 -5.35947e+12 -3.0958e+12 -3.67266e+12 -2.30016e+12 -3.28987e+12 -4.58446e+12 -5.06212e+12 -4.86612e+12 -5.55633e+12 -3.31437e+12 -3.16875e+12 -3.917e+12 -685974000000.0 -2.90781e+12 -3.2914e+12 -3.732e+12 -2.54597e+12 -3.90249e+12 -3.58698e+12 -2.05732e+12 -1.87904e+12 -1.95821e+12 -1.95806e+12 -1.9671e+12 -2.5479e+12 -3.66053e+12 -2.03287e+12 -3.42554e+12 -2.23595e+12 -3.14612e+12 -1.98046e+12 -1.1282e+12 -3.40048e+12 -1.65735e+12 -2.55621e+12 -1.12579e+12 -3.03635e+12 -4.83779e+12 -1.74468e+12 -3.67498e+12 -2.71126e+12 -1.82398e+12 -2.92247e+12 -2.26121e+12 -3.80537e+12 -3.15532e+12 -2.65669e+12 -3.07978e+12 -2.59447e+12 -1.89015e+12 -3.87712e+12 -4.49387e+12 -2.29208e+12 -3.27368e+12 -2.47798e+12 -3.86163e+12 -5.50714e+12 -8.28208e+12 -3.27042e+12 -3.93518e+12 -4.00731e+12 -2.80998e+12 -4.10635e+12 -2.54601e+12 -4.54982e+12 -3.10637e+12 -3.68055e+12 -3.20095e+12 -5.12922e+12 -3.60385e+12 -3.48127e+12 -4.68739e+12 -3.37392e+12 -3.03504e+12 -3.09969e+12 -4.44056e+12 -4.59758e+12 -5.4321e+12 -6.74387e+12 -6.53969e+12 -4.59285e+12 -6.84249e+12 -5.97344e+12 -4.92786e+12 -7.23037e+12 -3.25661e+12 -5.45025e+12 -4.32353e+12 -7.81318e+12 -1.36378e+13 -5.46587e+12 -7.49462e+12 -5.06927e+12 -1.04845e+13 -7.04935e+12 -5.18805e+12 -6.4932e+12 -8.35414e+12 -9.68525e+12 -9.53209e+12 -1.1191e+13 -6.36124e+12 -2.48079e+12 -3.83971e+12 -6.66358e+12 -5.70733e+12 -2.29468e+12 -3.29623e+12 -2.76338e+12 -4.02257e+12 -5.93246e+12 -2.83918e+12 -3.1131e+12 -1.03015e+13 -9.35663e+12 -4.37368e+12 -4.27491e+12 -4.85617e+12 -5.05484e+12 -4.69027e+12 -4.9341e+12 -7.75739e+12 -5.97088e+12 -5.54761e+12 -8.83437e+12 -5.91256e+12 -5.12383e+12 -5.35343e+12 -4.04011e+12 -3.94881e+12 -6.33413e+12 -4.32474e+12 -7.20363e+12 -5.04227e+12 -4.56332e+12 -2.22864e+12 -4.83873e+12 -3.63567e+12 -5.57789e+12 -7.18761e+12 -3.91213e+12 -3.41683e+12 -2.98413e+12 -8.82345e+12 -3.00709e+12 -5.81572e+12 -2.27107e+12 -5.70463e+12 -2.37152e+12 -3.07542e+12 -4.0177e+12 -3.36294e+12 -4.02597e+12 -5.08115e+12 -4.35535e+12 -4.22041e+12 -2.53696e+12 -3.36687e+12 -2.99915e+12 -4.48802e+12 -3.58089e+12 -2.62404e+12 -1.90107e+12 -3.41825e+12 -2.1932e+12 -3.09746e+12 -1.85362e+12 -4.55434e+12 -1.99525e+12 -2.29441e+12 -2.45026e+12 -1.52289e+12 -2.4722e+12 -2.73295e+12 -1.37888e+12 -2.77126e+12 -2.80333e+12 -2.74574e+12 -3.54736e+12 -3.13985e+12 -1.78329e+12 -2.01909e+12 -1.09247e+12 -2.36424e+12 -4.26441e+12 -2.47032e+12 -3.82139e+12 -2.10879e+12 -1.45709e+12 -2.66329e+12 -2.63362e+12 -2.8409e+12 -2.56639e+12 -1.58103e+12 -2.56528e+12 -1.87078e+12 -1.74744e+12 -2.5282e+12 -1.48279e+12 -2.55532e+12 -2.21348e+12 -2.74321e+12 -2.27699e+12 -3.45693e+12 -5.04602e+12 -2.01986e+12 -2.44265e+12 -4.36397e+12 -4.39547e+12 -3.89959e+12 -2.52265e+12 -2.72953e+12 -6.05743e+12 -1.59157e+12 -5.54806e+12 -3.52466e+12 -4.77197e+12 -5.59002e+12 -3.24482e+12 -5.86729e+12 -6.40063e+12 -4.74544e+12 -3.76045e+12 -3.79404e+12 -4.89792e+12 -3.7249e+12 -4.95131e+12 -2.86471e+12 -3.68988e+12 -5.47144e+12 -3.85604e+12 -3.42829e+12 -4.27178e+12 -5.45448e+12 -6.45627e+12 -4.09435e+12 -5.0138e+12 -4.77691e+12 -8.25773e+12 -5.38158e+12 -6.89622e+12 -5.48869e+12 -5.39206e+12 -3.83711e+12 -3.20194e+12 -6.00134e+12 -6.66111e+12 -6.90234e+12 -4.97514e+12 -4.01979e+12 -6.39492e+12 -5.33007e+12 -4.17975e+12 -2.71304e+12 -6.39965e+12 -5.39624e+12 -5.50851e+12 -4.72383e+12 -4.79062e+12 -8.63783e+12 -3.93051e+12 -7.67313e+12 -7.21565e+12 -2.90695e+12 -4.32563e+12 -6.64834e+12 -4.5573e+12 -5.87361e+12 -4.76957e+12 -5.80256e+12 -6.03916e+12 -4.42495e+12 -5.9541e+12 -4.23749e+12 -3.87255e+12 -3.58799e+12 -6.13235e+12 -7.51485e+12 -5.97737e+12 -3.73708e+12 -2.28729e+12 -5.90078e+12 -3.33146e+12 -4.2278e+12 -3.88624e+12 -4.51444e+12 -4.61426e+12 -5.73046e+12 -5.06538e+12 -4.2376e+12 -5.6977e+12 -5.44046e+12 -1.66711e+12 -2.0197e+12 -4.27945e+12 -2.08118e+12 -1.79977e+12 -4.59561e+12 -3.95486e+12 -7.51576e+12 -3.8572e+12 -5.7335e+12 -3.83312e+12 -4.83866e+12 -5.71054e+12 -2.85937e+12 -1.61518e+12 -3.06265e+12 -5.22383e+12 -4.95699e+12 -3.30271e+12 -3.29356e+12 -2.6845e+12 -2.80601e+12 -4.44536e+12 -3.48209e+12 -2.85654e+12 -4.83139e+12 -4.1094e+12 -2.13737e+12 -3.10303e+12 -1.71846e+12 -2.84566e+12 -3.12515e+12 -2.41042e+12 -801476000000.0 -1.6911e+12 -2.19223e+12 -3.7038e+12 -3.51717e+12 -2.07308e+12 -2.46766e+12 -1.76402e+12 -881350000000.0 -2.57428e+12 -1.92223e+12 -2.15402e+12 -2.18272e+12 -3.32799e+12 -2.37968e+12 -2.46394e+12 -2.34282e+12 -3.08637e+12 -2.26284e+12 -1.95147e+12 -2.109e+12 -3.17177e+12 -3.54759e+12 -2.96074e+12 -2.62073e+12 -2.51643e+12 -2.53598e+12 -1.62261e+12 -1.59178e+12 -2.59813e+12 -3.29037e+12 -3.45813e+12 -2.20362e+12 -3.09947e+12 -5.80249e+12 -2.89057e+12 -3.995e+12 -3.57772e+12 -6.61586e+12 -2.92511e+12 -3.8602e+12 -1.41762e+12 -2.98816e+12 -3.06816e+12 -4.65064e+12 -4.41885e+12 -4.63332e+12 -4.99879e+12 -4.69377e+12 -4.23452e+12 -4.18398e+12 -2.82009e+12 -5.04795e+12 -3.17623e+12 -3.55594e+12 -6.07367e+12 -4.69387e+12 -5.68366e+12 -4.89769e+12 -4.17377e+12 -5.14271e+12 -742507000000.0 -5.50532e+12 -6.3534e+12 -5.91295e+12 -4.93538e+12 -5.82704e+12 -4.87048e+12 -4.7347e+12 -5.85045e+12 -6.62133e+12 -3.23961e+12 -4.54468e+12 -4.62932e+12 -7.59382e+12 -6.40959e+12 -5.3207e+12 -5.10695e+12 -6.25039e+12 -7.99654e+12 -5.6849e+12 -2.5081e+12 -3.46256e+12 -1.68829e+12 -3.11914e+12 -4.72088e+12 -5.79713e+12 -5.05634e+12 -3.86306e+12 -7.0448e+12 -6.17509e+12 -3.394e+12 -3.676e+12 -6.3198e+12 -3.60571e+12 -4.73239e+12 -3.98389e+12 -2.96954e+12 -4.37619e+12 -3.9054e+12 -4.24579e+12 -4.96764e+12 -6.48262e+12 -3.53473e+12 -4.40357e+12 -3.33258e+12 -5.31431e+12 -3.0967e+12 -3.87048e+12 -3.85308e+12 -3.41082e+12 -5.0848e+12 -2.87336e+12 -3.40256e+12 -7.48074e+12 -2.76912e+12 -4.47354e+12 -5.19067e+12 -3.43726e+12 -5.35929e+12 -5.23268e+12 -4.70037e+12 -3.68401e+12 -6.29526e+12 -2.01776e+12 -3.55949e+12 -3.51391e+12 -2.75023e+12 -1.65928e+12 -2.199e+12 -2.0208e+12 -3.7505e+12 -3.37492e+12 -2.908e+12 -1.306e+12 -2.23669e+12 -2.67382e+12 -2.82858e+12 -2.89704e+12 -1.88019e+12 -2.27474e+12 -2.51497e+12 -1.9144e+12 -1.8566e+12 -1.6515e+12 -1.18774e+12 -2.18917e+12 -2.41908e+12 -941665000000.0 -2.7843e+12 -2.30601e+12 -1.53167e+12 -1.56125e+12 -1.46887e+12 -1.53092e+12 -2.9293e+12 -990254000000.0 -1.25821e+12 -1.77109e+12 -59004400000.0 -2.05925e+12 -2.10917e+12 -3.99658e+12 -1.95228e+12 -3.29936e+12 -2.54051e+12 -4.036e+12 -2.25723e+12 -3.2095e+12 -1.14975e+12 -2.92589e+12 -4.62134e+12 -1.43009e+12 -2.60746e+12 -2.48129e+12 -4.01408e+12 -2.26594e+12 -3.47409e+12 -3.96462e+12 -5.0201e+12 -4.09095e+12 -2.75687e+12 -2.23625e+12 -5.41808e+12 -4.87049e+12 -3.30413e+12 -3.28592e+12 -4.79191e+12 -3.56916e+12 -2.04979e+12 -3.96847e+12 -3.66712e+12 -4.24342e+12 -2.30754e+12 -4.48535e+12 -5.4457e+12 -5.02868e+12 -5.01606e+12 -6.52077e+12 -4.51413e+12 -5.11696e+12 -2.33385e+12 -2.42336e+12 -2.41834e+12 -5.58803e+12 -3.81896e+12 -6.59155e+12 -3.78357e+12 -3.02684e+12 -5.82775e+12 -4.39013e+12 -2.82827e+12 -4.07724e+12 -3.13687e+12 -4.46506e+12 -4.09179e+12 -5.96541e+12 -3.78987e+12 -4.9141e+12 -3.34493e+12 -3.81706e+12 -3.75652e+12 -4.52068e+12 -4.21564e+12 -4.26924e+12 -3.21368e+12 -5.44065e+12 -5.97275e+12 -6.87401e+12 -3.96973e+12 -6.65186e+12 -4.61499e+12 -3.46043e+12 -3.22075e+12 -3.0279e+12 -5.07861e+12 -3.70503e+12 -3.78916e+12 -3.59615e+12 -2.77986e+12 -3.6201e+12 -2.96055e+12 -1.3649e+12 -1.51959e+12 -3.534e+12 -4.97703e+12 -5.80569e+12 -3.5114e+12 -4.23423e+12 -2.44129e+12 -4.25522e+12 -4.27251e+12 -3.69474e+12 -3.88361e+12 -4.48468e+12 -3.19795e+12 -5.11577e+12 -2.41241e+12 -2.81614e+12 -3.76203e+12 -3.48387e+12 -4.00779e+12 -2.71717e+12 -2.34084e+12 -3.38477e+12 -4.6439e+12 -3.34946e+12 -2.08985e+12 -2.772e+12 -1.84261e+12 -3.01514e+12 -3.7996e+12 -2.52127e+12 -2.3988e+12 -2.36444e+12 -2.08547e+12 -2.43732e+12 -1.25167e+12 -2.33121e+12 -1.11417e+12 -1.86141e+12 -2.70626e+12 -2.79249e+12 -1.89925e+12 -2.7018e+12 -1.92465e+12 -2.85991e+12 -1.7657e+12 -2.71998e+12 -1.82976e+12 -1.97784e+12 -811283000000.0 -844054000000.0 -1.88396e+12 -1.1222e+12 -1.82641e+12 -1.70604e+12 -1.73305e+12 -3.28831e+12 -2.6396e+12 -2.37435e+12 -1.78291e+12 -857459000000.0 -2.54602e+12 -2.90467e+12 -2.5554e+12 -2.98919e+12 -4.11151e+12 -1.79949e+12 -1.62633e+12 -1.52972e+12 -2.28593e+12 -3.43843e+12 -2.93216e+12 -4.87424e+12 -4.50023e+12 -5.0466e+12 -3.66047e+12 -4.85674e+12 -3.48873e+12 -4.43944e+12 -4.47867e+12 -2.6557e+12 -4.19051e+12 -3.66298e+12 -2.90147e+12 -5.19675e+12 -2.41952e+12 -3.30878e+12 -3.42873e+12 -4.54152e+12 -4.47348e+12 -3.64716e+12 -3.71492e+12 -6.03468e+12 -6.14133e+12 -4.69095e+12 -5.22658e+12 -4.38017e+12 -6.58953e+12 -5.80398e+12 -4.80853e+12 -6.70975e+12 -2.76779e+12 -5.10674e+12 -5.16966e+12 -7.36202e+12 -3.41916e+12 -3.69587e+12 -7.12635e+12 -6.94835e+12 -6.45828e+12 -6.98024e+12 -6.02819e+12 -1.77518e+12 -2.04686e+12 -3.67469e+12 -1.93767e+12 -3.08585e+12 -4.87322e+12 -5.97007e+12 -3.16106e+12 -5.64813e+12 -7.26244e+12 -3.64022e+12 -2.2816e+12 -3.68053e+12 -4.18751e+12 -4.58953e+12 -5.87817e+12 -2.56835e+12 -5.14267e+12 -3.99012e+12 -2.54399e+12 -4.76548e+12 -4.52395e+12 -3.67668e+12 -4.51394e+12 -5.34577e+12 -4.79195e+12 -4.03641e+12 -3.01101e+12 -4.06857e+12 -4.06713e+12 -2.10012e+12 -4.37674e+12 -2.9104e+12 -2.67191e+12 -2.39933e+12 -3.42972e+12 -1.10325e+12 -4.6124e+12 -2.07628e+12 -3.34931e+12 -4.72966e+12 -3.40586e+12 -2.47659e+12 -2.33752e+12 -3.04238e+12 -2.17166e+12 -2.85927e+12 -2.67467e+12 -2.11469e+12 -3.66052e+12 -2.33973e+12 -3.16195e+12 -3.46596e+12 -1.62338e+12 -2.55435e+12 -2.96343e+12 -1.17583e+12 -2.627e+12 -2.06047e+12 -1.49951e+12 -258702000000.0 -987575000000.0 -1.92975e+12 -1.83467e+12 -2.12013e+12 -1.00596e+12 -1.80527e+12 -403239000000.0 -1.3404e+12 -1.433e+12 -1.34218e+12 -1.53142e+12 -2.26087e+12 -2.36546e+12 -1.69441e+12 -2.07543e+12 -1.47795e+12 -1.58031e+12 -350190000000.0 -1.91507e+12 -1.54763e+12 -1.36246e+12 -1.56374e+12 -2.02093e+12 -1.87187e+12 -2.47778e+12 -2.88286e+12 -860362000000.0 -2.77164e+12 -2.33971e+12 -1.28764e+12 -3.80569e+12 -1.99005e+12 -3.71023e+12 -2.92351e+12 -2.56722e+12 -2.41997e+12 -3.75916e+12 -5.13879e+12 -4.28468e+12 -4.35178e+12 -1.88991e+12 -4.56598e+12 -5.02056e+12 -3.55313e+12 -3.05494e+12 -4.21238e+12 -4.3049e+12 -4.11766e+12 -3.4493e+12 -4.09029e+12 -2.80379e+12 -4.24271e+12 -2.20529e+12 -4.46137e+12 -3.98128e+12 -3.51798e+12 -4.77205e+12 -2.89523e+12 -3.28097e+12 -4.69366e+12 -7.31558e+12 -4.66997e+12 -3.30359e+12 -2.7361e+12 -5.00125e+12 -5.02849e+12 -4.57524e+12 -6.97178e+12 -5.18672e+12 -2.0222e+12 -5.37241e+12 -4.20224e+12 -2.92561e+12 -3.28755e+12 -4.58509e+12 -4.47135e+12 -3.77616e+12 -4.52284e+12 -3.55576e+12 -2.20419e+12 -3.44498e+12 -1.28767e+12 -1.95011e+12 -4.12609e+12 -2.45189e+12 -3.67617e+12 -1.79072e+12 -4.21153e+12 -3.49178e+12 -3.37148e+12 -2.43e+12 -3.35567e+12 -2.39563e+12 -3.18796e+12 -1.87193e+12 -2.96254e+12 -3.73023e+12 -4.55612e+12 -2.86507e+12 -2.66147e+12 -3.73352e+12 -1.77829e+12 -1.87847e+12 -3.25521e+12 -2.5643e+12 -2.79141e+12 -3.3025e+12 -3.67453e+12 -2.94255e+12 -1.59536e+12 -1.80549e+12 -2.19491e+12 -2.46244e+12 -142009000000.0 -1.74683e+12 -2.13155e+12 -2.56103e+12 -1.2996e+12 -2.10569e+12 -410046000000.0 -1.10424e+12 -1.35215e+12 -544010000000.0 -1.46318e+12 -1.50667e+12 -1.11465e+12 -1.29335e+12 -925636000000.0 -1.39829e+12 -555221000000.0 -1.48895e+12 -184582000000.0 -1.09567e+12 -902938000000.0 -380890000000.0 -1.09825e+12 -1.70283e+12 -1.54537e+12 -2.08856e+12 -1.0496e+12 -1.07081e+12 -2.10717e+12 -2.98621e+12 -1.52652e+12 -2.04992e+12 -1.94226e+12 -870914000000.0 -1.26008e+12 -1.99392e+12 -2.09058e+12 -1.24819e+12 -3.16109e+12 -4.03391e+12 -2.14758e+12 -2.11909e+12 -577658000000.0 -2.12866e+12 -1.69565e+12 -1.28033e+12 -2.5478e+12 -2.74861e+12 -3.21659e+12 -4.25331e+12 -3.9545e+12 -1.02474e+12 -2.16915e+12 -4.22188e+12 -3.93019e+12 -1.59505e+12 -4.21862e+12 -2.07547e+12 -1.93087e+12 -3.58273e+12 -4.55143e+12 -3.46006e+12 -4.01741e+12 -3.8117e+12 -989681000000.0 -1.78697e+12 -2.87382e+12 -3.78048e+12 -3.17376e+12 -2.82151e+12 -5.13861e+12 -6.6765e+12 -3.72425e+12 -4.16455e+12 -2.98149e+12 -2.39942e+12 -2.91554e+12 -3.71379e+12 -3.95951e+12 -2.80033e+12 -4.44388e+12 -5.16446e+12 -6.58054e+12 -4.05936e+12 -5.69881e+12 -2.7679e+12 -3.74465e+12 -2.85353e+12 -4.02569e+12 -4.44416e+12 -2.54894e+12 -4.24679e+12 -4.72849e+12 -3.23099e+12 -3.47755e+12 -5.78255e+12 -3.69707e+12 -2.44431e+12 -3.84036e+12 -4.50929e+12 -1.14424e+12 -3.92565e+12 -3.5506e+12 -3.63298e+12 -3.40383e+12 -1.66158e+12 -4.47982e+12 -1.77643e+12 -2.84706e+12 -1.23442e+12 -2.98137e+12 -3.56625e+12 -2.50246e+12 -2.88905e+12 -4.62791e+12 -4.04545e+12 -4.83783e+12 -3.51009e+12 -3.80855e+12 -2.90947e+12 -1.57718e+12 -1.77638e+12 -1.40638e+12 -1.94088e+12 -2.26338e+12 -1.64976e+12 -1.8666e+12 -2.40262e+12 -1.0635e+12 -2.76016e+12 -533107000000.0 -847854000000.0 -1.45613e+12 -1.26428e+12 -932373000000.0 -1.40922e+12 -1.43027e+12 -1.8095e+12 -965419000000.0 -472502000000.0 -1.32103e+12 -1.40523e+12 -1.31073e+12 -466481000000.0 -1.34835e+12 -1.20353e+12 -984044000000.0 -1.32772e+12 -683019000000.0 -1.75961e+12 -2.12187e+12 -1.0409e+12 -2.17189e+12 -1.9824e+12 -1.54232e+12 -607806000000.0 -957650000000.0 -1.37165e+12 -1.23762e+12 -1.11802e+12 -837023000000.0 -1.56074e+12 -2.57416e+12 -2.19171e+12 -2.51716e+12 -1.92183e+12 -1.41506e+12 -752157000000.0 -3.95397e+12 -1.41483e+12 -2.91443e+12 -1.26235e+12 -1.02502e+12 -460972000000.0 -3.23488e+12 -5.45073e+12 -1.43311e+12 -1.55185e+12 -1.48692e+12 -2.96788e+12 -2.08862e+12 -2.51846e+12 -3.27989e+12 -2.8595e+12 -4.02513e+12 -2.76033e+12 -2.33546e+12 -2.65741e+12 -3.47744e+12 -3.96226e+12 -4.57758e+12 -3.72393e+12 -3.77131e+12 -3.38094e+12 -3.82687e+12 -4.16642e+12 -1.99568e+12 -2.8985e+12 -3.37484e+12 -3.79965e+12 -2.42791e+12 -3.05325e+12 -3.2512e+12 -2.93368e+12 -2.65221e+12 -2.19812e+12 -1.48719e+12 -6.05279e+12 -3.57504e+12 -3.28819e+12 -2.48607e+12 -4.34385e+12 -1.82093e+12 -1.91943e+12 -2.85664e+12 -3.18009e+12 -4.82711e+12 -2.6413e+12 -4.67995e+12 -1.50316e+12 -2.38116e+12 -2.41134e+12 -2.44073e+12 -6.0888e+12 -1.82808e+12 -3.68537e+12 -1.93577e+12 -2.21315e+12 -997800000000.0 -2.18773e+12 -3.98003e+12 -890291000000.0 -3.49268e+12 -3.55755e+12 -1.41211e+12 -4.06222e+12 -2.29841e+12 -2.30361e+12 -2.08538e+12 -959645000000.0 -2.11271e+12 -2.89247e+12 -2.33512e+12 -1.08857e+12 -2.97809e+12 -2.04855e+12 -1.92691e+12 -1.63332e+12 -1.36449e+12 -2.60169e+12 -1.92831e+12 -3.41631e+12 -1.98256e+12 -850299000000.0 -1.343e+12 -749436000000.0 -1.65821e+12 -923982000000.0 -687524000000.0 -992723000000.0 -869175000000.0 -717542000000.0 -1.34553e+12 -1.13016e+12 -1.41733e+12 -836881000000.0 -820737000000.0 -909246000000.0 -1.18591e+12 -1.13884e+12 -1.28437e+12 -1.76304e+12 -1.79217e+12 -942057000000.0 -1.47991e+12 -1.36267e+12 -262448000000.0 -984028000000.0 -1.31436e+12 -465097000000.0 -2.06927e+12 -1.48642e+12 -2.1097e+12 -1.2457e+12 -880079000000.0 -1.05378e+12 -954535000000.0 -2.10328e+12 -2.18951e+12 -1.81498e+12 -1.90736e+12 -2.4899e+12 -2.04725e+12 -1.00034e+12 -2.28559e+12 -3.87068e+12 -1.03108e+12 -1.61333e+12 -1.30372e+12 -1.38776e+12 -2.77051e+12 -2.11026e+12 -2.02519e+12 -2.88691e+12 -1.70856e+12 -2.88039e+12 -1.21954e+12 -2.72978e+12 -3.78928e+12 -4.36375e+12 -1.83193e+12 -1.40636e+12 -2.6594e+12 -2.89007e+12 -2.8497e+12 -3.61582e+12 -2.78049e+12 -3.34771e+12 -2.37122e+12 -2.5147e+12 -2.67787e+12 -2.69028e+12 -2.57163e+12 -2.39567e+12 -2.97807e+12 -2.09326e+12 -4.17135e+12 -3.65878e+12 -2.96077e+12 -2.62728e+12 -4.00507e+12 -2.70642e+12 -3.18829e+12 -2.8378e+12 -1.38912e+12 -4.05648e+12 -1.89919e+12 -2.40572e+12 -4.98759e+12 -5.44861e+12 -1.75176e+12 -3.33703e+12 -1.52603e+12 -1.77002e+12 -3.62023e+12 -1.44612e+12 -3.35029e+12 -2.86839e+12 -2.64232e+12 -2.94461e+12 -1.61721e+12 -2.30541e+12 -2.45404e+12 -3.23615e+12 -1.32845e+12 -2.28103e+12 -2.92296e+12 -2.24332e+12 -3.17696e+12 -1.08509e+12 -2.60883e+12 -2.30393e+12 -1.25617e+12 -1.06259e+12 -2.18755e+12 -1.15029e+12 -677995000000.0 -2.85462e+12 -1.33207e+12 -750821000000.0 -1.53472e+12 -1.49681e+12 -1.33106e+12 -1.01296e+12 -1.78733e+12 -579361000000.0 -2.01992e+12 -391005000000.0 -737254000000.0 -1.13749e+12 -1.23461e+12 -341716000000.0 -583476000000.0 -963258000000.0 -351919000000.0 -491287000000.0 -852965000000.0 -810419000000.0 -1.37621e+12 -734502000000.0 -1.51193e+12 -2.39577e+12 -1.19905e+12 -918512000000.0 -1.063e+12 -1.02906e+12 -193691000000.0 -968135000000.0 -255222000000.0 -791177000000.0 -1.82155e+12 -959938000000.0 -1.78445e+12 -1.65474e+12 -985132000000.0 -1.66165e+12 -1.07367e+12 -1.25361e+12 -1.37767e+12 -1.82639e+12 -1.66043e+12 -1.29834e+12 -1.56832e+12 -1.2183e+12 -1.76258e+12 -1.30214e+12 -1.29163e+12 -2.51574e+12 -2.50345e+12 -2.43151e+12 -456939000000.0 -1.2395e+12 -1.83383e+12 -1.76295e+12 -2.71851e+12 -660778000000.0 -2.49595e+12 -1.99138e+12 -2.25116e+12 -2.96195e+12 -1.35938e+12 -3.43348e+12 -2.72948e+12 -2.31146e+12 -1.41749e+12 -3.92212e+12 -1.10228e+12 -2.43559e+12 -2.49563e+12 -2.67724e+12 -1.98998e+12 -2.23466e+12 -2.2411e+12 -2.5812e+12 -2.4328e+12 -2.76386e+12 -1.97123e+12 -3.28874e+12 -2.29237e+12 -4.20432e+12 -4.0358e+12 -1.67155e+12 -3.9316e+12 -3.34263e+12 -2.41526e+12 -3.45815e+12 -1.60806e+12 -2.29147e+12 -2.60813e+12 -3.3187e+12 -159173000000.0 -2.79269e+12 -3.54838e+12 -2.11684e+12 -2.47457e+12 -2.25987e+12 -1.61777e+12 -2.3513e+12 -1.4776e+12 -187144000000.0 -2.5344e+12 -1.27363e+12 -2.23425e+12 -1.26695e+12 -1.89772e+12 -1.53149e+12 -3.08007e+12 -1.84713e+12 -1.21534e+12 -1.05553e+12 -1.44448e+12 -1.64153e+12 -2.09054e+12 -1.76464e+12 -1.4801e+12 -1.70635e+12 -1.30219e+12 -1.99823e+12 -1.23356e+12 -756204000000.0 -1.18802e+12 -851525000000.0 -1.50051e+12 -1.88247e+12 -1.13606e+12 -1.02119e+12 -1.28026e+12 -1.0153e+12 -719197000000.0 -633282000000.0 -590537000000.0 -709738000000.0 -417374000000.0 -990973000000.0 -722629000000.0 -697037000000.0 -911205000000.0 -413757000000.0 -620955000000.0 -306595000000.0 -590957000000.0 -234702000000.0 -760069000000.0 -957065000000.0 -519528000000.0 -816147000000.0 -1.09911e+12 -923561000000.0 -1.06185e+12 -1.00101e+12 -610941000000.0 -390795000000.0 -637471000000.0 -774174000000.0 -1.2124e+12 -415624000000.0 -696682000000.0 -1.28257e+12 -1.31639e+12 -23198400000.0 -871483000000.0 -536254000000.0 -1.12552e+12 -978058000000.0 -2.25283e+12 -1.67518e+12 -1.68283e+12 -1.51968e+12 -2.31206e+12 -2.19842e+12 -1.73496e+12 -1.23747e+12 -1.00473e+12 -1.70139e+12 -1.97328e+12 -2.4772e+12 -1.19176e+12 -3.29311e+12 -1.09324e+12 -1.56004e+12 -3.50492e+12 -2.41833e+12 -791654000000.0 -2.8355e+12 -2.96104e+12 -1.1917e+12 -1.79238e+12 -1.8286e+12 -1.91233e+12 -261383000000.0 -3.07485e+12 -1.72686e+12 -843815000000.0 -1.61542e+12 -2.36983e+12 -2.58771e+12 -2.76087e+12 -2.78809e+12 -2.06389e+12 -3.01344e+12 -1.96543e+12 -2.32649e+12 -2.49294e+12 -1.51071e+12 -2.12548e+12 -2.1837e+12 -2.11651e+12 -2.53286e+12 -1.25638e+12 -1.62668e+12 -908345000000.0 -2.07157e+12 -1.85107e+12 -3.05418e+12 -3.4669e+12 -2.47963e+12 -3.3559e+12 -1.22186e+12 -1.68628e+12 -1.9452e+12 -1.28129e+12 -1.50549e+12 -2.32101e+12 -1.73249e+12 -2.39251e+12 -924918000000.0 -1.22576e+12 -2.02623e+12 -887536000000.0 -1.51916e+12 -1.75005e+12 -1.28855e+12 -1.29017e+12 -2.03972e+12 -945906000000.0 -855569000000.0 -963390000000.0 -2.11347e+12 -1.61512e+12 -441993000000.0 -880762000000.0 -1.12282e+12 -1.27276e+12 -958719000000.0 -507571000000.0 -392567000000.0 -1.34827e+12 -925844000000.0 -1.37987e+12 -1.48667e+12 -672288000000.0 -476252000000.0 -860421000000.0 -436083000000.0 -836457000000.0 -423516000000.0 -499773000000.0 -684477000000.0 -203168000000.0 -1.01031e+12 -455694000000.0 -898929000000.0 -692983000000.0 -506381000000.0 -131906000000.0 -792374000000.0 -762307000000.0 -26846100000.0 -778306000000.0 -1.15989e+12 -552675000000.0 -395188000000.0 -915416000000.0 -290152000000.0 -554571000000.0 -823290000000.0 -862943000000.0 -452165000000.0 -343539000000.0 -812471000000.0 -1.2769e+12 -1.10614e+12 -1.26855e+12 -869052000000.0 -1.3968e+12 -883157000000.0 -1.11193e+12 -1.75359e+12 -1.51475e+12 -1.74112e+12 -921136000000.0 -1.94057e+12 -1.42537e+12 -2.3077e+12 -1.36883e+12 -541552000000.0 -1.55152e+12 -2.08255e+12 -2.44367e+12 -975708000000.0 -1.6649e+12 -2.43979e+12 -1.57317e+12 -2.14622e+12 -1.74375e+12 -2.00529e+12 -2.3234e+12 -3.10383e+12 -2.13815e+12 -2.9279e+12 -1.10856e+12 -2.15975e+12 -1.95215e+12 -2.89627e+12 -2.31771e+12 -1.7354e+12 -539515000000.0 -2.11165e+12 -744217000000.0 -1.27249e+12 -1.51496e+12 -847433000000.0 -919917000000.0 -867943000000.0 -2.6265e+12 -1.2149e+12 -2.86196e+12 -1.34829e+12 -1.23818e+12 -2.63842e+12 -874581000000.0 -703987000000.0 -1.27768e+12 -1.43344e+12 -1.02168e+12 -2.4936e+12 -896997000000.0 -1.02016e+12 -2.1837e+12 -721790000000.0 -962727000000.0 -1.43533e+12 -1.33864e+12 -1.09187e+12 -855725000000.0 -861473000000.0 -1.19074e+12 -1.28411e+12 -1.16811e+12 -615770000000.0 -1.87092e+12 -1.02137e+12 -562132000000.0 -810752000000.0 -720931000000.0 -714003000000.0 -1.03032e+12 -658808000000.0 -626359000000.0 -207784000000.0 -367127000000.0 -325790000000.0 -1.15425e+12 -447775000000.0 -885322000000.0 -712709000000.0 -186237000000.0 -222765000000.0 -87938700000.0 -330680000000.0 -228976000000.0 -425312000000.0 -391546000000.0 -522949000000.0 -578944000000.0 -640132000000.0 -269248000000.0 -209351000000.0 -135140000000.0 -377518000000.0 -284325000000.0 -540867000000.0 -611076000000.0 -713417000000.0 -222504000000.0 -935626000000.0 -494081000000.0 -1.13289e+12 -565965000000.0 -1.46489e+12 -668444000000.0 -1.0206e+12 -542719000000.0 -1.38803e+12 -195084000000.0 -660379000000.0 -171453000000.0 -1.94132e+12 -1.01848e+12 -689426000000.0 -1.52957e+12 -1.1921e+12 -1.02842e+12 -473019000000.0 -1.37932e+12 -2.06447e+12 -1.68076e+12 -442462000000.0 -574391000000.0 -1.35505e+12 -1.30627e+12 -1.25673e+12 -1.19358e+12 -1.78139e+12 -1.34629e+12 -2.02471e+12 -2.00264e+12 -1.15808e+12 -2.32475e+12 -915331000000.0 -2.35121e+12 -1.02998e+12 -764030000000.0 -3.0292e+12 -871324000000.0 -1.03614e+12 -1.20499e+12 -1.3274e+12 -2.63145e+12 -1.47465e+12 -1.13954e+12 -1.40204e+12 -365034000000.0 -1.19107e+12 -1.62424e+12 -22577200000.0 -837598000000.0 -1.06427e+12 -775920000000.0 -772222000000.0 -1.99028e+12 -740859000000.0 -1.0316e+12 -703674000000.0 -850638000000.0 -1.67759e+12 -1.08008e+12 -387763000000.0 -1.72479e+12 -2.41118e+12 -1.51268e+12 -1.36542e+12 -1.40623e+12 -1.72214e+12 -475804000000.0 -883424000000.0 -1.4575e+12 -681934000000.0 -1.2385e+12 -888116000000.0 -457035000000.0 -798947000000.0 -458950000000.0 -1.46935e+12 -1.58635e+12 -278795000000.0 -512200000000.0 -470843000000.0 -452129000000.0 -839414000000.0 -602510000000.0 -710963000000.0 -916969000000.0 -646199000000.0 -75230500000.0 -930159000000.0 -654036000000.0 -1.04072e+12 -703675000000.0 -732338000000.0 -829321000000.0 -266144000000.0 -191338000000.0 -359152000000.0 -147586000000.0 -132674000000.0 -259288000000.0 -111845000000.0 -320196000000.0 -135364000000.0 -282299000000.0 -322320000000.0 -20872000000.0 -246507000000.0 -325594000000.0 -474596000000.0 -799932000000.0 -641984000000.0 -277683000000.0 -781580000000.0 -793799000000.0 -219220000000.0 -981577000000.0 -122054000000.0 -367084000000.0 -545143000000.0 -95510900000.0 -729430000000.0 -341257000000.0 -753795000000.0 -524050000000.0 -647261000000.0 -821262000000.0 -937243000000.0 -1.38271e+12 -1.32233e+12 -1.06854e+12 -954638000000.0 -278728000000.0 -1.49163e+12 -1.77611e+12 -2.25498e+12 -1.05412e+12 -1.32202e+12 -1.58472e+12 -767949000000.0 -1.47637e+12 -2.43623e+12 -1.51649e+12 -944171000000.0 -1.1319e+12 -1.53161e+12 -628381000000.0 -2.4866e+12 -1.57005e+12 -2.02443e+12 -1.68842e+12 -1.07733e+12 -1.49098e+12 -482724000000.0 -1.80168e+12 -1.40713e+12 -991200000000.0 -1.62195e+12 -1.52371e+12 -1.21456e+12 -1.00693e+12 -1.40838e+12 -956134000000.0 -1.20293e+12 -794335000000.0 -809524000000.0 -1.05566e+12 -944885000000.0 -259123000000.0 -1.47876e+12 -811523000000.0 -849894000000.0 -882438000000.0 -764406000000.0 -936458000000.0 -604381000000.0 -1.26476e+12 -527370000000.0 -644149000000.0 -615276000000.0 -734668000000.0 -621500000000.0 -633385000000.0 -535343000000.0 -598160000000.0 -164714000000.0 -890964000000.0 -930216000000.0 -65896700000.0 -166382000000.0 -466759000000.0 -256697000000.0 -414525000000.0 -315862000000.0 -163718000000.0 -544800000000.0 -443410000000.0 -137413000000.0 -406968000000.0 -32409900000.0 -217357000000.0 -452535000000.0 -45833200000.0 -285149000000.0 -230987000000.0 -36578000000.0 -45076500000.0 -134339000000.0 -68288000000.0 -232658000000.0 -117174000000.0 -146309000000.0 -79494400000.0 -56234600000.0 -198382000000.0 -154510000000.0 -189303000000.0 -441332000000.0 -426847000000.0 -305833000000.0 -198877000000.0 -605024000000.0 -206847000000.0 -447406000000.0 -282914000000.0 -275503000000.0 -485998000000.0 -408176000000.0 -384734000000.0 -452031000000.0 -352789000000.0 -840428000000.0 -989417000000.0 -895055000000.0 -772909000000.0 -1.00877e+12 -219786000000.0 -560026000000.0 -553651000000.0 -1.09733e+12 -573721000000.0 -314772000000.0 -795453000000.0 -950014000000.0 -925366000000.0 -726887000000.0 -640001000000.0 -1.04524e+12 -2.13664e+12 -1.18967e+12 -1.39559e+12 -1.34963e+12 -871383000000.0 -717260000000.0 -761542000000.0 -842293000000.0 -1.21848e+12 -1.78976e+12 -746808000000.0 -594456000000.0 -222757000000.0 -283442000000.0 -1.47999e+12 -1.35862e+12 -991039000000.0 -831631000000.0 -822042000000.0 -854368000000.0 -1.53271e+12 -623520000000.0 -1.27048e+12 -128749000000.0 -338752000000.0 -554456000000.0 -526175000000.0 -752095000000.0 -606597000000.0 -861520000000.0 -581794000000.0 -967900000000.0 -373902000000.0 -1.2312e+12 -780608000000.0 -1.02011e+12 -888784000000.0 -1.05617e+12 -760575000000.0 -209998000000.0 -566610000000.0 -934735000000.0 -770640000000.0 -759776000000.0 -429307000000.0 -239447000000.0 -545503000000.0 -612460000000.0 -312030000000.0 -415370000000.0 -424567000000.0 -338088000000.0 -737139000000.0 -564321000000.0 -319649000000.0 -173525000000.0 -174439000000.0 -24934300000.0 -541044000000.0 -258311000000.0 -113706000000.0 -237931000000.0 -247384000000.0 -66289600000.0 -186651000000.0 -293320000000.0 -425149000000.0 -152026000000.0 -33348000000.0 -45043700000.0 -165281000000.0 -302348000000.0 -87651400000.0 -55851900000.0 -45451600000.0 -54477300000.0 -145960000000.0 -159479000000.0 -391344000000.0 -297017000000.0 -281007000000.0 -54947700000.0 -55217300000.0 -227693000000.0 -131980000000.0 -162044000000.0 -71855000000.0 -119891000000.0 -77019800000.0 -121367000000.0 -216184000000.0 -181264000000.0 -153157000000.0 -263386000000.0 -391121000000.0 -317441000000.0 -316894000000.0 -370379000000.0 -480811000000.0 -292923000000.0 -652197000000.0 -616627000000.0 -949104000000.0 -527254000000.0 -450130000000.0 -577242000000.0 -351460000000.0 -392482000000.0 -647610000000.0 -1.03157e+12 -597834000000.0 -135161000000.0 -967012000000.0 -539416000000.0 -876021000000.0 -425315000000.0 -855482000000.0 -816587000000.0 -728042000000.0 -900019000000.0 -958981000000.0 -82302600000.0 -904632000000.0 -1.24394e+12 -1.01343e+12 -615481000000.0 -1.26074e+12 -667886000000.0 -977934000000.0 -266614000000.0 -119945000000.0 -234428000000.0 -718589000000.0 -554033000000.0 -275526000000.0 -588816000000.0 -523617000000.0 -616463000000.0 -337017000000.0 -467359000000.0 -210708000000.0 -379364000000.0 -554773000000.0 -572697000000.0 -290083000000.0 -439513000000.0 -263512000000.0 -562915000000.0 -66812200000.0 -322452000000.0 -477376000000.0 -332007000000.0 -542804000000.0 -294176000000.0 -126856000000.0 -584644000000.0 -422327000000.0 -256706000000.0 -346227000000.0 -222650000000.0 -145040000000.0 -286381000000.0 -119094000000.0 -94369700000.0 -59449700000.0 -71977000000.0 -41001100000.0 -68009100000.0 -60522500000.0 -150095000000.0 -122303000000.0 -35028700000.0 -27769300000.0 -12594200000.0 -12682200000.0 -17382500000.0 -37440600000.0 -25086200000.0 -71039500000.0 -42964800000.0 -24647300000.0 -109564000000.0 -97410100000.0 -145525000000.0 -147544000000.0 -97183500000.0 -120587000000.0 -100615000000.0 -203285000000.0 -70737500000.0 -170647000000.0 -161860000000.0 -230424000000.0 -286953000000.0 -66923200000.0 -161139000000.0 -124703000000.0 -510722000000.0 -131926000000.0 -281135000000.0 -190935000000.0 -320707000000.0 -364211000000.0 -315167000000.0 -654136000000.0 -284750000000.0 -285973000000.0 -317659000000.0 -391836000000.0 -338566000000.0 -283482000000.0 -430750000000.0 -349395000000.0 -422268000000.0 -416246000000.0 -207772000000.0 -512661000000.0 -420273000000.0 -224429000000.0 -64568700000.0 -747248000000.0 -794611000000.0 -538512000000.0 -387273000000.0 -293752000000.0 -893150000000.0 -395315000000.0 -224964000000.0 -64511300000.0 -55550600000.0 -194126000000.0 -161288000000.0 -66100600000.0 -122285000000.0 -96778300000.0 -82928400000.0 -18333900000.0 -316216000000.0 -174836000000.0 -131882000000.0 -168114000000.0 -100412000000.0 -71307400000.0 -68342100000.0 -35754800000.0 -239895000000.0 -213998000000.0 -191333000000.0 -67912100000.0 -92173200000.0 -117273000000.0 -50296000000.0 -46741000000.0 -122107000000.0 -58732100000.0 -88944700000.0 -78033900000.0 -57104800000.0 -65779100000.0 -46802200000.0 -63517400000.0 -56940900000.0 -87501300000.0 -176798000000.0 -101511000000.0 -78564300000.0 -122133000000.0 -56046500000.0 -97397200000.0 -126297000000.0 -34337000000.0 -47602700000.0 -39519800000.0 -116014000000.0 -109212000000.0 -247578000000.0 -133038000000.0 -75733000000.0 -114928000000.0 -124488000000.0 -174396000000.0 -109907000000.0 -162966000000.0 -169948000000.0 -93689900000.0 -80506400000.0 -613535000000.0 -382177000000.0 -389372000000.0 -82369600000.0 -154765000000.0 -120795000000.0 -126275000000.0 -508707000000.0 -104000000000.0 -67988500000.0 -108073000000.0 -61501600000.0 