# vtk DataFile Version 2.0
Time step 83
ASCII
DATASET UNSTRUCTURED_GRID
POINTS 4650 float
247594.0 310082.0 0
294564.0 309608.0 0
205466.0 312439.0 0
208939.0 310476.0 0
212376.0 312501.0 0
215701.0 310327.0 0
219469.0 311601.0 0
237103.0 312320.0 0
244091.0 312126.0 0
251180.0 311856.0 0
258037.0 312013.0 0
264181.0 311102.0 0
277258.0 311676.0 0
284217.0 311597.0 0
291112.0 311593.0 0
298002.0 311617.0 0
201999.0 314411.0 0
208917.0 314459.0 0
215838.0 314488.0 0
223181.0 313041.0 0
226779.0 314751.0 0
233702.0 314419.0 0
240666.0 314188.0 0
247608.0 314059.0 0
254561.0 313984.0 0
261487.0 314035.0 0
266918.0 314000.0 0
273816.0 313726.0 0
280773.0 313609.0 0
287676.0 313584.0 0
294560.0 313598.0 0
205454.0 316414.0 0
212382.0 316470.0 0
219667.0 315573.0 0
223375.0 317014.0 0
230332.0 316561.0 0
237272.0 316294.0 0
244189.0 316103.0 0
251100.0 315980.0 0
258015.0 315993.0 0
265429.0 317696.0 0
270351.0 316008.0 0
273944.0 317696.0 0
277351.0 315648.0 0
280841.0 317585.0 0
284249.0 315581.0 0
287705.0 317560.0 0
291127.0 315577.0 0
294570.0 317568.0 0
298003.0 315595.0 0
201998.0 318380.0 0
205444.0 320361.0 0
208910.0 318414.0 0
212358.0 320417.0 0
215841.0 318472.0 0
219686.0 319528.0 0
226967.0 318721.0 0
233882.0 318393.0 0
237463.0 320248.0 0
240804.0 318163.0 0
244290.0 320075.0 0
247676.0 318026.0 0
251121.0 319962.0 0
254554.0 317961.0 0
257993.0 319953.0 0
261464.0 318004.0 0
268868.0 319708.0 0
277457.0 319601.0 0
284299.0 319551.0 0
291149.0 319542.0 0
298004.0 319556.0 0
201996.0 322323.0 0
208879.0 322347.0 0
215785.0 322434.0 0
223401.0 320970.0 0
227003.0 322668.0 0
230514.0 320526.0 0
234165.0 322335.0 0
240950.0 322138.0 0
247734.0 322002.0 0
254534.0 321922.0 0
261429.0 321955.0 0
265397.0 321682.0 0
270615.0 323274.0 0
274106.0 321613.0 0
280912.0 321550.0 0
287743.0 321520.0 0
294582.0 321522.0 0
205421.0 324288.0 0
212288.0 324346.0 0
219614.0 323462.0 0
223302.0 324905.0 0
230923.0 324434.0 0
237653.0 324215.0 0
244390.0 324054.0 0
251139.0 323940.0 0
257907.0 323889.0 0
267254.0 325192.0 0
274166.0 325542.0 0
277543.0 323557.0 0
280976.0 325499.0 0
284352.0 323505.0 0
287781.0 325462.0 0
291174.0 323489.0 0
294596.0 325458.0 0
298005.0 323499.0 0
201994.0 326247.0 0
205390.0 328205.0 0
208819.0 326267.0 0
212171.0 328267.0 0
215659.0 326372.0 0
219439.0 327375.0 0
227732.0 326515.0 0
234402.0 326298.0 0
237828.0 328195.0 0
241089.0 326119.0 0
244486.0 328041.0 0
247792.0 325984.0 0
251159.0 327923.0 0
254506.0 325892.0 0
257832.0 327855.0 0
261215.0 325863.0 0
264446.0 327830.0 0
270685.0 327244.0 0
277607.0 327491.0 0
284402.0 327442.0 0
291200.0 327420.0 0
298006.0 327425.0 0
201992.0 330158.0 0
208747.0 330187.0 0
215464.0 330282.0 0
221518.0 330612.0 0
224597.0 328577.0 0
228020.0 330460.0 0
231193.0 328384.0 0
234602.0 330275.0 0
241215.0 330107.0 0
247850.0 329971.0 0
254493.0 329873.0 0
261123.0 329827.0 0
267731.0 329715.0 0
274254.0 329477.0 0
281036.0 329426.0 0
287818.0 329387.0 0
294609.0 329377.0 0
205356.0 332113.0 0
212054.0 332206.0 0
218448.0 332577.0 0
224875.0 332521.0 0
231403.0 332353.0 0
237975.0 332181.0 0
244573.0 332030.0 0
251186.0 331908.0 0
257806.0 331828.0 0
264434.0 331763.0 0
271046.0 331581.0 0
274406.0 333449.0 0
277690.0 331416.0 0
281098.0 333342.0 0
284449.0 331360.0 0
287851.0 333294.0 0
291223.0 331333.0 0
294620.0 333278.0 0
298007.0 331334.0 0
201989.0 334052.0 0
205330.0 336010.0 0
208681.0 334106.0 0
215216.0 334361.0 0
221721.0 334544.0 0
228222.0 334421.0 0
234760.0 334255.0 0
238095.0 336166.0 0
241323.0 334097.0 0
244650.0 336018.0 0
247906.0 333958.0 0
251224.0 335887.0 0
254505.0 333849.0 0
257822.0 335782.0 0
261123.0 333770.0 0
264455.0 335679.0 0
267764.0 333649.0 0
271112.0 335510.0 0
277777.0 335347.0 0
284492.0 335263.0 0
291244.0 335227.0 0
298009.0 335223.0 0
201988.0 337924.0 0
208639.0 338018.0 0
211939.0 336172.0 0
215224.0 338274.0 0
218486.0 336458.0 0
221802.0 338437.0 0
225033.0 336461.0 0
228350.0 338370.0 0
231557.0 336323.0 0
234879.0 338230.0 0
241413.0 338082.0 0
247962.0 337938.0 0
254535.0 337809.0 0
261147.0 337694.0 0
267799.0 337552.0 0
274465.0 337373.0 0
281153.0 337248.0 0
287880.0 337182.0 0
294630.0 337159.0 0
205319.0 339879.0 0
211950.0 340073.0 0
218542.0 340331.0 0
225120.0 340375.0 0
231663.0 340279.0 0
238190.0 340143.0 0
244718.0 339997.0 0
251266.0 339853.0 0
257850.0 339716.0 0
264482.0 339578.0 0
271146.0 339408.0 0
274495.0 341262.0 0
277823.0 339248.0 0
281184.0 341128.0 0
284527.0 339149.0 0
287901.0 341050.0 0
291261.0 339101.0 0
294638.0 341020.0 0
298010.0 339093.0 0
201986.0 341759.0 0
205327.0 343695.0 0
208652.0 341875.0 0
215277.0 342156.0 0
221866.0 342321.0 0
228434.0 342298.0 0
234969.0 342192.0 0
241489.0 342057.0 0
244778.0 343967.0 0
248014.0 341907.0 0
251307.0 343804.0 0
254570.0 341752.0 0
257880.0 343631.0 0
261174.0 341600.0 0
264505.0 343460.0 0
267823.0 341436.0 0
271166.0 343282.0 0
277845.0 343120.0 0
284548.0 343009.0 0
291273.0 342953.0 0
298011.0 342940.0 0
201986.0 345545.0 0
208680.0 345668.0 0
211998.0 343918.0 0
215338.0 346028.0 0
218602.0 344205.0 0
221919.0 346203.0 0
225184.0 344275.0 0
228498.0 346210.0 0
231741.0 344218.0 0
235042.0 346138.0 0
238266.0 344108.0 0
241553.0 346021.0 0
248061.0 345865.0 0
254602.0 345678.0 0
261198.0 345488.0 0
267840.0 345302.0 0
274509.0 345122.0 0
281200.0 344980.0 0
287914.0 344893.0 0
294643.0 344858.0 0
205330.0 347450.0 0
212045.0 347705.0 0
218649.0 348086.0 0
225238.0 348164.0 0
231807.0 348139.0 0
238334.0 348059.0 0
244832.0 347926.0 0
251342.0 347742.0 0
257905.0 347529.0 0
264522.0 347326.0 0
267850.0 349149.0 0
271175.0 347133.0 0
274512.0 348957.0 0
277854.0 346962.0 0
281202.0 348802.0 0
284557.0 346842.0 0
287918.0 348709.0 0
291280.0 346781.0 0
294646.0 348672.0 0
298011.0 346764.0 0
201984.0 349285.0 0
205313.0 351154.0 0
208678.0 349386.0 0
212020.0 351394.0 0
215378.0 349917.0 0
221966.0 350081.0 0
228557.0 350106.0 0
235110.0 350069.0 0
241614.0 349976.0 0
248103.0 349812.0 0
251373.0 351668.0 0
254628.0 349587.0 0
257926.0 351405.0 0
261217.0 349358.0 0
264535.0 351172.0 0
271177.0 350962.0 0
277850.0 350777.0 0
284556.0 350645.0 0
291281.0 350582.0 0
298012.0 350566.0 0
201981.0 352991.0 0
208632.0 353041.0 0
215448.0 353852.0 0
218692.0 351970.0 0
222016.0 353951.0 0
225291.0 352039.0 0
228623.0 353982.0 0
231874.0 352043.0 0
235184.0 353986.0 0
238402.0 352000.0 0
241678.0 353926.0 0
244883.0 351878.0 0
248143.0 353754.0 0
254650.0 353477.0 0
261234.0 353206.0 0
267854.0 352976.0 0
274503.0 352766.0 0
281193.0 352595.0 0
287915.0 352496.0 0
291278.0 354356.0 0
294646.0 352461.0 0
298012.0 354343.0 0
201979.0 356684.0 0
205277.0 354825.0 0
208568.0 356639.0 0
211965.0 354962.0 0
218750.0 355866.0 0
225357.0 355896.0 0
231953.0 355929.0 0
238479.0 355934.0 0
244938.0 355829.0 0
251401.0 355588.0 0
257946.0 355257.0 0
264546.0 354999.0 0
267852.0 356786.0 0
271168.0 354770.0 0
274479.0 356552.0 0
277832.0 354563.0 0
281169.0 356355.0 0
284544.0 354418.0 0
287903.0 356253.0 0
294644.0 356225.0 0
205240.0 358485.0 0
211912.0 358401.0 0
215524.0 357823.0 0
218835.0 359757.0 0
222088.0 357808.0 0
228706.0 357836.0 0
235272.0 357890.0 0
241752.0 357878.0 0
248188.0 357696.0 0
251431.0 359510.0 0
254671.0 357343.0 0
257975.0 359076.0 0
261255.0 357031.0 0
264560.0 358810.0 0
271144.0 358562.0 0
277792.0 358320.0 0
284517.0 358155.0 0
291268.0 358101.0 0
298013.0 358098.0 0
201978.0 360381.0 0
208528.0 360192.0 0
215619.0 361805.0 0
222214.0 361638.0 0
225452.0 359729.0 0
228808.0 361670.0 0
232047.0 359795.0 0
235370.0 361781.0 0
238570.0 359865.0 0
241843.0 361842.0 0
245005.0 359784.0 0
248247.0 361648.0 0
254700.0 361165.0 0
261291.0 360833.0 0
267841.0 360588.0 0
274425.0 360317.0 0
277700.0 362043.0 0
281114.0 360078.0 0
284453.0 361849.0 0
287874.0 359975.0 0
291244.0 361814.0 0
294637.0 359963.0 0
298013.0 361829.0 0
201982.0 364081.0 0
205256.0 362143.0 0
208647.0 363710.0 0
211922.0 361719.0 0
219018.0 363606.0 0
225586.0 363545.0 0
232135.0 363643.0 0
238679.0 363794.0 0
245093.0 363749.0 0
251474.0 363456.0 0
258037.0 362850.0 0
261340.0 364628.0 0
264575.0 362616.0 0
267818.0 364393.0 0
271099.0 362347.0 0
274342.0 364070.0 0
280963.0 363748.0 0
287823.0 363654.0 0
294632.0 363674.0 0
205365.0 365765.0 0
209309.0 367037.0 0
212343.0 364938.0 0
215930.0 365731.0 0
219335.0 367435.0 0
222413.0 365450.0 0
225738.0 367368.0 0
228914.0 365497.0 0
232188.0 367487.0 0
235429.0 365646.0 0
241995.0 365832.0 0
248307.0 365619.0 0
254781.0 364893.0 0
258120.0 366592.0 0
264575.0 366434.0 0
271039.0 366133.0 0
277574.0 365756.0 0
284171.0 365455.0 0
287267.0 367187.0 0
291238.0 365488.0 0
294648.0 367368.0 0
298013.0 365543.0 0
201989.0 367774.0 0
206397.0 369062.0 0
213001.0 368282.0 0
216405.0 369571.0 0
222645.0 369288.0 0
228992.0 369340.0 0
235410.0 369506.0 0
238692.0 367674.0 0
241899.0 369744.0 0
245290.0 367969.0 0
251299.0 367793.0 0
254847.0 368468.0 0
261359.0 368441.0 0
267777.0 368206.0 0
270988.0 369916.0 0
274256.0 367821.0 0
277464.0 369475.0 0
280774.0 367426.0 0
283903.0 369117.0 0
290256.0 368915.0 0
298018.0 369252.0 0
203552.0 371049.0 0
207230.0 372476.0 0
210056.0 370430.0 0
213522.0 371854.0 0
219668.0 371298.0 0
225867.0 371227.0 0
232177.0 371350.0 0
238567.0 371558.0 0
244985.0 371926.0 0
248423.0 370305.0 0
254795.0 371945.0 0
258130.0 370322.0 0
261267.0 372285.0 0
264532.0 370268.0 0
267737.0 372007.0 0
274214.0 371568.0 0
280639.0 371128.0 0
286950.0 370845.0 0
289927.0 372586.0 0
293160.0 370617.0 0
296071.0 372229.0 0
201940.0 373919.0 0
205012.0 374818.0 0
210689.0 373978.0 0
216781.0 373403.0 0
219903.0 375195.0 0
222838.0 373175.0 0
225930.0 375134.0 0
229012.0 373219.0 0
232087.0 375248.0 0
235293.0 373391.0 0
241627.0 373673.0 0
247928.0 374270.0 0
251324.0 372828.0 0
257905.0 374060.0 0
264452.0 374080.0 0
270998.0 373681.0 0
277440.0 373195.0 0
280625.0 374844.0 0
283747.0 372819.0 0
286780.0 374556.0 0
292836.0 374298.0 0
298028.0 374755.0 0
196872.0 379233.0 0
199892.0 377333.0 0
202752.0 377446.0 0
208147.0 376189.0 0
211257.0 377731.0 0
213952.0 375566.0 0
217044.0 377277.0 0
222934.0 377106.0 0
228955.0 377141.0 0
235091.0 377311.0 0
238328.0 375474.0 0
241274.0 377623.0 0
244578.0 375891.0 0
250847.0 376704.0 0
254310.0 375469.0 0
257391.0 377688.0 0
261071.0 376119.0 0
264471.0 377793.0 0
267775.0 375755.0 0
271178.0 377415.0 0
274284.0 375296.0 0
277542.0 376906.0 0
283740.0 376554.0 0
289702.0 376322.0 0
295172.0 376448.0 0
297684.0 378570.0 0
300566.0 377628.0 0
193846.0 381124.0 0
199950.0 380308.0 0
205681.0 378550.0 0
208635.0 379952.0 0
214268.0 379411.0 0
220016.0 379135.0 0
225900.0 379083.0 0
231919.0 379184.0 0
238021.0 379419.0 0
244151.0 379843.0 0
247469.0 378202.0 0
253803.0 379139.0 0
260370.0 379811.0 0
268107.0 379402.0 0
274490.0 379017.0 0
280778.0 378559.0 0
283846.0 380340.0 0
286724.0 378344.0 0
289476.0 380250.0 0
292295.0 378261.0 0
294886.0 380302.0 0
300664.0 380803.0 0
303677.0 379575.0 0
306844.0 381551.0 0
190778.0 383038.0 0
193809.0 384242.0 0
196886.0 382350.0 0
199948.0 383432.0 0
202918.0 380902.0 0
205873.0 382147.0 0
211545.0 381559.0 0
214359.0 383323.0 0
217167.0 381215.0 0
219994.0 383114.0 0
222917.0 381075.0 0
225773.0 383062.0 0
228814.0 381099.0 0
231684.0 383149.0 0
234824.0 381263.0 0
240886.0 381581.0 0
246985.0 382117.0 0
250344.0 380554.0 0
253182.0 382905.0 0
256724.0 381397.0 0
262103.0 382837.0 0
265109.0 381279.0 0
271479.0 381207.0 0
277889.0 380576.0 0
275153.0 382611.0 0
281031.0 382322.0 0
286693.0 382253.0 0
292102.0 382193.0 0
297748.0 382174.0 0
300815.0 384061.0 0
303822.0 382692.0 0
307089.0 384572.0 0
310084.0 383575.0 0
184482.0 386974.0 0
187639.0 385002.0 0
190680.0 386086.0 0
196895.0 385504.0 0
202934.0 384284.0 0
205884.0 385682.0 0
208769.0 383668.0 0
211532.0 385401.0 0
217102.0 385184.0 0
222790.0 385069.0 0
228598.0 385080.0 0
234510.0 385235.0 0
237673.0 383383.0 0
240475.0 385548.0 0
243701.0 383793.0 0
249777.0 384423.0 0
255704.0 385392.0 0
258938.0 384104.0 0
265020.0 385001.0 0
268303.0 383172.0 0
270128.0 386187.0 0
272772.0 384643.0 0
278323.0 384367.0 0
283977.0 384213.0 0
289325.0 384245.0 0
294936.0 384001.0 0
297885.0 385689.0 0
300985.0 387332.0 0
304032.0 385801.0 0
310426.0 386568.0 0
313373.0 385643.0 0
181250.0 389015.0 0
187550.0 388096.0 0
190870.0 389073.0 0
193874.0 387354.0 0
197015.0 388761.0 0
199932.0 386674.0 0
202899.0 387614.0 0
208650.0 387393.0 0
214190.0 387248.0 0
219832.0 387100.0 0
225567.0 387060.0 0
231392.0 387130.0 0
237295.0 387359.0 0
243234.0 387753.0 0
246473.0 386045.0 0
249178.0 388351.0 0
252434.0 386809.0 0
258372.0 387868.0 0
261657.0 386502.0 0
267296.0 387558.0 0
273190.0 388351.0 0
275941.0 386574.0 0
279031.0 388510.0 0
281325.0 386153.0 0
283733.0 388623.0 0
286527.0 386392.0 0
289470.0 388097.0 0
292188.0 386001.0 0
295087.0 387672.0 0
298088.0 389155.0 0
304144.0 388920.0 0
307312.0 387561.0 0
310526.0 389529.0 0
313518.0 389026.0 0
316454.0 387571.0 0
319489.0 389469.0 0
178227.0 390909.0 0
184333.0 390006.0 0
187881.0 391083.0 0
191104.0 392035.0 0
194199.0 390524.0 0
197678.0 392133.0 0
200052.0 390066.0 0
202796.0 390959.0 0
205723.0 389249.0 0
208131.0 391180.0 0
211212.0 389260.0 0
213827.0 391123.0 0
216858.0 389129.0 0
219531.0 391058.0 0
222557.0 389062.0 0
225279.0 391068.0 0
228329.0 389089.0 0
231069.0 391161.0 0
234156.0 389220.0 0
240043.0 389524.0 0
245953.0 389998.0 0
251880.0 390696.0 0
255117.0 389233.0 0
261061.0 390281.0 0
264208.0 388853.0 0
266948.0 391196.0 0
270191.0 389825.0 0
276296.0 390457.0 0
281335.0 391169.0 0
286779.0 390243.0 0
292373.0 389777.0 0
298299.0 392581.0 0
301167.0 390639.0 0
304255.0 392161.0 0
307245.0 390575.0 0
310216.0 392355.0 0
316436.0 390925.0 0
322590.0 391402.0 0
171663.0 394986.0 0
174985.0 392917.0 0
178010.0 394139.0 0
181470.0 392508.0 0
185114.0 392783.0 0
188185.0 394379.0 0
191689.0 394725.0 0
194709.0 393489.0 0
201001.0 393824.0 0
204880.0 392945.0 0
210695.0 393035.0 0
216460.0 393028.0 0
222213.0 393029.0 0
227993.0 393114.0 0
233791.0 393270.0 0
236892.0 391358.0 0
239613.0 393529.0 0
242765.0 391729.0 0
248665.0 392271.0 0
254623.0 393049.0 0
257856.0 391649.0 0
263850.0 392632.0 0
269814.0 393261.0 0
273319.0 391959.0 0
278487.0 393265.0 0
284524.0 392765.0 0
289727.0 391932.0 0
292674.0 393522.0 0
295312.0 391302.0 0
298532.0 395986.0 0
301361.0 393977.0 0
307253.0 393800.0 0
313370.0 392538.0 0
316512.0 394211.0 0
319551.0 392719.0 0
322735.0 394594.0 0
325750.0 393374.0 0
168321.0 397072.0 0
174585.0 396050.0 0
177337.0 397438.0 0
180722.0 395892.0 0
184084.0 395274.0 0
186970.0 397258.0 0
190561.0 397247.0 0
194404.0 396665.0 0
197761.0 395399.0 0
203772.0 396132.0 0
207401.0 394797.0 0
210006.0 396703.0 0
213300.0 394928.0 0
219114.0 394975.0 0
224899.0 395042.0 0
230697.0 395190.0 0
236506.0 395402.0 0
242345.0 395706.0 0
245488.0 393950.0 0
248219.0 396184.0 0
251396.0 394556.0 0
257451.0 395378.0 0
260694.0 394019.0 0
266736.0 394922.0 0
272611.0 395126.0 0
275866.0 395611.0 0
281754.0 394928.0 0
284936.0 396607.0 0
287644.0 394499.0 0
290796.0 396177.0 0
295606.0 394935.0 0
301228.0 397445.0 0
304279.0 395511.0 0
307486.0 396881.0 0
310595.0 395270.0 0
313647.0 396073.0 0
316768.0 397530.0 0
319729.0 395950.0 0
325989.0 396517.0 0
328970.0 395383.0 0
332240.0 397424.0 0
165002.0 399146.0 0
167875.0 400162.0 0
171195.0 398077.0 0
173975.0 399280.0 0
179982.0 399198.0 0
183387.0 398248.0 0
189626.0 399959.0 0
193349.0 399515.0 0
197060.0 398731.0 0
200465.0 397447.0 0
206512.0 398235.0 0
212666.0 398649.0 0
215943.0 396863.0 0
218611.0 398841.0 0
221782.0 396963.0 0
224464.0 398989.0 0
227590.0 397090.0 0
233405.0 397283.0 0
239236.0 397532.0 0
245082.0 397900.0 0
250982.0 398409.0 0
254177.0 396819.0 0
257013.0 399029.0 0
260392.0 397667.0 0
263643.0 396358.0 0
266699.0 398691.0 0
269706.0 396945.0 0
273170.0 398366.0 0
276412.0 399425.0 0
279067.0 397113.0 0
282251.0 398770.0 0
288124.0 398293.0 0
294050.0 397717.0 0
297476.0 399027.0 0
304280.0 398699.0 0
307522.0 399910.0 0
310696.0 398475.0 0
313777.0 399485.0 0
320088.0 399162.0 0
323028.0 397777.0 0
326382.0 399661.0 0
329299.0 398485.0 0
335540.0 399485.0 0
161700.0 401209.0 0
164580.0 402233.0 0
170702.0 401293.0 0
173458.0 402649.0 0
176642.0 400779.0 0
179238.0 402500.0 0
182565.0 401340.0 0
186124.0 400276.0 0
192258.0 402408.0 0
196013.0 401881.0 0
199631.0 400982.0 0
203088.0 399675.0 0
205807.0 401784.0 0
209254.0 400272.0 0
215361.0 400637.0 0
221293.0 400858.0 0
227166.0 401043.0 0
230295.0 399163.0 0
233021.0 401253.0 0
236132.0 399386.0 0
238873.0 401510.0 0
241973.0 399683.0 0
247841.0 400095.0 0
253785.0 400601.0 0
259872.0 401159.0 0
263462.0 399958.0 0
270158.0 400411.0 0
279588.0 400985.0 0
285465.0 400433.0 0
291368.0 399884.0 0
294697.0 401273.0 0
300782.0 400508.0 0
304072.0 401714.0 0
310743.0 401858.0 0
314177.0 402687.0 0
317116.0 400705.0 0
320606.0 402304.0 0
323492.0 400952.0 0
326900.0 402822.0 0
329753.0 401606.0 0
332636.0 400498.0 0
335956.0 402552.0 0
338845.0 401550.0 0
155123.0 405320.0 0
158416.0 403262.0 0
161323.0 404301.0 0
164227.0 405416.0 0
167436.0 403348.0 0
170241.0 404602.0 0
176152.0 404256.0 0
181732.0 404584.0 0
185185.0 403256.0 0
188647.0 402850.0 0
194620.0 404887.0 0
198526.0 404388.0 0
202267.0 403172.0 0
208668.0 403867.0 0
212024.0 402310.0 0
214745.0 404381.0 0
218056.0 402664.0 0
223999.0 402901.0 0
229893.0 403117.0 0
235767.0 403356.0 0
241637.0 403646.0 0
244733.0 401848.0 0
247530.0 404005.0 0
250638.0 402272.0 0
253471.0 404417.0 0
256617.0 402744.0 0
262636.0 403203.0 0
265237.0 405026.0 0
267158.0 402316.0 0
270705.0 403959.0 0
273602.0 401864.0 0
276874.0 403245.0 0
282803.0 402611.0 0
286063.0 404235.0 0
288722.0 402062.0 0
292052.0 403563.0 0
297959.0 402611.0 0
301266.0 403891.0 0
304663.0 404932.0 0
307365.0 402740.0 0
311625.0 405176.0 0
317704.0 403738.0 0
324084.0 404125.0 0
330212.0 404798.0 0
333073.0 403627.0 0
339218.0 404638.0 0
342128.0 403603.0 0
345400.0 405650.0 0
151816.0 407387.0 0
158042.0 406338.0 0
160964.0 407445.0 0
167114.0 406653.0 0
169981.0 408042.0 0
172974.0 406062.0 0
175642.0 407673.0 0
178899.0 405975.0 0
184143.0 406258.0 0
187437.0 405859.0 0
190926.0 405405.0 0
196040.0 407660.0 0
199220.0 407588.0 0
202148.0 406513.0 0
205341.0 405292.0 0
211391.0 406009.0 0
217484.0 406452.0 0
220775.0 404711.0 0
223525.0 406776.0 0
226732.0 404965.0 0
232645.0 405208.0 0
238538.0 405473.0 0
244437.0 405783.0 0
250369.0 406143.0 0
256333.0 406529.0 0
259439.0 404841.0 0
262278.0 406877.0 0
268245.0 406263.0 0
274078.0 405521.0 0
277339.0 407042.0 0
280100.0 404817.0 0
283352.0 406417.0 0
289394.0 405795.0 0
295377.0 404953.0 0
298719.0 406234.0 0
302160.0 407293.0 0
308334.0 405405.0 0
315041.0 405849.0 0
318506.0 406706.0 0
321289.0 405404.0 0
324652.0 407398.0 0
327397.0 406071.0 0
333353.0 406874.0 0
336289.0 405706.0 0
339481.0 407794.0 0
342464.0 406695.0 0
348652.0 407685.0 0
148479.0 409473.0 0
151435.0 410423.0 0
154753.0 408381.0 0
157708.0 409468.0 0
160669.0 410658.0 0
163875.0 408643.0 0
166753.0 409970.0 0
172870.0 409636.0 0
178385.0 409047.0 0
181660.0 408378.0 0
185431.0 408896.0 0
189026.0 408524.0 0
192581.0 408066.0 0
197762.0 410709.0 0
201410.0 410196.0 0
204688.0 409018.0 0
208022.0 407551.0 0
214133.0 408116.0 0
220259.0 408529.0 0
226302.0 408857.0 0
229494.0 407047.0 0
232284.0 409142.0 0
235424.0 407310.0 0
238237.0 409417.0 0
241343.0 407592.0 0
244193.0 409704.0 0
247282.0 407908.0 0
253254.0 408253.0 0
259252.0 408589.0 0
265397.0 408573.0 0
271381.0 407761.0 0
274571.0 409301.0 0
280580.0 408616.0 0
286663.0 407987.0 0
290040.0 409496.0 0
292773.0 407262.0 0
296210.0 408624.0 0
299746.0 409816.0 0
305858.0 407938.0 0
303545.0 410446.0 0
309504.0 408289.0 0
312824.0 408465.0 0
316096.0 409056.0 0
319302.0 409688.0 0
321973.0 408578.0 0
327512.0 409544.0 0
330425.0 408148.0 0
333458.0 410195.0 0
336479.0 408933.0 0
342681.0 409825.0 0
345701.0 408773.0 0
348903.0 410861.0 0
351869.0 409699.0 0
145119.0 411576.0 0
148087.0 412511.0 0
154429.0 411485.0 0
157441.0 412646.0 0
163622.0 411954.0 0
169590.0 411385.0 0
172394.0 412897.0 0
175932.0 411315.0 0
179785.0 411623.0 0
183236.0 411442.0 0
186991.0 411534.0 0
190628.0 411220.0 0
194211.0 410879.0 0
199830.0 413377.0 0
203696.0 412801.0 0
207256.0 411263.0 0
210726.0 409712.0 0
213548.0 411817.0 0
216934.0 410210.0 0
223061.0 410621.0 0
229108.0 410952.0 0
235107.0 411242.0 0
241092.0 411518.0 0
247096.0 411796.0 0
250179.0 410011.0 0
253143.0 412075.0 0
256206.0 410319.0 0
259287.0 412281.0 0
262356.0 410484.0 0
265552.0 412156.0 0
268552.0 410000.0 0
271716.0 411524.0 0
277777.0 410842.0 0
281013.0 412395.0 0
283853.0 410178.0 0
287170.0 411694.0 0
293501.0 410901.0 0
297104.0 412200.0 0
301386.0 413029.0 0
307358.0 410937.0 0
311015.0 411356.0 0
314473.0 411757.0 0
317937.0 412280.0 0
321621.0 412110.0 0
324607.0 410991.0 0
330418.0 411560.0 0
336587.0 412189.0 0
339631.0 411009.0 0
342756.0 412996.0 0
345856.0 411929.0 0
352046.0 412943.0 0
355034.0 411681.0 0
138395.0 415784.0 0
141752.0 413683.0 0
144730.0 414645.0 0
147776.0 415571.0 0
151114.0 413487.0 0
154176.0 414627.0 0
157253.0 415856.0 0
160463.0 413928.0 0
163487.0 415314.0 0
166556.0 413398.0 0
169489.0 414871.0 0
174910.0 414441.0 0
177945.0 414401.0 0
181364.0 414535.0 0
184855.0 414363.0 0
188550.0 414260.0 0
192239.0 413978.0 0
195959.0 413717.0 0
206523.0 414849.0 0
210087.0 413355.0 0
216425.0 413942.0 0
219769.0 412321.0 0
222621.0 414448.0 0
225888.0 412724.0 0
228744.0 414834.0 0
231946.0 413053.0 0
237970.0 413339.0 0
243999.0 413603.0 0
250065.0 413857.0 0
256207.0 414067.0 0
262468.0 414103.0 0
268751.0 413696.0 0
274905.0 413070.0 0
278116.0 414616.0 0
284292.0 413921.0 0
290526.0 413137.0 0
293882.0 414426.0 0
297069.0 415581.0 0
300335.0 416037.0 0
305314.0 413484.0 0
309112.0 413995.0 0
312793.0 414473.0 0
316417.0 414875.0 0
320220.0 414905.0 0
324062.0 414590.0 0
327318.0 413063.0 0
330533.0 414878.0 0
333545.0 413516.0 0
336566.0 415501.0 0
339640.0 414307.0 0
345852.0 415126.0 0
348974.0 414074.0 0
352012.0 416224.0 0
355135.0 414977.0 0
358146.0 413633.0 0
361176.0 415534.0 0
135065.0 417868.0 0
141381.0 416804.0 0
144436.0 417737.0 0
150879.0 416574.0 0
154016.0 417811.0 0
160340.0 417232.0 0
166514.0 416876.0 0
169572.0 418356.0 0
172368.0 416620.0 0
175657.0 417552.0 0
179056.0 417502.0 0
182655.0 417434.0 0
186321.0 417214.0 0
190089.0 417003.0 0
193889.0 416712.0 0
197784.0 416369.0 0
201808.0 416054.0 0
209562.0 416923.0 0
213022.0 415473.0 0
219308.0 416099.0 0
225497.0 416570.0 0
231632.0 416944.0 0
234818.0 415153.0 0
237735.0 417240.0 0
240880.0 415422.0 0
243848.0 417479.0 0
246967.0 415660.0 0
250009.0 417675.0 0
253116.0 415863.0 0
259362.0 415962.0 0
262577.0 417749.0 0
265690.0 415783.0 0
268916.0 417386.0 0
271952.0 415257.0 0
275167.0 416822.0 0
281349.0 416150.0 0
284597.0 417640.0 0
287624.0 415397.0 0
291027.0 416826.0 0
294547.0 418139.0 0
303788.0 416204.0 0
307417.0 416646.0 0
311090.0 417128.0 0
314759.0 417550.0 0
318438.0 417726.0 0
321974.0 417697.0 0
325041.0 417809.0 0
327577.0 416332.0 0
330401.0 418340.0 0
333480.0 416939.0 0
339526.0 417714.0 0
342685.0 416187.0 0
345705.0 418360.0 0
348866.0 417342.0 0
354996.0 418278.0 0
358168.0 417028.0 0
366826.0 419068.0 0
131771.0 419930.0 0
134793.0 421122.0 0
138066.0 418970.0 0
141129.0 419958.0 0
144255.0 420857.0 0
147554.0 418648.0 0
150731.0 419667.0 0
153923.0 421033.0 0
157161.0 419092.0 0
160312.0 420571.0 0
163431.0 418669.0 0
166509.0 420372.0 0
172917.0 420111.0 0
176575.0 420552.0 0
180284.0 420427.0 0
184048.0 420251.0 0
187824.0 419999.0 0
191633.0 419736.0 0
195444.0 419423.0 0
199203.0 419148.0 0
202780.0 419165.0 0
206092.0 418320.0 0
212501.0 419106.0 0
215943.0 417656.0 0
218890.0 419868.0 0
222208.0 418263.0 0
228402.0 418696.0 0
234557.0 419044.0 0
240702.0 419302.0 0
246881.0 419499.0 0
253124.0 419633.0 0
256248.0 417798.0 0
259445.0 419651.0 0
265817.0 419443.0 0
272148.0 418981.0 0
278400.0 418379.0 0
281652.0 419918.0 0
287833.0 419053.0 0
298382.0 418882.0 0
302177.0 419145.0 0
305824.0 419431.0 0
309486.0 419841.0 0
313182.0 420253.0 0
316917.0 420544.0 0
320608.0 420706.0 0
327516.0 420145.0 0
333250.0 420417.0 0
336471.0 418819.0 0
342493.0 419360.0 0
348660.0 420682.0 0
351776.0 419580.0 0
357921.0 420401.0 0
361131.0 419066.0 0
364076.0 417396.0 0
369776.0 420901.0 0
128508.0 421971.0 0
131566.0 423239.0 0
137866.0 422198.0 0
140995.0 423147.0 0
147443.0 421737.0 0
150700.0 422759.0 0
157067.0 422318.0 0
163490.0 422011.0 0
169658.0 421530.0 0
174058.0 423403.0 0
177937.0 423424.0 0
181757.0 423257.0 0
185568.0 423039.0 0
189369.0 422775.0 0
193178.0 422498.0 0
196975.0 422235.0 0
200781.0 422107.0 0
204909.0 421912.0 0
208947.0 420500.0 0
215540.0 421339.0 0
221806.0 422085.0 0
225124.0 420398.0 0
228082.0 422539.0 0
231342.0 420817.0 0
237527.0 421120.0 0
243730.0 421330.0 0
249984.0 421472.0 0
256304.0 421526.0 0
262682.0 421423.0 0
269065.0 421083.0 0
272320.0 422704.0 0
275392.0 420567.0 0
278656.0 422139.0 0
284919.0 421416.0 0
290960.0 420411.0 0
293980.0 421513.0 0
297232.0 421859.0 0
300710.0 422017.0 0
304314.0 422311.0 0
307939.0 422641.0 0
311613.0 423006.0 0
315345.0 423322.0 0
324142.0 420909.0 0
330365.0 421875.0 0
336089.0 421960.0 0
339333.0 421312.0 0
342491.0 422345.0 0
345602.0 421600.0 0
351237.0 423095.0 0
354581.0 421585.0 0
360697.0 422660.0 0
363771.0 421186.0 0
366691.0 422332.0 0
369728.0 424218.0 0
372745.0 422762.0 0
121919.0 426094.0 0
125229.0 424022.0 0
128352.0 425250.0 0
134650.0 424430.0 0
137766.0 425466.0 0
140905.0 426355.0 0
144181.0 423995.0 0
147415.0 424817.0 0
150690.0 425790.0 0
153944.0 424364.0 0
157132.0 425587.0 0
160167.0 423905.0 0
163201.0 425106.0 0
166699.0 423976.0 0
170489.0 424274.0 0
183334.0 426094.0 0
187120.0 425855.0 0
190897.0 425590.0 0
194659.0 425331.0 0
198396.0 425118.0 0
202119.0 424976.0 0
205587.0 425212.0 0
208769.0 423891.0 0
212154.0 422659.0 0
215135.0 425042.0 0
218483.0 423659.0 0
224761.0 424196.0 0
231075.0 424678.0 0
234319.0 422919.0 0
237338.0 424986.0 0
240549.0 423163.0 0
243633.0 425161.0 0
246823.0 423316.0 0
249979.0 425254.0 0
253151.0 423392.0 0
256367.0 425259.0 0
259531.0 423354.0 0
262787.0 425122.0 0
265940.0 423130.0 0
269206.0 424795.0 0
275584.0 424308.0 0
281950.0 423692.0 0
285301.0 425197.0 0
288201.0 422856.0 0
291583.0 424195.0 0
295310.0 424778.0 0
299030.0 424993.0 0
302687.0 425210.0 0
306348.0 425508.0 0
310021.0 425828.0 0
319107.0 423563.0 0
322873.0 423768.0 0
326766.0 423628.0 0
330219.0 424742.0 0
333680.0 424179.0 0
337577.0 424654.0 0
340933.0 424863.0 0
344682.0 424886.0 0
348084.0 424190.0 0
353977.0 424832.0 0
357395.0 423754.0 0
363412.0 425010.0 0
366543.0 425325.0 0
372510.0 426221.0 0
375630.0 424568.0 0
378580.0 426410.0 0
118583.0 428185.0 0
125091.0 427295.0 0
128374.0 428526.0 0
131527.0 426617.0 0
134694.0 427818.0 0
137895.0 428814.0 0
144078.0 427138.0 0
147264.0 427867.0 0
150422.0 428652.0 0
153810.0 427803.0 0
157177.0 428478.0 0
160578.0 427464.0 0
164865.0 427474.0 0
168374.0 427081.0 0
172200.0 426862.0 0
175783.0 426424.0 0
179552.0 426295.0 0
192413.0 428459.0 0
196151.0 428223.0 0
199888.0 428035.0 0
203639.0 428079.0 0
208170.0 427449.0 0
211702.0 426248.0 0
218057.0 427491.0 0
221390.0 425934.0 0
227783.0 426359.0 0
234096.0 426787.0 0
240411.0 427005.0 0
246783.0 427114.0 0
253189.0 427148.0 0
259620.0 427075.0 0
266059.0 426840.0 0
272480.0 426439.0 0
275766.0 428062.0 0
278859.0 425886.0 0
282138.0 427432.0 0
288830.0 426562.0 0
293221.0 427468.0 0
297158.0 427828.0 0
300957.0 428108.0 0
304681.0 428387.0 0
308388.0 428694.0 0
313727.0 426135.0 0
317458.0 426400.0 0
321191.0 426622.0 0
324939.0 426701.0 0
328429.0 427185.0 0
332283.0 427418.0 0
335802.0 427381.0 0
339472.0 427754.0 0
343164.0 427713.0 0
346952.0 427457.0 0
350549.0 426794.0 0
353709.0 427825.0 0
356973.0 427025.0 0
360218.0 426136.0 0
362776.0 428699.0 0
365965.0 428368.0 0
369305.0 427558.0 0
375392.0 427924.0 0
381616.0 428310.0 0
115240.0 430282.0 0
118484.0 431570.0 0
121790.0 429402.0 0
125127.0 430536.0 0
128576.0 431733.0 0
131701.0 430090.0 0
134955.0 431280.0 0
141189.0 429641.0 0
144553.0 430388.0 0
147999.0 431083.0 0
151787.0 431200.0 0
155188.0 431090.0 0
159043.0 430917.0 0
162605.0 430335.0 0
166371.0 430329.0 0
170043.0 429986.0 0
173749.0 429738.0 0
177401.0 429410.0 0
181141.0 429202.0 0
184900.0 428967.0 0
188662.0 428716.0 0
197567.0 431176.0 0
201121.0 431064.0 0
204554.0 431093.0 0
207804.0 430669.0 0
211210.0 429733.0 0
214671.0 428724.0 0
220937.0 429855.0 0
224398.0 427921.0 0
227541.0 430157.0 0
230828.0 428537.0 0
233845.0 430662.0 0
237151.0 428842.0 0
243557.0 428972.0 0
249989.0 429027.0 0
256438.0 429000.0 0
262895.0 428845.0 0
266180.0 430577.0 0
269335.0 428524.0 0
272609.0 430185.0 0
279077.0 429654.0 0
285392.0 428852.0 0
288610.0 430011.0 0
291957.0 430473.0 0
295524.0 430652.0 0
299247.0 430970.0 0
302985.0 431272.0 0
312099.0 428996.0 0
315819.0 429275.0 0
319539.0 429524.0 0
323251.0 429711.0 0
326856.0 430042.0 0
330551.0 430255.0 0
334268.0 430448.0 0
337878.0 430562.0 0
341621.0 430649.0 0
345357.0 430490.0 0
349036.0 430194.0 0
352374.0 430476.0 0
356077.0 430316.0 0
359486.0 429584.0 0
365379.0 431603.0 0
368791.0 430879.0 0
372093.0 429683.0 0
375079.0 431147.0 0
378432.0 429737.0 0
381587.0 431702.0 0
384709.0 430249.0 0
111938.0 432364.0 0
115292.0 433805.0 0
121837.0 432688.0 0
125223.0 433722.0 0
132015.0 433710.0 0
138386.0 432154.0 0
141914.0 432905.0 0
145535.0 433562.0 0
149350.0 433921.0 0
153102.0 434095.0 0
156854.0 433891.0 0
160614.0 433686.0 0
164226.0 433389.0 0
167950.0 433232.0 0
171618.0 432950.0 0
175307.0 432678.0 0
178992.0 432380.0 0
182722.0 432129.0 0
186465.0 431875.0 0
190201.0 431622.0 0
193910.0 431381.0 0
206447.0 433954.0 0
210123.0 433244.0 0
213749.0 432340.0 0
217426.0 431358.0 0
224202.0 431438.0 0
230481.0 432442.0 0
236984.0 432670.0 0
240293.0 430825.0 0
243509.0 432763.0 0
246764.0 430899.0 0
250015.0 432795.0 0
253237.0 430905.0 0
256516.0 432751.0 0
259714.0 430813.0 0
263006.0 432590.0 0
269472.0 432282.0 0
275866.0 431815.0 0
282453.0 431253.0 0
286055.0 432605.0 0
289931.0 433353.0 0
293766.0 433633.0 0
297500.0 433868.0 0
306714.0 431576.0 0
310443.0 431882.0 0
314170.0 432176.0 0
317891.0 432450.0 0
321600.0 432693.0 0
325257.0 432979.0 0
328942.0 433207.0 0
332634.0 433388.0 0
336340.0 433540.0 0
340050.0 433578.0 0
343805.0 433528.0 0
347511.0 433368.0 0
351080.0 433418.0 0
354761.0 433275.0 0
358475.0 432883.0 0
361995.0 432184.0 0
368136.0 434200.0 0
371686.0 433238.0 0
375011.0 434136.0 0
378336.0 432970.0 0
384629.0 433806.0 0
387754.0 432165.0 0
104185.0 437182.0 0
108695.0 434409.0 0
112239.0 436090.0 0
118770.0 434980.0 0
122270.0 436034.0 0
128616.0 434726.0 0
135615.0 434664.0 0
139293.0 435420.0 0
143031.0 436066.0 0
146876.0 436527.0 0
162119.0 436630.0 0
165799.0 436413.0 0
169499.0 436215.0 0
173179.0 435939.0 0
176874.0 435647.0 0
180581.0 435346.0 0
184317.0 435071.0 0
188059.0 434809.0 0
191789.0 434566.0 0
195484.0 434358.0 0
199132.0 434216.0 0
202753.0 434150.0 0
212219.0 435914.0 0
215862.0 435150.0 0
219487.0 434495.0 0
223141.0 434585.0 0
227017.0 434024.0 0
233609.0 434501.0 0
240225.0 434617.0 0
246766.0 434674.0 0
253300.0 434665.0 0
259813.0 434568.0 0
266309.0 434336.0 0
272763.0 433978.0 0
276036.0 435665.0 0
279078.0 433363.0 0
282130.0 434903.0 0
285187.0 436004.0 0
288520.0 436344.0 0
301246.0 434164.0 0
304996.0 434469.0 0
308748.0 434780.0 0
312495.0 435089.0 0
316231.0 435389.0 0
319950.0 435670.0 0
323639.0 435953.0 0
327332.0 436195.0 0
331033.0 436384.0 0
334749.0 436518.0 0
338497.0 436579.0 0
342252.0 436548.0 0
346004.0 436461.0 0
349696.0 436419.0 0
353432.0 436278.0 0
357194.0 435968.0 0
360930.0 435484.0 0
364543.0 434893.0 0
370746.0 436799.0 0
374226.0 436980.0 0
377888.0 436257.0 0
381313.0 435117.0 0
387598.0 435937.0 0
390720.0 434043.0 0
393594.0 435814.0 0
101075.0 439156.0 0
107287.0 437881.0 0
110276.0 439135.0 0
115892.0 437335.0 0
119513.0 438426.0 0
123156.0 439388.0 0
125801.0 436988.0 0
129533.0 437551.0 0
133049.0 437294.0 0
136759.0 437984.0 0
140541.0 438612.0 0
144399.0 439118.0 0
150732.0 436833.0 0
154606.0 436895.0 0
158388.0 436778.0 0
171054.0 439237.0 0
174752.0 438941.0 0
178466.0 438621.0 0
182204.0 438304.0 0
185964.0 438016.0 0
189731.0 437753.0 0
193475.0 437535.0 0
197191.0 437364.0 0
200903.0 437230.0 0
204667.0 437035.0 0
208491.0 436599.0 0
217813.0 438136.0 0
221464.0 437780.0 0
225385.0 437434.0 0
230130.0 436312.0 0
233635.0 438261.0 0
236919.0 436455.0 0
240180.0 438413.0 0
243488.0 436546.0 0
246800.0 438444.0 0
250061.0 436560.0 0
253376.0 438433.0 0
256605.0 436514.0 0
259923.0 438345.0 0
263120.0 436356.0 0
266432.0 438111.0 0
269624.0 436060.0 0
272953.0 437804.0 0
279290.0 437256.0 0
292094.0 436562.0 0
295783.0 436827.0 0
299496.0 437088.0 0
303241.0 437377.0 0
307005.0 437682.0 0
310779.0 438004.0 0
314542.0 438327.0 0
318286.0 438644.0 0
322002.0 438949.0 0
325709.0 439212.0 0
355842.0 439039.0 0
359640.0 438644.0 0
363395.0 438143.0 0
367093.0 437520.0 0
376906.0 439420.0 0
380620.0 438520.0 0
384176.0 437346.0 0
390353.0 438269.0 0
393669.0 439088.0 0
396829.0 437818.0 0
399986.0 439812.0 0
95025.7 442942.0 0
98036.3 441075.0 0
104339.0 440707.0 0
107580.0 441772.0 0
113533.0 439992.0 0
116991.0 440963.0 0
120598.0 441888.0 0
126925.0 440108.0 0
130740.0 440494.0 0
134352.0 440700.0 0
138099.0 441246.0 0
141939.0 441749.0 0
148293.0 439501.0 0
152210.0 439721.0 0
156084.0 439794.0 0
159885.0 439749.0 0
163639.0 439638.0 0
167351.0 439462.0 0
180121.0 441578.0 0
183900.0 441243.0 0
187712.0 440940.0 0
191500.0 440708.0 0
195263.0 440520.0 0
199021.0 440351.0 0
202808.0 440146.0 0
206636.0 439818.0 0
210441.0 439345.0 0
214160.0 438746.0 0
223411.0 440820.0 0
227093.0 440531.0 0
230594.0 440071.0 0
236833.0 440290.0 0
243525.0 440317.0 0
250124.0 440329.0 0
256708.0 440292.0 0
263245.0 440149.0 0
269750.0 439833.0 0
276295.0 439576.0 0
279830.0 440999.0 0
282726.0 438726.0 0
286503.0 439322.0 0
290251.0 439574.0 0
293968.0 439802.0 0
297698.0 440055.0 0
301440.0 440317.0 0
305206.0 440599.0 0
308997.0 440905.0 0
312806.0 441251.0 0
316589.0 441603.0 0
329421.0 439415.0 0
333155.0 439545.0 0
336917.0 439602.0 0
340700.0 439591.0 0
344482.0 439521.0 0
348250.0 439448.0 0
352036.0 439302.0 0
358276.0 441775.0 0
362088.0 441343.0 0
365856.0 440816.0 0
369549.0 440221.0 0
373126.0 439941.0 0
383303.0 440857.0 0
386915.0 439678.0 0
393016.0 442143.0 0
396673.0 441273.0 0
403098.0 441771.0 0
91826.1 444932.0 0
101361.0 442965.0 0
110978.0 442809.0 0
114459.0 443664.0 0
124340.0 442656.0 0
128158.0 443231.0 0
131938.0 443654.0 0
135672.0 444000.0 0
139491.0 444453.0 0
145835.0 442169.0 0
149764.0 442478.0 0
153685.0 442679.0 0
157567.0 442776.0 0
161398.0 442779.0 0
165179.0 442701.0 0
168923.0 442540.0 0
172643.0 442271.0 0
176370.0 441936.0 0
185730.0 444120.0 0
189554.0 443877.0 0
193344.0 443685.0 0
197124.0 443506.0 0
200918.0 443301.0 0
204735.0 443026.0 0
208550.0 442663.0 0
212325.0 442210.0 0
216036.0 441694.0 0
219701.0 441234.0 0
225394.0 443921.0 0
229246.0 443579.0 0
233533.0 442432.0 0
240261.0 442177.0 0
246845.0 442222.0 0
253475.0 442208.0 0
260039.0 442145.0 0
266576.0 441915.0 0
269960.0 443623.0 0
273046.0 441611.0 0
276139.0 443435.0 0
284358.0 442084.0 0
288274.0 442494.0 0
292081.0 442783.0 0
295840.0 443037.0 0
299593.0 443291.0 0
303356.0 443548.0 0
307143.0 443819.0 0
310967.0 444127.0 0
320340.0 441951.0 0
324066.0 442254.0 0
327790.0 442482.0 0
331541.0 442612.0 0
335325.0 442662.0 0
339132.0 442650.0 0
342949.0 442588.0 0
346764.0 442495.0 0
350593.0 442348.0 0
354436.0 442113.0 0
360727.0 444521.0 0
364553.0 444066.0 0
368326.0 443556.0 0
372028.0 443127.0 0
375783.0 442577.0 0
379577.0 441835.0 0
385892.0 443327.0 0
389489.0 442260.0 0
395751.0 444559.0 0
399610.0 443480.0 0
402731.0 445449.0 0
406298.0 443776.0 0
88591.1 446960.0 0
95181.0 446527.0 0
98400.0 444999.0 0
101773.0 446930.0 0
104730.0 444443.0 0
108250.0 445489.0 0
111838.0 446426.0 0
118053.0 444511.0 0
121769.0 445273.0 0
125570.0 445910.0 0
129395.0 446434.0 0
133216.0 446861.0 0
143374.0 444874.0 0
147300.0 445226.0 0
151239.0 445501.0 0
155169.0 445698.0 0
159075.0 445820.0 0
162943.0 445867.0 0
166764.0 445808.0 0
170565.0 445631.0 0
174300.0 445293.0 0
178070.0 444897.0 0
181862.0 444502.0 0
195221.0 446688.0 0
199013.0 446492.0 0
202820.0 446249.0 0
206633.0 445947.0 0
210430.0 445581.0 0
214194.0 445158.0 0
217918.0 444716.0 0
221643.0 444285.0 0
234366.0 446231.0 0
237083.0 444018.0 0
240215.0 446053.0 0
243545.0 444124.0 0
246931.0 445992.0 0
250211.0 444093.0 0
253583.0 445988.0 0
256837.0 444088.0 0
260206.0 445991.0 0
263352.0 443968.0 0
266618.0 445711.0 0
279503.0 444517.0 0
282908.0 445131.0 0
286496.0 445409.0 0
290224.0 445752.0 0
293972.0 446036.0 0
297721.0 446292.0 0
301477.0 446539.0 0
314827.0 444530.0 0
318626.0 444932.0 0
322390.0 445303.0 0
326129.0 445587.0 0
329899.0 445724.0 0
333710.0 445759.0 0
337546.0 445736.0 0
341396.0 445669.0 0
345252.0 445565.0 0
349117.0 445414.0 0
352992.0 445197.0 0
356867.0 444899.0 0
367037.0 446834.0 0
370829.0 446377.0 0
374621.0 445834.0 0
378413.0 445151.0 0
382186.0 444316.0 0
388360.0 445987.0 0
391935.0 445336.0 0
398409.0 446899.0 0
407161.0 447334.0 0
410270.0 446221.0 0
413512.0 448268.0 0
85331.7 449004.0 0
88850.6 450670.0 0
91995.4 448570.0 0
95550.2 449961.0 0
99252.6 449871.0 0
105483.0 448153.0 0
109166.0 449151.0 0
115480.0 447232.0 0
119203.0 447969.0 0
122997.0 448620.0 0
126833.0 449185.0 0
130691.0 449666.0 0
137037.0 447238.0 0
140911.0 447635.0 0
144827.0 447998.0 0
148768.0 448311.0 0
152718.0 448567.0 0
156668.0 448768.0 0
160609.0 448917.0 0
164541.0 449007.0 0
168468.0 448905.0 0
172329.0 448746.0 0
176056.0 448257.0 0
179859.0 447825.0 0
183802.0 447279.0 0
187643.0 447041.0 0
191438.0 446862.0 0
204705.0 449225.0 0
208511.0 448914.0 0
212301.0 448556.0 0
216063.0 448165.0 0
219802.0 447758.0 0
223521.0 447372.0 0
227229.0 447014.0 0
230867.0 446751.0 0
236784.0 449112.0 0
243678.0 447897.0 0
250289.0 447857.0 0
256976.0 447879.0 0
263577.0 447881.0 0
269815.0 447198.0 0
273379.0 446101.0 0
277050.0 447246.0 0
280823.0 448016.0 0
284600.0 448451.0 0
288330.0 448750.0 0
292080.0 449051.0 0
295834.0 449320.0 0
305245.0 446782.0 0
309042.0 447033.0 0
312890.0 447334.0 0
316822.0 447867.0 0
320643.0 448321.0 0
324409.0 448721.0 0
328215.0 448888.0 0
332068.0 448895.0 0
335941.0 448849.0 0
339823.0 448771.0 0
343715.0 448657.0 0
347613.0 448503.0 0
351517.0 448297.0 0
355424.0 448027.0 0
359322.0 447689.0 0
363199.0 447287.0 0
369549.0 449644.0 0
373390.0 449134.0 0
377207.0 448516.0 0
380986.0 447775.0 0
384712.0 446918.0 0
390869.0 448808.0 0
394599.0 447913.0 0
400795.0 449469.0 0
404120.0 448677.0 0
410243.0 449808.0 0
416733.0 450292.0 0
78451.2 453299.0 0
81803.1 451193.0 0
85025.8 452678.0 0
92548.2 452189.0 0
96747.7 453335.0 0
102895.0 450859.0 0
106559.0 451918.0 0
112877.0 450001.0 0
116631.0 450730.0 0
120433.0 451382.0 0
124276.0 451959.0 0
134557.0 450078.0 0
138437.0 450450.0 0
142348.0 450810.0 0
146283.0 451140.0 0
150232.0 451429.0 0
154188.0 451673.0 0
158154.0 451883.0 0
162142.0 452052.0 0
166344.0 452082.0 0
170299.0 452034.0 0
174166.0 451949.0 0
177809.0 451188.0 0
182018.0 450399.0 0
185792.0 450210.0 0
189547.0 450056.0 0
193312.0 449895.0 0
197095.0 449710.0 0
200895.0 449489.0 0
214174.0 451577.0 0
217943.0 451210.0 0
221690.0 450842.0 0
225425.0 450488.0 0
229159.0 450172.0 0
232961.0 449807.0 0
240511.0 449749.0 0
246979.0 449804.0 0
253686.0 449766.0 0
260377.0 449847.0 0
267004.0 449688.0 0
271657.0 450033.0 0
275222.0 450373.0 0
278856.0 450890.0 0
282619.0 451394.0 0
286400.0 451775.0 0
299586.0 449567.0 0
303339.0 449800.0 0
307097.0 450023.0 0
310868.0 450244.0 0
314675.0 450510.0 0
318808.0 451270.0 0
322556.0 451848.0 0
326463.0 452093.0 0
330409.0 452076.0 0
334331.0 451995.0 0
338241.0 451900.0 0
342157.0 451773.0 0
346084.0 451615.0 0
350014.0 451416.0 0
353947.0 451164.0 0
357878.0 450854.0 0
361796.0 450491.0 0
365690.0 450083.0 0
375953.0 451898.0 0
379769.0 451245.0 0
383527.0 450485.0 0
387219.0 449629.0 0
393513.0 451418.0 0
397210.0 450455.0 0
403496.0 452230.0 0
406967.0 451107.0 0
409973.0 453506.0 0
413385.0 451998.0 0
419960.0 452317.0 0
75113.9 455393.0 0
81762.3 454918.0 0
88187.0 454205.0 0
91376.6 455528.0 0
100405.0 453723.0 0
104026.0 454774.0 0
110287.0 452797.0 0
114066.0 453543.0 0
117881.0 454196.0 0
121729.0 454778.0 0
128149.0 452466.0 0
132041.0 452910.0 0
135945.0 453303.0 0
139860.0 453662.0 0
143791.0 454000.0 0
147728.0 454312.0 0
151658.0 454591.0 0
174058.0 455648.0 0
180244.0 453404.0 0
183919.0 453393.0 0
187627.0 453274.0 0
191375.0 453127.0 0
195153.0 452952.0 0
198952.0 452748.0 0
202763.0 452509.0 0
206577.0 452233.0 0
210384.0 451921.0 0
219831.0 454296.0 0
223586.0 453958.0 0
227326.0 453633.0 0
231060.0 453283.0 0
234766.0 452942.0 0
238414.0 452642.0 0
243661.0 451798.0 0
247163.0 453586.0 0
250397.0 451586.0 0
253737.0 453595.0 0
257056.0 451644.0 0
260398.0 453702.0 0
263803.0 451779.0 0
269223.0 452855.0 0
273104.0 453471.0 0
276864.0 453905.0 0
280628.0 454355.0 0
290165.0 452080.0 0
293930.0 452363.0 0
297692.0 452622.0 0
301446.0 452860.0 0
305192.0 453080.0 0
308925.0 453283.0 0
312640.0 453469.0 0
316354.0 453602.0 0
321690.0 455470.0 0
344538.0 454750.0 0
348492.0 454558.0 0
352443.0 454319.0 0
356398.0 454027.0 0
360349.0 453689.0 0
364286.0 453313.0 0
368203.0 452908.0 0
372093.0 452445.0 0
382332.0 454034.0 0
386084.0 453256.0 0
389782.0 452384.0 0
396269.0 454005.0 0
399934.0 453089.0 0
406444.0 454746.0 0
413061.0 455784.0 0
416546.0 454103.0 0
419756.0 456174.0 0
423210.0 454352.0 0
71780.3 457484.0 0
78495.1 457109.0 0
81911.7 458721.0 0
85076.3 456464.0 0
88465.6 457938.0 0
94750.7 456387.0 0
98312.9 457034.0 0
107748.0 455666.0 0
111531.0 456407.0 0
115349.0 457065.0 0
125610.0 455294.0 0
129514.0 455753.0 0
133434.0 456165.0 0
137365.0 456541.0 0
141301.0 456890.0 0
145237.0 457220.0 0
155560.0 454840.0 0
159389.0 455095.0 0
163102.0 455376.0 0
166738.0 455567.0 0
170377.0 455622.0 0
177750.0 455908.0 0
181699.0 456466.0 0
185546.0 456476.0 0
189353.0 456363.0 0
193161.0 456207.0 0
196977.0 456018.0 0
200800.0 455799.0 0
204626.0 455550.0 0
208449.0 455270.0 0
212261.0 454964.0 0
216056.0 454636.0 0
229248.0 456792.0 0
232964.0 456448.0 0
236687.0 456107.0 0
240451.0 455684.0 0
244117.0 455518.0 0
250478.0 455307.0 0
257012.0 455365.0 0
263657.0 455615.0 0
267359.0 456020.0 0
271091.0 456464.0 0
284424.0 454771.0 0
288221.0 455119.0 0
292008.0 455417.0 0
295789.0 455690.0 0
299562.0 455940.0 0
303325.0 456170.0 0
307076.0 456378.0 0
310809.0 456558.0 0
314535.0 456667.0 0
318291.0 456442.0 0
325353.0 455578.0 0
329058.0 455367.0 0
332844.0 455201.0 0
336703.0 455075.0 0
340606.0 454925.0 0
354889.0 457218.0 0
358861.0 456893.0 0
362829.0 456539.0 0
366787.0 456159.0 0
370733.0 455749.0 0
374645.0 455272.0 0
378516.0 454703.0 0
384926.0 456863.0 0
388714.0 456024.0 0
392516.0 454941.0 0
399124.0 456645.0 0
402808.0 455769.0 0
409476.0 457204.0 0
416220.0 457937.0 0
423035.0 458240.0 0
426499.0 456407.0 0
68432.7 459581.0 0
75220.1 459281.0 0
78695.7 460976.0 0
85404.5 460241.0 0
92017.4 459138.0 0
95652.6 460028.0 0
101837.0 457953.0 0
105416.0 458723.0 0
119198.0 457647.0 0
123081.0 458164.0 0
126991.0 458627.0 0
130921.0 459047.0 0
134864.0 459435.0 0
138812.0 459800.0 0
149164.0 457530.0 0
153066.0 457821.0 0
156924.0 458112.0 0
160727.0 458418.0 0
164506.0 458692.0 0
168268.0 458860.0 0
172004.0 458949.0 0
175712.0 459095.0 0
187265.0 459567.0 0
191119.0 459453.0 0
194965.0 459288.0 0
198811.0 459090.0 0
202656.0 458864.0 0
206497.0 458612.0 0
210329.0 458336.0 0
214149.0 458040.0 0
217951.0 457731.0 0
221734.0 457417.0 0
225500.0 457107.0 0
238700.0 459177.0 0
242499.0 458880.0 0
246406.0 458508.0 0
250216.0 458764.0 0
253988.0 457852.0 0
257814.0 458823.0 0
261580.0 458791.0 0
265363.0 459171.0 0
274877.0 456945.0 0
278657.0 457375.0 0
282450.0 457781.0 0
286258.0 458152.0 0
290066.0 458476.0 0
293870.0 458764.0 0
297668.0 459027.0 0
301461.0 459269.0 0
305247.0 459487.0 0
309028.0 459675.0 0
323949.0 459004.0 0
327637.0 458757.0 0
331387.0 458525.0 0
335197.0 458328.0 0
339070.0 458137.0 0
342986.0 457932.0 0
346935.0 457714.0 0
350919.0 457501.0 0
361329.0 459773.0 0
365310.0 459410.0 0
369287.0 459024.0 0
373269.0 458628.0 0
377201.0 458134.0 0
381089.0 457552.0 0
391603.0 458438.0 0
395384.0 457522.0 0
402027.0 459321.0 0
405774.0 458350.0 0
408773.0 460894.0 0
412569.0 459600.0 0
419489.0 460035.0 0
427585.0 460075.0 0
431340.0 459432.0 0
434719.0 461548.0 0
65062.1 461690.0 0
68569.8 463544.0 0
71918.3 461415.0 0
75441.1 463222.0 0
82249.3 462532.0 0
85917.6 463983.0 0
89023.3 461613.0 0
92739.6 462750.0 0
99252.4 460882.0 0
102898.0 461750.0 0
109091.0 459372.0 0
112860.0 460003.0 0
116692.0 460574.0 0
120568.0 461084.0 0
124480.0 461544.0 0
128416.0 461962.0 0
132367.0 462352.0 0
142758.0 460147.0 0
146695.0 460479.0 0
150614.0 460799.0 0
154505.0 461117.0 0
158366.0 461441.0 0
162208.0 461748.0 0
166040.0 462001.0 0
169844.0 462179.0 0
179472.0 459338.0 0
183386.0 459579.0 0
200666.0 462175.0 0
204527.0 461947.0 0
208380.0 461697.0 0
212223.0 461428.0 0
216051.0 461147.0 0
219863.0 460858.0 0
223660.0 460569.0 0
227441.0 460281.0 0
231200.0 459990.0 0
234914.0 459602.0 0
244509.0 461970.0 0
248277.0 461907.0 0
252169.0 461852.0 0
255873.0 461949.0 0
269128.0 459569.0 0
272897.0 459994.0 0
276686.0 460427.0 0
280483.0 460829.0 0
284292.0 461202.0 0
288110.0 461541.0 0
291931.0 461845.0 0
295752.0 462120.0 0
312812.0 459798.0 0
316622.0 459733.0 0
320389.0 459360.0 0
326174.0 462207.0 0
329916.0 461920.0 0
333706.0 461663.0 0
337551.0 461421.0 0
341441.0 461177.0 0
345366.0 460926.0 0
349320.0 460670.0 0
353371.0 460442.0 0
357348.0 460118.0 0
367774.0 462308.0 0
371753.0 461924.0 0
375821.0 461543.0 0
379764.0 461037.0 0
383672.0 460445.0 0
387535.0 459707.0 0
390670.0 461882.0 0
394484.0 461038.0 0
398264.0 460183.0 0
404963.0 461961.0 0
411727.0 463416.0 0
415816.0 461760.0 0
420934.0 463603.0 0
424250.0 461897.0 0
431307.0 463369.0 0
72108.3 465375.0 0
79036.4 464868.0 0
82728.5 466323.0 0
89688.2 465292.0 0
96480.3 463737.0 0
100218.0 464670.0 0
106600.0 462437.0 0
110366.0 463018.0 0
114190.0 463563.0 0
118067.0 464058.0 0
121979.0 464506.0 0
125919.0 464918.0 0
136326.0 462723.0 0
140288.0 463087.0 0
144239.0 463438.0 0
148178.0 463778.0 0
152099.0 464114.0 0
156002.0 464452.0 0
159891.0 464785.0 0
163768.0 465089.0 0
173615.0 462328.0 0
177390.0 462489.0 0
181227.0 462636.0 0
185136.0 462724.0 0
189037.0 462675.0 0
192922.0 462549.0 0
196798.0 462378.0 0
210280.0 464806.0 0
214132.0 464548.0 0
217970.0 464282.0 0
221796.0 464014.0 0
225610.0 463749.0 0
229412.0 463486.0 0
233202.0 463220.0 0
236904.0 462666.0 0
240682.0 462284.0 0
259691.0 462144.0 0
263421.0 462351.0 0
267179.0 462709.0 0
270946.0 463101.0 0
274724.0 463507.0 0
278519.0 463907.0 0
282325.0 464280.0 0
286145.0 464623.0 0
299573.0 462371.0 0
303395.0 462598.0 0
307219.0 462796.0 0
311050.0 462941.0 0
314895.0 462963.0 0
318728.0 462797.0 0
322470.0 462531.0 0
332189.0 465066.0 0
336027.0 464772.0 0
339902.0 464486.0 0
343809.0 464202.0 0
347742.0 463916.0 0
351697.0 463618.0 0
355829.0 463381.0 0
359805.0 463031.0 0
363789.0 462675.0 0
374189.0 464853.0 0
378347.0 464495.0 0
382303.0 463996.0 0
386224.0 463397.0 0
389628.0 465292.0 0
393500.0 464556.0 0
397325.0 463738.0 0
401140.0 462888.0 0
403993.0 465597.0 0
407844.0 464625.0 0
417557.0 465168.0 0
424167.0 465881.0 0
427536.0 464023.0 0
79587.9 468772.0 0
86532.1 467721.0 0
90514.9 468984.0 0
93533.8 466399.0 0
97366.3 467469.0 0
104007.0 465496.0 0
107835.0 466084.0 0
111679.0 466606.0 0
115566.0 467085.0 0
119490.0 467517.0 0
129877.0 465301.0 0
133845.0 465668.0 0
137818.0 466032.0 0
141793.0 466406.0 0
145753.0 466762.0 0
149701.0 467111.0 0
153633.0 467461.0 0
167626.0 465341.0 0
171457.0 465539.0 0
175276.0 465695.0 0
179121.0 465810.0 0
183009.0 465875.0 0
186936.0 465874.0 0
190856.0 465793.0 0
194763.0 465656.0 0
198658.0 465480.0 0
202542.0 465276.0 0
206416.0 465050.0 0
219906.0 467446.0 0
223743.0 467199.0 0
227570.0 466958.0 0
231385.0 466727.0 0
235178.0 466541.0 0
238831.0 465730.0 0
242619.0 465388.0 0
246398.0 465228.0 0
250203.0 465165.0 0
253974.0 465248.0 0
257734.0 465382.0 0
261499.0 465609.0 0
265243.0 465888.0 0
269003.0 466246.0 0
272773.0 466630.0 0
276557.0 467017.0 0
280356.0 467388.0 0
289974.0 464936.0 0
293811.0 465220.0 0
297655.0 465478.0 0
301504.0 465712.0 0
305363.0 465917.0 0
309234.0 466081.0 0
313118.0 466168.0 0
316992.0 466125.0 0
320820.0 465961.0 0
324611.0 465691.0 0
328388.0 465375.0 0
342253.0 467533.0 0
346178.0 467219.0 0
350123.0 466900.0 0
354082.0 466565.0 0
358269.0 466326.0 0
362245.0 465964.0 0
366229.0 465607.0 0
370211.0 465244.0 0
380799.0 467501.0 0
384766.0 467047.0 0
396306.0 467302.0 0
400156.0 466482.0 0
410462.0 467506.0 0
414081.0 466488.0 0
420678.0 467528.0 0
83334.2 470115.0 0
87046.3 471533.0 0
94373.6 470087.0 0
101228.0 468423.0 0
105126.0 469237.0 0
123436.0 467915.0 0
127399.0 468288.0 0
131372.0 468646.0 0
135351.0 468999.0 0
139333.0 469361.0 0
143336.0 469756.0 0
147306.0 470113.0 0
157557.0 467809.0 0
161472.0 468148.0 0
165375.0 468459.0 0
169255.0 468716.0 0
173122.0 468908.0 0
176997.0 469029.0 0
180898.0 469081.0 0
184834.0 469075.0 0
188780.0 469026.0 0
192715.0 468923.0 0
196637.0 468778.0 0
200545.0 468600.0 0
204440.0 468397.0 0
208324.0 468175.0 0
212196.0 467939.0 0
216057.0 467694.0 0
233346.0 470030.0 0
237144.0 469926.0 0
240706.0 468795.0 0
244486.0 468569.0 0
248272.0 468484.0 0
252036.0 468530.0 0
255792.0 468660.0 0
259543.0 468849.0 0
263300.0 469108.0 0
267056.0 469423.0 0
270821.0 469785.0 0
284172.0 467732.0 0
288003.0 468047.0 0
291848.0 468335.0 0
295704.0 468597.0 0
299574.0 468833.0 0
303457.0 469043.0 0
307356.0 469219.0 0
311274.0 469343.0 0
315199.0 469397.0 0
319085.0 469336.0 0
322939.0 469141.0 0
326777.0 468846.0 0
330618.0 468509.0 0
334474.0 468176.0 0
338351.0 467851.0 0
348552.0 470229.0 0
352508.0 469885.0 0
356473.0 469527.0 0
360680.0 469286.0 0
364656.0 468927.0 0
368636.0 468579.0 0
372616.0 468221.0 0
376591.0 467824.0 0
388338.0 468666.0 0
392406.0 468063.0 0
399111.0 470103.0 0
402932.0 469282.0 0
406729.0 468391.0 0
413343.0 470348.0 0
417076.0 469061.0 0
420298.0 471421.0 0
83875.2 473966.0 0
90808.6 472801.0 0
94621.4 473896.0 0
98351.4 471219.0 0
102385.0 472144.0 0
109074.0 469723.0 0
113041.0 470147.0 0
117002.0 470567.0 0
120967.0 470955.0 0
124938.0 471316.0 0
128916.0 471662.0 0
132898.0 472001.0 0
136882.0 472346.0 0
140868.0 472710.0 0
151264.0 470472.0 0
155211.0 470832.0 0
159152.0 471188.0 0
163093.0 471538.0 0
167023.0 471863.0 0
170933.0 472110.0 0
174849.0 472262.0 0
178779.0 472324.0 0
182747.0 472298.0 0
186711.0 472259.0 0
190668.0 472184.0 0
194612.0 472068.0 0
198541.0 471918.0 0
202456.0 471740.0 0
206358.0 471540.0 0
210249.0 471324.0 0
214128.0 471098.0 0
217996.0 470867.0 0
221853.0 470638.0 0
225699.0 470415.0 0
229531.0 470206.0 0
242517.0 471899.0 0
246313.0 471785.0 0
250080.0 471817.0 0
253822.0 471939.0 0
257569.0 472108.0 0
261325.0 472333.0 0
274594.0 470162.0 0
278381.0 470528.0 0
282189.0 470870.0 0
286017.0 471184.0 0
289863.0 471471.0 0
293726.0 471732.0 0
297606.0 471969.0 0
301503.0 472179.0 0
305420.0 472360.0 0
309360.0 472503.0 0
325094.0 472312.0 0
328992.0 471966.0 0
332884.0 471611.0 0
336780.0 471258.0 0
340687.0 470911.0 0
344611.0 470569.0 0
354896.0 472880.0 0
358867.0 472516.0 0
363051.0 472270.0 0
367026.0 471931.0 0
370998.0 471598.0 0
374967.0 471248.0 0
378930.0 470862.0 0
383105.0 470608.0 0
387869.0 472300.0 0
391554.0 471635.0 0
395301.0 470879.0 0
405691.0 472141.0 0
409529.0 471307.0 0
416426.0 472923.0 0
87781.0 475373.0 0
91680.8 476578.0 0
106277.0 472974.0 0
110586.0 473256.0 0
114553.0 473657.0 0
118527.0 474034.0 0
122504.0 474385.0 0
126484.0 474718.0 0
130468.0 475043.0 0
134453.0 475370.0 0
144924.0 473129.0 0
148897.0 473493.0 0
152857.0 473863.0 0
156811.0 474229.0 0
160769.0 474588.0 0
164741.0 474956.0 0
200468.0 475079.0 0
204388.0 474901.0 0
208294.0 474706.0 0
212188.0 474497.0 0
216073.0 474282.0 0
219947.0 474068.0 0
223809.0 473861.0 0
227658.0 473670.0 0
231488.0 473506.0 0
235298.0 473387.0 0
239099.0 473362.0 0
265089.0 472621.0 0
268855.0 472963.0 0
272621.0 473335.0 0
276395.0 473701.0 0
280193.0 474039.0 0
284015.0 474349.0 0
287858.0 474632.0 0
291722.0 474891.0 0
295606.0 475125.0 0
313318.0 472599.0 0
317287.0 472666.0 0
321202.0 472565.0 0
331270.0 475059.0 0
335192.0 474692.0 0
339110.0 474326.0 0
343034.0 473961.0 0
346973.0 473600.0 0
350928.0 473240.0 0
365376.0 475295.0 0
369345.0 474986.0 0
373298.0 474677.0 0
377221.0 474358.0 0
381070.0 474036.0 0
384788.0 474064.0 0
390409.0 475256.0 0
394195.0 474529.0 0
398003.0 473759.0 0
401842.0 472973.0 0
408431.0 475085.0 0
412321.0 474182.0 0
419626.0 475321.0 0
84637.5 477838.0 0
88703.5 479220.0 0
96387.6 477331.0 0
99550.5 474930.0 0
103549.0 475896.0 0
108169.0 476390.0 0
112139.0 476793.0 0
116117.0 477154.0 0
120098.0 477495.0 0
124080.0 477816.0 0
138437.0 475709.0 0
142443.0 476072.0 0
146538.0 476529.0 0
150505.0 476906.0 0
154461.0 477285.0 0
158414.0 477651.0 0
168714.0 475299.0 0
172671.0 475495.0 0
176640.0 475590.0 0
180687.0 475536.0 0
184665.0 475504.0 0
188633.0 475447.0 0
192591.0 475357.0 0
196536.0 475232.0 0
214141.0 477695.0 0
218028.0 477493.0 0
221906.0 477299.0 0
225772.0 477121.0 0
229620.0 476969.0 0
233447.0 476856.0 0
237251.0 476789.0 0
241056.0 476829.0 0
244283.0 475034.0 0
248076.0 475075.0 0
251810.0 475223.0 0
255555.0 475378.0 0
259313.0 475571.0 0
263085.0 475824.0 0
266862.0 476148.0 0
270629.0 476525.0 0
274387.0 476905.0 0
278175.0 477239.0 0
281991.0 477544.0 0
299509.0 475333.0 0
303433.0 475515.0 0
307379.0 475665.0 0
311346.0 475782.0 0
315327.0 475868.0 0
319417.0 475964.0 0
323368.0 475786.0 0
327332.0 475420.0 0
337526.0 477773.0 0
341450.0 477394.0 0
345383.0 477011.0 0
349333.0 476630.0 0
353301.0 476258.0 0
357278.0 475896.0 0
361254.0 475544.0 0
375568.0 477826.0 0
379474.0 477569.0 0
383321.0 477471.0 0
387173.0 477110.0 0
392936.0 478199.0 0
396784.0 477456.0 0
400653.0 476678.0 0
404543.0 475888.0 0
415389.0 476747.0 0
93492.8 480067.0 0
97532.0 481067.0 0
100696.0 478674.0 0
105494.0 479326.0 0
128064.0 478126.0 0
132049.0 478435.0 0
136034.0 478752.0 0
140026.0 479085.0 0
144038.0 479458.0 0
148158.0 479962.0 0
152114.0 480361.0 0
162376.0 478003.0 0
166394.0 478397.0 0
170490.0 478740.0 0
174479.0 478861.0 0
178664.0 478780.0 0
182645.0 478764.0 0
186618.0 478721.0 0
190583.0 478650.0 0
194539.0 478548.0 0
198484.0 478417.0 0
202417.0 478261.0 0
206338.0 478087.0 0
210245.0 477896.0 0
227741.0 480420.0 0
231593.0 480313.0 0
235422.0 480252.0 0
239214.0 480218.0 0
242992.0 480338.0 0
245974.0 478242.0 0
249715.0 478489.0 0
253481.0 478651.0 0
257258.0 478823.0 0
261039.0 479033.0 0
264830.0 479324.0 0
268605.0 479704.0 0
272345.0 480135.0 0
285832.0 477822.0 0
289695.0 478075.0 0
293580.0 478305.0 0
297484.0 478510.0 0
301408.0 478691.0 0
305353.0 478844.0 0
309318.0 478969.0 0
313301.0 479072.0 0
317297.0 479144.0 0
321588.0 479272.0 0
325694.0 478876.0 0
329654.0 478513.0 0
333599.0 478145.0 0
343790.0 480466.0 0
347729.0 480062.0 0
351688.0 479667.0 0
355662.0 479293.0 0
359642.0 478944.0 0
363622.0 478621.0 0
367665.0 478375.0 0
371628.0 478100.0 0
399375.0 480404.0 0
403269.0 479618.0 0
407188.0 478847.0 0
102629.0 482096.0 0
109753.0 479964.0 0
113743.0 480314.0 0
117726.0 480644.0 0
121709.0 480955.0 0
125691.0 481252.0 0
129674.0 481542.0 0
133657.0 481837.0 0
137642.0 482146.0 0
141632.0 482483.0 0
145638.0 482875.0 0
156059.0 480743.0 0
160010.0 481095.0 0
163974.0 481428.0 0
168105.0 481839.0 0
172363.0 482156.0 0
176653.0 482026.0 0
180644.0 482035.0 0
184623.0 482008.0 0
188593.0 481953.0 0
192554.0 481869.0 0
196507.0 481758.0 0
200450.0 481622.0 0
204383.0 481467.0 0
208303.0 481297.0 0
212208.0 481110.0 0
216103.0 480917.0 0
219993.0 480730.0 0
223874.0 480562.0 0
247418.0 481664.0 0
251313.0 481893.0 0
255156.0 482072.0 0
258970.0 482264.0 0
262764.0 482492.0 0
266555.0 482852.0 0
276127.0 480470.0 0
279940.0 480769.0 0
283780.0 481040.0 0
287644.0 481287.0 0
291529.0 481511.0 0
295434.0 481713.0 0
299356.0 481891.0 0
303296.0 482045.0 0
307254.0 482173.0 0
311230.0 482281.0 0
315224.0 482376.0 0
319255.0 482436.0 0
324080.0 482344.0 0
328051.0 481981.0 0
332012.0 481610.0 0
335949.0 481247.0 0
339868.0 480866.0 0
350068.0 483114.0 0
354031.0 482717.0 0
358003.0 482358.0 0
361977.0 482035.0 0
365951.0 481749.0 0
369935.0 481514.0 0
373894.0 481268.0 0
377831.0 481035.0 0
381747.0 480860.0 0
385709.0 480636.0 0
389621.0 480169.0 0
395462.0 481164.0 0
401985.0 483372.0 0
405880.0 482606.0 0
92285.7 483849.0 0
96176.8 484759.0 0
100252.0 485308.0 0
107112.0 482932.0 0
111409.0 483511.0 0
115392.0 483831.0 0
119374.0 484133.0 0
123354.0 484418.0 0
127331.0 484693.0 0
131308.0 484967.0 0
135285.0 485250.0 0
139262.0 485558.0 0
143240.0 485909.0 0
149768.0 483444.0 0
153708.0 483861.0 0
157655.0 484225.0 0
161620.0 484547.0 0
165602.0 484847.0 0
169960.0 485237.0 0
174680.0 485305.0 0
178671.0 485318.0 0
182653.0 485308.0 0
186624.0 485269.0 0
190587.0 485202.0 0
194542.0 485108.0 0
198491.0 484988.0 0
202431.0 484848.0 0
206363.0 484695.0 0
210283.0 484534.0 0
214179.0 484349.0 0
218072.0 484163.0 0
221964.0 483996.0 0
225845.0 483860.0 0
229720.0 483756.0 0
233592.0 483692.0 0
237477.0 483675.0 0
241391.0 483806.0 0
245196.0 484763.0 0
249150.0 485077.0 0
253053.0 485299.0 0
270267.0 483396.0 0
274040.0 483727.0 0
277854.0 484020.0 0
281699.0 484284.0 0
285568.0 484524.0 0
289457.0 484742.0 0
293363.0 484940.0 0
297284.0 485117.0 0
301219.0 485271.0 0
305167.0 485402.0 0
321726.0 485389.0 0
326473.0 485473.0 0
330446.0 485081.0 0
334391.0 484738.0 0
338309.0 484374.0 0
342213.0 483969.0 0
346128.0 483540.0 0
356353.0 485795.0 0
360315.0 485464.0 0
364277.0 485175.0 0
368238.0 484924.0 0
372202.0 484699.0 0
376156.0 484480.0 0
380102.0 484282.0 0
384068.0 484060.0 0
388155.0 483779.0 0
392102.0 483243.0 0
398035.0 484127.0 0
95634.9 488690.0 0
104248.0 485691.0 0
108814.0 486510.0 0
113094.0 487052.0 0
117075.0 487347.0 0
121053.0 487624.0 0
125027.0 487888.0 0
128997.0 488144.0 0
147212.0 486337.0 0
151349.0 486992.0 0
155303.0 487386.0 0
159281.0 487706.0 0
163270.0 487991.0 0
204425.0 488095.0 0
208359.0 487947.0 0
212279.0 487805.0 0
216154.0 487610.0 0
220043.0 487430.0 0
223925.0 487299.0 0
227806.0 487195.0 0
231682.0 487127.0 0
235554.0 487099.0 0
239422.0 487141.0 0
243194.0 488051.0 0
256914.0 485495.0 0
260738.0 485711.0 0
264501.0 485956.0 0
268130.0 486676.0 0
271898.0 487011.0 0
275724.0 487295.0 0
279582.0 487551.0 0
283464.0 487783.0 0
287363.0 487996.0 0
309127.0 485511.0 0
313104.0 485605.0 0
317099.0 485709.0 0
336773.0 487904.0 0
340672.0 487523.0 0
344549.0 487080.0 0
348454.0 486612.0 0
352395.0 486175.0 0
370499.0 488134.0 0
374457.0 487923.0 0
378417.0 487719.0 0
382390.0 487503.0 0
386383.0 487238.0 0
390624.0 486916.0 0
394681.0 486259.0 0
400629.0 487113.0 0
101949.0 488942.0 0
105950.0 489266.0 0
110542.0 490083.0 0
132963.0 488404.0 0
136923.0 488681.0 0
140873.0 488997.0 0
144802.0 489381.0 0
148681.0 489874.0 0
167431.0 488192.0 0
172328.0 488341.0 0
176746.0 488626.0 0
180719.0 488625.0 0
184682.0 488601.0 0
188640.0 488549.0 0
192594.0 488470.0 0
196543.0 488365.0 0
200487.0 488238.0 0
221983.0 490744.0 0
225866.0 490634.0 0
229748.0 490568.0 0
233619.0 490540.0 0
237484.0 490554.0 0
247082.0 488265.0 0
250993.0 488510.0 0
254891.0 488716.0 0
258780.0 488913.0 0
262681.0 489149.0 0
269625.0 490291.0 0
273528.0 490580.0 0
291276.0 488191.0 0
295199.0 488366.0 0
299132.0 488523.0 0
303071.0 488657.0 0
307015.0 488771.0 0
310964.0 488864.0 0
314924.0 488947.0 0
319600.0 488627.0 0
324052.0 488476.0 0
328902.0 488548.0 0
332847.0 488232.0 0
346865.0 490182.0 0
350767.0 489677.0 0
354700.0 489261.0 0
358645.0 488914.0 0
362594.0 488620.0 0
366545.0 488363.0 0
388738.0 490401.0 0
393218.0 489947.0 0
397278.0 489289.0 0
99112.9 491743.0 0
103691.0 492544.0 0
107684.0 492841.0 0
114809.0 490591.0 0
118788.0 490864.0 0
122761.0 491120.0 0
126730.0 491363.0 0
130690.0 491605.0 0
134641.0 491858.0 0
138577.0 492139.0 0
142492.0 492478.0 0
146369.0 492925.0 0
152365.0 490772.0 0
156143.0 491150.0 0
159920.0 491479.0 0
163684.0 491762.0 0
167431.0 491961.0 0
171181.0 491984.0 0
174981.0 491997.0 0
178856.0 491979.0 0
182776.0 491958.0 0
186715.0 491916.0 0
190661.0 491848.0 0
194607.0 491756.0 0
198551.0 491640.0 0
202492.0 491504.0 0
206432.0 491358.0 0
210372.0 491222.0 0
214304.0 491124.0 0
218126.0 490876.0 0
241250.0 491383.0 0
245113.0 491551.0 0
248990.0 491749.0 0
252887.0 491947.0 0
256790.0 492123.0 0
260701.0 492295.0 0
265851.0 491362.0 0
277426.0 490833.0 0
281333.0 491060.0 0
285249.0 491268.0 0
289174.0 491460.0 0
293105.0 491635.0 0
297041.0 491794.0 0
300978.0 491936.0 0
304913.0 492058.0 0
308837.0 492163.0 0
312737.0 492251.0 0
316583.0 492336.0 0
320339.0 492349.0 0
324059.0 492277.0 0
327768.0 492132.0 0
331529.0 491814.0 0
335335.0 491470.0 0
339172.0 491099.0 0
343030.0 490707.0 0
349156.0 493242.0 0
353047.0 492762.0 0
356968.0 492388.0 0
360900.0 492082.0 0
364839.0 491820.0 0
368785.0 491587.0 0
372738.0 491374.0 0
376699.0 491170.0 0
380672.0 490959.0 0
384659.0 490722.0 0
395795.0 492993.0 0
400479.0 491702.0 0
100867.0 495363.0 0
112294.0 493646.0 0
116556.0 494130.0 0
120532.0 494384.0 0
124503.0 494617.0 0
128467.0 494845.0 0
132419.0 495079.0 0
136354.0 495332.0 0
140270.0 495622.0 0
144162.0 495998.0 0
150037.0 493997.0 0
153867.0 494399.0 0
157700.0 494734.0 0
161537.0 495024.0 0
165384.0 495256.0 0
169244.0 495377.0 0
173095.0 495401.0 0
176972.0 495385.0 0
180874.0 495350.0 0
184800.0 495307.0 0
188739.0 495246.0 0
192683.0 495163.0 0
196626.0 495058.0 0
200567.0 494930.0 0
204505.0 494784.0 0
208448.0 494633.0 0
212410.0 494509.0 0
219947.0 494209.0 0
223885.0 494067.0 0
227786.0 494005.0 0
231663.0 493987.0 0
235530.0 493998.0 0
239311.0 494722.0 0
243168.0 494882.0 0
247033.0 495049.0 0
250919.0 495216.0 0
254827.0 495368.0 0
258758.0 495496.0 0
263631.0 494776.0 0
267546.0 494885.0 0
271328.0 493870.0 0
275254.0 494128.0 0
279185.0 494352.0 0
283122.0 494556.0 0
287062.0 494744.0 0
291006.0 494920.0 0
294950.0 495082.0 0
298894.0 495229.0 0
302835.0 495362.0 0
306766.0 495480.0 0
310680.0 495587.0 0
314568.0 495683.0 0
318432.0 495747.0 0
322273.0 495723.0 0
326104.0 495607.0 0
329948.0 495368.0 0
333785.0 495050.0 0
337633.0 494703.0 0
341492.0 494334.0 0
345355.0 493936.0 0
351382.0 496307.0 0
355272.0 495889.0 0
359185.0 495565.0 0
363112.0 495295.0 0
367050.0 495057.0 0
370998.0 494841.0 0
374956.0 494636.0 0
378927.0 494429.0 0
382909.0 494206.0 0
386946.0 493935.0 0
391295.0 493420.0 0
398976.0 495408.0 0
105451.0 496133.0 0
109448.0 496413.0 0
114067.0 497202.0 0
118330.0 497675.0 0
122312.0 497900.0 0
126285.0 498116.0 0
130247.0 498335.0 0
134194.0 498565.0 0
147709.0 497498.0 0
151591.0 497658.0 0
155474.0 497998.0 0
159370.0 498286.0 0
163276.0 498529.0 0
194710.0 498491.0 0
198652.0 498374.0 0
202588.0 498235.0 0
206517.0 498076.0 0
210445.0 497915.0 0
214375.0 497814.0 0
218161.0 497719.0 0
221975.0 497514.0 0
225820.0 497438.0 0
229685.0 497435.0 0
233553.0 497456.0 0
237355.0 498059.0 0
241212.0 498232.0 0
245080.0 498388.0 0
273084.0 497444.0 0
277036.0 497663.0 0
280991.0 497860.0 0
284948.0 498044.0 0
288905.0 498218.0 0
292860.0 498383.0 0
336006.0 498299.0 0
339889.0 497959.0 0
343769.0 497596.0 0
347640.0 497284.0 0
365287.0 498542.0 0
369233.0 498322.0 0
373189.0 498116.0 0
377157.0 497912.0 0
381138.0 497700.0 0
385136.0 497461.0 0
389494.0 496963.0 0
393836.0 496467.0 0
99742.7 499198.0 0
103705.0 499716.0 0
107690.0 499978.0 0
111664.0 500354.0 0
115847.0 500762.0 0
138124.0 498820.0 0
142036.0 499118.0 0
167192.0 498700.0 0
171108.0 498785.0 0
175022.0 498794.0 0
178943.0 498765.0 0
182874.0 498719.0 0
186815.0 498660.0 0
190762.0 498585.0 0
212482.0 501190.0 0
223732.0 500948.0 0
227637.0 500870.0 0
231529.0 500911.0 0
248966.0 498531.0 0
252878.0 498655.0 0
256821.0 498745.0 0
261369.0 498343.0 0
265317.0 498297.0 0
269257.0 498387.0 0
274902.0 501001.0 0
296814.0 498534.0 0
300766.0 498674.0 0
304712.0 498801.0 0
308650.0 498919.0 0
312576.0 499026.0 0
316492.0 499106.0 0
320405.0 499126.0 0
324312.0 499052.0 0
328221.0 498873.0 0
332120.0 498613.0 0
353529.0 499410.0 0
357434.0 499066.0 0
361353.0 498786.0 0
383330.0 500986.0 0
387675.0 500504.0 0
392021.0 500022.0 0
396012.0 499796.0 0
399974.0 499278.0 0
101496.0 503044.0 0
105484.0 503297.0 0
120155.0 501207.0 0
124139.0 501411.0 0
128112.0 501615.0 0
132078.0 501828.0 0
136032.0 502056.0 0
139977.0 502306.0 0
145412.0 501034.0 0
149336.0 501101.0 0
153255.0 501285.0 0
157191.0 501560.0 0
161140.0 501802.0 0
165099.0 502003.0 0
169057.0 502135.0 0
173013.0 502186.0 0
176969.0 502177.0 0
180923.0 502140.0 0
184878.0 502085.0 0
188837.0 502016.0 0
192796.0 501933.0 0
196749.0 501830.0 0
200692.0 501705.0 0
204625.0 501553.0 0
208549.0 501373.0 0
218807.0 501624.0 0
235356.0 501385.0 0
239222.0 501585.0 0
243105.0 501746.0 0
247004.0 501878.0 0
250926.0 501983.0 0
254880.0 502047.0 0
259137.0 501861.0 0
263109.0 501839.0 0
267077.0 501802.0 0
271041.0 501849.0 0
278871.0 501186.0 0
282841.0 501360.0 0
286809.0 501531.0 0
290774.0 501696.0 0
294737.0 501850.0 0
298700.0 501993.0 0
302660.0 502126.0 0
306618.0 502250.0 0
310574.0 502364.0 0
314530.0 502459.0 0
318486.0 502507.0 0
322448.0 502481.0 0
326411.0 502346.0 0
330363.0 502138.0 0
334297.0 501874.0 0
338214.0 501567.0 0
342124.0 501237.0 0
346023.0 500919.0 0
349938.0 500901.0 0
355618.0 502571.0 0
359547.0 502287.0 0
363485.0 502038.0 0
367436.0 501813.0 0
371395.0 501608.0 0
375362.0 501408.0 0
379340.0 501204.0 0
394193.0 503356.0 0
398187.0 503142.0 0
109462.0 503671.0 0
113450.0 503929.0 0
117687.0 504297.0 0
122019.0 504729.0 0
126003.0 504922.0 0
129982.0 505110.0 0
133960.0 505321.0 0
137930.0 505540.0 0
143134.0 504648.0 0
147098.0 504604.0 0
151062.0 504676.0 0
155018.0 504864.0 0
158994.0 505087.0 0
162980.0 505295.0 0
166975.0 505472.0 0
170967.0 505564.0 0
174961.0 505578.0 0
178945.0 505558.0 0
182921.0 505515.0 0
186897.0 505452.0 0
190872.0 505375.0 0
194846.0 505290.0 0
198806.0 505183.0 0
202755.0 505045.0 0
206690.0 504878.0 0
210605.0 504658.0 0
214537.0 504401.0 0
218153.0 505552.0 0
221754.0 504311.0 0
225617.0 504438.0 0
229476.0 504328.0 0
233303.0 504700.0 0
237181.0 504936.0 0
241089.0 505109.0 0
245016.0 505246.0 0
248954.0 505343.0 0
252921.0 505393.0 0
257069.0 505284.0 0
261049.0 505275.0 0
265014.0 505264.0 0
268967.0 505257.0 0
272921.0 505274.0 0
276794.0 504553.0 0
280757.0 504701.0 0
284727.0 504860.0 0
288696.0 505024.0 0
292665.0 505178.0 0
296635.0 505322.0 0
300606.0 505457.0 0
304577.0 505584.0 0
308551.0 505700.0 0
312531.0 505804.0 0
316521.0 505882.0 0
320518.0 505888.0 0
324557.0 505804.0 0
328549.0 505633.0 0
332525.0 505417.0 0
336480.0 505158.0 0
340419.0 504851.0 0
344349.0 504545.0 0
348286.0 504503.0 0
352229.0 504538.0 0
357681.0 505785.0 0
361637.0 505538.0 0
365603.0 505309.0 0
369571.0 505106.0 0
373543.0 504912.0 0
377521.0 504716.0 0
381509.0 504508.0 0
385846.0 504048.0 0
390199.0 503575.0 0
100189.0 507110.0 0
104177.0 507071.0 0
108138.0 507439.0 0
112099.0 507674.0 0
116049.0 507903.0 0
119992.0 508108.0 0
123942.0 508269.0 0
127904.0 508425.0 0
131880.0 508596.0 0
135884.0 508811.0 0
140949.0 508108.0 0
144930.0 508184.0 0
148908.0 508127.0 0
152881.0 508225.0 0
156859.0 508400.0 0
160847.0 508600.0 0
164843.0 508788.0 0
168901.0 508931.0 0
188931.0 508821.0 0
192923.0 508738.0 0
196917.0 508661.0 0
200894.0 508542.0 0
204857.0 508391.0 0
208809.0 508203.0 0
212734.0 507888.0 0
223069.0 508074.0 0
227067.0 508139.0 0
231066.0 507952.0 0
235042.0 508266.0 0
239015.0 508467.0 0
242988.0 508610.0 0
246961.0 508732.0 0
250943.0 508768.0 0
255022.0 508715.0 0
259008.0 508707.0 0
262981.0 508704.0 0
266941.0 508701.0 0
270889.0 508702.0 0
274831.0 508698.0 0
278712.0 508088.0 0
282665.0 508214.0 0
286630.0 508370.0 0
290601.0 508522.0 0
294572.0 508667.0 0
298549.0 508799.0 0
334695.0 508724.0 0
338668.0 508461.0 0
342623.0 508156.0 0
346573.0 508091.0 0
350529.0 508126.0 0
354493.0 508118.0 0
359744.0 509040.0 0
363733.0 508802.0 0
367718.0 508603.0 0
371698.0 508422.0 0
375680.0 508235.0 0
379668.0 508036.0 0
383666.0 507824.0 0
387651.0 507590.0 0
391625.0 507297.0 0
395605.0 507088.0 0
399595.0 507103.0 0
101981.0 511025.0 0
105965.0 511002.0 0
109941.0 511025.0 0
172946.0 508972.0 0
176951.0 508970.0 0
180946.0 508946.0 0
184939.0 508890.0 0
214882.0 511050.0 0
218474.0 509412.0 0
302527.0 508927.0 0
306510.0 509045.0 0
310498.0 509151.0 0
314494.0 509244.0 0
318548.0 509290.0 0
322629.0 509233.0 0
326707.0 509115.0 0
330710.0 508932.0 0
385846.0 511154.0 0
389987.0 510999.0 0
394000.0 511002.0 0
398000.0 511025.0 0
113905.0 511243.0 0
117873.0 511456.0 0
121849.0 511635.0 0
125823.0 511780.0 0
129797.0 511916.0 0
133776.0 512068.0 0
138823.0 511513.0 0
142817.0 511627.0 0
146805.0 511694.0 0
150784.0 511633.0 0
154750.0 511754.0 0
158726.0 511932.0 0
162716.0 512118.0 0
166768.0 512269.0 0
170898.0 512355.0 0
174943.0 512382.0 0
178946.0 512374.0 0
182969.0 512332.0 0
186972.0 512267.0 0
190979.0 512192.0 0
194975.0 512106.0 0
199031.0 512037.0 0
203021.0 511906.0 0
207002.0 511736.0 0
210966.0 511533.0 0
217982.0 513338.0 0
221592.0 511786.0 0
225453.0 512131.0 0
229277.0 511457.0 0
233183.0 511750.0 0
237094.0 511921.0 0
241047.0 512033.0 0
245003.0 512156.0 0
248990.0 512184.0 0
252990.0 512154.0 0
256985.0 512146.0 0
260964.0 512146.0 0
264934.0 512148.0 0
268889.0 512151.0 0
272836.0 512149.0 0
276768.0 512124.0 0
280658.0 511629.0 0
284598.0 511755.0 0
288551.0 511884.0 0
292516.0 512032.0 0
296494.0 512156.0 0
300473.0 512283.0 0
304458.0 512402.0 0
308449.0 512510.0 0
312446.0 512608.0 0
316509.0 512664.0 0
320664.0 512655.0 0
324779.0 512567.0 0
328862.0 512435.0 0
332856.0 512262.0 0
336891.0 512037.0 0
340900.0 511763.0 0
344890.0 511710.0 0
348883.0 511758.0 0
352879.0 511763.0 0
356876.0 511813.0 0
361854.0 512295.0 0
365841.0 512093.0 0
369832.0 511930.0 0
373826.0 511758.0 0
377822.0 511569.0 0
381821.0 511363.0 0
101553.0 515036.0 0
105542.0 515012.0 0
109519.0 514997.0 0
113481.0 515198.0 0
117437.0 515402.0 0
121389.0 515573.0 0
125341.0 515704.0 0
129296.0 515808.0 0
133264.0 515917.0 0
137208.0 515252.0 0
141193.0 515283.0 0
145163.0 515338.0 0
149120.0 515266.0 0
153066.0 515363.0 0
157009.0 515514.0 0
160956.0 515670.0 0
164918.0 515777.0 0
168896.0 515785.0 0
172892.0 515787.0 0
176928.0 515804.0 0
180970.0 515770.0 0
185003.0 515720.0 0
189017.0 515646.0 0
193034.0 515570.0 0
197045.0 515470.0 0
201191.0 515431.0 0
205187.0 515264.0 0
209834.0 515350.0 0
213835.0 514851.0 0
223022.0 515513.0 0
227064.0 515774.0 0
230989.0 515040.0 0
234963.0 515462.0 0
238992.0 515404.0 0
242978.0 515583.0 0
246995.0 515601.0 0
250992.0 515637.0 0
254986.0 515589.0 0
258968.0 515599.0 0
262943.0 515594.0 0
266907.0 515608.0 0
270866.0 515603.0 0
274818.0 515604.0 0
278761.0 515534.0 0
282652.0 515215.0 0
286572.0 515312.0 0
290504.0 515447.0 0
294452.0 515533.0 0
298419.0 515658.0 0
302401.0 515775.0 0
306392.0 515886.0 0
310390.0 515982.0 0
314454.0 516043.0 0
318616.0 516044.0 0
322814.0 516012.0 0
326938.0 515912.0 0
330936.0 515818.0 0
334914.0 515657.0 0
338878.0 515491.0 0
342840.0 515344.0 0
346811.0 515291.0 0
350790.0 515291.0 0
354776.0 515286.0 0
358768.0 515367.0 0
363062.0 515997.0 0
367011.0 515828.0 0
370930.0 515723.0 0
374842.0 515592.0 0
378759.0 515430.0 0
382682.0 515240.0 0
386614.0 515071.0 0
390566.0 515005.0 0
394535.0 515016.0 0
398520.0 515041.0 0
213724.0 518808.0 0
219154.0 517006.0 0
229876.0 518829.0 0
102000.0 519025.0 0
106000.0 519002.0 0
110002.0 518989.0 0
114081.0 519136.0 0
118168.0 519311.0 0
122186.0 519466.0 0
126232.0 519569.0 0
130293.0 519621.0 0
134283.0 519685.0 0
138217.0 519171.0 0
142193.0 519177.0 0
146176.0 519216.0 0
150165.0 519147.0 0
154161.0 519203.0 0
158200.0 519316.0 0
162197.0 519449.0 0
166193.0 519542.0 0
170187.0 519549.0 0
174179.0 519539.0 0
178167.0 519562.0 0
182148.0 519543.0 0
186121.0 519509.0 0
190085.0 519444.0 0
194041.0 519390.0 0
197989.0 519299.0 0
201932.0 519340.0 0
205872.0 519178.0 0
209813.0 519339.0 0
217304.0 520478.0 0
222117.0 519534.0 0
226039.0 519634.0 0
233767.0 519398.0 0
237688.0 519121.0 0
241631.0 519412.0 0
245577.0 519291.0 0
249540.0 519465.0 0
253495.0 519274.0 0
257461.0 519290.0 0
261424.0 519267.0 0
265394.0 519295.0 0
269362.0 519280.0 0
273336.0 519306.0 0
277306.0 519219.0 0
281286.0 519099.0 0
285256.0 519069.0 0
289219.0 519218.0 0
293180.0 519295.0 0
297141.0 519419.0 0
301103.0 519522.0 0
305071.0 519624.0 0
309046.0 519705.0 0
313034.0 519743.0 0
317029.0 519684.0 0
321117.0 519610.0 0
325305.0 519540.0 0
329433.0 519509.0 0
333636.0 519431.0 0
337767.0 519330.0 0
341759.0 519280.0 0
345744.0 519235.0 0
349720.0 519217.0 0
353688.0 519229.0 0
357646.0 519249.0 0
361577.0 519623.0 0
365554.0 519485.0 0
369731.0 519506.0 0
373901.0 519460.0 0
377930.0 519327.0 0
381952.0 519154.0 0
385992.0 519030.0 0
389999.0 518995.0 0
394000.0 519002.0 0
398000.0 519025.0 0
101967.0 523025.0 0
105966.0 523002.0 0
109963.0 522989.0 0
113956.0 523120.0 0
117947.0 523284.0 0
121937.0 523435.0 0
125928.0 523529.0 0
129920.0 523555.0 0
133914.0 523584.0 0
137981.0 523172.0 0
141985.0 523171.0 0
145984.0 523211.0 0
149983.0 523143.0 0
153981.0 523192.0 0
157978.0 523296.0 0
161974.0 523422.0 0
165972.0 523512.0 0
169972.0 523523.0 0
173974.0 523511.0 0
177988.0 523524.0 0
182006.0 523502.0 0
186026.0 523468.0 0
190056.0 523401.0 0
194070.0 523351.0 0
198104.0 523255.0 0
202118.0 523313.0 0
206115.0 523148.0 0
210110.0 523314.0 0
214072.0 522803.0 0
218743.0 524153.0 0
222655.0 523445.0 0
226618.0 523578.0 0
230500.0 522765.0 0
234431.0 523335.0 0
238394.0 523018.0 0
242352.0 523364.0 0
246328.0 523186.0 0
250295.0 523448.0 0
254269.0 523185.0 0
258255.0 523204.0 0
262244.0 523164.0 0
266234.0 523197.0 0
270226.0 523164.0 0
274218.0 523200.0 0
278211.0 523085.0 0
282202.0 523068.0 0
286196.0 522948.0 0
290191.0 523090.0 0
294260.0 523128.0 0
298258.0 523242.0 0
302353.0 523297.0 0
306348.0 523389.0 0
310338.0 523459.0 0
314320.0 523503.0 0
318296.0 523459.0 0
322270.0 523427.0 0
326244.0 523415.0 0
330218.0 523421.0 0
334194.0 523381.0 0
338171.0 523309.0 0
342153.0 523266.0 0
346138.0 523223.0 0
350128.0 523202.0 0
354121.0 523219.0 0
358117.0 523239.0 0
362121.0 523511.0 0
366111.0 523392.0 0
370096.0 523462.0 0
374082.0 523440.0 0
378068.0 523314.0 0
382054.0 523139.0 0
386045.0 523030.0 0
390040.0 522994.0 0
394036.0 523002.0 0
398034.0 523025.0 0
102000.0 527025.0 0
106000.0 527002.0 0
110000.0 526989.0 0
114005.0 527108.0 0
118006.0 527266.0 0
122004.0 527414.0 0
126003.0 527504.0 0
130002.0 527513.0 0
134001.0 527512.0 0
137984.0 527171.0 0
141982.0 527169.0 0
145978.0 527209.0 0
149974.0 527142.0 0
153969.0 527186.0 0
157963.0 527283.0 0
161955.0 527403.0 0
165948.0 527488.0 0
169940.0 527501.0 0
173932.0 527491.0 0
177922.0 527495.0 0
181911.0 527469.0 0
185899.0 527434.0 0
189886.0 527362.0 0
193872.0 527315.0 0
197857.0 527215.0 0
201843.0 527282.0 0
205824.0 527116.0 0
209804.0 527293.0 0
213752.0 526783.0 0
217558.0 527933.0 0
221485.0 527231.0 0
225680.0 527451.0 0
229971.0 526858.0 0
233943.0 527295.0 0
237926.0 526963.0 0
241917.0 527339.0 0
245910.0 527137.0 0
249971.0 527433.0 0
253961.0 527164.0 0
257960.0 527189.0 0
261958.0 527137.0 0
265957.0 527178.0 0
269955.0 527135.0 0
273953.0 527183.0 0
277949.0 527049.0 0
281947.0 527063.0 0
285943.0 526932.0 0
289936.0 527075.0 0
293931.0 527099.0 0
297925.0 527213.0 0
301919.0 527251.0 0
305913.0 527343.0 0
309910.0 527408.0 0
313908.0 527457.0 0
317908.0 527423.0 0
321940.0 527401.0 0
325955.0 527392.0 0
329963.0 527402.0 0
333977.0 527365.0 0
337989.0 527303.0 0
341989.0 527262.0 0
345988.0 527220.0 0
349987.0 527199.0 0
353985.0 527216.0 0
357982.0 527236.0 0
361974.0 527443.0 0
365972.0 527342.0 0
369978.0 527436.0 0
373988.0 527427.0 0
377993.0 527305.0 0
381998.0 527129.0 0
385999.0 527029.0 0
390000.0 526994.0 0
394000.0 527002.0 0
398000.0 527025.0 0
102000.0 531025.0 0
106000.0 531002.0 0
110000.0 530989.0 0
114000.0 531098.0 0
117997.0 531250.0 0
121995.0 531396.0 0
125994.0 531483.0 0
129994.0 531478.0 0
133994.0 531451.0 0
138000.0 531169.0 0
142000.0 531167.0 0
146000.0 531207.0 0
150000.0 531142.0 0
154001.0 531180.0 0
158003.0 531271.0 0
162008.0 531385.0 0
166015.0 531465.0 0
170017.0 531479.0 0
174020.0 531471.0 0
178021.0 531470.0 0
182025.0 531440.0 0
186025.0 531405.0 0
190031.0 531330.0 0
194031.0 531286.0 0
198033.0 531186.0 0
202036.0 531258.0 0
206041.0 531092.0 0
210036.0 531276.0 0
214014.0 530868.0 0
218311.0 531822.0 0
222242.0 531129.0 0
226218.0 531402.0 0
230166.0 530852.0 0
234131.0 531283.0 0
238106.0 530937.0 0
242076.0 531335.0 0
246062.0 531109.0 0
250041.0 531431.0 0
254026.0 531156.0 0
258021.0 531185.0 0
262017.0 531122.0 0
266014.0 531170.0 0
270012.0 531114.0 0
274010.0 531174.0 0
278006.0 531022.0 0
282005.0 531062.0 0
286003.0 530925.0 0
290003.0 531068.0 0
294009.0 531082.0 0
298011.0 531197.0 0
302019.0 531228.0 0
306018.0 531320.0 0
310017.0 531379.0 0
314016.0 531431.0 0
318014.0 531404.0 0
322013.0 531388.0 0
326011.0 531379.0 0
330010.0 531391.0 0
334008.0 531356.0 0
338007.0 531302.0 0
342006.0 531262.0 0
346005.0 531220.0 0
350004.0 531198.0 0
354004.0 531216.0 0
358004.0 531233.0 0
362008.0 531385.0 0
366007.0 531298.0 0
370005.0 531416.0 0
374005.0 531418.0 0
378004.0 531299.0 0
382000.0 531121.0 0
386000.0 531029.0 0
390000.0 530994.0 0
394000.0 531002.0 0
398000.0 531025.0 0
102000.0 535025.0 0
106000.0 535002.0 0
110000.0 534989.0 0
114000.0 535090.0 0
118001.0 535236.0 0
122001.0 535381.0 0
126002.0 535465.0 0
130003.0 535449.0 0
134003.0 535400.0 0
137999.0 535166.0 0
141998.0 535164.0 0
145998.0 535205.0 0
149997.0 535141.0 0
153996.0 535175.0 0
157994.0 535261.0 0
161991.0 535369.0 0
165989.0 535443.0 0
169988.0 535459.0 0
173986.0 535452.0 0
177984.0 535449.0 0
181982.0 535417.0 0
185979.0 535383.0 0
189976.0 535306.0 0
193973.0 535266.0 0
197968.0 535166.0 0
201964.0 535240.0 0
205957.0 535076.0 0
209949.0 535265.0 0
213924.0 534866.0 0
217818.0 535757.0 0
221883.0 535088.0 0
225945.0 535378.0 0
230000.0 534881.0 0
233990.0 535271.0 0
237995.0 534920.0 0
241998.0 535332.0 0
245990.0 535086.0 0
250000.0 535429.0 0
253998.0 535151.0 0
257999.0 535182.0 0
261998.0 535108.0 0
265998.0 535162.0 0
269998.0 535095.0 0
273999.0 535165.0 0
277999.0 534998.0 0
282000.0 535062.0 0
286000.0 534919.0 0
289999.0 535061.0 0
293999.0 535067.0 0
297997.0 535182.0 0
301997.0 535207.0 0
305996.0 535298.0 0
309995.0 535353.0 0
313996.0 535407.0 0
317997.0 535386.0 0
321998.0 535375.0 0
325999.0 535366.0 0
329999.0 535380.0 0
333999.0 535346.0 0
338000.0 535300.0 0
342000.0 535260.0 0
346000.0 535219.0 0
350000.0 535196.0 0
354000.0 535215.0 0
358000.0 535229.0 0
361999.0 535335.0 0
365999.0 535261.0 0
369998.0 535399.0 0
373999.0 535411.0 0
378000.0 535294.0 0
382000.0 535117.0 0
386000.0 535028.0 0
390000.0 534994.0 0
394000.0 535002.0 0
398000.0 535025.0 0
102000.0 539025.0 0
106000.0 539002.0 0
110000.0 538989.0 0
114000.0 539083.0 0
118000.0 539224.0 0
122000.0 539368.0 0
126000.0 539451.0 0
129999.0 539425.0 0
133999.0 539359.0 0
138000.0 539162.0 0
142000.0 539161.0 0
146000.0 539203.0 0
150000.0 539141.0 0
154000.0 539171.0 0
158000.0 539251.0 0
162000.0 539354.0 0
166001.0 539423.0 0
170001.0 539440.0 0
174001.0 539435.0 0
178001.0 539432.0 0
182001.0 539398.0 0
186002.0 539365.0 0
190002.0 539287.0 0
194002.0 539250.0 0
198003.0 539150.0 0
202003.0 539225.0 0
206005.0 539061.0 0
210007.0 539255.0 0
214000.0 538888.0 0
218130.0 539714.0 0
222073.0 539061.0 0
226059.0 539362.0 0
230028.0 538881.0 0
234008.0 539264.0 0
238000.0 538908.0 0
242000.0 539330.0 0
246001.0 539066.0 0
250000.0 539428.0 0
254000.0 539146.0 0
258000.0 539180.0 0
262000.0 539096.0 0
266000.0 539154.0 0
270000.0 539078.0 0
274000.0 539157.0 0
278000.0 538976.0 0
282000.0 539062.0 0
286000.0 538914.0 0
290000.0 539055.0 0
294000.0 539053.0 0
298000.0 539169.0 0
302000.0 539188.0 0
306001.0 539278.0 0
310001.0 539328.0 0
314000.0 539385.0 0
318000.0 539369.0 0
322000.0 539362.0 0
326000.0 539355.0 0
330000.0 539369.0 0
334000.0 539338.0 0
338000.0 539298.0 0
342000.0 539259.0 0
346000.0 539218.0 0
350000.0 539195.0 0
354000.0 539215.0 0
358000.0 539224.0 0
362000.0 539293.0 0
366000.0 539229.0 0
370000.0 539385.0 0
374000.0 539407.0 0
378000.0 539291.0 0
382000.0 539113.0 0
386000.0 539028.0 0
390000.0 538994.0 0
394000.0 539002.0 0
398000.0 539025.0 0
102000.0 543025.0 0
106000.0 543002.0 0
110000.0 542988.0 0
114000.0 543078.0 0
118000.0 543213.0 0
122000.0 543356.0 0
126000.0 543439.0 0
130000.0 543405.0 0
134000.0 543325.0 0
138000.0 543158.0 0
142000.0 543158.0 0
146000.0 543201.0 0
150000.0 543140.0 0
154000.0 543168.0 0
158000.0 543243.0 0
162000.0 543342.0 0
166000.0 543405.0 0
170000.0 543423.0 0
174000.0 543419.0 0
178000.0 543417.0 0
182000.0 543382.0 0
186000.0 543350.0 0
190000.0 543271.0 0
194000.0 543237.0 0
198000.0 543137.0 0
202000.0 543212.0 0
206000.0 543049.0 0
209999.0 543247.0 0
213991.0 542888.0 0
217910.0 543680.0 0
221988.0 543041.0 0
225995.0 543349.0 0
230000.0 542882.0 0
234000.0 543257.0 0
238000.0 542899.0 0
242000.0 543329.0 0
246000.0 543049.0 0
250000.0 543427.0 0
254000.0 543142.0 0
258000.0 543178.0 0
262000.0 543085.0 0
266000.0 543148.0 0
270000.0 543062.0 0
274000.0 543150.0 0
278000.0 542956.0 0
282000.0 543062.0 0
286000.0 542910.0 0
290000.0 543050.0 0
294000.0 543041.0 0
298000.0 543157.0 0
302000.0 543170.0 0
306000.0 543260.0 0
310000.0 543306.0 0
314000.0 543365.0 0
318000.0 543353.0 0
322000.0 543350.0 0
326000.0 543344.0 0
330000.0 543360.0 0
334000.0 543331.0 0
338000.0 543296.0 0
342000.0 543257.0 0
346000.0 543217.0 0
350000.0 543193.0 0
354000.0 543214.0 0
358000.0 543219.0 0
362000.0 543258.0 0
366000.0 543203.0 0
370000.0 543374.0 0
374000.0 543403.0 0
378000.0 543288.0 0
382000.0 543110.0 0
386000.0 543027.0 0
390000.0 542994.0 0
394000.0 543002.0 0
398000.0 543025.0 0
102000.0 547025.0 0
106000.0 547002.0 0
110000.0 546988.0 0
114000.0 547073.0 0
118000.0 547205.0 0
122000.0 547347.0 0
126000.0 547429.0 0
130000.0 547389.0 0
134000.0 547298.0 0
138000.0 547153.0 0
142000.0 547155.0 0
146000.0 547199.0 0
150000.0 547139.0 0
154000.0 547165.0 0
158000.0 547236.0 0
162000.0 547331.0 0
166000.0 547389.0 0
170000.0 547408.0 0
174000.0 547404.0 0
178000.0 547404.0 0
182000.0 547368.0 0
186000.0 547338.0 0
190000.0 547258.0 0
194000.0 547226.0 0
198000.0 547126.0 0
202000.0 547201.0 0
206000.0 547039.0 0
210000.0 547239.0 0
214000.0 546888.0 0
222001.0 547024.0 0
226000.0 547337.0 0
230000.0 546882.0 0
234000.0 547251.0 0
238000.0 546893.0 0
242000.0 547327.0 0
246000.0 547034.0 0
250000.0 547426.0 0
254000.0 547139.0 0
258000.0 547176.0 0
262000.0 547075.0 0
266000.0 547142.0 0
270000.0 547047.0 0
274000.0 547144.0 0
278000.0 546940.0 0
282000.0 547062.0 0
286000.0 546906.0 0
290000.0 547046.0 0
294000.0 547030.0 0
298000.0 547147.0 0
302000.0 547153.0 0
306000.0 547243.0 0
310000.0 547286.0 0
314000.0 547346.0 0
318000.0 547339.0 0
322000.0 547340.0 0
326000.0 547335.0 0
330000.0 547351.0 0
334000.0 547324.0 0
338000.0 547294.0 0
342000.0 547256.0 0
346000.0 547215.0 0
350000.0 547190.0 0
354000.0 547213.0 0
358000.0 547213.0 0
362000.0 547229.0 0
366000.0 547181.0 0
370000.0 547366.0 0
374000.0 547401.0 0
378000.0 547286.0 0
382000.0 547108.0 0
386000.0 547026.0 0
390000.0 546994.0 0
394000.0 547002.0 0
398000.0 547025.0 0
218028.0 547654.0 0
102000.0 551025.0 0
106000.0 551002.0 0
110000.0 550988.0 0
114000.0 551070.0 0
118000.0 551198.0 0
122000.0 551340.0 0
126000.0 551422.0 0
130000.0 551377.0 0
134000.0 551277.0 0
138000.0 551149.0 0
142000.0 551152.0 0
146000.0 551198.0 0
150000.0 551139.0 0
154000.0 551163.0 0
158000.0 551231.0 0
162000.0 551322.0 0
166000.0 551375.0 0
170000.0 551395.0 0
174000.0 551392.0 0
178000.0 551393.0 0
182000.0 551357.0 0
186000.0 551328.0 0
190000.0 551247.0 0
194000.0 551218.0 0
198000.0 551118.0 0
202000.0 551193.0 0
206000.0 551031.0 0
210000.0 551231.0 0
214000.0 550888.0 0
217995.0 551633.0 0
222000.0 551009.0 0
226000.0 551327.0 0
230000.0 550882.0 0
234000.0 551247.0 0
238000.0 550888.0 0
242000.0 551326.0 0
246000.0 551021.0 0
250000.0 551425.0 0
254000.0 551136.0 0
258000.0 551175.0 0
262000.0 551067.0 0
266000.0 551137.0 0
270000.0 551035.0 0
274000.0 551138.0 0
278000.0 550925.0 0
282000.0 551062.0 0
286000.0 550904.0 0
290000.0 551043.0 0
294000.0 551020.0 0
298000.0 551138.0 0
302000.0 551139.0 0
306000.0 551229.0 0
310000.0 551268.0 0
314000.0 551331.0 0
318000.0 551326.0 0
322000.0 551330.0 0
326000.0 551326.0 0
330000.0 551343.0 0
334000.0 551318.0 0
338000.0 551292.0 0
342000.0 551254.0 0
346000.0 551214.0 0
350000.0 551188.0 0
354000.0 551213.0 0
358000.0 551207.0 0
362000.0 551207.0 0
366000.0 551164.0 0
370000.0 551359.0 0
374000.0 551399.0 0
378000.0 551284.0 0
382000.0 551107.0 0
386000.0 551026.0 0
390000.0 550994.0 0
394000.0 551002.0 0
398000.0 551025.0 0
102000.0 555025.0 0
106000.0 555002.0 0
110000.0 554988.0 0
114000.0 555067.0 0
118000.0 555192.0 0
122000.0 555334.0 0
134000.0 555260.0 0
138000.0 555145.0 0
142000.0 555149.0 0
146000.0 555197.0 0
150000.0 555138.0 0
154000.0 555162.0 0
158000.0 555226.0 0
162000.0 555314.0 0
166000.0 555364.0 0
182000.0 555348.0 0
186000.0 555320.0 0
190000.0 555239.0 0
194000.0 555211.0 0
198000.0 555111.0 0
202000.0 555186.0 0
206000.0 555024.0 0
210000.0 555225.0 0
214000.0 554888.0 0
222000.0 554997.0 0
226000.0 555319.0 0
230000.0 554882.0 0
234000.0 555243.0 0
238000.0 554885.0 0
242000.0 555325.0 0
246000.0 555011.0 0
254000.0 555134.0 0
258000.0 555174.0 0
262000.0 555060.0 0
266000.0 555133.0 0
270000.0 555025.0 0
274000.0 555133.0 0
278000.0 554914.0 0
282000.0 555062.0 0
286000.0 554901.0 0
290000.0 555040.0 0
294000.0 555012.0 0
298000.0 555131.0 0
302000.0 555127.0 0
306000.0 555217.0 0
310000.0 555254.0 0
314000.0 555317.0 0
318000.0 555316.0 0
322000.0 555322.0 0
326000.0 555320.0 0
330000.0 555337.0 0
334000.0 555314.0 0
338000.0 555290.0 0
342000.0 555252.0 0
346000.0 555213.0 0
350000.0 555186.0 0
354000.0 555212.0 0
358000.0 555202.0 0
362000.0 555189.0 0
366000.0 555151.0 0
378000.0 555282.0 0
382000.0 555105.0 0
386000.0 555025.0 0
390000.0 554994.0 0
394000.0 555002.0 0
398000.0 555025.0 0
126000.0 555416.0 0
130000.0 555368.0 0
170000.0 555384.0 0
174000.0 555381.0 0
178000.0 555384.0 0
218000.0 555616.0 0
250000.0 555424.0 0
370000.0 555354.0 0
374000.0 555397.0 0
102000.0 559025.0 0
106000.0 559002.0 0
110000.0 558988.0 0
114000.0 559065.0 0
118000.0 559188.0 0
122000.0 559329.0 0
126000.0 559411.0 0
130000.0 559361.0 0
134000.0 559248.0 0
138000.0 559141.0 0
142000.0 559147.0 0
146000.0 559196.0 0
150000.0 559138.0 0
154000.0 559161.0 0
158000.0 559222.0 0
162000.0 559308.0 0
166000.0 559355.0 0
170000.0 559375.0 0
174000.0 559373.0 0
178000.0 559376.0 0
182000.0 559340.0 0
186000.0 559314.0 0
190000.0 559232.0 0
194000.0 559206.0 0
198000.0 559106.0 0
202000.0 559181.0 0
206000.0 559019.0 0
210000.0 559220.0 0
214000.0 558888.0 0
218000.0 559602.0 0
222000.0 558987.0 0
226000.0 559312.0 0
230000.0 558882.0 0
234000.0 559240.0 0
238000.0 558882.0 0
242000.0 559324.0 0
246000.0 559003.0 0
250000.0 559424.0 0
254000.0 559132.0 0
258000.0 559173.0 0
262000.0 559055.0 0
266000.0 559130.0 0
270000.0 559016.0 0
274000.0 559130.0 0
278000.0 558905.0 0
282000.0 559062.0 0
286000.0 558900.0 0
290000.0 559038.0 0
294000.0 559006.0 0
298000.0 559125.0 0
302000.0 559117.0 0
306000.0 559207.0 0
310000.0 559242.0 0
314000.0 559307.0 0
318000.0 559307.0 0
322000.0 559316.0 0
326000.0 559314.0 0
330000.0 559332.0 0
334000.0 559310.0 0
338000.0 559288.0 0
342000.0 559251.0 0
346000.0 559212.0 0
350000.0 559184.0 0
354000.0 559211.0 0
358000.0 559197.0 0
362000.0 559176.0 0
366000.0 559141.0 0
370000.0 559351.0 0
374000.0 559396.0 0
378000.0 559281.0 0
382000.0 559104.0 0
386000.0 559025.0 0
390000.0 558994.0 0
394000.0 559002.0 0
398000.0 559025.0 0
102000.0 563025.0 0
106000.0 563002.0 0
110000.0 562988.0 0
114000.0 563064.0 0
138000.0 563139.0 0
142000.0 563146.0 0
150000.0 563138.0 0
198000.0 563102.0 0
206000.0 563015.0 0
214000.0 562888.0 0
222000.0 562979.0 0
230000.0 562882.0 0
238000.0 562881.0 0
246000.0 562997.0 0
254000.0 563130.0 0
262000.0 563051.0 0
266000.0 563128.0 0
270000.0 563010.0 0
274000.0 563127.0 0
278000.0 562898.0 0
282000.0 563062.0 0
286000.0 562899.0 0
290000.0 563036.0 0
294000.0 563001.0 0
298000.0 563120.0 0
302000.0 563110.0 0
362000.0 563167.0 0
366000.0 563134.0 0
382000.0 563103.0 0
386000.0 563025.0 0
390000.0 562994.0 0
394000.0 563002.0 0
398000.0 563025.0 0
118000.0 563185.0 0
122000.0 563326.0 0
126000.0 563408.0 0
130000.0 563356.0 0
134000.0 563240.0 0
146000.0 563195.0 0
154000.0 563160.0 0
158000.0 563220.0 0
162000.0 563303.0 0
166000.0 563348.0 0
170000.0 563369.0 0
174000.0 563366.0 0
178000.0 563370.0 0
182000.0 563335.0 0
186000.0 563309.0 0
190000.0 563228.0 0
194000.0 563202.0 0
202000.0 563177.0 0
210000.0 563217.0 0
218000.0 563591.0 0
226000.0 563308.0 0
234000.0 563237.0 0
242000.0 563324.0 0
250000.0 563424.0 0
258000.0 563172.0 0
306000.0 563200.0 0
310000.0 563234.0 0
314000.0 563299.0 0
318000.0 563301.0 0
322000.0 563311.0 0
326000.0 563310.0 0
330000.0 563328.0 0
334000.0 563307.0 0
338000.0 563286.0 0
342000.0 563250.0 0
346000.0 563211.0 0
350000.0 563183.0 0
354000.0 563211.0 0
358000.0 563194.0 0
370000.0 563348.0 0
374000.0 563396.0 0
378000.0 563280.0 0
102000.0 567025.0 0
106000.0 567002.0 0
110000.0 566987.0 0
114000.0 567063.0 0
118000.0 567183.0 0
122000.0 567323.0 0
126000.0 567406.0 0
130000.0 567352.0 0
134000.0 567234.0 0
138000.0 567137.0 0
142000.0 567145.0 0
146000.0 567194.0 0
150000.0 567138.0 0
154000.0 567160.0 0
158000.0 567218.0 0
162000.0 567300.0 0
166000.0 567344.0 0
170000.0 567364.0 0
174000.0 567362.0 0
178000.0 567367.0 0
182000.0 567331.0 0
186000.0 567306.0 0
190000.0 567224.0 0
194000.0 567199.0 0
198000.0 567099.0 0
202000.0 567174.0 0
206000.0 567012.0 0
210000.0 567214.0 0
214000.0 566888.0 0
218000.0 567584.0 0
222000.0 566974.0 0
226000.0 567304.0 0
230000.0 566882.0 0
234000.0 567236.0 0
238000.0 566880.0 0
242000.0 567323.0 0
246000.0 566993.0 0
250000.0 567423.0 0
254000.0 567129.0 0
258000.0 567172.0 0
262000.0 567049.0 0
266000.0 567127.0 0
270000.0 567006.0 0
274000.0 567125.0 0
278000.0 566893.0 0
282000.0 567062.0 0
286000.0 566898.0 0
290000.0 567035.0 0
294000.0 566998.0 0
298000.0 567117.0 0
302000.0 567105.0 0
306000.0 567195.0 0
310000.0 567228.0 0
314000.0 567293.0 0
318000.0 567296.0 0
322000.0 567308.0 0
326000.0 567308.0 0
330000.0 567325.0 0
334000.0 567305.0 0
338000.0 567285.0 0
342000.0 567249.0 0
346000.0 567210.0 0
350000.0 567182.0 0
354000.0 567210.0 0
358000.0 567191.0 0
362000.0 567161.0 0
366000.0 567129.0 0
370000.0 567347.0 0
374000.0 567395.0 0
378000.0 567279.0 0
382000.0 567103.0 0
386000.0 567025.0 0
390000.0 566994.0 0
394000.0 567002.0 0
398000.0 567025.0 0
214000.0 570888.0 0
222000.0 570972.0 0
230000.0 570882.0 0
238000.0 570880.0 0
246000.0 570991.0 0
278000.0 570891.0 0
286000.0 570898.0 0
102000.0 571025.0 0
106000.0 571002.0 0
110000.0 570987.0 0
114000.0 571062.0 0
118000.0 571182.0 0
122000.0 571322.0 0
126000.0 571405.0 0
130000.0 571351.0 0
134000.0 571231.0 0
138000.0 571136.0 0
142000.0 571144.0 0
146000.0 571194.0 0
150000.0 571138.0 0
154000.0 571160.0 0
158000.0 571217.0 0
162000.0 571299.0 0
166000.0 571342.0 0
170000.0 571362.0 0
174000.0 571360.0 0
178000.0 571365.0 0
182000.0 571329.0 0
186000.0 571304.0 0
190000.0 571223.0 0
194000.0 571198.0 0
198000.0 571098.0 0
202000.0 571173.0 0
206000.0 571011.0 0
210000.0 571213.0 0
218000.0 571581.0 0
226000.0 571303.0 0
234000.0 571235.0 0
242000.0 571323.0 0
250000.0 571423.0 0
254000.0 571129.0 0
258000.0 571172.0 0
262000.0 571047.0 0
266000.0 571126.0 0
270000.0 571004.0 0
274000.0 571124.0 0
282000.0 571062.0 0
290000.0 571035.0 0
294000.0 570997.0 0
298000.0 571116.0 0
302000.0 571103.0 0
306000.0 571192.0 0
310000.0 571225.0 0
314000.0 571291.0 0
318000.0 571294.0 0
322000.0 571307.0 0
326000.0 571306.0 0
330000.0 571324.0 0
334000.0 571304.0 0
338000.0 571285.0 0
342000.0 571248.0 0
346000.0 571210.0 0
350000.0 571182.0 0
354000.0 571210.0 0
358000.0 571190.0 0
362000.0 571158.0 0
366000.0 571127.0 0
370000.0 571346.0 0
374000.0 571395.0 0
378000.0 571278.0 0
382000.0 571102.0 0
386000.0 571025.0 0
390000.0 570994.0 0
394000.0 571002.0 0
398000.0 571025.0 0
POINT_DATA 4650
SCALARS Radius float 1
LOOKUP_TABLE default
4000.0 4000.0 4000.0 4000.0 4000.0 4000.0 4000.0 4000.0 4000.0 4000.0 4000.0 4000.0 4000.0 4000.0 4000.0 4000.0 4000.0 4000.0 4000.0 4000.0 4000.0 4000.0 4000.0 4000.0 4000.0 4000.0 4000.0 4000.0 4000.0 4000.0 4000.0 4000.0 4000.0 4000.0 4000.0 4000.0 4000.0 4000.0 4000.0 4000.0 4000.0 4000.0 4000.0 4000.0 4000.0 4000.0 4000.0 4000.0 4000.0 4000.0 4000.0 4000.0 4000.0 4000.0 4000.0 4000.0 4000.0 4000.0 4000.0 4000.0 4000.0 4000.0 4000.0 4000.0 4000.0 4000.0 4000.0 4000.0 4000.0 4000.0 4000.0 4000.0 4000.0 4000.0 4000.0 4000.0 4000.0 4000.0 4000.0 4000.0 4000.0 4000.0 4000.0 4000.0 4000.0 4000.0 4000.0 4000.0 4000.0 4000.0 4000.0 4000.0 4000.0 4000.0 4000.0 4000.0 4000.0 4000.0 4000.0 4000.0 4000.0 4000.0 4000.0 4000.0 4000.0 4000.0 4000.0 4000.0 4000.0 4000.0 4000.0 4000.0 4000.0 4000.0 4000.0 4000.0 4000.0 4000.0 4000.0 4000.0 4000.0 4000.0 4000.0 4000.0 4000.0 4000.0 4000.0 4000.0 4000.0 4000.0 4000.0 4000.0 4000.0 4000.0 4000.0 4000.0 4000.0 4000.0 4000.0 4000.0 4000.0 4000.0 4000.0 4000.0 4000.0 4000.0 4000.0 4000.0 4000.0 4000.0 4000.0 4000.0 4000.0 4000.0 4000.0 4000.0 4000.0 4000.0 4000.0 4000.0 4000.0 4000.0 4000.0 4000.0 4000.0 4000.0 4000.0 4000.0 4000.0 4000.0 4000.0 4000.0 4000.0 4000.0 4000.0 4000.0 4000.0 4000.0 4000.0 4000.0 4000.0 4000.0 4000.0 4000.0 4000.0 4000.0 4000.0 4000.0 4000.0 4000.0 4000.0 4000.0 4000.0 4000.0 4000.0 4000.0 4000.0 4000.0 4000.0 4000.0 4000.0 4000.0 4000.0 4000.0 4000.0 4000.0 4000.0 4000.0 4000.0 4000.0 4000.0 4000.0 4000.0 4000.0 4000.0 4000.0 4000.0 4000.0 4000.0 4000.0 4000.0 4000.0 4000.0 4000.0 4000.0 4000.0 4000.0 4000.0 4000.0 4000.0 4000.0 4000.0 4000.0 4000.0 4000.0 4000.0 4000.0 4000.0 4000.0 4000.0 4000.0 4000.0 4000.0 4000.0 4000.0 4000.0 4000.0 4000.0 4000.0 4000.0 4000.0 4000.0 4000.0 4000.0 4000.0 4000.0 4000.0 4000.0 4000.0 4000.0 4000.0 4000.0 4000.0 4000.0 4000.0 4000.0 4000.0 4000.0 4000.0 4000.0 4000.0 4000.0 4000.0 4000.0 4000.0 4000.0 4000.0 4000.0 4000.0 4000.0 4000.0 4000.0 4000.0 4000.0 4000.0 4000.0 4000.0 4000.0 4000.0 4000.0 4000.0 4000.0 4000.0 4000.0 4000.0 4000.0 4000.0 4000.0 4000.0 4000.0 4000.0 4000.0 4000.0 4000.0 4000.0 4000.0 4000.0 4000.0 4000.0 4000.0 4000.0 4000.0 4000.0 4000.0 4000.0 4000.0 4000.0 4000.0 4000.0 4000.0 4000.0 4000.0 4000.0 4000.0 4000.0 4000.0 4000.0 4000.0 4000.0 4000.0 4000.0 4000.0 4000.0 4000.0 4000.0 4000.0 4000.0 4000.0 4000.0 4000.0 4000.0 4000.0 4000.0 4000.0 4000.0 4000.0 4000.0 4000.0 4000.0 4000.0 4000.0 4000.0 4000.0 4000.0 4000.0 4000.0 4000.0 4000.0 4000.0 4000.0 4000.0 4000.0 4000.0 4000.0 4000.0 4000.0 4000.0 4000.0 4000.0 4000.0 4000.0 4000.0 4000.0 4000.0 4000.0 4000.0 4000.0 4000.0 4000.0 4000.0 4000.0 4000.0 4000.0 4000.0 4000.0 4000.0 4000.0 4000.0 4000.0 4000.0 4000.0 4000.0 4000.0 4000.0 4000.0 4000.0 4000.0 4000.0 4000.0 4000.0 4000.0 4000.0 4000.0 4000.0 4000.0 4000.0 4000.0 4000.0 4000.0 4000.0 4000.0 4000.0 4000.0 4000.0 4000.0 4000.0 4000.0 4000.0 4000.0 4000.0 4000.0 4000.0 4000.0 4000.0 4000.0 4000.0 4000.0 4000.0 4000.0 4000.0 4000.0 4000.0 4000.0 4000.0 4000.0 4000.0 4000.0 4000.0 4000.0 4000.0 4000.0 4000.0 4000.0 4000.0 4000.0 4000.0 4000.0 4000.0 4000.0 4000.0 4000.0 4000.0 4000.0 4000.0 4000.0 4000.0 4000.0 4000.0 4000.0 4000.0 4000.0 4000.0 4000.0 4000.0 4000.0 4000.0 4000.0 4000.0 4000.0 4000.0 4000.0 4000.0 4000.0 4000.0 4000.0 4000.0 4000.0 4000.0 4000.0 4000.0 4000.0 4000.0 4000.0 4000.0 4000.0 4000.0 4000.0 4000.0 4000.0 4000.0 4000.0 4000.0 4000.0 4000.0 4000.0 4000.0 4000.0 4000.0 4000.0 4000.0 4000.0 4000.0 4000.0 4000.0 4000.0 4000.0 4000.0 4000.0 4000.0 4000.0 4000.0 4000.0 4000.0 4000.0 4000.0 4000.0 4000.0 4000.0 4000.0 4000.0 4000.0 4000.0 4000.0 4000.0 4000.0 4000.0 4000.0 4000.0 4000.0 4000.0 4000.0 4000.0 4000.0 4000.0 4000.0 4000.0 4000.0 4000.0 4000.0 4000.0 4000.0 4000.0 4000.0 4000.0 4000.0 4000.0 4000.0 4000.0 4000.0 4000.0 4000.0 4000.0 4000.0 4000.0 4000.0 4000.0 4000.0 4000.0 4000.0 4000.0 4000.0 4000.0 4000.0 4000.0 4000.0 4000.0 4000.0 4000.0 4000.0 4000.0 4000.0 4000.0 4000.0 4000.0 4000.0 4000.0 4000.0 4000.0 4000.0 4000.0 4000.0 4000.0 4000.0 4000.0 4000.0 4000.0 4000.0 4000.0 4000.0 4000.0 4000.0 4000.0 4000.0 4000.0 4000.0 4000.0 4000.0 4000.0 4000.0 4000.0 4000.0 4000.0 4000.0 4000.0 4000.0 4000.0 4000.0 4000.0 4000.0 4000.0 4000.0 4000.0 4000.0 4000.0 4000.0 4000.0 4000.0 4000.0 4000.0 4000.0 4000.0 4000.0 4000.0 4000.0 4000.0 4000.0 4000.0 4000.0 4000.0 4000.0 4000.0 4000.0 4000.0 4000.0 4000.0 4000.0 4000.0 4000.0 4000.0 4000.0 4000.0 4000.0 4000.0 4000.0 4000.0 4000.0 4000.0 4000.0 4000.0 4000.0 4000.0 4000.0 4000.0 4000.0 4000.0 4000.0 4000.0 4000.0 4000.0 4000.0 4000.0 4000.0 4000.0 4000.0 4000.0 4000.0 4000.0 4000.0 4000.0 4000.0 4000.0 4000.0 4000.0 4000.0 4000.0 4000.0 4000.0 4000.0 4000.0 4000.0 4000.0 4000.0 4000.0 4000.0 4000.0 4000.0 4000.0 4000.0 4000.0 4000.0 4000.0 4000.0 4000.0 4000.0 4000.0 4000.0 4000.0 4000.0 4000.0 4000.0 4000.0 4000.0 4000.0 4000.0 4000.0 4000.0 4000.0 4000.0 4000.0 4000.0 4000.0 4000.0 4000.0 4000.0 4000.0 4000.0 4000.0 4000.0 4000.0 4000.0 4000.0 4000.0 4000.0 4000.0 4000.0 4000.0 4000.0 4000.0 4000.0 4000.0 4000.0 4000.0 4000.0 4000.0 4000.0 4000.0 4000.0 4000.0 4000.0 4000.0 4000.0 4000.0 4000.0 4000.0 4000.0 4000.0 4000.0 4000.0 4000.0 4000.0 4000.0 4000.0 4000.0 4000.0 4000.0 4000.0 4000.0 4000.0 4000.0 4000.0 4000.0 4000.0 4000.0 4000.0 4000.0 4000.0 4000.0 4000.0 4000.0 4000.0 4000.0 4000.0 4000.0 4000.0 4000.0 4000.0 4000.0 4000.0 4000.0 4000.0 4000.0 4000.0 4000.0 4000.0 4000.0 4000.0 4000.0 4000.0 4000.0 4000.0 4000.0 4000.0 4000.0 4000.0 4000.0 4000.0 4000.0 4000.0 4000.0 4000.0 4000.0 4000.0 4000.0 4000.0 4000.0 4000.0 4000.0 4000.0 4000.0 4000.0 4000.0 4000.0 4000.0 4000.0 4000.0 4000.0 4000.0 4000.0 4000.0 4000.0 4000.0 4000.0 4000.0 4000.0 4000.0 4000.0 4000.0 4000.0 4000.0 4000.0 4000.0 4000.0 4000.0 4000.0 4000.0 4000.0 4000.0 4000.0 4000.0 4000.0 4000.0 4000.0 4000.0 4000.0 4000.0 4000.0 4000.0 4000.0 4000.0 4000.0 4000.0 4000.0 4000.0 4000.0 4000.0 4000.0 4000.0 4000.0 4000.0 4000.0 4000.0 4000.0 4000.0 4000.0 4000.0 4000.0 4000.0 4000.0 4000.0 4000.0 4000.0 4000.0 4000.0 4000.0 4000.0 4000.0 4000.0 4000.0 4000.0 4000.0 4000.0 4000.0 4000.0 4000.0 4000.0 4000.0 4000.0 4000.0 4000.0 4000.0 4000.0 4000.0 4000.0 4000.0 4000.0 4000.0 4000.0 4000.0 4000.0 4000.0 4000.0 4000.0 4000.0 4000.0 4000.0 4000.0 4000.0 4000.0 4000.0 4000.0 4000.0 4000.0 4000.0 4000.0 4000.0 4000.0 4000.0 4000.0 4000.0 4000.0 4000.0 4000.0 4000.0 4000.0 4000.0 4000.0 4000.0 4000.0 4000.0 4000.0 4000.0 4000.0 4000.0 4000.0 4000.0 4000.0 4000.0 4000.0 4000.0 4000.0 4000.0 4000.0 4000.0 4000.0 4000.0 4000.0 4000.0 4000.0 4000.0 4000.0 4000.0 4000.0 4000.0 4000.0 4000.0 4000.0 4000.0 4000.0 4000.0 4000.0 4000.0 4000.0 4000.0 4000.0 4000.0 4000.0 4000.0 4000.0 4000.0 4000.0 4000.0 4000.0 4000.0 4000.0 4000.0 4000.0 4000.0 4000.0 4000.0 4000.0 4000.0 4000.0 4000.0 4000.0 4000.0 4000.0 4000.0 4000.0 4000.0 4000.0 4000.0 4000.0 4000.0 4000.0 4000.0 4000.0 4000.0 4000.0 4000.0 4000.0 4000.0 4000.0 4000.0 4000.0 4000.0 4000.0 4000.0 4000.0 4000.0 4000.0 4000.0 4000.0 4000.0 4000.0 4000.0 4000.0 4000.0 4000.0 4000.0 4000.0 4000.0 4000.0 4000.0 4000.0 4000.0 4000.0 4000.0 4000.0 4000.0 4000.0 4000.0 4000.0 4000.0 4000.0 4000.0 4000.0 4000.0 4000.0 4000.0 4000.0 4000.0 4000.0 4000.0 4000.0 4000.0 4000.0 4000.0 4000.0 4000.0 4000.0 4000.0 4000.0 4000.0 4000.0 4000.0 4000.0 4000.0 4000.0 4000.0 4000.0 4000.0 4000.0 4000.0 4000.0 4000.0 4000.0 4000.0 4000.0 4000.0 4000.0 4000.0 4000.0 4000.0 4000.0 4000.0 4000.0 4000.0 4000.0 4000.0 4000.0 4000.0 4000.0 4000.0 4000.0 4000.0 4000.0 4000.0 4000.0 4000.0 4000.0 4000.0 4000.0 4000.0 4000.0 4000.0 4000.0 4000.0 4000.0 4000.0 4000.0 4000.0 4000.0 4000.0 4000.0 4000.0 4000.0 4000.0 4000.0 4000.0 4000.0 4000.0 4000.0 4000.0 4000.0 4000.0 4000.0 4000.0 4000.0 4000.0 4000.0 4000.0 4000.0 4000.0 4000.0 4000.0 4000.0 4000.0 4000.0 4000.0 4000.0 4000.0 4000.0 4000.0 4000.0 4000.0 4000.0 4000.0 4000.0 4000.0 4000.0 4000.0 4000.0 4000.0 4000.0 4000.0 4000.0 4000.0 4000.0 4000.0 4000.0 4000.0 4000.0 4000.0 4000.0 4000.0 4000.0 4000.0 4000.0 4000.0 4000.0 4000.0 4000.0 4000.0 4000.0 4000.0 4000.0 4000.0 4000.0 4000.0 4000.0 4000.0 4000.0 4000.0 4000.0 4000.0 4000.0 4000.0 4000.0 4000.0 4000.0 4000.0 4000.0 4000.0 4000.0 4000.0 4000.0 4000.0 4000.0 4000.0 4000.0 4000.0 4000.0 4000.0 4000.0 4000.0 4000.0 4000.0 4000.0 4000.0 4000.0 4000.0 4000.0 4000.0 4000.0 4000.0 4000.0 4000.0 4000.0 4000.0 4000.0 4000.0 4000.0 4000.0 4000.0 4000.0 4000.0 4000.0 4000.0 4000.0 4000.0 4000.0 4000.0 4000.0 4000.0 4000.0 4000.0 4000.0 4000.0 4000.0 4000.0 4000.0 4000.0 4000.0 4000.0 4000.0 4000.0 4000.0 4000.0 4000.0 4000.0 4000.0 4000.0 4000.0 4000.0 4000.0 4000.0 4000.0 4000.0 4000.0 4000.0 4000.0 4000.0 4000.0 4000.0 4000.0 4000.0 4000.0 4000.0 4000.0 4000.0 4000.0 4000.0 4000.0 4000.0 4000.0 4000.0 4000.0 4000.0 4000.0 4000.0 4000.0 4000.0 4000.0 4000.0 4000.0 4000.0 4000.0 4000.0 4000.0 4000.0 4000.0 4000.0 4000.0 4000.0 4000.0 4000.0 4000.0 4000.0 4000.0 4000.0 4000.0 4000.0 4000.0 4000.0 4000.0 4000.0 4000.0 4000.0 4000.0 4000.0 4000.0 4000.0 4000.0 4000.0 4000.0 4000.0 4000.0 4000.0 4000.0 4000.0 4000.0 4000.0 4000.0 4000.0 4000.0 4000.0 4000.0 4000.0 4000.0 4000.0 4000.0 4000.0 4000.0 4000.0 4000.0 4000.0 4000.0 4000.0 4000.0 4000.0 4000.0 4000.0 4000.0 4000.0 4000.0 4000.0 4000.0 4000.0 4000.0 4000.0 4000.0 4000.0 4000.0 4000.0 4000.0 4000.0 4000.0 4000.0 4000.0 4000.0 4000.0 4000.0 4000.0 4000.0 4000.0 4000.0 4000.0 4000.0 4000.0 4000.0 4000.0 4000.0 4000.0 4000.0 4000.0 4000.0 4000.0 4000.0 4000.0 4000.0 4000.0 4000.0 4000.0 4000.0 4000.0 4000.0 4000.0 4000.0 4000.0 4000.0 4000.0 4000.0 4000.0 4000.0 4000.0 4000.0 4000.0 4000.0 4000.0 4000.0 4000.0 4000.0 4000.0 4000.0 4000.0 4000.0 4000.0 4000.0 4000.0 4000.0 4000.0 4000.0 4000.0 4000.0 4000.0 4000.0 4000.0 4000.0 4000.0 4000.0 4000.0 4000.0 4000.0 4000.0 4000.0 4000.0 4000.0 4000.0 4000.0 4000.0 4000.0 4000.0 4000.0 4000.0 4000.0 4000.0 4000.0 4000.0 4000.0 4000.0 4000.0 4000.0 4000.0 4000.0 4000.0 4000.0 4000.0 4000.0 4000.0 4000.0 4000.0 4000.0 4000.0 4000.0 4000.0 4000.0 4000.0 4000.0 4000.0 4000.0 4000.0 4000.0 4000.0 4000.0 4000.0 4000.0 4000.0 4000.0 4000.0 4000.0 4000.0 4000.0 4000.0 4000.0 4000.0 4000.0 4000.0 4000.0 4000.0 4000.0 4000.0 4000.0 4000.0 4000.0 4000.0 4000.0 4000.0 4000.0 4000.0 4000.0 4000.0 4000.0 4000.0 4000.0 4000.0 4000.0 4000.0 4000.0 4000.0 4000.0 4000.0 4000.0 4000.0 4000.0 4000.0 4000.0 4000.0 4000.0 4000.0 4000.0 4000.0 4000.0 4000.0 4000.0 4000.0 4000.0 4000.0 4000.0 4000.0 4000.0 4000.0 4000.0 4000.0 4000.0 4000.0 4000.0 4000.0 4000.0 4000.0 4000.0 4000.0 4000.0 4000.0 4000.0 4000.0 4000.0 4000.0 4000.0 4000.0 4000.0 4000.0 4000.0 4000.0 4000.0 4000.0 4000.0 4000.0 4000.0 4000.0 4000.0 4000.0 4000.0 4000.0 4000.0 4000.0 4000.0 4000.0 4000.0 4000.0 4000.0 4000.0 4000.0 4000.0 4000.0 4000.0 4000.0 4000.0 4000.0 4000.0 4000.0 4000.0 4000.0 4000.0 4000.0 4000.0 4000.0 4000.0 4000.0 4000.0 4000.0 4000.0 4000.0 4000.0 4000.0 4000.0 4000.0 4000.0 4000.0 4000.0 4000.0 4000.0 4000.0 4000.0 4000.0 4000.0 4000.0 4000.0 4000.0 4000.0 4000.0 4000.0 4000.0 4000.0 4000.0 4000.0 4000.0 4000.0 4000.0 4000.0 4000.0 4000.0 4000.0 4000.0 4000.0 4000.0 4000.0 4000.0 4000.0 4000.0 4000.0 4000.0 4000.0 4000.0 4000.0 4000.0 4000.0 4000.0 4000.0 4000.0 4000.0 4000.0 4000.0 4000.0 4000.0 4000.0 4000.0 4000.0 4000.0 4000.0 4000.0 4000.0 4000.0 4000.0 4000.0 4000.0 4000.0 4000.0 4000.0 4000.0 4000.0 4000.0 4000.0 4000.0 4000.0 4000.0 4000.0 4000.0 4000.0 4000.0 4000.0 4000.0 4000.0 4000.0 4000.0 4000.0 4000.0 4000.0 4000.0 4000.0 4000.0 4000.0 4000.0 4000.0 4000.0 4000.0 4000.0 4000.0 4000.0 4000.0 4000.0 4000.0 4000.0 4000.0 4000.0 4000.0 4000.0 4000.0 4000.0 4000.0 4000.0 4000.0 4000.0 4000.0 4000.0 4000.0 4000.0 4000.0 4000.0 4000.0 4000.0 4000.0 4000.0 4000.0 4000.0 4000.0 4000.0 4000.0 4000.0 4000.0 4000.0 4000.0 4000.0 4000.0 4000.0 4000.0 4000.0 4000.0 4000.0 4000.0 4000.0 4000.0 4000.0 4000.0 4000.0 4000.0 4000.0 4000.0 4000.0 4000.0 4000.0 4000.0 4000.0 4000.0 4000.0 4000.0 4000.0 4000.0 4000.0 4000.0 4000.0 4000.0 4000.0 4000.0 4000.0 4000.0 4000.0 4000.0 4000.0 4000.0 4000.0 4000.0 4000.0 4000.0 4000.0 4000.0 4000.0 4000.0 4000.0 4000.0 4000.0 4000.0 4000.0 4000.0 4000.0 4000.0 4000.0 4000.0 4000.0 4000.0 4000.0 4000.0 4000.0 4000.0 4000.0 4000.0 4000.0 4000.0 4000.0 4000.0 4000.0 4000.0 4000.0 4000.0 4000.0 4000.0 4000.0 4000.0 4000.0 4000.0 4000.0 4000.0 4000.0 4000.0 4000.0 4000.0 4000.0 4000.0 4000.0 4000.0 4000.0 4000.0 4000.0 4000.0 4000.0 4000.0 4000.0 4000.0 4000.0 4000.0 4000.0 4000.0 4000.0 4000.0 4000.0 4000.0 4000.0 4000.0 4000.0 4000.0 4000.0 4000.0 4000.0 4000.0 4000.0 4000.0 4000.0 4000.0 4000.0 4000.0 4000.0 4000.0 4000.0 4000.0 4000.0 4000.0 4000.0 4000.0 4000.0 4000.0 4000.0 4000.0 4000.0 4000.0 4000.0 4000.0 4000.0 4000.0 4000.0 4000.0 4000.0 4000.0 4000.0 4000.0 4000.0 4000.0 4000.0 4000.0 4000.0 4000.0 4000.0 4000.0 4000.0 4000.0 4000.0 4000.0 4000.0 4000.0 4000.0 4000.0 4000.0 4000.0 4000.0 4000.0 4000.0 4000.0 4000.0 4000.0 4000.0 4000.0 4000.0 4000.0 4000.0 4000.0 4000.0 4000.0 4000.0 4000.0 4000.0 4000.0 4000.0 4000.0 4000.0 4000.0 4000.0 4000.0 4000.0 4000.0 4000.0 4000.0 4000.0 4000.0 4000.0 4000.0 4000.0 4000.0 4000.0 4000.0 4000.0 4000.0 4000.0 4000.0 4000.0 4000.0 4000.0 4000.0 4000.0 4000.0 4000.0 4000.0 4000.0 4000.0 4000.0 4000.0 4000.0 4000.0 4000.0 4000.0 4000.0 4000.0 4000.0 4000.0 4000.0 4000.0 4000.0 4000.0 4000.0 4000.0 4000.0 4000.0 4000.0 4000.0 4000.0 4000.0 4000.0 4000.0 4000.0 4000.0 4000.0 4000.0 4000.0 4000.0 4000.0 4000.0 4000.0 4000.0 4000.0 4000.0 4000.0 4000.0 4000.0 4000.0 4000.0 4000.0 4000.0 4000.0 4000.0 4000.0 4000.0 4000.0 4000.0 4000.0 4000.0 4000.0 4000.0 4000.0 4000.0 4000.0 4000.0 4000.0 4000.0 4000.0 4000.0 4000.0 4000.0 4000.0 4000.0 4000.0 4000.0 4000.0 4000.0 4000.0 4000.0 4000.0 4000.0 4000.0 4000.0 4000.0 4000.0 4000.0 4000.0 4000.0 4000.0 4000.0 4000.0 4000.0 4000.0 4000.0 4000.0 4000.0 4000.0 4000.0 4000.0 4000.0 4000.0 4000.0 4000.0 4000.0 4000.0 4000.0 4000.0 4000.0 4000.0 4000.0 4000.0 4000.0 4000.0 4000.0 4000.0 4000.0 4000.0 4000.0 4000.0 4000.0 4000.0 4000.0 4000.0 4000.0 4000.0 4000.0 4000.0 4000.0 4000.0 4000.0 4000.0 4000.0 4000.0 4000.0 4000.0 4000.0 4000.0 4000.0 4000.0 4000.0 4000.0 4000.0 4000.0 4000.0 4000.0 4000.0 4000.0 4000.0 4000.0 4000.0 4000.0 4000.0 4000.0 4000.0 4000.0 4000.0 4000.0 4000.0 4000.0 4000.0 4000.0 4000.0 4000.0 4000.0 4000.0 4000.0 4000.0 4000.0 4000.0 4000.0 4000.0 4000.0 4000.0 4000.0 4000.0 4000.0 4000.0 4000.0 4000.0 4000.0 4000.0 4000.0 4000.0 4000.0 4000.0 4000.0 4000.0 4000.0 4000.0 4000.0 4000.0 4000.0 4000.0 4000.0 4000.0 4000.0 4000.0 4000.0 4000.0 4000.0 4000.0 4000.0 4000.0 4000.0 4000.0 4000.0 4000.0 4000.0 4000.0 4000.0 4000.0 4000.0 4000.0 4000.0 4000.0 4000.0 4000.0 4000.0 4000.0 4000.0 4000.0 4000.0 4000.0 4000.0 4000.0 4000.0 4000.0 4000.0 4000.0 4000.0 4000.0 4000.0 4000.0 4000.0 4000.0 4000.0 4000.0 4000.0 4000.0 4000.0 4000.0 4000.0 4000.0 4000.0 4000.0 4000.0 4000.0 4000.0 4000.0 4000.0 4000.0 4000.0 4000.0 4000.0 4000.0 4000.0 4000.0 4000.0 4000.0 4000.0 4000.0 4000.0 4000.0 4000.0 4000.0 4000.0 4000.0 4000.0 4000.0 4000.0 4000.0 4000.0 4000.0 4000.0 4000.0 4000.0 4000.0 4000.0 4000.0 4000.0 4000.0 4000.0 4000.0 4000.0 4000.0 4000.0 4000.0 4000.0 4000.0 4000.0 4000.0 4000.0 4000.0 4000.0 4000.0 4000.0 4000.0 4000.0 4000.0 4000.0 4000.0 4000.0 4000.0 4000.0 4000.0 4000.0 4000.0 4000.0 4000.0 4000.0 4000.0 4000.0 4000.0 4000.0 4000.0 4000.0 4000.0 4000.0 4000.0 4000.0 4000.0 4000.0 4000.0 4000.0 4000.0 4000.0 4000.0 4000.0 4000.0 4000.0 4000.0 4000.0 4000.0 4000.0 4000.0 4000.0 4000.0 4000.0 4000.0 4000.0 4000.0 4000.0 4000.0 4000.0 4000.0 4000.0 4000.0 4000.0 4000.0 4000.0 4000.0 4000.0 4000.0 4000.0 4000.0 4000.0 4000.0 4000.0 4000.0 4000.0 4000.0 4000.0 4000.0 4000.0 4000.0 4000.0 4000.0 4000.0 4000.0 4000.0 4000.0 4000.0 4000.0 4000.0 4000.0 4000.0 4000.0 4000.0 4000.0 4000.0 4000.0 4000.0 4000.0 4000.0 4000.0 4000.0 4000.0 4000.0 4000.0 4000.0 4000.0 4000.0 4000.0 4000.0 4000.0 4000.0 4000.0 4000.0 4000.0 4000.0 4000.0 4000.0 4000.0 4000.0 4000.0 4000.0 4000.0 4000.0 4000.0 4000.0 4000.0 4000.0 4000.0 4000.0 4000.0 4000.0 4000.0 4000.0 4000.0 4000.0 4000.0 4000.0 4000.0 4000.0 4000.0 4000.0 4000.0 4000.0 4000.0 4000.0 4000.0 4000.0 4000.0 4000.0 4000.0 4000.0 4000.0 4000.0 4000.0 4000.0 4000.0 4000.0 4000.0 4000.0 4000.0 4000.0 4000.0 4000.0 4000.0 4000.0 4000.0 4000.0 4000.0 4000.0 4000.0 4000.0 4000.0 4000.0 4000.0 4000.0 4000.0 4000.0 4000.0 4000.0 4000.0 4000.0 4000.0 4000.0 4000.0 4000.0 4000.0 4000.0 4000.0 4000.0 4000.0 4000.0 4000.0 4000.0 4000.0 4000.0 4000.0 4000.0 4000.0 4000.0 4000.0 4000.0 4000.0 4000.0 4000.0 4000.0 4000.0 4000.0 4000.0 4000.0 4000.0 4000.0 4000.0 4000.0 4000.0 4000.0 4000.0 4000.0 4000.0 4000.0 4000.0 4000.0 4000.0 4000.0 4000.0 4000.0 4000.0 4000.0 4000.0 4000.0 4000.0 4000.0 4000.0 4000.0 4000.0 4000.0 4000.0 4000.0 4000.0 4000.0 4000.0 4000.0 4000.0 4000.0 4000.0 4000.0 4000.0 4000.0 4000.0 4000.0 4000.0 4000.0 4000.0 4000.0 4000.0 4000.0 4000.0 4000.0 4000.0 4000.0 4000.0 4000.0 4000.0 4000.0 4000.0 4000.0 4000.0 4000.0 4000.0 4000.0 4000.0 4000.0 4000.0 4000.0 4000.0 4000.0 4000.0 4000.0 4000.0 4000.0 4000.0 4000.0 4000.0 4000.0 4000.0 4000.0 4000.0 4000.0 4000.0 4000.0 4000.0 4000.0 4000.0 4000.0 4000.0 4000.0 4000.0 4000.0 4000.0 4000.0 4000.0 4000.0 4000.0 4000.0 4000.0 4000.0 4000.0 4000.0 4000.0 4000.0 4000.0 4000.0 4000.0 4000.0 4000.0 4000.0 4000.0 4000.0 4000.0 4000.0 4000.0 4000.0 4000.0 4000.0 4000.0 4000.0 4000.0 4000.0 4000.0 4000.0 4000.0 4000.0 4000.0 4000.0 4000.0 4000.0 4000.0 4000.0 4000.0 4000.0 4000.0 4000.0 4000.0 4000.0 4000.0 4000.0 4000.0 4000.0 4000.0 4000.0 4000.0 4000.0 4000.0 4000.0 4000.0 4000.0 4000.0 4000.0 4000.0 4000.0 4000.0 4000.0 4000.0 4000.0 4000.0 4000.0 4000.0 4000.0 4000.0 4000.0 4000.0 4000.0 4000.0 4000.0 4000.0 4000.0 4000.0 4000.0 4000.0 4000.0 4000.0 4000.0 4000.0 4000.0 4000.0 4000.0 4000.0 4000.0 4000.0 4000.0 4000.0 4000.0 4000.0 4000.0 4000.0 4000.0 4000.0 4000.0 4000.0 4000.0 4000.0 4000.0 4000.0 4000.0 4000.0 4000.0 4000.0 4000.0 4000.0 4000.0 4000.0 4000.0 4000.0 4000.0 4000.0 4000.0 4000.0 4000.0 4000.0 4000.0 4000.0 4000.0 4000.0 4000.0 4000.0 4000.0 4000.0 4000.0 4000.0 4000.0 4000.0 4000.0 4000.0 4000.0 4000.0 4000.0 4000.0 4000.0 4000.0 4000.0 4000.0 4000.0 4000.0 4000.0 4000.0 4000.0 4000.0 4000.0 4000.0 4000.0 4000.0 4000.0 4000.0 4000.0 4000.0 4000.0 4000.0 4000.0 4000.0 4000.0 4000.0 4000.0 4000.0 4000.0 4000.0 4000.0 4000.0 4000.0 4000.0 4000.0 4000.0 4000.0 4000.0 4000.0 4000.0 4000.0 4000.0 4000.0 4000.0 4000.0 4000.0 4000.0 4000.0 4000.0 4000.0 4000.0 4000.0 4000.0 4000.0 4000.0 4000.0 4000.0 4000.0 4000.0 4000.0 4000.0 4000.0 4000.0 4000.0 4000.0 4000.0 4000.0 4000.0 4000.0 4000.0 4000.0 4000.0 4000.0 4000.0 4000.0 4000.0 4000.0 4000.0 4000.0 4000.0 4000.0 4000.0 4000.0 4000.0 4000.0 4000.0 4000.0 4000.0 4000.0 4000.0 4000.0 4000.0 4000.0 4000.0 4000.0 4000.0 4000.0 4000.0 4000.0 4000.0 4000.0 4000.0 4000.0 4000.0 4000.0 4000.0 4000.0 4000.0 4000.0 4000.0 4000.0 4000.0 4000.0 4000.0 4000.0 4000.0 4000.0 4000.0 4000.0 4000.0 4000.0 4000.0 4000.0 4000.0 4000.0 4000.0 4000.0 4000.0 4000.0 4000.0 4000.0 4000.0 4000.0 4000.0 4000.0 4000.0 4000.0 4000.0 4000.0 4000.0 4000.0 4000.0 4000.0 4000.0 4000.0 4000.0 4000.0 4000.0 4000.0 4000.0 4000.0 4000.0 4000.0 4000.0 4000.0 4000.0 4000.0 4000.0 4000.0 4000.0 4000.0 4000.0 4000.0 4000.0 4000.0 4000.0 4000.0 4000.0 4000.0 4000.0 4000.0 4000.0 4000.0 4000.0 4000.0 4000.0 4000.0 4000.0 4000.0 4000.0 4000.0 4000.0 4000.0 4000.0 4000.0 4000.0 4000.0 4000.0 4000.0 4000.0 4000.0 4000.0 4000.0 4000.0 4000.0 4000.0 4000.0 4000.0 4000.0 4000.0 4000.0 4000.0 4000.0 4000.0 4000.0 4000.0 4000.0 4000.0 4000.0 4000.0 4000.0 4000.0 4000.0 4000.0 4000.0 4000.0 4000.0 4000.0 4000.0 4000.0 4000.0 4000.0 4000.0 4000.0 4000.0 4000.0 4000.0 4000.0 4000.0 4000.0 4000.0 4000.0 4000.0 4000.0 4000.0 4000.0 4000.0 4000.0 4000.0 4000.0 4000.0 4000.0 4000.0 4000.0 4000.0 4000.0 4000.0 4000.0 4000.0 4000.0 4000.0 4000.0 4000.0 4000.0 4000.0 4000.0 4000.0 4000.0 4000.0 4000.0 4000.0 4000.0 4000.0 4000.0 4000.0 4000.0 4000.0 4000.0 4000.0 4000.0 4000.0 4000.0 4000.0 4000.0 4000.0 4000.0 4000.0 4000.0 4000.0 4000.0 4000.0 4000.0 4000.0 4000.0 4000.0 4000.0 4000.0 4000.0 4000.0 4000.0 4000.0 4000.0 4000.0 4000.0 4000.0 4000.0 4000.0 4000.0 4000.0 4000.0 4000.0 4000.0 4000.0 4000.0 4000.0 4000.0 4000.0 4000.0 4000.0 4000.0 4000.0 4000.0 4000.0 4000.0 4000.0 4000.0 4000.0 4000.0 4000.0 4000.0 4000.0 4000.0 4000.0 4000.0 4000.0 4000.0 4000.0 4000.0 4000.0 4000.0 4000.0 4000.0 4000.0 4000.0 4000.0 4000.0 4000.0 4000.0 4000.0 4000.0 4000.0 4000.0 4000.0 4000.0 4000.0 4000.0 4000.0 4000.0 4000.0 4000.0 4000.0 4000.0 4000.0 4000.0 4000.0 4000.0 4000.0 4000.0 4000.0 4000.0 4000.0 4000.0 4000.0 4000.0 4000.0 4000.0 4000.0 4000.0 4000.0 4000.0 4000.0 4000.0 4000.0 4000.0 4000.0 4000.0 4000.0 4000.0 4000.0 4000.0 4000.0 4000.0 4000.0 4000.0 4000.0 4000.0 4000.0 4000.0 4000.0 4000.0 4000.0 4000.0 4000.0 4000.0 4000.0 4000.0 4000.0 4000.0 4000.0 4000.0 4000.0 4000.0 4000.0 4000.0 4000.0 4000.0 4000.0 4000.0 4000.0 4000.0 4000.0 4000.0 4000.0 4000.0 4000.0 4000.0 4000.0 4000.0 4000.0 4000.0 4000.0 4000.0 4000.0 4000.0 4000.0 4000.0 4000.0 4000.0 4000.0 4000.0 4000.0 4000.0 4000.0 4000.0 4000.0 4000.0 4000.0 4000.0 4000.0 4000.0 4000.0 4000.0 4000.0 4000.0 4000.0 4000.0 4000.0 4000.0 4000.0 4000.0 4000.0 4000.0 4000.0 4000.0 4000.0 4000.0 4000.0 4000.0 4000.0 4000.0 4000.0 4000.0 4000.0 4000.0 4000.0 4000.0 4000.0 4000.0 4000.0 4000.0 4000.0 4000.0 4000.0 4000.0 4000.0 4000.0 4000.0 4000.0 4000.0 4000.0 4000.0 4000.0 4000.0 4000.0 4000.0 4000.0 4000.0 4000.0 4000.0 4000.0 4000.0 4000.0 4000.0 4000.0 4000.0 4000.0 4000.0 4000.0 4000.0 4000.0 4000.0 4000.0 4000.0 4000.0 4000.0 4000.0 4000.0 4000.0 4000.0 4000.0 4000.0 4000.0 4000.0 4000.0 4000.0 4000.0 4000.0 4000.0 4000.0 4000.0 4000.0 4000.0 4000.0 4000.0 4000.0 4000.0 4000.0 4000.0 4000.0 4000.0 4000.0 4000.0 4000.0 4000.0 4000.0 4000.0 4000.0 4000.0 4000.0 4000.0 4000.0 4000.0 4000.0 4000.0 4000.0 4000.0 4000.0 4000.0 4000.0 4000.0 4000.0 4000.0 4000.0 4000.0 4000.0 4000.0 4000.0 4000.0 4000.0 4000.0 4000.0 4000.0 4000.0 4000.0 4000.0 4000.0 4000.0 4000.0 4000.0 4000.0 4000.0 4000.0 4000.0 4000.0 4000.0 4000.0 4000.0 4000.0 4000.0 4000.0 4000.0 4000.0 4000.0 4000.0 4000.0 4000.0 4000.0 4000.0 4000.0 4000.0 4000.0 4000.0 4000.0 4000.0 4000.0 4000.0 4000.0 4000.0 4000.0 4000.0 4000.0 4000.0 4000.0 4000.0 4000.0 4000.0 4000.0 4000.0 4000.0 4000.0 4000.0 4000.0 4000.0 4000.0 4000.0 4000.0 4000.0 4000.0 4000.0 4000.0 4000.0 4000.0 4000.0 4000.0 4000.0 4000.0 4000.0 4000.0 4000.0 4000.0 4000.0 4000.0 4000.0 4000.0 4000.0 4000.0 4000.0 4000.0 4000.0 4000.0 4000.0 4000.0 4000.0 4000.0 4000.0 4000.0 4000.0 4000.0 4000.0 4000.0 4000.0 4000.0 4000.0 4000.0 4000.0 4000.0 4000.0 4000.0 4000.0 4000.0 4000.0 4000.0 4000.0 4000.0 4000.0 4000.0 4000.0 4000.0 4000.0 4000.0 4000.0 4000.0 4000.0 4000.0 4000.0 4000.0 4000.0 4000.0 4000.0 4000.0 4000.0 4000.0 4000.0 4000.0 4000.0 4000.0 4000.0 4000.0 4000.0 4000.0 4000.0 4000.0 4000.0 4000.0 4000.0 4000.0 4000.0 4000.0 4000.0 4000.0 4000.0 4000.0 4000.0 4000.0 4000.0 4000.0 4000.0 4000.0 4000.0 4000.0 4000.0 4000.0 4000.0 4000.0 4000.0 4000.0 4000.0 4000.0 4000.0 4000.0 4000.0 4000.0 4000.0 4000.0 4000.0 4000.0 4000.0 4000.0 4000.0 4000.0 4000.0 4000.0 4000.0 4000.0 4000.0 4000.0 4000.0 4000.0 4000.0 4000.0 4000.0 4000.0 4000.0 4000.0 4000.0 4000.0 4000.0 4000.0 4000.0 4000.0 4000.0 4000.0 4000.0 4000.0 4000.0 4000.0 4000.0 4000.0 4000.0 4000.0 4000.0 4000.0 4000.0 4000.0 4000.0 4000.0 4000.0 4000.0 4000.0 4000.0 4000.0 4000.0 4000.0 4000.0 4000.0 4000.0 4000.0 4000.0 4000.0 4000.0 4000.0 4000.0 4000.0 4000.0 4000.0 4000.0 4000.0 4000.0 4000.0 4000.0 4000.0 4000.0 4000.0 4000.0 4000.0 4000.0 4000.0 4000.0 4000.0 4000.0 4000.0 4000.0 4000.0 4000.0 4000.0 4000.0 4000.0 4000.0 4000.0 4000.0 4000.0 4000.0 4000.0 4000.0 4000.0 4000.0 4000.0 4000.0 4000.0 4000.0 4000.0 4000.0 4000.0 4000.0 4000.0 4000.0 4000.0 4000.0 4000.0 4000.0 4000.0 4000.0 4000.0 4000.0 4000.0 4000.0 4000.0 4000.0 4000.0 4000.0 4000.0 4000.0 4000.0 4000.0 4000.0 4000.0 4000.0 4000.0 4000.0 4000.0 4000.0 4000.0 4000.0 4000.0 4000.0 4000.0 4000.0 4000.0 4000.0 4000.0 4000.0 4000.0 4000.0 4000.0 4000.0 4000.0 4000.0 4000.0 4000.0 4000.0 4000.0 4000.0 4000.0 4000.0 4000.0 4000.0 4000.0 4000.0 4000.0 4000.0 4000.0 4000.0 4000.0 4000.0 4000.0 4000.0 4000.0 4000.0 4000.0 4000.0 4000.0 4000.0 4000.0 4000.0 4000.0 4000.0 4000.0 4000.0 4000.0 4000.0 4000.0 4000.0 4000.0 4000.0 4000.0 4000.0 4000.0 4000.0 4000.0 4000.0 4000.0 4000.0 4000.0 4000.0 4000.0 4000.0 4000.0 4000.0 4000.0 4000.0 4000.0 4000.0 4000.0 4000.0 4000.0 4000.0 4000.0 4000.0 4000.0 4000.0 4000.0 4000.0 4000.0 4000.0 4000.0 4000.0 4000.0 4000.0 4000.0 4000.0 4000.0 4000.0 4000.0 4000.0 4000.0 4000.0 4000.0 4000.0 4000.0 4000.0 4000.0 4000.0 4000.0 4000.0 4000.0 4000.0 4000.0 4000.0 4000.0 4000.0 4000.0 4000.0 4000.0 4000.0 4000.0 4000.0 4000.0 4000.0 4000.0 4000.0 4000.0 4000.0 4000.0 4000.0 4000.0 4000.0 4000.0 4000.0 4000.0 4000.0 4000.0 4000.0 4000.0 4000.0 4000.0 4000.0 4000.0 4000.0 4000.0 4000.0 4000.0 4000.0 4000.0 4000.0 4000.0 4000.0 4000.0 4000.0 4000.0 4000.0 4000.0 4000.0 4000.0 4000.0 4000.0 4000.0 4000.0 4000.0 4000.0 4000.0 4000.0 4000.0 4000.0 4000.0 4000.0 4000.0 4000.0 4000.0 4000.0 4000.0 4000.0 4000.0 4000.0 4000.0 4000.0 4000.0 4000.0 4000.0 4000.0 4000.0 4000.0 4000.0 4000.0 4000.0 4000.0 4000.0 4000.0 4000.0 4000.0 4000.0 4000.0 4000.0 4000.0 4000.0 4000.0 4000.0 4000.0 4000.0 4000.0 4000.0 4000.0 4000.0 4000.0 4000.0 4000.0 4000.0 4000.0 4000.0 4000.0 4000.0 4000.0 4000.0 4000.0 4000.0 4000.0 4000.0 4000.0 4000.0 4000.0 4000.0 4000.0 4000.0 4000.0 4000.0 4000.0 4000.0 4000.0 4000.0 4000.0 4000.0 4000.0 4000.0 4000.0 4000.0 4000.0 4000.0 4000.0 4000.0 4000.0 4000.0 4000.0 4000.0 4000.0 4000.0 4000.0 4000.0 4000.0 4000.0 4000.0 4000.0 4000.0 4000.0 4000.0 4000.0 4000.0 4000.0 4000.0 4000.0 4000.0 4000.0 4000.0 4000.0 4000.0 4000.0 4000.0 4000.0 4000.0 4000.0 4000.0 4000.0 4000.0 4000.0 4000.0 4000.0 4000.0 4000.0 4000.0 4000.0 4000.0 4000.0 4000.0 4000.0 4000.0 4000.0 4000.0 4000.0 4000.0 4000.0 4000.0 4000.0 4000.0 4000.0 4000.0 4000.0 4000.0 4000.0 4000.0 4000.0 4000.0 4000.0 4000.0 4000.0 4000.0 4000.0 4000.0 4000.0 4000.0 4000.0 4000.0 4000.0 4000.0 4000.0 4000.0 4000.0 4000.0 4000.0 4000.0 4000.0 4000.0 4000.0 4000.0 4000.0 4000.0 4000.0 4000.0 4000.0 4000.0 4000.0 4000.0 4000.0 4000.0 4000.0 4000.0 4000.0 4000.0 4000.0 4000.0 4000.0 4000.0 4000.0 4000.0 4000.0 4000.0 4000.0 4000.0 4000.0 4000.0 4000.0 4000.0 4000.0 4000.0 4000.0 4000.0 4000.0 4000.0 4000.0 4000.0 4000.0 4000.0 4000.0 4000.0 4000.0 4000.0 4000.0 4000.0 4000.0 4000.0 4000.0 4000.0 4000.0 4000.0 4000.0 4000.0 4000.0 4000.0 4000.0 4000.0 4000.0 4000.0 4000.0 4000.0 4000.0 4000.0 4000.0 4000.0 4000.0 4000.0 4000.0 4000.0 4000.0 4000.0 4000.0 4000.0 4000.0 4000.0 4000.0 4000.0 4000.0 4000.0 4000.0 4000.0 4000.0 4000.0 4000.0 4000.0 4000.0 4000.0 4000.0 4000.0 4000.0 4000.0 4000.0 4000.0 4000.0 4000.0 4000.0 4000.0 4000.0 4000.0 4000.0 4000.0 4000.0 4000.0 4000.0 4000.0 4000.0 4000.0 4000.0 4000.0 4000.0 4000.0 4000.0 4000.0 4000.0 4000.0 4000.0 4000.0 4000.0 4000.0 4000.0 4000.0 4000.0 4000.0 4000.0 4000.0 4000.0 4000.0 4000.0 4000.0 4000.0 4000.0 4000.0 4000.0 4000.0 4000.0 4000.0 4000.0 4000.0 4000.0 4000.0 4000.0 4000.0 4000.0 4000.0 4000.0 4000.0 4000.0 4000.0 4000.0 4000.0 4000.0 4000.0 4000.0 4000.0 4000.0 4000.0 4000.0 4000.0 4000.0 4000.0 4000.0 4000.0 4000.0 4000.0 4000.0 4000.0 4000.0 4000.0 4000.0 4000.0 4000.0 4000.0 4000.0 4000.0 4000.0 4000.0 4000.0 4000.0 4000.0 4000.0 4000.0 4000.0 4000.0 4000.0 4000.0 4000.0 4000.0 4000.0 4000.0 4000.0 4000.0 4000.0 4000.0 4000.0 4000.0 4000.0 4000.0 4000.0 4000.0 4000.0 4000.0 4000.0 4000.0 4000.0 4000.0 4000.0 4000.0 4000.0 4000.0 4000.0 4000.0 4000.0 4000.0 4000.0 4000.0 4000.0 4000.0 4000.0 4000.0 4000.0 4000.0 4000.0 4000.0 4000.0 4000.0 4000.0 4000.0 4000.0 4000.0 4000.0 4000.0 4000.0 4000.0 4000.0 4000.0 4000.0 4000.0 4000.0 4000.0 4000.0 4000.0 4000.0 4000.0 4000.0 4000.0 4000.0 4000.0 4000.0 4000.0 4000.0 4000.0 4000.0 4000.0 4000.0 4000.0 4000.0 4000.0 4000.0 4000.0 4000.0 4000.0 4000.0 4000.0 4000.0 4000.0 4000.0 4000.0 4000.0 4000.0 4000.0 4000.0 4000.0 4000.0 4000.0 4000.0 4000.0 4000.0 4000.0 4000.0 4000.0 4000.0 4000.0 4000.0 4000.0 4000.0 4000.0 4000.0 4000.0 4000.0 4000.0 4000.0 4000.0 4000.0 4000.0 4000.0 4000.0 4000.0 4000.0 4000.0 4000.0 4000.0 4000.0 4000.0 4000.0 4000.0 4000.0 4000.0 4000.0 4000.0 4000.0 4000.0 4000.0 4000.0 4000.0 4000.0 4000.0 4000.0 4000.0 4000.0 4000.0 4000.0 4000.0 4000.0 4000.0 4000.0 4000.0 4000.0 4000.0 4000.0 4000.0 4000.0 4000.0 4000.0 4000.0 4000.0 4000.0 4000.0 4000.0 4000.0 4000.0 4000.0 4000.0 4000.0 4000.0 4000.0 4000.0 4000.0 4000.0 4000.0 4000.0 4000.0 4000.0 4000.0 4000.0 4000.0 4000.0 4000.0 4000.0 4000.0 4000.0 4000.0 4000.0 4000.0 4000.0 4000.0 4000.0 4000.0 4000.0 4000.0 4000.0 4000.0 4000.0 4000.0 4000.0 4000.0 4000.0 4000.0 4000.0 4000.0 4000.0 4000.0 4000.0 4000.0 4000.0 4000.0 4000.0 4000.0 4000.0 4000.0 4000.0 4000.0 4000.0 4000.0 4000.0 4000.0 4000.0 4000.0 4000.0 4000.0 4000.0 4000.0 4000.0 4000.0 4000.0 4000.0 4000.0 4000.0 4000.0 4000.0 4000.0 4000.0 4000.0 4000.0 4000.0 4000.0 4000.0 4000.0 4000.0 4000.0 4000.0 4000.0 4000.0 4000.0 4000.0 4000.0 4000.0 4000.0 4000.0 4000.0 4000.0 4000.0 4000.0 4000.0 4000.0 4000.0 4000.0 4000.0 4000.0 4000.0 4000.0 4000.0 4000.0 4000.0 4000.0 4000.0 4000.0 4000.0 4000.0 4000.0 4000.0 4000.0 4000.0 4000.0 4000.0 4000.0 4000.0 4000.0 4000.0 4000.0 4000.0 4000.0 4000.0 4000.0 4000.0 4000.0 4000.0 4000.0 4000.0 4000.0 4000.0 4000.0 4000.0 4000.0 4000.0 4000.0 4000.0 4000.0 4000.0 4000.0 4000.0 4000.0 4000.0 4000.0 4000.0 4000.0 4000.0 4000.0 4000.0 4000.0 4000.0 4000.0 4000.0 4000.0 4000.0 4000.0 4000.0 4000.0 4000.0 4000.0 4000.0 4000.0 4000.0 4000.0 4000.0 4000.0 4000.0 4000.0 4000.0 4000.0 4000.0 4000.0 4000.0 4000.0 4000.0 4000.0 4000.0 4000.0 4000.0 4000.0 4000.0 4000.0 4000.0 4000.0 4000.0 4000.0 4000.0 4000.0 4000.0 4000.0 4000.0 4000.0 4000.0 4000.0 4000.0 4000.0 4000.0 4000.0 4000.0 4000.0 4000.0 4000.0 4000.0 4000.0 4000.0 4000.0 4000.0 4000.0 4000.0 4000.0 4000.0 4000.0 4000.0 4000.0 4000.0 4000.0 4000.0 4000.0 4000.0 4000.0 4000.0 4000.0 4000.0 4000.0 4000.0 4000.0 4000.0 4000.0 4000.0 4000.0 4000.0 4000.0 4000.0 4000.0 4000.0 4000.0 4000.0 4000.0 4000.0 4000.0 4000.0 4000.0 4000.0 4000.0 4000.0 4000.0 4000.0 4000.0 4000.0 4000.0 4000.0 4000.0 4000.0 4000.0 4000.0 4000.0 4000.0 4000.0 4000.0 4000.0 4000.0 4000.0 4000.0 4000.0 4000.0 4000.0 4000.0 4000.0 4000.0 4000.0 4000.0 4000.0 4000.0 4000.0 4000.0 4000.0 4000.0 4000.0 4000.0 4000.0 4000.0 4000.0 4000.0 4000.0 4000.0 4000.0 4000.0 4000.0 4000.0 4000.0 4000.0 4000.0 4000.0 4000.0 4000.0 4000.0 4000.0 4000.0 4000.0 4000.0 4000.0 4000.0 4000.0 4000.0 4000.0 4000.0 4000.0 4000.0 4000.0 4000.0 4000.0 4000.0 4000.0 4000.0 4000.0 4000.0 4000.0 4000.0 4000.0 4000.0 4000.0 4000.0 4000.0 4000.0 4000.0 4000.0 4000.0 4000.0 4000.0 4000.0 4000.0 4000.0 4000.0 4000.0 4000.0 4000.0 4000.0 4000.0 4000.0 4000.0 4000.0 4000.0 4000.0 4000.0 4000.0 4000.0 4000.0 4000.0 4000.0 4000.0 4000.0 4000.0 4000.0 4000.0 4000.0 4000.0 4000.0 4000.0 4000.0 4000.0 4000.0 4000.0 4000.0 4000.0 4000.0 4000.0 4000.0 4000.0 4000.0 4000.0 4000.0 4000.0 4000.0 4000.0 4000.0 4000.0 4000.0 4000.0 4000.0 4000.0 4000.0 4000.0 4000.0 4000.0 4000.0 4000.0 4000.0 4000.0 4000.0 4000.0 4000.0 4000.0 4000.0 4000.0 4000.0 4000.0 4000.0 4000.0 4000.0 4000.0 4000.0 4000.0 4000.0 4000.0 4000.0 4000.0 4000.0 4000.0 4000.0 4000.0 4000.0 4000.0 4000.0 4000.0 4000.0 4000.0 4000.0 4000.0 4000.0 4000.0 4000.0 4000.0 4000.0 4000.0 4000.0 4000.0 4000.0 4000.0 4000.0 4000.0 4000.0 4000.0 4000.0 4000.0 4000.0 4000.0 4000.0 4000.0 4000.0 4000.0 4000.0 4000.0 4000.0 4000.0 4000.0 4000.0 4000.0 4000.0 4000.0 4000.0 4000.0 4000.0 4000.0 4000.0 4000.0 4000.0 4000.0 4000.0 4000.0 4000.0 4000.0 4000.0 4000.0 4000.0 4000.0 4000.0 4000.0 4000.0 4000.0 4000.0 4000.0 4000.0 4000.0 4000.0 4000.0 4000.0 4000.0 4000.0 4000.0 4000.0 4000.0 4000.0 4000.0 4000.0 4000.0 4000.0 4000.0 4000.0 4000.0 4000.0 4000.0 4000.0 4000.0 4000.0 4000.0 4000.0 4000.0 4000.0 4000.0 4000.0 4000.0 4000.0 4000.0 4000.0 4000.0 4000.0 4000.0 4000.0 4000.0 4000.0 4000.0 4000.0 4000.0 4000.0 4000.0 4000.0 4000.0 4000.0 4000.0 SCALARS Mass float 1
LOOKUP_TABLE default
11309700000.0 11309700000.0 11309700000.0 11309700000.0 11309700000.0 11309700000.0 11309700000.0 11309700000.0 11309700000.0 11309700000.0 11309700000.0 11309700000.0 11309700000.0 11309700000.0 11309700000.0 11309700000.0 11309700000.0 11309700000.0 11309700000.0 11309700000.0 11309700000.0 11309700000.0 11309700000.0 11309700000.0 11309700000.0 11309700000.0 11309700000.0 11309700000.0 11309700000.0 11309700000.0 11309700000.0 11309700000.0 11309700000.0 11309700000.0 11309700000.0 11309700000.0 11309700000.0 11309700000.0 11309700000.0 11309700000.0 11309700000.0 11309700000.0 11309700000.0 11309700000.0 11309700000.0 11309700000.0 11309700000.0 11309700000.0 11309700000.0 11309700000.0 11309700000.0 11309700000.0 11309700000.0 11309700000.0 11309700000.0 11309700000.0 11309700000.0 11309700000.0 11309700000.0 11309700000.0 11309700000.0 11309700000.0 11309700000.0 11309700000.0 11309700000.0 11309700000.0 11309700000.0 11309700000.0 11309700000.0 11309700000.0 11309700000.0 11309700000.0 11309700000.0 11309700000.0 11309700000.0 11309700000.0 11309700000.0 11309700000.0 11309700000.0 11309700000.0 11309700000.0 11309700000.0 11309700000.0 11309700000.0 11309700000.0 11309700000.0 11309700000.0 11309700000.0 11309700000.0 11309700000.0 11309700000.0 11309700000.0 11309700000.0 11309700000.0 11309700000.0 11309700000.0 11309700000.0 11309700000.0 11309700000.0 11309700000.0 11309700000.0 11309700000.0 11309700000.0 11309700000.0 11309700000.0 11309700000.0 11309700000.0 11309700000.0 11309700000.0 11309700000.0 11309700000.0 11309700000.0 11309700000.0 11309700000.0 11309700000.0 11309700000.0 11309700000.0 11309700000.0 11309700000.0 11309700000.0 11309700000.0 11309700000.0 11309700000.0 11309700000.0 11309700000.0 11309700000.0 11309700000.0 11309700000.0 11309700000.0 11309700000.0 11309700000.0 11309700000.0 11309700000.0 11309700000.0 11309700000.0 11309700000.0 11309700000.0 11309700000.0 11309700000.0 11309700000.0 11309700000.0 11309700000.0 11309700000.0 11309700000.0 11309700000.0 11309700000.0 11309700000.0 11309700000.0 11309700000.0 11309700000.0 11309700000.0 11309700000.0 11309700000.0 11309700000.0 11309700000.0 11309700000.0 11309700000.0 11309700000.0 11309700000.0 11309700000.0 11309700000.0 11309700000.0 11309700000.0 11309700000.0 11309700000.0 11309700000.0 11309700000.0 11309700000.0 11309700000.0 11309700000.0 11309700000.0 11309700000.0 11309700000.0 11309700000.0 11309700000.0 11309700000.0 11309700000.0 11309700000.0 11309700000.0 11309700000.0 11309700000.0 11309700000.0 11309700000.0 11309700000.0 11309700000.0 11309700000.0 11309700000.0 11309700000.0 11309700000.0 11309700000.0 11309700000.0 11309700000.0 11309700000.0 11309700000.0 11309700000.0 11309700000.0 11309700000.0 11309700000.0 11309700000.0 11309700000.0 11309700000.0 11309700000.0 11309700000.0 11309700000.0 11309700000.0 11309700000.0 11309700000.0 11309700000.0 11309700000.0 11309700000.0 11309700000.0 11309700000.0 11309700000.0 11309700000.0 11309700000.0 11309700000.0 11309700000.0 11309700000.0 11309700000.0 11309700000.0 11309700000.0 11309700000.0 11309700000.0 11309700000.0 11309700000.0 11309700000.0 11309700000.0 11309700000.0 11309700000.0 11309700000.0 11309700000.0 11309700000.0 11309700000.0 11309700000.0 11309700000.0 11309700000.0 11309700000.0 11309700000.0 11309700000.0 11309700000.0 11309700000.0 11309700000.0 11309700000.0 11309700000.0 11309700000.0 11309700000.0 11309700000.0 11309700000.0 11309700000.0 11309700000.0 11309700000.0 11309700000.0 11309700000.0 11309700000.0 11309700000.0 11309700000.0 11309700000.0 11309700000.0 11309700000.0 11309700000.0 11309700000.0 11309700000.0 11309700000.0 11309700000.0 11309700000.0 11309700000.0 11309700000.0 11309700000.0 11309700000.0 11309700000.0 11309700000.0 11309700000.0 11309700000.0 11309700000.0 11309700000.0 11309700000.0 11309700000.0 11309700000.0 11309700000.0 11309700000.0 11309700000.0 11309700000.0 11309700000.0 11309700000.0 11309700000.0 11309700000.0 11309700000.0 11309700000.0 11309700000.0 11309700000.0 11309700000.0 11309700000.0 11309700000.0 11309700000.0 11309700000.0 11309700000.0 11309700000.0 11309700000.0 11309700000.0 11309700000.0 11309700000.0 11309700000.0 11309700000.0 11309700000.0 11309700000.0 11309700000.0 11309700000.0 11309700000.0 11309700000.0 11309700000.0 11309700000.0 11309700000.0 11309700000.0 11309700000.0 11309700000.0 11309700000.0 11309700000.0 11309700000.0 11309700000.0 11309700000.0 11309700000.0 11309700000.0 11309700000.0 11309700000.0 11309700000.0 11309700000.0 11309700000.0 11309700000.0 11309700000.0 11309700000.0 11309700000.0 11309700000.0 11309700000.0 11309700000.0 11309700000.0 11309700000.0 11309700000.0 11309700000.0 11309700000.0 11309700000.0 11309700000.0 11309700000.0 11309700000.0 11309700000.0 11309700000.0 11309700000.0 11309700000.0 11309700000.0 11309700000.0 11309700000.0 11309700000.0 11309700000.0 11309700000.0 11309700000.0 11309700000.0 11309700000.0 11309700000.0 11309700000.0 11309700000.0 11309700000.0 11309700000.0 11309700000.0 11309700000.0 11309700000.0 11309700000.0 11309700000.0 11309700000.0 11309700000.0 11309700000.0 11309700000.0 11309700000.0 11309700000.0 11309700000.0 11309700000.0 11309700000.0 11309700000.0 11309700000.0 11309700000.0 11309700000.0 11309700000.0 11309700000.0 11309700000.0 11309700000.0 11309700000.0 11309700000.0 11309700000.0 11309700000.0 11309700000.0 11309700000.0 11309700000.0 11309700000.0 11309700000.0 11309700000.0 11309700000.0 11309700000.0 11309700000.0 11309700000.0 11309700000.0 11309700000.0 11309700000.0 11309700000.0 11309700000.0 11309700000.0 11309700000.0 11309700000.0 11309700000.0 11309700000.0 11309700000.0 11309700000.0 11309700000.0 11309700000.0 11309700000.0 11309700000.0 11309700000.0 11309700000.0 11309700000.0 11309700000.0 11309700000.0 11309700000.0 11309700000.0 11309700000.0 11309700000.0 11309700000.0 11309700000.0 11309700000.0 11309700000.0 11309700000.0 11309700000.0 11309700000.0 11309700000.0 11309700000.0 11309700000.0 11309700000.0 11309700000.0 11309700000.0 11309700000.0 11309700000.0 11309700000.0 11309700000.0 11309700000.0 11309700000.0 11309700000.0 11309700000.0 11309700000.0 11309700000.0 11309700000.0 11309700000.0 11309700000.0 11309700000.0 11309700000.0 11309700000.0 11309700000.0 11309700000.0 11309700000.0 11309700000.0 11309700000.0 11309700000.0 11309700000.0 11309700000.0 11309700000.0 11309700000.0 11309700000.0 11309700000.0 11309700000.0 11309700000.0 11309700000.0 11309700000.0 11309700000.0 11309700000.0 11309700000.0 11309700000.0 11309700000.0 11309700000.0 11309700000.0 11309700000.0 11309700000.0 11309700000.0 11309700000.0 11309700000.0 11309700000.0 11309700000.0 11309700000.0 11309700000.0 11309700000.0 11309700000.0 11309700000.0 11309700000.0 11309700000.0 11309700000.0 11309700000.0 11309700000.0 11309700000.0 11309700000.0 11309700000.0 11309700000.0 11309700000.0 11309700000.0 11309700000.0 11309700000.0 11309700000.0 11309700000.0 11309700000.0 11309700000.0 11309700000.0 11309700000.0 11309700000.0 11309700000.0 11309700000.0 11309700000.0 11309700000.0 11309700000.0 11309700000.0 11309700000.0 11309700000.0 11309700000.0 11309700000.0 11309700000.0 11309700000.0 11309700000.0 11309700000.0 11309700000.0 11309700000.0 11309700000.0 11309700000.0 11309700000.0 11309700000.0 11309700000.0 11309700000.0 11309700000.0 11309700000.0 11309700000.0 11309700000.0 11309700000.0 11309700000.0 11309700000.0 11309700000.0 11309700000.0 11309700000.0 11309700000.0 11309700000.0 11309700000.0 11309700000.0 11309700000.0 11309700000.0 11309700000.0 11309700000.0 11309700000.0 11309700000.0 11309700000.0 11309700000.0 11309700000.0 11309700000.0 11309700000.0 11309700000.0 11309700000.0 11309700000.0 11309700000.0 11309700000.0 11309700000.0 11309700000.0 11309700000.0 11309700000.0 11309700000.0 11309700000.0 11309700000.0 11309700000.0 11309700000.0 11309700000.0 11309700000.0 11309700000.0 11309700000.0 11309700000.0 11309700000.0 11309700000.0 11309700000.0 11309700000.0 11309700000.0 11309700000.0 11309700000.0 11309700000.0 11309700000.0 11309700000.0 11309700000.0 11309700000.0 11309700000.0 11309700000.0 11309700000.0 11309700000.0 11309700000.0 11309700000.0 11309700000.0 11309700000.0 11309700000.0 11309700000.0 11309700000.0 11309700000.0 11309700000.0 11309700000.0 11309700000.0 11309700000.0 11309700000.0 11309700000.0 11309700000.0 11309700000.0 11309700000.0 11309700000.0 11309700000.0 11309700000.0 11309700000.0 11309700000.0 11309700000.0 11309700000.0 11309700000.0 11309700000.0 11309700000.0 11309700000.0 11309700000.0 11309700000.0 11309700000.0 11309700000.0 11309700000.0 11309700000.0 11309700000.0 11309700000.0 11309700000.0 11309700000.0 11309700000.0 11309700000.0 11309700000.0 11309700000.0 11309700000.0 11309700000.0 11309700000.0 11309700000.0 11309700000.0 11309700000.0 11309700000.0 11309700000.0 11309700000.0 11309700000.0 11309700000.0 11309700000.0 11309700000.0 11309700000.0 11309700000.0 11309700000.0 11309700000.0 11309700000.0 11309700000.0 11309700000.0 11309700000.0 11309700000.0 11309700000.0 11309700000.0 11309700000.0 11309700000.0 11309700000.0 11309700000.0 11309700000.0 11309700000.0 11309700000.0 11309700000.0 11309700000.0 11309700000.0 11309700000.0 11309700000.0 11309700000.0 11309700000.0 11309700000.0 11309700000.0 11309700000.0 11309700000.0 11309700000.0 11309700000.0 11309700000.0 11309700000.0 11309700000.0 11309700000.0 11309700000.0 11309700000.0 11309700000.0 11309700000.0 11309700000.0 11309700000.0 11309700000.0 11309700000.0 11309700000.0 11309700000.0 11309700000.0 11309700000.0 11309700000.0 11309700000.0 11309700000.0 11309700000.0 11309700000.0 11309700000.0 11309700000.0 11309700000.0 11309700000.0 11309700000.0 11309700000.0 11309700000.0 11309700000.0 11309700000.0 11309700000.0 11309700000.0 11309700000.0 11309700000.0 11309700000.0 11309700000.0 11309700000.0 11309700000.0 11309700000.0 11309700000.0 11309700000.0 11309700000.0 11309700000.0 11309700000.0 11309700000.0 11309700000.0 11309700000.0 11309700000.0 11309700000.0 11309700000.0 11309700000.0 11309700000.0 11309700000.0 11309700000.0 11309700000.0 11309700000.0 11309700000.0 11309700000.0 11309700000.0 11309700000.0 11309700000.0 11309700000.0 11309700000.0 11309700000.0 11309700000.0 11309700000.0 11309700000.0 11309700000.0 11309700000.0 11309700000.0 11309700000.0 11309700000.0 11309700000.0 11309700000.0 11309700000.0 11309700000.0 11309700000.0 11309700000.0 11309700000.0 11309700000.0 11309700000.0 11309700000.0 11309700000.0 11309700000.0 11309700000.0 11309700000.0 11309700000.0 11309700000.0 11309700000.0 11309700000.0 11309700000.0 11309700000.0 11309700000.0 11309700000.0 11309700000.0 11309700000.0 11309700000.0 11309700000.0 11309700000.0 11309700000.0 11309700000.0 11309700000.0 11309700000.0 11309700000.0 11309700000.0 11309700000.0 11309700000.0 11309700000.0 11309700000.0 11309700000.0 11309700000.0 11309700000.0 11309700000.0 11309700000.0 11309700000.0 11309700000.0 11309700000.0 11309700000.0 11309700000.0 11309700000.0 11309700000.0 11309700000.0 11309700000.0 11309700000.0 11309700000.0 11309700000.0 11309700000.0 11309700000.0 11309700000.0 11309700000.0 11309700000.0 11309700000.0 11309700000.0 11309700000.0 11309700000.0 11309700000.0 11309700000.0 11309700000.0 11309700000.0 11309700000.0 11309700000.0 11309700000.0 11309700000.0 11309700000.0 11309700000.0 11309700000.0 11309700000.0 11309700000.0 11309700000.0 11309700000.0 11309700000.0 11309700000.0 11309700000.0 11309700000.0 11309700000.0 11309700000.0 11309700000.0 11309700000.0 11309700000.0 11309700000.0 11309700000.0 11309700000.0 11309700000.0 11309700000.0 11309700000.0 11309700000.0 11309700000.0 11309700000.0 11309700000.0 11309700000.0 11309700000.0 11309700000.0 11309700000.0 11309700000.0 11309700000.0 11309700000.0 11309700000.0 11309700000.0 11309700000.0 11309700000.0 11309700000.0 11309700000.0 11309700000.0 11309700000.0 11309700000.0 11309700000.0 11309700000.0 11309700000.0 11309700000.0 11309700000.0 11309700000.0 11309700000.0 11309700000.0 11309700000.0 11309700000.0 11309700000.0 11309700000.0 11309700000.0 11309700000.0 11309700000.0 11309700000.0 11309700000.0 11309700000.0 11309700000.0 11309700000.0 11309700000.0 11309700000.0 11309700000.0 11309700000.0 11309700000.0 11309700000.0 11309700000.0 11309700000.0 11309700000.0 11309700000.0 11309700000.0 11309700000.0 11309700000.0 11309700000.0 11309700000.0 11309700000.0 11309700000.0 11309700000.0 11309700000.0 11309700000.0 11309700000.0 11309700000.0 11309700000.0 11309700000.0 11309700000.0 11309700000.0 11309700000.0 11309700000.0 11309700000.0 11309700000.0 11309700000.0 11309700000.0 11309700000.0 11309700000.0 11309700000.0 11309700000.0 11309700000.0 11309700000.0 11309700000.0 11309700000.0 11309700000.0 11309700000.0 11309700000.0 11309700000.0 11309700000.0 11309700000.0 11309700000.0 11309700000.0 11309700000.0 11309700000.0 11309700000.0 11309700000.0 11309700000.0 11309700000.0 11309700000.0 11309700000.0 11309700000.0 11309700000.0 11309700000.0 11309700000.0 11309700000.0 11309700000.0 11309700000.0 11309700000.0 11309700000.0 11309700000.0 11309700000.0 11309700000.0 11309700000.0 11309700000.0 11309700000.0 11309700000.0 11309700000.0 11309700000.0 11309700000.0 11309700000.0 11309700000.0 11309700000.0 11309700000.0 11309700000.0 11309700000.0 11309700000.0 11309700000.0 11309700000.0 11309700000.0 11309700000.0 11309700000.0 11309700000.0 11309700000.0 11309700000.0 11309700000.0 11309700000.0 11309700000.0 11309700000.0 11309700000.0 11309700000.0 11309700000.0 11309700000.0 11309700000.0 11309700000.0 11309700000.0 11309700000.0 11309700000.0 11309700000.0 11309700000.0 11309700000.0 11309700000.0 11309700000.0 11309700000.0 11309700000.0 11309700000.0 11309700000.0 11309700000.0 11309700000.0 11309700000.0 11309700000.0 11309700000.0 11309700000.0 11309700000.0 11309700000.0 11309700000.0 11309700000.0 11309700000.0 11309700000.0 11309700000.0 11309700000.0 11309700000.0 11309700000.0 11309700000.0 11309700000.0 11309700000.0 11309700000.0 11309700000.0 11309700000.0 11309700000.0 11309700000.0 11309700000.0 11309700000.0 11309700000.0 11309700000.0 11309700000.0 11309700000.0 11309700000.0 11309700000.0 11309700000.0 11309700000.0 11309700000.0 11309700000.0 11309700000.0 11309700000.0 11309700000.0 11309700000.0 11309700000.0 11309700000.0 11309700000.0 11309700000.0 11309700000.0 11309700000.0 11309700000.0 11309700000.0 11309700000.0 11309700000.0 11309700000.0 11309700000.0 11309700000.0 11309700000.0 11309700000.0 11309700000.0 11309700000.0 11309700000.0 11309700000.0 11309700000.0 11309700000.0 11309700000.0 11309700000.0 11309700000.0 11309700000.0 11309700000.0 11309700000.0 11309700000.0 11309700000.0 11309700000.0 11309700000.0 11309700000.0 11309700000.0 11309700000.0 11309700000.0 11309700000.0 11309700000.0 11309700000.0 11309700000.0 11309700000.0 11309700000.0 11309700000.0 11309700000.0 11309700000.0 11309700000.0 11309700000.0 11309700000.0 11309700000.0 11309700000.0 11309700000.0 11309700000.0 11309700000.0 11309700000.0 11309700000.0 11309700000.0 11309700000.0 11309700000.0 11309700000.0 11309700000.0 11309700000.0 11309700000.0 11309700000.0 11309700000.0 11309700000.0 11309700000.0 11309700000.0 11309700000.0 11309700000.0 11309700000.0 11309700000.0 11309700000.0 11309700000.0 11309700000.0 11309700000.0 11309700000.0 11309700000.0 11309700000.0 11309700000.0 11309700000.0 11309700000.0 11309700000.0 11309700000.0 11309700000.0 11309700000.0 11309700000.0 11309700000.0 11309700000.0 11309700000.0 11309700000.0 11309700000.0 11309700000.0 11309700000.0 11309700000.0 11309700000.0 11309700000.0 11309700000.0 11309700000.0 11309700000.0 11309700000.0 11309700000.0 11309700000.0 11309700000.0 11309700000.0 11309700000.0 11309700000.0 11309700000.0 11309700000.0 11309700000.0 11309700000.0 11309700000.0 11309700000.0 11309700000.0 11309700000.0 11309700000.0 11309700000.0 11309700000.0 11309700000.0 11309700000.0 11309700000.0 11309700000.0 11309700000.0 11309700000.0 11309700000.0 11309700000.0 11309700000.0 11309700000.0 11309700000.0 11309700000.0 11309700000.0 11309700000.0 11309700000.0 11309700000.0 11309700000.0 11309700000.0 11309700000.0 11309700000.0 11309700000.0 11309700000.0 11309700000.0 11309700000.0 11309700000.0 11309700000.0 11309700000.0 11309700000.0 11309700000.0 11309700000.0 11309700000.0 11309700000.0 11309700000.0 11309700000.0 11309700000.0 11309700000.0 11309700000.0 11309700000.0 11309700000.0 11309700000.0 11309700000.0 11309700000.0 11309700000.0 11309700000.0 11309700000.0 11309700000.0 11309700000.0 11309700000.0 11309700000.0 11309700000.0 11309700000.0 11309700000.0 11309700000.0 11309700000.0 11309700000.0 11309700000.0 11309700000.0 11309700000.0 11309700000.0 11309700000.0 11309700000.0 11309700000.0 11309700000.0 11309700000.0 11309700000.0 11309700000.0 11309700000.0 11309700000.0 11309700000.0 11309700000.0 11309700000.0 11309700000.0 11309700000.0 11309700000.0 11309700000.0 11309700000.0 11309700000.0 11309700000.0 11309700000.0 11309700000.0 11309700000.0 11309700000.0 11309700000.0 11309700000.0 11309700000.0 11309700000.0 11309700000.0 11309700000.0 11309700000.0 11309700000.0 11309700000.0 11309700000.0 11309700000.0 11309700000.0 11309700000.0 11309700000.0 11309700000.0 11309700000.0 11309700000.0 11309700000.0 11309700000.0 11309700000.0 11309700000.0 11309700000.0 11309700000.0 11309700000.0 11309700000.0 11309700000.0 11309700000.0 11309700000.0 11309700000.0 11309700000.0 11309700000.0 11309700000.0 11309700000.0 11309700000.0 11309700000.0 11309700000.0 11309700000.0 11309700000.0 11309700000.0 11309700000.0 11309700000.0 11309700000.0 11309700000.0 11309700000.0 11309700000.0 11309700000.0 11309700000.0 11309700000.0 11309700000.0 11309700000.0 11309700000.0 11309700000.0 11309700000.0 11309700000.0 11309700000.0 11309700000.0 11309700000.0 11309700000.0 11309700000.0 11309700000.0 11309700000.0 11309700000.0 11309700000.0 11309700000.0 11309700000.0 11309700000.0 11309700000.0 11309700000.0 11309700000.0 11309700000.0 11309700000.0 11309700000.0 11309700000.0 11309700000.0 11309700000.0 11309700000.0 11309700000.0 11309700000.0 11309700000.0 11309700000.0 11309700000.0 11309700000.0 11309700000.0 11309700000.0 11309700000.0 11309700000.0 11309700000.0 11309700000.0 11309700000.0 11309700000.0 11309700000.0 11309700000.0 11309700000.0 11309700000.0 11309700000.0 11309700000.0 11309700000.0 11309700000.0 11309700000.0 11309700000.0 11309700000.0 11309700000.0 11309700000.0 11309700000.0 11309700000.0 11309700000.0 11309700000.0 11309700000.0 11309700000.0 11309700000.0 11309700000.0 11309700000.0 11309700000.0 11309700000.0 11309700000.0 11309700000.0 11309700000.0 11309700000.0 11309700000.0 11309700000.0 11309700000.0 11309700000.0 11309700000.0 11309700000.0 11309700000.0 11309700000.0 11309700000.0 11309700000.0 11309700000.0 11309700000.0 11309700000.0 11309700000.0 11309700000.0 11309700000.0 11309700000.0 11309700000.0 11309700000.0 11309700000.0 11309700000.0 11309700000.0 11309700000.0 11309700000.0 11309700000.0 11309700000.0 11309700000.0 11309700000.0 11309700000.0 11309700000.0 11309700000.0 11309700000.0 11309700000.0 11309700000.0 11309700000.0 11309700000.0 11309700000.0 11309700000.0 11309700000.0 11309700000.0 11309700000.0 11309700000.0 11309700000.0 11309700000.0 11309700000.0 11309700000.0 11309700000.0 11309700000.0 11309700000.0 11309700000.0 11309700000.0 11309700000.0 11309700000.0 11309700000.0 11309700000.0 11309700000.0 11309700000.0 11309700000.0 11309700000.0 11309700000.0 11309700000.0 11309700000.0 11309700000.0 11309700000.0 11309700000.0 11309700000.0 11309700000.0 11309700000.0 11309700000.0 11309700000.0 11309700000.0 11309700000.0 11309700000.0 11309700000.0 11309700000.0 11309700000.0 11309700000.0 11309700000.0 11309700000.0 11309700000.0 11309700000.0 11309700000.0 11309700000.0 11309700000.0 11309700000.0 11309700000.0 11309700000.0 11309700000.0 11309700000.0 11309700000.0 11309700000.0 11309700000.0 11309700000.0 11309700000.0 11309700000.0 11309700000.0 11309700000.0 11309700000.0 11309700000.0 11309700000.0 11309700000.0 11309700000.0 11309700000.0 11309700000.0 11309700000.0 11309700000.0 11309700000.0 11309700000.0 11309700000.0 11309700000.0 11309700000.0 11309700000.0 11309700000.0 11309700000.0 11309700000.0 11309700000.0 11309700000.0 11309700000.0 11309700000.0 11309700000.0 11309700000.0 11309700000.0 11309700000.0 11309700000.0 11309700000.0 11309700000.0 11309700000.0 11309700000.0 11309700000.0 11309700000.0 11309700000.0 11309700000.0 11309700000.0 11309700000.0 11309700000.0 11309700000.0 11309700000.0 11309700000.0 11309700000.0 11309700000.0 11309700000.0 11309700000.0 11309700000.0 11309700000.0 11309700000.0 11309700000.0 11309700000.0 11309700000.0 11309700000.0 11309700000.0 11309700000.0 11309700000.0 11309700000.0 11309700000.0 11309700000.0 11309700000.0 11309700000.0 11309700000.0 11309700000.0 11309700000.0 11309700000.0 11309700000.0 11309700000.0 11309700000.0 11309700000.0 11309700000.0 11309700000.0 11309700000.0 11309700000.0 11309700000.0 11309700000.0 11309700000.0 11309700000.0 11309700000.0 11309700000.0 11309700000.0 11309700000.0 11309700000.0 11309700000.0 11309700000.0 11309700000.0 11309700000.0 11309700000.0 11309700000.0 11309700000.0 11309700000.0 11309700000.0 11309700000.0 11309700000.0 11309700000.0 11309700000.0 11309700000.0 11309700000.0 11309700000.0 11309700000.0 11309700000.0 11309700000.0 11309700000.0 11309700000.0 11309700000.0 11309700000.0 11309700000.0 11309700000.0 11309700000.0 11309700000.0 11309700000.0 11309700000.0 11309700000.0 11309700000.0 11309700000.0 11309700000.0 11309700000.0 11309700000.0 11309700000.0 11309700000.0 11309700000.0 11309700000.0 11309700000.0 11309700000.0 11309700000.0 11309700000.0 11309700000.0 11309700000.0 11309700000.0 11309700000.0 11309700000.0 11309700000.0 11309700000.0 11309700000.0 11309700000.0 11309700000.0 11309700000.0 11309700000.0 11309700000.0 11309700000.0 11309700000.0 11309700000.0 11309700000.0 11309700000.0 11309700000.0 11309700000.0 11309700000.0 11309700000.0 11309700000.0 11309700000.0 11309700000.0 11309700000.0 11309700000.0 11309700000.0 11309700000.0 11309700000.0 11309700000.0 11309700000.0 11309700000.0 11309700000.0 11309700000.0 11309700000.0 11309700000.0 11309700000.0 11309700000.0 11309700000.0 11309700000.0 11309700000.0 11309700000.0 11309700000.0 11309700000.0 11309700000.0 11309700000.0 11309700000.0 11309700000.0 11309700000.0 11309700000.0 11309700000.0 11309700000.0 11309700000.0 11309700000.0 11309700000.0 11309700000.0 11309700000.0 11309700000.0 11309700000.0 11309700000.0 11309700000.0 11309700000.0 11309700000.0 11309700000.0 11309700000.0 11309700000.0 11309700000.0 11309700000.0 11309700000.0 11309700000.0 11309700000.0 11309700000.0 11309700000.0 11309700000.0 11309700000.0 11309700000.0 11309700000.0 11309700000.0 11309700000.0 11309700000.0 11309700000.0 11309700000.0 11309700000.0 11309700000.0 11309700000.0 11309700000.0 11309700000.0 11309700000.0 11309700000.0 11309700000.0 11309700000.0 11309700000.0 11309700000.0 11309700000.0 11309700000.0 11309700000.0 11309700000.0 11309700000.0 11309700000.0 11309700000.0 11309700000.0 11309700000.0 11309700000.0 11309700000.0 11309700000.0 11309700000.0 11309700000.0 11309700000.0 11309700000.0 11309700000.0 11309700000.0 11309700000.0 11309700000.0 11309700000.0 11309700000.0 11309700000.0 11309700000.0 11309700000.0 11309700000.0 11309700000.0 11309700000.0 11309700000.0 11309700000.0 11309700000.0 11309700000.0 11309700000.0 11309700000.0 11309700000.0 11309700000.0 11309700000.0 11309700000.0 11309700000.0 11309700000.0 11309700000.0 11309700000.0 11309700000.0 11309700000.0 11309700000.0 11309700000.0 11309700000.0 11309700000.0 11309700000.0 11309700000.0 11309700000.0 11309700000.0 11309700000.0 11309700000.0 11309700000.0 11309700000.0 11309700000.0 11309700000.0 11309700000.0 11309700000.0 11309700000.0 11309700000.0 11309700000.0 11309700000.0 11309700000.0 11309700000.0 11309700000.0 11309700000.0 11309700000.0 11309700000.0 11309700000.0 11309700000.0 11309700000.0 11309700000.0 11309700000.0 11309700000.0 11309700000.0 11309700000.0 11309700000.0 11309700000.0 11309700000.0 11309700000.0 11309700000.0 11309700000.0 11309700000.0 11309700000.0 11309700000.0 11309700000.0 11309700000.0 11309700000.0 11309700000.0 11309700000.0 11309700000.0 11309700000.0 11309700000.0 11309700000.0 11309700000.0 11309700000.0 11309700000.0 11309700000.0 11309700000.0 11309700000.0 11309700000.0 11309700000.0 11309700000.0 11309700000.0 11309700000.0 11309700000.0 11309700000.0 11309700000.0 11309700000.0 11309700000.0 11309700000.0 11309700000.0 11309700000.0 11309700000.0 11309700000.0 11309700000.0 11309700000.0 11309700000.0 11309700000.0 11309700000.0 11309700000.0 11309700000.0 11309700000.0 11309700000.0 11309700000.0 11309700000.0 11309700000.0 11309700000.0 11309700000.0 11309700000.0 11309700000.0 11309700000.0 11309700000.0 11309700000.0 11309700000.0 11309700000.0 11309700000.0 11309700000.0 11309700000.0 11309700000.0 11309700000.0 11309700000.0 11309700000.0 11309700000.0 11309700000.0 11309700000.0 11309700000.0 11309700000.0 11309700000.0 11309700000.0 11309700000.0 11309700000.0 11309700000.0 11309700000.0 11309700000.0 11309700000.0 11309700000.0 11309700000.0 11309700000.0 11309700000.0 11309700000.0 11309700000.0 11309700000.0 11309700000.0 11309700000.0 11309700000.0 11309700000.0 11309700000.0 11309700000.0 11309700000.0 11309700000.0 11309700000.0 11309700000.0 11309700000.0 11309700000.0 11309700000.0 11309700000.0 11309700000.0 11309700000.0 11309700000.0 11309700000.0 11309700000.0 11309700000.0 11309700000.0 11309700000.0 11309700000.0 11309700000.0 11309700000.0 11309700000.0 11309700000.0 11309700000.0 11309700000.0 11309700000.0 11309700000.0 11309700000.0 11309700000.0 11309700000.0 11309700000.0 11309700000.0 11309700000.0 11309700000.0 11309700000.0 11309700000.0 11309700000.0 11309700000.0 11309700000.0 11309700000.0 11309700000.0 11309700000.0 11309700000.0 11309700000.0 11309700000.0 11309700000.0 11309700000.0 11309700000.0 11309700000.0 11309700000.0 11309700000.0 11309700000.0 11309700000.0 11309700000.0 11309700000.0 11309700000.0 11309700000.0 11309700000.0 11309700000.0 11309700000.0 11309700000.0 11309700000.0 11309700000.0 11309700000.0 11309700000.0 11309700000.0 11309700000.0 11309700000.0 11309700000.0 11309700000.0 11309700000.0 11309700000.0 11309700000.0 11309700000.0 11309700000.0 11309700000.0 11309700000.0 11309700000.0 11309700000.0 11309700000.0 11309700000.0 11309700000.0 11309700000.0 11309700000.0 11309700000.0 11309700000.0 11309700000.0 11309700000.0 11309700000.0 11309700000.0 11309700000.0 11309700000.0 11309700000.0 11309700000.0 11309700000.0 11309700000.0 11309700000.0 11309700000.0 11309700000.0 11309700000.0 11309700000.0 11309700000.0 11309700000.0 11309700000.0 11309700000.0 11309700000.0 11309700000.0 11309700000.0 11309700000.0 11309700000.0 11309700000.0 11309700000.0 11309700000.0 11309700000.0 11309700000.0 11309700000.0 11309700000.0 11309700000.0 11309700000.0 11309700000.0 11309700000.0 11309700000.0 11309700000.0 11309700000.0 11309700000.0 11309700000.0 11309700000.0 11309700000.0 11309700000.0 11309700000.0 11309700000.0 11309700000.0 11309700000.0 11309700000.0 11309700000.0 11309700000.0 11309700000.0 11309700000.0 11309700000.0 11309700000.0 11309700000.0 11309700000.0 11309700000.0 11309700000.0 11309700000.0 11309700000.0 11309700000.0 11309700000.0 11309700000.0 11309700000.0 11309700000.0 11309700000.0 11309700000.0 11309700000.0 11309700000.0 11309700000.0 11309700000.0 11309700000.0 11309700000.0 11309700000.0 11309700000.0 11309700000.0 11309700000.0 11309700000.0 11309700000.0 11309700000.0 11309700000.0 11309700000.0 11309700000.0 11309700000.0 11309700000.0 11309700000.0 11309700000.0 11309700000.0 11309700000.0 11309700000.0 11309700000.0 11309700000.0 11309700000.0 11309700000.0 11309700000.0 11309700000.0 11309700000.0 11309700000.0 11309700000.0 11309700000.0 11309700000.0 11309700000.0 11309700000.0 11309700000.0 11309700000.0 11309700000.0 11309700000.0 11309700000.0 11309700000.0 11309700000.0 11309700000.0 11309700000.0 11309700000.0 11309700000.0 11309700000.0 11309700000.0 11309700000.0 11309700000.0 11309700000.0 11309700000.0 11309700000.0 11309700000.0 11309700000.0 11309700000.0 11309700000.0 11309700000.0 11309700000.0 11309700000.0 11309700000.0 11309700000.0 11309700000.0 11309700000.0 11309700000.0 11309700000.0 11309700000.0 11309700000.0 11309700000.0 11309700000.0 11309700000.0 11309700000.0 11309700000.0 11309700000.0 11309700000.0 11309700000.0 11309700000.0 11309700000.0 11309700000.0 11309700000.0 11309700000.0 11309700000.0 11309700000.0 11309700000.0 11309700000.0 11309700000.0 11309700000.0 11309700000.0 11309700000.0 11309700000.0 11309700000.0 11309700000.0 11309700000.0 11309700000.0 11309700000.0 11309700000.0 11309700000.0 11309700000.0 11309700000.0 11309700000.0 11309700000.0 11309700000.0 11309700000.0 11309700000.0 11309700000.0 11309700000.0 11309700000.0 11309700000.0 11309700000.0 11309700000.0 11309700000.0 11309700000.0 11309700000.0 11309700000.0 11309700000.0 11309700000.0 11309700000.0 11309700000.0 11309700000.0 11309700000.0 11309700000.0 11309700000.0 11309700000.0 11309700000.0 11309700000.0 11309700000.0 11309700000.0 11309700000.0 11309700000.0 11309700000.0 11309700000.0 11309700000.0 11309700000.0 11309700000.0 11309700000.0 11309700000.0 11309700000.0 11309700000.0 11309700000.0 11309700000.0 11309700000.0 11309700000.0 11309700000.0 11309700000.0 11309700000.0 11309700000.0 11309700000.0 11309700000.0 11309700000.0 11309700000.0 11309700000.0 11309700000.0 11309700000.0 11309700000.0 11309700000.0 11309700000.0 11309700000.0 11309700000.0 11309700000.0 11309700000.0 11309700000.0 11309700000.0 11309700000.0 11309700000.0 11309700000.0 11309700000.0 11309700000.0 11309700000.0 11309700000.0 11309700000.0 11309700000.0 11309700000.0 11309700000.0 11309700000.0 11309700000.0 11309700000.0 11309700000.0 11309700000.0 11309700000.0 11309700000.0 11309700000.0 11309700000.0 11309700000.0 11309700000.0 11309700000.0 11309700000.0 11309700000.0 11309700000.0 11309700000.0 11309700000.0 11309700000.0 11309700000.0 11309700000.0 11309700000.0 11309700000.0 11309700000.0 11309700000.0 11309700000.0 11309700000.0 11309700000.0 11309700000.0 11309700000.0 11309700000.0 11309700000.0 11309700000.0 11309700000.0 11309700000.0 11309700000.0 11309700000.0 11309700000.0 11309700000.0 11309700000.0 11309700000.0 11309700000.0 11309700000.0 11309700000.0 11309700000.0 11309700000.0 11309700000.0 11309700000.0 11309700000.0 11309700000.0 11309700000.0 11309700000.0 11309700000.0 11309700000.0 11309700000.0 11309700000.0 11309700000.0 11309700000.0 11309700000.0 11309700000.0 11309700000.0 11309700000.0 11309700000.0 11309700000.0 11309700000.0 11309700000.0 11309700000.0 11309700000.0 11309700000.0 11309700000.0 11309700000.0 11309700000.0 11309700000.0 11309700000.0 11309700000.0 11309700000.0 11309700000.0 11309700000.0 11309700000.0 11309700000.0 11309700000.0 11309700000.0 11309700000.0 11309700000.0 11309700000.0 11309700000.0 11309700000.0 11309700000.0 11309700000.0 11309700000.0 11309700000.0 11309700000.0 11309700000.0 11309700000.0 11309700000.0 11309700000.0 11309700000.0 11309700000.0 11309700000.0 11309700000.0 11309700000.0 11309700000.0 11309700000.0 11309700000.0 11309700000.0 11309700000.0 11309700000.0 11309700000.0 11309700000.0 11309700000.0 11309700000.0 11309700000.0 11309700000.0 11309700000.0 11309700000.0 11309700000.0 11309700000.0 11309700000.0 11309700000.0 11309700000.0 11309700000.0 11309700000.0 11309700000.0 11309700000.0 11309700000.0 11309700000.0 11309700000.0 11309700000.0 11309700000.0 11309700000.0 11309700000.0 11309700000.0 11309700000.0 11309700000.0 11309700000.0 11309700000.0 11309700000.0 11309700000.0 11309700000.0 11309700000.0 11309700000.0 11309700000.0 11309700000.0 11309700000.0 11309700000.0 11309700000.0 11309700000.0 11309700000.0 11309700000.0 11309700000.0 11309700000.0 11309700000.0 11309700000.0 11309700000.0 11309700000.0 11309700000.0 11309700000.0 11309700000.0 11309700000.0 11309700000.0 11309700000.0 11309700000.0 11309700000.0 11309700000.0 11309700000.0 11309700000.0 11309700000.0 11309700000.0 11309700000.0 11309700000.0 11309700000.0 11309700000.0 11309700000.0 11309700000.0 11309700000.0 11309700000.0 11309700000.0 11309700000.0 11309700000.0 11309700000.0 11309700000.0 11309700000.0 11309700000.0 11309700000.0 11309700000.0 11309700000.0 11309700000.0 11309700000.0 11309700000.0 11309700000.0 11309700000.0 11309700000.0 11309700000.0 11309700000.0 11309700000.0 11309700000.0 11309700000.0 11309700000.0 11309700000.0 11309700000.0 11309700000.0 11309700000.0 11309700000.0 11309700000.0 11309700000.0 11309700000.0 11309700000.0 11309700000.0 11309700000.0 11309700000.0 11309700000.0 11309700000.0 11309700000.0 11309700000.0 11309700000.0 11309700000.0 11309700000.0 11309700000.0 11309700000.0 11309700000.0 11309700000.0 11309700000.0 11309700000.0 11309700000.0 11309700000.0 11309700000.0 11309700000.0 11309700000.0 11309700000.0 11309700000.0 11309700000.0 11309700000.0 11309700000.0 11309700000.0 11309700000.0 11309700000.0 11309700000.0 11309700000.0 11309700000.0 11309700000.0 11309700000.0 11309700000.0 11309700000.0 11309700000.0 11309700000.0 11309700000.0 11309700000.0 11309700000.0 11309700000.0 11309700000.0 11309700000.0 11309700000.0 11309700000.0 11309700000.0 11309700000.0 11309700000.0 11309700000.0 11309700000.0 11309700000.0 11309700000.0 11309700000.0 11309700000.0 11309700000.0 11309700000.0 11309700000.0 11309700000.0 11309700000.0 11309700000.0 11309700000.0 11309700000.0 11309700000.0 11309700000.0 11309700000.0 11309700000.0 11309700000.0 11309700000.0 11309700000.0 11309700000.0 11309700000.0 11309700000.0 11309700000.0 11309700000.0 11309700000.0 11309700000.0 11309700000.0 11309700000.0 11309700000.0 11309700000.0 11309700000.0 11309700000.0 11309700000.0 11309700000.0 11309700000.0 11309700000.0 11309700000.0 11309700000.0 11309700000.0 11309700000.0 11309700000.0 11309700000.0 11309700000.0 11309700000.0 11309700000.0 11309700000.0 11309700000.0 11309700000.0 11309700000.0 11309700000.0 11309700000.0 11309700000.0 11309700000.0 11309700000.0 11309700000.0 11309700000.0 11309700000.0 11309700000.0 11309700000.0 11309700000.0 11309700000.0 11309700000.0 11309700000.0 11309700000.0 11309700000.0 11309700000.0 11309700000.0 11309700000.0 11309700000.0 11309700000.0 11309700000.0 11309700000.0 11309700000.0 11309700000.0 11309700000.0 11309700000.0 11309700000.0 11309700000.0 11309700000.0 11309700000.0 11309700000.0 11309700000.0 11309700000.0 11309700000.0 11309700000.0 11309700000.0 11309700000.0 11309700000.0 11309700000.0 11309700000.0 11309700000.0 11309700000.0 11309700000.0 11309700000.0 11309700000.0 11309700000.0 11309700000.0 11309700000.0 11309700000.0 11309700000.0 11309700000.0 11309700000.0 11309700000.0 11309700000.0 11309700000.0 11309700000.0 11309700000.0 11309700000.0 11309700000.0 11309700000.0 11309700000.0 11309700000.0 11309700000.0 11309700000.0 11309700000.0 11309700000.0 11309700000.0 11309700000.0 11309700000.0 11309700000.0 11309700000.0 11309700000.0 11309700000.0 11309700000.0 11309700000.0 11309700000.0 11309700000.0 11309700000.0 11309700000.0 11309700000.0 11309700000.0 11309700000.0 11309700000.0 11309700000.0 11309700000.0 11309700000.0 11309700000.0 11309700000.0 11309700000.0 11309700000.0 11309700000.0 11309700000.0 11309700000.0 11309700000.0 11309700000.0 11309700000.0 11309700000.0 11309700000.0 11309700000.0 11309700000.0 11309700000.0 11309700000.0 11309700000.0 11309700000.0 11309700000.0 11309700000.0 11309700000.0 11309700000.0 11309700000.0 11309700000.0 11309700000.0 11309700000.0 11309700000.0 11309700000.0 11309700000.0 11309700000.0 11309700000.0 11309700000.0 11309700000.0 11309700000.0 11309700000.0 11309700000.0 11309700000.0 11309700000.0 11309700000.0 11309700000.0 11309700000.0 11309700000.0 11309700000.0 11309700000.0 11309700000.0 11309700000.0 11309700000.0 11309700000.0 11309700000.0 11309700000.0 11309700000.0 11309700000.0 11309700000.0 11309700000.0 11309700000.0 11309700000.0 11309700000.0 11309700000.0 11309700000.0 11309700000.0 11309700000.0 11309700000.0 11309700000.0 11309700000.0 11309700000.0 11309700000.0 11309700000.0 11309700000.0 11309700000.0 11309700000.0 11309700000.0 11309700000.0 11309700000.0 11309700000.0 11309700000.0 11309700000.0 11309700000.0 11309700000.0 11309700000.0 11309700000.0 11309700000.0 11309700000.0 11309700000.0 11309700000.0 11309700000.0 11309700000.0 11309700000.0 11309700000.0 11309700000.0 11309700000.0 11309700000.0 11309700000.0 11309700000.0 11309700000.0 11309700000.0 11309700000.0 11309700000.0 11309700000.0 11309700000.0 11309700000.0 11309700000.0 11309700000.0 11309700000.0 11309700000.0 11309700000.0 11309700000.0 11309700000.0 11309700000.0 11309700000.0 11309700000.0 11309700000.0 11309700000.0 11309700000.0 11309700000.0 11309700000.0 11309700000.0 11309700000.0 11309700000.0 11309700000.0 11309700000.0 11309700000.0 11309700000.0 11309700000.0 11309700000.0 11309700000.0 11309700000.0 11309700000.0 11309700000.0 11309700000.0 11309700000.0 11309700000.0 11309700000.0 11309700000.0 11309700000.0 11309700000.0 11309700000.0 11309700000.0 11309700000.0 11309700000.0 11309700000.0 11309700000.0 11309700000.0 11309700000.0 11309700000.0 11309700000.0 11309700000.0 11309700000.0 11309700000.0 11309700000.0 11309700000.0 11309700000.0 11309700000.0 11309700000.0 11309700000.0 11309700000.0 11309700000.0 11309700000.0 11309700000.0 11309700000.0 11309700000.0 11309700000.0 11309700000.0 11309700000.0 11309700000.0 11309700000.0 11309700000.0 11309700000.0 11309700000.0 11309700000.0 11309700000.0 11309700000.0 11309700000.0 11309700000.0 11309700000.0 11309700000.0 11309700000.0 11309700000.0 11309700000.0 11309700000.0 11309700000.0 11309700000.0 11309700000.0 11309700000.0 11309700000.0 11309700000.0 11309700000.0 11309700000.0 11309700000.0 11309700000.0 11309700000.0 11309700000.0 11309700000.0 11309700000.0 11309700000.0 11309700000.0 11309700000.0 11309700000.0 11309700000.0 11309700000.0 11309700000.0 11309700000.0 11309700000.0 11309700000.0 11309700000.0 11309700000.0 11309700000.0 11309700000.0 11309700000.0 11309700000.0 11309700000.0 11309700000.0 11309700000.0 11309700000.0 11309700000.0 11309700000.0 11309700000.0 11309700000.0 11309700000.0 11309700000.0 11309700000.0 11309700000.0 11309700000.0 11309700000.0 11309700000.0 11309700000.0 11309700000.0 11309700000.0 11309700000.0 11309700000.0 11309700000.0 11309700000.0 11309700000.0 11309700000.0 11309700000.0 11309700000.0 11309700000.0 11309700000.0 11309700000.0 11309700000.0 11309700000.0 11309700000.0 11309700000.0 11309700000.0 11309700000.0 11309700000.0 11309700000.0 11309700000.0 11309700000.0 11309700000.0 11309700000.0 11309700000.0 11309700000.0 11309700000.0 11309700000.0 11309700000.0 11309700000.0 11309700000.0 11309700000.0 11309700000.0 11309700000.0 11309700000.0 11309700000.0 11309700000.0 11309700000.0 11309700000.0 11309700000.0 11309700000.0 11309700000.0 11309700000.0 11309700000.0 11309700000.0 11309700000.0 11309700000.0 11309700000.0 11309700000.0 11309700000.0 11309700000.0 11309700000.0 11309700000.0 11309700000.0 11309700000.0 11309700000.0 11309700000.0 11309700000.0 11309700000.0 11309700000.0 11309700000.0 11309700000.0 11309700000.0 11309700000.0 11309700000.0 11309700000.0 11309700000.0 11309700000.0 11309700000.0 11309700000.0 11309700000.0 11309700000.0 11309700000.0 11309700000.0 11309700000.0 11309700000.0 11309700000.0 11309700000.0 11309700000.0 11309700000.0 11309700000.0 11309700000.0 11309700000.0 11309700000.0 11309700000.0 11309700000.0 11309700000.0 11309700000.0 11309700000.0 11309700000.0 11309700000.0 11309700000.0 11309700000.0 11309700000.0 11309700000.0 11309700000.0 11309700000.0 11309700000.0 11309700000.0 11309700000.0 11309700000.0 11309700000.0 11309700000.0 11309700000.0 11309700000.0 11309700000.0 11309700000.0 11309700000.0 11309700000.0 11309700000.0 11309700000.0 11309700000.0 11309700000.0 11309700000.0 11309700000.0 11309700000.0 11309700000.0 11309700000.0 11309700000.0 11309700000.0 11309700000.0 11309700000.0 11309700000.0 11309700000.0 11309700000.0 11309700000.0 11309700000.0 11309700000.0 11309700000.0 11309700000.0 11309700000.0 11309700000.0 11309700000.0 11309700000.0 11309700000.0 11309700000.0 11309700000.0 11309700000.0 11309700000.0 11309700000.0 11309700000.0 11309700000.0 11309700000.0 11309700000.0 11309700000.0 11309700000.0 11309700000.0 11309700000.0 11309700000.0 11309700000.0 11309700000.0 11309700000.0 11309700000.0 11309700000.0 11309700000.0 11309700000.0 11309700000.0 11309700000.0 11309700000.0 11309700000.0 11309700000.0 11309700000.0 11309700000.0 11309700000.0 11309700000.0 11309700000.0 11309700000.0 11309700000.0 11309700000.0 11309700000.0 11309700000.0 11309700000.0 11309700000.0 11309700000.0 11309700000.0 11309700000.0 11309700000.0 11309700000.0 11309700000.0 11309700000.0 11309700000.0 11309700000.0 11309700000.0 11309700000.0 11309700000.0 11309700000.0 11309700000.0 11309700000.0 11309700000.0 11309700000.0 11309700000.0 11309700000.0 11309700000.0 11309700000.0 11309700000.0 11309700000.0 11309700000.0 11309700000.0 11309700000.0 11309700000.0 11309700000.0 11309700000.0 11309700000.0 11309700000.0 11309700000.0 11309700000.0 11309700000.0 11309700000.0 11309700000.0 11309700000.0 11309700000.0 11309700000.0 11309700000.0 11309700000.0 11309700000.0 11309700000.0 11309700000.0 11309700000.0 11309700000.0 11309700000.0 11309700000.0 11309700000.0 11309700000.0 11309700000.0 11309700000.0 11309700000.0 11309700000.0 11309700000.0 11309700000.0 11309700000.0 11309700000.0 11309700000.0 11309700000.0 11309700000.0 11309700000.0 11309700000.0 11309700000.0 11309700000.0 11309700000.0 11309700000.0 11309700000.0 11309700000.0 11309700000.0 11309700000.0 11309700000.0 11309700000.0 11309700000.0 11309700000.0 11309700000.0 11309700000.0 11309700000.0 11309700000.0 11309700000.0 11309700000.0 11309700000.0 11309700000.0 11309700000.0 11309700000.0 11309700000.0 11309700000.0 11309700000.0 11309700000.0 11309700000.0 11309700000.0 11309700000.0 11309700000.0 11309700000.0 11309700000.0 11309700000.0 11309700000.0 11309700000.0 11309700000.0 11309700000.0 11309700000.0 11309700000.0 11309700000.0 11309700000.0 11309700000.0 11309700000.0 11309700000.0 11309700000.0 11309700000.0 11309700000.0 11309700000.0 11309700000.0 11309700000.0 11309700000.0 11309700000.0 11309700000.0 11309700000.0 11309700000.0 11309700000.0 11309700000.0 11309700000.0 11309700000.0 11309700000.0 11309700000.0 11309700000.0 11309700000.0 11309700000.0 11309700000.0 11309700000.0 11309700000.0 11309700000.0 11309700000.0 11309700000.0 11309700000.0 11309700000.0 11309700000.0 11309700000.0 11309700000.0 11309700000.0 11309700000.0 11309700000.0 11309700000.0 11309700000.0 11309700000.0 11309700000.0 11309700000.0 11309700000.0 11309700000.0 11309700000.0 11309700000.0 11309700000.0 11309700000.0 11309700000.0 11309700000.0 11309700000.0 11309700000.0 11309700000.0 11309700000.0 11309700000.0 11309700000.0 11309700000.0 11309700000.0 11309700000.0 11309700000.0 11309700000.0 11309700000.0 11309700000.0 11309700000.0 11309700000.0 11309700000.0 11309700000.0 11309700000.0 11309700000.0 11309700000.0 11309700000.0 11309700000.0 11309700000.0 11309700000.0 11309700000.0 11309700000.0 11309700000.0 11309700000.0 11309700000.0 11309700000.0 11309700000.0 11309700000.0 11309700000.0 11309700000.0 11309700000.0 11309700000.0 11309700000.0 11309700000.0 11309700000.0 11309700000.0 11309700000.0 11309700000.0 11309700000.0 11309700000.0 11309700000.0 11309700000.0 11309700000.0 11309700000.0 11309700000.0 11309700000.0 11309700000.0 11309700000.0 11309700000.0 11309700000.0 11309700000.0 11309700000.0 11309700000.0 11309700000.0 11309700000.0 11309700000.0 11309700000.0 11309700000.0 11309700000.0 11309700000.0 11309700000.0 11309700000.0 11309700000.0 11309700000.0 11309700000.0 11309700000.0 11309700000.0 11309700000.0 11309700000.0 11309700000.0 11309700000.0 11309700000.0 11309700000.0 11309700000.0 11309700000.0 11309700000.0 11309700000.0 11309700000.0 11309700000.0 11309700000.0 11309700000.0 11309700000.0 11309700000.0 11309700000.0 11309700000.0 11309700000.0 11309700000.0 11309700000.0 11309700000.0 11309700000.0 11309700000.0 11309700000.0 11309700000.0 11309700000.0 11309700000.0 11309700000.0 11309700000.0 11309700000.0 11309700000.0 11309700000.0 11309700000.0 11309700000.0 11309700000.0 11309700000.0 11309700000.0 11309700000.0 11309700000.0 11309700000.0 11309700000.0 11309700000.0 11309700000.0 11309700000.0 11309700000.0 11309700000.0 11309700000.0 11309700000.0 11309700000.0 11309700000.0 11309700000.0 11309700000.0 11309700000.0 11309700000.0 11309700000.0 11309700000.0 11309700000.0 11309700000.0 11309700000.0 11309700000.0 11309700000.0 11309700000.0 11309700000.0 11309700000.0 11309700000.0 11309700000.0 11309700000.0 11309700000.0 11309700000.0 11309700000.0 11309700000.0 11309700000.0 11309700000.0 11309700000.0 11309700000.0 11309700000.0 11309700000.0 11309700000.0 11309700000.0 11309700000.0 11309700000.0 11309700000.0 11309700000.0 11309700000.0 11309700000.0 11309700000.0 11309700000.0 11309700000.0 11309700000.0 11309700000.0 11309700000.0 11309700000.0 11309700000.0 11309700000.0 11309700000.0 11309700000.0 11309700000.0 11309700000.0 11309700000.0 11309700000.0 11309700000.0 11309700000.0 11309700000.0 11309700000.0 11309700000.0 11309700000.0 11309700000.0 11309700000.0 11309700000.0 11309700000.0 11309700000.0 11309700000.0 11309700000.0 11309700000.0 11309700000.0 11309700000.0 11309700000.0 11309700000.0 11309700000.0 11309700000.0 11309700000.0 11309700000.0 11309700000.0 11309700000.0 11309700000.0 11309700000.0 11309700000.0 11309700000.0 11309700000.0 11309700000.0 11309700000.0 11309700000.0 11309700000.0 11309700000.0 11309700000.0 11309700000.0 11309700000.0 11309700000.0 11309700000.0 11309700000.0 11309700000.0 11309700000.0 11309700000.0 11309700000.0 11309700000.0 11309700000.0 11309700000.0 11309700000.0 11309700000.0 11309700000.0 11309700000.0 11309700000.0 11309700000.0 11309700000.0 11309700000.0 11309700000.0 11309700000.0 11309700000.0 11309700000.0 11309700000.0 11309700000.0 11309700000.0 11309700000.0 11309700000.0 11309700000.0 11309700000.0 11309700000.0 11309700000.0 11309700000.0 11309700000.0 11309700000.0 11309700000.0 11309700000.0 11309700000.0 11309700000.0 11309700000.0 11309700000.0 11309700000.0 11309700000.0 11309700000.0 11309700000.0 11309700000.0 11309700000.0 11309700000.0 11309700000.0 11309700000.0 11309700000.0 11309700000.0 11309700000.0 11309700000.0 11309700000.0 11309700000.0 11309700000.0 11309700000.0 11309700000.0 11309700000.0 11309700000.0 11309700000.0 11309700000.0 11309700000.0 11309700000.0 11309700000.0 11309700000.0 11309700000.0 11309700000.0 11309700000.0 11309700000.0 11309700000.0 11309700000.0 11309700000.0 11309700000.0 11309700000.0 11309700000.0 11309700000.0 11309700000.0 11309700000.0 11309700000.0 11309700000.0 11309700000.0 11309700000.0 11309700000.0 11309700000.0 11309700000.0 11309700000.0 11309700000.0 11309700000.0 11309700000.0 11309700000.0 11309700000.0 11309700000.0 11309700000.0 11309700000.0 11309700000.0 11309700000.0 11309700000.0 11309700000.0 11309700000.0 11309700000.0 11309700000.0 11309700000.0 11309700000.0 11309700000.0 11309700000.0 11309700000.0 11309700000.0 11309700000.0 11309700000.0 11309700000.0 11309700000.0 11309700000.0 11309700000.0 11309700000.0 11309700000.0 11309700000.0 11309700000.0 11309700000.0 11309700000.0 11309700000.0 11309700000.0 11309700000.0 11309700000.0 11309700000.0 11309700000.0 11309700000.0 11309700000.0 11309700000.0 11309700000.0 11309700000.0 11309700000.0 11309700000.0 11309700000.0 11309700000.0 11309700000.0 11309700000.0 11309700000.0 11309700000.0 11309700000.0 11309700000.0 11309700000.0 11309700000.0 11309700000.0 11309700000.0 11309700000.0 11309700000.0 11309700000.0 11309700000.0 11309700000.0 11309700000.0 11309700000.0 11309700000.0 11309700000.0 11309700000.0 11309700000.0 11309700000.0 11309700000.0 11309700000.0 11309700000.0 11309700000.0 11309700000.0 11309700000.0 11309700000.0 11309700000.0 11309700000.0 11309700000.0 11309700000.0 11309700000.0 11309700000.0 11309700000.0 11309700000.0 11309700000.0 11309700000.0 11309700000.0 11309700000.0 11309700000.0 11309700000.0 11309700000.0 11309700000.0 11309700000.0 11309700000.0 11309700000.0 11309700000.0 11309700000.0 11309700000.0 11309700000.0 11309700000.0 11309700000.0 11309700000.0 11309700000.0 11309700000.0 11309700000.0 11309700000.0 11309700000.0 11309700000.0 11309700000.0 11309700000.0 11309700000.0 11309700000.0 11309700000.0 11309700000.0 11309700000.0 11309700000.0 11309700000.0 11309700000.0 11309700000.0 11309700000.0 11309700000.0 11309700000.0 11309700000.0 11309700000.0 11309700000.0 11309700000.0 11309700000.0 11309700000.0 11309700000.0 11309700000.0 11309700000.0 11309700000.0 11309700000.0 11309700000.0 11309700000.0 11309700000.0 11309700000.0 11309700000.0 11309700000.0 11309700000.0 11309700000.0 11309700000.0 11309700000.0 11309700000.0 11309700000.0 11309700000.0 11309700000.0 11309700000.0 11309700000.0 11309700000.0 11309700000.0 11309700000.0 11309700000.0 11309700000.0 11309700000.0 11309700000.0 11309700000.0 11309700000.0 11309700000.0 11309700000.0 11309700000.0 11309700000.0 11309700000.0 11309700000.0 11309700000.0 11309700000.0 11309700000.0 11309700000.0 11309700000.0 11309700000.0 11309700000.0 11309700000.0 11309700000.0 11309700000.0 11309700000.0 11309700000.0 11309700000.0 11309700000.0 11309700000.0 11309700000.0 11309700000.0 11309700000.0 11309700000.0 11309700000.0 11309700000.0 11309700000.0 11309700000.0 11309700000.0 11309700000.0 11309700000.0 11309700000.0 11309700000.0 11309700000.0 11309700000.0 11309700000.0 11309700000.0 11309700000.0 11309700000.0 11309700000.0 11309700000.0 11309700000.0 11309700000.0 11309700000.0 11309700000.0 11309700000.0 11309700000.0 11309700000.0 11309700000.0 11309700000.0 11309700000.0 11309700000.0 11309700000.0 11309700000.0 11309700000.0 11309700000.0 11309700000.0 11309700000.0 11309700000.0 11309700000.0 11309700000.0 11309700000.0 11309700000.0 11309700000.0 11309700000.0 11309700000.0 11309700000.0 11309700000.0 11309700000.0 11309700000.0 11309700000.0 11309700000.0 11309700000.0 11309700000.0 11309700000.0 11309700000.0 11309700000.0 11309700000.0 11309700000.0 11309700000.0 11309700000.0 11309700000.0 11309700000.0 11309700000.0 11309700000.0 11309700000.0 11309700000.0 11309700000.0 11309700000.0 11309700000.0 11309700000.0 11309700000.0 11309700000.0 11309700000.0 11309700000.0 11309700000.0 11309700000.0 11309700000.0 11309700000.0 11309700000.0 11309700000.0 11309700000.0 11309700000.0 11309700000.0 11309700000.0 11309700000.0 11309700000.0 11309700000.0 11309700000.0 11309700000.0 11309700000.0 11309700000.0 11309700000.0 11309700000.0 11309700000.0 11309700000.0 11309700000.0 11309700000.0 11309700000.0 11309700000.0 11309700000.0 11309700000.0 11309700000.0 11309700000.0 11309700000.0 11309700000.0 11309700000.0 11309700000.0 11309700000.0 11309700000.0 11309700000.0 11309700000.0 11309700000.0 11309700000.0 11309700000.0 11309700000.0 11309700000.0 11309700000.0 11309700000.0 11309700000.0 11309700000.0 11309700000.0 11309700000.0 11309700000.0 11309700000.0 11309700000.0 11309700000.0 11309700000.0 11309700000.0 11309700000.0 11309700000.0 11309700000.0 11309700000.0 11309700000.0 11309700000.0 11309700000.0 11309700000.0 11309700000.0 11309700000.0 11309700000.0 11309700000.0 11309700000.0 11309700000.0 11309700000.0 11309700000.0 11309700000.0 11309700000.0 11309700000.0 11309700000.0 11309700000.0 11309700000.0 11309700000.0 11309700000.0 11309700000.0 11309700000.0 11309700000.0 11309700000.0 11309700000.0 11309700000.0 11309700000.0 11309700000.0 11309700000.0 11309700000.0 11309700000.0 11309700000.0 11309700000.0 11309700000.0 11309700000.0 11309700000.0 11309700000.0 11309700000.0 11309700000.0 11309700000.0 11309700000.0 11309700000.0 11309700000.0 11309700000.0 11309700000.0 11309700000.0 11309700000.0 11309700000.0 11309700000.0 11309700000.0 11309700000.0 11309700000.0 11309700000.0 11309700000.0 11309700000.0 11309700000.0 11309700000.0 11309700000.0 11309700000.0 11309700000.0 11309700000.0 11309700000.0 11309700000.0 11309700000.0 11309700000.0 11309700000.0 11309700000.0 11309700000.0 11309700000.0 11309700000.0 11309700000.0 11309700000.0 11309700000.0 11309700000.0 11309700000.0 11309700000.0 11309700000.0 11309700000.0 11309700000.0 11309700000.0 11309700000.0 11309700000.0 11309700000.0 11309700000.0 11309700000.0 11309700000.0 11309700000.0 11309700000.0 11309700000.0 11309700000.0 11309700000.0 11309700000.0 11309700000.0 11309700000.0 11309700000.0 11309700000.0 11309700000.0 11309700000.0 11309700000.0 11309700000.0 11309700000.0 11309700000.0 11309700000.0 11309700000.0 11309700000.0 11309700000.0 11309700000.0 11309700000.0 11309700000.0 11309700000.0 11309700000.0 11309700000.0 11309700000.0 11309700000.0 11309700000.0 11309700000.0 11309700000.0 11309700000.0 11309700000.0 11309700000.0 11309700000.0 11309700000.0 11309700000.0 11309700000.0 11309700000.0 11309700000.0 11309700000.0 11309700000.0 11309700000.0 11309700000.0 11309700000.0 11309700000.0 11309700000.0 11309700000.0 11309700000.0 11309700000.0 11309700000.0 11309700000.0 11309700000.0 11309700000.0 11309700000.0 11309700000.0 11309700000.0 11309700000.0 11309700000.0 11309700000.0 11309700000.0 11309700000.0 11309700000.0 11309700000.0 11309700000.0 11309700000.0 11309700000.0 11309700000.0 11309700000.0 11309700000.0 11309700000.0 11309700000.0 11309700000.0 11309700000.0 11309700000.0 11309700000.0 11309700000.0 11309700000.0 11309700000.0 11309700000.0 11309700000.0 11309700000.0 11309700000.0 11309700000.0 11309700000.0 11309700000.0 11309700000.0 11309700000.0 11309700000.0 11309700000.0 11309700000.0 11309700000.0 11309700000.0 11309700000.0 11309700000.0 11309700000.0 11309700000.0 11309700000.0 11309700000.0 11309700000.0 11309700000.0 11309700000.0 11309700000.0 11309700000.0 11309700000.0 11309700000.0 11309700000.0 11309700000.0 11309700000.0 11309700000.0 11309700000.0 11309700000.0 11309700000.0 11309700000.0 11309700000.0 11309700000.0 11309700000.0 11309700000.0 11309700000.0 11309700000.0 11309700000.0 11309700000.0 11309700000.0 11309700000.0 11309700000.0 11309700000.0 11309700000.0 11309700000.0 11309700000.0 11309700000.0 11309700000.0 11309700000.0 11309700000.0 11309700000.0 11309700000.0 11309700000.0 11309700000.0 11309700000.0 11309700000.0 11309700000.0 11309700000.0 11309700000.0 11309700000.0 11309700000.0 11309700000.0 11309700000.0 11309700000.0 11309700000.0 11309700000.0 11309700000.0 11309700000.0 11309700000.0 11309700000.0 11309700000.0 11309700000.0 11309700000.0 11309700000.0 11309700000.0 11309700000.0 11309700000.0 11309700000.0 11309700000.0 11309700000.0 11309700000.0 11309700000.0 11309700000.0 11309700000.0 11309700000.0 11309700000.0 11309700000.0 11309700000.0 11309700000.0 11309700000.0 11309700000.0 11309700000.0 11309700000.0 11309700000.0 11309700000.0 11309700000.0 11309700000.0 11309700000.0 11309700000.0 11309700000.0 11309700000.0 11309700000.0 11309700000.0 11309700000.0 11309700000.0 11309700000.0 11309700000.0 11309700000.0 11309700000.0 11309700000.0 11309700000.0 11309700000.0 11309700000.0 11309700000.0 11309700000.0 11309700000.0 11309700000.0 11309700000.0 11309700000.0 11309700000.0 11309700000.0 11309700000.0 11309700000.0 11309700000.0 11309700000.0 11309700000.0 11309700000.0 11309700000.0 11309700000.0 11309700000.0 11309700000.0 11309700000.0 11309700000.0 11309700000.0 11309700000.0 11309700000.0 11309700000.0 11309700000.0 11309700000.0 11309700000.0 11309700000.0 11309700000.0 11309700000.0 11309700000.0 11309700000.0 11309700000.0 11309700000.0 11309700000.0 11309700000.0 11309700000.0 11309700000.0 11309700000.0 11309700000.0 11309700000.0 11309700000.0 11309700000.0 11309700000.0 11309700000.0 11309700000.0 11309700000.0 11309700000.0 11309700000.0 11309700000.0 11309700000.0 11309700000.0 11309700000.0 11309700000.0 11309700000.0 11309700000.0 11309700000.0 11309700000.0 11309700000.0 11309700000.0 11309700000.0 11309700000.0 11309700000.0 11309700000.0 11309700000.0 11309700000.0 11309700000.0 11309700000.0 11309700000.0 11309700000.0 11309700000.0 11309700000.0 11309700000.0 11309700000.0 11309700000.0 11309700000.0 11309700000.0 11309700000.0 11309700000.0 11309700000.0 11309700000.0 11309700000.0 11309700000.0 11309700000.0 11309700000.0 11309700000.0 11309700000.0 11309700000.0 11309700000.0 11309700000.0 11309700000.0 11309700000.0 11309700000.0 11309700000.0 11309700000.0 11309700000.0 11309700000.0 11309700000.0 11309700000.0 11309700000.0 11309700000.0 11309700000.0 11309700000.0 11309700000.0 11309700000.0 11309700000.0 11309700000.0 11309700000.0 11309700000.0 11309700000.0 11309700000.0 11309700000.0 11309700000.0 11309700000.0 11309700000.0 11309700000.0 11309700000.0 11309700000.0 11309700000.0 11309700000.0 11309700000.0 11309700000.0 11309700000.0 11309700000.0 11309700000.0 11309700000.0 11309700000.0 11309700000.0 11309700000.0 11309700000.0 11309700000.0 11309700000.0 11309700000.0 11309700000.0 11309700000.0 11309700000.0 11309700000.0 11309700000.0 11309700000.0 11309700000.0 11309700000.0 11309700000.0 11309700000.0 11309700000.0 11309700000.0 11309700000.0 11309700000.0 11309700000.0 11309700000.0 11309700000.0 11309700000.0 11309700000.0 11309700000.0 11309700000.0 11309700000.0 11309700000.0 11309700000.0 11309700000.0 11309700000.0 11309700000.0 11309700000.0 11309700000.0 11309700000.0 11309700000.0 11309700000.0 11309700000.0 11309700000.0 11309700000.0 11309700000.0 11309700000.0 11309700000.0 11309700000.0 11309700000.0 11309700000.0 11309700000.0 11309700000.0 11309700000.0 11309700000.0 11309700000.0 11309700000.0 11309700000.0 11309700000.0 11309700000.0 11309700000.0 11309700000.0 11309700000.0 11309700000.0 11309700000.0 11309700000.0 11309700000.0 11309700000.0 11309700000.0 11309700000.0 11309700000.0 11309700000.0 11309700000.0 11309700000.0 11309700000.0 11309700000.0 11309700000.0 11309700000.0 11309700000.0 11309700000.0 11309700000.0 11309700000.0 11309700000.0 11309700000.0 11309700000.0 11309700000.0 11309700000.0 11309700000.0 11309700000.0 11309700000.0 11309700000.0 11309700000.0 11309700000.0 11309700000.0 11309700000.0 11309700000.0 11309700000.0 11309700000.0 11309700000.0 11309700000.0 11309700000.0 11309700000.0 11309700000.0 11309700000.0 11309700000.0 11309700000.0 11309700000.0 11309700000.0 11309700000.0 11309700000.0 11309700000.0 11309700000.0 11309700000.0 11309700000.0 11309700000.0 11309700000.0 11309700000.0 11309700000.0 11309700000.0 11309700000.0 11309700000.0 11309700000.0 11309700000.0 11309700000.0 11309700000.0 11309700000.0 11309700000.0 11309700000.0 11309700000.0 11309700000.0 11309700000.0 11309700000.0 11309700000.0 11309700000.0 11309700000.0 11309700000.0 11309700000.0 11309700000.0 11309700000.0 11309700000.0 11309700000.0 11309700000.0 11309700000.0 11309700000.0 11309700000.0 11309700000.0 11309700000.0 11309700000.0 11309700000.0 11309700000.0 11309700000.0 11309700000.0 11309700000.0 11309700000.0 11309700000.0 11309700000.0 11309700000.0 11309700000.0 11309700000.0 11309700000.0 11309700000.0 11309700000.0 11309700000.0 11309700000.0 11309700000.0 11309700000.0 11309700000.0 11309700000.0 11309700000.0 11309700000.0 11309700000.0 11309700000.0 11309700000.0 11309700000.0 11309700000.0 11309700000.0 11309700000.0 11309700000.0 11309700000.0 11309700000.0 11309700000.0 11309700000.0 11309700000.0 11309700000.0 11309700000.0 11309700000.0 11309700000.0 11309700000.0 11309700000.0 11309700000.0 11309700000.0 11309700000.0 11309700000.0 11309700000.0 11309700000.0 11309700000.0 11309700000.0 11309700000.0 11309700000.0 11309700000.0 11309700000.0 11309700000.0 11309700000.0 11309700000.0 11309700000.0 11309700000.0 11309700000.0 11309700000.0 11309700000.0 11309700000.0 11309700000.0 11309700000.0 11309700000.0 11309700000.0 11309700000.0 11309700000.0 11309700000.0 11309700000.0 11309700000.0 11309700000.0 11309700000.0 11309700000.0 11309700000.0 11309700000.0 11309700000.0 11309700000.0 11309700000.0 11309700000.0 11309700000.0 11309700000.0 11309700000.0 11309700000.0 11309700000.0 11309700000.0 11309700000.0 11309700000.0 11309700000.0 11309700000.0 11309700000.0 11309700000.0 11309700000.0 11309700000.0 11309700000.0 11309700000.0 11309700000.0 11309700000.0 11309700000.0 11309700000.0 11309700000.0 11309700000.0 11309700000.0 11309700000.0 11309700000.0 11309700000.0 11309700000.0 11309700000.0 11309700000.0 11309700000.0 11309700000.0 11309700000.0 11309700000.0 11309700000.0 11309700000.0 11309700000.0 11309700000.0 11309700000.0 11309700000.0 11309700000.0 11309700000.0 11309700000.0 11309700000.0 11309700000.0 11309700000.0 11309700000.0 11309700000.0 11309700000.0 11309700000.0 11309700000.0 11309700000.0 11309700000.0 11309700000.0 11309700000.0 11309700000.0 11309700000.0 11309700000.0 11309700000.0 11309700000.0 11309700000.0 11309700000.0 11309700000.0 11309700000.0 11309700000.0 11309700000.0 11309700000.0 11309700000.0 11309700000.0 11309700000.0 11309700000.0 11309700000.0 11309700000.0 11309700000.0 11309700000.0 11309700000.0 11309700000.0 11309700000.0 11309700000.0 11309700000.0 11309700000.0 11309700000.0 11309700000.0 11309700000.0 11309700000.0 11309700000.0 11309700000.0 11309700000.0 11309700000.0 11309700000.0 11309700000.0 11309700000.0 11309700000.0 11309700000.0 11309700000.0 11309700000.0 11309700000.0 11309700000.0 11309700000.0 11309700000.0 11309700000.0 11309700000.0 11309700000.0 11309700000.0 11309700000.0 11309700000.0 11309700000.0 11309700000.0 11309700000.0 11309700000.0 11309700000.0 11309700000.0 11309700000.0 11309700000.0 11309700000.0 11309700000.0 11309700000.0 11309700000.0 11309700000.0 11309700000.0 11309700000.0 11309700000.0 11309700000.0 11309700000.0 11309700000.0 11309700000.0 11309700000.0 11309700000.0 11309700000.0 11309700000.0 11309700000.0 11309700000.0 11309700000.0 11309700000.0 11309700000.0 11309700000.0 11309700000.0 11309700000.0 11309700000.0 11309700000.0 11309700000.0 11309700000.0 11309700000.0 11309700000.0 11309700000.0 11309700000.0 11309700000.0 11309700000.0 11309700000.0 11309700000.0 11309700000.0 11309700000.0 11309700000.0 11309700000.0 11309700000.0 11309700000.0 11309700000.0 11309700000.0 11309700000.0 11309700000.0 11309700000.0 11309700000.0 11309700000.0 11309700000.0 11309700000.0 11309700000.0 11309700000.0 11309700000.0 11309700000.0 11309700000.0 11309700000.0 11309700000.0 11309700000.0 11309700000.0 11309700000.0 11309700000.0 11309700000.0 11309700000.0 11309700000.0 11309700000.0 11309700000.0 11309700000.0 11309700000.0 11309700000.0 11309700000.0 11309700000.0 11309700000.0 11309700000.0 11309700000.0 11309700000.0 11309700000.0 11309700000.0 11309700000.0 11309700000.0 11309700000.0 11309700000.0 11309700000.0 11309700000.0 11309700000.0 11309700000.0 11309700000.0 11309700000.0 11309700000.0 11309700000.0 11309700000.0 11309700000.0 11309700000.0 11309700000.0 11309700000.0 11309700000.0 11309700000.0 11309700000.0 11309700000.0 11309700000.0 11309700000.0 11309700000.0 11309700000.0 11309700000.0 11309700000.0 11309700000.0 11309700000.0 11309700000.0 11309700000.0 11309700000.0 11309700000.0 11309700000.0 11309700000.0 11309700000.0 11309700000.0 11309700000.0 11309700000.0 11309700000.0 11309700000.0 11309700000.0 11309700000.0 11309700000.0 11309700000.0 11309700000.0 11309700000.0 11309700000.0 11309700000.0 11309700000.0 11309700000.0 11309700000.0 11309700000.0 11309700000.0 11309700000.0 11309700000.0 11309700000.0 11309700000.0 11309700000.0 11309700000.0 11309700000.0 11309700000.0 11309700000.0 11309700000.0 11309700000.0 11309700000.0 11309700000.0 11309700000.0 11309700000.0 11309700000.0 11309700000.0 11309700000.0 11309700000.0 11309700000.0 11309700000.0 11309700000.0 11309700000.0 11309700000.0 11309700000.0 11309700000.0 11309700000.0 11309700000.0 11309700000.0 11309700000.0 11309700000.0 11309700000.0 11309700000.0 11309700000.0 11309700000.0 11309700000.0 11309700000.0 11309700000.0 11309700000.0 11309700000.0 11309700000.0 11309700000.0 11309700000.0 11309700000.0 11309700000.0 11309700000.0 11309700000.0 11309700000.0 11309700000.0 11309700000.0 11309700000.0 11309700000.0 11309700000.0 11309700000.0 11309700000.0 11309700000.0 11309700000.0 11309700000.0 11309700000.0 
SCALARS Velocity float 1
LOOKUP_TABLE default
1.08947 1.11975 1.11654 1.1134 1.11114 1.07745 1.08875 1.09305 1.09119 0.921908 1.0866 1.09189 1.11518 1.11673 1.11893 1.12041 1.11943 1.11521 1.1128 1.0836 1.09884 1.09133 1.09104 1.08976 1.08845 1.08749 1.02153 1.11836 1.11579 1.11753 1.11975 1.1177 1.11334 1.08628 1.08204 1.09275 1.09269 1.09085 1.08891 1.08631 0.981654 1.01709 1.11949 1.11581 1.11556 1.11635 1.11708 1.11861 1.11935 1.12012 1.12027 1.11964 1.11704 1.11571 1.11399 1.08521 1.09738 1.09068 1.09138 1.09063 1.09001 1.08984 1.08922 1.08788 1.08521 1.08752 0.97741 1.11673 1.11557 1.11801 1.11962 1.12272 1.11854 1.11662 1.08157 1.09381 1.09311 1.09035 1.08977 1.08913 1.08865 1.08773 0.979469 0.988597 1.12124 1.11464 1.11625 1.11873 1.12237 1.11714 1.08375 1.08113 1.09144 1.08938 1.08865 1.08825 1.08529 0.996121 1.11896 1.11507 1.11277 1.1144 1.11531 1.11723 1.11789 1.11891 1.127 1.12709 1.12082 1.11829 1.11851 1.08168 1.09291 1.08867 1.08692 1.08785 1.08659 1.08751 1.086 1.08624 1.0844 1.08669 1.08634 0.98509 1.11187 1.11326 1.11629 1.11792 1.13367 1.12519 1.11757 1.09275 1.09017 1.08812 1.08875 1.08589 1.08545 1.08533 1.08437 1.08393 1.09033 1.11127 1.11146 1.11429 1.11679 1.13441 1.12073 1.10002 1.0873 1.08474 1.08409 1.08432 1.08409 1.08313 1.08519 1.10023 1.1062 1.10999 1.11014 1.1122 1.11305 1.1151 1.11529 1.11654 1.14269 1.14391 1.13181 1.10679 1.09035 1.08352 1.0824 1.08118 1.08295 1.08235 1.08344 1.08288 1.08312 1.08307 1.08357 1.08662 1.0913 1.09824 1.10727 1.11082 1.11352 1.11468 1.15343 1.13923 1.12205 1.10393 1.0954 1.08435 1.08316 1.07865 1.08051 1.079 1.08078 1.0822 1.08295 1.08475 1.09175 1.1027 1.10818 1.11137 1.11329 1.15521 1.12471 1.0872 1.07682 1.07646 1.07873 1.08101 1.08261 1.08409 1.08804 1.09691 1.1007 1.10478 1.10616 1.10895 1.10897 1.11134 1.11025 1.11204 1.16454 1.16805 1.14963 1.09573 1.07483 1.07337 1.07623 1.07929 1.08044 1.08179 1.08325 1.0838 1.08582 1.0864 1.08965 1.09232 1.09658 1.10315 1.10658 1.10771 1.10732 1.17243 1.16381 1.12953 1.07857 1.07321 1.0624 1.06911 1.06887 1.0731 1.07442 1.07712 1.07864 1.08217 1.08546 1.08851 1.0935 1.10018 1.10442 1.10489 1.10446 1.17825 1.14214 1.0533 1.06248 1.07091 1.07645 1.08062 1.08463 1.0882 1.09178 1.0957 1.09754 1.10097 1.10253 1.10218 1.10287 1.09739 1.10088 1.09436 1.09825 1.168 1.17198 1.18189 1.18432 1.04495 1.05174 1.0661 1.07371 1.07867 1.08313 1.08658 1.08791 1.09151 1.09131 1.09507 1.10006 1.10207 1.09537 1.09064 1.08636 1.14332 1.18137 0.99621 1.03652 1.04288 1.05786 1.06502 1.0702 1.07327 1.07627 1.07861 1.08116 1.0842 1.09123 1.09529 1.10008 1.10345 1.09814 1.0862 1.07983 1.08227 1.07883 1.09655 1.14381 1.16597 1.22665 1.01655 1.05445 1.06952 1.07537 1.08142 1.08881 1.0958 1.10006 1.10663 1.10594 1.11041 1.10384 1.09747 1.0846 1.07793 1.06892 1.09992 1.25113 0.970332 1.01453 1.0377 1.063 1.0715 1.07744 1.08463 1.09084 1.09562 1.1008 1.10006 1.10563 1.11384 1.11139 1.08072 1.06848 1.07159 1.03227 1.13132 0.970287 1.04685 1.05239 1.0585 1.06674 1.06706 1.07257 1.0743 1.0806 1.08322 1.10134 1.10403 1.11368 1.11965 1.1227 1.09968 1.07813 1.07833 1.04808 1.05671 1.06166 0.951491 1.05156 1.07712 1.24917 1.04627 1.04922 1.05953 1.0678 1.07888 1.09189 1.10529 1.10399 1.10804 1.11625 1.12243 1.12947 1.12747 1.06946 1.04285 1.0231 1.18636 1.28792 1.04526 1.04085 1.04569 1.0386 1.0487 1.04866 1.05987 1.0684 1.07902 1.10935 1.10413 1.10485 1.12784 1.12775 1.15054 1.12901 1.01012 1.00812 1.05372 0.822658 1.1645 1.17977 1.05335 1.02937 1.03495 1.0492 1.06083 1.05879 1.0612 1.01649 1.1151 1.0982 1.11378 1.13035 1.13895 1.1442 1.1351 1.14564 1.11561 1.05056 0.942635 1.19732 1.1775 1.11319 1.02507 1.01969 1.03538 1.04835 1.04655 1.03776 1.10459 1.09956 1.09009 1.09583 1.10688 1.14955 1.15527 1.1275 1.09666 1.18517 1.03155 0.863369 1.32652 1.10978 1.03499 1.00581 1.00844 1.00215 1.01948 1.02101 1.03558 1.04087 1.03925 1.05235 1.09858 1.07405 1.13819 1.16679 1.17364 1.13417 1.12677 1.05532 1.01314 0.700733 0.669166 1.14162 1.14574 1.07178 1.05474 1.00426 0.990847 1.00467 1.02153 1.03234 1.02452 1.03252 1.04911 1.07886 1.0851 1.07814 1.03914 1.09849 1.14986 1.16832 1.1874 1.20819 1.18854 0.976262 1.02995 0.646762 0.729033 0.842757 1.2177 1.09302 1.01878 0.98071 0.99189 1.0089 1.01778 1.01646 1.03027 1.0682 1.05631 1.08976 1.17304 1.21873 1.25273 1.1678 1.12115 1.11312 1.00404 0.852774 0.845802 0.879355 0.731123 0.769164 0.789932 0.906803 1.13056 1.111 1.02212 0.978255 0.978018 0.959301 0.970866 0.983528 0.99841 1.00279 1.01008 1.00903 1.01436 1.03719 1.04624 1.08203 1.0471 1.00245 1.133 1.20775 1.15819 1.30135 1.32014 1.10452 0.899896 0.788331 0.824838 0.854386 0.819027 0.666701 0.702294 0.72725 0.809982 1.06224 1.01797 1.02032 0.967072 0.950817 0.953592 0.999126 0.998636 1.0059 0.99455 0.996997 1.01826 1.03881 1.07856 0.984387 1.00249 0.861074 1.05935 1.2252 1.33703 1.25072 0.987892 0.743783 0.675261 0.729186 0.886369 0.783524 0.668809 0.68415 0.706742 0.752774 0.796524 0.896117 0.980545 0.950237 0.938164 0.938713 0.963674 0.996429 0.999866 0.976735 0.988577 0.986802 1.02185 1.0597 1.0629 0.821344 0.976993 1.04785 1.18882 1.37863 1.16636 1.24226 1.29479 1.19887 1.17356 0.885457 0.834597 0.927467 1.0781 0.786284 0.759602 0.642929 0.652452 0.647758 0.684564 0.729359 0.751361 0.783264 0.860119 0.923434 0.938476 0.898139 0.919904 0.915481 0.932151 0.932048 0.938498 0.910089 0.942049 0.930864 0.991085 0.984677 0.954649 0.985029 1.02167 1.0403 0.995113 0.906163 0.838394 1.16017 0.915775 1.16702 1.31571 0.681604 0.735753 0.734334 0.782231 0.690643 0.652332 0.586743 0.600742 0.624726 0.629326 0.654349 0.668614 0.754229 0.715054 0.739031 0.841835 0.883094 0.894344 0.914733 0.92168 0.897333 0.904089 0.961307 0.910109 0.929511 0.949694 0.98051 1.02586 0.996675 0.931549 0.985969 1.04994 0.835548 1.19701 1.18319 1.36017 1.01151 0.857967 0.612501 0.408934 0.507646 0.590442 0.572324 0.575513 0.578282 0.609491 0.600179 0.578007 0.534101 0.678184 0.671797 0.701822 0.742695 0.850448 0.871719 0.880929 0.898108 0.908539 0.906458 0.876094 0.853132 0.903524 0.925599 0.910436 0.936258 0.981487 1.01855 0.930736 1.12831 0.474326 0.806458 0.850899 0.765498 0.669313 1.36178 0.289394 0.575776 0.572324 0.592625 0.455005 0.520188 0.545353 0.570099 0.570658 0.570436 0.555846 0.568147 0.589887 0.596974 0.610436 0.618215 0.668057 0.682813 0.710125 0.785474 0.858526 0.880396 0.894583 0.892898 0.903355 0.891415 0.888434 0.847677 0.851713 0.893898 0.889798 0.921845 0.904083 0.984844 1.0067 0.950448 0.945747 0.877905 0.433003 0.458381 0.64685 0.829508 0.891351 0.318747 0.34855 0.386503 0.467928 0.48867 0.560037 0.564418 0.569931 0.567898 0.572292 0.533656 0.54486 0.581513 0.59265 0.606188 0.615902 0.625981 0.67123 0.679563 0.692246 0.769154 0.850659 0.850787 0.862137 0.877318 0.888374 0.871124 0.86284 0.846815 0.844429 0.847809 0.870415 0.873195 0.87286 0.87668 1.02279 0.861167 0.671015 0.782613 0.968841 0.737705 0.183319 0.512748 0.515916 0.552841 0.556411 0.582418 0.577425 0.573641 0.564941 0.567954 0.563049 0.565181 0.501043 0.514334 0.523541 0.537315 0.559188 0.573649 0.604325 0.622933 0.654154 0.669317 0.727635 0.835056 0.900184 0.805848 0.851434 0.863777 0.878875 0.873517 0.853359 0.843078 0.844894 0.857327 0.840501 0.85457 0.842763 0.860509 0.904088 0.635568 0.976084 0.870207 0.84713 0.816901 0.769181 0.869091 0.906143 0.893189 0.329105 0.444703 0.597767 0.768896 0.516048 0.585822 0.588304 0.563341 0.564622 0.555456 0.572832 0.634049 0.493145 0.503698 0.517013 0.552248 0.566546 0.588038 0.601734 0.612674 0.6433 0.653895 0.685664 0.319565 0.405579 0.72752 0.728309 0.840792 0.865665 0.871616 0.85947 0.857649 0.843509 0.83592 0.830964 0.826673 0.847019 0.88116 0.81998 0.600022 0.85894 0.827205 0.792913 0.839731 0.913132 0.769145 0.514169 0.590077 0.674102 0.55925 0.590648 0.598206 0.601271 0.581473 0.567836 0.572982 0.589599 0.592448 0.680494 0.488383 0.489201 0.492176 0.500186 0.513139 0.530651 0.543817 0.583326 0.605427 0.60899 0.604145 0.592671 0.545059 0.461763 0.641868 0.764794 0.800798 0.859851 0.857921 0.847566 0.844969 0.833082 0.834237 0.819082 0.823977 0.80764 0.813059 0.822524 0.814758 0.660847 0.750407 0.775893 0.810138 0.888405 0.947872 0.935489 0.810867 0.63585 0.627978 0.631873 0.678822 0.591686 0.59648 0.611858 0.61161 0.600517 0.573435 0.584421 0.590409 0.618834 0.642041 0.681739 0.749473 0.485405 0.487301 0.48953 0.508214 0.524266 0.557267 0.576811 0.593018 0.588475 0.578505 0.562162 0.528105 0.440204 0.556563 0.726058 0.838188 0.856645 0.870446 0.857566 0.847071 0.833945 0.817795 0.80363 0.793088 0.8029 0.784268 0.800776 0.759296 0.749747 0.677045 0.657007 0.717325 0.781329 0.77213 0.811969 0.805704 1.06103 0.99382 0.553272 0.656303 0.65625 0.612741 0.620451 0.639027 0.630442 0.586631 0.618269 0.621975 0.62928 0.633561 0.727608 0.839045 0.486868 0.484531 0.483707 0.489393 0.490543 0.496206 0.52807 0.508772 0.521792 0.535043 0.547807 0.587821 0.582672 0.559654 0.545753 0.52551 0.493088 0.508367 0.866877 0.892547 0.851236 0.84416 0.832759 0.834944 0.818491 0.81698 0.799872 0.786527 0.773411 0.757234 0.713531 0.676845 0.739431 0.741512 0.770842 0.794022 0.759211 0.48916 0.156285 0.605526 0.626411 0.627408 0.616545 0.631532 0.667846 0.636815 0.589683 0.596035 0.623563 0.624114 0.627723 0.621528 0.554474 0.748955 0.955578 1.04663 0.487147 0.486445 0.485882 0.502409 0.526718 0.512175 0.522815 0.52379 0.573376 0.581094 0.547794 0.526893 0.519042 0.51461 0.528928 0.543657 0.833073 0.883286 0.879329 0.836429 0.818245 0.798132 0.797281 0.777718 0.781357 0.764689 0.769087 0.752142 0.752379 0.722548 0.688459 0.674649 0.674084 0.702989 0.715173 0.735819 0.737116 0.773836 0.863338 0.821795 0.405287 0.514117 0.56278 0.58372 0.596249 0.62542 0.732433 0.668872 0.586084 0.602698 0.630556 0.621469 0.570724 0.556837 0.400305 0.715159 0.0931354 0.485593 0.497043 0.491485 0.481627 0.475126 0.502153 0.513988 0.501606 0.527936 0.461337 0.504251 0.502508 0.588442 0.526853 0.508016 0.504965 0.511607 0.522101 0.537202 0.499703 0.384458 0.857856 0.917564 0.861285 0.836893 0.822279 0.799782 0.777069 0.760722 0.749312 0.731616 0.728792 0.700974 0.667597 0.685434 0.722077 0.738843 0.744255 0.476311 0.339826 0.417791 0.479086 0.511006 0.525085 0.531795 0.789354 0.680862 0.654922 0.587559 0.472024 0.418341 0.647347 1.02889 1.24486 0.326453 0.484086 0.483693 0.509716 0.497624 0.507723 0.495316 0.470359 0.471855 0.548102 0.491376 0.488133 0.492722 0.504624 0.522336 0.547432 0.519516 0.360306 1.31817 0.962004 0.871291 0.838565 0.810212 0.78413 0.777496 0.75829 0.745736 0.7326 0.709568 0.677083 0.667995 0.678703 0.700729 0.722109 0.770355 0.796583 0.633038 0.121699 0.322081 0.341505 0.405689 0.452632 0.473868 0.556718 0.913744 0.60062 0.570915 0.53415 0.536248 0.433738 0.461019 1.16186 1.35144 0.89456 0.316799 0.00737732 0.476597 0.477966 0.488824 0.483846 0.462312 0.378435 0.523407 0.542086 0.444385 0.437131 0.435401 0.425653 0.456491 0.473579 0.416167 0.501466 0.515759 0.533784 0.546977 0.480966 0.338364 0.0555277 0.984098 0.896624 0.895493 0.867041 0.802269 0.759764 0.758181 0.743925 0.743515 0.732356 0.732011 0.718136 0.714902 0.696454 0.688584 0.672148 0.66511 0.665919 0.696262 0.756559 0.816469 0.790865 0.719706 0.444048 0.272216 0.347346 0.373266 0.420103 0.477518 0.471661 0.490404 0.195703 0.405499 0.518044 0.495641 0.504326 0.498489 0.568908 0.769245 1.74528 1.05149 0.304071 0.153682 0.152076 0.471011 0.473654 0.459612 0.467349 0.452322 0.426442 0.343857 0.399876 0.354477 0.398125 0.449117 0.444749 0.433852 0.42824 0.470501 0.489827 0.491856 0.517217 0.481045 0.346853 0.0852802 1.19942 0.968347 0.769993 0.817195 0.777461 0.745926 0.734723 0.721345 0.70318 0.680872 0.666424 0.679332 0.698336 0.71744 0.752302 0.756853 0.583811 0.472998 0.373482 0.389254 0.406443 0.448832 0.463456 0.475519 0.491004 0.432537 0.302498 0.442819 0.46891 0.472275 0.490185 0.515738 0.606778 0.705555 1.03269 1.16062 0.486802 0.519268 0.160656 0.12254 0.478993 0.470882 0.463058 0.448351 0.431434 0.452775 0.444793 0.378597 0.384059 0.389168 0.39734 0.431027 0.41244 0.423817 0.423984 0.463849 0.478246 0.48894 0.494464 0.506967 0.515125 0.365331 0.264672 0.185183 1.08852 0.730946 0.799274 0.837798 0.812193 0.79621 0.754174 0.756567 0.740406 0.726441 0.70989 0.68955 0.671323 0.669223 0.670534 0.681437 0.727607 0.805226 0.686997 0.339546 0.466523 0.441564 0.411067 0.43061 0.443755 0.453066 0.461083 0.432739 0.391049 0.365669 0.431134 0.467387 0.491516 0.509229 0.567369 0.65371 0.802801 0.431463 0.12173 0.215122 0.00579012 0.0811308 0.0319218 0.00110628 0.480486 0.472304 0.465157 0.456503 0.476828 0.406236 0.381188 0.363788 0.364624 0.406347 0.39861 0.401855 0.434707 0.440579 0.45777 0.473956 0.486986 0.495431 0.499955 0.491856 0.453512 0.577238 0.82226 0.659259 0.595675 0.790647 0.791767 0.748419 0.734141 0.726331 0.717345 0.708131 0.699003 0.689299 0.679715 0.673897 0.674135 0.702595 0.786845 0.791479 0.532105 0.415624 0.453069 0.4161 0.423515 0.427518 0.429948 0.436026 0.426834 0.403953 0.392491 0.398844 0.424549 0.46694 0.498401 0.513705 0.566964 0.676904 0.820901 0.318613 0.130419 0.244438 0.116568 0.251073 0.125081 0.158832 0.543093 0.466871 0.470525 0.435609 0.468296 0.398489 0.383566 0.359534 0.345791 0.409275 0.421861 0.436059 0.448278 0.472705 0.487528 0.490807 0.488438 0.461878 0.388402 0.262776 0.16775 0.807716 0.956935 0.977024 0.583181 0.859442 0.772733 0.738324 0.717678 0.699304 0.682201 0.673102 0.690607 0.719955 0.723396 0.760383 0.715743 0.430217 0.447072 0.437645 0.430271 0.421687 0.411447 0.407065 0.405252 0.403606 0.395147 0.415929 0.418972 0.442473 0.464873 0.493605 0.521424 0.55922 0.632741 0.50138 0.291793 0.290238 0.25875 0.209698 0.443556 0.435184 0.100734 0.171804 0.572888 0.466754 0.484104 0.420614 0.387529 0.418396 0.3057 0.387951 0.377918 0.363426 0.349463 0.374722 0.363316 0.400282 0.442025 0.460814 0.491132 0.49856 0.497943 0.482914 0.443566 0.369533 0.321427 0.475212 0.633038 0.897671 0.742439 0.692036 0.740398 0.797222 0.759761 0.73584 0.726922 0.721163 0.70992 0.702356 0.691754 0.687895 0.679613 0.679677 0.680779 0.698083 0.73348 0.474654 0.44489 0.462363 0.462021 0.453106 0.431861 0.404647 0.384862 0.369039 0.374867 0.515719 0.52653 0.475503 0.385796 0.2411 0.194666 0.244233 0.842174 0.457746 0.286618 0.186466 0.213999 0.13105 0.0896839 0.498309 0.532204 0.412046 0.376812 0.320684 0.348242 0.375282 0.374189 0.3671 0.356549 0.355871 0.374808 0.398161 0.408529 0.420293 0.51365 0.524207 0.512172 0.489906 0.453343 0.432405 0.492632 0.609759 0.7493 0.901995 0.612818 0.401121 0.732968 0.737908 0.731808 0.714159 0.69722 0.68633 0.688421 0.744101 0.695833 0.745138 0.577505 0.466541 0.477634 0.469684 0.48013 0.483617 0.472117 0.435684 0.378743 0.385394 0.417981 0.423667 0.442639 0.452242 0.477608 0.496092 0.487458 0.451155 0.406386 0.35248 0.295957 0.234293 0.286419 0.14475 0.377197 0.209156 0.0582726 0.0373644 0.504289 0.495749 0.334241 0.338456 0.356878 0.37918 0.382251 0.363447 0.361663 0.364064 0.376116 0.391774 0.411484 0.435092 0.480269 0.505718 0.538068 0.524765 0.508132 0.5005 0.529231 0.6001 0.686773 0.780965 0.822588 0.755208 0.533421 0.605058 0.61948 0.739964 0.725462 0.707406 0.694467 0.68765 0.698569 0.697689 0.787709 0.644636 0.569415 0.506075 0.498721 0.498239 0.509086 0.520759 0.510173 0.350097 0.324153 0.360143 0.411694 0.424206 0.444779 0.450311 0.471374 0.484475 0.492359 0.442281 0.410421 0.371964 0.327457 0.278667 0.246169 0.351805 0.443878 0.341404 0.397838 0.413876 0.315641 0.0571825 0.228268 0.821849 0.708204 0.329385 0.473915 0.510397 0.426246 0.372497 0.358233 0.358478 0.374318 0.372551 0.368208 0.364874 0.363771 0.381551 0.391056 0.438289 0.504828 0.519659 0.522225 0.555284 0.537833 0.554806 0.594419 0.644194 0.696319 0.729839 0.717633 0.642411 0.632697 0.738144 0.721891 0.731643 0.730061 0.7186 0.710137 0.703439 0.70283 0.692724 0.699844 0.661165 0.560639 0.592742 0.558531 0.526752 0.521022 0.527647 0.441898 0.322711 0.318722 0.318014 0.385411 0.433629 0.455521 0.446355 0.458211 0.476631 0.481784 0.472506 0.390867 0.363455 0.332757 0.270776 0.237036 0.402919 0.273946 0.288721 0.483979 0.590405 0.497829 0.0545351 0.160557 0.11316 0.383586 0.284806 0.498091 0.525637 0.487176 0.441996 0.404348 0.382929 0.380998 0.386203 0.386077 0.377485 0.373026 0.37064 0.370425 0.395587 0.408842 0.528892 0.569995 0.511949 0.596008 0.55687 0.54897 0.539192 0.617397 0.647474 0.66901 0.669951 0.642066 0.587252 0.577703 0.535429 0.64646 0.729965 0.719677 0.707431 0.701546 0.702477 0.984747 0.751807 0.630745 0.581238 0.57759 0.556177 0.540321 0.547547 0.571801 0.571331 0.434459 0.275262 0.332472 0.390924 0.432105 0.479115 0.464304 0.445434 0.460936 0.470355 0.470607 0.445776 0.413744 0.388628 0.382826 0.373573 0.338655 0.377187 0.319284 0.265231 0.383172 0.50338 0.354552 0.418005 0.565754 0.64096 0.594462 0.280045 0.549617 0.434332 0.526809 0.529205 0.496979 0.45453 0.414299 0.388772 0.393197 0.386342 0.379555 0.379516 0.385077 0.379498 0.442717 0.651416 0.651605 0.742158 0.681323 0.553458 0.560967 0.55812 0.557294 0.567229 0.589498 0.637775 0.62815 0.60211 0.583269 0.558767 0.590123 0.716969 0.730469 0.709023 0.707889 0.719525 0.641632 0.67645 0.615088 0.609696 0.582477 0.540652 0.555028 0.585503 0.627216 0.682377 0.438885 0.382997 0.470273 0.42475 0.511834 0.488513 0.452364 0.44787 0.457293 0.462213 0.448084 0.424712 0.404301 0.424022 0.417604 0.415686 0.406303 0.322689 0.283371 0.323054 0.299562 0.238649 0.396778 0.329156 0.487753 0.54093 0.693088 0.774323 0.387941 0.377349 0.601094 0.523353 0.490765 0.444636 0.398594 0.391967 0.396508 0.396872 0.388815 0.384702 0.392815 0.619706 0.536408 0.573675 0.57427 0.571677 0.574642 0.587249 0.603862 0.619796 0.632594 0.604121 0.589019 0.571357 0.58163 0.611687 0.672092 0.717156 0.740938 0.718991 0.698294 0.710702 0.723814 0.699965 0.670023 0.660911 0.646617 0.614509 0.570794 0.556777 0.549633 0.554132 0.57091 0.60342 0.663833 0.823731 1.22847 0.43845 0.452158 0.452596 0.448411 0.437246 0.423002 0.411155 0.408305 0.446576 0.453742 0.404397 0.265791 0.294477 0.242666 0.309967 0.368867 0.322208 0.317048 0.430075 0.489092 0.479091 0.515303 0.525459 0.857776 0.886236 0.635904 0.561812 0.531464 0.424058 0.408357 0.40469 0.404725 0.402917 0.39615 0.375019 0.320964 0.368971 0.439724 0.519651 0.673246 0.576414 0.578896 0.5808 0.58336 0.587341 0.598472 0.608234 0.615782 0.619126 0.616081 0.573558 0.59992 0.65127 0.693341 0.720619 0.714254 0.71363 0.691021 0.644831 0.645135 0.59964 0.580856 0.568337 0.558553 0.555006 0.558331 0.565446 0.579881 0.635857 1.08548 0.734147 0.508945 0.534046 0.497466 0.454593 0.450979 0.447502 0.443653 0.437025 0.431833 0.446245 0.460199 0.490358 0.475796 0.311259 0.244036 0.248559 0.193488 0.344437 0.326241 0.27958 0.396484 0.44524 0.464209 0.449212 0.450235 0.621513 0.878951 0.920135 0.495894 0.451326 0.43286 0.417811 0.417852 0.413135 0.391437 0.383182 0.351383 0.349394 0.384976 0.475447 0.573292 0.656699 0.600799 0.599112 0.596061 0.597377 0.602574 0.607563 0.610676 0.609438 0.6034 0.592853 0.579386 0.697013 0.720525 0.735145 0.709409 0.764975 0.69511 0.702108 0.66619 0.646003 0.630717 0.609681 0.59443 0.57965 0.569278 0.563518 0.56405 0.568692 0.581026 0.663183 0.310409 0.412077 0.480519 0.44659 0.42961 0.43289 0.458714 0.457851 0.464968 0.476578 0.456872 0.493872 0.485786 0.278397 0.230748 0.214809 0.331096 0.259165 0.241284 0.339147 0.783047 1.13292 0.80169 0.392475 0.407094 0.416736 0.443647 0.46156 0.325925 0.322702 0.252091 0.762621 0.884676 0.654078 0.58403 0.551445 0.518839 0.47895 0.442395 0.431249 0.41083 0.401853 0.393677 0.370589 0.374548 0.391939 0.452176 0.533817 0.650896 0.611518 0.607293 0.607264 0.607792 0.607578 0.604067 0.596925 0.585865 0.576068 0.571108 0.634146 0.734315 0.719817 0.700281 0.683289 0.648291 0.642501 0.634691 0.62105 0.605559 0.592415 0.581457 0.57461 0.633885 0.821523 0.786861 0.572926 0.492469 0.476835 0.46245 0.436687 0.42912 0.437606 0.468127 0.459962 0.495634 0.52551 0.517985 0.537165 0.49938 0.519527 0.255013 0.274289 0.158421 0.359504 0.528036 0.308759 0.771526 0.757779 1.04147 0.431767 0.439985 0.35764 0.110448 0.566772 0.72759 0.841731 0.682927 0.59819 0.566122 0.541848 0.501386 0.429004 0.425916 0.418901 0.408369 0.393477 0.394954 0.403426 0.452568 0.611898 0.656901 0.653079 0.629605 0.614841 0.607426 0.605039 0.609431 0.607261 0.602427 0.594587 0.584554 0.573979 0.5604 0.70933 0.731987 0.688572 0.664069 0.658597 0.646069 0.636719 0.626843 0.615003 0.603345 0.573561 0.578276 0.586923 0.62525 0.71822 0.724122 0.679248 0.566456 0.507269 0.464669 0.444183 0.441565 0.433145 0.481006 0.473772 0.478115 0.588908 0.577006 0.563382 0.496561 0.179576 0.215876 0.229604 0.299854 0.37023 0.385754 0.729113 0.740776 0.713392 0.232625 0.197052 0.427272 0.19101 0.584124 0.849064 0.797468 0.644508 0.634769 0.587568 0.461841 0.443141 0.437971 0.438176 0.42246 0.41455 0.419601 0.506434 0.583106 0.63103 0.662015 0.657334 0.638592 0.628807 0.621883 0.61525 0.61157 0.609758 0.60204 0.593063 0.580743 0.560105 0.498544 0.755433 0.747294 0.725549 0.704693 0.687428 0.681087 0.674192 0.662673 0.653898 0.64185 0.631168 0.621669 0.593869 0.587562 0.585756 0.590265 0.598519 0.618594 0.66511 0.6884 0.673547 0.627176 0.593766 0.474451 0.451127 0.441357 0.440586 0.4965 0.489493 0.500404 0.523721 0.633224 0.581806 0.273611 0.344965 0.698592 0.615169 0.679916 0.219381 0.284241 0.477468 0.744577 0.850691 0.54868 0.510957 0.478373 0.459775 0.449257 0.439913 0.431262 0.428483 0.446446 0.495572 0.548363 0.612031 0.654287 0.668144 0.663053 0.645951 0.635256 0.626357 0.621222 0.617298 0.61421 0.611635 0.607836 0.520773 0.449803 0.787705 0.744799 0.711133 0.691021 0.681791 0.676823 0.671693 0.661463 0.649461 0.612918 0.605104 0.599473 0.597396 0.600583 0.60956 0.626863 0.65228 0.662784 0.66511 0.647463 0.627753 0.581264 0.542491 0.49747 0.462206 0.456102 0.44784 0.506508 0.504021 0.526674 0.566551 0.626373 0.490903 0.120212 0.483523 0.483815 0.46642 0.533663 0.480636 0.336791 0.263605 0.113745 0.253533 0.625424 0.792634 0.883322 0.679661 0.645105 0.597025 0.552812 0.518913 0.493334 0.472696 0.452976 0.427127 0.449324 0.463957 0.484104 0.533379 0.58956 0.644731 0.670509 0.666842 0.658603 0.651153 0.644131 0.634552 0.627929 0.622221 0.617156 0.61284 0.608468 0.601675 0.589176 0.566544 0.798891 0.733477 0.6983 0.684924 0.681246 0.678799 0.636627 0.626862 0.620391 0.614745 0.610257 0.60865 0.611433 0.618175 0.629419 0.651325 0.629206 0.598914 0.56111 0.526505 0.497235 0.476975 0.467306 0.454227 0.511361 0.525443 0.555196 0.604219 0.633152 0.719681 0.773031 0.44565 0.301143 0.42634 0.637337 0.170649 0.253409 0.307046 0.847785 0.777367 0.694628 0.648501 0.599403 0.562692 0.528961 0.499903 0.443153 0.44458 0.454729 0.472397 0.496842 0.500552 0.639239 0.631964 0.625274 0.619369 0.6141 0.608218 0.598298 0.577642 0.539924 0.483169 0.409743 0.672754 0.659022 0.643103 0.63068 0.626397 0.622995 0.620012 0.61861 0.620637 0.667103 0.66144 0.654079 0.583334 0.549223 0.522246 0.500876 0.482267 0.474548 0.524364 0.547302 0.583327 0.621474 0.626871 0.907439 0.669041 0.408295 0.34862 0.492396 0.676194 0.501292 0.179473 0.324759 0.285641 0.679267 0.752729 0.796288 0.776401 0.734608 0.69485 0.651382 0.604075 0.469721 0.461571 0.445319 0.458903 0.478948 0.505181 0.576013 0.636878 0.678933 0.668873 0.669833 0.669183 0.660337 0.648667 0.6212 0.614599 0.605142 0.588019 0.557577 0.517726 0.450205 0.384294 0.792793 0.718883 0.695821 0.687997 0.68544 0.683454 0.675867 0.652515 0.631913 0.630541 0.629797 0.627744 0.637513 0.650227 0.661669 0.672014 0.667162 0.638035 0.605099 0.552409 0.519882 0.499899 0.487073 0.479303 0.469572 0.466219 0.60476 0.628057 0.801008 0.937161 0.606333 0.495694 0.563427 0.474369 0.386156 0.663492 0.59188 0.749148 0.762989 0.566675 0.532311 0.500193 0.474494 0.46734 0.446892 0.476597 0.521617 0.535493 0.628052 0.691144 0.677152 0.684678 0.680506 0.670615 0.659923 0.649879 0.641584 0.633843 0.627184 0.569862 0.532942 0.493509 0.407126 0.345216 0.765721 0.716491 0.701655 0.695182 0.693296 0.690167 0.680531 0.628829 0.628606 0.62798 0.629258 0.63424 0.643453 0.653894 0.662272 0.676322 0.698345 0.64325 0.621833 0.598823 0.576389 0.521459 0.496463 0.480168 0.475789 0.479802 0.490465 0.53986 0.56867 0.594837 0.345638 0.615196 0.760028 0.764875 0.733143 0.695375 0.651334 0.606305 0.56738 0.528655 0.505245 0.478877 0.475006 0.506435 0.536457 0.571354 0.571031 0.723424 0.681972 0.689657 0.688041 0.678898 0.667366 0.658336 0.649479 0.641301 0.634164 0.628707 0.622663 0.612923 0.596704 0.730539 0.715031 0.706654 0.703383 0.701186 0.698907 0.632594 0.634774 0.636053 0.636847 0.638243 0.641283 0.647294 0.655608 0.663625 0.674501 0.701285 0.707593 0.611206 0.613425 0.602692 0.580667 0.553145 0.477992 0.47347 0.482535 0.499324 0.519164 0.559132 0.592349 0.6305 0.729222 0.82965 0.929268 0.658723 0.62112 0.568765 0.599647 0.558795 0.861371 0.757659 0.758401 0.733186 0.69331 0.651675 0.608671 0.566113 0.52981 0.500332 0.480111 0.464002 0.505631 0.546949 0.581407 0.601158 0.716669 0.699969 0.689807 0.688232 0.683102 0.674357 0.664781 0.655894 0.647678 0.640406 0.634491 0.630481 0.621994 0.605638 0.577858 0.54318 0.510195 0.458485 0.452758 0.689028 0.713662 0.711611 0.602969 0.628798 0.636505 0.640842 0.644193 0.64679 0.649623 0.65352 0.658931 0.665937 0.693331 0.617761 0.62575 0.611896 0.601951 0.56232 0.515009 0.47967 0.501522 0.524997 0.552482 0.585752 0.623255 0.684408 0.759208 0.856964 0.902746 0.633596 0.460169 0.745805 0.764804 0.753646 0.728968 0.693905 0.652628 0.608505 0.483128 0.515236 0.561125 0.589547 0.618551 0.646751 0.640017 0.634189 0.633906 0.617373 0.58779 0.554487 0.5182 0.47954 0.447539 0.68199 0.713309 0.714594 0.711052 0.580552 0.613822 0.632356 0.641737 0.648063 0.6533 0.673928 0.686836 0.703906 0.631647 0.638419 0.554784 0.471599 0.468578 0.586276 0.621564 0.66493 0.720666 0.786365 0.838038 0.883305 0.620546 0.825752 0.777048 0.765378 0.567099 0.528527 0.494294 0.471457 0.482064 0.756098 0.648017 0.698767 0.688729 0.68434 0.677694 0.67015 0.662154 0.654057 0.597688 0.570631 0.527624 0.492334 0.465847 0.692009 0.706717 0.714394 0.723247 0.729647 0.594203 0.62007 0.657389 0.661106 0.665117 0.669447 0.674405 0.68272 0.683492 0.666332 0.709643 0.64837 0.637168 0.467454 0.460848 0.476065 0.501202 0.528038 0.555847 0.756646 0.83927 0.88977 0.835136 0.835928 0.785637 0.752974 0.728902 0.694294 0.653962 0.60801 0.565376 0.523168 0.482703 0.450949 0.639265 0.586758 0.588817 0.611389 0.665178 0.677067 0.71718 0.698577 0.687002 0.683452 0.676099 0.668642 0.662161 0.6548 0.647587 0.640762 0.632442 0.642955 0.683609 0.684526 0.695612 0.711056 0.723455 0.736213 0.739387 0.636808 0.647714 0.656128 0.662936 0.667987 0.672104 0.675408 0.678258 0.682033 0.684146 0.693555 0.682348 0.680787 0.652215 0.652567 0.651361 0.651252 0.641422 0.449559 0.4705 0.496076 0.529765 0.55888 0.591718 0.624323 0.658879 0.700227 0.750722 0.858365 0.908308 0.867852 0.767193 0.755048 0.730744 0.696194 0.653132 0.605418 0.556819 0.508807 0.463449 0.597925 0.604925 0.598189 0.60535 0.641423 0.681925 0.707478 0.710756 0.698883 0.691636 0.684786 0.676756 0.669046 0.664557 0.659108 0.652385 0.644223 0.678647 0.593339 0.538733 0.500318 0.474099 0.678293 0.680206 0.689112 0.70475 0.72273 0.737977 0.740936 0.753429 0.60451 0.626265 0.642278 0.655036 0.665723 0.673569 0.678776 0.681716 0.683538 0.685074 0.686366 0.690222 0.688556 0.681167 0.667312 0.6552 0.654147 0.665602 0.686546 0.68757 0.450445 0.490635 0.527328 0.560485 0.59204 0.627399 0.663363 0.688531 0.723181 0.73149 0.778475 0.876079 0.828644 0.7839 0.773594 0.759433 0.734673 0.698547 0.649858 0.595674 0.80034 0.633026 0.618889 0.609492 0.626719 0.678658 0.671942 0.669333 0.664925 0.656096 0.641788 0.720033 0.652083 0.556637 0.518594 0.478005 0.677333 0.680893 0.683909 0.613683 0.633043 0.649946 0.663978 0.67635 0.684352 0.674893 0.696636 0.699363 0.856616 0.590849 0.628311 0.664778 0.690792 0.697136 0.724272 0.754149 0.810544 0.869625 0.83237 0.799415 0.793396 0.777241 0.541075 0.48447 0.667183 0.707187 0.715445 0.707201 0.700474 0.695616 0.687704 0.650391 0.752572 0.614927 0.571753 0.700534 0.719164 0.738015 0.730797 0.751887 0.764884 0.622184 0.687747 0.68879 0.688623 0.688535 0.689233 0.686949 0.684172 0.676263 0.668014 0.667675 0.473597 0.519628 0.556706 0.717741 0.725834 0.793633 0.803655 0.862831 0.861039 0.829939 0.762309 0.738797 0.696964 0.641744 0.579904 0.517202 0.800406 0.768246 0.637684 0.635052 0.624601 0.6435 0.698597 0.716506 0.717584 0.710612 0.706079 0.701203 0.689874 0.679036 0.675086 0.671332 0.668067 0.726868 0.668734 0.682532 0.682443 0.697057 0.715373 0.736843 0.731573 0.743511 0.759526 0.77592 0.640494 0.658862 0.675959 0.687179 0.692385 0.693385 0.691694 0.690017 0.688991 0.686892 0.680884 0.681896 0.677027 0.677763 0.693452 0.702829 0.720097 0.822665 0.808322 0.508208 0.549374 0.585005 0.622571 0.661482 0.692616 0.711506 0.798863 0.822435 0.801399 0.804558 0.775346 0.759575 0.741485 0.691636 0.627621 0.558902 0.788657 0.786932 0.737672 0.656391 0.637958 0.634957 0.658545 0.725549 0.722546 0.717049 0.718947 0.714944 0.706207 0.690868 0.677211 0.673479 0.67348 0.673084 0.639342 0.733924 0.770462 0.758703 0.588176 0.67384 0.682586 0.681755 0.692589 0.709936 0.736441 0.723871 0.74476 0.757477 0.767833 0.781424 0.628654 0.648148 0.67234 0.69067 0.697132 0.697036 0.693889 0.690665 0.688097 0.686241 0.684404 0.673416 0.680515 0.683974 0.696982 0.725991 0.717969 0.769392 0.781184 0.746133 0.537582 0.572835 0.611446 0.651862 0.682485 0.711775 0.760827 0.704932 0.775834 0.906798 0.880283 0.855216 0.879333 0.863323 0.835446 0.800187 0.742875 0.685366 0.617365 0.794591 0.759701 0.762182 0.693608 0.6552 0.642581 0.639239 0.706702 0.723718 0.711695 0.687946 0.670966 0.66564 0.694907 0.661713 0.794197 0.789189 0.642966 0.706537 0.671372 0.696508 0.697585 0.738321 0.715728 0.738377 0.753985 0.762883 0.773125 0.779052 0.634901 0.660314 0.690132 0.705473 0.701419 0.695244 0.716373 0.762153 0.730996 0.771874 0.731566 0.722356 0.558454 0.595302 0.635833 0.680886 0.708036 0.747698 0.798823 0.721573 0.779653 0.832077 0.903832 0.906133 0.901049 0.868565 0.74571 0.718622 0.72609 0.727398 0.692868 0.745378 0.690758 0.686936 0.684191 0.683197 0.680552 0.664091 0.684876 0.703092 0.779013 0.893832 0.893832 0.893832 0.854809 0.842978 0.83603 0.79792 0.736808 0.682577 0.846444 0.759135 0.727553 0.737361 0.676552 0.653949 0.643785 0.658557 0.736355 0.724094 0.738371 0.735467 0.735951 0.732331 0.715404 0.686018 0.661961 0.66507 0.767503 0.735597 0.835934 0.752122 0.722225 0.813573 0.727686 0.767446 0.74489 0.792255 0.708432 0.736047 0.749491 0.758649 0.766856 0.772561 0.766436 0.67023 0.717605 0.713687 0.705801 0.698005 0.691007 0.685655 0.681695 0.679354 0.677382 0.676427 0.66232 0.707065 0.710996 0.753469 0.746846 0.820137 0.789237 0.778854 0.824697 0.581613 0.622556 0.669664 0.715258 0.729764 0.79018 0.904172 0.905139 0.883565 0.857477 0.837508 0.823505 0.785645 0.728803 0.67095 0.918527 0.910813 0.878785 0.889749 0.832303 0.817719 0.809705 0.831692 0.844855 0.706765 0.753936 0.750992 0.744912 0.743598 0.738859 0.727079 0.887521 0.908426 0.828504 0.803087 0.838059 0.785277 0.77831 0.89154 0.750827 0.72508 0.772993 0.81785 0.73475 0.747782 0.753618 0.760969 0.765208 0.764779 0.748891 0.733566 0.724152 0.723301 0.702691 0.693185 0.684555 0.679321 0.675204 0.672557 0.670754 0.679685 0.690221 0.760372 0.789074 0.807014 0.906217 0.902176 0.898597 0.90032 0.897531 0.686541 0.717519 0.762804 0.818981 0.82709 0.839605 0.888683 0.924628 0.915351 0.913686 0.767544 0.691141 0.82646 0.893832 0.893832 0.894362 0.870605 0.872895 0.869267 0.857252 0.823464 0.766083 0.934715 0.905982 0.901798 0.899215 0.893558 0.885592 0.880975 0.901453 0.907841 0.851776 0.835217 0.830651 0.82022 0.815951 0.809734 0.794541 0.881817 0.889769 0.840114 0.687515 0.76036 0.804358 0.830932 0.784828 0.850207 0.828946 0.867416 0.823964 0.837861 0.844188 0.85306 0.857144 0.859742 0.84519 0.909553 0.839269 0.842963 0.826576 0.821639 0.815553 0.813843 0.811875 0.817077 0.826574 0.840659 0.85425 0.866048 0.867608 0.882326 0.899125 0.900788 0.902746 0.903319 0.941351 0.813446 0.847979 0.868713 0.854401 0.856532 0.849354 0.895636 0.893835 0.893832 0.893832 0.893932 0.894015 0.894975 0.874892 0.875099 0.870112 0.858246 0.829825 0.777363 0.905477 0.903342 0.900062 0.896648 0.88974 0.884752 0.879908 0.891666 0.89643 0.887242 0.840339 0.837136 0.826878 0.82073 0.817741 0.809822 0.870469 0.874344 0.857016 0.887516 0.740612 0.791377 0.83217 0.871416 0.864829 0.828461 0.880933 0.868199 0.886897 0.871818 0.88221 0.884693 0.892462 0.89427 0.898445 0.883144 0.895213 0.885145 0.88962 0.889967 0.888318 0.890307 0.889941 0.887277 0.891259 0.897459 0.900831 0.895395 0.897529 0.889022 0.895963 0.898249 0.897246 0.899532 0.895784 0.908444 0.818978 0.849712 0.861338 0.861872 0.872231 0.860414 0.896529 0.894608 0.894124 0.893999 0.893833 0.893832 0.894562 0.877037 0.873881 0.869468 0.859556 0.834059 0.785487 0.904715 0.901561 0.898429 0.896329 0.887593 0.883367 0.879269 0.884447 0.888167 0.890121 0.851856 0.847916 0.841039 0.836221 0.837135 0.833744 0.872953 0.87733 0.881901 0.934115 0.818703 0.852979 0.876423 0.907832 0.875478 0.844959 0.889869 0.873477 0.890134 0.878737 0.886201 0.884419 0.891382 0.89053 0.895702 0.879785 0.893881 0.886997 0.890441 0.890129 0.888797 0.892655 0.892016 0.888242 0.892061 0.89797 0.899148 0.893251 0.895717 0.889128 0.896831 0.898299 0.897298 0.899367 0.895927 0.907834 0.813901 0.841977 0.858693 0.866772 0.87745 0.869059 0.895658 0.894033 0.893832 0.893832 0.893833 0.893832 0.894406 0.878531 0.874104 0.870735 0.862348 0.839685 0.796561 0.903024 0.899294 0.895891 0.895601 0.886479 0.882456 0.878742 0.879974 0.88297 0.887034 0.860728 0.856016 0.851169 0.846962 0.849974 0.848747 0.871504 0.876729 0.888476 0.900937 0.846252 0.869312 0.885195 0.910645 0.880013 0.854605 0.891872 0.873611 0.890959 0.883258 0.888046 0.882655 0.888748 0.88517 0.891621 0.874933 0.89388 0.885973 0.888299 0.886112 0.885181 0.886952 0.8861 0.881617 0.885335 0.891623 0.893479 0.888836 0.892135 0.887856 0.896522 0.897684 0.896811 0.898553 0.895633 0.905704 0.814041 0.838749 0.859514 0.872325 0.881651 0.876428 0.895079 0.894017 0.893832 0.893831 0.893832 0.893832 0.894232 0.880217 0.87531 0.87271 0.865671 0.845698 0.808397 0.900825 0.896519 0.893643 0.894812 0.886186 0.882094 0.878437 0.876671 0.879399 0.88348 0.868236 0.862394 0.859289 0.855362 0.859716 0.859598 0.870822 0.875731 0.888915 0.901679 0.855332 0.874131 0.884145 0.895487 0.882462 0.860949 0.891677 0.872174 0.890948 0.885988 0.889038 0.880994 0.886817 0.881051 0.888819 0.871429 0.893867 0.885666 0.887053 0.882975 0.882622 0.882192 0.881144 0.876228 0.879672 0.886161 0.888775 0.885632 0.889076 0.886841 0.896364 0.896843 0.896178 0.897491 0.89526 0.902887 0.817925 0.83903 0.862819 0.877719 0.885075 0.882559 0.894432 0.893987 0.893832 0.89383 0.893832 0.893832 0.894069 0.882123 0.876888 0.87485 0.869184 0.851844 0.820074 0.898215 0.893887 0.892161 0.893986 0.886457 0.882145 0.87829 0.874408 0.876883 0.880092 0.874611 0.867605 0.865762 0.862259 0.867282 0.867514 0.871679 0.875772 0.887717 0.894193 0.858649 0.87327 0.881847 0.895725 0.883974 0.867071 0.891668 0.87123 0.891315 0.888048 0.889997 0.880228 0.885862 0.878147 0.886892 0.869474 0.893843 0.885984 0.886476 0.880766 0.881132 0.878579 0.877456 0.872349 0.875455 0.88196 0.88523 0.883521 0.886638 0.88611 0.895987 0.895876 0.895459 0.896271 0.89483 0.899643 0.824247 0.841968 0.867301 0.882254 0.888006 0.887343 0.893751 0.893944 0.893832 0.89383 0.893832 0.893832 0.893918 0.883954 0.878514 0.876901 0.872607 0.857801 0.83104 0.89542 0.891917 0.891364 0.893295 0.887134 0.882465 0.878262 0.87306 0.875261 0.877578 0.877916 0.871417 0.870794 0.86794 0.872715 0.873202 0.873503 0.876567 0.886269 0.8956 0.861107 0.872057 0.879442 0.893832 0.885074 0.872607 0.891655 0.871213 0.891683 0.889336 0.890806 0.88006 0.885505 0.876232 0.885617 0.868727 0.893823 0.886642 0.886389 0.879458 0.880368 0.875932 0.874876 0.869757 0.872526 0.878886 0.8827 0.882231 0.8848 0.885626 0.895033 0.894841 0.894681 0.894956 0.894361 0.896184 0.831849 0.846763 0.871901 0.885804 0.890284 0.8901 0.893239 0.893892 0.893832 0.89383 0.893832 0.893832 0.893783 0.885554 0.880028 0.878731 0.875739 0.863291 0.840911 0.892742 0.890641 0.891049 0.89287 0.888042 0.882973 0.87839 0.872398 0.874304 0.875998 0.878512 0.873895 0.874469 0.872218 0.876466 0.8773 0.875624 0.877743 0.885021 0.893833 0.871139 0.878235 0.893832 0.885832 0.877301 0.891698 0.871901 0.891993 0.890024 0.891417 0.880204 0.885525 0.875145 0.884968 0.868898 0.893803 0.887426 0.886681 0.878872 0.880009 0.874092 0.87319 0.868168 0.870656 0.876752 0.881015 0.881522 0.883494 0.885326 0.893759 0.893775 0.893884 0.893632 0.893877 0.892737 0.839761 0.852472 0.876126 0.888472 0.891413 0.891102 0.892973 0.89384 0.893832 0.89383 0.862264 0.893832 0.893832 0.893666 0.886882 0.881345 0.880277 0.878466 0.868135 0.849445 0.890372 0.889897 0.891035 0.892709 0.889041 0.883623 0.87868 0.872228 0.873802 0.875063 0.877933 0.875522 0.876959 0.8752 0.87906 0.87993 0.877651 0.879007 0.884045 0.893832 0.862304 0.870805 0.877928 0.893832 0.886306 0.881281 0.891804 0.872848 0.892259 0.890228 0.891793 0.880526 0.885778 0.874651 0.8848 0.869671 0.893775 0.888252 0.887227 0.878751 0.879878 0.872877 0.872172 0.867315 0.869607 0.875375 0.879998 0.881215 0.882635 0.885142 0.892456 0.892749 0.893113 0.892392 0.893404 0.889554 0.847282 0.85823 0.879768 0.890202 0.891554 0.89125 0.892893 0.893793 0.893832 0.893831 0.893832 0.893832 0.893568 0.887933 0.882439 0.881529 0.856521 0.888383 0.889509 0.891185 0.892732 0.890012 0.884346 0.87908 0.872384 0.876496 0.878483 0.877221 0.880653 0.881209 0.879412 0.880152 0.883302 0.893832 0.870791 0.878034 0.893832 0.886634 0.884582 0.891913 0.873756 0.890083 0.891976 0.880947 0.886145 0.874534 0.884912 0.870724 0.893746 0.889038 0.887874 0.878879 0.8799 0.872111 0.871618 0.866968 0.869147 0.874573 0.879466 0.881167 0.882127 0.885048 0.891275 0.89183 0.892405 0.891301 0.892964 0.886831 0.853982 0.863485 0.891239 0.891192 0.892913 0.89375 0.893832 0.893831 0.88074 0.872223 0.873615 0.874522 0.877167 0.861782 0.892495 0.882646 0.891098 0.893832 0.893832 0.893489 0.888717 0.883308 0.882499 0.882547 0.875498 0.862108 0.886806 0.889334 0.891402 0.892851 0.890866 0.885053 0.879509 0.872715 0.873632 0.874236 0.876561 0.876888 0.879243 0.878473 0.881427 0.8816 0.880835 0.881087 0.882762 0.893832 0.86138 0.870882 0.878332 0.893832 0.886789 0.887161 0.891994 0.874535 0.892699 0.889724 0.892021 0.88138 0.886532 0.874628 0.885148 0.871816 0.893718 0.889706 0.888504 0.879113 0.880018 0.871653 0.871364 0.866926 0.869062 0.874173 0.879255 0.881251 0.88187 0.885033 0.890285 0.891056 0.891798 0.8904 0.892583 0.88467 0.859594 0.867935 0.884685 0.891476 0.890848 0.891163 0.892974 0.893715 0.893832 0.893831 0.893832 0.893832 0.893432 0.889261 0.885653 0.889277 0.892996 0.881607 0.88179 0.893832 0.871 0.893832 0.889025 0.875142 0.889299 0.881753 0.886872 0.874807 0.885399 0.87278 0.893695 0.890213 0.88904 0.879355 0.880172 0.871394 0.863932 0.8714 0.891188 0.893042 0.893687 0.893832 0.893831 0.883954 0.883207 0.883887 0.877942 0.866233 0.891615 0.891545 0.885659 0.879897 0.873087 0.87375 0.874114 0.876163 0.876904 0.879491 0.879098 0.881708 0.881895 0.882402 0.861213 0.878678 0.886822 0.89205 0.892855 0.891985 0.871282 0.86703 0.869173 0.874018 0.879224 0.881382 0.881769 0.88507 0.889519 0.890453 0.891322 0.889711 0.892278 0.883087 0.885986 0.891622 0.89053 0.893832 0.893832 0.893393 0.889599 0.884381 0.88367 0.884768 0.879561 0.868946 0.88491 0.88927 0.891781 0.893118 0.892014 0.8861 0.880188 0.873395 0.873881 0.874081 0.875936 0.876791 0.879496 0.879316 0.88178 0.881527 0.882593 0.882256 0.882188 0.893832 0.861115 0.87111 0.878962 0.893832 0.886807 0.890222 0.892088 0.875546 0.892952 0.888945 0.891927 0.88202 0.887119 0.874977 0.885594 0.873496 0.893679 0.890548 0.889431 0.87954 0.880307 0.871262 0.871278 0.867164 0.869331 0.873986 0.879265 0.881504 0.881745 0.885118 0.888998 0.89004 0.890996 0.889244 0.892065 0.882059 0.866874 0.873764 0.886723 0.891687 0.89032 0.891232 0.893095 0.893668 0.893832 0.893831 0.893832 0.871177 0.893832 0.890805 0.875742 0.873875 0.890714 0.893832 0.893832 0.893374 0.88976 0.884593 0.883898 0.885205 0.880367 0.870291 0.88455 0.889276 0.891871 0.893185 0.892253 0.886332 0.880344 0.873567 0.873964 0.87408 0.875835 0.876704 0.879453 0.879358 0.881791 0.881473 0.882938 0.882487 0.882089 0.861054 0.879117 0.88679 0.892107 0.892998 0.888748 0.891889 0.882158 0.887248 0.875077 0.885699 0.893671 0.889637 0.879638 0.880384 0.871208 0.871291 0.867251 0.869437 0.87399 0.879304 0.881579 0.881745 0.88515 0.888734 0.88983 0.89083 0.889008 0.891956 0.881553 0.868357 0.87496 0.887049 0.891716 0.890217 0.891263 0.893123 0.893659 0.893832 0.893831 
SCALARS Axial_Stress float 1
LOOKUP_TABLE default
-60298500000.0 -104115000000.0 -112997000000.0 -87986500000.0 -213505000000.0 -111314000000.0 -142327000000.0 -64476600000.0 -63375400000.0 -20093700000.0 -64912800000.0 -78227400000.0 -67785900000.0 -90736200000.0 -161525000000.0 -150832000000.0 -111867000000.0 -234344000000.0 -136884000000.0 -128881000000.0 -123580000000.0 -77296100000.0 -74382000000.0 -184952000000.0 -96233800000.0 -139646000000.0 -116299000000.0 -68777300000.0 -121709000000.0 -236092000000.0 -285257000000.0 -290445000000.0 -260307000000.0 -233249000000.0 -232993000000.0 -125757000000.0 -182558000000.0 -254241000000.0 -146064000000.0 -220558000000.0 -145763000000.0 -142609000000.0 -341830000000.0 -255802000000.0 -401436000000.0 -304190000000.0 -425081000000.0 -352805000000.0 -454647000000.0 -256244000000.0 -283907000000.0 -491312000000.0 -363298000000.0 -391116000000.0 -176255000000.0 -285489000000.0 -258127000000.0 -210205000000.0 -529928000000.0 -353152000000.0 -488737000000.0 -361393000000.0 -459718000000.0 -313539000000.0 -392042000000.0 -269549000000.0 -142276000000.0 -560838000000.0 -513936000000.0 -533035000000.0 -375088000000.0 -442147000000.0 -572108000000.0 -352885000000.0 -288953000000.0 -317766000000.0 -279205000000.0 -699972000000.0 -625701000000.0 -603237000000.0 -602274000000.0 -371750000000.0 -156354000000.0 -639002000000.0 -847712000000.0 -620057000000.0 -617600000000.0 -631641000000.0 -729342000000.0 -626686000000.0 -453354000000.0 -425067000000.0 -966754000000.0 -788887000000.0 -728069000000.0 -715690000000.0 -777326000000.0 -609025000000.0 -773397000000.0 -755430000000.0 -810038000000.0 -710757000000.0 -806425000000.0 -717233000000.0 -812234000000.0 -497152000000.0 -600563000000.0 -989767000000.0 -835910000000.0 -946053000000.0 -667212000000.0 -644099000000.0 -1.22569e+12 -978066000000.0 -1.01642e+12 -861829000000.0 -942842000000.0 -829289000000.0 -941091000000.0 -858602000000.0 -1.05075e+12 -1.08941e+12 -1.48089e+12 -602480000000.0 -871134000000.0 -898949000000.0 -900347000000.0 -620958000000.0 -765016000000.0 -1.10753e+12 -1.05938e+12 -1.91394e+12 -1.52655e+12 -1.43539e+12 -1.19944e+12 -1.18746e+12 -1.06735e+12 -1.03313e+12 -1.08155e+12 -1.30669e+12 -1.43674e+12 -814110000000.0 -981546000000.0 -989976000000.0 -992183000000.0 -1.26362e+12 -1.18538e+12 -2.24848e+12 -1.69913e+12 -1.37654e+12 -1.20556e+12 -1.13352e+12 -1.13962e+12 -1.25084e+12 -1.4359e+12 -1.37293e+12 -1.25396e+12 -1.04564e+12 -1.16519e+12 -1.07792e+12 -1.16839e+12 -1.08009e+12 -1.16907e+12 -745445000000.0 -939772000000.0 -1.53646e+12 -1.38936e+12 -1.78704e+12 -1.94811e+12 -1.57558e+12 -1.35552e+12 -1.36489e+12 -1.24424e+12 -1.30113e+12 -1.21464e+12 -1.31058e+12 -1.26497e+12 -1.38602e+12 -1.38995e+12 -1.47639e+12 -1.45154e+12 -1.42109e+12 -1.30095e+12 -1.25912e+12 -1.25576e+12 -870003000000.0 -1.13015e+12 -1.69685e+12 -1.63513e+12 -1.78673e+12 -1.92984e+12 -1.85066e+12 -1.76316e+12 -1.6653e+12 -1.51411e+12 -1.49215e+12 -1.39684e+12 -1.37354e+12 -1.41284e+12 -1.48724e+12 -1.50798e+12 -1.42266e+12 -1.36764e+12 -1.34488e+12 -1.3416e+12 -1.80877e+12 -1.80093e+12 -1.85099e+12 -1.77152e+12 -1.61711e+12 -1.49912e+12 -1.44717e+12 -1.45683e+12 -1.51106e+12 -1.55923e+12 -1.5328e+12 -1.57267e+12 -1.47464e+12 -1.53946e+12 -1.44161e+12 -1.51733e+12 -1.42737e+12 -1.50834e+12 -994031000000.0 -1.33628e+12 -2.04869e+12 -1.91297e+12 -1.82168e+12 -1.82667e+12 -1.72002e+12 -1.60238e+12 -1.52765e+12 -1.57333e+12 -1.51166e+12 -1.58695e+12 -1.54629e+12 -1.63555e+12 -1.59738e+12 -1.67049e+12 -1.61127e+12 -1.66159e+12 -1.63274e+12 -1.60938e+12 -1.59239e+12 -1.11604e+12 -1.54411e+12 -2.13164e+12 -1.95261e+12 -1.82437e+12 -1.83996e+12 -1.82438e+12 -1.79053e+12 -1.77085e+12 -1.6961e+12 -1.69347e+12 -1.61158e+12 -1.6387e+12 -1.63264e+12 -1.67308e+12 -1.71988e+12 -1.73539e+12 -1.7196e+12 -1.69982e+12 -1.67922e+12 -1.66605e+12 -2.31328e+12 -2.13107e+12 -1.81204e+12 -1.81941e+12 -1.76707e+12 -1.70641e+12 -1.68159e+12 -1.70447e+12 -1.7639e+12 -1.79809e+12 -1.87247e+12 -1.79999e+12 -1.86807e+12 -1.78618e+12 -1.8544e+12 -1.76744e+12 -1.83022e+12 -1.74637e+12 -1.81056e+12 -1.233e+12 -1.74734e+12 -2.61236e+12 -2.44475e+12 -2.6027e+12 -1.63309e+12 -1.83072e+12 -1.82573e+12 -1.7742e+12 -1.73153e+12 -1.73791e+12 -1.80884e+12 -1.79806e+12 -1.90007e+12 -1.85314e+12 -1.93868e+12 -1.94619e+12 -1.93813e+12 -1.91719e+12 -1.88753e+12 -1.3426e+12 -1.92875e+12 -2.82602e+12 -1.54719e+12 -1.77178e+12 -1.8498e+12 -1.8598e+12 -1.89317e+12 -1.83857e+12 -1.84976e+12 -1.78699e+12 -1.80375e+12 -1.77212e+12 -1.82584e+12 -1.92746e+12 -1.99939e+12 -2.02138e+12 -2.01966e+12 -2.00433e+12 -1.96996e+12 -2.01585e+12 -1.94091e+12 -1.44458e+12 -2.05679e+12 -2.91125e+12 -3.17317e+12 -3.07437e+12 -1.77947e+12 -1.92516e+12 -1.91912e+12 -1.85154e+12 -1.84164e+12 -1.8926e+12 -2.05163e+12 -2.09408e+12 -2.18506e+12 -2.10167e+12 -2.17731e+12 -2.08982e+12 -2.15237e+12 -2.05902e+12 -2.09865e+12 -2.05465e+12 -3.11739e+12 -3.48237e+12 -1.47211e+12 -1.8314e+12 -1.91742e+12 -1.99013e+12 -1.92161e+12 -1.84368e+12 -1.89071e+12 -1.92926e+12 -2.07559e+12 -2.23264e+12 -2.16381e+12 -2.26758e+12 -2.2702e+12 -2.24602e+12 -2.19639e+12 -2.12552e+12 -1.53255e+12 -2.07271e+12 -3.40806e+12 -1.37809e+12 -2.09759e+12 -2.05567e+12 -2.14214e+12 -2.01662e+12 -1.98162e+12 -1.89106e+12 -1.82422e+12 -1.88394e+12 -1.92188e+12 -2.27348e+12 -2.36147e+12 -2.35508e+12 -2.3571e+12 -2.46404e+12 -2.29915e+12 -2.27503e+12 -2.20641e+12 -2.19996e+12 -2.14078e+12 -1.60698e+12 -1.92113e+12 -3.0658e+12 -3.15567e+12 -3.7684e+12 -2.09365e+12 -2.26733e+12 -2.16357e+12 -1.84844e+12 -1.93726e+12 -1.78919e+12 -2.50635e+12 -2.56496e+12 -2.44179e+12 -2.50244e+12 -2.4386e+12 -2.54571e+12 -2.62239e+12 -2.16366e+12 -2.21593e+12 -2.44251e+12 -3.53918e+12 -3.62766e+12 -2.04971e+12 -2.60799e+12 -2.40076e+12 -2.52522e+12 -2.34175e+12 -2.34703e+12 -2.11783e+12 -1.45845e+12 -1.80331e+12 -2.76696e+12 -2.83851e+12 -2.56597e+12 -2.58326e+12 -2.71183e+12 -2.92006e+12 -3.36061e+12 -2.12466e+12 -2.14042e+12 -1.67356e+12 -1.38798e+12 -3.71656e+12 -3.45696e+12 -3.04851e+12 -2.74853e+12 -2.56105e+12 -2.29177e+12 -1.98364e+12 -1.78836e+12 -1.06405e+12 -1.61694e+12 -3.2437e+12 -2.67871e+12 -2.58907e+12 -2.69611e+12 -2.73311e+12 -2.9824e+12 -2.98977e+12 -3.37717e+12 -3.70957e+12 -1.60623e+12 -2.87589e+12 -3.88413e+12 -3.83692e+12 -3.79629e+12 -3.0826e+12 -2.78406e+12 -2.54124e+12 -2.20175e+12 -1.75163e+12 -1.22586e+12 -3.44859e+12 -3.01291e+12 -2.4906e+12 -2.56166e+12 -2.60541e+12 -2.92656e+12 -3.34397e+12 -3.74307e+12 -4.01803e+12 -3.93231e+12 -3.51154e+12 -3.18019e+12 -4.85754e+12 -4.0947e+12 -3.50047e+12 -3.37769e+12 -3.05484e+12 -3.00274e+12 -2.76811e+12 -2.72704e+12 -2.49055e+12 -2.15217e+12 -2.02115e+12 -1.84335e+12 -2.62308e+12 -2.37743e+12 -2.79188e+12 -3.26791e+12 -3.65855e+12 -3.7199e+12 -4.01945e+12 -3.75087e+12 -3.07139e+12 -4.12712e+12 -3.96702e+12 -5.55472e+12 -4.70977e+12 -4.48622e+12 -3.99469e+12 -3.74057e+12 -3.26195e+12 -2.94467e+12 -2.68721e+12 -2.45131e+12 -2.46995e+12 -2.23567e+12 -2.28726e+12 -2.62064e+12 -2.32731e+12 -1.69985e+12 -2.02793e+12 -2.57653e+12 -2.94861e+12 -3.16143e+12 -3.53448e+12 -4.02882e+12 -4.08285e+12 -4.90115e+12 -5.36867e+12 -3.70586e+12 -4.02958e+12 -6.16332e+12 -5.36061e+12 -5.04672e+12 -4.20109e+12 -3.55083e+12 -3.16372e+12 -2.8943e+12 -2.6789e+12 -2.55149e+12 -2.40229e+12 -2.54446e+12 -2.03511e+12 -2.88444e+12 -3.28704e+12 -4.0341e+12 -4.27176e+12 -4.18217e+12 -4.36262e+12 -4.49867e+12 -5.21144e+12 -6.09201e+12 -3.69903e+12 -3.56262e+12 -3.90433e+12 -6.44715e+12 -6.40713e+12 -5.98007e+12 -5.60592e+12 -5.5168e+12 -4.69196e+12 -4.30449e+12 -3.89323e+12 -3.65806e+12 -3.39449e+12 -3.28782e+12 -3.09147e+12 -3.04573e+12 -2.86551e+12 -2.71077e+12 -2.67148e+12 -2.5626e+12 -2.59966e+12 -2.23462e+12 -4.19143e+12 -3.72783e+12 -2.46877e+12 -4.0084e+12 -3.82759e+12 -4.34321e+12 -4.39591e+12 -4.78517e+12 -5.61581e+12 -5.98021e+12 -6.17577e+12 -6.12438e+12 -3.39128e+12 -3.52288e+12 -3.71632e+12 -6.36439e+12 -6.25411e+12 -5.74142e+12 -5.65502e+12 -5.18248e+12 -4.73145e+12 -3.96653e+12 -3.48445e+12 -3.22387e+12 -3.02225e+12 -2.86959e+12 -2.89837e+12 -2.77892e+12 -2.78609e+12 -3.37956e+12 -3.84779e+12 -3.34635e+12 -2.75737e+12 -4.75326e+12 -4.45154e+12 -4.18566e+12 -4.48198e+12 -4.31165e+12 -5.36726e+12 -5.72015e+12 -6.00814e+12 -6.06698e+12 -5.95243e+12 -3.34211e+12 -3.22411e+12 -6.03349e+12 -6.2912e+12 -6.35656e+12 -6.15963e+12 -5.91326e+12 -6.04842e+12 -5.18395e+12 -4.29469e+12 -3.73656e+12 -3.37082e+12 -3.1832e+12 -3.03617e+12 -2.95504e+12 -2.87814e+12 -3.1063e+12 -3.16026e+12 -3.70282e+12 -3.88566e+12 -4.65414e+12 -4.43759e+12 -3.80088e+12 -3.75608e+12 -4.50333e+12 -3.55144e+12 -3.98486e+12 -4.63643e+12 -4.96245e+12 -5.4102e+12 -5.8342e+12 -6.19908e+12 -6.09862e+12 -6.05459e+12 -5.55003e+12 -3.69145e+12 -3.65185e+12 -3.06148e+12 -5.71263e+12 -6.19604e+12 -5.98018e+12 -5.86524e+12 -5.54103e+12 -5.82901e+12 -6.40367e+12 -5.74296e+12 -4.88044e+12 -4.60261e+12 -4.29167e+12 -4.01537e+12 -3.78781e+12 -3.54339e+12 -3.4117e+12 -3.28656e+12 -3.2298e+12 -3.13934e+12 -3.04366e+12 -3.09272e+12 -3.36862e+12 -3.48183e+12 -3.98298e+12 -4.18712e+12 -4.52202e+12 -4.54592e+12 -3.64596e+12 -3.73966e+12 -4.26422e+12 -5.08795e+12 -5.9559e+12 -6.09237e+12 -6.31581e+12 -6.52097e+12 -6.62465e+12 -5.86274e+12 -3.57345e+12 -3.04205e+12 -3.06032e+12 -5.23803e+12 -4.21243e+12 -6.15843e+12 -5.28503e+12 -6.58392e+12 -6.13046e+12 -3.88976e+12 -5.04027e+12 -4.54879e+12 -4.02442e+12 -3.6062e+12 -3.34066e+12 -3.21717e+12 -3.12449e+12 -3.14478e+12 -3.08439e+12 -3.30478e+12 -3.62503e+12 -3.76444e+12 -4.07425e+12 -4.79283e+12 -3.93963e+12 -3.28431e+12 -3.70724e+12 -4.58153e+12 -4.9422e+12 -5.50089e+12 -6.00906e+12 -6.16997e+12 -6.42871e+12 -4.90425e+12 -5.7413e+12 -5.93087e+12 -5.92567e+12 -3.45614e+12 -3.11682e+12 -5.55178e+12 -5.6301e+12 -5.51246e+12 -5.44081e+12 -5.26206e+12 -5.53348e+12 -5.89263e+12 -5.4223e+12 -4.46759e+12 -4.74087e+12 -4.39226e+12 -4.23991e+12 -3.80823e+12 -3.47514e+12 -3.32056e+12 -3.23646e+12 -3.20153e+12 -3.24464e+12 -3.43027e+12 -3.53844e+12 -3.80164e+12 -3.89598e+12 -4.14146e+12 -5.63076e+12 -3.40219e+12 -3.78085e+12 -3.89643e+12 -3.99976e+12 -4.18513e+12 -5.31711e+12 -5.60845e+12 -6.11516e+12 -5.97067e+12 -5.88375e+12 -5.46396e+12 -5.76347e+12 -5.77717e+12 -5.91158e+12 -3.33979e+12 -3.25711e+12 -3.20738e+12 -5.90782e+12 -5.76483e+12 -5.7131e+12 -5.85773e+12 -5.87703e+12 -5.52157e+12 -5.23837e+12 -5.26212e+12 -4.72686e+12 -4.32105e+12 -4.12769e+12 -3.99318e+12 -3.79028e+12 -3.6331e+12 -3.50269e+12 -3.39611e+12 -3.31835e+12 -3.26119e+12 -3.34308e+12 -3.62056e+12 -3.76729e+12 -3.98466e+12 -3.81186e+12 -3.83957e+12 -3.45928e+12 -4.57135e+12 -4.43553e+12 -3.76387e+12 -3.7275e+12 -3.79008e+12 -4.11294e+12 -4.28029e+12 -4.00777e+12 -5.56109e+12 -5.60783e+12 -5.5624e+12 -5.31767e+12 -5.70321e+12 -5.7593e+12 -5.76724e+12 -5.9087e+12 -3.23754e+12 -3.27743e+12 -6.01669e+12 -5.77558e+12 -5.75759e+12 -5.81292e+12 -6.17015e+12 -6.05051e+12 -5.83461e+12 -5.35631e+12 -4.7527e+12 -4.47163e+12 -4.46246e+12 -4.11372e+12 -4.12636e+12 -3.92402e+12 -3.61823e+12 -3.41687e+12 -3.35303e+12 -3.31776e+12 -3.28524e+12 -3.29447e+12 -3.29996e+12 -3.49152e+12 -3.80928e+12 -4.21495e+12 -3.45643e+12 -3.82828e+12 -3.73658e+12 -3.87103e+12 -4.30124e+12 -4.37047e+12 -4.91571e+12 -5.49479e+12 -4.46234e+12 -5.43149e+12 -5.69539e+12 -5.59719e+12 -5.65095e+12 -5.73255e+12 -5.81991e+12 -5.94374e+12 -6.01339e+12 -3.2758e+12 -3.24296e+12 -3.28288e+12 -6.0372e+12 -5.8877e+12 -5.86992e+12 -5.80641e+12 -5.8179e+12 -6.15233e+12 -6.31534e+12 -5.9319e+12 -4.55735e+12 -2.99821e+12 -3.82314e+12 -4.13318e+12 -4.00933e+12 -3.78195e+12 -3.71838e+12 -3.49476e+12 -3.35483e+12 -3.29603e+12 -3.33789e+12 -3.39823e+12 -3.50952e+12 -3.64061e+12 -3.79639e+12 -4.00477e+12 -4.67574e+12 -5.34295e+12 -2.74025e+12 -3.5363e+12 -3.98572e+12 -3.70828e+12 -3.75957e+12 -3.80019e+12 -3.9916e+12 -4.0714e+12 -4.62772e+12 -5.17395e+12 -5.64946e+12 -6.0534e+12 -5.1239e+12 -5.77226e+12 -5.6404e+12 -5.86367e+12 -5.91244e+12 -6.03883e+12 -3.3134e+12 -3.31985e+12 -3.15665e+12 -6.02813e+12 -5.90327e+12 -5.74838e+12 -5.66162e+12 -5.85585e+12 -6.00956e+12 -6.05523e+12 -6.76769e+12 -6.21837e+12 -5.516e+12 -5.00632e+12 -5.83583e+12 -4.70185e+12 -4.27824e+12 -3.83701e+12 -3.61328e+12 -3.56654e+12 -3.45168e+12 -3.40345e+12 -3.31057e+12 -3.30533e+12 -3.41024e+12 -3.62743e+12 -3.99475e+12 -4.30321e+12 -4.7667e+12 -4.27074e+12 -3.76804e+12 -3.68026e+12 -3.70843e+12 -3.71154e+12 -3.82387e+12 -4.19897e+12 -4.39416e+12 -4.84222e+12 -5.55786e+12 -5.9126e+12 -6.21509e+12 -5.65436e+12 -5.81433e+12 -5.84914e+12 -5.87581e+12 -5.94209e+12 -5.90429e+12 -6.019e+12 -3.34926e+12 -3.0264e+12 -5.86459e+12 -5.9741e+12 -5.87878e+12 -5.77702e+12 -5.79325e+12 -5.70877e+12 -5.51556e+12 -6.5782e+12 -5.10903e+12 -5.79519e+12 -5.49406e+12 -5.18298e+12 -5.12101e+12 -4.67769e+12 -3.91732e+12 -3.88603e+12 -3.6352e+12 -3.48936e+12 -3.35842e+12 -3.33248e+12 -3.28119e+12 -3.28756e+12 -3.2876e+12 -3.33809e+12 -3.38844e+12 -3.49441e+12 -3.76669e+12 -4.24489e+12 -4.61773e+12 -3.98822e+12 -3.82577e+12 -3.66986e+12 -3.69581e+12 -3.6438e+12 -3.8571e+12 -3.83263e+12 -3.68242e+12 -5.22105e+12 -4.47137e+12 -5.56596e+12 -5.69399e+12 -6.3135e+12 -6.86481e+12 -6.08055e+12 -5.79913e+12 -5.84215e+12 -5.71658e+12 -5.81567e+12 -5.90548e+12 -5.94457e+12 -5.87869e+12 -3.40827e+12 -2.9132e+12 -5.69549e+12 -5.80071e+12 -5.72291e+12 -5.7019e+12 -5.75651e+12 -5.62115e+12 -4.87667e+12 -5.49529e+12 -5.22935e+12 -5.35651e+12 -5.1272e+12 -4.99346e+12 -4.05038e+12 -2.85673e+12 -3.49244e+12 -3.61313e+12 -3.52373e+12 -3.51587e+12 -3.37757e+12 -3.28117e+12 -3.25014e+12 -3.30437e+12 -3.44928e+12 -3.59073e+12 -3.69149e+12 -3.92274e+12 -3.98136e+12 -4.29317e+12 -4.13362e+12 -4.08641e+12 -3.86291e+12 -3.68262e+12 -3.59847e+12 -3.64845e+12 -3.62427e+12 -3.50838e+12 -2.91326e+12 -3.20253e+12 -5.02013e+12 -5.44576e+12 -5.58614e+12 -5.95035e+12 -6.029e+12 -5.67415e+12 -5.59834e+12 -5.74929e+12 -5.78926e+12 -5.84246e+12 -5.8135e+12 -5.81238e+12 -3.48998e+12 -2.8311e+12 -2.84607e+12 -5.52989e+12 -5.50448e+12 -5.6912e+12 -5.64059e+12 -5.57635e+12 -5.62412e+12 -5.56035e+12 -5.59854e+12 -5.62985e+12 -6.55556e+12 -5.52054e+12 -5.47301e+12 -5.04861e+12 -4.95254e+12 -4.7763e+12 -4.61704e+12 -3.25176e+12 -3.47508e+12 -3.42997e+12 -3.39816e+12 -3.2715e+12 -3.2828e+12 -3.20018e+12 -3.22151e+12 -3.23602e+12 -3.33322e+12 -3.51197e+12 -3.74165e+12 -3.94332e+12 -3.84761e+12 -3.71106e+12 -3.58601e+12 -3.51235e+12 -3.59303e+12 -3.67383e+12 -4.76988e+12 -5.04078e+12 -4.22524e+12 -4.80033e+12 -5.18131e+12 -5.33844e+12 -5.19561e+12 -4.27132e+12 -5.27785e+12 -5.6652e+12 -5.66596e+12 -5.70188e+12 -5.65698e+12 -5.72589e+12 -5.73702e+12 -5.63075e+12 -5.72388e+12 -3.55038e+12 -3.6257e+12 -2.84871e+12 -5.39999e+12 -5.33681e+12 -5.54983e+12 -5.47602e+12 -5.47058e+12 -5.34082e+12 -5.43147e+12 -5.65711e+12 -5.32903e+12 -4.80765e+12 -4.7507e+12 -4.57164e+12 -4.48015e+12 -4.27826e+12 -3.78342e+12 -2.7818e+12 -3.5512e+12 -3.47989e+12 -3.2742e+12 -3.18592e+12 -3.12592e+12 -3.17726e+12 -3.14731e+12 -3.23504e+12 -3.23949e+12 -3.36487e+12 -3.38226e+12 -3.54704e+12 -3.7303e+12 -3.66442e+12 -3.80719e+12 -3.61915e+12 -3.67567e+12 -3.53726e+12 -3.49968e+12 -3.45099e+12 -3.37698e+12 -3.00276e+12 -2.79972e+12 -4.41768e+12 -4.54348e+12 -4.78335e+12 -5.06541e+12 -5.25094e+12 -5.28245e+12 -6.32794e+12 -5.34573e+12 -5.57745e+12 -5.49572e+12 -5.39999e+12 -5.83638e+12 -5.63803e+12 -5.61197e+12 -5.5677e+12 -5.50704e+12 -3.89833e+12 -2.8718e+12 -5.20915e+12 -5.29807e+12 -5.20262e+12 -5.17259e+12 -5.36283e+12 -5.47883e+12 -5.36454e+12 -5.42131e+12 -5.21738e+12 -5.44487e+12 -5.10116e+12 -3.99083e+12 -4.28749e+12 -4.29391e+12 -4.31288e+12 -4.2501e+12 -4.18755e+12 -4.05638e+12 -4.01685e+12 -4.65829e+12 -3.50796e+12 -3.27691e+12 -3.29325e+12 -3.16069e+12 -3.14379e+12 -3.08683e+12 -3.06604e+12 -3.12661e+12 -3.23858e+12 -3.376e+12 -3.54252e+12 -3.50001e+12 -3.54627e+12 -3.472e+12 -3.41298e+12 -3.29981e+12 -3.47607e+12 -3.7769e+12 -4.37838e+12 -4.34733e+12 -4.44904e+12 -4.59227e+12 -4.68671e+12 -4.72086e+12 -5.21917e+12 -5.35325e+12 -5.61797e+12 -5.775e+12 -5.60665e+12 -5.4816e+12 -5.24667e+12 -5.24065e+12 -3.64418e+12 -3.93909e+12 -2.86802e+12 -5.14332e+12 -5.09032e+12 -4.99419e+12 -5.25815e+12 -5.43377e+12 -5.44707e+12 -5.12839e+12 -5.1195e+12 -3.16033e+12 -3.97617e+12 -4.08365e+12 -4.0986e+12 -4.04765e+12 -3.97172e+12 -3.90347e+12 -3.86518e+12 -2.40582e+12 -3.04901e+12 -3.25975e+12 -2.95632e+12 -3.07106e+12 -2.94473e+12 -2.99309e+12 -3.01911e+12 -3.10738e+12 -3.22492e+12 -3.34374e+12 -3.42339e+12 -3.4035e+12 -3.27366e+12 -3.33656e+12 -3.19833e+12 -3.21056e+12 -3.91247e+12 -5.01015e+12 -4.96609e+12 -4.48862e+12 -4.43532e+12 -4.35763e+12 -4.37486e+12 -4.38706e+12 -5.02075e+12 -4.80534e+12 -6.32045e+12 -4.53716e+12 -6.54426e+12 -5.86622e+12 -5.00411e+12 -5.42767e+12 -4.96613e+12 -4.62778e+12 -5.84493e+12 -6.08614e+12 -3.895e+12 -2.48435e+12 -2.71152e+12 -5.07279e+12 -5.027e+12 -4.96556e+12 -5.04556e+12 -5.0308e+12 -5.20808e+12 -5.41204e+12 -5.05787e+12 -4.88013e+12 -5.21276e+12 -5.62053e+12 -3.36808e+12 -4.84675e+12 -3.99404e+12 -3.97332e+12 -3.94721e+12 -3.95947e+12 -4.07189e+12 -4.08959e+12 -4.85145e+12 -3.8634e+12 -3.46002e+12 -3.10624e+12 -2.96584e+12 -2.96546e+12 -2.81925e+12 -2.91486e+12 -2.85269e+12 -2.98051e+12 -2.94336e+12 -3.08335e+12 -3.05329e+12 -3.19564e+12 -3.14832e+12 -3.28585e+12 -3.20709e+12 -3.31758e+12 -3.19532e+12 -3.15163e+12 -3.0221e+12 -2.77755e+12 -3.29438e+12 -3.42988e+12 -4.44651e+12 -4.46363e+12 -4.32101e+12 -4.28946e+12 -4.25834e+12 -4.35037e+12 -4.24332e+12 -2.97973e+12 -5.68088e+12 -3.74154e+12 -4.9433e+12 -5.20739e+12 -5.7217e+12 -5.23516e+12 -5.25313e+12 -5.20426e+12 -3.9365e+12 -6.1089e+12 -5.63527e+12 -3.82012e+12 -3.60446e+12 -2.24665e+12 -4.77131e+12 -4.83836e+12 -4.87442e+12 -4.78794e+12 -4.78767e+12 -5.2516e+12 -5.56091e+12 -6.2958e+12 -4.23315e+12 -5.98136e+12 -3.80811e+12 -4.42253e+12 -4.2761e+12 -4.15015e+12 -3.85478e+12 -4.00575e+12 -3.89124e+12 -3.9348e+12 -3.9195e+12 -3.85618e+12 -3.82842e+12 -3.41435e+12 -2.61783e+12 -2.6273e+12 -2.77247e+12 -2.72709e+12 -2.79445e+12 -2.912e+12 -3.0125e+12 -3.0821e+12 -3.1138e+12 -3.0669e+12 -2.91831e+12 -3.04638e+12 -2.93639e+12 -2.4789e+12 -3.07419e+12 -3.88698e+12 -4.09801e+12 -4.1085e+12 -4.1096e+12 -4.25145e+12 -4.25573e+12 -4.28693e+12 -4.04493e+12 -4.43022e+12 -4.80476e+12 -4.30108e+12 -4.99815e+12 -4.8659e+12 -4.87763e+12 -3.55726e+12 -6.19634e+12 -5.5868e+12 -5.07102e+12 -4.42582e+12 -5.22719e+12 -5.68882e+12 -5.52931e+12 -3.31138e+12 -2.02744e+12 -4.03571e+12 -4.38836e+12 -4.48375e+12 -4.50276e+12 -4.38243e+12 -4.27832e+12 -5.0192e+12 -5.30234e+12 -5.61131e+12 -5.04886e+12 -5.07508e+12 -4.69158e+12 -3.78385e+12 -4.25547e+12 -3.92765e+12 -3.95717e+12 -3.81315e+12 -3.86349e+12 -3.86532e+12 -3.87158e+12 -4.14999e+12 -4.53705e+12 -5.27305e+12 -4.97246e+12 -4.01838e+12 -3.09055e+12 -1.71116e+12 -2.89619e+12 -2.72904e+12 -2.62751e+12 -2.40663e+12 -2.62227e+12 -2.76313e+12 -2.87726e+12 -2.95657e+12 -3.00222e+12 -2.91384e+12 -3.01507e+12 -2.91886e+12 -2.72635e+12 -3.17602e+12 -4.37069e+12 -4.5184e+12 -3.9586e+12 -3.98051e+12 -3.97627e+12 -4.0942e+12 -4.08502e+12 -4.09257e+12 -4.01923e+12 -4.2265e+12 -4.21602e+12 -4.47082e+12 -4.42315e+12 -4.63497e+12 -4.59296e+12 -4.33566e+12 -5.02459e+12 -5.50609e+12 -5.13972e+12 -4.66441e+12 -4.77711e+12 -4.98449e+12 -5.0513e+12 -5.24606e+12 -4.9472e+12 -3.10633e+12 -1.63732e+12 -3.39371e+12 -4.33099e+12 -4.72813e+12 -2.9058e+12 -4.54485e+12 -4.79412e+12 -4.94783e+12 -4.74635e+12 -4.83653e+12 -4.33213e+12 -4.13046e+12 -3.88657e+12 -3.89581e+12 -3.77697e+12 -3.75455e+12 -3.70265e+12 -3.74063e+12 -3.78177e+12 -3.85075e+12 -3.9683e+12 -4.69327e+12 -4.03202e+12 -3.09127e+12 -1.70053e+12 -3.74685e+12 -2.11165e+12 -2.36568e+12 -2.59188e+12 -2.59329e+12 -2.73898e+12 -2.70038e+12 -2.82984e+12 -2.77143e+12 -2.88584e+12 -2.8041e+12 -2.82155e+12 -2.83783e+12 -2.15737e+12 -2.28149e+12 -3.37753e+12 -3.84904e+12 -3.79889e+12 -3.95094e+12 -3.93197e+12 -3.91116e+12 -3.89958e+12 -3.8718e+12 -3.96431e+12 -4.00523e+12 -4.06362e+12 -4.24508e+12 -4.25719e+12 -4.34092e+12 -4.30587e+12 -4.6653e+12 -4.75457e+12 -4.90031e+12 -4.62746e+12 -4.14868e+12 -3.41294e+12 -5.61677e+12 -5.20368e+12 -4.3493e+12 -2.83653e+12 -2.71856e+12 -947448000000.0 -1.95451e+12 -3.91381e+12 -4.34101e+12 -5.36152e+12 -3.87084e+12 -4.25041e+12 -4.4151e+12 -4.35524e+12 -3.85612e+12 -3.66211e+12 -3.63447e+12 -3.57156e+12 -3.57244e+12 -3.58377e+12 -3.64749e+12 -3.73369e+12 -3.86237e+12 -4.02371e+12 -4.26417e+12 -4.59192e+12 -3.40194e+12 -2.77719e+12 -2.00353e+12 -3.30853e+12 -1.74603e+12 -1.99303e+12 -2.43871e+12 -2.56167e+12 -2.65394e+12 -2.69864e+12 -2.71513e+12 -2.70354e+12 -2.53245e+12 -2.90346e+12 -3.66165e+12 -4.55323e+12 -4.32699e+12 -3.81864e+12 -3.80545e+12 -3.76803e+12 -3.73639e+12 -3.7078e+12 -3.68172e+12 -3.71613e+12 -3.75363e+12 -3.80806e+12 -3.89464e+12 -3.99747e+12 -4.03504e+12 -4.09688e+12 -4.28402e+12 -4.37014e+12 -4.40129e+12 -4.42246e+12 -4.36933e+12 -3.37401e+12 -4.95584e+12 -5.03897e+12 -4.6569e+12 -3.32858e+12 -2.54927e+12 -2.61277e+12 -2.35398e+12 -3.204e+12 -3.89696e+12 -3.15217e+12 -3.75971e+12 -4.10367e+12 -4.79003e+12 -4.73229e+12 -3.11695e+12 -3.82625e+12 -3.99831e+12 -3.99973e+12 -4.36071e+12 -4.18579e+12 -3.97098e+12 -3.37289e+12 -3.37441e+12 -3.41968e+12 -3.48418e+12 -3.57452e+12 -3.71221e+12 -3.83967e+12 -3.97854e+12 -4.12752e+12 -4.13297e+12 -3.88768e+12 -2.65834e+12 -2.70431e+12 -2.19993e+12 -1.04865e+12 -2.15024e+12 -2.28459e+12 -2.1928e+12 -2.40179e+12 -2.41769e+12 -2.53846e+12 -2.48313e+12 -2.59027e+12 -2.5099e+12 -2.62145e+12 -2.55642e+12 -2.62119e+12 -2.41913e+12 -2.76549e+12 -3.93123e+12 -3.84617e+12 -3.74327e+12 -3.70001e+12 -3.64834e+12 -3.57409e+12 -3.52256e+12 -3.47656e+12 -3.46725e+12 -3.48542e+12 -4.06475e+12 -4.07968e+12 -4.10868e+12 -3.99113e+12 -4.31891e+12 -4.23648e+12 -3.89284e+12 -2.24148e+12 -5.0986e+12 -2.81608e+12 -2.35325e+12 -2.08237e+12 -1.99119e+12 -3.48058e+12 -3.02828e+12 -3.36978e+12 -3.50267e+12 -3.6721e+12 -4.14877e+12 -3.91553e+12 -3.56021e+12 -3.70447e+12 -3.70182e+12 -3.98492e+12 -3.89791e+12 -3.80531e+12 -3.66769e+12 -3.5307e+12 -3.40101e+12 -3.30623e+12 -3.39074e+12 -3.56715e+12 -3.67323e+12 -3.75135e+12 -3.81339e+12 -3.79824e+12 -3.64444e+12 -3.41496e+12 -3.05399e+12 -2.73206e+12 -3.10922e+12 -2.94059e+12 -1.82666e+12 -2.30956e+12 -2.37326e+12 -2.42513e+12 -2.41822e+12 -2.56774e+12 -1.91983e+12 -2.18969e+12 -2.77957e+12 -3.83815e+12 -3.81504e+12 -3.70657e+12 -3.66569e+12 -3.61128e+12 -3.56387e+12 -3.48942e+12 -3.35373e+12 -3.27679e+12 -3.53084e+12 -3.60715e+12 -3.68563e+12 -3.7619e+12 -3.82357e+12 -3.95207e+12 -4.02613e+12 -3.78143e+12 -3.81281e+12 -3.81524e+12 -3.68226e+12 -4.07768e+12 -3.55964e+12 -3.05231e+12 -4.35344e+12 -4.209e+12 -1.80035e+12 -1.96545e+12 -2.522e+12 -3.26272e+12 -3.17253e+12 -3.71001e+12 -3.65058e+12 -3.62854e+12 -3.45019e+12 -3.43949e+12 -3.67248e+12 -3.61198e+12 -3.55225e+12 -3.46436e+12 -3.32402e+12 -3.19514e+12 -3.09206e+12 -3.13954e+12 -3.20084e+12 -3.46562e+12 -3.55199e+12 -3.58423e+12 -3.59323e+12 -3.56181e+12 -3.46034e+12 -3.32218e+12 -3.1403e+12 -2.9096e+12 -2.84737e+12 -2.54704e+12 -2.02803e+12 -1.00206e+12 -2.26341e+12 -2.24135e+12 -2.31849e+12 -2.34278e+12 -2.31724e+12 -2.24426e+12 -2.48364e+12 -2.30533e+12 -2.65074e+12 -3.36042e+12 -3.50431e+12 -3.51126e+12 -3.50521e+12 -3.48227e+12 -3.44467e+12 -3.35345e+12 -3.21585e+12 -3.19469e+12 -3.22109e+12 -3.30043e+12 -3.39157e+12 -3.46946e+12 -3.54641e+12 -3.63934e+12 -3.71003e+12 -3.75166e+12 -3.51234e+12 -3.52975e+12 -3.51915e+12 -3.70506e+12 -3.74487e+12 -3.74781e+12 -3.02409e+12 -2.28848e+12 -3.4656e+12 -2.6557e+12 -2.10443e+12 -1.16058e+12 -1.60463e+12 -3.39781e+12 -1.95051e+12 -948380000000.0 -2.50291e+12 -2.63112e+12 -2.80541e+12 -3.26929e+12 -3.32318e+12 -3.32194e+12 -3.33386e+12 -3.30845e+12 -3.40134e+12 -3.34841e+12 -3.29434e+12 -3.21794e+12 -3.09961e+12 -2.92797e+12 -2.79748e+12 -2.7838e+12 -2.93577e+12 -3.08668e+12 -3.16722e+12 -3.43662e+12 -3.38342e+12 -3.30166e+12 -3.20176e+12 -3.08529e+12 -2.94423e+12 -2.81843e+12 -2.65172e+12 -2.65836e+12 -2.68087e+12 -1.72469e+12 -2.06e+12 -2.19217e+12 -2.26417e+12 -2.15427e+12 -2.23101e+12 -2.04983e+12 -2.2982e+12 -2.39689e+12 -3.67881e+12 -4.00886e+12 -3.40145e+12 -3.40604e+12 -3.39168e+12 -3.38184e+12 -3.38376e+12 -3.0843e+12 -2.97702e+12 -2.88057e+12 -2.84598e+12 -2.94213e+12 -3.074e+12 -3.17987e+12 -3.26049e+12 -3.34453e+12 -3.40956e+12 -3.45272e+12 -3.48331e+12 -3.25635e+12 -3.3393e+12 -3.36839e+12 -3.34474e+12 -3.25716e+12 -2.76238e+12 -3.28035e+12 -2.93721e+12 -3.41225e+12 -2.21682e+12 -1.88955e+12 -1.07779e+12 -1.87351e+12 -2.8837e+12 -3.08443e+12 -1.22162e+12 -1.89211e+12 -2.22864e+12 -2.87329e+12 -2.94814e+12 -2.98934e+12 -3.02019e+12 -3.03281e+12 -3.20705e+12 -3.16166e+12 -3.10854e+12 -3.05525e+12 -2.98183e+12 -2.85949e+12 -2.66821e+12 -2.3334e+12 -2.46541e+12 -2.34897e+12 -2.9035e+12 -2.77971e+12 -3.46437e+12 -3.50474e+12 -3.47542e+12 -3.0732e+12 -2.98481e+12 -2.88923e+12 -2.79242e+12 -2.68288e+12 -2.63318e+12 -2.63619e+12 -3.126e+12 -1.30591e+12 -2.17597e+12 -2.16587e+12 -2.07997e+12 -1.80632e+12 -3.60736e+12 -1.12645e+12 -2.04107e+12 -3.17286e+12 -3.33487e+12 -3.21271e+12 -3.22326e+12 -3.23263e+12 -3.38697e+12 -3.37853e+12 -3.29105e+12 -2.66279e+12 -2.61781e+12 -2.35228e+12 -2.46445e+12 -2.69871e+12 -2.86992e+12 -2.97707e+12 -3.05625e+12 -3.12409e+12 -3.16918e+12 -3.19896e+12 -3.22339e+12 -3.24236e+12 -3.00672e+12 -3.0132e+12 -3.00501e+12 -2.96593e+12 -2.8986e+12 -2.90968e+12 -3.03185e+12 -3.16841e+12 -4.16306e+12 -3.24005e+12 -1.54468e+12 -1.14366e+12 -1.40031e+12 -2.72759e+12 -1.9334e+12 -1.98951e+12 -1.65128e+12 -1.70697e+12 -2.45409e+12 -2.57434e+12 -2.65526e+12 -2.70984e+12 -3.00747e+12 -2.94294e+12 -2.89279e+12 -2.84193e+12 -2.77633e+12 -2.65723e+12 -2.40245e+12 -2.08199e+12 -2.07345e+12 -2.0251e+12 -1.90058e+12 -2.80921e+12 -3.92229e+12 -3.6234e+12 -3.43879e+12 -3.32505e+12 -3.23887e+12 -3.15713e+12 -2.71141e+12 -2.62578e+12 -2.55045e+12 -2.48748e+12 -2.51878e+12 -2.18678e+12 -2.78724e+12 -1.96474e+12 -2.06976e+12 -1.70909e+12 -1.31223e+12 -2.8121e+12 -2.70957e+12 -2.80591e+12 -3.00696e+12 -3.06372e+12 -3.24999e+12 -3.28493e+12 -3.34622e+12 -3.44903e+12 -3.60004e+12 -2.46951e+12 -1.74e+12 -1.63835e+12 -2.11329e+12 -2.50426e+12 -2.68404e+12 -2.78705e+12 -2.84541e+12 -2.89709e+12 -2.92874e+12 -2.9522e+12 -2.96703e+12 -2.97618e+12 -2.66265e+12 -2.63815e+12 -2.61288e+12 -2.62844e+12 -2.79515e+12 -2.97978e+12 -3.18362e+12 -3.26986e+12 -2.63933e+12 -2.55054e+12 -1.2271e+12 -860773000000.0 -2.30381e+12 -3.31408e+12 -3.69759e+12 -1.57729e+12 -1.38314e+12 -1.99927e+12 -2.20567e+12 -2.32441e+12 -2.402e+12 -2.74461e+12 -2.75436e+12 -2.73474e+12 -2.69315e+12 -2.65821e+12 -2.62889e+12 -2.60202e+12 -2.25409e+12 -4.51395e+12 -3.80234e+12 -3.40877e+12 -3.21688e+12 -3.0992e+12 -3.01151e+12 -2.93563e+12 -2.86212e+12 -2.7876e+12 -2.47273e+12 -2.41511e+12 -2.40179e+12 -2.37952e+12 -2.50269e+12 -2.47747e+12 -1.51135e+12 -2.12425e+12 -2.33309e+12 -1.92212e+12 -2.09952e+12 -1.45451e+12 -1.14431e+12 -1.51026e+12 -2.41826e+12 -2.56238e+12 -2.67076e+12 -3.03713e+12 -3.05378e+12 -3.08028e+12 -3.12343e+12 -3.20008e+12 -3.34468e+12 -3.63717e+12 -4.16481e+12 -1.96668e+12 -2.62165e+12 -2.63214e+12 -2.66836e+12 -2.69626e+12 -2.71254e+12 -2.71567e+12 -2.70543e+12 -2.68671e+12 -2.2589e+12 -2.26677e+12 -2.47243e+12 -2.58725e+12 -2.7368e+12 -2.54385e+12 -1.85737e+12 -1.91126e+12 -1.38202e+12 -948711000000.0 -589818000000.0 -1.69418e+12 -1.84811e+12 -2.51109e+12 -2.78324e+12 -2.94353e+12 -1.58743e+12 -1.48467e+12 -1.83369e+12 -2.00245e+12 -2.45752e+12 -2.49338e+12 -2.5045e+12 -2.49145e+12 -2.47102e+12 -2.46095e+12 -2.59243e+12 -2.73794e+12 -3.0945e+12 -3.15177e+12 -2.79471e+12 -2.12617e+12 -3.23041e+12 -3.13671e+12 -3.01564e+12 -2.92342e+12 -2.84932e+12 -2.78647e+12 -2.72606e+12 -2.66485e+12 -2.6037e+12 -2.53813e+12 -2.22458e+12 -2.30243e+12 -2.45912e+12 -2.20278e+12 -2.73513e+12 -2.52941e+12 -2.43218e+12 -1.74748e+12 -2.1467e+12 -2.18887e+12 -2.788e+12 -2.84167e+12 -2.85621e+12 -2.88357e+12 -2.92152e+12 -2.97896e+12 -3.07735e+12 -3.25512e+12 -3.5616e+12 -3.54785e+12 -2.50252e+12 -2.46933e+12 -2.40972e+12 -2.49995e+12 -2.57285e+12 -2.44735e+12 -2.47736e+12 -2.48205e+12 -2.46012e+12 -2.38109e+12 -2.33228e+12 -2.29647e+12 -1.80571e+12 -1.76644e+12 -2.41864e+12 -2.32493e+12 -2.46901e+12 -1.84013e+12 -1.25289e+12 -944536000000.0 -729977000000.0 -335408000000.0 -1.08174e+12 -1.1526e+12 -1.95504e+12 -2.61021e+12 -1.91564e+12 -1.8496e+12 -1.75164e+12 -2.10992e+12 -2.17601e+12 -2.2288e+12 -2.26622e+12 -2.28153e+12 -2.27675e+12 -2.46275e+12 -2.48232e+12 -2.56664e+12 -2.73676e+12 -2.84993e+12 -2.75248e+12 -2.50254e+12 -2.41407e+12 -2.79439e+12 -2.73412e+12 -2.67777e+12 -2.62692e+12 -2.57941e+12 -2.53074e+12 -2.48071e+12 -2.42855e+12 -2.37335e+12 -2.31808e+12 -2.27435e+12 -2.24059e+12 -2.25548e+12 -1.27886e+12 -2.7065e+12 -507596000000.0 -2.29016e+12 -1.50247e+12 -1.95934e+12 -2.40381e+12 -2.47169e+12 -2.54149e+12 -2.6109e+12 -2.65324e+12 -2.67864e+12 -2.70875e+12 -2.74706e+12 -2.80152e+12 -2.88783e+12 -2.40269e+12 -2.45515e+12 -2.37902e+12 -2.3604e+12 -2.3989e+12 -2.44024e+12 -2.46094e+12 -2.37741e+12 -2.28087e+12 -2.2611e+12 -2.20066e+12 -1.98499e+12 -1.96048e+12 -1.88749e+12 -2.35792e+12 -2.29676e+12 -1.97932e+12 -1.92885e+12 -1.20109e+12 -839821000000.0 -818837000000.0 -1.18536e+12 -528399000000.0 -290024000000.0 -113613000000.0 -230173000000.0 -600981000000.0 -430120000000.0 -1.27049e+12 -1.22073e+12 -1.89459e+12 -1.63712e+12 -1.51605e+12 -1.41763e+12 -1.63349e+12 -1.74397e+12 -1.83965e+12 -1.91475e+12 -1.97177e+12 -2.02448e+12 -2.06545e+12 -2.27542e+12 -2.2868e+12 -2.31213e+12 -2.36296e+12 -2.44271e+12 -2.49646e+12 -2.48272e+12 -2.39183e+12 -2.48652e+12 -2.82438e+12 -2.42626e+12 -2.38946e+12 -2.34867e+12 -2.30581e+12 -2.25942e+12 -2.20775e+12 -2.15338e+12 -2.08959e+12 -2.01505e+12 -2.1948e+12 -2.05716e+12 -2.21161e+12 -1.97465e+12 -2.03295e+12 -2.08856e+12 -2.17092e+12 -2.28923e+12 -2.34888e+12 -2.39986e+12 -2.44549e+12 -2.47756e+12 -2.50169e+12 -3.01242e+12 -3.02721e+12 -2.63999e+12 -2.26659e+12 -2.25243e+12 -2.23804e+12 -2.24956e+12 -2.28587e+12 -2.32438e+12 -2.36963e+12 -2.18687e+12 -2.26735e+12 -2.07865e+12 -2.03874e+12 -1.68316e+12 -1.58844e+12 -1.41539e+12 -1.18188e+12 -2.28689e+12 -2.12132e+12 -2.01334e+12 -1.46906e+12 -658264000000.0 -824955000000.0 -1.53921e+12 -1.37271e+12 -725300000000.0 -168093000000.0 -505114000000.0 -836407000000.0 -1.00554e+12 -1.33655e+12 -1.00639e+12 -1.39809e+12 -1.45644e+12 -1.54802e+12 -1.63284e+12 -1.71928e+12 -1.78658e+12 -2.08383e+12 -2.08116e+12 -2.09339e+12 -2.12008e+12 -2.15424e+12 -2.19346e+12 -2.21939e+12 -2.20494e+12 -2.32597e+12 -2.34049e+12 -2.3867e+12 -2.5158e+12 -2.51998e+12 -2.49304e+12 -2.45976e+12 -2.17704e+12 -2.13806e+12 -2.09152e+12 -2.03525e+12 -1.96281e+12 -1.86172e+12 -1.60517e+12 -2.33888e+12 -2.34845e+12 -2.0701e+12 -1.88469e+12 -1.99806e+12 -2.06135e+12 -2.11668e+12 -2.17835e+12 -2.21931e+12 -2.25453e+12 -2.52731e+12 -2.55651e+12 -2.59452e+12 -2.63872e+12 -2.63898e+12 -2.51219e+12 -2.44063e+12 -2.06958e+12 -2.09409e+12 -2.12696e+12 -2.16375e+12 -2.21362e+12 -2.26e+12 -2.06843e+12 -2.11985e+12 -2.11122e+12 -1.81207e+12 -1.42147e+12 -1.17167e+12 -764437000000.0 -1.94362e+12 -1.87612e+12 -1.76288e+12 -1.64738e+12 -1.24898e+12 -856814000000.0 -1.70065e+12 -692682000000.0 -899859000000.0 -189603000000.0 -742620000000.0 -792298000000.0 -1.05788e+12 -699538000000.0 -858926000000.0 -1.12283e+12 -1.24409e+12 -1.3307e+12 -1.44847e+12 -1.84533e+12 -1.88972e+12 -1.90845e+12 -1.88066e+12 -1.91333e+12 -1.95166e+12 -1.9758e+12 -2.17053e+12 -2.13328e+12 -2.12642e+12 -2.14979e+12 -2.19472e+12 -2.27348e+12 -2.29317e+12 -2.28487e+12 -2.26645e+12 -2.24214e+12 -2.21171e+12 -1.92644e+12 -1.86176e+12 -1.77478e+12 -1.63791e+12 -1.4154e+12 -2.45431e+12 -2.35453e+12 -2.32477e+12 -2.12953e+12 -2.16601e+12 -2.01469e+12 -2.02057e+12 -1.94981e+12 -1.97988e+12 -2.00449e+12 -2.02935e+12 -2.05827e+12 -2.28448e+12 -2.30663e+12 -2.32403e+12 -2.33885e+12 -2.34833e+12 -2.35036e+12 -2.31513e+12 -2.24555e+12 -2.1989e+12 -2.12484e+12 -2.0627e+12 -1.99281e+12 -2.0319e+12 -2.07238e+12 -2.08728e+12 -1.97079e+12 -1.98264e+12 -1.94366e+12 -1.89277e+12 -1.1585e+12 -602139000000.0 -1.46861e+12 -1.42069e+12 -1.14731e+12 -1.47012e+12 -921058000000.0 -627111000000.0 -589910000000.0 -811098000000.0 -506141000000.0 -457709000000.0 -1.54989e+12 -1.62896e+12 -1.6954e+12 -1.74641e+12 -1.77769e+12 -1.69223e+12 -1.74898e+12 -1.98301e+12 -1.96122e+12 -1.91278e+12 -1.88138e+12 -1.86519e+12 -1.88356e+12 -1.92993e+12 -2.01683e+12 -2.07679e+12 -2.0993e+12 -2.10065e+12 -2.0904e+12 -2.07105e+12 -2.04577e+12 -2.01509e+12 -1.97629e+12 -1.49439e+12 -1.2846e+12 -2.54501e+12 -2.48801e+12 -2.32412e+12 -2.21219e+12 -2.10643e+12 -2.01812e+12 -1.98405e+12 -1.93587e+12 -1.92294e+12 -2.08393e+12 -2.10668e+12 -2.12482e+12 -2.13685e+12 -2.14352e+12 -2.14146e+12 -2.1203e+12 -2.06715e+12 -1.94504e+12 -1.88521e+12 -1.85627e+12 -1.85061e+12 -1.88386e+12 -1.9206e+12 -1.95894e+12 -1.88627e+12 -1.9024e+12 -1.88521e+12 -1.87771e+12 -1.84544e+12 -1.7755e+12 -1.67985e+12 -1.51944e+12 -1.47203e+12 -1.4057e+12 -1.32364e+12 -1.15064e+12 -1.0433e+12 -439308000000.0 -702183000000.0 -271635000000.0 -328053000000.0 -747342000000.0 -719361000000.0 -437131000000.0 -452104000000.0 -674516000000.0 -931096000000.0 -1.15001e+12 -1.29886e+12 -1.41079e+12 -1.49894e+12 -1.57574e+12 -1.64187e+12 -1.67638e+12 -1.77905e+12 -1.78046e+12 -1.75568e+12 -1.68505e+12 -1.58975e+12 -1.55847e+12 -1.5719e+12 -1.6044e+12 -1.78864e+12 -1.86113e+12 -1.90901e+12 -1.93144e+12 -1.9361e+12 -1.92748e+12 -1.91188e+12 -1.89084e+12 -1.86159e+12 -1.82144e+12 -1.76816e+12 -1.69806e+12 -1.60265e+12 -2.62223e+12 -2.51922e+12 -2.33274e+12 -2.15122e+12 -2.05866e+12 -1.99195e+12 -1.91451e+12 -1.91426e+12 -1.92781e+12 -1.94279e+12 -1.95617e+12 -1.96486e+12 -1.96666e+12 -1.95958e+12 -1.93482e+12 -1.87547e+12 -1.53128e+12 -1.65524e+12 -1.72296e+12 -1.77779e+12 -1.8196e+12 -1.85685e+12 -1.7228e+12 -1.67358e+12 -1.77119e+12 -1.69628e+12 -1.59493e+12 -1.45247e+12 -1.19663e+12 -724864000000.0 -2.0987e+12 -1.96729e+12 -1.54072e+12 -689637000000.0 -577632000000.0 -243642000000.0 -328949000000.0 -453095000000.0 -417404000000.0 -759300000000.0 -911700000000.0 -1.07147e+12 -1.202e+12 -1.30842e+12 -1.39947e+12 -1.48424e+12 -1.56691e+12 -1.60091e+12 -1.60436e+12 -1.57994e+12 -1.52435e+12 -1.36318e+12 -1.78315e+12 -1.77565e+12 -1.7643e+12 -1.74597e+12 -1.71708e+12 -1.67617e+12 -1.62156e+12 -1.55076e+12 -1.47022e+12 -1.40357e+12 -1.2412e+12 -1.93923e+12 -1.87515e+12 -1.82439e+12 -1.78522e+12 -1.78174e+12 -1.78778e+12 -1.79629e+12 -1.80313e+12 -1.8043e+12 -1.76676e+12 -1.48101e+12 -1.48026e+12 -1.49893e+12 -1.58394e+12 -1.64325e+12 -1.68818e+12 -1.71832e+12 -1.72778e+12 -1.62867e+12 -1.5365e+12 -1.44894e+12 -1.36948e+12 -1.38725e+12 -2.42299e+12 -1.60839e+12 -1.43215e+12 -1.14949e+12 -913378000000.0 -282379000000.0 -82188000000.0 -88718000000.0 -117652000000.0 -126750000000.0 -542944000000.0 -475695000000.0 -302982000000.0 -528029000000.0 -702410000000.0 -860970000000.0 -999119000000.0 -1.12015e+12 -1.56002e+12 -1.57194e+12 -1.45003e+12 -1.45041e+12 -1.42626e+12 -1.39406e+12 -1.15003e+12 -1.22479e+12 -1.24337e+12 -1.61667e+12 -1.67953e+12 -1.72943e+12 -1.76388e+12 -1.78114e+12 -1.6112e+12 -1.58347e+12 -1.54266e+12 -1.48756e+12 -1.42154e+12 -1.35871e+12 -1.36477e+12 -1.25165e+12 -2.68917e+12 -2.50461e+12 -2.18688e+12 -2.06288e+12 -2.00936e+12 -1.95611e+12 -1.88016e+12 -1.76485e+12 -1.65685e+12 -1.63899e+12 -1.63584e+12 -1.79678e+12 -1.77638e+12 -1.73161e+12 -1.6509e+12 -1.55162e+12 -975204000000.0 -1.02136e+12 -1.37123e+12 -1.46378e+12 -1.52082e+12 -1.56048e+12 -1.57775e+12 -1.57516e+12 -1.55162e+12 -1.4672e+12 -1.27784e+12 -1.17087e+12 -1.65172e+12 -1.5297e+12 -1.11075e+12 -927538000000.0 -743662000000.0 -509453000000.0 -77822800000.0 -233801000000.0 -382331000000.0 -410371000000.0 -295597000000.0 -1.2258e+12 -1.32033e+12 -1.40645e+12 -1.45805e+12 -1.46089e+12 -1.32171e+12 -1.27735e+12 -1.37155e+12 -1.13897e+12 -824981000000.0 -996686000000.0 -1.50906e+12 -1.53403e+12 -1.57047e+12 -1.60399e+12 -1.6283e+12 -1.63969e+12 -1.64014e+12 -1.63389e+12 -1.62683e+12 -1.35721e+12 -1.2942e+12 -1.24459e+12 -1.44008e+12 -1.40863e+12 -2.71032e+12 -2.15475e+12 -2.01099e+12 -1.97137e+12 -1.9824e+12 -1.9347e+12 -1.80922e+12 -1.49265e+12 -1.63966e+12 -1.64543e+12 -1.64851e+12 -1.64464e+12 -1.63025e+12 -1.59935e+12 -1.54156e+12 -1.45449e+12 -1.3238e+12 -480599000000.0 -1.175e+12 -1.28875e+12 -1.39194e+12 -1.40719e+12 -1.4423e+12 -1.45542e+12 -1.44305e+12 -1.39669e+12 -1.29091e+12 -1.4338e+12 -1.35514e+12 -535637000000.0 -439455000000.0 -193092000000.0 -293049000000.0 -465983000000.0 -666178000000.0 -808594000000.0 -937854000000.0 -1.05405e+12 -1.15911e+12 -1.25289e+12 -1.3208e+12 -1.35372e+12 -1.34617e+12 -1.23401e+12 -1.23369e+12 -1.28394e+12 -897283000000.0 -731113000000.0 -1.27474e+12 -1.37364e+12 -1.41933e+12 -1.45235e+12 -1.47886e+12 -1.49707e+12 -1.50568e+12 -1.50577e+12 -1.49814e+12 -1.49979e+12 -1.48943e+12 -1.46309e+12 -1.41958e+12 -1.57456e+12 -1.7616e+12 -1.8404e+12 -1.91335e+12 -2.03823e+12 -1.95429e+12 -1.48434e+12 -1.47827e+12 -1.48039e+12 -1.48654e+12 -1.49295e+12 -1.49524e+12 -1.4895e+12 -1.47151e+12 -1.43573e+12 -1.37445e+12 -1.26325e+12 -911089000000.0 -862180000000.0 -1.09712e+12 -1.21376e+12 -1.28128e+12 -1.34837e+12 -1.35345e+12 -1.36277e+12 -1.33349e+12 -1.2717e+12 -1.18295e+12 -1.23437e+12 -1.18849e+12 -1.12948e+12 -1.19726e+12 -1.02496e+12 -866290000000.0 -605351000000.0 -265661000000.0 -165200000000.0 -72144900000.0 -206802000000.0 -17105400000.0 -273941000000.0 -485819000000.0 -634086000000.0 -764001000000.0 -886755000000.0 -1.00224e+12 -1.11011e+12 -1.20221e+12 -1.26348e+12 -1.26791e+12 -1.12988e+12 -1.03993e+12 -1.02831e+12 -1.08775e+12 -1.1156e+12 -835797000000.0 -1.01086e+12 -1.19624e+12 -1.27031e+12 -1.31034e+12 -1.33682e+12 -1.35718e+12 -1.37145e+12 -1.37916e+12 -1.37762e+12 -1.36203e+12 -1.3899e+12 -1.38787e+12 -1.35993e+12 -1.28827e+12 -1.20468e+12 -1.09039e+12 -852316000000.0 -907803000000.0 -913838000000.0 -1.45292e+12 -1.6493e+12 -1.36227e+12 -1.31293e+12 -1.30686e+12 -1.31119e+12 -1.32166e+12 -1.33348e+12 -1.34337e+12 -1.34797e+12 -1.34452e+12 -1.32959e+12 -1.08825e+12 -896033000000.0 -1.09403e+12 -1.1091e+12 -1.16097e+12 -1.24796e+12 -1.31198e+12 -1.28986e+12 -1.24063e+12 -1.17665e+12 -1.12281e+12 -1.09963e+12 -1.05289e+12 -1.04467e+12 -1.0001e+12 -515555000000.0 -382554000000.0 -378119000000.0 -65865300000.0 -283292000000.0 -261686000000.0 -468828000000.0 -599049000000.0 -722670000000.0 -844575000000.0 -966723000000.0 -1.20794e+12 -747588000000.0 -722561000000.0 -796341000000.0 -911085000000.0 -1.25994e+12 -1.25527e+12 -1.20965e+12 -1.32239e+12 -1.33697e+12 -1.24364e+12 -1.16457e+12 -1.07404e+12 -969608000000.0 -933416000000.0 -1.02553e+12 -1.78881e+12 -1.94478e+12 -2.34849e+12 -1.30831e+12 -1.11948e+12 -1.10609e+12 -1.1203e+12 -1.14303e+12 -1.16603e+12 -1.29875e+12 -1.24225e+12 -1.00287e+12 -954989000000.0 -1.03885e+12 -1.16271e+12 -1.25634e+12 -1.30489e+12 -1.01686e+12 -970061000000.0 -928028000000.0 -860489000000.0 -691428000000.0 -202613000000.0 -206391000000.0 -143482000000.0 -72448200000.0 -228752000000.0 -259927000000.0 -1.08593e+12 -1.19802e+12 -1.29811e+12 -1.38256e+12 -1.37104e+12 -1.01402e+12 -843888000000.0 -1.00944e+12 -1.12953e+12 -1.17896e+12 -1.20336e+12 -1.22154e+12 -1.23735e+12 -1.25103e+12 -1.2221e+12 -1.13414e+12 -1.0364e+12 -935471000000.0 -853343000000.0 -1.17467e+12 -1.42021e+12 -1.57582e+12 -1.69689e+12 -1.66924e+12 -588723000000.0 -794364000000.0 -1.18621e+12 -1.20206e+12 -1.21287e+12 -1.21823e+12 -1.21677e+12 -1.20259e+12 -1.14868e+12 -940130000000.0 -918663000000.0 -1.0897e+12 -977569000000.0 -1.15053e+12 -1.28058e+12 -1.27648e+12 -1.22118e+12 -1.14879e+12 -1.07901e+12 -351068000000.0 -171895000000.0 -56229500000.0 -34620700000.0 -71118500000.0 -191429000000.0 -436527000000.0 -560001000000.0 -682505000000.0 -813724000000.0 -948446000000.0 -1.08822e+12 -1.23742e+12 -1.39509e+12 -1.51511e+12 -1.14407e+12 -1.30738e+12 -1.4759e+12 -1.69435e+12 -1.86677e+12 -1.54359e+12 -1.35084e+12 -1.14235e+12 -1.10054e+12 -1.09146e+12 -1.09443e+12 -1.10469e+12 -1.11949e+12 -1.13664e+12 -1.14987e+12 -1.13844e+12 -970957000000.0 -1.45078e+12 -1.10208e+12 -1.12553e+12 -1.2226e+12 -1.38646e+12 -1.54805e+12 -1.70135e+12 -592053000000.0 -878037000000.0 -938789000000.0 -985276000000.0 -1.02155e+12 -1.05011e+12 -1.07369e+12 -1.09609e+12 -1.12378e+12 -1.17143e+12 -1.27882e+12 -1.59962e+12 -1.79125e+12 -1.84784e+12 -1.8929e+12 -1.44537e+12 -1.18453e+12 -966007000000.0 -863986000000.0 -1.33506e+12 -1.31845e+12 -1.23283e+12 -1.13575e+12 -1.04469e+12 -964288000000.0 -895822000000.0 -838845000000.0 -771417000000.0 -666322000000.0 -83375700000.0 -12557800000.0 -36990200000.0 -261520000000.0 -393744000000.0 -510542000000.0 -650601000000.0 -792267000000.0 -940663000000.0 -1.10639e+12 -1.30661e+12 -1.50131e+12 -722415000000.0 -959567000000.0 -1.13157e+12 -1.30049e+12 -1.43383e+12 -1.40414e+12 -1.24565e+12 -1.0997e+12 -1.01124e+12 -980398000000.0 -969566000000.0 -971758000000.0 -984168000000.0 -1.00529e+12 -1.03261e+12 -1.05136e+12 -998805000000.0 -864859000000.0 -1.04978e+12 -993941000000.0 -876972000000.0 -760192000000.0 -1.1054e+12 -1.07338e+12 -1.09774e+12 -1.18972e+12 -1.33211e+12 -1.47692e+12 -667166000000.0 -710457000000.0 -491964000000.0 -625262000000.0 -720387000000.0 -794300000000.0 -850537000000.0 -892624000000.0 -925804000000.0 -955192000000.0 -986351000000.0 -1.02784e+12 -1.09596e+12 -1.23347e+12 -1.4117e+12 -1.49415e+12 -1.51104e+12 -1.35236e+12 -1.11684e+12 -915106000000.0 -742473000000.0 -556323000000.0 -1.42114e+12 -1.28674e+12 -1.14276e+12 -1.02144e+12 -920422000000.0 -835867000000.0 -762562000000.0 -687384000000.0 -610338000000.0 -349123000000.0 -267936000000.0 -30752100000.0 -85479200000.0 -149879000000.0 -263529000000.0 -303983000000.0 -474381000000.0 -626390000000.0 -770950000000.0 -929641000000.0 -607718000000.0 -539735000000.0 -755133000000.0 -923752000000.0 -1.03938e+12 -844864000000.0 -867347000000.0 -907173000000.0 -980308000000.0 -1.0996e+12 -1.0935e+12 -957017000000.0 -1.2747e+12 -1.09428e+12 -854674000000.0 -680899000000.0 -1.07022e+12 -988828000000.0 -970377000000.0 -323770000000.0 -483978000000.0 -594572000000.0 -676145000000.0 -733663000000.0 -775605000000.0 -818387000000.0 -664238000000.0 -506299000000.0 -532588000000.0 -878831000000.0 -781269000000.0 -695524000000.0 -608767000000.0 -515394000000.0 -341248000000.0 -245395000000.0 -159037000000.0 -25648500000.0 -70044200000.0 -115985000000.0 -140601000000.0 -207285000000.0 -1.12002e+12 -1.35866e+12 -1.07656e+12 -1.04808e+12 -965065000000.0 -901708000000.0 -860437000000.0 -842673000000.0 -837265000000.0 -1.12153e+12 -723028000000.0 -789744000000.0 -644917000000.0 -1.01305e+12 -1.10443e+12 -1.2322e+12 -558275000000.0 -563747000000.0 -642256000000.0 -235483000000.0 -809534000000.0 -839940000000.0 -872176000000.0 -912508000000.0 -973753000000.0 -1.05442e+12 -1.11591e+12 -1.14405e+12 -1.09422e+12 -975804000000.0 -1.34445e+12 -1.15933e+12 -1.00136e+12 -332548000000.0 -192456000000.0 -147091000000.0 -89085900000.0 -24916500000.0 -27162300000.0 -67955200000.0 -296455000000.0 -458340000000.0 -602764000000.0 -736635000000.0 -886977000000.0 -1.05269e+12 -486035000000.0 -457505000000.0 -370246000000.0 -587930000000.0 -716637000000.0 -757550000000.0 -769507000000.0 -763681000000.0 -749374000000.0 -727035000000.0 -708963000000.0 -703616000000.0 -699505000000.0 -713335000000.0 -746616000000.0 -807887000000.0 -933065000000.0 -148702000000.0 -973980000000.0 -865415000000.0 -815988000000.0 -830111000000.0 -881103000000.0 -960887000000.0 -462965000000.0 -467257000000.0 -416417000000.0 -580964000000.0 -383603000000.0 -504297000000.0 -578538000000.0 -628205000000.0 -666695000000.0 -696728000000.0 -722998000000.0 -746299000000.0 -768850000000.0 -780646000000.0 -790591000000.0 -773014000000.0 -810291000000.0 -770266000000.0 -677118000000.0 -563073000000.0 -436265000000.0 -400519000000.0 -464399000000.0 -1.13358e+12 -965119000000.0 -826394000000.0 -723911000000.0 -632430000000.0 -542952000000.0 -449828000000.0 -71648700000.0 -28081800000.0 -71812600000.0 -115148000000.0 -203124000000.0 -299843000000.0 -429376000000.0 -581878000000.0 -669595000000.0 -792778000000.0 -282759000000.0 -328655000000.0 -239198000000.0 -289749000000.0 -453990000000.0 -505607000000.0 -458952000000.0 -493683000000.0 -561569000000.0 -573506000000.0 -567449000000.0 -567076000000.0 -566777000000.0 -550212000000.0 -565266000000.0 -616622000000.0 -702783000000.0 -935705000000.0 -1.01489e+12 -1.04258e+12 -872896000000.0 -652498000000.0 -845572000000.0 -889749000000.0 -690819000000.0 -633721000000.0 -619120000000.0 -654377000000.0 -716322000000.0 -369217000000.0 -425978000000.0 -452551000000.0 -452131000000.0 -581942000000.0 -278347000000.0 -362972000000.0 -444123000000.0 -489783000000.0 -531519000000.0 -560891000000.0 -585848000000.0 -600435000000.0 -605882000000.0 -588956000000.0 -509605000000.0 -508769000000.0 -522757000000.0 -554979000000.0 -507294000000.0 -414303000000.0 -366917000000.0 -282599000000.0 -363706000000.0 -337672000000.0 -871424000000.0 -746390000000.0 -658205000000.0 -562880000000.0 -471635000000.0 -389408000000.0 -311942000000.0 -152056000000.0 -97062300000.0 -32849000000.0 -88154100000.0 -126662000000.0 -222543000000.0 -349291000000.0 -422450000000.0 -410716000000.0 -475124000000.0 -583273000000.0 -556085000000.0 -146909000000.0 -194742000000.0 -225876000000.0 -160908000000.0 -280769000000.0 -338446000000.0 -342542000000.0 -333814000000.0 -433609000000.0 -436449000000.0 -348010000000.0 -398380000000.0 -450936000000.0 -507153000000.0 -867016000000.0 -47220900000.0 -87454200000.0 -342810000000.0 -321311000000.0 -340441000000.0 -406237000000.0 -352689000000.0 -505733000000.0 -281984000000.0 -336274000000.0 -374338000000.0 -413126000000.0 -468328000000.0 -569033000000.0 -320848000000.0 -365224000000.0 -369112000000.0 -406171000000.0 -431871000000.0 -462517000000.0 -249808000000.0 -228309000000.0 -231562000000.0 -257134000000.0 -246393000000.0 -200564000000.0 -585251000000.0 -588032000000.0 -495072000000.0 -389708000000.0 -312068000000.0 -254554000000.0 -168392000000.0 -110724000000.0 -93011300000.0 -76108300000.0 -30186200000.0 -41508600000.0 -88909500000.0 -154812000000.0 -412261000000.0 -432274000000.0 -410209000000.0 -434577000000.0 -950911000000.0 -600078000000.0 -471767000000.0 -474625000000.0 -462262000000.0 -416690000000.0 -372766000000.0 -395553000000.0 -401870000000.0 -374459000000.0 -73938500000.0 -9035750000.0 -9035750000.0 -9035750000.0 -226376000000.0 -248007000000.0 -266547000000.0 -329808000000.0 -453372000000.0 -587088000000.0 -32187500000.0 -67518900000.0 -113208000000.0 -166394000000.0 -231730000000.0 -221607000000.0 -215538000000.0 -193633000000.0 -284568000000.0 -318717000000.0 -308900000000.0 -324748000000.0 -340519000000.0 -340812000000.0 -368754000000.0 -199907000000.0 -222160000000.0 -276269000000.0 -276209000000.0 -801258000000.0 -568484000000.0 -508488000000.0 -608107000000.0 -527268000000.0 -423954000000.0 -409058000000.0 -304585000000.0 -267582000000.0 -166949000000.0 -246089000000.0 -288840000000.0 -330996000000.0 -374129000000.0 -434004000000.0 -542181000000.0 -350908000000.0 -371450000000.0 -362377000000.0 -296253000000.0 -356301000000.0 -357539000000.0 -354183000000.0 -348350000000.0 -331542000000.0 -299872000000.0 -266174000000.0 -265902000000.0 -288058000000.0 -169322000000.0 -100200000000.0 -60118200000.0 -58695100000.0 -53911900000.0 -47294000000.0 -33880200000.0 -526408000000.0 -454530000000.0 -288911000000.0 -197898000000.0 -160319000000.0 -153496000000.0 -31098000000.0 -75452300000.0 -130395000000.0 -228972000000.0 -279201000000.0 -306969000000.0 -343884000000.0 -418028000000.0 -481192000000.0 -40225500000.0 -98572600000.0 -154476000000.0 -204235000000.0 -268601000000.0 -298611000000.0 -295811000000.0 -239696000000.0 -156308000000.0 -190816000000.0 -218256000000.0 -238734000000.0 -249534000000.0 -268533000000.0 -252630000000.0 -283532000000.0 -108963000000.0 -134727000000.0 -66762700000.0 -202195000000.0 -22903700000.0 -65750600000.0 -274350000000.0 -16698000000.0 -314054000000.0 -62849600000.0 -233708000000.0 -43304300000.0 -195382000000.0 -180673000000.0 -266751000000.0 -249846000000.0 -327705000000.0 -293635000000.0 -478172000000.0 -409370000000.0 -409495000000.0 -337117000000.0 -331216000000.0 -260790000000.0 -242741000000.0 -216384000000.0 -230403000000.0 -210014000000.0 -176170000000.0 -143493000000.0 -140718000000.0 -139652000000.0 -197607000000.0 -178874000000.0 -134960000000.0 -107401000000.0 -79691700000.0 -51679300000.0 -23268600000.0 -465511000000.0 -549210000000.0 -494205000000.0 -438387000000.0 -392234000000.0 -368157000000.0 -247895000000.0 -166310000000.0 -101377000000.0 -39692400000.0 -291725000000.0 -628098000000.0 -425799000000.0 -9035750000.0 -9035750000.0 -9151890000.0 -69697400000.0 -94619000000.0 -105985000000.0 -131372000000.0 -236104000000.0 -441639000000.0 -123282000000.0 -91746100000.0 -63822900000.0 -36661300000.0 -43836800000.0 -67762600000.0 -101971000000.0 -123981000000.0 -120658000000.0 -158006000000.0 -220893000000.0 -270091000000.0 -309622000000.0 -356742000000.0 -369534000000.0 -412878000000.0 -320562000000.0 -329094000000.0 -272364000000.0 -374550000000.0 -465430000000.0 -352275000000.0 -291911000000.0 -434524000000.0 -201058000000.0 -333783000000.0 -154275000000.0 -232260000000.0 -186997000000.0 -227750000000.0 -179218000000.0 -218371000000.0 -157080000000.0 -236535000000.0 -106305000000.0 -191009000000.0 -197635000000.0 -249058000000.0 -242009000000.0 -255240000000.0 -233669000000.0 -224106000000.0 -166805000000.0 -109861000000.0 -76198400000.0 -75718300000.0 -59082100000.0 -59818400000.0 -31875100000.0 -53104600000.0 -86271800000.0 -120307000000.0 -155775000000.0 -194955000000.0 -455393000000.0 -278388000000.0 -125344000000.0 -78417000000.0 -61053100000.0 -73337100000.0 -9400680000.0 -9035800000.0 -9035750000.0 -9035750000.0 -11943600000.0 -17909900000.0 -24477400000.0 -81413100000.0 -110512000000.0 -123553000000.0 -144874000000.0 -212772000000.0 -323045000000.0 -11648600000.0 -14164700000.0 -15489900000.0 -14092700000.0 -40628800000.0 -68311200000.0 -92490700000.0 -106392000000.0 -94410200000.0 -92757400000.0 -132913000000.0 -146942000000.0 -150426000000.0 -163274000000.0 -147143000000.0 -154797000000.0 -95515600000.0 -98106200000.0 -69144200000.0 -70165300000.0 -236494000000.0 -299793000000.0 -200905000000.0 -161482000000.0 -146336000000.0 -240549000000.0 -106520000000.0 -217288000000.0 -93246500000.0 -116850000000.0 -79360900000.0 -116792000000.0 -78035400000.0 -120880000000.0 -67589700000.0 -151553000000.0 -36059900000.0 -55593100000.0 -43629900000.0 -76195000000.0 -73532500000.0 -107622000000.0 -129273000000.0 -178977000000.0 -190681000000.0 -178093000000.0 -161959000000.0 -163784000000.0 -149964000000.0 -142392000000.0 -93873600000.0 -74195100000.0 -58840600000.0 -44847100000.0 -30057400000.0 -19021200000.0 -298168000000.0 -254129000000.0 -165985000000.0 -114419000000.0 -88420700000.0 -90209400000.0 -35933300000.0 -26814400000.0 -19364600000.0 -12425600000.0 -9036050000.0 -9035770000.0 -9194120000.0 -51881900000.0 -76700400000.0 -84956400000.0 -99812800000.0 -161369000000.0 -273636000000.0 -26207200000.0 -28681300000.0 -29169400000.0 -26682000000.0 -51711200000.0 -79957800000.0 -106554000000.0 -130336000000.0 -125963000000.0 -123751000000.0 -154306000000.0 -169995000000.0 -173389000000.0 -186765000000.0 -172750000000.0 -177760000000.0 -146870000000.0 -148547000000.0 -118536000000.0 -109883000000.0 -229380000000.0 -160824000000.0 -64156200000.0 -18396300000.0 -58660500000.0 -112903000000.0 -17206600000.0 -116898000000.0 -15636900000.0 -44223500000.0 -28825500000.0 -75728200000.0 -49174400000.0 -95081400000.0 -49566400000.0 -122465000000.0 -16631700000.0 -50018800000.0 -54599400000.0 -92939000000.0 -91046400000.0 -114444000000.0 -112682000000.0 -128805000000.0 -109656000000.0 -79481000000.0 -59350000000.0 -60214900000.0 -52163600000.0 -48422700000.0 -14921300000.0 -13179800000.0 -14061800000.0 -17404000000.0 -17818200000.0 -27990900000.0 -258493000000.0 -189622000000.0 -96750000000.0 -50533200000.0 -36426500000.0 -42322500000.0 -10408100000.0 -9079810000.0 -9035770000.0 -9042020000.0 -9036470000.0 -9035810000.0 -9460630000.0 -45058200000.0 -68565000000.0 -74940500000.0 -85425400000.0 -135481000000.0 -226636000000.0 -19505500000.0 -19244300000.0 -16833400000.0 -10862000000.0 -29838200000.0 -53405900000.0 -75400200000.0 -98050300000.0 -91216400000.0 -84157500000.0 -96366100000.0 -106810000000.0 -104553000000.0 -112921000000.0 -97407300000.0 -97757900000.0 -81720100000.0 -78157000000.0 -51155800000.0 -11557100000.0 -169065000000.0 -161300000000.0 -119019000000.0 -62962800000.0 -86559700000.0 -122083000000.0 -50580900000.0 -133594000000.0 -41681400000.0 -55198400000.0 -37737300000.0 -78334600000.0 -50729600000.0 -92832700000.0 -48260000000.0 -112351000000.0 -11134100000.0 -34437800000.0 -35624800000.0 -70070100000.0 -67358200000.0 -93484100000.0 -96883000000.0 -118646000000.0 -108973000000.0 -85399400000.0 -66684300000.0 -65086200000.0 -57624400000.0 -50841700000.0 -19337300000.0 -15801000000.0 -13818500000.0 -15310600000.0 -11508600000.0 -22758300000.0 -220392000000.0 -167160000000.0 -83301100000.0 -40393200000.0 -30163700000.0 -32716700000.0 -11035700000.0 -9156200000.0 -9035800000.0 -9042180000.0 -9036690000.0 -9035840000.0 -9672550000.0 -38931100000.0 -60548300000.0 -65536300000.0 -72738300000.0 -114164000000.0 -189786000000.0 -23138700000.0 -22101800000.0 -19317400000.0 -13964200000.0 -30240500000.0 -52899200000.0 -74145600000.0 -97785100000.0 -92786300000.0 -87925000000.0 -91367800000.0 -100864000000.0 -97885300000.0 -105348000000.0 -92063900000.0 -92745900000.0 -87322000000.0 -83565000000.0 -63269000000.0 -30119400000.0 -148178000000.0 -101810000000.0 -65296600000.0 -9380720000.0 -41763300000.0 -63169400000.0 -18274100000.0 -92771300000.0 -15535400000.0 -29011200000.0 -19524900000.0 -61131000000.0 -39528400000.0 -81929700000.0 -41899400000.0 -100490000000.0 -9344080000.0 -30766700000.0 -33380800000.0 -66887000000.0 -64148000000.0 -90125900000.0 -92059200000.0 -110134000000.0 -100073000000.0 -77958900000.0 -59929500000.0 -56949300000.0 -51212800000.0 -43473300000.0 -16409900000.0 -14168100000.0 -12645200000.0 -15464300000.0 -11285200000.0 -26770000000.0 -189678000000.0 -145438000000.0 -69827400000.0 -31759800000.0 -25288500000.0 -25823600000.0 -11440900000.0 -9223580000.0 -9035830000.0 -9041660000.0 -9036750000.0 -9035870000.0 -9812860000.0 -33465900000.0 -52974600000.0 -56929000000.0 -61495500000.0 -95236500000.0 -157070000000.0 -25146200000.0 -21891800000.0 -17441400000.0 -11698800000.0 -23726000000.0 -43606200000.0 -62338500000.0 -84410500000.0 -79854400000.0 -75698300000.0 -72272400000.0 -78853000000.0 -73911300000.0 -78899300000.0 -66441500000.0 -65621400000.0 -64380600000.0 -60318600000.0 -45438600000.0 -9231700000.0 -130554000000.0 -103969000000.0 -72595300000.0 -16134500000.0 -39530100000.0 -50294500000.0 -16166300000.0 -82345600000.0 -14370700000.0 -25746600000.0 -17530000000.0 -55607800000.0 -36483400000.0 -76154900000.0 -39590800000.0 -91033600000.0 -9352680000.0 -27458100000.0 -30386600000.0 -61624000000.0 -58604800000.0 -84036000000.0 -85736600000.0 -102132000000.0 -93716400000.0 -74304200000.0 -57493700000.0 -53393300000.0 -48920600000.0 -40399900000.0 -17191600000.0 -15210500000.0 -13466300000.0 -16719900000.0 -11778000000.0 -29818000000.0 -160486000000.0 -124076000000.0 -57728200000.0 -25413900000.0 -21758500000.0 -21138800000.0 -11625700000.0 -9277550000.0 -9035850000.0 -9040840000.0 -9036720000.0 -9035880000.0 -9886210000.0 -28729900000.0 -46004900000.0 -49142800000.0 -51588500000.0 -78616500000.0 -128521000000.0 -26428600000.0 -21752200000.0 -16741300000.0 -11725100000.0 -20795400000.0 -38723700000.0 -55716300000.0 -76086300000.0 -72493200000.0 -69590600000.0 -63675800000.0 -67949500000.0 -62445800000.0 -66115000000.0 -55575200000.0 -54854200000.0 -55438900000.0 -52907100000.0 -42522600000.0 -11888100000.0 -114070000000.0 -81667400000.0 -57806600000.0 -9035760000.0 -33247300000.0 -39771700000.0 -15242800000.0 -72962100000.0 -13341500000.0 -23246200000.0 -15950600000.0 -49851200000.0 -33119100000.0 -69335300000.0 -36565000000.0 -80880000000.0 -9351110000.0 -24278900000.0 -27351200000.0 -56003200000.0 -53127500000.0 -77225500000.0 -78507200000.0 -92759400000.0 -85524600000.0 -68750500000.0 -53421800000.0 -48777000000.0 -45528100000.0 -36985300000.0 -17763900000.0 -15837200000.0 -13975700000.0 -17459700000.0 -12090600000.0 -31518000000.0 -133542000000.0 -103823000000.0 -47277100000.0 -20773300000.0 -19242800000.0 -18244100000.0 -11575800000.0 -9313530000.0 -9035860000.0 -9039950000.0 -9036660000.0 -9035890000.0 -9898810000.0 -24701700000.0 -39663900000.0 -42147300000.0 -43018400000.0 -64271700000.0 -103940000000.0 -26603100000.0 -20851800000.0 -15729500000.0 -11509700000.0 -18146600000.0 -33997600000.0 -49112500000.0 -67256500000.0 -64505300000.0 -62513500000.0 -56458900000.0 -58482000000.0 -52851200000.0 -55438200000.0 -46788700000.0 -46211200000.0 -47158000000.0 -45780500000.0 -39060700000.0 -9035820000.0 -72359200000.0 -51707000000.0 -9035770000.0 -29489300000.0 -31417200000.0 -14323700000.0 -63538600000.0 -12462200000.0 -21217000000.0 -14668800000.0 -44026100000.0 -29619500000.0 -61785400000.0 -33063600000.0 -70464100000.0 -9339520000.0 -21362300000.0 -24304800000.0 -49875500000.0 -47341600000.0 -69388400000.0 -70282300000.0 -82445100000.0 -76347200000.0 -62163700000.0 -48519700000.0 -43778700000.0 -41512800000.0 -33411000000.0 -17959300000.0 -16033700000.0 -14159300000.0 -17662800000.0 -12205300000.0 -31827800000.0 -109326000000.0 -85320600000.0 -38547500000.0 -17473500000.0 -17552800000.0 -16500700000.0 -11334800000.0 -9328510000.0 -9035870000.0 -9039130000.0 -98113600000.0 -9036560000.0 -9035890000.0 -9857560000.0 -21293700000.0 -33909500000.0 -35858200000.0 -35659300000.0 -52012900000.0 -82970200000.0 -25725200000.0 -19445300000.0 -14591200000.0 -11137000000.0 -15859200000.0 -29488400000.0 -42571600000.0 -58175000000.0 -56145800000.0 -54806200000.0 -49629000000.0 -49951500000.0 -44630200000.0 -46373300000.0 -39431100000.0 -39093800000.0 -39670000000.0 -39085100000.0 -35113800000.0 -9035930000.0 -84523500000.0 -62692800000.0 -45113000000.0 -9035780000.0 -26037100000.0 -24903000000.0 -13418100000.0 -54331400000.0 -11710600000.0 -19431800000.0 -13612000000.0 -38257000000.0 -26127800000.0 -53808000000.0 -29306200000.0 -60109800000.0 -9318730000.0 -18753400000.0 -21379300000.0 -43507000000.0 -41414300000.0 -60828100000.0 -61397000000.0 -71511200000.0 -66454200000.0 -54756200000.0 -42968600000.0 -38499500000.0 -36995300000.0 -29722600000.0 -17657600000.0 -15801100000.0 -14019000000.0 -17337300000.0 -12121600000.0 -30787500000.0 -87977000000.0 -68909700000.0 -31392400000.0 -15190900000.0 -16335800000.0 -15255300000.0 -10985600000.0 -9322590000.0 -9035870000.0 -9038400000.0 -9036450000.0 -9035880000.0 -9770020000.0 -18399700000.0 -28663700000.0 -30165200000.0 -65138000000.0 -23925300000.0 -17737400000.0 -13441800000.0 -10699000000.0 -13958800000.0 -25234200000.0 -36141000000.0 -49017100000.0 -42023300000.0 -37350600000.0 -38436800000.0 -33061300000.0 -33001000000.0 -32945900000.0 -32857300000.0 -30784700000.0 -9036010000.0 -52863900000.0 -38369700000.0 -9035790000.0 -22761700000.0 -19927100000.0 -12549000000.0 -45454400000.0 -17719600000.0 -12698900000.0 -32605200000.0 -22728600000.0 -45623900000.0 -25469200000.0 -50028500000.0 -9287360000.0 -16459100000.0 -18662000000.0 -37073900000.0 -35433800000.0 -51781900000.0 -52102000000.0 -60227700000.0 -56144300000.0 -46808800000.0 -37016600000.0 -33090900000.0 -32141800000.0 -25965900000.0 -16847400000.0 -15163900000.0 -13573600000.0 -16524500000.0 -11849400000.0 -28517100000.0 -69361100000.0 -54618900000.0 -15228200000.0 -14127700000.0 -10598700000.0 -9297690000.0 -9035860000.0 -9037770000.0 -29349300000.0 -41588200000.0 -47585000000.0 -46721100000.0 -42656400000.0 -70991400000.0 -11064700000.0 -25595200000.0 -13602800000.0 -9036310000.0 -9035860000.0 -9644250000.0 -15911200000.0 -23834500000.0 -24949700000.0 -23904100000.0 -32696600000.0 -49900300000.0 -21362200000.0 -15866700000.0 -12342500000.0 -10262300000.0 -12426700000.0 -21248400000.0 -29851000000.0 -39894100000.0 -38934600000.0 -38412200000.0 -35410700000.0 -34470300000.0 -30665100000.0 -31265500000.0 -27325800000.0 -27456200000.0 -26882800000.0 -27055100000.0 -26166300000.0 -9036030000.0 -57292200000.0 -43000200000.0 -31642300000.0 -9035790000.0 -19610300000.0 -16212700000.0 -11721200000.0 -36902400000.0 -10508300000.0 -15962600000.0 -11860700000.0 -27101300000.0 -19461100000.0 -37372500000.0 -21660200000.0 -40313000000.0 -9244860000.0 -14460400000.0 -16185600000.0 -30670900000.0 -29452100000.0 -42422000000.0 -42571400000.0 -48778300000.0 -45627300000.0 -38532600000.0 -30842300000.0 -27649800000.0 -27081200000.0 -22170700000.0 -15583500000.0 -14172400000.0 -12856400000.0 -15291400000.0 -11408000000.0 -25205600000.0 -53162200000.0 -42249700000.0 -20886600000.0 -12401100000.0 -14030900000.0 -12994200000.0 -10214900000.0 -9256470000.0 -9035840000.0 -9037230000.0 -9036160000.0 -9035840000.0 -9488730000.0 -13723400000.0 -18204600000.0 -13917300000.0 -9861480000.0 -22110900000.0 -21595000000.0 -9036010000.0 -33146800000.0 -9035780000.0 -13472200000.0 -28625800000.0 -14093000000.0 -21746700000.0 -16329100000.0 -29129100000.0 -17925300000.0 -30961000000.0 -9192250000.0 -12710600000.0 -13935400000.0 -24336300000.0 -23500000000.0 -32867300000.0 -38945900000.0 -31471500000.0 -11846100000.0 -9850910000.0 -9202080000.0 -9035820000.0 -9036760000.0 -19327400000.0 -20096200000.0 -19131900000.0 -25007400000.0 -36677800000.0 -11315600000.0 -11209600000.0 -17512200000.0 -23704400000.0 -30860800000.0 -30263000000.0 -29973200000.0 -27929600000.0 -27093100000.0 -24299900000.0 -24586500000.0 -21921800000.0 -21345700000.0 -21338500000.0 -43409600000.0 -24997700000.0 -16528400000.0 -10924900000.0 -10027300000.0 -11049000000.0 -32916900000.0 -37273000000.0 -35035200000.0 -30074800000.0 -24562500000.0 -22225800000.0 -21906400000.0 -18362100000.0 -13951500000.0 -12893200000.0 -11914500000.0 -13721000000.0 -10825500000.0 -21081900000.0 -16966500000.0 -11371400000.0 -12696600000.0 -9036000000.0 -9035800000.0 -9312090000.0 -11738900000.0 -15047900000.0 -15494900000.0 -14837300000.0 -18175300000.0 -24879800000.0 -14626200000.0 -11935200000.0 -10356800000.0 -9504260000.0 -10230400000.0 -13976600000.0 -17677700000.0 -21924200000.0 -21603200000.0 -21463700000.0 -20288300000.0 -19749800000.0 -18062300000.0 -18177300000.0 -16648400000.0 -16794700000.0 -16186000000.0 -16382000000.0 -16373300000.0 -9035940000.0 -29433500000.0 -23312300000.0 -18449200000.0 -9035770000.0 -13471900000.0 -11411500000.0 -10148300000.0 -20559400000.0 -9602450000.0 -12094200000.0 -10235200000.0 -16515900000.0 -13310300000.0 -20921500000.0 -14268000000.0 -21906300000.0 -9131690000.0 -11143400000.0 -11865400000.0 -18071300000.0 -17586900000.0 -23196500000.0 -23202800000.0 -25762900000.0 -24434800000.0 -21527200000.0 -18242700000.0 -16834100000.0 -16676400000.0 -14556600000.0 -12051200000.0 -11402800000.0 -10805900000.0 -11905600000.0 -10137400000.0 -16386900000.0 -26193200000.0 -21872500000.0 -13555800000.0 -10405900000.0 -11248900000.0 -10697300000.0 -9508850000.0 -9138020000.0 -9035800000.0 -9036330000.0 -9035810000.0 -13491900000.0 -9035760000.0 -9746110000.0 -12622100000.0 -13040200000.0 -9685030000.0 -9035830000.0 -9035770000.0 -9122990000.0 -9870180000.0 -10902100000.0 -11040500000.0 -10824600000.0 -11849700000.0 -13917900000.0 -10800500000.0 -9941830000.0 -9444600000.0 -9179560000.0 -9397300000.0 -10568500000.0 -11727900000.0 -13054900000.0 -12958600000.0 -12919000000.0 -12556100000.0 -12383300000.0 -11852100000.0 -11880500000.0 -11410400000.0 -11460000000.0 -11250000000.0 -11317100000.0 -11332100000.0 -15407800000.0 -11969500000.0 -10419900000.0 -9382350000.0 -9210140000.0 -9998040000.0 -9410940000.0 -11364400000.0 -10364400000.0 -12744400000.0 -10664800000.0 -9066090000.0 -9910260000.0 -11853000000.0 -11703100000.0 -13461900000.0 -13461200000.0 -14258300000.0 -13843500000.0 -12939200000.0 -11911500000.0 -11468300000.0 -11423000000.0 -10758600000.0 -9989320000.0 -9784440000.0 -9596040000.0 -9942970000.0 -9384530000.0 -11356600000.0 -14324300000.0 -12988300000.0 -10423300000.0 -9462300000.0 -9732070000.0 -9554170000.0 -9182210000.0 -9068120000.0 -9035770000.0 -9035930000.0 
SCALARS Shear_Stress float 1
LOOKUP_TABLE default
60297400000.0 805147000.0 40532400000.0 26436000000.0 10024400000.0 43587000000.0 2822120000.0 54627700000.0 55291800000.0 4929150000.0 48537500000.0 18118200000.0 67726100000.0 23504800000.0 12142400000.0 12359500000.0 55005300000.0 85154000000.0 11531800000.0 9394590000.0 29463600000.0 47939800000.0 49715800000.0 92129000000.0 41941100000.0 60703500000.0 13793900000.0 68660400000.0 28737100000.0 26706500000.0 4269050000.0 107441000000.0 139373000000.0 80526000000.0 82878800000.0 45896600000.0 118141000000.0 41605400000.0 289679000.0 87935500000.0 1649900000.0 29090500000.0 157566000000.0 110373000000.0 5138740000.0 6824000000.0 1202970000.0 2776350000.0 19818200000.0 76815500000.0 137547000000.0 144526000000.0 168483000000.0 189312000000.0 84463400000.0 185737000000.0 113690000000.0 122328000000.0 20057000000.0 14940200000.0 81146600000.0 6626210000.0 89884000000.0 47473400000.0 128958000000.0 99703700000.0 42147000000.0 9309360000.0 11382800000.0 14819900000.0 117974000000.0 191208000000.0 165571000000.0 106521000000.0 180411000000.0 249353000000.0 174798000000.0 67069400000.0 162193000000.0 151578000000.0 74522500000.0 210734000000.0 19070300000.0 187075000000.0 9378380000.0 31295400000.0 2599230000.0 31457200000.0 114022000000.0 142487000000.0 185657000000.0 242913000000.0 84856100000.0 212676000000.0 234391000000.0 213632000000.0 74300900000.0 104873000000.0 4843160000.0 33941100000.0 19680400000.0 12354300000.0 9312940000.0 22277900000.0 39594700000.0 156029000000.0 207028000000.0 39030000000.0 71799300000.0 40252100000.0 50817700000.0 145768000000.0 147785000000.0 282271000000.0 368876000000.0 307729000000.0 360016000000.0 290461000000.0 335930000000.0 248641000000.0 305435000000.0 142961000000.0 375455000000.0 131857000000.0 1472900000.0 1992660000.0 31217400000.0 195044000000.0 210628000000.0 55449700000.0 142415000000.0 372200000000.0 239377000000.0 392832000000.0 326672000000.0 419610000000.0 419903000000.0 394377000000.0 365183000000.0 334231000000.0 405240000000.0 87898700000.0 9558640000.0 20266000000.0 51029700000.0 35055000000.0 252775000000.0 607144000000.0 448717000000.0 449860000000.0 463389000000.0 446220000000.0 411089000000.0 358662000000.0 231325000000.0 425172000000.0 292226000000.0 67293300000.0 34126100000.0 5902950000.0 34239900000.0 44987000000.0 68760500000.0 238005000000.0 234803000000.0 56486300000.0 160046000000.0 588202000000.0 400538000000.0 457494000000.0 485415000000.0 504846000000.0 486178000000.0 491277000000.0 453766000000.0 433336000000.0 392213000000.0 315620000000.0 261405000000.0 163521000000.0 214572000000.0 177783000000.0 133179000000.0 10398200000.0 65274300000.0 286444000000.0 305999000000.0 152201000000.0 397006000000.0 280149000000.0 211214000000.0 229319000000.0 392851000000.0 410978000000.0 473673000000.0 491864000000.0 513029000000.0 474347000000.0 370165000000.0 209146000000.0 111781000000.0 142344000000.0 35964800000.0 55043400000.0 94445400000.0 19467000000.0 159205000000.0 164930000000.0 289451000000.0 435283000000.0 506667000000.0 505334000000.0 425327000000.0 273130000000.0 117328000000.0 82917200000.0 42865100000.0 55743000000.0 23676300000.0 35763400000.0 92661300000.0 95089400000.0 129550000000.0 341063000000.0 431279000000.0 192349000000.0 47906200000.0 198457000000.0 193466000000.0 335683000000.0 461446000000.0 513841000000.0 504488000000.0 473666000000.0 410596000000.0 340600000000.0 234702000000.0 168674000000.0 83812600000.0 61936400000.0 20035900000.0 24455900000.0 92769700000.0 138129000000.0 401653000000.0 576412000000.0 286837000000.0 51240400000.0 243058000000.0 185137000000.0 178983000000.0 233718000000.0 271408000000.0 375799000000.0 417919000000.0 486875000000.0 505758000000.0 469773000000.0 310616000000.0 132512000000.0 23370700000.0 30337700000.0 96291700000.0 149661000000.0 174823000000.0 341277000000.0 332652000000.0 197872000000.0 183899000000.0 315894000000.0 463841000000.0 505372000000.0 400862000000.0 194848000000.0 51580300000.0 8800900000.0 28477100000.0 88324700000.0 97423000000.0 172573000000.0 163889000000.0 219070000000.0 194440000000.0 229557000000.0 466879000000.0 676658000000.0 394409000000.0 467888000000.0 583938000000.0 391790000000.0 149995000000.0 205275000000.0 375760000000.0 505975000000.0 476058000000.0 406124000000.0 277719000000.0 145147000000.0 93651700000.0 22188600000.0 64384800000.0 164901000000.0 244179000000.0 261368000000.0 535359000000.0 700217000000.0 559557000000.0 669370000000.0 211010000000.0 101494000000.0 119845000000.0 131913000000.0 255286000000.0 339765000000.0 451127000000.0 528461000000.0 521270000000.0 503355000000.0 231007000000.0 52009300000.0 27477000000.0 134470000000.0 254937000000.0 298933000000.0 338851000000.0 291672000000.0 606333000000.0 657943000000.0 347287000000.0 613115000000.0 845086000000.0 221573000000.0 43744900000.0 197510000000.0 453598000000.0 558599000000.0 444341000000.0 74876900000.0 8152050000.0 11652000000.0 79951900000.0 165451000000.0 232288000000.0 353316000000.0 338273000000.0 395810000000.0 361275000000.0 266058000000.0 1.09854e+12 847371000000.0 125395000000.0 31168500000.0 70466100000.0 307012000000.0 582579000000.0 559975000000.0 563471000000.0 140784000000.0 29163500000.0 15940300000.0 37453600000.0 53307600000.0 301692000000.0 460003000000.0 435860000000.0 680129000000.0 629500000000.0 636177000000.0 709254000000.0 8480270000.0 5486280000.0 76467600000.0 149587000000.0 238131000000.0 457618000000.0 683280000000.0 608348000000.0 644579000000.0 81654900000.0 30173000000.0 55980500000.0 146053000000.0 278591000000.0 486422000000.0 706765000000.0 531684000000.0 572096000000.0 450234000000.0 744025000000.0 701090000000.0 361578000000.0 1.06887e+12 1.28242e+12 93045800000.0 80223600000.0 164419000000.0 306418000000.0 731200000000.0 800549000000.0 94494500000.0 142164000000.0 131166000000.0 152146000000.0 19427900000.0 71498600000.0 398245000000.0 880194000000.0 517796000000.0 1.04094e+12 1.15153e+12 1.22362e+12 587465000000.0 342212000000.0 158414000000.0 287157000000.0 188255000000.0 276889000000.0 229332000000.0 360213000000.0 558662000000.0 381035000000.0 48566100000.0 252051000000.0 93270700000.0 153559000000.0 433627000000.0 317168000000.0 864005000000.0 645313000000.0 763949000000.0 931449000000.0 810356000000.0 742725000000.0 615336000000.0 461820000000.0 393714000000.0 342343000000.0 267671000000.0 381063000000.0 305781000000.0 859095000000.0 587418000000.0 316716000000.0 188153000000.0 104648000000.0 8985590000.0 12721700000.0 142625000000.0 10594800000.0 84811300000.0 726420000000.0 640112000000.0 480881000000.0 559507000000.0 18778800000.0 676552000000.0 565682000000.0 472326000000.0 437408000000.0 611127000000.0 360612000000.0 524503000000.0 50918400000.0 301452000000.0 240004000000.0 51985500000.0 42117500000.0 79037300000.0 140743000000.0 336357000000.0 235010000000.0 73867600000.0 175762000000.0 1.15318e+12 35332000000.0 728946000000.0 903474000000.0 766921000000.0 825241000000.0 638332000000.0 696549000000.0 552499000000.0 621930000000.0 786834000000.0 908730000000.0 334079000000.0 124085000000.0 41795600000.0 78087600000.0 207029000000.0 250874000000.0 464497000000.0 390003000000.0 149300000000.0 241385000000.0 417877000000.0 948483000000.0 731294000000.0 728458000000.0 501475000000.0 940036000000.0 985465000000.0 857832000000.0 768873000000.0 672107000000.0 808547000000.0 799115000000.0 557312000000.0 514602000000.0 508499000000.0 281736000000.0 921676000000.0 299285000000.0 165935000000.0 73440200000.0 73553900000.0 483317000000.0 665781000000.0 1.01694e+12 1.00879e+12 103080000000.0 123898000000.0 363311000000.0 831742000000.0 791488000000.0 930878000000.0 1.0838e+12 1.01049e+12 888182000000.0 856009000000.0 850557000000.0 742809000000.0 134135000000.0 651588000000.0 212911000000.0 77023900000.0 395848000000.0 738774000000.0 790936000000.0 1.22225e+12 1.24356e+12 765154000000.0 408624000000.0 10124900000.0 143514000000.0 21793100000.0 443265000000.0 363984000000.0 224084000000.0 405380000000.0 414272000000.0 925382000000.0 1.08797e+12 1.12989e+12 1.17742e+12 1.12775e+12 1.1226e+12 1.01174e+12 1.01735e+12 933384000000.0 916520000000.0 773423000000.0 516238000000.0 267360000000.0 220326000000.0 505610000000.0 68013300000.0 172666000000.0 356789000000.0 359386000000.0 610249000000.0 1.1436e+12 984786000000.0 405418000000.0 379411000000.0 542049000000.0 707661000000.0 133324000000.0 166234000000.0 36446200000.0 730094000000.0 266438000000.0 50306300000.0 328855000000.0 694798000000.0 965712000000.0 1.1447e+12 1.18544e+12 1.09937e+12 1.03814e+12 972259000000.0 997191000000.0 917636000000.0 680724000000.0 1.0237e+12 930517000000.0 68008100000.0 107403000000.0 641531000000.0 211592000000.0 802538000000.0 974473000000.0 1.01047e+12 571558000000.0 142235000000.0 306731000000.0 660973000000.0 724555000000.0 509038000000.0 619277000000.0 707069000000.0 1.02059e+12 463523000000.0 60750000000.0 83264400000.0 91650000000.0 807252000000.0 1.00655e+12 1.15707e+12 1.1486e+12 1.07657e+12 1.03803e+12 995014000000.0 879844000000.0 937578000000.0 939348000000.0 557539000000.0 222413000000.0 998329000000.0 288735000000.0 903238000000.0 465673000000.0 402207000000.0 631994000000.0 796413000000.0 924175000000.0 816701000000.0 518117000000.0 51223600000.0 481003000000.0 848284000000.0 771436000000.0 610179000000.0 257548000000.0 50439900000.0 303942000000.0 1.09277e+12 404807000000.0 1.31816e+12 931681000000.0 617693000000.0 1.10203e+12 333319000000.0 681793000000.0 460122000000.0 784550000000.0 833381000000.0 1.04205e+12 1.04939e+12 1.14492e+12 1.11162e+12 1.09668e+12 1.04955e+12 1.04998e+12 1.03164e+12 995514000000.0 841202000000.0 751201000000.0 646062000000.0 1.06332e+12 479598000000.0 32255600000.0 785867000000.0 140977000000.0 873916000000.0 773789000000.0 32092200000.0 184083000000.0 168317000000.0 451664000000.0 644633000000.0 339933000000.0 3577500000.0 115199000000.0 185420000000.0 533492000000.0 414539000000.0 901259000000.0 703672000000.0 656041000000.0 557508000000.0 352754000000.0 360725000000.0 532312000000.0 864074000000.0 1.05798e+12 1.08711e+12 1.03723e+12 1.02232e+12 1.04538e+12 1.04958e+12 935164000000.0 630689000000.0 567170000000.0 642716000000.0 21311600000.0 645254000000.0 318069000000.0 698676000000.0 779660000000.0 657025000000.0 579140000000.0 185897000000.0 98177500000.0 468516000000.0 640168000000.0 451730000000.0 390362000000.0 428325000000.0 50463700000.0 48591800000.0 348400000000.0 41183300000.0 99911000000.0 1.31773e+12 622585000000.0 1.41864e+12 989153000000.0 531667000000.0 349307000000.0 25358700000.0 174519000000.0 581233000000.0 897328000000.0 1.06611e+12 1.07805e+12 1.07068e+12 1.08578e+12 1.02042e+12 927951000000.0 787103000000.0 307782000000.0 368473000000.0 590346000000.0 269430000000.0 1.45472e+12 523381000000.0 731073000000.0 504395000000.0 260003000000.0 597968000000.0 355305000000.0 320753000000.0 993806000000.0 680344000000.0 461741000000.0 498835000000.0 498336000000.0 419692000000.0 80934300000.0 80596200000.0 31453300000.0 185970000000.0 203422000000.0 10825100000.0 111466000000.0 858336000000.0 1.08754e+12 1.10556e+12 585360000000.0 306277000000.0 198472000000.0 306300000000.0 649172000000.0 738432000000.0 938522000000.0 963062000000.0 1.06292e+12 1.0843e+12 1.09551e+12 1.02431e+12 775739000000.0 549032000000.0 253568000000.0 105947000000.0 237607000000.0 301300000000.0 46865900000.0 525413000000.0 940920000000.0 874038000000.0 728502000000.0 608119000000.0 225681000000.0 587484000000.0 865667000000.0 1.48889e+12 203065000000.0 233650000000.0 528603000000.0 448904000000.0 375988000000.0 370220000000.0 54070400000.0 19973800000.0 192427000000.0 38802600000.0 117315000000.0 175052000000.0 7385560000.0 394482000000.0 718492000000.0 821073000000.0 717940000000.0 25599800000.0 128788000000.0 363008000000.0 70773900000.0 490415000000.0 794022000000.0 973095000000.0 1.05369e+12 1.04087e+12 1.08905e+12 1.07189e+12 1.08319e+12 919286000000.0 596636000000.0 76563900000.0 593198000000.0 479970000000.0 813387000000.0 654540000000.0 406531000000.0 272971000000.0 868282000000.0 816908000000.0 102563000000.0 677026000000.0 824037000000.0 555204000000.0 382445000000.0 213246000000.0 259156000000.0 290636000000.0 241524000000.0 14726200000.0 85791500000.0 56321900000.0 271616000000.0 204712000000.0 55110400000.0 130298000000.0 188462000000.0 648398000000.0 628324000000.0 649745000000.0 1.15957e+12 1.46155e+12 1.01592e+12 222901000000.0 269405000000.0 372689000000.0 579148000000.0 832661000000.0 975140000000.0 1.0409e+12 1.03157e+12 1.00228e+12 898522000000.0 791207000000.0 670965000000.0 445936000000.0 368544000000.0 527573000000.0 540404000000.0 196266000000.0 166330000000.0 690956000000.0 673105000000.0 511996000000.0 483746000000.0 348474000000.0 347642000000.0 163272000000.0 575597000000.0 1.16098e+12 325549000000.0 995402000000.0 160109000000.0 33821200000.0 155753000000.0 266393000000.0 31603800000.0 3594880000.0 143927000000.0 313729000000.0 261417000000.0 88008800000.0 55739600000.0 355952000000.0 655392000000.0 392984000000.0 153200000000.0 24162400000.0 491064000000.0 640586000000.0 477825000000.0 275333000000.0 360658000000.0 267545000000.0 425229000000.0 640835000000.0 701597000000.0 861102000000.0 977648000000.0 1.01567e+12 950274000000.0 787742000000.0 584845000000.0 406470000000.0 302611000000.0 1.16646e+12 198953000000.0 576068000000.0 647518000000.0 517276000000.0 318727000000.0 404523000000.0 342281000000.0 335670000000.0 596022000000.0 279978000000.0 765314000000.0 315370000000.0 466106000000.0 166159000000.0 105025000000.0 222501000000.0 298110000000.0 376631000000.0 51666300000.0 170459000000.0 494407000000.0 384289000000.0 361123000000.0 271429000000.0 154608000000.0 47020700000.0 141772000000.0 201681000000.0 459657000000.0 1.02894e+12 446949000000.0 24325500000.0 386880000000.0 51172700000.0 735938000000.0 319894000000.0 223346000000.0 507052000000.0 749084000000.0 883030000000.0 893339000000.0 970756000000.0 936800000000.0 961035000000.0 875300000000.0 849741000000.0 674907000000.0 435768000000.0 45507000000.0 727402000000.0 564076000000.0 537848000000.0 306254000000.0 58596700000.0 176980000000.0 83421600000.0 132784000000.0 607737000000.0 775334000000.0 242897000000.0 549487000000.0 440509000000.0 80439700000.0 423526000000.0 272211000000.0 32747700000.0 211555000000.0 295643000000.0 455182000000.0 359916000000.0 309264000000.0 128686000000.0 168938000000.0 523831000000.0 475579000000.0 446659000000.0 151656000000.0 118702000000.0 261349000000.0 823030000000.0 951146000000.0 226961000000.0 756792000000.0 395133000000.0 145961000000.0 929169000000.0 111871000000.0 147055000000.0 36254400000.0 30181900000.0 288088000000.0 593992000000.0 781951000000.0 882817000000.0 871329000000.0 762269000000.0 729783000000.0 564632000000.0 506242000000.0 192201000000.0 10891500000.0 53985300000.0 473714000000.0 485713000000.0 563169000000.0 450816000000.0 405476000000.0 245408000000.0 396186000000.0 1.16471e+12 1.53746e+12 676791000000.0 351375000000.0 107045000000.0 609550000000.0 114559000000.0 687035000000.0 258229000000.0 274633000000.0 238981000000.0 537272000000.0 409165000000.0 238320000000.0 181132000000.0 98048000000.0 145087000000.0 503746000000.0 661278000000.0 635277000000.0 558471000000.0 539992000000.0 321355000000.0 262140000000.0 117104000000.0 609338000.0 246531000000.0 819937000000.0 67894300000.0 244551000000.0 640546000000.0 612834000000.0 867904000000.0 753042000000.0 292865000000.0 191264000000.0 413419000000.0 510527000000.0 641513000000.0 679772000000.0 797846000000.0 840638000000.0 773451000000.0 609928000000.0 318118000000.0 39389500000.0 239506000000.0 471669000000.0 471290000000.0 277102000000.0 183822000000.0 283145000000.0 270405000000.0 358007000000.0 1.14529e+12 777892000000.0 627395000000.0 878128000000.0 1.27105e+12 877681000000.0 386212000000.0 39352200000.0 54136500000.0 322149000000.0 52995500000.0 399785000000.0 301986000000.0 187436000000.0 297023000000.0 341067000000.0 554749000000.0 44222900000.0 448319000000.0 595534000000.0 796323000000.0 615410000000.0 344302000000.0 92173400000.0 567831000000.0 718637000000.0 429055000000.0 217132000000.0 591752000000.0 706988000000.0 919854000000.0 1.11479e+12 1.40285e+12 1.53741e+12 251781000000.0 70742700000.0 332479000000.0 539492000000.0 696968000000.0 784155000000.0 734002000000.0 763633000000.0 647753000000.0 637988000000.0 463993000000.0 405801000000.0 88049500000.0 34809700000.0 27774300000.0 133899000000.0 318105000000.0 353936000000.0 438467000000.0 423104000000.0 713110000.0 343729000000.0 840991000000.0 83613300000.0 367759000000.0 526227000000.0 584098000000.0 245065000000.0 714181000000.0 314226000000.0 354123000000.0 55059400000.0 72858300000.0 463945000000.0 662684000000.0 385351000000.0 203087000000.0 368545000000.0 180953000000.0 26229700000.0 8718320000.0 305819000000.0 382002000000.0 497393000000.0 660476000000.0 775592000000.0 944113000000.0 449902000000.0 680932000000.0 429613000000.0 405204000000.0 462076000000.0 114486000000.0 923376000000.0 859709000000.0 910743000000.0 907539000000.0 949327000000.0 799029000000.0 336688000000.0 121158000000.0 223933000000.0 433392000000.0 39852800000.0 366275000000.0 484142000000.0 569284000000.0 682467000000.0 641818000000.0 496543000000.0 280548000000.0 199133000000.0 45056000000.0 11356900000.0 206787000000.0 374492000000.0 394954000000.0 461811000000.0 1.38856e+12 795219000000.0 422599000000.0 536165000000.0 688927000000.0 669932000000.0 377218000000.0 794146000000.0 828989000000.0 620172000000.0 1.04524e+12 294059000000.0 201130000000.0 377312000000.0 156380000000.0 1.12333e+12 311730000000.0 124513000000.0 239479000000.0 391586000000.0 526162000000.0 893668000000.0 1.17899e+12 661439000000.0 969665000000.0 1.23826e+12 527622000000.0 1.12954e+12 957436000000.0 920695000000.0 907077000000.0 907663000000.0 921345000000.0 1.44753e+12 1.51899e+12 1.11824e+12 110589000000.0 517924000000.0 395500000000.0 440034000000.0 599202000000.0 622816000000.0 509623000000.0 331168000000.0 125354000000.0 21844200000.0 83202500000.0 147606000000.0 242997000000.0 238925000000.0 431309000000.0 674325000000.0 512722000000.0 408776000000.0 78484600000.0 244912000000.0 372481000000.0 573756000000.0 714889000000.0 421739000000.0 1.17701e+12 208736000000.0 1.16909e+12 310330000000.0 204717000000.0 675345000000.0 613903000000.0 108769000000.0 1.34062e+12 703713000000.0 8320230000.0 584985000000.0 228492000000.0 196688000000.0 619894000000.0 198996000000.0 228609000000.0 279392000000.0 690213000000.0 941666000000.0 1.46549e+12 173683000000.0 1.47845e+12 230942000000.0 455744000000.0 99233800000.0 1.2289e+12 752754000000.0 774470000000.0 747302000000.0 696141000000.0 647398000000.0 136369000000.0 400803000000.0 380773000000.0 219000000000.0 107690000000.0 480887000000.0 109992000000.0 522437000000.0 589299000000.0 512600000000.0 511219000000.0 359146000000.0 355202000000.0 212369000000.0 182648000000.0 74095500000.0 26247300000.0 4597600000.0 124932000.0 58296500000.0 195696000000.0 188877000000.0 115630000000.0 390364000000.0 230303000000.0 640026000000.0 426790000000.0 289735000000.0 363555000000.0 450155000000.0 792465000000.0 1.19362e+12 433353000000.0 953064000000.0 24959400000.0 587772000000.0 185462000000.0 526961000000.0 150706000000.0 1.20466e+12 467419000000.0 1.44908e+12 488156000000.0 163123000000.0 247936000000.0 140875000000.0 204651000000.0 789483000000.0 983817000000.0 141610000000.0 82851000000.0 197844000000.0 284185000000.0 292721000000.0 627716000000.0 356593000000.0 721749000000.0 454680000000.0 644680000000.0 272303000000.0 419477000000.0 186699000000.0 676258000000.0 643803000000.0 677891000000.0 781054000000.0 1.59689e+12 1.2222e+12 437501000000.0 658038000000.0 670682000000.0 290989000000.0 534334000000.0 348503000000.0 217497000000.0 103309000000.0 17061900000.0 24946900000.0 103155000000.0 109015000000.0 225417000000.0 388009000000.0 962096000000.0 1.42103e+12 1.07496e+12 642611000000.0 463566000000.0 453991000000.0 538441000000.0 560134000000.0 569048000000.0 27625200000.0 283151000000.0 513508000000.0 55217600000.0 749972000000.0 748466000000.0 704647000000.0 735561000000.0 575188000000.0 28386900000.0 217822000000.0 937379000000.0 243571000000.0 152559000000.0 556925000000.0 167592000000.0 62904400000.0 600756000000.0 808299000000.0 1.14725e+12 1.66137e+12 119570000000.0 245903000000.0 269853000000.0 334066000000.0 716507000000.0 449139000000.0 369526000000.0 550791000000.0 53731900000.0 647627000000.0 307317000000.0 368892000000.0 315995000000.0 561550000000.0 634907000000.0 651457000000.0 122649000000.0 156870000000.0 234471000000.0 14607900000.0 87613400000.0 244035000000.0 682347000000.0 578857000000.0 596847000000.0 608858000000.0 319014000000.0 330690000000.0 198819000000.0 109442000000.0 35591400000.0 12289600000.0 46414400000.0 86605400000.0 190469000000.0 60285100000.0 410467000000.0 294969000000.0 310628000000.0 40825800000.0 423569000000.0 460628000000.0 471465000000.0 474619000000.0 445254000000.0 179946000000.0 315794000000.0 380804000000.0 407200000000.0 410289000000.0 696190000000.0 493208000000.0 355513000000.0 247278000000.0 446133000000.0 93224300000.0 264617000000.0 364579000000.0 242525000000.0 1.29668e+12 673608000000.0 299719000000.0 423963000000.0 176766000000.0 459050000000.0 712936000000.0 788253000000.0 134425000000.0 437417000000.0 582160000000.0 869368000000.0 976238000000.0 988580000000.0 652262000000.0 438521000000.0 200140000000.0 376183000000.0 270001000000.0 314703000000.0 345920000000.0 476897000000.0 511523000000.0 474849000000.0 361888000000.0 617697000000.0 272338000000.0 93640200000.0 235235000000.0 729300000000.0 382486000000.0 52815800000.0 150921000000.0 68665400000.0 96183200000.0 18558400000.0 38061700000.0 10104300000.0 13338300000.0 24854400000.0 105493000000.0 362676000000.0 297508000000.0 795793000000.0 1.25252e+12 728055000000.0 421183000000.0 448671000000.0 450752000000.0 432989000000.0 388169000000.0 249719000000.0 275736000000.0 328531000000.0 369238000000.0 506049000000.0 560205000000.0 550636000000.0 172893000000.0 508963000000.0 715114000000.0 501829000000.0 95264500000.0 588416000000.0 207856000000.0 1.12991e+12 564818000000.0 95373900000.0 729006000000.0 597058000000.0 104830000000.0 351619000000.0 538144000000.0 553997000000.0 1.23522e+12 657181000000.0 797139000000.0 981307000000.0 1.11422e+12 438116000000.0 247599000000.0 272432000000.0 238275000000.0 294836000000.0 358806000000.0 433604000000.0 433512000000.0 369170000000.0 240253000000.0 154936000000.0 356233000000.0 57770600000.0 438097000000.0 837494000000.0 673026000000.0 52587600000.0 159919000000.0 39057100000.0 14736600000.0 11546800000.0 23086000000.0 44929200000.0 258689000000.0 575773000000.0 444012000000.0 782614000000.0 621799000000.0 471791000000.0 456734000000.0 468515000000.0 458136000000.0 430717000000.0 373148000000.0 275817000000.0 253316000000.0 279684000000.0 337209000000.0 456643000000.0 569774000000.0 572917000000.0 472091000000.0 629436000000.0 798562000000.0 796729000000.0 552446000000.0 529281000000.0 301922000000.0 915685000000.0 629038000000.0 327544000000.0 231559000000.0 1.13231e+12 547809000000.0 662711000000.0 1.50658e+12 1.06337e+12 469122000000.0 506151000000.0 740351000000.0 763310000000.0 916861000000.0 271048000000.0 659990000000.0 937781000000.0 1.1156e+12 1.17514e+12 1.00508e+12 651337000000.0 209491000000.0 231904000000.0 316643000000.0 403117000000.0 454012000000.0 445927000000.0 369166000000.0 336367000000.0 474842000000.0 697702000000.0 552350000000.0 460630000000.0 268474000000.0 811163000000.0 447874000000.0 355418000000.0 64954100000.0 150504000000.0 64272100000.0 69141600000.0 48559200000.0 52022000000.0 7198130000.0 45089500000.0 60270300000.0 89018700000.0 34532200000.0 128156000000.0 368287000000.0 46392600000.0 242761000000.0 322091000000.0 420576000000.0 473523000000.0 457021000000.0 401089000000.0 304352000000.0 237494000000.0 230622000000.0 884936000000.0 795230000000.0 690375000000.0 540262000000.0 1.00487e+12 646624000000.0 297358000000.0 1.36986e+12 657249000000.0 177058000000.0 367197000000.0 138071000000.0 729834000000.0 105670000000.0 902109000000.0 1.06389e+12 246369000000.0 377121000000.0 1.03915e+12 774533000000.0 129411000000.0 702558000000.0 998013000000.0 1.21753e+12 1.17448e+12 952441000000.0 651334000000.0 410124000000.0 232722000000.0 399958000000.0 494522000000.0 557586000000.0 475861000000.0 428889000000.0 494543000000.0 629254000000.0 607373000000.0 343977000000.0 89113500000.0 296728000000.0 515565000000.0 549679000000.0 330211000000.0 39386000000.0 128934000000.0 2226090000.0 91757300000.0 51836600000.0 303180000000.0 812264000000.0 183818000000.0 624561000000.0 354821000000.0 258520000000.0 308702000000.0 366319000000.0 458307000000.0 532561000000.0 477436000000.0 371400000000.0 291131000000.0 419870000000.0 545970000000.0 613766000000.0 612369000000.0 726398000000.0 848736000000.0 890969000000.0 781052000000.0 563666000000.0 61236900000.0 800962000000.0 450269000000.0 105296000000.0 778324000000.0 591713000000.0 29056900000.0 30297100000.0 598898000000.0 366571000000.0 300885000000.0 808517000000.0 931939000000.0 758244000000.0 561584000000.0 866146000000.0 1.1691e+12 1.21632e+12 1.12853e+12 918773000000.0 631612000000.0 380471000000.0 191164000000.0 194433000000.0 273117000000.0 710030000000.0 552929000000.0 466136000000.0 474806000000.0 538847000000.0 545052000000.0 430673000000.0 171978000000.0 167133000000.0 186645000000.0 231083000000.0 726890000000.0 90834000000.0 102434000000.0 151181000000.0 96440700000.0 147477000000.0 17686900000.0 620939000000.0 623374000000.0 621091000000.0 1.11469e+12 838992000000.0 469690000000.0 334272000000.0 336888000000.0 399343000000.0 518461000000.0 657696000000.0 247408000000.0 177431000000.0 224816000000.0 377594000000.0 534539000000.0 642409000000.0 700545000000.0 791403000000.0 892860000000.0 936994000000.0 891058000000.0 738186000000.0 483926000000.0 749001000000.0 940379000000.0 816099000000.0 27175600000.0 1.01326e+12 1.11883e+12 546426000000.0 814318000000.0 292138000000.0 41822900000.0 662573000000.0 789975000000.0 234439000000.0 139975000000.0 222042000000.0 5035840000.0 157762000000.0 590762000000.0 836207000000.0 892924000000.0 835788000000.0 1.07553e+12 1.1846e+12 1.19582e+12 1.1089e+12 917927000000.0 626009000000.0 391342000000.0 183108000000.0 199566000000.0 375305000000.0 516820000000.0 419386000000.0 454324000000.0 469711000000.0 424159000000.0 296564000000.0 93788400000.0 34268100000.0 64041900000.0 459401000000.0 327361000000.0 350845000000.0 163632000000.0 85366200000.0 192255000000.0 162644000000.0 63167100000.0 142431000000.0 368239000000.0 656181000000.0 300008000000.0 373250000000.0 167209000000.0 203236000000.0 249323000000.0 258324000000.0 299737000000.0 495352000000.0 317610000000.0 155942000000.0 133705000000.0 320189000000.0 533726000000.0 674199000000.0 761854000000.0 851223000000.0 933975000000.0 980980000000.0 966668000000.0 732758000000.0 777672000000.0 824797000000.0 750365000000.0 498842000000.0 451263000000.0 597727000000.0 762051000000.0 701996000000.0 288370000000.0 246224000000.0 309161000000.0 900020000000.0 376924000000.0 561151000000.0 877722000000.0 76647100000.0 66818800000.0 162118000000.0 464159000000.0 715459000000.0 860565000000.0 915332000000.0 811247000000.0 985299000000.0 1.11814e+12 1.18693e+12 1.19712e+12 1.13969e+12 1.01107e+12 729970000000.0 593296000000.0 118736000000.0 249696000000.0 440866000000.0 955770000000.0 578423000000.0 437631000000.0 388284000000.0 324290000000.0 200455000000.0 53679400000.0 98409400000.0 201929000000.0 422675000000.0 559436000000.0 375306000000.0 150840000000.0 328597000000.0 214274000000.0 294850000000.0 171731000000.0 661891000000.0 40748600000.0 496513000000.0 315810000000.0 137098000000.0 195608000000.0 202314000000.0 387628000000.0 560134000000.0 881157000000.0 456625000000.0 224065000000.0 46059200000.0 283478000000.0 565654000000.0 724710000000.0 818251000000.0 900828000000.0 972386000000.0 1.01748e+12 1.02302e+12 981540000000.0 881763000000.0 854952000000.0 802671000000.0 665610000000.0 427753000000.0 72112500000.0 286108000000.0 718748000000.0 806278000000.0 468680000000.0 87979400000.0 235893000000.0 83105000000.0 46211400000.0 115636000000.0 1.08505e+12 260872000000.0 589929000000.0 274750000000.0 240331000000.0 413727000000.0 614787000000.0 782025000000.0 919205000000.0 946546000000.0 1.04541e+12 1.123e+12 1.17454e+12 1.22741e+12 1.3091e+12 1.37682e+12 1.26442e+12 844773000000.0 111893000000.0 52973500000.0 916597000000.0 366760000000.0 294361000000.0 319131000000.0 366168000000.0 397247000000.0 139559000000.0 4195190000.0 109578000000.0 175105000000.0 39593700000.0 265187000000.0 95650700000.0 160732000000.0 61030000000.0 21760000000.0 226325000000.0 119726000000.0 675704000000.0 225983000000.0 220760000000.0 244150000000.0 205353000000.0 227401000000.0 283111000000.0 423942000000.0 925590000000.0 34049300000.0 233085000000.0 631375000000.0 836308000000.0 841136000000.0 867019000000.0 938611000000.0 1.00116e+12 1.04251e+12 1.06043e+12 1.04898e+12 994192000000.0 898281000000.0 692310000000.0 457175000000.0 163120000000.0 117390000000.0 450084000000.0 111094000000.0 225310000000.0 285606000000.0 143369000000.0 5578190000.0 195251000000.0 125524000000.0 41449800000.0 147518000000.0 333398000000.0 821470000000.0 522007000000.0 82193200000.0 330551000000.0 512657000000.0 684321000000.0 894398000000.0 951173000000.0 972093000000.0 993716000000.0 1.02944e+12 1.03438e+12 975124000000.0 269969000000.0 382406000000.0 117018000000.0 155153000000.0 237940000000.0 306776000000.0 350359000000.0 358976000000.0 327368000000.0 251482000000.0 38690100000.0 151960000000.0 202277000000.0 306417000000.0 447577000000.0 158762000000.0 276486000000.0 424842000000.0 363331000000.0 517214000000.0 382542000000.0 336083000000.0 204606000000.0 327874000000.0 378302000000.0 3040830000.0 109944000000.0 178644000000.0 177928000000.0 162846000000.0 142764000000.0 119556000000.0 96816100000.0 139715000000.0 610074000000.0 850818000000.0 987581000000.0 1.04532e+12 1.06655e+12 1.08539e+12 1.06714e+12 1.01389e+12 950641000000.0 854841000000.0 308153000000.0 55153700000.0 151415000000.0 479694000000.0 102056000000.0 328575000000.0 84023700000.0 30318100000.0 103547000000.0 137913000000.0 102664000000.0 1984910000.0 60082700000.0 159137000000.0 50829100000.0 766008000000.0 1.07194e+12 236366000000.0 129989000000.0 364797000000.0 822476000000.0 915809000000.0 967089000000.0 981660000000.0 976305000000.0 951189000000.0 788262000000.0 476079000000.0 198145000000.0 69287800000.0 59571700000.0 204252000000.0 1.07231e+12 567450000000.0 396760000000.0 364264000000.0 363751000000.0 359047000000.0 334827000000.0 281980000000.0 197793000000.0 84694000000.0 318072000000.0 342940000000.0 130202000000.0 482939000000.0 13470800000.0 818846000000.0 664278000000.0 165349000000.0 390173000000.0 211182000000.0 235276000000.0 230261000000.0 190568000000.0 170341000000.0 145571000000.0 117645000000.0 91402600000.0 107671000000.0 283687000000.0 205855000000.0 188857000000.0 91438800000.0 390195000000.0 667200000000.0 855009000000.0 1.08483e+12 1.09404e+12 1.07713e+12 1.04784e+12 956567000000.0 787828000000.0 575341000000.0 285060000000.0 188459000000.0 774555000000.0 502029000000.0 513063000000.0 424703000000.0 304093000000.0 211924000000.0 85903200000.0 64340200000.0 81626500000.0 26669000000.0 209287000000.0 268247000000.0 167652000000.0 913199000000.0 763573000000.0 555031000000.0 720146000000.0 846086000000.0 926502000000.0 962094000000.0 952382000000.0 881489000000.0 737515000000.0 532034000000.0 373699000000.0 275008000000.0 83213300000.0 199006000000.0 218515000000.0 580181000000.0 472062000000.0 423441000000.0 395116000000.0 362019000000.0 313137000000.0 243767000000.0 152083000000.0 43176400000.0 72692100000.0 177254000000.0 25261000000.0 365867000000.0 187400000000.0 893095000000.0 322460000000.0 636401000000.0 496305000000.0 216960000000.0 39644600000.0 65179000000.0 149844000000.0 211013000000.0 213778000000.0 196545000000.0 184062000000.0 174575000000.0 175183000000.0 212322000000.0 596938000000.0 145474000000.0 133869000000.0 427204000000.0 683300000000.0 869162000000.0 1.03067e+12 1.06465e+12 1.07567e+12 1.07034e+12 1.06321e+12 922984000000.0 738156000000.0 514519000000.0 981853000000.0 682997000000.0 647100000000.0 614848000000.0 557103000000.0 329801000000.0 333072000000.0 173466000000.0 234617000000.0 157507000000.0 57865300000.0 14640500000.0 1668370000.0 63247400000.0 341466000000.0 619652000000.0 495809000000.0 573761000000.0 665437000000.0 549442000000.0 412224000000.0 54960700000.0 365510000000.0 591231000000.0 751436000000.0 858131000000.0 921336000000.0 915138000000.0 851918000000.0 749876000000.0 613000000000.0 491613000000.0 410167000000.0 293260000000.0 85141200000.0 210010000000.0 744972000000.0 402109000000.0 350566000000.0 288953000000.0 211585000000.0 119375000000.0 17893000000.0 85936700000.0 209003000000.0 389213000000.0 241904000000.0 127221000000.0 118191000000.0 175470000000.0 328270000000.0 195145000000.0 103781000000.0 23449600000.0 83562800000.0 147076000000.0 192046000000.0 209874000000.0 217983000000.0 340833000000.0 314809000000.0 525503000000.0 254640000000.0 37193200000.0 228706000000.0 481771000000.0 687238000000.0 845088000000.0 1.00563e+12 1.00929e+12 1.06024e+12 987934000000.0 961800000000.0 795935000000.0 655521000000.0 422565000000.0 117278000000.0 1.00517e+12 716527000000.0 618961000000.0 674999000000.0 191679000000.0 411882000000.0 327029000000.0 318480000000.0 332721000000.0 25209100000.0 165407000000.0 543372000000.0 794943000000.0 151486000000.0 107557000000.0 338922000000.0 82708300000.0 221987000000.0 469293000000.0 652082000000.0 782239000000.0 942875000000.0 903402000000.0 841838000000.0 767077000000.0 678132000000.0 590786000000.0 507082000000.0 404329000000.0 45054700000.0 88498600000.0 400525000000.0 636663000000.0 584351000000.0 511241000000.0 452522000000.0 261937000000.0 183706000000.0 97954300000.0 9069990000.0 83630900000.0 188583000000.0 483048000000.0 189190000000.0 91812800000.0 196365000000.0 448201000000.0 269683000000.0 185161000000.0 94657900000.0 359904000.0 70715400000.0 135036000000.0 230368000000.0 252884000000.0 295565000000.0 367756000000.0 374724000000.0 55287000000.0 222141000000.0 126510000000.0 339198000000.0 532367000000.0 687915000000.0 816315000000.0 928715000000.0 928545000000.0 1.00027e+12 1.01406e+12 819322000000.0 662134000000.0 496254000000.0 86681000000.0 948878000000.0 754119000000.0 648288000000.0 676805000000.0 492870000000.0 343034000000.0 437343000000.0 337801000000.0 441126000000.0 69838000000.0 652733000000.0 687170000000.0 772623000000.0 412269000000.0 133937000000.0 20595800000.0 192361000000.0 400034000000.0 575058000000.0 863685000000.0 909444000000.0 925973000000.0 852354000000.0 787924000000.0 718127000000.0 649515000000.0 264195000000.0 133066000000.0 139362000000.0 297092000000.0 504228000000.0 622352000000.0 583110000000.0 516792000000.0 454134000000.0 393831000000.0 331261000000.0 75579200000.0 11178000000.0 111966000000.0 272161000000.0 543063000000.0 73017100000.0 25068500000.0 2801600000.0 134596000000.0 202486000000.0 302455000000.0 311322000000.0 361859000000.0 268859000000.0 195451000000.0 114964000000.0 26484500000.0 186663000000.0 225463000000.0 261765000000.0 305800000000.0 363720000000.0 428118000000.0 420883000000.0 255707000000.0 50279300000.0 86095400000.0 55123900000.0 579668000000.0 705082000000.0 803278000000.0 848809000000.0 862051000000.0 929537000000.0 929349000000.0 895036000000.0 510852000000.0 108990000000.0 747605000000.0 581533000000.0 492936000000.0 600629000000.0 40845600000.0 427144000000.0 361989000000.0 708338000000.0 289290000000.0 233042000000.0 698744000000.0 791672000000.0 851465000000.0 885379000000.0 895107000000.0 785448000000.0 743815000000.0 589206000000.0 507957000000.0 380104000000.0 265173000000.0 226093000000.0 301085000000.0 459321000000.0 596292000000.0 620102000000.0 572800000000.0 505056000000.0 436007000000.0 369522000000.0 302429000000.0 231569000000.0 155901000000.0 332514000000.0 564467000000.0 8484330000.0 37354300000.0 95949800000.0 218269000000.0 291393000000.0 329795000000.0 322856000000.0 323913000000.0 280524000000.0 55785300000.0 130917000000.0 198323000000.0 261449000000.0 326815000000.0 399721000000.0 477108000000.0 520003000000.0 391809000000.0 200499000000.0 75455700000.0 59055300000.0 158712000000.0 290810000000.0 435880000000.0 712208000000.0 780713000000.0 777160000000.0 808939000000.0 844974000000.0 823811000000.0 771355000000.0 651601000000.0 1.01377e+12 982057000000.0 295345000000.0 178728000000.0 148841000000.0 12654100000.0 85382800000.0 245385000000.0 304070000000.0 428719000000.0 440928000000.0 369621000000.0 250450000000.0 391476000000.0 505061000000.0 574414000000.0 648566000000.0 717867000000.0 775624000000.0 816240000000.0 840737000000.0 830579000000.0 682308000000.0 632571000000.0 595414000000.0 513898000000.0 366573000000.0 309371000000.0 352941000000.0 474359000000.0 631756000000.0 629513000000.0 597450000000.0 537298000000.0 468965000000.0 400642000000.0 333456000000.0 266346000000.0 197397000000.0 123547000000.0 40799000000.0 57257700000.0 187791000000.0 118135000000.0 35069400000.0 182606000000.0 313789000000.0 320557000000.0 306466000000.0 226064000000.0 143066000000.0 42401700000.0 53262100000.0 142257000000.0 226706000000.0 311238000000.0 399946000000.0 492425000000.0 572371000000.0 181902000000.0 281982000000.0 329721000000.0 409703000000.0 509294000000.0 614573000000.0 751541000000.0 715201000000.0 757188000000.0 734198000000.0 674905000000.0 583007000000.0 459148000000.0 365018000000.0 229589000000.0 103924000000.0 238578000000.0 76928100000.0 15968600000.0 218958000000.0 230389000000.0 284077000000.0 212412000000.0 407520000000.0 460427000000.0 554899000000.0 625204000000.0 684987000000.0 731791000000.0 763694000000.0 702949000000.0 672647000000.0 623957000000.0 606481000000.0 632184000000.0 574523000000.0 421376000000.0 354054000000.0 287291000000.0 223162000000.0 157677000000.0 82999100000.0 9537740000.0 129700000000.0 273343000000.0 387070000000.0 558962000000.0 300730000000.0 324606000000.0 324156000000.0 264121000000.0 151939000000.0 38017300000.0 68447400000.0 168244000000.0 264892000000.0 608205000000.0 372672000000.0 197659000000.0 421291000000.0 421283000000.0 457685000000.0 530419000000.0 624365000000.0 708917000000.0 690176000000.0 577345000000.0 411217000000.0 85526800000.0 488008000000.0 303503000000.0 137999000000.0 47714800000.0 117535000000.0 169098000000.0 109192000000.0 46455900000.0 77888500000.0 95096700000.0 72374100000.0 282426000000.0 284935000000.0 180875000000.0 232167000000.0 359107000000.0 451353000000.0 526467000000.0 585090000000.0 783869000000.0 756795000000.0 620583000000.0 575039000000.0 532447000000.0 544551000000.0 395320000000.0 416434000000.0 490077000000.0 674506000000.0 613779000000.0 582794000000.0 540755000000.0 484841000000.0 174033000000.0 113294000000.0 35656100000.0 70070000000.0 205543000000.0 356728000000.0 409844000000.0 499509000000.0 214886000000.0 49342100000.0 307844000000.0 313259000000.0 269158000000.0 247971000000.0 291440000000.0 392675000000.0 388333000000.0 260466000000.0 131514000000.0 361728000000.0 458887000000.0 547319000000.0 603448000000.0 649867000000.0 316826000000.0 276422000000.0 464816000000.0 404272000000.0 441154000000.0 525246000000.0 621723000000.0 693179000000.0 710957000000.0 659024000000.0 254792000000.0 44440200000.0 173753000000.0 152245000000.0 31622600000.0 59328600000.0 140583000000.0 123360000000.0 63924700000.0 120383000000.0 229080000000.0 195918000000.0 130364000000.0 636673000000.0 681214000000.0 715892000000.0 725490000000.0 687407000000.0 518485000000.0 441868000000.0 621237000000.0 524771000000.0 349844000000.0 417002000000.0 615461000000.0 568839000000.0 544448000000.0 516180000000.0 475778000000.0 424518000000.0 364745000000.0 296765000000.0 231817000000.0 123209000000.0 257109000000.0 435834000000.0 456965000000.0 410009000000.0 220126000000.0 206403000000.0 219893000000.0 214769000000.0 170793000000.0 208487000000.0 390509000000.0 513266000000.0 10907400000.0 99378500000.0 202181000000.0 301180000000.0 397586000000.0 487838000000.0 561845000000.0 604672000000.0 571054000000.0 195066000000.0 511754000000.0 462001000000.0 428566000000.0 397588000000.0 503816000000.0 602825000000.0 653623000000.0 648796000000.0 605434000000.0 605747000000.0 440537000000.0 113183000000.0 105473000000.0 91266900000.0 152996000000.0 256304000000.0 360361000000.0 418460000000.0 475875000000.0 529482000000.0 579716000000.0 629379000000.0 665677000000.0 668152000000.0 622713000000.0 424542000000.0 480049000000.0 585673000000.0 393785000000.0 279715000000.0 528898000000.0 547997000000.0 510025000000.0 479036000000.0 446135000000.0 406873000000.0 360382000000.0 303022000000.0 228464000000.0 166117000000.0 121367000000.0 69128200000.0 11467000000.0 544938000000.0 187157000000.0 18077500000.0 121661000000.0 99981900000.0 326627000000.0 354322000000.0 212884000000.0 82696300000.0 33558800000.0 137397000000.0 232422000000.0 321670000000.0 406671000000.0 486402000000.0 556593000000.0 571138000000.0 313476000000.0 318229000000.0 467172000000.0 441592000000.0 353208000000.0 333330000000.0 471360000000.0 557158000000.0 574335000000.0 548985000000.0 523025000000.0 491789000000.0 348528000000.0 210349000000.0 375694000000.0 345540000000.0 39197200000.0 75469800000.0 36615500000.0 12336800000.0 42952800000.0 154805000000.0 10853700000.0 120352000000.0 237861000000.0 310698000000.0 362546000000.0 409833000000.0 457047000000.0 506188000000.0 554195000000.0 591758000000.0 597772000000.0 381027000000.0 315580000000.0 375628000000.0 484931000000.0 516717000000.0 262703000000.0 348014000000.0 484543000000.0 460905000000.0 424345000000.0 395563000000.0 366731000000.0 334669000000.0 296587000000.0 241268000000.0 142968000000.0 86787500000.0 69842800000.0 26055800000.0 55407900000.0 121677000000.0 143785000000.0 123700000000.0 48820900000.0 78080100000.0 333168000000.0 159491000000.0 618450000000.0 448296000000.0 275000000000.0 134361000000.0 16323400000.0 83582100000.0 169592000000.0 245395000000.0 313662000000.0 377864000000.0 297327000000.0 328799000000.0 472939000000.0 314786000000.0 217464000000.0 227047000000.0 333508000000.0 476608000000.0 460377000000.0 420932000000.0 400849000000.0 365566000000.0 298730000000.0 354678000000.0 463811000000.0 261291000000.0 22970300000.0 73625700000.0 62095700000.0 142675000000.0 100811000000.0 211137000000.0 257670000000.0 295495000000.0 334238000000.0 370584000000.0 555554000000.0 302737000000.0 385821000000.0 530041000000.0 649177000000.0 241460000000.0 189354000000.0 18022900000.0 15141800000.0 12124800000.0 58117900000.0 112706000000.0 184644000000.0 260096000000.0 239044000000.0 129603000000.0 6379270000.0 178022000000.0 284367000000.0 724575000000.0 499509000000.0 291409000000.0 147563000000.0 36480300000.0 52574700000.0 446897000000.0 521008000000.0 353930000000.0 164641000000.0 48076000000.0 76065900000.0 274592000000.0 431763000000.0 306695000000.0 300402000000.0 335423000000.0 401646000000.0 341500000000.0 115051000000.0 47439800000.0 36546400000.0 19963300000.0 102677000000.0 92365000000.0 400388000000.0 418112000000.0 393628000000.0 264872000000.0 187991000000.0 664317000000.0 412061000000.0 436411000000.0 363766000000.0 336269000000.0 320885000000.0 305332000000.0 286379000000.0 265832000000.0 127648000000.0 106639000000.0 189994000000.0 287467000000.0 349222000000.0 3496930000.0 160143000000.0 172987000000.0 239865000000.0 320862000000.0 117036000000.0 112260000000.0 124703000000.0 182847000000.0 228653000000.0 263230000000.0 292856000000.0 341907000000.0 492052000000.0 507495000000.0 512997000000.0 589248000000.0 325177000000.0 77562000000.0 253893000000.0 352899000000.0 361977000000.0 339688000000.0 318722000000.0 136366000000.0 92806700000.0 22362600000.0 7396480000.0 24402000000.0 73314500000.0 175170000000.0 201029000000.0 229326000000.0 257080000000.0 271898000000.0 271654000000.0 252648000000.0 180585000000.0 86554600000.0 461464000000.0 369119000000.0 317838000000.0 284211000000.0 240927000000.0 381105000000.0 225161000000.0 17884900000.0 132724000000.0 197083000000.0 218266000000.0 218845000000.0 211841000000.0 208606000000.0 212823000000.0 183783000000.0 195898000000.0 159363000000.0 224968000000.0 172499000000.0 35548500000.0 112351000000.0 222596000000.0 348241000000.0 99836100000.0 79728700000.0 13002500000.0 51324800000.0 104189000000.0 143978000000.0 169287000000.0 175106000000.0 151639000000.0 80728300000.0 70217800000.0 271679000000.0 397717000000.0 453578000000.0 325583000000.0 303455000000.0 237224000000.0 210336000000.0 256531000000.0 60251900000.0 188463000000.0 243858000000.0 243423000000.0 236684000000.0 236893000000.0 247273000000.0 279715000000.0 325416000000.0 323003000000.0 34643300000.0 11643100000.0 15369700000.0 87750500000.0 132002000000.0 150717000000.0 180412000000.0 187953000000.0 178506000000.0 158885000000.0 141115000000.0 44449800000.0 518927000000.0 347441000000.0 276833000000.0 192853000000.0 93854600000.0 105915000000.0 150568000000.0 88140800000.0 3874430000.0 90458800000.0 136127000000.0 150699000000.0 148056000000.0 144959000000.0 165572000000.0 239333000000.0 379212000000.0 274075000000.0 68291400000.0 137607000000.0 293548000000.0 413189000000.0 265582000000.0 248609000000.0 157800000000.0 1582860000.0 191805000000.0 406591000000.0 92173600000.0 67048700000.0 165019000000.0 60067900000.0 6332040000.0 61101200000.0 101252000000.0 127703000000.0 142341000000.0 142184000000.0 119834000000.0 66542300000.0 20736400000.0 91044600000.0 127159000000.0 170047000000.0 125513000000.0 167663000000.0 237617000000.0 261151000000.0 293032000000.0 434286000000.0 9104460000.0 123712000000.0 145331000000.0 155533000000.0 167977000000.0 186047000000.0 216131000000.0 251134000000.0 276828000000.0 143160000000.0 93807700000.0 13470800000.0 44501300000.0 54901700000.0 100582000000.0 102313000000.0 139520000000.0 148910000000.0 141792000000.0 125606000000.0 354005000000.0 352390000000.0 178918000000.0 61997900000.0 28112900000.0 99030700000.0 78219200000.0 60605400000.0 72118000000.0 122541000000.0 258624000000.0 589874000000.0 302317000000.0 269394000000.0 332811000000.0 458605000000.0 294995000000.0 282574000000.0 211219000000.0 123244000000.0 1452550000.0 61592100000.0 99482700000.0 118795000000.0 129532000000.0 183957000000.0 262105000000.0 379018000000.0 409158000000.0 115835000000.0 137500000000.0 160936000000.0 191711000000.0 221871000000.0 147116000000.0 85561400000.0 59497800000.0 7109050000.0 11125000000.0 21677400000.0 28531700000.0 78299400000.0 116581000000.0 148956000000.0 61308400000.0 33995600000.0 2319830000.0 17373800000.0 54055900000.0 91820900000.0 107387000000.0 346262000000.0 110511000000.0 170552000000.0 389766000000.0 71495500000.0 123959000000.0 387573000000.0 39345100000.0 3482120000.0 28296200000.0 93327200000.0 132421000000.0 123272000000.0 98494700000.0 59614500000.0 28105600000.0 30386100000.0 36923100000.0 51589600000.0 21796800000.0 80759300000.0 85662500000.0 95000600000.0 97878900000.0 135257000000.0 65306000000.0 49344600000.0 21567700000.0 4774100000.0 4904860000.0 12588400000.0 90622800000.0 123738000000.0 139169000000.0 142207000000.0 156270000000.0 231431000000.0 192630000000.0 193165000000.0 202259000000.0 1413180000.0 113195000000.0 143416000000.0 137358000000.0 124788000000.0 108357000000.0 94736800000.0 98331500000.0 108227000000.0 92622900000.0 56264200000.0 18189100000.0 6149320000.0 53765500000.0 116108000000.0 307320000000.0 276471000000.0 213793000000.0 98785300000.0 75951500000.0 315367000000.0 106698000000.0 83515300000.0 30170800000.0 78596200000.0 30205800000.0 81810700000.0 100880000000.0 110615000000.0 120486000000.0 125916000000.0 125050000000.0 120294000000.0 122205000000.0 127514000000.0 154903000000.0 169759000000.0 169778000000.0 82943000000.0 49293200000.0 160816000000.0 265229000000.0 291919000000.0 263894000000.0 165610000000.0 109151000000.0 106120000000.0 119843000000.0 125666000000.0 139417000000.0 162999000000.0 38311500000.0 13804400000.0 14898600000.0 49173400000.0 93797100000.0 108318000000.0 118630000000.0 172228000000.0 185341000000.0 240764000000.0 62944100000.0 23759600000.0 89481700000.0 28754400000.0 136133000000.0 210814000000.0 197619000000.0 205422000000.0 211601000000.0 165426000000.0 139988000000.0 138546000000.0 134423000000.0 87142700000.0 24360000000.0 19752900000.0 68627800000.0 31888500000.0 194148000000.0 322234000000.0 428424000000.0 448806000000.0 396694000000.0 344749000000.0 251999000000.0 151986000000.0 80404000000.0 48501600000.0 248254000000.0 104169000000.0 56047000000.0 6281090000.0 38641400000.0 1235220000.0 135229000000.0 7571610000.0 50967300000.0 70724000000.0 91037400000.0 109961000000.0 127026000000.0 141766000000.0 166927000000.0 202159000000.0 211972000000.0 241048000000.0 243263000000.0 206418000000.0 84699400000.0 58598800000.0 143723000000.0 211929000000.0 151505000000.0 148697000000.0 204641000000.0 149748000000.0 150490000000.0 124684000000.0 110308000000.0 119306000000.0 129164000000.0 61829900000.0 44229700000.0 15349700000.0 50381200000.0 88900900000.0 99834000000.0 96419100000.0 84379100000.0 43711000000.0 63968800000.0 212642000000.0 233166000000.0 23953500000.0 10004300000.0 16609900000.0 46192800000.0 57448600000.0 137436000000.0 162036000000.0 160423000000.0 169130000000.0 178845000000.0 97911500000.0 38101300000.0 2662320000.0 59808800000.0 193801000000.0 31899700000.0 50684600000.0 150690000000.0 68745400000.0 33535800000.0 58695800000.0 50824300000.0 196871000000.0 92021300000.0 52033400000.0 3826660000.0 61009100000.0 85471700000.0 78857100000.0 178672000000.0 52213000000.0 8375320000.0 41255700000.0 67846500000.0 103135000000.0 35715400000.0 48204200000.0 132241000000.0 135888000000.0 97889000000.0 76542700000.0 231941000000.0 227731000000.0 158625000000.0 101178000000.0 87341400000.0 97670700000.0 51087200000.0 6679250000.0 30608800000.0 27910200000.0 12498200000.0 23601200000.0 70954800000.0 75702400000.0 202313000000.0 199527000000.0 169494000000.0 174336000000.0 28526900000.0 221641000000.0 123000000000.0 151951000000.0 184841000000.0 191978000000.0 179911000000.0 191390000000.0 196113000000.0 158291000000.0 44951900000.0 9035750000.0 9035750000.0 9035750000.0 34774400000.0 12766600000.0 37084000000.0 65282100000.0 166086000000.0 330607000000.0 2139260000.0 7305530000.0 31343800000.0 66557500000.0 37022100000.0 36242500000.0 95502400000.0 98400200000.0 140774000000.0 158066000000.0 152953000000.0 159870000000.0 167227000000.0 157982000000.0 171029000000.0 81162600000.0 50031900000.0 10220000000.0 100054000000.0 143540000000.0 346482000000.0 419479000000.0 248745000000.0 227284000000.0 163305000000.0 53052300000.0 8992970000.0 96045000000.0 68505700000.0 48518400000.0 4483140000.0 53533600000.0 98039500000.0 134033000000.0 152113000000.0 221110000000.0 117038000000.0 48812000000.0 8668260000.0 56912900000.0 77660700000.0 107280000000.0 139348000000.0 154877000000.0 142101000000.0 127882000000.0 129290000000.0 137881000000.0 75560200000.0 49250900000.0 3043600000.0 12298000000.0 465605000.0 10215600000.0 1293790000.0 283980000000.0 229674000000.0 151655000000.0 114766000000.0 99423800000.0 96580500000.0 13393200000.0 57743800000.0 90163100000.0 61390600000.0 54406900000.0 53356100000.0 22458800000.0 101576000000.0 324802000000.0 22725700000.0 81220900000.0 131037000000.0 172870000000.0 169415000000.0 138173000000.0 85432300000.0 34164500000.0 17334600000.0 104105000000.0 137041000000.0 150344000000.0 158921000000.0 172103000000.0 163388000000.0 182359000000.0 77044000000.0 95796700000.0 60510500000.0 184973000000.0 19040900000.0 28037900000.0 141809000000.0 1354570000.0 163390000000.0 4348580000.0 132537000000.0 1424580000.0 39634300000.0 29070100000.0 32600000000.0 91504900000.0 85769500000.0 154342000000.0 184203000000.0 302157000000.0 206771000000.0 162753000000.0 63950200000.0 2684330000.0 70695700000.0 103498000000.0 134225000000.0 121585000000.0 96312000000.0 78664000000.0 74192500000.0 17169100000.0 44325300000.0 106687000000.0 116537000000.0 89342500000.0 61805900000.0 33714800000.0 5418260000.0 189399000000.0 17411300000.0 183080000000.0 226030000000.0 214593000000.0 175579000000.0 197056000000.0 148565000000.0 83916000000.0 22250400000.0 74315900000.0 279694000000.0 148361000000.0 9035750000.0 9035750000.0 9151870000.0 68082900000.0 91062200000.0 101126000000.0 123336000000.0 182746000000.0 247722000000.0 101742000000.0 71368500000.0 43178900000.0 18590200000.0 26467200000.0 61827100000.0 80361900000.0 74672800000.0 53785100000.0 67043800000.0 83210500000.0 67935100000.0 43358200000.0 26906700000.0 15047200000.0 24116600000.0 129058000000.0 117044000000.0 154396000000.0 80072000000.0 76466800000.0 249819000000.0 239872000000.0 52826500000.0 183676000000.0 29548700000.0 136933000000.0 80283600000.0 103862000000.0 56248600000.0 78443700000.0 29506900000.0 68937200000.0 20973100000.0 88560800000.0 73428700000.0 97324600000.0 69317400000.0 67555500000.0 35171700000.0 9524140000.0 44334200000.0 67796300000.0 65920900000.0 54722100000.0 57804500000.0 48471800000.0 52562200000.0 2760400000.0 35227600000.0 68363000000.0 102380000000.0 137896000000.0 173725000000.0 118927000000.0 158511000000.0 111792000000.0 73649000000.0 58200900000.0 70700400000.0 9400560000.0 9035800000.0 9035750000.0 9035750000.0 6120870000.0 156660000.0 6144180000.0 38526400000.0 58576300000.0 64790400000.0 80946900000.0 154496000000.0 295821000000.0 11648600000.0 12396800000.0 10150100000.0 4986610000.0 28592500000.0 55927100000.0 82558200000.0 100653000000.0 92627000000.0 92510100000.0 132597000000.0 146672000000.0 150204000000.0 162993000000.0 146803000000.0 154087000000.0 94869900000.0 91245000000.0 40845000000.0 452262000.0 101574000000.0 53212700000.0 68863900000.0 78462200000.0 59086600000.0 33036900000.0 83035900000.0 36117400000.0 69182500000.0 13179400000.0 22339300000.0 31830200000.0 7777320000.0 55488200000.0 12111600000.0 86724900000.0 18081700000.0 26672900000.0 32279800000.0 70341200000.0 67501800000.0 79083500000.0 61907200000.0 56992100000.0 15760400000.0 27265600000.0 50265300000.0 45347100000.0 49808900000.0 41965700000.0 66031400000.0 55063000000.0 40319200000.0 25223200000.0 11687700000.0 5097820000.0 256901000000.0 157117000000.0 51445500000.0 10400000000.0 2352980000.0 21347400000.0 16144000000.0 8731250000.0 1298650000.0 5643060000.0 9036050000.0 9035770000.0 9194120000.0 51874800000.0 76606100000.0 84413500000.0 98043500000.0 156174000000.0 260098000000.0 5519280000.0 4594170000.0 1052840000.0 6195040000.0 13497000000.0 36100900000.0 56762500000.0 74191300000.0 62035700000.0 49930400000.0 71020300000.0 79638200000.0 76413300000.0 83772100000.0 64928500000.0 66256200000.0 29704900000.0 22207600000.0 21529800000.0 53198500000.0 81768600000.0 103597000000.0 59646200000.0 5515330000.0 30192600000.0 96276800000.0 9656340000.0 108063000000.0 12529500000.0 37648800000.0 19947300000.0 65042600000.0 36191200000.0 81428600000.0 35053300000.0 108197000000.0 1671690000.0 24652900000.0 19500100000.0 51725200000.0 48079300000.0 74002100000.0 80792500000.0 108455000000.0 101903000000.0 77944800000.0 58987000000.0 59927100000.0 51978900000.0 48297600000.0 13595700000.0 8886840000.0 6384070000.0 5939470000.0 1791850000.0 6942550000.0 242459000000.0 185493000000.0 96657400000.0 50505400000.0 36415200000.0 42314500000.0 10408000000.0 9079810000.0 9035770000.0 9042020000.0 9036470000.0 9035810000.0 9460630000.0 45058100000.0 68564600000.0 74837400000.0 85148600000.0 135306000000.0 226633000000.0 19505300000.0 19244100000.0 16833100000.0 10861900000.0 29836700000.0 53400700000.0 75386300000.0 98017900000.0 91178000000.0 84112000000.0 96295700000.0 106704000000.0 104427000000.0 112524000000.0 97008200000.0 97528900000.0 81504200000.0 73834900000.0 45215100000.0 9847770000.0 127699000000.0 67293400000.0 7721520000.0 37513200000.0 401775000.0 42710300000.0 20039500000.0 71145500000.0 11863200000.0 13319900000.0 5592450000.0 53896300000.0 32565700000.0 79417300000.0 37746300000.0 105225000000.0 7479800000.0 33555700000.0 35617000000.0 70045100000.0 67328600000.0 92562400000.0 94024200000.0 112811000000.0 99722000000.0 73891300000.0 54700600000.0 53706200000.0 47123400000.0 41506900000.0 11545200000.0 9709310000.0 9278590000.0 12183800000.0 9703770000.0 22179900000.0 220099000000.0 166871000000.0 82938800000.0 39825600000.0 29954800000.0 32716700000.0 11035700000.0 9156200000.0 9035800000.0 9042180000.0 9036690000.0 9035840000.0 9672550000.0 38931100000.0 60548200000.0 65536100000.0 72737900000.0 114163000000.0 189784000000.0 22465400000.0 20027300000.0 15782700000.0 8880430000.0 23405400000.0 44234000000.0 63705400000.0 85913900000.0 79680600000.0 73212600000.0 74780600000.0 82450900000.0 77558000000.0 83204300000.0 68029400000.0 66540900000.0 59030700000.0 53226200000.0 30322000000.0 7469470000.0 125004000000.0 100740000000.0 64962500000.0 9380690000.0 41717100000.0 63120100000.0 15735800000.0 90207100000.0 15534700000.0 29010100000.0 19400300000.0 61005500000.0 39425900000.0 81826600000.0 41899100000.0 100489000000.0 9344080000.0 30766700000.0 33079700000.0 65968700000.0 62806100000.0 88783300000.0 91036900000.0 109727000000.0 100070000000.0 77957500000.0 59928800000.0 56948800000.0 51212500000.0 43473100000.0 16409900000.0 14168100000.0 12645200000.0 15464300000.0 11269700000.0 26754500000.0 189677000000.0 145438000000.0 69827100000.0 31759700000.0 25288500000.0 25823600000.0 11440900000.0 9223580000.0 9035830000.0 9041660000.0 9036750000.0 9035870000.0 9812860000.0 33465900000.0 52974600000.0 56928900000.0 61470600000.0 95211600000.0 157070000000.0 25146200000.0 21891800000.0 17441400000.0 11698800000.0 23726000000.0 43606100000.0 62338200000.0 84409800000.0 79853500000.0 75697300000.0 72271100000.0 78851000000.0 73908900000.0 78895700000.0 66437800000.0 65616400000.0 64374600000.0 60310400000.0 45430100000.0 9231700000.0 117856000000.0 80018600000.0 51640900000.0 2798240000.0 34969900000.0 50294400000.0 16166300000.0 82344900000.0 14370700000.0 25740900000.0 17524400000.0 55607800000.0 36483400000.0 76154800000.0 39590800000.0 91033600000.0 9352680000.0 27458100000.0 30386600000.0 61624000000.0 58604800000.0 84035900000.0 85736500000.0 102033000000.0 93471300000.0 74016300000.0 57217100000.0 53152300000.0 48756400000.0 40342600000.0 17191600000.0 15210500000.0 13466300000.0 16719900000.0 11778000000.0 29818000000.0 160486000000.0 124076000000.0 57722500000.0 25408200000.0 21758500000.0 21138800000.0 11625700000.0 9277550000.0 9035850000.0 9040840000.0 9036720000.0 9035880000.0 9886210000.0 28729900000.0 46004900000.0 49142800000.0 51588500000.0 78616400000.0 128521000000.0 26428600000.0 21752200000.0 16741300000.0 11725100000.0 20795400000.0 38723700000.0 55716300000.0 76086300000.0 72492300000.0 69589700000.0 63675800000.0 67949500000.0 62445800000.0 66115000000.0 55575200000.0 54854200000.0 55438900000.0 52907100000.0 42522400000.0 6831850000.0 108589000000.0 81629400000.0 57792900000.0 9035760000.0 33247200000.0 39771700000.0 15242800000.0 72962100000.0 13341500000.0 23246200000.0 15950600000.0 49851200000.0 33119100000.0 69335300000.0 36565000000.0 80880000000.0 9351110000.0 24278900000.0 27351200000.0 56003200000.0 53127500000.0 77225500000.0 78507200000.0 92759400000.0 85524600000.0 68750500000.0 53421800000.0 48777000000.0 45528100000.0 36985300000.0 17763900000.0 15837200000.0 13975700000.0 17459700000.0 12090600000.0 31518000000.0 133542000000.0 103823000000.0 47277100000.0 20773300000.0 19242800000.0 18244100000.0 11575800000.0 9313530000.0 9035860000.0 9039950000.0 9036660000.0 9035890000.0 9898810000.0 24701700000.0 39663900000.0 42147300000.0 43018400000.0 64271700000.0 103940000000.0 26603100000.0 20851800000.0 15729500000.0 11509700000.0 18146600000.0 33997600000.0 49112500000.0 67256500000.0 64505300000.0 62513500000.0 56458900000.0 58482000000.0 52851200000.0 55438200000.0 46788700000.0 46211200000.0 47158000000.0 45780500000.0 39060700000.0 9035820000.0 72358500000.0 51706900000.0 9035770000.0 29489300000.0 31417200000.0 14323700000.0 63538600000.0 12462200000.0 21217000000.0 14668800000.0 44026100000.0 29619500000.0 61785400000.0 33063600000.0 70464100000.0 9339520000.0 21362300000.0 24304800000.0 49875500000.0 47341600000.0 69388400000.0 70282300000.0 82445100000.0 76347200000.0 62163700000.0 48519700000.0 43778700000.0 41512800000.0 33411000000.0 17959300000.0 16033700000.0 14159300000.0 17662800000.0 12205300000.0 31827800000.0 109326000000.0 85320600000.0 38547500000.0 17473500000.0 17552800000.0 16500700000.0 11334800000.0 9328510000.0 9035870000.0 9039130000.0 98016900000.0 9036560000.0 9035890000.0 9857560000.0 21293700000.0 33909500000.0 35858200000.0 35659300000.0 52012900000.0 82970200000.0 25725200000.0 19445300000.0 14591200000.0 11137000000.0 15859200000.0 29488400000.0 42571600000.0 58175000000.0 56145800000.0 54806200000.0 49629000000.0 49951500000.0 44630200000.0 46373300000.0 39431100000.0 39093800000.0 39670000000.0 39085100000.0 35113800000.0 9035930000.0 84517400000.0 62692800000.0 45113000000.0 9035780000.0 26037100000.0 24903000000.0 13418100000.0 54331400000.0 11710600000.0 19431800000.0 13612000000.0 38257000000.0 26127800000.0 53808000000.0 29306200000.0 60109800000.0 9318730000.0 18753400000.0 21379300000.0 43507000000.0 41414300000.0 60828100000.0 61397000000.0 71511200000.0 66454200000.0 54756200000.0 42968600000.0 38499500000.0 36995300000.0 29722600000.0 17657600000.0 15801100000.0 14019000000.0 17337300000.0 12121600000.0 30787500000.0 87977000000.0 68909700000.0 31392400000.0 15190900000.0 16335800000.0 15255300000.0 10985600000.0 9322590000.0 9035870000.0 9038400000.0 9036450000.0 9035880000.0 9770020000.0 18399700000.0 28663700000.0 30165200000.0 65138000000.0 23925300000.0 17737400000.0 13441800000.0 10699000000.0 13958800000.0 25234200000.0 36141000000.0 49017100000.0 42023300000.0 37350600000.0 38436800000.0 33061300000.0 33001000000.0 32945900000.0 32857300000.0 30784700000.0 9036010000.0 52863900000.0 38369700000.0 9035790000.0 22761700000.0 19927100000.0 12549000000.0 45454400000.0 17719600000.0 12698900000.0 32605200000.0 22728600000.0 45623900000.0 25469200000.0 50028500000.0 9287360000.0 16459100000.0 18662000000.0 37073900000.0 35433800000.0 51781900000.0 52102000000.0 60227700000.0 56144300000.0 46808800000.0 37016600000.0 33090900000.0 32141800000.0 25965900000.0 16847400000.0 15163900000.0 13573600000.0 16524500000.0 11849400000.0 28517100000.0 69361100000.0 54618900000.0 15228200000.0 14127700000.0 10598700000.0 9297690000.0 9035860000.0 9037770000.0 29349300000.0 41588200000.0 47585000000.0 46721100000.0 42656400000.0 70991200000.0 11064700000.0 25595200000.0 13602800000.0 9036310000.0 9035860000.0 9644250000.0 15911200000.0 23834500000.0 24949700000.0 23904100000.0 32696600000.0 49900300000.0 21362200000.0 15866700000.0 12342500000.0 10262300000.0 12426700000.0 21248400000.0 29851000000.0 39894100000.0 38934600000.0 38412200000.0 35410700000.0 34470300000.0 30665100000.0 31265500000.0 27325800000.0 27456200000.0 26882800000.0 27055100000.0 26166300000.0 9036030000.0 57292200000.0 43000200000.0 31642300000.0 9035790000.0 19610300000.0 16212700000.0 11721200000.0 36902400000.0 10508300000.0 15962600000.0 11860700000.0 27101300000.0 19461100000.0 37372500000.0 21660200000.0 40313000000.0 9244860000.0 14460400000.0 16185600000.0 30670900000.0 29452100000.0 42422000000.0 42571400000.0 48778300000.0 45627300000.0 38532600000.0 30842300000.0 27649800000.0 27081200000.0 22170700000.0 15583500000.0 14172400000.0 12856400000.0 15291400000.0 11408000000.0 25205600000.0 53162200000.0 42249700000.0 20886600000.0 12401100000.0 14030900000.0 12994200000.0 10214900000.0 9256470000.0 9035840000.0 9037230000.0 9036160000.0 9035840000.0 9488730000.0 13723400000.0 18204600000.0 13917300000.0 9861480000.0 22110900000.0 21595000000.0 9036010000.0 33146800000.0 9035780000.0 13472200000.0 28625800000.0 14093000000.0 21746700000.0 16329100000.0 29129100000.0 17925300000.0 30961000000.0 9192250000.0 12710600000.0 13935400000.0 24336300000.0 23500000000.0 32867300000.0 38945900000.0 31471500000.0 11846100000.0 9850910000.0 9202080000.0 9035820000.0 9036760000.0 19327400000.0 20096200000.0 19131900000.0 25007400000.0 36677800000.0 11315600000.0 11209600000.0 17512200000.0 23704400000.0 30860800000.0 30263000000.0 29973200000.0 27929600000.0 27093100000.0 24299900000.0 24586500000.0 21921800000.0 21345700000.0 21338500000.0 43409600000.0 24997700000.0 16528400000.0 10924900000.0 10027300000.0 11049000000.0 32916900000.0 37273000000.0 35035200000.0 30074800000.0 24562500000.0 22225800000.0 21906400000.0 18362100000.0 13951500000.0 12893200000.0 11914500000.0 13721000000.0 10825500000.0 21081900000.0 16966500000.0 11371400000.0 12696600000.0 9036000000.0 9035800000.0 9312090000.0 11738900000.0 15047900000.0 15494900000.0 14837300000.0 18175300000.0 24879800000.0 14626200000.0 11935200000.0 10356800000.0 9504260000.0 10230400000.0 13976600000.0 17677700000.0 21924200000.0 21603200000.0 21463700000.0 20288300000.0 19749800000.0 18062300000.0 18177300000.0 16648400000.0 16794700000.0 16186000000.0 16382000000.0 16373300000.0 9035940000.0 29433500000.0 23312300000.0 18449200000.0 9035770000.0 13471900000.0 11411500000.0 10148300000.0 20559400000.0 9602450000.0 12094200000.0 10235200000.0 16515900000.0 13310300000.0 20921500000.0 14268000000.0 21906300000.0 9131690000.0 11143400000.0 11865400000.0 18071300000.0 17586900000.0 23196500000.0 23202800000.0 25762900000.0 24434800000.0 21527200000.0 18242700000.0 16834100000.0 16676400000.0 14556600000.0 12051200000.0 11402800000.0 10805900000.0 11905600000.0 10137400000.0 16386900000.0 26193200000.0 21872500000.0 13555800000.0 10405900000.0 11248900000.0 10697300000.0 9508850000.0 9138020000.0 9035800000.0 9036330000.0 9035810000.0 13491900000.0 9035760000.0 9746110000.0 12622100000.0 13040200000.0 9685030000.0 9035830000.0 9035770000.0 9122990000.0 9870180000.0 10902100000.0 11040500000.0 10824600000.0 11849700000.0 13917900000.0 10800500000.0 9941830000.0 9444600000.0 9179560000.0 9397300000.0 10568500000.0 11727900000.0 13054900000.0 12958600000.0 12919000000.0 12556100000.0 12383300000.0 11852100000.0 11880500000.0 11410400000.0 11460000000.0 11250000000.0 11317100000.0 11332100000.0 15407800000.0 11969500000.0 10419900000.0 9382350000.0 9210140000.0 9998040000.0 9410940000.0 11364400000.0 10364400000.0 12744400000.0 10664800000.0 9066090000.0 9910260000.0 11853000000.0 11703100000.0 13461900000.0 13461200000.0 14258300000.0 13843500000.0 12939200000.0 11911500000.0 11468300000.0 11423000000.0 10758600000.0 9989320000.0 9784440000.0 9596040000.0 9942970000.0 9384530000.0 11356600000.0 14324300000.0 12988300000.0 10423300000.0 9462300000.0 9732070000.0 9554170000.0 9182210000.0 9068120000.0 9035770000.0 9035930000.0 