# vtk DataFile Version 2.0
Time step 107
ASCII
DATASET UNSTRUCTURED_GRID
POINTS 4650 float
208897.0 249161.0 0
215550.0 248854.0 0
219479.0 249472.0 0
247340.0 248318.0 0
284533.0 249977.0 0
294610.0 248224.0 0
205443.0 251143.0 0
212331.0 251178.0 0
223050.0 251221.0 0
233562.0 252603.0 0
236964.0 250507.0 0
240484.0 252403.0 0
243905.0 250353.0 0
247392.0 252302.0 0
250824.0 250269.0 0
254285.0 252240.0 0
257737.0 250242.0 0
261185.0 252249.0 0
274433.0 251862.0 0
281112.0 252011.0 0
287784.0 252270.0 0
291177.0 250235.0 0
294587.0 252284.0 0
298003.0 250301.0 0
201998.0 253130.0 0
205447.0 255126.0 0
208893.0 253155.0 0
212352.0 255158.0 0
215782.0 253154.0 0
219728.0 253445.0 0
223274.0 255192.0 0
226637.0 252939.0 0
230187.0 254737.0 0
237089.0 254485.0 0
243980.0 254336.0 0
250858.0 254258.0 0
257721.0 254231.0 0
265079.0 253080.0 0
271030.0 253927.0 0
277735.0 254082.0 0
284391.0 254266.0 0
291196.0 254278.0 0
298004.0 254292.0 0
201998.0 257103.0 0
208901.0 257123.0 0
215825.0 257137.0 0
219805.0 257418.0 0
226835.0 256911.0 0
233716.0 256581.0 0
240594.0 256384.0 0
247453.0 256282.0 0
254295.0 256231.0 0
261124.0 256229.0 0
267697.0 256067.0 0
274358.0 256111.0 0
281030.0 256275.0 0
287809.0 256266.0 0
294605.0 256276.0 0
205445.0 259081.0 0
212358.0 259114.0 0
223400.0 259143.0 0
230363.0 258708.0 0
233901.0 260535.0 0
237234.0 258451.0 0
240720.0 260353.0 0
244073.0 258311.0 0
247523.0 260258.0 0
250896.0 258241.0 0
254309.0 260220.0 0
257701.0 258223.0 0
261057.0 260249.0 0
264446.0 258284.0 0
267760.0 260314.0 0
271033.0 258189.0 0
274360.0 260293.0 0
277678.0 258273.0 0
281083.0 260263.0 0
284440.0 258262.0 0
287840.0 260251.0 0
291216.0 258263.0 0
294615.0 260253.0 0
298006.0 258273.0 0
201996.0 261052.0 0
205411.0 263014.0 0
208887.0 261067.0 0
212326.0 263057.0 0
215808.0 261100.0 0
219777.0 261370.0 0
223369.0 263074.0 0
226998.0 260856.0 0
230598.0 262633.0 0
237395.0 262410.0 0
244174.0 262281.0 0
250942.0 262222.0 0
257686.0 262221.0 0
264398.0 262277.0 0
271072.0 262325.0 0
277747.0 262268.0 0
284477.0 262244.0 0
291234.0 262236.0 0
298007.0 262240.0 0
201993.0 264996.0 0
208780.0 264986.0 0
215771.0 265035.0 0
219728.0 265307.0 0
227356.0 264753.0 0
234103.0 264482.0 0
240852.0 264317.0 0
247598.0 264230.0 0
254332.0 264206.0 0
261043.0 264239.0 0
267735.0 264297.0 0
274426.0 264287.0 0
281126.0 264244.0 0
287863.0 264222.0 0
294623.0 264215.0 0
205363.0 266957.0 0
212081.0 266965.0 0
224185.0 266882.0 0
230856.0 266574.0 0
234302.0 268435.0 0
237559.0 266366.0 0
240980.0 268276.0 0
244277.0 266247.0 0
247675.0 268198.0 0
250995.0 266198.0 0
254369.0 268183.0 0
257700.0 266207.0 0
261055.0 268217.0 0
264392.0 266257.0 0
267745.0 268260.0 0
271088.0 266289.0 0
274445.0 268252.0 0
277787.0 266249.0 0
281151.0 268210.0 0
284503.0 266213.0 0
287878.0 268175.0 0
291247.0 266193.0 0
294628.0 268160.0 0
298007.0 266191.0 0
201991.0 268943.0 0
205323.0 270912.0 0
208682.0 268939.0 0
211958.0 270925.0 0
215327.0 268911.0 0
221072.0 268973.0 0
224509.0 270818.0 0
227659.0 268690.0 0
231084.0 270527.0 0
237712.0 270322.0 0
244374.0 270207.0 0
251051.0 270165.0 0
257727.0 270179.0 0
264407.0 270221.0 0
271099.0 270240.0 0
277801.0 270207.0 0
284516.0 270163.0 0
291254.0 270132.0 0
298008.0 270123.0 0
201988.0 272889.0 0
208618.0 272907.0 0
215029.0 273129.0 0
218191.0 271242.0 0
221465.0 273012.0 0
227905.0 272642.0 0
234474.0 272390.0 0
241094.0 272231.0 0
247746.0 272155.0 0
254409.0 272147.0 0
261078.0 272178.0 0
267757.0 272211.0 0
274452.0 272200.0 0
281158.0 272154.0 0
287885.0 272109.0 0
294631.0 272084.0 0
205295.0 274864.0 0
211812.0 275000.0 0
218305.0 275112.0 0
224777.0 274792.0 0
231268.0 274482.0 0
237838.0 274274.0 0
241182.0 276175.0 0
244456.0 274157.0 0
247803.0 276100.0 0
251101.0 274120.0 0
254445.0 276096.0 0
257757.0 274136.0 0
261098.0 276126.0 0
264424.0 274171.0 0
267766.0 276151.0 0
271106.0 274182.0 0
274451.0 276133.0 0
277803.0 274146.0 0
281157.0 276079.0 0
284519.0 274092.0 0
287885.0 276021.0 0
291257.0 274050.0 0
294631.0 275987.0 0
298009.0 274034.0 0
201987.0 276824.0 0
205283.0 278807.0 0
208559.0 276888.0 0
215092.0 277042.0 0
221620.0 276935.0 0
224928.0 278729.0 0
228095.0 276600.0 0
231402.0 278431.0 0
234606.0 276340.0 0
237926.0 278215.0 0
244514.0 278091.0 0
251138.0 278058.0 0
257779.0 278078.0 0
264434.0 278110.0 0
271105.0 278113.0 0
277798.0 278067.0 0
284515.0 277999.0 0
291255.0 277944.0 0
298009.0 277923.0 0
201986.0 280736.0 0
208594.0 280809.0 0
211858.0 278928.0 0
215211.0 280928.0 0
218427.0 278989.0 0
221764.0 280850.0 0
228219.0 280539.0 0
234688.0 280281.0 0
241235.0 280103.0 0
247837.0 280026.0 0
254465.0 280028.0 0
261108.0 280061.0 0
267766.0 280081.0 0
274444.0 280053.0 0
281148.0 279983.0 0
287880.0 279909.0 0
294631.0 279865.0 0
205304.0 282704.0 0
211947.0 282805.0 0
218606.0 282876.0 0
225071.0 282651.0 0
231467.0 282372.0 0
237968.0 282139.0 0
241245.0 284008.0 0
244539.0 282005.0 0
247840.0 283930.0 0
251153.0 281978.0 0
254463.0 283942.0 0
257785.0 282004.0 0
261102.0 283980.0 0
264433.0 282037.0 0
267756.0 284000.0 0
271097.0 282033.0 0
274429.0 283959.0 0
277786.0 281971.0 0
281136.0 283865.0 0
284506.0 281882.0 0
287875.0 283771.0 0
291253.0 281813.0 0
294630.0 283717.0 0
298010.0 281787.0 0
201987.0 284607.0 0
205332.0 286550.0 0
208653.0 284674.0 0
212040.0 286633.0 0
215345.0 284773.0 0
222042.0 284788.0 0
228264.0 284487.0 0
231476.0 286293.0 0
234714.0 284202.0 0
237958.0 286039.0 0
244523.0 285890.0 0
251136.0 285875.0 0
257769.0 285912.0 0
264418.0 285950.0 0
271080.0 285941.0 0
277769.0 285856.0 0
284498.0 285740.0 0
291251.0 285655.0 0
298010.0 285627.0 0
201987.0 288432.0 0
208707.0 288488.0 0
215462.0 288574.0 0
218782.0 286709.0 0
222261.0 288613.0 0
225894.0 287440.0 0
234683.0 288102.0 0
241202.0 287884.0 0
247801.0 287806.0 0
254428.0 287834.0 0
261075.0 287882.0 0
267734.0 287906.0 0
274409.0 287850.0 0
281123.0 287724.0 0
287872.0 287605.0 0
294632.0 287544.0 0
205354.0 290348.0 0
212112.0 290416.0 0
218911.0 290495.0 0
225994.0 291326.0 0
229330.0 289408.0 0
232767.0 291360.0 0
237889.0 289912.0 0
241088.0 291730.0 0
244451.0 289735.0 0
247705.0 291648.0 0
251076.0 289747.0 0
254352.0 291700.0 0
257722.0 289798.0 0
261023.0 291761.0 0
264385.0 289847.0 0
267699.0 291799.0 0
271054.0 289838.0 0
274385.0 291723.0 0
277752.0 289720.0 0
281119.0 291555.0 0
284495.0 289570.0 0
287882.0 291410.0 0
291256.0 289470.0 0
294640.0 291347.0 0
298011.0 289444.0 0
201988.0 292218.0 0
205365.0 294107.0 0
208744.0 292257.0 0
212149.0 294162.0 0
215538.0 292336.0 0
218965.0 294261.0 0
222349.0 292426.0 0
229412.0 293284.0 0
236217.0 293291.0 0
244296.0 293522.0 0
250958.0 293588.0 0
257642.0 293654.0 0
264332.0 293723.0 0
271019.0 293724.0 0
277743.0 293559.0 0
284510.0 293368.0 0
291275.0 293259.0 0
298012.0 293241.0 0
201987.0 295971.0 0
208751.0 295992.0 0
215558.0 296070.0 0
222384.0 296204.0 0
226058.0 295201.0 0
232840.0 295211.0 0
239676.0 295219.0 0
247519.0 295450.0 0
254238.0 295529.0 0
260941.0 295612.0 0
267647.0 295676.0 0
274363.0 295572.0 0
281137.0 295352.0 0
287919.0 295184.0 0
291326.0 297026.0 0
294660.0 295129.0 0
298014.0 297027.0 0
205356.0 297837.0 0
212137.0 297877.0 0
218965.0 297997.0 0
226097.0 299074.0 0
229468.0 297144.0 0
232903.0 299039.0 0
236285.0 297115.0 0
240506.0 298918.0 0
243950.0 297185.0 0
247322.0 299173.0 0
250804.0 297380.0 0
254098.0 299322.0 0
257528.0 297477.0 0
260816.0 299434.0 0
264246.0 297574.0 0
267557.0 299532.0 0
270975.0 297602.0 0
274360.0 299378.0 0
277759.0 297362.0 0
281210.0 299104.0 0
284566.0 297128.0 0
288019.0 298929.0 0
294693.0 298905.0 0
201986.0 299705.0 0
205329.0 301556.0 0
208713.0 299701.0 0
212045.0 301562.0 0
215521.0 299772.0 0
218907.0 301700.0 0
222372.0 299940.0 0
229519.0 300984.0 0
237143.0 300781.0 0
243891.0 300940.0 0
250655.0 301136.0 0
257383.0 301275.0 0
264090.0 301396.0 0
270887.0 301471.0 0
277823.0 301115.0 0
284750.0 300837.0 0
291405.0 300791.0 0
298017.0 300811.0 0
201984.0 303432.0 0
208643.0 303408.0 0
215332.0 303421.0 0
222341.0 303626.0 0
226139.0 302946.0 0
230597.0 304592.0 0
233839.0 302677.0 0
237231.0 304594.0 0
240531.0 302732.0 0
243875.0 304724.0 0
247239.0 302929.0 0
250546.0 304904.0 0
253952.0 303096.0 0
260644.0 303240.0 0
267335.0 303351.0 0
274371.0 303111.0 0
278517.0 304688.0 0
281563.0 302758.0 0
284979.0 304591.0 0
288161.0 302685.0 0
291493.0 304573.0 0
294735.0 302686.0 0
298019.0 304600.0 0
201981.0 307157.0 0
205293.0 305277.0 0
208567.0 307130.0 0
211915.0 305264.0 0
215121.0 307135.0 0
218509.0 305297.0 0
221564.0 307139.0 0
227435.0 306539.0 0
233987.0 306491.0 0
240570.0 306548.0 0
247183.0 306709.0 0
253811.0 306879.0 0
257213.0 305065.0 0
260427.0 307050.0 0
263865.0 305221.0 0
267025.0 307202.0 0
270521.0 305289.0 0
275552.0 306532.0 0
281875.0 306520.0 0
288299.0 306473.0 0
294775.0 306478.0 0
205260.0 309004.0 0
211799.0 308997.0 0
218273.0 309022.0 0
224607.0 308789.0 0
230811.0 308425.0 0
237317.0 308418.0 0
243868.0 308525.0 0
250449.0 308690.0 0
257024.0 308865.0 0
263569.0 309073.0 0
269534.0 309811.0 0
272596.0 308239.0 0
278808.0 308442.0 0
285153.0 308391.0 0
291567.0 308371.0 0
298022.0 308392.0 0
201979.0 310882.0 0
208507.0 310863.0 0
214997.0 310877.0 0
221441.0 310858.0 0
224651.0 312577.0 0
227784.0 310484.0 0
230995.0 312309.0 0
234119.0 310329.0 0
237386.0 312252.0 0
240604.0 310369.0 0
243856.0 312338.0 0
247131.0 310506.0 0
250354.0 312494.0 0
253668.0 310679.0 0
256830.0 312691.0 0
260168.0 310881.0 0
266379.0 311378.0 0
272573.0 312005.0 0
275723.0 310289.0 0
278897.0 312213.0 0
282033.0 310317.0 0
285239.0 312198.0 0
288394.0 310280.0 0
291614.0 312175.0 0
294805.0 310276.0 0
298023.0 312183.0 0
201978.0 314600.0 0
205236.0 312731.0 0
208473.0 314591.0 0
211731.0 312734.0 0
214952.0 314603.0 0
218200.0 312747.0 0
221431.0 314561.0 0
227853.0 314325.0 0
234214.0 314182.0 0
240622.0 314195.0 0
247076.0 314317.0 0
253531.0 314499.0 0
259905.0 314766.0 0
263153.0 313019.0 0
266171.0 315235.0 0
269380.0 313624.0 0
275714.0 314027.0 0
282076.0 314103.0 0
288436.0 314082.0 0
294821.0 314071.0 0
205222.0 316449.0 0
211704.0 316453.0 0
218185.0 316450.0 0
224655.0 316326.0 0
231049.0 316144.0 0
237424.0 316087.0 0
243833.0 316155.0 0
250261.0 316310.0 0
256653.0 316541.0 0
262963.0 316900.0 0
269271.0 317397.0 0
272496.0 315743.0 0
275657.0 317753.0 0
278882.0 315963.0 0
282054.0 317863.0 0
285255.0 315985.0 0
288436.0 317863.0 0
291630.0 315967.0 0
294824.0 317849.0 0
298024.0 315964.0 0
201977.0 318306.0 0
205217.0 320149.0 0
208459.0 318302.0 0
211695.0 320152.0 0
214939.0 318307.0 0
218176.0 320142.0 0
221421.0 318263.0 0
224642.0 320056.0 0
227860.0 318111.0 0
231049.0 319940.0 0
234240.0 318007.0 0
237421.0 319903.0 0
240619.0 318017.0 0
243795.0 319969.0 0
247017.0 318131.0 0
250173.0 320127.0 0
253407.0 318328.0 0
256528.0 320376.0 0
259748.0 318624.0 0
266057.0 319049.0 0
272421.0 319475.0 0
278829.0 319697.0 0
285229.0 319746.0 0
291623.0 319736.0 0
298025.0 319725.0 0
201976.0 321994.0 0
208454.0 321993.0 0
214932.0 321994.0 0
221405.0 321959.0 0
227842.0 321866.0 0
234226.0 321803.0 0
240589.0 321825.0 0
246952.0 321941.0 0
253307.0 322146.0 0
259643.0 322448.0 0
262850.0 320732.0 0
265978.0 322837.0 0
269193.0 321159.0 0
272354.0 323209.0 0
275590.0 321477.0 0
282004.0 321602.0 0
288410.0 321617.0 0
294818.0 321603.0 0
201976.0 325663.0 0
205215.0 323829.0 0
208451.0 325664.0 0
211691.0 323833.0 0
214923.0 325667.0 0
218164.0 323825.0 0
221384.0 325648.0 0
224618.0 323772.0 0
227810.0 325599.0 0
231024.0 323706.0 0
234190.0 325574.0 0
237390.0 323696.0 0
240541.0 325614.0 0
243742.0 323770.0 0
246881.0 325735.0 0
250091.0 323932.0 0
256433.0 324186.0 0
262770.0 324529.0 0
269129.0 324912.0 0
275525.0 325200.0 0
278766.0 323421.0 0
281944.0 325324.0 0
285183.0 323482.0 0
288372.0 325342.0 0
291601.0 323477.0 0
294805.0 325327.0 0
298025.0 323460.0 0
205213.0 327489.0 0
211685.0 327496.0 0
218148.0 327497.0 0
224588.0 327474.0 0
230984.0 327449.0 0
237341.0 327467.0 0
243677.0 327553.0 0
250009.0 327717.0 0
253220.0 325943.0 0
256348.0 327967.0 0
259561.0 326240.0 0
262699.0 328298.0 0
265913.0 326605.0 0
272292.0 326944.0 0
278700.0 327139.0 0
285130.0 327195.0 0
291573.0 327187.0 0
298025.0 327166.0 0
201975.0 329312.0 0
208447.0 329315.0 0
214912.0 329326.0 0
221360.0 329326.0 0
227772.0 329314.0 0
234141.0 329323.0 0
240478.0 329383.0 0
246802.0 329509.0 0
253132.0 329714.0 0
259480.0 330001.0 0
265849.0 330354.0 0
269069.0 328659.0 0
272230.0 330679.0 0
275461.0 328925.0 0
278634.0 330852.0 0
281882.0 329033.0 0
285076.0 330887.0 0
288329.0 329040.0 0
291544.0 330865.0 0
294791.0 329018.0 0
298024.0 330839.0 0
201974.0 332941.0 0
205211.0 331130.0 0
208443.0 332949.0 0
211677.0 331142.0 0
214900.0 332970.0 0
218130.0 331157.0 0
221334.0 332993.0 0
224555.0 331163.0 0
227730.0 333014.0 0
230938.0 331174.0 0
234085.0 333053.0 0
237281.0 331218.0 0
240405.0 333133.0 0
243601.0 331316.0 0
246711.0 333264.0 0
249918.0 331480.0 0
253029.0 333459.0 0
256255.0 331720.0 0
262622.0 332040.0 0
269005.0 332397.0 0
275394.0 332649.0 0
281820.0 332727.0 0
288287.0 332711.0 0
294776.0 332676.0 0
205208.0 334750.0 0
211669.0 334771.0 0
218111.0 334804.0 0
224520.0 334839.0 0
230887.0 334882.0 0
237214.0 334952.0 0
243513.0 335063.0 0
249810.0 335221.0 0
256139.0 335443.0 0
259384.0 333732.0 0
262522.0 335750.0 0
265773.0 334081.0 0
268930.0 336123.0 0
272163.0 334412.0 0
278568.0 334558.0 0
285024.0 334556.0 0
291517.0 334512.0 0
298024.0 334478.0 0
201974.0 336550.0 0
205205.0 338352.0 0
208438.0 336564.0 0
211660.0 338384.0 0
214886.0 336600.0 0
218092.0 338437.0 0
221307.0 336646.0 0
224486.0 338501.0 0
227688.0 336699.0 0
230836.0 338577.0 0
234025.0 336769.0 0
237143.0 338673.0 0
240325.0 336868.0 0
246606.0 337003.0 0
252899.0 337182.0 0
259251.0 337430.0 0
265671.0 337778.0 0
272088.0 338144.0 0
275325.0 336373.0 0
278506.0 338255.0 0
281762.0 336404.0 0
284984.0 338200.0 0
288251.0 336352.0 0
291498.0 338127.0 0
294765.0 336301.0 0
298024.0 338086.0 0
201973.0 340140.0 0
208432.0 340160.0 0
214874.0 340214.0 0
221282.0 340287.0 0
227647.0 340372.0 0
233964.0 340471.0 0
240241.0 340592.0 0
243418.0 338796.0 0
246491.0 340734.0 0
249683.0 338950.0 0
252741.0 340897.0 0
255976.0 339142.0 0
259038.0 341093.0 0
262371.0 339420.0 0
268831.0 339830.0 0
275258.0 340096.0 0
281720.0 340061.0 0
288231.0 339964.0 0
294758.0 339894.0 0
302245.0 341492.0 0
201973.0 343709.0 0
205202.0 341934.0 0
208427.0 343737.0 0
211652.0 341979.0 0
214862.0 343810.0 0
218074.0 342056.0 0
221260.0 343914.0 0
224455.0 342151.0 0
230787.0 342259.0 0
237071.0 342382.0 0
243318.0 342522.0 0
249543.0 342675.0 0
255774.0 342838.0 0
262072.0 343029.0 0
265510.0 341426.0 0
268680.0 343493.0 0
272003.0 341871.0 0
275223.0 343814.0 0
278467.0 341937.0 0
281725.0 343693.0 0
284970.0 341818.0 0
288237.0 343550.0 0
291492.0 341712.0 0
294759.0 343458.0 0
298025.0 341663.0 0
205199.0 345496.0 0
211644.0 345555.0 0
218059.0 345659.0 0
224427.0 345788.0 0
227608.0 344032.0 0
230741.0 345931.0 0
233905.0 344163.0 0
237002.0 346083.0 0
240156.0 344307.0 0
243218.0 346244.0 0
246372.0 344461.0 0
249401.0 346405.0 0
252569.0 344617.0 0
255562.0 346555.0 0
258773.0 344769.0 0
265046.0 344944.0 0
271953.0 345570.0 0
278508.0 345597.0 0
285005.0 345413.0 0
291504.0 345274.0 0
298025.0 345211.0 0
201972.0 347261.0 0
205196.0 349041.0 0
208421.0 347295.0 0
211637.0 349111.0 0
214852.0 347389.0 0
221241.0 347525.0 0
227574.0 347681.0 0
233850.0 347845.0 0
240074.0 348016.0 0
246255.0 348189.0 0
252400.0 348351.0 0
258513.0 348489.0 0
261718.0 346689.0 0
264564.0 348619.0 0
267837.0 346867.0 0
270449.0 348697.0 0
275339.0 347521.0 0
278722.0 349251.0 0
281819.0 347308.0 0
285089.0 349009.0 0
288273.0 347122.0 0
291530.0 348820.0 0
294768.0 346997.0 0
298027.0 348734.0 0
302175.0 349576.0 0
201971.0 350796.0 0
208415.0 350835.0 0
214844.0 350948.0 0
218047.0 349244.0 0
221227.0 351121.0 0
224404.0 349412.0 0
227546.0 351318.0 0
230699.0 349592.0 0
233800.0 351520.0 0
236936.0 349776.0 0
239996.0 351721.0 0
243122.0 349962.0 0
249265.0 350140.0 0
255366.0 350297.0 0
261406.0 350429.0 0
267341.0 350559.0 0
273163.0 350217.0 0
276090.0 351539.0 0
281987.0 350955.0 0
288332.0 350690.0 0
294782.0 350515.0 0
201971.0 354317.0 0
205192.0 352568.0 0
208409.0 354355.0 0
211630.0 352647.0 0
218039.0 352809.0 0
224388.0 353021.0 0
230665.0 353244.0 0
236874.0 353463.0 0
243030.0 353677.0 0
246143.0 351916.0 0
249139.0 353877.0 0
252246.0 352095.0 0
255200.0 354053.0 0
258294.0 352246.0 0
261197.0 354196.0 0
264261.0 352375.0 0
267164.0 354263.0 0
270207.0 352357.0 0
273200.0 353884.0 0
279110.0 353082.0 0
285199.0 352625.0 0
288398.0 354261.0 0
291565.0 352353.0 0
294798.0 354011.0 0
298028.0 352231.0 0
205187.0 356080.0 0
211624.0 356162.0 0
214838.0 354485.0 0
218037.0 356354.0 0
221220.0 354699.0 0
224382.0 356615.0 0
227527.0 354943.0 0
230639.0 356887.0 0
233756.0 355187.0 0
239921.0 355421.0 0
246038.0 355641.0 0
252112.0 355841.0 0
258136.0 356009.0 0
264123.0 356114.0 0
270162.0 355987.0 0
276198.0 355317.0 0
279209.0 356832.0 0
282190.0 354678.0 0
285308.0 356263.0 0
291601.0 355872.0 0
298030.0 355701.0 0
201970.0 357818.0 0
205188.0 359574.0 0
208405.0 357853.0 0
211629.0 359648.0 0
214839.0 357999.0 0
221224.0 358257.0 0
227519.0 358557.0 0
233720.0 358850.0 0
236818.0 357146.0 0
239849.0 359118.0 0
242941.0 357388.0 0
245936.0 359362.0 0
249024.0 357610.0 0
251997.0 359578.0 0
255071.0 357804.0 0
261082.0 357945.0 0
267108.0 357940.0 0
270129.0 359634.0 0
273185.0 357540.0 0
276197.0 359027.0 0
282261.0 358358.0 0
288457.0 357825.0 0
291630.0 359371.0 0
294814.0 357481.0 0
298031.0 359144.0 0
197757.0 361119.0 0
201970.0 361294.0 0
208410.0 361327.0 0
214856.0 361482.0 0
218049.0 359874.0 0
221245.0 361793.0 0
224389.0 360192.0 0
227526.0 362160.0 0
230623.0 360523.0 0
236765.0 360828.0 0
242851.0 361097.0 0
248915.0 361334.0 0
254970.0 361535.0 0
258034.0 359753.0 0
261021.0 361666.0 0
264064.0 359825.0 0
267078.0 361619.0 0
273152.0 361205.0 0
279220.0 360517.0 0
282278.0 361985.0 0
285355.0 359867.0 0
288486.0 361357.0 0
294827.0 360919.0 0
201971.0 364735.0 0
205196.0 363050.0 0
208443.0 364776.0 0
211648.0 363102.0 0
218086.0 363366.0 0
224423.0 363753.0 0
230617.0 364157.0 0
233688.0 362511.0 0
236709.0 364513.0 0
239774.0 362816.0 0
242753.0 364804.0 0
245831.0 363075.0 0
251890.0 363296.0 0
257961.0 363468.0 0
264034.0 363524.0 0
270103.0 363306.0 0
273127.0 364880.0 0
276173.0 362703.0 0
279215.0 364156.0 0
285376.0 363427.0 0
291647.0 362839.0 0
294839.0 364316.0 0
298033.0 362571.0 0
205238.0 366501.0 0
211738.0 366516.0 0
214916.0 364928.0 0
218202.0 366821.0 0
221312.0 365303.0 0
224480.0 367306.0 0
227548.0 365757.0 0
233656.0 366177.0 0
239690.0 366519.0 0
245712.0 366782.0 0
248800.0 365042.0 0
251774.0 366989.0 0
254877.0 365237.0 0
257887.0 367150.0 0
260976.0 365363.0 0
264014.0 367213.0 0
267063.0 365311.0 0
270093.0 366999.0 0
276165.0 366357.0 0
282294.0 365566.0 0
285411.0 366950.0 0
288507.0 364854.0 0
291664.0 366281.0 0
298036.0 365993.0 0
201973.0 368117.0 0
205280.0 369898.0 0
208541.0 368175.0 0
212073.0 369844.0 0
215107.0 368327.0 0
221425.0 368807.0 0
227567.0 369360.0 0
230609.0 367796.0 0
233606.0 369853.0 0
236642.0 368207.0 0
242640.0 368515.0 0
248665.0 368737.0 0
254764.0 368907.0 0
260926.0 369029.0 0
267062.0 369013.0 0
273133.0 368558.0 0
276215.0 369988.0 0
279239.0 367758.0 0
282355.0 369111.0 0
288557.0 368328.0 0
291717.0 369706.0 0
294860.0 367647.0 0
298040.0 369378.0 0
201985.0 371412.0 0
206500.0 372882.0 0
209177.0 371364.0 0
215420.0 371736.0 0
218397.0 370275.0 0
221534.0 372341.0 0
224536.0 370872.0 0
230576.0 371446.0 0
236552.0 371912.0 0
239587.0 370231.0 0
242506.0 372233.0 0
245573.0 370488.0 0
248502.0 372426.0 0
251623.0 370659.0 0
254592.0 372540.0 0
257782.0 370791.0 0
263992.0 370880.0 0
267077.0 372716.0 0
270114.0 370709.0 0
273198.0 372226.0 0
279357.0 371328.0 0
285493.0 370447.0 0
288613.0 371777.0 0
294879.0 370881.0 0
298013.0 372763.0 0
201930.0 374474.0 0
204581.0 374987.0 0
209826.0 374708.0 0
212544.0 373211.0 0
215701.0 375244.0 0
218579.0 373791.0 0
224535.0 374468.0 0
227547.0 372980.0 0
230490.0 375105.0 0
233523.0 373540.0 0
239462.0 373954.0 0
245412.0 374200.0 0
251436.0 374320.0 0
257571.0 374377.0 0
260834.0 372647.0 0
263934.0 374491.0 0
270186.0 374426.0 0
276361.0 373575.0 0
279592.0 374845.0 0
282549.0 372637.0 0
285759.0 373960.0 0
288975.0 375341.0 0
291629.0 373115.0 0
294564.0 373924.0 0
299365.0 376027.0 0
196579.0 379408.0 0
199378.0 377647.0 0
202089.0 377691.0 0
207457.0 376488.0 0
212943.0 376714.0 0
218643.0 377403.0 0
221559.0 375933.0 0
227454.0 376617.0 0
233389.0 377227.0 0
236429.0 375624.0 0
239308.0 377686.0 0
242351.0 375963.0 0
245231.0 377922.0 0
248316.0 376118.0 0
254376.0 376169.0 0
260543.0 376167.0 0
267091.0 376392.0 0
270422.0 378116.0 0
273386.0 375857.0 0
276681.0 377109.0 0
282842.0 376115.0 0
286069.0 377419.0 0
292309.0 376756.0 0
296177.0 376206.0 0
301368.0 378149.0 0
193861.0 381111.0 0
199590.0 380581.0 0
202538.0 380962.0 0
204930.0 378448.0 0
207826.0 379938.0 0
210404.0 378308.0 0
213135.0 380434.0 0
215810.0 378894.0 0
221449.0 379587.0 0
224433.0 378100.0 0
230334.0 378763.0 0
236262.0 379334.0 0
242175.0 379705.0 0
248117.0 379821.0 0
251227.0 377986.0 0
254145.0 379809.0 0
257314.0 377976.0 0
260222.0 379753.0 0
263457.0 377906.0 0
266127.0 379669.0 0
268771.0 381139.0 0
273853.0 379423.0 0
279984.0 378335.0 0
283260.0 379587.0 0
289229.0 378781.0 0
291984.0 380509.0 0
294834.0 379265.0 0
298124.0 378740.0 0
300737.0 381014.0 0
304006.0 379783.0 0
306749.0 381492.0 0
188446.0 384495.0 0
191176.0 382788.0 0
194257.0 384172.0 0
196906.0 382452.0 0
200114.0 383562.0 0
205408.0 381915.0 0
210603.0 381946.0 0
215610.0 382686.0 0
218512.0 381107.0 0
221274.0 383265.0 0
224242.0 381750.0 0
227275.0 380260.0 0
230090.0 382411.0 0
233190.0 380901.0 0
239125.0 381417.0 0
245045.0 381658.0 0
251018.0 381662.0 0
257058.0 381603.0 0
263041.0 381553.0 0
265907.0 383302.0 0
271666.0 382116.0 0
277228.0 380624.0 0
278112.0 384144.0 0
280583.0 381823.0 0
283786.0 383136.0 0
286422.0 380920.0 0
289362.0 382459.0 0
294799.0 382654.0 0
297644.0 381836.0 0
300716.0 384022.0 0
303673.0 382771.0 0
306659.0 384504.0 0
309539.0 383230.0 0
185679.0 386224.0 0
191512.0 385787.0 0
197392.0 385430.0 0
200492.0 386656.0 0
203084.0 384303.0 0
206055.0 385373.0 0
208228.0 383408.0 0
209745.0 386104.0 0
212696.0 384332.0 0
218367.0 384803.0 0
223974.0 385442.0 0
226994.0 383911.0 0
229722.0 386041.0 0
232898.0 384542.0 0
236040.0 383022.0 0
238904.0 385122.0 0
241990.0 383453.0 0
244869.0 385404.0 0
247931.0 383536.0 0
250842.0 385354.0 0
253927.0 383465.0 0
256832.0 385251.0 0
259943.0 383400.0 0
262865.0 385179.0 0
268972.0 384718.0 0
272108.0 385777.0 0
274757.0 383113.0 0
275698.0 386501.0 0
281306.0 385429.0 0
286820.0 384579.0 0
292196.0 384205.0 0
295176.0 386057.0 0
297876.0 384962.0 0
301067.0 387088.0 0
303830.0 385804.0 0
309737.0 386262.0 0
312403.0 385019.0 0
315255.0 386811.0 0
180110.0 389704.0 0
182910.0 387955.0 0
185864.0 389311.0 0
188688.0 387522.0 0
191731.0 388786.0 0
194604.0 387227.0 0
197675.0 388477.0 0
203522.0 387575.0 0
206832.0 388230.0 0
212633.0 387918.0 0
215500.0 386362.0 0
218148.0 388543.0 0
221032.0 386991.0 0
226640.0 387602.0 0
232438.0 388126.0 0
235726.0 386653.0 0
241789.0 387191.0 0
247787.0 387261.0 0
253769.0 387142.0 0
259741.0 387015.0 0
262688.0 388699.0 0
265927.0 386814.0 0
269067.0 388258.0 0
273452.0 388832.0 0
278909.0 387772.0 0
284387.0 386815.0 0
287374.0 388303.0 0
289737.0 386164.0 0
292683.0 387805.0 0
298339.0 388078.0 0
304226.0 388871.0 0
306954.0 387508.0 0
310118.0 389175.0 0
312935.0 388152.0 0
317767.0 388375.0 0
320166.0 389887.0 0
177276.0 391474.0 0
183023.0 391063.0 0
185957.0 392419.0 0
188846.0 390570.0 0
191931.0 391763.0 0
194806.0 390328.0 0
197854.0 391538.0 0
200752.0 389809.0 0
203824.0 390640.0 0
206780.0 391271.0 0
209811.0 389564.0 0
215283.0 390062.0 0
220713.0 390763.0 0
223647.0 389185.0 0
226261.0 391345.0 0
229294.0 389713.0 0
231933.0 391776.0 0
235141.0 390152.0 0
237810.0 392087.0 0
238602.0 388750.0 0
244717.0 389144.0 0
247758.0 390972.0 0
250756.0 389058.0 0
253724.0 390844.0 0
256695.0 388914.0 0
259615.0 390645.0 0
265636.0 390220.0 0
268099.0 392007.0 0
271150.0 390719.0 0
276608.0 390161.0 0
279715.0 391479.0 0
282026.0 389117.0 0
285069.0 390539.0 0
290333.0 389843.0 0
295738.0 389474.0 0
293348.0 391365.0 0
298917.0 391286.0 0
301538.0 390221.0 0
304593.0 392055.0 0
307330.0 390573.0 0
310358.0 392163.0 0
313358.0 390881.0 0
316214.0 390412.0 0
319322.0 392483.0 0
322837.0 391540.0 0
171545.0 395053.0 0
174441.0 393246.0 0
177337.0 394615.0 0
180153.0 392824.0 0
183035.0 394186.0 0
188951.0 393591.0 0
192035.0 394645.0 0
195059.0 393497.0 0
198192.0 394614.0 0
200927.0 392998.0 0
203796.0 393827.0 0
206704.0 394267.0 0
209627.0 393022.0 0
212473.0 391577.0 0
214841.0 393813.0 0
217786.0 392305.0 0
223300.0 392964.0 0
228871.0 393452.0 0
234564.0 393774.0 0
240258.0 393993.0 0
241542.0 390883.0 0
244730.0 392816.0 0
250801.0 392774.0 0
256665.0 392617.0 0
262526.0 392289.0 0
265248.0 393992.0 0
270747.0 394000.0 0
274151.0 392446.0 0
277294.0 393827.0 0
282793.0 392844.0 0
288066.0 392018.0 0
291111.0 393471.0 0
296450.0 392885.0 0
299575.0 394604.0 0
302020.0 393541.0 0
307384.0 393784.0 0
313511.0 393665.0 0
316467.0 393334.0 0
322428.0 394166.0 0
325739.0 393360.0 0
168653.0 396857.0 0
174373.0 396347.0 0
177154.0 397713.0 0
180244.0 396004.0 0
183196.0 397405.0 0
185922.0 395528.0 0
188815.0 396555.0 0
191886.0 397366.0 0
195086.0 396657.0 0
201544.0 396435.0 0
205029.0 397025.0 0
208604.0 396588.0 0
211802.0 395257.0 0
217368.0 396013.0 0
220357.0 394529.0 0
222957.0 396761.0 0
225888.0 395140.0 0
231489.0 395515.0 0
237169.0 395735.0 0
242852.0 395538.0 0
247912.0 394682.0 0
253787.0 394585.0 0
256732.0 396369.0 0
259586.0 394342.0 0
262436.0 396057.0 0
267924.0 395804.0 0
273413.0 395598.0 0
270673.0 397643.0 0
276104.0 396810.0 0
280469.0 395160.0 0
283528.0 396589.0 0
285801.0 394271.0 0
288846.0 395662.0 0
294265.0 394872.0 0
297533.0 396297.0 0
301718.0 397330.0 0
304549.0 395552.0 0
307607.0 396971.0 0
310417.0 395146.0 0
313550.0 396426.0 0
316539.0 396200.0 0
319557.0 395565.0 0
323216.0 396675.0 0
326072.0 396084.0 0
328955.0 395358.0 0
332143.0 397354.0 0
165696.0 398705.0 0
168583.0 399878.0 0
171507.0 398173.0 0
174297.0 399554.0 0
179905.0 399039.0 0
182602.0 400307.0 0
186215.0 398799.0 0
189577.0 399575.0 0
193245.0 399812.0 0
198332.0 397332.0 0
196426.0 399772.0 0
200068.0 399712.0 0
203361.0 399532.0 0
207172.0 399634.0 0
210901.0 398651.0 0
214247.0 397402.0 0
220001.0 398254.0 0
225516.0 398986.0 0
228484.0 397238.0 0
231164.0 399282.0 0
234157.0 397500.0 0
236985.0 399384.0 0
239945.0 397570.0 0
242855.0 399186.0 0
245597.0 397001.0 0
248411.0 398643.0 0
250966.0 396534.0 0
253930.0 398374.0 0
259647.0 398118.0 0
265238.0 397819.0 0
268070.0 399614.0 0
273576.0 399172.0 0
278851.0 397917.0 0
281603.0 399151.0 0
286572.0 397952.0 0
289745.0 399168.0 0
292026.0 396959.0 0
295374.0 398180.0 0
299180.0 399017.0 0
304767.0 398864.0 0
308002.0 400056.0 0
310869.0 398179.0 0
314383.0 399186.0 0
317640.0 398894.0 0
320499.0 398397.0 0
323392.0 399607.0 0
326361.0 398895.0 0
329298.0 398222.0 0
335193.0 399273.0 0
159621.0 402502.0 0
162672.0 400594.0 0
165540.0 401681.0 0
168433.0 402886.0 0
171441.0 401354.0 0
174254.0 402818.0 0
177072.0 400965.0 0
179859.0 402334.0 0
185051.0 401595.0 0
187926.0 402068.0 0
191241.0 402367.0 0
204483.0 402414.0 0
207437.0 402762.0 0
213706.0 400741.0 0
216932.0 399579.0 0
219541.0 401927.0 0
222576.0 400578.0 0
228159.0 401008.0 0
234007.0 401172.0 0
239960.0 401155.0 0
245744.0 400800.0 0
251257.0 400434.0 0
256873.0 400162.0 0
259811.0 401917.0 0
262540.0 399868.0 0
265460.0 401630.0 0
271039.0 401318.0 0
276551.0 400433.0 0
279449.0 401714.0 0
284450.0 400412.0 0
287561.0 401531.0 0
293034.0 400277.0 0
296505.0 401136.0 0
302466.0 401135.0 0
305678.0 402235.0 0
311241.0 401052.0 0
314194.0 402025.0 0
317185.0 401785.0 0
320288.0 401570.0 0
323280.0 402400.0 0
326305.0 401853.0 0
329284.0 401188.0 0
332284.0 400399.0 0
336915.0 401727.0 0
339474.0 401931.0 0
156568.0 404412.0 0
159412.0 405526.0 0
162477.0 403580.0 0
165376.0 404670.0 0
171268.0 404543.0 0
177086.0 404270.0 0
182610.0 403784.0 0
185708.0 404731.0 0
189081.0 404998.0 0
194584.0 402678.0 0
197910.0 402526.0 0
201225.0 402551.0 0
210376.0 401678.0 0
212951.0 404021.0 0
216316.0 403041.0 0
222134.0 404380.0 0
225133.0 402875.0 0
227919.0 404645.0 0
231008.0 402997.0 0
237023.0 402980.0 0
240073.0 404775.0 0
242938.0 402856.0 0
245826.0 404601.0 0
248582.0 402530.0 0
251451.0 404305.0 0
254152.0 402223.0 0
257080.0 403980.0 0
262778.0 403653.0 0
268486.0 403356.0 0
271651.0 404966.0 0
274116.0 402771.0 0
277146.0 404126.0 0
282261.0 402995.0 0
285388.0 404008.0 0
290808.0 402576.0 0
294177.0 403477.0 0
297464.0 404406.0 0
299709.0 402098.0 0
303918.0 404762.0 0
308936.0 403286.0 0
312128.0 404322.0 0
315577.0 404812.0 0
318796.0 404630.0 0
321805.0 404932.0 0
325165.0 404987.0 0
328268.0 404429.0 0
331280.0 403726.0 0
334214.0 402888.0 0
339308.0 404827.0 0
342311.0 403720.0 0
345109.0 405474.0 0
150469.0 408226.0 0
153494.0 406333.0 0
156271.0 407453.0 0
162297.0 406581.0 0
165213.0 407666.0 0
168304.0 405913.0 0
173999.0 406033.0 0
176708.0 407419.0 0
179987.0 405686.0 0
183168.0 407006.0 0
186779.0 407528.0 0
192446.0 405323.0 0
195861.0 405490.0 0
199181.0 405454.0 0
202588.0 405417.0 0
206006.0 405668.0 0
209646.0 405055.0 0
215569.0 406386.0 0
218908.0 405470.0 0
224734.0 406821.0 0
231116.0 406621.0 0
234065.0 404762.0 0
237214.0 406569.0 0
242989.0 406599.0 0
248714.0 406373.0 0
254361.0 406066.0 0
260039.0 405702.0 0
263057.0 407371.0 0
265837.0 405357.0 0
269048.0 407002.0 0
274862.0 406439.0 0
279919.0 405609.0 0
283151.0 406553.0 0
286473.0 407460.0 0
288647.0 404985.0 0
292013.0 405888.0 0
295392.0 406782.0 0
300952.0 404825.0 0
307044.0 405691.0 0
310245.0 406648.0 0
313680.0 407292.0 0
317181.0 407572.0 0
320433.0 407731.0 0
323766.0 407759.0 0
327146.0 407560.0 0
330342.0 406970.0 0
333448.0 406225.0 0
336473.0 405286.0 0
338991.0 407921.0 0
342073.0 406877.0 0
347952.0 407252.0 0
147495.0 410089.0 0
153251.0 409445.0 0
156078.0 410568.0 0
159079.0 408514.0 0
161908.0 409518.0 0
164761.0 410537.0 0
168171.0 408894.0 0
171122.0 407866.0 0
173795.0 409399.0 0
179527.0 408593.0 0
182047.0 409848.0 0
184997.0 410094.0 0
190224.0 407945.0 0
193592.0 408261.0 0
196870.0 408428.0 0
200042.0 408392.0 0
203099.0 408381.0 0
206031.0 408662.0 0
208990.0 408030.0 0
212298.0 407316.0 0
217865.0 408901.0 0
221344.0 408037.0 0
228019.0 407902.0 0
231960.0 410083.0 0
234431.0 408297.0 0
240097.0 408512.0 0
245918.0 408396.0 0
251626.0 408148.0 0
254562.0 409896.0 0
257310.0 407795.0 0
260316.0 409470.0 0
266154.0 408966.0 0
272440.0 408555.0 0
277569.0 408322.0 0
280927.0 409160.0 0
284320.0 410002.0 0
289871.0 408329.0 0
293313.0 409176.0 0
296855.0 409910.0 0
298908.0 407454.0 0
302351.0 407900.0 0
305458.0 408322.0 0
308599.0 409166.0 0
311924.0 409817.0 0
315405.0 410202.0 0
318869.0 410490.0 0
322330.0 410543.0 0
325811.0 410450.0 0
329224.0 410093.0 0
332520.0 409438.0 0
335789.0 408562.0 0
341705.0 410086.0 0
344856.0 408646.0 0
348175.0 410312.0 0
351009.0 409150.0 0
144553.0 411931.0 0
147407.0 413309.0 0
150310.0 411403.0 0
153176.0 412628.0 0
158952.0 411627.0 0
161885.0 412637.0 0
167673.0 411595.0 0
170873.0 411325.0 0
173981.0 412679.0 0
176719.0 410699.0 0
179560.0 412032.0 0
182733.0 412923.0 0
188188.0 410554.0 0
191468.0 411006.0 0
194714.0 411327.0 0
197924.0 411465.0 0
201089.0 411467.0 0
204294.0 411537.0 0
207738.0 411333.0 0
211080.0 410606.0 0
214475.0 409798.0 0
216314.0 412405.0 0
219610.0 411626.0 0
222783.0 411057.0 0
225822.0 410563.0 0
229121.0 410965.0 0
234412.0 412460.0 0
237168.0 410353.0 0
240125.0 412248.0 0
243054.0 410351.0 0
246039.0 412185.0 0
248860.0 410199.0 0
251810.0 411989.0 0
257535.0 411589.0 0
263402.0 411074.0 0
266590.0 412630.0 0
269266.0 410502.0 0
272209.0 411811.0 0
275429.0 411135.0 0
278842.0 411884.0 0
282265.0 412636.0 0
287754.0 410820.0 0
291227.0 411616.0 0
294771.0 412338.0 0
300431.0 410526.0 0
303889.0 411181.0 0
307069.0 411833.0 0
310314.0 412487.0 0
313725.0 412868.0 0
317198.0 413148.0 0
331356.0 412572.0 0
334797.0 411712.0 0
338196.0 410916.0 0
343010.0 412857.0 0
345439.0 411529.0 0
348392.0 413570.0 0
351187.0 412286.0 0
354037.0 411045.0 0
357054.0 412933.0 0
138695.0 415597.0 0
141624.0 413765.0 0
144515.0 415173.0 0
150306.0 414632.0 0
153252.0 415854.0 0
156093.0 413756.0 0
159071.0 414799.0 0
162143.0 415761.0 0
164923.0 413635.0 0
168291.0 414266.0 0
171349.0 414645.0 0
177035.0 414112.0 0
180213.0 415264.0 0
185881.0 413222.0 0
189141.0 413599.0 0
192505.0 414131.0 0
195783.0 414438.0 0
199037.0 414532.0 0
202381.0 414475.0 0
205881.0 414293.0 0
209459.0 413872.0 0
212921.0 413175.0 0
218064.0 415147.0 0
221374.0 414561.0 0
224668.0 414097.0 0
227915.0 413954.0 0
231409.0 413748.0 0
237146.0 414109.0 0
243164.0 414092.0 0
249004.0 414026.0 0
254800.0 413728.0 0
260535.0 413201.0 0
263544.0 414707.0 0
269888.0 414294.0 0
273705.0 414624.0 0
277012.0 414762.0 0
280384.0 415405.0 0
285711.0 413394.0 0
289187.0 414135.0 0
292709.0 414827.0 0
298374.0 412981.0 0
301979.0 413644.0 0
305530.0 414596.0 0
308738.0 415271.0 0
312127.0 415631.0 0
315575.0 415881.0 0
320741.0 413274.0 0
324313.0 413222.0 0
327914.0 413073.0 0
333581.0 414835.0 0
336931.0 414094.0 0
340108.0 413345.0 0
345711.0 414945.0 0
351273.0 415538.0 0
354160.0 414210.0 0
357178.0 416082.0 0
360103.0 414839.0 0
135755.0 417436.0 0
141621.0 417020.0 0
144579.0 418449.0 0
147444.0 416569.0 0
150409.0 417895.0 0
156253.0 416964.0 0
159330.0 417954.0 0
165394.0 416544.0 0
168607.0 417194.0 0
171792.0 417866.0 0
174497.0 416046.0 0
177720.0 417474.0 0
183455.0 415999.0 0
186686.0 416284.0 0
190050.0 416577.0 0
193570.0 417295.0 0
196871.0 417563.0 0
200350.0 417454.0 0
203927.0 417247.0 0
207565.0 416912.0 0
211177.0 416435.0 0
214671.0 415810.0 0
223236.0 417511.0 0
226657.0 417203.0 0
230210.0 416911.0 0
233934.0 416369.0 0
237319.0 417420.0 0
240286.0 415956.0 0
246110.0 415996.0 0
252035.0 415818.0 0
255074.0 417572.0 0
257809.0 415411.0 0
260838.0 417004.0 0
266500.0 416106.0 0
269163.0 417590.0 0
272166.0 417618.0 0
275422.0 417973.0 0
283798.0 416080.0 0
287248.0 416759.0 0
290733.0 417413.0 0
296274.0 415451.0 0
299856.0 416048.0 0
303475.0 416720.0 0
307180.0 418173.0 0
310575.0 418479.0 0
319089.0 416001.0 0
322671.0 415973.0 0
326310.0 415814.0 0
330046.0 415671.0 0
333363.0 417814.0 0
336440.0 417183.0 0
339578.0 416503.0 0
342689.0 415970.0 0
345434.0 418204.0 0
348435.0 417005.0 0
354234.0 417416.0 0
360351.0 417939.0 0
363223.0 416786.0 0
366347.0 418740.0 0
129789.0 421164.0 0
132793.0 419287.0 0
135772.0 420691.0 0
138712.0 418855.0 0
141700.0 420304.0 0
147566.0 419865.0 0
150584.0 421190.0 0
153418.0 419101.0 0
156485.0 420163.0 0
159624.0 421069.0 0
162513.0 418795.0 0
165728.0 419528.0 0
168978.0 420175.0 0
172282.0 420926.0 0
175112.0 419319.0 0
178383.0 420911.0 0
180919.0 418522.0 0
184159.0 419096.0 0
187499.0 419253.0 0
190965.0 419439.0 0
194596.0 420584.0 0
198258.0 420419.0 0
201937.0 420196.0 0
205626.0 419899.0 0
209294.0 419528.0 0
212896.0 419072.0 0
216403.0 418533.0 0
219833.0 417991.0 0
225055.0 420502.0 0
228567.0 420174.0 0
232127.0 419802.0 0
235540.0 419938.0 0
239843.0 419808.0 0
243094.0 417904.0 0
246288.0 419721.0 0
249197.0 417816.0 0
252252.0 419654.0 0
258165.0 419260.0 0
263859.0 418498.0 0
266830.0 419969.0 0
278669.0 418331.0 0
282018.0 418894.0 0
285430.0 419495.0 0
288886.0 420100.0 0
294241.0 418019.0 0
297737.0 418587.0 0
301188.0 419134.0 0
304595.0 419636.0 0
309326.0 421461.0 0
314011.0 418706.0 0
317468.0 418833.0 0
320929.0 418835.0 0
324350.0 418733.0 0
327636.0 418574.0 0
330609.0 418684.0 0
335815.0 420406.0 0
338971.0 419687.0 0
342167.0 419034.0 0
348200.0 420381.0 0
351269.0 418841.0 0
354692.0 420499.0 0
357495.0 419191.0 0
360591.0 421114.0 0
363472.0 419906.0 0
369459.0 420688.0 0
126731.0 423074.0 0
132782.0 422522.0 0
135801.0 423953.0 0
138779.0 422132.0 0
141821.0 423603.0 0
144716.0 421758.0 0
147765.0 423201.0 0
153642.0 422363.0 0
156753.0 423359.0 0
162809.0 421844.0 0
166029.0 422518.0 0
169264.0 423127.0 0
175693.0 422548.0 0
181505.0 421828.0 0
184853.0 422106.0 0
188163.0 422156.0 0
191469.0 422157.0 0
203710.0 422871.0 0
207388.0 422561.0 0
211028.0 422208.0 0
214610.0 421795.0 0
218124.0 421335.0 0
221594.0 420881.0 0
230334.0 423170.0 0
233806.0 423062.0 0
237417.0 422838.0 0
240774.0 423249.0 0
243330.0 421444.0 0
249298.0 421628.0 0
255407.0 421391.0 0
261266.0 420864.0 0
264402.0 422353.0 0
270193.0 420850.0 0
273486.0 421071.0 0
276845.0 421410.0 0
280224.0 421809.0 0
283651.0 422320.0 0
287112.0 422867.0 0
292368.0 420686.0 0
295850.0 421245.0 0
299312.0 421780.0 0
302762.0 422255.0 0
306336.0 422147.0 0
312653.0 421626.0 0
316048.0 421749.0 0
319462.0 421788.0 0
322857.0 421741.0 0
326193.0 421652.0 0
329427.0 421665.0 0
332751.0 421222.0 0
338184.0 422938.0 0
341428.0 422174.0 0
344763.0 421302.0 0
349533.0 423217.0 0
351950.0 421782.0 0
357734.0 422442.0 0
363633.0 423099.0 0
366560.0 421896.0 0
369644.0 423877.0 0
372564.0 422631.0 0
123618.0 425020.0 0
126607.0 426270.0 0
129720.0 424377.0 0
132732.0 425750.0 0
138857.0 425413.0 0
144912.0 425081.0 0
148051.0 426577.0 0
150843.0 424527.0 0
153970.0 425654.0 0
159914.0 424195.0 0
163100.0 424910.0 0
166273.0 425533.0 0
169409.0 426079.0 0
172536.0 423806.0 0
175689.0 425659.0 0
178945.0 424554.0 0
182509.0 424933.0 0
186028.0 425110.0 0
189518.0 425021.0 0
193189.0 424321.0 0
196424.0 423440.0 0
200032.0 423157.0 0
205466.0 425580.0 0
209111.0 425292.0 0
212722.0 424968.0 0
216288.0 424600.0 0
219812.0 424203.0 0
223310.0 423825.0 0
226814.0 423483.0 0
243068.0 425871.0 0
246158.0 423549.0 0
249561.0 425285.0 0
252534.0 423434.0 0
255735.0 425187.0 0
258587.0 423122.0 0
261830.0 424714.0 0
267794.0 423508.0 0
271311.0 424162.0 0
274819.0 424441.0 0
278331.0 424784.0 0
281835.0 425198.0 0
285342.0 425687.0 0
290596.0 423420.0 0
294093.0 423961.0 0
297593.0 424482.0 0
301109.0 424942.0 0
304712.0 425108.0 0
308221.0 424933.0 0
311439.0 424664.0 0
314780.0 424739.0 0
318161.0 424783.0 0
321547.0 424768.0 0
324909.0 424702.0 0
328237.0 424644.0 0
331630.0 424323.0 0
334980.0 423732.0 0
340450.0 425469.0 0
343621.0 424650.0 0
346679.0 423807.0 0
352181.0 425282.0 0
354911.0 423814.0 0
357776.0 425811.0 0
360700.0 424383.0 0
363695.0 426341.0 0
366684.0 425098.0 0
372726.0 425851.0 0
375666.0 424572.0 0
378762.0 426510.0 0
117314.0 428963.0 0
120477.0 426984.0 0
123474.0 428226.0 0
126510.0 429489.0 0
129628.0 427595.0 0
132687.0 428984.0 0
135773.0 427203.0 0
138817.0 428660.0 0
141966.0 426895.0 0
145154.0 428386.0 0
151229.0 427900.0 0
157176.0 426583.0 0
160441.0 427368.0 0
163722.0 428061.0 0
167031.0 428665.0 0
172511.0 426635.0 0
177425.0 428206.0 0
180616.0 427823.0 0
184096.0 428008.0 0
187651.0 428028.0 0
191210.0 427534.0 0
194702.0 426898.0 0
198153.0 426213.0 0
201800.0 425865.0 0
210770.0 428101.0 0
214356.0 427804.0 0
217914.0 427473.0 0
221448.0 427130.0 0
224971.0 426801.0 0
228493.0 426502.0 0
232010.0 426304.0 0
235593.0 426119.0 0
239166.0 426169.0 0
246612.0 427081.0 0
252716.0 427261.0 0
259078.0 426952.0 0
265261.0 426001.0 0
268908.0 426967.0 0
272673.0 427419.0 0
276352.0 427732.0 0
279979.0 428097.0 0
288857.0 426200.0 0
292382.0 426714.0 0
295919.0 427213.0 0
299478.0 427660.0 0
303095.0 427933.0 0
306709.0 427982.0 0
313551.0 427796.0 0
316940.0 427819.0 0
320336.0 427814.0 0
323722.0 427761.0 0
327092.0 427670.0 0
330495.0 427401.0 0
333892.0 426919.0 0
337227.0 426253.0 0
342871.0 427963.0 0
346043.0 427162.0 0
349135.0 426451.0 0
351826.0 428627.0 0
354884.0 427288.0 0
360679.0 427695.0 0
366722.0 428335.0 0
369744.0 427104.0 0
372805.0 429110.0 0
375804.0 427825.0 0
381855.0 428446.0 0
114126.0 430956.0 0
120322.0 430209.0 0
123366.0 431449.0 0
129586.0 430827.0 0
132688.0 432245.0 0
135751.0 430496.0 0
141846.0 430102.0 0
144811.0 431488.0 0
148434.0 429973.0 0
151901.0 431238.0 0
154520.0 428946.0 0
157894.0 429802.0 0
161273.0 430560.0 0
164689.0 431203.0 0
170408.0 429169.0 0
174103.0 429030.0 0
178827.0 431170.0 0
182203.0 430986.0 0
185752.0 431012.0 0
189360.0 430850.0 0
192753.0 430174.0 0
196313.0 429470.0 0
199905.0 428907.0 0
203538.0 428611.0 0
207162.0 428362.0 0
212351.0 430976.0 0
215928.0 430702.0 0
219488.0 430405.0 0
223034.0 430103.0 0
226572.0 429819.0 0
230103.0 429587.0 0
233655.0 429392.0 0
237205.0 429299.0 0
240837.0 429134.0 0
244278.0 429336.0 0
249549.0 429066.0 0
256054.0 428854.0 0
259559.0 430744.0 0
262539.0 428448.0 0
266228.0 429491.0 0
270454.0 430212.0 0
274366.0 430633.0 0
278125.0 430979.0 0
283556.0 428535.0 0
287117.0 429013.0 0
290678.0 429499.0 0
294248.0 429973.0 0
297842.0 430407.0 0
301479.0 430727.0 0
310198.0 427893.0 0
315699.0 430879.0 0
319140.0 430873.0 0
322567.0 430835.0 0
325979.0 430740.0 0
329404.0 430500.0 0
332835.0 430075.0 0
336247.0 429478.0 0
339610.0 428747.0 0
345418.0 430451.0 0
348637.0 429678.0 0
354568.0 430679.0 0
357656.0 429237.0 0
360541.0 431000.0 0
363656.0 429603.0 0
366682.0 431589.0 0
369767.0 430361.0 0
375860.0 431115.0 0
378878.0 429793.0 0
381944.0 431762.0 0
384941.0 430378.0 0
110919.0 432962.0 0
113942.0 434212.0 0
117140.0 432200.0 0
120188.0 433444.0 0
123265.0 434686.0 0
126445.0 432721.0 0
129558.0 434061.0 0
138771.0 431991.0 0
141754.0 433463.0 0
147519.0 432938.0 0
150326.0 433969.0 0
155420.0 432187.0 0
158878.0 433034.0 0
162351.0 433730.0 0
168186.0 431702.0 0
171872.0 431825.0 0
175486.0 431617.0 0
187464.0 433943.0 0
191124.0 433763.0 0
194383.0 432660.0 0
198020.0 432015.0 0
201594.0 431671.0 0
205176.0 431443.0 0
208764.0 431222.0 0
221026.0 433381.0 0
224586.0 433118.0 0
228137.0 432882.0 0
231689.0 432680.0 0
235241.0 432536.0 0
238823.0 432404.0 0
242376.0 432411.0 0
246092.0 432206.0 0
249604.0 432483.0 0
252915.0 431082.0 0
256359.0 432290.0 0
263027.0 432110.0 0
266517.0 432872.0 0
269809.0 433464.0 0
273135.0 433693.0 0
281776.0 431399.0 0
285381.0 431850.0 0
288976.0 432311.0 0
292575.0 432763.0 0
296195.0 433182.0 0
299848.0 433521.0 0
305132.0 430891.0 0
308737.0 430935.0 0
312255.0 430911.0 0
324860.0 433834.0 0
328323.0 433629.0 0
331786.0 433242.0 0
335255.0 432672.0 0
338728.0 431948.0 0
342124.0 431218.0 0
344751.0 433690.0 0
348088.0 432917.0 0
351367.0 431928.0 0
354163.0 434038.0 0
357367.0 432638.0 0
360306.0 434233.0 0
363541.0 432850.0 0
369720.0 433641.0 0
372810.0 432402.0 0
378905.0 433113.0 0
385000.0 433733.0 0
388021.0 432306.0 0
391097.0 434231.0 0
104483.0 436989.0 0
107704.0 434973.0 0
110741.0 436240.0 0
116997.0 435461.0 0
120079.0 436706.0 0
126372.0 435958.0 0
129512.0 437282.0 0
132694.0 435511.0 0
135762.0 433868.0 0
138783.0 435425.0 0
144685.0 434948.0 0
147780.0 436331.0 0
153408.0 434736.0 0
156672.0 435579.0 0
160065.0 436302.0 0
165894.0 434259.0 0
169556.0 434531.0 0
173220.0 434580.0 0
176795.0 434428.0 0
180276.0 434163.0 0
183814.0 434028.0 0
195968.0 435025.0 0
199544.0 434755.0 0
203096.0 434539.0 0
206676.0 434341.0 0
210270.0 434132.0 0
213865.0 433900.0 0
217452.0 433647.0 0
226117.0 436172.0 0
229682.0 435973.0 0
233239.0 435812.0 0
236798.0 435679.0 0
240340.0 435613.0 0
243910.0 435510.0 0
247355.0 435554.0 0
250819.0 435623.0 0
254108.0 435114.0 0
257708.0 435438.0 0
261072.0 435259.0 0
264497.0 435775.0 0
276585.0 433927.0 0
280129.0 434307.0 0
283705.0 434728.0 0
287299.0 435160.0 0
290910.0 435588.0 0
294543.0 435989.0 0
303524.0 433750.0 0
307187.0 433878.0 0
310805.0 433933.0 0
314366.0 433943.0 0
317883.0 433933.0 0
321382.0 433908.0 0
330731.0 436440.0 0
334244.0 435877.0 0
337825.0 435091.0 0
341333.0 434402.0 0
347473.0 436143.0 0
350870.0 435226.0 0
357014.0 436048.0 0
360040.0 437350.0 0
363374.0 436055.0 0
366584.0 434850.0 0
369614.0 436951.0 0
372739.0 435729.0 0
375835.0 434445.0 0
378837.0 436474.0 0
381937.0 435115.0 0
388050.0 435696.0 0
394179.0 436159.0 0
101257.0 439009.0 0
107545.0 438282.0 0
110646.0 439559.0 0
113814.0 437502.0 0
116911.0 438760.0 0
123180.0 437951.0 0
126300.0 439209.0 0
132717.0 438737.0 0
135809.0 437313.0 0
138884.0 438904.0 0
141812.0 436937.0 0
144981.0 438351.0 0
151055.0 437358.0 0
154346.0 438179.0 0
157716.0 438931.0 0
163575.0 436862.0 0
167199.0 437221.0 0
170869.0 437403.0 0
174535.0 437425.0 0
178167.0 437302.0 0
181774.0 437121.0 0
185437.0 436987.0 0
189166.0 436876.0 0
192918.0 436785.0 0
197111.0 437668.0 0
200811.0 437599.0 0
204458.0 437441.0 0
208097.0 437265.0 0
211728.0 437070.0 0
215348.0 436857.0 0
218954.0 436628.0 0
222543.0 436395.0 0
245388.0 438800.0 0
248899.0 438829.0 0
252444.0 438714.0 0
255832.0 438595.0 0
259351.0 438724.0 0
267971.0 436393.0 0
271504.0 436782.0 0
275013.0 437012.0 0
278520.0 437299.0 0
282067.0 437665.0 0
285647.0 438058.0 0
289256.0 438455.0 0
292893.0 438834.0 0
298207.0 436333.0 0
301896.0 436596.0 0
305590.0 436776.0 0
309265.0 436889.0 0
312910.0 436949.0 0
316522.0 436970.0 0
320109.0 436960.0 0
323679.0 436914.0 0
327225.0 436775.0 0
336907.0 438175.0 0
340512.0 437530.0 0
344023.0 436880.0 0
350270.0 438489.0 0
353748.0 437387.0 0
360007.0 440263.0 0
363264.0 439215.0 0
366458.0 438114.0 0
372547.0 439110.0 0
375703.0 437822.0 0
381840.0 438499.0 0
384967.0 437122.0 0
388002.0 439116.0 0
391106.0 437646.0 0
394180.0 439579.0 0
397282.0 438100.0 0
98025.2 441032.0 0
101141.0 442380.0 0
104347.0 440330.0 0
107479.0 441625.0 0
113777.0 440835.0 0
116924.0 442119.0 0
120018.0 440014.0 0
123135.0 441260.0 0
126270.0 442481.0 0
129462.0 440475.0 0
132710.0 441834.0 0
135890.0 440826.0 0
142097.0 440361.0 0
145506.0 441641.0 0
148363.0 439593.0 0
151817.0 440703.0 0
161196.0 439522.0 0
164793.0 439932.0 0
168464.0 440187.0 0
172170.0 440306.0 0
175881.0 440299.0 0
179578.0 440195.0 0
183272.0 440052.0 0
186991.0 439933.0 0
190726.0 439862.0 0
194438.0 439967.0 0
198353.0 440469.0 0
202134.0 440468.0 0
205846.0 440355.0 0
209528.0 440205.0 0
213188.0 440033.0 0
216829.0 439843.0 0
220451.0 439644.0 0
224053.0 439446.0 0
227640.0 439259.0 0
231214.0 439098.0 0
234778.0 438966.0 0
238330.0 438877.0 0
241881.0 438802.0 0
262737.0 438894.0 0
266187.0 439348.0 0
269736.0 439768.0 0
273313.0 440078.0 0
276866.0 440349.0 0
280420.0 440659.0 0
283998.0 441007.0 0
287605.0 441368.0 0
296561.0 439173.0 0
300256.0 439451.0 0
303966.0 439662.0 0
307674.0 439814.0 0
311370.0 439912.0 0
315051.0 439965.0 0
318719.0 439980.0 0
322378.0 439958.0 0
326031.0 439879.0 0
329657.0 439671.0 0
333205.0 439142.0 0
336020.0 441168.0 0
339687.0 440609.0 0
343256.0 440048.0 0
346766.0 439359.0 0
349522.0 441763.0 0
353155.0 440619.0 0
356713.0 439525.0 0
362839.0 442455.0 0
366138.0 441449.0 0
369363.0 440319.0 0
375455.0 441240.0 0
378668.0 439864.0 0
381660.0 441903.0 0
384854.0 440535.0 0
391048.0 441089.0 0
397286.0 441512.0 0
400419.0 440060.0 0
403604.0 442051.0 0
91540.2 445092.0 0
94786.6 443059.0 0
97927.7 444438.0 0
104306.0 443699.0 0
107514.0 444999.0 0
110649.0 442915.0 0
113850.0 444213.0 0
120079.0 443395.0 0
123258.0 444642.0 0
129440.0 443658.0 0
132705.0 444752.0 0
136086.0 444386.0 0
139118.0 442334.0 0
142580.0 443688.0 0
149037.0 442809.0 0
152628.0 444077.0 0
155238.0 441556.0 0
158720.0 442218.0 0
162320.0 442669.0 0
166006.0 442967.0 0
169743.0 443145.0 0
173503.0 443215.0 0
177260.0 443192.0 0
181003.0 443105.0 0
184734.0 442999.0 0
188459.0 442927.0 0
192166.0 442948.0 0
195896.0 443101.0 0
199752.0 443361.0 0
203541.0 443376.0 0
207279.0 443295.0 0
210983.0 443172.0 0
214662.0 443025.0 0
218318.0 442863.0 0
221953.0 442695.0 0
225569.0 442530.0 0
229167.0 442380.0 0
232751.0 442252.0 0
236323.0 442156.0 0
239887.0 442086.0 0
243433.0 442062.0 0
246979.0 442067.0 0
250540.0 442035.0 0
254055.0 441997.0 0
257524.0 441999.0 0
261004.0 442172.0 0
264462.0 442439.0 0
267987.0 442790.0 0
271565.0 443115.0 0
275155.0 443404.0 0
278738.0 443691.0 0
282330.0 444000.0 0
291242.0 441722.0 0
294911.0 442047.0 0
298608.0 442327.0 0
302325.0 442555.0 0
306050.0 442731.0 0
309776.0 442856.0 0
313497.0 442935.0 0
317214.0 442973.0 0
320932.0 442971.0 0
324658.0 442925.0 0
328400.0 442816.0 0
332132.0 442531.0 0
335337.0 444019.0 0
338913.0 443647.0 0
342479.0 443207.0 0
346006.0 442613.0 0
352341.0 443806.0 0
355923.0 442934.0 0
359298.0 443072.0 0
365600.0 444792.0 0
368949.0 443719.0 0
372224.0 442533.0 0
375100.0 444692.0 0
378405.0 443261.0 0
384679.0 443969.0 0
387882.0 442563.0 0
394121.0 443018.0 0
397241.0 444930.0 0
400446.0 443449.0 0
406837.0 444073.0 0
88284.2 447130.0 0
94706.5 446503.0 0
101121.0 445779.0 0
104363.0 447094.0 0
110762.0 446301.0 0
114040.0 447628.0 0
117065.0 445536.0 0
120299.0 446831.0 0
126482.0 445824.0 0
129797.0 446904.0 0
133339.0 447627.0 0
139598.0 445640.0 0
146117.0 444879.0 0
149726.0 445968.0 0
156138.0 444911.0 0
159775.0 445422.0 0
163501.0 445754.0 0
167277.0 445970.0 0
171075.0 446093.0 0
174875.0 446135.0 0
178660.0 446113.0 0
182424.0 446052.0 0
186165.0 445993.0 0
189890.0 445984.0 0
193616.0 446048.0 0
197381.0 446172.0 0
201204.0 446316.0 0
204993.0 446329.0 0
208742.0 446269.0 0
212460.0 446171.0 0
216152.0 446051.0 0
219821.0 445917.0 0
223468.0 445779.0 0
227096.0 445647.0 0
230708.0 445530.0 0
234305.0 445435.0 0
237893.0 445366.0 0
241469.0 445330.0 0
245042.0 445321.0 0
248619.0 445313.0 0
252177.0 445310.0 0
255708.0 445329.0 0
259211.0 445422.0 0
262721.0 445628.0 0
266248.0 445890.0 0
269819.0 446179.0 0
273417.0 446463.0 0
285944.0 444327.0 0
289584.0 444652.0 0
293254.0 444959.0 0
296952.0 445233.0 0
300671.0 445466.0 0
304405.0 445655.0 0
308146.0 445799.0 0
311889.0 445900.0 0
315631.0 445958.0 0
319371.0 445977.0 0
323113.0 445956.0 0
326857.0 445898.0 0
330590.0 445820.0 0
334013.0 446625.0 0
337790.0 446672.0 0
341466.0 446343.0 0
345117.0 445904.0 0
348670.0 445170.0 0
351662.0 446877.0 0
355204.0 446214.0 0
358609.0 446039.0 0
362116.0 445578.0 0
368409.0 447105.0 0
371786.0 445978.0 0
378063.0 446639.0 0
381414.0 445304.0 0
387715.0 446041.0 0
390924.0 444559.0 0
394003.0 446466.0 0
400427.0 446832.0 0
403663.0 445431.0 0
406927.0 447462.0 0
410111.0 446121.0 0
85020.0 449175.0 0
91475.9 448576.0 0
94719.6 449973.0 0
97925.7 447871.0 0
101195.0 449202.0 0
107648.0 448395.0 0
110975.0 449706.0 0
117342.0 448992.0 0
120663.0 450292.0 0
123573.0 448055.0 0
126917.0 449164.0 0
130396.0 450050.0 0
136727.0 447856.0 0
140265.0 448905.0 0
143181.0 447014.0 0
146670.0 448123.0 0
150208.0 449000.0 0
153455.0 447551.0 0
157176.0 448180.0 0
160968.0 448549.0 0
164792.0 448794.0 0
168627.0 448957.0 0
172459.0 449050.0 0
176277.0 449083.0 0
180074.0 449074.0 0
183846.0 449046.0 0
187596.0 449034.0 0
191340.0 449063.0 0
195097.0 449134.0 0
198881.0 449229.0 0
202689.0 449315.0 0
213957.0 449205.0 0
217661.0 449109.0 0
221342.0 449003.0 0
225002.0 448895.0 0
228644.0 448793.0 0
232271.0 448707.0 0
235885.0 448640.0 0
239490.0 448599.0 0
243088.0 448583.0 0
246685.0 448581.0 0
250272.0 448592.0 0
253843.0 448623.0 0
257394.0 448697.0 0
260935.0 448840.0 0
264490.0 449049.0 0
268067.0 449290.0 0
277024.0 446742.0 0
280637.0 447027.0 0
284264.0 447322.0 0
287913.0 447621.0 0
291586.0 447908.0 0
295286.0 448172.0 0
299007.0 448404.0 0
302745.0 448598.0 0
306495.0 448754.0 0
310250.0 448871.0 0
314005.0 448950.0 0
317757.0 448991.0 0
321500.0 448998.0 0
325228.0 448980.0 0
328918.0 448970.0 0
332463.0 449321.0 0
343868.0 449087.0 0
347628.0 448681.0 0
350996.0 449749.0 0
354527.0 449400.0 0
357948.0 449134.0 0
361409.0 448746.0 0
364909.0 448081.0 0
371265.0 449436.0 0
374650.0 448185.0 0
377677.0 449938.0 0
381136.0 448674.0 0
384467.0 447413.0 0
390759.0 448074.0 0
393834.0 449929.0 0
397143.0 448348.0 0
400358.0 450195.0 0
403675.0 448801.0 0
410227.0 449541.0 0
413417.0 448190.0 0
416733.0 450267.0 0
81750.8 451222.0 0
84995.7 452745.0 0
88238.5 450656.0 0
91508.7 452087.0 0
98011.5 451327.0 0
101350.0 452645.0 0
104508.0 450509.0 0
107868.0 451804.0 0
114344.0 451059.0 0
117743.0 452481.0 0
124027.0 451470.0 0
127469.0 452461.0 0
133889.0 450688.0 0
137295.0 451176.0 0
140792.0 452046.0 0
143854.0 450482.0 0
147392.0 451411.0 0
151128.0 451853.0 0
154661.0 451000.0 0
158475.0 451372.0 0
162328.0 451632.0 0
166186.0 451823.0 0
170040.0 451954.0 0
173881.0 452033.0 0
177705.0 452069.0 0
181506.0 452079.0 0
185286.0 452083.0 0
189053.0 452102.0 0
192821.0 452148.0 0
206474.0 449325.0 0
210229.0 449281.0 0
248348.0 451861.0 0
271669.0 449548.0 0
275288.0 449811.0 0
278919.0 450078.0 0
282562.0 450350.0 0
286223.0 450624.0 0
289904.0 450892.0 0
293607.0 451143.0 0
297332.0 451369.0 0
301074.0 451565.0 0
304829.0 451728.0 0
308592.0 451857.0 0
336261.0 449516.0 0
340093.0 449405.0 0
346026.0 451967.0 0
357021.0 452289.0 0
360576.0 452000.0 0
364091.0 451424.0 0
367723.0 450435.0 0
374165.0 451767.0 0
380897.0 451980.0 0
384264.0 450858.0 0
387528.0 449559.0 0
390538.0 451675.0 0
393630.0 453367.0 0
397002.0 451764.0 0
403659.0 452148.0 0
406974.0 450848.0 0
413527.0 451663.0 0
420037.0 452338.0 0
75203.0 455324.0 0
78478.5 453271.0 0
81751.7 454839.0 0
88290.3 454210.0 0
94825.0 453470.0 0
98185.5 454808.0 0
104733.0 453938.0 0
108160.0 455216.0 0
111278.0 453113.0 0
114746.0 454480.0 0
121141.0 453779.0 0
124582.0 454889.0 0
130950.0 453256.0 0
134419.0 453875.0 0
137857.0 454425.0 0
141395.0 454989.0 0
144787.0 454028.0 0
148573.0 454541.0 0
152451.0 454646.0 0
156107.0 454313.0 0
159930.0 454520.0 0
196601.0 452216.0 0
200395.0 452291.0 0
204196.0 452349.0 0
207980.0 452359.0 0
211740.0 452329.0 0
215477.0 452273.0 0
219191.0 452200.0 0
222884.0 452120.0 0
226558.0 452039.0 0
230216.0 451966.0 0
233859.0 451906.0 0
237492.0 451866.0 0
241116.0 451847.0 0
244736.0 451845.0 0
251950.0 451897.0 0
255539.0 451963.0 0
259118.0 452075.0 0
262699.0 452238.0 0
266294.0 452442.0 0
269907.0 452667.0 0
273537.0 452907.0 0
277181.0 453154.0 0
280839.0 453406.0 0
284512.0 453659.0 0
288202.0 453908.0 0
291913.0 454145.0 0
295643.0 454363.0 0
312357.0 451952.0 0
316120.0 452014.0 0
319873.0 452048.0 0
323610.0 452062.0 0
327315.0 452084.0 0
330954.0 452257.0 0
334682.0 452380.0 0
338499.0 452373.0 0
342301.0 452208.0 0
349527.0 452348.0 0
353370.0 452472.0 0
359459.0 455229.0 0
363071.0 454902.0 0
366858.0 453705.0 0
370576.0 452832.0 0
377446.0 453059.0 0
383936.0 454307.0 0
387310.0 453150.0 0
396936.0 455166.0 0
400296.0 453519.0 0
403584.0 455494.0 0
406949.0 454241.0 0
410266.0 452977.0 0
413530.0 455166.0 0
416812.0 453809.0 0
423313.0 454394.0 0
71922.2 457379.0 0
78504.5 456936.0 0
85071.9 456348.0 0
88439.4 457796.0 0
91631.9 455624.0 0
95016.8 456991.0 0
101584.0 456109.0 0
105018.0 457382.0 0
111642.0 456499.0 0
115192.0 457858.0 0
118242.0 456025.0 0
121701.0 457304.0 0
128087.0 455792.0 0
131627.0 456524.0 0
135187.0 457119.0 0
138808.0 457597.0 0
163781.0 454713.0 0
167638.0 454867.0 0
171490.0 454978.0 0
175331.0 455052.0 0
179156.0 455096.0 0
182962.0 455124.0 0
186754.0 455151.0 0
190539.0 455189.0 0
194327.0 455243.0 0
198122.0 455307.0 0
201923.0 455371.0 0
205723.0 455416.0 0
209509.0 455428.0 0
213275.0 455411.0 0
217020.0 455372.0 0
220745.0 455321.0 0
224451.0 455265.0 0
228139.0 455209.0 0
231813.0 455162.0 0
235474.0 455127.0 0
239125.0 455109.0 0
242769.0 455108.0 0
246406.0 455125.0 0
250035.0 455162.0 0
253655.0 455223.0 0
257267.0 455318.0 0
260878.0 455451.0 0
264494.0 455620.0 0
268124.0 455816.0 0
271766.0 456030.0 0
275424.0 456256.0 0
279094.0 456488.0 0
282780.0 456722.0 0
286482.0 456953.0 0
299390.0 454556.0 0
303150.0 454723.0 0
306920.0 454860.0 0
310694.0 454968.0 0
314468.0 455047.0 0
318235.0 455102.0 0
321988.0 455139.0 0
325719.0 455178.0 0
329417.0 455277.0 0
333145.0 455359.0 0
336916.0 455363.0 0
340700.0 455284.0 0
344437.0 455151.0 0
348060.0 455233.0 0
351835.0 455276.0 0
355719.0 455315.0 0
365967.0 456884.0 0
369670.0 456166.0 0
373347.0 455380.0 0
376854.0 456026.0 0
380465.0 455284.0 0
386853.0 456735.0 0
390303.0 455443.0 0
393642.0 456679.0 0
400167.0 456832.0 0
406839.0 457652.0 0
410202.0 456438.0 0
416741.0 457401.0 0
420055.0 455969.0 0
423259.0 458123.0 0
426557.0 456430.0 0
68635.8 459437.0 0
75253.0 459035.0 0
78626.7 460637.0 0
81850.3 458491.0 0
85241.5 459981.0 0
91849.1 459191.0 0
95300.7 460539.0 0
98441.4 458314.0 0
101900.0 459601.0 0
108489.0 458626.0 0
111990.0 459858.0 0
118799.0 459670.0 0
125251.0 458318.0 0
128862.0 459139.0 0
132521.0 459803.0 0
142593.0 457765.0 0
146183.0 457368.0 0
150039.0 457561.0 0
153891.0 457585.0 0
157617.0 457516.0 0
161425.0 457660.0 0
165265.0 457810.0 0
169115.0 457937.0 0
172964.0 458035.0 0
176803.0 458107.0 0
180631.0 458159.0 0
184445.0 458201.0 0
188251.0 458243.0 0
192052.0 458293.0 0
195855.0 458351.0 0
199661.0 458414.0 0
203468.0 458471.0 0
207271.0 458511.0 0
211061.0 458528.0 0
214833.0 458523.0 0
218588.0 458502.0 0
222323.0 458471.0 0
226042.0 458436.0 0
229746.0 458404.0 0
233436.0 458380.0 0
237114.0 458367.0 0
240784.0 458369.0 0
244446.0 458387.0 0
248101.0 458422.0 0
251748.0 458480.0 0
255389.0 458563.0 0
259027.0 458676.0 0
262668.0 458820.0 0
266316.0 458990.0 0
269975.0 459180.0 0
273646.0 459384.0 0
277330.0 459596.0 0
290201.0 457176.0 0
293937.0 457384.0 0
297690.0 457573.0 0
301457.0 457739.0 0
305234.0 457881.0 0
309017.0 457998.0 0
312802.0 458090.0 0
316584.0 458161.0 0
320357.0 458215.0 0
324115.0 458265.0 0
327854.0 458334.0 0
331602.0 458394.0 0
335368.0 458407.0 0
339138.0 458363.0 0
342886.0 458283.0 0
346575.0 458263.0 0
350305.0 458209.0 0
354113.0 458141.0 0
358002.0 458293.0 0
361579.0 458460.0 0
364779.0 459910.0 0
368514.0 459488.0 0
372188.0 458899.0 0
375764.0 458944.0 0
379563.0 458517.0 0
383263.0 457732.0 0
389627.0 459274.0 0
393210.0 459821.0 0
396776.0 458722.0 0
400044.0 460049.0 0
403456.0 458836.0 0
409969.0 459945.0 0
413374.0 458716.0 0
419911.0 459658.0 0
426433.0 460259.0 0
429776.0 458450.0 0
62028.7 463573.0 0
65339.5 461501.0 0
68731.4 463236.0 0
71997.7 461137.0 0
75397.6 462785.0 0
82041.3 462177.0 0
88677.0 461410.0 0
92158.3 462782.0 0
98792.1 461846.0 0
102320.0 463119.0 0
105390.0 460853.0 0
108905.0 462067.0 0
115525.0 461120.0 0
122415.0 460831.0 0
126092.0 461741.0 0
129826.0 462469.0 0
136242.0 460306.0 0
140068.0 460596.0 0
143935.0 460638.0 0
147670.0 460521.0 0
151504.0 460613.0 0
155319.0 460659.0 0
159098.0 460687.0 0
162917.0 460802.0 0
166758.0 460925.0 0
170607.0 461033.0 0
174456.0 461123.0 0
178297.0 461194.0 0
182130.0 461253.0 0
185955.0 461305.0 0
189773.0 461358.0 0
193589.0 461415.0 0
197405.0 461477.0 0
201220.0 461538.0 0
205034.0 461593.0 0
208841.0 461634.0 0
212636.0 461657.0 0
216416.0 461664.0 0
220180.0 461659.0 0
223927.0 461647.0 0
227659.0 461632.0 0
231377.0 461621.0 0
235083.0 461618.0 0
238779.0 461625.0 0
242466.0 461645.0 0
246146.0 461681.0 0
249819.0 461735.0 0
253486.0 461811.0 0
257151.0 461911.0 0
260815.0 462036.0 0
264484.0 462184.0 0
281028.0 459811.0 0
284741.0 460026.0 0
288469.0 460235.0 0
292214.0 460432.0 0
295974.0 460615.0 0
299747.0 460779.0 0
303532.0 460922.0 0
307325.0 461044.0 0
311121.0 461145.0 0
314917.0 461227.0 0
318710.0 461293.0 0
322493.0 461351.0 0
326266.0 461410.0 0
330040.0 461459.0 0
333822.0 461478.0 0
337604.0 461456.0 0
341371.0 461402.0 0
345106.0 461354.0 0
348837.0 461266.0 0
352574.0 461123.0 0
356326.0 461021.0 0
370816.0 462297.0 0
374500.0 462030.0 0
378328.0 461662.0 0
382181.0 461070.0 0
385960.0 460274.0 0
392174.0 462921.0 0
395965.0 462288.0 0
399449.0 463111.0 0
403070.0 462218.0 0
406539.0 461114.0 0
409501.0 463493.0 0
413011.0 462306.0 0
416484.0 461036.0 0
419568.0 463371.0 0
423058.0 461916.0 0
432976.0 460481.0 0
436158.0 462445.0 0
58700.8 465656.0 0
65449.9 465335.0 0
72159.4 464932.0 0
78835.1 464375.0 0
82316.1 465895.0 0
85500.3 463645.0 0
89005.9 465048.0 0
95683.2 464109.0 0
99250.2 465401.0 0
105880.0 464356.0 0
109473.0 465534.0 0
112452.0 463242.0 0
116111.0 464289.0 0
119643.0 463376.0 0
123340.0 464364.0 0
127117.0 465145.0 0
133619.0 463037.0 0
137475.0 463400.0 0
141412.0 463565.0 0
145294.0 463636.0 0
149109.0 463638.0 0
152943.0 463717.0 0
156767.0 463782.0 0
160581.0 463847.0 0
164415.0 463950.0 0
168263.0 464056.0 0
172116.0 464153.0 0
175967.0 464237.0 0
179815.0 464309.0 0
183656.0 464372.0 0
187491.0 464432.0 0
191321.0 464493.0 0
195149.0 464556.0 0
198975.0 464621.0 0
202800.0 464683.0 0
206620.0 464739.0 0
210433.0 464783.0 0
214235.0 464814.0 0
218023.0 464833.0 0
221796.0 464843.0 0
268160.0 462353.0 0
271847.0 462536.0 0
275545.0 462729.0 0
279255.0 462927.0 0
282980.0 463125.0 0
286718.0 463320.0 0
290472.0 463507.0 0
294240.0 463682.0 0
298021.0 463841.0 0
301814.0 463983.0 0
305615.0 464108.0 0
309423.0 464214.0 0
313233.0 464303.0 0
317043.0 464377.0 0
320849.0 464441.0 0
324650.0 464498.0 0
328452.0 464544.0 0
332257.0 464566.0 0
336064.0 464558.0 0
339865.0 464520.0 0
343651.0 464465.0 0
347433.0 464370.0 0
351217.0 464206.0 0
355019.0 463960.0 0
359484.0 462701.0 0
363123.0 462803.0 0
367023.0 462715.0 0
373154.0 465247.0 0
376996.0 464847.0 0
380878.0 464342.0 0
384740.0 463711.0 0
388528.0 462995.0 0
394766.0 465709.0 0
398447.0 466131.0 0
402257.0 465532.0 0
405935.0 464595.0 0
412436.0 465915.0 0
416021.0 464696.0 0
426187.0 464174.0 0
429598.0 462359.0 0
432516.0 464773.0 0
435987.0 466272.0 0
439424.0 464483.0 0
442726.0 466550.0 0
55354.5 467751.0 0
62147.4 467437.0 0
68906.5 467068.0 0
75621.1 466573.0 0
79123.5 468147.0 0
85843.1 467336.0 0
92556.9 466392.0 0
96156.2 467693.0 0
102858.0 466658.0 0
106505.0 467877.0 0
113145.0 466601.0 0
116911.0 467464.0 0
120626.0 467063.0 0
124408.0 467867.0 0
130955.0 465768.0 0
134844.0 466232.0 0
138873.0 466415.0 0
142812.0 466593.0 0
146701.0 466699.0 0
150549.0 466764.0 0
154396.0 466850.0 0
158238.0 466929.0 0
162077.0 467011.0 0
165927.0 467107.0 0
169784.0 467204.0 0
173643.0 467294.0 0
177502.0 467375.0 0
181357.0 467448.0 0
185206.0 467516.0 0
189051.0 467582.0 0
192893.0 467649.0 0
225555.0 464847.0 0
229300.0 464852.0 0
233033.0 464860.0 0
236755.0 464875.0 0
240467.0 464900.0 0
244172.0 464938.0 0
247869.0 464991.0 0
251561.0 465061.0 0
255250.0 465152.0 0
258938.0 465263.0 0
262627.0 465395.0 0
266323.0 465545.0 0
270025.0 465709.0 0
273738.0 465885.0 0
277462.0 466066.0 0
281198.0 466250.0 0
284948.0 466431.0 0
288711.0 466607.0 0
292487.0 466773.0 0
296276.0 466926.0 0
300077.0 467066.0 0
303888.0 467190.0 0
307705.0 467298.0 0
311528.0 467391.0 0
315354.0 467470.0 0
319180.0 467538.0 0
342162.0 467586.0 0
345997.0 467490.0 0
349844.0 467325.0 0
353715.0 467034.0 0
357831.0 466228.0 0
361580.0 466001.0 0
365430.0 465828.0 0
369332.0 465567.0 0
379502.0 467616.0 0
383389.0 467079.0 0
387226.0 466506.0 0
390965.0 466164.0 0
401261.0 468784.0 0
405069.0 468015.0 0
408795.0 467030.0 0
415364.0 468372.0 0
419008.0 467109.0 0
422624.0 465723.0 0
429117.0 466664.0 0
439282.0 468348.0 0
446040.0 468626.0 0
51989.7 469857.0 0
58821.2 469549.0 0
62321.2 471326.0 0
65628.7 469198.0 0
69141.2 470938.0 0
72393.6 468768.0 0
75915.9 470396.0 0
82671.4 469644.0 0
86265.8 471050.0 0
89417.3 468706.0 0
93044.2 470014.0 0
99805.0 468965.0 0
103500.0 470208.0 0
110214.0 468987.0 0
114004.0 469946.0 0
117925.0 470686.0 0
121737.0 470686.0 0
128260.0 468522.0 0
132147.0 469053.0 0
136408.0 469253.0 0
140341.0 469500.0 0
144255.0 469687.0 0
148144.0 469814.0 0
152011.0 469911.0 0
155875.0 470006.0 0
159735.0 470095.0 0
163594.0 470184.0 0
167458.0 470277.0 0
196732.0 467717.0 0
200568.0 467785.0 0
204400.0 467850.0 0
208228.0 467909.0 0
212048.0 467958.0 0
215856.0 467997.0 0
219653.0 468027.0 0
223436.0 468051.0 0
227207.0 468072.0 0
230965.0 468093.0 0
234712.0 468119.0 0
238449.0 468151.0 0
242178.0 468192.0 0
245899.0 468246.0 0
249615.0 468314.0 0
253327.0 468398.0 0
257037.0 468500.0 0
260748.0 468619.0 0
264462.0 468754.0 0
268182.0 468902.0 0
271910.0 469062.0 0
275648.0 469228.0 0
279396.0 469397.0 0
283157.0 469566.0 0
286930.0 469730.0 0
290715.0 469887.0 0
294513.0 470035.0 0
323005.0 467596.0 0
326832.0 467641.0 0
330663.0 467667.0 0
334497.0 467667.0 0
338331.0 467640.0 0
352303.0 470199.0 0
356257.0 469670.0 0
360084.0 469324.0 0
363930.0 469048.0 0
367819.0 468772.0 0
371716.0 468470.0 0
375607.0 468084.0 0
381994.0 470419.0 0
385875.0 469914.0 0
389713.0 469493.0 0
393589.0 469108.0 0
397457.0 469267.0 0
404075.0 471408.0 0
407907.0 470527.0 0
411671.0 469511.0 0
418271.0 470880.0 0
421932.0 469576.0 0
425557.0 468171.0 0
432082.0 469119.0 0
435787.0 470070.0 0
442562.0 470475.0 0
449375.0 470712.0 0
48607.7 471974.0 0
52113.3 473812.0 0
55474.8 471674.0 0
58989.6 473468.0 0
65854.2 473091.0 0
72685.7 472646.0 0
79486.5 471951.0 0
83107.5 473422.0 0
89912.3 472376.0 0
93610.2 473642.0 0
96721.8 471286.0 0
100450.0 472534.0 0
104224.0 473762.0 0
107244.0 471395.0 0
111023.0 472435.0 0
115061.0 473221.0 0
125590.0 471332.0 0
129482.0 471895.0 0
133942.0 472058.0 0
137876.0 472403.0 0
141800.0 472646.0 0
171325.0 470369.0 0
175193.0 470455.0 0
179059.0 470535.0 0
182922.0 470611.0 0
186781.0 470683.0 0
190636.0 470754.0 0
194488.0 470826.0 0
198336.0 470898.0 0
202181.0 470970.0 0
206022.0 471038.0 0
209857.0 471101.0 0
213684.0 471157.0 0
217500.0 471205.0 0
221306.0 471247.0 0
225099.0 471284.0 0
228881.0 471319.0 0
232652.0 471356.0 0
236414.0 471397.0 0
240166.0 471444.0 0
243910.0 471501.0 0
247649.0 471569.0 0
251383.0 471649.0 0
255115.0 471744.0 0
258846.0 471853.0 0
262580.0 471977.0 0
266317.0 472112.0 0
270061.0 472258.0 0
273812.0 472410.0 0
277574.0 472567.0 0
298322.0 470170.0 0
302141.0 470292.0 0
305969.0 470400.0 0
309803.0 470495.0 0
313643.0 470576.0 0
317485.0 470646.0 0
321331.0 470705.0 0
325180.0 470751.0 0
329034.0 470779.0 0
332893.0 470785.0 0
336756.0 470765.0 0
340623.0 470716.0 0
344497.0 470624.0 0
348387.0 470468.0 0
358584.0 472673.0 0
362455.0 472337.0 0
366343.0 472024.0 0
370248.0 471704.0 0
374168.0 471339.0 0
378086.0 470906.0 0
388337.0 472856.0 0
392175.0 472462.0 0
395973.0 472244.0 0
400222.0 472096.0 0
410777.0 473085.0 0
414555.0 472049.0 0
421166.0 473446.0 0
424842.0 472095.0 0
428501.0 470686.0 0
435394.0 473878.0 0
439036.0 472251.0 0
442348.0 474436.0 0
445877.0 472587.0 0
452742.0 472819.0 0
55641.1 475628.0 0
62531.6 475244.0 0
69421.1 474843.0 0
76272.4 474249.0 0
79931.1 475779.0 0
86775.0 474782.0 0
90498.8 476054.0 0
97348.4 474880.0 0
101118.0 476103.0 0
107994.0 474952.0 0
112162.0 475769.0 0
119019.0 474064.0 0
122974.0 474232.0 0
126879.0 474773.0 0
131479.0 474884.0 0
135410.0 475297.0 0
145715.0 472830.0 0
149614.0 472968.0 0
153501.0 473080.0 0
157382.0 473183.0 0
161258.0 473278.0 0
165134.0 473371.0 0
169011.0 473462.0 0
172889.0 473551.0 0
176766.0 473636.0 0
180641.0 473717.0 0
184512.0 473795.0 0
188380.0 473871.0 0
192245.0 473947.0 0
196106.0 474024.0 0
199963.0 474100.0 0
203817.0 474176.0 0
207665.0 474249.0 0
211507.0 474317.0 0
215341.0 474380.0 0
219166.0 474437.0 0
222980.0 474489.0 0
226784.0 474539.0 0
230578.0 474588.0 0
234362.0 474639.0 0
238136.0 474694.0 0
241904.0 474755.0 0
245664.0 474824.0 0
249420.0 474904.0 0
253173.0 474995.0 0
256924.0 475097.0 0
260676.0 475212.0 0
281346.0 472723.0 0
285129.0 472877.0 0
288924.0 473025.0 0
292731.0 473166.0 0
296548.0 473295.0 0
300376.0 473414.0 0
304213.0 473521.0 0
308057.0 473615.0 0
311909.0 473697.0 0
315766.0 473768.0 0
319627.0 473827.0 0
323495.0 473873.0 0
327369.0 473904.0 0
331250.0 473914.0 0
335137.0 473900.0 0
339031.0 473858.0 0
342933.0 473776.0 0
346848.0 473637.0 0
350777.0 473409.0 0
354712.0 473038.0 0
364869.0 475318.0 0
368780.0 474982.0 0
372704.0 474617.0 0
376637.0 474207.0 0
380565.0 473756.0 0
384469.0 473288.0 0
390829.0 475835.0 0
394665.0 475511.0 0
398520.0 475108.0 0
403092.0 474845.0 0
406944.0 474008.0 0
413653.0 475714.0 0
417438.0 474653.0 0
427799.0 474610.0 0
431510.0 473202.0 0
438643.0 476151.0 0
449234.0 474685.0 0
59192.6 477419.0 0
62769.2 479192.0 0
66101.4 477007.0 0
69703.9 478779.0 0
73023.3 476570.0 0
76701.9 478104.0 0
83641.1 477233.0 0
87407.2 478521.0 0
94249.6 477283.0 0
98018.9 478491.0 0
104879.0 477346.0 0
109348.0 478356.0 0
115995.0 476580.0 0
120608.0 477332.0 0
124427.0 477755.0 0
129034.0 477763.0 0
139349.0 475601.0 0
143282.0 475830.0 0
147207.0 476009.0 0
151119.0 476152.0 0
155022.0 476272.0 0
158918.0 476379.0 0
162810.0 476478.0 0
166700.0 476573.0 0
170589.0 476664.0 0
174476.0 476753.0 0
178362.0 476838.0 0
182245.0 476920.0 0
186125.0 477001.0 0
190002.0 477081.0 0
193875.0 477161.0 0
197745.0 477242.0 0
201611.0 477323.0 0
205472.0 477403.0 0
209328.0 477481.0 0
213178.0 477555.0 0
217019.0 477625.0 0
220852.0 477692.0 0
224676.0 477755.0 0
228490.0 477816.0 0
264431.0 475337.0 0
268190.0 475471.0 0
271957.0 475612.0 0
275731.0 475757.0 0
279515.0 475902.0 0
283309.0 476046.0 0
287113.0 476186.0 0
290929.0 476319.0 0
294755.0 476443.0 0
298591.0 476557.0 0
302437.0 476661.0 0
306291.0 476754.0 0
310152.0 476835.0 0
314021.0 476906.0 0
317897.0 476964.0 0
321779.0 477010.0 0
325669.0 477042.0 0
329568.0 477055.0 0
333475.0 477047.0 0
337390.0 477013.0 0
341314.0 476944.0 0
345249.0 476827.0 0
349193.0 476642.0 0
353137.0 476363.0 0
357048.0 476024.0 0
360962.0 475654.0 0
371230.0 477932.0 0
375166.0 477530.0 0
379109.0 477096.0 0
383041.0 476653.0 0
386947.0 476225.0 0
397263.0 478448.0 0
401138.0 477853.0 0
405997.0 477523.0 0
409830.0 476655.0 0
416512.0 478416.0 0
420325.0 477314.0 0
424092.0 476027.0 0
430607.0 477339.0 0
434514.0 477683.0 0
66356.5 480955.0 0
80458.4 479627.0 0
84374.8 481059.0 0
91179.9 479754.0 0
94959.7 480952.0 0
101777.0 479718.0 0
106380.0 480714.0 0
113126.0 479266.0 0
117619.0 479685.0 0
121952.0 480840.0 0
132962.0 478212.0 0
136908.0 478560.0 0
140857.0 478830.0 0
144800.0 479045.0 0
148735.0 479218.0 0
152660.0 479362.0 0
156576.0 479485.0 0
160486.0 479595.0 0
164391.0 479697.0 0
168292.0 479793.0 0
172191.0 479885.0 0
176087.0 479973.0 0
179982.0 480060.0 0
183873.0 480144.0 0
187761.0 480228.0 0
191646.0 480311.0 0
195528.0 480396.0 0
199405.0 480481.0 0
203279.0 480567.0 0
232295.0 477877.0 0
236091.0 477940.0 0
239880.0 478008.0 0
243661.0 478081.0 0
247438.0 478162.0 0
251211.0 478251.0 0
254981.0 478350.0 0
258752.0 478458.0 0
262524.0 478575.0 0
266300.0 478700.0 0
270081.0 478831.0 0
273868.0 478965.0 0
277664.0 479101.0 0
281469.0 479236.0 0
285284.0 479368.0 0
289108.0 479494.0 0
292943.0 479612.0 0
296787.0 479722.0 0
300641.0 479822.0 0
304503.0 479912.0 0
308374.0 479992.0 0
312253.0 480061.0 0
316139.0 480119.0 0
320034.0 480164.0 0
323937.0 480196.0 0
327849.0 480212.0 0
331771.0 480208.0 0
335702.0 480182.0 0
339644.0 480125.0 0
343595.0 480030.0 0
347555.0 479883.0 0
351517.0 479667.0 0
355471.0 479382.0 0
359441.0 478972.0 0
363378.0 478633.0 0
367303.0 478296.0 0
377632.0 480450.0 0
381582.0 480015.0 0
385524.0 479595.0 0
389448.0 479194.0 0
393370.0 478854.0 0
399959.0 481295.0 0
403889.0 480511.0 0
408834.0 480247.0 0
412678.0 479380.0 0
419341.0 481181.0 0
423163.0 480059.0 0
426923.0 478785.0 0
437718.0 480003.0 0
77234.7 481979.0 0
81240.9 483474.0 0
88156.2 482297.0 0
91949.0 483488.0 0
98729.5 482145.0 0
103312.0 483087.0 0
107072.0 484369.0 0
110237.0 482001.0 0
114867.0 482401.0 0
118739.0 483053.0 0
126658.0 480735.0 0
130559.0 481174.0 0
134495.0 481545.0 0
138448.0 481844.0 0
142404.0 482086.0 0
146355.0 482286.0 0
150299.0 482453.0 0
154235.0 482595.0 0
158163.0 482720.0 0
162084.0 482832.0 0
165999.0 482935.0 0
169909.0 483032.0 0
173817.0 483125.0 0
177722.0 483214.0 0
207148.0 480652.0 0
211011.0 480735.0 0
214868.0 480816.0 0
218717.0 480894.0 0
222558.0 480969.0 0
226391.0 481041.0 0
230216.0 481113.0 0
234032.0 481186.0 0
237840.0 481260.0 0
241642.0 481339.0 0
245438.0 481422.0 0
249231.0 481512.0 0
253020.0 481609.0 0
256808.0 481713.0 0
260597.0 481825.0 0
264389.0 481942.0 0
268185.0 482065.0 0
271986.0 482192.0 0
275794.0 482319.0 0
279610.0 482446.0 0
283435.0 482570.0 0
287268.0 482689.0 0
291111.0 482802.0 0
294964.0 482908.0 0
298825.0 483004.0 0
302696.0 483091.0 0
306575.0 483169.0 0
345858.0 483130.0 0
349831.0 482965.0 0
353798.0 482740.0 0
357934.0 482277.0 0
361875.0 481956.0 0
365808.0 481634.0 0
369741.0 481282.0 0
373679.0 480886.0 0
380100.0 483393.0 0
384057.0 482966.0 0
388020.0 482570.0 0
391966.0 482179.0 0
396005.0 481826.0 0
406676.0 483286.0 0
411604.0 483052.0 0
415482.0 482187.0 0
78051.4 485852.0 0
85181.0 484925.0 0
88973.9 486098.0 0
95736.9 484660.0 0
100235.0 485568.0 0
103998.0 486752.0 0
112230.0 485202.0 0
116159.0 485835.0 0
121127.0 485749.0 0
124354.0 483763.0 0
128204.0 484211.0 0
132115.0 484577.0 0
136062.0 484886.0 0
140024.0 485145.0 0
143988.0 485364.0 0
147948.0 485550.0 0
151900.0 485711.0 0
181624.0 483302.0 0
185523.0 483388.0 0
189419.0 483475.0 0
193312.0 483563.0 0
197201.0 483652.0 0
201086.0 483742.0 0
204967.0 483832.0 0
208843.0 483922.0 0
212713.0 484011.0 0
216577.0 484099.0 0
220434.0 484184.0 0
224283.0 484267.0 0
228125.0 484349.0 0
231960.0 484431.0 0
235787.0 484513.0 0
239608.0 484598.0 0
243423.0 484685.0 0
247233.0 484777.0 0
251041.0 484875.0 0
254846.0 484977.0 0
258652.0 485085.0 0
262459.0 485198.0 0
266269.0 485315.0 0
270084.0 485434.0 0
273904.0 485555.0 0
277731.0 485675.0 0
310462.0 483236.0 0
314357.0 483292.0 0
318261.0 483337.0 0
322174.0 483369.0 0
326097.0 483386.0 0
330029.0 483386.0 0
333972.0 483365.0 0
337925.0 483321.0 0
341888.0 483245.0 0
356386.0 485552.0 0
360340.0 485284.0 0
364281.0 484987.0 0
368224.0 484659.0 0
372171.0 484279.0 0
376140.0 483827.0 0
386522.0 485939.0 0
390534.0 485568.0 0
394488.0 485137.0 0
398700.0 484744.0 0
402782.0 484006.0 0
409394.0 486184.0 0
414309.0 485946.0 0
82035.6 487356.0 0
92779.3 487257.0 0
97214.5 488163.0 0
109156.0 487537.0 0
125814.0 487298.0 0
129744.0 487664.0 0
133697.0 487968.0 0
137665.0 488231.0 0
155845.0 485852.0 0
159781.0 485977.0 0
163710.0 486090.0 0
167633.0 486194.0 0
171552.0 486291.0 0
175467.0 486385.0 0
179380.0 486475.0 0
183289.0 486564.0 0
187195.0 486653.0 0
191099.0 486743.0 0
194998.0 486835.0 0
198894.0 486928.0 0
202786.0 487023.0 0
206674.0 487119.0 0
210556.0 487214.0 0
214433.0 487309.0 0
218304.0 487403.0 0
222169.0 487496.0 0
226026.0 487587.0 0
229877.0 487677.0 0
233721.0 487768.0 0
237560.0 487859.0 0
241392.0 487952.0 0
245220.0 488047.0 0
249045.0 488146.0 0
252867.0 488249.0 0
281566.0 485792.0 0
285409.0 485906.0 0
289261.0 486013.0 0
293122.0 486114.0 0
296991.0 486207.0 0
300868.0 486291.0 0
304755.0 486366.0 0
308649.0 486431.0 0
312552.0 486486.0 0
316464.0 486530.0 0
320384.0 486561.0 0
324314.0 486579.0 0
328254.0 486581.0 0
332204.0 486566.0 0
336164.0 486531.0 0
340134.0 486472.0 0
344110.0 486384.0 0
348088.0 486261.0 0
352060.0 486095.0 0
362701.0 488348.0 0
366653.0 488049.0 0
370614.0 487705.0 0
374645.0 487222.0 0
378607.0 486797.0 0
382562.0 486366.0 0
393102.0 488556.0 0
397062.0 488067.0 0
401575.0 487476.0 0
405501.0 486876.0 0
89828.6 489915.0 0
94284.5 490828.0 0
100966.0 489295.0 0
104692.0 490387.0 0
108364.0 491233.0 0
113729.0 488650.0 0
118527.0 488699.0 0
122421.0 489169.0 0
127402.0 490804.0 0
141639.0 488460.0 0
145611.0 488661.0 0
149577.0 488837.0 0
153535.0 488993.0 0
157486.0 489132.0 0
161428.0 489256.0 0
165363.0 489369.0 0
169293.0 489473.0 0
173219.0 489571.0 0
177141.0 489665.0 0
181060.0 489756.0 0
184976.0 489847.0 0
188889.0 489939.0 0
192798.0 490033.0 0
196704.0 490128.0 0
200607.0 490226.0 0
204505.0 490326.0 0
208399.0 490427.0 0
212287.0 490528.0 0
216171.0 490629.0 0
220048.0 490729.0 0
223920.0 490829.0 0
256689.0 488355.0 0
260511.0 488465.0 0
264335.0 488577.0 0
268163.0 488692.0 0
271996.0 488807.0 0
275834.0 488921.0 0
279679.0 489033.0 0
283532.0 489141.0 0
287392.0 489244.0 0
291261.0 489341.0 0
295137.0 489430.0 0
299022.0 489511.0 0
302915.0 489584.0 0
306816.0 489647.0 0
310725.0 489700.0 0
314643.0 489743.0 0
318569.0 489774.0 0
322505.0 489793.0 0
326450.0 489798.0 0
330404.0 489787.0 0
334367.0 489759.0 0
338339.0 489713.0 0
342318.0 489646.0 0
346298.0 489558.0 0
350271.0 489442.0 0
354782.0 488807.0 0
358746.0 488604.0 0
373140.0 490627.0 0
377098.0 490220.0 0
381065.0 489801.0 0
385020.0 489361.0 0
388977.0 488925.0 0
395692.0 491531.0 0
399902.0 490792.0 0
404208.0 490435.0 0
408132.0 489863.0 0
412035.0 489173.0 0
91377.9 493532.0 0
98079.7 491960.0 0
101884.0 493053.0 0
105726.0 494106.0 0
112069.0 491911.0 0
116023.0 491768.0 0
119938.0 492212.0 0
123896.0 492533.0 0
131361.0 491097.0 0
135334.0 491353.0 0
139313.0 491583.0 0
143294.0 491791.0 0
147270.0 491979.0 0
151240.0 492148.0 0
155202.0 492299.0 0
159156.0 492436.0 0
163103.0 492559.0 0
167043.0 492671.0 0
170978.0 492774.0 0
174909.0 492871.0 0
178836.0 492965.0 0
182761.0 493058.0 0
186683.0 493151.0 0
190602.0 493245.0 0
194517.0 493342.0 0
198429.0 493442.0 0
202337.0 493545.0 0
227786.0 490927.0 0
231646.0 491025.0 0
235500.0 491123.0 0
239348.0 491222.0 0
243193.0 491322.0 0
247033.0 491423.0 0
250871.0 491527.0 0
254708.0 491634.0 0
258545.0 491742.0 0
262383.0 491852.0 0
266224.0 491963.0 0
270069.0 492074.0 0
273918.0 492184.0 0
277774.0 492292.0 0
281636.0 492395.0 0
285505.0 492494.0 0
289381.0 492588.0 0
293265.0 492674.0 0
297157.0 492752.0 0
301056.0 492823.0 0
304963.0 492884.0 0
308878.0 492936.0 0
312801.0 492978.0 0
316732.0 493009.0 0
320672.0 493028.0 0
324620.0 493035.0 0
328576.0 493028.0 0
332541.0 493007.0 0
336512.0 492970.0 0
340490.0 492919.0 0
344469.0 492855.0 0
348443.0 492781.0 0
353113.0 492054.0 0
357088.0 491914.0 0
361057.0 491710.0 0
365021.0 491453.0 0
368982.0 491143.0 0
379527.0 493242.0 0
383537.0 492823.0 0
387498.0 492365.0 0
391462.0 491898.0 0
402478.0 493818.0 0
406732.0 493511.0 0
410688.0 492929.0 0
95202.8 494656.0 0
99072.3 495763.0 0
102924.0 496797.0 0
109589.0 494915.0 0
113561.0 495334.0 0
117528.0 495354.0 0
121512.0 495655.0 0
125493.0 495891.0 0
129070.0 494284.0 0
133039.0 494520.0 0
137019.0 494741.0 0
141002.0 494948.0 0
144985.0 495141.0 0
148963.0 495318.0 0
152934.0 495481.0 0
156898.0 495629.0 0
160854.0 495763.0 0
164803.0 495884.0 0
168746.0 495994.0 0
172685.0 496096.0 0
176621.0 496192.0 0
206241.0 493650.0 0
210141.0 493756.0 0
214035.0 493863.0 0
217924.0 493970.0 0
221808.0 494076.0 0
225687.0 494182.0 0
229561.0 494287.0 0
233429.0 494391.0 0
237293.0 494496.0 0
241152.0 494601.0 0
245008.0 494707.0 0
248861.0 494814.0 0
252712.0 494921.0 0
256563.0 495030.0 0
260414.0 495139.0 0
264268.0 495248.0 0
268124.0 495356.0 0
271985.0 495463.0 0
275850.0 495567.0 0
279722.0 495667.0 0
283599.0 495763.0 0
287483.0 495853.0 0
291375.0 495937.0 0
295273.0 496013.0 0
299178.0 496082.0 0
303091.0 496142.0 0
338635.0 496207.0 0
342611.0 496159.0 0
346582.0 496112.0 0
351381.0 495306.0 0
355362.0 495215.0 0
359350.0 495067.0 0
363330.0 494859.0 0
367302.0 494598.0 0
371568.0 494016.0 0
375562.0 493670.0 0
381961.0 496266.0 0
386042.0 495849.0 0
390013.0 495362.0 0
393981.0 494879.0 0
398513.0 494281.0 0
92313.4 497378.0 0
96239.8 498477.0 0
100168.0 499571.0 0
106943.0 497830.0 0
130791.0 497744.0 0
134761.0 497943.0 0
138742.0 498139.0 0
142725.0 498329.0 0
146707.0 498510.0 0
150685.0 498681.0 0
180553.0 496286.0 0
184483.0 496379.0 0
188411.0 496474.0 0
192335.0 496572.0 0
196255.0 496673.0 0
200172.0 496778.0 0
204085.0 496885.0 0
207994.0 496995.0 0
211898.0 497107.0 0
215798.0 497219.0 0
219693.0 497331.0 0
223583.0 497443.0 0
227469.0 497555.0 0
231350.0 497666.0 0
235227.0 497776.0 0
239100.0 497886.0 0
242970.0 497997.0 0
246837.0 498107.0 0
250701.0 498217.0 0
254565.0 498327.0 0
258429.0 498437.0 0
262294.0 498545.0 0
266162.0 498652.0 0
307011.0 496193.0 0
310939.0 496234.0 0
314874.0 496265.0 0
318817.0 496285.0 0
322768.0 496294.0 0
326726.0 496290.0 0
330690.0 496274.0 0
334661.0 496246.0 0
349586.0 498571.0 0
353574.0 498519.0 0
357567.0 498406.0 0
361579.0 498258.0 0
365564.0 498054.0 0
369964.0 497428.0 0
373924.0 497091.0 0
377995.0 496726.0 0
388578.0 498860.0 0
392546.0 498373.0 0
396777.0 497659.0 0
400989.0 497346.0 0
404920.0 497000.0 0
93376.2 501213.0 0
104067.0 500529.0 0
111109.0 498461.0 0
115285.0 498685.0 0
119225.0 498847.0 0
123196.0 499081.0 0
127170.0 499267.0 0
132541.0 501197.0 0
136512.0 501370.0 0
154656.0 498839.0 0
158619.0 498983.0 0
162576.0 499114.0 0
166526.0 499231.0 0
170472.0 499338.0 0
174415.0 499438.0 0
178354.0 499533.0 0
182291.0 499626.0 0
186226.0 499721.0 0
190157.0 499818.0 0
194086.0 499920.0 0
198011.0 500025.0 0
201932.0 500135.0 0
205849.0 500247.0 0
209761.0 500363.0 0
213670.0 500479.0 0
217574.0 500597.0 0
221475.0 500714.0 0
225371.0 500831.0 0
229264.0 500947.0 0
233153.0 501063.0 0
237038.0 501179.0 0
270033.0 498757.0 0
273909.0 498858.0 0
277790.0 498957.0 0
281676.0 499050.0 0
285568.0 499138.0 0
289466.0 499220.0 0
293371.0 499294.0 0
297283.0 499361.0 0
301201.0 499420.0 0
305126.0 499470.0 0
309058.0 499511.0 0
312997.0 499542.0 0
316943.0 499564.0 0
320896.0 499574.0 0
324855.0 499574.0 0
328820.0 499563.0 0
332790.0 499541.0 0
336762.0 499511.0 0
340734.0 499475.0 0
344702.0 499442.0 0
368314.0 500831.0 0
372300.0 500570.0 0
376283.0 500152.0 0
380455.0 499775.0 0
384413.0 499291.0 0
395313.0 501194.0 0
399278.0 500750.0 0
403275.0 500644.0 0
407618.0 499919.0 0
97333.6 502300.0 0
108500.0 501454.0 0
112950.0 501875.0 0
116976.0 502122.0 0
120941.0 502314.0 0
124917.0 502510.0 0
128890.0 502669.0 0
140492.0 501549.0 0
144475.0 501727.0 0
148456.0 501901.0 0
152431.0 502066.0 0
156400.0 502221.0 0
160363.0 502361.0 0
164320.0 502487.0 0
168271.0 502600.0 0
172219.0 502703.0 0
176165.0 502800.0 0
180108.0 502893.0 0
184049.0 502987.0 0
187987.0 503083.0 0
191922.0 503183.0 0
195854.0 503289.0 0
199782.0 503399.0 0
203706.0 503513.0 0
207626.0 503631.0 0
211542.0 503752.0 0
215455.0 503873.0 0
240920.0 501294.0 0
244800.0 501408.0 0
248677.0 501522.0 0
252553.0 501635.0 0
256429.0 501745.0 0
260305.0 501854.0 0
264184.0 501961.0 0
268066.0 502065.0 0
271951.0 502165.0 0
275840.0 502262.0 0
279735.0 502354.0 0
283635.0 502440.0 0
287540.0 502521.0 0
291452.0 502594.0 0
295370.0 502660.0 0
299293.0 502719.0 0
303223.0 502768.0 0
307160.0 502809.0 0
311103.0 502841.0 0
315052.0 502864.0 0
319007.0 502876.0 0
322967.0 502879.0 0
326933.0 502872.0 0
330902.0 502856.0 0
334874.0 502833.0 0
338845.0 502805.0 0
342813.0 502780.0 0
347745.0 501865.0 0
351727.0 501823.0 0
355741.0 501753.0 0
359740.0 501629.0 0
363769.0 501499.0 0
374709.0 503664.0 0
378704.0 503193.0 0
382923.0 502833.0 0
386910.0 502293.0 0
391102.0 501893.0 0
94717.0 505274.0 0
101598.0 503602.0 0
105597.0 504160.0 0
110420.0 504925.0 0
114705.0 505357.0 0
118705.0 505585.0 0
122687.0 505775.0 0
126668.0 505948.0 0
130643.0 506094.0 0
134314.0 504648.0 0
138287.0 504806.0 0
142267.0 504974.0 0
146248.0 505145.0 0
150226.0 505315.0 0
154199.0 505477.0 0
158166.0 505627.0 0
162128.0 505762.0 0
166085.0 505883.0 0
170038.0 505990.0 0
173988.0 506088.0 0
177936.0 506180.0 0
181882.0 506272.0 0
185826.0 506367.0 0
189766.0 506465.0 0
193704.0 506570.0 0
219364.0 503995.0 0
223269.0 504117.0 0
227172.0 504238.0 0
231071.0 504359.0 0
234968.0 504479.0 0
238861.0 504598.0 0
242752.0 504717.0 0
246641.0 504835.0 0
250528.0 504952.0 0
254415.0 505065.0 0
258302.0 505176.0 0
262191.0 505283.0 0
266082.0 505387.0 0
269976.0 505487.0 0
273875.0 505583.0 0
277777.0 505674.0 0
281685.0 505760.0 0
285597.0 505840.0 0
289516.0 505913.0 0
293439.0 505978.0 0
297368.0 506036.0 0
301303.0 506087.0 0
305244.0 506128.0 0
309191.0 506161.0 0
313143.0 506184.0 0
317100.0 506199.0 0
321063.0 506204.0 0
325030.0 506201.0 0
329000.0 506190.0 0
332973.0 506172.0 0
336945.0 506151.0 0
340914.0 506130.0 0
345877.0 505193.0 0
349855.0 505156.0 0
353847.0 505089.0 0
357883.0 505017.0 0
361870.0 504897.0 0
366587.0 504234.0 0
370575.0 504029.0 0
381122.0 506263.0 0
385449.0 505847.0 0
389400.0 505331.0 0
393837.0 504748.0 0
397805.0 504295.0 0
401797.0 504359.0 0
405754.0 503794.0 0
99097.0 506672.0 0
103155.0 507282.0 0
107515.0 507630.0 0
112253.0 508465.0 0
136106.0 508102.0 0
140081.0 508252.0 0
144061.0 508415.0 0
148041.0 508584.0 0
152016.0 508752.0 0
155987.0 508911.0 0
159952.0 509056.0 0
163913.0 509185.0 0
197637.0 506680.0 0
201567.0 506795.0 0
205493.0 506915.0 0
209416.0 507038.0 0
213335.0 507163.0 0
217251.0 507289.0 0
221164.0 507414.0 0
225075.0 507540.0 0
228983.0 507664.0 0
232890.0 507788.0 0
236794.0 507912.0 0
240695.0 508036.0 0
244594.0 508158.0 0
248491.0 508279.0 0
252388.0 508396.0 0
256284.0 508509.0 0
260183.0 508618.0 0
264083.0 508723.0 0
267986.0 508824.0 0
271893.0 508920.0 0
275803.0 509011.0 0
279718.0 509096.0 0
343990.0 508551.0 0
347967.0 508515.0 0
351955.0 508457.0 0
355949.0 508377.0 0
359997.0 508322.0 0
364709.0 507593.0 0
368797.0 507487.0 0
372978.0 507131.0 0
377159.0 506736.0 0
387931.0 508912.0 0
392087.0 508212.0 0
396302.0 507855.0 0
403548.0 507954.0 0
97119.8 510128.0 0
101082.0 510672.0 0
105207.0 510862.0 0
109344.0 511169.0 0
116476.0 508855.0 0
120473.0 509062.0 0
124462.0 509241.0 0
128447.0 509400.0 0
132424.0 509540.0 0
137915.0 511564.0 0
141893.0 511711.0 0
167870.0 509298.0 0
171825.0 509398.0 0
175777.0 509490.0 0
179728.0 509580.0 0
183676.0 509671.0 0
187620.0 509767.0 0
191562.0 509869.0 0
195500.0 509978.0 0
199434.0 510093.0 0
203365.0 510214.0 0
207292.0 510339.0 0
211216.0 510467.0 0
215138.0 510596.0 0
219058.0 510725.0 0
222976.0 510853.0 0
226892.0 510981.0 0
230806.0 511108.0 0
234719.0 511235.0 0
238630.0 511363.0 0
242538.0 511490.0 0
246445.0 511616.0 0
283638.0 509176.0 0
287562.0 509249.0 0
291492.0 509315.0 0
295426.0 509373.0 0
299366.0 509424.0 0
303312.0 509466.0 0
307262.0 509500.0 0
311218.0 509526.0 0
315178.0 509542.0 0
319143.0 509550.0 0
323112.0 509550.0 0
327084.0 509542.0 0
331058.0 509529.0 0
335033.0 509512.0 0
339006.0 509495.0 0
354038.0 511778.0 0
358023.0 511699.0 0
362872.0 511016.0 0
366857.0 510876.0 0
371211.0 510604.0 0
375424.0 510214.0 0
379580.0 509846.0 0
383645.0 509267.0 0
394540.0 511318.0 0
399899.0 509548.0 0
114077.0 512014.0 0
118274.0 512362.0 0
122271.0 512550.0 0
126264.0 512717.0 0
130250.0 512869.0 0
134229.0 513007.0 0
145872.0 511876.0 0
149849.0 512047.0 0
153822.0 512214.0 0
157791.0 512367.0 0
161757.0 512506.0 0
165719.0 512628.0 0
169678.0 512732.0 0
173634.0 512824.0 0
177589.0 512910.0 0
181540.0 512998.0 0
185487.0 513090.0 0
189431.0 513189.0 0
193372.0 513296.0 0
197308.0 513410.0 0
201241.0 513531.0 0
205172.0 513657.0 0
209100.0 513786.0 0
213026.0 513917.0 0
216950.0 514049.0 0
220874.0 514181.0 0
224797.0 514312.0 0
250349.0 511738.0 0
254255.0 511854.0 0
258161.0 511966.0 0
262070.0 512073.0 0
265981.0 512175.0 0
269895.0 512272.0 0
273813.0 512363.0 0
277735.0 512449.0 0
281662.0 512529.0 0
285592.0 512603.0 0
289528.0 512669.0 0
293468.0 512729.0 0
297413.0 512781.0 0
301363.0 512824.0 0
305317.0 512860.0 0
309277.0 512887.0 0
313240.0 512905.0 0
317208.0 512915.0 0
321180.0 512918.0 0
325154.0 512913.0 0
329131.0 512903.0 0
333109.0 512890.0 0
337087.0 512875.0 0
342085.0 511933.0 0
346064.0 511900.0 0
350050.0 511848.0 0
369249.0 513996.0 0
373656.0 513706.0 0
377816.0 513353.0 0
382137.0 512857.0 0
386099.0 512356.0 0
390595.0 511826.0 0
401392.0 513252.0 0
98726.3 513891.0 0
103002.0 514177.0 0
107042.0 514416.0 0
111163.0 514724.0 0
115908.0 515558.0 0
120098.0 515875.0 0
124095.0 516048.0 0
128087.0 516208.0 0
132074.0 516356.0 0
136053.0 516494.0 0
139738.0 515035.0 0
143718.0 515190.0 0
147694.0 515363.0 0
151669.0 515534.0 0
155642.0 515696.0 0
159613.0 515844.0 0
163581.0 515974.0 0
167548.0 516087.0 0
171510.0 516183.0 0
175469.0 516266.0 0
179423.0 516349.0 0
183371.0 516437.0 0
187316.0 516531.0 0
191256.0 516635.0 0
195191.0 516747.0 0
199124.0 516866.0 0
203055.0 516991.0 0
228718.0 514441.0 0
232638.0 514570.0 0
236557.0 514700.0 0
240474.0 514832.0 0
244389.0 514963.0 0
248301.0 515091.0 0
252213.0 515212.0 0
256127.0 515327.0 0
260043.0 515436.0 0
263962.0 515540.0 0
267883.0 515638.0 0
271808.0 515731.0 0
275737.0 515818.0 0
279670.0 515899.0 0
283607.0 515973.0 0
287548.0 516041.0 0
291493.0 516102.0 0
295443.0 516155.0 0
299398.0 516201.0 0
303357.0 516238.0 0
307320.0 516267.0 0
311287.0 516288.0 0
315258.0 516300.0 0
319233.0 516305.0 0
323210.0 516304.0 0
327190.0 516296.0 0
331171.0 516284.0 0
335154.0 516272.0 0
340165.0 515337.0 0
344148.0 515306.0 0
348136.0 515260.0 0
352126.0 515200.0 0
356114.0 515128.0 0
360892.0 514384.0 0
365008.0 514344.0 0
376028.0 516873.0 0
380385.0 516366.0 0
384575.0 515978.0 0
388754.0 515291.0 0
393053.0 514948.0 0
397469.0 513985.0 0
100646.0 517399.0 0
104825.0 517733.0 0
108856.0 517979.0 0
112991.0 518278.0 0
117751.0 519097.0 0
141569.0 518521.0 0
145546.0 518696.0 0
149521.0 518874.0 0
153499.0 519042.0 0
157477.0 519199.0 0
161453.0 519341.0 0
169400.0 519560.0 0
173369.0 519646.0 0
206985.0 517122.0 0
210915.0 517256.0 0
214843.0 517390.0 0
218772.0 517523.0 0
222700.0 517656.0 0
226628.0 517788.0 0
230554.0 517919.0 0
234479.0 518049.0 0
238404.0 518183.0 0
242325.0 518321.0 0
246243.0 518457.0 0
250161.0 518583.0 0
254081.0 518702.0 0
258004.0 518814.0 0
261929.0 518920.0 0
265857.0 519020.0 0
269789.0 519114.0 0
273724.0 519202.0 0
277662.0 519285.0 0
281605.0 519361.0 0
285551.0 519430.0 0
289502.0 519493.0 0
293457.0 519548.0 0
338228.0 518760.0 0
342216.0 518731.0 0
346208.0 518690.0 0
350203.0 518637.0 0
354199.0 518574.0 0
358991.0 517836.0 0
362979.0 517728.0 0
367425.0 517485.0 0
371671.0 517114.0 0
387225.0 518935.0 0
391188.0 518431.0 0
395951.0 517679.0 0
400010.0 517052.0 0
102202.0 521082.0 0
106273.0 521458.0 0
121936.0 519394.0 0
125933.0 519559.0 0
129925.0 519717.0 0
133911.0 519860.0 0
137890.0 519997.0 0
143386.0 522036.0 0
165426.0 519458.0 0
177329.0 519727.0 0
181278.0 519810.0 0
185220.0 519898.0 0
189157.0 519996.0 0
193088.0 520107.0 0
197016.0 520224.0 0
200944.0 520347.0 0
204873.0 520476.0 0
208804.0 520610.0 0
212735.0 520747.0 0
216669.0 520881.0 0
220603.0 521015.0 0
224537.0 521150.0 0
228469.0 521283.0 0
232399.0 521413.0 0
236329.0 521544.0 0
240256.0 521688.0 0
244176.0 521836.0 0
248099.0 521968.0 0
252024.0 522091.0 0
297417.0 519595.0 0
301380.0 519635.0 0
305348.0 519666.0 0
309319.0 519689.0 0
313294.0 519704.0 0
317272.0 519712.0 0
321253.0 519713.0 0
325236.0 519708.0 0
329221.0 519697.0 0
333207.0 519685.0 0
344264.0 522137.0 0
348263.0 522089.0 0
352268.0 522031.0 0
357084.0 521307.0 0
361083.0 521212.0 0
365375.0 520873.0 0
369842.0 520637.0 0
374026.0 520301.0 0
378600.0 519895.0 0
382802.0 519515.0 0
395316.0 521619.0 0
399258.0 520974.0 0
110264.0 521721.0 0
114292.0 522058.0 0
118433.0 523029.0 0
122431.0 523343.0 0
126429.0 523506.0 0
130687.0 523621.0 0
134741.0 523749.0 0
138802.0 523862.0 0
147370.0 522231.0 0
151357.0 522403.0 0
155345.0 522566.0 0
159334.0 522718.0 0
163324.0 522851.0 0
167308.0 522945.0 0
171294.0 523046.0 0
175263.0 523128.0 0
179216.0 523210.0 0
183155.0 523294.0 0
187083.0 523385.0 0
191003.0 523490.0 0
194922.0 523608.0 0
198841.0 523725.0 0
202764.0 523851.0 0
206691.0 523982.0 0
210624.0 524121.0 0
214563.0 524256.0 0
218503.0 524390.0 0
222445.0 524525.0 0
226385.0 524661.0 0
255953.0 522206.0 0
259884.0 522314.0 0
263818.0 522416.0 0
267755.0 522512.0 0
271696.0 522603.0 0
275640.0 522687.0 0
279588.0 522765.0 0
283540.0 522836.0 0
287495.0 522901.0 0
291455.0 522958.0 0
295419.0 523008.0 0
299388.0 523050.0 0
303360.0 523083.0 0
307335.0 523109.0 0
311314.0 523127.0 0
315296.0 523137.0 0
319281.0 523141.0 0
323268.0 523138.0 0
327257.0 523129.0 0
331248.0 523116.0 0
336277.0 522202.0 0
340268.0 522174.0 0
363499.0 524383.0 0
367595.0 524166.0 0
371584.0 524214.0 0
375562.0 523967.0 0
379538.0 523753.0 0
383505.0 523424.0 0
387451.0 522895.0 0
391403.0 522393.0 0
142266.0 525848.0 0
169208.0 526443.0 0
173291.0 526585.0 0
177540.0 526817.0 0
181951.0 527081.0 0
186609.0 527325.0 0
191554.0 527420.0 0
196190.0 527372.0 0
200531.0 527312.0 0
204518.0 527407.0 0
230324.0 524797.0 0
234258.0 524923.0 0
238182.0 525060.0 0
242099.0 525228.0 0
246026.0 525367.0 0
249957.0 525494.0 0
253891.0 525612.0 0
257828.0 525723.0 0
261767.0 525828.0 0
265709.0 525926.0 0
269654.0 526019.0 0
273603.0 526105.0 0
277556.0 526185.0 0
281512.0 526259.0 0
285472.0 526325.0 0
289437.0 526385.0 0
293406.0 526437.0 0
297379.0 526482.0 0
301356.0 526518.0 0
305336.0 526547.0 0
309320.0 526568.0 0
313306.0 526581.0 0
317296.0 526587.0 0
321287.0 526586.0 0
325281.0 526580.0 0
329277.0 526569.0 0
334311.0 525663.0 0
338307.0 525635.0 0
342305.0 525601.0 0
346310.0 525557.0 0
350324.0 525502.0 0
355150.0 524788.0 0
359169.0 524704.0 0
208491.0 527515.0 0
212451.0 527646.0 0
216401.0 527781.0 0
220349.0 527916.0 0
224297.0 528052.0 0
228249.0 528189.0 0
232210.0 528322.0 0
236187.0 528488.0 0
POINT_DATA 4650
SCALARS Radius float 1
LOOKUP_TABLE default
4000.0 4000.0 4000.0 4000.0 4000.0 4000.0 4000.0 4000.0 4000.0 4000.0 4000.0 4000.0 4000.0 4000.0 4000.0 4000.0 4000.0 4000.0 4000.0 4000.0 4000.0 4000.0 4000.0 4000.0 4000.0 4000.0 4000.0 4000.0 4000.0 4000.0 4000.0 4000.0 4000.0 4000.0 4000.0 4000.0 4000.0 4000.0 4000.0 4000.0 4000.0 4000.0 4000.0 4000.0 4000.0 4000.0 4000.0 4000.0 4000.0 4000.0 4000.0 4000.0 4000.0 4000.0 4000.0 4000.0 4000.0 4000.0 4000.0 4000.0 4000.0 4000.0 4000.0 4000.0 4000.0 4000.0 4000.0 4000.0 4000.0 4000.0 4000.0 4000.0 4000.0 4000.0 4000.0 4000.0 4000.0 4000.0 4000.0 4000.0 4000.0 4000.0 4000.0 4000.0 4000.0 4000.0 4000.0 4000.0 4000.0 4000.0 4000.0 4000.0 4000.0 4000.0 4000.0 4000.0 4000.0 4000.0 4000.0 4000.0 4000.0 4000.0 4000.0 4000.0 4000.0 4000.0 4000.0 4000.0 4000.0 4000.0 4000.0 4000.0 4000.0 4000.0 4000.0 4000.0 4000.0 4000.0 4000.0 4000.0 4000.0 4000.0 4000.0 4000.0 4000.0 4000.0 4000.0 4000.0 4000.0 4000.0 4000.0 4000.0 4000.0 4000.0 4000.0 4000.0 4000.0 4000.0 4000.0 4000.0 4000.0 4000.0 4000.0 4000.0 4000.0 4000.0 4000.0 4000.0 4000.0 4000.0 4000.0 4000.0 4000.0 4000.0 4000.0 4000.0 4000.0 4000.0 4000.0 4000.0 4000.0 4000.0 4000.0 4000.0 4000.0 4000.0 4000.0 4000.0 4000.0 4000.0 4000.0 4000.0 4000.0 4000.0 4000.0 4000.0 4000.0 4000.0 4000.0 4000.0 4000.0 4000.0 4000.0 4000.0 4000.0 4000.0 4000.0 4000.0 4000.0 4000.0 4000.0 4000.0 4000.0 4000.0 4000.0 4000.0 4000.0 4000.0 4000.0 4000.0 4000.0 4000.0 4000.0 4000.0 4000.0 4000.0 4000.0 4000.0 4000.0 4000.0 4000.0 4000.0 4000.0 4000.0 4000.0 4000.0 4000.0 4000.0 4000.0 4000.0 4000.0 4000.0 4000.0 4000.0 4000.0 4000.0 4000.0 4000.0 4000.0 4000.0 4000.0 4000.0 4000.0 4000.0 4000.0 4000.0 4000.0 4000.0 4000.0 4000.0 4000.0 4000.0 4000.0 4000.0 4000.0 4000.0 4000.0 4000.0 4000.0 4000.0 4000.0 4000.0 4000.0 4000.0 4000.0 4000.0 4000.0 4000.0 4000.0 4000.0 4000.0 4000.0 4000.0 4000.0 4000.0 4000.0 4000.0 4000.0 4000.0 4000.0 4000.0 4000.0 4000.0 4000.0 4000.0 4000.0 4000.0 4000.0 4000.0 4000.0 4000.0 4000.0 4000.0 4000.0 4000.0 4000.0 4000.0 4000.0 4000.0 4000.0 4000.0 4000.0 4000.0 4000.0 4000.0 4000.0 4000.0 4000.0 4000.0 4000.0 4000.0 4000.0 4000.0 4000.0 4000.0 4000.0 4000.0 4000.0 4000.0 4000.0 4000.0 4000.0 4000.0 4000.0 4000.0 4000.0 4000.0 4000.0 4000.0 4000.0 4000.0 4000.0 4000.0 4000.0 4000.0 4000.0 4000.0 4000.0 4000.0 4000.0 4000.0 4000.0 4000.0 4000.0 4000.0 4000.0 4000.0 4000.0 4000.0 4000.0 4000.0 4000.0 4000.0 4000.0 4000.0 4000.0 4000.0 4000.0 4000.0 4000.0 4000.0 4000.0 4000.0 4000.0 4000.0 4000.0 4000.0 4000.0 4000.0 4000.0 4000.0 4000.0 4000.0 4000.0 4000.0 4000.0 4000.0 4000.0 4000.0 4000.0 4000.0 4000.0 4000.0 4000.0 4000.0 4000.0 4000.0 4000.0 4000.0 4000.0 4000.0 4000.0 4000.0 4000.0 4000.0 4000.0 4000.0 4000.0 4000.0 4000.0 4000.0 4000.0 4000.0 4000.0 4000.0 4000.0 4000.0 4000.0 4000.0 4000.0 4000.0 4000.0 4000.0 4000.0 4000.0 4000.0 4000.0 4000.0 4000.0 4000.0 4000.0 4000.0 4000.0 4000.0 4000.0 4000.0 4000.0 4000.0 4000.0 4000.0 4000.0 4000.0 4000.0 4000.0 4000.0 4000.0 4000.0 4000.0 4000.0 4000.0 4000.0 4000.0 4000.0 4000.0 4000.0 4000.0 4000.0 4000.0 4000.0 4000.0 4000.0 4000.0 4000.0 4000.0 4000.0 4000.0 4000.0 4000.0 4000.0 4000.0 4000.0 4000.0 4000.0 4000.0 4000.0 4000.0 4000.0 4000.0 4000.0 4000.0 4000.0 4000.0 4000.0 4000.0 4000.0 4000.0 4000.0 4000.0 4000.0 4000.0 4000.0 4000.0 4000.0 4000.0 4000.0 4000.0 4000.0 4000.0 4000.0 4000.0 4000.0 4000.0 4000.0 4000.0 4000.0 4000.0 4000.0 4000.0 4000.0 4000.0 4000.0 4000.0 4000.0 4000.0 4000.0 4000.0 4000.0 4000.0 4000.0 4000.0 4000.0 4000.0 4000.0 4000.0 4000.0 4000.0 4000.0 4000.0 4000.0 4000.0 4000.0 4000.0 4000.0 4000.0 4000.0 4000.0 4000.0 4000.0 4000.0 4000.0 4000.0 4000.0 4000.0 4000.0 4000.0 4000.0 4000.0 4000.0 4000.0 4000.0 4000.0 4000.0 4000.0 4000.0 4000.0 4000.0 4000.0 4000.0 4000.0 4000.0 4000.0 4000.0 4000.0 4000.0 4000.0 4000.0 4000.0 4000.0 4000.0 4000.0 4000.0 4000.0 4000.0 4000.0 4000.0 4000.0 4000.0 4000.0 4000.0 4000.0 4000.0 4000.0 4000.0 4000.0 4000.0 4000.0 4000.0 4000.0 4000.0 4000.0 4000.0 4000.0 4000.0 4000.0 4000.0 4000.0 4000.0 4000.0 4000.0 4000.0 4000.0 4000.0 4000.0 4000.0 4000.0 4000.0 4000.0 4000.0 4000.0 4000.0 4000.0 4000.0 4000.0 4000.0 4000.0 4000.0 4000.0 4000.0 4000.0 4000.0 4000.0 4000.0 4000.0 4000.0 4000.0 4000.0 4000.0 4000.0 4000.0 4000.0 4000.0 4000.0 4000.0 4000.0 4000.0 4000.0 4000.0 4000.0 4000.0 4000.0 4000.0 4000.0 4000.0 4000.0 4000.0 4000.0 4000.0 4000.0 4000.0 4000.0 4000.0 4000.0 4000.0 4000.0 4000.0 4000.0 4000.0 4000.0 4000.0 4000.0 4000.0 4000.0 4000.0 4000.0 4000.0 4000.0 4000.0 4000.0 4000.0 4000.0 4000.0 4000.0 4000.0 4000.0 4000.0 4000.0 4000.0 4000.0 4000.0 4000.0 4000.0 4000.0 4000.0 4000.0 4000.0 4000.0 4000.0 4000.0 4000.0 4000.0 4000.0 4000.0 4000.0 4000.0 4000.0 4000.0 4000.0 4000.0 4000.0 4000.0 4000.0 4000.0 4000.0 4000.0 4000.0 4000.0 4000.0 4000.0 4000.0 4000.0 4000.0 4000.0 4000.0 4000.0 4000.0 4000.0 4000.0 4000.0 4000.0 4000.0 4000.0 4000.0 4000.0 4000.0 4000.0 4000.0 4000.0 4000.0 4000.0 4000.0 4000.0 4000.0 4000.0 4000.0 4000.0 4000.0 4000.0 4000.0 4000.0 4000.0 4000.0 4000.0 4000.0 4000.0 4000.0 4000.0 4000.0 4000.0 4000.0 4000.0 4000.0 4000.0 4000.0 4000.0 4000.0 4000.0 4000.0 4000.0 4000.0 4000.0 4000.0 4000.0 4000.0 4000.0 4000.0 4000.0 4000.0 4000.0 4000.0 4000.0 4000.0 4000.0 4000.0 4000.0 4000.0 4000.0 4000.0 4000.0 4000.0 4000.0 4000.0 4000.0 4000.0 4000.0 4000.0 4000.0 4000.0 4000.0 4000.0 4000.0 4000.0 4000.0 4000.0 4000.0 4000.0 4000.0 4000.0 4000.0 4000.0 4000.0 4000.0 4000.0 4000.0 4000.0 4000.0 4000.0 4000.0 4000.0 4000.0 4000.0 4000.0 4000.0 4000.0 4000.0 4000.0 4000.0 4000.0 4000.0 4000.0 4000.0 4000.0 4000.0 4000.0 4000.0 4000.0 4000.0 4000.0 4000.0 4000.0 4000.0 4000.0 4000.0 4000.0 4000.0 4000.0 4000.0 4000.0 4000.0 4000.0 4000.0 4000.0 4000.0 4000.0 4000.0 4000.0 4000.0 4000.0 4000.0 4000.0 4000.0 4000.0 4000.0 4000.0 4000.0 4000.0 4000.0 4000.0 4000.0 4000.0 4000.0 4000.0 4000.0 4000.0 4000.0 4000.0 4000.0 4000.0 4000.0 4000.0 4000.0 4000.0 4000.0 4000.0 4000.0 4000.0 4000.0 4000.0 4000.0 4000.0 4000.0 4000.0 4000.0 4000.0 4000.0 4000.0 4000.0 4000.0 4000.0 4000.0 4000.0 4000.0 4000.0 4000.0 4000.0 4000.0 4000.0 4000.0 4000.0 4000.0 4000.0 4000.0 4000.0 4000.0 4000.0 4000.0 4000.0 4000.0 4000.0 4000.0 4000.0 4000.0 4000.0 4000.0 4000.0 4000.0 4000.0 4000.0 4000.0 4000.0 4000.0 4000.0 4000.0 4000.0 4000.0 4000.0 4000.0 4000.0 4000.0 4000.0 4000.0 4000.0 4000.0 4000.0 4000.0 4000.0 4000.0 4000.0 4000.0 4000.0 4000.0 4000.0 4000.0 4000.0 4000.0 4000.0 4000.0 4000.0 4000.0 4000.0 4000.0 4000.0 4000.0 4000.0 4000.0 4000.0 4000.0 4000.0 4000.0 4000.0 4000.0 4000.0 4000.0 4000.0 4000.0 4000.0 4000.0 4000.0 4000.0 4000.0 4000.0 4000.0 4000.0 4000.0 4000.0 4000.0 4000.0 4000.0 4000.0 4000.0 4000.0 4000.0 4000.0 4000.0 4000.0 4000.0 4000.0 4000.0 4000.0 4000.0 4000.0 4000.0 4000.0 4000.0 4000.0 4000.0 4000.0 4000.0 4000.0 4000.0 4000.0 4000.0 4000.0 4000.0 4000.0 4000.0 4000.0 4000.0 4000.0 4000.0 4000.0 4000.0 4000.0 4000.0 4000.0 4000.0 4000.0 4000.0 4000.0 4000.0 4000.0 4000.0 4000.0 4000.0 4000.0 4000.0 4000.0 4000.0 4000.0 4000.0 4000.0 4000.0 4000.0 4000.0 4000.0 4000.0 4000.0 4000.0 4000.0 4000.0 4000.0 4000.0 4000.0 4000.0 4000.0 4000.0 4000.0 4000.0 4000.0 4000.0 4000.0 4000.0 4000.0 4000.0 4000.0 4000.0 4000.0 4000.0 4000.0 4000.0 4000.0 4000.0 4000.0 4000.0 4000.0 4000.0 4000.0 4000.0 4000.0 4000.0 4000.0 4000.0 4000.0 4000.0 4000.0 4000.0 4000.0 4000.0 4000.0 4000.0 4000.0 4000.0 4000.0 4000.0 4000.0 4000.0 4000.0 4000.0 4000.0 4000.0 4000.0 4000.0 4000.0 4000.0 4000.0 4000.0 4000.0 4000.0 4000.0 4000.0 4000.0 4000.0 4000.0 4000.0 4000.0 4000.0 4000.0 4000.0 4000.0 4000.0 4000.0 4000.0 4000.0 4000.0 4000.0 4000.0 4000.0 4000.0 4000.0 4000.0 4000.0 4000.0 4000.0 4000.0 4000.0 4000.0 4000.0 4000.0 4000.0 4000.0 4000.0 4000.0 4000.0 4000.0 4000.0 4000.0 4000.0 4000.0 4000.0 4000.0 4000.0 4000.0 4000.0 4000.0 4000.0 4000.0 4000.0 4000.0 4000.0 4000.0 4000.0 4000.0 4000.0 4000.0 4000.0 4000.0 4000.0 4000.0 4000.0 4000.0 4000.0 4000.0 4000.0 4000.0 4000.0 4000.0 4000.0 4000.0 4000.0 4000.0 4000.0 4000.0 4000.0 4000.0 4000.0 4000.0 4000.0 4000.0 4000.0 4000.0 4000.0 4000.0 4000.0 4000.0 4000.0 4000.0 4000.0 4000.0 4000.0 4000.0 4000.0 4000.0 4000.0 4000.0 4000.0 4000.0 4000.0 4000.0 4000.0 4000.0 4000.0 4000.0 4000.0 4000.0 4000.0 4000.0 4000.0 4000.0 4000.0 4000.0 4000.0 4000.0 4000.0 4000.0 4000.0 4000.0 4000.0 4000.0 4000.0 4000.0 4000.0 4000.0 4000.0 4000.0 4000.0 4000.0 4000.0 4000.0 4000.0 4000.0 4000.0 4000.0 4000.0 4000.0 4000.0 4000.0 4000.0 4000.0 4000.0 4000.0 4000.0 4000.0 4000.0 4000.0 4000.0 4000.0 4000.0 4000.0 4000.0 4000.0 4000.0 4000.0 4000.0 4000.0 4000.0 4000.0 4000.0 4000.0 4000.0 4000.0 4000.0 4000.0 4000.0 4000.0 4000.0 4000.0 4000.0 4000.0 4000.0 4000.0 4000.0 4000.0 4000.0 4000.0 4000.0 4000.0 4000.0 4000.0 4000.0 4000.0 4000.0 4000.0 4000.0 4000.0 4000.0 4000.0 4000.0 4000.0 4000.0 4000.0 4000.0 4000.0 4000.0 4000.0 4000.0 4000.0 4000.0 4000.0 4000.0 4000.0 4000.0 4000.0 4000.0 4000.0 4000.0 4000.0 4000.0 4000.0 4000.0 4000.0 4000.0 4000.0 4000.0 4000.0 4000.0 4000.0 4000.0 4000.0 4000.0 4000.0 4000.0 4000.0 4000.0 4000.0 4000.0 4000.0 4000.0 4000.0 4000.0 4000.0 4000.0 4000.0 4000.0 4000.0 4000.0 4000.0 4000.0 4000.0 4000.0 4000.0 4000.0 4000.0 4000.0 4000.0 4000.0 4000.0 4000.0 4000.0 4000.0 4000.0 4000.0 4000.0 4000.0 4000.0 4000.0 4000.0 4000.0 4000.0 4000.0 4000.0 4000.0 4000.0 4000.0 4000.0 4000.0 4000.0 4000.0 4000.0 4000.0 4000.0 4000.0 4000.0 4000.0 4000.0 4000.0 4000.0 4000.0 4000.0 4000.0 4000.0 4000.0 4000.0 4000.0 4000.0 4000.0 4000.0 4000.0 4000.0 4000.0 4000.0 4000.0 4000.0 4000.0 4000.0 4000.0 4000.0 4000.0 4000.0 4000.0 4000.0 4000.0 4000.0 4000.0 4000.0 4000.0 4000.0 4000.0 4000.0 4000.0 4000.0 4000.0 4000.0 4000.0 4000.0 4000.0 4000.0 4000.0 4000.0 4000.0 4000.0 4000.0 4000.0 4000.0 4000.0 4000.0 4000.0 4000.0 4000.0 4000.0 4000.0 4000.0 4000.0 4000.0 4000.0 4000.0 4000.0 4000.0 4000.0 4000.0 4000.0 4000.0 4000.0 4000.0 4000.0 4000.0 4000.0 4000.0 4000.0 4000.0 4000.0 4000.0 4000.0 4000.0 4000.0 4000.0 4000.0 4000.0 4000.0 4000.0 4000.0 4000.0 4000.0 4000.0 4000.0 4000.0 4000.0 4000.0 4000.0 4000.0 4000.0 4000.0 4000.0 4000.0 4000.0 4000.0 4000.0 4000.0 4000.0 4000.0 4000.0 4000.0 4000.0 4000.0 4000.0 4000.0 4000.0 4000.0 4000.0 4000.0 4000.0 4000.0 4000.0 4000.0 4000.0 4000.0 4000.0 4000.0 4000.0 4000.0 4000.0 4000.0 4000.0 4000.0 4000.0 4000.0 4000.0 4000.0 4000.0 4000.0 4000.0 4000.0 4000.0 4000.0 4000.0 4000.0 4000.0 4000.0 4000.0 4000.0 4000.0 4000.0 4000.0 4000.0 4000.0 4000.0 4000.0 4000.0 4000.0 4000.0 4000.0 4000.0 4000.0 4000.0 4000.0 4000.0 4000.0 4000.0 4000.0 4000.0 4000.0 4000.0 4000.0 4000.0 4000.0 4000.0 4000.0 4000.0 4000.0 4000.0 4000.0 4000.0 4000.0 4000.0 4000.0 4000.0 4000.0 4000.0 4000.0 4000.0 4000.0 4000.0 4000.0 4000.0 4000.0 4000.0 4000.0 4000.0 4000.0 4000.0 4000.0 4000.0 4000.0 4000.0 4000.0 4000.0 4000.0 4000.0 4000.0 4000.0 4000.0 4000.0 4000.0 4000.0 4000.0 4000.0 4000.0 4000.0 4000.0 4000.0 4000.0 4000.0 4000.0 4000.0 4000.0 4000.0 4000.0 4000.0 4000.0 4000.0 4000.0 4000.0 4000.0 4000.0 4000.0 4000.0 4000.0 4000.0 4000.0 4000.0 4000.0 4000.0 4000.0 4000.0 4000.0 4000.0 4000.0 4000.0 4000.0 4000.0 4000.0 4000.0 4000.0 4000.0 4000.0 4000.0 4000.0 4000.0 4000.0 4000.0 4000.0 4000.0 4000.0 4000.0 4000.0 4000.0 4000.0 4000.0 4000.0 4000.0 4000.0 4000.0 4000.0 4000.0 4000.0 4000.0 4000.0 4000.0 4000.0 4000.0 4000.0 4000.0 4000.0 4000.0 4000.0 4000.0 4000.0 4000.0 4000.0 4000.0 4000.0 4000.0 4000.0 4000.0 4000.0 4000.0 4000.0 4000.0 4000.0 4000.0 4000.0 4000.0 4000.0 4000.0 4000.0 4000.0 4000.0 4000.0 4000.0 4000.0 4000.0 4000.0 4000.0 4000.0 4000.0 4000.0 4000.0 4000.0 4000.0 4000.0 4000.0 4000.0 4000.0 4000.0 4000.0 4000.0 4000.0 4000.0 4000.0 4000.0 4000.0 4000.0 4000.0 4000.0 4000.0 4000.0 4000.0 4000.0 4000.0 4000.0 4000.0 4000.0 4000.0 4000.0 4000.0 4000.0 4000.0 4000.0 4000.0 4000.0 4000.0 4000.0 4000.0 4000.0 4000.0 4000.0 4000.0 4000.0 4000.0 4000.0 4000.0 4000.0 4000.0 4000.0 4000.0 4000.0 4000.0 4000.0 4000.0 4000.0 4000.0 4000.0 4000.0 4000.0 4000.0 4000.0 4000.0 4000.0 4000.0 4000.0 4000.0 4000.0 4000.0 4000.0 4000.0 4000.0 4000.0 4000.0 4000.0 4000.0 4000.0 4000.0 4000.0 4000.0 4000.0 4000.0 4000.0 4000.0 4000.0 4000.0 4000.0 4000.0 4000.0 4000.0 4000.0 4000.0 4000.0 4000.0 4000.0 4000.0 4000.0 4000.0 4000.0 4000.0 4000.0 4000.0 4000.0 4000.0 4000.0 4000.0 4000.0 4000.0 4000.0 4000.0 4000.0 4000.0 4000.0 4000.0 4000.0 4000.0 4000.0 4000.0 4000.0 4000.0 4000.0 4000.0 4000.0 4000.0 4000.0 4000.0 4000.0 4000.0 4000.0 4000.0 4000.0 4000.0 4000.0 4000.0 4000.0 4000.0 4000.0 4000.0 4000.0 4000.0 4000.0 4000.0 4000.0 4000.0 4000.0 4000.0 4000.0 4000.0 4000.0 4000.0 4000.0 4000.0 4000.0 4000.0 4000.0 4000.0 4000.0 4000.0 4000.0 4000.0 4000.0 4000.0 4000.0 4000.0 4000.0 4000.0 4000.0 4000.0 4000.0 4000.0 4000.0 4000.0 4000.0 4000.0 4000.0 4000.0 4000.0 4000.0 4000.0 4000.0 4000.0 4000.0 4000.0 4000.0 4000.0 4000.0 4000.0 4000.0 4000.0 4000.0 4000.0 4000.0 4000.0 4000.0 4000.0 4000.0 4000.0 4000.0 4000.0 4000.0 4000.0 4000.0 4000.0 4000.0 4000.0 4000.0 4000.0 4000.0 4000.0 4000.0 4000.0 4000.0 4000.0 4000.0 4000.0 4000.0 4000.0 4000.0 4000.0 4000.0 4000.0 4000.0 4000.0 4000.0 4000.0 4000.0 4000.0 4000.0 4000.0 4000.0 4000.0 4000.0 4000.0 4000.0 4000.0 4000.0 4000.0 4000.0 4000.0 4000.0 4000.0 4000.0 4000.0 4000.0 4000.0 4000.0 4000.0 4000.0 4000.0 4000.0 4000.0 4000.0 4000.0 4000.0 4000.0 4000.0 4000.0 4000.0 4000.0 4000.0 4000.0 4000.0 4000.0 4000.0 4000.0 4000.0 4000.0 4000.0 4000.0 4000.0 4000.0 4000.0 4000.0 4000.0 4000.0 4000.0 4000.0 4000.0 4000.0 4000.0 4000.0 4000.0 4000.0 4000.0 4000.0 4000.0 4000.0 4000.0 4000.0 4000.0 4000.0 4000.0 4000.0 4000.0 4000.0 4000.0 4000.0 4000.0 4000.0 4000.0 4000.0 4000.0 4000.0 4000.0 4000.0 4000.0 4000.0 4000.0 4000.0 4000.0 4000.0 4000.0 4000.0 4000.0 4000.0 4000.0 4000.0 4000.0 4000.0 4000.0 4000.0 4000.0 4000.0 4000.0 4000.0 4000.0 4000.0 4000.0 4000.0 4000.0 4000.0 4000.0 4000.0 4000.0 4000.0 4000.0 4000.0 4000.0 4000.0 4000.0 4000.0 4000.0 4000.0 4000.0 4000.0 4000.0 4000.0 4000.0 4000.0 4000.0 4000.0 4000.0 4000.0 4000.0 4000.0 4000.0 4000.0 4000.0 4000.0 4000.0 4000.0 4000.0 4000.0 4000.0 4000.0 4000.0 4000.0 4000.0 4000.0 4000.0 4000.0 4000.0 4000.0 4000.0 4000.0 4000.0 4000.0 4000.0 4000.0 4000.0 4000.0 4000.0 4000.0 4000.0 4000.0 4000.0 4000.0 4000.0 4000.0 4000.0 4000.0 4000.0 4000.0 4000.0 4000.0 4000.0 4000.0 4000.0 4000.0 4000.0 4000.0 4000.0 4000.0 4000.0 4000.0 4000.0 4000.0 4000.0 4000.0 4000.0 4000.0 4000.0 4000.0 4000.0 4000.0 4000.0 4000.0 4000.0 4000.0 4000.0 4000.0 4000.0 4000.0 4000.0 4000.0 4000.0 4000.0 4000.0 4000.0 4000.0 4000.0 4000.0 4000.0 4000.0 4000.0 4000.0 4000.0 4000.0 4000.0 4000.0 4000.0 4000.0 4000.0 4000.0 4000.0 4000.0 4000.0 4000.0 4000.0 4000.0 4000.0 4000.0 4000.0 4000.0 4000.0 4000.0 4000.0 4000.0 4000.0 4000.0 4000.0 4000.0 4000.0 4000.0 4000.0 4000.0 4000.0 4000.0 4000.0 4000.0 4000.0 4000.0 4000.0 4000.0 4000.0 4000.0 4000.0 4000.0 4000.0 4000.0 4000.0 4000.0 4000.0 4000.0 4000.0 4000.0 4000.0 4000.0 4000.0 4000.0 4000.0 4000.0 4000.0 4000.0 4000.0 4000.0 4000.0 4000.0 4000.0 4000.0 4000.0 4000.0 4000.0 4000.0 4000.0 4000.0 4000.0 4000.0 4000.0 4000.0 4000.0 4000.0 4000.0 4000.0 4000.0 4000.0 4000.0 4000.0 4000.0 4000.0 4000.0 4000.0 4000.0 4000.0 4000.0 4000.0 4000.0 4000.0 4000.0 4000.0 4000.0 4000.0 4000.0 4000.0 4000.0 4000.0 4000.0 4000.0 4000.0 4000.0 4000.0 4000.0 4000.0 4000.0 4000.0 4000.0 4000.0 4000.0 4000.0 4000.0 4000.0 4000.0 4000.0 4000.0 4000.0 4000.0 4000.0 4000.0 4000.0 4000.0 4000.0 4000.0 4000.0 4000.0 4000.0 4000.0 4000.0 4000.0 4000.0 4000.0 4000.0 4000.0 4000.0 4000.0 4000.0 4000.0 4000.0 4000.0 4000.0 4000.0 4000.0 4000.0 4000.0 4000.0 4000.0 4000.0 4000.0 4000.0 4000.0 4000.0 4000.0 4000.0 4000.0 4000.0 4000.0 4000.0 4000.0 4000.0 4000.0 4000.0 4000.0 4000.0 4000.0 4000.0 4000.0 4000.0 4000.0 4000.0 4000.0 4000.0 4000.0 4000.0 4000.0 4000.0 4000.0 4000.0 4000.0 4000.0 4000.0 4000.0 4000.0 4000.0 4000.0 4000.0 4000.0 4000.0 4000.0 4000.0 4000.0 4000.0 4000.0 4000.0 4000.0 4000.0 4000.0 4000.0 4000.0 4000.0 4000.0 4000.0 4000.0 4000.0 4000.0 4000.0 4000.0 4000.0 4000.0 4000.0 4000.0 4000.0 4000.0 4000.0 4000.0 4000.0 4000.0 4000.0 4000.0 4000.0 4000.0 4000.0 4000.0 4000.0 4000.0 4000.0 4000.0 4000.0 4000.0 4000.0 4000.0 4000.0 4000.0 4000.0 4000.0 4000.0 4000.0 4000.0 4000.0 4000.0 4000.0 4000.0 4000.0 4000.0 4000.0 4000.0 4000.0 4000.0 4000.0 4000.0 4000.0 4000.0 4000.0 4000.0 4000.0 4000.0 4000.0 4000.0 4000.0 4000.0 4000.0 4000.0 4000.0 4000.0 4000.0 4000.0 4000.0 4000.0 4000.0 4000.0 4000.0 4000.0 4000.0 4000.0 4000.0 4000.0 4000.0 4000.0 4000.0 4000.0 4000.0 4000.0 4000.0 4000.0 4000.0 4000.0 4000.0 4000.0 4000.0 4000.0 4000.0 4000.0 4000.0 4000.0 4000.0 4000.0 4000.0 4000.0 4000.0 4000.0 4000.0 4000.0 4000.0 4000.0 4000.0 4000.0 4000.0 4000.0 4000.0 4000.0 4000.0 4000.0 4000.0 4000.0 4000.0 4000.0 4000.0 4000.0 4000.0 4000.0 4000.0 4000.0 4000.0 4000.0 4000.0 4000.0 4000.0 4000.0 4000.0 4000.0 4000.0 4000.0 4000.0 4000.0 4000.0 4000.0 4000.0 4000.0 4000.0 4000.0 4000.0 4000.0 4000.0 4000.0 4000.0 4000.0 4000.0 4000.0 4000.0 4000.0 4000.0 4000.0 4000.0 4000.0 4000.0 4000.0 4000.0 4000.0 4000.0 4000.0 4000.0 4000.0 4000.0 4000.0 4000.0 4000.0 4000.0 4000.0 4000.0 4000.0 4000.0 4000.0 4000.0 4000.0 4000.0 4000.0 4000.0 4000.0 4000.0 4000.0 4000.0 4000.0 4000.0 4000.0 4000.0 4000.0 4000.0 4000.0 4000.0 4000.0 4000.0 4000.0 4000.0 4000.0 4000.0 4000.0 4000.0 4000.0 4000.0 4000.0 4000.0 4000.0 4000.0 4000.0 4000.0 4000.0 4000.0 4000.0 4000.0 4000.0 4000.0 4000.0 4000.0 4000.0 4000.0 4000.0 4000.0 4000.0 4000.0 4000.0 4000.0 4000.0 4000.0 4000.0 4000.0 4000.0 4000.0 4000.0 4000.0 4000.0 4000.0 4000.0 4000.0 4000.0 4000.0 4000.0 4000.0 4000.0 4000.0 4000.0 4000.0 4000.0 4000.0 4000.0 4000.0 4000.0 4000.0 4000.0 4000.0 4000.0 4000.0 4000.0 4000.0 4000.0 4000.0 4000.0 4000.0 4000.0 4000.0 4000.0 4000.0 4000.0 4000.0 4000.0 4000.0 4000.0 4000.0 4000.0 4000.0 4000.0 4000.0 4000.0 4000.0 4000.0 4000.0 4000.0 4000.0 4000.0 4000.0 4000.0 4000.0 4000.0 4000.0 4000.0 4000.0 4000.0 4000.0 4000.0 4000.0 4000.0 4000.0 4000.0 4000.0 4000.0 4000.0 4000.0 4000.0 4000.0 4000.0 4000.0 4000.0 4000.0 4000.0 4000.0 4000.0 4000.0 4000.0 4000.0 4000.0 4000.0 4000.0 4000.0 4000.0 4000.0 4000.0 4000.0 4000.0 4000.0 4000.0 4000.0 4000.0 4000.0 4000.0 4000.0 4000.0 4000.0 4000.0 4000.0 4000.0 4000.0 4000.0 4000.0 4000.0 4000.0 4000.0 4000.0 4000.0 4000.0 4000.0 4000.0 4000.0 4000.0 4000.0 4000.0 4000.0 4000.0 4000.0 4000.0 4000.0 4000.0 4000.0 4000.0 4000.0 4000.0 4000.0 4000.0 4000.0 4000.0 4000.0 4000.0 4000.0 4000.0 4000.0 4000.0 4000.0 4000.0 4000.0 4000.0 4000.0 4000.0 4000.0 4000.0 4000.0 4000.0 4000.0 4000.0 4000.0 4000.0 4000.0 4000.0 4000.0 4000.0 4000.0 4000.0 4000.0 4000.0 4000.0 4000.0 4000.0 4000.0 4000.0 4000.0 4000.0 4000.0 4000.0 4000.0 4000.0 4000.0 4000.0 4000.0 4000.0 4000.0 4000.0 4000.0 4000.0 4000.0 4000.0 4000.0 4000.0 4000.0 4000.0 4000.0 4000.0 4000.0 4000.0 4000.0 4000.0 4000.0 4000.0 4000.0 4000.0 4000.0 4000.0 4000.0 4000.0 4000.0 4000.0 4000.0 4000.0 4000.0 4000.0 4000.0 4000.0 4000.0 4000.0 4000.0 4000.0 4000.0 4000.0 4000.0 4000.0 4000.0 4000.0 4000.0 4000.0 4000.0 4000.0 4000.0 4000.0 4000.0 4000.0 4000.0 4000.0 4000.0 4000.0 4000.0 4000.0 4000.0 4000.0 4000.0 4000.0 4000.0 4000.0 4000.0 4000.0 4000.0 4000.0 4000.0 4000.0 4000.0 4000.0 4000.0 4000.0 4000.0 4000.0 4000.0 4000.0 4000.0 4000.0 4000.0 4000.0 4000.0 4000.0 4000.0 4000.0 4000.0 4000.0 4000.0 4000.0 4000.0 4000.0 4000.0 4000.0 4000.0 4000.0 4000.0 4000.0 4000.0 4000.0 4000.0 4000.0 4000.0 4000.0 4000.0 4000.0 4000.0 4000.0 4000.0 4000.0 4000.0 4000.0 4000.0 4000.0 4000.0 4000.0 4000.0 4000.0 4000.0 4000.0 4000.0 4000.0 4000.0 4000.0 4000.0 4000.0 4000.0 4000.0 4000.0 4000.0 4000.0 4000.0 4000.0 4000.0 4000.0 4000.0 4000.0 4000.0 4000.0 4000.0 4000.0 4000.0 4000.0 4000.0 4000.0 4000.0 4000.0 4000.0 4000.0 4000.0 4000.0 4000.0 4000.0 4000.0 4000.0 4000.0 4000.0 4000.0 4000.0 4000.0 4000.0 4000.0 4000.0 4000.0 4000.0 4000.0 4000.0 4000.0 4000.0 4000.0 4000.0 4000.0 4000.0 4000.0 4000.0 4000.0 4000.0 4000.0 4000.0 4000.0 4000.0 4000.0 4000.0 4000.0 4000.0 4000.0 4000.0 4000.0 4000.0 4000.0 4000.0 4000.0 4000.0 4000.0 4000.0 4000.0 4000.0 4000.0 4000.0 4000.0 4000.0 4000.0 4000.0 4000.0 4000.0 4000.0 4000.0 4000.0 4000.0 4000.0 4000.0 4000.0 4000.0 4000.0 4000.0 4000.0 4000.0 4000.0 4000.0 4000.0 4000.0 4000.0 4000.0 4000.0 4000.0 4000.0 4000.0 4000.0 4000.0 4000.0 4000.0 4000.0 4000.0 4000.0 4000.0 4000.0 4000.0 4000.0 4000.0 4000.0 4000.0 4000.0 4000.0 4000.0 4000.0 4000.0 4000.0 4000.0 4000.0 4000.0 4000.0 4000.0 4000.0 4000.0 4000.0 4000.0 4000.0 4000.0 4000.0 4000.0 4000.0 4000.0 4000.0 4000.0 4000.0 4000.0 4000.0 4000.0 4000.0 4000.0 4000.0 4000.0 4000.0 4000.0 4000.0 4000.0 4000.0 4000.0 4000.0 4000.0 4000.0 4000.0 4000.0 4000.0 4000.0 4000.0 4000.0 4000.0 4000.0 4000.0 4000.0 4000.0 4000.0 4000.0 4000.0 4000.0 4000.0 4000.0 4000.0 4000.0 4000.0 4000.0 4000.0 4000.0 4000.0 4000.0 4000.0 4000.0 4000.0 4000.0 4000.0 4000.0 4000.0 4000.0 4000.0 4000.0 4000.0 4000.0 4000.0 4000.0 4000.0 4000.0 4000.0 4000.0 4000.0 4000.0 4000.0 4000.0 4000.0 4000.0 4000.0 4000.0 4000.0 4000.0 4000.0 4000.0 4000.0 4000.0 4000.0 4000.0 4000.0 4000.0 4000.0 4000.0 4000.0 4000.0 4000.0 4000.0 4000.0 4000.0 4000.0 4000.0 4000.0 4000.0 4000.0 4000.0 4000.0 4000.0 4000.0 4000.0 4000.0 4000.0 4000.0 4000.0 4000.0 4000.0 4000.0 4000.0 4000.0 4000.0 4000.0 4000.0 4000.0 4000.0 4000.0 4000.0 4000.0 4000.0 4000.0 4000.0 4000.0 4000.0 4000.0 4000.0 4000.0 4000.0 4000.0 4000.0 4000.0 4000.0 4000.0 4000.0 4000.0 4000.0 4000.0 4000.0 4000.0 4000.0 4000.0 4000.0 4000.0 4000.0 4000.0 4000.0 4000.0 4000.0 4000.0 4000.0 4000.0 4000.0 4000.0 4000.0 4000.0 4000.0 4000.0 4000.0 4000.0 4000.0 4000.0 4000.0 4000.0 4000.0 4000.0 4000.0 4000.0 4000.0 4000.0 4000.0 4000.0 4000.0 4000.0 4000.0 4000.0 4000.0 4000.0 4000.0 4000.0 4000.0 4000.0 4000.0 4000.0 4000.0 4000.0 4000.0 4000.0 4000.0 4000.0 4000.0 4000.0 4000.0 4000.0 4000.0 4000.0 4000.0 4000.0 4000.0 4000.0 4000.0 4000.0 4000.0 4000.0 4000.0 4000.0 4000.0 4000.0 4000.0 4000.0 4000.0 4000.0 4000.0 4000.0 4000.0 4000.0 4000.0 4000.0 4000.0 4000.0 4000.0 4000.0 4000.0 4000.0 4000.0 4000.0 4000.0 4000.0 4000.0 4000.0 4000.0 4000.0 4000.0 4000.0 4000.0 4000.0 4000.0 4000.0 4000.0 4000.0 4000.0 4000.0 4000.0 4000.0 4000.0 4000.0 4000.0 4000.0 4000.0 4000.0 4000.0 4000.0 4000.0 4000.0 4000.0 4000.0 4000.0 4000.0 4000.0 4000.0 4000.0 4000.0 4000.0 4000.0 4000.0 4000.0 4000.0 4000.0 4000.0 4000.0 4000.0 4000.0 4000.0 4000.0 4000.0 4000.0 4000.0 4000.0 4000.0 4000.0 4000.0 4000.0 4000.0 4000.0 4000.0 4000.0 4000.0 4000.0 4000.0 4000.0 4000.0 4000.0 4000.0 4000.0 4000.0 4000.0 4000.0 4000.0 4000.0 4000.0 4000.0 4000.0 4000.0 4000.0 4000.0 4000.0 4000.0 4000.0 4000.0 4000.0 4000.0 4000.0 4000.0 4000.0 4000.0 4000.0 4000.0 4000.0 4000.0 4000.0 4000.0 4000.0 4000.0 4000.0 4000.0 4000.0 4000.0 4000.0 4000.0 4000.0 4000.0 4000.0 4000.0 4000.0 4000.0 4000.0 4000.0 4000.0 4000.0 4000.0 4000.0 4000.0 4000.0 4000.0 4000.0 4000.0 4000.0 4000.0 4000.0 4000.0 4000.0 4000.0 4000.0 4000.0 4000.0 4000.0 4000.0 4000.0 4000.0 4000.0 4000.0 4000.0 4000.0 4000.0 4000.0 4000.0 4000.0 4000.0 4000.0 4000.0 4000.0 4000.0 4000.0 4000.0 4000.0 4000.0 4000.0 4000.0 4000.0 4000.0 4000.0 4000.0 4000.0 4000.0 4000.0 4000.0 4000.0 4000.0 4000.0 4000.0 4000.0 4000.0 4000.0 4000.0 4000.0 4000.0 4000.0 4000.0 4000.0 4000.0 4000.0 4000.0 4000.0 4000.0 4000.0 4000.0 4000.0 4000.0 4000.0 4000.0 4000.0 4000.0 4000.0 4000.0 4000.0 4000.0 4000.0 4000.0 4000.0 4000.0 4000.0 4000.0 4000.0 4000.0 4000.0 4000.0 4000.0 4000.0 4000.0 4000.0 4000.0 4000.0 4000.0 4000.0 4000.0 4000.0 4000.0 4000.0 4000.0 4000.0 4000.0 4000.0 4000.0 4000.0 4000.0 4000.0 4000.0 4000.0 4000.0 4000.0 4000.0 4000.0 4000.0 4000.0 4000.0 4000.0 4000.0 4000.0 4000.0 4000.0 4000.0 4000.0 4000.0 4000.0 4000.0 4000.0 4000.0 4000.0 4000.0 4000.0 4000.0 4000.0 4000.0 4000.0 4000.0 4000.0 4000.0 4000.0 4000.0 4000.0 4000.0 4000.0 4000.0 4000.0 4000.0 4000.0 4000.0 4000.0 4000.0 4000.0 4000.0 4000.0 4000.0 4000.0 4000.0 4000.0 4000.0 4000.0 4000.0 4000.0 4000.0 4000.0 4000.0 4000.0 4000.0 4000.0 4000.0 4000.0 4000.0 4000.0 4000.0 4000.0 4000.0 4000.0 4000.0 4000.0 4000.0 4000.0 4000.0 4000.0 4000.0 4000.0 4000.0 4000.0 4000.0 4000.0 4000.0 4000.0 4000.0 4000.0 4000.0 4000.0 4000.0 4000.0 4000.0 4000.0 4000.0 4000.0 4000.0 4000.0 4000.0 4000.0 4000.0 4000.0 4000.0 4000.0 4000.0 4000.0 4000.0 4000.0 4000.0 4000.0 4000.0 4000.0 4000.0 4000.0 4000.0 4000.0 4000.0 4000.0 4000.0 4000.0 4000.0 4000.0 4000.0 4000.0 4000.0 4000.0 4000.0 4000.0 4000.0 4000.0 4000.0 4000.0 4000.0 4000.0 4000.0 4000.0 4000.0 4000.0 4000.0 4000.0 4000.0 4000.0 4000.0 4000.0 4000.0 4000.0 4000.0 4000.0 4000.0 4000.0 4000.0 4000.0 4000.0 4000.0 4000.0 4000.0 4000.0 4000.0 4000.0 4000.0 4000.0 4000.0 4000.0 4000.0 4000.0 4000.0 4000.0 4000.0 4000.0 4000.0 4000.0 4000.0 4000.0 4000.0 4000.0 4000.0 4000.0 4000.0 4000.0 4000.0 4000.0 4000.0 4000.0 4000.0 4000.0 4000.0 4000.0 4000.0 4000.0 4000.0 4000.0 4000.0 4000.0 4000.0 4000.0 4000.0 4000.0 4000.0 4000.0 4000.0 4000.0 4000.0 4000.0 4000.0 4000.0 4000.0 4000.0 4000.0 4000.0 4000.0 4000.0 4000.0 4000.0 4000.0 4000.0 4000.0 4000.0 4000.0 4000.0 4000.0 4000.0 4000.0 4000.0 4000.0 4000.0 4000.0 4000.0 4000.0 4000.0 4000.0 4000.0 4000.0 4000.0 4000.0 4000.0 4000.0 4000.0 4000.0 4000.0 4000.0 4000.0 4000.0 4000.0 4000.0 4000.0 4000.0 4000.0 4000.0 4000.0 4000.0 4000.0 4000.0 4000.0 4000.0 4000.0 4000.0 4000.0 4000.0 4000.0 4000.0 4000.0 4000.0 4000.0 4000.0 4000.0 4000.0 4000.0 4000.0 4000.0 4000.0 4000.0 4000.0 4000.0 4000.0 4000.0 4000.0 4000.0 4000.0 4000.0 4000.0 4000.0 4000.0 4000.0 4000.0 4000.0 4000.0 4000.0 4000.0 4000.0 4000.0 4000.0 4000.0 4000.0 4000.0 4000.0 4000.0 4000.0 4000.0 4000.0 4000.0 4000.0 4000.0 4000.0 4000.0 4000.0 4000.0 4000.0 4000.0 4000.0 4000.0 4000.0 4000.0 4000.0 4000.0 4000.0 4000.0 4000.0 4000.0 4000.0 4000.0 4000.0 4000.0 4000.0 4000.0 4000.0 4000.0 4000.0 4000.0 4000.0 4000.0 4000.0 4000.0 4000.0 4000.0 4000.0 4000.0 4000.0 4000.0 4000.0 4000.0 4000.0 4000.0 4000.0 4000.0 4000.0 4000.0 4000.0 4000.0 4000.0 4000.0 4000.0 4000.0 4000.0 4000.0 4000.0 4000.0 4000.0 4000.0 4000.0 4000.0 4000.0 4000.0 4000.0 4000.0 4000.0 4000.0 4000.0 4000.0 4000.0 4000.0 4000.0 4000.0 4000.0 4000.0 4000.0 4000.0 4000.0 4000.0 4000.0 4000.0 4000.0 4000.0 4000.0 4000.0 4000.0 4000.0 4000.0 4000.0 4000.0 4000.0 4000.0 4000.0 4000.0 4000.0 4000.0 4000.0 4000.0 4000.0 4000.0 4000.0 4000.0 4000.0 4000.0 4000.0 4000.0 4000.0 4000.0 4000.0 4000.0 4000.0 4000.0 4000.0 4000.0 4000.0 4000.0 4000.0 4000.0 4000.0 4000.0 4000.0 4000.0 4000.0 4000.0 4000.0 4000.0 4000.0 4000.0 4000.0 4000.0 4000.0 4000.0 4000.0 4000.0 4000.0 4000.0 4000.0 4000.0 4000.0 4000.0 4000.0 4000.0 4000.0 4000.0 4000.0 4000.0 4000.0 4000.0 4000.0 4000.0 4000.0 4000.0 4000.0 4000.0 4000.0 4000.0 4000.0 4000.0 4000.0 4000.0 4000.0 4000.0 4000.0 4000.0 4000.0 4000.0 4000.0 4000.0 4000.0 4000.0 4000.0 4000.0 4000.0 4000.0 4000.0 4000.0 4000.0 4000.0 4000.0 4000.0 4000.0 4000.0 4000.0 4000.0 4000.0 4000.0 4000.0 4000.0 4000.0 4000.0 4000.0 4000.0 4000.0 4000.0 4000.0 4000.0 4000.0 4000.0 4000.0 4000.0 4000.0 4000.0 4000.0 4000.0 4000.0 4000.0 4000.0 4000.0 4000.0 4000.0 4000.0 4000.0 4000.0 4000.0 4000.0 4000.0 4000.0 4000.0 4000.0 4000.0 4000.0 4000.0 4000.0 4000.0 4000.0 4000.0 4000.0 4000.0 4000.0 4000.0 4000.0 4000.0 4000.0 4000.0 4000.0 4000.0 4000.0 4000.0 4000.0 4000.0 4000.0 4000.0 4000.0 4000.0 4000.0 4000.0 4000.0 4000.0 4000.0 4000.0 4000.0 4000.0 4000.0 4000.0 4000.0 4000.0 4000.0 4000.0 4000.0 4000.0 4000.0 4000.0 4000.0 4000.0 4000.0 4000.0 4000.0 4000.0 4000.0 4000.0 4000.0 4000.0 4000.0 4000.0 4000.0 4000.0 4000.0 4000.0 4000.0 4000.0 4000.0 4000.0 4000.0 4000.0 4000.0 4000.0 4000.0 4000.0 4000.0 4000.0 4000.0 4000.0 4000.0 4000.0 4000.0 4000.0 4000.0 4000.0 4000.0 4000.0 4000.0 4000.0 4000.0 4000.0 4000.0 4000.0 4000.0 4000.0 4000.0 4000.0 4000.0 4000.0 4000.0 4000.0 4000.0 4000.0 4000.0 4000.0 4000.0 4000.0 4000.0 4000.0 4000.0 4000.0 4000.0 4000.0 4000.0 4000.0 4000.0 4000.0 4000.0 4000.0 4000.0 4000.0 4000.0 4000.0 4000.0 4000.0 4000.0 4000.0 4000.0 4000.0 4000.0 4000.0 4000.0 4000.0 4000.0 4000.0 4000.0 4000.0 4000.0 4000.0 4000.0 4000.0 4000.0 4000.0 4000.0 4000.0 4000.0 4000.0 4000.0 4000.0 4000.0 4000.0 4000.0 4000.0 4000.0 4000.0 4000.0 4000.0 4000.0 4000.0 4000.0 4000.0 4000.0 4000.0 4000.0 4000.0 4000.0 4000.0 4000.0 4000.0 4000.0 4000.0 4000.0 4000.0 4000.0 4000.0 4000.0 4000.0 4000.0 4000.0 4000.0 4000.0 4000.0 4000.0 4000.0 4000.0 4000.0 4000.0 4000.0 4000.0 4000.0 4000.0 4000.0 4000.0 4000.0 4000.0 4000.0 4000.0 4000.0 4000.0 4000.0 4000.0 4000.0 4000.0 4000.0 4000.0 4000.0 4000.0 4000.0 4000.0 4000.0 4000.0 4000.0 4000.0 4000.0 4000.0 4000.0 4000.0 4000.0 4000.0 4000.0 4000.0 4000.0 4000.0 4000.0 4000.0 4000.0 4000.0 4000.0 4000.0 4000.0 4000.0 4000.0 4000.0 4000.0 4000.0 4000.0 4000.0 4000.0 4000.0 4000.0 4000.0 4000.0 4000.0 4000.0 4000.0 4000.0 4000.0 4000.0 4000.0 4000.0 4000.0 4000.0 4000.0 4000.0 4000.0 4000.0 4000.0 4000.0 4000.0 4000.0 4000.0 4000.0 4000.0 4000.0 4000.0 4000.0 4000.0 4000.0 4000.0 4000.0 4000.0 4000.0 4000.0 4000.0 4000.0 4000.0 4000.0 4000.0 4000.0 4000.0 4000.0 4000.0 4000.0 4000.0 4000.0 4000.0 4000.0 4000.0 4000.0 4000.0 4000.0 4000.0 4000.0 4000.0 4000.0 4000.0 4000.0 4000.0 4000.0 4000.0 4000.0 4000.0 4000.0 4000.0 4000.0 4000.0 4000.0 4000.0 4000.0 4000.0 4000.0 4000.0 4000.0 4000.0 4000.0 4000.0 4000.0 4000.0 4000.0 4000.0 4000.0 4000.0 4000.0 4000.0 4000.0 4000.0 4000.0 4000.0 4000.0 4000.0 4000.0 4000.0 4000.0 4000.0 4000.0 4000.0 4000.0 4000.0 4000.0 4000.0 4000.0 4000.0 4000.0 4000.0 4000.0 4000.0 4000.0 4000.0 4000.0 4000.0 4000.0 4000.0 4000.0 4000.0 4000.0 4000.0 4000.0 4000.0 4000.0 4000.0 4000.0 4000.0 4000.0 4000.0 4000.0 4000.0 4000.0 4000.0 4000.0 4000.0 4000.0 4000.0 4000.0 4000.0 4000.0 4000.0 4000.0 4000.0 4000.0 4000.0 4000.0 4000.0 4000.0 4000.0 4000.0 4000.0 4000.0 4000.0 4000.0 4000.0 4000.0 4000.0 4000.0 4000.0 4000.0 4000.0 4000.0 4000.0 4000.0 4000.0 4000.0 4000.0 4000.0 4000.0 4000.0 4000.0 4000.0 4000.0 4000.0 4000.0 4000.0 4000.0 4000.0 4000.0 4000.0 4000.0 4000.0 4000.0 4000.0 4000.0 4000.0 4000.0 4000.0 4000.0 4000.0 4000.0 4000.0 4000.0 4000.0 4000.0 4000.0 4000.0 4000.0 4000.0 4000.0 4000.0 4000.0 4000.0 4000.0 4000.0 4000.0 4000.0 4000.0 4000.0 4000.0 4000.0 4000.0 4000.0 4000.0 4000.0 4000.0 4000.0 4000.0 4000.0 4000.0 4000.0 4000.0 4000.0 4000.0 4000.0 4000.0 4000.0 4000.0 4000.0 4000.0 4000.0 4000.0 4000.0 4000.0 4000.0 4000.0 4000.0 4000.0 4000.0 4000.0 4000.0 4000.0 4000.0 4000.0 4000.0 4000.0 4000.0 4000.0 4000.0 4000.0 4000.0 4000.0 4000.0 4000.0 4000.0 4000.0 4000.0 4000.0 4000.0 4000.0 4000.0 4000.0 4000.0 4000.0 4000.0 4000.0 4000.0 4000.0 4000.0 4000.0 4000.0 4000.0 4000.0 4000.0 4000.0 4000.0 4000.0 4000.0 4000.0 4000.0 4000.0 4000.0 4000.0 4000.0 4000.0 4000.0 4000.0 4000.0 4000.0 4000.0 4000.0 4000.0 4000.0 4000.0 4000.0 4000.0 4000.0 4000.0 4000.0 4000.0 4000.0 4000.0 4000.0 4000.0 4000.0 4000.0 4000.0 4000.0 4000.0 4000.0 4000.0 4000.0 4000.0 4000.0 4000.0 4000.0 4000.0 4000.0 4000.0 4000.0 4000.0 4000.0 4000.0 4000.0 4000.0 4000.0 4000.0 4000.0 4000.0 4000.0 4000.0 4000.0 4000.0 4000.0 4000.0 4000.0 4000.0 4000.0 4000.0 4000.0 4000.0 4000.0 4000.0 4000.0 4000.0 4000.0 4000.0 4000.0 4000.0 4000.0 4000.0 4000.0 4000.0 4000.0 4000.0 4000.0 4000.0 4000.0 4000.0 4000.0 4000.0 4000.0 4000.0 4000.0 4000.0 4000.0 4000.0 4000.0 4000.0 4000.0 4000.0 4000.0 4000.0 4000.0 4000.0 4000.0 4000.0 4000.0 4000.0 4000.0 4000.0 4000.0 4000.0 4000.0 4000.0 4000.0 4000.0 4000.0 4000.0 4000.0 4000.0 4000.0 4000.0 4000.0 4000.0 4000.0 4000.0 4000.0 4000.0 4000.0 4000.0 4000.0 4000.0 4000.0 4000.0 4000.0 4000.0 4000.0 4000.0 4000.0 4000.0 4000.0 4000.0 4000.0 4000.0 4000.0 4000.0 4000.0 4000.0 4000.0 4000.0 4000.0 4000.0 4000.0 4000.0 4000.0 4000.0 4000.0 4000.0 4000.0 4000.0 4000.0 4000.0 4000.0 4000.0 4000.0 4000.0 4000.0 4000.0 4000.0 4000.0 4000.0 4000.0 4000.0 4000.0 4000.0 4000.0 4000.0 4000.0 4000.0 4000.0 4000.0 4000.0 4000.0 4000.0 4000.0 4000.0 4000.0 4000.0 4000.0 4000.0 4000.0 4000.0 4000.0 4000.0 4000.0 4000.0 4000.0 4000.0 4000.0 4000.0 4000.0 4000.0 4000.0 4000.0 4000.0 4000.0 4000.0 4000.0 4000.0 4000.0 4000.0 4000.0 4000.0 4000.0 4000.0 4000.0 4000.0 4000.0 4000.0 4000.0 4000.0 4000.0 4000.0 4000.0 4000.0 4000.0 4000.0 4000.0 4000.0 4000.0 4000.0 4000.0 4000.0 4000.0 SCALARS Mass float 1
LOOKUP_TABLE default
11309700000.0 11309700000.0 11309700000.0 11309700000.0 11309700000.0 11309700000.0 11309700000.0 11309700000.0 11309700000.0 11309700000.0 11309700000.0 11309700000.0 11309700000.0 11309700000.0 11309700000.0 11309700000.0 11309700000.0 11309700000.0 11309700000.0 11309700000.0 11309700000.0 11309700000.0 11309700000.0 11309700000.0 11309700000.0 11309700000.0 11309700000.0 11309700000.0 11309700000.0 11309700000.0 11309700000.0 11309700000.0 11309700000.0 11309700000.0 11309700000.0 11309700000.0 11309700000.0 11309700000.0 11309700000.0 11309700000.0 11309700000.0 11309700000.0 11309700000.0 11309700000.0 11309700000.0 11309700000.0 11309700000.0 11309700000.0 11309700000.0 11309700000.0 11309700000.0 11309700000.0 11309700000.0 11309700000.0 11309700000.0 11309700000.0 11309700000.0 11309700000.0 11309700000.0 11309700000.0 11309700000.0 11309700000.0 11309700000.0 11309700000.0 11309700000.0 11309700000.0 11309700000.0 11309700000.0 11309700000.0 11309700000.0 11309700000.0 11309700000.0 11309700000.0 11309700000.0 11309700000.0 11309700000.0 11309700000.0 11309700000.0 11309700000.0 11309700000.0 11309700000.0 11309700000.0 11309700000.0 11309700000.0 11309700000.0 11309700000.0 11309700000.0 11309700000.0 11309700000.0 11309700000.0 11309700000.0 11309700000.0 11309700000.0 11309700000.0 11309700000.0 11309700000.0 11309700000.0 11309700000.0 11309700000.0 11309700000.0 11309700000.0 11309700000.0 11309700000.0 11309700000.0 11309700000.0 11309700000.0 11309700000.0 11309700000.0 11309700000.0 11309700000.0 11309700000.0 11309700000.0 11309700000.0 11309700000.0 11309700000.0 11309700000.0 11309700000.0 11309700000.0 11309700000.0 11309700000.0 11309700000.0 11309700000.0 11309700000.0 11309700000.0 11309700000.0 11309700000.0 11309700000.0 11309700000.0 11309700000.0 11309700000.0 11309700000.0 11309700000.0 11309700000.0 11309700000.0 11309700000.0 11309700000.0 11309700000.0 11309700000.0 11309700000.0 11309700000.0 11309700000.0 11309700000.0 11309700000.0 11309700000.0 11309700000.0 11309700000.0 11309700000.0 11309700000.0 11309700000.0 11309700000.0 11309700000.0 11309700000.0 11309700000.0 11309700000.0 11309700000.0 11309700000.0 11309700000.0 11309700000.0 11309700000.0 11309700000.0 11309700000.0 11309700000.0 11309700000.0 11309700000.0 11309700000.0 11309700000.0 11309700000.0 11309700000.0 11309700000.0 11309700000.0 11309700000.0 11309700000.0 11309700000.0 11309700000.0 11309700000.0 11309700000.0 11309700000.0 11309700000.0 11309700000.0 11309700000.0 11309700000.0 11309700000.0 11309700000.0 11309700000.0 11309700000.0 11309700000.0 11309700000.0 11309700000.0 11309700000.0 11309700000.0 11309700000.0 11309700000.0 11309700000.0 11309700000.0 11309700000.0 11309700000.0 11309700000.0 11309700000.0 11309700000.0 11309700000.0 11309700000.0 11309700000.0 11309700000.0 11309700000.0 11309700000.0 11309700000.0 11309700000.0 11309700000.0 11309700000.0 11309700000.0 11309700000.0 11309700000.0 11309700000.0 11309700000.0 11309700000.0 11309700000.0 11309700000.0 11309700000.0 11309700000.0 11309700000.0 11309700000.0 11309700000.0 11309700000.0 11309700000.0 11309700000.0 11309700000.0 11309700000.0 11309700000.0 11309700000.0 11309700000.0 11309700000.0 11309700000.0 11309700000.0 11309700000.0 11309700000.0 11309700000.0 11309700000.0 11309700000.0 11309700000.0 11309700000.0 11309700000.0 11309700000.0 11309700000.0 11309700000.0 11309700000.0 11309700000.0 11309700000.0 11309700000.0 11309700000.0 11309700000.0 11309700000.0 11309700000.0 11309700000.0 11309700000.0 11309700000.0 11309700000.0 11309700000.0 11309700000.0 11309700000.0 11309700000.0 11309700000.0 11309700000.0 11309700000.0 11309700000.0 11309700000.0 11309700000.0 11309700000.0 11309700000.0 11309700000.0 11309700000.0 11309700000.0 11309700000.0 11309700000.0 11309700000.0 11309700000.0 11309700000.0 11309700000.0 11309700000.0 11309700000.0 11309700000.0 11309700000.0 11309700000.0 11309700000.0 11309700000.0 11309700000.0 11309700000.0 11309700000.0 11309700000.0 11309700000.0 11309700000.0 11309700000.0 11309700000.0 11309700000.0 11309700000.0 11309700000.0 11309700000.0 11309700000.0 11309700000.0 11309700000.0 11309700000.0 11309700000.0 11309700000.0 11309700000.0 11309700000.0 11309700000.0 11309700000.0 11309700000.0 11309700000.0 11309700000.0 11309700000.0 11309700000.0 11309700000.0 11309700000.0 11309700000.0 11309700000.0 11309700000.0 11309700000.0 11309700000.0 11309700000.0 11309700000.0 11309700000.0 11309700000.0 11309700000.0 11309700000.0 11309700000.0 11309700000.0 11309700000.0 11309700000.0 11309700000.0 11309700000.0 11309700000.0 11309700000.0 11309700000.0 11309700000.0 11309700000.0 11309700000.0 11309700000.0 11309700000.0 11309700000.0 11309700000.0 11309700000.0 11309700000.0 11309700000.0 11309700000.0 11309700000.0 11309700000.0 11309700000.0 11309700000.0 11309700000.0 11309700000.0 11309700000.0 11309700000.0 11309700000.0 11309700000.0 11309700000.0 11309700000.0 11309700000.0 11309700000.0 11309700000.0 11309700000.0 11309700000.0 11309700000.0 11309700000.0 11309700000.0 11309700000.0 11309700000.0 11309700000.0 11309700000.0 11309700000.0 11309700000.0 11309700000.0 11309700000.0 11309700000.0 11309700000.0 11309700000.0 11309700000.0 11309700000.0 11309700000.0 11309700000.0 11309700000.0 11309700000.0 11309700000.0 11309700000.0 11309700000.0 11309700000.0 11309700000.0 11309700000.0 11309700000.0 11309700000.0 11309700000.0 11309700000.0 11309700000.0 11309700000.0 11309700000.0 11309700000.0 11309700000.0 11309700000.0 11309700000.0 11309700000.0 11309700000.0 11309700000.0 11309700000.0 11309700000.0 11309700000.0 11309700000.0 11309700000.0 11309700000.0 11309700000.0 11309700000.0 11309700000.0 11309700000.0 11309700000.0 11309700000.0 11309700000.0 11309700000.0 11309700000.0 11309700000.0 11309700000.0 11309700000.0 11309700000.0 11309700000.0 11309700000.0 11309700000.0 11309700000.0 11309700000.0 11309700000.0 11309700000.0 11309700000.0 11309700000.0 11309700000.0 11309700000.0 11309700000.0 11309700000.0 11309700000.0 11309700000.0 11309700000.0 11309700000.0 11309700000.0 11309700000.0 11309700000.0 11309700000.0 11309700000.0 11309700000.0 11309700000.0 11309700000.0 11309700000.0 11309700000.0 11309700000.0 11309700000.0 11309700000.0 11309700000.0 11309700000.0 11309700000.0 11309700000.0 11309700000.0 11309700000.0 11309700000.0 11309700000.0 11309700000.0 11309700000.0 11309700000.0 11309700000.0 11309700000.0 11309700000.0 11309700000.0 11309700000.0 11309700000.0 11309700000.0 11309700000.0 11309700000.0 11309700000.0 11309700000.0 11309700000.0 11309700000.0 11309700000.0 11309700000.0 11309700000.0 11309700000.0 11309700000.0 11309700000.0 11309700000.0 11309700000.0 11309700000.0 11309700000.0 11309700000.0 11309700000.0 11309700000.0 11309700000.0 11309700000.0 11309700000.0 11309700000.0 11309700000.0 11309700000.0 11309700000.0 11309700000.0 11309700000.0 11309700000.0 11309700000.0 11309700000.0 11309700000.0 11309700000.0 11309700000.0 11309700000.0 11309700000.0 11309700000.0 11309700000.0 11309700000.0 11309700000.0 11309700000.0 11309700000.0 11309700000.0 11309700000.0 11309700000.0 11309700000.0 11309700000.0 11309700000.0 11309700000.0 11309700000.0 11309700000.0 11309700000.0 11309700000.0 11309700000.0 11309700000.0 11309700000.0 11309700000.0 11309700000.0 11309700000.0 11309700000.0 11309700000.0 11309700000.0 11309700000.0 11309700000.0 11309700000.0 11309700000.0 11309700000.0 11309700000.0 11309700000.0 11309700000.0 11309700000.0 11309700000.0 11309700000.0 11309700000.0 11309700000.0 11309700000.0 11309700000.0 11309700000.0 11309700000.0 11309700000.0 11309700000.0 11309700000.0 11309700000.0 11309700000.0 11309700000.0 11309700000.0 11309700000.0 11309700000.0 11309700000.0 11309700000.0 11309700000.0 11309700000.0 11309700000.0 11309700000.0 11309700000.0 11309700000.0 11309700000.0 11309700000.0 11309700000.0 11309700000.0 11309700000.0 11309700000.0 11309700000.0 11309700000.0 11309700000.0 11309700000.0 11309700000.0 11309700000.0 11309700000.0 11309700000.0 11309700000.0 11309700000.0 11309700000.0 11309700000.0 11309700000.0 11309700000.0 11309700000.0 11309700000.0 11309700000.0 11309700000.0 11309700000.0 11309700000.0 11309700000.0 11309700000.0 11309700000.0 11309700000.0 11309700000.0 11309700000.0 11309700000.0 11309700000.0 11309700000.0 11309700000.0 11309700000.0 11309700000.0 11309700000.0 11309700000.0 11309700000.0 11309700000.0 11309700000.0 11309700000.0 11309700000.0 11309700000.0 11309700000.0 11309700000.0 11309700000.0 11309700000.0 11309700000.0 11309700000.0 11309700000.0 11309700000.0 11309700000.0 11309700000.0 11309700000.0 11309700000.0 11309700000.0 11309700000.0 11309700000.0 11309700000.0 11309700000.0 11309700000.0 11309700000.0 11309700000.0 11309700000.0 11309700000.0 11309700000.0 11309700000.0 11309700000.0 11309700000.0 11309700000.0 11309700000.0 11309700000.0 11309700000.0 11309700000.0 11309700000.0 11309700000.0 11309700000.0 11309700000.0 11309700000.0 11309700000.0 11309700000.0 11309700000.0 11309700000.0 11309700000.0 11309700000.0 11309700000.0 11309700000.0 11309700000.0 11309700000.0 11309700000.0 11309700000.0 11309700000.0 11309700000.0 11309700000.0 11309700000.0 11309700000.0 11309700000.0 11309700000.0 11309700000.0 11309700000.0 11309700000.0 11309700000.0 11309700000.0 11309700000.0 11309700000.0 11309700000.0 11309700000.0 11309700000.0 11309700000.0 11309700000.0 11309700000.0 11309700000.0 11309700000.0 11309700000.0 11309700000.0 11309700000.0 11309700000.0 11309700000.0 11309700000.0 11309700000.0 11309700000.0 11309700000.0 11309700000.0 11309700000.0 11309700000.0 11309700000.0 11309700000.0 11309700000.0 11309700000.0 11309700000.0 11309700000.0 11309700000.0 11309700000.0 11309700000.0 11309700000.0 11309700000.0 11309700000.0 11309700000.0 11309700000.0 11309700000.0 11309700000.0 11309700000.0 11309700000.0 11309700000.0 11309700000.0 11309700000.0 11309700000.0 11309700000.0 11309700000.0 11309700000.0 11309700000.0 11309700000.0 11309700000.0 11309700000.0 11309700000.0 11309700000.0 11309700000.0 11309700000.0 11309700000.0 11309700000.0 11309700000.0 11309700000.0 11309700000.0 11309700000.0 11309700000.0 11309700000.0 11309700000.0 11309700000.0 11309700000.0 11309700000.0 11309700000.0 11309700000.0 11309700000.0 11309700000.0 11309700000.0 11309700000.0 11309700000.0 11309700000.0 11309700000.0 11309700000.0 11309700000.0 11309700000.0 11309700000.0 11309700000.0 11309700000.0 11309700000.0 11309700000.0 11309700000.0 11309700000.0 11309700000.0 11309700000.0 11309700000.0 11309700000.0 11309700000.0 11309700000.0 11309700000.0 11309700000.0 11309700000.0 11309700000.0 11309700000.0 11309700000.0 11309700000.0 11309700000.0 11309700000.0 11309700000.0 11309700000.0 11309700000.0 11309700000.0 11309700000.0 11309700000.0 11309700000.0 11309700000.0 11309700000.0 11309700000.0 11309700000.0 11309700000.0 11309700000.0 11309700000.0 11309700000.0 11309700000.0 11309700000.0 11309700000.0 11309700000.0 11309700000.0 11309700000.0 11309700000.0 11309700000.0 11309700000.0 11309700000.0 11309700000.0 11309700000.0 11309700000.0 11309700000.0 11309700000.0 11309700000.0 11309700000.0 11309700000.0 11309700000.0 11309700000.0 11309700000.0 11309700000.0 11309700000.0 11309700000.0 11309700000.0 11309700000.0 11309700000.0 11309700000.0 11309700000.0 11309700000.0 11309700000.0 11309700000.0 11309700000.0 11309700000.0 11309700000.0 11309700000.0 11309700000.0 11309700000.0 11309700000.0 11309700000.0 11309700000.0 11309700000.0 11309700000.0 11309700000.0 11309700000.0 11309700000.0 11309700000.0 11309700000.0 11309700000.0 11309700000.0 11309700000.0 11309700000.0 11309700000.0 11309700000.0 11309700000.0 11309700000.0 11309700000.0 11309700000.0 11309700000.0 11309700000.0 11309700000.0 11309700000.0 11309700000.0 11309700000.0 11309700000.0 11309700000.0 11309700000.0 11309700000.0 11309700000.0 11309700000.0 11309700000.0 11309700000.0 11309700000.0 11309700000.0 11309700000.0 11309700000.0 11309700000.0 11309700000.0 11309700000.0 11309700000.0 11309700000.0 11309700000.0 11309700000.0 11309700000.0 11309700000.0 11309700000.0 11309700000.0 11309700000.0 11309700000.0 11309700000.0 11309700000.0 11309700000.0 11309700000.0 11309700000.0 11309700000.0 11309700000.0 11309700000.0 11309700000.0 11309700000.0 11309700000.0 11309700000.0 11309700000.0 11309700000.0 11309700000.0 11309700000.0 11309700000.0 11309700000.0 11309700000.0 11309700000.0 11309700000.0 11309700000.0 11309700000.0 11309700000.0 11309700000.0 11309700000.0 11309700000.0 11309700000.0 11309700000.0 11309700000.0 11309700000.0 11309700000.0 11309700000.0 11309700000.0 11309700000.0 11309700000.0 11309700000.0 11309700000.0 11309700000.0 11309700000.0 11309700000.0 11309700000.0 11309700000.0 11309700000.0 11309700000.0 11309700000.0 11309700000.0 11309700000.0 11309700000.0 11309700000.0 11309700000.0 11309700000.0 11309700000.0 11309700000.0 11309700000.0 11309700000.0 11309700000.0 11309700000.0 11309700000.0 11309700000.0 11309700000.0 11309700000.0 11309700000.0 11309700000.0 11309700000.0 11309700000.0 11309700000.0 11309700000.0 11309700000.0 11309700000.0 11309700000.0 11309700000.0 11309700000.0 11309700000.0 11309700000.0 11309700000.0 11309700000.0 11309700000.0 11309700000.0 11309700000.0 11309700000.0 11309700000.0 11309700000.0 11309700000.0 11309700000.0 11309700000.0 11309700000.0 11309700000.0 11309700000.0 11309700000.0 11309700000.0 11309700000.0 11309700000.0 11309700000.0 11309700000.0 11309700000.0 11309700000.0 11309700000.0 11309700000.0 11309700000.0 11309700000.0 11309700000.0 11309700000.0 11309700000.0 11309700000.0 11309700000.0 11309700000.0 11309700000.0 11309700000.0 11309700000.0 11309700000.0 11309700000.0 11309700000.0 11309700000.0 11309700000.0 11309700000.0 11309700000.0 11309700000.0 11309700000.0 11309700000.0 11309700000.0 11309700000.0 11309700000.0 11309700000.0 11309700000.0 11309700000.0 11309700000.0 11309700000.0 11309700000.0 11309700000.0 11309700000.0 11309700000.0 11309700000.0 11309700000.0 11309700000.0 11309700000.0 11309700000.0 11309700000.0 11309700000.0 11309700000.0 11309700000.0 11309700000.0 11309700000.0 11309700000.0 11309700000.0 11309700000.0 11309700000.0 11309700000.0 11309700000.0 11309700000.0 11309700000.0 11309700000.0 11309700000.0 11309700000.0 11309700000.0 11309700000.0 11309700000.0 11309700000.0 11309700000.0 11309700000.0 11309700000.0 11309700000.0 11309700000.0 11309700000.0 11309700000.0 11309700000.0 11309700000.0 11309700000.0 11309700000.0 11309700000.0 11309700000.0 11309700000.0 11309700000.0 11309700000.0 11309700000.0 11309700000.0 11309700000.0 11309700000.0 11309700000.0 11309700000.0 11309700000.0 11309700000.0 11309700000.0 11309700000.0 11309700000.0 11309700000.0 11309700000.0 11309700000.0 11309700000.0 11309700000.0 11309700000.0 11309700000.0 11309700000.0 11309700000.0 11309700000.0 11309700000.0 11309700000.0 11309700000.0 11309700000.0 11309700000.0 11309700000.0 11309700000.0 11309700000.0 11309700000.0 11309700000.0 11309700000.0 11309700000.0 11309700000.0 11309700000.0 11309700000.0 11309700000.0 11309700000.0 11309700000.0 11309700000.0 11309700000.0 11309700000.0 11309700000.0 11309700000.0 11309700000.0 11309700000.0 11309700000.0 11309700000.0 11309700000.0 11309700000.0 11309700000.0 11309700000.0 11309700000.0 11309700000.0 11309700000.0 11309700000.0 11309700000.0 11309700000.0 11309700000.0 11309700000.0 11309700000.0 11309700000.0 11309700000.0 11309700000.0 11309700000.0 11309700000.0 11309700000.0 11309700000.0 11309700000.0 11309700000.0 11309700000.0 11309700000.0 11309700000.0 11309700000.0 11309700000.0 11309700000.0 11309700000.0 11309700000.0 11309700000.0 11309700000.0 11309700000.0 11309700000.0 11309700000.0 11309700000.0 11309700000.0 11309700000.0 11309700000.0 11309700000.0 11309700000.0 11309700000.0 11309700000.0 11309700000.0 11309700000.0 11309700000.0 11309700000.0 11309700000.0 11309700000.0 11309700000.0 11309700000.0 11309700000.0 11309700000.0 11309700000.0 11309700000.0 11309700000.0 11309700000.0 11309700000.0 11309700000.0 11309700000.0 11309700000.0 11309700000.0 11309700000.0 11309700000.0 11309700000.0 11309700000.0 11309700000.0 11309700000.0 11309700000.0 11309700000.0 11309700000.0 11309700000.0 11309700000.0 11309700000.0 11309700000.0 11309700000.0 11309700000.0 11309700000.0 11309700000.0 11309700000.0 11309700000.0 11309700000.0 11309700000.0 11309700000.0 11309700000.0 11309700000.0 11309700000.0 11309700000.0 11309700000.0 11309700000.0 11309700000.0 11309700000.0 11309700000.0 11309700000.0 11309700000.0 11309700000.0 11309700000.0 11309700000.0 11309700000.0 11309700000.0 11309700000.0 11309700000.0 11309700000.0 11309700000.0 11309700000.0 11309700000.0 11309700000.0 11309700000.0 11309700000.0 11309700000.0 11309700000.0 11309700000.0 11309700000.0 11309700000.0 11309700000.0 11309700000.0 11309700000.0 11309700000.0 11309700000.0 11309700000.0 11309700000.0 11309700000.0 11309700000.0 11309700000.0 11309700000.0 11309700000.0 11309700000.0 11309700000.0 11309700000.0 11309700000.0 11309700000.0 11309700000.0 11309700000.0 11309700000.0 11309700000.0 11309700000.0 11309700000.0 11309700000.0 11309700000.0 11309700000.0 11309700000.0 11309700000.0 11309700000.0 11309700000.0 11309700000.0 11309700000.0 11309700000.0 11309700000.0 11309700000.0 11309700000.0 11309700000.0 11309700000.0 11309700000.0 11309700000.0 11309700000.0 11309700000.0 11309700000.0 11309700000.0 11309700000.0 11309700000.0 11309700000.0 11309700000.0 11309700000.0 11309700000.0 11309700000.0 11309700000.0 11309700000.0 11309700000.0 11309700000.0 11309700000.0 11309700000.0 11309700000.0 11309700000.0 11309700000.0 11309700000.0 11309700000.0 11309700000.0 11309700000.0 11309700000.0 11309700000.0 11309700000.0 11309700000.0 11309700000.0 11309700000.0 11309700000.0 11309700000.0 11309700000.0 11309700000.0 11309700000.0 11309700000.0 11309700000.0 11309700000.0 11309700000.0 11309700000.0 11309700000.0 11309700000.0 11309700000.0 11309700000.0 11309700000.0 11309700000.0 11309700000.0 11309700000.0 11309700000.0 11309700000.0 11309700000.0 11309700000.0 11309700000.0 11309700000.0 11309700000.0 11309700000.0 11309700000.0 11309700000.0 11309700000.0 11309700000.0 11309700000.0 11309700000.0 11309700000.0 11309700000.0 11309700000.0 11309700000.0 11309700000.0 11309700000.0 11309700000.0 11309700000.0 11309700000.0 11309700000.0 11309700000.0 11309700000.0 11309700000.0 11309700000.0 11309700000.0 11309700000.0 11309700000.0 11309700000.0 11309700000.0 11309700000.0 11309700000.0 11309700000.0 11309700000.0 11309700000.0 11309700000.0 11309700000.0 11309700000.0 11309700000.0 11309700000.0 11309700000.0 11309700000.0 11309700000.0 11309700000.0 11309700000.0 11309700000.0 11309700000.0 11309700000.0 11309700000.0 11309700000.0 11309700000.0 11309700000.0 11309700000.0 11309700000.0 11309700000.0 11309700000.0 11309700000.0 11309700000.0 11309700000.0 11309700000.0 11309700000.0 11309700000.0 11309700000.0 11309700000.0 11309700000.0 11309700000.0 11309700000.0 11309700000.0 11309700000.0 11309700000.0 11309700000.0 11309700000.0 11309700000.0 11309700000.0 11309700000.0 11309700000.0 11309700000.0 11309700000.0 11309700000.0 11309700000.0 11309700000.0 11309700000.0 11309700000.0 11309700000.0 11309700000.0 11309700000.0 11309700000.0 11309700000.0 11309700000.0 11309700000.0 11309700000.0 11309700000.0 11309700000.0 11309700000.0 11309700000.0 11309700000.0 11309700000.0 11309700000.0 11309700000.0 11309700000.0 11309700000.0 11309700000.0 11309700000.0 11309700000.0 11309700000.0 11309700000.0 11309700000.0 11309700000.0 11309700000.0 11309700000.0 11309700000.0 11309700000.0 11309700000.0 11309700000.0 11309700000.0 11309700000.0 11309700000.0 11309700000.0 11309700000.0 11309700000.0 11309700000.0 11309700000.0 11309700000.0 11309700000.0 11309700000.0 11309700000.0 11309700000.0 11309700000.0 11309700000.0 11309700000.0 11309700000.0 11309700000.0 11309700000.0 11309700000.0 11309700000.0 11309700000.0 11309700000.0 11309700000.0 11309700000.0 11309700000.0 11309700000.0 11309700000.0 11309700000.0 11309700000.0 11309700000.0 11309700000.0 11309700000.0 11309700000.0 11309700000.0 11309700000.0 11309700000.0 11309700000.0 11309700000.0 11309700000.0 11309700000.0 11309700000.0 11309700000.0 11309700000.0 11309700000.0 11309700000.0 11309700000.0 11309700000.0 11309700000.0 11309700000.0 11309700000.0 11309700000.0 11309700000.0 11309700000.0 11309700000.0 11309700000.0 11309700000.0 11309700000.0 11309700000.0 11309700000.0 11309700000.0 11309700000.0 11309700000.0 11309700000.0 11309700000.0 11309700000.0 11309700000.0 11309700000.0 11309700000.0 11309700000.0 11309700000.0 11309700000.0 11309700000.0 11309700000.0 11309700000.0 11309700000.0 11309700000.0 11309700000.0 11309700000.0 11309700000.0 11309700000.0 11309700000.0 11309700000.0 11309700000.0 11309700000.0 11309700000.0 11309700000.0 11309700000.0 11309700000.0 11309700000.0 11309700000.0 11309700000.0 11309700000.0 11309700000.0 11309700000.0 11309700000.0 11309700000.0 11309700000.0 11309700000.0 11309700000.0 11309700000.0 11309700000.0 11309700000.0 11309700000.0 11309700000.0 11309700000.0 11309700000.0 11309700000.0 11309700000.0 11309700000.0 11309700000.0 11309700000.0 11309700000.0 11309700000.0 11309700000.0 11309700000.0 11309700000.0 11309700000.0 11309700000.0 11309700000.0 11309700000.0 11309700000.0 11309700000.0 11309700000.0 11309700000.0 11309700000.0 11309700000.0 11309700000.0 11309700000.0 11309700000.0 11309700000.0 11309700000.0 11309700000.0 11309700000.0 11309700000.0 11309700000.0 11309700000.0 11309700000.0 11309700000.0 11309700000.0 11309700000.0 11309700000.0 11309700000.0 11309700000.0 11309700000.0 11309700000.0 11309700000.0 11309700000.0 11309700000.0 11309700000.0 11309700000.0 11309700000.0 11309700000.0 11309700000.0 11309700000.0 11309700000.0 11309700000.0 11309700000.0 11309700000.0 11309700000.0 11309700000.0 11309700000.0 11309700000.0 11309700000.0 11309700000.0 11309700000.0 11309700000.0 11309700000.0 11309700000.0 11309700000.0 11309700000.0 11309700000.0 11309700000.0 11309700000.0 11309700000.0 11309700000.0 11309700000.0 11309700000.0 11309700000.0 11309700000.0 11309700000.0 11309700000.0 11309700000.0 11309700000.0 11309700000.0 11309700000.0 11309700000.0 11309700000.0 11309700000.0 11309700000.0 11309700000.0 11309700000.0 11309700000.0 11309700000.0 11309700000.0 11309700000.0 11309700000.0 11309700000.0 11309700000.0 11309700000.0 11309700000.0 11309700000.0 11309700000.0 11309700000.0 11309700000.0 11309700000.0 11309700000.0 11309700000.0 11309700000.0 11309700000.0 11309700000.0 11309700000.0 11309700000.0 11309700000.0 11309700000.0 11309700000.0 11309700000.0 11309700000.0 11309700000.0 11309700000.0 11309700000.0 11309700000.0 11309700000.0 11309700000.0 11309700000.0 11309700000.0 11309700000.0 11309700000.0 11309700000.0 11309700000.0 11309700000.0 11309700000.0 11309700000.0 11309700000.0 11309700000.0 11309700000.0 11309700000.0 11309700000.0 11309700000.0 11309700000.0 11309700000.0 11309700000.0 11309700000.0 11309700000.0 11309700000.0 11309700000.0 11309700000.0 11309700000.0 11309700000.0 11309700000.0 11309700000.0 11309700000.0 11309700000.0 11309700000.0 11309700000.0 11309700000.0 11309700000.0 11309700000.0 11309700000.0 11309700000.0 11309700000.0 11309700000.0 11309700000.0 11309700000.0 11309700000.0 11309700000.0 11309700000.0 11309700000.0 11309700000.0 11309700000.0 11309700000.0 11309700000.0 11309700000.0 11309700000.0 11309700000.0 11309700000.0 11309700000.0 11309700000.0 11309700000.0 11309700000.0 11309700000.0 11309700000.0 11309700000.0 11309700000.0 11309700000.0 11309700000.0 11309700000.0 11309700000.0 11309700000.0 11309700000.0 11309700000.0 11309700000.0 11309700000.0 11309700000.0 11309700000.0 11309700000.0 11309700000.0 11309700000.0 11309700000.0 11309700000.0 11309700000.0 11309700000.0 11309700000.0 11309700000.0 11309700000.0 11309700000.0 11309700000.0 11309700000.0 11309700000.0 11309700000.0 11309700000.0 11309700000.0 11309700000.0 11309700000.0 11309700000.0 11309700000.0 11309700000.0 11309700000.0 11309700000.0 11309700000.0 11309700000.0 11309700000.0 11309700000.0 11309700000.0 11309700000.0 11309700000.0 11309700000.0 11309700000.0 11309700000.0 11309700000.0 11309700000.0 11309700000.0 11309700000.0 11309700000.0 11309700000.0 11309700000.0 11309700000.0 11309700000.0 11309700000.0 11309700000.0 11309700000.0 11309700000.0 11309700000.0 11309700000.0 11309700000.0 11309700000.0 11309700000.0 11309700000.0 11309700000.0 11309700000.0 11309700000.0 11309700000.0 11309700000.0 11309700000.0 11309700000.0 11309700000.0 11309700000.0 11309700000.0 11309700000.0 11309700000.0 11309700000.0 11309700000.0 11309700000.0 11309700000.0 11309700000.0 11309700000.0 11309700000.0 11309700000.0 11309700000.0 11309700000.0 11309700000.0 11309700000.0 11309700000.0 11309700000.0 11309700000.0 11309700000.0 11309700000.0 11309700000.0 11309700000.0 11309700000.0 11309700000.0 11309700000.0 11309700000.0 11309700000.0 11309700000.0 11309700000.0 11309700000.0 11309700000.0 11309700000.0 11309700000.0 11309700000.0 11309700000.0 11309700000.0 11309700000.0 11309700000.0 11309700000.0 11309700000.0 11309700000.0 11309700000.0 11309700000.0 11309700000.0 11309700000.0 11309700000.0 11309700000.0 11309700000.0 11309700000.0 11309700000.0 11309700000.0 11309700000.0 11309700000.0 11309700000.0 11309700000.0 11309700000.0 11309700000.0 11309700000.0 11309700000.0 11309700000.0 11309700000.0 11309700000.0 11309700000.0 11309700000.0 11309700000.0 11309700000.0 11309700000.0 11309700000.0 11309700000.0 11309700000.0 11309700000.0 11309700000.0 11309700000.0 11309700000.0 11309700000.0 11309700000.0 11309700000.0 11309700000.0 11309700000.0 11309700000.0 11309700000.0 11309700000.0 11309700000.0 11309700000.0 11309700000.0 11309700000.0 11309700000.0 11309700000.0 11309700000.0 11309700000.0 11309700000.0 11309700000.0 11309700000.0 11309700000.0 11309700000.0 11309700000.0 11309700000.0 11309700000.0 11309700000.0 11309700000.0 11309700000.0 11309700000.0 11309700000.0 11309700000.0 11309700000.0 11309700000.0 11309700000.0 11309700000.0 11309700000.0 11309700000.0 11309700000.0 11309700000.0 11309700000.0 11309700000.0 11309700000.0 11309700000.0 11309700000.0 11309700000.0 11309700000.0 11309700000.0 11309700000.0 11309700000.0 11309700000.0 11309700000.0 11309700000.0 11309700000.0 11309700000.0 11309700000.0 11309700000.0 11309700000.0 11309700000.0 11309700000.0 11309700000.0 11309700000.0 11309700000.0 11309700000.0 11309700000.0 11309700000.0 11309700000.0 11309700000.0 11309700000.0 11309700000.0 11309700000.0 11309700000.0 11309700000.0 11309700000.0 11309700000.0 11309700000.0 11309700000.0 11309700000.0 11309700000.0 11309700000.0 11309700000.0 11309700000.0 11309700000.0 11309700000.0 11309700000.0 11309700000.0 11309700000.0 11309700000.0 11309700000.0 11309700000.0 11309700000.0 11309700000.0 11309700000.0 11309700000.0 11309700000.0 11309700000.0 11309700000.0 11309700000.0 11309700000.0 11309700000.0 11309700000.0 11309700000.0 11309700000.0 11309700000.0 11309700000.0 11309700000.0 11309700000.0 11309700000.0 11309700000.0 11309700000.0 11309700000.0 11309700000.0 11309700000.0 11309700000.0 11309700000.0 11309700000.0 11309700000.0 11309700000.0 11309700000.0 11309700000.0 11309700000.0 11309700000.0 11309700000.0 11309700000.0 11309700000.0 11309700000.0 11309700000.0 11309700000.0 11309700000.0 11309700000.0 11309700000.0 11309700000.0 11309700000.0 11309700000.0 11309700000.0 11309700000.0 11309700000.0 11309700000.0 11309700000.0 11309700000.0 11309700000.0 11309700000.0 11309700000.0 11309700000.0 11309700000.0 11309700000.0 11309700000.0 11309700000.0 11309700000.0 11309700000.0 11309700000.0 11309700000.0 11309700000.0 11309700000.0 11309700000.0 11309700000.0 11309700000.0 11309700000.0 11309700000.0 11309700000.0 11309700000.0 11309700000.0 11309700000.0 11309700000.0 11309700000.0 11309700000.0 11309700000.0 11309700000.0 11309700000.0 11309700000.0 11309700000.0 11309700000.0 11309700000.0 11309700000.0 11309700000.0 11309700000.0 11309700000.0 11309700000.0 11309700000.0 11309700000.0 11309700000.0 11309700000.0 11309700000.0 11309700000.0 11309700000.0 11309700000.0 11309700000.0 11309700000.0 11309700000.0 11309700000.0 11309700000.0 11309700000.0 11309700000.0 11309700000.0 11309700000.0 11309700000.0 11309700000.0 11309700000.0 11309700000.0 11309700000.0 11309700000.0 11309700000.0 11309700000.0 11309700000.0 11309700000.0 11309700000.0 11309700000.0 11309700000.0 11309700000.0 11309700000.0 11309700000.0 11309700000.0 11309700000.0 11309700000.0 11309700000.0 11309700000.0 11309700000.0 11309700000.0 11309700000.0 11309700000.0 11309700000.0 11309700000.0 11309700000.0 11309700000.0 11309700000.0 11309700000.0 11309700000.0 11309700000.0 11309700000.0 11309700000.0 11309700000.0 11309700000.0 11309700000.0 11309700000.0 11309700000.0 11309700000.0 11309700000.0 11309700000.0 11309700000.0 11309700000.0 11309700000.0 11309700000.0 11309700000.0 11309700000.0 11309700000.0 11309700000.0 11309700000.0 11309700000.0 11309700000.0 11309700000.0 11309700000.0 11309700000.0 11309700000.0 11309700000.0 11309700000.0 11309700000.0 11309700000.0 11309700000.0 11309700000.0 11309700000.0 11309700000.0 11309700000.0 11309700000.0 11309700000.0 11309700000.0 11309700000.0 11309700000.0 11309700000.0 11309700000.0 11309700000.0 11309700000.0 11309700000.0 11309700000.0 11309700000.0 11309700000.0 11309700000.0 11309700000.0 11309700000.0 11309700000.0 11309700000.0 11309700000.0 11309700000.0 11309700000.0 11309700000.0 11309700000.0 11309700000.0 11309700000.0 11309700000.0 11309700000.0 11309700000.0 11309700000.0 11309700000.0 11309700000.0 11309700000.0 11309700000.0 11309700000.0 11309700000.0 11309700000.0 11309700000.0 11309700000.0 11309700000.0 11309700000.0 11309700000.0 11309700000.0 11309700000.0 11309700000.0 11309700000.0 11309700000.0 11309700000.0 11309700000.0 11309700000.0 11309700000.0 11309700000.0 11309700000.0 11309700000.0 11309700000.0 11309700000.0 11309700000.0 11309700000.0 11309700000.0 11309700000.0 11309700000.0 11309700000.0 11309700000.0 11309700000.0 11309700000.0 11309700000.0 11309700000.0 11309700000.0 11309700000.0 11309700000.0 11309700000.0 11309700000.0 11309700000.0 11309700000.0 11309700000.0 11309700000.0 11309700000.0 11309700000.0 11309700000.0 11309700000.0 11309700000.0 11309700000.0 11309700000.0 11309700000.0 11309700000.0 11309700000.0 11309700000.0 11309700000.0 11309700000.0 11309700000.0 11309700000.0 11309700000.0 11309700000.0 11309700000.0 11309700000.0 11309700000.0 11309700000.0 11309700000.0 11309700000.0 11309700000.0 11309700000.0 11309700000.0 11309700000.0 11309700000.0 11309700000.0 11309700000.0 11309700000.0 11309700000.0 11309700000.0 11309700000.0 11309700000.0 11309700000.0 11309700000.0 11309700000.0 11309700000.0 11309700000.0 11309700000.0 11309700000.0 11309700000.0 11309700000.0 11309700000.0 11309700000.0 11309700000.0 11309700000.0 11309700000.0 11309700000.0 11309700000.0 11309700000.0 11309700000.0 11309700000.0 11309700000.0 11309700000.0 11309700000.0 11309700000.0 11309700000.0 11309700000.0 11309700000.0 11309700000.0 11309700000.0 11309700000.0 11309700000.0 11309700000.0 11309700000.0 11309700000.0 11309700000.0 11309700000.0 11309700000.0 11309700000.0 11309700000.0 11309700000.0 11309700000.0 11309700000.0 11309700000.0 11309700000.0 11309700000.0 11309700000.0 11309700000.0 11309700000.0 11309700000.0 11309700000.0 11309700000.0 11309700000.0 11309700000.0 11309700000.0 11309700000.0 11309700000.0 11309700000.0 11309700000.0 11309700000.0 11309700000.0 11309700000.0 11309700000.0 11309700000.0 11309700000.0 11309700000.0 11309700000.0 11309700000.0 11309700000.0 11309700000.0 11309700000.0 11309700000.0 11309700000.0 11309700000.0 11309700000.0 11309700000.0 11309700000.0 11309700000.0 11309700000.0 11309700000.0 11309700000.0 11309700000.0 11309700000.0 11309700000.0 11309700000.0 11309700000.0 11309700000.0 11309700000.0 11309700000.0 11309700000.0 11309700000.0 11309700000.0 11309700000.0 11309700000.0 11309700000.0 11309700000.0 11309700000.0 11309700000.0 11309700000.0 11309700000.0 11309700000.0 11309700000.0 11309700000.0 11309700000.0 11309700000.0 11309700000.0 11309700000.0 11309700000.0 11309700000.0 11309700000.0 11309700000.0 11309700000.0 11309700000.0 11309700000.0 11309700000.0 11309700000.0 11309700000.0 11309700000.0 11309700000.0 11309700000.0 11309700000.0 11309700000.0 11309700000.0 11309700000.0 11309700000.0 11309700000.0 11309700000.0 11309700000.0 11309700000.0 11309700000.0 11309700000.0 11309700000.0 11309700000.0 11309700000.0 11309700000.0 11309700000.0 11309700000.0 11309700000.0 11309700000.0 11309700000.0 11309700000.0 11309700000.0 11309700000.0 11309700000.0 11309700000.0 11309700000.0 11309700000.0 11309700000.0 11309700000.0 11309700000.0 11309700000.0 11309700000.0 11309700000.0 11309700000.0 11309700000.0 11309700000.0 11309700000.0 11309700000.0 11309700000.0 11309700000.0 11309700000.0 11309700000.0 11309700000.0 11309700000.0 11309700000.0 11309700000.0 11309700000.0 11309700000.0 11309700000.0 11309700000.0 11309700000.0 11309700000.0 11309700000.0 11309700000.0 11309700000.0 11309700000.0 11309700000.0 11309700000.0 11309700000.0 11309700000.0 11309700000.0 11309700000.0 11309700000.0 11309700000.0 11309700000.0 11309700000.0 11309700000.0 11309700000.0 11309700000.0 11309700000.0 11309700000.0 11309700000.0 11309700000.0 11309700000.0 11309700000.0 11309700000.0 11309700000.0 11309700000.0 11309700000.0 11309700000.0 11309700000.0 11309700000.0 11309700000.0 11309700000.0 11309700000.0 11309700000.0 11309700000.0 11309700000.0 11309700000.0 11309700000.0 11309700000.0 11309700000.0 11309700000.0 11309700000.0 11309700000.0 11309700000.0 11309700000.0 11309700000.0 11309700000.0 11309700000.0 11309700000.0 11309700000.0 11309700000.0 11309700000.0 11309700000.0 11309700000.0 11309700000.0 11309700000.0 11309700000.0 11309700000.0 11309700000.0 11309700000.0 11309700000.0 11309700000.0 11309700000.0 11309700000.0 11309700000.0 11309700000.0 11309700000.0 11309700000.0 11309700000.0 11309700000.0 11309700000.0 11309700000.0 11309700000.0 11309700000.0 11309700000.0 11309700000.0 11309700000.0 11309700000.0 11309700000.0 11309700000.0 11309700000.0 11309700000.0 11309700000.0 11309700000.0 11309700000.0 11309700000.0 11309700000.0 11309700000.0 11309700000.0 11309700000.0 11309700000.0 11309700000.0 11309700000.0 11309700000.0 11309700000.0 11309700000.0 11309700000.0 11309700000.0 11309700000.0 11309700000.0 11309700000.0 11309700000.0 11309700000.0 11309700000.0 11309700000.0 11309700000.0 11309700000.0 11309700000.0 11309700000.0 11309700000.0 11309700000.0 11309700000.0 11309700000.0 11309700000.0 11309700000.0 11309700000.0 11309700000.0 11309700000.0 11309700000.0 11309700000.0 11309700000.0 11309700000.0 11309700000.0 11309700000.0 11309700000.0 11309700000.0 11309700000.0 11309700000.0 11309700000.0 11309700000.0 11309700000.0 11309700000.0 11309700000.0 11309700000.0 11309700000.0 11309700000.0 11309700000.0 11309700000.0 11309700000.0 11309700000.0 11309700000.0 11309700000.0 11309700000.0 11309700000.0 11309700000.0 11309700000.0 11309700000.0 11309700000.0 11309700000.0 11309700000.0 11309700000.0 11309700000.0 11309700000.0 11309700000.0 11309700000.0 11309700000.0 11309700000.0 11309700000.0 11309700000.0 11309700000.0 11309700000.0 11309700000.0 11309700000.0 11309700000.0 11309700000.0 11309700000.0 11309700000.0 11309700000.0 11309700000.0 11309700000.0 11309700000.0 11309700000.0 11309700000.0 11309700000.0 11309700000.0 11309700000.0 11309700000.0 11309700000.0 11309700000.0 11309700000.0 11309700000.0 11309700000.0 11309700000.0 11309700000.0 11309700000.0 11309700000.0 11309700000.0 11309700000.0 11309700000.0 11309700000.0 11309700000.0 11309700000.0 11309700000.0 11309700000.0 11309700000.0 11309700000.0 11309700000.0 11309700000.0 11309700000.0 11309700000.0 11309700000.0 11309700000.0 11309700000.0 11309700000.0 11309700000.0 11309700000.0 11309700000.0 11309700000.0 11309700000.0 11309700000.0 11309700000.0 11309700000.0 11309700000.0 11309700000.0 11309700000.0 11309700000.0 11309700000.0 11309700000.0 11309700000.0 11309700000.0 11309700000.0 11309700000.0 11309700000.0 11309700000.0 11309700000.0 11309700000.0 11309700000.0 11309700000.0 11309700000.0 11309700000.0 11309700000.0 11309700000.0 11309700000.0 11309700000.0 11309700000.0 11309700000.0 11309700000.0 11309700000.0 11309700000.0 11309700000.0 11309700000.0 11309700000.0 11309700000.0 11309700000.0 11309700000.0 11309700000.0 11309700000.0 11309700000.0 11309700000.0 11309700000.0 11309700000.0 11309700000.0 11309700000.0 11309700000.0 11309700000.0 11309700000.0 11309700000.0 11309700000.0 11309700000.0 11309700000.0 11309700000.0 11309700000.0 11309700000.0 11309700000.0 11309700000.0 11309700000.0 11309700000.0 11309700000.0 11309700000.0 11309700000.0 11309700000.0 11309700000.0 11309700000.0 11309700000.0 11309700000.0 11309700000.0 11309700000.0 11309700000.0 11309700000.0 11309700000.0 11309700000.0 11309700000.0 11309700000.0 11309700000.0 11309700000.0 11309700000.0 11309700000.0 11309700000.0 11309700000.0 11309700000.0 11309700000.0 11309700000.0 11309700000.0 11309700000.0 11309700000.0 11309700000.0 11309700000.0 11309700000.0 11309700000.0 11309700000.0 11309700000.0 11309700000.0 11309700000.0 11309700000.0 11309700000.0 11309700000.0 11309700000.0 11309700000.0 11309700000.0 11309700000.0 11309700000.0 11309700000.0 11309700000.0 11309700000.0 11309700000.0 11309700000.0 11309700000.0 11309700000.0 11309700000.0 11309700000.0 11309700000.0 11309700000.0 11309700000.0 11309700000.0 11309700000.0 11309700000.0 11309700000.0 11309700000.0 11309700000.0 11309700000.0 11309700000.0 11309700000.0 11309700000.0 11309700000.0 11309700000.0 11309700000.0 11309700000.0 11309700000.0 11309700000.0 11309700000.0 11309700000.0 11309700000.0 11309700000.0 11309700000.0 11309700000.0 11309700000.0 11309700000.0 11309700000.0 11309700000.0 11309700000.0 11309700000.0 11309700000.0 11309700000.0 11309700000.0 11309700000.0 11309700000.0 11309700000.0 11309700000.0 11309700000.0 11309700000.0 11309700000.0 11309700000.0 11309700000.0 11309700000.0 11309700000.0 11309700000.0 11309700000.0 11309700000.0 11309700000.0 11309700000.0 11309700000.0 11309700000.0 11309700000.0 11309700000.0 11309700000.0 11309700000.0 11309700000.0 11309700000.0 11309700000.0 11309700000.0 11309700000.0 11309700000.0 11309700000.0 11309700000.0 11309700000.0 11309700000.0 11309700000.0 11309700000.0 11309700000.0 11309700000.0 11309700000.0 11309700000.0 11309700000.0 11309700000.0 11309700000.0 11309700000.0 11309700000.0 11309700000.0 11309700000.0 11309700000.0 11309700000.0 11309700000.0 11309700000.0 11309700000.0 11309700000.0 11309700000.0 11309700000.0 11309700000.0 11309700000.0 11309700000.0 11309700000.0 11309700000.0 11309700000.0 11309700000.0 11309700000.0 11309700000.0 11309700000.0 11309700000.0 11309700000.0 11309700000.0 11309700000.0 11309700000.0 11309700000.0 11309700000.0 11309700000.0 11309700000.0 11309700000.0 11309700000.0 11309700000.0 11309700000.0 11309700000.0 11309700000.0 11309700000.0 11309700000.0 11309700000.0 11309700000.0 11309700000.0 11309700000.0 11309700000.0 11309700000.0 11309700000.0 11309700000.0 11309700000.0 11309700000.0 11309700000.0 11309700000.0 11309700000.0 11309700000.0 11309700000.0 11309700000.0 11309700000.0 11309700000.0 11309700000.0 11309700000.0 11309700000.0 11309700000.0 11309700000.0 11309700000.0 11309700000.0 11309700000.0 11309700000.0 11309700000.0 11309700000.0 11309700000.0 11309700000.0 11309700000.0 11309700000.0 11309700000.0 11309700000.0 11309700000.0 11309700000.0 11309700000.0 11309700000.0 11309700000.0 11309700000.0 11309700000.0 11309700000.0 11309700000.0 11309700000.0 11309700000.0 11309700000.0 11309700000.0 11309700000.0 11309700000.0 11309700000.0 11309700000.0 11309700000.0 11309700000.0 11309700000.0 11309700000.0 11309700000.0 11309700000.0 11309700000.0 11309700000.0 11309700000.0 11309700000.0 11309700000.0 11309700000.0 11309700000.0 11309700000.0 11309700000.0 11309700000.0 11309700000.0 11309700000.0 11309700000.0 11309700000.0 11309700000.0 11309700000.0 11309700000.0 11309700000.0 11309700000.0 11309700000.0 11309700000.0 11309700000.0 11309700000.0 11309700000.0 11309700000.0 11309700000.0 11309700000.0 11309700000.0 11309700000.0 11309700000.0 11309700000.0 11309700000.0 11309700000.0 11309700000.0 11309700000.0 11309700000.0 11309700000.0 11309700000.0 11309700000.0 11309700000.0 11309700000.0 11309700000.0 11309700000.0 11309700000.0 11309700000.0 11309700000.0 11309700000.0 11309700000.0 11309700000.0 11309700000.0 11309700000.0 11309700000.0 11309700000.0 11309700000.0 11309700000.0 11309700000.0 11309700000.0 11309700000.0 11309700000.0 11309700000.0 11309700000.0 11309700000.0 11309700000.0 11309700000.0 11309700000.0 11309700000.0 11309700000.0 11309700000.0 11309700000.0 11309700000.0 11309700000.0 11309700000.0 11309700000.0 11309700000.0 11309700000.0 11309700000.0 11309700000.0 11309700000.0 11309700000.0 11309700000.0 11309700000.0 11309700000.0 11309700000.0 11309700000.0 11309700000.0 11309700000.0 11309700000.0 11309700000.0 11309700000.0 11309700000.0 11309700000.0 11309700000.0 11309700000.0 11309700000.0 11309700000.0 11309700000.0 11309700000.0 11309700000.0 11309700000.0 11309700000.0 11309700000.0 11309700000.0 11309700000.0 11309700000.0 11309700000.0 11309700000.0 11309700000.0 11309700000.0 11309700000.0 11309700000.0 11309700000.0 11309700000.0 11309700000.0 11309700000.0 11309700000.0 11309700000.0 11309700000.0 11309700000.0 11309700000.0 11309700000.0 11309700000.0 11309700000.0 11309700000.0 11309700000.0 11309700000.0 11309700000.0 11309700000.0 11309700000.0 11309700000.0 11309700000.0 11309700000.0 11309700000.0 11309700000.0 11309700000.0 11309700000.0 11309700000.0 11309700000.0 11309700000.0 11309700000.0 11309700000.0 11309700000.0 11309700000.0 11309700000.0 11309700000.0 11309700000.0 11309700000.0 11309700000.0 11309700000.0 11309700000.0 11309700000.0 11309700000.0 11309700000.0 11309700000.0 11309700000.0 11309700000.0 11309700000.0 11309700000.0 11309700000.0 11309700000.0 11309700000.0 11309700000.0 11309700000.0 11309700000.0 11309700000.0 11309700000.0 11309700000.0 11309700000.0 11309700000.0 11309700000.0 11309700000.0 11309700000.0 11309700000.0 11309700000.0 11309700000.0 11309700000.0 11309700000.0 11309700000.0 11309700000.0 11309700000.0 11309700000.0 11309700000.0 11309700000.0 11309700000.0 11309700000.0 11309700000.0 11309700000.0 11309700000.0 11309700000.0 11309700000.0 11309700000.0 11309700000.0 11309700000.0 11309700000.0 11309700000.0 11309700000.0 11309700000.0 11309700000.0 11309700000.0 11309700000.0 11309700000.0 11309700000.0 11309700000.0 11309700000.0 11309700000.0 11309700000.0 11309700000.0 11309700000.0 11309700000.0 11309700000.0 11309700000.0 11309700000.0 11309700000.0 11309700000.0 11309700000.0 11309700000.0 11309700000.0 11309700000.0 11309700000.0 11309700000.0 11309700000.0 11309700000.0 11309700000.0 11309700000.0 11309700000.0 11309700000.0 11309700000.0 11309700000.0 11309700000.0 11309700000.0 11309700000.0 11309700000.0 11309700000.0 11309700000.0 11309700000.0 11309700000.0 11309700000.0 11309700000.0 11309700000.0 11309700000.0 11309700000.0 11309700000.0 11309700000.0 11309700000.0 11309700000.0 11309700000.0 11309700000.0 11309700000.0 11309700000.0 11309700000.0 11309700000.0 11309700000.0 11309700000.0 11309700000.0 11309700000.0 11309700000.0 11309700000.0 11309700000.0 11309700000.0 11309700000.0 11309700000.0 11309700000.0 11309700000.0 11309700000.0 11309700000.0 11309700000.0 11309700000.0 11309700000.0 11309700000.0 11309700000.0 11309700000.0 11309700000.0 11309700000.0 11309700000.0 11309700000.0 11309700000.0 11309700000.0 11309700000.0 11309700000.0 11309700000.0 11309700000.0 11309700000.0 11309700000.0 11309700000.0 11309700000.0 11309700000.0 11309700000.0 11309700000.0 11309700000.0 11309700000.0 11309700000.0 11309700000.0 11309700000.0 11309700000.0 11309700000.0 11309700000.0 11309700000.0 11309700000.0 11309700000.0 11309700000.0 11309700000.0 11309700000.0 11309700000.0 11309700000.0 11309700000.0 11309700000.0 11309700000.0 11309700000.0 11309700000.0 11309700000.0 11309700000.0 11309700000.0 11309700000.0 11309700000.0 11309700000.0 11309700000.0 11309700000.0 11309700000.0 11309700000.0 11309700000.0 11309700000.0 11309700000.0 11309700000.0 11309700000.0 11309700000.0 11309700000.0 11309700000.0 11309700000.0 11309700000.0 11309700000.0 11309700000.0 11309700000.0 11309700000.0 11309700000.0 11309700000.0 11309700000.0 11309700000.0 11309700000.0 11309700000.0 11309700000.0 11309700000.0 11309700000.0 11309700000.0 11309700000.0 11309700000.0 11309700000.0 11309700000.0 11309700000.0 11309700000.0 11309700000.0 11309700000.0 11309700000.0 11309700000.0 11309700000.0 11309700000.0 11309700000.0 11309700000.0 11309700000.0 11309700000.0 11309700000.0 11309700000.0 11309700000.0 11309700000.0 11309700000.0 11309700000.0 11309700000.0 11309700000.0 11309700000.0 11309700000.0 11309700000.0 11309700000.0 11309700000.0 11309700000.0 11309700000.0 11309700000.0 11309700000.0 11309700000.0 11309700000.0 11309700000.0 11309700000.0 11309700000.0 11309700000.0 11309700000.0 11309700000.0 11309700000.0 11309700000.0 11309700000.0 11309700000.0 11309700000.0 11309700000.0 11309700000.0 11309700000.0 11309700000.0 11309700000.0 11309700000.0 11309700000.0 11309700000.0 11309700000.0 11309700000.0 11309700000.0 11309700000.0 11309700000.0 11309700000.0 11309700000.0 11309700000.0 11309700000.0 11309700000.0 11309700000.0 11309700000.0 11309700000.0 11309700000.0 11309700000.0 11309700000.0 11309700000.0 11309700000.0 11309700000.0 11309700000.0 11309700000.0 11309700000.0 11309700000.0 11309700000.0 11309700000.0 11309700000.0 11309700000.0 11309700000.0 11309700000.0 11309700000.0 11309700000.0 11309700000.0 11309700000.0 11309700000.0 11309700000.0 11309700000.0 11309700000.0 11309700000.0 11309700000.0 11309700000.0 11309700000.0 11309700000.0 11309700000.0 11309700000.0 11309700000.0 11309700000.0 11309700000.0 11309700000.0 11309700000.0 11309700000.0 11309700000.0 11309700000.0 11309700000.0 11309700000.0 11309700000.0 11309700000.0 11309700000.0 11309700000.0 11309700000.0 11309700000.0 11309700000.0 11309700000.0 11309700000.0 11309700000.0 11309700000.0 11309700000.0 11309700000.0 11309700000.0 11309700000.0 11309700000.0 11309700000.0 11309700000.0 11309700000.0 11309700000.0 11309700000.0 11309700000.0 11309700000.0 11309700000.0 11309700000.0 11309700000.0 11309700000.0 11309700000.0 11309700000.0 11309700000.0 11309700000.0 11309700000.0 11309700000.0 11309700000.0 11309700000.0 11309700000.0 11309700000.0 11309700000.0 11309700000.0 11309700000.0 11309700000.0 11309700000.0 11309700000.0 11309700000.0 11309700000.0 11309700000.0 11309700000.0 11309700000.0 11309700000.0 11309700000.0 11309700000.0 11309700000.0 11309700000.0 11309700000.0 11309700000.0 11309700000.0 11309700000.0 11309700000.0 11309700000.0 11309700000.0 11309700000.0 11309700000.0 11309700000.0 11309700000.0 11309700000.0 11309700000.0 11309700000.0 11309700000.0 11309700000.0 11309700000.0 11309700000.0 11309700000.0 11309700000.0 11309700000.0 11309700000.0 11309700000.0 11309700000.0 11309700000.0 11309700000.0 11309700000.0 11309700000.0 11309700000.0 11309700000.0 11309700000.0 11309700000.0 11309700000.0 11309700000.0 11309700000.0 11309700000.0 11309700000.0 11309700000.0 11309700000.0 11309700000.0 11309700000.0 11309700000.0 11309700000.0 11309700000.0 11309700000.0 11309700000.0 11309700000.0 11309700000.0 11309700000.0 11309700000.0 11309700000.0 11309700000.0 11309700000.0 11309700000.0 11309700000.0 11309700000.0 11309700000.0 11309700000.0 11309700000.0 11309700000.0 11309700000.0 11309700000.0 11309700000.0 11309700000.0 11309700000.0 11309700000.0 11309700000.0 11309700000.0 11309700000.0 11309700000.0 11309700000.0 11309700000.0 11309700000.0 11309700000.0 11309700000.0 11309700000.0 11309700000.0 11309700000.0 11309700000.0 11309700000.0 11309700000.0 11309700000.0 11309700000.0 11309700000.0 11309700000.0 11309700000.0 11309700000.0 11309700000.0 11309700000.0 11309700000.0 11309700000.0 11309700000.0 11309700000.0 11309700000.0 11309700000.0 11309700000.0 11309700000.0 11309700000.0 11309700000.0 11309700000.0 11309700000.0 11309700000.0 11309700000.0 11309700000.0 11309700000.0 11309700000.0 11309700000.0 11309700000.0 11309700000.0 11309700000.0 11309700000.0 11309700000.0 11309700000.0 11309700000.0 11309700000.0 11309700000.0 11309700000.0 11309700000.0 11309700000.0 11309700000.0 11309700000.0 11309700000.0 11309700000.0 11309700000.0 11309700000.0 11309700000.0 11309700000.0 11309700000.0 11309700000.0 11309700000.0 11309700000.0 11309700000.0 11309700000.0 11309700000.0 11309700000.0 11309700000.0 11309700000.0 11309700000.0 11309700000.0 11309700000.0 11309700000.0 11309700000.0 11309700000.0 11309700000.0 11309700000.0 11309700000.0 11309700000.0 11309700000.0 11309700000.0 11309700000.0 11309700000.0 11309700000.0 11309700000.0 11309700000.0 11309700000.0 11309700000.0 11309700000.0 11309700000.0 11309700000.0 11309700000.0 11309700000.0 11309700000.0 11309700000.0 11309700000.0 11309700000.0 11309700000.0 11309700000.0 11309700000.0 11309700000.0 11309700000.0 11309700000.0 11309700000.0 11309700000.0 11309700000.0 11309700000.0 11309700000.0 11309700000.0 11309700000.0 11309700000.0 11309700000.0 11309700000.0 11309700000.0 11309700000.0 11309700000.0 11309700000.0 11309700000.0 11309700000.0 11309700000.0 11309700000.0 11309700000.0 11309700000.0 11309700000.0 11309700000.0 11309700000.0 11309700000.0 11309700000.0 11309700000.0 11309700000.0 11309700000.0 11309700000.0 11309700000.0 11309700000.0 11309700000.0 11309700000.0 11309700000.0 11309700000.0 11309700000.0 11309700000.0 11309700000.0 11309700000.0 11309700000.0 11309700000.0 11309700000.0 11309700000.0 11309700000.0 11309700000.0 11309700000.0 11309700000.0 11309700000.0 11309700000.0 11309700000.0 11309700000.0 11309700000.0 11309700000.0 11309700000.0 11309700000.0 11309700000.0 11309700000.0 11309700000.0 11309700000.0 11309700000.0 11309700000.0 11309700000.0 11309700000.0 11309700000.0 11309700000.0 11309700000.0 11309700000.0 11309700000.0 11309700000.0 11309700000.0 11309700000.0 11309700000.0 11309700000.0 11309700000.0 11309700000.0 11309700000.0 11309700000.0 11309700000.0 11309700000.0 11309700000.0 11309700000.0 11309700000.0 11309700000.0 11309700000.0 11309700000.0 11309700000.0 11309700000.0 11309700000.0 11309700000.0 11309700000.0 11309700000.0 11309700000.0 11309700000.0 11309700000.0 11309700000.0 11309700000.0 11309700000.0 11309700000.0 11309700000.0 11309700000.0 11309700000.0 11309700000.0 11309700000.0 11309700000.0 11309700000.0 11309700000.0 11309700000.0 11309700000.0 11309700000.0 11309700000.0 11309700000.0 11309700000.0 11309700000.0 11309700000.0 11309700000.0 11309700000.0 11309700000.0 11309700000.0 11309700000.0 11309700000.0 11309700000.0 11309700000.0 11309700000.0 11309700000.0 11309700000.0 11309700000.0 11309700000.0 11309700000.0 11309700000.0 11309700000.0 11309700000.0 11309700000.0 11309700000.0 11309700000.0 11309700000.0 11309700000.0 11309700000.0 11309700000.0 11309700000.0 11309700000.0 11309700000.0 11309700000.0 11309700000.0 11309700000.0 11309700000.0 11309700000.0 11309700000.0 11309700000.0 11309700000.0 11309700000.0 11309700000.0 11309700000.0 11309700000.0 11309700000.0 11309700000.0 11309700000.0 11309700000.0 11309700000.0 11309700000.0 11309700000.0 11309700000.0 11309700000.0 11309700000.0 11309700000.0 11309700000.0 11309700000.0 11309700000.0 11309700000.0 11309700000.0 11309700000.0 11309700000.0 11309700000.0 11309700000.0 11309700000.0 11309700000.0 11309700000.0 11309700000.0 11309700000.0 11309700000.0 11309700000.0 11309700000.0 11309700000.0 11309700000.0 11309700000.0 11309700000.0 11309700000.0 11309700000.0 11309700000.0 11309700000.0 11309700000.0 11309700000.0 11309700000.0 11309700000.0 11309700000.0 11309700000.0 11309700000.0 11309700000.0 11309700000.0 11309700000.0 11309700000.0 11309700000.0 11309700000.0 11309700000.0 11309700000.0 11309700000.0 11309700000.0 11309700000.0 11309700000.0 11309700000.0 11309700000.0 11309700000.0 11309700000.0 11309700000.0 11309700000.0 11309700000.0 11309700000.0 11309700000.0 11309700000.0 11309700000.0 11309700000.0 11309700000.0 11309700000.0 11309700000.0 11309700000.0 11309700000.0 11309700000.0 11309700000.0 11309700000.0 11309700000.0 11309700000.0 11309700000.0 11309700000.0 11309700000.0 11309700000.0 11309700000.0 11309700000.0 11309700000.0 11309700000.0 11309700000.0 11309700000.0 11309700000.0 11309700000.0 11309700000.0 11309700000.0 11309700000.0 11309700000.0 11309700000.0 11309700000.0 11309700000.0 11309700000.0 11309700000.0 11309700000.0 11309700000.0 11309700000.0 11309700000.0 11309700000.0 11309700000.0 11309700000.0 11309700000.0 11309700000.0 11309700000.0 11309700000.0 11309700000.0 11309700000.0 11309700000.0 11309700000.0 11309700000.0 11309700000.0 11309700000.0 11309700000.0 11309700000.0 11309700000.0 11309700000.0 11309700000.0 11309700000.0 11309700000.0 11309700000.0 11309700000.0 11309700000.0 11309700000.0 11309700000.0 11309700000.0 11309700000.0 11309700000.0 11309700000.0 11309700000.0 11309700000.0 11309700000.0 11309700000.0 11309700000.0 11309700000.0 11309700000.0 11309700000.0 11309700000.0 11309700000.0 11309700000.0 11309700000.0 11309700000.0 11309700000.0 11309700000.0 11309700000.0 11309700000.0 11309700000.0 11309700000.0 11309700000.0 11309700000.0 11309700000.0 11309700000.0 11309700000.0 11309700000.0 11309700000.0 11309700000.0 11309700000.0 11309700000.0 11309700000.0 11309700000.0 11309700000.0 11309700000.0 11309700000.0 11309700000.0 11309700000.0 11309700000.0 11309700000.0 11309700000.0 11309700000.0 11309700000.0 11309700000.0 11309700000.0 11309700000.0 11309700000.0 11309700000.0 11309700000.0 11309700000.0 11309700000.0 11309700000.0 11309700000.0 11309700000.0 11309700000.0 11309700000.0 11309700000.0 11309700000.0 11309700000.0 11309700000.0 11309700000.0 11309700000.0 11309700000.0 11309700000.0 11309700000.0 11309700000.0 11309700000.0 11309700000.0 11309700000.0 11309700000.0 11309700000.0 11309700000.0 11309700000.0 11309700000.0 11309700000.0 11309700000.0 11309700000.0 11309700000.0 11309700000.0 11309700000.0 11309700000.0 11309700000.0 11309700000.0 11309700000.0 11309700000.0 11309700000.0 11309700000.0 11309700000.0 11309700000.0 11309700000.0 11309700000.0 11309700000.0 11309700000.0 11309700000.0 11309700000.0 11309700000.0 11309700000.0 11309700000.0 11309700000.0 11309700000.0 11309700000.0 11309700000.0 11309700000.0 11309700000.0 11309700000.0 11309700000.0 11309700000.0 11309700000.0 11309700000.0 11309700000.0 11309700000.0 11309700000.0 11309700000.0 11309700000.0 11309700000.0 11309700000.0 11309700000.0 11309700000.0 11309700000.0 11309700000.0 11309700000.0 11309700000.0 11309700000.0 11309700000.0 11309700000.0 11309700000.0 11309700000.0 11309700000.0 11309700000.0 11309700000.0 11309700000.0 11309700000.0 11309700000.0 11309700000.0 11309700000.0 11309700000.0 11309700000.0 11309700000.0 11309700000.0 11309700000.0 11309700000.0 11309700000.0 11309700000.0 11309700000.0 11309700000.0 11309700000.0 11309700000.0 11309700000.0 11309700000.0 11309700000.0 11309700000.0 11309700000.0 11309700000.0 11309700000.0 11309700000.0 11309700000.0 11309700000.0 11309700000.0 11309700000.0 11309700000.0 11309700000.0 11309700000.0 11309700000.0 11309700000.0 11309700000.0 11309700000.0 11309700000.0 11309700000.0 11309700000.0 11309700000.0 11309700000.0 11309700000.0 11309700000.0 11309700000.0 11309700000.0 11309700000.0 11309700000.0 11309700000.0 11309700000.0 11309700000.0 11309700000.0 11309700000.0 11309700000.0 11309700000.0 11309700000.0 11309700000.0 11309700000.0 11309700000.0 11309700000.0 11309700000.0 11309700000.0 11309700000.0 11309700000.0 11309700000.0 11309700000.0 11309700000.0 11309700000.0 11309700000.0 11309700000.0 11309700000.0 11309700000.0 11309700000.0 11309700000.0 11309700000.0 11309700000.0 11309700000.0 11309700000.0 11309700000.0 11309700000.0 11309700000.0 11309700000.0 11309700000.0 11309700000.0 11309700000.0 11309700000.0 11309700000.0 11309700000.0 11309700000.0 11309700000.0 11309700000.0 11309700000.0 11309700000.0 11309700000.0 11309700000.0 11309700000.0 11309700000.0 11309700000.0 11309700000.0 11309700000.0 11309700000.0 11309700000.0 11309700000.0 11309700000.0 11309700000.0 11309700000.0 11309700000.0 11309700000.0 11309700000.0 11309700000.0 11309700000.0 11309700000.0 11309700000.0 11309700000.0 11309700000.0 11309700000.0 11309700000.0 11309700000.0 11309700000.0 11309700000.0 11309700000.0 11309700000.0 11309700000.0 11309700000.0 11309700000.0 11309700000.0 11309700000.0 11309700000.0 11309700000.0 11309700000.0 11309700000.0 11309700000.0 11309700000.0 11309700000.0 11309700000.0 11309700000.0 11309700000.0 11309700000.0 11309700000.0 11309700000.0 11309700000.0 11309700000.0 11309700000.0 11309700000.0 11309700000.0 11309700000.0 11309700000.0 11309700000.0 11309700000.0 11309700000.0 11309700000.0 11309700000.0 11309700000.0 11309700000.0 11309700000.0 11309700000.0 11309700000.0 11309700000.0 11309700000.0 11309700000.0 11309700000.0 11309700000.0 11309700000.0 11309700000.0 11309700000.0 11309700000.0 11309700000.0 11309700000.0 11309700000.0 11309700000.0 11309700000.0 11309700000.0 11309700000.0 11309700000.0 11309700000.0 11309700000.0 11309700000.0 11309700000.0 11309700000.0 11309700000.0 11309700000.0 11309700000.0 11309700000.0 11309700000.0 11309700000.0 11309700000.0 11309700000.0 11309700000.0 11309700000.0 11309700000.0 11309700000.0 11309700000.0 11309700000.0 11309700000.0 11309700000.0 11309700000.0 11309700000.0 11309700000.0 11309700000.0 11309700000.0 11309700000.0 11309700000.0 11309700000.0 11309700000.0 11309700000.0 11309700000.0 11309700000.0 11309700000.0 11309700000.0 11309700000.0 11309700000.0 11309700000.0 11309700000.0 11309700000.0 11309700000.0 11309700000.0 11309700000.0 11309700000.0 11309700000.0 11309700000.0 11309700000.0 11309700000.0 11309700000.0 11309700000.0 11309700000.0 11309700000.0 11309700000.0 11309700000.0 11309700000.0 11309700000.0 11309700000.0 11309700000.0 11309700000.0 11309700000.0 11309700000.0 11309700000.0 11309700000.0 11309700000.0 11309700000.0 11309700000.0 11309700000.0 11309700000.0 11309700000.0 11309700000.0 11309700000.0 11309700000.0 11309700000.0 11309700000.0 11309700000.0 11309700000.0 11309700000.0 11309700000.0 11309700000.0 11309700000.0 11309700000.0 11309700000.0 11309700000.0 11309700000.0 11309700000.0 11309700000.0 11309700000.0 11309700000.0 11309700000.0 11309700000.0 11309700000.0 11309700000.0 11309700000.0 11309700000.0 11309700000.0 11309700000.0 11309700000.0 11309700000.0 11309700000.0 11309700000.0 11309700000.0 11309700000.0 11309700000.0 11309700000.0 11309700000.0 11309700000.0 11309700000.0 11309700000.0 11309700000.0 11309700000.0 11309700000.0 11309700000.0 11309700000.0 11309700000.0 11309700000.0 11309700000.0 11309700000.0 11309700000.0 11309700000.0 11309700000.0 11309700000.0 11309700000.0 11309700000.0 11309700000.0 11309700000.0 11309700000.0 11309700000.0 11309700000.0 11309700000.0 11309700000.0 11309700000.0 11309700000.0 11309700000.0 11309700000.0 11309700000.0 11309700000.0 11309700000.0 11309700000.0 11309700000.0 11309700000.0 11309700000.0 11309700000.0 11309700000.0 11309700000.0 11309700000.0 11309700000.0 11309700000.0 11309700000.0 11309700000.0 11309700000.0 11309700000.0 11309700000.0 11309700000.0 11309700000.0 11309700000.0 11309700000.0 11309700000.0 11309700000.0 11309700000.0 11309700000.0 11309700000.0 11309700000.0 11309700000.0 11309700000.0 11309700000.0 11309700000.0 11309700000.0 11309700000.0 11309700000.0 11309700000.0 11309700000.0 11309700000.0 11309700000.0 11309700000.0 11309700000.0 11309700000.0 11309700000.0 11309700000.0 11309700000.0 11309700000.0 11309700000.0 11309700000.0 11309700000.0 11309700000.0 11309700000.0 11309700000.0 11309700000.0 11309700000.0 11309700000.0 11309700000.0 11309700000.0 11309700000.0 11309700000.0 11309700000.0 11309700000.0 11309700000.0 11309700000.0 11309700000.0 11309700000.0 11309700000.0 11309700000.0 11309700000.0 11309700000.0 11309700000.0 11309700000.0 11309700000.0 11309700000.0 11309700000.0 11309700000.0 11309700000.0 11309700000.0 11309700000.0 11309700000.0 11309700000.0 11309700000.0 11309700000.0 11309700000.0 11309700000.0 11309700000.0 11309700000.0 11309700000.0 11309700000.0 11309700000.0 11309700000.0 11309700000.0 11309700000.0 11309700000.0 11309700000.0 11309700000.0 11309700000.0 11309700000.0 11309700000.0 11309700000.0 11309700000.0 11309700000.0 11309700000.0 11309700000.0 11309700000.0 11309700000.0 11309700000.0 11309700000.0 11309700000.0 11309700000.0 11309700000.0 11309700000.0 11309700000.0 11309700000.0 11309700000.0 11309700000.0 11309700000.0 11309700000.0 11309700000.0 11309700000.0 11309700000.0 11309700000.0 11309700000.0 11309700000.0 11309700000.0 11309700000.0 11309700000.0 11309700000.0 11309700000.0 11309700000.0 11309700000.0 11309700000.0 11309700000.0 11309700000.0 11309700000.0 11309700000.0 11309700000.0 11309700000.0 11309700000.0 11309700000.0 11309700000.0 11309700000.0 11309700000.0 11309700000.0 11309700000.0 11309700000.0 11309700000.0 11309700000.0 11309700000.0 11309700000.0 11309700000.0 11309700000.0 11309700000.0 11309700000.0 11309700000.0 11309700000.0 11309700000.0 11309700000.0 11309700000.0 11309700000.0 11309700000.0 11309700000.0 11309700000.0 11309700000.0 11309700000.0 11309700000.0 11309700000.0 11309700000.0 11309700000.0 11309700000.0 11309700000.0 11309700000.0 11309700000.0 11309700000.0 11309700000.0 11309700000.0 11309700000.0 11309700000.0 11309700000.0 11309700000.0 11309700000.0 11309700000.0 11309700000.0 11309700000.0 11309700000.0 11309700000.0 11309700000.0 11309700000.0 11309700000.0 11309700000.0 11309700000.0 11309700000.0 11309700000.0 11309700000.0 11309700000.0 11309700000.0 11309700000.0 11309700000.0 11309700000.0 11309700000.0 11309700000.0 11309700000.0 11309700000.0 11309700000.0 11309700000.0 11309700000.0 11309700000.0 11309700000.0 11309700000.0 11309700000.0 11309700000.0 11309700000.0 11309700000.0 11309700000.0 11309700000.0 11309700000.0 11309700000.0 11309700000.0 11309700000.0 11309700000.0 11309700000.0 11309700000.0 11309700000.0 11309700000.0 11309700000.0 11309700000.0 11309700000.0 11309700000.0 11309700000.0 11309700000.0 11309700000.0 11309700000.0 11309700000.0 11309700000.0 11309700000.0 11309700000.0 11309700000.0 11309700000.0 11309700000.0 11309700000.0 11309700000.0 11309700000.0 11309700000.0 11309700000.0 11309700000.0 11309700000.0 11309700000.0 11309700000.0 11309700000.0 11309700000.0 11309700000.0 11309700000.0 11309700000.0 11309700000.0 11309700000.0 11309700000.0 11309700000.0 11309700000.0 11309700000.0 11309700000.0 11309700000.0 11309700000.0 11309700000.0 11309700000.0 11309700000.0 11309700000.0 11309700000.0 11309700000.0 11309700000.0 11309700000.0 11309700000.0 11309700000.0 11309700000.0 11309700000.0 11309700000.0 11309700000.0 11309700000.0 11309700000.0 11309700000.0 11309700000.0 11309700000.0 11309700000.0 11309700000.0 11309700000.0 11309700000.0 11309700000.0 11309700000.0 11309700000.0 11309700000.0 11309700000.0 11309700000.0 11309700000.0 11309700000.0 11309700000.0 11309700000.0 11309700000.0 11309700000.0 11309700000.0 11309700000.0 11309700000.0 11309700000.0 11309700000.0 11309700000.0 11309700000.0 11309700000.0 11309700000.0 11309700000.0 11309700000.0 11309700000.0 11309700000.0 11309700000.0 11309700000.0 11309700000.0 11309700000.0 11309700000.0 11309700000.0 11309700000.0 11309700000.0 11309700000.0 11309700000.0 11309700000.0 11309700000.0 11309700000.0 11309700000.0 11309700000.0 11309700000.0 11309700000.0 11309700000.0 11309700000.0 11309700000.0 11309700000.0 11309700000.0 11309700000.0 11309700000.0 11309700000.0 11309700000.0 11309700000.0 11309700000.0 11309700000.0 11309700000.0 11309700000.0 11309700000.0 11309700000.0 11309700000.0 11309700000.0 11309700000.0 11309700000.0 11309700000.0 11309700000.0 11309700000.0 11309700000.0 11309700000.0 11309700000.0 11309700000.0 11309700000.0 11309700000.0 11309700000.0 11309700000.0 11309700000.0 11309700000.0 11309700000.0 11309700000.0 11309700000.0 11309700000.0 11309700000.0 11309700000.0 11309700000.0 11309700000.0 11309700000.0 11309700000.0 11309700000.0 11309700000.0 11309700000.0 11309700000.0 11309700000.0 11309700000.0 11309700000.0 11309700000.0 
SCALARS Velocity float 1
LOOKUP_TABLE default
1.08472 1.06907 1.10057 1.07625 1.07988 1.08021 1.08552 1.08416 1.08946 1.08096 1.07975 1.07778 1.07694 1.07579 1.07499 1.07347 1.07584 1.07726 1.07501 1.0785 1.08238 1.0807 1.08425 1.08432 1.08638 1.08588 1.085 1.08459 1.0838 1.09904 1.08845 1.08732 1.08206 1.07934 1.07659 1.0743 1.07455 1.03937 1.07298 1.07702 1.08112 1.08423 1.08444 1.08638 1.08544 1.08387 1.09862 1.08675 1.08058 1.07774 1.07522 1.07345 1.07674 1.05883 1.07488 1.07957 1.08271 1.08446 1.08612 1.08483 1.08793 1.08215 1.08117 1.0793 1.07756 1.07625 1.07485 1.07402 1.07341 1.07384 1.07179 1.07245 1.07394 1.06425 1.07275 1.0774 1.07938 1.08123 1.08264 1.08394 1.08431 1.0845 1.08646 1.08631 1.0857 1.08482 1.08393 1.09816 1.08741 1.08633 1.08252 1.07918 1.07591 1.07374 1.07273 1.07262 1.07583 1.07652 1.08105 1.0836 1.08427 1.08658 1.08597 1.08381 1.09728 1.08591 1.08068 1.07725 1.07446 1.07285 1.07215 1.07431 1.07518 1.07902 1.08236 1.08393 1.08653 1.08509 1.08863 1.08253 1.08047 1.07874 1.0768 1.07549 1.07394 1.07323 1.07237 1.07231 1.07235 1.07307 1.07444 1.0756 1.07641 1.07737 1.07937 1.08083 1.08204 1.08315 1.08335 1.08378 1.08666 1.08663 1.08625 1.08509 1.08363 1.09527 1.08813 1.08511 1.08261 1.07841 1.07497 1.0727 1.07203 1.07325 1.07585 1.07822 1.08089 1.08261 1.08308 1.08662 1.08653 1.08942 1.08903 1.08668 1.08536 1.08036 1.07635 1.07336 1.07189 1.0723 1.07465 1.07731 1.0799 1.08177 1.0826 1.08655 1.0888 1.08836 1.08687 1.08271 1.0781 1.07585 1.0744 1.07271 1.07209 1.0713 1.07164 1.07206 1.0733 1.07491 1.07634 1.07823 1.07907 1.08048 1.08103 1.08144 1.08198 1.08166 1.08216 1.0866 1.08683 1.08726 1.08882 1.08731 1.08662 1.08485 1.08239 1.0802 1.07771 1.07377 1.07141 1.0711 1.07323 1.07701 1.08004 1.08115 1.08119 1.08099 1.08672 1.0873 1.08822 1.08831 1.08828 1.08779 1.08451 1.07984 1.0753 1.07201 1.07059 1.0716 1.07518 1.07935 1.08115 1.08097 1.08046 1.08688 1.08773 1.08816 1.0868 1.08203 1.07729 1.07469 1.0731 1.0713 1.07066 1.06975 1.07035 1.07086 1.07298 1.07539 1.07787 1.08087 1.08122 1.08192 1.0812 1.08022 1.0801 1.0789 1.07953 1.08671 1.08678 1.08713 1.08733 1.0878 1.08824 1.0841 1.08218 1.07963 1.07693 1.07241 1.06992 1.06935 1.07238 1.07901 1.08278 1.08106 1.07861 1.07776 1.08658 1.08688 1.08744 1.08784 1.08884 1.07733 1.07973 1.07405 1.07073 1.06885 1.06965 1.07532 1.08311 1.08274 1.07901 1.07695 1.08657 1.087 1.08786 1.07794 1.07726 1.07639 1.07674 1.07338 1.0718 1.07056 1.06939 1.06801 1.06806 1.06777 1.07111 1.07435 1.08062 1.08666 1.0848 1.08346 1.08051 1.07716 1.0766 1.07467 1.07577 1.08635 1.08628 1.0866 1.08667 1.0872 1.08748 1.08844 1.07768 1.07483 1.07146 1.06929 1.06652 1.0685 1.08315 1.08737 1.07916 1.07413 1.07382 1.08602 1.08623 1.08676 1.08761 1.07861 1.07658 1.07254 1.07098 1.06747 1.06524 1.07075 1.09206 1.08393 1.07449 1.07151 1.07244 1.07253 1.08587 1.08618 1.08685 1.07906 1.07793 1.07644 1.07463 1.0744 1.0709 1.07029 1.06908 1.0673 1.06601 1.06569 1.06367 1.05986 1.0872 1.09304 1.09195 1.0882 1.07687 1.07089 1.0713 1.08557 1.08532 1.08569 1.08542 1.0861 1.08608 1.08655 1.07786 1.0769 1.07193 1.06907 1.06604 1.06653 1.09101 1.10588 1.07043 1.07067 1.07244 1.08499 1.08502 1.08502 1.08547 1.07912 1.08015 1.0788 1.07685 1.07465 1.07302 1.071 1.07004 1.06776 1.06536 1.06593 1.09531 1.07243 1.0756 1.0737 1.07081 1.0723 1.07192 1.07361 1.0843 1.08467 1.08427 1.08462 1.08421 1.08468 1.08371 1.08113 1.0785 1.07522 1.07208 1.06906 1.06647 1.06399 1.06336 1.07402 1.08894 1.0515 1.0764 1.07413 1.07401 1.08391 1.08381 1.08371 1.08252 1.07966 1.077 1.07396 1.07118 1.06766 1.06159 1.01757 1.0261 1.07113 1.07621 1.07521 1.07562 1.08351 1.08342 1.08327 1.08283 1.08144 1.08069 1.07923 1.0783 1.077 1.07568 1.07446 1.07293 1.0717 1.07 1.06792 1.06569 1.0251 1.03088 1.05135 1.0647 1.07496 1.07576 1.07644 1.07736 1.07659 1.07784 1.08259 1.08303 1.08242 1.08283 1.08207 1.08255 1.08145 1.07983 1.07791 1.07572 1.07313 1.06969 1.06044 1.05172 1.03449 1.02523 1.04839 1.07011 1.07671 1.07867 1.08201 1.08163 1.08108 1.08004 1.07841 1.07661 1.07434 1.07123 1.06498 1.04995 1.03421 1.03539 1.04761 1.05944 1.06572 1.07297 1.07546 1.07821 1.07997 1.07977 1.08152 1.08084 1.08125 1.08025 1.08063 1.07937 1.0798 1.07831 1.07852 1.07709 1.07707 1.07569 1.07523 1.07357 1.07256 1.06992 1.06787 1.06302 1.05803 1.04152 1.04054 1.05651 1.07004 1.07813 1.08134 1.08025 1.07991 1.07898 1.07788 1.07675 1.07568 1.07416 1.07139 1.06632 1.05778 1.05125 1.04687 1.04125 1.04509 1.04858 1.06269 1.07393 1.08076 1.07865 1.07945 1.07836 1.07869 1.07718 1.07746 1.07571 1.07622 1.07454 1.07524 1.07377 1.07422 1.07261 1.07229 1.07001 1.06856 1.06225 1.05355 1.04679 1.05017 1.05529 1.06082 1.06776 1.07274 1.07785 1.08158 1.0828 1.07771 1.07696 1.07539 1.07382 1.07291 1.07228 1.07074 1.06739 1.06532 1.06218 1.05858 1.0561 1.05132 1.04901 1.05489 1.06618 1.07791 1.08453 1.07639 1.07646 1.07523 1.07336 1.07194 1.07139 1.07073 1.06864 1.06469 1.05973 1.05533 1.05155 1.05264 1.05185 1.05467 1.05955 1.0651 1.07212 1.07859 1.08286 1.0868 1.07292 1.07524 1.0738 1.07489 1.07301 1.0732 1.07095 1.07122 1.06914 1.0702 1.0687 1.06999 1.0687 1.06909 1.06736 1.06639 1.06415 1.06229 1.0585 1.05626 1.05347 1.0584 1.07207 1.08482 1.0715 1.07212 1.07085 1.0686 1.06731 1.0675 1.06751 1.06553 1.06211 1.0606 1.06022 1.05908 1.06165 1.05646 1.0542 1.06431 1.08002 1.0897 1.06783 1.06624 1.07001 1.06854 1.07027 1.06824 1.06848 1.06605 1.06636 1.06448 1.06588 1.06499 1.06665 1.06637 1.06355 1.06055 1.06231 1.06086 1.05494 1.05293 1.05706 1.06389 1.07271 1.0824 1.08758 1.09305 1.06109 1.06516 1.06721 1.06604 1.06378 1.06318 1.06472 1.06614 1.06587 1.06518 1.06374 1.06128 1.05846 1.06023 1.06865 1.05589 1.05536 1.07442 1.09106 0.893832 1.05025 1.05908 1.05809 1.06459 1.06456 1.06594 1.06452 1.06381 1.06193 1.06262 1.06501 1.06566 1.06182 1.05484 1.06345 1.07796 1.06598 1.05564 1.05016 1.05431 1.0645 1.07788 1.08598 1.09494 1.0963 1.04678 1.0587 1.06486 1.06282 1.06168 1.05988 1.06072 1.06036 1.06284 1.06388 1.06576 1.06679 1.06534 1.06485 1.05938 1.05045 1.07041 1.04724 1.0674 1.09074 1.09827 1.02919 1.02556 1.04412 1.04518 1.06043 1.06496 1.06105 1.05876 1.06093 1.06554 1.06795 1.06449 1.05708 1.06107 1.0568 1.02336 1.06007 1.04576 1.05585 1.07413 1.08352 1.09509 1.09775 1.09759 0.893832 1.00574 1.02396 1.05006 1.06312 1.06607 1.06463 1.06329 1.05941 1.05774 1.05833 1.05862 1.06229 1.06764 1.06924 1.06629 1.05626 0.984868 0.987022 1.06348 1.08952 1.0975 1.01648 1.00711 1.0165 1.02705 1.05627 1.06729 1.06108 1.05673 1.05974 1.0644 1.06721 1.07018 1.07311 1.07113 1.0703 1.06409 1.04831 1.02317 0.995679 1.03533 1.08064 1.09306 1.09706 1.09075 1.09376 1.00432 1.02341 1.03558 1.04858 1.06275 1.07 1.06776 1.06636 1.0592 1.05611 1.06145 1.07053 1.0743 1.06154 1.02272 1.00804 1.04212 1.06225 1.08275 1.09234 1.0793 1.0593 1.01293 1.01896 1.03474 1.03484 1.06058 1.07177 1.06241 1.05631 1.05365 1.05568 1.0558 1.06385 1.06679 1.0732 1.07017 1.04544 1.03063 1.01229 1.02764 1.06819 1.08979 1.06882 1.06721 1.01174 0.893832 1.11688 0.997403 1.03836 1.04618 1.06197 1.06738 1.07901 1.07225 1.05848 1.05044 1.05709 1.06925 1.07283 1.0686 1.06013 1.04953 1.02979 1.05421 1.07312 1.08324 1.06941 1.00636 1.17267 1.02905 0.999195 1.00841 1.06014 1.0789 1.07882 1.0693 1.06339 1.05236 1.04494 1.04784 1.05905 1.06966 1.06396 1.04323 1.04591 1.04412 1.06244 1.06906 1.00959 0.951187 0.856458 1.1605 0.956545 1.04382 1.01777 1.06399 1.08746 1.08306 1.07963 1.05292 1.03735 1.04578 1.04554 1.06055 1.06314 1.06982 1.07267 1.06288 1.06045 1.05376 1.06427 1.03042 1.02509 0.974998 0.950527 1.21383 1.16212 1.01307 1.1152 0.956838 1.07463 1.08873 1.08946 1.09173 1.07134 1.03984 1.03168 1.04809 1.07048 1.08269 1.05715 1.04628 1.0555 1.04299 1.01862 1.04559 1.0026 1.27177 1.35949 1.27471 1.39501 0.910837 1.01307 1.05564 1.07877 1.09884 1.08374 1.05782 1.03815 1.02658 1.012 1.0272 1.02781 1.05602 1.08833 1.11937 1.0775 1.05407 1.03301 1.0516 1.06857 0.818901 1.11364 1.75237 1.07545 1.16324 1.00781 1.0061 1.0063 1.06049 1.08797 1.1019 1.10465 1.0694 1.0132 1.00197 1.03925 1.07408 1.10676 1.09177 1.02638 1.00634 1.03995 1.0919 0.890221 0.944251 0.338038 16.3557 1.20168 1.565 1.70187 1.33557 1.09032 0.99376 1.01817 1.0656 1.10963 1.09908 1.09075 1.03919 1.0024 0.991826 1.00621 1.05585 1.17383 1.09211 1.03137 1.00851 1.00592 0.995972 1.07411 1.63193 0.162404 1.09482 1.32344 0.946004 0.955106 0.973121 1.08053 1.12461 1.04714 0.966806 1.01787 1.08509 1.11357 1.05466 0.963307 0.980926 0.979476 1.02154 1.05574 1.07896 1.15354 0.934859 1.01285 1.00239 1.00749 1.1262 1.15535 1.01567 1.29048 0.812414 0.912549 0.610801 0.816647 0.896663 0.263119 0.361973 0.76152 0.599408 1.32181 0.830893 0.919755 0.954734 0.985719 1.03622 1.05419 1.09603 1.13276 0.994069 0.935093 0.991796 1.12306 1.16546 0.915855 1.00608 0.951883 0.99443 0.985984 0.953806 0.921714 0.706385 1.63426 0.912936 0.686812 0.581036 0.368385 0.638431 0.472792 0.678578 0.793862 1.00093 1.17364 1.34437 0.662568 0.97784 0.937624 0.970081 0.995048 0.983446 1.06221 1.12624 1.20148 1.07417 0.969987 0.923855 0.900838 0.926265 0.942573 1.03018 1.06199 0.890104 1.03976 0.956591 0.937855 0.96665 0.986222 0.973459 0.985013 0.958978 0.662967 0.643009 0.634842 0.501028 0.558547 0.554692 0.500852 0.595053 0.571467 0.799878 0.737273 0.819047 0.880673 0.542702 0.990662 1.01046 0.989799 0.958939 0.978498 0.952268 1.11473 1.09591 0.885046 0.912617 0.947519 0.96868 1.13963 0.732357 1.25495 0.9444 0.98919 1.02253 0.970688 0.924618 0.687075 0.596187 0.601708 0.663848 0.655668 0.544219 0.554081 0.601801 0.61455 0.602862 0.69377 0.677786 0.809498 0.807867 0.816208 0.598042 0.522718 0.779775 1.0494 0.971295 0.965685 0.963626 0.958489 0.977391 0.968825 1.19777 1.32426 0.955187 0.892139 0.890522 0.936322 0.92779 0.943616 1.04668 0.361422 0.795659 1.05719 0.978631 0.955878 1.004 1.02111 0.938558 0.972656 0.63183 0.668195 0.726351 0.680941 0.71315 0.661357 0.633044 0.611583 0.626536 0.508433 0.565277 0.594383 0.615628 0.604836 0.650559 0.705746 0.760804 0.77418 0.744899 0.676936 0.711875 0.884866 1.05641 1.09576 1.0167 0.957636 0.95954 1.16148 0.998982 1.19274 1.12455 0.924477 0.969481 1.02731 0.698706 0.34443 1.3539 1.33175 0.97717 1.03195 1.04854 0.8891 0.485035 0.720095 0.746127 0.806325 0.699904 1.02273 0.833069 0.489887 0.539794 0.602136 0.61831 0.615791 0.640473 0.662345 0.676332 0.714479 0.792813 0.802059 0.902679 1.16978 1.03844 0.979424 0.914753 0.948696 1.06144 1.08449 0.668274 0.956441 0.990989 0.992956 0.9909 0.827739 0.402608 1.17547 0.739744 0.657051 1.28356 1.08383 0.989169 0.982838 1.10609 1.23534 0.301992 0.666158 0.75418 0.840662 0.978383 1.16306 0.639529 0.709952 0.564268 0.772751 0.893907 0.46933 0.523832 0.5223 0.567861 0.586758 0.581549 0.630856 0.685882 0.727286 0.76489 0.795538 0.85126 0.790585 0.739616 1.31617 1.16352 0.882498 0.922837 0.974696 1.00936 1.03108 0.843025 0.682139 0.449481 0.441544 0.823932 1.01898 1.00527 0.90127 0.589302 0.512852 0.551693 0.578067 0.106076 1.00247 0.947021 0.965273 0.965144 1.10697 0.616623 0.63231 0.692607 0.514018 0.634379 0.284159 0.333014 0.536387 0.559488 1.25489 0.542595 0.509763 0.489377 0.580548 0.545868 0.541802 0.577108 0.554877 0.606621 0.641943 0.694185 0.597238 0.210418 0.934551 0.86317 0.800697 0.854027 0.909647 0.868399 0.613309 0.581864 0.913394 0.940012 0.811412 0.736625 0.658815 0.59047 0.282775 0.374993 0.736537 0.768979 0.953009 1.09352 0.691569 0.524334 0.598566 0.555911 0.794146 0.486307 0.619798 0.494871 0.572903 0.663649 2.00027 0.979484 0.518075 0.527614 0.52255 0.500458 0.527453 0.548876 0.571571 0.593765 0.642846 0.73721 0.779903 0.746137 1.1215 1.06969 0.841159 0.77685 0.874803 0.813729 0.983052 0.717088 0.592988 0.556546 0.659364 0.781573 0.821176 0.904179 0.827702 0.717917 0.574878 0.556598 0.356766 0.614223 0.566118 0.610357 0.770669 0.74286 0.677218 1.60906 0.185602 0.575981 0.579312 0.619073 0.661173 0.48837 0.525202 0.417251 0.387929 0.798885 0.301007 0.506301 0.190476 0.416353 0.485079 0.500607 0.417915 0.43043 0.554269 0.517497 0.530432 0.547844 0.559949 0.576723 0.695038 0.756573 0.80982 0.78875 0.430993 1.39691 0.770659 0.707388 0.901469 1.10328 0.710065 0.578757 0.635287 0.734069 0.799479 0.757547 0.68327 0.658434 0.603296 0.603576 0.528671 0.494686 0.586475 0.682547 0.717853 0.72104 1.50569 0.275803 0.413763 0.524599 0.553677 0.574552 0.523344 0.556373 0.520795 0.561204 1.10074 0.538429 0.232774 0.030421 0.363059 0.459807 0.450706 0.456335 0.406105 0.471502 0.547255 0.500125 0.508624 0.523335 0.53812 0.5433 0.619484 0.644163 0.641535 0.625926 0.476539 0.64384 1.0752 0.734894 0.763125 0.755198 0.767086 1.18416 0.274168 0.653676 0.667913 0.745409 0.734629 0.762168 0.712838 0.614703 0.645174 0.754718 0.53995 0.530561 0.667683 0.723023 0.855241 1.00295 0.754718 0.289305 0.357188 0.442945 0.532512 0.559307 0.54764 0.543028 0.563618 0.576256 0.792588 0.434504 0.262285 0.296748 0.189865 0.327545 0.344041 0.381469 0.420799 0.41331 0.435781 0.566562 0.498374 0.449865 0.488406 0.519789 0.547565 0.581466 0.598326 0.585891 0.568318 0.50782 0.0880035 0.662944 1.06883 0.766261 0.710818 0.697142 0.474714 0.758801 0.405682 1.13236 0.688376 0.592616 0.63118 0.660446 0.699111 0.700298 0.710085 0.651852 0.586664 0.556677 0.47566 0.717905 0.639331 0.569642 0.610724 0.691581 0.789915 0.765182 0.558709 0.422879 0.474935 0.498258 0.541667 0.582809 0.649525 0.574785 0.466168 0.382593 0.322538 0.297719 0.2475 0.274039 0.325799 0.323532 0.311457 0.361446 0.387557 0.400727 0.414913 0.409052 0.46896 0.476564 0.447662 0.465237 0.512036 0.545884 0.572932 0.574423 0.557034 0.525434 0.372407 0.59573 0.721598 0.867782 0.649267 0.577862 0.609671 0.405462 0.667683 0.743536 0.626377 0.669803 0.687673 0.676371 0.629795 0.536586 0.577137 0.63227 0.596584 0.586386 0.654126 0.740065 0.795869 0.732898 0.388797 0.48049 0.527042 0.511216 0.542459 0.559024 0.559744 0.607824 0.574888 0.535878 0.434543 0.264455 0.298474 0.301732 0.28959 0.314999 0.306925 0.314679 0.335361 0.3571 0.422649 0.414404 0.424549 0.445213 0.436056 0.432611 0.481146 0.516798 0.530482 0.565753 0.558883 0.546051 0.512497 0.604288 0.64737 0.679096 0.718501 0.596861 0.502549 0.602109 0.769258 0.723922 0.663704 0.645637 0.666541 0.656403 0.668309 0.649546 0.583443 0.550722 0.578746 0.574842 0.588055 0.621244 0.681787 0.803349 0.871152 0.867 0.540667 0.464334 0.505149 0.535599 0.565504 0.571445 0.593345 0.567883 0.520606 0.510016 0.476261 0.348779 0.265406 0.308049 0.310653 0.310045 0.229533 0.309224 0.265893 0.298155 0.300726 0.321471 0.353585 0.395478 0.441062 0.44285 0.410647 0.417866 0.436757 0.466913 0.451456 0.50819 0.510487 0.517839 0.532387 0.550544 0.554594 0.568578 0.615012 0.629319 0.619147 0.631425 0.635249 0.588048 0.558165 0.588745 0.652817 0.676355 0.651965 0.665309 0.656245 0.648943 0.643691 0.651135 0.623535 0.589544 0.583669 0.578865 0.589955 0.616977 0.745674 0.847344 1.04656 1.48857 0.337464 0.551753 0.519553 0.472036 0.536489 0.555067 0.55311 0.549411 0.509714 0.473364 0.482676 0.338366 0.264374 0.305204 0.280085 0.28789 0.294358 0.180359 0.261084 0.235496 0.286228 0.344709 0.310884 0.308078 0.416386 0.460703 0.424339 0.458763 0.473254 0.483627 0.498122 0.490071 0.515369 0.541325 0.629007 0.606566 0.584153 0.590348 0.586153 0.585526 0.631035 0.645984 0.597497 0.61662 0.690188 0.636088 0.638998 0.653566 0.637066 0.560902 0.55391 0.552889 0.561263 0.574161 0.591304 0.641546 0.659002 0.669445 0.684836 1.543 0.396076 0.467527 0.455233 0.470285 0.51689 0.508595 0.526182 0.552076 0.502245 0.48043 0.552059 0.403977 0.22079 0.236207 0.27898 0.268491 0.270078 0.153674 0.141316 0.173989 0.279116 0.356007 0.350065 0.337654 0.375552 0.456335 0.470519 0.469582 0.464521 0.476399 0.467924 0.490131 0.498722 0.472609 0.483914 0.525754 0.575491 0.590511 0.623911 0.602911 0.579569 0.573583 0.572245 0.576742 0.58194 0.59637 0.578395 0.65486 0.619795 0.629691 0.619303 0.639347 0.679824 0.60731 0.554799 0.539871 0.545196 0.563924 0.574778 0.60524 0.609704 0.622241 0.666453 1.03336 0.82848 0.339538 0.423356 0.445841 0.430446 0.465607 0.478866 0.477017 0.506733 0.549346 0.497371 0.477927 0.525945 0.353596 0.30991 0.211454 0.207873 0.244865 0.263784 0.281488 0.295598 0.164691 0.140261 0.167392 0.17687 0.211042 0.319521 0.304771 0.382351 0.397457 0.408189 0.429446 0.515616 0.479588 0.444104 0.44961 0.463876 0.479349 0.478821 0.470175 0.487191 0.560517 0.611839 0.647582 0.637608 0.568817 0.56631 0.574815 0.572718 0.592366 0.616545 0.621249 0.603505 0.589939 0.657537 0.609833 0.609267 0.668567 0.641108 0.560321 0.545757 0.561926 0.58381 0.588935 0.605902 0.66741 0.832675 0.771265 0.446515 0.455061 0.462791 0.456456 0.463477 0.46295 0.471304 0.522131 0.499167 0.456458 0.515316 0.520283 0.45637 0.204332 0.266579 0.286711 0.289566 0.276016 0.293774 0.167834 0.169883 0.188778 0.269646 0.26717 0.346434 0.400286 0.378722 0.378645 0.700649 0.587506 0.504796 0.450521 0.436954 0.458481 0.474423 0.464663 0.471127 0.482557 0.498838 0.614621 0.708709 0.659098 0.586041 0.569959 0.563767 0.574954 0.578259 0.586267 0.593932 0.604474 0.59445 0.586177 0.568092 0.566241 0.595211 0.578309 0.467076 0.735155 0.733111 0.743205 0.58165 0.579603 0.571675 0.576923 0.580041 0.585806 0.633343 0.722008 0.651228 0.500726 0.475063 0.46776 0.450914 0.43169 0.440169 0.475021 0.520113 0.452699 0.456082 0.484109 0.41192 0.252187 0.247787 0.298222 0.311362 0.305561 0.2975 0.279438 0.277024 0.175139 0.14333 0.14064 0.158125 0.167417 0.181373 0.197046 0.325784 0.396971 0.338227 0.82258 0.511427 0.444403 0.415961 0.450777 0.460374 0.45771 0.523766 0.549851 0.822082 0.680766 0.56333 0.541254 0.553739 0.585544 0.585397 0.586499 0.58727 0.582116 0.573454 0.568835 0.564034 0.555856 0.635595 0.616646 0.75489 0.698902 0.473464 0.2934 0.578031 0.576295 0.576896 0.581088 0.61326 0.66303 0.719656 0.668324 0.597366 0.465199 0.429804 0.419633 0.433457 0.48832 0.503189 0.473553 0.477167 0.512085 0.591475 0.478968 0.268677 0.302109 0.375761 0.339885 0.290382 0.271792 0.26923 0.231087 0.102475 0.134602 0.148043 0.145344 0.1581 0.113565 0.152802 0.163611 0.338636 0.392765 0.307176 0.432819 0.464002 0.40913 0.387705 0.438557 0.455053 0.454652 0.465482 0.478401 0.493686 0.743827 0.536797 0.52486 0.542699 0.557911 0.57057 0.57837 0.583472 0.579207 0.577894 0.576534 0.571763 0.566669 0.558715 0.568701 0.541395 0.663937 0.731981 0.704804 0.486228 0.539971 0.561886 0.571347 0.576072 0.59366 0.668557 0.642963 0.609727 0.560814 0.507504 0.492214 0.414199 0.415507 0.460318 0.482097 0.440357 0.501204 0.790932 0.853817 0.552784 0.412389 0.364691 0.348248 0.308102 0.306121 0.255448 0.259029 0.170848 0.0626158 0.0967829 0.112457 0.131879 0.145085 0.201033 0.263914 0.203088 0.503045 0.517671 0.36907 0.385408 0.640521 0.471933 0.41107 0.415452 0.443637 0.443589 0.454747 0.471152 0.487572 0.497358 0.51295 0.420104 0.623513 0.55374 0.558229 0.559607 0.567003 0.57575 0.579855 0.582641 0.565411 0.565634 0.564699 0.610871 0.677464 0.53523 0.350349 0.378433 0.490434 0.533 0.555861 0.569225 0.582387 0.629941 0.643404 0.639451 0.623888 0.590595 0.552006 0.509749 0.487577 0.447976 0.46178 0.464413 0.443151 0.39328 0.495623 0.530746 0.41177 0.391773 0.310264 0.321867 0.27461 0.233028 0.249963 0.187075 0.15154 0.0832195 0.00965565 0.0320344 0.0698215 0.068843 0.141942 0.143025 0.164002 0.231003 0.33204 0.546424 0.851798 0.821159 0.396224 0.385159 0.450876 0.536807 0.415684 0.43352 0.441176 0.446275 0.454709 0.462725 0.471628 0.467232 0.419343 0.308684 0.559791 0.571267 0.572742 0.56784 0.573275 0.578557 0.583414 0.585728 0.582587 0.57849 0.577208 0.57544 0.571971 0.687862 0.603726 0.478871 0.418623 0.448989 0.506841 0.537294 0.556893 0.606523 0.618621 0.627288 0.631301 0.610366 0.575083 0.544302 0.513448 0.48288 0.440223 0.392854 0.484854 0.468183 0.426061 0.391759 0.379308 0.449746 0.75344 0.130597 0.201123 0.307365 0.301929 0.3225 0.298493 0.265731 0.215333 0.120725 0.103791 0.126824 0.0449726 0.0359657 0.0374082 0.0672017 0.0974594 0.11425 0.133479 0.174254 0.233583 0.283885 0.441637 0.755112 0.392358 0.361751 0.432253 0.478673 0.45521 0.437349 0.432972 0.445316 0.442387 0.443806 0.445053 0.446312 0.443495 0.421834 0.3819 0.423842 0.552883 0.564433 0.567913 0.571746 0.578845 0.585323 0.589072 0.589181 0.585809 0.580852 0.57816 0.576838 0.572217 0.569686 0.570705 0.593234 0.630357 0.653273 0.620857 0.548935 0.490912 0.471999 0.493637 0.524018 0.571564 0.589619 0.600593 0.611205 0.614376 0.604927 0.584887 0.559982 0.537094 0.51517 0.487167 0.423106 0.530981 0.479296 0.446652 0.402371 0.438701 0.68647 0.506122 0.0913121 0.234767 0.286938 0.283877 0.316768 0.30686 0.280823 0.178106 0.147745 0.139406 0.111599 0.0711515 0.0458024 0.052609 0.0804644 0.126777 0.165342 0.179802 0.211122 0.200468 0.29864 0.460959 0.44194 0.396052 0.411492 0.455406 0.451107 0.446997 0.44928 0.444897 0.443063 0.44143 0.433718 0.422521 0.416851 0.436645 0.478977 0.540997 0.552544 0.567731 0.577927 0.585229 0.589861 0.592542 0.591479 0.587895 0.583829 0.580402 0.577878 0.575245 0.574995 0.584528 0.603763 0.623002 0.615525 0.578243 0.536626 0.511017 0.54483 0.560034 0.576209 0.586801 0.596491 0.598881 0.592144 0.579582 0.565691 0.547882 0.529225 0.513689 0.492392 0.576213 0.512138 0.476532 0.435921 0.391337 0.441864 0.503947 0.313092 0.242082 0.16215 0.25461 0.274989 0.322882 0.312446 0.240293 0.122131 0.13393 0.142743 0.143956 0.126035 0.074499 0.0628091 0.0495937 0.0452524 0.0772053 0.128411 0.153115 0.19545 0.235675 0.248646 0.253466 0.259167 0.644606 0.478159 0.422888 0.422845 0.452394 0.467977 0.474079 0.46495 0.460511 0.454802 0.449255 0.446149 0.439178 0.428916 0.426074 0.437547 0.476684 0.495961 0.533737 0.581471 0.587456 0.591562 0.593265 0.592748 0.589814 0.585747 0.581963 0.579714 0.579011 0.581825 0.590574 0.60183 0.603978 0.586807 0.560224 0.507483 0.520746 0.537983 0.55132 0.564143 0.575723 0.584575 0.587171 0.583085 0.575778 0.565546 0.553806 0.541688 0.52637 0.510763 0.535365 0.468621 0.40553 0.434442 0.364276 0.0353669 0.167491 0.0590471 0.264399 0.314472 0.269804 0.291619 0.338414 0.283212 0.135661 0.112131 0.168789 0.189031 0.141829 0.132752 0.124994 0.0875504 0.0871952 0.0829221 0.0738885 0.064908 0.0786728 0.104598 0.119163 0.196152 0.213197 0.246565 0.190252 0.123312 0.423414 0.394067 0.455507 0.45747 0.482938 0.486951 0.491967 0.478424 0.467874 0.459633 0.453829 0.447943 0.442318 0.436784 0.444597 0.460264 0.557086 0.573181 0.582299 0.539137 0.529295 0.529568 0.53727 0.547381 0.55669 0.566148 0.57355 0.577223 0.577344 0.573283 0.547644 0.514929 0.454839 0.142186 0.0840223 0.0968044 0.141201 0.367741 0.273597 0.331434 0.356183 0.296997 0.0952307 0.102314 0.16416 0.173419 0.140698 0.109451 0.131189 0.107596 0.106286 0.0793144 0.0822201 0.0704679 0.120448 0.130516 0.148679 0.181028 0.228176 0.19704 0.104009 0.156431 0.342189 0.367646 0.467741 0.469396 0.493724 0.501784 0.502238 0.483193 0.514526 0.539912 0.56142 0.574415 0.582628 0.588053 0.59151 0.593559 0.593524 0.591043 0.587319 0.584064 0.582131 0.585523 0.59087 0.592738 0.58572 0.571213 0.556014 0.546043 0.542249 0.543077 0.547639 0.553404 0.560025 0.565461 0.566627 0.560521 0.551266 0.53854 0.526316 0.53219 0.537342 0.53591 0.507363 0.454849 0.376898 0.0301198 0.20073 0.230371 0.303838 0.210074 0.323764 0.415957 0.259688 0.159515 0.0759219 0.0997819 0.103861 0.0720779 0.133741 0.128027 0.161955 0.123667 0.0981083 0.0774109 0.0769728 0.104087 0.0589237 0.0914082 0.134806 0.124982 0.236923 0.232797 0.142812 0.123744 0.201184 0.32732 0.486195 0.474139 0.466971 0.461497 0.454802 0.451024 0.454818 0.460733 0.474047 0.498486 0.524212 0.545222 0.563523 0.575169 0.582916 0.587957 0.591453 0.593575 0.593772 0.592198 0.589171 0.58609 0.584222 0.584615 0.586357 0.586767 0.583135 0.57529 0.565806 0.557714 0.552852 0.55084 0.551304 0.553711 0.568842 0.570126 0.569262 0.566892 0.562708 0.556083 0.546953 0.536958 0.534523 0.535216 0.536026 0.528361 0.495076 0.469108 0.408168 0.287909 0.523202 0.458884 0.479545 0.266996 0.302485 0.348842 0.434306 0.409226 0.0720657 0.0747629 0.0678421 0.0787717 0.093075 0.126788 0.0833364 0.176202 0.147346 0.116567 0.103914 0.10345 0.0800448 0.0690376 0.0906838 0.096072 0.126307 0.118553 0.27665 0.191253 0.15872 0.167412 0.364047 0.468514 0.496666 0.508302 0.510816 0.506285 0.494439 0.48515 0.476553 0.469771 0.465178 0.464476 0.466452 0.476428 0.490569 0.509988 0.531149 0.549661 0.565144 0.575544 0.582922 0.588098 0.591425 0.59327 0.593764 0.592475 0.590015 0.587467 0.585856 0.585302 0.584715 0.582283 0.577553 0.571473 0.565668 0.561045 0.557723 0.557547 0.560991 0.563481 0.564215 0.563991 0.563377 0.561134 0.555975 0.549594 0.543984 0.539802 0.536899 0.534091 0.530592 0.516279 0.494444 0.442768 0.336144 0.30603 0.316691 0.575539 0.434812 0.466953 0.373312 0.385557 0.385311 0.568046 0.535291 0.0751426 0.104165 0.110267 0.166093 0.136368 0.131513 0.113631 0.164348 0.220401 0.205106 0.188853 0.162027 0.13984 0.119232 0.0980256 0.0955186 0.0918311 0.0989421 0.0989058 0.131069 0.0929309 0.249586 0.219717 0.191351 0.236068 0.329713 0.427524 0.495897 0.51441 0.516957 0.516204 0.510541 0.502832 0.493891 0.485033 0.478543 0.474627 0.474074 0.479697 0.490025 0.503471 0.519352 0.53748 0.553349 0.566458 0.575804 0.582907 0.587969 0.591379 0.59321 0.593295 0.592003 0.590023 0.588166 0.586532 0.58487 0.582827 0.579552 0.575339 0.556319 0.556577 0.557943 0.559527 0.560582 0.560519 0.560187 0.559387 0.557398 0.554361 0.550627 0.546738 0.543888 0.541138 0.53604 0.528873 0.517899 0.504564 0.475372 0.399336 0.230714 0.423675 0.379214 0.403163 0.466119 0.517379 0.642296 0.574928 0.507643 0.325929 0.203974 0.280038 0.241793 0.200851 0.29643 0.19289 0.126322 0.432526 0.217756 0.204245 0.170878 0.136159 0.134339 0.0989807 0.0960378 0.110565 0.128633 0.162134 0.183304 0.12046 0.0900312 0.333165 0.296287 0.270527 0.200993 0.250644 0.411918 0.479853 0.514384 0.523092 0.522547 0.520832 0.515525 0.508496 0.499531 0.49043 0.484596 0.48256 0.484311 0.490795 0.500993 0.513348 0.527577 0.542823 0.556236 0.567386 0.576222 0.583229 0.571192 0.567214 0.563846 0.561684 0.560656 0.560207 0.559933 0.559475 0.558639 0.557664 0.556227 0.554265 0.551945 0.549753 0.548122 0.546533 0.543374 0.537727 0.529005 0.516494 0.501943 0.485773 0.460566 0.368679 0.714469 0.557787 0.487518 0.395398 0.402206 0.446444 0.528301 0.607765 0.527372 0.423603 0.430489 0.343473 0.338173 0.323506 0.0553038 0.223962 1.12591 0.345486 0.382331 0.377973 0.229779 0.220922 0.198508 0.17178 0.169733 0.123255 0.108458 0.1333 0.181197 0.228871 0.187901 0.229346 0.391783 0.361103 0.235111 0.229529 0.428257 0.479948 0.508343 0.523663 0.52881 0.526991 0.524149 0.517554 0.509696 0.500428 0.493116 0.490205 0.490558 0.493846 0.500154 0.588198 0.591483 0.593014 0.592889 0.591651 0.590076 0.588485 0.586741 0.584487 0.581736 0.5787 0.575309 0.57202 0.569229 0.566949 0.565122 0.563488 0.561872 0.560032 0.558169 0.556348 0.554308 0.552293 0.550194 0.548453 0.547585 0.50093 0.480249 0.45702 0.44898 0.679251 0.581914 0.494164 0.447528 0.420437 0.4457 0.443605 0.300834 0.441907 0.41784 0.371081 0.408751 0.409481 0.324953 0.861415 0.358704 0.435862 0.25696 0.230758 0.249067 0.224968 0.221441 0.19589 0.188686 0.17505 0.1511 0.108236 0.143311 0.152956 0.211609 0.221924 0.26389 0.181929 0.389544 0.328603 0.271964 0.496194 0.489519 0.506148 0.516926 0.526779 0.528814 0.526864 0.523423 0.516244 0.509695 0.521586 0.534125 0.546874 0.558679 0.569008 0.577351 0.583766 0.588503 0.591581 0.592926 0.592895 0.591949 0.590524 0.588927 0.587018 0.58466 0.581963 0.579112 0.576291 0.573759 0.571493 0.56934 0.567141 0.564788 0.562095 0.559262 0.546563 0.544065 0.539517 0.530692 0.518112 0.460993 0.620287 0.58031 0.518607 0.466912 0.427071 0.407572 0.403639 0.360159 0.20983 0.173054 0.512552 0.497099 0.446837 0.41598 0.516352 0.57007 0.695286 0.872551 0.519148 0.425349 0.484704 0.27805 0.250297 0.242803 0.249679 0.234394 0.208502 0.196369 0.202889 0.159797 0.17433 0.148267 0.175423 0.26069 0.324487 0.444869 0.019538 0.380623 0.343187 0.584874 0.495192 0.493608 0.508516 0.501308 0.49673 0.495361 0.497294 0.501633 0.508124 0.51732 0.52812 0.539183 0.550778 0.561543 0.570715 0.578341 0.584402 0.588907 0.59173 0.593074 0.593264 0.592591 0.591294 0.589604 0.587687 0.585458 0.582915 0.580332 0.577876 0.575469 0.57309 0.556456 0.553774 0.551407 0.549449 0.547921 0.5468 0.54564 0.543428 0.53991 0.533701 0.523601 0.508448 0.488898 0.466697 0.576124 0.540433 0.496446 0.456239 0.427006 0.409383 0.23261 0.249789 0.42694 0.632045 0.482475 0.486317 0.605968 0.688591 0.750595 0.696319 0.489176 0.494581 0.472414 0.505546 0.273967 0.263788 0.215554 0.218026 0.242785 0.232165 0.260455 0.19475 0.251218 0.635205 0.287236 0.361786 0.415733 0.38495 0.63 0.515021 0.504875 0.516648 0.524172 0.527031 0.525799 0.520612 0.513583 0.507298 0.502516 0.500277 0.50053 0.503066 0.50817 0.515178 0.523597 0.533549 0.544014 0.554251 0.563853 0.572253 0.579408 0.585116 0.589263 0.591936 0.593349 0.593755 0.593285 0.592103 0.590492 0.588622 0.586528 0.570595 0.567915 0.564886 0.561519 0.558016 0.554713 0.551689 0.549268 0.547715 0.546468 0.54489 0.542792 0.540093 0.536046 0.529195 0.51851 0.504597 0.490649 0.493141 0.558394 0.519357 0.485085 0.453196 0.420869 0.390546 0.338865 0.151041 0.249314 0.595164 0.65422 0.522883 0.537625 0.559349 0.747497 0.791209 0.723862 0.492569 0.233487 0.214101 0.210603 0.206609 0.17635 0.145485 0.283783 0.333303 0.275504 0.321692 0.470564 0.54564 0.417813 0.362802 0.355681 0.627684 0.482005 0.488638 0.503681 0.515583 0.522608 0.524509 0.521559 0.516347 0.511408 0.507586 0.505194 0.50443 0.505127 0.508201 0.51377 0.521054 0.529281 0.538348 0.547915 0.557212 0.565993 0.573837 0.580494 0.585757 0.584209 0.581741 0.579229 0.576663 0.57394 0.570981 0.567723 0.564197 0.560398 0.556594 0.553109 0.550142 0.547807 0.546049 0.544488 0.542576 0.540126 0.537451 0.53367 0.527677 0.518886 0.509916 0.509982 0.535382 0.553546 0.549736 0.478522 0.445607 0.405924 0.355106 0.262545 0.302655 0.620549 0.630906 0.55975 0.594972 0.635207 0.691553 0.647722 0.677557 0.189989 0.363656 0.41432 0.365594 0.416502 0.504004 0.388805 0.57127 0.587095 0.362283 0.54675 0.493 0.482358 0.491487 0.506162 0.515672 0.520223 0.52051 0.517729 0.514967 0.512112 0.509445 0.507772 0.507497 0.509121 0.513116 0.519123 0.526213 0.534018 0.589629 0.592221 0.59371 0.594227 0.593901 0.592902 0.591436 0.589675 0.587658 0.585369 0.582852 0.580151 0.577252 0.574099 0.570667 0.566968 0.563037 0.559053 0.555185 0.551654 0.54868 0.546297 0.544382 0.542663 0.540662 0.538456 0.536037 0.533042 0.528772 0.524254 0.523502 0.529923 0.535438 0.54806 0.533783 0.507532 0.434654 0.385622 0.315046 0.22898 0.138476 0.420273 0.56681 0.710229 0.628379 0.633466 0.617261 0.621669 0.680749 0.363552 0.417762 0.443523 0.493663 0.543595 0.0846711 0.442769 0.787988 0.70728 0.420122 0.574325 0.558741 0.514618 0.493126 0.491068 0.498952 0.509296 0.515691 0.51842 0.51886 0.517843 0.515776 0.513084 0.510786 0.542549 0.551432 0.56006 0.568114 0.575352 0.581522 0.586434 0.590085 0.592615 0.594134 0.594722 0.59451 0.593672 0.592344 0.590631 0.588588 0.586207 0.583493 0.580496 0.577216 0.573668 0.569881 0.565876 0.561741 0.557641 0.553797 0.550325 0.531514 0.533637 0.530754 0.547778 0.539556 0.523067 0.49876 0.469763 0.417962 0.359869 0.300017 0.246538 0.244522 0.567605 0.717532 0.653004 0.422889 0.494379 0.560169 0.584902 0.172356 0.276478 0.864164 0.503494 0.502225 0.537114 0.529737 0.521782 0.505507 0.497684 0.499035 0.505686 0.512443 0.509739 0.510451 0.513341 0.518078 0.523909 0.530723 0.538421 0.546545 0.554745 0.562708 0.570133 0.576824 0.582554 0.587182 0.590696 0.59316 0.594645 0.595246 0.595104 0.594336 0.593039 0.591303 0.58915 0.586559 0.583574 0.580264 0.547249 0.544762 0.542951 0.541362 0.539626 0.5377 0.535783 0.533645 0.531592 0.558141 0.544139 0.530322 0.514252 0.489183 0.464636 0.346033 0.293074 0.306541 0.380862 0.307417 0.540401 0.726396 0.41769 0.584713 0.257921 0.875032 0.511136 0.512191 0.511484 0.504715 0.517575 0.519799 0.519896 0.518488 0.516251 0.514094 0.51243 0.512209 0.514091 0.51769 0.522469 0.528333 0.535167 0.542586 0.550177 0.557739 0.565129 0.572086 0.578328 0.58368 0.58806 0.591428 0.593779 0.595179 0.595745 0.595581 0.576666 0.572812 0.568782 0.56462 0.560389 0.556255 0.552434 0.549044 0.546133 0.543768 0.541967 0.540467 0.538885 0.537144 0.535652 0.534512 0.534423 0.535746 0.533146 0.538047 0.521038 0.506737 0.49558 0.450484 0.397538 0.304715 0.364014 0.175302 0.463017 0.656448 0.353507 0.386181 0.3664 0.524503 0.621993 0.515009 0.518899 0.503336 0.502947 0.506695 0.512681 0.517886 0.520712 0.52189 0.521588 0.51968 0.517205 0.515406 0.514558 0.515484 0.517964 0.521642 0.526571 0.532655 0.539372 0.546308 0.55337 0.560467 0.567462 0.574064 0.594774 0.593414 0.591561 0.589212 0.586374 0.583132 0.579566 0.575715 0.571666 0.5675 0.563259 0.559027 0.554965 0.551244 0.547983 0.545277 0.543237 0.541597 0.539975 0.538126 0.53635 0.534899 0.534433 0.535631 0.534509 0.568144 0.553775 0.527246 0.488404 0.427543 0.383006 0.340048 0.338082 0.343241 0.348848 0.451994 0.571281 0.354921 0.430613 0.44672 0.400306 0.695294 0.584696 0.541789 0.574408 0.513408 0.510725 0.508237 0.509942 0.514113 0.519476 0.523281 0.525513 0.525718 0.523632 0.521204 0.518693 0.516967 0.517066 0.518696 0.521361 0.525339 0.530635 0.536723 0.57992 0.584891 0.588988 0.592168 0.594377 0.595661 0.596123 0.595846 0.594904 0.593389 0.591345 0.588765 0.585692 0.582241 0.578484 0.574466 0.570295 0.566093 0.561886 0.557732 0.553832 0.550342 0.547301 0.544792 0.542868 0.541339 0.539645 0.537494 0.535282 0.533352 0.532502 0.534921 0.571778 0.5637 0.549201 0.529292 0.511851 0.474575 0.403202 0.377526 0.342426 0.40414 0.435546 0.549383 0.457463 0.401049 0.558476 0.558203 0.777135 0.569592 0.596665 0.613783 0.515255 0.513339 0.512493 0.513836 0.51633 0.521627 0.52715 0.529756 0.530327 0.528887 0.526154 0.523322 0.520637 0.543074 0.549549 0.556275 0.563145 0.569824 0.575992 0.58145 0.58612 0.58994 0.59286 0.594868 0.595992 0.596286 0.595813 0.594662 0.592934 0.590665 0.587854 0.584577 0.58097 0.577094 0.572986 0.568785 0.564621 0.560525 0.556565 0.533631 0.529855 0.529241 0.574062 0.567175 0.56151 0.539049 0.519796 0.543466 0.522943 0.464878 0.396779 0.35828 0.358159 0.367597 0.526891 0.599449 0.287583 0.509665 0.513989 0.514131 0.516226 0.519236 0.523425 0.529185 0.518933 0.519297 0.521292 0.524437 0.528963 0.53444 0.540251 0.546245 0.552541 0.559114 0.565727 0.572035 0.57779 0.58291 0.587302 0.590845 0.593481 0.595216 0.596091 0.596147 0.595422 0.594021 0.592058 0.552905 0.549682 0.54693 0.544652 0.542783 0.541157 0.539282 0.536777 0.56659 0.576303 0.559423 0.551576 0.527684 0.562545 0.543287 0.505879 0.357161 0.36701 0.404431 0.39215 0.406109 0.684323 0.601533 0.625258 0.756089 0.624612 0.621845 0.622715 0.515471 0.516622 0.534086 0.536018 0.534917 0.53249 0.528981 0.525384 0.522416 0.52108 0.521611 0.523908 0.52754 0.532276 0.537641 0.543267 0.549159 0.55537 0.561771 0.568078 0.574051 0.579496 0.584297 0.588371 0.589562 0.586545 0.583111 0.5794 0.575466 0.571351 0.5672 0.563152 0.559231 0.555504 0.552133 0.54919 0.546703 0.544668 0.54301 0.541274 0.538976 0.535744 0.530805 0.524558 0.583773 0.559169 0.532098 0.484063 0.479268 0.411749 0.405959 0.903371 0.752467 0.595331 0.632201 0.644388 0.680919 0.639462 0.630019 0.628565 0.521341 0.525098 0.529755 0.536769 0.542427 0.543164 0.540277 0.535636 0.53091 0.527065 0.524266 0.523135 0.524096 0.526941 0.530692 0.53516 0.540359 0.545982 0.551851 0.558011 0.591621 0.59396 0.595369 0.595914 0.595658 0.594647 0.59299 0.590798 0.588096 0.584916 0.581378 0.577618 0.573682 0.569623 0.565592 0.561717 0.558027 0.554578 0.551472 0.548794 0.546549 0.544707 0.543127 0.541339 0.538625 0.534346 0.526294 0.568668 0.561601 0.573809 0.543779 0.539673 0.543486 0.515607 0.492273 0.458777 0.373185 0.746104 0.794595 0.711481 0.723533 0.624841 0.661839 0.649353 0.636665 0.633657 0.515376 0.523283 0.526377 0.532063 0.538527 0.545262 0.550985 0.551086 0.545115 0.537136 0.532865 0.527745 0.525959 0.525167 0.526373 0.529867 0.564219 0.570309 0.575961 0.581069 0.585578 0.589326 0.592204 0.594181 0.595226 0.59541 0.594812 0.593503 0.591604 0.589204 0.586332 0.583038 0.579451 0.575693 0.571812 0.567868 0.564004 0.560338 0.556905 0.553747 0.550928 0.548489 0.546388 0.544584 0.542931 0.540978 0.537865 0.531566 0.576853 0.564231 0.546327 0.566253 0.526825 0.606815 0.578871 0.536597 0.450257 0.478021 0.411379 0.413516 0.894962 0.899797 0.785361 0.80182 0.773623 0.766657 0.523032 0.527152 0.532703 0.541238 0.548299 0.555529 0.56329 0.561554 0.533926 0.537849 0.542662 0.548361 0.554502 0.560527 0.566722 0.572534 0.577783 0.582534 0.586704 0.590085 0.592543 0.594054 0.594694 0.594532 0.593608 0.592021 0.589904 0.587332 0.584335 0.580977 0.582545 0.571562 0.554812 0.527372 0.553902 0.608868 0.594545 0.569134 0.512317 0.469048 0.492846 0.421899 0.930971 0.794197 0.813603 0.830498 0.817521 0.645046 0.66161 0.647342 0.640474 0.635901 0.524277 0.531909 0.55028 0.540565 0.529705 0.52894 0.527351 0.526799 0.528604 0.53244 0.537558 0.540435 0.544245 0.550377 0.5568 0.563308 0.569386 0.574763 0.579492 0.583868 0.58764 0.590534 0.592483 0.577387 0.573681 0.569909 0.566134 0.562479 0.559035 0.55585 0.552961 0.5504 0.548131 0.546092 0.544277 0.542432 0.540203 0.536415 0.541795 0.504678 0.639337 0.591667 0.584122 0.533879 0.534234 0.501808 0.49082 0.82549 0.781855 0.668664 0.667352 0.651022 0.636027 0.637235 0.541406 0.549647 0.559064 0.569908 0.577779 0.57674 0.550618 0.527115 0.527617 0.529547 0.528182 0.528435 0.531725 0.534611 0.540234 0.543777 0.545397 0.551175 0.558714 0.566065 0.572155 0.593532 0.593768 0.593271 0.592058 0.590233 0.587933 0.585231 0.58216 0.57879 0.575245 0.571637 0.568018 0.564446 0.561017 0.557808 0.554858 0.552183 0.549778 0.5476 0.54561 0.54373 0.541655 0.539551 0.58568 0.577312 0.564056 0.584143 0.542181 0.552505 0.488844 0.523735 0.47891 0.864429 0.830893 0.8232 0.831178 0.832119 0.784821 0.679365 0.667724 0.650873 0.633958 0.636453 0.527196 0.539043 0.550672 0.558592 0.566348 0.577821 0.588211 0.583824 0.54254 0.517541 0.525917 0.528526 0.528841 0.53093 0.534638 0.536628 0.541919 0.576756 0.581032 0.585046 0.588264 0.590499 0.591939 0.592579 0.592461 0.591655 0.590201 0.588184 0.585738 0.582952 0.579864 0.576533 0.573076 0.569599 0.566159 0.562809 0.559619 0.556645 0.553907 0.551387 0.549052 0.546871 0.544903 0.542888 0.541388 0.584705 0.58128 0.573738 0.550568 0.527335 0.60106 0.620515 0.556083 0.510036 0.50972 0.533292 0.480801 0.828516 0.836111 0.823307 0.828508 0.823968 0.785773 0.532437 0.551001 0.559719 0.559239 0.565126 0.587331 0.618096 0.525857 0.547011 0.548153 0.550951 0.559835 0.568645 0.574167 0.578377 0.582432 0.585875 0.588232 0.589904 0.590913 0.591208 0.590791 0.589718 0.58807 0.585921 0.583381 0.580557 0.577494 0.574245 0.570916 0.567606 0.582619 0.580837 0.578176 0.564818 0.538182 0.619215 0.5749 0.61353 0.53805 0.515865 0.531244 0.823047 0.845723 0.88094 0.860835 0.678328 0.662571 0.642756 0.629776 0.643752 0.549669 0.626864 0.517808 0.523676 0.527231 0.530491 0.532709 0.535955 0.54207 0.542933 0.549348 0.550387 0.553372 0.561396 0.56986 0.574879 0.579691 0.583625 0.585671 0.587433 0.588782 0.589452 0.564369 0.561244 0.558281 0.55552 0.552956 0.550536 0.5482 0.546009 0.544108 0.542326 0.577942 0.567104 0.553743 0.628183 0.596132 0.565318 0.569356 0.549455 0.510078 0.530611 0.817722 0.841738 0.876203 0.863854 0.798764 0.694025 0.673823 0.672027 0.655851 0.631239 0.561387 0.56176 0.557157 0.574566 0.615174 0.645031 0.528432 0.529583 0.51956 0.521169 0.526423 0.530986 0.535063 0.538988 0.545972 0.546298 0.546578 0.554835 0.557929 0.564092 0.569654 0.589446 0.588786 0.58751 0.585716 0.583491 0.58092 0.578098 0.575097 0.571984 0.568835 0.565711 0.562664 0.559744 0.556985 0.554402 0.551963 0.549595 0.547241 0.54509 0.543485 0.582121 0.579893 0.587326 0.650124 0.69101 0.646836 0.573782 0.586674 0.539258 0.544307 0.581031 0.61166 0.73311 0.695704 0.634533 0.549149 0.547918 0.625854 0.551513 0.560304 0.574518 0.581466 0.582889 0.58446 0.586104 0.587167 0.587583 0.587325 0.586475 0.585086 0.583198 0.580938 0.57841 0.575669 0.572786 0.569833 0.566858 0.56391 0.561041 0.558298 0.555704 0.553255 0.550902 0.548562 0.546246 0.544277 0.582859 0.580993 0.577654 0.567479 0.552386 0.639043 0.608841 0.557221 0.548697 0.55562 0.563325 0.566602 0.569744 0.575416 0.570235 
SCALARS Axial_Stress float 1
LOOKUP_TABLE default
-93339400000.0 -118042000000.0 -143118000000.0 -70158800000.0 -94655200000.0 -99833600000.0 -140583000000.0 -260115000000.0 -154293000000.0 -76517400000.0 -62437400000.0 -122007000000.0 -95110200000.0 -211651000000.0 -103346000000.0 -190403000000.0 -78213900000.0 -127084000000.0 -93143200000.0 -171403000000.0 -355274000000.0 -184486000000.0 -371512000000.0 -174479000000.0 -145338000000.0 -296642000000.0 -232862000000.0 -261708000000.0 -234384000000.0 -287182000000.0 -335374000000.0 -147495000000.0 -164279000000.0 -236144000000.0 -283690000000.0 -303795000000.0 -297427000000.0 -103483000000.0 -167590000000.0 -333092000000.0 -429170000000.0 -493102000000.0 -266069000000.0 -267036000000.0 -339122000000.0 -163816000000.0 -205710000000.0 -344526000000.0 -316480000000.0 -370361000000.0 -404042000000.0 -400957000000.0 -416515000000.0 -365133000000.0 -401229000000.0 -580222000000.0 -538091000000.0 -546490000000.0 -447607000000.0 -322628000000.0 -295144000000.0 -388078000000.0 -600665000000.0 -482534000000.0 -605679000000.0 -499499000000.0 -608139000000.0 -505908000000.0 -606847000000.0 -499269000000.0 -712732000000.0 -719132000000.0 -905972000000.0 -576284000000.0 -789515000000.0 -623449000000.0 -711451000000.0 -625039000000.0 -693690000000.0 -620727000000.0 -692401000000.0 -369723000000.0 -400941000000.0 -695213000000.0 -450512000000.0 -408730000000.0 -306240000000.0 -323708000000.0 -403824000000.0 -330015000000.0 -735034000000.0 -729365000000.0 -714450000000.0 -706186000000.0 -737082000000.0 -864829000000.0 -1.04939e+12 -811904000000.0 -771355000000.0 -764996000000.0 -471554000000.0 -524509000000.0 -845160000000.0 -453864000000.0 -390828000000.0 -982745000000.0 -866152000000.0 -832625000000.0 -810076000000.0 -809612000000.0 -869604000000.0 -989421000000.0 -956103000000.0 -860599000000.0 -836997000000.0 -835548000000.0 -948695000000.0 -1.0878e+12 -1.29586e+12 -1.0494e+12 -1.12429e+12 -966321000000.0 -1.05003e+12 -923424000000.0 -1.00511e+12 -900146000000.0 -986022000000.0 -912374000000.0 -1.00897e+12 -980826000000.0 -1.0535e+12 -1.03238e+12 -1.03847e+12 -958373000000.0 -995479000000.0 -914157000000.0 -975615000000.0 -905132000000.0 -974648000000.0 -576231000000.0 -645786000000.0 -1.17598e+12 -1.08923e+12 -1.20138e+12 -1.32884e+12 -1.47245e+12 -1.46319e+12 -1.27647e+12 -1.30904e+12 -1.19431e+12 -1.12423e+12 -1.07945e+12 -1.0658e+12 -1.08485e+12 -1.0991e+12 -1.06799e+12 -1.04698e+12 -1.04174e+12 -683106000000.0 -771895000000.0 -1.24706e+12 -2.02748e+12 -2.54234e+12 -1.98348e+12 -1.50151e+12 -1.35702e+12 -1.25831e+12 -1.18981e+12 -1.14669e+12 -1.13502e+12 -1.14199e+12 -1.13142e+12 -1.11383e+12 -1.10801e+12 -1.1103e+12 -1.38556e+12 -1.72913e+12 -2.09334e+12 -1.77517e+12 -1.5336e+12 -1.40759e+12 -1.45491e+12 -1.31601e+12 -1.36544e+12 -1.24708e+12 -1.29558e+12 -1.20536e+12 -1.25468e+12 -1.19129e+12 -1.23707e+12 -1.18636e+12 -1.22744e+12 -1.17361e+12 -1.22696e+12 -1.17057e+12 -1.23531e+12 -1.17446e+12 -1.24318e+12 -791878000000.0 -904510000000.0 -1.60328e+12 -1.58024e+12 -1.88083e+12 -1.91184e+12 -1.89776e+12 -1.74185e+12 -1.75403e+12 -1.57063e+12 -1.60423e+12 -1.50008e+12 -1.40487e+12 -1.33525e+12 -1.29515e+12 -1.27754e+12 -1.27662e+12 -1.29014e+12 -1.30466e+12 -902027000000.0 -1.05518e+12 -1.69586e+12 -1.73105e+12 -1.78168e+12 -1.91396e+12 -1.89067e+12 -1.9396e+12 -1.76122e+12 -1.64259e+12 -1.53328e+12 -1.4344e+12 -1.36671e+12 -1.32967e+12 -1.32114e+12 -1.33697e+12 -1.36074e+12 -1.37512e+12 -1.73026e+12 -1.7564e+12 -1.73262e+12 -2.12561e+12 -1.91339e+12 -1.79192e+12 -1.8239e+12 -1.67962e+12 -1.69419e+12 -1.55327e+12 -1.56197e+12 -1.455e+12 -1.46816e+12 -1.39156e+12 -1.41304e+12 -1.36373e+12 -1.40771e+12 -1.37547e+12 -1.44413e+12 -1.4082e+12 -1.48721e+12 -1.43514e+12 -1.50933e+12 -1.01304e+12 -1.18838e+12 -1.82287e+12 -1.77794e+12 -1.7983e+12 -1.75666e+12 -1.52462e+12 -1.99417e+12 -2.02406e+12 -1.94001e+12 -1.97254e+12 -1.86076e+12 -1.69005e+12 -1.56191e+12 -1.47584e+12 -1.43718e+12 -1.46765e+12 -1.52665e+12 -1.56959e+12 -1.12451e+12 -1.30893e+12 -1.85414e+12 -1.77176e+12 -1.67775e+12 -1.40948e+12 -1.0652e+12 -2.04643e+12 -2.00165e+12 -1.84623e+12 -1.6738e+12 -1.55561e+12 -1.48055e+12 -1.48165e+12 -1.54814e+12 -1.61821e+12 -1.65084e+12 -1.91262e+12 -1.85987e+12 -1.67713e+12 -1.25255e+12 -1.12921e+12 -1.15369e+12 -2.09269e+12 -2.11643e+12 -2.05488e+12 -1.97405e+12 -1.8064e+12 -1.759e+12 -1.65173e+12 -1.62931e+12 -1.54411e+12 -1.52318e+12 -1.48697e+12 -1.53516e+12 -1.5493e+12 -1.64828e+12 -1.64794e+12 -1.75894e+12 -1.71347e+12 -1.80795e+12 -1.2363e+12 -1.42162e+12 -2.02359e+12 -1.94452e+12 -1.95307e+12 -1.82854e+12 -1.78108e+12 -1.55694e+12 -1.29243e+12 -1.17504e+12 -2.27231e+12 -1.86548e+12 -1.73138e+12 -1.59247e+12 -1.4911e+12 -1.61308e+12 -1.77648e+12 -1.87518e+12 -1.34937e+12 -1.53342e+12 -2.06636e+12 -1.94006e+12 -1.69006e+12 -1.27819e+12 -1.3266e+12 -1.15514e+12 -1.94561e+12 -1.83511e+12 -1.69587e+12 -1.52473e+12 -1.55365e+12 -1.74421e+12 -1.91793e+12 -2.08135e+12 -1.99415e+12 -1.45961e+12 -2.17992e+12 -2.08497e+12 -1.88919e+12 -1.22503e+12 -1.33463e+12 -1.35352e+12 -1.35059e+12 -1.45498e+12 -1.57201e+12 -1.83511e+12 -1.9103e+12 -1.91538e+12 -1.81707e+12 -1.78742e+12 -1.62595e+12 -1.47379e+12 -1.38505e+12 -1.55798e+12 -1.64919e+12 -1.78108e+12 -1.91355e+12 -2.16722e+12 -2.20039e+12 -1.64391e+12 -2.36978e+12 -2.25613e+12 -2.33839e+12 -2.05551e+12 -1.86305e+12 -1.79553e+12 -1.28984e+12 -1.64929e+12 -1.83696e+12 -1.95465e+12 -1.92074e+12 -1.72198e+12 -1.15148e+12 -1.52015e+12 -2.27049e+12 -2.30408e+12 -1.56188e+12 -1.74943e+12 -2.46966e+12 -2.45398e+12 -1.71187e+12 -1.05763e+12 -1.95869e+12 -1.82658e+12 -2.01393e+12 -1.87131e+12 -2.06454e+12 -2.00646e+12 -2.11365e+12 -2.02239e+12 -1.90485e+12 -1.629e+12 -1.51255e+12 -3.04164e+12 -2.5111e+12 -2.59627e+12 -2.42117e+12 -2.51506e+12 -2.40661e+12 -1.65526e+12 -1.8485e+12 -2.56702e+12 -2.67396e+12 -2.58833e+12 -2.79127e+12 -2.82631e+12 -3.35373e+12 -1.92132e+12 -2.16092e+12 -2.14554e+12 -2.19604e+12 -2.19127e+12 -2.06065e+12 -2.06737e+12 -1.83557e+12 -1.63433e+12 -1.57382e+12 -3.46519e+12 -2.89544e+12 -2.64962e+12 -2.59716e+12 -2.75242e+12 -2.81156e+12 -3.0799e+12 -3.17548e+12 -2.2879e+12 -2.27347e+12 -2.27948e+12 -2.29488e+12 -2.25356e+12 -1.91846e+12 -3.32413e+12 -3.61057e+12 -3.22701e+12 -2.83598e+12 -2.70291e+12 -1.74412e+12 -1.94346e+12 -2.85669e+12 -2.97988e+12 -3.23287e+12 -3.02889e+12 -2.73782e+12 -2.68076e+12 -2.41662e+12 -2.50712e+12 -2.379e+12 -2.48214e+12 -2.38755e+12 -2.4804e+12 -2.37886e+12 -2.4613e+12 -2.29598e+12 -2.93898e+12 -3.39789e+12 -3.44119e+12 -3.23549e+12 -3.05133e+12 -2.98131e+12 -2.8333e+12 -2.86173e+12 -2.76625e+12 -1.83414e+12 -2.03683e+12 -2.91781e+12 -3.00591e+12 -2.97317e+12 -3.07485e+12 -3.11052e+12 -3.12584e+12 -2.8844e+12 -2.6888e+12 -2.59095e+12 -2.57513e+12 -2.57121e+12 -2.65308e+12 -2.64142e+12 -2.95367e+12 -3.18275e+12 -3.29917e+12 -3.11978e+12 -2.96879e+12 -2.9114e+12 -3.05893e+12 -3.08882e+12 -3.13199e+12 -3.0522e+12 -2.86048e+12 -2.73005e+12 -2.67451e+12 -2.66473e+12 -2.70186e+12 -2.83702e+12 -3.1075e+12 -3.23677e+12 -3.22061e+12 -3.20647e+12 -3.15259e+12 -3.07303e+12 -3.06935e+12 -2.98991e+12 -3.0323e+12 -1.92734e+12 -2.12815e+12 -3.18051e+12 -3.12807e+12 -3.18939e+12 -3.15211e+12 -3.19411e+12 -3.14604e+12 -3.12793e+12 -3.005e+12 -3.00668e+12 -2.87428e+12 -2.91136e+12 -2.78867e+12 -2.85709e+12 -2.75734e+12 -2.84565e+12 -2.76834e+12 -2.87763e+12 -2.83926e+12 -3.00307e+12 -3.17335e+12 -3.19357e+12 -3.13635e+12 -3.09281e+12 -2.02236e+12 -2.21709e+12 -3.23773e+12 -3.23974e+12 -3.21558e+12 -3.12321e+12 -3.03111e+12 -2.96351e+12 -2.93222e+12 -2.93733e+12 -2.9792e+12 -2.96165e+12 -3.06518e+12 -3.10714e+12 -3.16583e+12 -3.19352e+12 -3.18136e+12 -3.14792e+12 -3.13273e+12 -2.30449e+12 -3.2919e+12 -3.3441e+12 -3.29001e+12 -3.3359e+12 -3.2786e+12 -3.3073e+12 -3.22497e+12 -3.24188e+12 -3.14171e+12 -3.1746e+12 -3.07118e+12 -3.12257e+12 -3.02582e+12 -3.094e+12 -3.01108e+12 -3.02494e+12 -3.06487e+12 -3.13691e+12 -3.19737e+12 -3.20085e+12 -3.21435e+12 -3.18971e+12 -3.21593e+12 -3.17827e+12 -3.21929e+12 -2.1174e+12 -3.39991e+12 -3.39294e+12 -3.37528e+12 -3.33159e+12 -3.27121e+12 -3.21828e+12 -3.18168e+12 -3.16365e+12 -3.08862e+12 -3.15879e+12 -3.10105e+12 -3.16094e+12 -3.13255e+12 -3.18252e+12 -3.2213e+12 -3.241e+12 -3.25469e+12 -2.21188e+12 -2.39117e+12 -3.45035e+12 -3.43769e+12 -3.40952e+12 -3.36047e+12 -3.30999e+12 -3.2701e+12 -3.24481e+12 -3.2299e+12 -3.21608e+12 -3.20115e+12 -3.1773e+12 -3.20437e+12 -3.21379e+12 -3.24582e+12 -3.25118e+12 -3.29305e+12 -3.28058e+12 -3.32925e+12 -3.29965e+12 -2.30663e+12 -2.47741e+12 -3.50741e+12 -3.55729e+12 -3.49809e+12 -3.54284e+12 -3.47849e+12 -3.51653e+12 -3.44228e+12 -3.47797e+12 -3.39661e+12 -3.4391e+12 -3.35631e+12 -3.40861e+12 -3.32763e+12 -3.38859e+12 -3.30829e+12 -3.36815e+12 -3.2876e+12 -3.25508e+12 -3.21607e+12 -3.22771e+12 -3.28896e+12 -3.34686e+12 -3.38138e+12 -3.61508e+12 -3.60472e+12 -3.58489e+12 -3.55409e+12 -3.51816e+12 -3.48696e+12 -3.4655e+12 -3.4512e+12 -3.4193e+12 -3.33074e+12 -3.35045e+12 -3.26826e+12 -3.24053e+12 -3.21437e+12 -3.26534e+12 -3.34763e+12 -3.40868e+12 -2.40339e+12 -2.56312e+12 -3.72278e+12 -3.66475e+12 -3.71208e+12 -3.64965e+12 -3.69237e+12 -3.6252e+12 -3.66525e+12 -3.59352e+12 -3.63585e+12 -3.56267e+12 -3.61105e+12 -3.53933e+12 -3.52605e+12 -3.51449e+12 -3.45263e+12 -3.33021e+12 -3.18711e+12 -3.22166e+12 -3.27017e+12 -3.32539e+12 -3.40982e+12 -3.42042e+12 -3.50114e+12 -3.47243e+12 -2.50449e+12 -2.64797e+12 -3.77236e+12 -3.75704e+12 -3.73369e+12 -3.70649e+12 -3.68115e+12 -3.66286e+12 -3.59561e+12 -3.65562e+12 -3.59012e+12 -3.65876e+12 -3.57885e+12 -3.64747e+12 -3.44702e+12 -3.2246e+12 -3.16602e+12 -3.36507e+12 -3.51136e+12 -3.58139e+12 -9035750000.0 -2.73016e+12 -3.82973e+12 -3.87894e+12 -3.81968e+12 -3.8646e+12 -3.79992e+12 -3.84139e+12 -3.77474e+12 -3.74968e+12 -3.72922e+12 -3.71781e+12 -3.71987e+12 -3.73491e+12 -3.72966e+12 -3.3439e+12 -2.90826e+12 -3.05798e+12 -3.02582e+12 -3.26023e+12 -3.43711e+12 -3.49551e+12 -3.63556e+12 -3.61688e+12 -3.71431e+12 -2.6121e+12 -3.93317e+12 -3.9261e+12 -3.90724e+12 -3.88243e+12 -3.81656e+12 -3.85978e+12 -3.79493e+12 -3.84208e+12 -3.77972e+12 -3.83241e+12 -3.77593e+12 -3.83779e+12 -3.78987e+12 -3.86879e+12 -3.82449e+12 -3.8367e+12 -2.44323e+12 -3.28743e+12 -3.63488e+12 -3.76041e+12 -2.72803e+12 -2.80596e+12 -4.02957e+12 -3.98119e+12 -4.02771e+12 -3.97069e+12 -3.94831e+12 -3.92411e+12 -3.90456e+12 -3.89071e+12 -3.88723e+12 -3.90503e+12 -3.96302e+12 -3.9379e+12 -4.18395e+12 -4.29332e+12 -4.89691e+12 -2.58289e+12 -3.41092e+12 -3.60488e+12 -3.81431e+12 -3.79331e+12 -3.92951e+12 -3.87286e+12 -2.85365e+12 -9035750000.0 -2.87624e+12 -4.07729e+12 -4.07212e+12 -4.01292e+12 -4.05375e+12 -3.98906e+12 -4.03027e+12 -3.96702e+12 -4.01086e+12 -3.95042e+12 -3.99661e+12 -3.94031e+12 -3.9449e+12 -3.9818e+12 -4.11301e+12 -4.58734e+12 -4.83658e+12 -4.13482e+12 -3.80287e+12 -3.97548e+12 -4.05491e+12 -2.95207e+12 -4.1233e+12 -4.17479e+12 -4.12479e+12 -4.11398e+12 -4.09404e+12 -4.07247e+12 -4.05508e+12 -4.04249e+12 -3.99091e+12 -4.04378e+12 -4.00799e+12 -4.08487e+12 -4.08566e+12 -4.22907e+12 -4.34029e+12 -4.53295e+12 -4.78461e+12 -4.53102e+12 -4.07848e+12 -4.01376e+12 -4.17416e+12 -4.11876e+12 -4.25514e+12 -2.98954e+12 -4.21999e+12 -4.22551e+12 -4.1693e+12 -4.21219e+12 -4.1549e+12 -4.19766e+12 -4.13575e+12 -4.17813e+12 -4.11547e+12 -4.09812e+12 -4.0881e+12 -4.10307e+12 -4.1819e+12 -4.36756e+12 -4.52955e+12 -4.23393e+12 -4.22531e+12 -4.14925e+12 -4.25632e+12 -4.31939e+12 -3.13034e+12 -3.03563e+12 -4.30908e+12 -4.27624e+12 -4.3326e+12 -4.27241e+12 -4.25492e+12 -4.24081e+12 -4.21931e+12 -4.15688e+12 -4.1949e+12 -4.13899e+12 -4.17832e+12 -4.13549e+12 -4.18669e+12 -4.172e+12 -4.2799e+12 -4.43049e+12 -4.39916e+12 -4.3787e+12 -4.27081e+12 -4.30372e+12 -4.38245e+12 -4.51275e+12 -4.4614e+12 -3.2532e+12 -9035750000.0 -3.1264e+12 -4.36749e+12 -4.37778e+12 -4.31366e+12 -4.36016e+12 -4.29987e+12 -4.35357e+12 -4.28566e+12 -4.25568e+12 -4.22861e+12 -4.21794e+12 -4.23743e+12 -4.2416e+12 -4.29293e+12 -4.34377e+12 -4.3554e+12 -4.32168e+12 -4.31343e+12 -4.42096e+12 -4.41915e+12 -4.54655e+12 -4.65377e+12 -3.21299e+12 -4.36667e+12 -4.43396e+12 -4.42598e+12 -4.4263e+12 -4.42324e+12 -4.39522e+12 -4.3222e+12 -4.34824e+12 -4.285e+12 -4.3087e+12 -4.2598e+12 -4.25621e+12 -4.27639e+12 -4.31293e+12 -4.32082e+12 -4.29152e+12 -4.30529e+12 -4.39243e+12 -4.5543e+12 -4.6639e+12 -4.85529e+12 -3.34488e+12 -4.37446e+12 -4.46024e+12 -4.47439e+12 -4.57844e+12 -4.49932e+12 -4.5764e+12 -4.47772e+12 -4.42034e+12 -4.36346e+12 -4.3308e+12 -4.28937e+12 -4.31466e+12 -4.2863e+12 -4.29973e+12 -4.29319e+12 -4.27813e+12 -4.28947e+12 -4.2455e+12 -4.33836e+12 -4.53033e+12 -4.67643e+12 -4.6847e+12 -4.81193e+12 -3.49437e+12 -3.33204e+12 -4.00157e+12 -4.27104e+12 -4.83449e+12 -4.67574e+12 -4.68428e+12 -4.60872e+12 -4.50389e+12 -4.50759e+12 -4.42886e+12 -4.37372e+12 -4.35393e+12 -4.32878e+12 -4.28637e+12 -4.20578e+12 -4.25141e+12 -4.35237e+12 -4.47531e+12 -4.66386e+12 -4.82835e+12 -4.96862e+12 -5.16856e+12 -3.66089e+12 -3.29603e+12 -5.21993e+12 -5.16881e+12 -4.95041e+12 -4.78825e+12 -4.88002e+12 -4.74206e+12 -4.6038e+12 -4.49365e+12 -4.42507e+12 -4.41882e+12 -4.38601e+12 -4.40277e+12 -4.37759e+12 -4.40221e+12 -4.31883e+12 -4.23034e+12 -4.05629e+12 -4.12969e+12 -4.17733e+12 -4.54254e+12 -4.88558e+12 -5.12887e+12 -5.35746e+12 -3.35574e+12 -4.48068e+12 -6.13624e+12 -5.53114e+12 -5.26782e+12 -5.21291e+12 -5.01188e+12 -4.88586e+12 -4.73068e+12 -4.69125e+12 -4.58174e+12 -4.46729e+12 -4.41904e+12 -4.42614e+12 -4.43178e+12 -4.25788e+12 -4.07129e+12 -3.88181e+12 -4.37769e+12 -4.66066e+12 -4.77315e+12 -4.96995e+12 -4.95843e+12 -5.21199e+12 -5.92321e+12 -8.23323e+12 -5.11124e+12 -4.47595e+12 -6.68198e+12 -6.41473e+12 -5.49177e+12 -5.16075e+12 -5.03211e+12 -4.82742e+12 -4.64676e+12 -4.54351e+12 -4.48967e+12 -4.43932e+12 -4.42675e+12 -4.43184e+12 -4.46152e+12 -4.47345e+12 -3.39339e+12 -3.11014e+12 -4.0835e+12 -4.48651e+12 -4.9425e+12 -5.20448e+12 -3.91614e+12 -5.7614e+12 -5.69392e+12 -5.13394e+12 -7.35011e+12 -6.91671e+12 -6.76355e+12 -6.82387e+12 -6.11957e+12 -5.66484e+12 -5.32572e+12 -5.09641e+12 -4.97646e+12 -4.77047e+12 -4.58187e+12 -4.43273e+12 -4.43944e+12 -4.46105e+12 -4.50926e+12 -4.5133e+12 -4.58621e+12 -4.51518e+12 -5.11726e+12 -5.36579e+12 -4.02122e+12 -4.82676e+12 -5.1631e+12 -5.13851e+12 -5.61908e+12 -5.79513e+12 -7.37805e+12 -7.14703e+12 -5.02303e+12 -5.01793e+12 -5.04811e+12 -5.11836e+12 -7.56172e+12 -7.5885e+12 -7.26494e+12 -6.97548e+12 -6.19998e+12 -5.23367e+12 -5.16107e+12 -5.16525e+12 -5.05768e+12 -4.91322e+12 -4.84506e+12 -4.70487e+12 -4.4977e+12 -4.40242e+12 -4.47971e+12 -4.57993e+12 -4.86766e+12 -5.15747e+12 -4.64802e+12 -4.60998e+12 -5.12189e+12 -5.05542e+12 -5.27501e+12 -5.33928e+12 -5.69875e+12 -6.14728e+12 -6.36097e+12 -6.85943e+12 -7.27765e+12 -7.44264e+12 -5.02495e+12 -4.99559e+12 -7.53579e+12 -7.37372e+12 -7.09196e+12 -6.95774e+12 -6.82771e+12 -6.85385e+12 -5.46436e+12 -5.20087e+12 -5.27783e+12 -5.07912e+12 -4.98542e+12 -4.93086e+12 -4.7597e+12 -4.61516e+12 -4.49647e+12 -4.38902e+12 -4.32701e+12 -4.41416e+12 -4.47964e+12 -4.55436e+12 -4.68637e+12 -4.73249e+12 -4.87271e+12 -4.79813e+12 -4.06037e+12 -4.64418e+12 -5.14455e+12 -5.2054e+12 -5.53831e+12 -6.02363e+12 -6.28865e+12 -6.40978e+12 -6.77088e+12 -7.22637e+12 -7.36727e+12 -4.98131e+12 -4.88643e+12 -4.89258e+12 -4.95857e+12 -7.4479e+12 -7.4933e+12 -7.36751e+12 -7.28286e+12 -7.17794e+12 -6.82118e+12 -6.24884e+12 -5.78378e+12 -5.46274e+12 -5.32632e+12 -5.17515e+12 -4.98786e+12 -4.88356e+12 -4.62901e+12 -4.27593e+12 -4.34441e+12 -4.60406e+12 -4.82864e+12 -4.87019e+12 -4.7567e+12 -3.5e+12 -5.45434e+12 -5.1212e+12 -5.38619e+12 -5.64514e+12 -5.86139e+12 -6.15965e+12 -6.44117e+12 -7.11274e+12 -7.33506e+12 -7.32278e+12 -6.85909e+12 -5.03704e+12 -4.76307e+12 -4.85657e+12 -7.43046e+12 -7.25279e+12 -7.31652e+12 -7.17986e+12 -7.10791e+12 -7.09369e+12 -6.8445e+12 -6.27123e+12 -6.58748e+12 -6.28227e+12 -5.5738e+12 -5.14106e+12 -5.04115e+12 -4.93886e+12 -4.93551e+12 -4.88894e+12 -4.85586e+12 -4.87415e+12 -4.40282e+12 -4.1459e+12 -4.29301e+12 -4.48488e+12 -4.62456e+12 -4.73781e+12 -4.82557e+12 -4.57687e+12 -5.27383e+12 -5.99922e+12 -5.20124e+12 -5.18639e+12 -5.2474e+12 -5.46459e+12 -5.94676e+12 -6.36348e+12 -6.24596e+12 -6.40951e+12 -6.62015e+12 -7.02324e+12 -7.24106e+12 -7.14347e+12 -6.90632e+12 -6.07894e+12 -6.6414e+12 -4.77709e+12 -4.76809e+12 -4.77159e+12 -7.3526e+12 -7.44957e+12 -7.33317e+12 -7.09338e+12 -6.90999e+12 -6.75627e+12 -6.45348e+12 -6.51318e+12 -6.44727e+12 -7.12098e+12 -6.54602e+12 -6.00784e+12 -5.6039e+12 -5.31215e+12 -4.99341e+12 -4.88952e+12 -4.90397e+12 -5.49207e+12 -3.65465e+12 -3.6475e+12 -4.48853e+12 -4.72388e+12 -4.77676e+12 -5.04402e+12 -5.89365e+12 -5.3111e+12 -4.78028e+12 -5.32562e+12 -5.72979e+12 -6.0267e+12 -6.47949e+12 -6.30754e+12 -6.32989e+12 -6.99489e+12 -6.89628e+12 -6.68015e+12 -6.71942e+12 -4.12844e+12 -4.73091e+12 -7.44296e+12 -7.30186e+12 -7.14367e+12 -6.85255e+12 -7.16181e+12 -7.10326e+12 -7.20117e+12 -6.47329e+12 -5.59771e+12 -6.31836e+12 -6.16905e+12 -5.94453e+12 -5.37428e+12 -5.12605e+12 -4.92514e+12 -4.84919e+12 -4.85498e+12 -5.21296e+12 -5.46036e+12 -4.01284e+12 -4.61039e+12 -4.67336e+12 -4.76132e+12 -4.87642e+12 -5.29077e+12 -5.93331e+12 -5.73988e+12 -5.92727e+12 -4.94904e+12 -5.15331e+12 -5.55399e+12 -5.85769e+12 -6.29245e+12 -6.26253e+12 -5.09165e+12 -6.51482e+12 -6.73267e+12 -7.1855e+12 -7.15221e+12 -6.82423e+12 -6.62754e+12 -6.83311e+12 -6.74467e+12 -3.99689e+12 -4.14711e+12 -4.56772e+12 -7.4659e+12 -7.4688e+12 -7.31187e+12 -7.15557e+12 -6.8472e+12 -6.4311e+12 -6.94225e+12 -6.76417e+12 -6.94229e+12 -6.71839e+12 -6.33626e+12 -5.70738e+12 -4.74892e+12 -5.6318e+12 -5.63682e+12 -5.14024e+12 -4.6588e+12 -4.841e+12 -4.83695e+12 -5.01191e+12 -5.15266e+12 -5.4429e+12 -5.24873e+12 -5.02232e+12 -4.63022e+12 -4.40306e+12 -4.5449e+12 -4.75171e+12 -5.02526e+12 -5.23216e+12 -5.89648e+12 -5.61566e+12 -5.42428e+12 -5.59235e+12 -5.9752e+12 -6.14118e+12 -6.17483e+12 -5.51453e+12 -6.21576e+12 -6.72742e+12 -6.82955e+12 -6.63378e+12 -6.69563e+12 -7.02858e+12 -7.23896e+12 -6.95311e+12 -6.97312e+12 -4.0844e+12 -4.35806e+12 -4.43831e+12 -7.34756e+12 -7.36482e+12 -7.2756e+12 -7.07946e+12 -7.17867e+12 -7.07063e+12 -7.22259e+12 -7.05383e+12 -6.94617e+12 -5.92184e+12 -6.76651e+12 -5.82014e+12 -5.46704e+12 -5.03928e+12 -4.76647e+12 -4.81298e+12 -4.96277e+12 -5.15521e+12 -4.90689e+12 -4.58835e+12 -4.6375e+12 -4.72318e+12 -4.84814e+12 -4.96717e+12 -5.45391e+12 -5.74536e+12 -5.37726e+12 -5.45396e+12 -5.79626e+12 -6.25935e+12 -6.351e+12 -4.46862e+12 -6.14542e+12 -6.9578e+12 -7.32068e+12 -6.97847e+12 -6.71216e+12 -7.34677e+12 -7.346e+12 -7.1737e+12 -7.03457e+12 -5.85278e+12 -4.52877e+12 -4.2884e+12 -7.08629e+12 -7.23171e+12 -7.20647e+12 -7.12138e+12 -6.84871e+12 -7.1373e+12 -6.99018e+12 -6.76444e+12 -6.91348e+12 -6.43014e+12 -6.44498e+12 -5.95634e+12 -5.68875e+12 -5.4132e+12 -4.45707e+12 -4.24951e+12 -4.61896e+12 -4.68785e+12 -5.0078e+12 -4.96303e+12 -4.98058e+12 -4.732e+12 -4.67216e+12 -4.6001e+12 -4.60001e+12 -4.64184e+12 -4.81203e+12 -5.04306e+12 -5.08349e+12 -5.49273e+12 -5.29197e+12 -5.28725e+12 -5.60856e+12 -6.02552e+12 -6.14881e+12 -6.51708e+12 -6.82555e+12 -5.43732e+12 -6.55802e+12 -7.0221e+12 -7.17904e+12 -6.88396e+12 -7.03268e+12 -7.4148e+12 -7.29907e+12 -7.20278e+12 -6.97748e+12 -7.00298e+12 -4.83799e+12 -4.63419e+12 -4.39694e+12 -4.32833e+12 -7.09414e+12 -6.98255e+12 -6.94529e+12 -7.26523e+12 -6.94398e+12 -6.78107e+12 -6.61611e+12 -6.03648e+12 -6.53224e+12 -6.65652e+12 -6.38918e+12 -6.1109e+12 -5.76397e+12 -5.43856e+12 -6.11152e+12 -5.52893e+12 -5.02679e+12 -2.98065e+12 -4.437e+12 -4.87428e+12 -4.96107e+12 -4.72389e+12 -4.59831e+12 -4.57537e+12 -4.7135e+12 -4.80393e+12 -4.8454e+12 -4.67845e+12 -4.94575e+12 -4.7318e+12 -5.30731e+12 -5.51953e+12 -5.78474e+12 -5.89815e+12 -6.07991e+12 -6.10441e+12 -6.06529e+12 -6.43277e+12 -6.66483e+12 -6.81159e+12 -6.91214e+12 -6.91367e+12 -7.09086e+12 -7.03987e+12 -6.98145e+12 -6.59749e+12 -6.75937e+12 -6.99172e+12 -4.26243e+12 -4.42295e+12 -7.10633e+12 -7.00803e+12 -6.99264e+12 -6.95006e+12 -7.03982e+12 -6.95553e+12 -6.81044e+12 -6.64667e+12 -6.55102e+12 -7.13274e+12 -6.79843e+12 -6.55438e+12 -6.42969e+12 -6.28547e+12 -6.08211e+12 -6.17637e+12 -6.93e+12 -6.31029e+12 -6.05523e+12 -4.9295e+12 -3.89418e+12 -5.39876e+12 -5.31337e+12 -4.94793e+12 -4.65793e+12 -4.574e+12 -4.52469e+12 -4.49085e+12 -4.58351e+12 -4.61068e+12 -4.88167e+12 -4.1829e+12 -4.06818e+12 -4.85794e+12 -5.19316e+12 -5.66494e+12 -5.80949e+12 -5.8602e+12 -6.11158e+12 -6.08845e+12 -5.70179e+12 -6.02707e+12 -6.25905e+12 -6.4279e+12 -6.65296e+12 -6.66733e+12 -6.63812e+12 -6.77565e+12 -6.74003e+12 -6.70395e+12 -5.90847e+12 -6.50371e+12 -6.8207e+12 -4.27082e+12 -4.40452e+12 -6.95262e+12 -7.0532e+12 -6.94806e+12 -6.96242e+12 -6.98871e+12 -7.09915e+12 -6.01919e+12 -6.50211e+12 -6.70607e+12 -6.97219e+12 -6.80098e+12 -6.76782e+12 -6.47987e+12 -6.30646e+12 -6.16945e+12 -6.16468e+12 -6.52192e+12 -6.40216e+12 -5.86143e+12 -5.4764e+12 -5.19172e+12 -4.84057e+12 -4.94228e+12 -4.25291e+12 -5.83348e+12 -4.54234e+12 -4.57185e+12 -4.42841e+12 -4.53462e+12 -4.41674e+12 -4.46238e+12 -4.3631e+12 -4.50451e+12 -4.59323e+12 -4.42389e+12 -4.85235e+12 -5.9459e+12 -3.27578e+12 -4.44755e+12 -4.84377e+12 -5.40809e+12 -5.58263e+12 -5.68476e+12 -5.89872e+12 -5.73558e+12 -5.72152e+12 -5.93795e+12 -6.13187e+12 -6.30254e+12 -6.38712e+12 -6.47629e+12 -6.4603e+12 -7.06029e+12 -6.48775e+12 -6.70591e+12 -6.90233e+12 -4.25449e+12 -4.1728e+12 -4.28881e+12 -4.35618e+12 -6.83538e+12 -6.84933e+12 -6.74201e+12 -6.86233e+12 -6.8151e+12 -6.80117e+12 -7.07325e+12 -6.4286e+12 -6.32734e+12 -6.54503e+12 -6.52027e+12 -6.4548e+12 -6.42216e+12 -6.14476e+12 -6.00656e+12 -5.87584e+12 -6.04081e+12 -5.96534e+12 -5.78558e+12 -5.47638e+12 -5.05025e+12 -4.94638e+12 -4.74932e+12 -4.75785e+12 -5.0373e+12 -4.53785e+12 -4.42794e+12 -4.24865e+12 -4.32527e+12 -4.55531e+12 -4.67718e+12 -3.57367e+12 -4.48928e+12 -4.08411e+12 -4.59165e+12 -5.1275e+12 -5.34853e+12 -5.51817e+12 -5.74323e+12 -5.75654e+12 -5.16798e+12 -5.53908e+12 -5.84716e+12 -6.0276e+12 -6.4084e+12 -6.39744e+12 -6.29162e+12 -6.1151e+12 -6.57229e+12 -6.70095e+12 -6.9531e+12 -6.71534e+12 -6.8293e+12 -6.64224e+12 -4.00935e+12 -4.20225e+12 -6.71328e+12 -6.61434e+12 -6.73352e+12 -6.61863e+12 -6.65236e+12 -6.58048e+12 -6.53961e+12 -6.47156e+12 -6.36904e+12 -6.41712e+12 -6.15747e+12 -6.32275e+12 -6.09317e+12 -6.14887e+12 -5.68963e+12 -5.4233e+12 -5.63268e+12 -5.63071e+12 -5.55365e+12 -5.45208e+12 -5.26061e+12 -4.73188e+12 -4.6623e+12 -4.30563e+12 -2.58386e+12 -5.41851e+12 -4.54562e+12 -4.12214e+12 -4.17128e+12 -4.06884e+12 -4.28456e+12 -4.31022e+12 -4.87309e+12 -6.11016e+12 -4.71782e+12 -4.73413e+12 -4.87444e+12 -5.11134e+12 -5.31785e+12 -5.65399e+12 -5.76789e+12 -5.66142e+12 -4.00636e+12 -5.42657e+12 -6.13618e+12 -6.13991e+12 -5.92963e+12 -5.26518e+12 -6.27542e+12 -6.49891e+12 -6.54692e+12 -6.77524e+12 -6.47451e+12 -6.5904e+12 -6.45621e+12 -6.62655e+12 -3.93655e+12 -3.90184e+12 -3.95823e+12 -4.09793e+12 -6.47901e+12 -6.59257e+12 -6.48819e+12 -6.49185e+12 -6.3712e+12 -6.50948e+12 -6.41065e+12 -6.29274e+12 -6.42462e+12 -6.34328e+12 -6.30088e+12 -6.16687e+12 -6.13762e+12 -5.56893e+12 -6.08072e+12 -5.76034e+12 -5.7294e+12 -5.73739e+12 -4.27274e+12 -5.20629e+12 -5.35446e+12 -5.36582e+12 -5.33248e+12 -5.24724e+12 -5.08771e+12 -4.92944e+12 -4.61931e+12 -4.43751e+12 -3.8733e+12 -4.2916e+12 -2.88128e+12 -3.96547e+12 -4.10909e+12 -4.09714e+12 -3.85371e+12 -3.99498e+12 -4.41879e+12 -5.02434e+12 -4.50482e+12 -4.73268e+12 -4.91379e+12 -5.08711e+12 -5.52019e+12 -5.77096e+12 -6.15768e+12 -6.60778e+12 -4.88974e+12 -5.72778e+12 -5.9415e+12 -6.11303e+12 -6.27608e+12 -6.34486e+12 -6.96568e+12 -6.40198e+12 -6.42787e+12 -6.54044e+12 -5.47627e+12 -6.20098e+12 -6.45828e+12 -6.53245e+12 -6.51332e+12 -6.57994e+12 -3.8579e+12 -3.80182e+12 -6.37336e+12 -6.24005e+12 -6.36576e+12 -6.23762e+12 -6.36953e+12 -6.20687e+12 -6.27141e+12 -6.19117e+12 -6.22018e+12 -6.15898e+12 -6.14957e+12 -5.69046e+12 -5.42266e+12 -5.6887e+12 -5.96653e+12 -6.36749e+12 -5.28135e+12 -5.23927e+12 -5.1738e+12 -5.06203e+12 -4.91029e+12 -4.73651e+12 -4.16036e+12 -4.33971e+12 -3.82197e+12 -5.19718e+12 -4.27894e+12 -3.67731e+12 -3.82229e+12 -3.97791e+12 -4.25483e+12 -5.09891e+12 -4.50299e+12 -4.56975e+12 -4.59678e+12 -4.74595e+12 -4.87876e+12 -5.26231e+12 -5.46312e+12 -5.72326e+12 -6.10451e+12 -5.78117e+12 -5.45328e+12 -5.65497e+12 -5.82356e+12 -5.97992e+12 -6.13949e+12 -6.57744e+12 -6.69949e+12 -6.25796e+12 -6.30941e+12 -6.16342e+12 -6.90041e+12 -6.2255e+12 -6.47099e+12 -6.4206e+12 -6.48412e+12 -6.35561e+12 -3.80212e+12 -3.64962e+12 -6.14279e+12 -6.26884e+12 -6.17894e+12 -6.08749e+12 -6.0799e+12 -5.8279e+12 -6.07707e+12 -5.99857e+12 -6.17875e+12 -6.22145e+12 -6.31122e+12 -6.51917e+12 -6.26946e+12 -6.02532e+12 -3.81521e+12 -5.26787e+12 -5.63153e+12 -5.90774e+12 -5.23871e+12 -5.09395e+12 -5.29355e+12 -5.16602e+12 -5.08958e+12 -4.98862e+12 -4.86023e+12 -4.7064e+12 -4.56613e+12 -4.41052e+12 -2.50882e+12 -3.13929e+12 -3.7078e+12 -3.61775e+12 -3.46887e+12 -3.5949e+12 -3.60147e+12 -4.32536e+12 -4.29929e+12 -4.28137e+12 -4.43298e+12 -4.55e+12 -4.67469e+12 -5.01329e+12 -5.16116e+12 -5.33847e+12 -5.5629e+12 -5.65675e+12 -5.62534e+12 -5.20403e+12 -5.41345e+12 -5.53958e+12 -5.67042e+12 -5.8111e+12 -6.09693e+12 -6.27304e+12 -6.35066e+12 -6.26747e+12 -6.382e+12 -6.40822e+12 -6.67974e+12 -6.40894e+12 -6.29963e+12 -6.38448e+12 -6.24664e+12 -6.289e+12 -6.21919e+12 -3.74325e+12 -3.68521e+12 -3.39362e+12 -3.52026e+12 -5.99499e+12 -5.93881e+12 -6.07516e+12 -6.0025e+12 -6.05224e+12 -5.9381e+12 -5.87335e+12 -5.51376e+12 -5.65822e+12 -6.01894e+12 -6.10603e+12 -6.20456e+12 -6.34501e+12 -6.89848e+12 -5.08737e+12 -4.91337e+12 -5.33541e+12 -5.41707e+12 -5.25348e+12 -5.24892e+12 -5.15267e+12 -5.21476e+12 -4.909e+12 -4.78425e+12 -4.64725e+12 -4.50839e+12 -4.36513e+12 -4.20191e+12 -4.18363e+12 -3.92812e+12 -4.07548e+12 -4.2392e+12 -2.9977e+12 -3.02658e+12 -3.62187e+12 -3.37382e+12 -3.83633e+12 -4.09369e+12 -4.31378e+12 -4.7906e+12 -4.90952e+12 -5.04471e+12 -5.2033e+12 -5.30742e+12 -5.37479e+12 -5.21364e+12 -5.29703e+12 -5.38534e+12 -5.502e+12 -5.7128e+12 -5.90285e+12 -6.04647e+12 -6.16644e+12 -6.0983e+12 -6.18621e+12 -6.56568e+12 -6.2839e+12 -6.35619e+12 -6.21561e+12 -6.08958e+12 -6.14432e+12 -6.00367e+12 -6.08467e+12 -3.623e+12 -3.27415e+12 -5.83849e+12 -5.77979e+12 -5.8846e+12 -5.84276e+12 -5.87692e+12 -5.82992e+12 -5.72082e+12 -4.65731e+12 -4.83984e+12 -5.72208e+12 -5.85199e+12 -5.92562e+12 -5.99028e+12 -6.47485e+12 -5.99864e+12 -5.10771e+12 -4.98378e+12 -5.07247e+12 -4.86629e+12 -5.05443e+12 -5.23118e+12 -5.21921e+12 -5.14125e+12 -5.02786e+12 -4.69432e+12 -4.56667e+12 -4.44048e+12 -4.31304e+12 -4.18807e+12 -4.12151e+12 -4.00412e+12 -4.08159e+12 -3.72465e+12 -4.50982e+12 -3.01713e+12 -3.18759e+12 -2.12772e+12 -2.77116e+12 -2.62684e+12 -2.7703e+12 -3.28945e+12 -3.90981e+12 -4.44758e+12 -4.56913e+12 -4.68168e+12 -4.79431e+12 -4.91607e+12 -5.01253e+12 -5.38532e+12 -5.08994e+12 -5.13596e+12 -5.20799e+12 -5.35678e+12 -5.52883e+12 -5.68509e+12 -5.83168e+12 -6.00592e+12 -5.87196e+12 -6.11214e+12 -6.0169e+12 -6.10501e+12 -6.02427e+12 -6.06419e+12 -5.88758e+12 -5.93565e+12 -5.87071e+12 -5.94967e+12 -5.80135e+12 -3.55355e+12 -3.17571e+12 -5.53399e+12 -5.68252e+12 -5.62204e+12 -5.56037e+12 -5.72181e+12 -5.69997e+12 -5.77913e+12 -5.72277e+12 -6.25604e+12 -6.00021e+12 -5.38953e+12 -5.5793e+12 -5.64627e+12 -6.00301e+12 -5.70219e+12 -5.36253e+12 -4.61714e+12 -4.15401e+12 -5.2109e+12 -5.40763e+12 -5.17162e+12 -4.9794e+12 -4.82657e+12 -4.24636e+12 -4.14123e+12 -4.06132e+12 -3.97609e+12 -3.95866e+12 -3.80877e+12 -4.0266e+12 -3.22364e+12 -4.00159e+12 -2.14429e+12 -4.07173e+12 -2.48736e+12 -4.07951e+12 -4.79117e+12 -4.44774e+12 -4.16989e+12 -4.32823e+12 -4.455e+12 -4.56648e+12 -4.66955e+12 -4.75537e+12 -5.08106e+12 -5.14037e+12 -5.14985e+12 -5.00524e+12 -5.14871e+12 -5.30693e+12 -5.45639e+12 -5.66922e+12 -5.7886e+12 -5.53329e+12 -5.68083e+12 -5.86578e+12 -5.62078e+12 -5.72302e+12 -5.7597e+12 -5.86731e+12 -5.73107e+12 -5.79504e+12 -5.73612e+12 -5.63097e+12 -3.47464e+12 -3.38341e+12 -2.96987e+12 -3.08042e+12 -5.3912e+12 -5.4736e+12 -5.42119e+12 -5.52625e+12 -5.52531e+12 -5.6678e+12 -5.65578e+12 -5.56323e+12 -5.93352e+12 -6.02335e+12 -5.56713e+12 -5.4927e+12 -5.42553e+12 -5.62805e+12 -5.43176e+12 -5.26417e+12 -5.10722e+12 -4.90014e+12 -4.75971e+12 -5.49448e+12 -5.20365e+12 -4.88768e+12 -4.70568e+12 -4.57678e+12 -4.46394e+12 -4.35487e+12 -3.99964e+12 -3.92992e+12 -3.89051e+12 -3.8254e+12 -3.8982e+12 -3.70614e+12 -4.08377e+12 -4.49245e+12 -2.81213e+12 -3.95118e+12 -2.80003e+12 -3.53169e+12 -4.04467e+12 -4.08672e+12 -4.17041e+12 -4.26579e+12 -4.3635e+12 -4.45494e+12 -4.81905e+12 -4.87722e+12 -4.91941e+12 -4.92812e+12 -4.90869e+12 -4.93291e+12 -4.87741e+12 -5.0195e+12 -5.3296e+12 -5.44678e+12 -5.2752e+12 -5.38158e+12 -5.21464e+12 -5.43906e+12 -5.64414e+12 -5.68522e+12 -5.5739e+12 -5.60549e+12 -5.66439e+12 -5.51566e+12 -5.57244e+12 -5.45301e+12 -3.27892e+12 -2.85719e+12 -5.22074e+12 -5.17325e+12 -5.3353e+12 -5.29564e+12 -5.38184e+12 -5.39706e+12 -5.4626e+12 -5.3193e+12 -5.25565e+12 -5.56149e+12 -5.54549e+12 -5.62906e+12 -5.28678e+12 -5.14083e+12 -5.33556e+12 -5.17457e+12 -5.03496e+12 -4.91832e+12 -4.77183e+12 -4.5858e+12 -4.38013e+12 -4.12218e+12 -3.41685e+12 -4.83005e+12 -4.66689e+12 -4.51876e+12 -4.42074e+12 -4.3383e+12 -4.25276e+12 -4.16546e+12 -4.07746e+12 -3.86301e+12 -4.00472e+12 -3.7516e+12 -3.39545e+12 -3.54032e+12 -4.23888e+12 -4.40867e+12 -4.20009e+12 -4.05695e+12 -4.0716e+12 -4.12391e+12 -4.19264e+12 -4.26688e+12 -4.52986e+12 -4.58731e+12 -4.63656e+12 -4.6793e+12 -4.70463e+12 -4.7046e+12 -4.68706e+12 -4.68572e+12 -4.7184e+12 -4.99427e+12 -5.10665e+12 -5.18485e+12 -4.93617e+12 -5.05421e+12 -5.97713e+12 -5.7326e+12 -5.59203e+12 -5.38913e+12 -5.43775e+12 -5.33353e+12 -5.38794e+12 -5.19968e+12 -5.27873e+12 -5.12831e+12 -3.15041e+12 -2.73616e+12 -4.80709e+12 -5.02306e+12 -4.98411e+12 -5.14237e+12 -5.11057e+12 -5.26219e+12 -5.27331e+12 -5.37217e+12 -5.45021e+12 -5.41578e+12 -4.69197e+12 -5.14449e+12 -5.06826e+12 -5.4329e+12 -5.06744e+12 -5.01297e+12 -4.88051e+12 -4.76367e+12 -4.66602e+12 -4.56186e+12 -4.43072e+12 -4.25564e+12 -4.07271e+12 -3.88139e+12 -3.71929e+12 -4.35797e+12 -4.34337e+12 -4.27309e+12 -4.20947e+12 -4.14396e+12 -4.07373e+12 -4.00145e+12 -3.93189e+12 -3.86915e+12 -3.82422e+12 -3.78169e+12 -3.79021e+12 -3.7371e+12 -3.35189e+12 -3.74913e+12 -4.02375e+12 -4.07907e+12 -4.01744e+12 -3.98298e+12 -4.00552e+12 -4.04885e+12 -4.33209e+12 -4.38297e+12 -4.42484e+12 -4.46136e+12 -4.48781e+12 -4.49559e+12 -4.47834e+12 -4.43441e+12 -4.36139e+12 -4.28824e+12 -4.38715e+12 -4.7608e+12 -4.80945e+12 -4.84404e+12 -4.91297e+12 -4.52231e+12 -4.6731e+12 -4.02325e+12 -5.59039e+12 -5.42881e+12 -5.3789e+12 -5.16041e+12 -5.27278e+12 -5.07384e+12 -5.13016e+12 -5.01821e+12 -4.97671e+12 -2.99494e+12 -2.80676e+12 -2.45194e+12 -2.60113e+12 -4.57154e+12 -4.77085e+12 -4.73724e+12 -4.95077e+12 -4.92323e+12 -5.08813e+12 -5.12663e+12 -5.59429e+12 -5.80438e+12 -3.75662e+12 -4.75609e+12 -4.68993e+12 -4.94887e+12 -4.36346e+12 -4.82032e+12 -4.63153e+12 -4.5303e+12 -4.45394e+12 -4.38942e+12 -4.32376e+12 -4.24388e+12 -4.13491e+12 -4.00768e+12 -3.90516e+12 -3.90586e+12 -3.93337e+12 -4.15849e+12 -4.14019e+12 -4.08848e+12 -4.03348e+12 -3.97429e+12 -3.91412e+12 -3.8549e+12 -3.79867e+12 -3.75241e+12 -3.71452e+12 -3.69913e+12 -3.67471e+12 -3.7131e+12 -3.76482e+12 -3.68575e+12 -3.60148e+12 -3.41089e+12 -3.50956e+12 -3.55245e+12 -3.73387e+12 -3.84376e+12 -3.88036e+12 -3.87622e+12 -3.88427e+12 -4.10182e+12 -4.15457e+12 -4.1991e+12 -4.23571e+12 -4.26803e+12 -4.29425e+12 -4.30701e+12 -4.29853e+12 -4.2562e+12 -4.15047e+12 -3.90742e+12 -3.17728e+12 -5.39224e+12 -4.95754e+12 -4.65096e+12 -4.57684e+12 -4.64323e+12 -4.29359e+12 -5.26436e+12 -5.07748e+12 -5.09053e+12 -5.1061e+12 -4.80404e+12 -5.00693e+12 -4.84818e+12 -4.9237e+12 -4.87606e+12 -4.722e+12 -4.81566e+12 -2.59976e+12 -2.2952e+12 -4.32118e+12 -4.53234e+12 -4.50225e+12 -4.70697e+12 -4.67177e+12 -4.87793e+12 -4.85236e+12 -5.24404e+12 -5.3791e+12 -5.0208e+12 -4.48815e+12 -4.68639e+12 -4.52012e+12 -4.14837e+12 -4.10746e+12 -4.10569e+12 -4.09817e+12 -4.07858e+12 -4.04244e+12 -3.98639e+12 -3.91398e+12 -3.84727e+12 -3.83497e+12 -3.85804e+12 -3.87055e+12 -3.96563e+12 -3.95388e+12 -3.91616e+12 -3.86855e+12 -3.81795e+12 -3.76749e+12 -3.71827e+12 -3.67369e+12 -3.63589e+12 -3.61033e+12 -3.58872e+12 -3.59246e+12 -3.60596e+12 -3.57629e+12 -3.53457e+12 -3.46186e+12 -3.41536e+12 -3.49608e+12 -3.55818e+12 -3.64299e+12 -3.70059e+12 -3.91379e+12 -3.95221e+12 -3.99211e+12 -4.02885e+12 -4.06057e+12 -4.08934e+12 -4.11459e+12 -4.13304e+12 -4.13864e+12 -4.12379e+12 -4.072e+12 -3.94188e+12 -3.37286e+12 -4.85352e+12 -4.94825e+12 -4.58654e+12 -4.18091e+12 -3.84032e+12 -4.91649e+12 -4.49613e+12 -4.80562e+12 -4.97928e+12 -4.68386e+12 -4.74413e+12 -4.72069e+12 -4.79343e+12 -4.61722e+12 -4.72736e+12 -4.61105e+12 -4.56242e+12 -4.60682e+12 -4.35497e+12 -2.3908e+12 -2.13733e+12 -4.05446e+12 -4.02532e+12 -4.2825e+12 -4.24993e+12 -4.4734e+12 -4.44457e+12 -4.58684e+12 -4.5439e+12 -4.87604e+12 -4.9184e+12 -4.77834e+12 -4.17581e+12 -4.54122e+12 -4.39124e+12 -4.59009e+12 -4.91158e+12 -3.06353e+12 -3.54046e+12 -3.71257e+12 -3.79911e+12 -3.8356e+12 -3.83969e+12 -3.82129e+12 -3.78873e+12 -3.75164e+12 -3.73185e+12 -3.73417e+12 -3.73728e+12 -3.749e+12 -3.79001e+12 -3.71211e+12 -3.67002e+12 -3.62773e+12 -3.58685e+12 -3.54952e+12 -3.51921e+12 -3.49481e+12 -3.4832e+12 -3.47876e+12 -3.46165e+12 -3.43787e+12 -3.40201e+12 -3.37542e+12 -3.38429e+12 -3.4397e+12 -3.48613e+12 -3.73264e+12 -3.75129e+12 -3.77498e+12 -3.80613e+12 -3.8384e+12 -3.86822e+12 -3.89502e+12 -3.91933e+12 -3.94164e+12 -3.96126e+12 -3.97545e+12 -3.98028e+12 -3.9709e+12 -3.93918e+12 -3.81224e+12 -4.17128e+12 -4.06213e+12 -2.96744e+12 -5.39332e+12 -4.86642e+12 -4.58578e+12 -4.58212e+12 -4.55504e+12 -4.19949e+12 -4.29165e+12 -4.38662e+12 -4.47947e+12 -4.53828e+12 -4.3866e+12 -4.35222e+12 -4.45265e+12 -4.32043e+12 -4.33781e+12 -4.09515e+12 -2.20647e+12 -2.05679e+12 -1.98027e+12 -3.47964e+12 -3.7724e+12 -3.74976e+12 -3.99381e+12 -3.96889e+12 -4.22534e+12 -4.20213e+12 -4.38949e+12 -4.20571e+12 -4.53308e+12 -4.47527e+12 -4.57907e+12 -4.49937e+12 -4.89246e+12 -3.78667e+12 -4.34786e+12 -4.56102e+12 -2.73646e+12 -3.33272e+12 -3.52349e+12 -3.60857e+12 -3.64408e+12 -3.6507e+12 -3.64277e+12 -3.62751e+12 -3.61311e+12 -3.60528e+12 -3.60156e+12 -3.78256e+12 -3.75178e+12 -3.33134e+12 -3.53481e+12 -3.57398e+12 -3.6046e+12 -3.63086e+12 -3.6585e+12 -3.68685e+12 -3.71253e+12 -3.73542e+12 -3.75589e+12 -3.77423e+12 -3.79127e+12 -4.42823e+12 -4.39782e+12 -3.77454e+12 -4.4303e+12 -4.17262e+12 -4.00554e+12 -4.21497e+12 -3.16027e+12 -4.43024e+12 -4.24341e+12 -4.28808e+12 -3.86426e+12 -4.03022e+12 -4.17367e+12 -4.15055e+12 -4.10213e+12 -3.81386e+12 -1.92934e+12 -1.64287e+12 -1.81574e+12 -3.17082e+12 -3.45689e+12 -3.72893e+12 -3.71112e+12 -3.94974e+12 -3.93322e+12 -4.16793e+12 -4.081e+12 -4.14091e+12 -4.08056e+12 -4.45111e+12 -4.49669e+12 -4.76282e+12 -5.15653e+12 -3.04868e+12 -3.84518e+12 -3.84516e+12 -2.96387e+12 -3.30907e+12 -3.60148e+12 -3.60885e+12 -3.62762e+12 -3.6189e+12 -3.59396e+12 -3.56176e+12 -3.52666e+12 -3.49083e+12 -3.45579e+12 -3.42413e+12 -3.39695e+12 -3.37746e+12 -3.36392e+12 -3.3486e+12 -3.31043e+12 -3.29385e+12 -3.29393e+12 -3.31517e+12 -3.35267e+12 -3.38709e+12 -3.42163e+12 -3.45331e+12 -3.48222e+12 -3.50914e+12 -3.53493e+12 -3.55816e+12 -3.5784e+12 -3.80649e+12 -3.81767e+12 -3.82252e+12 -3.81895e+12 -3.79749e+12 -3.98735e+12 -4.062e+12 -4.1388e+12 -4.11139e+12 -4.39762e+12 -4.66715e+12 -3.79311e+12 -2.87767e+12 -3.8335e+12 -3.6479e+12 -4.83391e+12 -4.02005e+12 -3.78712e+12 -4.07049e+12 -4.22474e+12 -4.02805e+12 -3.90832e+12 -3.84463e+12 -3.54792e+12 -3.49573e+12 -1.77614e+12 -1.46018e+12 -2.84718e+12 -3.1474e+12 -3.13226e+12 -3.44348e+12 -3.43103e+12 -3.70183e+12 -3.70766e+12 -3.90243e+12 -3.77971e+12 -3.64099e+12 -3.56671e+12 -4.11044e+12 -4.18775e+12 -4.33518e+12 -4.49226e+12 -3.412e+12 -3.46028e+12 -3.48066e+12 -3.48607e+12 -3.48452e+12 -3.47877e+12 -3.47152e+12 -3.46505e+12 -3.46012e+12 -3.4596e+12 -3.46441e+12 -3.47103e+12 -3.46185e+12 -3.44149e+12 -3.41469e+12 -3.38484e+12 -3.35381e+12 -3.32354e+12 -3.29551e+12 -3.27195e+12 -3.2533e+12 -3.23675e+12 -3.2212e+12 -3.20579e+12 -3.19381e+12 -3.19102e+12 -3.2008e+12 -3.22169e+12 -3.24937e+12 -3.27699e+12 -3.30513e+12 -3.33253e+12 -3.35856e+12 -3.38271e+12 -3.59617e+12 -3.61152e+12 -3.62537e+12 -3.63841e+12 -3.65029e+12 -3.66017e+12 -3.6682e+12 -3.67896e+12 -3.78201e+12 -3.85544e+12 -3.8925e+12 -3.94182e+12 -3.9256e+12 -4.19836e+12 -4.20806e+12 -4.13236e+12 -4.31806e+12 -3.69253e+12 -2.76374e+12 -4.79489e+12 -4.47567e+12 -3.26963e+12 -2.58992e+12 -4.40101e+12 -4.17436e+12 -3.83536e+12 -3.65553e+12 -3.16166e+12 -3.10242e+12 -2.6175e+12 -1.57164e+12 -1.27073e+12 -2.50937e+12 -2.48461e+12 -2.82377e+12 -2.8027e+12 -3.1284e+12 -3.12993e+12 -3.42621e+12 -3.43857e+12 -3.74526e+12 -3.86136e+12 -2.56891e+12 -3.62489e+12 -3.71562e+12 -3.81201e+12 -4.28453e+12 -3.17087e+12 -3.48207e+12 -3.39537e+12 -3.1743e+12 -3.25596e+12 -3.29314e+12 -3.31464e+12 -3.32581e+12 -3.33125e+12 -3.33264e+12 -3.32987e+12 -3.32491e+12 -3.31907e+12 -3.31573e+12 -3.31571e+12 -3.31796e+12 -3.31855e+12 -3.30947e+12 -3.29197e+12 -3.26914e+12 -3.24323e+12 -3.2161e+12 -3.1893e+12 -3.1646e+12 -3.1433e+12 -3.12504e+12 -3.10916e+12 -3.0952e+12 -3.08457e+12 -3.08007e+12 -3.08385e+12 -3.09595e+12 -3.11454e+12 -3.13701e+12 -3.16056e+12 -3.18469e+12 -3.40422e+12 -3.42263e+12 -3.43831e+12 -3.45155e+12 -3.46286e+12 -3.47334e+12 -3.48341e+12 -3.49337e+12 -3.50462e+12 -3.52224e+12 -3.58221e+12 -3.64027e+12 -3.68427e+12 -3.72708e+12 -3.78979e+12 -3.99879e+12 -4.12039e+12 -4.16517e+12 -3.73349e+12 -2.14134e+12 -4.37486e+12 -3.9352e+12 -3.17697e+12 -4.07661e+12 -4.09878e+12 -3.74482e+12 -1.95976e+12 -4.25155e+12 -3.4585e+12 -4.66647e+12 -4.14668e+12 -3.49711e+12 -3.30102e+12 -2.68105e+12 -2.02191e+12 -1.32751e+12 -881706000000.0 -1.07629e+12 -1.82284e+12 -2.16368e+12 -2.13519e+12 -2.45748e+12 -2.79448e+12 -2.79982e+12 -3.13565e+12 -3.15159e+12 -3.47412e+12 -3.57652e+12 -4.14265e+12 -2.98897e+12 -3.15865e+12 -3.26862e+12 -3.87412e+12 -3.73003e+12 -3.55699e+12 -3.23663e+12 -3.25246e+12 -3.2224e+12 -3.11721e+12 -3.13588e+12 -3.15191e+12 -3.1647e+12 -3.17384e+12 -3.17983e+12 -3.18177e+12 -3.18005e+12 -3.17608e+12 -3.17232e+12 -3.17048e+12 -3.17068e+12 -3.17109e+12 -3.16876e+12 -3.15958e+12 -3.1442e+12 -3.12427e+12 -3.10146e+12 -3.07739e+12 -3.05362e+12 -3.03167e+12 -3.01227e+12 -2.9955e+12 -2.98128e+12 -2.97035e+12 -2.96419e+12 -2.96411e+12 -2.97052e+12 -2.98274e+12 -3.20834e+12 -3.23062e+12 -3.25067e+12 -3.26775e+12 -3.28187e+12 -3.29341e+12 -3.30272e+12 -3.31084e+12 -3.31873e+12 -3.32679e+12 -3.33662e+12 -3.35235e+12 -3.38818e+12 -3.42863e+12 -3.46579e+12 -3.50587e+12 -3.56628e+12 -3.71723e+12 -3.89436e+12 -4.13917e+12 -4.42435e+12 -3.3819e+12 -3.52219e+12 -3.53997e+12 -3.39375e+12 -2.96017e+12 -3.44585e+12 -2.92067e+12 -4.47716e+12 -4.21219e+12 -3.77659e+12 -3.26114e+12 -3.03014e+12 -2.83279e+12 -2.2737e+12 -2.09199e+12 -1.14931e+12 -1.10393e+12 -688707000000.0 -1.49258e+12 -1.77745e+12 -2.10133e+12 -2.07088e+12 -2.44301e+12 -2.44567e+12 -2.80827e+12 -2.81087e+12 -3.1982e+12 -3.29968e+12 -3.78769e+12 -3.90365e+12 -2.14935e+12 -2.56938e+12 -2.73192e+12 -3.30706e+12 -3.20958e+12 -3.27486e+12 -3.241e+12 -3.08455e+12 -3.0778e+12 -3.04708e+12 -2.9954e+12 -2.99716e+12 -3.00614e+12 -3.01578e+12 -3.02391e+12 -3.02921e+12 -3.03089e+12 -3.02996e+12 -3.02774e+12 -3.02597e+12 -3.02528e+12 -3.0252e+12 -3.02422e+12 -3.02022e+12 -3.01125e+12 -2.99746e+12 -2.97971e+12 -2.99932e+12 -3.01862e+12 -3.03902e+12 -3.05962e+12 -3.07946e+12 -3.09768e+12 -3.11348e+12 -3.12646e+12 -3.13673e+12 -3.14464e+12 -3.15087e+12 -3.15643e+12 -3.1621e+12 -3.16908e+12 -3.18018e+12 -3.20101e+12 -3.22571e+12 -3.25017e+12 -3.27713e+12 -3.31708e+12 -3.40073e+12 -3.51288e+12 -3.67844e+12 -3.90413e+12 -1.79776e+12 -3.13108e+12 -3.55624e+12 -3.21877e+12 -3.16127e+12 -3.06669e+12 -2.85009e+12 -2.12878e+12 -2.64951e+12 -3.55024e+12 -3.69673e+12 -3.52283e+12 -2.70542e+12 -2.48794e+12 -1.20768e+12 -1.48345e+12 -1.04832e+12 -1.56093e+12 -992705000000.0 -745514000000.0 -497177000000.0 -1.18097e+12 -1.4334e+12 -1.73339e+12 -1.6895e+12 -2.06486e+12 -2.4595e+12 -2.46523e+12 -2.81244e+12 -2.82169e+12 -3.39079e+12 -3.33569e+12 -1.83312e+12 -2.21278e+12 -2.79187e+12 -2.61759e+12 -3.03643e+12 -3.05698e+12 -3.01293e+12 -2.93197e+12 -2.90819e+12 -2.88125e+12 -2.85362e+12 -2.85256e+12 -2.85917e+12 -2.86724e+12 -2.87419e+12 -2.87874e+12 -2.88083e+12 -2.881e+12 -2.88047e+12 -2.95933e+12 -2.93782e+12 -2.91673e+12 -2.89722e+12 -2.87984e+12 -2.86494e+12 -2.85306e+12 -2.84515e+12 -2.84213e+12 -2.84443e+12 -2.85182e+12 -2.86353e+12 -2.87839e+12 -2.8951e+12 -2.9125e+12 -2.92966e+12 -2.94571e+12 -2.95995e+12 -2.97182e+12 -2.98112e+12 -2.98802e+12 -2.99298e+12 -2.99666e+12 -2.99996e+12 -3.00391e+12 -3.01019e+12 -3.11554e+12 -3.16454e+12 -3.22419e+12 -3.30871e+12 -2.10054e+12 -2.65844e+12 -2.90267e+12 -3.09902e+12 -2.81187e+12 -2.70798e+12 -2.4918e+12 -2.62577e+12 -3.02957e+12 -3.02739e+12 -2.906e+12 -2.12624e+12 -1.88613e+12 -1.58024e+12 -1.07101e+12 -1.24004e+12 -497908000000.0 -301647000000.0 -878990000000.0 -816009000000.0 -1.11379e+12 -1.0078e+12 -1.34966e+12 -1.295e+12 -1.65861e+12 -1.67498e+12 -2.08224e+12 -2.10528e+12 -2.45058e+12 -2.4153e+12 -2.81877e+12 -2.66807e+12 -2.56287e+12 -1.62465e+12 -2.36943e+12 -2.29892e+12 -2.99772e+12 -2.91625e+12 -2.86817e+12 -2.81821e+12 -2.76422e+12 -2.73933e+12 -2.71921e+12 -2.70516e+12 -2.70587e+12 -2.88013e+12 -2.87994e+12 -2.87938e+12 -2.87743e+12 -2.87267e+12 -2.86405e+12 -2.85133e+12 -2.83516e+12 -2.81673e+12 -2.79755e+12 -2.7789e+12 -2.76159e+12 -2.74621e+12 -2.7334e+12 -2.72392e+12 -2.71847e+12 -2.71748e+12 -2.72098e+12 -2.72858e+12 -2.73945e+12 -2.75254e+12 -2.76679e+12 -2.78122e+12 -2.79502e+12 -2.80747e+12 -2.81803e+12 -2.82637e+12 -3.02111e+12 -3.03388e+12 -3.04611e+12 -3.05927e+12 -3.07833e+12 -2.81439e+12 -2.28283e+12 -2.48097e+12 -2.60273e+12 -2.71428e+12 -2.86667e+12 -2.88058e+12 -2.51843e+12 -2.4257e+12 -2.42091e+12 -2.06297e+12 -2.94809e+12 -2.42706e+12 -2.43963e+12 -2.3224e+12 -1.55805e+12 -1.34096e+12 -1.09536e+12 -811331000000.0 -1.41096e+12 -746289000000.0 -298836000000.0 -102786000000.0 -262674000000.0 -577894000000.0 -527104000000.0 -717195000000.0 -859455000000.0 -1.23742e+12 -1.20629e+12 -1.71766e+12 -1.77844e+12 -2.11065e+12 -2.07474e+12 -2.00799e+12 -2.34261e+12 -2.15606e+12 -2.46344e+12 -1.9588e+12 -2.03716e+12 -2.73579e+12 -2.73349e+12 -2.68111e+12 -2.71182e+12 -2.71872e+12 -2.72464e+12 -2.72903e+12 -2.73178e+12 -2.73321e+12 -2.73403e+12 -2.7345e+12 -2.73446e+12 -2.73358e+12 -2.73106e+12 -2.72597e+12 -2.71749e+12 -2.70543e+12 -2.69049e+12 -2.67387e+12 -2.65685e+12 -2.64033e+12 -2.62498e+12 -2.61154e+12 -2.60082e+12 -2.59344e+12 -2.58978e+12 -2.59003e+12 -2.59404e+12 -2.60132e+12 -2.61105e+12 -2.62229e+12 -2.63408e+12 -2.83244e+12 -2.83649e+12 -2.83894e+12 -2.84032e+12 -2.84148e+12 -2.84362e+12 -2.84767e+12 -2.85186e+12 -2.85437e+12 -2.85584e+12 -2.85881e+12 -2.86672e+12 -2.87436e+12 -2.86996e+12 -2.36255e+12 -2.42288e+12 -2.47342e+12 -2.54602e+12 -2.59506e+12 -2.57759e+12 -2.33853e+12 -2.37036e+12 -2.78195e+12 -2.16594e+12 -1.92747e+12 -1.76357e+12 -963899000000.0 -866939000000.0 -766017000000.0 -723276000000.0 -693719000000.0 -164049000000.0 -384001000000.0 -111114000000.0 -223823000000.0 -459460000000.0 -536775000000.0 -807147000000.0 -737319000000.0 -1.2684e+12 -1.40423e+12 -1.80872e+12 -1.80237e+12 -1.63705e+12 -2.29058e+12 -1.67709e+12 -1.39549e+12 -1.79403e+12 -2.36919e+12 -2.46395e+12 -2.64963e+12 -2.61814e+12 -2.58767e+12 -2.571e+12 -2.55977e+12 -2.55491e+12 -2.55766e+12 -2.56344e+12 -2.56974e+12 -2.57549e+12 -2.58042e+12 -2.5841e+12 -2.58653e+12 -2.58814e+12 -2.58909e+12 -2.58918e+12 -2.58805e+12 -2.58515e+12 -2.57973e+12 -2.57121e+12 -2.55966e+12 -2.54588e+12 -2.53097e+12 -2.51582e+12 -2.5011e+12 -2.48755e+12 -2.47597e+12 -2.46708e+12 -2.46132e+12 -2.45889e+12 -2.45981e+12 -2.6456e+12 -2.65618e+12 -2.66528e+12 -2.67255e+12 -2.67783e+12 -2.68109e+12 -2.68259e+12 -2.68272e+12 -2.68185e+12 -2.68065e+12 -2.67972e+12 -2.67792e+12 -2.67345e+12 -2.66592e+12 -2.65648e+12 -2.64606e+12 -2.63084e+12 -2.60398e+12 -2.54675e+12 -2.36054e+12 -2.28353e+12 -2.31133e+12 -2.33565e+12 -2.34437e+12 -2.33029e+12 -2.30824e+12 -2.15178e+12 -2.39914e+12 -2.66045e+12 -1.76622e+12 -1.99911e+12 -1.4102e+12 -1.17348e+12 -551653000000.0 -332518000000.0 -308742000000.0 -186045000000.0 -176023000000.0 -140227000000.0 -375598000000.0 -147925000000.0 -199361000000.0 -480198000000.0 -643924000000.0 -964205000000.0 -1.51128e+12 -1.60901e+12 -1.63243e+12 -2.04381e+12 -2.19705e+12 -1.99657e+12 -1.53764e+12 -1.95833e+12 -2.46074e+12 -2.4488e+12 -2.43922e+12 -2.42605e+12 -2.41298e+12 -2.40567e+12 -2.40268e+12 -2.40369e+12 -2.40823e+12 -2.41443e+12 -2.42097e+12 -2.42745e+12 -2.43322e+12 -2.43755e+12 -2.44065e+12 -2.44288e+12 -2.44418e+12 -2.44422e+12 -2.44276e+12 -2.43945e+12 -2.43367e+12 -2.42512e+12 -2.41411e+12 -2.40147e+12 -2.46381e+12 -2.4704e+12 -2.47877e+12 -2.48802e+12 -2.49733e+12 -2.50604e+12 -2.51362e+12 -2.51968e+12 -2.52405e+12 -2.52662e+12 -2.52741e+12 -2.52662e+12 -2.52445e+12 -2.52102e+12 -2.51652e+12 -2.51044e+12 -2.50122e+12 -2.48756e+12 -2.46916e+12 -2.44566e+12 -2.41373e+12 -2.36775e+12 -2.29874e+12 -2.18532e+12 -2.18171e+12 -2.26036e+12 -2.11411e+12 -2.11813e+12 -2.12712e+12 -2.11868e+12 -2.13761e+12 -2.11607e+12 -2.2848e+12 -1.65138e+12 -1.61833e+12 -795299000000.0 -451756000000.0 -391258000000.0 -405838000000.0 -428961000000.0 -107558000000.0 -428119000000.0 -524990000000.0 -1.1512e+12 -1.32452e+12 -1.63202e+12 -1.73063e+12 -1.82547e+12 -2.30324e+12 -1.14826e+12 -2.15183e+12 -2.20022e+12 -2.22465e+12 -2.23698e+12 -2.24307e+12 -2.244e+12 -2.24309e+12 -2.24418e+12 -2.24732e+12 -2.25198e+12 -2.25838e+12 -2.2656e+12 -2.27323e+12 -2.28077e+12 -2.28706e+12 -2.29185e+12 -2.29564e+12 -2.29837e+12 -2.29963e+12 -2.38803e+12 -2.37442e+12 -2.36127e+12 -2.34935e+12 -2.33942e+12 -2.33199e+12 -2.32739e+12 -2.3257e+12 -2.32682e+12 -2.33044e+12 -2.33603e+12 -2.34284e+12 -2.35001e+12 -2.35689e+12 -2.36294e+12 -2.36777e+12 -2.37114e+12 -2.37295e+12 -2.37311e+12 -2.3716e+12 -2.36857e+12 -2.36391e+12 -2.35729e+12 -2.34829e+12 -2.33592e+12 -2.31862e+12 -2.29499e+12 -2.26341e+12 -2.22075e+12 -2.16169e+12 -2.0782e+12 -1.95939e+12 -1.82474e+12 -2.09318e+12 -2.1087e+12 -2.10955e+12 -1.92861e+12 -1.93109e+12 -1.91615e+12 -1.93196e+12 -1.90529e+12 -1.60516e+12 -1.71134e+12 -1.38551e+12 -1.1153e+12 -170240000000.0 -198082000000.0 -243172000000.0 -167680000000.0 -275771000000.0 -350693000000.0 -758190000000.0 -958844000000.0 -1.47827e+12 -1.44066e+12 -1.27919e+12 -1.03979e+12 -2.05165e+12 -2.2473e+12 -1.78027e+12 -1.87104e+12 -1.9355e+12 -1.98344e+12 -2.01909e+12 -2.04369e+12 -2.06025e+12 -2.07082e+12 -2.07834e+12 -2.08588e+12 -2.09321e+12 -2.10088e+12 -2.10913e+12 -2.11783e+12 -2.29937e+12 -2.29759e+12 -2.29389e+12 -2.28778e+12 -2.27927e+12 -2.26884e+12 -2.2572e+12 -2.24494e+12 -2.23259e+12 -2.2208e+12 -2.21031e+12 -2.2017e+12 -2.19535e+12 -2.19151e+12 -2.19016e+12 -2.1911e+12 -2.19402e+12 -2.1984e+12 -2.20347e+12 -2.20854e+12 -2.21308e+12 -2.21669e+12 -2.21904e+12 -2.22001e+12 -2.21953e+12 -2.21746e+12 -2.21374e+12 -1.89888e+12 -1.78177e+12 -1.61268e+12 -2.10936e+12 -1.99637e+12 -1.93722e+12 -1.90375e+12 -1.89705e+12 -1.75085e+12 -1.75316e+12 -1.69053e+12 -1.76936e+12 -1.49398e+12 -1.19662e+12 -902669000000.0 -445068000000.0 -127062000000.0 -271587000000.0 -580982000000.0 -1.15415e+12 -1.10943e+12 -1.46977e+12 -1.4944e+12 -2.0924e+12 -1.88071e+12 -1.7591e+12 -1.65915e+12 -1.67776e+12 -1.73576e+12 -1.78956e+12 -1.83252e+12 -1.86469e+12 -1.88824e+12 -2.12689e+12 -2.13508e+12 -2.14168e+12 -2.1472e+12 -2.15162e+12 -2.15433e+12 -2.15526e+12 -2.15472e+12 -2.15262e+12 -2.14847e+12 -2.14205e+12 -2.13363e+12 -2.12375e+12 -2.11292e+12 -2.10159e+12 -2.09028e+12 -2.07965e+12 -2.07029e+12 -2.06265e+12 -2.05704e+12 -2.0536e+12 -2.05222e+12 -2.05268e+12 -2.05466e+12 -2.05763e+12 -2.0609e+12 -2.20829e+12 -2.20066e+12 -2.19021e+12 -2.17612e+12 -2.15707e+12 -2.1313e+12 -2.09657e+12 -2.04949e+12 -1.98554e+12 -2.05003e+12 -1.91174e+12 -1.79169e+12 -1.69822e+12 -1.63088e+12 -1.73888e+12 -1.63058e+12 -1.48109e+12 -1.684e+12 -1.27375e+12 -1.55296e+12 -703742000000.0 -308269000000.0 -125131000000.0 -742572000000.0 -854217000000.0 -1.08899e+12 -1.16549e+12 -1.35256e+12 -1.46205e+12 -1.54774e+12 -1.90516e+12 -1.91883e+12 -1.93041e+12 -1.94079e+12 -1.95097e+12 -1.96113e+12 -1.97164e+12 -1.98165e+12 -1.99016e+12 -1.99751e+12 -2.00381e+12 -2.00827e+12 -2.0106e+12 -2.01126e+12 -2.01045e+12 -2.00785e+12 -2.00314e+12 -1.99643e+12 -1.98814e+12 -1.97872e+12 -1.96851e+12 -1.95789e+12 -1.94742e+12 -1.93768e+12 -1.92914e+12 -1.92214e+12 -2.0639e+12 -2.06625e+12 -2.06761e+12 -2.06773e+12 -2.06654e+12 -2.06394e+12 -2.05972e+12 -2.05375e+12 -2.04566e+12 -2.03472e+12 -2.02012e+12 -2.00078e+12 -1.97504e+12 -1.9407e+12 -1.89441e+12 -1.83181e+12 -1.74779e+12 -1.63701e+12 -1.46278e+12 -1.65642e+12 -1.53045e+12 -1.37956e+12 -1.63177e+12 -1.58514e+12 -1.59599e+12 -1.33803e+12 -1.4006e+12 -1.33101e+12 -1.10401e+12 -363337000000.0 -584192000000.0 -1.25123e+12 -1.73761e+12 -1.7212e+12 -1.85341e+12 -1.29981e+12 -1.76831e+12 -965611000000.0 -1.61223e+12 -1.66123e+12 -1.69796e+12 -1.72514e+12 -1.74619e+12 -1.76308e+12 -1.77737e+12 -1.79043e+12 -1.80269e+12 -1.81486e+12 -1.82677e+12 -1.83738e+12 -1.84671e+12 -1.85496e+12 -1.8614e+12 -1.86544e+12 -1.86745e+12 -1.86783e+12 -1.86647e+12 -1.86312e+12 -1.85781e+12 -1.8509e+12 -1.91694e+12 -1.91357e+12 -1.91187e+12 -1.9116e+12 -1.91246e+12 -1.91391e+12 -1.91535e+12 -1.91638e+12 -1.91669e+12 -1.91597e+12 -1.91406e+12 -1.91088e+12 -1.90625e+12 -1.89992e+12 -1.8916e+12 -1.88073e+12 -1.86648e+12 -1.84789e+12 -1.82358e+12 -1.7917e+12 -1.74956e+12 -1.69318e+12 -1.61759e+12 -1.5163e+12 -1.35217e+12 -1.93019e+12 -1.79541e+12 -1.53618e+12 -1.45712e+12 -1.38937e+12 -1.46062e+12 -1.57527e+12 -1.19369e+12 -1.16971e+12 -972921000000.0 -593402000000.0 -221099000000.0 -300820000000.0 -759059000000.0 -1.02624e+12 -987093000000.0 -1.85282e+12 -751763000000.0 -1.21316e+12 -1.5071e+12 -1.18201e+12 -1.30387e+12 -1.39065e+12 -1.45499e+12 -1.50375e+12 -1.54063e+12 -1.5692e+12 -1.5919e+12 -1.61047e+12 -1.62691e+12 -1.64191e+12 -1.65623e+12 -1.67029e+12 -1.6833e+12 -1.69494e+12 -1.70529e+12 -1.71379e+12 -1.71979e+12 -1.72341e+12 -1.84276e+12 -1.83366e+12 -1.82385e+12 -1.81377e+12 -1.80392e+12 -1.79478e+12 -1.78673e+12 -1.78007e+12 -1.77497e+12 -1.77139e+12 -1.76911e+12 -1.76793e+12 -1.76753e+12 -1.7674e+12 -1.76706e+12 -1.76622e+12 -1.76461e+12 -1.76198e+12 -1.75818e+12 -1.75311e+12 -1.74653e+12 -1.73813e+12 -1.72749e+12 -1.71395e+12 -1.6967e+12 -1.67466e+12 -1.64634e+12 -1.60987e+12 -1.5624e+12 -1.49981e+12 -1.41551e+12 -1.26506e+12 -1.77315e+12 -1.64911e+12 -1.50891e+12 -1.37552e+12 -1.23669e+12 -1.29728e+12 -1.19856e+12 -1.3228e+12 -1.428e+12 -777798000000.0 -361200000000.0 -42044500000.0 -409889000000.0 -572246000000.0 -836634000000.0 -954485000000.0 -1.06902e+12 -600443000000.0 -1.07823e+12 -1.27539e+12 -885630000000.0 -1.06991e+12 -1.17554e+12 -1.2526e+12 -1.31054e+12 -1.35529e+12 -1.39028e+12 -1.4179e+12 -1.44043e+12 -1.46021e+12 -1.47828e+12 -1.49532e+12 -1.51193e+12 -1.72505e+12 -1.72477e+12 -1.72248e+12 -1.71829e+12 -1.7125e+12 -1.70547e+12 -1.6974e+12 -1.68843e+12 -1.67887e+12 -1.66913e+12 -1.65964e+12 -1.65079e+12 -1.64292e+12 -1.63631e+12 -1.63105e+12 -1.62701e+12 -1.62398e+12 -1.62175e+12 -1.62e+12 -1.61829e+12 -1.61622e+12 -1.6136e+12 -1.61021e+12 -1.60579e+12 -1.60022e+12 -1.59337e+12 -1.38522e+12 -1.32353e+12 -1.20738e+12 -1.59122e+12 -1.49663e+12 -1.34e+12 -1.20819e+12 -1.04671e+12 -1.43541e+12 -1.23817e+12 -1.20225e+12 -1.05465e+12 -1.18197e+12 -1.18222e+12 -1.09889e+12 -187599000000.0 -359809000000.0 -377144000000.0 -510973000000.0 -841203000000.0 -976213000000.0 -1.06043e+12 -1.12393e+12 -1.17316e+12 -1.21224e+12 -1.5276e+12 -1.54197e+12 -1.55491e+12 -1.56571e+12 -1.57381e+12 -1.57925e+12 -1.58231e+12 -1.5831e+12 -1.58167e+12 -1.57829e+12 -1.57335e+12 -1.56723e+12 -1.56008e+12 -1.55194e+12 -1.54297e+12 -1.53348e+12 -1.52383e+12 -1.51439e+12 -1.50551e+12 -1.49756e+12 -1.49075e+12 -1.48511e+12 -1.48045e+12 -1.58496e+12 -1.57462e+12 -1.56187e+12 -1.54609e+12 -1.52649e+12 -1.50201e+12 -1.47148e+12 -1.43335e+12 -1.39898e+12 -1.32166e+12 -1.22971e+12 -1.05006e+12 -877986000000.0 -1.28821e+12 -1.26182e+12 -1.05585e+12 -1.00107e+12 -1.0235e+12 -881476000000.0 -913625000000.0 -297638000000.0 -123564000000.0 -535420000000.0 -626080000000.0 -974862000000.0 -838996000000.0 -1.00354e+12 -1.08147e+12 -779301000000.0 -882806000000.0 -1.24321e+12 -1.2683e+12 -1.29051e+12 -1.31142e+12 -1.33145e+12 -1.35124e+12 -1.37018e+12 -1.38762e+12 -1.40346e+12 -1.41718e+12 -1.42777e+12 -1.43521e+12 -1.43983e+12 -1.44173e+12 -1.44105e+12 -1.43822e+12 -1.43382e+12 -1.42834e+12 -1.42198e+12 -1.41466e+12 -1.40637e+12 -1.39726e+12 -1.47652e+12 -1.47313e+12 -1.47e+12 -1.46671e+12 -1.46298e+12 -1.45869e+12 -1.45361e+12 -1.44752e+12 -1.44032e+12 -1.43184e+12 -1.42178e+12 -1.40978e+12 -1.39538e+12 -1.37806e+12 -1.35713e+12 -1.33186e+12 -1.30166e+12 -1.26575e+12 -1.22322e+12 -1.14237e+12 -1.12066e+12 -903784000000.0 -1.10166e+12 -978387000000.0 -1.08686e+12 -783740000000.0 -745422000000.0 -18402400000.0 -57045300000.0 -257246000000.0 -300583000000.0 -602797000000.0 -788901000000.0 -787866000000.0 -870180000000.0 -905540000000.0 -948260000000.0 -998731000000.0 -1.03842e+12 -1.07026e+12 -1.09612e+12 -1.1189e+12 -1.1413e+12 -1.16403e+12 -1.18722e+12 -1.21044e+12 -1.23204e+12 -1.25129e+12 -1.26812e+12 -1.28181e+12 -1.29164e+12 -1.29793e+12 -1.30101e+12 -1.30105e+12 -1.29852e+12 -1.29428e+12 -1.3876e+12 -1.37771e+12 -1.36794e+12 -1.35874e+12 -1.35048e+12 -1.34332e+12 -1.33715e+12 -1.33172e+12 -1.32679e+12 -1.32217e+12 -1.31762e+12 -1.31278e+12 -1.30746e+12 -1.30156e+12 -1.29491e+12 -1.28732e+12 -1.27866e+12 -1.26877e+12 -1.25738e+12 -1.24416e+12 -1.22877e+12 -1.21082e+12 -1.18985e+12 -1.16573e+12 -1.13857e+12 -1.10878e+12 -1.05027e+12 -1.20627e+12 -1.19859e+12 -1.07222e+12 -987665000000.0 -752617000000.0 -831450000000.0 -971124000000.0 -820475000000.0 -982496000000.0 -886751000000.0 -83557800000.0 -209026000000.0 -328363000000.0 -232966000000.0 -529826000000.0 -634921000000.0 -674052000000.0 -727415000000.0 -745108000000.0 -706597000000.0 -787142000000.0 -835949000000.0 -873308000000.0 -902365000000.0 -926195000000.0 -947940000000.0 -969621000000.0 -993224000000.0 -1.01881e+12 -1.04671e+12 -1.07377e+12 -1.09837e+12 -1.11911e+12 -1.13621e+12 -1.14911e+12 -1.28905e+12 -1.28325e+12 -1.27677e+12 -1.26929e+12 -1.26075e+12 -1.25126e+12 -1.24105e+12 -1.23046e+12 -1.21997e+12 -1.21022e+12 -1.2016e+12 -1.194e+12 -1.18719e+12 -1.18089e+12 -1.17485e+12 -1.16894e+12 -1.16295e+12 -1.15658e+12 -1.14973e+12 -1.14233e+12 -1.13424e+12 -1.12531e+12 -1.11543e+12 -1.10445e+12 -1.09215e+12 -1.07831e+12 -1.06272e+12 -1.04515e+12 -1.02555e+12 -1.00433e+12 -982429000000.0 -937870000000.0 -1.02346e+12 -1.03314e+12 -997046000000.0 -866823000000.0 -781683000000.0 -936742000000.0 -809068000000.0 -788787000000.0 -835803000000.0 -858366000000.0 -693791000000.0 -641065000000.0 -37951300000.0 -15693700000.0 -123254000000.0 -140822000000.0 -227412000000.0 -192072000000.0 -628555000000.0 -688372000000.0 -720625000000.0 -743532000000.0 -761394000000.0 -779172000000.0 -799755000000.0 -821185000000.0 -1.15736e+12 -1.1614e+12 -1.162e+12 -1.15966e+12 -1.15524e+12 -1.14971e+12 -1.14398e+12 -1.13819e+12 -1.13183e+12 -1.12422e+12 -1.1152e+12 -1.10487e+12 -1.09347e+12 -1.08153e+12 -1.07004e+12 -1.05989e+12 -1.05093e+12 -1.04282e+12 -1.03528e+12 -1.02799e+12 -1.02076e+12 -1.01351e+12 -851648000000.0 -865789000000.0 -842192000000.0 -797659000000.0 -632950000000.0 -836979000000.0 -651501000000.0 -725678000000.0 -755912000000.0 -658588000000.0 -613019000000.0 -601791000000.0 -49255100000.0 -44709400000.0 -90739000000.0 -101213000000.0 -149324000000.0 -424830000000.0 -504000000000.0 -548947000000.0 -588504000000.0 -599187000000.0 -545960000000.0 -585356000000.0 -846620000000.0 -877240000000.0 -909967000000.0 -942696000000.0 -969851000000.0 -991311000000.0 -1.00786e+12 -1.01878e+12 -1.02426e+12 -1.02469e+12 -1.0219e+12 -1.01697e+12 -1.01068e+12 -1.00434e+12 -998691000000.0 -993487000000.0 -987709000000.0 -979884000000.0 -969862000000.0 -957724000000.0 -943877000000.0 -1.00604e+12 -998167000000.0 -989841000000.0 -981047000000.0 -971683000000.0 -961640000000.0 -950834000000.0 -939165000000.0 -926498000000.0 -912716000000.0 -897761000000.0 -881597000000.0 -864537000000.0 -847415000000.0 -812081000000.0 -674773000000.0 -655930000000.0 -643562000000.0 -637847000000.0 -576853000000.0 -621867000000.0 -555245000000.0 -727655000000.0 -580317000000.0 -105754000000.0 -154834000000.0 -318820000000.0 -386660000000.0 -426548000000.0 -458180000000.0 -467118000000.0 -598389000000.0 -604407000000.0 -613749000000.0 -629403000000.0 -648539000000.0 -670917000000.0 -700470000000.0 -737637000000.0 -780540000000.0 -818476000000.0 -847553000000.0 -868809000000.0 -883190000000.0 -889799000000.0 -890727000000.0 -886723000000.0 -879563000000.0 -871837000000.0 -864198000000.0 -858127000000.0 -853432000000.0 -929994000000.0 -918132000000.0 -907832000000.0 -898547000000.0 -889867000000.0 -881467000000.0 -873066000000.0 -864546000000.0 -855868000000.0 -846902000000.0 -837546000000.0 -827826000000.0 -817770000000.0 -807332000000.0 -796452000000.0 -785087000000.0 -773194000000.0 -760720000000.0 -747670000000.0 -734214000000.0 -720395000000.0 -706653000000.0 -677969000000.0 -689787000000.0 -703175000000.0 -690059000000.0 -522991000000.0 -465776000000.0 -436716000000.0 -551696000000.0 -539527000000.0 -527234000000.0 -39602100000.0 -32167800000.0 -77631200000.0 -69919300000.0 -87846300000.0 -118112000000.0 -230691000000.0 -280063000000.0 -309033000000.0 -334949000000.0 -349539000000.0 -465365000000.0 -475489000000.0 -458979000000.0 -452303000000.0 -459030000000.0 -470067000000.0 -490994000000.0 -521220000000.0 -560686000000.0 -607989000000.0 -659385000000.0 -702539000000.0 -733252000000.0 -751723000000.0 -760347000000.0 -760616000000.0 -756283000000.0 -849754000000.0 -845601000000.0 -837163000000.0 -824727000000.0 -808130000000.0 -790101000000.0 -776138000000.0 -764508000000.0 -754209000000.0 -744573000000.0 -735200000000.0 -725787000000.0 -716125000000.0 -706192000000.0 -696001000000.0 -685498000000.0 -674687000000.0 -663668000000.0 -652518000000.0 -641250000000.0 -629862000000.0 -618358000000.0 -606739000000.0 -595013000000.0 -583316000000.0 -572245000000.0 -561579000000.0 -539686000000.0 -533088000000.0 -542382000000.0 -530830000000.0 -515199000000.0 -499488000000.0 -554142000000.0 -412641000000.0 -314752000000.0 -384528000000.0 -363207000000.0 -385865000000.0 -339894000000.0 -148219000000.0 -30554900000.0 -42586100000.0 -34958600000.0 -42213900000.0 -75358300000.0 -392709000000.0 -331611000000.0 -293104000000.0 -288965000000.0 -291134000000.0 -297573000000.0 -381447000000.0 -426062000000.0 -745734000000.0 -733552000000.0 -722748000000.0 -715886000000.0 -711491000000.0 -708214000000.0 -708282000000.0 -708570000000.0 -697736000000.0 -677102000000.0 -650171000000.0 -633445000000.0 -620565000000.0 -609513000000.0 -599233000000.0 -589128000000.0 -578873000000.0 -568231000000.0 -557121000000.0 -545622000000.0 -533809000000.0 -521729000000.0 -509505000000.0 -379577000000.0 -384190000000.0 -373056000000.0 -354977000000.0 -333218000000.0 -372898000000.0 -402903000000.0 -335724000000.0 -350275000000.0 -233002000000.0 -226997000000.0 -75567700000.0 -55501400000.0 -11826700000.0 -16799600000.0 -140751000000.0 -163903000000.0 -180443000000.0 -218473000000.0 -256786000000.0 -207789000000.0 -342712000000.0 -487235000000.0 -548201000000.0 -598411000000.0 -629272000000.0 -635693000000.0 -636245000000.0 -632132000000.0 -619384000000.0 -599384000000.0 -580253000000.0 -571112000000.0 -566770000000.0 -563987000000.0 -562270000000.0 -572891000000.0 -586962000000.0 -559175000000.0 -509189000000.0 -488926000000.0 -475137000000.0 -497305000000.0 -485263000000.0 -473460000000.0 -461951000000.0 -450767000000.0 -439907000000.0 -429372000000.0 -419458000000.0 -411998000000.0 -397198000000.0 -217280000000.0 -205807000000.0 -203269000000.0 -198703000000.0 -189045000000.0 -272298000000.0 -163435000000.0 -187455000000.0 -215774000000.0 -206454000000.0 -61507200000.0 -32635500000.0 -13517800000.0 -14175800000.0 -25999800000.0 -46259000000.0 -49834900000.0 -47922000000.0 -51371300000.0 -75020100000.0 -114882000000.0 -112132000000.0 -108736000000.0 -100149000000.0 -110025000000.0 -212527000000.0 -215626000000.0 -308876000000.0 -378798000000.0 -447067000000.0 -505319000000.0 -522644000000.0 -505341000000.0 -517860000000.0 -499209000000.0 -479709000000.0 -435595000000.0 -422962000000.0 -419301000000.0 -416403000000.0 -412715000000.0 -463888000000.0 -453513000000.0 -443124000000.0 -432317000000.0 -420889000000.0 -408736000000.0 -395938000000.0 -382679000000.0 -369117000000.0 -355425000000.0 -341841000000.0 -328610000000.0 -315933000000.0 -303960000000.0 -292782000000.0 -282401000000.0 -272685000000.0 -263443000000.0 -255096000000.0 -249630000000.0 -229695000000.0 -230586000000.0 -70697300000.0 -82740100000.0 -96392900000.0 -120144000000.0 -138701000000.0 -138848000000.0 -138299000000.0 -120741000000.0 -69828100000.0 -70379500000.0 -46262000000.0 -50714600000.0 -57512600000.0 -65666500000.0 -66679100000.0 -61247000000.0 -97166900000.0 -146994000000.0 -412056000000.0 -466048000000.0 -501927000000.0 -361659000000.0 -339107000000.0 -326162000000.0 -316198000000.0 -306811000000.0 -296937000000.0 -286105000000.0 -274188000000.0 -261167000000.0 -247139000000.0 -232357000000.0 -217101000000.0 -201649000000.0 -186319000000.0 -171459000000.0 -157400000000.0 -144425000000.0 -132750000000.0 -122462000000.0 -113383000000.0 -104841000000.0 -95400500000.0 -82967000000.0 -86589000000.0 -81400900000.0 -73404200000.0 -71799700000.0 -74065200000.0 -64402100000.0 -66338300000.0 -198812000000.0 -243075000000.0 -265047000000.0 -268412000000.0 -260492000000.0 -235821000000.0 -181843000000.0 -107898000000.0 
SCALARS Shear_Stress float 1
LOOKUP_TABLE default
9665760000.0 49805300000.0 22292900000.0 29666100000.0 19726500000.0 27696900000.0 446848000.0 37780500000.0 207287000.0 39644900000.0 47800300000.0 13810700000.0 23098300000.0 20284800000.0 65624400.0 48358900000.0 13195000000.0 753132000.0 20443100000.0 55645000000.0 133687000000.0 68153900000.0 138530000000.0 37482300000.0 28564900000.0 54279800000.0 16028800000.0 78984600000.0 88119500000.0 39672900000.0 37192300000.0 7042770000.0 6980940000.0 55427900000.0 1571560000.0 50045200000.0 72062900000.0 13244700000.0 52376500000.0 125115000000.0 172525000000.0 174950000000.0 28742200000.0 115927000000.0 110503000000.0 87019000000.0 124530000000.0 52846600000.0 47202500000.0 21119100000.0 49194700000.0 116034000000.0 119098000000.0 97843100000.0 156609000000.0 215100000000.0 185943000000.0 157595000000.0 127031000000.0 156321000000.0 207919000000.0 94842700000.0 139045000.0 7651860000.0 85089000000.0 68166900000.0 128337000000.0 122920000000.0 200693000000.0 192471000000.0 295104000000.0 283806000000.0 346481000000.0 225700000000.0 325909000000.0 257285000000.0 231089000000.0 221072000000.0 186003000000.0 157176000000.0 139823000000.0 9743740000.0 133756000000.0 38476500000.0 191351000000.0 229890000000.0 143816000000.0 155632000000.0 305258000000.0 254244000000.0 32917700000.0 95643700000.0 142879000000.0 196580000000.0 287959000000.0 316422000000.0 366551000000.0 299525000000.0 208321000000.0 147793000000.0 30357900000.0 82648900000.0 23841900000.0 235268000000.0 212857000000.0 11919700000.0 122224000000.0 164043000000.0 197343000000.0 262714000000.0 303452000000.0 297811000000.0 320968000000.0 238443000000.0 165029000000.0 115207000000.0 143831000000.0 144999000000.0 103600000000.0 193595000000.0 261315000000.0 197585000000.0 237410000000.0 209888000000.0 244927000000.0 247693000000.0 279359000000.0 295217000000.0 286245000000.0 285669000000.0 234334000000.0 228198000000.0 228688000000.0 263421000000.0 200835000000.0 185283000000.0 129066000000.0 119101000000.0 77032300000.0 80319400000.0 22275300000.0 270592000000.0 273052000000.0 371418000000.0 175852000000.0 271248000000.0 405057000000.0 287655000000.0 344156000000.0 286165000000.0 256914000000.0 268177000000.0 283997000000.0 251529000000.0 199477000000.0 196423000000.0 139182000000.0 74586100000.0 140762000000.0 1356170000.0 400677000000.0 636791000000.0 557752000000.0 674003000000.0 433484000000.0 354312000000.0 288132000000.0 265422000000.0 275323000000.0 263358000000.0 213722000000.0 183358000000.0 143061000000.0 76048600000.0 25543200000.0 329478000000.0 579794000000.0 249008000000.0 578608000000.0 430848000000.0 339631000000.0 304188000000.0 275032000000.0 259196000000.0 265903000000.0 257375000000.0 265050000000.0 242459000000.0 232569000000.0 201151000000.0 183749000000.0 151796000000.0 144823000000.0 85137900000.0 78910200000.0 10603600000.0 15706900000.0 37207600000.0 210307000000.0 31260900000.0 286842000000.0 447634000000.0 303665000000.0 435432000000.0 479594000000.0 511429000000.0 491279000000.0 408755000000.0 353210000000.0 259982000000.0 243870000000.0 239875000000.0 215139000000.0 168270000000.0 98889200000.0 12362000000.0 53717400000.0 286206000000.0 134672000000.0 193341000000.0 261110000000.0 86857800000.0 227486000000.0 475604000000.0 560681000000.0 419486000000.0 285306000000.0 226430000000.0 226032000000.0 216121000000.0 185765000000.0 121479000000.0 24851200000.0 62951800000.0 107017000000.0 92757500000.0 15579800000.0 24442400000.0 704963000000.0 486694000000.0 332549000000.0 237443000000.0 209574000000.0 167621000000.0 202632000000.0 177490000000.0 202722000000.0 175287000000.0 189954000000.0 161842000000.0 148574000000.0 85434900000.0 50270400000.0 43193100000.0 60963700000.0 142964000000.0 129266000000.0 177695000000.0 363918000000.0 301168000000.0 117128000000.0 45783800000.0 205656000000.0 135843000000.0 13526100000.0 514647000000.0 404720000000.0 398341000000.0 291163000000.0 118010000000.0 140954000000.0 144533000000.0 148746000000.0 122410000000.0 8723650000.0 143922000000.0 205710000000.0 436619000000.0 466519000000.0 253840000000.0 341650000000.0 242604000000.0 213397000000.0 3067300000.0 302667000000.0 176997000000.0 82993000000.0 103204000000.0 109287000000.0 124779000000.0 35822400000.0 126162000000.0 227455000000.0 239613000000.0 294631000000.0 388411000000.0 420058000000.0 40736300000.0 160836000000.0 275035000000.0 187012000000.0 75373300000.0 36658300000.0 35640500000.0 50824800000.0 18826300000.0 52039500000.0 12804400000.0 83994500000.0 67966900000.0 88551600000.0 44862600000.0 89167100000.0 234928000000.0 240357000000.0 311326000000.0 273863000000.0 275545000000.0 493770000000.0 598741000000.0 410712000000.0 411087000000.0 515522000000.0 486319000000.0 494753000000.0 265381000000.0 126705000000.0 406968000000.0 343356000000.0 124334000000.0 68941700000.0 11652900000.0 44842400000.0 212587000000.0 354083000000.0 316094000000.0 518361000000.0 674767000000.0 501479000000.0 583100000000.0 391398000000.0 24014500000.0 264358000000.0 532915000000.0 356635000000.0 163855000000.0 102024000000.0 28687700000.0 207493000000.0 385180000000.0 382071000000.0 272873000000.0 252528000000.0 499940000000.0 431469000000.0 596666000000.0 596790000000.0 7280160000.0 208586000000.0 457314000000.0 452306000000.0 347311000000.0 764379000000.0 515813000000.0 312726000000.0 260290000000.0 173990000000.0 169334000000.0 133060000000.0 193773000000.0 36730500000.0 498129000000.0 411043000000.0 686941000000.0 499641000000.0 305842000000.0 159208000000.0 688644000000.0 360564000000.0 470079000000.0 496773000000.0 723601000000.0 898274000000.0 574980000000.0 422070000000.0 335395000000.0 368829000000.0 349689000000.0 207698000000.0 146845000000.0 251738000000.0 869019000000.0 346397000000.0 133808000000.0 447774000000.0 659502000000.0 335207000000.0 499411000000.0 927892000000.0 182334000000.0 120345000000.0 261338000000.0 42559000000.0 119663000000.0 145622000000.0 297256000000.0 199992000000.0 236406000000.0 140880000000.0 121746000000.0 858441000000.0 180881000000.0 347815000000.0 15941600000.0 87524200000.0 37798800000.0 26291400000.0 387055000000.0 619340000000.0 247589000000.0 183297000000.0 267267000000.0 118304000000.0 390066000000.0 119044000000.0 174565000000.0 57210000000.0 20141300000.0 106682000000.0 95239200000.0 136217000000.0 5717490000.0 10502900000.0 10651400000.0 315377000000.0 97716500000.0 166872000000.0 129932000000.0 96591600000.0 148750000000.0 86384800000.0 334831000.0 815937000000.0 241059000000.0 122121000000.0 19633700000.0 31651000000.0 37553200000.0 232649000000.0 828625000000.0 563813000000.0 221231000000.0 235650000000.0 167286000000.0 344294000000.0 594582000000.0 88272400000.0 11897200000.0 14382900000.0 176920000000.0 691718000000.0 444804000000.0 247766000000.0 239273000000.0 141257000000.0 142925000000.0 51158200000.0 118229000000.0 76336300000.0 237725000000.0 248365000000.0 901490000000.0 258577000000.0 236020000000.0 203103000000.0 269743000000.0 261420000000.0 236229000000.0 216290000000.0 171886000000.0 336590000000.0 597609000000.0 96572000000.0 71269800000.0 44392400000.0 60243400000.0 49071100000.0 97881600000.0 322932000000.0 338856000000.0 226990000000.0 169190000000.0 224179000000.0 505548000000.0 764621000000.0 501873000000.0 391047000000.0 109931000000.0 211062000000.0 231305000000.0 185312000000.0 94435000000.0 78666700000.0 113711000000.0 46940500000.0 305143000000.0 289005000000.0 223068000000.0 225711000000.0 373902000000.0 531723000000.0 230760000000.0 120105000000.0 49373000000.0 109717000000.0 122024000000.0 197698000000.0 165768000000.0 191470000000.0 143978000000.0 368841000000.0 626969000000.0 122723000000.0 99535900000.0 121987000000.0 113217000000.0 131752000000.0 102218000000.0 684679000.0 165396000000.0 204101000000.0 282272000000.0 266703000000.0 265041000000.0 258516000000.0 240963000000.0 276363000000.0 306525000000.0 354964000000.0 435203000000.0 342357000000.0 82517900000.0 51013400000.0 111323000000.0 120509000000.0 435339000000.0 672115000000.0 138699000000.0 142113000000.0 99573300000.0 89358600000.0 220905000000.0 258863000000.0 265541000000.0 301527000000.0 338359000000.0 376982000000.0 251777000000.0 176595000000.0 81845200000.0 34687300000.0 52339600000.0 77678300000.0 65713100000.0 722845000000.0 160735000000.0 175194000000.0 155740000000.0 160599000000.0 138035000000.0 99356100000.0 23426500000.0 48867100000.0 141136000000.0 174412000000.0 230035000000.0 235590000000.0 256570000000.0 252983000000.0 270895000000.0 292343000000.0 270284000000.0 149753000000.0 38656100000.0 21727900000.0 346268000.0 30399500000.0 14332500000.0 27316700000.0 32367900000.0 525036000000.0 198274000000.0 182789000000.0 143232000000.0 36790700000.0 102339000000.0 196923000000.0 236086000000.0 237482000000.0 257638000000.0 218063000000.0 246572000000.0 181474000000.0 186724000000.0 88484000000.0 5297080000.0 43517500000.0 73847900000.0 627086000000.0 773877000000.0 207527000000.0 175826000000.0 102053000000.0 25653500000.0 142647000000.0 210914000000.0 226521000000.0 201666000000.0 156959000000.0 122923000000.0 128120000000.0 94139600000.0 46234200000.0 10635100000.0 45016400000.0 116224000000.0 105994000000.0 176327000000.0 138103000000.0 733019000000.0 823564000000.0 232958000000.0 236915000000.0 206482000000.0 190862000000.0 150098000000.0 106959000000.0 45991000000.0 11870400000.0 78778900000.0 123166000000.0 172936000000.0 194217000000.0 215323000000.0 207509000000.0 200638000000.0 153115000000.0 142879000000.0 88853400000.0 98958600000.0 51402500000.0 94417700000.0 197471000000.0 243140000000.0 265151000000.0 229127000000.0 159181000000.0 53037800000.0 65444600000.0 159811000000.0 206339000000.0 184645000000.0 79107900000.0 64042800000.0 26342800000.0 37463100000.0 43360400000.0 93676900000.0 36249000000.0 193255000000.0 274975000000.0 836050000000.0 871676000000.0 295678000000.0 264939000000.0 252363000000.0 207169000000.0 170696000000.0 113562000000.0 58922800000.0 3829150000.0 59354000000.0 113729000000.0 156963000000.0 189470000000.0 209047000000.0 144522000000.0 29092100000.0 106288000000.0 71337800000.0 47217500000.0 86453100000.0 157470000000.0 273354000000.0 286076000000.0 360299000000.0 338925000000.0 929600000000.0 918132000000.0 292828000000.0 225813000000.0 121843000000.0 480590000.0 112198000000.0 195992000000.0 213039000000.0 232152000000.0 202948000000.0 190513000000.0 85474500000.0 6260440000.0 187825000000.0 91408500000.0 11574000000.0 235324000000.0 358157000000.0 414320000000.0 9035750000.0 961583000000.0 324811000000.0 320928000000.0 277462000000.0 247843000000.0 185193000000.0 132324000000.0 64427400000.0 58513800000.0 162313000000.0 232274000000.0 249855000000.0 177724000000.0 93285400000.0 426385000000.0 690673000000.0 49745800000.0 66705300000.0 168928000000.0 286756000000.0 333421000000.0 383007000000.0 415489000000.0 460757000000.0 1.00841e+12 351717000000.0 305049000000.0 203549000000.0 70464900000.0 2375540000.0 61495200000.0 116620000000.0 173452000000.0 210380000000.0 257610000000.0 268095000000.0 306809000000.0 271562000000.0 306255000000.0 177607000000.0 222201000000.0 655150000000.0 204783000000.0 311859000000.0 429391000000.0 1.0711e+12 998899000000.0 375141000000.0 348650000000.0 335457000000.0 274220000000.0 146051000000.0 2931980000.0 125690000000.0 229105000000.0 305459000000.0 352931000000.0 367057000000.0 216314000000.0 372050000000.0 200835000000.0 296956000000.0 182221000000.0 43586900000.0 182015000000.0 194246000000.0 346080000000.0 407868000000.0 478815000000.0 1.12132e+12 9035750000.0 1.03103e+12 377391000000.0 305989000000.0 226861000000.0 163542000000.0 77900000000.0 2300420000.0 67790600000.0 139428000000.0 189114000000.0 250396000000.0 283436000000.0 355411000000.0 411437000000.0 472985000000.0 454320000000.0 943288000000.0 1.24704e+12 69243500000.0 266947000000.0 478833000000.0 1.06707e+12 395058000000.0 410439000000.0 370774000000.0 256229000000.0 87193000000.0 77779800000.0 209917000000.0 307271000000.0 335834000000.0 384554000000.0 408320000000.0 461752000000.0 484459000000.0 526579000000.0 533465000000.0 384743000000.0 319969000000.0 392074000000.0 752745000000.0 35388300000.0 183215000000.0 369789000000.0 475726000000.0 1.1657e+12 411549000000.0 418044000000.0 346073000000.0 293928000000.0 186380000000.0 96447100000.0 97606700.0 95369400000.0 160163000000.0 275451000000.0 355680000000.0 425504000000.0 492016000000.0 452598000000.0 223213000000.0 671094000000.0 518156000000.0 370223000000.0 92186900000.0 335704000000.0 1.207e+12 1.12054e+12 431318000000.0 450327000000.0 480379000000.0 396386000000.0 211554000000.0 8739930000.0 192720000000.0 239283000000.0 307342000000.0 329754000000.0 365219000000.0 390052000000.0 401005000000.0 445170000000.0 456732000000.0 309039000000.0 269754000000.0 334698000000.0 465941000000.0 282009000000.0 132331000000.0 318796000000.0 484224000000.0 1.22957e+12 9035750000.0 1.20413e+12 498824000000.0 465824000000.0 339052000000.0 238187000000.0 103382000000.0 39835400000.0 128010000000.0 281994000000.0 353605000000.0 373315000000.0 377113000000.0 422702000000.0 363389000000.0 369062000000.0 316340000000.0 350253000000.0 358156000000.0 174663000000.0 50425700000.0 151690000000.0 522840000000.0 1.35544e+12 479117000000.0 600689000000.0 564095000000.0 384717000000.0 72143900000.0 184826000000.0 243650000000.0 338818000000.0 349205000000.0 383301000000.0 368780000000.0 345575000000.0 320856000000.0 316255000000.0 338929000000.0 370364000000.0 373504000000.0 253168000000.0 11044300000.0 320317000000.0 622933000000.0 1.2146e+12 613933000000.0 719889000000.0 545358000000.0 330638000000.0 200454000000.0 26975000000.0 107842000000.0 311221000000.0 400118000000.0 377323000000.0 344787000000.0 278459000000.0 281341000000.0 195280000000.0 260978000000.0 242574000000.0 340143000000.0 394752000000.0 311695000000.0 91958100000.0 54466200000.0 169683000000.0 284127000000.0 1.20922e+12 1.57678e+12 910943000000.0 974669000000.0 499974000000.0 430195000000.0 38940100000.0 212228000000.0 264424000000.0 379471000000.0 401871000000.0 420984000000.0 329440000000.0 174301000000.0 112459000000.0 337919000000.0 355361000000.0 204978000000.0 174753000000.0 65039400000.0 181203000000.0 177497000000.0 749391000000.0 1.17421e+12 2.17551e+12 554396000000.0 502004000000.0 65907900000.0 80792400000.0 199585000000.0 183395000000.0 341152000000.0 454742000000.0 453432000000.0 465458000000.0 399982000000.0 340409000000.0 245463000000.0 137462000000.0 34905400000.0 73047400000.0 241827000000.0 418084000000.0 264346000000.0 42175300000.0 45603000000.0 179516000000.0 962513000000.0 922585000000.0 1.07586e+12 1.24731e+12 47465800000.0 18152200000.0 407045000000.0 276566000000.0 339157000000.0 316223000000.0 382686000000.0 422368000000.0 498331000000.0 436246000000.0 255596000000.0 23195900000.0 148303000000.0 407489000000.0 327465000000.0 61349100000.0 46338300000.0 48220900000.0 100728000000.0 194115000000.0 701089000000.0 352244000000.0 1.67427e+12 568850000000.0 714613000000.0 641212000000.0 525688000000.0 497063000000.0 570785000000.0 423336000000.0 376307000000.0 422084000000.0 477295000000.0 515980000000.0 509937000000.0 478812000000.0 371362000000.0 170680000000.0 77287700000.0 559865000000.0 230564000000.0 89528200000.0 20502400000.0 66769900000.0 22813600000.0 215228000000.0 307958000000.0 192397000000.0 531941000000.0 175689000000.0 453283000000.0 605870000000.0 138787000000.0 663655000000.0 1.11678e+12 767576000000.0 509626000000.0 422698000000.0 385662000000.0 447070000000.0 539583000000.0 413978000000.0 292735000000.0 232363000000.0 121184000000.0 143180000000.0 177366000000.0 93758300000.0 860159000000.0 82621200000.0 26690400000.0 115596000000.0 100776000000.0 1.04536e+12 245331000000.0 364465000000.0 533733000000.0 379720000000.0 367438000000.0 417430000000.0 386031000000.0 119706000000.0 292234000000.0 282136000000.0 513916000000.0 974838000000.0 545708000000.0 564151000000.0 631972000000.0 525593000000.0 416325000000.0 356971000000.0 365230000000.0 473088000000.0 513416000000.0 343942000000.0 216202000000.0 336814000000.0 197773000000.0 1.39887e+12 39401200000.0 412256000000.0 164738000000.0 394160000000.0 299935000000.0 602269000000.0 303254000000.0 76386200000.0 251909000000.0 307349000000.0 254760000000.0 431731000000.0 474211000000.0 350846000000.0 363986000000.0 204173000000.0 254839000000.0 366212000000.0 51188500000.0 144657000000.0 234347000000.0 695287000000.0 642771000000.0 491891000000.0 400176000000.0 244047000000.0 327710000000.0 294481000000.0 530310000000.0 502693000000.0 445789000000.0 388597000000.0 309356000000.0 327064000000.0 259067000000.0 122999000000.0 249756000000.0 189888000000.0 618102000000.0 122449000000.0 521962000000.0 592150000000.0 692300000000.0 364590000000.0 70663700000.0 202081000.0 173378000000.0 322501000000.0 691781000000.0 1.58256e+12 430058000000.0 446783000000.0 153153000000.0 264707000000.0 469104000000.0 182239000000.0 422541000000.0 110630000000.0 730703000000.0 530182000000.0 645319000000.0 788217000000.0 748691000000.0 599158000000.0 282652000000.0 61951500000.0 421316000000.0 411814000000.0 408382000000.0 287447000000.0 124408000000.0 296041000000.0 549718000000.0 353841000000.0 532196000000.0 624065000000.0 651703000000.0 610342000000.0 452228000000.0 26432100000.0 46988600000.0 127385000000.0 236118000000.0 557658000000.0 906094000000.0 61366100000.0 453007000000.0 154112000000.0 161230000000.0 330971000000.0 696473000000.0 54107500000.0 444264000000.0 51730400000.0 52632700000.0 620173000000.0 297984000000.0 767732000000.0 763262000000.0 727298000000.0 726255000000.0 533720000000.0 487179000000.0 96896400000.0 208185000000.0 243226000000.0 305787000000.0 395731000000.0 435694000000.0 516016000000.0 435893000000.0 410911000000.0 31568400000.0 1.28381e+12 241929000000.0 600367000000.0 681787000000.0 634057000000.0 654630000000.0 535039000000.0 287788000000.0 386321000000.0 145000000000.0 257252000000.0 291698000000.0 52040800000.0 481476000000.0 591133000000.0 725340000000.0 305044000000.0 98711900000.0 417103000000.0 340623000000.0 183646000000.0 61871700000.0 38522800000.0 411888000000.0 969627000000.0 76612600000.0 1.19613e+12 542338000000.0 631376000000.0 23942500000.0 744532000000.0 765715000000.0 524981000000.0 676648000000.0 794080000000.0 669491000000.0 378294000000.0 12916200000.0 386327000000.0 134232000000.0 532420000000.0 558936000000.0 395655000000.0 876663000000.0 21605500000.0 140888000000.0 16532500000.0 746489000000.0 537980000000.0 317310000000.0 332567000000.0 777148000000.0 945669000000.0 221995000000.0 709820000000.0 272460000000.0 1.0275e+12 165495000000.0 234820000000.0 8804870000.0 21395000000.0 273064000000.0 404497000000.0 119113000000.0 122305000000.0 346431000000.0 223577000000.0 107589000000.0 604777000000.0 71603700000.0 246734000000.0 433847000000.0 701468000000.0 882672000000.0 883001000000.0 630685000000.0 471261000000.0 707430000000.0 443243000000.0 636245000000.0 659235000000.0 574837000000.0 757342000000.0 923395000000.0 103947000000.0 502648000000.0 664316000000.0 313866000000.0 595162000000.0 642634000000.0 372980000000.0 103136000000.0 134682000000.0 826793000000.0 73374300000.0 408209000000.0 336179000000.0 299904000000.0 134523000000.0 269135000000.0 667296000000.0 403186000000.0 159547000000.0 329708000000.0 208554000000.0 334836000000.0 14379600000.0 58051700000.0 23105400000.0 24849100000.0 679566000000.0 881628000000.0 447666000000.0 552229000000.0 255492000000.0 385207000000.0 639547000000.0 1.46856e+12 870550000000.0 19764000000.0 660488000000.0 1.05818e+12 674760000000.0 625061000000.0 516011000000.0 321979000000.0 249515000000.0 456996000000.0 1.18291e+12 1.24587e+12 684959000000.0 732175000000.0 714568000000.0 856549000000.0 788098000000.0 396933000000.0 1.09118e+12 1.18727e+12 436734000000.0 196753000000.0 43305600000.0 552110000000.0 853802000000.0 158066000000.0 189173000000.0 785779000000.0 1.11801e+12 112794000000.0 484672000000.0 580820000000.0 314513000000.0 221155000000.0 408850000000.0 262085000000.0 234166000000.0 270411000000.0 390023000000.0 22120300000.0 26621000000.0 83123500000.0 46987700000.0 391033000000.0 536297000000.0 170326000000.0 833611000000.0 386489000000.0 39589700000.0 279772000000.0 462131000000.0 918606000000.0 379234000000.0 278248000000.0 245811000000.0 837425000000.0 1.00869e+12 733055000000.0 718310000000.0 759700000000.0 698243000000.0 510421000000.0 623944000000.0 1.13807e+12 878362000000.0 426166000000.0 52693900000.0 26155000000.0 1.77023e+12 53081900000.0 129246000000.0 18492100000.0 213736000000.0 519177000000.0 317086000000.0 76366800000.0 16695700000.0 132347000000.0 1.58509e+12 703005000000.0 258257000000.0 212804000000.0 235489000000.0 325743000000.0 182777000000.0 136319000000.0 280121000000.0 294655000000.0 192400000000.0 227812000000.0 153203000000.0 28877200000.0 135514000000.0 296993000000.0 2482190000.0 776451000000.0 1.34554e+12 572602000000.0 401776000000.0 196423000000.0 460868000000.0 535870000000.0 769622000000.0 983114000000.0 926561000000.0 877501000000.0 800481000000.0 611623000000.0 519531000000.0 347645000000.0 505209000000.0 972549000000.0 883212000000.0 482608000000.0 136613000000.0 49660300000.0 59631400000.0 157520000000.0 1.23967e+12 50860000000.0 237940000000.0 278032000000.0 382140000000.0 187739000000.0 53684900000.0 238120000000.0 380243000000.0 597283000000.0 191899000000.0 638888000000.0 402400000000.0 407636000000.0 365015000000.0 32528900000.0 312777000000.0 438013000000.0 541693000000.0 143058000000.0 25347700000.0 429051000000.0 1.0947e+12 896197000000.0 261859000000.0 305063000000.0 329877000000.0 619843000000.0 1.12726e+12 783881000000.0 157320000000.0 316730000000.0 1.21765e+12 293963000000.0 65523700000.0 528281000000.0 582691000000.0 862245000000.0 858115000000.0 710719000000.0 558381000000.0 342558000000.0 62805700000.0 656583000000.0 811127000000.0 376158000000.0 138408000000.0 178650000000.0 7193160000.0 151940000000.0 370180000000.0 294012000000.0 108044000000.0 308115000000.0 185340000000.0 74982200000.0 88193000000.0 82182700000.0 138444000000.0 255415000000.0 789556000000.0 322581000000.0 71592700000.0 60184100000.0 416431000000.0 10182200000.0 5537590000.0 85727500000.0 129914000000.0 197183000000.0 822580000000.0 525840000000.0 11102100000.0 142649000000.0 403074000000.0 696377000000.0 322111000000.0 81563900000.0 83985100000.0 370076000000.0 535092000000.0 310422000000.0 197402000000.0 152688000000.0 37832800000.0 17610800000.0 795451000000.0 528113000000.0 792475000000.0 517311000000.0 715625000000.0 877065000000.0 849467000000.0 765365000000.0 601090000000.0 414956000000.0 982251000000.0 576997000000.0 325291000000.0 112348000000.0 40417900000.0 218556000000.0 361551000000.0 189323000000.0 173948000000.0 711474000000.0 166695000000.0 133404000000.0 256531000000.0 367276000000.0 321459000000.0 236048000000.0 160493000000.0 9804310000.0 83968300000.0 1.09004e+12 620678000000.0 31469100000.0 336376000000.0 402488000000.0 29287500000.0 16591900000.0 22149600000.0 49610200000.0 137071000000.0 552376000000.0 392365000000.0 90241600000.0 146546000000.0 198235000000.0 188635000000.0 126080000000.0 191244000000.0 217981000000.0 291688000000.0 350184000000.0 81496300000.0 243172000000.0 20677000000.0 6423340000.0 320647000000.0 898140000000.0 1.1876e+12 1.64442e+12 376700000000.0 1.56533e+12 409689000000.0 430987000000.0 545184000000.0 716732000000.0 808974000000.0 821524000000.0 819367000000.0 301227000000.0 200764000000.0 710545000000.0 73300300000.0 1.47673e+12 383952000000.0 200287000000.0 42362200000.0 210499000000.0 378089000000.0 313234000000.0 236548000000.0 381079000000.0 82403300000.0 145850000000.0 341399000000.0 200795000000.0 380160000000.0 807883000000.0 395869000000.0 214961000000.0 221276000000.0 63883500000.0 306273000000.0 221143000000.0 358307000000.0 388427000000.0 54850600000.0 29128100000.0 48979300000.0 37888300000.0 126914000000.0 311348000000.0 393733000000.0 664291000000.0 167961000000.0 187462000000.0 58264800000.0 61601300000.0 253258000000.0 115349000000.0 164073000000.0 148225000000.0 161211000000.0 372128000000.0 330852000000.0 19783500000.0 414289000000.0 631517000000.0 899403000000.0 382494000000.0 223925000000.0 252068000000.0 647034000000.0 691592000000.0 843344000000.0 761233000000.0 707632000000.0 493523000000.0 278554000000.0 1.02222e+12 448587000000.0 32431800000.0 120133000000.0 262448000000.0 491425000000.0 572965000000.0 522683000000.0 275572000000.0 53522200000.0 241741000000.0 462774000000.0 492567000000.0 323261000000.0 731277000000.0 127716000000.0 586728000000.0 269774000000.0 78126500000.0 155996000000.0 302728000000.0 119457000000.0 317811000000.0 81508600000.0 65459800000.0 34909500000.0 34669800000.0 112368000000.0 255167000000.0 578234000000.0 622563000000.0 345976000000.0 7422670000.0 273692000000.0 222791000000.0 231028000000.0 677989000000.0 158168000000.0 38804700000.0 348157000000.0 497927000000.0 506090000000.0 328630000000.0 24288400000.0 416841000000.0 91978900000.0 449038000000.0 746907000000.0 195136000000.0 993137000000.0 499782000000.0 780620000000.0 751322000000.0 866289000000.0 910457000000.0 619509000000.0 466598000000.0 1.43118e+12 966450000000.0 218530000000.0 44162700000.0 73161000000.0 376013000000.0 547141000000.0 1.16361e+12 1.03027e+12 47099500000.0 421830000000.0 644871000000.0 1.03239e+12 1.2442e+12 183784000000.0 121294000000.0 144983000000.0 205564000000.0 177828000000.0 343512000000.0 380166000000.0 168325000000.0 182404000000.0 205704000000.0 178236000000.0 246937000000.0 179482000000.0 130947000000.0 119376000000.0 21199700000.0 9455770000.0 74789800000.0 176656000000.0 329039000000.0 460123000000.0 604494000000.0 744003000000.0 933316000000.0 226339000000.0 731079000000.0 11102700000.0 312063000000.0 630780000000.0 1.39327e+12 85893300000.0 724989000000.0 677566000000.0 612084000000.0 487640000000.0 269495000000.0 33446800000.0 268529000000.0 203881000000.0 122017000000.0 686073000000.0 382568000000.0 510083000000.0 39095300000.0 655763000000.0 650958000000.0 608319000000.0 863824000000.0 918258000000.0 715421000000.0 945078000000.0 489563000000.0 230475000000.0 64919600000.0 112432000000.0 69192600000.0 33448500000.0 250280000000.0 815439000000.0 147261000000.0 152521000000.0 56791900000.0 197607000000.0 673021000000.0 381807000000.0 193987000000.0 98946600000.0 243631000000.0 755338000000.0 507768000000.0 59870100000.0 122360000000.0 97661000000.0 168227000000.0 206676000000.0 118766000000.0 273786000000.0 280145000000.0 192470000000.0 208124000000.0 101845000000.0 46969100.0 59561800000.0 148202000000.0 458871000000.0 582856000000.0 729317000000.0 712738000000.0 53254700000.0 108574000000.0 116921000000.0 653283000000.0 550388000000.0 509103000000.0 383658000000.0 187842000000.0 33759200000.0 218044000000.0 448374000000.0 147779000000.0 762912000000.0 81518600000.0 565313000000.0 225175000000.0 583114000000.0 891068000000.0 640020000000.0 157848000000.0 841530000000.0 653358000000.0 540374000000.0 291102000000.0 124882000000.0 18476800000.0 40869300000.0 66156300000.0 285723000000.0 549405000000.0 128388000000.0 16585500000.0 11440700000.0 86436600000.0 234451000000.0 116721000000.0 104143000000.0 62514600000.0 253027000000.0 555303000000.0 476806000000.0 180005000000.0 62462500000.0 172556000000.0 189022000000.0 192973000000.0 204629000000.0 104929000000.0 335791000000.0 301609000000.0 344479000000.0 342425000000.0 229400000000.0 25828300000.0 13704000000.0 76066900000.0 204561000000.0 194978000000.0 126642000000.0 40461900000.0 1.0988e+12 227057000000.0 648304000000.0 439946000000.0 328037000000.0 747884000000.0 63000600000.0 114893000000.0 430162000000.0 488921000000.0 408692000000.0 284770000000.0 123245000000.0 53168100000.0 159193000000.0 213980000000.0 12382500000.0 304580000000.0 220848000000.0 571826000000.0 125280000000.0 731391000000.0 572050000000.0 166518000000.0 29089200000.0 282662000000.0 240465000000.0 190092000000.0 85908300000.0 10565600000.0 69202800000.0 161750000000.0 362562000000.0 281709000000.0 228545000000.0 486499000000.0 144367000000.0 50849000000.0 57506800000.0 91860000000.0 142909000000.0 148532000000.0 22010100000.0 178749000000.0 421519000000.0 933461000000.0 332561000000.0 144579000000.0 107762000000.0 90379100000.0 226334000000.0 222937000000.0 192847000000.0 210855000000.0 214341000000.0 52648700000.0 85199400000.0 346732000000.0 392120000000.0 373111000000.0 400431000000.0 281888000000.0 265100000000.0 488997000000.0 785277000000.0 65493800000.0 147541000000.0 159225000000.0 158097000000.0 215655000000.0 312968000000.0 694500000000.0 685991000000.0 79867900000.0 333269000000.0 205773000000.0 178423000000.0 239100000000.0 496530000000.0 293519000000.0 194848000000.0 67205300000.0 54390200000.0 154838000000.0 272872000000.0 157466000000.0 212298000000.0 693255000000.0 394051000000.0 469677000000.0 433696000000.0 99310300000.0 296761000000.0 383937000000.0 148937000000.0 64499800000.0 9991940000.0 101017000000.0 206640000000.0 368412000000.0 424272000000.0 232667000000.0 217370000000.0 80348100000.0 43095800000.0 36659000000.0 101717000000.0 147263000000.0 64208400000.0 97629700000.0 86586200000.0 272486000000.0 100881000000.0 27987300000.0 216572000000.0 190093000000.0 275499000000.0 228625000000.0 207493000000.0 186629000000.0 225681000000.0 34434600000.0 350393000000.0 409662000000.0 459424000000.0 466761000000.0 191198000000.0 279234000000.0 343894000000.0 915809000000.0 737085000000.0 185709000000.0 211956000000.0 233912000000.0 336340000000.0 614310000000.0 560307000000.0 264838000000.0 215298000000.0 185563000000.0 47366500000.0 81709100000.0 420114000000.0 445166000000.0 419470000000.0 363233000000.0 218000000000.0 138101000000.0 35287500000.0 72443200000.0 177442000000.0 197784000000.0 252922000000.0 59659300000.0 465230000000.0 238625000000.0 711557000000.0 720109000000.0 665538000000.0 152329000000.0 1.29614e+12 1.5578e+12 997671000000.0 454706000000.0 25486600000.0 66318000000.0 139032000000.0 241079000000.0 379923000000.0 469894000000.0 79929200000.0 33060300000.0 2434420000.0 13875200000.0 97357400000.0 160618000000.0 161168000000.0 111445000000.0 72688400000.0 45353100000.0 193272000000.0 30650400000.0 112707000000.0 394228000000.0 336718000000.0 339945000000.0 260323000000.0 185986000000.0 184720000000.0 173086000000.0 243278000000.0 27358700000.0 339562000000.0 346680000000.0 395857000000.0 443291000000.0 467451000000.0 570200000000.0 87461400000.0 31734800000.0 90033500000.0 855202000000.0 440018000000.0 308934000000.0 376387000000.0 624867000000.0 693665000000.0 268282000000.0 318817000000.0 164069000000.0 178838000000.0 554618000000.0 316287000000.0 280776000000.0 262209000000.0 20488100000.0 85498900000.0 156747000000.0 217860000000.0 174318000000.0 259821000000.0 177992000000.0 301733000000.0 560496000000.0 837774000000.0 782854000000.0 200890000000.0 162740000000.0 369999000000.0 509141000000.0 200999000000.0 143142000000.0 179055000000.0 261672000000.0 378715000000.0 477730000000.0 410478000000.0 236887000000.0 49929200000.0 142603000000.0 173221000000.0 207398000000.0 247815000000.0 364226000000.0 210054000000.0 323170000000.0 316997000000.0 201992000000.0 230233000000.0 33689400000.0 765354000000.0 505433000000.0 270643000000.0 206686000000.0 181223000000.0 152370000000.0 251513000000.0 238718000000.0 17153200000.0 26359600000.0 338346000000.0 362021000000.0 383263000000.0 521103000000.0 713495000000.0 632862000000.0 53336500000.0 6873410000.0 85483500000.0 216836000000.0 792541000000.0 281582000000.0 92475500000.0 591190000000.0 714660000000.0 631333000000.0 347580000000.0 79545000000.0 184311000000.0 818232000000.0 410875000000.0 288574000000.0 288427000000.0 266352000000.0 210296000000.0 124880000000.0 91728600000.0 179249000000.0 225818000000.0 303426000000.0 247757000000.0 531136000000.0 586045000000.0 464607000000.0 1.41024e+12 411752000000.0 1.54067e+12 858872000000.0 366617000000.0 99957600000.0 31696100000.0 133214000000.0 238983000000.0 356629000000.0 488149000000.0 410107000000.0 283977000000.0 172735000000.0 119739000000.0 122357000000.0 233647000000.0 305284000000.0 693482000000.0 510891000000.0 484145000000.0 386028000000.0 92246200000.0 1.28719e+12 709407000000.0 398829000000.0 171458000000.0 148087000000.0 153550000000.0 189050000000.0 186116000000.0 140845000000.0 192572000000.0 4860600000.0 349772000000.0 353054000000.0 339034000000.0 309286000000.0 406575000000.0 500969000000.0 960364000000.0 105362000000.0 132111000000.0 4578610000.0 288700000000.0 54013800000.0 232380000000.0 7311650000.0 422943000000.0 645760000000.0 725757000000.0 669570000000.0 501310000000.0 398218000000.0 482360000000.0 566551000000.0 186518000000.0 1.46014e+12 762296000000.0 527438000000.0 416029000000.0 325866000000.0 229768000000.0 122837000000.0 9677000000.0 480632000000.0 356490000000.0 734230000000.0 1.03701e+12 894032000000.0 236877000000.0 131919000000.0 302763000000.0 274025000000.0 105582000000.0 42091400000.0 176709000000.0 306111000000.0 460086000000.0 508038000000.0 491292000000.0 431607000000.0 361593000000.0 310528000000.0 290505000000.0 286315000000.0 243179000000.0 1.13761e+12 798621000000.0 564733000000.0 553825000000.0 604590000000.0 1.04619e+12 427227000000.0 239302000000.0 95904700000.0 124353000000.0 217282000000.0 170573000000.0 159322000000.0 144437000000.0 212957000000.0 122247000000.0 557456000.0 381277000000.0 364453000000.0 386239000000.0 327237000000.0 238434000000.0 275200000000.0 261238000000.0 329166000000.0 754675000000.0 1.22166e+12 254406000000.0 351890000000.0 695231000000.0 613808000000.0 172179000000.0 319878000000.0 591279000000.0 751860000000.0 804431000000.0 755560000000.0 650563000000.0 577611000000.0 561150000000.0 476241000000.0 499337000000.0 1.3499e+12 873965000000.0 620445000000.0 468619000000.0 344352000000.0 226584000000.0 106917000000.0 8841700000.0 115349000000.0 201067000000.0 285246000000.0 322541000000.0 452803000000.0 1.13271e+12 553775000000.0 180217000000.0 153960000000.0 216666000000.0 163045000000.0 32352700000.0 106397000000.0 419349000000.0 493910000000.0 518433000000.0 505945000000.0 481161000000.0 461205000000.0 456762000000.0 471247000000.0 450506000000.0 323009000000.0 214127000000.0 1.6861e+12 1.03434e+12 709265000000.0 582165000000.0 446689000000.0 1.05595e+12 71555500000.0 522630000000.0 180251000000.0 115472000000.0 120403000000.0 254726000000.0 304894000000.0 208966000000.0 165560000000.0 315474000000.0 20421300000.0 55266000000.0 3931280000.0 2388470000.0 383600000000.0 419972000000.0 441737000000.0 382081000000.0 330674000000.0 174225000000.0 182980000000.0 475141000000.0 1.02806e+12 63780000000.0 599641000000.0 653602000000.0 1.00771e+12 190523000000.0 92004200000.0 323508000000.0 600080000000.0 789876000000.0 885493000000.0 892148000000.0 825559000000.0 716932000000.0 606411000000.0 500853000000.0 480807000000.0 652671000000.0 1.03358e+12 803322000000.0 610062000000.0 462076000000.0 331817000000.0 205980000000.0 83135200000.0 33989200000.0 137971000000.0 230304000000.0 297836000000.0 380516000000.0 413827000000.0 375513000000.0 486889000000.0 704872000000.0 909736000000.0 834476000000.0 716841000000.0 371237000000.0 194833000000.0 161345000000.0 144388000000.0 65988100000.0 241958000000.0 363152000000.0 454235000000.0 507203000000.0 529666000000.0 534216000000.0 533432000000.0 542769000000.0 575333000000.0 627323000000.0 622888000000.0 129385000000.0 1.13896e+12 691600000000.0 579430000000.0 472076000000.0 1.24514e+12 84609800000.0 929182000000.0 348657000000.0 206737000000.0 111736000000.0 116999000000.0 409946000000.0 270884000000.0 172148000000.0 289202000000.0 437153000000.0 472900000000.0 106337000000.0 3978300000.0 379424000000.0 438375000000.0 486105000000.0 443045000000.0 384825000000.0 211793000000.0 160557000000.0 303209000000.0 644111000000.0 981596000000.0 976434000000.0 969670000000.0 1.58523e+12 397604000000.0 673099000000.0 863128000000.0 956084000000.0 972901000000.0 927985000000.0 832108000000.0 705869000000.0 578699000000.0 507555000000.0 551969000000.0 700171000000.0 861544000000.0 729329000000.0 573375000000.0 433107000000.0 303745000000.0 178836000000.0 57807100000.0 54631700000.0 155367000000.0 237402000000.0 310468000000.0 354724000000.0 362953000000.0 416834000000.0 533401000000.0 690438000000.0 761940000000.0 645259000000.0 482526000000.0 293132000000.0 187165000000.0 53066400000.0 181020000000.0 302369000000.0 402675000000.0 473098000000.0 516570000000.0 539134000000.0 546886000000.0 547428000000.0 548963000000.0 543639000000.0 479617000000.0 200832000000.0 600180000000.0 835506000000.0 639055000000.0 461358000000.0 22617100000.0 1.41698e+12 336586000000.0 711756000000.0 667733000000.0 428262000000.0 188334000000.0 730534000000.0 484025000000.0 161800000000.0 157888000000.0 380442000000.0 659508000000.0 562713000000.0 593218000000.0 127716000000.0 4197380000.0 363182000000.0 424655000000.0 441020000000.0 501527000000.0 524219000000.0 553567000000.0 217913000000.0 190677000000.0 232854000000.0 474398000000.0 795285000000.0 113968000000.0 1.16678e+12 430053000000.0 725429000000.0 1.39664e+12 242672000000.0 796262000000.0 956313000000.0 1.01541e+12 1.01808e+12 979456000000.0 901674000000.0 791162000000.0 668204000000.0 575306000000.0 551387000000.0 598724000000.0 693020000000.0 748964000000.0 396199000000.0 272353000000.0 151740000000.0 36653000000.0 69188300000.0 160281000000.0 236984000000.0 292350000000.0 325560000000.0 368570000000.0 439372000000.0 538516000000.0 615543000000.0 598438000000.0 483516000000.0 355706000000.0 131832000000.0 71443200000.0 21163400000.0 133524000000.0 247156000000.0 348124000000.0 427714000000.0 484528000000.0 519136000000.0 533166000000.0 529891000000.0 507903000000.0 453071000000.0 321166000000.0 69191500000.0 394681000000.0 749109000000.0 121231000000.0 811601000000.0 248783000000.0 366870000000.0 442447000000.0 384382000000.0 430746000000.0 24862600000.0 1.36222e+12 777981000000.0 357458000000.0 36319100000.0 551587000000.0 583841000000.0 909360000000.0 765678000000.0 537788000000.0 105193000000.0 49506000000.0 20647000000.0 304682000000.0 343275000000.0 407697000000.0 491235000000.0 560567000000.0 561985000000.0 635914000000.0 531743000000.0 203500000000.0 315327000000.0 531812000000.0 777670000000.0 408856000000.0 1.32092e+12 21664000000.0 730858000000.0 1.11387e+12 111690000000.0 848704000000.0 981767000000.0 1.00166e+12 979973000000.0 925555000000.0 841221000000.0 737773000000.0 643033000000.0 586507000000.0 582041000000.0 651006000000.0 523221000000.0 371148000000.0 236914000000.0 151555000000.0 79522300000.0 1401340000.0 97880900000.0 200907000000.0 298165000000.0 380944000000.0 444794000000.0 488029000000.0 510816000000.0 948577000000.0 905482000000.0 121564000000.0 509007000000.0 295180000000.0 159549000000.0 763799000000.0 3914700000.0 749928000000.0 368446000000.0 52599300000.0 333484000000.0 1.01484e+12 753870000000.0 897171000000.0 704732000000.0 446459000000.0 54679700000.0 55652200000.0 38067500000.0 262657000000.0 370268000000.0 466287000000.0 523980000000.0 639336000000.0 763080000000.0 736267000000.0 809055000000.0 213924000000.0 381181000000.0 614962000000.0 500022000000.0 392787000000.0 973173000000.0 20986200000.0 1.04721e+12 872303000000.0 198690000000.0 756853000000.0 616750000000.0 658563000000.0 663055000000.0 583173000000.0 473763000000.0 357324000000.0 240964000000.0 127638000000.0 20586500000.0 75865800000.0 158838000000.0 224453000000.0 272927000000.0 317746000000.0 437635000000.0 497992000000.0 512962000000.0 462048000000.0 367786000000.0 270856000000.0 180049000000.0 98938700000.0 18169100000.0 69361600000.0 162861000000.0 254676000000.0 336939000000.0 512823000000.0 491569000000.0 440499000000.0 341616000000.0 157184000000.0 377616000000.0 689656000000.0 793962000000.0 584256000000.0 509719000000.0 858312000000.0 452522000000.0 208664000000.0 1.3319e+12 828747000000.0 1.38983e+12 362180000000.0 50740400000.0 431509000000.0 1.05243e+12 964797000000.0 739253000000.0 573223000000.0 405503000000.0 308092000000.0 178377000000.0 74551100000.0 214908000000.0 324893000000.0 390636000000.0 435358000000.0 497890000000.0 578045000000.0 647389000000.0 965590000000.0 1.29693e+12 88416300000.0 300357000000.0 513645000000.0 555298000000.0 584790000000.0 822151000000.0 884658000000.0 918205000000.0 902281000000.0 851372000000.0 776993000000.0 695251000000.0 627954000000.0 593726000000.0 592190000000.0 607707000000.0 618477000000.0 596740000000.0 523752000000.0 426144000000.0 319861000000.0 212391000000.0 107693000000.0 9770260000.0 77794100000.0 151679000000.0 211059000000.0 261445000000.0 310162000000.0 361565000000.0 408630000000.0 431936000000.0 414303000000.0 357683000000.0 280511000000.0 200191000000.0 119805000000.0 39338900000.0 43955700000.0 130339000000.0 404392000000.0 454210000000.0 485024000000.0 495602000000.0 484649000000.0 448872000000.0 383314000000.0 290602000000.0 381467000000.0 552589000000.0 628337000000.0 537661000000.0 199367000000.0 540689000000.0 957616000000.0 941920000000.0 1.18043e+12 644579000000.0 236597000000.0 1.09902e+12 653551000000.0 252859000000.0 589530000000.0 1.17089e+12 1.30207e+12 588850000000.0 499070000000.0 250824000000.0 147298000000.0 39023900000.0 298417000000.0 78418500000.0 167094000000.0 211047000000.0 267135000000.0 341278000000.0 460762000000.0 524405000000.0 546587000000.0 580686000000.0 749008000000.0 904526000000.0 21776600000.0 490601000000.0 622327000000.0 738313000000.0 820505000000.0 218374000000.0 931822000000.0 705684000000.0 379578000000.0 672147000000.0 792953000000.0 833074000000.0 824176000000.0 782909000000.0 723968000000.0 663784000000.0 617166000000.0 591470000000.0 585437000000.0 586467000000.0 577040000000.0 540785000000.0 471378000000.0 382698000000.0 285605000000.0 186931000000.0 91432900000.0 2707310000.0 76116500000.0 143247000000.0 200155000000.0 250231000000.0 296349000000.0 336534000000.0 361704000000.0 360704000000.0 329604000000.0 274868000000.0 207432000000.0 134780000000.0 58501400000.0 216352000000.0 296425000000.0 365447000000.0 420153000000.0 458339000000.0 478595000000.0 480226000000.0 462058000000.0 423578000000.0 375480000000.0 410685000000.0 500278000000.0 549795000000.0 502954000000.0 352274000000.0 474927000000.0 713289000000.0 989472000000.0 393478000000.0 1.01479e+12 613237000000.0 389323000000.0 263561000000.0 770993000000.0 920662000000.0 604184000000.0 617777000000.0 1.09751e+12 19593600000.0 1.23155e+12 741405000000.0 363384000000.0 315674000000.0 125492000000.0 283829000000.0 370909000000.0 53663200000.0 72291500000.0 95683300000.0 119926000000.0 151286000000.0 274243000000.0 421812000000.0 510792000000.0 571141000000.0 603364000000.0 610069000000.0 669949000000.0 1.28857e+12 466855000000.0 660383000000.0 832548000000.0 966887000000.0 1.1534e+12 927615000000.0 527840000000.0 753274000000.0 644600000000.0 529656000000.0 668156000000.0 745198000000.0 771563000000.0 761449000000.0 727614000000.0 682766000000.0 638216000000.0 602831000000.0 580935000000.0 569349000000.0 558458000000.0 535682000000.0 491984000000.0 425366000000.0 343705000000.0 254921000000.0 164880000000.0 77987400000.0 2215100000.0 73492400000.0 135439000000.0 188987000000.0 235335000000.0 273763000000.0 300128000000.0 308164000000.0 293469000000.0 257122000000.0 20528600000.0 101508000000.0 182336000000.0 259384000000.0 328571000000.0 386586000000.0 431026000000.0 460474000000.0 474157000000.0 471742000000.0 455027000000.0 434035000000.0 450593000000.0 500069000000.0 535689000000.0 518825000000.0 447636000000.0 473452000000.0 540502000000.0 608347000000.0 709418000000.0 256769000000.0 682681000000.0 1.00881e+12 878530000000.0 488223000000.0 758159000000.0 76772600000.0 1.11511e+12 632836000000.0 425197000000.0 382224000000.0 292123000000.0 228231000000.0 158479000000.0 35347700000.0 527041000000.0 22529100000.0 39206600000.0 89660700000.0 102107000000.0 207271000000.0 288333000000.0 363512000000.0 468688000000.0 590761000000.0 646485000000.0 616039000000.0 735060000000.0 859306000000.0 1.2303e+12 239458000000.0 506220000000.0 812819000000.0 1.0093e+12 1.2249e+12 1.24899e+12 968797000000.0 699485000000.0 718775000000.0 648988000000.0 606218000000.0 670011000000.0 711872000000.0 724266000000.0 712519000000.0 684526000000.0 648907000000.0 613865000000.0 584940000000.0 563662000000.0 546669000000.0 526911000000.0 496068000000.0 448728000000.0 384625000000.0 308801000000.0 227321000000.0 204639000000.0 141963000000.0 73109400000.0 30047700.0 75774600000.0 152053000000.0 225960000000.0 294260000000.0 354001000000.0 402985000000.0 439949000000.0 464155000000.0 475533000000.0 476082000000.0 473318000000.0 488218000000.0 523297000000.0 556420000000.0 565751000000.0 552557000000.0 583446000000.0 654878000000.0 780988000000.0 1.17451e+12 866873000000.0 312811000000.0 781295000000.0 782688000000.0 925901000000.0 919406000000.0 639660000000.0 318322000000.0 273927000000.0 1.18983e+12 989923000000.0 587053000000.0 390495000000.0 262465000000.0 283455000000.0 338099000000.0 468023000000.0 184277000000.0 100729000000.0 153316000000.0 30983800000.0 97130800000.0 94707000000.0 146230000000.0 219774000000.0 402132000000.0 583445000000.0 691344000000.0 682707000000.0 744769000000.0 1.00868e+12 1.13544e+12 82596500000.0 611087000000.0 1.03609e+12 1.19213e+12 1.34926e+12 1.14367e+12 919747000000.0 745596000000.0 708051000000.0 659739000000.0 639763000000.0 666978000000.0 685920000000.0 687740000000.0 673647000000.0 648326000000.0 618080000000.0 588766000000.0 563394000000.0 145317000000.0 66651900000.0 5932450000.0 70818800000.0 127464000000.0 175914000000.0 215601000000.0 244290000000.0 258326000000.0 254560000000.0 232258000000.0 193494000000.0 142184000000.0 82214000000.0 16310800000.0 53536400000.0 125046000000.0 195536000000.0 262224000000.0 322524000000.0 374509000000.0 417039000000.0 449447000000.0 471864000000.0 486120000000.0 497543000000.0 675895000000.0 762566000000.0 903952000000.0 1.23591e+12 100327000000.0 344759000000.0 755223000000.0 730319000000.0 886136000000.0 705871000000.0 228752000000.0 538342000000.0 1.04681e+12 863668000000.0 596702000000.0 329884000000.0 154715000000.0 1288850000.0 395065000000.0 16052000000.0 132601000000.0 30081700000.0 81998400000.0 122718000000.0 114564000000.0 102698000000.0 81617000000.0 172675000000.0 309882000000.0 454786000000.0 544809000000.0 695347000000.0 780121000000.0 835468000000.0 963100000000.0 1.33845e+12 1.08832e+12 173030000000.0 887030000000.0 969494000000.0 1.18578e+12 1.06537e+12 978640000000.0 853275000000.0 747822000000.0 702770000000.0 666426000000.0 650817000000.0 657419000000.0 541470000000.0 520057000000.0 494242000000.0 458458000000.0 409323000000.0 347507000000.0 277037000000.0 202609000000.0 128168000000.0 56878500000.0 8927620000.0 67687400000.0 118422000000.0 160298000000.0 191938000000.0 211095000000.0 215414000000.0 203711000000.0 176652000000.0 136434000000.0 85942100000.0 27914200000.0 35269300000.0 101298000000.0 167695000000.0 231965000000.0 291842000000.0 517216000000.0 548685000000.0 582882000000.0 608990000000.0 629021000000.0 1.10111e+12 425104000000.0 440597000000.0 660471000000.0 796770000000.0 887268000000.0 915541000000.0 779441000000.0 576839000000.0 696838000000.0 623886000000.0 1.07623e+12 1.00975e+12 846955000000.0 573257000000.0 102027000000.0 174568000000.0 420918000000.0 467195000000.0 213039000000.0 55320900000.0 66215900000.0 55740400000.0 14145500000.0 46067100000.0 84308000000.0 161631000000.0 66562900000.0 267874000000.0 332534000000.0 631884000000.0 780090000000.0 830430000000.0 958945000000.0 970278000000.0 877757000000.0 1.19186e+12 1.47172e+12 675713000000.0 754494000000.0 965289000000.0 1.02373e+12 971377000000.0 661187000000.0 655057000000.0 639002000000.0 615810000000.0 589237000000.0 562979000000.0 538832000000.0 515762000000.0 491072000000.0 461060000000.0 422022000000.0 372487000000.0 313633000000.0 248414000000.0 180379000000.0 112730000000.0 48170800000.0 11141100000.0 63554800000.0 107754000000.0 142421000000.0 165992000000.0 176807000000.0 173635000000.0 156355000000.0 126160000000.0 85033000000.0 35243100000.0 20845800000.0 345562000000.0 391879000000.0 430260000000.0 461130000000.0 485972000000.0 508295000000.0 534440000000.0 567587000000.0 604177000000.0 638728000000.0 672907000000.0 723686000000.0 804020000000.0 925807000000.0 528362000000.0 643813000000.0 754515000000.0 863730000000.0 915812000000.0 886544000000.0 556880000000.0 380120000000.0 984597000000.0 1.07341e+12 711532000000.0 408567000000.0 136759000000.0 298434000000.0 279783000000.0 343149000000.0 160931000000.0 18930500000.0 77805100000.0 54962900000.0 6441910000.0 123290000000.0 155108000000.0 301547000000.0 382693000000.0 529130000000.0 667511000000.0 910601000000.0 959352000000.0 915756000000.0 1.03417e+12 950082000000.0 495381000000.0 601104000000.0 755282000000.0 935404000000.0 905614000000.0 817474000000.0 742064000000.0 696628000000.0 664022000000.0 647025000000.0 641849000000.0 635877000000.0 624240000000.0 606581000000.0 584489000000.0 560223000000.0 535758000000.0 511913000000.0 487594000000.0 460206000000.0 427271000000.0 386833000000.0 338178000000.0 282473000000.0 222106000000.0 159893000000.0 98531500000.0 40411800000.0 12425500000.0 58281700000.0 95658900000.0 123110000000.0 139269000000.0 143072000000.0 134104000000.0 80883200000.0 142542000000.0 203572000000.0 261919000000.0 315944000000.0 364560000000.0 407270000000.0 444213000000.0 476587000000.0 507081000000.0 539419000000.0 575683000000.0 614833000000.0 654279000000.0 694168000000.0 741202000000.0 799722000000.0 864505000000.0 899003000000.0 609881000000.0 742153000000.0 802614000000.0 861962000000.0 871634000000.0 804427000000.0 657810000000.0 545064000000.0 685631000000.0 882515000000.0 828167000000.0 920600000000.0 462645000000.0 171338000000.0 112764000000.0 180314000000.0 193220000000.0 16234400000.0 37292400000.0 60722200000.0 169028000000.0 89529200000.0 76567000000.0 362249000000.0 395411000000.0 522816000000.0 767347000000.0 823710000000.0 846321000000.0 546988000000.0 1.08035e+12 421714000000.0 179086000000.0 576346000000.0 952065000000.0 911520000000.0 853980000000.0 785633000000.0 726061000000.0 683808000000.0 653057000000.0 633078000000.0 620228000000.0 607818000000.0 592610000000.0 574080000000.0 552977000000.0 530373000000.0 507037000000.0 482923000000.0 457119000000.0 427943000000.0 393562000000.0 352804000000.0 305588000000.0 253120000000.0 197389000000.0 140681000000.0 112816000000.0 80486700000.0 38945900000.0 9749870000.0 63443000000.0 119936000000.0 177099000000.0 233023000000.0 286210000000.0 335616000000.0 380707000000.0 421620000000.0 459342000000.0 495618000000.0 532629000000.0 571982000000.0 613622000000.0 656115000000.0 698805000000.0 743261000000.0 789271000000.0 828008000000.0 827233000000.0 682543000000.0 623152000000.0 718487000000.0 787777000000.0 823532000000.0 823085000000.0 744172000000.0 662971000000.0 832311000000.0 682668000000.0 635614000000.0 673453000000.0 220753000000.0 9772660000.0 105700000000.0 217614000000.0 10062700000.0 76537600000.0 335406000000.0 207135000000.0 597181000000.0 637876000000.0 752188000000.0 720725000000.0 760631000000.0 1.04401e+12 372206000000.0 805209000000.0 880146000000.0 885038000000.0 853514000000.0 805591000000.0 750983000000.0 701349000000.0 662243000000.0 631991000000.0 609570000000.0 592354000000.0 576591000000.0 559853000000.0 541200000000.0 520863000000.0 499240000000.0 476293000000.0 451782000000.0 425035000000.0 85311900000.0 33478500000.0 12880300000.0 52104500000.0 82716700000.0 103370000000.0 112997000000.0 111035000000.0 97559600000.0 73335800000.0 39716800000.0 1591170000.0 48692900000.0 99598100000.0 152344000000.0 205154000000.0 256548000000.0 305486000000.0 351508000000.0 394646000000.0 435417000000.0 475031000000.0 515124000000.0 556781000000.0 600046000000.0 644235000000.0 688444000000.0 731731000000.0 771438000000.0 799899000000.0 799480000000.0 737925000000.0 690182000000.0 884513000000.0 776436000000.0 757876000000.0 814426000000.0 793674000000.0 753095000000.0 741800000000.0 779406000000.0 965416000000.0 699531000000.0 485788000000.0 422971000000.0 36494400000.0 81446100000.0 114701000000.0 36353500000.0 234902000000.0 165769000000.0 365833000000.0 443188000000.0 654967000000.0 712297000000.0 519492000000.0 570677000000.0 728729000000.0 552010000000.0 435415000000.0 562210000000.0 734134000000.0 807080000000.0 818461000000.0 796250000000.0 756989000000.0 711325000000.0 668080000000.0 631046000000.0 601205000000.0 578325000000.0 559963000000.0 543052000000.0 394756000000.0 359682000000.0 319310000000.0 274023000000.0 224962000000.0 173767000000.0 122375000000.0 72855000000.0 27205500000.0 12787300000.0 45556100000.0 69726700000.0 84178700000.0 88176800000.0 81510700000.0 64578300000.0 38341700000.0 4168990000.0 36328300000.0 81400600000.0 129263000000.0 178271000000.0 227053000000.0 274579000000.0 320241000000.0 363938000000.0 406078000000.0 756446000000.0 704213000000.0 598721000000.0 909496000000.0 748837000000.0 707668000000.0 709802000000.0 753940000000.0 779944000000.0 793868000000.0 782169000000.0 901042000000.0 956626000000.0 436064000000.0 341672000000.0 179183000000.0 61257400000.0 20941400000.0 255447000000.0 521730000000.0 571472000000.0 828666000000.0 413229000000.0 625734000000.0 394778000000.0 3162790000.0 277568000000.0 531880000000.0 687501000000.0 751146000000.0 760873000000.0 740762000000.0 705600000000.0 525644000000.0 507189000000.0 487513000000.0 466353000000.0 443523000000.0 418751000000.0 391347000000.0 360389000000.0 325268000000.0 285975000000.0 243053000000.0 197537000000.0 150858000000.0 104704000000.0 60905100000.0 21257100000.0 12607600000.0 39250700000.0 57474700000.0 66413200000.0 65627600000.0 55187100000.0 35700700000.0 8237570000.0 25844000000.0 65034300000.0 447446000000.0 488955000000.0 531343000000.0 574880000000.0 619177000000.0 663193000000.0 705185000000.0 741182000000.0 762788000000.0 872336000000.0 728686000000.0 662984000000.0 650586000000.0 681662000000.0 811085000000.0 785689000000.0 774964000000.0 854214000000.0 793918000000.0 894398000000.0 201350000000.0 134721000000.0 53619600000.0 352202000000.0 301969000000.0 456985000000.0 246346000000.0 455991000000.0 589569000000.0 673329000000.0 664422000000.0 624891000000.0 590986000000.0 563523000000.0 541729000000.0 523506000000.0 506602000000.0 489574000000.0 471736000000.0 452513000000.0 431548000000.0 408711000000.0 383663000000.0 355801000000.0 324655000000.0 290128000000.0 252494000000.0 212320000000.0 170502000000.0 128327000000.0 87336700000.0 49126900000.0 15246300000.0 12843500000.0 33838600000.0 46719500000.0 107755000000.0 152497000000.0 197965000000.0 243163000000.0 287444000000.0 330563000000.0 372643000000.0 414100000000.0 455567000000.0 497624000000.0 540342000000.0 583261000000.0 625463000000.0 665055000000.0 697963000000.0 716097000000.0 705649000000.0 650358000000.0 510067000000.0 625942000000.0 597829000000.0 579672000000.0 783375000000.0 710456000000.0 705626000000.0 742760000000.0 709341000000.0 737061000000.0 523129000000.0 234571000000.0 204025000000.0 230631000000.0 146793000000.0 221624000000.0 830123000000.0 279690000000.0 630765000000.0 244489000000.0 706349000000.0 704255000000.0 681125000000.0 647445000000.0 610018000000.0 574495000000.0 544128000000.0 519375000000.0 499616000000.0 483046000000.0 467520000000.0 451636000000.0 434478000000.0 415505000000.0 394599000000.0 371626000000.0 346245000000.0 318173000000.0 287391000000.0 254083000000.0 218591000000.0 181467000000.0 50859200000.0 46074300000.0 32659900000.0 11388200000.0 16615100000.0 50051600000.0 87554600000.0 127757000000.0 169436000000.0 211641000000.0 253697000000.0 295216000000.0 336146000000.0 376681000000.0 417107000000.0 457650000000.0 498304000000.0 538708000000.0 577917000000.0 613984000000.0 643374000000.0 659479000000.0 649929000000.0 594773000000.0 443342000000.0 797533000000.0 705798000000.0 715556000000.0 648918000000.0 636083000000.0 649295000000.0 745131000000.0 651580000000.0 653563000000.0 484430000000.0 180437000000.0 10674400000.0 136288000000.0 148938000000.0 297502000000.0 243919000000.0 251305000000.0 44682700000.0 437389000000.0 613412000000.0 474218000000.0 576472000000.0 629928000000.0 647256000000.0 639181000000.0 615026000000.0 582611000000.0 548371000000.0 516948000000.0 490909000000.0 470375000000.0 453773000000.0 439412000000.0 425790000000.0 411317000000.0 394846000000.0 376072000000.0 355053000000.0 331760000000.0 143542000000.0 105949000000.0 70023200000.0 37137600000.0 8648160000.0 14125700000.0 30018400000.0 38184200000.0 38202700000.0 30116100000.0 14428700000.0 7962250000.0 35930800000.0 68290100000.0 103853000000.0 141485000000.0 180240000000.0 219435000000.0 258628000000.0 297604000000.0 336338000000.0 374901000000.0 413332000000.0 451443000000.0 488627000000.0 523831000000.0 555387000000.0 580350000000.0 593596000000.0 586122000000.0 541169000000.0 394889000000.0 709016000000.0 678102000000.0 596140000000.0 526515000000.0 468663000000.0 619116000000.0 609158000000.0 655400000000.0 698423000000.0 445546000000.0 217993000000.0 18459200000.0 146204000000.0 146718000000.0 317226000000.0 319505000000.0 533961000000.0 241647000000.0 531054000000.0 513362000000.0 230329000000.0 440145000000.0 525606000000.0 566752000000.0 577128000000.0 566014000000.0 541343000000.0 510767000000.0 480663000000.0 454609000000.0 433851000000.0 418050000000.0 405394000000.0 306137000000.0 278293000000.0 248456000000.0 216910000000.0 184020000000.0 150318000000.0 116528000000.0 83546700000.0 52443300000.0 24435500000.0 813705000.0 17180600000.0 28513100000.0 32516300000.0 28993600000.0 18222400000.0 884309000.0 22058000000.0 49534600000.0 80502200000.0 113969000000.0 149032000000.0 184985000000.0 221344000000.0 257789000000.0 294141000000.0 514750000000.0 478000000000.0 353336000000.0 606886000000.0 650319000000.0 588717000000.0 498481000000.0 387215000000.0 689882000000.0 596872000000.0 582062000000.0 577942000000.0 665967000000.0 591350000000.0 565701000000.0 104182000000.0 95863400000.0 56625200000.0 214575000000.0 208216000000.0 385342000000.0 460508000000.0 493990000000.0 499595000000.0 486177000000.0 393883000000.0 381966000000.0 368327000000.0 352194000000.0 333427000000.0 312145000000.0 288587000000.0 263086000000.0 236009000000.0 207698000000.0 178492000000.0 148758000000.0 118886000000.0 89363100000.0 60817500000.0 34112100000.0 10399900000.0 8979480000.0 22750000000.0 29973100000.0 30229700000.0 23636600000.0 10723000000.0 330311000000.0 366150000000.0 401320000000.0 435162000000.0 466533000000.0 493619000000.0 513732000000.0 522892000000.0 513490000000.0 590406000000.0 578247000000.0 483034000000.0 333359000000.0 545368000000.0 527158000000.0 508448000000.0 547415000000.0 584324000000.0 470710000000.0 366609000000.0 17367800000.0 26258600000.0 259990000000.0 343203000000.0 375322000000.0 208435000000.0 401432000000.0 372888000000.0 191325000000.0 333787000000.0 462011000000.0 434326000000.0 408783000000.0 388750000000.0 374341000000.0 363934000000.0 355567000000.0 346963000000.0 336150000000.0 322509000000.0 305997000000.0 286777000000.0 265186000000.0 241722000000.0 216925000000.0 191258000000.0 165142000000.0 138946000000.0 112944000000.0 87244300000.0 61910600000.0 37311200000.0 7713050000.0 30719700000.0 57337300000.0 86688000000.0 117967000000.0 150473000000.0 183686000000.0 217245000000.0 250875000000.0 284340000000.0 317372000000.0 349557000000.0 380161000000.0 407998000000.0 431354000000.0 447804000000.0 453937000000.0 445085000000.0 414297000000.0 316739000000.0 512274000000.0 434166000000.0 508053000000.0 458256000000.0 497628000000.0 431825000000.0 423330000000.0 12614700000.0 7103270000.0 42501100000.0 118408000000.0 291717000000.0 345818000000.0 270064000000.0 335192000000.0 279426000000.0 394469000000.0 419107000000.0 418025000000.0 401914000000.0 378901000000.0 354933000000.0 335028000000.0 321574000000.0 313630000000.0 308921000000.0 304339000000.0 297370000000.0 286962000000.0 272890000000.0 255412000000.0 235380000000.0 213730000000.0 191018000000.0 167686000000.0 144250000000.0 14294900000.0 5838810000.0 21550100000.0 31464800000.0 34818500000.0 31615400000.0 22380600000.0 7834860000.0 11198200000.0 33850800000.0 59313100000.0 86877700000.0 115908000000.0 145862000000.0 176337000000.0 207023000000.0 237623000000.0 267799000000.0 297083000000.0 324758000000.0 349729000000.0 370418000000.0 384657000000.0 389627000000.0 382085000000.0 358403000000.0 284642000000.0 401119000000.0 525174000000.0 512306000000.0 472035000000.0 301203000000.0 411694000000.0 451170000000.0 404901000000.0 494901000000.0 480147000000.0 5334890000.0 52316600000.0 138472000000.0 65411400000.0 263297000000.0 299466000000.0 272013000000.0 278947000000.0 211270000000.0 173795000000.0 286057000000.0 330296000000.0 342639000000.0 333250000000.0 314162000000.0 293986000000.0 275206000000.0 261382000000.0 255123000000.0 254383000000.0 253777000000.0 250644000000.0 243562000000.0 232323000000.0 217401000000.0 121124000000.0 98647100000.0 76875500000.0 55419400000.0 33850200000.0 12319500000.0 8061660000.0 25402800000.0 37700900000.0 43654600000.0 43123800000.0 36763300000.0 25364800000.0 9703020000.0 9465880000.0 31410300000.0 55485300000.0 81139100000.0 107873000000.0 135258000000.0 162955000000.0 190653000000.0 217986000000.0 244483000000.0 269491000000.0 292076000000.0 310952000000.0 324367000000.0 330057000000.0 325532000000.0 308957000000.0 254118000000.0 310673000000.0 415729000000.0 451198000000.0 381599000000.0 261331000000.0 396796000000.0 366783000000.0 326025000000.0 379607000000.0 378472000000.0 352961000000.0 385090000000.0 8432490000.0 2765570000.0 40561100000.0 54244300000.0 76699800000.0 49041200000.0 152912000000.0 239778000000.0 265082000000.0 262393000000.0 246276000000.0 227396000000.0 211569000000.0 197416000000.0 199158000000.0 178630000000.0 157571000000.0 136614000000.0 115879000000.0 95654100000.0 76314000000.0 58075300000.0 40811000000.0 23333500000.0 4479110000.0 15480800000.0 34479500000.0 49372800000.0 57682400000.0 59098400000.0 54769600000.0 45700900000.0 32697000000.0 16436600000.0 2456360000.0 23405900000.0 240388000000.0 324488000000.0 359277000000.0 364998000000.0 244980000000.0 332429000000.0 300936000000.0 335205000000.0 355472000000.0 320370000000.0 291962000000.0 300247000000.0 13614100000.0 24734700000.0 41204300000.0 40203000000.0 42359500000.0 211856000000.0 244714000000.0 234686000000.0 220753000000.0 151502000000.0 130818000000.0 191167000000.0 190375000000.0 192044000000.0 195468000000.0 196330000000.0 192165000000.0 183675000000.0 170638000000.0 154437000000.0 136442000000.0 116514000000.0 96971000000.0 79147500000.0 62523900000.0 46692100000.0 31462300000.0 17520900000.0 4847660000.0 9475030000.0 27718700000.0 48482100000.0 66888100000.0 45923900000.0 69589300000.0 94003000000.0 118805000000.0 143679000000.0 168286000000.0 192182000000.0 214777000000.0 235288000000.0 252726000000.0 265910000000.0 273272000000.0 272870000000.0 263267000000.0 223404000000.0 253835000000.0 200035000000.0 220628000000.0 244065000000.0 253394000000.0 290770000000.0 266713000000.0 343256000000.0 211357000000.0 38730700000.0 45522700000.0 160182000000.0 192078000000.0 183299000000.0 156880000000.0 96049000000.0 191939000000.0 176988000000.0 162560000000.0 148006000000.0 136400000000.0 128379000000.0 123299000000.0 127482000000.0 133076000000.0 131127000000.0 125010000000.0 113922000000.0 98898800000.0 82513000000.0 67414400000.0 50998100000.0 33608800000.0 20007400000.0 9418200000.0 1333610000.0 13164800000.0 77875500000.0 80540600000.0 77295400000.0 69652200000.0 58521700000.0 44519600000.0 28142100000.0 9858130000.0 9901560000.0 30778500000.0 52444000000.0 74558900000.0 96797500000.0 118845000000.0 140333000000.0 160772000000.0 179518000000.0 195770000000.0 208658000000.0 217476000000.0 221155000000.0 218400000000.0 191384000000.0 183949000000.0 245158000000.0 264540000000.0 213378000000.0 203925000000.0 191096000000.0 260416000000.0 226926000000.0 189315000000.0 423133000.0 15336000000.0 35723400000.0 29707700000.0 22545000000.0 42675200000.0 117511000000.0 135267000000.0 118711000000.0 92291900000.0 46856600000.0 104331000000.0 129270000000.0 107769000000.0 97161500000.0 89364000000.0 77175300000.0 74215400000.0 70100700000.0 66062400000.0 64194200000.0 59012500000.0 53056300000.0 44753800000.0 29579200000.0 13583400000.0 1900960000.0 5808950000.0 23300200000.0 31186500000.0 44397500000.0 66378700000.0 90482500000.0 105464000000.0 108440000000.0 105157000000.0 97961300000.0 87879400000.0 75454100000.0 61032400000.0 44917800000.0 27445300000.0 8938610000.0 10322300000.0 30057600000.0 49964500000.0 69736100000.0 89053800000.0 107539000000.0 124706000000.0 139941000000.0 152544000000.0 161960000000.0 168551000000.0 171771000000.0 156822000000.0 137127000000.0 185014000000.0 200826000000.0 194317000000.0 164834000000.0 195060000000.0 188240000000.0 127515000000.0 174838000000.0 175457000000.0 175227000000.0 174428000000.0 1494680000.0 16156300000.0 25208000000.0 18686400000.0 13887500000.0 44993400000.0 62378100000.0 46939400000.0 33405600000.0 37223200000.0 29640300000.0 16787200000.0 33835500000.0 13926500000.0 15791100000.0 28482400000.0 36904600000.0 40846800000.0 47875000000.0 58720000000.0 65489700000.0 67842600000.0 86321100000.0 119790000000.0 142329000000.0 143777000000.0 138937000000.0 131164000000.0 121392000000.0 109911000000.0 96886000000.0 82452500000.0 66789700000.0 50151700000.0 32804700000.0 14996800000.0 3005300000.0 94374500000.0 132836000000.0 149089000000.0 153050000000.0 130774000000.0 108055000000.0 144315000000.0 144596000000.0 139599000000.0 131920000000.0 123266000000.0 31374700000.0 25236300000.0 10900000000.0 13240400000.0 93220200000.0 93671300000.0 66277500000.0 43440000000.0 16373300000.0 93695100000.0 32977000000.0 11699000000.0 33061000000.0 44258400000.0 56407100000.0 76701600000.0 83427900000.0 81161000000.0 79456100000.0 81379800000.0 84576300000.0 83786400000.0 85485800000.0 93260700000.0 107162000000.0 111108000000.0 109917000000.0 153179000000.0 191982000000.0 186923000000.0 178459000000.0 20907500000.0 38407800000.0 55194300000.0 70919800000.0 85177400000.0 97493500000.0 107365000000.0 114606000000.0 121826000000.0 118866000000.0 95967800000.0 101186000000.0 91096100000.0 75580400000.0 91241400000.0 108740000000.0 79004100000.0 90161100000.0 118757000000.0 123541000000.0 7416550000.0 9133090000.0 10958500000.0 12948700000.0 24876300000.0 44938700000.0 48371000000.0 44518900000.0 46989500000.0 48435800000.0 344868000.0 2873650000.0 5043170000.0 6457830000.0 7954720000.0 30070500000.0 19709000000.0 70654500000.0 112955000000.0 140827000000.0 153294000000.0 169249000000.0 191335000000.0 178474000000.0 164469000000.0 145673000000.0 136901000000.0 122780000000.0 119284000000.0 123599000000.0 133122000000.0 169281000000.0 159394000000.0 148525000000.0 136499000000.0 123276000000.0 108934000000.0 93641500000.0 77618700000.0 61115500000.0 44412900000.0 27818400000.0 11639200000.0 3834120000.0 18326400000.0 31583500000.0 43394100000.0 53592500000.0 61990200000.0 68496600000.0 75959900000.0 52036000000.0 81914900000.0 33185300000.0 4765730000.0 17536700000.0 22804100000.0 17781100000.0 17860600000.0 1306960000.0 13508200000.0 40928300000.0 37591400000.0 25457900000.0 33555100000.0 46914300000.0 63679300000.0 63896000000.0 48512200000.0 22283300000.0 29160500000.0 156321000000.0 172073000000.0 195295000000.0 258418000000.0 234250000000.0 221171000000.0 211249000000.0 201844000000.0 191835000000.0 180757000000.0 168468000000.0 154975000000.0 140413000000.0 125025000000.0 109085000000.0 92904600000.0 76836100000.0 61240000000.0 46452000000.0 32771300000.0 20431300000.0 9524040000.0 140394000.0 9249700000.0 19211800000.0 32094700000.0 10050000000.0 25412200000.0 34149200000.0 37569500000.0 38571600000.0 22733300000.0 35274200000.0 81254600000.0 126246000000.0 149904000000.0 156314000000.0 150959000000.0 128062000000.0 76300500000.0 1739010000.0 