# vtk DataFile Version 2.0
Time step 52
ASCII
DATASET UNSTRUCTURED_GRID
POINTS 5000 float
202705.0 291040.0 0
207634.0 289234.0 0
213160.0 290366.0 0
231955.0 291285.0 0
278748.0 290875.0 0
291312.0 291060.0 0
297464.0 289122.0 0
202414.0 296071.0 0
206549.0 293535.0 0
209446.0 292458.0 0
211324.0 295549.0 0
217031.0 294640.0 0
221896.0 292507.0 0
228468.0 293447.0 0
224836.0 295934.0 0
232596.0 294592.0 0
237211.0 293152.0 0
242628.0 295252.0 0
249291.0 295699.0 0
255604.0 295134.0 0
260843.0 296686.0 0
266745.0 295029.0 0
271602.0 292223.0 0
271049.0 296739.0 0
275517.0 296140.0 0
280935.0 296494.0 0
286034.0 293819.0 0
292132.0 296604.0 0
297171.0 294400.0 0
203007.0 301317.0 0
207005.0 297837.0 0
210059.0 301907.0 0
214568.0 299309.0 0
220886.0 298700.0 0
226091.0 300090.0 0
230181.0 297881.0 0
231949.0 301900.0 0
235098.0 298294.0 0
244967.0 300329.0 0
239941.0 299992.0 0
249360.0 301229.0 0
253245.0 300155.0 0
257487.0 299461.0 0
264283.0 299183.0 0
260968.0 301766.0 0
268581.0 299882.0 0
273324.0 300930.0 0
278021.0 300401.0 0
284465.0 299065.0 0
281647.0 300577.0 0
287964.0 298341.0 0
288969.0 301752.0 0
296670.0 300426.0 0
201913.0 305869.0 0
206438.0 305497.0 0
213702.0 305744.0 0
217722.0 302731.0 0
218354.0 307024.0 0
222686.0 304278.0 0
228177.0 304805.0 0
232790.0 306089.0 0
236319.0 303305.0 0
241367.0 305290.0 0
247051.0 304812.0 0
251977.0 304565.0 0
256836.0 304193.0 0
261087.0 306035.0 0
265481.0 303972.0 0
270101.0 303740.0 0
268785.0 307254.0 0
273096.0 306890.0 0
276405.0 304195.0 0
280595.0 304237.0 0
285164.0 303110.0 0
289089.0 306111.0 0
292387.0 303117.0 0
203730.0 309820.0 0
209866.0 310092.0 0
216170.0 311959.0 0
222250.0 310028.0 0
226016.0 308296.0 0
229518.0 309568.0 0
233437.0 309697.0 0
236775.0 307787.0 0
236158.0 312052.0 0
240436.0 311081.0 0
245077.0 309266.0 0
249918.0 308837.0 0
254648.0 308632.0 0
259152.0 309970.0 0
264700.0 310106.0 0
269452.0 312340.0 0
270677.0 309674.0 0
273488.0 311547.0 0
278112.0 309040.0 0
283917.0 308202.0 0
288019.0 310212.0 0
291524.0 309635.0 0
296214.0 307402.0 0
202024.0 313831.0 0
206317.0 314601.0 0
211578.0 315799.0 0
221265.0 315204.0 0
226480.0 313675.0 0
232137.0 314061.0 0
237444.0 317119.0 0
244095.0 313109.0 0
241975.0 315162.0 0
246663.0 317067.0 0
247790.0 313343.0 0
252306.0 312886.0 0
254772.0 316517.0 0
256168.0 312668.0 0
259990.0 315275.0 0
266119.0 316486.0 0
271932.0 315688.0 0
277542.0 315257.0 0
281962.0 312525.0 0
282740.0 316481.0 0
286027.0 313717.0 0
290297.0 312956.0 0
286424.0 317529.0 0
290538.0 316706.0 0
293682.0 312272.0 0
294393.0 315706.0 0
297551.0 313191.0 0
202046.0 317564.0 0
202306.0 321498.0 0
207132.0 319782.0 0
212777.0 321023.0 0
216658.0 317703.0 0
220779.0 319624.0 0
229394.0 317539.0 0
225263.0 319030.0 0
232770.0 318373.0 0
230140.0 321190.0 0
234321.0 322115.0 0
243139.0 319055.0 0
248046.0 320275.0 0
250531.0 317185.0 0
252971.0 321168.0 0
257372.0 319703.0 0
261880.0 320795.0 0
266296.0 322168.0 0
270288.0 319927.0 0
274415.0 319598.0 0
280479.0 319010.0 0
277883.0 319979.0 0
276550.0 322396.0 0
279762.0 322389.0 0
283821.0 320822.0 0
288882.0 320661.0 0
294071.0 320176.0 0
297853.0 317474.0 0
298377.0 321010.0 0
201929.0 325300.0 0
205511.0 324715.0 0
209490.0 324097.0 0
213187.0 326235.0 0
218036.0 323826.0 0
222851.0 322798.0 0
222698.0 327091.0 0
226838.0 324043.0 0
231181.0 325946.0 0
239608.0 323002.0 0
235681.0 326885.0 0
240202.0 327881.0 0
245109.0 323706.0 0
249464.0 323564.0 0
248210.0 327618.0 0
252791.0 326494.0 0
257597.0 324646.0 0
263220.0 325975.0 0
269467.0 323160.0 0
268314.0 326919.0 0
273068.0 324022.0 0
277358.0 326279.0 0
282348.0 325813.0 0
286604.0 324228.0 0
291333.0 324381.0 0
295440.0 324465.0 0
298503.0 323872.0 0
297881.0 327235.0 0
201653.0 328288.0 0
202334.0 331680.0 0
204646.0 328724.0 0
208690.0 328451.0 0
205837.0 332454.0 0
212865.0 330125.0 0
217325.0 329734.0 0
222017.0 331625.0 0
227386.0 328780.0 0
226487.0 333297.0 0
232394.0 331648.0 0
237604.0 331125.0 0
244179.0 328222.0 0
242255.0 332619.0 0
246423.0 331085.0 0
250970.0 332089.0 0
256165.0 330336.0 0
259937.0 328472.0 0
260906.0 332413.0 0
265001.0 330369.0 0
269379.0 331843.0 0
272869.0 328608.0 0
280130.0 330195.0 0
276058.0 330667.0 0
284032.0 329792.0 0
288379.0 328300.0 0
286321.0 332578.0 0
290210.0 332568.0 0
293686.0 328480.0 0
297841.0 331019.0 0
202721.0 335841.0 0
207089.0 336412.0 0
209883.0 333021.0 0
213894.0 333008.0 0
211893.0 336825.0 0
217057.0 335015.0 0
221889.0 336370.0 0
226472.0 338451.0 0
229954.0 336083.0 0
233344.0 337076.0 0
237637.0 336019.0 0
242513.0 337635.0 0
246431.0 334735.0 0
250324.0 337554.0 0
255944.0 336708.0 0
261260.0 337145.0 0
265566.0 335275.0 0
269834.0 336825.0 0
273375.0 334124.0 0
277986.0 334648.0 0
282732.0 334333.0 0
286943.0 335971.0 0
294445.0 332566.0 0
292034.0 337212.0 0
297305.0 335643.0 0
201738.0 339347.0 0
202583.0 342739.0 0
205184.0 339530.0 0
208848.0 339873.0 0
213032.0 340605.0 0
214929.0 338140.0 0
217727.0 340180.0 0
222591.0 341571.0 0
226784.0 342939.0 0
230648.0 340462.0 0
235450.0 340685.0 0
239625.0 341183.0 0
244398.0 342609.0 0
246431.0 338702.0 0
249081.0 342212.0 0
252811.0 341211.0 0
259823.0 340859.0 0
264154.0 340450.0 0
268701.0 341347.0 0
273671.0 339283.0 0
278493.0 339087.0 0
283337.0 339242.0 0
280263.0 342586.0 0
288099.0 340169.0 0
291982.0 342216.0 0
296479.0 341052.0 0
203006.0 347040.0 0
206569.0 342792.0 0
207894.0 346703.0 0
210536.0 343241.0 0
212616.0 347028.0 0
214858.0 343828.0 0
216414.0 347176.0 0
218952.0 344864.0 0
223246.0 346164.0 0
227385.0 347597.0 0
229700.0 344516.0 0
233150.0 344331.0 0
231942.0 348837.0 0
237313.0 346280.0 0
241181.0 345001.0 0
241291.0 348202.0 0
244121.0 347259.0 0
247729.0 346411.0 0
251802.0 345972.0 0
256433.0 343967.0 0
259198.0 348125.0 0
261452.0 344565.0 0
265260.0 344539.0 0
268222.0 346583.0 0
272177.0 344537.0 0
276410.0 343644.0 0
282638.0 343953.0 0
279673.0 347203.0 0
285028.0 347974.0 0
285472.0 343299.0 0
289218.0 345049.0 0
293424.0 345754.0 0
297449.0 345748.0 0
202574.0 351632.0 0
206253.0 351173.0 0
210628.0 351035.0 0
215745.0 351372.0 0
219834.0 348830.0 0
223690.0 350725.0 0
220367.0 353114.0 0
227938.0 352026.0 0
232036.0 353952.0 0
235967.0 351468.0 0
240034.0 351140.0 0
243576.0 350788.0 0
246578.0 349735.0 0
249980.0 350327.0 0
254862.0 350400.0 0
259548.0 352313.0 0
263662.0 349233.0 0
267714.0 350092.0 0
266108.0 353346.0 0
269978.0 352962.0 0
271536.0 349255.0 0
274337.0 352601.0 0
275202.0 348211.0 0
277400.0 350737.0 0
281449.0 351638.0 0
290494.0 349717.0 0
296282.0 350457.0 0
202771.0 355679.0 0
207669.0 355173.0 0
209895.0 358076.0 0
212122.0 355147.0 0
216642.0 356326.0 0
224635.0 354662.0 0
221505.0 357304.0 0
228354.0 356777.0 0
235636.0 356016.0 0
238721.0 355100.0 0
242483.0 354575.0 0
240759.0 358436.0 0
244839.0 358261.0 0
246822.0 353935.0 0
251569.0 355474.0 0
256513.0 355732.0 0
262646.0 353795.0 0
260345.0 356985.0 0
264593.0 357479.0 0
268116.0 356177.0 0
271705.0 356239.0 0
275606.0 356767.0 0
278351.0 354176.0 0
279890.0 357777.0 0
282137.0 355121.0 0
284216.0 358068.0 0
286264.0 353263.0 0
288618.0 356678.0 0
291968.0 353939.0 0
292492.0 357963.0 0
297038.0 355283.0 0
197272.0 361614.0 0
201969.0 361714.0 0
201519.0 358980.0 0
204886.0 362768.0 0
207775.0 362761.0 0
205868.0 359321.0 0
213258.0 358528.0 0
210667.0 361606.0 0
215202.0 361372.0 0
218434.0 360128.0 0
222053.0 361953.0 0
225112.0 359445.0 0
225537.0 363636.0 0
229124.0 361560.0 0
233040.0 359266.0 0
237477.0 359086.0 0
236396.0 362767.0 0
239860.0 362028.0 0
243007.0 361313.0 0
248244.0 358712.0 0
246450.0 362495.0 0
254333.0 359318.0 0
251002.0 361546.0 0
255193.0 362867.0 0
257527.0 360096.0 0
258505.0 363811.0 0
260883.0 360855.0 0
264440.0 361517.0 0
268837.0 360108.0 0
273166.0 359012.0 0
272786.0 361865.0 0
276783.0 360855.0 0
281018.0 361386.0 0
284369.0 361668.0 0
288314.0 360690.0 0
292190.0 362319.0 0
296715.0 359859.0 0
202707.0 365613.0 0
206896.0 365558.0 0
210486.0 366276.0 0
214194.0 364720.0 0
218804.0 364255.0 0
216966.0 367363.0 0
220319.0 368579.0 0
222625.0 366008.0 0
229300.0 365786.0 0
226316.0 368226.0 0
232792.0 363982.0 0
232110.0 367860.0 0
235424.0 367216.0 0
239095.0 365937.0 0
242691.0 364578.0 0
241725.0 368920.0 0
245537.0 367171.0 0
249029.0 365681.0 0
252856.0 365490.0 0
250765.0 368915.0 0
253834.0 368492.0 0
256354.0 366584.0 0
259570.0 367779.0 0
261985.0 364965.0 0
266316.0 364688.0 0
268129.0 368107.0 0
270279.0 364814.0 0
274499.0 365151.0 0
278367.0 364855.0 0
282522.0 365322.0 0
279965.0 369445.0 0
286751.0 364224.0 0
285656.0 367557.0 0
293517.0 364998.0 0
293786.0 368013.0 0
290151.0 366097.0 0
296915.0 364157.0 0
297704.0 367760.0 0
198154.0 378475.0 0
202235.0 373089.0 0
201432.0 377698.0 0
202110.0 369330.0 0
204882.0 371277.0 0
205876.0 368568.0 0
204972.0 375077.0 0
207294.0 373146.0 0
208980.0 369895.0 0
210797.0 373514.0 0
212472.0 370519.0 0
213871.0 368308.0 0
216898.0 371399.0 0
220679.0 372054.0 0
223399.0 370542.0 0
223263.0 374045.0 0
229852.0 370189.0 0
227099.0 373041.0 0
230513.0 373214.0 0
232762.0 374794.0 0
233552.0 371281.0 0
237818.0 370807.0 0
240998.0 372463.0 0
244512.0 371817.0 0
247062.0 373672.0 0
247763.0 370149.0 0
249899.0 372975.0 0
252775.0 371603.0 0
256675.0 371319.0 0
260885.0 372090.0 0
264034.0 368967.0 0
264953.0 373338.0 0
267865.0 371286.0 0
271876.0 369095.0 0
268174.0 374748.0 0
271526.0 373243.0 0
275958.0 368672.0 0
275742.0 372823.0 0
283636.0 369577.0 0
279309.0 373613.0 0
282351.0 372855.0 0
287821.0 369604.0 0
285556.0 372000.0 0
290565.0 370816.0 0
294322.0 371825.0 0
297754.0 370611.0 0
298364.0 372946.0 0
299612.0 375590.0 0
301009.0 378011.0 0
295605.0 375246.0 0
192680.0 382191.0 0
188008.0 384915.0 0
195530.0 381135.0 0
198393.0 381987.0 0
204245.0 379192.0 0
201202.0 382274.0 0
206932.0 377311.0 0
206265.0 381981.0 0
209290.0 380075.0 0
208988.0 376053.0 0
212395.0 378385.0 0
214504.0 374635.0 0
217250.0 378135.0 0
215131.0 381199.0 0
219520.0 375063.0 0
225929.0 377203.0 0
222165.0 377205.0 0
229999.0 377369.0 0
234282.0 378352.0 0
236051.0 374778.0 0
239419.0 375517.0 0
237807.0 378918.0 0
242598.0 374987.0 0
241869.0 378960.0 0
245168.0 376449.0 0
248944.0 377476.0 0
244958.0 380258.0 0
253683.0 376017.0 0
258145.0 376169.0 0
262137.0 376205.0 0
259684.0 379816.0 0
262945.0 380118.0 0
266119.0 377743.0 0
270481.0 377216.0 0
273762.0 376703.0 0
277517.0 376919.0 0
281255.0 376671.0 0
284266.0 374817.0 0
288005.0 374414.0 0
285293.0 377839.0 0
291248.0 374298.0 0
288990.0 378846.0 0
292573.0 377438.0 0
294294.0 381448.0 0
298781.0 379964.0 0
296779.0 378555.0 0
298511.0 382607.0 0
302828.0 380249.0 0
305571.0 382040.0 0
300855.0 383077.0 0
308848.0 382674.0 0
181077.0 389513.0 0
185777.0 386654.0 0
183475.0 387966.0 0
188007.0 388404.0 0
190707.0 384305.0 0
190842.0 387279.0 0
194832.0 385878.0 0
198235.0 385258.0 0
203335.0 385048.0 0
206286.0 387111.0 0
209152.0 384615.0 0
212285.0 383138.0 0
215507.0 384674.0 0
218257.0 382860.0 0
220512.0 379923.0 0
221861.0 382784.0 0
224421.0 380897.0 0
224983.0 384735.0 0
228292.0 381713.0 0
231992.0 381378.0 0
235464.0 382461.0 0
239924.0 382743.0 0
237123.0 386306.0 0
244421.0 385208.0 0
248147.0 381815.0 0
252074.0 380899.0 0
254144.0 383896.0 0
256058.0 380419.0 0
256625.0 384544.0 0
258352.0 382989.0 0
261870.0 384413.0 0
265789.0 382379.0 0
268363.0 384123.0 0
269052.0 380455.0 0
272653.0 380330.0 0
271671.0 383934.0 0
275753.0 379953.0 0
275567.0 383616.0 0
278967.0 380935.0 0
281543.0 382534.0 0
279360.0 386207.0 0
282038.0 379938.0 0
283131.0 384518.0 0
284619.0 381653.0 0
287401.0 383162.0 0
291333.0 386795.0 0
291226.0 382995.0 0
294374.0 386842.0 0
296508.0 384897.0 0
300119.0 387473.0 0
306106.0 384973.0 0
302878.0 385602.0 0
305305.0 388668.0 0
310868.0 385523.0 0
308710.0 387860.0 0
314318.0 386512.0 0
313109.0 389146.0 0
316806.0 387859.0 0
173918.0 394312.0 0
176069.0 392465.0 0
178683.0 391401.0 0
183267.0 391563.0 0
179825.0 393842.0 0
182959.0 393980.0 0
185111.0 390215.0 0
186402.0 392120.0 0
185926.0 394006.0 0
188877.0 390832.0 0
191837.0 390387.0 0
189145.0 393577.0 0
193009.0 392742.0 0
193360.0 388711.0 0
196800.0 389575.0 0
195614.0 392792.0 0
200443.0 388040.0 0
198675.0 393070.0 0
201121.0 391606.0 0
204058.0 389245.0 0
203950.0 391162.0 0
206737.0 389889.0 0
205923.0 393101.0 0
210361.0 388472.0 0
209782.0 392907.0 0
213240.0 386805.0 0
213532.0 391110.0 0
215472.0 388976.0 0
216986.0 386869.0 0
220928.0 386835.0 0
218517.0 391119.0 0
222575.0 391458.0 0
225488.0 389170.0 0
228039.0 385867.0 0
229803.0 389489.0 0
231289.0 384932.0 0
234173.0 385952.0 0
233280.0 388666.0 0
240356.0 387977.0 0
236160.0 389989.0 0
242802.0 390758.0 0
245752.0 390808.0 0
247260.0 388541.0 0
250338.0 385361.0 0
254066.0 388261.0 0
249935.0 389914.0 0
258615.0 388433.0 0
263717.0 389517.0 0
265984.0 386503.0 0
269599.0 387693.0 0
273839.0 387306.0 0
276815.0 390388.0 0
280244.0 390930.0 0
283088.0 389558.0 0
284927.0 386337.0 0
286896.0 390188.0 0
287894.0 387029.0 0
291168.0 391639.0 0
295077.0 391137.0 0
297349.0 388708.0 0
298342.0 392603.0 0
302546.0 391872.0 0
309822.0 391296.0 0
306666.0 393398.0 0
310120.0 394393.0 0
314820.0 390690.0 0
312958.0 393488.0 0
316778.0 394326.0 0
319189.0 389870.0 0
317559.0 392019.0 0
320599.0 394066.0 0
322134.0 391802.0 0
324848.0 393512.0 0
166000.0 398494.0 0
163767.0 400145.0 0
168963.0 397737.0 0
171629.0 396122.0 0
176205.0 395519.0 0
173863.0 398451.0 0
178480.0 396375.0 0
183300.0 396622.0 0
180669.0 397691.0 0
187328.0 396119.0 0
183979.0 398837.0 0
187539.0 399121.0 0
191208.0 394903.0 0
192401.0 397546.0 0
195575.0 396338.0 0
202248.0 394670.0 0
198907.0 396690.0 0
202508.0 398190.0 0
205431.0 396703.0 0
208338.0 396746.0 0
212302.0 396311.0 0
215496.0 394006.0 0
217364.0 397349.0 0
220172.0 395040.0 0
223808.0 394867.0 0
226819.0 393065.0 0
230220.0 393773.0 0
233214.0 392182.0 0
236021.0 394512.0 0
239026.0 391656.0 0
240687.0 394978.0 0
244578.0 394409.0 0
248465.0 393587.0 0
252727.0 392471.0 0
252524.0 396167.0 0
256352.0 393555.0 0
260814.0 393104.0 0
264695.0 393821.0 0
267504.0 391502.0 0
269955.0 394869.0 0
272021.0 391308.0 0
271389.0 397072.0 0
274747.0 395094.0 0
279496.0 393890.0 0
283144.0 394030.0 0
286514.0 393391.0 0
289922.0 396167.0 0
294865.0 395161.0 0
297983.0 395974.0 0
302011.0 396343.0 0
305167.0 397364.0 0
308542.0 396970.0 0
312782.0 397355.0 0
316104.0 396222.0 0
319969.0 396333.0 0
318402.0 398161.0 0
324594.0 396142.0 0
322578.0 397677.0 0
326016.0 398175.0 0
327855.0 394977.0 0
329712.0 396993.0 0
328551.0 399676.0 0
332284.0 397851.0 0
334632.0 398937.0 0
157219.0 404650.0 0
161805.0 402079.0 0
159035.0 402697.0 0
162024.0 405116.0 0
166240.0 401340.0 0
165462.0 403529.0 0
169605.0 401146.0 0
172539.0 400678.0 0
172377.0 404659.0 0
168972.0 404075.0 0
175384.0 400862.0 0
176414.0 398651.0 0
174666.0 403302.0 0
177764.0 403125.0 0
180537.0 400099.0 0
178126.0 400534.0 0
182425.0 401800.0 0
185466.0 402769.0 0
188730.0 404454.0 0
191579.0 401272.0 0
195830.0 399620.0 0
197263.0 401846.0 0
199603.0 399889.0 0
201347.0 401874.0 0
203582.0 400446.0 0
204167.0 403017.0 0
206071.0 399701.0 0
206901.0 402963.0 0
209698.0 399867.0 0
212192.0 402744.0 0
214386.0 399417.0 0
216749.0 401586.0 0
219377.0 399925.0 0
221166.0 397963.0 0
222170.0 401959.0 0
223823.0 398201.0 0
225533.0 400788.0 0
227895.0 397364.0 0
230704.0 399282.0 0
232359.0 396479.0 0
234437.0 399361.0 0
237678.0 397872.0 0
238851.0 400262.0 0
241992.0 399233.0 0
245696.0 398085.0 0
248932.0 397220.0 0
247391.0 401130.0 0
251263.0 400047.0 0
255659.0 398650.0 0
258603.0 396586.0 0
259935.0 400274.0 0
262643.0 397290.0 0
266966.0 397179.0 0
264384.0 401770.0 0
268422.0 401409.0 0
270315.0 398924.0 0
272452.0 402584.0 0
273272.0 399152.0 0
276042.0 399474.0 0
275991.0 402058.0 0
278813.0 397527.0 0
279346.0 401173.0 0
282694.0 402108.0 0
285714.0 397262.0 0
282283.0 398208.0 0
284738.0 400200.0 0
287700.0 400516.0 0
290667.0 401920.0 0
293354.0 398607.0 0
294357.0 402595.0 0
297697.0 399628.0 0
297650.0 403668.0 0
304884.0 400518.0 0
301602.0 400550.0 0
305326.0 403201.0 0
308322.0 400344.0 0
308367.0 403360.0 0
311084.0 403633.0 0
311322.0 400537.0 0
315800.0 400062.0 0
314049.0 402664.0 0
317054.0 404004.0 0
319718.0 401997.0 0
322596.0 400539.0 0
325902.0 401705.0 0
324175.0 405058.0 0
329374.0 403719.0 0
330617.0 401706.0 0
332193.0 400791.0 0
334988.0 401826.0 0
337677.0 404085.0 0
333589.0 404080.0 0
337313.0 400638.0 0
339614.0 402311.0 0
341719.0 403401.0 0
344233.0 405271.0 0
148473.0 410559.0 0
150185.0 408335.0 0
154660.0 405629.0 0
152268.0 407219.0 0
153723.0 408786.0 0
156938.0 410783.0 0
156345.0 408418.0 0
159352.0 406889.0 0
160803.0 409589.0 0
164755.0 406658.0 0
171791.0 407199.0 0
168057.0 407345.0 0
175772.0 406122.0 0
175616.0 408415.0 0
172837.0 409725.0 0
180068.0 404645.0 0
178436.0 407081.0 0
183266.0 406989.0 0
187262.0 407580.0 0
191497.0 406375.0 0
190615.0 409158.0 0
194305.0 404329.0 0
193899.0 409113.0 0
197177.0 407251.0 0
199502.0 404297.0 0
200771.0 408132.0 0
202339.0 405334.0 0
204955.0 407650.0 0
209225.0 405691.0 0
212531.0 407705.0 0
215314.0 404893.0 0
219394.0 404432.0 0
222654.0 405981.0 0
225190.0 404602.0 0
228257.0 401718.0 0
228578.0 404879.0 0
226604.0 407173.0 0
231808.0 402447.0 0
234278.0 404317.0 0
236670.0 405994.0 0
236702.0 402055.0 0
240587.0 403771.0 0
244351.0 402540.0 0
247100.0 405860.0 0
250065.0 403197.0 0
252052.0 405265.0 0
253779.0 402570.0 0
257393.0 403507.0 0
260941.0 405233.0 0
261572.0 403600.0 0
263949.0 407488.0 0
266741.0 404907.0 0
269666.0 404900.0 0
271942.0 406828.0 0
275395.0 406199.0 0
278394.0 404088.0 0
280822.0 404694.0 0
286003.0 403696.0 0
283629.0 406936.0 0
289011.0 405512.0 0
292750.0 405509.0 0
293991.0 408854.0 0
295969.0 406243.0 0
301431.0 404013.0 0
299640.0 407321.0 0
304266.0 405840.0 0
311426.0 407246.0 0
307795.0 406639.0 0
314235.0 405527.0 0
314478.0 409028.0 0
317262.0 407116.0 0
320927.0 406053.0 0
326195.0 407820.0 0
327901.0 405477.0 0
329707.0 409295.0 0
331825.0 406548.0 0
337100.0 406575.0 0
334736.0 408239.0 0
341604.0 405769.0 0
340115.0 408150.0 0
346345.0 407137.0 0
344007.0 409554.0 0
349018.0 408718.0 0
351263.0 410537.0 0
141322.0 414530.0 0
145837.0 411362.0 0
143731.0 413244.0 0
145890.0 415073.0 0
148743.0 414357.0 0
151644.0 410945.0 0
153622.0 410781.0 0
151644.0 413584.0 0
154394.0 415353.0 0
155089.0 412076.0 0
159817.0 412449.0 0
163764.0 409593.0 0
165190.0 411913.0 0
162648.0 414283.0 0
166848.0 414226.0 0
168651.0 410482.0 0
169966.0 413404.0 0
177146.0 410335.0 0
173374.0 412683.0 0
176500.0 413055.0 0
179849.0 408972.0 0
180192.0 411947.0 0
183416.0 410936.0 0
186870.0 410779.0 0
187598.0 413593.0 0
190996.0 412147.0 0
194065.0 412316.0 0
197652.0 410942.0 0
201230.0 411424.0 0
205189.0 411575.0 0
208977.0 410347.0 0
213008.0 411497.0 0
216392.0 408843.0 0
216628.0 412374.0 0
219708.0 407950.0 0
219658.0 411547.0 0
223432.0 409673.0 0
227578.0 411261.0 0
231467.0 407906.0 0
235604.0 409198.0 0
239247.0 408243.0 0
237402.0 412295.0 0
241919.0 411768.0 0
243292.0 407167.0 0
245875.0 411069.0 0
250164.0 409511.0 0
253905.0 411755.0 0
254896.0 407542.0 0
259261.0 408085.0 0
261642.0 411759.0 0
268843.0 409010.0 0
273787.0 410419.0 0
277389.0 410097.0 0
279223.0 407482.0 0
281264.0 410565.0 0
287334.0 409366.0 0
284295.0 411776.0 0
291372.0 409071.0 0
290296.0 412338.0 0
293701.0 412625.0 0
297069.0 410186.0 0
300005.0 412680.0 0
302895.0 409456.0 0
306563.0 409582.0 0
304259.0 413088.0 0
309560.0 410375.0 0
307558.0 413343.0 0
310935.0 414630.0 0
312374.0 411258.0 0
315915.0 410908.0 0
315087.0 413756.0 0
318482.0 410223.0 0
321521.0 409522.0 0
318705.0 413291.0 0
321546.0 412616.0 0
324385.0 410182.0 0
325399.0 412693.0 0
331969.0 411365.0 0
328239.0 411957.0 0
329389.0 414743.0 0
332146.0 413898.0 0
333796.0 410709.0 0
335956.0 411164.0 0
334307.0 413257.0 0
336755.0 414276.0 0
338270.0 410529.0 0
342657.0 412156.0 0
339960.0 413634.0 0
347038.0 411328.0 0
347643.0 413801.0 0
344812.0 414688.0 0
351029.0 413518.0 0
354356.0 411082.0 0
356213.0 413605.0 0
359062.0 413981.0 0
361038.0 415471.0 0
136278.0 418076.0 0
133802.0 420321.0 0
138755.0 415984.0 0
140156.0 419428.0 0
142457.0 417190.0 0
144743.0 417490.0 0
146035.0 420107.0 0
149156.0 417991.0 0
152411.0 419201.0 0
156640.0 419422.0 0
157902.0 415099.0 0
160216.0 418119.0 0
164616.0 416145.0 0
163301.0 418440.0 0
167202.0 417619.0 0
170538.0 416843.0 0
173714.0 416305.0 0
177120.0 416367.0 0
180838.0 415328.0 0
184227.0 414482.0 0
181885.0 418639.0 0
185133.0 417637.0 0
190902.0 415036.0 0
188196.0 416944.0 0
193677.0 416775.0 0
196880.0 414054.0 0
196992.0 418507.0 0
199702.0 415352.0 0
204322.0 415876.0 0
209269.0 414550.0 0
207974.0 418476.0 0
210551.0 418441.0 0
213713.0 415927.0 0
218165.0 415941.0 0
221662.0 413887.0 0
224355.0 413718.0 0
222929.0 417416.0 0
226351.0 415257.0 0
229986.0 414204.0 0
228820.0 416825.0 0
233169.0 412587.0 0
232519.0 417469.0 0
235786.0 415826.0 0
239750.0 415932.0 0
243987.0 415345.0 0
247916.0 413761.0 0
246850.0 417068.0 0
250464.0 417524.0 0
251241.0 413951.0 0
257405.0 411851.0 0
255184.0 416684.0 0
259509.0 419291.0 0
259190.0 414979.0 0
262687.0 416367.0 0
266026.0 412832.0 0
269247.0 416094.0 0
270870.0 413118.0 0
272899.0 417189.0 0
274535.0 414318.0 0
278653.0 414280.0 0
282203.0 417381.0 0
283238.0 414523.0 0
287025.0 414718.0 0
290784.0 416024.0 0
297052.0 414463.0 0
294269.0 416820.0 0
292845.0 419558.0 0
298049.0 417084.0 0
302165.0 416809.0 0
306523.0 416953.0 0
309391.0 418073.0 0
312869.0 417470.0 0
316261.0 417104.0 0
319790.0 416158.0 0
320833.0 419169.0 0
323049.0 414919.0 0
323617.0 418316.0 0
326524.0 415984.0 0
327224.0 419532.0 0
330651.0 418103.0 0
335805.0 417114.0 0
333038.0 416692.0 0
340838.0 416705.0 0
338902.0 418653.0 0
342238.0 420015.0 0
343996.0 417471.0 0
347398.0 419801.0 0
348831.0 416594.0 0
351507.0 418624.0 0
353620.0 416055.0 0
355336.0 419317.0 0
358404.0 417116.0 0
363231.0 417686.0 0
360715.0 419640.0 0
366011.0 419565.0 0
369237.0 420373.0 0
121962.0 425701.0 0
123995.0 424922.0 0
127521.0 423236.0 0
130250.0 421833.0 0
131018.0 425678.0 0
134907.0 424070.0 0
137809.0 421237.0 0
138417.0 424037.0 0
142060.0 421775.0 0
143073.0 424752.0 0
147077.0 422829.0 0
149794.0 421976.0 0
148732.0 424947.0 0
151218.0 424591.0 0
153444.0 422997.0 0
156969.0 422401.0 0
160718.0 421761.0 0
165068.0 420035.0 0
163746.0 423168.0 0
168150.0 420988.0 0
171433.0 420303.0 0
167420.0 424607.0 0
171627.0 423660.0 0
174709.0 420059.0 0
175110.0 423760.0 0
178259.0 419726.0 0
178964.0 423282.0 0
182733.0 421918.0 0
186083.0 420332.0 0
190152.0 420010.0 0
186592.0 423018.0 0
189662.0 424233.0 0
193834.0 421369.0 0
197070.0 422928.0 0
201133.0 420573.0 0
205702.0 421478.0 0
209748.0 422887.0 0
213080.0 419980.0 0
216533.0 420382.0 0
220093.0 418850.0 0
220416.0 421871.0 0
226239.0 419152.0 0
223700.0 422513.0 0
227895.0 423346.0 0
229857.0 419713.0 0
231565.0 422001.0 0
233650.0 420588.0 0
237181.0 419777.0 0
241823.0 418868.0 0
244723.0 418791.0 0
243998.0 421539.0 0
247642.0 421276.0 0
252527.0 421850.0 0
260026.0 424165.0 0
256725.0 421765.0 0
263443.0 421826.0 0
266419.0 418523.0 0
270273.0 420623.0 0
274048.0 421455.0 0
277003.0 418903.0 0
279045.0 422690.0 0
280590.0 419476.0 0
282365.0 422469.0 0
285782.0 419026.0 0
289806.0 419389.0 0
290459.0 423130.0 0
294058.0 422570.0 0
296295.0 419806.0 0
297466.0 423899.0 0
300019.0 420779.0 0
305627.0 420016.0 0
303515.0 421879.0 0
306626.0 423313.0 0
313063.0 419788.0 0
309685.0 421654.0 0
313965.0 423364.0 0
317052.0 420658.0 0
319246.0 423686.0 0
322110.0 422149.0 0
325393.0 422785.0 0
329727.0 421849.0 0
332416.0 420896.0 0
335182.0 420377.0 0
336289.0 423683.0 0
339178.0 421726.0 0
341787.0 424946.0 0
344368.0 422293.0 0
346797.0 424399.0 0
350092.0 422604.0 0
353252.0 422043.0 0
357659.0 421245.0 0
358060.0 424335.0 0
354726.0 424761.0 0
361951.0 422655.0 0
362302.0 425482.0 0
365730.0 422621.0 0
366681.0 425381.0 0
370911.0 422597.0 0
369987.0 425927.0 0
373741.0 424240.0 0
376514.0 424533.0 0
115062.0 430317.0 0
120194.0 427787.0 0
118200.0 429851.0 0
122962.0 427932.0 0
124219.0 429983.0 0
126212.0 425652.0 0
126839.0 428623.0 0
130407.0 428512.0 0
135268.0 427396.0 0
133966.0 429478.0 0
139704.0 426504.0 0
137677.0 428584.0 0
145378.0 426103.0 0
141908.0 428737.0 0
144437.0 430689.0 0
147758.0 428418.0 0
151428.0 427185.0 0
154967.0 425686.0 0
153984.0 429337.0 0
158469.0 425249.0 0
157728.0 429129.0 0
161149.0 429727.0 0
161974.0 426351.0 0
164770.0 427937.0 0
167648.0 428538.0 0
171281.0 427232.0 0
174534.0 427591.0 0
177810.0 426938.0 0
176849.0 429924.0 0
181185.0 426639.0 0
179675.0 429829.0 0
184175.0 425248.0 0
182944.0 429356.0 0
186862.0 427775.0 0
190710.0 428638.0 0
193057.0 424752.0 0
194100.0 428649.0 0
196114.0 426003.0 0
198878.0 426038.0 0
201575.0 425091.0 0
204750.0 424576.0 0
204426.0 427222.0 0
207169.0 426324.0 0
210299.0 427742.0 0
213663.0 424028.0 0
214249.0 428289.0 0
217421.0 424847.0 0
220796.0 426399.0 0
224585.0 426898.0 0
228298.0 427432.0 0
231439.0 425568.0 0
234905.0 423804.0 0
233805.0 428624.0 0
237274.0 426356.0 0
240063.0 423366.0 0
240323.0 427318.0 0
244770.0 426330.0 0
249599.0 425496.0 0
253034.0 426536.0 0
256258.0 425574.0 0
259839.0 428472.0 0
267534.0 423670.0 0
264241.0 426979.0 0
268952.0 427651.0 0
272154.0 425061.0 0
275432.0 426721.0 0
276249.0 424024.0 0
279265.0 426226.0 0
282505.0 426734.0 0
286575.0 424373.0 0
289818.0 427848.0 0
292124.0 426106.0 0
295177.0 426894.0 0
299046.0 428434.0 0
300938.0 424941.0 0
303365.0 428899.0 0
304325.0 425411.0 0
306831.0 429676.0 0
310284.0 425697.0 0
307580.0 426553.0 0
310759.0 429403.0 0
316985.0 425865.0 0
313780.0 427281.0 0
318989.0 429218.0 0
321051.0 426065.0 0
323586.0 425869.0 0
323120.0 429709.0 0
325892.0 427808.0 0
327147.0 430066.0 0
329065.0 425571.0 0
333115.0 424766.0 0
334455.0 428366.0 0
337841.0 429816.0 0
338117.0 426815.0 0
342514.0 428875.0 0
346219.0 426872.0 0
347547.0 429508.0 0
350255.0 426005.0 0
350893.0 429916.0 0
353489.0 427221.0 0
355984.0 429526.0 0
358484.0 427539.0 0
362142.0 428461.0 0
366030.0 428627.0 0
369648.0 428868.0 0
372527.0 429240.0 0
374007.0 427057.0 0
378176.0 426156.0 0
377460.0 428459.0 0
380916.0 428287.0 0
383154.0 430596.0 0
109511.0 433939.0 0
107132.0 435700.0 0
112867.0 432791.0 0
115192.0 434122.0 0
118435.0 432680.0 0
117792.0 435674.0 0
121762.0 431237.0 0
124947.0 432889.0 0
121921.0 433560.0 0
125556.0 435524.0 0
127351.0 431863.0 0
130674.0 431886.0 0
128930.0 434924.0 0
134554.0 432996.0 0
138552.0 431422.0 0
141354.0 433243.0 0
137641.0 435045.0 0
139887.0 435805.0 0
146170.0 433807.0 0
149804.0 430977.0 0
150170.0 434722.0 0
153813.0 433009.0 0
157733.0 432543.0 0
160433.0 433259.0 0
164065.0 431632.0 0
170894.0 430411.0 0
167342.0 431615.0 0
170312.0 432845.0 0
173679.0 431770.0 0
176987.0 433262.0 0
181315.0 433431.0 0
185074.0 431211.0 0
187944.0 431730.0 0
190958.0 432307.0 0
194202.0 432360.0 0
198025.0 429371.0 0
197443.0 433152.0 0
201779.0 428949.0 0
201396.0 433337.0 0
206186.0 430874.0 0
210615.0 431749.0 0
214416.0 432625.0 0
218008.0 429524.0 0
221715.0 430764.0 0
226239.0 432045.0 0
230424.0 429436.0 0
231111.0 432585.0 0
234912.0 433097.0 0
237851.0 429995.0 0
242076.0 430777.0 0
248560.0 429239.0 0
245978.0 432292.0 0
251775.0 429707.0 0
255650.0 429622.0 0
263318.0 430946.0 0
266731.0 431002.0 0
270454.0 430888.0 0
273100.0 428774.0 0
277424.0 429617.0 0
281770.0 431106.0 0
286112.0 429372.0 0
289406.0 432813.0 0
292931.0 430343.0 0
296414.0 430515.0 0
295708.0 433276.0 0
298764.0 432702.0 0
301909.0 431718.0 0
305616.0 434071.0 0
309364.0 432420.0 0
312556.0 434349.0 0
315044.0 430995.0 0
319203.0 433205.0 0
322140.0 432964.0 0
325720.0 432642.0 0
330615.0 429705.0 0
329382.0 432883.0 0
331469.0 434468.0 0
333993.0 432380.0 0
337184.0 432549.0 0
340312.0 431138.0 0
342009.0 434262.0 0
344916.0 431805.0 0
348844.0 433190.0 0
358447.0 431744.0 0
353816.0 432675.0 0
357013.0 434639.0 0
361978.0 432174.0 0
366348.0 432555.0 0
369408.0 431692.0 0
373201.0 432605.0 0
370531.0 434403.0 0
376220.0 430982.0 0
377618.0 433108.0 0
374836.0 436087.0 0
379336.0 431209.0 0
381768.0 433166.0 0
379626.0 434538.0 0
383269.0 435735.0 0
386407.0 431968.0 0
386778.0 435574.0 0
389953.0 434116.0 0
392435.0 435494.0 0
99930.7 439579.0 0
104773.0 437080.0 0
102924.0 439138.0 0
108511.0 438037.0 0
107358.0 440484.0 0
111468.0 436483.0 0
113051.0 439003.0 0
116239.0 438354.0 0
118156.0 440438.0 0
121340.0 436315.0 0
121891.0 439989.0 0
125671.0 438342.0 0
128967.0 437891.0 0
127180.0 440635.0 0
132422.0 436039.0 0
135946.0 437774.0 0
132247.0 439450.0 0
136310.0 440508.0 0
138965.0 438634.0 0
143374.0 436103.0 0
142434.0 439394.0 0
145632.0 440360.0 0
147220.0 437427.0 0
152154.0 437864.0 0
156308.0 439565.0 0
155984.0 435393.0 0
160217.0 436721.0 0
164087.0 435328.0 0
163839.0 439564.0 0
167802.0 435477.0 0
167623.0 439110.0 0
171903.0 435526.0 0
171610.0 439780.0 0
175094.0 436227.0 0
174828.0 439125.0 0
178939.0 437580.0 0
185312.0 434621.0 0
182971.0 437935.0 0
186331.0 438347.0 0
189064.0 435587.0 0
192446.0 436036.0 0
195284.0 435561.0 0
194434.0 439259.0 0
198138.0 436881.0 0
201148.0 438139.0 0
204427.0 436165.0 0
207992.0 434816.0 0
208855.0 437273.0 0
211186.0 435373.0 0
214755.0 437272.0 0
218395.0 433722.0 0
219211.0 438028.0 0
222056.0 435348.0 0
225397.0 437557.0 0
228997.0 435868.0 0
232628.0 436626.0 0
236460.0 437177.0 0
239069.0 434388.0 0
240111.0 438278.0 0
243153.0 435721.0 0
249609.0 432957.0 0
247243.0 436931.0 0
253803.0 434097.0 0
250301.0 436083.0 0
259456.0 434214.0 0
255550.0 438151.0 0
263152.0 438337.0 0
264904.0 434195.0 0
266830.0 437585.0 0
269392.0 434717.0 0
273642.0 437660.0 0
274152.0 433256.0 0
278538.0 434693.0 0
282139.0 436125.0 0
285442.0 434217.0 0
285580.0 438033.0 0
289352.0 437895.0 0
293155.0 435385.0 0
297754.0 437344.0 0
301840.0 435639.0 0
307355.0 438940.0 0
309104.0 435598.0 0
310998.0 438234.0 0
316659.0 434890.0 0
315203.0 438664.0 0
323367.0 436202.0 0
319905.0 436830.0 0
325141.0 439818.0 0
327642.0 436293.0 0
328784.0 439946.0 0
331450.0 438132.0 0
335013.0 436671.0 0
337721.0 438824.0 0
338888.0 435872.0 0
340900.0 439169.0 0
346322.0 435437.0 0
343528.0 437480.0 0
345432.0 439804.0 0
351618.0 435472.0 0
348560.0 438089.0 0
356040.0 437095.0 0
353480.0 438301.0 0
355745.0 440431.0 0
361172.0 436549.0 0
358363.0 439448.0 0
363086.0 440233.0 0
365154.0 436057.0 0
366763.0 439660.0 0
368869.0 436582.0 0
372101.0 438290.0 0
378076.0 437518.0 0
376437.0 440800.0 0
381679.0 437517.0 0
382895.0 440592.0 0
385291.0 438936.0 0
388198.0 441550.0 0
389271.0 438213.0 0
391658.0 439664.0 0
394606.0 437912.0 0
397342.0 439796.0 0
400777.0 440657.0 0
95407.5 442859.0 0
93325.5 444771.0 0
98115.1 441745.0 0
96487.9 446478.0 0
99875.4 444307.0 0
103350.0 442463.0 0
104952.0 445937.0 0
107287.0 443125.0 0
110681.0 441651.0 0
109333.0 445807.0 0
112798.0 443810.0 0
114530.0 441939.0 0
116818.0 443438.0 0
120516.0 444017.0 0
124641.0 442333.0 0
123552.0 445079.0 0
129735.0 442663.0 0
126420.0 444660.0 0
134649.0 441750.0 0
133101.0 444033.0 0
138173.0 441390.0 0
141260.0 442792.0 0
136264.0 443868.0 0
138708.0 444399.0 0
145072.0 443398.0 0
149286.0 440690.0 0
148101.0 444718.0 0
151823.0 444039.0 0
152413.0 441095.0 0
154076.0 442212.0 0
155491.0 444215.0 0
160410.0 440907.0 0
158023.0 443326.0 0
161359.0 443652.0 0
164764.0 443417.0 0
168536.0 442775.0 0
173741.0 442284.0 0
174856.0 444455.0 0
176891.0 441692.0 0
181142.0 441794.0 0
185198.0 441603.0 0
186863.0 444416.0 0
190105.0 440392.0 0
193873.0 443307.0 0
197904.0 441398.0 0
200328.0 444105.0 0
202246.0 440716.0 0
203814.0 443900.0 0
206161.0 439623.0 0
208447.0 443842.0 0
210845.0 439360.0 0
213191.0 443000.0 0
216423.0 440775.0 0
219277.0 441721.0 0
222031.0 439578.0 0
221745.0 443145.0 0
225105.0 442054.0 0
229436.0 440628.0 0
234024.0 440649.0 0
237555.0 440191.0 0
240613.0 442291.0 0
243736.0 439799.0 0
247581.0 441621.0 0
251774.0 439201.0 0
254898.0 441784.0 0
258976.0 440600.0 0
262649.0 442363.0 0
266108.0 441500.0 0
270105.0 439703.0 0
274032.0 442207.0 0
278083.0 439557.0 0
280415.0 443756.0 0
282729.0 440308.0 0
287265.0 442362.0 0
291074.0 442660.0 0
293370.0 439720.0 0
297005.0 441286.0 0
298365.0 444364.0 0
302854.0 439214.0 0
300668.0 441979.0 0
304097.0 443912.0 0
305235.0 441670.0 0
307935.0 443683.0 0
312103.0 442388.0 0
316909.0 443020.0 0
319013.0 440242.0 0
322090.0 439763.0 0
321187.0 443092.0 0
324430.0 443477.0 0
328251.0 442784.0 0
332653.0 442135.0 0
335415.0 440116.0 0
338233.0 441480.0 0
336045.0 443876.0 0
340700.0 443955.0 0
343237.0 441841.0 0
345701.0 443834.0 0
348241.0 442276.0 0
351722.0 441052.0 0
350819.0 444488.0 0
353651.0 445549.0 0
354430.0 442798.0 0
357464.0 443127.0 0
360709.0 442564.0 0
363551.0 444397.0 0
364753.0 442696.0 0
367947.0 443772.0 0
370187.0 441296.0 0
373038.0 443580.0 0
374224.0 440945.0 0
376623.0 442812.0 0
375835.0 444826.0 0
379085.0 444007.0 0
379507.0 440983.0 0
381784.0 443659.0 0
382621.0 446913.0 0
385459.0 443193.0 0
383320.0 444718.0 0
386557.0 445713.0 0
388635.0 445879.0 0
390365.0 443678.0 0
393279.0 442171.0 0
397603.0 443114.0 0
395174.0 444730.0 0
403021.0 442955.0 0
400127.0 445009.0 0
405867.0 445012.0 0
81011.3 451761.0 0
84448.1 450557.0 0
87762.0 448890.0 0
90829.3 446790.0 0
92846.0 448947.0 0
96449.5 449275.0 0
98418.0 451150.0 0
100988.0 447476.0 0
101736.0 450366.0 0
105358.0 449561.0 0
109038.0 449485.0 0
113144.0 446714.0 0
112598.0 449278.0 0
116140.0 446600.0 0
119619.0 447486.0 0
115973.0 449364.0 0
119271.0 450851.0 0
122882.0 447646.0 0
123060.0 450475.0 0
129843.0 446408.0 0
126723.0 448464.0 0
129828.0 450967.0 0
133020.0 446510.0 0
131633.0 448896.0 0
135884.0 447524.0 0
138599.0 450495.0 0
139137.0 447022.0 0
142565.0 446102.0 0
141806.0 449702.0 0
145327.0 447097.0 0
149550.0 448434.0 0
154064.0 447516.0 0
158999.0 447441.0 0
163000.0 446878.0 0
164292.0 449871.0 0
167481.0 446991.0 0
170822.0 448892.0 0
171541.0 444785.0 0
174367.0 447309.0 0
177692.0 445263.0 0
177738.0 449192.0 0
182329.0 446486.0 0
190094.0 444440.0 0
187341.0 448498.0 0
191985.0 447163.0 0
196595.0 446601.0 0
201013.0 448052.0 0
204881.0 447356.0 0
208130.0 448437.0 0
211155.0 447087.0 0
214527.0 447480.0 0
216760.0 443901.0 0
219150.0 446826.0 0
224061.0 446386.0 0
227703.0 445211.0 0
229696.0 448112.0 0
231711.0 444822.0 0
236260.0 444693.0 0
237698.0 448630.0 0
244177.0 444499.0 0
240630.0 446577.0 0
248001.0 447553.0 0
251489.0 444091.0 0
254834.0 445670.0 0
257346.0 444433.0 0
260558.0 445667.0 0
264626.0 445573.0 0
269834.0 444713.0 0
274020.0 446148.0 0
277393.0 444795.0 0
281263.0 448362.0 0
283782.0 444631.0 0
286373.0 448215.0 0
289412.0 445687.0 0
291779.0 445886.0 0
294571.0 444288.0 0
294397.0 448490.0 0
297809.0 447652.0 0
301880.0 447189.0 0
306950.0 448859.0 0
310948.0 446235.0 0
312597.0 449112.0 0
315586.0 446556.0 0
320206.0 446716.0 0
326856.0 445773.0 0
323996.0 446861.0 0
328034.0 448978.0 0
330673.0 445726.0 0
331843.0 449060.0 0
334490.0 446924.0 0
338534.0 446377.0 0
337330.0 448741.0 0
343536.0 445834.0 0
341649.0 448168.0 0
348160.0 445025.0 0
346318.0 446959.0 0
349080.0 446493.0 0
349386.0 450434.0 0
353387.0 449338.0 0
350872.0 447002.0 0
357370.0 446845.0 0
361038.0 446335.0 0
360958.0 449836.0 0
365859.0 445978.0 0
364064.0 448419.0 0
368002.0 448741.0 0
371193.0 446718.0 0
375816.0 448583.0 0
379606.0 447424.0 0
385352.0 447884.0 0
383394.0 450154.0 0
388173.0 450277.0 0
392690.0 446356.0 0
390584.0 448372.0 0
393548.0 451147.0 0
397682.0 447150.0 0
395362.0 449083.0 0
402289.0 447580.0 0
399568.0 449299.0 0
402493.0 450877.0 0
405024.0 448426.0 0
408972.0 446743.0 0
405449.0 451213.0 0
407755.0 449787.0 0
412156.0 447949.0 0
409435.0 451081.0 0
411867.0 451249.0 0
415253.0 450344.0 0
418186.0 451458.0 0
74284.6 455200.0 0
77991.5 454759.0 0
84802.0 453677.0 0
81426.5 454629.0 0
89822.0 451980.0 0
88234.7 455145.0 0
93584.0 452011.0 0
92396.0 454609.0 0
95507.7 454352.0 0
98510.9 454046.0 0
102240.0 453795.0 0
105550.0 452498.0 0
109565.0 452422.0 0
107213.0 454921.0 0
113706.0 451522.0 0
111948.0 454881.0 0
116446.0 452864.0 0
120685.0 454420.0 0
123770.0 453370.0 0
126894.0 452869.0 0
134407.0 451152.0 0
131089.0 453785.0 0
134643.0 454569.0 0
138496.0 454019.0 0
145463.0 450437.0 0
142292.0 453322.0 0
148442.0 452169.0 0
146062.0 454084.0 0
149418.0 454547.0 0
151827.0 451928.0 0
155431.0 451355.0 0
153236.0 454722.0 0
158469.0 451318.0 0
156856.0 454721.0 0
160688.0 453894.0 0
161455.0 450623.0 0
164118.0 453173.0 0
167600.0 451307.0 0
170429.0 452684.0 0
173669.0 451094.0 0
177079.0 454141.0 0
180690.0 451048.0 0
181593.0 454239.0 0
183733.0 450841.0 0
186006.0 454055.0 0
190238.0 451686.0 0
193995.0 450389.0 0
197345.0 452047.0 0
201069.0 451642.0 0
205163.0 451996.0 0
210982.0 451576.0 0
216121.0 452374.0 0
221732.0 451028.0 0
226443.0 449767.0 0
229969.0 452630.0 0
233545.0 449627.0 0
237038.0 452624.0 0
240094.0 450189.0 0
243592.0 449374.0 0
246294.0 453582.0 0
250348.0 451974.0 0
252819.0 448832.0 0
254291.0 453557.0 0
257322.0 449314.0 0
262626.0 450849.0 0
267151.0 448760.0 0
267012.0 452349.0 0
271703.0 450513.0 0
276685.0 449194.0 0
275555.0 453410.0 0
279420.0 453484.0 0
284262.0 453494.0 0
288168.0 452387.0 0
290864.0 449578.0 0
294935.0 452939.0 0
297651.0 450839.0 0
300248.0 450563.0 0
299483.0 454003.0 0
303008.0 451986.0 0
306462.0 454472.0 0
310469.0 451565.0 0
310142.0 454554.0 0
313666.0 452512.0 0
315681.0 450506.0 0
316913.0 453706.0 0
319109.0 450681.0 0
323869.0 451023.0 0
327678.0 452810.0 0
331260.0 451999.0 0
335139.0 451416.0 0
338433.0 454539.0 0
339526.0 451023.0 0
342345.0 454036.0 0
344836.0 450848.0 0
350762.0 454178.0 0
354103.0 452984.0 0
357896.0 451239.0 0
357686.0 455638.0 0
361132.0 453573.0 0
364019.0 451921.0 0
364370.0 454994.0 0
368080.0 452369.0 0
372344.0 451146.0 0
377656.0 452524.0 0
374738.0 454072.0 0
380745.0 451199.0 0
382847.0 455016.0 0
385778.0 452802.0 0
388640.0 455691.0 0
391178.0 453319.0 0
394029.0 456243.0 0
396320.0 453677.0 0
398050.0 451439.0 0
398940.0 455330.0 0
401148.0 453275.0 0
403359.0 455554.0 0
409292.0 453533.0 0
406227.0 454228.0 0
411261.0 455947.0 0
414184.0 454134.0 0
417707.0 454160.0 0
420708.0 452721.0 0
423045.0 453736.0 0
420093.0 455069.0 0
425283.0 455656.0 0
68730.9 460190.0 0
72317.8 458396.0 0
72800.5 461624.0 0
76190.6 458001.0 0
79818.7 458323.0 0
76986.7 461363.0 0
82208.6 457258.0 0
84868.1 457184.0 0
80478.9 461303.0 0
83633.3 460610.0 0
86957.1 458812.0 0
89545.8 460715.0 0
91054.5 457248.0 0
94799.2 458106.0 0
98570.1 457397.0 0
97386.2 460891.0 0
100075.0 460360.0 0
101222.0 456784.0 0
104629.0 456289.0 0
102921.0 458959.0 0
105989.0 458783.0 0
109276.0 457992.0 0
114920.0 456480.0 0
112571.0 459307.0 0
118276.0 456457.0 0
115701.0 460062.0 0
118860.0 459566.0 0
124574.0 456329.0 0
122016.0 457907.0 0
121756.0 460492.0 0
124723.0 459667.0 0
127896.0 456421.0 0
128506.0 461018.0 0
132148.0 457472.0 0
133349.0 461245.0 0
136153.0 457640.0 0
140204.0 457537.0 0
143733.0 456623.0 0
144037.0 460232.0 0
147477.0 457389.0 0
150951.0 456935.0 0
150822.0 459273.0 0
154588.0 458378.0 0
158851.0 457816.0 0
162660.0 456809.0 0
167097.0 456353.0 0
172416.0 455675.0 0
170972.0 459849.0 0
175395.0 458694.0 0
179527.0 457972.0 0
183119.0 457784.0 0
189694.0 456121.0 0
193470.0 454696.0 0
191654.0 459336.0 0
196558.0 457972.0 0
200579.0 455285.0 0
200850.0 459146.0 0
204186.0 457232.0 0
208196.0 455465.0 0
212232.0 457040.0 0
216411.0 457383.0 0
219930.0 455557.0 0
222363.0 458591.0 0
225436.0 454844.0 0
229916.0 457660.0 0
233608.0 455073.0 0
237267.0 456998.0 0
241331.0 454041.0 0
243738.0 457805.0 0
240358.0 457728.0 0
247348.0 458089.0 0
250662.0 456314.0 0
256439.0 456350.0 0
258642.0 454034.0 0
262026.0 455996.0 0
265515.0 455796.0 0
269228.0 454629.0 0
272959.0 456098.0 0
277041.0 457770.0 0
281483.0 458197.0 0
285646.0 458874.0 0
288036.0 455920.0 0
291194.0 453940.0 0
290739.0 457168.0 0
294020.0 456929.0 0
297062.0 456357.0 0
300264.0 458338.0 0
302906.0 455502.0 0
309665.0 458647.0 0
313566.0 455926.0 0
313762.0 459579.0 0
318046.0 458017.0 0
321436.0 454893.0 0
322965.0 459556.0 0
326149.0 456823.0 0
330737.0 455427.0 0
334756.0 455648.0 0
335382.0 459608.0 0
339259.0 458629.0 0
341085.0 456146.0 0
343471.0 458184.0 0
346761.0 455707.0 0
354004.0 456803.0 0
350448.0 458683.0 0
354490.0 460466.0 0
357083.0 459101.0 0
361687.0 457918.0 0
367371.0 457288.0 0
371317.0 455572.0 0
372365.0 459706.0 0
375737.0 457330.0 0
377970.0 460034.0 0
379443.0 456152.0 0
380997.0 459175.0 0
382326.0 458714.0 0
383867.0 461581.0 0
385951.0 458706.0 0
391455.0 459101.0 0
396935.0 458394.0 0
395516.0 461126.0 0
400819.0 458616.0 0
407881.0 457515.0 0
405094.0 459320.0 0
409798.0 460197.0 0
413026.0 459394.0 0
416157.0 457108.0 0
419161.0 457732.0 0
416708.0 460336.0 0
419842.0 461178.0 0
422795.0 456879.0 0
422285.0 459628.0 0
424541.0 461449.0 0
425802.0 459424.0 0
427568.0 457506.0 0
428787.0 461569.0 0
430258.0 459247.0 0
433160.0 460728.0 0
59508.2 466240.0 0
62298.4 463415.0 0
62915.8 466091.0 0
65523.8 462125.0 0
69674.0 462887.0 0
66379.3 465489.0 0
74375.1 464439.0 0
70575.7 465425.0 0
79779.0 464604.0 0
82555.6 464293.0 0
83681.1 466761.0 0
86528.4 463356.0 0
93061.3 462041.0 0
90706.9 464668.0 0
93421.5 466490.0 0
96526.5 463898.0 0
104943.0 462265.0 0
101117.0 463793.0 0
108902.0 461698.0 0
106855.0 465619.0 0
112162.0 461857.0 0
110703.0 465070.0 0
115216.0 463462.0 0
119469.0 462382.0 0
123409.0 463291.0 0
127262.0 465817.0 0
130962.0 463906.0 0
133166.0 464503.0 0
137544.0 460969.0 0
136210.0 464705.0 0
140699.0 463443.0 0
141019.0 460477.0 0
144667.0 464184.0 0
147998.0 461028.0 0
148625.0 464614.0 0
152598.0 462678.0 0
155474.0 465272.0 0
157108.0 461581.0 0
158779.0 464760.0 0
162090.0 461060.0 0
166532.0 461192.0 0
168981.0 464813.0 0
174276.0 463590.0 0
178289.0 461134.0 0
182059.0 461569.0 0
185279.0 463110.0 0
186733.0 459413.0 0
189182.0 463171.0 0
194172.0 463320.0 0
199024.0 462383.0 0
203422.0 461738.0 0
207605.0 459835.0 0
210591.0 461680.0 0
214634.0 461792.0 0
218068.0 463890.0 0
218708.0 460056.0 0
221799.0 462766.0 0
226129.0 460515.0 0
229730.0 462977.0 0
233849.0 460434.0 0
237660.0 460565.0 0
241065.0 461103.0 0
245637.0 462382.0 0
250164.0 461146.0 0
254113.0 458967.0 0
256657.0 461840.0 0
259116.0 459053.0 0
263824.0 460447.0 0
269084.0 459333.0 0
267884.0 463760.0 0
272082.0 462891.0 0
274055.0 460203.0 0
278578.0 461701.0 0
275622.0 462781.0 0
283046.0 463157.0 0
288442.0 463409.0 0
288972.0 459296.0 0
292986.0 463162.0 0
292056.0 460126.0 0
296620.0 460519.0 0
300977.0 462710.0 0
304943.0 459735.0 0
308229.0 462884.0 0
311861.0 463033.0 0
316427.0 462566.0 0
320208.0 461863.0 0
323807.0 463439.0 0
326997.0 461825.0 0
330942.0 459843.0 0
330756.0 464213.0 0
334796.0 463175.0 0
338802.0 462596.0 0
343030.0 462221.0 0
346895.0 460967.0 0
351306.0 463388.0 0
358920.0 461536.0 0
356127.0 463434.0 0
362422.0 463069.0 0
365364.0 461034.0 0
366723.0 464056.0 0
368480.0 461056.0 0
370477.0 463621.0 0
375641.0 461681.0 0
374122.0 464146.0 0
377444.0 464727.0 0
380670.0 462847.0 0
388451.0 462226.0 0
385915.0 464495.0 0
389387.0 465889.0 0
392519.0 463519.0 0
399099.0 461684.0 0
397327.0 463320.0 0
395895.0 465123.0 0
402894.0 462116.0 0
401007.0 464091.0 0
406936.0 462099.0 0
405077.0 463961.0 0
409836.0 464022.0 0
413180.0 463098.0 0
414668.0 466269.0 0
415945.0 462531.0 0
418228.0 464814.0 0
422864.0 463239.0 0
421380.0 465248.0 0
427390.0 463825.0 0
425431.0 465926.0 0
431568.0 462939.0 0
433952.0 465065.0 0
430886.0 466404.0 0
435575.0 462673.0 0
438368.0 464390.0 0
436368.0 466670.0 0
440945.0 466707.0 0
50645.1 470890.0 0
53368.4 469026.0 0
56414.9 467827.0 0
60700.9 469050.0 0
63094.7 468428.0 0
60024.7 471772.0 0
63403.7 470806.0 0
66475.0 469006.0 0
67775.3 472132.0 0
70167.9 468011.0 0
72210.3 470983.0 0
76335.4 468135.0 0
81084.7 467945.0 0
82049.2 471019.0 0
85471.4 469987.0 0
88401.7 467356.0 0
91460.2 469745.0 0
95799.6 468602.0 0
98426.7 466889.0 0
96857.0 471156.0 0
103037.0 466983.0 0
100403.0 469507.0 0
105844.0 469524.0 0
109932.0 469204.0 0
113967.0 467626.0 0
119147.0 467002.0 0
121347.0 470813.0 0
123520.0 467562.0 0
124617.0 470007.0 0
128316.0 470387.0 0
131712.0 467238.0 0
135102.0 467840.0 0
132957.0 471246.0 0
138912.0 466508.0 0
142182.0 467114.0 0
146739.0 467792.0 0
151544.0 467354.0 0
156227.0 468644.0 0
159600.0 467540.0 0
163799.0 466398.0 0
167878.0 469314.0 0
171857.0 468945.0 0
178936.0 464801.0 0
175834.0 467951.0 0
179462.0 469378.0 0
182485.0 465555.0 0
183545.0 468973.0 0
186213.0 466589.0 0
190678.0 467970.0 0
195011.0 467553.0 0
197534.0 465952.0 0
197619.0 469284.0 0
201780.0 466594.0 0
207079.0 465047.0 0
210136.0 469433.0 0
211505.0 465201.0 0
215147.0 467711.0 0
220609.0 467268.0 0
225423.0 465168.0 0
229307.0 467982.0 0
233077.0 464863.0 0
234051.0 468668.0 0
237395.0 464859.0 0
241860.0 464862.0 0
241027.0 468037.0 0
245345.0 467642.0 0
249039.0 465400.0 0
253821.0 465067.0 0
259654.0 463972.0 0
257753.0 468022.0 0
264020.0 464758.0 0
261882.0 468675.0 0
267300.0 468619.0 0
271171.0 466367.0 0
274384.0 465109.0 0
278336.0 466662.0 0
282569.0 467909.0 0
285721.0 466781.0 0
288574.0 468320.0 0
292058.0 466646.0 0
296847.0 465515.0 0
298271.0 469876.0 0
301440.0 467225.0 0
305179.0 464806.0 0
305469.0 469356.0 0
309490.0 467063.0 0
315268.0 467299.0 0
319864.0 465276.0 0
323754.0 467091.0 0
327489.0 466340.0 0
331253.0 467841.0 0
338025.0 465606.0 0
334621.0 467021.0 0
338969.0 469685.0 0
341899.0 465919.0 0
344276.0 469999.0 0
346874.0 465858.0 0
351939.0 468104.0 0
355130.0 466050.0 0
359487.0 465960.0 0
357022.0 468945.0 0
364058.0 466978.0 0
365813.0 471082.0 0
369076.0 468102.0 0
373104.0 466849.0 0
373529.0 469946.0 0
376539.0 467731.0 0
376475.0 471006.0 0
379579.0 469708.0 0
380351.0 466992.0 0
383267.0 465932.0 0
383762.0 469179.0 0
386914.0 468026.0 0
389009.0 471134.0 0
393828.0 467040.0 0
391266.0 468499.0 0
398964.0 466666.0 0
396329.0 469586.0 0
403522.0 467001.0 0
400923.0 470512.0 0
407332.0 466986.0 0
404890.0 470949.0 0
408128.0 470119.0 0
411359.0 467499.0 0
410884.0 470732.0 0
418997.0 468563.0 0
415536.0 470334.0 0
422937.0 468253.0 0
421086.0 471445.0 0
428034.0 468410.0 0
425921.0 470484.0 0
430042.0 471053.0 0
432865.0 469854.0 0
435000.0 467981.0 0
438163.0 468755.0 0
436928.0 471393.0 0
444401.0 467687.0 0
441843.0 469929.0 0
449376.0 471043.0 0
446546.0 469582.0 0
451921.0 472399.0 0
41739.9 476686.0 0
44893.3 474779.0 0
48017.0 473171.0 0
46585.7 477854.0 0
50223.8 475614.0 0
53635.9 472750.0 0
53435.8 476840.0 0
57013.6 471111.0 0
56908.2 475727.0 0
64270.4 473192.0 0
61124.8 474712.0 0
65122.0 475373.0 0
68216.6 475680.0 0
71637.1 474981.0 0
75113.2 474044.0 0
78659.2 472475.0 0
76248.3 476124.0 0
84002.3 474277.0 0
80643.7 475806.0 0
88007.7 472124.0 0
90288.1 473117.0 0
87249.9 474875.0 0
94024.7 472493.0 0
91453.2 475598.0 0
95742.0 475852.0 0
99047.4 473471.0 0
102880.0 471460.0 0
102431.0 474676.0 0
107019.0 473887.0 0
111139.0 472577.0 0
113776.0 471063.0 0
110916.0 476101.0 0
114567.0 474427.0 0
117153.0 470999.0 0
119060.0 474489.0 0
124089.0 474189.0 0
128902.0 474437.0 0
132526.0 475087.0 0
138068.0 470301.0 0
136041.0 474375.0 0
143330.0 470714.0 0
140373.0 474466.0 0
144912.0 475119.0 0
148575.0 471752.0 0
153019.0 471079.0 0
152075.0 474319.0 0
160086.0 470716.0 0
156397.0 473454.0 0
160586.0 474239.0 0
164719.0 472013.0 0
167092.0 475437.0 0
169862.0 473425.0 0
174844.0 472633.0 0
178523.0 473595.0 0
182663.0 472975.0 0
186546.0 471281.0 0
190391.0 473324.0 0
194206.0 470993.0 0
197026.0 472646.0 0
200811.0 471631.0 0
205605.0 470211.0 0
208459.0 473816.0 0
213437.0 473518.0 0
218520.0 471522.0 0
224250.0 469708.0 0
227032.0 472405.0 0
231396.0 472933.0 0
235556.0 472051.0 0
238020.0 469624.0 0
242298.0 470485.0 0
240076.0 474215.0 0
245334.0 472475.0 0
250210.0 470016.0 0
254705.0 470122.0 0
253797.0 474171.0 0
258674.0 472835.0 0
269422.0 472601.0 0
271737.0 470397.0 0
274350.0 468332.0 0
272390.0 473595.0 0
276096.0 472045.0 0
280489.0 471527.0 0
285131.0 471327.0 0
289290.0 472990.0 0
291524.0 470115.0 0
293073.0 473640.0 0
294863.0 469849.0 0
296948.0 473593.0 0
301428.0 472643.0 0
305532.0 473379.0 0
309161.0 472118.0 0
312613.0 470743.0 0
312794.0 474647.0 0
316481.0 473088.0 0
320601.0 469840.0 0
320703.0 474179.0 0
324031.0 472972.0 0
325628.0 470198.0 0
327516.0 473522.0 0
329479.0 470575.0 0
331305.0 474743.0 0
334172.0 471514.0 0
338364.0 473898.0 0
341971.0 473294.0 0
348954.0 471374.0 0
346011.0 475140.0 0
354543.0 470773.0 0
353128.0 472834.0 0
357139.0 472854.0 0
361355.0 470799.0 0
361254.0 474889.0 0
365528.0 475123.0 0
370834.0 473303.0 0
374964.0 472963.0 0
375945.0 475756.0 0
378047.0 473214.0 0
381599.0 472782.0 0
385843.0 472902.0 0
393420.0 471766.0 0
391173.0 475939.0 0
397153.0 472490.0 0
399389.0 473246.0 0
395755.0 474772.0 0
403787.0 475560.0 0
407841.0 473120.0 0
410298.0 473782.0 0
413509.0 473813.0 0
412294.0 476788.0 0
418300.0 473108.0 0
416207.0 475504.0 0
424169.0 472568.0 0
419957.0 475564.0 0
422290.0 474590.0 0
424136.0 476554.0 0
428380.0 472868.0 0
426321.0 474769.0 0
433403.0 473854.0 0
430556.0 475024.0 0
437838.0 475711.0 0
441081.0 473145.0 0
444986.0 472261.0 0
442886.0 476397.0 0
445916.0 475730.0 0
448387.0 473970.0 0
449623.0 477526.0 0
454832.0 474239.0 0
452103.0 475488.0 0
457157.0 475998.0 0
32244.1 482913.0 0
34974.5 480509.0 0
37576.3 482409.0 0
38632.8 478893.0 0
41097.1 480465.0 0
43538.8 479018.0 0
44328.7 481973.0 0
46778.5 481032.0 0
49957.9 479286.0 0
53241.1 479875.0 0
56712.7 480069.0 0
60162.0 478241.0 0
63315.2 476845.0 0
63087.1 479905.0 0
65975.1 478086.0 0
67177.3 481084.0 0
70106.1 478812.0 0
73516.4 477377.0 0
71964.5 481117.0 0
77936.9 477869.0 0
75138.8 480062.0 0
82209.9 478924.0 0
79394.0 481093.0 0
83759.3 481233.0 0
84867.2 477616.0 0
86043.2 480437.0 0
88529.4 478051.0 0
92844.0 478995.0 0
99151.8 477097.0 0
96380.2 479920.0 0
99664.5 480354.0 0
105020.0 477763.0 0
101894.0 477962.0 0
108431.0 478556.0 0
106397.0 480258.0 0
113565.0 477344.0 0
109333.0 480898.0 0
112145.0 479677.0 0
116356.0 478303.0 0
121191.0 479112.0 0
124707.0 481116.0 0
126187.0 477983.0 0
128141.0 481359.0 0
130299.0 478299.0 0
134372.0 478395.0 0
137984.0 477667.0 0
141594.0 478423.0 0
145392.0 478978.0 0
149000.0 476496.0 0
149222.0 480383.0 0
153634.0 477935.0 0
158518.0 477332.0 0
163828.0 477028.0 0
168711.0 478334.0 0
172857.0 476721.0 0
176659.0 476801.0 0
180036.0 476276.0 0
183480.0 476722.0 0
186847.0 475436.0 0
185818.0 479514.0 0
190006.0 477858.0 0
193982.0 474959.0 0
193944.0 478248.0 0
198750.0 476749.0 0
204032.0 474592.0 0
203130.0 478884.0 0
206792.0 477353.0 0
210293.0 477960.0 0
214570.0 478691.0 0
217686.0 475224.0 0
219039.0 478677.0 0
222416.0 474360.0 0
223698.0 479209.0 0
227322.0 476259.0 0
231767.0 478435.0 0
235190.0 475128.0 0
236908.0 479170.0 0
244599.0 477463.0 0
241060.0 479274.0 0
249250.0 475526.0 0
252920.0 479075.0 0
257274.0 477742.0 0
261330.0 477156.0 0
264722.0 473870.0 0
269623.0 476377.0 0
274402.0 476937.0 0
279231.0 475960.0 0
283088.0 474934.0 0
286874.0 476454.0 0
291009.0 476943.0 0
294507.0 476581.0 0
298861.0 478301.0 0
303863.0 476975.0 0
307928.0 476397.0 0
310657.0 475755.0 0
311758.0 478849.0 0
315030.0 477229.0 0
319095.0 478167.0 0
322880.0 475989.0 0
325611.0 475664.0 0
328603.0 477154.0 0
332570.0 479098.0 0
335571.0 475963.0 0
336919.0 479481.0 0
341560.0 478064.0 0
347115.0 479783.0 0
350679.0 476502.0 0
354503.0 475744.0 0
357577.0 476010.0 0
355461.0 479643.0 0
360103.0 478672.0 0
364053.0 479106.0 0
369324.0 477168.0 0
367915.0 479077.0 0
373180.0 478760.0 0
378218.0 480258.0 0
379895.0 476514.0 0
383349.0 475997.0 0
383792.0 480400.0 0
386778.0 476660.0 0
388920.0 480501.0 0
393306.0 481148.0 0
395256.0 477927.0 0
399102.0 476552.0 0
398297.0 480401.0 0
402350.0 480145.0 0
408512.0 477467.0 0
405316.0 480087.0 0
414765.0 478930.0 0
418561.0 478754.0 0
419488.0 482810.0 0
422481.0 479328.0 0
426292.0 478901.0 0
428226.0 477005.0 0
428631.0 480932.0 0
434617.0 477768.0 0
431276.0 479013.0 0
439646.0 478637.0 0
436769.0 481671.0 0
443502.0 480617.0 0
446959.0 478982.0 0
451511.0 480597.0 0
454622.0 478584.0 0
455925.0 481506.0 0
458467.0 480993.0 0
459682.0 478249.0 0
463071.0 480011.0 0
466472.0 481202.0 0
23098.3 487929.0 0
26589.7 486458.0 0
28862.9 483928.0 0
30787.3 486144.0 0
34916.0 484596.0 0
33574.6 487967.0 0
37020.0 487557.0 0
41405.0 483008.0 0
43334.7 485302.0 0
39219.6 485471.0 0
41378.0 487254.0 0
45825.1 484214.0 0
45099.2 487145.0 0
48456.0 486919.0 0
49050.1 482897.0 0
52389.5 482888.0 0
52235.0 486399.0 0
55722.6 484190.0 0
59990.1 482615.0 0
63979.3 483679.0 0
58302.5 486212.0 0
67039.6 485125.0 0
73687.2 483315.0 0
70078.6 483660.0 0
72932.8 485894.0 0
76357.4 483454.0 0
82100.0 483716.0 0
78949.4 484960.0 0
86390.3 483822.0 0
83913.6 486730.0 0
89751.5 481595.0 0
89459.0 484909.0 0
93684.1 483416.0 0
98482.9 484029.0 0
102958.0 481492.0 0
102485.0 485287.0 0
106883.0 483574.0 0
111402.0 483558.0 0
114656.0 481802.0 0
117466.0 481654.0 0
119159.0 483680.0 0
122276.0 483533.0 0
125666.0 484142.0 0
128555.0 484439.0 0
132519.0 482509.0 0
137858.0 482152.0 0
141784.0 483983.0 0
142347.0 481146.0 0
145412.0 482528.0 0
148679.0 484534.0 0
151980.0 480634.0 0
152315.0 483071.0 0
156602.0 482054.0 0
161421.0 480915.0 0
164419.0 483577.0 0
165915.0 480485.0 0
168630.0 483408.0 0
171961.0 480708.0 0
175365.0 479941.0 0
173209.0 484510.0 0
175917.0 482527.0 0
180213.0 480979.0 0
184428.0 483288.0 0
188376.0 482347.0 0
192274.0 481475.0 0
195128.0 483789.0 0
196133.0 480630.0 0
200151.0 483226.0 0
206631.0 481965.0 0
211647.0 482541.0 0
216543.0 483489.0 0
220861.0 482450.0 0
224458.0 484034.0 0
227524.0 481044.0 0
230431.0 482523.0 0
233982.0 484115.0 0
239207.0 483665.0 0
243910.0 482615.0 0
248429.0 480908.0 0
252162.0 484123.0 0
256336.0 482246.0 0
261033.0 481036.0 0
265754.0 479833.0 0
268627.0 483813.0 0
270769.0 480285.0 0
274072.0 480677.0 0
278007.0 480901.0 0
281722.0 483519.0 0
283362.0 479631.0 0
288777.0 481135.0 0
285297.0 484363.0 0
293559.0 480009.0 0
296749.0 482842.0 0
300971.0 483849.0 0
303490.0 480825.0 0
305851.0 484752.0 0
307607.0 480531.0 0
311339.0 483699.0 0
315526.0 481272.0 0
320230.0 483489.0 0
324426.0 479976.0 0
324352.0 484727.0 0
327395.0 483494.0 0
329099.0 480599.0 0
331500.0 484150.0 0
335408.0 482443.0 0
339816.0 483060.0 0
344401.0 483058.0 0
349281.0 484463.0 0
351396.0 480771.0 0
354661.0 484717.0 0
360136.0 483416.0 0
364629.0 482763.0 0
367090.0 481499.0 0
368061.0 484389.0 0
370639.0 481764.0 0
371774.0 485053.0 0
375453.0 483797.0 0
380965.0 484704.0 0
385161.0 484678.0 0
387560.0 483587.0 0
390713.0 483947.0 0
396622.0 483855.0 0
400762.0 483873.0 0
404052.0 483506.0 0
407884.0 482534.0 0
407019.0 486206.0 0
411680.0 481404.0 0
415677.0 483382.0 0
418722.0 485542.0 0
423024.0 482986.0 0
425846.0 481832.0 0
426230.0 484777.0 0
429140.0 483600.0 0
430129.0 486534.0 0
432713.0 482718.0 0
433444.0 486133.0 0
440855.0 483941.0 0
436471.0 485615.0 0
444761.0 486538.0 0
446474.0 483618.0 0
448674.0 481623.0 0
449560.0 484804.0 0
452956.0 483988.0 0
457141.0 484991.0 0
460769.0 483596.0 0
464408.0 483218.0 0
461922.0 486798.0 0
466193.0 486878.0 0
468873.0 483921.0 0
472337.0 485922.0 0
475784.0 487840.0 0
20332.6 491267.0 0
24803.4 489983.0 0
24628.3 492757.0 0
28308.9 489270.0 0
31416.2 490157.0 0
34850.6 491546.0 0
38721.1 490785.0 0
43344.3 490429.0 0
47371.2 490742.0 0
51488.0 490318.0 0
55332.3 488997.0 0
61589.7 486712.0 0
59075.8 489665.0 0
62364.0 491372.0 0
65049.6 488010.0 0
66568.6 491347.0 0
69456.5 488018.0 0
69988.2 491714.0 0
76319.8 487007.0 0
73473.0 489734.0 0
78181.3 489680.0 0
80299.5 487237.0 0
82632.0 490656.0 0
87541.1 488085.0 0
91205.5 486837.0 0
91226.5 490425.0 0
95042.8 487778.0 0
99651.4 489138.0 0
105581.0 488329.0 0
109913.0 487300.0 0
115269.0 486138.0 0
119955.0 487402.0 0
123480.0 486492.0 0
120667.0 490312.0 0
123977.0 489972.0 0
126736.0 487268.0 0
128355.0 490639.0 0
130865.0 487085.0 0
132655.0 490937.0 0
135162.0 486640.0 0
138909.0 490066.0 0
139350.0 487015.0 0
141853.0 490212.0 0
144484.0 486758.0 0
145694.0 490494.0 0
148672.0 488320.0 0
151635.0 486390.0 0
152469.0 489776.0 0
155015.0 486321.0 0
156883.0 490162.0 0
160012.0 486160.0 0
164973.0 487473.0 0
169995.0 488648.0 0
175051.0 488550.0 0
177607.0 485459.0 0
178578.0 488948.0 0
181827.0 486843.0 0
186628.0 486548.0 0
191331.0 485983.0 0
195850.0 487136.0 0
199872.0 488831.0 0
204386.0 486671.0 0
208882.0 486453.0 0
213120.0 486925.0 0
217104.0 488435.0 0
220670.0 486105.0 0
224434.0 488141.0 0
228723.0 485939.0 0
232713.0 489311.0 0
237319.0 488180.0 0
242234.0 487596.0 0
247405.0 486692.0 0
252119.0 488926.0 0
258853.0 488967.0 0
255753.0 486771.0 0
259783.0 485205.0 0
261985.0 488685.0 0
264634.0 485220.0 0
268861.0 487945.0 0
273327.0 484990.0 0
276246.0 488837.0 0
278417.0 485726.0 0
282377.0 487342.0 0
286346.0 489365.0 0
288613.0 485930.0 0
292817.0 485180.0 0
290933.0 489521.0 0
297703.0 487337.0 0
294609.0 489376.0 0
302316.0 488405.0 0
306282.0 489199.0 0
309184.0 486906.0 0
309265.0 489712.0 0
312730.0 489234.0 0
315965.0 485955.0 0
319590.0 487348.0 0
323124.0 488462.0 0
327516.0 487180.0 0
331684.0 489434.0 0
336657.0 487365.0 0
341997.0 486990.0 0
345593.0 486939.0 0
348928.0 489281.0 0
352179.0 487918.0 0
355847.0 489623.0 0
358729.0 487644.0 0
365041.0 486274.0 0
362015.0 488083.0 0
365252.0 490054.0 0
369428.0 488296.0 0
373919.0 488043.0 0
377940.0 487616.0 0
376548.0 490785.0 0
381682.0 488698.0 0
385041.0 487748.0 0
388812.0 486723.0 0
388305.0 491062.0 0
393749.0 486129.0 0
391932.0 489371.0 0
398695.0 487037.0 0
403297.0 487712.0 0
400910.0 490967.0 0
407690.0 490035.0 0
411863.0 486695.0 0
415410.0 491088.0 0
416769.0 487589.0 0
419676.0 490756.0 0
422026.0 486964.0 0
423500.0 491173.0 0
426655.0 488806.0 0
431535.0 489515.0 0
435170.0 489728.0 0
440180.0 488994.0 0
445253.0 490972.0 0
448796.0 488600.0 0
453228.0 488173.0 0
455313.0 491335.0 0
457924.0 488488.0 0
461394.0 490272.0 0
458857.0 493050.0 0
464795.0 491252.0 0
470988.0 488454.0 0
469262.0 491230.0 0
473964.0 490678.0 0
476822.0 491343.0 0
479181.0 489694.0 0
479171.0 492363.0 0
482630.0 492728.0 0
12590.6 494602.0 0
10033.3 496163.0 0
16388.4 493343.0 0
14725.7 496744.0 0
17987.3 496768.0 0
21785.4 495896.0 0
27826.2 493087.0 0
25541.5 496456.0 0
31339.8 493052.0 0
29053.4 496336.0 0
33518.4 495755.0 0
37380.2 494807.0 0
41065.9 494369.0 0
39923.9 497772.0 0
44716.6 494950.0 0
49780.9 494057.0 0
54381.0 493129.0 0
57973.7 492980.0 0
53074.4 496912.0 0
60859.2 495289.0 0
64410.2 494327.0 0
67916.9 495217.0 0
72378.5 493642.0 0
75882.2 492174.0 0
75619.2 495798.0 0
79202.7 493419.0 0
83009.9 494959.0 0
86876.1 492309.0 0
91002.7 494900.0 0
94996.4 491760.0 0
95236.0 495156.0 0
98248.9 493498.0 0
100018.0 495729.0 0
103554.0 493080.0 0
108523.0 491790.0 0
107742.0 495438.0 0
112156.0 490368.0 0
112202.0 495169.0 0
116682.0 491705.0 0
120950.0 493842.0 0
123811.0 495937.0 0
125879.0 493478.0 0
130083.0 494555.0 0
134218.0 494652.0 0
136225.0 490252.0 0
138710.0 493708.0 0
143863.0 493654.0 0
148982.0 492734.0 0
153848.0 493639.0 0
158148.0 494508.0 0
161441.0 491013.0 0
165726.0 491688.0 0
173289.0 492357.0 0
177107.0 491926.0 0
180767.0 491365.0 0
184741.0 490655.0 0
183194.0 494500.0 0
189057.0 490259.0 0
187202.0 494557.0 0
191792.0 493764.0 0
192744.0 489682.0 0
196111.0 491812.0 0
200124.0 493991.0 0
203056.0 490639.0 0
204240.0 493297.0 0
206607.0 490150.0 0
207790.0 494312.0 0
210518.0 490373.0 0
214351.0 490745.0 0
212665.0 494451.0 0
217993.0 494140.0 0
220823.0 490042.0 0
223726.0 492622.0 0
228044.0 490906.0 0
231538.0 494307.0 0
236141.0 493068.0 0
239759.0 490712.0 0
243151.0 491672.0 0
240204.0 494024.0 0
247958.0 492892.0 0
253022.0 493456.0 0
256313.0 491143.0 0
260776.0 492563.0 0
265216.0 490209.0 0
268995.0 492579.0 0
272714.0 490191.0 0
272791.0 494530.0 0
277028.0 492846.0 0
279107.0 489367.0 0
281785.0 491629.0 0
285028.0 493759.0 0
289131.0 493265.0 0
294132.0 493303.0 0
299249.0 491946.0 0
304440.0 493203.0 0
309021.0 492734.0 0
313294.0 493970.0 0
318287.0 491738.0 0
323238.0 492595.0 0
327106.0 491697.0 0
331435.0 493695.0 0
336211.0 493468.0 0
340462.0 490930.0 0
344537.0 491044.0 0
341519.0 495289.0 0
345643.0 494855.0 0
348104.0 492942.0 0
352528.0 492484.0 0
356613.0 493586.0 0
360624.0 492328.0 0
365227.0 493502.0 0
369170.0 492544.0 0
373168.0 491717.0 0
372574.0 495718.0 0
380009.0 491380.0 0
377086.0 494975.0 0
381981.0 495351.0 0
384361.0 491738.0 0
389549.0 494764.0 0
392813.0 493100.0 0
396610.0 490751.0 0
397023.0 495286.0 0
400651.0 494245.0 0
404708.0 492745.0 0
409334.0 493955.0 0
411782.0 491425.0 0
413634.0 494801.0 0
417730.0 494647.0 0
422228.0 494504.0 0
426091.0 493462.0 0
429589.0 492204.0 0
429109.0 496003.0 0
433556.0 493872.0 0
438226.0 493925.0 0
442418.0 493655.0 0
444112.0 496393.0 0
450939.0 493432.0 0
446839.0 494282.0 0
455222.0 494638.0 0
457739.0 497001.0 0
460546.0 497124.0 0
462620.0 494536.0 0
464392.0 498035.0 0
467449.0 495383.0 0
472906.0 494779.0 0
477195.0 494199.0 0
476363.0 497896.0 0
480085.0 495216.0 0
479698.0 497964.0 0
486655.0 494905.0 0
483674.0 497807.0 0
489968.0 495572.0 0
489491.0 498849.0 0
492362.0 497523.0 0
7543.4 498278.0 0
3463.93 500059.0 0
12399.9 499017.0 0
9714.43 500300.0 0
7492.96 502393.0 0
10669.0 502413.0 0
16562.9 500731.0 0
20452.4 499443.0 0
20782.3 502716.0 0
23540.6 499930.0 0
26840.4 499420.0 0
30916.5 498995.0 0
28619.3 502001.0 0
35766.0 499520.0 0
32201.2 502256.0 0
39485.5 502255.0 0
43115.1 498882.0 0
47903.1 498549.0 0
52035.5 500290.0 0
57086.2 496492.0 0
56026.3 500487.0 0
60167.3 498954.0 0
63914.0 497514.0 0
63296.1 500930.0 0
67077.1 499359.0 0
71502.0 497617.0 0
77247.3 498205.0 0
74796.6 500494.0 0
79639.6 496569.0 0
79028.9 500480.0 0
82431.0 499034.0 0
86555.0 496974.0 0
89390.8 499214.0 0
93045.1 498809.0 0
97457.1 498103.0 0
103333.0 498836.0 0
108709.0 499144.0 0
113472.0 499751.0 0
116959.0 496670.0 0
121224.0 498433.0 0
126738.0 498212.0 0
132077.0 498567.0 0
136418.0 497946.0 0
141278.0 497849.0 0
146434.0 497221.0 0
151078.0 496160.0 0
150215.0 499609.0 0
154805.0 498083.0 0
159150.0 498187.0 0
163095.0 495766.0 0
166396.0 499467.0 0
169110.0 494942.0 0
171206.0 499888.0 0
174086.0 496160.0 0
179060.0 496180.0 0
184572.0 499663.0 0
190352.0 498263.0 0
195816.0 496933.0 0
200555.0 498749.0 0
202997.0 496117.0 0
205224.0 498639.0 0
209882.0 498575.0 0
214658.0 498709.0 0
222755.0 496947.0 0
227092.0 495458.0 0
226219.0 499067.0 0
230021.0 498727.0 0
234777.0 498261.0 0
239391.0 498174.0 0
243604.0 496271.0 0
247389.0 498894.0 0
251821.0 497693.0 0
256876.0 496280.0 0
261024.0 496928.0 0
264952.0 495062.0 0
269432.0 498068.0 0
275527.0 497585.0 0
280874.0 496722.0 0
286665.0 498363.0 0
291369.0 496772.0 0
297853.0 495903.0 0
295028.0 498518.0 0
301764.0 496686.0 0
306092.0 498121.0 0
309725.0 496346.0 0
313263.0 497733.0 0
317127.0 497510.0 0
321851.0 496535.0 0
325351.0 495318.0 0
328533.0 496015.0 0
332878.0 498802.0 0
337723.0 497849.0 0
341063.0 500152.0 0
345405.0 498728.0 0
350087.0 497157.0 0
353815.0 500274.0 0
355337.0 496767.0 0
359185.0 497049.0 0
361411.0 500640.0 0
363606.0 496992.0 0
368258.0 496573.0 0
371564.0 499500.0 0
375751.0 499395.0 0
380536.0 499763.0 0
384970.0 499239.0 0
386299.0 495494.0 0
389365.0 498938.0 0
393216.0 496934.0 0
393539.0 500768.0 0
396584.0 498957.0 0
400749.0 498534.0 0
403745.0 496447.0 0
406098.0 499798.0 0
407137.0 496179.0 0
411119.0 498021.0 0
416285.0 498343.0 0
420791.0 498250.0 0
425500.0 497351.0 0
424320.0 501095.0 0
429301.0 500578.0 0
432523.0 497873.0 0
436579.0 497752.0 0
434480.0 501576.0 0
440863.0 497364.0 0
439398.0 500660.0 0
446726.0 497404.0 0
444565.0 500299.0 0
449606.0 498710.0 0
453675.0 498210.0 0
457379.0 500646.0 0
461581.0 500506.0 0
465857.0 501205.0 0
467572.0 499280.0 0
470739.0 498694.0 0
473860.0 500201.0 0
477983.0 501157.0 0
481281.0 500941.0 0
483406.0 503233.0 0
486571.0 500624.0 0
492223.0 502806.0 0
494730.0 499838.0 0
498213.0 500014.0 0
1367.42 503657.0 0
2295.2 506776.0 0
9554.55 505279.0 0
5305.19 505093.0 0
13209.1 503714.0 0
13382.0 507888.0 0
17254.3 505333.0 0
21260.0 506623.0 0
24839.1 503562.0 0
25449.1 507583.0 0
28622.8 505206.0 0
35728.7 503547.0 0
37247.4 505994.0 0
32625.1 506120.0 0
40475.3 506213.0 0
44050.4 503035.0 0
47015.1 506062.0 0
49042.8 502763.0 0
52687.8 502733.0 0
51146.1 505867.0 0
55498.5 505051.0 0
59534.7 502412.0 0
59289.3 505804.0 0
62590.4 504428.0 0
66670.9 503223.0 0
70563.0 502014.0 0
70077.4 505855.0 0
73913.3 504608.0 0
77395.8 503309.0 0
81200.2 503230.0 0
85718.3 501763.0 0
88345.8 505777.0 0
90157.0 501718.0 0
92716.8 501731.0 0
92901.1 504179.0 0
95440.3 501677.0 0
96885.1 505384.0 0
98864.3 501590.0 0
101825.0 504391.0 0
105876.0 502783.0 0
109664.0 503540.0 0
118035.0 501136.0 0
114384.0 504613.0 0
118789.0 505702.0 0
123174.0 502703.0 0
128703.0 502509.0 0
132597.0 502507.0 0
134908.0 500967.0 0
135281.0 504822.0 0
138457.0 501598.0 0
142869.0 501811.0 0
145588.0 504030.0 0
146382.0 500978.0 0
148648.0 502638.0 0
152812.0 502892.0 0
157624.0 501945.0 0
162118.0 500652.0 0
161201.0 505573.0 0
164918.0 502908.0 0
168546.0 503174.0 0
175536.0 500029.0 0
179362.0 501399.0 0
181881.0 504193.0 0
189235.0 503344.0 0
193568.0 501450.0 0
196292.0 504137.0 0
197381.0 500716.0 0
199858.0 503127.0 0
203147.0 501754.0 0
207407.0 503072.0 0
212096.0 502261.0 0
215758.0 503649.0 0
218855.0 500050.0 0
223433.0 501686.0 0
219931.0 505046.0 0
227739.0 502494.0 0
232563.0 502810.0 0
238137.0 503442.0 0
243144.0 501104.0 0
246848.0 502901.0 0
250610.0 502131.0 0
255075.0 501129.0 0
259263.0 500272.0 0
263824.0 500194.0 0
263298.0 504513.0 0
267689.0 503297.0 0
273484.0 502883.0 0
278358.0 500846.0 0
282719.0 502206.0 0
287450.0 504337.0 0
291403.0 501575.0 0
295871.0 503636.0 0
299122.0 500144.0 0
302952.0 500552.0 0
300982.0 504742.0 0
306035.0 503355.0 0
310777.0 501016.0 0
315834.0 502081.0 0
318682.0 504458.0 0
320660.0 501056.0 0
321073.0 504664.0 0
323881.0 504230.0 0
326389.0 500259.0 0
331033.0 504089.0 0
337057.0 501989.0 0
341031.0 504826.0 0
344799.0 502775.0 0
349656.0 502843.0 0
354900.0 504072.0 0
357403.0 500510.0 0
359279.0 504158.0 0
362982.0 503972.0 0
367133.0 501466.0 0
373467.0 503360.0 0
378399.0 503755.0 0
384163.0 504328.0 0
387200.0 501767.0 0
390025.0 503879.0 0
394727.0 504292.0 0
398364.0 502407.0 0
402933.0 501917.0 0
401662.0 505371.0 0
410058.0 502011.0 0
406831.0 504784.0 0
414580.0 502083.0 0
412165.0 506123.0 0
419382.0 501956.0 0
417561.0 505814.0 0
421878.0 502629.0 0
423376.0 505827.0 0
427717.0 504298.0 0
431552.0 504418.0 0
434538.0 505291.0 0
438067.0 504367.0 0
442159.0 503318.0 0
445712.0 504535.0 0
448608.0 502585.0 0
450695.0 506496.0 0
453053.0 502598.0 0
457080.0 504427.0 0
454449.0 506597.0 0
460386.0 503632.0 0
460759.0 506125.0 0
464296.0 503943.0 0
463829.0 507157.0 0
467658.0 506313.0 0
469681.0 502822.0 0
472272.0 506592.0 0
475089.0 503694.0 0
476857.0 507624.0 0
479729.0 504624.0 0
480755.0 508185.0 0
487574.0 504573.0 0
483393.0 506565.0 0
485935.0 507933.0 0
493603.0 506557.0 0
489898.0 507374.0 0
497733.0 502766.0 0
497399.0 505956.0 0
2402.46 510836.0 0
5348.67 508971.0 0
9016.21 508929.0 0
17554.4 510199.0 0
21239.3 512617.0 0
22648.1 509933.0 0
26448.7 512276.0 0
28750.6 508398.0 0
31592.5 510325.0 0
35422.1 508886.0 0
35211.6 512393.0 0
38878.5 509654.0 0
41682.1 511032.0 0
43629.1 508044.0 0
45563.4 511550.0 0
48573.0 509222.0 0
52932.6 509277.0 0
54254.9 512113.0 0
57204.5 509136.0 0
61407.5 508218.0 0
60151.4 510795.0 0
65692.5 507086.0 0
64009.3 511037.0 0
73455.2 508143.0 0
69040.4 509605.0 0
78176.7 507031.0 0
83105.0 506560.0 0
77447.3 510893.0 0
85403.8 509659.0 0
89018.8 510169.0 0
92766.5 507973.0 0
96157.9 509614.0 0
100381.0 508868.0 0
105576.0 507521.0 0
110812.0 508156.0 0
115395.0 509108.0 0
119622.0 510279.0 0
122568.0 507211.0 0
126601.0 506724.0 0
129007.0 510498.0 0
131173.0 506407.0 0
134394.0 509679.0 0
140395.0 506492.0 0
145443.0 507307.0 0
148952.0 505581.0 0
148757.0 509497.0 0
151925.0 506983.0 0
155867.0 506349.0 0
158468.0 509931.0 0
166000.0 506483.0 0
170210.0 506466.0 0
173895.0 504432.0 0
178194.0 505070.0 0
176441.0 509043.0 0
181015.0 507881.0 0
185197.0 505282.0 0
190068.0 508110.0 0
193278.0 505624.0 0
198084.0 507957.0 0
203096.0 506197.0 0
207805.0 508162.0 0
212198.0 506268.0 0
216418.0 508346.0 0
224598.0 506331.0 0
221143.0 510096.0 0
229435.0 506741.0 0
234290.0 507575.0 0
239237.0 509371.0 0
243780.0 506253.0 0
248936.0 505953.0 0
253194.0 505437.0 0
251301.0 508767.0 0
258494.0 505100.0 0
262157.0 508235.0 0
265816.0 507242.0 0
270207.0 507522.0 0
278875.0 505566.0 0
275022.0 508930.0 0
283636.0 507510.0 0
288398.0 509038.0 0
291922.0 506379.0 0
296312.0 508801.0 0
300687.0 509157.0 0
305254.0 508964.0 0
311180.0 506779.0 0
316201.0 506392.0 0
321160.0 509106.0 0
326756.0 506894.0 0
331314.0 510028.0 0
336227.0 506724.0 0
341526.0 510232.0 0
346096.0 507079.0 0
351660.0 508700.0 0
357265.0 508105.0 0
362345.0 508235.0 0
366255.0 505931.0 0
370590.0 506204.0 0
367437.0 509966.0 0
371744.0 510055.0 0
375708.0 508227.0 0
380511.0 507635.0 0
383911.0 509172.0 0
388497.0 508618.0 0
393351.0 507668.0 0
397640.0 506685.0 0
396517.0 510486.0 0
400847.0 509589.0 0
404911.0 508593.0 0
409338.0 509981.0 0
415058.0 509532.0 0
420305.0 509790.0 0
425502.0 510817.0 0
429540.0 508080.0 0
433291.0 507403.0 0
434244.0 511347.0 0
436887.0 507978.0 0
441764.0 507544.0 0
439166.0 511463.0 0
446600.0 507965.0 0
450057.0 511316.0 0
454495.0 510601.0 0
457831.0 507927.0 0
461366.0 509316.0 0
458686.0 510983.0 0
466142.0 510567.0 0
470144.0 509330.0 0
474038.0 510119.0 0
478512.0 511928.0 0
483504.0 511342.0 0
488271.0 511021.0 0
492442.0 510195.0 0
496813.0 510480.0 0
2045.92 514262.0 0
6870.79 512985.0 0
5446.61 516429.0 0
9362.67 516330.0 0
12274.3 512737.0 0
13488.2 516748.0 0
17475.9 514934.0 0
22807.4 516014.0 0
31138.3 513795.0 0
28562.0 517915.0 0
33995.6 516013.0 0
38532.7 513800.0 0
42328.9 513902.0 0
46053.2 515439.0 0
50113.8 513077.0 0
57484.0 512614.0 0
53783.5 516311.0 0
60880.6 512758.0 0
59019.5 515832.0 0
63242.1 515192.0 0
67519.0 513831.0 0
73142.5 512961.0 0
81692.1 511072.0 0
78224.3 514741.0 0
82121.6 515375.0 0
86533.7 513851.0 0
92469.0 512856.0 0
97761.4 512873.0 0
103164.0 512801.0 0
107695.0 511561.0 0
107858.0 515398.0 0
111978.0 512641.0 0
116462.0 513209.0 0
121027.0 514599.0 0
124204.0 511006.0 0
126192.0 515276.0 0
131542.0 514162.0 0
135440.0 513915.0 0
138949.0 511941.0 0
137753.0 515750.0 0
143973.0 511402.0 0
148336.0 514551.0 0
153323.0 510888.0 0
153243.0 515442.0 0
157176.0 513874.0 0
163530.0 511488.0 0
168163.0 509762.0 0
169154.0 514190.0 0
172082.0 509948.0 0
174446.0 514096.0 0
180045.0 513276.0 0
185226.0 510161.0 0
189859.0 513284.0 0
193952.0 510520.0 0
197869.0 513229.0 0
203293.0 511930.0 0
207760.0 512157.0 0
212119.0 511362.0 0
216982.0 513495.0 0
220622.0 514091.0 0
224130.0 513947.0 0
226442.0 510423.0 0
227884.0 513801.0 0
230737.0 511139.0 0
235112.0 512390.0 0
239171.0 514209.0 0
243074.0 512677.0 0
247393.0 510426.0 0
251786.0 512989.0 0
255159.0 509518.0 0
259270.0 511293.0 0
263603.0 511819.0 0
267263.0 510817.0 0
271367.0 512562.0 0
279776.0 510614.0 0
284730.0 512785.0 0
280249.0 514827.0 0
290086.0 513312.0 0
292327.0 510300.0 0
295013.0 513361.0 0
299561.0 513189.0 0
303993.0 513691.0 0
309000.0 510598.0 0
308031.0 513695.0 0
311581.0 511974.0 0
315482.0 510635.0 0
318488.0 514167.0 0
326151.0 511546.0 0
329340.0 515504.0 0
333250.0 514345.0 0
336280.0 512074.0 0
339570.0 514758.0 0
343419.0 515214.0 0
347221.0 512417.0 0
351610.0 514951.0 0
355667.0 512664.0 0
360018.0 511658.0 0
359914.0 515431.0 0
364357.0 513703.0 0
369976.0 513675.0 0
374815.0 513701.0 0
380306.0 512619.0 0
386045.0 513208.0 0
390419.0 514386.0 0
392364.0 511408.0 0
395252.0 514953.0 0
400408.0 514121.0 0
404999.0 512594.0 0
408700.0 515011.0 0
412887.0 513163.0 0
415919.0 516301.0 0
417805.0 513090.0 0
422486.0 514184.0 0
429894.0 512862.0 0
426419.0 515530.0 0
433163.0 515774.0 0
437164.0 515422.0 0
441028.0 515096.0 0
444485.0 512185.0 0
444463.0 517031.0 0
448604.0 515421.0 0
457553.0 514498.0 0
452985.0 514800.0 0
462118.0 512931.0 0
462588.0 516910.0 0
467508.0 515469.0 0
471093.0 512666.0 0
472745.0 516584.0 0
474779.0 513735.0 0
481500.0 515776.0 0
486497.0 515206.0 0
491760.0 514426.0 0
497093.0 514874.0 0
2073.34 517590.0 0
1783.68 520418.0 0
6538.95 520415.0 0
10828.2 519385.0 0
15057.3 520550.0 0
19056.7 518718.0 0
23498.6 520284.0 0
33631.2 520260.0 0
37177.1 517182.0 0
41343.3 517614.0 0
37924.7 520375.0 0
45580.1 519368.0 0
49352.5 517375.0 0
48484.0 520048.0 0
51377.4 520619.0 0
57035.0 519664.0 0
61722.0 519513.0 0
65944.3 517799.0 0
64803.4 520437.0 0
67800.2 521372.0 0
70359.5 517621.0 0
72052.8 521955.0 0
75132.9 518090.0 0
79658.0 518805.0 0
84695.6 519149.0 0
89821.6 517583.0 0
94621.3 516884.0 0
96433.5 520356.0 0
99269.7 516530.0 0
100217.0 520358.0 0
104037.0 517941.0 0
108062.0 520179.0 0
111841.0 516934.0 0
116858.0 517668.0 0
121731.0 518975.0 0
125699.0 519765.0 0
129974.0 518684.0 0
134842.0 517825.0 0
141892.0 516598.0 0
146059.0 519198.0 0
151253.0 520165.0 0
156508.0 518095.0 0
160615.0 515952.0 0
160251.0 520074.0 0
164665.0 516589.0 0
168218.0 518456.0 0
172066.0 517959.0 0
177037.0 518374.0 0
181623.0 518017.0 0
185209.0 515596.0 0
189324.0 518890.0 0
193931.0 516071.0 0
197888.0 518187.0 0
200912.0 516209.0 0
201184.0 519356.0 0
204867.0 517401.0 0
208983.0 515477.0 0
213163.0 516138.0 0
221157.0 518162.0 0
226723.0 518117.0 0
231416.0 515822.0 0
236031.0 516643.0 0
241982.0 517094.0 0
247058.0 516064.0 0
251756.0 517225.0 0
256338.0 515128.0 0
259047.0 518731.0 0
261586.0 515531.0 0
266917.0 515608.0 0
272287.0 517432.0 0
276114.0 514075.0 0
282903.0 517728.0 0
287707.0 517522.0 0
292840.0 517209.0 0
297514.0 517369.0 0
302326.0 517552.0 0
305999.0 516601.0 0
309530.0 517772.0 0
313803.0 515598.0 0
317845.0 518759.0 0
323280.0 515823.0 0
321718.0 520977.0 0
326917.0 520397.0 0
332491.0 519973.0 0
335950.0 516772.0 0
336675.0 520418.0 0
340454.0 518748.0 0
344693.0 518498.0 0
348098.0 517024.0 0
351890.0 520215.0 0
355592.0 517265.0 0
359063.0 518695.0 0
363731.0 519956.0 0
368107.0 517124.0 0
372295.0 517485.0 0
373997.0 520678.0 0
377979.0 518508.0 0
383441.0 517634.0 0
387970.0 516992.0 0
392079.0 518924.0 0
396843.0 519160.0 0
400692.0 518446.0 0
404764.0 516826.0 0
408488.0 519812.0 0
412420.0 517906.0 0
419961.0 517034.0 0
416959.0 520454.0 0
420978.0 520279.0 0
423099.0 521389.0 0
423977.0 518592.0 0
429776.0 516701.0 0
427838.0 519860.0 0
431599.0 519455.0 0
435279.0 519636.0 0
440527.0 519973.0 0
447134.0 519496.0 0
451203.0 518760.0 0
455313.0 518298.0 0
458160.0 521599.0 0
459197.0 518481.0 0
461957.0 520806.0 0
466129.0 520395.0 0
470297.0 519602.0 0
477281.0 516618.0 0
475212.0 520434.0 0
479765.0 520090.0 0
484473.0 519775.0 0
489213.0 519165.0 0
493798.0 518752.0 0
492371.0 522981.0 0
497716.0 518995.0 0
2663.62 523763.0 0
7181.66 525742.0 0
11089.1 522988.0 0
15166.6 524827.0 0
19122.7 522578.0 0
23065.7 524263.0 0
27938.6 523404.0 0
32433.6 524471.0 0
36799.3 523944.0 0
41993.2 522650.0 0
44579.9 526642.0 0
47404.3 523450.0 0
51737.6 525165.0 0
54506.6 521983.0 0
55296.0 524094.0 0
58855.7 523591.0 0
60878.2 527533.0 0
63860.9 523939.0 0
68757.6 525549.0 0
73179.1 526089.0 0
76596.5 522546.0 0
81132.9 522654.0 0
85133.3 523982.0 0
88448.1 521492.0 0
92543.4 521381.0 0
89845.0 525860.0 0
94582.2 525260.0 0
98192.5 523566.0 0
103443.0 523784.0 0
108562.0 525424.0 0
112785.0 521465.0 0
118058.0 522590.0 0
123340.0 524151.0 0
128592.0 523107.0 0
133300.0 522070.0 0
138429.0 520974.0 0
136219.0 525226.0 0
142685.0 521346.0 0
146593.0 523767.0 0
156147.0 522688.0 0
160596.0 524462.0 0
164478.0 521026.0 0
169458.0 522371.0 0
165085.0 525606.0 0
173832.0 521386.0 0
180830.0 523092.0 0
184890.0 519899.0 0
186646.0 523566.0 0
190878.0 523043.0 0
194341.0 520655.0 0
198795.0 522529.0 0
204179.0 522398.0 0
209489.0 520322.0 0
208129.0 524582.0 0
212070.0 524487.0 0
215530.0 520390.0 0
220163.0 522870.0 0
224239.0 522013.0 0
229101.0 523137.0 0
233255.0 520122.0 0
233927.0 524294.0 0
238429.0 520668.0 0
244478.0 520413.0 0
241935.0 523740.0 0
249471.0 521481.0 0
254911.0 520084.0 0
259908.0 523976.0 0
264137.0 519922.0 0
268621.0 519927.0 0
267152.0 524646.0 0
272551.0 522537.0 0
277819.0 519736.0 0
284789.0 522039.0 0
290369.0 522245.0 0
295347.0 521612.0 0
300007.0 521316.0 0
305908.0 519872.0 0
309278.0 522066.0 0
313386.0 520243.0 0
313125.0 524471.0 0
316703.0 522777.0 0
319854.0 524676.0 0
324561.0 525656.0 0
330217.0 524603.0 0
335250.0 524472.0 0
339168.0 522638.0 0
343822.0 523086.0 0
347568.0 520666.0 0
348965.0 524614.0 0
353068.0 524696.0 0
357329.0 522536.0 0
367149.0 524122.0 0
369890.0 521202.0 0
370611.0 525220.0 0
373242.0 523612.0 0
376689.0 523551.0 0
381739.0 523398.0 0
386073.0 526147.0 0
387294.0 521682.0 0
389442.0 526003.0 0
391568.0 523411.0 0
395221.0 522831.0 0
399442.0 522428.0 0
404294.0 521459.0 0
408399.0 525413.0 0
412672.0 522693.0 0
416766.0 524581.0 0
420815.0 523858.0 0
425644.0 523423.0 0
431140.0 523836.0 0
436679.0 524271.0 0
441700.0 525449.0 0
444758.0 522518.0 0
449147.0 523188.0 0
453971.0 523159.0 0
458010.0 525503.0 0
460707.0 523709.0 0
464445.0 524164.0 0
468867.0 524504.0 0
471802.0 522549.0 0
473968.0 525482.0 0
478260.0 523820.0 0
482415.0 523858.0 0
480706.0 526716.0 0
487463.0 524449.0 0
492618.0 527777.0 0
497295.0 522892.0 0
2510.4 527887.0 0
2078.07 531713.0 0
6358.02 530907.0 0
9454.27 529194.0 0
11573.0 527114.0 0
11469.0 531644.0 0
14673.2 529245.0 0
19461.1 527779.0 0
25264.5 528014.0 0
22309.1 531745.0 0
29945.9 528213.0 0
26767.1 532789.0 0
34993.7 528078.0 0
40043.3 527342.0 0
43899.1 530454.0 0
48017.5 528017.0 0
55896.5 527031.0 0
51951.2 529808.0 0
57663.4 532006.0 0
64882.3 528051.0 0
68763.9 530274.0 0
77635.3 526922.0 0
73920.3 530025.0 0
81590.3 526256.0 0
78486.3 531007.0 0
81511.1 529074.0 0
84943.5 528085.0 0
88728.3 531044.0 0
93688.0 529570.0 0
98867.4 527999.0 0
104516.0 529522.0 0
113818.0 526657.0 0
118790.0 527434.0 0
122482.0 529009.0 0
125807.0 528625.0 0
128389.0 526840.0 0
131793.0 526180.0 0
134434.0 529283.0 0
137945.0 528989.0 0
141403.0 525880.0 0
146271.0 529009.0 0
151538.0 526122.0 0
154727.0 529701.0 0
156291.0 526533.0 0
159467.0 529699.0 0
169879.0 527675.0 0
172865.0 530229.0 0
175411.0 525990.0 0
179623.0 528162.0 0
184042.0 527752.0 0
189895.0 526741.0 0
194553.0 525539.0 0
198434.0 529553.0 0
201341.0 525797.0 0
205038.0 527389.0 0
209676.0 528312.0 0
213901.0 529775.0 0
216406.0 525901.0 0
220901.0 526954.0 0
225137.0 526375.0 0
229398.0 528737.0 0
234025.0 528403.0 0
237945.0 525977.0 0
242165.0 528316.0 0
245823.0 525314.0 0
249595.0 526498.0 0
253898.0 525249.0 0
263405.0 529504.0 0
268434.0 529632.0 0
272563.0 527598.0 0
277700.0 525984.0 0
280935.0 523400.0 0
282994.0 526222.0 0
287277.0 526127.0 0
292702.0 526834.0 0
298165.0 526084.0 0
304273.0 524720.0 0
309473.0 526220.0 0
312777.0 528800.0 0
316565.0 526918.0 0
320465.0 529020.0 0
328504.0 528730.0 0
332994.0 528993.0 0
340022.0 527072.0 0
345128.0 528159.0 0
349436.0 528847.0 0
353233.0 528286.0 0
357315.0 527589.0 0
362694.0 526119.0 0
367890.0 527739.0 0
371531.0 528299.0 0
374360.0 526537.0 0
374535.0 530735.0 0
378775.0 528162.0 0
383628.0 528517.0 0
388187.0 529786.0 0
393317.0 526981.0 0
392350.0 530971.0 0
397875.0 526328.0 0
396708.0 530602.0 0
400318.0 529218.0 0
402668.0 526042.0 0
405247.0 530085.0 0
410197.0 530918.0 0
414085.0 527704.0 0
417296.0 530556.0 0
418910.0 527689.0 0
420960.0 531018.0 0
423255.0 527665.0 0
427803.0 527586.0 0
430570.0 531316.0 0
433713.0 528005.0 0
438526.0 528923.0 0
443377.0 530213.0 0
446322.0 526703.0 0
448083.0 530975.0 0
450953.0 527672.0 0
455098.0 527490.0 0
454179.0 531258.0 0
461828.0 527433.0 0
458361.0 529440.0 0
463342.0 531574.0 0
466237.0 527956.0 0
468757.0 531553.0 0
470755.0 527890.0 0
477395.0 527471.0 0
474378.0 530858.0 0
484158.0 527839.0 0
480236.0 530849.0 0
487867.0 528702.0 0
485446.0 532267.0 0
490639.0 532101.0 0
497422.0 526986.0 0
497345.0 531225.0 0
3349.56 536111.0 0
8392.46 534502.0 0
11960.8 535535.0 0
17135.3 534058.0 0
22528.3 535564.0 0
29649.3 536144.0 0
32411.9 532218.0 0
38563.0 532724.0 0
43802.0 534887.0 0
47918.1 532272.0 0
52151.5 534269.0 0
56974.0 537122.0 0
63688.0 531981.0 0
71405.7 533752.0 0
75301.5 534472.0 0
79490.0 535563.0 0
83453.6 532635.0 0
87250.1 536068.0 0
92221.1 534620.0 0
97316.9 533273.0 0
101048.0 531571.0 0
102863.0 534138.0 0
106767.0 535670.0 0
109771.0 531097.0 0
115501.0 531532.0 0
119182.0 535706.0 0
120100.0 531304.0 0
124313.0 533018.0 0
129703.0 531207.0 0
135174.0 534381.0 0
141173.0 532119.0 0
146267.0 534224.0 0
150845.0 531703.0 0
155815.0 533964.0 0
160983.0 534308.0 0
164930.0 531007.0 0
170276.0 533542.0 0
176187.0 531901.0 0
181460.0 532110.0 0
187867.0 530495.0 0
185539.0 534410.0 0
192785.0 530479.0 0
190175.0 534923.0 0
203210.0 531018.0 0
200713.0 534089.0 0
206652.0 530999.0 0
210466.0 533510.0 0
218457.0 530557.0 0
215511.0 534011.0 0
219646.0 534759.0 0
223291.0 530656.0 0
223493.0 534727.0 0
227284.0 533029.0 0
232585.0 533447.0 0
237874.0 531098.0 0
242639.0 533099.0 0
246986.0 530387.0 0
251862.0 529922.0 0
253368.0 533997.0 0
257218.0 530201.0 0
260925.0 533953.0 0
266716.0 534508.0 0
271764.0 532375.0 0
276246.0 530887.0 0
279948.0 535048.0 0
281241.0 530410.0 0
285334.0 529306.0 0
289110.0 530029.0 0
287412.0 534211.0 0
292268.0 530208.0 0
291833.0 533600.0 0
295764.0 530860.0 0
301470.0 531237.0 0
307076.0 530077.0 0
311515.0 533709.0 0
316430.0 531332.0 0
320774.0 533984.0 0
324836.0 531261.0 0
329573.0 533234.0 0
334134.0 533374.0 0
337323.0 530782.0 0
338207.0 535249.0 0
341885.0 531891.0 0
347166.0 533136.0 0
351760.0 532023.0 0
355853.0 531733.0 0
358824.0 534849.0 0
360360.0 530920.0 0
362584.0 534165.0 0
365085.0 531006.0 0
370103.0 532114.0 0
366504.0 535622.0 0
375138.0 535279.0 0
377819.0 532407.0 0
379819.0 535443.0 0
384376.0 533331.0 0
390230.0 534856.0 0
394307.0 533862.0 0
397584.0 534629.0 0
401407.0 532794.0 0
406094.0 535033.0 0
411727.0 535731.0 0
414672.0 532373.0 0
418416.0 534399.0 0
425376.0 532131.0 0
428536.0 534411.0 0
435475.0 532554.0 0
437252.0 536482.0 0
440250.0 533760.0 0
445361.0 535343.0 0
450800.0 534633.0 0
455220.0 535063.0 0
458644.0 533185.0 0
461940.0 535259.0 0
466328.0 535628.0 0
471876.0 536099.0 0
477386.0 535182.0 0
481701.0 534594.0 0
484638.0 536430.0 0
489143.0 536997.0 0
494394.0 535197.0 0
498294.0 534774.0 0
8809.8 538976.0 0
14164.9 539399.0 0
20075.8 539818.0 0
25491.0 538050.0 0
29802.3 540130.0 0
34306.7 537248.0 0
39802.4 538687.0 0
44597.8 537572.0 0
44801.3 541046.0 0
48113.3 537127.0 0
53082.0 539229.0 0
61641.1 536853.0 0
58023.3 541008.0 0
67028.7 535766.0 0
67440.8 540385.0 0
72309.9 538831.0 0
77990.3 540127.0 0
82908.0 538155.0 0
86385.7 540884.0 0
90808.9 539324.0 0
95548.1 538248.0 0
100292.0 537522.0 0
104286.0 540189.0 0
112454.0 536726.0 0
116671.0 540246.0 0
120665.0 540061.0 0
124075.0 537712.0 0
128599.0 536536.0 0
132850.0 540556.0 0
137674.0 538579.0 0
142076.0 537664.0 0
147021.0 538916.0 0
151203.0 536437.0 0
155349.0 538745.0 0
160248.0 538797.0 0
165261.0 536635.0 0
169925.0 538936.0 0
173953.0 536203.0 0
177979.0 536725.0 0
181984.0 536723.0 0
185947.0 539596.0 0
191668.0 540117.0 0
195717.0 535515.0 0
200686.0 538940.0 0
205167.0 535101.0 0
208612.0 538508.0 0
204937.0 539364.0 0
213309.0 538093.0 0
217462.0 537667.0 0
221471.0 538890.0 0
226717.0 538140.0 0
231282.0 538273.0 0
239219.0 535100.0 0
236221.0 538656.0 0
242430.0 538444.0 0
246625.0 535357.0 0
247128.0 539376.0 0
250537.0 537306.0 0
255053.0 538270.0 0
257101.0 534897.0 0
259518.0 537790.0 0
263876.0 539372.0 0
268546.0 539355.0 0
271184.0 536441.0 0
275377.0 535543.0 0
278360.0 539322.0 0
283839.0 536059.0 0
282679.0 539689.0 0
287154.0 539114.0 0
291569.0 537824.0 0
296414.0 536171.0 0
301255.0 536298.0 0
303625.0 539164.0 0
305936.0 535396.0 0
312062.0 539266.0 0
316225.0 536229.0 0
321806.0 538094.0 0
325511.0 536285.0 0
329792.0 537530.0 0
334032.0 537635.0 0
343131.0 537042.0 0
348105.0 538225.0 0
353578.0 536890.0 0
358111.0 538165.0 0
362357.0 538765.0 0
367786.0 540626.0 0
370965.0 536807.0 0
373936.0 539975.0 0
377950.0 539076.0 0
382464.0 539417.0 0
386629.0 537820.0 0
390704.0 540427.0 0
394983.0 538068.0 0
400954.0 538101.0 0
405361.0 539442.0 0
408555.0 538702.0 0
412043.0 541420.0 0
415831.0 538096.0 0
419401.0 538206.0 0
422569.0 535451.0 0
426546.0 537120.0 0
422605.0 539664.0 0
432241.0 537098.0 0
436926.0 540549.0 0
440855.0 538076.0 0
444730.0 540635.0 0
449294.0 539073.0 0
453611.0 538393.0 0
458398.0 537823.0 0
463085.0 538764.0 0
467589.0 540914.0 0
472262.0 540326.0 0
476494.0 540258.0 0
481048.0 538494.0 0
485497.0 540505.0 0
493544.0 539965.0 0
497884.0 538009.0 0
3693.21 542213.0 0
9907.59 544053.0 0
15679.8 544330.0 0
20615.0 544364.0 0
24826.7 542758.0 0
29562.7 544050.0 0
34687.1 542727.0 0
40279.5 544172.0 0
45039.9 546396.0 0
49735.9 543391.0 0
54630.9 544109.0 0
59046.3 545646.0 0
62930.0 541979.0 0
66646.6 544040.0 0
69918.9 543007.0 0
74385.5 544471.0 0
82174.8 541765.0 0
79743.7 544523.0 0
84431.5 545112.0 0
89790.2 544568.0 0
93847.6 542182.0 0
95211.5 546103.0 0
98676.3 542297.0 0
102498.0 544371.0 0
106275.0 544840.0 0
109144.0 541318.0 0
113642.0 543613.0 0
109997.0 545559.0 0
119409.0 544719.0 0
123525.0 541663.0 0
124923.0 545136.0 0
127369.0 541208.0 0
129475.0 545141.0 0
139284.0 542877.0 0
143777.0 541879.0 0
147361.0 543357.0 0
151283.0 541167.0 0
155373.0 543265.0 0
160164.0 544000.0 0
164420.0 541595.0 0
168631.0 543580.0 0
172609.0 544980.0 0
174821.0 540729.0 0
180462.0 541124.0 0
186015.0 544463.0 0
196557.0 542606.0 0
201549.0 544172.0 0
205673.0 542707.0 0
211079.0 543882.0 0
216441.0 541268.0 0
216255.0 544906.0 0
220156.0 543650.0 0
225171.0 543359.0 0
230428.0 542837.0 0
239654.0 543010.0 0
235200.0 543923.0 0
245158.0 544118.0 0
251784.0 542980.0 0
258054.0 542608.0 0
262379.0 543422.0 0
266944.0 544055.0 0
273295.0 540478.0 0
271343.0 544111.0 0
277121.0 544130.0 0
281836.0 543587.0 0
285484.0 543028.0 0
289915.0 543824.0 0
294705.0 541375.0 0
299724.0 540490.0 0
303789.0 542967.0 0
307464.0 540226.0 0
307900.0 544436.0 0
317714.0 540887.0 0
322359.0 541879.0 0
327360.0 541376.0 0
332540.0 541870.0 0
338697.0 540910.0 0
344921.0 542660.0 0
351037.0 542532.0 0
357494.0 542587.0 0
363442.0 544267.0 0
367976.0 545372.0 0
371349.0 543378.0 0
375549.0 544613.0 0
379517.0 542757.0 0
384012.0 544761.0 0
386829.0 541644.0 0
388958.0 544686.0 0
393271.0 544487.0 0
397763.0 542663.0 0
403600.0 543393.0 0
407648.0 541978.0 0
408502.0 545993.0 0
414064.0 546197.0 0
418133.0 542183.0 0
426794.0 541473.0 0
423275.0 544909.0 0
430527.0 541533.0 0
429211.0 545740.0 0
433737.0 543712.0 0
440838.0 542018.0 0
438491.0 545815.0 0
443461.0 545275.0 0
452345.0 541714.0 0
448716.0 544266.0 0
456159.0 541772.0 0
454170.0 545508.0 0
460784.0 542533.0 0
463567.0 546262.0 0
468009.0 545864.0 0
472778.0 544635.0 0
477452.0 544953.0 0
481608.0 543325.0 0
486697.0 544110.0 0
489728.0 542142.0 0
494371.0 544359.0 0
497524.0 541916.0 0
497991.0 545686.0 0
3214.94 548041.0 0
8596.22 548596.0 0
13508.4 549548.0 0
19052.1 548863.0 0
23023.0 546628.0 0
23753.0 550271.0 0
26874.7 547324.0 0
31682.0 547694.0 0
33546.1 551314.0 0
36791.6 547987.0 0
45945.4 550371.0 0
41455.4 549520.0 0
49898.0 548513.0 0
55144.0 548609.0 0
60302.9 550243.0 0
63740.2 547064.0 0
69090.4 547807.0 0
74086.9 549653.0 0
77573.6 547912.0 0
81348.0 548667.0 0
86889.8 548652.0 0
91466.9 549763.0 0
96529.3 550531.0 0
99827.5 547397.0 0
104319.0 548898.0 0
109226.0 549545.0 0
114788.0 548961.0 0
120614.0 550330.0 0
125573.0 549176.0 0
130326.0 550206.0 0
134600.0 546300.0 0
139477.0 547772.0 0
143694.0 546209.0 0
147371.0 546516.0 0
147652.0 549807.0 0
151199.0 546050.0 0
155867.0 547687.0 0
159986.0 548476.0 0
163342.0 550585.0 0
164673.0 546236.0 0
167307.0 549757.0 0
170799.0 548327.0 0
177294.0 545535.0 0
174730.0 549673.0 0
182107.0 545679.0 0
180027.0 550598.0 0
186096.0 549472.0 0
190737.0 545735.0 0
194104.0 549292.0 0
194948.0 546474.0 0
198830.0 549156.0 0
205629.0 547450.0 0
214687.0 547949.0 0
218323.0 547791.0 0
222681.0 547964.0 0
227568.0 547894.0 0
232719.0 548268.0 0
238198.0 547809.0 0
242427.0 548290.0 0
249107.0 547095.0 0
246304.0 549830.0 0
252692.0 548963.0 0
257670.0 547873.0 0
262795.0 547692.0 0
270769.0 548712.0 0
275695.0 548265.0 0
280771.0 548763.0 0
285952.0 546936.0 0
290181.0 549152.0 0
294898.0 546705.0 0
299793.0 545107.0 0
299063.0 549317.0 0
304287.0 548409.0 0
309868.0 550069.0 0
313481.0 545188.0 0
319362.0 545492.0 0
324561.0 546768.0 0
330113.0 546056.0 0
328241.0 550259.0 0
335737.0 546120.0 0
332552.0 550277.0 0
340821.0 545427.0 0
339513.0 549945.0 0
344235.0 548169.0 0
348287.0 546363.0 0
354153.0 547393.0 0
359870.0 548434.0 0
365627.0 548397.0 0
371636.0 547852.0 0
375857.0 549153.0 0
379759.0 547391.0 0
387137.0 548597.0 0
391117.0 547886.0 0
395728.0 549356.0 0
400285.0 546778.0 0
399945.0 550033.0 0
405023.0 546529.0 0
404529.0 550589.0 0
411059.0 550767.0 0
416461.0 550901.0 0
418640.0 546697.0 0
421261.0 549764.0 0
424870.0 552203.0 0
426130.0 548610.0 0
433766.0 548148.0 0
437409.0 550521.0 0
441753.0 550333.0 0
446104.0 548792.0 0
450928.0 549276.0 0
455648.0 549777.0 0
458782.0 546881.0 0
461567.0 550288.0 0
466843.0 550675.0 0
470874.0 548446.0 0
475680.0 548888.0 0
480447.0 548158.0 0
484528.0 551684.0 0
484681.0 546879.0 0
490386.0 547931.0 0
497120.0 549791.0 0
2023.39 552462.0 0
2742.08 556575.0 0
6043.48 552456.0 0
10068.5 552389.0 0
8285.23 556746.0 0
13446.4 554610.0 0
17869.5 553701.0 0
21225.9 552380.0 0
24183.1 554111.0 0
28689.4 552227.0 0
29706.4 556495.0 0
32972.8 555241.0 0
38096.7 553462.0 0
43513.6 553282.0 0
48362.6 553382.0 0
51905.7 555199.0 0
52378.4 551837.0 0
56563.1 554089.0 0
62088.2 554775.0 0
65035.7 551186.0 0
67070.7 555282.0 0
70799.9 552536.0 0
77923.8 552022.0 0
80235.7 556034.0 0
84195.7 552735.0 0
86545.9 556073.0 0
89016.6 553937.0 0
94123.2 555313.0 0
100750.0 552232.0 0
106050.0 554396.0 0
112060.0 553854.0 0
116489.0 553452.0 0
120055.0 555379.0 0
125077.0 553977.0 0
136355.0 552317.0 0
142772.0 551521.0 0
140408.0 554947.0 0
147734.0 554360.0 0
152295.0 550809.0 0
157266.0 552523.0 0
161794.0 554549.0 0
166310.0 553951.0 0
171322.0 553161.0 0
176033.0 553170.0 0
183922.0 554104.0 0
188729.0 554707.0 0
190912.0 550532.0 0
194596.0 553808.0 0
203451.0 551832.0 0
199904.0 554619.0 0
210624.0 550754.0 0
216459.0 551934.0 0
220573.0 551155.0 0
220284.0 554156.0 0
225151.0 553030.0 0
230423.0 552784.0 0
235977.0 552551.0 0
241106.0 552294.0 0
246397.0 554566.0 0
249693.0 551301.0 0
251683.0 554072.0 0
255669.0 552518.0 0
260363.0 552346.0 0
265957.0 552440.0 0
271333.0 554448.0 0
276211.0 552561.0 0
281003.0 554587.0 0
285755.0 552017.0 0
290095.0 554818.0 0
295187.0 552721.0 0
301278.0 553525.0 0
306408.0 553622.0 0
315179.0 551384.0 0
311005.0 554806.0 0
320220.0 550074.0 0
324484.0 553244.0 0
330114.0 554319.0 0
335936.0 554586.0 0
341561.0 554310.0 0
345789.0 552797.0 0
349938.0 550591.0 0
355370.0 553154.0 0
360619.0 553296.0 0
365182.0 552749.0 0
369437.0 551534.0 0
373810.0 553086.0 0
379003.0 552105.0 0
384277.0 553057.0 0
390565.0 552968.0 0
395706.0 554627.0 0
399486.0 552994.0 0
408430.0 555236.0 0
414019.0 555652.0 0
420381.0 555080.0 0
427300.0 556593.0 0
429853.0 551322.0 0
432672.0 555710.0 0
434320.0 552183.0 0
437518.0 554874.0 0
442769.0 555705.0 0
447675.0 553518.0 0
452950.0 553799.0 0
458196.0 553820.0 0
463406.0 554842.0 0
468470.0 555724.0 0
472227.0 551886.0 0
472927.0 556381.0 0
475348.0 553684.0 0
478747.0 552274.0 0
477506.0 556819.0 0
481581.0 555402.0 0
489185.0 554004.0 0
493491.0 552844.0 0
497561.0 554862.0 0
4883.95 561212.0 0
9455.85 561253.0 0
12657.0 558962.0 0
16958.2 558375.0 0
21160.5 556641.0 0
20964.8 561131.0 0
26110.0 558740.0 0
35887.8 558132.0 0
31671.3 559740.0 0
41434.5 557308.0 0
45934.2 557197.0 0
43627.5 560628.0 0
53358.4 559342.0 0
59128.1 559138.0 0
64304.9 559391.0 0
68896.1 559444.0 0
74259.9 557165.0 0
79538.3 560972.0 0
84164.0 558669.0 0
89211.5 558665.0 0
93691.7 561017.0 0
100036.0 557929.0 0
104979.0 559436.0 0
110179.0 558606.0 0
115570.0 557791.0 0
120323.0 559987.0 0
125540.0 559066.0 0
130691.0 556349.0 0
136767.0 558829.0 0
143648.0 557123.0 0
152662.0 555817.0 0
148708.0 558481.0 0
158133.0 558557.0 0
164454.0 558221.0 0
169463.0 558306.0 0
175065.0 557477.0 0
179958.0 555918.0 0
179443.0 560363.0 0
184414.0 558899.0 0
190936.0 558859.0 0
195385.0 559146.0 0
202847.0 556851.0 0
200102.0 559257.0 0
206850.0 555466.0 0
213147.0 556410.0 0
209308.0 559646.0 0
217637.0 556123.0 0
222368.0 557205.0 0
228259.0 557420.0 0
233023.0 556680.0 0
238430.0 556696.0 0
242666.0 556498.0 0
249372.0 557640.0 0
255754.0 556713.0 0
260145.0 557299.0 0
264890.0 557691.0 0
269796.0 559545.0 0
275838.0 558428.0 0
280908.0 558890.0 0
285585.0 557862.0 0
292036.0 559587.0 0
298041.0 558532.0 0
303469.0 557811.0 0
307687.0 557847.0 0
315139.0 556199.0 0
312123.0 559831.0 0
319378.0 554879.0 0
322390.0 558410.0 0
326921.0 558086.0 0
332043.0 559186.0 0
340071.0 559406.0 0
345403.0 557671.0 0
350318.0 555838.0 0
354496.0 558567.0 0
358744.0 557194.0 0
362958.0 556799.0 0
366081.0 560206.0 0
369427.0 556176.0 0
373797.0 557639.0 0
377374.0 556111.0 0
377168.0 560669.0 0
381676.0 558019.0 0
387294.0 558376.0 0
392836.0 558254.0 0
397604.0 558740.0 0
402830.0 556959.0 0
410630.0 559525.0 0
415291.0 561125.0 0
419443.0 559629.0 0
423491.0 560290.0 0
427676.0 561615.0 0
431134.0 559592.0 0
435751.0 559852.0 0
440968.0 560631.0 0
446152.0 560175.0 0
450336.0 557790.0 0
452431.0 561006.0 0
455123.0 558133.0 0
460176.0 559006.0 0
465388.0 559546.0 0
470286.0 560140.0 0
474807.0 560245.0 0
481297.0 560058.0 0
485565.0 557054.0 0
493599.0 556746.0 0
489926.0 558519.0 0
493835.0 560926.0 0
497905.0 559133.0 0
1215.87 562667.0 0
2830.56 566335.0 0
7988.88 565325.0 0
13248.1 563795.0 0
17788.4 564065.0 0
24481.5 563009.0 0
21837.6 566064.0 0
28732.0 564190.0 0
34263.3 565267.0 0
38874.1 561906.0 0
43665.6 565091.0 0
48034.4 561687.0 0
51952.7 564268.0 0
56640.3 563949.0 0
61724.2 563656.0 0
67115.3 564088.0 0
71776.9 562429.0 0
75791.0 564858.0 0
80814.4 565914.0 0
86404.4 564013.0 0
91805.3 565264.0 0
97959.5 563367.0 0
102584.0 562839.0 0
107610.0 563303.0 0
112439.0 562489.0 0
116381.0 562331.0 0
119696.0 564158.0 0
123786.0 563431.0 0
130055.0 563527.0 0
135846.0 563707.0 0
141245.0 560928.0 0
140046.0 565225.0 0
144824.0 562721.0 0
147901.0 564779.0 0
148452.0 561875.0 0
152646.0 561315.0 0
157168.0 564772.0 0
162384.0 562753.0 0
167357.0 562804.0 0
173001.0 563340.0 0
177588.0 563350.0 0
182706.0 564027.0 0
187993.0 563123.0 0
193949.0 564823.0 0
204566.0 560034.0 0
199336.0 563417.0 0
208800.0 563964.0 0
213179.0 561744.0 0
217938.0 560231.0 0
222274.0 560861.0 0
226302.0 562066.0 0
231034.0 561173.0 0
235919.0 560840.0 0
241204.0 560938.0 0
246914.0 562110.0 0
253016.0 561153.0 0
258156.0 561207.0 0
262092.0 561000.0 0
265915.0 563107.0 0
273159.0 563343.0 0
279074.0 562913.0 0
282810.0 561757.0 0
286477.0 562964.0 0
290435.0 564048.0 0
295460.0 564361.0 0
305627.0 562028.0 0
301226.0 562723.0 0
309729.0 563680.0 0
314215.0 564942.0 0
317772.0 560401.0 0
324373.0 563449.0 0
330055.0 564043.0 0
335856.0 562145.0 0
344960.0 562588.0 0
349529.0 560905.0 0
354284.0 564015.0 0
360565.0 562315.0 0
366133.0 566062.0 0
371548.0 562264.0 0
381599.0 563058.0 0
386788.0 564303.0 0
391172.0 562244.0 0
395688.0 563342.0 0
400947.0 562486.0 0
406224.0 561660.0 0
406230.0 566501.0 0
402844.0 565868.0 0
410904.0 564629.0 0
415846.0 566151.0 0
420038.0 563780.0 0
424907.0 565070.0 0
431976.0 564483.0 0
437985.0 565213.0 0
443830.0 565187.0 0
450051.0 565253.0 0
456593.0 563627.0 0
462487.0 563095.0 0
467301.0 564621.0 0
472812.0 564316.0 0
477736.0 563656.0 0
482103.0 564740.0 0
486300.0 562278.0 0
490483.0 563099.0 0
493519.0 565558.0 0
497788.0 563350.0 0
1348.25 570165.0 0
6554.07 570286.0 0
11419.6 568638.0 0
17042.9 569231.0 0
25914.4 568914.0 0
30840.2 569136.0 0
35657.2 570475.0 0
39074.8 567073.0 0
40469.0 571255.0 0
44777.7 569917.0 0
48389.4 566878.0 0
52990.2 568726.0 0
58297.7 569068.0 0
63616.9 568447.0 0
68201.9 568890.0 0
72539.6 568674.0 0
77622.5 569509.0 0
84178.3 570600.0 0
89432.5 568775.0 0
95662.3 567967.0 0
100941.0 567528.0 0
106195.0 568810.0 0
111536.0 567235.0 0
116701.0 567077.0 0
114325.0 571086.0 0
121810.0 568126.0 0
126830.0 569007.0 0
131187.0 569380.0 0
135509.0 568009.0 0
139973.0 570335.0 0
144876.0 567966.0 0
151679.0 566959.0 0
148811.0 571154.0 0
160240.0 569233.0 0
164502.0 567173.0 0
168910.0 567078.0 0
173133.0 569332.0 0
177545.0 566963.0 0
181918.0 568921.0 0
185848.0 567248.0 0
189850.0 569330.0 0
199369.0 568471.0 0
203827.0 564849.0 0
208153.0 568490.0 0
213179.0 566902.0 0
217949.0 564904.0 0
221967.0 564591.0 0
225413.0 566295.0 0
230523.0 566641.0 0
236556.0 565998.0 0
242366.0 566744.0 0
247982.0 567591.0 0
252084.0 566052.0 0
256535.0 565603.0 0
261247.0 566741.0 0
266354.0 568846.0 0
271938.0 567852.0 0
277429.0 567876.0 0
282771.0 566071.0 0
287821.0 568196.0 0
292736.0 568703.0 0
300418.0 567267.0 0
296605.0 570207.0 0
306658.0 568191.0 0
312441.0 569773.0 0
319211.0 565354.0 0
317484.0 570025.0 0
321764.0 568504.0 0
325995.0 569355.0 0
330926.0 569331.0 0
334316.0 566134.0 0
336058.0 571037.0 0
340171.0 565977.0 0
344827.0 568915.0 0
348667.0 566167.0 0
354959.0 569758.0 0
360286.0 568480.0 0
371086.0 569296.0 0
367050.0 571020.0 0
376796.0 566795.0 0
380068.0 570884.0 0
382778.0 567860.0 0
387801.0 569626.0 0
391738.0 566633.0 0
394740.0 570649.0 0
399152.0 567583.0 0
403740.0 570657.0 0
412639.0 569591.0 0
417322.0 570559.0 0
421393.0 568328.0 0
426038.0 570166.0 0
430536.0 569261.0 0
434676.0 569176.0 0
441007.0 570098.0 0
445942.0 569759.0 0
455950.0 569218.0 0
461041.0 567071.0 0
465715.0 570283.0 0
472072.0 569991.0 0
478083.0 568748.0 0
482820.0 568617.0 0
488958.0 566751.0 0
492870.0 570820.0 0
497573.0 567855.0 0
2734.15 573429.0 0
6431.07 574599.0 0
11482.9 574436.0 0
18010.5 575554.0 0
22075.5 571895.0 0
28131.4 573736.0 0
33471.3 575400.0 0
38855.2 575755.0 0
43534.6 573914.0 0
49246.6 573402.0 0
55184.8 573351.0 0
60303.4 574037.0 0
65620.7 573434.0 0
70329.5 572587.0 0
74716.4 573155.0 0
79397.2 573761.0 0
85488.8 575396.0 0
88879.1 573734.0 0
93498.8 572642.0 0
98812.4 572581.0 0
103474.0 572621.0 0
110092.0 572349.0 0
118457.0 571878.0 0
123973.0 572247.0 0
129080.0 572801.0 0
134228.0 573558.0 0
155415.0 571239.0 0
341309.0 571816.0 0
345614.0 572790.0 0
350027.0 571381.0 0
358399.0 573213.0 0
363310.0 572728.0 0
371555.0 573753.0 0
374785.0 571932.0 0
383823.0 572886.0 0
390659.0 573802.0 0
399167.0 572785.0 0
404468.0 575604.0 0
408718.0 572887.0 0
414131.0 574838.0 0
421575.0 573279.0 0
426208.0 575336.0 0
431302.0 573941.0 0
436804.0 573552.0 0
441648.0 575363.0 0
446070.0 574065.0 0
450912.0 571824.0 0
455854.0 573834.0 0
460295.0 572033.0 0
464040.0 575294.0 0
469218.0 575535.0 0
476554.0 574013.0 0
481395.0 572668.0 0
486732.0 571703.0 0
490367.0 575592.0 0
497911.0 572297.0 0
495275.0 575304.0 0
452735.0 577398.0 0
486206.0 576770.0 0
POINT_DATA 5000
SCALARS Radius float 1
LOOKUP_TABLE default
5415.48 5120.0 6182.6 3163.97 6810.52 5840.26 5073.35 4834.9 3863.18 2356.98 4998.37 5492.18 5258.36 5061.3 3951.75 3642.12 5812.43 5906.14 7513.1 5254.28 4436.4 5733.48 5580.89 3588.44 5645.7 5553.16 6110.27 5561.06 5670.04 6044.04 5085.53 5484.83 5351.6 5867.73 5013.56 4499.64 4375.68 5542.27 5484.19 5122.66 3557.27 4688.68 4402.52 4182.53 4517.56 4672.91 5176.86 4366.19 3672.51 2938.66 4008.92 3615.22 6716.79 3850.77 5325.36 5538.89 4715.55 4730.36 6059.59 5701.86 4238.81 5054.98 6030.06 5170.02 4927.31 5185.34 4432.58 5903.42 3761.32 3955.56 5292.64 4118.05 5065.13 4940.78 5305.17 4380.59 5546.39 6759.9 7021.47 5926.61 2720.68 4955.55 3563.63 4468.59 4345.55 5885.03 5325.02 5200.76 4862.64 5205.43 6684.56 3968.64 2635.86 4385.06 6166.5 5936.02 4231.61 3379.84 7613.27 4133.88 5945.65 5418.62 5416.38 6051.14 5836.15 6704.06 2837.58 3653.41 3871.88 5246.2 5017.13 4827.23 3673.74 6116.18 7447.37 4688.67 7184.19 4290.3 3867.67 4861.08 3942.53 4003.05 4827.82 3607.45 3589.27 4951.03 4094.62 4665.12 6483.19 6230.49 5493.32 4601.27 4195.44 5740.68 3261.21 4277.89 5539.32 5600.93 3856.01 4390.66 5279.39 4911.47 5803.39 4381.97 4924.6 4733.32 2924.37 2899.43 2812.98 4065.69 5399.73 4805.87 5759.91 4333.2 3260.67 3936.02 4927.02 4174.52 5109.54 7054.71 3641.64 5489.43 5747.75 4796.33 6496.85 5360.19 4874.39 5541.59 4124.71 5083.08 5728.85 6337.56 5863.59 3255.82 6257.19 5242.73 5603.15 5390.22 4712.33 5227.21 3997.1 3038.33 4295.38 3383.4 4780.03 3856.1 5980.74 4044.71 3829.13 6458.82 5527.54 5054.25 5573.7 7325.81 4794.96 4839.34 6186.19 2980.99 6834.49 5525.39 3998.5 5938.34 4024.3 5555.28 4737.14 4695.45 4686.65 4660.72 6038.78 3888.21 5697.78 5123.52 4392.68 5495.39 4487.31 5816.2 3091.3 5693.81 5789.98 6138.47 5697.4 4727.62 4055.8 6425.26 5143.58 4840.01 5611.2 7933.0 5173.87 6394.38 5118.27 5169.36 5834.74 5556.96 3921.18 4667.36 6902.81 5529.52 3554.9 5252.48 3996.0 4002.16 4138.16 2540.31 6029.66 6302.8 4270.95 5206.78 5280.17 5028.96 6362.12 4484.76 5152.36 4220.65 4455.12 5380.13 5711.87 5932.23 5788.23 6052.7 3798.62 5891.05 4091.31 7199.21 6124.89 4015.92 5708.81 4778.34 5043.05 4684.5 3486.22 5120.49 5409.61 6038.2 4005.44 5555.88 5713.22 6732.43 3866.16 3183.98 4524.28 4511.82 5826.64 6820.42 4816.2 4894.16 4896.52 4941.22 5791.61 5581.75 3666.57 6392.01 6644.76 4254.17 5615.42 4523.7 5255.32 5337.48 5542.21 5924.89 6894.71 4414.54 5262.61 5201.36 5094.81 5972.06 5861.71 5017.78 3794.63 3778.1 4727.24 6959.81 4829.35 6321.41 3372.79 4751.02 5184.56 5282.64 4715.72 4479.66 3369.13 5308.1 6372.62 7565.34 5637.59 5481.78 3307.12 4937.14 5551.36 4306.53 6038.14 6135.57 4312.67 4359.04 5015.69 4989.15 4947.52 6175.81 6677.09 5813.4 4089.76 5201.67 5526.55 3192.41 4987.87 4669.66 5367.2 4808.52 3043.85 5461.13 6730.19 4907.89 4937.02 5629.19 6037.08 4929.8 4049.23 3103.0 3586.91 3115.91 6084.86 4467.94 5478.92 4933.21 4850.81 4723.12 5024.9 4717.05 5659.17 5998.38 4270.24 5423.8 3417.33 4164.13 4520.1 4642.34 4305.57 5874.89 4293.03 3791.79 4424.7 4754.05 4951.47 6084.93 3315.57 4764.96 5607.24 4726.76 3599.45 5655.21 5091.39 6756.95 5601.05 4948.92 5810.84 5094.44 5375.47 4655.49 4566.18 4809.42 5287.2 5856.11 4562.29 4234.94 5013.13 5080.66 4926.42 5110.45 5248.77 5153.74 4165.81 4528.09 3556.85 4389.21 4128.98 4925.44 5246.61 4307.28 5215.15 5046.33 5053.92 5839.13 6352.26 5090.24 4073.93 2240.39 5096.78 5923.5 6324.23 4727.24 4151.94 4651.28 6355.42 4382.74 4384.42 4516.43 4362.19 4493.48 4749.8 5082.6 4230.54 3748.24 6163.38 3459.9 4964.09 4093.08 4109.88 5543.27 3327.49 3960.8 4980.85 5714.58 3329.99 5208.32 3296.27 4083.97 4607.02 3895.51 6291.51 5882.89 6246.22 4188.32 4100.38 5804.71 4739.42 5538.93 5020.12 5727.3 3735.44 4242.52 3847.38 4786.6 4907.06 4645.41 5740.84 4612.68 3320.52 5293.9 4129.43 4973.83 4685.34 4329.05 5927.43 5492.26 5690.56 5244.78 3693.63 5762.84 5478.47 3937.74 6142.37 6061.47 5806.08 3982.23 4997.27 5628.24 4449.22 5992.26 5070.39 4923.9 4973.78 4613.31 3947.47 5091.68 4713.25 6243.0 4204.84 6673.96 5174.89 5370.52 4288.3 4652.29 5774.81 3697.96 4899.11 4745.45 5356.51 3057.03 5163.9 5495.68 4433.59 6043.3 5530.87 6445.94 3912.37 4310.18 4320.28 6142.94 6342.25 4281.49 3843.58 4792.73 4931.38 4736.58 5110.37 6082.81 3191.99 6327.9 4220.88 6640.13 5210.03 5351.39 5119.37 4336.42 5243.29 4853.39 3130.65 5365.89 5004.67 5409.33 4511.54 5196.0 6119.09 4733.04 7531.29 5069.25 5048.89 3991.03 5441.96 3161.47 3435.9 6826.57 4495.87 3746.31 5344.77 4723.48 5027.98 4278.07 5097.87 5281.28 2631.9 7267.18 3818.59 4087.15 4863.72 5489.34 5708.14 5952.75 4262.82 5537.72 6332.36 4218.06 5542.14 4931.53 6691.39 7134.64 4602.25 4270.53 4194.5 5379.87 4501.51 5513.6 4556.36 4901.41 5264.06 3485.26 3240.09 3369.23 5664.98 4659.59 3688.8 4548.16 4048.37 5449.18 5367.52 6519.71 4322.15 4714.54 3092.35 3629.96 3320.11 5507.24 6022.17 6851.54 4583.31 4503.89 4306.11 3402.32 7589.94 5903.66 4528.49 5419.37 4466.03 5985.29 4898.94 4178.15 4247.23 5788.66 4694.83 4520.62 3903.75 4755.47 5935.03 6390.78 4485.99 7435.25 5543.46 4788.87 5498.32 5346.27 6475.1 2691.29 6255.18 4143.08 4758.21 5002.48 7500.97 6623.85 3920.42 5102.36 8332.24 5480.13 6122.55 2739.94 4790.08 5978.9 4187.56 5191.63 5082.47 4840.84 5344.25 5344.0 4043.57 4478.15 5925.6 6013.14 3708.04 4602.86 5138.31 4551.24 4621.75 5358.59 3610.4 6387.01 4515.71 6202.55 5025.39 5030.91 5893.5 4377.07 5101.59 3813.22 5570.3 5935.47 5234.29 5313.66 5512.23 5275.32 4649.22 4268.65 5509.42 4354.08 5936.36 5229.48 5475.7 5475.8 5127.16 5314.69 6050.81 4249.46 6022.72 4643.31 5527.33 2330.66 6917.52 4969.21 6256.02 4277.88 7228.46 3948.23 5228.18 5787.31 4342.9 6155.31 6308.71 3629.62 4997.27 4716.19 5135.69 4301.06 3456.98 4593.7 6045.46 4290.14 4763.45 4150.99 5198.77 5681.38 3771.48 5147.67 4138.42 4292.06 5987.17 3979.82 5006.58 5011.31 2765.2 4581.13 5586.81 4746.52 4219.07 3856.59 5413.79 6338.89 5584.06 7111.16 3817.13 5023.15 4547.19 3844.9 3695.36 3963.86 3848.93 5076.35 6020.48 5273.35 5200.05 4091.8 4645.58 2651.49 5670.2 4711.62 4114.24 5349.31 2976.22 5394.55 5094.52 4256.43 2682.24 5928.32 5415.19 4016.18 4612.62 5526.75 5435.74 4244.99 5327.45 5560.26 5965.81 6185.89 4750.17 3702.37 5660.85 4177.19 3691.0 3990.25 5402.21 4752.51 4989.09 4668.71 4880.14 2845.98 5320.92 5269.18 6362.14 4406.1 6719.88 5034.59 5065.11 5978.82 3927.99 4553.56 5069.84 4051.44 4223.33 5911.67 5329.64 3323.28 6695.82 5514.76 6405.76 5835.78 4877.67 4020.32 3815.26 5445.87 4704.72 4245.72 4216.92 4571.7 4177.94 4742.68 5922.5 3929.19 4107.03 4271.69 3970.25 4138.46 4850.01 5643.58 5215.05 5577.04 4481.53 6318.18 3948.17 5077.33 5330.45 5572.95 3689.45 6723.16 5372.61 3686.21 5402.24 6480.17 4519.22 6445.22 4564.34 3838.56 4871.44 6248.81 6375.99 4853.02 6259.23 5181.4 3457.48 4662.56 5166.79 3405.98 3931.07 5417.15 3688.16 4681.72 4946.74 5996.33 3950.63 6631.19 3619.07 4467.04 4275.57 6385.23 2614.4 2983.99 6363.92 3997.96 4439.35 3460.94 6184.4 3758.07 3587.05 4982.31 6229.37 5289.52 5314.85 3848.54 4305.43 4942.77 5450.44 5080.18 5868.82 5266.5 4050.9 4066.38 6049.55 5709.62 5941.72 3498.2 5794.24 6562.18 5908.1 4541.21 4344.58 6048.7 5634.83 5896.46 5495.84 6268.1 5113.21 4502.5 5499.11 4374.35 5347.48 3633.87 2775.04 4810.12 6898.19 3821.72 6035.6 4986.77 5137.34 5198.29 3975.31 5423.0 5344.43 3824.16 5125.78 5045.38 3868.18 5350.88 5130.91 4948.5 5383.07 4527.02 4531.14 5013.42 5651.07 4962.77 5872.05 5323.3 5088.44 4635.6 4998.21 4256.67 6079.11 6430.39 7440.72 3949.6 4945.39 5703.6 6326.18 5661.62 4867.08 6648.68 4713.74 5626.61 5817.25 5061.98 6205.93 5830.72 3828.81 4373.45 5309.98 6718.19 4236.14 4307.48 4407.87 5282.91 5941.4 5331.02 6510.17 4263.33 4871.96 4454.63 5742.65 5592.32 4523.88 3279.1 5912.61 4241.89 5054.74 4978.31 4099.77 4981.9 4414.48 4127.74 4537.32 5163.02 4656.78 3066.13 4302.5 2476.04 5105.16 4156.38 6009.88 6006.16 4164.68 5316.75 5050.65 5022.8 3784.5 6133.92 3719.84 4178.4 5782.6 7034.11 4862.21 6261.42 4011.77 4527.08 5965.78 6396.74 7099.43 5315.4 5526.14 6449.45 4044.45 3627.82 5262.19 6070.58 4373.47 6034.41 5452.83 4959.34 5178.99 4790.78 4247.15 4591.87 6552.22 4602.85 5379.09 5210.48 7552.94 6101.92 4051.34 3627.55 6239.84 5865.39 4427.28 3082.32 5370.85 3658.37 4765.02 3178.54 5376.71 5629.39 4448.13 5070.29 4807.28 4266.03 5075.55 5280.69 4220.03 5407.78 6923.84 5449.46 4084.49 6179.96 6632.99 4537.6 4923.24 5147.36 4419.61 7177.44 4563.46 4082.57 5733.62 5169.9 4425.84 5282.51 3004.16 3797.33 7256.35 4800.69 4863.23 4402.67 5381.16 4403.98 5565.13 4948.98 4560.84 5227.52 6086.96 4729.43 5991.09 4092.24 4678.38 5126.91 3942.07 5448.61 7443.72 4827.33 3937.08 7055.53 5513.57 5013.67 5669.65 5729.23 5934.22 3780.23 3471.03 4359.62 5253.55 5820.48 6057.22 6946.21 2586.12 5433.8 6125.34 5975.63 5252.34 2965.79 4410.55 4287.63 5776.37 4516.28 5678.96 4244.9 6048.86 4285.32 5490.43 6894.26 4986.51 5022.28 5339.38 5197.52 6169.11 5615.35 4027.09 6422.84 4135.62 5801.99 4502.18 5534.94 7644.38 6004.68 6799.4 4409.63 5521.25 3661.9 5107.23 5949.46 5136.08 5558.68 3776.94 4010.57 2684.03 6157.04 4768.61 2261.36 4522.21 5506.19 6719.94 5227.59 4950.67 6166.29 5703.07 6113.54 4662.43 6260.79 4043.66 3963.76 5528.53 6553.94 5255.18 5726.66 5460.65 4460.92 4767.78 5945.89 4105.55 4042.28 4340.76 3555.86 6566.1 6065.22 6386.78 4996.99 4470.61 6193.35 3701.27 5233.78 4562.74 4806.34 5776.57 7144.24 5133.97 3600.43 6600.94 5371.02 5260.34 6155.1 4788.58 5206.48 4709.35 6586.45 5876.71 5826.04 5226.0 5624.49 3095.48 3979.26 5188.81 6608.73 3745.84 4730.41 5011.84 5696.88 5690.26 5062.71 4156.2 4497.59 4289.17 4274.61 5564.02 6444.77 6314.07 3921.08 4190.31 7055.42 5486.68 5683.61 5805.86 5100.25 4049.02 4470.4 5311.03 5255.12 4285.66 3872.61 4896.11 4238.4 5172.53 4318.48 6132.95 5266.22 4860.33 5226.97 3685.13 3312.06 5180.76 3361.26 3418.99 4480.95 4993.35 5278.36 6218.95 5222.16 5533.72 5533.42 4802.32 4599.38 5246.47 5518.57 4187.31 6191.29 3240.51 7422.36 5161.01 4298.15 4628.4 5832.37 5453.6 6051.83 5409.63 5294.77 3077.84 4709.05 4630.82 4813.08 6799.88 4540.86 3062.43 5426.78 5652.0 5235.17 5463.41 4779.5 5225.33 4435.36 4421.12 4929.75 4221.28 5254.49 6649.96 4456.39 4631.83 4896.39 4384.88 3633.79 6887.27 6008.49 5480.83 4220.46 5653.9 5683.26 5598.74 5046.21 4906.82 5894.61 5131.24 5687.83 5196.67 6496.67 5474.8 4373.3 4750.78 5339.78 4166.08 5762.59 4861.06 6481.79 4298.67 4796.58 5960.66 4962.09 3999.48 5654.31 4203.26 3923.03 4643.85 5082.74 4004.04 5607.14 5411.85 6915.83 6072.45 4470.98 4027.46 3901.8 5759.46 5083.41 6248.6 5443.58 3836.45 4558.46 5346.68 4611.53 5296.29 2681.29 5094.48 5576.92 6408.83 3930.79 4004.35 4763.96 5008.63 5754.18 4270.74 5132.68 6293.89 6595.03 4983.39 5366.52 4690.55 5146.37 7132.12 3678.08 4836.16 5151.11 5463.48 5730.33 4527.99 5545.46 4376.7 5190.61 3764.06 4642.93 3973.12 4263.16 6024.75 6109.49 5860.67 5987.42 5990.52 2967.38 3764.1 4835.83 4159.35 6477.91 4237.98 6439.37 6045.22 4614.3 4303.19 5514.84 6081.14 4256.57 3914.2 5421.53 4607.85 4287.53 6070.3 5612.21 4929.14 5004.23 5945.08 5139.5 6442.69 6320.71 4648.04 6262.72 3527.05 5029.78 3664.11 6607.87 3365.82 5374.51 4163.5 4123.6 5320.28 7092.87 5224.12 4850.14 3637.61 4569.12 6098.14 4472.17 5750.71 5873.69 6222.42 5470.77 4831.47 6062.05 6939.12 4735.33 3999.94 4413.85 4844.57 5092.37 6171.13 2395.5 4864.22 5511.88 5941.61 4933.65 4512.11 5708.99 6333.29 5687.85 6401.43 5020.71 5731.57 5997.88 5662.55 5839.71 5737.92 4360.23 3755.95 6234.32 5365.24 4585.31 4586.19 5293.51 4446.06 3450.93 5323.91 5097.45 4185.61 5737.75 4558.15 2761.07 3778.02 6552.21 5417.8 4350.12 5227.02 5670.0 4232.16 5300.96 4344.51 5680.94 3781.77 5581.55 4543.1 5193.01 6550.44 3474.5 8325.01 3860.83 5732.27 4440.81 4523.39 5941.9 5434.47 6642.76 5829.22 4497.78 5567.93 4243.79 5811.18 5332.65 6451.33 5604.35 6316.56 3091.67 4332.87 4081.97 6420.81 5134.39 5401.99 5580.92 5784.3 3532.3 5769.98 6088.68 2221.99 5937.08 4643.56 5128.57 4135.08 4863.01 6000.7 5620.74 3979.54 5604.21 3169.67 7493.3 4968.03 5304.13 4814.55 5944.09 5833.06 5698.77 6515.84 3464.83 4143.78 5724.64 4538.95 5965.15 4970.88 4763.66 6739.08 7042.12 4797.52 4471.58 5501.93 5463.38 5462.21 6313.06 5945.21 6345.13 3493.7 4938.74 6470.3 4200.03 3474.39 5516.95 5563.79 4406.4 4151.76 6853.85 3905.51 4020.4 3493.47 3497.9 5782.48 4596.75 3374.08 4031.78 6098.1 5950.04 4231.83 2435.33 4074.48 3614.96 4558.47 4477.04 3886.68 5703.74 4747.55 3056.7 2685.81 5591.76 5889.35 5010.04 4394.56 6625.18 4275.07 5825.38 4573.72 4047.87 5099.21 5742.47 6969.28 4917.99 5636.4 4367.78 4095.75 3603.51 4298.45 5222.51 6609.84 5135.96 3834.43 5658.37 4707.06 6074.94 5491.37 4250.88 6348.03 3475.67 4792.39 5278.56 5146.37 6917.62 4013.38 5631.14 6137.8 4343.78 5433.65 4442.22 4008.15 5413.31 4887.76 4669.06 3012.99 4811.32 6400.08 4743.59 4715.58 3317.83 5208.14 4450.7 5151.52 5973.33 3583.21 5442.32 4347.74 5291.9 5067.46 3580.58 5356.79 5233.29 4011.37 4778.82 4312.56 4612.06 5204.04 3361.92 3306.14 5490.58 4863.79 5395.14 4702.06 2477.07 3967.48 4923.41 5117.47 2990.77 4497.31 4925.63 3163.78 4305.16 3293.56 4888.6 4666.81 4780.2 5078.86 6326.39 5163.55 6817.32 4319.79 5960.56 6643.85 6343.14 4020.95 6049.79 4390.41 5374.98 5226.56 5274.19 5599.49 4719.7 4097.57 5313.22 5328.22 3436.15 5711.11 4216.17 4575.94 4721.02 6484.17 4938.72 4254.37 3546.71 5768.57 4498.25 4188.87 5564.23 5151.21 3735.24 6574.95 6817.57 6853.04 4745.43 4912.04 5831.96 4539.07 5464.68 4475.83 4510.8 5480.3 7509.24 4570.98 5896.26 5388.78 6101.13 5599.7 4163.74 4296.69 3665.95 5698.96 3319.67 6471.42 5283.8 4076.59 4428.14 5164.1 6464.15 4124.49 4972.17 4479.11 6685.4 5699.53 4222.77 3783.54 5268.38 5527.23 7038.89 3863.67 4814.12 6193.08 5067.56 6069.3 3352.35 2735.53 5263.3 5116.6 4909.65 6523.86 7693.4 4286.49 4437.07 6184.88 5829.32 3763.05 4396.25 5551.95 5092.24 3918.87 5369.08 4518.04 3101.75 4009.62 4766.06 2081.58 4874.18 2511.46 6505.78 5657.36 2775.69 6124.08 5467.84 3619.79 4750.58 5029.47 5053.95 6710.88 6667.68 6213.04 4721.32 3830.46 6413.11 5882.65 5092.28 5274.14 4918.77 4739.14 4819.73 4636.5 5100.1 3382.7 6471.55 4940.42 3954.91 5085.71 3703.1 4946.42 5923.4 4623.61 2965.01 6263.44 5122.63 4863.27 5774.97 6766.43 5862.86 2315.64 4703.08 4890.5 6113.95 4050.08 5452.42 4901.07 5017.5 5186.3 5005.85 5325.44 5102.75 5021.88 5956.65 4597.29 4200.09 5931.77 5398.64 5108.06 3573.73 4222.4 4000.43 4693.52 4568.41 4661.03 3624.7 5160.59 5262.35 3420.08 4320.42 4691.91 4255.34 5064.79 7046.11 3427.63 4863.97 4146.81 6342.48 5756.75 4587.67 5951.81 3924.14 6918.35 6238.32 6804.79 6372.13 5369.5 5404.01 6016.19 5535.91 3230.13 5714.25 6176.67 5325.96 4850.06 5412.24 6332.01 7044.29 4805.33 4234.18 7085.01 5980.95 3936.95 6153.94 6836.82 3862.77 5887.01 5168.35 3747.03 2783.85 5388.39 4356.49 5335.47 4326.48 4526.81 3994.07 3449.37 4219.94 5491.9 6405.0 4264.91 4659.16 5549.49 4633.05 5423.42 4901.2 6605.86 5012.5 4785.25 6519.43 5461.55 4270.15 5876.64 3298.2 6306.21 5926.11 5235.11 5253.37 5211.38 6515.8 6031.67 5384.76 5529.42 6138.12 5257.12 4434.19 4428.78 4903.82 4965.89 4371.99 5746.28 5187.7 6090.91 3561.29 4082.47 3295.83 4152.85 4219.78 5644.82 6413.02 4440.57 6235.57 3492.19 5203.08 4584.5 4118.84 5412.31 5548.29 3623.87 5163.77 5916.16 6934.37 4488.85 3423.15 5010.2 3731.84 3981.07 4579.69 3554.48 6496.52 5966.61 3991.42 4893.49 4388.63 4514.79 3672.21 4834.87 2216.82 4509.89 5760.22 6752.75 5938.17 5269.38 4795.43 5097.95 4914.45 5313.12 4698.87 3984.88 3344.57 5318.53 4732.09 4281.98 7165.9 5344.83 5783.48 4701.5 4449.98 4771.65 4840.44 5093.82 5439.49 6639.64 5212.43 3687.65 5454.12 4834.3 6348.54 4066.57 5642.35 5156.76 6357.47 6101.57 4891.38 4793.65 5955.86 4532.89 2949.12 4533.37 4848.46 2779.99 5016.02 4581.37 4920.21 4049.16 5851.61 5478.11 5526.31 5030.15 3858.17 4631.99 3477.1 4740.98 3185.39 5128.77 3728.18 5633.61 5048.19 4243.26 6799.23 5907.46 4888.27 6740.71 5399.29 5789.55 4854.11 5971.22 2275.45 4909.31 6522.59 5435.19 5711.62 4383.56 3562.79 7093.13 6865.76 5424.46 6449.64 5266.01 4857.84 5767.9 2978.76 2040.66 4908.49 7016.27 6622.11 4689.15 5089.62 6790.73 5659.95 5243.43 4741.26 5920.32 5409.66 4537.14 4186.6 5251.4 5551.9 3867.19 4453.64 4188.3 4963.34 5019.93 5081.78 4459.28 6116.33 4260.92 4479.94 5499.39 4407.9 6250.23 6736.03 4718.54 5374.07 3087.09 4588.7 7480.41 6027.62 3766.55 5469.13 5765.42 6123.03 6098.95 4997.83 5453.98 3718.69 5148.08 6192.0 4940.28 5885.28 6579.31 3004.34 3022.6 5607.3 5375.1 4811.76 2928.82 5498.42 5351.56 4196.37 6448.66 3556.79 5220.76 4453.97 6945.98 5138.2 6412.67 7001.83 4504.35 5012.97 4036.91 5589.37 5110.11 6379.14 5216.26 4887.52 5478.95 3851.85 6318.23 4058.87 4206.98 5174.75 5932.07 4984.46 5948.71 3856.53 5460.89 6040.74 5260.85 5742.09 2884.65 5887.38 5807.46 6942.34 4648.21 4393.16 3658.05 4549.69 3311.29 6423.81 6192.77 3644.78 4312.15 4078.93 5934.82 4501.78 7122.87 3572.94 5797.36 5001.58 4153.84 5119.86 4592.15 6487.56 5084.17 4901.44 4998.22 5533.19 5417.21 6602.43 4990.79 4798.17 5166.79 4953.1 4516.53 2895.63 5818.95 3940.49 4093.99 5079.22 6464.8 4962.21 4684.44 4749.59 5884.9 3685.13 3685.65 3468.42 4590.55 4673.35 4655.16 3876.21 5869.4 4916.22 5297.19 3701.16 6022.7 4345.67 4255.85 5511.6 5097.69 3885.86 4517.73 6261.75 5235.29 5177.64 3757.34 6415.61 4541.8 4255.31 5453.3 3838.47 2588.37 5424.88 4062.5 5887.15 5415.85 4435.51 7234.66 8659.64 4055.54 4886.12 6419.12 5683.95 6107.89 4233.8 4976.12 4446.84 4817.16 5530.49 5660.55 5653.03 5578.94 7610.49 4246.61 4286.17 3684.56 6028.09 5323.55 3804.5 5452.36 4172.6 4638.18 5211.6 5806.31 5456.71 3503.41 7317.04 3971.08 6204.65 4593.7 4482.9 6550.4 4349.13 3766.69 4891.67 6818.91 3503.65 3634.5 4027.63 6631.28 6571.31 5420.67 4392.65 6413.15 6103.11 5048.55 6459.51 4024.31 4955.16 5844.72 3992.97 4147.31 5989.05 4054.22 7228.94 5393.65 4441.22 4961.99 5853.89 6551.93 4595.12 3110.13 6484.43 4625.67 3485.54 4458.64 4583.52 6418.11 3492.83 6015.02 4922.49 5244.22 5585.14 7039.98 4820.17 4729.42 5089.26 3886.72 3776.8 5415.45 6592.93 5096.43 6350.71 6156.21 6104.26 3568.28 5425.98 5583.61 5996.66 4986.71 6479.39 4122.92 4405.42 4997.91 3598.08 4599.81 3604.14 4452.54 5381.54 4406.05 5810.77 4858.44 4680.94 5799.69 5828.35 5571.72 5876.72 5689.26 5236.43 3809.69 4992.42 4771.13 4940.84 7051.9 5895.77 4608.41 4765.72 4732.09 3988.3 5857.79 2908.7 4039.91 6136.49 4338.08 4642.66 4752.14 5276.7 4378.3 4950.97 5037.06 5660.16 5175.29 5842.56 6134.99 4094.73 5191.08 6200.54 4199.45 5148.58 3548.39 5421.64 4858.51 4207.54 6599.66 3375.28 4936.96 5625.65 4301.61 3184.64 4481.76 5206.33 5375.12 5452.78 5065.26 4304.41 4892.44 6789.23 3989.7 4157.29 5069.89 5107.0 4777.03 6212.15 6813.72 5327.75 4609.02 6486.37 4896.65 6083.28 5561.74 5975.23 6100.73 4745.79 4198.94 4908.75 5470.04 4211.82 6556.26 2628.22 5684.25 5438.92 4244.49 5036.98 5513.8 5188.53 4521.75 3429.57 5569.2 5350.88 4642.74 6735.97 5305.59 5416.45 4330.58 5754.6 3288.01 4904.51 2202.77 6870.97 5751.15 5950.88 4149.55 5474.01 6201.86 3380.69 4140.4 4386.8 3639.44 5446.4 4725.01 5966.75 5510.9 3657.69 4505.28 4883.63 4971.29 6280.13 3684.15 5832.29 4438.76 3994.39 6006.89 6456.58 4618.73 3814.65 4159.81 3965.3 5244.98 4960.64 5792.98 4385.81 4034.05 6436.74 5690.96 2460.79 4456.11 4653.83 6063.64 5096.24 6171.71 7382.3 2995.67 4668.88 4022.56 5522.21 5698.23 5089.1 7300.58 2711.19 4028.32 4714.83 7519.2 4099.92 3208.96 5285.07 4884.59 4680.14 3858.06 4184.23 4478.6 4083.79 4511.7 4833.46 4144.57 5750.07 4351.38 5933.7 6543.13 5149.72 4809.67 4757.74 4687.64 5036.58 4419.71 5469.47 4888.12 5439.9 4244.21 5512.16 5411.02 3197.63 4989.56 4287.16 3645.12 4863.96 5199.44 5713.03 4652.01 3583.49 4928.27 3673.28 5775.31 5052.84 4366.74 4165.21 4603.5 5297.16 4647.67 5354.66 3566.79 4214.44 3629.44 5378.23 4787.97 4356.36 4981.43 4061.6 4741.28 3746.36 4215.2 2603.64 2205.51 2856.55 4553.68 5361.87 6502.97 3758.22 4783.07 4757.2 4946.23 4852.58 4532.7 4504.86 4473.29 4788.08 5079.64 6163.54 5212.37 6003.78 5058.51 4901.29 4124.76 4050.03 4775.04 4120.07 4813.33 4952.52 4882.66 3840.21 6746.66 5410.33 4954.76 3908.56 4844.83 5244.78 3636.15 5652.87 6114.89 5483.7 5135.63 6384.7 4355.83 5952.38 5351.86 3896.27 6056.87 5230.02 5307.35 4342.18 7554.58 5166.89 5491.63 5725.37 3868.62 5138.33 3743.76 3425.69 6711.21 5510.45 4730.14 2606.51 4941.02 3864.92 6119.99 2955.36 3668.93 4128.1 5372.82 4983.3 4402.17 7778.01 5127.82 5798.38 3862.91 4125.9 5805.1 5366.11 5039.12 3628.89 3908.98 6589.82 6328.42 5027.43 3772.3 7307.21 4855.01 5522.75 5867.64 3608.06 5474.15 6208.9 4923.57 6633.61 3340.09 5217.95 6355.68 4867.7 5484.36 4304.63 4187.94 4063.9 5550.75 5980.59 5021.77 6834.41 7248.4 4356.25 5776.96 5329.59 4216.95 4209.49 6119.63 5464.25 3821.94 4209.31 5486.48 3498.16 4409.27 4752.9 5301.47 4947.24 4617.55 3875.05 4588.99 4321.21 3456.47 3540.11 5950.45 5471.74 4344.34 5088.57 5580.34 5849.65 5134.67 3852.6 4110.59 3332.49 4847.14 4706.5 4215.0 5116.66 3950.27 5003.78 4918.76 5374.67 3299.24 6246.56 5826.78 5473.72 4508.18 6214.73 5175.89 3894.64 3703.49 4268.19 4374.74 4062.56 3205.68 6200.63 6816.66 3844.54 3217.67 5034.69 4509.46 996.652 4680.69 6500.49 5965.58 4972.18 3352.34 5329.76 4607.18 3899.7 5078.59 2403.72 7200.89 4147.49 4802.98 4833.55 3646.95 4081.34 7224.99 6334.53 5377.37 5869.67 4311.48 4899.73 5018.69 3152.86 6394.19 5973.89 5807.52 5963.36 5518.11 5087.14 5169.48 6016.08 4743.9 4731.21 3124.7 6064.71 3719.11 6102.98 6060.17 4467.13 5153.18 4763.4 5902.67 4236.86 5454.11 5393.76 5806.61 4983.1 6010.59 7123.04 3682.35 3756.96 4009.24 5906.57 4446.58 5401.4 5053.15 5910.86 5124.17 6239.68 7320.78 4064.58 3419.87 4234.88 4824.81 4384.28 5769.14 5944.3 3563.14 3381.82 3619.72 4646.51 4438.58 4565.93 6059.93 4504.52 5602.53 6061.63 2279.05 4829.35 3953.55 4075.28 4277.24 4989.2 5263.27 4469.54 6300.92 4314.56 5291.05 5161.1 3796.15 3928.53 6045.67 5466.33 5742.74 3946.28 5280.12 7216.98 5984.81 5721.05 5271.02 7013.17 3805.67 4590.01 5718.28 4247.69 4640.06 6242.79 6506.86 5391.48 4803.57 5966.42 5131.15 5009.83 5666.95 5210.38 4642.2 5717.8 4127.53 4811.22 5210.75 4474.83 3683.86 6555.44 5293.75 4208.41 5114.07 5730.61 7124.45 6358.93 5064.67 6618.21 5232.85 3717.47 2617.39 5144.44 4051.18 4583.94 5969.37 5046.31 4928.35 1937.5 5241.75 4731.53 5849.53 3763.9 4651.99 3538.53 4788.7 4420.11 5863.0 6127.39 5640.12 6638.25 4759.99 5134.33 2646.13 5419.57 5162.67 5760.98 4705.68 5469.35 5384.86 4749.96 4658.24 4906.11 4387.39 4564.1 5457.66 5509.51 4848.14 5366.22 6193.73 5254.24 3742.11 4192.21 5712.35 3597.43 5701.52 4158.91 6776.22 3360.86 5321.17 4869.25 5545.21 3877.8 6273.6 4333.87 5136.87 3667.93 5024.32 4708.17 3779.45 2741.2 5790.42 5784.37 3142.09 5591.77 5182.13 6110.48 7541.76 4775.49 4681.29 5499.59 3220.29 5749.6 3845.9 4834.44 4141.21 4439.71 5782.43 4456.26 5113.6 4027.33 3873.92 4810.98 5135.5 5026.76 5347.9 5091.22 5640.72 5851.63 4546.44 5727.79 7107.63 4831.93 5073.02 5788.97 6545.43 3472.91 6760.92 4023.93 5868.89 8137.11 5484.32 6650.77 6226.14 4173.54 5599.29 4801.8 5606.51 5740.65 4444.97 6038.68 5046.12 3000.29 4807.4 2596.96 6349.67 4350.15 4264.54 6329.53 3516.27 4139.3 6541.45 5367.73 4263.78 4514.39 4601.74 6101.86 5078.31 4227.41 5228.75 5993.0 6047.14 4923.43 4568.64 5467.63 4929.6 3919.62 5750.35 4489.99 4548.45 4945.0 4658.11 4551.26 5658.14 6570.35 4385.49 4242.63 4263.18 3269.54 7142.95 4383.68 4559.74 5836.26 6015.22 6666.67 6063.44 2904.46 4826.52 5120.92 4685.4 4337.32 6240.42 5146.0 5721.14 4577.73 4987.28 5084.5 4918.64 4815.47 4368.12 4365.58 5214.4 3889.98 4636.53 5193.58 5399.43 3629.49 5766.05 5117.64 3835.81 3916.42 4019.34 5429.3 4869.48 3623.19 5510.96 6653.07 4745.16 4697.91 5825.55 5071.98 5719.79 3199.4 4316.5 4371.08 7261.51 4968.14 4914.03 5086.29 5144.56 5139.18 5311.55 4278.57 5551.43 3034.16 5049.99 4201.03 5001.87 5684.05 5638.7 5813.79 4644.88 5293.13 7350.26 3768.46 5167.53 5003.3 6245.52 4932.29 4990.23 5800.81 3954.77 3784.94 6016.87 3125.13 6715.73 4174.44 5667.51 4708.31 4564.41 4198.9 6331.74 5951.86 5431.29 4833.67 5023.41 6282.38 5325.91 4092.07 5657.55 4184.21 5212.92 4700.07 5188.82 5615.84 4464.73 4928.85 4717.73 6440.38 5556.0 4711.04 3904.07 7144.05 5007.21 4619.2 4506.18 4067.96 5166.41 4824.12 6542.5 7104.73 5067.56 4834.39 3834.47 4383.47 5701.75 6162.3 3272.75 5493.89 4057.17 5262.47 7066.96 5261.19 3512.94 4467.0 3104.96 7043.44 3831.52 4587.7 4263.65 4750.49 4643.9 4258.98 6106.43 5196.92 5644.81 4807.35 6761.81 3903.91 4728.55 5630.9 4554.68 4368.28 4512.07 4692.32 5984.8 3127.83 5236.24 4212.15 4585.04 5260.52 5678.58 3185.09 5114.23 5495.0 7407.91 5064.23 6061.85 4454.74 5512.44 6449.06 4924.07 4629.02 5914.5 6006.16 4288.45 4608.62 5407.96 4071.75 6206.98 5131.77 6562.03 5549.71 4410.82 6443.99 7212.97 5490.64 5695.44 4507.46 3422.21 5036.14 5603.68 4944.51 5532.72 4584.81 3220.8 5179.17 5579.39 5270.51 5148.1 5490.75 5224.64 5949.73 4312.48 5527.13 6370.33 5081.08 6318.25 6864.06 4493.79 4279.44 4932.56 4899.19 5058.34 4028.22 3918.94 5575.11 5487.63 3852.82 4507.36 7145.73 4168.52 5403.97 5106.46 6793.1 4068.31 5166.05 4506.66 5077.29 5515.73 5209.55 4850.5 5426.4 5763.05 5129.68 4252.18 5357.39 4659.88 5076.84 3791.41 5853.12 4213.05 5157.38 4224.3 6203.03 5235.87 5273.37 5043.14 5473.89 6089.45 4732.37 4985.3 5810.17 5072.5 4966.07 3274.85 5713.36 5748.9 5545.59 5494.28 5610.53 4099.26 2970.9 5206.47 4580.06 4608.34 3926.11 4835.97 5971.21 6419.64 5464.83 3622.8 2781.96 4770.51 4431.23 5414.58 4991.35 5917.34 4994.65 5740.98 5601.55 4346.07 4462.87 3787.08 4013.86 5759.79 4177.47 6545.99 4218.16 5334.36 2918.64 4933.49 6139.64 4140.92 3990.94 4756.8 4896.43 5463.06 4176.32 4639.8 3986.41 4241.68 6102.49 6949.65 3469.18 2945.34 4095.83 3372.95 5695.25 4489.29 5676.61 4301.93 5846.95 5268.15 5716.42 5701.63 5819.0 6347.72 3460.93 3200.6 5124.86 4927.73 4602.57 3763.85 3565.32 3419.07 5710.33 5344.44 4626.72 6432.8 3186.07 4369.86 4967.51 5173.82 3720.7 5698.53 5034.34 3856.73 3769.2 4450.49 3468.45 5635.32 4526.34 4316.45 5610.95 5042.75 5409.08 4598.92 5241.22 6647.08 4979.52 3422.29 4407.79 5214.63 3495.68 5783.94 3990.96 5352.24 7362.42 4202.77 5836.14 5473.05 6008.81 5537.34 5192.49 3487.31 5884.99 5726.42 6643.4 4674.9 3392.26 5461.72 2549.95 4361.24 6599.28 6224.85 4556.19 5368.66 4795.08 6562.92 5501.73 3671.06 4697.24 3612.44 7035.54 5233.76 5866.91 6405.69 2820.07 5679.74 4825.73 5247.01 4208.37 5288.33 4841.7 6296.54 5702.4 5797.21 5069.9 5685.74 952.938 6740.35 4678.7 3673.6 3306.84 5265.21 4657.24 4400.14 4749.18 5866.42 5553.94 4704.92 3669.32 3663.0 3742.31 4954.81 4316.0 4546.96 6304.49 5424.55 5755.15 4921.1 5134.72 4271.07 5695.79 3814.16 4191.01 5287.25 4420.6 4589.06 5340.05 4920.88 4184.47 5577.41 6511.37 4216.44 3999.5 6710.14 4012.92 5034.05 4598.54 4426.02 4816.51 3825.48 5218.42 4658.59 5345.73 4770.63 3810.68 4841.23 4357.11 2804.54 5477.8 5005.6 4462.35 5486.89 6069.78 5532.75 4549.51 3587.93 4517.29 4975.85 4495.75 5323.95 6171.01 5796.26 4603.04 4870.94 4620.95 5368.93 5271.88 4488.39 6121.56 7168.2 4571.74 4096.86 4796.12 3622.48 5001.51 5385.86 5115.42 4082.4 5482.76 3745.02 5728.58 4887.73 4211.36 5378.24 3604.31 5817.74 5887.71 5661.6 4827.61 5285.75 5481.64 5385.03 5673.75 5360.67 5968.54 6263.3 4501.05 4537.03 3247.97 6548.29 4114.2 4326.06 5034.46 5793.12 5757.29 5469.17 5061.75 4373.2 6022.78 4087.32 6647.85 7025.09 4433.12 7336.37 5138.93 6945.69 6406.8 7086.69 5648.78 6875.73 5226.42 6081.3 4983.43 5117.52 5615.35 3967.76 6311.89 4683.28 4217.36 6549.8 4851.18 4165.36 5005.72 5368.52 4871.77 5811.26 5062.77 6019.35 6075.99 6028.63 3450.07 5927.2 4550.92 6215.87 5146.1 5191.26 6060.06 5544.27 4762.1 3987.69 3484.81 6502.99 4287.25 4392.75 6219.34 6023.07 5674.63 4475.38 6506.63 4140.04 5995.4 4668.8 3495.3 5890.25 5322.11 5700.79 5735.08 4726.2 7133.44 4750.81 4711.15 4474.39 5459.92 5188.22 4196.62 6478.35 2809.19 5453.77 4916.7 5589.53 7208.19 5196.08 5025.42 4965.24 6379.38 6257.79 4849.5 6229.83 4468.26 4523.81 5578.18 5106.33 5198.94 5293.37 5933.54 5559.79 2980.31 5879.24 3148.79 5740.78 6824.53 5997.91 4332.64 4742.82 6791.86 4209.0 6031.22 4930.72 5485.84 6424.77 6297.99 5918.95 4538.89 5689.56 6556.86 3242.31 6099.28 5372.25 3234.26 4830.13 4169.15 3494.16 4778.37 5134.17 4074.16 4904.35 5592.54 5390.33 5124.34 4904.37 4358.81 4651.64 5729.92 5016.46 6224.13 4179.87 4761.84 3769.24 3661.67 5517.65 4009.68 2569.12 4622.73 4161.32 5161.74 5256.75 5099.9 5932.28 2960.5 5118.86 4298.7 4183.4 6170.9 4733.79 5833.78 4436.48 4823.06 5758.98 5288.64 6213.24 6734.39 5942.45 4228.53 4150.76 6123.46 6142.88 5155.28 5111.26 5388.73 4574.54 5205.38 4884.93 5262.79 4600.71 4494.15 5035.71 4419.79 6485.77 4710.88 5407.69 5960.5 3869.39 5308.33 5393.43 6896.55 4666.12 4638.09 4685.65 5377.01 5330.26 6470.23 5939.22 4215.05 3626.86 6371.96 4271.93 5125.17 4697.49 5524.45 5600.21 3953.26 5467.51 4282.11 4625.53 4096.47 2347.41 4542.16 5114.67 5353.66 4104.04 2638.82 5030.33 5593.79 5104.39 5234.2 4612.13 5846.6 5327.05 5438.55 4290.49 5353.23 4434.65 5977.66 5209.5 5065.74 5791.25 4873.23 4028.35 5464.05 5453.2 6348.93 5136.51 6815.51 5232.16 4422.23 4457.05 4820.68 3989.26 3618.64 5703.84 4335.79 5453.69 5797.32 5432.04 3921.27 3702.45 3161.1 5265.63 4898.29 4431.06 5730.2 5620.88 5370.9 4529.77 4325.13 6172.27 3783.79 5078.73 4248.14 5278.54 5729.0 5192.92 5275.57 4786.66 5891.25 5370.1 5129.4 5114.51 3303.49 4655.37 5585.25 5023.61 6351.89 4672.86 6530.78 5560.23 4975.32 3043.77 5237.55 3902.48 4304.64 6030.39 4905.53 3799.01 7392.65 5254.49 3757.23 4181.93 6828.8 5987.88 3579.59 6161.94 4065.28 5057.59 4461.14 5418.98 5285.6 4949.55 5615.06 3132.34 1969.87 4764.83 3957.38 4841.28 4047.95 5507.38 6889.5 4416.87 5300.17 5152.78 4052.43 4117.9 4057.4 5534.23 4753.76 4441.91 6025.77 4781.9 6815.96 5339.6 5828.25 5917.08 4725.11 5418.12 5934.05 4604.1 5322.07 4859.01 5076.11 5990.75 5101.6 4656.01 6589.13 4037.86 5602.62 5714.51 3543.37 2030.03 5628.97 4484.78 5527.27 5157.73 4541.22 5847.91 4934.66 4984.01 4109.44 4903.84 6217.33 4605.39 4557.1 6688.53 5927.1 6175.27 5876.51 6731.89 5410.6 4733.41 5264.83 4969.68 3901.53 5431.14 5313.86 5178.07 5189.91 5777.26 5151.19 4171.02 7012.36 3530.82 5028.06 4002.99 4886.99 5159.67 5764.52 5684.88 3770.22 4390.64 6523.78 4645.86 4045.67 6005.95 4941.52 4308.49 5900.0 4262.74 4581.1 6241.77 5317.19 7360.12 5279.19 4016.6 6223.98 5821.49 7050.08 5580.44 5998.13 5095.52 4746.15 3720.38 4758.84 4731.37 4452.36 3976.0 4068.41 6463.71 5059.37 5783.38 4139.39 6264.03 3909.94 5088.64 3562.8 6589.8 3729.16 5319.1 3783.36 3038.91 3922.28 6570.43 3445.92 6883.86 3820.19 3350.99 4979.5 4745.37 5939.29 6200.05 5575.11 4052.49 5490.54 5203.54 6189.67 6142.94 4948.96 5001.69 5256.82 6581.56 4061.87 3980.46 4896.67 5383.9 3934.11 5158.44 4466.22 4496.51 3886.56 6153.71 6561.94 5483.37 5092.93 4256.08 5881.93 2803.01 4714.66 4399.52 4444.0 6771.18 5770.07 4554.24 4984.17 6182.19 5327.39 5781.62 4981.81 4138.59 4938.33 4970.55 8123.59 4621.33 5765.14 4946.08 4767.54 3539.68 5121.08 2927.84 4696.03 6177.68 4698.7 6270.59 6045.26 6500.45 4907.55 4103.76 4286.61 2932.52 4603.66 4757.87 3557.46 6636.43 5971.95 6298.8 3979.46 3689.24 6321.97 6509.54 2589.19 6119.0 3792.06 5128.59 4293.3 5587.3 6583.37 3572.73 4864.38 4848.98 4491.96 5150.84 4608.01 5087.97 5339.82 4519.03 4930.17 5110.27 4745.44 4085.96 5762.82 6649.52 4232.33 5462.6 5617.29 3035.06 4262.19 4597.88 4878.93 6275.25 6892.33 4505.3 4491.26 4511.34 4832.21 4742.35 5394.79 5645.54 5264.08 4526.87 4151.74 5192.82 6920.92 4174.22 3573.84 4067.89 4515.02 6294.09 4571.57 5131.07 5236.69 4121.07 4586.82 5524.28 3133.28 6026.04 5731.43 6353.81 5859.17 3518.14 4034.41 4150.44 5061.74 5326.03 5771.98 4420.35 5717.45 5772.57 5117.83 4813.81 5268.27 4013.86 5244.95 5165.31 4645.93 5448.64 4585.37 5901.8 3798.09 4288.5 6417.61 4511.05 5715.51 3456.3 5783.69 6074.39 5259.21 5317.83 6738.9 4460.89 4157.1 8052.53 3939.96 4867.12 5910.66 7415.84 4637.3 5141.03 4840.44 3997.68 4819.83 4801.16 5071.38 5616.66 5688.77 5368.28 5466.13 6229.64 2848.44 4220.43 4975.56 6263.87 5743.8 6666.34 4094.63 5084.76 6605.11 6834.92 6379.33 5130.57 5652.73 5402.45 3985.93 6412.84 6071.59 6079.55 5485.61 4993.49 4937.36 5310.33 5308.4 3688.83 4569.32 3402.44 6084.88 5184.98 4397.06 4199.44 4467.51 4053.12 4479.5 6261.67 5460.57 5065.78 5703.34 4612.68 4521.42 6668.98 3977.98 6043.34 4939.56 4747.68 4712.17 5770.92 3093.38 4845.91 4723.71 2002.78 4461.67 5631.32 6322.0 5793.14 6345.2 4609.65 5704.61 5009.21 5410.73 4379.91 4574.03 4942.63 5290.37 5850.38 4227.66 4691.01 4730.97 4594.89 3677.85 5245.95 5821.42 5214.71 4811.11 3463.53 4924.52 6126.03 6044.69 2970.24 4197.87 5105.54 5462.1 6032.45 3414.67 5444.36 5522.34 2649.69 5899.78 3467.11 5000.74 6153.26 5637.53 3882.37 4634.25 4095.4 5188.57 6351.48 5395.12 3721.69 3830.7 6210.0 5350.9 3483.61 5992.06 5545.68 6080.69 4970.12 4967.93 6044.01 6520.19 1458.87 5973.57 5734.07 6241.48 6033.28 5125.45 6286.27 4188.16 6327.54 5507.07 4802.36 5327.71 4880.78 5257.38 5075.23 5625.02 7282.36 4829.77 3826.01 4645.91 5581.01 6959.88 4125.75 5749.53 5247.73 5090.48 5034.02 5582.28 5945.25 5181.31 3856.4 4696.06 4137.16 6189.29 5984.55 6581.13 5803.3 5537.61 4721.98 3228.27 5252.82 3543.98 5056.26 5878.55 4014.44 3435.13 6604.72 6002.77 4431.46 3794.47 4610.55 4967.02 3207.84 4614.49 5400.69 4462.5 4128.93 4959.72 5004.68 3808.04 4023.88 5348.11 4405.61 6126.5 4034.88 3511.5 6007.1 5067.92 5488.96 3188.21 5128.03 3720.92 5087.3 6139.74 4975.57 7066.26 3057.3 6150.31 5873.62 4677.84 4996.91 3920.44 5379.52 4866.8 5314.67 5658.05 6593.1 4066.36 4000.51 6033.93 5011.37 2827.92 4026.03 5044.68 5092.44 6908.32 5336.61 4817.75 5563.09 4848.15 4439.09 5523.81 4718.61 6697.45 3873.79 5717.67 5357.33 5252.37 5432.4 4262.52 7430.48 5640.67 6572.17 3751.73 5555.89 4766.47 6369.66 5678.08 5872.45 5922.62 4414.09 5191.29 5957.82 3784.68 3717.22 6649.21 2943.17 4654.92 5286.55 5522.18 4322.56 5223.1 5509.09 3873.72 4592.49 5212.05 5479.86 3625.98 6474.5 3928.99 4702.32 4444.92 4763.04 5971.9 3746.62 4532.67 4876.37 4769.62 5260.13 4649.5 4810.74 3900.93 5985.75 5475.83 4329.8 5672.46 5202.33 3956.24 7558.99 4142.1 3393.59 5043.14 5333.04 5445.91 4812.59 4521.99 6842.54 7115.67 5675.45 3361.11 6038.56 5573.31 2807.46 5599.16 4179.8 3488.34 5658.35 5428.24 5108.84 4582.12 4520.14 4295.25 5357.14 4850.95 5919.27 4793.06 6637.38 6188.33 6111.23 6916.18 5786.06 4137.41 3868.69 5447.74 4450.51 6033.72 3768.62 3851.47 4966.74 5563.47 5651.46 3162.27 5639.4 6185.73 5516.37 4441.44 6520.96 4232.44 5432.2 4612.4 3312.3 6178.19 4746.19 3282.57 6381.58 4798.13 5212.2 5648.59 5108.42 4630.5 6296.36 4432.32 5515.59 3224.81 4499.54 3775.38 5037.58 4046.22 6457.89 4844.2 5114.61 6118.13 3374.62 4420.3 4926.62 4871.1 3917.09 6009.93 3482.73 4083.1 5270.1 5130.56 4957.99 4947.64 6305.9 4542.62 3470.69 4859.95 4132.08 6009.88 4699.77 4850.49 4981.55 5144.23 6188.62 6153.07 4414.06 5908.57 5944.52 4413.56 5050.2 2513.38 4821.41 5316.05 4908.32 3995.08 4499.52 5019.84 3874.12 4028.13 5784.38 4457.73 4149.17 6476.35 6260.58 5728.27 3053.19 3074.49 6571.26 5580.95 3549.92 4032.06 5246.81 5089.1 5888.95 5394.78 3463.34 2853.68 5122.38 5262.85 4998.37 5329.84 6559.82 3879.83 6565.95 4577.98 5043.34 5886.81 4487.51 4246.24 6805.02 5354.48 7394.47 4729.45 6261.13 5374.09 4167.55 6271.22 4720.34 3421.81 5244.47 5378.75 3920.64 6186.24 5822.7 3780.07 5466.49 4038.17 5007.41 4907.48 3692.99 6213.74 4959.94 2329.93 1635.31 6938.87 5412.07 5512.57 4083.24 4806.99 4813.55 3771.91 5217.62 3839.0 5349.85 4616.81 5715.25 4362.94 4611.21 4469.82 6545.78 3354.94 4404.87 5237.27 5767.65 4451.76 7885.41 5782.25 4104.97 5497.27 4575.72 4081.77 5617.91 4948.21 4987.01 2181.29 4202.12 6332.64 2694.25 4735.99 6492.44 4613.32 5145.39 3352.46 3996.93 6351.95 5195.09 4063.26 5345.05 4997.89 5093.28 4881.51 6131.52 2626.41 4311.92 6729.99 5093.41 6842.35 5464.34 3621.63 4777.96 5801.89 7296.47 5742.39 2613.78 4780.16 4924.53 5616.11 4433.23 4813.24 5759.19 3113.64 4304.75 5480.86 4067.24 6139.9 4313.38 4720.22 6598.99 5250.56 2468.16 3633.58 6294.14 4339.97 5203.75 5169.09 4691.15 2459.88 4512.6 4210.24 5470.67 5901.71 5225.11 5342.9 5252.22 5733.12 4962.35 6436.29 5402.81 4600.81 5640.63 4919.13 4900.26 5783.88 5002.38 6705.93 4865.11 4731.16 5510.89 6470.87 4495.33 5282.67 4159.89 5178.55 5146.69 6203.24 6818.23 4488.41 4369.87 5652.19 5806.74 6578.62 6284.12 5856.43 4796.04 3465.03 5229.56 6011.4 5799.86 5172.1 6052.22 5376.41 5003.63 4870.14 4695.7 2932.2 5105.72 4944.08 4082.01 5003.49 4750.76 4907.03 5832.72 3903.9 4444.95 4721.2 4706.31 5161.02 6265.48 4203.68 5003.81 4739.56 4701.03 3818.37 6225.05 5434.04 5200.1 3997.52 7679.2 5779.9 4909.74 5310.33 5299.03 6664.54 3922.98 5161.73 5259.48 5254.93 4803.4 6833.5 6608.94 5417.07 5738.37 3834.01 6789.66 4739.41 5312.2 5847.27 4490.2 4706.59 5734.84 3982.31 4950.07 2832.83 4582.24 5827.3 6036.99 4084.87 3010.1 3825.98 4589.22 5087.03 4667.84 3906.41 4123.08 4260.38 4636.45 4932.27 5638.51 6793.49 3563.33 6060.19 5536.0 6786.37 4333.23 4328.76 4124.33 5561.63 5168.97 4358.06 5093.51 5647.93 6201.49 5449.09 5502.14 4605.61 4465.56 4131.08 5386.95 5747.9 3864.19 4287.93 5332.11 5315.71 6158.93 5081.65 4823.14 6679.12 4621.32 5699.4 3878.8 4698.94 4286.84 3948.21 5669.15 5296.05 5263.86 4672.34 3330.85 5056.32 5533.52 5410.33 4747.24 4380.86 5576.16 5269.39 3964.03 4305.35 5210.22 4216.33 2451.27 5677.42 4929.35 5606.22 3943.77 3124.49 5242.38 6081.35 5459.52 6262.18 5566.5 5663.36 4276.59 5579.04 5125.53 5994.21 4444.54 5403.81 5082.25 6964.78 4374.05 5036.84 4565.36 5813.68 4025.08 4008.67 3618.53 4770.21 8013.28 3846.55 3796.73 5283.65 4644.68 2892.36 3082.16 5656.84 5911.29 5416.41 4694.27 6760.64 2515.5 5177.88 5551.79 6981.47 4474.96 3916.15 4758.76 4790.63 5259.29 3584.05 4916.75 4818.53 5097.85 5584.64 6189.04 6224.64 4221.03 3799.55 5082.66 4550.77 4337.93 3550.88 4345.51 4048.73 6223.33 5145.13 3860.8 3747.96 5611.29 5940.5 6568.45 5004.22 4280.92 4696.92 5154.74 6437.99 6898.8 6632.04 6540.57 4893.72 6004.72 4072.4 5373.78 5345.65 5438.5 4489.18 2489.44 5863.36 4632.75 5237.76 4994.98 6423.96 6058.13 5894.69 6988.4 6635.51 4060.17 6051.35 5302.53 4909.13 4287.61 5648.02 3308.75 4604.34 4439.17 2701.42 5442.79 5051.39 6673.92 5151.68 4884.94 5362.15 4609.98 4455.61 4738.72 4752.31 5240.97 5569.85 5405.6 3929.35 4884.93 4759.38 6960.97 4287.15 5282.51 5504.65 5669.41 5732.11 5040.9 3919.47 5596.68 4868.66 4004.39 5159.9 4987.48 5943.61 5981.54 4248.58 5020.37 4542.25 4414.23 5233.88 4849.21 4785.55 3793.83 5245.4 6189.81 5367.05 4449.73 5647.11 4088.72 3945.62 3743.85 6236.46 5342.17 6379.3 5015.67 3795.63 5189.4 4576.71 6538.04 4894.15 6157.59 5201.3 5848.41 4090.28 5438.6 4246.83 7370.52 4726.5 4521.88 5467.05 3724.23 5103.3 4963.88 4601.54 5888.94 7263.57 3832.09 5705.96 5267.65 5739.69 5360.88 3509.34 7360.62 3166.37 4977.64 4985.45 4983.56 5205.53 5699.51 5499.37 4883.13 4836.76 4752.94 5551.09 3950.53 4501.1 5581.47 4384.91 4987.01 4713.56 6094.34 6779.82 5543.67 3999.81 4867.13 6377.45 4863.27 4502.12 3255.93 6853.07 6327.61 4633.59 5733.59 5575.8 5268.93 3695.72 6874.6 5106.9 5306.31 5523.96 4223.53 4733.37 4535.94 3037.72 4523.9 5126.08 5604.0 3760.4 4951.02 4602.7 3783.35 4037.16 6395.63 5479.17 4727.98 4122.2 5175.88 4516.26 4790.16 3647.26 3731.58 5369.42 5207.08 4714.52 4587.19 5543.05 6028.89 5333.16 4888.17 5755.98 5392.85 5077.2 4274.05 6550.61 4277.54 5529.09 4531.46 5925.82 5448.68 4739.5 6210.48 4491.62 4182.05 3865.5 5275.27 4072.95 
SCALARS Velocity float 1
LOOKUP_TABLE default
1.55417 1.54777 1.54466 1.56102 1.57548 1.49269 1.51584 1.55475 1.55073 1.54567 1.5461 1.53644 1.52221 1.55981 1.54905 1.56143 1.55228 1.57123 1.57436 1.55378 1.55971 1.52291 1.53717 1.53397 1.53811 1.57985 1.59085 1.49007 1.51599 1.55595 1.55288 1.54662 1.53723 1.56358 1.5444 1.55207 1.54258 1.54836 1.57336 1.56749 1.57125 1.57085 1.55794 1.51634 1.52325 1.52206 1.52749 1.55273 1.55269 1.56929 1.57484 1.57268 1.52689 1.55545 1.55193 1.5739 1.56427 1.55525 1.56017 1.53494 1.53823 1.55154 1.57417 1.56633 1.5663 1.55906 1.52255 1.51564 1.52153 1.51738 1.5295 1.5418 1.55412 1.55242 1.55636 1.54398 1.54941 1.58106 1.54234 1.56724 1.50737 1.55375 1.53594 1.55199 1.51847 1.58596 1.55325 1.55756 1.5626 1.5205 1.52111 1.52538 1.52384 1.52973 1.54141 1.54969 1.55295 1.55346 1.54129 1.52275 1.58471 1.59361 1.57342 1.56329 1.54976 1.47983 1.53502 1.56004 1.5032 1.53952 1.56143 1.53683 1.52602 1.51925 1.5215 1.5293 1.53561 1.54198 1.54207 1.54618 1.55483 1.54591 1.55564 1.54798 1.54957 1.54643 1.51554 1.50605 1.56935 1.61655 1.51091 1.6374 1.56829 1.5306 1.52887 1.51592 1.49202 1.55138 1.52824 1.56562 1.53691 1.52809 1.52018 1.52451 1.52938 1.53596 1.53583 1.53291 1.53494 1.53035 1.54298 1.55797 1.55249 1.5499 1.55362 1.51015 1.52503 1.55643 1.59113 1.80287 1.57549 1.60011 1.43706 1.45298 1.49035 1.51033 1.48675 1.57946 1.50021 1.52424 1.51808 1.53375 1.52122 1.53067 1.53449 1.54183 1.53623 1.52827 1.56722 1.55317 1.55618 1.55593 1.55948 1.51589 1.52564 1.52212 1.55234 1.53444 1.62079 1.69789 1.50333 1.45274 1.36084 1.49325 1.48931 1.57997 1.52572 1.54412 1.52558 1.52438 1.54107 1.54895 1.53667 1.53153 1.5597 1.53726 1.54089 1.50845 1.55828 1.53479 1.57213 1.56894 1.56802 1.53602 1.56347 1.60941 1.66755 1.65405 1.61674 1.46539 1.40238 1.39978 1.46869 1.49284 1.50705 1.52439 1.52055 1.53129 1.54706 1.55735 1.51301 1.50453 1.56108 1.51737 1.55048 1.57855 1.58097 1.58075 1.54567 1.55813 1.562 1.56955 1.59626 1.58816 1.54263 1.46664 1.43472 1.4274 1.46073 1.48359 1.4984 1.51242 1.51033 1.52184 1.5412 1.55433 1.51163 1.52508 1.57069 1.53228 1.55896 1.55827 1.57765 1.58615 1.54743 1.57355 1.52632 1.49168 1.49062 1.54598 1.47843 1.50458 1.47187 1.45043 1.44028 1.44058 1.44903 1.45943 1.47895 1.46841 1.48608 1.49875 1.51153 1.52902 1.53477 1.54322 1.54388 1.5196 1.52396 1.55768 1.54559 1.56123 1.55465 1.54804 1.56681 1.57619 1.57611 1.54724 1.51072 1.54305 1.40628 1.48371 1.4827 1.43363 1.48391 1.44044 1.45228 1.45968 1.47527 1.48929 1.49867 1.51523 1.53212 1.53829 1.51093 1.53423 1.49416 1.52618 1.55829 1.5545 1.57097 1.56596 1.56265 1.5584 1.52487 1.52827 1.49795 1.55692 1.15917 1.57981 1.57602 1.46977 1.46167 1.45737 1.46532 1.45882 1.46881 1.48273 1.49461 1.5127 1.56054 1.54518 1.56015 1.4967 1.48358 1.5912 1.59715 1.55346 1.53469 1.50323 1.51686 1.37804 1.52041 1.54864 1.5449 1.19178 1.40757 1.46377 1.40721 1.66759 1.479 1.64576 1.43467 2.08755 1.46325 1.41867 1.41052 1.39902 1.47321 1.47046 1.46121 1.47193 1.46035 1.46315 1.48058 1.46632 1.50214 1.48218 1.48916 1.51521 1.49881 1.54839 1.56197 1.47079 1.48707 1.43332 1.5519 1.54095 1.57824 1.3684 1.54316 1.52972 1.35254 1.71251 1.52066 1.83724 1.48882 1.54992 1.50004 1.45267 1.44304 1.4191 1.47177 1.45444 1.48343 1.46935 1.45674 1.46204 1.44123 1.47792 1.45703 1.43367 1.43802 1.4636 1.45292 1.5452 1.48194 1.41651 1.40334 1.46689 1.5664 1.49716 1.49685 1.51508 1.41073 1.47364 1.50781 1.59081 1.42165 1.50506 1.51645 1.15667 1.40587 1.18728 1.43996 1.71028 1.59308 1.536 1.56699 1.64698 1.58777 1.72739 1.61537 1.4664 1.46922 1.51295 1.44973 1.44084 1.44955 1.46755 1.46421 1.48758 1.48827 1.43532 1.32852 1.37517 1.37468 1.41267 1.41358 1.3595 1.48087 1.40003 1.41979 1.40646 1.36251 1.40883 1.51935 1.51509 1.5562 1.5427 1.49394 1.33598 1.48942 1.56169 1.22446 1.76062 1.74258 4.03575 0.995158 1.44074 1.98805 0.238421 1.60395 0.748147 1.57542 1.56684 1.38742 1.33737 1.73001 1.51719 1.68066 1.52285 1.25982 1.28863 1.48797 1.43145 1.54581 1.44417 1.45077 1.4501 1.50342 1.40123 1.54213 1.57768 1.30577 1.32302 1.24472 1.38061 1.35157 1.29754 1.29831 1.21873 1.32053 1.37137 1.50834 1.50029 1.5253 1.47979 1.52466 1.53412 1.403 1.52457 1.27932 1.45268 2.04993 2.74466 1.88162 0.60659 1.01678 1.58242 1.04554 0.895381 0.0533227 0.613972 0.849316 1.31285 1.19412 0.806913 0.936835 1.18471 1.00573 1.18826 1.44523 1.36053 1.34024 1.45468 1.30193 1.44905 1.47463 1.44241 1.45097 1.42093 1.39378 1.34814 1.24124 1.38783 1.33855 1.33335 1.33236 1.20381 1.32727 1.2247 1.25295 1.27912 1.32649 1.46799 1.39831 1.57757 1.55543 1.43525 1.39301 1.38302 1.54555 1.42812 1.63476 1.52509 1.38042 1.38804 1.29911 1.07314 1.41869 0.976875 1.06706 1.12936 1.02651 1.00775 1.01305 0.991074 0.990052 0.950096 0.982205 0.931126 0.949049 1.05721 1.03751 0.928668 1.06678 1.05334 1.17451 0.957878 1.06356 1.0861 1.14627 1.20354 1.47553 1.30496 1.29468 1.30437 1.11178 1.14718 1.00722 0.812534 1.27418 1.08908 1.47253 1.25622 1.28009 1.32002 1.23139 1.32333 1.18259 1.46353 1.40465 1.49175 1.43913 1.50992 1.53154 1.2284 1.22482 1.26197 1.06789 1.46556 1.34453 1.33218 1.32374 1.13803 1.20213 1.27271 1.31125 1.42784 1.22179 1.32304 1.36809 1.38485 1.38011 1.55115 1.4242 0.98566 1.21858 1.07034 1.26476 0.958207 1.13536 1.1438 0.976751 0.970071 0.987413 0.984014 0.975249 0.995476 0.967616 0.962311 0.969623 0.979154 1.00042 1.00853 1.10565 1.00727 1.04584 1.08551 1.05457 1.17605 1.03333 0.976502 1.18971 1.32352 1.42592 1.07335 1.08996 1.12079 1.00945 1.14023 1.12918 1.2137 1.23582 1.35273 1.01811 1.50622 1.33942 1.36485 1.26653 1.19663 1.13928 1.1433 1.09046 1.45097 1.292 1.19222 1.15228 1.09733 1.27286 1.31382 1.3295 1.29687 1.20352 1.24594 1.32365 1.36276 1.36278 1.00634 0.855183 1.15133 1.10171 1.11366 1.16782 0.935699 0.970817 0.897369 0.983075 0.94426 0.962723 0.974763 0.981916 0.921882 1.00322 1.01346 0.954027 0.969084 0.969715 0.954486 0.950388 0.977143 0.97042 0.992854 0.969812 1.00887 0.996132 1.05578 0.987853 0.965824 0.968194 0.989012 0.971976 0.917403 0.942299 0.997618 1.1262 1.10058 1.12239 1.12483 1.01412 1.20641 1.10683 1.39186 1.23733 0.981757 1.19349 1.07213 1.168 1.18517 0.989299 0.741198 1.22395 1.24688 1.30541 1.36398 1.32425 1.17968 1.104 1.0995 1.14653 1.24816 1.19682 1.35317 1.08393 1.17886 1.06295 1.14304 1.10973 1.14742 1.08647 1.10996 1.11156 1.20309 1.09197 1.10413 1.28105 1.17787 1.15837 1.3072 1.24325 1.19824 1.21482 0.983204 1.2871 0.822971 1.29319 0.645986 1.21571 1.60898 1.11624 1.15259 0.944217 0.946436 1.1241 1.21339 1.03962 1.08927 1.10159 0.929204 0.973954 0.803792 0.881272 0.938794 0.934583 0.957545 0.957342 0.906085 0.946766 0.976083 0.994122 0.863673 0.81267 0.828832 0.905381 0.825758 0.926109 0.874007 0.902852 0.925544 0.890432 0.934036 0.993936 0.928521 0.91491 0.891683 0.867451 0.959137 0.975803 0.938597 0.949073 1.05359 0.943731 1.08725 1.0069 1.03151 1.02515 1.0322 1.06958 1.03423 0.900546 1.02312 1.04089 1.03771 1.13329 1.28097 1.37063 1.23458 1.03562 1.17359 0.767757 1.08677 1.08389 1.1758 1.141 1.30953 1.23172 0.860595 1.215 0.988164 1.12033 1.10306 1.1171 1.13909 1.12755 1.16847 1.08661 1.1363 1.13463 1.15447 1.09236 1.13988 0.84275 0.842157 0.912805 1.0304 0.916666 1.07011 0.92757 1.16661 0.922031 1.14256 1.06046 1.19785 0.898797 0.829749 0.904487 0.843219 0.79761 0.877485 0.922178 0.819994 0.861316 0.900497 0.854414 0.858125 0.817126 0.804319 0.813334 0.807553 0.842836 0.851177 0.875954 0.862683 0.864611 0.870151 0.865889 0.887654 0.885118 0.857703 0.869128 0.900919 0.9012 0.942673 0.925533 0.991462 0.927011 0.946506 0.928219 0.894049 0.926492 0.97816 0.954016 1.01838 0.961393 1.05375 0.94715 0.988341 1.02682 0.955392 1.11114 1.06588 1.09162 0.982229 1.16193 1.20369 1.04318 1.27035 0.938883 1.21475 1.58866 0.688009 0.627538 0.752375 1.09211 1.12007 1.13113 1.15615 0.964253 1.08317 1.04787 1.09858 0.90853 1.05045 1.00835 0.897902 0.90943 0.890653 0.952443 1.05247 0.912115 1.06535 0.940519 0.689048 0.777307 1.09283 0.381593 1.11182 1.25659 1.04219 0.979041 0.945819 0.839573 0.898416 0.902489 0.87642 0.918568 0.879253 0.872953 0.890463 0.880104 0.851966 0.84944 0.856885 0.88356 0.915103 0.872698 0.850836 0.897767 0.877263 0.869676 0.837639 0.794044 0.79347 0.80694 0.801085 0.807312 0.788922 0.815519 0.835936 0.869326 0.856815 0.849621 0.844728 0.849881 0.860365 0.900754 0.921094 0.933852 0.933031 0.92537 0.922774 0.90872 0.909342 0.959824 0.9107 0.933691 0.948149 0.825979 0.917748 1.06417 0.964425 0.909616 0.93593 0.976864 1.10815 1.18478 1.05973 0.973273 0.82918 0.340203 0.443144 1.09049 0.933377 1.38917 1.27191 1.21534 0.948167 0.756663 1.0624 1.2369 1.07557 1.07096 1.14213 1.10066 1.14946 1.13604 1.09762 1.09993 1.09631 1.18359 0.974037 0.989859 0.938366 0.875464 0.891302 1.05156 0.789809 0.9648 1.08736 0.968051 0.975352 0.947246 0.898136 0.770629 1.14779 0.928631 0.943116 1.02717 0.888875 1.01311 0.94894 0.925152 0.93805 0.841757 0.947121 0.787938 0.867967 0.845648 0.914713 0.999326 0.767466 0.855252 0.823055 0.804396 0.805785 0.798448 0.792376 0.52518 0.554048 0.820592 0.801024 0.788826 0.799714 0.797717 0.785432 0.788005 0.785107 0.797777 0.825395 0.812322 0.833691 0.844697 0.84993 0.871526 0.893493 0.876735 0.906284 0.905341 0.907056 0.91712 0.888759 0.899591 0.889949 0.906239 0.906776 0.917482 0.970385 0.934149 0.849098 0.844079 0.931865 1.08453 0.936287 0.783224 0.80018 1.00364 0.851954 0.804407 0.777488 0.949959 0.824872 0.802613 0.790337 0.772569 1.26836 1.32599 0.851514 1.04485 0.472312 0.916033 0.930055 1.17257 0.982825 1.032 1.09104 1.04317 1.17437 1.92298 0.812304 0.771727 0.981482 0.96771 0.662195 0.943573 1.00805 0.898084 1.05714 0.993535 0.952888 0.959276 0.944718 0.95484 0.92839 0.833122 0.976222 0.89894 0.899781 0.991995 1.00588 0.954945 0.987591 0.837685 0.825052 0.786761 0.858753 0.891214 0.845939 0.843774 0.826119 0.832163 0.793601 0.747763 0.795548 0.781301 0.797738 0.780115 0.814471 0.823842 0.703146 0.576429 0.674208 0.687965 0.910334 0.865769 0.840781 0.756403 0.764614 0.764727 0.773259 0.769413 0.811767 0.798477 0.810772 0.817242 0.855209 0.862702 0.867175 0.882563 0.849668 0.781781 0.848185 0.903245 0.905268 0.950031 0.895127 0.939043 0.881291 0.988347 0.915843 1.00304 0.843827 0.76596 0.841831 0.89927 0.910346 0.834365 0.69307 0.947025 0.968265 0.934273 0.804215 0.88132 0.924779 0.897375 0.898365 0.86183 0.938107 0.872297 0.806859 0.962772 0.846646 0.930006 1.2346 1.0321 0.978411 0.824763 0.860089 0.990444 0.873334 1.0393 0.936719 0.999696 1.05639 0.820279 0.867676 1.31442 0.035649 0.974623 0.905582 0.82666 0.864526 0.887178 0.954732 0.882437 0.836904 0.852952 0.971785 0.837261 0.94591 0.839884 1.00515 0.870838 1.06832 0.732152 0.820646 0.774276 0.811574 0.881297 0.939564 0.9009 0.835471 0.980039 0.790546 0.755004 0.753852 0.875725 0.787849 0.857338 0.804476 0.842105 0.822424 0.794691 0.765955 0.738041 0.791928 0.828174 0.775396 0.797871 0.805211 0.696034 0.716966 0.681123 0.836742 0.91806 0.779213 0.854552 0.840128 0.859745 0.802265 0.795785 0.807898 0.798476 0.775031 0.781192 0.786193 0.778115 0.779136 0.791983 0.863119 0.839524 0.831515 0.820199 0.822614 0.943696 0.906368 0.844356 0.889113 0.851062 0.818687 0.795879 0.736203 0.794846 0.897894 0.844198 0.646776 0.672025 0.848374 0.873209 0.927829 0.885242 0.88445 0.88438 0.88637 0.927242 0.834338 0.85529 0.801522 0.856278 0.904286 1.02349 0.970113 0.884563 0.892539 0.908665 0.871705 1.08388 1.1377 1.12874 0.586745 0.705655 0.820946 0.875595 0.919838 0.814004 1.04103 0.816914 0.677839 0.889569 0.952156 1.07968 1.01262 0.705059 0.779761 0.851504 0.801452 0.841736 0.876987 0.910094 0.886359 0.888178 0.820317 0.828024 0.84172 0.839459 0.841857 0.831194 0.80677 0.812928 0.739121 0.80933 0.746028 0.751545 0.732678 0.766198 0.804801 0.702838 0.72083 0.802856 0.758955 0.669263 0.678112 0.727864 0.72506 0.726988 0.766579 0.774462 0.776276 0.802397 0.795513 0.789223 0.804337 0.785075 0.798131 0.803369 0.787027 0.799016 0.787706 0.792388 0.798821 0.79337 0.78456 0.808917 0.800298 0.805985 0.836336 0.82832 0.837195 0.781091 0.860223 0.828621 0.832584 0.850081 0.833679 0.835006 0.813156 0.808717 0.811699 0.77174 0.816246 0.836495 0.868205 0.907809 0.82529 0.887864 0.839821 0.988225 1.04505 0.9207 0.820619 0.848817 0.897157 0.89919 0.912836 0.908246 0.900912 0.889936 0.822481 0.770271 0.769886 0.812928 0.902599 0.969499 0.911605 0.924219 0.969397 0.864347 0.910463 0.839628 0.839877 0.837821 0.834966 1.18393 1.41838 1.04535 0.951137 0.89235 1.00845 0.877078 0.870371 0.838529 1.25083 0.500803 0.819042 0.920748 1.06158 0.835147 0.719477 0.999478 0.708877 0.802496 0.793728 0.866525 0.878658 0.868642 0.901431 0.871988 0.860417 0.861094 0.848231 0.844553 0.866398 0.8497 0.865022 0.843252 0.854482 0.843527 0.862212 0.848748 0.868257 0.847841 0.894331 0.7703 0.602873 0.762347 0.776748 0.790162 0.777131 0.747164 0.762388 0.7115 0.756571 0.772728 0.715759 0.710701 0.726569 0.72509 0.721889 0.749809 0.751971 0.766832 0.780498 0.754697 0.795395 0.795136 0.791692 0.780576 0.774606 0.769495 0.791653 0.791946 0.797739 0.790268 0.807799 0.823668 0.799522 0.822395 0.857454 0.851314 0.880965 0.857778 0.826467 0.857789 0.845282 0.798017 0.830157 0.81603 0.812565 0.849602 0.818499 0.816613 0.824318 0.835302 0.850002 0.83684 0.883443 0.875648 0.871287 0.772972 0.686007 0.827463 0.843823 0.919094 0.893478 0.905246 0.905456 0.923321 0.900146 0.880862 0.890844 0.864519 0.81386 0.785365 0.802508 0.853684 0.874352 0.950406 0.918708 0.882173 0.892584 0.896114 1.006 0.992649 0.594028 0.750441 0.872401 0.918348 0.822803 0.836634 0.765913 0.879699 1.03924 0.999672 0.887992 1.08872 0.885032 0.819198 0.75281 0.747592 0.947023 0.810963 0.691405 0.745803 0.851342 0.878936 0.866988 0.89634 0.886958 0.834428 0.837265 0.836177 0.805501 0.811976 0.792352 0.794295 0.791895 0.790578 0.811155 0.794939 0.779501 0.820235 0.758126 0.831407 0.623987 0.773884 0.5867 0.743977 0.734616 0.631436 0.861144 0.741939 0.80437 0.735234 0.77133 0.772157 0.778846 0.788254 0.780562 0.785476 0.804034 0.74626 0.724105 0.711909 0.704513 0.713097 0.688514 0.691545 0.727027 0.722837 0.75434 0.773189 0.794484 0.802438 0.790673 0.758949 0.801572 0.746845 0.753911 0.790777 0.783475 0.803171 0.804961 0.806308 0.80413 0.815822 0.890099 0.866117 0.895667 0.877485 0.871305 0.808896 0.830145 0.79727 0.795446 0.816933 0.826003 0.831283 0.826027 0.826397 0.81341 0.823186 0.834808 0.887306 0.86093 0.881661 0.856284 0.844388 0.869515 0.911438 0.898318 0.910397 0.915503 0.899271 0.89159 0.883307 0.872815 0.848671 0.830306 0.837188 0.808297 0.803636 0.823245 0.909167 0.910539 0.916092 0.925025 0.925081 0.94983 0.951166 0.833346 0.865643 0.882816 0.911313 0.89127 0.865861 0.822605 0.858903 0.891215 0.831791 0.960425 0.925069 0.951541 0.805798 0.891079 0.730509 0.805768 0.817742 0.760654 0.815331 0.727176 0.862607 0.700008 0.894203 0.882481 0.835016 0.903179 0.853904 0.862044 0.791546 0.83016 0.802777 0.801612 0.819686 0.806334 0.828602 0.803958 0.795631 0.773796 0.72916 0.678907 0.694908 0.740833 0.770593 0.770886 0.75427 0.795018 0.783018 0.78865 0.798911 0.766744 0.767645 0.823773 0.759094 0.704637 0.81079 0.678954 0.786317 0.681422 0.680346 0.7384 0.857253 0.721008 0.820088 0.696038 0.644713 0.656118 0.659174 0.683851 0.705912 0.750297 0.763224 0.785424 0.792828 0.778265 0.7868 0.807047 0.824628 0.818252 0.817126 0.810154 0.761716 0.734127 0.840316 0.840174 0.824937 0.771256 0.767926 0.781491 0.781484 0.784574 0.730983 0.798856 0.807987 0.799802 0.800085 0.802996 0.82445 0.835078 0.832826 0.8219 0.833818 0.846419 0.854508 0.877636 0.879625 0.88501 0.882048 0.859917 0.884696 0.899001 0.904165 0.89405 0.868342 0.867226 0.85877 0.84879 0.798823 0.786549 0.822582 0.844189 0.888983 0.894475 0.920378 0.942109 0.950976 0.951182 0.942471 0.887434 0.896105 0.887307 0.918494 0.908261 0.902321 0.891853 0.898284 0.845895 0.899346 0.8195 0.862424 1.22652 0.581233 0.887983 0.89367 0.889384 0.883306 0.877288 0.871921 0.834629 0.808108 0.731222 0.741727 0.755678 0.867341 0.837485 0.736356 0.762841 0.686445 0.806294 0.855353 0.864036 0.844833 0.806064 0.734594 0.79134 0.711432 0.694808 0.71136 0.714598 0.728283 0.728173 0.750858 0.767661 0.759638 0.778243 0.754043 0.761562 0.786292 0.794613 0.801443 0.686053 0.700117 0.709071 0.659395 0.715491 0.695236 0.690065 0.745718 0.816263 0.719294 0.69279 0.772362 0.703218 0.507873 0.312721 0.65199 0.808967 0.645368 0.722953 0.74837 0.747426 0.757428 0.766916 0.774898 0.754955 0.780942 0.771168 0.72309 0.763769 0.881314 0.843931 0.897262 0.822348 0.77619 0.807776 0.790879 0.83605 0.71879 0.702023 0.654085 0.772688 0.779959 0.732318 0.794688 0.784254 0.72259 0.786991 0.796047 0.815121 0.80284 0.828453 0.815087 0.815958 0.815258 0.839167 0.864301 0.904043 0.899428 0.919755 0.903408 0.884055 0.891795 0.890957 0.885626 0.898507 0.905443 0.901196 0.905213 0.879315 0.856468 0.856555 0.878454 0.78891 0.832338 0.763718 0.848565 0.859264 0.911026 0.92548 0.940572 0.951688 0.948715 0.936944 0.865701 0.913362 0.915735 0.922573 0.892163 0.895574 0.865317 0.917958 0.967344 0.961558 0.470677 0.54569 0.76087 0.836198 0.872238 0.857589 0.847225 0.859302 0.812049 0.799839 0.747243 0.751038 0.760671 0.805333 0.768764 0.854989 0.80206 0.706039 0.769165 0.85894 0.888136 0.918763 0.849655 0.879667 0.733156 0.768793 0.657877 0.715768 0.669995 0.713417 0.732901 0.719148 0.761131 0.757229 0.700399 0.740975 0.727833 0.816923 0.737956 0.758038 0.732133 0.708955 0.748657 0.726363 0.720698 0.70944 0.707349 0.697495 0.671001 0.682126 0.701907 0.685154 0.702078 0.715477 0.698769 0.73541 0.751485 0.71962 0.530179 0.783534 0.783251 0.697961 0.617327 0.811222 0.808777 0.812849 0.81799 0.796766 0.747681 0.819901 0.823491 0.859939 0.860512 0.765288 0.753639 0.769118 0.682425 0.753905 0.818654 0.870832 0.834402 0.840265 0.844178 0.867565 0.820549 0.832013 0.823812 0.821279 0.815416 0.834063 0.819339 0.809087 0.827571 0.875845 0.963729 0.922397 0.956812 0.934955 0.903044 0.888069 0.884993 0.88826 0.901743 0.915963 0.906391 0.926942 0.877294 0.862466 0.848185 0.92201 0.805568 0.855696 0.866688 0.89251 0.908067 0.919998 0.94473 0.950201 0.943167 0.946772 0.94901 0.885489 0.983807 0.902042 0.888521 0.907604 0.834072 0.869165 0.83747 0.824856 1.12557 1.10361 0.394005 0.79541 0.832303 0.834918 0.839721 0.835643 0.830755 0.802502 0.760427 0.766179 0.783433 0.813336 0.748102 0.817251 0.744211 0.754585 0.73392 0.818424 0.788753 0.938725 0.841695 0.934819 0.932839 0.723612 0.813965 0.697601 0.74505 0.707633 0.726899 0.756393 0.756593 0.692361 0.653895 0.762827 0.730163 0.718032 0.692958 0.75564 0.720863 0.726599 0.696917 0.715701 0.691554 0.686528 0.628173 0.678351 0.66313 0.6494 0.644496 0.661174 0.665724 0.687253 0.690429 0.68613 0.704379 0.657904 0.683104 0.697038 0.722289 0.726977 0.749289 0.746963 0.780646 0.74704 0.757781 0.744209 0.825118 0.791509 0.802783 0.865445 0.780839 0.802763 0.78138 0.853895 0.844042 0.823993 0.776863 0.781186 0.7352 0.685434 0.650762 0.725735 0.741502 0.916652 0.880201 0.876912 0.852316 0.828797 0.813917 0.817941 0.820612 0.835607 0.845924 0.844203 0.898516 0.915314 0.927308 1.01108 0.987251 0.920069 0.906345 0.889809 0.884413 0.873788 0.869276 0.888229 0.896799 0.983263 0.883435 0.869404 0.857589 0.877583 0.882014 0.841897 0.872554 0.87195 0.867046 0.876484 0.915935 0.865997 0.957252 0.958635 0.975025 0.953762 0.974367 0.925722 0.904685 0.898842 0.892031 0.849975 0.799205 0.841375 0.858566 0.980339 0.891269 0.967904 0.669656 0.805194 0.825304 0.830743 0.833805 0.766642 0.80015 0.772931 0.765456 0.77109 0.782878 0.812325 0.839941 0.773368 0.822094 0.75036 0.766517 0.729055 0.730183 0.701771 0.743718 0.698475 0.710176 0.908396 0.934402 0.805718 0.740832 0.685243 0.733702 0.678795 0.775629 0.72195 0.721864 0.774006 0.670525 0.670399 0.546494 0.766437 0.590783 0.72164 0.694517 0.709497 0.676615 0.708903 0.704628 0.725056 0.696274 0.621163 0.631346 0.618643 0.633759 0.665169 0.582236 0.590053 0.577037 0.625983 0.634131 0.646504 0.630848 0.654208 0.67996 0.653532 0.684097 0.643836 0.717173 0.701725 0.740931 0.774215 0.781828 0.772824 0.766823 0.730913 0.741412 0.724638 0.746897 0.89841 0.75546 0.885215 0.836144 0.72038 0.735313 0.744538 0.77835 0.755939 0.865551 0.833746 0.948078 0.817454 0.819848 0.794101 0.725775 0.720028 0.771861 0.82259 0.841416 0.911503 0.960092 0.931358 0.878175 0.84981 0.851689 0.811701 0.827015 0.803672 0.809283 0.812289 0.833867 0.88159 1.00376 0.935005 1.12043 0.893134 0.895318 0.901636 0.888734 0.883209 0.893821 0.889067 1.00499 0.870106 0.902953 0.884949 0.888075 0.887431 0.884525 0.892064 0.897892 0.880787 0.867178 0.88194 0.849629 0.965989 0.953597 0.957004 0.950116 0.940399 0.928299 0.916116 0.880856 0.866568 0.852174 0.822255 0.837775 0.848771 0.866774 0.903317 0.930346 0.901492 0.821605 0.786906 0.83485 0.817235 0.818918 0.826233 0.826297 0.822579 0.811249 0.78464 0.783176 0.778292 0.782539 0.813012 0.786519 0.809864 0.790541 0.788653 0.753693 0.742464 0.726143 0.7363 0.733805 0.784872 0.872306 0.691102 0.732626 0.672613 0.747234 0.757722 0.767362 0.664907 0.790549 0.413913 1.03023 0.722585 0.597771 0.689945 0.740382 0.711244 0.733308 0.680528 0.686079 0.668293 0.685613 0.565182 0.571535 0.644304 0.529944 0.662016 0.549903 0.547751 0.436159 0.545147 0.449328 0.618261 0.615391 0.62531 0.622438 0.625919 0.629783 0.630134 0.6215 0.625626 0.63178 0.544508 0.642039 0.729302 0.758945 0.787496 0.754511 0.7984 0.713759 0.619236 0.683769 0.655309 0.685643 0.686425 0.678088 0.699196 0.730157 0.773507 0.72512 0.69068 0.74597 0.742067 0.690634 0.755068 0.94423 0.916288 0.719523 0.60957 0.696698 0.791339 0.732883 0.679672 0.698472 0.65162 0.724758 0.81385 0.919711 0.948129 0.879609 0.858876 0.823358 0.824913 0.807811 0.80831 0.805412 0.849311 0.948621 0.902855 0.652859 1.00073 0.922887 0.954712 0.915853 0.924482 0.902038 0.899048 0.904294 0.892974 0.890199 0.829253 0.997235 0.913334 0.867245 0.875841 0.87389 0.885039 0.889963 0.893632 0.91359 0.905085 0.914264 0.925356 0.885329 0.804742 1.02085 0.964347 0.943412 0.929377 0.937873 0.929551 0.886398 0.857114 0.846284 0.853549 0.876991 0.896152 0.888751 0.867281 0.852567 0.846526 0.833989 0.832136 0.829369 0.821506 0.828779 0.797995 0.794004 0.785441 0.786851 0.814225 0.796689 0.806724 0.783933 0.65919 0.809795 0.726204 0.726849 0.732425 0.753232 0.744746 0.83786 0.763815 0.722365 0.790453 0.859262 0.820353 0.810876 0.882646 0.653376 1.06727 0.281033 0.379 0.571073 0.636021 0.674076 0.60059 0.676946 0.649884 0.609644 0.639336 0.663394 0.773551 0.616078 0.548124 0.658602 0.613338 0.476425 0.538519 0.538346 0.70593 0.636312 0.614915 0.629644 0.616667 0.611997 0.615228 0.627568 0.614232 0.614892 0.602198 0.61617 0.57233 0.562354 0.640531 0.692737 0.573038 0.575204 0.700278 0.790944 0.699018 0.589071 0.658287 0.582714 0.553179 0.780112 0.603362 0.595267 0.644321 0.63452 0.660938 0.674551 0.7345 0.721109 0.806018 0.692434 0.5675 0.783254 0.823378 0.770699 0.74396 0.676968 0.701171 0.732545 0.795273 0.919674 0.94528 0.9279 0.869908 0.805856 0.852621 0.820675 0.793896 0.80496 0.807685 0.806685 0.808809 0.828934 0.967234 0.744618 0.856869 0.817958 0.929538 0.92845 0.95469 0.936768 0.928741 0.908616 0.893352 0.869404 0.875056 0.89888 0.889736 0.888139 0.891099 0.891459 0.902155 0.921694 0.931726 0.924003 0.907859 0.769539 1.01864 0.982296 0.96128 0.954179 0.937678 0.954554 0.959728 0.93466 0.973849 0.877095 0.859537 0.859683 0.858088 0.884617 0.872528 0.893787 0.875981 0.87131 0.858648 0.868327 0.860337 0.843818 0.845368 0.829864 0.818752 0.806462 0.812273 0.793013 0.801135 0.784623 0.768876 0.753904 0.75755 0.81568 0.79581 0.778812 0.79491 0.769072 0.67252 0.719702 0.706488 0.766523 0.642584 0.568709 0.701529 0.669742 0.801567 0.608814 0.628093 0.516492 0.566414 0.523334 0.555063 0.626074 0.638976 0.582811 0.61749 0.598238 0.716243 0.719641 0.717554 0.726615 0.762694 0.63918 0.607878 0.615043 0.569766 0.546472 0.511784 0.465743 0.744216 0.603142 0.540413 0.578104 0.625598 0.591697 0.587015 0.55655 0.570062 0.572954 0.590742 0.798973 0.805445 0.602383 0.593675 0.553669 0.541115 0.558645 0.688743 0.587043 0.63016 0.588156 0.653703 0.692533 0.739485 0.727627 0.734313 0.674597 0.625993 0.747552 0.792256 0.710905 0.698527 0.716952 0.706025 0.737705 0.781991 0.766291 0.795299 0.915015 0.86906 0.950811 0.850777 0.825967 0.745775 0.786478 0.782801 0.803386 0.800673 0.806468 0.805705 0.813649 0.780679 0.826916 0.874322 0.916454 0.905751 0.937133 0.949571 0.933919 0.905003 0.889788 0.887601 0.892205 0.89525 0.902228 0.888558 0.88648 0.882845 0.896423 0.917942 0.930216 0.918241 0.875236 0.896151 0.855123 0.923751 1.00339 0.97104 0.957577 0.9482 0.941146 0.945087 0.917701 0.956561 0.908679 0.906812 0.864816 0.924975 0.880021 0.904674 0.909777 0.926158 0.915815 0.887913 0.879178 0.880999 0.867784 0.852653 0.831328 0.819406 0.812861 0.824774 0.817968 0.822708 0.767077 0.771791 0.778712 0.764465 0.762296 0.782689 0.831839 0.796106 0.909311 0.756269 0.659149 0.626278 0.724171 0.813896 0.746092 0.701223 0.737599 0.705886 0.656563 0.643595 0.713992 0.68676 0.577677 0.605149 0.580392 0.554618 0.586604 0.601448 0.695623 0.537097 0.609265 0.588766 0.654267 0.58813 0.572889 0.655166 0.523642 0.50592 0.44188 0.406228 0.41868 0.446074 0.337469 1.05445 1.17751 0.784078 0.617175 0.25873 0.320257 0.648526 0.462273 0.649766 0.495054 0.443939 0.485387 0.476423 0.470967 0.531497 0.521192 0.530477 0.671875 0.533345 0.583095 0.552503 0.548271 0.564281 0.55947 0.576126 0.670004 0.693874 0.721435 0.741174 0.712792 0.710766 0.678151 0.653121 0.623108 0.732283 0.698324 0.799002 0.739404 0.740685 0.70419 0.780572 0.764238 0.763528 0.686803 1.02456 0.799235 0.799309 0.819116 0.822379 0.80453 0.813948 0.807824 0.817108 0.92676 0.923191 0.92996 0.930745 0.96093 0.947299 0.986136 0.965308 0.916441 0.891158 0.870503 0.85761 0.889452 0.931609 0.912142 0.906596 0.926917 0.910725 0.917109 0.874623 0.880092 0.884735 0.878301 0.920641 0.936337 0.942682 0.933339 0.921256 0.90889 0.918141 0.962562 0.955933 0.963692 0.966726 0.946804 0.945461 0.939423 0.924593 0.915386 0.92211 0.867136 0.884313 0.932859 0.935888 0.89314 0.900885 0.881949 0.856165 0.837191 0.82558 0.820281 0.826132 0.8096 0.832512 0.834463 0.851269 0.774191 0.762634 0.749057 0.730637 0.71814 0.840205 0.730839 0.741625 1.02637 0.447352 0.706616 0.90275 0.787679 0.594738 0.752698 0.714575 0.657628 0.671086 0.650303 0.643514 0.59771 0.591504 0.584718 0.589155 0.596358 0.55179 0.513099 0.481357 0.728091 0.708319 0.860446 0.52022 0.636553 0.440201 0.765171 0.54485 0.27637 0.881141 0.324254 0.791796 0.349627 0.689286 0.164013 0.233829 0.0477565 0.974063 1.79247 0.757155 0.871638 0.944809 0.270943 0.559372 0.534927 0.618061 0.608642 0.556964 0.479086 0.478772 0.483353 0.452235 0.510143 0.55544 0.526259 0.558844 0.617288 0.618118 0.601292 0.567414 0.599719 0.557256 0.55253 0.536398 0.553134 0.647035 0.736559 0.788158 0.768688 0.75872 0.721193 0.657001 0.627853 0.693447 0.703328 0.724314 0.742719 0.764574 0.771479 0.794203 0.775325 0.912375 0.852879 0.835585 0.820238 0.82551 0.82897 0.861354 0.840191 0.86298 0.79834 0.915973 0.991901 1.0091 0.874757 0.902738 0.881307 0.952249 0.938263 0.937979 0.868337 0.889255 0.88162 0.893703 0.874936 0.959871 0.930416 0.936374 0.934269 0.929607 0.930448 0.937743 0.942335 0.946919 0.938328 0.926425 0.927745 0.90012 0.933545 0.907803 0.90408 0.963144 0.993149 0.89744 0.921182 0.910662 0.901073 0.853527 0.856204 0.85729 0.797716 0.841158 0.839482 0.82961 0.776748 0.79905 0.78226 0.745805 0.706058 0.741975 0.752541 0.902062 1.055 0.742057 0.629795 0.731177 0.72105 0.680212 0.685472 0.712331 0.727995 0.721916 0.688142 0.634864 0.632667 0.660079 0.606424 0.585443 0.589808 0.601714 0.518293 0.590921 0.738814 0.577433 0.514181 0.493992 0.577899 0.277412 0.392561 0.531297 0.787727 0.56484 0.271224 0.0742652 0.522922 0.824591 0.598042 0.17585 2.02442 0.240295 0.845696 0.744861 0.928664 0.443803 0.678383 0.225886 0.316219 0.538287 0.341092 0.468525 0.520937 0.466185 0.490542 0.55889 0.593947 0.609981 0.56818 0.610797 0.623698 0.632629 0.62905 0.640837 0.62842 0.597496 0.547358 0.625354 0.554818 0.788601 0.858481 0.786317 0.697396 0.730858 0.713678 0.688427 0.665815 0.631373 0.644706 0.619729 0.6331 0.685122 0.750795 0.736389 0.775473 0.769276 0.76698 0.812212 0.799598 0.821077 0.781006 0.553556 0.933134 0.894062 0.899932 0.833902 0.829689 0.840453 0.843365 0.861592 0.879952 0.820471 1.00137 0.993225 1.00467 0.832394 0.804504 0.868756 0.924851 0.97061 0.954713 0.949076 0.875166 0.880649 0.872656 0.872784 0.889044 0.902469 0.957038 0.940972 0.944639 0.943232 0.944844 0.942497 0.937868 0.947367 0.945188 0.933803 0.942642 0.931199 0.917656 0.933561 0.966499 0.898907 0.886221 0.86025 0.928402 0.958556 0.892532 0.923327 0.917336 0.927282 0.907212 0.942454 0.902928 0.884681 0.897288 0.827612 0.863694 0.841898 0.819536 0.822501 0.804735 0.799677 0.728462 0.764826 0.818266 0.810662 0.778326 0.75334 0.731293 0.699814 0.73559 0.754307 0.721084 0.741434 0.783564 0.702544 0.749506 0.790504 0.783149 0.647656 0.658285 0.608071 0.616673 0.665556 0.735388 0.458335 0.508119 0.573886 0.660589 0.636606 0.586779 0.609517 0.551854 0.622667 0.664521 0.511764 0.61042 0.352044 0.689888 0.212944 0.982361 0.647936 0.645971 0.884019 0.715081 0.518289 0.132002 0.277926 0.901248 1.11091 0.920563 0.38597 0.386129 0.244548 0.399024 0.36759 0.424314 0.415372 0.339721 0.56165 0.724258 0.647645 0.68245 0.657403 0.626325 0.581369 0.634094 0.652585 0.649256 0.623405 0.615889 0.700781 0.632156 1.03729 0.756908 1.1923 0.591724 0.682973 0.663203 0.638091 0.63321 0.647408 0.709104 0.764392 0.799597 0.789906 0.781851 0.819409 0.769408 0.846162 0.623221 0.926412 0.850803 0.87636 0.83664 0.829467 0.843748 0.873083 0.885119 0.847714 1.00349 0.963492 0.995453 0.972233 0.971961 0.81307 0.873788 1.01556 0.91316 0.923651 0.872963 0.878608 0.876679 0.909153 0.936446 0.960173 0.94703 0.950213 0.95566 0.955162 0.960504 0.960765 0.945922 0.948791 0.936381 0.945522 0.927211 0.918829 0.920506 0.998797 0.772132 0.954051 0.967944 0.914011 0.942035 0.820253 0.870858 0.926334 0.927161 0.843543 0.839506 0.840093 0.821784 0.794643 0.818341 0.807531 0.819808 0.774832 0.787254 0.808728 0.792692 0.776695 0.75749 0.784986 0.761375 0.724013 0.690575 0.787715 0.81947 0.851619 0.676546 0.632215 0.609153 0.584921 0.57196 0.54602 0.638788 0.660093 0.591364 0.604007 0.579596 0.586135 0.574479 0.625595 0.486702 0.438397 0.748702 0.187919 0.529416 0.532482 0.78112 0.907276 0.779208 0.71381 0.774222 0.855456 0.371625 0.56487 0.4023 0.363824 0.382328 0.759134 0.687887 0.626025 0.624616 0.619783 0.54866 0.613467 0.565427 0.545163 0.507071 0.194836 0.654757 0.934751 0.651328 0.739217 0.690477 0.665721 0.663688 0.692639 0.707112 0.73591 0.806992 0.812352 0.811493 0.839197 0.859148 0.792268 0.681886 0.700583 0.888321 0.853141 0.837896 0.857297 0.861036 0.866247 0.888748 0.919093 0.954813 0.985414 0.961243 0.922204 0.992718 1.14153 0.856356 0.992831 0.938903 0.907052 0.857693 0.879369 0.928416 0.913638 0.947257 0.936782 0.952439 0.967203 0.966953 0.95373 0.956287 0.973397 0.986232 0.974793 0.957025 0.960697 0.939393 0.937899 0.946844 0.937029 0.923568 1.08721 0.89769 1.0006 0.955397 0.973099 0.939916 0.948416 0.982075 0.820603 0.846294 0.887836 0.915623 0.93126 0.944791 0.877157 0.896671 0.846762 0.836989 0.839048 0.840011 0.822997 0.796647 0.795819 0.80164 0.802885 0.793488 0.809405 0.795953 0.749901 0.684295 0.618646 0.608156 0.767671 0.874447 0.853132 0.924927 0.757442 0.5903 0.492947 0.553367 0.388772 0.716276 0.601135 0.671488 0.55955 0.686362 0.399993 0.545092 0.48569 0.471556 0.596867 0.530299 0.447734 0.701472 0.714585 0.677033 0.732387 0.624836 0.867864 0.603634 0.51879 0.599059 0.752613 0.617111 0.69262 0.603747 0.605951 0.600654 0.571792 0.501275 0.512375 0.531238 0.560214 0.528559 0.412791 0.63954 0.65771 0.787357 0.759365 0.769759 0.714355 0.689612 0.678425 0.716027 0.692722 0.724087 0.740702 0.807942 0.828137 0.847765 0.857628 0.823952 0.895487 0.84613 0.874932 0.877872 0.87683 0.888242 0.882647 0.90124 0.976801 0.978877 0.962392 0.957157 0.946256 0.873268 0.939917 0.956101 0.956981 0.986999 0.97378 0.887578 0.904371 0.976578 0.957591 0.961241 0.970815 0.963167 0.963047 0.935968 0.927409 1.00414 0.973928 0.972413 0.953036 0.947779 0.956071 0.924888 0.86039 0.933646 1.01036 0.972854 0.944367 0.973641 0.787287 0.790747 0.824192 0.859275 0.905642 0.900776 0.931299 0.956072 0.887587 0.88426 0.856818 0.838947 0.849555 0.854074 0.83444 0.843857 0.803222 0.799118 0.804897 0.81053 0.844613 0.841265 0.783559 0.679191 0.552495 0.716803 0.542065 0.603287 0.591175 0.890004 1.13648 0.941781 1.41161 0.979917 0.81124 0.753586 0.708941 0.630021 0.524349 0.553827 0.579403 0.92462 0.553425 0.49837 0.618227 0.542072 0.475609 0.406947 0.523707 0.293025 0.88135 0.670435 0.715709 0.697821 0.721758 0.583199 0.544565 0.412802 0.625545 0.614386 0.59755 0.624307 0.599058 0.622575 0.624474 0.663101 0.411448 0.544648 0.571334 0.699596 0.651002 0.662251 0.858222 0.807703 0.788549 0.780292 0.805472 0.812987 0.740914 0.708966 0.745936 0.777907 0.830786 0.84978 0.875267 0.86747 0.923867 0.917904 0.875252 0.867201 0.885475 0.891811 0.892281 0.837221 0.860835 0.968118 0.959461 0.951879 0.95839 0.956606 0.925699 0.94554 0.989659 1.00434 0.999064 1.00368 0.972303 0.920687 1.03012 0.99316 0.966701 0.970378 0.967458 0.967701 0.967068 0.972156 0.953176 0.939567 1.01548 0.980883 1.00786 0.972242 0.965938 0.968508 0.940653 0.88527 0.937317 1.01092 0.979947 0.961602 0.973823 0.942527 0.805359 0.807043 0.845798 0.866216 0.917312 0.967355 0.926002 0.92767 0.904121 0.846648 0.853081 0.851739 0.849983 0.849165 0.831917 0.800522 0.798058 0.80329 0.810025 0.802698 0.810261 0.909083 0.881567 0.790424 0.461571 0.473266 0.599588 0.548096 1.04979 0.322539 0.633127 1.08414 0.738558 0.625582 0.540002 0.462048 0.495848 1.28586 0.925349 0.347066 0.57273 0.547975 0.580924 0.465346 0.237148 0.910152 0.66221 0.662751 0.680148 0.705212 0.686208 0.687977 0.671339 0.561159 0.514553 0.545036 0.551423 0.583199 0.640903 0.633887 0.667263 0.618231 0.576342 0.620427 0.613597 0.768457 0.774732 0.67297 0.660366 0.855661 0.66862 0.834627 0.83724 0.833921 0.811412 0.738094 0.693792 0.816447 0.849305 0.857667 0.864589 0.890734 0.895273 0.917663 0.916159 0.90236 0.89017 0.883035 0.879691 0.88773 0.890942 0.817526 0.716699 0.963739 0.948794 0.973168 0.969184 0.959567 1.00248 0.978218 0.99989 0.996396 0.92179 0.939379 0.934371 1.04197 1.00803 0.977523 0.973363 0.980058 0.97272 0.976603 0.971103 0.941949 1.04101 0.970751 0.933095 1.0604 1.02041 0.952915 1.00749 0.940608 1.02803 1.00385 0.986374 0.914663 0.836721 0.841099 0.868953 0.90899 0.956511 0.905709 0.864334 0.826144 0.855328 0.851909 0.849119 0.845866 0.845737 0.834416 0.794867 0.797443 0.792634 0.783929 0.799454 0.786163 0.760006 1.07463 1.23833 1.03069 0.325128 0.670492 0.545669 0.316531 0.575507 0.808584 0.662627 0.718104 0.544689 0.658743 0.84248 0.720728 0.697199 0.634039 0.642453 0.487885 0.620024 0.632488 0.813966 0.540091 0.874734 0.538637 0.622199 0.499773 0.568662 0.460994 0.546261 0.551942 0.983123 0.78284 0.671483 0.668244 0.676327 0.613175 0.587709 0.666003 0.619052 0.665392 0.668605 0.621106 0.68434 0.677195 0.771654 0.727222 0.59283 0.880517 0.922021 0.812465 0.795691 0.744941 0.714902 0.662349 0.80604 0.80535 0.845967 0.904312 0.875851 0.868939 0.927644 0.916398 0.921525 0.89901 0.891954 0.875479 0.84816 0.842209 0.783722 1.01707 0.972811 0.981975 0.999708 0.977854 0.971561 1.00645 1.00292 1.00204 0.986132 0.946086 1.03626 0.893832 1.005 0.974967 1.04469 0.987315 0.977035 1.00612 0.974727 0.982312 0.997946 0.975714 0.959508 0.986789 0.986967 0.934815 0.949778 0.907081 0.833158 1.00667 1.02988 1.01646 0.967516 0.970642 0.961149 1.01925 1.01509 0.921232 0.87243 0.807358 0.868972 0.899946 0.920083 0.929635 0.938486 0.940051 0.885533 0.853605 0.849328 0.83527 0.836315 0.845467 0.844935 0.833127 0.84613 0.844402 0.853781 0.806401 0.79711 0.784442 0.777225 0.714925 0.923053 0.800447 1.67798 1.11073 0.805518 0.716351 0.692953 0.740671 0.657707 0.656423 0.662103 0.665728 0.65005 0.627391 0.590331 0.610967 0.589759 0.561317 0.521367 0.464244 0.828029 0.815842 0.679319 0.64721 0.654709 0.670841 0.700282 0.640963 0.695299 0.682333 0.673103 0.606043 0.786364 0.743717 0.70711 0.850234 0.782625 0.707739 0.850405 0.706724 0.796952 0.837701 0.743557 0.661751 0.789984 0.843727 0.96523 0.877041 0.840172 0.966032 0.933617 0.871065 0.9246 0.894193 0.891819 0.871917 0.837861 0.827883 0.795054 1.02088 1.01055 0.984513 1.03043 0.992433 1.01018 0.991538 0.993745 0.983906 0.994229 1.02186 0.827131 0.961813 1.04671 0.957655 1.00709 1.04433 1.00502 0.98389 0.975747 1.03495 1.00378 0.986047 0.967924 1.01828 0.977716 0.986364 0.945984 0.952267 0.99767 0.990851 1.01328 0.974549 0.984552 1.00878 1.03434 0.973753 1.04289 0.919873 0.907116 0.904346 0.905913 0.918995 0.935284 0.933863 0.888691 0.865836 0.838475 0.816228 0.84445 0.848463 0.842563 0.860458 0.857102 0.821471 0.748985 0.828939 1.00073 1.10666 0.794599 0.264473 0.798598 1.21593 0.989514 0.954669 0.705315 0.798854 0.711704 0.638269 0.654681 0.681608 0.670283 0.588889 0.649683 0.645341 0.543751 0.628723 0.514524 0.76273 0.808634 0.64459 0.700186 0.689437 0.670659 0.69831 0.719289 0.646796 0.678655 0.723391 0.78991 0.76958 0.700931 0.708489 0.760794 0.753617 0.786 0.749554 0.820088 0.816665 0.689676 0.783403 0.756707 0.62511 0.78041 0.857448 0.896077 1.11482 0.966652 0.838995 0.803935 0.788783 0.991188 0.984745 0.851293 0.906633 0.895761 0.887026 0.877442 0.836921 0.829725 0.804728 1.01029 1.01785 0.99884 1.02279 0.944319 0.996945 1.00813 1.0028 0.885604 0.914385 0.992738 1.04995 0.968853 1.03462 1.05751 0.997675 1.03717 0.984028 1.05244 0.986593 0.99619 1.0092 0.975884 1.00172 1.01163 1.00602 0.987407 0.971014 1.0087 0.952266 0.954286 0.989787 0.934374 0.919324 0.891882 0.929199 0.928626 0.938857 0.879227 0.835304 0.79448 0.817658 0.861342 0.854594 0.829825 0.926884 0.990131 0.901222 0.781493 0.886011 1.06812 0.936021 0.771167 0.575824 0.982624 0.806697 0.776016 0.865613 0.871832 0.766915 0.885006 0.585977 0.666713 0.652732 0.713001 0.669331 0.684777 0.763837 0.683817 0.655972 0.551733 0.710413 0.64674 0.607351 0.723586 0.751995 0.752069 0.663442 0.7117 0.722337 0.699215 0.705093 0.7265 0.715093 0.753115 0.740245 0.703604 0.753502 0.761908 0.777098 0.773012 0.75401 0.75424 0.75969 0.81056 0.813057 0.807322 0.872749 0.682089 0.815536 0.941539 0.939036 0.930468 1.02419 0.746322 0.696964 0.963454 0.892441 0.848715 0.890297 0.908963 0.913492 0.897225 0.877114 0.8295 0.830883 0.821715 0.790904 1.086 1.02136 1.12083 0.870931 0.908461 1.00703 0.997817 0.992375 0.988059 1.02181 1.00224 0.957381 0.943089 1.01653 1.05123 1.06935 1.04816 1.00749 1.1084 1.0099 1.03412 1.0019 1.06934 1.00724 0.980281 0.99797 1.00903 1.00657 1.00274 0.988077 0.992864 0.997573 1.0367 1.04761 0.977767 0.946459 0.918447 0.928411 0.886397 0.924949 0.980556 0.90599 0.885961 0.956963 0.937927 0.871641 0.824937 0.820901 0.847347 0.876846 0.924189 0.864725 0.937457 0.841328 0.897993 0.953871 0.903696 0.860173 0.729618 0.643781 0.715608 0.606069 0.670083 0.893396 0.902512 0.967719 0.578224 0.686641 0.667015 0.629341 0.729425 0.740496 0.672332 0.618607 0.637163 0.792241 0.803992 0.636786 0.747355 0.678333 0.695069 0.692215 0.726168 0.719763 0.749541 0.732636 0.704546 0.747096 0.735152 0.741747 0.749261 0.739872 0.780959 0.757469 0.765448 0.744111 0.795786 0.777519 0.72687 0.818869 0.778348 0.811369 0.858577 0.850863 0.808392 0.732024 0.764712 0.936536 0.915011 0.937228 1.06704 0.770147 0.738549 0.867648 0.86791 0.882323 0.927316 0.899329 0.875726 0.846203 0.796672 1.077 1.08189 0.993503 1.0102 1.00754 0.999286 1.02772 1.02625 0.989486 0.95299 1.37375 1.17447 1.04699 1.09454 1.05554 1.00284 1.02517 0.916653 0.989557 1.11387 1.03949 1.09047 1.00104 0.991928 1.00578 1.00976 1.00116 1.01535 0.997448 1.02126 1.03273 1.01361 0.992288 0.917932 0.931192 0.948483 0.904269 0.871346 0.968714 0.943483 0.860755 0.779446 0.854886 0.880293 0.867151 0.941391 0.918933 0.941803 0.941442 0.808568 0.761403 0.717753 0.699743 0.796396 0.818729 0.868147 0.897856 0.981921 0.583139 0.737256 0.74889 0.728771 0.755458 0.660162 0.702161 0.73749 0.707126 0.741164 0.811282 0.634086 0.746157 0.724533 0.725897 0.729707 0.746852 0.742225 0.765811 0.781974 0.774972 0.751489 0.754559 0.777209 0.779675 0.780135 0.788183 0.796023 0.806304 0.825764 0.773498 0.845407 0.875449 0.76109 0.768549 0.961711 0.913704 0.917686 1.04491 0.849718 0.784843 0.955911 0.852565 0.921199 0.908208 0.943243 0.872707 0.820415 1.07613 1.04877 0.928039 0.943257 0.984578 1.00516 0.996714 1.05611 1.02743 1.04066 0.957802 0.995848 1.21899 1.03581 1.05717 1.08677 1.06162 1.00079 1.0342 1.1036 1.04847 1.09211 1.00535 1.00179 1.01106 1.01972 0.991976 1.02361 0.983236 0.99961 1.03507 1.01198 1.05465 1.11569 0.912583 0.936215 0.935339 0.883684 0.983838 0.969274 0.916799 0.819644 0.875698 0.845587 0.872902 0.901332 0.902029 0.943152 0.949061 0.938102 0.925981 0.89303 0.781327 0.766576 0.698304 0.65538 0.719924 0.774878 0.849949 0.916628 1.00948 0.685137 0.753887 0.758534 0.741653 0.744264 0.734751 0.73807 0.790515 0.775322 0.765979 0.625337 0.770664 0.743517 0.750912 0.74388 0.739021 0.745871 0.822278 0.771553 0.782576 0.786464 0.787376 0.783227 0.788248 0.791522 0.796814 0.794206 0.807649 0.81088 0.810052 0.946454 0.750489 0.815354 0.827493 0.97711 0.915404 0.892405 0.903826 0.977525 0.83444 0.77511 0.932673 0.833974 0.989865 0.959069 0.957056 1.03685 1.00368 0.915024 0.883008 0.841303 1.08161 1.05423 0.96459 0.969771 1.04059 0.992899 1.06345 1.04809 0.983085 0.959398 1.19076 1.03751 1.12424 1.07975 1.09635 1.02147 1.0534 1.05699 1.03148 1.06845 0.981876 1.00252 1.07048 1.04065 1.02556 0.977658 1.01172 0.985737 1.02173 0.99585 1.02537 1.0562 1.1343 0.923067 0.883377 0.88192 0.941424 0.945959 0.944787 0.884195 0.866181 0.936954 0.961674 0.964644 0.954007 0.894735 0.845829 0.85091 0.873821 0.785154 0.775561 0.718513 0.782244 0.791729 0.864725 0.942564 0.854265 0.753815 0.745927 0.735102 0.746941 0.775466 0.798209 0.791526 0.788623 0.777655 0.750231 0.743886 0.748076 0.75494 0.833261 0.8064 0.788172 0.78695 0.789137 0.797174 0.794742 0.79343 0.806596 0.798666 0.810827 0.811862 0.968329 0.869409 0.795729 0.801221 1.01002 0.910444 0.902243 0.874489 0.813108 0.835667 0.808175 0.944085 0.911837 0.845963 0.949071 0.973922 0.92355 0.860809 0.94741 0.890363 1.08076 1.03557 0.979102 0.965679 1.11645 1.11026 1.04069 1.08133 0.996997 0.960238 1.18214 1.02869 1.11751 1.08717 1.10275 1.02574 1.05868 1.06048 1.03999 1.21397 0.984372 0.988167 1.10118 1.06533 1.00924 1.03612 1.01075 1.04071 0.989454 1.02184 1.06368 1.06133 1.05839 1.10367 0.780945 0.857097 0.873034 0.939136 0.96704 0.919766 0.954854 0.933386 0.977891 0.888484 0.89793 0.908033 0.91281 0.96722 0.964565 0.93009 0.917359 0.888462 0.777548 0.775188 0.743372 0.789047 0.785878 0.834074 0.884543 0.960809 0.786713 0.759029 0.74302 0.763276 0.779655 0.792742 0.793922 0.780698 0.760186 0.748314 0.749845 0.75854 0.843566 1.13193 0.775095 0.818777 0.831374 0.796522 0.813413 0.804692 0.792511 0.803654 0.99587 0.764366 0.912632 0.787338 0.76466 1.05597 0.939164 0.968009 0.870266 0.827581 0.888026 0.922797 0.858839 1.017 0.953562 0.982871 0.940436 0.941705 0.885254 0.987379 0.930925 0.911961 0.93116 0.916168 0.880092 0.954396 0.906684 0.764864 0.792481 0.787616 0.86001 0.871179 0.95925 0.865379 0.796303 0.774365 0.755181 0.799259 0.780015 0.791231 0.817864 0.80148 0.766707 0.779823 0.853463 0.829485 
SCALARS Stress float 1
LOOKUP_TABLE default
-218197000000.0 -158269000000.0 -271242000000.0 -59967500000.0 -329857000000.0 -184182000000.0 -133670000000.0 -393001000000.0 -323179000000.0 -135707000000.0 -649870000000.0 -508894000000.0 -206935000000.0 -251637000000.0 -497091000000.0 -261527000000.0 -255662000000.0 -384306000000.0 -628185000000.0 -221821000000.0 -153896000000.0 -295612000000.0 -230467000000.0 -350988000000.0 -823946000000.0 -1.06551e+12 -333996000000.0 -924304000000.0 -515406000000.0 -1.26864e+12 -1.02268e+12 -1.23345e+12 -1.18974e+12 -677910000000.0 -820206000000.0 -337910000000.0 -788595000000.0 -1.07498e+12 -1.27885e+12 -1.04971e+12 -272376000000.0 -845146000000.0 -804119000000.0 -604261000000.0 -997867000000.0 -607632000000.0 -728172000000.0 -510173000000.0 -821562000000.0 -416725000000.0 -968251000000.0 -891077000000.0 -1.47194e+12 -765969000000.0 -1.71022e+12 -1.32626e+12 -1.46827e+12 -2.30104e+12 -1.77319e+12 -1.91103e+12 -686567000000.0 -1.18869e+12 -795347000000.0 -1.50625e+12 -1.05922e+12 -632754000000.0 -1.45655e+12 -1.69466e+12 -834982000000.0 -1.35216e+12 -1.82527e+12 -1.2154e+12 -1.79258e+12 -1.29945e+12 -1.47094e+12 -1.72727e+12 -1.79143e+12 -2.58825e+12 -2.66788e+12 -2.28134e+12 -418029000000.0 -1.68618e+12 -1.21969e+12 -942751000000.0 -2.30307e+12 -2.67015e+12 -2.65743e+12 -2.32569e+12 -998428000000.0 -2.24767e+12 -2.28352e+12 -1.14129e+12 -829153000000.0 -934923000000.0 -1.69594e+12 -2.05861e+12 -2.38087e+12 -883843000000.0 -1.75334e+12 -1.64006e+12 -3.72332e+12 -1.61863e+12 -2.19472e+12 -2.78141e+12 -2.57684e+12 -2.16858e+12 -851990000000.0 -1.55592e+12 -1.94473e+12 -2.54883e+12 -2.38549e+12 -2.111e+12 -1.37334e+12 -2.35788e+12 -4.79072e+12 -1.43185e+12 -4.00164e+12 -1.61358e+12 -674731000000.0 -1.6189e+12 -1.5296e+12 -1.87684e+12 -2.0559e+12 -921314000000.0 -850856000000.0 -1.43883e+12 -807178000000.0 -1.77831e+12 -3.87623e+12 -4.82889e+12 -2.58493e+12 -3.28029e+12 -2.33956e+12 -2.88837e+12 -973094000000.0 -1.87437e+12 -3.13635e+12 -3.15339e+12 -1.07265e+12 -1.13937e+12 -1.57099e+12 -3.47429e+12 -3.54723e+12 -1.8702e+12 -2.96408e+12 -2.56881e+12 -843672000000.0 -1.16049e+12 -911099000000.0 -1.74791e+12 -2.50848e+12 -2.33566e+12 -2.3729e+12 -1.13129e+12 -560310000000.0 -1.70071e+12 -3.20094e+12 -2.96102e+12 -3.61357e+12 -5.51609e+12 -1.9325e+12 -3.17108e+12 -3.90627e+12 -2.02853e+12 -4.58111e+12 -3.6016e+12 -3.57261e+12 -3.12761e+12 -2.31575e+12 -3.57015e+12 -3.99398e+12 -3.79916e+12 -3.62328e+12 -2.37888e+12 -4.72732e+12 -2.70248e+12 -3.08108e+12 -2.84754e+12 -3.19968e+12 -3.46427e+12 -1.88833e+12 -746416000000.0 -1.54644e+12 -1.50285e+12 -2.83002e+12 -2.2097e+12 -4.92169e+12 -2.08851e+12 -2.77632e+12 -4.79061e+12 -4.47783e+12 -2.77593e+12 -4.09891e+12 -4.88614e+12 -3.91114e+12 -3.55987e+12 -4.8462e+12 -1.08554e+12 -5.54696e+12 -3.59276e+12 -3.12435e+12 -4.65323e+12 -1.68156e+12 -4.14831e+12 -2.73007e+12 -2.64117e+12 -3.67741e+12 -3.44494e+12 -4.85141e+12 -2.87805e+12 -5.12812e+12 -2.30084e+12 -1.65257e+12 -3.00902e+12 -2.83047e+12 -5.80491e+12 -1.55203e+12 -4.57604e+12 -4.61151e+12 -5.95507e+12 -5.56807e+12 -4.4243e+12 -2.77121e+12 -4.70546e+12 -3.72749e+12 -3.33392e+12 -5.28688e+12 -7.10358e+12 -5.68732e+12 -5.75264e+12 -4.5675e+12 -3.76198e+12 -4.96394e+12 -3.92041e+12 -1.74064e+12 -4.20119e+12 -7.74719e+12 -3.52761e+12 -1.8999e+12 -3.44624e+12 -2.39436e+12 -2.11808e+12 -2.99785e+12 -1.94443e+12 -5.82346e+12 -7.32922e+12 -2.98425e+12 -3.93217e+12 -4.30929e+12 -3.49153e+12 -6.35502e+12 -4.06214e+12 -4.64437e+12 -3.46743e+12 -4.02252e+12 -4.58655e+12 -4.57267e+12 -4.78668e+12 -5.77207e+12 -5.08893e+12 -3.19806e+12 -6.39745e+12 -3.81152e+12 -6.20674e+12 -4.79419e+12 -2.51996e+12 -5.66903e+12 -3.76943e+12 -4.74578e+12 -3.92423e+12 -2.71327e+12 -4.94834e+12 -5.3337e+12 -6.72472e+12 -3.43125e+12 -6.15701e+12 -5.39046e+12 -6.28793e+12 -3.42052e+12 -2.27922e+12 -3.89109e+12 -3.48403e+12 -5.9228e+12 -6.60294e+12 -4.7064e+12 -4.21593e+12 -4.72197e+12 -4.23877e+12 -5.64483e+12 -5.57302e+12 -2.83309e+12 -7.0964e+12 -8.17415e+12 -4.15676e+12 -6.22801e+12 -3.95707e+12 -4.49972e+12 -4.37168e+12 -6.24446e+12 -7.10691e+12 -8.25303e+12 -3.63213e+12 -5.17316e+12 -5.27503e+12 -5.08149e+12 -7.00804e+12 -6.54093e+12 -4.68641e+12 -2.79437e+12 -3.12998e+12 -3.86622e+12 -7.55402e+12 -4.35085e+12 -5.79411e+12 -2.66091e+12 -4.41761e+12 -5.20662e+12 -5.19153e+12 -3.45187e+12 -3.44664e+12 -2.5388e+12 -5.67597e+12 -7.56682e+12 -7.63237e+12 -4.28897e+12 -5.87362e+12 -2.73118e+12 -5.00252e+12 -5.80537e+12 -3.62062e+12 -7.09386e+12 -7.41045e+12 -4.22101e+12 -3.82286e+12 -4.97099e+12 -4.87023e+12 -4.84354e+12 -6.66745e+12 -7.27932e+12 -6.3557e+12 -3.70309e+12 -5.05808e+12 -5.61193e+12 -2.5519e+12 -4.69725e+12 -4.31392e+12 -5.47336e+12 -4.63906e+12 -2.25123e+12 -5.50039e+12 -7.74889e+12 -5.52578e+12 -4.65682e+12 -6.91742e+12 -5.48745e+12 -12549700000.0 -2.5433e+12 -1.5695e+12 -3.64682e+12 -2.77053e+12 -6.45582e+12 -4.47486e+12 -5.79432e+12 -5.06115e+12 -5.37977e+12 -5.06113e+12 -5.38555e+12 -5.01957e+12 -6.85517e+12 -6.7816e+12 -3.66851e+12 -5.83128e+12 -2.37855e+12 -3.93715e+12 -4.34068e+12 -3.69113e+12 -4.12165e+12 -5.85844e+12 -3.59969e+12 -2.67147e+12 -3.70362e+12 -4.43153e+12 -5.43825e+12 -6.50469e+12 -2.88378e+12 -5.33666e+12 -6.00439e+12 -4.84357e+12 -3.4855e+12 -6.31002e+12 -5.94784e+12 -7.30918e+12 -4.84973e+12 -5.53553e+12 -6.76137e+12 -5.91386e+12 -6.05419e+12 -5.38779e+12 -4.96434e+12 -5.08716e+12 -6.08569e+12 -7.03188e+12 -4.67028e+12 -4.21784e+12 -5.31471e+12 -5.22711e+12 -4.8645e+12 -5.65504e+12 -5.23426e+12 -5.10664e+12 -3.61499e+12 -4.16954e+12 -3.22691e+12 -3.86041e+12 -3.60879e+12 -5.10785e+12 -5.92297e+12 -4.80545e+12 -6.08992e+12 -5.75747e+12 -5.77328e+12 -7.30614e+12 -8.41755e+12 -5.93673e+12 -4.22674e+12 -2.17394e+12 -6.12236e+12 -7.10954e+12 -6.53718e+12 -3.97801e+12 -3.97098e+12 -3.68801e+12 -8.15226e+12 -3.3041e+12 -4.90601e+12 -4.83993e+12 -5.31709e+12 -4.85127e+12 -5.31588e+12 -6.42017e+12 -4.60996e+12 -3.94443e+12 -8.13937e+12 -3.49234e+12 -5.56717e+12 -4.35398e+12 -4.00972e+12 -6.56154e+12 -2.97792e+12 -4.12413e+12 -5.21344e+12 -6.25984e+12 -3.12609e+12 -5.25789e+12 -2.82051e+12 -3.46436e+12 -4.66184e+12 -3.97849e+12 -7.57406e+12 -7.33045e+12 -7.55557e+12 -4.28613e+12 -4.07438e+12 -6.93242e+12 -5.20068e+12 -6.76143e+12 -6.02076e+12 -7.2697e+12 -3.72277e+12 -4.8418e+12 -3.94036e+12 -5.13994e+12 -5.23488e+12 -5.28514e+12 -7.2245e+12 -3.79208e+12 -2.82681e+12 -4.58079e+12 -3.75536e+12 -5.87101e+12 -4.87998e+12 -4.10019e+12 -7.10852e+12 -8.3579e+12 -8.46883e+12 -7.7791e+12 -3.68415e+12 -8.51616e+12 -8.08209e+12 -4.3064e+12 -9.04522e+12 -8.61438e+12 -8.10896e+12 -4.70284e+12 -5.94279e+12 -7.15059e+12 -5.0722e+12 -7.4642e+12 -5.89592e+12 -5.33271e+12 -5.20608e+12 -5.01515e+12 -3.81471e+12 -5.47171e+12 -4.83051e+12 -7.89376e+12 -4.22938e+12 -8.85493e+12 -5.96679e+12 -6.39522e+12 -4.31491e+12 -5.55192e+12 -7.11074e+12 -3.69934e+12 -5.71062e+12 -5.46445e+12 -6.42317e+12 -2.97806e+12 -5.97337e+12 -7.10079e+12 -5.10158e+12 -8.84128e+12 -7.05863e+12 -9.73431e+12 -4.82897e+12 -4.90653e+12 -5.32317e+12 -7.68064e+12 -8.33841e+12 -6.13583e+12 -3.81977e+12 -4.87927e+12 -4.98742e+12 -5.10001e+12 -8.0448e+12 -7.96134e+12 -4.15258e+12 -1.19707e+13 -5.95674e+12 -1.08594e+13 -7.22517e+12 -7.8368e+12 -6.67516e+12 -4.92603e+12 -6.87667e+12 -5.67462e+12 -3.64951e+12 -6.77039e+12 -6.46783e+12 -6.79152e+12 -5.07366e+12 -6.01549e+12 -7.97905e+12 -5.28293e+12 -1.05159e+13 -6.36953e+12 -6.02511e+12 -4.00779e+12 -6.0856e+12 -2.68415e+12 -3.06718e+12 -9.63855e+12 -5.19944e+12 -4.00667e+12 -6.47249e+12 -5.37677e+12 -6.2275e+12 -4.84596e+12 -6.57859e+12 -6.58852e+12 -2.78426e+12 -1.14294e+13 -4.22567e+12 -4.64618e+12 -5.62348e+12 -7.54717e+12 -8.29783e+12 -8.35444e+12 -4.97366e+12 -7.87539e+12 -1.07295e+13 -6.7167e+12 -9.60968e+12 -7.9743e+12 -9.06815e+12 -1.3292e+13 -4.73907e+12 -7.07773e+12 -3.98641e+12 -5.98993e+12 -4.8048e+12 -6.28771e+12 -6.72251e+12 -7.90722e+12 -7.95586e+12 -4.62846e+12 -3.94682e+12 -3.80978e+12 -8.45125e+12 -6.04213e+12 -4.10761e+12 -6.22333e+12 -4.68529e+12 -8.27266e+12 -7.53434e+12 -1.01848e+13 -5.87341e+12 -5.85357e+12 -3.57516e+12 -4.06685e+12 -4.18045e+12 -7.62231e+12 -8.90251e+12 -1.13597e+13 -5.61355e+12 -5.88813e+12 -4.54869e+12 -3.68058e+12 -1.24659e+13 -8.40044e+12 -6.1001e+12 -7.35736e+12 -5.13451e+12 -7.94006e+12 -5.4359e+12 -4.12002e+12 -4.41127e+12 -7.71253e+12 -4.99069e+12 -4.60744e+12 -3.5556e+12 -5.27525e+12 -7.8045e+12 -8.49775e+12 -5.20422e+12 -1.10308e+13 -7.52411e+12 -5.50422e+12 -7.16623e+12 -7.44719e+12 -1.00087e+13 -3.06394e+12 -8.86536e+12 -4.67976e+12 -6.0909e+12 -6.87345e+12 -1.31157e+13 -1.06004e+13 -5.09209e+12 -7.55221e+12 -1.72257e+13 -8.32439e+12 -1.13859e+13 -4.18536e+12 -6.94305e+12 -1.08838e+13 -5.84161e+12 -5.67801e+12 -7.74828e+12 -7.65739e+12 -6.09671e+12 -5.75381e+12 -3.99722e+12 -4.27923e+12 -7.20461e+12 -7.41703e+12 -5.05253e+12 -6.8704e+12 -7.59529e+12 -5.91408e+12 -7.20713e+12 -7.81572e+12 -5.04147e+12 -1.12777e+13 -5.66902e+12 -1.02934e+13 -6.85656e+12 -7.53448e+12 -8.81717e+12 -5.80542e+12 -7.00243e+12 -4.80262e+12 -7.96181e+12 -8.81562e+12 -6.79136e+12 -7.16392e+12 -6.80282e+12 -6.75427e+12 -5.43148e+12 -4.79119e+12 -6.49277e+12 -4.83109e+12 -7.38427e+12 -6.13571e+12 -6.1544e+12 -7.00693e+12 -6.09587e+12 -6.01665e+12 -8.4137e+12 -5.04019e+12 -7.80748e+12 -5.51703e+12 -8.0193e+12 -2.07026e+12 -1.08475e+13 -6.49625e+12 -8.93263e+12 -5.9422e+12 -1.21366e+13 -5.44482e+12 -8.21853e+12 -1.00349e+13 -6.25681e+12 -1.05874e+13 -1.0631e+13 -5.09797e+12 -6.89071e+12 -6.84181e+12 -8.01489e+12 -5.92818e+12 -4.90211e+12 -4.65664e+12 -7.58662e+12 -6.00951e+12 -4.97998e+12 -4.09695e+12 -6.107e+12 -7.09625e+12 -3.68056e+12 -8.15228e+12 -6.21966e+12 -7.18105e+12 -1.06447e+13 -5.45086e+12 -7.80549e+12 -7.81177e+12 -3.5316e+12 -5.72573e+12 -8.40257e+12 -6.30576e+12 -5.10955e+12 -4.95571e+12 -8.55233e+12 -1.1391e+13 -9.22355e+12 -1.27782e+13 -5.41696e+12 -6.92683e+12 -5.51959e+12 -4.59643e+12 -3.82615e+12 -4.31339e+12 -4.37379e+12 -6.49037e+12 -9.10899e+12 -6.70804e+12 -6.75767e+12 -4.69689e+12 -4.98179e+12 -2.18098e+12 -7.08393e+12 -5.42304e+12 -4.61343e+12 -6.58267e+12 -2.94347e+12 -6.40629e+12 -5.58444e+12 -4.53704e+12 -2.50044e+12 -7.34246e+12 -5.89878e+12 -4.0568e+12 -4.96478e+12 -6.56353e+12 -6.15978e+12 -4.80453e+12 -6.6621e+12 -7.38885e+12 -7.545e+12 -7.99156e+12 -5.65382e+12 -3.63403e+12 -6.9489e+12 -4.50536e+12 -3.91509e+12 -4.34181e+12 -7.12197e+12 -5.67815e+12 -5.93167e+12 -6.36594e+12 -6.12106e+12 -2.8674e+12 -6.88806e+12 -7.64508e+12 -9.95049e+12 -6.28518e+12 -1.1163e+13 -7.02566e+12 -7.31636e+12 -9.17003e+12 -4.88798e+12 -5.56074e+12 -7.44974e+12 -5.07092e+12 -6.49729e+12 -9.85964e+12 -8.10314e+12 -4.51362e+12 -1.34011e+13 -8.67085e+12 -1.13774e+13 -1.01195e+13 -7.20385e+12 -5.25695e+12 -5.26052e+12 -9.13251e+12 -7.09029e+12 -5.64181e+12 -4.22208e+12 -4.86029e+12 -3.83277e+12 -5.53722e+12 -7.67595e+12 -3.45305e+12 -3.89133e+12 -3.58553e+12 -5.03053e+12 -5.89075e+12 -7.73886e+12 -9.03265e+12 -8.18098e+12 -8.70581e+12 -6.56489e+12 -1.14003e+13 -5.03052e+12 -7.12274e+12 -8.06493e+12 -8.33089e+12 -4.65835e+12 -1.23943e+13 -8.15565e+12 -4.59512e+12 -7.6312e+12 -1.05635e+13 -6.2721e+12 -9.87836e+12 -5.78645e+12 -4.72259e+12 -5.99098e+12 -9.78691e+12 -9.72046e+12 -6.58694e+12 -9.0362e+12 -6.45809e+12 -3.56318e+12 -4.83938e+12 -5.92337e+12 -3.58794e+12 -4.44123e+12 -6.59403e+12 -4.03149e+12 -5.43736e+12 -5.69746e+12 -7.66007e+12 -3.84594e+12 -8.85202e+12 -3.79646e+12 -4.82177e+12 -4.35351e+12 -8.26185e+12 -2.45267e+12 -2.57792e+12 -8.15331e+12 -4.4597e+12 -4.98015e+12 -3.79443e+12 -8.39752e+12 -3.92242e+12 -3.75077e+12 -6.02347e+12 -9.10781e+12 -7.11224e+12 -7.02396e+12 -4.55183e+12 -5.56104e+12 -6.39653e+12 -7.81932e+12 -6.98469e+12 -9.32495e+12 -7.63905e+12 -5.29359e+12 -5.15857e+12 -1.04114e+13 -8.41551e+12 -1.03504e+13 -5.42663e+12 -8.03074e+12 -1.24857e+13 -1.07284e+13 -5.72693e+12 -6.20223e+12 -1.10095e+13 -6.36735e+12 -1.07504e+13 -6.38905e+12 -9.2805e+12 -5.79592e+12 -4.69369e+12 -6.85711e+12 -6.36529e+12 -8.68552e+12 -4.47692e+12 -2.79964e+12 -7.72357e+12 -1.40066e+13 -5.4644e+12 -1.0437e+13 -7.75134e+12 -7.44085e+12 -7.93213e+12 -5.72983e+12 -7.98488e+12 -7.92291e+12 -4.48673e+12 -7.33361e+12 -7.38462e+12 -5.07363e+12 -7.93284e+12 -7.43179e+12 -7.37203e+12 -7.5492e+12 -5.86372e+12 -5.87625e+12 -6.76887e+12 -8.20708e+12 -7.07791e+12 -8.99118e+12 -7.35525e+12 -6.56142e+12 -5.6662e+12 -6.14291e+12 -4.88447e+12 -7.64996e+12 -8.90976e+12 -1.09911e+13 -4.54797e+12 -6.26023e+12 -7.44706e+12 -8.69468e+12 -7.1171e+12 -5.38286e+12 -9.16222e+12 -5.51937e+12 -7.10538e+12 -7.90476e+12 -6.36637e+12 -8.47569e+12 -7.52904e+12 -4.40555e+12 -5.11765e+12 -6.74163e+12 -9.83047e+12 -5.08262e+12 -5.32372e+12 -5.48504e+12 -6.99362e+12 -8.84802e+12 -7.4936e+12 -1.00229e+13 -5.5976e+12 -7.00811e+12 -6.23348e+12 -7.90062e+12 -8.32865e+12 -6.18215e+12 -4.09643e+12 -9.10461e+12 -5.28832e+12 -7.6735e+12 -7.15752e+12 -5.26495e+12 -6.44314e+12 -5.84662e+12 -5.62707e+12 -6.74036e+12 -7.4691e+12 -6.06464e+12 -3.10008e+12 -5.83833e+12 -2.41619e+12 -7.2762e+12 -6.19451e+12 -1.0434e+13 -1.10421e+13 -7.01895e+12 -8.80217e+12 -8.56965e+12 -7.68238e+12 -3.70052e+12 -8.2213e+12 -3.32547e+12 -4.29178e+12 -7.14019e+12 -1.03705e+13 -5.4376e+12 -1.19171e+13 -6.17991e+12 -7.05851e+12 -9.76497e+12 -1.26014e+13 -1.28018e+13 -1.00714e+13 -9.2119e+12 -1.13375e+13 -5.19906e+12 -4.47046e+12 -7.79709e+12 -9.55811e+12 -5.92894e+12 -9.53079e+12 -7.87936e+12 -6.96272e+12 -7.11824e+12 -6.14209e+12 -5.44656e+12 -5.75096e+12 -9.94854e+12 -5.8281e+12 -7.91292e+12 -7.55527e+12 -1.35217e+13 -9.2657e+12 -5.25993e+12 -4.07893e+12 -8.9336e+12 -7.74818e+12 -4.6598e+12 -2.67912e+12 -5.75315e+12 -3.56692e+12 -5.34229e+12 -3.02316e+12 -6.73252e+12 -6.5686e+12 -5.16952e+12 -6.16548e+12 -4.73176e+12 -4.16925e+12 -5.49585e+12 -6.50332e+12 -4.56701e+12 -6.73488e+12 -9.54937e+12 -6.76948e+12 -4.59255e+12 -8.51985e+12 -9.40527e+12 -5.36607e+12 -6.12975e+12 -6.11526e+12 -5.06919e+12 -1.01749e+13 -5.01255e+12 -4.61892e+12 -7.64068e+12 -6.31739e+12 -5.51725e+12 -6.51377e+12 -2.7629e+12 -4.52177e+12 -1.15541e+13 -6.29282e+12 -6.32221e+12 -5.92141e+12 -7.91882e+12 -5.42063e+12 -8.1938e+12 -6.87026e+12 -6.42489e+12 -7.99317e+12 -9.53588e+12 -6.46284e+12 -9.79119e+12 -4.96831e+12 -6.8465e+12 -7.66204e+12 -6.43474e+12 -8.55166e+12 -1.48148e+13 -7.97113e+12 -6.88429e+12 -1.36403e+13 -8.68504e+12 -9.61414e+12 -7.2697e+12 -1.02778e+13 -7.33005e+12 -3.74408e+12 -2.75025e+12 -4.32905e+12 -5.96082e+12 -7.92649e+12 -1.21305e+13 -1.35991e+13 -4.01213e+12 -1.00921e+13 -9.86731e+12 -1.06277e+13 -8.57732e+12 -4.45251e+12 -5.88976e+12 -5.48613e+12 -8.84433e+12 -6.47834e+12 -9.51146e+12 -5.76342e+12 -8.74685e+12 -6.05558e+12 -8.21419e+12 -1.2092e+13 -7.0725e+12 -7.40876e+12 -7.55059e+12 -7.42211e+12 -9.17356e+12 -8.34597e+12 -4.63922e+12 -9.69181e+12 -5.45422e+12 -7.88308e+12 -5.75446e+12 -7.83934e+12 -1.33063e+13 -8.98717e+12 -9.84012e+12 -5.41479e+12 -6.95144e+12 -3.8979e+12 -5.75238e+12 -7.53655e+12 -5.71594e+12 -6.84493e+12 -3.78111e+12 -3.79103e+12 -2.38808e+12 -7.86293e+12 -5.01255e+12 -1.53661e+12 -5.13976e+12 -6.40148e+12 -9.05754e+12 -6.13124e+12 -5.87847e+12 -8.15498e+12 -7.45925e+12 -8.14606e+12 -5.56131e+12 -7.98148e+12 -4.24483e+12 -4.00919e+12 -6.7664e+12 -8.80047e+12 -6.24882e+12 -6.97473e+12 -6.5542e+12 -5.03831e+12 -6.04244e+12 -8.35393e+12 -5.01991e+12 -4.64588e+12 -5.04818e+12 -4.53556e+12 -9.78949e+12 -9.37768e+12 -9.57508e+12 -6.79471e+12 -5.88962e+12 -9.42663e+12 -5.19874e+12 -7.92335e+12 -6.50437e+12 -6.71124e+12 -9.21453e+12 -1.29052e+13 -8.19036e+12 -5.36979e+12 -1.12651e+13 -8.63601e+12 -8.81787e+12 -1.14804e+13 -7.08743e+12 -8.80922e+12 -7.85016e+12 -1.25971e+13 -9.99427e+12 -7.90921e+12 -9.71723e+12 -6.56196e+12 -2.84222e+12 -3.69273e+12 -5.74577e+12 -9.12418e+12 -5.32007e+12 -6.62088e+12 -6.53054e+12 -9.79285e+12 -8.59557e+12 -8.48912e+12 -6.0355e+12 -6.53852e+12 -6.16872e+12 -6.38592e+12 -9.05399e+12 -1.09559e+13 -1.07993e+13 -5.38926e+12 -5.95962e+12 -1.21063e+13 -8.35683e+12 -8.47726e+12 -8.83225e+12 -7.61843e+12 -5.55764e+12 -6.02336e+12 -7.4206e+12 -6.90545e+12 -5.67242e+12 -4.5673e+12 -6.35825e+12 -5.25125e+12 -6.60619e+12 -5.45451e+12 -8.799e+12 -6.82101e+12 -6.07985e+12 -6.54869e+12 -4.19386e+12 -3.30241e+12 -6.47968e+12 -3.35117e+12 -3.76416e+12 -5.28811e+12 -5.90925e+12 -6.72219e+12 -8.1836e+12 -6.33185e+12 -6.60383e+12 -6.65804e+12 -5.51562e+12 -4.85551e+12 -5.81044e+12 -6.01386e+12 -4.40587e+12 -8.01568e+12 -3.28826e+12 -1.04603e+13 -5.97077e+12 -4.38741e+12 -4.84067e+12 -7.28098e+12 -6.83285e+12 -7.40259e+12 -6.30229e+12 -6.12836e+12 -2.58211e+12 -4.94991e+12 -4.44676e+12 -5.55172e+12 -9.89674e+12 -5.01759e+12 -2.82735e+12 -6.63487e+12 -7.1395e+12 -6.94578e+12 -7.0041e+12 -5.62446e+12 -6.48753e+12 -5.42619e+12 -5.05959e+12 -6.38979e+12 -5.33016e+12 -7.29437e+12 -1.03379e+13 -5.45807e+12 -5.8353e+12 -6.63862e+12 -5.45302e+12 -4.31546e+12 -1.17599e+13 -9.84651e+12 -8.03567e+12 -5.12326e+12 -9.22308e+12 -9.33901e+12 -9.47634e+12 -7.16219e+12 -7.42453e+12 -9.85574e+12 -7.14463e+12 -9.07664e+12 -7.93427e+12 -1.20807e+13 -9.40724e+12 -6.42391e+12 -7.3574e+12 -8.83987e+12 -3.80646e+12 -8.74511e+12 -5.34877e+12 -8.5719e+12 -4.26464e+12 -5.43635e+12 -7.02939e+12 -8.18205e+12 -5.45632e+12 -9.46597e+12 -6.08211e+12 -4.85029e+12 -6.88052e+12 -7.60363e+12 -5.97538e+12 -9.56244e+12 -8.25174e+12 -1.2666e+13 -1.03753e+13 -6.27996e+12 -5.61448e+12 -5.10211e+12 -9.17813e+12 -8.26828e+12 -9.52843e+12 -8.28071e+12 -5.38701e+12 -6.2008e+12 -7.35101e+12 -5.75575e+12 -7.0056e+12 -3.18644e+12 -6.45713e+12 -7.96331e+12 -9.57217e+12 -4.73949e+12 -4.67124e+12 -5.55486e+12 -5.79778e+12 -7.67503e+12 -4.88826e+12 -6.534e+12 -8.76738e+12 -9.1081e+12 -5.78889e+12 -6.33421e+12 -4.94765e+12 -5.90215e+12 -9.44018e+12 -3.50126e+12 -5.16608e+12 -5.70873e+12 -6.66084e+12 -7.23758e+12 -5.0364e+12 -6.3421e+12 -3.98729e+12 -6.12557e+12 -3.78348e+12 -4.5826e+12 -4.15828e+12 -4.34649e+12 -7.55512e+12 -7.31758e+12 -7.73231e+12 -7.50867e+12 -7.44803e+12 -2.95002e+12 -3.80094e+12 -5.60327e+12 -4.85327e+12 -8.92116e+12 -5.15809e+12 -9.3739e+12 -8.71725e+12 -5.69391e+12 -5.55181e+12 -7.72611e+12 -9.48813e+12 -5.26839e+12 -4.88748e+12 -7.52138e+12 -6.04012e+12 -5.48491e+12 -9.53133e+12 -8.88339e+12 -7.78667e+12 -8.92975e+12 -9.39823e+12 -7.61601e+12 -1.13858e+13 -1.15455e+13 -7.0784e+12 -1.07208e+13 -4.88587e+12 -7.99653e+12 -5.4924e+12 -1.15737e+13 -5.48923e+12 -8.88525e+12 -5.59481e+12 -5.29236e+12 -6.27114e+12 -1.3926e+13 -6.03984e+12 -5.44525e+12 -3.26425e+12 -4.69713e+12 -7.65567e+12 -6.61498e+12 -1.01143e+13 -1.04514e+13 -9.86719e+12 -9.12784e+12 -7.55855e+12 -9.71431e+12 -1.25279e+13 -6.98053e+12 -5.85767e+12 -5.63783e+12 -7.46854e+12 -7.64967e+12 -9.31539e+12 -2.24231e+12 -6.79823e+12 -8.3783e+12 -8.29729e+12 -7.15763e+12 -6.44513e+12 -8.62051e+12 -1.00366e+13 -8.4762e+12 -1.0377e+13 -6.99545e+12 -8.05061e+12 -8.71265e+12 -7.93213e+12 -7.88067e+12 -7.51724e+12 -5.00868e+12 -4.08097e+12 -9.58434e+12 -7.01828e+12 -5.74529e+12 -5.69594e+12 -6.77785e+12 -5.04946e+12 -3.45241e+12 -6.43193e+12 -5.87697e+12 -4.12756e+12 -6.94048e+12 -4.81284e+12 -2.18358e+12 -3.43914e+12 -8.06129e+12 -6.13689e+12 -4.00383e+12 -5.63558e+12 -6.67977e+12 -4.47788e+12 -5.88576e+12 -3.95951e+12 -6.78209e+12 -3.13792e+12 -6.39477e+12 -4.67911e+12 -4.99859e+12 -8.42972e+12 -3.45952e+12 -1.24519e+13 -3.65723e+12 -7.11925e+12 -4.50461e+12 -4.84763e+12 -6.92961e+12 -6.21618e+12 -9.04669e+12 -7.27151e+12 -4.59928e+12 -6.53194e+12 -4.46883e+12 -6.45103e+12 -6.47648e+12 -8.15978e+12 -7.4154e+12 -8.19441e+12 -3.57835e+12 -5.50142e+12 -5.18069e+12 -9.70389e+12 -6.7827e+12 -7.18721e+12 -7.395e+12 -8.53224e+12 -4.17249e+12 -7.91062e+12 -9.09722e+12 -2.4483e+12 -8.18653e+12 -5.88223e+12 -7.72061e+12 -4.91006e+12 -6.36516e+12 -9.04844e+12 -8.78713e+12 -4.90383e+12 -8.34898e+12 -3.46488e+12 -1.483e+13 -7.00933e+12 -7.73346e+12 -8.00399e+12 -1.01062e+13 -9.86915e+12 -8.819e+12 -1.14022e+13 -3.81667e+12 -6.09663e+12 -9.0334e+12 -7.08359e+12 -1.05546e+13 -8.50489e+12 -7.6882e+12 -9.09418e+12 -1.0376e+13 -5.41518e+12 -4.96362e+12 -6.39493e+12 -6.42875e+12 -8.98313e+12 -1.12526e+13 -9.9608e+12 -1.19245e+13 -5.02808e+12 -7.60023e+12 -1.19666e+13 -6.199e+12 -4.36941e+12 -8.5903e+12 -9.42142e+12 -6.50091e+12 -5.33124e+12 -1.19737e+13 -5.01612e+12 -4.98133e+12 -4.11313e+12 -3.73341e+12 -8.6994e+12 -5.43084e+12 -3.79396e+12 -4.97335e+12 -9.14701e+12 -8.52049e+12 -5.64167e+12 -2.64109e+12 -4.50924e+12 -4.3173e+12 -5.96341e+12 -5.57707e+12 -4.51413e+12 -7.79606e+12 -6.08591e+12 -2.90597e+12 -2.46946e+12 -7.0836e+12 -8.21108e+12 -6.10521e+12 -4.90074e+12 -8.89825e+12 -4.23655e+12 -6.54067e+12 -5.04111e+12 -3.67986e+12 -5.71754e+12 -6.55242e+12 -9.41679e+12 -5.35256e+12 -6.1009e+12 -4.50418e+12 -3.23293e+12 -2.61847e+12 -4.18167e+12 -5.61728e+12 -8.08898e+12 -5.66773e+12 -3.53367e+12 -6.20582e+12 -4.37968e+12 -6.74404e+12 -5.53696e+12 -3.88455e+12 -7.54378e+12 -3.06295e+12 -5.03254e+12 -5.79976e+12 -5.73537e+12 -8.8229e+12 -3.88374e+12 -6.7379e+12 -6.96303e+12 -3.90696e+12 -6.4517e+12 -4.9648e+12 -4.25686e+12 -6.37069e+12 -4.82553e+12 -5.04574e+12 -3.02482e+12 -5.50637e+12 -8.50196e+12 -5.77732e+12 -5.86655e+12 -3.54063e+12 -6.07495e+12 -4.87605e+12 -6.53641e+12 -8.20367e+12 -4.02093e+12 -6.73746e+12 -4.99393e+12 -6.77134e+12 -6.42894e+12 -3.73715e+12 -7.29368e+12 -6.95006e+12 -4.44164e+12 -5.92713e+12 -5.09607e+12 -5.93392e+12 -7.33059e+12 -3.57824e+12 -4.10989e+12 -8.2286e+12 -7.61727e+12 -7.75919e+12 -6.94067e+12 -2.7064e+12 -5.33403e+12 -6.44243e+12 -7.44653e+12 -3.61112e+12 -5.58458e+12 -6.47337e+12 -3.25889e+12 -5.69824e+12 -4.06605e+12 -6.94319e+12 -8.29476e+12 -7.16236e+12 -7.77913e+12 -8.05228e+12 -8.31554e+12 -9.06945e+12 -4.20186e+12 -7.13679e+12 -8.65864e+12 -8.13334e+12 -6.2787e+12 -9.70144e+12 -5.81262e+12 -8.67122e+12 -7.51159e+12 -8.34805e+12 -8.36057e+12 -6.18072e+12 -5.29213e+12 -7.43887e+12 -7.76467e+12 -4.262e+12 -7.99224e+12 -5.52046e+12 -6.34236e+12 -6.35658e+12 -1.02812e+13 -6.64506e+12 -5.39269e+12 -4.01009e+12 -8.07634e+12 -5.81805e+12 -5.32067e+12 -7.57849e+12 -6.64326e+12 -4.40805e+12 -1.03537e+13 -1.04862e+13 -1.02663e+13 -5.92782e+12 -5.58847e+12 -8.01831e+12 -5.00255e+12 -6.66662e+12 -4.76863e+12 -5.2119e+12 -6.99079e+12 -1.12578e+13 -4.84142e+12 -7.19801e+12 -6.22625e+12 -6.99865e+12 -6.13887e+12 -4.2874e+12 -4.6503e+12 -3.41935e+12 -6.38883e+12 -2.96862e+12 -7.44128e+12 -5.73844e+12 -3.18159e+12 -4.26023e+12 -5.30272e+12 -7.56466e+12 -4.03746e+12 -4.81864e+12 -4.198e+12 -7.55645e+12 -6.37598e+12 -4.04862e+12 -3.30565e+12 -5.3392e+12 -6.29472e+12 -9.36544e+12 -3.88126e+12 -4.5376e+12 -6.89824e+12 -5.97095e+12 -6.67663e+12 -2.75709e+12 -1.9276e+12 -5.56122e+12 -5.403e+12 -5.36101e+12 -8.45984e+12 -1.05969e+13 -4.92442e+12 -4.78731e+12 -7.82154e+12 -7.17268e+12 -4.02363e+12 -4.78032e+12 -6.93904e+12 -6.58029e+12 -4.46258e+12 -6.86825e+12 -5.09147e+12 -3.11762e+12 -4.516e+12 -5.70806e+12 -1.74923e+12 -6.0118e+12 -2.19058e+12 -9.9581e+12 -8.29246e+12 -2.94012e+12 -9.28815e+12 -7.61836e+12 -4.52098e+12 -6.39307e+12 -6.61582e+12 -7.65909e+12 -1.15304e+13 -1.1625e+13 -9.52281e+12 -6.20941e+12 -5.22717e+12 -1.09229e+13 -9.97485e+12 -6.74574e+12 -8.42038e+12 -7.45441e+12 -6.81506e+12 -7.80318e+12 -6.77665e+12 -7.51946e+12 -5.01449e+12 -8.32323e+12 -6.34855e+12 -4.85795e+12 -5.24679e+12 -4.66713e+12 -7.94619e+12 -7.19564e+12 -4.65001e+12 -2.73266e+12 -7.62832e+12 -7.77051e+12 -6.52285e+12 -9.90466e+12 -1.19067e+13 -9.10565e+12 -3.14604e+12 -6.07535e+12 -7.00484e+12 -9.87128e+12 -5.14912e+12 -8.16373e+12 -6.6548e+12 -6.74621e+12 -7.21601e+12 -7.14493e+12 -7.32224e+12 -6.4281e+12 -6.91239e+12 -9.01793e+12 -6.09728e+12 -5.3603e+12 -8.26525e+12 -7.41129e+12 -6.6956e+12 -4.10293e+12 -4.82506e+12 -4.18837e+12 -5.96837e+12 -5.60442e+12 -5.44052e+12 -3.93342e+12 -6.30543e+12 -5.93376e+12 -3.40645e+12 -4.81873e+12 -5.37672e+12 -4.57647e+12 -6.03683e+12 -9.66743e+12 -3.42445e+12 -5.46116e+12 -4.55339e+12 -7.82541e+12 -7.20543e+12 -5.16191e+12 -6.3601e+12 -4.34223e+12 -8.57175e+12 -7.0254e+12 -7.67965e+12 -7.83235e+12 -5.43899e+12 -5.42353e+12 -5.98866e+12 -5.90853e+12 -2.58358e+12 -6.09729e+12 -6.13093e+12 -5.85455e+12 -4.67051e+12 -4.57465e+12 -6.92078e+12 -8.03225e+12 -5.7277e+12 -4.32242e+12 -8.81632e+12 -7.28108e+12 -3.82591e+12 -7.40345e+12 -7.72924e+12 -3.75924e+12 -6.40052e+12 -4.69233e+12 -3.47406e+12 -2.1849e+12 -5.34553e+12 -4.16108e+12 -5.11392e+12 -4.43303e+12 -4.41262e+12 -3.5954e+12 -3.19915e+12 -4.20548e+12 -6.56499e+12 -8.43364e+12 -5.04622e+12 -5.18539e+12 -6.97815e+12 -5.45087e+12 -6.93282e+12 -6.12915e+12 -1.00758e+13 -6.61276e+12 -6.49658e+12 -9.99135e+12 -7.67692e+12 -5.54659e+12 -8.01312e+12 -4.12215e+12 -9.71311e+12 -9.77688e+12 -7.14139e+12 -7.37679e+12 -7.77234e+12 -1.00807e+13 -1.00514e+13 -8.59558e+12 -8.69889e+12 -1.0023e+13 -7.35201e+12 -6.10137e+12 -6.24952e+12 -7.01532e+12 -7.28695e+12 -6.33928e+12 -8.55587e+12 -7.855e+12 -1.05723e+13 -4.70023e+12 -3.44084e+12 -2.72246e+12 -5.32848e+12 -3.66133e+12 -6.2895e+12 -7.98207e+12 -6.66412e+12 -9.84644e+12 -4.421e+12 -8.03488e+12 -6.49268e+12 -5.70212e+12 -8.03872e+12 -8.02297e+12 -5.34665e+12 -7.63359e+12 -9.61211e+12 -1.21703e+13 -5.8042e+12 -4.03894e+12 -7.08222e+12 -4.68135e+12 -4.85452e+12 -5.73984e+12 -4.24881e+12 -1.05802e+13 -9.07557e+12 -4.7747e+12 -6.52074e+12 -5.35226e+12 -5.11458e+12 -4.10812e+12 -5.93847e+12 -2.1776e+12 -5.60692e+12 -8.35339e+12 -1.0695e+13 -8.76541e+12 -7.0265e+12 -6.29328e+12 -6.62954e+12 -5.77358e+12 -6.60799e+12 -5.26157e+12 -3.96353e+12 -3.26571e+12 -6.5991e+12 -5.52608e+12 -4.87159e+12 -9.65741e+12 -6.5054e+12 -7.38207e+12 -5.05444e+12 -4.38389e+12 -4.98504e+12 -5.48181e+12 -5.46767e+12 -5.81385e+12 -7.40151e+12 -5.71933e+12 -3.3237e+12 -5.89064e+12 -5.38979e+12 -6.41124e+12 -3.53836e+12 -6.2287e+12 -5.70684e+12 -6.92595e+12 -6.53687e+12 -3.82459e+12 -3.88502e+12 -6.04809e+12 -3.72921e+12 -2.12359e+12 -4.08696e+12 -4.06386e+12 -2.24093e+12 -5.00199e+12 -4.33345e+12 -4.46718e+12 -4.13899e+12 -6.71882e+12 -5.31331e+12 -5.72211e+12 -4.36418e+12 -3.08474e+12 -4.40724e+12 -2.82908e+12 -4.44304e+12 -2.36036e+12 -5.16041e+12 -3.39558e+12 -5.74821e+12 -5.38958e+12 -4.46045e+12 -8.85084e+12 -7.51722e+12 -5.18216e+12 -8.72421e+12 -6.96128e+12 -7.25382e+12 -5.67428e+12 -7.52049e+12 -2.13239e+12 -5.9408e+12 -9.64035e+12 -7.17875e+12 -7.90951e+12 -5.01796e+12 -3.89344e+12 -1.14878e+13 -1.1335e+13 -8.74747e+12 -9.59194e+12 -7.38814e+12 -6.34837e+12 -8.37234e+12 -3.21668e+12 -1.94211e+12 -6.21414e+12 -1.21652e+13 -1.15965e+13 -6.32694e+12 -7.28834e+12 -1.15261e+13 -9.08186e+12 -7.75797e+12 -6.93124e+12 -1.00198e+13 -8.07758e+12 -6.36712e+12 -5.80472e+12 -7.52669e+12 -8.35341e+12 -4.81714e+12 -5.51374e+12 -5.43351e+12 -5.28645e+12 -7.34179e+12 -5.02554e+12 -3.98343e+12 -7.00065e+12 -4.32522e+12 -6.43768e+12 -6.08386e+12 -6.68887e+12 -1.04023e+13 -1.15065e+13 -6.63937e+12 -8.83336e+12 -4.011e+12 -6.49574e+12 -1.33567e+13 -1.00848e+13 -5.07932e+12 -8.21698e+12 -9.05096e+12 -9.27071e+12 -8.79979e+12 -6.71021e+12 -7.73878e+12 -4.24432e+12 -6.94503e+12 -9.27662e+12 -6.63545e+12 -8.65342e+12 -9.60015e+12 -3.24821e+12 -2.85036e+12 -7.21622e+12 -6.41203e+12 -5.59656e+12 -2.89447e+12 -6.782e+12 -6.63122e+12 -4.82864e+12 -8.69009e+12 -3.1769e+12 -6.28479e+12 -4.52932e+12 -9.35231e+12 -6.3392e+12 -8.4795e+12 -9.29631e+12 -4.61387e+12 -4.30344e+12 -3.57146e+12 -5.5716e+12 -5.09643e+12 -6.97003e+12 -5.18698e+12 -4.41849e+12 -5.49254e+12 -3.15451e+12 -6.49137e+12 -3.5343e+12 -3.34437e+12 -5.10512e+12 -6.46485e+12 -3.99301e+12 -4.84195e+12 -3.34038e+12 -5.06714e+12 -5.61578e+12 -4.72328e+12 -5.08596e+12 -2.32703e+12 -5.74202e+12 -4.83201e+12 -8.00649e+12 -3.76732e+12 -3.54316e+12 -2.48454e+12 -3.62169e+12 -1.82305e+12 -6.3169e+12 -5.22194e+12 -2.93391e+12 -4.03613e+12 -3.20288e+12 -5.84627e+12 -3.32546e+12 -8.43436e+12 -2.82976e+12 -6.43667e+12 -5.53471e+12 -4.31806e+12 -5.19486e+12 -4.04489e+12 -8.60804e+12 -5.31093e+12 -5.23885e+12 -5.49378e+12 -6.54019e+12 -6.94075e+12 -9.25524e+12 -6.09775e+12 -5.28804e+12 -6.84594e+12 -6.35176e+12 -5.41037e+12 -3.24584e+12 -7.88069e+12 -4.41713e+12 -4.72884e+12 -6.17914e+12 -9.07152e+12 -7.20027e+12 -5.39677e+12 -5.84886e+12 -8.7101e+12 -4.37611e+12 -3.94561e+12 -4.04231e+12 -6.22631e+12 -5.92974e+12 -6.53525e+12 -4.47454e+12 -8.89265e+12 -6.61828e+12 -7.82586e+12 -4.78077e+12 -9.63145e+12 -5.61544e+12 -5.66763e+12 -8.00161e+12 -7.14763e+12 -5.76322e+12 -6.17949e+12 -1.0024e+13 -5.34898e+12 -5.37732e+12 -4.78546e+12 -7.79068e+12 -4.45148e+12 -4.11754e+12 -5.49135e+12 -4.743e+12 -2.5803e+12 -7.53895e+12 -4.78507e+12 -9.18579e+12 -7.71615e+12 -6.34293e+12 -1.32201e+13 -1.76821e+13 -5.70256e+12 -6.94968e+12 -1.02126e+13 -8.79334e+12 -8.82625e+12 -5.32426e+12 -6.63582e+12 -5.06263e+12 -6.3883e+12 -7.13461e+12 -7.92682e+12 -7.98855e+12 -7.97877e+12 -1.26924e+13 -5.12535e+12 -5.13993e+12 -3.74933e+12 -8.03509e+12 -6.63677e+12 -3.87201e+12 -6.34992e+12 -4.38397e+12 -5.16764e+12 -6.08037e+12 -6.7593e+12 -5.7816e+12 -3.56438e+12 -9.72437e+12 -3.98319e+12 -7.59578e+12 -4.31032e+12 -4.48503e+12 -7.30847e+12 -3.74923e+12 -3.31153e+12 -4.68732e+12 -7.78927e+12 -2.91807e+12 -3.08261e+12 -2.91761e+12 -6.99844e+12 -6.76217e+12 -4.59263e+12 -4.04979e+12 -5.8862e+12 -6.19682e+12 -4.1924e+12 -5.85837e+12 -2.8393e+12 -3.74234e+12 -3.92582e+12 -3.16548e+12 -2.89632e+12 -5.14087e+12 -2.91632e+12 -6.71175e+12 -3.90233e+12 -3.70539e+12 -4.72592e+12 -5.85827e+12 -6.98499e+12 -3.84411e+12 -2.18586e+12 -5.36298e+12 -4.37175e+12 -2.40846e+12 -3.30147e+12 -3.80543e+12 -6.81498e+12 -2.74206e+12 -6.41894e+12 -4.00744e+12 -4.96845e+12 -4.61289e+12 -8.27165e+12 -5.00342e+12 -4.94676e+12 -4.41683e+12 -3.46669e+12 -3.71616e+12 -6.07661e+12 -8.41808e+12 -5.78464e+12 -8.22639e+12 -7.37517e+12 -7.64514e+12 -3.57716e+12 -6.66556e+12 -6.65837e+12 -8.05491e+12 -6.28684e+12 -9.39846e+12 -4.658e+12 -5.23764e+12 -5.84336e+12 -3.39609e+12 -5.13949e+12 -3.99645e+12 -5.22754e+12 -6.57013e+12 -4.93382e+12 -7.57878e+12 -6.14636e+12 -5.51233e+12 -8.58269e+12 -7.94626e+12 -8.31186e+12 -8.81772e+12 -8.41716e+12 -7.63329e+12 -4.20938e+12 -7.30913e+12 -6.12225e+12 -7.20539e+12 -1.20574e+13 -8.81839e+12 -5.92967e+12 -6.7617e+12 -5.88231e+12 -4.89033e+12 -8.94004e+12 -3.22321e+12 -4.83545e+12 -1.03179e+13 -4.07707e+12 -6.69217e+12 -4.38096e+12 -5.04295e+12 -4.09629e+12 -4.33475e+12 -4.90874e+12 -6.05777e+12 -7.2042e+12 -8.89446e+12 -1.00092e+13 -5.54386e+12 -7.51492e+12 -1.03023e+13 -5.01562e+12 -6.70236e+12 -3.84489e+12 -7.19343e+12 -6.76692e+12 -5.89908e+12 -1.06819e+13 -3.46983e+12 -6.22334e+12 -7.41925e+12 -4.96881e+12 -3.47231e+12 -5.51834e+12 -6.73865e+12 -7.02062e+12 -7.22041e+12 -6.26024e+12 -5.1439e+12 -5.90386e+12 -1.02513e+13 -4.57101e+12 -4.63305e+12 -6.08617e+12 -6.212e+12 -6.01199e+12 -8.56787e+12 -9.72475e+12 -6.33084e+12 -5.10346e+12 -8.30235e+12 -5.59954e+12 -7.95227e+12 -7.06286e+12 -7.36717e+12 -7.32466e+12 -5.33905e+12 -4.18884e+12 -4.96141e+12 -5.31604e+12 -4.13367e+12 -7.85244e+12 -2.13456e+12 -5.25941e+12 -4.59727e+12 -3.89914e+12 -4.44198e+12 -5.42354e+12 -4.59437e+12 -3.7891e+12 -2.44987e+12 -5.32783e+12 -4.5414e+12 -2.93313e+12 -5.60953e+12 -4.61079e+12 -4.87106e+12 -3.31178e+12 -4.15165e+12 -1.87695e+12 -4.1413e+12 -820730000000.0 -5.08332e+12 -4.98666e+12 -3.79166e+12 -3.023e+12 -4.16602e+12 -5.19395e+12 -2.46399e+12 -2.88133e+12 -3.95062e+12 -2.46311e+12 -3.54824e+12 -3.17822e+12 -5.20659e+12 -5.20976e+12 -2.91708e+12 -3.50334e+12 -4.21634e+12 -4.30267e+12 -6.07256e+12 -3.14433e+12 -5.83029e+12 -4.15418e+12 -2.97362e+12 -6.13158e+12 -7.39552e+12 -4.76775e+12 -2.7326e+12 -3.11357e+12 -2.89976e+12 -4.89367e+12 -4.40163e+12 -5.95446e+12 -4.2873e+12 -4.21959e+12 -8.11086e+12 -6.52202e+12 -2.03713e+12 -4.32053e+12 -4.33123e+12 -7.26924e+12 -5.31142e+12 -7.36529e+12 -1.08284e+13 -2.86385e+12 -5.00286e+12 -4.1704e+12 -7.21149e+12 -7.49303e+12 -6.8518e+12 -1.13692e+13 -2.36855e+12 -4.82554e+12 -5.7559e+12 -1.25637e+13 -5.22686e+12 -3.47029e+12 -6.75803e+12 -6.14948e+12 -5.65803e+12 -4.79962e+12 -5.16708e+12 -5.40123e+12 -4.22748e+12 -5.36516e+12 -5.99424e+12 -4.31276e+12 -9.06628e+12 -4.98071e+12 -9.64768e+12 -1.02679e+13 -7.72721e+12 -6.71853e+12 -6.57012e+12 -6.61162e+12 -6.67531e+12 -4.12015e+12 -7.73222e+12 -4.53633e+12 -5.03085e+12 -3.68103e+12 -7.51821e+12 -5.21356e+12 -3.48891e+12 -6.8591e+12 -4.73987e+12 -4.28813e+12 -6.63418e+12 -6.9918e+12 -8.2543e+12 -6.47057e+12 -3.83082e+12 -6.46631e+12 -4.2356e+12 -7.98361e+12 -6.34303e+12 -4.91987e+12 -4.54979e+12 -5.42699e+12 -6.7287e+12 -5.10846e+12 -6.80537e+12 -3.40352e+12 -4.87273e+12 -3.68547e+12 -6.97749e+12 -6.25792e+12 -5.00331e+12 -6.19982e+12 -4.44001e+12 -5.54186e+12 -3.9137e+12 -4.26354e+12 -2.3334e+12 -2.02291e+12 -2.5047e+12 -4.65593e+12 -6.40056e+12 -8.15507e+12 -3.63095e+12 -5.22383e+12 -4.98434e+12 -5.5198e+12 -5.28774e+12 -4.9379e+12 -4.21115e+12 -4.08528e+12 -4.69713e+12 -4.82866e+12 -6.46212e+12 -5.36908e+12 -6.27466e+12 -3.61399e+12 -3.92448e+12 -2.73091e+12 -3.64142e+12 -4.49014e+12 -2.81832e+12 -3.47494e+12 -2.80148e+12 -3.92536e+12 -2.87498e+12 -6.02132e+12 -4.81125e+12 -4.76067e+12 -2.87649e+12 -2.83769e+12 -3.84238e+12 -2.2943e+12 -4.84334e+12 -4.39434e+12 -4.84306e+12 -3.66264e+12 -5.61689e+12 -3.66581e+12 -5.45802e+12 -4.0381e+12 -2.45586e+12 -5.25507e+12 -3.79903e+12 -3.89101e+12 -3.30316e+12 -8.53296e+12 -4.16078e+12 -3.78991e+12 -4.63604e+12 -2.38681e+12 -3.81528e+12 -1.56068e+12 -2.06611e+12 -5.30901e+12 -5.38e+12 -4.19186e+12 -1.83432e+12 -3.50001e+12 -2.947e+12 -5.9154e+12 -2.19661e+12 -3.05589e+12 -3.1647e+12 -4.61549e+12 -4.33006e+12 -4.20529e+12 -9.47331e+12 -4.60457e+12 -5.82377e+12 -3.53311e+12 -4.19043e+12 -6.02815e+12 -6.37254e+12 -4.92143e+12 -3.85018e+12 -3.13609e+12 -8.34132e+12 -8.44561e+12 -6.06193e+12 -4.40595e+12 -1.05465e+13 -6.31026e+12 -7.184e+12 -7.60352e+12 -4.16497e+12 -7.24862e+12 -8.2899e+12 -6.08743e+12 -1.00948e+13 -3.83189e+12 -6.8007e+12 -9.14962e+12 -6.4344e+12 -7.51619e+12 -5.02972e+12 -4.98407e+12 -4.46415e+12 -7.75547e+12 -8.617e+12 -7.18018e+12 -1.09951e+13 -1.23025e+13 -5.2597e+12 -8.42891e+12 -7.52837e+12 -5.3915e+12 -5.05455e+12 -7.02227e+12 -5.47398e+12 -2.81722e+12 -3.28373e+12 -5.2983e+12 -2.50716e+12 -5.55263e+12 -6.27845e+12 -6.70139e+12 -6.27997e+12 -5.69718e+12 -3.96784e+12 -5.45326e+12 -5.3253e+12 -3.72326e+12 -3.89169e+12 -8.00576e+12 -7.32083e+12 -5.17284e+12 -7.03143e+12 -8.1417e+12 -8.76903e+12 -6.97547e+12 -4.66786e+12 -4.9832e+12 -3.39302e+12 -5.94118e+12 -5.48216e+12 -4.6155e+12 -6.05914e+12 -4.17423e+12 -5.94909e+12 -5.86187e+12 -6.78668e+12 -3.19369e+12 -8.53064e+12 -7.57702e+12 -6.55026e+12 -5.31869e+12 -8.03181e+12 -6.1072e+12 -3.92074e+12 -3.35051e+12 -4.17942e+12 -4.17344e+12 -3.59161e+12 -2.70508e+12 -7.36123e+12 -7.89462e+12 -3.65124e+12 -2.42367e+12 -5.08806e+12 -3.93433e+12 -753345000000.0 -4.1198e+12 -7.79422e+12 -6.79446e+12 -4.99295e+12 -2.38824e+12 -3.59953e+12 -3.7397e+12 -2.59313e+12 -3.77593e+12 -1.25956e+12 -6.1446e+12 -3.06207e+12 -3.51144e+12 -3.95281e+12 -2.45895e+12 -3.4486e+12 -5.91095e+12 -4.76512e+12 -3.57593e+12 -3.77024e+12 -3.48829e+12 -3.35661e+12 -3.96514e+12 -2.50413e+12 -4.93769e+12 -5.39729e+12 -4.85642e+12 -4.91069e+12 -3.93155e+12 -3.5026e+12 -3.54556e+12 -4.02558e+12 -3.69541e+12 -3.20188e+12 -2.29998e+12 -4.78219e+12 -2.46263e+12 -4.31987e+12 -3.84286e+12 -2.21079e+12 -3.85039e+12 -4.22083e+12 -5.36894e+12 -3.37255e+12 -3.75682e+12 -4.64593e+12 -4.07939e+12 -3.73093e+12 -5.2357e+12 -8.22517e+12 -2.84418e+12 -3.18988e+12 -3.54156e+12 -5.62432e+12 -4.15527e+12 -5.50668e+12 -4.2781e+12 -5.32586e+12 -5.41017e+12 -6.33407e+12 -8.89009e+12 -3.91701e+12 -2.83304e+12 -3.99042e+12 -4.62313e+12 -4.41022e+12 -5.96524e+12 -6.68628e+12 -3.22986e+12 -2.97616e+12 -3.36575e+12 -5.48924e+12 -4.9965e+12 -5.05961e+12 -8.41861e+12 -5.45527e+12 -8.25825e+12 -9.03229e+12 -2.26452e+12 -5.87632e+12 -4.35856e+12 -4.6431e+12 -4.43613e+12 -6.00789e+12 -6.80729e+12 -5.03043e+12 -1.00651e+13 -5.74733e+12 -7.81911e+12 -6.6197e+12 -4.24305e+12 -4.53868e+12 -8.47419e+12 -8.04986e+12 -8.17158e+12 -5.19534e+12 -7.3342e+12 -1.19499e+13 -6.38654e+12 -5.81227e+12 -4.63667e+12 -8.49838e+12 -4.78397e+12 -5.93543e+12 -7.63071e+12 -4.95714e+12 -6.09668e+12 -8.8528e+12 -9.57925e+12 -7.38742e+12 -6.41478e+12 -8.30772e+12 -6.72022e+12 -6.19868e+12 -7.28438e+12 -6.71303e+12 -5.49869e+12 -7.53355e+12 -4.42233e+12 -5.23653e+12 -6.16868e+12 -4.68424e+12 -3.77199e+12 -8.72539e+12 -6.13231e+12 -4.63396e+12 -5.8258e+12 -7.43393e+12 -9.9673e+12 -8.38484e+12 -5.60304e+12 -7.96138e+12 -5.21849e+12 -3.24445e+12 -2.31246e+12 -4.79932e+12 -3.45493e+12 -4.07505e+12 -6.90279e+12 -4.42071e+12 -4.62699e+12 -1.38593e+12 -4.94746e+12 -4.51487e+12 -5.95242e+12 -3.22315e+12 -4.1126e+12 -2.67148e+12 -3.96274e+12 -3.49524e+12 -5.77475e+12 -5.87095e+12 -5.12853e+12 -5.70537e+12 -3.65009e+12 -4.40178e+12 -897580000000.0 -3.34547e+12 -3.917e+12 -4.53353e+12 -3.126e+12 -4.41018e+12 -4.20746e+12 -2.73979e+12 -2.59431e+12 -2.87991e+12 -2.5256e+12 -2.51548e+12 -3.16904e+12 -3.44873e+12 -2.59473e+12 -3.20965e+12 -3.90211e+12 -3.5997e+12 -2.5695e+12 -2.05967e+12 -5.25973e+12 -2.28516e+12 -3.40082e+12 -1.19163e+12 -5.25864e+12 -1.92803e+12 -4.57557e+12 -3.42567e+12 -3.0256e+12 -2.15082e+12 -4.85579e+12 -1.98385e+12 -3.47827e+12 -2.12796e+12 -3.27459e+12 -3.72433e+12 -2.94684e+12 -2.02656e+12 -4.54102e+12 -5.2824e+12 -2.59625e+12 -4.11182e+12 -4.55993e+12 -6.20263e+12 -9.19823e+12 -3.89983e+12 -4.45825e+12 -5.40597e+12 -1.98308e+12 -5.85214e+12 -3.28903e+12 -4.48075e+12 -3.84477e+12 -3.70229e+12 -5.70563e+12 -4.0105e+12 -5.08877e+12 -3.67864e+12 -3.49678e+12 -4.41205e+12 -4.97134e+12 -4.47438e+12 -5.51143e+12 -5.6643e+12 -6.80105e+12 -6.95252e+12 -4.82904e+12 -7.31735e+12 -1.06306e+13 -5.42291e+12 -6.32817e+12 -7.54226e+12 -9.33867e+12 -3.84156e+12 -9.5853e+12 -4.58449e+12 -8.23702e+12 -1.41727e+13 -7.61419e+12 -1.00451e+13 -9.50002e+12 -5.14812e+12 -7.73595e+12 -6.30028e+12 -7.33852e+12 -8.57331e+12 -5.44183e+12 -9.77573e+12 -6.9494e+12 -2.96127e+12 -3.70913e+12 -2.63846e+12 -6.51828e+12 -3.44467e+12 -3.1948e+12 -6.9572e+12 -4.12876e+12 -5.0117e+12 -9.79661e+12 -6.85338e+12 -4.96233e+12 -5.53317e+12 -5.58679e+12 -8.36027e+12 -6.71931e+12 -5.15164e+12 -6.04884e+12 -8.31151e+12 -8.46628e+12 -5.82478e+12 -5.17354e+12 -6.80645e+12 -5.4446e+12 -4.16024e+12 -6.81117e+12 -4.89109e+12 -4.82843e+12 -5.14181e+12 -4.98121e+12 -4.81008e+12 -6.98145e+12 -8.16812e+12 -4.24291e+12 -4.24673e+12 -3.96882e+12 -3.20828e+12 -9.87486e+12 -3.90743e+12 -4.38776e+12 -7.18951e+12 -5.64706e+12 -7.87107e+12 -6.72858e+12 -2.81132e+12 -4.71025e+12 -4.4491e+12 -3.71267e+12 -3.51222e+12 -6.33754e+12 -4.72493e+12 -4.83876e+12 -3.13372e+12 -3.42011e+12 -3.89302e+12 -4.5861e+12 -3.95701e+12 -2.94826e+12 -2.41095e+12 -3.89131e+12 -2.19095e+12 -2.87775e+12 -3.48182e+12 -4.12087e+12 -2.31219e+12 -5.11596e+12 -2.46609e+12 -2.39571e+12 -2.45511e+12 -1.93073e+12 -3.66074e+12 -3.0799e+12 -1.82096e+12 -4.24177e+12 -3.32319e+12 -3.70198e+12 -2.66206e+12 -4.49366e+12 -2.73081e+12 -3.19032e+12 -1.48469e+12 -2.60239e+12 -3.15058e+12 -5.45292e+12 -4.37422e+12 -3.02893e+12 -2.18723e+12 -3.06156e+12 -3.18435e+12 -3.7431e+12 -2.51531e+12 -3.05502e+12 -1.46897e+12 -3.28582e+12 -2.53241e+12 -3.01984e+12 -2.95099e+12 -3.20603e+12 -3.78712e+12 -2.79023e+12 -4.14844e+12 -6.28187e+12 -2.52027e+12 -3.42106e+12 -4.75297e+12 -5.04068e+12 -4.68068e+12 -3.35932e+12 -4.25717e+12 -2.94374e+12 -3.01709e+12 -5.78547e+12 -2.13864e+12 -6.14278e+12 -3.81254e+12 -5.93703e+12 -4.03099e+12 -3.61709e+12 -3.54765e+12 -6.4712e+12 -6.73968e+12 -5.54869e+12 -4.64625e+12 -5.22079e+12 -7.26437e+12 -5.29366e+12 -3.39449e+12 -5.91714e+12 -3.70179e+12 -6.29377e+12 -4.66578e+12 -5.7606e+12 -6.76782e+12 -4.92131e+12 -5.83241e+12 -5.13548e+12 -8.73055e+12 -7.46659e+12 -5.95899e+12 -4.08964e+12 -1.07449e+13 -5.73434e+12 -5.75232e+12 -5.03581e+12 -4.28129e+12 -6.75543e+12 -5.83515e+12 -1.04063e+13 -1.14473e+13 -6.35296e+12 -5.79194e+12 -4.15023e+12 -4.96004e+12 -5.5048e+12 -8.37739e+12 -2.26875e+12 -6.61699e+12 -2.92066e+12 -5.39109e+12 -5.19917e+12 -6.45243e+12 -3.39988e+12 -5.34481e+12 -2.79762e+12 -1.03102e+13 -4.4917e+12 -5.23006e+12 -4.58944e+12 -5.19064e+12 -5.476e+12 -4.51311e+12 -8.2379e+12 -6.02308e+12 -6.63632e+12 -5.64152e+12 -9.76079e+12 -4.01606e+12 -5.18623e+12 -6.2804e+12 -4.33348e+12 -4.1626e+12 -4.00839e+12 -4.70762e+12 -7.37545e+12 -2.77614e+12 -5.6247e+12 -4.03867e+12 -4.61933e+12 -5.80302e+12 -6.69527e+12 -2.15013e+12 -4.87055e+12 -5.32501e+12 -9.01037e+12 -4.49177e+12 -6.16492e+12 -2.92862e+12 -5.39106e+12 -6.56401e+12 -2.99523e+12 -3.44307e+12 -5.62098e+12 -5.56329e+12 -3.57997e+12 -3.49246e+12 -3.37515e+12 -2.84229e+12 -4.75498e+12 -3.63182e+12 -5.18534e+12 -3.94846e+12 -2.63462e+12 -4.48283e+12 -4.12089e+12 -3.38403e+12 -2.65887e+12 -984861000000.0 -2.14517e+12 -2.84227e+12 -4.45307e+12 -2.7688e+12 -3.73932e+12 -2.44582e+12 -1.31412e+12 -3.17426e+12 -2.75366e+12 -3.4153e+12 -3.54065e+12 -3.62395e+12 -3.04261e+12 -3.37325e+12 -2.88635e+12 -3.71465e+12 -3.14223e+12 -2.53413e+12 -3.70199e+12 -5.32e+12 -3.43506e+12 -2.97787e+12 -3.07661e+12 -3.04822e+12 -2.29109e+12 -2.33916e+12 -3.01217e+12 -3.92379e+12 -4.07552e+12 -2.67788e+12 -3.86109e+12 -6.07993e+12 -2.93909e+12 -4.47914e+12 -3.88956e+12 -6.97233e+12 -3.05202e+12 -4.01947e+12 -3.22375e+12 -3.87776e+12 -5.15644e+12 -5.16741e+12 -4.57597e+12 -5.13494e+12 -5.50653e+12 -4.81983e+12 -3.44947e+12 -4.71914e+12 -4.34559e+12 -4.56198e+12 -3.16513e+12 -5.62306e+12 -3.96239e+12 -4.18927e+12 -4.09179e+12 -6.57759e+12 -5.24947e+12 -5.46286e+12 -5.34436e+12 -5.81863e+12 -6.63063e+12 -5.52786e+12 -5.78985e+12 -6.22442e+12 -5.71561e+12 -5.0008e+12 -3.21358e+12 -5.94081e+12 -6.65324e+12 -7.17737e+12 -6.42437e+12 -6.58167e+12 -4.2039e+12 -3.09703e+12 -6.82136e+12 -5.18022e+12 -5.19446e+12 -4.05548e+12 -5.24443e+12 -7.53193e+12 -7.16905e+12 -5.18879e+12 -1.87348e+12 -1.21638e+12 -3.31922e+12 -4.6221e+12 -5.69539e+12 -5.75622e+12 -7.205e+12 -5.95704e+12 -6.76999e+12 -6.53501e+12 -4.17003e+12 -4.38781e+12 -3.83945e+12 -3.41756e+12 -6.45277e+12 -3.86372e+12 -8.45962e+12 -4.43451e+12 -6.34139e+12 -2.43778e+12 -5.2897e+12 -6.8725e+12 -3.57569e+12 -3.69229e+12 -4.63356e+12 -4.70348e+12 -6.00853e+12 -3.0181e+12 -3.99774e+12 -3.59764e+12 -3.38291e+12 -6.39848e+12 -8.19882e+12 -2.40369e+12 -2.17002e+12 -3.20171e+12 -2.24988e+12 -5.14719e+12 -4.4095e+12 -5.86895e+12 -3.88503e+12 -5.87059e+12 -4.43451e+12 -5.7541e+12 -5.18336e+12 -4.48104e+12 -6.58614e+12 -2.25301e+12 -1.86392e+12 -3.83796e+12 -3.88045e+12 -3.24284e+12 -2.13145e+12 -2.30056e+12 -2.19565e+12 -4.25182e+12 -4.02438e+12 -2.80611e+12 -4.85864e+12 -1.45912e+12 -2.49578e+12 -3.86114e+12 -3.98475e+12 -1.81766e+12 -3.42844e+12 -3.2323e+12 -2.17545e+12 -2.30604e+12 -2.17849e+12 -1.22075e+12 -2.88128e+12 -2.76711e+12 -1.5026e+12 -3.27015e+12 -2.96656e+12 -3.11015e+12 -2.02176e+12 -2.34478e+12 -2.77242e+12 -2.27777e+12 -1.16728e+12 -1.61883e+12 -2.51384e+12 -545833000000.0 -2.88707e+12 -1.81203e+12 -3.02639e+12 -5.20849e+12 -2.34819e+12 -3.97836e+12 -3.14169e+12 -5.01958e+12 -3.4082e+12 -3.72429e+12 -1.44997e+12 -3.17156e+12 -3.64377e+12 -5.68313e+12 -1.79803e+12 -1.86549e+12 -3.36928e+12 -1.68284e+12 -2.98886e+12 -3.66951e+12 -4.50953e+12 -2.50513e+12 -3.80361e+12 -4.1577e+12 -5.39835e+12 -4.30875e+12 -1.2985e+12 -3.04344e+12 -2.64461e+12 -6.48401e+12 -4.1055e+12 -5.48339e+12 -4.44067e+12 -2.25649e+12 -4.67421e+12 -4.51373e+12 -4.28468e+12 -3.48239e+12 -4.889e+12 -5.02195e+12 -6.10434e+12 -6.09467e+12 -5.5409e+12 -4.63248e+12 -5.55545e+12 -797011000000.0 -7.20726e+12 -4.64579e+12 -2.57277e+12 -2.55229e+12 -5.75904e+12 -4.99012e+12 -3.94491e+12 -4.63196e+12 -6.01351e+12 -6.0369e+12 -4.55888e+12 -3.14624e+12 -3.23309e+12 -2.96271e+12 -4.61441e+12 -4.31693e+12 -4.61846e+12 -7.65449e+12 -6.17214e+12 -6.91099e+12 -5.16981e+12 -5.54633e+12 -4.28111e+12 -6.67429e+12 -3.02006e+12 -4.23195e+12 -6.3423e+12 -4.64922e+12 -3.19855e+12 -4.376e+12 -3.28759e+12 -4.47525e+12 -6.23663e+12 -7.42591e+12 -3.93777e+12 -3.62903e+12 -7.29443e+12 -3.83297e+12 -5.13712e+12 -4.63593e+12 -3.40503e+12 -3.7261e+12 -3.07828e+12 -4.85947e+12 -4.22985e+12 -5.38721e+12 -4.13143e+12 -2.88933e+12 -3.95893e+12 -3.53892e+12 -1.51924e+12 -5.47452e+12 -3.8767e+12 -3.22336e+12 -5.23237e+12 -5.37243e+12 -5.22731e+12 -4.19274e+12 -2.64592e+12 -4.46832e+12 -4.78081e+12 -3.96004e+12 -4.33965e+12 -5.16914e+12 -5.54159e+12 -2.91569e+12 -3.45595e+12 -4.20295e+12 -4.57641e+12 -3.27514e+12 -2.88138e+12 -4.07733e+12 -5.64055e+12 -3.69974e+12 -2.4417e+12 -3.23085e+12 -2.1525e+12 -3.36659e+12 -4.43768e+12 -3.72437e+12 -2.3216e+12 -2.27625e+12 -1.64398e+12 -3.50866e+12 -2.72435e+12 -1.49764e+12 -3.10801e+12 -907544000000.0 -2.39015e+12 -3.91312e+12 -3.58787e+12 -2.28187e+12 -2.27123e+12 -3.07591e+12 -1.63421e+12 -3.74426e+12 -2.55371e+12 -3.04385e+12 -2.82575e+12 -1.62891e+12 -1.45865e+12 -760185000000.0 -2.87015e+12 -1.86273e+12 -2.26048e+12 -2.60845e+12 -3.87314e+12 -3.35955e+12 -2.93975e+12 -2.42281e+12 -1.31892e+12 -2.96506e+12 -2.91117e+12 -4.14474e+12 -4.92785e+12 -2.58788e+12 -4.00315e+12 -3.08518e+12 -5.69457e+12 -4.76078e+12 -5.75486e+12 -4.04514e+12 -4.92258e+12 -3.93287e+12 -4.73313e+12 -5.17217e+12 -3.60404e+12 -4.96919e+12 -2.88688e+12 -4.88358e+12 -4.07893e+12 -3.31312e+12 -5.86175e+12 -3.76952e+12 -2.82443e+12 -3.94592e+12 -4.95905e+12 -4.79353e+12 -4.46762e+12 -4.22625e+12 -6.51816e+12 -6.49529e+12 -5.61349e+12 -2.51521e+12 -5.25259e+12 -4.03766e+12 -6.83256e+12 -4.66331e+12 -5.72008e+12 -6.65229e+12 -4.7525e+12 -4.50351e+12 -3.49092e+12 -2.93146e+12 -7.88776e+12 -4.20486e+12 -4.13738e+12 -7.08944e+12 -6.77704e+12 -6.78073e+12 -4.99655e+12 -5.94693e+12 -2.11808e+12 -5.76833e+12 -4.25051e+12 -1.53518e+12 -5.06145e+12 -5.12584e+12 -5.17139e+12 -5.5072e+12 -4.78529e+12 -7.04691e+12 -3.8057e+12 -3.37772e+12 -4.24489e+12 -5.14314e+12 -4.0569e+12 -3.07252e+12 -6.05434e+12 -1.64788e+12 -5.51744e+12 -4.35811e+12 -5.5829e+12 -8.22489e+12 -3.38909e+12 -4.15213e+12 -4.58152e+12 -5.53263e+12 -5.33979e+12 -3.03478e+12 -4.39722e+12 -3.5287e+12 -2.18319e+12 -4.2587e+12 -3.86181e+12 -3.10438e+12 -4.04162e+12 -3.29871e+12 -4.09599e+12 -1.31337e+12 -5.13375e+12 -1.81009e+12 -4.40816e+12 -5.06154e+12 -4.06858e+12 -2.94172e+12 -3.2125e+12 -4.06477e+12 -2.9683e+12 -3.17748e+12 -3.10463e+12 -2.55856e+12 -2.95025e+12 -3.99515e+12 -3.57882e+12 -1.61638e+12 -3.13643e+12 -2.87756e+12 -1.67789e+12 -3.45073e+12 -1.63606e+12 -1.70025e+12 -1.976e+12 -1.17135e+12 -1.23158e+12 -2.01329e+12 -2.43385e+12 -1.21378e+12 -1.72771e+12 -2.43574e+12 -1.93046e+12 -2.12249e+12 -1.7343e+12 -1.97207e+12 -3.04007e+12 -3.58499e+12 -1.95592e+12 -2.88452e+12 -2.01167e+12 -1.9451e+12 -1.59284e+12 -280072000000.0 -2.43099e+12 -1.64466e+12 -1.58801e+12 -1.9103e+12 -2.4859e+12 -2.93118e+12 -3.64489e+12 -3.58272e+12 -3.3766e+12 -1.18962e+12 -3.32939e+12 -3.00013e+12 -1.87824e+12 -4.16596e+12 -2.06516e+12 -4.55117e+12 -3.45876e+12 -3.03301e+12 -3.15376e+12 -4.1819e+12 -5.31694e+12 -5.19729e+12 -5.01175e+12 -2.30587e+12 -2.86388e+12 -5.30492e+12 -5.47222e+12 -4.09399e+12 -3.66922e+12 -4.64101e+12 -4.34607e+12 -4.73946e+12 -3.91308e+12 -5.05346e+12 -3.44556e+12 -3.60431e+12 -4.07729e+12 -4.13107e+12 -7.01738e+12 -4.14407e+12 -5.17231e+12 -5.48328e+12 -1.95796e+12 -5.31188e+12 -5.12234e+12 -7.97674e+12 -4.40226e+12 -3.65466e+12 -4.66951e+12 -5.09395e+12 -5.21739e+12 -7.1078e+12 -5.37296e+12 -2.26935e+12 -1.98052e+12 -5.1328e+12 -3.49915e+12 -3.81694e+12 -3.73584e+12 -4.97517e+12 -4.24858e+12 -2.77746e+12 -4.67227e+12 -3.49565e+12 -3.70672e+12 -2.91292e+12 -1.39535e+12 -2.97235e+12 -4.90009e+12 -4.33041e+12 -2.90059e+12 -1.94619e+12 -4.3443e+12 -5.23574e+12 -3.83736e+12 -4.05614e+12 -2.92083e+12 -3.98798e+12 -3.66941e+12 -4.22975e+12 -2.82713e+12 -4.40082e+12 -3.93705e+12 -5.3724e+12 -2.93548e+12 -3.46502e+12 -3.87169e+12 -2.2499e+12 -2.1398e+12 -4.00469e+12 -3.61073e+12 -3.73124e+12 -4.29012e+12 -4.80593e+12 -3.54577e+12 -2.01366e+12 -1.97809e+12 -2.74737e+12 -1.95717e+12 -135558000000.0 -2.50048e+12 -2.42778e+12 -2.91438e+12 -1.79535e+12 -2.9183e+12 -644225000000.0 -1.51822e+12 -702162000000.0 -1.94566e+12 -2.48117e+12 -1.96607e+12 -1.26985e+12 -1.60698e+12 -2.26941e+12 -2.10264e+12 -583599000000.0 -1.81464e+12 -1.08044e+12 -692859000000.0 -1.9954e+12 -2.12989e+12 -1.91403e+12 -1.70321e+12 -2.23321e+12 -2.67831e+12 -3.70525e+12 -2.07908e+12 -2.55326e+12 -2.06282e+12 -1.31715e+12 -1.52832e+12 -2.67422e+12 -1.78906e+12 -2.83206e+12 -1.45465e+12 -4.71209e+12 -2.49264e+12 -2.37948e+12 -724738000000.0 -2.36227e+12 -1.93175e+12 -2.11811e+12 -3.10067e+12 -3.03848e+12 -3.3103e+12 -5.02745e+12 -4.57173e+12 -1.3333e+12 -2.60849e+12 -5.17293e+12 -4.77149e+12 -2.04373e+12 -4.92661e+12 -2.47113e+12 -4.12543e+12 -2.56582e+12 -3.96962e+12 -4.44875e+12 -4.35587e+12 -4.54577e+12 -2.08396e+12 -992754000000.0 -3.05632e+12 -3.24067e+12 -3.53943e+12 -3.28488e+12 -4.85403e+12 -6.45012e+12 -3.72121e+12 -4.78157e+12 -4.74934e+12 -2.77432e+12 -3.55533e+12 -2.99681e+12 -5.38421e+12 -4.15231e+12 -3.29009e+12 -5.56926e+12 -3.74236e+12 -8.09685e+12 -5.11419e+12 -6.99561e+12 -6.25891e+12 -3.70635e+12 -3.99629e+12 -5.0038e+12 -2.98906e+12 -4.5608e+12 -3.83675e+12 -5.04077e+12 -4.77227e+12 -4.15973e+12 -3.05461e+12 -6.30114e+12 -2.60129e+12 -4.23694e+12 -4.35428e+12 -2.0439e+12 -1.02416e+12 -4.21628e+12 -2.70541e+12 -3.96527e+12 -3.05343e+12 -2.24331e+12 -4.8181e+12 -3.47171e+12 -3.36541e+12 -2.7111e+12 -2.63132e+12 -3.97189e+12 -2.48801e+12 -3.48684e+12 -4.73014e+12 -3.88732e+12 -5.32206e+12 -4.27913e+12 -4.48031e+12 -3.56502e+12 -2.28924e+12 -2.04983e+12 -2.6462e+12 -1.96821e+12 -2.94019e+12 -2.82626e+12 -2.15376e+12 -2.27912e+12 -2.90119e+12 -2.59944e+12 -1.52702e+12 -3.04173e+12 -839967000000.0 -1.11247e+12 -1.74267e+12 -1.67761e+12 -1.09966e+12 -1.81445e+12 -1.11519e+12 -1.13967e+12 -801433000000.0 -1.87836e+12 -1.66153e+12 -615496000000.0 -1.73128e+12 -2.02766e+12 -1.26981e+12 -1.79153e+12 -790333000000.0 -1.93081e+12 -1.77903e+12 -1.44105e+12 -3.13726e+12 -1.80867e+12 -1.10573e+12 -1.32966e+12 -2.51457e+12 -2.48955e+12 -2.34832e+12 -2.56279e+12 -2.11733e+12 -2.18067e+12 -828371000000.0 -1.74453e+12 -1.76903e+12 -1.56528e+12 -1.20544e+12 -1.48587e+12 -3.14525e+12 -1.82792e+12 -2.88462e+12 -2.55207e+12 -3.88249e+12 -2.37917e+12 -1.92796e+12 -1.01634e+12 -3.95845e+12 -1.65283e+12 -2.85586e+12 -1.47578e+12 -1.11018e+12 -871087000000.0 -4.10858e+12 -1.44565e+12 -6.32072e+12 -2.07727e+12 -1.80533e+12 -3.35581e+12 -3.29646e+12 -5.27998e+12 -3.53583e+12 -4.26142e+12 -2.86604e+12 -4.14252e+12 -3.00329e+12 -3.77025e+12 -5.38697e+12 -3.15665e+12 -4.29699e+12 -4.52165e+12 -6.63021e+12 -2.75007e+12 -3.19889e+12 -4.30817e+12 -3.93011e+12 -3.65315e+12 -3.4271e+12 -2.92652e+12 -2.81497e+12 -2.85614e+12 -4.64537e+12 -5.52698e+12 -3.75028e+12 -3.17011e+12 -2.6265e+12 -4.63207e+12 -1.8858e+12 -3.55369e+12 -1.48762e+12 -3.56739e+12 -6.56815e+12 -5.08021e+12 -3.64215e+12 -2.81523e+12 -4.10349e+12 -3.78507e+12 -4.90839e+12 -2.86159e+12 -1.60195e+12 -3.89774e+12 -2.75176e+12 -7.28389e+12 -3.16656e+12 -3.19711e+12 -2.4048e+12 -1.75792e+12 -1.42088e+12 -3.12388e+12 -1.15853e+12 -2.60128e+12 -4.60755e+12 -1.23722e+12 -3.87025e+12 -3.17571e+12 -5.59784e+12 -2.76037e+12 -2.66792e+12 -2.55161e+12 -1.27985e+12 -2.34609e+12 -3.22573e+12 -1.74484e+12 -4.00799e+12 -2.95208e+12 -2.87704e+12 -1.98286e+12 -1.7516e+12 -3.3698e+12 -4.6139e+12 -1.31822e+12 -2.22195e+12 -846815000000.0 -1.52115e+12 -1.0992e+12 -2.17182e+12 -2.27734e+12 -1.09124e+12 -1.21277e+12 -1.13482e+12 -991415000000.0 -1.33574e+12 -2.1535e+12 -1.84797e+12 -1.16498e+12 -1.32132e+12 -1.07613e+12 -1.54598e+12 -1.48031e+12 -1.64034e+12 -2.27981e+12 -3.21859e+12 -1.20226e+12 -1.87407e+12 -666465000000.0 -843607000000.0 -1.26243e+12 -1.49754e+12 -817302000000.0 -2.72142e+12 -2.31924e+12 -2.33637e+12 -1.31733e+12 -1.40759e+12 -1.26174e+12 -2.87007e+12 -2.12796e+12 -2.722e+12 -2.23664e+12 -2.49678e+12 -1.54718e+12 -3.31506e+12 -4.70177e+12 -1.36649e+12 -1.76816e+12 -1.59594e+12 -1.80542e+12 -3.5934e+12 -2.08737e+12 -1.75992e+12 -2.93392e+12 -2.18089e+12 -2.64732e+12 -3.28681e+12 -1.50172e+12 -5.05452e+12 -4.62952e+12 -5.12945e+12 -3.44008e+12 -1.65608e+12 -1.7199e+12 -1.78289e+12 -3.11411e+12 -3.74141e+12 -4.10864e+12 -2.27089e+12 -4.56722e+12 -4.33524e+12 -3.65819e+12 -2.95324e+12 -3.50204e+12 -3.11648e+12 -3.19101e+12 -4.28291e+12 -3.07275e+12 -3.05638e+12 -3.14117e+12 -4.49413e+12 -2.36642e+12 -3.50602e+12 -4.64828e+12 -2.39232e+12 -3.48711e+12 -1.69339e+12 -3.36013e+12 -5.56785e+12 -3.69415e+12 -2.39156e+12 -3.70604e+12 -3.10227e+12 -2.80395e+12 -6.89346e+12 -1.6525e+12 -4.04766e+12 -4.58335e+12 -6.16133e+12 -1.59955e+12 -2.59863e+12 -2.68256e+12 -2.86869e+12 -2.13326e+12 -3.69095e+12 -3.37738e+12 -4.71568e+12 -2.98082e+12 -2.78349e+12 -2.96693e+12 -3.82722e+12 -1.57369e+12 -1.43972e+12 -1.31776e+12 -3.32253e+12 -3.70626e+12 -4.25533e+12 -2.48852e+12 -852869000000.0 -3.83499e+12 -2.99654e+12 -2.53128e+12 -1.54104e+12 -2.71006e+12 -1.28052e+12 -826600000000.0 -3.6228e+12 -2.17345e+12 -1.90942e+12 -2.10631e+12 -1.77863e+12 -2.41512e+12 -1.34199e+12 -1.78336e+12 -756876000000.0 -2.2666e+12 -676193000000.0 -1.82916e+12 -1.58976e+12 -829748000000.0 -1.07132e+12 -475993000000.0 -898764000000.0 -393598000000.0 -840379000000.0 -1.13265e+12 -1.53084e+12 -1.24761e+12 -1.30512e+12 -932508000000.0 -2.43183e+12 -566348000000.0 -1.0265e+12 -1.50494e+12 -887394000000.0 -1.37737e+12 -1.60642e+12 -442712000000.0 -1.33371e+12 -859477000000.0 -480327000000.0 -907849000000.0 -2.68072e+12 -1.36138e+12 -2.73059e+12 -2.40229e+12 -658049000000.0 -2.11243e+12 -1.33031e+12 -1.52916e+12 -1.87157e+12 -1.84713e+12 -1.4046e+12 -2.00395e+12 -2.06361e+12 -1.9367e+12 -1.92192e+12 -2.30268e+12 -1.96499e+12 -1.63937e+12 -2.97394e+12 -3.06614e+12 -2.87821e+12 -919377000000.0 -1.57256e+12 -2.15562e+12 -2.41899e+12 -2.49182e+12 -820540000000.0 -2.72438e+12 -2.62117e+12 -1.82619e+12 -3.97247e+12 -925400000000.0 -2.76503e+12 -2.47172e+12 -1.29914e+12 -4.79589e+12 -1.29611e+12 -2.80726e+12 -3.03594e+12 -3.52972e+12 -2.26066e+12 -2.3289e+12 -2.68285e+12 -3.04427e+12 -3.41777e+12 -3.00609e+12 -2.15288e+12 -2.27915e+12 -3.93289e+12 -3.34399e+12 -1.6574e+12 -3.94631e+12 -3.19772e+12 -1.84872e+12 -2.00684e+12 -2.4716e+12 -4.46465e+12 -4.0909e+12 -430511000000.0 -4.00426e+12 -3.29846e+12 -4.01922e+12 -3.80413e+12 -2.56719e+12 -3.81478e+12 -1.77498e+12 -2.67193e+12 -2.07307e+12 -2.19957e+12 -3.02855e+12 -1.8792e+12 -2.73281e+12 -2.44386e+12 -1.68034e+12 -3.97411e+12 -3.0803e+12 -2.062e+12 -1.59705e+12 -2.24115e+12 -2.70766e+12 -2.18495e+12 -1.89345e+12 -2.29881e+12 -1.81329e+12 -2.07596e+12 -1.58935e+12 -2.27744e+12 -1.46825e+12 -1.2177e+12 -1.30299e+12 -1.4338e+12 -1.97366e+12 -1.76139e+12 -1.70997e+12 -1.47659e+12 -1.62826e+12 -1.29608e+12 -726306000000.0 -1.73064e+12 -660692000000.0 -607590000000.0 -1.2514e+12 -1.15787e+12 -1.05728e+12 -1.64058e+12 -921771000000.0 -546318000000.0 -652203000000.0 -892407000000.0 -1.35728e+12 -587250000000.0 -1.26085e+12 -1.10803e+12 -1.28769e+12 -1.682e+12 -1.07051e+12 -1.28623e+12 -674373000000.0 -612953000000.0 -990408000000.0 -940261000000.0 -1.89698e+12 -913952000000.0 -889922000000.0 -2.16253e+12 -671487000000.0 -2.43551e+12 -450596000000.0 -627033000000.0 -770678000000.0 -1.66582e+12 -3.18935e+12 -2.03027e+12 -3.03134e+12 -1.76956e+12 -2.97699e+12 -2.21496e+12 -2.20932e+12 -1.51751e+12 -1.02998e+12 -2.04751e+12 -3.03876e+12 -2.06289e+12 -2.17809e+12 -3.51717e+12 -2.53643e+12 -2.51705e+12 -3.2086e+12 -3.32904e+12 -903817000000.0 -1.56341e+12 -2.12187e+12 -2.3407e+12 -3.86127e+12 -2.33693e+12 -2.34991e+12 -3.31592e+12 -2.05993e+12 -2.00919e+12 -3.21744e+12 -3.31454e+12 -3.4372e+12 -3.00817e+12 -2.63512e+12 -3.60212e+12 -3.25804e+12 -3.12058e+12 -1.68463e+12 -4.17558e+12 -1.98099e+12 -3.21416e+12 -1.25422e+12 -1.91179e+12 -2.88428e+12 -2.63992e+12 -3.18651e+12 -3.1357e+12 -2.98451e+12 -1.16859e+12 -1.84202e+12 -3.32547e+12 -1.97329e+12 -1.58195e+12 -3.59885e+12 -370755000000.0 -1.60254e+12 -2.01929e+12 -1.21384e+12 -1.99533e+12 -2.115e+12 -1.41866e+12 -1.34231e+12 -1.5049e+12 -2.258e+12 -2.18256e+12 -1.17614e+12 -2.18144e+12 -1.73267e+12 -1.30342e+12 -944180000000.0 -999761000000.0 -1.41662e+12 -976093000000.0 -1.71839e+12 -1.61814e+12 -1.36732e+12 -873604000000.0 -842353000000.0 -628084000000.0 -635951000000.0 -2.09506e+12 -801943000000.0 -1.16403e+12 -1.23867e+12 -1.26869e+12 -716745000000.0 -1.81673e+12 -677983000000.0 -694650000000.0 -867882000000.0 -755084000000.0 -360584000000.0 -868415000000.0 -837106000000.0 -1.60984e+12 -1.43912e+12 -592761000000.0 -372032000000.0 -1.30417e+12 -1.09729e+12 -158599000000.0 -1.66334e+12 -542848000000.0 -489701000000.0 -513356000000.0 -1.5039e+12 -1.09445e+12 -734034000000.0 -589868000000.0 -815627000000.0 -1.78022e+12 -1.43887e+12 -1.42617e+12 -1.292e+12 -1.87485e+12 -1.00372e+12 -2.09753e+12 -2.73022e+12 -1.9105e+12 -1.28087e+12 -1.18592e+12 -2.24879e+12 -1.82422e+12 -2.6313e+12 -1.78804e+12 -268012000000.0 -1.50866e+12 -2.07184e+12 -1.9933e+12 -951819000000.0 -1.58235e+12 -3.69113e+12 -1.67174e+12 -1.95317e+12 -3.17624e+12 -2.53214e+12 -1.26231e+12 -1.94018e+12 -909883000000.0 -2.56629e+12 -1.59076e+12 -1.0009e+12 -3.44326e+12 -2.78007e+12 -2.18402e+12 -3.13819e+12 -2.13077e+12 -2.90862e+12 -3.69272e+12 -2.31069e+12 -2.80865e+12 -1.32197e+12 -2.00267e+12 -1.26411e+12 -2.72904e+12 -1.51737e+12 -3.09612e+12 -1.43444e+12 -470183000000.0 -2.62264e+12 -1.04326e+12 -1.55438e+12 -2.20612e+12 -1.70677e+12 -1.49856e+12 -3.44376e+12 -1.30566e+12 -643253000000.0 -1.61435e+12 -1.04662e+12 -1.32955e+12 -1.60022e+12 -2.36097e+12 -1.55091e+12 -1.04925e+12 -1.96665e+12 -1.15519e+12 -2.36861e+12 -1.83491e+12 -1.1593e+12 -1.07941e+12 -1.05499e+12 -1.41936e+12 -2.15036e+12 -1.42838e+12 -1.50091e+12 -1.89463e+12 -1.3164e+12 -604567000000.0 -735635000000.0 -878228000000.0 -1.12441e+12 -1.40655e+12 -724340000000.0 -1.079e+12 -830390000000.0 -401299000000.0 -457978000000.0 -2.10865e+12 -864662000000.0 -339547000000.0 -1.43864e+12 -1.23811e+12 -713988000000.0 -375506000000.0 -548639000000.0 -878770000000.0 -552619000000.0 -559437000000.0 -714450000000.0 -1.13246e+12 -899483000000.0 -1.16101e+12 -645427000000.0 -632203000000.0 -190498000000.0 -723492000000.0 -449169000000.0 -191538000000.0 -540224000000.0 -1.2165e+12 -1.20993e+12 -1.10332e+12 -444316000000.0 -426504000000.0 -1.109e+12 -465826000000.0 -907284000000.0 -1.68795e+12 -1.22358e+12 -1.90157e+12 -931250000000.0 -1.14043e+12 -1.59e+12 -865401000000.0 -2.11562e+12 -1.18635e+12 -79318700000.0 -1.30876e+12 -1.13778e+12 -862981000000.0 -3.2382e+12 -1.10736e+12 -429709000000.0 -2.0451e+12 -1.34813e+12 -1.61131e+12 -1.75386e+12 -894774000000.0 -1.31604e+12 -2.3185e+12 -597379000000.0 -485290000000.0 -1.70042e+12 -1.13432e+12 -2.06572e+12 -1.81151e+12 -2.13951e+12 -2.45999e+12 -1.66938e+12 -2.42338e+12 -1.01116e+12 -1.25934e+12 -1.76402e+12 -3.28867e+12 -1.403e+12 -963545000000.0 -1.25229e+12 -3.57396e+12 -1.518e+12 -661935000000.0 -2.41409e+12 -1.03397e+12 -2.05652e+12 -3.16071e+12 -1.70423e+12 -1.78374e+12 -1.38498e+12 -1.39519e+12 -1.5079e+12 -936204000000.0 -1.29521e+12 -1.8149e+12 -28020200000.0 -1.68514e+12 -2.07036e+12 -638892000000.0 -1.78749e+12 -2.57862e+12 -754150000000.0 -1.61623e+12 -1.02347e+12 -1.86901e+12 -1.90829e+12 -1.02394e+12 -353303000000.0 -1.6473e+12 -2.65809e+12 -1.26007e+12 -1.80125e+12 -2.0285e+12 -923164000000.0 -1.27407e+12 -2.03492e+12 -1.19537e+12 -1.48303e+12 -1.17241e+12 -393380000000.0 -1.20572e+12 -1.33881e+12 -2.49865e+12 -364506000000.0 -282570000000.0 -725403000000.0 -1.0514e+12 -574283000000.0 -695030000000.0 -716314000000.0 -818179000000.0 -186988000000.0 -757526000000.0 -192214000000.0 -817876000000.0 -670927000000.0 -336523000000.0 -294255000000.0 -1.11883e+12 -287600000000.0 -75139200000.0 -113063000000.0 -410661000000.0 -159212000000.0 -609861000000.0 -239426000000.0 -450370000000.0 -216838000000.0 -232124000000.0 -424262000000.0 -637598000000.0 -436118000000.0 -407926000000.0 -818318000000.0 -516336000000.0 -972781000000.0 -734321000000.0 -939126000000.0 -602875000000.0 -208197000000.0 -356119000000.0 -778148000000.0 -665568000000.0 -436930000000.0 -592850000000.0 -1.1419e+12 -1.21483e+12 -1.30363e+12 -1.76522e+12 -1.68654e+12 -1.21619e+12 -1.02182e+12 -1.29249e+12 -436948000000.0 -1.51641e+12 -1.44057e+12 -2.19254e+12 -1.09978e+12 -1.2058e+12 -1.80789e+12 -879748000000.0 -2.03159e+12 -1.97281e+12 -1.84146e+12 -925990000000.0 -939443000000.0 -1.11928e+12 -2.00205e+12 -2.07962e+12 -1.86284e+12 -2.6762e+12 -1.99048e+12 -1.56516e+12 -1.25871e+12 -1.48788e+12 -883229000000.0 -2.09258e+12 -1.63628e+12 -1.41082e+12 -1.66625e+12 -2.59686e+12 -1.00438e+12 -2.02394e+12 -1.01163e+12 -1.15427e+12 -662325000000.0 -1.82055e+12 -1.29246e+12 -1.07298e+12 -1.22258e+12 -657423000000.0 -1.6958e+12 -1.17726e+12 -1.07101e+12 -1.42766e+12 -854399000000.0 -1.07242e+12 -275961000000.0 -1.95517e+12 -1.70268e+12 -933420000000.0 -976775000000.0 -1.31596e+12 -901328000000.0 -776622000000.0 -713152000000.0 -184007000000.0 -936585000000.0 -445195000000.0 -1.52873e+12 -1.60956e+12 -441319000000.0 -1.09395e+12 -153557000000.0 -1.05653e+12 -344693000000.0 -165330000000.0 -437731000000.0 -447125000000.0 -366760000000.0 -515205000000.0 -51314500000.0 -435496000000.0 -272188000000.0 -149188000000.0 -678358000000.0 -490377000000.0 -305424000000.0 -77275800000.0 -140138000000.0 -157040000000.0 -230647000000.0 -321264000000.0 -302525000000.0 -431041000000.0 -107047000000.0 -263185000000.0 -204771000000.0 -466410000000.0 -662541000000.0 -359288000000.0 -296137000000.0 -303694000000.0 -925948000000.0 -312002000000.0 -515016000000.0 -730030000000.0 -706560000000.0 -725404000000.0 -577739000000.0 -549953000000.0 -795051000000.0 -1.30781e+12 -1.17288e+12 -1.35044e+12 -339093000000.0 -929052000000.0 -440362000000.0 -1.35008e+12 -1.2436e+12 -566217000000.0 -1.07578e+12 -1.04435e+12 -698761000000.0 -830167000000.0 -1.04611e+12 -880980000000.0 -2.19845e+12 -1.09195e+12 -1.30727e+12 -1.67073e+12 -624256000000.0 -1.02003e+12 -1.1142e+12 -994650000000.0 -1.49107e+12 -412153000000.0 -857294000000.0 -847224000000.0 -1.44019e+12 -1.56768e+12 -1.81128e+12 -693105000000.0 -1.15526e+12 -1.43766e+12 -1.66192e+12 -977536000000.0 -558462000000.0 -1.70085e+12 -711898000000.0 -255252000000.0 -711396000000.0 -747412000000.0 -866671000000.0 -714400000000.0 -659885000000.0 -1.05878e+12 -1.17888e+12 -452455000000.0 -1.76466e+12 -1.09306e+12 -1.14274e+12 -1.07948e+12 -1.33555e+12 -1.00032e+12 -945452000000.0 -1.04045e+12 -949914000000.0 -1.23994e+12 -727174000000.0 -638063000000.0 -798930000000.0 -641361000000.0 -995747000000.0 -274819000000.0 -184290000000.0 -585165000000.0 -605402000000.0 -1.08605e+12 -845640000000.0 -752790000000.0 -322039000000.0 -480759000000.0 -203556000000.0 -353826000000.0 -817501000000.0 -453888000000.0 -615491000000.0 -248711000000.0 -356045000000.0 -212237000000.0 -154012000000.0 -300518000000.0 -399795000000.0 -159376000000.0 -29734000000.0 -140707000000.0 -270186000000.0 -112865000000.0 -166191000000.0 -131468000000.0 -288057000000.0 -263919000000.0 -413755000000.0 -236289000000.0 -416598000000.0 -254265000000.0 -233205000000.0 -292057000000.0 -201104000000.0 -116774000000.0 -322360000000.0 -221267000000.0 -349758000000.0 -510716000000.0 -194204000000.0 -181531000000.0 -335621000000.0 -226724000000.0 -461659000000.0 -239917000000.0 -281336000000.0 -620324000000.0 -472457000000.0 -706129000000.0 -715654000000.0 -1.27541e+12 -477057000000.0 -428778000000.0 -403138000000.0 -905288000000.0 -719322000000.0 -410447000000.0 -649092000000.0 -914708000000.0 -552206000000.0 -106794000000.0 -990047000000.0 -552034000000.0 -1.03876e+12 -509883000000.0 -1.22596e+12 -1.10925e+12 -1.14401e+12 -1.05921e+12 -1.10064e+12 -468402000000.0 -949580000000.0 -1.37204e+12 -838787000000.0 -654163000000.0 -862232000000.0 -677116000000.0 -722856000000.0 -496548000000.0 -139031000000.0 -421053000000.0 -1.12378e+12 -888310000000.0 -769606000000.0 -420499000000.0 -534855000000.0 -793226000000.0 -396604000000.0 -611514000000.0 -334150000000.0 -549459000000.0 -723303000000.0 -675964000000.0 -192760000000.0 -309906000000.0 -390794000000.0 -663153000000.0 -190978000000.0 -366796000000.0 -750615000000.0 -611261000000.0 -955122000000.0 -577223000000.0 -167419000000.0 -681028000000.0 -433643000000.0 -245617000000.0 -432145000000.0 -117083000000.0 -248930000000.0 -388689000000.0 -89603200000.0 -162837000000.0 -234666000000.0 -203447000000.0 -100122000000.0 -143836000000.0 -90967100000.0 -68384000000.0 -53523500000.0 -144014000000.0 -134622000000.0 -45844400000.0 -87003600000.0 -13226100000.0 -30842100000.0 -21139900000.0 -60028500000.0 -45942700000.0 -130365000000.0 -87606200000.0 -87230600000.0 -145211000000.0 -101570000000.0 -195235000000.0 -179156000000.0 -140733000000.0 -197474000000.0 -163094000000.0 -102559000000.0 -355130000000.0 -61602400000.0 -391620000000.0 -177934000000.0 -317857000000.0 -148979000000.0 -245011000000.0 -242751000000.0 -299584000000.0 -559378000000.0 -177070000000.0 -770353000000.0 -145080000000.0 -413589000000.0 -202490000000.0 -377957000000.0 -407726000000.0 -132751000000.0 -836383000000.0 -67496000000.0 -387870000000.0 -250168000000.0 -350554000000.0 -334658000000.0 -495929000000.0 -517812000000.0 -433092000000.0 -549136000000.0 -882662000000.0 -516948000000.0 -657029000000.0 -409425000000.0 -363134000000.0 -323047000000.0 -523072000000.0 -368512000000.0 -609381000000.0 -935906000000.0 -268148000000.0 -476675000000.0 -378343000000.0 -621021000000.0 -408921000000.0 -88294800000.0 -44410100000.0 -228486000000.0 -187124000000.0 -65978700000.0 -271363000000.0 -236274000000.0 -139764000000.0 -56653500000.0 -384334000000.0 -265982000000.0 -252781000000.0 -319177000000.0 -243849000000.0 -164128000000.0 -77685200000.0 -44742600000.0 -233050000000.0 -238178000000.0 -196486000000.0 -69089900000.0 -124597000000.0 -148547000000.0 -56016000000.0 -72815500000.0 -183490000000.0 -110387000000.0 -90888100000.0 -62347200000.0 -137136000000.0 -69376700000.0 -111741000000.0 -34125000000.0 -53448100000.0 -115318000000.0 -117231000000.0 -149615000000.0 -86017700000.0 -285825000000.0 -180367000000.0 -213505000000.0 -171010000000.0 -272588000000.0 -331241000000.0 -198790000000.0 -211233000000.0 -774569000000.0 -309160000000.0 -619415000000.0 -181551000000.0 -247646000000.0 -251475000000.0 -257408000000.0 -617830000000.0 -104605000000.0 -140201000000.0 -71634500000.0 -124256000000.0 -66751300000.0 