# vtk DataFile Version 2.0
Time step 100
ASCII
DATASET UNSTRUCTURED_GRID
POINTS 4650 float
208864.0 267003.0 0
215449.0 266592.0 0
219240.0 267801.0 0
243824.0 268150.0 0
247247.0 266082.0 0
250759.0 267995.0 0
257710.0 267913.0 0
284456.0 267940.0 0
291228.0 267971.0 0
294658.0 265953.0 0
298003.0 268108.0 0
205422.0 269000.0 0
212297.0 269014.0 0
222952.0 269243.0 0
233483.0 270518.0 0
236864.0 268382.0 0
240413.0 270233.0 0
247337.0 270061.0 0
254257.0 269926.0 0
261183.0 269892.0 0
265144.0 269388.0 0
274884.0 269144.0 0
281042.0 269983.0 0
287844.0 270026.0 0
294596.0 270091.0 0
201997.0 271003.0 0
205437.0 272992.0 0
208869.0 271005.0 0
212322.0 273003.0 0
215738.0 270986.0 0
219603.0 271759.0 0
223264.0 273209.0 0
226555.0 270939.0 0
230130.0 272690.0 0
237032.0 272357.0 0
243932.0 272127.0 0
250833.0 271976.0 0
257727.0 271895.0 0
267141.0 272838.0 0
271450.0 271177.0 0
277648.0 272014.0 0
284453.0 272030.0 0
291221.0 272088.0 0
298005.0 272105.0 0
201997.0 274980.0 0
208883.0 274982.0 0
215790.0 274976.0 0
219701.0 275719.0 0
226814.0 274911.0 0
233677.0 274495.0 0
240556.0 274213.0 0
247430.0 274031.0 0
250901.0 275950.0 0
254301.0 273912.0 0
257740.0 275874.0 0
261170.0 273872.0 0
264565.0 275871.0 0
270461.0 275030.0 0
274260.0 274023.0 0
277719.0 276002.0 0
281078.0 274018.0 0
284482.0 276037.0 0
287847.0 274065.0 0
294619.0 274092.0 0
205434.0 276956.0 0
212336.0 276970.0 0
223409.0 277164.0 0
230348.0 276665.0 0
233889.0 278453.0 0
237207.0 276324.0 0
240708.0 278180.0 0
244054.0 276097.0 0
247526.0 277998.0 0
254341.0 277889.0 0
261143.0 277859.0 0
267871.0 277964.0 0
274393.0 277992.0 0
281130.0 278013.0 0
287877.0 278053.0 0
291243.0 276078.0 0
294630.0 278081.0 0
298006.0 276098.0 0
201996.0 278939.0 0
205411.0 280905.0 0
208865.0 278933.0 0
212278.0 280916.0 0
215792.0 278950.0 0
219712.0 279658.0 0
223420.0 281103.0 0
227008.0 278855.0 0
230597.0 280595.0 0
237392.0 280283.0 0
244178.0 280061.0 0
250969.0 279918.0 0
257750.0 279854.0 0
264487.0 279895.0 0
271150.0 280026.0 0
277800.0 279996.0 0
284523.0 280026.0 0
291262.0 280060.0 0
298007.0 280080.0 0
201994.0 282892.0 0
208797.0 282874.0 0
215684.0 282896.0 0
219568.0 283574.0 0
227364.0 282757.0 0
234109.0 282403.0 0
240860.0 282141.0 0
247620.0 281961.0 0
254383.0 281861.0 0
257768.0 283830.0 0
261121.0 281852.0 0
267816.0 281951.0 0
274504.0 282001.0 0
281186.0 282002.0 0
287905.0 282034.0 0
294638.0 282058.0 0
205379.0 284858.0 0
212130.0 284847.0 0
224213.0 284927.0 0
230875.0 284542.0 0
234327.0 286362.0 0
237574.0 284241.0 0
241004.0 286098.0 0
244298.0 284019.0 0
247711.0 285916.0 0
251036.0 283880.0 0
254428.0 285823.0 0
261134.0 285825.0 0
264473.0 283878.0 0
267833.0 285907.0 0
271174.0 283976.0 0
274538.0 285965.0 0
277866.0 283987.0 0
281228.0 285983.0 0
284560.0 284007.0 0
287928.0 286005.0 0
291278.0 284033.0 0
294646.0 286024.0 0
298008.0 284051.0 0
201992.0 286843.0 0
205350.0 288816.0 0
208725.0 286839.0 0
212036.0 288813.0 0
215418.0 286792.0 0
221160.0 287103.0 0
224587.0 288882.0 0
227700.0 286703.0 0
231126.0 288507.0 0
237743.0 288200.0 0
244409.0 287971.0 0
251102.0 287833.0 0
257801.0 287790.0 0
264496.0 287835.0 0
271198.0 287918.0 0
277896.0 287954.0 0
284586.0 287977.0 0
291291.0 287995.0 0
298009.0 288008.0 0
201990.0 290790.0 0
208674.0 290817.0 0
215058.0 291140.0 0
218212.0 289269.0 0
221520.0 291069.0 0
227971.0 290676.0 0
234519.0 290326.0 0
241133.0 290050.0 0
247793.0 289861.0 0
254476.0 289770.0 0
261164.0 289775.0 0
267859.0 289846.0 0
274558.0 289912.0 0
281249.0 289944.0 0
287942.0 289964.0 0
294650.0 289976.0 0
205320.0 292770.0 0
211846.0 292983.0 0
218357.0 293146.0 0
224845.0 292859.0 0
231331.0 292478.0 0
237887.0 292157.0 0
241238.0 293995.0 0
244504.0 291913.0 0
247861.0 293790.0 0
251162.0 291769.0 0
254519.0 293698.0 0
257838.0 291728.0 0
261192.0 293703.0 0
264523.0 291771.0 0
267879.0 293771.0 0
271218.0 291850.0 0
274570.0 293846.0 0
277910.0 291903.0 0
281256.0 293890.0 0
284598.0 291930.0 0
287947.0 293907.0 0
291297.0 291943.0 0
294652.0 293912.0 0
298009.0 291949.0 0
201988.0 294728.0 0
205293.0 296724.0 0
208582.0 294825.0 0
215141.0 295054.0 0
221690.0 295003.0 0
225013.0 296814.0 0
228171.0 294649.0 0
231490.0 296443.0 0
234674.0 294289.0 0
238001.0 296106.0 0
244577.0 295840.0 0
251208.0 295687.0 0
257866.0 295646.0 0
264542.0 295688.0 0
271229.0 295770.0 0
277914.0 295837.0 0
284599.0 295868.0 0
291297.0 295873.0 0
298010.0 295872.0 0
201987.0 298649.0 0
208611.0 298752.0 0
211890.0 296906.0 0
215257.0 298938.0 0
218493.0 297034.0 0
221850.0 298937.0 0
228326.0 298606.0 0
234792.0 298244.0 0
241314.0 297926.0 0
247909.0 297700.0 0
254546.0 297605.0 0
261206.0 297609.0 0
267886.0 297680.0 0
274571.0 297768.0 0
281252.0 297821.0 0
287943.0 297833.0 0
294651.0 297828.0 0
205311.0 300630.0 0
211973.0 300781.0 0
218664.0 300926.0 0
225186.0 300765.0 0
231611.0 300400.0 0
238079.0 300046.0 0
241356.0 301843.0 0
244623.0 299746.0 0
247930.0 301586.0 0
251234.0 299583.0 0
254548.0 301490.0 0
257874.0 299542.0 0
261194.0 301494.0 0
264541.0 299584.0 0
267871.0 301570.0 0
271224.0 299678.0 0
274556.0 301676.0 0
277906.0 299759.0 0
281238.0 301737.0 0
284590.0 299790.0 0
287931.0 301740.0 0
291291.0 299783.0 0
294647.0 301721.0 0
298010.0 299774.0 0
201987.0 302528.0 0
205335.0 304484.0 0
208664.0 302623.0 0
212051.0 304613.0 0
215375.0 302784.0 0
222104.0 302891.0 0
228463.0 302565.0 0
231702.0 304358.0 0
234873.0 302192.0 0
238121.0 303976.0 0
244635.0 303624.0 0
251230.0 303457.0 0
257849.0 303417.0 0
264509.0 303458.0 0
271198.0 303568.0 0
277884.0 303667.0 0
284572.0 303695.0 0
291281.0 303671.0 0
298010.0 303652.0 0
201988.0 306363.0 0
208709.0 306445.0 0
215464.0 306592.0 0
218804.0 304767.0 0
222233.0 306767.0 0
225541.0 304949.0 0
228963.0 306981.0 0
234923.0 306137.0 0
241360.0 305746.0 0
247920.0 305442.0 0
254513.0 305357.0 0
257777.0 307273.0 0
261141.0 305356.0 0
267823.0 305436.0 0
274522.0 305569.0 0
281214.0 305640.0 0
287916.0 305626.0 0
294642.0 305589.0 0
205354.0 308292.0 0
212105.0 308406.0 0
218884.0 308575.0 0
225678.0 308905.0 0
232391.0 308974.0 0
238130.0 307899.0 0
241320.0 309644.0 0
244609.0 307457.0 0
247876.0 309268.0 0
251191.0 307311.0 0
254429.0 309211.0 0
261029.0 309193.0 0
264430.0 307304.0 0
267721.0 309268.0 0
271139.0 307436.0 0
274461.0 309442.0 0
277849.0 307561.0 0
281189.0 309527.0 0
284553.0 307583.0 0
287905.0 309490.0 0
291272.0 307533.0 0
294640.0 309429.0 0
298011.0 307504.0 0
201988.0 310158.0 0
205362.0 312063.0 0
208737.0 310226.0 0
212130.0 312166.0 0
215512.0 310370.0 0
218920.0 312349.0 0
222299.0 310589.0 0
229086.0 310923.0 0
235834.0 310933.0 0
244550.0 311208.0 0
251088.0 311156.0 0
257659.0 311115.0 0
264263.0 311114.0 0
271023.0 311269.0 0
277811.0 311432.0 0
284546.0 311454.0 0
291272.0 311368.0 0
298011.0 311329.0 0
201988.0 313920.0 0
208744.0 313975.0 0
215526.0 314117.0 0
222326.0 314357.0 0
225797.0 312867.0 0
229197.0 314865.0 0
232506.0 312892.0 0
235937.0 314827.0 0
239285.0 312884.0 0
244172.0 314827.0 0
247716.0 313081.0 0
250942.0 314966.0 0
254307.0 313049.0 0
257521.0 314950.0 0
260872.0 313023.0 0
264050.0 314937.0 0
267459.0 313037.0 0
270546.0 314984.0 0
274387.0 313274.0 0
281188.0 313397.0 0
287917.0 313333.0 0
294648.0 313240.0 0
201987.0 317657.0 0
205360.0 315804.0 0
208728.0 317697.0 0
212126.0 315897.0 0
218922.0 316085.0 0
225908.0 316839.0 0
232618.0 316801.0 0
240744.0 316470.0 0
247511.0 316804.0 0
254178.0 316866.0 0
260710.0 316862.0 0
267160.0 316869.0 0
273521.0 316902.0 0
277807.0 315272.0 0
281256.0 317254.0 0
284581.0 315313.0 0
287985.0 317158.0 0
291300.0 315178.0 0
294678.0 317028.0 0
298013.0 315131.0 0
205347.0 319523.0 0
212085.0 319601.0 0
215506.0 317832.0 0
218888.0 319781.0 0
222325.0 318074.0 0
229318.0 318803.0 0
237426.0 318368.0 0
244113.0 318574.0 0
250816.0 318738.0 0
257397.0 318780.0 0
263855.0 318794.0 0
270200.0 318819.0 0
276422.0 318731.0 0
284723.0 319172.0 0
291387.0 318968.0 0
298017.0 318922.0 0
201985.0 321377.0 0
208693.0 321402.0 0
215422.0 321512.0 0
222289.0 321739.0 0
226016.0 320810.0 0
230948.0 322320.0 0
234161.0 320325.0 0
237563.0 322256.0 0
240805.0 320352.0 0
244173.0 322375.0 0
247469.0 320566.0 0
250787.0 322526.0 0
254086.0 320670.0 0
257319.0 322612.0 0
260582.0 320714.0 0
263730.0 322670.0 0
266951.0 320747.0 0
270014.0 322703.0 0
273199.0 320742.0 0
276194.0 322582.0 0
279306.0 320432.0 0
282263.0 321946.0 0
288176.0 320980.0 0
291554.0 322765.0 0
294743.0 320811.0 0
298021.0 322718.0 0
201983.0 325087.0 0
205324.0 323229.0 0
208641.0 325096.0 0
212021.0 323295.0 0
215323.0 325205.0 0
218718.0 323421.0 0
221904.0 325304.0 0
227770.0 324310.0 0
234368.0 324223.0 0
240943.0 324216.0 0
247520.0 324361.0 0
254064.0 324483.0 0
260516.0 324571.0 0
266849.0 324639.0 0
273072.0 324622.0 0
279229.0 324280.0 0
285363.0 323350.0 0
288559.0 324893.0 0
294834.0 324615.0 0
205284.0 326926.0 0
211938.0 326980.0 0
218587.0 327146.0 0
225097.0 326878.0 0
231224.0 326242.0 0
234658.0 328119.0 0
237770.0 326136.0 0
241141.0 328077.0 0
244302.0 326200.0 0
250831.0 326333.0 0
257304.0 326448.0 0
263684.0 326546.0 0
269958.0 326599.0 0
276148.0 326446.0 0
279251.0 328121.0 0
282342.0 325743.0 0
285528.0 327151.0 0
291768.0 326618.0 0
298027.0 326533.0 0
201980.0 328799.0 0
205230.0 330635.0 0
208546.0 328778.0 0
211765.0 330631.0 0
215226.0 328889.0 0
221894.0 329006.0 0
225262.0 330694.0 0
228355.0 328536.0 0
231685.0 330236.0 0
238042.0 330018.0 0
244482.0 330041.0 0
247633.0 328179.0 0
250927.0 330156.0 0
254103.0 328306.0 0
257340.0 330286.0 0
260512.0 328426.0 0
263701.0 330413.0 0
266837.0 328526.0 0
269991.0 330491.0 0
273074.0 328512.0 0
276204.0 330330.0 0
282409.0 329456.0 0
288736.0 328709.0 0
291893.0 330448.0 0
294930.0 328455.0 0
298032.0 330369.0 0
201976.0 332523.0 0
208431.0 332480.0 0
214928.0 332467.0 0
218556.0 330842.0 0
222025.0 332689.0 0
228658.0 332391.0 0
235029.0 332048.0 0
241388.0 331945.0 0
247789.0 332013.0 0
254185.0 332137.0 0
260551.0 332272.0 0
266885.0 332398.0 0
273150.0 332411.0 0
279337.0 332016.0 0
282582.0 333021.0 0
285675.0 330845.0 0
288869.0 332473.0 0
294982.0 332299.0 0
205179.0 334366.0 0
211576.0 334323.0 0
217923.0 334322.0 0
225538.0 334438.0 0
232035.0 334136.0 0
238361.0 333916.0 0
241669.0 335824.0 0
244700.0 333896.0 0
247976.0 335863.0 0
251060.0 333992.0 0
257411.0 334124.0 0
263746.0 334261.0 0
270077.0 334372.0 0
276300.0 334246.0 0
285838.0 334491.0 0
291958.0 334266.0 0
298034.0 334202.0 0
201974.0 336258.0 0
205148.0 338116.0 0
208336.0 336220.0 0
211446.0 338078.0 0
214638.0 336176.0 0
217685.0 338002.0 0
220855.0 336018.0 0
223829.0 337534.0 0
229009.0 336200.0 0
232418.0 338002.0 0
235380.0 335950.0 0
238691.0 337808.0 0
244943.0 337766.0 0
251214.0 337842.0 0
254295.0 335978.0 0
257498.0 337966.0 0
260611.0 336113.0 0
263791.0 338099.0 0
266933.0 336243.0 0
270109.0 338214.0 0
273286.0 336330.0 0
276474.0 338331.0 0
279376.0 336002.0 0
282729.0 336424.0 0
285846.0 338138.0 0
288930.0 336234.0 0
291955.0 338069.0 0
294998.0 336130.0 0
298035.0 338013.0 0
201973.0 339992.0 0
208292.0 339984.0 0
214550.0 339919.0 0
220788.0 339690.0 0
226860.0 339002.0 0
229948.0 340509.0 0
235761.0 339845.0 0
241964.0 339710.0 0
248178.0 339730.0 0
254417.0 339828.0 0
260673.0 339954.0 0
266948.0 340079.0 0
273242.0 340197.0 0
279323.0 340715.0 0
282563.0 339747.0 0
288861.0 339972.0 0
294982.0 339927.0 0
201973.0 343701.0 0
205145.0 341862.0 0
208319.0 343734.0 0
211435.0 341835.0 0
214613.0 343637.0 0
217703.0 341692.0 0
220908.0 343357.0 0
223935.0 341253.0 0
227103.0 342782.0 0
233083.0 342104.0 0
239042.0 341705.0 0
242260.0 343612.0 0
245192.0 341650.0 0
248382.0 343612.0 0
251376.0 341707.0 0
254541.0 343693.0 0
257587.0 341817.0 0
263819.0 341941.0 0
270062.0 342065.0 0
276194.0 342332.0 0
282326.0 343241.0 0
285636.0 341733.0 0
288707.0 343633.0 0
291888.0 341820.0 0
294943.0 343669.0 0
298034.0 341783.0 0
205176.0 345575.0 0
211520.0 345561.0 0
217844.0 345363.0 0
224136.0 344945.0 0
230275.0 344347.0 0
233437.0 345991.0 0
236247.0 343811.0 0
239406.0 345643.0 0
245437.0 345550.0 0
251537.0 345588.0 0
257671.0 345683.0 0
260725.0 343807.0 0
263826.0 345800.0 0
266924.0 343931.0 0
269964.0 345952.0 0
273074.0 344117.0 0
276047.0 346247.0 0
279148.0 344595.0 0
285450.0 345312.0 0
291791.0 345502.0 0
298033.0 345502.0 0
201975.0 347357.0 0
208408.0 347450.0 0
214767.0 347320.0 0
221112.0 347013.0 0
224384.0 348626.0 0
227361.0 346524.0 0
230560.0 348148.0 0
236577.0 347735.0 0
242549.0 347535.0 0
248579.0 347509.0 0
254659.0 347573.0 0
260766.0 347676.0 0
266877.0 347808.0 0
272961.0 348015.0 0
279063.0 348408.0 0
282216.0 346868.0 0
285350.0 348918.0 0
288577.0 347252.0 0
294897.0 347348.0 0
201979.0 350934.0 0
205242.0 349225.0 0
208554.0 351124.0 0
211675.0 349250.0 0
214991.0 350971.0 0
218060.0 349012.0 0
221375.0 350659.0 0
227630.0 350256.0 0
233723.0 349847.0 0
239698.0 349568.0 0
242800.0 351457.0 0
245670.0 349465.0 0
248765.0 351421.0 0
251690.0 349484.0 0
254769.0 351470.0 0
257747.0 349565.0 0
263821.0 349679.0 0
269890.0 349838.0 0
275965.0 350102.0 0
282154.0 350534.0 0
288503.0 350857.0 0
291713.0 349133.0 0
294864.0 350977.0 0
298032.0 349168.0 0
205341.0 352779.0 0
211901.0 352901.0 0
218353.0 352638.0 0
224667.0 352308.0 0
227913.0 353990.0 0
230832.0 351937.0 0
233987.0 353687.0 0
236851.0 351627.0 0
239949.0 353475.0 0
245879.0 353386.0 0
251832.0 353395.0 0
257816.0 353464.0 0
260800.0 351564.0 0
263821.0 353569.0 0
266841.0 351692.0 0
269843.0 353711.0 0
272892.0 351880.0 0
275916.0 353913.0 0
279013.0 352176.0 0
285295.0 352534.0 0
291668.0 352733.0 0
298031.0 352790.0 0
201983.0 354411.0 0
205441.0 356184.0 0
208765.0 354761.0 0
212329.0 356481.0 0
215332.0 354579.0 0
218719.0 356266.0 0
221691.0 354307.0 0
224980.0 356000.0 0
231104.0 355725.0 0
237099.0 355502.0 0
243020.0 355374.0 0
248932.0 355342.0 0
254870.0 355381.0 0
260835.0 355464.0 0
266822.0 355575.0 0
272852.0 355717.0 0
278984.0 355910.0 0
282118.0 354201.0 0
285269.0 356141.0 0
288463.0 354446.0 0
291647.0 356307.0 0
294846.0 354571.0 0
298030.0 356379.0 0
302245.0 356274.0 0
201972.0 357795.0 0
209366.0 358274.0 0
215773.0 358202.0 0
222052.0 357970.0 0
228209.0 357734.0 0
234242.0 357520.0 0
237333.0 359371.0 0
240175.0 357373.0 0
243216.0 359288.0 0
246063.0 357308.0 0
249081.0 359269.0 0
251960.0 357317.0 0
254964.0 359303.0 0
257883.0 357375.0 0
260875.0 359372.0 0
263832.0 357464.0 0
269819.0 357568.0 0
275891.0 357690.0 0
282102.0 357852.0 0
288447.0 358017.0 0
294839.0 358135.0 0
201961.0 361291.0 0
205130.0 359415.0 0
207942.0 361110.0 0
212877.0 360116.0 0
216300.0 361868.0 0
219148.0 359917.0 0
222435.0 361664.0 0
225314.0 359710.0 0
228515.0 361491.0 0
231379.0 359518.0 0
234493.0 361356.0 0
240381.0 361269.0 0
246227.0 361233.0 0
252075.0 361246.0 0
257949.0 361295.0 0
263856.0 361360.0 0
266821.0 359453.0 0
269818.0 361411.0 0
272835.0 359528.0 0
275888.0 361436.0 0
278974.0 359612.0 0
282104.0 361479.0 0
285261.0 359731.0 0
288447.0 361565.0 0
291641.0 359856.0 0
294839.0 361676.0 0
298031.0 359940.0 0
204945.0 362965.0 0
208052.0 364582.0 0
210858.0 362670.0 0
213846.0 364113.0 0
219594.0 363621.0 0
225663.0 363441.0 0
231655.0 363321.0 0
237554.0 363242.0 0
243391.0 363203.0 0
249211.0 363200.0 0
255052.0 363231.0 0
260924.0 363284.0 0
266840.0 363324.0 0
272845.0 363314.0 0
278986.0 363283.0 0
285270.0 363296.0 0
291645.0 363381.0 0
298031.0 363479.0 0
302175.0 364358.0 0
201956.0 364872.0 0
205028.0 366430.0 0
211205.0 366412.0 0
216915.0 365715.0 0
222838.0 365384.0 0
228826.0 365264.0 0
231925.0 367137.0 0
234735.0 365199.0 0
237760.0 367121.0 0
240570.0 365168.0 0
243545.0 367123.0 0
246369.0 365162.0 0
249325.0 367135.0 0
252178.0 365179.0 0
255134.0 367161.0 0
258019.0 365218.0 0
263899.0 365254.0 0
266891.0 367182.0 0
269847.0 365235.0 0
272900.0 367072.0 0
275918.0 365151.0 0
279035.0 366926.0 0
282127.0 365079.0 0
285293.0 366838.0 0
288458.0 365089.0 0
291652.0 366882.0 0
294843.0 365194.0 0
298032.0 366999.0 0
201952.0 368441.0 0
204907.0 369782.0 0
208252.0 367894.0 0
214205.0 367951.0 0
217378.0 369463.0 0
220093.0 367381.0 0
223254.0 369140.0 0
226017.0 367194.0 0
229132.0 369057.0 0
234963.0 369056.0 0
240737.0 369075.0 0
246491.0 369094.0 0
252268.0 369113.0 0
258091.0 369139.0 0
260985.0 367194.0 0
263967.0 369139.0 0
269928.0 369033.0 0
276006.0 368836.0 0
282176.0 368658.0 0
288468.0 368588.0 0
294845.0 368691.0 0
201965.0 372178.0 0
208099.0 370840.0 0
211411.0 370269.0 0
214679.0 371635.0 0
220527.0 371128.0 0
226370.0 370973.0 0
232181.0 370972.0 0
237942.0 371013.0 0
243676.0 371049.0 0
249420.0 371070.0 0
255211.0 371087.0 0
261061.0 371095.0 0
266988.0 371019.0 0
273030.0 370793.0 0
279145.0 370552.0 0
282275.0 372245.0 0
285314.0 370363.0 0
288422.0 372062.0 0
291642.0 370357.0 0
294817.0 372157.0 0
298032.0 370506.0 0
205543.0 372982.0 0
209260.0 373566.0 0
212348.0 374098.0 0
217837.0 373186.0 0
220947.0 374869.0 0
223640.0 372902.0 0
226698.0 374768.0 0
229424.0 372873.0 0
232405.0 374831.0 0
235163.0 372931.0 0
238090.0 374920.0 0
240876.0 372993.0 0
243780.0 374981.0 0
246592.0 373029.0 0
252345.0 373043.0 0
258169.0 373050.0 0
261164.0 374978.0 0
264071.0 373003.0 0
267162.0 374808.0 0
270087.0 372782.0 0
273291.0 374462.0 0
276192.0 372494.0 0
279362.0 374183.0 0
285350.0 373908.0 0
291472.0 373783.0 0
298008.0 373999.0 0
200766.0 376131.0 0
203614.0 375354.0 0
206909.0 376110.0 0
210089.0 376967.0 0
215331.0 375437.0 0
218348.0 376949.0 0
224010.0 376673.0 0
229674.0 376717.0 0
235320.0 376829.0 0
240983.0 376919.0 0
246672.0 376964.0 0
249499.0 375004.0 0
252411.0 376966.0 0
255280.0 375004.0 0
258244.0 376941.0 0
264239.0 376822.0 0
270388.0 376440.0 0
276553.0 376131.0 0
282436.0 375880.0 0
285428.0 377484.0 0
288371.0 375573.0 0
291277.0 377327.0 0
294391.0 375501.0 0
299442.0 376944.0 0
195830.0 379881.0 0
198383.0 378293.0 0
201886.0 378922.0 0
204759.0 378732.0 0
207777.0 379567.0 0
212989.0 377964.0 0
215834.0 379223.0 0
221387.0 378625.0 0
226980.0 378596.0 0
232567.0 378722.0 0
238197.0 378840.0 0
243859.0 378914.0 0
249563.0 378933.0 0
255341.0 378907.0 0
261274.0 378811.0 0
267454.0 378497.0 0
271017.0 379911.0 0
273791.0 378043.0 0
277080.0 379813.0 0
279700.0 377882.0 0
282683.0 379605.0 0
288359.0 379139.0 0
293643.0 379381.0 0
296405.0 377676.0 0
298729.0 379967.0 0
302039.0 378561.0 0
193061.0 381612.0 0
196255.0 382766.0 0
199170.0 380976.0 0
202321.0 381736.0 0
205262.0 382114.0 0
210677.0 380639.0 0
213419.0 381848.0 0
218821.0 380670.0 0
221783.0 382400.0 0
224345.0 380484.0 0
227134.0 382492.0 0
229836.0 380605.0 0
232660.0 382632.0 0
235422.0 380743.0 0
238259.0 382764.0 0
241056.0 380848.0 0
246733.0 380894.0 0
252467.0 380880.0 0
255392.0 382797.0 0
258311.0 380806.0 0
261382.0 382572.0 0
264454.0 380537.0 0
268386.0 381838.0 0
274321.0 381632.0 0
280316.0 381692.0 0
285495.0 381056.0 0
287901.0 382792.0 0
290899.0 381169.0 0
295821.0 381584.0 0
301585.0 381618.0 0
304754.0 380251.0 0
307614.0 382031.0 0
187238.0 385249.0 0
190175.0 383414.0 0
193264.0 384578.0 0
199447.0 383844.0 0
202558.0 384887.0 0
205524.0 385386.0 0
208237.0 383117.0 0
211092.0 384418.0 0
216233.0 382850.0 0
219271.0 384319.0 0
224462.0 384400.0 0
229911.0 384515.0 0
235469.0 384663.0 0
241096.0 384772.0 0
243912.0 382842.0 0
246779.0 384813.0 0
249615.0 382851.0 0
252512.0 384781.0 0
258367.0 384639.0 0
263323.0 385348.0 0
265856.0 383643.0 0
271659.0 383523.0 0
274777.0 385313.0 0
277512.0 383450.0 0
280671.0 385297.0 0
283614.0 383612.0 0
290240.0 384880.0 0
293252.0 383378.0 0
298524.0 383112.0 0
301781.0 384688.0 0
304636.0 383283.0 0
307515.0 385106.0 0
310488.0 383827.0 0
184249.0 387116.0 0
190236.0 386428.0 0
193274.0 387538.0 0
196379.0 385711.0 0
199518.0 386778.0 0
208613.0 386657.0 0
213815.0 385717.0 0
216700.0 386167.0 0
221784.0 386325.0 0
227171.0 386401.0 0
232682.0 386548.0 0
238279.0 386683.0 0
243945.0 386756.0 0
249663.0 386757.0 0
255426.0 386675.0 0
260740.0 387042.0 0
266334.0 387286.0 0
269016.0 385443.0 0
272067.0 387225.0 0
277846.0 387121.0 0
283685.0 387273.0 0
286684.0 385825.0 0
292813.0 387006.0 0
295852.0 385505.0 0
298984.0 385960.0 0
304567.0 386491.0 0
310428.0 386897.0 0
313400.0 385645.0 0
316362.0 387494.0 0
181248.0 388991.0 0
184076.0 390224.0 0
187154.0 388306.0 0
190095.0 389416.0 0
193062.0 390460.0 0
196341.0 388650.0 0
199388.0 389722.0 0
202585.0 388184.0 0
205560.0 388450.0 0
208530.0 389992.0 0
211653.0 388267.0 0
215458.0 389225.0 0
218966.0 388177.0 0
221545.0 390123.0 0
224411.0 388290.0 0
227070.0 390284.0 0
229891.0 388423.0 0
232632.0 390451.0 0
235461.0 388577.0 0
238259.0 390587.0 0
241106.0 388681.0 0
246816.0 388712.0 0
252559.0 388675.0 0
258075.0 388789.0 0
263632.0 389080.0 0
269335.0 389134.0 0
275076.0 389021.0 0
280825.0 388993.0 0
286589.0 389426.0 0
289575.0 388163.0 0
292275.0 390562.0 0
295338.0 389112.0 0
298317.0 388646.0 0
301630.0 388022.0 0
304414.0 389706.0 0
307438.0 388219.0 0
310383.0 389976.0 0
313383.0 388684.0 0
316444.0 390467.0 0
319411.0 389397.0 0
175376.0 392667.0 0
178292.0 390841.0 0
181124.0 392168.0 0
186931.0 391363.0 0
189813.0 392404.0 0
196010.0 391565.0 0
198902.0 392632.0 0
202191.0 391523.0 0
205285.0 391376.0 0
210393.0 392369.0 0
213089.0 391136.0 0
215586.0 393149.0 0
218334.0 391556.0 0
224156.0 392099.0 0
229771.0 392297.0 0
235400.0 392472.0 0
241091.0 392565.0 0
243960.0 390647.0 0
246849.0 392583.0 0
249710.0 390643.0 0
252586.0 392591.0 0
255361.0 390662.0 0
258216.0 392686.0 0
260921.0 390861.0 0
263865.0 392845.0 0
266593.0 391001.0 0
269554.0 392863.0 0
272311.0 390943.0 0
275273.0 392741.0 0
278046.0 390837.0 0
280971.0 392730.0 0
283706.0 390984.0 0
286456.0 393080.0 0
289435.0 391708.0 0
294885.0 392553.0 0
298148.0 391617.0 0
301198.0 391134.0 0
304135.0 392791.0 0
307326.0 391308.0 0
310465.0 393003.0 0
313464.0 391701.0 0
319638.0 392301.0 0
322566.0 391369.0 0
172478.0 394480.0 0
178241.0 394059.0 0
181146.0 395412.0 0
183993.0 393408.0 0
186912.0 394536.0 0
189905.0 395563.0 0
192708.0 393406.0 0
195567.0 394566.0 0
198280.0 395617.0 0
201300.0 394903.0 0
204263.0 394481.0 0
207482.0 393614.0 0
212638.0 394748.0 0
218094.0 395348.0 0
221046.0 393741.0 0
223735.0 395777.0 0
226828.0 394088.0 0
232513.0 394321.0 0
238204.0 394463.0 0
243967.0 394505.0 0
249756.0 394512.0 0
255478.0 394563.0 0
261147.0 394687.0 0
266839.0 394769.0 0
272494.0 394679.0 0
278244.0 394555.0 0
283817.0 394786.0 0
289154.0 395112.0 0
292124.0 394435.0 0
297749.0 394431.0 0
301027.0 394436.0 0
304428.0 395789.0 0
307410.0 394249.0 0
313765.0 394662.0 0
316694.0 393401.0 0
320054.0 395154.0 0
322939.0 394259.0 0
325798.0 393389.0 0
329045.0 395417.0 0
166664.0 398112.0 0
169579.0 396291.0 0
172499.0 397704.0 0
175374.0 395896.0 0
178307.0 397317.0 0
184100.0 396653.0 0
187135.0 397741.0 0
192994.0 396617.0 0
196187.0 398014.0 0
199705.0 398267.0 0
202969.0 397748.0 0
206292.0 396999.0 0
209564.0 395992.0 0
211898.0 398258.0 0
215083.0 396867.0 0
220651.0 397507.0 0
226490.0 397781.0 0
229562.0 396104.0 0
232336.0 398142.0 0
235291.0 396334.0 0
238120.0 398297.0 0
241060.0 396411.0 0
243976.0 398322.0 0
246885.0 396423.0 0
249835.0 398340.0 0
252683.0 396454.0 0
255633.0 398409.0 0
258412.0 396542.0 0
264124.0 396647.0 0
269817.0 396650.0 0
275402.0 396451.0 0
278277.0 398151.0 0
281309.0 396460.0 0
286322.0 396960.0 0
289496.0 398269.0 0
292666.0 398323.0 0
295060.0 396134.0 0
298602.0 397258.0 0
301850.0 397774.0 0
307936.0 397101.0 0
310845.0 395940.0 0
314318.0 397576.0 0
317170.0 396286.0 0
320565.0 398006.0 0
323433.0 397124.0 0
326256.0 396322.0 0
329444.0 398422.0 0
332236.0 397413.0 0
163709.0 399958.0 0
169594.0 399500.0 0
172550.0 400940.0 0
175451.0 399148.0 0
178443.0 400602.0 0
181274.0 398689.0 0
184298.0 399891.0 0
187425.0 400878.0 0
190293.0 398704.0 0
193648.0 399670.0 0
197594.0 400913.0 0
201422.0 400854.0 0
205018.0 400259.0 0
208511.0 399355.0 0
214385.0 400440.0 0
217576.0 399070.0 0
223326.0 399427.0 0
229300.0 399832.0 0
235144.0 400154.0 0
241024.0 400206.0 0
246944.0 400219.0 0
252807.0 400274.0 0
258608.0 400368.0 0
261385.0 398510.0 0
264390.0 400454.0 0
267123.0 398570.0 0
270144.0 400455.0 0
272793.0 398488.0 0
275788.0 400264.0 0
281098.0 399749.0 0
284065.0 399325.0 0
287149.0 400731.0 0
296069.0 399428.0 0
299517.0 400371.0 0
305225.0 398840.0 0
308700.0 399944.0 0
311498.0 398837.0 0
314876.0 400581.0 0
317690.0 399215.0 0
320766.0 401022.0 0
323722.0 400101.0 0
326608.0 399331.0 0
332584.0 400481.0 0
335377.0 399378.0 0
160737.0 401815.0 0
163626.0 403137.0 0
166604.0 401291.0 0
169489.0 402694.0 0
175559.0 402402.0 0
181479.0 401991.0 0
184597.0 403113.0 0
190702.0 401686.0 0
194122.0 402357.0 0
203744.0 403355.0 0
207383.0 402563.0 0
210952.0 401583.0 0
216933.0 402721.0 0
220107.0 401270.0 0
222869.0 402919.0 0
226159.0 401395.0 0
229043.0 403507.0 0
232123.0 401918.0 0
238017.0 402077.0 0
244006.0 402085.0 0
249939.0 402132.0 0
255789.0 402224.0 0
261610.0 402318.0 0
267428.0 402365.0 0
273207.0 402284.0 0
278850.0 401939.0 0
282393.0 402796.0 0
285425.0 403635.0 0
290674.0 401427.0 0
293961.0 401911.0 0
297350.0 402785.0 0
300794.0 403601.0 0
302822.0 401052.0 0
306148.0 401938.0 0
309460.0 402862.0 0
312140.0 401844.0 0
317770.0 402387.0 0
323964.0 403077.0 0
326878.0 402377.0 0
329753.0 401478.0 0
332827.0 403611.0 0
335662.0 402495.0 0
338471.0 401314.0 0
341538.0 403232.0 0
154767.0 405547.0 0
157754.0 403680.0 0
160648.0 405000.0 0
166507.0 404512.0 0
169372.0 405967.0 0
172356.0 404109.0 0
175172.0 405488.0 0
178639.0 403901.0 0
181827.0 405301.0 0
187879.0 403954.0 0
191148.0 404638.0 0
194279.0 405405.0 0
197030.0 403950.0 0
200185.0 403715.0 0
206086.0 405624.0 0
209868.0 404767.0 0
213492.0 403818.0 0
216090.0 406185.0 0
219529.0 405084.0 0
222617.0 406113.0 0
225881.0 404895.0 0
231828.0 405689.0 0
234951.0 403934.0 0
237927.0 405771.0 0
241006.0 403931.0 0
244106.0 405789.0 0
247039.0 403976.0 0
250041.0 405912.0 0
252930.0 404073.0 0
255924.0 406022.0 0
258787.0 404173.0 0
261814.0 406105.0 0
264645.0 404242.0 0
267724.0 406124.0 0
270518.0 404229.0 0
273707.0 406000.0 0
276368.0 404004.0 0
279833.0 405350.0 0
288704.0 404198.0 0
292095.0 404796.0 0
295430.0 405395.0 0
298838.0 406129.0 0
304205.0 404320.0 0
307720.0 405074.0 0
311653.0 405297.0 0
314754.0 403937.0 0
317921.0 405452.0 0
320961.0 403980.0 0
324040.0 406079.0 0
327020.0 405482.0 0
329950.0 404588.0 0
335856.0 405675.0 0
338703.0 404455.0 0
344598.0 405145.0 0
151773.0 407420.0 0
154685.0 408749.0 0
157670.0 406875.0 0
160586.0 408226.0 0
163545.0 406361.0 0
166444.0 407788.0 0
172200.0 407422.0 0
177846.0 406831.0 0
180377.0 408069.0 0
183305.0 408727.0 0
185244.0 406266.0 0
188502.0 407099.0 0
191690.0 407761.0 0
195180.0 407964.0 0
198381.0 406779.0 0
202206.0 406409.0 0
205650.0 408622.0 0
209003.0 407849.0 0
212545.0 407058.0 0
218405.0 408802.0 0
225245.0 408380.0 0
228607.0 407178.0 0
234741.0 407644.0 0
241149.0 407558.0 0
247131.0 407733.0 0
253030.0 407866.0 0
258935.0 407959.0 0
264883.0 408003.0 0
270866.0 407930.0 0
277111.0 407534.0 0
283167.0 406426.0 0
286635.0 407080.0 0
290132.0 407592.0 0
293597.0 408184.0 0
297033.0 408788.0 0
302293.0 406836.0 0
305773.0 407454.0 0
309377.0 407788.0 0
312601.0 408391.0 0
315069.0 407076.0 0
317815.0 408723.0 0
320893.0 406953.0 0
327027.0 408612.0 0
330034.0 407742.0 0
332976.0 406790.0 0
338913.0 407640.0 0
341753.0 406374.0 0
344759.0 408298.0 0
347646.0 407052.0 0
145744.0 411188.0 0
148767.0 409298.0 0
151689.0 410624.0 0
157613.0 410103.0 0
163515.0 409627.0 0
166463.0 411106.0 0
169322.0 409336.0 0
172138.0 410859.0 0
174979.0 408873.0 0
177759.0 410290.0 0
180846.0 411318.0 0
186415.0 409714.0 0
189545.0 410425.0 0
192965.0 410642.0 0
196538.0 410340.0 0
199634.0 409466.0 0
202682.0 409389.0 0
207945.0 411157.0 0
211383.0 410350.0 0
214894.0 409576.0 0
221701.0 409081.0 0
227720.0 410730.0 0
231354.0 409410.0 0
235401.0 410986.0 0
238205.0 409280.0 0
241284.0 411259.0 0
244205.0 409516.0 0
250115.0 409701.0 0
256022.0 409812.0 0
261982.0 409866.0 0
268011.0 409849.0 0
274084.0 409586.0 0
277260.0 410994.0 0
280624.0 408937.0 0
284403.0 409835.0 0
288142.0 410370.0 0
291734.0 410943.0 0
300514.0 409424.0 0
304064.0 410002.0 0
307699.0 410417.0 0
311252.0 410944.0 0
315020.0 410811.0 0
321025.0 409821.0 0
323966.0 409033.0 0
330541.0 410767.0 0
333293.0 409933.0 0
336091.0 408877.0 0
338977.0 410938.0 0
341864.0 409593.0 0
347774.0 410196.0 0
350703.0 408963.0 0
353792.0 410893.0 0
142704.0 413088.0 0
148671.0 412499.0 0
151605.0 413855.0 0
154621.0 411982.0 0
157566.0 413357.0 0
160557.0 411481.0 0
163530.0 412904.0 0
169371.0 412811.0 0
174931.0 412335.0 0
177896.0 413554.0 0
184047.0 412051.0 0
187399.0 413180.0 0
190923.0 413422.0 0
194469.0 413330.0 0
197918.0 412942.0 0
201136.0 412457.0 0
204593.0 412000.0 0
209999.0 413711.0 0
213475.0 412966.0 0
216957.0 412295.0 0
220391.0 412107.0 0
224080.0 411713.0 0
229671.0 413337.0 0
232705.0 412487.0 0
238416.0 412997.0 0
244240.0 413295.0 0
247183.0 411514.0 0
250142.0 413505.0 0
253092.0 411666.0 0
256084.0 413605.0 0
259038.0 411731.0 0
262087.0 413603.0 0
265082.0 411729.0 0
268249.0 413534.0 0
271205.0 411616.0 0
274403.0 413298.0 0
280218.0 412276.0 0
283297.0 412916.0 0
286572.0 413207.0 0
290032.0 413740.0 0
295265.0 411535.0 0
298775.0 412104.0 0
302343.0 412614.0 0
305974.0 413037.0 0
309569.0 413483.0 0
313251.0 413662.0 0
318384.0 411821.0 0
321868.0 412476.0 0
324893.0 411819.0 0
327837.0 411551.0 0
333227.0 413281.0 0
336106.0 412237.0 0
341857.0 412869.0 0
344825.0 411500.0 0
347856.0 413362.0 0
350836.0 412081.0 0
353982.0 413968.0 0
356936.0 412857.0 0
139634.0 415006.0 0
142604.0 416265.0 0
145652.0 414384.0 0
148607.0 415741.0 0
154542.0 415236.0 0
157474.0 416628.0 0
160528.0 414745.0 0
163523.0 416158.0 0
166535.0 414421.0 0
169464.0 416402.0 0
172175.0 414404.0 0
175062.0 415775.0 0
180971.0 414417.0 0
184021.0 415094.0 0
186791.0 416332.0 0
189669.0 416398.0 0
192827.0 416396.0 0
196162.0 416087.0 0
199548.0 415681.0 0
202981.0 415113.0 0
206530.0 414493.0 0
211902.0 416345.0 0
215379.0 415712.0 0
218858.0 415289.0 0
222541.0 414969.0 0
226284.0 414344.0 0
232476.0 415958.0 0
235547.0 414675.0 0
241295.0 415057.0 0
247170.0 415322.0 0
253114.0 415472.0 0
259104.0 415505.0 0
265170.0 415415.0 0
271486.0 415303.0 0
277563.0 414717.0 0
281010.0 415677.0 0
284588.0 416165.0 0
288112.0 416551.0 0
293543.0 414307.0 0
297080.0 414863.0 0
300664.0 415323.0 0
304306.0 415708.0 0
307943.0 416108.0 0
311587.0 416415.0 0
316583.0 414198.0 0
320079.0 414869.0 0
323773.0 414999.0 0
327040.0 414630.0 0
330275.0 414104.0 0
332804.0 416637.0 0
335877.0 415688.0 0
338874.0 414316.0 0
341781.0 416143.0 0
344843.0 414714.0 0
348016.0 416505.0 0
351005.0 415196.0 0
357184.0 415904.0 0
360132.0 414854.0 0
133355.0 418930.0 0
136521.0 416951.0 0
139508.0 418157.0 0
145589.0 417609.0 0
148589.0 419015.0 0
151570.0 417138.0 0
154537.0 418561.0 0
160395.0 418002.0 0
166571.0 417643.0 0
172287.0 417994.0 0
175408.0 419157.0 0
178148.0 416816.0 0
181284.0 417614.0 0
184388.0 418486.0 0
197728.0 418847.0 0
201245.0 418299.0 0
204815.0 417668.0 0
208399.0 417030.0 0
213625.0 419113.0 0
217008.0 418642.0 0
220350.0 418259.0 0
223520.0 418148.0 0
226492.0 417750.0 0
229393.0 416792.0 0
235188.0 418343.0 0
238311.0 416790.0 0
241110.0 418851.0 0
244173.0 417109.0 0
247091.0 419138.0 0
250119.0 417317.0 0
256112.0 417401.0 0
262155.0 417353.0 0
265233.0 419143.0 0
268263.0 417152.0 0
271279.0 418846.0 0
274804.0 417092.0 0
278487.0 418184.0 0
282263.0 418851.0 0
291680.0 417079.0 0
295287.0 417622.0 0
298934.0 418097.0 0
302643.0 418432.0 0
306342.0 418777.0 0
309997.0 419140.0 0
315068.0 416882.0 0
318541.0 417360.0 0
322213.0 417598.0 0
325900.0 417600.0 0
329400.0 417180.0 0
335414.0 419139.0 0
338657.0 417707.0 0
342038.0 419269.0 0
345020.0 417863.0 0
351201.0 418330.0 0
354200.0 417048.0 0
357458.0 418953.0 0
360434.0 417891.0 0
363364.0 416875.0 0
366597.0 418897.0 0
130133.0 420944.0 0
136353.0 420075.0 0
139387.0 421314.0 0
142520.0 419460.0 0
145555.0 420851.0 0
151604.0 420461.0 0
157503.0 420004.0 0
160472.0 421408.0 0
163295.0 419335.0 0
166260.0 420557.0 0
169467.0 420106.0 0
172732.0 421456.0 0
178593.0 420101.0 0
181817.0 420870.0 0
185287.0 421498.0 0
187855.0 419551.0 0
191027.0 419660.0 0
194326.0 419313.0 0
199391.0 421471.0 0
203018.0 420826.0 0
206628.0 420234.0 0
210173.0 419678.0 0
218727.0 421628.0 0
222107.0 421415.0 0
225524.0 421168.0 0
228854.0 420481.0 0
231999.0 419535.0 0
237909.0 420521.0 0
243997.0 420894.0 0
250056.0 421127.0 0
253099.0 419282.0 0
256108.0 421201.0 0
259140.0 419288.0 0
262203.0 421117.0 0
268324.0 420887.0 0
273940.0 420511.0 0
276900.0 421189.0 0
280216.0 421579.0 0
285932.0 419357.0 0
289550.0 419795.0 0
293221.0 420310.0 0
296957.0 420841.0 0
300848.0 421155.0 0
304702.0 421459.0 0
308427.0 421845.0 0
313554.0 419572.0 0
317097.0 420000.0 0
320722.0 420231.0 0
324412.0 420291.0 0
328131.0 420121.0 0
331760.0 419674.0 0
339190.0 420838.0 0
345196.0 421077.0 0
348201.0 419682.0 0
351487.0 421475.0 0
354463.0 420136.0 0
360713.0 420943.0 0
363683.0 419948.0 0
369800.0 420902.0 0
126862.0 422989.0 0
129867.0 424044.0 0
133136.0 422035.0 0
136182.0 423197.0 0
139266.0 424467.0 0
142451.0 422659.0 0
145541.0 424097.0 0
148611.0 422306.0 0
151693.0 423798.0 0
154636.0 421939.0 0
157686.0 423455.0 0
163543.0 422663.0 0
166995.0 423337.0 0
170197.0 423614.0 0
175949.0 422558.0 0
179166.0 423405.0 0
182505.0 423938.0 0
185880.0 424294.0 0
188961.0 422874.0 0
192494.0 422660.0 0
195885.0 422108.0 0
201208.0 423946.0 0
204835.0 423383.0 0
208388.0 422916.0 0
211883.0 422454.0 0
215317.0 422008.0 0
224134.0 424378.0 0
227770.0 423943.0 0
231287.0 423212.0 0
234608.0 422051.0 0
237388.0 424195.0 0
240770.0 422552.0 0
246957.0 422934.0 0
253058.0 423096.0 0
259148.0 423079.0 0
265310.0 422893.0 0
271309.0 422808.0 0
274498.0 424093.0 0
283729.0 422115.0 0
287262.0 422582.0 0
290762.0 423020.0 0
294187.0 423497.0 0
297383.0 424015.0 0
300496.0 424238.0 0
303730.0 424329.0 0
312049.0 422276.0 0
315641.0 422678.0 0
319271.0 422941.0 0
322922.0 423038.0 0
326575.0 422971.0 0
330162.0 422745.0 0
333556.0 422352.0 0
336664.0 422210.0 0
342187.0 422575.0 0
345691.0 424205.0 0
348562.0 422846.0 0
354702.0 423293.0 0
357704.0 422039.0 0
360897.0 424039.0 0
363920.0 423052.0 0
366889.0 422028.0 0
370039.0 424097.0 0
372961.0 422881.0 0
123553.0 425059.0 0
126560.0 426100.0 0
132922.0 425139.0 0
136022.0 426318.0 0
142377.0 425850.0 0
148658.0 425599.0 0
154815.0 425324.0 0
157989.0 426910.0 0
160800.0 424817.0 0
164138.0 425776.0 0
167525.0 426373.0 0
170905.0 426904.0 0
173550.0 425038.0 0
176764.0 426051.0 0
180237.0 426607.0 0
183819.0 426952.0 0
187604.0 426603.0 0
190878.0 425886.0 0
194358.0 425604.0 0
197612.0 424753.0 0
203023.0 426486.0 0
206554.0 426104.0 0
210066.0 425712.0 0
213564.0 425317.0 0
217055.0 424939.0 0
220558.0 424643.0 0
230073.0 426676.0 0
233879.0 425810.0 0
240509.0 426134.0 0
243784.0 424612.0 0
246761.0 426730.0 0
249945.0 424917.0 0
252997.0 426901.0 0
256110.0 425007.0 0
259215.0 426910.0 0
262206.0 424877.0 0
265258.0 426592.0 0
268486.0 424641.0 0
271858.0 426726.0 0
278016.0 424537.0 0
281535.0 424940.0 0
285076.0 425414.0 0
288588.0 425873.0 0
292044.0 426357.0 0
295469.0 426878.0 0
307129.0 424606.0 0
310651.0 425013.0 0
314229.0 425399.0 0
317854.0 425682.0 0
321504.0 425834.0 0
325150.0 425846.0 0
328760.0 425737.0 0
332299.0 425518.0 0
335730.0 425283.0 0
339251.0 424517.0 0
342889.0 425598.0 0
348901.0 426139.0 0
351761.0 424719.0 0
354839.0 426561.0 0
357846.0 425203.0 0
364031.0 426200.0 0
367061.0 425203.0 0
373134.0 426141.0 0
376080.0 424833.0 0
379158.0 426759.0 0
116873.0 429238.0 0
120219.0 427144.0 0
123233.0 428195.0 0
126301.0 429225.0 0
129622.0 427150.0 0
132734.0 428246.0 0
135892.0 429438.0 0
139158.0 427620.0 0
142314.0 429048.0 0
145502.0 427334.0 0
148623.0 428868.0 0
151817.0 427120.0 0
155060.0 428666.0 0
161248.0 428137.0 0
164610.0 428921.0 0
167949.0 429442.0 0
174392.0 428755.0 0
178024.0 429280.0 0
181729.0 429625.0 0
185553.0 429595.0 0
189239.0 429323.0 0
192753.0 428861.0 0
196369.0 428544.0 0
199440.0 427090.0 0
200978.0 429502.0 0
204550.0 429248.0 0
208110.0 428921.0 0
211671.0 428564.0 0
215236.0 428203.0 0
218816.0 427866.0 0
222459.0 427543.0 0
226218.0 427177.0 0
234345.0 429448.0 0
237203.0 427760.0 0
243522.0 428326.0 0
249797.0 428662.0 0
256123.0 428779.0 0
262375.0 428711.0 0
268326.0 428018.0 0
275679.0 427370.0 0
279361.0 427829.0 0
282962.0 428267.0 0
286531.0 428728.0 0
290062.0 429209.0 0
293593.0 429670.0 0
298941.0 427230.0 0
302406.0 427346.0 0
305834.0 427514.0 0
309304.0 427825.0 0
312850.0 428171.0 0
316459.0 428459.0 0
320103.0 428648.0 0
323751.0 428728.0 0
327366.0 428706.0 0
330911.0 428597.0 0
334331.0 428448.0 0
337605.0 428020.0 0
340480.0 427585.0 0
343299.0 428997.0 0
346083.0 427506.0 0
349122.0 429578.0 0
351934.0 428103.0 0
357863.0 428459.0 0
360952.0 427182.0 0
364058.0 429368.0 0
367130.0 428415.0 0
370151.0 427342.0 0
373178.0 429465.0 0
376169.0 428152.0 0
382263.0 428701.0 0
113527.0 431333.0 0
119895.0 430317.0 0
122973.0 431352.0 0
129421.0 430266.0 0
132590.0 431358.0 0
139082.0 430778.0 0
142286.0 432263.0 0
145466.0 430603.0 0
148576.0 432212.0 0
151724.0 430364.0 0
154784.0 431797.0 0
158411.0 430378.0 0
161971.0 431455.0 0
165539.0 432113.0 0
171227.0 429858.0 0
176103.0 432110.0 0
190937.0 432139.0 0
194577.0 431793.0 0
198260.0 431644.0 0
202198.0 432212.0 0
205955.0 432043.0 0
209627.0 431752.0 0
213265.0 431426.0 0
216886.0 431095.0 0
220508.0 430767.0 0
224125.0 430429.0 0
227666.0 430139.0 0
231048.0 429892.0 0
240136.0 429695.0 0
243273.0 432007.0 0
246538.0 430567.0 0
252916.0 430694.0 0
259339.0 430734.0 0
265670.0 430428.0 0
270405.0 430306.0 0
273777.0 430236.0 0
277368.0 430715.0 0
280973.0 431159.0 0
284566.0 431598.0 0
288151.0 432053.0 0
297186.0 430052.0 0
300802.0 430278.0 0
304357.0 430457.0 0
307881.0 430699.0 0
311440.0 430994.0 0
315051.0 431269.0 0
318701.0 431480.0 0
322366.0 431607.0 0
326020.0 431650.0 0
329642.0 431617.0 0
333210.0 431530.0 0
336725.0 431304.0 0
340074.0 430921.0 0
343179.0 432046.0 0
346317.0 430929.0 0
351969.0 431664.0 0
354863.0 429956.0 0
357816.0 431805.0 0
360935.0 430335.0 0
367095.0 431661.0 0
370165.0 430643.0 0
376152.0 431531.0 0
379215.0 430028.0 0
382336.0 431945.0 0
385413.0 430670.0 0
110193.0 433420.0 0
113248.0 434610.0 0
116563.0 432457.0 0
119651.0 433518.0 0
122787.0 434535.0 0
126100.0 432367.0 0
129275.0 433392.0 0
132499.0 434471.0 0
135806.0 432558.0 0
139053.0 433942.0 0
145466.0 433930.0 0
151635.0 433733.0 0
157478.0 433531.0 0
160332.0 434369.0 0
163517.0 434872.0 0
169087.0 432567.0 0
172796.0 432413.0 0
179717.0 432382.0 0
183477.0 432470.0 0
187236.0 432393.0 0
196221.0 434805.0 0
199865.0 434811.0 0
207505.0 434853.0 0
211213.0 434597.0 0
214885.0 434305.0 0
218535.0 434004.0 0
222164.0 433705.0 0
225759.0 433437.0 0
229332.0 433210.0 0
232930.0 432890.0 0
236536.0 432335.0 0
239928.0 432959.0 0
245804.0 434691.0 0
249640.0 432311.0 0
252769.0 434548.0 0
256104.0 432447.0 0
259440.0 434526.0 0
262692.0 432449.0 0
268110.0 433042.0 0
271886.0 433468.0 0
275456.0 433674.0 0
279061.0 434083.0 0
282674.0 434499.0 0
291754.0 432483.0 0
295394.0 432844.0 0
299067.0 433126.0 0
302716.0 433354.0 0
306329.0 433588.0 0
309940.0 433845.0 0
313581.0 434103.0 0
317254.0 434323.0 0
320944.0 434485.0 0
324630.0 434574.0 0
328300.0 434593.0 0
331947.0 434549.0 0
335584.0 434413.0 0
339193.0 434203.0 0
342553.0 434830.0 0
346034.0 434261.0 0
349136.0 433166.0 0
354825.0 433433.0 0
360790.0 433507.0 0
363966.0 432561.0 0
370042.0 433988.0 0
373118.0 432863.0 0
379184.0 433285.0 0
385525.0 433920.0 0
388611.0 432671.0 0
391838.0 434691.0 0
106883.0 435495.0 0
109968.0 436768.0 0
116356.0 435716.0 0
119506.0 436758.0 0
125965.0 435528.0 0
129183.0 436529.0 0
135769.0 435671.0 0
139067.0 437106.0 0
142307.0 435490.0 0
145529.0 437322.0 0
148568.0 435672.0 0
151587.0 437220.0 0
154625.0 435272.0 0
157846.0 437075.0 0
166989.0 435300.0 0
170656.0 435424.0 0
174239.0 435391.0 0
177746.0 435302.0 0
181424.0 435381.0 0
185158.0 435378.0 0
188892.0 435256.0 0
192582.0 435027.0 0
203735.0 435000.0 0
212825.0 437473.0 0
216516.0 437214.0 0
220181.0 436950.0 0
223818.0 436701.0 0
227443.0 436469.0 0
231081.0 436208.0 0
234708.0 435863.0 0
238219.0 435850.0 0
242129.0 435675.0 0
249261.0 435681.0 0
256123.0 435870.0 0
262779.0 435964.0 0
266300.0 436024.0 0
269943.0 436400.0 0
273613.0 436758.0 0
277215.0 437061.0 0
280833.0 437438.0 0
286290.0 434918.0 0
289929.0 435316.0 0
293600.0 435665.0 0
297295.0 435956.0 0
300989.0 436216.0 0
304666.0 436459.0 0
308337.0 436704.0 0
312022.0 436946.0 0
315731.0 437168.0 0
319460.0 437351.0 0
323191.0 437488.0 0
334241.0 437477.0 0
337876.0 437342.0 0
345186.0 437325.0 0
348802.0 436637.0 0
351939.0 435364.0 0
354918.0 436942.0 0
357694.0 435299.0 0
360538.0 436662.0 0
363688.0 435782.0 0
366878.0 434933.0 0
369607.0 437335.0 0
372905.0 436317.0 0
376018.0 434999.0 0
379074.0 436472.0 0
382352.0 435155.0 0
385595.0 437154.0 0
388754.0 435957.0 0
395057.0 436710.0 0
100353.0 439589.0 0
103603.0 437551.0 0
106733.0 438919.0 0
113106.0 437937.0 0
116284.0 439025.0 0
119494.0 440046.0 0
122692.0 437751.0 0
125907.0 438718.0 0
129148.0 439683.0 0
132442.0 437578.0 0
135735.0 438758.0 0
142375.0 438694.0 0
148615.0 439296.0 0
154798.0 438518.0 0
161183.0 437788.0 0
164731.0 438111.0 0
168413.0 438322.0 0
172094.0 438420.0 0
175742.0 438420.0 0
179377.0 438377.0 0
183078.0 438381.0 0
186800.0 438325.0 0
190506.0 438189.0 0
194172.0 438007.0 0
197813.0 437883.0 0
201519.0 437844.0 0
205331.0 437857.0 0
209100.0 437704.0 0
221831.0 439940.0 0
225484.0 439724.0 0
229129.0 439499.0 0
232754.0 439251.0 0
236311.0 439102.0 0
239931.0 438924.0 0
243468.0 438864.0 0
246883.0 438502.0 0
250531.0 438844.0 0
253964.0 438690.0 0
257658.0 438949.0 0
261066.0 439040.0 0
264638.0 439273.0 0
268177.0 439465.0 0
271782.0 439779.0 0
284467.0 437821.0 0
288124.0 438188.0 0
291809.0 438520.0 0
295516.0 438811.0 0
299229.0 439075.0 0
302942.0 439325.0 0
306655.0 439565.0 0
310377.0 439796.0 0
314120.0 440011.0 0
326896.0 437553.0 0
330578.0 437555.0 0
341400.0 437523.0 0
347868.0 439756.0 0
351694.0 439033.0 0
355252.0 439829.0 0
358549.0 438950.0 0
362630.0 439013.0 0
366183.0 438224.0 0
372397.0 439692.0 0
375821.0 438575.0 0
379108.0 439449.0 0
382384.0 438306.0 0
388715.0 439274.0 0
391933.0 438050.0 0
398252.0 438715.0 0
97125.8 441614.0 0
103541.0 441054.0 0
106779.0 442403.0 0
109913.0 440172.0 0
113133.0 441322.0 0
116380.0 442388.0 0
122728.0 441016.0 0
125981.0 441955.0 0
132411.0 440690.0 0
135686.0 441835.0 0
139020.0 440252.0 0
142262.0 441766.0 0
145657.0 440758.0 0
151658.0 440680.0 0
155131.0 441424.0 0
158607.0 440594.0 0
162374.0 440961.0 0
166131.0 441190.0 0
169877.0 441354.0 0
173602.0 441438.0 0
177304.0 441449.0 0
180994.0 441424.0 0
184705.0 441395.0 0
188414.0 441318.0 0
192098.0 441189.0 0
195759.0 441043.0 0
199437.0 440919.0 0
203168.0 440833.0 0
206955.0 440755.0 0
210722.0 440594.0 0
214456.0 440387.0 0
218157.0 440163.0 0
230780.0 442579.0 0
234377.0 442419.0 0
237973.0 442264.0 0
241541.0 442171.0 0
245117.0 442037.0 0
248594.0 441974.0 0
252201.0 442092.0 0
255727.0 442106.0 0
259305.0 442317.0 0
262853.0 442446.0 0
266433.0 442651.0 0
275412.0 440105.0 0
279033.0 440424.0 0
282673.0 440767.0 0
286338.0 441103.0 0
290028.0 441416.0 0
293739.0 441699.0 0
297461.0 441960.0 0
301190.0 442206.0 0
304925.0 442439.0 0
308671.0 442659.0 0
317886.0 440203.0 0
321669.0 440365.0 0
325449.0 440501.0 0
329170.0 440557.0 0
332862.0 440535.0 0
336541.0 440439.0 0
340189.0 440428.0 0
343977.0 440218.0 0
350262.0 442336.0 0
353796.0 442400.0 0
357704.0 442216.0 0
361252.0 441716.0 0
365148.0 441339.0 0
368833.0 440583.0 0
375092.0 442132.0 0
378522.0 442290.0 0
382078.0 441519.0 0
385432.0 440439.0 0
388358.0 442634.0 0
391747.0 441442.0 0
395057.0 440156.0 0
398148.0 442251.0 0
401431.0 440714.0 0
404596.0 442706.0 0
93898.9 443636.0 0
97236.5 445238.0 0
100385.0 443164.0 0
103696.0 444615.0 0
110053.0 443634.0 0
113356.0 444762.0 0
119648.0 443387.0 0
122925.0 444333.0 0
126206.0 445239.0 0
129256.0 442887.0 0
132563.0 443854.0 0
135930.0 444979.0 0
138876.0 443459.0 0
141807.0 444803.0 0
145230.0 443985.0 0
148813.0 443146.0 0
152631.0 443879.0 0
156618.0 444028.0 0
160196.0 443845.0 0
163925.0 444078.0 0
167673.0 444266.0 0
171425.0 444403.0 0
175167.0 444476.0 0
178892.0 444494.0 0
182607.0 444479.0 0
186320.0 444440.0 0
190019.0 444359.0 0
193695.0 444232.0 0
197369.0 444079.0 0
201072.0 443932.0 0
204819.0 443805.0 0
208599.0 443682.0 0
212364.0 443523.0 0
216100.0 443342.0 0
219805.0 443154.0 0
223484.0 442966.0 0
227144.0 442775.0 0
270012.0 442875.0 0
273623.0 443159.0 0
277255.0 443459.0 0
280899.0 443761.0 0
284566.0 444065.0 0
288257.0 444355.0 0
291969.0 444626.0 0
295694.0 444878.0 0
299428.0 445116.0 0
312435.0 442864.0 0
316222.0 443050.0 0
320035.0 443214.0 0
323874.0 443363.0 0
327731.0 443547.0 0
331452.0 443600.0 0
335161.0 443533.0 0
338864.0 443441.0 0
342642.0 443212.0 0
346470.0 442820.0 0
356393.0 445118.0 0
360224.0 444816.0 0
363944.0 444293.0 0
367760.0 443732.0 0
371474.0 442980.0 0
377547.0 445198.0 0
381269.0 444645.0 0
384883.0 443735.0 0
391243.0 444848.0 0
394733.0 443611.0 0
401210.0 444359.0 0
407750.0 444686.0 0
87032.4 447909.0 0
90643.5 445674.0 0
94064.4 447279.0 0
100641.0 446779.0 0
107039.0 445940.0 0
110411.0 447148.0 0
116681.0 445807.0 0
120022.0 446786.0 0
123375.0 447712.0 0
129479.0 446122.0 0
132731.0 446997.0 0
135985.0 447864.0 0
139302.0 447037.0 0
143416.0 447270.0 0
147042.0 446695.0 0
150511.0 446574.0 0
154320.0 446852.0 0
158101.0 447008.0 0
161766.0 447031.0 0
165495.0 447206.0 0
169246.0 447361.0 0
173003.0 447476.0 0
176755.0 447542.0 0
180495.0 447566.0 0
184223.0 447557.0 0
187938.0 447519.0 0
191635.0 447438.0 0
195308.0 447292.0 0
198994.0 447109.0 0
202717.0 446929.0 0
206480.0 446773.0 0
210258.0 446635.0 0
214020.0 446491.0 0
217752.0 446342.0 0
221456.0 446188.0 0
225133.0 446032.0 0
228787.0 445875.0 0
232412.0 445731.0 0
236023.0 445597.0 0
239616.0 445494.0 0
243206.0 445399.0 0
246767.0 445345.0 0
250317.0 445341.0 0
253904.0 445420.0 0
257463.0 445516.0 0
261058.0 445676.0 0
264644.0 445832.0 0
268244.0 446033.0 0
271852.0 446263.0 0
275483.0 446525.0 0
279133.0 446799.0 0
282803.0 447072.0 0
286495.0 447339.0 0
290205.0 447593.0 0
293930.0 447834.0 0
303173.0 445340.0 0
306930.0 445549.0 0
310703.0 445742.0 0
314495.0 445916.0 0
318312.0 446068.0 0
322158.0 446200.0 0
326050.0 446332.0 0
330032.0 446680.0 0
333771.0 446654.0 0
337496.0 446536.0 0
341283.0 446282.0 0
345112.0 445921.0 0
348922.0 445522.0 0
352621.0 445370.0 0
359007.0 447800.0 0
362835.0 447384.0 0
366602.0 446829.0 0
370362.0 446212.0 0
374024.0 445521.0 0
380297.0 447732.0 0
384035.0 446958.0 0
387686.0 445975.0 0
394100.0 447064.0 0
397684.0 445778.0 0
404233.0 446485.0 0
412592.0 447671.0 0
83677.9 450013.0 0
90151.0 449221.0 0
97578.9 448876.0 0
101148.0 450435.0 0
104079.0 448231.0 0
107529.0 449520.0 0
113804.0 448249.0 0
117213.0 449269.0 0
120640.0 450221.0 0
126746.0 448595.0 0
130154.0 449445.0 0
133669.0 450221.0 0
137562.0 450372.0 0
141138.0 449979.0 0
144950.0 450000.0 0
148534.0 449808.0 0
152151.0 449784.0 0
155882.0 449963.0 0
159622.0 450102.0 0
163331.0 450197.0 0
167073.0 450344.0 0
170832.0 450475.0 0
196936.0 450358.0 0
200631.0 450123.0 0
204380.0 449910.0 0
208157.0 449747.0 0
211931.0 449621.0 0
215683.0 449505.0 0
219406.0 449389.0 0
223102.0 449269.0 0
226774.0 449146.0 0
230422.0 449027.0 0
234054.0 448913.0 0
237670.0 448817.0 0
241278.0 448735.0 0
244871.0 448683.0 0
248456.0 448665.0 0
252039.0 448695.0 0
255633.0 448782.0 0
259229.0 448894.0 0
262840.0 449043.0 0
266453.0 449210.0 0
270077.0 449409.0 0
273713.0 449632.0 0
277367.0 449873.0 0
281042.0 450120.0 0
284734.0 450364.0 0
297667.0 448061.0 0
301416.0 448274.0 0
305177.0 448473.0 0
308953.0 448655.0 0
312745.0 448818.0 0
316553.0 448960.0 0
320374.0 449077.0 0
324205.0 449169.0 0
328051.0 449267.0 0
332482.0 449836.0 0
336162.0 449725.0 0
339925.0 449424.0 0
343756.0 449044.0 0
347600.0 448653.0 0
351390.0 448397.0 0
355196.0 448128.0 0
361652.0 450441.0 0
365472.0 449965.0 0
369240.0 449403.0 0
372961.0 448810.0 0
376605.0 448327.0 0
383062.0 450170.0 0
386797.0 449285.0 0
390477.0 448243.0 0
396900.0 449306.0 0
400568.0 447976.0 0
406277.0 449439.0 0
409319.0 447996.0 0
415778.0 449680.0 0
80330.8 452111.0 0
86854.9 451458.0 0
89998.7 452886.0 0
93182.1 450694.0 0
96199.8 452098.0 0
104723.0 451907.0 0
111004.0 450698.0 0
114475.0 451774.0 0
117962.0 452757.0 0
124101.0 451108.0 0
127623.0 451932.0 0
131259.0 452650.0 0
135125.0 453032.0 0
142643.0 452976.0 0
146362.0 452991.0 0
150020.0 452928.0 0
153692.0 452972.0 0
157419.0 453112.0 0
174597.0 450575.0 0
178358.0 450638.0 0
182110.0 450667.0 0
185849.0 450665.0 0
189572.0 450632.0 0
193272.0 450549.0 0
202300.0 453100.0 0
206070.0 452883.0 0
209845.0 452747.0 0
213605.0 452652.0 0
217341.0 452570.0 0
221052.0 452487.0 0
224740.0 452398.0 0
228409.0 452306.0 0
232061.0 452214.0 0
235700.0 452131.0 0
239329.0 452059.0 0
242948.0 452009.0 0
246559.0 451986.0 0
250167.0 451997.0 0
253775.0 452051.0 0
257391.0 452143.0 0
261014.0 452263.0 0
264646.0 452411.0 0
268285.0 452580.0 0
271934.0 452774.0 0
275597.0 452984.0 0
288445.0 450601.0 0
292170.0 450827.0 0
295909.0 451043.0 0
299660.0 451245.0 0
303425.0 451434.0 0
307203.0 451606.0 0
310995.0 451760.0 0
314802.0 451893.0 0
318618.0 452004.0 0
322435.0 452086.0 0
326242.0 452131.0 0
330052.0 452077.0 0
334918.0 453049.0 0
338611.0 452674.0 0
342418.0 452215.0 0
346291.0 451766.0 0
350137.0 451449.0 0
353979.0 451157.0 0
357819.0 450834.0 0
364303.0 453087.0 0
368115.0 452590.0 0
371877.0 452045.0 0
375597.0 451518.0 0
379325.0 450914.0 0
385809.0 452603.0 0
389543.0 451636.0 0
393239.0 450533.0 0
395906.0 452901.0 0
399502.0 451692.0 0
402981.0 450533.0 0
409099.0 451911.0 0
412475.0 451091.0 0
418945.0 451673.0 0
76988.6 454206.0 0
83554.4 453620.0 0
86783.4 455104.0 0
93156.6 454360.0 0
99266.8 453382.0 0
102446.0 454566.0 0
105791.0 455691.0 0
108276.0 453143.0 0
111786.0 454294.0 0
115317.0 455322.0 0
121489.0 453653.0 0
125083.0 454462.0 0
128781.0 455156.0 0
132624.0 455640.0 0
138961.0 453134.0 0
161159.0 453243.0 0
164897.0 453361.0 0
168655.0 453492.0 0
172426.0 453608.0 0
176202.0 453699.0 0
179975.0 453761.0 0
183741.0 453795.0 0
187495.0 453803.0 0
191233.0 453777.0 0
194941.0 453694.0 0
198579.0 453411.0 0
218985.0 455688.0 0
222687.0 455632.0 0
226373.0 455569.0 0
230045.0 455501.0 0
233705.0 455434.0 0
237356.0 455374.0 0
240999.0 455328.0 0
244635.0 455302.0 0
248268.0 455304.0 0
251898.0 455337.0 0
255532.0 455405.0 0
259173.0 455503.0 0
262821.0 455627.0 0
279276.0 453204.0 0
282973.0 453427.0 0
286686.0 453645.0 0
290413.0 453857.0 0
294154.0 454060.0 0
297908.0 454252.0 0
301674.0 454430.0 0
305454.0 454593.0 0
309249.0 454737.0 0
313059.0 454862.0 0
316881.0 454965.0 0
320707.0 455040.0 0
324519.0 455089.0 0
328305.0 455077.0 0
332057.0 454848.0 0
341147.0 455490.0 0
345021.0 454890.0 0
348890.0 454517.0 0
352752.0 454205.0 0
356610.0 453887.0 0
360464.0 453520.0 0
370761.0 455268.0 0
374533.0 454739.0 0
378298.0 454144.0 0
382060.0 453439.0 0
388526.0 455063.0 0
392239.0 454038.0 0
398561.0 455360.0 0
402144.0 454242.0 0
405661.0 453145.0 0
408474.0 455660.0 0
412006.0 454616.0 0
415543.0 453329.0 0
418664.0 455423.0 0
422146.0 453682.0 0
425407.0 455724.0 0
73649.5 456297.0 0
76964.7 457916.0 0
80258.5 455771.0 0
83546.1 457299.0 0
90030.1 456572.0 0
93336.2 458018.0 0
96384.3 455766.0 0
99708.7 457059.0 0
103131.0 458254.0 0
109216.0 456870.0 0
112719.0 457934.0 0
118887.0 456238.0 0
122527.0 457041.0 0
126261.0 457727.0 0
130098.0 458263.0 0
136493.0 455934.0 0
140316.0 456041.0 0
144049.0 456023.0 0
147785.0 456053.0 0
151491.0 456073.0 0
155206.0 456153.0 0
158950.0 456280.0 0
162705.0 456409.0 0
166467.0 456531.0 0
170243.0 456653.0 0
174028.0 456760.0 0
177817.0 456846.0 0
181606.0 456909.0 0
185391.0 456949.0 0
189168.0 456966.0 0
192932.0 456953.0 0
196670.0 456884.0 0
200268.0 456383.0 0
204002.0 456055.0 0
207766.0 455882.0 0
211524.0 455793.0 0
215264.0 455737.0 0
266477.0 455774.0 0
270140.0 455942.0 0
273815.0 456126.0 0
277503.0 456322.0 0
281206.0 456523.0 0
284924.0 456724.0 0
288655.0 456921.0 0
292399.0 457111.0 0
296156.0 457292.0 0
299925.0 457460.0 0
303707.0 457614.0 0
307503.0 457750.0 0
311314.0 457866.0 0
315140.0 457959.0 0
318974.0 458027.0 0
322811.0 458069.0 0
326652.0 458090.0 0
330488.0 457980.0 0
334272.0 457531.0 0
337433.0 456092.0 0
343827.0 458045.0 0
347685.0 457611.0 0
351541.0 457278.0 0
355401.0 456962.0 0
359261.0 456615.0 0
363116.0 456218.0 0
366954.0 455767.0 0
373418.0 457980.0 0
377220.0 457410.0 0
381009.0 456746.0 0
384782.0 455968.0 0
391212.0 457567.0 0
394910.0 456500.0 0
401266.0 457892.0 0
404889.0 456802.0 0
411360.0 458226.0 0
415051.0 457009.0 0
421871.0 457482.0 0
429370.0 458173.0 0
66975.9 460478.0 0
70314.2 458387.0 0
73669.2 460058.0 0
80302.0 459492.0 0
86860.4 458798.0 0
90220.8 460257.0 0
96734.4 459384.0 0
100224.0 460657.0 0
106599.0 459467.0 0
110099.0 460595.0 0
116292.0 458872.0 0
119956.0 459676.0 0
123714.0 460359.0 0
127558.0 460920.0 0
133978.0 458657.0 0
137853.0 458912.0 0
141683.0 459044.0 0
145461.0 459098.0 0
149223.0 459164.0 0
152969.0 459234.0 0
156719.0 459337.0 0
160485.0 459464.0 0
164260.0 459591.0 0
168043.0 459713.0 0
171836.0 459829.0 0
175636.0 459930.0 0
179442.0 460013.0 0
183248.0 460078.0 0
187055.0 460126.0 0
190858.0 460155.0 0
194650.0 460164.0 0
198410.0 460170.0 0
201940.0 459286.0 0
205679.0 459033.0 0
209430.0 458932.0 0
213171.0 458895.0 0
216897.0 458875.0 0
220610.0 458851.0 0
224312.0 458817.0 0
228003.0 458773.0 0
231684.0 458725.0 0
235358.0 458678.0 0
239025.0 458639.0 0
242686.0 458614.0 0
246343.0 458610.0 0
249997.0 458631.0 0
253653.0 458681.0 0
257312.0 458758.0 0
260978.0 458861.0 0
264650.0 458987.0 0
268330.0 459133.0 0
272019.0 459294.0 0
275718.0 459468.0 0
279430.0 459649.0 0
283155.0 459833.0 0
286893.0 460015.0 0
290642.0 460193.0 0
294403.0 460363.0 0
298176.0 460522.0 0
301961.0 460668.0 0
305758.0 460796.0 0
309569.0 460904.0 0
332747.0 460805.0 0
336586.0 460317.0 0
339952.0 458953.0 0
346581.0 460738.0 0
350387.0 460386.0 0
354213.0 460070.0 0
358057.0 459735.0 0
361912.0 459364.0 0
365766.0 458948.0 0
369603.0 458486.0 0
376088.0 460698.0 0
379910.0 460081.0 0
383709.0 459362.0 0
387479.0 458528.0 0
393888.0 460103.0 0
397604.0 458990.0 0
404035.0 460444.0 0
407699.0 459335.0 0
414217.0 460724.0 0
418191.0 459158.0 0
426118.0 459450.0 0
432692.0 460262.0 0
63630.0 462574.0 0
70367.2 462192.0 0
77050.6 461681.0 0
80458.2 463260.0 0
83666.2 461026.0 0
87069.3 462512.0 0
93657.0 461653.0 0
97176.9 462971.0 0
103784.0 461879.0 0
107397.0 463223.0 0
113678.0 461559.0 0
117363.0 462371.0 0
121147.0 463051.0 0
131451.0 461368.0 0
135354.0 461711.0 0
139238.0 461953.0 0
143085.0 462106.0 0
146894.0 462210.0 0
150683.0 462309.0 0
154461.0 462413.0 0
158241.0 462532.0 0
162028.0 462661.0 0
165823.0 462789.0 0
169624.0 462909.0 0
173434.0 463020.0 0
177250.0 463117.0 0
181071.0 463200.0 0
184896.0 463268.0 0
188722.0 463325.0 0
192546.0 463375.0 0
196356.0 463434.0 0
203532.0 462191.0 0
207293.0 462062.0 0
211043.0 462039.0 0
214779.0 462048.0 0
218504.0 462056.0 0
222222.0 462051.0 0
225932.0 462033.0 0
229636.0 462005.0 0
233333.0 461972.0 0
237025.0 461943.0 0
240711.0 461922.0 0
244393.0 461915.0 0
248072.0 461929.0 0
251750.0 461965.0 0
255431.0 462026.0 0
259115.0 462110.0 0
262805.0 462217.0 0
266501.0 462343.0 0
270206.0 462484.0 0
273919.0 462639.0 0
277642.0 462802.0 0
281376.0 462969.0 0
285121.0 463137.0 0
288878.0 463303.0 0
292645.0 463462.0 0
313394.0 460989.0 0
317231.0 461048.0 0
321087.0 461082.0 0
324950.0 461091.0 0
328837.0 461040.0 0
338735.0 463357.0 0
342790.0 461192.0 0
353067.0 463230.0 0
356866.0 462894.0 0
360700.0 462535.0 0
364553.0 462143.0 0
368408.0 461712.0 0
372253.0 461235.0 0
378755.0 463433.0 0
382589.0 462776.0 0
386395.0 462014.0 0
390160.0 461125.0 0
396622.0 462587.0 0
400354.0 461520.0 0
406816.0 463018.0 0
410496.0 461901.0 0
419866.0 462436.0 0
423012.0 461028.0 0
426103.0 463353.0 0
429382.0 461872.0 0
436010.0 462345.0 0
60274.3 464675.0 0
67055.0 464323.0 0
70511.9 466039.0 0
73788.4 463866.0 0
77235.2 465491.0 0
83900.0 464785.0 0
90533.0 463933.0 0
94070.5 465276.0 0
100764.0 464222.0 0
104409.0 465426.0 0
111012.0 464288.0 0
114734.0 465120.0 0
118561.0 465800.0 0
125007.0 463619.0 0
128923.0 464093.0 0
132850.0 464490.0 0
136768.0 464806.0 0
140662.0 465045.0 0
144523.0 465220.0 0
148354.0 465357.0 0
152168.0 465484.0 0
155971.0 465611.0 0
159774.0 465742.0 0
163581.0 465874.0 0
167393.0 466002.0 0
171211.0 466120.0 0
200138.0 463544.0 0
205055.0 465145.0 0
208847.0 465150.0 0
212610.0 465197.0 0
216358.0 465243.0 0
220097.0 465270.0 0
223830.0 465279.0 0
227558.0 465272.0 0
231280.0 465256.0 0
234998.0 465238.0 0
238710.0 465223.0 0
242417.0 465218.0 0
246122.0 465227.0 0
249824.0 465254.0 0
253527.0 465303.0 0
257231.0 465372.0 0
260940.0 465462.0 0
264654.0 465570.0 0
268374.0 465694.0 0
272102.0 465831.0 0
275838.0 465977.0 0
279584.0 466129.0 0
296423.0 463612.0 0
300212.0 463751.0 0
304013.0 463873.0 0
307826.0 463975.0 0
311653.0 464055.0 0
315493.0 464108.0 0
319346.0 464133.0 0
323214.0 464132.0 0
327101.0 464090.0 0
331024.0 463954.0 0
334928.0 463683.0 0
342177.0 464264.0 0
345693.0 463912.0 0
349329.0 463553.0 0
355636.0 466106.0 0
359456.0 465744.0 0
363303.0 465363.0 0
367168.0 464952.0 0
371036.0 464502.0 0
374901.0 464001.0 0
385255.0 465510.0 0
389069.0 464704.0 0
392843.0 463740.0 0
399425.0 465129.0 0
403137.0 464098.0 0
409537.0 465666.0 0
413113.0 464573.0 0
416575.0 463561.0 0
422808.0 464886.0 0
429260.0 465703.0 0
432642.0 464068.0 0
439334.0 464429.0 0
56904.4 466785.0 0
60386.4 468595.0 0
63729.5 466458.0 0
67216.0 468207.0 0
73996.4 467718.0 0
80713.8 467064.0 0
84236.9 468569.0 0
87390.3 466240.0 0
90943.7 467608.0 0
97665.5 466549.0 0
101303.0 467774.0 0
108275.0 467014.0 0
112056.0 467919.0 0
115950.0 468591.0 0
122452.0 466372.0 0
126404.0 466841.0 0
130356.0 467272.0 0
134299.0 467640.0 0
138224.0 467943.0 0
142123.0 468185.0 0
145995.0 468378.0 0
149842.0 468539.0 0
153674.0 468687.0 0
175035.0 466228.0 0
178865.0 466323.0 0
182701.0 466406.0 0
186540.0 466480.0 0
190382.0 466552.0 0
194220.0 466636.0 0
198049.0 466759.0 0
201867.0 466960.0 0
206539.0 468175.0 0
210366.0 468297.0 0
214155.0 468398.0 0
217927.0 468467.0 0
221690.0 468508.0 0
225447.0 468526.0 0
229199.0 468529.0 0
232944.0 468524.0 0
236683.0 468517.0 0
240417.0 468516.0 0
244148.0 468524.0 0
247875.0 468547.0 0
251600.0 468586.0 0
255327.0 468643.0 0
259055.0 468719.0 0
283339.0 466284.0 0
287104.0 466438.0 0
290879.0 466587.0 0
294664.0 466729.0 0
298460.0 466860.0 0
302266.0 466977.0 0
306082.0 467076.0 0
309911.0 467152.0 0
313752.0 467201.0 0
317604.0 467222.0 0
321470.0 467217.0 0
325348.0 467182.0 0
329237.0 467083.0 0
333119.0 466932.0 0
336912.0 466758.0 0
340508.0 467019.0 0
344380.0 467131.0 0
348120.0 466809.0 0
351855.0 466455.0 0
361991.0 468611.0 0
365866.0 468212.0 0
369753.0 467784.0 0
373645.0 467316.0 0
377533.0 466792.0 0
381407.0 466199.0 0
387897.0 468293.0 0
391728.0 467425.0 0
395668.0 466154.0 0
398512.0 468731.0 0
402227.0 467763.0 0
405903.0 466739.0 0
412305.0 468368.0 0
415879.0 467325.0 0
419394.0 466214.0 0
422391.0 468715.0 0
425864.0 467256.0 0
432487.0 467952.0 0
435918.0 466229.0 0
439217.0 468363.0 0
442673.0 466521.0 0
446031.0 468624.0 0
53523.8 468901.0 0
57031.4 470741.0 0
63899.4 470378.0 0
70735.3 469925.0 0
77510.0 469342.0 0
81066.4 470897.0 0
87812.1 469980.0 0
91449.6 471291.0 0
94560.7 468901.0 0
98231.8 470137.0 0
104967.0 468863.0 0
109376.0 470808.0 0
119886.0 469174.0 0
123924.0 469624.0 0
127888.0 470072.0 0
131846.0 470476.0 0
135791.0 470828.0 0
139716.0 471124.0 0
157498.0 468830.0 0
161319.0 468969.0 0
165143.0 469104.0 0
168969.0 469231.0 0
172801.0 469348.0 0
176637.0 469453.0 0
180479.0 469548.0 0
184325.0 469634.0 0
188175.0 469717.0 0
192028.0 469810.0 0
195881.0 469934.0 0
199736.0 470116.0 0
203596.0 470391.0 0
208022.0 471292.0 0
262787.0 468812.0 0
266525.0 468920.0 0
270268.0 469041.0 0
274018.0 469172.0 0
277776.0 469311.0 0
281543.0 469453.0 0
285318.0 469595.0 0
289103.0 469735.0 0
292897.0 469869.0 0
296700.0 469994.0 0
300512.0 470106.0 0
304335.0 470201.0 0
308168.0 470275.0 0
312012.0 470325.0 0
315866.0 470346.0 0
319728.0 470340.0 0
323600.0 470308.0 0
327482.0 470240.0 0
331349.0 470135.0 0
335174.0 470036.0 0
338912.0 470089.0 0
342734.0 470111.0 0
346643.0 470006.0 0
350479.0 469705.0 0
354299.0 469354.0 0
358134.0 468990.0 0
368393.0 471079.0 0
372310.0 470637.0 0
376228.0 470156.0 0
380140.0 469621.0 0
384034.0 469010.0 0
390487.0 471138.0 0
394750.0 469664.0 0
405016.0 470463.0 0
408682.0 469433.0 0
415184.0 471069.0 0
418824.0 469968.0 0
425469.0 471151.0 0
429005.0 469594.0 0
435764.0 470186.0 0
442532.0 470497.0 0
60564.4 472553.0 0
67443.2 472125.0 0
71022.1 473842.0 0
74284.9 471613.0 0
77869.8 473230.0 0
84676.0 472380.0 0
88334.1 473733.0 0
95149.5 472530.0 0
98893.1 473730.0 0
101929.0 471366.0 0
105656.0 472197.0 0
113346.0 471437.0 0
117328.0 472003.0 0
121492.0 472445.0 0
125459.0 472904.0 0
129422.0 473330.0 0
133377.0 473716.0 0
143617.0 471371.0 0
147495.0 471577.0 0
151354.0 471755.0 0
155200.0 471917.0 0
159039.0 472070.0 0
162875.0 472216.0 0
166712.0 472353.0 0
170550.0 472479.0 0
174392.0 472594.0 0
178238.0 472698.0 0
182088.0 472793.0 0
185941.0 472884.0 0
189799.0 472980.0 0
193661.0 473096.0 0
197530.0 473254.0 0
201415.0 473486.0 0
205323.0 473828.0 0
211882.0 471497.0 0
215706.0 471630.0 0
219510.0 471714.0 0
223303.0 471762.0 0
227088.0 471788.0 0
230864.0 471799.0 0
234632.0 471804.0 0
238394.0 471809.0 0
242151.0 471819.0 0
245903.0 471840.0 0
249653.0 471873.0 0
253401.0 471921.0 0
257150.0 471986.0 0
260902.0 472066.0 0
264656.0 472161.0 0
268416.0 472268.0 0
272181.0 472386.0 0
275953.0 472511.0 0
279732.0 472642.0 0
283519.0 472774.0 0
287314.0 472904.0 0
291118.0 473030.0 0
294929.0 473149.0 0
298750.0 473257.0 0
302581.0 473349.0 0
306420.0 473422.0 0
310269.0 473473.0 0
314127.0 473497.0 0
317992.0 473495.0 0
321862.0 473467.0 0
325736.0 473410.0 0
329608.0 473336.0 0
333456.0 473260.0 0
337274.0 473238.0 0
341121.0 473206.0 0
345016.0 473102.0 0
348940.0 472907.0 0
352831.0 472603.0 0
356708.0 472253.0 0
360591.0 471881.0 0
364485.0 471491.0 0
374830.0 473520.0 0
378775.0 473035.0 0
382710.0 472501.0 0
386619.0 471885.0 0
393772.0 473094.0 0
397575.0 472318.0 0
401314.0 471431.0 0
407821.0 473192.0 0
411518.0 472139.0 0
418159.0 473718.0 0
421858.0 472548.0 0
428630.0 473506.0 0
432228.0 471871.0 0
64126.1 474334.0 0
67718.4 476072.0 0
74635.4 475548.0 0
81516.6 474746.0 0
85226.4 476228.0 0
92058.9 474972.0 0
95817.9 476163.0 0
102812.0 475006.0 0
107130.0 475201.0 0
110920.0 474440.0 0
114864.0 474903.0 0
119072.0 475292.0 0
123062.0 475772.0 0
127030.0 476211.0 0
137318.0 474056.0 0
141239.0 474350.0 0
145139.0 474599.0 0
149020.0 474813.0 0
152887.0 475002.0 0
156743.0 475174.0 0
160594.0 475334.0 0
164441.0 475483.0 0
168287.0 475621.0 0
172135.0 475747.0 0
175984.0 475860.0 0
179836.0 475963.0 0
183691.0 476060.0 0
187549.0 476157.0 0
191411.0 476265.0 0
195280.0 476401.0 0
209530.0 474500.0 0
213429.0 474738.0 0
217289.0 474885.0 0
221127.0 474975.0 0
224949.0 475030.0 0
228759.0 475062.0 0
232559.0 475081.0 0
236350.0 475096.0 0
240134.0 475111.0 0
243912.0 475132.0 0
247685.0 475163.0 0
251456.0 475205.0 0
255226.0 475261.0 0
258997.0 475331.0 0
262770.0 475414.0 0
266546.0 475510.0 0
270327.0 475615.0 0
274113.0 475729.0 0
277905.0 475848.0 0
281704.0 475970.0 0
285510.0 476092.0 0
289325.0 476211.0 0
293147.0 476324.0 0
296976.0 476427.0 0
300815.0 476517.0 0
327880.0 476542.0 0
331748.0 476473.0 0
335606.0 476420.0 0
339479.0 476355.0 0
343384.0 476245.0 0
347313.0 476069.0 0
351253.0 475825.0 0
355179.0 475513.0 0
359098.0 475161.0 0
363019.0 474784.0 0
366949.0 474387.0 0
370887.0 473968.0 0
377309.0 476445.0 0
381272.0 475972.0 0
385226.0 475457.0 0
389143.0 474851.0 0
392682.0 476456.0 0
396540.0 475870.0 0
400340.0 475096.0 0
404096.0 474191.0 0
410675.0 475903.0 0
414435.0 474821.0 0
421220.0 476395.0 0
424963.0 475064.0 0
431888.0 475803.0 0
71331.6 477781.0 0
78295.8 477150.0 0
82015.8 478589.0 0
89002.8 477487.0 0
92806.8 478663.0 0
99582.1 477297.0 0
104757.0 478256.0 0
108701.0 478300.0 0
112566.0 477969.0 0
116711.0 478221.0 0
120693.0 478672.0 0
124666.0 479124.0 0
130990.0 476621.0 0
134938.0 476995.0 0
138871.0 477328.0 0
142786.0 477618.0 0
146683.0 477868.0 0
150566.0 478085.0 0
154438.0 478279.0 0
158302.0 478456.0 0
162160.0 478620.0 0
166015.0 478771.0 0
169869.0 478909.0 0
173722.0 479034.0 0
177577.0 479146.0 0
199165.0 476586.0 0
203077.0 476852.0 0
207034.0 477278.0 0
211113.0 477769.0 0
215035.0 478013.0 0
218923.0 478160.0 0
222788.0 478252.0 0
226634.0 478310.0 0
230467.0 478348.0 0
234287.0 478376.0 0
238098.0 478399.0 0
241902.0 478424.0 0
245699.0 478454.0 0
249493.0 478494.0 0
253284.0 478544.0 0
257074.0 478606.0 0
260865.0 478679.0 0
264658.0 478764.0 0
268455.0 478859.0 0
272256.0 478962.0 0
276062.0 479071.0 0
304663.0 476590.0 0
308519.0 476642.0 0
312382.0 476670.0 0
316253.0 476673.0 0
320128.0 476651.0 0
324006.0 476606.0 0
349615.0 479037.0 0
353572.0 478763.0 0
357525.0 478440.0 0
361474.0 478085.0 0
365425.0 477706.0 0
369382.0 477307.0 0
373344.0 476889.0 0
383696.0 478989.0 0
387652.0 478524.0 0
399242.0 478737.0 0
403094.0 477916.0 0
406897.0 476953.0 0
413600.0 478570.0 0
417411.0 477488.0 0
428182.0 477430.0 0
86017.7 480092.0 0
89864.1 481252.0 0
96603.3 479830.0 0
101541.0 480386.0 0
106577.0 481597.0 0
110516.0 481368.0 0
114469.0 481274.0 0
118400.0 481648.0 0
128630.0 479549.0 0
132583.0 479948.0 0
136523.0 480315.0 0
140447.0 480642.0 0
144353.0 480927.0 0
148246.0 481172.0 0
152129.0 481388.0 0
156005.0 481584.0 0
159874.0 481764.0 0
181432.0 479250.0 0
185290.0 479349.0 0
189149.0 479453.0 0
193013.0 479571.0 0
196884.0 479720.0 0
200770.0 479920.0 0
204683.0 480205.0 0
208796.0 480723.0 0
212771.0 481094.0 0
216709.0 481313.0 0
220615.0 481452.0 0
224497.0 481544.0 0
228361.0 481605.0 0
232210.0 481648.0 0
236048.0 481683.0 0
239876.0 481714.0 0
243698.0 481746.0 0
279873.0 479184.0 0
283691.0 479298.0 0
287517.0 479410.0 0
291349.0 479517.0 0
295189.0 479616.0 0
299037.0 479704.0 0
302893.0 479776.0 0
306757.0 479830.0 0
310628.0 479862.0 0
314505.0 479871.0 0
318387.0 479855.0 0
322270.0 479818.0 0
326155.0 479763.0 0
330037.0 479696.0 0
333918.0 479626.0 0
337812.0 479542.0 0
341726.0 479424.0 0
345663.0 479258.0 0
355889.0 481720.0 0
359860.0 481391.0 0
363831.0 481034.0 0
367804.0 480656.0 0
371779.0 480263.0 0
375754.0 479856.0 0
379728.0 479432.0 0
391386.0 479735.0 0
395344.0 479374.0 0
401958.0 481612.0 0
405900.0 480715.0 0
409763.0 479675.0 0
416563.0 481278.0 0
420427.0 480268.0 0
82787.5 482430.0 0
87006.1 483945.0 0
93675.9 482381.0 0
98649.3 483018.0 0
103105.0 483754.0 0
122345.0 482077.0 0
126301.0 482506.0 0
130255.0 482922.0 0
134200.0 483316.0 0
138129.0 483677.0 0
142041.0 483999.0 0
145937.0 484272.0 0
163737.0 481930.0 0
167598.0 482082.0 0
171456.0 482219.0 0
175314.0 482342.0 0
179172.0 482453.0 0
183030.0 482557.0 0
186888.0 482659.0 0
190747.0 482769.0 0
194609.0 482895.0 0
198477.0 483051.0 0
202359.0 483256.0 0
206273.0 483517.0 0
210570.0 484169.0 0
247513.0 481785.0 0
251325.0 481831.0 0
255135.0 481888.0 0
258944.0 481954.0 0
262754.0 482031.0 0
266566.0 482116.0 0
270382.0 482210.0 0
274201.0 482310.0 0
278026.0 482414.0 0
281856.0 482520.0 0
285693.0 482626.0 0
289536.0 482727.0 0
293387.0 482823.0 0
297244.0 482908.0 0
301109.0 482980.0 0
304982.0 483035.0 0
308861.0 483071.0 0
312746.0 483085.0 0
316636.0 483077.0 0
320529.0 483048.0 0
324423.0 482999.0 0
328318.0 482934.0 0
332215.0 482857.0 0
336123.0 482762.0 0
340047.0 482639.0 0
343989.0 482476.0 0
347948.0 482268.0 0
351917.0 482015.0 0
362181.0 484370.0 0
366166.0 484014.0 0
370150.0 483646.0 0
374131.0 483271.0 0
378105.0 482891.0 0
382064.0 482507.0 0
386000.0 482126.0 0
389793.0 482947.0 0
393860.0 482767.0 0
397976.0 482334.0 0
408777.0 483455.0 0
412724.0 482323.0 0
83791.6 486262.0 0
90835.8 485044.0 0
95655.8 485678.0 0
99435.7 486738.0 0
106594.0 485393.0 0
112351.0 484443.0 0
116175.0 484720.0 0
120063.0 485095.0 0
123995.0 485501.0 0
127945.0 485917.0 0
131896.0 486331.0 0
135833.0 486724.0 0
149825.0 484508.0 0
153708.0 484719.0 0
157586.0 484914.0 0
161457.0 485096.0 0
165324.0 485263.0 0
169188.0 485414.0 0
173051.0 485549.0 0
176913.0 485669.0 0
180773.0 485780.0 0
184633.0 485884.0 0
188492.0 485989.0 0
192351.0 486102.0 0
196211.0 486232.0 0
200077.0 486389.0 0
203959.0 486579.0 0
207869.0 486798.0 0
214518.0 484449.0 0
218450.0 484637.0 0
222359.0 484765.0 0
226250.0 484853.0 0
230125.0 484915.0 0
233988.0 484962.0 0
237840.0 485002.0 0
241683.0 485039.0 0
245520.0 485079.0 0
249352.0 485124.0 0
253181.0 485177.0 0
257008.0 485238.0 0
260834.0 485307.0 0
264662.0 485386.0 0
268492.0 485471.0 0
272325.0 485563.0 0
276162.0 485660.0 0
280005.0 485758.0 0
283853.0 485857.0 0
287707.0 485954.0 0
291567.0 486045.0 0
295435.0 486128.0 0
299310.0 486200.0 0
303192.0 486257.0 0
307080.0 486296.0 0
310974.0 486315.0 0
314872.0 486314.0 0
318775.0 486292.0 0
322680.0 486250.0 0
326587.0 486189.0 0
330497.0 486111.0 0
334417.0 486012.0 0
338348.0 485885.0 0
342295.0 485724.0 0
346257.0 485524.0 0
350230.0 485285.0 0
354211.0 485010.0 0
358196.0 484704.0 0
372457.0 486690.0 0
376432.0 486347.0 0
380391.0 486014.0 0
384321.0 485696.0 0
388164.0 486250.0 0
392120.0 486062.0 0
396325.0 485801.0 0
400631.0 485263.0 0
404722.0 484456.0 0
411768.0 486079.0 0
416269.0 485201.0 0
88091.7 487867.0 0
92783.0 488451.0 0
96617.5 489491.0 0
103197.0 487621.0 0
106657.0 489231.0 0
109944.0 487299.0 0
113848.0 487838.0 0
117749.0 488170.0 0
121680.0 488538.0 0
125634.0 488937.0 0
129594.0 489350.0 0
139752.0 487081.0 0
143656.0 487395.0 0
147538.0 487649.0 0
151419.0 487869.0 0
155302.0 488074.0 0
159179.0 488270.0 0
163051.0 488453.0 0
166920.0 488618.0 0
170789.0 488766.0 0
174656.0 488897.0 0
178522.0 489015.0 0
182386.0 489124.0 0
186249.0 489229.0 0
190110.0 489335.0 0
193970.0 489450.0 0
197832.0 489579.0 0
212385.0 487606.0 0
216314.0 487825.0 0
220236.0 487984.0 0
224145.0 488097.0 0
228040.0 488179.0 0
231923.0 488240.0 0
235796.0 488290.0 0
239660.0 488333.0 0
243516.0 488376.0 0
247367.0 488421.0 0
251214.0 488472.0 0
255058.0 488529.0 0
258900.0 488594.0 0
262743.0 488666.0 0
266587.0 488745.0 0
270433.0 488830.0 0
274283.0 488919.0 0
278137.0 489011.0 0
281996.0 489104.0 0
285861.0 489195.0 0
289732.0 489283.0 0
293609.0 489363.0 0
297493.0 489434.0 0
301385.0 489493.0 0
305282.0 489535.0 0
309185.0 489560.0 0
313093.0 489565.0 0
317005.0 489550.0 0
320921.0 489515.0 0
324840.0 489460.0 0
328762.0 489385.0 0
332691.0 489286.0 0
336630.0 489161.0 0
340582.0 489002.0 0
344546.0 488809.0 0
348521.0 488580.0 0
352504.0 488318.0 0
356492.0 488030.0 0
360487.0 487716.0 0
364487.0 487380.0 0
368475.0 487037.0 0
378683.0 489505.0 0
382619.0 489239.0 0
390456.0 489443.0 0
394448.0 489169.0 0
398908.0 488754.0 0
403346.0 488157.0 0
407593.0 487211.0 0
414652.0 488827.0 0
100476.0 490508.0 0
104061.0 492131.0 0
111403.0 490859.0 0
115371.0 491262.0 0
119334.0 491601.0 0
123306.0 491977.0 0
133553.0 489779.0 0
137485.0 490175.0 0
141400.0 490523.0 0
145296.0 490835.0 0
149153.0 491052.0 0
153028.0 491250.0 0
156904.0 491455.0 0
160778.0 491653.0 0
164653.0 491832.0 0
168527.0 491992.0 0
172402.0 492135.0 0
201702.0 489725.0 0
205588.0 489887.0 0
209499.0 490049.0 0
214225.0 491041.0 0
218142.0 491215.0 0
222056.0 491347.0 0
225963.0 491446.0 0
229861.0 491521.0 0
233750.0 491580.0 0
237631.0 491630.0 0
241505.0 491677.0 0
245373.0 491724.0 0
249236.0 491774.0 0
253096.0 491828.0 0
256954.0 491889.0 0
260811.0 491957.0 0
264668.0 492030.0 0
268527.0 492109.0 0
342816.0 492121.0 0
346793.0 491900.0 0
350778.0 491649.0 0
354767.0 491374.0 0
358765.0 491076.0 0
362770.0 490758.0 0
366762.0 490436.0 0
370746.0 490114.0 0
374722.0 489799.0 0
386497.0 489604.0 0
396985.0 492154.0 0
401533.0 491697.0 0
406203.0 490927.0 0
410608.0 489822.0 0
93791.4 492290.0 0
97671.9 493295.0 0
107997.0 492749.0 0
112992.0 494353.0 0
116973.0 494688.0 0
127281.0 492385.0 0
131253.0 492804.0 0
135234.0 493272.0 0
139171.0 493660.0 0
143084.0 494000.0 0
146976.0 494331.0 0
150777.0 494460.0 0
154635.0 494655.0 0
176276.0 492262.0 0
180148.0 492377.0 0
184017.0 492485.0 0
187884.0 492589.0 0
191750.0 492694.0 0
195615.0 492806.0 0
199484.0 492927.0 0
203362.0 493055.0 0
207254.0 493180.0 0
211165.0 493286.0 0
216084.0 494478.0 0
219992.0 494617.0 0
223901.0 494725.0 0
272389.0 492192.0 0
276254.0 492279.0 0
280124.0 492366.0 0
283998.0 492453.0 0
287879.0 492536.0 0
291766.0 492614.0 0
295659.0 492684.0 0
299559.0 492743.0 0
303466.0 492788.0 0
307378.0 492818.0 0
311296.0 492829.0 0
315218.0 492821.0 0
319143.0 492793.0 0
323073.0 492745.0 0
327006.0 492676.0 0
330946.0 492583.0 0
334892.0 492462.0 0
338849.0 492309.0 0
353029.0 494738.0 0
357027.0 494453.0 0
361032.0 494151.0 0
365022.0 493847.0 0
369007.0 493543.0 0
372984.0 493250.0 0
376947.0 492983.0 0
380887.0 492754.0 0
384782.0 493002.0 0
388741.0 492844.0 0
392730.0 492620.0 0
404321.0 494520.0 0
409224.0 493532.0 0
94892.7 496124.0 0
101294.0 494933.0 0
105559.0 495792.0 0
109553.0 496235.0 0
120953.0 495031.0 0
124947.0 495425.0 0
128942.0 495851.0 0
132905.0 496279.0 0
136979.0 496805.0 0
140909.0 497181.0 0
158505.0 494863.0 0
162383.0 495055.0 0
166266.0 495227.0 0
170150.0 495381.0 0
174034.0 495518.0 0
177916.0 495641.0 0
181795.0 495753.0 0
185672.0 495858.0 0
189546.0 495960.0 0
193419.0 496062.0 0
197294.0 496166.0 0
201173.0 496272.0 0
205061.0 496375.0 0
208960.0 496463.0 0
212869.0 496520.0 0
227807.0 494810.0 0
231707.0 494877.0 0
235602.0 494933.0 0
239490.0 494984.0 0
243372.0 495033.0 0
247250.0 495082.0 0
251125.0 495136.0 0
254996.0 495194.0 0
258867.0 495258.0 0
262737.0 495327.0 0
266608.0 495401.0 0
270481.0 495479.0 0
274357.0 495560.0 0
278236.0 495642.0 0
282121.0 495725.0 0
286010.0 495804.0 0
289906.0 495880.0 0
293807.0 495948.0 0
297716.0 496007.0 0
301631.0 496055.0 0
305552.0 496088.0 0
309478.0 496105.0 0
313410.0 496104.0 0
317346.0 496084.0 0
321285.0 496044.0 0
325230.0 495983.0 0
329179.0 495897.0 0
333134.0 495784.0 0
337097.0 495639.0 0
341069.0 495459.0 0
345050.0 495245.0 0
349038.0 495003.0 0
363267.0 497272.0 0
367252.0 496982.0 0
371229.0 496704.0 0
375193.0 496453.0 0
379136.0 496248.0 0
383040.0 496446.0 0
386994.0 496274.0 0
390976.0 496063.0 0
395211.0 495651.0 0
399300.0 495337.0 0
98581.3 497835.0 0
102823.0 498602.0 0
107215.0 499386.0 0
111217.0 499734.0 0
114635.0 497815.0 0
118613.0 498123.0 0
122592.0 498471.0 0
126610.0 498887.0 0
130615.0 499350.0 0
134577.0 499759.0 0
144812.0 497508.0 0
148538.0 498595.0 0
152330.0 497861.0 0
156212.0 498082.0 0
160104.0 498285.0 0
164000.0 498470.0 0
167898.0 498635.0 0
171794.0 498782.0 0
175689.0 498914.0 0
179580.0 499032.0 0
183469.0 499140.0 0
187354.0 499242.0 0
191238.0 499339.0 0
195122.0 499434.0 0
199008.0 499526.0 0
202899.0 499614.0 0
206797.0 499690.0 0
210702.0 499743.0 0
214610.0 499761.0 0
217957.0 497916.0 0
221861.0 498026.0 0
225767.0 498114.0 0
229673.0 498186.0 0
233576.0 498246.0 0
237474.0 498299.0 0
241369.0 498349.0 0
245259.0 498399.0 0
249146.0 498452.0 0
253031.0 498508.0 0
256913.0 498569.0 0
260795.0 498634.0 0
264677.0 498704.0 0
268560.0 498778.0 0
272446.0 498855.0 0
276335.0 498933.0 0
280228.0 499011.0 0
284126.0 499088.0 0
288029.0 499161.0 0
291939.0 499228.0 0
295855.0 499286.0 0
299777.0 499335.0 0
303706.0 499371.0 0
307640.0 499393.0 0
311581.0 499398.0 0
315526.0 499386.0 0
319476.0 499354.0 0
323430.0 499302.0 0
327390.0 499226.0 0
331354.0 499123.0 0
335325.0 498989.0 0
339305.0 498821.0 0
343293.0 498613.0 0
347285.0 498378.0 0
351282.0 498122.0 0
355280.0 497849.0 0
359278.0 497562.0 0
373431.0 499923.0 0
377378.0 499727.0 0
381290.0 499935.0 0
385241.0 499738.0 0
389220.0 499521.0 0
393401.0 499148.0 0
397464.0 498879.0 0
402212.0 498029.0 0
406202.0 498037.0 0
96197.3 501032.0 0
100160.0 501508.0 0
104473.0 502219.0 0
116300.0 501263.0 0
120269.0 501568.0 0
124246.0 501922.0 0
128267.0 502376.0 0
139032.0 500518.0 0
142990.0 500879.0 0
146763.0 502109.0 0
153874.0 501290.0 0
157806.0 501514.0 0
161726.0 501715.0 0
165642.0 501894.0 0
169555.0 502052.0 0
173465.0 502194.0 0
177371.0 502320.0 0
181273.0 502433.0 0
185172.0 502537.0 0
219842.0 501356.0 0
223744.0 501441.0 0
227650.0 501512.0 0
231557.0 501572.0 0
235463.0 501626.0 0
239366.0 501676.0 0
243266.0 501726.0 0
247164.0 501777.0 0
251059.0 501832.0 0
254952.0 501890.0 0
258844.0 501953.0 0
262736.0 502020.0 0
266628.0 502090.0 0
270523.0 502163.0 0
274420.0 502238.0 0
278321.0 502313.0 0
282227.0 502386.0 0
286138.0 502457.0 0
290054.0 502522.0 0
293977.0 502581.0 0
325575.0 502566.0 0
329550.0 502477.0 0
333529.0 502356.0 0
337515.0 502200.0 0
341521.0 502002.0 0
345525.0 501773.0 0
349528.0 501524.0 0
353526.0 501263.0 0
357518.0 500990.0 0
361506.0 500712.0 0
365490.0 500432.0 0
369466.0 500164.0 0
395610.0 502403.0 0
400365.0 501571.0 0
97825.7 504718.0 0
101802.0 505144.0 0
108955.0 502939.0 0
112937.0 503261.0 0
117960.0 504714.0 0
121931.0 505023.0 0
132333.0 502865.0 0
136306.0 503232.0 0
140824.0 504075.0 0
150524.0 503331.0 0
155505.0 504734.0 0
159449.0 504960.0 0
163386.0 505155.0 0
189069.0 502632.0 0
192964.0 502722.0 0
196860.0 502807.0 0
200759.0 502885.0 0
204662.0 502953.0 0
208569.0 503003.0 0
212478.0 503027.0 0
216386.0 503015.0 0
221739.0 504796.0 0
225641.0 504861.0 0
229548.0 504917.0 0
233457.0 504968.0 0
237366.0 505016.0 0
241273.0 505064.0 0
245179.0 505114.0 0
249083.0 505167.0 0
297906.0 502630.0 0
301841.0 502668.0 0
305783.0 502693.0 0
309731.0 502704.0 0
313684.0 502699.0 0
317643.0 502675.0 0
321606.0 502632.0 0
343757.0 505185.0 0
347766.0 504944.0 0
351764.0 504695.0 0
355755.0 504435.0 0
359742.0 504167.0 0
363726.0 503897.0 0
367702.0 503635.0 0
371668.0 503397.0 0
375621.0 503203.0 0
379541.0 503461.0 0
383491.0 503239.0 0
387460.0 502996.0 0
391593.0 502666.0 0
398406.0 505198.0 0
402584.0 504868.0 0
106231.0 505782.0 0
110708.0 506487.0 0
114670.0 506832.0 0
125889.0 505397.0 0
129951.0 505879.0 0
134084.0 506389.0 0
138041.0 506752.0 0
144569.0 505372.0 0
148308.0 506608.0 0
152247.0 506925.0 0
167317.0 505327.0 0
171244.0 505479.0 0
175167.0 505615.0 0
179084.0 505735.0 0
182997.0 505843.0 0
186908.0 505940.0 0
190816.0 506028.0 0
194724.0 506109.0 0
198633.0 506181.0 0
202543.0 506244.0 0
206456.0 506291.0 0
210371.0 506319.0 0
214285.0 506320.0 0
218193.0 506287.0 0
252985.0 505223.0 0
256885.0 505283.0 0
260786.0 505347.0 0
264687.0 505415.0 0
268589.0 505485.0 0
272494.0 505556.0 0
276402.0 505628.0 0
280315.0 505699.0 0
284232.0 505768.0 0
288154.0 505832.0 0
292083.0 505890.0 0
296017.0 505939.0 0
299959.0 505979.0 0
303906.0 506007.0 0
307860.0 506022.0 0
311821.0 506023.0 0
315787.0 506007.0 0
319758.0 505973.0 0
323734.0 505918.0 0
327716.0 505839.0 0
331706.0 505737.0 0
335700.0 505597.0 0
339726.0 505399.0 0
357976.0 507638.0 0
361960.0 507376.0 0
365939.0 507120.0 0
369908.0 506882.0 0
373866.0 506681.0 0
377793.0 507016.0 0
381749.0 506772.0 0
385722.0 506512.0 0
389761.0 506189.0 0
393801.0 505938.0 0
97025.6 508619.0 0
101052.0 509046.0 0
105009.0 509529.0 0
108958.0 509982.0 0
112922.0 510357.0 0
119641.0 508157.0 0
123578.0 508516.0 0
127525.0 508878.0 0
131666.0 509390.0 0
135864.0 509942.0 0
141758.0 508104.0 0
145516.0 509428.0 0
150003.0 510200.0 0
157171.0 508202.0 0
161130.0 508418.0 0
165082.0 508605.0 0
169027.0 508769.0 0
172966.0 508915.0 0
176899.0 509045.0 0
180828.0 509159.0 0
184753.0 509259.0 0
188675.0 509348.0 0
192596.0 509428.0 0
196517.0 509497.0 0
200437.0 509557.0 0
204359.0 509604.0 0
208281.0 509634.0 0
212202.0 509643.0 0
216119.0 509626.0 0
220029.0 509579.0 0
223646.0 508237.0 0
227550.0 508285.0 0
231459.0 508330.0 0
235371.0 508373.0 0
239283.0 508417.0 0
243195.0 508464.0 0
247105.0 508514.0 0
251014.0 508568.0 0
254922.0 508626.0 0
258829.0 508688.0 0
262737.0 508753.0 0
266646.0 508820.0 0
270557.0 508889.0 0
274471.0 508958.0 0
278389.0 509027.0 0
282312.0 509093.0 0
286240.0 509156.0 0
290174.0 509214.0 0
294113.0 509264.0 0
298059.0 509305.0 0
302012.0 509336.0 0
305971.0 509354.0 0
309936.0 509359.0 0
313908.0 509350.0 0
317886.0 509325.0 0
321869.0 509281.0 0
325855.0 509216.0 0
329845.0 509121.0 0
333863.0 509003.0 0
337924.0 508813.0 0
341955.0 508601.0 0
345996.0 508381.0 0
349996.0 508142.0 0
353988.0 507895.0 0
368150.0 510379.0 0
372115.0 510168.0 0
380009.0 510329.0 0
383987.0 510055.0 0
387991.0 509751.0 0
391975.0 509458.0 0
396589.0 508760.0 0
400736.0 508411.0 0
98682.9 512253.0 0
102652.0 512712.0 0
116860.0 510841.0 0
121271.0 511668.0 0
125216.0 512025.0 0
129167.0 512348.0 0
133387.0 512918.0 0
139575.0 511379.0 0
143306.0 512742.0 0
153969.0 510502.0 0
158882.0 511685.0 0
162851.0 511887.0 0
166814.0 512063.0 0
170770.0 512220.0 0
174720.0 512360.0 0
178663.0 512483.0 0
182602.0 512589.0 0
186539.0 512681.0 0
190474.0 512761.0 0
194407.0 512830.0 0
198340.0 512889.0 0
202272.0 512936.0 0
206202.0 512969.0 0
210132.0 512984.0 0
214058.0 512977.0 0
217978.0 512947.0 0
221889.0 512892.0 0
225564.0 511679.0 0
229471.0 511713.0 0
233382.0 511749.0 0
237297.0 511786.0 0
241212.0 511828.0 0
245127.0 511874.0 0
249042.0 511925.0 0
252955.0 511981.0 0
256867.0 512041.0 0
260780.0 512104.0 0
264694.0 512169.0 0
268610.0 512235.0 0
272530.0 512302.0 0
276453.0 512369.0 0
280380.0 512434.0 0
284312.0 512496.0 0
288250.0 512554.0 0
292194.0 512604.0 0
296144.0 512647.0 0
300100.0 512680.0 0
304063.0 512701.0 0
308033.0 512710.0 0
312009.0 512706.0 0
315991.0 512687.0 0
319980.0 512654.0 0
323973.0 512603.0 0
327970.0 512526.0 0
331981.0 512403.0 0
336093.0 512232.0 0
340152.0 512037.0 0
344184.0 511818.0 0
348219.0 511601.0 0
352212.0 511366.0 0
356204.0 511124.0 0
360192.0 510868.0 0
364175.0 510617.0 0
376046.0 510595.0 0
394268.0 512688.0 0
398251.0 512375.0 0
402260.0 512090.0 0
106637.0 513170.0 0
110645.0 513581.0 0
114597.0 514023.0 0
118554.0 514453.0 0
122931.0 515211.0 0
126890.0 515536.0 0
137050.0 514399.0 0
147270.0 513061.0 0
151748.0 513785.0 0
155723.0 514064.0 0
160631.0 515177.0 0
164609.0 515363.0 0
168581.0 515531.0 0
227492.0 515122.0 0
231402.0 515147.0 0
235317.0 515175.0 0
239234.0 515208.0 0
243152.0 515249.0 0
247069.0 515297.0 0
250986.0 515350.0 0
254901.0 515408.0 0
258818.0 515469.0 0
262735.0 515532.0 0
266655.0 515596.0 0
338317.0 515477.0 0
342378.0 515275.0 0
346401.0 515058.0 0
350423.0 514848.0 0
354414.0 514618.0 0
358421.0 514374.0 0
362409.0 514126.0 0
366393.0 513889.0 0
370369.0 513671.0 0
374305.0 514221.0 0
378270.0 513908.0 0
382253.0 513618.0 0
386245.0 513324.0 0
390235.0 513026.0 0
100287.0 515917.0 0
104283.0 516358.0 0
108335.0 516776.0 0
112308.0 517211.0 0
116279.0 517642.0 0
120249.0 518060.0 0
130834.0 515804.0 0
140776.0 515824.0 0
145023.0 516347.0 0
149012.0 516649.0 0
153519.0 517367.0 0
157506.0 517618.0 0
172545.0 515683.0 0
176503.0 515815.0 0
180456.0 515929.0 0
184407.0 516025.0 0
188356.0 516107.0 0
192303.0 516177.0 0
196249.0 516236.0 0
200192.0 516285.0 0
204133.0 516321.0 0
208071.0 516341.0 0
212006.0 516343.0 0
215936.0 516325.0 0
219859.0 516285.0 0
223772.0 516225.0 0
270578.0 515662.0 0
274505.0 515727.0 0
278436.0 515790.0 0
282372.0 515852.0 0
286313.0 515909.0 0
290261.0 515960.0 0
294214.0 516004.0 0
298173.0 516038.0 0
302139.0 516062.0 0
306111.0 516075.0 0
310090.0 516075.0 0
314076.0 516062.0 0
318067.0 516036.0 0
322064.0 515997.0 0
326070.0 515937.0 0
330117.0 515829.0 0
334207.0 515641.0 0
352608.0 518125.0 0
356619.0 517882.0 0
360638.0 517647.0 0
364628.0 517410.0 0
368614.0 517190.0 0
372556.0 517812.0 0
376540.0 517537.0 0
380523.0 517197.0 0
384511.0 516904.0 0
388508.0 516605.0 0
392528.0 516283.0 0
396515.0 515975.0 0
400498.0 515672.0 0
101926.0 519567.0 0
105993.0 519967.0 0
109997.0 520401.0 0
124664.0 518756.0 0
128660.0 519040.0 0
132676.0 519168.0 0
136545.0 518313.0 0
142809.0 519662.0 0
146789.0 519931.0 0
150770.0 520240.0 0
162418.0 518673.0 0
166400.0 518848.0 0
170375.0 519011.0 0
174347.0 519154.0 0
178314.0 519277.0 0
182278.0 519379.0 0
186242.0 519463.0 0
190204.0 519535.0 0
194163.0 519597.0 0
198118.0 519648.0 0
202070.0 519687.0 0
206018.0 519713.0 0
209963.0 519723.0 0
213902.0 519715.0 0
217835.0 519688.0 0
221760.0 519641.0 0
225676.0 519578.0 0
229431.0 518569.0 0
233344.0 518585.0 0
237261.0 518607.0 0
241180.0 518640.0 0
245099.0 518683.0 0
249017.0 518734.0 0
252934.0 518790.0 0
256851.0 518849.0 0
260771.0 518910.0 0
264693.0 518972.0 0
268618.0 519036.0 0
272547.0 519099.0 0
276481.0 519162.0 0
280419.0 519222.0 0
284363.0 519279.0 0
288314.0 519331.0 0
292270.0 519376.0 0
296232.0 519413.0 0
300200.0 519440.0 0
304175.0 519455.0 0
308156.0 519459.0 0
312143.0 519450.0 0
316135.0 519431.0 0
320133.0 519400.0 0
324146.0 519351.0 0
328219.0 519253.0 0
332352.0 519087.0 0
336422.0 518904.0 0
340538.0 518734.0 0
344588.0 518535.0 0
348597.0 518327.0 0
366841.0 520723.0 0
383099.0 520626.0 0
387160.0 520348.0 0
391371.0 520101.0 0
395527.0 519842.0 0
399516.0 519541.0 0
100362.0 523287.0 0
113982.0 520835.0 0
117964.0 521260.0 0
121992.0 521645.0 0
126457.0 522279.0 0
130558.0 522497.0 0
135249.0 522093.0 0
139164.0 521276.0 0
155318.0 520936.0 0
159326.0 521164.0 0
164232.0 522173.0 0
168210.0 522348.0 0
172192.0 522500.0 0
176173.0 522635.0 0
180152.0 522744.0 0
184132.0 522830.0 0
188109.0 522904.0 0
192081.0 522969.0 0
196049.0 523024.0 0
200012.0 523067.0 0
203972.0 523098.0 0
207926.0 523115.0 0
211876.0 523116.0 0
215819.0 523100.0 0
219755.0 523066.0 0
223681.0 523014.0 0
227598.0 522949.0 0
231381.0 522019.0 0
235295.0 522028.0 0
239214.0 522049.0 0
243133.0 522085.0 0
247049.0 522133.0 0
250965.0 522187.0 0
254883.0 522244.0 0
258802.0 522303.0 0
262724.0 522364.0 0
266650.0 522426.0 0
270580.0 522488.0 0
274514.0 522549.0 0
278455.0 522608.0 0
282401.0 522665.0 0
286353.0 522717.0 0
290311.0 522763.0 0
294276.0 522803.0 0
298247.0 522833.0 0
302224.0 522851.0 0
306206.0 522858.0 0
310195.0 522854.0 0
314189.0 522839.0 0
318186.0 522815.0 0
322205.0 522772.0 0
326293.0 522679.0 0
330452.0 522526.0 0
334569.0 522370.0 0
338641.0 522181.0 0
342746.0 522014.0 0
346773.0 521823.0 0
350765.0 521627.0 0
354808.0 521405.0 0
358819.0 521163.0 0
362849.0 520943.0 0
370889.0 521439.0 0
374881.0 521209.0 0
379023.0 520883.0 0
393664.0 523377.0 0
397923.0 523206.0 0
104344.0 523581.0 0
108322.0 523979.0 0
112295.0 524400.0 0
116268.0 524820.0 0
120245.0 525183.0 0
124222.0 525516.0 0
128342.0 525771.0 0
133148.0 525496.0 0
137653.0 525177.0 0
141545.0 524449.0 0
145405.0 523654.0 0
149342.0 523965.0 0
153272.0 524355.0 0
157225.0 524539.0 0
161193.0 524720.0 0
166038.0 525696.0 0
170033.0 525852.0 0
174028.0 525996.0 0
233343.0 525474.0 0
237256.0 525477.0 0
241174.0 525501.0 0
245086.0 525549.0 0
248998.0 525600.0 0
252912.0 525655.0 0
256829.0 525713.0 0
260749.0 525772.0 0
264674.0 525832.0 0
268603.0 525893.0 0
272538.0 525952.0 0
276479.0 526011.0 0
328522.0 525968.0 0
332664.0 525828.0 0
336787.0 525667.0 0
340850.0 525481.0 0
344931.0 525321.0 0
348928.0 525150.0 0
352952.0 524926.0 0
357002.0 524702.0 0
361007.0 524467.0 0
365043.0 524272.0 0
369179.0 525041.0 0
373171.0 524828.0 0
377229.0 524447.0 0
381284.0 524180.0 0
385372.0 523915.0 0
389466.0 523613.0 0
102000.0 527219.0 0
105999.0 527204.0 0
109969.0 527612.0 0
113942.0 528031.0 0
117963.0 528428.0 0
142890.0 528201.0 0
146788.0 527404.0 0
150762.0 527704.0 0
154738.0 528071.0 0
158732.0 528234.0 0
162732.0 528399.0 0
178027.0 526122.0 0
182028.0 526205.0 0
186020.0 526282.0 0
190004.0 526351.0 0
193984.0 526410.0 0
197959.0 526459.0 0
201929.0 526496.0 0
205895.0 526520.0 0
209856.0 526529.0 0
213810.0 526523.0 0
217757.0 526500.0 0
221695.0 526460.0 0
225623.0 526403.0 0
229540.0 526334.0 0
280426.0 526067.0 0
284379.0 526119.0 0
288339.0 526166.0 0
292306.0 526207.0 0
296280.0 526240.0 0
300259.0 526263.0 0
304245.0 526274.0 0
308235.0 526273.0 0
312230.0 526261.0 0
316229.0 526242.0 0
320252.0 526202.0 0
324350.0 526113.0 0
351061.0 528504.0 0
355038.0 528300.0 0
358998.0 528133.0 0
362943.0 527935.0 0
366870.0 528288.0 0
374751.0 528611.0 0
378697.0 528167.0 0
382666.0 527931.0 0
386641.0 527705.0 0
390618.0 527441.0 0
394604.0 527263.0 0
398597.0 527148.0 0
101840.0 531222.0 0
105836.0 531180.0 0
121973.0 528778.0 0
126094.0 529037.0 0
130755.0 528942.0 0
134981.0 529025.0 0
138975.0 528899.0 0
167615.0 529339.0 0
171732.0 529430.0 0
175850.0 529512.0 0
179938.0 529591.0 0
183941.0 529669.0 0
187934.0 529743.0 0
191923.0 529807.0 0
195908.0 529861.0 0
199890.0 529904.0 0
203867.0 529934.0 0
207839.0 529952.0 0
211806.0 529955.0 0
215766.0 529943.0 0
219717.0 529914.0 0
223659.0 529869.0 0
227589.0 529808.0 0
231505.0 529731.0 0
235319.0 528936.0 0
239227.0 528932.0 0
243126.0 528982.0 0
247031.0 529031.0 0
250940.0 529084.0 0
254852.0 529140.0 0
258770.0 529197.0 0
262692.0 529256.0 0
266619.0 529314.0 0
270552.0 529372.0 0
274491.0 529430.0 0
278438.0 529485.0 0
282391.0 529537.0 0
286352.0 529585.0 0
290321.0 529627.0 0
294297.0 529662.0 0
298280.0 529689.0 0
302270.0 529704.0 0
306265.0 529707.0 0
310263.0 529698.0 0
314263.0 529682.0 0
318292.0 529645.0 0
322395.0 529557.0 0
326574.0 529417.0 0
330729.0 529285.0 0
334880.0 529141.0 0
338995.0 528985.0 0
343042.0 528808.0 0
347071.0 528674.0 0
370792.0 528820.0 0
393965.0 531211.0 0
398000.0 531127.0 0
109811.0 531581.0 0
113784.0 532000.0 0
117758.0 532396.0 0
121737.0 532742.0 0
125722.0 532991.0 0
129712.0 532800.0 0
133704.0 532806.0 0
137694.0 532656.0 0
141651.0 531999.0 0
145639.0 531412.0 0
149635.0 531556.0 0
153617.0 531910.0 0
157612.0 532071.0 0
161607.0 532232.0 0
165570.0 532773.0 0
169585.0 532801.0 0
173705.0 532883.0 0
177820.0 532967.0 0
181868.0 533065.0 0
185867.0 533146.0 0
189864.0 533214.0 0
193859.0 533273.0 0
197851.0 533321.0 0
201839.0 533359.0 0
205823.0 533384.0 0
209803.0 533396.0 0
213778.0 533393.0 0
217745.0 533375.0 0
221703.0 533341.0 0
225651.0 533291.0 0
229588.0 533224.0 0
233514.0 533132.0 0
237348.0 532405.0 0
241271.0 532492.0 0
245206.0 532558.0 0
249149.0 532630.0 0
253101.0 532705.0 0
257059.0 532783.0 0
261024.0 532862.0 0
264994.0 532940.0 0
268969.0 533017.0 0
272949.0 533091.0 0
276932.0 533161.0 0
280920.0 533227.0 0
284910.0 533287.0 0
288903.0 533339.0 0
292899.0 533382.0 0
296898.0 533415.0 0
300929.0 533446.0 0
304990.0 533470.0 0
309063.0 533485.0 0
313101.0 533480.0 0
317107.0 533436.0 0
321135.0 533323.0 0
325159.0 533132.0 0
329181.0 532947.0 0
333274.0 532779.0 0
337395.0 532627.0 0
341513.0 532479.0 0
345589.0 532368.0 0
349648.0 532236.0 0
353727.0 532064.0 0
357869.0 531954.0 0
361929.0 531860.0 0
365917.0 532166.0 0
369890.0 532714.0 0
373906.0 532541.0 0
377896.0 532092.0 0
381904.0 531858.0 0
385915.0 531638.0 0
389943.0 531384.0 0
102000.0 535219.0 0
106001.0 535165.0 0
110011.0 535563.0 0
114011.0 535980.0 0
118018.0 536374.0 0
142051.0 535976.0 0
146014.0 535431.0 0
150013.0 535540.0 0
154018.0 535889.0 0
158021.0 536048.0 0
162027.0 536208.0 0
238179.0 536306.0 0
242178.0 536376.0 0
246177.0 536427.0 0
342091.0 536427.0 0
346082.0 536331.0 0
350073.0 536210.0 0
354064.0 536043.0 0
358058.0 535943.0 0
362054.0 535861.0 0
366041.0 536161.0 0
378006.0 536091.0 0
382005.0 535856.0 0
386004.0 535637.0 0
390002.0 535384.0 0
394001.0 535211.0 0
398000.0 535127.0 0
122028.0 536717.0 0
126024.0 536966.0 0
130020.0 536787.0 0
134023.0 536789.0 0
138078.0 536623.0 0
166064.0 536742.0 0
170066.0 536761.0 0
174083.0 536852.0 0
178099.0 536941.0 0
182114.0 537036.0 0
186129.0 537118.0 0
190150.0 537183.0 0
194161.0 537240.0 0
198171.0 537286.0 0
202182.0 537321.0 0
206194.0 537343.0 0
210204.0 537352.0 0
214215.0 537345.0 0
218224.0 537322.0 0
222228.0 537283.0 0
226233.0 537224.0 0
230246.0 537145.0 0
234247.0 537034.0 0
250176.0 536485.0 0
254179.0 536547.0 0
258191.0 536610.0 0
262202.0 536674.0 0
266213.0 536740.0 0
270214.0 536808.0 0
274213.0 536875.0 0
278212.0 536941.0 0
282210.0 537003.0 0
286207.0 537061.0 0
290203.0 537112.0 0
294199.0 537155.0 0
298195.0 537190.0 0
302189.0 537233.0 0
306184.0 537278.0 0
310177.0 537316.0 0
314170.0 537323.0 0
318162.0 537283.0 0
322152.0 537181.0 0
326139.0 537000.0 0
330126.0 536825.0 0
334114.0 536681.0 0
338102.0 536555.0 0
370008.0 536710.0 0
374011.0 536540.0 0
POINT_DATA 4650
SCALARS Radius float 1
LOOKUP_TABLE default
4000.0 4000.0 4000.0 4000.0 4000.0 4000.0 4000.0 4000.0 4000.0 4000.0 4000.0 4000.0 4000.0 4000.0 4000.0 4000.0 4000.0 4000.0 4000.0 4000.0 4000.0 4000.0 4000.0 4000.0 4000.0 4000.0 4000.0 4000.0 4000.0 4000.0 4000.0 4000.0 4000.0 4000.0 4000.0 4000.0 4000.0 4000.0 4000.0 4000.0 4000.0 4000.0 4000.0 4000.0 4000.0 4000.0 4000.0 4000.0 4000.0 4000.0 4000.0 4000.0 4000.0 4000.0 4000.0 4000.0 4000.0 4000.0 4000.0 4000.0 4000.0 4000.0 4000.0 4000.0 4000.0 4000.0 4000.0 4000.0 4000.0 4000.0 4000.0 4000.0 4000.0 4000.0 4000.0 4000.0 4000.0 4000.0 4000.0 4000.0 4000.0 4000.0 4000.0 4000.0 4000.0 4000.0 4000.0 4000.0 4000.0 4000.0 4000.0 4000.0 4000.0 4000.0 4000.0 4000.0 4000.0 4000.0 4000.0 4000.0 4000.0 4000.0 4000.0 4000.0 4000.0 4000.0 4000.0 4000.0 4000.0 4000.0 4000.0 4000.0 4000.0 4000.0 4000.0 4000.0 4000.0 4000.0 4000.0 4000.0 4000.0 4000.0 4000.0 4000.0 4000.0 4000.0 4000.0 4000.0 4000.0 4000.0 4000.0 4000.0 4000.0 4000.0 4000.0 4000.0 4000.0 4000.0 4000.0 4000.0 4000.0 4000.0 4000.0 4000.0 4000.0 4000.0 4000.0 4000.0 4000.0 4000.0 4000.0 4000.0 4000.0 4000.0 4000.0 4000.0 4000.0 4000.0 4000.0 4000.0 4000.0 4000.0 4000.0 4000.0 4000.0 4000.0 4000.0 4000.0 4000.0 4000.0 4000.0 4000.0 4000.0 4000.0 4000.0 4000.0 4000.0 4000.0 4000.0 4000.0 4000.0 4000.0 4000.0 4000.0 4000.0 4000.0 4000.0 4000.0 4000.0 4000.0 4000.0 4000.0 4000.0 4000.0 4000.0 4000.0 4000.0 4000.0 4000.0 4000.0 4000.0 4000.0 4000.0 4000.0 4000.0 4000.0 4000.0 4000.0 4000.0 4000.0 4000.0 4000.0 4000.0 4000.0 4000.0 4000.0 4000.0 4000.0 4000.0 4000.0 4000.0 4000.0 4000.0 4000.0 4000.0 4000.0 4000.0 4000.0 4000.0 4000.0 4000.0 4000.0 4000.0 4000.0 4000.0 4000.0 4000.0 4000.0 4000.0 4000.0 4000.0 4000.0 4000.0 4000.0 4000.0 4000.0 4000.0 4000.0 4000.0 4000.0 4000.0 4000.0 4000.0 4000.0 4000.0 4000.0 4000.0 4000.0 4000.0 4000.0 4000.0 4000.0 4000.0 4000.0 4000.0 4000.0 4000.0 4000.0 4000.0 4000.0 4000.0 4000.0 4000.0 4000.0 4000.0 4000.0 4000.0 4000.0 4000.0 4000.0 4000.0 4000.0 4000.0 4000.0 4000.0 4000.0 4000.0 4000.0 4000.0 4000.0 4000.0 4000.0 4000.0 4000.0 4000.0 4000.0 4000.0 4000.0 4000.0 4000.0 4000.0 4000.0 4000.0 4000.0 4000.0 4000.0 4000.0 4000.0 4000.0 4000.0 4000.0 4000.0 4000.0 4000.0 4000.0 4000.0 4000.0 4000.0 4000.0 4000.0 4000.0 4000.0 4000.0 4000.0 4000.0 4000.0 4000.0 4000.0 4000.0 4000.0 4000.0 4000.0 4000.0 4000.0 4000.0 4000.0 4000.0 4000.0 4000.0 4000.0 4000.0 4000.0 4000.0 4000.0 4000.0 4000.0 4000.0 4000.0 4000.0 4000.0 4000.0 4000.0 4000.0 4000.0 4000.0 4000.0 4000.0 4000.0 4000.0 4000.0 4000.0 4000.0 4000.0 4000.0 4000.0 4000.0 4000.0 4000.0 4000.0 4000.0 4000.0 4000.0 4000.0 4000.0 4000.0 4000.0 4000.0 4000.0 4000.0 4000.0 4000.0 4000.0 4000.0 4000.0 4000.0 4000.0 4000.0 4000.0 4000.0 4000.0 4000.0 4000.0 4000.0 4000.0 4000.0 4000.0 4000.0 4000.0 4000.0 4000.0 4000.0 4000.0 4000.0 4000.0 4000.0 4000.0 4000.0 4000.0 4000.0 4000.0 4000.0 4000.0 4000.0 4000.0 4000.0 4000.0 4000.0 4000.0 4000.0 4000.0 4000.0 4000.0 4000.0 4000.0 4000.0 4000.0 4000.0 4000.0 4000.0 4000.0 4000.0 4000.0 4000.0 4000.0 4000.0 4000.0 4000.0 4000.0 4000.0 4000.0 4000.0 4000.0 4000.0 4000.0 4000.0 4000.0 4000.0 4000.0 4000.0 4000.0 4000.0 4000.0 4000.0 4000.0 4000.0 4000.0 4000.0 4000.0 4000.0 4000.0 4000.0 4000.0 4000.0 4000.0 4000.0 4000.0 4000.0 4000.0 4000.0 4000.0 4000.0 4000.0 4000.0 4000.0 4000.0 4000.0 4000.0 4000.0 4000.0 4000.0 4000.0 4000.0 4000.0 4000.0 4000.0 4000.0 4000.0 4000.0 4000.0 4000.0 4000.0 4000.0 4000.0 4000.0 4000.0 4000.0 4000.0 4000.0 4000.0 4000.0 4000.0 4000.0 4000.0 4000.0 4000.0 4000.0 4000.0 4000.0 4000.0 4000.0 4000.0 4000.0 4000.0 4000.0 4000.0 4000.0 4000.0 4000.0 4000.0 4000.0 4000.0 4000.0 4000.0 4000.0 4000.0 4000.0 4000.0 4000.0 4000.0 4000.0 4000.0 4000.0 4000.0 4000.0 4000.0 4000.0 4000.0 4000.0 4000.0 4000.0 4000.0 4000.0 4000.0 4000.0 4000.0 4000.0 4000.0 4000.0 4000.0 4000.0 4000.0 4000.0 4000.0 4000.0 4000.0 4000.0 4000.0 4000.0 4000.0 4000.0 4000.0 4000.0 4000.0 4000.0 4000.0 4000.0 4000.0 4000.0 4000.0 4000.0 4000.0 4000.0 4000.0 4000.0 4000.0 4000.0 4000.0 4000.0 4000.0 4000.0 4000.0 4000.0 4000.0 4000.0 4000.0 4000.0 4000.0 4000.0 4000.0 4000.0 4000.0 4000.0 4000.0 4000.0 4000.0 4000.0 4000.0 4000.0 4000.0 4000.0 4000.0 4000.0 4000.0 4000.0 4000.0 4000.0 4000.0 4000.0 4000.0 4000.0 4000.0 4000.0 4000.0 4000.0 4000.0 4000.0 4000.0 4000.0 4000.0 4000.0 4000.0 4000.0 4000.0 4000.0 4000.0 4000.0 4000.0 4000.0 4000.0 4000.0 4000.0 4000.0 4000.0 4000.0 4000.0 4000.0 4000.0 4000.0 4000.0 4000.0 4000.0 4000.0 4000.0 4000.0 4000.0 4000.0 4000.0 4000.0 4000.0 4000.0 4000.0 4000.0 4000.0 4000.0 4000.0 4000.0 4000.0 4000.0 4000.0 4000.0 4000.0 4000.0 4000.0 4000.0 4000.0 4000.0 4000.0 4000.0 4000.0 4000.0 4000.0 4000.0 4000.0 4000.0 4000.0 4000.0 4000.0 4000.0 4000.0 4000.0 4000.0 4000.0 4000.0 4000.0 4000.0 4000.0 4000.0 4000.0 4000.0 4000.0 4000.0 4000.0 4000.0 4000.0 4000.0 4000.0 4000.0 4000.0 4000.0 4000.0 4000.0 4000.0 4000.0 4000.0 4000.0 4000.0 4000.0 4000.0 4000.0 4000.0 4000.0 4000.0 4000.0 4000.0 4000.0 4000.0 4000.0 4000.0 4000.0 4000.0 4000.0 4000.0 4000.0 4000.0 4000.0 4000.0 4000.0 4000.0 4000.0 4000.0 4000.0 4000.0 4000.0 4000.0 4000.0 4000.0 4000.0 4000.0 4000.0 4000.0 4000.0 4000.0 4000.0 4000.0 4000.0 4000.0 4000.0 4000.0 4000.0 4000.0 4000.0 4000.0 4000.0 4000.0 4000.0 4000.0 4000.0 4000.0 4000.0 4000.0 4000.0 4000.0 4000.0 4000.0 4000.0 4000.0 4000.0 4000.0 4000.0 4000.0 4000.0 4000.0 4000.0 4000.0 4000.0 4000.0 4000.0 4000.0 4000.0 4000.0 4000.0 4000.0 4000.0 4000.0 4000.0 4000.0 4000.0 4000.0 4000.0 4000.0 4000.0 4000.0 4000.0 4000.0 4000.0 4000.0 4000.0 4000.0 4000.0 4000.0 4000.0 4000.0 4000.0 4000.0 4000.0 4000.0 4000.0 4000.0 4000.0 4000.0 4000.0 4000.0 4000.0 4000.0 4000.0 4000.0 4000.0 4000.0 4000.0 4000.0 4000.0 4000.0 4000.0 4000.0 4000.0 4000.0 4000.0 4000.0 4000.0 4000.0 4000.0 4000.0 4000.0 4000.0 4000.0 4000.0 4000.0 4000.0 4000.0 4000.0 4000.0 4000.0 4000.0 4000.0 4000.0 4000.0 4000.0 4000.0 4000.0 4000.0 4000.0 4000.0 4000.0 4000.0 4000.0 4000.0 4000.0 4000.0 4000.0 4000.0 4000.0 4000.0 4000.0 4000.0 4000.0 4000.0 4000.0 4000.0 4000.0 4000.0 4000.0 4000.0 4000.0 4000.0 4000.0 4000.0 4000.0 4000.0 4000.0 4000.0 4000.0 4000.0 4000.0 4000.0 4000.0 4000.0 4000.0 4000.0 4000.0 4000.0 4000.0 4000.0 4000.0 4000.0 4000.0 4000.0 4000.0 4000.0 4000.0 4000.0 4000.0 4000.0 4000.0 4000.0 4000.0 4000.0 4000.0 4000.0 4000.0 4000.0 4000.0 4000.0 4000.0 4000.0 4000.0 4000.0 4000.0 4000.0 4000.0 4000.0 4000.0 4000.0 4000.0 4000.0 4000.0 4000.0 4000.0 4000.0 4000.0 4000.0 4000.0 4000.0 4000.0 4000.0 4000.0 4000.0 4000.0 4000.0 4000.0 4000.0 4000.0 4000.0 4000.0 4000.0 4000.0 4000.0 4000.0 4000.0 4000.0 4000.0 4000.0 4000.0 4000.0 4000.0 4000.0 4000.0 4000.0 4000.0 4000.0 4000.0 4000.0 4000.0 4000.0 4000.0 4000.0 4000.0 4000.0 4000.0 4000.0 4000.0 4000.0 4000.0 4000.0 4000.0 4000.0 4000.0 4000.0 4000.0 4000.0 4000.0 4000.0 4000.0 4000.0 4000.0 4000.0 4000.0 4000.0 4000.0 4000.0 4000.0 4000.0 4000.0 4000.0 4000.0 4000.0 4000.0 4000.0 4000.0 4000.0 4000.0 4000.0 4000.0 4000.0 4000.0 4000.0 4000.0 4000.0 4000.0 4000.0 4000.0 4000.0 4000.0 4000.0 4000.0 4000.0 4000.0 4000.0 4000.0 4000.0 4000.0 4000.0 4000.0 4000.0 4000.0 4000.0 4000.0 4000.0 4000.0 4000.0 4000.0 4000.0 4000.0 4000.0 4000.0 4000.0 4000.0 4000.0 4000.0 4000.0 4000.0 4000.0 4000.0 4000.0 4000.0 4000.0 4000.0 4000.0 4000.0 4000.0 4000.0 4000.0 4000.0 4000.0 4000.0 4000.0 4000.0 4000.0 4000.0 4000.0 4000.0 4000.0 4000.0 4000.0 4000.0 4000.0 4000.0 4000.0 4000.0 4000.0 4000.0 4000.0 4000.0 4000.0 4000.0 4000.0 4000.0 4000.0 4000.0 4000.0 4000.0 4000.0 4000.0 4000.0 4000.0 4000.0 4000.0 4000.0 4000.0 4000.0 4000.0 4000.0 4000.0 4000.0 4000.0 4000.0 4000.0 4000.0 4000.0 4000.0 4000.0 4000.0 4000.0 4000.0 4000.0 4000.0 4000.0 4000.0 4000.0 4000.0 4000.0 4000.0 4000.0 4000.0 4000.0 4000.0 4000.0 4000.0 4000.0 4000.0 4000.0 4000.0 4000.0 4000.0 4000.0 4000.0 4000.0 4000.0 4000.0 4000.0 4000.0 4000.0 4000.0 4000.0 4000.0 4000.0 4000.0 4000.0 4000.0 4000.0 4000.0 4000.0 4000.0 4000.0 4000.0 4000.0 4000.0 4000.0 4000.0 4000.0 4000.0 4000.0 4000.0 4000.0 4000.0 4000.0 4000.0 4000.0 4000.0 4000.0 4000.0 4000.0 4000.0 4000.0 4000.0 4000.0 4000.0 4000.0 4000.0 4000.0 4000.0 4000.0 4000.0 4000.0 4000.0 4000.0 4000.0 4000.0 4000.0 4000.0 4000.0 4000.0 4000.0 4000.0 4000.0 4000.0 4000.0 4000.0 4000.0 4000.0 4000.0 4000.0 4000.0 4000.0 4000.0 4000.0 4000.0 4000.0 4000.0 4000.0 4000.0 4000.0 4000.0 4000.0 4000.0 4000.0 4000.0 4000.0 4000.0 4000.0 4000.0 4000.0 4000.0 4000.0 4000.0 4000.0 4000.0 4000.0 4000.0 4000.0 4000.0 4000.0 4000.0 4000.0 4000.0 4000.0 4000.0 4000.0 4000.0 4000.0 4000.0 4000.0 4000.0 4000.0 4000.0 4000.0 4000.0 4000.0 4000.0 4000.0 4000.0 4000.0 4000.0 4000.0 4000.0 4000.0 4000.0 4000.0 4000.0 4000.0 4000.0 4000.0 4000.0 4000.0 4000.0 4000.0 4000.0 4000.0 4000.0 4000.0 4000.0 4000.0 4000.0 4000.0 4000.0 4000.0 4000.0 4000.0 4000.0 4000.0 4000.0 4000.0 4000.0 4000.0 4000.0 4000.0 4000.0 4000.0 4000.0 4000.0 4000.0 4000.0 4000.0 4000.0 4000.0 4000.0 4000.0 4000.0 4000.0 4000.0 4000.0 4000.0 4000.0 4000.0 4000.0 4000.0 4000.0 4000.0 4000.0 4000.0 4000.0 4000.0 4000.0 4000.0 4000.0 4000.0 4000.0 4000.0 4000.0 4000.0 4000.0 4000.0 4000.0 4000.0 4000.0 4000.0 4000.0 4000.0 4000.0 4000.0 4000.0 4000.0 4000.0 4000.0 4000.0 4000.0 4000.0 4000.0 4000.0 4000.0 4000.0 4000.0 4000.0 4000.0 4000.0 4000.0 4000.0 4000.0 4000.0 4000.0 4000.0 4000.0 4000.0 4000.0 4000.0 4000.0 4000.0 4000.0 4000.0 4000.0 4000.0 4000.0 4000.0 4000.0 4000.0 4000.0 4000.0 4000.0 4000.0 4000.0 4000.0 4000.0 4000.0 4000.0 4000.0 4000.0 4000.0 4000.0 4000.0 4000.0 4000.0 4000.0 4000.0 4000.0 4000.0 4000.0 4000.0 4000.0 4000.0 4000.0 4000.0 4000.0 4000.0 4000.0 4000.0 4000.0 4000.0 4000.0 4000.0 4000.0 4000.0 4000.0 4000.0 4000.0 4000.0 4000.0 4000.0 4000.0 4000.0 4000.0 4000.0 4000.0 4000.0 4000.0 4000.0 4000.0 4000.0 4000.0 4000.0 4000.0 4000.0 4000.0 4000.0 4000.0 4000.0 4000.0 4000.0 4000.0 4000.0 4000.0 4000.0 4000.0 4000.0 4000.0 4000.0 4000.0 4000.0 4000.0 4000.0 4000.0 4000.0 4000.0 4000.0 4000.0 4000.0 4000.0 4000.0 4000.0 4000.0 4000.0 4000.0 4000.0 4000.0 4000.0 4000.0 4000.0 4000.0 4000.0 4000.0 4000.0 4000.0 4000.0 4000.0 4000.0 4000.0 4000.0 4000.0 4000.0 4000.0 4000.0 4000.0 4000.0 4000.0 4000.0 4000.0 4000.0 4000.0 4000.0 4000.0 4000.0 4000.0 4000.0 4000.0 4000.0 4000.0 4000.0 4000.0 4000.0 4000.0 4000.0 4000.0 4000.0 4000.0 4000.0 4000.0 4000.0 4000.0 4000.0 4000.0 4000.0 4000.0 4000.0 4000.0 4000.0 4000.0 4000.0 4000.0 4000.0 4000.0 4000.0 4000.0 4000.0 4000.0 4000.0 4000.0 4000.0 4000.0 4000.0 4000.0 4000.0 4000.0 4000.0 4000.0 4000.0 4000.0 4000.0 4000.0 4000.0 4000.0 4000.0 4000.0 4000.0 4000.0 4000.0 4000.0 4000.0 4000.0 4000.0 4000.0 4000.0 4000.0 4000.0 4000.0 4000.0 4000.0 4000.0 4000.0 4000.0 4000.0 4000.0 4000.0 4000.0 4000.0 4000.0 4000.0 4000.0 4000.0 4000.0 4000.0 4000.0 4000.0 4000.0 4000.0 4000.0 4000.0 4000.0 4000.0 4000.0 4000.0 4000.0 4000.0 4000.0 4000.0 4000.0 4000.0 4000.0 4000.0 4000.0 4000.0 4000.0 4000.0 4000.0 4000.0 4000.0 4000.0 4000.0 4000.0 4000.0 4000.0 4000.0 4000.0 4000.0 4000.0 4000.0 4000.0 4000.0 4000.0 4000.0 4000.0 4000.0 4000.0 4000.0 4000.0 4000.0 4000.0 4000.0 4000.0 4000.0 4000.0 4000.0 4000.0 4000.0 4000.0 4000.0 4000.0 4000.0 4000.0 4000.0 4000.0 4000.0 4000.0 4000.0 4000.0 4000.0 4000.0 4000.0 4000.0 4000.0 4000.0 4000.0 4000.0 4000.0 4000.0 4000.0 4000.0 4000.0 4000.0 4000.0 4000.0 4000.0 4000.0 4000.0 4000.0 4000.0 4000.0 4000.0 4000.0 4000.0 4000.0 4000.0 4000.0 4000.0 4000.0 4000.0 4000.0 4000.0 4000.0 4000.0 4000.0 4000.0 4000.0 4000.0 4000.0 4000.0 4000.0 4000.0 4000.0 4000.0 4000.0 4000.0 4000.0 4000.0 4000.0 4000.0 4000.0 4000.0 4000.0 4000.0 4000.0 4000.0 4000.0 4000.0 4000.0 4000.0 4000.0 4000.0 4000.0 4000.0 4000.0 4000.0 4000.0 4000.0 4000.0 4000.0 4000.0 4000.0 4000.0 4000.0 4000.0 4000.0 4000.0 4000.0 4000.0 4000.0 4000.0 4000.0 4000.0 4000.0 4000.0 4000.0 4000.0 4000.0 4000.0 4000.0 4000.0 4000.0 4000.0 4000.0 4000.0 4000.0 4000.0 4000.0 4000.0 4000.0 4000.0 4000.0 4000.0 4000.0 4000.0 4000.0 4000.0 4000.0 4000.0 4000.0 4000.0 4000.0 4000.0 4000.0 4000.0 4000.0 4000.0 4000.0 4000.0 4000.0 4000.0 4000.0 4000.0 4000.0 4000.0 4000.0 4000.0 4000.0 4000.0 4000.0 4000.0 4000.0 4000.0 4000.0 4000.0 4000.0 4000.0 4000.0 4000.0 4000.0 4000.0 4000.0 4000.0 4000.0 4000.0 4000.0 4000.0 4000.0 4000.0 4000.0 4000.0 4000.0 4000.0 4000.0 4000.0 4000.0 4000.0 4000.0 4000.0 4000.0 4000.0 4000.0 4000.0 4000.0 4000.0 4000.0 4000.0 4000.0 4000.0 4000.0 4000.0 4000.0 4000.0 4000.0 4000.0 4000.0 4000.0 4000.0 4000.0 4000.0 4000.0 4000.0 4000.0 4000.0 4000.0 4000.0 4000.0 4000.0 4000.0 4000.0 4000.0 4000.0 4000.0 4000.0 4000.0 4000.0 4000.0 4000.0 4000.0 4000.0 4000.0 4000.0 4000.0 4000.0 4000.0 4000.0 4000.0 4000.0 4000.0 4000.0 4000.0 4000.0 4000.0 4000.0 4000.0 4000.0 4000.0 4000.0 4000.0 4000.0 4000.0 4000.0 4000.0 4000.0 4000.0 4000.0 4000.0 4000.0 4000.0 4000.0 4000.0 4000.0 4000.0 4000.0 4000.0 4000.0 4000.0 4000.0 4000.0 4000.0 4000.0 4000.0 4000.0 4000.0 4000.0 4000.0 4000.0 4000.0 4000.0 4000.0 4000.0 4000.0 4000.0 4000.0 4000.0 4000.0 4000.0 4000.0 4000.0 4000.0 4000.0 4000.0 4000.0 4000.0 4000.0 4000.0 4000.0 4000.0 4000.0 4000.0 4000.0 4000.0 4000.0 4000.0 4000.0 4000.0 4000.0 4000.0 4000.0 4000.0 4000.0 4000.0 4000.0 4000.0 4000.0 4000.0 4000.0 4000.0 4000.0 4000.0 4000.0 4000.0 4000.0 4000.0 4000.0 4000.0 4000.0 4000.0 4000.0 4000.0 4000.0 4000.0 4000.0 4000.0 4000.0 4000.0 4000.0 4000.0 4000.0 4000.0 4000.0 4000.0 4000.0 4000.0 4000.0 4000.0 4000.0 4000.0 4000.0 4000.0 4000.0 4000.0 4000.0 4000.0 4000.0 4000.0 4000.0 4000.0 4000.0 4000.0 4000.0 4000.0 4000.0 4000.0 4000.0 4000.0 4000.0 4000.0 4000.0 4000.0 4000.0 4000.0 4000.0 4000.0 4000.0 4000.0 4000.0 4000.0 4000.0 4000.0 4000.0 4000.0 4000.0 4000.0 4000.0 4000.0 4000.0 4000.0 4000.0 4000.0 4000.0 4000.0 4000.0 4000.0 4000.0 4000.0 4000.0 4000.0 4000.0 4000.0 4000.0 4000.0 4000.0 4000.0 4000.0 4000.0 4000.0 4000.0 4000.0 4000.0 4000.0 4000.0 4000.0 4000.0 4000.0 4000.0 4000.0 4000.0 4000.0 4000.0 4000.0 4000.0 4000.0 4000.0 4000.0 4000.0 4000.0 4000.0 4000.0 4000.0 4000.0 4000.0 4000.0 4000.0 4000.0 4000.0 4000.0 4000.0 4000.0 4000.0 4000.0 4000.0 4000.0 4000.0 4000.0 4000.0 4000.0 4000.0 4000.0 4000.0 4000.0 4000.0 4000.0 4000.0 4000.0 4000.0 4000.0 4000.0 4000.0 4000.0 4000.0 4000.0 4000.0 4000.0 4000.0 4000.0 4000.0 4000.0 4000.0 4000.0 4000.0 4000.0 4000.0 4000.0 4000.0 4000.0 4000.0 4000.0 4000.0 4000.0 4000.0 4000.0 4000.0 4000.0 4000.0 4000.0 4000.0 4000.0 4000.0 4000.0 4000.0 4000.0 4000.0 4000.0 4000.0 4000.0 4000.0 4000.0 4000.0 4000.0 4000.0 4000.0 4000.0 4000.0 4000.0 4000.0 4000.0 4000.0 4000.0 4000.0 4000.0 4000.0 4000.0 4000.0 4000.0 4000.0 4000.0 4000.0 4000.0 4000.0 4000.0 4000.0 4000.0 4000.0 4000.0 4000.0 4000.0 4000.0 4000.0 4000.0 4000.0 4000.0 4000.0 4000.0 4000.0 4000.0 4000.0 4000.0 4000.0 4000.0 4000.0 4000.0 4000.0 4000.0 4000.0 4000.0 4000.0 4000.0 4000.0 4000.0 4000.0 4000.0 4000.0 4000.0 4000.0 4000.0 4000.0 4000.0 4000.0 4000.0 4000.0 4000.0 4000.0 4000.0 4000.0 4000.0 4000.0 4000.0 4000.0 4000.0 4000.0 4000.0 4000.0 4000.0 4000.0 4000.0 4000.0 4000.0 4000.0 4000.0 4000.0 4000.0 4000.0 4000.0 4000.0 4000.0 4000.0 4000.0 4000.0 4000.0 4000.0 4000.0 4000.0 4000.0 4000.0 4000.0 4000.0 4000.0 4000.0 4000.0 4000.0 4000.0 4000.0 4000.0 4000.0 4000.0 4000.0 4000.0 4000.0 4000.0 4000.0 4000.0 4000.0 4000.0 4000.0 4000.0 4000.0 4000.0 4000.0 4000.0 4000.0 4000.0 4000.0 4000.0 4000.0 4000.0 4000.0 4000.0 4000.0 4000.0 4000.0 4000.0 4000.0 4000.0 4000.0 4000.0 4000.0 4000.0 4000.0 4000.0 4000.0 4000.0 4000.0 4000.0 4000.0 4000.0 4000.0 4000.0 4000.0 4000.0 4000.0 4000.0 4000.0 4000.0 4000.0 4000.0 4000.0 4000.0 4000.0 4000.0 4000.0 4000.0 4000.0 4000.0 4000.0 4000.0 4000.0 4000.0 4000.0 4000.0 4000.0 4000.0 4000.0 4000.0 4000.0 4000.0 4000.0 4000.0 4000.0 4000.0 4000.0 4000.0 4000.0 4000.0 4000.0 4000.0 4000.0 4000.0 4000.0 4000.0 4000.0 4000.0 4000.0 4000.0 4000.0 4000.0 4000.0 4000.0 4000.0 4000.0 4000.0 4000.0 4000.0 4000.0 4000.0 4000.0 4000.0 4000.0 4000.0 4000.0 4000.0 4000.0 4000.0 4000.0 4000.0 4000.0 4000.0 4000.0 4000.0 4000.0 4000.0 4000.0 4000.0 4000.0 4000.0 4000.0 4000.0 4000.0 4000.0 4000.0 4000.0 4000.0 4000.0 4000.0 4000.0 4000.0 4000.0 4000.0 4000.0 4000.0 4000.0 4000.0 4000.0 4000.0 4000.0 4000.0 4000.0 4000.0 4000.0 4000.0 4000.0 4000.0 4000.0 4000.0 4000.0 4000.0 4000.0 4000.0 4000.0 4000.0 4000.0 4000.0 4000.0 4000.0 4000.0 4000.0 4000.0 4000.0 4000.0 4000.0 4000.0 4000.0 4000.0 4000.0 4000.0 4000.0 4000.0 4000.0 4000.0 4000.0 4000.0 4000.0 4000.0 4000.0 4000.0 4000.0 4000.0 4000.0 4000.0 4000.0 4000.0 4000.0 4000.0 4000.0 4000.0 4000.0 4000.0 4000.0 4000.0 4000.0 4000.0 4000.0 4000.0 4000.0 4000.0 4000.0 4000.0 4000.0 4000.0 4000.0 4000.0 4000.0 4000.0 4000.0 4000.0 4000.0 4000.0 4000.0 4000.0 4000.0 4000.0 4000.0 4000.0 4000.0 4000.0 4000.0 4000.0 4000.0 4000.0 4000.0 4000.0 4000.0 4000.0 4000.0 4000.0 4000.0 4000.0 4000.0 4000.0 4000.0 4000.0 4000.0 4000.0 4000.0 4000.0 4000.0 4000.0 4000.0 4000.0 4000.0 4000.0 4000.0 4000.0 4000.0 4000.0 4000.0 4000.0 4000.0 4000.0 4000.0 4000.0 4000.0 4000.0 4000.0 4000.0 4000.0 4000.0 4000.0 4000.0 4000.0 4000.0 4000.0 4000.0 4000.0 4000.0 4000.0 4000.0 4000.0 4000.0 4000.0 4000.0 4000.0 4000.0 4000.0 4000.0 4000.0 4000.0 4000.0 4000.0 4000.0 4000.0 4000.0 4000.0 4000.0 4000.0 4000.0 4000.0 4000.0 4000.0 4000.0 4000.0 4000.0 4000.0 4000.0 4000.0 4000.0 4000.0 4000.0 4000.0 4000.0 4000.0 4000.0 4000.0 4000.0 4000.0 4000.0 4000.0 4000.0 4000.0 4000.0 4000.0 4000.0 4000.0 4000.0 4000.0 4000.0 4000.0 4000.0 4000.0 4000.0 4000.0 4000.0 4000.0 4000.0 4000.0 4000.0 4000.0 4000.0 4000.0 4000.0 4000.0 4000.0 4000.0 4000.0 4000.0 4000.0 4000.0 4000.0 4000.0 4000.0 4000.0 4000.0 4000.0 4000.0 4000.0 4000.0 4000.0 4000.0 4000.0 4000.0 4000.0 4000.0 4000.0 4000.0 4000.0 4000.0 4000.0 4000.0 4000.0 4000.0 4000.0 4000.0 4000.0 4000.0 4000.0 4000.0 4000.0 4000.0 4000.0 4000.0 4000.0 4000.0 4000.0 4000.0 4000.0 4000.0 4000.0 4000.0 4000.0 4000.0 4000.0 4000.0 4000.0 4000.0 4000.0 4000.0 4000.0 4000.0 4000.0 4000.0 4000.0 4000.0 4000.0 4000.0 4000.0 4000.0 4000.0 4000.0 4000.0 4000.0 4000.0 4000.0 4000.0 4000.0 4000.0 4000.0 4000.0 4000.0 4000.0 4000.0 4000.0 4000.0 4000.0 4000.0 4000.0 4000.0 4000.0 4000.0 4000.0 4000.0 4000.0 4000.0 4000.0 4000.0 4000.0 4000.0 4000.0 4000.0 4000.0 4000.0 4000.0 4000.0 4000.0 4000.0 4000.0 4000.0 4000.0 4000.0 4000.0 4000.0 4000.0 4000.0 4000.0 4000.0 4000.0 4000.0 4000.0 4000.0 4000.0 4000.0 4000.0 4000.0 4000.0 4000.0 4000.0 4000.0 4000.0 4000.0 4000.0 4000.0 4000.0 4000.0 4000.0 4000.0 4000.0 4000.0 4000.0 4000.0 4000.0 4000.0 4000.0 4000.0 4000.0 4000.0 4000.0 4000.0 4000.0 4000.0 4000.0 4000.0 4000.0 4000.0 4000.0 4000.0 4000.0 4000.0 4000.0 4000.0 4000.0 4000.0 4000.0 4000.0 4000.0 4000.0 4000.0 4000.0 4000.0 4000.0 4000.0 4000.0 4000.0 4000.0 4000.0 4000.0 4000.0 4000.0 4000.0 4000.0 4000.0 4000.0 4000.0 4000.0 4000.0 4000.0 4000.0 4000.0 4000.0 4000.0 4000.0 4000.0 4000.0 4000.0 4000.0 4000.0 4000.0 4000.0 4000.0 4000.0 4000.0 4000.0 4000.0 4000.0 4000.0 4000.0 4000.0 4000.0 4000.0 4000.0 4000.0 4000.0 4000.0 4000.0 4000.0 4000.0 4000.0 4000.0 4000.0 4000.0 4000.0 4000.0 4000.0 4000.0 4000.0 4000.0 4000.0 4000.0 4000.0 4000.0 4000.0 4000.0 4000.0 4000.0 4000.0 4000.0 4000.0 4000.0 4000.0 4000.0 4000.0 4000.0 4000.0 4000.0 4000.0 4000.0 4000.0 4000.0 4000.0 4000.0 4000.0 4000.0 4000.0 4000.0 4000.0 4000.0 4000.0 4000.0 4000.0 4000.0 4000.0 4000.0 4000.0 4000.0 4000.0 4000.0 4000.0 4000.0 4000.0 4000.0 4000.0 4000.0 4000.0 4000.0 4000.0 4000.0 4000.0 4000.0 4000.0 4000.0 4000.0 4000.0 4000.0 4000.0 4000.0 4000.0 4000.0 4000.0 4000.0 4000.0 4000.0 4000.0 4000.0 4000.0 4000.0 4000.0 4000.0 4000.0 4000.0 4000.0 4000.0 4000.0 4000.0 4000.0 4000.0 4000.0 4000.0 4000.0 4000.0 4000.0 4000.0 4000.0 4000.0 4000.0 4000.0 4000.0 4000.0 4000.0 4000.0 4000.0 4000.0 4000.0 4000.0 4000.0 4000.0 4000.0 4000.0 4000.0 4000.0 4000.0 4000.0 4000.0 4000.0 4000.0 4000.0 4000.0 4000.0 4000.0 4000.0 4000.0 4000.0 4000.0 4000.0 4000.0 4000.0 4000.0 4000.0 4000.0 4000.0 4000.0 4000.0 4000.0 4000.0 4000.0 4000.0 4000.0 4000.0 4000.0 4000.0 4000.0 4000.0 4000.0 4000.0 4000.0 4000.0 4000.0 4000.0 4000.0 4000.0 4000.0 4000.0 4000.0 4000.0 4000.0 4000.0 4000.0 4000.0 4000.0 4000.0 4000.0 4000.0 4000.0 4000.0 4000.0 4000.0 4000.0 4000.0 4000.0 4000.0 4000.0 4000.0 4000.0 4000.0 4000.0 4000.0 4000.0 4000.0 4000.0 4000.0 4000.0 4000.0 4000.0 4000.0 4000.0 4000.0 4000.0 4000.0 4000.0 4000.0 4000.0 4000.0 4000.0 4000.0 4000.0 4000.0 4000.0 4000.0 4000.0 4000.0 4000.0 4000.0 4000.0 4000.0 4000.0 4000.0 4000.0 4000.0 4000.0 4000.0 4000.0 4000.0 4000.0 4000.0 4000.0 4000.0 4000.0 4000.0 4000.0 4000.0 4000.0 4000.0 4000.0 4000.0 4000.0 4000.0 4000.0 4000.0 4000.0 4000.0 4000.0 4000.0 4000.0 4000.0 4000.0 4000.0 4000.0 4000.0 4000.0 4000.0 4000.0 4000.0 4000.0 4000.0 4000.0 4000.0 4000.0 4000.0 4000.0 4000.0 4000.0 4000.0 4000.0 4000.0 4000.0 4000.0 4000.0 4000.0 4000.0 4000.0 4000.0 4000.0 4000.0 4000.0 4000.0 4000.0 4000.0 4000.0 4000.0 4000.0 4000.0 4000.0 4000.0 4000.0 4000.0 4000.0 4000.0 4000.0 4000.0 4000.0 4000.0 4000.0 4000.0 4000.0 4000.0 4000.0 4000.0 4000.0 4000.0 4000.0 4000.0 4000.0 4000.0 4000.0 4000.0 4000.0 4000.0 4000.0 4000.0 4000.0 4000.0 4000.0 4000.0 4000.0 4000.0 4000.0 4000.0 4000.0 4000.0 4000.0 4000.0 4000.0 4000.0 4000.0 4000.0 4000.0 4000.0 4000.0 4000.0 4000.0 4000.0 4000.0 4000.0 4000.0 4000.0 4000.0 4000.0 4000.0 4000.0 4000.0 4000.0 4000.0 4000.0 4000.0 4000.0 4000.0 4000.0 4000.0 4000.0 4000.0 4000.0 4000.0 4000.0 4000.0 4000.0 4000.0 4000.0 4000.0 4000.0 4000.0 4000.0 4000.0 4000.0 4000.0 4000.0 4000.0 4000.0 4000.0 4000.0 4000.0 4000.0 4000.0 4000.0 4000.0 4000.0 4000.0 4000.0 4000.0 4000.0 4000.0 4000.0 4000.0 4000.0 4000.0 4000.0 4000.0 4000.0 4000.0 4000.0 4000.0 4000.0 4000.0 4000.0 4000.0 4000.0 4000.0 4000.0 4000.0 4000.0 4000.0 4000.0 4000.0 4000.0 4000.0 4000.0 4000.0 4000.0 4000.0 4000.0 4000.0 4000.0 4000.0 4000.0 4000.0 4000.0 4000.0 4000.0 4000.0 4000.0 4000.0 4000.0 4000.0 4000.0 4000.0 4000.0 4000.0 4000.0 4000.0 4000.0 4000.0 4000.0 4000.0 4000.0 4000.0 4000.0 4000.0 4000.0 4000.0 4000.0 4000.0 4000.0 4000.0 4000.0 4000.0 4000.0 4000.0 4000.0 4000.0 4000.0 4000.0 4000.0 4000.0 4000.0 4000.0 4000.0 4000.0 4000.0 4000.0 4000.0 4000.0 4000.0 4000.0 4000.0 4000.0 4000.0 4000.0 4000.0 4000.0 4000.0 4000.0 4000.0 4000.0 4000.0 4000.0 4000.0 4000.0 4000.0 4000.0 4000.0 4000.0 4000.0 4000.0 4000.0 4000.0 4000.0 4000.0 4000.0 4000.0 4000.0 4000.0 4000.0 4000.0 4000.0 4000.0 4000.0 4000.0 4000.0 4000.0 4000.0 4000.0 4000.0 4000.0 4000.0 4000.0 4000.0 4000.0 4000.0 4000.0 4000.0 4000.0 4000.0 4000.0 4000.0 4000.0 4000.0 4000.0 4000.0 4000.0 4000.0 4000.0 4000.0 4000.0 4000.0 4000.0 4000.0 4000.0 4000.0 4000.0 4000.0 4000.0 4000.0 4000.0 4000.0 4000.0 4000.0 4000.0 4000.0 4000.0 4000.0 4000.0 4000.0 4000.0 4000.0 4000.0 4000.0 4000.0 4000.0 4000.0 4000.0 4000.0 4000.0 4000.0 4000.0 4000.0 4000.0 4000.0 4000.0 4000.0 4000.0 4000.0 4000.0 4000.0 4000.0 4000.0 4000.0 4000.0 4000.0 4000.0 4000.0 4000.0 4000.0 4000.0 4000.0 4000.0 4000.0 4000.0 4000.0 4000.0 4000.0 4000.0 4000.0 4000.0 4000.0 4000.0 4000.0 4000.0 4000.0 4000.0 4000.0 4000.0 4000.0 4000.0 4000.0 4000.0 4000.0 4000.0 4000.0 4000.0 4000.0 4000.0 4000.0 4000.0 4000.0 4000.0 4000.0 4000.0 4000.0 4000.0 4000.0 4000.0 4000.0 4000.0 4000.0 4000.0 4000.0 4000.0 4000.0 4000.0 4000.0 4000.0 4000.0 4000.0 4000.0 4000.0 4000.0 4000.0 4000.0 4000.0 4000.0 4000.0 4000.0 4000.0 4000.0 4000.0 4000.0 4000.0 4000.0 4000.0 4000.0 4000.0 4000.0 4000.0 4000.0 4000.0 4000.0 4000.0 4000.0 4000.0 4000.0 4000.0 4000.0 4000.0 4000.0 4000.0 4000.0 4000.0 4000.0 4000.0 4000.0 4000.0 4000.0 4000.0 4000.0 4000.0 4000.0 4000.0 4000.0 4000.0 4000.0 4000.0 4000.0 4000.0 4000.0 4000.0 4000.0 4000.0 4000.0 4000.0 4000.0 4000.0 4000.0 4000.0 4000.0 4000.0 4000.0 4000.0 4000.0 4000.0 4000.0 4000.0 4000.0 4000.0 4000.0 4000.0 4000.0 4000.0 4000.0 4000.0 4000.0 4000.0 4000.0 4000.0 4000.0 4000.0 4000.0 4000.0 4000.0 4000.0 4000.0 4000.0 4000.0 4000.0 4000.0 4000.0 4000.0 4000.0 4000.0 4000.0 4000.0 4000.0 4000.0 4000.0 4000.0 4000.0 4000.0 4000.0 4000.0 4000.0 4000.0 4000.0 4000.0 4000.0 4000.0 4000.0 4000.0 4000.0 4000.0 4000.0 4000.0 4000.0 4000.0 4000.0 4000.0 4000.0 4000.0 4000.0 4000.0 4000.0 4000.0 4000.0 4000.0 4000.0 4000.0 4000.0 4000.0 4000.0 4000.0 4000.0 4000.0 4000.0 4000.0 4000.0 4000.0 4000.0 4000.0 4000.0 4000.0 4000.0 4000.0 4000.0 4000.0 4000.0 4000.0 4000.0 4000.0 4000.0 4000.0 4000.0 4000.0 4000.0 4000.0 4000.0 4000.0 4000.0 4000.0 4000.0 4000.0 4000.0 4000.0 4000.0 4000.0 4000.0 4000.0 4000.0 4000.0 4000.0 4000.0 4000.0 4000.0 4000.0 4000.0 4000.0 4000.0 4000.0 4000.0 4000.0 4000.0 4000.0 4000.0 4000.0 4000.0 4000.0 4000.0 4000.0 4000.0 4000.0 4000.0 4000.0 4000.0 4000.0 4000.0 4000.0 4000.0 4000.0 4000.0 4000.0 4000.0 4000.0 4000.0 4000.0 4000.0 4000.0 4000.0 4000.0 4000.0 4000.0 4000.0 4000.0 4000.0 4000.0 4000.0 4000.0 4000.0 4000.0 4000.0 4000.0 4000.0 4000.0 4000.0 4000.0 4000.0 4000.0 4000.0 4000.0 4000.0 4000.0 4000.0 4000.0 4000.0 4000.0 4000.0 4000.0 4000.0 4000.0 4000.0 4000.0 4000.0 4000.0 4000.0 4000.0 4000.0 4000.0 4000.0 4000.0 4000.0 4000.0 4000.0 4000.0 4000.0 4000.0 4000.0 4000.0 4000.0 4000.0 4000.0 4000.0 4000.0 4000.0 4000.0 4000.0 4000.0 4000.0 4000.0 4000.0 4000.0 4000.0 4000.0 4000.0 4000.0 4000.0 4000.0 4000.0 4000.0 4000.0 4000.0 4000.0 4000.0 4000.0 4000.0 4000.0 4000.0 4000.0 4000.0 4000.0 4000.0 4000.0 4000.0 4000.0 4000.0 4000.0 4000.0 4000.0 4000.0 4000.0 4000.0 4000.0 4000.0 4000.0 4000.0 4000.0 4000.0 4000.0 4000.0 4000.0 4000.0 4000.0 4000.0 4000.0 4000.0 4000.0 4000.0 4000.0 4000.0 4000.0 4000.0 4000.0 4000.0 4000.0 4000.0 4000.0 4000.0 4000.0 4000.0 4000.0 4000.0 4000.0 4000.0 4000.0 4000.0 4000.0 4000.0 4000.0 4000.0 4000.0 4000.0 4000.0 4000.0 4000.0 4000.0 4000.0 4000.0 4000.0 4000.0 4000.0 4000.0 4000.0 4000.0 4000.0 4000.0 4000.0 4000.0 4000.0 4000.0 4000.0 4000.0 4000.0 4000.0 4000.0 4000.0 4000.0 4000.0 4000.0 4000.0 4000.0 4000.0 4000.0 4000.0 4000.0 4000.0 4000.0 4000.0 4000.0 4000.0 4000.0 4000.0 4000.0 4000.0 4000.0 4000.0 4000.0 4000.0 4000.0 4000.0 4000.0 4000.0 4000.0 4000.0 4000.0 4000.0 4000.0 4000.0 4000.0 4000.0 4000.0 4000.0 4000.0 4000.0 4000.0 4000.0 4000.0 4000.0 4000.0 4000.0 4000.0 4000.0 4000.0 4000.0 4000.0 4000.0 4000.0 4000.0 4000.0 4000.0 4000.0 4000.0 4000.0 4000.0 4000.0 4000.0 4000.0 4000.0 4000.0 4000.0 4000.0 4000.0 4000.0 4000.0 4000.0 4000.0 4000.0 4000.0 4000.0 4000.0 4000.0 4000.0 4000.0 4000.0 4000.0 4000.0 4000.0 4000.0 4000.0 4000.0 4000.0 4000.0 4000.0 4000.0 4000.0 4000.0 4000.0 4000.0 4000.0 4000.0 4000.0 4000.0 4000.0 4000.0 4000.0 4000.0 4000.0 4000.0 4000.0 4000.0 4000.0 4000.0 4000.0 4000.0 4000.0 4000.0 4000.0 4000.0 4000.0 4000.0 4000.0 4000.0 4000.0 4000.0 4000.0 4000.0 4000.0 4000.0 4000.0 4000.0 4000.0 4000.0 4000.0 4000.0 4000.0 4000.0 4000.0 4000.0 4000.0 4000.0 4000.0 4000.0 4000.0 4000.0 4000.0 4000.0 4000.0 4000.0 4000.0 4000.0 4000.0 4000.0 4000.0 4000.0 4000.0 4000.0 4000.0 4000.0 4000.0 4000.0 4000.0 4000.0 4000.0 4000.0 4000.0 4000.0 4000.0 4000.0 4000.0 4000.0 4000.0 4000.0 4000.0 4000.0 4000.0 4000.0 4000.0 4000.0 4000.0 4000.0 4000.0 4000.0 4000.0 4000.0 4000.0 4000.0 4000.0 4000.0 4000.0 4000.0 4000.0 4000.0 4000.0 4000.0 4000.0 4000.0 4000.0 4000.0 4000.0 4000.0 4000.0 4000.0 4000.0 4000.0 4000.0 4000.0 4000.0 4000.0 4000.0 4000.0 4000.0 4000.0 4000.0 4000.0 4000.0 4000.0 4000.0 4000.0 4000.0 4000.0 4000.0 4000.0 4000.0 4000.0 4000.0 4000.0 4000.0 4000.0 4000.0 4000.0 4000.0 4000.0 4000.0 4000.0 4000.0 4000.0 4000.0 4000.0 4000.0 4000.0 4000.0 4000.0 4000.0 4000.0 4000.0 4000.0 4000.0 4000.0 4000.0 4000.0 4000.0 4000.0 4000.0 4000.0 4000.0 4000.0 4000.0 4000.0 4000.0 4000.0 4000.0 4000.0 4000.0 4000.0 4000.0 4000.0 4000.0 4000.0 4000.0 4000.0 4000.0 4000.0 4000.0 4000.0 4000.0 4000.0 4000.0 4000.0 4000.0 4000.0 4000.0 4000.0 4000.0 4000.0 4000.0 4000.0 4000.0 4000.0 4000.0 4000.0 4000.0 4000.0 4000.0 4000.0 4000.0 4000.0 4000.0 4000.0 4000.0 4000.0 4000.0 4000.0 4000.0 4000.0 4000.0 4000.0 4000.0 4000.0 4000.0 4000.0 4000.0 4000.0 4000.0 4000.0 4000.0 4000.0 4000.0 4000.0 4000.0 4000.0 4000.0 4000.0 4000.0 4000.0 4000.0 4000.0 4000.0 4000.0 4000.0 4000.0 4000.0 4000.0 4000.0 4000.0 4000.0 4000.0 4000.0 4000.0 4000.0 4000.0 4000.0 4000.0 4000.0 4000.0 4000.0 4000.0 4000.0 4000.0 4000.0 4000.0 4000.0 4000.0 4000.0 4000.0 4000.0 4000.0 4000.0 4000.0 4000.0 4000.0 4000.0 4000.0 4000.0 4000.0 4000.0 4000.0 4000.0 4000.0 4000.0 4000.0 4000.0 4000.0 4000.0 4000.0 4000.0 4000.0 4000.0 4000.0 4000.0 4000.0 4000.0 4000.0 4000.0 4000.0 4000.0 4000.0 4000.0 4000.0 4000.0 4000.0 4000.0 4000.0 4000.0 4000.0 4000.0 4000.0 4000.0 4000.0 4000.0 4000.0 4000.0 4000.0 4000.0 4000.0 4000.0 4000.0 4000.0 4000.0 4000.0 4000.0 4000.0 4000.0 4000.0 4000.0 4000.0 4000.0 4000.0 4000.0 4000.0 4000.0 4000.0 4000.0 4000.0 4000.0 4000.0 4000.0 4000.0 4000.0 4000.0 4000.0 4000.0 4000.0 4000.0 4000.0 4000.0 4000.0 4000.0 4000.0 4000.0 4000.0 4000.0 4000.0 4000.0 4000.0 4000.0 4000.0 4000.0 4000.0 4000.0 4000.0 4000.0 4000.0 4000.0 4000.0 4000.0 4000.0 4000.0 4000.0 4000.0 4000.0 4000.0 4000.0 4000.0 4000.0 4000.0 4000.0 4000.0 4000.0 4000.0 4000.0 4000.0 4000.0 4000.0 4000.0 4000.0 4000.0 4000.0 4000.0 4000.0 4000.0 4000.0 4000.0 4000.0 4000.0 4000.0 4000.0 4000.0 4000.0 4000.0 4000.0 4000.0 4000.0 4000.0 4000.0 4000.0 4000.0 4000.0 4000.0 4000.0 4000.0 4000.0 4000.0 4000.0 4000.0 4000.0 4000.0 4000.0 4000.0 4000.0 4000.0 4000.0 4000.0 4000.0 4000.0 4000.0 4000.0 4000.0 4000.0 4000.0 4000.0 4000.0 4000.0 4000.0 4000.0 4000.0 4000.0 4000.0 4000.0 4000.0 4000.0 4000.0 4000.0 4000.0 4000.0 4000.0 4000.0 4000.0 4000.0 4000.0 4000.0 4000.0 4000.0 4000.0 4000.0 4000.0 4000.0 4000.0 4000.0 4000.0 4000.0 4000.0 4000.0 4000.0 4000.0 4000.0 4000.0 4000.0 4000.0 4000.0 4000.0 4000.0 4000.0 4000.0 4000.0 4000.0 4000.0 4000.0 4000.0 4000.0 4000.0 4000.0 4000.0 4000.0 4000.0 4000.0 4000.0 4000.0 4000.0 4000.0 4000.0 4000.0 4000.0 4000.0 4000.0 4000.0 4000.0 4000.0 4000.0 4000.0 4000.0 4000.0 4000.0 4000.0 4000.0 4000.0 4000.0 4000.0 4000.0 4000.0 4000.0 4000.0 4000.0 4000.0 4000.0 4000.0 4000.0 4000.0 4000.0 4000.0 4000.0 4000.0 4000.0 4000.0 4000.0 4000.0 4000.0 4000.0 4000.0 4000.0 4000.0 4000.0 4000.0 4000.0 4000.0 4000.0 4000.0 4000.0 4000.0 4000.0 4000.0 4000.0 4000.0 4000.0 4000.0 4000.0 4000.0 4000.0 4000.0 4000.0 4000.0 4000.0 4000.0 4000.0 4000.0 4000.0 4000.0 4000.0 4000.0 4000.0 4000.0 4000.0 4000.0 4000.0 4000.0 4000.0 4000.0 4000.0 4000.0 4000.0 4000.0 4000.0 4000.0 4000.0 4000.0 4000.0 4000.0 4000.0 4000.0 4000.0 4000.0 4000.0 4000.0 4000.0 4000.0 4000.0 4000.0 4000.0 4000.0 4000.0 4000.0 4000.0 4000.0 4000.0 4000.0 4000.0 4000.0 4000.0 4000.0 4000.0 4000.0 4000.0 4000.0 4000.0 4000.0 4000.0 4000.0 4000.0 4000.0 4000.0 4000.0 4000.0 4000.0 4000.0 4000.0 4000.0 4000.0 4000.0 4000.0 4000.0 4000.0 4000.0 4000.0 4000.0 4000.0 4000.0 4000.0 4000.0 4000.0 4000.0 4000.0 4000.0 4000.0 4000.0 4000.0 4000.0 4000.0 4000.0 4000.0 4000.0 4000.0 4000.0 4000.0 4000.0 4000.0 4000.0 4000.0 4000.0 4000.0 4000.0 4000.0 4000.0 4000.0 4000.0 4000.0 4000.0 4000.0 4000.0 4000.0 4000.0 4000.0 4000.0 4000.0 4000.0 4000.0 4000.0 4000.0 4000.0 4000.0 4000.0 4000.0 4000.0 4000.0 4000.0 4000.0 4000.0 4000.0 4000.0 4000.0 4000.0 4000.0 4000.0 4000.0 4000.0 4000.0 4000.0 4000.0 4000.0 4000.0 4000.0 4000.0 4000.0 4000.0 4000.0 4000.0 4000.0 4000.0 4000.0 4000.0 4000.0 4000.0 4000.0 4000.0 4000.0 4000.0 4000.0 4000.0 4000.0 4000.0 4000.0 4000.0 4000.0 4000.0 4000.0 4000.0 4000.0 4000.0 4000.0 4000.0 4000.0 4000.0 4000.0 4000.0 4000.0 4000.0 4000.0 4000.0 4000.0 4000.0 4000.0 4000.0 4000.0 4000.0 4000.0 4000.0 4000.0 4000.0 4000.0 4000.0 4000.0 4000.0 4000.0 4000.0 4000.0 4000.0 4000.0 4000.0 4000.0 4000.0 4000.0 4000.0 4000.0 4000.0 4000.0 4000.0 4000.0 4000.0 4000.0 4000.0 4000.0 4000.0 4000.0 4000.0 4000.0 4000.0 4000.0 4000.0 4000.0 4000.0 4000.0 4000.0 4000.0 4000.0 4000.0 4000.0 4000.0 4000.0 4000.0 4000.0 4000.0 4000.0 4000.0 4000.0 4000.0 4000.0 4000.0 4000.0 4000.0 4000.0 4000.0 4000.0 4000.0 4000.0 4000.0 4000.0 4000.0 4000.0 4000.0 4000.0 4000.0 4000.0 4000.0 4000.0 4000.0 4000.0 4000.0 4000.0 4000.0 4000.0 4000.0 4000.0 4000.0 4000.0 4000.0 4000.0 4000.0 4000.0 4000.0 4000.0 4000.0 4000.0 4000.0 4000.0 4000.0 4000.0 4000.0 4000.0 4000.0 4000.0 4000.0 4000.0 4000.0 4000.0 4000.0 4000.0 4000.0 4000.0 4000.0 4000.0 4000.0 4000.0 4000.0 4000.0 4000.0 4000.0 4000.0 4000.0 4000.0 SCALARS Mass float 1
LOOKUP_TABLE default
11309700000.0 11309700000.0 11309700000.0 11309700000.0 11309700000.0 11309700000.0 11309700000.0 11309700000.0 11309700000.0 11309700000.0 11309700000.0 11309700000.0 11309700000.0 11309700000.0 11309700000.0 11309700000.0 11309700000.0 11309700000.0 11309700000.0 11309700000.0 11309700000.0 11309700000.0 11309700000.0 11309700000.0 11309700000.0 11309700000.0 11309700000.0 11309700000.0 11309700000.0 11309700000.0 11309700000.0 11309700000.0 11309700000.0 11309700000.0 11309700000.0 11309700000.0 11309700000.0 11309700000.0 11309700000.0 11309700000.0 11309700000.0 11309700000.0 11309700000.0 11309700000.0 11309700000.0 11309700000.0 11309700000.0 11309700000.0 11309700000.0 11309700000.0 11309700000.0 11309700000.0 11309700000.0 11309700000.0 11309700000.0 11309700000.0 11309700000.0 11309700000.0 11309700000.0 11309700000.0 11309700000.0 11309700000.0 11309700000.0 11309700000.0 11309700000.0 11309700000.0 11309700000.0 11309700000.0 11309700000.0 11309700000.0 11309700000.0 11309700000.0 11309700000.0 11309700000.0 11309700000.0 11309700000.0 11309700000.0 11309700000.0 11309700000.0 11309700000.0 11309700000.0 11309700000.0 11309700000.0 11309700000.0 11309700000.0 11309700000.0 11309700000.0 11309700000.0 11309700000.0 11309700000.0 11309700000.0 11309700000.0 11309700000.0 11309700000.0 11309700000.0 11309700000.0 11309700000.0 11309700000.0 11309700000.0 11309700000.0 11309700000.0 11309700000.0 11309700000.0 11309700000.0 11309700000.0 11309700000.0 11309700000.0 11309700000.0 11309700000.0 11309700000.0 11309700000.0 11309700000.0 11309700000.0 11309700000.0 11309700000.0 11309700000.0 11309700000.0 11309700000.0 11309700000.0 11309700000.0 11309700000.0 11309700000.0 11309700000.0 11309700000.0 11309700000.0 11309700000.0 11309700000.0 11309700000.0 11309700000.0 11309700000.0 11309700000.0 11309700000.0 11309700000.0 11309700000.0 11309700000.0 11309700000.0 11309700000.0 11309700000.0 11309700000.0 11309700000.0 11309700000.0 11309700000.0 11309700000.0 11309700000.0 11309700000.0 11309700000.0 11309700000.0 11309700000.0 11309700000.0 11309700000.0 11309700000.0 11309700000.0 11309700000.0 11309700000.0 11309700000.0 11309700000.0 11309700000.0 11309700000.0 11309700000.0 11309700000.0 11309700000.0 11309700000.0 11309700000.0 11309700000.0 11309700000.0 11309700000.0 11309700000.0 11309700000.0 11309700000.0 11309700000.0 11309700000.0 11309700000.0 11309700000.0 11309700000.0 11309700000.0 11309700000.0 11309700000.0 11309700000.0 11309700000.0 11309700000.0 11309700000.0 11309700000.0 11309700000.0 11309700000.0 11309700000.0 11309700000.0 11309700000.0 11309700000.0 11309700000.0 11309700000.0 11309700000.0 11309700000.0 11309700000.0 11309700000.0 11309700000.0 11309700000.0 11309700000.0 11309700000.0 11309700000.0 11309700000.0 11309700000.0 11309700000.0 11309700000.0 11309700000.0 11309700000.0 11309700000.0 11309700000.0 11309700000.0 11309700000.0 11309700000.0 11309700000.0 11309700000.0 11309700000.0 11309700000.0 11309700000.0 11309700000.0 11309700000.0 11309700000.0 11309700000.0 11309700000.0 11309700000.0 11309700000.0 11309700000.0 11309700000.0 11309700000.0 11309700000.0 11309700000.0 11309700000.0 11309700000.0 11309700000.0 11309700000.0 11309700000.0 11309700000.0 11309700000.0 11309700000.0 11309700000.0 11309700000.0 11309700000.0 11309700000.0 11309700000.0 11309700000.0 11309700000.0 11309700000.0 11309700000.0 11309700000.0 11309700000.0 11309700000.0 11309700000.0 11309700000.0 11309700000.0 11309700000.0 11309700000.0 11309700000.0 11309700000.0 11309700000.0 11309700000.0 11309700000.0 11309700000.0 11309700000.0 11309700000.0 11309700000.0 11309700000.0 11309700000.0 11309700000.0 11309700000.0 11309700000.0 11309700000.0 11309700000.0 11309700000.0 11309700000.0 11309700000.0 11309700000.0 11309700000.0 11309700000.0 11309700000.0 11309700000.0 11309700000.0 11309700000.0 11309700000.0 11309700000.0 11309700000.0 11309700000.0 11309700000.0 11309700000.0 11309700000.0 11309700000.0 11309700000.0 11309700000.0 11309700000.0 11309700000.0 11309700000.0 11309700000.0 11309700000.0 11309700000.0 11309700000.0 11309700000.0 11309700000.0 11309700000.0 11309700000.0 11309700000.0 11309700000.0 11309700000.0 11309700000.0 11309700000.0 11309700000.0 11309700000.0 11309700000.0 11309700000.0 11309700000.0 11309700000.0 11309700000.0 11309700000.0 11309700000.0 11309700000.0 11309700000.0 11309700000.0 11309700000.0 11309700000.0 11309700000.0 11309700000.0 11309700000.0 11309700000.0 11309700000.0 11309700000.0 11309700000.0 11309700000.0 11309700000.0 11309700000.0 11309700000.0 11309700000.0 11309700000.0 11309700000.0 11309700000.0 11309700000.0 11309700000.0 11309700000.0 11309700000.0 11309700000.0 11309700000.0 11309700000.0 11309700000.0 11309700000.0 11309700000.0 11309700000.0 11309700000.0 11309700000.0 11309700000.0 11309700000.0 11309700000.0 11309700000.0 11309700000.0 11309700000.0 11309700000.0 11309700000.0 11309700000.0 11309700000.0 11309700000.0 11309700000.0 11309700000.0 11309700000.0 11309700000.0 11309700000.0 11309700000.0 11309700000.0 11309700000.0 11309700000.0 11309700000.0 11309700000.0 11309700000.0 11309700000.0 11309700000.0 11309700000.0 11309700000.0 11309700000.0 11309700000.0 11309700000.0 11309700000.0 11309700000.0 11309700000.0 11309700000.0 11309700000.0 11309700000.0 11309700000.0 11309700000.0 11309700000.0 11309700000.0 11309700000.0 11309700000.0 11309700000.0 11309700000.0 11309700000.0 11309700000.0 11309700000.0 11309700000.0 11309700000.0 11309700000.0 11309700000.0 11309700000.0 11309700000.0 11309700000.0 11309700000.0 11309700000.0 11309700000.0 11309700000.0 11309700000.0 11309700000.0 11309700000.0 11309700000.0 11309700000.0 11309700000.0 11309700000.0 11309700000.0 11309700000.0 11309700000.0 11309700000.0 11309700000.0 11309700000.0 11309700000.0 11309700000.0 11309700000.0 11309700000.0 11309700000.0 11309700000.0 11309700000.0 11309700000.0 11309700000.0 11309700000.0 11309700000.0 11309700000.0 11309700000.0 11309700000.0 11309700000.0 11309700000.0 11309700000.0 11309700000.0 11309700000.0 11309700000.0 11309700000.0 11309700000.0 11309700000.0 11309700000.0 11309700000.0 11309700000.0 11309700000.0 11309700000.0 11309700000.0 11309700000.0 11309700000.0 11309700000.0 11309700000.0 11309700000.0 11309700000.0 11309700000.0 11309700000.0 11309700000.0 11309700000.0 11309700000.0 11309700000.0 11309700000.0 11309700000.0 11309700000.0 11309700000.0 11309700000.0 11309700000.0 11309700000.0 11309700000.0 11309700000.0 11309700000.0 11309700000.0 11309700000.0 11309700000.0 11309700000.0 11309700000.0 11309700000.0 11309700000.0 11309700000.0 11309700000.0 11309700000.0 11309700000.0 11309700000.0 11309700000.0 11309700000.0 11309700000.0 11309700000.0 11309700000.0 11309700000.0 11309700000.0 11309700000.0 11309700000.0 11309700000.0 11309700000.0 11309700000.0 11309700000.0 11309700000.0 11309700000.0 11309700000.0 11309700000.0 11309700000.0 11309700000.0 11309700000.0 11309700000.0 11309700000.0 11309700000.0 11309700000.0 11309700000.0 11309700000.0 11309700000.0 11309700000.0 11309700000.0 11309700000.0 11309700000.0 11309700000.0 11309700000.0 11309700000.0 11309700000.0 11309700000.0 11309700000.0 11309700000.0 11309700000.0 11309700000.0 11309700000.0 11309700000.0 11309700000.0 11309700000.0 11309700000.0 11309700000.0 11309700000.0 11309700000.0 11309700000.0 11309700000.0 11309700000.0 11309700000.0 11309700000.0 11309700000.0 11309700000.0 11309700000.0 11309700000.0 11309700000.0 11309700000.0 11309700000.0 11309700000.0 11309700000.0 11309700000.0 11309700000.0 11309700000.0 11309700000.0 11309700000.0 11309700000.0 11309700000.0 11309700000.0 11309700000.0 11309700000.0 11309700000.0 11309700000.0 11309700000.0 11309700000.0 11309700000.0 11309700000.0 11309700000.0 11309700000.0 11309700000.0 11309700000.0 11309700000.0 11309700000.0 11309700000.0 11309700000.0 11309700000.0 11309700000.0 11309700000.0 11309700000.0 11309700000.0 11309700000.0 11309700000.0 11309700000.0 11309700000.0 11309700000.0 11309700000.0 11309700000.0 11309700000.0 11309700000.0 11309700000.0 11309700000.0 11309700000.0 11309700000.0 11309700000.0 11309700000.0 11309700000.0 11309700000.0 11309700000.0 11309700000.0 11309700000.0 11309700000.0 11309700000.0 11309700000.0 11309700000.0 11309700000.0 11309700000.0 11309700000.0 11309700000.0 11309700000.0 11309700000.0 11309700000.0 11309700000.0 11309700000.0 11309700000.0 11309700000.0 11309700000.0 11309700000.0 11309700000.0 11309700000.0 11309700000.0 11309700000.0 11309700000.0 11309700000.0 11309700000.0 11309700000.0 11309700000.0 11309700000.0 11309700000.0 11309700000.0 11309700000.0 11309700000.0 11309700000.0 11309700000.0 11309700000.0 11309700000.0 11309700000.0 11309700000.0 11309700000.0 11309700000.0 11309700000.0 11309700000.0 11309700000.0 11309700000.0 11309700000.0 11309700000.0 11309700000.0 11309700000.0 11309700000.0 11309700000.0 11309700000.0 11309700000.0 11309700000.0 11309700000.0 11309700000.0 11309700000.0 11309700000.0 11309700000.0 11309700000.0 11309700000.0 11309700000.0 11309700000.0 11309700000.0 11309700000.0 11309700000.0 11309700000.0 11309700000.0 11309700000.0 11309700000.0 11309700000.0 11309700000.0 11309700000.0 11309700000.0 11309700000.0 11309700000.0 11309700000.0 11309700000.0 11309700000.0 11309700000.0 11309700000.0 11309700000.0 11309700000.0 11309700000.0 11309700000.0 11309700000.0 11309700000.0 11309700000.0 11309700000.0 11309700000.0 11309700000.0 11309700000.0 11309700000.0 11309700000.0 11309700000.0 11309700000.0 11309700000.0 11309700000.0 11309700000.0 11309700000.0 11309700000.0 11309700000.0 11309700000.0 11309700000.0 11309700000.0 11309700000.0 11309700000.0 11309700000.0 11309700000.0 11309700000.0 11309700000.0 11309700000.0 11309700000.0 11309700000.0 11309700000.0 11309700000.0 11309700000.0 11309700000.0 11309700000.0 11309700000.0 11309700000.0 11309700000.0 11309700000.0 11309700000.0 11309700000.0 11309700000.0 11309700000.0 11309700000.0 11309700000.0 11309700000.0 11309700000.0 11309700000.0 11309700000.0 11309700000.0 11309700000.0 11309700000.0 11309700000.0 11309700000.0 11309700000.0 11309700000.0 11309700000.0 11309700000.0 11309700000.0 11309700000.0 11309700000.0 11309700000.0 11309700000.0 11309700000.0 11309700000.0 11309700000.0 11309700000.0 11309700000.0 11309700000.0 11309700000.0 11309700000.0 11309700000.0 11309700000.0 11309700000.0 11309700000.0 11309700000.0 11309700000.0 11309700000.0 11309700000.0 11309700000.0 11309700000.0 11309700000.0 11309700000.0 11309700000.0 11309700000.0 11309700000.0 11309700000.0 11309700000.0 11309700000.0 11309700000.0 11309700000.0 11309700000.0 11309700000.0 11309700000.0 11309700000.0 11309700000.0 11309700000.0 11309700000.0 11309700000.0 11309700000.0 11309700000.0 11309700000.0 11309700000.0 11309700000.0 11309700000.0 11309700000.0 11309700000.0 11309700000.0 11309700000.0 11309700000.0 11309700000.0 11309700000.0 11309700000.0 11309700000.0 11309700000.0 11309700000.0 11309700000.0 11309700000.0 11309700000.0 11309700000.0 11309700000.0 11309700000.0 11309700000.0 11309700000.0 11309700000.0 11309700000.0 11309700000.0 11309700000.0 11309700000.0 11309700000.0 11309700000.0 11309700000.0 11309700000.0 11309700000.0 11309700000.0 11309700000.0 11309700000.0 11309700000.0 11309700000.0 11309700000.0 11309700000.0 11309700000.0 11309700000.0 11309700000.0 11309700000.0 11309700000.0 11309700000.0 11309700000.0 11309700000.0 11309700000.0 11309700000.0 11309700000.0 11309700000.0 11309700000.0 11309700000.0 11309700000.0 11309700000.0 11309700000.0 11309700000.0 11309700000.0 11309700000.0 11309700000.0 11309700000.0 11309700000.0 11309700000.0 11309700000.0 11309700000.0 11309700000.0 11309700000.0 11309700000.0 11309700000.0 11309700000.0 11309700000.0 11309700000.0 11309700000.0 11309700000.0 11309700000.0 11309700000.0 11309700000.0 11309700000.0 11309700000.0 11309700000.0 11309700000.0 11309700000.0 11309700000.0 11309700000.0 11309700000.0 11309700000.0 11309700000.0 11309700000.0 11309700000.0 11309700000.0 11309700000.0 11309700000.0 11309700000.0 11309700000.0 11309700000.0 11309700000.0 11309700000.0 11309700000.0 11309700000.0 11309700000.0 11309700000.0 11309700000.0 11309700000.0 11309700000.0 11309700000.0 11309700000.0 11309700000.0 11309700000.0 11309700000.0 11309700000.0 11309700000.0 11309700000.0 11309700000.0 11309700000.0 11309700000.0 11309700000.0 11309700000.0 11309700000.0 11309700000.0 11309700000.0 11309700000.0 11309700000.0 11309700000.0 11309700000.0 11309700000.0 11309700000.0 11309700000.0 11309700000.0 11309700000.0 11309700000.0 11309700000.0 11309700000.0 11309700000.0 11309700000.0 11309700000.0 11309700000.0 11309700000.0 11309700000.0 11309700000.0 11309700000.0 11309700000.0 11309700000.0 11309700000.0 11309700000.0 11309700000.0 11309700000.0 11309700000.0 11309700000.0 11309700000.0 11309700000.0 11309700000.0 11309700000.0 11309700000.0 11309700000.0 11309700000.0 11309700000.0 11309700000.0 11309700000.0 11309700000.0 11309700000.0 11309700000.0 11309700000.0 11309700000.0 11309700000.0 11309700000.0 11309700000.0 11309700000.0 11309700000.0 11309700000.0 11309700000.0 11309700000.0 11309700000.0 11309700000.0 11309700000.0 11309700000.0 11309700000.0 11309700000.0 11309700000.0 11309700000.0 11309700000.0 11309700000.0 11309700000.0 11309700000.0 11309700000.0 11309700000.0 11309700000.0 11309700000.0 11309700000.0 11309700000.0 11309700000.0 11309700000.0 11309700000.0 11309700000.0 11309700000.0 11309700000.0 11309700000.0 11309700000.0 11309700000.0 11309700000.0 11309700000.0 11309700000.0 11309700000.0 11309700000.0 11309700000.0 11309700000.0 11309700000.0 11309700000.0 11309700000.0 11309700000.0 11309700000.0 11309700000.0 11309700000.0 11309700000.0 11309700000.0 11309700000.0 11309700000.0 11309700000.0 11309700000.0 11309700000.0 11309700000.0 11309700000.0 11309700000.0 11309700000.0 11309700000.0 11309700000.0 11309700000.0 11309700000.0 11309700000.0 11309700000.0 11309700000.0 11309700000.0 11309700000.0 11309700000.0 11309700000.0 11309700000.0 11309700000.0 11309700000.0 11309700000.0 11309700000.0 11309700000.0 11309700000.0 11309700000.0 11309700000.0 11309700000.0 11309700000.0 11309700000.0 11309700000.0 11309700000.0 11309700000.0 11309700000.0 11309700000.0 11309700000.0 11309700000.0 11309700000.0 11309700000.0 11309700000.0 11309700000.0 11309700000.0 11309700000.0 11309700000.0 11309700000.0 11309700000.0 11309700000.0 11309700000.0 11309700000.0 11309700000.0 11309700000.0 11309700000.0 11309700000.0 11309700000.0 11309700000.0 11309700000.0 11309700000.0 11309700000.0 11309700000.0 11309700000.0 11309700000.0 11309700000.0 11309700000.0 11309700000.0 11309700000.0 11309700000.0 11309700000.0 11309700000.0 11309700000.0 11309700000.0 11309700000.0 11309700000.0 11309700000.0 11309700000.0 11309700000.0 11309700000.0 11309700000.0 11309700000.0 11309700000.0 11309700000.0 11309700000.0 11309700000.0 11309700000.0 11309700000.0 11309700000.0 11309700000.0 11309700000.0 11309700000.0 11309700000.0 11309700000.0 11309700000.0 11309700000.0 11309700000.0 11309700000.0 11309700000.0 11309700000.0 11309700000.0 11309700000.0 11309700000.0 11309700000.0 11309700000.0 11309700000.0 11309700000.0 11309700000.0 11309700000.0 11309700000.0 11309700000.0 11309700000.0 11309700000.0 11309700000.0 11309700000.0 11309700000.0 11309700000.0 11309700000.0 11309700000.0 11309700000.0 11309700000.0 11309700000.0 11309700000.0 11309700000.0 11309700000.0 11309700000.0 11309700000.0 11309700000.0 11309700000.0 11309700000.0 11309700000.0 11309700000.0 11309700000.0 11309700000.0 11309700000.0 11309700000.0 11309700000.0 11309700000.0 11309700000.0 11309700000.0 11309700000.0 11309700000.0 11309700000.0 11309700000.0 11309700000.0 11309700000.0 11309700000.0 11309700000.0 11309700000.0 11309700000.0 11309700000.0 11309700000.0 11309700000.0 11309700000.0 11309700000.0 11309700000.0 11309700000.0 11309700000.0 11309700000.0 11309700000.0 11309700000.0 11309700000.0 11309700000.0 11309700000.0 11309700000.0 11309700000.0 11309700000.0 11309700000.0 11309700000.0 11309700000.0 11309700000.0 11309700000.0 11309700000.0 11309700000.0 11309700000.0 11309700000.0 11309700000.0 11309700000.0 11309700000.0 11309700000.0 11309700000.0 11309700000.0 11309700000.0 11309700000.0 11309700000.0 11309700000.0 11309700000.0 11309700000.0 11309700000.0 11309700000.0 11309700000.0 11309700000.0 11309700000.0 11309700000.0 11309700000.0 11309700000.0 11309700000.0 11309700000.0 11309700000.0 11309700000.0 11309700000.0 11309700000.0 11309700000.0 11309700000.0 11309700000.0 11309700000.0 11309700000.0 11309700000.0 11309700000.0 11309700000.0 11309700000.0 11309700000.0 11309700000.0 11309700000.0 11309700000.0 11309700000.0 11309700000.0 11309700000.0 11309700000.0 11309700000.0 11309700000.0 11309700000.0 11309700000.0 11309700000.0 11309700000.0 11309700000.0 11309700000.0 11309700000.0 11309700000.0 11309700000.0 11309700000.0 11309700000.0 11309700000.0 11309700000.0 11309700000.0 11309700000.0 11309700000.0 11309700000.0 11309700000.0 11309700000.0 11309700000.0 11309700000.0 11309700000.0 11309700000.0 11309700000.0 11309700000.0 11309700000.0 11309700000.0 11309700000.0 11309700000.0 11309700000.0 11309700000.0 11309700000.0 11309700000.0 11309700000.0 11309700000.0 11309700000.0 11309700000.0 11309700000.0 11309700000.0 11309700000.0 11309700000.0 11309700000.0 11309700000.0 11309700000.0 11309700000.0 11309700000.0 11309700000.0 11309700000.0 11309700000.0 11309700000.0 11309700000.0 11309700000.0 11309700000.0 11309700000.0 11309700000.0 11309700000.0 11309700000.0 11309700000.0 11309700000.0 11309700000.0 11309700000.0 11309700000.0 11309700000.0 11309700000.0 11309700000.0 11309700000.0 11309700000.0 11309700000.0 11309700000.0 11309700000.0 11309700000.0 11309700000.0 11309700000.0 11309700000.0 11309700000.0 11309700000.0 11309700000.0 11309700000.0 11309700000.0 11309700000.0 11309700000.0 11309700000.0 11309700000.0 11309700000.0 11309700000.0 11309700000.0 11309700000.0 11309700000.0 11309700000.0 11309700000.0 11309700000.0 11309700000.0 11309700000.0 11309700000.0 11309700000.0 11309700000.0 11309700000.0 11309700000.0 11309700000.0 11309700000.0 11309700000.0 11309700000.0 11309700000.0 11309700000.0 11309700000.0 11309700000.0 11309700000.0 11309700000.0 11309700000.0 11309700000.0 11309700000.0 11309700000.0 11309700000.0 11309700000.0 11309700000.0 11309700000.0 11309700000.0 11309700000.0 11309700000.0 11309700000.0 11309700000.0 11309700000.0 11309700000.0 11309700000.0 11309700000.0 11309700000.0 11309700000.0 11309700000.0 11309700000.0 11309700000.0 11309700000.0 11309700000.0 11309700000.0 11309700000.0 11309700000.0 11309700000.0 11309700000.0 11309700000.0 11309700000.0 11309700000.0 11309700000.0 11309700000.0 11309700000.0 11309700000.0 11309700000.0 11309700000.0 11309700000.0 11309700000.0 11309700000.0 11309700000.0 11309700000.0 11309700000.0 11309700000.0 11309700000.0 11309700000.0 11309700000.0 11309700000.0 11309700000.0 11309700000.0 11309700000.0 11309700000.0 11309700000.0 11309700000.0 11309700000.0 11309700000.0 11309700000.0 11309700000.0 11309700000.0 11309700000.0 11309700000.0 11309700000.0 11309700000.0 11309700000.0 11309700000.0 11309700000.0 11309700000.0 11309700000.0 11309700000.0 11309700000.0 11309700000.0 11309700000.0 11309700000.0 11309700000.0 11309700000.0 11309700000.0 11309700000.0 11309700000.0 11309700000.0 11309700000.0 11309700000.0 11309700000.0 11309700000.0 11309700000.0 11309700000.0 11309700000.0 11309700000.0 11309700000.0 11309700000.0 11309700000.0 11309700000.0 11309700000.0 11309700000.0 11309700000.0 11309700000.0 11309700000.0 11309700000.0 11309700000.0 11309700000.0 11309700000.0 11309700000.0 11309700000.0 11309700000.0 11309700000.0 11309700000.0 11309700000.0 11309700000.0 11309700000.0 11309700000.0 11309700000.0 11309700000.0 11309700000.0 11309700000.0 11309700000.0 11309700000.0 11309700000.0 11309700000.0 11309700000.0 11309700000.0 11309700000.0 11309700000.0 11309700000.0 11309700000.0 11309700000.0 11309700000.0 11309700000.0 11309700000.0 11309700000.0 11309700000.0 11309700000.0 11309700000.0 11309700000.0 11309700000.0 11309700000.0 11309700000.0 11309700000.0 11309700000.0 11309700000.0 11309700000.0 11309700000.0 11309700000.0 11309700000.0 11309700000.0 11309700000.0 11309700000.0 11309700000.0 11309700000.0 11309700000.0 11309700000.0 11309700000.0 11309700000.0 11309700000.0 11309700000.0 11309700000.0 11309700000.0 11309700000.0 11309700000.0 11309700000.0 11309700000.0 11309700000.0 11309700000.0 11309700000.0 11309700000.0 11309700000.0 11309700000.0 11309700000.0 11309700000.0 11309700000.0 11309700000.0 11309700000.0 11309700000.0 11309700000.0 11309700000.0 11309700000.0 11309700000.0 11309700000.0 11309700000.0 11309700000.0 11309700000.0 11309700000.0 11309700000.0 11309700000.0 11309700000.0 11309700000.0 11309700000.0 11309700000.0 11309700000.0 11309700000.0 11309700000.0 11309700000.0 11309700000.0 11309700000.0 11309700000.0 11309700000.0 11309700000.0 11309700000.0 11309700000.0 11309700000.0 11309700000.0 11309700000.0 11309700000.0 11309700000.0 11309700000.0 11309700000.0 11309700000.0 11309700000.0 11309700000.0 11309700000.0 11309700000.0 11309700000.0 11309700000.0 11309700000.0 11309700000.0 11309700000.0 11309700000.0 11309700000.0 11309700000.0 11309700000.0 11309700000.0 11309700000.0 11309700000.0 11309700000.0 11309700000.0 11309700000.0 11309700000.0 11309700000.0 11309700000.0 11309700000.0 11309700000.0 11309700000.0 11309700000.0 11309700000.0 11309700000.0 11309700000.0 11309700000.0 11309700000.0 11309700000.0 11309700000.0 11309700000.0 11309700000.0 11309700000.0 11309700000.0 11309700000.0 11309700000.0 11309700000.0 11309700000.0 11309700000.0 11309700000.0 11309700000.0 11309700000.0 11309700000.0 11309700000.0 11309700000.0 11309700000.0 11309700000.0 11309700000.0 11309700000.0 11309700000.0 11309700000.0 11309700000.0 11309700000.0 11309700000.0 11309700000.0 11309700000.0 11309700000.0 11309700000.0 11309700000.0 11309700000.0 11309700000.0 11309700000.0 11309700000.0 11309700000.0 11309700000.0 11309700000.0 11309700000.0 11309700000.0 11309700000.0 11309700000.0 11309700000.0 11309700000.0 11309700000.0 11309700000.0 11309700000.0 11309700000.0 11309700000.0 11309700000.0 11309700000.0 11309700000.0 11309700000.0 11309700000.0 11309700000.0 11309700000.0 11309700000.0 11309700000.0 11309700000.0 11309700000.0 11309700000.0 11309700000.0 11309700000.0 11309700000.0 11309700000.0 11309700000.0 11309700000.0 11309700000.0 11309700000.0 11309700000.0 11309700000.0 11309700000.0 11309700000.0 11309700000.0 11309700000.0 11309700000.0 11309700000.0 11309700000.0 11309700000.0 11309700000.0 11309700000.0 11309700000.0 11309700000.0 11309700000.0 11309700000.0 11309700000.0 11309700000.0 11309700000.0 11309700000.0 11309700000.0 11309700000.0 11309700000.0 11309700000.0 11309700000.0 11309700000.0 11309700000.0 11309700000.0 11309700000.0 11309700000.0 11309700000.0 11309700000.0 11309700000.0 11309700000.0 11309700000.0 11309700000.0 11309700000.0 11309700000.0 11309700000.0 11309700000.0 11309700000.0 11309700000.0 11309700000.0 11309700000.0 11309700000.0 11309700000.0 11309700000.0 11309700000.0 11309700000.0 11309700000.0 11309700000.0 11309700000.0 11309700000.0 11309700000.0 11309700000.0 11309700000.0 11309700000.0 11309700000.0 11309700000.0 11309700000.0 11309700000.0 11309700000.0 11309700000.0 11309700000.0 11309700000.0 11309700000.0 11309700000.0 11309700000.0 11309700000.0 11309700000.0 11309700000.0 11309700000.0 11309700000.0 11309700000.0 11309700000.0 11309700000.0 11309700000.0 11309700000.0 11309700000.0 11309700000.0 11309700000.0 11309700000.0 11309700000.0 11309700000.0 11309700000.0 11309700000.0 11309700000.0 11309700000.0 11309700000.0 11309700000.0 11309700000.0 11309700000.0 11309700000.0 11309700000.0 11309700000.0 11309700000.0 11309700000.0 11309700000.0 11309700000.0 11309700000.0 11309700000.0 11309700000.0 11309700000.0 11309700000.0 11309700000.0 11309700000.0 11309700000.0 11309700000.0 11309700000.0 11309700000.0 11309700000.0 11309700000.0 11309700000.0 11309700000.0 11309700000.0 11309700000.0 11309700000.0 11309700000.0 11309700000.0 11309700000.0 11309700000.0 11309700000.0 11309700000.0 11309700000.0 11309700000.0 11309700000.0 11309700000.0 11309700000.0 11309700000.0 11309700000.0 11309700000.0 11309700000.0 11309700000.0 11309700000.0 11309700000.0 11309700000.0 11309700000.0 11309700000.0 11309700000.0 11309700000.0 11309700000.0 11309700000.0 11309700000.0 11309700000.0 11309700000.0 11309700000.0 11309700000.0 11309700000.0 11309700000.0 11309700000.0 11309700000.0 11309700000.0 11309700000.0 11309700000.0 11309700000.0 11309700000.0 11309700000.0 11309700000.0 11309700000.0 11309700000.0 11309700000.0 11309700000.0 11309700000.0 11309700000.0 11309700000.0 11309700000.0 11309700000.0 11309700000.0 11309700000.0 11309700000.0 11309700000.0 11309700000.0 11309700000.0 11309700000.0 11309700000.0 11309700000.0 11309700000.0 11309700000.0 11309700000.0 11309700000.0 11309700000.0 11309700000.0 11309700000.0 11309700000.0 11309700000.0 11309700000.0 11309700000.0 11309700000.0 11309700000.0 11309700000.0 11309700000.0 11309700000.0 11309700000.0 11309700000.0 11309700000.0 11309700000.0 11309700000.0 11309700000.0 11309700000.0 11309700000.0 11309700000.0 11309700000.0 11309700000.0 11309700000.0 11309700000.0 11309700000.0 11309700000.0 11309700000.0 11309700000.0 11309700000.0 11309700000.0 11309700000.0 11309700000.0 11309700000.0 11309700000.0 11309700000.0 11309700000.0 11309700000.0 11309700000.0 11309700000.0 11309700000.0 11309700000.0 11309700000.0 11309700000.0 11309700000.0 11309700000.0 11309700000.0 11309700000.0 11309700000.0 11309700000.0 11309700000.0 11309700000.0 11309700000.0 11309700000.0 11309700000.0 11309700000.0 11309700000.0 11309700000.0 11309700000.0 11309700000.0 11309700000.0 11309700000.0 11309700000.0 11309700000.0 11309700000.0 11309700000.0 11309700000.0 11309700000.0 11309700000.0 11309700000.0 11309700000.0 11309700000.0 11309700000.0 11309700000.0 11309700000.0 11309700000.0 11309700000.0 11309700000.0 11309700000.0 11309700000.0 11309700000.0 11309700000.0 11309700000.0 11309700000.0 11309700000.0 11309700000.0 11309700000.0 11309700000.0 11309700000.0 11309700000.0 11309700000.0 11309700000.0 11309700000.0 11309700000.0 11309700000.0 11309700000.0 11309700000.0 11309700000.0 11309700000.0 11309700000.0 11309700000.0 11309700000.0 11309700000.0 11309700000.0 11309700000.0 11309700000.0 11309700000.0 11309700000.0 11309700000.0 11309700000.0 11309700000.0 11309700000.0 11309700000.0 11309700000.0 11309700000.0 11309700000.0 11309700000.0 11309700000.0 11309700000.0 11309700000.0 11309700000.0 11309700000.0 11309700000.0 11309700000.0 11309700000.0 11309700000.0 11309700000.0 11309700000.0 11309700000.0 11309700000.0 11309700000.0 11309700000.0 11309700000.0 11309700000.0 11309700000.0 11309700000.0 11309700000.0 11309700000.0 11309700000.0 11309700000.0 11309700000.0 11309700000.0 11309700000.0 11309700000.0 11309700000.0 11309700000.0 11309700000.0 11309700000.0 11309700000.0 11309700000.0 11309700000.0 11309700000.0 11309700000.0 11309700000.0 11309700000.0 11309700000.0 11309700000.0 11309700000.0 11309700000.0 11309700000.0 11309700000.0 11309700000.0 11309700000.0 11309700000.0 11309700000.0 11309700000.0 11309700000.0 11309700000.0 11309700000.0 11309700000.0 11309700000.0 11309700000.0 11309700000.0 11309700000.0 11309700000.0 11309700000.0 11309700000.0 11309700000.0 11309700000.0 11309700000.0 11309700000.0 11309700000.0 11309700000.0 11309700000.0 11309700000.0 11309700000.0 11309700000.0 11309700000.0 11309700000.0 11309700000.0 11309700000.0 11309700000.0 11309700000.0 11309700000.0 11309700000.0 11309700000.0 11309700000.0 11309700000.0 11309700000.0 11309700000.0 11309700000.0 11309700000.0 11309700000.0 11309700000.0 11309700000.0 11309700000.0 11309700000.0 11309700000.0 11309700000.0 11309700000.0 11309700000.0 11309700000.0 11309700000.0 11309700000.0 11309700000.0 11309700000.0 11309700000.0 11309700000.0 11309700000.0 11309700000.0 11309700000.0 11309700000.0 11309700000.0 11309700000.0 11309700000.0 11309700000.0 11309700000.0 11309700000.0 11309700000.0 11309700000.0 11309700000.0 11309700000.0 11309700000.0 11309700000.0 11309700000.0 11309700000.0 11309700000.0 11309700000.0 11309700000.0 11309700000.0 11309700000.0 11309700000.0 11309700000.0 11309700000.0 11309700000.0 11309700000.0 11309700000.0 11309700000.0 11309700000.0 11309700000.0 11309700000.0 11309700000.0 11309700000.0 11309700000.0 11309700000.0 11309700000.0 11309700000.0 11309700000.0 11309700000.0 11309700000.0 11309700000.0 11309700000.0 11309700000.0 11309700000.0 11309700000.0 11309700000.0 11309700000.0 11309700000.0 11309700000.0 11309700000.0 11309700000.0 11309700000.0 11309700000.0 11309700000.0 11309700000.0 11309700000.0 11309700000.0 11309700000.0 11309700000.0 11309700000.0 11309700000.0 11309700000.0 11309700000.0 11309700000.0 11309700000.0 11309700000.0 11309700000.0 11309700000.0 11309700000.0 11309700000.0 11309700000.0 11309700000.0 11309700000.0 11309700000.0 11309700000.0 11309700000.0 11309700000.0 11309700000.0 11309700000.0 11309700000.0 11309700000.0 11309700000.0 11309700000.0 11309700000.0 11309700000.0 11309700000.0 11309700000.0 11309700000.0 11309700000.0 11309700000.0 11309700000.0 11309700000.0 11309700000.0 11309700000.0 11309700000.0 11309700000.0 11309700000.0 11309700000.0 11309700000.0 11309700000.0 11309700000.0 11309700000.0 11309700000.0 11309700000.0 11309700000.0 11309700000.0 11309700000.0 11309700000.0 11309700000.0 11309700000.0 11309700000.0 11309700000.0 11309700000.0 11309700000.0 11309700000.0 11309700000.0 11309700000.0 11309700000.0 11309700000.0 11309700000.0 11309700000.0 11309700000.0 11309700000.0 11309700000.0 11309700000.0 11309700000.0 11309700000.0 11309700000.0 11309700000.0 11309700000.0 11309700000.0 11309700000.0 11309700000.0 11309700000.0 11309700000.0 11309700000.0 11309700000.0 11309700000.0 11309700000.0 11309700000.0 11309700000.0 11309700000.0 11309700000.0 11309700000.0 11309700000.0 11309700000.0 11309700000.0 11309700000.0 11309700000.0 11309700000.0 11309700000.0 11309700000.0 11309700000.0 11309700000.0 11309700000.0 11309700000.0 11309700000.0 11309700000.0 11309700000.0 11309700000.0 11309700000.0 11309700000.0 11309700000.0 11309700000.0 11309700000.0 11309700000.0 11309700000.0 11309700000.0 11309700000.0 11309700000.0 11309700000.0 11309700000.0 11309700000.0 11309700000.0 11309700000.0 11309700000.0 11309700000.0 11309700000.0 11309700000.0 11309700000.0 11309700000.0 11309700000.0 11309700000.0 11309700000.0 11309700000.0 11309700000.0 11309700000.0 11309700000.0 11309700000.0 11309700000.0 11309700000.0 11309700000.0 11309700000.0 11309700000.0 11309700000.0 11309700000.0 11309700000.0 11309700000.0 11309700000.0 11309700000.0 11309700000.0 11309700000.0 11309700000.0 11309700000.0 11309700000.0 11309700000.0 11309700000.0 11309700000.0 11309700000.0 11309700000.0 11309700000.0 11309700000.0 11309700000.0 11309700000.0 11309700000.0 11309700000.0 11309700000.0 11309700000.0 11309700000.0 11309700000.0 11309700000.0 11309700000.0 11309700000.0 11309700000.0 11309700000.0 11309700000.0 11309700000.0 11309700000.0 11309700000.0 11309700000.0 11309700000.0 11309700000.0 11309700000.0 11309700000.0 11309700000.0 11309700000.0 11309700000.0 11309700000.0 11309700000.0 11309700000.0 11309700000.0 11309700000.0 11309700000.0 11309700000.0 11309700000.0 11309700000.0 11309700000.0 11309700000.0 11309700000.0 11309700000.0 11309700000.0 11309700000.0 11309700000.0 11309700000.0 11309700000.0 11309700000.0 11309700000.0 11309700000.0 11309700000.0 11309700000.0 11309700000.0 11309700000.0 11309700000.0 11309700000.0 11309700000.0 11309700000.0 11309700000.0 11309700000.0 11309700000.0 11309700000.0 11309700000.0 11309700000.0 11309700000.0 11309700000.0 11309700000.0 11309700000.0 11309700000.0 11309700000.0 11309700000.0 11309700000.0 11309700000.0 11309700000.0 11309700000.0 11309700000.0 11309700000.0 11309700000.0 11309700000.0 11309700000.0 11309700000.0 11309700000.0 11309700000.0 11309700000.0 11309700000.0 11309700000.0 11309700000.0 11309700000.0 11309700000.0 11309700000.0 11309700000.0 11309700000.0 11309700000.0 11309700000.0 11309700000.0 11309700000.0 11309700000.0 11309700000.0 11309700000.0 11309700000.0 11309700000.0 11309700000.0 11309700000.0 11309700000.0 11309700000.0 11309700000.0 11309700000.0 11309700000.0 11309700000.0 11309700000.0 11309700000.0 11309700000.0 11309700000.0 11309700000.0 11309700000.0 11309700000.0 11309700000.0 11309700000.0 11309700000.0 11309700000.0 11309700000.0 11309700000.0 11309700000.0 11309700000.0 11309700000.0 11309700000.0 11309700000.0 11309700000.0 11309700000.0 11309700000.0 11309700000.0 11309700000.0 11309700000.0 11309700000.0 11309700000.0 11309700000.0 11309700000.0 11309700000.0 11309700000.0 11309700000.0 11309700000.0 11309700000.0 11309700000.0 11309700000.0 11309700000.0 11309700000.0 11309700000.0 11309700000.0 11309700000.0 11309700000.0 11309700000.0 11309700000.0 11309700000.0 11309700000.0 11309700000.0 11309700000.0 11309700000.0 11309700000.0 11309700000.0 11309700000.0 11309700000.0 11309700000.0 11309700000.0 11309700000.0 11309700000.0 11309700000.0 11309700000.0 11309700000.0 11309700000.0 11309700000.0 11309700000.0 11309700000.0 11309700000.0 11309700000.0 11309700000.0 11309700000.0 11309700000.0 11309700000.0 11309700000.0 11309700000.0 11309700000.0 11309700000.0 11309700000.0 11309700000.0 11309700000.0 11309700000.0 11309700000.0 11309700000.0 11309700000.0 11309700000.0 11309700000.0 11309700000.0 11309700000.0 11309700000.0 11309700000.0 11309700000.0 11309700000.0 11309700000.0 11309700000.0 11309700000.0 11309700000.0 11309700000.0 11309700000.0 11309700000.0 11309700000.0 11309700000.0 11309700000.0 11309700000.0 11309700000.0 11309700000.0 11309700000.0 11309700000.0 11309700000.0 11309700000.0 11309700000.0 11309700000.0 11309700000.0 11309700000.0 11309700000.0 11309700000.0 11309700000.0 11309700000.0 11309700000.0 11309700000.0 11309700000.0 11309700000.0 11309700000.0 11309700000.0 11309700000.0 11309700000.0 11309700000.0 11309700000.0 11309700000.0 11309700000.0 11309700000.0 11309700000.0 11309700000.0 11309700000.0 11309700000.0 11309700000.0 11309700000.0 11309700000.0 11309700000.0 11309700000.0 11309700000.0 11309700000.0 11309700000.0 11309700000.0 11309700000.0 11309700000.0 11309700000.0 11309700000.0 11309700000.0 11309700000.0 11309700000.0 11309700000.0 11309700000.0 11309700000.0 11309700000.0 11309700000.0 11309700000.0 11309700000.0 11309700000.0 11309700000.0 11309700000.0 11309700000.0 11309700000.0 11309700000.0 11309700000.0 11309700000.0 11309700000.0 11309700000.0 11309700000.0 11309700000.0 11309700000.0 11309700000.0 11309700000.0 11309700000.0 11309700000.0 11309700000.0 11309700000.0 11309700000.0 11309700000.0 11309700000.0 11309700000.0 11309700000.0 11309700000.0 11309700000.0 11309700000.0 11309700000.0 11309700000.0 11309700000.0 11309700000.0 11309700000.0 11309700000.0 11309700000.0 11309700000.0 11309700000.0 11309700000.0 11309700000.0 11309700000.0 11309700000.0 11309700000.0 11309700000.0 11309700000.0 11309700000.0 11309700000.0 11309700000.0 11309700000.0 11309700000.0 11309700000.0 11309700000.0 11309700000.0 11309700000.0 11309700000.0 11309700000.0 11309700000.0 11309700000.0 11309700000.0 11309700000.0 11309700000.0 11309700000.0 11309700000.0 11309700000.0 11309700000.0 11309700000.0 11309700000.0 11309700000.0 11309700000.0 11309700000.0 11309700000.0 11309700000.0 11309700000.0 11309700000.0 11309700000.0 11309700000.0 11309700000.0 11309700000.0 11309700000.0 11309700000.0 11309700000.0 11309700000.0 11309700000.0 11309700000.0 11309700000.0 11309700000.0 11309700000.0 11309700000.0 11309700000.0 11309700000.0 11309700000.0 11309700000.0 11309700000.0 11309700000.0 11309700000.0 11309700000.0 11309700000.0 11309700000.0 11309700000.0 11309700000.0 11309700000.0 11309700000.0 11309700000.0 11309700000.0 11309700000.0 11309700000.0 11309700000.0 11309700000.0 11309700000.0 11309700000.0 11309700000.0 11309700000.0 11309700000.0 11309700000.0 11309700000.0 11309700000.0 11309700000.0 11309700000.0 11309700000.0 11309700000.0 11309700000.0 11309700000.0 11309700000.0 11309700000.0 11309700000.0 11309700000.0 11309700000.0 11309700000.0 11309700000.0 11309700000.0 11309700000.0 11309700000.0 11309700000.0 11309700000.0 11309700000.0 11309700000.0 11309700000.0 11309700000.0 11309700000.0 11309700000.0 11309700000.0 11309700000.0 11309700000.0 11309700000.0 11309700000.0 11309700000.0 11309700000.0 11309700000.0 11309700000.0 11309700000.0 11309700000.0 11309700000.0 11309700000.0 11309700000.0 11309700000.0 11309700000.0 11309700000.0 11309700000.0 11309700000.0 11309700000.0 11309700000.0 11309700000.0 11309700000.0 11309700000.0 11309700000.0 11309700000.0 11309700000.0 11309700000.0 11309700000.0 11309700000.0 11309700000.0 11309700000.0 11309700000.0 11309700000.0 11309700000.0 11309700000.0 11309700000.0 11309700000.0 11309700000.0 11309700000.0 11309700000.0 11309700000.0 11309700000.0 11309700000.0 11309700000.0 11309700000.0 11309700000.0 11309700000.0 11309700000.0 11309700000.0 11309700000.0 11309700000.0 11309700000.0 11309700000.0 11309700000.0 11309700000.0 11309700000.0 11309700000.0 11309700000.0 11309700000.0 11309700000.0 11309700000.0 11309700000.0 11309700000.0 11309700000.0 11309700000.0 11309700000.0 11309700000.0 11309700000.0 11309700000.0 11309700000.0 11309700000.0 11309700000.0 11309700000.0 11309700000.0 11309700000.0 11309700000.0 11309700000.0 11309700000.0 11309700000.0 11309700000.0 11309700000.0 11309700000.0 11309700000.0 11309700000.0 11309700000.0 11309700000.0 11309700000.0 11309700000.0 11309700000.0 11309700000.0 11309700000.0 11309700000.0 11309700000.0 11309700000.0 11309700000.0 11309700000.0 11309700000.0 11309700000.0 11309700000.0 11309700000.0 11309700000.0 11309700000.0 11309700000.0 11309700000.0 11309700000.0 11309700000.0 11309700000.0 11309700000.0 11309700000.0 11309700000.0 11309700000.0 11309700000.0 11309700000.0 11309700000.0 11309700000.0 11309700000.0 11309700000.0 11309700000.0 11309700000.0 11309700000.0 11309700000.0 11309700000.0 11309700000.0 11309700000.0 11309700000.0 11309700000.0 11309700000.0 11309700000.0 11309700000.0 11309700000.0 11309700000.0 11309700000.0 11309700000.0 11309700000.0 11309700000.0 11309700000.0 11309700000.0 11309700000.0 11309700000.0 11309700000.0 11309700000.0 11309700000.0 11309700000.0 11309700000.0 11309700000.0 11309700000.0 11309700000.0 11309700000.0 11309700000.0 11309700000.0 11309700000.0 11309700000.0 11309700000.0 11309700000.0 11309700000.0 11309700000.0 11309700000.0 11309700000.0 11309700000.0 11309700000.0 11309700000.0 11309700000.0 11309700000.0 11309700000.0 11309700000.0 11309700000.0 11309700000.0 11309700000.0 11309700000.0 11309700000.0 11309700000.0 11309700000.0 11309700000.0 11309700000.0 11309700000.0 11309700000.0 11309700000.0 11309700000.0 11309700000.0 11309700000.0 11309700000.0 11309700000.0 11309700000.0 11309700000.0 11309700000.0 11309700000.0 11309700000.0 11309700000.0 11309700000.0 11309700000.0 11309700000.0 11309700000.0 11309700000.0 11309700000.0 11309700000.0 11309700000.0 11309700000.0 11309700000.0 11309700000.0 11309700000.0 11309700000.0 11309700000.0 11309700000.0 11309700000.0 11309700000.0 11309700000.0 11309700000.0 11309700000.0 11309700000.0 11309700000.0 11309700000.0 11309700000.0 11309700000.0 11309700000.0 11309700000.0 11309700000.0 11309700000.0 11309700000.0 11309700000.0 11309700000.0 11309700000.0 11309700000.0 11309700000.0 11309700000.0 11309700000.0 11309700000.0 11309700000.0 11309700000.0 11309700000.0 11309700000.0 11309700000.0 11309700000.0 11309700000.0 11309700000.0 11309700000.0 11309700000.0 11309700000.0 11309700000.0 11309700000.0 11309700000.0 11309700000.0 11309700000.0 11309700000.0 11309700000.0 11309700000.0 11309700000.0 11309700000.0 11309700000.0 11309700000.0 11309700000.0 11309700000.0 11309700000.0 11309700000.0 11309700000.0 11309700000.0 11309700000.0 11309700000.0 11309700000.0 11309700000.0 11309700000.0 11309700000.0 11309700000.0 11309700000.0 11309700000.0 11309700000.0 11309700000.0 11309700000.0 11309700000.0 11309700000.0 11309700000.0 11309700000.0 11309700000.0 11309700000.0 11309700000.0 11309700000.0 11309700000.0 11309700000.0 11309700000.0 11309700000.0 11309700000.0 11309700000.0 11309700000.0 11309700000.0 11309700000.0 11309700000.0 11309700000.0 11309700000.0 11309700000.0 11309700000.0 11309700000.0 11309700000.0 11309700000.0 11309700000.0 11309700000.0 11309700000.0 11309700000.0 11309700000.0 11309700000.0 11309700000.0 11309700000.0 11309700000.0 11309700000.0 11309700000.0 11309700000.0 11309700000.0 11309700000.0 11309700000.0 11309700000.0 11309700000.0 11309700000.0 11309700000.0 11309700000.0 11309700000.0 11309700000.0 11309700000.0 11309700000.0 11309700000.0 11309700000.0 11309700000.0 11309700000.0 11309700000.0 11309700000.0 11309700000.0 11309700000.0 11309700000.0 11309700000.0 11309700000.0 11309700000.0 11309700000.0 11309700000.0 11309700000.0 11309700000.0 11309700000.0 11309700000.0 11309700000.0 11309700000.0 11309700000.0 11309700000.0 11309700000.0 11309700000.0 11309700000.0 11309700000.0 11309700000.0 11309700000.0 11309700000.0 11309700000.0 11309700000.0 11309700000.0 11309700000.0 11309700000.0 11309700000.0 11309700000.0 11309700000.0 11309700000.0 11309700000.0 11309700000.0 11309700000.0 11309700000.0 11309700000.0 11309700000.0 11309700000.0 11309700000.0 11309700000.0 11309700000.0 11309700000.0 11309700000.0 11309700000.0 11309700000.0 11309700000.0 11309700000.0 11309700000.0 11309700000.0 11309700000.0 11309700000.0 11309700000.0 11309700000.0 11309700000.0 11309700000.0 11309700000.0 11309700000.0 11309700000.0 11309700000.0 11309700000.0 11309700000.0 11309700000.0 11309700000.0 11309700000.0 11309700000.0 11309700000.0 11309700000.0 11309700000.0 11309700000.0 11309700000.0 11309700000.0 11309700000.0 11309700000.0 11309700000.0 11309700000.0 11309700000.0 11309700000.0 11309700000.0 11309700000.0 11309700000.0 11309700000.0 11309700000.0 11309700000.0 11309700000.0 11309700000.0 11309700000.0 11309700000.0 11309700000.0 11309700000.0 11309700000.0 11309700000.0 11309700000.0 11309700000.0 11309700000.0 11309700000.0 11309700000.0 11309700000.0 11309700000.0 11309700000.0 11309700000.0 11309700000.0 11309700000.0 11309700000.0 11309700000.0 11309700000.0 11309700000.0 11309700000.0 11309700000.0 11309700000.0 11309700000.0 11309700000.0 11309700000.0 11309700000.0 11309700000.0 11309700000.0 11309700000.0 11309700000.0 11309700000.0 11309700000.0 11309700000.0 11309700000.0 11309700000.0 11309700000.0 11309700000.0 11309700000.0 11309700000.0 11309700000.0 11309700000.0 11309700000.0 11309700000.0 11309700000.0 11309700000.0 11309700000.0 11309700000.0 11309700000.0 11309700000.0 11309700000.0 11309700000.0 11309700000.0 11309700000.0 11309700000.0 11309700000.0 11309700000.0 11309700000.0 11309700000.0 11309700000.0 11309700000.0 11309700000.0 11309700000.0 11309700000.0 11309700000.0 11309700000.0 11309700000.0 11309700000.0 11309700000.0 11309700000.0 11309700000.0 11309700000.0 11309700000.0 11309700000.0 11309700000.0 11309700000.0 11309700000.0 11309700000.0 11309700000.0 11309700000.0 11309700000.0 11309700000.0 11309700000.0 11309700000.0 11309700000.0 11309700000.0 11309700000.0 11309700000.0 11309700000.0 11309700000.0 11309700000.0 11309700000.0 11309700000.0 11309700000.0 11309700000.0 11309700000.0 11309700000.0 11309700000.0 11309700000.0 11309700000.0 11309700000.0 11309700000.0 11309700000.0 11309700000.0 11309700000.0 11309700000.0 11309700000.0 11309700000.0 11309700000.0 11309700000.0 11309700000.0 11309700000.0 11309700000.0 11309700000.0 11309700000.0 11309700000.0 11309700000.0 11309700000.0 11309700000.0 11309700000.0 11309700000.0 11309700000.0 11309700000.0 11309700000.0 11309700000.0 11309700000.0 11309700000.0 11309700000.0 11309700000.0 11309700000.0 11309700000.0 11309700000.0 11309700000.0 11309700000.0 11309700000.0 11309700000.0 11309700000.0 11309700000.0 11309700000.0 11309700000.0 11309700000.0 11309700000.0 11309700000.0 11309700000.0 11309700000.0 11309700000.0 11309700000.0 11309700000.0 11309700000.0 11309700000.0 11309700000.0 11309700000.0 11309700000.0 11309700000.0 11309700000.0 11309700000.0 11309700000.0 11309700000.0 11309700000.0 11309700000.0 11309700000.0 11309700000.0 11309700000.0 11309700000.0 11309700000.0 11309700000.0 11309700000.0 11309700000.0 11309700000.0 11309700000.0 11309700000.0 11309700000.0 11309700000.0 11309700000.0 11309700000.0 11309700000.0 11309700000.0 11309700000.0 11309700000.0 11309700000.0 11309700000.0 11309700000.0 11309700000.0 11309700000.0 11309700000.0 11309700000.0 11309700000.0 11309700000.0 11309700000.0 11309700000.0 11309700000.0 11309700000.0 11309700000.0 11309700000.0 11309700000.0 11309700000.0 11309700000.0 11309700000.0 11309700000.0 11309700000.0 11309700000.0 11309700000.0 11309700000.0 11309700000.0 11309700000.0 11309700000.0 11309700000.0 11309700000.0 11309700000.0 11309700000.0 11309700000.0 11309700000.0 11309700000.0 11309700000.0 11309700000.0 11309700000.0 11309700000.0 11309700000.0 11309700000.0 11309700000.0 11309700000.0 11309700000.0 11309700000.0 11309700000.0 11309700000.0 11309700000.0 11309700000.0 11309700000.0 11309700000.0 11309700000.0 11309700000.0 11309700000.0 11309700000.0 11309700000.0 11309700000.0 11309700000.0 11309700000.0 11309700000.0 11309700000.0 11309700000.0 11309700000.0 11309700000.0 11309700000.0 11309700000.0 11309700000.0 11309700000.0 11309700000.0 11309700000.0 11309700000.0 11309700000.0 11309700000.0 11309700000.0 11309700000.0 11309700000.0 11309700000.0 11309700000.0 11309700000.0 11309700000.0 11309700000.0 11309700000.0 11309700000.0 11309700000.0 11309700000.0 11309700000.0 11309700000.0 11309700000.0 11309700000.0 11309700000.0 11309700000.0 11309700000.0 11309700000.0 11309700000.0 11309700000.0 11309700000.0 11309700000.0 11309700000.0 11309700000.0 11309700000.0 11309700000.0 11309700000.0 11309700000.0 11309700000.0 11309700000.0 11309700000.0 11309700000.0 11309700000.0 11309700000.0 11309700000.0 11309700000.0 11309700000.0 11309700000.0 11309700000.0 11309700000.0 11309700000.0 11309700000.0 11309700000.0 11309700000.0 11309700000.0 11309700000.0 11309700000.0 11309700000.0 11309700000.0 11309700000.0 11309700000.0 11309700000.0 11309700000.0 11309700000.0 11309700000.0 11309700000.0 11309700000.0 11309700000.0 11309700000.0 11309700000.0 11309700000.0 11309700000.0 11309700000.0 11309700000.0 11309700000.0 11309700000.0 11309700000.0 11309700000.0 11309700000.0 11309700000.0 11309700000.0 11309700000.0 11309700000.0 11309700000.0 11309700000.0 11309700000.0 11309700000.0 11309700000.0 11309700000.0 11309700000.0 11309700000.0 11309700000.0 11309700000.0 11309700000.0 11309700000.0 11309700000.0 11309700000.0 11309700000.0 11309700000.0 11309700000.0 11309700000.0 11309700000.0 11309700000.0 11309700000.0 11309700000.0 11309700000.0 11309700000.0 11309700000.0 11309700000.0 11309700000.0 11309700000.0 11309700000.0 11309700000.0 11309700000.0 11309700000.0 11309700000.0 11309700000.0 11309700000.0 11309700000.0 11309700000.0 11309700000.0 11309700000.0 11309700000.0 11309700000.0 11309700000.0 11309700000.0 11309700000.0 11309700000.0 11309700000.0 11309700000.0 11309700000.0 11309700000.0 11309700000.0 11309700000.0 11309700000.0 11309700000.0 11309700000.0 11309700000.0 11309700000.0 11309700000.0 11309700000.0 11309700000.0 11309700000.0 11309700000.0 11309700000.0 11309700000.0 11309700000.0 11309700000.0 11309700000.0 11309700000.0 11309700000.0 11309700000.0 11309700000.0 11309700000.0 11309700000.0 11309700000.0 11309700000.0 11309700000.0 11309700000.0 11309700000.0 11309700000.0 11309700000.0 11309700000.0 11309700000.0 11309700000.0 11309700000.0 11309700000.0 11309700000.0 11309700000.0 11309700000.0 11309700000.0 11309700000.0 11309700000.0 11309700000.0 11309700000.0 11309700000.0 11309700000.0 11309700000.0 11309700000.0 11309700000.0 11309700000.0 11309700000.0 11309700000.0 11309700000.0 11309700000.0 11309700000.0 11309700000.0 11309700000.0 11309700000.0 11309700000.0 11309700000.0 11309700000.0 11309700000.0 11309700000.0 11309700000.0 11309700000.0 11309700000.0 11309700000.0 11309700000.0 11309700000.0 11309700000.0 11309700000.0 11309700000.0 11309700000.0 11309700000.0 11309700000.0 11309700000.0 11309700000.0 11309700000.0 11309700000.0 11309700000.0 11309700000.0 11309700000.0 11309700000.0 11309700000.0 11309700000.0 11309700000.0 11309700000.0 11309700000.0 11309700000.0 11309700000.0 11309700000.0 11309700000.0 11309700000.0 11309700000.0 11309700000.0 11309700000.0 11309700000.0 11309700000.0 11309700000.0 11309700000.0 11309700000.0 11309700000.0 11309700000.0 11309700000.0 11309700000.0 11309700000.0 11309700000.0 11309700000.0 11309700000.0 11309700000.0 11309700000.0 11309700000.0 11309700000.0 11309700000.0 11309700000.0 11309700000.0 11309700000.0 11309700000.0 11309700000.0 11309700000.0 11309700000.0 11309700000.0 11309700000.0 11309700000.0 11309700000.0 11309700000.0 11309700000.0 11309700000.0 11309700000.0 11309700000.0 11309700000.0 11309700000.0 11309700000.0 11309700000.0 11309700000.0 11309700000.0 11309700000.0 11309700000.0 11309700000.0 11309700000.0 11309700000.0 11309700000.0 11309700000.0 11309700000.0 11309700000.0 11309700000.0 11309700000.0 11309700000.0 11309700000.0 11309700000.0 11309700000.0 11309700000.0 11309700000.0 11309700000.0 11309700000.0 11309700000.0 11309700000.0 11309700000.0 11309700000.0 11309700000.0 11309700000.0 11309700000.0 11309700000.0 11309700000.0 11309700000.0 11309700000.0 11309700000.0 11309700000.0 11309700000.0 11309700000.0 11309700000.0 11309700000.0 11309700000.0 11309700000.0 11309700000.0 11309700000.0 11309700000.0 11309700000.0 11309700000.0 11309700000.0 11309700000.0 11309700000.0 11309700000.0 11309700000.0 11309700000.0 11309700000.0 11309700000.0 11309700000.0 11309700000.0 11309700000.0 11309700000.0 11309700000.0 11309700000.0 11309700000.0 11309700000.0 11309700000.0 11309700000.0 11309700000.0 11309700000.0 11309700000.0 11309700000.0 11309700000.0 11309700000.0 11309700000.0 11309700000.0 11309700000.0 11309700000.0 11309700000.0 11309700000.0 11309700000.0 11309700000.0 11309700000.0 11309700000.0 11309700000.0 11309700000.0 11309700000.0 11309700000.0 11309700000.0 11309700000.0 11309700000.0 11309700000.0 11309700000.0 11309700000.0 11309700000.0 11309700000.0 11309700000.0 11309700000.0 11309700000.0 11309700000.0 11309700000.0 11309700000.0 11309700000.0 11309700000.0 11309700000.0 11309700000.0 11309700000.0 11309700000.0 11309700000.0 11309700000.0 11309700000.0 11309700000.0 11309700000.0 11309700000.0 11309700000.0 11309700000.0 11309700000.0 11309700000.0 11309700000.0 11309700000.0 11309700000.0 11309700000.0 11309700000.0 11309700000.0 11309700000.0 11309700000.0 11309700000.0 11309700000.0 11309700000.0 11309700000.0 11309700000.0 11309700000.0 11309700000.0 11309700000.0 11309700000.0 11309700000.0 11309700000.0 11309700000.0 11309700000.0 11309700000.0 11309700000.0 11309700000.0 11309700000.0 11309700000.0 11309700000.0 11309700000.0 11309700000.0 11309700000.0 11309700000.0 11309700000.0 11309700000.0 11309700000.0 11309700000.0 11309700000.0 11309700000.0 11309700000.0 11309700000.0 11309700000.0 11309700000.0 11309700000.0 11309700000.0 11309700000.0 11309700000.0 11309700000.0 11309700000.0 11309700000.0 11309700000.0 11309700000.0 11309700000.0 11309700000.0 11309700000.0 11309700000.0 11309700000.0 11309700000.0 11309700000.0 11309700000.0 11309700000.0 11309700000.0 11309700000.0 11309700000.0 11309700000.0 11309700000.0 11309700000.0 11309700000.0 11309700000.0 11309700000.0 11309700000.0 11309700000.0 11309700000.0 11309700000.0 11309700000.0 11309700000.0 11309700000.0 11309700000.0 11309700000.0 11309700000.0 11309700000.0 11309700000.0 11309700000.0 11309700000.0 11309700000.0 11309700000.0 11309700000.0 11309700000.0 11309700000.0 11309700000.0 11309700000.0 11309700000.0 11309700000.0 11309700000.0 11309700000.0 11309700000.0 11309700000.0 11309700000.0 11309700000.0 11309700000.0 11309700000.0 11309700000.0 11309700000.0 11309700000.0 11309700000.0 11309700000.0 11309700000.0 11309700000.0 11309700000.0 11309700000.0 11309700000.0 11309700000.0 11309700000.0 11309700000.0 11309700000.0 11309700000.0 11309700000.0 11309700000.0 11309700000.0 11309700000.0 11309700000.0 11309700000.0 11309700000.0 11309700000.0 11309700000.0 11309700000.0 11309700000.0 11309700000.0 11309700000.0 11309700000.0 11309700000.0 11309700000.0 11309700000.0 11309700000.0 11309700000.0 11309700000.0 11309700000.0 11309700000.0 11309700000.0 11309700000.0 11309700000.0 11309700000.0 11309700000.0 11309700000.0 11309700000.0 11309700000.0 11309700000.0 11309700000.0 11309700000.0 11309700000.0 11309700000.0 11309700000.0 11309700000.0 11309700000.0 11309700000.0 11309700000.0 11309700000.0 11309700000.0 11309700000.0 11309700000.0 11309700000.0 11309700000.0 11309700000.0 11309700000.0 11309700000.0 11309700000.0 11309700000.0 11309700000.0 11309700000.0 11309700000.0 11309700000.0 11309700000.0 11309700000.0 11309700000.0 11309700000.0 11309700000.0 11309700000.0 11309700000.0 11309700000.0 11309700000.0 11309700000.0 11309700000.0 11309700000.0 11309700000.0 11309700000.0 11309700000.0 11309700000.0 11309700000.0 11309700000.0 11309700000.0 11309700000.0 11309700000.0 11309700000.0 11309700000.0 11309700000.0 11309700000.0 11309700000.0 11309700000.0 11309700000.0 11309700000.0 11309700000.0 11309700000.0 11309700000.0 11309700000.0 11309700000.0 11309700000.0 11309700000.0 11309700000.0 11309700000.0 11309700000.0 11309700000.0 11309700000.0 11309700000.0 11309700000.0 11309700000.0 11309700000.0 11309700000.0 11309700000.0 11309700000.0 11309700000.0 11309700000.0 11309700000.0 11309700000.0 11309700000.0 11309700000.0 11309700000.0 11309700000.0 11309700000.0 11309700000.0 11309700000.0 11309700000.0 11309700000.0 11309700000.0 11309700000.0 11309700000.0 11309700000.0 11309700000.0 11309700000.0 11309700000.0 11309700000.0 11309700000.0 11309700000.0 11309700000.0 11309700000.0 11309700000.0 11309700000.0 11309700000.0 11309700000.0 11309700000.0 11309700000.0 11309700000.0 11309700000.0 11309700000.0 11309700000.0 11309700000.0 11309700000.0 11309700000.0 11309700000.0 11309700000.0 11309700000.0 11309700000.0 11309700000.0 11309700000.0 11309700000.0 11309700000.0 11309700000.0 11309700000.0 11309700000.0 11309700000.0 11309700000.0 11309700000.0 11309700000.0 11309700000.0 11309700000.0 11309700000.0 11309700000.0 11309700000.0 11309700000.0 11309700000.0 11309700000.0 11309700000.0 11309700000.0 11309700000.0 11309700000.0 11309700000.0 11309700000.0 11309700000.0 11309700000.0 11309700000.0 11309700000.0 11309700000.0 11309700000.0 11309700000.0 11309700000.0 11309700000.0 11309700000.0 11309700000.0 11309700000.0 11309700000.0 11309700000.0 11309700000.0 11309700000.0 11309700000.0 11309700000.0 11309700000.0 11309700000.0 11309700000.0 11309700000.0 11309700000.0 11309700000.0 11309700000.0 11309700000.0 11309700000.0 11309700000.0 11309700000.0 11309700000.0 11309700000.0 11309700000.0 11309700000.0 11309700000.0 11309700000.0 11309700000.0 11309700000.0 11309700000.0 11309700000.0 11309700000.0 11309700000.0 11309700000.0 11309700000.0 11309700000.0 11309700000.0 11309700000.0 11309700000.0 11309700000.0 11309700000.0 11309700000.0 11309700000.0 11309700000.0 11309700000.0 11309700000.0 11309700000.0 11309700000.0 11309700000.0 11309700000.0 11309700000.0 11309700000.0 11309700000.0 11309700000.0 11309700000.0 11309700000.0 11309700000.0 11309700000.0 11309700000.0 11309700000.0 11309700000.0 11309700000.0 11309700000.0 11309700000.0 11309700000.0 11309700000.0 11309700000.0 11309700000.0 11309700000.0 11309700000.0 11309700000.0 11309700000.0 11309700000.0 11309700000.0 11309700000.0 11309700000.0 11309700000.0 11309700000.0 11309700000.0 11309700000.0 11309700000.0 11309700000.0 11309700000.0 11309700000.0 11309700000.0 11309700000.0 11309700000.0 11309700000.0 11309700000.0 11309700000.0 11309700000.0 11309700000.0 11309700000.0 11309700000.0 11309700000.0 11309700000.0 11309700000.0 11309700000.0 11309700000.0 11309700000.0 11309700000.0 11309700000.0 11309700000.0 11309700000.0 11309700000.0 11309700000.0 11309700000.0 11309700000.0 11309700000.0 11309700000.0 11309700000.0 11309700000.0 11309700000.0 11309700000.0 11309700000.0 11309700000.0 11309700000.0 11309700000.0 11309700000.0 11309700000.0 11309700000.0 11309700000.0 11309700000.0 11309700000.0 11309700000.0 11309700000.0 11309700000.0 11309700000.0 11309700000.0 11309700000.0 11309700000.0 11309700000.0 11309700000.0 11309700000.0 11309700000.0 11309700000.0 11309700000.0 11309700000.0 11309700000.0 11309700000.0 11309700000.0 11309700000.0 11309700000.0 11309700000.0 11309700000.0 11309700000.0 11309700000.0 11309700000.0 11309700000.0 11309700000.0 11309700000.0 11309700000.0 11309700000.0 11309700000.0 11309700000.0 11309700000.0 11309700000.0 11309700000.0 11309700000.0 11309700000.0 11309700000.0 11309700000.0 11309700000.0 11309700000.0 11309700000.0 11309700000.0 11309700000.0 11309700000.0 11309700000.0 11309700000.0 11309700000.0 11309700000.0 11309700000.0 11309700000.0 11309700000.0 11309700000.0 11309700000.0 11309700000.0 11309700000.0 11309700000.0 11309700000.0 11309700000.0 11309700000.0 11309700000.0 11309700000.0 11309700000.0 11309700000.0 11309700000.0 11309700000.0 11309700000.0 11309700000.0 11309700000.0 11309700000.0 11309700000.0 11309700000.0 11309700000.0 11309700000.0 11309700000.0 11309700000.0 11309700000.0 11309700000.0 11309700000.0 11309700000.0 11309700000.0 11309700000.0 11309700000.0 11309700000.0 11309700000.0 11309700000.0 11309700000.0 11309700000.0 11309700000.0 11309700000.0 11309700000.0 11309700000.0 11309700000.0 11309700000.0 11309700000.0 11309700000.0 11309700000.0 11309700000.0 11309700000.0 11309700000.0 11309700000.0 11309700000.0 11309700000.0 11309700000.0 11309700000.0 11309700000.0 11309700000.0 11309700000.0 11309700000.0 11309700000.0 11309700000.0 11309700000.0 11309700000.0 11309700000.0 11309700000.0 11309700000.0 11309700000.0 11309700000.0 11309700000.0 11309700000.0 11309700000.0 11309700000.0 11309700000.0 11309700000.0 11309700000.0 11309700000.0 11309700000.0 11309700000.0 11309700000.0 11309700000.0 11309700000.0 11309700000.0 11309700000.0 11309700000.0 11309700000.0 11309700000.0 11309700000.0 11309700000.0 11309700000.0 11309700000.0 11309700000.0 11309700000.0 11309700000.0 11309700000.0 11309700000.0 11309700000.0 11309700000.0 11309700000.0 11309700000.0 11309700000.0 11309700000.0 11309700000.0 11309700000.0 11309700000.0 11309700000.0 11309700000.0 11309700000.0 11309700000.0 11309700000.0 11309700000.0 11309700000.0 11309700000.0 11309700000.0 11309700000.0 11309700000.0 11309700000.0 11309700000.0 11309700000.0 11309700000.0 11309700000.0 11309700000.0 11309700000.0 11309700000.0 11309700000.0 11309700000.0 11309700000.0 11309700000.0 11309700000.0 11309700000.0 11309700000.0 11309700000.0 11309700000.0 11309700000.0 11309700000.0 11309700000.0 11309700000.0 11309700000.0 11309700000.0 11309700000.0 11309700000.0 11309700000.0 11309700000.0 11309700000.0 11309700000.0 11309700000.0 11309700000.0 11309700000.0 11309700000.0 11309700000.0 11309700000.0 11309700000.0 11309700000.0 11309700000.0 11309700000.0 11309700000.0 11309700000.0 11309700000.0 11309700000.0 11309700000.0 11309700000.0 11309700000.0 11309700000.0 11309700000.0 11309700000.0 11309700000.0 11309700000.0 11309700000.0 11309700000.0 11309700000.0 11309700000.0 11309700000.0 11309700000.0 11309700000.0 11309700000.0 11309700000.0 11309700000.0 11309700000.0 11309700000.0 11309700000.0 11309700000.0 11309700000.0 11309700000.0 11309700000.0 11309700000.0 11309700000.0 11309700000.0 11309700000.0 11309700000.0 11309700000.0 11309700000.0 11309700000.0 11309700000.0 11309700000.0 11309700000.0 11309700000.0 11309700000.0 11309700000.0 11309700000.0 11309700000.0 11309700000.0 11309700000.0 11309700000.0 11309700000.0 11309700000.0 11309700000.0 11309700000.0 11309700000.0 11309700000.0 11309700000.0 11309700000.0 11309700000.0 11309700000.0 11309700000.0 11309700000.0 11309700000.0 11309700000.0 11309700000.0 11309700000.0 11309700000.0 11309700000.0 11309700000.0 11309700000.0 11309700000.0 11309700000.0 11309700000.0 11309700000.0 11309700000.0 11309700000.0 11309700000.0 11309700000.0 11309700000.0 11309700000.0 11309700000.0 11309700000.0 11309700000.0 11309700000.0 11309700000.0 11309700000.0 11309700000.0 11309700000.0 11309700000.0 11309700000.0 11309700000.0 11309700000.0 11309700000.0 11309700000.0 11309700000.0 11309700000.0 11309700000.0 11309700000.0 11309700000.0 11309700000.0 11309700000.0 11309700000.0 11309700000.0 11309700000.0 11309700000.0 11309700000.0 11309700000.0 11309700000.0 11309700000.0 11309700000.0 11309700000.0 11309700000.0 11309700000.0 11309700000.0 11309700000.0 11309700000.0 11309700000.0 11309700000.0 11309700000.0 11309700000.0 11309700000.0 11309700000.0 11309700000.0 11309700000.0 11309700000.0 11309700000.0 11309700000.0 11309700000.0 11309700000.0 11309700000.0 11309700000.0 11309700000.0 11309700000.0 11309700000.0 11309700000.0 11309700000.0 11309700000.0 11309700000.0 11309700000.0 11309700000.0 11309700000.0 11309700000.0 11309700000.0 11309700000.0 11309700000.0 11309700000.0 11309700000.0 11309700000.0 11309700000.0 11309700000.0 11309700000.0 11309700000.0 11309700000.0 11309700000.0 11309700000.0 11309700000.0 11309700000.0 11309700000.0 11309700000.0 11309700000.0 11309700000.0 11309700000.0 11309700000.0 11309700000.0 11309700000.0 11309700000.0 11309700000.0 11309700000.0 11309700000.0 11309700000.0 11309700000.0 11309700000.0 11309700000.0 11309700000.0 11309700000.0 11309700000.0 11309700000.0 11309700000.0 11309700000.0 11309700000.0 11309700000.0 11309700000.0 11309700000.0 11309700000.0 11309700000.0 11309700000.0 11309700000.0 11309700000.0 11309700000.0 11309700000.0 11309700000.0 11309700000.0 11309700000.0 11309700000.0 11309700000.0 11309700000.0 11309700000.0 11309700000.0 11309700000.0 11309700000.0 11309700000.0 11309700000.0 11309700000.0 11309700000.0 11309700000.0 11309700000.0 11309700000.0 11309700000.0 11309700000.0 11309700000.0 11309700000.0 11309700000.0 11309700000.0 11309700000.0 11309700000.0 11309700000.0 11309700000.0 11309700000.0 11309700000.0 11309700000.0 11309700000.0 11309700000.0 11309700000.0 11309700000.0 11309700000.0 11309700000.0 11309700000.0 11309700000.0 11309700000.0 11309700000.0 11309700000.0 11309700000.0 11309700000.0 11309700000.0 11309700000.0 11309700000.0 11309700000.0 11309700000.0 11309700000.0 11309700000.0 11309700000.0 11309700000.0 11309700000.0 11309700000.0 11309700000.0 11309700000.0 11309700000.0 11309700000.0 11309700000.0 11309700000.0 11309700000.0 11309700000.0 11309700000.0 11309700000.0 11309700000.0 11309700000.0 11309700000.0 11309700000.0 11309700000.0 11309700000.0 11309700000.0 11309700000.0 11309700000.0 11309700000.0 11309700000.0 11309700000.0 11309700000.0 11309700000.0 11309700000.0 11309700000.0 11309700000.0 11309700000.0 11309700000.0 11309700000.0 11309700000.0 11309700000.0 11309700000.0 11309700000.0 11309700000.0 11309700000.0 11309700000.0 11309700000.0 11309700000.0 11309700000.0 11309700000.0 11309700000.0 11309700000.0 11309700000.0 11309700000.0 11309700000.0 11309700000.0 11309700000.0 11309700000.0 11309700000.0 11309700000.0 11309700000.0 11309700000.0 11309700000.0 11309700000.0 11309700000.0 11309700000.0 11309700000.0 11309700000.0 11309700000.0 11309700000.0 11309700000.0 11309700000.0 11309700000.0 11309700000.0 11309700000.0 11309700000.0 11309700000.0 11309700000.0 11309700000.0 11309700000.0 11309700000.0 11309700000.0 11309700000.0 11309700000.0 11309700000.0 11309700000.0 11309700000.0 11309700000.0 11309700000.0 11309700000.0 11309700000.0 11309700000.0 11309700000.0 11309700000.0 11309700000.0 11309700000.0 11309700000.0 11309700000.0 11309700000.0 11309700000.0 11309700000.0 11309700000.0 11309700000.0 11309700000.0 11309700000.0 11309700000.0 11309700000.0 11309700000.0 11309700000.0 11309700000.0 11309700000.0 11309700000.0 11309700000.0 11309700000.0 11309700000.0 11309700000.0 11309700000.0 11309700000.0 11309700000.0 11309700000.0 11309700000.0 11309700000.0 11309700000.0 11309700000.0 11309700000.0 11309700000.0 11309700000.0 11309700000.0 11309700000.0 11309700000.0 11309700000.0 11309700000.0 11309700000.0 11309700000.0 11309700000.0 11309700000.0 11309700000.0 
SCALARS Velocity float 1
LOOKUP_TABLE default
1.06852 1.07251 1.10462 1.07648 1.07524 1.07377 1.07132 1.08304 1.07346 1.07333 1.06914 1.0674 1.06813 1.08062 1.08017 1.07926 1.07778 1.07508 1.07219 1.07016 1.00584 1.0284 1.0833 1.07304 1.06906 1.06711 1.06724 1.06746 1.0681 1.06884 1.10448 1.08096 1.08139 1.08133 1.07919 1.07639 1.07348 1.07107 1.03042 1.03484 1.0767 1.07296 1.06865 1.06922 1.06726 1.06743 1.06947 1.10333 1.08171 1.0803 1.07779 1.07484 1.07314 1.07186 1.07032 1.07005 1.07242 1.01479 1.08492 1.07356 1.0686 1.06679 1.06828 1.06904 1.06743 1.06781 1.08163 1.08126 1.08034 1.07918 1.07779 1.07628 1.07456 1.07139 1.06916 1.0633 1.08164 1.06883 1.06802 1.06869 1.06919 1.06936 1.06772 1.0682 1.06752 1.06712 1.07044 1.10191 1.08256 1.08204 1.08129 1.07931 1.07612 1.07267 1.0698 1.06422 1.07103 1.07267 1.06813 1.06887 1.06973 1.06812 1.06891 1.07149 1.10008 1.08222 1.08073 1.07783 1.07415 1.07074 1.06859 1.06734 1.06605 1.06947 1.0701 1.06882 1.06966 1.06859 1.06877 1.08202 1.08214 1.08152 1.07965 1.07788 1.07588 1.07353 1.07198 1.06969 1.06682 1.06569 1.06646 1.06885 1.06898 1.07067 1.07002 1.06944 1.06992 1.06968 1.07064 1.07047 1.06825 1.06844 1.06872 1.06963 1.07267 1.08332 1.08376 1.08317 1.08327 1.08009 1.07546 1.07097 1.06764 1.06587 1.0677 1.06963 1.07013 1.07088 1.07171 1.06815 1.06884 1.07141 1.07445 1.08096 1.08465 1.08237 1.07781 1.07261 1.06853 1.06613 1.06609 1.06819 1.0699 1.07101 1.07211 1.06844 1.07009 1.075 1.08422 1.08448 1.08043 1.07756 1.07477 1.07134 1.06969 1.0671 1.06651 1.0651 1.06532 1.06523 1.06668 1.06726 1.06891 1.06987 1.07076 1.0723 1.07239 1.07407 1.07347 1.0681 1.06863 1.06936 1.07195 1.07997 1.08565 1.0858 1.0853 1.08305 1.08059 1.07377 1.06804 1.06511 1.06431 1.06551 1.06827 1.07153 1.07435 1.07581 1.06808 1.06998 1.07065 1.07269 1.075 1.07959 1.08698 1.08336 1.07726 1.06961 1.06534 1.0638 1.06401 1.06617 1.06992 1.07396 1.07662 1.06894 1.0722 1.07543 1.08803 1.08538 1.08102 1.07725 1.07237 1.06724 1.06592 1.06332 1.0635 1.06243 1.06304 1.06258 1.06407 1.0648 1.06755 1.06996 1.07252 1.07609 1.07689 1.07987 1.07879 1.06796 1.06914 1.07089 1.07403 1.07534 1.0787 1.08668 1.08733 1.08446 1.08228 1.07037 1.06335 1.06192 1.06179 1.06225 1.06661 1.07373 1.08012 1.08244 1.06757 1.07169 1.07803 1.07851 1.08142 1.03591 1.04062 1.08695 1.07815 1.06405 1.0613 1.06073 1.06132 1.06109 1.06304 1.06987 1.0788 1.08385 1.06904 1.07558 1.08143 1.03654 1.0432 1.08508 1.0813 1.06706 1.0599 1.06052 1.05973 1.06073 1.06089 1.05996 1.05997 1.06094 1.06531 1.06934 1.07505 1.08213 1.08412 1.08851 1.08667 1.06676 1.06856 1.07221 1.07706 1.0801 1.08541 1.08704 1.04122 1.046 1.06032 1.0586 1.05971 1.06088 1.05721 1.06362 1.07609 1.08893 1.09123 1.06547 1.07264 1.08348 1.09279 1.03565 1.04069 1.04439 1.0484 1.0503 1.05207 1.05737 1.05706 1.0585 1.05846 1.05976 1.05956 1.06103 1.05886 1.05929 1.06739 1.08632 1.0936 1.06363 1.06769 1.07326 1.07953 1.0902 1.03521 1.04568 1.03194 1.05359 1.05697 1.05817 1.05786 1.0635 1.06029 1.06274 1.07631 1.09246 1.09461 1.09849 1.09556 1.06609 1.08338 1.08882 1.09701 1.09685 1.04087 1.02716 1.04491 1.05421 1.05684 1.05698 1.0566 1.06973 1.07556 1.10106 1.09878 1.06107 1.0732 1.09721 1.09932 1.03581 1.02222 1.02501 1.02821 1.03324 1.04047 1.0487 1.05076 1.05471 1.05519 1.05633 1.05535 1.05524 1.05411 1.05864 1.06231 1.07777 1.10205 1.10267 1.10517 1.10168 1.1009 1.05824 1.06279 1.07021 1.08703 1.10329 1.11078 1.10926 1.02304 1.02585 1.03191 1.04448 1.05248 1.05546 1.05429 1.05446 1.0704 1.12847 1.11789 1.10421 1.05823 1.0844 1.12538 1.09171 1.01945 1.02655 1.02713 1.02876 1.03656 1.04776 1.05402 1.05557 1.05349 1.05604 1.05775 1.10612 1.13099 1.11342 1.10187 1.05961 1.06078 1.0646 1.07275 1.09541 1.11906 1.09801 1.07931 1.06413 1.0237 1.03363 1.04121 1.04569 1.05078 1.05337 1.05537 1.05686 1.05597 1.05684 1.05264 1.04889 1.11729 1.12742 1.11407 1.10598 1.10263 1.06929 1.06746 1.06636 1.14018 1.12125 1.09092 1.03379 1.02671 1.03938 1.04961 1.05551 1.05883 1.05683 1.02825 1.16323 1.14442 1.12466 1.1053 1.07604 1.06926 1.10495 1.12621 1.07074 1.02596 1.02878 1.03295 1.03953 1.0447 1.05255 1.05769 1.06117 1.05058 1.138 1.11063 1.10385 1.08723 1.10063 1.08302 1.09451 1.08975 1.08397 1.02078 0.948914 1.12217 1.09583 1.03675 1.02872 1.03582 1.04411 1.04859 1.05113 1.05476 1.05647 1.06003 1.06213 1.06164 1.03556 0.988175 1.1872 1.13886 1.118 1.11247 1.10622 1.10746 1.11082 1.10873 1.08911 1.01585 0.902309 0.89192 1.0359 1.03519 1.04035 1.04696 1.05266 1.05761 1.059 1.09094 1.17129 1.12718 1.11148 1.13706 1.12967 1.12458 1.09956 1.07109 1.0558 1.00256 0.955207 0.919821 0.914715 1.03813 1.03753 1.03832 1.03993 1.04299 1.04423 1.04848 1.05361 1.05718 1.08569 1.13781 1.14713 1.13597 1.12187 1.12079 1.11423 1.15582 1.09001 1.03067 0.959481 0.914282 0.946904 0.998484 1.01984 1.03747 1.04048 1.04475 1.04934 1.05074 1.05457 1.06137 1.06732 1.08867 1.10039 1.13928 1.13062 1.12362 1.16194 1.13661 1.04568 0.990479 0.964201 0.938128 0.945535 0.992425 1.02818 1.0372 1.04028 1.04594 1.05609 1.07633 1.1073 1.1282 1.13539 1.1364 1.13005 1.16638 1.17742 1.15271 1.07449 1.01727 1.00621 0.981808 0.959262 0.970768 1.01247 1.02258 1.03151 1.03194 1.03623 1.03511 1.04045 1.05001 1.06848 1.0972 1.12671 1.13555 1.13458 1.13695 1.13368 1.17663 1.06497 0.985875 0.974535 0.980772 0.971108 0.989836 0.997769 1.01333 1.02685 1.03072 1.03522 1.0427 1.04955 1.06 1.07873 1.08814 1.11009 1.1158 1.13288 1.13619 1.14391 1.12748 1.15384 1.19824 1.02508 0.980476 0.981758 0.983508 0.992365 0.992941 1.00733 1.02175 1.0273 1.02931 1.03856 1.06581 1.10375 1.12592 1.12876 1.12993 1.13275 1.135 1.14285 1.15446 0.893832 1.06145 1.28314 0.974243 0.999519 1.00197 1.00657 1.01816 1.01849 1.02436 1.02494 1.02397 1.0254 1.02207 1.0291 1.03475 1.05061 1.09415 1.12677 1.1304 1.12592 1.14654 1.1274 1.0933 0.811566 1.15285 1.01517 0.99378 1.01968 1.0124 1.02187 1.01219 1.02126 1.02562 1.02573 1.01962 1.02012 1.05613 1.07813 1.12037 1.12522 1.14619 1.13491 1.12521 1.12184 1.11343 1.12892 1.14994 1.1656 1.12081 0.869724 0.538631 0.603488 1.03031 1.03234 1.02811 1.02836 1.0293 1.02293 1.01322 1.03079 1.09838 1.15366 1.13952 1.10863 1.11938 1.17513 0.893832 1.1398 0.975886 0.678574 0.913148 1.04043 1.03744 1.03918 1.03277 1.03615 1.03296 1.03548 1.02931 1.02494 1.01619 1.00744 1.01234 1.06546 1.12681 1.15761 1.18114 1.16633 1.13804 1.11505 1.0965 1.09887 1.10132 1.14626 1.1721 0.743323 0.853252 0.834626 0.777321 0.9411 1.00261 1.04087 1.04674 1.04669 1.03925 1.03899 1.03586 1.015 1.00613 1.03343 1.08217 1.20975 1.16003 1.10435 1.09695 1.12497 0.780418 0.896176 0.847704 0.889209 1.01669 1.04997 1.04272 1.03957 1.04239 1.03263 1.00074 1.0299 1.17533 1.18559 1.11532 1.13113 1.13492 1.17865 1.09137 1.08821 1.12933 1.4465 0.987361 0.839875 0.984942 1.03372 1.046 1.04486 1.0449 1.03371 1.03791 1.03759 1.04267 1.04915 1.04574 1.02326 0.998372 1.05172 1.10309 1.2869 1.27649 1.14869 1.10568 1.06818 1.26159 1.19467 1.06084 5.08678 0.574141 0.882657 1.15673 0.955116 1.01981 1.04174 1.02576 1.02787 1.0443 1.05663 1.04597 1.04239 1.0122 1.03639 1.19902 1.24906 0.948559 1.22727 1.49558 1.31499 1.28381 1.23503 0.440147 0.222726 0.0497146 0.967978 1.61723 1.00789 0.930583 1.05188 1.03208 1.01161 1.01281 1.03286 1.05516 1.06336 1.05077 1.15994 1.42855 0.897394 0.942962 0.883877 1.06605 1.42082 1.32221 1.17803 0.966004 0.70325 0.50059 0.695945 0.699314 0.186084 0.713266 0.943424 1.03685 1.14697 1.05302 0.957532 0.985232 0.961696 0.991286 0.991713 1.01598 1.02727 1.04354 1.06849 1.07319 1.11147 1.16012 1.46584 1.38643 1.29346 0.952232 0.950482 1.88013 1.55457 1.25336 1.02577 0.717024 0.566346 0.604077 0.54494 0.610071 0.71257 0.712821 0.898617 1.18228 1.13542 1.12956 1.12377 0.946897 0.92364 0.959528 1.00437 1.04138 1.0568 1.0708 1.08367 1.10454 1.38508 0.780909 0.953679 1.11024 1.06883 1.00336 1.03349 0.992553 1.38152 1.05934 0.847277 0.732352 0.766696 0.706756 0.613317 0.603194 0.660689 0.70031 0.901142 0.998217 1.31787 1.36757 0.901926 0.881612 0.924606 0.973017 1.02186 1.05293 1.08823 1.18495 0.575057 0.550724 0.893222 0.952832 1.06011 0.953915 0.743325 1.10205 0.941724 0.894961 0.684219 0.673016 0.620454 0.618622 0.623027 0.647411 0.648657 0.630013 0.562853 0.60458 0.5517 0.893207 1.82834 1.29721 1.41719 0.859196 0.838199 0.898681 0.899491 0.906862 0.936449 0.957166 0.994398 1.01806 1.03689 1.05811 1.12883 0.640301 0.417188 0.71938 0.980098 0.983693 0.783642 0.944611 0.87919 0.89968 0.743703 0.748728 0.647579 0.672185 0.654072 0.645907 0.651516 0.629087 0.619336 0.62317 0.629397 0.616567 0.600989 0.450134 0.39529 0.226312 1.60403 0.235307 0.512841 0.885442 0.925629 0.900634 0.918122 0.990778 1.03135 1.04059 1.02892 1.0613 0.982983 0.966195 0.774461 0.546879 0.582815 0.556421 0.717334 0.849832 0.868888 0.946771 0.896927 1.01585 0.763965 0.773905 0.791215 0.877819 0.675487 0.654804 0.597623 0.629141 0.650188 0.643292 0.615454 0.624917 0.623195 0.634006 0.649114 0.664419 0.700796 0.576186 0.495238 0.523204 0.522504 1.08649 1.0816 0.681761 0.904393 0.921778 0.894436 0.894731 0.949421 1.01899 1.0188 0.97357 0.891269 0.72425 0.6773 0.830979 0.825797 1.18603 0.966951 0.748887 0.656867 0.597511 0.6272 0.669392 0.637223 0.648128 0.633759 0.607612 0.584188 0.567574 0.562215 0.606739 0.603702 0.629767 0.593771 0.673291 0.690362 0.675393 0.54999 0.745317 0.990903 0.99158 0.702536 0.73735 0.839413 0.878259 0.87774 0.907518 0.957618 1.00017 1.01941 1.02305 0.974646 0.966248 0.894149 0.899635 0.845673 0.814646 0.7375 0.759452 0.926351 1.04835 0.668971 1.01092 0.89488 0.566482 0.697725 0.623384 0.591791 0.643395 0.654363 0.629007 0.62891 0.61822 0.581491 0.554796 0.555011 0.534273 0.498893 0.574961 0.597903 0.590185 0.533488 0.622715 0.691541 0.734786 0.641467 0.459823 0.839175 0.860706 0.948055 0.863905 0.804763 0.847731 0.865506 0.90222 1.02311 0.992694 0.89272 0.839168 0.816162 0.79602 0.806727 0.77833 0.816822 0.821729 0.860204 1.19256 0.291073 0.609955 0.616778 0.554927 0.597159 0.622329 0.628768 0.61836 0.614212 0.62344 0.564826 0.510128 0.51986 0.505599 0.459842 0.447591 0.511626 0.53306 0.61679 0.62802 0.727287 0.684705 0.940761 0.886524 0.96121 0.793591 0.853672 0.8556 0.845719 0.857337 0.877131 0.959941 0.995931 0.909176 0.82711 0.810571 0.814566 0.832341 0.849323 0.866149 0.769935 0.792594 0.592671 0.486782 0.533003 0.519867 0.555554 0.585023 0.61987 0.633313 0.613639 0.546497 0.461053 0.540366 0.519157 0.492773 0.483348 0.475457 0.426681 0.443039 0.423319 0.50081 0.52026 0.56481 0.538549 0.610354 0.899648 0.579262 0.572131 0.866368 0.596794 0.768727 1.12725 0.820429 0.79178 0.790756 0.828922 0.894408 0.837614 0.942605 1.05336 0.964133 0.924781 0.843411 0.832209 0.770613 0.790177 0.781448 0.80421 0.810009 0.830815 0.862928 0.863871 0.879212 0.849521 0.877367 0.61084 0.561349 0.49223 0.519873 0.557969 0.59328 0.644736 0.661267 0.690211 0.659548 0.588513 0.461743 0.518061 0.547502 0.493428 0.446356 0.413416 0.43932 0.429517 0.418079 0.435293 0.515973 0.521455 0.257126 0.870955 0.57153 0.649699 0.53096 0.510065 1.34089 1.20736 1.04481 1.09444 0.656611 0.653535 0.786102 0.813709 0.836552 1.15072 0.79116 0.773518 0.759273 0.780938 0.833036 0.903038 0.882343 0.874654 0.767566 0.657363 0.581168 0.509336 0.544117 0.579566 0.601595 0.602563 0.724676 0.854999 0.877453 0.865908 0.746537 0.656396 0.457535 0.44698 0.413363 0.440685 0.400321 0.411966 0.428708 0.452035 0.467867 0.541762 0.510034 0.450746 0.426069 0.607272 0.754998 0.482922 0.53906 0.915917 0.448678 0.256775 0.244672 0.91665 0.765762 0.743686 0.877389 0.8651 1.02922 0.996454 0.741589 0.747167 0.770847 0.744046 0.753337 0.790023 0.876209 0.930015 0.915662 0.866776 0.837437 0.79769 0.687372 0.550552 0.580694 0.609844 0.622915 0.592598 1.29704 1.2391 0.45983 0.53185 0.487338 0.419407 0.415193 0.414826 0.460005 0.511087 0.382009 0.416693 0.430775 0.443628 0.427759 0.444127 0.464445 0.443909 0.52437 0.625563 0.554649 0.449848 0.783147 0.468156 0.291933 0.264057 0.689112 0.83878 0.786858 0.769547 0.832686 0.848931 0.170294 0.484689 0.848195 0.729063 0.740358 0.734752 0.739105 0.730008 0.748442 0.746364 0.815103 0.863526 0.936816 0.982037 0.922463 0.964705 1.03532 0.93098 0.584891 0.539622 0.586386 0.614867 0.634713 0.622587 0.446247 1.11091 0.558624 0.624977 0.409465 0.457577 0.395525 0.389055 0.410614 0.456691 0.51295 0.548199 0.358355 0.373118 0.389283 0.399239 0.426117 0.410676 0.388038 0.331905 0.489392 0.39904 0.408013 0.553796 0.594204 0.452148 0.303409 0.729382 0.468087 0.35559 0.339621 0.550506 0.7653 0.811752 0.773458 0.755761 0.689377 0.671011 0.361574 0.751764 0.764167 0.721172 0.722967 0.723305 0.750046 0.895056 0.891806 0.892531 0.985306 1.06881 0.789202 0.637679 0.651837 0.659842 0.657667 0.652216 0.586329 0.8149 0.737249 0.365768 0.188718 0.448593 0.459635 0.397688 0.411056 0.392948 0.366929 0.435103 0.55473 0.589511 0.303465 0.326278 0.342604 0.374 0.378302 0.398839 0.382065 0.344041 0.470687 0.515025 0.463935 0.543176 0.527114 0.371299 0.445476 0.557693 0.694554 0.779221 0.737839 0.69035 0.650476 0.528172 0.677126 0.321918 0.570283 0.710563 0.685258 0.730701 0.72022 0.717774 0.712648 0.717896 0.725165 0.780654 0.726021 0.999476 0.793353 0.862893 1.11459 0.912034 0.919927 0.831188 0.730117 0.712881 0.62076 0.714482 0.70713 0.624296 0.495215 0.606086 0.405993 0.332394 0.319749 0.391768 0.487659 0.51935 0.599126 0.585302 0.572677 0.283216 0.315806 0.328705 0.356144 0.359405 0.36482 0.353218 0.312292 0.386717 0.667347 0.592301 0.392896 0.52686 0.486609 0.525017 0.56027 0.633562 0.461273 0.617845 0.701061 0.731567 0.752353 0.617149 0.556292 0.587249 0.498496 0.392216 0.574396 0.685329 0.703226 0.708279 0.701531 0.708433 0.714165 0.726471 0.828079 0.229116 0.553088 0.947422 0.945136 1.35756 1.30508 1.44591 1.0349 0.873041 0.666949 0.679856 0.678392 0.632975 0.60214 0.564781 0.276067 0.233586 0.295828 0.316816 0.422843 0.585572 0.596069 0.552148 0.253828 0.274348 0.297389 0.304627 0.314787 0.341889 0.337174 0.350049 0.33871 0.347381 0.277727 0.48965 0.257785 0.389968 0.481951 0.511849 0.538129 0.538026 0.559578 0.54866 0.53745 0.781681 0.71762 0.661929 0.659141 0.654277 0.568231 0.529347 0.479419 0.506295 0.539626 0.615837 0.682589 0.692409 0.703591 0.741451 0.752706 0.544834 0.623377 0.704244 0.592781 1.2862 1.35754 1.27916 0.716671 0.754719 0.701626 0.672909 0.637643 0.611799 0.587776 0.56189 0.67128 0.26979 0.232153 0.242022 0.38829 0.483084 0.552199 0.605041 0.573202 0.529932 0.502521 0.225854 0.247493 0.28833 0.297619 0.321009 0.33255 0.287585 0.331704 0.390946 0.29048 0.36323 0.446546 0.442874 0.500776 0.520724 0.548988 0.581112 0.57362 0.563315 0.6724 0.723435 0.599877 0.579256 0.592969 0.598293 0.564178 0.514153 0.520121 0.599228 0.646023 0.657107 0.676063 0.675927 0.690175 0.701646 0.720699 0.760213 0.781973 0.651474 0.396857 0.546173 0.629353 0.692261 1.08608 0.853154 0.604344 0.678758 0.682926 0.666834 0.641455 0.620776 0.6056 0.593573 0.65721 0.536334 0.384146 0.30998 0.282077 0.299476 0.432977 0.544652 0.566142 0.444013 0.453541 0.424251 0.168723 0.196164 0.224604 0.257368 0.273964 0.288581 0.301082 0.305116 0.309306 0.326407 0.312092 0.301996 0.310471 0.265826 0.364007 0.411662 0.46833 0.504371 0.557227 0.596909 0.614259 0.619543 0.657536 0.935035 0.788057 0.575669 0.548245 0.552372 0.564874 0.565089 0.562281 0.549319 0.550135 0.534885 0.627325 0.656441 0.682162 0.711234 0.792885 0.532882 0.506569 0.650314 0.721853 0.870077 0.667171 0.358056 0.503946 0.433331 0.555565 0.605949 0.627355 0.623651 0.614212 0.606489 0.597741 0.620407 0.706391 0.676515 0.580196 0.467993 0.559921 0.236072 0.299228 0.428934 0.473689 0.488506 0.470958 0.33318 0.400457 0.371609 0.130565 0.200441 0.238647 0.282076 0.29887 0.301999 0.308355 0.313393 0.311835 0.309978 0.293742 0.239123 0.382765 0.377431 0.417587 0.501256 0.618955 0.610948 0.481128 0.647441 0.592434 0.565724 0.558604 0.558793 0.561498 0.558387 0.562054 0.540045 0.607916 0.60802 0.637613 0.663783 0.700979 0.755681 0.6543 0.620514 0.579426 0.607055 0.709435 0.74269 0.28731 0.136807 0.241184 0.410507 0.523439 0.571565 0.589725 0.594965 0.587628 0.575274 0.565159 0.586976 0.887217 0.997047 0.819878 0.315592 0.285285 0.742424 0.254931 0.477047 0.446433 0.326941 0.29404 0.253788 0.225765 0.0877078 0.121676 0.169768 0.21548 0.258322 0.270558 0.297824 0.307595 0.303978 0.31259 0.307009 0.302722 0.236437 0.432618 0.379075 0.421666 0.454819 0.554991 0.592383 0.613932 0.50889 0.398991 0.593765 0.572779 0.562396 0.562111 0.562222 0.565067 0.557726 0.55435 0.57357 0.609634 0.605658 0.639942 0.651842 0.67342 0.715395 0.696481 0.609113 0.645175 0.630556 0.622541 0.660396 0.622068 0.405348 0.237667 0.15134 0.316241 0.444124 0.522384 0.562192 0.572907 0.576087 0.553537 0.509192 0.455619 0.459787 0.276719 0.570439 0.67442 0.27837 0.261817 0.459183 0.477234 0.392733 0.257153 0.164773 0.193516 0.235451 0.0557979 0.0815036 0.192568 0.242736 0.289227 0.311374 0.316533 0.316957 0.307661 0.314344 0.309936 0.31041 0.28505 0.3423 0.406151 0.460267 0.503933 0.544674 0.580979 0.598452 0.600615 0.582808 0.610221 0.570993 0.565995 0.563713 0.566616 0.566269 0.566734 0.574791 0.597772 0.612507 0.63001 0.654867 0.652499 0.583694 0.620923 0.641172 0.640611 0.644773 0.667514 0.589429 0.454532 0.356798 0.305295 0.319127 0.401727 0.488607 0.549592 0.580225 0.566525 0.452521 0.436195 0.258079 0.532532 1.07845 1.41287 0.903306 1.27517 0.862118 0.594036 0.371057 0.412478 0.424098 0.247736 0.262747 0.211172 0.212006 0.267075 0.0689163 0.0351192 0.0503907 0.156346 0.238742 0.28541 0.285347 0.314044 0.320892 0.318654 0.327479 0.321867 0.317722 0.338709 0.423946 0.413306 0.457857 0.503102 0.539455 0.564517 0.580063 0.582664 0.56748 0.525214 0.461392 0.486593 0.578424 0.57888 0.56822 0.570587 0.575346 0.582754 0.594909 0.607958 0.614227 0.619508 0.614571 0.660588 0.619554 0.637618 0.614064 0.602296 0.623912 0.624889 0.575628 0.492978 0.426939 0.395574 0.389675 0.41783 0.471452 0.539161 0.54411 0.506123 0.356785 0.324761 0.423534 0.582195 0.565738 0.611442 0.426997 0.291737 0.545985 0.441127 0.399756 0.248455 0.25811 0.293515 0.146929 0.0851401 0.130827 0.131026 0.220596 0.291021 0.320301 0.332418 0.331692 0.335464 0.328951 0.328182 0.323784 0.337698 0.361964 0.389948 0.438004 0.462678 0.492732 0.523333 0.548073 0.563204 0.567356 0.557936 0.532736 0.497074 0.49406 0.515072 0.561962 0.571577 0.571549 0.567638 0.587552 0.596983 0.606166 0.612833 0.617187 0.616553 0.632548 0.633018 0.626264 0.620201 0.610246 0.634984 0.634064 0.61386 0.56926 0.513021 0.468196 0.441695 0.437014 0.438584 0.467892 0.59832 0.616737 0.534393 0.475278 0.431286 0.391063 0.299264 0.280791 0.433117 0.549376 0.596643 0.768385 0.32628 0.31487 0.429295 0.15297 0.292959 0.323403 0.255621 0.224478 0.242392 0.21499 0.299873 0.302518 0.272579 0.310595 0.17293 0.178111 0.21455 0.299518 0.336409 0.350823 0.342527 0.335969 0.337431 0.339916 0.33441 0.334698 0.339545 0.339836 0.366842 0.394486 0.428216 0.464737 0.484553 0.508134 0.531957 0.54757 0.553214 0.550636 0.53655 0.517423 0.507061 0.511523 0.530507 0.560714 0.570688 0.57107 0.57109 0.574267 0.57973 0.609771 0.617569 0.618249 0.601481 0.567586 0.525302 0.489466 0.469867 0.45898 0.515134 0.587319 0.66595 0.674136 0.445423 0.342954 0.330709 0.306755 0.328664 0.43495 0.651763 0.574637 0.602821 0.404762 0.336734 0.13167 0.096465 0.199084 0.187319 0.211506 0.246973 0.366839 0.597121 0.412268 0.463791 0.384864 0.247739 0.357205 0.353253 0.366345 0.356855 0.339067 0.340608 0.341052 0.339686 0.348625 0.355032 0.374428 0.396718 0.422893 0.453513 0.480179 0.501125 0.520644 0.536043 0.542623 0.542648 0.53834 0.529532 0.520538 0.517204 0.526415 0.543665 0.561763 0.569835 0.572723 0.577893 0.583698 0.590236 0.598188 0.605919 0.611847 0.61606 0.617739 0.624203 0.626491 0.627106 0.620405 0.614705 0.609862 0.606993 0.604347 0.592194 0.565835 0.535264 0.510403 0.491525 0.456356 0.461992 0.48851 0.539476 0.632483 0.762349 0.793301 0.211082 0.19511 0.214247 0.275843 0.395422 0.499112 0.545894 0.61179 0.545266 0.519347 0.400373 0.368344 0.183276 0.150927 0.232449 0.14923 0.197886 0.223321 0.475923 0.481834 0.623402 0.639395 0.694193 0.324865 0.380143 0.424082 0.377541 0.368423 0.344796 0.334853 0.336624 0.342324 0.350924 0.361841 0.377103 0.397999 0.421722 0.446828 0.474021 0.496867 0.514055 0.529108 0.527665 0.536888 0.550908 0.563325 0.574096 0.58155 0.587681 0.593029 0.599314 0.605939 0.611402 0.615474 0.617839 0.621035 0.623021 0.62384 0.621322 0.616271 0.612103 0.606608 0.600017 0.588465 0.569438 0.547938 0.480033 0.468862 0.466526 0.472998 0.491266 0.548887 0.66898 0.896039 1.074 0.201373 0.0620397 0.187255 0.316668 0.440769 0.536254 0.598051 0.555906 0.510672 0.468475 0.381511 0.269404 0.195415 0.149662 0.210335 0.156647 0.207377 0.50907 0.59959 0.468132 0.409488 0.442574 0.474973 0.822188 0.980605 0.559497 0.487484 0.351197 0.362311 0.346708 0.327509 0.329432 0.33657 0.362599 0.376436 0.396253 0.418915 0.442413 0.527712 0.536793 0.539108 0.537161 0.533938 0.532612 0.533457 0.543167 0.559937 0.573958 0.584329 0.590625 0.596231 0.601351 0.606583 0.611325 0.614931 0.617398 0.619539 0.620766 0.62134 0.620234 0.617248 0.612816 0.607937 0.601482 0.591005 0.528311 0.512607 0.500256 0.490061 0.483652 0.483758 0.486095 0.501799 0.57969 0.70872 0.872681 1.22458 0.508885 0.280245 0.195652 0.387846 0.496741 0.556066 0.574519 0.507818 0.485439 0.430709 0.317104 0.244766 0.220473 0.154872 0.171393 0.204251 0.23887 0.412754 0.469612 0.403516 0.432873 0.342555 0.381854 0.376758 0.537697 1.03925 0.984986 0.829464 0.577634 0.306055 0.328233 0.334544 0.312116 0.314306 0.329057 0.347391 0.467043 0.490457 0.508578 0.522269 0.532185 0.537768 0.539187 0.537928 0.537859 0.54043 0.535696 0.593343 0.598742 0.603674 0.607954 0.611679 0.614728 0.616849 0.618455 0.619382 0.619673 0.618905 0.616979 0.613556 0.576375 0.560334 0.545578 0.532043 0.521539 0.514147 0.508884 0.509714 0.511031 0.52108 0.555849 0.637802 0.707689 0.801375 1.40667 0.166975 0.285318 0.447773 0.525372 0.548569 0.530825 0.455518 0.379692 0.279596 0.2366 0.208135 0.190939 0.304634 0.388901 0.464354 0.39313 0.226039 0.367976 0.37391 0.387731 0.361825 0.27845 0.292456 0.320545 0.321868 0.372297 0.301122 0.50553 0.537195 0.735667 0.441141 0.34326 0.309329 0.287129 0.287983 0.316606 0.343696 0.360706 0.378074 0.393016 0.414895 0.438597 0.462062 0.484051 0.50328 0.518073 0.529215 0.53695 0.541351 0.543025 0.544018 0.545462 0.551221 0.529356 0.542875 0.558444 0.573874 0.585409 0.608981 0.603059 0.594902 0.584228 0.57211 0.560341 0.550225 0.541706 0.535893 0.534153 0.536479 0.541758 0.547867 0.560841 0.558243 0.50276 0.533941 0.878932 1.27595 0.634014 0.328153 0.466974 0.51902 0.512953 0.514271 0.502771 0.486627 0.415254 0.337984 0.292416 0.242684 0.240124 0.255978 0.398972 0.410322 0.275247 0.150946 0.367904 0.767054 0.222945 0.232554 0.265109 0.27147 0.299404 0.21836 0.231262 0.345692 0.759001 0.510393 0.323373 0.279305 0.280592 0.309941 0.337227 0.358286 0.37692 0.394637 0.413376 0.436154 0.459076 0.480074 0.499499 0.515974 0.528387 0.537656 0.543901 0.547721 0.550097 0.55224 0.557314 0.573803 0.53968 0.560405 0.57491 0.586119 0.595373 0.601348 0.605748 0.609359 0.61249 0.614769 0.6165 0.617819 0.618499 0.618653 0.618025 0.616508 0.613904 0.610166 0.605092 0.598507 0.590563 0.581833 0.573183 0.565709 0.560032 0.555889 0.553906 0.557775 0.564661 0.568908 0.744018 1.17548 0.685248 0.702482 0.576504 0.489625 0.474515 0.48383 0.486418 0.468084 0.387577 0.337688 0.273514 0.25718 0.263234 0.335979 0.385354 0.352133 0.151587 0.241155 0.66167 0.725609 0.227609 0.231583 0.265238 0.240512 0.267492 0.218264 0.106018 0.121165 0.502002 0.647053 0.397526 0.344372 0.306952 0.339347 0.358991 0.379306 0.397454 0.415771 0.435528 0.456982 0.47819 0.497852 0.515421 0.529383 0.540046 0.547736 0.552808 0.556056 0.559053 0.563373 0.57307 0.557085 0.576233 0.588715 0.597465 0.603616 0.607782 0.610892 0.613245 0.615067 0.616509 0.617557 0.618148 0.61817 0.617587 0.616361 0.614328 0.611395 0.607357 0.602143 0.595926 0.589364 0.583635 0.578962 0.574817 0.571901 0.574359 0.564703 0.501456 0.40698 0.666792 1.05727 0.993016 0.42208 0.415378 0.443694 0.468778 0.468584 0.438813 0.374668 0.333287 0.274987 0.254752 0.37756 0.397618 0.385979 0.299211 0.670364 0.722139 0.633092 0.707621 0.671272 0.219288 0.211786 0.234485 0.252648 0.242011 0.214691 0.109021 0.0578022 0.244843 0.299844 0.488225 0.433771 0.383458 0.313064 0.362732 0.375431 0.386153 0.401565 0.418268 0.436782 0.457316 0.477547 0.497167 0.515643 0.531186 0.543419 0.587796 0.575451 0.591203 0.600878 0.606721 0.609926 0.612319 0.614237 0.615691 0.616833 0.617703 0.618149 0.618145 0.617675 0.616679 0.615051 0.612751 0.609717 0.60574 0.600784 0.59566 0.5916 0.570894 0.573251 0.58123 0.590437 0.594269 0.578883 0.539235 0.478401 0.481486 0.610874 0.708738 0.651601 0.655404 0.407232 0.422133 0.420866 0.444736 0.456793 0.442254 0.416581 0.327328 0.278437 0.285317 0.42953 0.430591 0.454023 0.540736 0.625244 0.526842 0.617257 0.673487 0.637951 0.214074 0.224295 0.226541 0.214502 0.237962 0.215363 0.166371 0.1448 0.0827826 0.115415 0.235502 0.656407 0.534809 0.477516 0.302015 0.39679 0.404281 0.403128 0.410063 0.423163 0.439552 0.458159 0.477737 0.552663 0.558878 0.562784 0.565721 0.569169 0.575176 0.585176 0.597045 0.594511 0.605086 0.610734 0.612866 0.614536 0.61553 0.616717 0.617576 0.618181 0.618543 0.61855 0.618197 0.61742 0.61615 0.614381 0.589 0.586786 0.58475 0.584665 0.586824 0.591598 0.600187 0.609524 0.601382 0.565402 0.493159 0.515241 0.501262 0.549067 0.672938 0.417909 0.551962 0.576485 0.489125 0.433622 0.441374 0.433134 0.42428 0.397546 0.36768 0.310249 0.283487 0.465425 0.500568 0.465688 0.443662 0.469359 0.489396 0.465052 0.360508 0.492229 0.61362 0.638736 0.611925 0.609362 0.61011 0.213641 0.209487 0.216179 0.224166 0.206997 0.195889 0.128823 0.106661 0.0827317 0.130317 0.199728 0.6434 0.418389 0.40084 0.420361 0.420441 0.422434 0.430008 0.497259 0.516263 0.53331 0.547325 0.55799 0.565313 0.570025 0.573133 0.576004 0.579713 0.585019 0.593901 0.606156 0.61227 0.612102 0.609162 0.605432 0.601362 0.59802 0.596306 0.595712 0.594877 0.595096 0.59864 0.603114 0.606019 0.611836 0.613202 0.59443 0.542427 0.503794 0.480414 0.523072 0.560007 0.550325 0.515362 0.528201 0.511698 0.470132 0.431337 0.426859 0.413016 0.398921 0.371844 0.35916 0.293915 0.542696 0.443322 0.43647 0.381952 0.357024 0.343295 0.516483 0.593608 0.606196 0.23193 0.205198 0.19231 0.195128 0.186695 0.16709 0.19389 0.113492 0.127603 0.288669 0.343943 0.536226 0.462989 0.469838 0.421955 0.431196 0.432792 0.44338 0.459647 0.478066 0.497879 0.517291 0.535405 0.551079 0.563547 0.572332 0.577913 0.581408 0.583934 0.586068 0.588147 0.59286 0.600357 0.616672 0.61675 0.61674 0.617777 0.618046 0.618259 0.61871 0.619096 0.619348 0.619398 0.619157 0.618543 0.61757 0.616235 0.614552 0.612416 0.609739 0.606682 0.603738 0.60194 0.602144 0.603273 0.603746 0.605736 0.611596 0.616111 0.61596 0.61527 0.604152 0.572877 0.538807 0.500584 0.505114 0.542677 0.527057 0.527014 0.516383 0.499275 0.47716 0.455784 0.439861 0.434767 0.393006 0.37481 0.353729 0.332306 0.560505 0.528987 0.473602 0.414604 0.414717 0.291246 0.210717 0.386046 0.543484 0.202749 0.178119 0.180557 0.139635 0.321875 0.216129 0.294685 0.559631 0.306295 0.549752 0.515713 0.495611 0.451945 0.439434 0.437161 0.448049 0.462331 0.478163 0.497695 0.517768 0.537158 0.55482 0.56916 0.57957 0.586469 0.590534 0.59272 0.593937 0.595017 0.596029 0.628699 0.622576 0.621989 0.621652 0.620933 0.620607 0.62057 0.620671 0.620709 0.620546 0.620102 0.619346 0.618311 0.617028 0.61547 0.613625 0.611463 0.609068 0.607074 0.606733 0.608646 0.611274 0.613343 0.617096 0.622433 0.530332 0.515994 0.53141 0.517236 0.518418 0.504012 0.481525 0.465006 0.449692 0.436768 0.422248 0.404868 0.379941 0.34708 0.337538 0.318417 0.587905 0.576642 0.501415 0.431701 0.39936 0.332396 0.18558 0.190072 0.42792 0.202544 0.134764 0.226584 0.351602 0.424395 0.453197 0.344102 0.350399 0.508483 0.528168 0.478321 0.454354 0.441878 0.444576 0.451507 0.463787 0.478532 0.496553 0.517197 0.53824 0.557964 0.574602 0.586949 0.595107 0.600081 0.597782 0.604091 0.635438 0.632138 0.628903 0.62683 0.624993 0.623601 0.622903 0.62264 0.622557 0.622422 0.622095 0.621518 0.620691 0.619646 0.618435 0.617106 0.615623 0.613917 0.612165 0.622788 0.619181 0.612148 0.593551 0.554781 0.541372 0.493094 0.470786 0.456386 0.439923 0.427899 0.411648 0.391339 0.338958 0.331405 0.579198 0.446368 0.481235 0.250795 0.267774 0.24444 0.469433 0.610516 0.535041 0.143283 0.358133 0.383925 0.532691 0.509708 0.449925 0.449679 0.454307 0.464125 0.478685 0.496295 0.516279 0.53817 0.560084 0.602626 0.6033 0.603282 0.603633 0.602434 0.603212 0.606868 0.641937 0.63985 0.634567 0.630722 0.628074 0.626372 0.625497 0.625086 0.624833 0.624539 0.611138 0.612044 0.615106 0.618682 0.62223 0.627471 0.630913 0.626738 0.616355 0.605383 0.587059 0.563165 0.543986 0.544847 0.530956 0.52564 0.518275 0.510405 0.467845 0.449784 0.435392 0.423714 0.400802 0.381263 0.357227 0.612935 0.616174 0.50605 0.434173 0.416438 0.41479 0.271502 0.346159 0.728159 0.653491 0.215898 0.380674 0.477391 0.461821 0.455458 0.456765 0.466116 0.479082 0.494349 0.579274 0.593815 0.603682 0.609559 0.612641 0.613642 0.612865 0.611748 0.610683 0.608726 0.606359 0.591731 0.654184 0.624079 0.62341 0.622538 0.621515 0.620421 0.619298 0.618138 0.616928 0.615862 0.615694 0.617443 0.621002 0.624894 0.629066 0.634073 0.636198 0.629584 0.614508 0.600071 0.58773 0.571749 0.556786 0.551039 0.538296 0.529603 0.517419 0.50157 0.488204 0.443391 0.437457 0.419177 0.393642 0.369058 0.346355 0.341584 0.677091 0.649835 0.610278 0.457567 0.279952 0.61349 0.750908 0.334941 0.302663 0.431081 0.478119 0.505241 0.498342 0.477262 0.466321 0.459949 0.4666 0.515043 0.538043 0.561469 0.583023 0.599801 0.611746 0.618904 0.622407 0.623479 0.622717 0.620633 0.618444 0.615493 0.610859 0.600605 0.581405 0.6456 0.638675 0.63437 0.631392 0.629498 0.628468 0.627901 0.627487 0.627037 0.626452 0.625688 0.624779 0.623794 0.62281 0.6219 0.621078 0.620334 0.619864 0.620332 0.622501 0.626088 0.629894 0.633608 0.636981 0.637742 0.631287 0.616753 0.599513 0.590503 0.581183 0.564826 0.5569 0.547348 0.53267 0.520253 0.504876 0.489033 0.462972 0.413121 0.38267 0.361501 0.346789 0.710544 0.678242 0.599627 0.60453 0.483018 0.367098 0.321993 0.835872 0.444851 0.408894 0.310548 0.53335 0.552291 0.48621 0.486893 0.489341 0.480431 0.472432 0.479935 0.492364 0.51119 0.535424 0.562957 0.587209 0.605075 0.618592 0.627343 0.631672 0.632862 0.631985 0.629461 0.625833 0.621862 0.6173 0.660506 0.649933 0.642764 0.638013 0.634747 0.632825 0.631733 0.631027 0.630441 0.629821 0.629083 0.628214 0.627255 0.626289 0.625428 0.624741 0.624235 0.623893 0.623867 0.624695 0.626938 0.630301 0.633758 0.636499 0.638237 0.637364 0.632166 0.621435 0.606892 0.595746 0.588843 0.577951 0.565938 0.554304 0.538756 0.525486 0.505568 0.479487 0.462866 0.45355 0.435429 0.371428 0.347725 0.711234 0.633402 0.603057 0.50265 0.438484 0.476978 0.413685 0.666326 0.51612 0.482576 0.496934 0.493762 0.46403 0.481062 0.493755 0.506492 0.526224 0.561469 0.592276 0.610274 0.624032 0.634091 0.639681 0.608399 0.594661 0.573989 0.663667 0.653168 0.646046 0.641251 0.638197 0.636356 0.635168 0.634297 0.633527 0.632718 0.631815 0.63082 0.6298 0.628853 0.628087 0.557709 0.540698 0.52135 0.497818 0.485719 0.479631 0.453744 0.428109 0.399832 0.749016 0.598892 0.470137 0.427635 0.283628 0.571344 0.535382 0.549588 0.487651 0.501403 0.484142 0.485774 0.476644 0.495707 0.508853 0.508235 0.552654 0.596953 0.641452 0.640457 0.637677 0.633558 0.628449 0.623081 0.61589 0.605516 0.589982 0.570268 0.664677 0.655142 0.648737 0.62758 0.627337 0.627317 0.627615 0.628631 0.630745 0.633704 0.636602 0.638683 0.639273 0.63781 0.633925 0.627119 0.616859 0.606498 0.599475 0.58856 0.572147 0.520711 0.509545 0.504425 0.479547 0.443396 0.41182 0.380317 0.352976 0.780634 0.725392 0.695918 0.810558 0.330912 0.663234 0.812216 0.669588 0.618935 0.509032 0.495922 0.494916 0.508972 0.4858 0.506856 0.614962 0.628128 0.639035 0.645849 0.648595 0.647958 0.645031 0.640833 0.635821 0.630121 0.623067 0.613836 0.602007 0.587707 0.571884 0.644455 0.641667 0.639821 0.638543 0.637521 0.636559 0.635561 0.634478 0.633347 0.632246 0.631293 0.630601 0.630234 0.630182 0.630405 0.630959 0.632083 0.633984 0.636437 0.638827 0.640545 0.640967 0.639804 0.637316 0.633021 0.626972 0.618336 0.607173 0.592117 0.573398 0.555468 0.535083 0.498921 0.464944 0.430222 0.394134 0.354637 0.789922 0.751521 0.709599 0.630278 0.73662 0.831805 0.808207 0.693816 0.675938 0.502559 0.508412 0.51302 0.503997 0.518404 0.518756 0.498831 0.858774 0.598118 0.615648 0.630309 0.641967 0.650193 0.654049 0.65423 0.65175 0.647812 0.643195 0.63772 0.630759 0.622051 0.611986 0.600474 0.588346 0.57737 0.664442 0.656613 0.651145 0.647369 0.644841 0.643087 0.641736 0.640568 0.639408 0.638182 0.636901 0.635613 0.634417 0.633436 0.632785 0.632524 0.632643 0.633083 0.633836 0.635012 0.636701 0.638729 0.640756 0.642316 0.643051 0.642757 0.641275 0.638701 0.634174 0.625362 0.612601 0.591738 0.571328 0.553921 0.543872 0.537897 0.52771 0.414899 0.370828 0.784886 0.765053 0.719931 0.683323 0.767854 0.769895 0.83694 0.849423 0.819104 0.798963 0.501669 0.513012 0.527998 0.514672 0.664591 0.631794 0.941451 0.60763 0.629648 0.643203 0.653115 0.658184 0.659474 0.657824 0.654639 0.650501 0.663992 0.657632 0.653045 0.6499 0.647744 0.646098 0.644706 0.643363 0.641961 0.640454 0.638914 0.63745 0.636154 0.635133 0.634511 0.634356 0.634631 0.635241 0.636154 0.6374 0.641499 0.638105 0.629079 0.615779 0.591954 0.575774 0.57077 0.564461 0.550544 0.517834 0.483879 0.451374 0.757092 0.764215 0.851612 0.809866 0.715376 0.711373 0.505554 0.529289 0.546154 0.48783 0.652388 0.846821 0.628824 0.643627 0.65543 0.644932 0.638105 0.630581 0.621704 0.611403 0.601148 0.591888 0.585276 0.66323 0.658193 0.654695 0.652213 0.650345 0.648795 0.647316 0.645777 0.638955 0.640726 0.64251 0.644059 0.645071 0.645238 0.644059 0.602107 0.595532 0.591321 0.568771 0.540233 0.50592 0.47147 0.434489 0.395168 0.773842 0.76729 0.742246 0.732108 0.860996 0.767855 0.797797 0.732768 0.737902 0.549737 0.53021 0.547353 0.466796 0.944673 0.846325 0.838657 0.661572 0.663902 0.663502 0.661048 0.656909 0.65159 0.645705 0.638961 0.630485 0.621656 0.612557 0.604088 0.597753 0.594659 0.644085 0.642258 0.640419 0.638736 0.637331 0.636306 0.63575 0.635679 0.636048 0.636796 0.637864 0.639188 0.640728 0.642404 0.644087 0.645564 0.646568 0.646542 0.644605 0.641274 0.641474 0.628557 0.619105 0.564556 0.533688 0.496206 0.455026 0.41773 0.760753 0.762818 0.755557 0.794191 0.737071 0.787423 0.776742 0.781559 0.778821 0.789872 0.525539 0.550764 0.565195 0.534185 0.547905 0.791801 0.756722 0.836893 0.645618 0.657118 0.664562 0.66792 0.668656 0.666695 0.662892 0.658319 0.653635 0.647214 0.639179 0.631088 0.622667 0.615092 0.60913 0.604938 0.603989 0.662374 0.658884 0.656317 0.654315 0.652642 0.651062 0.649393 0.647573 0.645588 0.643449 0.641319 0.639439 0.637961 0.636926 0.636401 0.636418 0.636913 0.637773 0.638938 0.640361 0.64196 0.643658 0.645316 0.646719 0.647612 0.647379 0.644177 0.640067 0.640294 0.632192 0.627043 0.624008 0.614454 0.587314 0.485306 0.438414 0.753435 0.758055 0.801904 0.750746 0.864277 0.795477 0.768259 0.77052 0.813691 0.550845 0.571739 0.554251 0.503736 0.852267 0.8391 0.821 0.660119 0.667097 0.671763 0.673398 0.67224 0.669341 0.666408 0.662152 0.655169 0.64824 0.640306 0.632513 0.624738 0.619062 0.614902 0.612266 0.612624 0.662106 0.659916 0.657903 0.656168 0.654543 0.652843 0.65085 0.648598 0.646272 0.643906 0.641588 0.639579 0.637999 0.636926 0.636481 0.636625 0.63721 0.638167 0.639431 0.640941 0.642638 0.644431 0.646175 0.647671 0.648816 0.648965 0.643266 0.633514 0.644313 0.643363 0.641125 0.640322 0.616079 0.587244 0.559156 0.52627 0.753544 0.812756 0.824887 0.824634 0.778125 0.786476 0.800652 0.813769 0.579379 0.575641 0.788406 0.82478 0.821382 0.808604 0.670546 0.676266 0.679109 0.662689 0.660954 0.659327 0.657696 0.655972 0.65399 0.651579 0.648858 0.64618 0.643617 0.641174 0.651397 0.659544 0.653318 0.64742 0.617213 0.582279 0.551022 0.513567 0.467571 0.898211 0.750722 0.750278 0.787684 0.749687 0.769354 0.766221 0.780206 0.806706 0.793001 0.812397 0.542071 0.78049 0.837176 0.821511 0.809952 0.798948 0.67792 0.676507 0.675629 0.670955 0.666492 0.65758 0.648508 0.641555 0.634425 0.627606 0.623573 0.62098 0.619387 0.61883 0.639064 0.637443 0.636429 0.636069 0.636302 0.636983 0.638009 0.639354 0.640976 0.642819 0.64479 0.646775 0.648755 0.650858 0.648386 0.638396 0.635612 0.653147 0.612945 0.577666 0.531898 0.494595 0.902975 0.889245 0.742998 0.761291 0.750083 0.812473 0.821027 0.830679 0.762863 0.767593 0.789032 0.592073 0.564926 0.595385 0.79666 0.852761 0.83452 0.820489 0.684147 0.688408 0.686585 0.680433 0.680856 0.684419 0.682921 0.667805 0.658273 0.649778 0.64198 0.635613 0.631115 0.628522 0.626914 0.625061 0.621943 0.663585 0.662225 0.660478 0.658815 0.656872 0.654216 0.651429 0.648409 0.645385 0.642543 0.640064 0.638009 0.636409 0.635457 0.635232 0.635537 0.636286 0.637362 0.638781 0.640576 0.642615 0.644899 0.647378 0.650302 0.649092 0.645408 0.64149 0.641038 0.660642 0.674183 0.661641 0.515726 0.81923 0.816755 0.852272 0.846065 0.855014 0.905236 0.794173 0.793748 0.810602 0.605876 0.600506 0.828789 0.75377 0.801329 0.793627 0.710178 0.702213 0.685003 0.678192 0.693005 0.701582 0.68069 0.666437 0.658479 0.650127 0.642634 0.637358 0.634045 0.633201 0.632243 0.628715 0.621023 0.665127 0.663199 0.661405 0.659705 0.656636 0.653654 0.650392 0.647093 0.643832 0.640849 0.638416 0.636441 0.634948 0.634145 0.634014 0.634279 0.635179 0.63634 0.638086 0.639805 0.642202 0.644932 0.648175 0.647363 0.645988 0.649829 0.645205 0.649362 0.66769 0.680558 0.683654 0.633123 0.612694 0.55819 0.924489 0.898451 0.817023 0.855964 0.866144 0.761115 0.80726 0.792157 0.802084 0.808269 0.787961 0.642196 0.829937 0.567578 0.726712 0.826921 0.806746 0.77661 0.767771 0.767279 0.741013 0.695407 0.685504 0.66595 0.663998 0.663256 0.658793 0.655536 0.652212 0.64853 0.644979 0.64166 0.638667 0.636288 0.634463 0.650445 0.652734 0.651474 0.659961 0.67045 0.709556 0.630923 0.629229 0.596791 0.543973 0.907507 0.895195 0.817727 0.816559 0.818878 0.844347 0.893831 0.81163 0.790386 0.794778 0.801472 0.818365 0.916369 0.890849 0.856242 0.84674 0.841068 0.689674 0.719411 0.689318 0.675623 0.664277 0.658119 0.649396 0.643063 0.639013 0.637299 0.637352 0.636051 0.630381 0.613618 0.633173 0.632539 0.632339 0.63211 0.633967 0.636068 0.63667 0.63891 0.641734 0.644949 0.644597 0.643569 0.782197 0.75177 0.768851 0.739049 0.839906 0.885836 0.900071 0.881294 0.877957 0.884905 0.885061 0.889816 0.894554 0.801095 0.804602 0.796508 0.827157 0.788154 0.685756 0.811902 0.779919 0.788284 0.73669 0.700555 0.683295 0.672176 0.663998 0.65575 0.64791 0.643331 0.640603 0.639864 0.640303 0.638225 0.628391 0.596014 0.664962 0.669772 0.660782 0.657229 0.653552 0.649857 0.646006 0.642214 0.63892 0.636227 0.633832 0.632128 0.631117 0.630365 0.6295 0.630012 0.635426 0.633396 0.635293 0.637949 0.641199 0.640856 0.640269 0.647776 0.651459 0.658328 0.661654 0.670875 0.715799 0.856554 0.892852 0.893832 0.758481 0.757899 0.759447 0.747855 0.7524 0.86933 0.84992 0.748154 0.865921 0.89427 0.895211 0.887865 0.876975 0.870309 0.882984 0.827327 0.79702 0.749786 0.68364 0.700979 0.679423 0.66931 0.662284 0.653363 0.645832 0.642678 0.641554 0.640977 0.640432 0.635852 0.617851 0.55017 0.760281 0.747926 0.752121 0.75408 0.75479 0.754379 0.753235 0.75181 0.750834 0.749291 0.748027 0.747511 0.747849 0.748069 0.747776 0.754084 0.757613 0.75481 0.751225 0.749902 0.750817 0.755261 0.770326 0.780248 0.788127 0.793995 0.794449 0.808131 0.848899 0.828053 0.82799 0.894467 0.862758 0.880639 0.893832 0.893827 0.891527 0.890426 0.89368 0.893832 0.816894 0.751862 0.760862 0.762342 0.867853 0.893902 0.893831 0.888502 0.877776 0.873073 0.789519 0.782054 0.790357 0.807833 0.842237 0.854589 0.835205 0.82965 0.89555 0.862417 0.89379 0.889581 0.890034 0.893187 0.891729 0.893832 0.754835 0.757787 0.888706 0.850751 0.754767 0.887371 0.811602 0.772843 0.751934 0.681029 0.702455 0.68614 0.675617 0.665064 0.658164 0.654493 0.651796 0.651435 0.653682 0.656265 0.656289 0.646849 0.586765 0.795856 0.799033 0.802551 0.805197 0.807224 0.805804 0.805739 0.805463 0.805138 0.805184 0.806047 0.807006 0.8125 0.811851 0.80312 0.792794 0.787977 0.787722 0.789393 0.802786 0.810218 0.81104 0.809461 0.881276 0.893832 
SCALARS Axial_Stress float 1
LOOKUP_TABLE default
-95273900000.0 -103489000000.0 -142380000000.0 -64677600000.0 -58892700000.0 -65931500000.0 -60703100000.0 -100486000000.0 -173835000000.0 -94480700000.0 -173678000000.0 -160209000000.0 -264577000000.0 -127834000000.0 -69099400000.0 -58344400000.0 -75682900000.0 -179554000000.0 -95519800000.0 -84889700000.0 -53725800000.0 -60870600000.0 -189215000000.0 -343216000000.0 -400472000000.0 -179418000000.0 -317380000000.0 -241949000000.0 -269821000000.0 -280129000000.0 -381397000000.0 -391730000000.0 -130464000000.0 -158128000000.0 -213199000000.0 -249212000000.0 -252728000000.0 -230397000000.0 -124299000000.0 -74708600000.0 -327755000000.0 -425067000000.0 -555423000000.0 -259343000000.0 -264814000000.0 -342227000000.0 -164993000000.0 -289988000000.0 -402833000000.0 -307219000000.0 -340567000000.0 -367960000000.0 -467004000000.0 -342482000000.0 -447048000000.0 -311441000000.0 -425239000000.0 -404427000000.0 -358015000000.0 -588032000000.0 -515573000000.0 -627512000000.0 -593677000000.0 -577172000000.0 -449056000000.0 -295125000000.0 -303923000000.0 -412091000000.0 -586722000000.0 -461823000000.0 -582602000000.0 -471340000000.0 -581907000000.0 -565142000000.0 -547864000000.0 -826343000000.0 -731804000000.0 -684177000000.0 -704561000000.0 -652118000000.0 -704528000000.0 -352505000000.0 -365207000000.0 -627653000000.0 -478377000000.0 -483574000000.0 -235441000000.0 -365694000000.0 -358141000000.0 -356819000000.0 -702041000000.0 -709723000000.0 -694926000000.0 -681768000000.0 -673737000000.0 -791836000000.0 -1.18558e+12 -773935000000.0 -760571000000.0 -767052000000.0 -436986000000.0 -463649000000.0 -713784000000.0 -534523000000.0 -533916000000.0 -923684000000.0 -839496000000.0 -814638000000.0 -796653000000.0 -782402000000.0 -896267000000.0 -817569000000.0 -1.01325e+12 -999361000000.0 -837560000000.0 -826188000000.0 -825321000000.0 -814991000000.0 -905338000000.0 -1.22532e+12 -1.00847e+12 -1.08836e+12 -942869000000.0 -1.03578e+12 -913702000000.0 -1.00776e+12 -893328000000.0 -991635000000.0 -1.01144e+12 -974133000000.0 -1.07747e+12 -1.08201e+12 -1.06108e+12 -961109000000.0 -981299000000.0 -893634000000.0 -948114000000.0 -885497000000.0 -943711000000.0 -521816000000.0 -564936000000.0 -999354000000.0 -904135000000.0 -999363000000.0 -1.15636e+12 -1.6604e+12 -1.51074e+12 -1.23226e+12 -1.25929e+12 -1.16781e+12 -1.12629e+12 -1.09872e+12 -1.08847e+12 -1.10796e+12 -1.13076e+12 -1.06712e+12 -1.0188e+12 -1.00271e+12 -608851000000.0 -685097000000.0 -994537000000.0 -1.96103e+12 -2.41911e+12 -1.8828e+12 -1.45808e+12 -1.31251e+12 -1.24929e+12 -1.21375e+12 -1.18548e+12 -1.17334e+12 -1.17702e+12 -1.14639e+12 -1.09215e+12 -1.06451e+12 -1.05933e+12 -1.20965e+12 -1.70242e+12 -1.97444e+12 -1.67682e+12 -1.47019e+12 -1.37933e+12 -1.45357e+12 -1.33383e+12 -1.41508e+12 -1.2958e+12 -1.36915e+12 -1.26309e+12 -1.32734e+12 -1.24144e+12 -1.28942e+12 -1.21816e+12 -1.23896e+12 -1.16521e+12 -1.1916e+12 -1.12775e+12 -1.17181e+12 -1.11572e+12 -1.17146e+12 -698951000000.0 -820525000000.0 -1.48871e+12 -1.4684e+12 -1.78967e+12 -1.77539e+12 -1.72287e+12 -1.63119e+12 -1.65598e+12 -1.51647e+12 -1.57686e+12 -1.5376e+12 -1.48752e+12 -1.43078e+12 -1.37567e+12 -1.31673e+12 -1.25752e+12 -1.2266e+12 -1.22345e+12 -792687000000.0 -988824000000.0 -1.5961e+12 -1.64472e+12 -1.67058e+12 -1.77368e+12 -1.67859e+12 -1.77152e+12 -1.70133e+12 -1.64752e+12 -1.6148e+12 -1.54813e+12 -1.47839e+12 -1.40538e+12 -1.32951e+12 -1.2812e+12 -1.27197e+12 -1.28083e+12 -1.63971e+12 -1.66534e+12 -1.58156e+12 -1.80466e+12 -1.81831e+12 -1.75963e+12 -1.82986e+12 -1.74318e+12 -1.81823e+12 -1.6776e+12 -1.72532e+12 -1.59544e+12 -1.62796e+12 -1.50953e+12 -1.52005e+12 -1.4143e+12 -1.40921e+12 -1.33963e+12 -1.35713e+12 -1.31577e+12 -1.36623e+12 -1.32787e+12 -1.39082e+12 -890821000000.0 -1.13235e+12 -1.75219e+12 -1.69562e+12 -1.72536e+12 -1.65866e+12 -1.26817e+12 -1.9021e+12 -1.93562e+12 -1.86693e+12 -1.93109e+12 -1.96446e+12 -1.86879e+12 -1.75882e+12 -1.64255e+12 -1.50164e+12 -1.40287e+12 -1.39308e+12 -1.43278e+12 -994657000000.0 -1.26225e+12 -1.79356e+12 -1.71309e+12 -1.5706e+12 -1.44596e+12 -992120000000.0 -990559000000.0 -1.98066e+12 -1.99432e+12 -2.0315e+12 -1.90161e+12 -1.92072e+12 -1.77761e+12 -1.63138e+12 -1.46454e+12 -1.41136e+12 -1.45682e+12 -1.50807e+12 -1.8611e+12 -1.81768e+12 -1.68061e+12 -1.03387e+12 -1.00376e+12 -2.04936e+12 -2.04349e+12 -2.23369e+12 -2.28056e+12 -2.05965e+12 -2.0431e+12 -1.95826e+12 -1.7808e+12 -1.73387e+12 -1.56292e+12 -1.45982e+12 -1.4301e+12 -1.43489e+12 -1.45623e+12 -1.54916e+12 -1.54551e+12 -1.64478e+12 -1.10618e+12 -1.38399e+12 -1.9848e+12 -1.90624e+12 -1.94232e+12 -1.82823e+12 -1.83567e+12 -1.6459e+12 -1.07332e+12 -1.00246e+12 -2.75309e+12 -2.1596e+12 -2.07252e+12 -2.01699e+12 -1.48769e+12 -1.40458e+12 -1.50348e+12 -1.67979e+12 -1.22888e+12 -1.50205e+12 -2.04197e+12 -1.97108e+12 -1.83688e+12 -1.01112e+12 -1.09072e+12 -1.12388e+12 -1.15918e+12 -914905000000.0 -1.84989e+12 -2.27868e+12 -2.2086e+12 -2.15664e+12 -2.20838e+12 -2.13677e+12 -2.237e+12 -2.1085e+12 -2.47254e+12 -1.29618e+12 -1.41645e+12 -1.65352e+12 -1.82315e+12 -1.61689e+12 -2.13341e+12 -2.20916e+12 -2.09028e+12 -1.99306e+12 -961055000000.0 -1.15676e+12 -1.26089e+12 -2.0571e+12 -2.24642e+12 -2.2967e+12 -2.438e+12 -2.90891e+12 -1.21036e+12 -1.2007e+12 -1.52617e+12 -1.79622e+12 -1.86213e+12 -2.07682e+12 -1.36842e+12 -2.30219e+12 -2.28619e+12 -2.12339e+12 -2.11512e+12 -1.97674e+12 -1.03024e+12 -1.39793e+12 -1.88936e+12 -2.19923e+12 -2.32749e+12 -2.43382e+12 -2.73418e+12 -3.24643e+12 -1.41694e+12 -2.14205e+12 -1.52567e+12 -1.72828e+12 -2.38967e+12 -2.3769e+12 -1.92735e+12 -798875000000.0 -1.43422e+12 -1.44628e+12 -1.71815e+12 -1.70671e+12 -2.04388e+12 -2.12705e+12 -2.29379e+12 -2.32005e+12 -2.43557e+12 -2.43714e+12 -2.56878e+12 -2.61803e+12 -2.82357e+12 -3.02235e+12 -3.22426e+12 -3.43762e+12 -3.41052e+12 -2.01252e+12 -2.53289e+12 -2.41846e+12 -1.68588e+12 -1.84033e+12 -2.49003e+12 -2.57682e+12 -2.47235e+12 -2.55191e+12 -2.50764e+12 -3.03404e+12 -1.27383e+12 -1.69643e+12 -1.96604e+12 -2.25751e+12 -2.42953e+12 -2.55037e+12 -2.70955e+12 -2.99658e+12 -3.25072e+12 -3.07466e+12 -2.9569e+12 -2.79898e+12 -2.71528e+12 -2.63487e+12 -2.65278e+12 -2.61193e+12 -1.49091e+12 -1.91328e+12 -1.9596e+12 -2.19009e+12 -2.21683e+12 -2.42014e+12 -2.54772e+12 -2.66051e+12 -2.83531e+12 -3.08039e+12 -2.976e+12 -3.27087e+12 -3.27101e+12 -3.08632e+12 -1.84096e+12 -1.94394e+12 -2.94293e+12 -2.82982e+12 -2.9626e+12 -2.62453e+12 -2.63262e+12 -2.45369e+12 -2.41931e+12 -2.20848e+12 -2.19049e+12 -2.39817e+12 -2.40746e+12 -2.55927e+12 -2.55294e+12 -2.66398e+12 -2.65063e+12 -2.7314e+12 -2.75312e+12 -2.80465e+12 -2.90412e+12 -2.8805e+12 -3.33431e+12 -3.36872e+12 -3.43835e+12 -3.20679e+12 -2.00195e+12 -2.03311e+12 -3.06611e+12 -3.10758e+12 -2.21342e+12 -2.08681e+12 -2.39883e+12 -2.30277e+12 -2.40348e+12 -2.56741e+12 -2.6833e+12 -2.7541e+12 -2.77135e+12 -2.77887e+12 -2.4931e+12 -3.99613e+12 -3.66905e+12 -3.71967e+12 -3.49343e+12 -3.13787e+12 -3.21304e+12 -3.71442e+12 -2.15523e+12 -2.40434e+12 -2.46444e+12 -2.62786e+12 -2.58394e+12 -2.73216e+12 -2.70504e+12 -2.78469e+12 -2.8179e+12 -2.73191e+12 -2.68372e+12 -4.13219e+12 -3.68496e+12 -2.14486e+12 -2.1167e+12 -3.29172e+12 -3.24656e+12 -3.424e+12 -3.51873e+12 -3.86596e+12 -4.07513e+12 -4.02625e+12 -2.28001e+12 -2.42408e+12 -2.51663e+12 -2.68306e+12 -2.77504e+12 -2.8525e+12 -2.8173e+12 -2.90872e+12 -2.86459e+12 -2.92028e+12 -2.84324e+12 -2.80548e+12 -2.5038e+12 -2.00359e+12 -2.41751e+12 -4.60299e+12 -4.30556e+12 -3.95048e+12 -3.84208e+12 -3.69198e+12 -2.28454e+12 -2.21193e+12 -3.38833e+12 -3.63877e+12 -3.9987e+12 -3.84194e+12 -3.60858e+12 -2.61007e+12 -2.8351e+12 -2.8961e+12 -2.95168e+12 -2.98118e+12 -2.94527e+12 -2.68594e+12 -2.80251e+12 -4.30482e+12 -4.01774e+12 -3.83226e+12 -2.33037e+12 -3.41219e+12 -3.46129e+12 -3.52066e+12 -3.65071e+12 -3.80766e+12 -3.85931e+12 -3.93922e+12 -3.80016e+12 -3.37213e+12 -2.88204e+12 -3.0198e+12 -2.95293e+12 -3.05173e+12 -2.99755e+12 -3.08325e+12 -3.03356e+12 -3.03499e+12 -2.94357e+12 -2.91101e+12 -3.7834e+12 -4.06223e+12 -3.96284e+12 -3.92735e+12 -3.91473e+12 -2.42017e+12 -3.48263e+12 -3.54109e+12 -3.74388e+12 -3.82033e+12 -3.63548e+12 -3.48203e+12 -3.17075e+12 -3.18916e+12 -3.11854e+12 -3.13605e+12 -3.15655e+12 -3.10122e+12 -3.16117e+12 -3.07693e+12 -3.16725e+12 -3.06395e+12 -3.2598e+12 -3.25817e+12 -3.88166e+12 -3.94175e+12 -2.53858e+12 -2.46155e+12 -3.45855e+12 -3.62575e+12 -3.78071e+12 -3.78038e+12 -3.74443e+12 -3.6572e+12 -3.39467e+12 -3.23476e+12 -3.1983e+12 -3.20923e+12 -3.22306e+12 -3.24052e+12 -3.30703e+12 -3.49941e+12 -3.72527e+12 -3.86491e+12 -3.92035e+12 -3.94968e+12 -2.58001e+12 -3.49178e+12 -3.35659e+12 -3.5061e+12 -3.57959e+12 -3.69833e+12 -3.76677e+12 -3.7531e+12 -3.58726e+12 -3.38795e+12 -3.40571e+12 -3.28757e+12 -3.33956e+12 -3.26652e+12 -3.32807e+12 -3.27576e+12 -3.29688e+12 -3.35125e+12 -3.48087e+12 -3.77198e+12 -3.94292e+12 -3.95423e+12 -3.98314e+12 -2.63414e+12 -3.41376e+12 -3.38964e+12 -3.71117e+12 -3.79853e+12 -3.80643e+12 -3.71886e+12 -3.68947e+12 -3.54734e+12 -3.53936e+12 -3.43394e+12 -3.38918e+12 -3.3888e+12 -3.34404e+12 -3.42306e+12 -3.38946e+12 -3.50637e+12 -3.49161e+12 -3.65179e+12 -3.67155e+12 -3.91241e+12 -3.99911e+12 -2.71939e+12 -2.68384e+12 -3.50029e+12 -2.95517e+12 -3.41254e+12 -3.6105e+12 -3.76105e+12 -3.80155e+12 -3.85961e+12 -3.80031e+12 -3.6713e+12 -3.54548e+12 -3.46584e+12 -3.43864e+12 -3.45528e+12 -3.52076e+12 -3.6466e+12 -3.82044e+12 -3.86547e+12 -3.99926e+12 -4.00508e+12 -4.07353e+12 -4.04177e+12 -2.80402e+12 -9035750000.0 -3.07038e+12 -3.10538e+12 -3.64836e+12 -3.87969e+12 -3.88478e+12 -3.7911e+12 -3.78139e+12 -3.66425e+12 -3.66294e+12 -3.55869e+12 -3.57571e+12 -3.49992e+12 -3.53723e+12 -3.49155e+12 -3.55365e+12 -3.53541e+12 -3.64227e+12 -3.80317e+12 -3.9837e+12 -4.09813e+12 -4.12593e+12 -3.21909e+12 -4.59003e+12 -5.39335e+12 -3.1064e+12 -3.6285e+12 -3.85723e+12 -3.9783e+12 -3.94502e+12 -3.98291e+12 -3.89437e+12 -3.89237e+12 -3.77228e+12 -3.665e+12 -3.59638e+12 -3.58044e+12 -3.63398e+12 -3.63722e+12 -3.76726e+12 -3.78781e+12 -3.95039e+12 -3.96547e+12 -4.12018e+12 -4.11402e+12 -4.21692e+12 -4.17324e+12 -4.2304e+12 -2.88975e+12 -5.23436e+12 -5.40493e+12 -4.97429e+12 -4.34018e+12 -3.94468e+12 -4.058e+12 -3.99622e+12 -3.8823e+12 -3.76351e+12 -3.67028e+12 -3.62157e+12 -3.63706e+12 -3.74089e+12 -3.92588e+12 -4.11756e+12 -4.25379e+12 -4.29407e+12 -2.97428e+12 -9035750000.0 -3.29656e+12 -5.19307e+12 -4.45412e+12 -4.1779e+12 -4.11437e+12 -4.09482e+12 -4.10155e+12 -3.99167e+12 -3.97394e+12 -3.86701e+12 -3.84975e+12 -3.7561e+12 -3.7522e+12 -3.67987e+12 -3.69418e+12 -3.65511e+12 -3.71715e+12 -3.83196e+12 -3.8868e+12 -4.06614e+12 -4.10423e+12 -4.28869e+12 -4.27881e+12 -4.42516e+12 -4.36086e+12 -4.42855e+12 -4.34512e+12 -3.04684e+12 -3.08926e+12 -5.28622e+12 -5.05017e+12 -4.25462e+12 -4.45078e+12 -4.28366e+12 -4.33437e+12 -4.19028e+12 -4.21531e+12 -4.08524e+12 -3.94868e+12 -3.83488e+12 -3.75227e+12 -3.71601e+12 -3.70612e+12 -3.78424e+12 -4.00875e+12 -4.26338e+12 -4.47769e+12 -4.53622e+12 -4.44806e+12 -2.2529e+12 -6.34989e+12 -3.164e+12 -4.4324e+12 -4.50577e+12 -4.35605e+12 -4.20414e+12 -4.0531e+12 -3.92364e+12 -3.82538e+12 -3.75343e+12 -3.75349e+12 -3.91595e+12 -4.20653e+12 -4.47462e+12 -4.71511e+12 -4.6844e+12 -4.86227e+12 -4.56048e+12 -4.43849e+12 -3.07179e+12 -5.83622e+12 -5.278e+12 -4.49983e+12 -4.63049e+12 -4.70521e+12 -4.5278e+12 -4.51184e+12 -4.34303e+12 -4.29317e+12 -4.16551e+12 -4.11635e+12 -4.01705e+12 -3.98856e+12 -3.90512e+12 -3.81907e+12 -3.75583e+12 -3.77844e+12 -3.82983e+12 -3.99831e+12 -4.13577e+12 -4.33166e+12 -4.42134e+12 -4.66388e+12 -5.00338e+12 -4.97588e+12 -2.82914e+12 -4.59094e+12 -5.63644e+12 -5.95717e+12 -5.54701e+12 -4.89818e+12 -4.98714e+12 -4.70932e+12 -4.44478e+12 -4.22519e+12 -4.0759e+12 -3.97072e+12 -3.89366e+12 -3.88393e+12 -3.80924e+12 -3.79222e+12 -3.86241e+12 -4.20034e+12 -4.56736e+12 -4.93812e+12 -5.42299e+12 -5.24191e+12 -5.1493e+12 -4.61324e+12 -5.3836e+12 -5.12635e+12 -5.21963e+12 -6.6256e+12 -6.05479e+12 -5.96179e+12 -4.94061e+12 -5.31806e+12 -4.99021e+12 -4.62634e+12 -4.34821e+12 -4.16955e+12 -4.04911e+12 -3.96172e+12 -3.86473e+12 -3.78327e+12 -3.91813e+12 -4.5798e+12 -4.4969e+12 -4.48935e+12 -4.73515e+12 -5.05295e+12 -5.58988e+12 -5.2769e+12 -5.43533e+12 -6.93472e+12 -4.85716e+12 -4.77245e+12 -7.09438e+12 -7.38026e+12 -6.76834e+12 -6.06371e+12 -5.54756e+12 -5.12309e+12 -5.40396e+12 -5.22745e+12 -4.86884e+12 -4.65954e+12 -4.489e+12 -4.39163e+12 -4.2733e+12 -4.21727e+12 -4.1298e+12 -4.03702e+12 -3.9532e+12 -3.92199e+12 -3.83032e+12 -3.52948e+12 -3.49488e+12 -4.73926e+12 -4.68568e+12 -4.27135e+12 -5.92371e+12 -5.70388e+12 -5.38036e+12 -5.52687e+12 -6.8589e+12 -4.76164e+12 -4.76578e+12 -4.46681e+12 -4.58948e+12 -7.03984e+12 -6.93298e+12 -6.16407e+12 -6.04164e+12 -5.98209e+12 -5.46634e+12 -5.82293e+12 -5.81944e+12 -4.88027e+12 -4.5365e+12 -4.31508e+12 -4.18237e+12 -4.10825e+12 -4.10347e+12 -4.03549e+12 -4.03084e+12 -3.65464e+12 -5.12479e+12 -5.10943e+12 -4.84515e+12 -4.8552e+12 -4.71702e+12 -4.69306e+12 -3.73329e+12 -5.66205e+12 -5.39262e+12 -6.785e+12 -7.07715e+12 -7.20591e+12 -7.25314e+12 -4.67547e+12 -4.39183e+12 -6.9972e+12 -6.83712e+12 -6.83895e+12 -6.64572e+12 -5.89032e+12 -5.10539e+12 -6.6204e+12 -5.18139e+12 -4.72919e+12 -4.43341e+12 -4.26281e+12 -4.1682e+12 -4.10946e+12 -3.862e+12 -4.91397e+12 -5.14575e+12 -5.07683e+12 -4.97444e+12 -4.88435e+12 -4.79823e+12 -4.55637e+12 -5.64522e+12 -5.00291e+12 -7.15038e+12 -7.10048e+12 -7.22926e+12 -4.57457e+12 -4.41657e+12 -4.43168e+12 -7.0178e+12 -6.95747e+12 -6.79833e+12 -6.67088e+12 -6.62867e+12 -6.55388e+12 -5.61064e+12 -6.45109e+12 -5.7352e+12 -4.48784e+12 -4.33006e+12 -5.61948e+12 -5.31224e+12 -4.98877e+12 -4.80381e+12 -4.59147e+12 -4.47769e+12 -4.35586e+12 -4.30655e+12 -4.23418e+12 -4.17087e+12 -4.0815e+12 -4.53411e+12 -5.0089e+12 -5.03121e+12 -4.95611e+12 -4.9874e+12 -5.10222e+12 -5.31803e+12 -5.32291e+12 -5.71085e+12 -6.16288e+12 -6.95454e+12 -6.90712e+12 -7.11193e+12 -7.00839e+12 -7.16996e+12 -7.06241e+12 -4.17233e+12 -4.50279e+12 -4.4852e+12 -7.04105e+12 -6.8862e+12 -6.82274e+12 -6.49488e+12 -6.76226e+12 -6.08356e+12 -6.3694e+12 -6.05496e+12 -6.19021e+12 -5.39108e+12 -4.9694e+12 -5.03351e+12 -4.6466e+12 -4.3922e+12 -4.28358e+12 -4.22733e+12 -4.23485e+12 -4.17495e+12 -4.2646e+12 -4.27709e+12 -4.47937e+12 -4.73322e+12 -4.74396e+12 -4.94475e+12 -4.91189e+12 -4.97091e+12 -4.99204e+12 -5.02381e+12 -5.13489e+12 -5.13932e+12 -5.37748e+12 -5.39217e+12 -5.9591e+12 -6.05742e+12 -6.1807e+12 -6.3883e+12 -6.8163e+12 -6.70201e+12 -6.92021e+12 -6.86547e+12 -3.89021e+12 -4.49399e+12 -7.0067e+12 -6.85875e+12 -6.90799e+12 -6.82993e+12 -6.83695e+12 -6.86662e+12 -6.78481e+12 -7.22464e+12 -6.60681e+12 -6.62084e+12 -6.29748e+12 -6.04877e+12 -5.17862e+12 -4.93084e+12 -4.88699e+12 -4.8395e+12 -4.51048e+12 -4.34348e+12 -4.28201e+12 -4.27957e+12 -4.36265e+12 -4.55406e+12 -4.72604e+12 -4.94862e+12 -5.03743e+12 -5.21042e+12 -5.86773e+12 -4.30393e+12 -6.66524e+12 -5.29272e+12 -6.22114e+12 -6.4649e+12 -6.64345e+12 -6.80859e+12 -6.65895e+12 -6.65865e+12 -3.73434e+12 -3.80931e+12 -4.40379e+12 -4.46312e+12 -6.91315e+12 -6.96051e+12 -6.80893e+12 -6.72512e+12 -6.63517e+12 -6.89388e+12 -6.62832e+12 -6.42754e+12 -6.33129e+12 -6.09716e+12 -6.03393e+12 -5.73856e+12 -5.45208e+12 -4.81662e+12 -4.78671e+12 -4.66738e+12 -4.50031e+12 -4.40877e+12 -4.3616e+12 -4.32521e+12 -4.32747e+12 -4.30296e+12 -4.33096e+12 -4.3345e+12 -4.37046e+12 -4.42914e+12 -4.56611e+12 -4.7265e+12 -5.11884e+12 -5.50957e+12 -4.80211e+12 -4.85457e+12 -5.68595e+12 -4.37343e+12 -5.79165e+12 -6.10271e+12 -6.05205e+12 -6.31981e+12 -6.36518e+12 -6.52704e+12 -6.65893e+12 -6.72094e+12 -6.59477e+12 -6.66453e+12 -6.75789e+12 -3.93241e+12 -4.36739e+12 -6.85319e+12 -6.65288e+12 -6.76e+12 -6.56452e+12 -6.63515e+12 -6.49806e+12 -6.4002e+12 -6.58098e+12 -6.23227e+12 -4.83561e+12 -5.6712e+12 -5.71512e+12 -5.74122e+12 -5.28784e+12 -5.0743e+12 -4.8772e+12 -4.6245e+12 -4.3781e+12 -4.34444e+12 -4.33834e+12 -4.34646e+12 -4.38212e+12 -4.45298e+12 -4.45737e+12 -4.56752e+12 -4.58405e+12 -4.77308e+12 -4.91021e+12 -6.3999e+12 -4.0648e+12 -4.49129e+12 -5.52527e+12 -6.07413e+12 -6.493e+12 -6.54903e+12 -6.305e+12 -6.75587e+12 -6.82211e+12 -6.72973e+12 -6.55116e+12 -6.57346e+12 -6.81085e+12 -4.04711e+12 -4.32346e+12 -6.87617e+12 -6.89119e+12 -6.74811e+12 -6.37131e+12 -6.34657e+12 -6.21559e+12 -6.41536e+12 -6.14611e+12 -5.56999e+12 -5.49958e+12 -5.45187e+12 -4.77074e+12 -4.43128e+12 -4.8193e+12 -4.79189e+12 -4.59883e+12 -4.41166e+12 -4.32978e+12 -4.34395e+12 -4.34469e+12 -4.33928e+12 -4.38204e+12 -4.46076e+12 -4.63209e+12 -5.26385e+12 -4.65033e+12 -4.89483e+12 -5.14388e+12 -4.94694e+12 -5.50467e+12 -5.8971e+12 -6.22048e+12 -6.69057e+12 -6.93271e+12 -6.65981e+12 -6.72062e+12 -6.46509e+12 -6.4395e+12 -6.64143e+12 -6.66408e+12 -6.84874e+12 -4.12524e+12 -4.14993e+12 -4.23524e+12 -4.27903e+12 -6.83055e+12 -6.76763e+12 -6.62497e+12 -6.6095e+12 -6.44294e+12 -5.84796e+12 -5.526e+12 -6.35306e+12 -6.3586e+12 -6.70875e+12 -6.60524e+12 -5.66621e+12 -4.73923e+12 -5.03579e+12 -5.01829e+12 -4.58664e+12 -3.3215e+12 -5.70405e+12 -5.02609e+12 -4.11852e+12 -4.23175e+12 -4.18017e+12 -4.31926e+12 -4.39219e+12 -4.36161e+12 -4.30769e+12 -4.31377e+12 -4.2788e+12 -4.32222e+12 -4.30341e+12 -4.38148e+12 -4.38695e+12 -4.4624e+12 -4.42195e+12 -4.73886e+12 -4.38778e+12 -4.87115e+12 -5.13705e+12 -5.14929e+12 -5.46449e+12 -6.04703e+12 -6.11081e+12 -5.82144e+12 -6.43775e+12 -6.82838e+12 -6.75306e+12 -6.37669e+12 -6.29867e+12 -6.49704e+12 -6.65192e+12 -6.84502e+12 -4.1628e+12 -4.18824e+12 -6.70589e+12 -6.76815e+12 -6.67701e+12 -6.73731e+12 -6.646e+12 -6.50892e+12 -6.41616e+12 -6.69055e+12 -6.34137e+12 -6.00765e+12 -6.24569e+12 -6.61413e+12 -6.28907e+12 -5.00029e+12 -3.94458e+12 -5.68505e+12 -5.38721e+12 -5.05446e+12 -3.67994e+12 -5.03421e+12 -4.36072e+12 -3.64839e+12 -4.44166e+12 -4.31941e+12 -4.24303e+12 -4.24422e+12 -4.28218e+12 -4.3918e+12 -4.07315e+12 -4.41904e+12 -4.59421e+12 -4.7897e+12 -4.99546e+12 -5.11376e+12 -5.78593e+12 -6.0578e+12 -6.21243e+12 -6.69878e+12 -6.25638e+12 -6.53531e+12 -6.80463e+12 -6.03627e+12 -6.11648e+12 -6.39636e+12 -6.73028e+12 -6.86146e+12 -6.81711e+12 -4.13024e+12 -4.07441e+12 -4.13162e+12 -6.64558e+12 -6.60396e+12 -6.59037e+12 -6.51868e+12 -6.46225e+12 -6.34688e+12 -6.46524e+12 -6.58415e+12 -6.28437e+12 -6.05392e+12 -6.18303e+12 -6.35085e+12 -5.9486e+12 -5.58724e+12 -6.57062e+12 -5.55082e+12 -5.14923e+12 -4.74561e+12 -5.20359e+12 -3.7487e+12 -2.97313e+12 -4.86064e+12 -4.49677e+12 -4.39918e+12 -4.34462e+12 -4.22127e+12 -4.19247e+12 -4.20908e+12 -4.24368e+12 -4.30102e+12 -4.31562e+12 -3.18763e+12 -3.32425e+12 -4.26366e+12 -4.59587e+12 -5.33385e+12 -5.56369e+12 -5.64763e+12 -5.88843e+12 -5.25123e+12 -6.95399e+12 -6.52114e+12 -6.3998e+12 -6.35281e+12 -6.54432e+12 -6.56935e+12 -6.71203e+12 -6.72532e+12 -4.04382e+12 -3.9091e+12 -3.99414e+12 -6.59869e+12 -6.49532e+12 -6.53801e+12 -6.42763e+12 -6.51012e+12 -6.43434e+12 -6.19889e+12 -6.33991e+12 -6.22524e+12 -5.81915e+12 -4.86727e+12 -5.81423e+12 -5.94698e+12 -5.93883e+12 -6.1395e+12 -6.0871e+12 -5.23607e+12 -4.8975e+12 -4.43879e+12 -4.52499e+12 -4.30407e+12 -4.60718e+12 -5.47307e+12 -4.61876e+12 -4.23041e+12 -4.21569e+12 -4.09678e+12 -4.13531e+12 -4.07135e+12 -4.15139e+12 -4.12018e+12 -4.15529e+12 -4.03383e+12 -4.13722e+12 -3.92064e+12 -5.27294e+12 -5.34063e+12 -4.65112e+12 -4.65029e+12 -4.82078e+12 -5.00235e+12 -5.21455e+12 -5.39755e+12 -5.64655e+12 -5.59451e+12 -6.55437e+12 -6.74994e+12 -6.67086e+12 -6.79863e+12 -6.34848e+12 -6.37953e+12 -6.48794e+12 -6.61643e+12 -6.47606e+12 -6.60628e+12 -6.50748e+12 -3.75553e+12 -3.8784e+12 -6.45346e+12 -6.53792e+12 -6.43167e+12 -6.4007e+12 -6.30536e+12 -6.32273e+12 -6.26552e+12 -6.39137e+12 -5.73915e+12 -6.0955e+12 -5.99219e+12 -6.09686e+12 -6.04415e+12 -6.62913e+12 -5.79989e+12 -5.84627e+12 -5.89674e+12 -5.94642e+12 -5.7468e+12 -5.5693e+12 -4.99077e+12 -4.65943e+12 -4.51503e+12 -3.63809e+12 -3.49676e+12 -5.03201e+12 -5.0421e+12 -4.33388e+12 -4.07399e+12 -3.99852e+12 -4.01331e+12 -4.10176e+12 -3.71971e+12 -4.29012e+12 -4.88617e+12 -4.90484e+12 -4.72221e+12 -4.67101e+12 -4.76034e+12 -4.88821e+12 -5.07586e+12 -5.30747e+12 -5.38734e+12 -5.80147e+12 -6.25552e+12 -6.66639e+12 -6.69243e+12 -6.57535e+12 -5.97402e+12 -5.9814e+12 -6.27216e+12 -6.06035e+12 -6.30788e+12 -6.26808e+12 -6.39905e+12 -6.37588e+12 -3.60788e+12 -3.52862e+12 -3.72186e+12 -6.34113e+12 -6.35046e+12 -6.23427e+12 -6.32883e+12 -6.23031e+12 -6.27183e+12 -6.15042e+12 -5.60501e+12 -5.76584e+12 -6.03627e+12 -6.04653e+12 -6.39096e+12 -5.56946e+12 -5.51887e+12 -5.40472e+12 -5.26642e+12 -4.94088e+12 -4.87932e+12 -4.7921e+12 -5.40309e+12 -5.44972e+12 -4.65708e+12 -4.55276e+12 -4.51697e+12 -4.1851e+12 -4.10356e+12 -3.9105e+12 -3.95089e+12 -3.92363e+12 -3.96472e+12 -3.93324e+12 -4.13609e+12 -4.02394e+12 -2.7178e+12 -3.53959e+12 -4.43e+12 -4.67943e+12 -4.60078e+12 -4.57103e+12 -4.74445e+12 -4.98753e+12 -5.1413e+12 -5.63251e+12 -5.75625e+12 -5.95085e+12 -6.28379e+12 -6.23487e+12 -4.64387e+12 -5.50761e+12 -6.04469e+12 -6.14376e+12 -6.16366e+12 -6.29187e+12 -6.20075e+12 -6.26376e+12 -3.51915e+12 -3.52067e+12 -3.32352e+12 -6.18963e+12 -6.12034e+12 -6.25042e+12 -6.13612e+12 -6.11812e+12 -6.11293e+12 -6.11365e+12 -6.41555e+12 -6.66012e+12 -4.57341e+12 -5.28204e+12 -5.80502e+12 -5.94989e+12 -5.77238e+12 -5.8072e+12 -5.22528e+12 -5.45339e+12 -5.27555e+12 -5.34884e+12 -5.29221e+12 -5.14566e+12 -4.83343e+12 -4.99664e+12 -5.12786e+12 -4.70806e+12 -4.46321e+12 -4.12282e+12 -3.92541e+12 -3.79033e+12 -3.83929e+12 -3.76216e+12 -3.84476e+12 -3.78893e+12 -3.97615e+12 -5.22151e+12 -4.85732e+12 -4.54782e+12 -4.65065e+12 -4.61438e+12 -4.51585e+12 -3.94695e+12 -3.77455e+12 -4.23778e+12 -4.73012e+12 -5.33403e+12 -5.53167e+12 -5.62659e+12 -5.74741e+12 -5.8439e+12 -5.61875e+12 -5.66195e+12 -5.81982e+12 -5.9997e+12 -6.03491e+12 -6.13671e+12 -6.1287e+12 -6.1845e+12 -3.57122e+12 -3.12831e+12 -5.80248e+12 -6.00518e+12 -5.96237e+12 -5.90307e+12 -6.02307e+12 -5.88677e+12 -6.00245e+12 -5.86208e+12 -5.994e+12 -5.81887e+12 -6.26747e+12 -5.60207e+12 -5.15165e+12 -5.49402e+12 -5.67849e+12 -6.01963e+12 -6.37649e+12 -4.04171e+12 -4.84581e+12 -5.1882e+12 -5.40562e+12 -5.38024e+12 -5.21557e+12 -5.04723e+12 -4.92265e+12 -4.61927e+12 -4.30073e+12 -3.89538e+12 -3.83673e+12 -3.4824e+12 -3.8892e+12 -3.71309e+12 -3.62696e+12 -3.6829e+12 -3.73315e+12 -3.88564e+12 -4.29585e+12 -4.6945e+12 -4.77619e+12 -4.85516e+12 -5.07325e+12 -5.62406e+12 -5.71968e+12 -5.22998e+12 -5.00785e+12 -5.2246e+12 -5.38848e+12 -5.51374e+12 -5.65371e+12 -5.81607e+12 -5.82097e+12 -6.33046e+12 -5.64277e+12 -5.84848e+12 -5.91078e+12 -6.08229e+12 -6.10324e+12 -6.05173e+12 -6.05501e+12 -6.1492e+12 -6.10473e+12 -3.61847e+12 -2.95835e+12 -5.59898e+12 -5.77221e+12 -5.75131e+12 -5.81157e+12 -5.70881e+12 -5.70227e+12 -5.37639e+12 -5.77472e+12 -5.45933e+12 -5.32154e+12 -5.12596e+12 -4.85569e+12 -5.06796e+12 -5.48408e+12 -5.70064e+12 -5.13004e+12 -4.66767e+12 -4.66399e+12 -5.03566e+12 -5.54816e+12 -5.23913e+12 -5.02542e+12 -4.87661e+12 -4.75286e+12 -4.71961e+12 -2.85169e+12 -2.2817e+12 -3.88213e+12 -3.74373e+12 -3.3565e+12 -3.59335e+12 -3.35072e+12 -3.54829e+12 -3.36633e+12 -3.72193e+12 -3.93801e+12 -3.75929e+12 -1.62441e+12 -4.41851e+12 -4.42123e+12 -4.5982e+12 -4.73997e+12 -4.8965e+12 -5.25462e+12 -4.83786e+12 -4.8724e+12 -4.99e+12 -5.11598e+12 -5.23271e+12 -5.33084e+12 -5.43193e+12 -5.48467e+12 -5.65623e+12 -4.8637e+12 -6.02051e+12 -5.91547e+12 -6.01598e+12 -6.05299e+12 -6.0607e+12 -5.92438e+12 -5.99361e+12 -6.03216e+12 -3.64336e+12 -3.64328e+12 -2.71549e+12 -2.81981e+12 -5.4032e+12 -5.36571e+12 -5.56746e+12 -5.56231e+12 -5.56483e+12 -5.70582e+12 -5.62684e+12 -5.68035e+12 -5.52866e+12 -5.48377e+12 -5.09307e+12 -5.15867e+12 -5.29562e+12 -5.64359e+12 -3.34153e+12 -4.78844e+12 -5.06003e+12 -4.9087e+12 -4.83383e+12 -4.42132e+12 -3.71007e+12 -5.56739e+12 -5.49536e+12 -5.12372e+12 -4.88652e+12 -4.73865e+12 -4.61301e+12 -4.49538e+12 -4.27403e+12 -3.6907e+12 -4.0614e+12 -3.62042e+12 -3.39704e+12 -3.40981e+12 -3.32747e+12 -3.36726e+12 -4.69442e+12 -3.72049e+12 -4.12082e+12 -4.30952e+12 -4.50616e+12 -4.68953e+12 -4.89748e+12 -5.52728e+12 -5.40664e+12 -5.09374e+12 -4.8913e+12 -4.87253e+12 -4.91663e+12 -4.98751e+12 -5.07263e+12 -5.17389e+12 -5.29614e+12 -5.54283e+12 -5.51153e+12 -6.52118e+12 -6.3078e+12 -5.90236e+12 -5.81015e+12 -5.92021e+12 -5.97742e+12 -5.98826e+12 -5.81517e+12 -5.83078e+12 -5.9258e+12 -5.82586e+12 -5.94644e+12 -3.49813e+12 -2.63857e+12 -5.21888e+12 -5.17426e+12 -5.35853e+12 -5.37936e+12 -5.53231e+12 -5.46353e+12 -5.49658e+12 -5.33203e+12 -5.41465e+12 -5.3472e+12 -3.92355e+12 -4.41331e+12 -5.14314e+12 -6.21285e+12 -4.40863e+12 -4.44383e+12 -4.04733e+12 -3.47105e+12 -4.61915e+12 -4.61892e+12 -4.5559e+12 -4.47828e+12 -4.39828e+12 -4.30009e+12 -4.1688e+12 -4.23552e+12 -4.53838e+12 -3.63777e+12 -3.33304e+12 -2.74104e+12 -2.9752e+12 -2.87839e+12 -3.02908e+12 -4.38394e+12 -3.51986e+12 -3.96614e+12 -4.13216e+12 -4.27285e+12 -4.44292e+12 -5.05974e+12 -5.12425e+12 -5.04551e+12 -4.90271e+12 -4.80696e+12 -4.77473e+12 -4.77913e+12 -4.81338e+12 -4.86152e+12 -4.91259e+12 -4.99032e+12 -4.94089e+12 -5.13996e+12 -6.05718e+12 -6.0437e+12 -5.59137e+12 -5.92279e+12 -5.82576e+12 -5.96118e+12 -5.68893e+12 -5.73159e+12 -5.66692e+12 -5.90623e+12 -5.67669e+12 -3.29041e+12 -2.57786e+12 -4.86283e+12 -5.04347e+12 -4.99915e+12 -4.98324e+12 -5.15995e+12 -5.17617e+12 -5.22114e+12 -5.40705e+12 -5.3769e+12 -5.30644e+12 -5.25991e+12 -5.85029e+12 -5.31202e+12 -5.01828e+12 -5.52124e+12 -4.89546e+12 -4.74654e+12 -4.66967e+12 -4.61327e+12 -4.02303e+12 -4.08368e+12 -4.42087e+12 -4.35985e+12 -4.29219e+12 -4.21732e+12 -4.13545e+12 -4.12306e+12 -4.19138e+12 -3.99014e+12 -2.52943e+12 -5.01266e+12 -1.75355e+12 -3.38693e+12 -1.98063e+12 -3.1327e+12 -2.22289e+12 -2.75637e+12 -3.13521e+12 -3.88692e+12 -3.69196e+12 -3.91734e+12 -4.06846e+12 -4.60945e+12 -4.72339e+12 -4.79412e+12 -4.8262e+12 -4.78589e+12 -4.71298e+12 -4.65312e+12 -4.6146e+12 -4.59928e+12 -4.62094e+12 -4.6472e+12 -4.66987e+12 -4.60642e+12 -4.12448e+12 -5.7084e+12 -5.746e+12 -5.58315e+12 -5.76149e+12 -6.0886e+12 -5.78628e+12 -5.51804e+12 -5.56215e+12 -5.66982e+12 -5.39787e+12 -3.08253e+12 -2.93419e+12 -2.51716e+12 -4.65791e+12 -4.83264e+12 -4.82847e+12 -4.99837e+12 -5.04419e+12 -5.26877e+12 -5.20754e+12 -5.30737e+12 -5.05877e+12 -5.04319e+12 -5.17414e+12 -5.57348e+12 -4.72752e+12 -5.1269e+12 -4.86707e+12 -4.76476e+12 -4.48042e+12 -4.47402e+12 -4.41977e+12 -4.33335e+12 -4.17574e+12 -4.43573e+12 -4.18176e+12 -4.12443e+12 -4.06161e+12 -4.01586e+12 -3.98197e+12 -3.84705e+12 -3.36491e+12 -3.5888e+12 -2.8164e+12 -3.92377e+12 -4.21602e+12 -3.59257e+12 -3.15446e+12 -3.49274e+12 -3.74384e+12 -3.73534e+12 -3.87627e+12 -4.21288e+12 -4.35122e+12 -4.45629e+12 -4.51632e+12 -4.56668e+12 -4.58598e+12 -4.56531e+12 -4.51916e+12 -4.46902e+12 -4.42348e+12 -4.38623e+12 -4.44422e+12 -4.36455e+12 -5.00605e+12 -4.84018e+12 -4.95825e+12 -5.08174e+12 -5.68581e+12 -6.67706e+12 -6.08582e+12 -5.68248e+12 -5.22065e+12 -5.07552e+12 -5.18475e+12 -5.32518e+12 -5.39706e+12 -5.25502e+12 -5.17902e+12 -2.78683e+12 -2.30019e+12 -2.43101e+12 -4.40063e+12 -4.64881e+12 -4.66645e+12 -4.71111e+12 -4.85692e+12 -4.92027e+12 -5.03046e+12 -5.12859e+12 -5.23617e+12 -5.06521e+12 -4.50988e+12 -5.13803e+12 -4.51631e+12 -4.60587e+12 -4.55612e+12 -4.53759e+12 -4.46345e+12 -4.29252e+12 -4.24945e+12 -4.193e+12 -4.12212e+12 -4.05469e+12 -4.08326e+12 -4.09289e+12 -4.23866e+12 -4.22606e+12 -3.92577e+12 -3.8689e+12 -3.77042e+12 -3.57898e+12 -3.66966e+12 -3.43151e+12 -3.81709e+12 -2.58877e+12 -3.81964e+12 -2.94027e+12 -3.54731e+12 -3.42243e+12 -3.58107e+12 -3.39276e+12 -3.52603e+12 -4.00713e+12 -4.12418e+12 -4.21743e+12 -4.28107e+12 -4.3283e+12 -4.36676e+12 -4.38094e+12 -4.36869e+12 -4.3323e+12 -4.41332e+12 -4.44181e+12 -4.67208e+12 -4.17743e+12 -2.99101e+12 -5.77432e+12 -4.25753e+12 -5.46927e+12 -5.41536e+12 -4.61522e+12 -3.97912e+12 -5.74618e+12 -5.44014e+12 -4.97869e+12 -4.88479e+12 -2.57687e+12 -2.112e+12 -4.06682e+12 -4.12904e+12 -4.42246e+12 -4.46531e+12 -4.53512e+12 -4.78839e+12 -4.89881e+12 -5.21903e+12 -5.52005e+12 -5.1991e+12 -5.36917e+12 -4.46892e+12 -4.72713e+12 -5.50158e+12 -3.00694e+12 -4.04782e+12 -4.20124e+12 -4.26925e+12 -4.26501e+12 -4.19647e+12 -4.09659e+12 -4.04706e+12 -4.00249e+12 -3.97027e+12 -3.97589e+12 -3.98437e+12 -4.00184e+12 -4.06402e+12 -4.05829e+12 -4.02488e+12 -3.9771e+12 -3.5971e+12 -3.57559e+12 -3.45642e+12 -3.51196e+12 -3.33672e+12 -3.18517e+12 -3.45138e+12 -3.18223e+12 -3.50809e+12 -3.38097e+12 -3.44487e+12 -3.66012e+12 -3.71542e+12 -3.82209e+12 -3.92258e+12 -4.00579e+12 -4.06769e+12 -4.11806e+12 -4.1594e+12 -4.19061e+12 -4.20323e+12 -4.28224e+12 -4.2183e+12 -4.11647e+12 -4.16518e+12 -4.17713e+12 -4.18419e+12 -4.35523e+12 -4.30831e+12 -3.96996e+12 -4.3406e+12 -4.95254e+12 -4.35229e+12 -4.87907e+12 -4.8469e+12 -3.77138e+12 -5.34365e+12 -5.43711e+12 -5.15923e+12 -4.72645e+12 -4.59189e+12 -4.47436e+12 -3.9027e+12 -2.26281e+12 -1.82672e+12 -1.86828e+12 -3.21722e+12 -3.66253e+12 -3.73031e+12 -4.19887e+12 -4.28891e+12 -4.63779e+12 -4.77967e+12 -4.97545e+12 -5.05443e+12 -5.26627e+12 -5.38724e+12 -5.52593e+12 -6.15678e+12 -4.86396e+12 -2.01327e+12 -4.17907e+12 -4.1041e+12 -3.81639e+12 -4.02479e+12 -4.06478e+12 -4.07048e+12 -4.03834e+12 -3.9773e+12 -3.9068e+12 -3.86247e+12 -3.83164e+12 -3.83179e+12 -3.84522e+12 -3.86192e+12 -3.88179e+12 -3.91788e+12 -3.91602e+12 -3.88758e+12 -3.84222e+12 -3.78305e+12 -3.70354e+12 -3.42047e+12 -3.50293e+12 -3.59387e+12 -3.66194e+12 -3.74301e+12 -3.81561e+12 -3.87444e+12 -3.92366e+12 -3.96761e+12 -4.19454e+12 -4.1664e+12 -4.11542e+12 -4.01524e+12 -3.72532e+12 -3.8366e+12 -3.91382e+12 -4.05252e+12 -4.11047e+12 -4.09273e+12 -4.18174e+12 -4.51887e+12 -4.31453e+12 -4.48328e+12 -4.41537e+12 -4.51809e+12 -4.83446e+12 -4.86645e+12 -4.27085e+12 -4.11579e+12 -3.13946e+12 -1.23243e+12 -1.92183e+12 -1.47643e+12 -2.59863e+12 -3.25825e+12 -3.84888e+12 -3.96735e+12 -4.40286e+12 -4.54317e+12 -4.71792e+12 -5.26912e+12 -5.75581e+12 -6.35585e+12 -4.25952e+12 -4.79638e+12 -3.91478e+12 -3.68873e+12 -3.94718e+12 -4.04605e+12 -3.8409e+12 -3.88681e+12 -3.88657e+12 -3.8665e+12 -3.82693e+12 -3.77366e+12 -3.7195e+12 -3.6809e+12 -3.65506e+12 -3.67512e+12 -3.70938e+12 -3.74046e+12 -3.77502e+12 -3.80173e+12 -3.795e+12 -3.76093e+12 -3.70631e+12 -3.63666e+12 -3.55693e+12 -3.50263e+12 -3.42288e+12 -3.39467e+12 -3.31116e+12 -3.28405e+12 -3.20793e+12 -3.27983e+12 -3.25186e+12 -3.34235e+12 -3.32084e+12 -3.36125e+12 -3.38692e+12 -3.45128e+12 -3.52046e+12 -3.58087e+12 -3.64157e+12 -3.69512e+12 -3.74142e+12 -4.0028e+12 -4.03028e+12 -4.04388e+12 -4.04497e+12 -4.03676e+12 -4.00507e+12 -3.85888e+12 -2.96206e+12 -3.49402e+12 -3.67954e+12 -3.79463e+12 -3.85267e+12 -3.88132e+12 -4.18249e+12 -4.05446e+12 -4.20735e+12 -4.16777e+12 -4.23833e+12 -4.14043e+12 -4.25554e+12 -4.36775e+12 -4.37088e+12 -3.7824e+12 -3.52764e+12 -1.86658e+12 -2.59922e+12 -1.77632e+12 -3.50015e+12 -2.51302e+12 -2.53042e+12 -3.33857e+12 -3.52909e+12 -4.09778e+12 -4.22528e+12 -4.37322e+12 -4.94552e+12 -5.23749e+12 -5.46461e+12 -5.02142e+12 -4.22438e+12 -4.21583e+12 -3.99885e+12 -3.74083e+12 -3.82954e+12 -3.83418e+12 -3.72833e+12 -3.71909e+12 -3.69747e+12 -3.51776e+12 -3.58659e+12 -3.66067e+12 -3.69933e+12 -3.70724e+12 -3.68247e+12 -3.63259e+12 -3.56728e+12 -3.49547e+12 -3.43169e+12 -3.3633e+12 -3.3134e+12 -3.25287e+12 -3.21628e+12 -3.18192e+12 -3.15379e+12 -3.19373e+12 -3.19354e+12 -3.23404e+12 -3.24705e+12 -3.28449e+12 -3.32372e+12 -3.37666e+12 -3.43003e+12 -3.4789e+12 -3.78344e+12 -3.81983e+12 -3.85126e+12 -3.8773e+12 -3.89841e+12 -3.93108e+12 -3.99221e+12 -4.10677e+12 -4.29512e+12 -2.71516e+12 -3.28071e+12 -3.47826e+12 -3.59062e+12 -3.70917e+12 -3.89992e+12 -3.98847e+12 -3.87884e+12 -3.9616e+12 -3.97183e+12 -3.99142e+12 -4.19327e+12 -3.92857e+12 -3.95587e+12 -3.91388e+12 -3.22985e+12 -2.66551e+12 -3.63782e+12 -3.00947e+12 -2.28623e+12 -1.61439e+12 -3.41329e+12 -3.47421e+12 -3.89346e+12 -4.11488e+12 -2.8021e+12 -3.72241e+12 -3.8502e+12 -3.98813e+12 -4.53917e+12 -4.7143e+12 -4.8039e+12 -4.53306e+12 -4.00223e+12 -3.98469e+12 -3.77409e+12 -3.65529e+12 -3.65717e+12 -3.66566e+12 -3.62383e+12 -3.57557e+12 -3.52781e+12 -3.48754e+12 -3.44976e+12 -3.56333e+12 -3.63633e+12 -3.6426e+12 -3.61488e+12 -3.56255e+12 -3.49583e+12 -3.4241e+12 -3.35605e+12 -3.29014e+12 -3.2341e+12 -3.18047e+12 -3.13978e+12 -3.108e+12 -3.08586e+12 -3.08241e+12 -3.10054e+12 -3.11214e+12 -3.14008e+12 -3.16502e+12 -3.2015e+12 -3.2407e+12 -3.52599e+12 -3.56801e+12 -3.60601e+12 -3.64045e+12 -3.67176e+12 -3.70137e+12 -3.72627e+12 -3.76553e+12 -3.84652e+12 -3.98553e+12 -4.21358e+12 -4.38392e+12 -2.48883e+12 -3.13375e+12 -3.31231e+12 -3.50772e+12 -3.65725e+12 -3.74776e+12 -3.82426e+12 -3.67825e+12 -3.72897e+12 -3.75179e+12 -3.85952e+12 -3.91539e+12 -3.58035e+12 -3.5569e+12 -3.46432e+12 -3.16172e+12 -3.09546e+12 -3.23609e+12 -2.60624e+12 -3.81086e+12 -1.7625e+12 -1.44512e+12 -3.10881e+12 -3.13814e+12 -3.69526e+12 -4.07882e+12 -3.76431e+12 -3.27354e+12 -3.27421e+12 -3.4399e+12 -3.56804e+12 -4.12226e+12 -4.24291e+12 -4.29127e+12 -4.1491e+12 -4.38186e+12 -3.63162e+12 -3.56673e+12 -3.53759e+12 -3.50512e+12 -3.46692e+12 -3.42272e+12 -3.37352e+12 -3.32193e+12 -3.26747e+12 -3.18809e+12 -3.37324e+12 -3.42464e+12 -3.34679e+12 -3.27407e+12 -3.20725e+12 -3.149e+12 -3.09747e+12 -3.05574e+12 -3.02328e+12 -3.00076e+12 -2.99079e+12 -2.99257e+12 -3.00571e+12 -3.02167e+12 -3.28309e+12 -3.32444e+12 -3.36453e+12 -3.40263e+12 -3.43656e+12 -3.46815e+12 -3.49779e+12 -3.52631e+12 -3.55081e+12 -3.5836e+12 -3.65537e+12 -3.78268e+12 -3.94189e+12 -4.14543e+12 -4.29391e+12 -3.02617e+12 -3.35961e+12 -3.46889e+12 -3.53872e+12 -3.59726e+12 -3.64289e+12 -3.49877e+12 -3.54819e+12 -3.58448e+12 -3.59316e+12 -3.2373e+12 -3.20696e+12 -2.90149e+12 -2.9489e+12 -3.07444e+12 -2.56499e+12 -2.73387e+12 -2.85607e+12 -2.02385e+12 -1.28085e+12 -787483000000.0 -1.26864e+12 -2.39602e+12 -2.76149e+12 -2.77431e+12 -3.20919e+12 -3.2955e+12 -3.76682e+12 -3.64308e+12 -3.33171e+12 -3.16974e+12 -3.18955e+12 -3.69377e+12 -3.79692e+12 -3.8394e+12 -3.78228e+12 -4.06888e+12 -3.96505e+12 -3.7839e+12 -3.70262e+12 -3.57682e+12 -3.49829e+12 -3.47141e+12 -3.43622e+12 -3.38672e+12 -3.34952e+12 -3.31052e+12 -3.26694e+12 -3.21688e+12 -3.15795e+12 -3.08578e+12 -2.98482e+12 -2.71553e+12 -3.49492e+12 -3.63955e+12 -3.62723e+12 -3.57279e+12 -3.50222e+12 -3.04673e+12 -3.07492e+12 -3.1086e+12 -3.14252e+12 -3.17606e+12 -3.20991e+12 -3.24374e+12 -3.27472e+12 -3.30299e+12 -3.33036e+12 -3.3572e+12 -3.38179e+12 -3.40932e+12 -3.46412e+12 -3.54023e+12 -3.63683e+12 -3.72784e+12 -3.82288e+12 -3.58434e+12 -2.52368e+12 -3.29964e+12 -3.35559e+12 -3.3782e+12 -3.40479e+12 -3.4301e+12 -3.44318e+12 -3.4643e+12 -3.26075e+12 -3.26656e+12 -3.26481e+12 -3.25478e+12 -2.88457e+12 -2.87514e+12 -2.68324e+12 -2.70641e+12 -2.2459e+12 -1.84528e+12 -1.33549e+12 -1.59679e+12 -899498000000.0 -1.08878e+12 -2.02372e+12 -2.40279e+12 -2.81318e+12 -2.85787e+12 -3.27137e+12 -3.11609e+12 -2.89464e+12 -2.77476e+12 -3.27131e+12 -3.35522e+12 -3.40998e+12 -3.41038e+12 -3.74637e+12 -3.71555e+12 -3.65424e+12 -3.53676e+12 -3.46314e+12 -3.37781e+12 -3.31809e+12 -3.28214e+12 -3.24369e+12 -3.19935e+12 -3.15824e+12 -3.11442e+12 -3.06481e+12 -3.00555e+12 -2.93092e+12 -2.82978e+12 -2.66738e+12 -2.30775e+12 -3.68091e+12 -3.6735e+12 -3.56728e+12 -3.45775e+12 -3.35615e+12 -3.26477e+12 -3.18472e+12 -3.11511e+12 -3.05556e+12 -3.00481e+12 -2.9632e+12 -2.93048e+12 -2.90693e+12 -2.89347e+12 -2.88962e+12 -2.89459e+12 -2.90735e+12 -2.92501e+12 -2.94901e+12 -2.97644e+12 -3.00568e+12 -3.03356e+12 -3.06103e+12 -3.09003e+12 -3.11842e+12 -3.14371e+12 -3.16858e+12 -3.194e+12 -3.21815e+12 -3.24206e+12 -3.25279e+12 -2.59964e+12 -2.38412e+12 -3.40059e+12 -3.31636e+12 -3.28091e+12 -3.26614e+12 -3.2454e+12 -3.23355e+12 -3.24258e+12 -2.97256e+12 -2.9487e+12 -2.91842e+12 -2.89875e+12 -2.52195e+12 -2.64219e+12 -2.41797e+12 -2.32323e+12 -1.51789e+12 -1.40098e+12 -2.36895e+12 -1.27199e+12 -701605000000.0 -1.6594e+12 -2.02339e+12 -2.02548e+12 -2.42009e+12 -2.45304e+12 -2.87251e+12 -2.8237e+12 -2.91235e+12 -2.20756e+12 -2.79911e+12 -2.87954e+12 -2.9607e+12 -3.41912e+12 -3.42795e+12 -3.42324e+12 -3.37936e+12 -3.30433e+12 -3.24281e+12 -3.17964e+12 -3.13049e+12 -3.0925e+12 -3.05313e+12 -3.01041e+12 -2.96677e+12 -2.91899e+12 -2.86333e+12 -2.79472e+12 -2.70615e+12 -2.58382e+12 -2.41688e+12 -3.68969e+12 -3.59207e+12 -3.42766e+12 -3.28957e+12 -3.1769e+12 -3.08619e+12 -3.0124e+12 -2.95203e+12 -2.9022e+12 -2.86162e+12 -2.82954e+12 -2.80577e+12 -2.79049e+12 -2.78344e+12 -2.78399e+12 -2.79137e+12 -2.80466e+12 -2.8227e+12 -2.8453e+12 -2.87012e+12 -2.89467e+12 -2.91752e+12 -2.941e+12 -2.96624e+12 -2.98979e+12 -3.27976e+12 -3.32101e+12 -3.37291e+12 -3.42966e+12 -3.40972e+12 -1.92866e+12 -3.59305e+12 -3.30951e+12 -3.1909e+12 -3.11168e+12 -3.05237e+12 -3.01988e+12 -2.99907e+12 -2.65063e+12 -2.58762e+12 -2.53279e+12 -2.50955e+12 -2.37521e+12 -2.42431e+12 -2.12651e+12 -2.00811e+12 -3.1484e+12 -2.88955e+12 -2.14044e+12 -2.33091e+12 -949702000000.0 -499550000000.0 -1.29971e+12 -1.26852e+12 -1.63991e+12 -1.6245e+12 -2.03582e+12 -2.47433e+12 -2.48265e+12 -2.71631e+12 -2.67007e+12 -2.20058e+12 -2.31917e+12 -2.46856e+12 -3.01413e+12 -3.0871e+12 -3.13236e+12 -3.16265e+12 -3.16514e+12 -3.13507e+12 -3.08392e+12 -3.03431e+12 -2.98486e+12 -2.94252e+12 -2.90475e+12 -2.8656e+12 -2.82342e+12 -2.08879e+12 -3.54892e+12 -3.40237e+12 -3.21919e+12 -3.07882e+12 -2.97512e+12 -2.89669e+12 -2.83627e+12 -2.78851e+12 -2.75031e+12 -2.72013e+12 -2.69733e+12 -2.68174e+12 -2.6731e+12 -2.67101e+12 -2.67485e+12 -2.6839e+12 -2.69751e+12 -2.71506e+12 -2.73577e+12 -2.7574e+12 -2.77769e+12 -3.01129e+12 -3.03434e+12 -3.05702e+12 -3.07661e+12 -3.10204e+12 -3.13917e+12 -3.16562e+12 -3.19668e+12 -3.18425e+12 -3.07651e+12 -2.83194e+12 -4.92164e+12 -3.99158e+12 -3.54296e+12 -3.15049e+12 -3.02132e+12 -2.91713e+12 -2.83772e+12 -2.77585e+12 -2.71324e+12 -2.17008e+12 -2.07367e+12 -1.99988e+12 -2.23517e+12 -2.19901e+12 -2.01881e+12 -2.10949e+12 -2.77377e+12 -2.4188e+12 -1.7341e+12 -1.74503e+12 -669214000000.0 -300756000000.0 -593768000000.0 -942225000000.0 -904802000000.0 -1.22476e+12 -1.61637e+12 -1.6082e+12 -2.06204e+12 -2.08858e+12 -2.48027e+12 -2.47539e+12 -1.19268e+12 -1.57123e+12 -1.93618e+12 -2.54975e+12 -2.75554e+12 -2.84073e+12 -2.89703e+12 -2.92858e+12 -2.93306e+12 -2.91181e+12 -2.87476e+12 -2.83469e+12 -2.77839e+12 -2.72788e+12 -2.66787e+12 -2.59406e+12 -2.50064e+12 -2.38263e+12 -2.24139e+12 -1.94562e+12 -3.28525e+12 -3.12994e+12 -2.96085e+12 -2.84538e+12 -2.76415e+12 -2.70579e+12 -2.66215e+12 -2.6283e+12 -2.60171e+12 -2.5814e+12 -2.56698e+12 -2.55823e+12 -2.55491e+12 -2.5566e+12 -2.56273e+12 -2.79681e+12 -2.81756e+12 -2.83921e+12 -2.85821e+12 -2.87718e+12 -2.89893e+12 -2.91901e+12 -2.93687e+12 -2.96085e+12 -2.98788e+12 -3.00476e+12 -3.01577e+12 -2.98482e+12 -2.92735e+12 -2.75722e+12 -3.50985e+12 -3.9523e+12 -3.59771e+12 -3.32974e+12 -2.79895e+12 -2.68814e+12 -2.58976e+12 -2.49228e+12 -2.38757e+12 -2.27889e+12 -1.66731e+12 -1.42047e+12 -2.28969e+12 -2.14446e+12 -2.02604e+12 -1.99071e+12 -1.81487e+12 -2.06708e+12 -2.38654e+12 -1.72637e+12 -1.70376e+12 -1.16134e+12 -1.17105e+12 -734725000000.0 -402653000000.0 -138890000000.0 -100664000000.0 -251962000000.0 -549014000000.0 -855726000000.0 -1.18216e+12 -1.1686e+12 -1.64393e+12 -1.70831e+12 -2.12522e+12 -2.18145e+12 -2.78087e+12 -381840000000.0 -2.10666e+12 -2.49887e+12 -2.57728e+12 -2.64291e+12 -2.68881e+12 -2.71447e+12 -2.79451e+12 -2.75733e+12 -2.72118e+12 -2.68284e+12 -2.64139e+12 -2.59645e+12 -2.54534e+12 -2.48529e+12 -2.41396e+12 -2.32884e+12 -2.22842e+12 -2.10661e+12 -1.84003e+12 -2.93881e+12 -2.57274e+12 -2.58622e+12 -2.60272e+12 -2.62125e+12 -2.63969e+12 -2.65643e+12 -2.67276e+12 -2.69109e+12 -2.70932e+12 -2.72492e+12 -2.74179e+12 -2.7611e+12 -2.77748e+12 -2.79297e+12 -2.81417e+12 -2.83014e+12 -2.84012e+12 -2.83822e+12 -2.8305e+12 -2.83624e+12 -3.13111e+12 -3.23222e+12 -3.37066e+12 -3.22888e+12 -3.0613e+12 -2.92247e+12 -2.426e+12 -2.30697e+12 -2.17223e+12 -2.01711e+12 -1.84648e+12 -1.0206e+12 -2.38134e+12 -1.7338e+12 -1.73928e+12 -1.55671e+12 -1.65884e+12 -1.04855e+12 -1.16014e+12 -498713000000.0 -219949000000.0 -206369000000.0 -502564000000.0 -432984000000.0 -757198000000.0 -656458000000.0 -1.1243e+12 -1.20673e+12 -1.79843e+12 -1.88259e+12 -2.09171e+12 -2.51918e+12 -1.42942e+12 -1.83374e+12 -2.26174e+12 -2.34274e+12 -2.40307e+12 -2.45436e+12 -2.71833e+12 -2.70285e+12 -2.67527e+12 -2.64334e+12 -2.61035e+12 -2.57745e+12 -2.54328e+12 -2.50654e+12 -2.46717e+12 -2.42422e+12 -2.37603e+12 -2.32191e+12 -2.26102e+12 -2.19171e+12 -2.1105e+12 -2.0015e+12 -1.72719e+12 -2.79978e+12 -2.68514e+12 -2.60815e+12 -2.55719e+12 -2.52126e+12 -2.49447e+12 -2.47367e+12 -2.45763e+12 -2.44598e+12 -2.4386e+12 -2.43538e+12 -2.43614e+12 -2.44054e+12 -2.4481e+12 -2.45845e+12 -2.47135e+12 -2.48645e+12 -2.50271e+12 -2.51824e+12 -2.53208e+12 -2.54608e+12 -2.56179e+12 -2.57652e+12 -2.58943e+12 -2.60437e+12 -2.62018e+12 -2.63241e+12 -2.645e+12 -2.65991e+12 -2.67004e+12 -2.67486e+12 -2.68372e+12 -2.70787e+12 -2.85077e+12 -2.92903e+12 -2.94885e+12 -2.9851e+12 -2.90104e+12 -2.784e+12 -2.6667e+12 -2.54622e+12 -1.99632e+12 -1.81678e+12 -1.59763e+12 -1.3449e+12 -2.32555e+12 -2.03084e+12 -1.81762e+12 -1.39624e+12 -1.43991e+12 -1.15776e+12 -970441000000.0 -507563000000.0 -615652000000.0 -160456000000.0 -140874000000.0 -179918000000.0 -699191000000.0 -437342000000.0 -1.40443e+12 -1.60472e+12 -966110000000.0 -2.52364e+12 -900222000000.0 -1.54555e+12 -1.93093e+12 -2.1073e+12 -2.17231e+12 -2.49086e+12 -2.51199e+12 -2.5162e+12 -2.50561e+12 -2.48518e+12 -2.46043e+12 -2.43338e+12 -2.40419e+12 -2.37243e+12 -2.33858e+12 -2.30289e+12 -2.26478e+12 -2.22426e+12 -2.18173e+12 -2.13664e+12 -2.08813e+12 -2.51226e+12 -2.46766e+12 -2.41604e+12 -2.38465e+12 -2.36329e+12 -2.34766e+12 -2.33544e+12 -2.32576e+12 -2.31856e+12 -2.31401e+12 -2.31223e+12 -2.31326e+12 -2.31699e+12 -2.32314e+12 -2.33141e+12 -2.34158e+12 -2.35355e+12 -2.36705e+12 -2.38105e+12 -2.3939e+12 -2.40529e+12 -2.41716e+12 -2.43005e+12 -2.44138e+12 -2.45143e+12 -2.51503e+12 -2.54236e+12 -2.61351e+12 -2.67295e+12 -2.69118e+12 -2.68416e+12 -2.67262e+12 -2.6037e+12 -2.50757e+12 -2.39621e+12 -2.27309e+12 -2.14476e+12 -1.66553e+12 -1.43194e+12 -1.11238e+12 -672998000000.0 -2.17549e+12 -1.81533e+12 -1.54439e+12 -1.41456e+12 -1.04212e+12 -1.11724e+12 -417878000000.0 -209264000000.0 -136292000000.0 -127933000000.0 -143777000000.0 -456034000000.0 -858244000000.0 -1.20897e+12 -1.68333e+12 -1.41654e+12 -2.19101e+12 -1.18152e+12 -1.58051e+12 -1.81845e+12 -1.94261e+12 -2.22662e+12 -2.26816e+12 -2.29792e+12 -2.31719e+12 -2.32371e+12 -2.31838e+12 -2.30505e+12 -2.28687e+12 -2.26454e+12 -2.23827e+12 -2.20964e+12 -2.18023e+12 -2.15042e+12 -2.02984e+12 -1.93465e+12 -1.54095e+12 -2.15424e+12 -2.16819e+12 -2.17973e+12 -2.18478e+12 -2.18654e+12 -2.18652e+12 -2.1856e+12 -2.18466e+12 -2.18443e+12 -2.18538e+12 -2.18782e+12 -2.1919e+12 -2.19759e+12 -2.20472e+12 -2.21311e+12 -2.22269e+12 -2.23345e+12 -2.24516e+12 -2.4634e+12 -2.47497e+12 -2.48317e+12 -2.49188e+12 -2.50116e+12 -2.50703e+12 -2.42909e+12 -2.39367e+12 -2.32594e+12 -2.23405e+12 -2.12104e+12 -1.9947e+12 -1.84898e+12 -1.0355e+12 -499823000000.0 -1.16404e+12 -993576000000.0 -988369000000.0 -759182000000.0 -684613000000.0 -112799000000.0 -257699000000.0 -788171000000.0 -1.33088e+12 -1.60987e+12 -1.02272e+12 -1.78677e+12 -1.60836e+12 -1.68959e+12 -2.00549e+12 -2.04973e+12 -2.08267e+12 -2.10747e+12 -2.12945e+12 -2.14169e+12 -2.14318e+12 -2.13664e+12 -2.12335e+12 -2.12062e+12 -2.09224e+12 -2.06641e+12 -2.04419e+12 -2.0292e+12 -2.02523e+12 -2.0566e+12 -1.41884e+12 -1.82088e+12 -1.92865e+12 -1.98095e+12 -2.00942e+12 -2.02638e+12 -2.03711e+12 -2.04439e+12 -2.04995e+12 -2.05486e+12 -2.25685e+12 -2.26722e+12 -2.27637e+12 -2.28596e+12 -2.29584e+12 -2.30389e+12 -2.3108e+12 -2.31854e+12 -2.32536e+12 -2.33014e+12 -2.33507e+12 -2.3387e+12 -2.34722e+12 -2.36411e+12 -2.40461e+12 -2.44218e+12 -2.45848e+12 -2.452e+12 -2.13386e+12 -2.06016e+12 -1.9662e+12 -1.85383e+12 -1.71937e+12 -1.5503e+12 -1.33175e+12 -1.95049e+12 -1.43192e+12 -640784000000.0 -492117000000.0 -578527000000.0 -413318000000.0 -106217000000.0 -263319000000.0 -299812000000.0 -1.13028e+12 -952820000000.0 -1.06771e+12 -1.76053e+12 -1.81334e+12 -1.8432e+12 -1.87018e+12 -1.89502e+12 -1.91668e+12 -1.9515e+12 -2.10333e+12 -2.07952e+12 -2.05524e+12 -2.03205e+12 -2.01075e+12 -1.99263e+12 -1.97982e+12 -1.97435e+12 -1.98038e+12 -2.00643e+12 -2.0693e+12 -2.14945e+12 -1.39615e+12 -2.05981e+12 -2.06521e+12 -2.07129e+12 -2.07808e+12 -2.08552e+12 -2.09354e+12 -2.10217e+12 -2.11146e+12 -2.12121e+12 -2.13056e+12 -2.13854e+12 -2.14542e+12 -2.15238e+12 -2.15894e+12 -2.16364e+12 -2.16698e+12 -2.16988e+12 -2.17177e+12 -2.17328e+12 -2.1746e+12 -2.17808e+12 -2.18827e+12 -2.20873e+12 -2.23017e+12 -2.2417e+12 -2.2372e+12 -2.2179e+12 -2.18366e+12 -1.80549e+12 -1.72108e+12 -1.60165e+12 -1.45499e+12 -1.27248e+12 -1.04383e+12 -716156000000.0 -1.78026e+12 -1.40944e+12 -837319000000.0 -403979000000.0 -622511000000.0 -154275000000.0 -684929000000.0 -591450000000.0 -1.08112e+12 -1.25794e+12 -2.46186e+12 -1.80121e+12 -1.683e+12 -1.66197e+12 -1.66793e+12 -1.66322e+12 -1.67775e+12 -1.97422e+12 -1.98337e+12 -1.98168e+12 -1.96776e+12 -1.94779e+12 -1.92742e+12 -1.90909e+12 -1.89406e+12 -1.88348e+12 -1.87913e+12 -1.8837e+12 -1.9003e+12 -1.93532e+12 -1.99975e+12 -2.09794e+12 -2.21189e+12 -1.65691e+12 -1.75905e+12 -1.8186e+12 -1.856e+12 -1.88082e+12 -1.89811e+12 -1.91088e+12 -1.92093e+12 -1.92939e+12 -1.93701e+12 -1.94427e+12 -1.95141e+12 -1.95857e+12 -1.96574e+12 -1.97295e+12 -1.98028e+12 -1.98784e+12 -1.99544e+12 -2.00239e+12 -2.00796e+12 -2.01238e+12 -2.0163e+12 -2.01923e+12 -2.02032e+12 -2.01977e+12 -2.01792e+12 -2.0151e+12 -2.0132e+12 -2.01239e+12 -2.01498e+12 -2.02368e+12 -2.03334e+12 -2.03842e+12 -2.03486e+12 -2.0196e+12 -1.99173e+12 -1.94819e+12 -1.88392e+12 -1.36532e+12 -1.21143e+12 -1.02123e+12 -767968000000.0 -1.50824e+12 -1.47688e+12 -914277000000.0 -590836000000.0 -366906000000.0 -475098000000.0 -190534000000.0 -131619000000.0 -279753000000.0 -476795000000.0 -935811000000.0 -1.67384e+12 -1.54525e+12 -1.72874e+12 -1.56607e+12 -1.52266e+12 -1.50423e+12 -1.49925e+12 -1.69906e+12 -1.7222e+12 -1.79188e+12 -1.82872e+12 -1.84487e+12 -1.83486e+12 -1.81502e+12 -1.79639e+12 -1.78119e+12 -1.77051e+12 -1.76533e+12 -1.76671e+12 -1.77666e+12 -1.7981e+12 -1.83483e+12 -1.893e+12 -1.3266e+12 -1.52955e+12 -1.6185e+12 -1.67743e+12 -1.71788e+12 -1.74659e+12 -1.76776e+12 -1.78399e+12 -1.79689e+12 -1.80754e+12 -1.81668e+12 -1.82481e+12 -1.83222e+12 -1.83908e+12 -1.84547e+12 -1.85147e+12 -1.85719e+12 -1.86275e+12 -1.86801e+12 -1.87241e+12 -1.87542e+12 -1.87708e+12 -1.87761e+12 -1.87668e+12 -1.87388e+12 -1.86934e+12 -1.86316e+12 -1.85623e+12 -1.8504e+12 -1.84711e+12 -1.84628e+12 -1.84696e+12 -1.84643e+12 -1.84107e+12 -1.82946e+12 -1.80876e+12 -1.77717e+12 -1.73008e+12 -1.67587e+12 -1.60663e+12 -1.49606e+12 -989659000000.0 -768003000000.0 -1.19874e+12 -952827000000.0 -655900000000.0 -253143000000.0 -254241000000.0 -92473600000.0 -481212000000.0 -582124000000.0 -1.05401e+12 -1.34353e+12 -1.37052e+12 -1.3575e+12 -1.44522e+12 -1.45901e+12 -1.5018e+12 -1.51286e+12 -1.67318e+12 -1.72778e+12 -1.71419e+12 -1.684e+12 -1.66229e+12 -1.64787e+12 -1.64002e+12 -1.97694e+12 -2.09086e+12 -2.18403e+12 -1.24613e+12 -1.41871e+12 -1.49547e+12 -1.55088e+12 -1.59138e+12 -1.62163e+12 -1.64477e+12 -1.66283e+12 -1.67719e+12 -1.68885e+12 -1.6985e+12 -1.70664e+12 -1.71359e+12 -1.71958e+12 -1.72471e+12 -1.64256e+12 -1.62854e+12 -1.60758e+12 -1.57772e+12 -1.53338e+12 -1.47247e+12 -1.38551e+12 -1.27754e+12 -1.14913e+12 -1.24439e+12 -631163000000.0 -223896000000.0 -127591000000.0 -262462000000.0 -132031000000.0 -317308000000.0 -1.22727e+12 -994593000000.0 -1.21298e+12 -1.33677e+12 -1.3447e+12 -1.14791e+12 -1.23499e+12 -1.31646e+12 -1.22076e+12 -1.71119e+12 -1.6341e+12 -1.63862e+12 -1.64409e+12 -1.65733e+12 -1.68041e+12 -1.71605e+12 -1.76751e+12 -1.83766e+12 -1.92814e+12 -2.0353e+12 -2.10563e+12 -1.16556e+12 -1.31742e+12 -1.38407e+12 -1.72911e+12 -1.73291e+12 -1.73623e+12 -1.73893e+12 -1.7406e+12 -1.74079e+12 -1.73938e+12 -1.73632e+12 -1.7314e+12 -1.72455e+12 -1.7159e+12 -1.70569e+12 -1.69487e+12 -1.68471e+12 -1.67649e+12 -1.66905e+12 -1.66098e+12 -1.65291e+12 -1.42131e+12 -1.38863e+12 -1.32955e+12 -1.26229e+12 -1.18431e+12 -1.08567e+12 -960413000000.0 -780646000000.0 -1.01034e+12 -1.01558e+12 -899522000000.0 -94378800000.0 -101406000000.0 -95917900000.0 -280601000000.0 -526818000000.0 -902448000000.0 -1.28395e+12 -1.26427e+12 -1.23013e+12 -1.29064e+12 -909154000000.0 -1.0224e+12 -1.55951e+12 -1.52504e+12 -1.50809e+12 -1.50197e+12 -1.50365e+12 -1.51228e+12 -1.52795e+12 -1.55169e+12 -1.5854e+12 -1.63105e+12 -1.69021e+12 -1.76356e+12 -1.84912e+12 -1.94407e+12 -1.99155e+12 -1.43503e+12 -1.4741e+12 -1.50435e+12 -1.52797e+12 -1.54654e+12 -1.5612e+12 -1.57282e+12 -1.58208e+12 -1.58947e+12 -1.59533e+12 -1.59991e+12 -1.60336e+12 -1.60582e+12 -1.60741e+12 -1.60821e+12 -1.60813e+12 -1.60686e+12 -1.604e+12 -1.59929e+12 -1.59253e+12 -1.5836e+12 -1.57257e+12 -1.55967e+12 -1.54532e+12 -1.53009e+12 -1.51409e+12 -1.49872e+12 -1.48337e+12 -1.4669e+12 -1.4551e+12 -1.44828e+12 -1.43466e+12 -1.1393e+12 -1.08386e+12 -1.01364e+12 -924519000000.0 -794664000000.0 -809946000000.0 -856562000000.0 -835191000000.0 -569671000000.0 -221406000000.0 -91190800000.0 -374755000000.0 -441868000000.0 -705442000000.0 -1.01977e+12 -1.17417e+12 -1.24117e+12 -1.19608e+12 -1.09206e+12 -1.22907e+12 -1.19358e+12 -628135000000.0 -1.52664e+12 -1.41327e+12 -1.37302e+12 -1.35664e+12 -1.35414e+12 -1.35992e+12 -1.372e+12 -1.39e+12 -1.41441e+12 -1.44653e+12 -1.48768e+12 -1.53864e+12 -1.59969e+12 -1.66964e+12 -1.7461e+12 -1.82617e+12 -1.85306e+12 -1.08747e+12 -1.22227e+12 -1.28081e+12 -1.32736e+12 -1.36423e+12 -1.3934e+12 -1.41637e+12 -1.43435e+12 -1.44828e+12 -1.45896e+12 -1.46701e+12 -1.47295e+12 -1.47715e+12 -1.47985e+12 -1.48123e+12 -1.48142e+12 -1.48053e+12 -1.47859e+12 -1.47554e+12 -1.47113e+12 -1.46503e+12 -1.45689e+12 -1.44642e+12 -1.43347e+12 -1.41815e+12 -1.40069e+12 -1.3815e+12 -1.36073e+12 -1.33643e+12 -1.31229e+12 -1.28811e+12 -1.26022e+12 -1.26257e+12 -1.26941e+12 -1.27085e+12 -1.242e+12 -1.18525e+12 -871174000000.0 -786292000000.0 -631565000000.0 -714175000000.0 -719480000000.0 -496426000000.0 -272450000000.0 -105527000000.0 -50886700000.0 -50292300000.0 -227791000000.0 -299433000000.0 -1.0631e+12 -1.1505e+12 -1.19378e+12 -1.11086e+12 -713790000000.0 -709819000000.0 -420476000000.0 -1.14966e+12 -1.18591e+12 -1.18677e+12 -1.19419e+12 -1.20685e+12 -1.22377e+12 -1.24465e+12 -1.27016e+12 -1.30143e+12 -1.01194e+12 -1.13156e+12 -1.18362e+12 -1.22607e+12 -1.26033e+12 -1.28764e+12 -1.30906e+12 -1.32551e+12 -1.33779e+12 -1.34666e+12 -1.35278e+12 -1.35667e+12 -1.3587e+12 -1.35911e+12 -1.35807e+12 -1.3557e+12 -1.35207e+12 -1.3472e+12 -1.34104e+12 -1.3334e+12 -1.18634e+12 -1.14957e+12 -1.11596e+12 -1.08648e+12 -1.09566e+12 -1.12269e+12 -1.12294e+12 -1.09527e+12 -1.05156e+12 -1.0175e+12 -977735000000.0 -929908000000.0 -323009000000.0 -153281000000.0 -107790000000.0 -161022000000.0 -459164000000.0 -552641000000.0 -1.04848e+12 -1.15309e+12 -946919000000.0 -968766000000.0 -648601000000.0 -365204000000.0 -985769000000.0 -1.00867e+12 -1.02523e+12 -1.3394e+12 -1.38459e+12 -1.43709e+12 -1.49594e+12 -1.55941e+12 -1.62513e+12 -1.68987e+12 -1.69984e+12 -938454000000.0 -1.04441e+12 -1.09122e+12 -1.12991e+12 -1.16131e+12 -1.18617e+12 -1.20524e+12 -1.21925e+12 -1.32398e+12 -1.31237e+12 -1.29818e+12 -1.28118e+12 -1.26133e+12 -1.23869e+12 -1.21368e+12 -975705000000.0 -982331000000.0 -959310000000.0 -925241000000.0 -893978000000.0 -864164000000.0 -833435000000.0 -798236000000.0 -747549000000.0 -476053000000.0 -564883000000.0 -649409000000.0 -375964000000.0 -164314000000.0 -64801000000.0 -298170000000.0 -468285000000.0 -412473000000.0 -1.17636e+12 -983397000000.0 -787231000000.0 -825671000000.0 -496336000000.0 -430508000000.0 -396656000000.0 -1.0457e+12 -1.06855e+12 -1.09307e+12 -1.12016e+12 -1.15123e+12 -1.18722e+12 -1.22867e+12 -1.27543e+12 -1.32665e+12 -1.38118e+12 -1.43698e+12 -1.49188e+12 -1.54255e+12 -1.54016e+12 -1.22899e+12 -1.23527e+12 -1.23882e+12 -1.24015e+12 -1.23959e+12 -1.23734e+12 -1.23356e+12 -1.22836e+12 -1.2218e+12 -1.21387e+12 -1.20455e+12 -1.19368e+12 -1.18097e+12 -1.16593e+12 -1.14804e+12 -1.12685e+12 -1.10195e+12 -1.07311e+12 -1.04123e+12 -1.00765e+12 -946121000000.0 -919592000000.0 -986354000000.0 -766602000000.0 -743908000000.0 -723081000000.0 -706415000000.0 -680839000000.0 -335042000000.0 -410349000000.0 -470604000000.0 -339877000000.0 -301304000000.0 -52728600000.0 -112674000000.0 -299948000000.0 -435866000000.0 -343014000000.0 -1.15758e+12 -1.09418e+12 -1.1454e+12 -859430000000.0 -611659000000.0 -409837000000.0 -135138000000.0 -280384000000.0 -787496000000.0 -841836000000.0 -875645000000.0 -907167000000.0 -936513000000.0 -965481000000.0 -996904000000.0 -1.03187e+12 -1.0711e+12 -1.11428e+12 -1.16058e+12 -1.20899e+12 -1.25812e+12 -1.3063e+12 -1.35159e+12 -1.39068e+12 -1.38085e+12 -866357000000.0 -960283000000.0 -1.00286e+12 -1.03811e+12 -1.06643e+12 -1.08825e+12 -1.10409e+12 -1.11468e+12 -1.12101e+12 -1.12407e+12 -1.12455e+12 -1.12289e+12 -1.11936e+12 -1.11412e+12 -1.10733e+12 -1.0991e+12 -1.08945e+12 -1.0784e+12 -1.06596e+12 -1.05202e+12 -1.0362e+12 -1.01789e+12 -996321000000.0 -970667000000.0 -939977000000.0 -903854000000.0 -866237000000.0 -845668000000.0 -793721000000.0 -845156000000.0 -863773000000.0 -848989000000.0 -834259000000.0 -797704000000.0 -592359000000.0 -591793000000.0 -273699000000.0 -320944000000.0 -257800000000.0 -323958000000.0 -119641000000.0 -112729000000.0 -53780200000.0 -140166000000.0 -541024000000.0 -896727000000.0 -957361000000.0 -1.10469e+12 -777543000000.0 -356304000000.0 -180684000000.0 -355722000000.0 -631958000000.0 -696885000000.0 -741443000000.0 -777054000000.0 -807564000000.0 -839378000000.0 -873995000000.0 -912253000000.0 -953646000000.0 -997082000000.0 -1.04134e+12 -1.08596e+12 -1.12941e+12 -1.17094e+12 -1.20856e+12 -1.23943e+12 -1.22716e+12 -795197000000.0 -879080000000.0 -918324000000.0 -950401000000.0 -975284000000.0 -993158000000.0 -1.00456e+12 -1.01064e+12 -1.01296e+12 -1.01236e+12 -1.00937e+12 -1.00436e+12 -997541000000.0 -989020000000.0 -978981000000.0 -967537000000.0 -954703000000.0 -940562000000.0 -925200000000.0 -908498000000.0 -889971000000.0 -868739000000.0 -843619000000.0 -812912000000.0 -774098000000.0 -723411000000.0 -675682000000.0 -724133000000.0 -720727000000.0 -731860000000.0 -735496000000.0 -722211000000.0 -682755000000.0 -626926000000.0 -617144000000.0 -602397000000.0 -207198000000.0 -141745000000.0 -84912500000.0 -60622600000.0 -243373000000.0 -335348000000.0 -443113000000.0 -470158000000.0 -664580000000.0 -840246000000.0 -355654000000.0 -200962000000.0 -220339000000.0 -290076000000.0 -498611000000.0 -574343000000.0 -619169000000.0 -725067000000.0 -801230000000.0 -838049000000.0 -866940000000.0 -887462000000.0 -899720000000.0 -904960000000.0 -906050000000.0 -904021000000.0 -899444000000.0 -892674000000.0 -610565000000.0 -619006000000.0 -611571000000.0 -586736000000.0 -527680000000.0 -487822000000.0 -476903000000.0 -461309000000.0 -451279000000.0 -118100000000.0 -151891000000.0 -206376000000.0 -178710000000.0 -211504000000.0 -41212500000.0 -140751000000.0 -259882000000.0 -320675000000.0 -361775000000.0 -382696000000.0 -1.20536e+12 -51650600000.0 -94613800000.0 -181669000000.0 -135309000000.0 -211844000000.0 -648279000000.0 -679607000000.0 -713833000000.0 -751865000000.0 -794310000000.0 -836110000000.0 -877583000000.0 -918788000000.0 -959101000000.0 -997332000000.0 -1.03366e+12 -1.06607e+12 -1.09261e+12 -1.08273e+12 -884028000000.0 -873614000000.0 -861547000000.0 -848049000000.0 -833246000000.0 -817175000000.0 -800080000000.0 -782171000000.0 -763322000000.0 -742888000000.0 -719628000000.0 -691741000000.0 -656511000000.0 -609287000000.0 -567548000000.0 -583880000000.0 -625546000000.0 -417933000000.0 -410831000000.0 -359675000000.0 -333745000000.0 -303632000000.0 -68898800000.0 -28717700000.0 -130827000000.0 -118032000000.0 -128828000000.0 -78797200000.0 -81434400000.0 -70060100000.0 -43784100000.0 -157511000000.0 -248629000000.0 -498521000000.0 -618727000000.0 -704510000000.0 -286429000000.0 -85321100000.0 -179264000000.0 -93266700000.0 -409776000000.0 -473771000000.0 -493682000000.0 -518235000000.0 -549577000000.0 -588432000000.0 -636092000000.0 -678336000000.0 -717643000000.0 -755998000000.0 -793560000000.0 -829517000000.0 -863492000000.0 -896331000000.0 -926428000000.0 -952827000000.0 -950607000000.0 -656123000000.0 -728118000000.0 -763367000000.0 -788239000000.0 -801929000000.0 -805021000000.0 -804099000000.0 -800009000000.0 -793423000000.0 -784626000000.0 -773855000000.0 -761316000000.0 -747029000000.0 -731165000000.0 -714026000000.0 -695728000000.0 -676401000000.0 -656611000000.0 -636794000000.0 -616899000000.0 -596120000000.0 -572448000000.0 -543620000000.0 -505840000000.0 -475873000000.0 -478340000000.0 -486408000000.0 -500737000000.0 -500898000000.0 -508524000000.0 -480059000000.0 -170933000000.0 -68467800000.0 -77928300000.0 -43048300000.0 -35397600000.0 -31615600000.0 -22894300000.0 -265031000000.0 -270866000000.0 -268292000000.0 -453458000000.0 -388715000000.0 -396033000000.0 -190047000000.0 -95422300000.0 -142798000000.0 -365575000000.0 -349895000000.0 -365084000000.0 -376427000000.0 -412939000000.0 -476071000000.0 -524800000000.0 -562278000000.0 -597704000000.0 -631823000000.0 -665510000000.0 -697524000000.0 -728656000000.0 -760229000000.0 -790846000000.0 -821517000000.0 -833079000000.0 -589814000000.0 -663502000000.0 -697051000000.0 -714555000000.0 -712252000000.0 -707992000000.0 -700981000000.0 -691716000000.0 -680438000000.0 -667252000000.0 -652311000000.0 -635646000000.0 -617176000000.0 -597278000000.0 -576288000000.0 -554337000000.0 -531738000000.0 -509631000000.0 -489069000000.0 -470212000000.0 -451526000000.0 -429642000000.0 -402131000000.0 -383270000000.0 -382014000000.0 -374981000000.0 -373193000000.0 -378604000000.0 -390120000000.0 -389693000000.0 -334654000000.0 -297307000000.0 -301677000000.0 -230604000000.0 -53652000000.0 -12144500000.0 -71231800000.0 -23883500000.0 -17492200000.0 -113234000000.0 -193059000000.0 -232012000000.0 -236609000000.0 -232395000000.0 -254607000000.0 -260870000000.0 -130901000000.0 -357507000000.0 -296080000000.0 -288551000000.0 -230215000000.0 -233373000000.0 -215012000000.0 -155070000000.0 -169247000000.0 -214306000000.0 -214960000000.0 -529937000000.0 -617044000000.0 -646123000000.0 -628751000000.0 -618842000000.0 -607495000000.0 -594680000000.0 -580341000000.0 -564347000000.0 -546718000000.0 -527530000000.0 -506345000000.0 -272261000000.0 -264179000000.0 -261018000000.0 -258564000000.0 -281796000000.0 -214826000000.0 -193088000000.0 -188722000000.0 -181495000000.0 -74778500000.0 -69738600000.0 -12946800000.0 -30937600000.0 -35092500000.0 -38838400000.0 -27122500000.0 -11770900000.0 -154262000000.0 -181457000000.0 -166564000000.0 -152969000000.0 -136600000000.0 -88202700000.0 -52364800000.0 -39314200000.0 -37967900000.0 -40984900000.0 -202879000000.0 -315964000000.0 -374744000000.0 -413340000000.0 -445097000000.0 -475220000000.0 -504945000000.0 -534377000000.0 -562772000000.0 -592834000000.0 -625115000000.0 -659185000000.0 -698775000000.0 -732080000000.0 -483384000000.0 -459170000000.0 -434030000000.0 -408189000000.0 -382177000000.0 -358365000000.0 -339436000000.0 -325098000000.0 -311994000000.0 -293501000000.0 -287627000000.0 -283920000000.0 -124190000000.0 -208712000000.0 -267900000000.0 -272097000000.0 -248876000000.0 -137813000000.0 -116826000000.0 -98093800000.0 -82118600000.0 -60594600000.0 -41813200000.0 -20456300000.0 -16043500000.0 -88469500000.0 -162016000000.0 -157267000000.0 -45236600000.0 -81155400000.0 -220481000000.0 -108243000000.0 -138739000000.0 -139445000000.0 -207274000000.0 -247614000000.0 -273128000000.0 -299653000000.0 -324448000000.0 -348541000000.0 -373790000000.0 -398805000000.0 -424970000000.0 -455223000000.0 -489349000000.0 -529166000000.0 -580910000000.0 -648533000000.0 -486778000000.0 -635331000000.0 -555884000000.0 -536870000000.0 -518208000000.0 -500578000000.0 -482098000000.0 -462639000000.0 -441433000000.0 -419572000000.0 -395267000000.0 -368856000000.0 -340793000000.0 -311653000000.0 -281776000000.0 -251994000000.0 -221090000000.0 -197088000000.0 -184600000000.0 -179461000000.0 -177675000000.0 -177788000000.0 -176754000000.0 -165266000000.0 -157757000000.0 -152009000000.0 -147912000000.0 -150729000000.0 -135069000000.0 -168865000000.0 -9504320000.0 -9035750000.0 -108742000000.0 -112646000000.0 -111888000000.0 -118662000000.0 -114304000000.0 -45506500000.0 -66794000000.0 -111644000000.0 -24919700000.0 -11152000000.0 -15226500000.0 -20599900000.0 -26637100000.0 -26832300000.0 -16608800000.0 -70585800000.0 -87701900000.0 -113366000000.0 -141876000000.0 -136198000000.0 -155174000000.0 -172444000000.0 -190270000000.0 -209579000000.0 -229485000000.0 -250283000000.0 -275726000000.0 -306531000000.0 -342169000000.0 -383940000000.0 -433216000000.0 -495597000000.0 -468088000000.0 -364571000000.0 -324011000000.0 -287916000000.0 -256972000000.0 -229466000000.0 -205495000000.0 -184284000000.0 -166456000000.0 -149788000000.0 -134711000000.0 -121419000000.0 -110028000000.0 -99010700000.0 -88564700000.0 -78470700000.0 -74603100000.0 -78260600000.0 -82415700000.0 -84118100000.0 -84132800000.0 -83196900000.0 -76481600000.0 -72559200000.0 -70514100000.0 -69228600000.0 -71993000000.0 -59558400000.0 -34378100000.0 -49878400000.0 -50669600000.0 -10626400000.0 -28858100000.0 -17455600000.0 -9035750000.0 -9035650000.0 -10017300000.0 -10835600000.0 -9032680000.0 -9035750000.0 -29241200000.0 -33518000000.0 -34107100000.0 -33202400000.0 -13780000000.0 -9136250000.0 -9035720000.0 -9856140000.0 -11941100000.0 -13323900000.0 -33846000000.0 -33116600000.0 -30677000000.0 -60759000000.0 -53087300000.0 -41419600000.0 -41171100000.0 -36541900000.0 -18083800000.0 -17378200000.0 -9034890000.0 -9446860000.0 -9566670000.0 -9022710000.0 -9252790000.0 -9035750000.0 -35183700000.0 -35068100000.0 -13368600000.0 -16977800000.0 -34555800000.0 -9919430000.0 -27825000000.0 -32486400000.0 -38747500000.0 -47356900000.0 -43887500000.0 -46186300000.0 -47467900000.0 -48982300000.0 -50636400000.0 -51130400000.0 -51314800000.0 -51533200000.0 -51379600000.0 -51131900000.0 -51361600000.0 -53179200000.0 -64399700000.0 -28634400000.0 -27533900000.0 -26914200000.0 -26454600000.0 -26080600000.0 -27346100000.0 -29451800000.0 -31809900000.0 -34429300000.0 -37250300000.0 -39999300000.0 -42766300000.0 -44485000000.0 -46212400000.0 -49908400000.0 -54422100000.0 -58303400000.0 -61379700000.0 -63805200000.0 -63592700000.0 -63053300000.0 -62541800000.0 -61460200000.0 -11586700000.0 -9035750000.0 
SCALARS Shear_Stress float 1
LOOKUP_TABLE default
27664800000.0 33424500000.0 2453580000.0 50148200000.0 51061300000.0 41816500000.0 44221900000.0 27001900000.0 60975200000.0 23569000000.0 53764700000.0 35116300000.0 66702900000.0 6808310000.0 40864900000.0 55469700000.0 36720900000.0 75641000000.0 13925700000.0 31808300000.0 11055600000.0 4003420000.0 69786500000.0 140971000000.0 173228000000.0 909942000.0 8661460000.0 33435000000.0 17769800000.0 140003000000.0 56253300000.0 31887700000.0 6862270000.0 6445650000.0 67093100000.0 45261100000.0 24278100000.0 20535700000.0 15898800000.0 41388200000.0 90472800000.0 184613000000.0 217787000000.0 76364200000.0 77499600000.0 60283200000.0 27082700000.0 145106000000.0 4146920000.0 31344200000.0 3649700000.0 16900900000.0 44281400000.0 40447100000.0 79991700000.0 36509400000.0 150741000000.0 64742900000.0 121667000000.0 214081000000.0 215625000000.0 252942000000.0 234686000000.0 226802000000.0 51275100000.0 126456000000.0 157371000000.0 41805500000.0 25073800000.0 9248160000.0 67843900000.0 24887200000.0 63040100000.0 106476000000.0 185300000000.0 222912000000.0 231358000000.0 265248000000.0 231376000000.0 214259000000.0 221683000000.0 77961700000.0 96433500000.0 1985310000.0 96243100000.0 131455000000.0 121223000000.0 232399000000.0 273300000000.0 222029000000.0 8312890000.0 101042000000.0 100811000000.0 113382000000.0 176793000000.0 313431000000.0 384164000000.0 306076000000.0 260149000000.0 220744000000.0 52481200000.0 72640700000.0 55839800000.0 134538000000.0 229848000000.0 23480300000.0 142300000000.0 148643000000.0 132072000000.0 168519000000.0 224597000000.0 273965000000.0 305088000000.0 351800000000.0 293477000000.0 239057000000.0 213128000000.0 117683000000.0 128539000000.0 136825000000.0 231447000000.0 297126000000.0 206877000000.0 226784000000.0 169566000000.0 181442000000.0 165769000000.0 197586000000.0 245315000000.0 279100000000.0 201150000000.0 186066000000.0 233343000000.0 319880000000.0 282484000000.0 265621000000.0 233922000000.0 218625000000.0 197031000000.0 20054400000.0 43549000000.0 205021000000.0 249553000000.0 282860000000.0 84333700000.0 282579000000.0 513928000000.0 356722000000.0 412532000000.0 307473000000.0 220952000000.0 190160000000.0 210817000000.0 206864000000.0 162095000000.0 248608000000.0 247231000000.0 201566000000.0 21011900000.0 26025300000.0 358939000000.0 604993000000.0 533673000000.0 605376000000.0 528819000000.0 407303000000.0 288869000000.0 205354000000.0 190656000000.0 193525000000.0 161072000000.0 189873000000.0 237022000000.0 209200000000.0 167433000000.0 283275000000.0 560447000000.0 248040000000.0 594275000000.0 505410000000.0 377861000000.0 326984000000.0 248179000000.0 203279000000.0 187164000000.0 165634000000.0 175763000000.0 147072000000.0 158018000000.0 130468000000.0 147832000000.0 164103000000.0 204706000000.0 197261000000.0 209522000000.0 168006000000.0 166818000000.0 121166000000.0 73785200000.0 37509900000.0 293140000000.0 478872000000.0 271536000000.0 448604000000.0 533180000000.0 563797000000.0 546706000000.0 472282000000.0 422612000000.0 247155000000.0 166238000000.0 137617000000.0 114289000000.0 126492000000.0 173046000000.0 167509000000.0 115301000000.0 139717000000.0 117229000000.0 188909000000.0 213045000000.0 41503400000.0 206081000000.0 471004000000.0 578824000000.0 516840000000.0 346424000000.0 178415000000.0 135689000000.0 101997000000.0 91588800000.0 138001000000.0 160907000000.0 116091000000.0 58074400000.0 100124000000.0 14571800000.0 6418970000.0 658457000000.0 595080000000.0 455819000000.0 363139000000.0 214358000000.0 135694000000.0 138186000000.0 112567000000.0 101547000000.0 53900500000.0 62566500000.0 30988200000.0 90581500000.0 100085000000.0 141375000000.0 120847000000.0 121319000000.0 54117500000.0 49261400000.0 19528200000.0 217989000000.0 279101000000.0 99953400000.0 42816900000.0 200643000000.0 155103000000.0 83596300000.0 674157000000.0 641453000000.0 564180000000.0 495634000000.0 134314000000.0 118854000000.0 74526200000.0 8514700000.0 28675200000.0 96774500000.0 67794900000.0 28992700000.0 304922000000.0 439403000000.0 227130000000.0 306418000000.0 211075000000.0 128432000000.0 239298000000.0 127174000000.0 584701000000.0 414181000000.0 83256700000.0 115138000000.0 68243400000.0 2328600000.0 69872900000.0 31289800000.0 66893700000.0 16248700000.0 105831000000.0 261941000000.0 340999000000.0 328107000000.0 306741000000.0 11729300000.0 514482000000.0 496931000000.0 46746600000.0 97103700000.0 135680000000.0 107731000000.0 10045300000.0 101515000000.0 253397000000.0 86972200000.0 131397000000.0 12340700000.0 7558150000.0 7781460000.0 85900400000.0 112734000000.0 187000000000.0 392188000000.0 569912000000.0 372392000000.0 359924000000.0 438017000000.0 406861000000.0 432137000000.0 290898000000.0 172100000000.0 110618000000.0 237372000000.0 70191100000.0 84655700000.0 45230700000.0 445469000000.0 142190000000.0 44179300000.0 185506000000.0 462829000000.0 660214000000.0 443412000000.0 492952000000.0 436965000000.0 372402000000.0 164698000000.0 35465900000.0 115467000000.0 174142000000.0 721638000000.0 163334000000.0 83185500000.0 67182400000.0 114561000000.0 96324200000.0 162532000000.0 86345300000.0 19265800000.0 545714000000.0 91485300000.0 134130000000.0 232589000000.0 710049000000.0 425570000000.0 467940000000.0 506316000000.0 548457000000.0 405329000000.0 63699500000.0 14808300000.0 388492000000.0 23486500000.0 213202000000.0 325097000000.0 175788000000.0 494042000000.0 312366000000.0 57999800000.0 113217000000.0 211602000000.0 185420000000.0 486409000000.0 428713000000.0 497793000000.0 580769000000.0 718735000000.0 595151000000.0 23676700000.0 14683700000.0 308772000000.0 148028000000.0 154708000000.0 367916000000.0 466761000000.0 462491000000.0 48440600000.0 111905000000.0 430100000000.0 722424000000.0 446874000000.0 511502000000.0 942461000000.0 224317000000.0 176874000000.0 47309400000.0 162087000000.0 119208000000.0 43009500000.0 185455000000.0 21472300000.0 41729900000.0 210102000000.0 308573000000.0 460639000000.0 524781000000.0 620141000000.0 576906000000.0 660221000000.0 798816000000.0 951946000000.0 105337000000.0 177531000000.0 4424950000.0 301155000000.0 686592000000.0 389170000000.0 409449000000.0 453165000000.0 424115000000.0 472547000000.0 341134000000.0 159480000000.0 222777000000.0 174620000000.0 12553900000.0 135486000000.0 358672000000.0 573834000000.0 663279000000.0 713290000000.0 947083000000.0 685407000000.0 285320000000.0 273241000000.0 470999000000.0 257826000000.0 627114000000.0 328312000000.0 365400000000.0 257166000000.0 275271000000.0 131704000000.0 122167000000.0 272542000000.0 472655000000.0 633058000000.0 677479000000.0 808664000000.0 407804000000.0 327575000000.0 519644000000.0 151969000000.0 605872000000.0 92968500000.0 265300000000.0 287285000000.0 620385000000.0 368319000000.0 1465200000.0 669509000000.0 697140000000.0 387296000000.0 279665000000.0 176325000000.0 253664000000.0 235352000000.0 328574000000.0 376749000000.0 436434000000.0 542474000000.0 588941000000.0 669468000000.0 718736000000.0 4618460000.0 444159000000.0 554865000000.0 536413000000.0 55644100000.0 515926000000.0 32494100000.0 363404000000.0 906965000000.0 906809000000.0 227639000000.0 579755000000.0 400003000000.0 320431000000.0 330311000000.0 387813000000.0 451088000000.0 693331000000.0 1.16724e+12 298551000000.0 94141800000.0 416395000000.0 609828000000.0 78152300000.0 37938900000.0 236409000000.0 495810000000.0 472391000000.0 528643000000.0 527931000000.0 418456000000.0 454652000000.0 375811000000.0 387654000000.0 409055000000.0 440949000000.0 904357000000.0 149619000000.0 566992000000.0 67539800000.0 464952000000.0 168362000000.0 168056000000.0 259720000000.0 191254000000.0 152781000000.0 119395000000.0 512472000000.0 51229300000.0 350234000000.0 574722000000.0 600142000000.0 552376000000.0 492810000000.0 425522000000.0 461097000000.0 419346000000.0 432586000000.0 404100000000.0 412012000000.0 465964000000.0 636649000000.0 1.50194e+12 423662000000.0 122662000000.0 432416000000.0 482629000000.0 575447000000.0 157258000000.0 490745000000.0 247539000000.0 236931000000.0 155334000000.0 780884000000.0 938366000000.0 637362000000.0 643189000000.0 579852000000.0 525186000000.0 485432000000.0 453801000000.0 546929000000.0 1.24255e+12 477767000000.0 258398000000.0 448899000000.0 615702000000.0 137854000000.0 179505000000.0 235395000000.0 119453000000.0 96857500000.0 60296900000.0 307829000000.0 484398000000.0 1.01244e+12 725243000000.0 762903000000.0 671912000000.0 691794000000.0 604983000000.0 628299000000.0 552029000000.0 514155000000.0 544314000000.0 1.02093e+12 256970000000.0 143889000000.0 3737020000.0 283015000000.0 252880000000.0 303677000000.0 35035300000.0 106513000000.0 4059890000.0 166348000000.0 647566000000.0 783677000000.0 1.01207e+12 908690000000.0 778459000000.0 709587000000.0 653855000000.0 581442000000.0 628389000000.0 578380000000.0 707080000000.0 789865000000.0 798954000000.0 773580000000.0 200260000000.0 54453600000.0 479743000000.0 849471000000.0 33145400000.0 20823900000.0 10712300000.0 116761000000.0 339716000000.0 527045000000.0 882087000000.0 873943000000.0 790186000000.0 729302000000.0 688407000000.0 701775000000.0 751137000000.0 511003000000.0 16411700000.0 143894000000.0 127865000000.0 46672700000.0 1.18002e+12 358036000000.0 140979000000.0 55583700000.0 176176000000.0 100716000000.0 30174100000.0 305824000000.0 694983000000.0 892475000000.0 902311000000.0 866775000000.0 871898000000.0 803729000000.0 820764000000.0 754134000000.0 733713000000.0 738024000000.0 624044000000.0 55417000000.0 177222000000.0 102536000000.0 108768000000.0 647238000000.0 889758000000.0 295962000000.0 126668000000.0 135568000000.0 335256000000.0 501968000000.0 667375000000.0 810639000000.0 872935000000.0 915360000000.0 882753000000.0 839943000000.0 783560000000.0 801757000000.0 759523000000.0 723775000000.0 673928000000.0 501247000000.0 361006000000.0 128184000000.0 196947000000.0 777366000000.0 1.52962e+12 1.40243e+12 508498000000.0 274567000000.0 198487000000.0 51396500000.0 17127000000.0 208502000000.0 522638000000.0 789918000000.0 916709000000.0 929516000000.0 895168000000.0 852509000000.0 781522000000.0 603233000000.0 256403000000.0 43679000000.0 148676000000.0 217873000000.0 261965000000.0 208901000000.0 869893000000.0 9035750000.0 1.25262e+12 1.05786e+12 54478900000.0 132438000000.0 397990000000.0 680216000000.0 804182000000.0 875138000000.0 936989000000.0 949162000000.0 971255000000.0 941668000000.0 948028000000.0 903298000000.0 897026000000.0 841328000000.0 697524000000.0 408301000000.0 1604350000.0 259529000000.0 272641000000.0 847993000000.0 703888000000.0 142036000000.0 284871000000.0 166909000000.0 128027000000.0 268300000000.0 307615000000.0 479421000000.0 571491000000.0 720271000000.0 897971000000.0 979120000000.0 981619000000.0 943622000000.0 860321000000.0 785179000000.0 663805000000.0 540637000000.0 331342000000.0 174038000000.0 50717200000.0 186190000000.0 299267000000.0 310356000000.0 314171000000.0 935460000000.0 4372910000.0 479492000000.0 985840000000.0 1.17698e+12 294298000000.0 418032000000.0 638732000000.0 841852000000.0 965743000000.0 1.00161e+12 978456000000.0 918840000000.0 773362000000.0 477912000000.0 112833000000.0 219453000000.0 347678000000.0 981339000000.0 9035750000.0 630662000000.0 305884000000.0 1.02868e+12 750353000000.0 402483000000.0 571658000000.0 719276000000.0 778964000000.0 894777000000.0 935398000000.0 998867000000.0 1.00723e+12 1.02172e+12 1.00413e+12 987510000000.0 959252000000.0 856549000000.0 732726000000.0 610547000000.0 401622000000.0 267982000000.0 97414700000.0 73528900000.0 222091000000.0 329094000000.0 382627000000.0 345758000000.0 1.01225e+12 220771000000.0 296350000000.0 1.26481e+12 645828000000.0 558236000000.0 549394000000.0 555079000000.0 530962000000.0 671367000000.0 851613000000.0 979368000000.0 1.0305e+12 1.00991e+12 950886000000.0 913447000000.0 817980000000.0 504222000000.0 224317000000.0 11070700000.0 344773000000.0 396291000000.0 300196000000.0 544419000000.0 1.30946e+12 449295000000.0 551499000000.0 648872000000.0 813098000000.0 954658000000.0 1.02854e+12 1.03129e+12 973015000000.0 874096000000.0 631211000000.0 291173000000.0 155118000000.0 182780000000.0 105516000000.0 183476000000.0 450152000000.0 614832000000.0 1.04696e+12 932892000000.0 270651000000.0 1.60682e+12 518865000000.0 568743000000.0 618719000000.0 758314000000.0 786242000000.0 918499000000.0 931850000000.0 1.00607e+12 1.01854e+12 1.04655e+12 1.04408e+12 1.00317e+12 905067000000.0 755033000000.0 711173000000.0 388262000000.0 284563000000.0 117364000000.0 215402000000.0 363805000000.0 73546500000.0 129386000000.0 1.21696e+12 243790000000.0 887359000000.0 299766000000.0 592142000000.0 865057000000.0 639078000000.0 714531000000.0 914895000000.0 997431000000.0 1.04241e+12 1.04285e+12 1.02897e+12 986230000000.0 946156000000.0 836346000000.0 447247000000.0 129260000000.0 337386000000.0 488745000000.0 158162000000.0 61774300000.0 364964000000.0 284456000000.0 120658000000.0 359627000000.0 101534000000.0 65405400000.0 920303000000.0 695920000000.0 1.53167e+12 700635000000.0 688081000000.0 920060000000.0 994643000000.0 1.03716e+12 1.04619e+12 1.01249e+12 915958000000.0 532941000000.0 234885000000.0 56723800000.0 25938000000.0 214760000000.0 738695000000.0 1.1291e+12 253025000000.0 1.10182e+12 1.5635e+12 876024000000.0 360900000000.0 250332000000.0 568245000000.0 492132000000.0 114117000000.0 424711000000.0 1.07344e+12 1.63058e+12 581015000000.0 968831000000.0 949162000000.0 1.00388e+12 996475000000.0 1.03136e+12 1.03419e+12 1.04057e+12 1.04332e+12 1.02407e+12 960756000000.0 892595000000.0 757944000000.0 47025300000.0 337821000000.0 217614000000.0 270448000000.0 138550000000.0 424654000000.0 247591000000.0 693193000000.0 1.50746e+12 408817000000.0 227705000000.0 377477000000.0 257045000000.0 238174000000.0 538140000000.0 783271000000.0 205024000000.0 260974000000.0 590638000000.0 1.25962e+12 244591000000.0 869127000000.0 991732000000.0 1.02434e+12 1.03684e+12 1.01757e+12 1.02146e+12 981351000000.0 985741000000.0 944333000000.0 537718000000.0 595534000000.0 95807200000.0 394398000000.0 496622000000.0 350054000000.0 317107000000.0 195690000000.0 88811400000.0 780547000000.0 1.00314e+12 115655000000.0 136483000000.0 291515000000.0 306486000000.0 317975000000.0 430276000000.0 595862000000.0 642557000000.0 898821000000.0 38828800000.0 1.79414e+12 216220000000.0 879680000000.0 996186000000.0 1.02384e+12 1.01362e+12 970516000000.0 941830000000.0 894427000000.0 1.00678e+12 511280000000.0 419159000000.0 563927000000.0 480466000000.0 533209000000.0 141866000000.0 482873000000.0 1.41096e+12 563721000000.0 120333000000.0 276723000000.0 231736000000.0 109795000000.0 410570000000.0 49694900000.0 258186000000.0 402120000000.0 534894000000.0 651803000000.0 917825000000.0 487047000000.0 452773000000.0 204627000000.0 67514500000.0 63826300000.0 298944000000.0 670206000000.0 905364000000.0 871107000000.0 981366000000.0 966800000000.0 1.00447e+12 953652000000.0 962341000000.0 914930000000.0 927306000000.0 1.2197e+12 679584000000.0 553916000000.0 550585000000.0 577085000000.0 499887000000.0 15409500000.0 1.14902e+12 819212000000.0 571154000000.0 73368800000.0 243223000000.0 351738000000.0 407608000000.0 356496000000.0 448213000000.0 12785900000.0 414989000000.0 429687000000.0 10669100000.0 94213800000.0 158720000000.0 465134000000.0 785555000000.0 534535000000.0 578752000000.0 1.01929e+12 182492000000.0 1.05528e+12 235964000000.0 660384000000.0 854712000000.0 936443000000.0 872044000000.0 891432000000.0 827442000000.0 878564000000.0 951937000000.0 1.16366e+12 972583000000.0 839597000000.0 715682000000.0 635646000000.0 678976000000.0 589602000000.0 532637000000.0 557141000000.0 640778000000.0 802767000000.0 1.00126e+12 147181000000.0 352250000000.0 831513000000.0 72992700000.0 763901000000.0 626233000000.0 552657000000.0 476334000000.0 482503000000.0 19470200000.0 390261000000.0 38875600000.0 8330730000.0 3618370000.0 61514300000.0 202241000000.0 151417000000.0 366495000000.0 91750700000.0 1.09574e+12 311771000000.0 717980000000.0 200009000000.0 716953000000.0 524350000000.0 348913000000.0 619173000000.0 863072000000.0 854584000000.0 781451000000.0 822732000000.0 938797000000.0 815087000000.0 706995000000.0 749020000000.0 311627000000.0 1.16578e+12 241710000000.0 1.8411e+12 737731000000.0 40466800000.0 873575000000.0 891379000000.0 543151000000.0 525705000000.0 482482000000.0 320340000000.0 100718000000.0 190399000000.0 295099000000.0 353690000000.0 111168000000.0 71830400000.0 40920900000.0 58962200000.0 233419000000.0 407271000000.0 263595000000.0 227692000.0 16938300000.0 165148000000.0 324440000000.0 39528700000.0 505817000000.0 781090000000.0 304927000000.0 656766000000.0 739974000000.0 836628000000.0 705675000000.0 736716000000.0 639403000000.0 728055000000.0 717931000000.0 823010000000.0 803912000000.0 851414000000.0 747110000000.0 733215000000.0 799522000000.0 795335000000.0 261831000000.0 751694000000.0 129536000000.0 1.38308e+12 78641500000.0 680708000000.0 307898000000.0 919566000000.0 605522000000.0 447603000000.0 509116000000.0 387670000000.0 231011000000.0 72469500000.0 76361400000.0 238616000000.0 316462000000.0 180584000000.0 264719000000.0 129741000000.0 70867400000.0 182013000.0 125342000000.0 379863000000.0 559387000000.0 1.25928e+12 1.69354e+12 1.16957e+12 404860000000.0 202973000000.0 63143100000.0 526625000000.0 13790800000.0 458593000000.0 719989000000.0 538207000000.0 608643000000.0 730125000000.0 760791000000.0 770545000000.0 709115000000.0 720595000000.0 692581000000.0 752677000000.0 681212000000.0 160156000000.0 1.8878e+12 301107000000.0 98746900000.0 300142000000.0 385191000000.0 655922000000.0 390036000000.0 47043600000.0 271427000000.0 538142000000.0 289730000000.0 74080900000.0 24489800000.0 273958000000.0 313159000000.0 122623000000.0 118099000000.0 73518700000.0 439388000000.0 13138000000.0 229310000000.0 689408000000.0 1.18211e+12 194291000000.0 472864000000.0 379582000000.0 142842000000.0 977073000000.0 740460000000.0 4053630000.0 472929000000.0 692883000000.0 451585000000.0 461542000000.0 655635000000.0 721708000000.0 700800000000.0 638904000000.0 599331000000.0 325279000000.0 271240000000.0 1.04872e+12 64255600000.0 688564000000.0 35631400000.0 212508000000.0 240813000000.0 118170000000.0 229239000000.0 333388000000.0 461608000000.0 313854000000.0 38043900000.0 69516800000.0 14037200000.0 25366800000.0 273813000000.0 252945000000.0 300013000000.0 311781000000.0 130158000000.0 83253000000.0 53012900000.0 66348300000.0 78021400000.0 578468000000.0 729843000000.0 323950000000.0 397000000000.0 830532000000.0 532683000000.0 403030000000.0 1.70308e+12 1.04827e+12 460146000000.0 150652000000.0 1.18445e+12 626694000000.0 132635000000.0 563731000000.0 486492000000.0 79045800000.0 244620000000.0 448178000000.0 568981000000.0 647014000000.0 683538000000.0 669003000000.0 681251000000.0 604500000000.0 628058000000.0 528485000000.0 503992000000.0 184560000000.0 276760000000.0 60319600000.0 699777000000.0 330296000000.0 398287000000.0 48206000000.0 235042000000.0 1.00242e+12 1.11621e+12 299604000000.0 155066000000.0 615037000000.0 450196000000.0 28296000000.0 69441200000.0 34969900000.0 75790400000.0 261462000000.0 282453000000.0 143220000000.0 136101000000.0 128829000000.0 103732000000.0 69744500000.0 127712000000.0 1738050000.0 622406000000.0 719277000000.0 256834000000.0 53024500000.0 281600000000.0 774153000000.0 1.14999e+12 1.91646e+12 69533800000.0 254410000000.0 344749000000.0 1.0653e+12 18432400000.0 322176000000.0 468372000000.0 309010000000.0 604066000000.0 670063000000.0 605564000000.0 492905000000.0 398370000000.0 529436000000.0 319377000000.0 188359000000.0 187751000000.0 129490000000.0 75301400000.0 150352000000.0 229241000000.0 220549000000.0 111589000000.0 505013000000.0 366199000000.0 848350000000.0 179303000000.0 212914000000.0 89341600000.0 45910500000.0 64164500000.0 141396000000.0 216409000000.0 231074000000.0 255359000000.0 157811000000.0 142615000000.0 129018000000.0 140817000000.0 226715000000.0 340977000000.0 219029000000.0 88691400000.0 380895000000.0 772752000000.0 200497000000.0 391968000000.0 174999000000.0 735728000000.0 341991000000.0 12218500000.0 54627600000.0 4118600000.0 250633000000.0 424455000000.0 620877000000.0 37942300000.0 144824000000.0 567022000000.0 566448000000.0 665248000000.0 637781000000.0 490030000000.0 347069000000.0 323650000000.0 228818000000.0 1.03027e+12 1.00488e+12 533004000000.0 150455000000.0 183279000000.0 457828000000.0 471151000000.0 941950000000.0 97790000000.0 601514000000.0 37348600000.0 360097000000.0 267458000000.0 203132000000.0 127313000000.0 59058100000.0 236532000000.0 145262000000.0 55874300000.0 174642000000.0 155248000000.0 125520000000.0 150956000000.0 149133000000.0 156832000000.0 216599000000.0 480961000000.0 308696000000.0 47772200000.0 585086000000.0 456360000000.0 635888000000.0 340779000000.0 43757400000.0 84283700000.0 185669000000.0 41670600000.0 91149000000.0 509121000000.0 166636000000.0 460637000000.0 599822000000.0 448365000000.0 667017000000.0 668937000000.0 661178000000.0 669696000000.0 662293000000.0 612759000000.0 564338000000.0 454061000000.0 310344000000.0 43457300000.0 256743000000.0 577136000000.0 308901000000.0 687442000000.0 653214000000.0 214965000000.0 72584100000.0 160046000000.0 374336000000.0 433784000000.0 571684000000.0 92691600000.0 358828000000.0 158958000000.0 390277000000.0 506302000000.0 336811000000.0 369974000000.0 157950000000.0 214837000000.0 365949000000.0 335452000000.0 393973000000.0 9350170000.0 105264000000.0 285669000000.0 206746000000.0 159123000000.0 82182200000.0 3404230000.0 200640000000.0 357854000000.0 375164000000.0 900186000000.0 495162000000.0 162379000000.0 146355000000.0 60993500000.0 717648000000.0 1.11401e+12 589988000000.0 165826000000.0 110277000000.0 199296000000.0 205784000000.0 30697700000.0 169662000000.0 312386000000.0 711240000000.0 250561000000.0 424987000000.0 621523000000.0 690716000000.0 680695000000.0 643333000000.0 543277000000.0 331871000000.0 246310000000.0 288016000000.0 339655000000.0 238007000000.0 17591300000.0 56835300000.0 109713000000.0 305165000000.0 450256000000.0 546775000000.0 307257000000.0 27631600000.0 545611000000.0 396582000000.0 129703000000.0 141931000000.0 36425800000.0 373003000000.0 81349200000.0 552765000000.0 427804000000.0 398962000000.0 396400000000.0 433394000000.0 11658400000.0 36351900000.0 30859600000.0 373980000000.0 255574000000.0 203560000000.0 103659000000.0 28405400000.0 46954100000.0 831088000000.0 297908000000.0 112578000000.0 24657200000.0 94265400000.0 279878000000.0 149165000000.0 315466000000.0 357498000000.0 260173000000.0 279532000000.0 509117000000.0 970103000000.0 1.02726e+12 829558000000.0 870956000000.0 576561000000.0 667138000000.0 470466000000.0 639030000000.0 620403000000.0 636903000000.0 584529000000.0 448551000000.0 371949000000.0 250561000000.0 536175000000.0 422512000000.0 870923000000.0 802587000000.0 135755000000.0 212435000000.0 334662000000.0 503774000000.0 575962000000.0 438136000000.0 302291000000.0 516430000000.0 696176000000.0 677138000000.0 371232000000.0 834003000000.0 543510000000.0 420597000000.0 414296000000.0 466146000000.0 488233000000.0 479057000000.0 411383000000.0 32268600000.0 95314100000.0 88512700000.0 458073000000.0 494969000000.0 371759000000.0 340114000000.0 146249000000.0 120471000000.0 120057000000.0 40452100000.0 608052000000.0 830793000000.0 292682000000.0 59245200000.0 425238000000.0 1.31252e+12 341987000000.0 739342000000.0 220437000000.0 313277000000.0 481366000000.0 342487000000.0 67771700000.0 490983000000.0 357072000000.0 203838000000.0 700204000000.0 624313000000.0 335788000000.0 415514000000.0 550530000000.0 619610000000.0 556622000000.0 526264000000.0 407898000000.0 316767000000.0 636914000000.0 1.06526e+12 653055000000.0 507013000000.0 469160000000.0 789993000000.0 1.32615e+12 1.67543e+12 1.28874e+12 791601000000.0 411583000000.0 581236000000.0 692198000000.0 802509000000.0 828320000000.0 908961000000.0 168181000000.0 577753000000.0 477112000000.0 356975000000.0 475007000000.0 446295000000.0 312768000000.0 158366000000.0 124158000000.0 531205000000.0 508500000000.0 589346000000.0 624858000000.0 500014000000.0 468810000000.0 290093000000.0 265344000000.0 74398200000.0 138412000000.0 269563000000.0 634327000000.0 204263000000.0 222627000000.0 58392800000.0 83294700000.0 542747000000.0 375869000000.0 50617900000.0 47331300000.0 495734000000.0 398409000000.0 143018000000.0 96037000000.0 300074000000.0 212920000000.0 35160200000.0 344692000000.0 583465000000.0 347617000000.0 60649700000.0 562788000000.0 550677000000.0 593047000000.0 225808000000.0 1.41759e+12 52462900000.0 77537700000.0 13748600000.0 163822000000.0 413228000000.0 478586000000.0 352933000000.0 141686000000.0 586351000000.0 619682000000.0 668184000000.0 636242000000.0 471326000000.0 83725000000.0 682751000000.0 495927000000.0 779638000000.0 305090000000.0 279679000000.0 332211000000.0 448480000000.0 458736000000.0 327703000000.0 229424000000.0 172068000000.0 216394000000.0 145313000000.0 530557000000.0 641438000000.0 725753000000.0 611038000000.0 454390000000.0 247677000000.0 110877000000.0 88298600000.0 615736000000.0 805613000000.0 1.02361e+12 840284000000.0 161686000000.0 287996000000.0 761381000000.0 7964810000.0 514798000000.0 491432000000.0 259982000000.0 350081000000.0 142678000000.0 33847600000.0 63989100000.0 142941000000.0 10263400000.0 1.11616e+12 418254000000.0 235217000000.0 281098000000.0 576622000000.0 346389000000.0 441076000000.0 411850000000.0 551896000000.0 577675000000.0 722586000000.0 474208000000.0 329453000000.0 58625300000.0 153281000000.0 71255900000.0 160200000000.0 235843000000.0 72447700000.0 117848000000.0 398259000000.0 562689000000.0 649384000000.0 651072000000.0 555259000000.0 394861000000.0 171344000000.0 672407000000.0 168462000000.0 551027000000.0 63534100000.0 89173400000.0 111385000000.0 345498000000.0 353093000000.0 235772000000.0 99917800000.0 265000000000.0 115616000000.0 142833000000.0 152901000000.0 517755000000.0 632971000000.0 650880000000.0 770726000000.0 860526000000.0 742766000000.0 690398000000.0 519875000000.0 402313000000.0 573688000000.0 924736000000.0 197147000000.0 289425000000.0 135958000000.0 796461000000.0 572922000000.0 854310000000.0 699537000000.0 307176000000.0 3475040000.0 415283000000.0 155629000000.0 985330000000.0 343511000000.0 235661000000.0 166550000000.0 126771000000.0 221723000000.0 522326000000.0 914024000000.0 479993000000.0 607507000000.0 89881200000.0 46989500000.0 21418100000.0 335311000000.0 95538700000.0 717280000000.0 232613000000.0 12656600000.0 36278900000.0 36387600000.0 131648000000.0 134397000000.0 39104000000.0 13789400000.0 197443000000.0 431468000000.0 575685000000.0 616669000000.0 548821000000.0 374163000000.0 72375800000.0 202083000000.0 1.12014e+12 701974000000.0 331191000000.0 17451500000.0 390013000000.0 269701000000.0 212927000000.0 514900000000.0 348547000000.0 211152000000.0 128857000000.0 5961450000.0 24694900000.0 45103000000.0 113787000000.0 492260000000.0 594945000000.0 758402000000.0 890989000000.0 845645000000.0 758148000000.0 485708000000.0 191638000000.0 420374000000.0 627031000000.0 832816000000.0 721900000000.0 534290000000.0 427907000000.0 508814000000.0 425651000000.0 212055000000.0 128124000000.0 1.41085e+12 765306000000.0 474098000000.0 313981000000.0 228050000000.0 159745000000.0 71208800000.0 425819000000.0 564483000000.0 1.06954e+12 495588000000.0 965026000000.0 510401000000.0 329956000000.0 315427000000.0 26162000000.0 898311000000.0 113240000000.0 26420500000.0 7672590000.0 80460100000.0 318148000000.0 296636000000.0 172730000000.0 199962000000.0 360081000000.0 514633000000.0 597111000000.0 602262000000.0 540701000000.0 430431000000.0 356247000000.0 31210600000.0 150192000000.0 988921000000.0 159620000000.0 627081000000.0 24903200000.0 67391300000.0 582948000000.0 169523000000.0 54163700000.0 90953500000.0 404952000000.0 532953000000.0 5127290000.0 63646500000.0 400694000000.0 452620000000.0 533665000000.0 625508000000.0 711170000000.0 847739000000.0 1.00542e+12 993779000000.0 941824000000.0 388127000000.0 186387000000.0 570077000000.0 1.10766e+12 619241000000.0 708537000000.0 53990900000.0 430638000000.0 653259000000.0 626622000000.0 120386000000.0 404651000000.0 692421000000.0 487105000000.0 342609000000.0 219712000000.0 64589100000.0 56355800000.0 6210720000.0 63183600000.0 1.15578e+12 230228000000.0 834416000000.0 753054000000.0 852983000000.0 788727000000.0 772960000000.0 676676000000.0 410643000000.0 313952000000.0 307286000000.0 75734000000.0 12097400000.0 232992000000.0 372650000000.0 406415000000.0 348515000000.0 318038000000.0 385578000000.0 503894000000.0 592537000000.0 618582000000.0 600933000000.0 553991000000.0 538750000000.0 488653000000.0 49152800000.0 805992000000.0 228694000000.0 354441000000.0 9535390000.0 644513000000.0 303743000000.0 18334300000.0 96545700000.0 702829000000.0 543410000000.0 15051300000.0 43404000000.0 4926150000.0 333743000000.0 451104000000.0 508535000000.0 736532000000.0 878442000000.0 1.14586e+12 1.06308e+12 868948000000.0 289433000000.0 194388000000.0 29624000000.0 397009000000.0 414629000000.0 218824000000.0 340407000000.0 130253000000.0 25327400000.0 432763000000.0 559917000000.0 505284000000.0 298594000000.0 983465000000.0 477269000000.0 333293000000.0 194441000000.0 90337700000.0 74115700000.0 32785400000.0 510597000000.0 279995000000.0 658054000000.0 750201000000.0 717382000000.0 202976000000.0 572901000000.0 85619900000.0 9050460000.0 160161000000.0 18820000000.0 117427000000.0 262394000000.0 386069000000.0 435204000000.0 432513000000.0 424083000000.0 460876000000.0 539175000000.0 623288000000.0 669482000000.0 641448000000.0 429406000000.0 156991000000.0 1.02792e+12 413676000000.0 736672000000.0 1.06582e+12 908971000000.0 206469000000.0 136290000000.0 11457200000.0 317723000000.0 114931000000.0 313828000000.0 1.257e+12 814734000000.0 517958000000.0 423413000000.0 102210000000.0 96140800000.0 54175300000.0 266759000000.0 362542000000.0 390118000000.0 417194000000.0 574773000000.0 657137000000.0 765046000000.0 1.05418e+12 1.22125e+12 1.19441e+12 956886000000.0 1.27472e+12 18093900000.0 314546000000.0 501482000000.0 453313000000.0 324566000000.0 273896000000.0 429666000000.0 451447000000.0 354228000000.0 211154000000.0 269617000000.0 515035000000.0 780423000000.0 636918000000.0 184197000000.0 99976000000.0 1364480000.0 281364000000.0 235818000000.0 454246000000.0 508708000000.0 1.17673e+12 206324000000.0 937503000000.0 425597000000.0 849049000000.0 440755000000.0 485733000000.0 220417000000.0 110877000000.0 245195000000.0 360248000000.0 425136000000.0 452183000000.0 474520000000.0 511289000000.0 578253000000.0 660437000000.0 588481000000.0 527479000000.0 839051000000.0 1.35746e+12 121734000000.0 858612000000.0 686982000000.0 1.1657e+12 501803000000.0 531818000000.0 343729000000.0 1.14167e+12 670678000000.0 420262000000.0 361388000000.0 143790000000.0 85401100000.0 206837000000.0 203769000000.0 277254000000.0 275726000000.0 274286000000.0 455268000000.0 522493000000.0 896337000000.0 1.00166e+12 937542000000.0 1.22244e+12 625912000000.0 206697000000.0 874877000000.0 62814000000.0 780343000000.0 667271000000.0 607160000000.0 514658000000.0 406866000000.0 355800000000.0 380479000000.0 334364000000.0 250580000000.0 240264000000.0 349257000000.0 536872000000.0 666847000000.0 579551000000.0 444290000000.0 304967000000.0 157348000000.0 247651000000.0 393884000000.0 401452000000.0 695103000000.0 779732000000.0 465653000000.0 730389000000.0 440219000000.0 541399000000.0 417540000000.0 107737000000.0 70883700000.0 65646700000.0 199745000000.0 311674000000.0 386536000000.0 433477000000.0 472404000000.0 521356000000.0 584559000000.0 734295000000.0 769085000000.0 663868000000.0 570044000000.0 478019000000.0 402540000000.0 845742000000.0 1.25358e+12 137846000000.0 792106000000.0 894520000000.0 926467000000.0 1.14249e+12 765727000000.0 207803000000.0 933838000000.0 619774000000.0 470459000000.0 510829000000.0 435287000000.0 347626000000.0 339357000000.0 214150000000.0 324487000000.0 3304990000.0 278645000000.0 199486000000.0 135599000000.0 187751000000.0 175172000000.0 262956000000.0 244875000000.0 226295000000.0 646286000000.0 890420000000.0 1.40823e+12 202702000000.0 298302000000.0 443011000000.0 294668000000.0 1.41131e+12 838114000000.0 21701900000.0 482943000000.0 551919000000.0 549988000000.0 491493000000.0 411563000000.0 350391000000.0 308623000000.0 237663000000.0 205667000000.0 261584000000.0 393533000000.0 535116000000.0 597508000000.0 522152000000.0 395819000000.0 263817000000.0 145567000000.0 22101200000.0 368795000000.0 208149000000.0 88600200000.0 11713400000.0 138395000000.0 248299000000.0 330661000000.0 390230000000.0 441676000000.0 663866000000.0 753309000000.0 847192000000.0 932828000000.0 657901000000.0 492837000000.0 474935000000.0 714712000000.0 949289000000.0 881668000000.0 1.08119e+12 1.13392e+12 1.08201e+12 1.01591e+12 719758000000.0 900198000000.0 995904000000.0 692216000000.0 553525000000.0 483909000000.0 275180000000.0 108962000000.0 23839400000.0 319836000000.0 746573000000.0 197187000000.0 137409000000.0 109836000000.0 159774000000.0 145284000000.0 142031000000.0 198451000000.0 182500000000.0 491189000000.0 311903000000.0 1.14803e+12 321677000000.0 224886000000.0 623406000000.0 545732000000.0 233149000000.0 439906000000.0 503374000000.0 504605000000.0 458671000000.0 388595000000.0 315246000000.0 239323000000.0 154485000000.0 161650000000.0 275856000000.0 426318000000.0 534890000000.0 544744000000.0 456160000000.0 329234000000.0 197042000000.0 64937800000.0 79904300000.0 195428000000.0 317305000000.0 381925000000.0 503717000000.0 603695000000.0 622207000000.0 544832000000.0 559748000000.0 436561000000.0 439367000000.0 358464000000.0 277276000000.0 150858000000.0 32502900000.0 76902900000.0 181461000000.0 265927000000.0 334190000000.0 495633000000.0 557924000000.0 628875000000.0 710785000000.0 808816000000.0 951271000000.0 1.25055e+12 561591000000.0 506109000000.0 633153000000.0 865478000000.0 898628000000.0 628633000000.0 942330000000.0 1.1871e+12 1.13166e+12 987843000000.0 748140000000.0 162592000000.0 1.04581e+12 943834000000.0 701406000000.0 564891000000.0 472433000000.0 328275000000.0 351117000000.0 39185300000.0 73752800000.0 707937000000.0 424023000000.0 36425300000.0 71002900000.0 89563100000.0 96676600000.0 138515000000.0 167964000000.0 299978000000.0 845677000000.0 904523000000.0 243404000000.0 529531000000.0 44644900000.0 68799400000.0 419767000000.0 422806000000.0 329466000000.0 430472000000.0 472911000000.0 105968000000.0 301792000000.0 475059000000.0 524355000000.0 477675000000.0 369276000000.0 239767000000.0 108533000000.0 21782700000.0 137500000000.0 247325000000.0 331615000000.0 420731000000.0 496916000000.0 547982000000.0 554469000000.0 499498000000.0 467124000000.0 400059000000.0 362428000000.0 286203000000.0 195826000000.0 84751800000.0 22561600000.0 118249000000.0 394466000000.0 453345000000.0 514630000000.0 579486000000.0 642564000000.0 699318000000.0 743383000000.0 789615000000.0 1.07187e+12 21865500000.0 367932000000.0 724061000000.0 918353000000.0 907650000000.0 1.04015e+12 1.13055e+12 1.17419e+12 1.05184e+12 856926000000.0 585007000000.0 862251000000.0 966958000000.0 839318000000.0 679757000000.0 468817000000.0 443224000000.0 778395000000.0 1.27503e+12 283541000000.0 27008200000.0 170937000000.0 174081000000.0 133815000000.0 433723000000.0 88149800000.0 50607500000.0 46754800000.0 117850000000.0 240631000000.0 445092000000.0 876903000000.0 1.13038e+12 438203000000.0 459234000000.0 195981000000.0 214124000000.0 369386000000.0 469018000000.0 426199000000.0 358518000000.0 276426000000.0 177066000000.0 49867400000.0 388533000000.0 497489000000.0 467665000000.0 378895000000.0 263607000000.0 142092000000.0 23265300000.0 85502100000.0 185756000000.0 271731000000.0 351250000000.0 418911000000.0 469809000000.0 496189000000.0 482545000000.0 439860000000.0 399498000000.0 344587000000.0 289471000000.0 212828000000.0 123693000000.0 203110000000.0 276467000000.0 342510000000.0 405875000000.0 468655000000.0 531511000000.0 592988000000.0 646056000000.0 680440000000.0 690274000000.0 717579000000.0 624648000000.0 355424000000.0 441310000000.0 870490000000.0 1.09533e+12 1.15381e+12 1.19766e+12 1.21348e+12 1.11353e+12 965579000000.0 798576000000.0 884563000000.0 976713000000.0 831182000000.0 704003000000.0 550265000000.0 147767000000.0 319988000000.0 844151000000.0 853967000000.0 311252000000.0 199176000000.0 10837200000.0 182265000000.0 45531600000.0 148835000000.0 760406000000.0 922234000000.0 837180000000.0 80909600000.0 58617900000.0 58440600000.0 273866000000.0 511976000000.0 861681000000.0 1.11744e+12 933041000000.0 391496000000.0 377420000000.0 430871000000.0 454432000000.0 444372000000.0 403662000000.0 338576000000.0 250069000000.0 121332000000.0 110801000000.0 44615200000.0 160702000000.0 56330300000.0 41248900000.0 131333000000.0 212008000000.0 285108000000.0 348160000000.0 397899000000.0 429876000000.0 436044000000.0 415453000000.0 378061000000.0 334935000000.0 26483000000.0 65279100000.0 147358000000.0 221835000000.0 290282000000.0 355234000000.0 418749000000.0 483878000000.0 551840000000.0 616960000000.0 666458000000.0 675281000000.0 631555000000.0 552611000000.0 104911000000.0 558403000000.0 1.20794e+12 1.23089e+12 1.23918e+12 1.23641e+12 1.2022e+12 923281000000.0 915473000000.0 941283000000.0 909871000000.0 609051000000.0 419527000000.0 11702900000.0 161703000000.0 147777000000.0 153416000000.0 441425000000.0 253479000000.0 354908000000.0 77003600000.0 175501000000.0 8666420000.0 151528000000.0 167558000000.0 96069300000.0 38559000000.0 100752000000.0 105692000000.0 84404500000.0 115498000000.0 497792000000.0 188733000000.0 251312000000.0 517686000000.0 831263000000.0 1.06813e+12 1.12937e+12 886340000000.0 559629000000.0 461418000000.0 309340000000.0 309882000000.0 376856000000.0 397099000000.0 405317000000.0 434882000000.0 446233000000.0 433860000000.0 398782000000.0 342880000000.0 260667000000.0 123215000000.0 297110000000.0 70593500000.0 422558000000.0 439528000000.0 366050000000.0 266745000000.0 280953000000.0 219192000000.0 144399000000.0 62362900000.0 21493800000.0 100374000000.0 172703000000.0 240364000000.0 305009000000.0 368970000000.0 434048000000.0 502213000000.0 571067000000.0 632654000000.0 674384000000.0 724033000000.0 759243000000.0 703681000000.0 191290000000.0 408297000000.0 1.41437e+12 1.26033e+12 1.24064e+12 1.22387e+12 1.19644e+12 1.13728e+12 1.03924e+12 946047000000.0 922823000000.0 871027000000.0 763414000000.0 391070000000.0 208444000000.0 141000000000.0 103649000000.0 413147000000.0 404208000000.0 562736000000.0 159236000000.0 26553200000.0 23055900000.0 123645000000.0 97600700000.0 70372200000.0 149387000000.0 274276000000.0 390138000000.0 507712000000.0 329787000000.0 127085000000.0 466853000000.0 784909000000.0 1.01933e+12 1.14873e+12 1.07109e+12 857187000000.0 616527000000.0 491501000000.0 387721000000.0 373627000000.0 399215000000.0 412666000000.0 423369000000.0 439865000000.0 445045000000.0 434533000000.0 407516000000.0 361254000000.0 280174000000.0 101329000000.0 380712000000.0 249526000000.0 419298000000.0 361072000000.0 267468000000.0 172479000000.0 82120800000.0 2191930000.0 80955900000.0 153733000000.0 220416000000.0 279415000000.0 328129000000.0 363057000000.0 379404000000.0 374662000000.0 351240000000.0 314985000000.0 270278000000.0 216050000000.0 153881000000.0 84007000000.0 10489400000.0 62441500000.0 131267000000.0 196360000000.0 259781000000.0 322180000000.0 383952000000.0 447906000000.0 513925000000.0 790885000000.0 129229000000.0 147773000000.0 1.20059e+12 1.1203e+12 1.11273e+12 1.12571e+12 1.11218e+12 1.06031e+12 985762000000.0 921836000000.0 848174000000.0 729046000000.0 568510000000.0 247784000000.0 271947000000.0 224229000000.0 150193000000.0 229931000000.0 638966000000.0 630193000000.0 131121000000.0 32640300000.0 103336000000.0 88597000000.0 72546900000.0 79059400000.0 150240000000.0 350998000000.0 548070000000.0 492539000000.0 271795000000.0 17453800000.0 407901000000.0 739945000000.0 1.13231e+12 1.12434e+12 1.01205e+12 824521000000.0 636927000000.0 518097000000.0 438465000000.0 415216000000.0 419493000000.0 425731000000.0 433702000000.0 443288000000.0 446034000000.0 438236000000.0 416541000000.0 371312000000.0 273818000000.0 89902200000.0 491895000000.0 449155000000.0 315870000000.0 205830000000.0 116658000000.0 40522900000.0 29015800000.0 94020900000.0 154921000000.0 210421000000.0 258202000000.0 295315000000.0 318225000000.0 324379000000.0 313684000000.0 288504000000.0 252187000000.0 207121000000.0 154162000000.0 95014200000.0 31195800000.0 34257600000.0 98451200000.0 160263000000.0 220654000000.0 579018000000.0 657506000000.0 727961000000.0 815274000000.0 921061000000.0 683178000000.0 1.65552e+12 778962000000.0 920632000000.0 993606000000.0 1.01168e+12 987889000000.0 958747000000.0 845002000000.0 727740000000.0 561505000000.0 373746000000.0 558789000000.0 340991000000.0 91119400000.0 152338000000.0 718289000000.0 561949000000.0 655458000000.0 18863300000.0 155202000000.0 29091500000.0 86830600000.0 77683900000.0 72496400000.0 54007300000.0 108644000000.0 323860000000.0 520294000000.0 678331000000.0 1.06808e+12 6830740000.0 409238000000.0 737665000000.0 990908000000.0 1.11657e+12 1.12919e+12 1.06885e+12 946768000000.0 786400000000.0 635453000000.0 530727000000.0 464554000000.0 437312000000.0 431156000000.0 431791000000.0 436064000000.0 307772000000.0 711817000000.0 494277000000.0 308040000000.0 187388000000.0 103142000000.0 34411600000.0 27353000000.0 85176900000.0 138840000000.0 186562000000.0 225848000000.0 253903000000.0 268376000000.0 268208000000.0 254006000000.0 227671000000.0 191527000000.0 147551000000.0 97284000000.0 42445300000.0 15426600000.0 280292000000.0 339906000000.0 401085000000.0 465915000000.0 532054000000.0 597546000000.0 661652000000.0 747573000000.0 860363000000.0 851910000000.0 503927000000.0 524109000000.0 287772000000.0 542579000000.0 721598000000.0 839256000000.0 914519000000.0 945690000000.0 945066000000.0 913894000000.0 581596000000.0 394081000000.0 233594000000.0 431723000000.0 214393000000.0 322449000000.0 779332000000.0 919073000000.0 467945000000.0 179605000000.0 47124800000.0 143625000000.0 34940200000.0 30680900000.0 61957800000.0 76308200000.0 39673300000.0 88319900000.0 153416000000.0 242656000000.0 448964000000.0 666302000000.0 656069000000.0 128388000000.0 452886000000.0 802568000000.0 973043000000.0 1.11732e+12 1.11463e+12 1.07383e+12 991137000000.0 872140000000.0 736566000000.0 615342000000.0 527870000000.0 441474000000.0 442873000000.0 436286000000.0 415497000000.0 367292000000.0 276476000000.0 149369000000.0 131756000000.0 860077000000.0 538201000000.0 328143000000.0 206316000000.0 121675000000.0 53736700000.0 6774690000.0 62120100000.0 111778000000.0 154131000000.0 187055000000.0 208541000000.0 217279000000.0 213048000000.0 196725000000.0 74211100000.0 132040000000.0 189050000000.0 246523000000.0 303814000000.0 360251000000.0 417985000000.0 477520000000.0 538141000000.0 600028000000.0 657353000000.0 703811000000.0 679592000000.0 427576000000.0 267385000000.0 285324000000.0 820348000000.0 502889000000.0 571574000000.0 827291000000.0 882469000000.0 909530000000.0 903665000000.0 852440000000.0 742620000000.0 408038000000.0 124274000000.0 791235000000.0 418571000000.0 146278000000.0 79374200000.0 328027000000.0 269825000000.0 254304000000.0 178929000000.0 406313000000.0 78910600000.0 151100000000.0 174665000000.0 134965000000.0 67806700000.0 54169100000.0 11423500000.0 51480600000.0 84911300000.0 49493700000.0 163425000000.0 334286000000.0 569904000000.0 642036000000.0 761184000000.0 1.26907e+12 121816000000.0 923744000000.0 1.06117e+12 1.05059e+12 1.03264e+12 978851000000.0 894458000000.0 471724000000.0 443050000000.0 431186000000.0 427657000000.0 428667000000.0 431020000000.0 430705000000.0 423596000000.0 404106000000.0 367703000000.0 318214000000.0 266215000000.0 87133400000.0 912827000000.0 169925000000.0 134581000000.0 92629200000.0 45761900000.0 4711230000.0 57729700000.0 111637000000.0 164915000000.0 217878000000.0 271861000000.0 326895000000.0 381752000000.0 436056000000.0 487970000000.0 533129000000.0 576985000000.0 621336000000.0 598462000000.0 454154000000.0 169355000000.0 388145000000.0 768689000000.0 857356000000.0 682688000000.0 679902000000.0 751716000000.0 877023000000.0 885780000000.0 850450000000.0 763049000000.0 607763000000.0 32780800000.0 889554000000.0 46640300000.0 193441000000.0 34492700000.0 59602900000.0 162073000000.0 118058000000.0 153315000000.0 39840100000.0 3435400000.0 93559700000.0 148279000000.0 32473200000.0 95587900000.0 178564000000.0 426475000000.0 755142000000.0 992412000000.0 460025000000.0 1.24162e+12 721286000000.0 809362000000.0 914275000000.0 956612000000.0 954996000000.0 925283000000.0 788801000000.0 677980000000.0 581402000000.0 509828000000.0 461904000000.0 433772000000.0 418951000000.0 412049000000.0 409790000000.0 409260000000.0 407324000000.0 401238000000.0 391047000000.0 384078000000.0 394678000000.0 429390000000.0 297476000000.0 566522000000.0 368216000000.0 243808000000.0 155882000000.0 84239300000.0 21894900000.0 32937000000.0 80026900000.0 118277000000.0 146271000000.0 162841000000.0 167495000000.0 160535000000.0 142960000000.0 116264000000.0 82255100000.0 42743000000.0 895231000.0 47749300000.0 96825700000.0 146704000000.0 196626000000.0 247147000000.0 298324000000.0 349083000000.0 399534000000.0 447998000000.0 489528000000.0 521171000000.0 543003000000.0 542361000000.0 480250000000.0 373460000000.0 482126000000.0 703483000000.0 863050000000.0 873729000000.0 783002000000.0 763201000000.0 793194000000.0 839408000000.0 839983000000.0 776903000000.0 629944000000.0 381296000000.0 953587000000.0 447376000000.0 142677000000.0 35836000000.0 48321500000.0 238077000000.0 45349000000.0 106610000000.0 44177900000.0 29735600000.0 59998800000.0 60915900000.0 362108000000.0 257476000000.0 627955000000.0 683539000000.0 584554000000.0 1.03251e+12 30524100000.0 576530000000.0 761776000000.0 875955000000.0 869720000000.0 866330000000.0 786548000000.0 697270000000.0 610661000000.0 536704000000.0 479557000000.0 438244000000.0 410802000000.0 393975000000.0 384424000000.0 379285000000.0 376097000000.0 372998000000.0 371071000000.0 377394000000.0 406654000000.0 889399000000.0 592136000000.0 402654000000.0 280670000000.0 188454000000.0 113090000000.0 49456600000.0 4340420000.0 48631400000.0 82961500000.0 106650000000.0 119245000000.0 120791000000.0 111874000000.0 93571900000.0 67357800000.0 34863200000.0 2421710000.0 43385000000.0 87233400000.0 132990000000.0 179462000000.0 226410000000.0 274620000000.0 323453000000.0 480513000000.0 461465000000.0 527449000000.0 672648000000.0 809224000000.0 884132000000.0 880744000000.0 832593000000.0 815647000000.0 828621000000.0 849900000000.0 857875000000.0 755802000000.0 648357000000.0 417349000000.0 51534900000.0 960518000000.0 516416000000.0 208279000000.0 34722900000.0 162824000000.0 243315000000.0 166564000000.0 34823600000.0 96172700000.0 83071500000.0 85903900000.0 355905000000.0 486357000000.0 586980000000.0 716773000000.0 237251000000.0 635656000000.0 199889000000.0 630172000000.0 758581000000.0 794135000000.0 848976000000.0 806219000000.0 743074000000.0 672065000000.0 602897000000.0 539711000000.0 484425000000.0 438308000000.0 401824000000.0 375166000000.0 357423000000.0 346087000000.0 338548000000.0 483695000000.0 635573000000.0 439795000000.0 801133000000.0 566044000000.0 413908000000.0 297951000000.0 206371000000.0 131874000000.0 70329500000.0 19726600000.0 20598400000.0 50627300000.0 70181300000.0 79260400000.0 78218300000.0 67811800000.0 49144500000.0 23537700000.0 7617320000.0 43060700000.0 370372000000.0 413483000000.0 451458000000.0 481570000000.0 502768000000.0 500996000000.0 883047000000.0 879974000000.0 852162000000.0 834896000000.0 833417000000.0 831729000000.0 810624000000.0 423574000000.0 10081800000.0 400165000000.0 213260000000.0 131381000000.0 446256000000.0 353158000000.0 95975200000.0 119869000000.0 313870000000.0 485627000000.0 487443000000.0 545040000000.0 562177000000.0 429729000000.0 495428000000.0 768366000000.0 729926000000.0 675714000000.0 609969000000.0 552760000000.0 507041000000.0 466254000000.0 426387000000.0 387697000000.0 333100000000.0 329701000000.0 332119000000.0 349816000000.0 398333000000.0 500490000000.0 741440000000.0 432073000000.0 667810000000.0 520069000000.0 392010000000.0 289313000000.0 206433000000.0 138635000000.0 82960800000.0 37866400000.0 2759230000.0 81873600000.0 123355000000.0 166567000000.0 210433000000.0 254601000000.0 299254000000.0 343706000000.0 385824000000.0 421883000000.0 448334000000.0 466858000000.0 477070000000.0 478217000000.0 481107000000.0 538730000000.0 645365000000.0 757771000000.0 842266000000.0 860533000000.0 838785000000.0 820497000000.0 802207000000.0 766651000000.0 703312000000.0 598704000000.0 929258000000.0 687120000000.0 395512000000.0 306794000000.0 344159000000.0 285693000000.0 75811800000.0 205341000000.0 24180500000.0 359776000000.0 494087000000.0 419856000000.0 608294000000.0 661247000000.0 645931000000.0 597343000000.0 534375000000.0 465579000000.0 428952000000.0 354270000000.0 329681000000.0 312765000000.0 300602000000.0 291090000000.0 283553000000.0 279809000000.0 285376000000.0 309752000000.0 369712000000.0 507410000000.0 753694000000.0 308992000000.0 22487000000.0 37920900000.0 43748800000.0 40457600000.0 28832500000.0 9894150000.0 15187700000.0 45225200000.0 79198400000.0 116363000000.0 156057000000.0 197367000000.0 239236000000.0 280807000000.0 321141000000.0 359250000000.0 394165000000.0 423602000000.0 443179000000.0 454075000000.0 464520000000.0 483246000000.0 530230000000.0 611067000000.0 705180000000.0 787661000000.0 843225000000.0 866301000000.0 797279000000.0 769809000000.0 719993000000.0 639511000000.0 506567000000.0 294275000000.0 118503000000.0 661260000000.0 733310000000.0 493266000000.0 254320000000.0 420884000000.0 39068900000.0 179198000000.0 131570000000.0 128888000000.0 376320000000.0 626614000000.0 130622000000.0 367372000000.0 521486000000.0 576964000000.0 534729000000.0 462546000000.0 412422000000.0 393633000000.0 363224000000.0 328045000000.0 299664000000.0 279662000000.0 264815000000.0 252583000000.0 241844000000.0 233206000000.0 229822000000.0 238447000000.0 270815000000.0 348604000000.0 494840000000.0 710142000000.0 471289000000.0 413599000000.0 333439000000.0 257579000000.0 191395000000.0 135170000000.0 88279100000.0 50327800000.0 21229800000.0 1012690000.0 10374500000.0 13176200000.0 7870030000.0 4838190000.0 24054600000.0 48780200000.0 78026300000.0 110943000000.0 146863000000.0 185108000000.0 224750000000.0 264636000000.0 303385000000.0 339331000000.0 370944000000.0 398119000000.0 421365000000.0 439338000000.0 451846000000.0 471281000000.0 512029000000.0 573628000000.0 649031000000.0 723129000000.0 781486000000.0 818152000000.0 830734000000.0 820820000000.0 583897000000.0 454638000000.0 243939000000.0 112448000000.0 395444000000.0 605251000000.0 398351000000.0 314971000000.0 205415000000.0 335829000000.0 169005000000.0 3818330000.0 82209200000.0 139943000000.0 204045000000.0 269958000000.0 133443000000.0 512066000000.0 396985000000.0 489645000000.0 544862000000.0 556197000000.0 391872000000.0 306332000000.0 300348000000.0 323052000000.0 320353000000.0 291262000000.0 264464000000.0 246164000000.0 232098000000.0 219566000000.0 207409000000.0 196138000000.0 188094000000.0 187895000000.0 203589000000.0 248696000000.0 180712000000.0 324511000000.0 311159000000.0 267607000000.0 217278000000.0 168820000000.0 125376000000.0 88193200000.0 57935800000.0 35042200000.0 19778500000.0 12219900000.0 12216300000.0 19380900000.0 33119800000.0 52687800000.0 77258900000.0 106012000000.0 138207000000.0 173164000000.0 210099000000.0 247981000000.0 285483000000.0 320989000000.0 352638000000.0 379019000000.0 400409000000.0 419133000000.0 437779000000.0 458558000000.0 488291000000.0 534608000000.0 593793000000.0 656298000000.0 712225000000.0 752111000000.0 771496000000.0 763962000000.0 740160000000.0 713641000000.0 663601000000.0 235417000000.0 70016100000.0 517162000000.0 408702000000.0 255213000000.0 109081000000.0 145597000000.0 38703300000.0 51685500000.0 22164000000.0 329680000000.0 616853000000.0 585287000000.0 585400000000.0 436639000000.0 334565000000.0 260232000000.0 98213500000.0 162207000000.0 239443000000.0 235101000000.0 219945000000.0 211583000000.0 203067000000.0 193078000000.0 338205000000.0 485534000000.0 636056000000.0 71316000000.0 213340000000.0 223738000000.0 205658000000.0 176014000000.0 143378000000.0 112037000000.0 84285600000.0 61477100000.0 44468500000.0 33799300000.0 29738100000.0 32286200000.0 41188900000.0 55977800000.0 644589000000.0 686038000000.0 707541000000.0 705016000000.0 682947000000.0 654857000000.0 611787000000.0 538560000000.0 419860000000.0 278917000000.0 254551000000.0 42263300000.0 45372700000.0 188569000000.0 70563300000.0 56091200000.0 470552000000.0 364368000000.0 589584000000.0 562558000000.0 569717000000.0 332008000000.0 224661000000.0 146832000000.0 246114000000.0 6119730000.0 142883000000.0 181458000000.0 169223000000.0 158671000000.0 153631000000.0 160090000000.0 186720000000.0 242912000000.0 336182000000.0 462014000000.0 540860000000.0 16476600000.0 127383000000.0 151795000000.0 76031900000.0 100652000000.0 129127000000.0 160764000000.0 194837000000.0 230441000000.0 266384000000.0 301204000000.0 333295000000.0 361118000000.0 383852000000.0 402301000000.0 419480000000.0 439531000000.0 465828000000.0 500163000000.0 543799000000.0 594321000000.0 648711000000.0 627406000000.0 596577000000.0 558694000000.0 494856000000.0 390346000000.0 229932000000.0 33582800000.0 159938000000.0 404684000000.0 410651000000.0 18395000000.0 56807300000.0 17950100000.0 13411000000.0 169018000000.0 350212000000.0 607163000000.0 567807000000.0 487425000000.0 515257000000.0 160530000000.0 102175000000.0 165660000000.0 179712000000.0 180928000000.0 175069000000.0 164842000000.0 152371000000.0 140291000000.0 132203000000.0 132866000000.0 148286000000.0 184471000000.0 245637000000.0 329665000000.0 423697000000.0 438747000000.0 151131000000.0 137313000000.0 117777000000.0 96973500000.0 77603000000.0 61410700000.0 49603500000.0 42995300000.0 42061100000.0 46949400000.0 57516700000.0 73391400000.0 94046600000.0 118864000000.0 147187000000.0 178326000000.0 211486000000.0 245662000000.0 279579000000.0 311787000000.0 340846000000.0 365748000000.0 386407000000.0 404193000000.0 422105000000.0 442911000000.0 469789000000.0 503598000000.0 541223000000.0 583790000000.0 625376000000.0 647451000000.0 505227000000.0 446382000000.0 356123000000.0 221653000000.0 27352700.0 51040700000.0 285244000000.0 363357000000.0 241768000000.0 48853700000.0 20073700000.0 87096300000.0 161148000000.0 218696000000.0 360555000000.0 536878000000.0 569437000000.0 518123000000.0 396059000000.0 455312000000.0 40077600000.0 360816000000.0 189468000000.0 181786000000.0 185180000000.0 180212000000.0 171578000000.0 159609000000.0 145533000000.0 131657000000.0 121160000000.0 117773000000.0 125522000000.0 148277000000.0 189016000000.0 246769000000.0 313699000000.0 374375000000.0 339404000000.0 83020000000.0 60657100000.0 93665800000.0 104744000000.0 102597000000.0 93347600000.0 81070500000.0 68552600000.0 57795600000.0 50305800000.0 47170000000.0 49034600000.0 56129900000.0 68351000000.0 85362200000.0 106684000000.0 131756000000.0 159958000000.0 190583000000.0 222785000000.0 255518000000.0 287552000000.0 317572000000.0 344433000000.0 367516000000.0 387233000000.0 405366000000.0 424755000000.0 444864000000.0 468728000000.0 500531000000.0 534683000000.0 574778000000.0 591485000000.0 590030000000.0 570777000000.0 538457000000.0 210188000000.0 33704700000.0 30469000000.0 197247000000.0 314375000000.0 210801000000.0 74109900000.0 14244500000.0 2099540000.0 3095720000.0 35558600000.0 81114400000.0 348698000000.0 488949000000.0 530939000000.0 458587000000.0 143466000000.0 179087000000.0 10148200000.0 359178000000.0 271600000000.0 215025000000.0 187497000000.0 167230000000.0 148510000000.0 131349000000.0 118100000000.0 111296000000.0 130665000000.0 9174330000.0 47118000000.0 65909900000.0 72037500000.0 70332900000.0 64380400000.0 56954400000.0 50307600000.0 46250400000.0 46088000000.0 50534600000.0 59778200000.0 73671500000.0 91871300000.0 113914000000.0 139254000000.0 167286000000.0 197329000000.0 228561000000.0 424373000000.0 440804000000.0 458595000000.0 487979000000.0 521853000000.0 532350000000.0 529425000000.0 511942000000.0 480584000000.0 446192000000.0 394724000000.0 319295000000.0 108423000000.0 23936500000.0 55061800000.0 73671100000.0 154402000000.0 96002200000.0 358592000000.0 433359000000.0 336145000000.0 303192000000.0 55956200000.0 84241600000.0 291662000000.0 245992000000.0 209273000000.0 113228000000.0 126601000000.0 153544000000.0 193146000000.0 240789000000.0 287370000000.0 317955000000.0 248224000000.0 162988000000.0 30498000000.0 9848470000.0 33416500000.0 44900200000.0 48075400000.0 46147600000.0 42019400000.0 259989000000.0 290502000000.0 318981000000.0 344460000000.0 366424000000.0 385229000000.0 403097000000.0 465559000000.0 469338000000.0 453610000000.0 423594000000.0 387646000000.0 342419000000.0 280768000000.0 196842000000.0 63821700000.0 81760500000.0 99537200000.0 255457000000.0 162049000000.0 27637400000.0 27717600000.0 137195000000.0 173141000000.0 6492830000.0 473564000000.0 379478000000.0 209568000000.0 60257100000.0 98968000000.0 114174000000.0 63419700000.0 182565000000.0 158859000000.0 137413000000.0 120474000000.0 110006000000.0 107563000000.0 114694000000.0 131832000000.0 158102000000.0 191211000000.0 225513000000.0 251928000000.0 257776000000.0 167537000000.0 38295300000.0 37055800000.0 39620400000.0 46556300000.0 57937300000.0 73538900000.0 92962200000.0 115712000000.0 141265000000.0 169074000000.0 198512000000.0 228839000000.0 259208000000.0 288658000000.0 316132000000.0 340549000000.0 361015000000.0 377350000000.0 392501000000.0 418150000000.0 428119000000.0 431568000000.0 470775000000.0 335507000000.0 297952000000.0 244111000000.0 180577000000.0 88085700000.0 100185000000.0 55093800000.0 186628000000.0 144978000000.0 118405000000.0 45793500000.0 38025300000.0 64239900000.0 95513700000.0 19029400000.0 332179000000.0 292406000000.0 431859000000.0 305654000000.0 145726000000.0 40166700000.0 4720750000.0 39928800000.0 248773000000.0 229699000000.0 199911000000.0 172955000000.0 146896000000.0 125294000000.0 111200000000.0 105765000000.0 109067000000.0 119519000000.0 136024000000.0 157341000000.0 180610000000.0 200495000000.0 209013000000.0 196366000000.0 97610300000.0 184012000000.0 61212800000.0 20356900000.0 5556100000.0 19702800000.0 25036600000.0 24778300000.0 22391700000.0 20940400000.0 22426000000.0 27759900000.0 37254500000.0 50826600000.0 68138200000.0 88728600000.0 112113000000.0 137808000000.0 165317000000.0 194128000000.0 223673000000.0 253253000000.0 281966000000.0 308608000000.0 331568000000.0 348760000000.0 357676000000.0 360096000000.0 382352000000.0 378635000000.0 405916000000.0 412391000000.0 407079000000.0 401021000000.0 370865000000.0 164263000000.0 101515000000.0 24396300000.0 131275000000.0 101525000000.0 132815000000.0 37466000000.0 55642200000.0 11233800000.0 36744100000.0 8079420000.0 258218000000.0 259362000000.0 419133000000.0 101810000000.0 7095130000.0 53183000000.0 26223700000.0 206166000000.0 205659000000.0 183825000000.0 155464000000.0 129628000000.0 112749000000.0 105529000000.0 106600000000.0 113039000000.0 123134000000.0 135342000000.0 148691000000.0 160631000000.0 166538000000.0 160158000000.0 135287000000.0 37625700000.0 197619000000.0 85815300000.0 45935300000.0 19812900000.0 5794820000.0 1190610000.0 1875340000.0 3262750000.0 2217670000.0 2328880000.0 10705400000.0 22903900000.0 38692600000.0 57687300000.0 79412200000.0 103361000000.0 129063000000.0 156134000000.0 184249000000.0 213053000000.0 241972000000.0 269962000000.0 295423000000.0 316183000000.0 329459000000.0 332000000000.0 324241000000.0 344416000000.0 342031000000.0 352503000000.0 353165000000.0 349319000000.0 329858000000.0 290918000000.0 262875000000.0 218598000000.0 108334000000.0 43582500000.0 36003400000.0 42540900000.0 94704300000.0 72044800000.0 42389200000.0 58147300000.0 183379000000.0 188607000000.0 45060300000.0 7014990000.0 29762500000.0 39579400000.0 172220000000.0 182280000000.0 157937000000.0 207847000000.0 107317000000.0 69295300000.0 45381000000.0 35109800000.0 34204400000.0 35900500000.0 35155800000.0 30888900000.0 22833400000.0 11167800000.0 290843000000.0 299687000000.0 296809000000.0 279103000000.0 246926000000.0 227401000000.0 199296000000.0 159492000000.0 122146000000.0 77102300000.0 8488870000.0 92536900000.0 91126200000.0 108134000000.0 16189300000.0 53193100000.0 92686200000.0 92034000000.0 96539700000.0 79657300000.0 385916000000.0 3856750000.0 45686300000.0 52914200000.0 30384500000.0 45610800000.0 130002000000.0 112628000000.0 104191000000.0 104931000000.0 111510000000.0 116770000000.0 121302000000.0 126483000000.0 130940000000.0 131576000000.0 124853000000.0 107238000000.0 75721200000.0 14138300000.0 3837920000.0 21902200000.0 42603700000.0 65412100000.0 89838500000.0 115404000000.0 141819000000.0 169028000000.0 196937000000.0 224931000000.0 251349000000.0 273651000000.0 288414000000.0 289671000000.0 276984000000.0 282702000000.0 295867000000.0 199618000000.0 195930000000.0 171153000000.0 145805000000.0 121122000000.0 4263220000.0 7645600000.0 68021600000.0 68681700000.0 81386600000.0 40133500000.0 26483900000.0 28743900000.0 16472400000.0 74583600000.0 122023000000.0 193378000000.0 283033000000.0 176238000000.0 58207300000.0 22350000000.0 46461900000.0 13513700000.0 140225000000.0 144459000000.0 120978000000.0 107365000000.0 98510000000.0 104824000000.0 115318000000.0 116533000000.0 114539000000.0 111440000000.0 108163000000.0 103686000000.0 94746400000.0 77858200000.0 51806000000.0 17347900000.0 60153100000.0 218624000000.0 128129000000.0 93098900000.0 75700500000.0 74123000000.0 77794900000.0 77150400000.0 72586900000.0 64304100000.0 52441200000.0 37303500000.0 19336600000.0 1052150000.0 23438200000.0 47339100000.0 72220200000.0 97445000000.0 122841000000.0 148810000000.0 175536000000.0 201799000000.0 224439000000.0 239645000000.0 241523000000.0 232147000000.0 230390000000.0 235517000000.0 239941000000.0 240321000000.0 248506000000.0 234732000000.0 91936700000.0 48352400000.0 55429100000.0 32490900000.0 29032700000.0 27011300000.0 4897200000.0 128155000000.0 131800000000.0 97280000000.0 199241000000.0 153931000000.0 81798800000.0 15676200000.0 45467800000.0 31959200000.0 94535000000.0 89378900000.0 102476000000.0 91473900000.0 103962000000.0 125735000000.0 121065000000.0 111187000000.0 102397000000.0 93063200000.0 82866300000.0 70028300000.0 52232000000.0 27311600000.0 4793740000.0 40371700000.0 103571000000.0 234449000000.0 150907000000.0 122007000000.0 120461000000.0 130232000000.0 129564000000.0 123930000000.0 114391000000.0 101576000000.0 85670600000.0 66961100000.0 45963600000.0 23158500000.0 1060720000.0 26204300000.0 51610500000.0 76199700000.0 100120000000.0 124752000000.0 149818000000.0 172637000000.0 188284000000.0 192393000000.0 187741000000.0 183852000000.0 180527000000.0 184015000000.0 184490000000.0 189939000000.0 182669000000.0 148964000000.0 138709000000.0 143001000000.0 114089000000.0 34335500000.0 7287500000.0 49130600000.0 17247300000.0 14953200000.0 46538800000.0 86756800000.0 95093500000.0 92594400000.0 76984700000.0 74260800000.0 106588000000.0 44882100000.0 48027800000.0 135929000000.0 150771000000.0 172488000000.0 151675000000.0 99396000000.0 45891500000.0 98042000000.0 113330000000.0 114763000000.0 261851000000.0 179089000000.0 171638000000.0 197068000000.0 194029000000.0 185631000000.0 173742000000.0 159054000000.0 141731000000.0 121749000000.0 99411400000.0 75308400000.0 131618000000.0 130285000000.0 131767000000.0 129695000000.0 141430000000.0 106137000000.0 88529300000.0 90775400000.0 89177900000.0 39998200000.0 31557200000.0 5170770000.0 21346000000.0 23386100000.0 26382500000.0 18209100000.0 6300610000.0 65785100000.0 70370600000.0 90312900000.0 98468000000.0 44153700000.0 53242000000.0 33158700000.0 1249530000.0 22059200000.0 32248500000.0 111480000000.0 143134000000.0 125881000000.0 106215000000.0 92974800000.0 80538800000.0 67571500000.0 52478100000.0 33671600000.0 8810810000.0 23041400000.0 60504900000.0 98459000000.0 149444000000.0 49756500000.0 23297000000.0 3487840000.0 29607500000.0 53583100000.0 76387800000.0 99520900000.0 121122000000.0 137781000000.0 142603000000.0 142295000000.0 137827000000.0 7751540000.0 49411400000.0 107992000000.0 174684000000.0 162521000000.0 118547000000.0 92355700000.0 71380200000.0 51364900000.0 36479100000.0 17954500000.0 93991900.0 1976780000.0 55236500000.0 103693000000.0 99521900000.0 20980100000.0 38983900000.0 77870100000.0 68958000000.0 82365300000.0 78440800000.0 106578000000.0 108196000000.0 90378600000.0 78946400000.0 67398900000.0 54641900000.0 39740800000.0 21517600000.0 1554990000.0 31092500000.0 67561600000.0 110213000000.0 155510000000.0 205704000000.0 310129000000.0 235474000000.0 285766000000.0 268946000000.0 253870000000.0 237215000000.0 219116000000.0 198995000000.0 176705000000.0 151751000000.0 125198000000.0 96749400000.0 67131800000.0 37301300000.0 7837560000.0 20990900000.0 45907900000.0 68781100000.0 89651800000.0 104058000000.0 109069000000.0 108505000000.0 105180000000.0 94618300000.0 88953000000.0 85769500000.0 85280000000.0 87158600000.0 57833600000.0 138086000000.0 9492550000.0 9035750000.0 67466400000.0 66227100000.0 62234600000.0 67252200000.0 64870800000.0 9099220000.0 89103900.0 66483300000.0 22604800000.0 6935280000.0 2962340000.0 2671770000.0 9670600000.0 18004200000.0 12392100000.0 48374100000.0 59060000000.0 73949000000.0 93947400000.0 83222900000.0 79158300000.0 70774800000.0 60866400000.0 48565700000.0 32949800000.0 13943900000.0 11272500000.0 43188500000.0 80216000000.0 120636000000.0 159737000000.0 216371000000.0 243120000000.0 214902000000.0 179292000000.0 147497000000.0 118683000000.0 93155000000.0 70312400000.0 49759700000.0 30059700000.0 12448000000.0 3564360000.0 17583300000.0 29027000000.0 39294800000.0 49681400000.0 55635900000.0 58254900000.0 62662100000.0 67783300000.0 70127300000.0 69825500000.0 67926600000.0 60090300000.0 54794600000.0 52793100000.0 52686000000.0 56802300000.0 48306500000.0 29396300000.0 43155600000.0 45741100000.0 7483840000.0 24253700000.0 16848200000.0 9035750000.0 9035650000.0 9977580000.0 10751700000.0 9032660000.0 9035750000.0 29166700000.0 33377500000.0 33922700000.0 32969200000.0 13481500000.0 8941720000.0 9035720000.0 9837430000.0 11873000000.0 13219700000.0 23257300000.0 25412100000.0 24785700000.0 8978000000.0 8971090000.0 9848600000.0 343259000.0 6149460000.0 73936800.0 11762000000.0 9034890000.0 9446230000.0 9566080000.0 9022710000.0 9252750000.0 9035750000.0 34866200000.0 33149200000.0 11727900000.0 16864900000.0 34013800000.0 9888370000.0 27227100000.0 32011200000.0 38418100000.0 47015700000.0 43538400000.0 45742400000.0 46950200000.0 48373200000.0 49909400000.0 50269300000.0 50300200000.0 50320300000.0 49926100000.0 49405200000.0 49234900000.0 50338400000.0 54753000000.0 24699500000.0 24500500000.0 23688000000.0 23049000000.0 22514600000.0 21619900000.0 19426100000.0 17027100000.0 14343200000.0 11279600000.0 8089960000.0 5317800000.0 2231070000.0 35316800.0 568614000.0 1526100000.0 3775450000.0 6828050000.0 9666570000.0 13011800000.0 14625100000.0 14308700000.0 12661900000.0 11581800000.0 9035750000.0 