# vtk DataFile Version 2.0
Time step 52
ASCII
DATASET UNSTRUCTURED_GRID
POINTS 4650 float
182140.0 388509.0 0
188211.0 387874.0 0
311789.0 387874.0 0
317860.0 388509.0 0
175537.0 392634.0 0
178973.0 390782.0 0
185366.0 390566.0 0
192461.0 389622.0 0
199049.0 390437.0 0
300951.0 390437.0 0
307539.0 389622.0 0
314634.0 390566.0 0
321027.0 390782.0 0
324463.0 392634.0 0
172234.0 394685.0 0
175526.0 396543.0 0
182292.0 393062.0 0
186003.0 394370.0 0
189112.0 391816.0 0
195501.0 392236.0 0
202571.0 392312.0 0
206355.0 391102.0 0
210126.0 392385.0 0
214071.0 391793.0 0
218028.0 392331.0 0
222021.0 392244.0 0
226015.0 392322.0 0
230011.0 392309.0 0
234008.0 392320.0 0
238006.0 392304.0 0
242004.0 392320.0 0
246002.0 392300.0 0
250000.0 392321.0 0
253998.0 392300.0 0
257996.0 392320.0 0
261994.0 392304.0 0
265992.0 392320.0 0
269989.0 392309.0 0
273985.0 392322.0 0
277979.0 392244.0 0
281972.0 392331.0 0
285929.0 391793.0 0
289874.0 392385.0 0
293645.0 391102.0 0
297429.0 392312.0 0
304499.0 392236.0 0
310888.0 391816.0 0
313997.0 394370.0 0
317708.0 393062.0 0
324474.0 396543.0 0
327766.0 394685.0 0
165564.0 398841.0 0
168892.0 396764.0 0
172144.0 398415.0 0
178809.0 394715.0 0
189033.0 396783.0 0
192183.0 394402.0 0
195715.0 396279.0 0
199211.0 394425.0 0
202751.0 396288.0 0
206533.0 395095.0 0
210236.0 396548.0 0
214144.0 395776.0 0
218089.0 396356.0 0
222076.0 396237.0 0
226064.0 396324.0 0
230053.0 396307.0 0
234043.0 396321.0 0
238032.0 396303.0 0
242022.0 396322.0 0
246011.0 396299.0 0
250000.0 396322.0 0
253989.0 396299.0 0
257978.0 396322.0 0
261968.0 396303.0 0
265957.0 396321.0 0
269947.0 396307.0 0
273936.0 396324.0 0
277924.0 396237.0 0
281911.0 396356.0 0
285856.0 395776.0 0
289764.0 396548.0 0
293467.0 395095.0 0
297249.0 396288.0 0
300789.0 394425.0 0
304285.0 396279.0 0
307817.0 394402.0 0
310967.0 396783.0 0
321191.0 394715.0 0
327856.0 398415.0 0
331108.0 396764.0 0
334436.0 398841.0 0
162277.0 400896.0 0
168789.0 400431.0 0
175321.0 400362.0 0
178629.0 398889.0 0
181882.0 396995.0 0
185391.0 398269.0 0
192487.0 398539.0 0
199414.0 398391.0 0
300586.0 398391.0 0
307513.0 398539.0 0
314609.0 398269.0 0
318118.0 396995.0 0
321371.0 398889.0 0
324679.0 400362.0 0
331211.0 400431.0 0
337723.0 400896.0 0
159028.0 402929.0 0
165502.0 402501.0 0
171971.0 402142.0 0
175197.0 404001.0 0
181846.0 400960.0 0
188305.0 400686.0 0
191703.0 402397.0 0
195992.0 400321.0 0
203315.0 400224.0 0
207120.0 399054.0 0
210610.0 400983.0 0
214374.0 399740.0 0
218274.0 400464.0 0
222233.0 400221.0 0
226198.0 400338.0 0
230164.0 400304.0 0
234130.0 400328.0 0
238097.0 400301.0 0
242064.0 400330.0 0
246032.0 400298.0 0
250000.0 400329.0 0
253968.0 400298.0 0
257936.0 400330.0 0
261903.0 400301.0 0
265870.0 400328.0 0
269836.0 400304.0 0
273802.0 400338.0 0
277767.0 400221.0 0
281726.0 400464.0 0
285626.0 399740.0 0
289390.0 400983.0 0
292880.0 399054.0 0
296685.0 400224.0 0
304008.0 400321.0 0
308297.0 402397.0 0
311695.0 400686.0 0
318154.0 400960.0 0
324803.0 404001.0 0
328029.0 402142.0 0
334498.0 402501.0 0
340972.0 402929.0 0
152583.0 406958.0 0
155802.0 404946.0 0
159060.0 406601.0 0
162267.0 404564.0 0
168704.0 404148.0 0
171915.0 405852.0 0
178705.0 403164.0 0
185060.0 402923.0 0
188430.0 404635.0 0
195097.0 404148.0 0
199929.0 402308.0 0
207226.0 403055.0 0
210655.0 405067.0 0
214395.0 403710.0 0
218290.0 404516.0 0
222253.0 404203.0 0
226222.0 404353.0 0
230190.0 404301.0 0
234155.0 404339.0 0
238119.0 404299.0 0
242080.0 404340.0 0
246040.0 404296.0 0
250000.0 404339.0 0
253960.0 404296.0 0
257920.0 404340.0 0
261881.0 404299.0 0
265845.0 404339.0 0
269810.0 404301.0 0
273778.0 404353.0 0
277747.0 404203.0 0
281710.0 404516.0 0
285605.0 403710.0 0
289345.0 405067.0 0
292774.0 403055.0 0
300071.0 402308.0 0
304903.0 404148.0 0
311570.0 404635.0 0
314940.0 402923.0 0
321295.0 403164.0 0
328085.0 405852.0 0
331296.0 404148.0 0
337733.0 404564.0 0
340940.0 406601.0 0
344198.0 404946.0 0
347417.0 406958.0 0
149356.0 408974.0 0
155858.0 408613.0 0
165499.0 406220.0 0
168734.0 407896.0 0
175194.0 407575.0 0
181880.0 405192.0 0
185207.0 406902.0 0
191807.0 406347.0 0
198477.0 405945.0 0
201860.0 407762.0 0
203444.0 404184.0 0
296556.0 404184.0 0
298140.0 407762.0 0
301523.0 405945.0 0
308193.0 406347.0 0
314793.0 406902.0 0
318120.0 405192.0 0
324806.0 407575.0 0
331266.0 407896.0 0
334501.0 406220.0 0
344142.0 408613.0 0
350644.0 408974.0 0
146113.0 411000.0 0
152642.0 410613.0 0
155950.0 412299.0 0
159147.0 410307.0 0
162322.0 408281.0 0
165590.0 409977.0 0
172002.0 409570.0 0
175346.0 411167.0 0
178766.0 407425.0 0
182028.0 409203.0 0
188562.0 408590.0 0
195182.0 408099.0 0
198562.0 409891.0 0
204747.0 410258.0 0
207148.0 407066.0 0
210626.0 409040.0 0
214348.0 407673.0 0
218230.0 408520.0 0
222189.0 408177.0 0
226160.0 408352.0 0
230134.0 408297.0 0
234108.0 408338.0 0
238081.0 408297.0 0
242054.0 408340.0 0
246027.0 408293.0 0
250000.0 408339.0 0
253973.0 408293.0 0
257946.0 408340.0 0
261919.0 408297.0 0
265892.0 408338.0 0
269866.0 408297.0 0
273840.0 408352.0 0
277811.0 408177.0 0
281770.0 408520.0 0
285652.0 407673.0 0
289374.0 409040.0 0
292852.0 407066.0 0
295253.0 410258.0 0
301438.0 409891.0 0
304818.0 408099.0 0
311438.0 408590.0 0
317972.0 409203.0 0
321234.0 407425.0 0
324654.0 411167.0 0
327998.0 409570.0 0
334410.0 409977.0 0
337678.0 408281.0 0
340853.0 410307.0 0
344050.0 412299.0 0
347358.0 410613.0 0
353887.0 411000.0 0
139564.0 415092.0 0
142848.0 413039.0 0
146139.0 414627.0 0
149404.0 412613.0 0
152720.0 414277.0 0
159278.0 414032.0 0
162447.0 412030.0 0
168874.0 411665.0 0
172195.0 413306.0 0
178913.0 411534.0 0
185357.0 410869.0 0
188710.0 412537.0 0
191928.0 410297.0 0
195304.0 412044.0 0
201405.0 412424.0 0
208132.0 412091.0 0
211529.0 413945.0 0
214695.0 411620.0 0
218471.0 412768.0 0
222372.0 412139.0 0
226314.0 412379.0 0
230262.0 412290.0 0
234210.0 412347.0 0
238158.0 412293.0 0
242106.0 412350.0 0
246053.0 412291.0 0
250000.0 412349.0 0
253947.0 412291.0 0
257894.0 412350.0 0
261842.0 412293.0 0
265790.0 412347.0 0
269738.0 412290.0 0
273686.0 412379.0 0
277628.0 412139.0 0
281529.0 412768.0 0
285305.0 411620.0 0
288471.0 413945.0 0
291868.0 412091.0 0
298595.0 412424.0 0
304696.0 412044.0 0
308072.0 410297.0 0
311290.0 412537.0 0
314643.0 410869.0 0
321087.0 411534.0 0
327805.0 413306.0 0
331126.0 411665.0 0
337553.0 412030.0 0
340722.0 414032.0 0
347280.0 414277.0 0
350596.0 412613.0 0
353861.0 414627.0 0
357152.0 413039.0 0
360436.0 415092.0 0
136264.0 417154.0 0
142852.0 416658.0 0
149458.0 416258.0 0
156065.0 415991.0 0
159436.0 417760.0 0
165761.0 413760.0 0
169099.0 415462.0 0
175559.0 414828.0 0
182196.0 413188.0 0
185526.0 414823.0 0
192080.0 414235.0 0
198089.0 414613.0 0
204805.0 414229.0 0
295195.0 414229.0 0
301911.0 414613.0 0
307920.0 414235.0 0
314474.0 414823.0 0
317804.0 413188.0 0
324441.0 414828.0 0
330901.0 415462.0 0
334239.0 413760.0 0
340564.0 417760.0 0
343935.0 415991.0 0
350542.0 416258.0 0
357148.0 416658.0 0
363736.0 417154.0 0
132954.0 419223.0 0
139547.0 418710.0 0
146167.0 418261.0 0
149512.0 419903.0 0
152807.0 417944.0 0
156187.0 419677.0 0
162626.0 415798.0 0
165999.0 417566.0 0
172461.0 417095.0 0
175838.0 418585.0 0
179073.0 415555.0 0
182368.0 417144.0 0
188884.0 416470.0 0
194803.0 416829.0 0
201488.0 416385.0 0
204882.0 418203.0 0
208207.0 416071.0 0
211635.0 417921.0 0
214980.0 415771.0 0
218680.0 417049.0 0
222487.0 416100.0 0
226402.0 416406.0 0
230328.0 416285.0 0
234259.0 416353.0 0
238191.0 416290.0 0
242126.0 416354.0 0
246063.0 416288.0 0
250000.0 416349.0 0
253937.0 416288.0 0
257874.0 416354.0 0
261809.0 416290.0 0
265741.0 416353.0 0
269672.0 416285.0 0
273598.0 416406.0 0
277513.0 416100.0 0
281320.0 417049.0 0
285020.0 415771.0 0
288365.0 417921.0 0
291793.0 416071.0 0
295118.0 418203.0 0
298512.0 416385.0 0
305197.0 416829.0 0
311116.0 416470.0 0
317632.0 417144.0 0
320927.0 415555.0 0
324162.0 418585.0 0
327539.0 417095.0 0
334001.0 417566.0 0
337374.0 415798.0 0
343813.0 419677.0 0
347193.0 417944.0 0
350488.0 419903.0 0
353833.0 418261.0 0
360453.0 418710.0 0
367046.0 419223.0 0
129639.0 421296.0 0
132923.0 422860.0 0
136235.0 420780.0 0
139539.0 422346.0 0
142857.0 420287.0 0
146194.0 421903.0 0
152890.0 421607.0 0
156302.0 423346.0 0
159602.0 421482.0 0
162832.0 419572.0 0
169409.0 419300.0 0
172888.0 420959.0 0
179244.0 419545.0 0
185705.0 418760.0 0
191558.0 419067.0 0
194913.0 420776.0 0
198191.0 418565.0 0
201570.0 420353.0 0
208285.0 420046.0 0
215070.0 419788.0 0
218728.0 421200.0 0
222492.0 420068.0 0
226408.0 420420.0 0
230337.0 420280.0 0
234267.0 420355.0 0
238199.0 420288.0 0
242132.0 420354.0 0
246066.0 420286.0 0
250000.0 420349.0 0
253934.0 420286.0 0
257868.0 420354.0 0
261801.0 420288.0 0
265733.0 420355.0 0
269663.0 420280.0 0
273592.0 420420.0 0
277508.0 420068.0 0
281272.0 421200.0 0
284930.0 419788.0 0
291715.0 420046.0 0
298430.0 420353.0 0
301809.0 418565.0 0
305087.0 420776.0 0
308442.0 419067.0 0
314295.0 418760.0 0
320756.0 419545.0 0
327112.0 420959.0 0
330591.0 419300.0 0
337168.0 419572.0 0
340398.0 421482.0 0
343698.0 423346.0 0
347110.0 421607.0 0
353806.0 421903.0 0
357143.0 420287.0 0
360461.0 422346.0 0
363765.0 420780.0 0
367077.0 422860.0 0
370361.0 421296.0 0
122998.0 425449.0 0
126321.0 423371.0 0
136223.0 424433.0 0
142868.0 423929.0 0
149560.0 423545.0 0
152954.0 425270.0 0
159748.0 425186.0 0
166251.0 421381.0 0
169704.0 423135.0 0
176518.0 422463.0 0
182492.0 421063.0 0
185184.0 423415.0 0
188374.0 421327.0 0
191653.0 423018.0 0
198272.0 422525.0 0
204950.0 422178.0 0
211696.0 421904.0 0
288304.0 421904.0 0
295050.0 422178.0 0
301728.0 422525.0 0
308347.0 423018.0 0
311626.0 421327.0 0
314816.0 423415.0 0
317508.0 421063.0 0
323482.0 422463.0 0
330296.0 423135.0 0
333749.0 421381.0 0
340252.0 425186.0 0
347046.0 425270.0 0
350440.0 423545.0 0
357132.0 423929.0 0
363777.0 424433.0 0
373679.0 423371.0 0
377002.0 425449.0 0
119666.0 427532.0 0
122984.0 429116.0 0
126302.0 427030.0 0
129612.0 424945.0 0
132919.0 426529.0 0
139544.0 426002.0 0
142893.0 427584.0 0
146222.0 425561.0 0
149602.0 427179.0 0
156371.0 426981.0 0
159818.0 428854.0 0
163036.0 423355.0 0
166478.0 425216.0 0
173210.0 424780.0 0
180060.0 424239.0 0
188355.0 425321.0 0
194989.0 424728.0 0
201629.0 424328.0 0
208337.0 424026.0 0
211733.0 425892.0 0
215111.0 423787.0 0
218764.0 425185.0 0
222516.0 424041.0 0
226422.0 424446.0 0
230346.0 424275.0 0
234275.0 424359.0 0
238205.0 424286.0 0
242136.0 424354.0 0
246068.0 424284.0 0
250000.0 424348.0 0
253932.0 424284.0 0
257864.0 424354.0 0
261795.0 424286.0 0
265725.0 424359.0 0
269654.0 424275.0 0
273578.0 424446.0 0
277484.0 424041.0 0
281236.0 425185.0 0
284889.0 423787.0 0
288267.0 425892.0 0
291663.0 424026.0 0
298371.0 424328.0 0
305011.0 424728.0 0
311645.0 425321.0 0
319940.0 424239.0 0
326790.0 424780.0 0
333522.0 425216.0 0
336964.0 423355.0 0
340182.0 428854.0 0
343629.0 426981.0 0
350398.0 427179.0 0
353778.0 425561.0 0
357107.0 427584.0 0
360456.0 426002.0 0
367081.0 426529.0 0
370388.0 424945.0 0
373698.0 427030.0 0
377016.0 429116.0 0
380334.0 427532.0 0
112961.0 431726.0 0
116319.0 429625.0 0
119648.0 431206.0 0
129622.0 428626.0 0
136236.0 428120.0 0
146262.0 429254.0 0
153006.0 428967.0 0
156411.0 430578.0 0
163197.0 427159.0 0
169952.0 427005.0 0
173432.0 428683.0 0
176683.0 426403.0 0
180021.0 428254.0 0
183513.0 426771.0 0
191707.0 426932.0 0
195003.0 428690.0 0
198317.0 426486.0 0
201661.0 428306.0 0
204992.0 426157.0 0
208364.0 428011.0 0
215140.0 427785.0 0
284860.0 427785.0 0
291636.0 428011.0 0
295008.0 426157.0 0
298339.0 428306.0 0
301683.0 426486.0 0
304997.0 428690.0 0
308293.0 426932.0 0
316487.0 426771.0 0
319979.0 428254.0 0
323317.0 426403.0 0
326568.0 428683.0 0
330048.0 427005.0 0
336803.0 427159.0 0
343589.0 430578.0 0
346994.0 428967.0 0
353738.0 429254.0 0
363764.0 428120.0 0
370378.0 428626.0 0
380352.0 431206.0 0
383681.0 429625.0 0
387039.0 431726.0 0
109594.0 433831.0 0
116297.0 433312.0 0
123000.0 432805.0 0
126321.0 430718.0 0
129673.0 432340.0 0
132953.0 430234.0 0
136287.0 431852.0 0
139567.0 429680.0 0
142927.0 431240.0 0
146256.0 433011.0 0
149669.0 430780.0 0
159925.0 432490.0 0
163368.0 430981.0 0
166662.0 429082.0 0
176884.0 430510.0 0
183118.0 430651.0 0
186747.0 428952.0 0
190321.0 430576.0 0
198335.0 430428.0 0
205002.0 430138.0 0
211754.0 429874.0 0
218796.0 429164.0 0
222545.0 428022.0 0
226445.0 428455.0 0
230366.0 428272.0 0
234291.0 428359.0 0
238217.0 428284.0 0
242144.0 428353.0 0
246072.0 428283.0 0
250000.0 428347.0 0
253928.0 428283.0 0
257856.0 428353.0 0
261783.0 428284.0 0
265709.0 428359.0 0
269634.0 428272.0 0
273555.0 428455.0 0
277455.0 428022.0 0
281204.0 429164.0 0
288246.0 429874.0 0
294998.0 430138.0 0
301665.0 430428.0 0
309679.0 430576.0 0
313253.0 428952.0 0
316882.0 430651.0 0
323116.0 430510.0 0
333338.0 429082.0 0
336632.0 430981.0 0
340075.0 432490.0 0
350331.0 430780.0 0
353744.0 433011.0 0
357073.0 431240.0 0
360433.0 429680.0 0
363713.0 431852.0 0
367047.0 430234.0 0
370327.0 432340.0 0
373679.0 430718.0 0
377000.0 432805.0 0
383703.0 433312.0 0
390406.0 433831.0 0
106224.0 435940.0 0
112940.0 435430.0 0
116310.0 437027.0 0
119657.0 434903.0 0
123043.0 436512.0 0
126374.0 434427.0 0
133030.0 433976.0 0
139636.0 433385.0 0
143052.0 434899.0 0
149584.0 434245.0 0
153051.0 432775.0 0
156561.0 434034.0 0
166706.0 433049.0 0
170070.0 430952.0 0
173575.0 432580.0 0
186810.0 432902.0 0
193816.0 432455.0 0
201640.0 432303.0 0
208378.0 431993.0 0
211758.0 433841.0 0
215154.0 431781.0 0
218819.0 433127.0 0
222570.0 432009.0 0
226466.0 432452.0 0
230383.0 432269.0 0
234305.0 432358.0 0
238227.0 432283.0 0
242151.0 432352.0 0
246075.0 432282.0 0
250000.0 432346.0 0
253925.0 432282.0 0
257849.0 432352.0 0
261773.0 432283.0 0
265695.0 432358.0 0
269617.0 432269.0 0
273534.0 432452.0 0
277430.0 432009.0 0
281181.0 433127.0 0
284846.0 431781.0 0
288242.0 433841.0 0
291622.0 431993.0 0
298360.0 432303.0 0
306184.0 432455.0 0
313190.0 432902.0 0
326425.0 432580.0 0
329930.0 430952.0 0
333294.0 433049.0 0
343439.0 434034.0 0
346949.0 432775.0 0
350416.0 434245.0 0
356948.0 434899.0 0
360364.0 433385.0 0
366970.0 433976.0 0
373626.0 434427.0 0
376957.0 436512.0 0
380343.0 434903.0 0
383690.0 437027.0 0
387060.0 435430.0 0
393776.0 435940.0 0
102854.0 438049.0 0
106223.0 439692.0 0
109581.0 437557.0 0
112960.0 439168.0 0
119705.0 438625.0 0
129766.0 436084.0 0
136383.0 435649.0 0
143154.0 438366.0 0
146742.0 436938.0 0
150651.0 437341.0 0
154221.0 436559.0 0
159338.0 436204.0 0
163029.0 434832.0 0
168203.0 436676.0 0
172064.0 436166.0 0
176006.0 435604.0 0
179392.0 433535.0 0
183210.0 434489.0 0
190427.0 434469.0 0
197340.0 434205.0 0
200763.0 436196.0 0
205019.0 434095.0 0
208046.0 436483.0 0
291954.0 436483.0 0
294981.0 434095.0 0
299237.0 436196.0 0
302660.0 434205.0 0
309573.0 434469.0 0
316790.0 434489.0 0
320608.0 433535.0 0
323994.0 435604.0 0
327936.0 436166.0 0
331797.0 436676.0 0
336971.0 434832.0 0
340662.0 436204.0 0
345779.0 436559.0 0
349349.0 437341.0 0
353258.0 436938.0 0
356846.0 438366.0 0
363617.0 435649.0 0
370234.0 436084.0 0
380295.0 438625.0 0
387040.0 439168.0 0
390419.0 437557.0 0
393777.0 439692.0 0
397146.0 438049.0 0
99482.2 440158.0 0
102867.0 441825.0 0
109618.0 441318.0 0
116358.0 440771.0 0
123129.0 440242.0 0
126449.0 438151.0 0
129857.0 439843.0 0
133195.0 437752.0 0
139722.0 437089.0 0
153089.0 440104.0 0
156963.0 439358.0 0
160940.0 439252.0 0
164651.0 438255.0 0
174458.0 439283.0 0
178322.0 438738.0 0
182113.0 438172.0 0
185945.0 437319.0 0
189714.0 438272.0 0
193474.0 437005.0 0
197262.0 438111.0 0
204298.0 437980.0 0
211712.0 437774.0 0
215144.0 435778.0 0
218826.0 437070.0 0
222588.0 436002.0 0
226479.0 436446.0 0
230394.0 436268.0 0
234313.0 436356.0 0
238233.0 436282.0 0
242155.0 436350.0 0
246077.0 436281.0 0
250000.0 436343.0 0
253923.0 436281.0 0
257845.0 436350.0 0
261767.0 436282.0 0
265687.0 436356.0 0
269606.0 436268.0 0
273521.0 436446.0 0
277412.0 436002.0 0
281174.0 437070.0 0
284856.0 435778.0 0
288288.0 437774.0 0
295702.0 437980.0 0
302738.0 438111.0 0
306526.0 437005.0 0
310286.0 438272.0 0
314055.0 437319.0 0
317887.0 438172.0 0
321678.0 438738.0 0
325542.0 439283.0 0
335349.0 438255.0 0
339060.0 439252.0 0
343037.0 439358.0 0
346911.0 440104.0 0
360278.0 437089.0 0
366805.0 437752.0 0
370143.0 439843.0 0
373551.0 438151.0 0
376871.0 440242.0 0
383642.0 440771.0 0
390382.0 441318.0 0
397133.0 441825.0 0
400518.0 440158.0 0
96109.7 442266.0 0
99502.1 443951.0 0
106280.0 443482.0 0
113029.0 442946.0 0
116455.0 444552.0 0
119780.0 442365.0 0
123223.0 443978.0 0
126591.0 441900.0 0
133243.0 441451.0 0
136668.0 439586.0 0
140373.0 440775.0 0
145526.0 440750.0 0
149152.0 440463.0 0
163126.0 442147.0 0
166929.0 441271.0 0
170575.0 439855.0 0
176910.0 442404.0 0
184673.0 441119.0 0
192353.0 441131.0 0
200011.0 440911.0 0
207441.0 440400.0 0
211162.0 441670.0 0
214840.0 440124.0 0
218672.0 440987.0 0
222478.0 440012.0 0
226389.0 440433.0 0
230319.0 440268.0 0
234254.0 440352.0 0
238189.0 440295.0 0
242126.0 440346.0 0
246063.0 440297.0 0
250000.0 440340.0 0
253937.0 440297.0 0
257874.0 440346.0 0
261811.0 440295.0 0
265746.0 440352.0 0
269681.0 440268.0 0
273611.0 440433.0 0
277522.0 440012.0 0
281328.0 440987.0 0
285160.0 440124.0 0
288838.0 441670.0 0
292559.0 440400.0 0
299989.0 440911.0 0
307647.0 441131.0 0
315327.0 441119.0 0
323090.0 442404.0 0
329425.0 439855.0 0
333071.0 441271.0 0
336874.0 442147.0 0
350848.0 440463.0 0
354474.0 440750.0 0
359627.0 440775.0 0
363332.0 439586.0 0
366757.0 441451.0 0
373409.0 441900.0 0
376777.0 443978.0 0
380220.0 442365.0 0
383545.0 444552.0 0
386971.0 442946.0 0
393720.0 443482.0 0
400498.0 443951.0 0
403890.0 442266.0 0
85569.7 448871.0 0
89107.7 446656.0 0
92534.8 444512.0 0
102936.0 445634.0 0
106393.0 447316.0 0
109713.0 445118.0 0
113165.0 446768.0 0
119900.0 446129.0 0
126674.0 445604.0 0
130105.0 443692.0 0
135452.0 444268.0 0
139179.0 444138.0 0
143056.0 443656.0 0
147436.0 443844.0 0
151363.0 443457.0 0
155323.0 442995.0 0
159170.0 442587.0 0
169322.0 444207.0 0
173032.0 442991.0 0
180783.0 441871.0 0
188472.0 441984.0 0
196167.0 441901.0 0
203793.0 441909.0 0
296207.0 441909.0 0
303833.0 441901.0 0
311528.0 441984.0 0
319217.0 441871.0 0
326968.0 442991.0 0
330678.0 444207.0 0
340830.0 442587.0 0
344677.0 442995.0 0
348637.0 443457.0 0
352564.0 443844.0 0
356944.0 443656.0 0
360821.0 444138.0 0
364548.0 444268.0 0
369895.0 443692.0 0
373326.0 445604.0 0
380100.0 446129.0 0
386835.0 446768.0 0
390287.0 445118.0 0
393607.0 447316.0 0
397064.0 445634.0 0
407465.0 444512.0 0
410892.0 446656.0 0
414430.0 448871.0 0
89101.2 450602.0 0
92572.5 448426.0 0
96085.7 446045.0 0
99564.2 447758.0 0
109871.0 448946.0 0
116629.0 448375.0 0
123353.0 447757.0 0
133670.0 447633.0 0
137507.0 447525.0 0
141408.0 447198.0 0
145274.0 446900.0 0
149588.0 446842.0 0
153552.0 446460.0 0
157491.0 446094.0 0
161437.0 445683.0 0
165486.0 445029.0 0
171812.0 447106.0 0
175561.0 446081.0 0
179473.0 445628.0 0
183357.0 444857.0 0
187221.0 445734.0 0
191112.0 444876.0 0
195007.0 445715.0 0
198881.0 444719.0 0
202725.0 445720.0 0
206785.0 444487.0 0
210603.0 445573.0 0
214298.0 444064.0 0
218176.0 444873.0 0
222105.0 444233.0 0
226084.0 444408.0 0
230067.0 444315.0 0
234053.0 444344.0 0
238039.0 444315.0 0
242025.0 444341.0 0
246013.0 444312.0 0
250000.0 444336.0 0
253987.0 444312.0 0
257975.0 444341.0 0
261961.0 444315.0 0
265947.0 444344.0 0
269933.0 444315.0 0
273916.0 444408.0 0
277895.0 444233.0 0
281824.0 444873.0 0
285702.0 444064.0 0
289397.0 445573.0 0
293215.0 444487.0 0
297275.0 445720.0 0
301119.0 444719.0 0
304993.0 445715.0 0
308888.0 444876.0 0
312779.0 445734.0 0
316643.0 444857.0 0
320527.0 445628.0 0
324439.0 446081.0 0
328188.0 447106.0 0
334514.0 445029.0 0
338563.0 445683.0 0
342509.0 446094.0 0
346448.0 446460.0 0
350412.0 446842.0 0
354726.0 446900.0 0
358592.0 447198.0 0
362493.0 447525.0 0
366330.0 447633.0 0
376647.0 447757.0 0
383371.0 448375.0 0
390129.0 448946.0 0
400436.0 447758.0 0
403914.0 446045.0 0
407428.0 448426.0 0
410899.0 450602.0 0
96189.2 449867.0 0
103056.0 449472.0 0
106558.0 451198.0 0
113387.0 450623.0 0
116906.0 452243.0 0
120124.0 449924.0 0
126767.0 449340.0 0
130011.0 447520.0 0
143584.0 450365.0 0
147529.0 450061.0 0
151732.0 449886.0 0
155693.0 449560.0 0
159661.0 449210.0 0
163892.0 448627.0 0
167951.0 447944.0 0
176813.0 449830.0 0
184494.0 448631.0 0
192100.0 448641.0 0
199649.0 448560.0 0
207186.0 448436.0 0
210992.0 449488.0 0
214663.0 448011.0 0
218544.0 448790.0 0
222445.0 448215.0 0
226384.0 448388.0 0
230322.0 448305.0 0
234259.0 448336.0 0
238194.0 448312.0 0
242130.0 448337.0 0
246065.0 448311.0 0
250000.0 448334.0 0
253935.0 448311.0 0
257870.0 448337.0 0
261806.0 448312.0 0
265741.0 448336.0 0
269678.0 448305.0 0
273616.0 448388.0 0
277555.0 448215.0 0
281456.0 448790.0 0
285337.0 448011.0 0
289008.0 449488.0 0
292814.0 448436.0 0
300351.0 448560.0 0
307900.0 448641.0 0
315506.0 448631.0 0
323187.0 449830.0 0
332049.0 447944.0 0
336108.0 448627.0 0
340339.0 449210.0 0
344307.0 449560.0 0
348268.0 449886.0 0
352471.0 450061.0 0
356416.0 450365.0 0
369989.0 447520.0 0
373233.0 449340.0 0
379876.0 449924.0 0
383094.0 452243.0 0
386613.0 450623.0 0
393442.0 451198.0 0
396944.0 449472.0 0
403811.0 449867.0 0
92606.0 452383.0 0
99692.4 451603.0 0
103214.0 453342.0 0
110113.0 452758.0 0
123643.0 451641.0 0
127309.0 452904.0 0
131667.0 451102.0 0
135658.0 450917.0 0
139639.0 450662.0 0
157783.0 452719.0 0
161679.0 452434.0 0
165507.0 452097.0 0
169285.0 451556.0 0
173041.0 450766.0 0
180673.0 449428.0 0
188289.0 449548.0 0
195860.0 449614.0 0
203417.0 449619.0 0
296583.0 449619.0 0
304140.0 449614.0 0
311711.0 449548.0 0
319327.0 449428.0 0
326959.0 450766.0 0
330715.0 451556.0 0
334493.0 452097.0 0
338321.0 452434.0 0
342217.0 452719.0 0
360361.0 450662.0 0
364342.0 450917.0 0
368333.0 451102.0 0
372691.0 452904.0 0
376357.0 451641.0 0
389887.0 452758.0 0
396786.0 453342.0 0
400308.0 451603.0 0
407394.0 452383.0 0
96302.6 453714.0 0
99813.3 455479.0 0
106741.0 455150.0 0
113768.0 454533.0 0
120398.0 453696.0 0
124533.0 455495.0 0
130211.0 455048.0 0
133954.0 454371.0 0
137887.0 454105.0 0
141853.0 453820.0 0
145818.0 453525.0 0
149788.0 453229.0 0
153837.0 453017.0 0
167813.0 455237.0 0
171764.0 454546.0 0
175642.0 453639.0 0
179591.0 453843.0 0
183293.0 452419.0 0
187168.0 453333.0 0
191010.0 452428.0 0
194836.0 453476.0 0
198653.0 452391.0 0
202463.0 453475.0 0
206278.0 452325.0 0
210106.0 453325.0 0
213925.0 452153.0 0
217866.0 452671.0 0
221995.0 452309.0 0
225995.0 452364.0 0
229999.0 452319.0 0
233999.0 452326.0 0
237999.0 452319.0 0
241999.0 452333.0 0
246000.0 452316.0 0
250000.0 452331.0 0
254000.0 452316.0 0
258001.0 452333.0 0
262001.0 452319.0 0
266001.0 452326.0 0
270001.0 452319.0 0
274005.0 452364.0 0
278005.0 452309.0 0
282134.0 452671.0 0
286075.0 452153.0 0
289894.0 453325.0 0
293722.0 452325.0 0
297537.0 453475.0 0
301347.0 452391.0 0
305164.0 453476.0 0
308990.0 452428.0 0
312832.0 453333.0 0
316707.0 452419.0 0
320409.0 453843.0 0
324358.0 453639.0 0
328236.0 454546.0 0
332187.0 455237.0 0
346163.0 453017.0 0
350212.0 453229.0 0
354182.0 453525.0 0
358147.0 453820.0 0
362113.0 454105.0 0
366046.0 454371.0 0
369789.0 455048.0 0
375467.0 455495.0 0
379602.0 453696.0 0
386232.0 454533.0 0
393259.0 455150.0 0
400187.0 455479.0 0
403697.0 453714.0 0
96339.0 457604.0 0
103320.0 457232.0 0
110462.0 456500.0 0
117325.0 456252.0 0
121163.0 457266.0 0
127592.0 457989.0 0
132207.0 458213.0 0
136151.0 457597.0 0
140131.0 457285.0 0
144096.0 456999.0 0
148054.0 456712.0 0
152009.0 456446.0 0
155977.0 456212.0 0
159916.0 455948.0 0
163855.0 455668.0 0
177191.0 457230.0 0
184513.0 456203.0 0
191973.0 456243.0 0
199552.0 456224.0 0
203340.0 457346.0 0
207136.0 456198.0 0
210978.0 457165.0 0
214745.0 456041.0 0
218644.0 456552.0 0
222551.0 456268.0 0
226470.0 456334.0 0
230390.0 456319.0 0
234311.0 456321.0 0
238233.0 456317.0 0
242155.0 456328.0 0
246077.0 456315.0 0
250000.0 456329.0 0
253923.0 456315.0 0
257845.0 456328.0 0
261767.0 456317.0 0
265689.0 456321.0 0
269610.0 456319.0 0
273530.0 456334.0 0
277449.0 456268.0 0
281356.0 456552.0 0
285255.0 456041.0 0
289022.0 457165.0 0
292864.0 456198.0 0
296660.0 457346.0 0
300448.0 456224.0 0
308027.0 456243.0 0
315487.0 456203.0 0
322809.0 457230.0 0
336145.0 455668.0 0
340084.0 455948.0 0
344023.0 456212.0 0
347991.0 456446.0 0
351946.0 456712.0 0
355904.0 456999.0 0
359869.0 457285.0 0
363849.0 457597.0 0
367793.0 458213.0 0
372408.0 457989.0 0
378837.0 457266.0 0
382675.0 456252.0 0
389538.0 456500.0 0
396680.0 457232.0 0
403661.0 457604.0 0
96532.1 461530.0 0
99898.6 459402.0 0
105716.0 460277.0 0
109596.0 460107.0 0
114099.0 458614.0 0
118765.0 460029.0 0
124056.0 459733.0 0
138480.0 460774.0 0
142417.0 460493.0 0
146353.0 460215.0 0
150285.0 459947.0 0
154213.0 459700.0 0
158143.0 459462.0 0
162053.0 459209.0 0
165926.0 458962.0 0
169729.0 458628.0 0
173476.0 458061.0 0
180959.0 457651.0 0
188220.0 457457.0 0
195754.0 457367.0 0
304246.0 457367.0 0
311780.0 457457.0 0
319041.0 457651.0 0
326524.0 458061.0 0
330271.0 458628.0 0
334074.0 458962.0 0
337947.0 459209.0 0
341857.0 459462.0 0
345787.0 459700.0 0
349715.0 459947.0 0
353647.0 460215.0 0
357583.0 460493.0 0
361520.0 460774.0 0
375944.0 459733.0 0
381235.0 460029.0 0
385901.0 458614.0 0
390404.0 460107.0 0
394284.0 460277.0 0
400101.0 459402.0 0
403468.0 461530.0 0
102428.0 462448.0 0
112237.0 462879.0 0
116076.0 462572.0 0
121543.0 462838.0 0
126127.0 462985.0 0
129712.0 461298.0 0
134579.0 461166.0 0
152518.0 463225.0 0
156429.0 462986.0 0
160341.0 462751.0 0
164251.0 462516.0 0
168171.0 462255.0 0
172094.0 461799.0 0
175967.0 461096.0 0
179856.0 461473.0 0
183661.0 460507.0 0
187463.0 461372.0 0
191168.0 460119.0 0
194912.0 461269.0 0
198661.0 460088.0 0
202433.0 461218.0 0
206222.0 460080.0 0
210066.0 460981.0 0
213985.0 460280.0 0
217968.0 460453.0 0
222000.0 460319.0 0
226000.0 460319.0 0
230000.0 460319.0 0
234000.0 460319.0 0
238000.0 460319.0 0
242000.0 460324.0 0
246000.0 460318.0 0
250000.0 460327.0 0
254000.0 460318.0 0
258000.0 460324.0 0
262000.0 460319.0 0
266000.0 460319.0 0
270000.0 460319.0 0
274000.0 460319.0 0
278000.0 460319.0 0
282032.0 460453.0 0
286015.0 460280.0 0
289934.0 460981.0 0
293778.0 460080.0 0
297567.0 461218.0 0
301339.0 460088.0 0
305088.0 461269.0 0
308832.0 460119.0 0
312537.0 461372.0 0
316339.0 460507.0 0
320144.0 461473.0 0
324033.0 461096.0 0
327906.0 461799.0 0
331829.0 462255.0 0
335749.0 462516.0 0
339659.0 462751.0 0
343571.0 462986.0 0
347482.0 463225.0 0
365421.0 461166.0 0
370288.0 461298.0 0
373873.0 462985.0 0
378457.0 462838.0 0
383924.0 462572.0 0
387763.0 462879.0 0
397572.0 462448.0 0
96874.0 465475.0 0
107901.0 463584.0 0
132281.0 464267.0 0
136813.0 464296.0 0
140741.0 464003.0 0
144679.0 463742.0 0
148606.0 463473.0 0
175111.0 464981.0 0
183072.0 464460.0 0
191011.0 464112.0 0
194877.0 465226.0 0
198781.0 464081.0 0
202660.0 465171.0 0
206503.0 464092.0 0
210415.0 464891.0 0
214339.0 464263.0 0
218309.0 464411.0 0
222274.0 464318.0 0
226239.0 464322.0 0
230201.0 464321.0 0
234163.0 464320.0 0
238123.0 464319.0 0
242083.0 464322.0 0
246041.0 464318.0 0
250000.0 464325.0 0
253959.0 464318.0 0
257917.0 464322.0 0
261877.0 464319.0 0
265837.0 464320.0 0
269799.0 464321.0 0
273761.0 464322.0 0
277726.0 464318.0 0
281691.0 464411.0 0
285661.0 464263.0 0
289585.0 464891.0 0
293497.0 464092.0 0
297340.0 465171.0 0
301219.0 464081.0 0
305123.0 465226.0 0
308989.0 464112.0 0
316928.0 464460.0 0
324889.0 464981.0 0
351394.0 463473.0 0
355321.0 463742.0 0
359259.0 464003.0 0
363187.0 464296.0 0
367719.0 464267.0 0
392099.0 463584.0 0
403126.0 465475.0 0
100806.0 466065.0 0
104759.0 465893.0 0
110600.0 466443.0 0
114552.0 466103.0 0
118656.0 465606.0 0
123676.0 466137.0 0
127579.0 466606.0 0
131208.0 467959.0 0
135080.0 467740.0 0
139032.0 467524.0 0
142980.0 467262.0 0
146941.0 467006.0 0
150923.0 466797.0 0
154949.0 466616.0 0
158955.0 466423.0 0
162949.0 466226.0 0
167047.0 466051.0 0
171018.0 465614.0 0
179088.0 465361.0 0
186980.0 465293.0 0
313020.0 465293.0 0
320912.0 465361.0 0
328982.0 465614.0 0
332953.0 466051.0 0
337051.0 466226.0 0
341045.0 466423.0 0
345051.0 466616.0 0
349077.0 466797.0 0
353059.0 467006.0 0
357020.0 467262.0 0
360968.0 467524.0 0
364920.0 467740.0 0
368792.0 467959.0 0
372421.0 466606.0 0
376324.0 466137.0 0
381344.0 465606.0 0
385448.0 466103.0 0
389400.0 466443.0 0
395241.0 465893.0 0
399194.0 466065.0 0
99380.7 469773.0 0
103984.0 469764.0 0
107941.0 469349.0 0
112900.0 469657.0 0
116909.0 469253.0 0
120862.0 468933.0 0
124705.0 469964.0 0
128563.0 470773.0 0
141217.0 470784.0 0
145188.0 470539.0 0
149158.0 470315.0 0
153143.0 470114.0 0
157165.0 469937.0 0
161161.0 469750.0 0
165158.0 469544.0 0
169421.0 469264.0 0
173588.0 468666.0 0
177578.0 469044.0 0
181693.0 468377.0 0
185634.0 469026.0 0
189575.0 468310.0 0
193511.0 468965.0 0
197447.0 468266.0 0
201379.0 468928.0 0
205688.0 468266.0 0
209647.0 468754.0 0
213991.0 468306.0 0
217989.0 468380.0 0
222000.0 468319.0 0
226000.0 468319.0 0
230000.0 468319.0 0
234000.0 468319.0 0
238000.0 468319.0 0
242000.0 468321.0 0
246000.0 468319.0 0
250000.0 468324.0 0
254000.0 468319.0 0
258000.0 468321.0 0
262000.0 468319.0 0
266000.0 468319.0 0
270000.0 468319.0 0
274000.0 468319.0 0
278000.0 468319.0 0
282011.0 468380.0 0
286009.0 468306.0 0
290353.0 468754.0 0
294312.0 468266.0 0
298621.0 468928.0 0
302553.0 468266.0 0
306489.0 468965.0 0
310425.0 468310.0 0
314366.0 469026.0 0
318307.0 468377.0 0
322422.0 469044.0 0
326412.0 468666.0 0
330579.0 469264.0 0
334842.0 469544.0 0
338839.0 469750.0 0
342835.0 469937.0 0
346857.0 470114.0 0
350842.0 470315.0 0
354812.0 470539.0 0
358783.0 470784.0 0
371437.0 470773.0 0
375295.0 469964.0 0
379138.0 468933.0 0
383091.0 469253.0 0
387100.0 469657.0 0
392059.0 469349.0 0
396016.0 469764.0 0
400619.0 469773.0 0
118356.0 472946.0 0
133292.0 471252.0 0
137247.0 471025.0 0
167337.0 472881.0 0
171316.0 472777.0 0
175257.0 472290.0 0
183112.0 472110.0 0
190935.0 472059.0 0
198743.0 472040.0 0
202651.0 472696.0 0
206568.0 472166.0 0
210500.0 472614.0 0
214428.0 472280.0 0
218373.0 472351.0 0
222320.0 472322.0 0
226270.0 472322.0 0
230221.0 472321.0 0
234175.0 472320.0 0
238129.0 472320.0 0
242086.0 472319.0 0
246043.0 472318.0 0
250000.0 472323.0 0
253957.0 472318.0 0
257914.0 472319.0 0
261871.0 472320.0 0
265825.0 472320.0 0
269779.0 472321.0 0
273730.0 472322.0 0
277680.0 472322.0 0
281627.0 472351.0 0
285572.0 472280.0 0
289500.0 472614.0 0
293432.0 472166.0 0
297349.0 472696.0 0
301257.0 472040.0 0
309065.0 472059.0 0
316888.0 472110.0 0
324743.0 472290.0 0
328684.0 472777.0 0
332663.0 472881.0 0
362753.0 471025.0 0
366708.0 471252.0 0
381644.0 472946.0 0
101708.0 473017.0 0
106348.0 472975.0 0
110318.0 472677.0 0
114402.0 473298.0 0
122306.0 473119.0 0
126200.0 473893.0 0
130643.0 474146.0 0
135427.0 474539.0 0
139409.0 474304.0 0
143390.0 474069.0 0
147367.0 473847.0 0
151347.0 473640.0 0
155335.0 473446.0 0
159355.0 473279.0 0
163349.0 473091.0 0
179200.0 472776.0 0
187032.0 472763.0 0
194842.0 472726.0 0
305158.0 472726.0 0
312968.0 472763.0 0
320800.0 472776.0 0
336651.0 473091.0 0
340645.0 473279.0 0
344665.0 473446.0 0
348653.0 473640.0 0
352633.0 473847.0 0
356610.0 474069.0 0
360591.0 474304.0 0
364573.0 474539.0 0
369357.0 474146.0 0
373800.0 473893.0 0
377694.0 473119.0 0
385598.0 473298.0 0
389682.0 472677.0 0
393652.0 472975.0 0
398292.0 473017.0 0
100746.0 476877.0 0
104803.0 476640.0 0
108800.0 476554.0 0
112770.0 476912.0 0
116757.0 476600.0 0
120749.0 476790.0 0
124677.0 477523.0 0
128673.0 477545.0 0
132792.0 477502.0 0
137576.0 477830.0 0
141564.0 477600.0 0
145548.0 477386.0 0
149529.0 477179.0 0
153511.0 476980.0 0
157500.0 476795.0 0
161527.0 476640.0 0
165625.0 476488.0 0
169842.0 476490.0 0
173837.0 476298.0 0
177829.0 476529.0 0
181820.0 476298.0 0
185808.0 476555.0 0
189803.0 476302.0 0
193792.0 476569.0 0
197813.0 476306.0 0
201800.0 476576.0 0
205906.0 476312.0 0
209896.0 476520.0 0
213999.0 476317.0 0
217999.0 476326.0 0
222000.0 476319.0 0
226000.0 476319.0 0
230000.0 476319.0 0
234000.0 476319.0 0
238000.0 476319.0 0
242000.0 476319.0 0
246000.0 476319.0 0
250000.0 476322.0 0
254000.0 476319.0 0
258000.0 476319.0 0
262000.0 476319.0 0
266000.0 476319.0 0
270000.0 476319.0 0
274000.0 476319.0 0
278000.0 476319.0 0
282001.0 476326.0 0
286001.0 476317.0 0
290104.0 476520.0 0
294094.0 476312.0 0
298200.0 476576.0 0
302187.0 476306.0 0
306208.0 476569.0 0
310197.0 476302.0 0
314192.0 476555.0 0
318180.0 476298.0 0
322171.0 476529.0 0
326163.0 476298.0 0
330158.0 476490.0 0
334375.0 476488.0 0
338473.0 476640.0 0
342500.0 476795.0 0
346489.0 476980.0 0
350471.0 477179.0 0
354452.0 477386.0 0
358436.0 477600.0 0
362424.0 477830.0 0
367208.0 477502.0 0
371327.0 477545.0 0
375323.0 477523.0 0
379251.0 476790.0 0
383243.0 476600.0 0
387230.0 476912.0 0
391200.0 476554.0 0
395197.0 476640.0 0
399254.0 476877.0 0
102130.0 480616.0 0
106125.0 480520.0 0
110123.0 480504.0 0
114172.0 480634.0 0
118149.0 480428.0 0
122126.0 480547.0 0
126695.0 480958.0 0
130788.0 480935.0 0
134863.0 480916.0 0
139102.0 481458.0 0
143059.0 481254.0 0
146990.0 481079.0 0
150910.0 480908.0 0
154825.0 480734.0 0
158738.0 480579.0 0
162652.0 480477.0 0
166576.0 480372.0 0
170508.0 480442.0 0
174445.0 480251.0 0
178387.0 480488.0 0
182336.0 480263.0 0
186291.0 480513.0 0
190250.0 480276.0 0
194213.0 480533.0 0
198180.0 480289.0 0
202151.0 480535.0 0
206124.0 480305.0 0
210104.0 480476.0 0
214083.0 480316.0 0
218069.0 480322.0 0
222056.0 480319.0 0
226045.0 480319.0 0
230036.0 480319.0 0
234027.0 480319.0 0
238020.0 480319.0 0
242013.0 480319.0 0
246006.0 480319.0 0
250000.0 480321.0 0
253994.0 480319.0 0
257987.0 480319.0 0
261980.0 480319.0 0
265973.0 480319.0 0
269964.0 480319.0 0
273955.0 480319.0 0
277944.0 480319.0 0
281931.0 480322.0 0
285917.0 480316.0 0
289896.0 480476.0 0
293876.0 480305.0 0
297849.0 480535.0 0
301820.0 480289.0 0
305787.0 480533.0 0
309750.0 480276.0 0
313709.0 480513.0 0
317664.0 480263.0 0
321613.0 480488.0 0
325555.0 480251.0 0
329492.0 480442.0 0
333424.0 480372.0 0
337348.0 480477.0 0
341262.0 480579.0 0
345175.0 480734.0 0
349090.0 480908.0 0
353010.0 481079.0 0
356941.0 481254.0 0
360898.0 481458.0 0
365137.0 480916.0 0
369212.0 480935.0 0
373305.0 480958.0 0
377874.0 480547.0 0
381851.0 480428.0 0
385828.0 480634.0 0
389877.0 480504.0 0
393875.0 480520.0 0
397870.0 480616.0 0
101745.0 484586.0 0
105739.0 484510.0 0
109727.0 484493.0 0
113706.0 484589.0 0
117678.0 484417.0 0
121644.0 484496.0 0
125598.0 484752.0 0
129571.0 484730.0 0
133541.0 484692.0 0
137484.0 485061.0 0
141462.0 484881.0 0
145456.0 484749.0 0
149481.0 484631.0 0
153728.0 484565.0 0
157841.0 484464.0 0
161959.0 484423.0 0
165977.0 484345.0 0
169980.0 484405.0 0
173979.0 484316.0 0
177976.0 484459.0 0
181979.0 484317.0 0
185975.0 484486.0 0
189981.0 484318.0 0
193976.0 484509.0 0
197985.0 484318.0 0
201980.0 484506.0 0
205994.0 484319.0 0
209992.0 484441.0 0
214000.0 484319.0 0
218000.0 484319.0 0
222000.0 484319.0 0
226000.0 484319.0 0
230000.0 484319.0 0
234000.0 484319.0 0
238000.0 484319.0 0
242000.0 484319.0 0
246000.0 484319.0 0
250000.0 484321.0 0
254000.0 484319.0 0
258000.0 484319.0 0
262000.0 484319.0 0
266000.0 484319.0 0
270000.0 484319.0 0
274000.0 484319.0 0
278000.0 484319.0 0
282000.0 484319.0 0
286000.0 484319.0 0
290008.0 484441.0 0
294006.0 484319.0 0
298020.0 484506.0 0
302015.0 484318.0 0
306024.0 484509.0 0
310019.0 484318.0 0
314025.0 484486.0 0
318021.0 484317.0 0
322024.0 484459.0 0
326021.0 484316.0 0
330020.0 484405.0 0
334023.0 484345.0 0
338041.0 484423.0 0
342159.0 484464.0 0
346272.0 484565.0 0
350519.0 484631.0 0
354544.0 484749.0 0
358538.0 484881.0 0
362516.0 485061.0 0
366459.0 484692.0 0
370429.0 484730.0 0
374402.0 484752.0 0
378356.0 484496.0 0
382322.0 484417.0 0
386294.0 484589.0 0
390273.0 484493.0 0
394261.0 484510.0 0
398255.0 484586.0 0
102014.0 488565.0 0
106013.0 488501.0 0
110012.0 488483.0 0
114020.0 488559.0 0
118017.0 488415.0 0
122017.0 488466.0 0
126107.0 488677.0 0
130103.0 488684.0 0
134101.0 488657.0 0
138191.0 488948.0 0
142178.0 488783.0 0
146162.0 488667.0 0
150144.0 488563.0 0
154127.0 488531.0 0
158110.0 488442.0 0
162094.0 488420.0 0
166081.0 488344.0 0
170069.0 488402.0 0
174059.0 488315.0 0
178049.0 488450.0 0
182040.0 488316.0 0
186032.0 488472.0 0
190025.0 488317.0 0
194018.0 488491.0 0
198012.0 488318.0 0
202008.0 488483.0 0
206003.0 488319.0 0
210001.0 488413.0 0
214000.0 488319.0 0
218000.0 488319.0 0
222000.0 488319.0 0
226000.0 488319.0 0
230000.0 488319.0 0
234000.0 488319.0 0
238000.0 488319.0 0
242000.0 488319.0 0
246000.0 488319.0 0
250000.0 488320.0 0
254000.0 488319.0 0
258000.0 488319.0 0
262000.0 488319.0 0
266000.0 488319.0 0
270000.0 488319.0 0
274000.0 488319.0 0
278000.0 488319.0 0
282000.0 488319.0 0
286000.0 488319.0 0
289999.0 488413.0 0
293997.0 488319.0 0
297992.0 488483.0 0
301988.0 488318.0 0
305982.0 488491.0 0
309975.0 488317.0 0
313968.0 488472.0 0
317960.0 488316.0 0
321951.0 488450.0 0
325941.0 488315.0 0
329931.0 488402.0 0
333919.0 488344.0 0
337906.0 488420.0 0
341890.0 488442.0 0
345873.0 488531.0 0
349856.0 488563.0 0
353838.0 488667.0 0
357822.0 488783.0 0
361809.0 488948.0 0
365899.0 488657.0 0
369897.0 488684.0 0
373893.0 488677.0 0
377983.0 488466.0 0
381983.0 488415.0 0
385980.0 488559.0 0
389988.0 488483.0 0
393987.0 488501.0 0
397986.0 488565.0 0
101984.0 492552.0 0
105983.0 492500.0 0
109982.0 492483.0 0
113980.0 492543.0 0
117975.0 492414.0 0
121972.0 492460.0 0
125965.0 492640.0 0
129962.0 492674.0 0
133958.0 492652.0 0
137947.0 492891.0 0
141942.0 492742.0 0
145941.0 492640.0 0
149962.0 492544.0 0
153979.0 492514.0 0
157989.0 492428.0 0
161996.0 492417.0 0
165998.0 492342.0 0
169998.0 492398.0 0
173999.0 492319.0 0
177997.0 492441.0 0
182000.0 492319.0 0
185998.0 492459.0 0
190000.0 492319.0 0
193999.0 492474.0 0
198000.0 492319.0 0
202000.0 492461.0 0
206000.0 492319.0 0
210000.0 492390.0 0
214000.0 492319.0 0
218000.0 492319.0 0
222000.0 492319.0 0
226000.0 492319.0 0
230000.0 492319.0 0
234000.0 492319.0 0
238000.0 492319.0 0
242000.0 492319.0 0
246000.0 492319.0 0
250000.0 492320.0 0
254000.0 492319.0 0
258000.0 492319.0 0
262000.0 492319.0 0
266000.0 492319.0 0
270000.0 492319.0 0
274000.0 492319.0 0
278000.0 492319.0 0
282000.0 492319.0 0
286000.0 492319.0 0
290000.0 492390.0 0
294000.0 492319.0 0
298000.0 492461.0 0
302000.0 492319.0 0
306001.0 492474.0 0
310000.0 492319.0 0
314002.0 492459.0 0
318000.0 492319.0 0
322003.0 492441.0 0
326001.0 492319.0 0
330002.0 492398.0 0
334002.0 492342.0 0
338004.0 492417.0 0
342011.0 492428.0 0
346021.0 492514.0 0
350038.0 492544.0 0
354059.0 492640.0 0
358058.0 492742.0 0
362053.0 492891.0 0
366042.0 492652.0 0
370038.0 492674.0 0
374035.0 492640.0 0
378028.0 492460.0 0
382025.0 492414.0 0
386020.0 492543.0 0
390018.0 492483.0 0
394017.0 492500.0 0
398016.0 492552.0 0
102001.0 496539.0 0
106001.0 496498.0 0
110001.0 496481.0 0
114002.0 496528.0 0
118000.0 496413.0 0
122000.0 496458.0 0
126008.0 496610.0 0
130012.0 496664.0 0
134012.0 496646.0 0
138019.0 496843.0 0
142016.0 496707.0 0
146014.0 496617.0 0
150011.0 496527.0 0
154010.0 496499.0 0
158008.0 496417.0 0
162007.0 496414.0 0
166005.0 496341.0 0
170004.0 496395.0 0
174003.0 496319.0 0
178001.0 496432.0 0
182000.0 496319.0 0
186000.0 496446.0 0
190000.0 496319.0 0
194000.0 496458.0 0
198000.0 496319.0 0
202000.0 496442.0 0
206000.0 496319.0 0
210000.0 496372.0 0
214000.0 496319.0 0
218000.0 496319.0 0
222000.0 496319.0 0
226000.0 496319.0 0
230000.0 496319.0 0
234000.0 496319.0 0
238000.0 496319.0 0
242000.0 496319.0 0
246000.0 496319.0 0
250000.0 496320.0 0
254000.0 496319.0 0
258000.0 496319.0 0
262000.0 496319.0 0
266000.0 496319.0 0
270000.0 496319.0 0
274000.0 496319.0 0
278000.0 496319.0 0
282000.0 496319.0 0
286000.0 496319.0 0
290000.0 496372.0 0
294000.0 496319.0 0
298000.0 496442.0 0
302000.0 496319.0 0
306000.0 496458.0 0
310000.0 496319.0 0
314000.0 496446.0 0
318000.0 496319.0 0
321999.0 496432.0 0
325997.0 496319.0 0
329996.0 496395.0 0
333995.0 496341.0 0
337993.0 496414.0 0
341992.0 496417.0 0
345990.0 496499.0 0
349989.0 496527.0 0
353986.0 496617.0 0
357984.0 496707.0 0
361981.0 496843.0 0
365988.0 496646.0 0
369988.0 496664.0 0
373992.0 496610.0 0
378000.0 496458.0 0
382000.0 496413.0 0
385998.0 496528.0 0
389999.0 496481.0 0
393999.0 496498.0 0
397999.0 496539.0 0
102000.0 500527.0 0
106000.0 500495.0 0
110000.0 500479.0 0
114000.0 500513.0 0
117999.0 500412.0 0
121999.0 500456.0 0
125996.0 500586.0 0
129996.0 500651.0 0
133995.0 500638.0 0
137992.0 500797.0 0
141994.0 500674.0 0
145997.0 500594.0 0
149998.0 500509.0 0
153999.0 500484.0 0
158000.0 500406.0 0
162000.0 500411.0 0
166000.0 500340.0 0
170000.0 500392.0 0
174000.0 500319.0 0
178000.0 500422.0 0
182000.0 500319.0 0
186000.0 500434.0 0
190000.0 500319.0 0
194000.0 500443.0 0
198000.0 500319.0 0
202000.0 500424.0 0
206000.0 500319.0 0
210000.0 500358.0 0
214000.0 500319.0 0
218000.0 500319.0 0
222000.0 500319.0 0
226000.0 500319.0 0
230000.0 500319.0 0
234000.0 500319.0 0
238000.0 500319.0 0
242000.0 500319.0 0
246000.0 500319.0 0
250000.0 500320.0 0
254000.0 500319.0 0
258000.0 500319.0 0
262000.0 500319.0 0
266000.0 500319.0 0
270000.0 500319.0 0
274000.0 500319.0 0
278000.0 500319.0 0
282000.0 500319.0 0
286000.0 500319.0 0
290000.0 500358.0 0
294000.0 500319.0 0
298000.0 500424.0 0
302000.0 500319.0 0
306000.0 500443.0 0
310000.0 500319.0 0
314000.0 500434.0 0
318000.0 500319.0 0
322000.0 500422.0 0
326000.0 500319.0 0
330000.0 500392.0 0
334000.0 500340.0 0
338000.0 500411.0 0
342000.0 500406.0 0
346001.0 500484.0 0
350002.0 500509.0 0
354003.0 500594.0 0
358006.0 500674.0 0
362008.0 500797.0 0
366005.0 500638.0 0
370004.0 500651.0 0
374004.0 500586.0 0
378001.0 500456.0 0
382001.0 500412.0 0
386000.0 500513.0 0
390000.0 500479.0 0
394000.0 500495.0 0
398000.0 500527.0 0
102000.0 504515.0 0
106000.0 504492.0 0
110000.0 504476.0 0
114000.0 504498.0 0
118000.0 504410.0 0
122000.0 504455.0 0
126000.0 504565.0 0
130001.0 504637.0 0
134001.0 504628.0 0
138003.0 504754.0 0
142002.0 504641.0 0
146001.0 504571.0 0
150000.0 504491.0 0
154000.0 504470.0 0
158000.0 504396.0 0
162000.0 504406.0 0
166000.0 504338.0 0
170000.0 504389.0 0
174000.0 504319.0 0
178000.0 504414.0 0
182000.0 504319.0 0
186000.0 504423.0 0
190000.0 504319.0 0
194000.0 504428.0 0
198000.0 504319.0 0
202000.0 504408.0 0
206000.0 504319.0 0
210000.0 504347.0 0
214000.0 504319.0 0
218000.0 504319.0 0
222000.0 504319.0 0
226000.0 504319.0 0
230000.0 504319.0 0
234000.0 504319.0 0
238000.0 504319.0 0
242000.0 504319.0 0
246000.0 504319.0 0
250000.0 504319.0 0
254000.0 504319.0 0
258000.0 504319.0 0
262000.0 504319.0 0
266000.0 504319.0 0
270000.0 504319.0 0
274000.0 504319.0 0
278000.0 504319.0 0
282000.0 504319.0 0
286000.0 504319.0 0
290000.0 504347.0 0
294000.0 504319.0 0
298000.0 504408.0 0
302000.0 504319.0 0
306000.0 504428.0 0
310000.0 504319.0 0
314000.0 504423.0 0
318000.0 504319.0 0
322000.0 504414.0 0
326000.0 504319.0 0
330000.0 504389.0 0
334000.0 504338.0 0
338000.0 504406.0 0
342000.0 504396.0 0
346000.0 504470.0 0
350000.0 504491.0 0
353999.0 504571.0 0
357998.0 504641.0 0
361997.0 504754.0 0
365999.0 504628.0 0
369999.0 504637.0 0
374000.0 504565.0 0
378000.0 504455.0 0
382000.0 504410.0 0
386000.0 504498.0 0
390000.0 504476.0 0
394000.0 504492.0 0
398000.0 504515.0 0
102000.0 508504.0 0
106000.0 508488.0 0
110000.0 508472.0 0
114000.0 508485.0 0
118000.0 508408.0 0
122000.0 508453.0 0
126000.0 508546.0 0
130000.0 508621.0 0
134000.0 508615.0 0
137999.0 508714.0 0
142000.0 508610.0 0
146000.0 508549.0 0
150000.0 508474.0 0
154000.0 508456.0 0
158000.0 508387.0 0
162000.0 508402.0 0
166000.0 508336.0 0
170000.0 508385.0 0
174000.0 508319.0 0
178000.0 508405.0 0
182000.0 508319.0 0
186000.0 508412.0 0
190000.0 508319.0 0
194000.0 508415.0 0
198000.0 508319.0 0
202000.0 508394.0 0
206000.0 508319.0 0
210000.0 508339.0 0
214000.0 508319.0 0
218000.0 508319.0 0
222000.0 508319.0 0
226000.0 508319.0 0
230000.0 508319.0 0
234000.0 508319.0 0
238000.0 508319.0 0
242000.0 508319.0 0
246000.0 508319.0 0
250000.0 508319.0 0
254000.0 508319.0 0
258000.0 508319.0 0
262000.0 508319.0 0
266000.0 508319.0 0
270000.0 508319.0 0
274000.0 508319.0 0
278000.0 508319.0 0
282000.0 508319.0 0
286000.0 508319.0 0
290000.0 508339.0 0
294000.0 508319.0 0
298000.0 508394.0 0
302000.0 508319.0 0
306000.0 508415.0 0
310000.0 508319.0 0
314000.0 508412.0 0
318000.0 508319.0 0
322000.0 508405.0 0
326000.0 508319.0 0
330000.0 508385.0 0
334000.0 508336.0 0
338000.0 508402.0 0
342000.0 508387.0 0
346000.0 508456.0 0
350000.0 508474.0 0
354000.0 508549.0 0
358000.0 508610.0 0
362001.0 508714.0 0
366000.0 508615.0 0
370000.0 508621.0 0
374000.0 508546.0 0
378000.0 508453.0 0
382000.0 508408.0 0
386000.0 508485.0 0
390000.0 508472.0 0
394000.0 508488.0 0
398000.0 508504.0 0
102000.0 512495.0 0
106000.0 512484.0 0
110000.0 512468.0 0
114000.0 512472.0 0
118000.0 512406.0 0
122000.0 512450.0 0
126000.0 512530.0 0
130000.0 512605.0 0
134000.0 512601.0 0
138000.0 512677.0 0
142000.0 512581.0 0
146000.0 512528.0 0
150000.0 512457.0 0
154000.0 512444.0 0
158000.0 512378.0 0
162000.0 512397.0 0
166000.0 512334.0 0
170000.0 512382.0 0
174000.0 512319.0 0
178000.0 512397.0 0
182000.0 512319.0 0
186000.0 512403.0 0
190000.0 512319.0 0
194000.0 512403.0 0
198000.0 512319.0 0
202000.0 512381.0 0
206000.0 512319.0 0
210000.0 512333.0 0
214000.0 512319.0 0
218000.0 512319.0 0
222000.0 512319.0 0
226000.0 512319.0 0
230000.0 512319.0 0
234000.0 512319.0 0
238000.0 512319.0 0
242000.0 512319.0 0
246000.0 512319.0 0
250000.0 512319.0 0
254000.0 512319.0 0
258000.0 512319.0 0
262000.0 512319.0 0
266000.0 512319.0 0
270000.0 512319.0 0
274000.0 512319.0 0
278000.0 512319.0 0
282000.0 512319.0 0
286000.0 512319.0 0
290000.0 512333.0 0
294000.0 512319.0 0
298000.0 512381.0 0
302000.0 512319.0 0
306000.0 512403.0 0
310000.0 512319.0 0
314000.0 512403.0 0
318000.0 512319.0 0
322000.0 512397.0 0
326000.0 512319.0 0
330000.0 512382.0 0
334000.0 512334.0 0
338000.0 512397.0 0
342000.0 512378.0 0
346000.0 512444.0 0
350000.0 512457.0 0
354000.0 512528.0 0
358000.0 512581.0 0
362000.0 512677.0 0
366000.0 512601.0 0
370000.0 512605.0 0
374000.0 512530.0 0
378000.0 512450.0 0
382000.0 512406.0 0
386000.0 512472.0 0
390000.0 512468.0 0
394000.0 512484.0 0
398000.0 512495.0 0
102000.0 516485.0 0
106000.0 516479.0 0
110000.0 516464.0 0
114000.0 516461.0 0
118000.0 516403.0 0
122000.0 516447.0 0
126000.0 516515.0 0
130000.0 516588.0 0
134000.0 516585.0 0
138000.0 516643.0 0
142000.0 516554.0 0
146000.0 516508.0 0
150000.0 516441.0 0
154000.0 516432.0 0
158000.0 516371.0 0
162000.0 516392.0 0
166000.0 516332.0 0
170000.0 516378.0 0
174000.0 516319.0 0
178000.0 516389.0 0
182000.0 516319.0 0
186000.0 516393.0 0
190000.0 516319.0 0
194000.0 516393.0 0
198000.0 516319.0 0
202000.0 516371.0 0
206000.0 516319.0 0
210000.0 516329.0 0
214000.0 516319.0 0
218000.0 516319.0 0
222000.0 516319.0 0
226000.0 516319.0 0
230000.0 516319.0 0
234000.0 516319.0 0
238000.0 516319.0 0
242000.0 516319.0 0
246000.0 516319.0 0
250000.0 516319.0 0
254000.0 516319.0 0
258000.0 516319.0 0
262000.0 516319.0 0
266000.0 516319.0 0
270000.0 516319.0 0
274000.0 516319.0 0
278000.0 516319.0 0
282000.0 516319.0 0
286000.0 516319.0 0
290000.0 516329.0 0
294000.0 516319.0 0
298000.0 516371.0 0
302000.0 516319.0 0
306000.0 516393.0 0
310000.0 516319.0 0
314000.0 516393.0 0
318000.0 516319.0 0
322000.0 516389.0 0
326000.0 516319.0 0
330000.0 516378.0 0
334000.0 516332.0 0
338000.0 516392.0 0
342000.0 516371.0 0
346000.0 516432.0 0
350000.0 516441.0 0
354000.0 516508.0 0
358000.0 516554.0 0
362000.0 516643.0 0
366000.0 516585.0 0
370000.0 516588.0 0
374000.0 516515.0 0
378000.0 516447.0 0
382000.0 516403.0 0
386000.0 516461.0 0
390000.0 516464.0 0
394000.0 516479.0 0
398000.0 516485.0 0
102000.0 520477.0 0
106000.0 520474.0 0
110000.0 520459.0 0
114000.0 520450.0 0
118000.0 520400.0 0
122000.0 520444.0 0
126000.0 520501.0 0
130000.0 520572.0 0
134000.0 520569.0 0
138000.0 520612.0 0
142000.0 520529.0 0
146000.0 520490.0 0
150000.0 520426.0 0
154000.0 520421.0 0
158000.0 520364.0 0
162000.0 520387.0 0
166000.0 520331.0 0
170000.0 520374.0 0
174000.0 520319.0 0
178000.0 520382.0 0
182000.0 520319.0 0
186000.0 520385.0 0
190000.0 520319.0 0
194000.0 520383.0 0
198000.0 520319.0 0
202000.0 520361.0 0
206000.0 520319.0 0
210000.0 520326.0 0
214000.0 520319.0 0
218000.0 520319.0 0
222000.0 520319.0 0
226000.0 520319.0 0
230000.0 520319.0 0
234000.0 520319.0 0
238000.0 520319.0 0
242000.0 520319.0 0
246000.0 520319.0 0
250000.0 520319.0 0
254000.0 520319.0 0
258000.0 520319.0 0
262000.0 520319.0 0
266000.0 520319.0 0
270000.0 520319.0 0
274000.0 520319.0 0
278000.0 520319.0 0
282000.0 520319.0 0
286000.0 520319.0 0
290000.0 520326.0 0
294000.0 520319.0 0
298000.0 520361.0 0
302000.0 520319.0 0
306000.0 520383.0 0
310000.0 520319.0 0
314000.0 520385.0 0
318000.0 520319.0 0
322000.0 520382.0 0
326000.0 520319.0 0
330000.0 520374.0 0
334000.0 520331.0 0
338000.0 520387.0 0
342000.0 520364.0 0
346000.0 520421.0 0
350000.0 520426.0 0
354000.0 520490.0 0
358000.0 520529.0 0
362000.0 520612.0 0
366000.0 520569.0 0
370000.0 520572.0 0
374000.0 520501.0 0
378000.0 520444.0 0
382000.0 520400.0 0
386000.0 520450.0 0
390000.0 520459.0 0
394000.0 520474.0 0
398000.0 520477.0 0
102000.0 524470.0 0
106000.0 524469.0 0
110000.0 524454.0 0
114000.0 524441.0 0
118000.0 524397.0 0
122000.0 524441.0 0
126000.0 524488.0 0
130000.0 524556.0 0
134000.0 524552.0 0
138000.0 524584.0 0
142000.0 524506.0 0
146000.0 524473.0 0
150000.0 524413.0 0
154000.0 524412.0 0
158000.0 524358.0 0
162000.0 524382.0 0
166000.0 524329.0 0
170000.0 524370.0 0
174000.0 524319.0 0
178000.0 524376.0 0
182000.0 524319.0 0
186000.0 524377.0 0
190000.0 524319.0 0
194000.0 524374.0 0
198000.0 524319.0 0
202000.0 524353.0 0
206000.0 524319.0 0
210000.0 524324.0 0
214000.0 524319.0 0
218000.0 524319.0 0
222000.0 524319.0 0
226000.0 524319.0 0
230000.0 524319.0 0
234000.0 524319.0 0
238000.0 524319.0 0
242000.0 524319.0 0
246000.0 524319.0 0
250000.0 524319.0 0
254000.0 524319.0 0
258000.0 524319.0 0
262000.0 524319.0 0
266000.0 524319.0 0
270000.0 524319.0 0
274000.0 524319.0 0
278000.0 524319.0 0
282000.0 524319.0 0
286000.0 524319.0 0
290000.0 524324.0 0
294000.0 524319.0 0
298000.0 524353.0 0
302000.0 524319.0 0
306000.0 524374.0 0
310000.0 524319.0 0
314000.0 524377.0 0
318000.0 524319.0 0
322000.0 524376.0 0
326000.0 524319.0 0
330000.0 524370.0 0
334000.0 524329.0 0
338000.0 524382.0 0
342000.0 524358.0 0
346000.0 524412.0 0
350000.0 524413.0 0
354000.0 524473.0 0
358000.0 524506.0 0
362000.0 524584.0 0
366000.0 524552.0 0
370000.0 524556.0 0
374000.0 524488.0 0
378000.0 524441.0 0
382000.0 524397.0 0
386000.0 524441.0 0
390000.0 524454.0 0
394000.0 524469.0 0
398000.0 524470.0 0
102000.0 528463.0 0
106000.0 528463.0 0
110000.0 528449.0 0
114000.0 528432.0 0
118000.0 528394.0 0
122000.0 528437.0 0
126000.0 528475.0 0
130000.0 528541.0 0
134000.0 528535.0 0
138000.0 528559.0 0
142000.0 528486.0 0
146000.0 528458.0 0
150000.0 528401.0 0
154000.0 528403.0 0
158000.0 528353.0 0
162000.0 528377.0 0
166000.0 528327.0 0
170000.0 528367.0 0
174000.0 528319.0 0
178000.0 528370.0 0
182000.0 528319.0 0
186000.0 528370.0 0
190000.0 528319.0 0
194000.0 528366.0 0
198000.0 528319.0 0
202000.0 528347.0 0
206000.0 528319.0 0
210000.0 528322.0 0
214000.0 528319.0 0
218000.0 528319.0 0
222000.0 528319.0 0
226000.0 528319.0 0
230000.0 528319.0 0
234000.0 528319.0 0
238000.0 528319.0 0
242000.0 528319.0 0
246000.0 528319.0 0
250000.0 528319.0 0
254000.0 528319.0 0
258000.0 528319.0 0
262000.0 528319.0 0
266000.0 528319.0 0
270000.0 528319.0 0
274000.0 528319.0 0
278000.0 528319.0 0
282000.0 528319.0 0
286000.0 528319.0 0
290000.0 528322.0 0
294000.0 528319.0 0
298000.0 528347.0 0
302000.0 528319.0 0
306000.0 528366.0 0
310000.0 528319.0 0
314000.0 528370.0 0
318000.0 528319.0 0
322000.0 528370.0 0
326000.0 528319.0 0
330000.0 528367.0 0
334000.0 528327.0 0
338000.0 528377.0 0
342000.0 528353.0 0
346000.0 528403.0 0
350000.0 528401.0 0
354000.0 528458.0 0
358000.0 528486.0 0
362000.0 528559.0 0
366000.0 528535.0 0
370000.0 528541.0 0
374000.0 528475.0 0
378000.0 528437.0 0
382000.0 528394.0 0
386000.0 528432.0 0
390000.0 528449.0 0
394000.0 528463.0 0
398000.0 528463.0 0
118000.0 532390.0 0
150000.0 532391.0 0
154000.0 532395.0 0
158000.0 532348.0 0
162000.0 532373.0 0
166000.0 532326.0 0
170000.0 532363.0 0
174000.0 532319.0 0
178000.0 532364.0 0
182000.0 532319.0 0
186000.0 532364.0 0
190000.0 532319.0 0
194000.0 532360.0 0
198000.0 532319.0 0
202000.0 532341.0 0
206000.0 532319.0 0
210000.0 532321.0 0
214000.0 532319.0 0
218000.0 532319.0 0
222000.0 532319.0 0
226000.0 532319.0 0
230000.0 532319.0 0
234000.0 532319.0 0
238000.0 532319.0 0
242000.0 532319.0 0
246000.0 532319.0 0
250000.0 532319.0 0
254000.0 532319.0 0
258000.0 532319.0 0
262000.0 532319.0 0
266000.0 532319.0 0
270000.0 532319.0 0
274000.0 532319.0 0
278000.0 532319.0 0
282000.0 532319.0 0
286000.0 532319.0 0
290000.0 532321.0 0
294000.0 532319.0 0
298000.0 532341.0 0
302000.0 532319.0 0
306000.0 532360.0 0
310000.0 532319.0 0
314000.0 532364.0 0
318000.0 532319.0 0
322000.0 532364.0 0
326000.0 532319.0 0
330000.0 532363.0 0
334000.0 532326.0 0
338000.0 532373.0 0
342000.0 532348.0 0
346000.0 532395.0 0
350000.0 532391.0 0
382000.0 532390.0 0
102000.0 532456.0 0
106000.0 532458.0 0
110000.0 532444.0 0
114000.0 532424.0 0
122000.0 532434.0 0
126000.0 532464.0 0
130000.0 532526.0 0
134000.0 532519.0 0
138000.0 532536.0 0
142000.0 532468.0 0
146000.0 532444.0 0
354000.0 532444.0 0
358000.0 532468.0 0
362000.0 532536.0 0
366000.0 532519.0 0
370000.0 532526.0 0
374000.0 532464.0 0
378000.0 532434.0 0
386000.0 532424.0 0
390000.0 532444.0 0
394000.0 532458.0 0
398000.0 532456.0 0
102000.0 536450.0 0
106000.0 536452.0 0
110000.0 536439.0 0
114000.0 536416.0 0
118000.0 536387.0 0
122000.0 536430.0 0
126000.0 536454.0 0
130000.0 536512.0 0
134000.0 536502.0 0
138000.0 536516.0 0
142000.0 536451.0 0
146000.0 536432.0 0
150000.0 536381.0 0
154000.0 536388.0 0
158000.0 536344.0 0
162000.0 536368.0 0
166000.0 536324.0 0
170000.0 536360.0 0
174000.0 536319.0 0
178000.0 536359.0 0
182000.0 536319.0 0
186000.0 536358.0 0
190000.0 536319.0 0
194000.0 536354.0 0
198000.0 536319.0 0
202000.0 536337.0 0
206000.0 536319.0 0
210000.0 536320.0 0
214000.0 536319.0 0
218000.0 536319.0 0
222000.0 536319.0 0
226000.0 536319.0 0
230000.0 536319.0 0
234000.0 536319.0 0
238000.0 536319.0 0
242000.0 536319.0 0
246000.0 536319.0 0
250000.0 536319.0 0
254000.0 536319.0 0
258000.0 536319.0 0
262000.0 536319.0 0
266000.0 536319.0 0
270000.0 536319.0 0
274000.0 536319.0 0
278000.0 536319.0 0
282000.0 536319.0 0
286000.0 536319.0 0
290000.0 536320.0 0
294000.0 536319.0 0
298000.0 536337.0 0
302000.0 536319.0 0
306000.0 536354.0 0
310000.0 536319.0 0
314000.0 536358.0 0
318000.0 536319.0 0
322000.0 536359.0 0
326000.0 536319.0 0
330000.0 536360.0 0
334000.0 536324.0 0
338000.0 536368.0 0
342000.0 536344.0 0
346000.0 536388.0 0
350000.0 536381.0 0
354000.0 536432.0 0
358000.0 536451.0 0
362000.0 536516.0 0
366000.0 536502.0 0
370000.0 536512.0 0
374000.0 536454.0 0
378000.0 536430.0 0
382000.0 536387.0 0
386000.0 536416.0 0
390000.0 536439.0 0
394000.0 536452.0 0
398000.0 536450.0 0
102000.0 540444.0 0
106000.0 540447.0 0
110000.0 540433.0 0
114000.0 540410.0 0
118000.0 540383.0 0
122000.0 540426.0 0
126000.0 540445.0 0
130000.0 540498.0 0
134000.0 540486.0 0
138000.0 540497.0 0
142000.0 540436.0 0
146000.0 540421.0 0
150000.0 540373.0 0
154000.0 540381.0 0
158000.0 540340.0 0
162000.0 540364.0 0
166000.0 540323.0 0
170000.0 540356.0 0
174000.0 540319.0 0
178000.0 540354.0 0
182000.0 540319.0 0
186000.0 540353.0 0
190000.0 540319.0 0
194000.0 540348.0 0
198000.0 540319.0 0
202000.0 540333.0 0
206000.0 540319.0 0
210000.0 540320.0 0
214000.0 540319.0 0
218000.0 540319.0 0
222000.0 540319.0 0
226000.0 540319.0 0
230000.0 540319.0 0
234000.0 540319.0 0
238000.0 540319.0 0
242000.0 540319.0 0
246000.0 540319.0 0
250000.0 540319.0 0
254000.0 540319.0 0
258000.0 540319.0 0
262000.0 540319.0 0
266000.0 540319.0 0
270000.0 540319.0 0
274000.0 540319.0 0
278000.0 540319.0 0
282000.0 540319.0 0
286000.0 540319.0 0
290000.0 540320.0 0
294000.0 540319.0 0
298000.0 540333.0 0
302000.0 540319.0 0
306000.0 540348.0 0
310000.0 540319.0 0
314000.0 540353.0 0
318000.0 540319.0 0
322000.0 540354.0 0
326000.0 540319.0 0
330000.0 540356.0 0
334000.0 540323.0 0
338000.0 540364.0 0
342000.0 540340.0 0
346000.0 540381.0 0
350000.0 540373.0 0
354000.0 540421.0 0
358000.0 540436.0 0
362000.0 540497.0 0
366000.0 540486.0 0
370000.0 540498.0 0
374000.0 540445.0 0
378000.0 540426.0 0
382000.0 540383.0 0
386000.0 540410.0 0
390000.0 540433.0 0
394000.0 540447.0 0
398000.0 540444.0 0
102000.0 544439.0 0
106000.0 544441.0 0
110000.0 544428.0 0
114000.0 544404.0 0
118000.0 544380.0 0
122000.0 544422.0 0
126000.0 544436.0 0
130000.0 544486.0 0
134000.0 544471.0 0
138000.0 544481.0 0
142000.0 544423.0 0
146000.0 544411.0 0
150000.0 544366.0 0
154000.0 544375.0 0
158000.0 544337.0 0
162000.0 544360.0 0
166000.0 544322.0 0
170000.0 544353.0 0
174000.0 544319.0 0
178000.0 544350.0 0
182000.0 544319.0 0
186000.0 544349.0 0
190000.0 544319.0 0
194000.0 544344.0 0
198000.0 544319.0 0
202000.0 544330.0 0
206000.0 544319.0 0
210000.0 544319.0 0
214000.0 544319.0 0
218000.0 544319.0 0
222000.0 544319.0 0
226000.0 544319.0 0
230000.0 544319.0 0
234000.0 544319.0 0
238000.0 544319.0 0
242000.0 544319.0 0
246000.0 544319.0 0
250000.0 544319.0 0
254000.0 544319.0 0
258000.0 544319.0 0
262000.0 544319.0 0
266000.0 544319.0 0
270000.0 544319.0 0
274000.0 544319.0 0
278000.0 544319.0 0
282000.0 544319.0 0
286000.0 544319.0 0
290000.0 544319.0 0
294000.0 544319.0 0
298000.0 544330.0 0
302000.0 544319.0 0
306000.0 544344.0 0
310000.0 544319.0 0
314000.0 544349.0 0
318000.0 544319.0 0
322000.0 544350.0 0
326000.0 544319.0 0
330000.0 544353.0 0
334000.0 544322.0 0
338000.0 544360.0 0
342000.0 544337.0 0
346000.0 544375.0 0
350000.0 544366.0 0
354000.0 544411.0 0
358000.0 544423.0 0
362000.0 544481.0 0
366000.0 544471.0 0
370000.0 544486.0 0
374000.0 544436.0 0
378000.0 544422.0 0
382000.0 544380.0 0
386000.0 544404.0 0
390000.0 544428.0 0
394000.0 544441.0 0
398000.0 544439.0 0
102000.0 548433.0 0
106000.0 548436.0 0
110000.0 548423.0 0
114000.0 548398.0 0
118000.0 548377.0 0
122000.0 548417.0 0
126000.0 548428.0 0
130000.0 548474.0 0
134000.0 548457.0 0
138000.0 548466.0 0
142000.0 548412.0 0
146000.0 548402.0 0
150000.0 548359.0 0
154000.0 548370.0 0
158000.0 548334.0 0
162000.0 548357.0 0
166000.0 548321.0 0
170000.0 548350.0 0
174000.0 548319.0 0
178000.0 548347.0 0
182000.0 548319.0 0
186000.0 548345.0 0
190000.0 548319.0 0
194000.0 548340.0 0
198000.0 548319.0 0
202000.0 548328.0 0
206000.0 548319.0 0
210000.0 548319.0 0
214000.0 548319.0 0
218000.0 548319.0 0
222000.0 548319.0 0
226000.0 548319.0 0
230000.0 548319.0 0
234000.0 548319.0 0
238000.0 548319.0 0
242000.0 548319.0 0
246000.0 548319.0 0
250000.0 548319.0 0
254000.0 548319.0 0
258000.0 548319.0 0
262000.0 548319.0 0
266000.0 548319.0 0
270000.0 548319.0 0
274000.0 548319.0 0
278000.0 548319.0 0
282000.0 548319.0 0
286000.0 548319.0 0
290000.0 548319.0 0
294000.0 548319.0 0
298000.0 548328.0 0
302000.0 548319.0 0
306000.0 548340.0 0
310000.0 548319.0 0
314000.0 548345.0 0
318000.0 548319.0 0
322000.0 548347.0 0
326000.0 548319.0 0
330000.0 548350.0 0
334000.0 548321.0 0
338000.0 548357.0 0
342000.0 548334.0 0
346000.0 548370.0 0
350000.0 548359.0 0
354000.0 548402.0 0
358000.0 548412.0 0
362000.0 548466.0 0
366000.0 548457.0 0
370000.0 548474.0 0
374000.0 548428.0 0
378000.0 548417.0 0
382000.0 548377.0 0
386000.0 548398.0 0
390000.0 548423.0 0
394000.0 548436.0 0
398000.0 548433.0 0
102000.0 552428.0 0
106000.0 552431.0 0
110000.0 552418.0 0
114000.0 552393.0 0
118000.0 552373.0 0
122000.0 552413.0 0
126000.0 552421.0 0
130000.0 552462.0 0
134000.0 552444.0 0
138000.0 552453.0 0
142000.0 552401.0 0
146000.0 552394.0 0
150000.0 552354.0 0
154000.0 552365.0 0
158000.0 552331.0 0
162000.0 552353.0 0
166000.0 552321.0 0
170000.0 552347.0 0
174000.0 552319.0 0
178000.0 552343.0 0
182000.0 552319.0 0
186000.0 552341.0 0
190000.0 552319.0 0
194000.0 552337.0 0
198000.0 552319.0 0
202000.0 552326.0 0
206000.0 552319.0 0
210000.0 552319.0 0
214000.0 552319.0 0
218000.0 552319.0 0
222000.0 552319.0 0
226000.0 552319.0 0
230000.0 552319.0 0
234000.0 552319.0 0
238000.0 552319.0 0
242000.0 552319.0 0
246000.0 552319.0 0
250000.0 552319.0 0
254000.0 552319.0 0
258000.0 552319.0 0
262000.0 552319.0 0
266000.0 552319.0 0
270000.0 552319.0 0
274000.0 552319.0 0
278000.0 552319.0 0
282000.0 552319.0 0
286000.0 552319.0 0
290000.0 552319.0 0
294000.0 552319.0 0
298000.0 552326.0 0
302000.0 552319.0 0
306000.0 552337.0 0
310000.0 552319.0 0
314000.0 552341.0 0
318000.0 552319.0 0
322000.0 552343.0 0
326000.0 552319.0 0
330000.0 552347.0 0
334000.0 552321.0 0
338000.0 552353.0 0
342000.0 552331.0 0
346000.0 552365.0 0
350000.0 552354.0 0
354000.0 552394.0 0
358000.0 552401.0 0
362000.0 552453.0 0
366000.0 552444.0 0
370000.0 552462.0 0
374000.0 552421.0 0
378000.0 552413.0 0
382000.0 552373.0 0
386000.0 552393.0 0
390000.0 552418.0 0
394000.0 552431.0 0
398000.0 552428.0 0
102000.0 556423.0 0
106000.0 556426.0 0
110000.0 556413.0 0
114000.0 556389.0 0
118000.0 556370.0 0
122000.0 556409.0 0
126000.0 556414.0 0
130000.0 556452.0 0
134000.0 556431.0 0
138000.0 556441.0 0
142000.0 556392.0 0
146000.0 556386.0 0
150000.0 556349.0 0
154000.0 556361.0 0
158000.0 556329.0 0
162000.0 556350.0 0
166000.0 556320.0 0
170000.0 556344.0 0
174000.0 556319.0 0
178000.0 556340.0 0
182000.0 556319.0 0
186000.0 556338.0 0
190000.0 556319.0 0
194000.0 556334.0 0
198000.0 556319.0 0
202000.0 556324.0 0
206000.0 556319.0 0
210000.0 556319.0 0
214000.0 556319.0 0
218000.0 556319.0 0
222000.0 556319.0 0
226000.0 556319.0 0
230000.0 556319.0 0
234000.0 556319.0 0
238000.0 556319.0 0
242000.0 556319.0 0
246000.0 556319.0 0
250000.0 556319.0 0
254000.0 556319.0 0
258000.0 556319.0 0
262000.0 556319.0 0
266000.0 556319.0 0
270000.0 556319.0 0
274000.0 556319.0 0
278000.0 556319.0 0
282000.0 556319.0 0
286000.0 556319.0 0
290000.0 556319.0 0
294000.0 556319.0 0
298000.0 556324.0 0
302000.0 556319.0 0
306000.0 556334.0 0
310000.0 556319.0 0
314000.0 556338.0 0
318000.0 556319.0 0
322000.0 556340.0 0
326000.0 556319.0 0
330000.0 556344.0 0
334000.0 556320.0 0
338000.0 556350.0 0
342000.0 556329.0 0
346000.0 556361.0 0
350000.0 556349.0 0
354000.0 556386.0 0
358000.0 556392.0 0
362000.0 556441.0 0
366000.0 556431.0 0
370000.0 556452.0 0
374000.0 556414.0 0
378000.0 556409.0 0
382000.0 556370.0 0
386000.0 556389.0 0
390000.0 556413.0 0
394000.0 556426.0 0
398000.0 556423.0 0
102000.0 560419.0 0
106000.0 560421.0 0
110000.0 560408.0 0
114000.0 560384.0 0
118000.0 560367.0 0
122000.0 560405.0 0
126000.0 560408.0 0
130000.0 560442.0 0
134000.0 560420.0 0
138000.0 560430.0 0
142000.0 560384.0 0
146000.0 560380.0 0
150000.0 560344.0 0
154000.0 560357.0 0
158000.0 560327.0 0
162000.0 560348.0 0
166000.0 560320.0 0
170000.0 560342.0 0
174000.0 560319.0 0
178000.0 560337.0 0
182000.0 560319.0 0
186000.0 560335.0 0
190000.0 560319.0 0
194000.0 560331.0 0
198000.0 560319.0 0
202000.0 560323.0 0
206000.0 560319.0 0
210000.0 560319.0 0
214000.0 560319.0 0
218000.0 560319.0 0
222000.0 560319.0 0
226000.0 560319.0 0
230000.0 560319.0 0
234000.0 560319.0 0
238000.0 560319.0 0
242000.0 560319.0 0
246000.0 560319.0 0
250000.0 560319.0 0
254000.0 560319.0 0
258000.0 560319.0 0
262000.0 560319.0 0
266000.0 560319.0 0
270000.0 560319.0 0
274000.0 560319.0 0
278000.0 560319.0 0
282000.0 560319.0 0
286000.0 560319.0 0
290000.0 560319.0 0
294000.0 560319.0 0
298000.0 560323.0 0
302000.0 560319.0 0
306000.0 560331.0 0
310000.0 560319.0 0
314000.0 560335.0 0
318000.0 560319.0 0
322000.0 560337.0 0
326000.0 560319.0 0
330000.0 560342.0 0
334000.0 560320.0 0
338000.0 560348.0 0
342000.0 560327.0 0
346000.0 560357.0 0
350000.0 560344.0 0
354000.0 560380.0 0
358000.0 560384.0 0
362000.0 560430.0 0
366000.0 560420.0 0
370000.0 560442.0 0
374000.0 560408.0 0
378000.0 560405.0 0
382000.0 560367.0 0
386000.0 560384.0 0
390000.0 560408.0 0
394000.0 560421.0 0
398000.0 560419.0 0
102000.0 564414.0 0
106000.0 564416.0 0
110000.0 564404.0 0
114000.0 564381.0 0
118000.0 564364.0 0
122000.0 564401.0 0
126000.0 564402.0 0
130000.0 564433.0 0
134000.0 564410.0 0
138000.0 564420.0 0
142000.0 564376.0 0
146000.0 564374.0 0
150000.0 564341.0 0
154000.0 564353.0 0
158000.0 564326.0 0
162000.0 564345.0 0
166000.0 564320.0 0
170000.0 564340.0 0
174000.0 564319.0 0
178000.0 564335.0 0
182000.0 564319.0 0
186000.0 564333.0 0
190000.0 564319.0 0
194000.0 564329.0 0
198000.0 564319.0 0
202000.0 564322.0 0
206000.0 564319.0 0
210000.0 564319.0 0
214000.0 564319.0 0
218000.0 564319.0 0
222000.0 564319.0 0
226000.0 564319.0 0
230000.0 564319.0 0
234000.0 564319.0 0
238000.0 564319.0 0
242000.0 564319.0 0
246000.0 564319.0 0
250000.0 564319.0 0
254000.0 564319.0 0
258000.0 564319.0 0
262000.0 564319.0 0
266000.0 564319.0 0
270000.0 564319.0 0
274000.0 564319.0 0
278000.0 564319.0 0
282000.0 564319.0 0
286000.0 564319.0 0
290000.0 564319.0 0
294000.0 564319.0 0
298000.0 564322.0 0
302000.0 564319.0 0
306000.0 564329.0 0
310000.0 564319.0 0
314000.0 564333.0 0
318000.0 564319.0 0
322000.0 564335.0 0
326000.0 564319.0 0
330000.0 564340.0 0
334000.0 564320.0 0
338000.0 564345.0 0
342000.0 564326.0 0
346000.0 564353.0 0
350000.0 564341.0 0
354000.0 564374.0 0
358000.0 564376.0 0
362000.0 564420.0 0
366000.0 564410.0 0
370000.0 564433.0 0
374000.0 564402.0 0
378000.0 564401.0 0
382000.0 564364.0 0
386000.0 564381.0 0
390000.0 564404.0 0
394000.0 564416.0 0
398000.0 564414.0 0
102000.0 568410.0 0
106000.0 568411.0 0
110000.0 568399.0 0
114000.0 568377.0 0
118000.0 568361.0 0
122000.0 568397.0 0
126000.0 568396.0 0
130000.0 568424.0 0
134000.0 568400.0 0
138000.0 568411.0 0
142000.0 568369.0 0
146000.0 568369.0 0
150000.0 568337.0 0
154000.0 568350.0 0
158000.0 568324.0 0
162000.0 568342.0 0
166000.0 568319.0 0
170000.0 568337.0 0
174000.0 568319.0 0
178000.0 568333.0 0
182000.0 568319.0 0
186000.0 568331.0 0
190000.0 568319.0 0
194000.0 568327.0 0
198000.0 568319.0 0
202000.0 568321.0 0
206000.0 568319.0 0
210000.0 568319.0 0
214000.0 568319.0 0
218000.0 568319.0 0
222000.0 568319.0 0
226000.0 568319.0 0
230000.0 568319.0 0
234000.0 568319.0 0
238000.0 568319.0 0
242000.0 568319.0 0
246000.0 568319.0 0
250000.0 568319.0 0
254000.0 568319.0 0
258000.0 568319.0 0
262000.0 568319.0 0
266000.0 568319.0 0
270000.0 568319.0 0
274000.0 568319.0 0
278000.0 568319.0 0
282000.0 568319.0 0
286000.0 568319.0 0
290000.0 568319.0 0
294000.0 568319.0 0
298000.0 568321.0 0
302000.0 568319.0 0
306000.0 568327.0 0
310000.0 568319.0 0
314000.0 568331.0 0
318000.0 568319.0 0
322000.0 568333.0 0
326000.0 568319.0 0
330000.0 568337.0 0
334000.0 568319.0 0
338000.0 568342.0 0
342000.0 568324.0 0
346000.0 568350.0 0
350000.0 568337.0 0
354000.0 568369.0 0
358000.0 568369.0 0
362000.0 568411.0 0
366000.0 568400.0 0
370000.0 568424.0 0
374000.0 568396.0 0
378000.0 568397.0 0
382000.0 568361.0 0
386000.0 568377.0 0
390000.0 568399.0 0
394000.0 568411.0 0
398000.0 568410.0 0
102000.0 572406.0 0
106000.0 572407.0 0
110000.0 572395.0 0
114000.0 572374.0 0
118000.0 572358.0 0
122000.0 572394.0 0
126000.0 572391.0 0
130000.0 572416.0 0
134000.0 572391.0 0
138000.0 572403.0 0
142000.0 572364.0 0
146000.0 572364.0 0
150000.0 572335.0 0
154000.0 572347.0 0
158000.0 572323.0 0
162000.0 572340.0 0
166000.0 572319.0 0
170000.0 572335.0 0
174000.0 572319.0 0
178000.0 572331.0 0
182000.0 572319.0 0
186000.0 572329.0 0
190000.0 572319.0 0
194000.0 572326.0 0
198000.0 572319.0 0
202000.0 572321.0 0
206000.0 572319.0 0
210000.0 572319.0 0
214000.0 572319.0 0
218000.0 572319.0 0
222000.0 572319.0 0
226000.0 572319.0 0
230000.0 572319.0 0
234000.0 572319.0 0
238000.0 572319.0 0
242000.0 572319.0 0
246000.0 572319.0 0
250000.0 572319.0 0
254000.0 572319.0 0
258000.0 572319.0 0
262000.0 572319.0 0
266000.0 572319.0 0
270000.0 572319.0 0
274000.0 572319.0 0
278000.0 572319.0 0
282000.0 572319.0 0
286000.0 572319.0 0
290000.0 572319.0 0
294000.0 572319.0 0
298000.0 572321.0 0
302000.0 572319.0 0
306000.0 572326.0 0
310000.0 572319.0 0
314000.0 572329.0 0
318000.0 572319.0 0
322000.0 572331.0 0
326000.0 572319.0 0
330000.0 572335.0 0
334000.0 572319.0 0
338000.0 572340.0 0
342000.0 572323.0 0
346000.0 572347.0 0
350000.0 572335.0 0
354000.0 572364.0 0
358000.0 572364.0 0
362000.0 572403.0 0
366000.0 572391.0 0
370000.0 572416.0 0
374000.0 572391.0 0
378000.0 572394.0 0
382000.0 572358.0 0
386000.0 572374.0 0
390000.0 572395.0 0
394000.0 572407.0 0
398000.0 572406.0 0
102000.0 576402.0 0
106000.0 576403.0 0
110000.0 576391.0 0
114000.0 576371.0 0
118000.0 576356.0 0
122000.0 576390.0 0
126000.0 576386.0 0
130000.0 576409.0 0
134000.0 576384.0 0
138000.0 576396.0 0
142000.0 576358.0 0
146000.0 576360.0 0
150000.0 576332.0 0
154000.0 576344.0 0
158000.0 576322.0 0
162000.0 576338.0 0
166000.0 576319.0 0
170000.0 576334.0 0
174000.0 576319.0 0
178000.0 576329.0 0
182000.0 576319.0 0
186000.0 576327.0 0
190000.0 576319.0 0
194000.0 576325.0 0
198000.0 576319.0 0
202000.0 576320.0 0
206000.0 576319.0 0
210000.0 576319.0 0
214000.0 576319.0 0
218000.0 576319.0 0
222000.0 576319.0 0
226000.0 576319.0 0
230000.0 576319.0 0
234000.0 576319.0 0
238000.0 576319.0 0
242000.0 576319.0 0
246000.0 576319.0 0
250000.0 576319.0 0
254000.0 576319.0 0
258000.0 576319.0 0
262000.0 576319.0 0
266000.0 576319.0 0
270000.0 576319.0 0
274000.0 576319.0 0
278000.0 576319.0 0
282000.0 576319.0 0
286000.0 576319.0 0
290000.0 576319.0 0
294000.0 576319.0 0
298000.0 576320.0 0
302000.0 576319.0 0
306000.0 576325.0 0
310000.0 576319.0 0
314000.0 576327.0 0
318000.0 576319.0 0
322000.0 576329.0 0
326000.0 576319.0 0
330000.0 576334.0 0
334000.0 576319.0 0
338000.0 576338.0 0
342000.0 576322.0 0
346000.0 576344.0 0
350000.0 576332.0 0
354000.0 576360.0 0
358000.0 576358.0 0
362000.0 576396.0 0
366000.0 576384.0 0
370000.0 576409.0 0
374000.0 576386.0 0
378000.0 576390.0 0
382000.0 576356.0 0
386000.0 576371.0 0
390000.0 576391.0 0
394000.0 576403.0 0
398000.0 576402.0 0
102000.0 580398.0 0
106000.0 580399.0 0
110000.0 580388.0 0
114000.0 580368.0 0
118000.0 580353.0 0
122000.0 580387.0 0
126000.0 580382.0 0
130000.0 580402.0 0
134000.0 580377.0 0
138000.0 580389.0 0
142000.0 580354.0 0
146000.0 580356.0 0
150000.0 580330.0 0
154000.0 580342.0 0
158000.0 580322.0 0
162000.0 580336.0 0
166000.0 580319.0 0
170000.0 580332.0 0
174000.0 580319.0 0
178000.0 580328.0 0
182000.0 580319.0 0
186000.0 580326.0 0
190000.0 580319.0 0
194000.0 580323.0 0
198000.0 580319.0 0
202000.0 580320.0 0
206000.0 580319.0 0
210000.0 580319.0 0
214000.0 580319.0 0
218000.0 580319.0 0
222000.0 580319.0 0
226000.0 580319.0 0
230000.0 580319.0 0
234000.0 580319.0 0
238000.0 580319.0 0
242000.0 580319.0 0
246000.0 580319.0 0
250000.0 580319.0 0
254000.0 580319.0 0
258000.0 580319.0 0
262000.0 580319.0 0
266000.0 580319.0 0
270000.0 580319.0 0
274000.0 580319.0 0
278000.0 580319.0 0
282000.0 580319.0 0
286000.0 580319.0 0
290000.0 580319.0 0
294000.0 580319.0 0
298000.0 580320.0 0
302000.0 580319.0 0
306000.0 580323.0 0
310000.0 580319.0 0
314000.0 580326.0 0
318000.0 580319.0 0
322000.0 580328.0 0
326000.0 580319.0 0
330000.0 580332.0 0
334000.0 580319.0 0
338000.0 580336.0 0
342000.0 580322.0 0
346000.0 580342.0 0
350000.0 580330.0 0
354000.0 580356.0 0
358000.0 580354.0 0
362000.0 580389.0 0
366000.0 580377.0 0
370000.0 580402.0 0
374000.0 580382.0 0
378000.0 580387.0 0
382000.0 580353.0 0
386000.0 580368.0 0
390000.0 580388.0 0
394000.0 580399.0 0
398000.0 580398.0 0
102000.0 584395.0 0
106000.0 584395.0 0
110000.0 584384.0 0
114000.0 584365.0 0
118000.0 584351.0 0
122000.0 584383.0 0
126000.0 584378.0 0
130000.0 584396.0 0
134000.0 584370.0 0
138000.0 584383.0 0
142000.0 584350.0 0
146000.0 584352.0 0
150000.0 584328.0 0
154000.0 584340.0 0
158000.0 584321.0 0
162000.0 584335.0 0
166000.0 584319.0 0
170000.0 584331.0 0
174000.0 584319.0 0
178000.0 584327.0 0
182000.0 584319.0 0
186000.0 584325.0 0
190000.0 584319.0 0
194000.0 584323.0 0
198000.0 584319.0 0
202000.0 584320.0 0
206000.0 584319.0 0
210000.0 584319.0 0
214000.0 584319.0 0
218000.0 584319.0 0
222000.0 584319.0 0
226000.0 584319.0 0
230000.0 584319.0 0
234000.0 584319.0 0
238000.0 584319.0 0
242000.0 584319.0 0
246000.0 584319.0 0
250000.0 584319.0 0
254000.0 584319.0 0
258000.0 584319.0 0
262000.0 584319.0 0
266000.0 584319.0 0
270000.0 584319.0 0
274000.0 584319.0 0
278000.0 584319.0 0
282000.0 584319.0 0
286000.0 584319.0 0
290000.0 584319.0 0
294000.0 584319.0 0
298000.0 584320.0 0
302000.0 584319.0 0
306000.0 584323.0 0
310000.0 584319.0 0
314000.0 584325.0 0
318000.0 584319.0 0
322000.0 584327.0 0
326000.0 584319.0 0
330000.0 584331.0 0
334000.0 584319.0 0
338000.0 584335.0 0
342000.0 584321.0 0
346000.0 584340.0 0
350000.0 584328.0 0
354000.0 584352.0 0
358000.0 584350.0 0
362000.0 584383.0 0
366000.0 584370.0 0
370000.0 584396.0 0
374000.0 584378.0 0
378000.0 584383.0 0
382000.0 584351.0 0
386000.0 584365.0 0
390000.0 584384.0 0
394000.0 584395.0 0
398000.0 584395.0 0
102000.0 588392.0 0
106000.0 588392.0 0
110000.0 588381.0 0
114000.0 588363.0 0
118000.0 588349.0 0
122000.0 588380.0 0
126000.0 588374.0 0
130000.0 588390.0 0
134000.0 588365.0 0
138000.0 588378.0 0
142000.0 588346.0 0
146000.0 588349.0 0
150000.0 588327.0 0
154000.0 588338.0 0
158000.0 588321.0 0
162000.0 588333.0 0
166000.0 588319.0 0
170000.0 588329.0 0
174000.0 588319.0 0
178000.0 588326.0 0
182000.0 588319.0 0
186000.0 588324.0 0
190000.0 588319.0 0
194000.0 588322.0 0
198000.0 588319.0 0
202000.0 588319.0 0
206000.0 588319.0 0
210000.0 588319.0 0
214000.0 588319.0 0
218000.0 588319.0 0
222000.0 588319.0 0
226000.0 588319.0 0
230000.0 588319.0 0
234000.0 588319.0 0
238000.0 588319.0 0
242000.0 588319.0 0
246000.0 588319.0 0
250000.0 588319.0 0
254000.0 588319.0 0
258000.0 588319.0 0
262000.0 588319.0 0
266000.0 588319.0 0
270000.0 588319.0 0
274000.0 588319.0 0
278000.0 588319.0 0
282000.0 588319.0 0
286000.0 588319.0 0
290000.0 588319.0 0
294000.0 588319.0 0
298000.0 588319.0 0
302000.0 588319.0 0
306000.0 588322.0 0
310000.0 588319.0 0
314000.0 588324.0 0
318000.0 588319.0 0
322000.0 588326.0 0
326000.0 588319.0 0
330000.0 588329.0 0
334000.0 588319.0 0
338000.0 588333.0 0
342000.0 588321.0 0
346000.0 588338.0 0
350000.0 588327.0 0
354000.0 588349.0 0
358000.0 588346.0 0
362000.0 588378.0 0
366000.0 588365.0 0
370000.0 588390.0 0
374000.0 588374.0 0
378000.0 588380.0 0
382000.0 588349.0 0
386000.0 588363.0 0
390000.0 588381.0 0
394000.0 588392.0 0
398000.0 588392.0 0
102000.0 592389.0 0
106000.0 592388.0 0
110000.0 592378.0 0
114000.0 592361.0 0
118000.0 592347.0 0
122000.0 592377.0 0
126000.0 592370.0 0
130000.0 592385.0 0
134000.0 592360.0 0
138000.0 592373.0 0
142000.0 592343.0 0
146000.0 592347.0 0
150000.0 592325.0 0
154000.0 592336.0 0
158000.0 592320.0 0
162000.0 592332.0 0
166000.0 592319.0 0
170000.0 592328.0 0
174000.0 592319.0 0
178000.0 592325.0 0
182000.0 592319.0 0
186000.0 592323.0 0
190000.0 592319.0 0
194000.0 592321.0 0
198000.0 592319.0 0
202000.0 592319.0 0
206000.0 592319.0 0
210000.0 592319.0 0
214000.0 592319.0 0
218000.0 592319.0 0
222000.0 592319.0 0
226000.0 592319.0 0
230000.0 592319.0 0
234000.0 592319.0 0
238000.0 592319.0 0
242000.0 592319.0 0
246000.0 592319.0 0
250000.0 592319.0 0
254000.0 592319.0 0
258000.0 592319.0 0
262000.0 592319.0 0
266000.0 592319.0 0
270000.0 592319.0 0
274000.0 592319.0 0
278000.0 592319.0 0
282000.0 592319.0 0
286000.0 592319.0 0
290000.0 592319.0 0
294000.0 592319.0 0
298000.0 592319.0 0
302000.0 592319.0 0
306000.0 592321.0 0
310000.0 592319.0 0
314000.0 592323.0 0
318000.0 592319.0 0
322000.0 592325.0 0
326000.0 592319.0 0
330000.0 592328.0 0
334000.0 592319.0 0
338000.0 592332.0 0
342000.0 592320.0 0
346000.0 592336.0 0
350000.0 592325.0 0
354000.0 592347.0 0
358000.0 592343.0 0
362000.0 592373.0 0
366000.0 592360.0 0
370000.0 592385.0 0
374000.0 592370.0 0
378000.0 592377.0 0
382000.0 592347.0 0
386000.0 592361.0 0
390000.0 592378.0 0
394000.0 592388.0 0
398000.0 592389.0 0
102000.0 596386.0 0
106000.0 596385.0 0
110000.0 596375.0 0
114000.0 596359.0 0
118000.0 596346.0 0
122000.0 596375.0 0
126000.0 596367.0 0
130000.0 596381.0 0
134000.0 596355.0 0
138000.0 596369.0 0
142000.0 596340.0 0
146000.0 596344.0 0
150000.0 596324.0 0
154000.0 596335.0 0
158000.0 596320.0 0
162000.0 596331.0 0
166000.0 596319.0 0
170000.0 596327.0 0
174000.0 596319.0 0
178000.0 596324.0 0
182000.0 596319.0 0
186000.0 596322.0 0
190000.0 596319.0 0
194000.0 596321.0 0
198000.0 596319.0 0
202000.0 596319.0 0
206000.0 596319.0 0
210000.0 596319.0 0
214000.0 596319.0 0
218000.0 596319.0 0
222000.0 596319.0 0
226000.0 596319.0 0
230000.0 596319.0 0
234000.0 596319.0 0
238000.0 596319.0 0
242000.0 596319.0 0
246000.0 596319.0 0
250000.0 596319.0 0
254000.0 596319.0 0
258000.0 596319.0 0
262000.0 596319.0 0
266000.0 596319.0 0
270000.0 596319.0 0
274000.0 596319.0 0
278000.0 596319.0 0
282000.0 596319.0 0
286000.0 596319.0 0
290000.0 596319.0 0
294000.0 596319.0 0
298000.0 596319.0 0
302000.0 596319.0 0
306000.0 596321.0 0
310000.0 596319.0 0
314000.0 596322.0 0
318000.0 596319.0 0
322000.0 596324.0 0
326000.0 596319.0 0
330000.0 596327.0 0
334000.0 596319.0 0
338000.0 596331.0 0
342000.0 596320.0 0
346000.0 596335.0 0
350000.0 596324.0 0
354000.0 596344.0 0
358000.0 596340.0 0
362000.0 596369.0 0
366000.0 596355.0 0
370000.0 596381.0 0
374000.0 596367.0 0
378000.0 596375.0 0
382000.0 596346.0 0
386000.0 596359.0 0
390000.0 596375.0 0
394000.0 596385.0 0
398000.0 596386.0 0
102000.0 600384.0 0
106000.0 600383.0 0
110000.0 600373.0 0
114000.0 600357.0 0
118000.0 600344.0 0
122000.0 600372.0 0
126000.0 600364.0 0
130000.0 600376.0 0
134000.0 600352.0 0
138000.0 600365.0 0
142000.0 600337.0 0
146000.0 600342.0 0
150000.0 600323.0 0
154000.0 600333.0 0
158000.0 600320.0 0
162000.0 600330.0 0
166000.0 600319.0 0
170000.0 600326.0 0
174000.0 600319.0 0
178000.0 600323.0 0
182000.0 600319.0 0
186000.0 600322.0 0
190000.0 600319.0 0
194000.0 600320.0 0
198000.0 600319.0 0
202000.0 600319.0 0
206000.0 600319.0 0
210000.0 600319.0 0
214000.0 600319.0 0
218000.0 600319.0 0
222000.0 600319.0 0
226000.0 600319.0 0
230000.0 600319.0 0
234000.0 600319.0 0
238000.0 600319.0 0
242000.0 600319.0 0
246000.0 600319.0 0
250000.0 600319.0 0
254000.0 600319.0 0
258000.0 600319.0 0
262000.0 600319.0 0
266000.0 600319.0 0
270000.0 600319.0 0
274000.0 600319.0 0
278000.0 600319.0 0
282000.0 600319.0 0
286000.0 600319.0 0
290000.0 600319.0 0
294000.0 600319.0 0
298000.0 600319.0 0
302000.0 600319.0 0
306000.0 600320.0 0
310000.0 600319.0 0
314000.0 600322.0 0
318000.0 600319.0 0
322000.0 600323.0 0
326000.0 600319.0 0
330000.0 600326.0 0
334000.0 600319.0 0
338000.0 600330.0 0
342000.0 600320.0 0
346000.0 600333.0 0
350000.0 600323.0 0
354000.0 600342.0 0
358000.0 600337.0 0
362000.0 600365.0 0
366000.0 600352.0 0
370000.0 600376.0 0
374000.0 600364.0 0
378000.0 600372.0 0
382000.0 600344.0 0
386000.0 600357.0 0
390000.0 600373.0 0
394000.0 600383.0 0
398000.0 600384.0 0
102000.0 604382.0 0
106000.0 604380.0 0
110000.0 604371.0 0
114000.0 604356.0 0
118000.0 604343.0 0
122000.0 604370.0 0
126000.0 604361.0 0
130000.0 604373.0 0
134000.0 604348.0 0
138000.0 604362.0 0
142000.0 604335.0 0
146000.0 604340.0 0
150000.0 604323.0 0
154000.0 604332.0 0
158000.0 604319.0 0
162000.0 604329.0 0
166000.0 604319.0 0
170000.0 604325.0 0
174000.0 604319.0 0
178000.0 604322.0 0
182000.0 604319.0 0
186000.0 604321.0 0
190000.0 604319.0 0
194000.0 604320.0 0
198000.0 604319.0 0
202000.0 604319.0 0
206000.0 604319.0 0
210000.0 604319.0 0
214000.0 604319.0 0
218000.0 604319.0 0
222000.0 604319.0 0
226000.0 604319.0 0
230000.0 604319.0 0
234000.0 604319.0 0
238000.0 604319.0 0
242000.0 604319.0 0
246000.0 604319.0 0
250000.0 604319.0 0
254000.0 604319.0 0
258000.0 604319.0 0
262000.0 604319.0 0
266000.0 604319.0 0
270000.0 604319.0 0
274000.0 604319.0 0
278000.0 604319.0 0
282000.0 604319.0 0
286000.0 604319.0 0
290000.0 604319.0 0
294000.0 604319.0 0
298000.0 604319.0 0
302000.0 604319.0 0
306000.0 604320.0 0
310000.0 604319.0 0
314000.0 604321.0 0
318000.0 604319.0 0
322000.0 604322.0 0
326000.0 604319.0 0
330000.0 604325.0 0
334000.0 604319.0 0
338000.0 604329.0 0
342000.0 604319.0 0
346000.0 604332.0 0
350000.0 604323.0 0
354000.0 604340.0 0
358000.0 604335.0 0
362000.0 604362.0 0
366000.0 604348.0 0
370000.0 604373.0 0
374000.0 604361.0 0
378000.0 604370.0 0
382000.0 604343.0 0
386000.0 604356.0 0
390000.0 604371.0 0
394000.0 604380.0 0
398000.0 604382.0 0
102000.0 608380.0 0
106000.0 608378.0 0
110000.0 608369.0 0
114000.0 608354.0 0
118000.0 608342.0 0
122000.0 608368.0 0
126000.0 608359.0 0
130000.0 608369.0 0
134000.0 608345.0 0
138000.0 608359.0 0
142000.0 608334.0 0
146000.0 608338.0 0
150000.0 608322.0 0
154000.0 608331.0 0
158000.0 608319.0 0
162000.0 608328.0 0
166000.0 608319.0 0
170000.0 608325.0 0
174000.0 608319.0 0
178000.0 608322.0 0
182000.0 608319.0 0
186000.0 608321.0 0
190000.0 608319.0 0
194000.0 608320.0 0
198000.0 608319.0 0
202000.0 608319.0 0
206000.0 608319.0 0
210000.0 608319.0 0
214000.0 608319.0 0
218000.0 608319.0 0
222000.0 608319.0 0
226000.0 608319.0 0
230000.0 608319.0 0
234000.0 608319.0 0
238000.0 608319.0 0
242000.0 608319.0 0
246000.0 608319.0 0
250000.0 608319.0 0
254000.0 608319.0 0
258000.0 608319.0 0
262000.0 608319.0 0
266000.0 608319.0 0
270000.0 608319.0 0
274000.0 608319.0 0
278000.0 608319.0 0
282000.0 608319.0 0
286000.0 608319.0 0
290000.0 608319.0 0
294000.0 608319.0 0
298000.0 608319.0 0
302000.0 608319.0 0
306000.0 608320.0 0
310000.0 608319.0 0
314000.0 608321.0 0
318000.0 608319.0 0
322000.0 608322.0 0
326000.0 608319.0 0
330000.0 608325.0 0
334000.0 608319.0 0
338000.0 608328.0 0
342000.0 608319.0 0
346000.0 608331.0 0
350000.0 608322.0 0
354000.0 608338.0 0
358000.0 608334.0 0
362000.0 608359.0 0
366000.0 608345.0 0
370000.0 608369.0 0
374000.0 608359.0 0
378000.0 608368.0 0
382000.0 608342.0 0
386000.0 608354.0 0
390000.0 608369.0 0
394000.0 608378.0 0
398000.0 608380.0 0
102000.0 612378.0 0
106000.0 612376.0 0
110000.0 612367.0 0
114000.0 612353.0 0
118000.0 612340.0 0
122000.0 612366.0 0
126000.0 612357.0 0
130000.0 612367.0 0
134000.0 612343.0 0
138000.0 612356.0 0
142000.0 612332.0 0
146000.0 612337.0 0
150000.0 612322.0 0
154000.0 612330.0 0
158000.0 612319.0 0
162000.0 612327.0 0
166000.0 612319.0 0
170000.0 612324.0 0
174000.0 612319.0 0
178000.0 612322.0 0
182000.0 612319.0 0
186000.0 612320.0 0
190000.0 612319.0 0
194000.0 612320.0 0
198000.0 612319.0 0
202000.0 612319.0 0
206000.0 612319.0 0
210000.0 612319.0 0
214000.0 612319.0 0
218000.0 612319.0 0
222000.0 612319.0 0
226000.0 612319.0 0
230000.0 612319.0 0
234000.0 612319.0 0
238000.0 612319.0 0
242000.0 612319.0 0
246000.0 612319.0 0
250000.0 612319.0 0
254000.0 612319.0 0
258000.0 612319.0 0
262000.0 612319.0 0
266000.0 612319.0 0
270000.0 612319.0 0
274000.0 612319.0 0
278000.0 612319.0 0
282000.0 612319.0 0
286000.0 612319.0 0
290000.0 612319.0 0
294000.0 612319.0 0
298000.0 612319.0 0
302000.0 612319.0 0
306000.0 612320.0 0
310000.0 612319.0 0
314000.0 612320.0 0
318000.0 612319.0 0
322000.0 612322.0 0
326000.0 612319.0 0
330000.0 612324.0 0
334000.0 612319.0 0
338000.0 612327.0 0
342000.0 612319.0 0
346000.0 612330.0 0
350000.0 612322.0 0
354000.0 612337.0 0
358000.0 612332.0 0
362000.0 612356.0 0
366000.0 612343.0 0
370000.0 612367.0 0
374000.0 612357.0 0
378000.0 612366.0 0
382000.0 612340.0 0
386000.0 612353.0 0
390000.0 612367.0 0
394000.0 612376.0 0
398000.0 612378.0 0
102000.0 616376.0 0
106000.0 616375.0 0
110000.0 616365.0 0
114000.0 616352.0 0
118000.0 616340.0 0
122000.0 616365.0 0
126000.0 616355.0 0
130000.0 616364.0 0
134000.0 616341.0 0
138000.0 616354.0 0
142000.0 616331.0 0
146000.0 616336.0 0
150000.0 616321.0 0
154000.0 616330.0 0
158000.0 616319.0 0
162000.0 616326.0 0
166000.0 616319.0 0
170000.0 616323.0 0
174000.0 616319.0 0
178000.0 616321.0 0
182000.0 616319.0 0
186000.0 616320.0 0
190000.0 616319.0 0
194000.0 616319.0 0
198000.0 616319.0 0
202000.0 616319.0 0
206000.0 616319.0 0
210000.0 616319.0 0
214000.0 616319.0 0
218000.0 616319.0 0
222000.0 616319.0 0
226000.0 616319.0 0
230000.0 616319.0 0
234000.0 616319.0 0
238000.0 616319.0 0
242000.0 616319.0 0
246000.0 616319.0 0
250000.0 616319.0 0
254000.0 616319.0 0
258000.0 616319.0 0
262000.0 616319.0 0
266000.0 616319.0 0
270000.0 616319.0 0
274000.0 616319.0 0
278000.0 616319.0 0
282000.0 616319.0 0
286000.0 616319.0 0
290000.0 616319.0 0
294000.0 616319.0 0
298000.0 616319.0 0
302000.0 616319.0 0
306000.0 616319.0 0
310000.0 616319.0 0
314000.0 616320.0 0
318000.0 616319.0 0
322000.0 616321.0 0
326000.0 616319.0 0
330000.0 616323.0 0
334000.0 616319.0 0
338000.0 616326.0 0
342000.0 616319.0 0
346000.0 616330.0 0
350000.0 616321.0 0
354000.0 616336.0 0
358000.0 616331.0 0
362000.0 616354.0 0
366000.0 616341.0 0
370000.0 616364.0 0
374000.0 616355.0 0
378000.0 616365.0 0
382000.0 616340.0 0
386000.0 616352.0 0
390000.0 616365.0 0
394000.0 616375.0 0
398000.0 616376.0 0
102000.0 620375.0 0
106000.0 620373.0 0
110000.0 620364.0 0
114000.0 620351.0 0
118000.0 620339.0 0
122000.0 620363.0 0
126000.0 620353.0 0
130000.0 620362.0 0
134000.0 620339.0 0
138000.0 620352.0 0
142000.0 620330.0 0
146000.0 620335.0 0
150000.0 620321.0 0
154000.0 620329.0 0
158000.0 620319.0 0
162000.0 620326.0 0
166000.0 620319.0 0
170000.0 620323.0 0
174000.0 620319.0 0
178000.0 620321.0 0
182000.0 620319.0 0
186000.0 620320.0 0
190000.0 620319.0 0
194000.0 620319.0 0
198000.0 620319.0 0
202000.0 620319.0 0
206000.0 620319.0 0
210000.0 620319.0 0
214000.0 620319.0 0
218000.0 620319.0 0
222000.0 620319.0 0
226000.0 620319.0 0
230000.0 620319.0 0
234000.0 620319.0 0
238000.0 620319.0 0
242000.0 620319.0 0
246000.0 620319.0 0
250000.0 620319.0 0
254000.0 620319.0 0
258000.0 620319.0 0
262000.0 620319.0 0
266000.0 620319.0 0
270000.0 620319.0 0
274000.0 620319.0 0
278000.0 620319.0 0
282000.0 620319.0 0
286000.0 620319.0 0
290000.0 620319.0 0
294000.0 620319.0 0
298000.0 620319.0 0
302000.0 620319.0 0
306000.0 620319.0 0
310000.0 620319.0 0
314000.0 620320.0 0
318000.0 620319.0 0
322000.0 620321.0 0
326000.0 620319.0 0
330000.0 620323.0 0
334000.0 620319.0 0
338000.0 620326.0 0
342000.0 620319.0 0
346000.0 620329.0 0
350000.0 620321.0 0
354000.0 620335.0 0
358000.0 620330.0 0
362000.0 620352.0 0
366000.0 620339.0 0
370000.0 620362.0 0
374000.0 620353.0 0
378000.0 620363.0 0
382000.0 620339.0 0
386000.0 620351.0 0
390000.0 620364.0 0
394000.0 620373.0 0
398000.0 620375.0 0
102000.0 624374.0 0
106000.0 624372.0 0
110000.0 624363.0 0
114000.0 624350.0 0
118000.0 624338.0 0
122000.0 624362.0 0
126000.0 624352.0 0
130000.0 624361.0 0
134000.0 624338.0 0
138000.0 624351.0 0
142000.0 624329.0 0
146000.0 624334.0 0
150000.0 624320.0 0
154000.0 624328.0 0
158000.0 624319.0 0
162000.0 624326.0 0
166000.0 624319.0 0
170000.0 624323.0 0
174000.0 624319.0 0
178000.0 624321.0 0
182000.0 624319.0 0
186000.0 624320.0 0
190000.0 624319.0 0
194000.0 624319.0 0
198000.0 624319.0 0
202000.0 624319.0 0
206000.0 624319.0 0
210000.0 624319.0 0
214000.0 624319.0 0
218000.0 624319.0 0
222000.0 624319.0 0
226000.0 624319.0 0
230000.0 624319.0 0
234000.0 624319.0 0
238000.0 624319.0 0
242000.0 624319.0 0
246000.0 624319.0 0
250000.0 624319.0 0
254000.0 624319.0 0
258000.0 624319.0 0
262000.0 624319.0 0
266000.0 624319.0 0
270000.0 624319.0 0
274000.0 624319.0 0
278000.0 624319.0 0
282000.0 624319.0 0
286000.0 624319.0 0
290000.0 624319.0 0
294000.0 624319.0 0
298000.0 624319.0 0
302000.0 624319.0 0
306000.0 624319.0 0
310000.0 624319.0 0
314000.0 624320.0 0
318000.0 624319.0 0
322000.0 624321.0 0
326000.0 624319.0 0
330000.0 624323.0 0
334000.0 624319.0 0
338000.0 624326.0 0
342000.0 624319.0 0
346000.0 624328.0 0
350000.0 624320.0 0
354000.0 624334.0 0
358000.0 624329.0 0
362000.0 624351.0 0
366000.0 624338.0 0
370000.0 624361.0 0
374000.0 624352.0 0
378000.0 624362.0 0
382000.0 624338.0 0
386000.0 624350.0 0
390000.0 624363.0 0
394000.0 624372.0 0
398000.0 624374.0 0
102000.0 628374.0 0
106000.0 628371.0 0
110000.0 628362.0 0
114000.0 628350.0 0
118000.0 628338.0 0
122000.0 628362.0 0
126000.0 628351.0 0
130000.0 628360.0 0
134000.0 628337.0 0
138000.0 628350.0 0
142000.0 628328.0 0
146000.0 628334.0 0
150000.0 628320.0 0
154000.0 628328.0 0
158000.0 628319.0 0
162000.0 628325.0 0
166000.0 628319.0 0
170000.0 628322.0 0
174000.0 628319.0 0
178000.0 628321.0 0
182000.0 628319.0 0
186000.0 628320.0 0
190000.0 628319.0 0
194000.0 628319.0 0
198000.0 628319.0 0
202000.0 628319.0 0
206000.0 628319.0 0
210000.0 628319.0 0
214000.0 628319.0 0
218000.0 628319.0 0
222000.0 628319.0 0
226000.0 628319.0 0
230000.0 628319.0 0
234000.0 628319.0 0
238000.0 628319.0 0
242000.0 628319.0 0
246000.0 628319.0 0
250000.0 628319.0 0
254000.0 628319.0 0
258000.0 628319.0 0
262000.0 628319.0 0
266000.0 628319.0 0
270000.0 628319.0 0
274000.0 628319.0 0
278000.0 628319.0 0
282000.0 628319.0 0
286000.0 628319.0 0
290000.0 628319.0 0
294000.0 628319.0 0
298000.0 628319.0 0
302000.0 628319.0 0
306000.0 628319.0 0
310000.0 628319.0 0
314000.0 628320.0 0
318000.0 628319.0 0
322000.0 628321.0 0
326000.0 628319.0 0
330000.0 628322.0 0
334000.0 628319.0 0
338000.0 628325.0 0
342000.0 628319.0 0
346000.0 628328.0 0
350000.0 628320.0 0
354000.0 628334.0 0
358000.0 628328.0 0
362000.0 628350.0 0
366000.0 628337.0 0
370000.0 628360.0 0
374000.0 628351.0 0
378000.0 628362.0 0
382000.0 628338.0 0
386000.0 628350.0 0
390000.0 628362.0 0
394000.0 628371.0 0
398000.0 628374.0 0
102000.0 632373.0 0
106000.0 632371.0 0
110000.0 632362.0 0
114000.0 632350.0 0
118000.0 632338.0 0
122000.0 632361.0 0
126000.0 632350.0 0
130000.0 632359.0 0
134000.0 632336.0 0
138000.0 632349.0 0
142000.0 632328.0 0
146000.0 632333.0 0
150000.0 632320.0 0
154000.0 632328.0 0
158000.0 632319.0 0
162000.0 632325.0 0
166000.0 632319.0 0
170000.0 632322.0 0
174000.0 632319.0 0
178000.0 632320.0 0
182000.0 632319.0 0
186000.0 632320.0 0
190000.0 632319.0 0
194000.0 632319.0 0
198000.0 632319.0 0
202000.0 632319.0 0
206000.0 632319.0 0
210000.0 632319.0 0
214000.0 632319.0 0
218000.0 632319.0 0
222000.0 632319.0 0
226000.0 632319.0 0
230000.0 632319.0 0
234000.0 632319.0 0
238000.0 632319.0 0
242000.0 632319.0 0
246000.0 632319.0 0
250000.0 632319.0 0
254000.0 632319.0 0
258000.0 632319.0 0
262000.0 632319.0 0
266000.0 632319.0 0
270000.0 632319.0 0
274000.0 632319.0 0
278000.0 632319.0 0
282000.0 632319.0 0
286000.0 632319.0 0
290000.0 632319.0 0
294000.0 632319.0 0
298000.0 632319.0 0
302000.0 632319.0 0
306000.0 632319.0 0
310000.0 632319.0 0
314000.0 632320.0 0
318000.0 632319.0 0
322000.0 632320.0 0
326000.0 632319.0 0
330000.0 632322.0 0
334000.0 632319.0 0
338000.0 632325.0 0
342000.0 632319.0 0
346000.0 632328.0 0
350000.0 632320.0 0
354000.0 632333.0 0
358000.0 632328.0 0
362000.0 632349.0 0
366000.0 632336.0 0
370000.0 632359.0 0
374000.0 632350.0 0
378000.0 632361.0 0
382000.0 632338.0 0
386000.0 632350.0 0
390000.0 632362.0 0
394000.0 632371.0 0
398000.0 632373.0 0
102000.0 636373.0 0
106000.0 636371.0 0
110000.0 636362.0 0
114000.0 636349.0 0
118000.0 636337.0 0
122000.0 636361.0 0
126000.0 636350.0 0
130000.0 636358.0 0
134000.0 636336.0 0
138000.0 636349.0 0
142000.0 636328.0 0
146000.0 636333.0 0
150000.0 636320.0 0
154000.0 636328.0 0
158000.0 636319.0 0
162000.0 636325.0 0
166000.0 636319.0 0
170000.0 636322.0 0
174000.0 636319.0 0
178000.0 636320.0 0
182000.0 636319.0 0
186000.0 636320.0 0
190000.0 636319.0 0
194000.0 636319.0 0
198000.0 636319.0 0
202000.0 636319.0 0
206000.0 636319.0 0
210000.0 636319.0 0
214000.0 636319.0 0
218000.0 636319.0 0
222000.0 636319.0 0
226000.0 636319.0 0
230000.0 636319.0 0
234000.0 636319.0 0
238000.0 636319.0 0
242000.0 636319.0 0
246000.0 636319.0 0
250000.0 636319.0 0
254000.0 636319.0 0
258000.0 636319.0 0
262000.0 636319.0 0
266000.0 636319.0 0
270000.0 636319.0 0
274000.0 636319.0 0
278000.0 636319.0 0
282000.0 636319.0 0
286000.0 636319.0 0
290000.0 636319.0 0
294000.0 636319.0 0
298000.0 636319.0 0
302000.0 636319.0 0
306000.0 636319.0 0
310000.0 636319.0 0
314000.0 636320.0 0
318000.0 636319.0 0
322000.0 636320.0 0
326000.0 636319.0 0
330000.0 636322.0 0
334000.0 636319.0 0
338000.0 636325.0 0
342000.0 636319.0 0
346000.0 636328.0 0
350000.0 636320.0 0
354000.0 636333.0 0
358000.0 636328.0 0
362000.0 636349.0 0
366000.0 636336.0 0
370000.0 636358.0 0
374000.0 636350.0 0
378000.0 636361.0 0
382000.0 636337.0 0
386000.0 636349.0 0
390000.0 636362.0 0
394000.0 636371.0 0
398000.0 636373.0 0
POINT_DATA 4650
SCALARS Radius float 1
LOOKUP_TABLE default
4000.0 4000.0 4000.0 4000.0 4000.0 4000.0 4000.0 4000.0 4000.0 4000.0 4000.0 4000.0 4000.0 4000.0 4000.0 4000.0 4000.0 4000.0 4000.0 4000.0 4000.0 4000.0 4000.0 4000.0 4000.0 4000.0 4000.0 4000.0 4000.0 4000.0 4000.0 4000.0 4000.0 4000.0 4000.0 4000.0 4000.0 4000.0 4000.0 4000.0 4000.0 4000.0 4000.0 4000.0 4000.0 4000.0 4000.0 4000.0 4000.0 4000.0 4000.0 4000.0 4000.0 4000.0 4000.0 4000.0 4000.0 4000.0 4000.0 4000.0 4000.0 4000.0 4000.0 4000.0 4000.0 4000.0 4000.0 4000.0 4000.0 4000.0 4000.0 4000.0 4000.0 4000.0 4000.0 4000.0 4000.0 4000.0 4000.0 4000.0 4000.0 4000.0 4000.0 4000.0 4000.0 4000.0 4000.0 4000.0 4000.0 4000.0 4000.0 4000.0 4000.0 4000.0 4000.0 4000.0 4000.0 4000.0 4000.0 4000.0 4000.0 4000.0 4000.0 4000.0 4000.0 4000.0 4000.0 4000.0 4000.0 4000.0 4000.0 4000.0 4000.0 4000.0 4000.0 4000.0 4000.0 4000.0 4000.0 4000.0 4000.0 4000.0 4000.0 4000.0 4000.0 4000.0 4000.0 4000.0 4000.0 4000.0 4000.0 4000.0 4000.0 4000.0 4000.0 4000.0 4000.0 4000.0 4000.0 4000.0 4000.0 4000.0 4000.0 4000.0 4000.0 4000.0 4000.0 4000.0 4000.0 4000.0 4000.0 4000.0 4000.0 4000.0 4000.0 4000.0 4000.0 4000.0 4000.0 4000.0 4000.0 4000.0 4000.0 4000.0 4000.0 4000.0 4000.0 4000.0 4000.0 4000.0 4000.0 4000.0 4000.0 4000.0 4000.0 4000.0 4000.0 4000.0 4000.0 4000.0 4000.0 4000.0 4000.0 4000.0 4000.0 4000.0 4000.0 4000.0 4000.0 4000.0 4000.0 4000.0 4000.0 4000.0 4000.0 4000.0 4000.0 4000.0 4000.0 4000.0 4000.0 4000.0 4000.0 4000.0 4000.0 4000.0 4000.0 4000.0 4000.0 4000.0 4000.0 4000.0 4000.0 4000.0 4000.0 4000.0 4000.0 4000.0 4000.0 4000.0 4000.0 4000.0 4000.0 4000.0 4000.0 4000.0 4000.0 4000.0 4000.0 4000.0 4000.0 4000.0 4000.0 4000.0 4000.0 4000.0 4000.0 4000.0 4000.0 4000.0 4000.0 4000.0 4000.0 4000.0 4000.0 4000.0 4000.0 4000.0 4000.0 4000.0 4000.0 4000.0 4000.0 4000.0 4000.0 4000.0 4000.0 4000.0 4000.0 4000.0 4000.0 4000.0 4000.0 4000.0 4000.0 4000.0 4000.0 4000.0 4000.0 4000.0 4000.0 4000.0 4000.0 4000.0 4000.0 4000.0 4000.0 4000.0 4000.0 4000.0 4000.0 4000.0 4000.0 4000.0 4000.0 4000.0 4000.0 4000.0 4000.0 4000.0 4000.0 4000.0 4000.0 4000.0 4000.0 4000.0 4000.0 4000.0 4000.0 4000.0 4000.0 4000.0 4000.0 4000.0 4000.0 4000.0 4000.0 4000.0 4000.0 4000.0 4000.0 4000.0 4000.0 4000.0 4000.0 4000.0 4000.0 4000.0 4000.0 4000.0 4000.0 4000.0 4000.0 4000.0 4000.0 4000.0 4000.0 4000.0 4000.0 4000.0 4000.0 4000.0 4000.0 4000.0 4000.0 4000.0 4000.0 4000.0 4000.0 4000.0 4000.0 4000.0 4000.0 4000.0 4000.0 4000.0 4000.0 4000.0 4000.0 4000.0 4000.0 4000.0 4000.0 4000.0 4000.0 4000.0 4000.0 4000.0 4000.0 4000.0 4000.0 4000.0 4000.0 4000.0 4000.0 4000.0 4000.0 4000.0 4000.0 4000.0 4000.0 4000.0 4000.0 4000.0 4000.0 4000.0 4000.0 4000.0 4000.0 4000.0 4000.0 4000.0 4000.0 4000.0 4000.0 4000.0 4000.0 4000.0 4000.0 4000.0 4000.0 4000.0 4000.0 4000.0 4000.0 4000.0 4000.0 4000.0 4000.0 4000.0 4000.0 4000.0 4000.0 4000.0 4000.0 4000.0 4000.0 4000.0 4000.0 4000.0 4000.0 4000.0 4000.0 4000.0 4000.0 4000.0 4000.0 4000.0 4000.0 4000.0 4000.0 4000.0 4000.0 4000.0 4000.0 4000.0 4000.0 4000.0 4000.0 4000.0 4000.0 4000.0 4000.0 4000.0 4000.0 4000.0 4000.0 4000.0 4000.0 4000.0 4000.0 4000.0 4000.0 4000.0 4000.0 4000.0 4000.0 4000.0 4000.0 4000.0 4000.0 4000.0 4000.0 4000.0 4000.0 4000.0 4000.0 4000.0 4000.0 4000.0 4000.0 4000.0 4000.0 4000.0 4000.0 4000.0 4000.0 4000.0 4000.0 4000.0 4000.0 4000.0 4000.0 4000.0 4000.0 4000.0 4000.0 4000.0 4000.0 4000.0 4000.0 4000.0 4000.0 4000.0 4000.0 4000.0 4000.0 4000.0 4000.0 4000.0 4000.0 4000.0 4000.0 4000.0 4000.0 4000.0 4000.0 4000.0 4000.0 4000.0 4000.0 4000.0 4000.0 4000.0 4000.0 4000.0 4000.0 4000.0 4000.0 4000.0 4000.0 4000.0 4000.0 4000.0 4000.0 4000.0 4000.0 4000.0 4000.0 4000.0 4000.0 4000.0 4000.0 4000.0 4000.0 4000.0 4000.0 4000.0 4000.0 4000.0 4000.0 4000.0 4000.0 4000.0 4000.0 4000.0 4000.0 4000.0 4000.0 4000.0 4000.0 4000.0 4000.0 4000.0 4000.0 4000.0 4000.0 4000.0 4000.0 4000.0 4000.0 4000.0 4000.0 4000.0 4000.0 4000.0 4000.0 4000.0 4000.0 4000.0 4000.0 4000.0 4000.0 4000.0 4000.0 4000.0 4000.0 4000.0 4000.0 4000.0 4000.0 4000.0 4000.0 4000.0 4000.0 4000.0 4000.0 4000.0 4000.0 4000.0 4000.0 4000.0 4000.0 4000.0 4000.0 4000.0 4000.0 4000.0 4000.0 4000.0 4000.0 4000.0 4000.0 4000.0 4000.0 4000.0 4000.0 4000.0 4000.0 4000.0 4000.0 4000.0 4000.0 4000.0 4000.0 4000.0 4000.0 4000.0 4000.0 4000.0 4000.0 4000.0 4000.0 4000.0 4000.0 4000.0 4000.0 4000.0 4000.0 4000.0 4000.0 4000.0 4000.0 4000.0 4000.0 4000.0 4000.0 4000.0 4000.0 4000.0 4000.0 4000.0 4000.0 4000.0 4000.0 4000.0 4000.0 4000.0 4000.0 4000.0 4000.0 4000.0 4000.0 4000.0 4000.0 4000.0 4000.0 4000.0 4000.0 4000.0 4000.0 4000.0 4000.0 4000.0 4000.0 4000.0 4000.0 4000.0 4000.0 4000.0 4000.0 4000.0 4000.0 4000.0 4000.0 4000.0 4000.0 4000.0 4000.0 4000.0 4000.0 4000.0 4000.0 4000.0 4000.0 4000.0 4000.0 4000.0 4000.0 4000.0 4000.0 4000.0 4000.0 4000.0 4000.0 4000.0 4000.0 4000.0 4000.0 4000.0 4000.0 4000.0 4000.0 4000.0 4000.0 4000.0 4000.0 4000.0 4000.0 4000.0 4000.0 4000.0 4000.0 4000.0 4000.0 4000.0 4000.0 4000.0 4000.0 4000.0 4000.0 4000.0 4000.0 4000.0 4000.0 4000.0 4000.0 4000.0 4000.0 4000.0 4000.0 4000.0 4000.0 4000.0 4000.0 4000.0 4000.0 4000.0 4000.0 4000.0 4000.0 4000.0 4000.0 4000.0 4000.0 4000.0 4000.0 4000.0 4000.0 4000.0 4000.0 4000.0 4000.0 4000.0 4000.0 4000.0 4000.0 4000.0 4000.0 4000.0 4000.0 4000.0 4000.0 4000.0 4000.0 4000.0 4000.0 4000.0 4000.0 4000.0 4000.0 4000.0 4000.0 4000.0 4000.0 4000.0 4000.0 4000.0 4000.0 4000.0 4000.0 4000.0 4000.0 4000.0 4000.0 4000.0 4000.0 4000.0 4000.0 4000.0 4000.0 4000.0 4000.0 4000.0 4000.0 4000.0 4000.0 4000.0 4000.0 4000.0 4000.0 4000.0 4000.0 4000.0 4000.0 4000.0 4000.0 4000.0 4000.0 4000.0 4000.0 4000.0 4000.0 4000.0 4000.0 4000.0 4000.0 4000.0 4000.0 4000.0 4000.0 4000.0 4000.0 4000.0 4000.0 4000.0 4000.0 4000.0 4000.0 4000.0 4000.0 4000.0 4000.0 4000.0 4000.0 4000.0 4000.0 4000.0 4000.0 4000.0 4000.0 4000.0 4000.0 4000.0 4000.0 4000.0 4000.0 4000.0 4000.0 4000.0 4000.0 4000.0 4000.0 4000.0 4000.0 4000.0 4000.0 4000.0 4000.0 4000.0 4000.0 4000.0 4000.0 4000.0 4000.0 4000.0 4000.0 4000.0 4000.0 4000.0 4000.0 4000.0 4000.0 4000.0 4000.0 4000.0 4000.0 4000.0 4000.0 4000.0 4000.0 4000.0 4000.0 4000.0 4000.0 4000.0 4000.0 4000.0 4000.0 4000.0 4000.0 4000.0 4000.0 4000.0 4000.0 4000.0 4000.0 4000.0 4000.0 4000.0 4000.0 4000.0 4000.0 4000.0 4000.0 4000.0 4000.0 4000.0 4000.0 4000.0 4000.0 4000.0 4000.0 4000.0 4000.0 4000.0 4000.0 4000.0 4000.0 4000.0 4000.0 4000.0 4000.0 4000.0 4000.0 4000.0 4000.0 4000.0 4000.0 4000.0 4000.0 4000.0 4000.0 4000.0 4000.0 4000.0 4000.0 4000.0 4000.0 4000.0 4000.0 4000.0 4000.0 4000.0 4000.0 4000.0 4000.0 4000.0 4000.0 4000.0 4000.0 4000.0 4000.0 4000.0 4000.0 4000.0 4000.0 4000.0 4000.0 4000.0 4000.0 4000.0 4000.0 4000.0 4000.0 4000.0 4000.0 4000.0 4000.0 4000.0 4000.0 4000.0 4000.0 4000.0 4000.0 4000.0 4000.0 4000.0 4000.0 4000.0 4000.0 4000.0 4000.0 4000.0 4000.0 4000.0 4000.0 4000.0 4000.0 4000.0 4000.0 4000.0 4000.0 4000.0 4000.0 4000.0 4000.0 4000.0 4000.0 4000.0 4000.0 4000.0 4000.0 4000.0 4000.0 4000.0 4000.0 4000.0 4000.0 4000.0 4000.0 4000.0 4000.0 4000.0 4000.0 4000.0 4000.0 4000.0 4000.0 4000.0 4000.0 4000.0 4000.0 4000.0 4000.0 4000.0 4000.0 4000.0 4000.0 4000.0 4000.0 4000.0 4000.0 4000.0 4000.0 4000.0 4000.0 4000.0 4000.0 4000.0 4000.0 4000.0 4000.0 4000.0 4000.0 4000.0 4000.0 4000.0 4000.0 4000.0 4000.0 4000.0 4000.0 4000.0 4000.0 4000.0 4000.0 4000.0 4000.0 4000.0 4000.0 4000.0 4000.0 4000.0 4000.0 4000.0 4000.0 4000.0 4000.0 4000.0 4000.0 4000.0 4000.0 4000.0 4000.0 4000.0 4000.0 4000.0 4000.0 4000.0 4000.0 4000.0 4000.0 4000.0 4000.0 4000.0 4000.0 4000.0 4000.0 4000.0 4000.0 4000.0 4000.0 4000.0 4000.0 4000.0 4000.0 4000.0 4000.0 4000.0 4000.0 4000.0 4000.0 4000.0 4000.0 4000.0 4000.0 4000.0 4000.0 4000.0 4000.0 4000.0 4000.0 4000.0 4000.0 4000.0 4000.0 4000.0 4000.0 4000.0 4000.0 4000.0 4000.0 4000.0 4000.0 4000.0 4000.0 4000.0 4000.0 4000.0 4000.0 4000.0 4000.0 4000.0 4000.0 4000.0 4000.0 4000.0 4000.0 4000.0 4000.0 4000.0 4000.0 4000.0 4000.0 4000.0 4000.0 4000.0 4000.0 4000.0 4000.0 4000.0 4000.0 4000.0 4000.0 4000.0 4000.0 4000.0 4000.0 4000.0 4000.0 4000.0 4000.0 4000.0 4000.0 4000.0 4000.0 4000.0 4000.0 4000.0 4000.0 4000.0 4000.0 4000.0 4000.0 4000.0 4000.0 4000.0 4000.0 4000.0 4000.0 4000.0 4000.0 4000.0 4000.0 4000.0 4000.0 4000.0 4000.0 4000.0 4000.0 4000.0 4000.0 4000.0 4000.0 4000.0 4000.0 4000.0 4000.0 4000.0 4000.0 4000.0 4000.0 4000.0 4000.0 4000.0 4000.0 4000.0 4000.0 4000.0 4000.0 4000.0 4000.0 4000.0 4000.0 4000.0 4000.0 4000.0 4000.0 4000.0 4000.0 4000.0 4000.0 4000.0 4000.0 4000.0 4000.0 4000.0 4000.0 4000.0 4000.0 4000.0 4000.0 4000.0 4000.0 4000.0 4000.0 4000.0 4000.0 4000.0 4000.0 4000.0 4000.0 4000.0 4000.0 4000.0 4000.0 4000.0 4000.0 4000.0 4000.0 4000.0 4000.0 4000.0 4000.0 4000.0 4000.0 4000.0 4000.0 4000.0 4000.0 4000.0 4000.0 4000.0 4000.0 4000.0 4000.0 4000.0 4000.0 4000.0 4000.0 4000.0 4000.0 4000.0 4000.0 4000.0 4000.0 4000.0 4000.0 4000.0 4000.0 4000.0 4000.0 4000.0 4000.0 4000.0 4000.0 4000.0 4000.0 4000.0 4000.0 4000.0 4000.0 4000.0 4000.0 4000.0 4000.0 4000.0 4000.0 4000.0 4000.0 4000.0 4000.0 4000.0 4000.0 4000.0 4000.0 4000.0 4000.0 4000.0 4000.0 4000.0 4000.0 4000.0 4000.0 4000.0 4000.0 4000.0 4000.0 4000.0 4000.0 4000.0 4000.0 4000.0 4000.0 4000.0 4000.0 4000.0 4000.0 4000.0 4000.0 4000.0 4000.0 4000.0 4000.0 4000.0 4000.0 4000.0 4000.0 4000.0 4000.0 4000.0 4000.0 4000.0 4000.0 4000.0 4000.0 4000.0 4000.0 4000.0 4000.0 4000.0 4000.0 4000.0 4000.0 4000.0 4000.0 4000.0 4000.0 4000.0 4000.0 4000.0 4000.0 4000.0 4000.0 4000.0 4000.0 4000.0 4000.0 4000.0 4000.0 4000.0 4000.0 4000.0 4000.0 4000.0 4000.0 4000.0 4000.0 4000.0 4000.0 4000.0 4000.0 4000.0 4000.0 4000.0 4000.0 4000.0 4000.0 4000.0 4000.0 4000.0 4000.0 4000.0 4000.0 4000.0 4000.0 4000.0 4000.0 4000.0 4000.0 4000.0 4000.0 4000.0 4000.0 4000.0 4000.0 4000.0 4000.0 4000.0 4000.0 4000.0 4000.0 4000.0 4000.0 4000.0 4000.0 4000.0 4000.0 4000.0 4000.0 4000.0 4000.0 4000.0 4000.0 4000.0 4000.0 4000.0 4000.0 4000.0 4000.0 4000.0 4000.0 4000.0 4000.0 4000.0 4000.0 4000.0 4000.0 4000.0 4000.0 4000.0 4000.0 4000.0 4000.0 4000.0 4000.0 4000.0 4000.0 4000.0 4000.0 4000.0 4000.0 4000.0 4000.0 4000.0 4000.0 4000.0 4000.0 4000.0 4000.0 4000.0 4000.0 4000.0 4000.0 4000.0 4000.0 4000.0 4000.0 4000.0 4000.0 4000.0 4000.0 4000.0 4000.0 4000.0 4000.0 4000.0 4000.0 4000.0 4000.0 4000.0 4000.0 4000.0 4000.0 4000.0 4000.0 4000.0 4000.0 4000.0 4000.0 4000.0 4000.0 4000.0 4000.0 4000.0 4000.0 4000.0 4000.0 4000.0 4000.0 4000.0 4000.0 4000.0 4000.0 4000.0 4000.0 4000.0 4000.0 4000.0 4000.0 4000.0 4000.0 4000.0 4000.0 4000.0 4000.0 4000.0 4000.0 4000.0 4000.0 4000.0 4000.0 4000.0 4000.0 4000.0 4000.0 4000.0 4000.0 4000.0 4000.0 4000.0 4000.0 4000.0 4000.0 4000.0 4000.0 4000.0 4000.0 4000.0 4000.0 4000.0 4000.0 4000.0 4000.0 4000.0 4000.0 4000.0 4000.0 4000.0 4000.0 4000.0 4000.0 4000.0 4000.0 4000.0 4000.0 4000.0 4000.0 4000.0 4000.0 4000.0 4000.0 4000.0 4000.0 4000.0 4000.0 4000.0 4000.0 4000.0 4000.0 4000.0 4000.0 4000.0 4000.0 4000.0 4000.0 4000.0 4000.0 4000.0 4000.0 4000.0 4000.0 4000.0 4000.0 4000.0 4000.0 4000.0 4000.0 4000.0 4000.0 4000.0 4000.0 4000.0 4000.0 4000.0 4000.0 4000.0 4000.0 4000.0 4000.0 4000.0 4000.0 4000.0 4000.0 4000.0 4000.0 4000.0 4000.0 4000.0 4000.0 4000.0 4000.0 4000.0 4000.0 4000.0 4000.0 4000.0 4000.0 4000.0 4000.0 4000.0 4000.0 4000.0 4000.0 4000.0 4000.0 4000.0 4000.0 4000.0 4000.0 4000.0 4000.0 4000.0 4000.0 4000.0 4000.0 4000.0 4000.0 4000.0 4000.0 4000.0 4000.0 4000.0 4000.0 4000.0 4000.0 4000.0 4000.0 4000.0 4000.0 4000.0 4000.0 4000.0 4000.0 4000.0 4000.0 4000.0 4000.0 4000.0 4000.0 4000.0 4000.0 4000.0 4000.0 4000.0 4000.0 4000.0 4000.0 4000.0 4000.0 4000.0 4000.0 4000.0 4000.0 4000.0 4000.0 4000.0 4000.0 4000.0 4000.0 4000.0 4000.0 4000.0 4000.0 4000.0 4000.0 4000.0 4000.0 4000.0 4000.0 4000.0 4000.0 4000.0 4000.0 4000.0 4000.0 4000.0 4000.0 4000.0 4000.0 4000.0 4000.0 4000.0 4000.0 4000.0 4000.0 4000.0 4000.0 4000.0 4000.0 4000.0 4000.0 4000.0 4000.0 4000.0 4000.0 4000.0 4000.0 4000.0 4000.0 4000.0 4000.0 4000.0 4000.0 4000.0 4000.0 4000.0 4000.0 4000.0 4000.0 4000.0 4000.0 4000.0 4000.0 4000.0 4000.0 4000.0 4000.0 4000.0 4000.0 4000.0 4000.0 4000.0 4000.0 4000.0 4000.0 4000.0 4000.0 4000.0 4000.0 4000.0 4000.0 4000.0 4000.0 4000.0 4000.0 4000.0 4000.0 4000.0 4000.0 4000.0 4000.0 4000.0 4000.0 4000.0 4000.0 4000.0 4000.0 4000.0 4000.0 4000.0 4000.0 4000.0 4000.0 4000.0 4000.0 4000.0 4000.0 4000.0 4000.0 4000.0 4000.0 4000.0 4000.0 4000.0 4000.0 4000.0 4000.0 4000.0 4000.0 4000.0 4000.0 4000.0 4000.0 4000.0 4000.0 4000.0 4000.0 4000.0 4000.0 4000.0 4000.0 4000.0 4000.0 4000.0 4000.0 4000.0 4000.0 4000.0 4000.0 4000.0 4000.0 4000.0 4000.0 4000.0 4000.0 4000.0 4000.0 4000.0 4000.0 4000.0 4000.0 4000.0 4000.0 4000.0 4000.0 4000.0 4000.0 4000.0 4000.0 4000.0 4000.0 4000.0 4000.0 4000.0 4000.0 4000.0 4000.0 4000.0 4000.0 4000.0 4000.0 4000.0 4000.0 4000.0 4000.0 4000.0 4000.0 4000.0 4000.0 4000.0 4000.0 4000.0 4000.0 4000.0 4000.0 4000.0 4000.0 4000.0 4000.0 4000.0 4000.0 4000.0 4000.0 4000.0 4000.0 4000.0 4000.0 4000.0 4000.0 4000.0 4000.0 4000.0 4000.0 4000.0 4000.0 4000.0 4000.0 4000.0 4000.0 4000.0 4000.0 4000.0 4000.0 4000.0 4000.0 4000.0 4000.0 4000.0 4000.0 4000.0 4000.0 4000.0 4000.0 4000.0 4000.0 4000.0 4000.0 4000.0 4000.0 4000.0 4000.0 4000.0 4000.0 4000.0 4000.0 4000.0 4000.0 4000.0 4000.0 4000.0 4000.0 4000.0 4000.0 4000.0 4000.0 4000.0 4000.0 4000.0 4000.0 4000.0 4000.0 4000.0 4000.0 4000.0 4000.0 4000.0 4000.0 4000.0 4000.0 4000.0 4000.0 4000.0 4000.0 4000.0 4000.0 4000.0 4000.0 4000.0 4000.0 4000.0 4000.0 4000.0 4000.0 4000.0 4000.0 4000.0 4000.0 4000.0 4000.0 4000.0 4000.0 4000.0 4000.0 4000.0 4000.0 4000.0 4000.0 4000.0 4000.0 4000.0 4000.0 4000.0 4000.0 4000.0 4000.0 4000.0 4000.0 4000.0 4000.0 4000.0 4000.0 4000.0 4000.0 4000.0 4000.0 4000.0 4000.0 4000.0 4000.0 4000.0 4000.0 4000.0 4000.0 4000.0 4000.0 4000.0 4000.0 4000.0 4000.0 4000.0 4000.0 4000.0 4000.0 4000.0 4000.0 4000.0 4000.0 4000.0 4000.0 4000.0 4000.0 4000.0 4000.0 4000.0 4000.0 4000.0 4000.0 4000.0 4000.0 4000.0 4000.0 4000.0 4000.0 4000.0 4000.0 4000.0 4000.0 4000.0 4000.0 4000.0 4000.0 4000.0 4000.0 4000.0 4000.0 4000.0 4000.0 4000.0 4000.0 4000.0 4000.0 4000.0 4000.0 4000.0 4000.0 4000.0 4000.0 4000.0 4000.0 4000.0 4000.0 4000.0 4000.0 4000.0 4000.0 4000.0 4000.0 4000.0 4000.0 4000.0 4000.0 4000.0 4000.0 4000.0 4000.0 4000.0 4000.0 4000.0 4000.0 4000.0 4000.0 4000.0 4000.0 4000.0 4000.0 4000.0 4000.0 4000.0 4000.0 4000.0 4000.0 4000.0 4000.0 4000.0 4000.0 4000.0 4000.0 4000.0 4000.0 4000.0 4000.0 4000.0 4000.0 4000.0 4000.0 4000.0 4000.0 4000.0 4000.0 4000.0 4000.0 4000.0 4000.0 4000.0 4000.0 4000.0 4000.0 4000.0 4000.0 4000.0 4000.0 4000.0 4000.0 4000.0 4000.0 4000.0 4000.0 4000.0 4000.0 4000.0 4000.0 4000.0 4000.0 4000.0 4000.0 4000.0 4000.0 4000.0 4000.0 4000.0 4000.0 4000.0 4000.0 4000.0 4000.0 4000.0 4000.0 4000.0 4000.0 4000.0 4000.0 4000.0 4000.0 4000.0 4000.0 4000.0 4000.0 4000.0 4000.0 4000.0 4000.0 4000.0 4000.0 4000.0 4000.0 4000.0 4000.0 4000.0 4000.0 4000.0 4000.0 4000.0 4000.0 4000.0 4000.0 4000.0 4000.0 4000.0 4000.0 4000.0 4000.0 4000.0 4000.0 4000.0 4000.0 4000.0 4000.0 4000.0 4000.0 4000.0 4000.0 4000.0 4000.0 4000.0 4000.0 4000.0 4000.0 4000.0 4000.0 4000.0 4000.0 4000.0 4000.0 4000.0 4000.0 4000.0 4000.0 4000.0 4000.0 4000.0 4000.0 4000.0 4000.0 4000.0 4000.0 4000.0 4000.0 4000.0 4000.0 4000.0 4000.0 4000.0 4000.0 4000.0 4000.0 4000.0 4000.0 4000.0 4000.0 4000.0 4000.0 4000.0 4000.0 4000.0 4000.0 4000.0 4000.0 4000.0 4000.0 4000.0 4000.0 4000.0 4000.0 4000.0 4000.0 4000.0 4000.0 4000.0 4000.0 4000.0 4000.0 4000.0 4000.0 4000.0 4000.0 4000.0 4000.0 4000.0 4000.0 4000.0 4000.0 4000.0 4000.0 4000.0 4000.0 4000.0 4000.0 4000.0 4000.0 4000.0 4000.0 4000.0 4000.0 4000.0 4000.0 4000.0 4000.0 4000.0 4000.0 4000.0 4000.0 4000.0 4000.0 4000.0 4000.0 4000.0 4000.0 4000.0 4000.0 4000.0 4000.0 4000.0 4000.0 4000.0 4000.0 4000.0 4000.0 4000.0 4000.0 4000.0 4000.0 4000.0 4000.0 4000.0 4000.0 4000.0 4000.0 4000.0 4000.0 4000.0 4000.0 4000.0 4000.0 4000.0 4000.0 4000.0 4000.0 4000.0 4000.0 4000.0 4000.0 4000.0 4000.0 4000.0 4000.0 4000.0 4000.0 4000.0 4000.0 4000.0 4000.0 4000.0 4000.0 4000.0 4000.0 4000.0 4000.0 4000.0 4000.0 4000.0 4000.0 4000.0 4000.0 4000.0 4000.0 4000.0 4000.0 4000.0 4000.0 4000.0 4000.0 4000.0 4000.0 4000.0 4000.0 4000.0 4000.0 4000.0 4000.0 4000.0 4000.0 4000.0 4000.0 4000.0 4000.0 4000.0 4000.0 4000.0 4000.0 4000.0 4000.0 4000.0 4000.0 4000.0 4000.0 4000.0 4000.0 4000.0 4000.0 4000.0 4000.0 4000.0 4000.0 4000.0 4000.0 4000.0 4000.0 4000.0 4000.0 4000.0 4000.0 4000.0 4000.0 4000.0 4000.0 4000.0 4000.0 4000.0 4000.0 4000.0 4000.0 4000.0 4000.0 4000.0 4000.0 4000.0 4000.0 4000.0 4000.0 4000.0 4000.0 4000.0 4000.0 4000.0 4000.0 4000.0 4000.0 4000.0 4000.0 4000.0 4000.0 4000.0 4000.0 4000.0 4000.0 4000.0 4000.0 4000.0 4000.0 4000.0 4000.0 4000.0 4000.0 4000.0 4000.0 4000.0 4000.0 4000.0 4000.0 4000.0 4000.0 4000.0 4000.0 4000.0 4000.0 4000.0 4000.0 4000.0 4000.0 4000.0 4000.0 4000.0 4000.0 4000.0 4000.0 4000.0 4000.0 4000.0 4000.0 4000.0 4000.0 4000.0 4000.0 4000.0 4000.0 4000.0 4000.0 4000.0 4000.0 4000.0 4000.0 4000.0 4000.0 4000.0 4000.0 4000.0 4000.0 4000.0 4000.0 4000.0 4000.0 4000.0 4000.0 4000.0 4000.0 4000.0 4000.0 4000.0 4000.0 4000.0 4000.0 4000.0 4000.0 4000.0 4000.0 4000.0 4000.0 4000.0 4000.0 4000.0 4000.0 4000.0 4000.0 4000.0 4000.0 4000.0 4000.0 4000.0 4000.0 4000.0 4000.0 4000.0 4000.0 4000.0 4000.0 4000.0 4000.0 4000.0 4000.0 4000.0 4000.0 4000.0 4000.0 4000.0 4000.0 4000.0 4000.0 4000.0 4000.0 4000.0 4000.0 4000.0 4000.0 4000.0 4000.0 4000.0 4000.0 4000.0 4000.0 4000.0 4000.0 4000.0 4000.0 4000.0 4000.0 4000.0 4000.0 4000.0 4000.0 4000.0 4000.0 4000.0 4000.0 4000.0 4000.0 4000.0 4000.0 4000.0 4000.0 4000.0 4000.0 4000.0 4000.0 4000.0 4000.0 4000.0 4000.0 4000.0 4000.0 4000.0 4000.0 4000.0 4000.0 4000.0 4000.0 4000.0 4000.0 4000.0 4000.0 4000.0 4000.0 4000.0 4000.0 4000.0 4000.0 4000.0 4000.0 4000.0 4000.0 4000.0 4000.0 4000.0 4000.0 4000.0 4000.0 4000.0 4000.0 4000.0 4000.0 4000.0 4000.0 4000.0 4000.0 4000.0 4000.0 4000.0 4000.0 4000.0 4000.0 4000.0 4000.0 4000.0 4000.0 4000.0 4000.0 4000.0 4000.0 4000.0 4000.0 4000.0 4000.0 4000.0 4000.0 4000.0 4000.0 4000.0 4000.0 4000.0 4000.0 4000.0 4000.0 4000.0 4000.0 4000.0 4000.0 4000.0 4000.0 4000.0 4000.0 4000.0 4000.0 4000.0 4000.0 4000.0 4000.0 4000.0 4000.0 4000.0 4000.0 4000.0 4000.0 4000.0 4000.0 4000.0 4000.0 4000.0 4000.0 4000.0 4000.0 4000.0 4000.0 4000.0 4000.0 4000.0 4000.0 4000.0 4000.0 4000.0 4000.0 4000.0 4000.0 4000.0 4000.0 4000.0 4000.0 4000.0 4000.0 4000.0 4000.0 4000.0 4000.0 4000.0 4000.0 4000.0 4000.0 4000.0 4000.0 4000.0 4000.0 4000.0 4000.0 4000.0 4000.0 4000.0 4000.0 4000.0 4000.0 4000.0 4000.0 4000.0 4000.0 4000.0 4000.0 4000.0 4000.0 4000.0 4000.0 4000.0 4000.0 4000.0 4000.0 4000.0 4000.0 4000.0 4000.0 4000.0 4000.0 4000.0 4000.0 4000.0 4000.0 4000.0 4000.0 4000.0 4000.0 4000.0 4000.0 4000.0 4000.0 4000.0 4000.0 4000.0 4000.0 4000.0 4000.0 4000.0 4000.0 4000.0 4000.0 4000.0 4000.0 4000.0 4000.0 4000.0 4000.0 4000.0 4000.0 4000.0 4000.0 4000.0 4000.0 4000.0 4000.0 4000.0 4000.0 4000.0 4000.0 4000.0 4000.0 4000.0 4000.0 4000.0 4000.0 4000.0 4000.0 4000.0 4000.0 4000.0 4000.0 4000.0 4000.0 4000.0 4000.0 4000.0 4000.0 4000.0 4000.0 4000.0 4000.0 4000.0 4000.0 4000.0 4000.0 4000.0 4000.0 4000.0 4000.0 4000.0 4000.0 4000.0 4000.0 4000.0 4000.0 4000.0 4000.0 4000.0 4000.0 4000.0 4000.0 4000.0 4000.0 4000.0 4000.0 4000.0 4000.0 4000.0 4000.0 4000.0 4000.0 4000.0 4000.0 4000.0 4000.0 4000.0 4000.0 4000.0 4000.0 4000.0 4000.0 4000.0 4000.0 4000.0 4000.0 4000.0 4000.0 4000.0 4000.0 4000.0 4000.0 4000.0 4000.0 4000.0 4000.0 4000.0 4000.0 4000.0 4000.0 4000.0 4000.0 4000.0 4000.0 4000.0 4000.0 4000.0 4000.0 4000.0 4000.0 4000.0 4000.0 4000.0 4000.0 4000.0 4000.0 4000.0 4000.0 4000.0 4000.0 4000.0 4000.0 4000.0 4000.0 4000.0 4000.0 4000.0 4000.0 4000.0 4000.0 4000.0 4000.0 4000.0 4000.0 4000.0 4000.0 4000.0 4000.0 4000.0 4000.0 4000.0 4000.0 4000.0 4000.0 4000.0 4000.0 4000.0 4000.0 4000.0 4000.0 4000.0 4000.0 4000.0 4000.0 4000.0 4000.0 4000.0 4000.0 4000.0 4000.0 4000.0 4000.0 4000.0 4000.0 4000.0 4000.0 4000.0 4000.0 4000.0 4000.0 4000.0 4000.0 4000.0 4000.0 4000.0 4000.0 4000.0 4000.0 4000.0 4000.0 4000.0 4000.0 4000.0 4000.0 4000.0 4000.0 4000.0 4000.0 4000.0 4000.0 4000.0 4000.0 4000.0 4000.0 4000.0 4000.0 4000.0 4000.0 4000.0 4000.0 4000.0 4000.0 4000.0 4000.0 4000.0 4000.0 4000.0 4000.0 4000.0 4000.0 4000.0 4000.0 4000.0 4000.0 4000.0 4000.0 4000.0 4000.0 4000.0 4000.0 4000.0 4000.0 4000.0 4000.0 4000.0 4000.0 4000.0 4000.0 4000.0 4000.0 4000.0 4000.0 4000.0 4000.0 4000.0 4000.0 4000.0 4000.0 4000.0 4000.0 4000.0 4000.0 4000.0 4000.0 4000.0 4000.0 4000.0 4000.0 4000.0 4000.0 4000.0 4000.0 4000.0 4000.0 4000.0 4000.0 4000.0 4000.0 4000.0 4000.0 4000.0 4000.0 4000.0 4000.0 4000.0 4000.0 4000.0 4000.0 4000.0 4000.0 4000.0 4000.0 4000.0 4000.0 4000.0 4000.0 4000.0 4000.0 4000.0 4000.0 4000.0 4000.0 4000.0 4000.0 4000.0 4000.0 4000.0 4000.0 4000.0 4000.0 4000.0 4000.0 4000.0 4000.0 4000.0 4000.0 4000.0 4000.0 4000.0 4000.0 4000.0 4000.0 4000.0 4000.0 4000.0 4000.0 4000.0 4000.0 4000.0 4000.0 4000.0 4000.0 4000.0 4000.0 4000.0 4000.0 4000.0 4000.0 4000.0 4000.0 4000.0 4000.0 4000.0 4000.0 4000.0 4000.0 4000.0 4000.0 4000.0 4000.0 4000.0 4000.0 4000.0 4000.0 4000.0 4000.0 4000.0 4000.0 4000.0 4000.0 4000.0 4000.0 4000.0 4000.0 4000.0 4000.0 4000.0 4000.0 4000.0 4000.0 4000.0 4000.0 4000.0 4000.0 4000.0 4000.0 4000.0 4000.0 4000.0 4000.0 4000.0 4000.0 4000.0 4000.0 4000.0 4000.0 4000.0 4000.0 4000.0 4000.0 4000.0 4000.0 4000.0 4000.0 4000.0 4000.0 4000.0 4000.0 4000.0 4000.0 4000.0 4000.0 4000.0 4000.0 4000.0 4000.0 4000.0 4000.0 4000.0 4000.0 4000.0 4000.0 4000.0 4000.0 4000.0 4000.0 4000.0 4000.0 4000.0 4000.0 4000.0 4000.0 4000.0 4000.0 4000.0 4000.0 4000.0 4000.0 4000.0 4000.0 4000.0 4000.0 4000.0 4000.0 4000.0 4000.0 4000.0 4000.0 4000.0 4000.0 4000.0 4000.0 4000.0 4000.0 4000.0 4000.0 4000.0 4000.0 4000.0 4000.0 4000.0 4000.0 4000.0 4000.0 4000.0 4000.0 4000.0 4000.0 4000.0 4000.0 4000.0 4000.0 4000.0 4000.0 4000.0 4000.0 4000.0 4000.0 4000.0 4000.0 4000.0 4000.0 4000.0 4000.0 4000.0 4000.0 4000.0 4000.0 4000.0 4000.0 4000.0 4000.0 4000.0 4000.0 4000.0 4000.0 4000.0 4000.0 4000.0 4000.0 4000.0 4000.0 4000.0 4000.0 4000.0 4000.0 4000.0 4000.0 4000.0 4000.0 4000.0 4000.0 4000.0 4000.0 4000.0 4000.0 4000.0 4000.0 4000.0 4000.0 4000.0 4000.0 4000.0 4000.0 4000.0 4000.0 4000.0 4000.0 4000.0 4000.0 4000.0 4000.0 4000.0 4000.0 4000.0 4000.0 4000.0 4000.0 4000.0 4000.0 4000.0 4000.0 4000.0 4000.0 4000.0 4000.0 4000.0 4000.0 4000.0 4000.0 4000.0 4000.0 4000.0 4000.0 4000.0 4000.0 4000.0 4000.0 4000.0 4000.0 4000.0 4000.0 4000.0 4000.0 4000.0 4000.0 4000.0 4000.0 4000.0 4000.0 4000.0 4000.0 4000.0 4000.0 4000.0 4000.0 4000.0 4000.0 4000.0 4000.0 4000.0 4000.0 4000.0 4000.0 4000.0 4000.0 4000.0 4000.0 4000.0 4000.0 4000.0 4000.0 4000.0 4000.0 4000.0 4000.0 4000.0 4000.0 4000.0 4000.0 4000.0 4000.0 4000.0 4000.0 4000.0 4000.0 4000.0 4000.0 4000.0 4000.0 4000.0 4000.0 4000.0 4000.0 4000.0 4000.0 4000.0 4000.0 4000.0 4000.0 4000.0 4000.0 4000.0 4000.0 4000.0 4000.0 4000.0 4000.0 4000.0 4000.0 4000.0 4000.0 4000.0 4000.0 4000.0 4000.0 4000.0 4000.0 4000.0 4000.0 4000.0 4000.0 4000.0 4000.0 4000.0 4000.0 4000.0 4000.0 4000.0 4000.0 4000.0 4000.0 4000.0 4000.0 4000.0 4000.0 4000.0 4000.0 4000.0 4000.0 4000.0 4000.0 4000.0 4000.0 4000.0 4000.0 4000.0 4000.0 4000.0 4000.0 4000.0 4000.0 4000.0 4000.0 4000.0 4000.0 4000.0 4000.0 4000.0 4000.0 4000.0 4000.0 4000.0 4000.0 4000.0 4000.0 4000.0 4000.0 4000.0 4000.0 4000.0 4000.0 4000.0 4000.0 4000.0 4000.0 4000.0 4000.0 4000.0 4000.0 4000.0 4000.0 4000.0 4000.0 4000.0 4000.0 4000.0 4000.0 4000.0 4000.0 4000.0 4000.0 4000.0 4000.0 4000.0 4000.0 4000.0 4000.0 4000.0 4000.0 4000.0 4000.0 4000.0 4000.0 4000.0 4000.0 4000.0 4000.0 4000.0 4000.0 4000.0 4000.0 4000.0 4000.0 4000.0 4000.0 4000.0 4000.0 4000.0 4000.0 4000.0 4000.0 4000.0 4000.0 4000.0 4000.0 4000.0 4000.0 4000.0 4000.0 4000.0 4000.0 4000.0 4000.0 4000.0 4000.0 4000.0 4000.0 4000.0 4000.0 4000.0 4000.0 4000.0 4000.0 4000.0 4000.0 4000.0 4000.0 4000.0 4000.0 4000.0 4000.0 4000.0 4000.0 4000.0 4000.0 4000.0 4000.0 4000.0 4000.0 4000.0 4000.0 4000.0 4000.0 4000.0 4000.0 4000.0 4000.0 4000.0 4000.0 4000.0 4000.0 4000.0 4000.0 4000.0 4000.0 4000.0 4000.0 4000.0 4000.0 4000.0 4000.0 4000.0 4000.0 4000.0 4000.0 4000.0 4000.0 4000.0 4000.0 4000.0 4000.0 4000.0 4000.0 4000.0 4000.0 4000.0 4000.0 4000.0 4000.0 4000.0 4000.0 4000.0 4000.0 4000.0 4000.0 4000.0 4000.0 4000.0 4000.0 4000.0 4000.0 4000.0 4000.0 4000.0 4000.0 4000.0 4000.0 4000.0 4000.0 4000.0 4000.0 4000.0 4000.0 4000.0 4000.0 4000.0 4000.0 4000.0 4000.0 4000.0 4000.0 4000.0 4000.0 4000.0 4000.0 4000.0 4000.0 4000.0 4000.0 4000.0 4000.0 4000.0 4000.0 4000.0 4000.0 4000.0 4000.0 4000.0 4000.0 4000.0 4000.0 4000.0 4000.0 4000.0 4000.0 4000.0 4000.0 4000.0 4000.0 4000.0 4000.0 4000.0 4000.0 4000.0 4000.0 4000.0 4000.0 4000.0 4000.0 4000.0 4000.0 4000.0 4000.0 4000.0 4000.0 4000.0 4000.0 4000.0 4000.0 4000.0 4000.0 4000.0 4000.0 4000.0 4000.0 4000.0 4000.0 4000.0 4000.0 4000.0 4000.0 4000.0 4000.0 4000.0 4000.0 4000.0 4000.0 4000.0 4000.0 4000.0 4000.0 4000.0 4000.0 4000.0 4000.0 4000.0 4000.0 4000.0 4000.0 4000.0 4000.0 4000.0 4000.0 4000.0 4000.0 4000.0 4000.0 4000.0 4000.0 4000.0 4000.0 4000.0 4000.0 4000.0 4000.0 4000.0 4000.0 4000.0 4000.0 4000.0 4000.0 4000.0 4000.0 4000.0 4000.0 4000.0 4000.0 4000.0 4000.0 4000.0 4000.0 4000.0 4000.0 4000.0 4000.0 4000.0 4000.0 4000.0 4000.0 4000.0 4000.0 4000.0 4000.0 4000.0 4000.0 4000.0 4000.0 4000.0 4000.0 4000.0 4000.0 4000.0 4000.0 4000.0 4000.0 4000.0 4000.0 4000.0 4000.0 4000.0 4000.0 4000.0 4000.0 4000.0 4000.0 4000.0 4000.0 4000.0 4000.0 4000.0 4000.0 4000.0 4000.0 4000.0 4000.0 4000.0 4000.0 4000.0 4000.0 4000.0 4000.0 4000.0 4000.0 4000.0 4000.0 4000.0 4000.0 4000.0 4000.0 4000.0 4000.0 4000.0 4000.0 4000.0 4000.0 4000.0 4000.0 4000.0 4000.0 4000.0 4000.0 4000.0 4000.0 4000.0 4000.0 4000.0 4000.0 4000.0 4000.0 4000.0 4000.0 4000.0 4000.0 4000.0 4000.0 4000.0 4000.0 4000.0 4000.0 4000.0 4000.0 4000.0 4000.0 4000.0 4000.0 4000.0 4000.0 4000.0 4000.0 4000.0 4000.0 4000.0 4000.0 4000.0 4000.0 4000.0 4000.0 4000.0 4000.0 4000.0 4000.0 4000.0 4000.0 4000.0 4000.0 4000.0 4000.0 4000.0 4000.0 4000.0 4000.0 4000.0 4000.0 4000.0 4000.0 4000.0 4000.0 4000.0 4000.0 4000.0 4000.0 4000.0 4000.0 4000.0 4000.0 4000.0 4000.0 4000.0 4000.0 4000.0 4000.0 4000.0 4000.0 4000.0 4000.0 4000.0 4000.0 4000.0 4000.0 4000.0 4000.0 4000.0 4000.0 4000.0 4000.0 4000.0 4000.0 4000.0 4000.0 4000.0 4000.0 4000.0 4000.0 4000.0 4000.0 4000.0 4000.0 4000.0 4000.0 4000.0 4000.0 4000.0 4000.0 4000.0 4000.0 4000.0 4000.0 4000.0 4000.0 4000.0 4000.0 4000.0 4000.0 4000.0 4000.0 4000.0 4000.0 4000.0 4000.0 4000.0 4000.0 4000.0 4000.0 4000.0 4000.0 4000.0 4000.0 4000.0 4000.0 4000.0 4000.0 4000.0 4000.0 4000.0 4000.0 4000.0 4000.0 4000.0 4000.0 4000.0 4000.0 4000.0 4000.0 4000.0 4000.0 4000.0 4000.0 4000.0 4000.0 4000.0 4000.0 4000.0 4000.0 4000.0 4000.0 4000.0 4000.0 4000.0 4000.0 4000.0 4000.0 4000.0 4000.0 4000.0 4000.0 4000.0 4000.0 4000.0 4000.0 4000.0 4000.0 4000.0 4000.0 4000.0 4000.0 4000.0 4000.0 4000.0 4000.0 4000.0 4000.0 4000.0 4000.0 4000.0 4000.0 4000.0 4000.0 4000.0 4000.0 4000.0 4000.0 4000.0 4000.0 4000.0 4000.0 4000.0 4000.0 4000.0 4000.0 4000.0 4000.0 4000.0 4000.0 4000.0 4000.0 4000.0 4000.0 4000.0 4000.0 4000.0 4000.0 4000.0 4000.0 4000.0 4000.0 4000.0 4000.0 4000.0 4000.0 4000.0 4000.0 4000.0 4000.0 4000.0 4000.0 4000.0 4000.0 4000.0 4000.0 4000.0 4000.0 4000.0 4000.0 4000.0 4000.0 4000.0 4000.0 4000.0 4000.0 4000.0 4000.0 4000.0 4000.0 4000.0 4000.0 4000.0 4000.0 4000.0 4000.0 4000.0 4000.0 4000.0 4000.0 4000.0 4000.0 4000.0 4000.0 4000.0 4000.0 4000.0 4000.0 4000.0 4000.0 4000.0 4000.0 4000.0 4000.0 4000.0 4000.0 4000.0 4000.0 4000.0 4000.0 4000.0 4000.0 4000.0 4000.0 4000.0 4000.0 4000.0 4000.0 4000.0 4000.0 4000.0 4000.0 4000.0 4000.0 4000.0 4000.0 4000.0 4000.0 4000.0 4000.0 4000.0 4000.0 4000.0 4000.0 4000.0 4000.0 4000.0 4000.0 4000.0 4000.0 4000.0 4000.0 4000.0 4000.0 4000.0 4000.0 4000.0 4000.0 4000.0 4000.0 4000.0 4000.0 4000.0 4000.0 4000.0 4000.0 4000.0 4000.0 4000.0 4000.0 4000.0 4000.0 4000.0 4000.0 4000.0 4000.0 4000.0 4000.0 4000.0 4000.0 4000.0 4000.0 4000.0 4000.0 4000.0 4000.0 4000.0 4000.0 4000.0 4000.0 4000.0 4000.0 4000.0 4000.0 4000.0 4000.0 4000.0 4000.0 4000.0 4000.0 4000.0 4000.0 4000.0 4000.0 4000.0 4000.0 4000.0 4000.0 4000.0 4000.0 4000.0 4000.0 4000.0 4000.0 4000.0 4000.0 4000.0 4000.0 4000.0 4000.0 4000.0 4000.0 4000.0 4000.0 4000.0 4000.0 4000.0 4000.0 4000.0 4000.0 4000.0 4000.0 4000.0 4000.0 4000.0 4000.0 4000.0 4000.0 4000.0 4000.0 4000.0 4000.0 4000.0 4000.0 4000.0 4000.0 4000.0 4000.0 4000.0 4000.0 4000.0 4000.0 4000.0 4000.0 4000.0 4000.0 4000.0 4000.0 4000.0 4000.0 4000.0 4000.0 4000.0 4000.0 4000.0 4000.0 4000.0 4000.0 4000.0 4000.0 4000.0 4000.0 4000.0 4000.0 4000.0 4000.0 4000.0 4000.0 4000.0 4000.0 4000.0 4000.0 4000.0 4000.0 4000.0 4000.0 4000.0 4000.0 4000.0 4000.0 4000.0 4000.0 4000.0 4000.0 4000.0 4000.0 4000.0 4000.0 4000.0 4000.0 4000.0 4000.0 4000.0 4000.0 4000.0 4000.0 4000.0 4000.0 4000.0 4000.0 4000.0 4000.0 4000.0 4000.0 4000.0 4000.0 4000.0 4000.0 4000.0 4000.0 4000.0 4000.0 4000.0 4000.0 4000.0 4000.0 4000.0 4000.0 4000.0 4000.0 4000.0 4000.0 4000.0 4000.0 4000.0 4000.0 4000.0 4000.0 4000.0 4000.0 4000.0 4000.0 4000.0 4000.0 4000.0 4000.0 4000.0 4000.0 4000.0 4000.0 4000.0 4000.0 4000.0 4000.0 4000.0 4000.0 4000.0 4000.0 4000.0 4000.0 4000.0 4000.0 4000.0 4000.0 4000.0 4000.0 4000.0 4000.0 4000.0 4000.0 4000.0 4000.0 4000.0 4000.0 4000.0 4000.0 4000.0 4000.0 4000.0 4000.0 4000.0 4000.0 4000.0 4000.0 4000.0 4000.0 4000.0 4000.0 4000.0 4000.0 4000.0 4000.0 4000.0 4000.0 4000.0 4000.0 4000.0 4000.0 4000.0 4000.0 4000.0 4000.0 4000.0 4000.0 4000.0 4000.0 4000.0 4000.0 4000.0 4000.0 4000.0 4000.0 4000.0 4000.0 4000.0 4000.0 4000.0 4000.0 4000.0 4000.0 4000.0 4000.0 4000.0 4000.0 4000.0 4000.0 4000.0 4000.0 4000.0 4000.0 4000.0 4000.0 4000.0 4000.0 4000.0 4000.0 4000.0 4000.0 4000.0 4000.0 4000.0 4000.0 4000.0 4000.0 4000.0 4000.0 4000.0 4000.0 4000.0 4000.0 4000.0 4000.0 4000.0 4000.0 4000.0 4000.0 4000.0 4000.0 4000.0 4000.0 4000.0 4000.0 4000.0 4000.0 4000.0 4000.0 4000.0 4000.0 4000.0 4000.0 4000.0 4000.0 4000.0 4000.0 4000.0 4000.0 4000.0 4000.0 4000.0 4000.0 4000.0 4000.0 4000.0 4000.0 4000.0 4000.0 4000.0 4000.0 4000.0 4000.0 4000.0 4000.0 4000.0 4000.0 4000.0 4000.0 4000.0 4000.0 4000.0 4000.0 4000.0 4000.0 4000.0 4000.0 4000.0 4000.0 4000.0 4000.0 4000.0 4000.0 4000.0 4000.0 4000.0 4000.0 4000.0 4000.0 4000.0 4000.0 4000.0 4000.0 4000.0 4000.0 4000.0 4000.0 4000.0 4000.0 4000.0 4000.0 4000.0 4000.0 4000.0 4000.0 4000.0 4000.0 4000.0 4000.0 4000.0 4000.0 4000.0 4000.0 4000.0 4000.0 4000.0 4000.0 4000.0 4000.0 4000.0 4000.0 4000.0 4000.0 4000.0 4000.0 4000.0 4000.0 4000.0 4000.0 4000.0 4000.0 4000.0 4000.0 4000.0 4000.0 4000.0 4000.0 4000.0 4000.0 4000.0 4000.0 4000.0 4000.0 4000.0 4000.0 4000.0 4000.0 4000.0 4000.0 4000.0 4000.0 4000.0 4000.0 4000.0 4000.0 4000.0 4000.0 4000.0 4000.0 4000.0 4000.0 4000.0 4000.0 4000.0 4000.0 4000.0 4000.0 4000.0 4000.0 4000.0 4000.0 4000.0 4000.0 4000.0 4000.0 4000.0 4000.0 4000.0 4000.0 4000.0 4000.0 4000.0 4000.0 4000.0 4000.0 4000.0 4000.0 4000.0 4000.0 4000.0 4000.0 4000.0 4000.0 4000.0 4000.0 4000.0 4000.0 4000.0 4000.0 4000.0 4000.0 4000.0 4000.0 4000.0 4000.0 4000.0 4000.0 4000.0 4000.0 4000.0 4000.0 4000.0 4000.0 4000.0 4000.0 4000.0 4000.0 4000.0 4000.0 4000.0 4000.0 4000.0 4000.0 4000.0 4000.0 4000.0 4000.0 4000.0 4000.0 4000.0 4000.0 4000.0 4000.0 4000.0 4000.0 4000.0 4000.0 4000.0 4000.0 4000.0 4000.0 4000.0 4000.0 4000.0 4000.0 4000.0 4000.0 4000.0 4000.0 4000.0 4000.0 4000.0 4000.0 4000.0 4000.0 4000.0 4000.0 4000.0 4000.0 4000.0 4000.0 4000.0 4000.0 4000.0 4000.0 4000.0 4000.0 4000.0 4000.0 4000.0 4000.0 4000.0 4000.0 4000.0 4000.0 4000.0 4000.0 4000.0 4000.0 4000.0 4000.0 4000.0 4000.0 4000.0 4000.0 4000.0 4000.0 4000.0 4000.0 4000.0 4000.0 4000.0 4000.0 4000.0 4000.0 4000.0 4000.0 4000.0 4000.0 4000.0 4000.0 4000.0 4000.0 4000.0 4000.0 4000.0 4000.0 4000.0 4000.0 4000.0 4000.0 4000.0 4000.0 4000.0 4000.0 4000.0 4000.0 4000.0 4000.0 4000.0 4000.0 4000.0 4000.0 4000.0 4000.0 4000.0 4000.0 4000.0 4000.0 4000.0 4000.0 4000.0 4000.0 4000.0 4000.0 4000.0 4000.0 4000.0 4000.0 4000.0 4000.0 4000.0 4000.0 4000.0 4000.0 4000.0 4000.0 4000.0 4000.0 4000.0 4000.0 4000.0 4000.0 4000.0 4000.0 4000.0 4000.0 4000.0 4000.0 4000.0 SCALARS Mass float 1
LOOKUP_TABLE default
11309700000.0 11309700000.0 11309700000.0 11309700000.0 11309700000.0 11309700000.0 11309700000.0 11309700000.0 11309700000.0 11309700000.0 11309700000.0 11309700000.0 11309700000.0 11309700000.0 11309700000.0 11309700000.0 11309700000.0 11309700000.0 11309700000.0 11309700000.0 11309700000.0 11309700000.0 11309700000.0 11309700000.0 11309700000.0 11309700000.0 11309700000.0 11309700000.0 11309700000.0 11309700000.0 11309700000.0 11309700000.0 11309700000.0 11309700000.0 11309700000.0 11309700000.0 11309700000.0 11309700000.0 11309700000.0 11309700000.0 11309700000.0 11309700000.0 11309700000.0 11309700000.0 11309700000.0 11309700000.0 11309700000.0 11309700000.0 11309700000.0 11309700000.0 11309700000.0 11309700000.0 11309700000.0 11309700000.0 11309700000.0 11309700000.0 11309700000.0 11309700000.0 11309700000.0 11309700000.0 11309700000.0 11309700000.0 11309700000.0 11309700000.0 11309700000.0 11309700000.0 11309700000.0 11309700000.0 11309700000.0 11309700000.0 11309700000.0 11309700000.0 11309700000.0 11309700000.0 11309700000.0 11309700000.0 11309700000.0 11309700000.0 11309700000.0 11309700000.0 11309700000.0 11309700000.0 11309700000.0 11309700000.0 11309700000.0 11309700000.0 11309700000.0 11309700000.0 11309700000.0 11309700000.0 11309700000.0 11309700000.0 11309700000.0 11309700000.0 11309700000.0 11309700000.0 11309700000.0 11309700000.0 11309700000.0 11309700000.0 11309700000.0 11309700000.0 11309700000.0 11309700000.0 11309700000.0 11309700000.0 11309700000.0 11309700000.0 11309700000.0 11309700000.0 11309700000.0 11309700000.0 11309700000.0 11309700000.0 11309700000.0 11309700000.0 11309700000.0 11309700000.0 11309700000.0 11309700000.0 11309700000.0 11309700000.0 11309700000.0 11309700000.0 11309700000.0 11309700000.0 11309700000.0 11309700000.0 11309700000.0 11309700000.0 11309700000.0 11309700000.0 11309700000.0 11309700000.0 11309700000.0 11309700000.0 11309700000.0 11309700000.0 11309700000.0 11309700000.0 11309700000.0 11309700000.0 11309700000.0 11309700000.0 11309700000.0 11309700000.0 11309700000.0 11309700000.0 11309700000.0 11309700000.0 11309700000.0 11309700000.0 11309700000.0 11309700000.0 11309700000.0 11309700000.0 11309700000.0 11309700000.0 11309700000.0 11309700000.0 11309700000.0 11309700000.0 11309700000.0 11309700000.0 11309700000.0 11309700000.0 11309700000.0 11309700000.0 11309700000.0 11309700000.0 11309700000.0 11309700000.0 11309700000.0 11309700000.0 11309700000.0 11309700000.0 11309700000.0 11309700000.0 11309700000.0 11309700000.0 11309700000.0 11309700000.0 11309700000.0 11309700000.0 11309700000.0 11309700000.0 11309700000.0 11309700000.0 11309700000.0 11309700000.0 11309700000.0 11309700000.0 11309700000.0 11309700000.0 11309700000.0 11309700000.0 11309700000.0 11309700000.0 11309700000.0 11309700000.0 11309700000.0 11309700000.0 11309700000.0 11309700000.0 11309700000.0 11309700000.0 11309700000.0 11309700000.0 11309700000.0 11309700000.0 11309700000.0 11309700000.0 11309700000.0 11309700000.0 11309700000.0 11309700000.0 11309700000.0 11309700000.0 11309700000.0 11309700000.0 11309700000.0 11309700000.0 11309700000.0 11309700000.0 11309700000.0 11309700000.0 11309700000.0 11309700000.0 11309700000.0 11309700000.0 11309700000.0 11309700000.0 11309700000.0 11309700000.0 11309700000.0 11309700000.0 11309700000.0 11309700000.0 11309700000.0 11309700000.0 11309700000.0 11309700000.0 11309700000.0 11309700000.0 11309700000.0 11309700000.0 11309700000.0 11309700000.0 11309700000.0 11309700000.0 11309700000.0 11309700000.0 11309700000.0 11309700000.0 11309700000.0 11309700000.0 11309700000.0 11309700000.0 11309700000.0 11309700000.0 11309700000.0 11309700000.0 11309700000.0 11309700000.0 11309700000.0 11309700000.0 11309700000.0 11309700000.0 11309700000.0 11309700000.0 11309700000.0 11309700000.0 11309700000.0 11309700000.0 11309700000.0 11309700000.0 11309700000.0 11309700000.0 11309700000.0 11309700000.0 11309700000.0 11309700000.0 11309700000.0 11309700000.0 11309700000.0 11309700000.0 11309700000.0 11309700000.0 11309700000.0 11309700000.0 11309700000.0 11309700000.0 11309700000.0 11309700000.0 11309700000.0 11309700000.0 11309700000.0 11309700000.0 11309700000.0 11309700000.0 11309700000.0 11309700000.0 11309700000.0 11309700000.0 11309700000.0 11309700000.0 11309700000.0 11309700000.0 11309700000.0 11309700000.0 11309700000.0 11309700000.0 11309700000.0 11309700000.0 11309700000.0 11309700000.0 11309700000.0 11309700000.0 11309700000.0 11309700000.0 11309700000.0 11309700000.0 11309700000.0 11309700000.0 11309700000.0 11309700000.0 11309700000.0 11309700000.0 11309700000.0 11309700000.0 11309700000.0 11309700000.0 11309700000.0 11309700000.0 11309700000.0 11309700000.0 11309700000.0 11309700000.0 11309700000.0 11309700000.0 11309700000.0 11309700000.0 11309700000.0 11309700000.0 11309700000.0 11309700000.0 11309700000.0 11309700000.0 11309700000.0 11309700000.0 11309700000.0 11309700000.0 11309700000.0 11309700000.0 11309700000.0 11309700000.0 11309700000.0 11309700000.0 11309700000.0 11309700000.0 11309700000.0 11309700000.0 11309700000.0 11309700000.0 11309700000.0 11309700000.0 11309700000.0 11309700000.0 11309700000.0 11309700000.0 11309700000.0 11309700000.0 11309700000.0 11309700000.0 11309700000.0 11309700000.0 11309700000.0 11309700000.0 11309700000.0 11309700000.0 11309700000.0 11309700000.0 11309700000.0 11309700000.0 11309700000.0 11309700000.0 11309700000.0 11309700000.0 11309700000.0 11309700000.0 11309700000.0 11309700000.0 11309700000.0 11309700000.0 11309700000.0 11309700000.0 11309700000.0 11309700000.0 11309700000.0 11309700000.0 11309700000.0 11309700000.0 11309700000.0 11309700000.0 11309700000.0 11309700000.0 11309700000.0 11309700000.0 11309700000.0 11309700000.0 11309700000.0 11309700000.0 11309700000.0 11309700000.0 11309700000.0 11309700000.0 11309700000.0 11309700000.0 11309700000.0 11309700000.0 11309700000.0 11309700000.0 11309700000.0 11309700000.0 11309700000.0 11309700000.0 11309700000.0 11309700000.0 11309700000.0 11309700000.0 11309700000.0 11309700000.0 11309700000.0 11309700000.0 11309700000.0 11309700000.0 11309700000.0 11309700000.0 11309700000.0 11309700000.0 11309700000.0 11309700000.0 11309700000.0 11309700000.0 11309700000.0 11309700000.0 11309700000.0 11309700000.0 11309700000.0 11309700000.0 11309700000.0 11309700000.0 11309700000.0 11309700000.0 11309700000.0 11309700000.0 11309700000.0 11309700000.0 11309700000.0 11309700000.0 11309700000.0 11309700000.0 11309700000.0 11309700000.0 11309700000.0 11309700000.0 11309700000.0 11309700000.0 11309700000.0 11309700000.0 11309700000.0 11309700000.0 11309700000.0 11309700000.0 11309700000.0 11309700000.0 11309700000.0 11309700000.0 11309700000.0 11309700000.0 11309700000.0 11309700000.0 11309700000.0 11309700000.0 11309700000.0 11309700000.0 11309700000.0 11309700000.0 11309700000.0 11309700000.0 11309700000.0 11309700000.0 11309700000.0 11309700000.0 11309700000.0 11309700000.0 11309700000.0 11309700000.0 11309700000.0 11309700000.0 11309700000.0 11309700000.0 11309700000.0 11309700000.0 11309700000.0 11309700000.0 11309700000.0 11309700000.0 11309700000.0 11309700000.0 11309700000.0 11309700000.0 11309700000.0 11309700000.0 11309700000.0 11309700000.0 11309700000.0 11309700000.0 11309700000.0 11309700000.0 11309700000.0 11309700000.0 11309700000.0 11309700000.0 11309700000.0 11309700000.0 11309700000.0 11309700000.0 11309700000.0 11309700000.0 11309700000.0 11309700000.0 11309700000.0 11309700000.0 11309700000.0 11309700000.0 11309700000.0 11309700000.0 11309700000.0 11309700000.0 11309700000.0 11309700000.0 11309700000.0 11309700000.0 11309700000.0 11309700000.0 11309700000.0 11309700000.0 11309700000.0 11309700000.0 11309700000.0 11309700000.0 11309700000.0 11309700000.0 11309700000.0 11309700000.0 11309700000.0 11309700000.0 11309700000.0 11309700000.0 11309700000.0 11309700000.0 11309700000.0 11309700000.0 11309700000.0 11309700000.0 11309700000.0 11309700000.0 11309700000.0 11309700000.0 11309700000.0 11309700000.0 11309700000.0 11309700000.0 11309700000.0 11309700000.0 11309700000.0 11309700000.0 11309700000.0 11309700000.0 11309700000.0 11309700000.0 11309700000.0 11309700000.0 11309700000.0 11309700000.0 11309700000.0 11309700000.0 11309700000.0 11309700000.0 11309700000.0 11309700000.0 11309700000.0 11309700000.0 11309700000.0 11309700000.0 11309700000.0 11309700000.0 11309700000.0 11309700000.0 11309700000.0 11309700000.0 11309700000.0 11309700000.0 11309700000.0 11309700000.0 11309700000.0 11309700000.0 11309700000.0 11309700000.0 11309700000.0 11309700000.0 11309700000.0 11309700000.0 11309700000.0 11309700000.0 11309700000.0 11309700000.0 11309700000.0 11309700000.0 11309700000.0 11309700000.0 11309700000.0 11309700000.0 11309700000.0 11309700000.0 11309700000.0 11309700000.0 11309700000.0 11309700000.0 11309700000.0 11309700000.0 11309700000.0 11309700000.0 11309700000.0 11309700000.0 11309700000.0 11309700000.0 11309700000.0 11309700000.0 11309700000.0 11309700000.0 11309700000.0 11309700000.0 11309700000.0 11309700000.0 11309700000.0 11309700000.0 11309700000.0 11309700000.0 11309700000.0 11309700000.0 11309700000.0 11309700000.0 11309700000.0 11309700000.0 11309700000.0 11309700000.0 11309700000.0 11309700000.0 11309700000.0 11309700000.0 11309700000.0 11309700000.0 11309700000.0 11309700000.0 11309700000.0 11309700000.0 11309700000.0 11309700000.0 11309700000.0 11309700000.0 11309700000.0 11309700000.0 11309700000.0 11309700000.0 11309700000.0 11309700000.0 11309700000.0 11309700000.0 11309700000.0 11309700000.0 11309700000.0 11309700000.0 11309700000.0 11309700000.0 11309700000.0 11309700000.0 11309700000.0 11309700000.0 11309700000.0 11309700000.0 11309700000.0 11309700000.0 11309700000.0 11309700000.0 11309700000.0 11309700000.0 11309700000.0 11309700000.0 11309700000.0 11309700000.0 11309700000.0 11309700000.0 11309700000.0 11309700000.0 11309700000.0 11309700000.0 11309700000.0 11309700000.0 11309700000.0 11309700000.0 11309700000.0 11309700000.0 11309700000.0 11309700000.0 11309700000.0 11309700000.0 11309700000.0 11309700000.0 11309700000.0 11309700000.0 11309700000.0 11309700000.0 11309700000.0 11309700000.0 11309700000.0 11309700000.0 11309700000.0 11309700000.0 11309700000.0 11309700000.0 11309700000.0 11309700000.0 11309700000.0 11309700000.0 11309700000.0 11309700000.0 11309700000.0 11309700000.0 11309700000.0 11309700000.0 11309700000.0 11309700000.0 11309700000.0 11309700000.0 11309700000.0 11309700000.0 11309700000.0 11309700000.0 11309700000.0 11309700000.0 11309700000.0 11309700000.0 11309700000.0 11309700000.0 11309700000.0 11309700000.0 11309700000.0 11309700000.0 11309700000.0 11309700000.0 11309700000.0 11309700000.0 11309700000.0 11309700000.0 11309700000.0 11309700000.0 11309700000.0 11309700000.0 11309700000.0 11309700000.0 11309700000.0 11309700000.0 11309700000.0 11309700000.0 11309700000.0 11309700000.0 11309700000.0 11309700000.0 11309700000.0 11309700000.0 11309700000.0 11309700000.0 11309700000.0 11309700000.0 11309700000.0 11309700000.0 11309700000.0 11309700000.0 11309700000.0 11309700000.0 11309700000.0 11309700000.0 11309700000.0 11309700000.0 11309700000.0 11309700000.0 11309700000.0 11309700000.0 11309700000.0 11309700000.0 11309700000.0 11309700000.0 11309700000.0 11309700000.0 11309700000.0 11309700000.0 11309700000.0 11309700000.0 11309700000.0 11309700000.0 11309700000.0 11309700000.0 11309700000.0 11309700000.0 11309700000.0 11309700000.0 11309700000.0 11309700000.0 11309700000.0 11309700000.0 11309700000.0 11309700000.0 11309700000.0 11309700000.0 11309700000.0 11309700000.0 11309700000.0 11309700000.0 11309700000.0 11309700000.0 11309700000.0 11309700000.0 11309700000.0 11309700000.0 11309700000.0 11309700000.0 11309700000.0 11309700000.0 11309700000.0 11309700000.0 11309700000.0 11309700000.0 11309700000.0 11309700000.0 11309700000.0 11309700000.0 11309700000.0 11309700000.0 11309700000.0 11309700000.0 11309700000.0 11309700000.0 11309700000.0 11309700000.0 11309700000.0 11309700000.0 11309700000.0 11309700000.0 11309700000.0 11309700000.0 11309700000.0 11309700000.0 11309700000.0 11309700000.0 11309700000.0 11309700000.0 11309700000.0 11309700000.0 11309700000.0 11309700000.0 11309700000.0 11309700000.0 11309700000.0 11309700000.0 11309700000.0 11309700000.0 11309700000.0 11309700000.0 11309700000.0 11309700000.0 11309700000.0 11309700000.0 11309700000.0 11309700000.0 11309700000.0 11309700000.0 11309700000.0 11309700000.0 11309700000.0 11309700000.0 11309700000.0 11309700000.0 11309700000.0 11309700000.0 11309700000.0 11309700000.0 11309700000.0 11309700000.0 11309700000.0 11309700000.0 11309700000.0 11309700000.0 11309700000.0 11309700000.0 11309700000.0 11309700000.0 11309700000.0 11309700000.0 11309700000.0 11309700000.0 11309700000.0 11309700000.0 11309700000.0 11309700000.0 11309700000.0 11309700000.0 11309700000.0 11309700000.0 11309700000.0 11309700000.0 11309700000.0 11309700000.0 11309700000.0 11309700000.0 11309700000.0 11309700000.0 11309700000.0 11309700000.0 11309700000.0 11309700000.0 11309700000.0 11309700000.0 11309700000.0 11309700000.0 11309700000.0 11309700000.0 11309700000.0 11309700000.0 11309700000.0 11309700000.0 11309700000.0 11309700000.0 11309700000.0 11309700000.0 11309700000.0 11309700000.0 11309700000.0 11309700000.0 11309700000.0 11309700000.0 11309700000.0 11309700000.0 11309700000.0 11309700000.0 11309700000.0 11309700000.0 11309700000.0 11309700000.0 11309700000.0 11309700000.0 11309700000.0 11309700000.0 11309700000.0 11309700000.0 11309700000.0 11309700000.0 11309700000.0 11309700000.0 11309700000.0 11309700000.0 11309700000.0 11309700000.0 11309700000.0 11309700000.0 11309700000.0 11309700000.0 11309700000.0 11309700000.0 11309700000.0 11309700000.0 11309700000.0 11309700000.0 11309700000.0 11309700000.0 11309700000.0 11309700000.0 11309700000.0 11309700000.0 11309700000.0 11309700000.0 11309700000.0 11309700000.0 11309700000.0 11309700000.0 11309700000.0 11309700000.0 11309700000.0 11309700000.0 11309700000.0 11309700000.0 11309700000.0 11309700000.0 11309700000.0 11309700000.0 11309700000.0 11309700000.0 11309700000.0 11309700000.0 11309700000.0 11309700000.0 11309700000.0 11309700000.0 11309700000.0 11309700000.0 11309700000.0 11309700000.0 11309700000.0 11309700000.0 11309700000.0 11309700000.0 11309700000.0 11309700000.0 11309700000.0 11309700000.0 11309700000.0 11309700000.0 11309700000.0 11309700000.0 11309700000.0 11309700000.0 11309700000.0 11309700000.0 11309700000.0 11309700000.0 11309700000.0 11309700000.0 11309700000.0 11309700000.0 11309700000.0 11309700000.0 11309700000.0 11309700000.0 11309700000.0 11309700000.0 11309700000.0 11309700000.0 11309700000.0 11309700000.0 11309700000.0 11309700000.0 11309700000.0 11309700000.0 11309700000.0 11309700000.0 11309700000.0 11309700000.0 11309700000.0 11309700000.0 11309700000.0 11309700000.0 11309700000.0 11309700000.0 11309700000.0 11309700000.0 11309700000.0 11309700000.0 11309700000.0 11309700000.0 11309700000.0 11309700000.0 11309700000.0 11309700000.0 11309700000.0 11309700000.0 11309700000.0 11309700000.0 11309700000.0 11309700000.0 11309700000.0 11309700000.0 11309700000.0 11309700000.0 11309700000.0 11309700000.0 11309700000.0 11309700000.0 11309700000.0 11309700000.0 11309700000.0 11309700000.0 11309700000.0 11309700000.0 11309700000.0 11309700000.0 11309700000.0 11309700000.0 11309700000.0 11309700000.0 11309700000.0 11309700000.0 11309700000.0 11309700000.0 11309700000.0 11309700000.0 11309700000.0 11309700000.0 11309700000.0 11309700000.0 11309700000.0 11309700000.0 11309700000.0 11309700000.0 11309700000.0 11309700000.0 11309700000.0 11309700000.0 11309700000.0 11309700000.0 11309700000.0 11309700000.0 11309700000.0 11309700000.0 11309700000.0 11309700000.0 11309700000.0 11309700000.0 11309700000.0 11309700000.0 11309700000.0 11309700000.0 11309700000.0 11309700000.0 11309700000.0 11309700000.0 11309700000.0 11309700000.0 11309700000.0 11309700000.0 11309700000.0 11309700000.0 11309700000.0 11309700000.0 11309700000.0 11309700000.0 11309700000.0 11309700000.0 11309700000.0 11309700000.0 11309700000.0 11309700000.0 11309700000.0 11309700000.0 11309700000.0 11309700000.0 11309700000.0 11309700000.0 11309700000.0 11309700000.0 11309700000.0 11309700000.0 11309700000.0 11309700000.0 11309700000.0 11309700000.0 11309700000.0 11309700000.0 11309700000.0 11309700000.0 11309700000.0 11309700000.0 11309700000.0 11309700000.0 11309700000.0 11309700000.0 11309700000.0 11309700000.0 11309700000.0 11309700000.0 11309700000.0 11309700000.0 11309700000.0 11309700000.0 11309700000.0 11309700000.0 11309700000.0 11309700000.0 11309700000.0 11309700000.0 11309700000.0 11309700000.0 11309700000.0 11309700000.0 11309700000.0 11309700000.0 11309700000.0 11309700000.0 11309700000.0 11309700000.0 11309700000.0 11309700000.0 11309700000.0 11309700000.0 11309700000.0 11309700000.0 11309700000.0 11309700000.0 11309700000.0 11309700000.0 11309700000.0 11309700000.0 11309700000.0 11309700000.0 11309700000.0 11309700000.0 11309700000.0 11309700000.0 11309700000.0 11309700000.0 11309700000.0 11309700000.0 11309700000.0 11309700000.0 11309700000.0 11309700000.0 11309700000.0 11309700000.0 11309700000.0 11309700000.0 11309700000.0 11309700000.0 11309700000.0 11309700000.0 11309700000.0 11309700000.0 11309700000.0 11309700000.0 11309700000.0 11309700000.0 11309700000.0 11309700000.0 11309700000.0 11309700000.0 11309700000.0 11309700000.0 11309700000.0 11309700000.0 11309700000.0 11309700000.0 11309700000.0 11309700000.0 11309700000.0 11309700000.0 11309700000.0 11309700000.0 11309700000.0 11309700000.0 11309700000.0 11309700000.0 11309700000.0 11309700000.0 11309700000.0 11309700000.0 11309700000.0 11309700000.0 11309700000.0 11309700000.0 11309700000.0 11309700000.0 11309700000.0 11309700000.0 11309700000.0 11309700000.0 11309700000.0 11309700000.0 11309700000.0 11309700000.0 11309700000.0 11309700000.0 11309700000.0 11309700000.0 11309700000.0 11309700000.0 11309700000.0 11309700000.0 11309700000.0 11309700000.0 11309700000.0 11309700000.0 11309700000.0 11309700000.0 11309700000.0 11309700000.0 11309700000.0 11309700000.0 11309700000.0 11309700000.0 11309700000.0 11309700000.0 11309700000.0 11309700000.0 11309700000.0 11309700000.0 11309700000.0 11309700000.0 11309700000.0 11309700000.0 11309700000.0 11309700000.0 11309700000.0 11309700000.0 11309700000.0 11309700000.0 11309700000.0 11309700000.0 11309700000.0 11309700000.0 11309700000.0 11309700000.0 11309700000.0 11309700000.0 11309700000.0 11309700000.0 11309700000.0 11309700000.0 11309700000.0 11309700000.0 11309700000.0 11309700000.0 11309700000.0 11309700000.0 11309700000.0 11309700000.0 11309700000.0 11309700000.0 11309700000.0 11309700000.0 11309700000.0 11309700000.0 11309700000.0 11309700000.0 11309700000.0 11309700000.0 11309700000.0 11309700000.0 11309700000.0 11309700000.0 11309700000.0 11309700000.0 11309700000.0 11309700000.0 11309700000.0 11309700000.0 11309700000.0 11309700000.0 11309700000.0 11309700000.0 11309700000.0 11309700000.0 11309700000.0 11309700000.0 11309700000.0 11309700000.0 11309700000.0 11309700000.0 11309700000.0 11309700000.0 11309700000.0 11309700000.0 11309700000.0 11309700000.0 11309700000.0 11309700000.0 11309700000.0 11309700000.0 11309700000.0 11309700000.0 11309700000.0 11309700000.0 11309700000.0 11309700000.0 11309700000.0 11309700000.0 11309700000.0 11309700000.0 11309700000.0 11309700000.0 11309700000.0 11309700000.0 11309700000.0 11309700000.0 11309700000.0 11309700000.0 11309700000.0 11309700000.0 11309700000.0 11309700000.0 11309700000.0 11309700000.0 11309700000.0 11309700000.0 11309700000.0 11309700000.0 11309700000.0 11309700000.0 11309700000.0 11309700000.0 11309700000.0 11309700000.0 11309700000.0 11309700000.0 11309700000.0 11309700000.0 11309700000.0 11309700000.0 11309700000.0 11309700000.0 11309700000.0 11309700000.0 11309700000.0 11309700000.0 11309700000.0 11309700000.0 11309700000.0 11309700000.0 11309700000.0 11309700000.0 11309700000.0 11309700000.0 11309700000.0 11309700000.0 11309700000.0 11309700000.0 11309700000.0 11309700000.0 11309700000.0 11309700000.0 11309700000.0 11309700000.0 11309700000.0 11309700000.0 11309700000.0 11309700000.0 11309700000.0 11309700000.0 11309700000.0 11309700000.0 11309700000.0 11309700000.0 11309700000.0 11309700000.0 11309700000.0 11309700000.0 11309700000.0 11309700000.0 11309700000.0 11309700000.0 11309700000.0 11309700000.0 11309700000.0 11309700000.0 11309700000.0 11309700000.0 11309700000.0 11309700000.0 11309700000.0 11309700000.0 11309700000.0 11309700000.0 11309700000.0 11309700000.0 11309700000.0 11309700000.0 11309700000.0 11309700000.0 11309700000.0 11309700000.0 11309700000.0 11309700000.0 11309700000.0 11309700000.0 11309700000.0 11309700000.0 11309700000.0 11309700000.0 11309700000.0 11309700000.0 11309700000.0 11309700000.0 11309700000.0 11309700000.0 11309700000.0 11309700000.0 11309700000.0 11309700000.0 11309700000.0 11309700000.0 11309700000.0 11309700000.0 11309700000.0 11309700000.0 11309700000.0 11309700000.0 11309700000.0 11309700000.0 11309700000.0 11309700000.0 11309700000.0 11309700000.0 11309700000.0 11309700000.0 11309700000.0 11309700000.0 11309700000.0 11309700000.0 11309700000.0 11309700000.0 11309700000.0 11309700000.0 11309700000.0 11309700000.0 11309700000.0 11309700000.0 11309700000.0 11309700000.0 11309700000.0 11309700000.0 11309700000.0 11309700000.0 11309700000.0 11309700000.0 11309700000.0 11309700000.0 11309700000.0 11309700000.0 11309700000.0 11309700000.0 11309700000.0 11309700000.0 11309700000.0 11309700000.0 11309700000.0 11309700000.0 11309700000.0 11309700000.0 11309700000.0 11309700000.0 11309700000.0 11309700000.0 11309700000.0 11309700000.0 11309700000.0 11309700000.0 11309700000.0 11309700000.0 11309700000.0 11309700000.0 11309700000.0 11309700000.0 11309700000.0 11309700000.0 11309700000.0 11309700000.0 11309700000.0 11309700000.0 11309700000.0 11309700000.0 11309700000.0 11309700000.0 11309700000.0 11309700000.0 11309700000.0 11309700000.0 11309700000.0 11309700000.0 11309700000.0 11309700000.0 11309700000.0 11309700000.0 11309700000.0 11309700000.0 11309700000.0 11309700000.0 11309700000.0 11309700000.0 11309700000.0 11309700000.0 11309700000.0 11309700000.0 11309700000.0 11309700000.0 11309700000.0 11309700000.0 11309700000.0 11309700000.0 11309700000.0 11309700000.0 11309700000.0 11309700000.0 11309700000.0 11309700000.0 11309700000.0 11309700000.0 11309700000.0 11309700000.0 11309700000.0 11309700000.0 11309700000.0 11309700000.0 11309700000.0 11309700000.0 11309700000.0 11309700000.0 11309700000.0 11309700000.0 11309700000.0 11309700000.0 11309700000.0 11309700000.0 11309700000.0 11309700000.0 11309700000.0 11309700000.0 11309700000.0 11309700000.0 11309700000.0 11309700000.0 11309700000.0 11309700000.0 11309700000.0 11309700000.0 11309700000.0 11309700000.0 11309700000.0 11309700000.0 11309700000.0 11309700000.0 11309700000.0 11309700000.0 11309700000.0 11309700000.0 11309700000.0 11309700000.0 11309700000.0 11309700000.0 11309700000.0 11309700000.0 11309700000.0 11309700000.0 11309700000.0 11309700000.0 11309700000.0 11309700000.0 11309700000.0 11309700000.0 11309700000.0 11309700000.0 11309700000.0 11309700000.0 11309700000.0 11309700000.0 11309700000.0 11309700000.0 11309700000.0 11309700000.0 11309700000.0 11309700000.0 11309700000.0 11309700000.0 11309700000.0 11309700000.0 11309700000.0 11309700000.0 11309700000.0 11309700000.0 11309700000.0 11309700000.0 11309700000.0 11309700000.0 11309700000.0 11309700000.0 11309700000.0 11309700000.0 11309700000.0 11309700000.0 11309700000.0 11309700000.0 11309700000.0 11309700000.0 11309700000.0 11309700000.0 11309700000.0 11309700000.0 11309700000.0 11309700000.0 11309700000.0 11309700000.0 11309700000.0 11309700000.0 11309700000.0 11309700000.0 11309700000.0 11309700000.0 11309700000.0 11309700000.0 11309700000.0 11309700000.0 11309700000.0 11309700000.0 11309700000.0 11309700000.0 11309700000.0 11309700000.0 11309700000.0 11309700000.0 11309700000.0 11309700000.0 11309700000.0 11309700000.0 11309700000.0 11309700000.0 11309700000.0 11309700000.0 11309700000.0 11309700000.0 11309700000.0 11309700000.0 11309700000.0 11309700000.0 11309700000.0 11309700000.0 11309700000.0 11309700000.0 11309700000.0 11309700000.0 11309700000.0 11309700000.0 11309700000.0 11309700000.0 11309700000.0 11309700000.0 11309700000.0 11309700000.0 11309700000.0 11309700000.0 11309700000.0 11309700000.0 11309700000.0 11309700000.0 11309700000.0 11309700000.0 11309700000.0 11309700000.0 11309700000.0 11309700000.0 11309700000.0 11309700000.0 11309700000.0 11309700000.0 11309700000.0 11309700000.0 11309700000.0 11309700000.0 11309700000.0 11309700000.0 11309700000.0 11309700000.0 11309700000.0 11309700000.0 11309700000.0 11309700000.0 11309700000.0 11309700000.0 11309700000.0 11309700000.0 11309700000.0 11309700000.0 11309700000.0 11309700000.0 11309700000.0 11309700000.0 11309700000.0 11309700000.0 11309700000.0 11309700000.0 11309700000.0 11309700000.0 11309700000.0 11309700000.0 11309700000.0 11309700000.0 11309700000.0 11309700000.0 11309700000.0 11309700000.0 11309700000.0 11309700000.0 11309700000.0 11309700000.0 11309700000.0 11309700000.0 11309700000.0 11309700000.0 11309700000.0 11309700000.0 11309700000.0 11309700000.0 11309700000.0 11309700000.0 11309700000.0 11309700000.0 11309700000.0 11309700000.0 11309700000.0 11309700000.0 11309700000.0 11309700000.0 11309700000.0 11309700000.0 11309700000.0 11309700000.0 11309700000.0 11309700000.0 11309700000.0 11309700000.0 11309700000.0 11309700000.0 11309700000.0 11309700000.0 11309700000.0 11309700000.0 11309700000.0 11309700000.0 11309700000.0 11309700000.0 11309700000.0 11309700000.0 11309700000.0 11309700000.0 11309700000.0 11309700000.0 11309700000.0 11309700000.0 11309700000.0 11309700000.0 11309700000.0 11309700000.0 11309700000.0 11309700000.0 11309700000.0 11309700000.0 11309700000.0 11309700000.0 11309700000.0 11309700000.0 11309700000.0 11309700000.0 11309700000.0 11309700000.0 11309700000.0 11309700000.0 11309700000.0 11309700000.0 11309700000.0 11309700000.0 11309700000.0 11309700000.0 11309700000.0 11309700000.0 11309700000.0 11309700000.0 11309700000.0 11309700000.0 11309700000.0 11309700000.0 11309700000.0 11309700000.0 11309700000.0 11309700000.0 11309700000.0 11309700000.0 11309700000.0 11309700000.0 11309700000.0 11309700000.0 11309700000.0 11309700000.0 11309700000.0 11309700000.0 11309700000.0 11309700000.0 11309700000.0 11309700000.0 11309700000.0 11309700000.0 11309700000.0 11309700000.0 11309700000.0 11309700000.0 11309700000.0 11309700000.0 11309700000.0 11309700000.0 11309700000.0 11309700000.0 11309700000.0 11309700000.0 11309700000.0 11309700000.0 11309700000.0 11309700000.0 11309700000.0 11309700000.0 11309700000.0 11309700000.0 11309700000.0 11309700000.0 11309700000.0 11309700000.0 11309700000.0 11309700000.0 11309700000.0 11309700000.0 11309700000.0 11309700000.0 11309700000.0 11309700000.0 11309700000.0 11309700000.0 11309700000.0 11309700000.0 11309700000.0 11309700000.0 11309700000.0 11309700000.0 11309700000.0 11309700000.0 11309700000.0 11309700000.0 11309700000.0 11309700000.0 11309700000.0 11309700000.0 11309700000.0 11309700000.0 11309700000.0 11309700000.0 11309700000.0 11309700000.0 11309700000.0 11309700000.0 11309700000.0 11309700000.0 11309700000.0 11309700000.0 11309700000.0 11309700000.0 11309700000.0 11309700000.0 11309700000.0 11309700000.0 11309700000.0 11309700000.0 11309700000.0 11309700000.0 11309700000.0 11309700000.0 11309700000.0 11309700000.0 11309700000.0 11309700000.0 11309700000.0 11309700000.0 11309700000.0 11309700000.0 11309700000.0 11309700000.0 11309700000.0 11309700000.0 11309700000.0 11309700000.0 11309700000.0 11309700000.0 11309700000.0 11309700000.0 11309700000.0 11309700000.0 11309700000.0 11309700000.0 11309700000.0 11309700000.0 11309700000.0 11309700000.0 11309700000.0 11309700000.0 11309700000.0 11309700000.0 11309700000.0 11309700000.0 11309700000.0 11309700000.0 11309700000.0 11309700000.0 11309700000.0 11309700000.0 11309700000.0 11309700000.0 11309700000.0 11309700000.0 11309700000.0 11309700000.0 11309700000.0 11309700000.0 11309700000.0 11309700000.0 11309700000.0 11309700000.0 11309700000.0 11309700000.0 11309700000.0 11309700000.0 11309700000.0 11309700000.0 11309700000.0 11309700000.0 11309700000.0 11309700000.0 11309700000.0 11309700000.0 11309700000.0 11309700000.0 11309700000.0 11309700000.0 11309700000.0 11309700000.0 11309700000.0 11309700000.0 11309700000.0 11309700000.0 11309700000.0 11309700000.0 11309700000.0 11309700000.0 11309700000.0 11309700000.0 11309700000.0 11309700000.0 11309700000.0 11309700000.0 11309700000.0 11309700000.0 11309700000.0 11309700000.0 11309700000.0 11309700000.0 11309700000.0 11309700000.0 11309700000.0 11309700000.0 11309700000.0 11309700000.0 11309700000.0 11309700000.0 11309700000.0 11309700000.0 11309700000.0 11309700000.0 11309700000.0 11309700000.0 11309700000.0 11309700000.0 11309700000.0 11309700000.0 11309700000.0 11309700000.0 11309700000.0 11309700000.0 11309700000.0 11309700000.0 11309700000.0 11309700000.0 11309700000.0 11309700000.0 11309700000.0 11309700000.0 11309700000.0 11309700000.0 11309700000.0 11309700000.0 11309700000.0 11309700000.0 11309700000.0 11309700000.0 11309700000.0 11309700000.0 11309700000.0 11309700000.0 11309700000.0 11309700000.0 11309700000.0 11309700000.0 11309700000.0 11309700000.0 11309700000.0 11309700000.0 11309700000.0 11309700000.0 11309700000.0 11309700000.0 11309700000.0 11309700000.0 11309700000.0 11309700000.0 11309700000.0 11309700000.0 11309700000.0 11309700000.0 11309700000.0 11309700000.0 11309700000.0 11309700000.0 11309700000.0 11309700000.0 11309700000.0 11309700000.0 11309700000.0 11309700000.0 11309700000.0 11309700000.0 11309700000.0 11309700000.0 11309700000.0 11309700000.0 11309700000.0 11309700000.0 11309700000.0 11309700000.0 11309700000.0 11309700000.0 11309700000.0 11309700000.0 11309700000.0 11309700000.0 11309700000.0 11309700000.0 11309700000.0 11309700000.0 11309700000.0 11309700000.0 11309700000.0 11309700000.0 11309700000.0 11309700000.0 11309700000.0 11309700000.0 11309700000.0 11309700000.0 11309700000.0 11309700000.0 11309700000.0 11309700000.0 11309700000.0 11309700000.0 11309700000.0 11309700000.0 11309700000.0 11309700000.0 11309700000.0 11309700000.0 11309700000.0 11309700000.0 11309700000.0 11309700000.0 11309700000.0 11309700000.0 11309700000.0 11309700000.0 11309700000.0 11309700000.0 11309700000.0 11309700000.0 11309700000.0 11309700000.0 11309700000.0 11309700000.0 11309700000.0 11309700000.0 11309700000.0 11309700000.0 11309700000.0 11309700000.0 11309700000.0 11309700000.0 11309700000.0 11309700000.0 11309700000.0 11309700000.0 11309700000.0 11309700000.0 11309700000.0 11309700000.0 11309700000.0 11309700000.0 11309700000.0 11309700000.0 11309700000.0 11309700000.0 11309700000.0 11309700000.0 11309700000.0 11309700000.0 11309700000.0 11309700000.0 11309700000.0 11309700000.0 11309700000.0 11309700000.0 11309700000.0 11309700000.0 11309700000.0 11309700000.0 11309700000.0 11309700000.0 11309700000.0 11309700000.0 11309700000.0 11309700000.0 11309700000.0 11309700000.0 11309700000.0 11309700000.0 11309700000.0 11309700000.0 11309700000.0 11309700000.0 11309700000.0 11309700000.0 11309700000.0 11309700000.0 11309700000.0 11309700000.0 11309700000.0 11309700000.0 11309700000.0 11309700000.0 11309700000.0 11309700000.0 11309700000.0 11309700000.0 11309700000.0 11309700000.0 11309700000.0 11309700000.0 11309700000.0 11309700000.0 11309700000.0 11309700000.0 11309700000.0 11309700000.0 11309700000.0 11309700000.0 11309700000.0 11309700000.0 11309700000.0 11309700000.0 11309700000.0 11309700000.0 11309700000.0 11309700000.0 11309700000.0 11309700000.0 11309700000.0 11309700000.0 11309700000.0 11309700000.0 11309700000.0 11309700000.0 11309700000.0 11309700000.0 11309700000.0 11309700000.0 11309700000.0 11309700000.0 11309700000.0 11309700000.0 11309700000.0 11309700000.0 11309700000.0 11309700000.0 11309700000.0 11309700000.0 11309700000.0 11309700000.0 11309700000.0 11309700000.0 11309700000.0 11309700000.0 11309700000.0 11309700000.0 11309700000.0 11309700000.0 11309700000.0 11309700000.0 11309700000.0 11309700000.0 11309700000.0 11309700000.0 11309700000.0 11309700000.0 11309700000.0 11309700000.0 11309700000.0 11309700000.0 11309700000.0 11309700000.0 11309700000.0 11309700000.0 11309700000.0 11309700000.0 11309700000.0 11309700000.0 11309700000.0 11309700000.0 11309700000.0 11309700000.0 11309700000.0 11309700000.0 11309700000.0 11309700000.0 11309700000.0 11309700000.0 11309700000.0 11309700000.0 11309700000.0 11309700000.0 11309700000.0 11309700000.0 11309700000.0 11309700000.0 11309700000.0 11309700000.0 11309700000.0 11309700000.0 11309700000.0 11309700000.0 11309700000.0 11309700000.0 11309700000.0 11309700000.0 11309700000.0 11309700000.0 11309700000.0 11309700000.0 11309700000.0 11309700000.0 11309700000.0 11309700000.0 11309700000.0 11309700000.0 11309700000.0 11309700000.0 11309700000.0 11309700000.0 11309700000.0 11309700000.0 11309700000.0 11309700000.0 11309700000.0 11309700000.0 11309700000.0 11309700000.0 11309700000.0 11309700000.0 11309700000.0 11309700000.0 11309700000.0 11309700000.0 11309700000.0 11309700000.0 11309700000.0 11309700000.0 11309700000.0 11309700000.0 11309700000.0 11309700000.0 11309700000.0 11309700000.0 11309700000.0 11309700000.0 11309700000.0 11309700000.0 11309700000.0 11309700000.0 11309700000.0 11309700000.0 11309700000.0 11309700000.0 11309700000.0 11309700000.0 11309700000.0 11309700000.0 11309700000.0 11309700000.0 11309700000.0 11309700000.0 11309700000.0 11309700000.0 11309700000.0 11309700000.0 11309700000.0 11309700000.0 11309700000.0 11309700000.0 11309700000.0 11309700000.0 11309700000.0 11309700000.0 11309700000.0 11309700000.0 11309700000.0 11309700000.0 11309700000.0 11309700000.0 11309700000.0 11309700000.0 11309700000.0 11309700000.0 11309700000.0 11309700000.0 11309700000.0 11309700000.0 11309700000.0 11309700000.0 11309700000.0 11309700000.0 11309700000.0 11309700000.0 11309700000.0 11309700000.0 11309700000.0 11309700000.0 11309700000.0 11309700000.0 11309700000.0 11309700000.0 11309700000.0 11309700000.0 11309700000.0 11309700000.0 11309700000.0 11309700000.0 11309700000.0 11309700000.0 11309700000.0 11309700000.0 11309700000.0 11309700000.0 11309700000.0 11309700000.0 11309700000.0 11309700000.0 11309700000.0 11309700000.0 11309700000.0 11309700000.0 11309700000.0 11309700000.0 11309700000.0 11309700000.0 11309700000.0 11309700000.0 11309700000.0 11309700000.0 11309700000.0 11309700000.0 11309700000.0 11309700000.0 11309700000.0 11309700000.0 11309700000.0 11309700000.0 11309700000.0 11309700000.0 11309700000.0 11309700000.0 11309700000.0 11309700000.0 11309700000.0 11309700000.0 11309700000.0 11309700000.0 11309700000.0 11309700000.0 11309700000.0 11309700000.0 11309700000.0 11309700000.0 11309700000.0 11309700000.0 11309700000.0 11309700000.0 11309700000.0 11309700000.0 11309700000.0 11309700000.0 11309700000.0 11309700000.0 11309700000.0 11309700000.0 11309700000.0 11309700000.0 11309700000.0 11309700000.0 11309700000.0 11309700000.0 11309700000.0 11309700000.0 11309700000.0 11309700000.0 11309700000.0 11309700000.0 11309700000.0 11309700000.0 11309700000.0 11309700000.0 11309700000.0 11309700000.0 11309700000.0 11309700000.0 11309700000.0 11309700000.0 11309700000.0 11309700000.0 11309700000.0 11309700000.0 11309700000.0 11309700000.0 11309700000.0 11309700000.0 11309700000.0 11309700000.0 11309700000.0 11309700000.0 11309700000.0 11309700000.0 11309700000.0 11309700000.0 11309700000.0 11309700000.0 11309700000.0 11309700000.0 11309700000.0 11309700000.0 11309700000.0 11309700000.0 11309700000.0 11309700000.0 11309700000.0 11309700000.0 11309700000.0 11309700000.0 11309700000.0 11309700000.0 11309700000.0 11309700000.0 11309700000.0 11309700000.0 11309700000.0 11309700000.0 11309700000.0 11309700000.0 11309700000.0 11309700000.0 11309700000.0 11309700000.0 11309700000.0 11309700000.0 11309700000.0 11309700000.0 11309700000.0 11309700000.0 11309700000.0 11309700000.0 11309700000.0 11309700000.0 11309700000.0 11309700000.0 11309700000.0 11309700000.0 11309700000.0 11309700000.0 11309700000.0 11309700000.0 11309700000.0 11309700000.0 11309700000.0 11309700000.0 11309700000.0 11309700000.0 11309700000.0 11309700000.0 11309700000.0 11309700000.0 11309700000.0 11309700000.0 11309700000.0 11309700000.0 11309700000.0 11309700000.0 11309700000.0 11309700000.0 11309700000.0 11309700000.0 11309700000.0 11309700000.0 11309700000.0 11309700000.0 11309700000.0 11309700000.0 11309700000.0 11309700000.0 11309700000.0 11309700000.0 11309700000.0 11309700000.0 11309700000.0 11309700000.0 11309700000.0 11309700000.0 11309700000.0 11309700000.0 11309700000.0 11309700000.0 11309700000.0 11309700000.0 11309700000.0 11309700000.0 11309700000.0 11309700000.0 11309700000.0 11309700000.0 11309700000.0 11309700000.0 11309700000.0 11309700000.0 11309700000.0 11309700000.0 11309700000.0 11309700000.0 11309700000.0 11309700000.0 11309700000.0 11309700000.0 11309700000.0 11309700000.0 11309700000.0 11309700000.0 11309700000.0 11309700000.0 11309700000.0 11309700000.0 11309700000.0 11309700000.0 11309700000.0 11309700000.0 11309700000.0 11309700000.0 11309700000.0 11309700000.0 11309700000.0 11309700000.0 11309700000.0 11309700000.0 11309700000.0 11309700000.0 11309700000.0 11309700000.0 11309700000.0 11309700000.0 11309700000.0 11309700000.0 11309700000.0 11309700000.0 11309700000.0 11309700000.0 11309700000.0 11309700000.0 11309700000.0 11309700000.0 11309700000.0 11309700000.0 11309700000.0 11309700000.0 11309700000.0 11309700000.0 11309700000.0 11309700000.0 11309700000.0 11309700000.0 11309700000.0 11309700000.0 11309700000.0 11309700000.0 11309700000.0 11309700000.0 11309700000.0 11309700000.0 11309700000.0 11309700000.0 11309700000.0 11309700000.0 11309700000.0 11309700000.0 11309700000.0 11309700000.0 11309700000.0 11309700000.0 11309700000.0 11309700000.0 11309700000.0 11309700000.0 11309700000.0 11309700000.0 11309700000.0 11309700000.0 11309700000.0 11309700000.0 11309700000.0 11309700000.0 11309700000.0 11309700000.0 11309700000.0 11309700000.0 11309700000.0 11309700000.0 11309700000.0 11309700000.0 11309700000.0 11309700000.0 11309700000.0 11309700000.0 11309700000.0 11309700000.0 11309700000.0 11309700000.0 11309700000.0 11309700000.0 11309700000.0 11309700000.0 11309700000.0 11309700000.0 11309700000.0 11309700000.0 11309700000.0 11309700000.0 11309700000.0 11309700000.0 11309700000.0 11309700000.0 11309700000.0 11309700000.0 11309700000.0 11309700000.0 11309700000.0 11309700000.0 11309700000.0 11309700000.0 11309700000.0 11309700000.0 11309700000.0 11309700000.0 11309700000.0 11309700000.0 11309700000.0 11309700000.0 11309700000.0 11309700000.0 11309700000.0 11309700000.0 11309700000.0 11309700000.0 11309700000.0 11309700000.0 11309700000.0 11309700000.0 11309700000.0 11309700000.0 11309700000.0 11309700000.0 11309700000.0 11309700000.0 11309700000.0 11309700000.0 11309700000.0 11309700000.0 11309700000.0 11309700000.0 11309700000.0 11309700000.0 11309700000.0 11309700000.0 11309700000.0 11309700000.0 11309700000.0 11309700000.0 11309700000.0 11309700000.0 11309700000.0 11309700000.0 11309700000.0 11309700000.0 11309700000.0 11309700000.0 11309700000.0 11309700000.0 11309700000.0 11309700000.0 11309700000.0 11309700000.0 11309700000.0 11309700000.0 11309700000.0 11309700000.0 11309700000.0 11309700000.0 11309700000.0 11309700000.0 11309700000.0 11309700000.0 11309700000.0 11309700000.0 11309700000.0 11309700000.0 11309700000.0 11309700000.0 11309700000.0 11309700000.0 11309700000.0 11309700000.0 11309700000.0 11309700000.0 11309700000.0 11309700000.0 11309700000.0 11309700000.0 11309700000.0 11309700000.0 11309700000.0 11309700000.0 11309700000.0 11309700000.0 11309700000.0 11309700000.0 11309700000.0 11309700000.0 11309700000.0 11309700000.0 11309700000.0 11309700000.0 11309700000.0 11309700000.0 11309700000.0 11309700000.0 11309700000.0 11309700000.0 11309700000.0 11309700000.0 11309700000.0 11309700000.0 11309700000.0 11309700000.0 11309700000.0 11309700000.0 11309700000.0 11309700000.0 11309700000.0 11309700000.0 11309700000.0 11309700000.0 11309700000.0 11309700000.0 11309700000.0 11309700000.0 11309700000.0 11309700000.0 11309700000.0 11309700000.0 11309700000.0 11309700000.0 11309700000.0 11309700000.0 11309700000.0 11309700000.0 11309700000.0 11309700000.0 11309700000.0 11309700000.0 11309700000.0 11309700000.0 11309700000.0 11309700000.0 11309700000.0 11309700000.0 11309700000.0 11309700000.0 11309700000.0 11309700000.0 11309700000.0 11309700000.0 11309700000.0 11309700000.0 11309700000.0 11309700000.0 11309700000.0 11309700000.0 11309700000.0 11309700000.0 11309700000.0 11309700000.0 11309700000.0 11309700000.0 11309700000.0 11309700000.0 11309700000.0 11309700000.0 11309700000.0 11309700000.0 11309700000.0 11309700000.0 11309700000.0 11309700000.0 11309700000.0 11309700000.0 11309700000.0 11309700000.0 11309700000.0 11309700000.0 11309700000.0 11309700000.0 11309700000.0 11309700000.0 11309700000.0 11309700000.0 11309700000.0 11309700000.0 11309700000.0 11309700000.0 11309700000.0 11309700000.0 11309700000.0 11309700000.0 11309700000.0 11309700000.0 11309700000.0 11309700000.0 11309700000.0 11309700000.0 11309700000.0 11309700000.0 11309700000.0 11309700000.0 11309700000.0 11309700000.0 11309700000.0 11309700000.0 11309700000.0 11309700000.0 11309700000.0 11309700000.0 11309700000.0 11309700000.0 11309700000.0 11309700000.0 11309700000.0 11309700000.0 11309700000.0 11309700000.0 11309700000.0 11309700000.0 11309700000.0 11309700000.0 11309700000.0 11309700000.0 11309700000.0 11309700000.0 11309700000.0 11309700000.0 11309700000.0 11309700000.0 11309700000.0 11309700000.0 11309700000.0 11309700000.0 11309700000.0 11309700000.0 11309700000.0 11309700000.0 11309700000.0 11309700000.0 11309700000.0 11309700000.0 11309700000.0 11309700000.0 11309700000.0 11309700000.0 11309700000.0 11309700000.0 11309700000.0 11309700000.0 11309700000.0 11309700000.0 11309700000.0 11309700000.0 11309700000.0 11309700000.0 11309700000.0 11309700000.0 11309700000.0 11309700000.0 11309700000.0 11309700000.0 11309700000.0 11309700000.0 11309700000.0 11309700000.0 11309700000.0 11309700000.0 11309700000.0 11309700000.0 11309700000.0 11309700000.0 11309700000.0 11309700000.0 11309700000.0 11309700000.0 11309700000.0 11309700000.0 11309700000.0 11309700000.0 11309700000.0 11309700000.0 11309700000.0 11309700000.0 11309700000.0 11309700000.0 11309700000.0 11309700000.0 11309700000.0 11309700000.0 11309700000.0 11309700000.0 11309700000.0 11309700000.0 11309700000.0 11309700000.0 11309700000.0 11309700000.0 11309700000.0 11309700000.0 11309700000.0 11309700000.0 11309700000.0 11309700000.0 11309700000.0 11309700000.0 11309700000.0 11309700000.0 11309700000.0 11309700000.0 11309700000.0 11309700000.0 11309700000.0 11309700000.0 11309700000.0 11309700000.0 11309700000.0 11309700000.0 11309700000.0 11309700000.0 11309700000.0 11309700000.0 11309700000.0 11309700000.0 11309700000.0 11309700000.0 11309700000.0 11309700000.0 11309700000.0 11309700000.0 11309700000.0 11309700000.0 11309700000.0 11309700000.0 11309700000.0 11309700000.0 11309700000.0 11309700000.0 11309700000.0 11309700000.0 11309700000.0 11309700000.0 11309700000.0 11309700000.0 11309700000.0 11309700000.0 11309700000.0 11309700000.0 11309700000.0 11309700000.0 11309700000.0 11309700000.0 11309700000.0 11309700000.0 11309700000.0 11309700000.0 11309700000.0 11309700000.0 11309700000.0 11309700000.0 11309700000.0 11309700000.0 11309700000.0 11309700000.0 11309700000.0 11309700000.0 11309700000.0 11309700000.0 11309700000.0 11309700000.0 11309700000.0 11309700000.0 11309700000.0 11309700000.0 11309700000.0 11309700000.0 11309700000.0 11309700000.0 11309700000.0 11309700000.0 11309700000.0 11309700000.0 11309700000.0 11309700000.0 11309700000.0 11309700000.0 11309700000.0 11309700000.0 11309700000.0 11309700000.0 11309700000.0 11309700000.0 11309700000.0 11309700000.0 11309700000.0 11309700000.0 11309700000.0 11309700000.0 11309700000.0 11309700000.0 11309700000.0 11309700000.0 11309700000.0 11309700000.0 11309700000.0 11309700000.0 11309700000.0 11309700000.0 11309700000.0 11309700000.0 11309700000.0 11309700000.0 11309700000.0 11309700000.0 11309700000.0 11309700000.0 11309700000.0 11309700000.0 11309700000.0 11309700000.0 11309700000.0 11309700000.0 11309700000.0 11309700000.0 11309700000.0 11309700000.0 11309700000.0 11309700000.0 11309700000.0 11309700000.0 11309700000.0 11309700000.0 11309700000.0 11309700000.0 11309700000.0 11309700000.0 11309700000.0 11309700000.0 11309700000.0 11309700000.0 11309700000.0 11309700000.0 11309700000.0 11309700000.0 11309700000.0 11309700000.0 11309700000.0 11309700000.0 11309700000.0 11309700000.0 11309700000.0 11309700000.0 11309700000.0 11309700000.0 11309700000.0 11309700000.0 11309700000.0 11309700000.0 11309700000.0 11309700000.0 11309700000.0 11309700000.0 11309700000.0 11309700000.0 11309700000.0 11309700000.0 11309700000.0 11309700000.0 11309700000.0 11309700000.0 11309700000.0 11309700000.0 11309700000.0 11309700000.0 11309700000.0 11309700000.0 11309700000.0 11309700000.0 11309700000.0 11309700000.0 11309700000.0 11309700000.0 11309700000.0 11309700000.0 11309700000.0 11309700000.0 11309700000.0 11309700000.0 11309700000.0 11309700000.0 11309700000.0 11309700000.0 11309700000.0 11309700000.0 11309700000.0 11309700000.0 11309700000.0 11309700000.0 11309700000.0 11309700000.0 11309700000.0 11309700000.0 11309700000.0 11309700000.0 11309700000.0 11309700000.0 11309700000.0 11309700000.0 11309700000.0 11309700000.0 11309700000.0 11309700000.0 11309700000.0 11309700000.0 11309700000.0 11309700000.0 11309700000.0 11309700000.0 11309700000.0 11309700000.0 11309700000.0 11309700000.0 11309700000.0 11309700000.0 11309700000.0 11309700000.0 11309700000.0 11309700000.0 11309700000.0 11309700000.0 11309700000.0 11309700000.0 11309700000.0 11309700000.0 11309700000.0 11309700000.0 11309700000.0 11309700000.0 11309700000.0 11309700000.0 11309700000.0 11309700000.0 11309700000.0 11309700000.0 11309700000.0 11309700000.0 11309700000.0 11309700000.0 11309700000.0 11309700000.0 11309700000.0 11309700000.0 11309700000.0 11309700000.0 11309700000.0 11309700000.0 11309700000.0 11309700000.0 11309700000.0 11309700000.0 11309700000.0 11309700000.0 11309700000.0 11309700000.0 11309700000.0 11309700000.0 11309700000.0 11309700000.0 11309700000.0 11309700000.0 11309700000.0 11309700000.0 11309700000.0 11309700000.0 11309700000.0 11309700000.0 11309700000.0 11309700000.0 11309700000.0 11309700000.0 11309700000.0 11309700000.0 11309700000.0 11309700000.0 11309700000.0 11309700000.0 11309700000.0 11309700000.0 11309700000.0 11309700000.0 11309700000.0 11309700000.0 11309700000.0 11309700000.0 11309700000.0 11309700000.0 11309700000.0 11309700000.0 11309700000.0 11309700000.0 11309700000.0 11309700000.0 11309700000.0 11309700000.0 11309700000.0 11309700000.0 11309700000.0 11309700000.0 11309700000.0 11309700000.0 11309700000.0 11309700000.0 11309700000.0 11309700000.0 11309700000.0 11309700000.0 11309700000.0 11309700000.0 11309700000.0 11309700000.0 11309700000.0 11309700000.0 11309700000.0 11309700000.0 11309700000.0 11309700000.0 11309700000.0 11309700000.0 11309700000.0 11309700000.0 11309700000.0 11309700000.0 11309700000.0 11309700000.0 11309700000.0 11309700000.0 11309700000.0 11309700000.0 11309700000.0 11309700000.0 11309700000.0 11309700000.0 11309700000.0 11309700000.0 11309700000.0 11309700000.0 11309700000.0 11309700000.0 11309700000.0 11309700000.0 11309700000.0 11309700000.0 11309700000.0 11309700000.0 11309700000.0 11309700000.0 11309700000.0 11309700000.0 11309700000.0 11309700000.0 11309700000.0 11309700000.0 11309700000.0 11309700000.0 11309700000.0 11309700000.0 11309700000.0 11309700000.0 11309700000.0 11309700000.0 11309700000.0 11309700000.0 11309700000.0 11309700000.0 11309700000.0 11309700000.0 11309700000.0 11309700000.0 11309700000.0 11309700000.0 11309700000.0 11309700000.0 11309700000.0 11309700000.0 11309700000.0 11309700000.0 11309700000.0 11309700000.0 11309700000.0 11309700000.0 11309700000.0 11309700000.0 11309700000.0 11309700000.0 11309700000.0 11309700000.0 11309700000.0 11309700000.0 11309700000.0 11309700000.0 11309700000.0 11309700000.0 11309700000.0 11309700000.0 11309700000.0 11309700000.0 11309700000.0 11309700000.0 11309700000.0 11309700000.0 11309700000.0 11309700000.0 11309700000.0 11309700000.0 11309700000.0 11309700000.0 11309700000.0 11309700000.0 11309700000.0 11309700000.0 11309700000.0 11309700000.0 11309700000.0 11309700000.0 11309700000.0 11309700000.0 11309700000.0 11309700000.0 11309700000.0 11309700000.0 11309700000.0 11309700000.0 11309700000.0 11309700000.0 11309700000.0 11309700000.0 11309700000.0 11309700000.0 11309700000.0 11309700000.0 11309700000.0 11309700000.0 11309700000.0 11309700000.0 11309700000.0 11309700000.0 11309700000.0 11309700000.0 11309700000.0 11309700000.0 11309700000.0 11309700000.0 11309700000.0 11309700000.0 11309700000.0 11309700000.0 11309700000.0 11309700000.0 11309700000.0 11309700000.0 11309700000.0 11309700000.0 11309700000.0 11309700000.0 11309700000.0 11309700000.0 11309700000.0 11309700000.0 11309700000.0 11309700000.0 11309700000.0 11309700000.0 11309700000.0 11309700000.0 11309700000.0 11309700000.0 11309700000.0 11309700000.0 11309700000.0 11309700000.0 11309700000.0 11309700000.0 11309700000.0 11309700000.0 11309700000.0 11309700000.0 11309700000.0 11309700000.0 11309700000.0 11309700000.0 11309700000.0 11309700000.0 11309700000.0 11309700000.0 11309700000.0 11309700000.0 11309700000.0 11309700000.0 11309700000.0 11309700000.0 11309700000.0 11309700000.0 11309700000.0 11309700000.0 11309700000.0 11309700000.0 11309700000.0 11309700000.0 11309700000.0 11309700000.0 11309700000.0 11309700000.0 11309700000.0 11309700000.0 11309700000.0 11309700000.0 11309700000.0 11309700000.0 11309700000.0 11309700000.0 11309700000.0 11309700000.0 11309700000.0 11309700000.0 11309700000.0 11309700000.0 11309700000.0 11309700000.0 11309700000.0 11309700000.0 11309700000.0 11309700000.0 11309700000.0 11309700000.0 11309700000.0 11309700000.0 11309700000.0 11309700000.0 11309700000.0 11309700000.0 11309700000.0 11309700000.0 11309700000.0 11309700000.0 11309700000.0 11309700000.0 11309700000.0 11309700000.0 11309700000.0 11309700000.0 11309700000.0 11309700000.0 11309700000.0 11309700000.0 11309700000.0 11309700000.0 11309700000.0 11309700000.0 11309700000.0 11309700000.0 11309700000.0 11309700000.0 11309700000.0 11309700000.0 11309700000.0 11309700000.0 11309700000.0 11309700000.0 11309700000.0 11309700000.0 11309700000.0 11309700000.0 11309700000.0 11309700000.0 11309700000.0 11309700000.0 11309700000.0 11309700000.0 11309700000.0 11309700000.0 11309700000.0 11309700000.0 11309700000.0 11309700000.0 11309700000.0 11309700000.0 11309700000.0 11309700000.0 11309700000.0 11309700000.0 11309700000.0 11309700000.0 11309700000.0 11309700000.0 11309700000.0 11309700000.0 11309700000.0 11309700000.0 11309700000.0 11309700000.0 11309700000.0 11309700000.0 11309700000.0 11309700000.0 11309700000.0 11309700000.0 11309700000.0 11309700000.0 11309700000.0 11309700000.0 11309700000.0 11309700000.0 11309700000.0 11309700000.0 11309700000.0 11309700000.0 11309700000.0 11309700000.0 11309700000.0 11309700000.0 11309700000.0 11309700000.0 11309700000.0 11309700000.0 11309700000.0 11309700000.0 11309700000.0 11309700000.0 11309700000.0 11309700000.0 11309700000.0 11309700000.0 11309700000.0 11309700000.0 11309700000.0 11309700000.0 11309700000.0 11309700000.0 11309700000.0 11309700000.0 11309700000.0 11309700000.0 11309700000.0 11309700000.0 11309700000.0 11309700000.0 11309700000.0 11309700000.0 11309700000.0 11309700000.0 11309700000.0 11309700000.0 11309700000.0 11309700000.0 11309700000.0 11309700000.0 11309700000.0 11309700000.0 11309700000.0 11309700000.0 11309700000.0 11309700000.0 11309700000.0 11309700000.0 11309700000.0 11309700000.0 11309700000.0 11309700000.0 11309700000.0 11309700000.0 11309700000.0 11309700000.0 11309700000.0 11309700000.0 11309700000.0 11309700000.0 11309700000.0 11309700000.0 11309700000.0 11309700000.0 11309700000.0 11309700000.0 11309700000.0 11309700000.0 11309700000.0 11309700000.0 11309700000.0 11309700000.0 11309700000.0 11309700000.0 11309700000.0 11309700000.0 11309700000.0 11309700000.0 11309700000.0 11309700000.0 11309700000.0 11309700000.0 11309700000.0 11309700000.0 11309700000.0 11309700000.0 11309700000.0 11309700000.0 11309700000.0 11309700000.0 11309700000.0 11309700000.0 11309700000.0 11309700000.0 11309700000.0 11309700000.0 11309700000.0 11309700000.0 11309700000.0 11309700000.0 11309700000.0 11309700000.0 11309700000.0 11309700000.0 11309700000.0 11309700000.0 11309700000.0 11309700000.0 11309700000.0 11309700000.0 11309700000.0 11309700000.0 11309700000.0 11309700000.0 11309700000.0 11309700000.0 11309700000.0 11309700000.0 11309700000.0 11309700000.0 11309700000.0 11309700000.0 11309700000.0 11309700000.0 11309700000.0 11309700000.0 11309700000.0 11309700000.0 11309700000.0 11309700000.0 11309700000.0 11309700000.0 11309700000.0 11309700000.0 11309700000.0 11309700000.0 11309700000.0 11309700000.0 11309700000.0 11309700000.0 11309700000.0 11309700000.0 11309700000.0 11309700000.0 11309700000.0 11309700000.0 11309700000.0 11309700000.0 11309700000.0 11309700000.0 11309700000.0 11309700000.0 11309700000.0 11309700000.0 11309700000.0 11309700000.0 11309700000.0 11309700000.0 11309700000.0 11309700000.0 11309700000.0 11309700000.0 11309700000.0 11309700000.0 11309700000.0 11309700000.0 11309700000.0 11309700000.0 11309700000.0 11309700000.0 11309700000.0 11309700000.0 11309700000.0 11309700000.0 11309700000.0 11309700000.0 11309700000.0 11309700000.0 11309700000.0 11309700000.0 11309700000.0 11309700000.0 11309700000.0 11309700000.0 11309700000.0 11309700000.0 11309700000.0 11309700000.0 11309700000.0 11309700000.0 11309700000.0 11309700000.0 11309700000.0 11309700000.0 11309700000.0 11309700000.0 11309700000.0 11309700000.0 11309700000.0 11309700000.0 11309700000.0 11309700000.0 11309700000.0 11309700000.0 11309700000.0 11309700000.0 11309700000.0 11309700000.0 11309700000.0 11309700000.0 11309700000.0 11309700000.0 11309700000.0 11309700000.0 11309700000.0 11309700000.0 11309700000.0 11309700000.0 11309700000.0 11309700000.0 11309700000.0 11309700000.0 11309700000.0 11309700000.0 11309700000.0 11309700000.0 11309700000.0 11309700000.0 11309700000.0 11309700000.0 11309700000.0 11309700000.0 11309700000.0 11309700000.0 11309700000.0 11309700000.0 11309700000.0 11309700000.0 11309700000.0 11309700000.0 11309700000.0 11309700000.0 11309700000.0 11309700000.0 11309700000.0 11309700000.0 11309700000.0 11309700000.0 11309700000.0 11309700000.0 11309700000.0 11309700000.0 11309700000.0 11309700000.0 11309700000.0 11309700000.0 11309700000.0 11309700000.0 11309700000.0 11309700000.0 11309700000.0 11309700000.0 11309700000.0 11309700000.0 11309700000.0 11309700000.0 11309700000.0 11309700000.0 11309700000.0 11309700000.0 11309700000.0 11309700000.0 11309700000.0 11309700000.0 11309700000.0 11309700000.0 11309700000.0 11309700000.0 11309700000.0 11309700000.0 11309700000.0 11309700000.0 11309700000.0 11309700000.0 11309700000.0 11309700000.0 11309700000.0 11309700000.0 11309700000.0 11309700000.0 11309700000.0 11309700000.0 11309700000.0 11309700000.0 11309700000.0 11309700000.0 11309700000.0 11309700000.0 11309700000.0 11309700000.0 11309700000.0 11309700000.0 11309700000.0 11309700000.0 11309700000.0 11309700000.0 11309700000.0 11309700000.0 11309700000.0 11309700000.0 11309700000.0 11309700000.0 11309700000.0 11309700000.0 11309700000.0 11309700000.0 11309700000.0 11309700000.0 11309700000.0 11309700000.0 11309700000.0 11309700000.0 11309700000.0 11309700000.0 11309700000.0 11309700000.0 11309700000.0 11309700000.0 11309700000.0 11309700000.0 11309700000.0 11309700000.0 11309700000.0 11309700000.0 11309700000.0 11309700000.0 11309700000.0 11309700000.0 11309700000.0 11309700000.0 11309700000.0 11309700000.0 11309700000.0 11309700000.0 11309700000.0 11309700000.0 11309700000.0 11309700000.0 11309700000.0 11309700000.0 11309700000.0 11309700000.0 11309700000.0 11309700000.0 11309700000.0 11309700000.0 11309700000.0 11309700000.0 11309700000.0 11309700000.0 11309700000.0 11309700000.0 11309700000.0 11309700000.0 11309700000.0 11309700000.0 11309700000.0 11309700000.0 11309700000.0 11309700000.0 11309700000.0 11309700000.0 11309700000.0 11309700000.0 11309700000.0 11309700000.0 11309700000.0 11309700000.0 11309700000.0 11309700000.0 11309700000.0 11309700000.0 11309700000.0 11309700000.0 11309700000.0 11309700000.0 11309700000.0 11309700000.0 11309700000.0 11309700000.0 11309700000.0 11309700000.0 11309700000.0 11309700000.0 11309700000.0 11309700000.0 11309700000.0 11309700000.0 11309700000.0 11309700000.0 11309700000.0 11309700000.0 11309700000.0 11309700000.0 11309700000.0 11309700000.0 11309700000.0 11309700000.0 11309700000.0 11309700000.0 11309700000.0 11309700000.0 11309700000.0 11309700000.0 11309700000.0 11309700000.0 11309700000.0 11309700000.0 11309700000.0 11309700000.0 11309700000.0 11309700000.0 11309700000.0 11309700000.0 11309700000.0 11309700000.0 11309700000.0 11309700000.0 11309700000.0 11309700000.0 11309700000.0 11309700000.0 11309700000.0 11309700000.0 11309700000.0 11309700000.0 11309700000.0 11309700000.0 11309700000.0 11309700000.0 11309700000.0 11309700000.0 11309700000.0 11309700000.0 11309700000.0 11309700000.0 11309700000.0 11309700000.0 11309700000.0 11309700000.0 11309700000.0 11309700000.0 11309700000.0 11309700000.0 11309700000.0 11309700000.0 11309700000.0 11309700000.0 11309700000.0 11309700000.0 11309700000.0 11309700000.0 11309700000.0 11309700000.0 11309700000.0 11309700000.0 11309700000.0 11309700000.0 11309700000.0 11309700000.0 11309700000.0 11309700000.0 11309700000.0 11309700000.0 11309700000.0 11309700000.0 11309700000.0 11309700000.0 11309700000.0 11309700000.0 11309700000.0 11309700000.0 11309700000.0 11309700000.0 11309700000.0 11309700000.0 11309700000.0 11309700000.0 11309700000.0 11309700000.0 11309700000.0 11309700000.0 11309700000.0 11309700000.0 11309700000.0 11309700000.0 11309700000.0 11309700000.0 11309700000.0 11309700000.0 11309700000.0 11309700000.0 11309700000.0 11309700000.0 11309700000.0 11309700000.0 11309700000.0 11309700000.0 11309700000.0 11309700000.0 11309700000.0 11309700000.0 11309700000.0 11309700000.0 11309700000.0 11309700000.0 11309700000.0 11309700000.0 11309700000.0 11309700000.0 11309700000.0 11309700000.0 11309700000.0 11309700000.0 11309700000.0 11309700000.0 11309700000.0 11309700000.0 11309700000.0 11309700000.0 11309700000.0 11309700000.0 11309700000.0 11309700000.0 11309700000.0 11309700000.0 11309700000.0 11309700000.0 11309700000.0 11309700000.0 11309700000.0 11309700000.0 11309700000.0 11309700000.0 11309700000.0 11309700000.0 11309700000.0 11309700000.0 11309700000.0 11309700000.0 11309700000.0 11309700000.0 11309700000.0 11309700000.0 11309700000.0 11309700000.0 11309700000.0 11309700000.0 11309700000.0 11309700000.0 11309700000.0 11309700000.0 11309700000.0 11309700000.0 11309700000.0 11309700000.0 11309700000.0 11309700000.0 11309700000.0 11309700000.0 11309700000.0 11309700000.0 11309700000.0 11309700000.0 11309700000.0 11309700000.0 11309700000.0 11309700000.0 11309700000.0 11309700000.0 11309700000.0 11309700000.0 11309700000.0 11309700000.0 11309700000.0 11309700000.0 11309700000.0 11309700000.0 11309700000.0 11309700000.0 11309700000.0 11309700000.0 11309700000.0 11309700000.0 11309700000.0 11309700000.0 11309700000.0 11309700000.0 11309700000.0 11309700000.0 11309700000.0 11309700000.0 11309700000.0 11309700000.0 11309700000.0 11309700000.0 11309700000.0 11309700000.0 11309700000.0 11309700000.0 11309700000.0 11309700000.0 11309700000.0 11309700000.0 11309700000.0 11309700000.0 11309700000.0 11309700000.0 11309700000.0 11309700000.0 11309700000.0 11309700000.0 11309700000.0 11309700000.0 11309700000.0 11309700000.0 11309700000.0 11309700000.0 11309700000.0 11309700000.0 11309700000.0 11309700000.0 11309700000.0 11309700000.0 11309700000.0 11309700000.0 11309700000.0 11309700000.0 11309700000.0 11309700000.0 11309700000.0 11309700000.0 11309700000.0 11309700000.0 11309700000.0 11309700000.0 11309700000.0 11309700000.0 11309700000.0 11309700000.0 11309700000.0 11309700000.0 11309700000.0 11309700000.0 11309700000.0 11309700000.0 11309700000.0 11309700000.0 11309700000.0 11309700000.0 11309700000.0 11309700000.0 11309700000.0 11309700000.0 11309700000.0 11309700000.0 11309700000.0 11309700000.0 11309700000.0 11309700000.0 11309700000.0 11309700000.0 11309700000.0 11309700000.0 11309700000.0 11309700000.0 11309700000.0 11309700000.0 11309700000.0 11309700000.0 11309700000.0 11309700000.0 11309700000.0 11309700000.0 11309700000.0 11309700000.0 11309700000.0 11309700000.0 11309700000.0 11309700000.0 11309700000.0 11309700000.0 11309700000.0 11309700000.0 11309700000.0 11309700000.0 11309700000.0 11309700000.0 11309700000.0 11309700000.0 11309700000.0 11309700000.0 11309700000.0 11309700000.0 11309700000.0 11309700000.0 11309700000.0 11309700000.0 11309700000.0 11309700000.0 11309700000.0 11309700000.0 11309700000.0 11309700000.0 11309700000.0 11309700000.0 11309700000.0 11309700000.0 11309700000.0 11309700000.0 11309700000.0 11309700000.0 11309700000.0 11309700000.0 11309700000.0 11309700000.0 11309700000.0 11309700000.0 11309700000.0 11309700000.0 11309700000.0 11309700000.0 11309700000.0 11309700000.0 11309700000.0 11309700000.0 11309700000.0 11309700000.0 11309700000.0 11309700000.0 11309700000.0 11309700000.0 11309700000.0 11309700000.0 11309700000.0 11309700000.0 11309700000.0 11309700000.0 11309700000.0 11309700000.0 11309700000.0 11309700000.0 11309700000.0 11309700000.0 11309700000.0 11309700000.0 11309700000.0 11309700000.0 11309700000.0 11309700000.0 11309700000.0 11309700000.0 11309700000.0 11309700000.0 11309700000.0 11309700000.0 11309700000.0 11309700000.0 11309700000.0 11309700000.0 11309700000.0 11309700000.0 11309700000.0 11309700000.0 11309700000.0 11309700000.0 11309700000.0 11309700000.0 11309700000.0 11309700000.0 11309700000.0 11309700000.0 11309700000.0 11309700000.0 11309700000.0 11309700000.0 11309700000.0 11309700000.0 11309700000.0 11309700000.0 11309700000.0 11309700000.0 11309700000.0 11309700000.0 11309700000.0 11309700000.0 11309700000.0 11309700000.0 11309700000.0 11309700000.0 11309700000.0 11309700000.0 11309700000.0 11309700000.0 11309700000.0 11309700000.0 11309700000.0 11309700000.0 11309700000.0 11309700000.0 11309700000.0 11309700000.0 11309700000.0 11309700000.0 11309700000.0 11309700000.0 11309700000.0 11309700000.0 11309700000.0 11309700000.0 11309700000.0 11309700000.0 11309700000.0 11309700000.0 11309700000.0 11309700000.0 11309700000.0 11309700000.0 11309700000.0 11309700000.0 11309700000.0 11309700000.0 11309700000.0 11309700000.0 11309700000.0 11309700000.0 11309700000.0 11309700000.0 11309700000.0 11309700000.0 11309700000.0 11309700000.0 11309700000.0 11309700000.0 11309700000.0 11309700000.0 11309700000.0 11309700000.0 11309700000.0 11309700000.0 11309700000.0 11309700000.0 11309700000.0 11309700000.0 11309700000.0 11309700000.0 11309700000.0 11309700000.0 11309700000.0 11309700000.0 11309700000.0 11309700000.0 11309700000.0 11309700000.0 11309700000.0 11309700000.0 11309700000.0 11309700000.0 11309700000.0 11309700000.0 11309700000.0 11309700000.0 11309700000.0 11309700000.0 11309700000.0 11309700000.0 11309700000.0 11309700000.0 11309700000.0 11309700000.0 11309700000.0 11309700000.0 11309700000.0 11309700000.0 11309700000.0 11309700000.0 11309700000.0 11309700000.0 11309700000.0 11309700000.0 11309700000.0 11309700000.0 11309700000.0 11309700000.0 11309700000.0 11309700000.0 11309700000.0 11309700000.0 11309700000.0 11309700000.0 11309700000.0 11309700000.0 11309700000.0 11309700000.0 11309700000.0 11309700000.0 11309700000.0 11309700000.0 11309700000.0 11309700000.0 11309700000.0 11309700000.0 11309700000.0 11309700000.0 11309700000.0 11309700000.0 11309700000.0 11309700000.0 11309700000.0 11309700000.0 11309700000.0 11309700000.0 11309700000.0 11309700000.0 11309700000.0 11309700000.0 11309700000.0 11309700000.0 11309700000.0 11309700000.0 11309700000.0 11309700000.0 11309700000.0 11309700000.0 11309700000.0 11309700000.0 11309700000.0 11309700000.0 11309700000.0 11309700000.0 11309700000.0 11309700000.0 11309700000.0 11309700000.0 11309700000.0 11309700000.0 11309700000.0 11309700000.0 11309700000.0 11309700000.0 11309700000.0 11309700000.0 11309700000.0 11309700000.0 11309700000.0 11309700000.0 11309700000.0 11309700000.0 11309700000.0 11309700000.0 11309700000.0 11309700000.0 11309700000.0 11309700000.0 11309700000.0 11309700000.0 11309700000.0 11309700000.0 11309700000.0 11309700000.0 11309700000.0 11309700000.0 11309700000.0 11309700000.0 
SCALARS Velocity float 1
LOOKUP_TABLE default
1.01962 1.42832 1.42832 1.01962 0.702553 1.31171 1.32197 0.899111 1.09102 1.09102 0.899111 1.32197 1.31171 0.702553 0.72464 0.825595 1.61245 0.586784 0.874023 0.998729 1.09173 1.0353 0.836084 1.05058 0.884861 0.948473 0.893083 0.902467 0.893699 0.900601 0.893666 0.90101 0.893633 0.90101 0.893666 0.900601 0.893699 0.902467 0.893083 0.948473 0.884861 1.05058 0.836084 1.0353 1.09173 0.998729 0.874023 0.586784 1.61245 0.825595 0.72464 0.841174 0.847875 0.885193 1.27623 0.906003 1.00267 1.02522 1.095 1.09379 1.03879 0.791767 1.04921 0.875221 0.952892 0.891489 0.903037 0.893112 0.900945 0.89285 0.901325 0.892704 0.901325 0.89285 0.900945 0.893112 0.903037 0.891489 0.952892 0.875221 1.04921 0.791767 1.03879 1.09379 1.095 1.02522 1.00267 0.906003 1.27623 0.885193 0.847875 0.841174 0.78798 0.880002 1.02205 1.56559 1.63857 0.637683 0.914895 1.10972 1.10972 0.914895 0.637683 1.63857 1.56559 1.02205 0.880002 0.78798 0.730429 0.822493 0.890487 0.820654 1.61668 1.00559 0.969816 0.924297 1.06548 1.00575 0.88332 1.04791 0.818021 0.962083 0.882777 0.904763 0.89006 0.90182 0.88944 0.901992 0.88932 0.901992 0.88944 0.90182 0.89006 0.904763 0.882777 0.962083 0.818021 1.04791 0.88332 1.00575 1.06548 0.924297 0.969816 1.00559 1.61668 0.820654 0.890487 0.822493 0.730429 0.636079 0.680564 0.703686 0.761338 0.815032 0.720375 1.70745 1.08159 0.996347 0.973468 1.09057 0.986002 0.950452 1.04638 0.834384 0.976967 0.882554 0.907733 0.889216 0.903056 0.887598 0.902904 0.887108 0.902904 0.887598 0.903056 0.889216 0.907733 0.882554 0.976967 0.834384 1.04638 0.950452 0.986002 1.09057 0.973468 0.996347 1.08159 1.70745 0.720375 0.815032 0.761338 0.703686 0.680564 0.636079 0.603119 0.654548 0.765717 0.712925 0.534135 1.1908 1.05775 0.975616 1.01542 0.988475 1.06051 1.06051 0.988475 1.01542 0.975616 1.05775 1.1908 0.534135 0.712925 0.765717 0.654548 0.603119 0.581232 0.613292 0.624217 0.671977 0.723224 0.706651 0.563713 0.444178 1.34131 1.10373 0.99682 0.988928 1.00044 0.80407 0.941792 0.957689 1.04756 0.820114 0.992848 0.87996 0.908702 0.887782 0.903787 0.887178 0.904169 0.887233 0.904169 0.887178 0.903787 0.887782 0.908702 0.87996 0.992848 0.820114 1.04756 0.957689 0.941792 0.80407 1.00044 0.988928 0.99682 1.10373 1.34131 0.444178 0.563713 0.706651 0.723224 0.671977 0.624217 0.613292 0.581232 0.551941 0.560595 0.567517 0.58172 0.589988 0.645715 0.687227 0.632968 0.524726 1.22558 1.03286 0.986657 0.984751 0.993623 0.802008 0.821124 0.857818 1.07018 0.661808 1.01696 0.857055 0.912768 0.881218 0.905729 0.880157 0.906 0.880304 0.906 0.880157 0.905729 0.881218 0.912768 0.857055 1.01696 0.661808 1.07018 0.857818 0.821124 0.802008 0.993623 0.984751 0.986657 1.03286 1.22558 0.524726 0.632968 0.687227 0.645715 0.589988 0.58172 0.567517 0.560595 0.551941 0.541598 0.555851 0.57 0.605431 0.643784 0.670451 0.611912 0.459274 1.06654 0.986032 0.989533 0.796792 0.815229 0.815229 0.796792 0.989533 0.986032 1.06654 0.459274 0.611912 0.670451 0.643784 0.605431 0.57 0.555851 0.541598 0.524195 0.548349 0.560429 0.562819 0.573754 0.593191 0.684707 0.685137 0.555312 0.543887 1.12519 0.98251 0.974462 0.796781 0.811293 0.832845 0.842943 0.876723 0.908736 0.383358 1.04662 0.823969 0.921079 0.875462 0.910152 0.8767 0.908095 0.878462 0.908095 0.8767 0.910152 0.875462 0.921079 0.823969 1.04662 0.383358 0.908736 0.876723 0.842943 0.832845 0.811293 0.796781 0.974462 0.98251 1.12519 0.543887 0.555312 0.685137 0.684707 0.593191 0.573754 0.562819 0.560429 0.548349 0.524195 0.496565 0.518074 0.540192 0.553876 0.556068 0.557888 0.578081 0.594916 0.65835 0.712303 0.64873 0.640722 1.0303 0.937422 0.803442 0.803915 0.806939 0.823663 0.859665 0.895351 0.40359 1.06342 0.816279 0.922896 0.872532 0.910694 0.876603 0.909425 0.878637 0.909425 0.876603 0.910694 0.872532 0.922896 0.816279 1.06342 0.40359 0.895351 0.859665 0.823663 0.806939 0.803915 0.803442 0.937422 1.0303 0.640722 0.64873 0.712303 0.65835 0.594916 0.578081 0.557888 0.556068 0.553876 0.540192 0.518074 0.496565 0.451473 0.47466 0.545789 0.560036 0.57316 0.59192 0.673093 0.728595 0.702168 0.855045 0.898345 0.89477 0.827335 0.799987 0.815249 0.847103 0.888661 0.888661 0.847103 0.815249 0.799987 0.827335 0.89477 0.898345 0.855045 0.702168 0.728595 0.673093 0.59192 0.57316 0.560036 0.545789 0.47466 0.451473 0.407078 0.437536 0.465842 0.488887 0.521484 0.569346 0.572439 0.562027 0.604949 0.612296 0.755073 0.774997 0.782552 0.682858 0.828148 0.810925 0.807309 0.834414 0.872192 0.892586 0.903791 0.433808 1.0832 0.798362 0.926203 0.872869 0.911653 0.876762 0.910285 0.879012 0.910285 0.876762 0.911653 0.872869 0.926203 0.798362 1.0832 0.433808 0.903791 0.892586 0.872192 0.834414 0.807309 0.810925 0.828148 0.682858 0.782552 0.774997 0.755073 0.612296 0.604949 0.562027 0.572439 0.569346 0.521484 0.488887 0.465842 0.437536 0.407078 0.360038 0.360078 0.372525 0.488166 0.571265 0.573187 0.665285 0.686711 0.876445 0.686264 0.753721 0.737981 0.593298 0.984 0.800419 0.811722 0.824231 0.84302 0.856247 0.877869 0.903866 0.903866 0.877869 0.856247 0.84302 0.824231 0.811722 0.800419 0.984 0.593298 0.737981 0.753721 0.686264 0.876445 0.686711 0.665285 0.573187 0.571265 0.488166 0.372525 0.360078 0.360038 0.356673 0.360907 0.401173 0.448587 0.45317 0.526589 0.588266 0.583236 0.541763 0.577805 0.683532 0.60721 0.897339 0.754134 0.748089 1.12267 0.870127 0.838815 0.835369 0.861407 0.898912 0.493775 1.09742 0.811736 0.927943 0.873079 0.912374 0.877332 0.910905 0.879501 0.910905 0.877332 0.912374 0.873079 0.927943 0.811736 1.09742 0.493775 0.898912 0.861407 0.835369 0.838815 0.870127 1.12267 0.748089 0.754134 0.897339 0.60721 0.683532 0.577805 0.541763 0.583236 0.588266 0.526589 0.45317 0.448587 0.401173 0.360907 0.356673 0.380237 0.346563 0.375793 0.368993 0.380216 0.404586 0.480631 0.579036 0.481633 0.619891 0.657679 0.476023 0.744731 0.62296 0.760889 0.886039 0.828102 0.847055 0.884283 0.911642 0.903706 0.51737 1.10638 0.813755 0.929338 0.873943 0.912897 0.878314 0.911331 0.880285 0.911331 0.878314 0.912897 0.873943 0.929338 0.813755 1.10638 0.51737 0.903706 0.911642 0.884283 0.847055 0.828102 0.886039 0.760889 0.62296 0.744731 0.476023 0.657679 0.619891 0.481633 0.579036 0.480631 0.404586 0.380216 0.368993 0.375793 0.346563 0.380237 0.400757 0.367465 0.348594 0.355457 0.376345 0.415665 0.571244 0.233953 0.625839 0.303427 0.557334 0.980669 1.12632 0.807955 0.774434 0.744244 0.716403 0.852362 0.841839 0.836505 0.830052 0.8659 0.765915 0.765915 0.8659 0.830052 0.836505 0.841839 0.852362 0.716403 0.744244 0.774434 0.807955 1.12632 0.980669 0.557334 0.303427 0.625839 0.233953 0.571244 0.415665 0.376345 0.355457 0.348594 0.367465 0.400757 0.435805 0.394787 0.35324 0.377652 0.394874 0.376597 0.468034 0.547018 0.461028 0.625804 0.83082 0.495966 0.695964 0.756732 0.766292 0.837147 0.87374 0.848811 0.918247 0.842818 0.82729 0.910451 0.891046 0.549235 1.11169 0.818981 0.930552 0.875782 0.913372 0.879757 0.911573 0.881519 0.911573 0.879757 0.913372 0.875782 0.930552 0.818981 1.11169 0.549235 0.891046 0.910451 0.82729 0.842818 0.918247 0.848811 0.87374 0.837147 0.766292 0.756732 0.695964 0.495966 0.83082 0.625804 0.461028 0.547018 0.468034 0.376597 0.394874 0.377652 0.35324 0.394787 0.435805 0.46531 0.421642 0.337612 0.39807 0.405414 0.39765 0.429495 0.395879 0.523028 0.532664 0.405471 0.682668 0.45085 0.578148 0.680361 0.784318 0.757842 0.847918 0.892159 0.902234 0.756868 0.894613 0.830689 0.578599 1.09074 0.826878 0.929187 0.877918 0.9089 0.881699 0.906251 0.883299 0.906251 0.881699 0.9089 0.877918 0.929187 0.826878 1.09074 0.578599 0.830689 0.894613 0.756868 0.902234 0.892159 0.847918 0.757842 0.784318 0.680361 0.578148 0.45085 0.682668 0.405471 0.532664 0.523028 0.395879 0.429495 0.39765 0.405414 0.39807 0.337612 0.421642 0.46531 0.342706 0.0947049 0.20036 0.342055 0.298782 0.347732 0.455531 0.426431 0.399625 0.489157 0.325818 0.446338 0.615929 0.503517 0.590425 0.703665 0.630775 0.646686 0.764732 0.828825 0.85891 0.835239 0.831671 0.831671 0.835239 0.85891 0.828825 0.764732 0.646686 0.630775 0.703665 0.590425 0.503517 0.615929 0.446338 0.325818 0.489157 0.399625 0.426431 0.455531 0.347732 0.298782 0.342055 0.20036 0.094705 0.342706 0.183306 0.134414 0.379713 0.385332 0.34571 0.444844 0.395293 0.350664 0.471498 0.565246 0.572672 0.601908 0.642502 0.640528 0.628148 0.58696 0.660658 0.753401 0.846744 0.839995 0.876062 0.88718 0.835549 0.898546 0.819448 0.944434 0.862263 0.826525 0.620899 0.958517 0.836996 0.904256 0.880457 0.898584 0.883943 0.898049 0.885209 0.898049 0.883943 0.898584 0.880457 0.904256 0.836996 0.958517 0.620899 0.826525 0.862263 0.944434 0.819448 0.898546 0.835549 0.88718 0.876062 0.839995 0.846744 0.753401 0.660658 0.58696 0.628148 0.640528 0.642502 0.601908 0.572672 0.565246 0.471498 0.350664 0.395293 0.444844 0.34571 0.385332 0.379713 0.134414 0.183306 0.415639 0.302194 0.271346 0.609645 0.286676 0.379631 0.417134 0.387895 0.583607 0.61089 0.631382 0.636713 0.646273 0.590695 0.639852 0.751396 0.866353 0.902423 0.893545 0.927312 0.811243 0.781991 0.656254 0.954263 0.840101 0.902773 0.880329 0.897747 0.885212 0.898035 0.886681 0.898035 0.885212 0.897747 0.880329 0.902773 0.840101 0.954263 0.656254 0.781991 0.811243 0.927312 0.893545 0.902423 0.866353 0.751396 0.639852 0.590695 0.646273 0.636713 0.631382 0.61089 0.583607 0.387895 0.417134 0.379631 0.286676 0.609645 0.271346 0.302194 0.415639 0.217702 0.343857 0.320462 0.519504 0.324431 0.286836 0.50437 0.526978 0.567707 0.645651 0.661498 0.671981 0.684029 0.689998 0.884886 0.901227 0.827647 0.80184 0.80184 0.827647 0.901227 0.884886 0.689998 0.684029 0.671981 0.661498 0.645651 0.567707 0.526978 0.50437 0.286836 0.324431 0.519504 0.320462 0.343857 0.217702 0.424893 0.356727 0.0718609 0.534314 0.334893 0.400668 0.896106 0.640944 0.609489 0.59567 0.604801 0.624651 0.633012 0.69631 0.689157 0.732478 0.789087 0.882952 0.910971 0.903812 0.842769 0.888521 0.80933 0.899496 0.785888 0.945366 0.695051 0.919964 0.843444 0.893833 0.880968 0.893835 0.886651 0.896053 0.888023 0.896053 0.886651 0.893835 0.880968 0.893833 0.843444 0.919964 0.695051 0.945366 0.785888 0.899496 0.80933 0.888521 0.842769 0.903812 0.910971 0.882952 0.789087 0.732478 0.689157 0.69631 0.633012 0.624651 0.604801 0.59567 0.609489 0.640944 0.896106 0.400668 0.334893 0.534314 0.0718609 0.356727 0.424893 0.471007 0.357377 0.325551 0.797717 0.247167 0.913186 0.667049 0.612067 0.597148 0.602087 0.613463 0.640668 0.647265 0.665511 0.681607 0.760666 0.908305 0.879425 0.872665 0.785836 0.865453 0.748063 0.915838 0.73775 0.92965 0.878419 0.896591 0.893091 0.896273 0.888046 0.896286 0.88898 0.896286 0.888046 0.896273 0.893091 0.896591 0.878419 0.92965 0.73775 0.915838 0.748063 0.865453 0.785836 0.872665 0.879425 0.908305 0.760666 0.681607 0.665511 0.647265 0.640668 0.613463 0.602087 0.597148 0.612067 0.667049 0.913186 0.247167 0.797717 0.325551 0.357377 0.471007 0.517007 0.49151 0.460704 0.53898 0.892884 0.908104 0.737635 0.617933 0.594557 0.571276 0.637031 0.663556 0.677218 0.693095 0.717678 0.72913 0.745825 0.804539 0.784317 0.827482 0.827482 0.784317 0.804539 0.745825 0.72913 0.717678 0.693095 0.677218 0.663556 0.637031 0.571276 0.594557 0.617933 0.737635 0.908104 0.892884 0.53898 0.460704 0.49151 0.517007 0.601004 0.58615 0.593578 1.04421 0.498072 0.70684 0.64248 0.669601 0.68925 0.706309 0.728559 0.751221 0.75899 0.814407 0.827063 0.884686 0.810057 0.895436 0.824829 0.875873 0.793447 0.857262 0.727306 0.939385 0.776332 0.893832 0.893832 0.893832 0.893832 0.893833 0.889407 0.894377 0.889945 0.894377 0.889407 0.893833 0.893832 0.893832 0.893832 0.893832 0.776332 0.939385 0.727306 0.857262 0.793447 0.875873 0.824829 0.895436 0.810057 0.884686 0.827063 0.814407 0.75899 0.751221 0.728559 0.706309 0.68925 0.669601 0.64248 0.70684 0.498072 1.04421 0.593578 0.58615 0.601004 0.624306 0.463353 0.679758 0.621381 0.604639 0.544887 0.606461 0.818906 0.874082 0.854012 0.809924 0.839413 0.761218 0.92945 0.699226 0.926941 0.802852 0.901107 0.893735 0.894057 0.89395 0.894187 0.89038 0.894377 0.890678 0.894377 0.89038 0.894187 0.89395 0.894057 0.893735 0.901107 0.802852 0.926941 0.699226 0.92945 0.761218 0.839413 0.809924 0.854012 0.874082 0.818906 0.606461 0.544887 0.604639 0.621381 0.679758 0.463353 0.624306 0.855952 0.90357 0.475015 0.573526 0.802779 0.930568 0.46083 0.751443 0.687625 0.64502 0.572786 0.623594 0.756842 0.765439 0.774468 0.793223 0.796945 0.773039 0.83411 0.818085 0.818085 0.83411 0.773039 0.796945 0.793223 0.774468 0.765439 0.756842 0.623594 0.572786 0.64502 0.687625 0.751443 0.46083 0.930568 0.802779 0.573526 0.475015 0.90357 0.855952 0.751771 0.70172 0.839514 0.54371 0.684953 0.675034 0.886983 0.784005 0.599211 0.614764 0.717977 0.749011 0.756 0.771286 0.799167 0.790038 0.783343 0.807808 0.865301 0.818776 0.871049 0.787661 0.876932 0.793411 0.932464 0.764834 0.913895 0.826052 0.893832 0.893832 0.893832 0.893832 0.893832 0.891314 0.894016 0.891286 0.894016 0.891314 0.893832 0.893832 0.893832 0.893832 0.893832 0.826052 0.913895 0.764834 0.932464 0.793411 0.876932 0.787661 0.871049 0.818776 0.865301 0.807808 0.783343 0.790038 0.799167 0.771286 0.756 0.749011 0.717977 0.614764 0.599211 0.784005 0.886983 0.675034 0.684953 0.54371 0.839514 0.70172 0.751771 0.743297 0.705409 0.686197 0.836864 0.843314 0.79618 0.82731 0.903298 0.925521 0.836806 0.976988 0.79685 0.924875 0.850829 0.897381 0.894269 0.894232 0.894119 0.894026 0.891739 0.89417 0.891749 0.89417 0.891739 0.894026 0.894119 0.894232 0.894269 0.897381 0.850829 0.924875 0.79685 0.976988 0.836806 0.925521 0.903298 0.82731 0.79618 0.843314 0.836864 0.686197 0.705409 0.743297 0.807155 0.669532 0.721983 0.650099 0.754081 0.70979 0.760385 0.700797 0.634944 0.643055 0.665863 0.72567 0.755472 0.758679 0.777678 0.853743 0.835875 0.843093 0.843093 0.835875 0.853743 0.777678 0.758679 0.755472 0.72567 0.665863 0.643055 0.634944 0.700797 0.760385 0.70979 0.754081 0.650099 0.721983 0.669532 0.807155 0.828232 0.752091 0.918964 0.807338 0.809372 0.778676 0.77061 0.778617 0.757484 0.650848 0.637311 0.663222 0.696029 0.735357 0.766408 0.810678 0.848772 0.849517 0.903175 0.870426 0.904644 0.860677 0.902677 0.880249 0.902145 0.86534 0.901331 0.823889 0.895977 0.869031 0.893832 0.893832 0.893832 0.893832 0.893832 0.893832 0.893845 0.892169 0.893845 0.893832 0.893832 0.893832 0.893832 0.893832 0.893832 0.869031 0.895977 0.823889 0.901331 0.86534 0.902145 0.880249 0.902677 0.860677 0.904644 0.870426 0.903175 0.849517 0.848772 0.810678 0.766408 0.735357 0.696029 0.663222 0.637311 0.650848 0.757484 0.778617 0.77061 0.778676 0.809372 0.807338 0.918964 0.752091 0.828232 0.885772 0.894997 0.89428 0.854885 0.906974 0.761895 0.77045 0.806735 0.845403 0.757731 0.764983 0.778048 0.804855 0.835955 0.858211 0.895776 0.918068 0.885232 0.942405 0.898734 0.933267 0.883444 0.923713 0.895705 0.916659 0.874682 0.90774 0.831499 0.898129 0.878249 0.894148 0.894008 0.893943 0.893898 0.893867 0.893847 0.893858 0.892502 0.893858 0.893847 0.893867 0.893898 0.893943 0.894008 0.894148 0.878249 0.898129 0.831499 0.90774 0.874682 0.916659 0.895705 0.923713 0.883444 0.933267 0.898734 0.942405 0.885232 0.918068 0.895776 0.858211 0.835955 0.804855 0.778048 0.764983 0.757731 0.845403 0.806735 0.77045 0.761895 0.906974 0.854885 0.89428 0.894997 0.885772 0.902252 0.901711 0.903458 0.883758 0.914447 0.82597 0.808067 0.859653 0.933546 0.87656 0.888241 0.896133 0.906237 0.895615 0.89185 0.90105 0.897703 0.894121 0.895419 0.899728 0.895366 0.886509 0.894954 0.893181 0.894552 0.875863 0.894091 0.837081 0.893833 0.885549 0.893832 0.893832 0.893832 0.893832 0.893832 0.893832 0.893832 0.892776 0.893832 0.893832 0.893832 0.893832 0.893832 0.893832 0.893832 0.885549 0.893833 0.837081 0.894091 0.875863 0.894552 0.893181 0.894954 0.886509 0.895366 0.899728 0.895419 0.894121 0.897703 0.90105 0.89185 0.895615 0.906237 0.896133 0.888241 0.87656 0.933546 0.859653 0.808067 0.82597 0.914447 0.883758 0.903458 0.901711 0.902252 0.897638 0.901661 0.901286 0.889218 0.898122 0.83903 0.828162 0.900414 0.920637 0.887945 0.903869 0.911946 0.918204 0.899327 0.891891 0.902852 0.899138 0.896003 0.896765 0.897419 0.896251 0.887066 0.895488 0.889126 0.894775 0.876598 0.894185 0.843566 0.893848 0.891871 0.893832 0.893832 0.893832 0.893832 0.893832 0.893832 0.893832 0.892996 0.893832 0.893832 0.893832 0.893832 0.893832 0.893832 0.893832 0.891871 0.893848 0.843566 0.894185 0.876598 0.894775 0.889126 0.895488 0.887066 0.896251 0.897419 0.896765 0.896003 0.899138 0.902852 0.891891 0.899327 0.918204 0.911946 0.903869 0.887945 0.920637 0.900414 0.828162 0.83903 0.898122 0.889218 0.901286 0.901661 0.897638 0.893131 0.901181 0.90121 0.889235 0.898285 0.878427 0.840158 0.918705 0.920805 0.880169 0.897341 0.905908 0.910308 0.894977 0.888746 0.902043 0.898449 0.896091 0.893893 0.894821 0.893832 0.887117 0.893832 0.88618 0.893832 0.87685 0.893832 0.850539 0.893832 0.893604 0.893832 0.893832 0.893832 0.893832 0.893832 0.893832 0.893832 0.893172 0.893832 0.893832 0.893832 0.893832 0.893832 0.893832 0.893832 0.893604 0.893832 0.850539 0.893832 0.87685 0.893832 0.88618 0.893832 0.887117 0.893832 0.894821 0.893893 0.896091 0.898449 0.902043 0.888746 0.894977 0.910308 0.905908 0.897341 0.880169 0.920805 0.918705 0.840158 0.878427 0.898285 0.889235 0.90121 0.901181 0.893131 0.88923 0.900468 0.900631 0.88791 0.898046 0.895237 0.852018 0.918118 0.918896 0.872781 0.88923 0.897742 0.901837 0.89079 0.886805 0.90084 0.897613 0.896019 0.893904 0.892831 0.893832 0.88722 0.893832 0.884382 0.893832 0.876743 0.893832 0.857553 0.893832 0.893817 0.893832 0.893832 0.893832 0.893832 0.893832 0.893832 0.893832 0.893312 0.893832 0.893832 0.893832 0.893832 0.893832 0.893832 0.893832 0.893817 0.893832 0.857553 0.893832 0.876743 0.893832 0.884382 0.893832 0.88722 0.893832 0.892831 0.893904 0.896019 0.897613 0.90084 0.886805 0.89079 0.901837 0.897742 0.88923 0.872781 0.918896 0.918118 0.852018 0.895237 0.898046 0.88791 0.900631 0.900468 0.88923 0.886555 0.899722 0.899875 0.886713 0.897744 0.897607 0.863732 0.91161 0.916095 0.867784 0.882583 0.891099 0.89476 0.887809 0.885907 0.899442 0.896642 0.895764 0.893832 0.891342 0.893832 0.887287 0.893832 0.883358 0.893832 0.876665 0.893832 0.864173 0.893832 0.893832 0.893832 0.893832 0.893832 0.893832 0.893832 0.893832 0.893832 0.893423 0.893832 0.893832 0.893832 0.893832 0.893832 0.893832 0.893832 0.893832 0.893832 0.864173 0.893832 0.876665 0.893832 0.883358 0.893832 0.887287 0.893832 0.891342 0.893832 0.895764 0.896642 0.899442 0.885907 0.887809 0.89476 0.891099 0.882583 0.867784 0.916095 0.91161 0.863732 0.897607 0.897744 0.886713 0.899875 0.899722 0.886555 0.885174 0.898949 0.899077 0.885854 0.897389 0.897542 0.872875 0.904752 0.912705 0.864916 0.877757 0.886137 0.889316 0.885939 0.885693 0.897959 0.895651 0.895406 0.893832 0.890289 0.893832 0.887302 0.893832 0.882941 0.893832 0.876876 0.893832 0.870153 0.893832 0.893832 0.893832 0.893832 0.893832 0.893832 0.893832 0.893832 0.893832 0.893511 0.893832 0.893832 0.893832 0.893832 0.893832 0.893832 0.893832 0.893832 0.893832 0.870153 0.893832 0.876876 0.893832 0.882941 0.893832 0.887302 0.893832 0.890289 0.893832 0.895406 0.895651 0.897959 0.885693 0.885939 0.889316 0.886137 0.877757 0.864916 0.912705 0.904752 0.872875 0.897542 0.897389 0.885854 0.899077 0.898949 0.885174 0.884887 0.898162 0.898283 0.885301 0.896987 0.897252 0.879164 0.898918 0.908991 0.863703 0.874618 0.882688 0.88544 0.884942 0.885884 0.896489 0.89471 0.894986 0.893832 0.8896 0.893832 0.887281 0.893832 0.882955 0.893832 0.87747 0.893832 0.875347 0.893832 0.893832 0.893832 0.893832 0.893832 0.893832 0.893832 0.893832 0.893832 0.89358 0.893832 0.893832 0.893832 0.893832 0.893832 0.893832 0.893832 0.893832 0.893832 0.875347 0.893832 0.87747 0.893832 0.882955 0.893832 0.887281 0.893832 0.8896 0.893832 0.894986 0.89471 0.896489 0.885884 0.884942 0.88544 0.882688 0.874618 0.863703 0.908991 0.898918 0.879164 0.897252 0.896987 0.885301 0.898283 0.898162 0.884887 0.885388 0.897382 0.897506 0.885037 0.896553 0.896927 0.882995 0.89455 0.905159 0.863699 0.872891 0.880527 0.882943 0.884596 0.886294 0.895138 0.893859 0.894541 0.893832 0.889195 0.893832 0.887267 0.893832 0.883246 0.893832 0.87841 0.893832 0.879697 0.893832 0.893832 0.893832 0.893832 0.893832 0.893832 0.893832 0.893832 0.893832 0.893635 0.893832 0.893832 0.893832 0.893832 0.893832 0.893832 0.893832 0.893832 0.893832 0.879697 0.893832 0.87841 0.893832 0.883246 0.893832 0.887267 0.893832 0.889195 0.893832 0.894541 0.893859 0.895138 0.886294 0.884596 0.882943 0.880527 0.872891 0.863699 0.905159 0.89455 0.882995 0.896927 0.896553 0.885037 0.897506 0.897382 0.885388 0.886358 0.896628 0.896755 0.885059 0.896101 0.896583 0.884659 0.891559 0.901389 0.864595 0.872283 0.879422 0.881577 0.884706 0.886801 0.893986 0.893146 0.894101 0.893832 0.888999 0.893832 0.887305 0.893832 0.88371 0.893832 0.8796 0.893832 0.883224 0.893832 0.893832 0.893832 0.893832 0.893832 0.893832 0.893832 0.893832 0.893832 0.893677 0.893832 0.893832 0.893832 0.893832 0.893832 0.893832 0.893832 0.893832 0.893832 0.883224 0.893832 0.8796 0.893832 0.88371 0.893832 0.887305 0.893832 0.888999 0.893832 0.894101 0.893146 0.893986 0.886801 0.884706 0.881577 0.879422 0.872283 0.864595 0.901389 0.891559 0.884659 0.896583 0.896101 0.885059 0.896755 0.896628 0.886358 0.887525 0.895917 0.896044 0.885327 0.895645 0.896226 0.884981 0.889599 0.897854 0.866153 0.872541 0.87915 0.881087 0.885109 0.887336 0.893069 0.892613 0.893691 0.893832 0.888956 0.893832 0.88741 0.893832 0.884283 0.893832 0.880942 0.893832 0.886008 0.893832 0.893832 0.893832 0.893832 0.893832 0.893832 0.893832 0.893832 0.893832 0.893711 0.893832 0.893832 0.893832 0.893832 0.893832 0.893832 0.893832 0.893832 0.893832 0.886008 0.893832 0.880942 0.893832 0.884283 0.893832 0.88741 0.893832 0.888956 0.893832 0.893691 0.892613 0.893069 0.887336 0.885109 0.881087 0.87915 0.872541 0.866153 0.897854 0.889599 0.884981 0.896226 0.895645 0.885327 0.896044 0.895917 0.887525 0.888687 0.895262 0.895382 0.885776 0.895196 0.895862 0.884904 0.888352 0.894693 0.86815 0.87343 0.879493 0.881242 0.885682 0.88786 0.892385 0.892266 0.893325 0.893832 0.88902 0.893832 0.887579 0.893832 0.884921 0.893832 0.882349 0.893832 0.888152 0.893832 0.893832 0.893832 0.893832 0.893832 0.893832 0.893832 0.893832 0.893832 0.893737 0.893832 0.893832 0.893832 0.893832 0.893832 0.893832 0.893832 0.893832 0.893832 0.888152 0.893832 0.882349 0.893832 0.884921 0.893832 0.887579 0.893832 0.88902 0.893832 0.893325 0.892266 0.892385 0.88786 0.885682 0.881242 0.879493 0.87343 0.86815 0.894693 0.888352 0.884904 0.895862 0.895196 0.885776 0.895382 0.895262 0.888687 0.889716 0.894673 0.89478 0.886344 0.894766 0.895499 0.884964 0.887597 0.891983 0.870384 0.874732 0.880253 0.881833 0.886336 0.888355 0.891909 0.89208 0.89301 0.893832 0.88916 0.893832 0.887806 0.893832 0.885594 0.893832 0.883756 0.893832 0.88977 0.893832 0.893832 0.893832 0.893832 0.893832 0.893832 0.893832 0.893832 0.893832 0.893757 0.893832 0.893832 0.893832 0.893832 0.893832 0.893832 0.893832 0.893832 0.893832 0.88977 0.893832 0.883756 0.893832 0.885594 0.893832 0.887806 0.893832 0.88916 0.893832 0.89301 0.89208 0.891909 0.888355 0.886336 0.881833 0.880253 0.874732 0.870384 0.891983 0.887597 0.884964 0.895499 0.894766 0.886344 0.89478 0.894673 0.889716 0.894362 0.882683 0.887005 0.888813 0.891604 0.892022 0.892749 0.893832 0.889352 0.893832 0.888084 0.893832 0.886278 0.893832 0.88511 0.893832 0.890969 0.893832 0.893832 0.893832 0.893832 0.893832 0.893832 0.893832 0.893832 0.893832 0.893774 0.893832 0.893832 0.893832 0.893832 0.893832 0.893832 0.893832 0.893832 0.893832 0.890969 0.893832 0.88511 0.893832 0.886278 0.893832 0.888084 0.893832 0.889352 0.893832 0.892749 0.892022 0.891604 0.888813 0.887005 0.882683 0.894362 0.890551 0.894153 0.89424 0.886984 0.895143 0.885303 0.887187 0.88975 0.872687 0.876262 0.881255 0.881255 0.876262 0.872687 0.88975 0.887187 0.885303 0.895143 0.886984 0.89424 0.894153 0.890551 0.891175 0.893702 0.893763 0.887652 0.893992 0.894798 0.885879 0.887014 0.887989 0.874931 0.877876 0.882368 0.883658 0.887644 0.889236 0.891434 0.892059 0.892542 0.893832 0.889578 0.893832 0.888407 0.893832 0.886956 0.893832 0.886376 0.893832 0.891844 0.893832 0.893832 0.893832 0.893832 0.893832 0.893832 0.893832 0.893832 0.893832 0.893786 0.893832 0.893832 0.893832 0.893832 0.893832 0.893832 0.893832 0.893832 0.893832 0.891844 0.893832 0.886376 0.893832 0.886956 0.893832 0.888407 0.893832 0.889578 0.893832 0.892542 0.892059 0.891434 0.889236 0.887644 0.883658 0.882368 0.877876 0.874931 0.887989 0.887014 0.885879 0.894798 0.893992 0.887652 0.893763 0.893702 0.891175 0.891602 0.893314 0.893349 0.888312 0.89366 0.894467 0.886602 0.887002 0.886668 0.877028 0.879471 0.883494 0.884664 0.888228 0.88963 0.891364 0.892164 0.892385 0.893832 0.889824 0.893832 0.888762 0.893832 0.887617 0.893832 0.887533 0.893832 0.892472 0.893832 0.893832 0.893832 0.893832 0.893832 0.893832 0.893832 0.893832 0.893832 0.893796 0.893832 0.893832 0.893832 0.893832 0.893832 0.893832 0.893832 0.893832 0.893832 0.892472 0.893832 0.887533 0.893832 0.887617 0.893832 0.888762 0.893832 0.889824 0.893832 0.892385 0.892164 0.891364 0.88963 0.888228 0.884664 0.883494 0.879471 0.877028 0.886668 0.887002 0.886602 0.894467 0.89366 0.888312 0.893349 0.893314 0.891602 0.891864 0.892986 0.892993 0.888936 0.893367 0.894154 0.887384 0.887093 0.885747 0.878928 0.88098 0.884572 0.885641 0.888752 0.89 0.891367 0.892316 0.892273 0.893832 0.890082 0.893832 0.889136 0.893832 0.888254 0.893832 0.88857 0.893832 0.892915 0.893832 0.893832 0.893832 0.893832 0.893832 0.893832 0.893832 0.893832 0.893832 0.893804 0.893832 0.893832 0.893832 0.893832 0.893832 0.893832 0.893832 0.893832 0.893832 0.892915 0.893832 0.88857 0.893832 0.888254 0.893832 0.889136 0.893832 0.890082 0.893832 0.892273 0.892316 0.891367 0.89 0.888752 0.885641 0.884572 0.88098 0.878928 0.885747 0.887093 0.887384 0.894154 0.893367 0.888936 0.892993 0.892986 0.891864 0.891999 0.892709 0.892691 0.889503 0.893114 0.89386 0.888156 0.887246 0.885172 0.880611 0.882365 0.885563 0.886555 0.889217 0.890351 0.891421 0.892494 0.892199 0.893832 0.890344 0.893832 0.889518 0.893832 0.888859 0.893832 0.889481 0.893832 0.893224 0.893832 0.893832 0.893832 0.893832 0.893832 0.893832 0.893832 0.893832 0.893832 0.89381 0.893832 0.893832 0.893832 0.893832 0.893832 0.893832 0.893832 0.893832 0.893832 0.893224 0.893832 0.889481 0.893832 0.888859 0.893832 0.889518 0.893832 0.890344 0.893832 0.892199 0.892494 0.891421 0.890351 0.889217 0.886555 0.885563 0.882365 0.880611 0.885172 0.887246 0.888156 0.89386 0.893114 0.889503 0.892691 0.892709 0.891999 0.892043 0.892479 0.892441 0.890004 0.892901 0.893587 0.888868 0.887432 0.884889 0.882076 0.883609 0.886451 0.887388 0.889628 0.890686 0.891509 0.892682 0.892157 0.893832 0.890606 0.893832 0.889897 0.893832 0.889428 0.893832 0.890269 0.893832 0.893436 0.893832 0.893832 0.893832 0.893832 0.893832 0.893832 0.893832 0.893832 0.893832 0.893815 0.893832 0.893832 0.893832 0.893832 0.893832 0.893832 0.893832 0.893832 0.893832 0.893436 0.893832 0.890269 0.893832 0.889428 0.893832 0.889897 0.893832 0.890606 0.893832 0.892157 0.892682 0.891509 0.890686 0.889628 0.887388 0.886451 0.883609 0.882076 0.884889 0.887432 0.888868 0.893587 0.892901 0.890004 0.892441 0.892479 0.892043 0.89203 0.892288 0.892235 0.890433 0.892725 0.893334 0.889489 0.88763 0.884842 0.883338 0.884712 0.887234 0.888136 0.889995 0.891006 0.891616 0.892867 0.892142 0.893832 0.890862 0.893832 0.890266 0.893832 0.889957 0.893832 0.890942 0.893832 0.893578 0.893832 0.893832 0.893832 0.893832 0.893832 0.893832 0.893832 0.893832 0.893832 0.893819 0.893832 0.893832 0.893832 0.893832 0.893832 0.893832 0.893832 0.893832 0.893832 0.893578 0.893832 0.890942 0.893832 0.889957 0.893832 0.890266 0.893832 0.890862 0.893832 0.892142 0.892867 0.891616 0.891006 0.889995 0.888136 0.887234 0.884712 0.883338 0.884842 0.88763 0.889489 0.893334 0.892725 0.890433 0.892235 0.892288 0.89203 0.891983 0.89213 0.89207 0.890794 0.892583 0.893102 0.890005 0.887829 0.88498 0.884419 0.885683 0.887916 0.888803 0.890325 0.891313 0.891735 0.89304 0.892149 0.893832 0.891111 0.893832 0.890621 0.893832 0.890443 0.893832 0.891507 0.893832 0.893673 0.893832 0.893832 0.893832 0.893832 0.893832 0.893832 0.893832 0.893832 0.893832 0.893822 0.893832 0.893832 0.893832 0.893832 0.893832 0.893832 0.893832 0.893832 0.893832 0.893673 0.893832 0.891507 0.893832 0.890443 0.893832 0.890621 0.893832 0.891111 0.893832 0.892149 0.89304 0.891735 0.891313 0.890325 0.888803 0.887916 0.885683 0.884419 0.88498 0.887829 0.890005 0.893102 0.892583 0.890794 0.89207 0.89213 0.891983 0.891922 0.892 0.891939 0.891091 0.892472 0.89289 0.890413 0.888024 0.885256 0.885343 0.886534 0.888507 0.889394 0.890624 0.891604 0.891856 0.893194 0.892175 0.893832 0.891349 0.893832 0.890956 0.893832 0.890886 0.893832 0.891977 0.893832 0.893734 0.893832 0.893832 0.893832 0.893832 0.893832 0.893832 0.893832 0.893832 0.893832 0.893824 0.893832 0.893832 0.893832 0.893832 0.893832 0.893832 0.893832 0.893832 0.893832 0.893734 0.893832 0.891977 0.893832 0.890886 0.893832 0.890956 0.893832 0.891349 0.893832 0.892175 0.893194 0.891856 0.891604 0.890624 0.889394 0.888507 0.886534 0.885343 0.885256 0.888024 0.890413 0.89289 0.892472 0.891091 0.891939 0.892 0.891922 0.891859 0.891891 0.891837 0.891332 0.892389 0.892697 0.890718 0.88821 0.885631 0.886134 0.88728 0.88902 0.889918 0.890895 0.89188 0.891976 0.893329 0.892215 0.893832 0.891576 0.893832 0.89127 0.893832 0.891285 0.893832 0.892362 0.893832 0.893773 0.893832 0.893832 0.893832 0.893832 0.893832 0.893832 0.893832 0.893832 0.893832 0.893826 0.893832 0.893832 0.893832 0.893832 0.893832 0.893832 0.893832 0.893832 0.893832 0.893773 0.893832 0.892362 0.893832 0.891285 0.893832 0.89127 0.893832 0.891576 0.893832 0.892215 0.893329 0.891976 0.89188 0.890895 0.889918 0.88902 0.88728 0.886134 0.885631 0.88821 0.890718 0.892697 0.892389 0.891332 0.891837 0.891891 0.891859 0.891801 0.891799 0.89176 0.891525 0.89233 0.892523 0.890934 0.888389 0.886072 0.886815 0.887936 0.889466 0.890382 0.891143 0.892139 0.892091 0.893441 0.892268 0.893832 0.891791 0.893832 0.891561 0.893832 0.891642 0.893832 0.892676 0.893832 0.893798 0.893832 0.893832 0.893832 0.893832 0.893832 0.893832 0.893832 0.893832 0.893832 0.893827 0.893832 0.893832 0.893832 0.893832 0.893832 0.893832 0.893832 0.893832 0.893832 0.893798 0.893832 0.892676 0.893832 0.891642 0.893832 0.891561 0.893832 0.891791 0.893832 0.892268 0.893441 0.892091 0.892139 0.891143 0.890382 0.889466 0.887936 0.886815 0.886072 0.888389 0.890934 0.892523 0.89233 0.891525 0.89176 0.891799 0.891801 0.891751 0.891722 0.891702 0.891679 0.892292 0.892367 0.891075 0.888563 0.886551 0.887404 0.888515 0.889855 0.890795 0.891369 0.892377 0.892198 0.893534 0.892329 0.893832 0.891991 0.893832 0.891829 0.893832 0.891959 0.893832 0.892928 0.893832 0.893812 0.893832 0.893832 0.893832 0.893832 0.893832 0.893832 0.893832 0.893832 0.893832 0.893828 0.893832 0.893832 0.893832 0.893832 0.893832 0.893832 0.893832 0.893832 0.893832 0.893812 0.893832 0.892928 0.893832 0.891959 0.893832 0.891829 0.893832 0.891991 0.893832 0.892329 0.893534 0.892198 0.892377 0.891369 0.890795 0.889855 0.888515 0.887404 0.886551 0.888563 0.891075 0.892367 0.892292 0.891679 0.891702 0.891722 0.891751 0.89171 0.891657 0.89166 0.891801 0.892271 0.892227 0.891157 0.888732 0.887046 0.887918 0.889027 0.890196 0.891162 0.891576 0.892595 0.892298 0.893608 0.892397 0.893832 0.892177 0.893832 0.892072 0.893832 0.892237 0.893832 0.893129 0.893832 0.893821 0.893832 0.893832 0.893832 0.893832 0.893832 0.893832 0.893832 0.893832 0.893832 0.893829 0.893832 0.893832 0.893832 0.893832 0.893832 0.893832 0.893832 0.893832 0.893832 0.893821 0.893832 0.893129 0.893832 0.892237 0.893832 0.892072 0.893832 0.892177 0.893832 0.892397 0.893608 0.892298 0.892595 0.891576 0.891162 0.890196 0.889027 0.887918 0.887046 0.888732 0.891157 0.892227 0.892271 0.891801 0.89166 0.891657 0.89171 0.891678 0.8916 0.89163 0.891897 0.892265 0.892104 0.891195 0.888898 0.88754 0.888367 0.889481 0.890497 0.89149 0.891763 0.892791 0.892389 0.893666 0.892469 0.893832 0.892348 0.893832 0.892292 0.893832 0.892481 0.893832 0.893289 0.893832 0.893826 0.893832 0.893832 0.893832 0.893832 0.893832 0.893832 0.893832 0.893832 0.893832 0.89383 0.893832 0.893832 0.893832 0.893832 0.893832 0.893832 0.893832 0.893832 0.893832 0.893826 0.893832 0.893289 0.893832 0.892481 0.893832 0.892292 0.893832 0.892348 0.893832 0.892469 0.893666 0.892389 0.892791 0.891763 0.89149 0.890497 0.889481 0.888367 0.88754 0.888898 0.891195 0.892104 0.892265 0.891897 0.89163 0.8916 0.891678 0.891653 0.891552 0.891609 0.891974 0.892271 0.891994 0.891203 0.889062 0.888019 0.888762 0.889885 0.890763 0.891781 0.891932 0.892965 0.892472 0.893711 0.892544 0.893832 0.892504 0.893832 0.892489 0.893832 0.892692 0.893832 0.893414 0.893832 0.893829 0.893832 0.893832 0.893832 0.893832 0.893832 0.893832 0.893832 0.893832 0.893832 0.89383 0.893832 0.893832 0.893832 0.893832 0.893832 0.893832 0.893832 0.893832 0.893832 0.893829 0.893832 0.893414 0.893832 0.892692 0.893832 0.892489 0.893832 0.892504 0.893832 0.892544 0.893711 0.892472 0.892965 0.891932 0.891781 0.890763 0.889885 0.888762 0.888019 0.889062 0.891203 0.891994 0.892271 0.891974 0.891609 0.891552 0.891653 0.891634 0.89151 0.891595 0.892036 0.892285 0.891899 0.891191 0.889222 0.888474 0.88911 0.890245 0.890999 0.89204 0.892084 0.893116 0.892546 0.893745 0.892618 0.893832 0.892646 0.893832 0.892664 0.893832 0.892875 0.893832 0.893512 0.893832 0.893831 0.893832 0.893832 0.893832 0.893832 0.893832 0.893832 0.893832 0.893832 0.893832 0.893831 0.893832 0.893832 0.893832 0.893832 0.893832 0.893832 0.893832 0.893832 0.893832 0.893831 0.893832 0.893512 0.893832 0.892875 0.893832 0.892664 0.893832 0.892646 0.893832 0.892618 0.893745 0.892546 0.893116 0.892084 0.89204 0.890999 0.890245 0.88911 0.888474 0.889222 0.891191 0.891899 0.892285 0.892036 0.891595 0.89151 0.891634 0.89162 0.891474 0.891586 0.892087 0.892306 0.891816 0.891169 0.88938 0.888897 0.889416 0.890565 0.891208 0.892269 0.892218 0.893247 0.892614 0.89377 0.892691 0.893832 0.892773 0.893832 0.892819 0.893832 0.893031 0.893832 0.893588 0.893832 0.893831 0.893832 0.893832 0.893832 0.893832 0.893832 0.893832 0.893832 0.893832 0.893832 0.893831 0.893832 0.893832 0.893832 0.893832 0.893832 0.893832 0.893832 0.893832 0.893832 0.893831 0.893832 0.893588 0.893832 0.893031 0.893832 0.892819 0.893832 0.892773 0.893832 0.892691 0.89377 0.892614 0.893247 0.892218 0.892269 0.891208 0.890565 0.889416 0.888897 0.88938 0.891169 0.891816 0.892306 0.892087 0.891586 0.891474 0.89162 0.89161 0.891443 0.89158 0.892128 0.892331 0.891745 0.891142 0.889531 0.889283 0.889685 0.890848 0.891392 0.892471 0.892337 0.893358 0.892674 0.893788 0.892762 0.893832 0.892887 0.893832 0.892954 0.893832 0.893163 0.893832 0.893647 0.893832 0.893832 0.893832 0.893832 0.893832 0.893832 0.893832 0.893832 0.893832 0.893832 0.893832 0.893831 0.893832 0.893832 0.893832 0.893832 0.893832 0.893832 0.893832 0.893832 0.893832 0.893832 0.893832 0.893647 0.893832 0.893163 0.893832 0.892954 0.893832 0.892887 0.893832 0.892762 0.893788 0.892674 0.893358 0.892337 0.892471 0.891392 0.890848 0.889685 0.889283 0.889531 0.891142 0.891745 0.892331 0.892128 0.89158 0.891443 0.89161 0.891602 0.891417 0.891577 0.892162 0.892359 0.891684 0.891115 0.889675 0.889631 0.889919 0.891097 0.891554 0.892647 0.892439 0.89345 0.892728 0.893802 0.892828 0.893832 0.892986 0.893832 0.893072 0.893832 0.893275 0.893832 0.893692 0.893832 0.893832 0.893832 0.893832 0.893832 0.893832 0.893832 0.893832 0.893832 0.893832 0.893832 0.893832 0.893832 0.893832 0.893832 0.893832 0.893832 0.893832 0.893832 0.893832 0.893832 0.893832 0.893832 0.893692 0.893832 0.893275 0.893832 0.893072 0.893832 0.892986 0.893832 0.892828 0.893802 0.892728 0.89345 0.892439 0.892647 0.891554 0.891097 0.889919 0.889631 0.889675 0.891115 0.891684 0.892359 0.892162 0.891577 0.891417 0.891602 0.891597 0.891395 0.891575 0.892191 0.892387 0.891632 0.89109 0.88981 0.889939 0.890122 0.891314 0.891695 0.892799 0.892527 0.893527 0.892775 0.893811 0.892889 0.893832 0.893073 0.893832 0.893172 0.893832 0.893368 0.893832 0.893726 0.893832 0.893832 0.893832 0.893832 0.893832 0.893832 0.893832 0.893832 0.893832 0.893832 0.893832 0.893832 0.893832 0.893832 0.893832 0.893832 0.893832 0.893832 0.893832 0.893832 0.893832 0.893832 0.893832 0.893726 0.893832 0.893368 0.893832 0.893172 0.893832 0.893073 0.893832 0.892889 0.893811 0.892775 0.893527 0.892527 0.892799 0.891695 0.891314 0.890122 0.889939 0.88981 0.89109 0.891632 0.892387 0.892191 0.891575 0.891395 0.891597 0.891593 0.891377 0.891575 0.892216 0.892414 0.89159 0.891068 0.889933 0.890206 0.890296 0.891501 0.891817 0.892929 0.892602 0.893589 0.892816 0.893818 0.892944 0.893832 0.893148 0.893832 0.893258 0.893832 0.893445 0.893832 0.893752 0.893832 0.893832 0.893832 0.893832 0.893832 0.893832 0.893832 0.893832 0.893832 0.893832 0.893832 0.893832 0.893832 0.893832 0.893832 0.893832 0.893832 0.893832 0.893832 0.893832 0.893832 0.893832 0.893832 0.893752 0.893832 0.893445 0.893832 0.893258 0.893832 0.893148 0.893832 0.892944 0.893818 0.892816 0.893589 0.892602 0.892929 0.891817 0.891501 0.890296 0.890206 0.889933 0.891068 0.89159 0.892414 0.892216 0.891575 0.891377 0.891593 0.89159 0.891362 0.891575 0.892236 0.89244 0.891555 0.89105 0.890042 0.890432 0.890441 0.891659 0.891919 0.893038 0.892663 0.893639 0.892852 0.893822 0.892992 0.893832 0.893211 0.893832 0.893329 0.893832 0.893507 0.893832 0.893772 0.893832 0.893832 0.893832 0.893832 0.893832 0.893832 0.893832 0.893832 0.893832 0.893832 0.893832 0.893832 0.893832 0.893832 0.893832 0.893832 0.893832 0.893832 0.893832 0.893832 0.893832 0.893832 0.893832 0.893772 0.893832 0.893507 0.893832 0.893329 0.893832 0.893211 0.893832 0.892992 0.893822 0.892852 0.893639 0.892663 0.893038 0.891919 0.891659 0.890441 0.890432 0.890042 0.89105 0.891555 0.89244 0.892236 0.891575 0.891362 0.89159 0.891588 0.891351 0.891575 0.892253 0.892462 0.891527 0.891036 0.890136 0.890619 0.89056 0.891789 0.892003 0.893127 0.892713 0.893677 0.892881 0.893826 0.893033 0.893832 0.893262 0.893832 0.893387 0.893832 0.893557 0.893832 0.893786 0.893832 0.893832 0.893832 0.893832 0.893832 0.893832 0.893832 0.893832 0.893832 0.893832 0.893832 0.893832 0.893832 0.893832 0.893832 0.893832 0.893832 0.893832 0.893832 0.893832 0.893832 0.893832 0.893832 0.893786 0.893832 0.893557 0.893832 0.893387 0.893832 0.893262 0.893832 0.893033 0.893826 0.892881 0.893677 0.892713 0.893127 0.892003 0.891789 0.89056 0.890619 0.890136 0.891036 0.891527 0.892462 0.892253 0.891575 0.891351 0.891588 0.891587 0.891342 0.891575 0.892266 0.892481 0.891505 0.891026 0.890213 0.890766 0.890654 0.891892 0.89207 0.893197 0.892752 0.893707 0.892904 0.893828 0.893067 0.893832 0.893303 0.893832 0.893432 0.893832 0.893595 0.893832 0.893797 0.893832 0.893832 0.893832 0.893832 0.893832 0.893832 0.893832 0.893832 0.893832 0.893832 0.893832 0.893832 0.893832 0.893832 0.893832 0.893832 0.893832 0.893832 0.893832 0.893832 0.893832 0.893832 0.893832 0.893797 0.893832 0.893595 0.893832 0.893432 0.893832 0.893303 0.893832 0.893067 0.893828 0.892904 0.893707 0.892752 0.893197 0.89207 0.891892 0.890654 0.890766 0.890213 0.891026 0.891505 0.892481 0.892266 0.891575 0.891342 0.891587 0.891586 0.891336 0.891576 0.892275 0.892496 0.891489 0.891018 0.890272 0.890876 0.890724 0.891969 0.892119 0.893248 0.89278 0.893728 0.892922 0.893829 0.893092 0.893832 0.893333 0.893832 0.893465 0.893832 0.893622 0.893832 0.893804 0.893832 0.893832 0.893832 0.893832 0.893832 0.893832 0.893832 0.893832 0.893832 0.893832 0.893832 0.893832 0.893832 0.893832 0.893832 0.893832 0.893832 0.893832 0.893832 0.893832 0.893832 0.893832 0.893832 0.893804 0.893832 0.893622 0.893832 0.893465 0.893832 0.893333 0.893832 0.893092 0.893829 0.892922 0.893728 0.89278 0.893248 0.892119 0.891969 0.890724 0.890876 0.890272 0.891018 0.891489 0.892496 0.892275 0.891576 0.891336 0.891586 0.891585 0.891332 0.891576 0.892282 0.892506 0.891479 0.891014 0.890312 0.890949 0.89077 0.89202 0.892152 0.893282 0.892799 0.893741 0.892933 0.89383 0.893109 0.893832 0.893353 0.893832 0.893487 0.893832 0.89364 0.893832 0.893808 0.893832 0.893832 0.893832 0.893832 0.893832 0.893832 0.893832 0.893832 0.893832 0.893832 0.893832 0.893832 0.893832 0.893832 0.893832 0.893832 0.893832 0.893832 0.893832 0.893832 0.893832 0.893832 0.893832 0.893808 0.893832 0.89364 0.893832 0.893487 0.893832 0.893353 0.893832 0.893109 0.89383 0.892933 0.893741 0.892799 0.893282 0.892152 0.89202 0.89077 0.890949 0.890312 0.891014 0.891479 0.892506 0.892282 0.891576 0.891332 0.891585 0.891585 0.89133 0.891576 0.892285 0.892511 0.891474 0.891012 0.890332 0.890986 0.890793 0.892045 0.892169 0.893299 0.892808 0.893748 0.892939 0.89383 0.893118 0.893832 0.893363 0.893832 0.893498 0.893832 0.893649 0.893832 0.89381 0.893832 0.893832 0.893832 0.893832 0.893832 0.893832 0.893832 0.893832 0.893832 0.893832 0.893832 0.893832 0.893832 0.893832 0.893832 0.893832 0.893832 0.893832 0.893832 0.893832 0.893832 0.893832 0.893832 0.89381 0.893832 0.893649 0.893832 0.893498 0.893832 0.893363 0.893832 0.893118 0.89383 0.892939 0.893748 0.892808 0.893299 0.892169 0.892045 0.890793 0.890986 0.890332 0.891012 0.891474 0.892511 0.892285 0.891576 0.89133 0.891585 
SCALARS Axial_Stress float 1
LOOKUP_TABLE default
-542687000000.0 -184984000000.0 -184984000000.0 -542687000000.0 -825909000000.0 -529517000000.0 -969326000000.0 -9142790000.0 -94255400000.0 -94255400000.0 -9142790000.0 -969326000000.0 -529517000000.0 -825909000000.0 -1.26798e+12 -1.86699e+12 -606946000000.0 -758052000000.0 -108121000000.0 -127946000000.0 -188956000000.0 -102150000000.0 -61761700000.0 -80174700000.0 -35096100000.0 -43638500000.0 -25749300000.0 -25348300000.0 -19722400000.0 -19093300000.0 -16856200000.0 -18716100000.0 -17078300000.0 -18716100000.0 -16856200000.0 -19093300000.0 -19722400000.0 -25348300000.0 -25749300000.0 -43638500000.0 -35096100000.0 -80174700000.0 -61761700000.0 -102150000000.0 -188956000000.0 -127946000000.0 -108121000000.0 -758052000000.0 -606946000000.0 -1.86699e+12 -1.26798e+12 -1.74788e+12 -1.53867e+12 -2.59427e+12 -1.44493e+12 -789497000000.0 -187763000000.0 -214533000000.0 -234737000000.0 -279425000000.0 -129951000000.0 -87866800000.0 -160745000000.0 -56919300000.0 -93723300000.0 -51517200000.0 -56939400000.0 -50674400000.0 -55692100000.0 -51526900000.0 -56754900000.0 -52101600000.0 -56754900000.0 -51526900000.0 -55692100000.0 -50674400000.0 -56939400000.0 -51517200000.0 -93723300000.0 -56919300000.0 -160745000000.0 -87866800000.0 -129951000000.0 -279425000000.0 -234737000000.0 -214533000000.0 -187763000000.0 -789497000000.0 -1.44493e+12 -2.59427e+12 -1.53867e+12 -1.74788e+12 -1.89223e+12 -2.96012e+12 -2.58892e+12 -1.70401e+12 -1.4635e+12 -1.14488e+12 -628916000000.0 -418624000000.0 -418624000000.0 -628916000000.0 -1.14488e+12 -1.4635e+12 -1.70401e+12 -2.58892e+12 -2.96012e+12 -1.89223e+12 -1.973e+12 -3.12498e+12 -2.97232e+12 -3.08553e+12 -1.18253e+12 -1.06002e+12 -1.01521e+12 -420064000000.0 -221772000000.0 -76560100000.0 -168688000000.0 -268944000000.0 -140091000000.0 -204785000000.0 -142401000000.0 -151942000000.0 -141149000000.0 -146912000000.0 -137651000000.0 -142636000000.0 -134540000000.0 -142636000000.0 -137651000000.0 -146912000000.0 -141149000000.0 -151942000000.0 -142401000000.0 -204785000000.0 -140091000000.0 -268944000000.0 -168688000000.0 -76560100000.0 -221772000000.0 -420064000000.0 -1.01521e+12 -1.06002e+12 -1.18253e+12 -3.08553e+12 -2.97232e+12 -3.12498e+12 -1.973e+12 -1.99957e+12 -2.00451e+12 -3.18128e+12 -3.17834e+12 -3.05486e+12 -3.12851e+12 -1.49422e+12 -1.20333e+12 -1.19953e+12 -1.00028e+12 -354729000000.0 -227510000000.0 -154064000000.0 -232015000000.0 -100467000000.0 -201961000000.0 -128519000000.0 -152831000000.0 -149279000000.0 -165434000000.0 -163271000000.0 -175172000000.0 -168290000000.0 -175172000000.0 -163271000000.0 -165434000000.0 -149279000000.0 -152831000000.0 -128519000000.0 -201961000000.0 -100467000000.0 -232016000000.0 -154064000000.0 -227510000000.0 -354729000000.0 -1.00028e+12 -1.19953e+12 -1.20333e+12 -1.49422e+12 -3.12851e+12 -3.05486e+12 -3.17834e+12 -3.18128e+12 -2.00451e+12 -1.99957e+12 -1.9692e+12 -3.16931e+12 -3.05758e+12 -3.00735e+12 -3.24288e+12 -1.44432e+12 -1.31902e+12 -1.1759e+12 -1.04029e+12 -984778000000.0 -394536000000.0 -394536000000.0 -984778000000.0 -1.04029e+12 -1.1759e+12 -1.31902e+12 -1.44432e+12 -3.24288e+12 -3.00735e+12 -3.05758e+12 -3.16931e+12 -1.9692e+12 -1.92081e+12 -3.15438e+12 -2.98788e+12 -3.0072e+12 -3.03446e+12 -2.91109e+12 -3.04518e+12 -2.99195e+12 -1.63319e+12 -1.44411e+12 -1.32189e+12 -1.18861e+12 -1.1456e+12 -750329000000.0 -21786600000.0 -249783000000.0 -281515000000.0 -112260000000.0 -229265000000.0 -109813000000.0 -129345000000.0 -113933000000.0 -124884000000.0 -115189000000.0 -124797000000.0 -114984000000.0 -124797000000.0 -115189000000.0 -124884000000.0 -113933000000.0 -129345000000.0 -109813000000.0 -229265000000.0 -112260000000.0 -281515000000.0 -249783000000.0 -21786600000.0 -750329000000.0 -1.1456e+12 -1.18861e+12 -1.32189e+12 -1.44411e+12 -1.63319e+12 -2.99195e+12 -3.04518e+12 -2.91109e+12 -3.03446e+12 -3.0072e+12 -2.98788e+12 -3.15438e+12 -1.92081e+12 -1.80399e+12 -1.86387e+12 -3.1131e+12 -3.13887e+12 -2.97158e+12 -2.80226e+12 -2.84022e+12 -2.83031e+12 -2.7797e+12 -1.56698e+12 -1.43754e+12 -1.45073e+12 -1.32637e+12 -1.28103e+12 -826687000000.0 -795833000000.0 -742724000000.0 -332362000000.0 -206842000000.0 -350373000000.0 -208218000000.0 -231136000000.0 -212336000000.0 -225323000000.0 -215265000000.0 -226727000000.0 -215629000000.0 -226727000000.0 -215265000000.0 -225323000000.0 -212336000000.0 -231136000000.0 -208218000000.0 -350373000000.0 -206842000000.0 -332362000000.0 -742724000000.0 -795833000000.0 -826687000000.0 -1.28103e+12 -1.32637e+12 -1.45073e+12 -1.43754e+12 -1.56698e+12 -2.7797e+12 -2.83031e+12 -2.84022e+12 -2.80226e+12 -2.97158e+12 -3.13887e+12 -3.1131e+12 -1.86387e+12 -1.80399e+12 -1.74795e+12 -3.08036e+12 -2.9575e+12 -2.79544e+12 -2.57882e+12 -2.6803e+12 -2.53473e+12 -2.66806e+12 -1.56359e+12 -1.55186e+12 -1.39844e+12 -943619000000.0 -837458000000.0 -837458000000.0 -943619000000.0 -1.39844e+12 -1.55186e+12 -1.56359e+12 -2.66806e+12 -2.53473e+12 -2.6803e+12 -2.57882e+12 -2.79544e+12 -2.9575e+12 -3.08036e+12 -1.74795e+12 -1.69891e+12 -3.03244e+12 -2.92778e+12 -2.78294e+12 -2.78396e+12 -2.6051e+12 -2.58588e+12 -2.34386e+12 -2.41604e+12 -2.35623e+12 -1.54935e+12 -1.68764e+12 -1.48485e+12 -1.11335e+12 -931632000000.0 -846297000000.0 -763830000000.0 -578569000000.0 -408254000000.0 -319956000000.0 -444914000000.0 -291381000000.0 -305274000000.0 -275731000000.0 -278061000000.0 -260236000000.0 -265239000000.0 -253572000000.0 -265239000000.0 -260236000000.0 -278061000000.0 -275731000000.0 -305274000000.0 -291381000000.0 -444914000000.0 -319956000000.0 -408254000000.0 -578569000000.0 -763830000000.0 -846297000000.0 -931632000000.0 -1.11335e+12 -1.48485e+12 -1.68764e+12 -1.54935e+12 -2.35623e+12 -2.41604e+12 -2.34386e+12 -2.58588e+12 -2.6051e+12 -2.78396e+12 -2.78294e+12 -2.92778e+12 -3.03244e+12 -1.69891e+12 -1.64999e+12 -2.90445e+12 -2.97035e+12 -2.84555e+12 -2.89757e+12 -2.74811e+12 -2.59852e+12 -2.44537e+12 -2.36037e+12 -2.303e+12 -2.05498e+12 -1.63944e+12 -1.71492e+12 -1.47251e+12 -1.34982e+12 -1.22321e+12 -1.06757e+12 -963370000000.0 -718689000000.0 -376727000000.0 -323762000000.0 -399726000000.0 -276139000000.0 -298233000000.0 -276776000000.0 -282378000000.0 -269597000000.0 -274794000000.0 -266317000000.0 -274794000000.0 -269597000000.0 -282378000000.0 -276776000000.0 -298233000000.0 -276139000000.0 -399726000000.0 -323762000000.0 -376727000000.0 -718689000000.0 -963370000000.0 -1.06757e+12 -1.22321e+12 -1.34982e+12 -1.47251e+12 -1.71492e+12 -1.63944e+12 -2.05498e+12 -2.303e+12 -2.36037e+12 -2.44537e+12 -2.59852e+12 -2.74811e+12 -2.89757e+12 -2.84555e+12 -2.97035e+12 -2.90445e+12 -1.64999e+12 -1.52745e+12 -1.59492e+12 -2.77358e+12 -2.73422e+12 -2.64307e+12 -2.43162e+12 -2.17405e+12 -1.98864e+12 -1.61487e+12 -471804000000.0 -1.76073e+12 -2.15238e+12 -1.6861e+12 -1.39756e+12 -1.1186e+12 -843502000000.0 -575216000000.0 -575216000000.0 -843502000000.0 -1.1186e+12 -1.39756e+12 -1.6861e+12 -2.15238e+12 -1.76073e+12 -471804000000.0 -1.61487e+12 -1.98864e+12 -2.17405e+12 -2.43162e+12 -2.64307e+12 -2.73422e+12 -2.77358e+12 -1.59492e+12 -1.52745e+12 -1.43812e+12 -2.61529e+12 -2.73019e+12 -2.82475e+12 -2.70923e+12 -2.67473e+12 -2.59895e+12 -2.57195e+12 -2.56567e+12 -2.39982e+12 -2.18694e+12 -1.99232e+12 -1.57828e+12 -1.17258e+12 -82936800000.0 -1.15362e+12 -1.27629e+12 -969911000000.0 -713272000000.0 -592429000000.0 -424278000000.0 -398865000000.0 -401150000000.0 -292455000000.0 -305744000000.0 -284498000000.0 -287334000000.0 -277893000000.0 -280578000000.0 -275027000000.0 -280578000000.0 -277893000000.0 -287334000000.0 -284498000000.0 -305744000000.0 -292455000000.0 -401150000000.0 -398865000000.0 -424278000000.0 -592429000000.0 -713272000000.0 -969911000000.0 -1.27629e+12 -1.15362e+12 -82936800000.0 -1.17258e+12 -1.57828e+12 -1.99232e+12 -2.18694e+12 -2.39982e+12 -2.56567e+12 -2.57195e+12 -2.59895e+12 -2.67473e+12 -2.70923e+12 -2.82475e+12 -2.73019e+12 -2.61529e+12 -1.43812e+12 -1.24894e+12 -1.33951e+12 -2.48035e+12 -2.62071e+12 -2.59135e+12 -2.33747e+12 -2.23325e+12 -2.45119e+12 -1.60659e+12 -1.10921e+12 -885960000000.0 -846676000000.0 -1.17081e+12 -1.26068e+12 -1.48255e+12 -1.17758e+12 -1.14225e+12 -963647000000.0 -848136000000.0 -706317000000.0 -444100000000.0 -444100000000.0 -706317000000.0 -848136000000.0 -963647000000.0 -1.14225e+12 -1.17758e+12 -1.48255e+12 -1.26068e+12 -1.17081e+12 -846676000000.0 -885960000000.0 -1.10921e+12 -1.60659e+12 -2.45119e+12 -2.23325e+12 -2.33747e+12 -2.59135e+12 -2.62071e+12 -2.48035e+12 -1.33951e+12 -1.24894e+12 -1.16042e+12 -2.34427e+12 -2.38619e+12 -2.51535e+12 -2.40686e+12 -2.51873e+12 -2.36337e+12 -2.54468e+12 -2.60028e+12 -2.29818e+12 -2.67466e+12 -2.33858e+12 -1.57121e+12 -1.20224e+12 -781387000000.0 -680031000000.0 -503722000000.0 -619143000000.0 -1.24733e+12 -823817000000.0 -633169000000.0 -455624000000.0 -386652000000.0 -309334000000.0 -314086000000.0 -300420000000.0 -300500000000.0 -295549000000.0 -294699000000.0 -293284000000.0 -294699000000.0 -295549000000.0 -300500000000.0 -300420000000.0 -314086000000.0 -309334000000.0 -386652000000.0 -455624000000.0 -633169000000.0 -823817000000.0 -1.24733e+12 -619143000000.0 -503722000000.0 -680031000000.0 -781387000000.0 -1.20224e+12 -1.57121e+12 -2.33858e+12 -2.67466e+12 -2.29818e+12 -2.60028e+12 -2.54468e+12 -2.36337e+12 -2.51873e+12 -2.40686e+12 -2.51535e+12 -2.38619e+12 -2.34427e+12 -1.16042e+12 -1.07451e+12 -2.19496e+12 -2.10026e+12 -2.25005e+12 -2.16922e+12 -2.28333e+12 -2.3083e+12 -2.38795e+12 -2.58969e+12 -3.52426e+12 -1.5389e+12 -3.79347e+12 -433277000000.0 -657840000000.0 -1.09917e+12 -348499000000.0 -415557000000.0 -750913000000.0 -715660000000.0 -737432000000.0 -462264000000.0 -541863000000.0 -374031000000.0 -335075000000.0 -322510000000.0 -316903000000.0 -311791000000.0 -312080000000.0 -306507000000.0 -310437000000.0 -306507000000.0 -312080000000.0 -311791000000.0 -316903000000.0 -322510000000.0 -335075000000.0 -374031000000.0 -541863000000.0 -462264000000.0 -737432000000.0 -715660000000.0 -750913000000.0 -415557000000.0 -348499000000.0 -1.09917e+12 -657840000000.0 -433277000000.0 -3.79347e+12 -1.5389e+12 -3.52426e+12 -2.58969e+12 -2.38795e+12 -2.3083e+12 -2.28333e+12 -2.16922e+12 -2.25005e+12 -2.10026e+12 -2.19496e+12 -1.07451e+12 -988238000000.0 -1.86494e+12 -2.03975e+12 -1.94244e+12 -2.0174e+12 -2.10961e+12 -2.04531e+12 -3.46995e+12 -660340000000.0 -3.46729e+12 -2.34951e+12 -2.48499e+12 -1.01623e+12 -648158000000.0 -639472000000.0 -554941000000.0 -334732000000.0 -1.0019e+12 -764852000000.0 -581523000000.0 -206275000000.0 -877905000000.0 -577383000000.0 -577383000000.0 -877905000000.0 -206275000000.0 -581523000000.0 -764852000000.0 -1.0019e+12 -334732000000.0 -554941000000.0 -639472000000.0 -648158000000.0 -1.01623e+12 -2.48499e+12 -2.34951e+12 -3.46729e+12 -660340000000.0 -3.46995e+12 -2.04531e+12 -2.10961e+12 -2.0174e+12 -1.94244e+12 -2.03975e+12 -1.86494e+12 -988238000000.0 -913740000000.0 -1.69094e+12 -1.78098e+12 -1.86893e+12 -1.92753e+12 -2.09665e+12 -1.9621e+12 -1.94054e+12 -2.44871e+12 -2.36683e+12 -612233000000.0 -2.40439e+12 -1.34632e+12 -616293000000.0 -891513000000.0 -1.09722e+12 -498737000000.0 -923683000000.0 -250094000000.0 -575444000000.0 -327414000000.0 -719699000000.0 -457420000000.0 -638721000000.0 -364695000000.0 -365403000000.0 -329220000000.0 -330629000000.0 -317812000000.0 -323389000000.0 -311550000000.0 -321015000000.0 -311550000000.0 -323389000000.0 -317812000000.0 -330629000000.0 -329220000000.0 -365403000000.0 -364695000000.0 -638721000000.0 -457420000000.0 -719699000000.0 -327414000000.0 -575444000000.0 -250094000000.0 -923683000000.0 -498737000000.0 -1.09722e+12 -891513000000.0 -616293000000.0 -1.34632e+12 -2.40439e+12 -612233000000.0 -2.36683e+12 -2.44871e+12 -1.94054e+12 -1.9621e+12 -2.09665e+12 -1.92753e+12 -1.86893e+12 -1.78098e+12 -1.69094e+12 -913740000000.0 -867583000000.0 -1.53919e+12 -1.57036e+12 -1.69813e+12 -1.66091e+12 -1.83777e+12 -1.80104e+12 -1.78909e+12 -2.2554e+12 -765735000000.0 -2.17739e+12 -2.75219e+12 -2.59633e+12 -1.58034e+12 -1.18631e+12 -469742000000.0 -704127000000.0 -546558000000.0 -593285000000.0 -445466000000.0 -381410000000.0 -513999000000.0 -389017000000.0 -602271000000.0 -282960000000.0 -317314000000.0 -267436000000.0 -275800000000.0 -259737000000.0 -270088000000.0 -255498000000.0 -268617000000.0 -255498000000.0 -270088000000.0 -259737000000.0 -275800000000.0 -267436000000.0 -317314000000.0 -282960000000.0 -602271000000.0 -389017000000.0 -513999000000.0 -381410000000.0 -445466000000.0 -593285000000.0 -546558000000.0 -704127000000.0 -469742000000.0 -1.18631e+12 -1.58034e+12 -2.59633e+12 -2.75219e+12 -2.17739e+12 -765735000000.0 -2.2554e+12 -1.78909e+12 -1.80104e+12 -1.83777e+12 -1.66091e+12 -1.69813e+12 -1.57036e+12 -1.53919e+12 -867583000000.0 -133325000000.0 -318234000000.0 -423513000000.0 -1.38392e+12 -1.23468e+12 -1.51782e+12 -1.4507e+12 -1.714e+12 -1.91049e+12 -1.13506e+12 -1.91164e+12 -2.28504e+12 -988312000000.0 -2.21867e+12 -1.95444e+12 -1.5614e+12 -1.42381e+12 -1.12242e+12 -448522000000.0 -582172000000.0 -686810000000.0 -587336000000.0 -546448000000.0 -546448000000.0 -587336000000.0 -686810000000.0 -582172000000.0 -448522000000.0 -1.12242e+12 -1.42381e+12 -1.5614e+12 -1.95444e+12 -2.21867e+12 -988312000000.0 -2.28504e+12 -1.91164e+12 -1.13506e+12 -1.91049e+12 -1.714e+12 -1.4507e+12 -1.51782e+12 -1.23468e+12 -1.38392e+12 -423513000000.0 -318234000000.0 -133325000000.0 -373917000000.0 -674272000000.0 -1.25096e+12 -1.18475e+12 -1.28063e+12 -1.42665e+12 -1.71205e+12 -1.60899e+12 -1.8441e+12 -1.51475e+12 -1.3672e+12 -1.80861e+12 -1.53669e+12 -1.35759e+12 -964442000000.0 -1.14083e+12 -931254000000.0 -620127000000.0 -281048000000.0 -466065000000.0 -326626000000.0 -553028000000.0 -85603300000.0 -451360000000.0 -226183000000.0 -232532000000.0 -327958000000.0 -327536000000.0 -410410000000.0 -90377800000.0 -117175000000.0 -71262400000.0 -76964500000.0 -63910100000.0 -72533600000.0 -59712400000.0 -71104900000.0 -59712400000.0 -72533600000.0 -63910100000.0 -76964500000.0 -71262400000.0 -117175000000.0 -90377800000.0 -410410000000.0 -327536000000.0 -327958000000.0 -232532000000.0 -226183000000.0 -451360000000.0 -85603300000.0 -553028000000.0 -326626000000.0 -466065000000.0 -281048000000.0 -620127000000.0 -931254000000.0 -1.14083e+12 -964442000000.0 -1.35759e+12 -1.53669e+12 -1.80861e+12 -1.3672e+12 -1.51475e+12 -1.8441e+12 -1.60899e+12 -1.71205e+12 -1.42665e+12 -1.28063e+12 -1.18475e+12 -1.25096e+12 -674272000000.0 -373917000000.0 -1.05598e+12 -1.04518e+12 -780176000000.0 -1.1494e+12 -1.18462e+12 -1.5784e+12 -2.40502e+12 -1.87171e+12 -1.27163e+12 -1.13305e+12 -1.49102e+12 -1.26367e+12 -937612000000.0 -781404000000.0 -773837000000.0 -582619000000.0 -593514000000.0 -723746000000.0 -553491000000.0 -282140000000.0 -517973000000.0 -246676000000.0 -447740000000.0 -242697000000.0 -270566000000.0 -255952000000.0 -266084000000.0 -262675000000.0 -273230000000.0 -265071000000.0 -275135000000.0 -265071000000.0 -273230000000.0 -262675000000.0 -266084000000.0 -255952000000.0 -270566000000.0 -242697000000.0 -447740000000.0 -246676000000.0 -517973000000.0 -282140000000.0 -553491000000.0 -723746000000.0 -593514000000.0 -582619000000.0 -773837000000.0 -781404000000.0 -937612000000.0 -1.26367e+12 -1.49102e+12 -1.13305e+12 -1.27163e+12 -1.87171e+12 -2.40502e+12 -1.5784e+12 -1.18462e+12 -1.1494e+12 -780176000000.0 -1.04518e+12 -1.05598e+12 -362067000000.0 -899867000000.0 -727608000000.0 -1.21058e+12 -1.23501e+12 -2.04215e+12 -138474000000.0 -1.10756e+12 -1.25929e+12 -1.0989e+12 -1.19815e+12 -1.31847e+12 -1.25073e+12 -1.06761e+12 -506230000000.0 -613389000000.0 -511885000000.0 -527685000000.0 -527685000000.0 -511885000000.0 -613389000000.0 -506230000000.0 -1.06761e+12 -1.25073e+12 -1.31847e+12 -1.19815e+12 -1.0989e+12 -1.25929e+12 -1.10756e+12 -138474000000.0 -2.04215e+12 -1.23501e+12 -1.21058e+12 -727608000000.0 -899867000000.0 -362067000000.0 -796970000000.0 -680709000000.0 -239385000000.0 -761897000000.0 -1.77293e+12 -946433000000.0 -1.69345e+12 -986694000000.0 -1.04797e+12 -1.10125e+12 -1.05125e+12 -902774000000.0 -1.18644e+12 -520706000000.0 -463377000000.0 -578336000000.0 -164589000000.0 -260853000000.0 -431610000000.0 -497869000000.0 -187149000000.0 -475275000000.0 -228632000000.0 -324357000000.0 -348346000000.0 -196850000000.0 -256443000000.0 -15456300000.0 -22021400000.0 -9147040000.0 -11938000000.0 -9224070000.0 -17058000000.0 -9597490000.0 -18180900000.0 -9597490000.0 -17058000000.0 -9224070000.0 -11938000000.0 -9147040000.0 -22021400000.0 -15456300000.0 -256443000000.0 -196850000000.0 -348346000000.0 -324357000000.0 -228632000000.0 -475275000000.0 -187149000000.0 -497869000000.0 -431610000000.0 -260853000000.0 -164589000000.0 -578336000000.0 -463377000000.0 -520706000000.0 -1.18644e+12 -902774000000.0 -1.05125e+12 -1.10125e+12 -1.04797e+12 -986694000000.0 -1.69345e+12 -946433000000.0 -1.77293e+12 -761897000000.0 -239385000000.0 -680709000000.0 -796970000000.0 -376200000000.0 -609966000000.0 -1.36887e+12 -173968000000.0 -2.06452e+12 -488577000000.0 -969595000000.0 -735154000000.0 -920800000000.0 -944088000000.0 -903539000000.0 -853096000000.0 -951260000000.0 -918771000000.0 -735449000000.0 -944709000000.0 -715175000000.0 -473379000000.0 -367736000000.0 -332358000000.0 -241117000000.0 -491078000000.0 -330210000000.0 -465228000000.0 -335528000000.0 -326526000000.0 -320187000000.0 -316630000000.0 -314586000000.0 -319386000000.0 -313572000000.0 -320575000000.0 -313572000000.0 -319386000000.0 -314586000000.0 -316630000000.0 -320187000000.0 -326526000000.0 -335528000000.0 -465228000000.0 -330210000000.0 -491078000000.0 -241117000000.0 -332358000000.0 -367736000000.0 -473379000000.0 -715175000000.0 -944709000000.0 -735449000000.0 -918771000000.0 -951260000000.0 -853096000000.0 -903539000000.0 -944088000000.0 -920800000000.0 -735154000000.0 -969595000000.0 -488577000000.0 -2.06452e+12 -173968000000.0 -1.36887e+12 -609966000000.0 -376200000000.0 -253417000000.0 -291053000000.0 -663666000000.0 -1.35109e+12 -12837800000.0 -1.28573e+12 -785320000000.0 -971297000000.0 -869923000000.0 -835203000000.0 -827434000000.0 -817761000000.0 -845832000000.0 -834935000000.0 -966498000000.0 -1.14812e+12 -1.12284e+12 -894007000000.0 -364950000000.0 -241680000000.0 -241680000000.0 -364950000000.0 -894007000000.0 -1.12284e+12 -1.14812e+12 -966498000000.0 -834935000000.0 -845832000000.0 -817761000000.0 -827434000000.0 -835203000000.0 -869923000000.0 -971297000000.0 -785320000000.0 -1.28573e+12 -12837800000.0 -1.35109e+12 -663666000000.0 -291053000000.0 -253417000000.0 -274213000000.0 -833649000000.0 -1.1753e+12 -263607000000.0 -563475000000.0 -427937000000.0 -1.32607e+12 -736658000000.0 -713252000000.0 -688925000000.0 -642151000000.0 -462241000000.0 -423102000000.0 -501398000000.0 -453129000000.0 -492669000000.0 -500587000000.0 -490977000000.0 -406338000000.0 -382790000000.0 -342052000000.0 -274151000000.0 -444132000000.0 -77621900000.0 -167569000000.0 -9053460000.0 -9091890000.0 -9135000000.0 -9181150000.0 -9232530000.0 -13680900000.0 -9173150000.0 -15982400000.0 -9173150000.0 -13680900000.0 -9232530000.0 -9181150000.0 -9135000000.0 -9091890000.0 -9053460000.0 -167569000000.0 -77621900000.0 -444132000000.0 -274151000000.0 -342052000000.0 -382790000000.0 -406338000000.0 -490977000000.0 -500587000000.0 -492669000000.0 -453129000000.0 -501398000000.0 -423102000000.0 -462241000000.0 -642151000000.0 -688925000000.0 -713252000000.0 -736658000000.0 -1.32607e+12 -427937000000.0 -563475000000.0 -263607000000.0 -1.1753e+12 -833649000000.0 -274213000000.0 -130881000000.0 -660358000000.0 -718687000000.0 -1.06487e+12 -819338000000.0 -737888000000.0 -733256000000.0 -87694400000.0 -24306800000.0 -16247300000.0 -170488000000.0 -17737000000.0 -165634000000.0 -40870200000.0 -336021000000.0 -119063000000.0 -220302000000.0 -145767000000.0 -152964000000.0 -159209000000.0 -164171000000.0 -167988000000.0 -173749000000.0 -172653000000.0 -178764000000.0 -172653000000.0 -173749000000.0 -167988000000.0 -164171000000.0 -159209000000.0 -152964000000.0 -145767000000.0 -220302000000.0 -119063000000.0 -336021000000.0 -40870200000.0 -165634000000.0 -17737000000.0 -170488000000.0 -16247300000.0 -24306800000.0 -87694400000.0 -733256000000.0 -737888000000.0 -819338000000.0 -1.06487e+12 -718687000000.0 -660358000000.0 -130881000000.0 -266865000000.0 -394628000000.0 -571563000000.0 -718727000000.0 -60100200000.0 -438516000000.0 -575515000000.0 -1.25354e+12 -846579000000.0 -792854000000.0 -637441000000.0 -476505000000.0 -347158000000.0 -302296000000.0 -283617000000.0 -266463000000.0 -168179000000.0 -139379000000.0 -159387000000.0 -218217000000.0 -218217000000.0 -159387000000.0 -139379000000.0 -168179000000.0 -266463000000.0 -283617000000.0 -302296000000.0 -347158000000.0 -476505000000.0 -637441000000.0 -792854000000.0 -846579000000.0 -1.25354e+12 -575515000000.0 -438516000000.0 -60100200000.0 -718727000000.0 -571563000000.0 -394628000000.0 -266865000000.0 -76795300000.0 -237018000000.0 -248872000000.0 -429323000000.0 -267821000000.0 -197296000000.0 -308959000000.0 -631795000000.0 -566593000000.0 -450508000000.0 -349193000000.0 -274662000000.0 -224418000000.0 -201271000000.0 -156172000000.0 -64896900000.0 -72239000000.0 -65208500000.0 -62093300000.0 -132241000000.0 -92496800000.0 -90423200000.0 -98520700000.0 -139787000000.0 -35944100000.0 -243726000000.0 -16268500000.0 -68099900000.0 -9039770000.0 -9046310000.0 -9050970000.0 -9058230000.0 -9074070000.0 -10826600000.0 -9084570000.0 -13730000000.0 -9084570000.0 -10826600000.0 -9074070000.0 -9058230000.0 -9050970000.0 -9046310000.0 -9039770000.0 -68099900000.0 -16268500000.0 -243726000000.0 -35944100000.0 -139787000000.0 -98520700000.0 -90423200000.0 -92496800000.0 -132241000000.0 -62093300000.0 -65208500000.0 -72239000000.0 -64896900000.0 -156172000000.0 -201271000000.0 -224418000000.0 -274662000000.0 -349193000000.0 -450508000000.0 -566593000000.0 -631795000000.0 -308959000000.0 -197296000000.0 -267821000000.0 -429323000000.0 -248872000000.0 -237018000000.0 -76795300000.0 -248341000000.0 -704258000000.0 -618094000000.0 -103047000000.0 -132127000000.0 -156024000000.0 -165456000000.0 -172790000000.0 -181662000000.0 -276254000000.0 -192134000000.0 -392074000000.0 -234327000000.0 -254605000000.0 -213741000000.0 -204663000000.0 -196813000000.0 -190229000000.0 -184856000000.0 -181428000000.0 -178550000000.0 -181543000000.0 -178550000000.0 -181428000000.0 -184856000000.0 -190229000000.0 -196813000000.0 -204663000000.0 -213741000000.0 -254605000000.0 -234327000000.0 -392074000000.0 -192134000000.0 -276254000000.0 -181662000000.0 -172790000000.0 -165456000000.0 -156024000000.0 -132127000000.0 -103047000000.0 -618094000000.0 -704258000000.0 -248341000000.0 -125496000000.0 -191093000000.0 -96243600000.0 -255172000000.0 -252405000000.0 -357620000000.0 -400829000000.0 -475573000000.0 -450945000000.0 -393292000000.0 -320631000000.0 -254405000000.0 -197781000000.0 -137903000000.0 -92288300000.0 -136382000000.0 -178929000000.0 -207539000000.0 -207539000000.0 -178929000000.0 -136382000000.0 -92288300000.0 -137903000000.0 -197781000000.0 -254405000000.0 -320631000000.0 -393292000000.0 -450945000000.0 -475573000000.0 -400829000000.0 -357620000000.0 -252405000000.0 -255172000000.0 -96243600000.0 -191093000000.0 -125496000000.0 -76918700000.0 -55188300000.0 -40310000000.0 -151844000000.0 -40724700000.0 -47426300000.0 -264066000000.0 -274536000000.0 -167918000000.0 -330364000000.0 -310409000000.0 -252954000000.0 -204215000000.0 -178971000000.0 -133707000000.0 -31594100000.0 -25117600000.0 -19167700000.0 -14757800000.0 -29516200000.0 -22748400000.0 -71687800000.0 -16217900000.0 -74583400000.0 -18489400000.0 -122894000000.0 -19175900000.0 -186435000000.0 -10247500000.0 -30372400000.0 -9035750000.0 -9035750000.0 -9035750000.0 -9035760000.0 -9035760000.0 -9035760000.0 -9039130000.0 -12233000000.0 -9039130000.0 -9035760000.0 -9035760000.0 -9035760000.0 -9035750000.0 -9035750000.0 -9035750000.0 -30372400000.0 -10247500000.0 -186435000000.0 -19175900000.0 -122894000000.0 -18489400000.0 -74583400000.0 -16217900000.0 -71687800000.0 -22748400000.0 -29516200000.0 -14757800000.0 -19167700000.0 -25117600000.0 -31594100000.0 -133707000000.0 -178971000000.0 -204215000000.0 -252954000000.0 -310409000000.0 -330364000000.0 -167918000000.0 -274536000000.0 -264066000000.0 -47426300000.0 -40724700000.0 -151844000000.0 -40310000000.0 -55188300000.0 -76918700000.0 -66351500000.0 -20754900000.0 -12956100000.0 -124407000000.0 -85948500000.0 -179635000000.0 -249026000000.0 -95684600000.0 -21331300000.0 -308319000000.0 -386872000000.0 -397427000000.0 -388795000000.0 -405074000000.0 -401022000000.0 -323511000000.0 -291408000000.0 -260206000000.0 -227803000000.0 -215614000000.0 -173532000000.0 -203269000000.0 -134902000000.0 -178581000000.0 -103751000000.0 -191585000000.0 -84597800000.0 -219736000000.0 -72645200000.0 -74283500000.0 -55964000000.0 -49729100000.0 -44724500000.0 -40810000000.0 -37871000000.0 -35826900000.0 -34625700000.0 -36761900000.0 -34625700000.0 -35826900000.0 -37871000000.0 -40810000000.0 -44724500000.0 -49729100000.0 -55964000000.0 -74283500000.0 -72645200000.0 -219736000000.0 -84597800000.0 -191585000000.0 -103751000000.0 -178581000000.0 -134902000000.0 -203269000000.0 -173532000000.0 -215614000000.0 -227803000000.0 -260206000000.0 -291408000000.0 -323511000000.0 -401022000000.0 -405074000000.0 -388795000000.0 -397427000000.0 -386872000000.0 -308319000000.0 -21331300000.0 -95684600000.0 -249026000000.0 -179635000000.0 -85948500000.0 -124407000000.0 -12956100000.0 -20754900000.0 -66351500000.0 -66906900000.0 -44578700000.0 -73453100000.0 -166202000000.0 -123307000000.0 -216634000000.0 -319561000000.0 -170619000000.0 -146894000000.0 -320006000000.0 -192500000000.0 -98329100000.0 -58906400000.0 -65560800000.0 -58968600000.0 -10655900000.0 -9889550000.0 -17915800000.0 -10584100000.0 -41139900000.0 -10684400000.0 -66811900000.0 -10456700000.0 -78458300000.0 -10338300000.0 -106424000000.0 -10013100000.0 -131319000000.0 -9059240000.0 -14027200000.0 -9035750000.0 -9035750000.0 -9035750000.0 -9035750000.0 -9035750000.0 -9035750000.0 -9035750000.0 -11051200000.0 -9035750000.0 -9035750000.0 -9035750000.0 -9035750000.0 -9035750000.0 -9035750000.0 -9035750000.0 -14027200000.0 -9059240000.0 -131319000000.0 -10013100000.0 -106424000000.0 -10338300000.0 -78458300000.0 -10456700000.0 -66811900000.0 -10684400000.0 -41139900000.0 -10584100000.0 -17915800000.0 -9889550000.0 -10655900000.0 -58968600000.0 -65560800000.0 -58906400000.0 -98329100000.0 -192500000000.0 -320006000000.0 -146894000000.0 -170619000000.0 -319561000000.0 -216634000000.0 -123307000000.0 -166202000000.0 -73453100000.0 -44578700000.0 -66906900000.0 -59597200000.0 -13712000000.0 -11358700000.0 -75916200000.0 -11588500000.0 -44600300000.0 -166898000000.0 -56640900000.0 -20170700000.0 -221060000000.0 -188460000000.0 -151132000000.0 -130226000000.0 -132301000000.0 -120528000000.0 -71045500000.0 -59378900000.0 -59633200000.0 -43280200000.0 -71112600000.0 -31878700000.0 -80840000000.0 -23330300000.0 -87587400000.0 -16629200000.0 -103028000000.0 -12479800000.0 -109969000000.0 -9704880000.0 -10404500000.0 -9036090000.0 -9035760000.0 -9035760000.0 -9035750000.0 -9035750000.0 -9035750000.0 -9035750000.0 -10623200000.0 -9035750000.0 -9035750000.0 -9035750000.0 -9035750000.0 -9035760000.0 -9035760000.0 -9036090000.0 -10404500000.0 -9704880000.0 -109969000000.0 -12479800000.0 -103028000000.0 -16629200000.0 -87587400000.0 -23330300000.0 -80840000000.0 -31878700000.0 -71112600000.0 -43280200000.0 -59633200000.0 -59378900000.0 -71045500000.0 -120528000000.0 -132301000000.0 -130226000000.0 -151132000000.0 -188460000000.0 -221060000000.0 -20170700000.0 -56640900000.0 -166898000000.0 -44600300000.0 -11588500000.0 -75916200000.0 -11358700000.0 -13712000000.0 -59597200000.0 -60207000000.0 -18102100000.0 -19162600000.0 -79313100000.0 -21292400000.0 -36984000000.0 -148060000000.0 -58188800000.0 -41782000000.0 -211131000000.0 -147033000000.0 -96132800000.0 -71876800000.0 -68191500000.0 -55794100000.0 -18104800000.0 -12029600000.0 -20289800000.0 -9152800000.0 -45370700000.0 -9035760000.0 -60754400000.0 -9035760000.0 -75127100000.0 -9035750000.0 -90401500000.0 -9035750000.0 -88876700000.0 -9035760000.0 -9226740000.0 -9035760000.0 -9035760000.0 -9035760000.0 -9035760000.0 -9035750000.0 -9035750000.0 -9035750000.0 -10284200000.0 -9035750000.0 -9035750000.0 -9035750000.0 -9035760000.0 -9035760000.0 -9035760000.0 -9035760000.0 -9226740000.0 -9035760000.0 -88876700000.0 -9035750000.0 -90401500000.0 -9035750000.0 -75127100000.0 -9035760000.0 -60754400000.0 -9035760000.0 -45370700000.0 -9152800000.0 -20289800000.0 -12029600000.0 -18104800000.0 -55794100000.0 -68191500000.0 -71876800000.0 -96132800000.0 -147033000000.0 -211131000000.0 -41782000000.0 -58188800000.0 -148060000000.0 -36984000000.0 -21292400000.0 -79313100000.0 -19162600000.0 -18102100000.0 -60207000000.0 -58732600000.0 -18283600000.0 -16789400000.0 -69816100000.0 -13282000000.0 -15452000000.0 -115095000000.0 -53545900000.0 -36609800000.0 -195024000000.0 -147203000000.0 -104442000000.0 -83098700000.0 -73392000000.0 -58117200000.0 -25163900000.0 -16675600000.0 -23188900000.0 -10190400000.0 -45843700000.0 -9035770000.0 -57843200000.0 -9035760000.0 -71755400000.0 -9035760000.0 -83108300000.0 -9035760000.0 -71990100000.0 -9035770000.0 -9051210000.0 -9035760000.0 -9035760000.0 -9035760000.0 -9035760000.0 -9035760000.0 -9035750000.0 -9035750000.0 -10016400000.0 -9035750000.0 -9035750000.0 -9035760000.0 -9035760000.0 -9035760000.0 -9035760000.0 -9035760000.0 -9051210000.0 -9035770000.0 -71990100000.0 -9035760000.0 -83108300000.0 -9035760000.0 -71755400000.0 -9035760000.0 -57843200000.0 -9035770000.0 -45843700000.0 -10190400000.0 -23188900000.0 -16675600000.0 -25163900000.0 -58117200000.0 -73392000000.0 -83098700000.0 -104442000000.0 -147203000000.0 -195024000000.0 -36609800000.0 -53545900000.0 -115095000000.0 -15452000000.0 -13282000000.0 -69816100000.0 -16789400000.0 -18283600000.0 -58732600000.0 -56647100000.0 -20908400000.0 -19535700000.0 -67033900000.0 -15084800000.0 -15589300000.0 -99551900000.0 -63029300000.0 -47468600000.0 -184914000000.0 -140449000000.0 -100025000000.0 -80058500000.0 -66745400000.0 -50561300000.0 -24047800000.0 -15094500000.0 -22086800000.0 -9035760000.0 -44866800000.0 -9035770000.0 -54965300000.0 -9035770000.0 -67702700000.0 -9035760000.0 -75887600000.0 -9035760000.0 -57785700000.0 -9035780000.0 -9036550000.0 -9035770000.0 -9035760000.0 -9035760000.0 -9035760000.0 -9035760000.0 -9035750000.0 -9035750000.0 -9805410000.0 -9035750000.0 -9035750000.0 -9035760000.0 -9035760000.0 -9035760000.0 -9035760000.0 -9035770000.0 -9036550000.0 -9035780000.0 -57785700000.0 -9035760000.0 -75887600000.0 -9035760000.0 -67702700000.0 -9035770000.0 -54965300000.0 -9035770000.0 -44866800000.0 -9035760000.0 -22086800000.0 -15094500000.0 -24047800000.0 -50561300000.0 -66745400000.0 -80058500000.0 -100025000000.0 -140449000000.0 -184914000000.0 -47468600000.0 -63029300000.0 -99551900000.0 -15589300000.0 -15084800000.0 -67033900000.0 -19535700000.0 -20908400000.0 -56647100000.0 -53680700000.0 -23292600000.0 -21986400000.0 -63885300000.0 -16563100000.0 -16674700000.0 -86858600000.0 -68889600000.0 -55362400000.0 -173660000000.0 -135458000000.0 -98416700000.0 -79866300000.0 -64095500000.0 -47261300000.0 -26144300000.0 -16095800000.0 -22814200000.0 -9035780000.0 -43694400000.0 -9035780000.0 -52115000000.0 -9035770000.0 -63272100000.0 -9035770000.0 -68732800000.0 -9035760000.0 -46128000000.0 -9035780000.0 -9035800000.0 -9035770000.0 -9035770000.0 -9035760000.0 -9035760000.0 -9035760000.0 -9035750000.0 -9035750000.0 -9639450000.0 -9035750000.0 -9035750000.0 -9035760000.0 -9035760000.0 -9035760000.0 -9035770000.0 -9035770000.0 -9035800000.0 -9035780000.0 -46128000000.0 -9035760000.0 -68732800000.0 -9035770000.0 -63272100000.0 -9035770000.0 -52115000000.0 -9035780000.0 -43694400000.0 -9035780000.0 -22814200000.0 -16095800000.0 -26144300000.0 -47261300000.0 -64095500000.0 -79866300000.0 -98416700000.0 -135458000000.0 -173660000000.0 -55362400000.0 -68889600000.0 -86858600000.0 -16674700000.0 -16563100000.0 -63885300000.0 -21986400000.0 -23292600000.0 -53680700000.0 -50235000000.0 -25342100000.0 -24095500000.0 -60437200000.0 -18007400000.0 -18207800000.0 -78106000000.0 -72897300000.0 -62663700000.0 -161619000000.0 -128300000000.0 -94791800000.0 -77611400000.0 -60738300000.0 -43878800000.0 -27645000000.0 -16702400000.0 -23387200000.0 -9035790000.0 -42116200000.0 -9035790000.0 -49282200000.0 -9035780000.0 -58695000000.0 -9035770000.0 -61734300000.0 -9035760000.0 -36783300000.0 -9035780000.0 -9035780000.0 -9035770000.0 -9035770000.0 -9035760000.0 -9035760000.0 -9035760000.0 -9035750000.0 -9035750000.0 -9509080000.0 -9035750000.0 -9035750000.0 -9035760000.0 -9035760000.0 -9035760000.0 -9035770000.0 -9035770000.0 -9035780000.0 -9035780000.0 -36783300000.0 -9035760000.0 -61734300000.0 -9035770000.0 -58695000000.0 -9035780000.0 -49282200000.0 -9035790000.0 -42116200000.0 -9035790000.0 -23387200000.0 -16702400000.0 -27645000000.0 -43878800000.0 -60738300000.0 -77611400000.0 -94791800000.0 -128300000000.0 -161619000000.0 -62663700000.0 -72897300000.0 -78106000000.0 -18207800000.0 -18007400000.0 -60437200000.0 -24095500000.0 -25342100000.0 -50235000000.0 -46703000000.0 -27056900000.0 -25865300000.0 -56813100000.0 -19274000000.0 -19616500000.0 -71724700000.0 -74661100000.0 -68379000000.0 -149315000000.0 -120218000000.0 -89972600000.0 -73913100000.0 -57020900000.0 -40574700000.0 -28567800000.0 -16944700000.0 -23784800000.0 -9035810000.0 -40274100000.0 -9035800000.0 -46458100000.0 -9035780000.0 -54141200000.0 -9035770000.0 -55022800000.0 -9035770000.0 -29459900000.0 -9035790000.0 -9035780000.0 -9035770000.0 -9035770000.0 -9035760000.0 -9035760000.0 -9035760000.0 -9035750000.0 -9035750000.0 -9406770000.0 -9035750000.0 -9035750000.0 -9035760000.0 -9035760000.0 -9035760000.0 -9035770000.0 -9035770000.0 -9035780000.0 -9035790000.0 -29459900000.0 -9035770000.0 -55022800000.0 -9035770000.0 -54141200000.0 -9035780000.0 -46458100000.0 -9035800000.0 -40274100000.0 -9035810000.0 -23784800000.0 -16944700000.0 -28567800000.0 -40574700000.0 -57020900000.0 -73913100000.0 -89972600000.0 -120218000000.0 -149315000000.0 -68379000000.0 -74661100000.0 -71724700000.0 -19616500000.0 -19274000000.0 -56813100000.0 -25865300000.0 -27056900000.0 -46703000000.0 -43370100000.0 -28444100000.0 -27306300000.0 -53123100000.0 -20351800000.0 -20881200000.0 -66883000000.0 -74713400000.0 -72503600000.0 -137085000000.0 -111544000000.0 -84375500000.0 -69296600000.0 -53188000000.0 -37437200000.0 -28965200000.0 -16865300000.0 -23999900000.0 -9035820000.0 -38280100000.0 -9035800000.0 -43646700000.0 -9035790000.0 -49721700000.0 -9035780000.0 -48722600000.0 -9035770000.0 -23840200000.0 -9035790000.0 -9035780000.0 -9035770000.0 -9035770000.0 -9035760000.0 -9035760000.0 -9035760000.0 -9035750000.0 -9035750000.0 -9326520000.0 -9035750000.0 -9035750000.0 -9035760000.0 -9035760000.0 -9035760000.0 -9035770000.0 -9035770000.0 -9035780000.0 -9035790000.0 -23840200000.0 -9035770000.0 -48722600000.0 -9035780000.0 -49721700000.0 -9035790000.0 -43646700000.0 -9035800000.0 -38280100000.0 -9035820000.0 -23999900000.0 -16865300000.0 -28965200000.0 -37437200000.0 -53188000000.0 -69296600000.0 -84375500000.0 -111544000000.0 -137085000000.0 -72503600000.0 -74713400000.0 -66883000000.0 -20881200000.0 -20351800000.0 -53123100000.0 -27306300000.0 -28444100000.0 -43370100000.0 -40408200000.0 -29518100000.0 -28433300000.0 -49472200000.0 -21236100000.0 -21994800000.0 -62834300000.0 -73580900000.0 -75097000000.0 -125260000000.0 -102696000000.0 -78399400000.0 -64191900000.0 -49413500000.0 -34506600000.0 -28916000000.0 -16519500000.0 -24037000000.0 -9035830000.0 -36217600000.0 -9035810000.0 -40866700000.0 -9035790000.0 -45505800000.0 -9035780000.0 -42925200000.0 -9035770000.0 -19610400000.0 -9035790000.0 -9035780000.0 -9035770000.0 -9035770000.0 -9035760000.0 -9035760000.0 -9035760000.0 -9035750000.0 -9035750000.0 -9263580000.0 -9035750000.0 -9035750000.0 -9035760000.0 -9035760000.0 -9035760000.0 -9035770000.0 -9035770000.0 -9035780000.0 -9035790000.0 -19610400000.0 -9035770000.0 -42925200000.0 -9035780000.0 -45505800000.0 -9035790000.0 -40866700000.0 -9035810000.0 -36217600000.0 -9035830000.0 -24037000000.0 -16519500000.0 -28916000000.0 -34506600000.0 -49413500000.0 -64191900000.0 -78399400000.0 -102696000000.0 -125260000000.0 -75097000000.0 -73580900000.0 -62834300000.0 -21994800000.0 -21236100000.0 -49472200000.0 -28433300000.0 -29518100000.0 -40408200000.0 -37889700000.0 -30298900000.0 -29264800000.0 -45952200000.0 -21927300000.0 -22953300000.0 -59053300000.0 -71674200000.0 -76277200000.0 -114076000000.0 -93993400000.0 -72355400000.0 -58929800000.0 -45808800000.0 -31795200000.0 -28511600000.0 -15975500000.0 -23909500000.0 -9035850000.0 -34146800000.0 -9035820000.0 -38144700000.0 -9035790000.0 -41536100000.0 -9035780000.0 -37685000000.0 -9035770000.0 -16482500000.0 -9035790000.0 -9035780000.0 -9035770000.0 -9035770000.0 -9035760000.0 -9035760000.0 -9035760000.0 -9035750000.0 -9035750000.0 -9214230000.0 -9035750000.0 -9035750000.0 -9035760000.0 -9035760000.0 -9035760000.0 -9035770000.0 -9035770000.0 -9035780000.0 -9035790000.0 -16482500000.0 -9035770000.0 -37685000000.0 -9035780000.0 -41536100000.0 -9035790000.0 -38144700000.0 -9035820000.0 -34146800000.0 -9035850000.0 -23909500000.0 -15975500000.0 -28511600000.0 -31795200000.0 -45808800000.0 -58929800000.0 -72355400000.0 -93993400000.0 -114076000000.0 -76277200000.0 -71674200000.0 -59053300000.0 -22953300000.0 -21927300000.0 -45952200000.0 -29264800000.0 -30298900000.0 -37889700000.0 -35812400000.0 -30811200000.0 -29823300000.0 -42630400000.0 -22430600000.0 -23755600000.0 -55333700000.0 -69279500000.0 -76208200000.0 -103692000000.0 -85669900000.0 -66473000000.0 -53753000000.0 -42438100000.0 -29300100000.0 -27843200000.0 -15304700000.0 -23636100000.0 -9035860000.0 -32110800000.0 -9035820000.0 -35506500000.0 -9035800000.0 -37837900000.0 -9035780000.0 -33024100000.0 -9035770000.0 -14207100000.0 -9035790000.0 -9035780000.0 -9035770000.0 -9035770000.0 -9035760000.0 -9035760000.0 -9035760000.0 -9035750000.0 -9035750000.0 -9175520000.0 -9035750000.0 -9035750000.0 -9035760000.0 -9035760000.0 -9035760000.0 -9035770000.0 -9035770000.0 -9035780000.0 -9035790000.0 -14207100000.0 -9035770000.0 -33024100000.0 -9035780000.0 -37837900000.0 -9035800000.0 -35506500000.0 -9035820000.0 -32110800000.0 -9035860000.0 -23636100000.0 -15304700000.0 -27843200000.0 -29300100000.0 -42438100000.0 -53753000000.0 -66473000000.0 -85669900000.0 -103692000000.0 -76208200000.0 -69279500000.0 -55333700000.0 -23755600000.0 -22430600000.0 -42630400000.0 -29823300000.0 -30811200000.0 -35812400000.0 -22755300000.0 -48826600000.0 -39331900000.0 -27010900000.0 -26992200000.0 -14569900000.0 -23238200000.0 -9035860000.0 -30139500000.0 -9035830000.0 -32974300000.0 -9035800000.0 -34424200000.0 -9035780000.0 -28938900000.0 -9035770000.0 -12576900000.0 -9035790000.0 -9035780000.0 -9035770000.0 -9035770000.0 -9035760000.0 -9035760000.0 -9035760000.0 -9035750000.0 -9035750000.0 -9145170000.0 -9035750000.0 -9035750000.0 -9035760000.0 -9035760000.0 -9035760000.0 -9035770000.0 -9035770000.0 -9035780000.0 -9035790000.0 -12576900000.0 -9035770000.0 -28938900000.0 -9035780000.0 -34424200000.0 -9035800000.0 -32974300000.0 -9035830000.0 -30139500000.0 -9035860000.0 -23238200000.0 -14569900000.0 -26992200000.0 -27010900000.0 -39331900000.0 -48826600000.0 -22755300000.0 -34126700000.0 -31082800000.0 -30134200000.0 -39550100000.0 -24402700000.0 -51687300000.0 -66592800000.0 -75079700000.0 -94193600000.0 -77877500000.0 -60907400000.0 -60907400000.0 -77877500000.0 -94193600000.0 -75079700000.0 -66592800000.0 -51687300000.0 -24402700000.0 -39550100000.0 -30134200000.0 -31082800000.0 -34126700000.0 -32758700000.0 -31142400000.0 -30224200000.0 -36735100000.0 -22913700000.0 -24898400000.0 -48201700000.0 -63749500000.0 -73087900000.0 -85604000000.0 -70700800000.0 -55749700000.0 -44249700000.0 -36496100000.0 -24914100000.0 -26025700000.0 -13820500000.0 -22737900000.0 -9035870000.0 -28253200000.0 -9035830000.0 -30567300000.0 -9035800000.0 -31298600000.0 -9035790000.0 -25406000000.0 -9035770000.0 -11426300000.0 -9035790000.0 -9035780000.0 -9035770000.0 -9035770000.0 -9035760000.0 -9035760000.0 -9035760000.0 -9035750000.0 -9035750000.0 -9121360000.0 -9035750000.0 -9035750000.0 -9035760000.0 -9035760000.0 -9035760000.0 -9035770000.0 -9035770000.0 -9035780000.0 -9035790000.0 -11426300000.0 -9035770000.0 -25406000000.0 -9035790000.0 -31298600000.0 -9035800000.0 -30567300000.0 -9035830000.0 -28253200000.0 -9035870000.0 -22737900000.0 -13820500000.0 -26025700000.0 -24914100000.0 -36496100000.0 -44249700000.0 -55749700000.0 -70700800000.0 -85604000000.0 -73087900000.0 -63749500000.0 -48201700000.0 -24898400000.0 -22913700000.0 -36735100000.0 -30224200000.0 -31142400000.0 -32758700000.0 -31628700000.0 -31018400000.0 -30120100000.0 -34193200000.0 -22920700000.0 -25248000000.0 -44958400000.0 -60842900000.0 -70423000000.0 -77900400000.0 -64171100000.0 -51040700000.0 -40069900000.0 -33919500000.0 -22996300000.0 -24996700000.0 -13093300000.0 -22156700000.0 -9035880000.0 -26465300000.0 -9035830000.0 -28301300000.0 -9035800000.0 -28457900000.0 -9035790000.0 -22388300000.0 -9035780000.0 -10625900000.0 -9035780000.0 -9035780000.0 -9035770000.0 -9035770000.0 -9035760000.0 -9035760000.0 -9035760000.0 -9035750000.0 -9035750000.0 -9102680000.0 -9035750000.0 -9035750000.0 -9035760000.0 -9035760000.0 -9035760000.0 -9035770000.0 -9035770000.0 -9035780000.0 -9035780000.0 -10625900000.0 -9035780000.0 -22388300000.0 -9035790000.0 -28457900000.0 -9035800000.0 -28301300000.0 -9035830000.0 -26465300000.0 -9035880000.0 -22156700000.0 -13093300000.0 -24996700000.0 -22996300000.0 -33919500000.0 -40069900000.0 -51040700000.0 -64171100000.0 -77900400000.0 -70423000000.0 -60842900000.0 -44958400000.0 -25248000000.0 -22920700000.0 -34193200000.0 -30120100000.0 -31018400000.0 -31628700000.0 -30661800000.0 -30737000000.0 -29847800000.0 -31918800000.0 -22792400000.0 -25458200000.0 -42007900000.0 -57935500000.0 -67260900000.0 -71026800000.0 -58280800000.0 -46785100000.0 -36299300000.0 -31581900000.0 -21245700000.0 -23944800000.0 -12414300000.0 -21515100000.0 -9035880000.0 -24783700000.0 -9035840000.0 -26188000000.0 -9035810000.0 -25894100000.0 -9035790000.0 -19840400000.0 -9035780000.0 -10077400000.0 -9035780000.0 -9035780000.0 -9035770000.0 -9035770000.0 -9035760000.0 -9035760000.0 -9035760000.0 -9035750000.0 -9035750000.0 -9088040000.0 -9035750000.0 -9035750000.0 -9035760000.0 -9035760000.0 -9035760000.0 -9035770000.0 -9035770000.0 -9035780000.0 -9035780000.0 -10077400000.0 -9035780000.0 -19840400000.0 -9035790000.0 -25894100000.0 -9035810000.0 -26188000000.0 -9035840000.0 -24783700000.0 -9035880000.0 -21515100000.0 -12414300000.0 -23944800000.0 -21245700000.0 -31581900000.0 -36299300000.0 -46785100000.0 -58280800000.0 -71026800000.0 -67260900000.0 -57935500000.0 -42007900000.0 -25458200000.0 -22792400000.0 -31918800000.0 -29847800000.0 -30737000000.0 -30661800000.0 -29795100000.0 -30322100000.0 -29431600000.0 -29895500000.0 -22545600000.0 -25536800000.0 -39369000000.0 -55067600000.0 -63758800000.0 -64907900000.0 -52996400000.0 -42963400000.0 -32926300000.0 -29459700000.0 -19652700000.0 -22898600000.0 -11800300000.0 -20830900000.0 -9035890000.0 -23212600000.0 -9035840000.0 -24234300000.0 -9035810000.0 -23596000000.0 -9035790000.0 -17712600000.0 -9035780000.0 -9707120000.0 -9035780000.0 -9035770000.0 -9035770000.0 -9035760000.0 -9035760000.0 -9035760000.0 -9035760000.0 -9035750000.0 -9035750000.0 -9076570000.0 -9035750000.0 -9035750000.0 -9035760000.0 -9035760000.0 -9035760000.0 -9035760000.0 -9035770000.0 -9035770000.0 -9035780000.0 -9707120000.0 -9035780000.0 -17712600000.0 -9035790000.0 -23596000000.0 -9035810000.0 -24234300000.0 -9035840000.0 -23212600000.0 -9035890000.0 -20830900000.0 -11800300000.0 -22898600000.0 -19652700000.0 -29459700000.0 -32926300000.0 -42963400000.0 -52996400000.0 -64907900000.0 -63758800000.0 -55067600000.0 -39369000000.0 -25536800000.0 -22545600000.0 -29895500000.0 -29431600000.0 -30322100000.0 -29795100000.0 -28980000000.0 -29795000000.0 -28894200000.0 -28100100000.0 -22197100000.0 -25492400000.0 -37034400000.0 -52263400000.0 -60052500000.0 -59460000000.0 -48270000000.0 -39541900000.0 -29926100000.0 -27529600000.0 -18209200000.0 -21877800000.0 -11260300000.0 -20119900000.0 -9035890000.0 -21753400000.0 -9035840000.0 -22442100000.0 -9035810000.0 -21549500000.0 -9035790000.0 -15953800000.0 -9035780000.0 -9461130000.0 -9035780000.0 -9035770000.0 -9035770000.0 -9035760000.0 -9035760000.0 -9035760000.0 -9035760000.0 -9035750000.0 -9035750000.0 -9067580000.0 -9035750000.0 -9035750000.0 -9035760000.0 -9035760000.0 -9035760000.0 -9035760000.0 -9035770000.0 -9035770000.0 -9035780000.0 -9461130000.0 -9035780000.0 -15953800000.0 -9035790000.0 -21549500000.0 -9035810000.0 -22442100000.0 -9035840000.0 -21753400000.0 -9035890000.0 -20119900000.0 -11260300000.0 -21877800000.0 -18209200000.0 -27529600000.0 -29926100000.0 -39541900000.0 -48270000000.0 -59460000000.0 -60052500000.0 -52263400000.0 -37034400000.0 -25492400000.0 -22197100000.0 -28100100000.0 -28894200000.0 -29795000000.0 -28980000000.0 -28181900000.0 -29174200000.0 -28256000000.0 -26505400000.0 -21763300000.0 -25333600000.0 -34978800000.0 -49535800000.0 -56255800000.0 -54599100000.0 -44046900000.0 -36480100000.0 -27266700000.0 -25770600000.0 -16908200000.0 -20895400000.0 -10797400000.0 -19395000000.0 -9035890000.0 -20405100000.0 -9035840000.0 -20809700000.0 -9035810000.0 -19739100000.0 -9035790000.0 -14514000000.0 -9035780000.0 -9300410000.0 -9035780000.0 -9035770000.0 -9035770000.0 -9035760000.0 -9035760000.0 -9035760000.0 -9035760000.0 -9035750000.0 -9035750000.0 -9060540000.0 -9035750000.0 -9035750000.0 -9035760000.0 -9035760000.0 -9035760000.0 -9035760000.0 -9035770000.0 -9035770000.0 -9035780000.0 -9300410000.0 -9035780000.0 -14514000000.0 -9035790000.0 -19739100000.0 -9035810000.0 -20809700000.0 -9035840000.0 -20405100000.0 -9035890000.0 -19395000000.0 -10797400000.0 -20895400000.0 -16908200000.0 -25770600000.0 -27266700000.0 -36480100000.0 -44046900000.0 -54599100000.0 -56255800000.0 -49535800000.0 -34978800000.0 -25333600000.0 -21763300000.0 -26505400000.0 -28256000000.0 -29174200000.0 -28181900000.0 -27378300000.0 -28475600000.0 -27535600000.0 -25083000000.0 -21259500000.0 -25069200000.0 -33165200000.0 -46890300000.0 -52460500000.0 -50246300000.0 -40271900000.0 -33736300000.0 -24914400000.0 -24164600000.0 -15742900000.0 -19959000000.0 -10409500000.0 -18667200000.0 -9035890000.0 -19165500000.0 -9035840000.0 -19332300000.0 -9035810000.0 -18147600000.0 -9035790000.0 -13346000000.0 -9035780000.0 -9197220000.0 -9035780000.0 -9035770000.0 -9035770000.0 -9035760000.0 -9035760000.0 -9035760000.0 -9035760000.0 -9035750000.0 -9035750000.0 -9055030000.0 -9035750000.0 -9035750000.0 -9035760000.0 -9035760000.0 -9035760000.0 -9035760000.0 -9035770000.0 -9035770000.0 -9035780000.0 -9197220000.0 -9035780000.0 -13346000000.0 -9035790000.0 -18147600000.0 -9035810000.0 -19332300000.0 -9035840000.0 -19165500000.0 -9035890000.0 -18667200000.0 -10409500000.0 -19959000000.0 -15742900000.0 -24164600000.0 -24914400000.0 -33736300000.0 -40271900000.0 -50246300000.0 -52460500000.0 -46890300000.0 -33165200000.0 -25069200000.0 -21259500000.0 -25083000000.0 -27535600000.0 -28475600000.0 -27378300000.0 -26556500000.0 -27712200000.0 -26749000000.0 -23805200000.0 -20699700000.0 -24708100000.0 -31551800000.0 -44328000000.0 -48738200000.0 -46330600000.0 -36892600000.0 -31270800000.0 -22836400000.0 -22696300000.0 -14707000000.0 -19072500000.0 -10091400000.0 -17945500000.0 -9035890000.0 -18030800000.0 -9035840000.0 -18003200000.0 -9035810000.0 -16757100000.0 -9035790000.0 -12406600000.0 -9035780000.0 -9132220000.0 -9035770000.0 -9035770000.0 -9035760000.0 -9035760000.0 -9035760000.0 -9035760000.0 -9035760000.0 -9035750000.0 -9035750000.0 -9050730000.0 -9035750000.0 -9035750000.0 -9035760000.0 -9035760000.0 -9035760000.0 -9035760000.0 -9035760000.0 -9035770000.0 -9035770000.0 -9132220000.0 -9035780000.0 -12406600000.0 -9035790000.0 -16757100000.0 -9035810000.0 -18003200000.0 -9035840000.0 -18030800000.0 -9035890000.0 -17945500000.0 -10091400000.0 -19072500000.0 -14707000000.0 -22696300000.0 -22836400000.0 -31270800000.0 -36892600000.0 -46330600000.0 -48738200000.0 -44328000000.0 -31551800000.0 -24708100000.0 -20699700000.0 -23805200000.0 -26749000000.0 -27712200000.0 -26556500000.0 -25710800000.0 -26895200000.0 -25910100000.0 -22646800000.0 -20096700000.0 -24258900000.0 -30095800000.0 -41847300000.0 -45142000000.0 -42790200000.0 -33861600000.0 -29047600000.0 -21002300000.0 -21352500000.0 -13793500000.0 -18237000000.0 -9835530000.0 -17237100000.0 -9035890000.0 -16996600000.0 -9035840000.0 -16814200000.0 -9035810000.0 -15549200000.0 -9035790000.0 -11656900000.0 -9035780000.0 -9092080000.0 -9035770000.0 -9035770000.0 -9035760000.0 -9035760000.0 -9035760000.0 -9035760000.0 -9035750000.0 -9035750000.0 -9035750000.0 -9047370000.0 -9035750000.0 -9035750000.0 -9035750000.0 -9035760000.0 -9035760000.0 -9035760000.0 -9035760000.0 -9035770000.0 -9035770000.0 -9092080000.0 -9035780000.0 -11656900000.0 -9035790000.0 -15549200000.0 -9035810000.0 -16814200000.0 -9035840000.0 -16996600000.0 -9035890000.0 -17237100000.0 -9835530000.0 -18237000000.0 -13793500000.0 -21352500000.0 -21002300000.0 -29047600000.0 -33861600000.0 -42790200000.0 -45142000000.0 -41847300000.0 -30095800000.0 -24258900000.0 -20096700000.0 -22646800000.0 -25910100000.0 -26895200000.0 -25710800000.0 -24840200000.0 -26033300000.0 -25030700000.0 -21585300000.0 -19461800000.0 -23729700000.0 -28757500000.0 -39445600000.0 -41709600000.0 -39572300000.0 -31136800000.0 -27035200000.0 -19384900000.0 -20122100000.0 -12995100000.0 -17451500000.0 -9633530000.0 -16548100000.0 -9035890000.0 -16057700000.0 -9035840000.0 -15756000000.0 -9035810000.0 -14505900000.0 -9035790000.0 -11063000000.0 -9035780000.0 -9067830000.0 -9035770000.0 -9035770000.0 -9035760000.0 -9035760000.0 -9035760000.0 -9035760000.0 -9035750000.0 -9035750000.0 -9035750000.0 -9044750000.0 -9035750000.0 -9035750000.0 -9035750000.0 -9035760000.0 -9035760000.0 -9035760000.0 -9035760000.0 -9035770000.0 -9035770000.0 -9067830000.0 -9035780000.0 -11063000000.0 -9035790000.0 -14505900000.0 -9035810000.0 -15756000000.0 -9035840000.0 -16057700000.0 -9035890000.0 -16548100000.0 -9633530000.0 -17451500000.0 -12995100000.0 -20122100000.0 -19384900000.0 -27035200000.0 -31136800000.0 -39572300000.0 -41709600000.0 -39445600000.0 -28757500000.0 -23729700000.0 -19461800000.0 -21585300000.0 -25030700000.0 -26033300000.0 -24840200000.0 -23946600000.0 -25133800000.0 -24120300000.0 -20601700000.0 -18804800000.0 -23128500000.0 -27501900000.0 -37120300000.0 -38465400000.0 -36632900000.0 -28682000000.0 -25206300000.0 -17959800000.0 -18995000000.0 -12304000000.0 -16713700000.0 -9476770000.0 -15882900000.0 -9035880000.0 -15208500000.0 -9035830000.0 -14818800000.0 -9035800000.0 -13609400000.0 -9035790000.0 -10595700000.0 -9035770000.0 -9053530000.0 -9035770000.0 -9035770000.0 -9035760000.0 -9035760000.0 -9035760000.0 -9035760000.0 -9035750000.0 -9035750000.0 -9035750000.0 -9042700000.0 -9035750000.0 -9035750000.0 -9035750000.0 -9035760000.0 -9035760000.0 -9035760000.0 -9035760000.0 -9035770000.0 -9035770000.0 -9053530000.0 -9035770000.0 -10595700000.0 -9035790000.0 -13609400000.0 -9035800000.0 -14818800000.0 -9035830000.0 -15208500000.0 -9035880000.0 -15882900000.0 -9476770000.0 -16713700000.0 -12304000000.0 -18995000000.0 -17959800000.0 -25206300000.0 -28682000000.0 -36632900000.0 -38465400000.0 -37120300000.0 -27501900000.0 -23128500000.0 -18804800000.0 -20601700000.0 -24120300000.0 -25133800000.0 -23946600000.0 -23033100000.0 -24202400000.0 -23186900000.0 -19680200000.0 -18134000000.0 -22462700000.0 -26300200000.0 -34869100000.0 -35423000000.0 -33935100000.0 -26465600000.0 -23537900000.0 -16705600000.0 -17961900000.0 -11711500000.0 -16020700000.0 -9357090000.0 -15245000000.0 -9035880000.0 -14442900000.0 -9035830000.0 -13992400000.0 -9035800000.0 -12843000000.0 -9035780000.0 -10230300000.0 -9035770000.0 -9045320000.0 -9035770000.0 -9035760000.0 -9035760000.0 -9035760000.0 -9035760000.0 -9035760000.0 -9035750000.0 -9035750000.0 -9035750000.0 -9041120000.0 -9035750000.0 -9035750000.0 -9035750000.0 -9035760000.0 -9035760000.0 -9035760000.0 -9035760000.0 -9035760000.0 -9035770000.0 -9045320000.0 -9035770000.0 -10230300000.0 -9035780000.0 -12843000000.0 -9035800000.0 -13992400000.0 -9035830000.0 -14442900000.0 -9035880000.0 -15245000000.0 -9357090000.0 -16020700000.0 -11711500000.0 -17961900000.0 -16705600000.0 -23537900000.0 -26465600000.0 -33935100000.0 -35423000000.0 -34869100000.0 -26300200000.0 -22462700000.0 -18134000000.0 -19680200000.0 -23186900000.0 -24202400000.0 -23033100000.0 -22103200000.0 -23243800000.0 -22236500000.0 -18808300000.0 -17456500000.0 -21739400000.0 -25129500000.0 -32690300000.0 -32587500000.0 -31447700000.0 -24460400000.0 -22010600000.0 -15603700000.0 -17014500000.0 -11208500000.0 -15369000000.0 -9267100000.0 -14636900000.0 -9035870000.0 -13754800000.0 -9035830000.0 -13266900000.0 -9035800000.0 -12190900000.0 -9035780000.0 -9946280000.0 -9035770000.0 -9040730000.0 -9035770000.0 -9035760000.0 -9035760000.0 -9035760000.0 -9035760000.0 -9035760000.0 -9035750000.0 -9035750000.0 -9035750000.0 -9039880000.0 -9035750000.0 -9035750000.0 -9035750000.0 -9035760000.0 -9035760000.0 -9035760000.0 -9035760000.0 -9035760000.0 -9035770000.0 -9040730000.0 -9035770000.0 -9946280000.0 -9035780000.0 -12190900000.0 -9035800000.0 -13266900000.0 -9035830000.0 -13754800000.0 -9035870000.0 -14636900000.0 -9267100000.0 -15369000000.0 -11208500000.0 -17014500000.0 -15603700000.0 -22010600000.0 -24460400000.0 -31447700000.0 -32587500000.0 -32690300000.0 -25129500000.0 -21739400000.0 -17456500000.0 -18808300000.0 -22236500000.0 -23243800000.0 -22103200000.0 -21160300000.0 -22262000000.0 -21274100000.0 -17975800000.0 -16778000000.0 -20965100000.0 -23972900000.0 -30582300000.0 -29957000000.0 -29144900000.0 -22642800000.0 -20607500000.0 -14637200000.0 -16144500000.0 -10785800000.0 -14755200000.0 -9200410000.0 -14059900000.0 -9035870000.0 -13137800000.0 -9035820000.0 -12632100000.0 -9035800000.0 -11638700000.0 -9035780000.0 -9726670000.0 -9035770000.0 -9038260000.0 -9035770000.0 -9035760000.0 -9035760000.0 -9035760000.0 -9035760000.0 -9035760000.0 -9035750000.0 -9035750000.0 -9035750000.0 -9038930000.0 -9035750000.0 -9035750000.0 -9035750000.0 -9035760000.0 -9035760000.0 -9035760000.0 -9035760000.0 -9035760000.0 -9035770000.0 -9038260000.0 -9035770000.0 -9726670000.0 -9035780000.0 -11638700000.0 -9035800000.0 -12632100000.0 -9035820000.0 -13137800000.0 -9035870000.0 -14059900000.0 -9200410000.0 -14755200000.0 -10785800000.0 -16144500000.0 -14637200000.0 -20607500000.0 -22642800000.0 -29144900000.0 -29957000000.0 -30582300000.0 -23972900000.0 -20965100000.0 -16778000000.0 -17975800000.0 -21274100000.0 -22262000000.0 -21160300000.0 -20207500000.0 -21260100000.0 -20303200000.0 -17174700000.0 -16102800000.0 -20146000000.0 -22818900000.0 -28543900000.0 -27524300000.0 -27004000000.0 -20991900000.0 -19314300000.0 -13791000000.0 -15344300000.0 -10433900000.0 -14175700000.0 -9151660000.0 -13514600000.0 -9035860000.0 -12585600000.0 -9035820000.0 -12078600000.0 -9035800000.0 -11173100000.0 -9035780000.0 -9557720000.0 -9035770000.0 -9036970000.0 -9035760000.0 -9035760000.0 -9035760000.0 -9035760000.0 -9035760000.0 -9035760000.0 -9035750000.0 -9035750000.0 -9035750000.0 -9038190000.0 -9035750000.0 -9035750000.0 -9035750000.0 -9035760000.0 -9035760000.0 -9035760000.0 -9035760000.0 -9035760000.0 -9035760000.0 -9036970000.0 -9035770000.0 -9557720000.0 -9035780000.0 -11173100000.0 -9035800000.0 -12078600000.0 -9035820000.0 -12585600000.0 -9035860000.0 -13514600000.0 -9151660000.0 -14175700000.0 -10433900000.0 -15344300000.0 -13791000000.0 -19314300000.0 -20991900000.0 -27004000000.0 -27524300000.0 -28543900000.0 -22818900000.0 -20146000000.0 -16102800000.0 -17174700000.0 -20303200000.0 -21260100000.0 -20207500000.0 -19247000000.0 -20241000000.0 -19326700000.0 -16399000000.0 -15434500000.0 -19287700000.0 -21660000000.0 -26573200000.0 -25278500000.0 -25005600000.0 -19489200000.0 -18118200000.0 -13051600000.0 -14606300000.0 -10143800000.0 -13627400000.0 -9116470000.0 -13000800000.0 -9035850000.0 -12091900000.0 -9035820000.0 -11597100000.0 -9035790000.0 -10781900000.0 -9035780000.0 -9428350000.0 -9035770000.0 -9036320000.0 -9035760000.0 -9035760000.0 -9035760000.0 -9035760000.0 -9035760000.0 -9035760000.0 -9035750000.0 -9035750000.0 -9035750000.0 -9037610000.0 -9035750000.0 -9035750000.0 -9035750000.0 -9035760000.0 -9035760000.0 -9035760000.0 -9035760000.0 -9035760000.0 -9035760000.0 -9036320000.0 -9035770000.0 -9428350000.0 -9035780000.0 -10781900000.0 -9035790000.0 -11597100000.0 -9035820000.0 -12091900000.0 -9035850000.0 -13000800000.0 -9116470000.0 -13627400000.0 -10143800000.0 -14606300000.0 -13051600000.0 -18118200000.0 -19489200000.0 -25005600000.0 -25278500000.0 -26573200000.0 -21660000000.0 -19287700000.0 -15434500000.0 -16399000000.0 -19326700000.0 -20241000000.0 -19247000000.0 -18280800000.0 -19207000000.0 -18346300000.0 -15643900000.0 -14775500000.0 -18395600000.0 -20492100000.0 -24668100000.0 -23205800000.0 -23132200000.0 -18117800000.0 -17008000000.0 -12406400000.0 -13923300000.0 -9906660000.0 -13106900000.0 -9091370000.0 -12517800000.0 -9035850000.0 -11650700000.0 -9035810000.0 -11179100000.0 -9035790000.0 -10454300000.0 -9035780000.0 -9329700000.0 -9035770000.0 -9036010000.0 -9035760000.0 -9035760000.0 -9035760000.0 -9035760000.0 -9035760000.0 -9035750000.0 -9035750000.0 -9035750000.0 -9035750000.0 -9037170000.0 -9035750000.0 -9035750000.0 -9035750000.0 -9035750000.0 -9035760000.0 -9035760000.0 -9035760000.0 -9035760000.0 -9035760000.0 -9036010000.0 -9035770000.0 -9329700000.0 -9035780000.0 -10454300000.0 -9035790000.0 -11179100000.0 -9035810000.0 -11650700000.0 -9035850000.0 -12517800000.0 -9091370000.0 -13106900000.0 -9906660000.0 -13923300000.0 -12406400000.0 -17008000000.0 -18117800000.0 -23132200000.0 -23205800000.0 -24668100000.0 -20492100000.0 -18395600000.0 -14775500000.0 -15643900000.0 -18346300000.0 -19207000000.0 -18280800000.0 -17310300000.0 -18160400000.0 -17363700000.0 -14905800000.0 -14127200000.0 -17474300000.0 -19313400000.0 -22825800000.0 -21290800000.0 -21368100000.0 -16862200000.0 -15973200000.0 -11843800000.0 -13288600000.0 -9714400000.0 -12611200000.0 -9073680000.0 -12063900000.0 -9035840000.0 -11256000000.0 -9035810000.0 -10816500000.0 -9035790000.0 -10180700000.0 -9035770000.0 -9254740000.0 -9035770000.0 -9035870000.0 -9035760000.0 -9035760000.0 -9035760000.0 -9035760000.0 -9035760000.0 -9035750000.0 -9035750000.0 -9035750000.0 -9035750000.0 -9036830000.0 -9035750000.0 -9035750000.0 -9035750000.0 -9035750000.0 -9035760000.0 -9035760000.0 -9035760000.0 -9035760000.0 -9035760000.0 -9035870000.0 -9035770000.0 -9254740000.0 -9035770000.0 -10180700000.0 -9035790000.0 -10816500000.0 -9035810000.0 -11256000000.0 -9035840000.0 -12063900000.0 -9073680000.0 -12611200000.0 -9714400000.0 -13288600000.0 -11843800000.0 -15973200000.0 -16862200000.0 -21368100000.0 -21290800000.0 -22825800000.0 -19313400000.0 -17474300000.0 -14127200000.0 -14905800000.0 -17363700000.0 -18160400000.0 -17310300000.0 -16336600000.0 -17103200000.0 -16379600000.0 -14181800000.0 -13490300000.0 -16528200000.0 -18123700000.0 -21042600000.0 -19516800000.0 -19699100000.0 -15708100000.0 -15004500000.0 -11353100000.0 -12695500000.0 -9559590000.0 -12137600000.0 -9061340000.0 -11637300000.0 -9035830000.0 -10902100000.0 -9035800000.0 -10501700000.0 -9035780000.0 -9952360000.0 -9035770000.0 -9197960000.0 -9035770000.0 -9035800000.0 -9035760000.0 -9035760000.0 -9035760000.0 -9035760000.0 -9035760000.0 -9035750000.0 -9035750000.0 -9035750000.0 -9035750000.0 -9036570000.0 -9035750000.0 -9035750000.0 -9035750000.0 -9035750000.0 -9035760000.0 -9035760000.0 -9035760000.0 -9035760000.0 -9035760000.0 -9035800000.0 -9035770000.0 -9197960000.0 -9035770000.0 -9952360000.0 -9035780000.0 -10501700000.0 -9035800000.0 -10902100000.0 -9035830000.0 -11637300000.0 -9061340000.0 -12137600000.0 -9559590000.0 -12695500000.0 -11353100000.0 -15004500000.0 -15708100000.0 -19699100000.0 -19516800000.0 -21042600000.0 -18123700000.0 -16528200000.0 -13490300000.0 -14181800000.0 -16379600000.0 -17103200000.0 -16336600000.0 -15360600000.0 -16037000000.0 -15394700000.0 -13469400000.0 -12865000000.0 -15561300000.0 -16923900000.0 -19313900000.0 -17866500000.0 -18111600000.0 -14641800000.0 -14092800000.0 -10924100000.0 -12137900000.0 -9435580000.0 -11683200000.0 -9052830000.0 -11235600000.0 -9035820000.0 -10583400000.0 -9035790000.0 -10227700000.0 -9035780000.0 -9761690000.0 -9035770000.0 -9155000000.0 -9035760000.0 -9035780000.0 -9035760000.0 -9035760000.0 -9035760000.0 -9035760000.0 -9035760000.0 -9035750000.0 -9035750000.0 -9035750000.0 -9035750000.0 -9036360000.0 -9035750000.0 -9035750000.0 -9035750000.0 -9035750000.0 -9035760000.0 -9035760000.0 -9035760000.0 -9035760000.0 -9035760000.0 -9035780000.0 -9035760000.0 -9155000000.0 -9035770000.0 -9761690000.0 -9035780000.0 -10227700000.0 -9035790000.0 -10583400000.0 -9035820000.0 -11235600000.0 -9052830000.0 -11683200000.0 -9435580000.0 -12137900000.0 -10924100000.0 -14092800000.0 -14641800000.0 -18111600000.0 -17866500000.0 -19313900000.0 -16923900000.0 -15561300000.0 -12865000000.0 -13469400000.0 -15394700000.0 -16037000000.0 -15360600000.0 -14382900000.0 -14963400000.0 -14409500000.0 -12766900000.0 -12250700000.0 -14577200000.0 -15715400000.0 -17634400000.0 -16322800000.0 -16593300000.0 -13650300000.0 -13229800000.0 -10547200000.0 -11610100000.0 -9336480000.0 -11245400000.0 -9047000000.0 -10856200000.0 -9035810000.0 -10294800000.0 -9035790000.0 -9988110000.0 -9035770000.0 -9601880000.0 -9035770000.0 -9122490000.0 -9035760000.0 -9035770000.0 -9035760000.0 -9035760000.0 -9035760000.0 -9035760000.0 -9035750000.0 -9035750000.0 -9035750000.0 -9035750000.0 -9035750000.0 -9036210000.0 -9035750000.0 -9035750000.0 -9035750000.0 -9035750000.0 -9035750000.0 -9035760000.0 -9035760000.0 -9035760000.0 -9035760000.0 -9035770000.0 -9035760000.0 -9122490000.0 -9035770000.0 -9601880000.0 -9035770000.0 -9988110000.0 -9035790000.0 -10294800000.0 -9035810000.0 -10856200000.0 -9047000000.0 -11245400000.0 -9336480000.0 -11610100000.0 -10547200000.0 -13229800000.0 -13650300000.0 -16593300000.0 -16322800000.0 -17634400000.0 -15715400000.0 -14577200000.0 -12250700000.0 -12766900000.0 -14409500000.0 -14963400000.0 -14382900000.0 -13403900000.0 -13884000000.0 -13424200000.0 -12072300000.0 -11646500000.0 -13579000000.0 -14499700000.0 -15997700000.0 -14868200000.0 -15132300000.0 -12721400000.0 -12407200000.0 -10213600000.0 -11106700000.0 -9257110000.0 -10821500000.0 -9043040000.0 -10495900000.0 -9035800000.0 -10031100000.0 -9035780000.0 -9776750000.0 -9035770000.0 -9466860000.0 -9035760000.0 -9097760000.0 -9035760000.0 -9035760000.0 -9035760000.0 -9035760000.0 -9035760000.0 -9035760000.0 -9035750000.0 -9035750000.0 -9035750000.0 -9035750000.0 -9035750000.0 -9036080000.0 -9035750000.0 -9035750000.0 -9035750000.0 -9035750000.0 -9035750000.0 -9035760000.0 -9035760000.0 -9035760000.0 -9035760000.0 -9035760000.0 -9035760000.0 -9097760000.0 -9035760000.0 -9466860000.0 -9035770000.0 -9776750000.0 -9035780000.0 -10031100000.0 -9035800000.0 -10495900000.0 -9043040000.0 -10821500000.0 -9257110000.0 -11106700000.0 -10213600000.0 -12407200000.0 -12721400000.0 -15132300000.0 -14868200000.0 -15997700000.0 -14499700000.0 -13579000000.0 -11646500000.0 -12072300000.0 -13424200000.0 -13884000000.0 -13403900000.0 -12424000000.0 -12800000000.0 -12438800000.0 -11384100000.0 -11051000000.0 -12569800000.0 -13278300000.0 -14397000000.0 -13485900000.0 -13717400000.0 -11843000000.0 -11617300000.0 -9914600000.0 -10622600000.0 -9192940000.0 -10409000000.0 -9040360000.0 -10151500000.0 -9035790000.0 -9787460000.0 -9035780000.0 -9587950000.0 -9035770000.0 -9351230000.0 -9035760000.0 -9078720000.0 -9035760000.0 -9035760000.0 -9035760000.0 -9035760000.0 -9035760000.0 -9035750000.0 -9035750000.0 -9035750000.0 -9035750000.0 -9035750000.0 -9035750000.0 -9035990000.0 -9035750000.0 -9035750000.0 -9035750000.0 -9035750000.0 -9035750000.0 -9035750000.0 -9035760000.0 -9035760000.0 -9035760000.0 -9035760000.0 -9035760000.0 -9078720000.0 -9035760000.0 -9351230000.0 -9035770000.0 -9587950000.0 -9035780000.0 -9787460000.0 -9035790000.0 -10151500000.0 -9040360000.0 -10409000000.0 -9192940000.0 -10622600000.0 -9914600000.0 -11617300000.0 -11843000000.0 -13717400000.0 -13485900000.0 -14397000000.0 -13278300000.0 -12569800000.0 -11051000000.0 -11384100000.0 -12438800000.0 -12800000000.0 -12424000000.0 -11443500000.0 -11712500000.0 -11453500000.0 -10700800000.0 -10462400000.0 -11552300000.0 -12052800000.0 -12824700000.0 -12159200000.0 -12337700000.0 -11003400000.0 -10852600000.0 -9642010000.0 -10153200000.0 -9139980000.0 -10005300000.0 -9038520000.0 -9819630000.0 -9035780000.0 -9559220000.0 -9035770000.0 -9416320000.0 -9035760000.0 -9250120000.0 -9035760000.0 -9063710000.0 -9035760000.0 -9035760000.0 -9035760000.0 -9035760000.0 -9035750000.0 -9035750000.0 -9035750000.0 -9035750000.0 -9035750000.0 -9035750000.0 -9035750000.0 -9035910000.0 -9035750000.0 -9035750000.0 -9035750000.0 -9035750000.0 -9035750000.0 -9035750000.0 -9035750000.0 -9035760000.0 -9035760000.0 -9035760000.0 -9035760000.0 -9063710000.0 -9035760000.0 -9250120000.0 -9035760000.0 -9416320000.0 -9035770000.0 -9559220000.0 -9035780000.0 -9819630000.0 -9038520000.0 -10005300000.0 -9139980000.0 -10153200000.0 -9642010000.0 -10852600000.0 -11003400000.0 -12337700000.0 -12159200000.0 -12824700000.0 -12052800000.0 -11552300000.0 -10462400000.0 -10700800000.0 -11453500000.0 -11712500000.0 -11443500000.0 -10462400000.0 -10622600000.0 -10468200000.0 -10020900000.0 -9879050000.0 -10528900000.0 -10824300000.0 -11272900000.0 -10871600000.0 -10982800000.0 -10191200000.0 -10105500000.0 -9387980000.0 -9693970000.0 -9094680000.0 -9607810000.0 -9037210000.0 -9496760000.0 -9035770000.0 -9341820000.0 -9035760000.0 -9256720000.0 -9035760000.0 -9159030000.0 -9035760000.0 -9051350000.0 -9035760000.0 -9035750000.0 -9035750000.0 -9035750000.0 -9035750000.0 -9035750000.0 -9035750000.0 -9035750000.0 -9035750000.0 -9035750000.0 -9035750000.0 -9035840000.0 -9035750000.0 -9035750000.0 -9035750000.0 -9035750000.0 -9035750000.0 -9035750000.0 -9035750000.0 -9035750000.0 -9035750000.0 -9035750000.0 -9035760000.0 -9051350000.0 -9035760000.0 -9159030000.0 -9035760000.0 -9256720000.0 -9035760000.0 -9341820000.0 -9035770000.0 -9496760000.0 -9037210000.0 -9607810000.0 -9094680000.0 -9693970000.0 -9387980000.0 -10105500000.0 -10191200000.0 -10982800000.0 -10871600000.0 -11272900000.0 -10824300000.0 -10528900000.0 -9879050000.0 -10020900000.0 -10468200000.0 -10622600000.0 -10462400000.0 -9481100000.0 -9531170000.0 -9482880000.0 -9343110000.0 -9298740000.0 -9502100000.0 -9594180000.0 -9733120000.0 -9607000000.0 -9642390000.0 -9395160000.0 -9368860000.0 -9144850000.0 -9240740000.0 -9053800000.0 -9214030000.0 -9036190000.0 -9179240000.0 -9035760000.0 -9130790000.0 -9035760000.0 -9104180000.0 -9035750000.0 -9073780000.0 -9035750000.0 -9040500000.0 -9035750000.0 -9035750000.0 -9035750000.0 -9035750000.0 -9035750000.0 -9035750000.0 -9035750000.0 -9035750000.0 -9035750000.0 -9035750000.0 -9035750000.0 -9035780000.0 -9035750000.0 -9035750000.0 -9035750000.0 -9035750000.0 -9035750000.0 -9035750000.0 -9035750000.0 -9035750000.0 -9035750000.0 -9035750000.0 -9035750000.0 -9040500000.0 -9035750000.0 -9073780000.0 -9035750000.0 -9104180000.0 -9035760000.0 -9130790000.0 -9035760000.0 -9179240000.0 -9036190000.0 -9214030000.0 -9053800000.0 -9240740000.0 -9144850000.0 -9368860000.0 -9395160000.0 -9642390000.0 -9607000000.0 -9733120000.0 -9594180000.0 -9502100000.0 -9298740000.0 -9343110000.0 -9482880000.0 -9531170000.0 -9481100000.0 
SCALARS Shear_Stress float 1
LOOKUP_TABLE default
209009000000.0 1988630000.0 1988630000.0 209009000000.0 124566000000.0 24632800000.0 11563400000.0 9080170000.0 6503970000.0 6503970000.0 9080170000.0 11563400000.0 24632800000.0 124566000000.0 131196000000.0 138562000000.0 179138000000.0 210380000000.0 71307700000.0 44665500000.0 29029000000.0 53026500000.0 38472100000.0 9981660000.0 16870400000.0 2165120000.0 7704360000.0 2945560000.0 1656260000.0 2293190000.0 1208750000.0 2826380000.0 985593000.0 2826380000.0 1208750000.0 2293190000.0 1656260000.0 2945560000.0 7704370000.0 2165110000.0 16870400000.0 9981660000.0 38472100000.0 53026500000.0 29029000000.0 44665500000.0 71307700000.0 210380000000.0 179138000000.0 138562000000.0 131196000000.0 3503540000.0 101745000000.0 165880000000.0 481372000000.0 255964000000.0 47129100000.0 76699300000.0 14101600000.0 4216230000.0 73164900000.0 57228000000.0 48073200000.0 38499500000.0 3810000000.0 33518800000.0 26509000000.0 32631100000.0 28380700000.0 33493100000.0 29095100000.0 34072800000.0 29095100000.0 33493100000.0 28380700000.0 32631100000.0 26509000000.0 33518800000.0 3809990000.0 38499500000.0 48073200000.0 57228000000.0 73164900000.0 4216230000.0 14101600000.0 76699300000.0 47129100000.0 255964000000.0 481372000000.0 165880000000.0 101745000000.0 3503540000.0 71521200000.0 122805000000.0 65048600000.0 860867000000.0 523047000000.0 447802000000.0 140504000000.0 45092900000.0 45092900000.0 140504000000.0 447802000000.0 523047000000.0 860867000000.0 65048600000.0 122805000000.0 71521200000.0 103419000000.0 62378900000.0 22622600000.0 288108000000.0 356431000000.0 180972000000.0 231556000000.0 21257500000.0 79715900000.0 33882300000.0 90657800000.0 11381800000.0 120006000000.0 59586700000.0 124649000000.0 114263000000.0 123219000000.0 114881000000.0 119742000000.0 110325000000.0 116635000000.0 110325000000.0 119742000000.0 114881000000.0 123219000000.0 114263000000.0 124649000000.0 59586700000.0 120006000000.0 11381800000.0 90657800000.0 33882300000.0 79715900000.0 21257500000.0 231556000000.0 180972000000.0 356431000000.0 288108000000.0 22622600000.0 62378900000.0 103419000000.0 64653400000.0 97253500000.0 76969600000.0 46656800000.0 84688200000.0 24735200000.0 898433000000.0 502076000000.0 361345000000.0 194026000000.0 185344000000.0 128676000000.0 6731790000.0 72300300000.0 80577600000.0 8026380000.0 110391000000.0 108671000000.0 130925000000.0 130458000000.0 144876000000.0 140480000000.0 149904000000.0 140480000000.0 144876000000.0 130458000000.0 130925000000.0 108671000000.0 110391000000.0 8026410000.0 80577600000.0 72300300000.0 6731780000.0 128676000000.0 185344000000.0 194026000000.0 361345000000.0 502076000000.0 898433000000.0 24735200000.0 84688200000.0 46656800000.0 76969600000.0 97253500000.0 64653400000.0 18547600000.0 144142000000.0 98401000000.0 168927000000.0 221874000000.0 617123000000.0 537647000000.0 329424000000.0 175357000000.0 159252000000.0 97114900000.0 97114900000.0 159252000000.0 175357000000.0 329424000000.0 537647000000.0 617123000000.0 221874000000.0 168927000000.0 98401000000.0 144142000000.0 18547600000.0 23938800000.0 222166000000.0 182263000000.0 52694400000.0 48639300000.0 166918000000.0 54285200000.0 124106000000.0 1.13231e+12 672245000000.0 417863000000.0 301550000000.0 251103000000.0 157612000000.0 13189000000.0 33626700000.0 57560300000.0 91480700000.0 26945800000.0 91688300000.0 77319800000.0 95603300000.0 86428700000.0 96811200000.0 87089100000.0 96604100000.0 87089100000.0 96811200000.0 86428700000.0 95603300000.0 77319800000.0 91688300000.0 26945700000.0 91480700000.0 57560300000.0 33626700000.0 13189000000.0 157612000000.0 251103000000.0 301550000000.0 417863000000.0 672245000000.0 1.13231e+12 124106000000.0 54285200000.0 166918000000.0 48639300000.0 52694400000.0 182263000000.0 222166000000.0 23938800000.0 77936600000.0 58871500000.0 345913000000.0 297889000000.0 290137000000.0 103765000000.0 66884100000.0 205508000000.0 129643000000.0 1.12976e+12 536205000000.0 417892000000.0 359939000000.0 286035000000.0 158805000000.0 265853000000.0 279972000000.0 43154200000.0 174412000000.0 38568900000.0 190771000000.0 172806000000.0 194693000000.0 184694000000.0 197652000000.0 187098000000.0 198012000000.0 187098000000.0 197652000000.0 184694000000.0 194693000000.0 172806000000.0 190771000000.0 38568900000.0 174412000000.0 43154200000.0 279972000000.0 265853000000.0 158805000000.0 286035000000.0 359939000000.0 417892000000.0 536205000000.0 1.12976e+12 129643000000.0 205508000000.0 66884100000.0 103765000000.0 290137000000.0 297889000000.0 345913000000.0 58871500000.0 77936600000.0 79498700000.0 374293000000.0 378400000000.0 279063000000.0 215891000000.0 175557000000.0 248201000000.0 109219000000.0 663982000000.0 519499000000.0 294412000000.0 166261000000.0 261016000000.0 261016000000.0 166261000000.0 294412000000.0 519499000000.0 663982000000.0 109219000000.0 248201000000.0 175557000000.0 215891000000.0 279063000000.0 378400000000.0 374293000000.0 79498700000.0 75483800000.0 368228000000.0 405151000000.0 474289000000.0 387194000000.0 428677000000.0 7860750000.0 90652500000.0 327158000000.0 616190000000.0 1.08994e+12 561462000000.0 299765000000.0 199223000000.0 272975000000.0 276422000000.0 245138000000.0 173022000000.0 249038000000.0 264402000000.0 125185000000.0 274085000000.0 246414000000.0 258342000000.0 238770000000.0 242424000000.0 227507000000.0 235503000000.0 227507000000.0 242424000000.0 238770000000.0 258342000000.0 246414000000.0 274085000000.0 125185000000.0 264402000000.0 249038000000.0 173022000000.0 245138000000.0 276422000000.0 272975000000.0 199223000000.0 299765000000.0 561462000000.0 1.08994e+12 616190000000.0 327158000000.0 90652500000.0 7860750000.0 428677000000.0 387194000000.0 474289000000.0 405151000000.0 368228000000.0 75483800000.0 71307700000.0 305274000000.0 332395000000.0 373555000000.0 415104000000.0 438277000000.0 484941000000.0 632424000000.0 378727000000.0 84081900000.0 96488700000.0 65249900000.0 1.18175e+12 316755000000.0 277084000000.0 356336000000.0 302123000000.0 322461000000.0 228201000000.0 218638000000.0 198226000000.0 117501000000.0 258601000000.0 242113000000.0 259409000000.0 245629000000.0 250422000000.0 239902000000.0 246504000000.0 239902000000.0 250422000000.0 245629000000.0 259409000000.0 242113000000.0 258601000000.0 117501000000.0 198226000000.0 218638000000.0 228201000000.0 322461000000.0 302123000000.0 356336000000.0 277084000000.0 316755000000.0 1.18175e+12 65249900000.0 96488700000.0 84081900000.0 378727000000.0 632424000000.0 484941000000.0 438277000000.0 415104000000.0 373555000000.0 332395000000.0 305274000000.0 71307700000.0 91015200000.0 75475700000.0 289384000000.0 441713000000.0 573536000000.0 477019000000.0 599130000000.0 7666580000.0 1103420000.0 86079300000.0 447377000000.0 215264000000.0 541052000000.0 370861000000.0 347814000000.0 290882000000.0 201925000000.0 201925000000.0 290882000000.0 347814000000.0 370861000000.0 541052000000.0 215264000000.0 447377000000.0 86079300000.0 1103420000.0 7666580000.0 599130000000.0 477019000000.0 573536000000.0 441713000000.0 289384000000.0 75475700000.0 91015200000.0 118259000000.0 339621000000.0 303498000000.0 291202000000.0 251195000000.0 359280000000.0 483873000000.0 396563000000.0 715384000000.0 822456000000.0 729898000000.0 153957000000.0 58119100000.0 89897500000.0 44467700000.0 530702000000.0 421084000000.0 352202000000.0 255396000000.0 203930000000.0 239243000000.0 182945000000.0 162685000000.0 274484000000.0 254240000000.0 265526000000.0 253623000000.0 256021000000.0 248565000000.0 252123000000.0 248565000000.0 256021000000.0 253623000000.0 265526000000.0 254240000000.0 274484000000.0 162685000000.0 182946000000.0 239243000000.0 203930000000.0 255396000000.0 352202000000.0 421084000000.0 530702000000.0 44467700000.0 89897500000.0 58119100000.0 153957000000.0 729898000000.0 822456000000.0 715384000000.0 396563000000.0 483873000000.0 359280000000.0 251195000000.0 291202000000.0 303498000000.0 339621000000.0 118259000000.0 130878000000.0 130306000000.0 368178000000.0 253024000000.0 191287000000.0 247678000000.0 177756000000.0 1.16679e+12 216101000000.0 61143700000.0 88388300000.0 296298000000.0 580711000000.0 140932000000.0 316721000000.0 387142000000.0 306342000000.0 415474000000.0 307892000000.0 257695000000.0 240881000000.0 240881000000.0 257695000000.0 307892000000.0 415474000000.0 306342000000.0 387142000000.0 316721000000.0 140932000000.0 580711000000.0 296298000000.0 88388300000.0 61143700000.0 216101000000.0 1.16679e+12 177756000000.0 247678000000.0 191287000000.0 253024000000.0 368178000000.0 130306000000.0 130878000000.0 124727000000.0 354329000000.0 371075000000.0 305808000000.0 219804000000.0 183488000000.0 26359200000.0 295906000000.0 484521000000.0 559761000000.0 1.02793e+12 363561000000.0 36722800000.0 116462000000.0 240593000000.0 461047000000.0 23603800000.0 229327000000.0 221114000000.0 238298000000.0 163812000000.0 152604000000.0 200048000000.0 279059000000.0 270255000000.0 277287000000.0 270491000000.0 269396000000.0 265954000000.0 265787000000.0 265954000000.0 269396000000.0 270491000000.0 277288000000.0 270255000000.0 279059000000.0 200048000000.0 152604000000.0 163812000000.0 238298000000.0 221114000000.0 229327000000.0 23603800000.0 461047000000.0 240593000000.0 116462000000.0 36722800000.0 363561000000.0 1.02793e+12 559761000000.0 484521000000.0 295906000000.0 26359200000.0 183488000000.0 219804000000.0 305808000000.0 371075000000.0 354329000000.0 124727000000.0 103739000000.0 329494000000.0 339321000000.0 370234000000.0 386150000000.0 349739000000.0 128423000000.0 296219000000.0 941551000000.0 937328000000.0 337239000000.0 48871100000.0 81828800000.0 213541000000.0 146259000000.0 58104700000.0 74353100000.0 355781000000.0 308974000000.0 75230100000.0 251199000000.0 95815400000.0 238939000000.0 278395000000.0 287892000000.0 287503000000.0 286103000000.0 279796000000.0 281636000000.0 276689000000.0 281636000000.0 279796000000.0 286103000000.0 287503000000.0 287892000000.0 278395000000.0 238939000000.0 95815500000.0 251199000000.0 75230100000.0 308974000000.0 355781000000.0 74353100000.0 58104700000.0 146259000000.0 213541000000.0 81828800000.0 48871100000.0 337239000000.0 937328000000.0 941551000000.0 296219000000.0 128423000000.0 349739000000.0 386150000000.0 370234000000.0 339321000000.0 329494000000.0 103739000000.0 89606900000.0 255054000000.0 300404000000.0 274143000000.0 386043000000.0 275394000000.0 412021000000.0 178723000000.0 250426000000.0 882044000000.0 8755100000.0 699639000000.0 360390000000.0 211635000000.0 12512200000.0 61084700000.0 111351000000.0 374868000000.0 303742000000.0 232244000000.0 71532000000.0 106226000000.0 162371000000.0 162371000000.0 106226000000.0 71532000000.0 232244000000.0 303742000000.0 374868000000.0 111351000000.0 61084700000.0 12512200000.0 211635000000.0 360390000000.0 699639000000.0 8755100000.0 882044000000.0 250426000000.0 178723000000.0 412021000000.0 275394000000.0 386043000000.0 274143000000.0 300404000000.0 255054000000.0 89606900000.0 90533900000.0 244696000000.0 246632000000.0 285903000000.0 445964000000.0 350444000000.0 33116400000.0 481982000000.0 43040400000.0 715842000000.0 27601400000.0 661235000000.0 37297200000.0 216240000000.0 311505000000.0 46525700000.0 310799000000.0 152930000000.0 143850000000.0 185739000000.0 106065000000.0 13114700000.0 264420000000.0 27391700000.0 281220000000.0 274807000000.0 304130000000.0 292900000000.0 296586000000.0 283400000000.0 290664000000.0 279736000000.0 290664000000.0 283400000000.0 296586000000.0 292900000000.0 304130000000.0 274807000000.0 281220000000.0 27391700000.0 264420000000.0 13114700000.0 106065000000.0 185739000000.0 143850000000.0 152930000000.0 310799000000.0 46525700000.0 311505000000.0 216240000000.0 37297200000.0 661235000000.0 27601400000.0 715842000000.0 43040400000.0 481982000000.0 33116400000.0 350444000000.0 445964000000.0 285903000000.0 246632000000.0 244696000000.0 90533900000.0 154554000000.0 291840000000.0 195070000000.0 179586000000.0 176482000000.0 364507000000.0 365198000000.0 597994000000.0 242072000000.0 274095000000.0 803692000000.0 293099000000.0 221691000000.0 179955000000.0 99488000000.0 205833000000.0 68549200000.0 160784000000.0 131951000000.0 144927000000.0 120321000000.0 92295200000.0 140103000000.0 65500800000.0 235949000000.0 199821000000.0 247350000000.0 231679000000.0 240966000000.0 225172000000.0 236855000000.0 222833000000.0 236855000000.0 225172000000.0 240966000000.0 231679000000.0 247350000000.0 199821000000.0 235949000000.0 65500800000.0 140103000000.0 92295200000.0 120321000000.0 144927000000.0 131951000000.0 160784000000.0 68549200000.0 205833000000.0 99488000000.0 179955000000.0 221691000000.0 293099000000.0 803692000000.0 274095000000.0 242072000000.0 597994000000.0 365198000000.0 364507000000.0 176482000000.0 179586000000.0 195070000000.0 291840000000.0 154554000000.0 81430100000.0 18571700000.0 8450920000.0 246475000000.0 121095000000.0 211364000000.0 104473000000.0 273254000000.0 554517000000.0 371147000000.0 7624460000.0 299369000000.0 60296500000.0 767252000000.0 627876000000.0 165589000000.0 246909000000.0 122755000000.0 239495000000.0 71195000000.0 254643000.0 121013000000.0 84303500000.0 84303400000.0 121013000000.0 254644000.0 71195000000.0 239495000000.0 122755000000.0 246909000000.0 165589000000.0 627876000000.0 767252000000.0 60296500000.0 299369000000.0 7624460000.0 371147000000.0 554517000000.0 273254000000.0 104473000000.0 211364000000.0 121095000000.0 246475000000.0 8450920000.0 18571700000.0 81430100000.0 55324000000.0 22590300000.0 435547000000.0 354000000000.0 300317000000.0 50823800000.0 11221600000.0 579035000000.0 194907000000.0 79636800000.0 222627000000.0 657806000000.0 451743000000.0 371069000000.0 250387000000.0 109473000000.0 10494700000.0 101625000000.0 126452000000.0 37470500000.0 54331600000.0 235316000000.0 15888500000.0 162638000000.0 106360000000.0 3638190000.0 180130000000.0 10257700000.0 182400000000.0 53017200000.0 14391400000.0 48037400000.0 36607000000.0 44252000000.0 30645300000.0 40194800000.0 28132900000.0 40194800000.0 30645300000.0 44252100000.0 36607000000.0 48037400000.0 14391400000.0 53017200000.0 182400000000.0 10257700000.0 180130000000.0 3638190000.0 106360000000.0 162638000000.0 15888500000.0 235316000000.0 54331600000.0 37470500000.0 126452000000.0 101625000000.0 10494700000.0 109473000000.0 250387000000.0 371069000000.0 451743000000.0 657806000000.0 222627000000.0 79636800000.0 194907000000.0 579035000000.0 11221600000.0 50823800000.0 300317000000.0 354000000000.0 435547000000.0 22590300000.0 55324000000.0 353456000000.0 270133000000.0 14520700000.0 10057000000.0 303664000000.0 348495000000.0 539518000000.0 643465000000.0 353487000000.0 364217000000.0 544973000000.0 420945000000.0 348901000000.0 358221000000.0 220026000000.0 316079000000.0 190767000000.0 51524800000.0 26058100000.0 86216000000.0 87970300000.0 61628300000.0 59553300000.0 202440000000.0 197531000000.0 232699000000.0 233847000000.0 243031000000.0 235641000000.0 245538000000.0 235797000000.0 245538000000.0 235641000000.0 243031000000.0 233847000000.0 232699000000.0 197531000000.0 202440000000.0 59553300000.0 61628300000.0 87970300000.0 86216000000.0 26058100000.0 51524800000.0 190767000000.0 316079000000.0 220026000000.0 358221000000.0 348901000000.0 420945000000.0 544973000000.0 364217000000.0 353487000000.0 643465000000.0 539518000000.0 348495000000.0 303664000000.0 10057000000.0 14520700000.0 270133000000.0 353456000000.0 101126000000.0 315771000000.0 304847000000.0 558526000000.0 206886000000.0 259270000000.0 66467200000.0 503620000000.0 414414000000.0 92545200000.0 158555000000.0 274042000000.0 304174000000.0 221203000000.0 361147000000.0 145190000000.0 279156000000.0 102389000000.0 102389000000.0 279156000000.0 145190000000.0 361147000000.0 221203000000.0 304174000000.0 274042000000.0 158555000000.0 92545200000.0 414414000000.0 503620000000.0 66467200000.0 259270000000.0 206886000000.0 558526000000.0 304847000000.0 315771000000.0 101126000000.0 309225000000.0 210791000000.0 19702500000.0 127670000000.0 566461000000.0 177601000000.0 332011000000.0 214651000000.0 256506000000.0 381320000000.0 376124000000.0 353245000000.0 400133000000.0 183574000000.0 139484000000.0 50447900000.0 134845000000.0 12797900000.0 17963500000.0 74557800000.0 93119300000.0 69120300000.0 19224000000.0 26501100000.0 142822000000.0 5520470000.0 146059000000.0 15227100000.0 21736200000.0 8924490000.0 11624600000.0 8847520000.0 16726800000.0 9597100000.0 18180900000.0 9597100000.0 16726800000.0 8847520000.0 11624600000.0 8924490000.0 21736100000.0 15227100000.0 146059000000.0 5520470000.0 142822000000.0 26501100000.0 19224000000.0 69120300000.0 93119300000.0 74557800000.0 17963500000.0 12797900000.0 134845000000.0 50447900000.0 139484000000.0 183574000000.0 400133000000.0 353245000000.0 376124000000.0 381320000000.0 256506000000.0 214651000000.0 332011000000.0 177601000000.0 566461000000.0 127670000000.0 19702500000.0 210791000000.0 309225000000.0 335938000000.0 175202000000.0 723819000000.0 107913000000.0 349017000000.0 10436000000.0 296060000000.0 325732000000.0 369685000000.0 302793000000.0 242111000000.0 234206000000.0 218356000000.0 133206000000.0 147410000000.0 595098000000.0 295540000000.0 15134600000.0 43477300000.0 36554900000.0 34386600000.0 73431000000.0 184228000000.0 130056000000.0 302669000000.0 305002000000.0 302005000000.0 298592000000.0 296415000000.0 289576000000.0 294360000000.0 286849000000.0 294360000000.0 289576000000.0 296415000000.0 298592000000.0 302005000000.0 305002000000.0 302669000000.0 130056000000.0 184228000000.0 73431000000.0 34386600000.0 36554900000.0 43477300000.0 15134600000.0 295540000000.0 595098000000.0 147410000000.0 133206000000.0 218356000000.0 234206000000.0 242111000000.0 302793000000.0 369685000000.0 325732000000.0 296060000000.0 10436000000.0 349017000000.0 107913000000.0 723819000000.0 175202000000.0 335938000000.0 199973000000.0 135295000000.0 184543000000.0 430409000000.0 7863670000.0 55014600000.0 6531730000.0 122056000000.0 144736000000.0 101001000000.0 67506900000.0 44103400000.0 2971940000.0 172098000000.0 377723000000.0 518839000000.0 551216000000.0 558569000000.0 199191000000.0 126911000000.0 126911000000.0 199191000000.0 558569000000.0 551216000000.0 518839000000.0 377723000000.0 172098000000.0 2971940000.0 44103400000.0 67506900000.0 101001000000.0 144736000000.0 122056000000.0 6531730000.0 55014600000.0 7863670000.0 430409000000.0 184543000000.0 135295000000.0 199973000000.0 18798800000.0 144938000000.0 103513000000.0 73202300000.0 212956000000.0 49248300000.0 245563000000.0 66447000000.0 77289800000.0 91666500000.0 81751500000.0 84553600000.0 101977000000.0 223467000000.0 197494000000.0 286943000000.0 191425000000.0 187866000000.0 142064000000.0 134990000000.0 45999400000.0 139357000000.0 155443000000.0 50261400000.0 108712000000.0 9018050000.0 8979620000.0 8936500000.0 8890350000.0 8839000000.0 13446500000.0 9173120000.0 15982400000.0 9173120000.0 13446500000.0 8839000000.0 8890360000.0 8936500000.0 8979620000.0 9018050000.0 108712000000.0 50261300000.0 155443000000.0 139357000000.0 45999400000.0 134990000000.0 142064000000.0 187866000000.0 191425000000.0 286943000000.0 197494000000.0 223467000000.0 101977000000.0 84553600000.0 81751500000.0 91666500000.0 77289800000.0 66447000000.0 245563000000.0 49248300000.0 212956000000.0 73202300000.0 103513000000.0 144938000000.0 18798800000.0 32051100000.0 136590000000.0 354779000000.0 335351000000.0 93736900000.0 51332200000.0 17641300000.0 55611800000.0 5463790000.0 16222600000.0 128776000000.0 17717800000.0 119950000000.0 17702300000.0 197846000000.0 91907000000.0 24061200000.0 127356000000.0 134917000000.0 141143000000.0 146103000000.0 149906000000.0 149735000000.0 154306000000.0 149357000000.0 154306000000.0 149735000000.0 149906000000.0 146103000000.0 141143000000.0 134917000000.0 127356000000.0 24061200000.0 91907000000.0 197846000000.0 17702300000.0 119950000000.0 17717800000.0 128776000000.0 16222600000.0 5463790000.0 55611800000.0 17641300000.0 51332200000.0 93736900000.0 335351000000.0 354779000000.0 136590000000.0 32051100000.0 39121600000.0 43828600000.0 84054800000.0 297639000000.0 19398800000.0 1340210000.0 180513000000.0 61336800000.0 26039900000.0 135816000000.0 110720000000.0 138441000000.0 178586000000.0 196424000000.0 185395000000.0 175615000000.0 100475000000.0 81883600000.0 97097400000.0 148232000000.0 148232000000.0 97097400000.0 81883600000.0 100475000000.0 175615000000.0 185395000000.0 196424000000.0 178586000000.0 138441000000.0 110720000000.0 135816000000.0 26039900000.0 61336800000.0 180513000000.0 1340210000.0 19398800000.0 297639000000.0 84054800000.0 43828600000.0 39121600000.0 50055800000.0 86584600000.0 25888600000.0 228899000000.0 24312700000.0 91410900000.0 50026000000.0 1816880000.0 141084000000.0 94020300000.0 89256600000.0 122301000000.0 128600000000.0 115134000000.0 81298800000.0 39585600000.0 41296800000.0 41085400000.0 11547800000.0 66158900000.0 14207900000.0 29240100000.0 687249000.0 65167700000.0 9795170000.0 180146000000.0 11730000000.0 62799500000.0 9031740000.0 9025200000.0 9020540000.0 9013270000.0 8997430000.0 10776000000.0 9084560000.0 13730000000.0 9084560000.0 10776000000.0 8997430000.0 9013270000.0 9020540000.0 9025200000.0 9031740000.0 62799500000.0 11730000000.0 180146000000.0 9795170000.0 65167700000.0 687249000.0 29240100000.0 14207900000.0 66158900000.0 11547800000.0 41085400000.0 41296800000.0 39585600000.0 81298800000.0 115134000000.0 128600000000.0 122301000000.0 89256600000.0 94020300000.0 141084000000.0 1816880000.0 50026000000.0 91410900000.0 24312700000.0 228899000000.0 25888600000.0 86584600000.0 50055800000.0 79384000000.0 160531000000.0 118497000000.0 23622900000.0 69389700000.0 81810900000.0 84448800000.0 103772000000.0 118357000000.0 66031100000.0 158517000000.0 13946000000.0 204253000000.0 169216000000.0 195566000000.0 186615000000.0 178756000000.0 172168000000.0 166789000000.0 162280000000.0 160376000000.0 155782000000.0 160376000000.0 162280000000.0 166789000000.0 172168000000.0 178756000000.0 186615000000.0 195566000000.0 169216000000.0 204253000000.0 13946000000.0 158517000000.0 66031100000.0 118357000000.0 103772000000.0 84448800000.0 81810900000.0 69389700000.0 23622900000.0 118497000000.0 160531000000.0 79384000000.0 70052700000.0 60316600000.0 23333100000.0 75827400000.0 101483000000.0 84589100000.0 135210000000.0 158757000000.0 142479000000.0 101596000000.0 64935800000.0 68902200000.0 87562300000.0 75716200000.0 30685800000.0 97462100000.0 63462100000.0 88674800000.0 88674800000.0 63462100000.0 97462100000.0 30685800000.0 75716200000.0 87562300000.0 68902200000.0 64935800000.0 101596000000.0 142479000000.0 158757000000.0 135210000000.0 84589100000.0 101483000000.0 75827400000.0 23333100000.0 60316600000.0 70052700000.0 64647200000.0 33719400000.0 21590300000.0 58870700000.0 13161800000.0 9057610000.0 109205000000.0 127147000000.0 56830600000.0 167639000000.0 125085000000.0 67956600000.0 35830900000.0 45509900000.0 60681700000.0 21786600000.0 19481000000.0 16140600000.0 7497590000.0 12406900000.0 933572000.0 48887700000.0 5179140000.0 58437200000.0 1708220000.0 100169000000.0 724639000.0 163231000000.0 8929830000.0 28808800000.0 9035750000.0 9035750000.0 9035750000.0 9035750000.0 9035750000.0 9035750000.0 9039120000.0 12233000000.0 9039120000.0 9035750000.0 9035750000.0 9035750000.0 9035750000.0 9035750000.0 9035750000.0 28808700000.0 8929830000.0 163231000000.0 724639000.0 100169000000.0 1708220000.0 58437200000.0 5179140000.0 48887700000.0 933572000.0 12406900000.0 7497590000.0 16140600000.0 19481000000.0 21786600000.0 60681700000.0 45509900000.0 35830900000.0 67956600000.0 125085000000.0 167639000000.0 56830600000.0 127147000000.0 109205000000.0 9057610000.0 13161800000.0 58870700000.0 21590300000.0 33719400000.0 64647200000.0 43940100000.0 2657620000.0 5103780000.0 44811900000.0 67154500000.0 20848600000.0 161596000000.0 59704900000.0 14061800000.0 86072100000.0 70669000000.0 189062000000.0 248000000000.0 254916000000.0 266568000000.0 301938000000.0 267562000000.0 233779000000.0 203116000000.0 159613000000.0 149763000000.0 80339700000.0 111890000000.0 36722600000.0 82347000000.0 25322900000.0 64038900000.0 84083000000.0 53309700000.0 34194200000.0 37898600000.0 31662900000.0 26656300000.0 22740500000.0 19800500000.0 17755900000.0 16547200000.0 13614700000.0 16547200000.0 17755900000.0 19800500000.0 22740500000.0 26656300000.0 31662900000.0 37898600000.0 34194200000.0 53309700000.0 84083000000.0 64038900000.0 25322900000.0 82347000000.0 36722600000.0 111890000000.0 80339700000.0 149763000000.0 159613000000.0 203116000000.0 233779000000.0 267562000000.0 301938000000.0 266568000000.0 254916000000.0 248000000000.0 189062000000.0 70669000000.0 86072100000.0 14061800000.0 59704900000.0 161596000000.0 20848600000.0 67154500000.0 44811900000.0 5103780000.0 2657620000.0 43940100000.0 45322400000.0 25474900000.0 55305800000.0 12054700000.0 104634000000.0 64464000000.0 43994500000.0 62453700000.0 126339000000.0 54483500000.0 76254700000.0 65869500000.0 50793300000.0 60411200000.0 56059700000.0 10652600000.0 9888520000.0 17427300000.0 8183150000.0 38743200000.0 8035310000.0 63784300000.0 8058560000.0 75810900000.0 7971620000.0 103867000000.0 8159730000.0 129357000000.0 9013440000.0 13979100000.0 9035750000.0 9035750000.0 9035750000.0 9035750000.0 9035750000.0 9035750000.0 9035750000.0 11051200000.0 9035750000.0 9035750000.0 9035750000.0 9035750000.0 9035750000.0 9035750000.0 9035750000.0 13979100000.0 9013440000.0 129357000000.0 8159730000.0 103867000000.0 7971620000.0 75810900000.0 8058560000.0 63784300000.0 8035310000.0 38743200000.0 8183150000.0 17427300000.0 9888520000.0 10652600000.0 56059700000.0 60411200000.0 50793300000.0 65869500000.0 76254700000.0 54483500000.0 126339000000.0 62453700000.0 43994500000.0 64464000000.0 104634000000.0 12054700000.0 55305800000.0 25474900000.0 45322400000.0 57004000000.0 10118000000.0 10139900000.0 72245600000.0 8340400000.0 44158500000.0 149678000000.0 31649600000.0 10152700000.0 177287000000.0 89069100000.0 24655500000.0 4219470000.0 668576000.0 6038660000.0 42516800000.0 37620800000.0 22085300000.0 24429500000.0 15298600000.0 13080200000.0 45254800000.0 4756660000.0 66298500000.0 1709160000.0 92342700000.0 5704280000.0 106825000000.0 8369110000.0 10351300000.0 9035420000.0 9035760000.0 9035760000.0 9035750000.0 9035750000.0 9035750000.0 9035750000.0 10623200000.0 9035750000.0 9035750000.0 9035750000.0 9035750000.0 9035760000.0 9035760000.0 9035420000.0 10351300000.0 8369110000.0 106825000000.0 5704280000.0 92342700000.0 1709160000.0 66298500000.0 4756660000.0 45254800000.0 13080200000.0 15298600000.0 24429500000.0 22085300000.0 37620800000.0 42516800000.0 6038660000.0 668575000.0 4219470000.0 24655500000.0 89069100000.0 177287000000.0 10152700000.0 31649600000.0 149678000000.0 44158500000.0 8340400000.0 72245600000.0 10139900000.0 10118000000.0 57004000000.0 58462500000.0 12251900000.0 8448910000.0 64425400000.0 1831690000.0 11488400000.0 121874000000.0 32287100000.0 10214600000.0 186794000000.0 138648000000.0 94123500000.0 71738000000.0 68103600000.0 55747800000.0 18100400000.0 12028800000.0 20286400000.0 8936830000.0 45148700000.0 9035760000.0 60750300000.0 9035760000.0 75125400000.0 9035750000.0 90401100000.0 9035750000.0 88876700000.0 9035760000.0 9226740000.0 9035760000.0 9035760000.0 9035760000.0 9035760000.0 9035750000.0 9035750000.0 9035750000.0 10284200000.0 9035750000.0 9035750000.0 9035750000.0 9035760000.0 9035760000.0 9035760000.0 9035760000.0 9226740000.0 9035760000.0 88876700000.0 9035750000.0 90401100000.0 9035750000.0 75125400000.0 9035760000.0 60750300000.0 9035760000.0 45148700000.0 8936830000.0 20286400000.0 12028800000.0 18100400000.0 55747800000.0 68103600000.0 71738000000.0 94123500000.0 138648000000.0 186794000000.0 10214600000.0 32287100000.0 121874000000.0 11488400000.0 1831690000.0 64425400000.0 8448910000.0 12251900000.0 58462500000.0 58616700000.0 18109200000.0 16730000000.0 69676400000.0 13144300000.0 15451700000.0 115080000000.0 53325200000.0 36391500000.0 191843000000.0 139120000000.0 93887500000.0 72090400000.0 63099600000.0 49000000000.0 17516400000.0 10814400000.0 19240000000.0 7900480000.0 45062300000.0 9035770000.0 57843200000.0 9035760000.0 71755400000.0 9035760000.0 83108300000.0 9035760000.0 71990100000.0 9035770000.0 9051210000.0 9035760000.0 9035760000.0 9035760000.0 9035760000.0 9035760000.0 9035750000.0 9035750000.0 10016400000.0 9035750000.0 9035750000.0 9035760000.0 9035760000.0 9035760000.0 9035760000.0 9035760000.0 9051210000.0 9035770000.0 71990100000.0 9035760000.0 83108300000.0 9035760000.0 71755400000.0 9035760000.0 57843200000.0 9035770000.0 45062300000.0 7900480000.0 19240000000.0 10814400000.0 17516400000.0 49000000000.0 63099600000.0 72090400000.0 93887500000.0 139120000000.0 191843000000.0 36391500000.0 53325200000.0 115080000000.0 15451700000.0 13144300000.0 69676400000.0 16730000000.0 18109200000.0 58616700000.0 56647100000.0 20908400000.0 19532400000.0 67030700000.0 14831900000.0 14829800000.0 98348600000.0 61535900000.0 45700200000.0 183933000000.0 140444000000.0 100023000000.0 80057700000.0 66745000000.0 50561100000.0 24047700000.0 15094500000.0 22086800000.0 9035760000.0 44866800000.0 9035770000.0 54965300000.0 9035770000.0 67702700000.0 9035760000.0 75887600000.0 9035760000.0 57785700000.0 9035780000.0 9036550000.0 9035770000.0 9035760000.0 9035760000.0 9035760000.0 9035760000.0 9035750000.0 9035750000.0 9805410000.0 9035750000.0 9035750000.0 9035760000.0 9035760000.0 9035760000.0 9035760000.0 9035770000.0 9036550000.0 9035780000.0 57785700000.0 9035760000.0 75887600000.0 9035760000.0 67702700000.0 9035770000.0 54965300000.0 9035770000.0 44866800000.0 9035760000.0 22086800000.0 15094500000.0 24047700000.0 50561100000.0 66745000000.0 80057700000.0 100023000000.0 140444000000.0 183933000000.0 45700200000.0 61535900000.0 98348600000.0 14829800000.0 14831900000.0 67030700000.0 19532400000.0 20908400000.0 56647100000.0 53680700000.0 23292600000.0 21986400000.0 63885300000.0 16563100000.0 16674700000.0 86858500000.0 68889500000.0 55362300000.0 173413000000.0 135059000000.0 98263000000.0 79858200000.0 64087400000.0 47261300000.0 26144300000.0 16095800000.0 22814200000.0 9035780000.0 43694400000.0 9035780000.0 52115000000.0 9035770000.0 63272100000.0 9035770000.0 68732800000.0 9035760000.0 46128000000.0 9035780000.0 9035800000.0 9035770000.0 9035770000.0 9035760000.0 9035760000.0 9035760000.0 9035750000.0 9035750000.0 9639450000.0 9035750000.0 9035750000.0 9035760000.0 9035760000.0 9035760000.0 9035770000.0 9035770000.0 9035800000.0 9035780000.0 46128000000.0 9035760000.0 68732800000.0 9035770000.0 63272100000.0 9035770000.0 52115000000.0 9035780000.0 43694400000.0 9035780000.0 22814200000.0 16095800000.0 26144300000.0 47261300000.0 64087400000.0 79858200000.0 98263000000.0 135059000000.0 173413000000.0 55362300000.0 68889500000.0 86858500000.0 16674700000.0 16563100000.0 63885300000.0 21986400000.0 23292600000.0 53680700000.0 50235000000.0 25342100000.0 24095500000.0 60437200000.0 18007400000.0 18207800000.0 78106000000.0 72897300000.0 62663600000.0 161619000000.0 128300000000.0 94791800000.0 77611400000.0 60738300000.0 43878800000.0 27645000000.0 16702400000.0 23387200000.0 9035790000.0 42116200000.0 9035790000.0 49282200000.0 9035780000.0 58695000000.0 9035770000.0 61734300000.0 9035760000.0 36783300000.0 9035780000.0 9035780000.0 9035770000.0 9035770000.0 9035760000.0 9035760000.0 9035760000.0 9035750000.0 9035750000.0 9509080000.0 9035750000.0 9035750000.0 9035760000.0 9035760000.0 9035760000.0 9035770000.0 9035770000.0 9035780000.0 9035780000.0 36783300000.0 9035760000.0 61734300000.0 9035770000.0 58695000000.0 9035780000.0 49282200000.0 9035790000.0 42116200000.0 9035790000.0 23387200000.0 16702400000.0 27645000000.0 43878800000.0 60738300000.0 77611400000.0 94791800000.0 128300000000.0 161619000000.0 62663600000.0 72897300000.0 78106000000.0 18207800000.0 18007400000.0 60437200000.0 24095500000.0 25342100000.0 50235000000.0 46703000000.0 27056900000.0 25865300000.0 56813100000.0 19274000000.0 19616500000.0 71724700000.0 74661100000.0 68379000000.0 149315000000.0 120218000000.0 89972600000.0 73913100000.0 57020900000.0 40574700000.0 28567800000.0 16944700000.0 23784800000.0 9035810000.0 40274100000.0 9035800000.0 46458100000.0 9035780000.0 54141200000.0 9035770000.0 55022800000.0 9035770000.0 29459900000.0 9035790000.0 9035780000.0 9035770000.0 9035770000.0 9035760000.0 9035760000.0 9035760000.0 9035750000.0 9035750000.0 9406770000.0 9035750000.0 9035750000.0 9035760000.0 9035760000.0 9035760000.0 9035770000.0 9035770000.0 9035780000.0 9035790000.0 29459900000.0 9035770000.0 55022800000.0 9035770000.0 54141200000.0 9035780000.0 46458100000.0 9035800000.0 40274100000.0 9035810000.0 23784800000.0 16944700000.0 28567800000.0 40574700000.0 57020900000.0 73913100000.0 89972600000.0 120218000000.0 149315000000.0 68379000000.0 74661100000.0 71724700000.0 19616500000.0 19274000000.0 56813100000.0 25865300000.0 27056900000.0 46703000000.0 43370100000.0 28444100000.0 27306300000.0 53123100000.0 20351800000.0 20881200000.0 66883000000.0 74713400000.0 72503600000.0 137085000000.0 111544000000.0 84375500000.0 69296600000.0 53188000000.0 37437200000.0 28965200000.0 16865300000.0 23999900000.0 9035820000.0 38280100000.0 9035800000.0 43646700000.0 9035790000.0 49721700000.0 9035780000.0 48722600000.0 9035770000.0 23840200000.0 9035790000.0 9035780000.0 9035770000.0 9035770000.0 9035760000.0 9035760000.0 9035760000.0 9035750000.0 9035750000.0 9326520000.0 9035750000.0 9035750000.0 9035760000.0 9035760000.0 9035760000.0 9035770000.0 9035770000.0 9035780000.0 9035790000.0 23840200000.0 9035770000.0 48722600000.0 9035780000.0 49721700000.0 9035790000.0 43646700000.0 9035800000.0 38280100000.0 9035820000.0 23999900000.0 16865300000.0 28965200000.0 37437200000.0 53188000000.0 69296600000.0 84375500000.0 111544000000.0 137085000000.0 72503600000.0 74713400000.0 66883000000.0 20881200000.0 20351800000.0 53123100000.0 27306300000.0 28444100000.0 43370100000.0 40408200000.0 29518100000.0 28433300000.0 49472200000.0 21236100000.0 21994800000.0 62834300000.0 73580900000.0 75097000000.0 125260000000.0 102696000000.0 78399400000.0 64191900000.0 49413500000.0 34506600000.0 28916000000.0 16519500000.0 24037000000.0 9035830000.0 36217600000.0 9035810000.0 40866700000.0 9035790000.0 45505800000.0 9035780000.0 42925200000.0 9035770000.0 19610400000.0 9035790000.0 9035780000.0 9035770000.0 9035770000.0 9035760000.0 9035760000.0 9035760000.0 9035750000.0 9035750000.0 9263580000.0 9035750000.0 9035750000.0 9035760000.0 9035760000.0 9035760000.0 9035770000.0 9035770000.0 9035780000.0 9035790000.0 19610400000.0 9035770000.0 42925200000.0 9035780000.0 45505800000.0 9035790000.0 40866700000.0 9035810000.0 36217600000.0 9035830000.0 24037000000.0 16519500000.0 28916000000.0 34506600000.0 49413500000.0 64191900000.0 78399400000.0 102696000000.0 125260000000.0 75097000000.0 73580900000.0 62834300000.0 21994800000.0 21236100000.0 49472200000.0 28433300000.0 29518100000.0 40408200000.0 37889700000.0 30298900000.0 29264800000.0 45952200000.0 21927300000.0 22953300000.0 59053300000.0 71674200000.0 76277200000.0 114076000000.0 93993400000.0 72355400000.0 58929800000.0 45808800000.0 31795200000.0 28511600000.0 15975500000.0 23909500000.0 9035850000.0 34146800000.0 9035820000.0 38144700000.0 9035790000.0 41536100000.0 9035780000.0 37685000000.0 9035770000.0 16482500000.0 9035790000.0 9035780000.0 9035770000.0 9035770000.0 9035760000.0 9035760000.0 9035760000.0 9035750000.0 9035750000.0 9214230000.0 9035750000.0 9035750000.0 9035760000.0 9035760000.0 9035760000.0 9035770000.0 9035770000.0 9035780000.0 9035790000.0 16482500000.0 9035770000.0 37685000000.0 9035780000.0 41536100000.0 9035790000.0 38144700000.0 9035820000.0 34146800000.0 9035850000.0 23909500000.0 15975500000.0 28511600000.0 31795200000.0 45808800000.0 58929800000.0 72355400000.0 93993400000.0 114076000000.0 76277200000.0 71674200000.0 59053300000.0 22953300000.0 21927300000.0 45952200000.0 29264800000.0 30298900000.0 37889700000.0 35812400000.0 30811200000.0 29823300000.0 42630400000.0 22430600000.0 23755600000.0 55333700000.0 69279500000.0 76208200000.0 103692000000.0 85669900000.0 66473000000.0 53753000000.0 42438100000.0 29300100000.0 27843200000.0 15304700000.0 23636100000.0 9035860000.0 32110800000.0 9035820000.0 35506500000.0 9035800000.0 37837900000.0 9035780000.0 33024100000.0 9035770000.0 14207100000.0 9035790000.0 9035780000.0 9035770000.0 9035770000.0 9035760000.0 9035760000.0 9035760000.0 9035750000.0 9035750000.0 9175520000.0 9035750000.0 9035750000.0 9035760000.0 9035760000.0 9035760000.0 9035770000.0 9035770000.0 9035780000.0 9035790000.0 14207100000.0 9035770000.0 33024100000.0 9035780000.0 37837900000.0 9035800000.0 35506500000.0 9035820000.0 32110800000.0 9035860000.0 23636100000.0 15304700000.0 27843200000.0 29300100000.0 42438100000.0 53753000000.0 66473000000.0 85669900000.0 103692000000.0 76208200000.0 69279500000.0 55333700000.0 23755600000.0 22430600000.0 42630400000.0 29823300000.0 30811200000.0 35812400000.0 22755300000.0 48826600000.0 39331900000.0 27010900000.0 26992200000.0 14569900000.0 23238200000.0 9035860000.0 30139500000.0 9035830000.0 32974300000.0 9035800000.0 34424200000.0 9035780000.0 28938900000.0 9035770000.0 12576900000.0 9035790000.0 9035780000.0 9035770000.0 9035770000.0 9035760000.0 9035760000.0 9035760000.0 9035750000.0 9035750000.0 9145170000.0 9035750000.0 9035750000.0 9035760000.0 9035760000.0 9035760000.0 9035770000.0 9035770000.0 9035780000.0 9035790000.0 12576900000.0 9035770000.0 28938900000.0 9035780000.0 34424200000.0 9035800000.0 32974300000.0 9035830000.0 30139500000.0 9035860000.0 23238200000.0 14569900000.0 26992200000.0 27010900000.0 39331900000.0 48826600000.0 22755300000.0 34126700000.0 31082800000.0 30134200000.0 39550100000.0 24402700000.0 51687300000.0 66592800000.0 75079700000.0 94193600000.0 77877500000.0 60907400000.0 60907400000.0 77877500000.0 94193600000.0 75079700000.0 66592800000.0 51687300000.0 24402700000.0 39550100000.0 30134200000.0 31082800000.0 34126700000.0 32758700000.0 31142400000.0 30224200000.0 36735100000.0 22913700000.0 24898400000.0 48201700000.0 63749500000.0 73087900000.0 85604000000.0 70700800000.0 55749700000.0 44249700000.0 36496100000.0 24914100000.0 26025700000.0 13820500000.0 22737900000.0 9035870000.0 28253200000.0 9035830000.0 30567300000.0 9035800000.0 31298600000.0 9035790000.0 25406000000.0 9035770000.0 11426300000.0 9035790000.0 9035780000.0 9035770000.0 9035770000.0 9035760000.0 9035760000.0 9035760000.0 9035750000.0 9035750000.0 9121360000.0 9035750000.0 9035750000.0 9035760000.0 9035760000.0 9035760000.0 9035770000.0 9035770000.0 9035780000.0 9035790000.0 11426300000.0 9035770000.0 25406000000.0 9035790000.0 31298600000.0 9035800000.0 30567300000.0 9035830000.0 28253200000.0 9035870000.0 22737900000.0 13820500000.0 26025700000.0 24914100000.0 36496100000.0 44249700000.0 55749700000.0 70700800000.0 85604000000.0 73087900000.0 63749500000.0 48201700000.0 24898400000.0 22913700000.0 36735100000.0 30224200000.0 31142400000.0 32758700000.0 31628700000.0 31018400000.0 30120100000.0 34193200000.0 22920700000.0 25248000000.0 44958400000.0 60842900000.0 70423000000.0 77900400000.0 64171100000.0 51040700000.0 40069900000.0 33919500000.0 22996300000.0 24996700000.0 13093300000.0 22156700000.0 9035880000.0 26465300000.0 9035830000.0 28301300000.0 9035800000.0 28457900000.0 9035790000.0 22388300000.0 9035780000.0 10625900000.0 9035780000.0 9035780000.0 9035770000.0 9035770000.0 9035760000.0 9035760000.0 9035760000.0 9035750000.0 9035750000.0 9102680000.0 9035750000.0 9035750000.0 9035760000.0 9035760000.0 9035760000.0 9035770000.0 9035770000.0 9035780000.0 9035780000.0 10625900000.0 9035780000.0 22388300000.0 9035790000.0 28457900000.0 9035800000.0 28301300000.0 9035830000.0 26465300000.0 9035880000.0 22156700000.0 13093300000.0 24996700000.0 22996300000.0 33919500000.0 40069900000.0 51040700000.0 64171100000.0 77900400000.0 70423000000.0 60842900000.0 44958400000.0 25248000000.0 22920700000.0 34193200000.0 30120100000.0 31018400000.0 31628700000.0 30661800000.0 30737000000.0 29847800000.0 31918800000.0 22792400000.0 25458200000.0 42007900000.0 57935500000.0 67260900000.0 71026800000.0 58280800000.0 46785100000.0 36299300000.0 31581900000.0 21245700000.0 23944800000.0 12414300000.0 21515100000.0 9035880000.0 24783700000.0 9035840000.0 26188000000.0 9035810000.0 25894100000.0 9035790000.0 19840400000.0 9035780000.0 10077400000.0 9035780000.0 9035780000.0 9035770000.0 9035770000.0 9035760000.0 9035760000.0 9035760000.0 9035750000.0 9035750000.0 9088040000.0 9035750000.0 9035750000.0 9035760000.0 9035760000.0 9035760000.0 9035770000.0 9035770000.0 9035780000.0 9035780000.0 10077400000.0 9035780000.0 19840400000.0 9035790000.0 25894100000.0 9035810000.0 26188000000.0 9035840000.0 24783700000.0 9035880000.0 21515100000.0 12414300000.0 23944800000.0 21245700000.0 31581900000.0 36299300000.0 46785100000.0 58280800000.0 71026800000.0 67260900000.0 57935500000.0 42007900000.0 25458200000.0 22792400000.0 31918800000.0 29847800000.0 30737000000.0 30661800000.0 29795100000.0 30322100000.0 29431600000.0 29895500000.0 22545600000.0 25536800000.0 39369000000.0 55067600000.0 63758800000.0 64907900000.0 52996400000.0 42963400000.0 32926300000.0 29459700000.0 19652700000.0 22898600000.0 11800300000.0 20830900000.0 9035890000.0 23212600000.0 9035840000.0 24234300000.0 9035810000.0 23596000000.0 9035790000.0 17712600000.0 9035780000.0 9707120000.0 9035780000.0 9035770000.0 9035770000.0 9035760000.0 9035760000.0 9035760000.0 9035760000.0 9035750000.0 9035750000.0 9076570000.0 9035750000.0 9035750000.0 9035760000.0 9035760000.0 9035760000.0 9035760000.0 9035770000.0 9035770000.0 9035780000.0 9707120000.0 9035780000.0 17712600000.0 9035790000.0 23596000000.0 9035810000.0 24234300000.0 9035840000.0 23212600000.0 9035890000.0 20830900000.0 11800300000.0 22898600000.0 19652700000.0 29459700000.0 32926300000.0 42963400000.0 52996400000.0 64907900000.0 63758800000.0 55067600000.0 39369000000.0 25536800000.0 22545600000.0 29895500000.0 29431600000.0 30322100000.0 29795100000.0 28980000000.0 29795000000.0 28894200000.0 28100100000.0 22197100000.0 25492400000.0 37034400000.0 52263400000.0 60052500000.0 59460000000.0 48270000000.0 39541900000.0 29926100000.0 27529600000.0 18209200000.0 21877800000.0 11260300000.0 20119900000.0 9035890000.0 21753400000.0 9035840000.0 22442100000.0 9035810000.0 21549500000.0 9035790000.0 15953800000.0 9035780000.0 9461130000.0 9035780000.0 9035770000.0 9035770000.0 9035760000.0 9035760000.0 9035760000.0 9035760000.0 9035750000.0 9035750000.0 9067580000.0 9035750000.0 9035750000.0 9035760000.0 9035760000.0 9035760000.0 9035760000.0 9035770000.0 9035770000.0 9035780000.0 9461130000.0 9035780000.0 15953800000.0 9035790000.0 21549500000.0 9035810000.0 22442100000.0 9035840000.0 21753400000.0 9035890000.0 20119900000.0 11260300000.0 21877800000.0 18209200000.0 27529600000.0 29926100000.0 39541900000.0 48270000000.0 59460000000.0 60052500000.0 52263400000.0 37034400000.0 25492400000.0 22197100000.0 28100100000.0 28894200000.0 29795000000.0 28980000000.0 28181900000.0 29174200000.0 28256000000.0 26505400000.0 21763300000.0 25333600000.0 34978800000.0 49535800000.0 56255800000.0 54599100000.0 44046900000.0 36480100000.0 27266700000.0 25770600000.0 16908200000.0 20895400000.0 10797400000.0 19395000000.0 9035890000.0 20405100000.0 9035840000.0 20809700000.0 9035810000.0 19739100000.0 9035790000.0 14514000000.0 9035780000.0 9300410000.0 9035780000.0 9035770000.0 9035770000.0 9035760000.0 9035760000.0 9035760000.0 9035760000.0 9035750000.0 9035750000.0 9060540000.0 9035750000.0 9035750000.0 9035760000.0 9035760000.0 9035760000.0 9035760000.0 9035770000.0 9035770000.0 9035780000.0 9300410000.0 9035780000.0 14514000000.0 9035790000.0 19739100000.0 9035810000.0 20809700000.0 9035840000.0 20405100000.0 9035890000.0 19395000000.0 10797400000.0 20895400000.0 16908200000.0 25770600000.0 27266700000.0 36480100000.0 44046900000.0 54599100000.0 56255800000.0 49535800000.0 34978800000.0 25333600000.0 21763300000.0 26505400000.0 28256000000.0 29174200000.0 28181900000.0 27378300000.0 28475600000.0 27535600000.0 25083000000.0 21259500000.0 25069200000.0 33165200000.0 46890300000.0 52460500000.0 50246300000.0 40271900000.0 33736300000.0 24914400000.0 24164600000.0 15742900000.0 19959000000.0 10409500000.0 18667200000.0 9035890000.0 19165500000.0 9035840000.0 19332300000.0 9035810000.0 18147600000.0 9035790000.0 13346000000.0 9035780000.0 9197220000.0 9035780000.0 9035770000.0 9035770000.0 9035760000.0 9035760000.0 9035760000.0 9035760000.0 9035750000.0 9035750000.0 9055030000.0 9035750000.0 9035750000.0 9035760000.0 9035760000.0 9035760000.0 9035760000.0 9035770000.0 9035770000.0 9035780000.0 9197220000.0 9035780000.0 13346000000.0 9035790000.0 18147600000.0 9035810000.0 19332300000.0 9035840000.0 19165500000.0 9035890000.0 18667200000.0 10409500000.0 19959000000.0 15742900000.0 24164600000.0 24914400000.0 33736300000.0 40271900000.0 50246300000.0 52460500000.0 46890300000.0 33165200000.0 25069200000.0 21259500000.0 25083000000.0 27535600000.0 28475600000.0 27378300000.0 26556500000.0 27712200000.0 26749000000.0 23805200000.0 20699700000.0 24708100000.0 31551800000.0 44328000000.0 48738200000.0 46330600000.0 36892600000.0 31270800000.0 22836400000.0 22696300000.0 14707000000.0 19072500000.0 10091400000.0 17945500000.0 9035890000.0 18030800000.0 9035840000.0 18003200000.0 9035810000.0 16757100000.0 9035790000.0 12406600000.0 9035780000.0 9132220000.0 9035770000.0 9035770000.0 9035760000.0 9035760000.0 9035760000.0 9035760000.0 9035760000.0 9035750000.0 9035750000.0 9050730000.0 9035750000.0 9035750000.0 9035760000.0 9035760000.0 9035760000.0 9035760000.0 9035760000.0 9035770000.0 9035770000.0 9132220000.0 9035780000.0 12406600000.0 9035790000.0 16757100000.0 9035810000.0 18003200000.0 9035840000.0 18030800000.0 9035890000.0 17945500000.0 10091400000.0 19072500000.0 14707000000.0 22696300000.0 22836400000.0 31270800000.0 36892600000.0 46330600000.0 48738200000.0 44328000000.0 31551800000.0 24708100000.0 20699700000.0 23805200000.0 26749000000.0 27712200000.0 26556500000.0 25710800000.0 26895200000.0 25910100000.0 22646800000.0 20096700000.0 24258900000.0 30095800000.0 41847300000.0 45142000000.0 42790200000.0 33861600000.0 29047600000.0 21002300000.0 21352500000.0 13793500000.0 18237000000.0 9835530000.0 17237100000.0 9035890000.0 16996600000.0 9035840000.0 16814200000.0 9035810000.0 15549200000.0 9035790000.0 11656900000.0 9035780000.0 9092080000.0 9035770000.0 9035770000.0 9035760000.0 9035760000.0 9035760000.0 9035760000.0 9035750000.0 9035750000.0 9035750000.0 9047370000.0 9035750000.0 9035750000.0 9035750000.0 9035760000.0 9035760000.0 9035760000.0 9035760000.0 9035770000.0 9035770000.0 9092080000.0 9035780000.0 11656900000.0 9035790000.0 15549200000.0 9035810000.0 16814200000.0 9035840000.0 16996600000.0 9035890000.0 17237100000.0 9835530000.0 18237000000.0 13793500000.0 21352500000.0 21002300000.0 29047600000.0 33861600000.0 42790200000.0 45142000000.0 41847300000.0 30095800000.0 24258900000.0 20096700000.0 22646800000.0 25910100000.0 26895200000.0 25710800000.0 24840200000.0 26033300000.0 25030700000.0 21585300000.0 19461800000.0 23729700000.0 28757500000.0 39445600000.0 41709600000.0 39572300000.0 31136800000.0 27035200000.0 19384900000.0 20122100000.0 12995100000.0 17451500000.0 9633530000.0 16548100000.0 9035890000.0 16057700000.0 9035840000.0 15756000000.0 9035810000.0 14505900000.0 9035790000.0 11063000000.0 9035780000.0 9067830000.0 9035770000.0 9035770000.0 9035760000.0 9035760000.0 9035760000.0 9035760000.0 9035750000.0 9035750000.0 9035750000.0 9044750000.0 9035750000.0 9035750000.0 9035750000.0 9035760000.0 9035760000.0 9035760000.0 9035760000.0 9035770000.0 9035770000.0 9067830000.0 9035780000.0 11063000000.0 9035790000.0 14505900000.0 9035810000.0 15756000000.0 9035840000.0 16057700000.0 9035890000.0 16548100000.0 9633530000.0 17451500000.0 12995100000.0 20122100000.0 19384900000.0 27035200000.0 31136800000.0 39572300000.0 41709600000.0 39445600000.0 28757500000.0 23729700000.0 19461800000.0 21585300000.0 25030700000.0 26033300000.0 24840200000.0 23946600000.0 25133800000.0 24120300000.0 20601700000.0 18804800000.0 23128500000.0 27501900000.0 37120300000.0 38465400000.0 36632900000.0 28682000000.0 25206300000.0 17959800000.0 18995000000.0 12304000000.0 16713700000.0 9476770000.0 15882900000.0 9035880000.0 15208500000.0 9035830000.0 14818800000.0 9035800000.0 13609400000.0 9035790000.0 10595700000.0 9035770000.0 9053530000.0 9035770000.0 9035770000.0 9035760000.0 9035760000.0 9035760000.0 9035760000.0 9035750000.0 9035750000.0 9035750000.0 9042700000.0 9035750000.0 9035750000.0 9035750000.0 9035760000.0 9035760000.0 9035760000.0 9035760000.0 9035770000.0 9035770000.0 9053530000.0 9035770000.0 10595700000.0 9035790000.0 13609400000.0 9035800000.0 14818800000.0 9035830000.0 15208500000.0 9035880000.0 15882900000.0 9476770000.0 16713700000.0 12304000000.0 18995000000.0 17959800000.0 25206300000.0 28682000000.0 36632900000.0 38465400000.0 37120300000.0 27501900000.0 23128500000.0 18804800000.0 20601700000.0 24120300000.0 25133800000.0 23946600000.0 23033100000.0 24202400000.0 23186900000.0 19680200000.0 18134000000.0 22462700000.0 26300200000.0 34869100000.0 35423000000.0 33935100000.0 26465600000.0 23537900000.0 16705600000.0 17961900000.0 11711500000.0 16020700000.0 9357090000.0 15245000000.0 9035880000.0 14442900000.0 9035830000.0 13992400000.0 9035800000.0 12843000000.0 9035780000.0 10230300000.0 9035770000.0 9045320000.0 9035770000.0 9035760000.0 9035760000.0 9035760000.0 9035760000.0 9035760000.0 9035750000.0 9035750000.0 9035750000.0 9041120000.0 9035750000.0 9035750000.0 9035750000.0 9035760000.0 9035760000.0 9035760000.0 9035760000.0 9035760000.0 9035770000.0 9045320000.0 9035770000.0 10230300000.0 9035780000.0 12843000000.0 9035800000.0 13992400000.0 9035830000.0 14442900000.0 9035880000.0 15245000000.0 9357090000.0 16020700000.0 11711500000.0 17961900000.0 16705600000.0 23537900000.0 26465600000.0 33935100000.0 35423000000.0 34869100000.0 26300200000.0 22462700000.0 18134000000.0 19680200000.0 23186900000.0 24202400000.0 23033100000.0 22103200000.0 23243800000.0 22236500000.0 18808300000.0 17456500000.0 21739400000.0 25129500000.0 32690300000.0 32587500000.0 31447700000.0 24460400000.0 22010600000.0 15603700000.0 17014500000.0 11208500000.0 15369000000.0 9267100000.0 14636900000.0 9035870000.0 13754800000.0 9035830000.0 13266900000.0 9035800000.0 12190900000.0 9035780000.0 9946280000.0 9035770000.0 9040730000.0 9035770000.0 9035760000.0 9035760000.0 9035760000.0 9035760000.0 9035760000.0 9035750000.0 9035750000.0 9035750000.0 9039880000.0 9035750000.0 9035750000.0 9035750000.0 9035760000.0 9035760000.0 9035760000.0 9035760000.0 9035760000.0 9035770000.0 9040730000.0 9035770000.0 9946280000.0 9035780000.0 12190900000.0 9035800000.0 13266900000.0 9035830000.0 13754800000.0 9035870000.0 14636900000.0 9267100000.0 15369000000.0 11208500000.0 17014500000.0 15603700000.0 22010600000.0 24460400000.0 31447700000.0 32587500000.0 32690300000.0 25129500000.0 21739400000.0 17456500000.0 18808300000.0 22236500000.0 23243800000.0 22103200000.0 21160300000.0 22262000000.0 21274100000.0 17975800000.0 16778000000.0 20965100000.0 23972900000.0 30582300000.0 29957000000.0 29144900000.0 22642800000.0 20607500000.0 14637200000.0 16144500000.0 10785800000.0 14755200000.0 9200410000.0 14059900000.0 9035870000.0 13137800000.0 9035820000.0 12632100000.0 9035800000.0 11638700000.0 9035780000.0 9726670000.0 9035770000.0 9038260000.0 9035770000.0 9035760000.0 9035760000.0 9035760000.0 9035760000.0 9035760000.0 9035750000.0 9035750000.0 9035750000.0 9038930000.0 9035750000.0 9035750000.0 9035750000.0 9035760000.0 9035760000.0 9035760000.0 9035760000.0 9035760000.0 9035770000.0 9038260000.0 9035770000.0 9726670000.0 9035780000.0 11638700000.0 9035800000.0 12632100000.0 9035820000.0 13137800000.0 9035870000.0 14059900000.0 9200410000.0 14755200000.0 10785800000.0 16144500000.0 14637200000.0 20607500000.0 22642800000.0 29144900000.0 29957000000.0 30582300000.0 23972900000.0 20965100000.0 16778000000.0 17975800000.0 21274100000.0 22262000000.0 21160300000.0 20207500000.0 21260100000.0 20303200000.0 17174700000.0 16102800000.0 20146000000.0 22818900000.0 28543900000.0 27524300000.0 27004000000.0 20991900000.0 19314300000.0 13791000000.0 15344300000.0 10433900000.0 14175700000.0 9151660000.0 13514600000.0 9035860000.0 12585600000.0 9035820000.0 12078600000.0 9035800000.0 11173100000.0 9035780000.0 9557720000.0 9035770000.0 9036970000.0 9035760000.0 9035760000.0 9035760000.0 9035760000.0 9035760000.0 9035760000.0 9035750000.0 9035750000.0 9035750000.0 9038190000.0 9035750000.0 9035750000.0 9035750000.0 9035760000.0 9035760000.0 9035760000.0 9035760000.0 9035760000.0 9035760000.0 9036970000.0 9035770000.0 9557720000.0 9035780000.0 11173100000.0 9035800000.0 12078600000.0 9035820000.0 12585600000.0 9035860000.0 13514600000.0 9151660000.0 14175700000.0 10433900000.0 15344300000.0 13791000000.0 19314300000.0 20991900000.0 27004000000.0 27524300000.0 28543900000.0 22818900000.0 20146000000.0 16102800000.0 17174700000.0 20303200000.0 21260100000.0 20207500000.0 19247000000.0 20241000000.0 19326700000.0 16399000000.0 15434500000.0 19287700000.0 21660000000.0 26573200000.0 25278500000.0 25005600000.0 19489200000.0 18118200000.0 13051600000.0 14606300000.0 10143800000.0 13627400000.0 9116470000.0 13000800000.0 9035850000.0 12091900000.0 9035820000.0 11597100000.0 9035790000.0 10781900000.0 9035780000.0 9428350000.0 9035770000.0 9036320000.0 9035760000.0 9035760000.0 9035760000.0 9035760000.0 9035760000.0 9035760000.0 9035750000.0 9035750000.0 9035750000.0 9037610000.0 9035750000.0 9035750000.0 9035750000.0 9035760000.0 9035760000.0 9035760000.0 9035760000.0 9035760000.0 9035760000.0 9036320000.0 9035770000.0 9428350000.0 9035780000.0 10781900000.0 9035790000.0 11597100000.0 9035820000.0 12091900000.0 9035850000.0 13000800000.0 9116470000.0 13627400000.0 10143800000.0 14606300000.0 13051600000.0 18118200000.0 19489200000.0 25005600000.0 25278500000.0 26573200000.0 21660000000.0 19287700000.0 15434500000.0 16399000000.0 19326700000.0 20241000000.0 19247000000.0 18280800000.0 19207000000.0 18346300000.0 15643900000.0 14775500000.0 18395600000.0 20492100000.0 24668100000.0 23205800000.0 23132200000.0 18117800000.0 17008000000.0 12406400000.0 13923300000.0 9906660000.0 13106900000.0 9091370000.0 12517800000.0 9035850000.0 11650700000.0 9035810000.0 11179100000.0 9035790000.0 10454300000.0 9035780000.0 9329700000.0 9035770000.0 9036010000.0 9035760000.0 9035760000.0 9035760000.0 9035760000.0 9035760000.0 9035750000.0 9035750000.0 9035750000.0 9035750000.0 9037170000.0 9035750000.0 9035750000.0 9035750000.0 9035750000.0 9035760000.0 9035760000.0 9035760000.0 9035760000.0 9035760000.0 9036010000.0 9035770000.0 9329700000.0 9035780000.0 10454300000.0 9035790000.0 11179100000.0 9035810000.0 11650700000.0 9035850000.0 12517800000.0 9091370000.0 13106900000.0 9906660000.0 13923300000.0 12406400000.0 17008000000.0 18117800000.0 23132200000.0 23205800000.0 24668100000.0 20492100000.0 18395600000.0 14775500000.0 15643900000.0 18346300000.0 19207000000.0 18280800000.0 17310300000.0 18160400000.0 17363700000.0 14905800000.0 14127200000.0 17474300000.0 19313400000.0 22825800000.0 21290800000.0 21368100000.0 16862200000.0 15973200000.0 11843800000.0 13288600000.0 9714400000.0 12611200000.0 9073680000.0 12063900000.0 9035840000.0 11256000000.0 9035810000.0 10816500000.0 9035790000.0 10180700000.0 9035770000.0 9254740000.0 9035770000.0 9035870000.0 9035760000.0 9035760000.0 9035760000.0 9035760000.0 9035760000.0 9035750000.0 9035750000.0 9035750000.0 9035750000.0 9036830000.0 9035750000.0 9035750000.0 9035750000.0 9035750000.0 9035760000.0 9035760000.0 9035760000.0 9035760000.0 9035760000.0 9035870000.0 9035770000.0 9254740000.0 9035770000.0 10180700000.0 9035790000.0 10816500000.0 9035810000.0 11256000000.0 9035840000.0 12063900000.0 9073680000.0 12611200000.0 9714400000.0 13288600000.0 11843800000.0 15973200000.0 16862200000.0 21368100000.0 21290800000.0 22825800000.0 19313400000.0 17474300000.0 14127200000.0 14905800000.0 17363700000.0 18160400000.0 17310300000.0 16336600000.0 17103200000.0 16379600000.0 14181800000.0 13490300000.0 16528200000.0 18123700000.0 21042600000.0 19516800000.0 19699100000.0 15708100000.0 15004500000.0 11353100000.0 12695500000.0 9559590000.0 12137600000.0 9061340000.0 11637300000.0 9035830000.0 10902100000.0 9035800000.0 10501700000.0 9035780000.0 9952360000.0 9035770000.0 9197960000.0 9035770000.0 9035800000.0 9035760000.0 9035760000.0 9035760000.0 9035760000.0 9035760000.0 9035750000.0 9035750000.0 9035750000.0 9035750000.0 9036570000.0 9035750000.0 9035750000.0 9035750000.0 9035750000.0 9035760000.0 9035760000.0 9035760000.0 9035760000.0 9035760000.0 9035800000.0 9035770000.0 9197960000.0 9035770000.0 9952360000.0 9035780000.0 10501700000.0 9035800000.0 10902100000.0 9035830000.0 11637300000.0 9061340000.0 12137600000.0 9559590000.0 12695500000.0 11353100000.0 15004500000.0 15708100000.0 19699100000.0 19516800000.0 21042600000.0 18123700000.0 16528200000.0 13490300000.0 14181800000.0 16379600000.0 17103200000.0 16336600000.0 15360600000.0 16037000000.0 15394700000.0 13469400000.0 12865000000.0 15561300000.0 16923900000.0 19313900000.0 17866500000.0 18111600000.0 14641800000.0 14092800000.0 10924100000.0 12137900000.0 9435580000.0 11683200000.0 9052830000.0 11235600000.0 9035820000.0 10583400000.0 9035790000.0 10227700000.0 9035780000.0 9761690000.0 9035770000.0 9155000000.0 9035760000.0 9035780000.0 9035760000.0 9035760000.0 9035760000.0 9035760000.0 9035760000.0 9035750000.0 9035750000.0 9035750000.0 9035750000.0 9036360000.0 9035750000.0 9035750000.0 9035750000.0 9035750000.0 9035760000.0 9035760000.0 9035760000.0 9035760000.0 9035760000.0 9035780000.0 9035760000.0 9155000000.0 9035770000.0 9761690000.0 9035780000.0 10227700000.0 9035790000.0 10583400000.0 9035820000.0 11235600000.0 9052830000.0 11683200000.0 9435580000.0 12137900000.0 10924100000.0 14092800000.0 14641800000.0 18111600000.0 17866500000.0 19313900000.0 16923900000.0 15561300000.0 12865000000.0 13469400000.0 15394700000.0 16037000000.0 15360600000.0 14382900000.0 14963400000.0 14409500000.0 12766900000.0 12250700000.0 14577200000.0 15715400000.0 17634400000.0 16322800000.0 16593300000.0 13650300000.0 13229800000.0 10547200000.0 11610100000.0 9336480000.0 11245400000.0 9047000000.0 10856200000.0 9035810000.0 10294800000.0 9035790000.0 9988110000.0 9035770000.0 9601880000.0 9035770000.0 9122490000.0 9035760000.0 9035770000.0 9035760000.0 9035760000.0 9035760000.0 9035760000.0 9035750000.0 9035750000.0 9035750000.0 9035750000.0 9035750000.0 9036210000.0 9035750000.0 9035750000.0 9035750000.0 9035750000.0 9035750000.0 9035760000.0 9035760000.0 9035760000.0 9035760000.0 9035770000.0 9035760000.0 9122490000.0 9035770000.0 9601880000.0 9035770000.0 9988110000.0 9035790000.0 10294800000.0 9035810000.0 10856200000.0 9047000000.0 11245400000.0 9336480000.0 11610100000.0 10547200000.0 13229800000.0 13650300000.0 16593300000.0 16322800000.0 17634400000.0 15715400000.0 14577200000.0 12250700000.0 12766900000.0 14409500000.0 14963400000.0 14382900000.0 13403900000.0 13884000000.0 13424200000.0 12072300000.0 11646500000.0 13579000000.0 14499700000.0 15997700000.0 14868200000.0 15132300000.0 12721400000.0 12407200000.0 10213600000.0 11106700000.0 9257110000.0 10821500000.0 9043040000.0 10495900000.0 9035800000.0 10031100000.0 9035780000.0 9776750000.0 9035770000.0 9466860000.0 9035760000.0 9097760000.0 9035760000.0 9035760000.0 9035760000.0 9035760000.0 9035760000.0 9035760000.0 9035750000.0 9035750000.0 9035750000.0 9035750000.0 9035750000.0 9036080000.0 9035750000.0 9035750000.0 9035750000.0 9035750000.0 9035750000.0 9035760000.0 9035760000.0 9035760000.0 9035760000.0 9035760000.0 9035760000.0 9097760000.0 9035760000.0 9466860000.0 9035770000.0 9776750000.0 9035780000.0 10031100000.0 9035800000.0 10495900000.0 9043040000.0 10821500000.0 9257110000.0 11106700000.0 10213600000.0 12407200000.0 12721400000.0 15132300000.0 14868200000.0 15997700000.0 14499700000.0 13579000000.0 11646500000.0 12072300000.0 13424200000.0 13884000000.0 13403900000.0 12424000000.0 12800000000.0 12438800000.0 11384100000.0 11051000000.0 12569800000.0 13278300000.0 14397000000.0 13485900000.0 13717400000.0 11843000000.0 11617300000.0 9914600000.0 10622600000.0 9192940000.0 10409000000.0 9040360000.0 10151500000.0 9035790000.0 9787460000.0 9035780000.0 9587950000.0 9035770000.0 9351230000.0 9035760000.0 9078720000.0 9035760000.0 9035760000.0 9035760000.0 9035760000.0 9035760000.0 9035750000.0 9035750000.0 9035750000.0 9035750000.0 9035750000.0 9035750000.0 9035990000.0 9035750000.0 9035750000.0 9035750000.0 9035750000.0 9035750000.0 9035750000.0 9035760000.0 9035760000.0 9035760000.0 9035760000.0 9035760000.0 9078720000.0 9035760000.0 9351230000.0 9035770000.0 9587950000.0 9035780000.0 9787460000.0 9035790000.0 10151500000.0 9040360000.0 10409000000.0 9192940000.0 10622600000.0 9914600000.0 11617300000.0 11843000000.0 13717400000.0 13485900000.0 14397000000.0 13278300000.0 12569800000.0 11051000000.0 11384100000.0 12438800000.0 12800000000.0 12424000000.0 11443500000.0 11712500000.0 11453500000.0 10700800000.0 10462400000.0 11552300000.0 12052800000.0 12824700000.0 12159200000.0 12337700000.0 11003400000.0 10852600000.0 9642010000.0 10153200000.0 9139980000.0 10005300000.0 9038520000.0 9819630000.0 9035780000.0 9559220000.0 9035770000.0 9416320000.0 9035760000.0 9250120000.0 9035760000.0 9063710000.0 9035760000.0 9035760000.0 9035760000.0 9035760000.0 9035750000.0 9035750000.0 9035750000.0 9035750000.0 9035750000.0 9035750000.0 9035750000.0 9035910000.0 9035750000.0 9035750000.0 9035750000.0 9035750000.0 9035750000.0 9035750000.0 9035750000.0 9035760000.0 9035760000.0 9035760000.0 9035760000.0 9063710000.0 9035760000.0 9250120000.0 9035760000.0 9416320000.0 9035770000.0 9559220000.0 9035780000.0 9819630000.0 9038520000.0 10005300000.0 9139980000.0 10153200000.0 9642010000.0 10852600000.0 11003400000.0 12337700000.0 12159200000.0 12824700000.0 12052800000.0 11552300000.0 10462400000.0 10700800000.0 11453500000.0 11712500000.0 11443500000.0 10462400000.0 10622600000.0 10468200000.0 10020900000.0 9879050000.0 10528900000.0 10824300000.0 11272900000.0 10871600000.0 10982800000.0 10191200000.0 10105500000.0 9387980000.0 9693970000.0 9094680000.0 9607810000.0 9037210000.0 9496760000.0 9035770000.0 9341820000.0 9035760000.0 9256720000.0 9035760000.0 9159030000.0 9035760000.0 9051350000.0 9035760000.0 9035750000.0 9035750000.0 9035750000.0 9035750000.0 9035750000.0 9035750000.0 9035750000.0 9035750000.0 9035750000.0 9035750000.0 9035840000.0 9035750000.0 9035750000.0 9035750000.0 9035750000.0 9035750000.0 9035750000.0 9035750000.0 9035750000.0 9035750000.0 9035750000.0 9035760000.0 9051350000.0 9035760000.0 9159030000.0 9035760000.0 9256720000.0 9035760000.0 9341820000.0 9035770000.0 9496760000.0 9037210000.0 9607810000.0 9094680000.0 9693970000.0 9387980000.0 10105500000.0 10191200000.0 10982800000.0 10871600000.0 11272900000.0 10824300000.0 10528900000.0 9879050000.0 10020900000.0 10468200000.0 10622600000.0 10462400000.0 9481100000.0 9531170000.0 9482880000.0 9343110000.0 9298740000.0 9502100000.0 9594180000.0 9733120000.0 9607000000.0 9642390000.0 9395160000.0 9368860000.0 9144850000.0 9240740000.0 9053800000.0 9214030000.0 9036190000.0 9179240000.0 9035760000.0 9130790000.0 9035760000.0 9104180000.0 9035750000.0 9073780000.0 9035750000.0 9040500000.0 9035750000.0 9035750000.0 9035750000.0 9035750000.0 9035750000.0 9035750000.0 9035750000.0 9035750000.0 9035750000.0 9035750000.0 9035750000.0 9035780000.0 9035750000.0 9035750000.0 9035750000.0 9035750000.0 9035750000.0 9035750000.0 9035750000.0 9035750000.0 9035750000.0 9035750000.0 9035750000.0 9040500000.0 9035750000.0 9073780000.0 9035750000.0 9104180000.0 9035760000.0 9130790000.0 9035760000.0 9179240000.0 9036190000.0 9214030000.0 9053800000.0 9240740000.0 9144850000.0 9368860000.0 9395160000.0 9642390000.0 9607000000.0 9733120000.0 9594180000.0 9502100000.0 9298740000.0 9343110000.0 9482880000.0 9531170000.0 9481100000.0 