# vtk DataFile Version 2.0
Time step 35
ASCII
DATASET UNSTRUCTURED_GRID
POINTS 5000 float
204444.0 365582.0 0
289475.0 366868.0 0
297342.0 367494.0 0
202702.0 370501.0 0
210411.0 368241.0 0
206182.0 368804.0 0
214533.0 372184.0 0
219815.0 372264.0 0
224860.0 372781.0 0
273643.0 371656.0 0
279056.0 372918.0 0
284956.0 371266.0 0
291722.0 372146.0 0
193878.0 381006.0 0
201232.0 376713.0 0
197884.0 379806.0 0
205070.0 375029.0 0
207175.0 371676.0 0
210052.0 374871.0 0
214405.0 377679.0 0
219052.0 376679.0 0
223040.0 377532.0 0
229289.0 374192.0 0
226842.0 376502.0 0
233871.0 373535.0 0
236125.0 378613.0 0
240002.0 374922.0 0
245326.0 376569.0 0
251685.0 376537.0 0
257782.0 375236.0 0
262471.0 375630.0 0
267238.0 374204.0 0
271762.0 376483.0 0
275670.0 376990.0 0
279623.0 378210.0 0
283820.0 377306.0 0
287982.0 376152.0 0
292044.0 376909.0 0
297191.0 372677.0 0
295885.0 377640.0 0
300812.0 379370.0 0
191113.0 382938.0 0
188242.0 385013.0 0
195257.0 384177.0 0
200027.0 384053.0 0
203114.0 380446.0 0
205296.0 384452.0 0
207458.0 379074.0 0
210938.0 381190.0 0
218265.0 380949.0 0
222803.0 382513.0 0
226854.0 380384.0 0
228974.0 383890.0 0
230949.0 378179.0 0
233157.0 382647.0 0
238189.0 383658.0 0
243114.0 381318.0 0
247721.0 380347.0 0
251268.0 382627.0 0
255607.0 381107.0 0
259727.0 379607.0 0
263997.0 379703.0 0
268001.0 378954.0 0
271713.0 381758.0 0
276227.0 380617.0 0
282916.0 381236.0 0
287039.0 381273.0 0
292471.0 381347.0 0
290008.0 379236.0 0
296279.0 381860.0 0
298817.0 383158.0 0
301592.0 384711.0 0
305896.0 383008.0 0
311171.0 384806.0 0
184882.0 386693.0 0
181792.0 389080.0 0
184794.0 389602.0 0
188252.0 388550.0 0
192044.0 391148.0 0
191811.0 386527.0 0
196201.0 388316.0 0
201280.0 388608.0 0
209681.0 385488.0 0
214388.0 384269.0 0
218528.0 384742.0 0
216730.0 388948.0 0
221222.0 387161.0 0
225732.0 385759.0 0
228935.0 387934.0 0
232914.0 387127.0 0
237191.0 389429.0 0
241390.0 390169.0 0
242553.0 386585.0 0
246945.0 384568.0 0
250392.0 387886.0 0
254631.0 385927.0 0
259131.0 384334.0 0
257809.0 388450.0 0
263543.0 383901.0 0
262170.0 388466.0 0
267854.0 386622.0 0
272864.0 386537.0 0
275513.0 384238.0 0
276819.0 388125.0 0
279473.0 383713.0 0
280231.0 387421.0 0
284275.0 386048.0 0
289837.0 385535.0 0
293003.0 389523.0 0
294717.0 385653.0 0
298503.0 385920.0 0
297452.0 388818.0 0
301010.0 388200.0 0
304655.0 387796.0 0
308155.0 387158.0 0
307518.0 390296.0 0
311309.0 389046.0 0
315017.0 386847.0 0
315139.0 389562.0 0
318760.0 389841.0 0
174409.0 393967.0 0
178334.0 391664.0 0
177300.0 395380.0 0
180096.0 394841.0 0
182372.0 392064.0 0
183062.0 394864.0 0
186597.0 392716.0 0
189624.0 395538.0 0
193632.0 395281.0 0
197505.0 393508.0 0
202178.0 393606.0 0
206733.0 390133.0 0
211933.0 389768.0 0
220148.0 392942.0 0
224971.0 390183.0 0
224205.0 394795.0 0
227385.0 393632.0 0
231716.0 392447.0 0
236327.0 394005.0 0
240191.0 392952.0 0
245224.0 390993.0 0
254249.0 391131.0 0
249619.0 392192.0 0
258950.0 392273.0 0
265751.0 392569.0 0
272150.0 391894.0 0
277903.0 392471.0 0
281739.0 390348.0 0
287949.0 391000.0 0
283610.0 394072.0 0
292413.0 393388.0 0
296201.0 392182.0 0
300159.0 391413.0 0
299828.0 395290.0 0
303834.0 391370.0 0
303936.0 395154.0 0
307632.0 393953.0 0
310966.0 393065.0 0
316296.0 392349.0 0
313541.0 391723.0 0
314382.0 395207.0 0
323033.0 393454.0 0
318835.0 394163.0 0
327927.0 395432.0 0
163092.0 400356.0 0
170722.0 396768.0 0
166715.0 398816.0 0
170485.0 401170.0 0
174710.0 398472.0 0
178281.0 398095.0 0
181172.0 398110.0 0
185233.0 397823.0 0
181956.0 401107.0 0
188788.0 400029.0 0
192178.0 398212.0 0
192763.0 401058.0 0
196337.0 399138.0 0
205857.0 395391.0 0
201659.0 398822.0 0
210090.0 394833.0 0
206824.0 399574.0 0
210400.0 398869.0 0
214839.0 394150.0 0
218214.0 397249.0 0
222308.0 398400.0 0
227422.0 397759.0 0
233597.0 398480.0 0
239229.0 397160.0 0
243312.0 394976.0 0
243567.0 399212.0 0
247618.0 396480.0 0
252174.0 395225.0 0
256492.0 396946.0 0
261572.0 395812.0 0
265885.0 398358.0 0
271334.0 398160.0 0
275752.0 396308.0 0
280319.0 395025.0 0
279783.0 399157.0 0
286907.0 395473.0 0
284679.0 398486.0 0
288778.0 397925.0 0
289671.0 395004.0 0
291651.0 396441.0 0
292262.0 400184.0 0
295410.0 396433.0 0
303045.0 398407.0 0
300158.0 399617.0 0
307029.0 399084.0 0
311051.0 397370.0 0
315081.0 399395.0 0
317551.0 396869.0 0
321506.0 397802.0 0
318645.0 400036.0 0
325384.0 397914.0 0
331604.0 398168.0 0
335502.0 401005.0 0
153360.0 406491.0 0
156617.0 404587.0 0
160057.0 403144.0 0
163504.0 403252.0 0
162906.0 406236.0 0
166431.0 402334.0 0
165749.0 405193.0 0
169513.0 405278.0 0
174220.0 402641.0 0
172949.0 405603.0 0
178305.0 401722.0 0
176626.0 405956.0 0
184782.0 402115.0 0
181101.0 405205.0 0
185149.0 405905.0 0
187459.0 403650.0 0
190765.0 403504.0 0
194633.0 404601.0 0
199364.0 403965.0 0
204553.0 404000.0 0
209877.0 403263.0 0
214091.0 399536.0 0
214659.0 404295.0 0
218588.0 401414.0 0
223791.0 403916.0 0
229368.0 402151.0 0
238085.0 401774.0 0
242538.0 404270.0 0
247335.0 401882.0 0
251655.0 399569.0 0
250655.0 403325.0 0
255339.0 403810.0 0
260624.0 401020.0 0
268900.0 401969.0 0
265199.0 403802.0 0
272791.0 404043.0 0
275396.0 400414.0 0
283520.0 403476.0 0
287763.0 401808.0 0
291028.0 404406.0 0
295144.0 404559.0 0
296687.0 400530.0 0
300112.0 404243.0 0
303629.0 401890.0 0
307468.0 404129.0 0
304001.0 405612.0 0
312086.0 402760.0 0
317707.0 403891.0 0
322912.0 402150.0 0
328284.0 401385.0 0
326742.0 405738.0 0
332123.0 403546.0 0
333567.0 406194.0 0
336247.0 405236.0 0
340121.0 403645.0 0
343847.0 405087.0 0
346810.0 406126.0 0
147320.0 410367.0 0
150523.0 408564.0 0
153809.0 410704.0 0
156381.0 407572.0 0
159655.0 407131.0 0
158283.0 411463.0 0
162309.0 409559.0 0
166149.0 408202.0 0
169570.0 408652.0 0
173193.0 409157.0 0
178860.0 409454.0 0
183701.0 409734.0 0
189521.0 407906.0 0
194841.0 408806.0 0
197353.0 407416.0 0
200970.0 408642.0 0
206035.0 408777.0 0
211338.0 407906.0 0
215980.0 408388.0 0
218513.0 405387.0 0
220287.0 408987.0 0
224969.0 409864.0 0
229093.0 407151.0 0
233988.0 404842.0 0
238530.0 407611.0 0
246837.0 406507.0 0
250987.0 406958.0 0
260911.0 408140.0 0
268830.0 407063.0 0
278350.0 404744.0 0
274771.0 408887.0 0
283923.0 408453.0 0
287719.0 406484.0 0
292456.0 409043.0 0
297727.0 408772.0 0
302401.0 409254.0 0
307286.0 409290.0 0
310871.0 407316.0 0
314561.0 407671.0 0
318819.0 408336.0 0
322616.0 406612.0 0
326269.0 409507.0 0
330655.0 407479.0 0
335341.0 408395.0 0
338358.0 411221.0 0
339652.0 407746.0 0
343115.0 407963.0 0
341875.0 410789.0 0
346514.0 409469.0 0
349486.0 408094.0 0
354748.0 411566.0 0
351880.0 410036.0 0
138329.0 416236.0 0
144561.0 412432.0 0
141481.0 414249.0 0
144084.0 416079.0 0
149904.0 412852.0 0
146785.0 414950.0 0
150509.0 416266.0 0
154220.0 415436.0 0
158224.0 416258.0 0
165103.0 411300.0 0
162149.0 413652.0 0
168510.0 411256.0 0
166375.0 414985.0 0
171007.0 413356.0 0
175592.0 412627.0 0
180237.0 413664.0 0
177121.0 416129.0 0
183877.0 413567.0 0
187728.0 412390.0 0
192522.0 412264.0 0
197649.0 412151.0 0
202599.0 413380.0 0
208646.0 412575.0 0
206196.0 415793.0 0
213568.0 412488.0 0
217765.0 412504.0 0
221691.0 413896.0 0
229584.0 412926.0 0
234514.0 410290.0 0
234044.0 414105.0 0
238571.0 411879.0 0
243253.0 410380.0 0
245211.0 414930.0 0
248654.0 410855.0 0
254767.0 409867.0 0
249298.0 415040.0 0
258180.0 413272.0 0
263004.0 415002.0 0
266254.0 410621.0 0
268095.0 414508.0 0
270921.0 411295.0 0
276401.0 413311.0 0
279781.0 410165.0 0
280209.0 414445.0 0
283778.0 413269.0 0
288139.0 411567.0 0
292240.0 414935.0 0
295756.0 412410.0 0
296630.0 415604.0 0
300170.0 413474.0 0
303944.0 412872.0 0
307440.0 414007.0 0
312635.0 412131.0 0
310755.0 415868.0 0
317382.0 411687.0 0
317159.0 415757.0 0
322302.0 411108.0 0
320200.0 414122.0 0
323579.0 414912.0 0
326363.0 413358.0 0
330132.0 411658.0 0
334225.0 411539.0 0
329639.0 415422.0 0
334021.0 415911.0 0
337608.0 414661.0 0
340732.0 414209.0 0
344573.0 413355.0 0
349807.0 413217.0 0
354021.0 413930.0 0
352613.0 416688.0 0
357736.0 414016.0 0
356369.0 417209.0 0
360960.0 416119.0 0
132011.0 420508.0 0
135257.0 421270.0 0
135044.0 418119.0 0
138268.0 419889.0 0
141543.0 417725.0 0
144518.0 418394.0 0
142161.0 421058.0 0
147989.0 418388.0 0
145737.0 421560.0 0
155271.0 419594.0 0
151795.0 419197.0 0
158508.0 419859.0 0
162170.0 417813.0 0
169531.0 416772.0 0
166126.0 420103.0 0
173234.0 416546.0 0
170996.0 420302.0 0
179557.0 417811.0 0
175964.0 420310.0 0
182715.0 417365.0 0
186473.0 416221.0 0
181132.0 421790.0 0
186324.0 420665.0 0
190412.0 416571.0 0
191027.0 420422.0 0
194816.0 415903.0 0
195185.0 419905.0 0
198846.0 416579.0 0
202804.0 418296.0 0
207186.0 420045.0 0
210741.0 416718.0 0
216074.0 417164.0 0
220540.0 418400.0 0
225368.0 417329.0 0
229745.0 418165.0 0
233961.0 417917.0 0
237098.0 415056.0 0
238308.0 419002.0 0
241098.0 415172.0 0
247413.0 418440.0 0
253951.0 415033.0 0
258235.0 419301.0 0
267856.0 419107.0 0
272675.0 416501.0 0
275428.0 420365.0 0
278021.0 417384.0 0
282693.0 417758.0 0
283504.0 421366.0 0
287409.0 416703.0 0
291139.0 419668.0 0
295156.0 418796.0 0
299531.0 417826.0 0
303974.0 417101.0 0
308610.0 418382.0 0
313846.0 418015.0 0
318729.0 420381.0 0
321481.0 417617.0 0
326551.0 418141.0 0
331184.0 419566.0 0
335935.0 419711.0 0
339248.0 418239.0 0
342678.0 417150.0 0
343167.0 420732.0 0
347228.0 417753.0 0
351480.0 420045.0 0
359565.0 419106.0 0
355283.0 419972.0 0
364205.0 418126.0 0
362881.0 420993.0 0
367575.0 419825.0 0
370679.0 421852.0 0
122753.0 426494.0 0
128108.0 422198.0 0
125541.0 424062.0 0
127220.0 426048.0 0
130686.0 423975.0 0
135062.0 424475.0 0
138926.0 423489.0 0
139620.0 426632.0 0
142895.0 424559.0 0
149326.0 422025.0 0
146568.0 424171.0 0
149426.0 425516.0 0
152614.0 422352.0 0
153131.0 425745.0 0
156533.0 423353.0 0
161571.0 422717.0 0
164999.0 424714.0 0
168194.0 424193.0 0
172520.0 424219.0 0
176847.0 424599.0 0
180660.0 425913.0 0
184774.0 425861.0 0
189289.0 424339.0 0
192942.0 423117.0 0
195998.0 423943.0 0
199306.0 421117.0 0
203505.0 422817.0 0
207996.0 424816.0 0
212251.0 421476.0 0
217658.0 422565.0 0
222986.0 422015.0 0
227419.0 421795.0 0
229237.0 425065.0 0
231653.0 421962.0 0
235745.0 422567.0 0
239798.0 423443.0 0
243160.0 419880.0 0
247434.0 423138.0 0
252016.0 420488.0 0
255437.0 423949.0 0
263491.0 420585.0 0
260038.0 425195.0 0
264724.0 424537.0 0
268335.0 423308.0 0
271764.0 421619.0 0
275408.0 424322.0 0
279613.0 421849.0 0
283611.0 425595.0 0
287040.0 421450.0 0
290488.0 423161.0 0
294417.0 423699.0 0
298156.0 421558.0 0
302157.0 421669.0 0
303947.0 426338.0 0
308256.0 425169.0 0
306193.0 421698.0 0
311344.0 422326.0 0
314902.0 424908.0 0
315527.0 422050.0 0
317850.0 424526.0 0
323952.0 421472.0 0
321256.0 424308.0 0
325185.0 425749.0 0
328848.0 423309.0 0
334120.0 422884.0 0
332865.0 426077.0 0
336480.0 426136.0 0
339268.0 423139.0 0
344093.0 425156.0 0
347367.0 422535.0 0
347994.0 425967.0 0
354610.0 422757.0 0
351547.0 424665.0 0
358096.0 421871.0 0
356626.0 425043.0 0
359910.0 426525.0 0
361008.0 423339.0 0
363341.0 425182.0 0
366112.0 423064.0 0
369556.0 424377.0 0
366597.0 426425.0 0
373790.0 423458.0 0
372283.0 426335.0 0
376753.0 425325.0 0
379642.0 427112.0 0
113896.0 431022.0 0
116508.0 429485.0 0
118934.0 427777.0 0
117854.0 431564.0 0
120947.0 429831.0 0
125543.0 429142.0 0
128197.0 431392.0 0
130130.0 428245.0 0
133414.0 427477.0 0
132207.0 431592.0 0
137063.0 427144.0 0
135415.0 429536.0 0
139032.0 430557.0 0
142368.0 428333.0 0
144351.0 430626.0 0
145494.0 426911.0 0
147341.0 429078.0 0
151030.0 429907.0 0
155884.0 428078.0 0
159262.0 426371.0 0
162856.0 427306.0 0
159643.0 430226.0 0
166285.0 427527.0 0
169578.0 427128.0 0
168490.0 430333.0 0
173247.0 428578.0 0
177827.0 428099.0 0
181455.0 429484.0 0
185009.0 430390.0 0
188840.0 428863.0 0
192750.0 426752.0 0
196310.0 427998.0 0
199759.0 425567.0 0
203962.0 427692.0 0
207461.0 429477.0 0
210392.0 428155.0 0
213285.0 425800.0 0
213528.0 429726.0 0
216744.0 427436.0 0
219536.0 430473.0 0
221147.0 426404.0 0
225691.0 426125.0 0
229238.0 429448.0 0
232749.0 426381.0 0
237115.0 426897.0 0
241311.0 427925.0 0
243766.0 425038.0 0
246189.0 429010.0 0
251127.0 426630.0 0
255913.0 427677.0 0
258836.0 430098.0 0
263768.0 429558.0 0
267697.0 427007.0 0
271526.0 426100.0 0
279125.0 426711.0 0
275417.0 429703.0 0
285914.0 429766.0 0
288352.0 426109.0 0
289477.0 430223.0 0
292169.0 427695.0 0
296379.0 428720.0 0
299417.0 425535.0 0
304355.0 431319.0 0
308087.0 428882.0 0
312387.0 427386.0 0
315379.0 430619.0 0
316761.0 427583.0 0
320275.0 427632.0 0
324373.0 430674.0 0
329746.0 428496.0 0
335177.0 429498.0 0
340679.0 429537.0 0
346930.0 429403.0 0
350420.0 428214.0 0
354856.0 428324.0 0
352038.0 431468.0 0
359003.0 430748.0 0
363924.0 429114.0 0
369249.0 427489.0 0
368063.0 430193.0 0
375238.0 427434.0 0
371826.0 429972.0 0
378342.0 429184.0 0
375364.0 431109.0 0
382636.0 429302.0 0
380562.0 431161.0 0
385644.0 431704.0 0
108001.0 435380.0 0
111185.0 433039.0 0
111156.0 436545.0 0
115205.0 434026.0 0
119755.0 433508.0 0
117998.0 435831.0 0
123450.0 432470.0 0
121261.0 436152.0 0
126814.0 434339.0 0
131081.0 435241.0 0
135747.0 433006.0 0
135457.0 436109.0 0
139125.0 434318.0 0
141989.0 432261.0 0
142758.0 435094.0 0
146686.0 432837.0 0
146237.0 437163.0 0
150695.0 435168.0 0
155182.0 432598.0 0
159381.0 435304.0 0
163972.0 431450.0 0
163782.0 435638.0 0
167317.0 434299.0 0
171717.0 433232.0 0
177100.0 432504.0 0
178553.0 436373.0 0
182403.0 433878.0 0
187636.0 432977.0 0
193364.0 432517.0 0
197705.0 434118.0 0
199714.0 430795.0 0
200979.0 435368.0 0
204747.0 432639.0 0
209943.0 432933.0 0
215799.0 432967.0 0
224320.0 431091.0 0
220433.0 434656.0 0
227492.0 433811.0 0
234324.0 430996.0 0
230721.0 433414.0 0
238762.0 430394.0 0
238168.0 433938.0 0
242305.0 431778.0 0
246596.0 434745.0 0
249884.0 431272.0 0
253737.0 430912.0 0
256667.0 433222.0 0
260744.0 434206.0 0
265957.0 434344.0 0
269937.0 431122.0 0
274041.0 434818.0 0
278301.0 433792.0 0
281552.0 430847.0 0
285254.0 433366.0 0
289455.0 434208.0 0
293208.0 431944.0 0
297559.0 433461.0 0
300662.0 430137.0 0
301647.0 434677.0 0
307659.0 431957.0 0
306953.0 435997.0 0
311690.0 432573.0 0
318968.0 431244.0 0
316187.0 434631.0 0
321308.0 435999.0 0
329349.0 432860.0 0
327047.0 436128.0 0
333106.0 432523.0 0
337499.0 434356.0 0
342297.0 435107.0 0
345180.0 432873.0 0
349176.0 433326.0 0
346819.0 436190.0 0
353852.0 435643.0 0
355527.0 432380.0 0
358361.0 435469.0 0
362705.0 433985.0 0
369759.0 433832.0 0
365902.0 432761.0 0
366265.0 436807.0 0
373432.0 433757.0 0
372407.0 437198.0 0
378393.0 434130.0 0
375547.0 436064.0 0
382968.0 434218.0 0
389140.0 433787.0 0
386195.0 435952.0 0
393026.0 436661.0 0
102911.0 438930.0 0
99216.9 441960.0 0
104020.0 442633.0 0
105627.0 437109.0 0
107053.0 440645.0 0
109537.0 439368.0 0
112653.0 440958.0 0
114457.0 437927.0 0
117778.0 437954.0 0
116554.0 440757.0 0
124380.0 437308.0 0
120029.0 438939.0 0
122881.0 440012.0 0
127768.0 438755.0 0
131595.0 439338.0 0
139469.0 437781.0 0
135366.0 439733.0 0
142899.0 438663.0 0
141384.0 441018.0 0
145130.0 440927.0 0
149725.0 440651.0 0
154483.0 437832.0 0
157333.0 440068.0 0
161491.0 440124.0 0
166016.0 438234.0 0
168894.0 440387.0 0
169985.0 436982.0 0
171849.0 439865.0 0
174295.0 436987.0 0
174390.0 441369.0 0
177090.0 439301.0 0
181516.0 439047.0 0
186105.0 437223.0 0
189696.0 435703.0 0
187950.0 441291.0 0
192398.0 438645.0 0
196888.0 437360.0 0
200878.0 439845.0 0
204855.0 437175.0 0
209064.0 438498.0 0
212950.0 436279.0 0
213401.0 440577.0 0
216972.0 437602.0 0
220998.0 439251.0 0
224483.0 436324.0 0
229171.0 438088.0 0
233968.0 435965.0 0
238299.0 439812.0 0
241930.0 435839.0 0
244096.0 439735.0 0
248577.0 439960.0 0
252514.0 435996.0 0
257315.0 436416.0 0
255920.0 439475.0 0
263473.0 437030.0 0
260386.0 440026.0 0
266711.0 440694.0 0
269850.0 436062.0 0
272870.0 440390.0 0
277646.0 438086.0 0
282097.0 436433.0 0
286361.0 436952.0 0
290138.0 438991.0 0
293986.0 436383.0 0
298398.0 438173.0 0
303230.0 439650.0 0
308680.0 440151.0 0
312474.0 438030.0 0
317179.0 439170.0 0
321593.0 441388.0 0
325085.0 440029.0 0
328960.0 440868.0 0
332378.0 437089.0 0
337041.0 439216.0 0
340659.0 437991.0 0
344808.0 439438.0 0
349479.0 439488.0 0
350443.0 436690.0 0
353010.0 439688.0 0
357033.0 439362.0 0
361915.0 438665.0 0
369592.0 437974.0 0
365955.0 440517.0 0
368551.0 439778.0 0
371788.0 440537.0 0
380098.0 437952.0 0
376028.0 439616.0 0
384253.0 438543.0 0
380701.0 441611.0 0
384196.0 442247.0 0
389112.0 437314.0 0
388401.0 440983.0 0
393164.0 440664.0 0
396742.0 437585.0 0
399585.0 439574.0 0
396705.0 439967.0 0
87342.2 447362.0 0
90916.9 446123.0 0
94863.9 443977.0 0
98748.4 446802.0 0
102196.0 445292.0 0
106296.0 445646.0 0
109824.0 443620.0 0
114748.0 444719.0 0
120028.0 443207.0 0
123156.0 446335.0 0
125598.0 442430.0 0
129808.0 442722.0 0
131791.0 445617.0 0
133637.0 442775.0 0
138150.0 442056.0 0
135736.0 445480.0 0
139815.0 445283.0 0
143047.0 443671.0 0
146993.0 444678.0 0
154039.0 442597.0 0
151297.0 445891.0 0
157685.0 444056.0 0
161296.0 444866.0 0
165755.0 443318.0 0
170755.0 443440.0 0
174526.0 445077.0 0
178283.0 442793.0 0
183370.0 443864.0 0
187805.0 446022.0 0
191914.0 443466.0 0
196549.0 441982.0 0
197708.0 445347.0 0
201164.0 444844.0 0
205272.0 441736.0 0
209835.0 444114.0 0
214656.0 444564.0 0
217526.0 441901.0 0
221125.0 443592.0 0
224915.0 441043.0 0
228546.0 443276.0 0
232909.0 442028.0 0
238289.0 445544.0 0
242018.0 443577.0 0
246094.0 444143.0 0
252863.0 442557.0 0
257870.0 444758.0 0
262869.0 445281.0 0
277368.0 442752.0 0
280927.0 441111.0 0
285484.0 441431.0 0
287108.0 445824.0 0
290055.0 443453.0 0
294604.0 441434.0 0
292707.0 444756.0 0
300000.0 444029.0 0
306776.0 443139.0 0
314515.0 441841.0 0
311085.0 442605.0 0
314204.0 445558.0 0
317822.0 443651.0 0
321963.0 445831.0 0
325582.0 443822.0 0
329574.0 445105.0 0
333224.0 442182.0 0
337607.0 443554.0 0
341348.0 442050.0 0
342662.0 445852.0 0
345482.0 443866.0 0
348208.0 442073.0 0
348916.0 445021.0 0
351772.0 443164.0 0
354547.0 446235.0 0
355526.0 442465.0 0
359918.0 442293.0 0
358017.0 444885.0 0
363739.0 442764.0 0
361855.0 446478.0 0
368756.0 443395.0 0
365499.0 445787.0 0
373373.0 443791.0 0
372008.0 447057.0 0
377043.0 443469.0 0
375801.0 446849.0 0
380927.0 446412.0 0
385148.0 445103.0 0
388469.0 445162.0 0
396019.0 443851.0 0
392171.0 444765.0 0
399510.0 442878.0 0
400505.0 447230.0 0
402944.0 442644.0 0
404118.0 446126.0 0
406856.0 443892.0 0
407162.0 446520.0 0
409691.0 446283.0 0
80586.1 451862.0 0
84971.3 450606.0 0
88550.1 452293.0 0
89538.5 449068.0 0
93831.3 447744.0 0
92103.0 450380.0 0
96174.7 450825.0 0
103026.0 448356.0 0
100381.0 451447.0 0
108006.0 449241.0 0
104534.0 451564.0 0
111505.0 447542.0 0
111665.0 451410.0 0
114083.0 449052.0 0
118170.0 448470.0 0
114750.0 451853.0 0
120105.0 452070.0 0
123460.0 450179.0 0
127752.0 447172.0 0
126626.0 451933.0 0
129741.0 450260.0 0
132961.0 448918.0 0
138078.0 449276.0 0
143151.0 448132.0 0
148135.0 448915.0 0
152110.0 450578.0 0
155047.0 447545.0 0
158977.0 448325.0 0
161192.0 451382.0 0
163102.0 447770.0 0
164849.0 450878.0 0
167286.0 447403.0 0
169249.0 451747.0 0
170856.0 446950.0 0
173885.0 449412.0 0
179020.0 447550.0 0
184199.0 449562.0 0
188570.0 450720.0 0
191282.0 447733.0 0
194797.0 446478.0 0
198157.0 448945.0 0
202541.0 450179.0 0
205454.0 446396.0 0
208372.0 448958.0 0
212822.0 448527.0 0
218076.0 446392.0 0
216984.0 450425.0 0
224897.0 446005.0 0
221405.0 449628.0 0
229074.0 447486.0 0
233692.0 447309.0 0
238104.0 450747.0 0
242267.0 447767.0 0
249918.0 446273.0 0
246639.0 449340.0 0
254211.0 447719.0 0
250798.0 450381.0 0
259396.0 449809.0 0
264194.0 449498.0 0
268286.0 446836.0 0
273621.0 446134.0 0
278028.0 446623.0 0
282584.0 446363.0 0
282933.0 451310.0 0
286483.0 449700.0 0
290985.0 448228.0 0
295204.0 445840.0 0
295053.0 449440.0 0
297900.0 448206.0 0
301182.0 449433.0 0
304155.0 451530.0 0
305006.0 447264.0 0
308389.0 451589.0 0
309816.0 446805.0 0
314107.0 450464.0 0
318217.0 447901.0 0
321692.0 449748.0 0
325804.0 448811.0 0
334584.0 446994.0 0
330360.0 449508.0 0
339399.0 446938.0 0
338160.0 451044.0 0
342612.0 450025.0 0
346891.0 448138.0 0
351208.0 447505.0 0
354402.0 450286.0 0
350543.0 451718.0 0
358187.0 448603.0 0
362095.0 450592.0 0
365317.0 449255.0 0
368535.0 447770.0 0
369344.0 451511.0 0
374264.0 451251.0 0
378336.0 449861.0 0
385559.0 448701.0 0
382776.0 452018.0 0
389361.0 449013.0 0
392735.0 448024.0 0
394734.0 451452.0 0
396851.0 447996.0 0
405287.0 449693.0 0
401918.0 450802.0 0
408251.0 449312.0 0
409993.0 452422.0 0
412632.0 449051.0 0
416377.0 450741.0 0
77873.6 454680.0 0
74024.1 456150.0 0
82499.8 453594.0 0
80981.5 456191.0 0
85488.6 454604.0 0
88519.8 456203.0 0
91931.8 453806.0 0
93109.5 457231.0 0
96105.7 454676.0 0
99530.5 454485.0 0
103153.0 454121.0 0
108002.0 453346.0 0
106156.0 456780.0 0
111878.0 455855.0 0
117246.0 454781.0 0
122790.0 454734.0 0
126795.0 455442.0 0
130569.0 453555.0 0
134178.0 456294.0 0
134522.0 451980.0 0
137446.0 453698.0 0
141108.0 452958.0 0
144206.0 456037.0 0
145118.0 452005.0 0
148630.0 453586.0 0
152535.0 455042.0 0
156362.0 452107.0 0
159698.0 454621.0 0
164706.0 455512.0 0
169239.0 456719.0 0
173299.0 454584.0 0
176869.0 452028.0 0
177584.0 456187.0 0
180612.0 452326.0 0
183349.0 456682.0 0
189330.0 455412.0 0
193640.0 451591.0 0
198404.0 453647.0 0
202562.0 455291.0 0
206242.0 452723.0 0
210379.0 452769.0 0
214014.0 452377.0 0
212911.0 455571.0 0
216817.0 455064.0 0
220960.0 453918.0 0
224708.0 455209.0 0
226105.0 450912.0 0
230631.0 451699.0 0
234133.0 451300.0 0
234465.0 455330.0 0
239241.0 455265.0 0
243102.0 453020.0 0
248389.0 453802.0 0
251729.0 455832.0 0
254589.0 452565.0 0
258451.0 454486.0 0
263163.0 454240.0 0
268071.0 452238.0 0
272925.0 451291.0 0
271068.0 454968.0 0
278312.0 451186.0 0
281460.0 456062.0 0
285974.0 454058.0 0
289316.0 452352.0 0
293688.0 453455.0 0
297950.0 451700.0 0
297957.0 455276.0 0
301177.0 453624.0 0
304660.0 455182.0 0
312520.0 454690.0 0
316745.0 456169.0 0
319065.0 452287.0 0
320923.0 455902.0 0
323506.0 453207.0 0
328563.0 454437.0 0
333791.0 451939.0 0
334047.0 455577.0 0
338028.0 455215.0 0
341912.0 454181.0 0
346230.0 452998.0 0
349614.0 456044.0 0
354311.0 455159.0 0
358439.0 452921.0 0
365355.0 453125.0 0
362257.0 454521.0 0
368497.0 455838.0 0
372413.0 455815.0 0
378884.0 453234.0 0
376967.0 455926.0 0
381584.0 456008.0 0
385871.0 456112.0 0
387215.0 452638.0 0
389876.0 456424.0 0
391292.0 452869.0 0
395435.0 455805.0 0
398726.0 452558.0 0
400686.0 456239.0 0
403309.0 453858.0 0
406239.0 453062.0 0
408644.0 455990.0 0
413594.0 453789.0 0
411437.0 456456.0 0
413854.0 457733.0 0
419722.0 452768.0 0
417398.0 455926.0 0
421147.0 457587.0 0
422836.0 454502.0 0
425757.0 457412.0 0
68125.1 459976.0 0
65044.2 461402.0 0
71338.6 458105.0 0
69419.7 462784.0 0
72488.3 460646.0 0
76224.0 458760.0 0
79866.0 460012.0 0
83339.7 461616.0 0
84405.5 457603.0 0
87135.6 459854.0 0
90547.4 458178.0 0
89939.3 462040.0 0
96979.1 458571.0 0
93616.6 460694.0 0
101186.0 458181.0 0
104944.0 461085.0 0
108760.0 459344.0 0
111663.0 460397.0 0
115654.0 459185.0 0
119114.0 461477.0 0
119887.0 457831.0 0
124161.0 459582.0 0
129551.0 458219.0 0
133788.0 460382.0 0
139245.0 458210.0 0
144006.0 460377.0 0
148045.0 457786.0 0
152007.0 459937.0 0
156413.0 457536.0 0
159436.0 461237.0 0
160844.0 457891.0 0
163594.0 460080.0 0
167744.0 461156.0 0
172739.0 459269.0 0
177889.0 461674.0 0
187447.0 459804.0 0
191016.0 459524.0 0
194455.0 456777.0 0
198857.0 458218.0 0
202944.0 459448.0 0
206306.0 456590.0 0
209788.0 457010.0 0
207370.0 460990.0 0
213820.0 460056.0 0
220595.0 459390.0 0
225949.0 459088.0 0
229255.0 456317.0 0
234846.0 461021.0 0
239999.0 459627.0 0
245503.0 458294.0 0
251282.0 460709.0 0
255426.0 457311.0 0
260184.0 458888.0 0
267643.0 457691.0 0
271521.0 457541.0 0
272409.0 461013.0 0
275561.0 456511.0 0
282217.0 460983.0 0
285865.0 459108.0 0
289869.0 456888.0 0
295396.0 459607.0 0
301173.0 458187.0 0
305252.0 459208.0 0
308714.0 456779.0 0
313091.0 458872.0 0
316505.0 460207.0 0
319825.0 459537.0 0
324401.0 458489.0 0
328553.0 459803.0 0
331806.0 458271.0 0
331856.0 461599.0 0
336571.0 459932.0 0
340726.0 457542.0 0
341833.0 461544.0 0
345258.0 457678.0 0
349281.0 460586.0 0
352323.0 458950.0 0
355586.0 459980.0 0
359644.0 458151.0 0
364994.0 458045.0 0
366694.0 461967.0 0
370177.0 459984.0 0
374658.0 459679.0 0
379590.0 459587.0 0
384229.0 459783.0 0
388479.0 460024.0 0
393159.0 459565.0 0
398683.0 459786.0 0
404926.0 457740.0 0
402501.0 460761.0 0
411420.0 459548.0 0
409064.0 458980.0 0
407204.0 462317.0 0
414502.0 460603.0 0
417349.0 459948.0 0
420428.0 461586.0 0
423928.0 460758.0 0
426453.0 462860.0 0
429482.0 459901.0 0
433812.0 461323.0 0
62409.9 463492.0 0
59132.9 466617.0 0
63392.9 466777.0 0
66339.2 464597.0 0
71861.9 465740.0 0
75064.9 462972.0 0
75642.4 466377.0 0
78594.0 463568.0 0
81658.7 464370.0 0
78929.3 467654.0 0
85746.7 463921.0 0
83447.7 466322.0 0
88970.8 466740.0 0
97161.4 462841.0 0
93478.4 464741.0 0
96301.8 466896.0 0
100871.0 462400.0 0
99547.7 465842.0 0
107998.0 462904.0 0
103726.0 465569.0 0
107279.0 465731.0 0
111011.0 463645.0 0
114480.0 463634.0 0
117611.0 465258.0 0
121883.0 465140.0 0
125729.0 463398.0 0
129297.0 462565.0 0
126217.0 466908.0 0
129956.0 467058.0 0
133414.0 464684.0 0
137096.0 462350.0 0
137341.0 466446.0 0
140600.0 463103.0 0
144414.0 464604.0 0
148029.0 462611.0 0
151662.0 464739.0 0
155373.0 462634.0 0
154955.0 466747.0 0
158431.0 465125.0 0
163117.0 464572.0 0
167847.0 466402.0 0
171919.0 463844.0 0
174998.0 466072.0 0
178059.0 466392.0 0
183737.0 462971.0 0
189252.0 464280.0 0
194732.0 462009.0 0
199946.0 462987.0 0
204156.0 464736.0 0
210695.0 463261.0 0
213529.0 466098.0 0
217223.0 463489.0 0
220869.0 465114.0 0
225105.0 463592.0 0
229662.0 461565.0 0
238399.0 464825.0 0
242742.0 463672.0 0
246873.0 463390.0 0
250138.0 466410.0 0
254376.0 465085.0 0
256470.0 461575.0 0
259727.0 466012.0 0
264190.0 462018.0 0
268614.0 462213.0 0
267257.0 466232.0 0
277460.0 462619.0 0
282567.0 465839.0 0
287086.0 463780.0 0
290656.0 461662.0 0
296359.0 464810.0 0
299796.0 462579.0 0
304658.0 463936.0 0
309222.0 461592.0 0
313828.0 463375.0 0
318167.0 463428.0 0
322587.0 463232.0 0
327126.0 463476.0 0
331111.0 464873.0 0
334856.0 464348.0 0
338844.0 464983.0 0
344181.0 466789.0 0
346054.0 462476.0 0
349102.0 464709.0 0
353156.0 463234.0 0
355764.0 466557.0 0
358212.0 463647.0 0
362859.0 462559.0 0
362109.0 467150.0 0
366145.0 465765.0 0
369464.0 464088.0 0
373436.0 464022.0 0
377396.0 462783.0 0
378384.0 466720.0 0
382203.0 463978.0 0
385317.0 466763.0 0
386849.0 463582.0 0
391896.0 464525.0 0
396492.0 463046.0 0
396863.0 467306.0 0
400537.0 464749.0 0
403764.0 463711.0 0
405077.0 467119.0 0
408496.0 466407.0 0
411698.0 463704.0 0
416224.0 464084.0 0
411398.0 468155.0 0
414361.0 467090.0 0
416994.0 467435.0 0
419832.0 465668.0 0
423429.0 464725.0 0
430950.0 463565.0 0
428209.0 465557.0 0
430574.0 467936.0 0
433455.0 465659.0 0
436851.0 464105.0 0
440704.0 466792.0 0
50348.1 470952.0 0
55104.6 469292.0 0
53034.6 472833.0 0
61521.8 469979.0 0
58506.7 471668.0 0
65013.6 470325.0 0
68524.0 468525.0 0
69804.6 472477.0 0
73791.2 469926.0 0
77404.5 472053.0 0
81769.8 469997.0 0
85134.1 469309.0 0
92868.2 468467.0 0
89038.9 471437.0 0
92613.9 472289.0 0
95786.3 470228.0 0
99967.0 470123.0 0
106875.0 468259.0 0
104282.0 469634.0 0
103743.0 472538.0 0
107268.0 471596.0 0
110355.0 467372.0 0
111568.0 471812.0 0
114528.0 468150.0 0
115583.0 472131.0 0
118723.0 469396.0 0
123174.0 470452.0 0
127958.0 471168.0 0
133371.0 470017.0 0
138450.0 470863.0 0
141350.0 467241.0 0
143401.0 471347.0 0
147953.0 467196.0 0
144842.0 467885.0 0
151546.0 468338.0 0
154405.0 471071.0 0
159278.0 469429.0 0
164011.0 468734.0 0
166709.0 470651.0 0
171976.0 468642.0 0
176833.0 470171.0 0
181413.0 467698.0 0
184332.0 470188.0 0
185352.0 467115.0 0
188084.0 469566.0 0
192553.0 468342.0 0
196534.0 466585.0 0
200722.0 468211.0 0
204707.0 468495.0 0
208321.0 466536.0 0
211051.0 470751.0 0
217538.0 466809.0 0
219982.0 468729.0 0
216111.0 470889.0 0
224472.0 468954.0 0
228773.0 466495.0 0
228430.0 469892.0 0
233275.0 466217.0 0
237011.0 469061.0 0
241254.0 466882.0 0
241345.0 470243.0 0
245212.0 467695.0 0
248760.0 471281.0 0
254533.0 470304.0 0
264034.0 469767.0 0
272793.0 466556.0 0
278091.0 468703.0 0
282886.0 471145.0 0
286902.0 468556.0 0
291788.0 466672.0 0
296162.0 468599.0 0
300300.0 467221.0 0
305431.0 470060.0 0
310223.0 470761.0 0
309915.0 466636.0 0
314850.0 468122.0 0
319776.0 467743.0 0
317607.0 471085.0 0
322024.0 471723.0 0
324528.0 467695.0 0
329067.0 467912.0 0
331321.0 471350.0 0
333955.0 468236.0 0
338783.0 469508.0 0
342730.0 471351.0 0
347064.0 471753.0 0
348711.0 468475.0 0
352497.0 467638.0 0
358553.0 468251.0 0
355988.0 470313.0 0
360748.0 472250.0 0
365747.0 470341.0 0
369968.0 472323.0 0
370324.0 468264.0 0
374653.0 468387.0 0
378284.0 471434.0 0
382431.0 469207.0 0
386027.0 469735.0 0
388793.0 467767.0 0
389246.0 471508.0 0
393217.0 469800.0 0
398055.0 471359.0 0
401464.0 468987.0 0
405545.0 470949.0 0
408140.0 468856.0 0
408924.0 471720.0 0
412566.0 471481.0 0
415607.0 469989.0 0
419328.0 469351.0 0
421806.0 467994.0 0
425334.0 467894.0 0
423112.0 471142.0 0
427838.0 470269.0 0
431095.0 471348.0 0
434055.0 469186.0 0
434609.0 472647.0 0
437006.0 468511.0 0
440215.0 470520.0 0
437841.0 471875.0 0
444572.0 469013.0 0
442233.0 471857.0 0
448354.0 470584.0 0
451619.0 471618.0 0
40945.1 477590.0 0
43404.5 474530.0 0
44973.5 477679.0 0
47442.7 473887.0 0
50806.6 475814.0 0
48717.8 478063.0 0
56481.8 474840.0 0
54027.7 477058.0 0
61902.4 474028.0 0
59369.1 477615.0 0
66176.6 474227.0 0
63371.2 477048.0 0
65894.0 478049.0 0
69591.3 476672.0 0
73107.8 474488.0 0
76733.3 476334.0 0
81274.8 473357.0 0
80395.2 477047.0 0
85379.1 472831.0 0
84355.3 476313.0 0
88493.7 475462.0 0
92575.0 476134.0 0
96307.2 473593.0 0
96111.6 477120.0 0
100264.0 475469.0 0
104872.0 475424.0 0
108222.0 475086.0 0
111276.0 475302.0 0
114731.0 476098.0 0
119506.0 474353.0 0
124182.0 474345.0 0
126726.0 477102.0 0
126941.0 474409.0 0
130836.0 475167.0 0
135467.0 473976.0 0
139430.0 475476.0 0
148844.0 471984.0 0
144667.0 475644.0 0
152793.0 474545.0 0
157882.0 475473.0 0
162746.0 472841.0 0
166613.0 475158.0 0
169939.0 472432.0 0
170617.0 476806.0 0
173791.0 473641.0 0
177451.0 475621.0 0
180962.0 472735.0 0
186056.0 474403.0 0
191235.0 472874.0 0
194165.0 476528.0 0
196554.0 471789.0 0
201924.0 473117.0 0
206535.0 471884.0 0
213033.0 475369.0 0
218195.0 475236.0 0
220701.0 471898.0 0
222863.0 474944.0 0
227213.0 473541.0 0
232360.0 471651.0 0
237779.0 474155.0 0
244270.0 475324.0 0
251704.0 475404.0 0
256238.0 475420.0 0
259791.0 471904.0 0
264838.0 474813.0 0
260363.0 476386.0 0
269331.0 471397.0 0
274639.0 472400.0 0
279385.0 474945.0 0
284187.0 475329.0 0
289944.0 471715.0 0
287707.0 474823.0 0
294460.0 472168.0 0
291864.0 476445.0 0
299044.0 471736.0 0
297407.0 476575.0 0
302879.0 474977.0 0
308904.0 474170.0 0
313830.0 473132.0 0
318835.0 474474.0 0
323379.0 476351.0 0
326888.0 472675.0 0
330920.0 474735.0 0
335281.0 473413.0 0
339990.0 474286.0 0
344325.0 475091.0 0
348834.0 476566.0 0
351779.0 472397.0 0
352957.0 476626.0 0
356377.0 474532.0 0
359881.0 476809.0 0
363741.0 476889.0 0
364266.0 473601.0 0
367270.0 474633.0 0
374116.0 472629.0 0
371360.0 475988.0 0
375518.0 477142.0 0
379208.0 475481.0 0
385543.0 472856.0 0
381998.0 473183.0 0
384075.0 477134.0 0
388966.0 475815.0 0
392103.0 473297.0 0
395005.0 473035.0 0
393578.0 475980.0 0
398550.0 476068.0 0
402583.0 472990.0 0
406690.0 474688.0 0
411112.0 475634.0 0
414905.0 473606.0 0
415955.0 477430.0 0
418990.0 473294.0 0
420584.0 477872.0 0
426997.0 473276.0 0
423642.0 475151.0 0
431049.0 474502.0 0
428399.0 477045.0 0
435001.0 476511.0 0
438224.0 475297.0 0
440655.0 473877.0 0
439803.0 478180.0 0
445442.0 473325.0 0
443262.0 476225.0 0
446894.0 476885.0 0
449307.0 474365.0 0
452501.0 476606.0 0
453846.0 473954.0 0
456933.0 475948.0 0
454456.0 478398.0 0
460483.0 477803.0 0
37112.1 479907.0 0
33395.6 481549.0 0
40780.2 481041.0 0
43810.0 481605.0 0
51548.1 479522.0 0
47932.2 481842.0 0
55621.4 480080.0 0
52546.0 483248.0 0
58799.3 481887.0 0
62674.3 480678.0 0
72524.2 478634.0 0
68486.9 481478.0 0
72873.6 482648.0 0
75407.4 480232.0 0
78503.1 480128.0 0
79774.6 482934.0 0
82060.5 479949.0 0
86402.3 479662.0 0
89885.4 478724.0 0
89122.3 482298.0 0
93373.7 480512.0 0
98206.8 479884.0 0
102820.0 479275.0 0
100778.0 482651.0 0
106435.0 478408.0 0
106203.0 482609.0 0
110253.0 478807.0 0
110967.0 482458.0 0
114468.0 480370.0 0
117721.0 478433.0 0
118216.0 482121.0 0
122314.0 478744.0 0
127643.0 481565.0 0
131449.0 479103.0 0
134895.0 477756.0 0
137403.0 479826.0 0
141316.0 479770.0 0
145480.0 479923.0 0
149345.0 477254.0 0
151832.0 480257.0 0
153698.0 477670.0 0
155760.0 480875.0 0
160166.0 480274.0 0
162701.0 477330.0 0
166844.0 480612.0 0
172114.0 481084.0 0
174173.0 477424.0 0
176714.0 480206.0 0
181486.0 478275.0 0
186755.0 480197.0 0
190233.0 477377.0 0
192425.0 480142.0 0
195584.0 480374.0 0
198685.0 476868.0 0
203307.0 477703.0 0
207821.0 476521.0 0
210613.0 480420.0 0
216168.0 480447.0 0
220926.0 478241.0 0
225406.0 478941.0 0
230660.0 476491.0 0
234710.0 478840.0 0
229984.0 481039.0 0
239964.0 478059.0 0
248737.0 478972.0 0
253034.0 479837.0 0
257619.0 479905.0 0
264041.0 481554.0 0
269851.0 477346.0 0
274965.0 477040.0 0
273286.0 481080.0 0
278066.0 480908.0 0
282119.0 478665.0 0
287084.0 479644.0 0
297348.0 481646.0 0
301717.0 480074.0 0
306933.0 478714.0 0
311852.0 478000.0 0
314909.0 481384.0 0
315875.0 477268.0 0
319686.0 479836.0 0
324683.0 481924.0 0
328500.0 478486.0 0
332890.0 477573.0 0
337430.0 478626.0 0
341747.0 478111.0 0
343079.0 482099.0 0
345311.0 478785.0 0
347468.0 481172.0 0
351783.0 480299.0 0
356483.0 479563.0 0
361283.0 480332.0 0
365554.0 481402.0 0
368433.0 478633.0 0
372176.0 479697.0 0
372911.0 482159.0 0
375476.0 480885.0 0
379887.0 479814.0 0
384652.0 482534.0 0
387796.0 479488.0 0
391645.0 479367.0 0
395874.0 479442.0 0
400061.0 481797.0 0
403577.0 477697.0 0
404964.0 482179.0 0
408220.0 478780.0 0
409394.0 483174.0 0
412766.0 480275.0 0
418376.0 482062.0 0
422514.0 481880.0 0
425340.0 479297.0 0
431960.0 478593.0 0
429357.0 481256.0 0
432905.0 482314.0 0
436517.0 480582.0 0
441430.0 481596.0 0
444183.0 479477.0 0
446978.0 479577.0 0
445103.0 482806.0 0
450085.0 478494.0 0
449060.0 482481.0 0
452653.0 480766.0 0
457747.0 479568.0 0
456031.0 482504.0 0
460473.0 481296.0 0
463512.0 480152.0 0
467053.0 482334.0 0
463541.0 483692.0 0
26294.3 485968.0 0
22764.1 488972.0 0
30381.6 484465.0 0
30008.4 488609.0 0
33897.9 485507.0 0
37047.8 483994.0 0
40950.1 484373.0 0
37698.1 487660.0 0
40191.1 486847.0 0
44695.0 486057.0 0
49463.4 485943.0 0
55961.7 483408.0 0
54255.5 486946.0 0
59129.8 485994.0 0
63957.1 484200.0 0
63491.5 487805.0 0
67542.3 486527.0 0
71053.3 485535.0 0
76545.9 483338.0 0
74146.0 486477.0 0
79011.4 487080.0 0
83744.2 483947.0 0
87548.6 486397.0 0
92009.9 485198.0 0
96037.0 483687.0 0
98477.6 486430.0 0
102938.0 485576.0 0
109573.0 485620.0 0
114287.0 484989.0 0
119097.0 486527.0 0
122620.0 483788.0 0
125898.0 485818.0 0
129581.0 486447.0 0
133572.0 483001.0 0
136275.0 486541.0 0
138689.0 483587.0 0
143502.0 484372.0 0
148507.0 482432.0 0
147173.0 487125.0 0
150699.0 485514.0 0
152402.0 482726.0 0
154216.0 485549.0 0
158487.0 485067.0 0
162853.0 483746.0 0
166336.0 485921.0 0
170381.0 485411.0 0
174520.0 484737.0 0
179042.0 484461.0 0
183073.0 482915.0 0
186260.0 484661.0 0
190708.0 483942.0 0
195418.0 484524.0 0
200247.0 482108.0 0
203582.0 486072.0 0
205938.0 481913.0 0
211582.0 485180.0 0
216597.0 486343.0 0
221435.0 482150.0 0
221384.0 486408.0 0
225558.0 484248.0 0
229658.0 485702.0 0
234070.0 484250.0 0
239107.0 482118.0 0
244658.0 481707.0 0
242134.0 486547.0 0
247116.0 486449.0 0
250160.0 483058.0 0
255210.0 484817.0 0
260037.0 485841.0 0
269714.0 482113.0 0
274036.0 485320.0 0
278485.0 486331.0 0
282761.0 483350.0 0
287994.0 486115.0 0
292589.0 482135.0 0
296268.0 486364.0 0
300523.0 484496.0 0
305421.0 483941.0 0
310531.0 483063.0 0
314303.0 485407.0 0
318212.0 484486.0 0
322342.0 485886.0 0
326994.0 486216.0 0
328668.0 482954.0 0
333130.0 482584.0 0
331344.0 487012.0 0
338540.0 483297.0 0
341898.0 486801.0 0
346335.0 485189.0 0
349980.0 483625.0 0
354159.0 484412.0 0
358843.0 483695.0 0
361092.0 487019.0 0
363043.0 484366.0 0
369807.0 482481.0 0
367217.0 485603.0 0
371157.0 486608.0 0
372067.0 483773.0 0
375620.0 485461.0 0
377998.0 482498.0 0
380481.0 484711.0 0
389936.0 483204.0 0
387727.0 486429.0 0
394994.0 483542.0 0
398495.0 486763.0 0
402742.0 485955.0 0
406176.0 485480.0 0
407731.0 486449.0 0
411196.0 488055.0 0
414870.0 484573.0 0
420018.0 487068.0 0
422360.0 485051.0 0
424609.0 488048.0 0
426706.0 484504.0 0
430746.0 485494.0 0
434932.0 485257.0 0
438782.0 484534.0 0
440893.0 487822.0 0
442955.0 485463.0 0
446963.0 486101.0 0
452309.0 484240.0 0
450379.0 486430.0 0
454938.0 486140.0 0
457819.0 488672.0 0
459722.0 484742.0 0
461310.0 488592.0 0
463047.0 487037.0 0
466827.0 486685.0 0
470475.0 483979.0 0
471209.0 486730.0 0
474165.0 486312.0 0
477457.0 488402.0 0
15385.7 493200.0 0
19063.4 490953.0 0
25973.6 489185.0 0
23048.7 493010.0 0
31547.1 492242.0 0
27338.5 492691.0 0
34321.5 489098.0 0
34788.2 493591.0 0
37465.6 490967.0 0
41139.8 489967.0 0
45543.4 489987.0 0
43975.1 493309.0 0
50373.2 490929.0 0
56188.6 490707.0 0
60680.2 490658.0 0
65660.0 490729.0 0
70671.4 489964.0 0
75221.4 490750.0 0
80008.5 492118.0 0
83204.5 488907.0 0
84293.0 493330.0 0
86652.3 490273.0 0
90360.9 489256.0 0
88434.1 492581.0 0
92207.1 492121.0 0
94310.4 488358.0 0
95202.9 491748.0 0
97134.7 489999.0 0
101229.0 489483.0 0
106317.0 488362.0 0
111302.0 488959.0 0
115792.0 489343.0 0
117277.0 492399.0 0
120281.0 490782.0 0
123133.0 488073.0 0
124765.0 491937.0 0
126694.0 488902.0 0
129704.0 490994.0 0
133047.0 488376.0 0
136390.0 489629.0 0
139776.0 487705.0 0
139168.0 492297.0 0
143599.0 489156.0 0
147247.0 491227.0 0
151088.0 489328.0 0
155853.0 489828.0 0
162037.0 489797.0 0
168440.0 490149.0 0
173465.0 489131.0 0
178715.0 489820.0 0
183174.0 487246.0 0
187788.0 488410.0 0
193444.0 489969.0 0
199089.0 487753.0 0
203389.0 490988.0 0
207496.0 487089.0 0
207945.0 491080.0 0
211206.0 489436.0 0
214756.0 490767.0 0
219429.0 490541.0 0
225069.0 490082.0 0
230713.0 489979.0 0
234866.0 488908.0 0
237771.0 486640.0 0
238980.0 491056.0 0
244024.0 491087.0 0
249092.0 491511.0 0
251204.0 487409.0 0
254521.0 490552.0 0
259030.0 489661.0 0
264039.0 488716.0 0
269371.0 486576.0 0
268369.0 490859.0 0
273390.0 489920.0 0
282953.0 488458.0 0
292329.0 488406.0 0
299480.0 490989.0 0
302875.0 487725.0 0
303941.0 491187.0 0
307315.0 488842.0 0
311986.0 488748.0 0
317448.0 489555.0 0
323882.0 491393.0 0
329030.0 490081.0 0
332848.0 490971.0 0
336361.0 487701.0 0
340509.0 491624.0 0
346081.0 490522.0 0
350213.0 487377.0 0
353906.0 488801.0 0
351337.0 491767.0 0
357717.0 488064.0 0
360664.0 491688.0 0
364189.0 488815.0 0
369144.0 490871.0 0
374432.0 490234.0 0
379189.0 489161.0 0
383813.0 487806.0 0
387862.0 489307.0 0
389937.0 492225.0 0
392656.0 488305.0 0
397537.0 491370.0 0
402122.0 490261.0 0
405993.0 489086.0 0
409251.0 491975.0 0
416474.0 489449.0 0
413647.0 492714.0 0
420106.0 490922.0 0
422709.0 490198.0 0
426497.0 491467.0 0
428676.0 488812.0 0
431174.0 492705.0 0
432921.0 488934.0 0
437266.0 488638.0 0
436065.0 492552.0 0
440250.0 491364.0 0
444655.0 489450.0 0
449087.0 489539.0 0
452721.0 488838.0 0
448489.0 493255.0 0
452306.0 492517.0 0
455577.0 491239.0 0
460479.0 492304.0 0
466970.0 490844.0 0
463781.0 490149.0 0
470613.0 490223.0 0
474292.0 489661.0 0
477318.0 492306.0 0
473416.0 493477.0 0
480746.0 490728.0 0
484227.0 493612.0 0
8419.99 497146.0 0
11893.7 495650.0 0
15072.5 497731.0 0
18796.6 494715.0 0
18706.8 497760.0 0
21998.8 496322.0 0
26194.1 496460.0 0
23832.2 498747.0 0
30544.8 495798.0 0
34593.8 497925.0 0
39098.3 494448.0 0
42575.5 496552.0 0
47916.8 496524.0 0
54215.9 495441.0 0
58340.4 493661.0 0
58876.5 497172.0 0
63107.1 494750.0 0
67403.3 497430.0 0
68244.8 493478.0 0
72027.2 494760.0 0
71639.9 498885.0 0
76458.8 494738.0 0
80477.4 497055.0 0
85153.8 497442.0 0
89798.0 496333.0 0
98178.0 493028.0 0
94576.7 495127.0 0
98578.6 497370.0 0
103297.0 493651.0 0
108498.0 492553.0 0
106954.0 495928.0 0
113264.0 493135.0 0
110334.0 495647.0 0
117205.0 495536.0 0
121377.0 494959.0 0
126027.0 496187.0 0
129977.0 494696.0 0
133131.0 497368.0 0
134055.0 492812.0 0
137392.0 496328.0 0
143372.0 492854.0 0
141407.0 496286.0 0
146824.0 496389.0 0
151986.0 493590.0 0
157469.0 495264.0 0
162192.0 495097.0 0
165412.0 493808.0 0
169612.0 495833.0 0
174903.0 494299.0 0
179567.0 494473.0 0
183967.0 492049.0 0
188720.0 492480.0 0
186868.0 495677.0 0
191878.0 496668.0 0
199041.0 492057.0 0
196484.0 494596.0 0
201103.0 496424.0 0
206276.0 494288.0 0
211314.0 494740.0 0
217006.0 494849.0 0
221821.0 494300.0 0
228570.0 494499.0 0
234132.0 494327.0 0
241961.0 495259.0 0
252967.0 495714.0 0
257622.0 494230.0 0
261307.0 492873.0 0
265594.0 494092.0 0
270851.0 494402.0 0
278758.0 492305.0 0
275236.0 496568.0 0
285296.0 492020.0 0
289502.0 491723.0 0
286097.0 496669.0 0
294348.0 491980.0 0
291808.0 496641.0 0
297536.0 496309.0 0
303283.0 495570.0 0
306282.0 492689.0 0
309843.0 493159.0 0
313748.0 492538.0 0
313345.0 497009.0 0
316095.0 494311.0 0
319230.0 494455.0 0
327014.0 496169.0 0
330086.0 493859.0 0
333787.0 494890.0 0
336326.0 492242.0 0
338150.0 496248.0 0
344113.0 496233.0 0
348793.0 494826.0 0
353010.0 496054.0 0
356246.0 492737.0 0
361419.0 494881.0 0
363524.0 497690.0 0
364485.0 493395.0 0
368414.0 496648.0 0
373387.0 494816.0 0
380715.0 492483.0 0
377551.0 493430.0 0
381147.0 496286.0 0
385056.0 492926.0 0
389157.0 496218.0 0
392127.0 497392.0 0
393742.0 494316.0 0
397754.0 496194.0 0
400901.0 494018.0 0
405453.0 494342.0 0
410682.0 495430.0 0
415094.0 496357.0 0
418046.0 493731.0 0
419564.0 498094.0 0
422789.0 494139.0 0
427742.0 495593.0 0
431604.0 496687.0 0
434996.0 496016.0 0
440386.0 496249.0 0
444140.0 493493.0 0
445901.0 496822.0 0
449731.0 497000.0 0
452904.0 496220.0 0
456602.0 494624.0 0
460812.0 497207.0 0
465092.0 494734.0 0
469556.0 494155.0 0
472294.0 497111.0 0
468962.0 498030.0 0
476417.0 496721.0 0
480564.0 495064.0 0
480657.0 498351.0 0
488264.0 495751.0 0
484779.0 498301.0 0
492125.0 497256.0 0
489248.0 498776.0 0
495497.0 500025.0 0
5573.23 499627.0 0
1750.07 500035.0 0
2070.81 502733.0 0
10339.3 499832.0 0
6534.86 503135.0 0
13694.2 501905.0 0
20883.3 499783.0 0
17569.8 501195.0 0
20656.3 503643.0 0
23658.8 501906.0 0
26157.9 499943.0 0
26596.5 502619.0 0
29556.5 499885.0 0
36403.5 502048.0 0
32550.4 502035.0 0
39079.8 498574.0 0
39867.6 501903.0 0
43439.9 500055.0 0
44790.5 503503.0 0
51970.5 499495.0 0
47750.7 501017.0 0
50900.5 502726.0 0
55402.0 499349.0 0
54670.1 503133.0 0
58723.7 501074.0 0
62773.6 499069.0 0
62358.1 502959.0 0
65401.8 501085.0 0
69049.7 501822.0 0
75460.8 498441.0 0
78464.8 501456.0 0
83044.8 501106.0 0
87736.9 501470.0 0
93561.5 500818.0 0
99062.4 501802.0 0
103501.0 499074.0 0
108847.0 498833.0 0
111638.0 502699.0 0
113500.0 498019.0 0
115305.0 501632.0 0
117935.0 499232.0 0
122213.0 499494.0 0
126640.0 500675.0 0
129256.0 498171.0 0
131298.0 502181.0 0
136638.0 500823.0 0
142398.0 501368.0 0
148085.0 501701.0 0
152269.0 498673.0 0
156413.0 500673.0 0
160614.0 499688.0 0
163854.0 502364.0 0
164687.0 498003.0 0
168134.0 500949.0 0
173245.0 499513.0 0
177801.0 498873.0 0
182827.0 497553.0 0
187248.0 500114.0 0
196610.0 499806.0 0
206667.0 499162.0 0
214725.0 500003.0 0
220330.0 498703.0 0
224839.0 497101.0 0
224486.0 501838.0 0
229640.0 499805.0 0
234517.0 499504.0 0
238143.0 497626.0 0
237656.0 501421.0 0
242013.0 500529.0 0
247169.0 497337.0 0
251794.0 501004.0 0
256388.0 499399.0 0
261404.0 497844.0 0
267574.0 499741.0 0
272891.0 500001.0 0
280371.0 499066.0 0
285196.0 501473.0 0
300688.0 499646.0 0
304439.0 500494.0 0
308269.0 497724.0 0
311726.0 500892.0 0
318117.0 498088.0 0
315736.0 501528.0 0
322538.0 497571.0 0
326752.0 500851.0 0
331145.0 498219.0 0
335777.0 501605.0 0
341075.0 500290.0 0
349169.0 499943.0 0
354460.0 500062.0 0
358658.0 497617.0 0
362379.0 502100.0 0
367483.0 501786.0 0
372932.0 500465.0 0
377292.0 497657.0 0
377496.0 501298.0 0
381277.0 500854.0 0
385488.0 498393.0 0
390580.0 500952.0 0
394863.0 498759.0 0
398223.0 500326.0 0
404790.0 498833.0 0
401515.0 497638.0 0
402018.0 501797.0 0
406239.0 502207.0 0
408353.0 498563.0 0
411251.0 502690.0 0
412182.0 498696.0 0
415723.0 500629.0 0
418880.0 502209.0 0
421683.0 501729.0 0
424749.0 498763.0 0
429956.0 500064.0 0
433490.0 499110.0 0
434319.0 502460.0 0
437224.0 499788.0 0
441292.0 500813.0 0
444496.0 499843.0 0
447210.0 502471.0 0
452465.0 499928.0 0
448583.0 499742.0 0
450786.0 502722.0 0
456575.0 499179.0 0
455660.0 503546.0 0
461313.0 502221.0 0
465034.0 499302.0 0
468603.0 502636.0 0
473721.0 500909.0 0
478056.0 500214.0 0
478188.0 503764.0 0
482169.0 501689.0 0
487679.0 502863.0 0
491789.0 500822.0 0
493276.0 503238.0 0
497202.0 503347.0 0
3441.21 506992.0 0
10095.4 503584.0 0
8498.13 506975.0 0
12817.8 506304.0 0
15984.2 509049.0 0
16769.2 505066.0 0
20421.0 507835.0 0
24339.8 505167.0 0
29082.9 505242.0 0
31156.8 509643.0 0
33883.7 505831.0 0
38727.0 505883.0 0
41986.5 503744.0 0
43374.2 507113.0 0
47656.5 505089.0 0
51539.2 506185.0 0
55087.1 507298.0 0
58517.9 505364.0 0
65839.2 504600.0 0
62282.2 506837.0 0
69858.7 505932.0 0
73824.5 503027.0 0
73770.7 507803.0 0
81016.1 504296.0 0
77241.0 505838.0 0
80402.6 507723.0 0
85376.1 506195.0 0
90415.0 505091.0 0
96292.4 505069.0 0
99965.9 505503.0 0
102405.0 503393.0 0
106724.0 503287.0 0
109625.0 507259.0 0
114176.0 506292.0 0
118808.0 504114.0 0
123724.0 503522.0 0
127265.0 505615.0 0
135095.0 504831.0 0
138589.0 504754.0 0
141187.0 507022.0 0
146221.0 507032.0 0
152561.0 504482.0 0
159111.0 505129.0 0
166822.0 505590.0 0
171713.0 504163.0 0
176819.0 503948.0 0
182470.0 503298.0 0
187445.0 504330.0 0
191583.0 502584.0 0
196038.0 504934.0 0
201238.0 502636.0 0
205868.0 504472.0 0
210378.0 503691.0 0
214257.0 506850.0 0
219208.0 504328.0 0
229289.0 505153.0 0
234276.0 504153.0 0
239736.0 505718.0 0
246870.0 503578.0 0
252665.0 505894.0 0
257701.0 504153.0 0
262766.0 503313.0 0
267027.0 505366.0 0
271551.0 504185.0 0
276090.0 502283.0 0
282171.0 505168.0 0
290010.0 502176.0 0
287417.0 507044.0 0
296299.0 502361.0 0
301384.0 503332.0 0
304659.0 504433.0 0
308225.0 502476.0 0
307371.0 506693.0 0
312056.0 505535.0 0
316856.0 505991.0 0
321485.0 503383.0 0
327779.0 506354.0 0
330852.0 502715.0 0
332957.0 506577.0 0
340748.0 504643.0 0
337160.0 506657.0 0
344866.0 502629.0 0
344639.0 507319.0 0
348691.0 505331.0 0
353038.0 503977.0 0
356172.0 506473.0 0
357762.0 502839.0 0
360465.0 506788.0 0
365613.0 506564.0 0
371224.0 505927.0 0
376391.0 505017.0 0
381489.0 506090.0 0
386008.0 503237.0 0
386377.0 507771.0 0
391598.0 507068.0 0
395116.0 502906.0 0
396250.0 506100.0 0
398923.0 507399.0 0
398776.0 504080.0 0
402703.0 506038.0 0
407511.0 506432.0 0
412862.0 508108.0 0
416457.0 504554.0 0
420838.0 505692.0 0
426314.0 504009.0 0
431390.0 504083.0 0
435172.0 506772.0 0
439296.0 504348.0 0
443961.0 503677.0 0
443688.0 507693.0 0
447844.0 505695.0 0
451641.0 505746.0 0
454947.0 508024.0 0
460116.0 507328.0 0
464892.0 505525.0 0
468781.0 507159.0 0
473611.0 505906.0 0
478657.0 507887.0 0
482848.0 505217.0 0
487622.0 507530.0 0
492519.0 505932.0 0
497407.0 507048.0 0
3125.55 512142.0 0
7152.53 510126.0 0
11305.0 510369.0 0
15745.7 512555.0 0
20024.7 512571.0 0
25547.0 509435.0 0
24054.2 513823.0 0
28725.5 513369.0 0
35909.3 510060.0 0
40027.3 509675.0 0
43187.6 511376.0 0
46588.4 513022.0 0
47702.1 509049.0 0
51927.9 509078.0 0
50533.4 512367.0 0
54645.2 511114.0 0
57458.6 513529.0 0
58862.1 509659.0 0
65809.0 508388.0 0
62909.3 510243.0 0
65415.5 512198.0 0
69248.2 510115.0 0
73076.7 512143.0 0
77542.4 510385.0 0
82249.5 510641.0 0
86160.7 511040.0 0
89793.2 509158.0 0
93481.1 507476.0 0
93563.8 511785.0 0
98110.7 509684.0 0
104050.0 508077.0 0
108028.0 511667.0 0
112570.0 510516.0 0
117273.0 509234.0 0
122568.0 508320.0 0
127479.0 510891.0 0
131855.0 507677.0 0
132866.0 512273.0 0
136858.0 508924.0 0
141370.0 510910.0 0
150093.0 510587.0 0
154654.0 509816.0 0
159496.0 510470.0 0
163396.0 508574.0 0
167040.0 510718.0 0
170092.0 508308.0 0
171227.0 512323.0 0
174434.0 508605.0 0
179879.0 508941.0 0
183691.0 511967.0 0
185409.0 508078.0 0
190249.0 507389.0 0
198997.0 508212.0 0
194600.0 510705.0 0
203733.0 508986.0 0
208826.0 508184.0 0
207652.0 512065.0 0
212121.0 511406.0 0
217696.0 510856.0 0
224424.0 507310.0 0
228028.0 511913.0 0
232322.0 508875.0 0
236008.0 507927.0 0
235925.0 511209.0 0
244308.0 508079.0 0
240690.0 511301.0 0
248748.0 508363.0 0
251688.0 512002.0 0
256476.0 509424.0 0
260198.0 507366.0 0
263974.0 509437.0 0
260148.0 511478.0 0
270282.0 509282.0 0
276353.0 507538.0 0
281163.0 509722.0 0
284934.0 511174.0 0
290230.0 512159.0 0
292910.0 507156.0 0
299529.0 507238.0 0
296434.0 511784.0 0
303772.0 507867.0 0
301754.0 511265.0 0
308963.0 511412.0 0
314961.0 510538.0 0
320088.0 509106.0 0
323828.0 507978.0 0
324719.0 512237.0 0
330857.0 511866.0 0
336356.0 510651.0 0
340632.0 509267.0 0
344602.0 512290.0 0
348103.0 509702.0 0
352305.0 508680.0 0
357179.0 511049.0 0
363230.0 511722.0 0
369276.0 511189.0 0
374588.0 508355.0 0
374457.0 511549.0 0
377978.0 509365.0 0
383605.0 511371.0 0
388295.0 511244.0 0
396311.0 509976.0 0
401047.0 510738.0 0
404572.0 509859.0 0
407948.0 510765.0 0
416377.0 512765.0 0
417603.0 508298.0 0
421118.0 510743.0 0
425242.0 508879.0 0
430731.0 508518.0 0
427941.0 511251.0 0
435478.0 511947.0 0
439247.0 508994.0 0
439193.0 512110.0 0
442373.0 511994.0 0
447719.0 508988.0 0
445897.0 511505.0 0
450920.0 509017.0 0
449415.0 512369.0 0
453322.0 511888.0 0
457534.0 510800.0 0
461829.0 512351.0 0
465009.0 509319.0 0
468654.0 510252.0 0
471717.0 509283.0 0
471431.0 512881.0 0
475656.0 511072.0 0
483002.0 508995.0 0
480467.0 512573.0 0
486121.0 512985.0 0
494370.0 509098.0 0
491017.0 510232.0 0
494310.0 511787.0 0
497648.0 510852.0 0
2120.19 515922.0 0
7692.78 513723.0 0
5424.89 516837.0 0
8714.65 517447.0 0
12268.5 515077.0 0
16995.4 516512.0 0
21176.6 516972.0 0
25755.6 517188.0 0
33717.9 513742.0 0
30936.4 517258.0 0
35908.6 517683.0 0
38907.0 514075.0 0
43619.9 515850.0 0
48339.4 516332.0 0
53381.9 515597.0 0
57892.7 517182.0 0
61573.5 513664.0 0
61289.5 517233.0 0
64959.1 517046.0 0
68570.8 514333.0 0
71967.7 515981.0 0
76252.6 515686.0 0
80096.5 513795.0 0
87537.6 513461.0 0
84068.6 515002.0 0
89811.5 512724.0 0
91421.9 514256.0 0
88856.8 517064.0 0
93800.0 516202.0 0
97631.6 514802.0 0
102751.0 513560.0 0
106995.0 515351.0 0
111109.0 514992.0 0
115467.0 513434.0 0
114376.0 517012.0 0
117931.0 516731.0 0
120333.0 512941.0 0
124627.0 515713.0 0
129666.0 515304.0 0
133456.0 516591.0 0
137277.0 513954.0 0
141403.0 515330.0 0
146092.0 513527.0 0
151887.0 514913.0 0
157188.0 514682.0 0
163027.0 514023.0 0
167892.0 514603.0 0
171396.0 517454.0 0
176370.0 514189.0 0
181200.0 514093.0 0
188502.0 512787.0 0
184302.0 515984.0 0
192992.0 516280.0 0
198161.0 516822.0 0
199641.0 512234.0 0
203768.0 515480.0 0
209748.0 516499.0 0
214965.0 515469.0 0
222728.0 512279.0 0
220179.0 517132.0 0
225145.0 515917.0 0
232843.0 514906.0 0
237592.0 514643.0 0
241890.0 516933.0 0
246196.0 512928.0 0
249916.0 516279.0 0
256377.0 515780.0 0
262479.0 514795.0 0
267377.0 513649.0 0
274079.0 512741.0 0
278488.0 512614.0 0
276862.0 516635.0 0
282033.0 513553.0 0
280953.0 516475.0 0
285749.0 516591.0 0
300109.0 515468.0 0
296310.0 516617.0 0
304608.0 514573.0 0
309851.0 516125.0 0
314545.0 516254.0 0
319500.0 513830.0 0
323237.0 517525.0 0
327864.0 516321.0 0
336147.0 515882.0 0
340241.0 513264.0 0
346572.0 516747.0 0
342337.0 516453.0 0
350585.0 513653.0 0
355106.0 515529.0 0
359538.0 515174.0 0
363532.0 517259.0 0
368592.0 516734.0 0
372397.0 514840.0 0
375751.0 515391.0 0
379147.0 513477.0 0
383161.0 516179.0 0
387316.0 514649.0 0
392436.0 513517.0 0
398326.0 514588.0 0
404976.0 515294.0 0
411041.0 513440.0 0
409908.0 516942.0 0
413599.0 516105.0 0
416885.0 517509.0 0
420625.0 515341.0 0
425519.0 514008.0 0
424260.0 517741.0 0
430887.0 514005.0 0
434760.0 517016.0 0
439831.0 515992.0 0
445964.0 516167.0 0
451365.0 515828.0 0
457245.0 515664.0 0
462722.0 517499.0 0
466801.0 514223.0 0
471559.0 516903.0 0
474398.0 515029.0 0
477794.0 515406.0 0
482437.0 517681.0 0
487667.0 517323.0 0
491664.0 514691.0 0
496869.0 514972.0 0
2118.56 519148.0 0
2606.94 522761.0 0
6983.22 520829.0 0
12911.9 520304.0 0
18452.4 520042.0 0
16508.4 523205.0 0
22868.8 520573.0 0
25053.7 524823.0 0
27704.8 520768.0 0
32862.6 521434.0 0
40539.3 518933.0 0
37601.9 522293.0 0
45458.4 520307.0 0
48856.1 523030.0 0
50502.7 519644.0 0
54505.7 519455.0 0
57868.7 521691.0 0
61828.7 520415.0 0
65890.7 522635.0 0
69240.4 518682.0 0
71342.6 523091.0 0
73491.9 519212.0 0
76607.4 522503.0 0
80360.7 518651.0 0
84873.2 519594.0 0
92691.6 520079.0 0
96851.1 519121.0 0
100393.0 517873.0 0
100454.0 522629.0 0
104167.0 518139.0 0
105868.0 521918.0 0
108394.0 518494.0 0
112015.0 519192.0 0
109949.0 522127.0 0
116227.0 521261.0 0
121094.0 519018.0 0
124639.0 520189.0 0
128060.0 519131.0 0
132062.0 520915.0 0
137236.0 519486.0 0
134830.0 522139.0 0
142670.0 519449.0 0
147955.0 518941.0 0
152127.0 518966.0 0
155763.0 519603.0 0
160077.0 518128.0 0
160805.0 522142.0 0
166243.0 518478.0 0
169450.0 521958.0 0
176200.0 519959.0 0
180560.0 517942.0 0
188101.0 518701.0 0
184291.0 521050.0 0
192773.0 521365.0 0
197630.0 521711.0 0
203216.0 521998.0 0
209151.0 521940.0 0
214309.0 520580.0 0
219335.0 522215.0 0
224353.0 521490.0 0
228686.0 518341.0 0
228730.0 522434.0 0
233094.0 520155.0 0
237191.0 518548.0 0
240824.0 520877.0 0
246477.0 520387.0 0
252192.0 520681.0 0
257119.0 521382.0 0
260789.0 519324.0 0
265760.0 519268.0 0
271500.0 517512.0 0
272235.0 522286.0 0
279724.0 519922.0 0
275644.0 520821.0 0
283916.0 522131.0 0
288787.0 521237.0 0
291248.0 517347.0 0
293973.0 521679.0 0
299242.0 520395.0 0
302917.0 518208.0 0
303882.0 522190.0 0
306828.0 518713.0 0
311203.0 520210.0 0
318763.0 518386.0 0
315924.0 521956.0 0
320801.0 521932.0 0
324198.0 521534.0 0
327025.0 520414.0 0
331624.0 519634.0 0
336442.0 520964.0 0
340017.0 519356.0 0
343711.0 520193.0 0
348059.0 521334.0 0
352066.0 518670.0 0
358036.0 520474.0 0
364064.0 522169.0 0
368823.0 521599.0 0
373641.0 519391.0 0
378966.0 518363.0 0
383425.0 520376.0 0
386290.0 518043.0 0
387434.0 521273.0 0
390020.0 517889.0 0
391510.0 521766.0 0
395021.0 518998.0 0
400501.0 519430.0 0
404624.0 520664.0 0
408363.0 520225.0 0
412851.0 519816.0 0
416815.0 522541.0 0
420593.0 519906.0 0
424634.0 521552.0 0
429418.0 519236.0 0
434461.0 521324.0 0
438902.0 521003.0 0
442893.0 519628.0 0
446332.0 521496.0 0
449679.0 519454.0 0
454036.0 520135.0 0
459237.0 520915.0 0
468030.0 519842.0 0
463360.0 522150.0 0
473101.0 522529.0 0
478221.0 518483.0 0
475057.0 518684.0 0
478249.0 521768.0 0
482519.0 522477.0 0
486746.0 520786.0 0
491743.0 519568.0 0
489906.0 523622.0 0
494425.0 523526.0 0
497176.0 519429.0 0
498400.0 522781.0 0
3508.81 527623.0 0
9722.81 523771.0 0
7049.51 524709.0 0
9068.46 527901.0 0
12896.8 525650.0 0
20191.4 523512.0 0
17284.5 526631.0 0
21436.3 527537.0 0
29738.9 524714.0 0
24916.5 529415.0 0
34372.8 526980.0 0
39106.0 526256.0 0
41886.3 523360.0 0
42436.8 527847.0 0
45712.3 525225.0 0
49617.8 526801.0 0
53127.6 523479.0 0
53426.2 527895.0 0
57097.8 526011.0 0
61140.0 524650.0 0
64297.2 527491.0 0
68698.3 527055.0 0
73759.6 526990.0 0
78109.6 527037.0 0
82402.1 524268.0 0
88566.3 523025.0 0
91998.9 526667.0 0
95091.4 523240.0 0
96664.0 527519.0 0
104486.0 525019.0 0
108154.0 526123.0 0
112395.0 524646.0 0
116522.0 526766.0 0
121899.0 524085.0 0
127785.0 523470.0 0
125722.0 527022.0 0
134037.0 524988.0 0
137608.0 526465.0 0
140119.0 523499.0 0
141269.0 527599.0 0
145415.0 524325.0 0
151581.0 523167.0 0
156122.0 523669.0 0
154478.0 527464.0 0
158947.0 526267.0 0
163094.0 525706.0 0
165233.0 522626.0 0
168163.0 527573.0 0
173436.0 523400.0 0
178624.0 526994.0 0
180436.0 522516.0 0
182822.0 526047.0 0
187844.0 524688.0 0
193404.0 526271.0 0
199215.0 525560.0 0
206985.0 526645.0 0
211265.0 525707.0 0
216002.0 526035.0 0
221602.0 526224.0 0
227226.0 527031.0 0
231903.0 524477.0 0
237481.0 523932.0 0
243434.0 524971.0 0
249052.0 525698.0 0
254958.0 525608.0 0
261204.0 524493.0 0
267948.0 525491.0 0
275001.0 525406.0 0
279042.0 523802.0 0
282091.0 527119.0 0
287558.0 526265.0 0
292261.0 526078.0 0
296684.0 526495.0 0
300692.0 524707.0 0
303966.0 526086.0 0
308784.0 525081.0 0
314032.0 526343.0 0
320101.0 526631.0 0
324996.0 525065.0 0
329072.0 523693.0 0
333738.0 525268.0 0
338044.0 523888.0 0
341144.0 522978.0 0
344646.0 524448.0 0
349161.0 525594.0 0
352738.0 523228.0 0
356539.0 526249.0 0
361661.0 526211.0 0
367101.0 526520.0 0
372901.0 524914.0 0
379216.0 523986.0 0
384709.0 524370.0 0
389242.0 525663.0 0
393851.0 525092.0 0
397723.0 523595.0 0
400078.0 527195.0 0
402375.0 523892.0 0
406880.0 524341.0 0
412167.0 525086.0 0
417106.0 526992.0 0
421586.0 525118.0 0
427055.0 524781.0 0
431824.0 524595.0 0
437045.0 525613.0 0
441645.0 527298.0 0
442671.0 523338.0 0
446060.0 525978.0 0
450772.0 524239.0 0
456345.0 524380.0 0
454201.0 527876.0 0
460288.0 524552.0 0
463720.0 526543.0 0
468213.0 524980.0 0
471902.0 527289.0 0
476878.0 526567.0 0
482072.0 527060.0 0
486137.0 524525.0 0
486952.0 528057.0 0
492134.0 527824.0 0
498001.0 525651.0 0
1350.05 530960.0 0
6519.54 531504.0 0
14445.4 529744.0 0
10745.3 532538.0 0
19116.0 531142.0 0
23578.0 532599.0 0
28910.0 529047.0 0
27753.2 533214.0 0
32957.3 532779.0 0
38413.2 530643.0 0
43091.9 532369.0 0
46626.4 529582.0 0
50554.1 531004.0 0
55517.4 531784.0 0
59962.1 528936.0 0
60174.1 533538.0 0
63155.8 530902.0 0
66646.1 530781.0 0
71038.0 531115.0 0
76508.4 531722.0 0
81441.0 529603.0 0
87000.3 529000.0 0
92802.0 530925.0 0
102319.0 528520.0 0
97750.1 532571.0 0
107382.0 531372.0 0
111953.0 528904.0 0
116385.0 531685.0 0
120810.0 529712.0 0
122492.0 532675.0 0
125404.0 531046.0 0
130148.0 528258.0 0
135063.0 529363.0 0
139125.0 531425.0 0
144312.0 531412.0 0
149315.0 528676.0 0
152984.0 532773.0 0
157916.0 530884.0 0
162021.0 529163.0 0
164723.0 530721.0 0
172088.0 531568.0 0
173946.0 527588.0 0
176545.0 531393.0 0
181250.0 531047.0 0
185153.0 529139.0 0
190294.0 531388.0 0
197157.0 530203.0 0
202380.0 528466.0 0
206131.0 531833.0 0
211387.0 530244.0 0
216736.0 531631.0 0
221928.0 531203.0 0
227281.0 531796.0 0
232876.0 529400.0 0
237761.0 529167.0 0
242373.0 530426.0 0
248076.0 531572.0 0
253529.0 530687.0 0
258601.0 529538.0 0
263348.0 529239.0 0
267287.0 531719.0 0
272562.0 530386.0 0
277681.0 529479.0 0
281045.0 531220.0 0
285437.0 531745.0 0
291259.0 530792.0 0
296920.0 532383.0 0
301093.0 529063.0 0
305837.0 529733.0 0
311062.0 530842.0 0
316531.0 530385.0 0
324200.0 530233.0 0
329031.0 528023.0 0
334224.0 531099.0 0
339781.0 528147.0 0
345839.0 529197.0 0
352153.0 530333.0 0
359268.0 530209.0 0
363879.0 530454.0 0
370990.0 528649.0 0
368681.0 531798.0 0
374019.0 531655.0 0
376390.0 528146.0 0
379521.0 530162.0 0
383062.0 528244.0 0
387464.0 530336.0 0
383050.0 532294.0 0
392629.0 529252.0 0
396610.0 527961.0 0
396178.0 531792.0 0
400829.0 531540.0 0
404140.0 528062.0 0
405856.0 532273.0 0
408753.0 528711.0 0
410959.0 532762.0 0
414037.0 529692.0 0
417881.0 530717.0 0
421329.0 529495.0 0
424896.0 528553.0 0
426841.0 532824.0 0
429234.0 528733.0 0
432389.0 533197.0 0
433409.0 528748.0 0
437312.0 530778.0 0
441719.0 531404.0 0
445948.0 530273.0 0
450334.0 529178.0 0
454567.0 532216.0 0
458803.0 528692.0 0
459634.0 533410.0 0
463597.0 530976.0 0
467471.0 529151.0 0
470430.0 530808.0 0
474439.0 530805.0 0
479222.0 531595.0 0
484102.0 531453.0 0
489073.0 531839.0 0
494038.0 533139.0 0
497286.0 529311.0 0
498217.0 532914.0 0
2677.89 533932.0 0
2371.83 538520.0 0
6774.01 536275.0 0
11673.5 538206.0 0
15748.2 534633.0 0
21283.6 538986.0 0
20471.6 535434.0 0
25182.1 536859.0 0
29916.3 536541.0 0
34186.3 538210.0 0
37279.9 534904.0 0
40456.5 535252.0 0
44191.2 537388.0 0
47584.7 533798.0 0
51716.3 535296.0 0
56380.2 536972.0 0
61150.3 537817.0 0
64537.4 534181.0 0
65100.6 537884.0 0
68926.2 535572.0 0
73030.1 534856.0 0
77908.7 536943.0 0
80922.6 533533.0 0
83139.6 537299.0 0
84279.7 533122.0 0
88886.9 535270.0 0
94504.4 536501.0 0
99828.2 537694.0 0
102748.0 533614.0 0
105376.0 537441.0 0
108730.0 535211.0 0
112069.0 533497.0 0
115900.0 536346.0 0
120084.0 534276.0 0
124883.0 536568.0 0
129223.0 533398.0 0
131658.0 537335.0 0
133086.0 532797.0 0
136498.0 535685.0 0
141414.0 535525.0 0
148007.0 535228.0 0
152187.0 537759.0 0
157664.0 536582.0 0
162245.0 533348.0 0
167192.0 533558.0 0
164185.0 537475.0 0
167841.0 537631.0 0
171573.0 536208.0 0
176727.0 536207.0 0
181995.0 536210.0 0
185087.0 532827.0 0
187078.0 536381.0 0
191864.0 537503.0 0
196890.0 535907.0 0
201421.0 533649.0 0
204970.0 536668.0 0
210063.0 535771.0 0
215074.0 536141.0 0
219831.0 535693.0 0
224914.0 535405.0 0
230717.0 535113.0 0
236693.0 533869.0 0
241723.0 536245.0 0
247234.0 537532.0 0
252680.0 535924.0 0
257655.0 534584.0 0
262913.0 534779.0 0
268096.0 536973.0 0
273042.0 535683.0 0
278672.0 535422.0 0
284338.0 537280.0 0
288927.0 535081.0 0
292932.0 535720.0 0
296925.0 537220.0 0
301739.0 536138.0 0
307000.0 534325.0 0
311501.0 536391.0 0
320310.0 532828.0 0
316152.0 535312.0 0
319715.0 535936.0 0
323900.0 535938.0 0
328917.0 533337.0 0
332828.0 535188.0 0
338739.0 533337.0 0
336460.0 537284.0 0
342596.0 532576.0 0
341568.0 536684.0 0
346822.0 534961.0 0
352411.0 536839.0 0
356800.0 534077.0 0
361362.0 534410.0 0
358742.0 537962.0 0
365444.0 534329.0 0
370155.0 537135.0 0
374158.0 535654.0 0
378837.0 535305.0 0
386385.0 534778.0 0
391774.0 534270.0 0
398271.0 536184.0 0
403172.0 535615.0 0
407736.0 536189.0 0
412251.0 536633.0 0
416137.0 534624.0 0
421334.0 533741.0 0
419772.0 538031.0 0
424668.0 537506.0 0
429759.0 537328.0 0
434565.0 537657.0 0
439137.0 535559.0 0
444623.0 535077.0 0
448298.0 537983.0 0
449589.0 533526.0 0
452753.0 536949.0 0
456759.0 536225.0 0
463591.0 534814.0 0
461023.0 538259.0 0
467525.0 533392.0 0
465935.0 537742.0 0
471961.0 534069.0 0
469596.0 536738.0 0
475890.0 534475.0 0
478474.0 537312.0 0
482295.0 535564.0 0
486329.0 534976.0 0
485851.0 538399.0 0
490208.0 535798.0 0
493699.0 537723.0 0
497719.0 536235.0 0
2428.14 542861.0 0
6183.2 540789.0 0
14732.6 541744.0 0
17380.3 538746.0 0
19515.4 543321.0 0
24626.4 541884.0 0
28562.3 540254.0 0
31991.7 542262.0 0
36581.3 542887.0 0
39012.2 538692.0 0
41919.6 542040.0 0
45964.9 541534.0 0
49098.9 538856.0 0
53395.4 541060.0 0
58509.1 541141.0 0
63463.1 542309.0 0
68065.7 539953.0 0
72941.2 539231.0 0
77191.0 540947.0 0
80117.7 540065.0 0
82796.1 541335.0 0
86653.0 540703.0 0
91002.4 540144.0 0
95557.6 541474.0 0
100947.0 542769.0 0
106305.0 542804.0 0
110924.0 538913.0 0
115876.0 541089.0 0
119969.0 538582.0 0
119485.0 542238.0 0
123251.0 541660.0 0
128398.0 541414.0 0
134231.0 542182.0 0
138717.0 539813.0 0
144560.0 538886.0 0
149026.0 541990.0 0
155349.0 542471.0 0
160994.0 541033.0 0
165537.0 541504.0 0
169662.0 540618.0 0
174341.0 540650.0 0
179151.0 540444.0 0
183203.0 540680.0 0
187741.0 541512.0 0
192977.0 542576.0 0
197786.0 540408.0 0
200919.0 538046.0 0
203865.0 541240.0 0
207915.0 539992.0 0
212959.0 540211.0 0
217530.0 539639.0 0
221884.0 540523.0 0
227048.0 540564.0 0
232665.0 540681.0 0
237531.0 539121.0 0
244119.0 541606.0 0
240462.0 541756.0 0
251615.0 541176.0 0
259977.0 538460.0 0
256116.0 539306.0 0
263468.0 539588.0 0
267304.0 542180.0 0
271987.0 539976.0 0
276586.0 541061.0 0
281180.0 540239.0 0
284023.0 542002.0 0
288903.0 539321.0 0
293859.0 540526.0 0
299062.0 540713.0 0
303799.0 542307.0 0
306073.0 538412.0 0
309510.0 541327.0 0
315072.0 540382.0 0
320121.0 539498.0 0
324631.0 541308.0 0
330544.0 539656.0 0
335658.0 541760.0 0
340068.0 541508.0 0
344999.0 540122.0 0
349350.0 540698.0 0
354627.0 542013.0 0
359767.0 542271.0 0
364391.0 539144.0 0
369142.0 542498.0 0
374938.0 539041.0 0
379312.0 541296.0 0
383524.0 538358.0 0
388561.0 538792.0 0
393979.0 539596.0 0
399789.0 541227.0 0
404805.0 539840.0 0
410325.0 539909.0 0
415432.0 539668.0 0
422656.0 541394.0 0
427882.0 541981.0 0
431899.0 539445.0 0
433816.0 543121.0 0
438651.0 540564.0 0
442611.0 542210.0 0
442243.0 538877.0 0
445137.0 540220.0 0
451040.0 541984.0 0
456127.0 540476.0 0
460510.0 543516.0 0
465844.0 542437.0 0
469192.0 540092.0 0
473754.0 539029.0 0
477296.0 542589.0 0
481862.0 540764.0 0
489526.0 539264.0 0
486993.0 543270.0 0
492494.0 542286.0 0
497357.0 540513.0 0
5424.99 546534.0 0
10048.2 543570.0 0
14647.7 546287.0 0
24099.7 546416.0 0
28260.3 544716.0 0
32938.7 546393.0 0
40203.4 546134.0 0
36365.3 548020.0 0
45164.9 545477.0 0
49221.7 543320.0 0
48764.5 546733.0 0
52542.8 546094.0 0
56479.3 544415.0 0
58419.5 548295.0 0
64449.4 548393.0 0
68828.0 544205.0 0
74634.6 545219.0 0
79792.9 543465.0 0
79806.5 547865.0 0
84243.7 545161.0 0
89787.5 544588.0 0
97161.4 546434.0 0
102448.0 547772.0 0
107322.0 547770.0 0
111882.0 544935.0 0
116708.0 544986.0 0
120751.0 545822.0 0
125483.0 545704.0 0
130036.0 546336.0 0
137783.0 546044.0 0
133919.0 546923.0 0
141730.0 543195.0 0
145475.0 545500.0 0
149238.0 547225.0 0
163190.0 544955.0 0
158994.0 547260.0 0
168465.0 545855.0 0
173401.0 544913.0 0
177870.0 545109.0 0
183538.0 545135.0 0
189751.0 546862.0 0
197046.0 544199.0 0
194299.0 546611.0 0
201335.0 545675.0 0
206730.0 545438.0 0
212701.0 545898.0 0
218009.0 544074.0 0
222527.0 545107.0 0
227044.0 545728.0 0
231789.0 545845.0 0
236902.0 544349.0 0
241839.0 545257.0 0
247581.0 546161.0 0
253628.0 545833.0 0
257916.0 543456.0 0
262771.0 544432.0 0
267316.0 547412.0 0
271813.0 544592.0 0
280654.0 544651.0 0
276094.0 546427.0 0
287511.0 544025.0 0
292029.0 544847.0 0
296700.0 544833.0 0
301091.0 546453.0 0
307121.0 545993.0 0
311689.0 546007.0 0
316572.0 545505.0 0
320725.0 543743.0 0
320416.0 547647.0 0
324815.0 546582.0 0
330114.0 545898.0 0
334567.0 545261.0 0
338533.0 546026.0 0
344267.0 545923.0 0
350249.0 545184.0 0
354843.0 547134.0 0
360346.0 547811.0 0
364017.0 544254.0 0
371367.0 546053.0 0
367146.0 547619.0 0
374576.0 543366.0 0
374708.0 547358.0 0
380650.0 547222.0 0
384740.0 542968.0 0
386614.0 547421.0 0
390037.0 543603.0 0
395670.0 545124.0 0
399822.0 545151.0 0
403602.0 544807.0 0
408107.0 543640.0 0
410063.0 547249.0 0
413019.0 543998.0 0
418541.0 544175.0 0
424187.0 545957.0 0
429589.0 547415.0 0
439639.0 545501.0 0
446187.0 543738.0 0
449596.0 547063.0 0
455211.0 546008.0 0
459863.0 548062.0 0
464521.0 547485.0 0
470916.0 543880.0 0
475495.0 547542.0 0
480744.0 545582.0 0
484889.0 548065.0 0
491101.0 547724.0 0
496784.0 545739.0 0
2053.95 549857.0 0
10243.8 549003.0 0
6354.31 550801.0 0
14729.4 550954.0 0
19478.8 548855.0 0
24727.6 551924.0 0
29487.9 549019.0 0
30584.6 553137.0 0
34470.3 551640.0 0
39242.5 550667.0 0
43052.5 548982.0 0
46815.6 549452.0 0
50237.1 549107.0 0
49482.3 553090.0 0
53816.1 550525.0 0
70191.9 548792.0 0
68095.6 553073.0 0
76130.1 549886.0 0
72917.8 552504.0 0
78884.0 552434.0 0
83015.1 551159.0 0
87219.6 549267.0 0
92530.5 549535.0 0
97858.9 551776.0 0
102698.0 552677.0 0
111124.0 550597.0 0
115620.0 548646.0 0
120240.0 551053.0 0
126718.0 551334.0 0
131948.0 549997.0 0
135465.0 549978.0 0
139883.0 550659.0 0
145248.0 550023.0 0
150541.0 552441.0 0
153825.0 547869.0 0
156532.0 550785.0 0
159948.0 552110.0 0
163763.0 549454.0 0
168367.0 551506.0 0
174344.0 550236.0 0
180573.0 549629.0 0
185723.0 550333.0 0
193486.0 550465.0 0
189718.0 552154.0 0
198217.0 549875.0 0
203570.0 550631.0 0
208799.0 550159.0 0
213759.0 551849.0 0
218594.0 549130.0 0
222967.0 549036.0 0
226874.0 550564.0 0
232222.0 551086.0 0
237464.0 549796.0 0
242647.0 549896.0 0
247261.0 552497.0 0
252295.0 550743.0 0
257693.0 549394.0 0
262742.0 549102.0 0
272462.0 550315.0 0
279167.0 549905.0 0
284743.0 548931.0 0
291183.0 550142.0 0
297526.0 550226.0 0
302948.0 550686.0 0
307901.0 550790.0 0
312089.0 550086.0 0
316892.0 551311.0 0
322775.0 551246.0 0
328109.0 550896.0 0
334056.0 550385.0 0
340317.0 550991.0 0
346217.0 551337.0 0
350974.0 550319.0 0
356096.0 552081.0 0
371585.0 549988.0 0
367734.0 552873.0 0
376199.0 551029.0 0
385737.0 552652.0 0
391407.0 548416.0 0
395506.0 550189.0 0
400626.0 549681.0 0
406186.0 549089.0 0
411513.0 551282.0 0
415290.0 548275.0 0
416341.0 552931.0 0
420337.0 549729.0 0
425575.0 550872.0 0
431299.0 552402.0 0
435140.0 549042.0 0
440083.0 550962.0 0
444566.0 548416.0 0
448401.0 551920.0 0
452513.0 550462.0 0
456997.0 551233.0 0
461752.0 552014.0 0
466207.0 551827.0 0
469679.0 548797.0 0
472931.0 552297.0 0
477434.0 552959.0 0
480499.0 549898.0 0
483619.0 552735.0 0
488062.0 551887.0 0
497053.0 551191.0 0
3833.18 553630.0 0
2096.36 557346.0 0
9115.26 553798.0 0
6227.31 557287.0 0
13776.0 555220.0 0
10562.2 558177.0 0
18641.7 553886.0 0
22406.4 557650.0 0
27952.6 557049.0 0
33225.6 557424.0 0
37941.5 555171.0 0
43647.5 553631.0 0
47393.6 557654.0 0
53622.9 554878.0 0
56203.5 557142.0 0
57936.7 553464.0 0
59874.9 558157.0 0
63131.9 554233.0 0
70600.7 557287.0 0
76118.4 556898.0 0
82309.0 556360.0 0
87253.1 554047.0 0
93130.1 555357.0 0
98071.1 556625.0 0
107079.0 553503.0 0
102799.0 557578.0 0
111107.0 556298.0 0
115320.0 553349.0 0
122406.0 556195.0 0
127833.0 557534.0 0
131773.0 554133.0 0
136015.0 553657.0 0
139479.0 555226.0 0
143699.0 554769.0 0
148416.0 557686.0 0
155748.0 554718.0 0
159858.0 556575.0 0
164103.0 554561.0 0
168432.0 555858.0 0
172030.0 555118.0 0
177277.0 555076.0 0
182176.0 554897.0 0
186776.0 554484.0 0
193059.0 554910.0 0
189471.0 556988.0 0
197091.0 553975.0 0
204001.0 556168.0 0
208866.0 554833.0 0
212844.0 556666.0 0
217590.0 555735.0 0
222072.0 553068.0 0
226267.0 555378.0 0
231037.0 556298.0 0
236931.0 555827.0 0
242643.0 554919.0 0
247465.0 556922.0 0
251122.0 555575.0 0
255812.0 554619.0 0
261787.0 554673.0 0
266051.0 552849.0 0
265376.0 557615.0 0
270468.0 556171.0 0
276766.0 555614.0 0
282129.0 553475.0 0
286984.0 554727.0 0
292460.0 556116.0 0
300388.0 555158.0 0
306143.0 556139.0 0
311736.0 554632.0 0
317896.0 557924.0 0
323111.0 555765.0 0
330014.0 554407.0 0
326860.0 555001.0 0
333206.0 555706.0 0
338049.0 555992.0 0
343777.0 556109.0 0
350482.0 556376.0 0
361996.0 554024.0 0
356857.0 557804.0 0
368422.0 557615.0 0
372857.0 555040.0 0
380341.0 553203.0 0
377906.0 557831.0 0
382953.0 556683.0 0
391821.0 553782.0 0
397870.0 555024.0 0
401622.0 558211.0 0
402855.0 554367.0 0
407221.0 553617.0 0
412375.0 556598.0 0
418068.0 557427.0 0
422326.0 554706.0 0
427560.0 555267.0 0
432836.0 556790.0 0
436394.0 554080.0 0
440385.0 555183.0 0
444144.0 553580.0 0
453813.0 554614.0 0
449267.0 557524.0 0
458515.0 556065.0 0
464346.0 555338.0 0
469119.0 555165.0 0
474429.0 557170.0 0
480963.0 557338.0 0
486773.0 556419.0 0
492703.0 554210.0 0
497642.0 556139.0 0
1809.91 560982.0 0
7547.31 562252.0 0
13374.3 562109.0 0
17026.3 558684.0 0
20300.6 562695.0 0
25554.6 561893.0 0
30063.3 561278.0 0
34898.7 563126.0 0
39021.2 559842.0 0
42968.6 558484.0 0
42000.5 561341.0 0
45249.9 561977.0 0
49058.9 561170.0 0
52844.3 559206.0 0
57116.2 562398.0 0
65785.8 558588.0 0
62414.1 562329.0 0
68881.4 562162.0 0
73919.8 562433.0 0
79323.4 561437.0 0
84560.9 561505.0 0
88801.7 558653.0 0
88980.4 563314.0 0
93759.2 561347.0 0
98948.0 560758.0 0
107340.0 559839.0 0
112067.0 561305.0 0
116635.0 558452.0 0
121208.0 561408.0 0
125289.0 561002.0 0
129683.0 561535.0 0
133277.0 559012.0 0
138335.0 559165.0 0
143486.0 560123.0 0
148677.0 562641.0 0
153868.0 560235.0 0
159821.0 560670.0 0
164267.0 559649.0 0
169530.0 560326.0 0
174477.0 558597.0 0
179729.0 560347.0 0
185466.0 559267.0 0
188827.0 562851.0 0
193162.0 560040.0 0
198726.0 558379.0 0
203417.0 561743.0 0
208086.0 559418.0 0
212708.0 561390.0 0
218011.0 561660.0 0
222280.0 558381.0 0
227432.0 560376.0 0
232855.0 561209.0 0
238351.0 562419.0 0
244057.0 560318.0 0
249804.0 560107.0 0
254178.0 561221.0 0
259360.0 559282.0 0
264220.0 561437.0 0
268342.0 560506.0 0
273017.0 560681.0 0
278237.0 561985.0 0
282653.0 558438.0 0
287916.0 560284.0 0
293022.0 561318.0 0
296753.0 558479.0 0
297075.0 562994.0 0
301399.0 560753.0 0
306403.0 561222.0 0
311713.0 560734.0 0
316024.0 562216.0 0
323027.0 561130.0 0
329050.0 559769.0 0
335132.0 559954.0 0
340730.0 561960.0 0
346592.0 560962.0 0
350975.0 562115.0 0
355066.0 562607.0 0
359539.0 562443.0 0
363964.0 559886.0 0
367927.0 563264.0 0
372501.0 560650.0 0
382360.0 560944.0 0
377612.0 563141.0 0
387675.0 558472.0 0
393964.0 559393.0 0
398524.0 560509.0 0
402556.0 563124.0 0
406680.0 558789.0 0
411326.0 561647.0 0
415904.0 561418.0 0
420816.0 561653.0 0
424636.0 558842.0 0
429263.0 559779.0 0
433109.0 560654.0 0
435077.0 559208.0 0
438309.0 558736.0 0
436355.0 563138.0 0
443394.0 558479.0 0
440840.0 562373.0 0
446638.0 563114.0 0
452098.0 562654.0 0
454675.0 558876.0 0
458320.0 562748.0 0
461841.0 558908.0 0
463457.0 562485.0 0
466053.0 559041.0 0
467920.0 563346.0 0
470287.0 559536.0 0
473014.0 562945.0 0
477297.0 561082.0 0
485770.0 561611.0 0
491336.0 559424.0 0
496755.0 560856.0 0
2696.61 565160.0 0
7401.21 568084.0 0
12261.5 566815.0 0
17646.9 567844.0 0
23814.5 566608.0 0
28594.6 565450.0 0
37259.0 567724.0 0
41009.3 564943.0 0
48067.5 563597.0 0
46314.5 566853.0 0
51753.7 564424.0 0
55763.1 567006.0 0
60512.1 566933.0 0
65956.7 566356.0 0
71245.3 567018.0 0
77497.8 565778.0 0
81932.0 565605.0 0
86319.2 566666.0 0
92244.0 567480.0 0
97716.7 565246.0 0
102849.0 563352.0 0
107876.0 565172.0 0
116711.0 563400.0 0
113072.0 565950.0 0
121965.0 566530.0 0
126970.0 564764.0 0
132804.0 565013.0 0
139293.0 564825.0 0
144835.0 564958.0 0
148774.0 567546.0 0
153193.0 565769.0 0
157602.0 564562.0 0
162963.0 564875.0 0
168597.0 565724.0 0
174324.0 564214.0 0
179127.0 567644.0 0
183950.0 564691.0 0
192979.0 565765.0 0
199016.0 565891.0 0
203879.0 566369.0 0
208319.0 564960.0 0
219335.0 565760.0 0
215049.0 566111.0 0
222797.0 564455.0 0
229408.0 565188.0 0
234239.0 566214.0 0
238648.0 567420.0 0
242775.0 565739.0 0
247906.0 564781.0 0
252268.0 564599.0 0
256275.0 565622.0 0
261158.0 564709.0 0
265715.0 565360.0 0
270132.0 564600.0 0
274907.0 566535.0 0
283182.0 564525.0 0
288601.0 566070.0 0
294123.0 566061.0 0
299834.0 565458.0 0
304406.0 565584.0 0
309084.0 565271.0 0
314773.0 565473.0 0
311654.0 567794.0 0
319071.0 563532.0 0
321888.0 567266.0 0
327567.0 566357.0 0
334552.0 565248.0 0
338782.0 566415.0 0
346616.0 565535.0 0
342523.0 567626.0 0
350721.0 566136.0 0
357265.0 567163.0 0
363217.0 565535.0 0
367099.0 567483.0 0
372665.0 566971.0 0
381822.0 565178.0 0
378738.0 568240.0 0
387035.0 564715.0 0
393725.0 565501.0 0
398729.0 565708.0 0
407495.0 563668.0 0
407073.0 567805.0 0
412282.0 566693.0 0
417776.0 565802.0 0
422753.0 567819.0 0
425861.0 563500.0 0
427822.0 567682.0 0
431268.0 564433.0 0
436753.0 568195.0 0
442320.0 567188.0 0
447721.0 568294.0 0
454480.0 567014.0 0
462306.0 566205.0 0
458869.0 568037.0 0
466394.0 568035.0 0
470652.0 566701.0 0
474375.0 567736.0 0
476929.0 564817.0 0
479421.0 568448.0 0
480876.0 563516.0 0
484241.0 566334.0 0
490922.0 565189.0 0
497372.0 565924.0 0
2537.71 570170.0 0
11063.6 570367.0 0
14254.1 571982.0 0
22067.2 572171.0 0
27374.3 570227.0 0
32550.3 568609.0 0
38501.3 571867.0 0
42310.2 569534.0 0
47568.0 571850.0 0
51796.4 569468.0 0
57637.8 570786.0 0
63395.0 570760.0 0
68494.0 571069.0 0
75337.9 569730.0 0
72368.1 572747.0 0
80815.9 570676.0 0
87724.5 570791.0 0
97558.8 570624.0 0
103293.0 568930.0 0
110252.0 570402.0 0
117073.0 569798.0 0
120640.0 572938.0 0
123931.0 571035.0 0
128655.0 569747.0 0
133096.0 570074.0 0
137478.0 570411.0 0
143414.0 570225.0 0
149765.0 572611.0 0
155116.0 569758.0 0
159533.0 568439.0 0
158905.0 572883.0 0
165456.0 568977.0 0
169860.0 571064.0 0
174655.0 569611.0 0
178106.0 572000.0 0
183378.0 571298.0 0
188164.0 568417.0 0
192871.0 570564.0 0
196680.0 570453.0 0
202692.0 570471.0 0
207746.0 570408.0 0
212378.0 570173.0 0
217847.0 570852.0 0
222955.0 569595.0 0
226950.0 568497.0 0
230983.0 570310.0 0
235908.0 570719.0 0
240726.0 571046.0 0
245918.0 570298.0 0
251640.0 568942.0 0
257601.0 570526.0 0
262748.0 569532.0 0
268241.0 569680.0 0
273291.0 571659.0 0
278443.0 570738.0 0
282884.0 569114.0 0
286815.0 571267.0 0
292137.0 570978.0 0
297818.0 569490.0 0
302933.0 570626.0 0
307922.0 569659.0 0
312395.0 571639.0 0
317196.0 569904.0 0
321861.0 572396.0 0
326651.0 571767.0 0
332149.0 570809.0 0
338139.0 570542.0 0
343561.0 571455.0 0
348178.0 569920.0 0
352729.0 569482.0 0
356141.0 572444.0 0
362088.0 571165.0 0
368636.0 572615.0 0
373938.0 572306.0 0
381258.0 571545.0 0
377645.0 572469.0 0
383402.0 568690.0 0
384817.0 572312.0 0
389749.0 570710.0 0
394716.0 571303.0 0
397528.0 569029.0 0
401840.0 568443.0 0
399555.0 572905.0 0
405050.0 571810.0 0
410259.0 572057.0 0
416215.0 571182.0 0
421793.0 573229.0 0
426161.0 571206.0 0
431853.0 569468.0 0
435262.0 573470.0 0
439951.0 571730.0 0
444850.0 572637.0 0
451666.0 571038.0 0
456594.0 572021.0 0
461429.0 571457.0 0
466086.0 573014.0 0
470419.0 570736.0 0
475363.0 572810.0 0
483559.0 570025.0 0
481073.0 573655.0 0
487410.0 568663.0 0
486565.0 573138.0 0
491841.0 571038.0 0
497348.0 571000.0 0
2116.8 574537.0 0
6969.84 573684.0 0
8676.32 578348.0 0
11771.9 575372.0 0
17530.8 575044.0 0
22167.0 577069.0 0
26806.6 575743.0 0
33201.2 574927.0 0
38917.4 576516.0 0
43047.0 574030.0 0
47264.8 576564.0 0
53589.1 575556.0 0
60370.4 574843.0 0
65511.3 574836.0 0
70051.5 576400.0 0
73938.9 576566.0 0
76888.0 574305.0 0
81960.3 576504.0 0
87149.1 575281.0 0
92335.7 573843.0 0
93918.2 578054.0 0
97926.4 576356.0 0
104010.0 575192.0 0
109619.0 575609.0 0
113749.0 573942.0 0
113366.0 577957.0 0
117819.0 575158.0 0
123276.0 575539.0 0
127971.0 574776.0 0
133740.0 575258.0 0
139754.0 575057.0 0
145414.0 576397.0 0
150358.0 577033.0 0
154312.0 575127.0 0
158582.0 577995.0 0
164303.0 573494.0 0
168666.0 575789.0 0
174266.0 575592.0 0
180255.0 575691.0 0
188416.0 573525.0 0
184740.0 575998.0 0
193151.0 575173.0 0
197091.0 573856.0 0
201133.0 575734.0 0
206841.0 575605.0 0
212939.0 575593.0 0
218505.0 575965.0 0
222800.0 576545.0 0
226487.0 573443.0 0
231909.0 575375.0 0
237320.0 575702.0 0
243042.0 574644.0 0
248076.0 576111.0 0
252330.0 573472.0 0
256362.0 575566.0 0
260823.0 573877.0 0
265533.0 574460.0 0
270140.0 574956.0 0
276191.0 576259.0 0
282533.0 575331.0 0
288733.0 576395.0 0
294496.0 576412.0 0
299593.0 574393.0 0
304541.0 575282.0 0
308565.0 574009.0 0
312124.0 576280.0 0
316674.0 574986.0 0
321058.0 576809.0 0
324915.0 575760.0 0
330060.0 576771.0 0
335803.0 575300.0 0
341251.0 575194.0 0
346012.0 574035.0 0
351100.0 574775.0 0
359228.0 575319.0 0
361052.0 578592.0 0
365521.0 577608.0 0
373086.0 576107.0 0
376931.0 575933.0 0
380595.0 574997.0 0
385176.0 577256.0 0
390436.0 576070.0 0
394569.0 578434.0 0
398961.0 577408.0 0
407667.0 575692.0 0
403559.0 576389.0 0
411540.0 577623.0 0
417400.0 577180.0 0
422238.0 577825.0 0
425644.0 576281.0 0
429803.0 574178.0 0
434144.0 577477.0 0
439878.0 576719.0 0
444979.0 577922.0 0
449654.0 575738.0 0
454754.0 576950.0 0
459674.0 576167.0 0
464349.0 577435.0 0
470483.0 576344.0 0
477915.0 578476.0 0
483298.0 577555.0 0
488164.0 578467.0 0
494052.0 576020.0 0
498266.0 575137.0 0
3365.45 579594.0 0
9482.4 583305.0 0
12751.7 579463.0 0
18383.0 581475.0 0
24721.6 580595.0 0
29839.2 582285.0 0
35950.2 581125.0 0
39505.7 579474.0 0
43033.5 579489.0 0
49765.4 580031.0 0
53947.5 582598.0 0
58491.7 579729.0 0
63220.6 578995.0 0
67058.4 581763.0 0
72225.7 582265.0 0
76984.7 579497.0 0
86150.2 579785.0 0
81735.3 582166.0 0
91213.5 581562.0 0
96379.2 581141.0 0
101606.0 581132.0 0
107457.0 580336.0 0
112876.0 583244.0 0
117514.0 579745.0 0
123106.0 581008.0 0
129374.0 579408.0 0
133422.0 580323.0 0
138713.0 580537.0 0
144235.0 582224.0 0
148590.0 580369.0 0
153648.0 580825.0 0
163875.0 580302.0 0
170122.0 580643.0 0
174947.0 581661.0 0
179268.0 580651.0 0
183925.0 580056.0 0
188670.0 578725.0 0
193158.0 579536.0 0
197360.0 579434.0 0
202961.0 580135.0 0
208451.0 580367.0 0
213102.0 581404.0 0
217893.0 580527.0 0
222699.0 581102.0 0
227859.0 579090.0 0
232947.0 579876.0 0
237391.0 581096.0 0
241538.0 578790.0 0
245611.0 581020.0 0
250002.0 580892.0 0
254904.0 580895.0 0
261320.0 579647.0 0
268088.0 579608.0 0
273678.0 581285.0 0
279392.0 580950.0 0
283637.0 580240.0 0
287099.0 581310.0 0
291450.0 580698.0 0
296092.0 581608.0 0
301339.0 579751.0 0
307871.0 580227.0 0
313536.0 580639.0 0
317774.0 579400.0 0
325695.0 580223.0 0
321410.0 581914.0 0
330293.0 582421.0 0
334535.0 580075.0 0
339532.0 580423.0 0
346775.0 578830.0 0
352164.0 580345.0 0
356732.0 578603.0 0
356104.0 582935.0 0
360505.0 582883.0 0
365474.0 582395.0 0
370233.0 579794.0 0
375777.0 580339.0 0
380899.0 580505.0 0
384547.0 582038.0 0
389759.0 581286.0 0
398076.0 580743.0 0
401610.0 580591.0 0
406948.0 580417.0 0
411612.0 583062.0 0
417270.0 583168.0 0
421435.0 581090.0 0
425838.0 580994.0 0
430778.0 579284.0 0
429696.0 583647.0 0
436183.0 581763.0 0
441940.0 580824.0 0
445637.0 582617.0 0
451160.0 581304.0 0
456962.0 581671.0 0
461425.0 580346.0 0
466305.0 581130.0 0
471493.0 581647.0 0
475710.0 582921.0 0
482472.0 581994.0 0
493059.0 581123.0 0
497870.0 578872.0 0
497491.0 583397.0 0
3704.72 586421.0 0
14038.9 586545.0 0
19387.3 588402.0 0
23881.6 585345.0 0
28262.2 587549.0 0
33837.2 587026.0 0
40837.6 584856.0 0
46859.2 583984.0 0
51069.2 587756.0 0
56767.5 587798.0 0
61697.3 584225.0 0
67280.1 587369.0 0
73158.1 587678.0 0
77357.9 584722.0 0
86380.5 584811.0 0
81642.4 587418.0 0
91108.7 587230.0 0
95972.9 585689.0 0
100847.0 586613.0 0
106916.0 586765.0 0
114941.0 587980.0 0
118383.0 584502.0 0
122561.0 587421.0 0
128264.0 585086.0 0
134715.0 585101.0 0
140328.0 585836.0 0
145005.0 587724.0 0
149413.0 584943.0 0
153965.0 585957.0 0
158894.0 584385.0 0
164731.0 586536.0 0
168634.0 584716.0 0
172734.0 586070.0 0
178471.0 585883.0 0
183546.0 584674.0 0
188650.0 584146.0 0
194566.0 584408.0 0
199690.0 584696.0 0
203183.0 585290.0 0
207280.0 584830.0 0
212244.0 586125.0 0
217011.0 585328.0 0
221896.0 585805.0 0
227073.0 584718.0 0
231972.0 584179.0 0
236877.0 586243.0 0
241584.0 583846.0 0
246640.0 586138.0 0
251642.0 584913.0 0
256974.0 586748.0 0
263609.0 586258.0 0
268836.0 584754.0 0
273095.0 586437.0 0
277900.0 585888.0 0
283544.0 584829.0 0
288051.0 584862.0 0
292645.0 585241.0 0
296049.0 585045.0 0
299828.0 585463.0 0
305690.0 586458.0 0
311608.0 585346.0 0
316780.0 583755.0 0
320940.0 586398.0 0
325953.0 585466.0 0
332671.0 586991.0 0
337390.0 584810.0 0
341870.0 584731.0 0
346734.0 584247.0 0
352024.0 585840.0 0
363395.0 586495.0 0
368091.0 585523.0 0
372368.0 584535.0 0
377284.0 585337.0 0
381831.0 586614.0 0
386546.0 585654.0 0
391063.0 587482.0 0
395085.0 583968.0 0
400663.0 585219.0 0
406620.0 586217.0 0
413713.0 587233.0 0
422607.0 585071.0 0
426581.0 585057.0 0
432944.0 586260.0 0
428799.0 588349.0 0
437074.0 587260.0 0
441269.0 585097.0 0
448777.0 586539.0 0
453914.0 585986.0 0
458444.0 586460.0 0
463005.0 584685.0 0
468022.0 585004.0 0
473026.0 587389.0 0
479015.0 586212.0 0
484178.0 588058.0 0
487311.0 583857.0 0
488479.0 587798.0 0
491676.0 585733.0 0
494307.0 588693.0 0
497984.0 587726.0 0
3284.46 593167.0 0
9364.07 589420.0 0
14592.6 592505.0 0
19681.3 593218.0 0
24427.3 591117.0 0
29406.4 592258.0 0
34145.8 592511.0 0
38878.1 590307.0 0
44561.2 589409.0 0
48755.6 592324.0 0
53509.0 592276.0 0
58873.5 592154.0 0
61690.4 589398.0 0
64866.4 591692.0 0
74874.9 592392.0 0
77422.1 589575.0 0
86198.9 589923.0 0
81924.9 592631.0 0
90355.0 591862.0 0
95157.1 590880.0 0
100644.0 591826.0 0
105927.0 592888.0 0
111559.0 590601.0 0
118378.0 589603.0 0
121490.0 592325.0 0
127133.0 591830.0 0
132190.0 589648.0 0
137509.0 590447.0 0
142654.0 592309.0 0
149140.0 590566.0 0
154426.0 590697.0 0
160163.0 590421.0 0
165453.0 592116.0 0
169009.0 589342.0 0
173520.0 591343.0 0
177869.0 590656.0 0
182233.0 589457.0 0
187327.0 589263.0 0
193051.0 590810.0 0
198172.0 588635.0 0
203048.0 589870.0 0
208832.0 590139.0 0
214159.0 590128.0 0
218439.0 589791.0 0
222553.0 590009.0 0
226792.0 589619.0 0
232153.0 589694.0 0
238102.0 590506.0 0
242033.0 588909.0 0
247108.0 591183.0 0
252077.0 589448.0 0
257602.0 591644.0 0
261127.0 590954.0 0
268814.0 589868.0 0
273781.0 590908.0 0
278310.0 590707.0 0
283075.0 590037.0 0
287302.0 590287.0 0
291521.0 589870.0 0
295461.0 592991.0 0
295900.0 588583.0 0
300438.0 591293.0 0
305491.0 591622.0 0
310474.0 591109.0 0
316295.0 589150.0 0
323234.0 590879.0 0
328494.0 590211.0 0
332701.0 591529.0 0
341754.0 589415.0 0
336844.0 590123.0 0
347217.0 589913.0 0
352574.0 591158.0 0
357905.0 588465.0 0
367121.0 590288.0 0
362534.0 590668.0 0
373030.0 589955.0 0
378369.0 590042.0 0
387152.0 590670.0 0
382604.0 591153.0 0
391597.0 591746.0 0
395868.0 589564.0 0
401205.0 590614.0 0
406470.0 592255.0 0
410635.0 589795.0 0
414192.0 590774.0 0
418390.0 588904.0 0
423923.0 590106.0 0
433265.0 591122.0 0
443281.0 588832.0 0
439813.0 590668.0 0
446535.0 591057.0 0
452186.0 591289.0 0
456776.0 589919.0 0
460754.0 590406.0 0
465791.0 589491.0 0
470106.0 592192.0 0
475410.0 593341.0 0
480248.0 591061.0 0
484275.0 592916.0 0
490350.0 592872.0 0
497113.0 592427.0 0
2047.0 598164.0 0
8749.89 594542.0 0
6320.74 598510.0 0
12403.1 597866.0 0
18015.0 597812.0 0
22225.6 595625.0 0
26325.7 595965.0 0
32631.5 596555.0 0
37575.3 596620.0 0
43248.9 594996.0 0
48356.1 597128.0 0
56889.2 595983.0 0
62452.6 596004.0 0
69466.4 594020.0 0
73966.5 596327.0 0
78092.0 595853.0 0
86705.8 595074.0 0
82430.7 597283.0 0
92803.7 595890.0 0
97243.9 595059.0 0
102229.0 596653.0 0
106282.0 597266.0 0
110507.0 595600.0 0
116353.0 594381.0 0
121516.0 596869.0 0
126182.0 597563.0 0
133364.0 594528.0 0
138245.0 595132.0 0
142260.0 597177.0 0
146622.0 595416.0 0
151400.0 594887.0 0
156322.0 595764.0 0
161256.0 595592.0 0
165533.0 597561.0 0
170593.0 595765.0 0
176337.0 595550.0 0
182135.0 595003.0 0
188211.0 594823.0 0
193645.0 596901.0 0
198495.0 593807.0 0
202122.0 596496.0 0
205487.0 594381.0 0
212326.0 594585.0 0
216708.0 594451.0 0
215957.0 598220.0 0
220990.0 594283.0 0
226414.0 594857.0 0
231346.0 594764.0 0
236617.0 595287.0 0
242843.0 594378.0 0
247648.0 595261.0 0
251634.0 593981.0 0
256169.0 595469.0 0
260935.0 595245.0 0
265900.0 594771.0 0
270825.0 594706.0 0
275792.0 595312.0 0
281783.0 594716.0 0
286290.0 594492.0 0
287029.0 598174.0 0
290958.0 594850.0 0
296537.0 597785.0 0
301701.0 596754.0 0
307512.0 594792.0 0
311137.0 596519.0 0
306182.0 598576.0 0
315596.0 594771.0 0
320946.0 595790.0 0
325578.0 594525.0 0
330025.0 595497.0 0
335372.0 594828.0 0
341282.0 595129.0 0
347614.0 596049.0 0
353729.0 596484.0 0
360143.0 595085.0 0
366410.0 596091.0 0
371205.0 597262.0 0
374159.0 594636.0 0
378657.0 595622.0 0
383533.0 595209.0 0
388645.0 596053.0 0
392666.0 598773.0 0
393415.0 595079.0 0
397682.0 594363.0 0
402465.0 595669.0 0
408023.0 595520.0 0
411513.0 594566.0 0
417328.0 594779.0 0
422420.0 594594.0 0
427724.0 594704.0 0
432751.0 595656.0 0
437136.0 594747.0 0
442879.0 595077.0 0
448272.0 595279.0 0
453034.0 597151.0 0
457521.0 594137.0 0
461629.0 596811.0 0
465996.0 594752.0 0
471359.0 595954.0 0
476658.0 598506.0 0
480551.0 595823.0 0
485648.0 597794.0 0
492933.0 598503.0 0
497552.0 597589.0 0
3322.1 602676.0 0
8071.15 602410.0 0
12515.7 602837.0 0
20392.1 601210.0 0
17435.4 603282.0 0
23137.9 599380.0 0
23965.1 603583.0 0
29523.0 600534.0 0
36139.1 602673.0 0
41597.4 599580.0 0
41863.1 603801.0 0
45936.2 600770.0 0
50264.1 602689.0 0
53095.9 599184.0 0
57863.0 600814.0 0
62342.2 601169.0 0
71313.7 599293.0 0
66621.7 599761.0 0
75986.1 600306.0 0
81217.4 602235.0 0
87084.6 600768.0 0
96910.8 599363.0 0
92400.6 600794.0 0
101365.0 601342.0 0
106394.0 601624.0 0
112025.0 601185.0 0
118162.0 601106.0 0
123427.0 601187.0 0
130956.0 599915.0 0
136047.0 598970.0 0
140080.0 601438.0 0
147825.0 600356.0 0
143719.0 600383.0 0
152854.0 599480.0 0
157222.0 600297.0 0
161708.0 600620.0 0
168238.0 600966.0 0
173075.0 601082.0 0
177936.0 600080.0 0
182167.0 600249.0 0
187525.0 600628.0 0
192233.0 601039.0 0
198469.0 599382.0 0
202998.0 599978.0 0
208743.0 599876.0 0
213992.0 601434.0 0
220369.0 599492.0 0
225479.0 600383.0 0
230788.0 599459.0 0
235602.0 600746.0 0
240230.0 600179.0 0
246051.0 600327.0 0
253021.0 600617.0 0
259399.0 600153.0 0
264175.0 600265.0 0
268945.0 599598.0 0
273415.0 599266.0 0
278537.0 600149.0 0
283299.0 599050.0 0
291059.0 600331.0 0
300719.0 601443.0 0
295922.0 603407.0 0
310031.0 600785.0 0
315872.0 600961.0 0
326426.0 599467.0 0
321917.0 601024.0 0
331418.0 600945.0 0
337156.0 600048.0 0
342118.0 600068.0 0
346216.0 601652.0 0
350696.0 600456.0 0
357617.0 601143.0 0
363573.0 601052.0 0
368683.0 600271.0 0
372397.0 603739.0 0
375233.0 599857.0 0
379973.0 600172.0 0
384501.0 599832.0 0
389208.0 601377.0 0
397487.0 599882.0 0
401676.0 599162.0 0
402104.0 602429.0 0
407033.0 599662.0 0
413468.0 599702.0 0
418882.0 600305.0 0
423769.0 598771.0 0
428262.0 600327.0 0
433552.0 600361.0 0
438646.0 598976.0 0
437651.0 602462.0 0
442829.0 600828.0 0
448371.0 600414.0 0
457693.0 598920.0 0
454125.0 602383.0 0
461338.0 601341.0 0
466718.0 600436.0 0
472325.0 599928.0 0
477069.0 602100.0 0
480881.0 600904.0 0
489335.0 601645.0 0
493885.0 602710.0 0
497894.0 602031.0 0
2916.2 608244.0 0
8526.9 607199.0 0
14546.2 607166.0 0
20812.2 606699.0 0
27293.5 604400.0 0
25915.7 608617.0 0
30680.3 605904.0 0
34685.4 607806.0 0
39101.8 607445.0 0
46477.7 605142.0 0
50143.6 607235.0 0
54631.1 605432.0 0
60393.6 605342.0 0
65631.9 604817.0 0
72112.4 605340.0 0
78200.7 606826.0 0
85241.6 605548.0 0
81932.2 606532.0 0
91606.8 606408.0 0
97212.5 604318.0 0
102988.0 606995.0 0
109064.0 606185.0 0
113580.0 605816.0 0
116941.0 608298.0 0
121652.0 605953.0 0
127322.0 604566.0 0
133797.0 605847.0 0
140220.0 606829.0 0
144962.0 604527.0 0
149649.0 605849.0 0
154709.0 604387.0 0
159728.0 604938.0 0
167844.0 604907.0 0
163905.0 605110.0 0
171920.0 606066.0 0
177398.0 605415.0 0
183760.0 605286.0 0
192265.0 604102.0 0
188919.0 605317.0 0
197484.0 605183.0 0
203542.0 604713.0 0
213860.0 604903.0 0
209212.0 606933.0 0
217599.0 604291.0 0
222226.0 604603.0 0
227351.0 605245.0 0
232835.0 605142.0 0
238567.0 605015.0 0
242979.0 604592.0 0
247779.0 606050.0 0
251716.0 605427.0 0
255698.0 606194.0 0
260749.0 605315.0 0
265816.0 604339.0 0
271687.0 605254.0 0
276853.0 604573.0 0
282043.0 605099.0 0
287493.0 603982.0 0
291532.0 606654.0 0
300372.0 605793.0 0
305637.0 604210.0 0
311531.0 605601.0 0
316711.0 607413.0 0
321725.0 605830.0 0
327222.0 604953.0 0
332387.0 605607.0 0
341657.0 604362.0 0
336817.0 605504.0 0
347284.0 606586.0 0
352134.0 604940.0 0
357773.0 607413.0 0
363113.0 606138.0 0
367775.0 604670.0 0
371900.0 608666.0 0
376917.0 604899.0 0
382036.0 604269.0 0
387248.0 606496.0 0
393671.0 605095.0 0
399270.0 605812.0 0
405586.0 606650.0 0
411436.0 604822.0 0
417087.0 605597.0 0
423247.0 604429.0 0
429528.0 605699.0 0
435059.0 605671.0 0
440556.0 605611.0 0
446138.0 605780.0 0
451407.0 606425.0 0
458531.0 605754.0 0
464215.0 605781.0 0
469379.0 605535.0 0
474043.0 604363.0 0
472882.0 608924.0 0
478655.0 605668.0 0
483046.0 604880.0 0
487402.0 606305.0 0
492154.0 606431.0 0
496891.0 606554.0 0
1223.44 611960.0 0
6517.69 611512.0 0
11903.1 610880.0 0
17957.0 610686.0 0
22051.3 611269.0 0
31162.9 610739.0 0
37036.5 612468.0 0
41779.9 610772.0 0
45961.6 610008.0 0
52472.2 611398.0 0
58144.3 610142.0 0
63400.0 609576.0 0
67964.1 609416.0 0
71621.2 611486.0 0
76691.4 611929.0 0
81753.4 610271.0 0
86847.2 610052.0 0
91550.6 612470.0 0
97082.5 610230.0 0
101959.0 612268.0 0
107244.0 611217.0 0
112384.0 610370.0 0
118173.0 613143.0 0
122928.0 611093.0 0
128736.0 610763.0 0
135327.0 612607.0 0
139635.0 610965.0 0
144713.0 609537.0 0
148727.0 611061.0 0
153358.0 609887.0 0
158393.0 609193.0 0
163012.0 609360.0 0
168282.0 609779.0 0
173016.0 613412.0 0
174186.0 609090.0 0
177528.0 610894.0 0
181866.0 610209.0 0
186760.0 610326.0 0
192420.0 609019.0 0
197536.0 610828.0 0
201797.0 609340.0 0
205963.0 612225.0 0
214673.0 609227.0 0
219078.0 609796.0 0
222476.0 609828.0 0
226724.0 610902.0 0
231990.0 610181.0 0
237197.0 610140.0 0
242304.0 609234.0 0
242755.0 613815.0 0
246949.0 610883.0 0
252500.0 609835.0 0
256684.0 610825.0 0
261512.0 610493.0 0
267173.0 609969.0 0
272627.0 611061.0 0
277545.0 609130.0 0
282039.0 611930.0 0
286721.0 609071.0 0
291358.0 611708.0 0
296631.0 609580.0 0
302552.0 610091.0 0
307526.0 609579.0 0
308316.0 613967.0 0
312149.0 610689.0 0
320923.0 610798.0 0
316378.0 612273.0 0
326411.0 610905.0 0
331748.0 610141.0 0
337515.0 611148.0 0
342968.0 609232.0 0
347501.0 611668.0 0
352888.0 610819.0 0
358074.0 612929.0 0
366305.0 609110.0 0
362253.0 610493.0 0
368389.0 613368.0 0
376648.0 609407.0 0
380848.0 609183.0 0
378424.0 613644.0 0
384929.0 611711.0 0
391349.0 611114.0 0
396867.0 610075.0 0
401733.0 610891.0 0
408004.0 612179.0 0
412670.0 609803.0 0
417613.0 611274.0 0
422061.0 609508.0 0
426299.0 610139.0 0
432662.0 609708.0 0
429931.0 612770.0 0
437402.0 610346.0 0
442857.0 610315.0 0
448059.0 611057.0 0
452273.0 610293.0 0
456406.0 610854.0 0
461692.0 610573.0 0
467213.0 610252.0 0
474544.0 614028.0 0
477319.0 610097.0 0
482268.0 609629.0 0
488800.0 611483.0 0
493831.0 609838.0 0
493359.0 613761.0 0
497781.0 611247.0 0
2838.68 615631.0 0
8133.37 615691.0 0
13392.5 615635.0 0
18115.9 615195.0 0
22218.6 617172.0 0
27219.7 614608.0 0
32689.6 616335.0 0
37570.4 617854.0 0
42099.4 615502.0 0
47668.1 614876.0 0
52117.5 617062.0 0
56760.5 615450.0 0
62026.5 614540.0 0
67576.7 614773.0 0
73080.6 616313.0 0
78475.0 617048.0 0
84318.8 615612.0 0
89817.7 616979.0 0
94514.1 616697.0 0
99147.2 615447.0 0
104210.0 616569.0 0
108996.0 615459.0 0
112972.0 614954.0 0
116129.0 617072.0 0
122346.0 615905.0 0
128320.0 618161.0 0
134931.0 617809.0 0
139254.0 616013.0 0
143606.0 614511.0 0
147139.0 616871.0 0
151148.0 615135.0 0
157355.0 614703.0 0
163088.0 614135.0 0
167890.0 615608.0 0
178062.0 615459.0 0
183351.0 614998.0 0
188205.0 614830.0 0
192661.0 614555.0 0
197337.0 615474.0 0
202434.0 614733.0 0
208157.0 616667.0 0
212744.0 614531.0 0
217500.0 614664.0 0
222500.0 614533.0 0
227992.0 616193.0 0
232952.0 614791.0 0
237822.0 615036.0 0
241652.0 618442.0 0
247974.0 615167.0 0
252145.0 614052.0 0
256416.0 615050.0 0
260840.0 615502.0 0
265612.0 615168.0 0
270801.0 616171.0 0
276983.0 615194.0 0
282300.0 616328.0 0
286913.0 614961.0 0
292535.0 616816.0 0
298621.0 615879.0 0
304054.0 614717.0 0
306136.0 618971.0 0
312874.0 615873.0 0
318543.0 616803.0 0
323319.0 614913.0 0
327876.0 616136.0 0
333201.0 615542.0 0
337920.0 617073.0 0
342710.0 614954.0 0
346922.0 618406.0 0
351119.0 615834.0 0
356552.0 618226.0 0
362880.0 616085.0 0
373330.0 616687.0 0
382790.0 616301.0 0
388233.0 616304.0 0
393403.0 616115.0 0
398027.0 615154.0 0
403413.0 615676.0 0
408110.0 617130.0 0
412869.0 615039.0 0
417937.0 616398.0 0
422313.0 614054.0 0
426912.0 616276.0 0
434451.0 615622.0 0
440669.0 615498.0 0
446260.0 617596.0 0
452317.0 615425.0 0
459071.0 616031.0 0
464209.0 614629.0 0
469126.0 615642.0 0
479642.0 614258.0 0
484393.0 614070.0 0
484067.0 618198.0 0
488177.0 616639.0 0
497570.0 615867.0 0
1350.87 619717.0 0
5457.38 620503.0 0
10675.8 620182.0 0
17230.2 620414.0 0
23692.5 622133.0 0
28298.6 619975.0 0
33168.8 621699.0 0
38033.0 622346.0 0
42303.1 620648.0 0
47004.7 620025.0 0
51676.8 621793.0 0
57023.1 621006.0 0
62372.3 619786.0 0
67037.5 619703.0 0
71155.1 621269.0 0
75974.7 621280.0 0
81783.8 622077.0 0
87207.9 620432.0 0
92076.9 621243.0 0
97798.4 620815.0 0
103205.0 622216.0 0
108593.0 620319.0 0
113955.0 620810.0 0
119470.0 620228.0 0
123961.0 622899.0 0
128210.0 624166.0 0
133593.0 622101.0 0
138613.0 620505.0 0
143481.0 619540.0 0
147052.0 620743.0 0
151484.0 620938.0 0
157428.0 621048.0 0
162834.0 619320.0 0
167724.0 620607.0 0
173380.0 619704.0 0
177910.0 620694.0 0
181725.0 620204.0 0
187123.0 619473.0 0
193323.0 620480.0 0
198781.0 619469.0 0
202974.0 619335.0 0
207353.0 621013.0 0
212269.0 619926.0 0
217524.0 619433.0 0
222451.0 619556.0 0
226539.0 620719.0 0
231358.0 619478.0 0
236422.0 619762.0 0
247259.0 620271.0 0
253393.0 619332.0 0
258657.0 619706.0 0
256699.0 623984.0 0
262663.0 619531.0 0
267076.0 620022.0 0
273358.0 620576.0 0
277800.0 620697.0 0
281697.0 619833.0 0
283194.0 623944.0 0
286907.0 620162.0 0
290938.0 621330.0 0
296047.0 621851.0 0
301792.0 620153.0 0
310488.0 619867.0 0
314938.0 621309.0 0
319981.0 621824.0 0
325510.0 621457.0 0
331209.0 620473.0 0
335977.0 621065.0 0
341884.0 621626.0 0
351294.0 621257.0 0
347097.0 623518.0 0
356129.0 624060.0 0
361290.0 622177.0 0
367967.0 620510.0 0
373078.0 623614.0 0
378825.0 620929.0 0
384984.0 620715.0 0
389900.0 621530.0 0
394761.0 620434.0 0
400097.0 620276.0 0
404116.0 619521.0 0
407208.0 622035.0 0
413115.0 620404.0 0
418242.0 621100.0 0
422608.0 619121.0 0
427160.0 621534.0 0
431637.0 619965.0 0
436305.0 620828.0 0
441328.0 621252.0 0
446072.0 622733.0 0
451492.0 622118.0 0
457221.0 621519.0 0
462021.0 620849.0 0
467323.0 621809.0 0
473553.0 620256.0 0
479676.0 619969.0 0
487520.0 622114.0 0
493114.0 619248.0 0
497910.0 621394.0 0
2250.44 624286.0 0
5519.89 626363.0 0
10564.1 626116.0 0
17104.6 626900.0 0
22583.2 626891.0 0
27927.3 625537.0 0
33341.4 627153.0 0
38760.4 627142.0 0
42873.8 628912.0 0
47158.5 625825.0 0
53072.0 626772.0 0
58254.4 626297.0 0
63536.9 625122.0 0
68401.0 624895.0 0
72780.4 625811.0 0
77410.5 625798.0 0
82622.3 627004.0 0
87368.4 624831.0 0
92614.0 626417.0 0
98309.5 626344.0 0
102956.0 626922.0 0
107364.0 625516.0 0
112214.0 624937.0 0
117300.0 624842.0 0
121369.0 626363.0 0
125453.0 627093.0 0
132052.0 627664.0 0
137368.0 625486.0 0
142919.0 624804.0 0
148014.0 624695.0 0
153333.0 626360.0 0
162933.0 624407.0 0
158582.0 626389.0 0
167350.0 625145.0 0
172155.0 625574.0 0
177548.0 624454.0 0
182513.0 625121.0 0
186765.0 624551.0 0
190998.0 626133.0 0
197795.0 625313.0 0
203478.0 624271.0 0
208221.0 625534.0 0
213246.0 625052.0 0
218081.0 624484.0 0
222097.0 624456.0 0
225903.0 625002.0 0
230892.0 624985.0 0
236681.0 624983.0 0
242511.0 624386.0 0
248071.0 625813.0 0
252464.0 625484.0 0
261165.0 625960.0 0
266720.0 625820.0 0
272402.0 625200.0 0
277878.0 625942.0 0
288460.0 625611.0 0
293386.0 626268.0 0
297290.0 627730.0 0
301106.0 624750.0 0
307502.0 625077.0 0
313434.0 626252.0 0
318518.0 626595.0 0
323073.0 625988.0 0
327372.0 626986.0 0
332136.0 625366.0 0
337444.0 626473.0 0
342634.0 627573.0 0
351626.0 626688.0 0
347053.0 627495.0 0
359380.0 627723.0 0
363991.0 626688.0 0
367989.0 625579.0 0
377119.0 626202.0 0
372460.0 628070.0 0
382481.0 624714.0 0
386692.0 625592.0 0
392464.0 625931.0 0
397619.0 625211.0 0
402570.0 624853.0 0
406670.0 627046.0 0
411582.0 625391.0 0
417268.0 626433.0 0
422605.0 624499.0 0
427585.0 626733.0 0
432515.0 624733.0 0
438015.0 625611.0 0
443184.0 626477.0 0
448269.0 626462.0 0
452835.0 627868.0 0
457285.0 626143.0 0
462180.0 625956.0 0
467068.0 627115.0 0
472249.0 626470.0 0
477764.0 625115.0 0
482848.0 624946.0 0
487974.0 627229.0 0
492474.0 625018.0 0
497286.0 625364.0 0
POINT_DATA 5000
SCALARS Radius float 1
LOOKUP_TABLE default
5120.0 5840.26 5073.35 5415.48 6182.6 2356.98 5492.18 5258.36 5061.3 5580.89 5645.7 6810.52 6110.27 3850.77 4834.9 6044.04 5085.53 3863.18 4998.37 5867.73 3951.75 4499.64 3163.97 3642.12 5812.43 5122.66 5906.14 5484.19 7513.1 5254.28 4436.4 5733.48 4672.91 3588.44 5176.86 4366.19 5553.16 3672.51 5670.04 5561.06 6716.79 4133.88 4665.12 5546.39 5325.36 5484.83 5538.89 5351.6 4715.55 5013.56 5701.86 4375.68 4238.81 5542.27 5054.98 6030.06 5170.02 3557.27 4927.31 4688.68 4402.52 4517.56 4182.53 5903.42 3761.32 4118.05 5065.13 4940.78 2938.66 4008.92 3615.22 4380.59 7613.27 4951.03 3936.02 4780.03 3383.4 4927.02 6483.19 4094.62 5945.65 6759.9 4730.36 6059.59 2720.68 5926.61 4955.55 3563.63 4345.55 4468.59 5885.03 2837.58 5325.02 5200.76 5017.13 4862.64 5185.34 3673.74 4432.58 5205.43 6684.56 3968.64 3955.56 4688.67 5292.64 2635.86 6166.5 5936.02 4290.3 5305.17 3379.84 4231.61 3942.53 4827.82 3607.45 3589.27 5759.91 4333.2 3038.33 5529.52 5252.48 5495.39 3554.9 3996.0 3856.1 4044.71 5980.74 5109.54 4174.52 6230.49 5418.62 7021.47 5416.38 6051.14 5836.15 4195.44 3261.21 6704.06 3653.41 3871.88 5246.2 5279.39 4390.66 4827.23 6116.18 7447.37 4924.6 4385.06 7184.19 4733.32 3867.67 4861.08 4003.05 5390.22 4805.87 4712.33 5227.21 3997.1 4295.38 3260.67 5123.52 7199.21 4392.68 5255.32 4049.23 6124.89 5337.48 5481.78 5708.81 4015.92 4487.31 5816.2 4002.16 5693.81 3829.13 3091.3 6458.82 4601.27 7054.71 5493.32 5489.43 3641.64 5740.68 4277.89 4796.33 5539.32 6496.85 5600.93 3856.01 4874.39 5541.59 4124.71 5728.85 4911.47 5803.39 5863.59 4381.97 3255.82 6257.19 2812.98 5242.73 4065.69 2899.43 2924.37 5603.15 5399.73 3888.21 4660.72 6038.78 5697.78 4667.36 4091.31 5615.42 4254.17 4523.7 6037.08 6756.95 4151.94 4382.74 5601.05 3586.91 4516.43 4929.8 3103.0 5637.59 5542.21 3307.12 5043.05 4937.14 4138.16 5924.89 4778.34 3486.22 4684.5 5789.98 6138.47 5527.54 5573.7 5747.75 4727.62 5054.25 7325.81 5360.19 4794.96 6186.19 4839.34 5083.08 2980.99 6834.49 6337.56 3998.5 5525.39 5938.34 4024.3 5555.28 4737.14 4686.65 5556.96 4695.45 6052.7 3921.18 5891.05 3798.62 6902.81 6644.76 6372.62 7565.34 5090.24 5091.39 2240.39 5096.78 6324.23 4727.24 3320.52 4329.05 4685.34 5927.43 4651.28 4384.42 6355.42 4362.19 4948.92 3115.91 6084.86 5478.92 5551.36 6894.71 4414.54 2540.31 6029.66 6302.8 5697.4 4270.95 4055.8 5206.78 5555.88 5280.17 6425.26 5143.58 4484.76 4840.01 7933.0 5173.87 6394.38 5380.13 5118.27 5169.36 5834.74 5788.23 5581.75 6392.01 3666.57 5308.1 4937.02 5629.19 4786.6 5923.5 4612.68 4973.83 5293.9 4129.43 3912.37 6142.94 3843.58 4194.5 4602.25 4792.73 4931.38 4736.58 3485.26 6082.81 5110.37 3191.99 6327.9 5492.26 3693.63 5690.56 4493.48 5762.84 4749.8 5810.84 5094.44 4230.54 4467.94 4850.81 6038.14 5120.49 5262.61 5409.61 4306.53 6038.2 4005.44 5713.22 6732.43 5028.96 3183.98 3866.16 6362.12 3778.1 5152.36 5611.2 4511.82 4220.65 6820.42 4455.12 4816.2 4894.16 4896.52 5711.87 3372.79 4941.22 5932.23 5791.61 4479.66 3369.13 5367.2 3043.85 5461.13 6730.19 3599.45 4907.89 4907.06 5655.21 3735.44 4073.93 4645.41 5740.84 5530.87 4433.59 6445.94 4310.18 4281.49 6342.25 6691.39 4270.53 4790.08 5191.63 5082.47 5344.25 5379.87 3708.04 4501.51 5513.6 4556.36 3240.09 4901.41 5664.98 5264.06 4048.37 4659.59 4220.88 5244.78 3937.74 6640.13 5082.6 5478.47 3748.24 6142.37 4655.49 4933.21 6061.47 6163.38 5375.47 4566.18 4723.12 4964.09 5201.36 5024.9 5659.17 5094.81 5972.06 4312.67 5861.71 4359.04 5017.78 3794.63 5015.69 4524.28 4727.24 5826.64 6959.81 5201.67 6321.41 4089.76 4751.02 5184.56 3192.41 5282.64 4715.72 4669.66 4808.52 5607.24 4726.76 5839.13 5495.68 5163.9 6043.3 5952.75 4320.28 5542.14 4218.06 4931.53 7134.64 5978.9 4840.84 4187.56 5344.0 5135.69 4593.7 4763.45 5681.38 4043.57 4478.15 4138.42 5925.6 6013.14 5138.31 4602.86 4621.75 3688.8 3369.23 5358.59 4548.16 4515.71 5449.18 6519.71 3092.35 5210.03 5351.39 5119.37 3982.23 5806.08 4997.27 3459.9 4093.08 4809.42 4717.05 5287.2 6135.57 5998.38 5423.8 4270.24 3417.33 4989.15 4164.13 4642.34 6175.81 4947.52 6677.09 4305.57 4829.35 5813.4 4389.21 3791.79 4424.7 4754.05 5526.55 6084.93 4987.87 3315.57 5804.71 4764.96 5046.33 5727.3 4242.52 5053.92 6352.26 3057.03 3847.38 3818.59 5489.34 4863.72 5002.48 5708.14 5537.72 4262.82 3920.42 6332.36 6122.55 5480.13 2739.94 3629.62 6308.71 4997.27 4716.19 5514.76 4301.06 3456.98 6045.46 3815.26 4290.14 4150.99 5445.87 4216.92 4177.94 3929.19 4107.03 3771.48 4271.69 5198.77 5147.67 4292.06 5987.17 3979.82 5011.31 2765.2 5006.58 5586.81 4581.13 4219.07 4551.24 3610.4 6387.01 5367.52 4322.15 4714.54 5025.39 3629.96 3320.11 5030.91 6022.17 4583.31 4503.89 4336.42 5243.29 4853.39 4449.22 5543.27 5856.11 3327.49 4109.88 4234.94 3960.8 4562.29 4980.85 5013.13 5080.66 5110.45 4926.42 5248.77 4083.97 4520.1 5153.74 5874.89 4293.03 4165.81 6291.51 4128.98 4925.44 4951.47 6246.22 4307.28 5215.15 3697.96 4739.42 5538.93 5020.12 4745.45 5281.28 5356.51 4277.88 4087.15 4143.08 7500.97 6623.85 5102.36 8332.24 6155.31 4223.33 5911.67 5329.64 6695.82 6405.76 4020.32 4877.67 4704.72 4245.72 4571.7 5908.1 4742.68 4344.58 5634.83 5113.21 4502.5 5499.11 5922.5 3970.25 3633.87 5643.58 4850.01 5577.04 6318.18 4481.53 5330.45 3948.17 3856.59 4746.52 5413.79 5572.95 6338.89 6202.55 7111.16 5893.5 3817.13 4547.19 5507.24 6851.54 3813.22 5570.3 4306.11 7589.94 3130.65 5628.24 5004.67 5365.89 5992.26 5070.39 5714.58 4923.9 3329.99 5208.32 3947.47 3296.27 4713.25 4607.02 6243.0 3895.51 4528.09 3556.85 5441.96 5174.89 5882.89 5370.52 4188.32 5246.61 4100.38 5344.77 4723.48 5097.87 4899.11 4278.07 2631.9 7267.18 6255.18 4758.21 4668.71 7228.46 3948.23 6362.14 5228.18 5787.31 5065.11 4342.9 4553.56 5069.84 6049.55 3323.28 5709.62 5835.78 6562.18 3498.2 5794.24 4541.21 4302.5 6048.7 4156.38 5896.46 5495.84 4164.68 6268.1 5782.6 7034.11 6261.42 4862.21 4011.77 4527.08 4374.35 5347.48 2775.04 4810.12 5215.05 4138.46 3821.72 4986.77 5137.34 5077.33 5423.0 3689.45 3824.16 3868.18 6723.16 5584.06 3686.21 6480.17 5023.15 3844.9 4377.07 3695.36 5101.59 3963.86 3848.93 6020.48 5935.47 3402.32 5200.05 5903.66 4528.49 5419.37 4466.03 5409.33 4511.54 4898.94 5196.0 4613.31 4973.78 6119.09 5091.68 7531.29 4204.84 5069.25 5048.89 6673.96 3161.47 3991.03 3435.9 6390.78 7435.25 4288.3 6826.57 4652.29 5774.81 3746.31 5498.32 5027.98 5346.27 6475.1 2691.29 6256.02 5320.92 5269.18 4406.1 5034.59 6719.88 5978.82 3927.99 5868.82 4050.9 4051.44 4241.89 5054.74 5941.72 3066.13 4127.74 2476.04 5105.16 6009.88 6006.16 5316.75 5050.65 4827.33 5022.8 7055.53 6133.92 3784.5 4178.4 3719.84 3471.03 5253.55 5820.48 6946.21 2586.12 6125.34 5965.78 6396.74 6898.19 5526.14 6035.6 5198.29 4044.45 3975.31 5125.78 5344.43 4373.47 5045.38 5350.88 5372.61 5130.91 5402.24 4519.22 6445.22 4564.34 4871.44 5076.35 6375.99 5273.35 5234.29 5313.66 2651.49 5512.23 5275.32 5985.29 4247.23 4178.15 4694.83 4733.04 4354.08 5788.66 4520.62 3903.75 4755.47 5935.03 5475.8 5314.69 4788.87 4495.87 6022.72 3702.37 4643.31 5527.33 2330.66 6917.52 4969.21 2845.98 4880.14 4982.31 5289.52 5314.85 4305.43 5450.44 4942.77 5080.18 5266.5 4454.63 4523.88 4066.38 3279.1 4978.31 4948.98 4099.77 4981.9 4414.48 4537.32 5163.02 5991.09 4656.78 4678.38 5126.91 5448.61 3942.07 7443.72 3937.08 5513.57 5729.23 5013.67 5669.65 5826.04 5934.22 5624.49 3780.23 3095.48 4861.06 3979.26 6608.73 5188.81 4359.62 5011.84 3745.84 6057.22 5433.8 5062.71 5975.63 4497.59 5252.34 4274.61 2965.79 7099.43 4410.55 4287.63 5315.4 6449.45 4516.28 3627.82 5262.19 6070.58 6034.41 5452.83 4959.34 4948.5 4527.02 4591.87 4531.14 4247.15 5013.42 6552.22 3838.56 5651.07 6248.81 5872.05 4853.02 4091.8 4645.58 5181.4 5670.2 4711.62 4114.24 5349.31 4268.65 4649.22 5509.42 5394.55 4256.43 5936.36 5928.32 5229.48 4485.99 5475.7 5127.16 4016.18 5435.74 4244.99 6050.81 5543.46 4249.46 5965.81 3997.96 4750.17 5660.85 4177.19 3990.25 3691.0 4752.51 3587.05 5402.21 6229.37 4989.09 6718.19 4307.48 3848.54 5941.4 6510.17 5331.02 4263.33 5742.65 5592.32 5912.61 4403.98 4560.84 5565.13 5227.52 4729.43 4092.24 4562.74 5776.57 7144.24 5133.97 5371.02 6600.94 5260.34 5206.48 4709.35 6586.45 5339.78 5226.0 4166.08 5762.59 6481.79 5320.28 5960.66 4298.67 3999.48 4962.09 4203.26 4730.41 5696.88 4004.04 5690.26 4156.2 4289.17 5564.02 6072.45 6444.77 6314.07 5776.37 4190.31 5678.96 6048.86 4244.9 4285.32 5490.43 4986.51 5022.28 5197.52 5178.99 5383.07 4790.78 6422.84 4502.18 5379.09 4602.85 5210.48 4962.77 7552.94 6101.92 6259.23 5088.44 4998.21 4662.56 5166.79 2976.22 3405.98 5417.15 3688.16 4681.72 5094.52 4946.74 2682.24 5996.33 3950.63 5415.19 4612.62 3619.07 5526.75 4275.57 6385.23 5327.45 5560.26 2983.99 6185.89 6205.93 4439.35 3460.94 6184.4 3758.07 3828.81 4373.45 4236.14 4407.87 5282.51 5282.91 3797.33 4425.84 7256.35 4871.96 4800.69 4863.23 4402.67 5381.16 4470.61 6193.35 6086.96 5233.78 3701.27 4806.34 5683.26 3600.43 5598.74 4906.82 5131.24 4788.58 5196.67 6155.1 6496.67 5876.71 5474.8 4373.3 4750.78 5029.78 5374.51 3365.82 4123.6 5224.12 7092.87 4970.88 4850.14 6739.08 4569.12 3637.61 4796.58 6098.14 4472.17 5873.69 6222.42 5470.77 5654.31 4643.85 3923.03 6062.05 5607.14 5082.74 6915.83 5092.37 4027.46 4470.98 5759.46 5083.41 3921.08 7055.42 5486.68 5100.25 6894.26 5311.03 5339.38 6169.11 5615.35 5172.53 4027.09 4135.62 5801.99 5534.94 7644.38 4051.34 3627.55 5323.3 4635.6 4256.67 3457.48 3931.07 6079.11 6430.39 7440.72 3949.6 4945.39 6326.18 5661.62 6631.19 6648.68 4467.04 5626.61 5817.25 2614.4 5061.98 6363.92 4537.6 4923.24 5830.72 7177.44 5309.98 4082.57 5733.62 5169.9 3004.16 4460.92 5945.89 4042.28 4105.55 4340.76 6566.1 3555.86 6065.22 6386.78 4996.99 4631.83 4384.88 6887.27 6008.49 4220.46 5653.9 5046.21 5894.61 5687.83 5004.23 6442.69 6320.71 6262.72 4648.04 4163.5 3664.11 6607.87 4143.78 4538.95 5965.15 4763.66 4666.81 7042.12 4797.52 4471.58 6343.14 5501.93 5463.38 5945.21 5750.71 3493.7 4938.74 3474.39 6470.3 4831.47 4200.03 6939.12 5411.85 4735.33 4413.85 4844.57 3999.94 4864.22 6171.13 2395.5 3901.8 5511.88 4512.11 6248.6 3836.45 5683.61 5443.58 4558.46 5805.86 4049.02 5346.68 4470.4 4611.53 5255.12 4285.66 4896.11 4238.4 4318.48 6132.95 5266.22 4860.33 3685.13 3312.06 6004.68 6799.4 6239.84 5865.39 4427.28 3082.32 5949.46 3658.37 4765.02 5376.71 5703.6 4807.28 4867.08 4266.03 5280.69 4220.03 4713.74 6923.84 5407.78 4084.49 5449.46 6632.99 6113.54 5147.36 4419.61 3963.76 4563.46 6553.94 5255.18 5460.65 4767.78 5235.17 4779.5 4421.12 4435.36 5254.49 6649.96 4221.28 4456.39 4896.39 3633.79 6081.14 5480.83 5421.53 4607.85 4287.53 5612.21 4929.14 6000.7 5945.08 3979.54 5139.5 7493.3 4814.55 5944.09 5833.06 3527.05 5698.77 3464.83 6515.84 5724.64 5117.47 2990.77 3163.78 4925.63 4888.6 4780.2 5078.86 4918.77 5163.55 6326.39 6817.32 4319.79 6643.85 5960.56 4020.95 5774.97 5462.21 6313.06 5374.98 6345.13 5274.19 4719.7 5516.95 4406.4 5313.22 5563.79 3905.51 6853.85 3497.9 4020.4 3493.47 4596.75 5941.61 5782.48 4933.65 4031.78 6098.1 5708.99 5687.85 6401.43 5020.71 5296.29 5997.88 5094.48 2681.29 3872.61 5576.92 6408.83 3930.79 4004.35 5226.97 5754.18 5180.76 3418.99 3361.26 4480.95 5278.36 4409.63 5521.25 3661.9 5370.85 5136.08 3178.54 3776.94 5558.68 5629.39 4448.13 2684.03 5070.29 4768.61 2261.36 4522.21 5075.55 5506.19 6719.94 5227.59 6179.96 5703.07 5294.77 4662.43 6260.79 4043.66 5528.53 6799.88 3062.43 5726.66 5426.78 5652.0 2967.38 4159.35 5463.41 5225.33 4237.98 4929.75 6045.22 4614.3 5134.39 4303.19 5514.84 3914.2 4256.57 6088.68 5937.08 4135.08 6070.3 5128.57 5233.29 5604.21 3169.67 4968.03 5204.04 5304.13 5490.58 4863.79 4702.06 2477.07 4923.41 4497.31 4721.32 4305.16 3293.56 5882.65 5092.28 4739.14 4434.19 4636.5 5100.1 4819.73 3382.7 4940.42 6471.55 3954.91 5085.71 3295.83 5644.82 2965.01 6413.02 6263.44 4863.27 3492.19 5122.63 4118.84 5862.86 6766.43 6049.79 2315.64 4703.08 4390.41 5226.56 6113.95 5599.49 4050.08 4097.57 5452.42 5017.5 5328.22 4151.76 4216.17 6484.17 4721.02 4254.37 3374.08 5564.23 5950.04 4231.83 4074.48 2435.33 6333.29 4558.47 5731.57 5839.71 5662.55 4360.23 6234.32 5365.24 5293.51 4763.96 4446.06 5008.63 4270.74 5132.68 6595.03 4993.35 4983.39 6218.95 5222.16 5107.23 5533.42 4802.32 4010.57 4599.38 5246.47 6157.04 6191.29 7422.36 5161.01 4298.15 4950.67 5832.37 4628.4 6166.29 5453.6 5409.63 4263.16 4709.05 3077.84 4630.82 6024.75 4813.08 6109.49 5860.67 4540.86 5990.52 4835.83 5604.35 6477.91 3091.67 6439.37 4081.97 5401.99 5580.92 5784.3 3532.3 5769.98 3583.21 5442.32 2221.99 4643.56 5620.74 4863.01 5356.79 4778.82 4612.06 4312.56 6124.08 5467.84 3361.92 3306.14 4750.58 6710.88 5395.14 3967.48 6213.04 3830.46 6031.67 6413.11 5384.76 5274.14 5529.42 4903.82 5257.12 5746.28 4371.99 3703.1 5187.7 4946.42 6090.91 3561.29 5923.4 4219.78 4963.34 5081.78 4188.3 4459.28 5499.39 4260.92 4407.9 4440.57 4584.5 6235.57 5548.29 5412.31 3623.87 5916.16 4890.5 6934.37 4488.85 3731.84 3981.07 3554.48 4901.07 5186.3 3436.15 5005.85 5711.11 4575.94 4938.72 5021.88 3546.71 5956.65 5768.57 4498.25 4188.87 3735.24 5151.21 6574.95 6817.57 3614.96 4477.04 3886.68 5703.74 4747.55 5737.92 3056.7 3755.95 5591.76 4585.31 4586.19 6625.18 5323.91 3450.93 5097.45 6293.89 5737.75 4558.15 2761.07 3778.02 5366.52 4690.55 5533.72 5146.37 7132.12 3678.08 5518.57 4187.31 5463.48 5151.11 3240.51 4527.99 4376.7 5190.61 8325.01 6051.83 4642.93 4440.81 5941.9 3973.12 6642.76 4497.78 5567.93 5987.42 5332.65 4442.22 3764.1 6451.33 5413.31 6316.56 4332.87 6420.81 4715.58 5208.14 3317.83 4450.7 5151.52 5973.33 4347.74 5291.9 5067.46 3580.58 2511.46 4011.37 5657.36 6519.43 3619.79 5029.47 5053.95 5926.11 6667.68 5253.37 5235.11 5767.9 5211.38 6622.11 4689.15 6138.12 4965.89 4428.78 5243.43 5659.95 5409.66 4152.85 4082.47 4537.14 4623.61 5551.9 4453.64 5019.93 5511.6 3885.86 5235.29 5177.64 4517.73 4255.31 5660.16 6116.33 6134.99 4479.94 6250.23 4718.54 3838.47 2588.37 6736.03 5203.08 3087.09 5374.07 7480.41 5163.77 3766.55 6027.62 3423.15 4579.69 5010.2 6123.03 6496.52 5966.61 4893.49 5325.44 5102.75 4597.29 4200.09 5931.77 5108.06 5398.64 3573.73 4693.52 6853.04 3420.08 4745.43 5831.96 5464.68 4539.07 4475.83 2685.81 4510.8 5889.35 5010.04 4394.56 4570.98 4275.07 5825.38 4185.61 4047.87 5742.47 4917.99 6552.21 4367.78 5417.8 5227.02 5670.0 4836.16 4232.16 5300.96 4344.51 5680.94 5730.33 5545.46 5581.55 5193.01 4543.1 6550.44 3860.83 3764.06 4523.39 5278.56 5434.47 6917.62 5829.22 5631.14 4243.79 5811.18 5433.65 4008.15 4887.76 4669.06 4811.32 3012.99 6400.08 4286.49 4743.59 5829.32 4396.25 3763.05 5092.24 5369.08 3101.75 4518.04 4009.62 4766.06 4874.18 2081.58 6505.78 2775.69 4785.25 5876.64 4270.15 6306.21 5424.46 5266.01 2978.76 2040.66 7016.27 6515.8 5089.62 3685.13 4590.55 6790.73 4655.16 4741.26 5920.32 3701.16 4186.6 5251.4 4345.67 3867.19 4765.72 5857.79 6261.75 2908.7 3757.34 6415.61 4338.08 4752.14 4378.3 4419.71 4950.97 5037.06 4541.8 5175.29 4094.73 5842.56 5453.3 5191.08 4062.5 5887.15 4435.51 5415.85 8659.64 4588.7 5683.95 5469.13 5765.42 6098.95 5453.98 4997.83 5148.08 3991.42 4388.63 3718.69 4514.79 4834.87 2216.82 3672.21 5760.22 5938.17 4795.43 5097.95 2928.82 4914.45 4222.4 4698.87 4000.43 4661.03 4568.41 3624.7 4912.04 5262.35 4691.91 4255.34 5064.79 5480.3 7509.24 5896.26 5388.78 6101.13 4573.72 5099.21 6969.28 5636.4 5698.96 4350.12 4095.75 3603.51 4298.45 5222.51 6609.84 5135.96 3834.43 3781.77 5658.37 4707.06 6074.94 3474.5 5491.37 4250.88 6348.03 5732.27 3475.67 4792.39 5146.37 4013.38 6137.8 4343.78 3352.35 5263.3 4909.65 6523.86 7693.4 4326.48 4437.07 6184.88 5491.9 6405.0 5551.95 3918.87 4659.16 5549.49 4633.05 5423.42 6605.86 5012.5 5435.19 5461.55 3298.2 4953.1 6865.76 6449.64 4857.84 4908.49 4962.21 5884.9 4749.59 3468.42 3685.65 4673.35 3876.21 5689.26 5869.4 4916.22 4992.42 5297.19 6022.7 4255.85 5097.69 5895.77 4732.09 3988.3 6136.49 4642.66 4039.91 5276.7 4687.64 5469.47 5036.58 4888.12 6119.63 4244.21 5411.02 5512.16 4989.56 3197.63 4287.16 4863.96 3645.12 5199.44 6200.54 5424.88 4199.45 7234.66 6599.66 4055.54 4886.12 6419.12 6107.89 4233.8 4976.12 4446.84 4817.16 5660.55 5653.03 6192.0 4509.89 4940.28 5885.28 6752.75 5269.38 3004.34 5607.3 3022.6 4811.76 5313.12 5351.56 3984.88 5318.53 5160.59 4732.09 4320.42 4281.98 7165.9 5344.83 7046.11 3427.63 4146.81 6342.48 5756.75 4587.67 5599.7 4163.74 3924.14 6918.35 3665.95 4296.69 6238.32 3319.67 6471.42 5283.8 4076.59 5164.1 6464.15 4972.17 5699.53 4222.77 3783.54 5268.38 5527.23 7038.89 4805.33 3863.67 4814.12 5980.95 5067.56 6193.08 6069.3 5887.01 2735.53 5116.6 3747.03 5388.39 2783.85 4356.49 4526.81 3994.07 4219.94 3449.37 5907.46 6740.71 4264.91 5399.29 5789.55 2275.45 4909.31 4901.2 6522.59 5711.62 3562.79 4383.56 4990.79 7093.13 4516.53 2895.63 5818.95 4093.99 3940.49 6464.8 4684.44 4680.94 4858.44 5828.35 5799.69 5571.72 3809.69 4771.13 7051.9 4940.84 4608.41 4184.23 4833.46 5750.07 5933.7 6543.13 5149.72 4356.25 4757.74 5776.96 5329.59 4209.49 5464.25 5742.74 3821.94 3946.28 5984.81 5439.9 3498.16 4209.31 4752.9 5486.48 5301.47 4617.55 4947.24 4588.99 3875.05 3456.47 3540.11 5471.74 4652.01 4344.34 5148.58 3548.39 5421.64 3673.28 4207.54 4858.51 4366.74 3375.28 5297.16 5625.65 4301.61 4936.96 3184.64 5206.33 5530.49 5065.26 4304.41 5578.94 7610.49 4286.17 6579.31 5323.55 5452.36 5375.1 3804.5 4172.6 5498.42 4196.37 3344.57 6448.66 5220.76 6945.98 5138.2 5783.48 4701.5 4449.98 4504.35 4863.97 4771.65 4840.44 5093.82 5951.81 5212.43 4834.3 6804.79 6372.13 5369.5 4428.14 5404.01 6016.19 4124.49 4479.11 3230.13 5714.25 6685.4 5325.96 4850.06 6332.01 7044.29 4234.18 7085.01 3936.95 3862.77 4631.99 5168.35 3185.39 3728.18 5128.77 5335.47 5633.61 5048.19 6799.23 4888.27 6487.56 4854.11 5971.22 5533.19 5417.21 6602.43 4798.17 3568.28 5425.98 5166.79 6479.39 4122.92 4997.91 3604.14 5079.22 4599.81 5381.54 4452.54 5810.77 4406.05 5089.1 2711.19 4028.32 5876.72 5236.43 3208.96 4884.59 5285.07 3858.06 4680.14 4083.79 4351.38 4144.57 4187.94 5550.75 5980.59 6834.41 4809.67 7248.4 6045.67 4216.95 5466.33 5280.12 7216.98 4444.97 3000.29 5721.05 7013.17 4409.27 4247.69 5367.73 4514.39 4640.06 6242.79 4321.21 5950.45 5088.57 5713.03 5849.65 3583.49 4928.27 5052.84 4165.21 4215.0 4603.5 4481.76 4647.67 5375.12 5452.78 4787.97 4892.44 4356.36 3746.36 6789.23 3989.7 4777.03 4246.61 3684.56 6028.09 5327.75 4609.02 6486.37 4638.18 5211.6 3556.79 4453.97 3503.41 7317.04 6412.67 7001.83 5012.97 5589.37 5439.49 6639.64 3687.65 5454.12 5478.95 6348.54 4066.57 5642.35 5156.76 6357.47 4891.38 5535.91 5955.86 6176.67 4848.46 5412.24 5016.02 4581.37 4920.21 4049.16 5851.61 6153.94 5478.11 6836.82 3858.17 3477.1 4740.98 4078.93 5934.82 4501.78 7122.87 5797.36 4243.26 5001.58 5119.86 4153.84 4592.15 5089.26 5084.17 4901.44 3776.8 4998.22 5096.43 6156.21 6104.26 5583.61 6063.64 5996.66 4986.71 7382.3 4405.42 2995.67 4022.56 3598.08 5522.21 5698.23 7300.58 4714.83 5474.15 7519.2 4099.92 5217.95 6355.68 4478.6 5484.36 4511.7 4304.63 5263.27 6300.92 5021.77 3796.15 6226.14 5599.29 4801.8 6038.68 5046.12 5271.02 6329.53 3805.67 5718.28 4601.74 6101.86 6506.86 4227.41 5993.0 5580.34 3852.6 5134.67 4110.59 5775.31 3332.49 4847.14 4706.5 3950.27 5354.66 4214.44 3566.79 3629.44 5378.23 5374.67 4981.43 4741.28 4215.2 5069.89 4157.29 5107.0 6212.15 6813.72 4783.07 4946.23 4896.65 6083.28 6100.73 5806.31 4745.79 5456.71 4908.75 3971.08 6204.65 4482.9 4593.7 4349.13 4036.91 4891.67 5110.11 6379.14 3634.5 5216.26 4887.52 3851.85 6571.31 6318.23 4206.98 4058.87 5174.75 5932.07 6101.57 5948.71 4793.65 2949.12 3856.53 4532.89 5460.89 4533.37 5260.85 5742.09 2779.99 5887.38 2884.65 5807.46 6942.34 3658.05 4549.69 6423.81 5526.31 5030.15 6192.77 3644.78 4312.15 6418.11 6015.02 4922.49 3572.94 5585.14 7039.98 4820.17 4729.42 5244.98 3886.72 5415.45 6592.93 6350.71 6436.74 2460.79 4456.11 4653.83 6171.71 3628.89 4668.88 5027.43 3772.3 4855.01 5867.64 3608.06 6208.9 4923.57 6633.61 3340.09 6061.63 4867.7 2279.05 4829.35 3953.55 4075.28 4063.9 4277.24 4469.54 4314.56 5291.05 5161.1 3928.53 4173.54 4619.2 5606.51 5740.65 5166.41 7104.73 3834.47 5067.56 2596.96 4807.4 4350.15 4590.01 4139.3 3516.27 6541.45 4263.78 4750.49 5078.31 4803.57 5391.48 4923.43 5966.42 5131.15 5210.38 5717.8 4811.22 5116.66 3683.86 4918.76 5003.78 3299.24 6246.56 4061.6 2603.64 5473.72 2856.55 2205.51 6214.73 4553.68 5361.87 6502.97 3758.22 4757.2 4852.58 3205.68 4532.7 5561.74 5975.23 4788.08 4198.94 5470.04 4211.82 6556.26 5684.25 5438.92 6550.4 3766.69 5513.8 6818.91 3503.65 6631.28 4027.63 5350.88 5420.67 4392.65 6413.15 6103.11 5048.55 4984.46 6459.51 4024.31 5844.72 3992.97 5989.05 6040.74 4054.22 7228.94 5393.65 4961.99 4648.21 4393.16 4595.12 3311.29 3110.13 6484.43 4458.64 3485.54 4583.52 3492.83 6280.13 5244.22 5832.29 4438.76 6456.58 4159.81 4960.64 3965.3 5792.98 4385.81 4034.05 5690.96 5798.38 3862.91 4125.9 5096.24 5039.12 3908.98 6589.82 6328.42 7307.21 5522.75 3381.82 3619.72 4646.51 4438.58 6059.93 4565.93 5602.53 5073.02 6545.43 6760.92 4989.2 8137.11 5484.32 6650.77 4506.18 4067.96 4824.12 6542.5 4383.47 6162.3 6349.67 4264.54 5262.47 5261.19 7043.44 4263.65 3831.52 4643.9 6106.43 5228.75 6047.14 5009.83 5467.63 5666.95 3919.62 4642.2 4127.53 5210.75 4474.83 6555.44 5293.75 5658.14 4208.41 5730.61 5826.78 4508.18 5175.89 3894.64 3703.49 6618.21 4268.19 5232.85 4374.74 4062.56 3717.47 6200.63 4504.86 3217.67 4473.29 5079.64 6163.54 996.652 5212.37 6003.78 2628.22 5058.51 4244.49 4901.29 5036.98 4775.04 5188.53 4521.75 5569.2 3429.57 5410.33 4642.74 6735.97 5305.59 5416.45 4330.58 5754.6 4955.16 3288.01 4904.51 4147.31 2202.77 5751.15 5950.88 4149.55 4441.22 5853.89 6551.93 3380.69 4386.8 4140.4 5446.4 4725.01 4625.67 5966.75 5510.9 3657.69 4505.28 4883.63 4971.29 3684.15 5510.45 4730.14 2606.51 3994.39 6006.89 4618.73 3814.65 4128.1 5372.82 4983.3 7778.01 5127.82 5124.17 5805.1 5366.11 4064.58 3419.87 4234.88 4824.81 4384.28 5769.14 5944.3 3563.14 5135.5 5347.9 5640.72 5851.63 4504.52 7107.63 4831.93 5788.97 3472.91 4928.85 4023.93 5868.89 4711.04 7144.05 5007.21 5610.53 2970.9 4099.26 5206.47 4580.06 4834.39 5971.21 3926.11 5493.89 5701.75 3272.75 7066.96 3104.96 3512.94 4467.0 4991.35 4258.98 4587.7 5196.92 4807.35 3787.08 6761.81 3903.91 4568.64 4728.55 4929.6 4368.28 5750.35 4692.32 4489.99 4548.45 4658.11 4551.26 5114.07 4385.49 7124.45 6358.93 4383.68 5064.67 5836.26 2617.39 5144.44 4051.18 5969.37 6816.66 5034.69 3844.54 4509.46 3538.53 4680.69 4420.11 6500.49 5965.58 3352.34 4972.18 4607.18 4124.76 4050.03 7200.89 4120.07 4952.52 4882.66 3840.21 6746.66 4954.76 3908.56 5244.78 3636.15 6114.89 5135.63 6384.7 4355.83 6870.97 5351.86 6056.87 5474.01 6201.86 7554.58 5166.89 3639.44 5491.63 5725.37 3868.62 5138.33 3743.76 3425.69 6711.21 4236.86 5393.76 4941.02 3864.92 6119.99 2955.36 3668.93 4009.24 4446.58 4402.17 5401.4 5053.15 5910.86 6239.68 7320.78 4834.44 5782.43 4456.26 5113.6 3873.92 4810.98 5091.22 6282.38 4546.44 5657.55 5727.79 5212.92 5615.84 5043.14 4464.73 4717.73 6440.38 5556.0 3904.07 3274.85 5545.59 5494.28 4954.81 6304.49 5755.15 4835.97 4608.34 6419.64 4057.17 2781.96 4431.23 4994.65 5917.34 5601.55 4462.87 5644.81 4013.86 6545.99 5334.36 5630.9 4554.68 4512.07 5984.8 4945.0 5236.24 3127.83 4212.15 5678.58 6570.35 4263.18 7142.95 4559.74 6666.67 6015.22 6063.44 4583.94 5046.31 4928.35 1937.5 5241.75 5849.53 4651.99 4788.7 5863.0 6127.39 5640.12 5329.76 3899.7 2403.72 4147.49 4813.33 4802.98 4833.55 4081.34 7224.99 6334.53 4844.83 5377.37 5652.87 5483.7 5018.69 3152.86 5952.38 3896.27 5807.52 5963.36 5230.02 5307.35 4342.18 5169.48 6016.08 4731.21 3124.7 6064.71 6102.98 6060.17 5153.18 4763.4 5902.67 5454.11 5806.61 4983.1 6010.59 7123.04 5906.57 7541.76 4775.49 4681.29 3220.29 5499.59 5749.6 3845.9 4141.21 4439.71 5667.51 4174.44 4708.31 4027.33 4198.9 5431.29 5026.76 4833.67 5023.41 5325.91 4092.07 4213.05 4224.3 4184.21 6203.03 4700.07 5235.87 5188.82 5273.37 4732.37 4985.3 5072.5 5713.36 5748.9 4749.18 5553.94 3663.0 3742.31 4546.96 5424.55 5134.72 5695.79 5287.25 5464.83 3622.8 5414.58 4770.51 5577.41 6511.37 5740.98 4012.92 4346.07 5759.79 4177.47 5218.42 4218.16 2918.64 6139.64 4140.92 4896.43 5463.06 4639.8 4585.04 3986.41 5260.52 3185.09 5114.23 4242.63 5495.0 3269.54 7407.91 5064.23 6061.85 4454.74 5512.44 2904.46 4826.52 5120.92 4337.32 6240.42 4731.53 5146.0 3763.9 5721.14 4577.73 5084.5 4918.64 6638.25 5078.59 5134.33 4759.99 2646.13 5419.57 5162.67 5760.98 3646.95 4705.68 5469.35 5384.86 4749.96 4658.24 5869.67 4311.48 4899.73 5457.66 6394.19 5973.89 5366.22 6193.73 5518.11 5087.14 5712.35 5701.52 4743.9 6776.22 5321.17 3719.11 4467.13 3877.8 6273.6 5136.87 5024.32 3779.45 4708.17 2741.2 5790.42 5784.37 3142.09 3682.35 5591.77 3756.96 5182.13 6110.48 6245.52 4932.29 4990.23 3954.77 3784.94 6016.87 3125.13 6715.73 4564.41 6331.74 5951.86 4252.18 4659.88 3791.41 5853.12 5157.38 4208.37 5702.4 5069.9 5473.89 6089.45 5810.17 5265.21 4966.07 4657.24 4400.14 3669.32 5866.42 4704.92 4762.1 4316.0 3987.69 4287.25 4392.75 4921.1 3814.16 4271.07 4420.6 4475.38 4589.06 4920.88 4184.47 4216.44 3999.5 6710.14 5034.05 4598.54 4816.51 5345.73 4933.49 4770.63 3990.94 4756.8 5477.8 4462.35 6069.78 4241.68 6102.49 3469.18 2945.34 3372.95 4489.29 4301.93 5846.95 5268.15 5819.0 6449.06 4924.07 4685.4 3200.6 4629.02 5914.5 6006.16 4288.45 4987.28 6206.98 6562.03 4815.47 4368.12 4365.58 5214.4 4636.53 3629.49 5766.05 5117.64 3835.81 4019.34 4869.48 3623.19 4906.11 4387.39 4564.1 5825.55 5509.51 4848.14 4316.5 3199.4 5254.24 3742.11 4192.21 3597.43 5144.56 4158.91 5311.55 3360.86 3034.16 4869.25 5545.21 4333.87 5684.05 3667.93 5638.7 5813.79 4644.88 5293.13 7350.26 3768.46 5167.53 5003.3 4168.52 5800.81 5106.46 6793.1 5166.05 4506.66 5515.73 5209.55 5426.4 5763.05 5129.68 5357.39 5076.84 5247.01 4841.7 5685.74 952.938 6740.35 4678.7 3450.07 3673.6 3306.84 6215.87 5191.26 6060.06 5544.27 3484.81 6502.99 4666.12 6219.34 4191.01 6023.07 5674.63 5340.05 5995.4 5890.25 5700.79 4726.2 4426.02 4711.15 5188.22 3825.48 4841.23 4357.11 2804.54 5005.6 4176.32 5486.89 7208.19 5532.75 6949.65 4095.83 4975.85 5695.25 5676.61 5716.42 5701.63 4620.95 6347.72 3460.93 5124.86 4927.73 4602.57 4608.62 3565.32 5407.96 4071.75 4626.72 4410.82 5549.71 6443.99 3889.98 5193.58 5399.43 5695.44 3916.42 3422.21 5429.3 5510.96 6653.07 4745.16 4697.91 4584.81 5071.98 5719.79 4371.08 7261.51 4968.14 4914.03 5086.29 5527.13 5139.18 5551.43 4278.57 5049.99 4201.03 5001.87 4493.79 4279.44 4899.19 5058.34 4028.22 3918.94 5575.11 5487.63 3852.82 4507.36 7145.73 5403.97 4795.08 6562.92 4068.31 3671.06 5501.73 5077.29 3612.44 7035.54 4850.5 5233.76 5866.91 6405.69 2820.07 5679.74 4825.73 4165.36 5288.33 6296.54 5797.21 6019.35 6028.63 4550.92 5146.1 6485.77 3869.39 5960.5 5308.33 6896.55 4685.65 5377.01 6470.23 6506.63 4140.04 5322.11 3495.3 4697.49 5735.08 7133.44 4750.81 3953.26 4474.39 4658.59 3810.68 4196.62 2809.19 5453.77 4916.7 4549.51 5025.42 3587.93 5196.08 4517.29 4495.75 5323.95 6171.01 5796.26 4603.04 5368.93 4488.39 6121.56 7168.2 3763.85 3419.07 5710.33 5344.44 6432.8 5131.77 3186.07 4369.86 4967.51 5173.82 7212.97 5490.64 5034.34 4507.46 3769.2 5036.14 5603.68 4944.51 5610.95 5532.72 3220.8 5179.17 5579.39 5270.51 5148.1 5490.75 5224.64 5949.73 4312.48 6370.33 5081.08 6318.25 6864.06 6008.81 4932.56 5192.49 3487.31 6643.4 4674.9 5461.72 6599.28 6224.85 4556.19 5368.66 5648.78 4697.24 5226.42 4983.43 6311.89 4683.28 4217.36 6549.8 4851.18 5368.52 4871.77 5155.28 5811.26 5062.77 4884.93 6075.99 5262.79 5927.2 5035.71 4419.79 5407.69 5152.78 4117.9 5393.43 4753.76 4781.9 4638.09 4441.91 5330.26 5939.22 4668.8 4215.05 5125.17 4271.93 4859.01 4604.1 5524.45 5990.75 5600.21 5467.51 5459.92 6478.35 5114.67 4104.04 2638.82 5589.53 5030.33 5593.79 4965.24 6379.38 6257.79 4849.5 6229.83 4468.26 4870.94 5578.18 5293.37 5271.88 5559.79 5879.24 4571.74 4096.86 3622.48 5001.51 5385.86 5115.42 4082.4 5482.76 3745.02 3720.7 4211.36 5698.53 3604.31 4450.49 3856.73 3468.45 5635.32 4526.34 4316.45 5409.08 5042.75 4598.92 5241.22 6647.08 4979.52 3422.29 4407.79 5214.63 3495.68 5783.94 3990.96 5352.24 7362.42 4202.77 5836.14 5473.05 5537.34 5884.99 5726.42 7025.09 4433.12 2549.95 3392.26 4361.24 5138.93 6406.8 7086.69 6875.73 6170.9 4436.48 6081.3 5117.52 5615.35 3967.76 6734.39 5942.45 4228.53 4150.76 5005.72 6142.88 5111.26 5388.73 5205.38 4764.83 4600.71 3957.38 4494.15 4710.88 6889.5 5300.17 4057.4 5534.23 6025.77 6815.96 5339.6 5828.25 4725.11 3626.86 6371.96 5322.07 5076.11 5770.07 5101.6 4282.11 6589.13 4625.53 4096.47 2347.41 4542.16 3543.37 5353.66 5527.27 5234.2 5104.39 4612.13 5846.6 5327.05 5438.55 5353.23 4434.65 5977.66 4523.81 5106.33 5198.94 5933.54 5464.05 2980.31 3148.79 5740.78 4796.12 5997.91 4742.82 6791.86 4209.0 4930.72 5728.58 4887.73 6297.99 5378.24 4538.89 5817.74 5887.71 5661.6 4827.61 5285.75 5385.03 5481.64 5673.75 5360.67 5968.54 6263.3 4501.05 4537.03 6548.29 4114.2 4326.06 5034.46 5757.29 5793.12 5469.17 5061.75 4373.2 3769.24 6022.78 4087.32 6647.85 2569.12 5161.74 7336.37 5099.9 6945.69 5118.86 4183.4 4304.64 4733.79 5833.78 4823.06 5758.98 5288.64 5254.49 6213.24 5987.88 3579.59 6161.94 6123.46 5057.59 4461.14 5285.6 4574.54 4949.55 3132.34 1969.87 4841.28 5203.54 5507.38 4047.95 6142.94 5001.69 4416.87 6581.56 4052.43 3980.46 4896.67 5383.9 3934.11 5158.44 4466.22 6153.71 5917.08 5483.37 5418.12 5934.05 4714.66 6771.18 4984.17 4656.01 4037.86 5602.62 2030.03 5714.51 5628.97 4484.78 5157.73 5847.91 4934.66 4109.44 4903.84 4290.49 6688.53 5209.5 5065.74 5791.25 4028.35 4873.23 5410.6 5453.2 6348.93 6824.53 4332.64 5232.16 4422.23 4820.68 6031.22 5485.84 6424.77 5453.69 5918.95 5689.56 6556.86 3242.31 6099.28 3234.26 5372.25 4169.15 4778.37 5134.17 4074.16 4904.35 5592.54 3247.97 5124.34 4904.37 4358.81 4651.64 5729.92 5016.46 6224.13 4761.84 3661.67 5517.65 4009.68 4622.73 3303.49 4161.32 5256.75 6351.89 5932.28 2960.5 4298.7 4975.32 3902.48 6030.39 4905.53 3799.01 7392.65 3757.23 5319.1 6828.8 6883.86 3350.99 4065.28 4745.37 5939.29 5418.98 5575.11 5615.06 4052.49 5490.54 5326.03 6189.67 4948.96 5256.82 4061.87 4013.86 5165.31 3798.09 4288.5 3886.56 5715.51 4496.51 4511.05 6561.94 5259.21 5092.93 2803.01 4444.0 6182.19 5327.39 5781.62 4981.81 4138.59 4970.55 4938.33 4621.33 4541.22 4946.08 4984.01 3539.68 6217.33 4557.1 5927.1 6175.27 5876.51 6731.89 2932.52 4733.41 5264.83 3901.53 5136.51 6815.51 5313.86 4457.05 3989.26 5189.91 3618.64 5703.84 4335.79 3530.82 5797.32 5432.04 3921.27 3702.45 5265.63 4898.29 4431.06 5730.2 4830.13 3494.16 5370.9 4529.77 4325.13 6172.27 5390.33 5078.73 5278.54 5729.0 5192.92 5275.57 4179.87 4786.66 5891.25 5370.1 5129.4 5114.51 4655.37 5585.25 5023.61 4672.86 6530.78 5560.23 3043.77 5237.55 3909.94 5088.64 6589.8 6920.92 3729.16 3038.91 3783.36 4181.93 3922.28 6570.43 3445.92 3820.19 4979.5 5236.69 4586.82 6026.04 6200.05 5859.17 4034.41 5061.74 5771.98 4420.35 5717.45 5117.83 5268.27 4645.93 5448.64 4585.37 6417.61 3721.69 5395.12 3456.3 5783.69 6074.39 5317.83 4256.08 5881.93 4460.89 4399.52 4554.24 3939.96 5910.66 7415.84 4637.3 5141.03 4840.44 8123.59 5765.14 4767.54 5121.08 2927.84 4696.03 6177.68 4605.39 6270.59 2848.44 6045.26 6500.45 4907.55 4103.76 4094.63 4286.61 4603.66 4969.68 6636.43 5431.14 6298.8 3689.24 5178.07 5151.19 5777.26 4171.02 7012.36 5028.06 4886.99 4002.99 5159.67 3161.1 5764.52 5684.88 6523.78 4645.86 4045.67 5620.88 4941.52 5900.0 4262.74 6241.77 3783.79 5317.19 4248.14 5279.19 4016.6 5821.49 7050.08 5580.44 5998.13 5095.52 4746.15 3720.38 4758.84 4731.37 3976.0 4068.41 6463.71 5059.37 5783.38 4139.39 6264.03 3562.8 4151.74 5192.82 4174.22 3573.84 4067.89 6294.09 4571.57 5131.07 4121.07 3133.28 5524.28 5731.43 6353.81 3518.14 4150.44 5522.34 2649.69 5899.78 5000.74 5772.57 4813.81 5244.95 4634.25 5901.8 6351.48 3830.7 6210.0 5350.9 3483.61 6738.9 5992.06 4157.1 8052.53 4867.12 6044.01 6520.19 1458.87 5734.07 3997.68 6033.28 4819.83 4801.16 5071.38 5616.66 5688.77 4698.7 5368.28 6229.64 4220.43 6263.87 5743.8 6666.34 5084.76 6605.11 4757.87 3557.46 5971.95 5652.73 3979.46 6321.97 6509.54 6119.0 3792.06 5128.59 4293.3 5587.3 3572.73 4864.38 3770.22 4390.64 5150.84 4608.01 5087.97 6005.95 4308.49 4930.17 4581.1 4745.44 4085.96 5762.82 7360.12 6223.98 5462.6 5617.29 3035.06 4262.19 4597.88 4878.93 6275.25 6892.33 4505.3 4452.36 4832.21 4511.34 5009.21 4742.35 5394.79 5645.54 5264.08 4526.87 4227.66 4691.01 4594.89 5245.95 5821.42 4515.02 3463.53 6126.03 2970.24 4197.87 5105.54 5462.1 6032.45 3414.67 5444.36 5044.68 4026.03 6908.32 3467.11 4817.75 6153.26 5637.53 3882.37 4095.4 5188.57 3873.79 5357.33 5432.4 4262.52 5037.58 7430.48 5545.68 6080.69 4970.12 4967.93 6369.66 5973.57 6241.48 5125.45 5957.82 6286.27 6327.54 5507.07 4802.36 5466.13 5327.71 5257.38 5075.23 4975.56 7282.36 3826.01 4645.91 5581.01 6834.92 6379.33 5130.57 5090.48 5402.45 3985.93 6412.84 6071.59 2589.19 6079.55 5485.61 4993.49 5310.33 6583.37 3688.83 3402.44 4848.98 4491.96 5184.98 4467.51 5339.82 4519.03 5460.57 5110.27 5703.34 4612.68 6668.98 6649.52 4232.33 4939.56 4747.68 5770.92 3093.38 4845.91 2002.78 5631.32 6322.0 5793.14 4491.26 4609.65 5704.61 5410.73 4379.91 4574.03 5290.37 5850.38 4730.97 3677.85 5214.71 4677.84 4811.11 4924.52 4866.8 6044.69 5658.05 6593.1 4000.51 5011.37 2827.92 4441.44 5092.44 4232.44 5336.61 5563.09 4848.15 4439.09 5523.81 4718.61 6697.45 5717.67 5515.59 5252.37 3224.81 4499.54 3775.38 4046.22 6457.89 5640.67 6572.17 3751.73 5555.89 4766.47 4871.1 5678.08 5922.62 4414.09 5191.29 3784.68 4188.16 3717.22 4654.92 2943.17 4880.78 5286.55 4322.56 5509.09 5625.02 5212.05 4829.77 3928.99 4444.92 6959.88 4125.75 5749.53 5247.73 5034.02 5582.28 5945.25 5181.31 3856.4 4696.06 4137.16 4937.36 5308.4 6581.13 4569.32 5537.61 6084.88 4397.06 4199.44 4053.12 4479.5 6261.67 3435.13 5065.78 4431.46 4521.42 3207.84 3977.98 6043.34 4128.93 4959.72 4712.17 3808.04 4723.71 4405.61 4461.67 6126.5 4034.88 6007.1 6345.2 5488.96 5128.03 3720.92 4942.63 5087.3 6139.74 4975.57 7066.26 6150.31 3057.3 5873.62 4996.91 5379.52 3920.44 3768.62 5314.67 5563.47 5651.46 4066.36 3162.27 6033.93 5516.37 5432.2 3312.3 4612.4 4746.19 6381.58 3282.57 4798.13 5648.59 4630.5 6296.36 4432.32 4451.76 7885.41 5782.25 4104.97 4844.2 4575.72 5114.61 6118.13 3374.62 4926.62 3917.09 6009.93 5872.45 5270.1 4947.64 6305.9 6649.21 3470.69 4859.95 5522.18 4132.08 5223.1 3873.72 4592.49 3625.98 5479.86 6474.5 4702.32 4763.04 5971.9 3746.62 4532.67 4876.37 4769.62 5260.13 4649.5 4810.74 5985.75 5475.83 6189.29 5984.55 5672.46 5803.3 3228.27 4721.98 5252.82 3543.98 4142.1 5056.26 5878.55 4014.44 6604.72 6002.77 3794.47 4610.55 4967.02 4614.49 5400.69 4462.5 5573.31 5004.68 4023.88 3488.34 5348.11 5428.24 5108.84 3511.5 4520.14 4582.12 5067.92 5357.14 3188.21 5919.27 4793.06 6637.38 6188.33 6111.23 6916.18 5786.06 4137.41 3868.69 5447.74 4450.51 6033.72 3692.99 3851.47 4966.74 4959.94 1635.31 5639.4 6185.73 4083.24 6520.96 3771.91 5217.62 6178.19 4616.81 5715.25 5212.2 4611.21 5108.42 3354.94 4404.87 5237.27 5767.65 4750.76 4907.03 5497.27 4081.77 4948.21 2181.29 4987.01 4420.3 4202.12 6332.64 6492.44 4083.1 4613.32 3482.73 3996.93 5130.56 4957.99 4063.26 4542.62 4997.89 5093.28 6131.52 6009.88 4850.49 4699.77 4981.55 5144.23 6188.62 6153.07 4414.06 5944.52 4413.56 5050.2 5316.05 2513.38 4908.32 3995.08 5019.84 3900.93 5784.38 4149.17 4329.8 5728.27 3074.49 5202.33 3956.24 7558.99 3393.59 5043.14 5333.04 5445.91 4521.99 4812.59 6842.54 7115.67 5675.45 3361.11 6038.56 2807.46 5599.16 4179.8 5658.35 4487.51 5886.81 4295.25 7394.47 4850.95 4729.45 5374.09 6271.22 3421.81 5378.75 3920.64 6186.24 5822.7 3780.07 4159.89 5466.49 4038.17 5007.41 4907.48 6213.74 2329.93 4369.87 6938.87 5412.07 5512.57 4806.99 4813.55 5856.43 3839.0 3465.03 5349.85 5799.86 4362.94 5172.1 4469.82 6545.78 4870.14 2932.2 5105.72 5003.49 3964.03 4216.33 5832.72 5617.91 4721.2 4706.31 2694.25 6265.48 4735.99 4203.68 4739.56 5145.39 3352.46 6351.95 5195.09 5345.05 7679.2 4881.51 4311.92 2626.41 6729.99 5093.41 6842.35 5464.34 3621.63 4777.96 5801.89 5908.57 7296.47 5742.39 4821.41 4924.53 5616.11 4499.52 4028.13 3874.12 4457.73 6476.35 6260.58 3053.19 4067.24 6571.26 5580.95 3549.92 6598.99 4032.06 5246.81 5089.1 5888.95 5394.78 3463.34 5122.38 2853.68 5262.85 4998.37 5329.84 6559.82 3879.83 6565.95 4577.98 5043.34 4246.24 6805.02 5354.48 5640.63 4900.26 6261.13 4167.55 5244.47 4720.34 4731.16 5510.89 6470.87 4495.33 5282.67 5747.9 5178.55 5146.69 6203.24 6818.23 4488.41 6679.12 5652.19 5806.74 6578.62 6284.12 4796.04 5229.56 6011.4 4672.34 6052.22 5376.41 5003.63 4695.7 4747.24 4944.08 4082.01 5269.39 4305.35 5210.22 2451.27 3903.9 4444.95 5161.02 3124.49 5003.81 6262.18 3818.37 4701.03 6225.05 5434.04 5200.1 3997.52 4444.54 5779.9 4909.74 5310.33 5299.03 6664.54 3922.98 5161.73 5259.48 5254.93 4803.4 6833.5 6608.94 2613.78 4780.16 3834.01 5738.37 4433.23 4813.24 5759.19 5847.27 3113.64 4490.2 4304.75 5480.86 6139.9 4720.22 4313.38 5827.3 5250.56 3633.58 2468.16 6294.14 4339.97 5203.75 5169.09 3906.41 4691.15 2459.88 4210.24 5470.67 5901.71 5225.11 5342.9 5252.22 5733.12 4962.35 6436.29 5402.81 4600.81 4328.76 4919.13 5168.97 4124.33 5783.88 5002.38 6705.93 4865.11 5449.09 5502.14 4605.61 4131.08 4465.56 5386.95 3864.19 4287.93 5332.11 5315.71 6158.93 5081.65 4823.14 5438.5 4621.32 5699.4 3878.8 4698.94 3948.21 4286.84 5669.15 5296.05 5263.86 3330.85 5056.32 5533.52 5410.33 5302.53 4380.86 5576.16 5648.02 3308.75 4604.34 4439.17 5677.42 4929.35 5606.22 3943.77 5242.38 6081.35 5459.52 4609.98 5566.5 5663.36 4276.59 5579.04 5125.53 5994.21 5403.81 5082.25 6964.78 4374.05 5036.84 4565.36 5813.68 4025.08 4008.67 3618.53 4770.21 8013.28 3846.55 3796.73 5417.07 3082.16 5656.84 6789.66 4739.41 5312.2 4706.59 5734.84 3982.31 4950.07 4582.24 2832.83 4084.87 6036.99 3010.1 3825.98 4589.22 5087.03 4667.84 5584.64 4123.08 4512.6 4260.38 4636.45 4932.27 5638.51 6793.49 3563.33 6060.19 5536.0 6786.37 4333.23 5145.13 5561.63 5940.5 4358.06 5093.51 5647.93 4280.92 6201.49 4696.92 5154.74 6437.99 6898.8 6540.57 4893.72 6004.72 4072.4 5373.78 5345.65 4489.18 5863.36 4632.75 5237.76 4994.98 6423.96 6058.13 5894.69 6988.4 6635.51 4060.17 6051.35 4909.13 4287.61 3999.81 4867.13 4863.27 2701.42 5442.79 5051.39 6673.92 5151.68 4884.94 5362.15 4455.61 4738.72 4752.31 5240.97 5569.85 5405.6 3929.35 4884.93 4759.38 6960.97 4287.15 5282.51 5504.65 5669.41 5732.11 5040.9 5596.68 4868.66 4004.39 5159.9 5283.65 4644.68 2892.36 5981.54 5911.29 5416.41 4694.27 6760.64 2515.5 5177.88 5551.79 6981.47 3916.15 4474.96 4758.76 4790.63 5259.29 3584.05 4916.75 4818.53 5097.85 6189.04 6224.64 4221.03 5189.4 3799.55 5082.66 4550.77 4337.93 3550.88 5201.3 4345.51 4048.73 6223.33 3860.8 3747.96 5611.29 4521.88 6568.45 5004.22 4601.54 7263.57 5705.96 3832.09 5267.65 5739.69 6632.04 5360.88 7360.62 4977.64 4985.45 4983.56 5699.51 2489.44 5499.37 4883.13 4836.76 4752.94 5551.09 3950.53 4501.1 5581.47 4384.91 6550.61 4987.01 4713.56 6094.34 6779.82 5543.67 6210.48 6377.45 4182.05 4502.12 3255.93 6853.07 6327.61 4633.59 5733.59 5575.8 5268.93 3695.72 6874.6 5106.9 5306.31 5523.96 4223.53 4733.37 4535.94 3037.72 4523.9 5126.08 5604.0 3760.4 4951.02 3919.47 4602.7 3783.35 4037.16 6395.63 4987.48 5943.61 4248.58 5479.17 4542.25 5020.37 4414.23 5233.88 4849.21 4785.55 3793.83 5245.4 6189.81 5367.05 4449.73 5647.11 4088.72 3945.62 3743.85 6236.46 5342.17 6379.3 5015.67 3795.63 4576.71 6538.04 4894.15 6157.59 5848.41 4090.28 4246.83 5438.6 7370.52 4726.5 5467.05 3724.23 5103.3 4963.88 5888.94 4727.98 5175.88 4122.2 4516.26 4790.16 3509.34 3731.58 3647.26 3166.37 5369.42 5207.08 5205.53 4714.52 4587.19 5543.05 6028.89 5333.16 4888.17 5755.98 5392.85 5077.2 4274.05 5275.27 4277.54 5529.09 4531.46 5925.82 5448.68 4739.5 4072.95 4491.62 3865.5 
SCALARS Velocity float 1
LOOKUP_TABLE default
1.50763 1.82717 1.82517 1.43126 1.92224 2.26702 1.50971 1.63471 1.59854 1.26795 1.37604 1.92714 1.68612 1.35134 3.92187 1.45567 2.10319 2.47591 1.95082 1.59649 1.65103 1.44423 1.72067 1.70565 1.6756 1.42317 1.58972 1.46848 1.49233 1.4932 1.56232 1.82709 1.18377 1.62442 1.43079 1.885 1.83633 1.87246 1.84742 2.27939 1.16669 1.28341 1.23182 1.29934 1.37024 1.42525 1.31313 1.64528 1.26411 1.7312 1.46779 1.76141 1.54404 1.75237 1.52945 1.40329 1.50749 1.47665 1.45305 1.47564 1.44547 1.55776 1.8757 1.34035 1.6737 1.68849 1.54877 1.72586 1.82783 2.38158 1.65944 1.0949 1.15373 1.20601 1.20911 1.18139 1.19747 1.2155 1.19484 1.23723 1.08336 1.26823 1.46315 1.50316 1.97008 1.56723 1.56381 1.0461 1.6871 1.60187 1.47406 1.22783 1.19316 1.49352 1.42667 1.34354 1.44238 1.41613 1.59903 1.49412 1.20047 1.41203 1.53467 1.61865 1.68187 1.47167 1.84861 1.40187 1.36437 1.90994 0.601071 1.98019 1.11946 1.25912 1.29722 1.47145 1.3173 1.27628 1.29828 1.2458 1.15277 1.15951 1.15846 1.15978 1.17059 1.17826 1.18688 1.11854 1.13161 1.20134 1.67027 1.48706 1.55933 1.42101 1.2869 1.1741 1.16922 1.5855 1.51863 1.0657 1.36974 1.49614 1.34002 1.40052 1.27873 1.26733 1.73655 1.42544 2.0047 1.16905 1.50206 1.35355 1.72645 1.16271 1.4151 0.850005 1.21401 1.03435 1.24439 1.22969 1.15184 1.18816 1.21059 1.18685 1.09827 1.12542 1.12778 1.10185 1.13279 1.1265 1.13917 1.1304 1.09801 1.06712 0.98768 1.013 0.932745 1.49488 1.608 1.56417 1.20964 1.32537 1.53883 1.39108 1.20366 1.2879 1.2389 1.07743 1.26925 1.23848 1.30271 1.43512 1.31299 1.29511 1.34618 1.31984 1.39687 1.5309 0.958119 1.47576 1.11388 1.46394 1.86911 0.917089 0.65566 1.26527 1.03789 1.10436 1.00333 1.13655 1.14955 1.18097 1.18011 1.17755 1.15023 1.18271 1.22959 1.02554 1.05787 1.07397 1.07289 1.03995 1.09793 1.06088 1.05581 1.11619 1.09436 1.09966 1.06906 1.09275 1.07851 1.09554 1.11906 1.08694 1.06883 1.78269 1.46745 1.40266 1.43983 1.31965 1.27435 1.02219 0.923141 1.21694 1.23627 1.32084 1.42788 1.48209 1.3049 1.26789 1.4831 1.21427 1.5668 1.37622 1.12285 1.21684 0.880835 0.863397 0.95602 1.06913 1.03815 1.0129 1.0513 1.03759 1.07803 1.11683 1.095 1.02154 1.10591 0.995908 1.14316 1.2395 1.21119 1.18684 1.01461 1.02531 1.01171 1.00593 1.0251 1.04012 1.0454 1.07644 1.06692 1.10588 1.10117 1.0939 1.09008 1.10217 1.85866 1.0518 1.3641 1.28295 1.20436 1.20196 1.20672 0.961909 0.938465 1.27716 1.17698 1.31233 1.52594 1.19738 1.02564 1.15239 1.60211 1.29146 1.18092 0.979258 1.04885 1.13519 1.04175 1.04088 1.05398 1.06216 1.04143 1.03365 0.986191 0.941592 0.984236 1.03714 0.944471 1.03987 1.06317 0.963395 0.671652 0.757207 0.997021 1.01085 1.01298 1.03293 1.02136 1.03319 1.04328 1.03394 1.04916 1.07025 1.06412 1.06378 1.08578 1.12449 1.11801 1.09942 1.09919 1.07428 1.04395 0.966084 1.0792 1.39192 1.25323 1.1531 1.19453 1.39176 1.04804 0.831256 1.33745 1.48153 1.21127 1.19607 1.12112 1.48742 1.28781 1.43955 1.2276 1.18161 1.05769 1.02315 0.911044 1.60237 1.27268 1.42646 1.29672 1.33785 1.43214 1.04234 1.22236 1.06852 1.09344 0.970012 1.04803 0.996741 1.06534 1.07605 1.05915 1.05995 1.06219 1.02753 0.992645 1.0111 0.979468 0.973539 1.00624 0.996413 1.07796 1.0744 1.05069 1.11005 0.717824 1.15991 0.758626 0.91418 1.00605 0.966082 0.998865 1.01733 1.02168 0.999484 1.0308 0.995209 1.01388 1.02831 1.01335 1.05181 1.12461 1.09029 1.11884 1.0976 1.08347 1.06803 1.08757 1.12455 1.01823 0.979591 1.12045 0.914555 1.25293 1.14264 1.22509 1.25128 1.16672 1.26515 1.35575 1.06107 1.10125 0.651482 1.42821 1.17255 1.17821 1.21537 1.10468 1.31069 1.28568 1.03252 0.9871 0.982543 1.31992 1.36679 1.2326 1.25591 1.33125 1.37141 1.23075 1.11065 1.03492 1.04384 1.10514 1.05587 1.04122 1.00181 0.991325 0.985542 0.99911 1.00881 1.0313 0.812852 1.18525 1.00837 0.822992 1.08988 0.848858 0.872635 0.75137 0.850443 0.75631 0.904039 0.870049 0.922448 0.962275 0.849768 0.919959 0.983589 0.982608 0.943327 0.973972 0.936733 0.972937 1.04019 1.05461 1.06552 1.04831 1.01689 0.993521 1.00089 1.00973 1.0928 1.19745 1.20175 1.21748 1.29469 1.36896 1.21632 1.04688 1.22034 1.19478 1.11571 1.09641 1.2136 1.25263 1.15142 1.12745 1.17126 1.1413 1.25054 1.13747 1.03913 1.00248 1.01042 1.14798 1.05757 1.11204 1.24751 1.28643 1.3401 1.19973 1.11816 1.04616 1.08867 1.04839 1.05205 1.06187 1.07406 1.06833 1.17483 1.1137 1.05189 1.02581 1.04886 1.03214 1.00068 1.02259 1.02094 1.02268 0.772505 0.895493 1.06771 0.742697 0.881709 1.12422 1.06146 0.958871 0.940316 1.01782 0.900633 0.872714 0.891346 0.896763 1.29684 1.17117 0.926565 0.3579 0.724098 0.92615 1.00335 0.973237 1.01008 0.868394 0.759845 0.877475 1.07435 0.909431 1.22782 1.06293 0.90864 0.853511 0.886338 0.966922 1.00473 0.959398 1.03332 1.02369 1.0166 1.01091 0.983907 0.983677 1.02163 1.11153 1.13181 1.21355 1.23211 1.27568 0.806032 0.74115 0.993403 1.11282 1.33945 1.03813 0.970262 1.14199 0.983189 0.984729 1.13512 1.0739 1.21833 1.16472 1.15754 1.20464 1.14768 1.14117 1.06725 1.00633 1.16385 1.01646 0.992397 1.06435 1.06017 1.11863 1.21345 1.28654 1.0543 1.05627 1.03207 1.04188 1.0403 1.0545 1.03502 1.06991 1.05184 1.02749 1.05776 0.981498 1.01623 0.96127 1.04246 0.915752 1.11429 0.9083 0.907583 1.00235 0.906838 1.04835 0.936705 0.840013 0.971313 1.41311 1.37226 0.831306 0.674545 1.24134 1.32833 1.12707 1.02974 1.01792 1.00079 0.958242 1.00308 1.0753 1.23788 0.736151 0.628073 1.00642 1.00739 0.880958 0.967567 1.01673 1.08243 1.04568 1.03191 0.982967 1.06725 0.996766 1.2529 1.20042 1.26787 1.26354 1.04085 1.01158 0.956805 0.860799 1.14034 1.07823 1.16583 1.0839 1.06559 1.11985 1.11409 1.05276 1.1557 1.18367 1.20438 1.15334 1.13541 1.12004 1.06846 1.08053 1.06702 1.17984 1.08528 1.10522 1.1047 1.17187 1.22464 1.11917 1.06324 0.996663 1.01644 1.06552 1.02919 1.04996 1.04718 1.048 1.03797 1.01636 1.01383 1.02156 1.0702 1.0199 0.997041 0.99558 1.01283 1.00906 0.950403 0.945661 0.972796 0.983841 0.96101 1.02258 1.0046 0.92808 0.979247 0.979756 0.963495 0.276022 0.279354 1.05901 2.92396 1.66316 1.12892 0.756521 0.762193 1.083 0.873537 0.697763 0.861402 0.603305 0.91519 1.04485 0.96012 1.1057 1.11272 1.387 0.843918 1.11859 0.842377 0.972784 1.17669 1.08947 1.10518 1.09438 1.1035 1.07611 1.10271 1.14775 1.13282 1.37615 1.43506 0.719819 0.886921 1.05439 1.04051 0.984116 0.953803 0.825504 0.968648 0.990718 1.0821 1.13528 1.10971 1.096 1.10815 1.06645 1.11439 1.17718 1.24421 1.15161 1.19915 1.1174 1.14308 1.11126 1.09758 1.11095 1.09095 1.02135 1.04304 1.0739 1.1346 1.16101 1.19577 1.0204 0.986351 1.00318 1.02074 1.04907 1.05237 1.04809 1.05137 0.929676 1.0051 1.04723 1.07421 1.03863 1.01548 1.02283 0.949397 0.937094 0.920531 0.881592 1.01897 0.931676 0.937552 0.964855 0.838833 0.987804 0.979578 0.975211 0.975968 0.968546 0.971751 0.809078 0.802161 0.655568 0.881218 1.03243 1.16947 1.04011 0.913106 0.789446 0.743164 0.786556 0.916365 0.836356 1.02355 1.08882 0.788356 0.244031 0.854696 0.845405 0.935661 0.717821 1.46099 1.22594 1.11849 1.15756 0.960433 0.97976 0.573313 0.812761 0.942161 1.07512 1.09962 1.05099 1.02041 1.04794 1.0144 0.998351 1.10244 1.1189 1.09689 1.0942 1.1359 1.12488 1.15 1.06195 1.13379 1.11533 1.08863 1.07069 1.02951 1.0515 1.07671 1.10095 1.08221 1.09369 1.14268 1.00488 1.02861 1.02377 1.00283 1.00529 1.02041 1.0014 1.09127 1.21035 0.92459 0.79566 0.965133 1.00508 0.983903 1.00539 0.999903 1.02934 1.02497 1.02224 1.07921 1.03195 0.944954 1.15601 0.900832 0.891826 0.930208 0.868797 0.931789 0.734366 0.839342 0.854622 0.834838 0.859966 0.843092 0.849507 0.836174 0.835453 0.831841 0.787361 0.821153 0.822826 0.942544 0.888886 0.885973 0.899576 0.86975 1.03482 0.913665 0.97249 0.933799 0.966073 0.907885 0.817699 0.777175 0.867572 0.830996 0.794432 0.81696 0.874905 0.872388 0.842366 0.528147 0.812204 0.845731 1.08921 1.20559 0.990718 0.949817 0.889804 0.850137 0.786753 0.906223 0.976945 0.897854 0.795461 0.680324 0.981721 0.997705 1.05528 1.0715 1.0785 1.08095 1.03679 1.08695 1.15746 1.16189 1.11249 1.14414 1.07659 1.0877 1.12897 1.13679 1.1195 1.25106 1.0211 1.16044 1.12877 1.11758 1.11285 1.14318 1.09133 0.995476 0.973503 1.04685 1.08778 1.11546 1.1165 1.10677 1.08007 1.0463 1.03556 1.02084 1.06967 1.04866 1.00077 1.00505 1.00193 0.990333 0.976591 1.14086 1.06862 0.976397 0.897933 0.963187 0.962875 0.930675 0.983427 0.972095 1.01919 1.09896 0.948377 0.784135 0.803062 0.865548 0.853401 0.894784 0.853108 0.896616 0.874137 0.848532 0.838345 0.833644 0.815979 0.774603 0.841204 0.833765 0.837401 0.836836 0.793118 0.994253 0.926581 0.865535 0.897609 0.87201 0.861751 0.9261 0.944284 0.923383 0.90682 0.851357 0.869068 0.899761 0.877788 0.902879 0.775074 0.797776 0.871431 0.933328 0.831379 1.0374 1.08117 1.12539 0.989459 0.934487 0.81989 0.834485 0.801574 0.825614 0.796371 0.950806 0.98269 1.02673 1.06235 1.06493 1.00599 1.12726 1.13275 1.13699 1.16294 1.16471 1.11164 1.10042 1.0572 1.09784 1.12069 1.16874 1.16292 1.21588 0.98251 1.0011 1.12975 1.14197 1.11874 1.12491 1.12648 1.06162 0.987871 1.02153 1.09356 1.1057 1.09818 1.08548 1.07651 1.04065 1.00378 0.958159 0.999017 0.967523 1.00656 0.999577 0.959269 0.988434 1.0541 0.983058 0.956294 0.942792 0.944107 0.94318 0.976266 0.952015 0.958826 0.895379 0.789744 0.79444 0.816052 0.845949 0.858206 0.860604 0.876173 0.876807 0.905335 0.910331 0.80827 0.874969 0.923678 0.90983 0.801609 0.815215 0.846067 0.89967 0.87015 0.864735 0.868988 0.806388 0.798343 0.816217 0.810186 0.80229 0.783255 0.792832 0.959135 0.941594 0.856138 0.844436 0.720811 0.862014 0.805911 0.918279 0.818815 0.856584 0.907406 0.85493 0.880126 0.867446 0.921457 0.93942 0.948096 0.928161 0.968543 1.04483 1.05264 1.05913 1.03376 1.00907 1.00104 0.846213 0.86036 0.889734 1.00175 1.02075 1.03574 1.0494 1.09831 0.993295 1.14833 1.10344 1.14686 1.17006 1.07973 1.03346 1.13769 1.18154 1.14478 0.990192 1.04842 1.1424 1.12033 1.1262 1.13429 1.13358 0.965744 1.11222 1.11651 1.05708 1.08362 1.03467 1.03022 1.0222 0.979603 0.963703 0.955366 1.001 1.00186 1.02135 0.997828 0.986615 0.953302 0.959275 0.950167 0.934874 0.948842 0.94211 0.959268 0.96841 0.947003 0.883973 0.822634 0.842258 0.850913 0.884877 0.912105 0.751217 1.0042 0.632553 1.06921 0.840456 0.721982 0.857826 0.909866 0.873937 0.784766 0.84132 0.807906 0.785515 0.76023 0.760263 0.794953 0.809266 0.813984 0.854516 0.850639 0.890701 0.86316 0.768015 0.739271 0.79223 0.783056 0.80786 0.770806 0.804142 0.792479 0.850408 0.809813 0.814958 0.910004 0.846631 0.871539 0.900227 0.905938 0.948716 0.906835 0.944022 0.952841 0.94987 0.956895 0.963152 0.961658 1.0471 1.05594 1.05683 1.02243 1.02267 0.966865 0.806002 0.848923 0.884213 0.89842 1.01797 1.04073 1.07041 1.08133 1.12313 1.08605 1.14525 1.18703 1.1589 1.08756 0.994599 1.04761 1.12274 1.08863 1.0437 1.04936 1.05258 1.05117 1.11887 1.10291 1.11443 1.14905 1.02921 1.10602 1.15938 1.05436 1.05742 1.0043 1.03748 1.04357 0.968552 0.978263 1.00298 1.00077 1.05189 0.968443 0.947534 0.954775 0.946515 0.946103 0.945886 0.953745 0.963306 0.963489 0.970387 0.970237 0.928947 0.855595 0.838578 0.860342 0.868482 0.856767 0.861319 0.908037 0.868313 0.917515 1.16276 1.07006 0.917568 0.633297 0.779663 0.730769 0.676163 0.773979 0.766885 0.864904 0.689232 0.73275 0.837768 0.772592 0.869295 0.838624 0.594567 0.762037 0.839468 0.749928 0.759586 0.747411 0.756543 0.745085 0.790943 0.728721 0.795561 0.974948 0.777451 0.67265 0.778829 0.758941 0.777357 0.839429 0.836382 0.833274 0.842921 0.863633 0.856325 0.844892 0.860358 0.872241 0.8915 0.920524 0.935655 0.938045 0.979899 0.904022 1.07473 0.939859 1.01833 0.966983 0.946773 0.890113 0.74483 0.886568 0.951315 1.06699 1.10046 1.06611 1.05507 1.03473 1.07489 1.07526 1.14177 1.0752 1.10217 1.18797 1.12699 1.18065 1.07751 0.995404 0.997702 1.16456 1.10547 1.08904 1.08299 1.09536 1.05019 1.09364 1.0475 1.17565 1.1297 1.07138 1.07657 1.1505 1.04477 1.04925 1.01545 1.01975 1.01201 1.03837 0.962317 1.0304 0.993933 0.982376 0.987434 1.00269 0.995863 0.907046 0.904153 0.925464 0.945447 0.948192 0.947047 0.945999 0.945143 0.963898 0.981814 0.987925 0.941825 0.838589 0.879052 0.877937 0.871201 0.863308 0.864056 0.850918 0.834542 0.864783 0.877447 0.68689 0.601613 0.656384 0.764088 0.781468 1.048 0.828272 1.13248 1.00521 0.791307 0.788653 0.828942 0.806374 0.806348 0.802303 0.813839 0.749935 0.704253 0.605468 0.608773 0.602046 0.609732 0.886889 0.781118 0.713155 0.748861 0.70953 0.696011 0.730727 0.704795 0.719981 0.697946 0.716298 0.681747 0.542464 0.695802 0.777257 0.798042 0.749471 0.787815 0.748709 0.789136 0.796918 0.828 0.847053 0.860676 0.870581 0.886598 0.908958 0.938743 0.92558 0.922793 0.927152 0.924116 0.99986 0.956464 0.971234 0.908876 0.810162 0.767654 0.905872 0.982394 1.16078 1.31633 1.14754 1.06799 1.02352 1.11255 1.08909 1.08282 1.24691 1.15207 1.06099 1.07752 1.04604 0.991497 1.14893 1.14046 1.04682 1.10748 1.13609 1.0638 1.08109 1.08733 1.12784 1.05071 1.0519 1.07523 1.1164 1.15965 1.01689 1.13054 1.0029 0.991135 0.957332 1.01273 1.03001 1.04281 1.02987 0.989476 1.0024 1.00176 0.926205 0.90877 0.928147 0.940254 0.929451 0.937707 0.931649 0.925687 0.936788 0.932965 1.05283 0.929896 0.998488 0.737451 0.838955 0.855952 0.806772 0.832338 0.844804 0.881636 0.858839 0.876045 0.807533 0.729456 0.636863 0.563139 0.633997 0.717441 0.745006 0.571531 0.805632 0.57255 0.757604 0.498243 0.766129 0.691609 0.698777 0.761166 0.718039 0.719671 0.686734 0.644511 0.660788 0.624089 0.620844 0.623182 0.627652 0.579994 0.608139 0.59286 0.737714 0.703934 0.674867 0.69956 0.690159 0.701015 0.689822 0.687271 0.66416 0.684115 0.706556 0.729518 0.751001 0.738919 0.794616 0.8186 0.833691 0.837269 0.848775 0.879899 0.860562 0.88708 0.873602 0.889745 0.883826 0.904199 0.930161 0.927461 0.970683 0.942204 0.935243 0.923955 0.940967 0.972236 0.991546 0.968822 0.950506 0.919818 0.886445 0.802652 0.882187 1.09858 1.20578 1.28971 1.14464 1.01172 0.954837 0.918767 1.15902 1.10813 1.02855 1.30104 1.17728 0.939358 1.08078 1.16325 1.09832 1.07346 1.08074 1.13474 1.15659 1.12071 1.1333 1.08756 1.12766 1.06515 1.11773 1.03813 1.04554 1.11966 0.975962 0.972191 0.980471 0.996232 1.00191 1.02623 1.04393 0.933258 0.993363 1.01736 1.04033 0.899757 0.902514 0.927823 0.923075 0.915487 0.921359 0.919627 0.925996 0.925081 0.94223 0.951286 0.971519 0.862459 0.856359 0.83394 0.855735 0.860365 0.865564 0.838666 0.727125 0.715026 0.725681 0.66758 0.654995 0.642497 0.886716 0.734223 0.961426 1.04859 0.616393 0.675496 0.736279 0.710271 0.689133 0.665161 0.647258 0.580035 0.629047 0.542493 0.606588 0.603087 0.595614 0.557806 0.619731 0.551962 0.615018 0.571183 0.589636 0.590883 0.535542 0.571956 0.559686 0.631947 0.695795 0.691946 0.722912 0.759749 0.752342 0.753801 0.753666 0.676123 0.708036 0.712967 0.742949 0.736177 0.872509 0.903547 0.884686 0.906703 0.900318 0.898249 0.891379 0.959968 0.958724 0.998164 0.974912 0.942895 0.943823 0.931777 0.970561 0.999163 1.00196 1.03055 0.973833 0.911571 0.919074 0.941363 0.860186 1.01684 0.902928 1.07188 1.07143 1.03855 0.941976 1.13172 1.04131 0.922502 0.889111 1.2268 0.982334 1.10838 1.09508 1.15134 1.06748 1.1038 1.09003 1.05944 1.08523 1.05623 1.14909 1.1375 1.06469 1.13264 1.14795 1.04907 1.10229 1.11481 1.14126 1.05084 0.940645 1.03317 0.960037 0.974665 1.01852 0.882631 0.950317 0.988721 0.991363 0.972909 1.01773 0.977783 0.928998 0.922082 0.899023 0.916152 0.941002 0.923216 0.939993 0.927612 0.948451 0.958327 0.956903 0.917191 0.892553 0.885195 0.885026 0.889751 0.903261 0.825785 0.660791 0.759235 0.678984 0.691269 0.685328 0.638598 0.677362 0.705466 0.738779 0.82618 0.458296 0.504354 0.551629 0.585217 0.601472 0.539671 0.556663 0.561495 0.57486 0.551664 0.531992 0.493823 0.6099 0.539701 0.474997 0.537699 0.471897 0.528299 0.593699 0.575818 0.556386 0.588742 0.540477 0.613685 0.647137 0.652934 0.642066 0.664567 0.726815 0.768167 0.795616 0.783561 0.74898 0.785661 1.08293 0.846494 0.971865 0.88214 0.990299 1.15714 0.966934 0.928662 0.914533 0.911635 0.908182 0.920826 0.921215 0.879001 0.902775 1.06195 1.0004 1.01417 1.00605 0.961444 0.949184 0.943843 0.934534 0.926508 1.03472 1.01244 1.08706 0.942481 0.916847 0.925503 0.968153 1.04513 1.07017 1.04004 1.13408 1.03534 0.946802 1.25407 1.23818 1.22142 1.03041 1.03499 1.1307 1.08388 1.11596 1.10182 1.09584 1.09376 1.05816 1.01473 1.13173 1.06172 1.0983 1.13602 1.12417 1.14415 1.11651 1.09049 1.10145 1.01135 1.05497 1.05064 0.937071 0.97137 0.91446 0.950961 0.979934 1.00904 0.991461 0.980995 0.933038 0.912951 0.971701 0.856568 0.821325 0.916504 0.940215 0.935187 0.950303 0.860957 0.890326 0.910226 0.933824 1.04886 0.893779 0.648159 0.73706 0.693461 0.708335 0.695008 0.730875 0.73217 0.708023 0.786875 0.789132 0.742356 0.80615 0.726432 0.578966 0.612459 0.578079 0.642771 0.589119 0.651053 0.602096 0.494233 0.508543 0.579222 0.508256 0.55198 0.548606 0.566068 0.609604 0.204876 0.329911 0.514645 0.547848 0.548923 0.589196 0.608872 0.632249 0.594357 0.615163 0.651994 0.679225 0.729465 0.767674 0.812853 0.79045 0.826675 0.637115 0.789568 0.838817 0.508451 1.26708 0.784715 0.412799 0.876676 0.888929 0.834475 0.917224 0.938482 0.959926 0.958859 0.905796 0.890434 0.734984 1.04082 0.88696 0.938824 0.958206 0.93408 0.931742 1.03795 1.01707 0.976845 0.989998 0.936114 0.92392 0.91931 0.899197 0.999102 1.05816 1.07432 1.0888 1.10004 1.10672 1.05977 1.14216 0.992784 1.20127 1.08317 1.05796 1.07929 1.09818 1.07532 1.0987 1.10689 1.14217 1.09589 1.11076 1.12416 1.06552 1.08162 1.16139 1.0829 1.17607 1.12124 1.10935 1.1197 1.06827 1.07548 0.996596 0.961664 1.00132 0.945128 0.931919 0.949829 0.962231 0.986652 0.99495 0.983531 0.995065 1.00204 1.00877 0.911384 0.817285 0.831565 0.887855 0.923523 0.92375 0.936687 0.910131 0.911602 0.840273 0.852094 0.81712 0.950756 1.08447 1.16666 0.701545 0.769403 0.714169 0.719676 0.72396 0.725859 0.753849 0.795937 0.787582 0.798534 0.710578 0.730389 0.668368 0.654834 0.643334 0.62924 0.533554 0.547228 0.606881 0.768378 0.613203 0.559927 0.584183 0.645299 0.557928 0.638212 0.624652 2.29419 0.147263 0.827609 0.249778 0.29678 0.345946 0.487815 0.651439 0.564541 0.790453 0.713923 0.686755 0.739427 0.6682 0.641889 0.599203 0.661906 0.68572 0.707383 0.714783 0.737993 0.717743 0.72054 0.731399 0.692657 0.721754 0.725844 0.629399 0.618315 0.450386 0.897274 0.826964 0.448376 0.908252 0.907343 0.923906 0.932318 0.857916 0.794732 0.787141 0.65849 0.653705 0.920089 0.919802 0.942882 0.963535 0.954426 1.00923 0.968684 0.973181 0.950996 0.941828 0.91649 0.92347 0.920607 0.987151 1.05567 1.10017 1.09591 1.09429 1.08466 1.09562 1.08407 1.02655 1.04635 1.10692 1.08683 1.09675 1.09928 1.09398 1.08164 1.10543 1.11023 1.11458 1.11069 1.09483 1.07417 1.15905 1.09842 1.03778 0.971148 1.11188 0.812819 1.02876 0.991975 0.970434 0.97153 0.978095 0.974808 1.002 1.03489 0.915529 0.953543 0.971637 0.926315 0.925058 0.951471 0.905552 0.891367 0.871453 0.898608 0.939993 0.978937 1.35022 1.16129 0.521722 0.881864 0.673219 0.847592 0.721273 0.693304 0.731697 0.759709 0.780533 0.788235 0.769496 0.794723 0.837499 0.80584 0.834866 0.67548 0.725811 0.713408 0.722123 0.674649 0.942578 0.474135 0.315438 0.403762 0.545423 0.559095 0.67743 0.752896 0.902179 0.156216 0.78878 0.462376 0.447872 0.446765 0.564912 0.69695 0.605828 0.917148 0.792094 0.608273 0.536508 0.615325 0.687826 0.712089 0.715144 0.718117 0.696869 0.649837 0.628788 0.558829 0.578398 0.714898 0.722758 0.598862 0.666698 0.660348 0.719609 1.00187 0.851226 0.936255 0.914009 0.907873 0.833263 0.824251 0.86694 0.835625 0.918023 0.907251 1.00904 1.00582 0.847653 0.969145 0.961149 0.958627 0.940981 1.00339 1.05933 1.09699 1.10316 1.11315 1.07729 1.02298 1.08474 1.11632 1.10819 1.09108 1.11275 1.10303 1.12001 1.09453 1.11228 1.10929 1.11162 1.11688 1.09995 1.07476 1.09159 1.1294 1.07303 1.15587 1.10302 1.01022 0.966525 1.00111 0.877654 1.05775 1.14676 1.01395 0.996227 0.960137 0.961897 1.00524 0.979818 0.95274 1.00667 1.06511 1.0276 0.994589 0.983068 0.970432 0.952714 0.938638 0.875492 0.93639 0.930811 0.86602 0.914747 0.996884 1.07089 1.02 0.998738 0.670676 0.696747 0.683513 0.714824 0.759216 0.77332 0.762882 0.761993 0.864001 0.751775 0.947811 0.727988 0.636498 0.503732 1.11834 0.558633 0.521521 0.467209 0.567371 0.440906 0.48191 0.701917 0.564236 0.539628 0.608661 0.446452 0.80544 0.595974 0.673569 0.528026 0.613564 0.674394 0.717848 0.720365 0.712328 0.690554 0.704462 0.6557 0.660082 0.587248 0.681319 0.768972 0.842782 0.786495 0.680367 0.746749 0.888157 0.995805 0.963148 0.976187 0.984832 0.9034 0.851143 0.830026 0.855583 0.878151 0.879419 0.955639 1.03959 0.86501 1.01637 0.904521 0.984653 0.974071 0.981577 0.998525 1.0474 1.01554 1.03739 1.05611 1.08532 1.09543 1.10937 1.1205 1.1044 1.08803 1.10044 1.11163 1.10838 1.10558 1.10956 1.06295 1.09063 1.11378 1.10143 1.09955 1.11409 1.12484 1.09856 1.10278 1.11395 1.12271 1.1183 1.12089 1.11024 1.09567 1.09818 1.0918 1.06658 1.11422 1.13312 1.10541 1.01679 1.07047 1.04991 1.00152 1.11045 1.15976 1.1418 1.04253 1.1122 0.980092 0.964266 0.921685 1.11465 1.0317 1.01605 0.974489 0.986128 1.03198 0.954237 0.927337 0.921577 0.960545 1.003 0.944876 0.77638 0.74095 0.70224 0.736866 0.751227 0.764228 0.753884 0.766722 0.761756 0.778867 0.763688 0.810728 0.81788 0.412801 0.684051 0.56158 0.61423 0.701495 0.686274 0.0825868 0.42782 0.0514605 0.428284 0.467733 0.516618 0.506313 0.557337 0.526013 0.555543 0.638891 0.608492 0.650736 0.674615 0.570171 0.491124 0.566703 0.695708 0.739278 0.610698 0.643112 0.673863 0.688239 0.728364 0.734812 0.723922 0.470697 0.889009 1.00057 0.45891 0.666589 0.808251 0.774465 0.86067 0.986713 0.930528 0.975466 0.982378 0.984483 0.999664 0.939776 0.877527 0.838745 0.816775 0.856361 0.831929 0.908526 0.888968 0.865046 0.713546 0.991865 0.97345 0.929145 0.966975 0.9959 0.992807 1.03227 1.05523 1.04104 1.09044 1.1438 1.13252 1.18752 1.09002 1.10955 1.10452 1.10427 1.10739 1.10085 1.08372 1.09048 1.09967 1.0785 1.10636 1.10399 1.11461 1.10933 1.12336 1.12568 1.11022 1.10821 1.10528 1.11677 1.11126 1.13222 1.08497 1.23929 1.17775 1.21527 1.02583 1.06502 1.08577 0.996645 0.944845 1.11734 1.015 1.02887 1.19844 0.994673 0.776384 0.983927 1.02462 0.931357 0.977761 1.01553 0.943367 0.9692 0.953355 0.913708 0.916712 0.922795 0.741982 0.852092 0.781625 0.736834 0.759544 0.768111 0.790556 0.773888 0.781681 0.815033 0.781023 0.699223 0.696681 0.753028 0.391431 0.130158 0.314564 0.57322 0.591947 0.589475 0.564229 0.596715 0.670671 0.69471 0.654985 0.546134 0.592751 0.627379 0.696541 0.717002 0.749033 0.714791 0.718117 0.726267 0.743113 0.746787 0.72215 0.633551 0.361793 0.79034 0.927293 0.856768 0.765045 0.80814 0.848213 0.874678 0.92654 1.01586 0.958372 0.9196 0.929337 0.872253 0.859547 0.849464 0.795916 0.866195 0.944082 0.703177 0.825178 0.786388 1.0484 0.934384 0.985584 0.99376 1.00595 1.01406 1.01069 1.03663 0.992176 1.07741 1.04161 1.12157 1.12235 1.14637 1.20392 1.09568 1.1141 1.10661 1.1256 1.11653 1.12086 1.04431 1.0697 1.07485 1.09184 1.10822 1.09125 1.10066 1.12518 1.13497 1.12411 1.13468 1.11105 1.11635 1.12884 1.11665 1.09495 1.08656 1.0781 1.08725 1.20571 1.23913 1.15163 1.14931 1.16511 0.990369 1.04322 1.01087 1.02462 0.947146 0.999409 1.12709 1.37155 1.17253 0.991087 0.964114 0.805519 0.976143 0.918336 0.986108 0.944214 1.00871 0.99382 1.02237 0.976101 1.00961 0.937422 0.931557 0.899483 0.899079 0.861088 0.849295 0.762549 0.810062 0.820524 0.85501 0.926051 0.795521 0.787903 0.757514 0.785004 0.782337 0.598599 0.907516 0.792742 0.610325 0.527451 0.613399 0.66954 0.641369 0.592234 0.63882 0.613089 0.6099 0.642259 0.708676 0.545237 0.734184 0.757993 0.640152 0.61864 0.638929 0.532689 0.783223 0.729474 0.773607 0.763886 0.754112 0.781351 0.747571 0.736685 0.642505 0.728637 0.461007 0.716625 0.905335 0.909819 0.898208 0.875025 0.895098 0.974215 0.95616 0.964202 0.940079 0.842664 0.950918 0.960943 0.905514 0.69113 0.940979 1.06418 1.05372 1.12694 1.02023 0.974866 1.01605 1.02054 1.03545 1.04156 1.01249 1.06073 1.10576 1.06435 1.1132 1.12316 1.11253 1.0839 1.14699 1.11583 1.10919 1.12078 1.14538 1.12444 1.13504 1.15804 1.10411 1.11105 1.08865 1.11251 1.13539 1.12275 1.13952 1.12027 1.1341 1.10331 1.0975 1.11103 1.07379 1.1629 1.17108 1.15863 1.02886 1.00678 1.04779 0.985661 1.03959 1.15157 1.28681 1.1789 0.976403 0.990227 0.89583 1.01776 0.987284 0.936768 0.858673 1.0482 1.02763 1.02974 0.956245 0.935778 0.919841 0.894244 0.772393 0.871616 0.821734 0.846406 0.818064 0.932444 0.820947 0.835323 0.83624 0.768238 0.788534 0.763497 0.71713 0.804665 0.330801 0.764655 0.750334 0.714957 0.683724 0.711257 0.674508 0.672196 0.75367 0.752457 0.699363 0.775289 0.664433 0.797169 0.823004 0.857782 0.807767 0.76717 0.851567 0.753908 0.750933 0.913543 0.808792 0.855661 0.87164 0.873155 0.945208 0.883904 0.869565 0.949063 0.933663 0.915989 0.926165 0.982707 0.900981 0.959042 0.500927 0.696304 1.07439 0.93187 1.13533 0.958981 0.947939 1.00998 0.931348 1.00496 1.05177 1.1077 1.07041 1.09144 1.1078 1.13582 1.11821 1.11053 1.10991 1.11944 1.13269 1.15014 1.13654 1.13817 1.15664 1.11427 1.11568 1.10217 1.12727 1.15616 1.11253 1.13273 1.13885 1.13886 1.10126 1.10226 1.09951 1.11111 1.144 1.14512 1.14419 1.16272 1.05581 1.05872 1.00939 1.04192 1.20939 1.19333 0.869002 0.945761 1.01587 1.00094 1.02237 0.993209 0.87767 1.08587 0.951559 0.892364 0.971248 1.00141 1.05173 1.06115 0.929682 0.937624 0.903246 0.919804 0.970675 0.775761 0.896793 0.793405 0.862024 0.880204 0.836376 0.860031 0.779296 0.950464 0.709176 0.698094 0.697915 0.756573 0.777441 0.76035 0.830068 0.512291 0.866692 0.712348 0.732893 0.740447 0.734343 0.738034 0.713375 0.746437 0.782615 0.774748 0.786498 0.799804 0.692191 0.773725 0.7206 0.803314 0.8564 0.828688 0.821888 0.941505 0.910264 0.75624 0.867555 0.90348 0.864278 0.862021 0.873765 0.917233 0.909136 0.879511 0.867123 0.925365 0.972186 0.929744 0.923152 0.931485 0.914839 0.817678 0.886713 0.848911 0.948319 1.13795 1.06358 0.90107 0.986617 1.28679 1.14159 1.0995 0.965056 0.995013 1.03191 1.09574 1.07902 1.06908 1.0424 1.07104 1.10576 1.12915 1.11724 1.11439 1.11712 1.11757 1.1316 1.14058 1.14742 1.1362 1.139 1.13587 1.13017 1.12296 1.17163 1.1346 1.16602 1.1145 1.13093 1.14523 1.14681 1.07456 1.084 1.11341 1.11254 1.14707 1.16001 1.14729 1.11121 1.1003 1.06865 1.10681 1.08423 1.04806 1.07238 1.2055 1.13472 1.20492 1.22795 1.2172 0.88098 0.900597 0.958001 0.906512 1.0397 1.04928 0.996935 1.10544 0.946744 0.872942 1.03909 0.901085 0.949068 0.963911 0.972703 0.854521 0.918136 0.905482 0.892062 0.897872 0.882656 0.667569 0.714045 0.715609 0.782666 0.774819 0.828852 0.794832 0.940174 0.89972 0.832584 0.891963 0.699058 0.606476 0.737165 0.778123 0.795566 0.772031 0.784958 0.780976 0.789769 0.766631 0.921976 0.839526 0.797799 0.789218 0.823007 0.794087 0.898523 0.90693 0.948735 0.979414 1.00832 0.995462 0.880147 0.874565 0.903083 0.897883 0.884057 0.907859 0.926406 0.948284 0.977846 0.914483 0.960179 0.851218 0.899316 0.972667 1.06905 1.04674 1.064 1.07025 1.05205 1.14323 1.14727 1.09716 1.05031 1.01835 1.07516 1.06207 1.10174 1.12054 1.13234 1.12371 1.14707 1.11894 1.12728 1.1483 1.13426 1.14082 1.13597 1.16981 1.15249 1.15008 1.13905 1.1405 1.13846 1.15993 1.09734 1.1918 1.18725 1.14347 1.14909 1.07983 1.22442 1.29661 1.11908 1.11325 1.14753 1.13304 1.15322 1.12704 1.08922 1.10967 1.10197 1.07175 1.1291 1.17174 1.23599 0.942817 0.978003 0.923679 1.01002 1.04339 1.044 1.08931 1.06185 0.924174 0.893352 1.03147 0.925674 0.926004 0.985626 0.945653 0.923008 0.899661 0.908885 0.908439 0.773438 0.821121 0.992139 0.819307 0.805705 0.807912 0.912815 0.867465 0.806355 0.953723 0.76178 0.783192 0.783282 0.796786 0.827963 0.907441 0.848224 0.881251 0.816091 0.801924 0.790484 0.977208 0.996742 0.99741 1.0067 1.00216 0.990075 0.95535 0.980842 0.883593 0.883708 0.881903 0.909908 0.929904 0.943386 1.00456 0.973223 0.932746 0.879769 0.933683 0.990971 1.04421 1.07929 1.07992 1.0958 1.08463 1.14542 1.07561 1.10523 1.05894 1.08975 1.06171 1.12268 1.13626 1.12725 1.13612 1.1171 1.13691 1.15713 1.15399 1.14271 1.14747 1.17027 1.15555 1.15619 1.14163 1.14275 1.15779 1.16863 1.1974 1.17306 1.14712 1.14985 1.18609 1.22209 1.16457 1.1668 1.08952 1.12723 1.10454 1.14626 1.0992 1.12433 1.1313 1.10041 1.0988 1.13132 1.15563 1.1835 0.984905 0.991734 0.95386 1.01595 1.02258 0.960884 1.06914 1.07394 1.11694 1.06629 1.03223 0.932599 0.924151 1.03403 1.00556 0.844213 0.876212 0.966717 0.996285 0.968493 0.929646 0.945253 0.996818 0.906482 0.811809 0.820866 0.857256 0.841485 0.934958 0.862092 0.902807 0.776398 0.86953 1.01269 0.886075 0.8871 0.858995 0.812469 0.858738 0.778878 0.792907 1.0158 1.00772 1.00314 1.00258 0.994133 0.99798 0.997245 0.88891 0.865569 0.896079 0.938439 0.965238 0.960972 0.999918 1.08833 0.961634 0.880094 0.941117 0.992023 1.04747 1.11626 1.09488 1.11272 1.11894 1.08018 1.10455 1.09955 1.11277 1.09496 1.06951 1.06495 1.12647 1.14416 1.19871 1.14724 1.12225 1.18518 1.15559 1.15058 1.14462 1.15041 1.16764 1.15935 1.16152 1.14388 1.15357 1.15987 1.17021 1.17068 1.17388 1.21326 1.16055 1.11793 1.1461 1.09676 1.14219 1.20887 1.15425 1.10758 1.15108 1.11485 1.13213 1.15045 1.17074 1.0168 1.00451 1.02626 0.962076 1.09912 1.04123 0.951405 0.935763 1.0242 1.03766 0.881378 0.973932 0.971537 1.0073 0.979175 0.955131 0.917713 0.988736 1.04342 1.00365 0.865753 0.846042 0.833905 0.855306 0.808357 0.895447 0.896479 0.892619 0.896465 0.947996 0.908387 0.976205 0.938791 0.919365 0.9901 0.82822 0.923016 0.835421 0.910986 0.868034 1.04633 1.03957 1.01074 1.00657 0.987031 1.00393 0.985746 0.98372 0.914253 0.894743 1.0128 0.951719 1.01572 1.07769 0.979453 1.05063 0.885457 1.13495 1.01916 0.999123 1.12817 1.10136 1.11754 1.12565 1.08973 1.13131 1.10887 1.0435 1.08914 1.06852 1.14819 1.14678 1.16533 1.20596 1.14908 1.1673 1.18946 1.16393 1.15255 1.14814 1.15782 1.16433 1.16109 1.1651 1.18631 1.16002 1.16231 1.16062 1.17078 1.18425 1.15763 1.16672 1.16793 1.15954 1.14755 1.1702 1.14454 1.12313 1.18204 1.16368 1.12371 1.15042 1.09263 1.137 1.14723 1.13669 1.14296 1.04879 0.971425 1.02643 0.967535 1.04086 1.13089 1.07178 1.10567 0.954248 0.997008 1.04247 1.04894 1.043 0.903678 0.955481 0.988847 1.01261 0.992431 0.93859 1.01101 1.03406 0.893897 1.03443 0.840432 0.8508 0.916938 0.915764 0.873378 0.933134 1.03998 0.939038 0.953072 0.973795 0.941536 0.827253 0.906979 0.992442 0.95461 1.05413 1.06103 1.03061 1.04565 1.01312 1.00381 0.989794 0.988216 0.974519 1.04391 0.96584 1.04221 1.00277 0.952205 1.01804 1.03316 1.0725 1.01608 1.23863 1.07986 1.00649 0.995151 1.15285 1.11604 1.09099 1.13891 1.09723 1.1221 1.12498 1.05318 1.10598 1.09566 1.17527 1.18166 1.15241 1.14109 1.14975 1.18593 1.17213 1.15482 1.15327 1.17245 1.16039 1.16208 1.1714 1.1643 1.16546 1.16348 1.22029 1.19213 1.14548 1.18279 1.15619 1.16265 1.1498 1.17705 1.15053 1.17143 1.13166 1.12028 1.18416 1.16522 1.14988 1.0983 1.14695 1.1532 1.16409 1.11377 1.18428 1.04628 1.04946 0.992458 1.08373 1.04866 1.06615 1.07427 1.05274 0.977786 1.07336 1.05446 1.0302 0.963609 0.900259 0.994767 1.00563 1.03322 1.01805 0.985536 1.04618 1.05011 1.0401 1.04739 1.06583 1.02587 0.921237 1.04202 1.00642 0.963732 0.90729 0.912957 0.900973 0.859893 0.939288 0.934674 1.01148 0.956063 0.968058 0.981162 0.960354 1.01129 0.97372 0.988123 1.05247 1.05106 1.01582 1.01518 1.00156 1.01002 1.07327 1.03836 1.11557 1.0023 1.00248 1.05973 1.08123 1.05779 1.16261 1.23843 0.997696 1.0492 0.99958 1.13448 1.10201 1.12796 1.10232 1.11376 1.12633 1.10666 1.13069 1.11956 1.17266 1.18006 1.16171 1.1514 1.16813 1.13868 1.16959 1.17731 1.16507 1.19635 1.16069 1.17339 1.16486 1.16911 1.16579 1.23676 1.18607 1.17522 1.13421 1.18798 1.17083 1.19253 1.18056 1.14743 1.16657 1.15754 1.14085 1.15418 1.13617 1.12579 1.17241 1.13611 1.14567 1.14777 1.12318 1.17717 1.169 1.06289 1.19396 1.08307 1.05846 1.07308 1.07309 1.03777 0.984728 1.02818 1.03686 1.0358 0.989054 0.936 0.999031 1.02549 1.01823 1.02888 1.05753 1.0561 1.07823 1.12026 0.982827 1.17352 0.953664 0.873866 1.02973 0.97619 0.985334 1.02962 0.971715 1.01685 0.966276 0.98533 0.959022 0.99684 1.16484 1.00729 1.06475 1.04009 1.03131 1.01939 1.01737 1.04758 1.07511 1.07552 1.05633 0.963893 1.07373 1.08344 1.08426 1.18097 1.14104 1.06959 1.03655 0.989328 1.12912 1.11605 1.13776 1.11197 1.11065 1.13673 1.12047 1.13124 1.12482 1.13396 1.18576 1.17531 1.18578 1.17433 1.1531 1.19036 1.17258 1.16994 1.17641 1.15146 1.19625 1.17111 1.18208 1.17157 1.15717 1.17379 1.20956 1.18672 1.18068 1.15156 1.16184 1.19821 1.19322 1.18735 1.16416 1.17155 1.16191 1.14354 1.14572 1.17655 1.1726 1.13927 1.1344 1.14592 1.17628 1.16087 1.16951 1.04726 1.20141 1.07446 1.05624 1.05041 1.08273 1.06096 1.04983 1.03392 1.09148 1.01695 1.04802 1.02909 1.07239 1.01603 0.964675 1.03547 0.985093 1.03503 1.04875 1.0741 1.06826 1.11423 1.12564 1.22963 0.991377 0.876779 1.02267 0.9968 1.00225 1.05245 1.04654 0.989354 0.976567 1.00518 0.997069 1.012 1.0056 1.14202 1.14326 1.05392 1.06148 1.055 1.02265 1.03225 1.04593 1.06111 1.11172 0.989451 1.09965 1.061 1.126 1.09303 1.09998 1.09525 1.09012 1.15484 1.13076 1.15092 1.12474 1.06885 1.0029 1.13369 1.13024 1.13251 1.1036 1.11622 1.14011 1.13502 1.12507 1.13914 1.16438 1.1775 1.18041 1.18643 1.18464 1.19645 1.17679 1.17234 1.17773 1.15499 1.17106 1.19645 1.18157 1.17292 1.16585 1.1834 1.20939 1.18666 1.18968 1.16644 1.18619 1.16385 1.19135 1.17782 1.17073 1.16941 1.16299 1.14575 1.15123 1.17794 1.18013 1.15255 1.14359 1.14525 1.15545 1.19444 1.1253 1.16397 1.0507 1.16653 1.07683 1.11248 1.04022 1.05733 1.05691 1.09024 1.01386 0.954722 1.07514 1.04562 0.994887 1.04187 1.08046 1.0143 1.08066 1.09024 1.0683 1.11666 1.1595 1.14497 0.973121 1.09584 1.03274 1.06857 1.08458 0.99608 0.984929 1.02471 1.02351 1.01066 1.13329 1.1135 1.1373 1.07337 1.0553 1.08885 1.04224 1.05976 1.06488 1.09773 1.12529 1.12209 1.18491 1.10712 1.13719 1.09532 1.11019 1.11229 1.138 1.10444 1.0824 1.01082 1.13645 1.14198 1.13578 1.10002 1.11609 1.14936 1.17504 1.15776 1.13221 1.17938 1.18535 1.18319 1.18516 1.16948 1.1757 1.16895 1.17883 1.1574 1.17151 1.19777 1.18158 1.17432 1.17064 1.18711 1.18149 1.18193 1.19159 1.17774 1.16621 1.16976 1.19302 1.18131 1.17685 1.16973 1.17093 1.17158 1.14974 1.17307 1.1543 1.15245 1.14615 1.16114 1.16552 1.18248 1.13198 1.20872 1.19343 1.04743 1.16585 1.11252 1.12317 1.14714 1.07607 1.07205 0.994779 1.05792 1.09316 1.05564 1.02794 1.0883 1.08212 1.00568 1.02781 1.11976 1.08718 1.06732 1.10789 1.1135 1.09116 1.14437 1.09931 1.0791 1.07741 0.996844 0.991491 0.996029 1.03848 1.12729 1.13 1.13409 1.14658 1.10423 1.09796 1.08332 1.18888 1.09401 1.10208 1.11976 1.11223 1.18067 1.12084 1.14655 1.09916 1.13172 1.13789 1.14521 1.11387 1.08126 1.15606 1.13636 1.15701 1.12938 1.17226 1.12288 1.16057 1.18679 1.16244 1.16923 1.14578 1.18185 1.18524 1.18545 1.18053 1.19416 1.18448 1.16759 1.18078 1.15901 1.17721 1.19389 1.18087 1.17452 1.18753 1.18704 1.18239 1.18176 1.19204 1.17922 1.16716 1.17236 1.17152 1.18605 1.17588 1.17034 1.17759 1.17693 1.16095 1.16659 1.14967 1.15454 1.16822 1.16389 1.17059 1.17481 1.13412 1.12143 1.14876 1.11752 1.12171 1.21987 1.10116 1.12186 1.09963 1.09643 1.09922 1.10128 1.09441 1.07978 1.14356 1.13868 1.10716 1.09821 1.07916 1.14482 1.15446 1.13818 1.0717 1.09505 1.11026 1.10928 1.08138 1.05827 1.01091 1.02849 1.00907 1.05124 1.13825 1.12656 1.13592 1.13033 1.15548 1.11566 1.11585 1.08935 1.11512 1.1511 1.08503 1.11032 1.11707 1.13319 1.19925 1.12878 1.15609 1.10679 1.13291 1.15006 1.13779 1.16486 1.15805 1.14636 1.1447 1.17733 1.1457 1.18027 1.18447 1.16442 1.18185 1.1585 1.18217 1.15252 1.18142 1.18366 1.1867 1.18011 1.18327 1.18024 1.18004 1.18049 1.15852 1.18105 1.19371 1.18478 1.17492 1.18751 1.1873 1.18293 1.18249 1.18956 1.18018 1.1657 1.17264 1.17435 1.16036 1.17689 1.18101 1.17947 1.17839 1.1775 1.1616 1.16923 1.16499 1.1719 1.16933 1.17026 1.16121 1.17419 1.14332 1.18179 1.12481 1.19101 1.11821 1.13913 1.10535 1.15731 1.12076 1.11658 1.11178 1.09599 1.16017 1.09784 1.06584 1.12474 1.14274 1.146 1.15297 1.09148 1.12232 1.16534 1.13681 1.11009 1.11886 1.10491 1.11234 1.10791 1.0604 1.01845 1.06976 1.14003 1.16796 1.12673 1.13434 1.14811 1.14467 1.11782 1.13547 1.09162 1.11414 1.13811 1.14561 1.18311 1.13745 1.10154 1.13015 1.15792 1.13257 1.14743 1.16234 1.14025 1.15749 1.16618 1.1462 1.1523 1.17433 1.14852 1.18133 1.17409 1.1761 1.16742 1.17883 1.17922 1.1737 1.146 1.18365 1.18621 1.17952 1.1826 1.18972 1.17971 1.17975 1.19409 1.19458 1.18222 1.1898 1.18531 1.17852 1.18723 1.18549 1.18402 1.18579 1.18982 1.17792 1.18357 1.16935 1.17661 1.19807 1.20403 1.17893 1.18663 1.18325 1.17334 1.18846 1.16787 1.17001 1.1756 1.16075 1.17117 1.16525 1.17179 1.17148 1.14707 1.18524 1.13565 1.13258 1.11964 1.18474 1.17117 1.12706 1.13478 1.13773 1.12572 1.11211 1.11441 1.17011 1.08259 1.12594 1.14921 1.13801 1.16753 1.1069 1.10266 1.12349 1.14271 1.15538 1.12102 1.11927 1.11661 1.12416 1.09328 1.0611 1.02605 1.08873 1.1732 1.12975 1.13202 1.13901 1.14912 1.14791 1.13753 1.14547 1.10917 1.11738 1.16088 1.16986 1.12636 1.14756 1.14683 1.16319 1.17144 1.13114 1.15528 1.13669 1.15592 1.1405 1.17026 1.14104 1.15433 1.15065 1.16393 1.17007 1.18602 1.1817 1.17461 1.18301 1.17594 1.17114 1.17843 1.18552 1.17989 1.14957 1.18407 1.18754 1.18415 1.18728 1.19106 1.18039 1.18963 1.19175 1.19036 1.18551 1.17956 1.19508 1.18604 1.18602 1.18903 1.19178 1.18218 1.19178 1.18196 1.18845 1.18013 1.18158 1.18738 1.18236 1.17199 1.18373 1.18535 1.17045 1.16759 1.1689 1.17441 1.15609 1.17376 1.12384 1.13578 1.1858 1.1814 1.18519 1.17621 1.13157 1.1365 1.11664 1.11957 1.12757 1.17385 1.10524 1.13249 1.15342 1.1397 1.18099 1.18057 1.10481 1.11215 1.14077 1.12619 1.15354 1.13387 1.12676 1.11977 1.13487 1.09729 1.05552 1.03328 1.09855 1.16886 1.13478 1.14625 1.14324 1.1438 1.1449 1.14526 1.14123 1.15467 1.1607 1.17901 1.17237 1.17936 1.15614 1.16986 1.14716 1.15519 1.14899 1.15854 1.17463 1.14811 1.15861 1.17146 1.16079 1.17702 1.17156 1.18104 1.17842 1.1838 1.17746 1.18028 1.18595 1.19287 1.18164 1.17981 1.18144 1.18442 1.19037 1.18733 1.19132 1.18999 1.18068 1.19514 1.1926 1.18959 1.18151 1.19178 1.19178 1.18651 1.18587 1.18666 1.18905 1.18362 1.18244 1.18761 1.17149 1.18298 1.18674 1.18316 1.16912 1.17137 1.17291 1.18566 1.18358 1.16745 1.16811 1.17065 1.1806 1.16753 1.17578 1.12764 1.12863 1.18747 1.1793 1.17983 1.13527 1.15239 1.12031 1.15559 1.1864 1.12643 1.13498 1.15999 1.18718 1.10336 1.14171 1.14494 1.15032 1.14868 1.12963 1.11769 1.11918 1.13538 1.16292 1.10977 1.07039 1.05617 1.10487 1.14438 1.15846 1.14549 1.13059 1.14586 1.14651 1.14122 1.16004 1.15947 1.1725 1.17707 1.15272 1.17746 1.16671 1.15657 1.15554 1.18327 1.17268 1.17464 1.18583 1.1591 1.17392 1.1589 1.17739 1.1743 1.18035 1.19093 1.18198 1.1805 1.1813 1.19298 1.18575 1.18966 1.18703 1.1799 1.18283 1.18063 1.188 1.18733 1.1924 1.18371 1.19139 1.19142 1.19259 1.18987 1.18208 1.19197 1.19287 1.19178 1.18662 1.19178 1.18791 1.18982 1.19258 1.18376 1.18799 1.18752 1.18163 1.178 1.18438 1.18718 1.17144 1.17252 1.17234 1.18364 1.17319 1.18142 1.16482 1.17418 1.17268 1.17948 1.17533 1.17649 1.14612 1.14091 1.15402 1.18047 1.19528 1.18785 1.1534 1.14931 1.16587 1.16657 1.16592 1.18027 1.13135 1.1648 1.20676 1.1455 1.1939 1.17365 1.12032 1.15959 1.15483 1.15224 1.1461 1.14201 1.12016 1.13031 1.16317 1.13996 1.15532 1.15326 1.07484 1.11089 1.1909 1.16483 1.14987 1.14975 1.14469 1.13985 1.15206 1.17722 1.167 1.17629 1.16745 1.17725 1.18264 1.19178 1.16861 1.15973 1.18318 1.18535 1.17372 1.17605 1.18221 1.15902 1.17489 1.1802 1.17797 1.17547 1.18039 1.19052 1.18197 1.18199 1.1818 1.19298 1.1883 1.1796 1.1831 1.18039 1.1883 1.1874 1.18918 1.18828 1.19203 1.19178 1.19178 1.1914 1.1846 1.19297 1.19043 1.18872 1.19307 1.18796 1.1896 1.19259 1.18368 1.18463 1.18738 1.18158 1.17988 1.18747 1.18911 1.1893 1.17321 1.17652 1.18344 1.18014 1.17772 1.18432 1.17943 1.17536 1.17737 1.17948 1.14678 1.18623 1.15067 1.16496 1.1927 1.16694 1.17415 1.16814 1.18166 1.13809 1.17074 1.17084 1.19806 1.13794 1.17887 1.15488 1.1512 1.14325 1.16556 1.19133 1.17278 1.17742 1.14657 1.08428 1.19178 1.12864 1.15171 1.15427 1.15653 1.15086 1.1425 1.15348 1.1779 1.16849 1.17639 1.16711 1.17863 1.18269 1.19234 1.16933 1.1656 1.17255 1.18378 1.18774 1.17746 1.18175 1.17767 1.18099 1.1792 1.17743 1.17378 1.18182 1.19061 1.18901 1.18258 1.18237 1.19178 1.18843 1.18958 1.18739 1.18577 1.19178 1.18786 1.18621 1.1918 1.1891 1.19183 1.19178 1.19179 1.1913 1.18781 1.19178 1.18939 1.18942 1.19334 1.19081 1.19278 1.18887 1.18815 1.18615 1.18754 1.18995 1.18166 1.18142 1.1882 1.1869 1.17734 1.18158 1.17449 1.18234 1.18026 1.1864 1.18057 1.17762 1.18363 1.18076 1.14615 1.17929 1.14888 1.15592 1.15542 1.17198 1.19241 1.16591 1.16873 1.17335 1.17982 1.1416 1.19379 1.17351 1.17893 1.19198 1.14206 1.17707 1.15579 1.1494 1.15637 1.17382 1.17103 1.17089 1.14516 1.13924 1.15464 1.15227 1.16017 1.1529 1.15438 1.15753 1.17681 1.14346 1.15583 1.15941 1.1699 1.17816 1.16807 1.18031 1.19334 1.18765 1.16887 1.16811 1.17245 1.18324 1.18812 1.17767 1.18269 1.18315 1.18846 1.19015 1.1782 1.17433 1.18003 1.19116 1.18719 1.18368 1.1921 1.18316 1.18836 1.18935 1.19178 1.18626 1.19225 1.18844 1.18904 1.19043 1.18872 1.19168 1.19197 1.19219 1.19132 1.18764 1.19151 1.18995 1.18943 1.19139 1.19149 1.1886 1.1896 1.18616 1.18301 1.1895 1.18926 1.18715 1.18969 1.18169 1.17408 1.18134 1.18128 1.18017 1.18435 1.17986 1.1769 1.1837 1.19178 1.16289 1.17946 1.1592 1.15014 1.18355 1.16228 1.17889 1.19222 1.17441 1.17296 1.17814 1.14825 1.18313 1.174 1.17771 1.15108 1.1853 1.16808 1.15316 1.14945 1.15674 1.17429 1.17512 1.17389 1.16564 1.14633 1.19178 1.15517 
SCALARS Stress float 1
LOOKUP_TABLE default
-156789000000.0 -403564000000.0 -270931000000.0 -295225000000.0 -584635000000.0 -189411000000.0 -610635000000.0 -397837000000.0 -277561000000.0 -91847100000.0 -367679000000.0 -843383000000.0 -1.53347e+12 -2.41176e+12 -2.96828e+12 -4.46434e+12 -2.2182e+12 -1.13527e+12 -891696000000.0 -1.71276e+12 -652640000000.0 -440906000000.0 -95747100000.0 -627016000000.0 -286518000000.0 -684544000000.0 -407957000000.0 -579942000000.0 -821086000000.0 -469816000000.0 -460259000000.0 -517473000000.0 -391627000000.0 -469582000000.0 -1.41977e+12 -1.44798e+12 -2.96937e+12 -1.52321e+12 -1.43602e+12 -3.40038e+12 -4.03513e+12 -2.27052e+12 -2.88319e+12 -5.59349e+12 -4.44453e+12 -4.53907e+12 -3.15419e+12 -2.88876e+12 -2.58936e+12 -1.9467e+12 -2.15855e+12 -1.25389e+12 -945161000000.0 -1.43123e+12 -1.65845e+12 -1.61794e+12 -539196000000.0 -244212000000.0 -1.06671e+12 -746767000000.0 -485227000000.0 -908317000000.0 -944954000000.0 -1.29479e+12 -756297000000.0 -1.58467e+12 -1.64575e+12 -2.39423e+12 -1.63234e+12 -2.73843e+12 -2.80505e+12 -3.74562e+12 -6.63241e+12 -2.92937e+12 -2.0734e+12 -3.10031e+12 -2.95257e+12 -4.96452e+12 -6.92567e+12 -3.12119e+12 -6.01721e+12 -7.21711e+12 -2.45013e+12 -3.32945e+12 -526265000000.0 -4.10542e+12 -2.16399e+12 -759998000000.0 -1.61294e+12 -1.25317e+12 -1.14709e+12 -776141000000.0 -1.55145e+12 -1.60833e+12 -1.21706e+12 -1.05867e+12 -1.15909e+12 -715024000000.0 -1.35585e+12 -584609000000.0 -1.72434e+12 -1.31746e+12 -1.87445e+12 -944178000000.0 -1.88254e+12 -663200000000.0 -2.7921e+12 -3.84135e+12 -1.86208e+12 -3.55633e+12 -2.27632e+12 -2.83754e+12 -2.55727e+12 -4.55618e+12 -3.32583e+12 -2.43668e+12 -5.85861e+12 -1.94476e+12 -2.58214e+12 -3.76446e+12 -4.21774e+12 -4.11673e+12 -3.52269e+12 -3.71582e+12 -3.51155e+12 -4.10463e+12 -6.73227e+12 -5.37668e+12 -3.9513e+12 -5.28345e+12 -5.60375e+12 -6.24298e+12 -3.10818e+12 -3.39402e+12 -2.8498e+12 -2.40809e+12 -1.49367e+12 -1.94322e+12 -894634000000.0 -1.13332e+12 -750001000000.0 -668122000000.0 -1.34298e+12 -1.08871e+12 -1.55225e+12 -2.96055e+12 -2.05883e+12 -1.25735e+12 -5.21624e+12 -2.43726e+12 -1.90059e+12 -3.38663e+12 -2.76605e+12 -4.05038e+12 -3.63154e+12 -4.19727e+12 -4.60289e+12 -3.50648e+12 -4.45085e+12 -2.96162e+12 -5.43021e+12 -7.08379e+12 -4.9921e+12 -4.33627e+12 -2.72389e+12 -5.87086e+12 -4.62833e+12 -7.30606e+12 -7.42796e+12 -3.86369e+12 -4.32742e+12 -6.38164e+12 -3.58685e+12 -6.12784e+12 -3.54221e+12 -2.44543e+12 -6.57515e+12 -3.79057e+12 -7.04283e+12 -3.14287e+12 -4.58661e+12 -2.46773e+12 -3.35892e+12 -2.18932e+12 -1.42598e+12 -1.62931e+12 -1.54453e+12 -2.3768e+12 -694735000000.0 -1.81462e+12 -1.26014e+12 -1.13786e+12 -822890000000.0 -1.84696e+12 -1.94982e+12 -2.27526e+12 -1.56194e+12 -1.62731e+12 -3.83652e+12 -1.22881e+12 -3.18689e+12 -2.46352e+12 -1.58273e+12 -1.52557e+12 -4.41858e+12 -4.15103e+12 -3.12742e+12 -3.61996e+12 -5.76068e+12 -6.29093e+12 -4.99285e+12 -4.1046e+12 -7.40564e+12 -4.7714e+12 -5.77395e+12 -5.86541e+12 -7.08065e+12 -3.07804e+12 -3.20927e+12 -4.78521e+12 -3.61107e+12 -4.96507e+12 -5.85146e+12 -2.99465e+12 -6.68907e+12 -6.57085e+12 -3.26524e+12 -5.19673e+12 -5.14366e+12 -3.42801e+12 -6.27348e+12 -4.96937e+12 -3.19606e+12 -5.0323e+12 -5.23676e+12 -6.2523e+12 -3.43038e+12 -2.64598e+12 -2.89681e+12 -1.86359e+12 -2.52962e+12 -2.9954e+12 -3.0859e+12 -1.77104e+12 -2.55368e+12 -847396000000.0 -1.25355e+12 -894959000000.0 -3.05238e+12 -2.7444e+12 -1.9841e+12 -3.21409e+12 -3.27485e+12 -1.67926e+12 -2.86237e+12 -2.93927e+12 -3.9156e+12 -4.90417e+12 -3.86755e+12 -5.36691e+12 -2.54078e+12 -5.97625e+12 -2.87108e+12 -7.80465e+12 -8.37801e+12 -8.79683e+12 -1.14363e+13 -6.21504e+12 -6.71326e+12 -2.22293e+12 -6.96127e+12 -6.49472e+12 -3.76544e+12 -2.0778e+12 -3.36714e+12 -4.06533e+12 -8.65042e+12 -5.63086e+12 -4.96155e+12 -9.08804e+12 -4.76476e+12 -5.3713e+12 -2.91705e+12 -6.5154e+12 -5.33703e+12 -4.46428e+12 -6.9209e+12 -3.27703e+12 -1.50064e+12 -4.95176e+12 -4.88614e+12 -3.74011e+12 -1.7253e+12 -2.1182e+12 -2.70513e+12 -3.31916e+12 -2.0384e+12 -3.07153e+12 -2.15965e+12 -1.44794e+12 -2.45394e+12 -3.3828e+12 -2.13289e+12 -3.66192e+12 -2.80734e+12 -3.0416e+12 -3.24685e+12 -3.60372e+12 -5.2011e+12 -4.85745e+12 -5.96467e+12 -2.58818e+12 -5.39936e+12 -5.53517e+12 -6.7363e+12 -5.13254e+12 -7.10658e+12 -5.08483e+12 -5.71726e+12 -6.65167e+12 -4.20844e+12 -4.30999e+12 -8.37192e+12 -2.68278e+12 -3.12918e+12 -3.57175e+12 -4.16369e+12 -4.23429e+12 -3.85712e+12 -3.62733e+12 -8.76578e+12 -6.09717e+12 -3.64698e+12 -8.93671e+12 -6.93151e+12 -3.7341e+12 -7.41289e+12 -4.3264e+12 -6.61565e+12 -4.66949e+12 -6.78533e+12 -4.3151e+12 -4.2541e+12 -4.31278e+12 -4.1871e+12 -6.27605e+12 -2.95538e+12 -2.12197e+12 -4.1888e+12 -2.54491e+12 -4.85732e+12 -1.94451e+12 -3.12911e+12 -2.65777e+12 -1.43238e+12 -1.17751e+12 -941667000000.0 -1.86568e+12 -358064000000.0 -1.7489e+12 -2.14602e+12 -2.0198e+12 -1.52531e+12 -3.09385e+12 -1.52934e+12 -3.06687e+12 -1.82777e+12 -2.82091e+12 -3.55994e+12 -1.32024e+12 -2.52281e+12 -4.22986e+12 -3.24174e+12 -3.37742e+12 -1.75927e+12 -3.32457e+12 -1.38289e+12 -5.11777e+12 -5.79147e+12 -3.33647e+12 -4.48156e+12 -3.78166e+12 -6.02449e+12 -3.30724e+12 -3.93432e+12 -4.77215e+12 -7.01849e+12 -6.74342e+12 -5.02368e+12 -8.29189e+12 -4.73459e+12 -4.77957e+12 -9.56822e+12 -1.06253e+13 -5.08896e+12 -6.182e+12 -4.55885e+12 -6.25237e+12 -4.89437e+12 -5.2119e+12 -4.30955e+12 -3.83637e+12 -7.68491e+12 -5.65123e+12 -3.34057e+12 -6.1334e+12 -6.99575e+12 -6.29178e+12 -4.01889e+12 -5.2035e+12 -4.47843e+12 -6.41028e+12 -3.91491e+12 -8.45074e+12 -5.59135e+12 -6.27354e+12 -3.10088e+12 -6.76541e+12 -4.1315e+12 -5.05837e+12 -5.6355e+12 -5.47811e+12 -4.17686e+12 -3.54239e+12 -3.81871e+12 -2.95633e+12 -3.47288e+12 -3.17395e+12 -4.30868e+12 -3.04301e+12 -2.73678e+12 -1.86332e+12 -2.86655e+12 -2.0761e+12 -1.95917e+12 -1.14758e+12 -2.14483e+12 -803446000000.0 -2.91475e+12 -2.95584e+12 -3.34253e+12 -1.80887e+12 -3.06491e+12 -2.25924e+12 -2.28702e+12 -2.24173e+12 -1.81834e+12 -2.41568e+12 -2.29308e+12 -2.81829e+12 -3.37391e+12 -3.46713e+12 -3.52996e+12 -4.96471e+12 -4.32684e+12 -4.9933e+12 -6.54678e+12 -7.54985e+12 -4.66399e+12 -6.32949e+12 -5.01458e+12 -5.88529e+12 -1.1335e+13 -8.49111e+12 -5.85216e+12 -4.65711e+12 -5.18218e+12 -6.10962e+12 -3.63631e+12 -4.00825e+12 -5.52524e+12 -2.9454e+12 -3.32692e+12 -5.01009e+12 -8.40335e+12 -8.85074e+12 -6.36428e+12 -5.301e+12 -5.38782e+12 -3.55879e+12 -3.09848e+12 -6.10105e+12 -4.6511e+12 -5.06723e+12 -6.17335e+12 -8.33706e+12 -2.38375e+12 -5.36104e+12 -5.59011e+12 -4.84847e+12 -3.40168e+12 -4.47473e+12 -4.07316e+12 -2.19873e+12 -2.16566e+12 -2.78869e+12 -2.42833e+12 -2.66605e+12 -4.03841e+12 -2.68089e+12 -2.95082e+12 -1.18237e+12 -1.27697e+12 -2.46233e+12 -1.1381e+12 -2.02493e+12 -3.26003e+12 -2.15445e+12 -3.8453e+12 -1.92861e+12 -1.93049e+12 -1.87907e+12 -1.87075e+12 -1.14924e+12 -1.34494e+12 -2.09598e+12 -2.82139e+12 -3.73582e+12 -2.18986e+12 -1.87292e+12 -3.36595e+12 -4.17916e+12 -3.59311e+12 -3.71396e+12 -3.46225e+12 -3.71637e+12 -6.2818e+12 -1.93266e+12 -3.19098e+12 -2.57825e+12 -5.30584e+12 -4.31692e+12 -4.95087e+12 -5.17693e+12 -6.05229e+12 -3.87941e+12 -4.00422e+12 -7.77964e+12 -8.22257e+12 -7.30285e+12 -2.60639e+12 -4.1678e+12 -8.52628e+12 -6.04719e+12 -5.42571e+12 -7.53792e+12 -4.58863e+12 -3.89758e+12 -8.42352e+12 -4.3032e+12 -5.20884e+12 -2.90796e+12 -6.83153e+12 -3.00956e+12 -2.70538e+12 -2.92563e+12 -3.10872e+12 -2.67226e+12 -4.59608e+12 -6.92921e+12 -6.69439e+12 -5.14722e+12 -8.42718e+12 -4.6696e+12 -6.19925e+12 -2.53005e+12 -6.19799e+12 -6.90314e+12 -5.21457e+12 -4.1189e+12 -4.85648e+12 -3.53016e+12 -8.34324e+12 -6.1919e+12 -4.55071e+12 -4.51742e+12 -5.33491e+12 -2.45054e+12 -2.55797e+12 -4.56052e+12 -6.12998e+12 -4.58707e+12 -3.28045e+12 -3.23067e+12 -4.01344e+12 -3.53513e+12 -3.41019e+12 -4.55128e+12 -4.46204e+12 -1.68113e+12 -2.19173e+12 -1.95201e+12 -1.69752e+12 -2.24257e+12 -3.30715e+12 -2.51021e+12 -2.10735e+12 -1.3167e+12 -2.2726e+12 -2.68458e+12 -1.35893e+12 -1.86308e+12 -611996000000.0 -1.1561e+12 -1.94467e+12 -1.12228e+12 -2.76428e+12 -2.15877e+12 -2.09097e+12 -3.31372e+12 -3.05332e+12 -2.10942e+12 -3.42376e+12 -1.70745e+12 -3.42139e+12 -4.24708e+12 -3.3129e+12 -3.20564e+12 -4.7047e+12 -4.07509e+12 -3.49568e+12 -2.60851e+12 -2.97813e+12 -8.84537e+12 -7.51106e+12 -4.99523e+12 -1.1996e+13 -7.61318e+12 -4.71096e+12 -7.90358e+12 -6.09165e+12 -1.00034e+13 -9.28966e+12 -4.36292e+12 -6.27277e+12 -5.66125e+12 -5.24601e+12 -5.81924e+12 -7.78492e+12 -4.09059e+12 -5.0424e+12 -5.40125e+12 -4.58647e+12 -3.98992e+12 -7.47637e+12 -8.54862e+12 -4.69822e+12 -3.77884e+12 -7.47006e+12 -5.5483e+12 -7.17431e+12 -8.55338e+12 -5.17677e+12 -6.26239e+12 -3.87657e+12 -3.57026e+12 -4.62547e+12 -6.12356e+12 -6.85653e+12 -8.49583e+12 -8.073e+12 -8.70002e+12 -5.71638e+12 -3.23676e+12 -3.84358e+12 -5.35175e+12 -7.36371e+12 -2.91623e+12 -4.06747e+12 -2.46879e+12 -5.252e+12 -2.24469e+12 -3.20412e+12 -3.36003e+12 -2.80162e+12 -2.50085e+12 -2.119e+12 -1.81414e+12 -2.23849e+12 -1.06012e+12 -1.19238e+12 -1.43152e+12 -1.03888e+12 -1.42558e+12 -1.25172e+12 -1.96157e+12 -990907000000.0 -1.8537e+12 -910637000000.0 -2.06444e+12 -2.37337e+12 -1.98165e+12 -2.52025e+12 -1.57167e+12 -1.31021e+12 -1.9469e+12 -3.06473e+12 -2.67286e+12 -2.89097e+12 -2.83486e+12 -1.34653e+12 -2.18506e+12 -7.5003e+12 -6.05678e+12 -3.77581e+12 -3.20422e+12 -8.12176e+12 -3.4926e+12 -7.36532e+12 -5.49786e+12 -5.45079e+12 -5.00641e+12 -4.68623e+12 -4.45364e+12 -5.19152e+12 -7.06576e+12 -3.57506e+12 -7.51551e+12 -8.26847e+12 -9.34707e+12 -4.22357e+12 -7.52596e+12 -5.71673e+12 -5.26817e+12 -9.10867e+12 -4.761e+12 -9.15894e+12 -5.39838e+12 -5.47651e+12 -6.86641e+12 -6.17379e+12 -9.04766e+12 -9.28087e+12 -4.05503e+12 -4.43551e+12 -5.14062e+12 -5.4179e+12 -6.8546e+12 -2.37149e+12 -6.21372e+12 -6.45445e+12 -4.50549e+12 -4.30091e+12 -6.35235e+12 -6.31582e+12 -5.44328e+12 -6.35653e+12 -3.36868e+12 -3.36477e+12 -3.46715e+12 -8.11248e+12 -6.1149e+12 -3.09586e+12 -7.21958e+12 -4.69865e+12 -3.29586e+12 -3.50851e+12 -2.70548e+12 -3.92366e+12 -2.38091e+12 -2.93444e+12 -5.576e+12 -4.91853e+12 -2.57388e+12 -3.80594e+12 -3.88365e+12 -2.05799e+12 -3.23448e+12 -2.02426e+12 -2.1233e+12 -2.92769e+12 -2.4618e+12 -3.11946e+12 -1.8116e+12 -2.08717e+12 -2.4797e+12 -2.12468e+12 -4.70472e+12 -1.97281e+12 -1.90478e+12 -1.78048e+12 -2.33747e+12 -661408000000.0 -2.21005e+12 -2.42972e+12 -3.32118e+12 -4.63986e+12 -1.93709e+12 -4.51326e+12 -1.58038e+12 -2.44196e+12 -1.81273e+12 -3.67219e+12 -2.6052e+12 -2.80607e+12 -6.09898e+12 -1.24254e+12 -5.33484e+12 -4.56556e+12 -4.65057e+12 -3.80332e+12 -4.32607e+12 -7.34424e+12 -6.50613e+12 -3.16579e+12 -5.90677e+12 -3.08179e+12 -3.8002e+12 -3.65673e+12 -5.3393e+12 -7.52746e+12 -3.01382e+12 -4.19926e+12 -2.07453e+12 -6.01387e+12 -8.59428e+12 -8.18333e+12 -7.68897e+12 -6.98008e+12 -6.3521e+12 -7.07529e+12 -1.18227e+13 -9.46812e+12 -2.69562e+12 -3.12324e+12 -4.25924e+12 -2.36843e+12 -4.57956e+12 -6.50355e+12 -1.19052e+13 -3.21051e+12 -8.45484e+12 -8.54689e+12 -9.63497e+12 -1.0922e+13 -7.58549e+12 -8.33967e+12 -6.30029e+12 -4.24857e+12 -3.92739e+12 -5.23302e+12 -6.05609e+12 -4.63923e+12 -5.23803e+12 -5.66872e+12 -5.39283e+12 -4.83339e+12 -5.24087e+12 -4.29198e+12 -6.67006e+12 -2.88197e+12 -3.67954e+12 -4.1925e+12 -5.22469e+12 -4.00353e+12 -3.84784e+12 -2.42662e+12 -1.5761e+12 -2.4834e+12 -2.78025e+12 -2.48764e+12 -1.883e+12 -1.39382e+12 -2.02579e+12 -1.52217e+12 -1.42291e+12 -3.23631e+12 -1.19251e+12 -1.31232e+12 -633169000000.0 -2.42689e+12 -2.50345e+12 -1.58452e+12 -2.42756e+12 -2.00891e+12 -2.84689e+12 -1.33662e+12 -2.35467e+12 -2.36794e+12 -980937000000.0 -4.15163e+12 -2.86779e+12 -1.3085e+12 -3.47223e+12 -3.5746e+12 -4.50366e+12 -4.50439e+12 -2.42845e+12 -4.76966e+12 -4.21507e+12 -5.10585e+12 -4.8606e+12 -3.87636e+12 -4.04112e+12 -3.6427e+12 -2.56886e+12 -4.29594e+12 -4.87364e+12 -3.52059e+12 -5.06658e+12 -4.45521e+12 -4.59608e+12 -5.09887e+12 -7.20927e+12 -5.05652e+12 -5.33111e+12 -5.84863e+12 -7.09207e+12 -4.41052e+12 -1.22617e+13 -4.86722e+12 -7.49569e+12 -8.29976e+12 -6.90318e+12 -7.88004e+12 -8.92359e+12 -6.20847e+12 -7.76835e+12 -2.90033e+12 -3.39906e+12 -4.10698e+12 -2.91915e+12 -7.35778e+12 -7.00673e+12 -5.10398e+12 -6.99194e+12 -4.27574e+12 -8.91197e+12 -7.49822e+12 -6.54444e+12 -8.39554e+12 -5.2058e+12 -6.65751e+12 -4.77414e+12 -2.89038e+12 -1.04439e+13 -4.75568e+12 -5.08455e+12 -6.42707e+12 -8.32865e+12 -4.47366e+12 -3.63538e+12 -5.47283e+12 -6.90571e+12 -6.74258e+12 -5.69746e+12 -4.03644e+12 -3.99576e+12 -3.2084e+12 -3.1483e+12 -3.55089e+12 -3.65766e+12 -4.46237e+12 -6.41676e+12 -2.594e+12 -5.19318e+12 -5.10529e+12 -3.84407e+12 -3.15298e+12 -2.94235e+12 -3.0544e+12 -3.51223e+12 -2.65495e+12 -2.53825e+12 -1.24248e+12 -2.28747e+12 -1.2467e+12 -2.06876e+12 -2.67921e+12 -2.05421e+12 -1.4107e+12 -2.52214e+12 -2.12807e+12 -2.17355e+12 -1.74916e+12 -2.61423e+12 -2.11191e+12 -1.38843e+12 -525894000000.0 -1.37822e+12 -1.98142e+12 -2.25475e+12 -2.46365e+12 -1.65434e+12 -1.32335e+12 -2.05915e+12 -2.05131e+12 -2.19313e+12 -2.71364e+12 -2.45918e+12 -2.98309e+12 -1.8798e+12 -2.88085e+12 -4.16438e+12 -2.86401e+12 -5.35329e+12 -2.46056e+12 -2.56684e+12 -4.33979e+12 -6.90184e+12 -5.7705e+12 -3.58826e+12 -5.35555e+12 -5.70229e+12 -5.92019e+12 -3.62324e+12 -3.9525e+12 -5.28986e+12 -5.72346e+12 -4.63578e+12 -3.63636e+12 -5.0144e+12 -6.74014e+12 -1.01091e+13 -6.66404e+12 -7.61806e+12 -9.59769e+12 -6.78056e+12 -7.10544e+12 -6.70367e+12 -1.02503e+13 -7.03631e+12 -6.74597e+12 -5.26039e+12 -8.21439e+12 -7.81378e+12 -5.65499e+12 -6.32156e+12 -3.4911e+12 -4.85334e+12 -6.08479e+12 -5.24345e+12 -5.75467e+12 -7.60226e+12 -4.49689e+12 -7.53594e+12 -4.72227e+12 -4.83443e+12 -7.11454e+12 -7.95458e+12 -8.17768e+12 -7.9394e+12 -6.74556e+12 -4.21482e+12 -6.2735e+12 -7.32239e+12 -4.28577e+12 -4.5426e+12 -5.95554e+12 -4.48008e+12 -5.56435e+12 -4.706e+12 -4.11262e+12 -3.37852e+12 -4.33058e+12 -4.82633e+12 -3.30086e+12 -4.42939e+12 -4.07352e+12 -3.91736e+12 -4.34989e+12 -5.35155e+12 -3.92986e+12 -4.13504e+12 -2.29929e+12 -2.16477e+12 -2.20947e+12 -2.76564e+12 -1.05818e+12 -1.54714e+12 -2.64201e+12 -860098000000.0 -1.33874e+12 -1.84767e+12 -1.40521e+12 -1.15635e+12 -1.83262e+12 -1.23457e+12 -1.27202e+12 -1.03051e+12 -811662000000.0 -2.10668e+12 -1.9689e+12 -3.46941e+12 -2.0344e+12 -2.05842e+12 -420889000000.0 -2.93374e+12 -2.5226e+12 -1.40507e+12 -981078000000.0 -3.75251e+12 -1.59923e+12 -1.90902e+12 -2.21882e+12 -1.72492e+12 -3.19274e+12 -2.87411e+12 -3.86015e+12 -2.11137e+12 -2.05472e+12 -6.08033e+12 -4.22658e+12 -4.1754e+12 -4.17551e+12 -3.17716e+12 -5.16341e+12 -3.43135e+12 -6.20514e+12 -7.19692e+12 -5.60893e+12 -3.33301e+12 -5.34062e+12 -7.0724e+12 -3.73335e+12 -6.76466e+12 -5.6745e+12 -5.85916e+12 -6.07272e+12 -6.35016e+12 -8.66311e+12 -9.92566e+12 -8.67439e+12 -7.3733e+12 -5.48158e+12 -6.07794e+12 -6.20153e+12 -7.8749e+12 -3.33283e+12 -5.02242e+12 -4.93258e+12 -1.16918e+13 -7.16252e+12 -4.75926e+12 -7.9976e+12 -3.43096e+12 -2.45991e+12 -4.2013e+12 -9.02942e+12 -5.40976e+12 -8.40374e+12 -9.60459e+12 -7.08201e+12 -8.14725e+12 -5.63711e+12 -4.21053e+12 -8.35606e+12 -7.29698e+12 -6.4437e+12 -1.00582e+13 -6.26588e+12 -3.9456e+12 -4.65066e+12 -6.86883e+12 -5.17493e+12 -3.90662e+12 -8.49868e+12 -5.79438e+12 -4.75514e+12 -6.92885e+12 -4.7719e+12 -4.70071e+12 -6.34784e+12 -4.21975e+12 -4.36619e+12 -3.40382e+12 -2.97808e+12 -2.86638e+12 -3.98633e+12 -5.61763e+12 -2.33972e+12 -1.4875e+12 -2.66845e+12 -1.46043e+12 -1.72603e+12 -894092000000.0 -1.2252e+12 -2.34049e+12 -1.70981e+12 -3.2884e+12 -1.34561e+12 -767195000000.0 -3.42229e+12 -2.45138e+12 -2.21899e+12 -2.41005e+12 -1.0538e+12 -2.20769e+12 -1.61614e+12 -1.01879e+12 -1.94208e+12 -1.94033e+12 -2.39567e+12 -2.09894e+12 -3.39577e+12 -3.97392e+12 -2.11438e+12 -2.0388e+12 -4.7369e+12 -3.92528e+12 -1.11193e+12 -2.24167e+12 -3.68452e+12 -2.38451e+12 -3.2089e+12 -2.9088e+12 -5.57684e+12 -2.45427e+12 -6.20072e+12 -6.20713e+12 -4.01955e+12 -4.33343e+12 -4.03571e+12 -8.00062e+12 -6.32144e+12 -3.99907e+12 -5.68461e+12 -5.44475e+12 -7.25885e+12 -6.95612e+12 -5.97029e+12 -9.45788e+12 -8.84013e+12 -9.00087e+12 -5.71501e+12 -4.74557e+12 -3.91119e+12 -9.6489e+12 -5.03072e+12 -5.8085e+12 -8.44306e+12 -6.52859e+12 -5.94902e+12 -8.69136e+12 -4.77608e+12 -3.82138e+12 -7.0966e+12 -7.95214e+12 -7.23087e+12 -8.55509e+12 -8.24155e+12 -4.20888e+12 -6.05568e+12 -3.57286e+12 -8.76584e+12 -5.71852e+12 -4.35946e+12 -9.96222e+12 -6.37238e+12 -5.66841e+12 -4.56607e+12 -5.7895e+12 -4.347e+12 -4.81901e+12 -7.30237e+12 -2.01339e+12 -3.87311e+12 -5.58764e+12 -4.85596e+12 -7.47836e+12 -4.21069e+12 -5.75584e+12 -6.00379e+12 -4.59705e+12 -6.57408e+12 -3.48103e+12 -4.95842e+12 -3.40406e+12 -3.76408e+12 -4.56042e+12 -2.53135e+12 -3.63325e+12 -2.4465e+12 -3.49024e+12 -4.21013e+12 -2.51155e+12 -2.14908e+12 -2.04856e+12 -2.3622e+12 -3.92482e+12 -4.4945e+12 -3.60259e+12 -3.36676e+12 -1.82412e+12 -1.57176e+12 -2.89859e+12 -1.19431e+12 -2.13408e+12 -2.22322e+12 -2.31204e+12 -1.24903e+12 -1.61884e+12 -1.4891e+12 -1.65223e+12 -1.35909e+12 -2.27589e+12 -1.62496e+12 -1.56662e+12 -1.88659e+12 -2.22414e+12 -2.64262e+12 -3.55219e+12 -2.14415e+12 -2.09261e+12 -1.11253e+12 -2.39321e+12 -4.22089e+12 -3.43439e+12 -3.66567e+12 -2.82814e+12 -2.85041e+12 -1.7965e+12 -3.2379e+12 -3.3532e+12 -4.31405e+12 -4.94e+12 -3.6347e+12 -2.95244e+12 -3.12812e+12 -2.61703e+12 -5.80856e+12 -5.53272e+12 -4.93112e+12 -3.90964e+12 -4.13875e+12 -5.59338e+12 -5.56124e+12 -6.99101e+12 -7.03581e+12 -3.85936e+12 -6.01951e+12 -1.10571e+13 -6.39841e+12 -7.75354e+12 -7.54353e+12 -3.94526e+12 -6.87415e+12 -3.66991e+12 -9.23457e+12 -7.84542e+12 -5.62726e+12 -2.75454e+12 -3.02927e+12 -6.06452e+12 -6.32642e+12 -6.39176e+12 -6.42148e+12 -6.52309e+12 -6.89878e+12 -6.85318e+12 -7.87089e+12 -3.28705e+12 -7.20003e+12 -8.6493e+12 -5.28893e+12 -8.72229e+12 -7.47745e+12 -9.63267e+12 -7.11121e+12 -9.38051e+12 -6.56328e+12 -5.34098e+12 -6.74175e+12 -4.6164e+12 -6.28774e+12 -6.20834e+12 -3.98942e+12 -8.58356e+12 -3.16654e+12 -4.06781e+12 -3.01569e+12 -3.49537e+12 -6.11965e+12 -5.85671e+12 -4.9797e+12 -3.50045e+12 -7.22184e+12 -5.91556e+12 -5.42606e+12 -6.28407e+12 -4.00864e+12 -5.10863e+12 -4.7461e+12 -3.42237e+12 -1.78821e+12 -2.50979e+12 -4.06983e+12 -4.4867e+12 -2.33687e+12 -1.78771e+12 -2.68408e+12 -3.26172e+12 -2.22019e+12 -1.28833e+12 -1.22486e+12 -1.54763e+12 -2.99158e+12 -1.94284e+12 -2.713e+12 -1.77121e+12 -2.01518e+12 -1.95069e+12 -1.14041e+12 -1.82677e+12 -1.7936e+12 -748127000000.0 -880149000000.0 -467414000000.0 -1.06464e+12 -1.42216e+12 -72325500000.0 -644815000000.0 -987537000000.0 -2.09178e+12 -1.82384e+12 -2.3438e+12 -1.58599e+12 -2.01859e+12 -1.59926e+12 -1.37023e+12 -1.64032e+12 -1.67579e+12 -2.8634e+12 -3.69484e+12 -744084000000.0 -3.18254e+12 -2.92142e+12 -3.27827e+12 -947881000000.0 -1.29342e+12 -3.38247e+12 -3.83478e+12 -3.20202e+12 -2.80296e+12 -4.89052e+12 -3.93805e+12 -3.90928e+12 -3.39021e+12 -4.92607e+12 -2.9001e+12 -2.61443e+12 -4.22722e+12 -5.63816e+12 -3.54827e+12 -6.06058e+12 -5.5382e+12 -5.18444e+12 -5.77393e+12 -2.70666e+12 -5.38198e+12 -5.54723e+12 -5.54776e+12 -6.21884e+12 -5.31831e+12 -4.6895e+12 -1.95532e+12 -5.31498e+12 -4.97933e+12 -4.95201e+12 -4.68683e+12 -3.50664e+12 -7.64266e+12 -6.26461e+12 -5.53409e+12 -5.37238e+12 -5.6335e+12 -6.55164e+12 -6.58895e+12 -3.79298e+12 -5.70687e+12 -7.37913e+12 -4.58298e+12 -4.96529e+12 -2.30301e+12 -5.10635e+12 -1.94211e+12 -9.18202e+12 -6.58393e+12 -5.85151e+12 -4.18136e+12 -6.45386e+12 -4.80059e+12 -8.16985e+12 -9.94714e+12 -7.98702e+12 -2.25242e+12 -5.44812e+12 -4.95914e+12 -6.3616e+12 -7.52311e+12 -6.51478e+12 -4.27796e+12 -4.16888e+12 -6.49283e+12 -4.95553e+12 -5.67557e+12 -3.89389e+12 -4.03905e+12 -7.51672e+12 -4.19005e+12 -3.58973e+12 -3.18302e+12 -4.9106e+12 -5.59071e+12 -2.99637e+12 -3.24898e+12 -1.75503e+12 -5.89759e+12 -4.06293e+12 -3.7944e+12 -3.1924e+12 -4.73784e+12 -3.10517e+12 -2.05658e+12 -3.6479e+12 -3.661e+12 -3.23154e+12 -2.00662e+12 -2.93132e+12 -1.39603e+12 -1.96072e+12 -3.8568e+12 -2.01051e+12 -2.52496e+12 -2.57356e+12 -1.76321e+12 -2.14858e+12 -1.36162e+12 -1.42771e+12 -1.45146e+12 -1.65395e+12 -1.15641e+12 -1.12257e+12 -1.75993e+12 -1.89242e+12 -1.12828e+12 -691372000000.0 -1.25118e+12 -2.57675e+12 -1.84503e+12 -2.15052e+12 -1.74297e+12 -586320000000.0 -1.09062e+12 -1.04066e+12 -274616000000.0 -1.16997e+12 -2.68622e+12 -1.73981e+12 -2.37448e+12 -3.10524e+12 -1.33504e+12 -2.62389e+12 -1.77606e+12 -3.45161e+12 -4.80343e+12 -1.24713e+12 -5.3698e+12 -1.90662e+12 -4.83741e+12 -3.64929e+12 -4.23737e+12 -2.04714e+12 -5.17601e+12 -1.98933e+12 -3.91608e+12 -1.44088e+12 -3.88525e+12 -5.08147e+12 -4.29403e+12 -4.45059e+12 -4.07962e+12 -4.25335e+12 -4.13842e+12 -5.99764e+12 -5.13262e+12 -2.84611e+12 -2.69217e+12 -4.64124e+12 -8.34354e+12 -6.05393e+12 -3.32732e+12 -7.44012e+12 -4.12149e+12 -7.70461e+12 -8.59346e+12 -7.04846e+12 -6.32709e+12 -7.25022e+12 -6.15394e+12 -6.46026e+12 -7.37859e+12 -4.95028e+12 -3.84036e+12 -6.36555e+12 -6.81673e+12 -8.06137e+12 -3.86038e+12 -8.28681e+12 -4.78753e+12 -4.28412e+12 -4.44532e+12 -4.64266e+12 -3.54246e+12 -4.95309e+12 -3.20159e+12 -5.21386e+12 -5.57218e+12 -5.60187e+12 -9.20253e+12 -6.94336e+12 -6.78254e+12 -4.11375e+12 -7.36923e+12 -5.44725e+12 -9.07949e+12 -4.46226e+12 -3.49166e+12 -3.65622e+12 -3.24368e+12 -5.34434e+12 -5.48835e+12 -3.00732e+12 -4.88022e+12 -5.62375e+12 -3.6545e+12 -4.26439e+12 -4.24051e+12 -2.61806e+12 -4.33644e+12 -5.30138e+12 -4.0012e+12 -2.68526e+12 -2.72593e+12 -4.16982e+12 -6.40144e+12 -6.11658e+12 -2.97097e+12 -2.84068e+12 -2.46755e+12 -5.20885e+12 -4.3435e+12 -4.32687e+12 -1.51241e+12 -2.38471e+12 -3.422e+12 -2.1744e+12 -2.49365e+12 -3.43212e+12 -2.92783e+12 -1.51124e+12 -2.60286e+12 -3.13289e+12 -3.10555e+12 -2.38961e+12 -288684000000.0 -818990000000.0 -2.6117e+12 -1.57631e+12 -2.06015e+12 -2.33547e+12 -3.44362e+12 -1.0872e+12 -1.06783e+12 -518272000000.0 -942208000000.0 -962355000000.0 -925864000000.0 -1.00509e+12 -671122000000.0 -1.55568e+12 -2.08815e+12 -1.37169e+12 -1.5214e+12 -1.44693e+12 -2.04683e+12 -975115000000.0 -2.6775e+12 -1.59247e+12 -2.83838e+12 -3.05247e+12 -2.56574e+12 -1.51869e+12 -1.60488e+12 -4.29484e+12 -2.53751e+12 -3.76799e+12 -3.15304e+12 -5.31887e+12 -3.76249e+12 -2.94954e+12 -1.97481e+12 -2.40471e+12 -3.67621e+12 -4.30977e+12 -2.46285e+12 -4.1191e+12 -4.11038e+12 -1.7935e+12 -1.17744e+12 -2.83964e+12 -4.83809e+12 -6.48026e+12 -2.89176e+12 -4.91396e+12 -5.72186e+12 -5.8754e+12 -8.50864e+12 -5.54309e+12 -5.45954e+12 -6.21068e+12 -5.42571e+12 -7.97328e+12 -5.52887e+12 -8.19761e+12 -6.06021e+12 -5.01688e+12 -6.0515e+12 -7.11157e+12 -6.75695e+12 -4.52118e+12 -4.3135e+12 -5.30536e+12 -5.49416e+12 -7.19872e+12 -5.06993e+12 -6.14148e+12 -7.13141e+12 -4.42578e+12 -4.31221e+12 -4.59128e+12 -5.69485e+12 -2.95074e+12 -4.48521e+12 -5.49022e+12 -8.55865e+12 -5.1469e+12 -8.12927e+12 -5.50896e+12 -3.78719e+12 -2.16318e+12 -9.282e+12 -6.98673e+12 -3.155e+12 -6.75857e+12 -1.02951e+13 -6.36931e+12 -4.1231e+12 -7.58306e+12 -2.86458e+12 -4.4103e+12 -5.00507e+12 -6.41762e+12 -7.3922e+12 -6.82501e+12 -4.42384e+12 -4.85738e+12 -4.81795e+12 -4.32581e+12 -3.33712e+12 -4.92189e+12 -4.05204e+12 -4.72428e+12 -2.45105e+12 -3.03242e+12 -5.52045e+12 -2.05767e+12 -3.23129e+12 -3.97781e+12 -3.73058e+12 -2.62432e+12 -3.75662e+12 -1.13948e+12 -2.6709e+12 -4.6078e+12 -3.25705e+12 -2.0029e+12 -1.32137e+12 -1.65506e+12 -3.15079e+12 -2.0963e+12 -2.15723e+12 -1.73812e+12 -2.05318e+12 -2.96996e+12 -1.20918e+12 -1.12607e+12 -1.26605e+12 -2.02831e+12 -1.83986e+12 -1.03878e+12 -1.39763e+12 -1.40644e+12 -1.61248e+12 -1.37494e+12 -588191000000.0 -1.83494e+12 -1.31822e+12 -1.013e+12 -1.83745e+12 -998861000000.0 -1.32913e+12 -961537000000.0 -1.40938e+12 -1.82247e+12 -2.67199e+12 -1.65341e+12 -1.57819e+12 -1.24953e+12 -2.72989e+12 -1.46819e+12 -1.39115e+12 -2.7573e+12 -1.71821e+12 -1.2908e+12 -807829000000.0 -3.00257e+12 -1.62231e+12 -2.63558e+12 -3.89946e+12 -1.85663e+12 -2.31117e+12 -2.30873e+12 -4.43293e+12 -1.96764e+12 -2.93985e+12 -1.72676e+12 -2.8604e+12 -3.77946e+12 -1.23854e+12 -6.43241e+12 -2.25035e+12 -3.95593e+12 -6.26173e+12 -3.46222e+12 -7.31363e+12 -4.77687e+12 -4.86531e+12 -2.12135e+12 -1.45541e+12 -9.19069e+12 -8.06281e+12 -4.04497e+12 -3.33014e+12 -3.87915e+12 -8.81858e+12 -4.87503e+12 -5.42142e+12 -7.33825e+12 -3.65895e+12 -4.44777e+12 -6.28203e+12 -4.85043e+12 -3.93357e+12 -5.67276e+12 -7.49946e+12 -8.54335e+12 -2.89004e+12 -3.99007e+12 -9.18825e+12 -3.07279e+12 -5.50593e+12 -2.65805e+12 -3.11014e+12 -3.65372e+12 -3.81525e+12 -5.14351e+12 -5.51136e+12 -4.41764e+12 -7.3521e+12 -6.31435e+12 -5.69739e+12 -4.33374e+12 -7.13812e+12 -5.56204e+12 -6.12217e+12 -1.36539e+13 -4.56764e+12 -6.79166e+12 -6.07201e+12 -5.66635e+12 -6.74774e+12 -5.11247e+12 -4.76973e+12 -3.81843e+12 -3.43063e+12 -3.45551e+12 -2.39723e+12 -3.32005e+12 -3.28407e+12 -730013000000.0 -2.90015e+12 -6.182e+12 -4.81778e+12 -3.34214e+12 -4.1487e+12 -1.73168e+12 -3.13114e+12 -2.52886e+12 -2.3533e+12 -2.71969e+12 -1.951e+12 -2.56524e+12 -2.18492e+12 -3.1399e+12 -2.65928e+12 -2.86253e+12 -1.7846e+12 -3.15924e+12 -2.73196e+12 -3.84599e+12 -2.55993e+12 -2.07637e+12 -2.649e+12 -1.22079e+12 -1.56268e+12 -1.37303e+12 -2.32818e+12 -1.39397e+12 -854530000000.0 -1.25784e+12 -496838000000.0 -808314000000.0 -1.73246e+12 -1.5068e+12 -1.46672e+12 -495752000000.0 -1.03881e+12 -1.15152e+12 -1.06808e+12 -1.84654e+12 -622425000000.0 -1.38361e+12 -767534000000.0 -1.72888e+12 -1.3671e+12 -642257000000.0 -142913000000.0 -2.05163e+12 -1.63539e+12 -2.50758e+12 -1.98432e+12 -1.1211e+12 -1.57748e+12 -1.45106e+12 -2.54638e+12 -4.12116e+12 -2.28207e+12 -1.95091e+12 -2.93481e+12 -2.68534e+12 -3.51457e+12 -4.34739e+12 -2.39629e+12 -2.44139e+12 -4.3202e+12 -2.55489e+12 -3.87782e+12 -5.04759e+12 -3.21469e+12 -3.96403e+12 -4.42966e+12 -2.14351e+12 -5.01146e+12 -6.33626e+12 -6.96228e+12 -3.82249e+12 -4.08483e+12 -5.24483e+12 -6.77048e+12 -4.14576e+12 -2.80409e+12 -2.74816e+12 -3.67236e+12 -2.72488e+12 -5.08394e+12 -6.63098e+12 -5.52033e+12 -4.67685e+12 -6.11524e+12 -7.21294e+12 -4.34721e+12 -5.58888e+12 -6.60693e+12 -4.88902e+12 -4.03291e+12 -8.00988e+12 -5.57692e+12 -4.30669e+12 -6.59478e+12 -5.62911e+12 -7.07925e+12 -6.14508e+12 -3.90326e+12 -5.69797e+12 -2.98313e+12 -4.2362e+12 -5.70314e+12 -5.19584e+12 -2.69566e+12 -4.01717e+12 -4.72331e+12 -3.37096e+12 -5.72611e+12 -6.63663e+12 -5.41912e+12 -4.11865e+12 -9.23593e+12 -7.67597e+12 -3.80664e+12 -4.35904e+12 -7.00215e+12 -5.82051e+12 -3.59768e+12 -3.27469e+12 -3.78638e+12 -4.64591e+12 -4.03627e+12 -5.55068e+12 -5.7489e+12 -3.45901e+12 -4.01672e+12 -5.37104e+12 -6.56084e+12 -4.16335e+12 -1.76121e+12 -4.40841e+12 -1.75705e+12 -3.5501e+12 -3.83739e+12 -3.04452e+12 -1.77402e+12 -3.67221e+12 -2.02647e+12 -2.45191e+12 -2.75844e+12 -2.05032e+12 -5.10877e+12 -2.78496e+12 -3.62699e+12 -1.41087e+12 -2.3189e+12 -3.03772e+12 -1.70518e+12 -2.41121e+12 -1.15011e+12 -1.61766e+12 -1.53601e+12 -2.70883e+12 -1.10213e+12 -1.56196e+12 -1.25564e+12 -442669000000.0 -1.4182e+12 -1.38104e+12 -478184000000.0 -1.41566e+12 -1.53567e+12 -1.10425e+12 -1.32004e+12 -294448000000.0 -461596000000.0 -1.17968e+12 -755647000000.0 -1.64327e+12 -1.60081e+12 -638883000000.0 -489347000000.0 -1.38251e+12 -1.74223e+12 -2.15182e+12 -2.58024e+12 -1.16731e+12 -666767000000.0 -1.58988e+12 -1.41745e+12 -850768000000.0 -809538000000.0 -1.84908e+12 -1.92083e+12 -1.15334e+12 -1.68926e+12 -1.25696e+12 -3.30994e+12 -3.97623e+12 -2.35617e+12 -3.67204e+12 -4.00914e+12 -603526000000.0 -2.98323e+12 -3.36321e+12 -5.77888e+12 -4.32925e+12 -2.81366e+12 -2.4145e+12 -3.54572e+12 -7.18612e+12 -3.36525e+12 -2.30846e+12 -5.14483e+12 -2.51062e+12 -3.11446e+12 -5.29228e+12 -3.73017e+12 -3.70602e+12 -4.16797e+12 -4.96088e+12 -5.30413e+12 -5.52436e+12 -3.20568e+12 -3.96055e+12 -7.88418e+12 -5.863e+12 -4.32231e+12 -3.78496e+12 -4.68305e+12 -6.97151e+12 -7.81355e+12 -8.56858e+12 -6.29992e+12 -4.65043e+12 -4.9637e+12 -7.29418e+12 -6.53548e+12 -4.413e+12 -4.51733e+12 -7.15785e+12 -2.11749e+12 -4.20014e+12 -4.53507e+12 -3.82245e+12 -1.37809e+12 -2.62189e+12 -4.01142e+12 -5.60433e+12 -5.79651e+12 -4.65841e+12 -5.31433e+12 -4.43217e+12 -3.33846e+12 -3.03123e+12 -3.00566e+12 -5.17568e+12 -4.36168e+12 -4.04615e+12 -5.27807e+12 -2.92213e+12 -5.34362e+12 -3.0463e+12 -3.13216e+12 -4.80576e+12 -4.02096e+12 -2.43846e+12 -4.29486e+12 -5.67077e+12 -3.31101e+12 -4.33e+12 -1.99242e+12 -4.7556e+12 -5.03992e+12 -3.58575e+12 -2.17459e+12 -4.3451e+12 -6.93282e+12 -2.46293e+12 -6.33274e+12 -4.38268e+12 -4.17163e+12 -3.6595e+12 -2.62828e+12 -2.31645e+12 -3.47882e+12 -1.59409e+12 -1.5901e+12 -4.33958e+12 -2.38326e+12 -3.43139e+12 -3.31333e+12 -3.28785e+12 -2.553e+12 -1.4018e+12 -1.4854e+12 -1.73955e+12 -1.31165e+12 -1.36352e+12 -1.11347e+12 -3.45026e+12 -2.10258e+12 -517408000000.0 -1.91612e+12 -1.33203e+12 -1.12059e+12 -762100000000.0 -1.12519e+12 -837970000000.0 -795508000000.0 -1.1976e+12 -106006000000.0 -1.19282e+12 -1.59869e+12 -981055000000.0 -1.28174e+12 -1.3014e+12 -1.41262e+12 -1.21756e+12 -1.6564e+12 -620641000000.0 -1.2266e+12 -1.48311e+12 -1.1579e+12 -309736000000.0 -582333000000.0 -1.04929e+12 -1.69639e+12 -2.37629e+12 -1.3636e+12 -2.8916e+12 -3.00422e+12 -3.26237e+12 -3.50645e+12 -2.45056e+12 -2.69431e+12 -3.10496e+12 -4.84766e+12 -2.88052e+12 -2.3462e+12 -3.11854e+12 -3.36558e+12 -5.43222e+12 -2.52457e+12 -3.92696e+12 -2.52163e+12 -4.42888e+12 -3.22827e+12 -4.55499e+12 -2.92134e+12 -4.39172e+12 -3.94057e+12 -4.20384e+12 -1.19158e+12 -3.36701e+12 -5.99429e+12 -3.89603e+12 -2.27122e+12 -3.8184e+12 -5.365e+12 -3.41627e+12 -4.01204e+12 -3.4167e+12 -3.45953e+12 -3.2169e+12 -2.96392e+12 -6.1152e+12 -5.22309e+12 -7.67939e+12 -5.40951e+12 -8.62058e+12 -6.83984e+12 -4.2833e+12 -5.48746e+12 -5.88692e+12 -8.77989e+12 -4.66414e+12 -2.48343e+12 -4.11321e+12 -6.23253e+12 -4.41558e+12 -3.49649e+12 -5.41979e+12 -3.43722e+12 -4.34673e+12 -6.84151e+12 -3.75131e+12 -5.45723e+12 -3.91619e+12 -6.03548e+12 -5.76983e+12 -2.99726e+12 -3.69633e+12 -4.81244e+12 -2.89636e+12 -2.60012e+12 -3.48799e+12 -3.36993e+12 -3.60196e+12 -4.59722e+12 -3.57014e+12 -2.92174e+12 -4.46126e+12 -2.32596e+12 -2.28745e+12 -4.86195e+12 -1.88579e+12 -3.83838e+12 -3.38854e+12 -2.55199e+12 -6.02045e+12 -3.67617e+12 -2.42445e+12 -4.41715e+12 -3.29537e+12 -2.95302e+12 -1.44149e+12 -2.67019e+12 -1.24242e+12 -3.08688e+12 -2.36175e+12 -2.67636e+12 -1.34895e+12 -2.20922e+12 -1.28584e+12 -2.5669e+12 -788327000000.0 -1.68963e+12 -1.26586e+12 -1.17891e+12 -948760000000.0 -2.00462e+12 -1.30372e+12 -1.07859e+12 -580751000000.0 -674325000000.0 -663376000000.0 -1.37212e+12 -361621000000.0 -611228000000.0 -309786000000.0 -722511000000.0 -582488000000.0 -811588000000.0 -739393000000.0 -1.592e+12 -965191000000.0 -1.80049e+12 -725963000000.0 -574361000000.0 -1.49834e+12 -967745000000.0 -1.63585e+12 -2.05593e+12 -2.49588e+12 -1.36854e+12 -1.80523e+12 -1.65992e+12 -2.54605e+12 -1.77913e+12 -1.58234e+12 -2.3237e+12 -2.32765e+12 -2.31686e+12 -1.64639e+12 -2.44525e+12 -2.11028e+12 -3.99737e+12 -3.69092e+12 -3.58655e+12 -4.12122e+12 -4.84921e+12 -4.2608e+12 -5.17315e+12 -2.43254e+12 -1.24238e+12 -2.75431e+12 -1.41539e+12 -3.81783e+12 -5.31214e+12 -7.45139e+12 -3.28606e+12 -3.94372e+12 -8.59837e+12 -3.33275e+12 -4.38127e+12 -6.1815e+12 -3.56895e+12 -4.26482e+12 -2.94162e+12 -3.56481e+12 -4.93199e+12 -5.91881e+12 -5.12209e+12 -2.42166e+12 -6.03694e+12 -5.51389e+12 -4.31456e+12 -6.81906e+12 -3.44388e+12 -3.8275e+12 -4.75065e+12 -2.9577e+12 -5.0108e+12 -3.99085e+12 -5.09796e+12 -6.07182e+12 -3.40762e+12 -5.91077e+12 -5.17814e+12 -2.86455e+12 -4.24435e+12 -3.51579e+12 -5.08769e+12 -2.08224e+12 -4.10898e+12 -3.49796e+12 -2.5052e+12 -3.7724e+12 -2.5459e+12 -2.27654e+12 -1.33274e+12 -4.4034e+12 -4.16104e+12 -2.05945e+12 -2.8572e+12 -2.68181e+12 -3.29986e+12 -1.88694e+12 -2.82729e+12 -4.15987e+12 -5.69042e+12 -1.98176e+12 -2.36208e+12 -2.05016e+12 -3.54842e+12 -3.22584e+12 -3.83586e+12 -1.65511e+12 -2.01137e+12 -1.34222e+12 -1.59088e+12 -2.81998e+12 -2.13143e+12 -1.34298e+12 -1.12092e+12 -1.54349e+12 -1.48536e+12 -1.07512e+12 -1.85169e+12 -914757000000.0 -1.72681e+12 -1.05781e+12 -877337000000.0 -1.44581e+12 -1.16742e+12 -526390000000.0 -755625000000.0 -601529000000.0 -832612000000.0 -1.60476e+12 -1.01076e+12 -371892000000.0 -394690000000.0 -291939000000.0 -750998000000.0 -465414000000.0 -781402000000.0 -836576000000.0 -777841000000.0 -76017500000.0 -402596000000.0 -262140000000.0 -679247000000.0 -1.11044e+12 -288346000000.0 -664486000000.0 -1.43172e+12 -1.0744e+12 -550465000000.0 -535383000000.0 -172335000000.0 -203534000000.0 -929704000000.0 -1.74967e+12 -1.36503e+12 -1.279e+12 -807232000000.0 -1.9925e+12 -1.69474e+12 -1.712e+12 -1.02353e+12 -1.17547e+12 -2.64003e+12 -3.94405e+12 -2.82678e+12 -3.49638e+12 -591254000000.0 -1.48221e+12 -2.32914e+12 -3.95292e+12 -1.48768e+12 -2.45024e+12 -3.05422e+12 -2.20853e+12 -4.43359e+12 -4.02722e+12 -2.28249e+12 -5.68808e+12 -4.04384e+12 -6.59956e+12 -2.93243e+12 -4.66334e+12 -3.95023e+12 -1.54756e+12 -3.92128e+12 -2.95722e+12 -3.30139e+12 -2.82733e+12 -2.86114e+12 -3.20585e+12 -3.9714e+12 -4.42033e+12 -4.51299e+12 -3.42747e+12 -3.60819e+12 -3.88063e+12 -4.65856e+12 -6.8945e+12 -4.31382e+12 -8.13156e+12 -3.2455e+12 -4.77995e+12 -1.57247e+12 -3.38982e+12 -2.97173e+12 -3.17316e+12 -2.22306e+12 -2.21696e+12 -7.3004e+12 -1.98525e+12 -3.06128e+12 -3.68461e+12 -2.9316e+12 -4.26423e+12 -2.83732e+12 -4.23565e+12 -3.88029e+12 -4.00982e+12 -4.22137e+12 -2.91143e+12 -2.81342e+12 -2.72819e+12 -2.16947e+12 -3.37223e+12 -1.8162e+12 -4.98617e+12 -2.51062e+12 -1.42595e+12 -3.52464e+12 -948626000000.0 -1.11796e+12 -4.55808e+12 -2.89124e+12 -3.50311e+12 -4.391e+12 -1.7485e+12 -1.18552e+12 -2.61702e+12 -1.09867e+12 -2.73853e+12 -3.25424e+12 -2.95046e+12 -2.44168e+12 -1.45681e+12 -2.2552e+12 -1.58348e+12 -3.03043e+12 -1.36772e+12 -1.72171e+12 -2.45808e+12 -1.03923e+12 -880412000000.0 -2.1864e+12 -879515000000.0 -1.8576e+12 -403320000000.0 -1.28933e+12 -717875000000.0 -817025000000.0 -859046000000.0 -1.20447e+12 -1.20327e+12 -1.37776e+12 -1.31003e+12 -602153000000.0 -737928000000.0 -788209000000.0 -671724000000.0 -568696000000.0 -152327000000.0 -1.28991e+12 -801444000000.0 -544747000000.0 -655691000000.0 -777574000000.0 -526817000000.0 -541110000000.0 -168899000000.0 -691999000000.0 -307358000000.0 -19917800000.0 -413611000000.0 -631870000000.0 -2.09299e+12 -1.13725e+12 -1.92144e+12 -1.23471e+12 -2.35152e+12 -1.48168e+12 -1.40074e+12 -701805000000.0 -1.498e+12 -1.74876e+12 -1.79985e+12 -3.07256e+12 -3.05833e+12 -1.95279e+12 -2.35359e+12 -2.90663e+12 -2.73446e+12 -637887000000.0 -3.53307e+12 -4.49507e+12 -3.01929e+12 -4.2852e+12 -1.73366e+12 -2.40894e+12 -2.78831e+12 -2.32578e+12 -4.6025e+12 -3.83068e+12 -4.7223e+12 -3.05751e+12 -5.42155e+12 -4.97967e+12 -3.61834e+12 -1.00102e+13 -4.45942e+12 -6.6466e+12 -3.24087e+12 -3.3107e+12 -3.89611e+12 -4.70019e+12 -3.71408e+12 -6.29609e+12 -4.95182e+12 -2.06406e+12 -3.10284e+12 -2.53269e+12 -5.09731e+12 -1.67496e+12 -2.2474e+12 -2.48573e+12 -4.70646e+12 -4.06985e+12 -5.74388e+12 -2.79679e+12 -4.0933e+12 -3.1606e+12 -2.40013e+12 -2.81608e+12 -3.05386e+12 -3.461e+12 -2.77707e+12 -4.52003e+12 -4.0536e+12 -3.99643e+12 -2.55531e+12 -2.60704e+12 -3.84288e+12 -2.9849e+12 -4.15719e+12 -884907000000.0 -1.36721e+12 -2.78667e+12 -1.66308e+12 -3.18169e+12 -1.94522e+12 -1.73969e+12 -1.14877e+12 -2.3177e+12 -1.88953e+12 -797978000000.0 -2.07464e+12 -1.29684e+12 -2.18012e+12 -17387700000.0 -1.73985e+12 -2.67722e+12 -461624000000.0 -565493000000.0 -1.43957e+12 -1.09027e+12 -1.14878e+12 -1.20651e+12 -779636000000.0 -442287000000.0 -845243000000.0 -76247600000.0 -1.21356e+12 -593794000000.0 -337814000000.0 -776143000000.0 -227268000000.0 -664009000000.0 -167219000000.0 -456802000000.0 -134524000000.0 -807937000000.0 -571999000000.0 -30743400000.0 -450782000000.0 -792343000000.0 -378951000000.0 -848661000000.0 -814372000000.0 -1.11452e+12 -483026000000.0 -610655000000.0 -240087000000.0 -891428000000.0 -580396000000.0 -642006000000.0 -1.11829e+12 -899493000000.0 -909889000000.0 -337726000000.0 -1.09096e+12 -1.75001e+12 -702653000000.0 -764585000000.0 -1.31723e+12 -658270000000.0 -876366000000.0 -1.81696e+12 -2.00521e+12 -642981000000.0 -713330000000.0 -1.79439e+12 -1.31834e+12 -3.24877e+12 -2.02836e+12 -2.30208e+12 -1.84839e+12 -2.61254e+12 -930732000000.0 -1.39945e+12 -1.62413e+12 -2.39558e+12 -2.36977e+12 -2.46986e+12 -4.20213e+12 -1.37711e+12 -3.12252e+12 -3.64917e+12 -4.17431e+12 -5.39496e+12 -3.76903e+12 -4.7854e+12 -3.47754e+12 -4.43715e+12 -1.82393e+12 -3.098e+12 -2.58173e+12 -5.41583e+12 -2.93903e+12 -7.36512e+12 -3.57194e+12 -2.93643e+12 -2.06503e+12 -2.03067e+12 -2.76653e+12 -2.92888e+12 -3.06725e+12 -4.63277e+12 -1.90022e+12 -4.47902e+12 -3.92695e+12 -1.72245e+12 -4.57112e+12 -1.26309e+12 -1.84207e+12 -1.16619e+12 -2.61137e+12 -2.06512e+12 -2.68335e+12 -4.22832e+12 -4.27272e+12 -2.22839e+12 -5.37238e+12 -2.12728e+12 -2.2406e+12 -2.37069e+12 -3.0034e+12 -2.11713e+12 -4.11342e+12 -3.33645e+12 -2.38258e+12 -2.24828e+12 -2.14851e+12 -1.66742e+12 -2.56846e+12 -2.38129e+12 -4.8058e+12 -3.92066e+12 -1.51809e+12 -2.89078e+12 -3.295e+12 -1.04429e+12 -1.29117e+12 -941044000000.0 -3.13805e+12 -2.66622e+12 -1.03291e+12 -1.76672e+12 -689776000000.0 -752790000000.0 -1.63228e+12 -1.2551e+12 -2.05e+12 -1.28408e+12 -400789000000.0 -1.2885e+12 -1.09584e+12 -1.51727e+12 -796618000000.0 -1.43803e+12 -759426000000.0 -505430000000.0 -507802000000.0 -421305000000.0 -958750000000.0 -838604000000.0 -269280000000.0 -394167000000.0 -510419000000.0 -684894000000.0 -409039000000.0 -247613000000.0 -459926000000.0 -621437000000.0 -269165000000.0 -280300000000.0 -319855000000.0 -538051000000.0 -724350000000.0 -360287000000.0 -211508000000.0 -706038000000.0 -514897000000.0 -617687000000.0 -227300000000.0 -330231000000.0 -445506000000.0 -1.333e+12 -337134000000.0 -925370000000.0 -484425000000.0 -534412000000.0 -991130000000.0 -979084000000.0 -291246000000.0 -208608000000.0 -1.59788e+12 -485691000000.0 -2.18085e+12 -1.03798e+12 -1.50533e+12 -2.81629e+12 -3.5373e+12 -2.63505e+12 -3.50779e+12 -2.10455e+12 -2.0951e+12 -1.46586e+12 -2.50024e+12 -2.63839e+12 -3.27855e+12 -1.95455e+12 -2.74619e+12 -4.26344e+12 -3.1781e+12 -2.91698e+12 -2.32643e+12 -2.61669e+12 -2.30476e+12 -4.69828e+12 -4.32133e+12 -1.95545e+12 -1.46251e+12 -3.96373e+12 -3.84876e+12 -3.12781e+12 -4.4603e+12 -3.61334e+12 -3.65788e+12 -3.04366e+12 -4.5908e+12 -2.16229e+12 -1.63473e+12 -2.66884e+12 -3.14184e+12 -3.8011e+12 -3.91036e+12 -1.84708e+12 -3.72223e+12 -1.24874e+12 -3.78504e+12 -2.31579e+12 -3.5098e+12 -1.89838e+12 -1.73464e+12 -3.29701e+12 -2.31532e+12 -3.00533e+12 -1.1626e+12 -1.68831e+12 -3.3887e+12 -3.65977e+12 -1.00852e+12 -3.7968e+12 -514104000000.0 -3.73094e+12 -2.87442e+12 -2.32767e+12 -816712000000.0 -1.86512e+12 -1.0933e+12 -415190000000.0 -1.98361e+12 -975904000000.0 -1.03838e+12 -927651000000.0 -1.37683e+12 -2.10378e+12 -1.25351e+12 -1.78336e+12 -916840000000.0 -323564000000.0 -361403000000.0 -1.12027e+12 -590382000000.0 -446069000000.0 -715654000000.0 -358779000000.0 -763478000000.0 -418605000000.0 -359710000000.0 -334615000000.0 -561400000000.0 -287025000000.0 -15394700000.0 -514518000000.0 -459416000000.0 -226449000000.0 -382596000000.0 -391008000000.0 -414735000000.0 -317251000000.0 -787534000000.0 -691341000000.0 -596686000000.0 -563613000000.0 -745041000000.0 -1.01964e+12 -1.00362e+12 -870657000000.0 -780940000000.0 -671889000000.0 -1.0014e+12 -973724000000.0 -444883000000.0 -1.23012e+12 -1.97822e+12 -1.89336e+12 -2.78935e+12 -1.29509e+12 -858575000000.0 -1.39256e+12 -2.08578e+12 -1.93788e+12 -1.89169e+12 -874425000000.0 -1.40783e+12 -2.10639e+12 -981210000000.0 -1.49478e+12 -1.1369e+12 -1.06324e+12 -1.72129e+12 -2.63978e+12 -1.60951e+12 -2.66772e+12 -1.99618e+12 -1.07599e+12 -2.15638e+12 -2.07477e+12 -2.02046e+12 -3.17579e+12 -2.64534e+12 -1.76637e+12 -4.02456e+12 -2.61072e+12 -3.2715e+12 -2.33344e+12 -2.89329e+12 -2.02518e+12 -2.84672e+12 -2.06724e+12 -3.96659e+12 -1.01931e+12 -1.62597e+12 -2.21775e+12 -2.09828e+12 -3.16517e+12 -4.73835e+12 -2.1923e+12 -2.95547e+12 -1.68042e+12 -2.60622e+12 -1.45384e+12 -3.27901e+12 -4.30165e+12 -3.69111e+12 -1.98658e+12 -1.69842e+12 -2.93566e+12 -1.59214e+12 -1.57018e+12 -2.03258e+12 -1.09236e+12 -3.1237e+12 -871173000000.0 -1.50101e+12 -2.2902e+12 -1.92386e+12 -2.09387e+12 -1.85804e+12 -1.92528e+12 -793437000000.0 -1.43813e+12 -2.0563e+12 -1.87049e+12 -1.03622e+12 -3.79015e+12 -1.88895e+12 -2.45177e+12 -1.5874e+12 -1.55708e+12 -1.11796e+12 -1.30166e+12 -1.67687e+12 -691064000000.0 -883921000000.0 -1.4963e+12 -1.30101e+12 -892939000000.0 -1.69429e+12 -737061000000.0 -376086000000.0 -1.15194e+12 -1.83052e+12 -1.6703e+12 -579711000000.0 -813984000000.0 -94858900000.0 -773770000000.0 -847426000000.0 -899444000000.0 -472442000000.0 -635311000000.0 -608015000000.0 -617863000000.0 -172132000000.0 -374889000000.0 -534703000000.0 -310157000000.0 -323069000000.0 -479803000000.0 -478478000000.0 -668716000000.0 -362262000000.0 -721735000000.0 -625310000000.0 -468168000000.0 -463325000000.0 -647208000000.0 -443129000000.0 -510911000000.0 -341232000000.0 -219795000000.0 -374856000000.0 -584782000000.0 -567543000000.0 -1.06612e+12 -375974000000.0 -396462000000.0 -490531000000.0 -363794000000.0 -648281000000.0 -919772000000.0 -901524000000.0 -303180000000.0 -903132000000.0 -786566000000.0 -1.23367e+12 -1.04028e+12 -2.4703e+12 -1.78662e+12 -1.60245e+12 -292900000000.0 -1.36871e+12 -1.42502e+12 -1.33125e+12 -2.1795e+12 -1.73701e+12 -1.97711e+12 -1.86366e+12 -967027000000.0 -1.54855e+12 -1.72256e+12 -2.37541e+12 -1.66814e+12 -448678000000.0 -3.17576e+12 -2.05498e+12 -2.88259e+12 -3.74628e+12 -3.34946e+12 -3.47657e+12 -2.00436e+12 -1.44656e+12 -2.60077e+12 -1.70667e+12 -2.89848e+12 -1.48409e+12 -2.21792e+12 -1.80557e+12 -2.37696e+12 -2.25503e+12 -2.06464e+12 -2.08849e+12 -1.89045e+12 -1.88186e+12 -2.48992e+12 -1.82969e+12 -1.77214e+12 -1.68656e+12 -1.03582e+12 -1.95942e+12 -1.08677e+12 -4.40337e+12 -2.38943e+12 -2.26756e+12 -2.4571e+12 -1.4067e+12 -1.9691e+12 -1.83307e+12 -2.02531e+12 -1.58578e+12 -1.55749e+12 -1.33453e+12 -1.8697e+12 -1.69064e+12 -1.83263e+12 -1.01524e+12 -679528000000.0 -1.06453e+12 -418790000000.0 -1.56995e+12 -1.9919e+12 -1.51985e+12 -1.0617e+12 -2.13268e+12 -1.31442e+12 -1.15198e+12 -948358000000.0 -767248000000.0 -1.21322e+12 -459672000000.0 -838686000000.0 -499267000000.0 -1.08246e+12 -992409000000.0 -413622000000.0 -964232000000.0 -449529000000.0 -770040000000.0 -462659000000.0 -311784000000.0 -390286000000.0 -504335000000.0 -52801900000.0 -348324000000.0 -391676000000.0 -32940600000.0 -322367000000.0 -378241000000.0 -90293400000.0 -255077000000.0 -332188000000.0 -357080000000.0 -403186000000.0 -264074000000.0 -131413000000.0 -49631800000.0 -100755000000.0 -14127900000.0 -459262000000.0 -109495000000.0 -76107900000.0 -41896300000.0 -32678700000.0 -390761000000.0 -871982000000.0 -39688600000.0 -405813000000.0 -679473000000.0 -444497000000.0 -578701000000.0 -457958000000.0 -862880000000.0 -1.09349e+12 -390579000000.0 -398609000000.0 -961277000000.0 -812592000000.0 -1.44464e+12 -1.39802e+12 -2.43761e+12 -666259000000.0 -1.33658e+12 -1.04244e+12 -1.81089e+12 -2.22405e+12 -1.79953e+12 -835051000000.0 -1.34533e+12 -2.06509e+12 -1.68186e+12 -2.4557e+12 -1.62734e+12 -11485900000.0 -2.60836e+12 -1.46634e+12 -757846000000.0 -1.29818e+12 -1.01559e+12 -3.39098e+12 -2.04249e+12 -3.34094e+12 -2.36832e+12 -1.45993e+12 -3.24009e+12 -2.15857e+12 -3.59575e+12 -2.29203e+12 -2.46278e+12 -3.40246e+12 -2.38399e+12 -2.61712e+12 -2.65772e+12 -3.19844e+12 -1.2613e+12 -585254000000.0 -1.4413e+12 -2.1655e+12 -1.09627e+12 -994389000000.0 -1.24613e+12 -345790000000.0 -1.479e+12 -1.63353e+12 -1.58267e+12 -2.75852e+12 -2.06627e+12 -2.12078e+12 -699600000000.0 -909606000000.0 -1.54539e+12 -1.31627e+12 -2.40474e+12 -1.34357e+12 -1.00841e+12 -1.41795e+12 -628632000000.0 -1.3776e+12 -1.44809e+12 -504621000000.0 -496769000000.0 -398622000000.0 -975064000000.0 -990108000000.0 -1.08963e+12 -875122000000.0 -581790000000.0 -766430000000.0 -665842000000.0 -280097000000.0 -191239000000.0 -157719000000.0 -340694000000.0 -78328100000.0 -428471000000.0 -477739000000.0 -560701000000.0 -413468000000.0 -214754000000.0 -308079000000.0 -357660000000.0 -260920000000.0 -172995000000.0 -280744000000.0 -280808000000.0 -151948000000.0 -174136000000.0 -397114000000.0 -175916000000.0 -91537300000.0 -149156000000.0 -198112000000.0 -491185000000.0 -304134000000.0 -442947000000.0 -60019500000.0 -356238000000.0 -411976000000.0 -222437000000.0 -664735000000.0 -886342000000.0 -935654000000.0 -578328000000.0 -484035000000.0 -1.50262e+12 -1.28335e+12 -791242000000.0 -1.41332e+12 -882159000000.0 -826443000000.0 -509555000000.0 -1.21379e+12 -814449000000.0 -980367000000.0 -671407000000.0 -1.75518e+12 -2.40545e+12 -2.02435e+12 -1.06512e+12 -2.79264e+12 -2.00192e+12 -1.52162e+12 -1.93021e+12 -2.49675e+12 -2.63764e+12 -2.14231e+12 -1.95411e+12 -1.09924e+12 -1.66414e+12 -2.91348e+12 -1.34412e+12 -2.72811e+12 -1.55932e+12 -2.60516e+12 -1.62932e+12 -1.71672e+12 -2.5989e+12 -3.4334e+12 -647472000000.0 -1.64922e+12 -1.06956e+12 -1.51842e+12 -2.54797e+12 -2.65397e+12 -1.16609e+12 -226079000000.0 -145681000000.0 -1.51997e+12 -1.53058e+12 -1.10344e+12 -272678000000.0 -1.42185e+12 -1.13508e+12 -890509000000.0 -998367000000.0 -1.08804e+12 -1.36007e+12 -1.07838e+12 -877008000000.0 -2.06414e+12 -2.27673e+12 -1.59856e+12 -1.18704e+12 -1.10664e+12 -712305000000.0 -1.60579e+12 -1.25788e+12 -262841000000.0 -275887000000.0 -502167000000.0 -846546000000.0 -1.01779e+12 -1.20161e+12 -510121000000.0 -282945000000.0 -394384000000.0 -622149000000.0 -642735000000.0 -542316000000.0 -212937000000.0 -66287100000.0 -34011400000.0 -20038500000.0 -243102000000.0 -288712000000.0 -375178000000.0 -156893000000.0 -28441400000.0 -122057000000.0 -230122000000.0 -105596000000.0 -212683000000.0 -198973000000.0 -91524800000.0 -252585000000.0 -253874000000.0 -145786000000.0 -160455000000.0 -248718000000.0 -746806000000.0 -443717000000.0 -396188000000.0 -288110000000.0 -395133000000.0 -771642000000.0 -81015300000.0 -503856000000.0 -623532000000.0 -1.21536e+12 -433042000000.0 -829350000000.0 -680420000000.0 -952258000000.0 -757472000000.0 -1.5381e+12 -2.03477e+12 -1.07779e+12 -1.04716e+12 -1.70151e+12 -1.05434e+12 -1.94653e+12 -1.51362e+12 -1.67953e+12 -1.88909e+12 -1.47174e+12 -1.32425e+12 -2.53182e+12 -1.87004e+12 -2.13361e+12 -1.52958e+12 -1.71136e+12 -2.79994e+12 -1.6959e+12 -1.36869e+12 -1.64655e+12 -1.99544e+12 -1.33014e+12 -1.74786e+12 -1.31024e+12 -3.09928e+12 -2.2645e+12 -985029000000.0 -721585000000.0 -1.24128e+12 -675642000000.0 -1.43679e+12 -1.39773e+12 -2.01635e+12 -2.46689e+12 -1.43465e+12 -774198000000.0 -1.15833e+12 -2.14064e+12 -1.30006e+12 -1.19145e+12 -135084000000.0 -1.84088e+12 -1.09964e+12 -2.01602e+12 -455329000000.0 -1.74865e+12 -1.02571e+12 -799086000000.0 -1.55478e+12 -1.19136e+12 -713853000000.0 -891915000000.0 -637646000000.0 -1.56741e+12 -773128000000.0 -1.06647e+12 -332832000000.0 -183199000000.0 -340652000000.0 -495609000000.0 -862453000000.0 -563032000000.0 -260102000000.0 -732658000000.0 -444670000000.0 -207166000000.0 -208176000000.0 -366718000000.0 -139277000000.0 -37038400000.0 -134851000000.0 -12778900000.0 -284440000000.0 -204016000000.0 -251507000000.0 -211149000000.0 -110269000000.0 -237722000000.0 -325558000000.0 -102199000000.0 -188516000000.0 -106779000000.0 -72557000000.0 -115905000000.0 -15038200000.0 -323125000000.0 -177138000000.0 -153641000000.0 -303565000000.0 -67599400000.0 -415640000000.0 -182298000000.0 -391881000000.0 -32195600000.0 -337115000000.0 -650463000000.0 -240336000000.0 -30209300000.0 -394503000000.0 -272616000000.0 -581726000000.0 -856939000000.0 -588150000000.0 -1.33726e+12 -861389000000.0 -406257000000.0 -1.47894e+12 -1.36011e+12 -482133000000.0 -916729000000.0 -2.50805e+12 -988629000000.0 -760460000000.0 -559709000000.0 -1.34499e+12 -1.45951e+12 -1.11622e+12 -1.16432e+12 -1.44322e+12 -809720000000.0 -699837000000.0 -1.2878e+12 -525868000000.0 -1.6042e+12 -2.09358e+12 -977967000000.0 -959408000000.0 -1.63864e+12 -1.55569e+12 -1.57013e+12 -1.91095e+12 -1.94357e+12 -807640000000.0 -527018000000.0 -1.60887e+12 -652497000000.0 -1.19886e+12 -1.89724e+12 -932363000000.0 -808367000000.0 -1.43275e+12 -1.07218e+12 -1.10342e+12 -624900000000.0 -623027000000.0 -1.26636e+12 -979093000000.0 -697270000000.0 -946830000000.0 -762120000000.0 -619901000000.0 -809378000000.0 -991341000000.0 -1.44634e+12 -1.44645e+12 -964266000000.0 -330012000000.0 -780559000000.0 -764028000000.0 -1.03007e+12 -1.07525e+12 -1.03097e+12 -374519000000.0 -363756000000.0 -674407000000.0 -693073000000.0 -1.02875e+12 -360391000000.0 -540980000000.0 -109768000000.0 -326302000000.0 -463125000000.0 -343351000000.0 -205964000000.0 -196506000000.0 -157261000000.0 -190225000000.0 -141292000000.0 -232800000000.0 -134781000000.0 -301329000000.0 -157777000000.0 -296449000000.0 -184348000000.0 -260477000000.0 -131554000000.0 -227584000000.0 -30228600000.0 -44498600000.0 -90755500000.0 -162174000000.0 -68730500000.0 -51651400000.0 -370965000000.0 -490233000000.0 -215464000000.0 -249328000000.0 -146242000000.0 -100251000000.0 -358585000000.0 -101686000000.0 -432286000000.0 -333881000000.0 -231083000000.0 -690805000000.0 -902559000000.0 -521915000000.0 -777522000000.0 -288813000000.0 -466052000000.0 -609745000000.0 -816726000000.0 -349982000000.0 -876708000000.0 -788959000000.0 -407651000000.0 -978190000000.0 -1.2941e+12 -237490000000.0 -1.18203e+12 -1.24473e+12 -1.68036e+12 -693100000000.0 -802779000000.0 -1.21708e+12 -1.1879e+12 -439539000000.0 -247011000000.0 -784236000000.0 -798063000000.0 -1.21754e+12 -354167000000.0 -1.57441e+12 -617375000000.0 -866860000000.0 -883511000000.0 -841850000000.0 -689621000000.0 -1.85062e+12 -1.79786e+12 -1.04876e+12 -819780000000.0 -1.74025e+12 -1.46839e+12 -1.76334e+12 -846706000000.0 -1.11051e+12 -1.80132e+12 -972961000000.0 -1.85131e+12 -285286000000.0 -567297000000.0 -714764000000.0 -555273000000.0 -355965000000.0 -744203000000.0 -1.29815e+12 -1.08473e+12 -488437000000.0 -615680000000.0 -317019000000.0 -243257000000.0 -1.26806e+12 -264493000000.0 -865892000000.0 -619855000000.0 -285386000000.0 -558201000000.0 -56046300000.0 -944448000000.0 -980820000000.0 -584132000000.0 -451265000000.0 -693413000000.0 -542175000000.0 -460270000000.0 -202431000000.0 -391397000000.0 -407850000000.0 -505520000000.0 -167678000000.0 -170712000000.0 -249877000000.0 -323369000000.0 -310235000000.0 -42279100000.0 -130082000000.0 -18514500000.0 -248297000000.0 -14524200000.0 -78567800000.0 -202065000000.0 -138111000000.0 -105057000000.0 -187898000000.0 -137448000000.0 -149029000000.0 -163485000000.0 -160371000000.0 -111959000000.0 -342574000000.0 -12770500000.0 -69422600000.0 -136552000000.0 -54825700000.0 -330247000000.0 -286814000000.0 -247079000000.0 -233971000000.0 -125055000000.0 -190265000000.0 -361814000000.0 -592401000000.0 -308059000000.0 -344370000000.0 -165559000000.0 -41066400000.0 -618131000000.0 -48334500000.0 -44610200000.0 -1.38837e+12 -682615000000.0 -838728000000.0 -1.11261e+12 -1.34027e+12 -377391000000.0 -876567000000.0 -586499000000.0 -1.16333e+12 -1.10212e+12 -850915000000.0 -1.45589e+12 -605938000000.0 -839185000000.0 -780461000000.0 -908214000000.0 -863593000000.0 -954701000000.0 -480604000000.0 -420071000000.0 -1.03556e+12 -684476000000.0 -622343000000.0 -1.28123e+12 -1.05437e+12 -434003000000.0 -981243000000.0 -1.48254e+12 -617252000000.0 -920211000000.0 -116865000000.0 -642143000000.0 -972417000000.0 -612371000000.0 -1.25088e+12 -635110000000.0 -456470000000.0 -638316000000.0 -775978000000.0 -1.01082e+12 -368258000000.0 -205921000000.0 -218819000000.0 -65166300000.0 -1.07488e+12 -173101000000.0 -923574000000.0 -293178000000.0 -488103000000.0 -1.00362e+12 -212637000000.0 -490830000000.0 -464062000000.0 -421091000000.0 -502613000000.0 -527176000000.0 -321252000000.0 -23453500000.0 -282577000000.0 -349944000000.0 -116338000000.0 -311879000000.0 -35873500000.0 -58084300000.0 -119373000000.0 -267081000000.0 -19348400000.0 -22206300000.0 -139749000000.0 -128906000000.0 -131200000000.0 -143165000000.0 -60231600000.0 -58800300000.0 -93420000000.0 -118091000000.0 -53324500000.0 -61728900000.0 -18431100000.0 -66126900000.0 -53584100000.0 -137176000000.0 -326914000000.0 -47280300000.0 -13752400000.0 -60658400000.0 -99082400000.0 -90183800000.0 -283837000000.0 -148443000000.0 -161125000000.0 -235187000000.0 -85169400000.0 -113608000000.0 -754056000000.0 -292734000000.0 -103966000000.0 -321276000000.0 -17026400000.0 -509291000000.0 -211612000000.0 -752291000000.0 -231484000000.0 -101699000000.0 -417194000000.0 -554716000000.0 -435142000000.0 -801653000000.0 -32134900000.0 -505862000000.0 -630064000000.0 -548010000000.0 -772177000000.0 -1.09035e+12 -969121000000.0 -1.09268e+12 -404262000000.0 -1.00942e+12 -948991000000.0 -809560000000.0 -416190000000.0 -1.26051e+12 -512444000000.0 -352421000000.0 -1.28865e+12 -528940000000.0 -1.25901e+12 -1.30476e+12 -901078000000.0 -220105000000.0 -1.60335e+12 -1.56819e+12 -710547000000.0 -873580000000.0 -910852000000.0 -951789000000.0 -525801000000.0 -27608700000.0 -657170000000.0 -890430000000.0 -1.3287e+12 -692715000000.0 -355135000000.0 -774191000000.0 -1.18174e+12 -1.23138e+12 -518493000000.0 -314733000000.0 -315290000000.0 -256380000000.0 -964659000000.0 -271935000000.0 -381962000000.0 -302000000000.0 -945909000000.0 -300985000000.0 -625623000000.0 -291996000000.0 -340344000000.0 -261279000000.0 -419399000000.0 -150786000000.0 -144272000000.0 -514921000000.0 -373639000000.0 -170915000000.0 -261971000000.0 -250964000000.0 -177630000000.0 -241645000000.0 -191026000000.0 -146115000000.0 -139244000000.0 -83908400000.0 -34845200000.0 -27717000000.0 -118455000000.0 -80427900000.0 -104568000000.0 -104143000000.0 -52620300000.0 -58429300000.0 -29592400000.0 -103906000000.0 -59827500000.0 -54010200000.0 -35544200000.0 -67755400000.0 -97059700000.0 -70035200000.0 -124706000000.0 -238607000000.0 -147953000000.0 -89790800000.0 -225390000000.0 -292303000000.0 -57686400000.0 -65939900000.0 -208269000000.0 -141683000000.0 -86322100000.0 -88120100000.0 -610839000000.0 -30105700000.0 -327558000000.0 -284120000000.0 -549335000000.0 -269165000000.0 -347337000000.0 -535301000000.0 -144891000000.0 -360082000000.0 -213139000000.0 -621980000000.0 -515455000000.0 -340565000000.0 -529027000000.0 -418399000000.0 -1.0297e+12 -877807000000.0 -1.16519e+12 -335252000000.0 -510128000000.0 -812435000000.0 -127084000000.0 -1.10636e+12 -904460000000.0 -1.11822e+12 -157046000000.0 -341962000000.0 -798488000000.0 -631835000000.0 -760504000000.0 -323282000000.0 -1.4255e+12 -786056000000.0 -412139000000.0 -1.00874e+12 -792635000000.0 -397072000000.0 -889530000000.0 -506282000000.0 -219862000000.0 -1.05248e+12 -162692000000.0 -597311000000.0 -815134000000.0 -381705000000.0 -282904000000.0 -767216000000.0 -576270000000.0 -506970000000.0 -602350000000.0 -427491000000.0 -534707000000.0 -460118000000.0 -310241000000.0 -486213000000.0 -506739000000.0 -484513000000.0 -485330000000.0 -588846000000.0 -62803200000.0 -70085100000.0 -417913000000.0 -302184000000.0 -373732000000.0 -249813000000.0 -217894000000.0 -417168000000.0 -69544200000.0 -103470000000.0 -67731600000.0 -141461000000.0 -62652100000.0 -93958600000.0 -14929700000.0 -38339100000.0 -90742300000.0 -79020600000.0 -51162200000.0 -38995300000.0 -45217600000.0 -101154000000.0 -77048800000.0 -75418700000.0 -84634500000.0 -130002000000.0 -128207000000.0 -152114000000.0 -76983000000.0 -140232000000.0 -73153600000.0 -93855200000.0 -143522000000.0 -44298700000.0 -236499000000.0 -145921000000.0 -246857000000.0 -236509000000.0 -227352000000.0 -213128000000.0 -309295000000.0 -176123000000.0 -312193000000.0 -164131000000.0 -271811000000.0 -41458200000.0 -151515000000.0 -275181000000.0 -273417000000.0 -138849000000.0 -420254000000.0 -143488000000.0 -172970000000.0 -663906000000.0 -252243000000.0 -577077000000.0 -194161000000.0 -600397000000.0 -796040000000.0 -271706000000.0 -256220000000.0 -255603000000.0 -190904000000.0 -579652000000.0 -263772000000.0 -521947000000.0 -659481000000.0 -300773000000.0 -403114000000.0 -383662000000.0 -499214000000.0 -584350000000.0 -508423000000.0 -1.11073e+12 -291752000000.0 -650911000000.0 -1.1983e+12 -933446000000.0 -735169000000.0 -327712000000.0 -260461000000.0 -582649000000.0 -423521000000.0 -757471000000.0 -84749300000.0 -270955000000.0 -320286000000.0 -270258000000.0 -257027000000.0 -70752500000.0 -349713000000.0 -253437000000.0 -380040000000.0 -315568000000.0 -408389000000.0 -410641000000.0 -238856000000.0 -77107700000.0 -147929000000.0 -688221000000.0 -700058000000.0 -387103000000.0 -217296000000.0 -143461000000.0 -123230000000.0 -173641000000.0 -88641600000.0 -75222700000.0 -296500000000.0 -152562000000.0 -86224700000.0 -146050000000.0 -122255000000.0 -19874100000.0 -17629800000.0 -21136800000.0 -80787700000.0 -44459000000.0 -26030500000.0 -13774400000.0 -15117300000.0 -75315300000.0 -40011800000.0 -40650500000.0 -62084900000.0 -44502900000.0 -63239000000.0 -90222400000.0 -69348300000.0 -73241700000.0 -63600700000.0 -12908100000.0 -79062100000.0 -41935900000.0 -201538000000.0 -134311000000.0 -241552000000.0 -19538300000.0 -270169000000.0 -231013000000.0 -159012000000.0 -18627200000.0 -253371000000.0 -239261000000.0 -315066000000.0 -445446000000.0 -194375000000.0 -378154000000.0 -84725500000.0 -143993000000.0 -435670000000.0 -312771000000.0 -739465000000.0 -828357000000.0 -500859000000.0 -179952000000.0 -187117000000.0 -22545400000.0 -580156000000.0 -321397000000.0 -237857000000.0 -387954000000.0 -745321000000.0 -308658000000.0 -324033000000.0 -377912000000.0 -903247000000.0 -690889000000.0 -710401000000.0 -633578000000.0 -1.00793e+12 -461023000000.0 -570455000000.0 -523111000000.0 -472204000000.0 -516311000000.0 -527465000000.0 -354497000000.0 -264256000000.0 -289112000000.0 -222720000000.0 -542381000000.0 -213152000000.0 -761808000000.0 -172467000000.0 -214374000000.0 -151787000000.0 -173969000000.0 -254922000000.0 -160817000000.0 -13494900000.0 -167224000000.0 -321064000000.0 -302740000000.0 -101066000000.0 -263240000000.0 -181151000000.0 -174456000000.0 -198315000000.0 -153057000000.0 -287507000000.0 -165729000000.0 -218697000000.0 -107216000000.0 -126862000000.0 -119198000000.0 -104662000000.0 -33794200000.0 -34243600000.0 -181169000000.0 -41949500000.0 -117077000000.0 -122342000000.0 -66548100000.0 -91257400000.0 -74469200000.0 -90349600000.0 -32441200000.0 -32029800000.0 -39097800000.0 -34657200000.0 -46847200000.0 -51007300000.0 -45934200000.0 -13479900000.0 -42596100000.0 -18341400000.0 -17437000000.0 -127808000000.0 -63656200000.0 -98166600000.0 -88675900000.0 -67653400000.0 -128551000000.0 -36524900000.0 -98307000000.0 -97353100000.0 -75971400000.0 -157053000000.0 -279504000000.0 -50431000000.0 -111888000000.0 -146728000000.0 -322088000000.0 -163746000000.0 -232478000000.0 -378885000000.0 -217094000000.0 -557319000000.0 -13556700000.0 -459735000000.0 -275607000000.0 -491473000000.0 -212459000000.0 -47337100000.0 -65306800000.0 -616811000000.0 -506889000000.0 -68660900000.0 -19723100000.0 -719186000000.0 -565781000000.0 -169995000000.0 -223186000000.0 -181683000000.0 -407329000000.0 -482884000000.0 -114910000000.0 -314149000000.0 -615056000000.0 -243740000000.0 -355972000000.0 -240504000000.0 -508013000000.0 -778319000000.0 -601917000000.0 -370134000000.0 -257182000000.0 -192438000000.0 -215551000000.0 -200282000000.0 -137608000000.0 -202964000000.0 -211870000000.0 -324711000000.0 -475888000000.0 -136213000000.0 -347135000000.0 -264682000000.0 -69577400000.0 -80515100000.0 -207629000000.0 -269415000000.0 -108466000000.0 -166515000000.0 -186869000000.0 -80103200000.0 -90612100000.0 -191130000000.0 -36768600000.0 -94873800000.0 -185609000000.0 -201739000000.0 -18395200000.0 -28390800000.0 -75257000000.0 -116619000000.0 -76742600000.0 -74972000000.0 -105556000000.0 -126263000000.0 -63403100000.0 -76409000000.0 -79846600000.0 -58329500000.0 -18722400000.0 -16228600000.0 -18060700000.0 -79449700000.0 -45134300000.0 -14344700000.0 -51481100000.0 -48604200000.0 -54241100000.0 -79555900000.0 -54395300000.0 -54473200000.0 -61004600000.0 -66706600000.0 -64374300000.0 -87613400000.0 -67353900000.0 -100559000000.0 -20114400000.0 -19877900000.0 -18825000000.0 -83051400000.0 -21672400000.0 -53165200000.0 -100920000000.0 -19835100000.0 -106321000000.0 -131915000000.0 -18509100000.0 -18570300000.0 -152261000000.0 -59166000000.0 -195240000000.0 -102026000000.0 -313733000000.0 -24495800000.0 -383621000000.0 -137106000000.0 -189491000000.0 -163865000000.0 -191125000000.0 -516432000000.0 -33318700000.0 -207355000000.0 -368695000000.0 -199233000000.0 -84317600000.0 -346329000000.0 -561862000000.0 -200906000000.0 -155697000000.0 -162026000000.0 -145615000000.0 -101335000000.0 -300150000000.0 -636104000000.0 -187836000000.0 -88455200000.0 -372982000000.0 -68111600000.0 -304074000000.0 -572055000000.0 -219257000000.0 -508341000000.0 -481436000000.0 -295959000000.0 -212057000000.0 -239314000000.0 -14687100000.0 -184477000000.0 -77247300000.0 -82233400000.0 -294505000000.0 -75384000000.0 -330163000000.0 -344757000000.0 -16306600000.0 -166597000000.0 -221825000000.0 -95609900000.0 -110290000000.0 -176849000000.0 -186086000000.0 -223319000000.0 -193583000000.0 -230047000000.0 -172815000000.0 -228730000000.0 -163973000000.0 -123460000000.0 -202435000000.0 -124629000000.0 -111298000000.0 -248776000000.0 -21765900000.0 -27012900000.0 -49205400000.0 -12906600000.0 -78342300000.0 -45033700000.0 -55509300000.0 -29548700000.0 -69509900000.0 -31851400000.0 -51744600000.0 -43006100000.0 -14690800000.0 -47824600000.0 -45974200000.0 -66438100000.0 -14973100000.0 -14108800000.0 -17014700000.0 -16293900000.0 -47373100000.0 -25648800000.0 -41021600000.0 -35011300000.0 -16748700000.0 -12549700000.0 -68774200000.0 -12549700000.0 -81079100000.0 -19198700000.0 -89927300000.0 -32736200000.0 -73936300000.0 -16177800000.0 -144018000000.0 -87656200000.0 -68189700000.0 -99336300000.0 -148468000000.0 -61078400000.0 -65818200000.0 -58421000000.0 -294321000000.0 -286580000000.0 -116687000000.0 -31883000000.0 -57531300000.0 -28119500000.0 -24014700000.0 -351080000000.0 -250447000000.0 -136731000000.0 -173301000000.0 -44803600000.0 -106619000000.0 -396399000000.0 -201964000000.0 -205608000000.0 -184023000000.0 -101195000000.0 -172687000000.0 -75600600000.0 -358799000000.0 -151517000000.0 -295667000000.0 -169757000000.0 -452576000000.0 -264363000000.0 -147486000000.0 -212148000000.0 -317990000000.0 -113484000000.0 -245071000000.0 -218401000000.0 -134629000000.0 -168186000000.0 -169431000000.0 -143172000000.0 -204550000000.0 -153946000000.0 -150939000000.0 -278184000000.0 -234007000000.0 -82811900000.0 -120196000000.0 -85844900000.0 -83059300000.0 -153345000000.0 -73209200000.0 -121609000000.0 -83880200000.0 -146595000000.0 -21681100000.0 -151771000000.0 -135381000000.0 -72632100000.0 -108805000000.0 -117788000000.0 -107815000000.0 -175866000000.0 -87396000000.0 -42639500000.0 -20644500000.0 -73318400000.0 -49192700000.0 -31615800000.0 -26840700000.0 -31703400000.0 -39737400000.0 -69020500000.0 -13428300000.0 -36564800000.0 -21753100000.0 -20680000000.0 -17802300000.0 -35315900000.0 -17401800000.0 -19166200000.0 -24158600000.0 -39076500000.0 -12549700000.0 -12549700000.0 -25105600000.0 -18820400000.0 -26476900000.0 -25819300000.0 -28578000000.0 -63900500000.0 -41145500000.0 -77252100000.0 -52859300000.0 -23925400000.0 -105740000000.0 -153574000000.0 -108896000000.0 -75763400000.0 -56695700000.0 -104885000000.0 -55091500000.0 -64935700000.0 -115699000000.0 -24983900000.0 -20339000000.0 -211126000000.0 -125506000000.0 -111222000000.0 -15689200000.0 -36748500000.0 -36180100000.0 -205178000000.0 -300123000000.0 -39569100000.0 -206577000000.0 -145773000000.0 -221531000000.0 -141546000000.0 -139047000000.0 -34035400000.0 -161987000000.0 -350989000000.0 -155697000000.0 -267168000000.0 -234861000000.0 -141389000000.0 -174373000000.0 -28746500000.0 -177152000000.0 -272240000000.0 -399558000000.0 -114818000000.0 -183006000000.0 -124665000000.0 -21976500000.0 -138267000000.0 -149755000000.0 -27782200000.0 -72889000000.0 -237335000000.0 -32412300000.0 -89158900000.0 -86851500000.0 -155173000000.0 -133761000000.0 -101393000000.0 -70943000000.0 -92492800000.0 -92065100000.0 -167659000000.0 -68386200000.0 -117528000000.0 -55007700000.0 -30332300000.0 -71999600000.0 -52520000000.0 -23693200000.0 -78803500000.0 -69362200000.0 -13567500000.0 -49675300000.0 -45159100000.0 -60075400000.0 -31620600000.0 -16571500000.0 -15222200000.0 -25106200000.0 -25961200000.0 -31493500000.0 -35571200000.0 -23482000000.0 -39348700000.0 -22946700000.0 -22376200000.0 -23833300000.0 -14823500000.0 -12921200000.0 -12770000000.0 -16049000000.0 -26141800000.0 -13057300000.0 -13752200000.0 -12549700000.0 -19816700000.0 -12549700000.0 -17661400000.0 -15759200000.0 -14980200000.0 -45212800000.0 -20193600000.0 -33757200000.0 -79448800000.0 -61938200000.0 -63972000000.0 -25618500000.0 -43512900000.0 -28804900000.0 -48044500000.0 -19033000000.0 -47953800000.0 -58002500000.0 -21391800000.0 -110836000000.0 -48874900000.0 -83634500000.0 -102909000000.0 -50478500000.0 -85964800000.0 -196466000000.0 -51253700000.0 -23766900000.0 -13947400000.0 -23831400000.0 -142969000000.0 -130589000000.0 -113044000000.0 -81494900000.0 -72716400000.0 -26771300000.0 -145178000000.0 -42831000000.0 -27851800000.0 -91943900000.0 -67208600000.0 -87469600000.0 -267664000000.0 -132874000000.0 -125009000000.0 -110346000000.0 -182471000000.0 -62764900000.0 -84155200000.0 -98120600000.0 -51622800000.0 -260769000000.0 -26068000000.0 -84510400000.0 -98404100000.0 -115948000000.0 -34635100000.0 -172074000000.0 -158794000000.0 -155995000000.0 -221893000000.0 -157611000000.0 -63748700000.0 -49541100000.0 -115116000000.0 -52208500000.0 -88440500000.0 -56606100000.0 -31224900000.0 -12549700000.0 -43195500000.0 -128712000000.0 -30503200000.0 -29631000000.0 -26485800000.0 -56458100000.0 -36184500000.0 -46405200000.0 -50979000000.0 -32005700000.0 -64044700000.0 -37578100000.0 -24323500000.0 -21671300000.0 -14254600000.0 -37423300000.0 -42953800000.0 -22696100000.0 -22311700000.0 -15142600000.0 -25041800000.0 -18045200000.0 -26541400000.0 -16053000000.0 -12857000000.0 -17682300000.0 -13953900000.0 -12549700000.0 -12549700000.0 -13427800000.0 -21045900000.0 -14599700000.0 -13260800000.0 -18400200000.0 -13640700000.0 -17284900000.0 -14780300000.0 -14377300000.0 -25938200000.0 -30426500000.0 -16400700000.0 -25095400000.0 -31143900000.0 -36853000000.0 -30551100000.0 -23855800000.0 -38266100000.0 -70882900000.0 -51259200000.0 -57617100000.0 -72040500000.0 -21695200000.0 -81314900000.0 -21809500000.0 -36572900000.0 -35000700000.0 -169642000000.0 -49005500000.0 -130764000000.0 -96083900000.0 -13250600000.0 -51799800000.0 -37934700000.0 -35523300000.0 -31012200000.0 -80645600000.0 -40814400000.0 -52211300000.0 -78983900000.0 -164631000000.0 -30661700000.0 -193569000000.0 -235194000000.0 -113320000000.0 -139509000000.0 -15927600000.0 -29892200000.0 -100841000000.0 -227787000000.0 -108434000000.0 -12549700000.0 -92633900000.0 -103836000000.0 -82615100000.0 -60974100000.0 -24036500000.0 -64456000000.0 -48245800000.0 -21794700000.0 -53687900000.0 -30698600000.0 -40575700000.0 -30921900000.0 -18641600000.0 -18729800000.0 -21726000000.0 -57551000000.0 -26943900000.0 -20661800000.0 -20754300000.0 -26891200000.0 -26637600000.0 -22613000000.0 -36219600000.0 -33139900000.0 -24578600000.0 -37959500000.0 -20085400000.0 -15749000000.0 -13887500000.0 -27430800000.0 -23843800000.0 -12549700000.0 -14948200000.0 -17182800000.0 -14070200000.0 -18487900000.0 -12549700000.0 -20725600000.0 -13469000000.0 -12709200000.0 -15808600000.0 -12565200000.0 -12549700000.0 -12556800000.0 -12675400000.0 -17587200000.0 -12549700000.0 -18627500000.0 -15316400000.0 -13526400000.0 -13476000000.0 -14227800000.0 -18723700000.0 -15023400000.0 -18981300000.0 -14570600000.0 -15024000000.0 -14876000000.0 -21674700000.0 -16807200000.0 -19133700000.0 -20990900000.0 -25034100000.0 -34464200000.0 -37887900000.0 -31899700000.0 -13713400000.0 -38912100000.0 -24705100000.0 -17094600000.0 -41505700000.0 -69813900000.0 -79155600000.0 -70592600000.0 -120335000000.0 -52892700000.0 -33142400000.0 -18755900000.0 -43482700000.0 -35117500000.0 -45138000000.0 -15766500000.0 -54707700000.0 -13767300000.0 -46993600000.0 -43321700000.0 -13130400000.0 -85421900000.0 -49768500000.0 -103435000000.0 -66296300000.0 -88187200000.0 -61464800000.0 -128083000000.0 -114359000000.0 -83182300000.0 -149152000000.0 -49877900000.0 -33243800000.0 -22427200000.0 -47350900000.0 -40715600000.0 -22913200000.0 -31000200000.0 -39012400000.0 -34260600000.0 -21981800000.0 -38788300000.0 -21900400000.0 -27549100000.0 -27619500000.0 -23645500000.0 -22338500000.0 -27016900000.0 -14618800000.0 -16141900000.0 -15030800000.0 -14024500000.0 -14460100000.0 -15586500000.0 -13848500000.0 -13415000000.0 -12922400000.0 -14609600000.0 -22777500000.0 -16693300000.0 -13377600000.0 -14394100000.0 -15970300000.0 -12786400000.0 -15442800000.0 -13354500000.0 -13512800000.0 -12549700000.0 -13993200000.0 -12834200000.0 -13940500000.0 -15305400000.0 -14374400000.0 -13307700000.0 -13084000000.0 -13223400000.0 -13286000000.0 -13513600000.0 -15855400000.0 -14312200000.0 -15299200000.0 -13394800000.0 -12890100000.0 -12918500000.0 -14663600000.0 -13389800000.0 -15318500000.0 -17240400000.0 -13378200000.0 -13367900000.0 -16308100000.0 -17899000000.0 -18698800000.0 -20377300000.0 -15192100000.0 -17991800000.0 -25259000000.0 -27238100000.0 -24537800000.0 -30373900000.0 -24648400000.0 -12549700000.0 -21870200000.0 -15543300000.0 -17964700000.0 -17440400000.0 -13771100000.0 -22695200000.0 -17893600000.0 -13576000000.0 -19916700000.0 -17548100000.0 -31716000000.0 -42181000000.0 -27230100000.0 -18842600000.0 -28765000000.0 -35728800000.0 -14685900000.0 -18133300000.0 -28861400000.0 -31129200000.0 -40361300000.0 -31481200000.0 -41183400000.0 -43986200000.0 -37127500000.0 -20239300000.0 -12549700000.0 -16598600000.0 