# vtk DataFile Version 2.0
Time step 85
ASCII
DATASET UNSTRUCTURED_GRID
POINTS 4650 float
294561.0 304342.0 0
205475.0 307170.0 0
208956.0 305211.0 0
212394.0 307243.0 0
215811.0 305219.0 0
219571.0 306508.0 0
237203.0 307176.0 0
244165.0 306996.0 0
247606.0 304958.0 0
251104.0 306898.0 0
258066.0 306879.0 0
264332.0 306060.0 0
277205.0 306442.0 0
284204.0 306345.0 0
291108.0 306330.0 0
298002.0 306350.0 0
202000.0 309137.0 0
208926.0 309193.0 0
215871.0 309233.0 0
223279.0 307941.0 0
226890.0 309601.0 0
233805.0 309284.0 0
240735.0 309052.0 0
247662.0 308935.0 0
254590.0 308857.0 0
261522.0 308888.0 0
266688.0 309276.0 0
273745.0 308506.0 0
280762.0 308365.0 0
287671.0 308323.0 0
294559.0 308332.0 0
205459.0 311145.0 0
212405.0 311211.0 0
219661.0 310487.0 0
223386.0 311919.0 0
230429.0 311414.0 0
237337.0 311152.0 0
244239.0 310973.0 0
251142.0 310875.0 0
258048.0 310857.0 0
270165.0 311218.0 0
273937.0 312477.0 0
277341.0 310415.0 0
280838.0 312342.0 0
284244.0 310328.0 0
287706.0 312301.0 0
291125.0 310313.0 0
294570.0 312303.0 0
298003.0 310329.0 0
201998.0 313110.0 0
205450.0 315096.0 0
208921.0 313150.0 0
215860.0 313216.0 0
219656.0 314446.0 0
227015.0 313577.0 0
233958.0 313263.0 0
237499.0 315112.0 0
240851.0 313032.0 0
244326.0 314946.0 0
247714.0 312903.0 0
251156.0 314842.0 0
254596.0 312836.0 0
258034.0 314825.0 0
261489.0 312856.0 0
265444.0 313058.0 0
268899.0 314992.0 0
277456.0 314371.0 0
284304.0 314298.0 0
291152.0 314280.0 0
298004.0 314291.0 0
201997.0 317059.0 0
208888.0 317091.0 0
212369.0 315159.0 0
215794.0 317176.0 0
223378.0 315877.0 0
227002.0 317533.0 0
230572.0 315381.0 0
234195.0 317206.0 0
240979.0 317007.0 0
247763.0 316875.0 0
254560.0 316791.0 0
261493.0 316804.0 0
265465.0 317041.0 0
274108.0 316410.0 0
280924.0 316306.0 0
287751.0 316262.0 0
294585.0 316259.0 0
205429.0 319032.0 0
212299.0 319097.0 0
219569.0 318385.0 0
223263.0 319813.0 0
230944.0 319300.0 0
237677.0 319084.0 0
244414.0 318925.0 0
251161.0 318812.0 0
257914.0 318754.0 0
267504.0 320434.0 0
270801.0 318437.0 0
274242.0 320361.0 0
277571.0 318328.0 0
281009.0 320260.0 0
284369.0 318255.0 0
287797.0 320210.0 0
291182.0 318231.0 0
294601.0 320200.0 0
298005.0 318238.0 0
201995.0 320991.0 0
205402.0 322960.0 0
208834.0 321024.0 0
215674.0 321117.0 0
219399.0 322304.0 0
227747.0 321387.0 0
234419.0 321170.0 0
241108.0 320989.0 0
244499.0 322910.0 0
247810.0 320854.0 0
251170.0 322791.0 0
254517.0 320759.0 0
257835.0 322716.0 0
261207.0 320710.0 0
264412.0 322676.0 0
270934.0 322395.0 0
277671.0 322277.0 0
284431.0 322199.0 0
291212.0 322167.0 0
298007.0 322170.0 0
201993.0 324912.0 0
208773.0 324961.0 0
212198.0 323036.0 0
215515.0 325039.0 0
221533.0 325507.0 0
224615.0 323466.0 0
228033.0 325345.0 0
231205.0 323259.0 0
234610.0 325151.0 0
237841.0 323067.0 0
241225.0 324978.0 0
247859.0 324838.0 0
254501.0 324735.0 0
261118.0 324679.0 0
267728.0 324517.0 0
274353.0 324306.0 0
281083.0 324200.0 0
287840.0 324142.0 0
294615.0 324125.0 0
205370.0 326883.0 0
212099.0 326996.0 0
218441.0 327454.0 0
224885.0 327419.0 0
231410.0 327238.0 0
237981.0 327055.0 0
244580.0 326897.0 0
251195.0 326770.0 0
257811.0 326683.0 0
264444.0 326594.0 0
271082.0 326369.0 0
277753.0 326214.0 0
281142.0 328124.0 0
284483.0 326127.0 0
287875.0 328057.0 0
291238.0 326087.0 0
294628.0 328033.0 0
298008.0 326084.0 0
201991.0 328825.0 0
205339.0 330803.0 0
208704.0 328899.0 0
215218.0 329242.0 0
221720.0 329443.0 0
228226.0 329317.0 0
234762.0 329137.0 0
241327.0 328966.0 0
247913.0 328819.0 0
251233.0 330740.0 0
254514.0 328703.0 0
257836.0 330624.0 0
261137.0 328610.0 0
264481.0 330496.0 0
267792.0 328447.0 0
271144.0 330299.0 0
274448.0 328249.0 0
277817.0 330137.0 0
284525.0 330037.0 0
291259.0 329988.0 0
298009.0 329980.0 0
201989.0 332727.0 0
208637.0 332852.0 0
211940.0 331019.0 0
215215.0 333167.0 0
218485.0 331355.0 0
221796.0 333351.0 0
225031.0 331368.0 0
228347.0 333276.0 0
231557.0 331216.0 0
234879.0 333116.0 0
238096.0 331041.0 0
241416.0 332947.0 0
244655.0 330879.0 0
247969.0 332790.0 0
254549.0 332651.0 0
261170.0 332519.0 0
267830.0 332348.0 0
274498.0 332162.0 0
281186.0 332029.0 0
287902.0 331951.0 0
294638.0 331921.0 0
205318.0 334716.0 0
211937.0 334956.0 0
218530.0 335248.0 0
225115.0 335295.0 0
231662.0 335179.0 0
238192.0 335017.0 0
244725.0 334851.0 0
251279.0 334693.0 0
257872.0 334543.0 0
264512.0 334384.0 0
271177.0 334195.0 0
277855.0 334032.0 0
281213.0 335907.0 0
284554.0 333924.0 0
287921.0 335823.0 0
291275.0 333868.0 0
294645.0 335787.0 0
298010.0 333855.0 0
201988.0 336611.0 0
205324.0 338594.0 0
208642.0 336763.0 0
215256.0 337073.0 0
221857.0 337252.0 0
228433.0 337214.0 0
234973.0 337079.0 0
241496.0 336916.0 0
248026.0 336748.0 0
254589.0 336579.0 0
257904.0 338443.0 0
261201.0 336411.0 0
264535.0 338255.0 0
267855.0 336227.0 0
271196.0 338063.0 0
274526.0 336045.0 0
277875.0 337899.0 0
284572.0 337787.0 0
291286.0 337725.0 0
298011.0 337708.0 0
201987.0 340463.0 0
208668.0 340630.0 0
211975.0 338854.0 0
215313.0 340970.0 0
218587.0 339142.0 0
221922.0 341149.0 0
225185.0 339207.0 0
228514.0 341134.0 0
231749.0 339122.0 0
235061.0 341026.0 0
238277.0 338978.0 0
241572.0 340872.0 0
244792.0 338810.0 0
248082.0 340690.0 0
251325.0 338629.0 0
254625.0 340489.0 0
261225.0 340284.0 0
267869.0 340083.0 0
274539.0 339899.0 0
281227.0 339758.0 0
287932.0 339670.0 0
294650.0 339630.0 0
205333.0 342431.0 0
212021.0 342717.0 0
218651.0 343038.0 0
225265.0 343106.0 0
231842.0 343048.0 0
238364.0 342926.0 0
244858.0 342755.0 0
251368.0 342551.0 0
257930.0 342323.0 0
264549.0 342105.0 0
271204.0 341904.0 0
274539.0 343723.0 0
277883.0 341737.0 0
281229.0 343580.0 0
284580.0 341622.0 0
287936.0 343491.0 0
291292.0 341558.0 0
294652.0 343449.0 0
298012.0 341538.0 0
201987.0 344284.0 0
205334.0 346230.0 0
208687.0 344451.0 0
212046.0 346533.0 0
215373.0 344864.0 0
222003.0 345037.0 0
228614.0 345037.0 0
235161.0 344959.0 0
241653.0 344816.0 0
248136.0 344621.0 0
254655.0 344381.0 0
257948.0 346182.0 0
261240.0 344136.0 0
264553.0 345933.0 0
267874.0 343915.0 0
271198.0 345718.0 0
277877.0 345543.0 0
284579.0 345429.0 0
291293.0 345365.0 0
298012.0 345345.0 0
201986.0 348080.0 0
208685.0 348230.0 0
215453.0 348751.0 0
218734.0 346928.0 0
222118.0 348910.0 0
225373.0 346989.0 0
228753.0 348922.0 0
231960.0 346960.0 0
235289.0 348885.0 0
238465.0 346865.0 0
241748.0 348755.0 0
244930.0 346692.0 0
248194.0 348545.0 0
251408.0 346460.0 0
254679.0 348255.0 0
261247.0 347964.0 0
267865.0 347722.0 0
274524.0 347517.0 0
281220.0 347371.0 0
287933.0 347284.0 0
294653.0 347244.0 0
201982.0 351865.0 0
205320.0 350000.0 0
208653.0 351968.0 0
212048.0 350292.0 0
218849.0 350810.0 0
225536.0 350848.0 0
232120.0 350862.0 0
238592.0 350806.0 0
245013.0 350625.0 0
251445.0 350364.0 0
257960.0 350016.0 0
264547.0 349737.0 0
267839.0 351505.0 0
271175.0 349503.0 0
274483.0 351277.0 0
277854.0 349316.0 0
281192.0 351128.0 0
284567.0 349206.0 0
287923.0 351048.0 0
291291.0 349145.0 0
294653.0 351016.0 0
298013.0 349130.0 0
205247.0 353749.0 0
211999.0 353998.0 0
215519.0 352598.0 0
222316.0 352749.0 0
228945.0 352792.0 0
235459.0 352814.0 0
241866.0 352695.0 0
248260.0 352470.0 0
254697.0 352108.0 0
257974.0 353819.0 0
261251.0 351767.0 0
264536.0 353520.0 0
271115.0 353261.0 0
277798.0 353048.0 0
284541.0 352950.0 0
291290.0 352900.0 0
298013.0 352897.0 0
201977.0 355675.0 0
208450.0 355652.0 0
211527.0 357575.0 0
215808.0 356346.0 0
219118.0 354651.0 0
222617.0 356574.0 0
225767.0 354687.0 0
229179.0 356647.0 0
232329.0 354758.0 0
235688.0 356750.0 0
238761.0 354761.0 0
242022.0 356643.0 0
245118.0 354561.0 0
248333.0 356410.0 0
251482.0 354276.0 0
254716.0 355928.0 0
261264.0 355542.0 0
267796.0 355274.0 0
274373.0 354997.0 0
277603.0 356714.0 0
281130.0 354846.0 0
284517.0 356648.0 0
287915.0 354779.0 0
291301.0 356629.0 0
294658.0 354767.0 0
298014.0 356654.0 0
201972.0 359539.0 0
205139.0 357548.0 0
208213.0 359440.0 0
219512.0 358448.0 0
226053.0 358522.0 0
232549.0 358636.0 0
239038.0 358767.0 0
245220.0 358513.0 0
251520.0 358219.0 0
258015.0 357576.0 0
261300.0 359299.0 0
264526.0 357292.0 0
267739.0 359047.0 0
271021.0 357009.0 0
274213.0 358713.0 0
280755.0 358450.0 0
287935.0 358475.0 0
294676.0 358507.0 0
205049.0 361428.0 0
211198.0 361374.0 0
214363.0 359547.0 0
217328.0 361176.0 0
222983.0 360410.0 0
229435.0 360498.0 0
235869.0 360656.0 0
242364.0 360860.0 0
248382.0 360367.0 0
254776.0 359663.0 0
258098.0 361286.0 0
264518.0 361073.0 0
270905.0 360765.0 0
277360.0 360407.0 0
283830.0 360176.0 0
286841.0 361882.0 0
291346.0 360342.0 0
298016.0 360416.0 0
201970.0 363465.0 0
208086.0 363307.0 0
214292.0 363232.0 0
217498.0 364892.0 0
220410.0 362749.0 0
223573.0 364416.0 0
226381.0 362363.0 0
229667.0 364370.0 0
232737.0 362522.0 0
235947.0 364588.0 0
239128.0 362703.0 0
245665.0 362987.0 0
251394.0 362427.0 0
254865.0 363241.0 0
261345.0 363059.0 0
267665.0 362840.0 0
274045.0 362441.0 0
277167.0 364108.0 0
280465.0 362115.0 0
283534.0 363833.0 0
289808.0 363569.0 0
294717.0 362255.0 0
298019.0 364207.0 0
205015.0 365358.0 0
211219.0 365137.0 0
214497.0 366879.0 0
220707.0 366538.0 0
226738.0 366287.0 0
232833.0 366444.0 0
239075.0 366656.0 0
242336.0 364788.0 0
245474.0 366933.0 0
248838.0 365240.0 0
254999.0 366688.0 0
258192.0 364965.0 0
261320.0 366851.0 0
264482.0 364882.0 0
267575.0 366655.0 0
270783.0 364526.0 0
273909.0 366156.0 0
280269.0 365797.0 0
286567.0 365554.0 0
289564.0 367274.0 0
292752.0 365258.0 0
295689.0 366977.0 0
201971.0 367441.0 0
205108.0 369245.0 0
208160.0 367125.0 0
211498.0 368806.0 0
217786.0 368571.0 0
223871.0 368284.0 0
229842.0 368296.0 0
235841.0 368578.0 0
242200.0 368734.0 0
248468.0 369224.0 0
251710.0 367717.0 0
258116.0 368687.0 0
264413.0 368707.0 0
270674.0 368268.0 0
277040.0 367794.0 0
280152.0 369479.0 0
283338.0 367511.0 0
286356.0 369240.0 0
292519.0 369014.0 0
201986.0 371357.0 0
208566.0 370800.0 0
214875.0 370513.0 0
218189.0 372249.0 0
221019.0 370294.0 0
224203.0 372105.0 0
226976.0 370185.0 0
229457.0 372742.0 0
232633.0 370605.0 0
235782.0 372519.0 0
238972.0 370597.0 0
245246.0 370904.0 0
251502.0 371583.0 0
254774.0 370247.0 0
261230.0 370633.0 0
267483.0 370491.0 0
270596.0 371946.0 0
273823.0 369830.0 0
276991.0 371456.0 0
283203.0 371210.0 0
289303.0 370978.0 0
295180.0 371060.0 0
298051.0 369328.0 0
201982.0 374824.0 0
205751.0 372858.0 0
203964.0 375493.0 0
209330.0 374418.0 0
212037.0 372435.0 0
215426.0 374166.0 0
221483.0 374011.0 0
226305.0 374922.0 0
232636.0 374526.0 0
238874.0 374539.0 0
242046.0 372687.0 0
245099.0 374833.0 0
248288.0 373143.0 0
254638.0 373914.0 0
257947.0 372363.0 0
261108.0 374379.0 0
264339.0 372536.0 0
267434.0 374375.0 0
273833.0 373437.0 0
280089.0 373174.0 0
283099.0 374946.0 0
286179.0 372968.0 0
289037.0 374782.0 0
292068.0 372831.0 0
294797.0 374764.0 0
298038.0 373180.0 0
198764.0 378040.0 0
201681.0 378251.0 0
206967.0 376617.0 0
212781.0 376117.0 0
218815.0 375884.0 0
223169.0 377081.0 0
229533.0 376612.0 0
235741.0 376458.0 0
241934.0 376616.0 0
248171.0 377010.0 0
251380.0 375399.0 0
257817.0 376052.0 0
264248.0 376349.0 0
270664.0 375464.0 0
273894.0 377013.0 0
276995.0 375114.0 0
280043.0 376898.0 0
286018.0 376755.0 0
291828.0 376655.0 0
297275.0 376840.0 0
300083.0 377333.0 0
192930.0 381693.0 0
195868.0 379860.0 0
199182.0 380952.0 0
204793.0 379080.0 0
210274.0 378153.0 0
216229.0 377808.0 0
220073.0 379171.0 0
226438.0 378724.0 0
229577.0 380507.0 0
232652.0 378456.0 0
235709.0 380401.0 0
238800.0 378472.0 0
244996.0 378722.0 0
251275.0 379192.0 0
254524.0 377623.0 0
257678.0 379755.0 0
260981.0 378114.0 0
264098.0 380167.0 0
267308.0 378331.0 0
270695.0 378820.0 0
276985.0 378795.0 0
282999.0 378722.0 0
285909.0 380553.0 0
288879.0 378597.0 0
291681.0 380504.0 0
294494.0 378642.0 0
297234.0 380609.0 0
300163.0 380321.0 0
303063.0 379196.0 0
305833.0 380941.0 0
189841.0 383624.0 0
193005.0 384600.0 0
196172.0 382798.0 0
199467.0 383922.0 0
202344.0 381578.0 0
205443.0 382693.0 0
207928.0 380381.0 0
211119.0 381916.0 0
213645.0 379809.0 0
214388.0 383451.0 0
217159.0 381289.0 0
220403.0 382932.0 0
223376.0 380830.0 0
226530.0 382580.0 0
232646.0 382389.0 0
238752.0 382389.0 0
241855.0 380519.0 0
244915.0 382588.0 0
248073.0 380847.0 0
251158.0 382979.0 0
254394.0 381353.0 0
260801.0 381848.0 0
267133.0 382291.0 0
270571.0 382092.0 0
273861.0 380569.0 0
276882.0 382481.0 0
279968.0 380654.0 0
282908.0 382508.0 0
288809.0 382403.0 0
294510.0 382432.0 0
299893.0 383472.0 0
302902.0 382564.0 0
308531.0 382623.0 0
311318.0 384368.0 0
186677.0 385606.0 0
189774.0 386594.0 0
196335.0 385708.0 0
202663.0 384920.0 0
208540.0 384081.0 0
211642.0 385615.0 0
217519.0 385069.0 0
223528.0 384670.0 0
229603.0 384416.0 0
235684.0 384326.0 0
241798.0 384405.0 0
244841.0 386447.0 0
247975.0 384676.0 0
254235.0 385105.0 0
257498.0 383475.0 0
260557.0 385585.0 0
263865.0 383960.0 0
270259.0 385375.0 0
273661.0 384095.0 0
276690.0 386133.0 0
279855.0 384408.0 0
285857.0 384330.0 0
288870.0 386126.0 0
291765.0 384275.0 0
294859.0 386146.0 0
297332.0 384333.0 0
301897.0 385999.0 0
305356.0 384417.0 0
308168.0 385988.0 0
314179.0 386151.0 0
180479.0 389492.0 0
183531.0 387583.0 0
186618.0 388719.0 0
190122.0 389459.0 0
193143.0 387418.0 0
196534.0 388635.0 0
199654.0 386954.0 0
202863.0 388233.0 0
205786.0 386219.0 0
208818.0 387717.0 0
214671.0 387225.0 0
220577.0 386776.0 0
226581.0 386472.0 0
232636.0 386307.0 0
238721.0 386290.0 0
241752.0 388286.0 0
247870.0 388514.0 0
251025.0 386778.0 0
257280.0 387220.0 0
263548.0 387726.0 0
266848.0 386165.0 0
273339.0 387562.0 0
279743.0 388126.0 0
282845.0 386271.0 0
285909.0 388045.0 0
292009.0 387889.0 0
298516.0 387497.0 0
304850.0 387647.0 0
311039.0 387651.0 0
314029.0 389357.0 0
317138.0 387996.0 0
320202.0 389907.0 0
177210.0 391520.0 0
183651.0 390949.0 0
187507.0 391596.0 0
193455.0 390261.0 0
196834.0 391610.0 0
199848.0 390047.0 0
202826.0 391619.0 0
205878.0 389726.0 0
208802.0 391344.0 0
211780.0 389330.0 0
214690.0 391021.0 0
217647.0 388905.0 0
220596.0 390644.0 0
223588.0 388551.0 0
226597.0 390359.0 0
229608.0 388321.0 0
232642.0 390198.0 0
235670.0 388225.0 0
238697.0 390178.0 0
244765.0 390316.0 0
250877.0 390599.0 0
254051.0 388885.0 0
257042.0 390996.0 0
260276.0 389343.0 0
266453.0 389950.0 0
269769.0 388726.0 0
272745.0 390884.0 0
276472.0 389712.0 0
282881.0 389981.0 0
289083.0 389749.0 0
292392.0 391357.0 0
295416.0 389459.0 0
298591.0 391054.0 0
301629.0 389320.0 0
304785.0 390977.0 0
307854.0 389247.0 0
310938.0 390894.0 0
314126.0 392540.0 0
317154.0 391157.0 0
323347.0 391870.0 0
173872.0 393602.0 0
176775.0 394577.0 0
180178.0 392624.0 0
182697.0 394415.0 0
185673.0 393631.0 0
190679.0 392565.0 0
193892.0 393131.0 0
196367.0 394855.0 0
199663.0 393326.0 0
205711.0 393240.0 0
211666.0 393052.0 0
217577.0 392745.0 0
223575.0 392406.0 0
229628.0 392193.0 0
232661.0 394070.0 0
235671.0 392113.0 0
238675.0 394073.0 0
241704.0 392173.0 0
244684.0 394202.0 0
247757.0 392373.0 0
253855.0 392695.0 0
259990.0 393122.0 0
263212.0 391501.0 0
269365.0 392279.0 0
275520.0 392930.0 0
279749.0 391783.0 0
283167.0 393632.0 0
286129.0 391678.0 0
289449.0 393295.0 0
295628.0 392965.0 0
301792.0 392726.0 0
305044.0 394332.0 0
307964.0 392593.0 0
311168.0 394171.0 0
317385.0 394316.0 0
320356.0 393049.0 0
323601.0 394996.0 0
326551.0 393870.0 0
167147.0 397803.0 0
170505.0 395704.0 0
173368.0 396618.0 0
179499.0 395945.0 0
182321.0 397638.0 0
185670.0 396655.0 0
188862.0 395154.0 0
192365.0 395645.0 0
199099.0 396550.0 0
202485.0 395000.0 0
205266.0 396734.0 0
208533.0 394962.0 0
211332.0 396762.0 0
214501.0 394815.0 0
220512.0 394463.0 0
226604.0 394194.0 0
229654.0 396031.0 0
235665.0 396002.0 0
241647.0 396076.0 0
247638.0 396258.0 0
250722.0 394449.0 0
256799.0 394800.0 0
262914.0 395268.0 0
266124.0 393703.0 0
269047.0 395945.0 0
272249.0 394464.0 0
275126.0 396562.0 0
278168.0 394754.0 0
280998.0 396175.0 0
286577.0 395269.0 0
292724.0 394902.0 0
295986.0 396482.0 0
298860.0 394550.0 0
302126.0 396119.0 0
308298.0 395983.0 0
311521.0 397470.0 0
314432.0 395730.0 0
317755.0 397484.0 0
320677.0 396207.0 0
326882.0 396968.0 0
329798.0 395897.0 0
163800.0 399894.0 0
170002.0 398721.0 0
172828.0 399742.0 0
176157.0 397744.0 0
178923.0 399159.0 0
185128.0 399672.0 0
188718.0 398383.0 0
192009.0 398451.0 0
195413.0 397657.0 0
198239.0 399638.0 0
201833.0 398326.0 0
208043.0 398545.0 0
214170.0 398561.0 0
217386.0 396528.0 0
220410.0 398183.0 0
223539.0 396186.0 0
223589.0 399881.0 0
226632.0 397972.0 0
232662.0 397938.0 0
238634.0 397982.0 0
244591.0 398111.0 0
250569.0 398331.0 0
253659.0 396538.0 0
256577.0 398631.0 0
259719.0 396911.0 0
265846.0 397432.0 0
272027.0 398121.0 0
278156.0 398375.0 0
281312.0 399837.0 0
284051.0 397494.0 0
287229.0 399006.0 0
289894.0 396888.0 0
293178.0 398471.0 0
299251.0 398017.0 0
302535.0 399495.0 0
305428.0 397665.0 0
308714.0 399432.0 0
314805.0 398902.0 0
321120.0 399381.0 0
323995.0 398149.0 0
327317.0 400105.0 0
330183.0 398973.0 0
333070.0 397940.0 0
336342.0 399985.0 0
160488.0 401965.0 0
163361.0 402939.0 0
166650.0 400821.0 0
169491.0 401820.0 0
175629.0 400972.0 0
178411.0 402435.0 0
181670.0 400757.0 0
184267.0 402784.0 0
187868.0 401414.0 0
191261.0 401331.0 0
194741.0 400796.0 0
200984.0 401593.0 0
204564.0 400153.0 0
207313.0 402021.0 0
210857.0 400439.0 0
217181.0 400182.0 0
220535.0 401753.0 0
226641.0 401757.0 0
229656.0 399863.0 0
232621.0 401816.0 0
235628.0 399900.0 0
238560.0 401904.0 0
241571.0 399998.0 0
247516.0 400168.0 0
253484.0 400411.0 0
259485.0 400720.0 0
262633.0 399020.0 0
265565.0 401106.0 0
268844.0 399595.0 0
275135.0 400197.0 0
278361.0 401981.0 0
284526.0 401221.0 0
290476.0 400545.0 0
293747.0 402079.0 0
296445.0 400012.0 0
299697.0 401490.0 0
305868.0 400947.0 0
311898.0 400795.0 0
315281.0 401982.0 0
318224.0 400628.0 0
321661.0 402564.0 0
324481.0 401342.0 0
330593.0 402113.0 0
333466.0 401012.0 0
339584.0 402012.0 0
157182.0 404031.0 0
160065.0 405010.0 0
166245.0 403944.0 0
169129.0 405048.0 0
172307.0 402932.0 0
175088.0 404216.0 0
181229.0 404022.0 0
186810.0 404307.0 0
190160.0 404235.0 0
193781.0 403964.0 0
197423.0 402866.0 0
200280.0 404943.0 0
203741.0 403529.0 0
210036.0 403953.0 0
213839.0 402221.0 0
214815.0 405360.0 0
217515.0 403550.0 0
223627.0 403619.0 0
229607.0 403712.0 0
235547.0 403813.0 0
241469.0 403933.0 0
244487.0 402039.0 0
247395.0 404095.0 0
250428.0 402236.0 0
253338.0 404305.0 0
256392.0 402489.0 0
262399.0 402787.0 0
268533.0 403129.0 0
271976.0 401700.0 0
275250.0 403804.0 0
281702.0 403447.0 0
287787.0 402689.0 0
291074.0 404189.0 0
297028.0 403585.0 0
302931.0 402861.0 0
306181.0 404085.0 0
309160.0 403022.0 0
312467.0 404055.0 0
315937.0 404922.0 0
318821.0 403722.0 0
324957.0 404631.0 0
327747.0 403323.0 0
330836.0 405378.0 0
333763.0 404173.0 0
336686.0 403077.0 0
339886.0 405116.0 0
342807.0 404029.0 0
150598.0 408148.0 0
153892.0 406088.0 0
156800.0 407088.0 0
159738.0 408130.0 0
162962.0 406045.0 0
165856.0 407119.0 0
172016.0 406267.0 0
174949.0 407642.0 0
177828.0 405665.0 0
180610.0 406973.0 0
183971.0 406381.0 0
187546.0 407085.0 0
190907.0 407120.0 0
193993.0 407121.0 0
196973.0 406084.0 0
202835.0 407024.0 0
206381.0 405471.0 0
211902.0 406553.0 0
217711.0 407269.0 0
220631.0 405445.0 0
223565.0 407427.0 0
226590.0 405584.0 0
232524.0 405710.0 0
238450.0 405836.0 0
244371.0 405978.0 0
250303.0 406155.0 0
256256.0 406366.0 0
259307.0 404553.0 0
262236.0 406588.0 0
265328.0 404813.0 0
268254.0 406780.0 0
271481.0 405036.0 0
274106.0 406922.0 0
278797.0 405561.0 0
282303.0 407037.0 0
285054.0 404865.0 0
288374.0 406336.0 0
294397.0 405686.0 0
297769.0 407162.0 0
300308.0 405023.0 0
303586.0 406307.0 0
306983.0 407049.0 0
310102.0 406623.0 0
313411.0 407269.0 0
316673.0 407811.0 0
319471.0 406815.0 0
322218.0 405808.0 0
325042.0 408173.0 0
327925.0 406714.0 0
333925.0 407404.0 0
336919.0 406229.0 0
343093.0 407155.0 0
346013.0 406034.0 0
349188.0 408020.0 0
147315.0 410204.0 0
153537.0 409130.0 0
156536.0 410206.0 0
162692.0 409254.0 0
165641.0 410418.0 0
168729.0 408293.0 0
171564.0 409512.0 0
178042.0 409153.0 0
181912.0 409516.0 0
185304.0 409558.0 0
188916.0 409982.0 0
192484.0 410161.0 0
196071.0 409693.0 0
199372.0 408508.0 0
205326.0 409073.0 0
208712.0 407660.0 0
211285.0 410078.0 0
214575.0 408882.0 0
220544.0 409247.0 0
226436.0 409442.0 0
229489.0 407588.0 0
232366.0 409617.0 0
235418.0 407734.0 0
241344.0 407874.0 0
247276.0 408029.0 0
253225.0 408210.0 0
259194.0 408406.0 0
265180.0 408585.0 0
271098.0 408731.0 0
276906.0 408280.0 0
279949.0 409425.0 0
285664.0 408519.0 0
291718.0 407801.0 0
295130.0 409240.0 0
301218.0 408547.0 0
304793.0 409670.0 0
308432.0 410007.0 0
311810.0 410025.0 0
315293.0 410448.0 0
318958.0 410202.0 0
322136.0 409316.0 0
327865.0 410177.0 0
330912.0 408716.0 0
337123.0 409403.0 0
340122.0 408243.0 0
343291.0 410316.0 0
346263.0 409201.0 0
352336.0 409989.0 0
144060.0 412242.0 0
150274.0 411216.0 0
153325.0 412207.0 0
156434.0 413385.0 0
159564.0 411325.0 0
162609.0 412562.0 0
168572.0 411698.0 0
171491.0 412965.0 0
174372.0 410743.0 0
176928.0 412117.0 0
180014.0 412173.0 0
183383.0 412506.0 0
186801.0 412622.0 0
190486.0 412857.0 0
194399.0 412877.0 0
198211.0 412197.0 0
201808.0 410587.0 0
207949.0 411252.0 0
214062.0 412364.0 0
217383.0 410924.0 0
223357.0 411266.0 0
229288.0 411476.0 0
235240.0 411657.0 0
238304.0 409771.0 0
241197.0 411812.0 0
244244.0 409918.0 0
247164.0 411959.0 0
250198.0 410077.0 0
253147.0 412113.0 0
256170.0 410249.0 0
262157.0 410416.0 0
268127.0 410551.0 0
271193.0 412408.0 0
274116.0 410500.0 0
277293.0 411884.0 0
283108.0 410824.0 0
286352.0 412237.0 0
289003.0 409969.0 0
292383.0 411365.0 0
298655.0 410635.0 0
302322.0 411890.0 0
306357.0 412836.0 0
310236.0 413007.0 0
313865.0 413148.0 0
317601.0 413084.0 0
321282.0 412636.0 0
324740.0 411827.0 0
331179.0 411967.0 0
334133.0 410623.0 0
337231.0 412651.0 0
340272.0 411410.0 0
346428.0 412404.0 0
349401.0 411219.0 0
352526.0 413197.0 0
355473.0 411951.0 0
140850.0 414253.0 0
143819.0 415441.0 0
147028.0 413327.0 0
150103.0 414298.0 0
153267.0 415298.0 0
159560.0 414569.0 0
162705.0 415944.0 0
165649.0 413810.0 0
168703.0 415204.0 0
174386.0 414320.0 0
177739.0 415151.0 0
181088.0 415308.0 0
184563.0 415508.0 0
188178.0 415531.0 0
192047.0 415526.0 0
196475.0 415468.0 0
200942.0 414014.0 0
204503.0 412582.0 0
207243.0 414746.0 0
210683.0 413571.0 0
216885.0 414534.0 0
220179.0 412991.0 0
222967.0 415070.0 0
226167.0 413303.0 0
232144.0 413522.0 0
238125.0 413700.0 0
244112.0 413850.0 0
250113.0 413990.0 0
256132.0 414127.0 0
259147.0 412264.0 0
262170.0 414243.0 0
265154.0 412389.0 0
268244.0 414284.0 0
274407.0 414060.0 0
280464.0 413187.0 0
283671.0 414572.0 0
289675.0 413604.0 0
293084.0 414902.0 0
295837.0 412694.0 0
299330.0 413979.0 0
302729.0 415099.0 0
305830.0 415991.0 0
309111.0 415923.0 0
312635.0 416040.0 0
325849.0 414965.0 0
328322.0 413390.0 0
331210.0 415413.0 0
334211.0 413944.0 0
340335.0 414600.0 0
343409.0 413506.0 0
346521.0 415641.0 0
349539.0 414456.0 0
355635.0 415190.0 0
358591.0 413903.0 0
361681.0 415837.0 0
134657.0 418140.0 0
137707.0 416224.0 0
140665.0 417548.0 0
146902.0 416458.0 0
150074.0 417384.0 0
153325.0 418368.0 0
156478.0 416614.0 0
159677.0 417819.0 0
165845.0 417214.0 0
171765.0 416513.0 0
175127.0 417591.0 0
189331.0 418317.0 0
193005.0 418299.0 0
196491.0 418779.0 0
199775.0 417256.0 0
203678.0 415991.0 0
210061.0 417042.0 0
213505.0 415874.0 0
219688.0 416709.0 0
225779.0 417127.0 0
229000.0 415352.0 0
231863.0 417409.0 0
235018.0 415571.0 0
241033.0 415738.0 0
247060.0 415876.0 0
253103.0 416002.0 0
259167.0 416108.0 0
265270.0 416158.0 0
271451.0 416046.0 0
274728.0 417662.0 0
277655.0 415508.0 0
280902.0 416902.0 0
286947.0 415924.0 0
290307.0 417194.0 0
296568.0 416156.0 0
300094.0 417464.0 0
303628.0 418588.0 0
307439.0 418989.0 0
316197.0 416019.0 0
319721.0 415828.0 0
322981.0 415392.0 0
325232.0 418348.0 0
328355.0 417121.0 0
334156.0 417303.0 0
337235.0 415971.0 0
340303.0 417784.0 0
343451.0 416712.0 0
349589.0 417740.0 0
352628.0 416437.0 0
358714.0 417189.0 0
364738.0 417750.0 0
128989.0 421680.0 0
137601.0 419641.0 0
140676.0 420862.0 0
143745.0 418649.0 0
146908.0 419595.0 0
150128.0 420460.0 0
156586.0 419909.0 0
159768.0 421012.0 0
162894.0 419386.0 0
166149.0 420501.0 0
169082.0 418748.0 0
172447.0 419873.0 0
178640.0 418181.0 0
182076.0 418377.0 0
185652.0 418411.0 0
190417.0 421168.0 0
194089.0 421263.0 0
198997.0 420970.0 0
202790.0 419236.0 0
206519.0 418145.0 0
212927.0 419403.0 0
216341.0 418159.0 0
219153.0 420452.0 0
222483.0 418860.0 0
228640.0 419191.0 0
234762.0 419464.0 0
237920.0 417614.0 0
240860.0 419644.0 0
243978.0 417764.0 0
246968.0 419771.0 0
250051.0 417885.0 0
253094.0 419868.0 0
256143.0 417985.0 0
259246.0 419925.0 0
262270.0 418038.0 0
265452.0 419893.0 0
268465.0 417978.0 0
271737.0 419688.0 0
278027.0 419158.0 0
284180.0 418280.0 0
287520.0 419569.0 0
293756.0 418392.0 0
297274.0 419590.0 0
300807.0 420970.0 0
304197.0 421829.0 0
311181.0 418958.0 0
314920.0 419021.0 0
318560.0 418930.0 0
322027.0 418761.0 0
327877.0 420694.0 0
331069.0 418945.0 0
334029.0 420607.0 0
337134.0 419362.0 0
340224.0 420891.0 0
343423.0 419915.0 0
346534.0 418912.0 0
352636.0 419706.0 0
355700.0 418460.0 0
358720.0 420521.0 0
361747.0 419172.0 0
364770.0 421085.0 0
367793.0 419661.0 0
125930.0 423574.0 0
131739.0 419978.0 0
134686.0 421717.0 0
137787.0 423105.0 0
143825.0 421882.0 0
146992.0 422756.0 0
150141.0 423532.0 0
153401.0 421376.0 0
156520.0 423338.0 0
163045.0 422896.0 0
166447.0 423399.0 0
169712.0 422248.0 0
173471.0 423030.0 0
176086.0 420795.0 0
179485.0 421316.0 0
183047.0 421347.0 0
186726.0 421254.0 0
199085.0 424437.0 0
205861.0 421440.0 0
209436.0 420474.0 0
212327.0 422928.0 0
215781.0 421813.0 0
221947.0 422677.0 0
225328.0 420908.0 0
231547.0 421265.0 0
237699.0 421507.0 0
243848.0 421653.0 0
250014.0 421753.0 0
256197.0 421816.0 0
262416.0 421805.0 0
268706.0 421660.0 0
275057.0 421293.0 0
278410.0 422821.0 0
281343.0 420601.0 0
284692.0 421966.0 0
290946.0 420735.0 0
294457.0 421836.0 0
298043.0 422977.0 0
307672.0 422051.0 0
310999.0 422099.0 0
314324.0 422110.0 0
317739.0 421982.0 0
321237.0 421900.0 0
324708.0 421717.0 0
330657.0 422347.0 0
333783.0 423632.0 0
337092.0 422853.0 0
340368.0 423805.0 0
343479.0 423080.0 0
346517.0 422212.0 0
349556.0 421086.0 0
352472.0 423006.0 0
355637.0 421767.0 0
361713.0 422550.0 0
367805.0 423009.0 0
370848.0 421573.0 0
373897.0 423478.0 0
122850.0 425502.0 0
125905.0 426709.0 0
129010.0 424788.0 0
132021.0 423842.0 0
140990.0 424235.0 0
144245.0 425199.0 0
147544.0 426037.0 0
153266.0 424267.0 0
159773.0 423936.0 0
161396.0 426502.0 0
168283.0 425872.0 0
171536.0 425360.0 0
176649.0 424312.0 0
180392.0 424308.0 0
184184.0 424206.0 0
187963.0 424082.0 0
191733.0 424023.0 0
195622.0 423850.0 0
202303.0 422495.0 0
205337.0 424782.0 0
208805.0 423868.0 0
215149.0 425482.0 0
218584.0 424262.0 0
224868.0 424618.0 0
228259.0 422990.0 0
231233.0 425101.0 0
234490.0 423335.0 0
237467.0 425376.0 0
240683.0 423524.0 0
246896.0 423635.0 0
253119.0 423707.0 0
259361.0 423717.0 0
265648.0 423612.0 0
268928.0 425340.0 0
272017.0 423338.0 0
275373.0 424935.0 0
281796.0 424298.0 0
288097.0 423172.0 0
291569.0 424217.0 0
295107.0 425203.0 0
301914.0 424660.0 0
305830.0 424836.0 0
309507.0 425130.0 0
313070.0 425192.0 0
316638.0 425104.0 0
320220.0 424987.0 0
323896.0 424847.0 0
327638.0 424428.0 0
331277.0 425693.0 0
335453.0 426132.0 0
338843.0 426274.0 0
342653.0 426296.0 0
346104.0 425644.0 0
349246.0 424567.0 0
352130.0 426215.0 0
355457.0 425066.0 0
358628.0 423886.0 0
361607.0 425982.0 0
364715.0 424436.0 0
370825.0 424951.0 0
376987.0 425409.0 0
116749.0 429331.0 0
119803.0 427415.0 0
122933.0 428736.0 0
129176.0 427642.0 0
132427.0 427675.0 0
135073.0 425375.0 0
138307.0 426603.0 0
141627.0 427640.0 0
145037.0 428522.0 0
150909.0 426755.0 0
154565.0 426843.0 0
157797.0 426667.0 0
164643.0 426181.0 0
170337.0 428576.0 0
174187.0 427444.0 0
177982.0 427321.0 0
181797.0 427178.0 0
185595.0 427033.0 0
189359.0 426911.0 0
193128.0 426789.0 0
196777.0 426980.0 0
202028.0 425825.0 0
204475.0 428238.0 0
207994.0 427308.0 0
211562.0 426419.0 0
217922.0 428137.0 0
221404.0 426567.0 0
227934.0 426756.0 0
234198.0 427197.0 0
240522.0 427370.0 0
243734.0 425510.0 0
246851.0 427468.0 0
250005.0 425592.0 0
253173.0 427520.0 0
256283.0 425624.0 0
259499.0 427496.0 0
262581.0 425560.0 0
265846.0 427337.0 0
272233.0 426991.0 0
278782.0 426479.0 0
282286.0 427995.0 0
285232.0 425636.0 0
288748.0 426737.0 0
292298.0 427664.0 0
298724.0 426144.0 0
304371.0 427500.0 0
307970.0 427998.0 0
311593.0 428226.0 0
315232.0 428197.0 0
318867.0 428102.0 0
322527.0 427961.0 0
326232.0 427771.0 0
329723.0 428307.0 0
333489.0 428646.0 0
345038.0 428784.0 0
348777.0 428171.0 0
352149.0 429109.0 0
355387.0 428269.0 0
358522.0 427261.0 0
364546.0 427798.0 0
367722.0 426384.0 0
370753.0 428350.0 0
373890.0 426800.0 0
377026.0 428723.0 0
380115.0 427366.0 0
113683.0 431254.0 0
119915.0 430729.0 0
123274.0 431894.0 0
126284.0 429798.0 0
129827.0 430548.0 0
135690.0 428985.0 0
139035.0 430091.0 0
142509.0 430996.0 0
148549.0 429258.0 0
152244.0 429643.0 0
155854.0 429797.0 0
159409.0 429597.0 0
162983.0 429435.0 0
166581.0 429003.0 0
172246.0 431050.0 0
175856.0 430486.0 0
179594.0 430248.0 0
183340.0 430062.0 0
187050.0 429914.0 0
190697.0 429800.0 0
194202.0 429813.0 0
197628.0 429897.0 0
200735.0 428770.0 0
206881.0 430770.0 0
210508.0 429910.0 0
214186.0 429046.0 0
224575.0 428158.0 0
227465.0 430576.0 0
230873.0 428956.0 0
237254.0 429214.0 0
243654.0 429332.0 0
250026.0 429402.0 0
256392.0 429415.0 0
262758.0 429316.0 0
269140.0 429045.0 0
272441.0 430704.0 0
275532.0 428561.0 0
278756.0 430062.0 0
285968.0 429271.0 0
289697.0 430271.0 0
295891.0 428499.0 0
299495.0 429165.0 0
302761.0 429834.0 0
306535.0 430920.0 0
310085.0 431262.0 0
313744.0 431291.0 0
317398.0 431223.0 0
321056.0 431109.0 0
324699.0 430995.0 0
328239.0 431192.0 0
337326.0 429080.0 0
341129.0 429018.0 0
350697.0 431606.0 0
354601.0 431483.0 0
358130.0 430723.0 0
361324.0 429534.0 0
364299.0 431070.0 0
367590.0 429752.0 0
373857.0 430089.0 0
380164.0 430729.0 0
383247.0 429328.0 0
386355.0 431276.0 0
110627.0 433173.0 0
116860.0 432730.0 0
120196.0 433985.0 0
126789.0 432804.0 0
130314.0 433655.0 0
133156.0 431409.0 0
136460.0 432585.0 0
139956.0 433500.0 0
146117.0 431741.0 0
149865.0 432281.0 0
153616.0 432622.0 0
157354.0 432695.0 0
161013.0 432546.0 0
164708.0 432241.0 0
168425.0 431743.0 0
177560.0 433454.0 0
181255.0 433191.0 0
184948.0 433000.0 0
188618.0 432868.0 0
192253.0 432821.0 0
195909.0 432796.0 0
199700.0 432331.0 0
203188.0 431479.0 0
212819.0 432617.0 0
216500.0 431832.0 0
220161.0 431230.0 0
223765.0 431427.0 0
230483.0 432789.0 0
233921.0 431036.0 0
237146.0 433005.0 0
240415.0 431179.0 0
243612.0 433130.0 0
246839.0 431272.0 0
250081.0 433190.0 0
253255.0 431313.0 0
256525.0 433198.0 0
259653.0 431272.0 0
262943.0 433083.0 0
266048.0 431077.0 0
269362.0 432780.0 0
275710.0 432310.0 0
281782.0 431528.0 0
284814.0 432637.0 0
293372.0 431058.0 0
297001.0 431775.0 0
300520.0 432459.0 0
304094.0 432858.0 0
308661.0 434417.0 0
312266.0 434410.0 0
315923.0 434363.0 0
319588.0 434269.0 0
331908.0 431455.0 0
335656.0 431715.0 0
339543.0 431832.0 0
343397.0 431682.0 0
347205.0 431416.0 0
357132.0 433912.0 0
360918.0 433198.0 0
364351.0 434014.0 0
367597.0 433074.0 0
370679.0 431792.0 0
373703.0 433345.0 0
376990.0 432024.0 0
380154.0 434099.0 0
383285.0 432774.0 0
389399.0 433190.0 0
104620.0 436937.0 0
107602.0 435076.0 0
110822.0 436807.0 0
113818.0 434761.0 0
117142.0 436110.0 0
123657.0 435004.0 0
127149.0 435853.0 0
130665.0 436676.0 0
133816.0 435092.0 0
137345.0 436060.0 0
143622.0 434233.0 0
147414.0 434826.0 0
151263.0 435314.0 0
155102.0 435595.0 0
158893.0 435639.0 0
162639.0 435450.0 0
166380.0 435027.0 0
170199.0 434395.0 0
173910.0 433885.0 0
179289.0 436417.0 0
182965.0 436154.0 0
186656.0 435964.0 0
190361.0 435840.0 0
194108.0 435725.0 0
197956.0 435411.0 0
201764.0 434889.0 0
205431.0 434143.0 0
209138.0 433410.0 0
214922.0 435478.0 0
218567.0 434869.0 0
222221.0 434629.0 0
226187.0 434167.0 0
233893.0 434809.0 0
240348.0 434978.0 0
246871.0 435052.0 0
253364.0 435093.0 0
259825.0 435055.0 0
266253.0 434836.0 0
272685.0 434480.0 0
278924.0 433884.0 0
282222.0 435268.0 0
287994.0 433312.0 0
291350.0 433854.0 0
294863.0 434485.0 0
298414.0 435112.0 0
301995.0 435571.0 0
305575.0 435581.0 0
311027.0 437643.0 0
323227.0 434189.0 0
326818.0 434253.0 0
330451.0 434393.0 0
334158.0 434557.0 0
337958.0 434637.0 0
341822.0 434604.0 0
345645.0 434458.0 0
349363.0 434475.0 0
353190.0 434287.0 0
359451.0 436525.0 0
363018.0 436632.0 0
366914.0 436398.0 0
370430.0 435440.0 0
373711.0 436379.0 0
376964.0 435280.0 0
383123.0 436293.0 0
386288.0 434841.0 0
392384.0 435055.0 0
395443.0 436963.0 0
101540.0 438858.0 0
107900.0 438861.0 0
114152.0 438278.0 0
117622.0 439489.0 0
120589.0 437229.0 0
124091.0 438160.0 0
127615.0 438942.0 0
131222.0 439518.0 0
134714.0 438708.0 0
141069.0 436763.0 0
144899.0 437354.0 0
148797.0 437872.0 0
152741.0 438362.0 0
156635.0 438621.0 0
160454.0 438629.0 0
164245.0 438356.0 0
168177.0 437670.0 0
171950.0 437204.0 0
175637.0 436785.0 0
184743.0 439111.0 0
188478.0 438905.0 0
192262.0 438721.0 0
196115.0 438449.0 0
199979.0 438059.0 0
203799.0 437523.0 0
207532.0 436853.0 0
211243.0 436164.0 0
216810.0 438529.0 0
220405.0 438115.0 0
224005.0 437804.0 0
227501.0 437469.0 0
230783.0 436445.0 0
237051.0 436833.0 0
243634.0 436905.0 0
250166.0 436961.0 0
256682.0 436980.0 0
263139.0 436872.0 0
269586.0 436525.0 0
272928.0 438286.0 0
276002.0 436138.0 0
279418.0 437679.0 0
285711.0 436222.0 0
289285.0 436834.0 0
292875.0 437332.0 0
296507.0 437861.0 0
300187.0 438327.0 0
303937.0 438531.0 0
307684.0 438097.0 0
314561.0 437546.0 0
318167.0 437448.0 0
321794.0 437378.0 0
325405.0 437380.0 0
329037.0 437437.0 0
332719.0 437520.0 0
336471.0 437561.0 0
340280.0 437534.0 0
344108.0 437452.0 0
347898.0 437391.0 0
351742.0 437222.0 0
355610.0 436912.0 0
365579.0 439376.0 0
369399.0 438974.0 0
372847.0 439237.0 0
376486.0 438616.0 0
379860.0 437540.0 0
386015.0 438492.0 0
389194.0 436877.0 0
392184.0 438589.0 0
398591.0 438930.0 0
98392.9 440828.0 0
104862.0 440533.0 0
111205.0 440487.0 0
114700.0 441782.0 0
121191.0 440503.0 0
124831.0 441351.0 0
128575.0 441997.0 0
138502.0 439358.0 0
142355.0 439924.0 0
146255.0 440431.0 0
150194.0 440903.0 0
154268.0 441459.0 0
158151.0 441753.0 0
161917.0 441719.0 0
166327.0 440841.0 0
170074.0 440484.0 0
173747.0 440111.0 0
177393.0 439729.0 0
181049.0 439383.0 0
194236.0 441513.0 0
198104.0 441185.0 0
201959.0 440770.0 0
205766.0 440253.0 0
209500.0 439661.0 0
213182.0 439063.0 0
222396.0 441321.0 0
226165.0 440909.0 0
230049.0 440127.0 0
233737.0 438790.0 0
237200.0 440582.0 0
240393.0 438746.0 0
243661.0 440695.0 0
246929.0 438822.0 0
250287.0 440714.0 0
253505.0 438864.0 0
256863.0 440767.0 0
260014.0 438854.0 0
263345.0 440696.0 0
266466.0 438618.0 0
269838.0 440251.0 0
276228.0 439922.0 0
283117.0 438849.0 0
287000.0 439640.0 0
290859.0 440221.0 0
294630.0 440671.0 0
298376.0 441106.0 0
302174.0 441378.0 0
306010.0 441311.0 0
313176.0 440824.0 0
316760.0 440682.0 0
320372.0 440587.0 0
323990.0 440555.0 0
327627.0 440552.0 0
331300.0 440574.0 0
335025.0 440575.0 0
338799.0 440533.0 0
342604.0 440453.0 0
346417.0 440364.0 0
350260.0 440199.0 0
354123.0 439949.0 0
357963.0 439655.0 0
361724.0 439568.0 0
371730.0 442201.0 0
375502.0 441785.0 0
379191.0 440955.0 0
382682.0 439834.0 0
388901.0 440655.0 0
392088.0 441958.0 0
395385.0 440440.0 0
401744.0 440907.0 0
92077.0 444770.0 0
95286.2 442766.0 0
98571.1 444560.0 0
101634.0 442440.0 0
104955.0 443929.0 0
108282.0 442731.0 0
111811.0 444135.0 0
118331.0 442852.0 0
122063.0 443750.0 0
125891.0 444464.0 0
132456.0 442233.0 0
136068.0 442107.0 0
139862.0 442587.0 0
143725.0 443062.0 0
147634.0 443509.0 0
151579.0 443945.0 0
155680.0 444682.0 0
164480.0 443851.0 0
168214.0 443723.0 0
171888.0 443445.0 0
175522.0 443082.0 0
179164.0 442688.0 0
182851.0 442327.0 0
186595.0 442032.0 0
190390.0 441783.0 0
200049.0 443974.0 0
203879.0 443566.0 0
207659.0 443093.0 0
211379.0 442582.0 0
215052.0 442088.0 0
218708.0 441658.0 0
230913.0 443518.0 0
234338.0 442587.0 0
240341.0 442577.0 0
247052.0 442568.0 0
253650.0 442632.0 0
260245.0 442682.0 0
266658.0 442426.0 0
273251.0 442189.0 0
279485.0 441318.0 0
282794.0 442304.0 0
286134.0 442915.0 0
289531.0 443294.0 0
293043.0 443591.0 0
296687.0 443973.0 0
309649.0 441082.0 0
315286.0 443958.0 0
318914.0 443833.0 0
322545.0 443767.0 0
326193.0 443724.0 0
329868.0 443696.0 0
333586.0 443662.0 0
337342.0 443597.0 0
341129.0 443503.0 0
344938.0 443389.0 0
348776.0 443225.0 0
352628.0 443001.0 0
356473.0 442745.0 0
360289.0 442555.0 0
364170.0 442348.0 0
368089.0 442186.0 0
374424.0 444946.0 0
378242.0 444249.0 0
381964.0 443308.0 0
385527.0 442132.0 0
391829.0 445147.0 0
395257.0 443905.0 0
398536.0 442485.0 0
401619.0 444566.0 0
404874.0 442874.0 0
88793.5 446828.0 0
95426.1 446311.0 0
101862.0 446068.0 0
105414.0 447170.0 0
109022.0 446627.0 0
115494.0 445242.0 0
119289.0 446164.0 0
123166.0 446929.0 0
129806.0 444933.0 0
133660.0 445203.0 0
137391.0 445380.0 0
141206.0 445787.0 0
145068.0 446201.0 0
148958.0 446606.0 0
152856.0 447044.0 0
159436.0 445092.0 0
169991.0 446738.0 0
173673.0 446476.0 0
177298.0 446068.0 0
180965.0 445621.0 0
184709.0 445225.0 0
188503.0 444908.0 0
192337.0 444620.0 0
196193.0 444319.0 0
205744.0 446454.0 0
209502.0 446032.0 0
213209.0 445598.0 0
216873.0 445192.0 0
220495.0 444846.0 0
224045.0 444618.0 0
227467.0 444195.0 0
237090.0 445273.0 0
243855.0 444431.0 0
250391.0 444470.0 0
257045.0 444540.0 0
263636.0 444596.0 0
269999.0 443836.0 0
276659.0 443855.0 0
280313.0 444994.0 0
284011.0 445778.0 0
287686.0 446294.0 0
291340.0 446631.0 0
300431.0 444260.0 0
304239.0 444357.0 0
307997.0 444310.0 0
311670.0 444148.0 0
317404.0 447107.0 0
321055.0 447011.0 0
324721.0 446940.0 0
328409.0 446873.0 0
332128.0 446805.0 0
335882.0 446718.0 0
339664.0 446605.0 0
343470.0 446469.0 0
347299.0 446298.0 0
351143.0 446086.0 0
354985.0 445844.0 0
358813.0 445611.0 0
362663.0 445356.0 0
366562.0 445120.0 0
370630.0 445318.0 0
377264.0 447541.0 0
381047.0 446705.0 0
384778.0 445707.0 0
388363.0 444479.0 0
394814.0 447356.0 0
398272.0 446079.0 0
404666.0 446651.0 0
407965.0 444823.0 0
411036.0 446732.0 0
85590.1 448847.0 0
92051.0 448319.0 0
95459.6 449619.0 0
98886.0 448398.0 0
102517.0 449608.0 0
112715.0 447733.0 0
116547.0 448640.0 0
120450.0 449426.0 0
127099.0 447523.0 0
131016.0 447969.0 0
134875.0 448304.0 0
138682.0 448601.0 0
142516.0 448981.0 0
146358.0 449365.0 0
157033.0 448118.0 0
162489.0 446735.0 0
166259.0 446876.0 0
179104.0 449020.0 0
182825.0 448489.0 0
186609.0 448093.0 0
190428.0 447774.0 0
194265.0 447479.0 0
198109.0 447174.0 0
201942.0 446836.0 0
211332.0 449050.0 0
215049.0 448684.0 0
218736.0 448356.0 0
222400.0 448101.0 0
226069.0 447860.0 0
229586.0 447040.0 0
233324.0 446219.0 0
240775.0 446166.0 0
243799.0 448361.0 0
247110.0 446366.0 0
250538.0 448194.0 0
253780.0 446393.0 0
257122.0 448289.0 0
260457.0 446506.0 0
263904.0 448514.0 0
267089.0 446340.0 0
270939.0 447090.0 0
274605.0 447016.0 0
278232.0 447856.0 0
281935.0 448547.0 0
285694.0 449160.0 0
294995.0 446932.0 0
298717.0 447210.0 0
302498.0 447374.0 0
306282.0 447425.0 0
310032.0 447373.0 0
313738.0 447240.0 0
345823.0 449417.0 0
349666.0 449205.0 0
353510.0 448970.0 0
357340.0 448727.0 0
361158.0 448461.0 0
364952.0 448183.0 0
368714.0 447951.0 0
373549.0 448251.0 0
383827.0 449218.0 0
387540.0 448241.0 0
391174.0 448276.0 0
397716.0 449671.0 0
401254.0 448258.0 0
407675.0 448739.0 0
410883.0 450401.0 0
414239.0 448725.0 0
79383.0 452723.0 0
82579.4 450948.0 0
88864.2 450603.0 0
92400.2 451859.0 0
96122.8 452771.0 0
99807.7 452219.0 0
106310.0 450359.0 0
110042.0 450416.0 0
113879.0 451233.0 0
117781.0 451997.0 0
124395.0 450089.0 0
128341.0 450638.0 0
132258.0 451087.0 0
136135.0 451464.0 0
139974.0 451819.0 0
143798.0 452202.0 0
150186.0 449754.0 0
153999.0 450171.0 0
160353.0 449636.0 0
164190.0 449923.0 0
168017.0 449948.0 0
171786.0 449804.0 0
175499.0 449547.0 0
180975.0 451850.0 0
184712.0 451338.0 0
188506.0 450971.0 0
192325.0 450670.0 0
196154.0 450385.0 0
199981.0 450091.0 0
203794.0 449770.0 0
207581.0 449420.0 0
220658.0 451549.0 0
224408.0 451320.0 0
228172.0 451106.0 0
231574.0 449728.0 0
235205.0 449155.0 0
238745.0 448870.0 0
247343.0 450084.0 0
253841.0 450223.0 0
260431.0 450285.0 0
268647.0 449896.0 0
272617.0 450350.0 0
276295.0 450853.0 0
279984.0 451440.0 0
289456.0 449601.0 0
293199.0 449930.0 0
296950.0 450195.0 0
300737.0 450392.0 0
304540.0 450506.0 0
308334.0 450528.0 0
312099.0 450471.0 0
315817.0 450376.0 0
319510.0 450280.0 0
323201.0 450183.0 0
326909.0 450094.0 0
330638.0 449997.0 0
334399.0 449887.0 0
338185.0 449754.0 0
341993.0 449598.0 0
355893.0 451877.0 0
359729.0 451616.0 0
363538.0 451338.0 0
367309.0 451047.0 0
371073.0 450522.0 0
376361.0 450975.0 0
380063.0 450116.0 0
386533.0 451867.0 0
390234.0 451448.0 0
394048.0 450751.0 0
400664.0 451930.0 0
404243.0 450454.0 0
414184.0 452366.0 0
417525.0 450779.0 0
420839.0 452857.0 0
76115.9 454766.0 0
79532.9 456382.0 0
85860.8 453075.0 0
89539.8 454331.0 0
93339.0 455306.0 0
103634.0 453065.0 0
107543.0 453601.0 0
111327.0 454006.0 0
115191.0 454682.0 0
121722.0 452683.0 0
125678.0 453286.0 0
129626.0 453810.0 0
133550.0 454264.0 0
137441.0 454671.0 0
147585.0 452588.0 0
151306.0 452967.0 0
154939.0 453288.0 0
158425.0 452765.0 0
162181.0 452969.0 0
166015.0 453086.0 0
169845.0 453056.0 0
173643.0 452907.0 0
177405.0 452660.0 0
182784.0 454654.0 0
186554.0 454210.0 0
190359.0 453886.0 0
194178.0 453610.0 0
198001.0 453343.0 0
201820.0 453064.0 0
205626.0 452765.0 0
209412.0 452447.0 0
213176.0 452123.0 0
216922.0 451815.0 0
230198.0 454454.0 0
233363.0 452582.0 0
237083.0 452247.0 0
240841.0 451870.0 0
244456.0 452048.0 0
250554.0 451956.0 0
257147.0 452046.0 0
263439.0 452395.0 0
267005.0 453073.0 0
270679.0 453419.0 0
274381.0 453910.0 0
283724.0 452020.0 0
287513.0 452516.0 0
291313.0 452901.0 0
295114.0 453195.0 0
298924.0 453416.0 0
302746.0 453569.0 0
306571.0 453648.0 0
310377.0 453659.0 0
314150.0 453620.0 0
317892.0 453545.0 0
321624.0 453451.0 0
325358.0 453346.0 0
329109.0 453231.0 0
332882.0 453097.0 0
336679.0 452944.0 0
340498.0 452769.0 0
344336.0 452574.0 0
348187.0 452357.0 0
352043.0 452122.0 0
362164.0 454513.0 0
365998.0 454210.0 0
369825.0 453776.0 0
373581.0 453063.0 0
379094.0 453643.0 0
382791.0 452725.0 0
389188.0 454768.0 0
393037.0 454085.0 0
396927.0 453240.0 0
403689.0 454236.0 0
407264.0 452674.0 0
410746.0 453924.0 0
417452.0 454481.0 0
424153.0 454936.0 0
69601.1 458851.0 0
72882.1 456799.0 0
76394.2 458633.0 0
83229.2 455909.0 0
86858.9 457032.0 0
97245.1 455904.0 0
101040.0 455880.0 0
104932.0 456477.0 0
108819.0 456995.0 0
119109.0 455346.0 0
123055.0 455963.0 0
127010.0 456524.0 0
130960.0 457029.0 0
141299.0 455067.0 0
145129.0 455474.0 0
148928.0 455876.0 0
152716.0 456226.0 0
156572.0 456269.0 0
160234.0 456145.0 0
164016.0 456234.0 0
167850.0 456264.0 0
171688.0 456197.0 0
175511.0 456050.0 0
179296.0 455878.0 0
184537.0 457476.0 0
188346.0 457119.0 0
192168.0 456844.0 0
195994.0 456596.0 0
199820.0 456347.0 0
203641.0 456085.0 0
207452.0 455806.0 0
211251.0 455518.0 0
215038.0 455234.0 0
218820.0 454972.0 0
222608.0 454743.0 0
226406.0 454551.0 0
235106.0 455514.0 0
238925.0 455284.0 0
242648.0 455243.0 0
246520.0 455116.0 0
250255.0 455473.0 0
253844.0 454154.0 0
257407.0 455620.0 0
261152.0 455437.0 0
264911.0 456078.0 0
268710.0 456543.0 0
278079.0 454430.0 0
281805.0 454962.0 0
285577.0 455450.0 0
289390.0 455861.0 0
293223.0 456190.0 0
297065.0 456442.0 0
300914.0 456626.0 0
304765.0 456749.0 0
308606.0 456814.0 0
312426.0 456828.0 0
316221.0 456796.0 0
319997.0 456723.0 0
323766.0 456621.0 0
327539.0 456496.0 0
331330.0 456346.0 0
335142.0 456172.0 0
338975.0 455978.0 0
342826.0 455766.0 0
346691.0 455538.0 0
350565.0 455298.0 0
354439.0 455048.0 0
358308.0 454787.0 0
364652.0 457397.0 0
368537.0 457012.0 0
372399.0 456464.0 0
376161.0 455684.0 0
381736.0 456306.0 0
385442.0 455419.0 0
391892.0 457494.0 0
395755.0 456713.0 0
399970.0 455540.0 0
406628.0 456709.0 0
410382.0 457373.0 0
413987.0 456004.0 0
417198.0 458197.0 0
420716.0 456630.0 0
427468.0 457014.0 0
66269.6 460934.0 0
73111.2 460718.0 0
80136.8 460002.0 0
84115.0 459864.0 0
90664.1 457968.0 0
94594.4 458680.0 0
98540.6 459147.0 0
102387.0 459414.0 0
106277.0 459925.0 0
112664.0 457504.0 0
116553.0 458105.0 0
120479.0 458702.0 0
124428.0 459268.0 0
128386.0 459796.0 0
134892.0 457488.0 0
138800.0 457918.0 0
142686.0 458345.0 0
146556.0 458774.0 0
150427.0 459151.0 0
154352.0 459354.0 0
158206.0 459444.0 0
161991.0 459441.0 0
165818.0 459475.0 0
169672.0 459455.0 0
173530.0 459370.0 0
177375.0 459248.0 0
181201.0 459132.0 0
201625.0 459388.0 0
205456.0 459142.0 0
209281.0 458884.0 0
213099.0 458623.0 0
216913.0 458373.0 0
220728.0 458146.0 0
224550.0 457958.0 0
228376.0 457839.0 0
232216.0 457825.0 0
236794.0 458506.0 0
240608.0 458503.0 0
244404.0 458462.0 0
248123.0 458579.0 0
251922.0 458679.0 0
255558.0 458769.0 0
259352.0 458895.0 0
263026.0 459224.0 0
272444.0 456972.0 0
276171.0 457467.0 0
279900.0 457970.0 0
283657.0 458442.0 0
287462.0 458848.0 0
291301.0 459192.0 0
295162.0 459468.0 0
329740.0 459629.0 0
333570.0 459437.0 0
337420.0 459223.0 0
341288.0 458991.0 0
345170.0 458749.0 0
349063.0 458497.0 0
352960.0 458239.0 0
356860.0 457973.0 0
360758.0 457696.0 0
371102.0 459792.0 0
374986.0 459178.0 0
378770.0 458406.0 0
384310.0 458999.0 0
388063.0 458210.0 0
394542.0 460234.0 0
398720.0 459012.0 0
402910.0 457985.0 0
409716.0 460818.0 0
413558.0 459616.0 0
420434.0 460427.0 0
423998.0 458787.0 0
430789.0 459106.0 0
434123.0 461182.0 0
62906.1 463039.0 0
69776.9 462780.0 0
77067.1 462472.0 0
81730.5 463389.0 0
88010.5 460761.0 0
92000.3 461500.0 0
95951.3 462073.0 0
99887.8 462510.0 0
110160.0 460441.0 0
114039.0 460965.0 0
117947.0 461519.0 0
121882.0 462066.0 0
132341.0 460287.0 0
136285.0 460748.0 0
140216.0 461194.0 0
144139.0 461641.0 0
148069.0 462074.0 0
152089.0 462337.0 0
186257.0 460341.0 0
190105.0 460071.0 0
193948.0 459841.0 0
197788.0 459619.0 0
211116.0 461991.0 0
214953.0 461756.0 0
218789.0 461536.0 0
222627.0 461348.0 0
226470.0 461212.0 0
230325.0 461155.0 0
234209.0 461205.0 0
242257.0 461742.0 0
246045.0 461824.0 0
249833.0 461922.0 0
266751.0 459610.0 0
270506.0 460055.0 0
274247.0 460518.0 0
277988.0 461018.0 0
281730.0 461492.0 0
285528.0 461882.0 0
289365.0 462222.0 0
299035.0 459681.0 0
302913.0 459837.0 0
306791.0 459944.0 0
310657.0 460008.0 0
314501.0 460023.0 0
318323.0 459989.0 0
322127.0 459911.0 0
325928.0 459788.0 0
339722.0 462248.0 0
343623.0 461988.0 0
347533.0 461723.0 0
351450.0 461453.0 0
355373.0 461177.0 0
359301.0 460893.0 0
363237.0 460591.0 0
367182.0 460251.0 0
377578.0 461944.0 0
381389.0 461224.0 0
386837.0 461724.0 0
390675.0 460964.0 0
397524.0 462572.0 0
401501.0 461539.0 0
405757.0 460608.0 0
412805.0 463150.0 0
416783.0 461896.0 0
423684.0 462656.0 0
427286.0 460935.0 0
437505.0 463295.0 0
66425.6 464899.0 0
70350.7 466690.0 0
73748.2 464621.0 0
78802.7 466009.0 0
85588.3 463790.0 0
89495.2 464409.0 0
93426.6 465042.0 0
103768.0 462903.0 0
107655.0 463398.0 0
111545.0 463906.0 0
115445.0 464414.0 0
119369.0 464929.0 0
125837.0 462593.0 0
129801.0 463097.0 0
133762.0 463575.0 0
137720.0 464035.0 0
141666.0 464495.0 0
145603.0 464956.0 0
156013.0 462563.0 0
159896.0 462675.0 0
163746.0 462709.0 0
167610.0 462710.0 0
171491.0 462658.0 0
175380.0 462566.0 0
179257.0 462473.0 0
183124.0 462397.0 0
187969.0 463262.0 0
191851.0 463066.0 0
195718.0 462876.0 0
199576.0 462676.0 0
203428.0 462460.0 0
207274.0 462229.0 0
220658.0 464730.0 0
224507.0 464584.0 0
228360.0 464497.0 0
232221.0 464494.0 0
236095.0 464616.0 0
238395.0 461658.0 0
253598.0 462063.0 0
257349.0 462168.0 0
261072.0 462415.0 0
264806.0 462743.0 0
268552.0 463135.0 0
272304.0 463582.0 0
276048.0 464068.0 0
279774.0 464596.0 0
293231.0 462508.0 0
297116.0 462740.0 0
301014.0 462920.0 0
304918.0 463055.0 0
308823.0 463153.0 0
312722.0 463222.0 0
316590.0 463241.0 0
320434.0 463203.0 0
324270.0 463100.0 0
328109.0 462940.0 0
331961.0 462737.0 0
335832.0 462501.0 0
345979.0 464977.0 0
349912.0 464694.0 0
353850.0 464407.0 0
357797.0 464112.0 0
361754.0 463805.0 0
365722.0 463472.0 0
369727.0 463107.0 0
373674.0 462576.0 0
380169.0 464780.0 0
384012.0 464127.0 0
389309.0 464448.0 0
393216.0 463775.0 0
400247.0 465218.0 0
404077.0 464280.0 0
407857.0 463936.0 0
415978.0 465532.0 0
419998.0 464253.0 0
426995.0 464884.0 0
430595.0 463101.0 0
433996.0 465157.0 0
83194.4 466976.0 0
87087.1 467455.0 0
90990.0 468064.0 0
97341.1 465522.0 0
101267.0 465946.0 0
105161.0 466397.0 0
109054.0 466888.0 0
112958.0 467375.0 0
123318.0 465438.0 0
127281.0 465936.0 0
131250.0 466421.0 0
135221.0 466886.0 0
139178.0 467356.0 0
149818.0 465246.0 0
153778.0 465608.0 0
157712.0 465822.0 0
161619.0 465942.0 0
165510.0 465976.0 0
169411.0 465940.0 0
173339.0 465855.0 0
177259.0 465776.0 0
181166.0 465709.0 0
185068.0 465660.0 0
189691.0 466241.0 0
193603.0 466103.0 0
197491.0 465944.0 0
201368.0 465762.0 0
205237.0 465559.0 0
209099.0 465343.0 0
212955.0 465125.0 0
216808.0 464916.0 0
240049.0 464914.0 0
243917.0 465052.0 0
247744.0 465164.0 0
251543.0 465295.0 0
255331.0 465437.0 0
259084.0 465627.0 0
262836.0 465901.0 0
266592.0 466245.0 0
270349.0 466654.0 0
274101.0 467122.0 0
283576.0 464963.0 0
287414.0 465290.0 0
291281.0 465574.0 0
295171.0 465815.0 0
299078.0 466009.0 0
302997.0 466162.0 0
306924.0 466279.0 0
310859.0 466371.0 0
314798.0 466465.0 0
318688.0 466488.0 0
322565.0 466418.0 0
326440.0 466275.0 0
330320.0 466068.0 0
334214.0 465814.0 0
338130.0 465533.0 0
342052.0 465255.0 0
356258.0 467362.0 0
360223.0 467048.0 0
364199.0 466720.0 0
368177.0 466365.0 0
372302.0 465950.0 0
376254.0 465384.0 0
386630.0 467108.0 0
391659.0 467236.0 0
396177.0 466148.0 0
408654.0 467549.0 0
412316.0 466742.0 0
418972.0 468014.0 0
423267.0 466533.0 0
77368.7 469688.0 0
81286.7 470411.0 0
94892.7 468643.0 0
98767.9 468983.0 0
102672.0 469432.0 0
106569.0 469910.0 0
116880.0 467856.0 0
120824.0 468338.0 0
124783.0 468818.0 0
128752.0 469296.0 0
132744.0 469759.0 0
136704.0 470234.0 0
143117.0 467834.0 0
147447.0 468092.0 0
151421.0 468531.0 0
155492.0 468923.0 0
159434.0 469132.0 0
163363.0 469236.0 0
167296.0 469240.0 0
171276.0 469128.0 0
175231.0 469057.0 0
179170.0 468999.0 0
183098.0 468953.0 0
187027.0 468922.0 0
191437.0 469280.0 0
195370.0 469182.0 0
199279.0 469044.0 0
203173.0 468874.0 0
207057.0 468684.0 0
210931.0 468485.0 0
214798.0 468289.0 0
218659.0 468108.0 0
222514.0 467959.0 0
226364.0 467856.0 0
230210.0 467819.0 0
234054.0 467871.0 0
237904.0 468029.0 0
241793.0 468236.0 0
245651.0 468387.0 0
249477.0 468525.0 0
253284.0 468672.0 0
257071.0 468850.0 0
260844.0 469078.0 0
264616.0 469375.0 0
277805.0 467773.0 0
281606.0 468092.0 0
285445.0 468398.0 0
289313.0 468673.0 0
293205.0 468913.0 0
297115.0 469114.0 0
301040.0 469278.0 0
304976.0 469407.0 0
308923.0 469508.0 0
312887.0 469597.0 0
316887.0 469754.0 0
320820.0 469736.0 0
324737.0 469622.0 0
328652.0 469429.0 0
332573.0 469163.0 0
336521.0 468844.0 0
340465.0 468548.0 0
344408.0 468257.0 0
348353.0 467964.0 0
352302.0 467666.0 0
362643.0 469993.0 0
366629.0 469656.0 0
370668.0 469241.0 0
374861.0 468792.0 0
378811.0 468249.0 0
382740.0 467686.0 0
397408.0 469677.0 0
401136.0 468900.0 0
404875.0 468069.0 0
411396.0 470388.0 0
415210.0 469344.0 0
422168.0 470319.0 0
85333.7 470950.0 0
89330.9 471587.0 0
93280.8 472206.0 0
100140.0 472457.0 0
110476.0 470384.0 0
114404.0 470840.0 0
118351.0 471292.0 0
122311.0 471748.0 0
126280.0 472210.0 0
130286.0 472660.0 0
140645.0 470722.0 0
145031.0 470954.0 0
148985.0 471404.0 0
153056.0 471827.0 0
157210.0 472297.0 0
161162.0 472479.0 0
165116.0 472545.0 0
169236.0 472393.0 0
173205.0 472326.0 0
177160.0 472277.0 0
181103.0 472236.0 0
185045.0 472203.0 0
188992.0 472182.0 0
193214.0 472374.0 0
197163.0 472299.0 0
201088.0 472172.0 0
204996.0 472013.0 0
208889.0 471837.0 0
212771.0 471656.0 0
216643.0 471484.0 0
220506.0 471335.0 0
224360.0 471225.0 0
228204.0 471169.0 0
232039.0 471181.0 0
235871.0 471273.0 0
239717.0 471424.0 0
243575.0 471597.0 0
247416.0 471752.0 0
251239.0 471903.0 0
255045.0 472069.0 0
258840.0 472269.0 0
268387.0 469741.0 0
272149.0 470177.0 0
275816.0 471011.0 0
279622.0 471277.0 0
283461.0 471551.0 0
287328.0 471809.0 0
291220.0 472042.0 0
295130.0 472243.0 0
299056.0 472412.0 0
330908.0 472556.0 0
334915.0 472175.0 0
338876.0 471866.0 0
342828.0 471565.0 0
346780.0 471263.0 0
350735.0 470956.0 0
354696.0 470643.0 0
358664.0 470323.0 0
369093.0 472582.0 0
373198.0 472111.0 0
377348.0 471689.0 0
381301.0 471181.0 0
385244.0 470677.0 0
389173.0 470189.0 0
393661.0 470276.0 0
399900.0 472599.0 0
403735.0 471808.0 0
407551.0 471134.0 0
414190.0 473166.0 0
418187.0 471867.0 0
82866.1 474051.0 0
86830.9 474638.0 0
90805.2 475278.0 0
96662.9 474295.0 0
104071.0 472953.0 0
107991.0 473433.0 0
111937.0 473870.0 0
115898.0 474294.0 0
119864.0 474726.0 0
123837.0 475164.0 0
134248.0 473134.0 0
138194.0 473625.0 0
142609.0 473849.0 0
146561.0 474314.0 0
150559.0 474712.0 0
154651.0 475172.0 0
158931.0 475713.0 0
210736.0 475020.0 0
214618.0 474858.0 0
218490.0 474712.0 0
222352.0 474599.0 0
226203.0 474531.0 0
230040.0 474520.0 0
233868.0 474572.0 0
237698.0 474680.0 0
241535.0 474826.0 0
245376.0 474984.0 0
262630.0 472520.0 0
266418.0 472839.0 0
270198.0 473235.0 0
273805.0 474300.0 0
277620.0 474514.0 0
281461.0 474749.0 0
285329.0 474984.0 0
302992.0 472550.0 0
306937.0 472658.0 0
310887.0 472745.0 0
314843.0 472830.0 0
319060.0 473052.0 0
323006.0 472979.0 0
326951.0 472811.0 0
337301.0 475210.0 0
341252.0 474903.0 0
345204.0 474593.0 0
349159.0 474278.0 0
353120.0 473958.0 0
357087.0 473630.0 0
361063.0 473296.0 0
365046.0 472960.0 0
375666.0 475057.0 0
379767.0 474643.0 0
383719.0 474198.0 0
387649.0 473766.0 0
391548.0 473406.0 0
396026.0 473319.0 0
402532.0 475491.0 0
406406.0 474764.0 0
410301.0 474052.0 0
417229.0 475714.0 0
421367.0 474207.0 0
84348.1 477743.0 0
88295.8 478350.0 0
94185.5 477385.0 0
101528.0 475964.0 0
105487.0 476510.0 0
109472.0 476936.0 0
113465.0 477337.0 0
117441.0 477749.0 0
127850.0 475596.0 0
131814.0 476062.0 0
135767.0 476546.0 0
140178.0 476779.0 0
144129.0 477248.0 0
148112.0 477673.0 0
162891.0 475853.0 0
167209.0 475639.0 0
171189.0 475592.0 0
175151.0 475552.0 0
179101.0 475519.0 0
183047.0 475488.0 0
186994.0 475460.0 0
190952.0 475443.0 0
195026.0 475520.0 0
198987.0 475449.0 0
202923.0 475328.0 0
206839.0 475181.0 0
228047.0 477874.0 0
231879.0 477903.0 0
249207.0 475139.0 0
253026.0 475297.0 0
256835.0 475473.0 0
260641.0 475684.0 0
264447.0 475952.0 0
268250.0 476297.0 0
271770.0 477630.0 0
275597.0 477796.0 0
289219.0 475204.0 0
293129.0 475400.0 0
297054.0 475571.0 0
300990.0 475714.0 0
304934.0 475830.0 0
308883.0 475922.0 0
312835.0 475997.0 0
316799.0 476034.0 0
321255.0 476356.0 0
325211.0 476217.0 0
329186.0 475979.0 0
333346.0 475521.0 0
347582.0 477634.0 0
351537.0 477307.0 0
355501.0 476972.0 0
359473.0 476632.0 0
363451.0 476288.0 0
367471.0 475925.0 0
371601.0 475489.0 0
382115.0 477682.0 0
386074.0 477295.0 0
390017.0 476936.0 0
393953.0 476555.0 0
398632.0 476257.0 0
405220.0 478424.0 0
409137.0 477758.0 0
98131.4 478007.0 0
102870.0 479508.0 0
107033.0 480035.0 0
121427.0 478160.0 0
125439.0 478574.0 0
129407.0 479023.0 0
133364.0 479492.0 0
137742.0 479743.0 0
141695.0 480215.0 0
145657.0 480653.0 0
152089.0 478065.0 0
156244.0 478557.0 0
160643.0 479175.0 0
165181.0 478876.0 0
169182.0 478852.0 0
173150.0 478829.0 0
177104.0 478807.0 0
181048.0 478783.0 0
184990.0 478754.0 0
188937.0 478726.0 0
192896.0 478705.0 0
196886.0 478707.0 0
200848.0 478628.0 0
204787.0 478514.0 0
208703.0 478382.0 0
212595.0 478235.0 0
216473.0 478092.0 0
220343.0 477974.0 0
224203.0 477898.0 0
235707.0 477981.0 0
239535.0 478098.0 0
243367.0 478239.0 0
247199.0 478389.0 0
251026.0 478540.0 0
254847.0 478697.0 0
258664.0 478873.0 0
262484.0 479084.0 0
266312.0 479367.0 0
279444.0 477992.0 0
283314.0 478198.0 0
287205.0 478400.0 0
291116.0 478588.0 0
295041.0 478756.0 0
298977.0 478901.0 0
302920.0 479022.0 0
306869.0 479120.0 0
310825.0 479197.0 0
314789.0 479244.0 0
318762.0 479232.0 0
323449.0 479662.0 0
327439.0 479423.0 0
331777.0 478865.0 0
335736.0 478579.0 0
339683.0 478272.0 0
343631.0 477955.0 0
353910.0 480349.0 0
357876.0 480001.0 0
361852.0 479649.0 0
365844.0 479289.0 0
369948.0 478868.0 0
374034.0 478472.0 0
378097.0 478055.0 0
392394.0 480110.0 0
396554.0 479522.0 0
401324.0 479153.0 0
91676.1 480480.0 0
95625.3 481098.0 0
99567.2 481734.0 0
104416.0 483001.0 0
111061.0 480417.0 0
115042.0 480811.0 0
119050.0 481197.0 0
123056.0 481593.0 0
127027.0 482022.0 0
130990.0 482471.0 0
135307.0 482742.0 0
139258.0 483211.0 0
149628.0 481074.0 0
153597.0 481448.0 0
157825.0 481995.0 0
163169.0 482132.0 0
167203.0 482104.0 0
171172.0 482110.0 0
175121.0 482103.0 0
179060.0 482089.0 0
182995.0 482066.0 0
186932.0 482035.0 0
190874.0 482002.0 0
194824.0 481968.0 0
198790.0 481923.0 0
202742.0 481838.0 0
206676.0 481734.0 0
210587.0 481621.0 0
214464.0 481483.0 0
218337.0 481355.0 0
222206.0 481268.0 0
226059.0 481237.0 0
229897.0 481253.0 0
233728.0 481311.0 0
237556.0 481405.0 0
241385.0 481526.0 0
245217.0 481661.0 0
249050.0 481802.0 0
252881.0 481944.0 0
256713.0 482091.0 0
260547.0 482254.0 0
264391.0 482453.0 0
269711.0 480994.0 0
273553.0 481117.0 0
277409.0 481276.0 0
281284.0 481452.0 0
285178.0 481631.0 0
289091.0 481805.0 0
293016.0 481967.0 0
296953.0 482111.0 0
300896.0 482236.0 0
304845.0 482339.0 0
308800.0 482420.0 0
312763.0 482475.0 0
316739.0 482494.0 0
320721.0 482449.0 0
325714.0 482895.0 0
330200.0 482208.0 0
334170.0 481964.0 0
338120.0 481670.0 0
342064.0 481351.0 0
346007.0 481026.0 0
349955.0 480691.0 0
360243.0 483042.0 0
364223.0 482679.0 0
368287.0 482269.0 0
372353.0 481886.0 0
376438.0 481496.0 0
380445.0 481134.0 0
384431.0 480788.0 0
388407.0 480441.0 0
399267.0 482418.0 0
403987.0 482108.0 0
407921.0 481510.0 0
95371.1 485069.0 0
108681.0 483536.0 0
112669.0 483910.0 0
116698.0 484270.0 0
120699.0 484652.0 0
124674.0 485059.0 0
128643.0 485486.0 0
143213.0 483664.0 0
147163.0 484096.0 0
151119.0 484516.0 0
155102.0 484846.0 0
160423.0 484819.0 0
165271.0 485365.0 0
169220.0 485396.0 0
184942.0 485366.0 0
188875.0 485329.0 0
192814.0 485286.0 0
196761.0 485232.0 0
200712.0 485164.0 0
204655.0 485078.0 0
208586.0 484988.0 0
212494.0 484905.0 0
216342.0 484755.0 0
220213.0 484640.0 0
224071.0 484603.0 0
227915.0 484614.0 0
231752.0 484660.0 0
235586.0 484738.0 0
239419.0 484841.0 0
243255.0 484961.0 0
247095.0 485087.0 0
250938.0 485214.0 0
254786.0 485337.0 0
267630.0 484380.0 0
271487.0 484472.0 0
275354.0 484597.0 0
279238.0 484742.0 0
283139.0 484896.0 0
287055.0 485052.0 0
290984.0 485204.0 0
294922.0 485345.0 0
298866.0 485471.0 0
322868.0 485569.0 0
332588.0 485349.0 0
336566.0 485094.0 0
340511.0 484778.0 0
344443.0 484453.0 0
348376.0 484114.0 0
352319.0 483764.0 0
356274.0 483405.0 0
370667.0 485316.0 0
374737.0 484939.0 0
378760.0 484599.0 0
382745.0 484267.0 0
386728.0 483938.0 0
390709.0 483613.0 0
395026.0 483087.0 0
401901.0 485413.0 0
101225.0 485362.0 0
106053.0 486478.0 0
110329.0 487053.0 0
114371.0 487380.0 0
118363.0 487747.0 0
122343.0 488133.0 0
132889.0 485779.0 0
136841.0 486239.0 0
140784.0 486701.0 0
144704.0 487156.0 0
148578.0 487595.0 0
152371.0 488048.0 0
173152.0 485411.0 0
177083.0 485409.0 0
181013.0 485394.0 0
218230.0 488022.0 0
222078.0 487972.0 0
225924.0 487983.0 0
229771.0 488021.0 0
233614.0 488089.0 0
237457.0 488179.0 0
258644.0 485459.0 0
262521.0 485589.0 0
269390.0 487850.0 0
273277.0 487950.0 0
277175.0 488065.0 0
281087.0 488192.0 0
302813.0 485579.0 0
306763.0 485667.0 0
310717.0 485730.0 0
314677.0 485763.0 0
318653.0 485766.0 0
328599.0 485552.0 0
342906.0 487920.0 0
346809.0 487579.0 0
350729.0 487220.0 0
354669.0 486848.0 0
358627.0 486472.0 0
362599.0 486095.0 0
366628.0 485698.0 0
377044.0 488066.0 0
381042.0 487751.0 0
385027.0 487436.0 0
389008.0 487121.0 0
393289.0 486579.0 0
397754.0 485985.0 0
98166.2 487912.0 0
102960.0 488953.0 0
107696.0 489979.0 0
112073.0 490534.0 0
126318.0 488539.0 0
130497.0 488852.0 0
134453.0 489298.0 0
138398.0 489760.0 0
142321.0 490240.0 0
146202.0 490721.0 0
156097.0 488421.0 0
159774.0 488554.0 0
163496.0 488670.0 0
167332.0 488715.0 0
171215.0 488740.0 0
175123.0 488747.0 0
179040.0 488739.0 0
182962.0 488715.0 0
186890.0 488679.0 0
190823.0 488633.0 0
194761.0 488576.0 0
198703.0 488507.0 0
202645.0 488427.0 0
206586.0 488343.0 0
210523.0 488275.0 0
214440.0 488249.0 0
241302.0 488284.0 0
245152.0 488396.0 0
249008.0 488508.0 0
252874.0 488611.0 0
256754.0 488700.0 0
260659.0 488771.0 0
265501.0 487934.0 0
285011.0 488328.0 0
288946.0 488467.0 0
292887.0 488602.0 0
296833.0 488727.0 0
300780.0 488840.0 0
304726.0 488936.0 0
308668.0 489012.0 0
312599.0 489064.0 0
316503.0 489094.0 0
320340.0 489135.0 0
324081.0 489147.0 0
327738.0 489148.0 0
331439.0 488899.0 0
335202.0 488586.0 0
339027.0 488243.0 0
349141.0 490723.0 0
353059.0 490335.0 0
357004.0 489939.0 0
360971.0 489545.0 0
364963.0 489148.0 0
368986.0 488770.0 0
373027.0 488398.0 0
387299.0 490636.0 0
391571.0 490098.0 0
395985.0 489459.0 0
400336.0 489020.0 0
99908.6 491501.0 0
104690.0 492546.0 0
109457.0 493453.0 0
116050.0 490880.0 0
120030.0 491241.0 0
124008.0 491625.0 0
128131.0 491954.0 0
132091.0 492385.0 0
136040.0 492839.0 0
139974.0 493319.0 0
150033.0 491188.0 0
153863.0 491596.0 0
157705.0 491874.0 0
161529.0 492009.0 0
165381.0 492069.0 0
169256.0 492095.0 0
173153.0 492107.0 0
177066.0 492102.0 0
180986.0 492081.0 0
184913.0 492047.0 0
188844.0 492003.0 0
192778.0 491946.0 0
196714.0 491877.0 0
200650.0 491796.0 0
204586.0 491708.0 0
208528.0 491625.0 0
212490.0 491586.0 0
220007.0 491315.0 0
223896.0 491350.0 0
227770.0 491385.0 0
231631.0 491449.0 0
235487.0 491532.0 0
239345.0 491626.0 0
243208.0 491726.0 0
247080.0 491824.0 0
250963.0 491910.0 0
254864.0 491975.0 0
258794.0 492004.0 0
263353.0 491471.0 0
267274.0 491379.0 0
271185.0 491328.0 0
275099.0 491420.0 0
279027.0 491517.0 0
282962.0 491630.0 0
286903.0 491754.0 0
290850.0 491880.0 0
294799.0 492003.0 0
298750.0 492118.0 0
302698.0 492222.0 0
306641.0 492310.0 0
310573.0 492383.0 0
314484.0 492440.0 0
318361.0 492496.0 0
322204.0 492539.0 0
326018.0 492537.0 0
329850.0 492388.0 0
333671.0 492106.0 0
337507.0 491775.0 0
341362.0 491434.0 0
345243.0 491090.0 0
355372.0 493450.0 0
359330.0 493029.0 0
363306.0 492626.0 0
367298.0 492241.0 0
371320.0 491876.0 0
375320.0 491545.0 0
379315.0 491235.0 0
383312.0 490934.0 0
394261.0 492983.0 0
398508.0 492511.0 0
98962.7 495374.0 0
113756.0 494052.0 0
117736.0 494387.0 0
121714.0 494745.0 0
125781.0 495080.0 0
129753.0 495498.0 0
133709.0 495942.0 0
143879.0 493841.0 0
147732.0 494353.0 0
151615.0 494759.0 0
155523.0 495090.0 0
159433.0 495310.0 0
163341.0 495414.0 0
167248.0 495462.0 0
171160.0 495479.0 0
175081.0 495478.0 0
179008.0 495461.0 0
182938.0 495431.0 0
186872.0 495389.0 0
190807.0 495335.0 0
194741.0 495269.0 0
198672.0 495190.0 0
202598.0 495100.0 0
206518.0 495006.0 0
210431.0 494928.0 0
214325.0 494942.0 0
218029.0 494599.0 0
221864.0 494715.0 0
225756.0 494744.0 0
229634.0 494814.0 0
233505.0 494896.0 0
237377.0 494984.0 0
241255.0 495074.0 0
245142.0 495161.0 0
249043.0 495235.0 0
252962.0 495283.0 0
256910.0 495288.0 0
261169.0 495012.0 0
265123.0 494916.0 0
269073.0 494835.0 0
273017.0 494807.0 0
276966.0 494870.0 0
280913.0 494959.0 0
284861.0 495064.0 0
288813.0 495179.0 0
292767.0 495297.0 0
296722.0 495412.0 0
300675.0 495520.0 0
304625.0 495618.0 0
308568.0 495704.0 0
312498.0 495778.0 0
328105.0 495818.0 0
332003.0 495605.0 0
335887.0 495309.0 0
339769.0 494978.0 0
343656.0 494634.0 0
347551.0 494274.0 0
351448.0 493874.0 0
365618.0 495737.0 0
369607.0 495371.0 0
373597.0 495041.0 0
377583.0 494730.0 0
381571.0 494431.0 0
385567.0 494147.0 0
389855.0 493636.0 0
400838.0 495745.0 0
102893.0 496077.0 0
106863.0 496416.0 0
111148.0 496996.0 0
115457.0 497568.0 0
119436.0 497903.0 0
123446.0 498234.0 0
137649.0 496409.0 0
141566.0 496921.0 0
145430.0 497550.0 0
149357.0 497942.0 0
153304.0 498283.0 0
204560.0 498421.0 0
208473.0 498319.0 0
212396.0 498242.0 0
219277.0 498305.0 0
223703.0 498078.0 0
227615.0 498175.0 0
231503.0 498267.0 0
235391.0 498353.0 0
239285.0 498437.0 0
274931.0 498255.0 0
278876.0 498315.0 0
282827.0 498400.0 0
286780.0 498500.0 0
316413.0 495845.0 0
320314.0 495898.0 0
324207.0 495910.0 0
338109.0 498519.0 0
342026.0 498190.0 0
345940.0 497844.0 0
349848.0 497472.0 0
353736.0 497019.0 0
357675.0 496549.0 0
361640.0 496127.0 0
375852.0 498240.0 0
379832.0 497943.0 0
383814.0 497653.0 0
388095.0 497175.0 0
392547.0 496535.0 0
396758.0 496058.0 0
100633.0 499348.0 0
104616.0 499685.0 0
108600.0 500010.0 0
112896.0 500548.0 0
117156.0 501090.0 0
127422.0 498621.0 0
131399.0 499067.0 0
135353.0 499523.0 0
139291.0 500010.0 0
157272.0 498563.0 0
161241.0 498728.0 0
165196.0 498813.0 0
169139.0 498852.0 0
173080.0 498861.0 0
177021.0 498850.0 0
180962.0 498825.0 0
184903.0 498788.0 0
188843.0 498738.0 0
192781.0 498677.0 0
196715.0 498603.0 0
200642.0 498518.0 0
243189.0 498515.0 0
247105.0 498580.0 0
251040.0 498620.0 0
254999.0 498614.0 0
259126.0 498444.0 0
263096.0 498373.0 0
267050.0 498300.0 0
270995.0 498247.0 0
290737.0 498609.0 0
294695.0 498720.0 0
298654.0 498830.0 0
302611.0 498933.0 0
306565.0 499027.0 0
310514.0 499112.0 0
314457.0 499186.0 0
318398.0 499245.0 0
322342.0 499275.0 0
326291.0 499231.0 0
330242.0 499070.0 0
334182.0 498822.0 0
348227.0 501069.0 0
352154.0 500690.0 0
356027.0 500117.0 0
359961.0 499656.0 0
363922.0 499252.0 0
367896.0 498884.0 0
371873.0 498549.0 0
386289.0 500712.0 0
390776.0 500085.0 0
395028.0 499636.0 0
399018.0 499316.0 0
98983.4 502983.0 0
102958.0 503305.0 0
121132.0 501423.0 0
125098.0 501781.0 0
129061.0 502173.0 0
133079.0 502660.0 0
137040.0 503122.0 0
143159.0 500811.0 0
147106.0 501159.0 0
151067.0 501492.0 0
155049.0 501781.0 0
159112.0 502011.0 0
163119.0 502143.0 0
167096.0 502215.0 0
171063.0 502243.0 0
175024.0 502243.0 0
178980.0 502226.0 0
182933.0 502195.0 0
186883.0 502152.0 0
190830.0 502096.0 0
194772.0 502029.0 0
198707.0 501950.0 0
202632.0 501859.0 0
206543.0 501751.0 0
210448.0 501629.0 0
214360.0 501489.0 0
218060.0 502093.0 0
221748.0 501383.0 0
225605.0 501530.0 0
229487.0 501643.0 0
233385.0 501733.0 0
237295.0 501812.0 0
241214.0 501885.0 0
245145.0 501944.0 0
249092.0 501981.0 0
253061.0 501976.0 0
257093.0 501877.0 0
261068.0 501814.0 0
265030.0 501756.0 0
268979.0 501703.0 0
272917.0 501683.0 0
276857.0 501705.0 0
280803.0 501764.0 0
284755.0 501845.0 0
288711.0 501942.0 0
292671.0 502046.0 0
296633.0 502152.0 0
300597.0 502257.0 0
304559.0 502355.0 0
308522.0 502445.0 0
312484.0 502525.0 0
316449.0 502589.0 0
320422.0 502629.0 0
324411.0 502628.0 0
328431.0 502519.0 0
332418.0 502313.0 0
336389.0 502045.0 0
340345.0 501739.0 0
344290.0 501414.0 0
358263.0 503221.0 0
362206.0 502789.0 0
366170.0 502407.0 0
370141.0 502070.0 0
374114.0 501761.0 0
378092.0 501468.0 0
382071.0 501178.0 0
396375.0 503382.0 0
400357.0 503069.0 0
106929.0 503605.0 0
110890.0 503938.0 0
114852.0 504273.0 0
118831.0 504637.0 0
122790.0 504978.0 0
126741.0 505341.0 0
130687.0 505725.0 0
134798.0 506263.0 0
140901.0 504098.0 0
144873.0 504416.0 0
148840.0 504741.0 0
152822.0 505017.0 0
156889.0 505239.0 0
161015.0 505440.0 0
165044.0 505570.0 0
169036.0 505622.0 0
173019.0 505636.0 0
176995.0 505631.0 0
180963.0 505609.0 0
184925.0 505573.0 0
188883.0 505523.0 0
192837.0 505461.0 0
196785.0 505389.0 0
200726.0 505306.0 0
204657.0 505210.0 0
208576.0 505076.0 0
212510.0 504896.0 0
217984.0 506007.0 0
223481.0 504862.0 0
227412.0 505019.0 0
231342.0 505119.0 0
235279.0 505196.0 0
239215.0 505269.0 0
243161.0 505325.0 0
247117.0 505363.0 0
251088.0 505366.0 0
255077.0 505312.0 0
259051.0 505258.0 0
263015.0 505208.0 0
266968.0 505163.0 0
270910.0 505131.0 0
274849.0 505127.0 0
278791.0 505157.0 0
282738.0 505217.0 0
286691.0 505297.0 0
290650.0 505390.0 0
294614.0 505489.0 0
298580.0 505592.0 0
302548.0 505691.0 0
306519.0 505785.0 0
310492.0 505868.0 0
314470.0 505938.0 0
318453.0 505985.0 0
322448.0 506005.0 0
326546.0 505936.0 0
330624.0 505791.0 0
334632.0 505559.0 0
338620.0 505275.0 0
342594.0 504975.0 0
346557.0 504658.0 0
350508.0 504318.0 0
354458.0 504245.0 0
360459.0 506349.0 0
364423.0 505941.0 0
368391.0 505597.0 0
372360.0 505290.0 0
376335.0 504999.0 0
380319.0 504718.0 0
384453.0 504315.0 0
388429.0 504024.0 0
392398.0 503700.0 0
100710.0 506878.0 0
104691.0 506900.0 0
108647.0 507208.0 0
112601.0 507541.0 0
116551.0 507870.0 0
120500.0 508210.0 0
124439.0 508552.0 0
128372.0 508918.0 0
138667.0 507429.0 0
142653.0 507691.0 0
146633.0 508032.0 0
150625.0 508295.0 0
154690.0 508490.0 0
158802.0 508677.0 0
194867.0 508832.0 0
198825.0 508756.0 0
202776.0 508669.0 0
206722.0 508564.0 0
210646.0 508374.0 0
214591.0 508099.0 0
221364.0 508132.0 0
225310.0 508385.0 0
229268.0 508507.0 0
233241.0 508582.0 0
237197.0 508663.0 0
241157.0 508719.0 0
245122.0 508762.0 0
257043.0 508707.0 0
261008.0 508664.0 0
264963.0 508622.0 0
268910.0 508590.0 0
272847.0 508572.0 0
276787.0 508578.0 0
280729.0 508615.0 0
284676.0 508677.0 0
288631.0 508754.0 0
292594.0 508843.0 0
336870.0 508806.0 0
340860.0 508526.0 0
344844.0 508236.0 0
348817.0 507929.0 0
352791.0 507867.0 0
356765.0 507803.0 0
370584.0 508827.0 0
374556.0 508540.0 0
378537.0 508257.0 0
382677.0 507885.0 0
386665.0 507608.0 0
390653.0 507307.0 0
394633.0 506993.0 0
398619.0 506829.0 0
100736.0 510877.0 0
104735.0 510888.0 0
108721.0 511183.0 0
132314.0 509252.0 0
162922.0 508883.0 0
167005.0 508998.0 0
171016.0 509030.0 0
175008.0 509036.0 0
178992.0 509026.0 0
182967.0 509000.0 0
186938.0 508958.0 0
190904.0 508901.0 0
217935.0 509956.0 0
249093.0 508775.0 0
253071.0 508751.0 0
296560.0 508940.0 0
300531.0 509038.0 0
304506.0 509132.0 0
308485.0 509218.0 0
312470.0 509293.0 0
316461.0 509352.0 0
320455.0 509381.0 0
324577.0 509322.0 0
328720.0 509227.0 0
332828.0 509064.0 0
362664.0 509487.0 0
366619.0 509129.0 0
391849.0 511108.0 0
395820.0 510878.0 0
399808.0 510915.0 0
112705.0 511516.0 0
116708.0 511826.0 0
120830.0 512134.0 0
124929.0 512446.0 0
129079.0 512769.0 0
133050.0 513009.0 0
136521.0 511058.0 0
140509.0 511024.0 0
144485.0 511385.0 0
148475.0 511615.0 0
152547.0 511786.0 0
156621.0 511943.0 0
160700.0 512140.0 0
164873.0 512320.0 0
169005.0 512419.0 0
173028.0 512444.0 0
177023.0 512446.0 0
181011.0 512432.0 0
184995.0 512400.0 0
188973.0 512348.0 0
192949.0 512282.0 0
196920.0 512209.0 0
200890.0 512129.0 0
204857.0 512033.0 0
208838.0 511920.0 0
212792.0 511610.0 0
218977.0 513638.0 0
223117.0 511713.0 0
227137.0 511921.0 0
231196.0 511955.0 0
235169.0 512064.0 0
239146.0 512124.0 0
243114.0 512174.0 0
247091.0 512201.0 0
251065.0 512195.0 0
255041.0 512163.0 0
259007.0 512124.0 0
262967.0 512091.0 0
266915.0 512054.0 0
270856.0 512037.0 0
274787.0 512021.0 0
278725.0 512039.0 0
282664.0 512081.0 0
286616.0 512139.0 0
290575.0 512214.0 0
294540.0 512304.0 0
298510.0 512398.0 0
302485.0 512492.0 0
306467.0 512578.0 0
310455.0 512655.0 0
314450.0 512723.0 0
318458.0 512771.0 0
322581.0 512708.0 0
326735.0 512632.0 0
330899.0 512523.0 0
335060.0 512326.0 0
339098.0 512074.0 0
343092.0 511804.0 0
347084.0 511526.0 0
351075.0 511471.0 0
355066.0 511419.0 0
359054.0 511191.0 0
363959.0 513110.0 0
368076.0 512711.0 0
372047.0 512441.0 0
376007.0 512179.0 0
379964.0 511915.0 0
383922.0 511640.0 0
387888.0 511393.0 0
102000.0 514801.0 0
106000.0 514778.0 0
110174.0 514897.0 0
114442.0 515108.0 0
118519.0 515374.0 0
122621.0 515680.0 0
126746.0 515973.0 0
130889.0 516302.0 0
135115.0 516286.0 0
138667.0 514542.0 0
142604.0 515021.0 0
146562.0 515093.0 0
150526.0 515167.0 0
154507.0 515263.0 0
158513.0 515428.0 0
162655.0 515590.0 0
166877.0 515745.0 0
171026.0 515843.0 0
175055.0 515868.0 0
179054.0 515867.0 0
183052.0 515847.0 0
187046.0 515805.0 0
191035.0 515738.0 0
195017.0 515669.0 0
198992.0 515591.0 0
202962.0 515515.0 0
206925.0 515400.0 0
210871.0 515357.0 0
214793.0 514907.0 0
221586.0 516532.0 0
225422.0 515878.0 0
229276.0 515378.0 0
233209.0 515519.0 0
237143.0 515532.0 0
241106.0 515609.0 0
245079.0 515628.0 0
249065.0 515657.0 0
253042.0 515621.0 0
257013.0 515598.0 0
260974.0 515558.0 0
264925.0 515542.0 0
268866.0 515505.0 0
272799.0 515508.0 0
276724.0 515480.0 0
280660.0 515512.0 0
284603.0 515548.0 0
288560.0 515604.0 0
292518.0 515683.0 0
296486.0 515772.0 0
300459.0 515864.0 0
304440.0 515950.0 0
308428.0 516029.0 0
312422.0 516097.0 0
316436.0 516157.0 0
320600.0 516114.0 0
324727.0 516035.0 0
328889.0 515956.0 0
333124.0 515799.0 0
337275.0 515609.0 0
341300.0 515370.0 0
345283.0 515121.0 0
349258.0 515028.0 0
353236.0 515050.0 0
357208.0 514803.0 0
361053.0 515817.0 0
366273.0 516232.0 0
370247.0 515980.0 0
374216.0 515734.0 0
378182.0 515477.0 0
382145.0 515213.0 0
386102.0 514960.0 0
390066.0 514769.0 0
394044.0 514779.0 0
398034.0 514802.0 0
214037.0 518831.0 0
217738.0 517372.0 0
231116.0 518896.0 0
286550.0 519007.0 0
101445.0 518823.0 0
105430.0 518796.0 0
109400.0 518820.0 0
113354.0 518950.0 0
117292.0 519162.0 0
121222.0 519398.0 0
125154.0 519601.0 0
129096.0 519804.0 0
133071.0 519662.0 0
137921.0 519028.0 0
141867.0 518947.0 0
145813.0 519004.0 0
149759.0 519048.0 0
153709.0 519132.0 0
157662.0 519276.0 0
161621.0 519397.0 0
165589.0 519474.0 0
169567.0 519511.0 0
173554.0 519524.0 0
177548.0 519526.0 0
181545.0 519508.0 0
185612.0 519496.0 0
189808.0 519490.0 0
193953.0 519467.0 0
197984.0 519400.0 0
202063.0 519368.0 0
206080.0 519259.0 0
210076.0 519274.0 0
219380.0 520851.0 0
223290.0 520085.0 0
227204.0 519528.0 0
235050.0 519348.0 0
239007.0 519035.0 0
242957.0 519311.0 0
246926.0 519145.0 0
250886.0 519353.0 0
254858.0 519155.0 0
258828.0 519142.0 0
262797.0 519091.0 0
266761.0 519081.0 0
270725.0 519027.0 0
274686.0 519027.0 0
278647.0 518953.0 0
282600.0 518989.0 0
290499.0 519083.0 0
294458.0 519159.0 0
298426.0 519251.0 0
302406.0 519332.0 0
306394.0 519414.0 0
310390.0 519485.0 0
314397.0 519540.0 0
318575.0 519509.0 0
322747.0 519466.0 0
326795.0 519425.0 0
330785.0 519443.0 0
334763.0 519408.0 0
338728.0 519298.0 0
342681.0 519107.0 0
346640.0 519007.0 0
350610.0 518984.0 0
354589.0 519010.0 0
358578.0 519017.0 0
362782.0 519412.0 0
366979.0 520056.0 0
370932.0 519850.0 0
374868.0 519633.0 0
378798.0 519386.0 0
382729.0 519134.0 0
386665.0 518899.0 0
390617.0 518779.0 0
394587.0 518799.0 0
398571.0 518823.0 0
102000.0 522801.0 0
106000.0 522778.0 0
110008.0 522775.0 0
114033.0 522892.0 0
118082.0 523072.0 0
122115.0 523274.0 0
126107.0 523453.0 0
130090.0 523617.0 0
134059.0 523498.0 0
137986.0 522988.0 0
141946.0 522942.0 0
145907.0 522991.0 0
149867.0 523011.0 0
153827.0 523091.0 0
157784.0 523226.0 0
161741.0 523349.0 0
165700.0 523428.0 0
169660.0 523467.0 0
173621.0 523486.0 0
177583.0 523492.0 0
181547.0 523477.0 0
185512.0 523463.0 0
189479.0 523433.0 0
193453.0 523392.0 0
197434.0 523315.0 0
201424.0 523286.0 0
205416.0 523163.0 0
209446.0 523221.0 0
213421.0 522777.0 0
217197.0 524139.0 0
221925.0 523801.0 0
225869.0 523308.0 0
229793.0 522641.0 0
233749.0 523133.0 0
237731.0 522812.0 0
241732.0 523134.0 0
245724.0 522947.0 0
249831.0 523233.0 0
253820.0 523003.0 0
257816.0 523003.0 0
261810.0 522954.0 0
265804.0 522960.0 0
269793.0 522908.0 0
273778.0 522945.0 0
277755.0 522831.0 0
281730.0 522875.0 0
285701.0 522864.0 0
289676.0 522959.0 0
293651.0 523028.0 0
297630.0 523127.0 0
301610.0 523201.0 0
305594.0 523284.0 0
309581.0 523350.0 0
313572.0 523399.0 0
317568.0 523333.0 0
321652.0 523277.0 0
325691.0 523252.0 0
329698.0 523273.0 0
333737.0 523250.0 0
337760.0 523155.0 0
341757.0 523039.0 0
345748.0 522998.0 0
349729.0 522970.0 0
353702.0 523002.0 0
357666.0 522951.0 0
361610.0 523233.0 0
365529.0 523683.0 0
369512.0 523533.0 0
373634.0 523405.0 0
377790.0 523227.0 0
381871.0 523014.0 0
385984.0 522829.0 0
390000.0 522771.0 0
394000.0 522778.0 0
398000.0 522801.0 0
230494.0 526562.0 0
101984.0 526801.0 0
105984.0 526778.0 0
109982.0 526774.0 0
113979.0 526890.0 0
117972.0 527060.0 0
121964.0 527252.0 0
125958.0 527418.0 0
129953.0 527558.0 0
133951.0 527456.0 0
138001.0 526963.0 0
142001.0 526939.0 0
146001.0 526984.0 0
150014.0 526981.0 0
154038.0 527054.0 0
158082.0 527176.0 0
162126.0 527292.0 0
166178.0 527363.0 0
170220.0 527392.0 0
174277.0 527400.0 0
178308.0 527399.0 0
182358.0 527370.0 0
186376.0 527344.0 0
190372.0 527299.0 0
194360.0 527255.0 0
198342.0 527174.0 0
202317.0 527165.0 0
206286.0 527038.0 0
210250.0 527140.0 0
214193.0 526713.0 0
218648.0 527858.0 0
222654.0 527629.0 0
226592.0 527243.0 0
234418.0 527117.0 0
238367.0 526751.0 0
242317.0 527145.0 0
246282.0 526898.0 0
250243.0 527231.0 0
254213.0 526972.0 0
258193.0 526980.0 0
262175.0 526926.0 0
266160.0 526941.0 0
270147.0 526885.0 0
274138.0 526933.0 0
278130.0 526802.0 0
282126.0 526847.0 0
286126.0 526803.0 0
290124.0 526906.0 0
294124.0 526963.0 0
298122.0 527063.0 0
302121.0 527127.0 0
306118.0 527210.0 0
310114.0 527272.0 0
314108.0 527320.0 0
318099.0 527262.0 0
322089.0 527226.0 0
326079.0 527218.0 0
330070.0 527238.0 0
334062.0 527216.0 0
338054.0 527125.0 0
342046.0 527032.0 0
346041.0 526992.0 0
350037.0 526967.0 0
354035.0 526990.0 0
358034.0 526988.0 0
362091.0 527201.0 0
366165.0 527544.0 0
370150.0 527438.0 0
374132.0 527347.0 0
378111.0 527189.0 0
382090.0 526987.0 0
386073.0 526820.0 0
390063.0 526770.0 0
394057.0 526779.0 0
398053.0 526802.0 0
102000.0 530801.0 0
106000.0 530778.0 0
110000.0 530773.0 0
114001.0 530889.0 0
118003.0 531050.0 0
122007.0 531233.0 0
126003.0 531388.0 0
129999.0 531504.0 0
133994.0 531417.0 0
137961.0 530946.0 0
141954.0 530937.0 0
145946.0 530981.0 0
149936.0 530960.0 0
153924.0 531027.0 0
157910.0 531141.0 0
161895.0 531254.0 0
165880.0 531321.0 0
169865.0 531347.0 0
173851.0 531351.0 0
177836.0 531349.0 0
181820.0 531314.0 0
185804.0 531283.0 0
189785.0 531230.0 0
193767.0 531186.0 0
197747.0 531102.0 0
201729.0 531107.0 0
205705.0 530975.0 0
209679.0 531098.0 0
213625.0 530655.0 0
217456.0 531682.0 0
221402.0 531334.0 0
225858.0 531175.0 0
229980.0 530627.0 0
233954.0 531084.0 0
237942.0 530726.0 0
241966.0 531127.0 0
245958.0 530879.0 0
249993.0 531221.0 0
253984.0 530958.0 0
257988.0 530971.0 0
261988.0 530912.0 0
265990.0 530935.0 0
269990.0 530876.0 0
273992.0 530930.0 0
277989.0 530790.0 0
281988.0 530841.0 0
285985.0 530770.0 0
289982.0 530883.0 0
293980.0 530930.0 0
297978.0 531034.0 0
301976.0 531090.0 0
305975.0 531174.0 0
309974.0 531234.0 0
313973.0 531281.0 0
317980.0 531231.0 0
321987.0 531204.0 0
325988.0 531203.0 0
329989.0 531222.0 0
333991.0 531197.0 0
337989.0 531109.0 0
341988.0 531032.0 0
345987.0 530992.0 0
349985.0 530966.0 0
353983.0 530990.0 0
357979.0 530988.0 0
361970.0 531193.0 0
365956.0 531458.0 0
369955.0 531393.0 0
373978.0 531319.0 0
377989.0 531165.0 0
381995.0 530967.0 0
386000.0 530814.0 0
390000.0 530771.0 0
394000.0 530778.0 0
398000.0 530801.0 0
102000.0 534801.0 0
106000.0 534778.0 0
110000.0 534772.0 0
114000.0 534887.0 0
117998.0 535041.0 0
121994.0 535217.0 0
125991.0 535360.0 0
129990.0 535454.0 0
133989.0 535379.0 0
138000.0 534937.0 0
142000.0 534935.0 0
146000.0 534980.0 0
150002.0 534945.0 0
154005.0 535006.0 0
158011.0 535114.0 0
162017.0 535225.0 0
166024.0 535292.0 0
170029.0 535317.0 0
174037.0 535323.0 0
178041.0 535323.0 0
182048.0 535290.0 0
186052.0 535258.0 0
190065.0 535197.0 0
194065.0 535154.0 0
198063.0 535067.0 0
202061.0 535081.0 0
206057.0 534943.0 0
210053.0 535076.0 0
214029.0 534650.0 0
218272.0 535589.0 0
222251.0 535172.0 0
226232.0 535157.0 0
230179.0 534621.0 0
234139.0 535075.0 0
238111.0 534720.0 0
242080.0 535123.0 0
246064.0 534873.0 0
250041.0 535218.0 0
254026.0 534951.0 0
258021.0 534967.0 0
262017.0 534904.0 0
266013.0 534933.0 0
270010.0 534870.0 0
274008.0 534929.0 0
278004.0 534782.0 0
282003.0 534840.0 0
286001.0 534747.0 0
290001.0 534867.0 0
294002.0 534905.0 0
298003.0 535011.0 0
302005.0 535061.0 0
306005.0 535146.0 0
310004.0 535204.0 0
314004.0 535251.0 0
318003.0 535207.0 0
322003.0 535186.0 0
326003.0 535190.0 0
330003.0 535207.0 0
334002.0 535180.0 0
338001.0 535098.0 0
342001.0 535032.0 0
346000.0 534992.0 0
350000.0 534966.0 0
354000.0 534990.0 0
358000.0 534988.0 0
362008.0 535183.0 0
366013.0 535385.0 0
370012.0 535354.0 0
374011.0 535296.0 0
378007.0 535146.0 0
382002.0 534951.0 0
386000.0 534811.0 0
390000.0 534771.0 0
394000.0 534778.0 0
398000.0 534801.0 0
102000.0 538801.0 0
106000.0 538778.0 0
110000.0 538770.0 0
114000.0 538884.0 0
118000.0 539034.0 0
122001.0 539202.0 0
126002.0 539335.0 0
130005.0 539410.0 0
134006.0 539345.0 0
138000.0 538932.0 0
141999.0 538934.0 0
145999.0 538980.0 0
149998.0 538934.0 0
153997.0 538990.0 0
157995.0 539093.0 0
161992.0 539203.0 0
165990.0 539270.0 0
169989.0 539295.0 0
173988.0 539302.0 0
177986.0 539305.0 0
181985.0 539273.0 0
185983.0 539242.0 0
189981.0 539177.0 0
193979.0 539134.0 0
197977.0 539046.0 0
201974.0 539070.0 0
205968.0 538926.0 0
209959.0 539071.0 0
213929.0 538648.0 0
217816.0 539556.0 0
221779.0 539086.0 0
225974.0 539145.0 0
230000.0 538658.0 0
233992.0 539066.0 0
237994.0 538717.0 0
241999.0 539119.0 0
245996.0 538868.0 0
250000.0 539216.0 0
254000.0 538945.0 0
258000.0 538964.0 0
262000.0 538897.0 0
266000.0 538931.0 0
270000.0 538865.0 0
274000.0 538929.0 0
278000.0 538775.0 0
282000.0 538839.0 0
286000.0 538730.0 0
290000.0 538855.0 0
294000.0 538884.0 0
298000.0 538993.0 0
301999.0 539037.0 0
305999.0 539122.0 0
309999.0 539178.0 0
313999.0 539226.0 0
318000.0 539188.0 0
322000.0 539173.0 0
326000.0 539178.0 0
330000.0 539194.0 0
334000.0 539166.0 0
338000.0 539089.0 0
342000.0 539032.0 0
346000.0 538992.0 0
350000.0 538966.0 0
354000.0 538990.0 0
358000.0 538988.0 0
361998.0 539172.0 0
365995.0 539319.0 0
369998.0 539321.0 0
373999.0 539275.0 0
378000.0 539129.0 0
382000.0 538938.0 0
386000.0 538808.0 0
390000.0 538771.0 0
394000.0 538778.0 0
398000.0 538801.0 0
102000.0 542801.0 0
106000.0 542778.0 0
110000.0 542769.0 0
114000.0 542882.0 0
118000.0 543027.0 0
122000.0 543190.0 0
126000.0 543314.0 0
129999.0 543371.0 0
133999.0 543314.0 0
138000.0 542929.0 0
142000.0 542933.0 0
146000.0 542979.0 0
150000.0 542927.0 0
154000.0 542978.0 0
158000.0 543077.0 0
162000.0 543185.0 0
166001.0 543251.0 0
170001.0 543276.0 0
174001.0 543283.0 0
178001.0 543289.0 0
182001.0 543258.0 0
186002.0 543227.0 0
190002.0 543160.0 0
194003.0 543119.0 0
198003.0 543029.0 0
202003.0 543060.0 0
206005.0 542912.0 0
210003.0 543066.0 0
214000.0 542665.0 0
218092.0 543536.0 0
222060.0 543029.0 0
226055.0 543142.0 0
230024.0 542658.0 0
234001.0 543061.0 0
238000.0 542715.0 0
242000.0 543116.0 0
246000.0 542864.0 0
250000.0 543214.0 0
254000.0 542941.0 0
258000.0 542962.0 0
262000.0 542890.0 0
266000.0 542929.0 0
270000.0 542860.0 0
274000.0 542928.0 0
278000.0 542769.0 0
282000.0 542839.0 0
286000.0 542718.0 0
290000.0 542847.0 0
294000.0 542868.0 0
298000.0 542979.0 0
302000.0 543017.0 0
306000.0 543103.0 0
310000.0 543157.0 0
314000.0 543206.0 0
318000.0 543173.0 0
322000.0 543162.0 0
326000.0 543167.0 0
330000.0 543183.0 0
334000.0 543154.0 0
338000.0 543082.0 0
342000.0 543032.0 0
346000.0 542992.0 0
350000.0 542966.0 0
354000.0 542990.0 0
358000.0 542988.0 0
362000.0 543159.0 0
366001.0 543263.0 0
370000.0 543291.0 0
374000.0 543257.0 0
378000.0 543116.0 0
382000.0 542927.0 0
386000.0 542807.0 0
390000.0 542771.0 0
394000.0 542778.0 0
398000.0 542801.0 0
102000.0 546801.0 0
106000.0 546778.0 0
110000.0 546768.0 0
114000.0 546879.0 0
118000.0 547022.0 0
122000.0 547180.0 0
126000.0 547296.0 0
130000.0 547338.0 0
134000.0 547287.0 0
138000.0 546929.0 0
142000.0 546933.0 0
146000.0 546979.0 0
150000.0 546923.0 0
154000.0 546969.0 0
158000.0 547064.0 0
162000.0 547171.0 0
166000.0 547236.0 0
170000.0 547260.0 0
174000.0 547268.0 0
178000.0 547275.0 0
182000.0 547245.0 0
186000.0 547215.0 0
190000.0 547145.0 0
194000.0 547105.0 0
198000.0 547015.0 0
202000.0 547051.0 0
206000.0 546900.0 0
210000.0 547062.0 0
214000.0 546665.0 0
221984.0 546988.0 0
225999.0 547138.0 0
230000.0 546659.0 0
234000.0 547057.0 0
238000.0 546713.0 0
242000.0 547114.0 0
246000.0 546860.0 0
250000.0 547212.0 0
254000.0 546938.0 0
258000.0 546961.0 0
262000.0 546885.0 0
266000.0 546928.0 0
270000.0 546856.0 0
274000.0 546928.0 0
278000.0 546764.0 0
282000.0 546839.0 0
286000.0 546709.0 0
290000.0 546841.0 0
294000.0 546856.0 0
298000.0 546968.0 0
302000.0 547000.0 0
306000.0 547088.0 0
310000.0 547141.0 0
314000.0 547190.0 0
318000.0 547161.0 0
322000.0 547154.0 0
326000.0 547158.0 0
330000.0 547173.0 0
334000.0 547144.0 0
338000.0 547078.0 0
342000.0 547032.0 0
346000.0 546992.0 0
350000.0 546966.0 0
354000.0 546990.0 0
358000.0 546988.0 0
362000.0 547147.0 0
366000.0 547214.0 0
370000.0 547266.0 0
374000.0 547242.0 0
378000.0 547105.0 0
382000.0 546919.0 0
386000.0 546806.0 0
390000.0 546771.0 0
394000.0 546778.0 0
398000.0 546801.0 0
217958.0 547525.0 0
102000.0 550801.0 0
106000.0 550778.0 0
110000.0 550767.0 0
114000.0 550876.0 0
118000.0 551018.0 0
122000.0 551172.0 0
126000.0 551281.0 0
130000.0 551311.0 0
134000.0 551264.0 0
138000.0 550928.0 0
142000.0 550932.0 0
146000.0 550978.0 0
150000.0 550920.0 0
154000.0 550962.0 0
158000.0 551054.0 0
162000.0 551160.0 0
166000.0 551224.0 0
170000.0 551248.0 0
174000.0 551255.0 0
178000.0 551263.0 0
182000.0 551233.0 0
186000.0 551204.0 0
190000.0 551133.0 0
194000.0 551094.0 0
198000.0 551002.0 0
202000.0 551043.0 0
206000.0 550889.0 0
210000.0 551058.0 0
214000.0 550665.0 0
218008.0 551515.0 0
222002.0 550956.0 0
226000.0 551135.0 0
230000.0 550659.0 0
234000.0 551053.0 0
238000.0 550711.0 0
242000.0 551112.0 0
246000.0 550856.0 0
250000.0 551210.0 0
254000.0 550935.0 0
258000.0 550960.0 0
262000.0 550881.0 0
266000.0 550928.0 0
270000.0 550853.0 0
274000.0 550927.0 0
278000.0 550760.0 0
282000.0 550839.0 0
286000.0 550703.0 0
290000.0 550838.0 0
294000.0 550846.0 0
298000.0 550959.0 0
302000.0 550988.0 0
306000.0 551076.0 0
310000.0 551128.0 0
314000.0 551178.0 0
318000.0 551152.0 0
322000.0 551147.0 0
326000.0 551150.0 0
330000.0 551165.0 0
334000.0 551136.0 0
338000.0 551075.0 0
342000.0 551032.0 0
346000.0 550992.0 0
350000.0 550966.0 0
354000.0 550990.0 0
358000.0 550988.0 0
362000.0 551136.0 0
366000.0 551174.0 0
370000.0 551245.0 0
374000.0 551231.0 0
378000.0 551097.0 0
382000.0 550913.0 0
386000.0 550806.0 0
390000.0 550771.0 0
394000.0 550778.0 0
398000.0 550801.0 0
102000.0 554801.0 0
106000.0 554778.0 0
110000.0 554767.0 0
114000.0 554874.0 0
118000.0 555014.0 0
122000.0 555166.0 0
126000.0 555270.0 0
130000.0 555290.0 0
134000.0 555245.0 0
138000.0 554928.0 0
142000.0 554932.0 0
146000.0 554978.0 0
150000.0 554918.0 0
154000.0 554957.0 0
158000.0 555047.0 0
162000.0 555151.0 0
166000.0 555215.0 0
170000.0 555238.0 0
174000.0 555246.0 0
178000.0 555254.0 0
182000.0 555224.0 0
186000.0 555195.0 0
190000.0 555123.0 0
194000.0 555085.0 0
198000.0 554992.0 0
202000.0 555036.0 0
206000.0 554881.0 0
210000.0 555055.0 0
214000.0 554665.0 0
222000.0 554932.0 0
226000.0 555133.0 0
230000.0 554659.0 0
234000.0 555051.0 0
238000.0 554710.0 0
242000.0 555111.0 0
246000.0 554853.0 0
250000.0 555209.0 0
254000.0 554933.0 0
258000.0 554959.0 0
262000.0 554877.0 0
266000.0 554927.0 0
270000.0 554850.0 0
274000.0 554927.0 0
278000.0 554756.0 0
282000.0 554839.0 0
286000.0 554699.0 0
290000.0 554835.0 0
294000.0 554839.0 0
298000.0 554953.0 0
302000.0 554978.0 0
306000.0 555067.0 0
310000.0 555118.0 0
314000.0 555169.0 0
318000.0 555145.0 0
322000.0 555142.0 0
326000.0 555144.0 0
330000.0 555158.0 0
334000.0 555130.0 0
338000.0 555073.0 0
342000.0 555032.0 0
346000.0 554992.0 0
350000.0 554966.0 0
354000.0 554990.0 0
358000.0 554988.0 0
362000.0 555126.0 0
366000.0 555143.0 0
370000.0 555229.0 0
374000.0 555222.0 0
378000.0 555091.0 0
382000.0 554909.0 0
386000.0 554806.0 0
390000.0 554771.0 0
394000.0 554778.0 0
398000.0 554801.0 0
217999.0 555508.0 0
102000.0 558801.0 0
106000.0 558778.0 0
110000.0 558766.0 0
114000.0 558872.0 0
118000.0 559011.0 0
122000.0 559162.0 0
126000.0 559262.0 0
130000.0 559274.0 0
134000.0 559231.0 0
138000.0 558928.0 0
142000.0 558932.0 0
146000.0 558978.0 0
150000.0 558917.0 0
154000.0 558954.0 0
158000.0 559042.0 0
162000.0 559145.0 0
166000.0 559209.0 0
170000.0 559231.0 0
174000.0 559238.0 0
178000.0 559247.0 0
182000.0 559218.0 0
186000.0 559189.0 0
190000.0 559115.0 0
194000.0 559078.0 0
198000.0 558984.0 0
202000.0 559031.0 0
206000.0 558874.0 0
210000.0 559052.0 0
214000.0 558665.0 0
218000.0 559502.0 0
222000.0 558913.0 0
226000.0 559131.0 0
230000.0 558659.0 0
234000.0 559049.0 0
238000.0 558708.0 0
242000.0 559110.0 0
246000.0 558850.0 0
250000.0 559208.0 0
254000.0 558931.0 0
258000.0 558958.0 0
262000.0 558875.0 0
266000.0 558927.0 0
270000.0 558848.0 0
274000.0 558926.0 0
278000.0 558753.0 0
282000.0 558839.0 0
286000.0 558697.0 0
290000.0 558833.0 0
294000.0 558834.0 0
298000.0 558949.0 0
302000.0 558971.0 0
306000.0 559060.0 0
310000.0 559110.0 0
314000.0 559163.0 0
318000.0 559141.0 0
322000.0 559139.0 0
326000.0 559140.0 0
330000.0 559154.0 0
334000.0 559125.0 0
338000.0 559071.0 0
342000.0 559032.0 0
346000.0 558992.0 0
350000.0 558966.0 0
354000.0 558990.0 0
358000.0 558987.0 0
362000.0 559119.0 0
366000.0 559120.0 0
370000.0 559217.0 0
374000.0 559215.0 0
378000.0 559086.0 0
382000.0 558906.0 0
386000.0 558806.0 0
390000.0 558771.0 0
394000.0 558778.0 0
398000.0 558801.0 0
102000.0 562801.0 0
106000.0 562778.0 0
110000.0 562766.0 0
114000.0 562871.0 0
118000.0 563010.0 0
138000.0 562928.0 0
142000.0 562932.0 0
146000.0 562978.0 0
150000.0 562917.0 0
154000.0 562952.0 0
158000.0 563039.0 0
194000.0 563074.0 0
198000.0 562979.0 0
202000.0 563028.0 0
206000.0 562870.0 0
210000.0 563050.0 0
214000.0 562665.0 0
222000.0 562901.0 0
230000.0 562659.0 0
234000.0 563047.0 0
238000.0 562707.0 0
246000.0 562849.0 0
254000.0 562930.0 0
258000.0 562958.0 0
262000.0 562873.0 0
266000.0 562926.0 0
270000.0 562847.0 0
274000.0 562926.0 0
278000.0 562751.0 0
282000.0 562839.0 0
286000.0 562695.0 0
290000.0 562833.0 0
294000.0 562831.0 0
298000.0 562946.0 0
302000.0 562967.0 0
306000.0 563056.0 0
342000.0 563032.0 0
346000.0 562991.0 0
350000.0 562966.0 0
354000.0 562990.0 0
358000.0 562987.0 0
362000.0 563113.0 0
366000.0 563104.0 0
382000.0 562904.0 0
386000.0 562806.0 0
390000.0 562771.0 0
394000.0 562778.0 0
398000.0 562801.0 0
122000.0 563159.0 0
126000.0 563256.0 0
130000.0 563264.0 0
134000.0 563221.0 0
162000.0 563141.0 0
166000.0 563205.0 0
170000.0 563226.0 0
174000.0 563233.0 0
178000.0 563242.0 0
182000.0 563213.0 0
186000.0 563184.0 0
190000.0 563110.0 0
218000.0 563498.0 0
226000.0 563130.0 0
242000.0 563109.0 0
250000.0 563208.0 0
310000.0 563106.0 0
314000.0 563159.0 0
318000.0 563138.0 0
322000.0 563136.0 0
326000.0 563137.0 0
330000.0 563151.0 0
334000.0 563122.0 0
338000.0 563071.0 0
370000.0 563209.0 0
374000.0 563211.0 0
378000.0 563084.0 0
102000.0 566801.0 0
106000.0 566778.0 0
110000.0 566766.0 0
114000.0 566871.0 0
118000.0 567009.0 0
122000.0 567157.0 0
126000.0 567253.0 0
130000.0 567259.0 0
134000.0 567216.0 0
138000.0 566928.0 0
142000.0 566932.0 0
146000.0 566978.0 0
150000.0 566916.0 0
154000.0 566951.0 0
158000.0 567037.0 0
162000.0 567140.0 0
166000.0 567202.0 0
170000.0 567224.0 0
174000.0 567231.0 0
178000.0 567240.0 0
182000.0 567211.0 0
186000.0 567182.0 0
190000.0 567108.0 0
194000.0 567071.0 0
198000.0 566977.0 0
202000.0 567026.0 0
206000.0 566868.0 0
210000.0 567049.0 0
214000.0 566665.0 0
218000.0 567496.0 0
222000.0 566895.0 0
226000.0 567129.0 0
230000.0 566659.0 0
234000.0 567047.0 0
238000.0 566706.0 0
242000.0 567109.0 0
246000.0 566848.0 0
250000.0 567208.0 0
254000.0 566930.0 0
258000.0 566958.0 0
262000.0 566873.0 0
266000.0 566926.0 0
270000.0 566846.0 0
274000.0 566926.0 0
278000.0 566751.0 0
282000.0 566839.0 0
286000.0 566694.0 0
290000.0 566832.0 0
294000.0 566829.0 0
298000.0 566945.0 0
302000.0 566964.0 0
306000.0 567054.0 0
310000.0 567104.0 0
314000.0 567157.0 0
318000.0 567137.0 0
322000.0 567135.0 0
326000.0 567135.0 0
330000.0 567149.0 0
334000.0 567121.0 0
338000.0 567070.0 0
342000.0 567032.0 0
346000.0 566991.0 0
350000.0 566966.0 0
354000.0 566990.0 0
358000.0 566987.0 0
362000.0 567110.0 0
366000.0 567097.0 0
370000.0 567205.0 0
374000.0 567209.0 0
378000.0 567082.0 0
382000.0 566903.0 0
386000.0 566805.0 0
390000.0 566771.0 0
394000.0 566778.0 0
398000.0 566801.0 0
POINT_DATA 4650
SCALARS Radius float 1
LOOKUP_TABLE default
4000.0 4000.0 4000.0 4000.0 4000.0 4000.0 4000.0 4000.0 4000.0 4000.0 4000.0 4000.0 4000.0 4000.0 4000.0 4000.0 4000.0 4000.0 4000.0 4000.0 4000.0 4000.0 4000.0 4000.0 4000.0 4000.0 4000.0 4000.0 4000.0 4000.0 4000.0 4000.0 4000.0 4000.0 4000.0 4000.0 4000.0 4000.0 4000.0 4000.0 4000.0 4000.0 4000.0 4000.0 4000.0 4000.0 4000.0 4000.0 4000.0 4000.0 4000.0 4000.0 4000.0 4000.0 4000.0 4000.0 4000.0 4000.0 4000.0 4000.0 4000.0 4000.0 4000.0 4000.0 4000.0 4000.0 4000.0 4000.0 4000.0 4000.0 4000.0 4000.0 4000.0 4000.0 4000.0 4000.0 4000.0 4000.0 4000.0 4000.0 4000.0 4000.0 4000.0 4000.0 4000.0 4000.0 4000.0 4000.0 4000.0 4000.0 4000.0 4000.0 4000.0 4000.0 4000.0 4000.0 4000.0 4000.0 4000.0 4000.0 4000.0 4000.0 4000.0 4000.0 4000.0 4000.0 4000.0 4000.0 4000.0 4000.0 4000.0 4000.0 4000.0 4000.0 4000.0 4000.0 4000.0 4000.0 4000.0 4000.0 4000.0 4000.0 4000.0 4000.0 4000.0 4000.0 4000.0 4000.0 4000.0 4000.0 4000.0 4000.0 4000.0 4000.0 4000.0 4000.0 4000.0 4000.0 4000.0 4000.0 4000.0 4000.0 4000.0 4000.0 4000.0 4000.0 4000.0 4000.0 4000.0 4000.0 4000.0 4000.0 4000.0 4000.0 4000.0 4000.0 4000.0 4000.0 4000.0 4000.0 4000.0 4000.0 4000.0 4000.0 4000.0 4000.0 4000.0 4000.0 4000.0 4000.0 4000.0 4000.0 4000.0 4000.0 4000.0 4000.0 4000.0 4000.0 4000.0 4000.0 4000.0 4000.0 4000.0 4000.0 4000.0 4000.0 4000.0 4000.0 4000.0 4000.0 4000.0 4000.0 4000.0 4000.0 4000.0 4000.0 4000.0 4000.0 4000.0 4000.0 4000.0 4000.0 4000.0 4000.0 4000.0 4000.0 4000.0 4000.0 4000.0 4000.0 4000.0 4000.0 4000.0 4000.0 4000.0 4000.0 4000.0 4000.0 4000.0 4000.0 4000.0 4000.0 4000.0 4000.0 4000.0 4000.0 4000.0 4000.0 4000.0 4000.0 4000.0 4000.0 4000.0 4000.0 4000.0 4000.0 4000.0 4000.0 4000.0 4000.0 4000.0 4000.0 4000.0 4000.0 4000.0 4000.0 4000.0 4000.0 4000.0 4000.0 4000.0 4000.0 4000.0 4000.0 4000.0 4000.0 4000.0 4000.0 4000.0 4000.0 4000.0 4000.0 4000.0 4000.0 4000.0 4000.0 4000.0 4000.0 4000.0 4000.0 4000.0 4000.0 4000.0 4000.0 4000.0 4000.0 4000.0 4000.0 4000.0 4000.0 4000.0 4000.0 4000.0 4000.0 4000.0 4000.0 4000.0 4000.0 4000.0 4000.0 4000.0 4000.0 4000.0 4000.0 4000.0 4000.0 4000.0 4000.0 4000.0 4000.0 4000.0 4000.0 4000.0 4000.0 4000.0 4000.0 4000.0 4000.0 4000.0 4000.0 4000.0 4000.0 4000.0 4000.0 4000.0 4000.0 4000.0 4000.0 4000.0 4000.0 4000.0 4000.0 4000.0 4000.0 4000.0 4000.0 4000.0 4000.0 4000.0 4000.0 4000.0 4000.0 4000.0 4000.0 4000.0 4000.0 4000.0 4000.0 4000.0 4000.0 4000.0 4000.0 4000.0 4000.0 4000.0 4000.0 4000.0 4000.0 4000.0 4000.0 4000.0 4000.0 4000.0 4000.0 4000.0 4000.0 4000.0 4000.0 4000.0 4000.0 4000.0 4000.0 4000.0 4000.0 4000.0 4000.0 4000.0 4000.0 4000.0 4000.0 4000.0 4000.0 4000.0 4000.0 4000.0 4000.0 4000.0 4000.0 4000.0 4000.0 4000.0 4000.0 4000.0 4000.0 4000.0 4000.0 4000.0 4000.0 4000.0 4000.0 4000.0 4000.0 4000.0 4000.0 4000.0 4000.0 4000.0 4000.0 4000.0 4000.0 4000.0 4000.0 4000.0 4000.0 4000.0 4000.0 4000.0 4000.0 4000.0 4000.0 4000.0 4000.0 4000.0 4000.0 4000.0 4000.0 4000.0 4000.0 4000.0 4000.0 4000.0 4000.0 4000.0 4000.0 4000.0 4000.0 4000.0 4000.0 4000.0 4000.0 4000.0 4000.0 4000.0 4000.0 4000.0 4000.0 4000.0 4000.0 4000.0 4000.0 4000.0 4000.0 4000.0 4000.0 4000.0 4000.0 4000.0 4000.0 4000.0 4000.0 4000.0 4000.0 4000.0 4000.0 4000.0 4000.0 4000.0 4000.0 4000.0 4000.0 4000.0 4000.0 4000.0 4000.0 4000.0 4000.0 4000.0 4000.0 4000.0 4000.0 4000.0 4000.0 4000.0 4000.0 4000.0 4000.0 4000.0 4000.0 4000.0 4000.0 4000.0 4000.0 4000.0 4000.0 4000.0 4000.0 4000.0 4000.0 4000.0 4000.0 4000.0 4000.0 4000.0 4000.0 4000.0 4000.0 4000.0 4000.0 4000.0 4000.0 4000.0 4000.0 4000.0 4000.0 4000.0 4000.0 4000.0 4000.0 4000.0 4000.0 4000.0 4000.0 4000.0 4000.0 4000.0 4000.0 4000.0 4000.0 4000.0 4000.0 4000.0 4000.0 4000.0 4000.0 4000.0 4000.0 4000.0 4000.0 4000.0 4000.0 4000.0 4000.0 4000.0 4000.0 4000.0 4000.0 4000.0 4000.0 4000.0 4000.0 4000.0 4000.0 4000.0 4000.0 4000.0 4000.0 4000.0 4000.0 4000.0 4000.0 4000.0 4000.0 4000.0 4000.0 4000.0 4000.0 4000.0 4000.0 4000.0 4000.0 4000.0 4000.0 4000.0 4000.0 4000.0 4000.0 4000.0 4000.0 4000.0 4000.0 4000.0 4000.0 4000.0 4000.0 4000.0 4000.0 4000.0 4000.0 4000.0 4000.0 4000.0 4000.0 4000.0 4000.0 4000.0 4000.0 4000.0 4000.0 4000.0 4000.0 4000.0 4000.0 4000.0 4000.0 4000.0 4000.0 4000.0 4000.0 4000.0 4000.0 4000.0 4000.0 4000.0 4000.0 4000.0 4000.0 4000.0 4000.0 4000.0 4000.0 4000.0 4000.0 4000.0 4000.0 4000.0 4000.0 4000.0 4000.0 4000.0 4000.0 4000.0 4000.0 4000.0 4000.0 4000.0 4000.0 4000.0 4000.0 4000.0 4000.0 4000.0 4000.0 4000.0 4000.0 4000.0 4000.0 4000.0 4000.0 4000.0 4000.0 4000.0 4000.0 4000.0 4000.0 4000.0 4000.0 4000.0 4000.0 4000.0 4000.0 4000.0 4000.0 4000.0 4000.0 4000.0 4000.0 4000.0 4000.0 4000.0 4000.0 4000.0 4000.0 4000.0 4000.0 4000.0 4000.0 4000.0 4000.0 4000.0 4000.0 4000.0 4000.0 4000.0 4000.0 4000.0 4000.0 4000.0 4000.0 4000.0 4000.0 4000.0 4000.0 4000.0 4000.0 4000.0 4000.0 4000.0 4000.0 4000.0 4000.0 4000.0 4000.0 4000.0 4000.0 4000.0 4000.0 4000.0 4000.0 4000.0 4000.0 4000.0 4000.0 4000.0 4000.0 4000.0 4000.0 4000.0 4000.0 4000.0 4000.0 4000.0 4000.0 4000.0 4000.0 4000.0 4000.0 4000.0 4000.0 4000.0 4000.0 4000.0 4000.0 4000.0 4000.0 4000.0 4000.0 4000.0 4000.0 4000.0 4000.0 4000.0 4000.0 4000.0 4000.0 4000.0 4000.0 4000.0 4000.0 4000.0 4000.0 4000.0 4000.0 4000.0 4000.0 4000.0 4000.0 4000.0 4000.0 4000.0 4000.0 4000.0 4000.0 4000.0 4000.0 4000.0 4000.0 4000.0 4000.0 4000.0 4000.0 4000.0 4000.0 4000.0 4000.0 4000.0 4000.0 4000.0 4000.0 4000.0 4000.0 4000.0 4000.0 4000.0 4000.0 4000.0 4000.0 4000.0 4000.0 4000.0 4000.0 4000.0 4000.0 4000.0 4000.0 4000.0 4000.0 4000.0 4000.0 4000.0 4000.0 4000.0 4000.0 4000.0 4000.0 4000.0 4000.0 4000.0 4000.0 4000.0 4000.0 4000.0 4000.0 4000.0 4000.0 4000.0 4000.0 4000.0 4000.0 4000.0 4000.0 4000.0 4000.0 4000.0 4000.0 4000.0 4000.0 4000.0 4000.0 4000.0 4000.0 4000.0 4000.0 4000.0 4000.0 4000.0 4000.0 4000.0 4000.0 4000.0 4000.0 4000.0 4000.0 4000.0 4000.0 4000.0 4000.0 4000.0 4000.0 4000.0 4000.0 4000.0 4000.0 4000.0 4000.0 4000.0 4000.0 4000.0 4000.0 4000.0 4000.0 4000.0 4000.0 4000.0 4000.0 4000.0 4000.0 4000.0 4000.0 4000.0 4000.0 4000.0 4000.0 4000.0 4000.0 4000.0 4000.0 4000.0 4000.0 4000.0 4000.0 4000.0 4000.0 4000.0 4000.0 4000.0 4000.0 4000.0 4000.0 4000.0 4000.0 4000.0 4000.0 4000.0 4000.0 4000.0 4000.0 4000.0 4000.0 4000.0 4000.0 4000.0 4000.0 4000.0 4000.0 4000.0 4000.0 4000.0 4000.0 4000.0 4000.0 4000.0 4000.0 4000.0 4000.0 4000.0 4000.0 4000.0 4000.0 4000.0 4000.0 4000.0 4000.0 4000.0 4000.0 4000.0 4000.0 4000.0 4000.0 4000.0 4000.0 4000.0 4000.0 4000.0 4000.0 4000.0 4000.0 4000.0 4000.0 4000.0 4000.0 4000.0 4000.0 4000.0 4000.0 4000.0 4000.0 4000.0 4000.0 4000.0 4000.0 4000.0 4000.0 4000.0 4000.0 4000.0 4000.0 4000.0 4000.0 4000.0 4000.0 4000.0 4000.0 4000.0 4000.0 4000.0 4000.0 4000.0 4000.0 4000.0 4000.0 4000.0 4000.0 4000.0 4000.0 4000.0 4000.0 4000.0 4000.0 4000.0 4000.0 4000.0 4000.0 4000.0 4000.0 4000.0 4000.0 4000.0 4000.0 4000.0 4000.0 4000.0 4000.0 4000.0 4000.0 4000.0 4000.0 4000.0 4000.0 4000.0 4000.0 4000.0 4000.0 4000.0 4000.0 4000.0 4000.0 4000.0 4000.0 4000.0 4000.0 4000.0 4000.0 4000.0 4000.0 4000.0 4000.0 4000.0 4000.0 4000.0 4000.0 4000.0 4000.0 4000.0 4000.0 4000.0 4000.0 4000.0 4000.0 4000.0 4000.0 4000.0 4000.0 4000.0 4000.0 4000.0 4000.0 4000.0 4000.0 4000.0 4000.0 4000.0 4000.0 4000.0 4000.0 4000.0 4000.0 4000.0 4000.0 4000.0 4000.0 4000.0 4000.0 4000.0 4000.0 4000.0 4000.0 4000.0 4000.0 4000.0 4000.0 4000.0 4000.0 4000.0 4000.0 4000.0 4000.0 4000.0 4000.0 4000.0 4000.0 4000.0 4000.0 4000.0 4000.0 4000.0 4000.0 4000.0 4000.0 4000.0 4000.0 4000.0 4000.0 4000.0 4000.0 4000.0 4000.0 4000.0 4000.0 4000.0 4000.0 4000.0 4000.0 4000.0 4000.0 4000.0 4000.0 4000.0 4000.0 4000.0 4000.0 4000.0 4000.0 4000.0 4000.0 4000.0 4000.0 4000.0 4000.0 4000.0 4000.0 4000.0 4000.0 4000.0 4000.0 4000.0 4000.0 4000.0 4000.0 4000.0 4000.0 4000.0 4000.0 4000.0 4000.0 4000.0 4000.0 4000.0 4000.0 4000.0 4000.0 4000.0 4000.0 4000.0 4000.0 4000.0 4000.0 4000.0 4000.0 4000.0 4000.0 4000.0 4000.0 4000.0 4000.0 4000.0 4000.0 4000.0 4000.0 4000.0 4000.0 4000.0 4000.0 4000.0 4000.0 4000.0 4000.0 4000.0 4000.0 4000.0 4000.0 4000.0 4000.0 4000.0 4000.0 4000.0 4000.0 4000.0 4000.0 4000.0 4000.0 4000.0 4000.0 4000.0 4000.0 4000.0 4000.0 4000.0 4000.0 4000.0 4000.0 4000.0 4000.0 4000.0 4000.0 4000.0 4000.0 4000.0 4000.0 4000.0 4000.0 4000.0 4000.0 4000.0 4000.0 4000.0 4000.0 4000.0 4000.0 4000.0 4000.0 4000.0 4000.0 4000.0 4000.0 4000.0 4000.0 4000.0 4000.0 4000.0 4000.0 4000.0 4000.0 4000.0 4000.0 4000.0 4000.0 4000.0 4000.0 4000.0 4000.0 4000.0 4000.0 4000.0 4000.0 4000.0 4000.0 4000.0 4000.0 4000.0 4000.0 4000.0 4000.0 4000.0 4000.0 4000.0 4000.0 4000.0 4000.0 4000.0 4000.0 4000.0 4000.0 4000.0 4000.0 4000.0 4000.0 4000.0 4000.0 4000.0 4000.0 4000.0 4000.0 4000.0 4000.0 4000.0 4000.0 4000.0 4000.0 4000.0 4000.0 4000.0 4000.0 4000.0 4000.0 4000.0 4000.0 4000.0 4000.0 4000.0 4000.0 4000.0 4000.0 4000.0 4000.0 4000.0 4000.0 4000.0 4000.0 4000.0 4000.0 4000.0 4000.0 4000.0 4000.0 4000.0 4000.0 4000.0 4000.0 4000.0 4000.0 4000.0 4000.0 4000.0 4000.0 4000.0 4000.0 4000.0 4000.0 4000.0 4000.0 4000.0 4000.0 4000.0 4000.0 4000.0 4000.0 4000.0 4000.0 4000.0 4000.0 4000.0 4000.0 4000.0 4000.0 4000.0 4000.0 4000.0 4000.0 4000.0 4000.0 4000.0 4000.0 4000.0 4000.0 4000.0 4000.0 4000.0 4000.0 4000.0 4000.0 4000.0 4000.0 4000.0 4000.0 4000.0 4000.0 4000.0 4000.0 4000.0 4000.0 4000.0 4000.0 4000.0 4000.0 4000.0 4000.0 4000.0 4000.0 4000.0 4000.0 4000.0 4000.0 4000.0 4000.0 4000.0 4000.0 4000.0 4000.0 4000.0 4000.0 4000.0 4000.0 4000.0 4000.0 4000.0 4000.0 4000.0 4000.0 4000.0 4000.0 4000.0 4000.0 4000.0 4000.0 4000.0 4000.0 4000.0 4000.0 4000.0 4000.0 4000.0 4000.0 4000.0 4000.0 4000.0 4000.0 4000.0 4000.0 4000.0 4000.0 4000.0 4000.0 4000.0 4000.0 4000.0 4000.0 4000.0 4000.0 4000.0 4000.0 4000.0 4000.0 4000.0 4000.0 4000.0 4000.0 4000.0 4000.0 4000.0 4000.0 4000.0 4000.0 4000.0 4000.0 4000.0 4000.0 4000.0 4000.0 4000.0 4000.0 4000.0 4000.0 4000.0 4000.0 4000.0 4000.0 4000.0 4000.0 4000.0 4000.0 4000.0 4000.0 4000.0 4000.0 4000.0 4000.0 4000.0 4000.0 4000.0 4000.0 4000.0 4000.0 4000.0 4000.0 4000.0 4000.0 4000.0 4000.0 4000.0 4000.0 4000.0 4000.0 4000.0 4000.0 4000.0 4000.0 4000.0 4000.0 4000.0 4000.0 4000.0 4000.0 4000.0 4000.0 4000.0 4000.0 4000.0 4000.0 4000.0 4000.0 4000.0 4000.0 4000.0 4000.0 4000.0 4000.0 4000.0 4000.0 4000.0 4000.0 4000.0 4000.0 4000.0 4000.0 4000.0 4000.0 4000.0 4000.0 4000.0 4000.0 4000.0 4000.0 4000.0 4000.0 4000.0 4000.0 4000.0 4000.0 4000.0 4000.0 4000.0 4000.0 4000.0 4000.0 4000.0 4000.0 4000.0 4000.0 4000.0 4000.0 4000.0 4000.0 4000.0 4000.0 4000.0 4000.0 4000.0 4000.0 4000.0 4000.0 4000.0 4000.0 4000.0 4000.0 4000.0 4000.0 4000.0 4000.0 4000.0 4000.0 4000.0 4000.0 4000.0 4000.0 4000.0 4000.0 4000.0 4000.0 4000.0 4000.0 4000.0 4000.0 4000.0 4000.0 4000.0 4000.0 4000.0 4000.0 4000.0 4000.0 4000.0 4000.0 4000.0 4000.0 4000.0 4000.0 4000.0 4000.0 4000.0 4000.0 4000.0 4000.0 4000.0 4000.0 4000.0 4000.0 4000.0 4000.0 4000.0 4000.0 4000.0 4000.0 4000.0 4000.0 4000.0 4000.0 4000.0 4000.0 4000.0 4000.0 4000.0 4000.0 4000.0 4000.0 4000.0 4000.0 4000.0 4000.0 4000.0 4000.0 4000.0 4000.0 4000.0 4000.0 4000.0 4000.0 4000.0 4000.0 4000.0 4000.0 4000.0 4000.0 4000.0 4000.0 4000.0 4000.0 4000.0 4000.0 4000.0 4000.0 4000.0 4000.0 4000.0 4000.0 4000.0 4000.0 4000.0 4000.0 4000.0 4000.0 4000.0 4000.0 4000.0 4000.0 4000.0 4000.0 4000.0 4000.0 4000.0 4000.0 4000.0 4000.0 4000.0 4000.0 4000.0 4000.0 4000.0 4000.0 4000.0 4000.0 4000.0 4000.0 4000.0 4000.0 4000.0 4000.0 4000.0 4000.0 4000.0 4000.0 4000.0 4000.0 4000.0 4000.0 4000.0 4000.0 4000.0 4000.0 4000.0 4000.0 4000.0 4000.0 4000.0 4000.0 4000.0 4000.0 4000.0 4000.0 4000.0 4000.0 4000.0 4000.0 4000.0 4000.0 4000.0 4000.0 4000.0 4000.0 4000.0 4000.0 4000.0 4000.0 4000.0 4000.0 4000.0 4000.0 4000.0 4000.0 4000.0 4000.0 4000.0 4000.0 4000.0 4000.0 4000.0 4000.0 4000.0 4000.0 4000.0 4000.0 4000.0 4000.0 4000.0 4000.0 4000.0 4000.0 4000.0 4000.0 4000.0 4000.0 4000.0 4000.0 4000.0 4000.0 4000.0 4000.0 4000.0 4000.0 4000.0 4000.0 4000.0 4000.0 4000.0 4000.0 4000.0 4000.0 4000.0 4000.0 4000.0 4000.0 4000.0 4000.0 4000.0 4000.0 4000.0 4000.0 4000.0 4000.0 4000.0 4000.0 4000.0 4000.0 4000.0 4000.0 4000.0 4000.0 4000.0 4000.0 4000.0 4000.0 4000.0 4000.0 4000.0 4000.0 4000.0 4000.0 4000.0 4000.0 4000.0 4000.0 4000.0 4000.0 4000.0 4000.0 4000.0 4000.0 4000.0 4000.0 4000.0 4000.0 4000.0 4000.0 4000.0 4000.0 4000.0 4000.0 4000.0 4000.0 4000.0 4000.0 4000.0 4000.0 4000.0 4000.0 4000.0 4000.0 4000.0 4000.0 4000.0 4000.0 4000.0 4000.0 4000.0 4000.0 4000.0 4000.0 4000.0 4000.0 4000.0 4000.0 4000.0 4000.0 4000.0 4000.0 4000.0 4000.0 4000.0 4000.0 4000.0 4000.0 4000.0 4000.0 4000.0 4000.0 4000.0 4000.0 4000.0 4000.0 4000.0 4000.0 4000.0 4000.0 4000.0 4000.0 4000.0 4000.0 4000.0 4000.0 4000.0 4000.0 4000.0 4000.0 4000.0 4000.0 4000.0 4000.0 4000.0 4000.0 4000.0 4000.0 4000.0 4000.0 4000.0 4000.0 4000.0 4000.0 4000.0 4000.0 4000.0 4000.0 4000.0 4000.0 4000.0 4000.0 4000.0 4000.0 4000.0 4000.0 4000.0 4000.0 4000.0 4000.0 4000.0 4000.0 4000.0 4000.0 4000.0 4000.0 4000.0 4000.0 4000.0 4000.0 4000.0 4000.0 4000.0 4000.0 4000.0 4000.0 4000.0 4000.0 4000.0 4000.0 4000.0 4000.0 4000.0 4000.0 4000.0 4000.0 4000.0 4000.0 4000.0 4000.0 4000.0 4000.0 4000.0 4000.0 4000.0 4000.0 4000.0 4000.0 4000.0 4000.0 4000.0 4000.0 4000.0 4000.0 4000.0 4000.0 4000.0 4000.0 4000.0 4000.0 4000.0 4000.0 4000.0 4000.0 4000.0 4000.0 4000.0 4000.0 4000.0 4000.0 4000.0 4000.0 4000.0 4000.0 4000.0 4000.0 4000.0 4000.0 4000.0 4000.0 4000.0 4000.0 4000.0 4000.0 4000.0 4000.0 4000.0 4000.0 4000.0 4000.0 4000.0 4000.0 4000.0 4000.0 4000.0 4000.0 4000.0 4000.0 4000.0 4000.0 4000.0 4000.0 4000.0 4000.0 4000.0 4000.0 4000.0 4000.0 4000.0 4000.0 4000.0 4000.0 4000.0 4000.0 4000.0 4000.0 4000.0 4000.0 4000.0 4000.0 4000.0 4000.0 4000.0 4000.0 4000.0 4000.0 4000.0 4000.0 4000.0 4000.0 4000.0 4000.0 4000.0 4000.0 4000.0 4000.0 4000.0 4000.0 4000.0 4000.0 4000.0 4000.0 4000.0 4000.0 4000.0 4000.0 4000.0 4000.0 4000.0 4000.0 4000.0 4000.0 4000.0 4000.0 4000.0 4000.0 4000.0 4000.0 4000.0 4000.0 4000.0 4000.0 4000.0 4000.0 4000.0 4000.0 4000.0 4000.0 4000.0 4000.0 4000.0 4000.0 4000.0 4000.0 4000.0 4000.0 4000.0 4000.0 4000.0 4000.0 4000.0 4000.0 4000.0 4000.0 4000.0 4000.0 4000.0 4000.0 4000.0 4000.0 4000.0 4000.0 4000.0 4000.0 4000.0 4000.0 4000.0 4000.0 4000.0 4000.0 4000.0 4000.0 4000.0 4000.0 4000.0 4000.0 4000.0 4000.0 4000.0 4000.0 4000.0 4000.0 4000.0 4000.0 4000.0 4000.0 4000.0 4000.0 4000.0 4000.0 4000.0 4000.0 4000.0 4000.0 4000.0 4000.0 4000.0 4000.0 4000.0 4000.0 4000.0 4000.0 4000.0 4000.0 4000.0 4000.0 4000.0 4000.0 4000.0 4000.0 4000.0 4000.0 4000.0 4000.0 4000.0 4000.0 4000.0 4000.0 4000.0 4000.0 4000.0 4000.0 4000.0 4000.0 4000.0 4000.0 4000.0 4000.0 4000.0 4000.0 4000.0 4000.0 4000.0 4000.0 4000.0 4000.0 4000.0 4000.0 4000.0 4000.0 4000.0 4000.0 4000.0 4000.0 4000.0 4000.0 4000.0 4000.0 4000.0 4000.0 4000.0 4000.0 4000.0 4000.0 4000.0 4000.0 4000.0 4000.0 4000.0 4000.0 4000.0 4000.0 4000.0 4000.0 4000.0 4000.0 4000.0 4000.0 4000.0 4000.0 4000.0 4000.0 4000.0 4000.0 4000.0 4000.0 4000.0 4000.0 4000.0 4000.0 4000.0 4000.0 4000.0 4000.0 4000.0 4000.0 4000.0 4000.0 4000.0 4000.0 4000.0 4000.0 4000.0 4000.0 4000.0 4000.0 4000.0 4000.0 4000.0 4000.0 4000.0 4000.0 4000.0 4000.0 4000.0 4000.0 4000.0 4000.0 4000.0 4000.0 4000.0 4000.0 4000.0 4000.0 4000.0 4000.0 4000.0 4000.0 4000.0 4000.0 4000.0 4000.0 4000.0 4000.0 4000.0 4000.0 4000.0 4000.0 4000.0 4000.0 4000.0 4000.0 4000.0 4000.0 4000.0 4000.0 4000.0 4000.0 4000.0 4000.0 4000.0 4000.0 4000.0 4000.0 4000.0 4000.0 4000.0 4000.0 4000.0 4000.0 4000.0 4000.0 4000.0 4000.0 4000.0 4000.0 4000.0 4000.0 4000.0 4000.0 4000.0 4000.0 4000.0 4000.0 4000.0 4000.0 4000.0 4000.0 4000.0 4000.0 4000.0 4000.0 4000.0 4000.0 4000.0 4000.0 4000.0 4000.0 4000.0 4000.0 4000.0 4000.0 4000.0 4000.0 4000.0 4000.0 4000.0 4000.0 4000.0 4000.0 4000.0 4000.0 4000.0 4000.0 4000.0 4000.0 4000.0 4000.0 4000.0 4000.0 4000.0 4000.0 4000.0 4000.0 4000.0 4000.0 4000.0 4000.0 4000.0 4000.0 4000.0 4000.0 4000.0 4000.0 4000.0 4000.0 4000.0 4000.0 4000.0 4000.0 4000.0 4000.0 4000.0 4000.0 4000.0 4000.0 4000.0 4000.0 4000.0 4000.0 4000.0 4000.0 4000.0 4000.0 4000.0 4000.0 4000.0 4000.0 4000.0 4000.0 4000.0 4000.0 4000.0 4000.0 4000.0 4000.0 4000.0 4000.0 4000.0 4000.0 4000.0 4000.0 4000.0 4000.0 4000.0 4000.0 4000.0 4000.0 4000.0 4000.0 4000.0 4000.0 4000.0 4000.0 4000.0 4000.0 4000.0 4000.0 4000.0 4000.0 4000.0 4000.0 4000.0 4000.0 4000.0 4000.0 4000.0 4000.0 4000.0 4000.0 4000.0 4000.0 4000.0 4000.0 4000.0 4000.0 4000.0 4000.0 4000.0 4000.0 4000.0 4000.0 4000.0 4000.0 4000.0 4000.0 4000.0 4000.0 4000.0 4000.0 4000.0 4000.0 4000.0 4000.0 4000.0 4000.0 4000.0 4000.0 4000.0 4000.0 4000.0 4000.0 4000.0 4000.0 4000.0 4000.0 4000.0 4000.0 4000.0 4000.0 4000.0 4000.0 4000.0 4000.0 4000.0 4000.0 4000.0 4000.0 4000.0 4000.0 4000.0 4000.0 4000.0 4000.0 4000.0 4000.0 4000.0 4000.0 4000.0 4000.0 4000.0 4000.0 4000.0 4000.0 4000.0 4000.0 4000.0 4000.0 4000.0 4000.0 4000.0 4000.0 4000.0 4000.0 4000.0 4000.0 4000.0 4000.0 4000.0 4000.0 4000.0 4000.0 4000.0 4000.0 4000.0 4000.0 4000.0 4000.0 4000.0 4000.0 4000.0 4000.0 4000.0 4000.0 4000.0 4000.0 4000.0 4000.0 4000.0 4000.0 4000.0 4000.0 4000.0 4000.0 4000.0 4000.0 4000.0 4000.0 4000.0 4000.0 4000.0 4000.0 4000.0 4000.0 4000.0 4000.0 4000.0 4000.0 4000.0 4000.0 4000.0 4000.0 4000.0 4000.0 4000.0 4000.0 4000.0 4000.0 4000.0 4000.0 4000.0 4000.0 4000.0 4000.0 4000.0 4000.0 4000.0 4000.0 4000.0 4000.0 4000.0 4000.0 4000.0 4000.0 4000.0 4000.0 4000.0 4000.0 4000.0 4000.0 4000.0 4000.0 4000.0 4000.0 4000.0 4000.0 4000.0 4000.0 4000.0 4000.0 4000.0 4000.0 4000.0 4000.0 4000.0 4000.0 4000.0 4000.0 4000.0 4000.0 4000.0 4000.0 4000.0 4000.0 4000.0 4000.0 4000.0 4000.0 4000.0 4000.0 4000.0 4000.0 4000.0 4000.0 4000.0 4000.0 4000.0 4000.0 4000.0 4000.0 4000.0 4000.0 4000.0 4000.0 4000.0 4000.0 4000.0 4000.0 4000.0 4000.0 4000.0 4000.0 4000.0 4000.0 4000.0 4000.0 4000.0 4000.0 4000.0 4000.0 4000.0 4000.0 4000.0 4000.0 4000.0 4000.0 4000.0 4000.0 4000.0 4000.0 4000.0 4000.0 4000.0 4000.0 4000.0 4000.0 4000.0 4000.0 4000.0 4000.0 4000.0 4000.0 4000.0 4000.0 4000.0 4000.0 4000.0 4000.0 4000.0 4000.0 4000.0 4000.0 4000.0 4000.0 4000.0 4000.0 4000.0 4000.0 4000.0 4000.0 4000.0 4000.0 4000.0 4000.0 4000.0 4000.0 4000.0 4000.0 4000.0 4000.0 4000.0 4000.0 4000.0 4000.0 4000.0 4000.0 4000.0 4000.0 4000.0 4000.0 4000.0 4000.0 4000.0 4000.0 4000.0 4000.0 4000.0 4000.0 4000.0 4000.0 4000.0 4000.0 4000.0 4000.0 4000.0 4000.0 4000.0 4000.0 4000.0 4000.0 4000.0 4000.0 4000.0 4000.0 4000.0 4000.0 4000.0 4000.0 4000.0 4000.0 4000.0 4000.0 4000.0 4000.0 4000.0 4000.0 4000.0 4000.0 4000.0 4000.0 4000.0 4000.0 4000.0 4000.0 4000.0 4000.0 4000.0 4000.0 4000.0 4000.0 4000.0 4000.0 4000.0 4000.0 4000.0 4000.0 4000.0 4000.0 4000.0 4000.0 4000.0 4000.0 4000.0 4000.0 4000.0 4000.0 4000.0 4000.0 4000.0 4000.0 4000.0 4000.0 4000.0 4000.0 4000.0 4000.0 4000.0 4000.0 4000.0 4000.0 4000.0 4000.0 4000.0 4000.0 4000.0 4000.0 4000.0 4000.0 4000.0 4000.0 4000.0 4000.0 4000.0 4000.0 4000.0 4000.0 4000.0 4000.0 4000.0 4000.0 4000.0 4000.0 4000.0 4000.0 4000.0 4000.0 4000.0 4000.0 4000.0 4000.0 4000.0 4000.0 4000.0 4000.0 4000.0 4000.0 4000.0 4000.0 4000.0 4000.0 4000.0 4000.0 4000.0 4000.0 4000.0 4000.0 4000.0 4000.0 4000.0 4000.0 4000.0 4000.0 4000.0 4000.0 4000.0 4000.0 4000.0 4000.0 4000.0 4000.0 4000.0 4000.0 4000.0 4000.0 4000.0 4000.0 4000.0 4000.0 4000.0 4000.0 4000.0 4000.0 4000.0 4000.0 4000.0 4000.0 4000.0 4000.0 4000.0 4000.0 4000.0 4000.0 4000.0 4000.0 4000.0 4000.0 4000.0 4000.0 4000.0 4000.0 4000.0 4000.0 4000.0 4000.0 4000.0 4000.0 4000.0 4000.0 4000.0 4000.0 4000.0 4000.0 4000.0 4000.0 4000.0 4000.0 4000.0 4000.0 4000.0 4000.0 4000.0 4000.0 4000.0 4000.0 4000.0 4000.0 4000.0 4000.0 4000.0 4000.0 4000.0 4000.0 4000.0 4000.0 4000.0 4000.0 4000.0 4000.0 4000.0 4000.0 4000.0 4000.0 4000.0 4000.0 4000.0 4000.0 4000.0 4000.0 4000.0 4000.0 4000.0 4000.0 4000.0 4000.0 4000.0 4000.0 4000.0 4000.0 4000.0 4000.0 4000.0 4000.0 4000.0 4000.0 4000.0 4000.0 4000.0 4000.0 4000.0 4000.0 4000.0 4000.0 4000.0 4000.0 4000.0 4000.0 4000.0 4000.0 4000.0 4000.0 4000.0 4000.0 4000.0 4000.0 4000.0 4000.0 4000.0 4000.0 4000.0 4000.0 4000.0 4000.0 4000.0 4000.0 4000.0 4000.0 4000.0 4000.0 4000.0 4000.0 4000.0 4000.0 4000.0 4000.0 4000.0 4000.0 4000.0 4000.0 4000.0 4000.0 4000.0 4000.0 4000.0 4000.0 4000.0 4000.0 4000.0 4000.0 4000.0 4000.0 4000.0 4000.0 4000.0 4000.0 4000.0 4000.0 4000.0 4000.0 4000.0 4000.0 4000.0 4000.0 4000.0 4000.0 4000.0 4000.0 4000.0 4000.0 4000.0 4000.0 4000.0 4000.0 4000.0 4000.0 4000.0 4000.0 4000.0 4000.0 4000.0 4000.0 4000.0 4000.0 4000.0 4000.0 4000.0 4000.0 4000.0 4000.0 4000.0 4000.0 4000.0 4000.0 4000.0 4000.0 4000.0 4000.0 4000.0 4000.0 4000.0 4000.0 4000.0 4000.0 4000.0 4000.0 4000.0 4000.0 4000.0 4000.0 4000.0 4000.0 4000.0 4000.0 4000.0 4000.0 4000.0 4000.0 4000.0 4000.0 4000.0 4000.0 4000.0 4000.0 4000.0 4000.0 4000.0 4000.0 4000.0 4000.0 4000.0 4000.0 4000.0 4000.0 4000.0 4000.0 4000.0 4000.0 4000.0 4000.0 4000.0 4000.0 4000.0 4000.0 4000.0 4000.0 4000.0 4000.0 4000.0 4000.0 4000.0 4000.0 4000.0 4000.0 4000.0 4000.0 4000.0 4000.0 4000.0 4000.0 4000.0 4000.0 4000.0 4000.0 4000.0 4000.0 4000.0 4000.0 4000.0 4000.0 4000.0 4000.0 4000.0 4000.0 4000.0 4000.0 4000.0 4000.0 4000.0 4000.0 4000.0 4000.0 4000.0 4000.0 4000.0 4000.0 4000.0 4000.0 4000.0 4000.0 4000.0 4000.0 4000.0 4000.0 4000.0 4000.0 4000.0 4000.0 4000.0 4000.0 4000.0 4000.0 4000.0 4000.0 4000.0 4000.0 4000.0 4000.0 4000.0 4000.0 4000.0 4000.0 4000.0 4000.0 4000.0 4000.0 4000.0 4000.0 4000.0 4000.0 4000.0 4000.0 4000.0 4000.0 4000.0 4000.0 4000.0 4000.0 4000.0 4000.0 4000.0 4000.0 4000.0 4000.0 4000.0 4000.0 4000.0 4000.0 4000.0 4000.0 4000.0 4000.0 4000.0 4000.0 4000.0 4000.0 4000.0 4000.0 4000.0 4000.0 4000.0 4000.0 4000.0 4000.0 4000.0 4000.0 4000.0 4000.0 4000.0 4000.0 4000.0 4000.0 4000.0 4000.0 4000.0 4000.0 4000.0 4000.0 4000.0 4000.0 4000.0 4000.0 4000.0 4000.0 4000.0 4000.0 4000.0 4000.0 4000.0 4000.0 4000.0 4000.0 4000.0 4000.0 4000.0 4000.0 4000.0 4000.0 4000.0 4000.0 4000.0 4000.0 4000.0 4000.0 4000.0 4000.0 4000.0 4000.0 4000.0 4000.0 4000.0 4000.0 4000.0 4000.0 4000.0 4000.0 4000.0 4000.0 4000.0 4000.0 4000.0 4000.0 4000.0 4000.0 4000.0 4000.0 4000.0 4000.0 4000.0 4000.0 4000.0 4000.0 4000.0 4000.0 4000.0 4000.0 4000.0 4000.0 4000.0 4000.0 4000.0 4000.0 4000.0 4000.0 4000.0 4000.0 4000.0 4000.0 4000.0 4000.0 4000.0 4000.0 4000.0 4000.0 4000.0 4000.0 4000.0 4000.0 4000.0 4000.0 4000.0 4000.0 4000.0 4000.0 4000.0 4000.0 4000.0 4000.0 4000.0 4000.0 4000.0 4000.0 4000.0 4000.0 4000.0 4000.0 4000.0 4000.0 4000.0 4000.0 4000.0 4000.0 4000.0 4000.0 4000.0 4000.0 4000.0 4000.0 4000.0 4000.0 4000.0 4000.0 4000.0 4000.0 4000.0 4000.0 4000.0 4000.0 4000.0 4000.0 4000.0 4000.0 4000.0 4000.0 4000.0 4000.0 4000.0 4000.0 4000.0 4000.0 4000.0 4000.0 4000.0 4000.0 4000.0 4000.0 4000.0 4000.0 4000.0 4000.0 4000.0 4000.0 4000.0 4000.0 4000.0 4000.0 4000.0 4000.0 4000.0 4000.0 4000.0 4000.0 4000.0 4000.0 4000.0 4000.0 4000.0 4000.0 4000.0 4000.0 4000.0 4000.0 4000.0 4000.0 4000.0 4000.0 4000.0 4000.0 4000.0 4000.0 4000.0 4000.0 4000.0 4000.0 4000.0 4000.0 4000.0 4000.0 4000.0 4000.0 4000.0 4000.0 4000.0 4000.0 4000.0 4000.0 4000.0 4000.0 4000.0 4000.0 4000.0 4000.0 4000.0 4000.0 4000.0 4000.0 4000.0 4000.0 4000.0 4000.0 4000.0 4000.0 4000.0 4000.0 4000.0 4000.0 4000.0 4000.0 4000.0 4000.0 4000.0 4000.0 4000.0 4000.0 4000.0 4000.0 4000.0 4000.0 4000.0 4000.0 4000.0 4000.0 4000.0 4000.0 4000.0 4000.0 4000.0 4000.0 4000.0 4000.0 4000.0 4000.0 4000.0 4000.0 4000.0 4000.0 4000.0 4000.0 4000.0 4000.0 4000.0 4000.0 4000.0 4000.0 4000.0 4000.0 4000.0 4000.0 4000.0 4000.0 4000.0 4000.0 4000.0 4000.0 4000.0 4000.0 4000.0 4000.0 4000.0 4000.0 4000.0 4000.0 4000.0 4000.0 4000.0 4000.0 4000.0 4000.0 4000.0 4000.0 4000.0 4000.0 4000.0 4000.0 4000.0 4000.0 4000.0 4000.0 4000.0 4000.0 4000.0 4000.0 4000.0 4000.0 4000.0 4000.0 4000.0 4000.0 4000.0 4000.0 4000.0 4000.0 4000.0 4000.0 4000.0 4000.0 4000.0 4000.0 4000.0 4000.0 4000.0 4000.0 4000.0 4000.0 4000.0 4000.0 4000.0 4000.0 4000.0 4000.0 4000.0 4000.0 4000.0 4000.0 4000.0 4000.0 4000.0 4000.0 4000.0 4000.0 4000.0 4000.0 4000.0 4000.0 4000.0 4000.0 4000.0 4000.0 4000.0 4000.0 4000.0 4000.0 4000.0 4000.0 4000.0 4000.0 4000.0 4000.0 4000.0 4000.0 4000.0 4000.0 4000.0 4000.0 4000.0 4000.0 4000.0 4000.0 4000.0 4000.0 4000.0 4000.0 4000.0 4000.0 4000.0 4000.0 4000.0 4000.0 4000.0 4000.0 4000.0 4000.0 4000.0 4000.0 4000.0 4000.0 4000.0 4000.0 4000.0 4000.0 4000.0 4000.0 4000.0 4000.0 4000.0 4000.0 4000.0 4000.0 4000.0 4000.0 4000.0 4000.0 4000.0 4000.0 4000.0 4000.0 4000.0 4000.0 4000.0 4000.0 4000.0 4000.0 4000.0 4000.0 4000.0 4000.0 4000.0 4000.0 4000.0 4000.0 4000.0 4000.0 4000.0 4000.0 4000.0 4000.0 4000.0 4000.0 4000.0 4000.0 4000.0 4000.0 4000.0 4000.0 4000.0 4000.0 4000.0 4000.0 4000.0 4000.0 4000.0 4000.0 4000.0 4000.0 4000.0 4000.0 4000.0 4000.0 4000.0 4000.0 4000.0 4000.0 4000.0 4000.0 4000.0 4000.0 4000.0 4000.0 4000.0 4000.0 4000.0 4000.0 4000.0 4000.0 4000.0 4000.0 4000.0 4000.0 4000.0 4000.0 4000.0 4000.0 4000.0 4000.0 4000.0 4000.0 4000.0 4000.0 4000.0 4000.0 4000.0 4000.0 4000.0 4000.0 4000.0 4000.0 4000.0 4000.0 4000.0 4000.0 4000.0 4000.0 4000.0 4000.0 4000.0 4000.0 4000.0 4000.0 4000.0 4000.0 4000.0 4000.0 4000.0 4000.0 4000.0 4000.0 4000.0 4000.0 4000.0 4000.0 4000.0 4000.0 4000.0 4000.0 4000.0 4000.0 4000.0 4000.0 4000.0 4000.0 4000.0 4000.0 4000.0 4000.0 4000.0 4000.0 4000.0 4000.0 4000.0 4000.0 4000.0 4000.0 4000.0 4000.0 4000.0 4000.0 4000.0 4000.0 4000.0 4000.0 4000.0 4000.0 4000.0 4000.0 4000.0 4000.0 4000.0 4000.0 4000.0 4000.0 4000.0 4000.0 4000.0 4000.0 4000.0 4000.0 4000.0 4000.0 4000.0 4000.0 4000.0 4000.0 4000.0 4000.0 4000.0 4000.0 4000.0 4000.0 4000.0 4000.0 4000.0 4000.0 4000.0 4000.0 4000.0 4000.0 4000.0 4000.0 4000.0 4000.0 4000.0 4000.0 4000.0 4000.0 4000.0 4000.0 4000.0 4000.0 4000.0 4000.0 4000.0 4000.0 4000.0 4000.0 4000.0 4000.0 4000.0 4000.0 4000.0 4000.0 4000.0 4000.0 4000.0 4000.0 4000.0 4000.0 4000.0 4000.0 4000.0 4000.0 4000.0 4000.0 4000.0 4000.0 4000.0 4000.0 4000.0 4000.0 4000.0 4000.0 4000.0 4000.0 4000.0 4000.0 4000.0 4000.0 4000.0 4000.0 4000.0 4000.0 4000.0 4000.0 4000.0 4000.0 4000.0 4000.0 4000.0 4000.0 4000.0 4000.0 4000.0 4000.0 4000.0 4000.0 4000.0 4000.0 4000.0 4000.0 4000.0 4000.0 4000.0 4000.0 4000.0 4000.0 4000.0 4000.0 4000.0 4000.0 4000.0 4000.0 4000.0 4000.0 4000.0 4000.0 4000.0 4000.0 4000.0 4000.0 4000.0 4000.0 4000.0 4000.0 4000.0 4000.0 4000.0 4000.0 4000.0 4000.0 4000.0 4000.0 4000.0 4000.0 4000.0 4000.0 4000.0 4000.0 4000.0 4000.0 4000.0 4000.0 4000.0 4000.0 4000.0 4000.0 4000.0 4000.0 4000.0 4000.0 4000.0 4000.0 4000.0 4000.0 4000.0 4000.0 4000.0 4000.0 4000.0 4000.0 4000.0 4000.0 4000.0 4000.0 4000.0 4000.0 4000.0 4000.0 4000.0 4000.0 4000.0 4000.0 4000.0 4000.0 4000.0 4000.0 4000.0 4000.0 4000.0 4000.0 4000.0 4000.0 4000.0 4000.0 4000.0 4000.0 4000.0 4000.0 4000.0 4000.0 4000.0 4000.0 4000.0 4000.0 4000.0 4000.0 4000.0 4000.0 4000.0 4000.0 4000.0 4000.0 4000.0 4000.0 4000.0 4000.0 4000.0 4000.0 4000.0 4000.0 4000.0 4000.0 4000.0 4000.0 4000.0 4000.0 4000.0 4000.0 4000.0 4000.0 4000.0 4000.0 4000.0 4000.0 4000.0 4000.0 4000.0 4000.0 4000.0 4000.0 4000.0 4000.0 4000.0 4000.0 4000.0 4000.0 4000.0 4000.0 4000.0 4000.0 4000.0 4000.0 4000.0 4000.0 4000.0 4000.0 4000.0 4000.0 4000.0 4000.0 4000.0 4000.0 4000.0 4000.0 4000.0 4000.0 4000.0 4000.0 4000.0 4000.0 4000.0 4000.0 4000.0 4000.0 4000.0 4000.0 4000.0 4000.0 4000.0 4000.0 4000.0 4000.0 4000.0 4000.0 4000.0 4000.0 4000.0 4000.0 4000.0 4000.0 4000.0 4000.0 4000.0 4000.0 4000.0 4000.0 4000.0 4000.0 4000.0 4000.0 4000.0 4000.0 4000.0 4000.0 4000.0 4000.0 4000.0 4000.0 4000.0 4000.0 4000.0 4000.0 4000.0 4000.0 4000.0 4000.0 4000.0 4000.0 4000.0 4000.0 4000.0 4000.0 4000.0 4000.0 4000.0 4000.0 4000.0 4000.0 4000.0 4000.0 4000.0 4000.0 4000.0 4000.0 4000.0 4000.0 4000.0 4000.0 4000.0 4000.0 4000.0 4000.0 4000.0 4000.0 4000.0 4000.0 4000.0 4000.0 4000.0 4000.0 4000.0 4000.0 4000.0 4000.0 4000.0 4000.0 4000.0 4000.0 4000.0 4000.0 4000.0 4000.0 4000.0 4000.0 4000.0 4000.0 4000.0 4000.0 4000.0 4000.0 4000.0 4000.0 4000.0 4000.0 4000.0 4000.0 4000.0 4000.0 4000.0 4000.0 4000.0 4000.0 4000.0 4000.0 4000.0 4000.0 4000.0 4000.0 4000.0 4000.0 4000.0 4000.0 4000.0 4000.0 4000.0 4000.0 4000.0 4000.0 4000.0 4000.0 4000.0 4000.0 4000.0 4000.0 4000.0 4000.0 4000.0 4000.0 4000.0 4000.0 4000.0 4000.0 4000.0 4000.0 4000.0 4000.0 4000.0 4000.0 4000.0 4000.0 4000.0 4000.0 4000.0 4000.0 4000.0 4000.0 4000.0 4000.0 4000.0 4000.0 4000.0 4000.0 4000.0 4000.0 4000.0 4000.0 4000.0 4000.0 4000.0 4000.0 4000.0 4000.0 4000.0 4000.0 4000.0 4000.0 4000.0 4000.0 4000.0 4000.0 4000.0 4000.0 4000.0 4000.0 4000.0 4000.0 4000.0 4000.0 4000.0 4000.0 4000.0 4000.0 4000.0 4000.0 4000.0 4000.0 4000.0 4000.0 4000.0 4000.0 4000.0 4000.0 4000.0 4000.0 4000.0 4000.0 4000.0 4000.0 4000.0 4000.0 4000.0 4000.0 4000.0 4000.0 4000.0 4000.0 4000.0 4000.0 4000.0 4000.0 4000.0 4000.0 4000.0 4000.0 4000.0 4000.0 4000.0 4000.0 4000.0 4000.0 4000.0 4000.0 4000.0 4000.0 4000.0 4000.0 4000.0 4000.0 4000.0 4000.0 4000.0 4000.0 4000.0 4000.0 4000.0 4000.0 4000.0 4000.0 4000.0 4000.0 4000.0 4000.0 4000.0 4000.0 4000.0 4000.0 4000.0 4000.0 4000.0 4000.0 4000.0 4000.0 4000.0 4000.0 4000.0 4000.0 4000.0 4000.0 4000.0 4000.0 4000.0 4000.0 4000.0 4000.0 4000.0 4000.0 4000.0 4000.0 4000.0 4000.0 4000.0 4000.0 4000.0 4000.0 4000.0 4000.0 4000.0 4000.0 4000.0 4000.0 4000.0 4000.0 4000.0 4000.0 4000.0 4000.0 4000.0 4000.0 4000.0 4000.0 4000.0 4000.0 4000.0 4000.0 4000.0 4000.0 4000.0 4000.0 4000.0 4000.0 4000.0 4000.0 4000.0 4000.0 4000.0 4000.0 4000.0 4000.0 4000.0 4000.0 4000.0 4000.0 4000.0 4000.0 4000.0 4000.0 4000.0 4000.0 4000.0 4000.0 4000.0 4000.0 4000.0 4000.0 4000.0 4000.0 4000.0 4000.0 4000.0 4000.0 4000.0 4000.0 4000.0 4000.0 4000.0 4000.0 4000.0 4000.0 4000.0 4000.0 4000.0 4000.0 4000.0 4000.0 4000.0 4000.0 4000.0 4000.0 4000.0 4000.0 4000.0 4000.0 4000.0 4000.0 4000.0 4000.0 4000.0 4000.0 4000.0 4000.0 4000.0 4000.0 4000.0 4000.0 4000.0 4000.0 4000.0 4000.0 4000.0 4000.0 4000.0 4000.0 4000.0 4000.0 4000.0 4000.0 4000.0 4000.0 4000.0 4000.0 4000.0 4000.0 4000.0 4000.0 4000.0 4000.0 4000.0 4000.0 4000.0 4000.0 4000.0 4000.0 4000.0 4000.0 4000.0 4000.0 4000.0 4000.0 4000.0 4000.0 4000.0 4000.0 4000.0 4000.0 4000.0 4000.0 4000.0 4000.0 4000.0 4000.0 4000.0 4000.0 4000.0 4000.0 4000.0 4000.0 4000.0 4000.0 4000.0 4000.0 4000.0 4000.0 4000.0 4000.0 4000.0 4000.0 4000.0 4000.0 4000.0 4000.0 4000.0 4000.0 4000.0 4000.0 4000.0 4000.0 4000.0 4000.0 4000.0 4000.0 4000.0 4000.0 4000.0 4000.0 4000.0 4000.0 4000.0 4000.0 4000.0 4000.0 4000.0 4000.0 4000.0 4000.0 4000.0 4000.0 4000.0 4000.0 4000.0 4000.0 4000.0 4000.0 4000.0 4000.0 4000.0 4000.0 4000.0 4000.0 4000.0 4000.0 4000.0 4000.0 4000.0 4000.0 4000.0 4000.0 4000.0 4000.0 4000.0 4000.0 4000.0 4000.0 4000.0 4000.0 4000.0 4000.0 4000.0 4000.0 4000.0 4000.0 4000.0 4000.0 4000.0 4000.0 4000.0 4000.0 4000.0 4000.0 4000.0 4000.0 4000.0 4000.0 4000.0 4000.0 4000.0 4000.0 4000.0 4000.0 4000.0 4000.0 4000.0 4000.0 4000.0 4000.0 4000.0 4000.0 4000.0 4000.0 4000.0 4000.0 4000.0 4000.0 4000.0 4000.0 4000.0 4000.0 4000.0 4000.0 4000.0 4000.0 4000.0 4000.0 4000.0 4000.0 4000.0 4000.0 4000.0 4000.0 4000.0 4000.0 4000.0 4000.0 4000.0 4000.0 4000.0 4000.0 4000.0 4000.0 4000.0 4000.0 4000.0 4000.0 4000.0 4000.0 4000.0 4000.0 4000.0 4000.0 4000.0 4000.0 4000.0 4000.0 4000.0 4000.0 4000.0 4000.0 4000.0 4000.0 4000.0 4000.0 4000.0 4000.0 4000.0 4000.0 4000.0 4000.0 4000.0 4000.0 4000.0 4000.0 4000.0 4000.0 4000.0 4000.0 4000.0 4000.0 4000.0 4000.0 4000.0 4000.0 4000.0 4000.0 4000.0 4000.0 4000.0 4000.0 4000.0 4000.0 4000.0 4000.0 4000.0 4000.0 4000.0 4000.0 4000.0 4000.0 4000.0 4000.0 4000.0 4000.0 4000.0 4000.0 4000.0 4000.0 4000.0 4000.0 4000.0 4000.0 4000.0 4000.0 4000.0 4000.0 4000.0 4000.0 4000.0 4000.0 4000.0 4000.0 4000.0 4000.0 4000.0 4000.0 4000.0 4000.0 4000.0 4000.0 4000.0 4000.0 4000.0 4000.0 4000.0 4000.0 4000.0 4000.0 4000.0 4000.0 4000.0 4000.0 4000.0 4000.0 4000.0 4000.0 4000.0 4000.0 4000.0 4000.0 4000.0 4000.0 4000.0 4000.0 4000.0 4000.0 4000.0 4000.0 4000.0 4000.0 4000.0 4000.0 4000.0 4000.0 4000.0 4000.0 4000.0 4000.0 4000.0 4000.0 4000.0 4000.0 4000.0 4000.0 4000.0 4000.0 4000.0 4000.0 4000.0 4000.0 4000.0 4000.0 4000.0 4000.0 4000.0 4000.0 4000.0 4000.0 4000.0 4000.0 4000.0 4000.0 4000.0 4000.0 4000.0 4000.0 4000.0 4000.0 4000.0 4000.0 4000.0 4000.0 4000.0 4000.0 4000.0 4000.0 4000.0 4000.0 4000.0 4000.0 4000.0 4000.0 4000.0 4000.0 4000.0 4000.0 SCALARS Mass float 1
LOOKUP_TABLE default
11309700000.0 11309700000.0 11309700000.0 11309700000.0 11309700000.0 11309700000.0 11309700000.0 11309700000.0 11309700000.0 11309700000.0 11309700000.0 11309700000.0 11309700000.0 11309700000.0 11309700000.0 11309700000.0 11309700000.0 11309700000.0 11309700000.0 11309700000.0 11309700000.0 11309700000.0 11309700000.0 11309700000.0 11309700000.0 11309700000.0 11309700000.0 11309700000.0 11309700000.0 11309700000.0 11309700000.0 11309700000.0 11309700000.0 11309700000.0 11309700000.0 11309700000.0 11309700000.0 11309700000.0 11309700000.0 11309700000.0 11309700000.0 11309700000.0 11309700000.0 11309700000.0 11309700000.0 11309700000.0 11309700000.0 11309700000.0 11309700000.0 11309700000.0 11309700000.0 11309700000.0 11309700000.0 11309700000.0 11309700000.0 11309700000.0 11309700000.0 11309700000.0 11309700000.0 11309700000.0 11309700000.0 11309700000.0 11309700000.0 11309700000.0 11309700000.0 11309700000.0 11309700000.0 11309700000.0 11309700000.0 11309700000.0 11309700000.0 11309700000.0 11309700000.0 11309700000.0 11309700000.0 11309700000.0 11309700000.0 11309700000.0 11309700000.0 11309700000.0 11309700000.0 11309700000.0 11309700000.0 11309700000.0 11309700000.0 11309700000.0 11309700000.0 11309700000.0 11309700000.0 11309700000.0 11309700000.0 11309700000.0 11309700000.0 11309700000.0 11309700000.0 11309700000.0 11309700000.0 11309700000.0 11309700000.0 11309700000.0 11309700000.0 11309700000.0 11309700000.0 11309700000.0 11309700000.0 11309700000.0 11309700000.0 11309700000.0 11309700000.0 11309700000.0 11309700000.0 11309700000.0 11309700000.0 11309700000.0 11309700000.0 11309700000.0 11309700000.0 11309700000.0 11309700000.0 11309700000.0 11309700000.0 11309700000.0 11309700000.0 11309700000.0 11309700000.0 11309700000.0 11309700000.0 11309700000.0 11309700000.0 11309700000.0 11309700000.0 11309700000.0 11309700000.0 11309700000.0 11309700000.0 11309700000.0 11309700000.0 11309700000.0 11309700000.0 11309700000.0 11309700000.0 11309700000.0 11309700000.0 11309700000.0 11309700000.0 11309700000.0 11309700000.0 11309700000.0 11309700000.0 11309700000.0 11309700000.0 11309700000.0 11309700000.0 11309700000.0 11309700000.0 11309700000.0 11309700000.0 11309700000.0 11309700000.0 11309700000.0 11309700000.0 11309700000.0 11309700000.0 11309700000.0 11309700000.0 11309700000.0 11309700000.0 11309700000.0 11309700000.0 11309700000.0 11309700000.0 11309700000.0 11309700000.0 11309700000.0 11309700000.0 11309700000.0 11309700000.0 11309700000.0 11309700000.0 11309700000.0 11309700000.0 11309700000.0 11309700000.0 11309700000.0 11309700000.0 11309700000.0 11309700000.0 11309700000.0 11309700000.0 11309700000.0 11309700000.0 11309700000.0 11309700000.0 11309700000.0 11309700000.0 11309700000.0 11309700000.0 11309700000.0 11309700000.0 11309700000.0 11309700000.0 11309700000.0 11309700000.0 11309700000.0 11309700000.0 11309700000.0 11309700000.0 11309700000.0 11309700000.0 11309700000.0 11309700000.0 11309700000.0 11309700000.0 11309700000.0 11309700000.0 11309700000.0 11309700000.0 11309700000.0 11309700000.0 11309700000.0 11309700000.0 11309700000.0 11309700000.0 11309700000.0 11309700000.0 11309700000.0 11309700000.0 11309700000.0 11309700000.0 11309700000.0 11309700000.0 11309700000.0 11309700000.0 11309700000.0 11309700000.0 11309700000.0 11309700000.0 11309700000.0 11309700000.0 11309700000.0 11309700000.0 11309700000.0 11309700000.0 11309700000.0 11309700000.0 11309700000.0 11309700000.0 11309700000.0 11309700000.0 11309700000.0 11309700000.0 11309700000.0 11309700000.0 11309700000.0 11309700000.0 11309700000.0 11309700000.0 11309700000.0 11309700000.0 11309700000.0 11309700000.0 11309700000.0 11309700000.0 11309700000.0 11309700000.0 11309700000.0 11309700000.0 11309700000.0 11309700000.0 11309700000.0 11309700000.0 11309700000.0 11309700000.0 11309700000.0 11309700000.0 11309700000.0 11309700000.0 11309700000.0 11309700000.0 11309700000.0 11309700000.0 11309700000.0 11309700000.0 11309700000.0 11309700000.0 11309700000.0 11309700000.0 11309700000.0 11309700000.0 11309700000.0 11309700000.0 11309700000.0 11309700000.0 11309700000.0 11309700000.0 11309700000.0 11309700000.0 11309700000.0 11309700000.0 11309700000.0 11309700000.0 11309700000.0 11309700000.0 11309700000.0 11309700000.0 11309700000.0 11309700000.0 11309700000.0 11309700000.0 11309700000.0 11309700000.0 11309700000.0 11309700000.0 11309700000.0 11309700000.0 11309700000.0 11309700000.0 11309700000.0 11309700000.0 11309700000.0 11309700000.0 11309700000.0 11309700000.0 11309700000.0 11309700000.0 11309700000.0 11309700000.0 11309700000.0 11309700000.0 11309700000.0 11309700000.0 11309700000.0 11309700000.0 11309700000.0 11309700000.0 11309700000.0 11309700000.0 11309700000.0 11309700000.0 11309700000.0 11309700000.0 11309700000.0 11309700000.0 11309700000.0 11309700000.0 11309700000.0 11309700000.0 11309700000.0 11309700000.0 11309700000.0 11309700000.0 11309700000.0 11309700000.0 11309700000.0 11309700000.0 11309700000.0 11309700000.0 11309700000.0 11309700000.0 11309700000.0 11309700000.0 11309700000.0 11309700000.0 11309700000.0 11309700000.0 11309700000.0 11309700000.0 11309700000.0 11309700000.0 11309700000.0 11309700000.0 11309700000.0 11309700000.0 11309700000.0 11309700000.0 11309700000.0 11309700000.0 11309700000.0 11309700000.0 11309700000.0 11309700000.0 11309700000.0 11309700000.0 11309700000.0 11309700000.0 11309700000.0 11309700000.0 11309700000.0 11309700000.0 11309700000.0 11309700000.0 11309700000.0 11309700000.0 11309700000.0 11309700000.0 11309700000.0 11309700000.0 11309700000.0 11309700000.0 11309700000.0 11309700000.0 11309700000.0 11309700000.0 11309700000.0 11309700000.0 11309700000.0 11309700000.0 11309700000.0 11309700000.0 11309700000.0 11309700000.0 11309700000.0 11309700000.0 11309700000.0 11309700000.0 11309700000.0 11309700000.0 11309700000.0 11309700000.0 11309700000.0 11309700000.0 11309700000.0 11309700000.0 11309700000.0 11309700000.0 11309700000.0 11309700000.0 11309700000.0 11309700000.0 11309700000.0 11309700000.0 11309700000.0 11309700000.0 11309700000.0 11309700000.0 11309700000.0 11309700000.0 11309700000.0 11309700000.0 11309700000.0 11309700000.0 11309700000.0 11309700000.0 11309700000.0 11309700000.0 11309700000.0 11309700000.0 11309700000.0 11309700000.0 11309700000.0 11309700000.0 11309700000.0 11309700000.0 11309700000.0 11309700000.0 11309700000.0 11309700000.0 11309700000.0 11309700000.0 11309700000.0 11309700000.0 11309700000.0 11309700000.0 11309700000.0 11309700000.0 11309700000.0 11309700000.0 11309700000.0 11309700000.0 11309700000.0 11309700000.0 11309700000.0 11309700000.0 11309700000.0 11309700000.0 11309700000.0 11309700000.0 11309700000.0 11309700000.0 11309700000.0 11309700000.0 11309700000.0 11309700000.0 11309700000.0 11309700000.0 11309700000.0 11309700000.0 11309700000.0 11309700000.0 11309700000.0 11309700000.0 11309700000.0 11309700000.0 11309700000.0 11309700000.0 11309700000.0 11309700000.0 11309700000.0 11309700000.0 11309700000.0 11309700000.0 11309700000.0 11309700000.0 11309700000.0 11309700000.0 11309700000.0 11309700000.0 11309700000.0 11309700000.0 11309700000.0 11309700000.0 11309700000.0 11309700000.0 11309700000.0 11309700000.0 11309700000.0 11309700000.0 11309700000.0 11309700000.0 11309700000.0 11309700000.0 11309700000.0 11309700000.0 11309700000.0 11309700000.0 11309700000.0 11309700000.0 11309700000.0 11309700000.0 11309700000.0 11309700000.0 11309700000.0 11309700000.0 11309700000.0 11309700000.0 11309700000.0 11309700000.0 11309700000.0 11309700000.0 11309700000.0 11309700000.0 11309700000.0 11309700000.0 11309700000.0 11309700000.0 11309700000.0 11309700000.0 11309700000.0 11309700000.0 11309700000.0 11309700000.0 11309700000.0 11309700000.0 11309700000.0 11309700000.0 11309700000.0 11309700000.0 11309700000.0 11309700000.0 11309700000.0 11309700000.0 11309700000.0 11309700000.0 11309700000.0 11309700000.0 11309700000.0 11309700000.0 11309700000.0 11309700000.0 11309700000.0 11309700000.0 11309700000.0 11309700000.0 11309700000.0 11309700000.0 11309700000.0 11309700000.0 11309700000.0 11309700000.0 11309700000.0 11309700000.0 11309700000.0 11309700000.0 11309700000.0 11309700000.0 11309700000.0 11309700000.0 11309700000.0 11309700000.0 11309700000.0 11309700000.0 11309700000.0 11309700000.0 11309700000.0 11309700000.0 11309700000.0 11309700000.0 11309700000.0 11309700000.0 11309700000.0 11309700000.0 11309700000.0 11309700000.0 11309700000.0 11309700000.0 11309700000.0 11309700000.0 11309700000.0 11309700000.0 11309700000.0 11309700000.0 11309700000.0 11309700000.0 11309700000.0 11309700000.0 11309700000.0 11309700000.0 11309700000.0 11309700000.0 11309700000.0 11309700000.0 11309700000.0 11309700000.0 11309700000.0 11309700000.0 11309700000.0 11309700000.0 11309700000.0 11309700000.0 11309700000.0 11309700000.0 11309700000.0 11309700000.0 11309700000.0 11309700000.0 11309700000.0 11309700000.0 11309700000.0 11309700000.0 11309700000.0 11309700000.0 11309700000.0 11309700000.0 11309700000.0 11309700000.0 11309700000.0 11309700000.0 11309700000.0 11309700000.0 11309700000.0 11309700000.0 11309700000.0 11309700000.0 11309700000.0 11309700000.0 11309700000.0 11309700000.0 11309700000.0 11309700000.0 11309700000.0 11309700000.0 11309700000.0 11309700000.0 11309700000.0 11309700000.0 11309700000.0 11309700000.0 11309700000.0 11309700000.0 11309700000.0 11309700000.0 11309700000.0 11309700000.0 11309700000.0 11309700000.0 11309700000.0 11309700000.0 11309700000.0 11309700000.0 11309700000.0 11309700000.0 11309700000.0 11309700000.0 11309700000.0 11309700000.0 11309700000.0 11309700000.0 11309700000.0 11309700000.0 11309700000.0 11309700000.0 11309700000.0 11309700000.0 11309700000.0 11309700000.0 11309700000.0 11309700000.0 11309700000.0 11309700000.0 11309700000.0 11309700000.0 11309700000.0 11309700000.0 11309700000.0 11309700000.0 11309700000.0 11309700000.0 11309700000.0 11309700000.0 11309700000.0 11309700000.0 11309700000.0 11309700000.0 11309700000.0 11309700000.0 11309700000.0 11309700000.0 11309700000.0 11309700000.0 11309700000.0 11309700000.0 11309700000.0 11309700000.0 11309700000.0 11309700000.0 11309700000.0 11309700000.0 11309700000.0 11309700000.0 11309700000.0 11309700000.0 11309700000.0 11309700000.0 11309700000.0 11309700000.0 11309700000.0 11309700000.0 11309700000.0 11309700000.0 11309700000.0 11309700000.0 11309700000.0 11309700000.0 11309700000.0 11309700000.0 11309700000.0 11309700000.0 11309700000.0 11309700000.0 11309700000.0 11309700000.0 11309700000.0 11309700000.0 11309700000.0 11309700000.0 11309700000.0 11309700000.0 11309700000.0 11309700000.0 11309700000.0 11309700000.0 11309700000.0 11309700000.0 11309700000.0 11309700000.0 11309700000.0 11309700000.0 11309700000.0 11309700000.0 11309700000.0 11309700000.0 11309700000.0 11309700000.0 11309700000.0 11309700000.0 11309700000.0 11309700000.0 11309700000.0 11309700000.0 11309700000.0 11309700000.0 11309700000.0 11309700000.0 11309700000.0 11309700000.0 11309700000.0 11309700000.0 11309700000.0 11309700000.0 11309700000.0 11309700000.0 11309700000.0 11309700000.0 11309700000.0 11309700000.0 11309700000.0 11309700000.0 11309700000.0 11309700000.0 11309700000.0 11309700000.0 11309700000.0 11309700000.0 11309700000.0 11309700000.0 11309700000.0 11309700000.0 11309700000.0 11309700000.0 11309700000.0 11309700000.0 11309700000.0 11309700000.0 11309700000.0 11309700000.0 11309700000.0 11309700000.0 11309700000.0 11309700000.0 11309700000.0 11309700000.0 11309700000.0 11309700000.0 11309700000.0 11309700000.0 11309700000.0 11309700000.0 11309700000.0 11309700000.0 11309700000.0 11309700000.0 11309700000.0 11309700000.0 11309700000.0 11309700000.0 11309700000.0 11309700000.0 11309700000.0 11309700000.0 11309700000.0 11309700000.0 11309700000.0 11309700000.0 11309700000.0 11309700000.0 11309700000.0 11309700000.0 11309700000.0 11309700000.0 11309700000.0 11309700000.0 11309700000.0 11309700000.0 11309700000.0 11309700000.0 11309700000.0 11309700000.0 11309700000.0 11309700000.0 11309700000.0 11309700000.0 11309700000.0 11309700000.0 11309700000.0 11309700000.0 11309700000.0 11309700000.0 11309700000.0 11309700000.0 11309700000.0 11309700000.0 11309700000.0 11309700000.0 11309700000.0 11309700000.0 11309700000.0 11309700000.0 11309700000.0 11309700000.0 11309700000.0 11309700000.0 11309700000.0 11309700000.0 11309700000.0 11309700000.0 11309700000.0 11309700000.0 11309700000.0 11309700000.0 11309700000.0 11309700000.0 11309700000.0 11309700000.0 11309700000.0 11309700000.0 11309700000.0 11309700000.0 11309700000.0 11309700000.0 11309700000.0 11309700000.0 11309700000.0 11309700000.0 11309700000.0 11309700000.0 11309700000.0 11309700000.0 11309700000.0 11309700000.0 11309700000.0 11309700000.0 11309700000.0 11309700000.0 11309700000.0 11309700000.0 11309700000.0 11309700000.0 11309700000.0 11309700000.0 11309700000.0 11309700000.0 11309700000.0 11309700000.0 11309700000.0 11309700000.0 11309700000.0 11309700000.0 11309700000.0 11309700000.0 11309700000.0 11309700000.0 11309700000.0 11309700000.0 11309700000.0 11309700000.0 11309700000.0 11309700000.0 11309700000.0 11309700000.0 11309700000.0 11309700000.0 11309700000.0 11309700000.0 11309700000.0 11309700000.0 11309700000.0 11309700000.0 11309700000.0 11309700000.0 11309700000.0 11309700000.0 11309700000.0 11309700000.0 11309700000.0 11309700000.0 11309700000.0 11309700000.0 11309700000.0 11309700000.0 11309700000.0 11309700000.0 11309700000.0 11309700000.0 11309700000.0 11309700000.0 11309700000.0 11309700000.0 11309700000.0 11309700000.0 11309700000.0 11309700000.0 11309700000.0 11309700000.0 11309700000.0 11309700000.0 11309700000.0 11309700000.0 11309700000.0 11309700000.0 11309700000.0 11309700000.0 11309700000.0 11309700000.0 11309700000.0 11309700000.0 11309700000.0 11309700000.0 11309700000.0 11309700000.0 11309700000.0 11309700000.0 11309700000.0 11309700000.0 11309700000.0 11309700000.0 11309700000.0 11309700000.0 11309700000.0 11309700000.0 11309700000.0 11309700000.0 11309700000.0 11309700000.0 11309700000.0 11309700000.0 11309700000.0 11309700000.0 11309700000.0 11309700000.0 11309700000.0 11309700000.0 11309700000.0 11309700000.0 11309700000.0 11309700000.0 11309700000.0 11309700000.0 11309700000.0 11309700000.0 11309700000.0 11309700000.0 11309700000.0 11309700000.0 11309700000.0 11309700000.0 11309700000.0 11309700000.0 11309700000.0 11309700000.0 11309700000.0 11309700000.0 11309700000.0 11309700000.0 11309700000.0 11309700000.0 11309700000.0 11309700000.0 11309700000.0 11309700000.0 11309700000.0 11309700000.0 11309700000.0 11309700000.0 11309700000.0 11309700000.0 11309700000.0 11309700000.0 11309700000.0 11309700000.0 11309700000.0 11309700000.0 11309700000.0 11309700000.0 11309700000.0 11309700000.0 11309700000.0 11309700000.0 11309700000.0 11309700000.0 11309700000.0 11309700000.0 11309700000.0 11309700000.0 11309700000.0 11309700000.0 11309700000.0 11309700000.0 11309700000.0 11309700000.0 11309700000.0 11309700000.0 11309700000.0 11309700000.0 11309700000.0 11309700000.0 11309700000.0 11309700000.0 11309700000.0 11309700000.0 11309700000.0 11309700000.0 11309700000.0 11309700000.0 11309700000.0 11309700000.0 11309700000.0 11309700000.0 11309700000.0 11309700000.0 11309700000.0 11309700000.0 11309700000.0 11309700000.0 11309700000.0 11309700000.0 11309700000.0 11309700000.0 11309700000.0 11309700000.0 11309700000.0 11309700000.0 11309700000.0 11309700000.0 11309700000.0 11309700000.0 11309700000.0 11309700000.0 11309700000.0 11309700000.0 11309700000.0 11309700000.0 11309700000.0 11309700000.0 11309700000.0 11309700000.0 11309700000.0 11309700000.0 11309700000.0 11309700000.0 11309700000.0 11309700000.0 11309700000.0 11309700000.0 11309700000.0 11309700000.0 11309700000.0 11309700000.0 11309700000.0 11309700000.0 11309700000.0 11309700000.0 11309700000.0 11309700000.0 11309700000.0 11309700000.0 11309700000.0 11309700000.0 11309700000.0 11309700000.0 11309700000.0 11309700000.0 11309700000.0 11309700000.0 11309700000.0 11309700000.0 11309700000.0 11309700000.0 11309700000.0 11309700000.0 11309700000.0 11309700000.0 11309700000.0 11309700000.0 11309700000.0 11309700000.0 11309700000.0 11309700000.0 11309700000.0 11309700000.0 11309700000.0 11309700000.0 11309700000.0 11309700000.0 11309700000.0 11309700000.0 11309700000.0 11309700000.0 11309700000.0 11309700000.0 11309700000.0 11309700000.0 11309700000.0 11309700000.0 11309700000.0 11309700000.0 11309700000.0 11309700000.0 11309700000.0 11309700000.0 11309700000.0 11309700000.0 11309700000.0 11309700000.0 11309700000.0 11309700000.0 11309700000.0 11309700000.0 11309700000.0 11309700000.0 11309700000.0 11309700000.0 11309700000.0 11309700000.0 11309700000.0 11309700000.0 11309700000.0 11309700000.0 11309700000.0 11309700000.0 11309700000.0 11309700000.0 11309700000.0 11309700000.0 11309700000.0 11309700000.0 11309700000.0 11309700000.0 11309700000.0 11309700000.0 11309700000.0 11309700000.0 11309700000.0 11309700000.0 11309700000.0 11309700000.0 11309700000.0 11309700000.0 11309700000.0 11309700000.0 11309700000.0 11309700000.0 11309700000.0 11309700000.0 11309700000.0 11309700000.0 11309700000.0 11309700000.0 11309700000.0 11309700000.0 11309700000.0 11309700000.0 11309700000.0 11309700000.0 11309700000.0 11309700000.0 11309700000.0 11309700000.0 11309700000.0 11309700000.0 11309700000.0 11309700000.0 11309700000.0 11309700000.0 11309700000.0 11309700000.0 11309700000.0 11309700000.0 11309700000.0 11309700000.0 11309700000.0 11309700000.0 11309700000.0 11309700000.0 11309700000.0 11309700000.0 11309700000.0 11309700000.0 11309700000.0 11309700000.0 11309700000.0 11309700000.0 11309700000.0 11309700000.0 11309700000.0 11309700000.0 11309700000.0 11309700000.0 11309700000.0 11309700000.0 11309700000.0 11309700000.0 11309700000.0 11309700000.0 11309700000.0 11309700000.0 11309700000.0 11309700000.0 11309700000.0 11309700000.0 11309700000.0 11309700000.0 11309700000.0 11309700000.0 11309700000.0 11309700000.0 11309700000.0 11309700000.0 11309700000.0 11309700000.0 11309700000.0 11309700000.0 11309700000.0 11309700000.0 11309700000.0 11309700000.0 11309700000.0 11309700000.0 11309700000.0 11309700000.0 11309700000.0 11309700000.0 11309700000.0 11309700000.0 11309700000.0 11309700000.0 11309700000.0 11309700000.0 11309700000.0 11309700000.0 11309700000.0 11309700000.0 11309700000.0 11309700000.0 11309700000.0 11309700000.0 11309700000.0 11309700000.0 11309700000.0 11309700000.0 11309700000.0 11309700000.0 11309700000.0 11309700000.0 11309700000.0 11309700000.0 11309700000.0 11309700000.0 11309700000.0 11309700000.0 11309700000.0 11309700000.0 11309700000.0 11309700000.0 11309700000.0 11309700000.0 11309700000.0 11309700000.0 11309700000.0 11309700000.0 11309700000.0 11309700000.0 11309700000.0 11309700000.0 11309700000.0 11309700000.0 11309700000.0 11309700000.0 11309700000.0 11309700000.0 11309700000.0 11309700000.0 11309700000.0 11309700000.0 11309700000.0 11309700000.0 11309700000.0 11309700000.0 11309700000.0 11309700000.0 11309700000.0 11309700000.0 11309700000.0 11309700000.0 11309700000.0 11309700000.0 11309700000.0 11309700000.0 11309700000.0 11309700000.0 11309700000.0 11309700000.0 11309700000.0 11309700000.0 11309700000.0 11309700000.0 11309700000.0 11309700000.0 11309700000.0 11309700000.0 11309700000.0 11309700000.0 11309700000.0 11309700000.0 11309700000.0 11309700000.0 11309700000.0 11309700000.0 11309700000.0 11309700000.0 11309700000.0 11309700000.0 11309700000.0 11309700000.0 11309700000.0 11309700000.0 11309700000.0 11309700000.0 11309700000.0 11309700000.0 11309700000.0 11309700000.0 11309700000.0 11309700000.0 11309700000.0 11309700000.0 11309700000.0 11309700000.0 11309700000.0 11309700000.0 11309700000.0 11309700000.0 11309700000.0 11309700000.0 11309700000.0 11309700000.0 11309700000.0 11309700000.0 11309700000.0 11309700000.0 11309700000.0 11309700000.0 11309700000.0 11309700000.0 11309700000.0 11309700000.0 11309700000.0 11309700000.0 11309700000.0 11309700000.0 11309700000.0 11309700000.0 11309700000.0 11309700000.0 11309700000.0 11309700000.0 11309700000.0 11309700000.0 11309700000.0 11309700000.0 11309700000.0 11309700000.0 11309700000.0 11309700000.0 11309700000.0 11309700000.0 11309700000.0 11309700000.0 11309700000.0 11309700000.0 11309700000.0 11309700000.0 11309700000.0 11309700000.0 11309700000.0 11309700000.0 11309700000.0 11309700000.0 11309700000.0 11309700000.0 11309700000.0 11309700000.0 11309700000.0 11309700000.0 11309700000.0 11309700000.0 11309700000.0 11309700000.0 11309700000.0 11309700000.0 11309700000.0 11309700000.0 11309700000.0 11309700000.0 11309700000.0 11309700000.0 11309700000.0 11309700000.0 11309700000.0 11309700000.0 11309700000.0 11309700000.0 11309700000.0 11309700000.0 11309700000.0 11309700000.0 11309700000.0 11309700000.0 11309700000.0 11309700000.0 11309700000.0 11309700000.0 11309700000.0 11309700000.0 11309700000.0 11309700000.0 11309700000.0 11309700000.0 11309700000.0 11309700000.0 11309700000.0 11309700000.0 11309700000.0 11309700000.0 11309700000.0 11309700000.0 11309700000.0 11309700000.0 11309700000.0 11309700000.0 11309700000.0 11309700000.0 11309700000.0 11309700000.0 11309700000.0 11309700000.0 11309700000.0 11309700000.0 11309700000.0 11309700000.0 11309700000.0 11309700000.0 11309700000.0 11309700000.0 11309700000.0 11309700000.0 11309700000.0 11309700000.0 11309700000.0 11309700000.0 11309700000.0 11309700000.0 11309700000.0 11309700000.0 11309700000.0 11309700000.0 11309700000.0 11309700000.0 11309700000.0 11309700000.0 11309700000.0 11309700000.0 11309700000.0 11309700000.0 11309700000.0 11309700000.0 11309700000.0 11309700000.0 11309700000.0 11309700000.0 11309700000.0 11309700000.0 11309700000.0 11309700000.0 11309700000.0 11309700000.0 11309700000.0 11309700000.0 11309700000.0 11309700000.0 11309700000.0 11309700000.0 11309700000.0 11309700000.0 11309700000.0 11309700000.0 11309700000.0 11309700000.0 11309700000.0 11309700000.0 11309700000.0 11309700000.0 11309700000.0 11309700000.0 11309700000.0 11309700000.0 11309700000.0 11309700000.0 11309700000.0 11309700000.0 11309700000.0 11309700000.0 11309700000.0 11309700000.0 11309700000.0 11309700000.0 11309700000.0 11309700000.0 11309700000.0 11309700000.0 11309700000.0 11309700000.0 11309700000.0 11309700000.0 11309700000.0 11309700000.0 11309700000.0 11309700000.0 11309700000.0 11309700000.0 11309700000.0 11309700000.0 11309700000.0 11309700000.0 11309700000.0 11309700000.0 11309700000.0 11309700000.0 11309700000.0 11309700000.0 11309700000.0 11309700000.0 11309700000.0 11309700000.0 11309700000.0 11309700000.0 11309700000.0 11309700000.0 11309700000.0 11309700000.0 11309700000.0 11309700000.0 11309700000.0 11309700000.0 11309700000.0 11309700000.0 11309700000.0 11309700000.0 11309700000.0 11309700000.0 11309700000.0 11309700000.0 11309700000.0 11309700000.0 11309700000.0 11309700000.0 11309700000.0 11309700000.0 11309700000.0 11309700000.0 11309700000.0 11309700000.0 11309700000.0 11309700000.0 11309700000.0 11309700000.0 11309700000.0 11309700000.0 11309700000.0 11309700000.0 11309700000.0 11309700000.0 11309700000.0 11309700000.0 11309700000.0 11309700000.0 11309700000.0 11309700000.0 11309700000.0 11309700000.0 11309700000.0 11309700000.0 11309700000.0 11309700000.0 11309700000.0 11309700000.0 11309700000.0 11309700000.0 11309700000.0 11309700000.0 11309700000.0 11309700000.0 11309700000.0 11309700000.0 11309700000.0 11309700000.0 11309700000.0 11309700000.0 11309700000.0 11309700000.0 11309700000.0 11309700000.0 11309700000.0 11309700000.0 11309700000.0 11309700000.0 11309700000.0 11309700000.0 11309700000.0 11309700000.0 11309700000.0 11309700000.0 11309700000.0 11309700000.0 11309700000.0 11309700000.0 11309700000.0 11309700000.0 11309700000.0 11309700000.0 11309700000.0 11309700000.0 11309700000.0 11309700000.0 11309700000.0 11309700000.0 11309700000.0 11309700000.0 11309700000.0 11309700000.0 11309700000.0 11309700000.0 11309700000.0 11309700000.0 11309700000.0 11309700000.0 11309700000.0 11309700000.0 11309700000.0 11309700000.0 11309700000.0 11309700000.0 11309700000.0 11309700000.0 11309700000.0 11309700000.0 11309700000.0 11309700000.0 11309700000.0 11309700000.0 11309700000.0 11309700000.0 11309700000.0 11309700000.0 11309700000.0 11309700000.0 11309700000.0 11309700000.0 11309700000.0 11309700000.0 11309700000.0 11309700000.0 11309700000.0 11309700000.0 11309700000.0 11309700000.0 11309700000.0 11309700000.0 11309700000.0 11309700000.0 11309700000.0 11309700000.0 11309700000.0 11309700000.0 11309700000.0 11309700000.0 11309700000.0 11309700000.0 11309700000.0 11309700000.0 11309700000.0 11309700000.0 11309700000.0 11309700000.0 11309700000.0 11309700000.0 11309700000.0 11309700000.0 11309700000.0 11309700000.0 11309700000.0 11309700000.0 11309700000.0 11309700000.0 11309700000.0 11309700000.0 11309700000.0 11309700000.0 11309700000.0 11309700000.0 11309700000.0 11309700000.0 11309700000.0 11309700000.0 11309700000.0 11309700000.0 11309700000.0 11309700000.0 11309700000.0 11309700000.0 11309700000.0 11309700000.0 11309700000.0 11309700000.0 11309700000.0 11309700000.0 11309700000.0 11309700000.0 11309700000.0 11309700000.0 11309700000.0 11309700000.0 11309700000.0 11309700000.0 11309700000.0 11309700000.0 11309700000.0 11309700000.0 11309700000.0 11309700000.0 11309700000.0 11309700000.0 11309700000.0 11309700000.0 11309700000.0 11309700000.0 11309700000.0 11309700000.0 11309700000.0 11309700000.0 11309700000.0 11309700000.0 11309700000.0 11309700000.0 11309700000.0 11309700000.0 11309700000.0 11309700000.0 11309700000.0 11309700000.0 11309700000.0 11309700000.0 11309700000.0 11309700000.0 11309700000.0 11309700000.0 11309700000.0 11309700000.0 11309700000.0 11309700000.0 11309700000.0 11309700000.0 11309700000.0 11309700000.0 11309700000.0 11309700000.0 11309700000.0 11309700000.0 11309700000.0 11309700000.0 11309700000.0 11309700000.0 11309700000.0 11309700000.0 11309700000.0 11309700000.0 11309700000.0 11309700000.0 11309700000.0 11309700000.0 11309700000.0 11309700000.0 11309700000.0 11309700000.0 11309700000.0 11309700000.0 11309700000.0 11309700000.0 11309700000.0 11309700000.0 11309700000.0 11309700000.0 11309700000.0 11309700000.0 11309700000.0 11309700000.0 11309700000.0 11309700000.0 11309700000.0 11309700000.0 11309700000.0 11309700000.0 11309700000.0 11309700000.0 11309700000.0 11309700000.0 11309700000.0 11309700000.0 11309700000.0 11309700000.0 11309700000.0 11309700000.0 11309700000.0 11309700000.0 11309700000.0 11309700000.0 11309700000.0 11309700000.0 11309700000.0 11309700000.0 11309700000.0 11309700000.0 11309700000.0 11309700000.0 11309700000.0 11309700000.0 11309700000.0 11309700000.0 11309700000.0 11309700000.0 11309700000.0 11309700000.0 11309700000.0 11309700000.0 11309700000.0 11309700000.0 11309700000.0 11309700000.0 11309700000.0 11309700000.0 11309700000.0 11309700000.0 11309700000.0 11309700000.0 11309700000.0 11309700000.0 11309700000.0 11309700000.0 11309700000.0 11309700000.0 11309700000.0 11309700000.0 11309700000.0 11309700000.0 11309700000.0 11309700000.0 11309700000.0 11309700000.0 11309700000.0 11309700000.0 11309700000.0 11309700000.0 11309700000.0 11309700000.0 11309700000.0 11309700000.0 11309700000.0 11309700000.0 11309700000.0 11309700000.0 11309700000.0 11309700000.0 11309700000.0 11309700000.0 11309700000.0 11309700000.0 11309700000.0 11309700000.0 11309700000.0 11309700000.0 11309700000.0 11309700000.0 11309700000.0 11309700000.0 11309700000.0 11309700000.0 11309700000.0 11309700000.0 11309700000.0 11309700000.0 11309700000.0 11309700000.0 11309700000.0 11309700000.0 11309700000.0 11309700000.0 11309700000.0 11309700000.0 11309700000.0 11309700000.0 11309700000.0 11309700000.0 11309700000.0 11309700000.0 11309700000.0 11309700000.0 11309700000.0 11309700000.0 11309700000.0 11309700000.0 11309700000.0 11309700000.0 11309700000.0 11309700000.0 11309700000.0 11309700000.0 11309700000.0 11309700000.0 11309700000.0 11309700000.0 11309700000.0 11309700000.0 11309700000.0 11309700000.0 11309700000.0 11309700000.0 11309700000.0 11309700000.0 11309700000.0 11309700000.0 11309700000.0 11309700000.0 11309700000.0 11309700000.0 11309700000.0 11309700000.0 11309700000.0 11309700000.0 11309700000.0 11309700000.0 11309700000.0 11309700000.0 11309700000.0 11309700000.0 11309700000.0 11309700000.0 11309700000.0 11309700000.0 11309700000.0 11309700000.0 11309700000.0 11309700000.0 11309700000.0 11309700000.0 11309700000.0 11309700000.0 11309700000.0 11309700000.0 11309700000.0 11309700000.0 11309700000.0 11309700000.0 11309700000.0 11309700000.0 11309700000.0 11309700000.0 11309700000.0 11309700000.0 11309700000.0 11309700000.0 11309700000.0 11309700000.0 11309700000.0 11309700000.0 11309700000.0 11309700000.0 11309700000.0 11309700000.0 11309700000.0 11309700000.0 11309700000.0 11309700000.0 11309700000.0 11309700000.0 11309700000.0 11309700000.0 11309700000.0 11309700000.0 11309700000.0 11309700000.0 11309700000.0 11309700000.0 11309700000.0 11309700000.0 11309700000.0 11309700000.0 11309700000.0 11309700000.0 11309700000.0 11309700000.0 11309700000.0 11309700000.0 11309700000.0 11309700000.0 11309700000.0 11309700000.0 11309700000.0 11309700000.0 11309700000.0 11309700000.0 11309700000.0 11309700000.0 11309700000.0 11309700000.0 11309700000.0 11309700000.0 11309700000.0 11309700000.0 11309700000.0 11309700000.0 11309700000.0 11309700000.0 11309700000.0 11309700000.0 11309700000.0 11309700000.0 11309700000.0 11309700000.0 11309700000.0 11309700000.0 11309700000.0 11309700000.0 11309700000.0 11309700000.0 11309700000.0 11309700000.0 11309700000.0 11309700000.0 11309700000.0 11309700000.0 11309700000.0 11309700000.0 11309700000.0 11309700000.0 11309700000.0 11309700000.0 11309700000.0 11309700000.0 11309700000.0 11309700000.0 11309700000.0 11309700000.0 11309700000.0 11309700000.0 11309700000.0 11309700000.0 11309700000.0 11309700000.0 11309700000.0 11309700000.0 11309700000.0 11309700000.0 11309700000.0 11309700000.0 11309700000.0 11309700000.0 11309700000.0 11309700000.0 11309700000.0 11309700000.0 11309700000.0 11309700000.0 11309700000.0 11309700000.0 11309700000.0 11309700000.0 11309700000.0 11309700000.0 11309700000.0 11309700000.0 11309700000.0 11309700000.0 11309700000.0 11309700000.0 11309700000.0 11309700000.0 11309700000.0 11309700000.0 11309700000.0 11309700000.0 11309700000.0 11309700000.0 11309700000.0 11309700000.0 11309700000.0 11309700000.0 11309700000.0 11309700000.0 11309700000.0 11309700000.0 11309700000.0 11309700000.0 11309700000.0 11309700000.0 11309700000.0 11309700000.0 11309700000.0 11309700000.0 11309700000.0 11309700000.0 11309700000.0 11309700000.0 11309700000.0 11309700000.0 11309700000.0 11309700000.0 11309700000.0 11309700000.0 11309700000.0 11309700000.0 11309700000.0 11309700000.0 11309700000.0 11309700000.0 11309700000.0 11309700000.0 11309700000.0 11309700000.0 11309700000.0 11309700000.0 11309700000.0 11309700000.0 11309700000.0 11309700000.0 11309700000.0 11309700000.0 11309700000.0 11309700000.0 11309700000.0 11309700000.0 11309700000.0 11309700000.0 11309700000.0 11309700000.0 11309700000.0 11309700000.0 11309700000.0 11309700000.0 11309700000.0 11309700000.0 11309700000.0 11309700000.0 11309700000.0 11309700000.0 11309700000.0 11309700000.0 11309700000.0 11309700000.0 11309700000.0 11309700000.0 11309700000.0 11309700000.0 11309700000.0 11309700000.0 11309700000.0 11309700000.0 11309700000.0 11309700000.0 11309700000.0 11309700000.0 11309700000.0 11309700000.0 11309700000.0 11309700000.0 11309700000.0 11309700000.0 11309700000.0 11309700000.0 11309700000.0 11309700000.0 11309700000.0 11309700000.0 11309700000.0 11309700000.0 11309700000.0 11309700000.0 11309700000.0 11309700000.0 11309700000.0 11309700000.0 11309700000.0 11309700000.0 11309700000.0 11309700000.0 11309700000.0 11309700000.0 11309700000.0 11309700000.0 11309700000.0 11309700000.0 11309700000.0 11309700000.0 11309700000.0 11309700000.0 11309700000.0 11309700000.0 11309700000.0 11309700000.0 11309700000.0 11309700000.0 11309700000.0 11309700000.0 11309700000.0 11309700000.0 11309700000.0 11309700000.0 11309700000.0 11309700000.0 11309700000.0 11309700000.0 11309700000.0 11309700000.0 11309700000.0 11309700000.0 11309700000.0 11309700000.0 11309700000.0 11309700000.0 11309700000.0 11309700000.0 11309700000.0 11309700000.0 11309700000.0 11309700000.0 11309700000.0 11309700000.0 11309700000.0 11309700000.0 11309700000.0 11309700000.0 11309700000.0 11309700000.0 11309700000.0 11309700000.0 11309700000.0 11309700000.0 11309700000.0 11309700000.0 11309700000.0 11309700000.0 11309700000.0 11309700000.0 11309700000.0 11309700000.0 11309700000.0 11309700000.0 11309700000.0 11309700000.0 11309700000.0 11309700000.0 11309700000.0 11309700000.0 11309700000.0 11309700000.0 11309700000.0 11309700000.0 11309700000.0 11309700000.0 11309700000.0 11309700000.0 11309700000.0 11309700000.0 11309700000.0 11309700000.0 11309700000.0 11309700000.0 11309700000.0 11309700000.0 11309700000.0 11309700000.0 11309700000.0 11309700000.0 11309700000.0 11309700000.0 11309700000.0 11309700000.0 11309700000.0 11309700000.0 11309700000.0 11309700000.0 11309700000.0 11309700000.0 11309700000.0 11309700000.0 11309700000.0 11309700000.0 11309700000.0 11309700000.0 11309700000.0 11309700000.0 11309700000.0 11309700000.0 11309700000.0 11309700000.0 11309700000.0 11309700000.0 11309700000.0 11309700000.0 11309700000.0 11309700000.0 11309700000.0 11309700000.0 11309700000.0 11309700000.0 11309700000.0 11309700000.0 11309700000.0 11309700000.0 11309700000.0 11309700000.0 11309700000.0 11309700000.0 11309700000.0 11309700000.0 11309700000.0 11309700000.0 11309700000.0 11309700000.0 11309700000.0 11309700000.0 11309700000.0 11309700000.0 11309700000.0 11309700000.0 11309700000.0 11309700000.0 11309700000.0 11309700000.0 11309700000.0 11309700000.0 11309700000.0 11309700000.0 11309700000.0 11309700000.0 11309700000.0 11309700000.0 11309700000.0 11309700000.0 11309700000.0 11309700000.0 11309700000.0 11309700000.0 11309700000.0 11309700000.0 11309700000.0 11309700000.0 11309700000.0 11309700000.0 11309700000.0 11309700000.0 11309700000.0 11309700000.0 11309700000.0 11309700000.0 11309700000.0 11309700000.0 11309700000.0 11309700000.0 11309700000.0 11309700000.0 11309700000.0 11309700000.0 11309700000.0 11309700000.0 11309700000.0 11309700000.0 11309700000.0 11309700000.0 11309700000.0 11309700000.0 11309700000.0 11309700000.0 11309700000.0 11309700000.0 11309700000.0 11309700000.0 11309700000.0 11309700000.0 11309700000.0 11309700000.0 11309700000.0 11309700000.0 11309700000.0 11309700000.0 11309700000.0 11309700000.0 11309700000.0 11309700000.0 11309700000.0 11309700000.0 11309700000.0 11309700000.0 11309700000.0 11309700000.0 11309700000.0 11309700000.0 11309700000.0 11309700000.0 11309700000.0 11309700000.0 11309700000.0 11309700000.0 11309700000.0 11309700000.0 11309700000.0 11309700000.0 11309700000.0 11309700000.0 11309700000.0 11309700000.0 11309700000.0 11309700000.0 11309700000.0 11309700000.0 11309700000.0 11309700000.0 11309700000.0 11309700000.0 11309700000.0 11309700000.0 11309700000.0 11309700000.0 11309700000.0 11309700000.0 11309700000.0 11309700000.0 11309700000.0 11309700000.0 11309700000.0 11309700000.0 11309700000.0 11309700000.0 11309700000.0 11309700000.0 11309700000.0 11309700000.0 11309700000.0 11309700000.0 11309700000.0 11309700000.0 11309700000.0 11309700000.0 11309700000.0 11309700000.0 11309700000.0 11309700000.0 11309700000.0 11309700000.0 11309700000.0 11309700000.0 11309700000.0 11309700000.0 11309700000.0 11309700000.0 11309700000.0 11309700000.0 11309700000.0 11309700000.0 11309700000.0 11309700000.0 11309700000.0 11309700000.0 11309700000.0 11309700000.0 11309700000.0 11309700000.0 11309700000.0 11309700000.0 11309700000.0 11309700000.0 11309700000.0 11309700000.0 11309700000.0 11309700000.0 11309700000.0 11309700000.0 11309700000.0 11309700000.0 11309700000.0 11309700000.0 11309700000.0 11309700000.0 11309700000.0 11309700000.0 11309700000.0 11309700000.0 11309700000.0 11309700000.0 11309700000.0 11309700000.0 11309700000.0 11309700000.0 11309700000.0 11309700000.0 11309700000.0 11309700000.0 11309700000.0 11309700000.0 11309700000.0 11309700000.0 11309700000.0 11309700000.0 11309700000.0 11309700000.0 11309700000.0 11309700000.0 11309700000.0 11309700000.0 11309700000.0 11309700000.0 11309700000.0 11309700000.0 11309700000.0 11309700000.0 11309700000.0 11309700000.0 11309700000.0 11309700000.0 11309700000.0 11309700000.0 11309700000.0 11309700000.0 11309700000.0 11309700000.0 11309700000.0 11309700000.0 11309700000.0 11309700000.0 11309700000.0 11309700000.0 11309700000.0 11309700000.0 11309700000.0 11309700000.0 11309700000.0 11309700000.0 11309700000.0 11309700000.0 11309700000.0 11309700000.0 11309700000.0 11309700000.0 11309700000.0 11309700000.0 11309700000.0 11309700000.0 11309700000.0 11309700000.0 11309700000.0 11309700000.0 11309700000.0 11309700000.0 11309700000.0 11309700000.0 11309700000.0 11309700000.0 11309700000.0 11309700000.0 11309700000.0 11309700000.0 11309700000.0 11309700000.0 11309700000.0 11309700000.0 11309700000.0 11309700000.0 11309700000.0 11309700000.0 11309700000.0 11309700000.0 11309700000.0 11309700000.0 11309700000.0 11309700000.0 11309700000.0 11309700000.0 11309700000.0 11309700000.0 11309700000.0 11309700000.0 11309700000.0 11309700000.0 11309700000.0 11309700000.0 11309700000.0 11309700000.0 11309700000.0 11309700000.0 11309700000.0 11309700000.0 11309700000.0 11309700000.0 11309700000.0 11309700000.0 11309700000.0 11309700000.0 11309700000.0 11309700000.0 11309700000.0 11309700000.0 11309700000.0 11309700000.0 11309700000.0 11309700000.0 11309700000.0 11309700000.0 11309700000.0 11309700000.0 11309700000.0 11309700000.0 11309700000.0 11309700000.0 11309700000.0 11309700000.0 11309700000.0 11309700000.0 11309700000.0 11309700000.0 11309700000.0 11309700000.0 11309700000.0 11309700000.0 11309700000.0 11309700000.0 11309700000.0 11309700000.0 11309700000.0 11309700000.0 11309700000.0 11309700000.0 11309700000.0 11309700000.0 11309700000.0 11309700000.0 11309700000.0 11309700000.0 11309700000.0 11309700000.0 11309700000.0 11309700000.0 11309700000.0 11309700000.0 11309700000.0 11309700000.0 11309700000.0 11309700000.0 11309700000.0 11309700000.0 11309700000.0 11309700000.0 11309700000.0 11309700000.0 11309700000.0 11309700000.0 11309700000.0 11309700000.0 11309700000.0 11309700000.0 11309700000.0 11309700000.0 11309700000.0 11309700000.0 11309700000.0 11309700000.0 11309700000.0 11309700000.0 11309700000.0 11309700000.0 11309700000.0 11309700000.0 11309700000.0 11309700000.0 11309700000.0 11309700000.0 11309700000.0 11309700000.0 11309700000.0 11309700000.0 11309700000.0 11309700000.0 11309700000.0 11309700000.0 11309700000.0 11309700000.0 11309700000.0 11309700000.0 11309700000.0 11309700000.0 11309700000.0 11309700000.0 11309700000.0 11309700000.0 11309700000.0 11309700000.0 11309700000.0 11309700000.0 11309700000.0 11309700000.0 11309700000.0 11309700000.0 11309700000.0 11309700000.0 11309700000.0 11309700000.0 11309700000.0 11309700000.0 11309700000.0 11309700000.0 11309700000.0 11309700000.0 11309700000.0 11309700000.0 11309700000.0 11309700000.0 11309700000.0 11309700000.0 11309700000.0 11309700000.0 11309700000.0 11309700000.0 11309700000.0 11309700000.0 11309700000.0 11309700000.0 11309700000.0 11309700000.0 11309700000.0 11309700000.0 11309700000.0 11309700000.0 11309700000.0 11309700000.0 11309700000.0 11309700000.0 11309700000.0 11309700000.0 11309700000.0 11309700000.0 11309700000.0 11309700000.0 11309700000.0 11309700000.0 11309700000.0 11309700000.0 11309700000.0 11309700000.0 11309700000.0 11309700000.0 11309700000.0 11309700000.0 11309700000.0 11309700000.0 11309700000.0 11309700000.0 11309700000.0 11309700000.0 11309700000.0 11309700000.0 11309700000.0 11309700000.0 11309700000.0 11309700000.0 11309700000.0 11309700000.0 11309700000.0 11309700000.0 11309700000.0 11309700000.0 11309700000.0 11309700000.0 11309700000.0 11309700000.0 11309700000.0 11309700000.0 11309700000.0 11309700000.0 11309700000.0 11309700000.0 11309700000.0 11309700000.0 11309700000.0 11309700000.0 11309700000.0 11309700000.0 11309700000.0 11309700000.0 11309700000.0 11309700000.0 11309700000.0 11309700000.0 11309700000.0 11309700000.0 11309700000.0 11309700000.0 11309700000.0 11309700000.0 11309700000.0 11309700000.0 11309700000.0 11309700000.0 11309700000.0 11309700000.0 11309700000.0 11309700000.0 11309700000.0 11309700000.0 11309700000.0 11309700000.0 11309700000.0 11309700000.0 11309700000.0 11309700000.0 11309700000.0 11309700000.0 11309700000.0 11309700000.0 11309700000.0 11309700000.0 11309700000.0 11309700000.0 11309700000.0 11309700000.0 11309700000.0 11309700000.0 11309700000.0 11309700000.0 11309700000.0 11309700000.0 11309700000.0 11309700000.0 11309700000.0 11309700000.0 11309700000.0 11309700000.0 11309700000.0 11309700000.0 11309700000.0 11309700000.0 11309700000.0 11309700000.0 11309700000.0 11309700000.0 11309700000.0 11309700000.0 11309700000.0 11309700000.0 11309700000.0 11309700000.0 11309700000.0 11309700000.0 11309700000.0 11309700000.0 11309700000.0 11309700000.0 11309700000.0 11309700000.0 11309700000.0 11309700000.0 11309700000.0 11309700000.0 11309700000.0 11309700000.0 11309700000.0 11309700000.0 11309700000.0 11309700000.0 11309700000.0 11309700000.0 11309700000.0 11309700000.0 11309700000.0 11309700000.0 11309700000.0 11309700000.0 11309700000.0 11309700000.0 11309700000.0 11309700000.0 11309700000.0 11309700000.0 11309700000.0 11309700000.0 11309700000.0 11309700000.0 11309700000.0 11309700000.0 11309700000.0 11309700000.0 11309700000.0 11309700000.0 11309700000.0 11309700000.0 11309700000.0 11309700000.0 11309700000.0 11309700000.0 11309700000.0 11309700000.0 11309700000.0 11309700000.0 11309700000.0 11309700000.0 11309700000.0 11309700000.0 11309700000.0 11309700000.0 11309700000.0 11309700000.0 11309700000.0 11309700000.0 11309700000.0 11309700000.0 11309700000.0 11309700000.0 11309700000.0 11309700000.0 11309700000.0 11309700000.0 11309700000.0 11309700000.0 11309700000.0 11309700000.0 11309700000.0 11309700000.0 11309700000.0 11309700000.0 11309700000.0 11309700000.0 11309700000.0 11309700000.0 11309700000.0 11309700000.0 11309700000.0 11309700000.0 11309700000.0 11309700000.0 11309700000.0 11309700000.0 11309700000.0 11309700000.0 11309700000.0 11309700000.0 11309700000.0 11309700000.0 11309700000.0 11309700000.0 11309700000.0 11309700000.0 11309700000.0 11309700000.0 11309700000.0 11309700000.0 11309700000.0 11309700000.0 11309700000.0 11309700000.0 11309700000.0 11309700000.0 11309700000.0 11309700000.0 11309700000.0 11309700000.0 11309700000.0 11309700000.0 11309700000.0 11309700000.0 11309700000.0 11309700000.0 11309700000.0 11309700000.0 11309700000.0 11309700000.0 11309700000.0 11309700000.0 11309700000.0 11309700000.0 11309700000.0 11309700000.0 11309700000.0 11309700000.0 11309700000.0 11309700000.0 11309700000.0 11309700000.0 11309700000.0 11309700000.0 11309700000.0 11309700000.0 11309700000.0 11309700000.0 11309700000.0 11309700000.0 11309700000.0 11309700000.0 11309700000.0 11309700000.0 11309700000.0 11309700000.0 11309700000.0 11309700000.0 11309700000.0 11309700000.0 11309700000.0 11309700000.0 11309700000.0 11309700000.0 11309700000.0 11309700000.0 11309700000.0 11309700000.0 11309700000.0 11309700000.0 11309700000.0 11309700000.0 11309700000.0 11309700000.0 11309700000.0 11309700000.0 11309700000.0 11309700000.0 11309700000.0 11309700000.0 11309700000.0 11309700000.0 11309700000.0 11309700000.0 11309700000.0 11309700000.0 11309700000.0 11309700000.0 11309700000.0 11309700000.0 11309700000.0 11309700000.0 11309700000.0 11309700000.0 11309700000.0 11309700000.0 11309700000.0 11309700000.0 11309700000.0 11309700000.0 11309700000.0 11309700000.0 11309700000.0 11309700000.0 11309700000.0 11309700000.0 11309700000.0 11309700000.0 11309700000.0 11309700000.0 11309700000.0 11309700000.0 11309700000.0 11309700000.0 11309700000.0 11309700000.0 11309700000.0 11309700000.0 11309700000.0 11309700000.0 11309700000.0 11309700000.0 11309700000.0 11309700000.0 11309700000.0 11309700000.0 11309700000.0 11309700000.0 11309700000.0 11309700000.0 11309700000.0 11309700000.0 11309700000.0 11309700000.0 11309700000.0 11309700000.0 11309700000.0 11309700000.0 11309700000.0 11309700000.0 11309700000.0 11309700000.0 11309700000.0 11309700000.0 11309700000.0 11309700000.0 11309700000.0 11309700000.0 11309700000.0 11309700000.0 11309700000.0 11309700000.0 11309700000.0 11309700000.0 11309700000.0 11309700000.0 11309700000.0 11309700000.0 11309700000.0 11309700000.0 11309700000.0 11309700000.0 11309700000.0 11309700000.0 11309700000.0 11309700000.0 11309700000.0 11309700000.0 11309700000.0 11309700000.0 11309700000.0 11309700000.0 11309700000.0 11309700000.0 11309700000.0 11309700000.0 11309700000.0 11309700000.0 11309700000.0 11309700000.0 11309700000.0 11309700000.0 11309700000.0 11309700000.0 11309700000.0 11309700000.0 11309700000.0 11309700000.0 11309700000.0 11309700000.0 11309700000.0 11309700000.0 11309700000.0 11309700000.0 11309700000.0 11309700000.0 11309700000.0 11309700000.0 11309700000.0 11309700000.0 11309700000.0 11309700000.0 11309700000.0 11309700000.0 11309700000.0 11309700000.0 11309700000.0 11309700000.0 11309700000.0 11309700000.0 11309700000.0 11309700000.0 11309700000.0 11309700000.0 11309700000.0 11309700000.0 11309700000.0 11309700000.0 11309700000.0 11309700000.0 11309700000.0 11309700000.0 11309700000.0 11309700000.0 11309700000.0 11309700000.0 11309700000.0 11309700000.0 11309700000.0 11309700000.0 11309700000.0 11309700000.0 11309700000.0 11309700000.0 11309700000.0 11309700000.0 11309700000.0 11309700000.0 11309700000.0 11309700000.0 11309700000.0 11309700000.0 11309700000.0 11309700000.0 11309700000.0 11309700000.0 11309700000.0 11309700000.0 11309700000.0 11309700000.0 11309700000.0 11309700000.0 11309700000.0 11309700000.0 11309700000.0 11309700000.0 11309700000.0 11309700000.0 11309700000.0 11309700000.0 11309700000.0 11309700000.0 11309700000.0 11309700000.0 11309700000.0 11309700000.0 11309700000.0 11309700000.0 11309700000.0 11309700000.0 11309700000.0 11309700000.0 11309700000.0 11309700000.0 11309700000.0 11309700000.0 11309700000.0 11309700000.0 11309700000.0 11309700000.0 11309700000.0 11309700000.0 11309700000.0 11309700000.0 11309700000.0 11309700000.0 11309700000.0 11309700000.0 11309700000.0 11309700000.0 11309700000.0 11309700000.0 11309700000.0 11309700000.0 11309700000.0 11309700000.0 11309700000.0 11309700000.0 11309700000.0 11309700000.0 11309700000.0 11309700000.0 11309700000.0 11309700000.0 11309700000.0 11309700000.0 11309700000.0 11309700000.0 11309700000.0 11309700000.0 11309700000.0 11309700000.0 11309700000.0 11309700000.0 11309700000.0 11309700000.0 11309700000.0 11309700000.0 11309700000.0 11309700000.0 11309700000.0 11309700000.0 11309700000.0 11309700000.0 11309700000.0 11309700000.0 11309700000.0 11309700000.0 11309700000.0 11309700000.0 11309700000.0 11309700000.0 11309700000.0 11309700000.0 11309700000.0 11309700000.0 11309700000.0 11309700000.0 11309700000.0 11309700000.0 11309700000.0 11309700000.0 11309700000.0 11309700000.0 11309700000.0 11309700000.0 11309700000.0 11309700000.0 11309700000.0 11309700000.0 11309700000.0 11309700000.0 11309700000.0 11309700000.0 11309700000.0 11309700000.0 11309700000.0 11309700000.0 11309700000.0 11309700000.0 11309700000.0 11309700000.0 11309700000.0 11309700000.0 11309700000.0 11309700000.0 11309700000.0 11309700000.0 11309700000.0 11309700000.0 11309700000.0 11309700000.0 11309700000.0 11309700000.0 11309700000.0 11309700000.0 11309700000.0 11309700000.0 11309700000.0 11309700000.0 11309700000.0 11309700000.0 11309700000.0 11309700000.0 11309700000.0 11309700000.0 11309700000.0 11309700000.0 11309700000.0 11309700000.0 11309700000.0 11309700000.0 11309700000.0 11309700000.0 11309700000.0 11309700000.0 11309700000.0 11309700000.0 11309700000.0 11309700000.0 11309700000.0 11309700000.0 11309700000.0 11309700000.0 11309700000.0 11309700000.0 11309700000.0 11309700000.0 11309700000.0 11309700000.0 11309700000.0 11309700000.0 11309700000.0 11309700000.0 11309700000.0 11309700000.0 11309700000.0 11309700000.0 11309700000.0 11309700000.0 11309700000.0 11309700000.0 11309700000.0 11309700000.0 11309700000.0 11309700000.0 11309700000.0 11309700000.0 11309700000.0 11309700000.0 11309700000.0 11309700000.0 11309700000.0 11309700000.0 11309700000.0 11309700000.0 11309700000.0 11309700000.0 11309700000.0 11309700000.0 11309700000.0 11309700000.0 11309700000.0 11309700000.0 11309700000.0 11309700000.0 11309700000.0 11309700000.0 11309700000.0 11309700000.0 11309700000.0 11309700000.0 11309700000.0 11309700000.0 11309700000.0 11309700000.0 11309700000.0 11309700000.0 11309700000.0 11309700000.0 11309700000.0 11309700000.0 11309700000.0 11309700000.0 11309700000.0 11309700000.0 11309700000.0 11309700000.0 11309700000.0 11309700000.0 11309700000.0 11309700000.0 11309700000.0 11309700000.0 11309700000.0 11309700000.0 11309700000.0 11309700000.0 11309700000.0 11309700000.0 11309700000.0 11309700000.0 11309700000.0 11309700000.0 11309700000.0 11309700000.0 11309700000.0 11309700000.0 11309700000.0 11309700000.0 11309700000.0 11309700000.0 11309700000.0 11309700000.0 11309700000.0 11309700000.0 11309700000.0 11309700000.0 11309700000.0 11309700000.0 11309700000.0 11309700000.0 11309700000.0 11309700000.0 11309700000.0 11309700000.0 11309700000.0 11309700000.0 11309700000.0 11309700000.0 11309700000.0 11309700000.0 11309700000.0 11309700000.0 11309700000.0 11309700000.0 11309700000.0 11309700000.0 11309700000.0 11309700000.0 11309700000.0 11309700000.0 11309700000.0 11309700000.0 11309700000.0 11309700000.0 11309700000.0 11309700000.0 11309700000.0 11309700000.0 11309700000.0 11309700000.0 11309700000.0 11309700000.0 11309700000.0 11309700000.0 11309700000.0 11309700000.0 11309700000.0 11309700000.0 11309700000.0 11309700000.0 11309700000.0 11309700000.0 11309700000.0 11309700000.0 11309700000.0 11309700000.0 11309700000.0 11309700000.0 11309700000.0 11309700000.0 11309700000.0 11309700000.0 11309700000.0 11309700000.0 11309700000.0 11309700000.0 11309700000.0 11309700000.0 11309700000.0 11309700000.0 11309700000.0 11309700000.0 11309700000.0 11309700000.0 11309700000.0 11309700000.0 11309700000.0 11309700000.0 11309700000.0 11309700000.0 11309700000.0 11309700000.0 11309700000.0 11309700000.0 11309700000.0 11309700000.0 11309700000.0 11309700000.0 11309700000.0 11309700000.0 11309700000.0 11309700000.0 11309700000.0 11309700000.0 11309700000.0 11309700000.0 11309700000.0 11309700000.0 11309700000.0 11309700000.0 11309700000.0 11309700000.0 11309700000.0 11309700000.0 11309700000.0 11309700000.0 11309700000.0 11309700000.0 11309700000.0 11309700000.0 11309700000.0 11309700000.0 11309700000.0 11309700000.0 11309700000.0 11309700000.0 11309700000.0 11309700000.0 11309700000.0 11309700000.0 11309700000.0 11309700000.0 11309700000.0 11309700000.0 11309700000.0 11309700000.0 11309700000.0 11309700000.0 11309700000.0 11309700000.0 11309700000.0 11309700000.0 11309700000.0 11309700000.0 11309700000.0 11309700000.0 11309700000.0 11309700000.0 11309700000.0 11309700000.0 11309700000.0 11309700000.0 11309700000.0 11309700000.0 11309700000.0 11309700000.0 11309700000.0 11309700000.0 11309700000.0 11309700000.0 11309700000.0 11309700000.0 11309700000.0 11309700000.0 11309700000.0 11309700000.0 11309700000.0 11309700000.0 11309700000.0 11309700000.0 11309700000.0 11309700000.0 11309700000.0 11309700000.0 11309700000.0 11309700000.0 11309700000.0 11309700000.0 11309700000.0 11309700000.0 11309700000.0 11309700000.0 11309700000.0 11309700000.0 11309700000.0 11309700000.0 11309700000.0 11309700000.0 11309700000.0 11309700000.0 11309700000.0 11309700000.0 11309700000.0 11309700000.0 11309700000.0 11309700000.0 11309700000.0 11309700000.0 11309700000.0 11309700000.0 11309700000.0 11309700000.0 11309700000.0 11309700000.0 11309700000.0 11309700000.0 11309700000.0 11309700000.0 11309700000.0 11309700000.0 11309700000.0 11309700000.0 11309700000.0 11309700000.0 11309700000.0 11309700000.0 11309700000.0 11309700000.0 11309700000.0 11309700000.0 11309700000.0 11309700000.0 11309700000.0 11309700000.0 11309700000.0 11309700000.0 11309700000.0 11309700000.0 11309700000.0 11309700000.0 11309700000.0 11309700000.0 11309700000.0 11309700000.0 11309700000.0 11309700000.0 11309700000.0 11309700000.0 11309700000.0 11309700000.0 11309700000.0 11309700000.0 11309700000.0 11309700000.0 11309700000.0 11309700000.0 11309700000.0 11309700000.0 11309700000.0 11309700000.0 11309700000.0 11309700000.0 11309700000.0 11309700000.0 11309700000.0 11309700000.0 11309700000.0 11309700000.0 11309700000.0 11309700000.0 11309700000.0 11309700000.0 11309700000.0 11309700000.0 11309700000.0 11309700000.0 11309700000.0 11309700000.0 11309700000.0 11309700000.0 11309700000.0 11309700000.0 11309700000.0 11309700000.0 11309700000.0 11309700000.0 11309700000.0 11309700000.0 11309700000.0 11309700000.0 11309700000.0 11309700000.0 11309700000.0 11309700000.0 11309700000.0 11309700000.0 11309700000.0 11309700000.0 11309700000.0 11309700000.0 11309700000.0 11309700000.0 11309700000.0 11309700000.0 11309700000.0 11309700000.0 11309700000.0 11309700000.0 11309700000.0 11309700000.0 11309700000.0 11309700000.0 11309700000.0 11309700000.0 11309700000.0 11309700000.0 11309700000.0 11309700000.0 11309700000.0 11309700000.0 11309700000.0 11309700000.0 11309700000.0 11309700000.0 11309700000.0 11309700000.0 11309700000.0 11309700000.0 11309700000.0 11309700000.0 11309700000.0 11309700000.0 11309700000.0 11309700000.0 11309700000.0 11309700000.0 11309700000.0 11309700000.0 11309700000.0 11309700000.0 11309700000.0 11309700000.0 11309700000.0 11309700000.0 11309700000.0 11309700000.0 11309700000.0 11309700000.0 11309700000.0 11309700000.0 11309700000.0 11309700000.0 11309700000.0 11309700000.0 11309700000.0 11309700000.0 11309700000.0 11309700000.0 11309700000.0 11309700000.0 11309700000.0 11309700000.0 11309700000.0 11309700000.0 11309700000.0 11309700000.0 11309700000.0 11309700000.0 11309700000.0 11309700000.0 11309700000.0 11309700000.0 11309700000.0 11309700000.0 11309700000.0 11309700000.0 11309700000.0 11309700000.0 11309700000.0 11309700000.0 11309700000.0 11309700000.0 11309700000.0 11309700000.0 11309700000.0 11309700000.0 11309700000.0 11309700000.0 11309700000.0 11309700000.0 11309700000.0 11309700000.0 11309700000.0 11309700000.0 11309700000.0 11309700000.0 11309700000.0 11309700000.0 11309700000.0 11309700000.0 11309700000.0 11309700000.0 11309700000.0 11309700000.0 11309700000.0 11309700000.0 11309700000.0 11309700000.0 11309700000.0 11309700000.0 11309700000.0 11309700000.0 11309700000.0 11309700000.0 11309700000.0 11309700000.0 11309700000.0 11309700000.0 11309700000.0 11309700000.0 11309700000.0 11309700000.0 11309700000.0 11309700000.0 11309700000.0 11309700000.0 11309700000.0 11309700000.0 11309700000.0 11309700000.0 11309700000.0 11309700000.0 11309700000.0 11309700000.0 11309700000.0 11309700000.0 11309700000.0 11309700000.0 11309700000.0 11309700000.0 11309700000.0 11309700000.0 11309700000.0 11309700000.0 11309700000.0 11309700000.0 11309700000.0 11309700000.0 11309700000.0 11309700000.0 11309700000.0 11309700000.0 11309700000.0 11309700000.0 11309700000.0 11309700000.0 11309700000.0 11309700000.0 11309700000.0 11309700000.0 11309700000.0 11309700000.0 11309700000.0 11309700000.0 11309700000.0 11309700000.0 11309700000.0 11309700000.0 11309700000.0 11309700000.0 11309700000.0 11309700000.0 11309700000.0 11309700000.0 11309700000.0 11309700000.0 11309700000.0 11309700000.0 11309700000.0 11309700000.0 11309700000.0 11309700000.0 11309700000.0 11309700000.0 11309700000.0 11309700000.0 11309700000.0 11309700000.0 11309700000.0 11309700000.0 11309700000.0 11309700000.0 11309700000.0 11309700000.0 11309700000.0 11309700000.0 11309700000.0 11309700000.0 11309700000.0 11309700000.0 11309700000.0 11309700000.0 11309700000.0 11309700000.0 11309700000.0 11309700000.0 11309700000.0 11309700000.0 11309700000.0 11309700000.0 11309700000.0 11309700000.0 11309700000.0 11309700000.0 11309700000.0 11309700000.0 11309700000.0 11309700000.0 11309700000.0 11309700000.0 11309700000.0 11309700000.0 11309700000.0 11309700000.0 11309700000.0 11309700000.0 11309700000.0 11309700000.0 11309700000.0 11309700000.0 11309700000.0 11309700000.0 11309700000.0 11309700000.0 11309700000.0 11309700000.0 11309700000.0 11309700000.0 11309700000.0 11309700000.0 11309700000.0 11309700000.0 11309700000.0 11309700000.0 11309700000.0 11309700000.0 11309700000.0 11309700000.0 11309700000.0 11309700000.0 11309700000.0 11309700000.0 11309700000.0 11309700000.0 11309700000.0 11309700000.0 11309700000.0 11309700000.0 11309700000.0 11309700000.0 11309700000.0 11309700000.0 11309700000.0 11309700000.0 11309700000.0 11309700000.0 11309700000.0 11309700000.0 11309700000.0 11309700000.0 11309700000.0 11309700000.0 11309700000.0 11309700000.0 11309700000.0 11309700000.0 11309700000.0 11309700000.0 11309700000.0 11309700000.0 11309700000.0 11309700000.0 11309700000.0 11309700000.0 11309700000.0 11309700000.0 11309700000.0 11309700000.0 11309700000.0 11309700000.0 11309700000.0 11309700000.0 11309700000.0 11309700000.0 11309700000.0 11309700000.0 11309700000.0 11309700000.0 11309700000.0 11309700000.0 11309700000.0 11309700000.0 11309700000.0 11309700000.0 11309700000.0 11309700000.0 11309700000.0 11309700000.0 11309700000.0 11309700000.0 11309700000.0 11309700000.0 11309700000.0 11309700000.0 11309700000.0 11309700000.0 11309700000.0 11309700000.0 11309700000.0 11309700000.0 11309700000.0 11309700000.0 11309700000.0 11309700000.0 11309700000.0 11309700000.0 11309700000.0 11309700000.0 11309700000.0 11309700000.0 11309700000.0 11309700000.0 11309700000.0 11309700000.0 11309700000.0 11309700000.0 11309700000.0 11309700000.0 11309700000.0 11309700000.0 11309700000.0 11309700000.0 11309700000.0 11309700000.0 11309700000.0 11309700000.0 11309700000.0 11309700000.0 11309700000.0 11309700000.0 11309700000.0 11309700000.0 11309700000.0 11309700000.0 11309700000.0 11309700000.0 11309700000.0 11309700000.0 11309700000.0 11309700000.0 11309700000.0 11309700000.0 11309700000.0 11309700000.0 11309700000.0 11309700000.0 11309700000.0 11309700000.0 11309700000.0 11309700000.0 11309700000.0 11309700000.0 11309700000.0 11309700000.0 11309700000.0 11309700000.0 11309700000.0 11309700000.0 11309700000.0 11309700000.0 11309700000.0 11309700000.0 11309700000.0 11309700000.0 11309700000.0 11309700000.0 11309700000.0 11309700000.0 11309700000.0 11309700000.0 11309700000.0 11309700000.0 11309700000.0 11309700000.0 11309700000.0 11309700000.0 11309700000.0 11309700000.0 11309700000.0 11309700000.0 11309700000.0 11309700000.0 11309700000.0 11309700000.0 11309700000.0 11309700000.0 11309700000.0 11309700000.0 11309700000.0 11309700000.0 11309700000.0 11309700000.0 11309700000.0 11309700000.0 11309700000.0 11309700000.0 11309700000.0 11309700000.0 11309700000.0 11309700000.0 11309700000.0 11309700000.0 11309700000.0 11309700000.0 11309700000.0 11309700000.0 11309700000.0 11309700000.0 11309700000.0 11309700000.0 11309700000.0 11309700000.0 11309700000.0 11309700000.0 11309700000.0 11309700000.0 11309700000.0 11309700000.0 11309700000.0 11309700000.0 11309700000.0 11309700000.0 11309700000.0 11309700000.0 11309700000.0 11309700000.0 11309700000.0 11309700000.0 11309700000.0 11309700000.0 11309700000.0 11309700000.0 11309700000.0 11309700000.0 11309700000.0 11309700000.0 11309700000.0 11309700000.0 11309700000.0 11309700000.0 11309700000.0 11309700000.0 11309700000.0 11309700000.0 11309700000.0 11309700000.0 11309700000.0 11309700000.0 11309700000.0 11309700000.0 11309700000.0 11309700000.0 11309700000.0 11309700000.0 11309700000.0 11309700000.0 11309700000.0 11309700000.0 11309700000.0 11309700000.0 11309700000.0 11309700000.0 11309700000.0 11309700000.0 11309700000.0 11309700000.0 11309700000.0 11309700000.0 11309700000.0 11309700000.0 11309700000.0 11309700000.0 11309700000.0 11309700000.0 11309700000.0 11309700000.0 11309700000.0 11309700000.0 11309700000.0 11309700000.0 11309700000.0 11309700000.0 11309700000.0 11309700000.0 11309700000.0 11309700000.0 11309700000.0 11309700000.0 11309700000.0 11309700000.0 11309700000.0 11309700000.0 11309700000.0 11309700000.0 11309700000.0 11309700000.0 11309700000.0 11309700000.0 11309700000.0 11309700000.0 11309700000.0 11309700000.0 11309700000.0 11309700000.0 11309700000.0 11309700000.0 11309700000.0 11309700000.0 11309700000.0 11309700000.0 11309700000.0 11309700000.0 11309700000.0 11309700000.0 11309700000.0 11309700000.0 11309700000.0 11309700000.0 11309700000.0 11309700000.0 11309700000.0 11309700000.0 11309700000.0 11309700000.0 11309700000.0 11309700000.0 11309700000.0 11309700000.0 11309700000.0 11309700000.0 11309700000.0 11309700000.0 11309700000.0 11309700000.0 11309700000.0 11309700000.0 11309700000.0 11309700000.0 11309700000.0 11309700000.0 11309700000.0 11309700000.0 11309700000.0 11309700000.0 11309700000.0 11309700000.0 11309700000.0 11309700000.0 11309700000.0 11309700000.0 11309700000.0 11309700000.0 11309700000.0 11309700000.0 11309700000.0 11309700000.0 11309700000.0 11309700000.0 11309700000.0 11309700000.0 11309700000.0 11309700000.0 11309700000.0 11309700000.0 11309700000.0 11309700000.0 11309700000.0 11309700000.0 11309700000.0 11309700000.0 11309700000.0 11309700000.0 11309700000.0 11309700000.0 11309700000.0 11309700000.0 11309700000.0 11309700000.0 11309700000.0 11309700000.0 11309700000.0 11309700000.0 11309700000.0 11309700000.0 11309700000.0 11309700000.0 11309700000.0 11309700000.0 11309700000.0 11309700000.0 11309700000.0 11309700000.0 11309700000.0 11309700000.0 11309700000.0 11309700000.0 11309700000.0 11309700000.0 11309700000.0 11309700000.0 11309700000.0 11309700000.0 11309700000.0 11309700000.0 11309700000.0 11309700000.0 11309700000.0 11309700000.0 11309700000.0 11309700000.0 11309700000.0 11309700000.0 11309700000.0 11309700000.0 11309700000.0 11309700000.0 11309700000.0 11309700000.0 11309700000.0 11309700000.0 11309700000.0 11309700000.0 11309700000.0 11309700000.0 11309700000.0 11309700000.0 11309700000.0 11309700000.0 11309700000.0 11309700000.0 11309700000.0 11309700000.0 11309700000.0 11309700000.0 11309700000.0 11309700000.0 11309700000.0 11309700000.0 11309700000.0 11309700000.0 11309700000.0 11309700000.0 11309700000.0 11309700000.0 11309700000.0 11309700000.0 11309700000.0 11309700000.0 11309700000.0 11309700000.0 11309700000.0 11309700000.0 11309700000.0 11309700000.0 11309700000.0 11309700000.0 11309700000.0 11309700000.0 11309700000.0 11309700000.0 11309700000.0 11309700000.0 11309700000.0 11309700000.0 11309700000.0 11309700000.0 11309700000.0 11309700000.0 11309700000.0 11309700000.0 11309700000.0 11309700000.0 11309700000.0 11309700000.0 11309700000.0 11309700000.0 11309700000.0 11309700000.0 11309700000.0 11309700000.0 11309700000.0 11309700000.0 11309700000.0 11309700000.0 11309700000.0 11309700000.0 11309700000.0 11309700000.0 11309700000.0 11309700000.0 11309700000.0 11309700000.0 11309700000.0 11309700000.0 11309700000.0 11309700000.0 11309700000.0 11309700000.0 11309700000.0 11309700000.0 11309700000.0 11309700000.0 11309700000.0 11309700000.0 11309700000.0 11309700000.0 11309700000.0 11309700000.0 11309700000.0 11309700000.0 11309700000.0 11309700000.0 11309700000.0 11309700000.0 11309700000.0 11309700000.0 11309700000.0 11309700000.0 11309700000.0 11309700000.0 11309700000.0 11309700000.0 11309700000.0 11309700000.0 11309700000.0 11309700000.0 11309700000.0 11309700000.0 11309700000.0 11309700000.0 11309700000.0 11309700000.0 11309700000.0 11309700000.0 11309700000.0 11309700000.0 11309700000.0 11309700000.0 11309700000.0 11309700000.0 11309700000.0 11309700000.0 11309700000.0 11309700000.0 11309700000.0 11309700000.0 11309700000.0 11309700000.0 11309700000.0 11309700000.0 11309700000.0 11309700000.0 11309700000.0 11309700000.0 11309700000.0 11309700000.0 11309700000.0 11309700000.0 11309700000.0 11309700000.0 11309700000.0 11309700000.0 11309700000.0 11309700000.0 11309700000.0 11309700000.0 11309700000.0 11309700000.0 11309700000.0 11309700000.0 11309700000.0 11309700000.0 11309700000.0 11309700000.0 11309700000.0 11309700000.0 11309700000.0 11309700000.0 11309700000.0 11309700000.0 11309700000.0 11309700000.0 11309700000.0 11309700000.0 11309700000.0 11309700000.0 11309700000.0 11309700000.0 11309700000.0 11309700000.0 11309700000.0 11309700000.0 11309700000.0 11309700000.0 11309700000.0 11309700000.0 11309700000.0 11309700000.0 11309700000.0 11309700000.0 11309700000.0 11309700000.0 11309700000.0 11309700000.0 11309700000.0 11309700000.0 11309700000.0 11309700000.0 11309700000.0 11309700000.0 11309700000.0 11309700000.0 11309700000.0 11309700000.0 11309700000.0 11309700000.0 11309700000.0 11309700000.0 11309700000.0 11309700000.0 11309700000.0 11309700000.0 11309700000.0 11309700000.0 11309700000.0 11309700000.0 11309700000.0 
SCALARS Velocity float 1
LOOKUP_TABLE default
1.11189 1.09722 1.09984 1.09919 1.08196 1.0704 1.08736 1.08675 1.08696 1.09028 1.09397 1.06015 1.0976 1.10611 1.11146 1.11335 1.09411 1.09802 1.09374 1.07837 1.08489 1.08753 1.08616 1.08593 1.09246 1.09431 1.02828 1.09128 1.10268 1.1105 1.11271 1.09428 1.09704 1.06987 1.0779 1.08618 1.0869 1.08491 1.0896 1.0945 1.04445 1.09244 1.0981 1.10312 1.10694 1.11051 1.11215 1.11331 1.11355 1.09117 1.08934 1.09494 1.09292 1.06959 1.08428 1.08699 1.0854 1.08518 1.08561 1.08678 1.0892 1.09181 1.09379 1.09509 1.03287 1.0503 1.09822 1.10743 1.11245 1.11382 1.0839 1.08835 1.09346 1.09116 1.07785 1.08385 1.08607 1.08618 1.08566 1.08762 1.09106 1.09555 1.03516 1.09281 1.10372 1.11056 1.11359 1.0802 1.08872 1.06947 1.07806 1.08486 1.0861 1.08702 1.08982 1.0943 1.06334 1.07937 1.09336 1.09952 1.10406 1.10765 1.1105 1.11251 1.11358 1.11394 1.07169 1.06554 1.07844 1.08948 1.06983 1.08246 1.08611 1.08716 1.08896 1.08916 1.09179 1.09258 1.09547 1.09622 1.09813 1.08599 1.0994 1.10765 1.11235 1.11379 1.05366 1.06357 1.08338 1.08815 1.07467 1.07858 1.08234 1.08472 1.0865 1.08716 1.08887 1.09147 1.09476 1.09776 1.10331 1.09428 1.10409 1.1103 1.11326 1.04437 1.07964 1.07259 1.07964 1.08485 1.08831 1.09126 1.09446 1.09783 1.10172 1.09622 1.10045 1.10495 1.10763 1.10997 1.11192 1.11246 1.1132 1.03047 1.0192 1.04005 1.05919 1.07827 1.08284 1.08694 1.09071 1.09428 1.09777 1.09777 1.10148 1.10137 1.10462 1.10372 1.10245 1.09976 1.10378 1.10793 1.11105 1.11178 1.00186 1.01125 1.02513 1.05869 1.07475 1.08206 1.0818 1.08324 1.0849 1.08691 1.08932 1.09259 1.09383 1.0976 1.10166 1.10522 1.10674 1.1049 1.10679 1.10939 1.11071 0.988037 1.02426 1.08054 1.08354 1.08396 1.08997 1.09681 1.10183 1.10582 1.10869 1.10797 1.10746 1.10866 1.10826 1.10784 1.10919 1.10702 1.1087 0.972441 0.964689 0.990237 1.06721 1.0871 1.08196 1.0859 1.09463 1.10173 1.10637 1.11128 1.11015 1.11465 1.11175 1.11447 1.11019 1.11144 1.1077 1.10511 1.10254 0.949554 0.978412 1.02456 1.08019 1.09205 1.09309 1.08369 1.07856 1.08129 1.08375 1.09026 1.09735 1.10065 1.10717 1.10689 1.11217 1.11682 1.11923 1.11663 1.11009 1.10402 1.09967 0.942411 1.01359 1.10937 1.08145 1.07694 1.09076 1.10609 1.11324 1.11819 1.12319 1.12329 1.12512 1.1161 1.11061 1.10527 1.09661 1.09719 1.08725 1.09158 0.929238 0.926551 0.948795 0.997845 1.13765 1.0913 1.07373 1.0811 1.10157 1.11435 1.11905 1.12661 1.12578 1.13508 1.12995 1.1354 1.12163 1.09989 1.08431 1.07466 0.907665 0.949987 1.2301 1.10426 1.08558 1.07789 1.07246 1.07281 1.07838 1.09247 1.1079 1.11364 1.12271 1.12054 1.12621 1.13741 1.14474 1.13643 1.10949 1.08455 1.06872 0.912013 0.920831 0.943985 0.972381 1.1115 1.08289 1.0712 1.09667 1.12248 1.12685 1.13599 1.15078 1.16361 1.15162 1.15098 1.12836 1.10556 1.09066 1.06736 1.06559 1.04342 1.05047 0.927796 0.955344 1.35995 1.10091 1.08137 1.07479 1.1168 1.12983 1.13201 1.14595 1.15149 1.16925 1.1713 1.13614 1.07701 1.04143 1.01895 0.935005 0.939472 0.984155 1.45338 1.08279 1.1329 1.10992 1.10392 1.07413 1.06715 1.10584 1.12605 1.13057 1.13448 1.12878 1.13642 1.16763 1.18315 1.1687 1.15165 1.09749 1.06365 1.04649 1.01232 1.01176 0.979208 0.957566 0.926342 0.969365 1.12599 1.14359 1.0998 1.04538 1.13989 1.125 1.15862 1.18305 1.18739 1.19786 1.18734 1.17651 1.11152 1.02197 0.973787 0.941453 1.04183 1.14923 1.06001 1.1482 1.15692 1.06639 1.04591 1.14234 1.14571 1.17061 1.20059 1.19411 1.14569 1.08992 1.07714 0.979676 0.930779 0.94524 0.967756 1.1069 1.10738 1.10114 1.1852 1.20528 1.24988 1.14997 1.04657 1.03096 1.06781 1.27288 1.14823 1.19304 1.20641 1.17133 1.13529 1.10632 1.07882 1.06435 0.933745 0.875618 0.959449 1.05897 1.06679 1.16499 1.29465 1.23381 0.985321 1.02918 1.08241 1.14561 1.15515 1.17617 1.2013 1.20967 1.20684 1.19158 1.16144 1.09828 1.06456 1.05924 1.0325 0.930086 1.02075 1.33646 0.998689 0.967749 1.20753 1.27497 1.37985 0.946738 1.04691 1.1005 1.09128 1.17736 1.20647 1.18326 1.12398 1.08868 1.07314 1.06837 1.0348 2.71395 0.940009 1.15457 1.38739 1.32013 1.55522 1.48409 0.69244 0.749944 0.958035 1.02561 1.07165 1.08691 1.12859 1.18998 1.20299 1.16479 1.14789 1.11066 1.07045 1.07564 1.06255 0.980479 2.86764 1.60961 4.10806 0.921995 0.990274 1.20823 1.64773 0.756144 0.833906 1.06374 1.07004 1.05878 1.07159 1.09797 1.1496 1.16177 1.19833 1.19557 1.12956 1.08053 1.0599 1.06893 1.09985 1.11786 1.18493 0.996992 1.92012 0.489312 1.40636 1.19383 1.66904 0.92705 0.871242 0.998734 1.06297 1.02963 1.05711 1.11222 1.17356 1.13549 1.11555 1.09993 1.06951 1.0587 1.16073 1.29159 0.508893 0.867966 1.12303 0.639734 0.651069 1.13996 1.31086 0.971246 0.898469 0.962169 0.908216 1.03649 1.06045 1.02013 1.01285 1.05799 1.06964 1.12551 1.13736 1.18114 1.10347 1.09023 1.03967 1.01006 1.08301 1.14651 1.2414 1.31234 0.521739 0.760092 0.632414 0.870875 0.762367 0.690337 0.845169 1.10028 1.07469 0.994339 1.1893 1.24012 0.92931 0.691718 0.894819 0.974702 0.990592 1.09058 1.01429 1.01806 0.968816 0.985296 0.964911 1.01268 1.08385 1.13683 1.07886 1.09849 1.07943 1.05361 1.0049 0.972414 1.37386 1.41521 0.99392 0.775955 0.390272 0.669053 0.69221 0.850168 1.17964 1.04079 0.941801 0.774531 0.964467 1.09517 1.06029 0.955314 0.90806 0.931808 0.968468 1.02454 1.03915 1.09082 1.07454 1.07714 1.07911 1.03097 0.955371 0.891687 0.9177 0.889436 2.0018 0.841221 0.798035 0.0237477 0.131343 0.59351 0.590945 0.627477 0.65099 0.7795 0.786816 0.907382 1.03401 0.945711 0.899598 0.795866 0.899372 1.11772 1.10345 0.962377 0.898202 0.885787 0.922515 0.979233 1.04197 1.07684 1.07258 1.01723 0.956347 0.897224 0.790439 1.43643 0.856866 0.350213 0.0104916 0.144709 0.222613 0.566214 0.607826 0.62488 0.607239 0.624818 0.775289 0.823749 0.769969 0.725847 0.694738 0.814873 0.835397 1.04799 1.10111 1.16374 1.15302 1.05009 0.991753 0.905899 0.862479 0.879041 0.924221 0.935778 0.991841 1.03312 1.02901 0.969738 1.1249 0.912967 0.840347 0.867114 0.923392 1.17083 0.993998 0.970972 0.251399 0.352471 0.405436 0.227693 0.348589 0.536746 0.551714 0.584852 0.596662 0.601715 0.639205 0.53695 0.781149 0.744341 0.733852 0.727871 1.00647 1.15341 1.08433 0.976013 0.937036 0.872778 0.860761 0.834778 0.84713 0.886947 0.949385 1.00048 1.00778 0.955243 1.06607 0.905824 0.866496 0.867532 0.942755 0.994496 0.956537 0.770271 0.666967 0.450022 0.344801 0.442976 0.45521 0.519122 0.525371 0.528668 0.581686 0.60865 0.603057 0.598059 0.410671 0.732464 0.732286 0.78295 0.718126 0.737695 0.924845 1.09371 1.0985 0.988679 0.890657 0.83754 0.829871 0.850582 0.896653 0.958808 1.00434 1.02107 1.01523 0.95248 0.710953 0.530856 0.872291 0.894268 0.903757 1.00591 0.93404 0.854288 0.690867 0.591632 0.535534 0.485008 0.52939 0.537503 0.519154 0.516083 0.522977 0.551169 0.591127 0.645716 0.669406 0.63042 0.731689 0.752371 0.787871 0.810775 1.05365 1.15144 1.10663 1.06202 0.838931 0.974402 0.887424 0.847784 0.821094 0.830969 0.856807 0.865921 0.902349 0.973997 1.05031 0.737366 0.648837 0.731143 0.785785 0.866157 0.864692 0.917771 0.838836 0.84819 0.774434 0.602535 0.528894 0.522284 0.581272 0.590756 0.595025 0.643015 0.529399 0.518977 0.511244 0.507849 0.55044 0.59986 0.629589 0.643345 0.635923 0.57217 0.735823 0.826615 0.848843 0.927975 0.897587 1.44856 0.738517 0.846098 0.89208 0.836581 0.844639 0.82343 0.819899 0.817829 0.837942 0.869505 0.900463 0.884073 1.00831 0.943783 0.775144 0.727065 0.810409 0.816665 0.859846 0.879751 0.727548 0.656272 0.638363 0.57282 0.587984 0.564562 0.632882 0.634637 0.660654 0.56805 0.539422 0.51234 0.510243 0.510492 0.545131 0.631801 0.674504 0.640133 0.781724 0.770401 0.803488 0.872991 0.907227 1.55245 0.665704 1.00997 0.802693 0.817131 0.818067 0.807434 0.809308 0.809722 0.820757 0.826844 0.846065 0.86331 0.845154 1.1048 1.02282 0.721672 0.75943 0.763619 0.833876 0.747287 0.546256 0.695845 0.668125 0.718272 0.645821 0.612385 0.62843 0.666262 0.661705 0.671534 0.684966 0.669831 0.658822 0.608286 0.584047 0.565181 0.539283 0.52742 0.501911 0.548216 0.596598 0.621996 0.630711 0.545799 0.340325 0.577753 0.624881 0.901228 0.895957 0.333317 0.836752 0.951134 0.831709 0.779411 0.811203 0.801896 0.805175 0.813613 0.834649 0.849903 0.855637 0.855236 0.894814 0.895916 0.632968 0.883429 0.757448 0.736507 0.729595 0.765554 0.819724 0.958126 0.766269 0.649334 0.757683 0.772239 0.809237 0.703367 0.642234 0.676122 0.67556 0.665631 0.689586 0.681716 0.657433 0.639252 0.722241 0.63844 0.616438 0.579218 0.567582 0.527889 0.498647 0.605435 0.652237 0.625052 0.576791 0.706524 0.575056 0.827885 0.725565 0.373974 0.164002 0.29632 0.793903 0.778776 0.767181 0.78742 0.807126 0.79775 0.80636 0.82018 0.843801 0.872868 0.846268 0.283553 0.491456 0.724154 0.709686 0.720133 1.11017 0.809785 0.717985 0.787337 0.829801 0.888754 0.734062 0.725339 0.694704 0.652541 0.67888 0.678633 0.663717 0.61119 0.75211 0.698991 0.67275 0.647738 0.614135 0.615979 0.577712 0.545357 0.538173 0.606095 0.663865 0.689347 0.674687 0.741162 0.867021 0.919357 0.902101 0.415599 0.32775 0.587867 0.729252 0.773699 0.786764 0.79578 0.793523 0.799907 0.802602 0.808945 0.81695 0.830053 0.85594 0.852113 0.741821 0.577145 0.445224 0.631981 0.66376 0.709654 0.722091 0.920001 1.26289 1.04271 0.896583 0.836328 0.881091 0.991637 0.753482 0.66557 0.58731 0.58182 0.651826 0.664079 0.63295 0.596985 0.593401 0.746122 0.769551 0.747886 0.708462 0.671016 0.649465 0.611586 0.600087 0.65522 0.577394 0.673373 0.713304 0.726643 0.710411 0.541652 1.50169 0.85044 0.702639 0.482645 0.248338 0.492404 0.590368 0.616371 0.71887 0.776515 0.784497 0.7956 0.806982 0.823312 0.838299 0.830142 0.842943 0.781308 0.591809 0.549443 0.607541 0.709905 0.773379 0.710244 0.621551 1.00848 0.323508 0.563282 0.694996 0.439582 0.690433 0.713238 0.513897 0.640087 0.669945 0.702559 0.640218 0.579191 0.578609 0.557103 0.745052 0.741816 0.791786 0.719752 0.666721 0.628816 0.624978 0.599273 0.562521 0.677111 0.642141 0.579328 0.355015 0.785804 0.776033 0.599801 0.350578 0.318827 0.524896 0.65323 0.731685 0.738758 0.771344 0.786095 0.798729 0.811844 0.818463 0.793404 0.694009 0.602726 0.524093 0.568844 0.64931 0.690442 0.688162 0.704647 1.06203 1.32002 0.713009 0.696413 0.822863 0.645869 0.618869 0.607604 0.591066 0.734452 0.739004 0.667668 0.570252 0.568554 0.53494 0.512604 0.819052 0.717288 0.726837 0.650058 0.594696 0.559659 0.466758 0.496257 0.503774 0.684032 0.683088 0.674227 0.750079 0.733728 0.270121 0.639576 1.51763 0.82758 0.616134 0.434457 0.465821 0.492496 0.569373 0.683185 0.749192 0.77344 0.778218 0.789852 0.792963 0.802213 0.79905 0.807989 0.790048 0.794144 0.75386 0.735843 0.671115 0.563512 0.610214 0.683554 0.676628 0.646125 0.134379 0.833525 1.22998 1.03608 0.723116 0.7892 0.618876 0.596473 0.390144 0.575065 0.616284 0.733455 0.748111 0.528864 0.555995 0.575652 0.55759 0.537082 0.522682 0.813516 0.736748 0.901982 0.703223 0.644908 0.573754 0.517116 0.556677 0.429421 0.273571 0.249615 0.443325 0.856803 0.408205 0.672311 0.697485 0.485938 0.641593 0.834032 0.641763 0.516784 0.442753 0.53645 0.612148 0.711817 0.760487 0.782442 0.790828 0.784944 0.762466 0.706052 0.613436 0.5898 0.59216 0.670683 0.727958 0.813072 0.960783 0.933206 0.939412 0.712028 0.397747 0.611582 0.632865 0.474779 0.413131 0.307829 0.472894 0.549859 0.761419 0.721829 0.538692 0.558467 0.603073 0.51076 0.521705 0.530204 0.587435 0.54948 1.11625 1.04761 0.607888 0.528274 0.472707 0.473791 0.32344 0.19487 0.356188 0.72496 1.26034 0.77205 0.444968 0.223146 0.165304 0.351194 0.828539 0.904992 0.75381 0.484694 0.498217 0.602718 0.662346 0.710257 0.734759 0.749913 0.76865 0.78204 0.78027 0.763076 0.728004 0.693046 0.658764 0.62212 0.621005 0.786212 0.783639 0.94415 0.383483 0.154226 0.302806 0.397644 0.380189 0.515063 0.555269 0.654357 0.658762 0.521017 0.353063 0.422456 0.499735 0.840889 0.61727 0.752538 0.674112 0.61905 0.505622 0.52666 0.531877 0.376011 0.439476 0.373071 0.48778 0.80349 0.642453 0.560566 0.521001 0.472558 0.415679 0.283863 0.208197 0.119864 0.371386 1.255 0.570298 0.33108 0.220549 0.191344 0.222046 0.477126 0.952377 0.546711 0.500607 0.536168 0.514764 0.501714 0.673399 0.72877 0.759467 0.7717 0.767375 0.774494 0.75953 0.762299 0.739299 0.736036 0.706742 0.666789 0.600594 0.649314 0.679928 0.631096 0.548816 1.27826 0.36552 0.406362 0.280961 0.20046 0.411841 0.533531 0.548274 0.157283 0.496359 0.480148 0.395661 0.212784 0.424987 0.635423 0.473956 0.493039 0.532767 0.513013 0.476568 0.474903 0.350519 0.308817 0.244197 0.149078 0.251051 0.648876 0.559943 0.462791 0.391866 0.294163 0.169956 0.169086 0.209066 0.281033 0.517095 0.759144 0.441296 0.28355 0.1907 0.172368 0.219291 0.40088 1.21993 0.619933 0.554319 0.51667 0.642055 0.676792 0.724283 0.745936 0.760146 0.755527 0.739643 0.713694 0.681372 0.660696 0.650312 0.638776 0.710015 0.53499 0.842315 1.16421 0.517645 0.788081 0.274252 0.284448 0.400152 0.449361 0.533605 0.390969 0.201631 0.368838 0.30066 0.179537 0.37109 0.705135 0.747319 0.608546 0.425245 0.447747 0.451678 0.444408 0.374303 0.332419 0.304375 0.308229 0.303109 0.759329 0.673033 0.513231 0.376815 0.317152 0.220675 0.0580903 0.0964803 0.174136 0.294672 0.597519 0.403796 0.257711 0.185146 0.150936 0.254352 0.741358 0.90664 0.565618 0.53389 0.579237 0.660095 0.772014 0.729121 0.746526 0.754097 0.753131 0.752636 0.736828 0.738051 0.718988 0.717727 0.695383 0.688926 0.66584 0.638406 0.709523 0.815115 0.593593 0.88334 1.04412 1.22303 1.1688 0.697353 0.485432 0.406734 0.323581 0.353382 0.33719 0.439503 0.48674 0.338728 0.527717 0.107654 0.443353 0.507858 0.370539 0.433562 0.459809 0.462633 0.417479 0.359842 0.389763 0.401735 0.357643 0.314928 0.366327 0.424796 0.552784 0.792003 0.580756 0.413376 0.374573 0.328903 0.165648 0.0870834 0.0396827 0.27789 0.484995 0.62813 0.503851 0.355518 0.261354 0.209303 0.291604 0.531642 0.674645 0.76062 0.600192 0.590034 0.583088 0.628924 0.700872 0.742219 0.761545 0.737361 0.719723 0.699782 0.674259 0.640597 0.643001 0.732141 0.662807 0.620148 0.593575 0.684572 0.684394 1.20759 0.535728 0.478923 0.425358 0.376011 0.35318 0.38983 0.413941 0.444471 0.356901 0.308664 0.415975 0.134981 0.101119 0.518951 0.542562 0.515814 0.439579 0.443045 0.366509 0.342324 0.398988 0.43492 0.328667 0.329937 0.354055 0.386504 0.413556 0.138042 0.701704 0.466238 0.425863 0.392091 0.30885 0.135649 0.130095 0.218235 0.526278 0.578136 0.572061 0.332463 0.275793 0.322994 0.46215 0.557754 0.628251 0.652011 0.600892 0.612697 0.604855 0.618365 0.714101 0.827279 0.780531 0.74045 0.721631 0.702731 0.681455 0.651146 0.625502 0.632087 0.685865 0.738138 0.663465 0.580914 0.553999 0.522992 0.814433 0.467826 0.378688 0.299142 0.395702 0.383316 0.378888 0.370871 0.37639 0.407152 0.431426 0.390703 0.373929 0.389003 0.205619 0.300451 0.386715 0.204219 0.397894 0.443027 0.395829 0.295581 0.332323 0.381099 0.398696 0.352447 0.308998 0.32364 0.337387 0.209818 0.523621 0.4771 0.445875 0.395864 0.283017 0.207995 0.590873 0.751283 0.650263 0.582895 0.512882 0.436802 0.430657 0.5137 0.563202 0.604407 0.637225 0.629546 0.617355 0.731338 0.862823 0.908807 0.763107 0.747219 0.73482 0.725836 0.710225 0.705621 0.690819 0.686959 0.672086 0.664017 0.647433 0.610002 0.747971 0.729922 0.635676 0.592868 0.553682 0.62913 0.786928 0.439371 0.195926 0.369219 0.392291 0.365157 0.39306 0.377658 0.406908 0.426476 0.419014 0.408728 0.413753 0.414109 0.290778 0.223667 0.220935 0.139842 0.342685 0.482513 0.420696 0.359484 0.215061 0.310882 0.301518 0.390807 0.407447 0.29195 0.415497 0.327566 0.282218 0.278556 0.24796 0.123915 0.574331 0.529737 0.498094 0.457194 0.392918 0.323242 0.914799 0.628366 0.570891 0.519136 0.442324 0.36917 0.325378 0.347471 0.536749 0.58792 0.624269 0.637534 0.633475 0.617859 0.835639 0.926764 0.765041 0.719126 0.694701 0.678421 0.661643 0.622936 0.639848 0.658776 0.570379 0.432325 0.515312 0.597848 0.699482 0.349337 0.337174 0.415366 0.365745 0.400912 0.405264 0.417611 0.439315 0.429952 0.425906 0.438288 0.434816 0.390538 0.316217 0.184165 0.356473 0.114766 0.150121 0.342199 0.160638 0.289897 0.296145 0.18224 0.153067 0.253363 0.314526 0.274353 0.0974362 0.421326 0.289663 0.261145 0.245519 0.207109 0.299907 0.504167 0.502359 0.489981 0.458215 0.440898 0.4766 0.500055 0.502223 0.434502 0.343882 0.335399 0.367539 0.422658 0.489703 0.611469 0.629806 0.630683 0.618208 0.57462 0.496817 0.630443 0.951352 0.737436 0.70056 0.68328 0.665359 0.656551 0.634337 0.65253 0.62106 0.514053 0.477914 0.678317 0.73212 0.687565 0.551757 0.436375 0.404059 0.392201 0.377778 0.424705 0.427288 0.438105 0.439904 0.436751 0.442431 0.457327 0.454347 0.453317 0.490165 0.304218 0.41214 0.209408 0.276515 0.454512 0.147489 0.298977 0.169543 0.192233 0.0284319 0.175737 0.279837 0.0971667 0.398358 0.263374 0.342061 0.283829 0.277982 0.257276 0.292896 0.357248 0.459387 0.467995 0.448647 0.424296 0.943683 0.591365 0.299316 0.319123 0.372822 0.435424 0.489727 0.534979 0.576991 0.631211 0.62279 0.59968 0.553393 0.550151 0.853441 0.948395 0.795332 0.723933 0.710795 0.696127 0.687329 0.680131 0.675399 0.662897 0.659564 0.66434 0.65854 0.65616 0.627551 0.576758 0.539557 0.631306 0.694552 0.71492 0.60448 0.454561 0.43894 0.441373 0.451465 0.466902 0.49793 0.571214 0.787246 0.964722 0.314542 0.42843 0.185973 0.238165 0.206614 0.305158 0.109196 0.0486908 0.145617 1.21072 0.278904 0.149466 0.194452 0.428753 0.175804 0.423613 0.34157 0.324988 0.27444 0.310855 0.344828 0.378011 0.427105 0.423294 0.479805 0.577101 0.833959 0.674394 0.51889 0.481672 0.498834 0.295101 0.370021 0.44228 0.498585 0.545618 0.58159 0.606563 0.624348 0.591208 0.577166 0.545744 0.982313 0.957712 0.862544 0.712358 0.681326 0.683179 0.665315 0.667348 0.652477 0.632795 0.531186 0.522435 0.563423 0.604223 0.645601 0.579221 0.534016 0.499874 0.439288 0.40087 0.398044 0.421278 0.439113 0.430061 0.436826 0.4432 0.458178 0.503223 0.611885 1.00626 0.838523 0.41224 0.380856 0.229283 0.201674 0.248535 0.273479 0.111289 0.0357377 0.112716 0.277365 0.351816 0.970426 0.485837 0.361959 0.32889 0.268166 0.406466 0.376778 0.316176 0.329812 0.348152 0.368665 0.382389 0.361731 0.352022 0.499237 0.702019 0.675263 0.597571 0.523398 0.524991 0.61976 0.35094 0.437755 0.508125 0.557762 0.592285 0.613516 0.62667 0.632456 0.630182 0.616403 0.533519 1.01415 0.890299 0.785885 0.707395 0.695701 0.676705 0.676677 0.703259 0.696776 0.665996 0.596896 0.567787 0.55447 0.565234 0.591033 0.591596 0.563931 0.550354 0.531586 0.48056 0.414722 0.433318 0.435143 0.444236 0.433429 0.432612 0.435465 0.436175 0.439517 0.424185 0.462287 0.627215 1.07868 0.707322 0.412741 0.284167 0.269035 0.290115 0.36391 0.641313 0.24031 0.0998062 0.0453943 0.452924 0.390301 0.38963 0.787804 0.495243 0.274723 0.406975 0.34316 0.348693 0.359798 0.359731 0.36633 0.376032 0.390687 0.367088 0.350709 0.439568 0.599104 0.632458 0.608977 0.571825 0.558915 0.60465 0.694845 0.420413 0.502653 0.563909 0.601176 0.622782 0.634138 0.637553 0.634738 0.62656 0.611467 0.595864 0.572238 0.977857 0.827193 0.742108 0.674084 0.703112 0.679383 0.689997 0.671278 0.70076 0.706839 0.640044 0.608985 0.583092 0.57299 0.577261 0.591315 0.600004 0.601835 0.589275 0.565877 0.518752 0.481125 0.458921 0.475115 0.451799 0.446942 0.440194 0.437402 0.435857 0.434488 0.428254 0.422405 0.396641 0.480148 0.700228 1.06331 0.579722 0.428904 0.303011 0.363235 0.305794 0.402597 0.438795 0.0530335 0.0944899 0.162155 0.0347 0.487116 0.436641 0.493185 0.61543 0.439362 0.382018 0.328125 0.374981 0.377998 0.413742 0.403654 0.395025 0.393893 0.397032 0.384555 0.378785 0.364286 0.359018 0.390579 0.536597 0.589854 0.580675 0.575764 0.580806 0.605831 0.662747 0.73851 0.639552 0.641489 0.638403 0.630865 0.619045 0.604762 0.585037 0.553838 0.512013 0.902074 0.7785 0.718618 0.698537 0.700147 0.719668 0.699633 0.728009 0.693128 0.658325 0.620751 0.591551 0.583899 0.58822 0.5964 0.480018 0.457773 0.452408 0.444397 0.440569 0.440527 0.428198 0.412746 0.402181 0.547141 0.753984 1.00616 0.48156 0.387231 0.451384 0.310171 0.426933 0.790932 0.290367 0.0707774 0.169443 0.295188 0.194401 0.503927 0.478974 0.494861 0.275403 0.553635 0.332824 0.334906 0.355946 0.408571 0.433223 0.433629 0.429249 0.400089 0.395743 0.381606 0.367064 0.36625 0.513436 0.488428 0.561772 0.605467 0.629237 0.631024 0.620433 0.607614 0.591272 0.566707 0.535027 0.514405 0.759777 0.719939 0.706427 0.717557 0.714365 0.695441 0.642069 0.594099 0.589696 0.594663 0.603639 0.606678 0.612257 0.602962 0.561595 0.52692 0.52166 0.496088 0.455236 0.452605 0.450981 0.439476 0.420732 0.408671 0.408774 0.405098 0.765692 0.929247 0.457217 0.354153 0.280341 0.399398 0.569364 0.854032 0.306814 0.277394 0.388438 0.0457862 0.495827 0.488216 0.476059 0.263622 0.229217 0.35561 0.342062 0.392217 0.426349 0.445188 0.458067 0.458889 0.426818 0.423041 0.426465 0.401348 0.38403 0.363146 0.528924 0.545249 0.55876 0.57886 0.608119 0.649552 0.701486 0.757423 0.548076 0.602707 0.63047 0.641284 0.642369 0.638424 0.592011 0.571959 0.545636 0.512451 0.487759 0.769188 0.712262 0.717384 0.720898 0.732948 0.73101 0.725124 0.702503 0.595185 0.603328 0.612159 0.616817 0.620335 0.60569 0.583343 0.565787 0.542362 0.52835 0.496048 0.468965 0.45909 0.464553 0.453646 0.4388 0.427373 0.423997 0.443109 0.44947 0.608462 0.759414 0.838032 0.482728 0.530726 0.295358 0.45237 0.44386 0.781297 0.479607 0.535991 0.81653 0.136855 0.0924506 0.182387 0.29427 0.351163 0.366212 0.449408 0.469918 0.474615 0.455987 0.451822 0.454112 0.427819 0.409415 0.516173 0.515498 0.488041 0.531537 0.57048 0.605547 0.649283 0.6837 0.722205 0.760065 0.591608 0.626251 0.63924 0.640152 0.635265 0.628441 0.619466 0.6076 0.688087 0.708788 0.712188 0.711259 0.715826 0.723562 0.732341 0.742056 0.745065 0.738357 0.593963 0.596396 0.604401 0.614357 0.623358 0.629853 0.627147 0.612533 0.584955 0.574467 0.550475 0.51192 0.48187 0.465383 0.471584 0.469498 0.449347 0.443153 0.445213 0.490349 0.507367 0.624559 0.744489 0.675312 0.321973 0.771774 0.749132 0.718376 0.58248 0.730137 0.746151 0.32369 0.352511 0.408158 0.491394 0.478495 0.478592 0.476478 0.475273 0.446298 0.431561 0.380568 0.565754 0.5137 0.451316 0.48854 0.550668 0.607864 0.662396 0.677683 0.705986 0.729636 0.748126 0.617186 0.634255 0.636293 0.63045 0.623363 0.614885 0.604641 0.590947 0.574657 0.555915 0.53006 0.493527 0.568477 0.643621 0.694026 0.704235 0.710493 0.718539 0.730041 0.743728 0.550344 0.588854 0.598113 0.604661 0.61195 0.620242 0.627299 0.632819 0.635188 0.627005 0.584898 0.572862 0.537159 0.502222 0.476875 0.491674 0.48726 0.479891 0.469377 0.45829 0.46444 0.470139 0.539958 0.528069 0.653436 0.708328 0.787261 0.810612 0.833813 0.616129 0.681873 0.772935 0.67 0.692814 0.712872 0.371397 0.499858 0.495423 0.493367 0.492888 0.496354 0.465601 0.403228 0.589824 0.576879 0.37076 0.476017 0.516127 0.597193 0.694189 0.68571 0.695924 0.711869 0.724532 0.72965 0.631719 0.634232 0.624701 0.616964 0.609463 0.601356 0.590134 0.575321 0.560597 0.543779 0.525179 0.529119 0.572953 0.650164 0.682298 0.698297 0.709569 0.721281 0.75858 0.768491 0.52025 0.564483 0.592684 0.605648 0.613942 0.620608 0.625018 0.488696 0.512568 0.504898 0.49441 0.485441 0.476493 0.46981 0.465853 0.508747 0.580619 0.566778 0.628935 0.668371 0.793283 0.769638 0.720587 0.698403 0.590737 0.499911 0.672071 0.586444 0.630288 0.645893 0.86666 0.466133 0.525413 0.519612 0.510583 0.504613 0.513896 0.45383 0.415795 0.59247 0.592413 0.499205 0.379833 0.551772 0.597535 0.589121 0.577215 0.563385 0.551699 0.540273 0.536622 0.558103 0.600924 0.649649 0.738916 0.762295 0.789324 0.496372 0.542991 0.578135 0.601159 0.629578 0.632872 0.637199 0.634914 0.58382 0.56785 0.53329 0.522903 0.508565 0.499398 0.49239 0.487014 0.483966 0.483608 0.485761 0.609138 0.564822 0.623056 0.715557 0.786169 0.726154 0.567527 0.461861 0.430487 0.486664 0.74824 0.544067 0.597085 0.799867 0.415182 0.508237 0.54261 0.536018 0.527917 0.486457 0.473753 0.440442 0.582918 0.579195 0.493919 0.537271 0.752033 0.677067 0.688294 0.70537 0.712256 0.713682 0.710366 0.643415 0.622987 0.612771 0.605058 0.549854 0.54652 0.678499 0.697662 0.712165 0.728709 0.756386 0.798679 0.478223 0.525596 0.614641 0.623593 0.629691 0.633568 0.634173 0.634017 0.638119 0.656077 0.582816 0.58184 0.488059 0.544194 0.507804 0.501941 0.498688 0.498714 0.500989 0.519305 0.565108 0.595193 0.637093 0.699852 0.795703 0.602353 0.393508 0.324539 0.854877 0.446237 0.519826 0.531148 0.507947 0.489372 0.465464 0.579126 0.547623 0.48338 0.546236 0.425493 0.592365 0.823894 0.661861 0.664379 0.699473 0.709561 0.708644 0.705195 0.695891 0.633575 0.616324 0.606086 0.597702 0.589585 0.579555 0.567581 0.557218 0.558041 0.584499 0.618825 0.655394 0.682251 0.70235 0.722749 0.744013 0.793608 0.564306 0.592446 0.611882 0.624716 0.633751 0.639181 0.642262 0.640959 0.641914 0.65516 0.675541 0.60293 0.524574 0.573585 0.545604 0.524856 0.514447 0.512115 0.510625 0.513377 0.526042 0.574575 0.597009 0.617777 0.698613 0.722977 0.472102 0.756492 0.802386 0.847486 0.442349 0.560654 0.559029 0.56134 0.53067 0.50986 0.481741 0.571797 0.539971 0.520334 0.590927 0.496523 0.879098 0.624509 0.677401 0.680962 0.702494 0.706919 0.70341 0.696141 0.670411 0.634709 0.616889 0.604802 0.59431 0.584162 0.572503 0.561889 0.556322 0.555985 0.562759 0.57928 0.605634 0.636067 0.666185 0.690304 0.714827 0.745223 0.772947 0.461938 0.510821 0.55244 0.584462 0.60741 0.623551 0.635404 0.643003 0.647161 0.64846 0.648771 0.655944 0.664813 0.713045 0.53075 0.624768 0.570063 0.545888 0.53338 0.526025 0.518065 0.524061 0.531794 0.575046 0.603056 0.62549 0.631219 0.617311 0.651142 0.683304 0.250839 0.143904 0.797464 0.531973 0.588478 0.596442 0.567359 0.539736 0.506502 0.486052 0.509488 0.554684 0.652558 0.842425 0.658559 0.665249 0.698892 0.695241 0.68234 0.661059 0.636339 0.618732 0.604836 0.591768 0.58004 0.568188 0.561323 0.561151 0.568446 0.581531 0.600269 0.625825 0.652288 0.677327 0.704107 0.439509 0.494622 0.540998 0.577807 0.603933 0.621147 0.634978 0.644735 0.651773 0.672658 0.616293 0.570509 0.558957 0.547265 0.538865 0.528759 0.522748 0.60322 0.640146 0.638308 0.642334 0.653325 0.663617 0.592232 0.616753 0.843878 0.428832 0.564877 0.619281 0.606273 0.580776 0.56209 0.540086 0.49652 0.500597 0.546927 0.581837 0.670281 0.692938 0.701049 0.574397 0.566667 0.567127 0.572743 0.5845 0.601183 0.734194 0.777772 0.462708 0.524484 0.571365 0.601991 0.656196 0.657865 0.661372 0.667988 0.688411 0.658102 0.572824 0.560826 0.5465 0.537356 0.534837 0.539096 0.573191 0.651831 0.653854 0.660375 0.664768 0.586046 0.559425 0.799248 0.82999 0.431243 0.62605 0.54205 0.567879 0.538567 0.504139 0.48613 0.537408 0.650516 0.696458 0.677165 0.661326 0.669154 0.693025 0.702435 0.694662 0.695283 0.688701 0.674813 0.657513 0.637882 0.620593 0.605874 0.589911 0.62113 0.643183 0.668084 0.693227 0.721976 0.755571 0.706766 0.620691 0.635105 0.646939 0.655409 0.66023 0.665596 0.670482 0.675 0.684511 0.708461 0.680735 0.631692 0.598825 0.578048 0.578622 0.567778 0.547939 0.538743 0.546465 0.574043 0.60327 0.645128 0.66627 0.576086 0.583087 0.509276 0.791087 0.819492 0.474901 0.621612 0.61527 0.585367 0.588618 0.546078 0.508675 0.489415 0.590927 0.624958 0.680876 0.681353 0.675264 0.686389 0.703055 0.692793 0.689487 0.692728 0.692695 0.685463 0.673702 0.657653 0.639803 0.623075 0.609561 0.571777 0.571744 0.579019 0.589688 0.601794 0.620175 0.640112 0.661989 0.685617 0.710355 0.743072 0.673665 0.717471 0.500749 0.562887 0.599545 0.62251 0.635589 0.648616 0.658989 0.667069 0.672765 0.678807 0.685484 0.69233 0.704762 0.699861 0.661331 0.623488 0.597786 0.589577 0.590575 0.584295 0.540051 0.544298 0.573154 0.603058 0.644554 0.660188 0.665698 0.665524 0.574697 0.611176 0.791308 0.64876 0.6477 0.622532 0.61881 0.565683 0.522326 0.491249 0.613161 0.624307 0.654439 0.685892 0.703285 0.70208 0.703356 0.687236 0.686313 0.695372 0.697489 0.693262 0.686057 0.674456 0.660031 0.642951 0.626142 0.618165 0.584267 0.575652 0.589545 0.595771 0.603959 0.61983 0.638459 0.659279 0.680211 0.703315 0.725694 0.715124 0.693516 0.715527 0.571512 0.600937 0.622012 0.635525 0.650074 0.6616 0.672652 0.679915 0.68644 0.693678 0.699369 0.655422 0.623344 0.608379 0.604847 0.605857 0.594039 0.566569 0.600523 0.641499 0.662743 0.668975 0.675928 0.674535 0.566726 0.774188 0.78954 0.782778 0.454702 0.689345 0.655989 0.645106 0.499305 0.4832 0.703466 0.651374 0.647563 0.666842 0.64746 0.629576 0.660724 0.606185 0.604145 0.610876 0.619987 0.636045 0.616712 0.627752 0.633638 0.648628 0.705967 0.704521 0.686249 0.621108 0.620187 0.612835 0.604674 0.542005 0.543698 0.564628 0.671527 0.678422 0.684332 0.577678 0.589619 0.612426 0.795979 0.789358 0.771958 0.480666 0.706108 0.611514 0.543004 0.519158 0.488675 0.653298 0.703004 0.706707 0.697135 0.696431 0.693008 0.700539 0.701782 0.698261 0.694171 0.687845 0.678752 0.655887 0.677106 0.697621 0.718177 0.703755 0.737777 0.741253 0.701581 0.662651 0.676135 0.68757 0.695018 0.70048 0.706108 0.710008 0.709014 0.700615 0.679434 0.653035 0.632078 0.625963 0.627462 0.538235 0.560365 0.594293 0.632839 0.658181 0.58295 0.621276 0.704935 0.799107 0.862347 0.851625 0.681028 0.650151 0.622046 0.535348 0.514352 0.78019 0.703892 0.670279 0.653999 0.676719 0.701079 0.7049 0.707142 0.705484 0.705099 0.705452 0.70257 0.699953 0.696554 0.693719 0.688605 0.67472 0.650369 0.637315 0.662349 0.613558 0.617496 0.619977 0.625685 0.635999 0.651571 0.672714 0.693257 0.709946 0.706918 0.72766 0.735558 0.717085 0.674708 0.637705 0.643238 0.647922 0.663694 0.677483 0.691214 0.701976 0.709166 0.71326 0.713901 0.714355 0.709601 0.699796 0.671731 0.664144 0.635119 0.634719 0.627643 0.549722 0.586099 0.618973 0.648099 0.67103 0.685206 0.68404 0.765167 0.783379 0.826137 0.800902 0.788176 0.730771 0.688385 0.646918 0.649698 0.532853 0.829608 0.759329 0.701308 0.686217 0.697517 0.683109 0.698832 0.718968 0.714812 0.710821 0.708916 0.706365 0.703143 0.701309 0.703603 0.700968 0.695482 0.682057 0.654755 0.651721 0.635119 0.636066 0.630651 0.644229 0.655861 0.668245 0.688529 0.703868 0.709202 0.723502 0.731226 0.737544 0.7049 0.672601 0.656761 0.658871 0.667784 0.682009 0.694957 0.706593 0.71546 0.720578 0.722381 0.718985 0.714624 0.713149 0.693893 0.687642 0.637488 0.649177 0.642993 0.643119 0.636946 0.861014 0.574003 0.605698 0.633604 0.661941 0.685197 0.69422 0.803578 0.777337 0.751332 0.940237 0.852489 0.823728 0.810406 0.795221 0.737684 0.690301 0.646035 0.899257 0.837895 0.728364 0.728761 0.738113 0.707723 0.704891 0.707536 0.701682 0.714919 0.677642 0.635132 0.662216 0.647418 0.637476 0.657992 0.681741 0.666119 0.686221 0.719359 0.728746 0.73557 0.732537 0.690171 0.677985 0.675333 0.679223 0.692685 0.701712 0.643048 0.65452 0.6628 0.647184 0.85638 0.841561 0.648018 0.678186 0.699559 0.802797 0.782254 0.759574 0.74062 0.907323 0.882104 0.79048 0.760318 0.674405 0.679702 0.71397 0.7202 0.71482 0.711462 0.707438 0.704435 0.703253 0.642481 0.698911 0.708006 0.712798 0.721688 0.726558 0.729901 0.729358 0.72149 0.717331 0.703603 0.71423 0.652152 0.585924 0.617342 0.773367 0.919243 0.906685 0.75505 0.750922 0.689729 0.677711 0.648537 0.702955 0.935548 0.872122 0.743142 0.797556 0.775862 0.747224 0.703347 0.705107 0.710244 0.716437 0.711207 0.707706 0.70411 0.703011 0.705101 0.711192 0.714764 0.716996 0.733042 0.667798 0.594482 0.670019 0.744377 0.634897 0.73167 0.652759 0.686499 0.695463 0.704391 0.713302 0.725742 0.731124 0.738693 0.737176 0.687019 0.684725 0.700776 0.705606 0.710306 0.720938 0.728754 0.732999 0.735165 0.736708 0.735893 0.719876 0.707523 0.723968 0.663193 0.666386 0.660451 0.669906 0.663487 0.86374 0.840647 0.864537 0.547515 0.686845 0.71393 0.743225 0.771646 0.809977 0.792979 0.893832 0.893832 0.810126 0.764206 0.74676 0.698789 0.676837 0.6584 0.635807 0.886512 0.915193 0.814612 0.807472 0.776146 0.752146 0.730782 0.703285 0.700747 0.709961 0.707104 0.704175 0.702017 0.707746 0.71171 0.720307 0.731789 0.728659 0.83953 0.798643 0.598514 0.916095 0.675589 0.862782 0.670676 0.706869 0.693051 0.699742 0.707451 0.713894 0.726912 0.732714 0.740776 0.749071 0.694196 0.733194 0.714657 0.717419 0.727459 0.735244 0.738497 0.740361 0.740746 0.742229 0.734054 0.711678 0.725155 0.657004 0.667634 0.688788 0.674389 0.693093 0.856774 0.881201 0.955619 0.742235 0.680293 0.70095 0.73054 0.76745 0.793248 0.800792 0.91471 0.902521 0.902102 0.865874 0.577904 0.804874 0.728688 0.913191 0.916916 0.910779 0.871917 0.871579 0.863773 0.880505 0.864484 0.858077 0.760921 0.893329 0.830433 0.814829 0.821027 0.805142 0.82321 0.834699 0.847008 0.85316 0.853985 0.852198 0.854161 0.835574 0.803664 0.795145 0.781352 0.805428 0.882364 0.722225 0.706005 0.904412 0.840406 0.806449 0.87089 0.819935 0.878827 0.819677 0.822757 0.829005 0.832029 0.836432 0.837523 0.74407 0.742564 0.730443 0.737619 0.742596 0.743692 0.7435 0.74325 0.734856 0.732281 0.73148 0.821369 0.815036 0.805675 0.792064 0.776367 0.908683 0.905516 0.902862 0.90426 0.840091 0.692296 0.721726 0.754972 0.796429 0.827319 0.850461 0.929043 0.914971 0.914236 0.893832 0.893832 0.900437 0.900961 0.888594 0.879929 0.890504 0.871154 0.883265 0.794468 0.890782 0.845594 0.820275 0.825942 0.806641 0.815106 0.81622 0.818767 0.82099 0.821276 0.817922 0.814064 0.793875 0.788162 0.789432 0.802246 0.806969 0.863613 0.836854 0.812102 0.712415 0.894956 0.860861 0.884794 0.864497 0.893365 0.872571 0.893336 0.86857 0.871874 0.875671 0.879408 0.884956 0.891888 0.854379 0.82315 0.79659 0.813469 0.817795 0.822603 0.823229 0.82531 0.825208 0.815586 0.825362 0.838445 0.885397 0.882649 0.87659 0.858094 0.900002 0.90048 0.904095 0.895714 0.934526 0.931704 0.819794 0.857431 0.881637 0.86766 0.867297 0.864431 0.893832 0.893832 0.893832 0.855776 0.893854 0.893895 0.898124 0.901118 0.884877 0.876494 0.876836 0.858704 0.87894 0.814744 0.888212 0.87008 0.831139 0.837595 0.827574 0.83707 0.843786 0.851381 0.859706 0.862407 0.864284 0.853289 0.838078 0.830797 0.828649 0.841946 0.849521 0.864033 0.821776 0.829385 0.68481 0.880476 0.873689 0.88895 0.881805 0.88935 0.886674 0.879919 0.88315 0.884193 0.888303 0.891475 0.89457 0.880193 0.86371 0.816234 0.835844 0.836216 0.841942 0.841033 0.842087 0.840502 0.83084 0.840815 0.847905 0.888384 0.885383 0.87488 0.85915 0.894953 0.894253 0.894286 0.893831 0.89467 0.92836 0.831673 0.870833 0.879031 0.867198 0.867402 0.874426 0.896007 0.894793 0.894586 0.893829 0.893832 0.894982 0.899751 0.88308 0.874143 0.867687 0.84943 0.871886 0.839421 0.888316 0.887825 0.844102 0.847539 0.839945 0.846059 0.852124 0.858546 0.869103 0.876078 0.882456 0.879642 0.866206 0.862086 0.861537 0.876158 0.880786 0.889224 0.849407 0.860449 0.764424 0.891646 0.90902 0.881129 0.89682 0.886036 0.893212 0.888591 0.882046 0.884896 0.883993 0.88893 0.889923 0.89477 0.883771 0.877431 0.827629 0.845252 0.841796 0.847156 0.844279 0.844856 0.842569 0.835484 0.84526 0.855216 0.882809 0.881346 0.872125 0.862451 0.894032 0.893976 0.894122 0.893926 0.895122 0.919021 0.82118 0.861732 0.870566 0.863898 0.864573 0.878268 0.893836 0.893832 0.893825 0.89383 0.893832 0.893072 0.898054 0.882822 0.873181 0.86264 0.84233 0.866087 0.857628 0.889261 0.892574 0.855147 0.854232 0.847894 0.850973 0.855212 0.859307 0.868193 0.875178 0.88103 0.881382 0.869486 0.869057 0.868767 0.884538 0.882571 0.891852 0.907681 0.889178 0.794377 0.895825 0.913353 0.884351 0.899775 0.887662 0.894822 0.889409 0.883729 0.886274 0.883786 0.889628 0.888977 0.894433 0.885248 0.888268 0.839883 0.855156 0.848812 0.853307 0.848597 0.849238 0.846538 0.841678 0.850536 0.861901 0.880966 0.879074 0.87193 0.866838 0.893982 0.89393 0.894049 0.893875 0.894329 0.909018 0.814236 0.855049 0.866225 0.86439 0.866089 0.882082 0.893836 0.893832 0.893823 0.89383 0.893832 0.892109 0.896017 0.883454 0.873442 0.860647 0.837769 0.861775 0.872653 0.890901 0.893243 0.864845 0.860574 0.855052 0.855835 0.858351 0.860448 0.867226 0.873654 0.878534 0.879557 0.870786 0.872182 0.871454 0.886376 0.881357 0.892248 0.905642 0.894263 0.808912 0.894215 0.894725 0.885586 0.898723 0.88844 0.894414 0.889878 0.885066 0.887565 0.883834 0.890337 0.888336 0.894122 0.886027 0.892838 0.851221 0.86434 0.855717 0.859538 0.853421 0.854245 0.851512 0.848431 0.856455 0.86772 0.880452 0.877982 0.872776 0.871712 0.89395 0.893909 0.894003 0.893865 0.89427 0.899978 0.810796 0.851588 0.864658 0.86641 0.869389 0.885898 0.893835 0.893832 0.893823 0.89383 0.893832 0.891768 0.89381 0.884316 0.874498 0.860577 0.836069 0.85802 0.885782 0.892115 0.893227 0.872888 0.866518 0.861446 0.860665 0.861863 0.862544 0.867281 0.87281 0.876636 0.877732 0.871726 0.873843 0.87261 0.885495 0.878498 0.890142 0.893832 0.890596 0.8162 0.892027 0.896016 0.885627 0.896867 0.889128 0.893434 0.890325 0.886412 0.88895 0.884323 0.891102 0.888017 0.893841 0.886472 0.893719 0.861567 0.872361 0.86199 0.86521 0.858294 0.859241 0.856588 0.855042 0.862465 0.873972 0.879876 0.87757 0.874025 0.876606 0.893906 0.893881 0.893944 0.893851 0.894154 0.891991 0.810163 0.850567 0.86505 0.869143 0.87289 0.889809 0.893834 0.893832 0.893824 0.893831 0.893832 0.891834 0.891845 0.884993 0.875854 0.861811 0.836785 0.855072 0.891967 0.892765 0.893189 0.879345 0.871913 0.866928 0.865165 0.865342 0.865068 0.867998 0.872462 0.875261 0.876345 0.872087 0.874433 0.872909 0.883511 0.877105 0.8895 0.893832 0.823548 0.890423 0.893832 0.886572 0.894843 0.889749 0.891784 0.890692 0.88745 0.890136 0.884927 0.891753 0.887873 0.893549 0.886566 0.893784 0.870328 0.878774 0.867458 0.87019 0.862726 0.863833 0.861303 0.861076 0.86798 0.878725 0.879421 0.877647 0.875479 0.88106 0.893856 0.893849 0.893878 0.893833 0.893987 0.885045 0.811466 0.851166 0.866673 0.872149 0.876114 0.892325 0.893833 0.893832 0.893826 0.885172 0.893831 0.893832 0.892085 0.890341 0.885423 0.877261 0.863745 0.83896 0.85284 0.893527 0.893089 0.893172 0.884302 0.876575 0.87144 0.869103 0.868497 0.867607 0.869014 0.87236 0.874234 0.875254 0.871903 0.87431 0.872577 0.881511 0.875987 0.888491 0.893832 0.881311 0.829381 0.889337 0.893832 0.88709 0.892798 0.890254 0.889722 0.890986 0.888193 0.891065 0.885479 0.892183 0.887788 0.893273 0.886407 0.893761 0.877149 0.883385 0.871921 0.874399 0.866538 0.867727 0.865389 0.866283 0.872627 0.88114 0.879333 0.878065 0.877033 0.884729 0.893804 0.893816 0.893812 0.893811 0.893805 0.879137 0.813884 0.852672 0.868855 0.875084 0.879104 0.893262 0.893832 0.893832 0.893827 0.893831 0.893832 0.89235 0.889276 0.885685 0.878561 0.865838 0.841673 0.851062 0.893702 0.893274 0.893169 0.887907 0.880379 0.874986 0.87233 0.871138 0.869884 0.870052 0.872363 0.87345 0.874339 0.871436 0.87373 0.871717 0.879841 0.874924 0.887244 0.893832 0.832973 0.888724 0.893832 0.887363 0.890892 0.890642 0.887712 0.89121 0.888705 0.891752 0.885923 0.892393 0.887674 0.893017 0.886099 0.893742 0.882077 0.886445 0.87534 0.877667 0.869603 0.870822 0.868673 0.870502 0.876341 0.882098 0.879534 0.878655 0.878542 0.887552 0.893753 0.893783 0.893753 0.893791 0.893641 0.874332 0.816718 0.85449 0.871068 0.877676 0.881726 0.893397 0.89383 0.893832 0.893828 0.878437 0.893831 0.893832 0.892555 0.888558 0.885868 0.879613 0.867694 0.844235 0.849672 0.893646 0.893374 0.89317 0.890315 0.883248 0.877601 0.874767 0.873158 0.871726 0.870934 0.872393 0.872862 0.873593 0.870925 0.872925 0.870619 0.878535 0.874002 0.886102 0.893832 0.876109 0.835498 0.888377 0.893832 0.887526 0.889303 0.890925 0.886081 0.891369 0.889046 0.892227 0.886251 0.892473 0.887529 0.892799 0.885729 0.893732 0.885371 0.888395 0.877823 0.879963 0.871809 0.873094 0.871107 0.873631 0.87914 0.882508 0.879841 0.879258 0.879835 0.889586 0.89371 0.893756 0.893705 0.893775 0.893509 0.870703 0.81936 0.856186 0.87297 0.879735 0.883786 0.893307 0.893829 0.893832 0.893829 0.893831 0.893832 0.89269 0.888114 0.886002 0.893584 0.893411 0.893173 0.891761 0.885162 0.87932 0.872174 0.869667 0.877619 0.873329 0.885266 0.893832 0.837344 0.893832 0.887611 0.888176 0.884968 0.889254 0.892531 0.886467 0.892497 0.887399 0.892642 0.885399 0.893728 0.88735 0.889578 0.879459 0.881392 0.873188 0.874554 0.89368 0.893736 0.893672 0.893763 0.893417 0.868284 0.821357 0.885177 0.893206 0.893828 0.893832 0.893829 0.880336 0.869059 0.846184 0.848716 0.876386 0.874516 0.873015 0.871571 0.872407 0.872466 0.873055 0.870498 0.874425 0.88819 0.891111 0.891473 0.872704 0.875671 0.881005 0.882746 0.880115 0.879739 0.88077 0.89089 0.857467 0.874345 0.881158 0.893831 0.893832 0.892758 0.887902 0.886075 0.880702 0.869777 0.847229 0.848232 0.893549 0.893416 0.893174 0.892446 0.886119 0.880169 0.877191 0.875195 0.873678 0.871908 0.872407 0.872269 0.872769 0.870248 0.87173 0.869133 0.877144 0.872976 0.884828 0.893832 0.873546 0.838351 0.888113 0.893832 0.887646 0.887596 0.891202 0.884408 0.891525 0.889351 0.892684 0.886575 0.8925 0.887325 0.892561 0.885206 0.893726 0.88827 0.890148 0.880277 0.882074 0.873843 0.875256 0.87349 0.876672 0.881934 0.882874 0.880273 0.880003 0.881259 0.891523 0.893664 0.893726 0.893654 0.893757 0.89337 0.867077 0.822425 0.858153 0.875061 0.881886 0.885871 0.89315 0.893828 0.893832 0.89383 
SCALARS Axial_Stress float 1
LOOKUP_TABLE default
-98776000000.0 -86700000000.0 -75745200000.0 -188878000000.0 -119579000000.0 -153303000000.0 -61795600000.0 -62639100000.0 -60455600000.0 -63721100000.0 -65786000000.0 -64779900000.0 -62687500000.0 -83105500000.0 -150599000000.0 -142663000000.0 -79618600000.0 -220038000000.0 -81115300000.0 -153788000000.0 -155469000000.0 -76808300000.0 -74275100000.0 -187132000000.0 -79807400000.0 -120204000000.0 -110606000000.0 -60937100000.0 -105194000000.0 -214233000000.0 -275380000000.0 -241643000000.0 -233039000000.0 -167975000000.0 -176814000000.0 -169752000000.0 -208927000000.0 -268023000000.0 -256695000000.0 -227151000000.0 -133182000000.0 -281284000000.0 -223545000000.0 -376712000000.0 -287772000000.0 -414145000000.0 -341278000000.0 -447281000000.0 -248489000000.0 -244624000000.0 -419868000000.0 -299434000000.0 -162639000000.0 -255551000000.0 -189550000000.0 -233757000000.0 -499083000000.0 -368286000000.0 -509376000000.0 -398205000000.0 -513845000000.0 -333235000000.0 -364215000000.0 -346454000000.0 -241920000000.0 -261223000000.0 -509484000000.0 -505107000000.0 -527671000000.0 -366822000000.0 -385755000000.0 -498026000000.0 -349512000000.0 -349149000000.0 -272954000000.0 -278044000000.0 -235317000000.0 -686158000000.0 -624982000000.0 -633089000000.0 -644908000000.0 -352678000000.0 -170040000000.0 -704648000000.0 -610951000000.0 -615348000000.0 -629142000000.0 -629802000000.0 -561547000000.0 -433743000000.0 -419053000000.0 -911233000000.0 -772024000000.0 -741117000000.0 -757864000000.0 -879273000000.0 -816831000000.0 -846779000000.0 -886540000000.0 -744607000000.0 -827144000000.0 -714606000000.0 -812290000000.0 -717901000000.0 -814733000000.0 -488743000000.0 -521996000000.0 -848221000000.0 -720091000000.0 -640309000000.0 -631848000000.0 -1.15613e+12 -949504000000.0 -860406000000.0 -955566000000.0 -855430000000.0 -983427000000.0 -916996000000.0 -1.11964e+12 -1.16084e+12 -1.64264e+12 -920811000000.0 -950596000000.0 -915172000000.0 -906711000000.0 -612817000000.0 -657169000000.0 -928461000000.0 -805880000000.0 -914697000000.0 -1.88869e+12 -1.49973e+12 -1.38555e+12 -1.15072e+12 -1.15749e+12 -999644000000.0 -1.06686e+12 -1.06136e+12 -1.13416e+12 -1.39009e+12 -1.38575e+12 -1.06141e+12 -1.02572e+12 -1.00333e+12 -999206000000.0 -1.07746e+12 -920709000000.0 -2.12618e+12 -1.6512e+12 -1.33374e+12 -1.19156e+12 -1.14992e+12 -1.18191e+12 -1.31614e+12 -1.47511e+12 -1.2663e+12 -1.13968e+12 -1.21309e+12 -1.10562e+12 -1.18733e+12 -1.09135e+12 -1.17958e+12 -738148000000.0 -791734000000.0 -1.30441e+12 -1.1497e+12 -1.75666e+12 -1.8627e+12 -1.52089e+12 -1.32838e+12 -1.24905e+12 -1.24759e+12 -1.35821e+12 -1.31896e+12 -1.44098e+12 -1.44042e+12 -1.50294e+12 -1.4207e+12 -1.41317e+12 -1.28703e+12 -1.33441e+12 -1.28786e+12 -1.27009e+12 -863920000000.0 -928108000000.0 -1.46366e+12 -1.47896e+12 -1.65842e+12 -1.82939e+12 -1.75014e+12 -1.68607e+12 -1.60015e+12 -1.47083e+12 -1.46886e+12 -1.35705e+12 -1.41133e+12 -1.32536e+12 -1.41614e+12 -1.46908e+12 -1.53441e+12 -1.52203e+12 -1.45089e+12 -1.39553e+12 -1.36422e+12 -1.35381e+12 -1.53202e+12 -1.57736e+12 -1.71429e+12 -1.68163e+12 -1.57288e+12 -1.50051e+12 -1.4844e+12 -1.51412e+12 -1.57006e+12 -1.60078e+12 -1.55571e+12 -1.50374e+12 -1.56437e+12 -1.46306e+12 -1.53335e+12 -1.44172e+12 -1.52004e+12 -988899000000.0 -1.07219e+12 -1.69117e+12 -1.61296e+12 -1.64232e+12 -1.70348e+12 -1.65027e+12 -1.58532e+12 -1.55677e+12 -1.56949e+12 -1.61351e+12 -1.70951e+12 -1.65691e+12 -1.73037e+12 -1.65028e+12 -1.70426e+12 -1.60707e+12 -1.66549e+12 -1.62817e+12 -1.60458e+12 -1.11102e+12 -1.20325e+12 -1.73563e+12 -1.6551e+12 -1.63323e+12 -1.67569e+12 -1.68918e+12 -1.68983e+12 -1.69886e+12 -1.6546e+12 -1.68628e+12 -1.62621e+12 -1.68908e+12 -1.62989e+12 -1.71357e+12 -1.66144e+12 -1.75997e+12 -1.79877e+12 -1.79586e+12 -1.7645e+12 -1.72552e+12 -1.69253e+12 -1.67588e+12 -1.83311e+12 -1.72562e+12 -1.64746e+12 -1.71183e+12 -1.73057e+12 -1.73939e+12 -1.76634e+12 -1.80479e+12 -1.86057e+12 -1.88054e+12 -1.86128e+12 -1.92644e+12 -1.82547e+12 -1.88083e+12 -1.78415e+12 -1.84012e+12 -1.75606e+12 -1.8182e+12 -1.22717e+12 -1.32191e+12 -1.98382e+12 -1.87061e+12 -1.86811e+12 -1.5687e+12 -1.68665e+12 -1.75281e+12 -1.77999e+12 -1.81287e+12 -1.852e+12 -1.91218e+12 -2.02636e+12 -1.95815e+12 -2.04998e+12 -1.95658e+12 -2.02906e+12 -1.98576e+12 -1.92934e+12 -1.89322e+12 -1.33337e+12 -1.42878e+12 -2.03487e+12 -1.53948e+12 -1.60089e+12 -1.67861e+12 -1.74324e+12 -1.82561e+12 -1.80955e+12 -1.86672e+12 -1.84272e+12 -1.93206e+12 -1.89784e+12 -1.98583e+12 -1.94393e+12 -2.07396e+12 -2.13838e+12 -2.13529e+12 -2.09531e+12 -2.02795e+12 -1.97212e+12 -1.94398e+12 -1.55055e+12 -2.17037e+12 -2.1992e+12 -2.01312e+12 -1.469e+12 -1.8201e+12 -1.89208e+12 -1.93028e+12 -2.02826e+12 -2.06964e+12 -2.21188e+12 -2.24499e+12 -2.34573e+12 -2.21276e+12 -2.27336e+12 -2.14606e+12 -2.15477e+12 -2.05677e+12 -2.07925e+12 -2.01184e+12 -2.05307e+12 -1.42525e+12 -2.49612e+12 -1.9968e+12 -1.58606e+12 -1.76979e+12 -1.92571e+12 -1.93431e+12 -2.05311e+12 -2.11172e+12 -2.25087e+12 -2.4275e+12 -2.34498e+12 -2.47023e+12 -2.44284e+12 -2.29008e+12 -2.14126e+12 -2.1127e+12 -1.4986e+12 -1.62066e+12 -2.6734e+12 -3.06592e+12 -1.85534e+12 -1.70676e+12 -2.0034e+12 -1.97493e+12 -2.09497e+12 -1.96454e+12 -1.90067e+12 -1.98126e+12 -2.21919e+12 -2.168e+12 -2.20079e+12 -2.14224e+12 -2.46109e+12 -2.59304e+12 -2.57955e+12 -2.54388e+12 -2.66444e+12 -2.14552e+12 -2.09135e+12 -2.16291e+12 -2.20546e+12 -2.15166e+12 -1.54875e+12 -1.60633e+12 -2.75653e+12 -3.01118e+12 -1.95029e+12 -2.21203e+12 -2.1332e+12 -1.64207e+12 -2.28385e+12 -2.02969e+12 -2.72466e+12 -2.8781e+12 -2.71703e+12 -2.80709e+12 -2.69029e+12 -2.82548e+12 -3.00689e+12 -2.09408e+12 -2.25176e+12 -2.90855e+12 -3.55721e+12 -4.07119e+12 -4.00552e+12 -2.10385e+12 -2.35733e+12 -2.05232e+12 -1.50916e+12 -2.15431e+12 -2.88388e+12 -3.11064e+12 -2.95076e+12 -2.91944e+12 -3.05629e+12 -3.34226e+12 -3.59514e+12 -2.13629e+12 -1.5672e+12 -1.51536e+12 -3.23414e+12 -3.94374e+12 -3.93392e+12 -3.68866e+12 -3.28273e+12 -2.52135e+12 -2.70657e+12 -2.36554e+12 -2.22007e+12 -1.92573e+12 -1.29692e+12 -1.81282e+12 -3.38395e+12 -3.15537e+12 -2.9762e+12 -3.1055e+12 -3.34815e+12 -3.35061e+12 -3.61823e+12 -3.71531e+12 -2.19623e+12 -1.40579e+12 -2.95792e+12 -3.59162e+12 -3.86767e+12 -3.79525e+12 -3.23441e+12 -2.67902e+12 -2.05153e+12 -1.82695e+12 -1.90131e+12 -1.43854e+12 -3.91759e+12 -3.48434e+12 -3.24445e+12 -3.08989e+12 -3.06239e+12 -3.12318e+12 -3.35102e+12 -3.59976e+12 -3.80444e+12 -3.8741e+12 -3.67128e+12 -3.26378e+12 -1.48647e+12 -2.88905e+12 -3.2845e+12 -3.68849e+12 -3.97776e+12 -3.69563e+12 -3.22488e+12 -2.06771e+12 -2.15261e+12 -2.3237e+12 -2.42223e+12 -3.4161e+12 -3.13606e+12 -3.30486e+12 -3.59947e+12 -3.82039e+12 -3.80849e+12 -3.94737e+12 -3.69152e+12 -1.60637e+12 -3.53711e+12 -3.9629e+12 -4.16322e+12 -4.01934e+12 -3.99838e+12 -3.67535e+12 -2.33028e+12 -2.14384e+12 -2.40522e+12 -2.296e+12 -2.38234e+12 -2.67741e+12 -3.20171e+12 -3.2033e+12 -3.00436e+12 -3.49567e+12 -3.59543e+12 -3.86563e+12 -3.96881e+12 -3.99319e+12 -4.22831e+12 -2.49256e+12 -3.97602e+12 -3.11544e+12 -6.09422e+12 -3.66148e+12 -3.82038e+12 -4.08078e+12 -4.20372e+12 -2.56935e+12 -2.55917e+12 -2.57725e+12 -2.47997e+12 -2.67412e+12 -2.63533e+12 -3.04419e+12 -3.16586e+12 -3.08054e+12 -3.05243e+12 -2.54822e+12 -3.96768e+12 -4.00559e+12 -4.08154e+12 -4.06012e+12 -4.25403e+12 -4.31641e+12 -4.6332e+12 -2.27947e+12 -4.16159e+12 -6.16227e+12 -4.68153e+12 -3.88604e+12 -4.29162e+12 -2.82879e+12 -2.75478e+12 -2.67692e+12 -2.74131e+12 -2.85233e+12 -2.85313e+12 -3.08302e+12 -2.90697e+12 -4.14376e+12 -4.34041e+12 -4.1043e+12 -4.12451e+12 -4.20231e+12 -4.49192e+12 -4.95514e+12 -4.00428e+12 -4.16285e+12 -4.37211e+12 -6.63727e+12 -5.52869e+12 -4.15915e+12 -3.99511e+12 -3.05087e+12 -2.98782e+12 -2.95893e+12 -2.79548e+12 -2.90193e+12 -2.81868e+12 -2.89371e+12 -3.00356e+12 -3.05172e+12 -3.10196e+12 -3.02286e+12 -2.89615e+12 -2.36443e+12 -4.56167e+12 -4.2548e+12 -4.16044e+12 -4.28008e+12 -4.39607e+12 -4.76721e+12 -5.00058e+12 -4.94341e+12 -6.58975e+12 -4.49092e+12 -4.44772e+12 -3.82634e+12 -6.29404e+12 -6.49744e+12 -6.22645e+12 -5.95173e+12 -5.42724e+12 -4.80829e+12 -4.53436e+12 -4.11904e+12 -4.21704e+12 -3.6936e+12 -3.53581e+12 -3.22447e+12 -3.16282e+12 -3.00347e+12 -3.02363e+12 -2.95335e+12 -3.06814e+12 -3.02513e+12 -3.13876e+12 -3.13167e+12 -3.08985e+12 -2.42053e+12 -4.58103e+12 -4.49306e+12 -4.24238e+12 -4.16338e+12 -4.17245e+12 -4.52708e+12 -5.25656e+12 -5.8779e+12 -6.49435e+12 -4.16603e+12 -4.20476e+12 -3.62677e+12 -6.03731e+12 -6.2195e+12 -5.80839e+12 -5.04603e+12 -4.66304e+12 -3.91314e+12 -3.41062e+12 -3.14778e+12 -3.10085e+12 -3.12493e+12 -3.2054e+12 -3.16656e+12 -3.23869e+12 -3.19826e+12 -3.24482e+12 -3.05133e+12 -4.1652e+12 -4.3451e+12 -4.02961e+12 -4.08079e+12 -4.33218e+12 -4.57752e+12 -4.80809e+12 -5.01458e+12 -5.81021e+12 -5.10132e+12 -5.75726e+12 -5.96497e+12 -4.12868e+12 -3.24858e+12 -3.48709e+12 -5.69798e+12 -6.37084e+12 -6.26936e+12 -6.22253e+12 -6.0909e+12 -5.83852e+12 -5.46629e+12 -5.05843e+12 -4.29589e+12 -3.67451e+12 -3.33155e+12 -3.20641e+12 -3.1929e+12 -3.25622e+12 -3.27578e+12 -3.25584e+12 -3.31885e+12 -3.32137e+12 -2.87959e+12 -3.87981e+12 -3.81004e+12 -4.0911e+12 -4.28382e+12 -4.79363e+12 -3.93358e+12 -5.58853e+12 -6.16467e+12 -6.21021e+12 -3.95047e+12 -3.75109e+12 -3.15643e+12 -4.75009e+12 -5.94651e+12 -6.47296e+12 -6.66443e+12 -6.23356e+12 -5.74132e+12 -5.40136e+12 -4.97192e+12 -4.65704e+12 -4.23031e+12 -3.95124e+12 -3.75879e+12 -3.5509e+12 -3.52199e+12 -3.34476e+12 -3.38504e+12 -3.2761e+12 -3.31702e+12 -3.30405e+12 -3.34876e+12 -3.34393e+12 -3.43352e+12 -3.40734e+12 -3.50559e+12 -3.91087e+12 -4.11944e+12 -3.30267e+12 -3.85303e+12 -4.51837e+12 -4.57748e+12 -4.57888e+12 -4.87664e+12 -5.1642e+12 -5.50905e+12 -5.79518e+12 -5.95108e+12 -6.01957e+12 -6.15641e+12 -3.58096e+12 -3.07033e+12 -5.75229e+12 -5.53287e+12 -6.1067e+12 -6.52544e+12 -6.56302e+12 -6.97804e+12 -6.1429e+12 -6.09185e+12 -5.26179e+12 -4.506e+12 -3.94113e+12 -3.70375e+12 -3.52891e+12 -3.52295e+12 -3.40152e+12 -3.3965e+12 -3.34178e+12 -3.36282e+12 -3.35057e+12 -3.43081e+12 -3.5512e+12 -3.5539e+12 -3.99903e+12 -4.63592e+12 -2.86698e+12 -3.23554e+12 -4.16904e+12 -4.41806e+12 -4.83156e+12 -5.27028e+12 -5.49057e+12 -5.65443e+12 -5.84767e+12 -5.96756e+12 -6.08948e+12 -6.05131e+12 -3.46139e+12 -3.1292e+12 -3.07668e+12 -5.86255e+12 -6.05076e+12 -6.02491e+12 -6.02199e+12 -5.41005e+12 -5.52815e+12 -5.74205e+12 -5.53991e+12 -4.99245e+12 -4.77255e+12 -4.25981e+12 -4.09207e+12 -3.84285e+12 -3.68836e+12 -3.67656e+12 -3.48071e+12 -3.39048e+12 -3.39055e+12 -3.40955e+12 -3.5317e+12 -3.6969e+12 -3.73595e+12 -4.04589e+12 -4.32824e+12 -4.65292e+12 -5.15636e+12 -4.86944e+12 -4.03841e+12 -4.66359e+12 -4.89416e+12 -5.04388e+12 -5.30782e+12 -5.52051e+12 -5.79244e+12 -5.93543e+12 -5.80459e+12 -5.88669e+12 -6.05577e+12 -3.38902e+12 -3.21533e+12 -5.93747e+12 -5.85655e+12 -5.93761e+12 -5.99834e+12 -5.86425e+12 -5.18357e+12 -5.95255e+12 -5.56736e+12 -5.31656e+12 -5.21638e+12 -4.46635e+12 -3.86559e+12 -3.92033e+12 -3.88277e+12 -3.82402e+12 -4.00268e+12 -3.84023e+12 -3.60014e+12 -3.43692e+12 -3.38945e+12 -3.44013e+12 -3.48813e+12 -3.58934e+12 -3.66258e+12 -3.86335e+12 -4.22732e+12 -4.69135e+12 -4.41107e+12 -4.28378e+12 -4.38643e+12 -4.41589e+12 -4.68482e+12 -5.11466e+12 -5.35068e+12 -5.4855e+12 -5.27872e+12 -5.85237e+12 -5.6986e+12 -5.86995e+12 -5.94522e+12 -6.09374e+12 -3.3817e+12 -3.44226e+12 -3.27188e+12 -6.07339e+12 -6.03521e+12 -5.90249e+12 -5.87828e+12 -5.94578e+12 -6.22456e+12 -6.11596e+12 -5.96094e+12 -5.6447e+12 -5.59565e+12 -4.85993e+12 -4.7033e+12 -4.2644e+12 -3.7962e+12 -3.7797e+12 -4.18727e+12 -3.879e+12 -3.74044e+12 -3.61216e+12 -3.5099e+12 -3.44138e+12 -3.40726e+12 -3.40469e+12 -3.51142e+12 -3.71946e+12 -3.82981e+12 -4.02251e+12 -3.99643e+12 -4.15961e+12 -3.98915e+12 -4.28984e+12 -4.53124e+12 -4.69199e+12 -4.92469e+12 -5.19663e+12 -5.47255e+12 -5.66574e+12 -5.83663e+12 -5.6477e+12 -5.59022e+12 -5.75367e+12 -6.05352e+12 -6.17368e+12 -3.50216e+12 -3.30707e+12 -6.11438e+12 -5.90907e+12 -5.77508e+12 -5.86631e+12 -5.982e+12 -6.1826e+12 -6.51412e+12 -5.59076e+12 -4.48252e+12 -4.99032e+12 -4.93799e+12 -4.60021e+12 -3.30839e+12 -3.05688e+12 -5.48612e+12 -4.46135e+12 -4.02443e+12 -3.72964e+12 -3.49635e+12 -3.39623e+12 -3.39095e+12 -3.39727e+12 -3.44475e+12 -3.50751e+12 -3.60568e+12 -3.87468e+12 -4.21459e+12 -3.84872e+12 -2.91894e+12 -4.08569e+12 -4.38965e+12 -4.48997e+12 -4.87846e+12 -5.5632e+12 -5.9997e+12 -4.5092e+12 -5.69299e+12 -6.09029e+12 -5.60428e+12 -5.76382e+12 -5.95301e+12 -5.99736e+12 -6.09839e+12 -6.21712e+12 -6.19726e+12 -3.52329e+12 -3.28092e+12 -3.31721e+12 -6.122e+12 -6.00042e+12 -5.9556e+12 -5.82678e+12 -5.7033e+12 -5.65201e+12 -6.19109e+12 -6.61063e+12 -5.32845e+12 -5.98053e+12 -5.88375e+12 -6.24416e+12 -5.28144e+12 -4.35137e+12 -4.0348e+12 -5.23418e+12 -4.78469e+12 -4.22797e+12 -3.99173e+12 -3.84374e+12 -3.57495e+12 -3.41649e+12 -3.37129e+12 -3.42991e+12 -3.59008e+12 -3.72123e+12 -3.85192e+12 -4.0416e+12 -4.22716e+12 -4.37555e+12 -5.37069e+12 -3.04291e+12 -3.8357e+12 -4.2168e+12 -4.3108e+12 -4.59558e+12 -4.70564e+12 -5.15383e+12 -5.58929e+12 -5.84254e+12 -4.60668e+12 -6.1136e+12 -6.87091e+12 -6.04893e+12 -5.7326e+12 -5.55226e+12 -5.88363e+12 -5.92205e+12 -6.06056e+12 -6.17046e+12 -3.56711e+12 -3.62073e+12 -3.27536e+12 -6.08142e+12 -5.97268e+12 -5.86151e+12 -5.7838e+12 -5.74392e+12 -5.77422e+12 -5.15935e+12 -5.66707e+12 -5.61073e+12 -5.82973e+12 -5.6779e+12 -5.11541e+12 -4.44089e+12 -4.36867e+12 -4.49944e+12 -4.80852e+12 -5.10542e+12 -4.29165e+12 -3.7783e+12 -3.66951e+12 -3.50782e+12 -3.45216e+12 -3.36373e+12 -3.37298e+12 -3.48347e+12 -3.68936e+12 -4.00343e+12 -4.71603e+12 -5.19503e+12 -4.31839e+12 -4.08784e+12 -4.39282e+12 -4.45162e+12 -4.86885e+12 -4.82889e+12 -5.01407e+12 -5.13114e+12 -5.87311e+12 -6.26042e+12 -5.69655e+12 -5.40166e+12 -5.74241e+12 -5.95949e+12 -6.07278e+12 -6.03046e+12 -6.15686e+12 -3.6552e+12 -3.31155e+12 -5.95707e+12 -5.93047e+12 -5.80034e+12 -5.86955e+12 -5.70814e+12 -5.71311e+12 -5.73421e+12 -5.77661e+12 -6.74645e+12 -5.97387e+12 -5.93065e+12 -5.50909e+12 -5.2407e+12 -4.21423e+12 -3.52432e+12 -4.17657e+12 -4.51441e+12 -4.5734e+12 -4.52595e+12 -3.93973e+12 -3.58104e+12 -3.38713e+12 -3.36876e+12 -3.31358e+12 -3.33552e+12 -3.33369e+12 -3.39929e+12 -3.44401e+12 -3.55448e+12 -3.8073e+12 -4.26694e+12 -4.45314e+12 -4.99191e+12 -4.62554e+12 -4.17269e+12 -4.14391e+12 -4.22978e+12 -4.34494e+12 -4.43238e+12 -4.10611e+12 -3.21192e+12 -4.46429e+12 -5.00666e+12 -5.34633e+12 -5.4238e+12 -4.27529e+12 -5.80528e+12 -5.87779e+12 -5.86348e+12 -5.97837e+12 -5.99739e+12 -6.14832e+12 -6.13141e+12 -3.65842e+12 -3.38389e+12 -5.74593e+12 -5.844e+12 -5.78047e+12 -5.79676e+12 -5.71369e+12 -5.45431e+12 -5.6676e+12 -5.48053e+12 -6.13514e+12 -5.94217e+12 -5.49376e+12 -5.27032e+12 -4.84723e+12 -4.23862e+12 -3.30633e+12 -4.3299e+12 -4.43036e+12 -4.32748e+12 -4.43868e+12 -4.16838e+12 -4.09233e+12 -3.7336e+12 -3.68089e+12 -3.42106e+12 -3.30229e+12 -3.28388e+12 -3.35315e+12 -3.50387e+12 -3.64226e+12 -3.75024e+12 -3.96981e+12 -4.09366e+12 -4.42647e+12 -4.19235e+12 -4.05698e+12 -4.19309e+12 -4.25403e+12 -4.44958e+12 -4.53829e+12 -4.77945e+12 -5.74029e+12 -4.87088e+12 -4.89061e+12 -6.39504e+12 -5.60197e+12 -5.71531e+12 -5.82379e+12 -5.88807e+12 -5.88704e+12 -5.82837e+12 -5.98468e+12 -6.057e+12 -3.66384e+12 -3.67516e+12 -3.57891e+12 -3.48511e+12 -5.65024e+12 -5.65607e+12 -5.63114e+12 -5.70675e+12 -5.58411e+12 -5.53699e+12 -5.44972e+12 -5.59663e+12 -5.3998e+12 -4.47429e+12 -4.6064e+12 -4.74009e+12 -3.21034e+12 -4.18906e+12 -4.12349e+12 -4.17735e+12 -3.77622e+12 -3.51069e+12 -3.47171e+12 -3.30856e+12 -3.30109e+12 -3.24497e+12 -3.27755e+12 -3.38752e+12 -3.57515e+12 -3.8345e+12 -4.10764e+12 -4.02138e+12 -4.18871e+12 -3.9365e+12 -4.02777e+12 -4.08207e+12 -4.2688e+12 -4.16071e+12 -4.3405e+12 -4.1538e+12 -5.05932e+12 -5.36264e+12 -5.45794e+12 -5.6511e+12 -5.76149e+12 -5.75247e+12 -5.71084e+12 -5.82102e+12 -5.73989e+12 -5.81395e+12 -5.9836e+12 -5.97159e+12 -3.67475e+12 -3.86448e+12 -5.5051e+12 -5.5022e+12 -5.56989e+12 -5.52088e+12 -5.54616e+12 -5.28143e+12 -5.19227e+12 -4.98227e+12 -4.91658e+12 -5.00222e+12 -4.90819e+12 -5.35033e+12 -4.88809e+12 -4.67845e+12 -4.5884e+12 -5.04302e+12 -3.10901e+12 -3.58589e+12 -4.02605e+12 -3.84853e+12 -3.81158e+12 -3.37143e+12 -3.41203e+12 -3.31269e+12 -3.18314e+12 -3.21284e+12 -3.15235e+12 -3.2125e+12 -3.1995e+12 -3.28794e+12 -3.30637e+12 -3.42997e+12 -3.46489e+12 -3.63252e+12 -3.64732e+12 -3.85163e+12 -3.80001e+12 -3.82879e+12 -3.82316e+12 -3.81997e+12 -4.1712e+12 -4.24819e+12 -3.87685e+12 -4.60519e+12 -4.1352e+12 -4.15707e+12 -4.51574e+12 -4.79624e+12 -5.02858e+12 -5.56609e+12 -5.50876e+12 -5.46922e+12 -5.7314e+12 -5.59725e+12 -5.65841e+12 -5.88138e+12 -5.89763e+12 -5.76621e+12 -5.87648e+12 -5.81727e+12 -3.62294e+12 -3.89461e+12 -3.42719e+12 -5.13135e+12 -5.2377e+12 -5.55001e+12 -5.66525e+12 -5.94757e+12 -5.74253e+12 -4.53195e+12 -4.06759e+12 -6.02985e+12 -3.68943e+12 -4.86352e+12 -4.90025e+12 -4.49664e+12 -4.35425e+12 -4.3786e+12 -4.4251e+12 -3.97726e+12 -3.92169e+12 -3.60367e+12 -3.42235e+12 -2.93238e+12 -3.30808e+12 -3.15138e+12 -3.09096e+12 -3.11489e+12 -3.19763e+12 -3.31974e+12 -3.47598e+12 -3.61113e+12 -3.67703e+12 -3.47318e+12 -3.62063e+12 -3.52374e+12 -3.92083e+12 -4.07222e+12 -4.18202e+12 -5.30769e+12 -5.1603e+12 -4.99485e+12 -4.54301e+12 -4.30923e+12 -4.312e+12 -5.28793e+12 -6.25486e+12 -4.77304e+12 -6.51274e+12 -5.82581e+12 -5.65417e+12 -5.6726e+12 -5.73279e+12 -5.70971e+12 -5.6325e+12 -5.69795e+12 -3.56466e+12 -3.51635e+12 -3.80568e+12 -6.29418e+12 -6.141e+12 -4.38982e+12 -5.35818e+12 -5.48729e+12 -5.69006e+12 -6.50232e+12 -6.2162e+12 -5.15369e+12 -5.22359e+12 -5.38344e+12 -3.46082e+12 -3.84937e+12 -4.11854e+12 -4.36109e+12 -4.54591e+12 -3.94721e+12 -4.29396e+12 -4.48988e+12 -3.97202e+12 -2.95303e+12 -2.76401e+12 -3.14362e+12 -3.12201e+12 -2.9756e+12 -3.02439e+12 -2.91191e+12 -3.02364e+12 -3.09593e+12 -3.19331e+12 -3.31742e+12 -3.45776e+12 -3.41448e+12 -3.51397e+12 -3.3317e+12 -3.20671e+12 -3.59719e+12 -3.83751e+12 -4.19365e+12 -2.40929e+12 -4.634e+12 -4.86033e+12 -4.79075e+12 -4.58374e+12 -4.22787e+12 -3.83569e+12 -2.51703e+12 -4.56036e+12 -5.31694e+12 -5.34558e+12 -5.72506e+12 -5.25827e+12 -5.26621e+12 -5.34074e+12 -5.42936e+12 -5.50388e+12 -5.36639e+12 -5.64227e+12 -5.56717e+12 -3.38818e+12 -3.3529e+12 -3.59365e+12 -5.84044e+12 -6.09733e+12 -3.83489e+12 -4.8324e+12 -5.01511e+12 -5.12399e+12 -5.25257e+12 -5.97518e+12 -5.3831e+12 -5.46495e+12 -5.22572e+12 -4.34116e+12 -2.41589e+12 -3.6348e+12 -3.9839e+12 -4.22461e+12 -4.39483e+12 -4.26292e+12 -4.5031e+12 -5.47229e+12 -4.60716e+12 -4.03938e+12 -3.53419e+12 -1.51802e+12 -1.99561e+12 -3.03389e+12 -2.76133e+12 -2.863e+12 -2.98972e+12 -2.96924e+12 -3.07957e+12 -3.05107e+12 -3.1763e+12 -3.14554e+12 -3.29686e+12 -3.25984e+12 -3.34534e+12 -2.96511e+12 -2.2535e+12 -3.08578e+12 -3.35624e+12 -3.88586e+12 -4.54549e+12 -4.24032e+12 -4.32728e+12 -4.39336e+12 -4.38441e+12 -4.27064e+12 -4.03535e+12 -3.36489e+12 -4.24669e+12 -4.25708e+12 -4.77994e+12 -3.59802e+12 -6.17881e+12 -5.55658e+12 -5.36147e+12 -5.41331e+12 -5.47006e+12 -5.27815e+12 -5.54482e+12 -5.40145e+12 -3.26374e+12 -3.12823e+12 -5.3845e+12 -5.25659e+12 -5.68611e+12 -5.16825e+12 -4.58122e+12 -4.70399e+12 -4.80404e+12 -5.35698e+12 -5.16629e+12 -5.23038e+12 -4.8326e+12 -4.92979e+12 -4.49898e+12 -3.55279e+12 -3.54314e+12 -3.90092e+12 -4.15746e+12 -4.41274e+12 -4.62608e+12 -5.15948e+12 -5.93872e+12 -4.01804e+12 -4.02513e+12 -3.50368e+12 -2.84475e+12 -3.75909e+12 -2.38865e+12 -2.58908e+12 -2.68559e+12 -2.85269e+12 -2.93471e+12 -3.01079e+12 -3.1018e+12 -3.21382e+12 -3.13376e+12 -3.28373e+12 -3.35272e+12 -2.24874e+12 -2.93521e+12 -4.48519e+12 -4.76723e+12 -5.00309e+12 -3.51277e+12 -3.90357e+12 -4.09213e+12 -4.11109e+12 -4.04111e+12 -3.79737e+12 -3.95926e+12 -5.01472e+12 -4.79924e+12 -4.73943e+12 -5.24762e+12 -4.80723e+12 -4.7918e+12 -4.92056e+12 -5.17572e+12 -5.40846e+12 -5.16734e+12 -3.16499e+12 -3.10997e+12 -2.90294e+12 -4.96206e+12 -4.91811e+12 -4.96651e+12 -4.85595e+12 -4.23939e+12 -4.29094e+12 -4.35676e+12 -4.85248e+12 -4.72517e+12 -4.70602e+12 -4.56246e+12 -4.41123e+12 -4.22579e+12 -3.94765e+12 -3.79359e+12 -4.01967e+12 -4.2487e+12 -4.47598e+12 -4.79214e+12 -5.09542e+12 -4.89649e+12 -4.18341e+12 -3.0391e+12 -2.40336e+12 -1.6969e+12 -3.57834e+12 -1.72641e+12 -2.36923e+12 -2.59342e+12 -2.72671e+12 -2.6798e+12 -2.81554e+12 -2.77835e+12 -2.88932e+12 -2.82845e+12 -2.95762e+12 -2.89725e+12 -3.05106e+12 -3.00507e+12 -3.1038e+12 -4.08088e+12 -4.38621e+12 -3.97237e+12 -4.57823e+12 -5.37171e+12 -5.63932e+12 -3.18452e+12 -3.76829e+12 -3.88737e+12 -3.89442e+12 -4.12615e+12 -4.29038e+12 -4.54906e+12 -4.51325e+12 -4.42167e+12 -4.28108e+12 -2.87756e+12 -5.87006e+12 -5.15296e+12 -4.97943e+12 -5.12096e+12 -5.15082e+12 -5.02494e+12 -4.96342e+12 -2.98261e+12 -2.61555e+12 -2.63068e+12 -3.93718e+12 -4.5057e+12 -4.54299e+12 -4.81948e+12 -4.83743e+12 -4.97782e+12 -3.51325e+12 -3.77828e+12 -4.41064e+12 -4.3311e+12 -4.21817e+12 -4.1046e+12 -3.99935e+12 -3.77836e+12 -3.54201e+12 -3.6052e+12 -3.74304e+12 -3.88568e+12 -4.05336e+12 -4.22856e+12 -4.41956e+12 -4.54996e+12 -4.42167e+12 -4.29807e+12 -3.85206e+12 -3.53747e+12 -2.66758e+12 -2.34171e+12 -2.26694e+12 -1.79883e+12 -2.38101e+12 -2.51341e+12 -2.66847e+12 -2.7118e+12 -2.75479e+12 -2.84745e+12 -2.85595e+12 -3.30121e+12 -3.59351e+12 -4.16573e+12 -3.91071e+12 -4.29704e+12 -4.83632e+12 -5.36882e+12 -5.55388e+12 -3.6702e+12 -3.82091e+12 -3.87739e+12 -3.93783e+12 -4.0621e+12 -4.12951e+12 -4.2423e+12 -4.24381e+12 -4.51626e+12 -4.33245e+12 -3.89809e+12 -4.25342e+12 -4.69453e+12 -3.65841e+12 -5.73431e+12 -5.2589e+12 -4.63796e+12 -4.58892e+12 -2.97269e+12 -2.80864e+12 -2.4736e+12 -3.25044e+12 -4.03142e+12 -4.14085e+12 -4.57914e+12 -4.69954e+12 -4.95402e+12 -5.17198e+12 -2.68553e+12 -3.96428e+12 -3.97236e+12 -3.8876e+12 -3.60901e+12 -3.52299e+12 -3.28049e+12 -2.84199e+12 -3.60623e+12 -3.75537e+12 -3.80858e+12 -4.00354e+12 -4.12584e+12 -4.18965e+12 -4.10666e+12 -4.00088e+12 -3.82382e+12 -3.48605e+12 -3.14163e+12 -2.72771e+12 -2.59817e+12 -2.87832e+12 -3.77595e+12 -3.32883e+12 -2.25594e+12 -2.56197e+12 -2.60621e+12 -2.63932e+12 -2.67014e+12 -2.8664e+12 -2.61421e+12 -2.76436e+12 -2.45384e+12 -3.70075e+12 -3.69451e+12 -3.86082e+12 -4.22995e+12 -4.55116e+12 -4.77959e+12 -4.47434e+12 -3.79567e+12 -3.78927e+12 -3.74402e+12 -3.76678e+12 -3.81223e+12 -3.87452e+12 -3.92721e+12 -3.96507e+12 -4.03837e+12 -4.18424e+12 -4.18997e+12 -4.08437e+12 -3.84686e+12 -3.54219e+12 -4.9309e+12 -5.10854e+12 -4.80684e+12 -4.10627e+12 -4.09893e+12 -4.27824e+12 -2.65286e+12 -2.33395e+12 -3.65367e+12 -3.36946e+12 -3.55918e+12 -4.27756e+12 -4.43279e+12 -4.49925e+12 -3.50196e+12 -3.6638e+12 -3.67866e+12 -3.62988e+12 -3.18202e+12 -2.86146e+12 -2.5475e+12 -4.06604e+12 -3.8771e+12 -3.79552e+12 -3.80769e+12 -3.88066e+12 -3.87696e+12 -3.78444e+12 -3.65845e+12 -3.47334e+12 -3.20265e+12 -2.92205e+12 -2.20989e+12 -2.28103e+12 -2.15739e+12 -1.41097e+12 -2.65386e+12 -2.51647e+12 -2.2951e+12 -2.48619e+12 -2.49349e+12 -2.53614e+12 -2.41766e+12 -2.53419e+12 -2.42353e+12 -2.62046e+12 -2.76244e+12 -2.55816e+12 -2.37361e+12 -2.62969e+12 -3.00646e+12 -3.63768e+12 -3.97337e+12 -4.17065e+12 -4.13244e+12 -3.71831e+12 -3.68156e+12 -3.63661e+12 -3.64227e+12 -3.67179e+12 -3.71081e+12 -3.7456e+12 -3.77306e+12 -3.8128e+12 -3.91224e+12 -3.94197e+12 -3.92619e+12 -3.86037e+12 -4.06097e+12 -3.8456e+12 -4.20693e+12 -4.3277e+12 -4.20435e+12 -3.15525e+12 -4.49642e+12 -4.3316e+12 -2.45964e+12 -2.02957e+12 -2.31365e+12 -3.18313e+12 -3.739e+12 -4.14186e+12 -2.06948e+12 -2.77356e+12 -3.72994e+12 -3.86895e+12 -3.90446e+12 -4.11559e+12 -3.24691e+12 -3.48239e+12 -3.50299e+12 -3.4714e+12 -3.36101e+12 -2.74246e+12 -4.16919e+12 -3.94441e+12 -3.71299e+12 -3.6706e+12 -3.7188e+12 -3.80175e+12 -3.89548e+12 -3.93234e+12 -3.51804e+12 -3.38605e+12 -3.21105e+12 -2.98961e+12 -2.77937e+12 -2.57228e+12 -3.67223e+12 -2.72209e+12 -1.94924e+12 -2.46902e+12 -2.34995e+12 -2.21421e+12 -2.45743e+12 -1.83835e+12 -3.23431e+12 -4.10545e+12 -4.36272e+12 -4.15345e+12 -3.73032e+12 -3.76224e+12 -4.0598e+12 -3.57289e+12 -3.50977e+12 -3.50159e+12 -3.52203e+12 -3.54278e+12 -3.56456e+12 -3.58901e+12 -3.62144e+12 -3.67779e+12 -3.71948e+12 -3.73953e+12 -3.7598e+12 -3.85741e+12 -3.78296e+12 -3.30886e+12 -3.27842e+12 -3.57813e+12 -3.64387e+12 -3.50103e+12 -4.57086e+12 -4.28558e+12 -4.00688e+12 -3.45797e+12 -2.21118e+12 -1.81894e+12 -3.38819e+12 -3.46298e+12 -3.89788e+12 -1.62746e+12 -3.10586e+12 -3.31922e+12 -3.41313e+12 -3.75697e+12 -3.63418e+12 -3.33843e+12 -3.35529e+12 -3.34584e+12 -3.33227e+12 -3.31667e+12 -2.36291e+12 -3.55305e+12 -3.4207e+12 -3.48813e+12 -3.59391e+12 -3.70939e+12 -3.74105e+12 -3.70031e+12 -3.62139e+12 -3.16651e+12 -3.01518e+12 -2.85492e+12 -2.72102e+12 -2.65694e+12 -2.9463e+12 -3.58991e+12 -1.00914e+12 -2.46219e+12 -2.35859e+12 -2.23781e+12 -1.84277e+12 -3.41381e+12 -1.63031e+12 -2.81327e+12 -3.6741e+12 -3.86653e+12 -3.75793e+12 -3.82935e+12 -3.82198e+12 -3.8396e+12 -3.74073e+12 -3.3757e+12 -3.358e+12 -3.35959e+12 -3.37027e+12 -3.38048e+12 -3.40185e+12 -3.43368e+12 -3.47489e+12 -3.51066e+12 -3.54751e+12 -3.59824e+12 -3.7012e+12 -3.73784e+12 -3.67429e+12 -2.7178e+12 -3.09214e+12 -3.13469e+12 -2.99062e+12 -2.37256e+12 -3.91602e+12 -3.64983e+12 -2.78905e+12 -1.89959e+12 -1.89342e+12 -1.5366e+12 -3.27635e+12 -4.09417e+12 -1.82983e+12 -2.8283e+12 -2.42024e+12 -2.78844e+12 -2.96642e+12 -3.39447e+12 -3.38681e+12 -3.34373e+12 -3.21075e+12 -3.2129e+12 -3.24637e+12 -2.08772e+12 -3.64486e+12 -3.72711e+12 -3.30812e+12 -3.56482e+12 -3.61001e+12 -3.57232e+12 -3.49701e+12 -3.40191e+12 -3.29296e+12 -2.84107e+12 -2.70972e+12 -2.59642e+12 -2.5695e+12 -2.35867e+12 -3.38461e+12 -2.73613e+12 -3.45871e+12 -1.48867e+12 -2.18686e+12 -2.50042e+12 -2.28305e+12 -2.2728e+12 -1.84393e+12 -823425000000.0 -1.3463e+12 -3.09958e+12 -1.79502e+12 -2.56603e+12 -2.99754e+12 -3.34245e+12 -3.62901e+12 -3.61235e+12 -3.58211e+12 -3.58594e+12 -3.55897e+12 -3.4745e+12 -3.30887e+12 -3.34471e+12 -3.4038e+12 -3.51194e+12 -3.65205e+12 -3.87939e+12 -4.35142e+12 -2.65508e+12 -2.72469e+12 -2.17775e+12 -3.94896e+12 -3.05865e+12 -2.95943e+12 -2.02846e+12 -2.90817e+12 -1.78934e+12 -1.53105e+12 -1.423e+12 -2.18768e+12 -3.14597e+12 -3.64579e+12 -1.51957e+12 -3.18823e+12 -1.56151e+12 -2.30246e+12 -2.56991e+12 -3.04237e+12 -3.09481e+12 -3.12322e+12 -3.11346e+12 -3.08434e+12 -3.13968e+12 -3.34211e+12 -3.49212e+12 -2.6282e+12 -3.18726e+12 -3.24376e+12 -3.17494e+12 -3.04516e+12 -3.502e+12 -3.55708e+12 -3.49707e+12 -3.40631e+12 -3.30538e+12 -3.20018e+12 -3.09033e+12 -2.97107e+12 -2.41594e+12 -2.23471e+12 -1.71494e+12 -3.52831e+12 -3.20374e+12 -2.99883e+12 -2.58221e+12 -2.0244e+12 -1.98998e+12 -1.68155e+12 -2.11616e+12 -2.51725e+12 -2.69346e+12 -3.45138e+12 -3.45063e+12 -3.4108e+12 -3.37741e+12 -3.35583e+12 -3.34036e+12 -3.30092e+12 -3.24389e+12 -3.20205e+12 -3.18741e+12 -3.1861e+12 -3.19132e+12 -3.20893e+12 -3.24252e+12 -3.27802e+12 -3.25859e+12 -3.36793e+12 -3.54151e+12 -3.87486e+12 -4.02284e+12 -2.60509e+12 -2.8565e+12 -2.33249e+12 -3.09175e+12 -3.14194e+12 -2.35257e+12 -2.2458e+12 -2.79854e+12 -1.52148e+12 -1.22675e+12 -1.28345e+12 -2.41703e+12 -874128000000.0 -1.92614e+12 -2.6036e+12 -2.27161e+12 -2.29956e+12 -1.98312e+12 -2.26333e+12 -2.71011e+12 -2.79736e+12 -2.85842e+12 -2.89756e+12 -2.92022e+12 -3.29414e+12 -3.62844e+12 -4.29807e+12 -2.28072e+12 -2.7749e+12 -2.90992e+12 -2.89382e+12 -2.77788e+12 -2.42244e+12 -3.49648e+12 -3.45822e+12 -3.34206e+12 -3.22497e+12 -3.1121e+12 -3.00217e+12 -2.89306e+12 -2.77953e+12 -2.6579e+12 -2.53147e+12 -1.59607e+12 -3.38265e+12 -3.20318e+12 -2.23762e+12 -3.22048e+12 -2.42419e+12 -2.30337e+12 -1.89154e+12 -2.88439e+12 -2.37571e+12 -2.47639e+12 -2.90469e+12 -3.07484e+12 -3.15914e+12 -3.18023e+12 -3.16284e+12 -3.1409e+12 -3.1203e+12 -3.09086e+12 -3.05768e+12 -3.02035e+12 -2.99382e+12 -2.97926e+12 -2.98591e+12 -3.00508e+12 -3.03852e+12 -3.07389e+12 -3.10426e+12 -3.13563e+12 -3.18141e+12 -3.17025e+12 -3.33167e+12 -3.48045e+12 -3.33846e+12 -2.5708e+12 -2.64222e+12 -2.5852e+12 -2.54803e+12 -2.08397e+12 -1.65678e+12 -1.31142e+12 -3.02756e+12 -2.31612e+12 -946697000000.0 -571646000000.0 -818093000000.0 -1.02458e+12 -1.15412e+12 -1.21447e+12 -2.80212e+12 -1.52178e+12 -1.91515e+12 -2.05171e+12 -2.41313e+12 -2.51378e+12 -2.59179e+12 -2.65149e+12 -2.94555e+12 -3.01692e+12 -3.16457e+12 -3.38944e+12 -3.13488e+12 -2.60335e+12 -2.64713e+12 -2.63591e+12 -2.55975e+12 -2.40334e+12 -2.13143e+12 -3.38364e+12 -3.29635e+12 -3.15607e+12 -3.02939e+12 -2.91233e+12 -2.80321e+12 -2.69685e+12 -2.58632e+12 -2.46727e+12 -2.34129e+12 -2.1836e+12 -1.95231e+12 -3.21824e+12 -2.74972e+12 -2.60924e+12 -1.70575e+12 -2.77269e+12 -1.01041e+12 -2.50302e+12 -1.3979e+12 -2.02413e+12 -2.38303e+12 -2.53613e+12 -2.6464e+12 -2.75766e+12 -2.85721e+12 -2.91285e+12 -2.92805e+12 -2.91872e+12 -2.89599e+12 -2.86553e+12 -2.83635e+12 -2.80482e+12 -2.77304e+12 -2.75799e+12 -2.7638e+12 -2.789e+12 -2.82321e+12 -2.86244e+12 -2.89713e+12 -2.9254e+12 -2.95866e+12 -3.00843e+12 -3.07547e+12 -2.91075e+12 -2.96841e+12 -2.97299e+12 -2.68275e+12 -2.50751e+12 -2.47233e+12 -2.30603e+12 -2.12203e+12 -1.97543e+12 -809340000000.0 -2.6389e+12 -2.49771e+12 -1.8517e+12 -1.7246e+12 -666968000000.0 -341572000000.0 -656573000000.0 -1.27498e+12 -160228000000.0 -1.67385e+12 -2.05173e+12 -2.0839e+12 -1.56987e+12 -1.79903e+12 -2.02675e+12 -2.16175e+12 -2.26111e+12 -2.34001e+12 -2.40538e+12 -2.6959e+12 -2.72845e+12 -2.75297e+12 -2.76991e+12 -2.79179e+12 -2.80467e+12 -2.70858e+12 -2.45182e+12 -2.39955e+12 -2.34422e+12 -2.2583e+12 -2.15965e+12 -1.94257e+12 -2.70864e+12 -2.60493e+12 -2.5027e+12 -2.3954e+12 -2.27899e+12 -2.14403e+12 -1.97662e+12 -1.79737e+12 -1.47911e+12 -2.91055e+12 -2.65811e+12 -2.24481e+12 -2.43495e+12 -2.43779e+12 -2.31412e+12 -2.00168e+12 -2.25975e+12 -2.35354e+12 -2.40858e+12 -2.45813e+12 -2.5172e+12 -2.59742e+12 -2.65774e+12 -2.68981e+12 -2.55655e+12 -2.59649e+12 -2.64101e+12 -2.68431e+12 -2.71542e+12 -2.74315e+12 -2.77827e+12 -2.81776e+12 -2.86178e+12 -2.55137e+12 -2.49911e+12 -2.1664e+12 -2.42225e+12 -2.44143e+12 -1.81418e+12 -1.95296e+12 -1.38875e+12 -1.86125e+12 -1.85638e+12 -1.18514e+12 -1.15042e+12 -386301000000.0 -212194000000.0 -104936000000.0 -527268000000.0 -531016000000.0 -1.10022e+12 -838624000000.0 -1.41538e+12 -1.63051e+12 -1.66132e+12 -1.90331e+12 -1.94637e+12 -2.03349e+12 -2.10901e+12 -2.46036e+12 -2.4979e+12 -2.51491e+12 -2.48337e+12 -2.30128e+12 -2.50549e+12 -3.19888e+12 -3.09362e+12 -2.94883e+12 -2.82153e+12 -2.31545e+12 -2.21417e+12 -2.10186e+12 -1.97339e+12 -1.83269e+12 -1.67238e+12 -1.36937e+12 -2.30235e+12 -2.30516e+12 -2.2653e+12 -2.24862e+12 -2.3409e+12 -2.33055e+12 -2.30412e+12 -2.29223e+12 -2.37351e+12 -2.43012e+12 -2.69556e+12 -2.67955e+12 -2.64986e+12 -2.60545e+12 -2.56939e+12 -2.5376e+12 -2.51843e+12 -2.52806e+12 -2.46406e+12 -2.50488e+12 -2.53519e+12 -2.56488e+12 -2.59182e+12 -2.6102e+12 -2.61468e+12 -2.55222e+12 -2.10961e+12 -1.76523e+12 -2.35036e+12 -2.16008e+12 -1.58758e+12 -1.46466e+12 -462057000000.0 -1.70201e+12 -1.28525e+12 -577607000000.0 -572594000000.0 -77846600000.0 -174357000000.0 -141705000000.0 -228883000000.0 -360878000000.0 -669799000000.0 -883524000000.0 -1.14111e+12 -1.59557e+12 -1.6904e+12 -1.76439e+12 -1.82436e+12 -1.89499e+12 -2.17499e+12 -2.23111e+12 -2.27967e+12 -2.31448e+12 -2.31014e+12 -2.17939e+12 -2.43633e+12 -2.33633e+12 -2.18547e+12 -2.12269e+12 -2.07249e+12 -2.04138e+12 -1.97973e+12 -1.81266e+12 -2.97474e+12 -2.8644e+12 -2.72653e+12 -2.60863e+12 -2.50588e+12 -2.41073e+12 -1.95329e+12 -1.84958e+12 -1.74494e+12 -1.64649e+12 -1.55557e+12 -2.48361e+12 -2.3674e+12 -2.14534e+12 -2.22323e+12 -2.25543e+12 -2.28039e+12 -2.31707e+12 -2.29591e+12 -1.9968e+12 -2.46748e+12 -2.4838e+12 -2.47917e+12 -2.45506e+12 -2.41096e+12 -2.33105e+12 -2.28683e+12 -2.25896e+12 -2.26714e+12 -2.29997e+12 -2.34857e+12 -2.4044e+12 -2.33148e+12 -2.36378e+12 -2.38821e+12 -2.4e+12 -2.39416e+12 -2.35717e+12 -2.1311e+12 -2.1831e+12 -1.78217e+12 -1.39884e+12 -2.21255e+12 -1.66518e+12 -1.12008e+12 -1.19941e+12 -1.74512e+12 -1.29233e+12 -542759000000.0 -101568000000.0 -149152000000.0 -150108000000.0 -565121000000.0 -735334000000.0 -743682000000.0 -1.39327e+12 -1.51771e+12 -1.50584e+12 -1.5517e+12 -1.6167e+12 -1.96181e+12 -2.01945e+12 -2.06322e+12 -2.13606e+12 -2.16035e+12 -2.48169e+12 -2.13299e+12 -2.07711e+12 -1.97724e+12 -1.87622e+12 -1.8398e+12 -1.89263e+12 -1.88158e+12 -1.84204e+12 -1.71005e+12 -2.72545e+12 -2.61883e+12 -2.49845e+12 -2.3968e+12 -2.30879e+12 -2.22613e+12 -2.14159e+12 -2.05107e+12 -2.09977e+12 -2.17867e+12 -2.17812e+12 -2.21649e+12 -2.20766e+12 -2.20539e+12 -2.2408e+12 -2.27534e+12 -2.30019e+12 -2.29699e+12 -2.14499e+12 -2.21598e+12 -2.26013e+12 -2.28513e+12 -2.29208e+12 -2.28028e+12 -2.24623e+12 -2.17821e+12 -2.00748e+12 -1.96107e+12 -1.97361e+12 -2.00771e+12 -2.06588e+12 -2.14131e+12 -2.23534e+12 -2.29178e+12 -2.21274e+12 -2.21103e+12 -2.18782e+12 -2.14251e+12 -1.91963e+12 -1.92435e+12 -965993000000.0 -1.96334e+12 -1.2238e+12 -1.95712e+12 -2.09161e+12 -688894000000.0 -341237000000.0 -138825000000.0 -240852000000.0 -781549000000.0 -1.45937e+12 -1.39499e+12 -1.35736e+12 -1.68867e+12 -1.76185e+12 -1.82931e+12 -1.88423e+12 -1.98423e+12 -2.0185e+12 -2.09219e+12 -2.32796e+12 -2.12728e+12 -1.76459e+12 -1.69861e+12 -1.60247e+12 -1.48192e+12 -1.73314e+12 -1.76984e+12 -1.76218e+12 -1.72875e+12 -1.62199e+12 -2.45983e+12 -2.3671e+12 -2.2713e+12 -2.19246e+12 -2.12408e+12 -2.05778e+12 -1.9884e+12 -1.91546e+12 -1.8408e+12 -1.76908e+12 -1.71313e+12 -1.70935e+12 -1.78762e+12 -2.02035e+12 -2.07675e+12 -2.11669e+12 -2.1437e+12 -2.18579e+12 -2.21854e+12 -2.26362e+12 -1.77895e+12 -1.91929e+12 -2.00741e+12 -2.0619e+12 -2.09548e+12 -2.11293e+12 -2.11551e+12 -2.09967e+12 -2.05686e+12 -1.96585e+12 -1.50944e+12 -1.6263e+12 -1.67975e+12 -1.73225e+12 -1.81742e+12 -2.00149e+12 -2.07923e+12 -2.13206e+12 -2.17141e+12 -2.19905e+12 -2.02639e+12 -1.97297e+12 -1.87361e+12 -1.83111e+12 -1.69423e+12 -1.45808e+12 -1.76203e+12 -1.49117e+12 -1.11177e+12 -1.26732e+12 -818251000000.0 -298071000000.0 -292569000000.0 -375094000000.0 -340391000000.0 -1.24165e+12 -1.38544e+12 -1.47121e+12 -1.56186e+12 -1.64219e+12 -1.71568e+12 -1.81344e+12 -1.98734e+12 -2.13486e+12 -2.13911e+12 -1.88648e+12 -1.37367e+12 -1.31404e+12 -1.17256e+12 -1.7084e+12 -1.6938e+12 -1.68673e+12 -1.66603e+12 -1.63108e+12 -1.54757e+12 -2.18649e+12 -2.1171e+12 -2.05605e+12 -2.00496e+12 -1.95831e+12 -1.91033e+12 -1.8591e+12 -1.80719e+12 -1.75681e+12 -1.71612e+12 -1.70561e+12 -1.74671e+12 -1.82359e+12 -1.94152e+12 -2.00779e+12 -2.05813e+12 -2.11639e+12 -2.18054e+12 -2.3033e+12 -2.30227e+12 -1.58325e+12 -1.72447e+12 -1.80639e+12 -1.8691e+12 -1.91133e+12 -1.93817e+12 -1.95323e+12 -1.39982e+12 -1.79932e+12 -1.88214e+12 -1.94231e+12 -1.9875e+12 -2.01882e+12 -2.0367e+12 -2.04086e+12 -1.74098e+12 -1.66585e+12 -1.6589e+12 -1.45791e+12 -1.13636e+12 -586461000000.0 -1.75546e+12 -1.21439e+12 -1.06083e+12 -1.24519e+12 -298472000000.0 -502682000000.0 -182471000000.0 -220931000000.0 -263891000000.0 -284684000000.0 -1.14631e+12 -1.11431e+12 -1.22071e+12 -1.35134e+12 -1.44636e+12 -1.54716e+12 -1.87333e+12 -1.87145e+12 -1.91898e+12 -1.93117e+12 -1.85595e+12 -1.58243e+12 -990020000000.0 -1.81465e+12 -1.78613e+12 -1.75399e+12 -1.7211e+12 -1.69079e+12 -1.67365e+12 -1.68698e+12 -1.72721e+12 -1.79353e+12 -1.8782e+12 -2.24093e+12 -2.30124e+12 -2.30998e+12 -1.40342e+12 -1.54484e+12 -1.62002e+12 -1.6827e+12 -1.95759e+12 -1.95262e+12 -1.94938e+12 -2.00599e+12 -1.22009e+12 -1.34112e+12 -1.38325e+12 -1.73632e+12 -1.77398e+12 -1.81553e+12 -1.84801e+12 -1.86967e+12 -1.88128e+12 -1.88324e+12 -1.86836e+12 -1.42681e+12 -1.48979e+12 -1.24021e+12 -991628000000.0 -963104000000.0 -1.05114e+12 -908007000000.0 -893273000000.0 -664723000000.0 -141615000000.0 -167474000000.0 -106346000000.0 -112105000000.0 -195331000000.0 -1.02676e+12 -736535000000.0 -950978000000.0 -1.14675e+12 -1.24785e+12 -1.63888e+12 -1.72018e+12 -1.75011e+12 -1.69715e+12 -1.73314e+12 -1.65516e+12 -894918000000.0 -1.64975e+12 -1.63803e+12 -1.61619e+12 -1.59985e+12 -1.57675e+12 -1.54579e+12 -1.48799e+12 -1.90647e+12 -1.88764e+12 -1.86659e+12 -1.83918e+12 -1.62916e+12 -1.62251e+12 -1.94847e+12 -2.02119e+12 -2.10478e+12 -2.19789e+12 -2.28527e+12 -2.31224e+12 -1.23502e+12 -1.37418e+12 -1.73104e+12 -1.7652e+12 -1.78827e+12 -1.80286e+12 -1.81053e+12 -1.8188e+12 -1.8518e+12 -1.88776e+12 -958498000000.0 -1.05739e+12 -1.1039e+12 -1.73749e+12 -1.68542e+12 -1.70933e+12 -1.7254e+12 -1.7352e+12 -1.7442e+12 -1.64292e+12 -1.54299e+12 -1.22992e+12 -1.03547e+12 -899709000000.0 -811585000000.0 -788935000000.0 -686941000000.0 -390587000000.0 -160089000000.0 -819168000000.0 -743513000000.0 -1.38672e+12 -1.46421e+12 -1.56084e+12 -1.62097e+12 -1.48304e+12 -1.5425e+12 -1.50336e+12 -1.62168e+12 -1.22332e+12 -511096000000.0 -1.43902e+12 -1.54618e+12 -1.54033e+12 -1.5266e+12 -1.51442e+12 -1.49601e+12 -1.47849e+12 -1.46923e+12 -1.67509e+12 -1.70821e+12 -1.70788e+12 -1.69324e+12 -1.6934e+12 -1.68532e+12 -1.67074e+12 -1.65254e+12 -1.6389e+12 -1.67925e+12 -1.74066e+12 -1.81717e+12 -1.89969e+12 -1.99606e+12 -2.11091e+12 -2.24597e+12 -2.30081e+12 -1.44201e+12 -1.50391e+12 -1.55541e+12 -1.59529e+12 -1.62469e+12 -1.64624e+12 -1.66032e+12 -1.66899e+12 -1.68004e+12 -1.68302e+12 -1.64169e+12 -625411000000.0 -854915000000.0 -1.59347e+12 -1.59728e+12 -1.61592e+12 -1.65326e+12 -1.57331e+12 -1.58562e+12 -1.59387e+12 -1.54345e+12 -1.42525e+12 -1.33692e+12 -1.2469e+12 -575590000000.0 -661348000000.0 -758590000000.0 -51265400000.0 -143242000000.0 -90110400000.0 -796196000000.0 -964794000000.0 -1.07436e+12 -1.23273e+12 -1.29334e+12 -1.39489e+12 -1.47361e+12 -1.28957e+12 -1.36359e+12 -1.4405e+12 -1.37395e+12 -862828000000.0 -1.13292e+12 -1.46428e+12 -1.46928e+12 -1.45017e+12 -1.4409e+12 -1.4322e+12 -1.42147e+12 -1.42735e+12 -1.46612e+12 -1.54773e+12 -1.57241e+12 -1.57252e+12 -1.55556e+12 -1.59842e+12 -1.61193e+12 -1.61365e+12 -1.58225e+12 -1.55667e+12 -1.55314e+12 -1.57195e+12 -1.61293e+12 -1.67481e+12 -1.75533e+12 -1.85427e+12 -1.97825e+12 -2.13769e+12 -2.28425e+12 -1.08527e+12 -1.2104e+12 -1.26863e+12 -1.32937e+12 -1.38441e+12 -1.42957e+12 -1.46489e+12 -1.49162e+12 -1.51112e+12 -1.52303e+12 -1.52787e+12 -1.51414e+12 -1.45203e+12 -1.25664e+12 -683041000000.0 -1.41335e+12 -1.40181e+12 -1.44347e+12 -1.49501e+12 -1.52953e+12 -1.55521e+12 -1.45241e+12 -1.43929e+12 -1.31385e+12 -1.23177e+12 -1.15972e+12 -1.07019e+12 -992230000000.0 -854329000000.0 -608812000000.0 -488713000000.0 -152926000000.0 -75070800000.0 -741522000000.0 -910846000000.0 -1.07592e+12 -1.13516e+12 -1.2301e+12 -1.31231e+12 -1.36715e+12 -1.31884e+12 -1.12015e+12 -1.1904e+12 -1.01949e+12 -1.3787e+12 -1.40281e+12 -1.3438e+12 -1.34217e+12 -1.36063e+12 -1.39195e+12 -1.43497e+12 -1.45233e+12 -1.44556e+12 -1.39512e+12 -1.55204e+12 -1.60176e+12 -1.54577e+12 -1.49218e+12 -1.4691e+12 -1.46722e+12 -1.48832e+12 -1.5317e+12 -1.59723e+12 -1.68571e+12 -1.8008e+12 -974342000000.0 -1.05261e+12 -1.0962e+12 -1.15559e+12 -1.21594e+12 -1.2667e+12 -1.30798e+12 -1.34059e+12 -1.36652e+12 -1.01285e+12 -1.14404e+12 -1.15825e+12 -1.32777e+12 -1.38042e+12 -1.4096e+12 -1.42871e+12 -1.44184e+12 -1.13678e+12 -1.05213e+12 -996763000000.0 -915851000000.0 -838142000000.0 -728117000000.0 -527697000000.0 -342981000000.0 -149740000000.0 -745701000000.0 -722035000000.0 -912002000000.0 -979869000000.0 -1.07653e+12 -1.12352e+12 -1.21478e+12 -1.25419e+12 -1.29489e+12 -1.36754e+12 -1.75653e+12 -1.38369e+12 -1.35537e+12 -1.34988e+12 -1.74961e+12 -1.55416e+12 -1.43057e+12 -1.38597e+12 -1.36341e+12 -1.36468e+12 -1.951e+12 -2.09159e+12 -861013000000.0 -908883000000.0 -974287000000.0 -1.04744e+12 -1.38479e+12 -1.39492e+12 -1.38971e+12 -1.33927e+12 -1.13987e+12 -1.27007e+12 -1.29573e+12 -1.28682e+12 -1.29491e+12 -1.30568e+12 -1.31689e+12 -1.33168e+12 -1.20992e+12 -905768000000.0 -852376000000.0 -774133000000.0 -703461000000.0 -607318000000.0 -513984000000.0 -90239300000.0 -180900000000.0 -681009000000.0 -770369000000.0 -1.15187e+12 -982447000000.0 -1.06919e+12 -1.12113e+12 -1.14441e+12 -1.18379e+12 -2.20204e+12 -1.92055e+12 -1.76349e+12 -1.47158e+12 -1.35167e+12 -1.28404e+12 -1.26496e+12 -1.25668e+12 -1.24734e+12 -1.25413e+12 -1.27385e+12 -1.30189e+12 -1.3313e+12 -1.34199e+12 -1.31193e+12 -1.10773e+12 -1.38907e+12 -1.43576e+12 -1.50514e+12 -1.60072e+12 -1.72934e+12 -1.86082e+12 -857543000000.0 -1.1071e+12 -1.15491e+12 -1.1934e+12 -1.22458e+12 -1.25074e+12 -1.27251e+12 -1.29544e+12 -1.32514e+12 -1.38066e+12 -1.66396e+12 -1.96213e+12 -2.36411e+12 -1.9679e+12 -1.64485e+12 -1.34964e+12 -1.15385e+12 -1.16756e+12 -1.18027e+12 -1.19117e+12 -1.12079e+12 -1.04936e+12 -957589000000.0 -617063000000.0 -550175000000.0 -541982000000.0 -283488000000.0 -103570000000.0 -200894000000.0 -631032000000.0 -841210000000.0 -936987000000.0 -1.01892e+12 -860382000000.0 -933392000000.0 -990522000000.0 -1.0303e+12 -1.32127e+12 -1.58177e+12 -1.67599e+12 -1.55999e+12 -1.39243e+12 -1.26855e+12 -1.19313e+12 -1.16475e+12 -1.15472e+12 -1.14279e+12 -1.14433e+12 -1.15949e+12 -1.18334e+12 -1.21311e+12 -1.23847e+12 -1.23435e+12 -1.10756e+12 -1.39845e+12 -1.30022e+12 -1.28642e+12 -1.25344e+12 -1.23901e+12 -1.24708e+12 -1.27492e+12 -1.32242e+12 -1.39217e+12 -1.48633e+12 -1.59498e+12 -756287000000.0 -776778000000.0 -696656000000.0 -775741000000.0 -876330000000.0 -951223000000.0 -1.00706e+12 -1.05048e+12 -1.08543e+12 -1.11486e+12 -1.14081e+12 -1.16593e+12 -1.19818e+12 -1.2484e+12 -1.37378e+12 -1.56723e+12 -1.78738e+12 -1.76101e+12 -1.55145e+12 -1.34491e+12 -1.20391e+12 -1.15302e+12 -1.0432e+12 -1.07031e+12 -1.03329e+12 -965984000000.0 -876591000000.0 -817999000000.0 -783459000000.0 -715316000000.0 -452220000000.0 -317487000000.0 -48818800000.0 -693852000000.0 -802440000000.0 -890899000000.0 -754685000000.0 -799902000000.0 -854406000000.0 -991754000000.0 -936879000000.0 -1.13068e+12 -1.23108e+12 -1.25928e+12 -1.19872e+12 -1.12944e+12 -1.07322e+12 -1.04612e+12 -1.03693e+12 -1.02844e+12 -1.02963e+12 -1.04316e+12 -1.06616e+12 -1.10038e+12 -1.14829e+12 -1.21732e+12 -1.33459e+12 -1.40673e+12 -1.33281e+12 -1.22723e+12 -1.22116e+12 -1.14955e+12 -1.11278e+12 -1.10493e+12 -1.11729e+12 -1.14448e+12 -1.18744e+12 -1.248e+12 -1.31329e+12 -669648000000.0 -641396000000.0 -580295000000.0 -527354000000.0 -701762000000.0 -798853000000.0 -867018000000.0 -915531000000.0 -952620000000.0 -982649000000.0 -1.00827e+12 -1.03152e+12 -1.05628e+12 -1.09023e+12 -1.37201e+12 -1.32728e+12 -1.20587e+12 -1.09358e+12 -1.01054e+12 -971918000000.0 -1.00987e+12 -900459000000.0 -800264000000.0 -749134000000.0 -705512000000.0 -666767000000.0 -585147000000.0 -433000000000.0 -33918600000.0 -177173000000.0 -242760000000.0 -467068000000.0 -689092000000.0 -751300000000.0 -657619000000.0 -924512000000.0 -986677000000.0 -490933000000.0 -755727000000.0 -872661000000.0 -1.08595e+12 -1.18575e+12 -1.34764e+12 -327523000000.0 -1.08209e+12 -1.02406e+12 -978588000000.0 -959522000000.0 -961082000000.0 -593494000000.0 -677327000000.0 -741809000000.0 -792541000000.0 -1.15112e+12 -1.23648e+12 -1.3425e+12 -929074000000.0 -859950000000.0 -796268000000.0 -751319000000.0 -883655000000.0 -988501000000.0 -967831000000.0 -662342000000.0 -616673000000.0 -586355000000.0 -352208000000.0 -323359000000.0 -289225000000.0 -77444800000.0 -124636000000.0 -206196000000.0 -343762000000.0 -650530000000.0 -729917000000.0 -684023000000.0 -768468000000.0 -869315000000.0 -858261000000.0 -927255000000.0 -937857000000.0 -920943000000.0 -907245000000.0 -904526000000.0 -903104000000.0 -907276000000.0 -920820000000.0 -942605000000.0 -975119000000.0 -1.01929e+12 -973473000000.0 -994630000000.0 -1.02255e+12 -1.05685e+12 -588254000000.0 -608957000000.0 -580737000000.0 -546757000000.0 -829771000000.0 -859335000000.0 -882932000000.0 -902476000000.0 -920091000000.0 -939217000000.0 -966187000000.0 -995240000000.0 -1.00968e+12 -990388000000.0 -1.0187e+12 -992553000000.0 -548461000000.0 -395896000000.0 -1.00077e+12 -955365000000.0 -881062000000.0 -794871000000.0 -720903000000.0 -300453000000.0 -227841000000.0 -150669000000.0 -106249000000.0 -51427900000.0 -123150000000.0 -602700000000.0 -666223000000.0 -757260000000.0 -571228000000.0 -688264000000.0 -270411000000.0 -456249000000.0 -600807000000.0 -674585000000.0 -667350000000.0 -708892000000.0 -731229000000.0 -746474000000.0 -758911000000.0 -767982000000.0 -777460000000.0 -792597000000.0 -814043000000.0 -843980000000.0 -883434000000.0 -937951000000.0 -1.04187e+12 -1.23104e+12 -1.27021e+12 -1.14353e+12 -1.36664e+12 -1.02395e+12 -865987000000.0 -816890000000.0 -808249000000.0 -807392000000.0 -816480000000.0 -819631000000.0 -811164000000.0 -527986000000.0 -544997000000.0 -544734000000.0 -527754000000.0 -542259000000.0 -583767000000.0 -638289000000.0 -683272000000.0 -719108000000.0 -746822000000.0 -768235000000.0 -783892000000.0 -795779000000.0 -804786000000.0 -812339000000.0 -815194000000.0 -790275000000.0 -680975000000.0 -686012000000.0 -726617000000.0 -727738000000.0 -693446000000.0 -628142000000.0 -960340000000.0 -870018000000.0 -794569000000.0 -709236000000.0 -626873000000.0 -554573000000.0 -508331000000.0 -74991400000.0 -48735200000.0 -213560000000.0 -316081000000.0 -308731000000.0 -508255000000.0 -589021000000.0 -670317000000.0 -809985000000.0 -512570000000.0 -102211000000.0 -278982000000.0 -340899000000.0 -503909000000.0 -601328000000.0 -613683000000.0 -517509000000.0 -558919000000.0 -602338000000.0 -625848000000.0 -641310000000.0 -658482000000.0 -680375000000.0 -708435000000.0 -740947000000.0 -777341000000.0 -823218000000.0 -938660000000.0 -1.07868e+12 -316237000000.0 -712500000000.0 -641571000000.0 -626436000000.0 -647502000000.0 -643858000000.0 -649611000000.0 -647368000000.0 -625229000000.0 -498452000000.0 -486380000000.0 -490402000000.0 -492783000000.0 -500776000000.0 -521074000000.0 -555956000000.0 -592801000000.0 -623005000000.0 -647792000000.0 -665952000000.0 -677681000000.0 -684680000000.0 -687572000000.0 -685305000000.0 -675499000000.0 -657459000000.0 -594104000000.0 -591364000000.0 -542835000000.0 -513803000000.0 -530402000000.0 -480332000000.0 -401512000000.0 -288333000000.0 -249673000000.0 -818160000000.0 -796485000000.0 -702840000000.0 -597114000000.0 -508515000000.0 -411245000000.0 -245300000000.0 -261563000000.0 -176775000000.0 -51432300000.0 -184006000000.0 -269035000000.0 -274887000000.0 -359900000000.0 -479771000000.0 -568640000000.0 -600719000000.0 -19696600000.0 -194501000000.0 -127421000000.0 -276233000000.0 -489053000000.0 -533888000000.0 -602970000000.0 -626653000000.0 -651159000000.0 -655730000000.0 -812997000000.0 -909878000000.0 -566341000000.0 -364334000000.0 -386211000000.0 -489095000000.0 -480712000000.0 -498494000000.0 -487877000000.0 -427735000000.0 -421594000000.0 -439791000000.0 -448844000000.0 -472708000000.0 -495622000000.0 -521307000000.0 -543092000000.0 -565185000000.0 -578841000000.0 -405771000000.0 -360390000000.0 -276488000000.0 -174210000000.0 -152423000000.0 -129008000000.0 -555636000000.0 -446517000000.0 -374487000000.0 -224853000000.0 -135153000000.0 -123827000000.0 -83198400000.0 -29885000000.0 -14478000000.0 -38372000000.0 -87287800000.0 -865981000000.0 -469118000000.0 -401542000000.0 -444587000000.0 -483489000000.0 -502572000000.0 -518512000000.0 -541450000000.0 -570196000000.0 -998542000000.0 -483800000000.0 -439669000000.0 -584480000000.0 -586430000000.0 -584096000000.0 -577704000000.0 -560278000000.0 -528801000000.0 -517866000000.0 -516810000000.0 -467916000000.0 -397084000000.0 -769002000000.0 -712300000000.0 -138954000000.0 -77375900000.0 -31895500000.0 -78888300000.0 -145464000000.0 -222796000000.0 -270674000000.0 -348077000000.0 -780892000000.0 -68899800000.0 -177501000000.0 -64018500000.0 -161535000000.0 -308505000000.0 -428615000000.0 -389268000000.0 -364718000000.0 -346493000000.0 -356282000000.0 -369007000000.0 -376637000000.0 -392404000000.0 -426588000000.0 -467309000000.0 -494206000000.0 -496701000000.0 -480538000000.0 -281803000000.0 -682106000000.0 -664810000000.0 -57982500000.0 -44734000000.0 -411371000000.0 -296962000000.0 -354045000000.0 -347469000000.0 -331090000000.0 -327793000000.0 -339949000000.0 -360405000000.0 -357881000000.0 -400847000000.0 -394442000000.0 -456086000000.0 -465487000000.0 -478014000000.0 -494608000000.0 -511106000000.0 -506687000000.0 -502313000000.0 -492659000000.0 -482833000000.0 -466912000000.0 -430493000000.0 -385727000000.0 -442883000000.0 -391775000000.0 -301197000000.0 -308632000000.0 -286037000000.0 -190493000000.0 -77496800000.0 -70203700000.0 -48346300000.0 -37269700000.0 -575782000000.0 -538474000000.0 -475446000000.0 -434014000000.0 -409046000000.0 -285904000000.0 -181156000000.0 -9035750000.0 -9035750000.0 -33198400000.0 -65304500000.0 -117344000000.0 -168074000000.0 -219632000000.0 -315499000000.0 -591060000000.0 -219757000000.0 -168284000000.0 -256739000000.0 -320585000000.0 -282385000000.0 -290459000000.0 -281066000000.0 -278353000000.0 -266320000000.0 -245251000000.0 -231141000000.0 -232315000000.0 -248924000000.0 -324861000000.0 -360150000000.0 -398529000000.0 -353102000000.0 -434139000000.0 -237350000000.0 -701516000000.0 -653312000000.0 -441502000000.0 -562002000000.0 -375739000000.0 -381037000000.0 -176603000000.0 -244112000000.0 -121770000000.0 -259965000000.0 -255337000000.0 -316058000000.0 -308017000000.0 -362765000000.0 -344182000000.0 -447746000000.0 -409670000000.0 -436641000000.0 -461071000000.0 -448888000000.0 -433071000000.0 -413188000000.0 -398189000000.0 -381061000000.0 -370510000000.0 -329476000000.0 -314919000000.0 -317478000000.0 -185694000000.0 -203931000000.0 -199319000000.0 -144512000000.0 -122181000000.0 -110067000000.0 -92666400000.0 -97902600000.0 -131005000000.0 -566035000000.0 -431407000000.0 -348838000000.0 -329531000000.0 -314260000000.0 -257607000000.0 -116119000000.0 -71560000000.0 -27659300000.0 -102014000000.0 -898285000000.0 -330737000000.0 -455827000000.0 -39199100000.0 -98740800000.0 -159077000000.0 -220876000000.0 -300978000000.0 -353560000000.0 -375038000000.0 -403316000000.0 -234811000000.0 -341288000000.0 -238100000000.0 -278635000000.0 -368236000000.0 -368999000000.0 -384475000000.0 -347869000000.0 -308862000000.0 -265322000000.0 -216643000000.0 -177926000000.0 -156087000000.0 -151800000000.0 -197328000000.0 -202436000000.0 -217057000000.0 -151880000000.0 -192100000000.0 -59300100000.0 -638370000000.0 -325995000000.0 -175678000000.0 -148232000000.0 -236098000000.0 -142916000000.0 -211998000000.0 -123092000000.0 -195845000000.0 -180389000000.0 -215082000000.0 -185655000000.0 -207015000000.0 -173384000000.0 -304856000000.0 -308092000000.0 -382093000000.0 -384882000000.0 -321865000000.0 -314732000000.0 -277432000000.0 -265940000000.0 -270188000000.0 -236347000000.0 -192490000000.0 -119143000000.0 -169516000000.0 -234088000000.0 -275552000000.0 -203099000000.0 -147231000000.0 -109843000000.0 -72048300000.0 -30871800000.0 -35877900000.0 -487456000000.0 -443031000000.0 -397536000000.0 -390449000000.0 -361138000000.0 -276767000000.0 -162300000000.0 -100511000000.0 -39811000000.0 -9035750000.0 -9035750000.0 -10242900000.0 -11892400000.0 -52227500000.0 -101718000000.0 -171667000000.0 -323668000000.0 -304015000000.0 -292660000000.0 -176537000000.0 -197811000000.0 -287740000000.0 -307340000000.0 -340459000000.0 -334540000000.0 -326751000000.0 -317087000000.0 -295683000000.0 -272745000000.0 -257512000000.0 -253485000000.0 -273701000000.0 -245126000000.0 -224259000000.0 -136989000000.0 -154936000000.0 -15285400000.0 -21758600000.0 -214920000000.0 -540725000000.0 -99240000000.0 -162860000000.0 -45637700000.0 -65103400000.0 -14412800000.0 -59121100000.0 -17828200000.0 -76094200000.0 -54834300000.0 -81624400000.0 -58297600000.0 -88308900000.0 -79511100000.0 -163719000000.0 -167449000000.0 -290132000000.0 -232213000000.0 -262285000000.0 -236309000000.0 -255649000000.0 -237099000000.0 -233009000000.0 -223474000000.0 -174414000000.0 -130364000000.0 -71592300000.0 -79424700000.0 -96217900000.0 -93763500000.0 -30233600000.0 -64497900000.0 -99155500000.0 -134082000000.0 -171752000000.0 -220730000000.0 -500395000000.0 -227209000000.0 -122762000000.0 -115690000000.0 -101870000000.0 -47356700000.0 -9035750000.0 -9035750000.0 -9035750000.0 -193699000000.0 -10367100000.0 -13055700000.0 -19068000000.0 -23220700000.0 -61373300000.0 -97545700000.0 -142223000000.0 -233326000000.0 -167227000000.0 -89273900000.0 -18551200000.0 -25292100000.0 -102174000000.0 -120703000000.0 -147356000000.0 -146058000000.0 -141457000000.0 -136810000000.0 -122023000000.0 -104958000000.0 -93823500000.0 -102812000000.0 -155442000000.0 -178423000000.0 -215179000000.0 -181482000000.0 -232437000000.0 -146870000000.0 -196652000000.0 -22915000000.0 -465969000000.0 -173255000000.0 -161042000000.0 -160620000000.0 -129887000000.0 -143010000000.0 -107509000000.0 -130040000000.0 -102338000000.0 -113969000000.0 -75032500000.0 -78077900000.0 -40148800000.0 -68195900000.0 -38918300000.0 -144702000000.0 -105469000000.0 -143134000000.0 -130359000000.0 -161946000000.0 -163108000000.0 -179965000000.0 -194161000000.0 -172122000000.0 -142932000000.0 -103892000000.0 -105628000000.0 -116613000000.0 -103827000000.0 -33016400000.0 -26546200000.0 -21003400000.0 -16011800000.0 -11512500000.0 -29569300000.0 -361793000000.0 -237015000000.0 -181756000000.0 -167870000000.0 -147009000000.0 -81570300000.0 -41795600000.0 -28320900000.0 -15432500000.0 -9042220000.0 -9035760000.0 -13726700000.0 -16051700000.0 -45772200000.0 -80059200000.0 -131523000000.0 -225198000000.0 -178201000000.0 -83220900000.0 -45439200000.0 -50661500000.0 -120296000000.0 -146438000000.0 -173791000000.0 -179030000000.0 -178356000000.0 -176919000000.0 -166192000000.0 -153332000000.0 -147397000000.0 -150786000000.0 -176262000000.0 -172236000000.0 -181404000000.0 -141315000000.0 -173311000000.0 -124999000000.0 -169791000000.0 -167001000000.0 -391844000000.0 -11437500000.0 -13338000000.0 -29988500000.0 -19553000000.0 -20267800000.0 -30517000000.0 -19201700000.0 -39541300000.0 -24885700000.0 -44798700000.0 -18751000000.0 -33079700000.0 -11767100000.0 -46992200000.0 -25537100000.0 -119848000000.0 -87236700000.0 -123819000000.0 -111216000000.0 -137888000000.0 -132535000000.0 -140376000000.0 -140669000000.0 -113140000000.0 -84684800000.0 -64236200000.0 -69387200000.0 -79465000000.0 -63233400000.0 -11970500000.0 -14572100000.0 -17392700000.0 -20673600000.0 -24424400000.0 -60983900000.0 -320211000000.0 -165625000000.0 -105569000000.0 -91041600000.0 -77636500000.0 -26274100000.0 -9036640000.0 -9035750000.0 -9057980000.0 -9041100000.0 -9035760000.0 -14210200000.0 -18067300000.0 -41619500000.0 -69966600000.0 -113630000000.0 -194068000000.0 -150391000000.0 -37367500000.0 -14344100000.0 -11899600000.0 -58415300000.0 -79826000000.0 -99876000000.0 -104775000000.0 -104683000000.0 -104782000000.0 -97171200000.0 -85063800000.0 -77244300000.0 -74528900000.0 -93129500000.0 -89100100000.0 -98116800000.0 -61147200000.0 -80575100000.0 -31303200000.0 -14531000000.0 -39141300000.0 -294782000000.0 -86179100000.0 -73635200000.0 -81936500000.0 -61677200000.0 -58271400000.0 -59912000000.0 -45022300000.0 -54998500000.0 -39296600000.0 -55036000000.0 -28559000000.0 -40016600000.0 -17128500000.0 -42727300000.0 -15955300000.0 -89329100000.0 -62692900000.0 -98261900000.0 -88468700000.0 -114490000000.0 -110647000000.0 -118966000000.0 -118220000000.0 -95192500000.0 -70609300000.0 -60413200000.0 -64700100000.0 -70742200000.0 -50330800000.0 -9538690000.0 -9376390000.0 -9276650000.0 -9226990000.0 -9170830000.0 -51265700000.0 -281183000000.0 -153926000000.0 -99921400000.0 -81559000000.0 -66958000000.0 -20384200000.0 -9038160000.0 -9035750000.0 -9055480000.0 -9040060000.0 -9035770000.0 -13941500000.0 -19383000000.0 -36871000000.0 -60998000000.0 -100286000000.0 -172724000000.0 -137954000000.0 -23633600000.0 -13562600000.0 -12939500000.0 -45909900000.0 -67428800000.0 -85443400000.0 -92095800000.0 -93978900000.0 -95880500000.0 -91838100000.0 -82732300000.0 -77467700000.0 -75150300000.0 -88373200000.0 -82231300000.0 -89192500000.0 -62336100000.0 -88857600000.0 -54840800000.0 -42341500000.0 -76924100000.0 -234588000000.0 -20346900000.0 -9366070000.0 -31002600000.0 -14425300000.0 -20790200000.0 -25346300000.0 -18414100000.0 -28090200000.0 -18515700000.0 -35945100000.0 -15298400000.0 -28821100000.0 -11110900000.0 -34704800000.0 -9986130000.0 -67098700000.0 -47746900000.0 -80538000000.0 -72530100000.0 -96552600000.0 -92850700000.0 -99822800000.0 -96988500000.0 -77191000000.0 -57041400000.0 -53958400000.0 -57703900000.0 -61134700000.0 -39354700000.0 -9192750000.0 -9131230000.0 -9155720000.0 -9130310000.0 -9311690000.0 -56318800000.0 -247967000000.0 -133909000000.0 -84781400000.0 -67325400000.0 -55178100000.0 -15940200000.0 -9039450000.0 -9035760000.0 -9051910000.0 -9039140000.0 -9035770000.0 -13285400000.0 -19925100000.0 -32501000000.0 -52638000000.0 -86822800000.0 -150200000000.0 -123855000000.0 -14575000000.0 -11274000000.0 -10865300000.0 -32091300000.0 -51198100000.0 -66306200000.0 -72612100000.0 -74941900000.0 -77286400000.0 -75384000000.0 -68398700000.0 -64596700000.0 -62347300000.0 -72022400000.0 -66571800000.0 -72108500000.0 -46620800000.0 -60878700000.0 -27532500000.0 -9035750000.0 -48223500000.0 -186724000000.0 -31608800000.0 -17882400000.0 -31663700000.0 -16004000000.0 -18575700000.0 -25041900000.0 -16762300000.0 -24470100000.0 -16032600000.0 -31775100000.0 -13888300000.0 -26419700000.0 -11162800000.0 -31254300000.0 -9336760000.0 -50622400000.0 -36196300000.0 -65402000000.0 -58897500000.0 -80354900000.0 -77028600000.0 -82928100000.0 -79072300000.0 -62453900000.0 -46512800000.0 -48144900000.0 -51017300000.0 -52506800000.0 -30765600000.0 -9229660000.0 -9155540000.0 -9212520000.0 -9139010000.0 -9452770000.0 -57319000000.0 -214978000000.0 -116787000000.0 -73046200000.0 -56372900000.0 -45444600000.0 -12779000000.0 -9040370000.0 -9035760000.0 -9048330000.0 -9038380000.0 -9035770000.0 -12478000000.0 -19641500000.0 -28426800000.0 -44667000000.0 -73265400000.0 -126959000000.0 -108299000000.0 -10677000000.0 -10537600000.0 -10599800000.0 -23886200000.0 -40429100000.0 -53323100000.0 -59265100000.0 -61972300000.0 -64549100000.0 -64335600000.0 -59395200000.0 -57011600000.0 -55189400000.0 -62370200000.0 -57747300000.0 -62653000000.0 -42437400000.0 -54054300000.0 -25636200000.0 -9035750000.0 -149034000000.0 -20746600000.0 -9035750000.0 -24615900000.0 -16806900000.0 -16626500000.0 -24291700000.0 -15288500000.0 -21358700000.0 -14073900000.0 -27771500000.0 -12747200000.0 -23866200000.0 -11096300000.0 -27945200000.0 -9243940000.0 -37957400000.0 -27635500000.0 -52626000000.0 -47431200000.0 -65970100000.0 -63049300000.0 -67896800000.0 -63607200000.0 -49957000000.0 -38121800000.0 -42180000000.0 -44192800000.0 -44390500000.0 -24027200000.0 -9247960000.0 -9167950000.0 -9244840000.0 -9141640000.0 -9545490000.0 -55299700000.0 -181624000000.0 -98993100000.0 -61358900000.0 -46465600000.0 -37084600000.0 -10985800000.0 -9040840000.0 -9035760000.0 -9045200000.0 -45822700000.0 -9037740000.0 -9035770000.0 -11673900000.0 -18603600000.0 -24610400000.0 -37201700000.0 -60149000000.0 -103872000000.0 -91565700000.0 -9577530000.0 -10076800000.0 -10320000000.0 -18159700000.0 -31716200000.0 -42416500000.0 -47598300000.0 -50290100000.0 -52728400000.0 -53512300000.0 -50216300000.0 -48862300000.0 -47450300000.0 -52832700000.0 -49122900000.0 -53319900000.0 -37609400000.0 -46608600000.0 -23390300000.0 -9035750000.0 -41588100000.0 -120392000000.0 -19200400000.0 -9035750000.0 -21460300000.0 -16800300000.0 -14918100000.0 -22918700000.0 -13958800000.0 -18652500000.0 -12573200000.0 -23989200000.0 -11843800000.0 -21233200000.0 -10911300000.0 -24658900000.0 -9216730000.0 -28570100000.0 -21524100000.0 -41911600000.0 -37831800000.0 -53218200000.0 -50765100000.0 -54597600000.0 -50378000000.0 -39538300000.0 -31562000000.0 -36066100000.0 -37398500000.0 -36838400000.0 -18987400000.0 -9246100000.0 -9167410000.0 -9251040000.0 -9136880000.0 -9574310000.0 -50566200000.0 -148615000000.0 -81466700000.0 -50277400000.0 -37685500000.0 -29973100000.0 -10209000000.0 -9040820000.0 -9035760000.0 -9042630000.0 -9037210000.0 -9035770000.0 -10952300000.0 -16977500000.0 -20966200000.0 -30249300000.0 -47683600000.0 -81405300000.0 -73950800000.0 -9352820000.0 -9752360000.0 -10032900000.0 -14346200000.0 -24761300000.0 -33207300000.0 -37388000000.0 -39764600000.0 -41825900000.0 -43037700000.0 -40976000000.0 -40302600000.0 -39272200000.0 -43234200000.0 -40455800000.0 -43863600000.0 -32026200000.0 -38723000000.0 -20780400000.0 -9035750000.0 -93863100000.0 -17216100000.0 -9035750000.0 -18535900000.0 -16015400000.0 -13405600000.0 -20797500000.0 -12743100000.0 -16239200000.0 -11434400000.0 -20414300000.0 -11110000000.0 -18558400000.0 -10619000000.0 -21313000000.0 -9184850000.0 -21776000000.0 -17220600000.0 -32883100000.0 -29802000000.0 -41857900000.0 -39916500000.0 -42795000000.0 -39067900000.0 -30874900000.0 -26050500000.0 -29900500000.0 -30743600000.0 -29856700000.0 -15358700000.0 -9224210000.0 -9154020000.0 -9232070000.0 -9124140000.0 -9534850000.0 -43586700000.0 -116218000000.0 -64397600000.0 -39956700000.0 -29987300000.0 -23977800000.0 -9884100000.0 -9040290000.0 -9035760000.0 -9040570000.0 -35749600000.0 -9036740000.0 -9035770000.0 -10325900000.0 -14937800000.0 -17430200000.0 -23756900000.0 -35910500000.0 -59733700000.0 -55664100000.0 -9271750000.0 -9503100000.0 -9743630000.0 -11927800000.0 -19212300000.0 -25306000000.0 -28349200000.0 -30188000000.0 -31724000000.0 -32912300000.0 -31723200000.0 -31447700000.0 -30757300000.0 -33483400000.0 -31611200000.0 -34139200000.0 -25822300000.0 -30451600000.0 -17745500000.0 -9035750000.0 -28826900000.0 -68607100000.0 -14977000000.0 -9035750000.0 -15723800000.0 -14538400000.0 -12040400000.0 -17954100000.0 -11613000000.0 -14027300000.0 -10563500000.0 -17005000000.0 -10469100000.0 -15846000000.0 -10234000000.0 -17868800000.0 -9145690000.0 -16872500000.0 -14128400000.0 -25125200000.0 -22987400000.0 -31604900000.0 -30193400000.0 -32183300000.0 -29294300000.0 -23587000000.0 -20976900000.0 -23777300000.0 -24276000000.0 -23402300000.0 -12805000000.0 -9184070000.0 -9129020000.0 -9191440000.0 -9104130000.0 -9435180000.0 -34836100000.0 -84553700000.0 -47882000000.0 -30391300000.0 -23222200000.0 -18936900000.0 -9661350000.0 -9039330000.0 -9035760000.0 -9038910000.0 -9036320000.0 -9035760000.0 -9772870000.0 -12629100000.0 -13971900000.0 -9185690000.0 -9298460000.0 -9454670000.0 -10428200000.0 -14678400000.0 -18328000000.0 -22535600000.0 -24081800000.0 -19162500000.0 -21860600000.0 -14343100000.0 -9035750000.0 -44076800000.0 -9035750000.0 -12976800000.0 -12516100000.0 -14542900000.0 -11946200000.0 -9873940000.0 -13713300000.0 -9871530000.0 -13092000000.0 -9775420000.0 -14319900000.0 -9102190000.0 -13225000000.0 -11788400000.0 -18242900000.0 -17002900000.0 -22128100000.0 -21271100000.0 -9129440000.0 -9094760000.0 -9134420000.0 -9078490000.0 -9290070000.0 -24810300000.0 -53532600000.0 -14619300000.0 -9423810000.0 -9038010000.0 -9035750000.0 -9037520000.0 -17619800000.0 -24720300000.0 -38778500000.0 -36873000000.0 -20157500000.0 -21304500000.0 -22236000000.0 -23069400000.0 -22476000000.0 -22390500000.0 -21998200000.0 -23583200000.0 -21099900000.0 -12599200000.0 -10777500000.0 -10541300000.0 -22425600000.0 -20624000000.0 -17284500000.0 -16067400000.0 -17731200000.0 -17986900000.0 -17373800000.0 -10995900000.0 -31853300000.0 -21440000000.0 -17164200000.0 -9035930000.0 -9035760000.0 -9262620000.0 -10169300000.0 -10570000000.0 -11699000000.0 -13904500000.0 -18290100000.0 -17753500000.0 -9083780000.0 -9115700000.0 -9166430000.0 -9431230000.0 -10749900000.0 -11894000000.0 -12468700000.0 -12834100000.0 -13127400000.0 -13403300000.0 -13231000000.0 -13213000000.0 -13091500000.0 -13582200000.0 -13265300000.0 -13755000000.0 -12219100000.0 -13056700000.0 -10708300000.0 -9035750000.0 -12845600000.0 -19952000000.0 -10153100000.0 -9035750000.0 -10263200000.0 -10149000000.0 -9574690000.0 -10782000000.0 -9503110000.0 -9938240000.0 -9288800000.0 -10490400000.0 -9294270000.0 -10304400000.0 -9270170000.0 -10690700000.0 -9056660000.0 -10284900000.0 -9861490000.0 -11870800000.0 -11486700000.0 -13089700000.0 -12818200000.0 -13175100000.0 -12602600000.0 -11565800000.0 -11226300000.0 -11746100000.0 -11821100000.0 -11617700000.0 -9614560000.0 -9065690000.0 -9054620000.0 -9067310000.0 -9049350000.0 -9117210000.0 -14019400000.0 -22907500000.0 -16138100000.0 -12878800000.0 -11539700000.0 -10743600000.0 -9159220000.0 -9036470000.0 -9035750000.0 -9036290000.0 
SCALARS Shear_Stress float 1
LOOKUP_TABLE default
3154500000.0 49212000000.0 37597700000.0 22060200000.0 53379600000.0 23337400000.0 55618600000.0 55872700000.0 58470500000.0 56094300000.0 53583800000.0 20785700000.0 62568800000.0 29484800000.0 6157190000.0 13383500000.0 59965800000.0 91897300000.0 25956500000.0 14626500000.0 2899310000.0 34731800000.0 39831600000.0 88192700000.0 40862700000.0 66833900000.0 32327000000.0 60708700000.0 35265300000.0 18644700000.0 345286000.0 115149000000.0 152639000000.0 106555000000.0 109666000000.0 21728600000.0 88839400000.0 30601300000.0 58483700000.0 67374300000.0 11624400000.0 125187000000.0 106894000000.0 6093860000.0 17475600000.0 4779450000.0 943417000.0 13298500000.0 71571700000.0 129755000000.0 142176000000.0 171137000000.0 98287600000.0 177039000000.0 117517000000.0 105242000000.0 34428000000.0 34624600000.0 92062800000.0 2142070000.0 48147100000.0 48818400000.0 137107000000.0 56897700000.0 43566800000.0 69393800000.0 19372300000.0 14637700000.0 2640930000.0 105395000000.0 178413000000.0 139401000000.0 179196000000.0 108833000000.0 179578000000.0 217144000000.0 176843000000.0 57227300000.0 165350000000.0 145764000000.0 70992900000.0 222293000000.0 42444600000.0 6913980000.0 40668100000.0 16422200000.0 12353500000.0 104413000000.0 98352200000.0 166149000000.0 231551000000.0 105063000000.0 226217000000.0 232968000000.0 199690000000.0 93366900000.0 235230000000.0 135479000000.0 114818000000.0 72571600000.0 77086800000.0 42191100000.0 27710400000.0 4126640000.0 9283810000.0 135553000000.0 189390000000.0 34805200000.0 42186200000.0 36547300000.0 133216000000.0 178103000000.0 286049000000.0 310437000000.0 354705000000.0 283110000000.0 328062000000.0 259756000000.0 308465000000.0 196450000000.0 475605000000.0 216297000000.0 113746000000.0 56551000000.0 7011680000.0 168247000000.0 180370000000.0 73038000000.0 83895800000.0 89328500000.0 387991000000.0 255080000000.0 437803000000.0 354259000000.0 433322000000.0 376284000000.0 417416000000.0 382100000000.0 355099000000.0 353097000000.0 440878000000.0 167855000000.0 88909800000.0 28315100000.0 12966300000.0 52466300000.0 267852000000.0 595187000000.0 474043000000.0 481083000000.0 467185000000.0 433269000000.0 390375000000.0 339276000000.0 175737000000.0 323172000000.0 127673000000.0 78861200000.0 52305300000.0 13740300000.0 958081000.0 27825900000.0 207620000000.0 169020000000.0 131988000000.0 213906000000.0 605307000000.0 410250000000.0 491334000000.0 498447000000.0 476340000000.0 429714000000.0 397804000000.0 361606000000.0 266467000000.0 212914000000.0 111135000000.0 191557000000.0 172096000000.0 192598000000.0 109603000000.0 29355500000.0 22611600000.0 255512000000.0 181880000000.0 308088000000.0 529401000000.0 322027000000.0 272130000000.0 268499000000.0 415932000000.0 433310000000.0 495107000000.0 496987000000.0 501967000000.0 494201000000.0 467872000000.0 438342000000.0 322007000000.0 154265000000.0 100061000000.0 106602000000.0 43765500000.0 16737700000.0 55239400000.0 135866000000.0 302370000000.0 210105000000.0 315308000000.0 446768000000.0 496400000000.0 472167000000.0 378464000000.0 218037000000.0 77876000000.0 74443800000.0 42123000000.0 17780900000.0 12832500000.0 62436200000.0 58061300000.0 94387900000.0 311810000000.0 245199000000.0 15090500000.0 155442000000.0 242961000000.0 220314000000.0 351183000000.0 461449000000.0 487957000000.0 429385000000.0 287849000000.0 182746000000.0 118572000000.0 44392200000.0 41603800000.0 1103790000.0 23580300000.0 33704200000.0 72127000000.0 105779000000.0 374683000000.0 350256000000.0 14410900000.0 146679000000.0 218330000000.0 204152000000.0 184133000000.0 247684000000.0 281950000000.0 384688000000.0 424603000000.0 475599000000.0 479050000000.0 465470000000.0 423941000000.0 361009000000.0 262670000000.0 85056200000.0 8840980000.0 52701900000.0 89515700000.0 120757000000.0 143009000000.0 118718000000.0 21357900000.0 181445000000.0 183683000000.0 334940000000.0 466049000000.0 466522000000.0 357734000000.0 150554000000.0 7095620000.0 63165800000.0 127518000000.0 112383000000.0 167740000000.0 141169000000.0 188092000000.0 163219000000.0 198336000000.0 441007000000.0 439443000000.0 216126000000.0 170327000000.0 201922000000.0 182270000000.0 121587000000.0 219304000000.0 411274000000.0 486668000000.0 436483000000.0 244728000000.0 115736000000.0 48923600000.0 29431900000.0 56266200000.0 122707000000.0 198232000000.0 218672000000.0 228304000000.0 506342000000.0 477412000000.0 300842000000.0 65300000000.0 128801000000.0 1339740000.0 99241400000.0 171359000000.0 309013000000.0 436258000000.0 490224000000.0 522136000000.0 488501000000.0 480266000000.0 381167000000.0 228078000000.0 12742200000.0 93165900000.0 205697000000.0 256575000000.0 265744000000.0 257096000000.0 384827000000.0 254479000000.0 452128000000.0 389536000000.0 35451800000.0 32732400000.0 308950000000.0 567211000000.0 539319000000.0 454393000000.0 67949300000.0 47053600000.0 81899200000.0 170168000000.0 291623000000.0 303908000000.0 374755000000.0 312939000000.0 366357000000.0 301998000000.0 311246000000.0 563070000000.0 34308100000.0 761304000000.0 239672000000.0 64885500000.0 146737000000.0 497413000000.0 589060000000.0 571505000000.0 184422000000.0 14086300000.0 17723100000.0 17331900000.0 138859000000.0 478730000000.0 465479000000.0 378863000000.0 596579000000.0 159314000000.0 140971000000.0 226559000000.0 730011000000.0 78101100000.0 57548800000.0 53709500000.0 187935000000.0 286114000000.0 416849000000.0 729275000000.0 770387000000.0 635531000000.0 678582000000.0 616008000000.0 21654000000.0 15181700000.0 8430200000.0 240561000000.0 357329000000.0 698197000000.0 811190000000.0 491102000000.0 430414000000.0 338450000000.0 581044000000.0 110598000000.0 374293000000.0 398544000000.0 218567000000.0 172519000000.0 345313000000.0 481961000000.0 741658000000.0 891160000000.0 97701800000.0 64545600000.0 85227400000.0 170755000000.0 14847400000.0 76692400000.0 366757000000.0 770869000000.0 295808000000.0 717869000000.0 434161000000.0 44921100000.0 612627000000.0 208744000000.0 340154000000.0 488847000000.0 336769000000.0 584430000000.0 275969000000.0 106345000000.0 262824000000.0 127838000000.0 76527400000.0 260070000000.0 66003700000.0 579365000000.0 482428000000.0 347151000000.0 555045000000.0 49713800000.0 212788000000.0 883208000000.0 970103000000.0 424313000000.0 606676000000.0 533804000000.0 759763000000.0 564389000000.0 256259000000.0 871603000000.0 551808000000.0 253298000000.0 345272000000.0 54006500000.0 29819700000.0 53260900000.0 29831300000.0 183122000000.0 281777000000.0 371399000000.0 756265000000.0 159995000000.0 35180600000.0 467505000000.0 854657000000.0 885735000000.0 589579000000.0 471217000000.0 620322000000.0 339000000000.0 345126000000.0 89548100000.0 323456000000.0 411548000000.0 507852000000.0 198332000000.0 47185000000.0 70516800000.0 146061000000.0 269193000000.0 451088000000.0 558378000000.0 331331000000.0 153147000000.0 202212000000.0 19849200000.0 154755000000.0 720206000000.0 963208000000.0 638317000000.0 654857000000.0 894934000000.0 1.07972e+12 30053800000.0 470422000000.0 118299000000.0 39222300000.0 168485000000.0 171939000000.0 295907000000.0 386977000000.0 1.0101e+12 35826300000.0 47871200000.0 163920000000.0 394558000000.0 502580000000.0 828094000000.0 296222000000.0 525943000000.0 700216000000.0 663767000000.0 799496000000.0 579796000000.0 283186000000.0 206054000000.0 728912000000.0 208942000000.0 82950700000.0 72083900000.0 327131000000.0 443435000000.0 877464000000.0 215277000000.0 347306000000.0 757239000000.0 1.56624e+12 46267500000.0 93594300000.0 155187000000.0 122844000000.0 2688560000.0 709025000000.0 746496000000.0 745195000000.0 700100000000.0 676468000000.0 83017600000.0 126835000000.0 58242200000.0 396450000000.0 1.03893e+12 144826000000.0 300201000000.0 484578000000.0 483515000000.0 718442000000.0 842830000000.0 645569000000.0 80762800000.0 507073000000.0 557690000000.0 1.05697e+12 181496000000.0 192343000000.0 242553000000.0 592371000000.0 792308000000.0 717578000000.0 531689000000.0 378943000000.0 94748200000.0 292316000000.0 482258000000.0 92630300000.0 179532000000.0 439372000000.0 641448000000.0 794342000000.0 1.32469e+12 406202000000.0 107613000000.0 48203300000.0 783384000000.0 555990000000.0 502708000000.0 233689000000.0 311485000000.0 440893000000.0 724486000000.0 797516000000.0 829087000000.0 764674000000.0 617274000000.0 320135000000.0 30554600000.0 20001500000.0 15621400000.0 261000000000.0 1.32661e+12 653211000000.0 283462000000.0 591625000000.0 630095000000.0 716404000000.0 807559000000.0 917543000000.0 1.34436e+12 103402000000.0 856164000000.0 839052000000.0 78451700000.0 1.10311e+12 881580000000.0 859434000000.0 123126000000.0 453680000000.0 720835000000.0 609299000000.0 183089000000.0 450149000000.0 65754300000.0 506749000000.0 347224000000.0 666425000000.0 822655000000.0 756844000000.0 685928000000.0 599001000000.0 484036000000.0 355424000000.0 134597000000.0 65381400000.0 1.18766e+12 704491000000.0 114695000000.0 231324000000.0 505545000000.0 573015000000.0 606111000000.0 731434000000.0 935182000000.0 561279000000.0 392620000000.0 305420000000.0 61768000000.0 962731000000.0 1.08034e+12 140477000000.0 565606000000.0 554831000000.0 670228000000.0 686173000000.0 788928000000.0 790961000000.0 689541000000.0 642421000000.0 517764000000.0 266558000000.0 108536000000.0 186489000000.0 251015000000.0 722333000000.0 312627000000.0 36458000000.0 420246000000.0 512440000000.0 344693000000.0 427872000000.0 105468000000.0 922067000000.0 856058000000.0 347640000000.0 168572000000.0 166185000000.0 291237000000.0 374220000000.0 740858000000.0 799308000000.0 1.25257e+12 1.02518e+12 850906000000.0 155373000000.0 214273000000.0 415594000000.0 704222000000.0 759632000000.0 770273000000.0 792117000000.0 748214000000.0 730449000000.0 605044000000.0 451705000000.0 267771000000.0 332696000000.0 778250000000.0 788884000000.0 155914000000.0 424277000000.0 261404000000.0 21632800000.0 469491000000.0 434294000000.0 279221000000.0 446675000000.0 74564200000.0 37695700000.0 164778000000.0 916303000000.0 364503000000.0 1.11966e+12 358486000000.0 465541000000.0 122255000000.0 133619000000.0 343273000000.0 564046000000.0 723864000000.0 795050000000.0 740927000000.0 755451000000.0 711383000000.0 764722000000.0 747659000000.0 764757000000.0 773532000000.0 722580000000.0 579679000000.0 416325000000.0 426061000000.0 336495000000.0 552489000000.0 533691000000.0 610507000000.0 858168000000.0 166029000000.0 54387300000.0 194923000000.0 504788000000.0 10336600000.0 490768000000.0 393126000000.0 299667000000.0 396564000000.0 533855000000.0 462816000000.0 9390420000.0 131890000000.0 394022000000.0 561552000000.0 530234000000.0 198156000000.0 39877000000.0 69547700000.0 845101000000.0 360942000000.0 90400100000.0 518538000000.0 702288000000.0 605777000000.0 685381000000.0 742295000000.0 780065000000.0 834152000000.0 798107000000.0 815991000000.0 716886000000.0 567926000000.0 456077000000.0 434115000000.0 36296700000.0 357013000000.0 656693000000.0 161964000000.0 27419600000.0 36973400000.0 114163000000.0 315929000000.0 387474000000.0 172705000000.0 362716000000.0 469212000000.0 392849000000.0 328618000000.0 22633600000.0 61189200000.0 81340400000.0 252982000000.0 59082500000.0 450038000000.0 949761000000.0 125316000000.0 1.74802e+12 579439000000.0 212533000000.0 101407000000.0 215878000000.0 391426000000.0 615605000000.0 491846000000.0 549237000000.0 657532000000.0 824022000000.0 877001000000.0 823090000000.0 710289000000.0 568549000000.0 426878000000.0 423194000000.0 181797000000.0 117462000000.0 277894000000.0 338425000000.0 975564000000.0 21898500000.0 1249150000.0 24792800000.0 96864600000.0 317787000000.0 8432060000.0 316553000000.0 573213000000.0 488463000000.0 353748000000.0 298390000000.0 27394500000.0 19575000000.0 204910000000.0 123478000000.0 78824500000.0 161584000000.0 770956000000.0 527593000000.0 867680000000.0 769906000000.0 682736000000.0 420436000000.0 76547400000.0 315175000000.0 346840000000.0 19417100000.0 334740000000.0 333403000000.0 508866000000.0 778036000000.0 895171000000.0 900243000000.0 820622000000.0 703862000000.0 684040000000.0 544127000000.0 290077000000.0 94650800000.0 163696000000.0 252824000000.0 1.03274e+12 536637000000.0 106479000000.0 118733000000.0 101240000000.0 337768000000.0 495333000000.0 396464000000.0 743948000000.0 297922000000.0 248415000000.0 187201000000.0 245770000000.0 4228350000.0 38346200000.0 37590500000.0 218931000000.0 170982000000.0 78005900000.0 122412000000.0 181933000000.0 464188000000.0 300507000000.0 603755000000.0 597738000000.0 463859000000.0 599026000000.0 358969000000.0 284584000000.0 11364000000.0 507798000000.0 89773000000.0 608056000000.0 694438000000.0 829249000000.0 876456000000.0 940882000000.0 939042000000.0 904494000000.0 803573000000.0 634234000000.0 456866000000.0 269359000000.0 70874900000.0 61120300000.0 100326000000.0 441861000000.0 322437000000.0 223557000000.0 114847000000.0 104160000000.0 818804000000.0 375502000000.0 946383000000.0 518127000000.0 125795000000.0 72482300000.0 111152000000.0 206544000000.0 39386000000.0 27589100000.0 241681000000.0 180839000000.0 113958000000.0 21232900000.0 90465900000.0 628202000000.0 415837000000.0 772674000000.0 1.19181e+12 1.00757e+12 103494000000.0 196007000000.0 707941000000.0 901185000000.0 1531350000.0 233176000000.0 531785000000.0 769619000000.0 916497000000.0 971091000000.0 954872000000.0 947135000000.0 891545000000.0 858613000000.0 766931000000.0 540754000000.0 42441100000.0 615978000000.0 1.0287e+12 8644260000.0 342713000000.0 225901000000.0 209314000000.0 15888600000.0 675937000000.0 924265000000.0 369203000000.0 972730000000.0 384337000000.0 390945000000.0 46836400000.0 71357900000.0 197679000000.0 247779000000.0 327153000000.0 61167200000.0 57454500000.0 73054600000.0 291203000000.0 265607000000.0 174167000000.0 80539700000.0 141545000000.0 386778000000.0 295095000000.0 291417000000.0 353473000000.0 671230000000.0 277671000000.0 280156000000.0 216008000000.0 128608000000.0 386041000000.0 772598000000.0 476892000000.0 467647000000.0 690650000000.0 725089000000.0 870102000000.0 960539000000.0 971979000000.0 917026000000.0 805385000000.0 705481000000.0 627419000000.0 415145000000.0 320715000000.0 402866000000.0 35501900000.0 552423000000.0 2509510000.0 223176000000.0 206268000000.0 97827000000.0 17280200000.0 234006000000.0 271050000000.0 103631000.0 1.27398e+12 310908000000.0 22220800000.0 275871000000.0 402521000000.0 741300000000.0 129725000000.0 328675000000.0 331136000000.0 274475000000.0 113957000000.0 142952000000.0 9869970000.0 445643000000.0 370175000000.0 112917000000.0 12344500000.0 91968100000.0 161774000000.0 1.17739e+12 963448000000.0 62044300000.0 583259000000.0 447091000000.0 39188000000.0 425031000000.0 42582000000.0 738289000000.0 29828900000.0 81461200000.0 614221000000.0 768906000000.0 825101000000.0 876546000000.0 924886000000.0 970564000000.0 946253000000.0 865454000000.0 735604000000.0 558248000000.0 465369000000.0 882472000000.0 1.2135e+12 235921000000.0 43512500000.0 237623000000.0 191840000000.0 136226000000.0 34138200000.0 242035000000.0 628235000000.0 277735000000.0 342296000000.0 430684000000.0 323663000000.0 285691000000.0 364730000000.0 302916000000.0 222276000000.0 134998000000.0 70546200000.0 467000000000.0 625586000000.0 431576000000.0 339757000000.0 74534200000.0 288604000000.0 326445000000.0 18437400000.0 277425000000.0 733949000000.0 61057200000.0 248444000000.0 1.02743e+12 722761000000.0 62954200000.0 369603000000.0 98977300000.0 181672000000.0 219896000000.0 691543000000.0 804201000000.0 895147000000.0 943638000000.0 930623000000.0 950020000000.0 902538000000.0 896350000000.0 825206000000.0 794846000000.0 656646000000.0 528641000000.0 250264000000.0 77424100000.0 266462000000.0 766780000000.0 460637000000.0 161258000000.0 50420900000.0 600989000000.0 1.34387e+12 1.73793e+12 1.17524e+12 888036000000.0 912422000000.0 701351000000.0 171104000000.0 40377100000.0 217392000000.0 206578000000.0 411439000000.0 231198000000.0 200245000000.0 253016000000.0 172674000000.0 193778000000.0 339927000000.0 424854000000.0 634051000000.0 843585000000.0 482670000000.0 21928600000.0 57600500000.0 325148000000.0 251003000000.0 439190000000.0 139007000000.0 582290000000.0 1.06067e+12 1.76572e+12 1.41806e+12 455892000000.0 245760000000.0 357448000000.0 195968000000.0 93646400000.0 429664000000.0 568196000000.0 688345000000.0 819455000000.0 888030000000.0 887150000000.0 831926000000.0 732512000000.0 706221000000.0 588909000000.0 561958000000.0 333864000000.0 20709700000.0 669420000000.0 559498000000.0 146351000000.0 176648000000.0 263800000000.0 207000000000.0 85811600000.0 295879000000.0 303486000000.0 221394000000.0 587227000000.0 169724000000.0 79124400000.0 187374000000.0 527290000000.0 339511000000.0 226716000000.0 188270000000.0 221034000000.0 228617000000.0 278079000000.0 644023000000.0 375777000000.0 193307000000.0 546554000000.0 771495000000.0 1.09938e+12 406455000000.0 748446000000.0 430451000000.0 106967000000.0 292875000000.0 968102000000.0 861709000000.0 228747000000.0 119960000000.0 821460000000.0 416123000000.0 198019000000.0 369025000000.0 488638000000.0 688735000000.0 699189000000.0 818698000000.0 851018000000.0 817617000000.0 739443000000.0 611184000000.0 391341000000.0 70399300000.0 28121900000.0 179406000000.0 415500000000.0 329669000000.0 6943020000.0 416957000000.0 301194000000.0 1.03443e+12 1.63695e+12 195571000000.0 258284000000.0 1.18141e+12 88168500000.0 754022000000.0 374718000000.0 94211400000.0 773591000000.0 408084000000.0 121899000000.0 287478000000.0 136464000000.0 234559000000.0 341487000000.0 44279400000.0 113222000000.0 383199000000.0 569999000000.0 804774000000.0 96709200000.0 1.32619e+12 93356000000.0 1.37118e+12 251646000000.0 536360000000.0 557411000000.0 481224000000.0 859568000000.0 877503000000.0 1.26871e+12 688223000000.0 1.4281e+12 878176000000.0 214930000000.0 100535000000.0 469509000000.0 534745000000.0 493338000000.0 706191000000.0 794241000000.0 734377000000.0 783990000000.0 691099000000.0 725697000000.0 615125000000.0 622746000000.0 474929000000.0 438512000000.0 230602000000.0 153521000000.0 21823100000.0 101333000000.0 369355000000.0 131804000000.0 329726000000.0 533390000000.0 533795000000.0 107776000000.0 1.29388e+12 1.04829e+12 535423000000.0 160831000000.0 777081000000.0 55694000000.0 919022000000.0 188435000000.0 1.16504e+12 480861000000.0 195899000000.0 301650000000.0 220549000000.0 123715000000.0 78599200000.0 210054000000.0 235344000000.0 95165100000.0 1.20464e+12 299367000000.0 82108700000.0 169624000000.0 150958000000.0 123768000000.0 1.32431e+12 656934000000.0 678319000000.0 773863000000.0 91367400000.0 49253400000.0 194352000000.0 512008000000.0 792544000000.0 945952000000.0 774457000000.0 870103000000.0 546324000000.0 202373000000.0 150183000000.0 630882000000.0 171659000000.0 557219000000.0 671865000000.0 638091000000.0 583913000000.0 486631000000.0 306012000000.0 35549700000.0 87284500000.0 37602300000.0 253623000000.0 221173000000.0 236009000000.0 598724000000.0 1.12072e+12 173415000000.0 77102900000.0 32801700000.0 205120000000.0 296192000000.0 235438000000.0 120423000000.0 121601000000.0 690149000000.0 374337000000.0 42966900000.0 179377000000.0 185422000000.0 557816000000.0 291497000000.0 30443100000.0 188622000000.0 261284000000.0 112024000000.0 230192000000.0 426529000000.0 783282000000.0 1.56182e+12 23625400000.0 77984500000.0 123705000000.0 582652000000.0 668050000000.0 366315000000.0 475316000000.0 8592680000.0 340504000000.0 1.11437e+12 1.13458e+12 1.07352e+12 1.26548e+12 588862000000.0 998544000000.0 144496000000.0 313360000000.0 44814400000.0 632364000000.0 450745000000.0 281153000000.0 538649000000.0 606895000000.0 492441000000.0 568815000000.0 529873000000.0 469222000000.0 348696000000.0 144706000000.0 20533700000.0 116657000000.0 266894000000.0 92199000000.0 6813820000.0 318862000000.0 670728000000.0 258711000000.0 1.16418e+12 510599000000.0 281652000000.0 293282000000.0 495713000000.0 867141000000.0 82014300000.0 1.34455e+12 599753000000.0 347481000000.0 678941000000.0 78520700000.0 512857000000.0 1.3413e+12 577582000000.0 164978000000.0 234905000000.0 278793000000.0 135062000000.0 82001800000.0 221720000000.0 206891000000.0 566990000000.0 713972000000.0 1.30192e+12 398164000000.0 116299000000.0 88793100000.0 271849000000.0 464214000000.0 77638600000.0 187016000000.0 222854000000.0 1.2147e+12 115587000000.0 837770000000.0 936727000000.0 930486000000.0 979038000000.0 854307000000.0 1.57353e+12 399251000000.0 401015000000.0 172778000000.0 199065000000.0 206137000000.0 723431000000.0 442821000000.0 436300000000.0 354899000000.0 454338000000.0 356941000000.0 423663000000.0 322365000000.0 353584000000.0 252182000000.0 219970000000.0 115372000000.0 13606100000.0 499073000000.0 742238000000.0 40042100000.0 84894800000.0 300908000000.0 1.26191e+12 796665000000.0 325301000000.0 303572000000.0 305836000000.0 331861000000.0 394505000000.0 224611000000.0 326107000000.0 611475000000.0 1.1662e+12 122691000000.0 655190000000.0 195252000000.0 83862400000.0 565994000000.0 262266000000.0 120447000000.0 459271000000.0 440004000000.0 140815000000.0 310936000000.0 534909000000.0 985969000000.0 975312000000.0 1.09215e+12 281737000000.0 46277100000.0 374175000000.0 540567000000.0 601285000000.0 494468000000.0 94028700000.0 338575000000.0 386730000000.0 175564000000.0 141168000000.0 492770000000.0 548482000000.0 467311000000.0 182767000000.0 36957700000.0 83665500000.0 101696000000.0 271284000000.0 191032000000.0 231436000000.0 713105000000.0 273522000000.0 374433000000.0 224133000000.0 280051000000.0 259741000000.0 240689000000.0 172494000000.0 55887800000.0 161410000000.0 43587100000.0 209032000000.0 691979000000.0 433056000000.0 491872000000.0 441724000000.0 371466000000.0 443922000000.0 61876400000.0 259198000000.0 255095000000.0 205355000000.0 156772000000.0 117496000000.0 1.21165e+12 1.10384e+12 699331000000.0 927371000000.0 251495000000.0 547910000000.0 1.36647e+12 463892000000.0 653294000000.0 331462000000.0 241219000000.0 420854000000.0 451940000000.0 394284000000.0 789211000000.0 1.34028e+12 1.54909e+12 907703000000.0 144504000000.0 383911000000.0 681690000000.0 799286000000.0 787015000000.0 584968000000.0 439692000000.0 497689000000.0 633771000000.0 171655000000.0 306657000000.0 333483000000.0 282986000000.0 345854000000.0 745301000000.0 347755000000.0 199021000000.0 37811800000.0 469868000000.0 1.03906e+12 468694000000.0 545246000000.0 44660200000.0 196043000000.0 207153000000.0 102063000000.0 181633000000.0 112621000000.0 190108000000.0 150327000000.0 189829000000.0 166739000000.0 106662000000.0 39785700000.0 373503000000.0 549234000000.0 932647000000.0 358497000000.0 271694000000.0 374832000000.0 749982000000.0 654079000000.0 130883000000.0 245822000000.0 181352000000.0 540617000000.0 909350000000.0 1.11934e+12 875760000000.0 157331000000.0 1.26425e+12 58371100000.0 778343000000.0 180575000000.0 404396000000.0 1.20374e+12 652967000000.0 176397000000.0 34540700000.0 594853000000.0 147085000000.0 670599000000.0 96090300000.0 182478000000.0 539290000000.0 1.08835e+12 1.22782e+12 1.65877e+12 445977000000.0 428798000000.0 780495000000.0 1.00237e+12 976534000000.0 854601000000.0 687068000000.0 529910000000.0 528036000000.0 504471000000.0 258026000000.0 143036000000.0 252455000000.0 342944000000.0 494987000000.0 792538000000.0 797530000000.0 538540000000.0 275268000000.0 178709000000.0 355140000000.0 626607000000.0 308026000000.0 921280000000.0 525365000000.0 9052440000.0 47444300000.0 71135500000.0 164682000000.0 122501000000.0 231710000000.0 585173000000.0 264416000000.0 1.12014e+12 821227000000.0 230658000000.0 69363200000.0 206589000000.0 83483800000.0 632013000000.0 7530290000.0 104234000000.0 375293000000.0 722324000000.0 942000000000.0 953493000000.0 649086000000.0 983043000000.0 1.23949e+12 212607000000.0 849885000000.0 963106000000.0 485141000000.0 933358000000.0 347400000000.0 10728600000.0 177224000000.0 178468000000.0 31277200000.0 94099700000.0 698495000000.0 328961000000.0 661856000000.0 804427000000.0 889822000000.0 919192000000.0 1.16208e+12 39624000000.0 872865000000.0 1.13303e+12 1.29751e+12 1.0825e+12 870256000000.0 680477000000.0 461909000000.0 906225000000.0 409578000000.0 173989000000.0 332516000000.0 528499000000.0 759556000000.0 847887000000.0 783644000000.0 536707000000.0 246741000000.0 4238930000.0 598127000000.0 741703000000.0 874190000000.0 609796000000.0 342031000000.0 103146000000.0 40828600000.0 38926300000.0 84116400000.0 208154000000.0 47940100000.0 495941000000.0 240333000000.0 325659000000.0 119339000000.0 236242000000.0 123075000000.0 210010000000.0 528793000000.0 764351000000.0 219730000000.0 159889000000.0 4680190000.0 405817000.0 66082800000.0 261760000000.0 532219000000.0 758786000000.0 851079000000.0 803882000000.0 958024000000.0 1.06934e+12 949376000000.0 1.05369e+12 33421000000.0 763939000000.0 478050000000.0 166172000000.0 168218000000.0 560651000000.0 612104000000.0 185708000000.0 429823000000.0 697274000000.0 16192600000.0 529164000000.0 861304000000.0 1.0215e+12 1.2861e+12 898000000000.0 1.11534e+12 1.26762e+12 1.38668e+12 998278000000.0 599960000000.0 12267400000.0 831239000000.0 270801000000.0 87977400000.0 67235600000.0 163427000000.0 800253000000.0 798835000000.0 672661000000.0 409116000000.0 68855500000.0 293471000000.0 219255000000.0 713302000000.0 1.04254e+12 143620000000.0 457863000000.0 110895000000.0 177976000000.0 114780000000.0 124059000000.0 28396000000.0 34562100000.0 184253000000.0 401043000000.0 147264000000.0 495566000000.0 625000000000.0 1.15933e+12 1.27268e+12 806046000000.0 560092000000.0 639375000000.0 812509000000.0 406037000000.0 305068000000.0 144481000000.0 77403100000.0 7502190000.0 164911000000.0 379229000000.0 585734000000.0 725082000000.0 785522000000.0 910186000000.0 990994000000.0 942138000000.0 684859000000.0 1.02944e+12 870034000000.0 966440000000.0 580090000000.0 191307000000.0 726881000000.0 963131000000.0 411534000000.0 313232000000.0 137987000000.0 87230700000.0 494894000000.0 143525000000.0 935481000000.0 783889000000.0 320655000000.0 875653000000.0 1.12883e+12 1.3655e+12 1.00825e+12 142245000000.0 827948000000.0 1.1013e+12 1.29246e+12 1.39349e+12 529352000000.0 410121000000.0 228696000000.0 4673910000.0 42834800000.0 78367000000.0 282921000000.0 504818000000.0 697154000000.0 674937000000.0 504117000000.0 238498000000.0 69215300000.0 310816000000.0 380858000000.0 294378000000.0 334052000000.0 573393000000.0 47025100000.0 134414000000.0 95300900000.0 541590000000.0 660663000000.0 335813000000.0 332585000000.0 457841000000.0 455879000000.0 220476000000.0 243646000000.0 114980000000.0 131728000000.0 105454000000.0 39802200000.0 86712500000.0 267406000000.0 452545000000.0 597704000000.0 704370000000.0 826887000000.0 909511000000.0 900879000000.0 813886000000.0 1.00313e+12 1.171e+12 560383000000.0 1.14881e+12 1.02799e+12 628433000000.0 149945000000.0 1.01869e+12 376870000000.0 129804000000.0 252233000.0 456490000000.0 344958000000.0 1.11946e+12 192825000000.0 1.00267e+12 705593000000.0 811722000000.0 1.13528e+12 1.36407e+12 1.39536e+12 1.03153e+12 568376000000.0 881248000000.0 1.07631e+12 1.22007e+12 1.37655e+12 299178000000.0 145142000000.0 98475100000.0 74861200000.0 185972000000.0 461138000000.0 628233000000.0 720792000000.0 740919000000.0 333836000000.0 81601200000.0 196810000000.0 473086000000.0 797023000000.0 1.02355e+12 768834000000.0 497071000000.0 297710000000.0 261377000000.0 212169000000.0 357845000000.0 718187000000.0 289185000000.0 170048000000.0 306813000000.0 182302000000.0 57800500000.0 548187000000.0 515751000000.0 288497000000.0 2039610000.0 76634400000.0 60013900000.0 45753000000.0 189547000000.0 351383000000.0 499241000000.0 621401000000.0 736238000000.0 819676000000.0 841183000000.0 809201000000.0 883984000000.0 1.01153e+12 1.30474e+12 914074000000.0 847670000000.0 841174000000.0 475831000000.0 674438000000.0 572844000000.0 167540000000.0 193287000000.0 666499000000.0 23730700000.0 675123000000.0 486495000000.0 1.18239e+12 470138000000.0 625020000000.0 539774000000.0 1.01182e+12 1.26678e+12 1.44037e+12 1.31427e+12 1.03753e+12 794816000000.0 881692000000.0 931911000000.0 172998000000.0 18960800000.0 366504000000.0 97066700000.0 382134000000.0 553732000000.0 630076000000.0 653759000000.0 621180000000.0 516968000000.0 202093000.0 217667000000.0 411965000000.0 459096000000.0 654102000000.0 37190500000.0 423818000000.0 45347100000.0 244759000000.0 258218000000.0 183104000000.0 6512830000.0 248918000000.0 191420000000.0 91076200000.0 160433000000.0 623518000000.0 784295000000.0 288569000000.0 70707800000.0 346926000000.0 134698000000.0 378393000000.0 463535000000.0 399459000000.0 241858000000.0 58738500000.0 752189000000.0 791363000000.0 778999000000.0 764005000000.0 705567000000.0 594134000000.0 898070000000.0 383051000000.0 545186000000.0 328466000000.0 1.00529e+12 402738000000.0 152308000000.0 659178000000.0 603858000000.0 75594500000.0 161233000000.0 602457000000.0 54985000000.0 606983000000.0 1.19771e+12 316493000000.0 927203000000.0 228346000000.0 727519000000.0 1.0543e+12 1.38078e+12 1.3544e+12 1.21118e+12 996906000000.0 798289000000.0 695219000000.0 1.00444e+12 1.33413e+12 14444600000.0 559224000000.0 416017000000.0 138937000000.0 217988000000.0 53154300000.0 419070000000.0 533565000000.0 568658000000.0 554487000000.0 494165000000.0 381338000000.0 210854000000.0 183617000000.0 199207000000.0 533875000000.0 112861000000.0 531920000000.0 52602500000.0 400947000000.0 343958000000.0 301509000000.0 723563000000.0 267289000000.0 350176000000.0 125311000000.0 327957000000.0 291865000000.0 361508000000.0 449840000000.0 450336000000.0 368425000000.0 199021000000.0 37881600000.0 15557500000.0 33399600000.0 140746000000.0 278461000000.0 422889000000.0 548324000000.0 662974000000.0 781962000000.0 741927000000.0 672460000000.0 741779000000.0 295738000000.0 84799900000.0 595723000000.0 42382700000.0 958535000000.0 947348000000.0 572034000000.0 16832600000.0 435758000000.0 16546400000.0 12333800000.0 301039000000.0 345925000000.0 260251000000.0 313217000000.0 934168000000.0 799690000000.0 755821000000.0 198693000000.0 720319000000.0 1.22558e+12 1.28431e+12 1.24446e+12 1.11883e+12 940530000000.0 533690000000.0 331213000000.0 285804000000.0 755671000000.0 180512000000.0 419960000000.0 340959000000.0 149418000000.0 334593000000.0 295650000000.0 482704000000.0 517431000000.0 509437000000.0 470978000000.0 400807000000.0 294118000000.0 154098000000.0 494155000.0 134948000000.0 366400000000.0 301087000000.0 227109000000.0 606573000000.0 35542800000.0 680413000000.0 624486000000.0 499804000000.0 371503000000.0 461804000000.0 293978000000.0 171668000000.0 360469000000.0 404911000000.0 423771000000.0 455229000000.0 475835000000.0 433164000000.0 311956000000.0 173221000000.0 84687100000.0 75161700000.0 132506000000.0 239442000000.0 367547000000.0 496769000000.0 613626000000.0 707695000000.0 765082000000.0 784202000000.0 824327000000.0 881558000000.0 795849000000.0 21511400000.0 55009300000.0 333240000000.0 786731000000.0 1.09407e+12 812165000000.0 251582000000.0 610198000000.0 906932000000.0 338574000000.0 65324800000.0 68438000000.0 159619000000.0 181157000000.0 784625000000.0 294190000000.0 1.04061e+12 41012600000.0 671075000000.0 612588000000.0 990426000000.0 1.13255e+12 1.1795e+12 1.14607e+12 758148000000.0 608498000000.0 521763000000.0 663598000000.0 268612000000.0 222464000000.0 192496000000.0 332235000000.0 283365000000.0 88004700000.0 257832000000.0 517247000000.0 550938000000.0 516064000000.0 473653000000.0 419302000000.0 346874000000.0 254233000000.0 147689000000.0 45274500000.0 20294300000.0 61811600000.0 169317000000.0 699573000000.0 100682000000.0 201433000000.0 222468000000.0 669845000000.0 417946000000.0 558221000000.0 582864000000.0 80682400000.0 13215600000.0 210116000000.0 193397000.0 224167000000.0 385248000000.0 462228000000.0 496573000000.0 507855000000.0 482263000000.0 404909000000.0 299532000000.0 202188000000.0 145141000000.0 149146000000.0 217408000000.0 330367000000.0 455794000000.0 574056000000.0 674888000000.0 750460000000.0 798276000000.0 825465000000.0 831218000000.0 978147000000.0 962826000000.0 710132000000.0 46416000000.0 99861400000.0 162287000000.0 760874000000.0 655597000000.0 744099000000.0 487793000000.0 1.08621e+12 607365000000.0 558778000000.0 269859000000.0 108765000000.0 67485100000.0 41454100000.0 791129000000.0 40205900000.0 479222000000.0 982061000000.0 832869000000.0 265765000000.0 534047000000.0 469263000000.0 741554000000.0 936645000000.0 1.05245e+12 1.094e+12 1.04882e+12 916454000000.0 786891000000.0 698521000000.0 765943000000.0 715169000000.0 362343000000.0 124386000000.0 263688000000.0 317258000000.0 258481000000.0 133927000000.0 97888700000.0 394779000000.0 324277000000.0 246352000000.0 167146000000.0 100704000000.0 49219400000.0 11063900000.0 48274800000.0 122633000000.0 765756000000.0 263296000000.0 175204000000.0 121184000000.0 262242000000.0 405324000000.0 417750000000.0 453243000000.0 232726000000.0 200596000000.0 112502000000.0 72381000000.0 278162000000.0 420535000000.0 501847000000.0 305096000000.0 423744000000.0 547258000000.0 657152000000.0 741501000000.0 804703000000.0 852698000000.0 892057000000.0 931318000000.0 922693000000.0 625093000000.0 21849100000.0 12395200000.0 518849000000.0 516711000000.0 647750000000.0 356017000000.0 979003000000.0 1.03787e+12 360961000000.0 176026000000.0 178072000000.0 28981200000.0 50686900000.0 79706800000.0 195342000000.0 234048000000.0 304242000000.0 623459000000.0 798695000000.0 652580000000.0 542460000000.0 570435000000.0 749413000000.0 899194000000.0 1.07529e+12 1.01515e+12 942106000000.0 893799000000.0 873838000000.0 891553000000.0 689976000000.0 612185000000.0 527056000000.0 459508000000.0 250056000000.0 186224000000.0 129734000000.0 78400700000.0 51912300000.0 84327300000.0 117165000000.0 213208000000.0 3347660000.0 88944000000.0 265518000000.0 149979000000.0 184239000000.0 198647000000.0 77018100000.0 160855000000.0 334525000000.0 541125000000.0 544686000000.0 506817000000.0 418974000000.0 315383000000.0 221255000000.0 175545000000.0 212127000000.0 654531000000.0 736151000000.0 801460000000.0 858707000000.0 914765000000.0 976624000000.0 1.05227e+12 1.04392e+12 580856000000.0 23701900000.0 256017000000.0 600273000000.0 517191000000.0 404906000000.0 30396200000.0 1.1983e+12 838464000000.0 356956000000.0 70073900000.0 40769500000.0 10734900000.0 70074100000.0 27532400000.0 131345000000.0 197050000000.0 140654000000.0 345694000000.0 378280000000.0 460521000000.0 516980000000.0 610397000000.0 754960000000.0 992695000000.0 1.02732e+12 1.02557e+12 984857000000.0 923257000000.0 827435000000.0 636240000000.0 408577000000.0 268952000000.0 316875000000.0 349089000000.0 320493000000.0 232804000000.0 79197200000.0 805005000000.0 657515000000.0 540361000000.0 456502000000.0 385849000000.0 318021000000.0 123946000000.0 75457700000.0 53837500000.0 61586800000.0 197779000000.0 811299000000.0 119290000000.0 354310000000.0 341442000000.0 262331000000.0 196158000000.0 164153000000.0 227192000000.0 221712000000.0 456259000000.0 531424000000.0 570219000000.0 580270000000.0 557420000000.0 445297000000.0 309439000000.0 228642000000.0 233426000000.0 299261000000.0 408884000000.0 536805000000.0 794708000000.0 847238000000.0 902620000000.0 964798000000.0 1.03295e+12 1.09823e+12 1.00509e+12 894786000000.0 533186000000.0 80424500000.0 448977000000.0 459377000000.0 420657000000.0 227934000000.0 494625000000.0 380452000000.0 429063000000.0 71812600000.0 56793700000.0 9416320000.0 107140000000.0 26909800000.0 55655200000.0 545101000000.0 522762000000.0 391487000000.0 437726000000.0 528163000000.0 873770000000.0 947387000000.0 973160000000.0 959602000000.0 891622000000.0 947760000000.0 692229000000.0 562182000000.0 410671000000.0 341174000000.0 403396000000.0 465123000000.0 401207000000.0 332873000000.0 236309000000.0 865312000000.0 678964000000.0 546216000000.0 453989000000.0 379913000000.0 312026000000.0 247075000000.0 184344000000.0 564125000000.0 246178000000.0 56520900000.0 31059300000.0 146421000000.0 241176000000.0 210040000000.0 169087000000.0 154261000000.0 208926000000.0 70818200000.0 250216000000.0 388161000000.0 488440000000.0 555178000000.0 597630000000.0 625153000000.0 631460000000.0 457417000000.0 309344000000.0 289528000000.0 322038000000.0 406437000000.0 537823000000.0 672433000000.0 739770000000.0 919629000000.0 974018000000.0 1.00371e+12 974571000000.0 883302000000.0 828455000000.0 127681000000.0 668186000000.0 554572000000.0 121146000000.0 376241000000.0 195596000000.0 273277000000.0 39132800000.0 82707400000.0 24957900000.0 384583000000.0 392312000000.0 363854000000.0 643310000000.0 759522000000.0 842799000000.0 883757000000.0 892958000000.0 831239000000.0 779508000000.0 908366000000.0 911968000000.0 609526000000.0 485713000000.0 422451000000.0 461612000000.0 625247000000.0 523452000000.0 447365000000.0 406062000000.0 363688000000.0 875450000000.0 674858000000.0 539914000000.0 444885000000.0 365599000000.0 292861000000.0 223142000000.0 153542000000.0 85327400000.0 23772000000.0 23246000000.0 15102500000.0 119815000000.0 282927000000.0 147724000000.0 34820700000.0 52303000000.0 114913000000.0 136518000000.0 112930000000.0 318332000000.0 39509700000.0 161046000000.0 309294000000.0 424022000000.0 508824000000.0 569213000000.0 616080000000.0 670385000000.0 776868000000.0 485197000000.0 391953000000.0 373986000000.0 417806000000.0 540806000000.0 725351000000.0 752001000000.0 782747000000.0 820894000000.0 866365000000.0 947726000000.0 933807000000.0 820242000000.0 804078000000.0 718782000000.0 498903000000.0 126373000000.0 97439900000.0 263462000000.0 447854000000.0 125378000000.0 107076000000.0 147919000000.0 185507000000.0 113094000000.0 549363000000.0 454020000000.0 572709000000.0 672366000000.0 751018000000.0 797856000000.0 813656000000.0 724923000000.0 773636000000.0 907376000000.0 821338000000.0 472674000000.0 419094000000.0 406831000000.0 681494000000.0 561308000000.0 493192000000.0 450080000000.0 444469000000.0 456545000000.0 840694000000.0 646560000000.0 520048000000.0 419594000000.0 331424000000.0 253675000000.0 179947000000.0 104151000000.0 25862500000.0 47157500000.0 87629400000.0 43139000000.0 56606200000.0 112954000000.0 56666600000.0 9584680000.0 52521300000.0 60851400000.0 103380000000.0 171141000000.0 384075000000.0 125469000000.0 65659900000.0 223614000000.0 345880000000.0 439396000000.0 507408000000.0 528478000000.0 806086000000.0 752857000000.0 754628000000.0 778813000000.0 815304000000.0 860432000000.0 909000000000.0 792474000000.0 730778000000.0 702710000000.0 600536000000.0 410421000000.0 128275000000.0 111258000000.0 151980000000.0 12192400000.0 306004000000.0 41904500000.0 119932000000.0 89130300000.0 74355700000.0 58533400000.0 60428400000.0 407058000000.0 421876000000.0 539868000000.0 622214000000.0 679595000000.0 724333000000.0 776538000000.0 680996000000.0 696094000000.0 836787000000.0 879502000000.0 717854000000.0 348993000000.0 272279000000.0 195292000000.0 124037000000.0 46437700000.0 36822800000.0 105516000000.0 120144000000.0 79818300000.0 21077800000.0 8624710000.0 44955900000.0 28562100000.0 99082500000.0 419773000000.0 186359000000.0 16766700000.0 138292000000.0 553915000000.0 583885000000.0 607665000000.0 743096000000.0 351454000000.0 380924000000.0 433140000000.0 687204000000.0 689139000000.0 713728000000.0 746573000000.0 786576000000.0 828972000000.0 866169000000.0 877970000000.0 634861000000.0 610801000000.0 402852000000.0 145219000000.0 222862000000.0 251997000000.0 283646000000.0 360238000000.0 366154000000.0 49431900000.0 18519900000.0 29952300000.0 13516500000.0 29545600000.0 593357000000.0 450489000000.0 535638000000.0 588689000000.0 613629000000.0 734202000000.0 717496000000.0 648164000000.0 620799000000.0 765509000000.0 806791000000.0 276183000000.0 640691000000.0 580720000000.0 499003000000.0 449993000000.0 431960000000.0 452693000000.0 515919000000.0 768475000000.0 601940000000.0 481243000000.0 368210000000.0 99301700000.0 149037000000.0 12147900000.0 33165400000.0 27778100000.0 11564200000.0 53691700000.0 2027310000.0 421021000000.0 222330000000.0 265905000000.0 364849000000.0 438762000000.0 490887000000.0 524595000000.0 546392000000.0 594218000000.0 660141000000.0 239131000000.0 352869000000.0 422199000000.0 776729000000.0 659376000000.0 697841000000.0 741292000000.0 781116000000.0 815887000000.0 749868000000.0 694785000000.0 508623000000.0 331955000000.0 259766000000.0 233422000000.0 276487000000.0 300948000000.0 220646000000.0 7227310000.0 525411000000.0 396685000000.0 655736000000.0 656561000000.0 652862000000.0 615299000000.0 561475000000.0 659434000000.0 703171000000.0 815471000000.0 598706000000.0 199802000000.0 567167000000.0 615483000000.0 491049000000.0 421933000000.0 388565000000.0 389323000000.0 424781000000.0 517509000000.0 645759000000.0 529179000000.0 410395000000.0 283912000000.0 190030000000.0 129140000000.0 67626400000.0 13405400000.0 152376000000.0 120756000000.0 79747400000.0 54369500000.0 45611800000.0 24528500000.0 28665000000.0 122501000000.0 121757000000.0 80816600000.0 63547900000.0 191046000000.0 293633000000.0 371009000000.0 426020000000.0 464992000000.0 497928000000.0 540765000000.0 585191000000.0 552452000000.0 211574000000.0 365342000000.0 728820000000.0 634022000000.0 610514000000.0 631030000000.0 639871000000.0 692273000000.0 743200000000.0 718603000000.0 639390000000.0 604166000000.0 573707000000.0 323162000000.0 291471000000.0 285269000000.0 3031380000.0 62379000000.0 5228390000.0 418806000000.0 497948000000.0 533768000000.0 581217000000.0 582910000000.0 588472000000.0 577891000000.0 493942000000.0 555277000000.0 709963000000.0 736810000000.0 297566000000.0 293038000000.0 583471000000.0 451243000000.0 362749000000.0 323141000000.0 314737000000.0 328481000000.0 367790000000.0 444809000000.0 491352000000.0 423278000000.0 317859000000.0 164626000000.0 89463900000.0 70293500000.0 15231400000.0 84216300000.0 156603000000.0 185788000000.0 179083000000.0 148934000000.0 110840000000.0 74031900000.0 31454800000.0 35459100000.0 140704000000.0 233473000000.0 389722000000.0 238557000000.0 125811000000.0 4451660000.0 126848000000.0 228076000000.0 305767000000.0 362411000000.0 403494000000.0 436518000000.0 475585000000.0 528446000000.0 555241000000.0 399255000000.0 156875000000.0 686477000000.0 596503000000.0 543327000000.0 545201000000.0 557028000000.0 591435000000.0 648997000000.0 672940000000.0 597231000000.0 557756000000.0 531878000000.0 506621000000.0 449778000000.0 410850000000.0 298191000000.0 220607000000.0 51083000000.0 47867000000.0 360673000000.0 451754000000.0 506331000000.0 518892000000.0 528143000000.0 532904000000.0 571311000000.0 595208000000.0 667353000000.0 816095000000.0 392010000000.0 525732000000.0 330345000000.0 251043000000.0 277540000000.0 319980000000.0 366024000000.0 381536000000.0 337341000000.0 236236000000.0 3266860000.0 17373000000.0 29422600000.0 73413500000.0 154932000000.0 195388000000.0 206769000000.0 188922000000.0 151430000000.0 100843000000.0 36525200000.0 54559000000.0 331480000000.0 239795000000.0 152706000000.0 36143000000.0 78872300000.0 174806000000.0 249636000000.0 303426000000.0 338915000000.0 466540000000.0 714233000000.0 569157000000.0 473933000000.0 434547000000.0 459182000000.0 515341000000.0 581962000000.0 521816000000.0 482134000000.0 466910000000.0 426863000000.0 378013000000.0 318920000000.0 292944000000.0 174559000000.0 12534300000.0 353230000000.0 331592000000.0 430143000000.0 458100000000.0 479049000000.0 434852000000.0 443886000000.0 379394000000.0 234430000000.0 3457490000.0 180964000000.0 267571000000.0 250555000000.0 243027000000.0 116406000000.0 90153300000.0 153584000000.0 184267000000.0 208073000000.0 203317000000.0 198790000000.0 382625000000.0 183762000000.0 146407000000.0 52964000000.0 51744500000.0 362558000000.0 383452000000.0 412708000000.0 464245000000.0 522603000000.0 818104000000.0 174407000000.0 260373000000.0 349133000000.0 446705000000.0 535662000000.0 604473000000.0 555751000000.0 425781000000.0 400933000000.0 350288000000.0 298545000000.0 248935000000.0 295586000000.0 13939100000.0 11314000000.0 284869000000.0 309851000000.0 485269000000.0 387496000000.0 372972000000.0 312760000000.0 149454000000.0 67342500000.0 280276000000.0 502005000000.0 331510000000.0 75716700000.0 59871000000.0 121718000000.0 152029000000.0 176503000000.0 203580000000.0 234001000000.0 265824000000.0 292945000000.0 305046000000.0 293020000000.0 213664000000.0 263397000000.0 170934000000.0 116412000000.0 41393900000.0 65091200000.0 229670000000.0 467170000000.0 160716000000.0 137388000000.0 204294000000.0 251987000000.0 281648000000.0 294156000000.0 288267000000.0 256083000000.0 170101000000.0 43138400000.0 310915000000.0 551410000000.0 330186000000.0 269302000000.0 117558000000.0 29404100000.0 161258000000.0 284280000000.0 416229000000.0 523111000000.0 517279000000.0 485331000000.0 442276000000.0 280579000000.0 214993000000.0 235917000000.0 165780000000.0 34327000000.0 50286800000.0 247877000000.0 368133000000.0 415275000000.0 440688000000.0 346340000000.0 316448000000.0 271370000000.0 176211000000.0 142021000000.0 39927300000.0 41443400000.0 120970000000.0 83691300000.0 25278300000.0 40573800000.0 89207500000.0 122357000000.0 148407000000.0 169635000000.0 187049000000.0 203338000000.0 221914000000.0 253348000000.0 323627000000.0 439445000000.0 392936000000.0 20456900000.0 110085000000.0 177917000000.0 194323000000.0 171130000000.0 119520000000.0 41885200000.0 70353000000.0 237945000000.0 498129000000.0 3448740000.0 63240400000.0 141331000000.0 57985400000.0 43089000000.0 113694000000.0 170113000000.0 212062000000.0 238025000000.0 246842000000.0 237504000000.0 204302000000.0 133482000000.0 8450290000.0 113054000000.0 178830000000.0 74427400000.0 49785400000.0 102420000000.0 89241100000.0 17562600000.0 70403700000.0 262284000000.0 424700000000.0 466804000000.0 447573000000.0 406260000000.0 386349000000.0 374012000000.0 342597000000.0 189219000000.0 148185000000.0 15216500000.0 298248000000.0 347719000000.0 391018000000.0 337913000000.0 288300000000.0 226951000000.0 79763700000.0 139985000000.0 46306300000.0 138544000000.0 131515000000.0 72357400000.0 43665100000.0 50174400000.0 74736000000.0 96063500000.0 112534000000.0 123659000000.0 130503000000.0 131958000000.0 126754000000.0 120464000000.0 116257000000.0 93819400000.0 366430000000.0 532282000000.0 150369000000.0 49806600000.0 143740000000.0 177405000000.0 161379000000.0 113441000000.0 38997700000.0 67585400000.0 224345000000.0 452386000000.0 121578000000.0 68722400000.0 940588000.0 42031200000.0 50671100000.0 94940400000.0 138201000000.0 175166000000.0 200922000000.0 213554000000.0 211093000000.0 190967000000.0 150177000000.0 89285100000.0 116017000000.0 74681900000.0 197807000.0 24357200000.0 11990700000.0 5501570000.0 89399000000.0 402484000000.0 370357000000.0 350838000000.0 332008000000.0 318471000000.0 269682000000.0 167595000000.0 14192800000.0 25010100000.0 26943900000.0 177355000000.0 289594000000.0 334154000000.0 307645000000.0 156984000000.0 4153810000.0 174577000000.0 90013900000.0 241806000000.0 50207300000.0 111574000000.0 430154000000.0 201506000000.0 289633000000.0 58273000000.0 148384000000.0 145194000000.0 103374000000.0 49123200000.0 33801200000.0 88495500000.0 129788000000.0 36729000000.0 23215600000.0 80907100000.0 76016300000.0 27762000000.0 14420900000.0 84855200000.0 24337000000.0 301141000000.0 388973000000.0 266308000000.0 249196000000.0 242866000000.0 121445000000.0 130555000000.0 129481000000.0 30232800000.0 44479800000.0 72711300000.0 131580000000.0 286241000000.0 329849000000.0 222492000000.0 160676000000.0 94217000000.0 268371000000.0 249770000000.0 174035000000.0 122243000000.0 103992000000.0 101209000000.0 101271000000.0 102296000000.0 100673000000.0 92577900000.0 76313100000.0 54774600000.0 35624200000.0 60813400000.0 192967000000.0 384088000000.0 164485000000.0 89920000000.0 4252860000.0 68771200000.0 160951000000.0 180707000000.0 188171000000.0 184275000000.0 169651000000.0 147934000000.0 137771000000.0 155911000000.0 193036000000.0 210398000000.0 212386000000.0 148228000000.0 19988700000.0 208619000000.0 47331900000.0 240713000000.0 307395000000.0 309580000000.0 288185000000.0 109632000000.0 99327700000.0 77008200000.0 53483800000.0 7055010000.0 18643500000.0 225823000000.0 225009000000.0 304267000000.0 160033000000.0 163499000000.0 120317000000.0 20706700000.0 190336000000.0 298722000000.0 312467000000.0 278731000000.0 199034000000.0 157670000000.0 133464000000.0 114643000000.0 101082000000.0 90495600000.0 78540900000.0 59812400000.0 31413500000.0 5972190000.0 13136500000.0 75531400000.0 296151000000.0 666859000000.0 388447000000.0 225818000000.0 191550000000.0 141806000000.0 91055400000.0 33878100000.0 49377900000.0 157118000000.0 302275000000.0 172891000000.0 91639000000.0 18980200000.0 59523000000.0 84869400000.0 41929100000.0 22530100000.0 72840700000.0 111760000000.0 141690000000.0 160680000000.0 170101000000.0 173414000000.0 175432000000.0 185815000000.0 220471000000.0 278768000000.0 298575000000.0 312733000000.0 269907000000.0 198398000000.0 126417000000.0 53068600000.0 121218000000.0 216086000000.0 258025000000.0 240757000000.0 218864000000.0 202696000000.0 204479000000.0 2818960000.0 19398200000.0 7986530000.0 7077540000.0 41149000000.0 170748000000.0 129459000000.0 135186000000.0 288214000000.0 141417000000.0 41095800000.0 16206000000.0 73831600000.0 214756000000.0 275084000000.0 282556000000.0 225474000000.0 204271000000.0 176603000000.0 142879000000.0 112892000000.0 92801900000.0 80224300000.0 67590900000.0 47627000000.0 18191400000.0 19490100000.0 48891400000.0 327144000000.0 253067000000.0 168441000000.0 62103300000.0 68369200000.0 44066200000.0 19780700000.0 36016800000.0 107107000000.0 192798000000.0 135890000000.0 61457800000.0 4292410000.0 55719500000.0 94771900000.0 86148400000.0 43744100000.0 5762510000.0 53066100000.0 94546000000.0 124147000000.0 144031000000.0 159976000000.0 175665000000.0 193945000000.0 217825000000.0 258228000000.0 267345000000.0 281078000000.0 264166000000.0 240881000000.0 208844000000.0 123437000000.0 30661500000.0 102375000000.0 175201000000.0 193013000000.0 242388000000.0 212865000000.0 179507000000.0 176900000000.0 168793000000.0 51201000000.0 23988600000.0 15484200000.0 28783700000.0 49250900000.0 36651300000.0 45805500000.0 737323000.0 60436700000.0 70723900000.0 97389500000.0 1501130000.0 50951400000.0 37105500000.0 125619000000.0 223831000000.0 238958000000.0 70627700000.0 51726700000.0 31670200000.0 33760600000.0 36103300000.0 71150100000.0 118985000000.0 70429300000.0 4910970000.0 38125900000.0 4400430000.0 30069900000.0 54548600000.0 30192200000.0 21252100000.0 63226700000.0 111566000000.0 123038000000.0 98302900000.0 62280100000.0 11874300000.0 42545000000.0 81452600000.0 196267000000.0 159917000000.0 77363300000.0 32779500000.0 66894600000.0 78317600000.0 184279000000.0 171809000000.0 186212000000.0 117569000000.0 68629100000.0 39445200000.0 14438000000.0 11959700000.0 8211350000.0 20621700000.0 62502400000.0 408099000000.0 216207000000.0 190944000000.0 195600000000.0 167094000000.0 129023000000.0 99316800000.0 84517500000.0 78655700000.0 85567500000.0 92864500000.0 74067900000.0 108114000000.0 131595000000.0 155146000000.0 181922000000.0 205105000000.0 214179000000.0 229276000000.0 239240000000.0 218075000000.0 185962000000.0 322406000000.0 232821000000.0 69876900000.0 58979500000.0 14373400000.0 63429000000.0 115185000000.0 171110000000.0 201623000000.0 173007000000.0 401754000000.0 32104600000.0 32715100000.0 217410000.0 69288100000.0 143002000000.0 196222000000.0 175389000000.0 164166000000.0 163616000000.0 161105000000.0 135747000000.0 106307000000.0 84819700000.0 81628000000.0 83792000000.0 80305000000.0 71064700000.0 95283800000.0 6548710000.0 218652000000.0 409509000000.0 31548100000.0 27938900000.0 130920000000.0 8188690000.0 16435600000.0 13809200000.0 22722400000.0 16971600000.0 1851190000.0 36191000000.0 88341700000.0 119615000000.0 173608000000.0 154581000000.0 125752000000.0 78309900000.0 12588000000.0 34974800000.0 63592700000.0 91819100000.0 119681000000.0 150671000000.0 183430000000.0 199182000000.0 185407000000.0 206195000000.0 180066000000.0 133482000000.0 141966000000.0 136797000000.0 90646100000.0 10852100000.0 8810590000.0 13496700000.0 14376300000.0 290053000000.0 258048000000.0 123816000000.0 56583100000.0 38504100000.0 6127790000.0 53289100000.0 9035750000.0 9035750000.0 26699500000.0 39483700000.0 68536700000.0 96124600000.0 115590000000.0 161803000000.0 102753000000.0 75790200000.0 126665000000.0 78166300000.0 39934900000.0 123868000000.0 187223000000.0 171825000000.0 163498000000.0 156860000000.0 142720000000.0 126551000000.0 111465000000.0 98518800000.0 114430000000.0 99711300000.0 87520800000.0 21222400000.0 5654680000.0 185172000000.0 11759900000.0 210990000000.0 403462000000.0 225317000000.0 195852000000.0 106030000000.0 97472600000.0 6904060000.0 45105700000.0 15869000000.0 68859200000.0 96842900000.0 157571000000.0 183107000000.0 241458000000.0 179027000000.0 148932000000.0 72478700000.0 14677400000.0 9041580000.0 42536300000.0 74817100000.0 110055000000.0 136884000000.0 165960000000.0 157949000000.0 149250000000.0 150611000000.0 90243600000.0 106099000000.0 112135000000.0 49016500000.0 42052500000.0 75985700000.0 74784600000.0 70946400000.0 24468400000.0 286239000000.0 144650000000.0 63549000000.0 38587700000.0 1865510000.0 50358600000.0 97466100000.0 53642600000.0 9798550000.0 31207800000.0 98460800000.0 41340200000.0 23425600000.0 21796500000.0 81223700000.0 136197000000.0 178628000000.0 177459000000.0 157105000000.0 111445000000.0 34816100000.0 77850600000.0 23193300000.0 184555000000.0 147025000000.0 43858800000.0 9601060000.0 41513600000.0 53242000000.0 72709300000.0 97120500000.0 111615000000.0 116167000000.0 121156000000.0 129166000000.0 174683000000.0 183109000000.0 197574000000.0 139847000000.0 160946000000.0 14894300000.0 234782000000.0 23976300000.0 150377000000.0 130383000000.0 74273200000.0 125768000000.0 65130100000.0 105860000000.0 41747700000.0 78058200000.0 74581100000.0 110522000000.0 103867000000.0 136931000000.0 81168100000.0 117368000000.0 43109100000.0 20786800000.0 48255200000.0 108672000000.0 134931000000.0 164062000000.0 178939000000.0 148415000000.0 120247000000.0 41125800000.0 9593960000.0 15446800000.0 53003900000.0 132178000000.0 129125000000.0 91978500000.0 54346900000.0 13123900000.0 26371700000.0 256061000000.0 11807700000.0 93491200000.0 104452000000.0 110665000000.0 134406000000.0 144242000000.0 83135800000.0 22435200000.0 9035750000.0 9035750000.0 10242800000.0 11823600000.0 50405600000.0 78148000000.0 92804800000.0 138536000000.0 21071400000.0 18868000000.0 133709000000.0 111942000000.0 26065100000.0 11827600000.0 17679800000.0 11348200000.0 5954370000.0 2115890000.0 10230900000.0 22782900000.0 28578300000.0 20457400000.0 30769300000.0 58246300000.0 103971000000.0 68530700000.0 120022000000.0 13154700000.0 19306100000.0 45805500000.0 235040000000.0 77619500000.0 18925000000.0 26988700000.0 38374000000.0 3617600000.0 42937700000.0 156847000.0 38648000000.0 13556800000.0 28582900000.0 10732600000.0 12197800000.0 61742900000.0 24092700000.0 51837600000.0 65354400000.0 33085400000.0 76251700000.0 69919100000.0 106762000000.0 113919000000.0 136688000000.0 160764000000.0 143997000000.0 117403000000.0 65647600000.0 72899900000.0 88993700000.0 83413500000.0 12390700000.0 46646500000.0 81177200000.0 116462000000.0 151662000000.0 174649000000.0 166088000000.0 134856000000.0 108061000000.0 106959000000.0 96609300000.0 45980000000.0 9035750000.0 9035750000.0 9035750000.0 105210000000.0 7709760000.0 5015590000.0 5484000000.0 3931500000.0 37504600000.0 72467500000.0 120419000000.0 221239000000.0 164704000000.0 89265300000.0 18547900000.0 25276500000.0 101987000000.0 120229000000.0 146128000000.0 144002000000.0 138350000000.0 132689000000.0 117017000000.0 99825800000.0 88115600000.0 80750400000.0 83146300000.0 54556500000.0 39053900000.0 35939100000.0 27886600000.0 124257000000.0 37004900000.0 18840400000.0 246949000000.0 146612000000.0 116781000000.0 92799900000.0 97973800000.0 64100900000.0 78369100000.0 36337800000.0 45967700000.0 15900900000.0 34455000000.0 8896950000.0 21179400000.0 31747000000.0 25761100000.0 140024000000.0 101191000000.0 138747000000.0 123466000000.0 147682000000.0 136761000000.0 138618000000.0 133096000000.0 95122300000.0 61909800000.0 29821600000.0 40558100000.0 56238000000.0 46709000000.0 14899500000.0 8467340000.0 2922170000.0 2051930000.0 6918480000.0 29363300000.0 298161000000.0 108408000000.0 40993700000.0 35774500000.0 30940200000.0 11395300000.0 23701700000.0 10272300000.0 2635270000.0 9042220000.0 9035760000.0 13726600000.0 16051600000.0 45769700000.0 75349000000.0 116421000000.0 199229000000.0 140957000000.0 35654800000.0 12403900000.0 20529800000.0 35853300000.0 50464400000.0 68514800000.0 67681900000.0 63442600000.0 60338000000.0 48002700000.0 30833600000.0 16667400000.0 9968460000.0 29454600000.0 23769300000.0 30605900000.0 20870500000.0 9628060000.0 85828400000.0 74625300000.0 110049000000.0 194144000000.0 11314400000.0 12095000000.0 28407200000.0 19417700000.0 19774000000.0 29973800000.0 17255100000.0 37527600000.0 24340800000.0 44215900000.0 18433100000.0 32742300000.0 8712550000.0 39107300000.0 13462900000.0 106305000000.0 75180700000.0 113300000000.0 102182000000.0 130210000000.0 126988000000.0 136895000000.0 139427000000.0 113028000000.0 84626500000.0 64204700000.0 69359200000.0 78445500000.0 60623100000.0 6183920000.0 3544490000.0 687786000.0 2531460000.0 5928710000.0 24072800000.0 295201000000.0 161007000000.0 105402000000.0 90953000000.0 77591700000.0 26266900000.0 9036640000.0 9035750000.0 9057980000.0 9041100000.0 9035760000.0 14210200000.0 18067300000.0 41209900000.0 68944600000.0 112447000000.0 193417000000.0 150310000000.0 37229700000.0 14209100000.0 11898900000.0 58399200000.0 79791600000.0 99805800000.0 104665000000.0 104532000000.0 104587000000.0 96941300000.0 84825300000.0 76985100000.0 74231600000.0 90960200000.0 83216600000.0 86929600000.0 47687300000.0 65519800000.0 18181000000.0 9832540000.0 37399200000.0 203215000000.0 54222500000.0 46171700000.0 21472400000.0 27572300000.0 17402300000.0 4082210000.0 8264940000.0 11253900000.0 3398740000.0 25587600000.0 5133580000.0 22173500000.0 4435820000.0 34381000000.0 9569390000.0 86273600000.0 62691500000.0 98258800000.0 88465100000.0 114484000000.0 110387000000.0 118082000000.0 116563000000.0 93067800000.0 68572800000.0 58700700000.0 63260900000.0 69476900000.0 49263900000.0 8746930000.0 8819280000.0 8885430000.0 9005280000.0 9106790000.0 51261900000.0 277561000000.0 145756000000.0 91995900000.0 76644100000.0 65380600000.0 20384200000.0 9038160000.0 9035750000.0 9055480000.0 9040060000.0 9035770000.0 13941500000.0 19383000000.0 36871000000.0 60997900000.0 100285000000.0 172721000000.0 137951000000.0 23013600000.0 11434100000.0 9337270000.0 40903400000.0 61119300000.0 78013200000.0 83420600000.0 84410400000.0 85686500000.0 81011700000.0 71284400000.0 65324500000.0 62305600000.0 75535200000.0 69618400000.0 74603900000.0 38097600000.0 46035600000.0 1563240000.0 16210400000.0 10595200000.0 193526000000.0 20295700000.0 9366050000.0 30969500000.0 14421600000.0 20784700000.0 25341600000.0 18413000000.0 28089300000.0 18515300000.0 35944500000.0 15298300000.0 28821000000.0 11110900000.0 34704800000.0 9986130000.0 67098700000.0 47746900000.0 80538000000.0 72489400000.0 96511600000.0 92850500000.0 99822500000.0 96988400000.0 77191000000.0 57041400000.0 53958400000.0 57703900000.0 61134700000.0 39354700000.0 9192750000.0 9131230000.0 9155720000.0 9130310000.0 9311690000.0 55967800000.0 247610000000.0 133907000000.0 84780700000.0 67325100000.0 55178100000.0 15940200000.0 9039450000.0 9035760000.0 9051910000.0 9039140000.0 9035770000.0 13285400000.0 19925100000.0 32501000000.0 52638000000.0 86765400000.0 150142000000.0 123854000000.0 14575000000.0 11274000000.0 10865300000.0 32091300000.0 51198100000.0 66306100000.0 72611800000.0 74941400000.0 77285700000.0 75383200000.0 68397800000.0 64595600000.0 62346000000.0 72020300000.0 66569500000.0 71991200000.0 46504500000.0 60873800000.0 27530000000.0 9035750000.0 47161700000.0 172699000000.0 10515600000.0 1110810000.0 23790400000.0 16004000000.0 18575700000.0 25041900000.0 16762300000.0 24470100000.0 16032600000.0 31775100000.0 13888300000.0 26419700000.0 11162800000.0 31254300000.0 9336760000.0 50622400000.0 36196300000.0 65402000000.0 58897500000.0 80354900000.0 77028600000.0 82928000000.0 79072300000.0 62453900000.0 46512800000.0 48144900000.0 51017300000.0 52506800000.0 30765600000.0 9229660000.0 9155540000.0 9212520000.0 9139010000.0 9452770000.0 57318900000.0 214810000000.0 116539000000.0 72965400000.0 56372900000.0 45444600000.0 12779000000.0 9040370000.0 9035760000.0 9048330000.0 9038380000.0 9035770000.0 12478000000.0 19641500000.0 28426800000.0 44667000000.0 73265400000.0 126959000000.0 108299000000.0 10677000000.0 10537600000.0 10599800000.0 23886200000.0 40429100000.0 53323100000.0 59265100000.0 61972300000.0 64544500000.0 64326300000.0 59390500000.0 57011600000.0 55189400000.0 62370200000.0 57747300000.0 62652900000.0 42437300000.0 54054200000.0 25636200000.0 9035750000.0 148969000000.0 20744200000.0 9035750000.0 24615900000.0 16806900000.0 16626500000.0 24291700000.0 15288500000.0 21358700000.0 14073900000.0 27771500000.0 12747200000.0 23866200000.0 11096300000.0 27945200000.0 9243940000.0 37957400000.0 27635500000.0 52626000000.0 47431200000.0 65970100000.0 63049300000.0 67896800000.0 63607200000.0 49957000000.0 38121800000.0 42180000000.0 44192800000.0 44390500000.0 24027200000.0 9247960000.0 9167950000.0 9244840000.0 9141640000.0 9545490000.0 55299700000.0 181624000000.0 98993100000.0 61358900000.0 46465600000.0 37084600000.0 10985800000.0 9040840000.0 9035760000.0 9045200000.0 45771800000.0 9037740000.0 9035770000.0 11673900000.0 18603600000.0 24610400000.0 37201700000.0 60149000000.0 103872000000.0 91565700000.0 9577530000.0 10076800000.0 10320000000.0 18159700000.0 31716200000.0 42416500000.0 47598300000.0 50290100000.0 52728400000.0 53512300000.0 50216300000.0 48862300000.0 47450300000.0 52832700000.0 49122900000.0 53319900000.0 37609400000.0 46608600000.0 23390300000.0 9035750000.0 41582300000.0 120389000000.0 19200400000.0 9035750000.0 21460300000.0 16800300000.0 14918100000.0 22918700000.0 13958800000.0 18652500000.0 12573200000.0 23989200000.0 11843800000.0 21233200000.0 10911300000.0 24658900000.0 9216730000.0 28570100000.0 21524100000.0 41911600000.0 37831800000.0 53218200000.0 50765100000.0 54597600000.0 50378000000.0 39538300000.0 31562000000.0 36066100000.0 37398500000.0 36838400000.0 18987400000.0 9246100000.0 9167410000.0 9251040000.0 9136880000.0 9574310000.0 50566200000.0 148615000000.0 81466700000.0 50277400000.0 37685500000.0 29973100000.0 10209000000.0 9040820000.0 9035760000.0 9042630000.0 9037210000.0 9035770000.0 10952300000.0 16977500000.0 20966200000.0 30249300000.0 47683600000.0 81405300000.0 73950800000.0 9352820000.0 9752360000.0 10032900000.0 14346200000.0 24761300000.0 33207300000.0 37388000000.0 39764600000.0 41825900000.0 43037700000.0 40976000000.0 40302600000.0 39272200000.0 43234200000.0 40455800000.0 43863600000.0 32026200000.0 38723000000.0 20780400000.0 9035750000.0 93863100000.0 17216100000.0 9035750000.0 18535900000.0 16015400000.0 13405600000.0 20797500000.0 12743100000.0 16239200000.0 11434400000.0 20414300000.0 11110000000.0 18558400000.0 10619000000.0 21313000000.0 9184850000.0 21776000000.0 17220600000.0 32883100000.0 29802000000.0 41857900000.0 39916500000.0 42795000000.0 39067900000.0 30874900000.0 26050500000.0 29900500000.0 30743600000.0 29856700000.0 15358700000.0 9224210000.0 9154020000.0 9232070000.0 9124140000.0 9534850000.0 43586700000.0 116218000000.0 64397600000.0 39956700000.0 29987300000.0 23977800000.0 9884100000.0 9040290000.0 9035760000.0 9040570000.0 35749500000.0 9036740000.0 9035770000.0 10325900000.0 14937800000.0 17430200000.0 23756900000.0 35910500000.0 59733700000.0 55664100000.0 9271750000.0 9503100000.0 9743630000.0 11927800000.0 19212300000.0 25306000000.0 28349200000.0 30188000000.0 31724000000.0 32912300000.0 31723200000.0 31447700000.0 30757300000.0 33483400000.0 31611200000.0 34139200000.0 25822300000.0 30451600000.0 17745500000.0 9035750000.0 28826900000.0 68607100000.0 14977000000.0 9035750000.0 15723800000.0 14538400000.0 12040400000.0 17954100000.0 11613000000.0 14027300000.0 10563500000.0 17005000000.0 10469100000.0 15846000000.0 10234000000.0 17868800000.0 9145690000.0 16872500000.0 14128400000.0 25125200000.0 22987400000.0 31604900000.0 30193400000.0 32183300000.0 29294300000.0 23587000000.0 20976900000.0 23777300000.0 24276000000.0 23402300000.0 12805000000.0 9184070000.0 9129020000.0 9191440000.0 9104130000.0 9435180000.0 34836100000.0 84553700000.0 47882000000.0 30391300000.0 23222200000.0 18936900000.0 9661350000.0 9039330000.0 9035760000.0 9038910000.0 9036320000.0 9035760000.0 9772870000.0 12629100000.0 13971900000.0 9185690000.0 9298460000.0 9454670000.0 10428200000.0 14678400000.0 18328000000.0 22535600000.0 24081800000.0 19162500000.0 21860600000.0 14343100000.0 9035750000.0 44076800000.0 9035750000.0 12976800000.0 12516100000.0 14542900000.0 11946200000.0 9873940000.0 13713300000.0 9871530000.0 13092000000.0 9775420000.0 14319900000.0 9102190000.0 13225000000.0 11788400000.0 18242900000.0 17002900000.0 22128100000.0 21271100000.0 9129440000.0 9094760000.0 9134420000.0 9078490000.0 9290070000.0 24810300000.0 53532600000.0 14619300000.0 9423810000.0 9038010000.0 9035750000.0 9037520000.0 17619800000.0 24720300000.0 38778500000.0 36873000000.0 20157500000.0 21304500000.0 22236000000.0 23069400000.0 22476000000.0 22390500000.0 21998200000.0 23583200000.0 21099900000.0 12599200000.0 10777500000.0 10541300000.0 22425600000.0 20624000000.0 17284500000.0 16067400000.0 17731200000.0 17986900000.0 17373800000.0 10995900000.0 31853300000.0 21440000000.0 17164200000.0 9035930000.0 9035760000.0 9262620000.0 10169300000.0 10570000000.0 11699000000.0 13904500000.0 18290100000.0 17753500000.0 9083780000.0 9115700000.0 9166430000.0 9431230000.0 10749900000.0 11894000000.0 12468700000.0 12834100000.0 13127400000.0 13403300000.0 13231000000.0 13213000000.0 13091500000.0 13582200000.0 13265300000.0 13755000000.0 12219100000.0 13056700000.0 10708300000.0 9035750000.0 12845600000.0 19952000000.0 10153100000.0 9035750000.0 10263200000.0 10149000000.0 9574690000.0 10782000000.0 9503110000.0 9938240000.0 9288800000.0 10490400000.0 9294270000.0 10304400000.0 9270170000.0 10690700000.0 9056660000.0 10284900000.0 9861490000.0 11870800000.0 11486700000.0 13089700000.0 12818200000.0 13175100000.0 12602600000.0 11565800000.0 11226300000.0 11746100000.0 11821100000.0 11617700000.0 9614560000.0 9065690000.0 9054620000.0 9067310000.0 9049350000.0 9117210000.0 14019400000.0 22907500000.0 16138100000.0 12878800000.0 11539700000.0 10743600000.0 9159220000.0 9036470000.0 9035750000.0 9036290000.0 