# vtk DataFile Version 2.0
Time step 39
ASCII
DATASET UNSTRUCTURED_GRID
POINTS 4650 float
130251.0 420933.0 0
135915.0 417996.0 0
143089.0 418993.0 0
146945.0 419954.0 0
150911.0 419705.0 0
154881.0 419804.0 0
158852.0 419787.0 0
162821.0 419788.0 0
166788.0 419784.0 0
170755.0 419783.0 0
174721.0 419781.0 0
178687.0 419780.0 0
182651.0 419778.0 0
186616.0 419777.0 0
190579.0 419776.0 0
194542.0 419775.0 0
198505.0 419775.0 0
202467.0 419774.0 0
206428.0 419773.0 0
210390.0 419773.0 0
214351.0 419772.0 0
218312.0 419772.0 0
222273.0 419771.0 0
226234.0 419771.0 0
230194.0 419771.0 0
234155.0 419770.0 0
238117.0 419770.0 0
242078.0 419770.0 0
246039.0 419770.0 0
250000.0 419770.0 0
253961.0 419770.0 0
257922.0 419770.0 0
261883.0 419770.0 0
265845.0 419770.0 0
269806.0 419771.0 0
273766.0 419771.0 0
277727.0 419771.0 0
281688.0 419772.0 0
285649.0 419772.0 0
289610.0 419773.0 0
293572.0 419773.0 0
297533.0 419774.0 0
301495.0 419775.0 0
305458.0 419775.0 0
309421.0 419776.0 0
313384.0 419777.0 0
317349.0 419778.0 0
321313.0 419780.0 0
325279.0 419781.0 0
329245.0 419783.0 0
333212.0 419784.0 0
337179.0 419788.0 0
341148.0 419787.0 0
345119.0 419804.0 0
349089.0 419705.0 0
353055.0 419954.0 0
356911.0 418993.0 0
364085.0 417996.0 0
369749.0 420933.0 0
126905.0 423019.0 0
134011.0 421465.0 0
139288.0 420123.0 0
360712.0 420123.0 0
365989.0 421465.0 0
373095.0 423019.0 0
123565.0 425104.0 0
130237.0 424772.0 0
133894.0 425515.0 0
137258.0 423504.0 0
140527.0 425493.0 0
143501.0 422946.0 0
147249.0 424179.0 0
151166.0 423686.0 0
155111.0 423820.0 0
159057.0 423790.0 0
163003.0 423790.0 0
166950.0 423788.0 0
170897.0 423785.0 0
174845.0 423783.0 0
178794.0 423782.0 0
182743.0 423780.0 0
186694.0 423779.0 0
190646.0 423778.0 0
194598.0 423776.0 0
198550.0 423775.0 0
202504.0 423775.0 0
206458.0 423774.0 0
210413.0 423773.0 0
214369.0 423773.0 0
218326.0 423772.0 0
222283.0 423771.0 0
226242.0 423771.0 0
230201.0 423771.0 0
234160.0 423770.0 0
238120.0 423770.0 0
242080.0 423770.0 0
246040.0 423770.0 0
250000.0 423770.0 0
253960.0 423770.0 0
257920.0 423770.0 0
261880.0 423770.0 0
265840.0 423770.0 0
269799.0 423771.0 0
273758.0 423771.0 0
277717.0 423771.0 0
281674.0 423772.0 0
285631.0 423773.0 0
289587.0 423773.0 0
293542.0 423774.0 0
297496.0 423775.0 0
301450.0 423775.0 0
305402.0 423776.0 0
309354.0 423778.0 0
313306.0 423779.0 0
317257.0 423780.0 0
321206.0 423782.0 0
325155.0 423783.0 0
329103.0 423785.0 0
333050.0 423788.0 0
336997.0 423790.0 0
340943.0 423790.0 0
344889.0 423820.0 0
348834.0 423686.0 0
352751.0 424179.0 0
356499.0 422946.0 0
359473.0 425493.0 0
362742.0 423504.0 0
366106.0 425515.0 0
369763.0 424772.0 0
376435.0 425104.0 0
120228.0 427188.0 0
123556.0 428888.0 0
126896.0 426828.0 0
130193.0 428644.0 0
137160.0 427490.0 0
143850.0 427451.0 0
151382.0 427661.0 0
155261.0 427844.0 0
159154.0 427792.0 0
163058.0 427794.0 0
166973.0 427789.0 0
170896.0 427786.0 0
174825.0 427784.0 0
178761.0 427782.0 0
182702.0 427780.0 0
186647.0 427778.0 0
190596.0 427777.0 0
194547.0 427776.0 0
198501.0 427775.0 0
202456.0 427774.0 0
206413.0 427774.0 0
210371.0 427773.0 0
214330.0 427772.0 0
218290.0 427772.0 0
222252.0 427771.0 0
226214.0 427771.0 0
230177.0 427771.0 0
234141.0 427770.0 0
238105.0 427770.0 0
242070.0 427770.0 0
246035.0 427770.0 0
250000.0 427770.0 0
253965.0 427770.0 0
257930.0 427770.0 0
261895.0 427770.0 0
265859.0 427770.0 0
269823.0 427771.0 0
273786.0 427771.0 0
277748.0 427771.0 0
281710.0 427772.0 0
285670.0 427772.0 0
289629.0 427773.0 0
293587.0 427774.0 0
297544.0 427774.0 0
301499.0 427775.0 0
305453.0 427776.0 0
309404.0 427777.0 0
313353.0 427778.0 0
317298.0 427780.0 0
321239.0 427782.0 0
325175.0 427784.0 0
329104.0 427786.0 0
333027.0 427789.0 0
336942.0 427794.0 0
340846.0 427792.0 0
344739.0 427844.0 0
348618.0 427661.0 0
356150.0 427451.0 0
362840.0 427490.0 0
369807.0 428644.0 0
373104.0 426828.0 0
376444.0 428888.0 0
379772.0 427188.0 0
113574.0 431348.0 0
116894.0 429271.0 0
120212.0 430954.0 0
126855.0 430682.0 0
133812.0 429498.0 0
140462.0 429464.0 0
147585.0 428391.0 0
352415.0 428391.0 0
359538.0 429464.0 0
366188.0 429498.0 0
373145.0 430682.0 0
379788.0 430954.0 0
383106.0 429271.0 0
386426.0 431348.0 0
116876.0 433038.0 0
123508.0 432708.0 0
130117.0 432564.0 0
137088.0 431461.0 0
140376.0 433437.0 0
143775.0 431447.0 0
147514.0 432373.0 0
151312.0 431650.0 0
155190.0 431844.0 0
159084.0 431792.0 0
162988.0 431794.0 0
166901.0 431789.0 0
170824.0 431786.0 0
174754.0 431783.0 0
178690.0 431781.0 0
182632.0 431779.0 0
186578.0 431778.0 0
190528.0 431777.0 0
194481.0 431776.0 0
198438.0 431775.0 0
202396.0 431774.0 0
206356.0 431773.0 0
210318.0 431773.0 0
214282.0 431772.0 0
218247.0 431772.0 0
222213.0 431771.0 0
226180.0 431771.0 0
230149.0 431771.0 0
234118.0 431770.0 0
238088.0 431770.0 0
242058.0 431770.0 0
246029.0 431770.0 0
250000.0 431770.0 0
253971.0 431770.0 0
257942.0 431770.0 0
261912.0 431770.0 0
265882.0 431770.0 0
269851.0 431771.0 0
273820.0 431771.0 0
277787.0 431771.0 0
281753.0 431772.0 0
285718.0 431772.0 0
289682.0 431773.0 0
293644.0 431773.0 0
297604.0 431774.0 0
301562.0 431775.0 0
305519.0 431776.0 0
309472.0 431777.0 0
313422.0 431778.0 0
317368.0 431779.0 0
321310.0 431781.0 0
325246.0 431783.0 0
329176.0 431786.0 0
333099.0 431789.0 0
337012.0 431794.0 0
340916.0 431792.0 0
344810.0 431844.0 0
348688.0 431650.0 0
352486.0 432373.0 0
356225.0 431447.0 0
359624.0 433437.0 0
362912.0 431461.0 0
369883.0 432564.0 0
376492.0 432708.0 0
383124.0 433038.0 0
104964.0 436736.0 0
108300.0 434653.0 0
112086.0 434759.0 0
115550.0 436556.0 0
120153.0 434755.0 0
123399.0 436555.0 0
126770.0 434583.0 0
129986.0 436536.0 0
133730.0 433446.0 0
136995.0 435428.0 0
143667.0 435442.0 0
356333.0 435442.0 0
363005.0 435428.0 0
366270.0 433446.0 0
370014.0 436536.0 0
373230.0 434583.0 0
376601.0 436555.0 0
379847.0 434755.0 0
384450.0 436556.0 0
387914.0 434759.0 0
391700.0 434653.0 0
395036.0 436736.0 0
101591.0 438845.0 0
108390.0 438479.0 0
112218.0 438573.0 0
119008.0 438373.0 0
126597.0 438539.0 0
133637.0 437357.0 0
140236.0 437412.0 0
147419.0 436338.0 0
151227.0 435643.0 0
155109.0 435843.0 0
159005.0 435792.0 0
162912.0 435794.0 0
166828.0 435789.0 0
170753.0 435785.0 0
174685.0 435783.0 0
178624.0 435781.0 0
182568.0 435779.0 0
186517.0 435778.0 0
190469.0 435776.0 0
194426.0 435775.0 0
198385.0 435774.0 0
202346.0 435774.0 0
206310.0 435773.0 0
210275.0 435772.0 0
214242.0 435772.0 0
218211.0 435771.0 0
222182.0 435771.0 0
226153.0 435771.0 0
230126.0 435770.0 0
234100.0 435770.0 0
238074.0 435770.0 0
242049.0 435770.0 0
246024.0 435770.0 0
250000.0 435770.0 0
253976.0 435770.0 0
257951.0 435770.0 0
261926.0 435770.0 0
265900.0 435770.0 0
269874.0 435770.0 0
273847.0 435771.0 0
277818.0 435771.0 0
281789.0 435771.0 0
285758.0 435772.0 0
289725.0 435772.0 0
293690.0 435773.0 0
297654.0 435774.0 0
301615.0 435774.0 0
305574.0 435775.0 0
309531.0 435776.0 0
313483.0 435778.0 0
317432.0 435779.0 0
321376.0 435781.0 0
325315.0 435783.0 0
329247.0 435785.0 0
333172.0 435789.0 0
337088.0 435794.0 0
340995.0 435792.0 0
344891.0 435843.0 0
348773.0 435643.0 0
352581.0 436338.0 0
359764.0 437412.0 0
366363.0 437357.0 0
373403.0 438539.0 0
380992.0 438373.0 0
387782.0 438573.0 0
391610.0 438479.0 0
398409.0 438845.0 0
97751.3 441254.0 0
105013.0 440545.0 0
108439.0 442312.0 0
115670.0 440417.0 0
122429.0 440256.0 0
129278.0 441229.0 0
136697.0 439673.0 0
140133.0 441335.0 0
143548.0 439421.0 0
147286.0 440286.0 0
151082.0 439636.0 0
154946.0 439840.0 0
158827.0 439791.0 0
162720.0 439790.0 0
166625.0 439785.0 0
170541.0 439782.0 0
174467.0 439779.0 0
178401.0 439777.0 0
182344.0 439775.0 0
186294.0 439774.0 0
190251.0 439773.0 0
194214.0 439772.0 0
198182.0 439772.0 0
202153.0 439772.0 0
206129.0 439771.0 0
210107.0 439771.0 0
214089.0 439771.0 0
218072.0 439770.0 0
222059.0 439770.0 0
226047.0 439770.0 0
230036.0 439770.0 0
234028.0 439770.0 0
238020.0 439770.0 0
242013.0 439770.0 0
246006.0 439770.0 0
250000.0 439770.0 0
253994.0 439770.0 0
257987.0 439770.0 0
261980.0 439770.0 0
265972.0 439770.0 0
269964.0 439770.0 0
273953.0 439770.0 0
277941.0 439770.0 0
281928.0 439770.0 0
285911.0 439771.0 0
289893.0 439771.0 0
293871.0 439771.0 0
297847.0 439772.0 0
301818.0 439772.0 0
305786.0 439772.0 0
309749.0 439773.0 0
313706.0 439774.0 0
317656.0 439775.0 0
321599.0 439777.0 0
325533.0 439779.0 0
329459.0 439782.0 0
333375.0 439785.0 0
337280.0 439790.0 0
341173.0 439791.0 0
345054.0 439840.0 0
348918.0 439636.0 0
352714.0 440286.0 0
356452.0 439421.0 0
359867.0 441335.0 0
363303.0 439673.0 0
370722.0 441229.0 0
377571.0 440256.0 0
384330.0 440417.0 0
391561.0 442312.0 0
394987.0 440545.0 0
402249.0 441254.0 0
101365.0 442681.0 0
104867.0 444370.0 0
112303.0 442401.0 0
115742.0 444317.0 0
119119.0 442262.0 0
125546.0 442468.0 0
133074.0 441191.0 0
136026.0 443691.0 0
363974.0 443691.0 0
366926.0 441191.0 0
374454.0 442468.0 0
380881.0 442262.0 0
384258.0 444317.0 0
387697.0 442401.0 0
395133.0 444370.0 0
398635.0 442681.0 0
96909.6 445113.0 0
101138.0 446579.0 0
108337.0 446127.0 0
112240.0 446239.0 0
119299.0 446100.0 0
123248.0 445686.0 0
128453.0 445048.0 0
132319.0 445045.0 0
139585.0 445170.0 0
143237.0 443692.0 0
147078.0 444206.0 0
150920.0 443691.0 0
154810.0 443837.0 0
158715.0 443789.0 0
162632.0 443789.0 0
166559.0 443785.0 0
170495.0 443781.0 0
174440.0 443779.0 0
178391.0 443777.0 0
182349.0 443775.0 0
186312.0 443774.0 0
190279.0 443773.0 0
194250.0 443772.0 0
198222.0 443772.0 0
202197.0 443771.0 0
206174.0 443771.0 0
210153.0 443771.0 0
214134.0 443770.0 0
218116.0 443770.0 0
222099.0 443770.0 0
226083.0 443770.0 0
230068.0 443770.0 0
234054.0 443770.0 0
238040.0 443770.0 0
242027.0 443770.0 0
246013.0 443770.0 0
250000.0 443770.0 0
253987.0 443770.0 0
257973.0 443770.0 0
261960.0 443770.0 0
265946.0 443770.0 0
269932.0 443770.0 0
273917.0 443770.0 0
277901.0 443770.0 0
281884.0 443770.0 0
285866.0 443770.0 0
289847.0 443771.0 0
293826.0 443771.0 0
297803.0 443771.0 0
301778.0 443772.0 0
305750.0 443772.0 0
309721.0 443773.0 0
313688.0 443774.0 0
317651.0 443775.0 0
321609.0 443777.0 0
325560.0 443779.0 0
329505.0 443781.0 0
333441.0 443785.0 0
337368.0 443789.0 0
341285.0 443789.0 0
345190.0 443837.0 0
349080.0 443691.0 0
352922.0 444206.0 0
356763.0 443692.0 0
360415.0 445170.0 0
367681.0 445045.0 0
371547.0 445048.0 0
376752.0 445686.0 0
380701.0 446100.0 0
387760.0 446239.0 0
391663.0 446127.0 0
398862.0 446579.0 0
403090.0 445113.0 0
98104.8 449109.0 0
104734.0 448246.0 0
108263.0 449947.0 0
115612.0 448210.0 0
126535.0 448382.0 0
130490.0 448596.0 0
134456.0 448305.0 0
138351.0 448860.0 0
142249.0 447996.0 0
146175.0 448023.0 0
150126.0 447765.0 0
154093.0 447773.0 0
158068.0 447771.0 0
162046.0 447771.0 0
166030.0 447770.0 0
170018.0 447770.0 0
174009.0 447770.0 0
178003.0 447770.0 0
182001.0 447770.0 0
186000.0 447770.0 0
190000.0 447770.0 0
194000.0 447770.0 0
198000.0 447770.0 0
202000.0 447770.0 0
206000.0 447770.0 0
210000.0 447770.0 0
214000.0 447770.0 0
218000.0 447770.0 0
222000.0 447770.0 0
226000.0 447770.0 0
230000.0 447770.0 0
234000.0 447770.0 0
238000.0 447770.0 0
242000.0 447770.0 0
246000.0 447770.0 0
250000.0 447770.0 0
254000.0 447770.0 0
258000.0 447770.0 0
262000.0 447770.0 0
266000.0 447770.0 0
270000.0 447770.0 0
274000.0 447770.0 0
278000.0 447770.0 0
282000.0 447770.0 0
286000.0 447770.0 0
290000.0 447770.0 0
294000.0 447770.0 0
298000.0 447770.0 0
302000.0 447770.0 0
306000.0 447770.0 0
310000.0 447770.0 0
314000.0 447770.0 0
317999.0 447770.0 0
321997.0 447770.0 0
325991.0 447770.0 0
329982.0 447770.0 0
333970.0 447770.0 0
337954.0 447771.0 0
341932.0 447771.0 0
345907.0 447773.0 0
349874.0 447765.0 0
353825.0 448023.0 0
357751.0 447996.0 0
361649.0 448860.0 0
365544.0 448305.0 0
369510.0 448596.0 0
373465.0 448382.0 0
384388.0 448210.0 0
391737.0 449947.0 0
395266.0 448246.0 0
401895.0 449109.0 0
102033.0 451109.0 0
112206.0 450148.0 0
119030.0 449954.0 0
122878.0 449629.0 0
377122.0 449629.0 0
380970.0 449954.0 0
387794.0 450148.0 0
397967.0 451109.0 0
98577.3 453062.0 0
105618.0 452866.0 0
110022.0 453388.0 0
115046.0 452904.0 0
118923.0 453759.0 0
122872.0 453554.0 0
126849.0 452314.0 0
130829.0 452574.0 0
134812.0 452224.0 0
138763.0 452738.0 0
142626.0 451913.0 0
146569.0 451950.0 0
150501.0 451763.0 0
154445.0 451777.0 0
158394.0 451775.0 0
162348.0 451774.0 0
166308.0 451773.0 0
170273.0 451773.0 0
174241.0 451772.0 0
178213.0 451772.0 0
182188.0 451771.0 0
186166.0 451771.0 0
190146.0 451771.0 0
194128.0 451771.0 0
198113.0 451770.0 0
202098.0 451770.0 0
206085.0 451770.0 0
210074.0 451770.0 0
214063.0 451770.0 0
218054.0 451770.0 0
222045.0 451770.0 0
226038.0 451770.0 0
230030.0 451770.0 0
234024.0 451770.0 0
238017.0 451770.0 0
242011.0 451770.0 0
246006.0 451770.0 0
250000.0 451770.0 0
253994.0 451770.0 0
257989.0 451770.0 0
261983.0 451770.0 0
265976.0 451770.0 0
269970.0 451770.0 0
273962.0 451770.0 0
277955.0 451770.0 0
281946.0 451770.0 0
285937.0 451770.0 0
289926.0 451770.0 0
293915.0 451770.0 0
297902.0 451770.0 0
301887.0 451770.0 0
305872.0 451771.0 0
309854.0 451771.0 0
313834.0 451771.0 0
317812.0 451771.0 0
321787.0 451772.0 0
325759.0 451772.0 0
329727.0 451773.0 0
333692.0 451773.0 0
337652.0 451774.0 0
341606.0 451775.0 0
345555.0 451777.0 0
349499.0 451763.0 0
353431.0 451950.0 0
357374.0 451913.0 0
361237.0 452738.0 0
365188.0 452224.0 0
369171.0 452574.0 0
373151.0 452314.0 0
377128.0 453554.0 0
381077.0 453759.0 0
384954.0 452904.0 0
389978.0 453388.0 0
394382.0 452866.0 0
401423.0 453062.0 0
100393.0 456602.0 0
104375.0 456631.0 0
112497.0 456436.0 0
116434.0 456740.0 0
125814.0 456153.0 0
129757.0 456427.0 0
133683.0 456009.0 0
137616.0 456470.0 0
141945.0 455821.0 0
145952.0 455865.0 0
150000.0 455770.0 0
154000.0 455770.0 0
158000.0 455770.0 0
162000.0 455770.0 0
166000.0 455770.0 0
170000.0 455770.0 0
174000.0 455770.0 0
178000.0 455770.0 0
182000.0 455770.0 0
186000.0 455770.0 0
190000.0 455770.0 0
194000.0 455770.0 0
198000.0 455770.0 0
202000.0 455770.0 0
206000.0 455770.0 0
210000.0 455770.0 0
214000.0 455770.0 0
218000.0 455770.0 0
222000.0 455770.0 0
226000.0 455770.0 0
230000.0 455770.0 0
234000.0 455770.0 0
238000.0 455770.0 0
242000.0 455770.0 0
246000.0 455770.0 0
250000.0 455770.0 0
254000.0 455770.0 0
258000.0 455770.0 0
262000.0 455770.0 0
266000.0 455770.0 0
270000.0 455770.0 0
274000.0 455770.0 0
278000.0 455770.0 0
282000.0 455770.0 0
286000.0 455770.0 0
290000.0 455770.0 0
294000.0 455770.0 0
298000.0 455770.0 0
302000.0 455770.0 0
306000.0 455770.0 0
310000.0 455770.0 0
314000.0 455770.0 0
318000.0 455770.0 0
322000.0 455770.0 0
326000.0 455770.0 0
330000.0 455770.0 0
334000.0 455770.0 0
338000.0 455770.0 0
342000.0 455770.0 0
346000.0 455770.0 0
350000.0 455770.0 0
354048.0 455865.0 0
358055.0 455821.0 0
362384.0 456470.0 0
366317.0 456009.0 0
370243.0 456427.0 0
374186.0 456153.0 0
383566.0 456740.0 0
387503.0 456436.0 0
395625.0 456631.0 0
399607.0 456602.0 0
108352.0 456902.0 0
121001.0 457062.0 0
378999.0 457062.0 0
391648.0 456902.0 0
102207.0 460150.0 0
106188.0 460184.0 0
110481.0 460251.0 0
114457.0 460145.0 0
118482.0 460146.0 0
122748.0 460564.0 0
126662.0 460015.0 0
130596.0 460330.0 0
134524.0 459893.0 0
138460.0 460297.0 0
142362.0 459779.0 0
146305.0 459827.0 0
150254.0 459772.0 0
154212.0 459773.0 0
158178.0 459772.0 0
162149.0 459771.0 0
166124.0 459771.0 0
170104.0 459771.0 0
174086.0 459770.0 0
178071.0 459770.0 0
182059.0 459770.0 0
186049.0 459770.0 0
190040.0 459770.0 0
194033.0 459770.0 0
198027.0 459770.0 0
202022.0 459770.0 0
206018.0 459770.0 0
210015.0 459770.0 0
214012.0 459770.0 0
218010.0 459770.0 0
222008.0 459770.0 0
226006.0 459770.0 0
230005.0 459770.0 0
234003.0 459770.0 0
238002.0 459770.0 0
242002.0 459770.0 0
246001.0 459770.0 0
250000.0 459770.0 0
253999.0 459770.0 0
257998.0 459770.0 0
261998.0 459770.0 0
265997.0 459770.0 0
269995.0 459770.0 0
273994.0 459770.0 0
277992.0 459770.0 0
281990.0 459770.0 0
285988.0 459770.0 0
289985.0 459770.0 0
293982.0 459770.0 0
297978.0 459770.0 0
301973.0 459770.0 0
305967.0 459770.0 0
309960.0 459770.0 0
313951.0 459770.0 0
317941.0 459770.0 0
321929.0 459770.0 0
325914.0 459770.0 0
329896.0 459771.0 0
333876.0 459771.0 0
337851.0 459771.0 0
341822.0 459772.0 0
345788.0 459773.0 0
349746.0 459772.0 0
353695.0 459827.0 0
357638.0 459779.0 0
361540.0 460297.0 0
365476.0 459893.0 0
369404.0 460330.0 0
373338.0 460015.0 0
377252.0 460564.0 0
381518.0 460146.0 0
385543.0 460145.0 0
389519.0 460251.0 0
393812.0 460184.0 0
397793.0 460150.0 0
101689.0 464103.0 0
105680.0 464101.0 0
109670.0 464142.0 0
113655.0 464027.0 0
117640.0 464026.0 0
121612.0 464328.0 0
125672.0 463870.0 0
129658.0 464198.0 0
133841.0 463824.0 0
137819.0 464164.0 0
141997.0 463769.0 0
145996.0 463799.0 0
150000.0 463770.0 0
154000.0 463770.0 0
158000.0 463770.0 0
162000.0 463770.0 0
166000.0 463770.0 0
170000.0 463770.0 0
174000.0 463770.0 0
178000.0 463770.0 0
182000.0 463770.0 0
186000.0 463770.0 0
190000.0 463770.0 0
194000.0 463770.0 0
198000.0 463770.0 0
202000.0 463770.0 0
206000.0 463770.0 0
210000.0 463770.0 0
214000.0 463770.0 0
218000.0 463770.0 0
222000.0 463770.0 0
226000.0 463770.0 0
230000.0 463770.0 0
234000.0 463770.0 0
238000.0 463770.0 0
242000.0 463770.0 0
246000.0 463770.0 0
250000.0 463770.0 0
254000.0 463770.0 0
258000.0 463770.0 0
262000.0 463770.0 0
266000.0 463770.0 0
270000.0 463770.0 0
274000.0 463770.0 0
278000.0 463770.0 0
282000.0 463770.0 0
286000.0 463770.0 0
290000.0 463770.0 0
294000.0 463770.0 0
298000.0 463770.0 0
302000.0 463770.0 0
306000.0 463770.0 0
310000.0 463770.0 0
314000.0 463770.0 0
318000.0 463770.0 0
322000.0 463770.0 0
326000.0 463770.0 0
330000.0 463770.0 0
334000.0 463770.0 0
338000.0 463770.0 0
342000.0 463770.0 0
346000.0 463770.0 0
350000.0 463770.0 0
354004.0 463799.0 0
358003.0 463769.0 0
362181.0 464164.0 0
366159.0 463824.0 0
370342.0 464198.0 0
374328.0 463870.0 0
378388.0 464328.0 0
382360.0 464026.0 0
386345.0 464027.0 0
390330.0 464142.0 0
394320.0 464101.0 0
398311.0 464103.0 0
102048.0 468076.0 0
106057.0 468047.0 0
110084.0 468095.0 0
114082.0 467979.0 0
118093.0 467976.0 0
122132.0 468234.0 0
126104.0 467832.0 0
130085.0 468148.0 0
134063.0 467807.0 0
138048.0 468084.0 0
142028.0 467768.0 0
146022.0 467788.0 0
150017.0 467770.0 0
154013.0 467770.0 0
158010.0 467770.0 0
162008.0 467770.0 0
166006.0 467770.0 0
170005.0 467770.0 0
174003.0 467770.0 0
178003.0 467770.0 0
182002.0 467770.0 0
186001.0 467770.0 0
190001.0 467770.0 0
194001.0 467770.0 0
198001.0 467770.0 0
202000.0 467770.0 0
206000.0 467770.0 0
210000.0 467770.0 0
214000.0 467770.0 0
218000.0 467770.0 0
222000.0 467770.0 0
226000.0 467770.0 0
230000.0 467770.0 0
234000.0 467770.0 0
238000.0 467770.0 0
242000.0 467770.0 0
246000.0 467770.0 0
250000.0 467770.0 0
254000.0 467770.0 0
258000.0 467770.0 0
262000.0 467770.0 0
266000.0 467770.0 0
270000.0 467770.0 0
274000.0 467770.0 0
278000.0 467770.0 0
282000.0 467770.0 0
286000.0 467770.0 0
290000.0 467770.0 0
294000.0 467770.0 0
298000.0 467770.0 0
301999.0 467770.0 0
305999.0 467770.0 0
309999.0 467770.0 0
313999.0 467770.0 0
317998.0 467770.0 0
321997.0 467770.0 0
325997.0 467770.0 0
329995.0 467770.0 0
333994.0 467770.0 0
337992.0 467770.0 0
341990.0 467770.0 0
345987.0 467770.0 0
349983.0 467770.0 0
353978.0 467788.0 0
357972.0 467768.0 0
361952.0 468084.0 0
365937.0 467807.0 0
369915.0 468148.0 0
373896.0 467832.0 0
377868.0 468234.0 0
381907.0 467976.0 0
385918.0 467979.0 0
389916.0 468095.0 0
393943.0 468047.0 0
397952.0 468076.0 0
101979.0 472063.0 0
105978.0 472020.0 0
109976.0 472068.0 0
113973.0 471958.0 0
117972.0 471951.0 0
121963.0 472175.0 0
125983.0 471819.0 0
129971.0 472113.0 0
133997.0 471798.0 0
137990.0 472019.0 0
142000.0 471770.0 0
146000.0 471781.0 0
150000.0 471770.0 0
154000.0 471770.0 0
158000.0 471770.0 0
162000.0 471770.0 0
166000.0 471770.0 0
170000.0 471770.0 0
174000.0 471770.0 0
178000.0 471770.0 0
182000.0 471770.0 0
186000.0 471770.0 0
190000.0 471770.0 0
194000.0 471770.0 0
198000.0 471770.0 0
202000.0 471770.0 0
206000.0 471770.0 0
210000.0 471770.0 0
214000.0 471770.0 0
218000.0 471770.0 0
222000.0 471770.0 0
226000.0 471770.0 0
230000.0 471770.0 0
234000.0 471770.0 0
238000.0 471770.0 0
242000.0 471770.0 0
246000.0 471770.0 0
250000.0 471770.0 0
254000.0 471770.0 0
258000.0 471770.0 0
262000.0 471770.0 0
266000.0 471770.0 0
270000.0 471770.0 0
274000.0 471770.0 0
278000.0 471770.0 0
282000.0 471770.0 0
286000.0 471770.0 0
290000.0 471770.0 0
294000.0 471770.0 0
298000.0 471770.0 0
302000.0 471770.0 0
306000.0 471770.0 0
310000.0 471770.0 0
314000.0 471770.0 0
318000.0 471770.0 0
322000.0 471770.0 0
326000.0 471770.0 0
330000.0 471770.0 0
334000.0 471770.0 0
338000.0 471770.0 0
342000.0 471770.0 0
346000.0 471770.0 0
350000.0 471770.0 0
354000.0 471781.0 0
358000.0 471770.0 0
362010.0 472019.0 0
366003.0 471798.0 0
370029.0 472113.0 0
374017.0 471819.0 0
378037.0 472175.0 0
382028.0 471951.0 0
386027.0 471958.0 0
390024.0 472068.0 0
394022.0 472020.0 0
398021.0 472063.0 0
102003.0 476050.0 0
106003.0 476001.0 0
110005.0 476042.0 0
114003.0 475942.0 0
118004.0 475929.0 0
122017.0 476125.0 0
126004.0 475810.0 0
130009.0 476076.0 0
134000.0 475790.0 0
138001.0 475963.0 0
142000.0 475770.0 0
146000.0 475776.0 0
150000.0 475770.0 0
154000.0 475770.0 0
158000.0 475770.0 0
162000.0 475770.0 0
166000.0 475770.0 0
170000.0 475770.0 0
174000.0 475770.0 0
178000.0 475770.0 0
182000.0 475770.0 0
186000.0 475770.0 0
190000.0 475770.0 0
194000.0 475770.0 0
198000.0 475770.0 0
202000.0 475770.0 0
206000.0 475770.0 0
210000.0 475770.0 0
214000.0 475770.0 0
218000.0 475770.0 0
222000.0 475770.0 0
226000.0 475770.0 0
230000.0 475770.0 0
234000.0 475770.0 0
238000.0 475770.0 0
242000.0 475770.0 0
246000.0 475770.0 0
250000.0 475770.0 0
254000.0 475770.0 0
258000.0 475770.0 0
262000.0 475770.0 0
266000.0 475770.0 0
270000.0 475770.0 0
274000.0 475770.0 0
278000.0 475770.0 0
282000.0 475770.0 0
286000.0 475770.0 0
290000.0 475770.0 0
294000.0 475770.0 0
298000.0 475770.0 0
302000.0 475770.0 0
306000.0 475770.0 0
310000.0 475770.0 0
314000.0 475770.0 0
318000.0 475770.0 0
322000.0 475770.0 0
326000.0 475770.0 0
330000.0 475770.0 0
334000.0 475770.0 0
338000.0 475770.0 0
342000.0 475770.0 0
346000.0 475770.0 0
350000.0 475770.0 0
354000.0 475776.0 0
358000.0 475770.0 0
361999.0 475963.0 0
366000.0 475790.0 0
369991.0 476076.0 0
373996.0 475810.0 0
377983.0 476125.0 0
381996.0 475929.0 0
385997.0 475942.0 0
389995.0 476042.0 0
393997.0 476001.0 0
397997.0 476050.0 0
113999.0 479930.0 0
117999.0 479910.0 0
126000.0 479803.0 0
129999.0 480039.0 0
134000.0 479784.0 0
138000.0 479917.0 0
142000.0 479770.0 0
146000.0 479773.0 0
150000.0 479770.0 0
154000.0 479770.0 0
158000.0 479770.0 0
162000.0 479770.0 0
166000.0 479770.0 0
170000.0 479770.0 0
174000.0 479770.0 0
178000.0 479770.0 0
182000.0 479770.0 0
186000.0 479770.0 0
190000.0 479770.0 0
194000.0 479770.0 0
198000.0 479770.0 0
202000.0 479770.0 0
206000.0 479770.0 0
210000.0 479770.0 0
214000.0 479770.0 0
218000.0 479770.0 0
222000.0 479770.0 0
226000.0 479770.0 0
230000.0 479770.0 0
234000.0 479770.0 0
238000.0 479770.0 0
242000.0 479770.0 0
246000.0 479770.0 0
250000.0 479770.0 0
254000.0 479770.0 0
258000.0 479770.0 0
262000.0 479770.0 0
266000.0 479770.0 0
270000.0 479770.0 0
274000.0 479770.0 0
278000.0 479770.0 0
282000.0 479770.0 0
286000.0 479770.0 0
290000.0 479770.0 0
294000.0 479770.0 0
298000.0 479770.0 0
302000.0 479770.0 0
306000.0 479770.0 0
310000.0 479770.0 0
314000.0 479770.0 0
318000.0 479770.0 0
322000.0 479770.0 0
326000.0 479770.0 0
330000.0 479770.0 0
334000.0 479770.0 0
338000.0 479770.0 0
342000.0 479770.0 0
346000.0 479770.0 0
350000.0 479770.0 0
354000.0 479773.0 0
358000.0 479770.0 0
362000.0 479917.0 0
366000.0 479784.0 0
370001.0 480039.0 0
374000.0 479803.0 0
382001.0 479910.0 0
386001.0 479930.0 0
101999.0 480037.0 0
105999.0 479987.0 0
109999.0 480017.0 0
121996.0 480080.0 0
378004.0 480080.0 0
390001.0 480017.0 0
394001.0 479987.0 0
398001.0 480037.0 0
102000.0 484023.0 0
106000.0 483975.0 0
110000.0 483993.0 0
114000.0 483919.0 0
118000.0 483894.0 0
122001.0 484041.0 0
126000.0 483797.0 0
130000.0 484002.0 0
134000.0 483779.0 0
138000.0 483879.0 0
142000.0 483770.0 0
146000.0 483772.0 0
150000.0 483770.0 0
154000.0 483770.0 0
158000.0 483770.0 0
162000.0 483770.0 0
166000.0 483770.0 0
170000.0 483770.0 0
174000.0 483770.0 0
178000.0 483770.0 0
182000.0 483770.0 0
186000.0 483770.0 0
190000.0 483770.0 0
194000.0 483770.0 0
198000.0 483770.0 0
202000.0 483770.0 0
206000.0 483770.0 0
210000.0 483770.0 0
214000.0 483770.0 0
218000.0 483770.0 0
222000.0 483770.0 0
226000.0 483770.0 0
230000.0 483770.0 0
234000.0 483770.0 0
238000.0 483770.0 0
242000.0 483770.0 0
246000.0 483770.0 0
250000.0 483770.0 0
254000.0 483770.0 0
258000.0 483770.0 0
262000.0 483770.0 0
266000.0 483770.0 0
270000.0 483770.0 0
274000.0 483770.0 0
278000.0 483770.0 0
282000.0 483770.0 0
286000.0 483770.0 0
290000.0 483770.0 0
294000.0 483770.0 0
298000.0 483770.0 0
302000.0 483770.0 0
306000.0 483770.0 0
310000.0 483770.0 0
314000.0 483770.0 0
318000.0 483770.0 0
322000.0 483770.0 0
326000.0 483770.0 0
330000.0 483770.0 0
334000.0 483770.0 0
338000.0 483770.0 0
342000.0 483770.0 0
346000.0 483770.0 0
350000.0 483770.0 0
354000.0 483772.0 0
358000.0 483770.0 0
362000.0 483879.0 0
366000.0 483779.0 0
370000.0 484002.0 0
374000.0 483797.0 0
377999.0 484041.0 0
382000.0 483894.0 0
386000.0 483919.0 0
390000.0 483993.0 0
394000.0 483975.0 0
398000.0 484023.0 0
126000.0 487792.0 0
134000.0 487775.0 0
138000.0 487850.0 0
142000.0 487770.0 0
146000.0 487771.0 0
150000.0 487770.0 0
154000.0 487770.0 0
158000.0 487770.0 0
162000.0 487770.0 0
166000.0 487770.0 0
170000.0 487770.0 0
174000.0 487770.0 0
178000.0 487770.0 0
182000.0 487770.0 0
186000.0 487770.0 0
190000.0 487770.0 0
194000.0 487770.0 0
198000.0 487770.0 0
202000.0 487770.0 0
206000.0 487770.0 0
210000.0 487770.0 0
214000.0 487770.0 0
218000.0 487770.0 0
222000.0 487770.0 0
226000.0 487770.0 0
230000.0 487770.0 0
234000.0 487770.0 0
238000.0 487770.0 0
242000.0 487770.0 0
246000.0 487770.0 0
250000.0 487770.0 0
254000.0 487770.0 0
258000.0 487770.0 0
262000.0 487770.0 0
266000.0 487770.0 0
270000.0 487770.0 0
274000.0 487770.0 0
278000.0 487770.0 0
282000.0 487770.0 0
286000.0 487770.0 0
290000.0 487770.0 0
294000.0 487770.0 0
298000.0 487770.0 0
302000.0 487770.0 0
306000.0 487770.0 0
310000.0 487770.0 0
314000.0 487770.0 0
318000.0 487770.0 0
322000.0 487770.0 0
326000.0 487770.0 0
330000.0 487770.0 0
334000.0 487770.0 0
338000.0 487770.0 0
342000.0 487770.0 0
346000.0 487770.0 0
350000.0 487770.0 0
354000.0 487771.0 0
358000.0 487770.0 0
362000.0 487850.0 0
366000.0 487775.0 0
374000.0 487792.0 0
102000.0 488008.0 0
106000.0 487965.0 0
110000.0 487971.0 0
114000.0 487910.0 0
118000.0 487878.0 0
122000.0 488005.0 0
130000.0 487968.0 0
370000.0 487968.0 0
378000.0 488005.0 0
382000.0 487878.0 0
386000.0 487910.0 0
390000.0 487971.0 0
394000.0 487965.0 0
398000.0 488008.0 0
102000.0 491994.0 0
106000.0 491955.0 0
110000.0 491950.0 0
114000.0 491902.0 0
118000.0 491865.0 0
122000.0 491974.0 0
126000.0 491787.0 0
130000.0 491937.0 0
134000.0 491773.0 0
138000.0 491827.0 0
142000.0 491770.0 0
146000.0 491770.0 0
150000.0 491770.0 0
154000.0 491770.0 0
158000.0 491770.0 0
162000.0 491770.0 0
166000.0 491770.0 0
170000.0 491770.0 0
174000.0 491770.0 0
178000.0 491770.0 0
182000.0 491770.0 0
186000.0 491770.0 0
190000.0 491770.0 0
194000.0 491770.0 0
198000.0 491770.0 0
202000.0 491770.0 0
206000.0 491770.0 0
210000.0 491770.0 0
214000.0 491770.0 0
218000.0 491770.0 0
222000.0 491770.0 0
226000.0 491770.0 0
230000.0 491770.0 0
234000.0 491770.0 0
238000.0 491770.0 0
242000.0 491770.0 0
246000.0 491770.0 0
250000.0 491770.0 0
254000.0 491770.0 0
258000.0 491770.0 0
262000.0 491770.0 0
266000.0 491770.0 0
270000.0 491770.0 0
274000.0 491770.0 0
278000.0 491770.0 0
282000.0 491770.0 0
286000.0 491770.0 0
290000.0 491770.0 0
294000.0 491770.0 0
298000.0 491770.0 0
302000.0 491770.0 0
306000.0 491770.0 0
310000.0 491770.0 0
314000.0 491770.0 0
318000.0 491770.0 0
322000.0 491770.0 0
326000.0 491770.0 0
330000.0 491770.0 0
334000.0 491770.0 0
338000.0 491770.0 0
342000.0 491770.0 0
346000.0 491770.0 0
350000.0 491770.0 0
354000.0 491770.0 0
358000.0 491770.0 0
362000.0 491827.0 0
366000.0 491773.0 0
370000.0 491937.0 0
374000.0 491787.0 0
378000.0 491974.0 0
382000.0 491865.0 0
386000.0 491902.0 0
390000.0 491950.0 0
394000.0 491955.0 0
398000.0 491994.0 0
102000.0 495979.0 0
106000.0 495946.0 0
110000.0 495931.0 0
114000.0 495894.0 0
118000.0 495853.0 0
122000.0 495946.0 0
126000.0 495783.0 0
130000.0 495909.0 0
134000.0 495772.0 0
138000.0 495810.0 0
142000.0 495770.0 0
146000.0 495770.0 0
150000.0 495770.0 0
154000.0 495770.0 0
158000.0 495770.0 0
162000.0 495770.0 0
166000.0 495770.0 0
170000.0 495770.0 0
174000.0 495770.0 0
178000.0 495770.0 0
182000.0 495770.0 0
186000.0 495770.0 0
190000.0 495770.0 0
194000.0 495770.0 0
198000.0 495770.0 0
202000.0 495770.0 0
206000.0 495770.0 0
210000.0 495770.0 0
214000.0 495770.0 0
218000.0 495770.0 0
222000.0 495770.0 0
226000.0 495770.0 0
230000.0 495770.0 0
234000.0 495770.0 0
238000.0 495770.0 0
242000.0 495770.0 0
246000.0 495770.0 0
250000.0 495770.0 0
254000.0 495770.0 0
258000.0 495770.0 0
262000.0 495770.0 0
266000.0 495770.0 0
270000.0 495770.0 0
274000.0 495770.0 0
278000.0 495770.0 0
282000.0 495770.0 0
286000.0 495770.0 0
290000.0 495770.0 0
294000.0 495770.0 0
298000.0 495770.0 0
302000.0 495770.0 0
306000.0 495770.0 0
310000.0 495770.0 0
314000.0 495770.0 0
318000.0 495770.0 0
322000.0 495770.0 0
326000.0 495770.0 0
330000.0 495770.0 0
334000.0 495770.0 0
338000.0 495770.0 0
342000.0 495770.0 0
346000.0 495770.0 0
350000.0 495770.0 0
354000.0 495770.0 0
358000.0 495770.0 0
362000.0 495810.0 0
366000.0 495772.0 0
370000.0 495909.0 0
374000.0 495783.0 0
378000.0 495946.0 0
382000.0 495853.0 0
386000.0 495894.0 0
390000.0 495931.0 0
394000.0 495946.0 0
398000.0 495979.0 0
102000.0 499964.0 0
106000.0 499936.0 0
110000.0 499913.0 0
114000.0 499886.0 0
118000.0 499842.0 0
122000.0 499921.0 0
126000.0 499780.0 0
130000.0 499884.0 0
134000.0 499771.0 0
138000.0 499798.0 0
142000.0 499770.0 0
146000.0 499770.0 0
150000.0 499770.0 0
154000.0 499770.0 0
158000.0 499770.0 0
162000.0 499770.0 0
166000.0 499770.0 0
170000.0 499770.0 0
174000.0 499770.0 0
178000.0 499770.0 0
182000.0 499770.0 0
186000.0 499770.0 0
190000.0 499770.0 0
194000.0 499770.0 0
198000.0 499770.0 0
202000.0 499770.0 0
206000.0 499770.0 0
210000.0 499770.0 0
214000.0 499770.0 0
218000.0 499770.0 0
222000.0 499770.0 0
226000.0 499770.0 0
230000.0 499770.0 0
234000.0 499770.0 0
238000.0 499770.0 0
242000.0 499770.0 0
246000.0 499770.0 0
250000.0 499770.0 0
254000.0 499770.0 0
258000.0 499770.0 0
262000.0 499770.0 0
266000.0 499770.0 0
270000.0 499770.0 0
274000.0 499770.0 0
278000.0 499770.0 0
282000.0 499770.0 0
286000.0 499770.0 0
290000.0 499770.0 0
294000.0 499770.0 0
298000.0 499770.0 0
302000.0 499770.0 0
306000.0 499770.0 0
310000.0 499770.0 0
314000.0 499770.0 0
318000.0 499770.0 0
322000.0 499770.0 0
326000.0 499770.0 0
330000.0 499770.0 0
334000.0 499770.0 0
338000.0 499770.0 0
342000.0 499770.0 0
346000.0 499770.0 0
350000.0 499770.0 0
354000.0 499770.0 0
358000.0 499770.0 0
362000.0 499798.0 0
366000.0 499771.0 0
370000.0 499884.0 0
374000.0 499780.0 0
378000.0 499921.0 0
382000.0 499842.0 0
386000.0 499886.0 0
390000.0 499913.0 0
394000.0 499936.0 0
398000.0 499964.0 0
102000.0 503950.0 0
106000.0 503926.0 0
110000.0 503898.0 0
114000.0 503878.0 0
118000.0 503833.0 0
122000.0 503898.0 0
126000.0 503777.0 0
130000.0 503863.0 0
134000.0 503770.0 0
138000.0 503790.0 0
142000.0 503770.0 0
146000.0 503770.0 0
150000.0 503770.0 0
154000.0 503770.0 0
158000.0 503770.0 0
162000.0 503770.0 0
166000.0 503770.0 0
170000.0 503770.0 0
174000.0 503770.0 0
178000.0 503770.0 0
182000.0 503770.0 0
186000.0 503770.0 0
190000.0 503770.0 0
194000.0 503770.0 0
198000.0 503770.0 0
202000.0 503770.0 0
206000.0 503770.0 0
210000.0 503770.0 0
214000.0 503770.0 0
218000.0 503770.0 0
222000.0 503770.0 0
226000.0 503770.0 0
230000.0 503770.0 0
234000.0 503770.0 0
238000.0 503770.0 0
242000.0 503770.0 0
246000.0 503770.0 0
250000.0 503770.0 0
254000.0 503770.0 0
258000.0 503770.0 0
262000.0 503770.0 0
266000.0 503770.0 0
270000.0 503770.0 0
274000.0 503770.0 0
278000.0 503770.0 0
282000.0 503770.0 0
286000.0 503770.0 0
290000.0 503770.0 0
294000.0 503770.0 0
298000.0 503770.0 0
302000.0 503770.0 0
306000.0 503770.0 0
310000.0 503770.0 0
314000.0 503770.0 0
318000.0 503770.0 0
322000.0 503770.0 0
326000.0 503770.0 0
330000.0 503770.0 0
334000.0 503770.0 0
338000.0 503770.0 0
342000.0 503770.0 0
346000.0 503770.0 0
350000.0 503770.0 0
354000.0 503770.0 0
358000.0 503770.0 0
362000.0 503790.0 0
366000.0 503770.0 0
370000.0 503863.0 0
374000.0 503777.0 0
378000.0 503898.0 0
382000.0 503833.0 0
386000.0 503878.0 0
390000.0 503898.0 0
394000.0 503926.0 0
398000.0 503950.0 0
102000.0 507936.0 0
106000.0 507915.0 0
110000.0 507883.0 0
114000.0 507870.0 0
118000.0 507825.0 0
122000.0 507879.0 0
126000.0 507775.0 0
130000.0 507845.0 0
134000.0 507770.0 0
138000.0 507783.0 0
142000.0 507770.0 0
146000.0 507770.0 0
150000.0 507770.0 0
154000.0 507770.0 0
158000.0 507770.0 0
162000.0 507770.0 0
166000.0 507770.0 0
170000.0 507770.0 0
174000.0 507770.0 0
178000.0 507770.0 0
182000.0 507770.0 0
186000.0 507770.0 0
190000.0 507770.0 0
194000.0 507770.0 0
198000.0 507770.0 0
202000.0 507770.0 0
206000.0 507770.0 0
210000.0 507770.0 0
214000.0 507770.0 0
218000.0 507770.0 0
222000.0 507770.0 0
226000.0 507770.0 0
230000.0 507770.0 0
234000.0 507770.0 0
238000.0 507770.0 0
242000.0 507770.0 0
246000.0 507770.0 0
250000.0 507770.0 0
254000.0 507770.0 0
258000.0 507770.0 0
262000.0 507770.0 0
266000.0 507770.0 0
270000.0 507770.0 0
274000.0 507770.0 0
278000.0 507770.0 0
282000.0 507770.0 0
286000.0 507770.0 0
290000.0 507770.0 0
294000.0 507770.0 0
298000.0 507770.0 0
302000.0 507770.0 0
306000.0 507770.0 0
310000.0 507770.0 0
314000.0 507770.0 0
318000.0 507770.0 0
322000.0 507770.0 0
326000.0 507770.0 0
330000.0 507770.0 0
334000.0 507770.0 0
338000.0 507770.0 0
342000.0 507770.0 0
346000.0 507770.0 0
350000.0 507770.0 0
354000.0 507770.0 0
358000.0 507770.0 0
362000.0 507783.0 0
366000.0 507770.0 0
370000.0 507845.0 0
374000.0 507775.0 0
378000.0 507879.0 0
382000.0 507825.0 0
386000.0 507870.0 0
390000.0 507883.0 0
394000.0 507915.0 0
398000.0 507936.0 0
102000.0 511923.0 0
106000.0 511905.0 0
110000.0 511870.0 0
114000.0 511862.0 0
118000.0 511817.0 0
122000.0 511861.0 0
126000.0 511774.0 0
130000.0 511829.0 0
134000.0 511770.0 0
138000.0 511779.0 0
142000.0 511770.0 0
146000.0 511770.0 0
150000.0 511770.0 0
154000.0 511770.0 0
158000.0 511770.0 0
162000.0 511770.0 0
166000.0 511770.0 0
170000.0 511770.0 0
174000.0 511770.0 0
178000.0 511770.0 0
182000.0 511770.0 0
186000.0 511770.0 0
190000.0 511770.0 0
194000.0 511770.0 0
198000.0 511770.0 0
202000.0 511770.0 0
206000.0 511770.0 0
210000.0 511770.0 0
214000.0 511770.0 0
218000.0 511770.0 0
222000.0 511770.0 0
226000.0 511770.0 0
230000.0 511770.0 0
234000.0 511770.0 0
238000.0 511770.0 0
242000.0 511770.0 0
246000.0 511770.0 0
250000.0 511770.0 0
254000.0 511770.0 0
258000.0 511770.0 0
262000.0 511770.0 0
266000.0 511770.0 0
270000.0 511770.0 0
274000.0 511770.0 0
278000.0 511770.0 0
282000.0 511770.0 0
286000.0 511770.0 0
290000.0 511770.0 0
294000.0 511770.0 0
298000.0 511770.0 0
302000.0 511770.0 0
306000.0 511770.0 0
310000.0 511770.0 0
314000.0 511770.0 0
318000.0 511770.0 0
322000.0 511770.0 0
326000.0 511770.0 0
330000.0 511770.0 0
334000.0 511770.0 0
338000.0 511770.0 0
342000.0 511770.0 0
346000.0 511770.0 0
350000.0 511770.0 0
354000.0 511770.0 0
358000.0 511770.0 0
362000.0 511779.0 0
366000.0 511770.0 0
370000.0 511829.0 0
374000.0 511774.0 0
378000.0 511861.0 0
382000.0 511817.0 0
386000.0 511862.0 0
390000.0 511870.0 0
394000.0 511905.0 0
398000.0 511923.0 0
102000.0 515910.0 0
106000.0 515895.0 0
110000.0 515859.0 0
114000.0 515854.0 0
118000.0 515810.0 0
122000.0 515846.0 0
126000.0 515772.0 0
130000.0 515817.0 0
134000.0 515770.0 0
138000.0 515776.0 0
142000.0 515770.0 0
146000.0 515770.0 0
150000.0 515770.0 0
154000.0 515770.0 0
158000.0 515770.0 0
162000.0 515770.0 0
166000.0 515770.0 0
170000.0 515770.0 0
174000.0 515770.0 0
178000.0 515770.0 0
182000.0 515770.0 0
186000.0 515770.0 0
190000.0 515770.0 0
194000.0 515770.0 0
198000.0 515770.0 0
202000.0 515770.0 0
206000.0 515770.0 0
210000.0 515770.0 0
214000.0 515770.0 0
218000.0 515770.0 0
222000.0 515770.0 0
226000.0 515770.0 0
230000.0 515770.0 0
234000.0 515770.0 0
238000.0 515770.0 0
242000.0 515770.0 0
246000.0 515770.0 0
250000.0 515770.0 0
254000.0 515770.0 0
258000.0 515770.0 0
262000.0 515770.0 0
266000.0 515770.0 0
270000.0 515770.0 0
274000.0 515770.0 0
278000.0 515770.0 0
282000.0 515770.0 0
286000.0 515770.0 0
290000.0 515770.0 0
294000.0 515770.0 0
298000.0 515770.0 0
302000.0 515770.0 0
306000.0 515770.0 0
310000.0 515770.0 0
314000.0 515770.0 0
318000.0 515770.0 0
322000.0 515770.0 0
326000.0 515770.0 0
330000.0 515770.0 0
334000.0 515770.0 0
338000.0 515770.0 0
342000.0 515770.0 0
346000.0 515770.0 0
350000.0 515770.0 0
354000.0 515770.0 0
358000.0 515770.0 0
362000.0 515776.0 0
366000.0 515770.0 0
370000.0 515817.0 0
374000.0 515772.0 0
378000.0 515846.0 0
382000.0 515810.0 0
386000.0 515854.0 0
390000.0 515859.0 0
394000.0 515895.0 0
398000.0 515910.0 0
102000.0 519898.0 0
106000.0 519885.0 0
110000.0 519849.0 0
114000.0 519846.0 0
118000.0 519804.0 0
122000.0 519832.0 0
126000.0 519772.0 0
130000.0 519807.0 0
134000.0 519770.0 0
138000.0 519774.0 0
142000.0 519770.0 0
146000.0 519770.0 0
150000.0 519770.0 0
154000.0 519770.0 0
158000.0 519770.0 0
162000.0 519770.0 0
166000.0 519770.0 0
170000.0 519770.0 0
174000.0 519770.0 0
178000.0 519770.0 0
182000.0 519770.0 0
186000.0 519770.0 0
190000.0 519770.0 0
194000.0 519770.0 0
198000.0 519770.0 0
202000.0 519770.0 0
206000.0 519770.0 0
210000.0 519770.0 0
214000.0 519770.0 0
218000.0 519770.0 0
222000.0 519770.0 0
226000.0 519770.0 0
230000.0 519770.0 0
234000.0 519770.0 0
238000.0 519770.0 0
242000.0 519770.0 0
246000.0 519770.0 0
250000.0 519770.0 0
254000.0 519770.0 0
258000.0 519770.0 0
262000.0 519770.0 0
266000.0 519770.0 0
270000.0 519770.0 0
274000.0 519770.0 0
278000.0 519770.0 0
282000.0 519770.0 0
286000.0 519770.0 0
290000.0 519770.0 0
294000.0 519770.0 0
298000.0 519770.0 0
302000.0 519770.0 0
306000.0 519770.0 0
310000.0 519770.0 0
314000.0 519770.0 0
318000.0 519770.0 0
322000.0 519770.0 0
326000.0 519770.0 0
330000.0 519770.0 0
334000.0 519770.0 0
338000.0 519770.0 0
342000.0 519770.0 0
346000.0 519770.0 0
350000.0 519770.0 0
354000.0 519770.0 0
358000.0 519770.0 0
362000.0 519774.0 0
366000.0 519770.0 0
370000.0 519807.0 0
374000.0 519772.0 0
378000.0 519832.0 0
382000.0 519804.0 0
386000.0 519846.0 0
390000.0 519849.0 0
394000.0 519885.0 0
398000.0 519898.0 0
102000.0 523887.0 0
106000.0 523876.0 0
110000.0 523840.0 0
114000.0 523838.0 0
118000.0 523799.0 0
122000.0 523821.0 0
126000.0 523771.0 0
130000.0 523799.0 0
134000.0 523770.0 0
138000.0 523773.0 0
142000.0 523770.0 0
146000.0 523770.0 0
150000.0 523770.0 0
154000.0 523770.0 0
158000.0 523770.0 0
162000.0 523770.0 0
166000.0 523770.0 0
170000.0 523770.0 0
174000.0 523770.0 0
178000.0 523770.0 0
182000.0 523770.0 0
186000.0 523770.0 0
190000.0 523770.0 0
194000.0 523770.0 0
198000.0 523770.0 0
202000.0 523770.0 0
206000.0 523770.0 0
210000.0 523770.0 0
214000.0 523770.0 0
218000.0 523770.0 0
222000.0 523770.0 0
226000.0 523770.0 0
230000.0 523770.0 0
234000.0 523770.0 0
238000.0 523770.0 0
242000.0 523770.0 0
246000.0 523770.0 0
250000.0 523770.0 0
254000.0 523770.0 0
258000.0 523770.0 0
262000.0 523770.0 0
266000.0 523770.0 0
270000.0 523770.0 0
274000.0 523770.0 0
278000.0 523770.0 0
282000.0 523770.0 0
286000.0 523770.0 0
290000.0 523770.0 0
294000.0 523770.0 0
298000.0 523770.0 0
302000.0 523770.0 0
306000.0 523770.0 0
310000.0 523770.0 0
314000.0 523770.0 0
318000.0 523770.0 0
322000.0 523770.0 0
326000.0 523770.0 0
330000.0 523770.0 0
334000.0 523770.0 0
338000.0 523770.0 0
342000.0 523770.0 0
346000.0 523770.0 0
350000.0 523770.0 0
354000.0 523770.0 0
358000.0 523770.0 0
362000.0 523773.0 0
366000.0 523770.0 0
370000.0 523799.0 0
374000.0 523771.0 0
378000.0 523821.0 0
382000.0 523799.0 0
386000.0 523838.0 0
390000.0 523840.0 0
394000.0 523876.0 0
398000.0 523887.0 0
102000.0 527876.0 0
106000.0 527866.0 0
110000.0 527832.0 0
114000.0 527831.0 0
118000.0 527794.0 0
122000.0 527811.0 0
126000.0 527771.0 0
130000.0 527792.0 0
134000.0 527770.0 0
138000.0 527772.0 0
142000.0 527770.0 0
146000.0 527770.0 0
150000.0 527770.0 0
154000.0 527770.0 0
158000.0 527770.0 0
162000.0 527770.0 0
166000.0 527770.0 0
170000.0 527770.0 0
174000.0 527770.0 0
178000.0 527770.0 0
182000.0 527770.0 0
186000.0 527770.0 0
190000.0 527770.0 0
194000.0 527770.0 0
198000.0 527770.0 0
202000.0 527770.0 0
206000.0 527770.0 0
210000.0 527770.0 0
214000.0 527770.0 0
218000.0 527770.0 0
222000.0 527770.0 0
226000.0 527770.0 0
230000.0 527770.0 0
234000.0 527770.0 0
238000.0 527770.0 0
242000.0 527770.0 0
246000.0 527770.0 0
250000.0 527770.0 0
254000.0 527770.0 0
258000.0 527770.0 0
262000.0 527770.0 0
266000.0 527770.0 0
270000.0 527770.0 0
274000.0 527770.0 0
278000.0 527770.0 0
282000.0 527770.0 0
286000.0 527770.0 0
290000.0 527770.0 0
294000.0 527770.0 0
298000.0 527770.0 0
302000.0 527770.0 0
306000.0 527770.0 0
310000.0 527770.0 0
314000.0 527770.0 0
318000.0 527770.0 0
322000.0 527770.0 0
326000.0 527770.0 0
330000.0 527770.0 0
334000.0 527770.0 0
338000.0 527770.0 0
342000.0 527770.0 0
346000.0 527770.0 0
350000.0 527770.0 0
354000.0 527770.0 0
358000.0 527770.0 0
362000.0 527772.0 0
366000.0 527770.0 0
370000.0 527792.0 0
374000.0 527771.0 0
378000.0 527811.0 0
382000.0 527794.0 0
386000.0 527831.0 0
390000.0 527832.0 0
394000.0 527866.0 0
398000.0 527876.0 0
102000.0 531866.0 0
106000.0 531858.0 0
110000.0 531825.0 0
114000.0 531824.0 0
118000.0 531790.0 0
122000.0 531803.0 0
126000.0 531770.0 0
130000.0 531787.0 0
134000.0 531770.0 0
138000.0 531771.0 0
142000.0 531770.0 0
146000.0 531770.0 0
150000.0 531770.0 0
154000.0 531770.0 0
158000.0 531770.0 0
162000.0 531770.0 0
166000.0 531770.0 0
170000.0 531770.0 0
174000.0 531770.0 0
178000.0 531770.0 0
182000.0 531770.0 0
186000.0 531770.0 0
190000.0 531770.0 0
194000.0 531770.0 0
198000.0 531770.0 0
202000.0 531770.0 0
206000.0 531770.0 0
210000.0 531770.0 0
214000.0 531770.0 0
218000.0 531770.0 0
222000.0 531770.0 0
226000.0 531770.0 0
230000.0 531770.0 0
234000.0 531770.0 0
238000.0 531770.0 0
242000.0 531770.0 0
246000.0 531770.0 0
250000.0 531770.0 0
254000.0 531770.0 0
258000.0 531770.0 0
262000.0 531770.0 0
266000.0 531770.0 0
270000.0 531770.0 0
274000.0 531770.0 0
278000.0 531770.0 0
282000.0 531770.0 0
286000.0 531770.0 0
290000.0 531770.0 0
294000.0 531770.0 0
298000.0 531770.0 0
302000.0 531770.0 0
306000.0 531770.0 0
310000.0 531770.0 0
314000.0 531770.0 0
318000.0 531770.0 0
322000.0 531770.0 0
326000.0 531770.0 0
330000.0 531770.0 0
334000.0 531770.0 0
338000.0 531770.0 0
342000.0 531770.0 0
346000.0 531770.0 0
350000.0 531770.0 0
354000.0 531770.0 0
358000.0 531770.0 0
362000.0 531771.0 0
366000.0 531770.0 0
370000.0 531787.0 0
374000.0 531770.0 0
378000.0 531803.0 0
382000.0 531790.0 0
386000.0 531824.0 0
390000.0 531825.0 0
394000.0 531858.0 0
398000.0 531866.0 0
102000.0 535857.0 0
106000.0 535849.0 0
110000.0 535818.0 0
114000.0 535818.0 0
118000.0 535786.0 0
122000.0 535796.0 0
126000.0 535770.0 0
130000.0 535783.0 0
134000.0 535770.0 0
138000.0 535771.0 0
142000.0 535770.0 0
146000.0 535770.0 0
150000.0 535770.0 0
154000.0 535770.0 0
158000.0 535770.0 0
162000.0 535770.0 0
166000.0 535770.0 0
170000.0 535770.0 0
174000.0 535770.0 0
178000.0 535770.0 0
182000.0 535770.0 0
186000.0 535770.0 0
190000.0 535770.0 0
194000.0 535770.0 0
198000.0 535770.0 0
202000.0 535770.0 0
206000.0 535770.0 0
210000.0 535770.0 0
214000.0 535770.0 0
218000.0 535770.0 0
222000.0 535770.0 0
226000.0 535770.0 0
230000.0 535770.0 0
234000.0 535770.0 0
238000.0 535770.0 0
242000.0 535770.0 0
246000.0 535770.0 0
250000.0 535770.0 0
254000.0 535770.0 0
258000.0 535770.0 0
262000.0 535770.0 0
266000.0 535770.0 0
270000.0 535770.0 0
274000.0 535770.0 0
278000.0 535770.0 0
282000.0 535770.0 0
286000.0 535770.0 0
290000.0 535770.0 0
294000.0 535770.0 0
298000.0 535770.0 0
302000.0 535770.0 0
306000.0 535770.0 0
310000.0 535770.0 0
314000.0 535770.0 0
318000.0 535770.0 0
322000.0 535770.0 0
326000.0 535770.0 0
330000.0 535770.0 0
334000.0 535770.0 0
338000.0 535770.0 0
342000.0 535770.0 0
346000.0 535770.0 0
350000.0 535770.0 0
354000.0 535770.0 0
358000.0 535770.0 0
362000.0 535771.0 0
366000.0 535770.0 0
370000.0 535783.0 0
374000.0 535770.0 0
378000.0 535796.0 0
382000.0 535786.0 0
386000.0 535818.0 0
390000.0 535818.0 0
394000.0 535849.0 0
398000.0 535857.0 0
102000.0 539849.0 0
106000.0 539842.0 0
110000.0 539813.0 0
114000.0 539812.0 0
118000.0 539783.0 0
122000.0 539790.0 0
126000.0 539770.0 0
130000.0 539780.0 0
134000.0 539770.0 0
138000.0 539771.0 0
142000.0 539770.0 0
146000.0 539770.0 0
150000.0 539770.0 0
154000.0 539770.0 0
158000.0 539770.0 0
162000.0 539770.0 0
166000.0 539770.0 0
170000.0 539770.0 0
174000.0 539770.0 0
178000.0 539770.0 0
182000.0 539770.0 0
186000.0 539770.0 0
190000.0 539770.0 0
194000.0 539770.0 0
198000.0 539770.0 0
202000.0 539770.0 0
206000.0 539770.0 0
210000.0 539770.0 0
214000.0 539770.0 0
218000.0 539770.0 0
222000.0 539770.0 0
226000.0 539770.0 0
230000.0 539770.0 0
234000.0 539770.0 0
238000.0 539770.0 0
242000.0 539770.0 0
246000.0 539770.0 0
250000.0 539770.0 0
254000.0 539770.0 0
258000.0 539770.0 0
262000.0 539770.0 0
266000.0 539770.0 0
270000.0 539770.0 0
274000.0 539770.0 0
278000.0 539770.0 0
282000.0 539770.0 0
286000.0 539770.0 0
290000.0 539770.0 0
294000.0 539770.0 0
298000.0 539770.0 0
302000.0 539770.0 0
306000.0 539770.0 0
310000.0 539770.0 0
314000.0 539770.0 0
318000.0 539770.0 0
322000.0 539770.0 0
326000.0 539770.0 0
330000.0 539770.0 0
334000.0 539770.0 0
338000.0 539770.0 0
342000.0 539770.0 0
346000.0 539770.0 0
350000.0 539770.0 0
354000.0 539770.0 0
358000.0 539770.0 0
362000.0 539771.0 0
366000.0 539770.0 0
370000.0 539780.0 0
374000.0 539770.0 0
378000.0 539790.0 0
382000.0 539783.0 0
386000.0 539812.0 0
390000.0 539813.0 0
394000.0 539842.0 0
398000.0 539849.0 0
102000.0 543841.0 0
106000.0 543835.0 0
110000.0 543808.0 0
114000.0 543807.0 0
118000.0 543781.0 0
122000.0 543786.0 0
126000.0 543770.0 0
130000.0 543777.0 0
134000.0 543770.0 0
138000.0 543770.0 0
142000.0 543770.0 0
146000.0 543770.0 0
150000.0 543770.0 0
154000.0 543770.0 0
158000.0 543770.0 0
162000.0 543770.0 0
166000.0 543770.0 0
170000.0 543770.0 0
174000.0 543770.0 0
178000.0 543770.0 0
182000.0 543770.0 0
186000.0 543770.0 0
190000.0 543770.0 0
194000.0 543770.0 0
198000.0 543770.0 0
202000.0 543770.0 0
206000.0 543770.0 0
210000.0 543770.0 0
214000.0 543770.0 0
218000.0 543770.0 0
222000.0 543770.0 0
226000.0 543770.0 0
230000.0 543770.0 0
234000.0 543770.0 0
238000.0 543770.0 0
242000.0 543770.0 0
246000.0 543770.0 0
250000.0 543770.0 0
254000.0 543770.0 0
258000.0 543770.0 0
262000.0 543770.0 0
266000.0 543770.0 0
270000.0 543770.0 0
274000.0 543770.0 0
278000.0 543770.0 0
282000.0 543770.0 0
286000.0 543770.0 0
290000.0 543770.0 0
294000.0 543770.0 0
298000.0 543770.0 0
302000.0 543770.0 0
306000.0 543770.0 0
310000.0 543770.0 0
314000.0 543770.0 0
318000.0 543770.0 0
322000.0 543770.0 0
326000.0 543770.0 0
330000.0 543770.0 0
334000.0 543770.0 0
338000.0 543770.0 0
342000.0 543770.0 0
346000.0 543770.0 0
350000.0 543770.0 0
354000.0 543770.0 0
358000.0 543770.0 0
362000.0 543770.0 0
366000.0 543770.0 0
370000.0 543777.0 0
374000.0 543770.0 0
378000.0 543786.0 0
382000.0 543781.0 0
386000.0 543807.0 0
390000.0 543808.0 0
394000.0 543835.0 0
398000.0 543841.0 0
102000.0 547833.0 0
106000.0 547828.0 0
110000.0 547803.0 0
114000.0 547802.0 0
118000.0 547779.0 0
122000.0 547782.0 0
126000.0 547770.0 0
130000.0 547775.0 0
134000.0 547770.0 0
138000.0 547770.0 0
142000.0 547770.0 0
146000.0 547770.0 0
150000.0 547770.0 0
154000.0 547770.0 0
158000.0 547770.0 0
162000.0 547770.0 0
166000.0 547770.0 0
170000.0 547770.0 0
174000.0 547770.0 0
178000.0 547770.0 0
182000.0 547770.0 0
186000.0 547770.0 0
190000.0 547770.0 0
194000.0 547770.0 0
198000.0 547770.0 0
202000.0 547770.0 0
206000.0 547770.0 0
210000.0 547770.0 0
214000.0 547770.0 0
218000.0 547770.0 0
222000.0 547770.0 0
226000.0 547770.0 0
230000.0 547770.0 0
234000.0 547770.0 0
238000.0 547770.0 0
242000.0 547770.0 0
246000.0 547770.0 0
250000.0 547770.0 0
254000.0 547770.0 0
258000.0 547770.0 0
262000.0 547770.0 0
266000.0 547770.0 0
270000.0 547770.0 0
274000.0 547770.0 0
278000.0 547770.0 0
282000.0 547770.0 0
286000.0 547770.0 0
290000.0 547770.0 0
294000.0 547770.0 0
298000.0 547770.0 0
302000.0 547770.0 0
306000.0 547770.0 0
310000.0 547770.0 0
314000.0 547770.0 0
318000.0 547770.0 0
322000.0 547770.0 0
326000.0 547770.0 0
330000.0 547770.0 0
334000.0 547770.0 0
338000.0 547770.0 0
342000.0 547770.0 0
346000.0 547770.0 0
350000.0 547770.0 0
354000.0 547770.0 0
358000.0 547770.0 0
362000.0 547770.0 0
366000.0 547770.0 0
370000.0 547775.0 0
374000.0 547770.0 0
378000.0 547782.0 0
382000.0 547779.0 0
386000.0 547802.0 0
390000.0 547803.0 0
394000.0 547828.0 0
398000.0 547833.0 0
102000.0 551827.0 0
106000.0 551822.0 0
110000.0 551799.0 0
114000.0 551797.0 0
118000.0 551777.0 0
122000.0 551779.0 0
126000.0 551770.0 0
130000.0 551774.0 0
134000.0 551770.0 0
138000.0 551770.0 0
142000.0 551770.0 0
146000.0 551770.0 0
150000.0 551770.0 0
154000.0 551770.0 0
158000.0 551770.0 0
162000.0 551770.0 0
166000.0 551770.0 0
170000.0 551770.0 0
174000.0 551770.0 0
178000.0 551770.0 0
182000.0 551770.0 0
186000.0 551770.0 0
190000.0 551770.0 0
194000.0 551770.0 0
198000.0 551770.0 0
202000.0 551770.0 0
206000.0 551770.0 0
210000.0 551770.0 0
214000.0 551770.0 0
218000.0 551770.0 0
222000.0 551770.0 0
226000.0 551770.0 0
230000.0 551770.0 0
234000.0 551770.0 0
238000.0 551770.0 0
242000.0 551770.0 0
246000.0 551770.0 0
250000.0 551770.0 0
254000.0 551770.0 0
258000.0 551770.0 0
262000.0 551770.0 0
266000.0 551770.0 0
270000.0 551770.0 0
274000.0 551770.0 0
278000.0 551770.0 0
282000.0 551770.0 0
286000.0 551770.0 0
290000.0 551770.0 0
294000.0 551770.0 0
298000.0 551770.0 0
302000.0 551770.0 0
306000.0 551770.0 0
310000.0 551770.0 0
314000.0 551770.0 0
318000.0 551770.0 0
322000.0 551770.0 0
326000.0 551770.0 0
330000.0 551770.0 0
334000.0 551770.0 0
338000.0 551770.0 0
342000.0 551770.0 0
346000.0 551770.0 0
350000.0 551770.0 0
354000.0 551770.0 0
358000.0 551770.0 0
362000.0 551770.0 0
366000.0 551770.0 0
370000.0 551774.0 0
374000.0 551770.0 0
378000.0 551779.0 0
382000.0 551777.0 0
386000.0 551797.0 0
390000.0 551799.0 0
394000.0 551822.0 0
398000.0 551827.0 0
102000.0 555821.0 0
106000.0 555816.0 0
110000.0 555796.0 0
114000.0 555793.0 0
118000.0 555775.0 0
122000.0 555777.0 0
126000.0 555770.0 0
130000.0 555773.0 0
134000.0 555770.0 0
138000.0 555770.0 0
142000.0 555770.0 0
146000.0 555770.0 0
150000.0 555770.0 0
154000.0 555770.0 0
158000.0 555770.0 0
162000.0 555770.0 0
166000.0 555770.0 0
170000.0 555770.0 0
174000.0 555770.0 0
178000.0 555770.0 0
182000.0 555770.0 0
186000.0 555770.0 0
190000.0 555770.0 0
194000.0 555770.0 0
198000.0 555770.0 0
202000.0 555770.0 0
206000.0 555770.0 0
210000.0 555770.0 0
214000.0 555770.0 0
218000.0 555770.0 0
222000.0 555770.0 0
226000.0 555770.0 0
230000.0 555770.0 0
234000.0 555770.0 0
238000.0 555770.0 0
242000.0 555770.0 0
246000.0 555770.0 0
250000.0 555770.0 0
254000.0 555770.0 0
258000.0 555770.0 0
262000.0 555770.0 0
266000.0 555770.0 0
270000.0 555770.0 0
274000.0 555770.0 0
278000.0 555770.0 0
282000.0 555770.0 0
286000.0 555770.0 0
290000.0 555770.0 0
294000.0 555770.0 0
298000.0 555770.0 0
302000.0 555770.0 0
306000.0 555770.0 0
310000.0 555770.0 0
314000.0 555770.0 0
318000.0 555770.0 0
322000.0 555770.0 0
326000.0 555770.0 0
330000.0 555770.0 0
334000.0 555770.0 0
338000.0 555770.0 0
342000.0 555770.0 0
346000.0 555770.0 0
350000.0 555770.0 0
354000.0 555770.0 0
358000.0 555770.0 0
362000.0 555770.0 0
366000.0 555770.0 0
370000.0 555773.0 0
374000.0 555770.0 0
378000.0 555777.0 0
382000.0 555775.0 0
386000.0 555793.0 0
390000.0 555796.0 0
394000.0 555816.0 0
398000.0 555821.0 0
102000.0 559815.0 0
106000.0 559811.0 0
110000.0 559792.0 0
114000.0 559790.0 0
118000.0 559774.0 0
122000.0 559775.0 0
126000.0 559770.0 0
130000.0 559772.0 0
134000.0 559770.0 0
138000.0 559770.0 0
142000.0 559770.0 0
146000.0 559770.0 0
150000.0 559770.0 0
154000.0 559770.0 0
158000.0 559770.0 0
162000.0 559770.0 0
166000.0 559770.0 0
170000.0 559770.0 0
174000.0 559770.0 0
178000.0 559770.0 0
182000.0 559770.0 0
186000.0 559770.0 0
190000.0 559770.0 0
194000.0 559770.0 0
198000.0 559770.0 0
202000.0 559770.0 0
206000.0 559770.0 0
210000.0 559770.0 0
214000.0 559770.0 0
218000.0 559770.0 0
222000.0 559770.0 0
226000.0 559770.0 0
230000.0 559770.0 0
234000.0 559770.0 0
238000.0 559770.0 0
242000.0 559770.0 0
246000.0 559770.0 0
250000.0 559770.0 0
254000.0 559770.0 0
258000.0 559770.0 0
262000.0 559770.0 0
266000.0 559770.0 0
270000.0 559770.0 0
274000.0 559770.0 0
278000.0 559770.0 0
282000.0 559770.0 0
286000.0 559770.0 0
290000.0 559770.0 0
294000.0 559770.0 0
298000.0 559770.0 0
302000.0 559770.0 0
306000.0 559770.0 0
310000.0 559770.0 0
314000.0 559770.0 0
318000.0 559770.0 0
322000.0 559770.0 0
326000.0 559770.0 0
330000.0 559770.0 0
334000.0 559770.0 0
338000.0 559770.0 0
342000.0 559770.0 0
346000.0 559770.0 0
350000.0 559770.0 0
354000.0 559770.0 0
358000.0 559770.0 0
362000.0 559770.0 0
366000.0 559770.0 0
370000.0 559772.0 0
374000.0 559770.0 0
378000.0 559775.0 0
382000.0 559774.0 0
386000.0 559790.0 0
390000.0 559792.0 0
394000.0 559811.0 0
398000.0 559815.0 0
102000.0 563810.0 0
106000.0 563806.0 0
110000.0 563790.0 0
114000.0 563787.0 0
118000.0 563773.0 0
122000.0 563774.0 0
126000.0 563770.0 0
130000.0 563771.0 0
134000.0 563770.0 0
138000.0 563770.0 0
142000.0 563770.0 0
146000.0 563770.0 0
150000.0 563770.0 0
154000.0 563770.0 0
158000.0 563770.0 0
162000.0 563770.0 0
166000.0 563770.0 0
170000.0 563770.0 0
174000.0 563770.0 0
178000.0 563770.0 0
182000.0 563770.0 0
186000.0 563770.0 0
190000.0 563770.0 0
194000.0 563770.0 0
198000.0 563770.0 0
202000.0 563770.0 0
206000.0 563770.0 0
210000.0 563770.0 0
214000.0 563770.0 0
218000.0 563770.0 0
222000.0 563770.0 0
226000.0 563770.0 0
230000.0 563770.0 0
234000.0 563770.0 0
238000.0 563770.0 0
242000.0 563770.0 0
246000.0 563770.0 0
250000.0 563770.0 0
254000.0 563770.0 0
258000.0 563770.0 0
262000.0 563770.0 0
266000.0 563770.0 0
270000.0 563770.0 0
274000.0 563770.0 0
278000.0 563770.0 0
282000.0 563770.0 0
286000.0 563770.0 0
290000.0 563770.0 0
294000.0 563770.0 0
298000.0 563770.0 0
302000.0 563770.0 0
306000.0 563770.0 0
310000.0 563770.0 0
314000.0 563770.0 0
318000.0 563770.0 0
322000.0 563770.0 0
326000.0 563770.0 0
330000.0 563770.0 0
334000.0 563770.0 0
338000.0 563770.0 0
342000.0 563770.0 0
346000.0 563770.0 0
350000.0 563770.0 0
354000.0 563770.0 0
358000.0 563770.0 0
362000.0 563770.0 0
366000.0 563770.0 0
370000.0 563771.0 0
374000.0 563770.0 0
378000.0 563774.0 0
382000.0 563773.0 0
386000.0 563787.0 0
390000.0 563790.0 0
394000.0 563806.0 0
398000.0 563810.0 0
102000.0 567806.0 0
106000.0 567802.0 0
110000.0 567787.0 0
114000.0 567784.0 0
118000.0 567773.0 0
122000.0 567773.0 0
126000.0 567770.0 0
130000.0 567771.0 0
134000.0 567770.0 0
138000.0 567770.0 0
142000.0 567770.0 0
146000.0 567770.0 0
150000.0 567770.0 0
154000.0 567770.0 0
158000.0 567770.0 0
162000.0 567770.0 0
166000.0 567770.0 0
170000.0 567770.0 0
174000.0 567770.0 0
178000.0 567770.0 0
182000.0 567770.0 0
186000.0 567770.0 0
190000.0 567770.0 0
194000.0 567770.0 0
198000.0 567770.0 0
202000.0 567770.0 0
206000.0 567770.0 0
210000.0 567770.0 0
214000.0 567770.0 0
218000.0 567770.0 0
222000.0 567770.0 0
226000.0 567770.0 0
230000.0 567770.0 0
234000.0 567770.0 0
238000.0 567770.0 0
242000.0 567770.0 0
246000.0 567770.0 0
250000.0 567770.0 0
254000.0 567770.0 0
258000.0 567770.0 0
262000.0 567770.0 0
266000.0 567770.0 0
270000.0 567770.0 0
274000.0 567770.0 0
278000.0 567770.0 0
282000.0 567770.0 0
286000.0 567770.0 0
290000.0 567770.0 0
294000.0 567770.0 0
298000.0 567770.0 0
302000.0 567770.0 0
306000.0 567770.0 0
310000.0 567770.0 0
314000.0 567770.0 0
318000.0 567770.0 0
322000.0 567770.0 0
326000.0 567770.0 0
330000.0 567770.0 0
334000.0 567770.0 0
338000.0 567770.0 0
342000.0 567770.0 0
346000.0 567770.0 0
350000.0 567770.0 0
354000.0 567770.0 0
358000.0 567770.0 0
362000.0 567770.0 0
366000.0 567770.0 0
370000.0 567771.0 0
374000.0 567770.0 0
378000.0 567773.0 0
382000.0 567773.0 0
386000.0 567784.0 0
390000.0 567787.0 0
394000.0 567802.0 0
398000.0 567806.0 0
102000.0 571802.0 0
106000.0 571798.0 0
110000.0 571785.0 0
114000.0 571782.0 0
118000.0 571772.0 0
122000.0 571772.0 0
126000.0 571770.0 0
130000.0 571771.0 0
134000.0 571770.0 0
138000.0 571770.0 0
142000.0 571770.0 0
146000.0 571770.0 0
150000.0 571770.0 0
154000.0 571770.0 0
158000.0 571770.0 0
162000.0 571770.0 0
166000.0 571770.0 0
170000.0 571770.0 0
174000.0 571770.0 0
178000.0 571770.0 0
182000.0 571770.0 0
186000.0 571770.0 0
190000.0 571770.0 0
194000.0 571770.0 0
198000.0 571770.0 0
202000.0 571770.0 0
206000.0 571770.0 0
210000.0 571770.0 0
214000.0 571770.0 0
218000.0 571770.0 0
222000.0 571770.0 0
226000.0 571770.0 0
230000.0 571770.0 0
234000.0 571770.0 0
238000.0 571770.0 0
242000.0 571770.0 0
246000.0 571770.0 0
250000.0 571770.0 0
254000.0 571770.0 0
258000.0 571770.0 0
262000.0 571770.0 0
266000.0 571770.0 0
270000.0 571770.0 0
274000.0 571770.0 0
278000.0 571770.0 0
282000.0 571770.0 0
286000.0 571770.0 0
290000.0 571770.0 0
294000.0 571770.0 0
298000.0 571770.0 0
302000.0 571770.0 0
306000.0 571770.0 0
310000.0 571770.0 0
314000.0 571770.0 0
318000.0 571770.0 0
322000.0 571770.0 0
326000.0 571770.0 0
330000.0 571770.0 0
334000.0 571770.0 0
338000.0 571770.0 0
342000.0 571770.0 0
346000.0 571770.0 0
350000.0 571770.0 0
354000.0 571770.0 0
358000.0 571770.0 0
362000.0 571770.0 0
366000.0 571770.0 0
370000.0 571771.0 0
374000.0 571770.0 0
378000.0 571772.0 0
382000.0 571772.0 0
386000.0 571782.0 0
390000.0 571785.0 0
394000.0 571798.0 0
398000.0 571802.0 0
102000.0 575798.0 0
106000.0 575795.0 0
110000.0 575783.0 0
114000.0 575780.0 0
118000.0 575771.0 0
122000.0 575772.0 0
126000.0 575770.0 0
130000.0 575770.0 0
134000.0 575770.0 0
138000.0 575770.0 0
142000.0 575770.0 0
146000.0 575770.0 0
150000.0 575770.0 0
154000.0 575770.0 0
158000.0 575770.0 0
162000.0 575770.0 0
166000.0 575770.0 0
170000.0 575770.0 0
174000.0 575770.0 0
178000.0 575770.0 0
182000.0 575770.0 0
186000.0 575770.0 0
190000.0 575770.0 0
194000.0 575770.0 0
198000.0 575770.0 0
202000.0 575770.0 0
206000.0 575770.0 0
210000.0 575770.0 0
214000.0 575770.0 0
218000.0 575770.0 0
222000.0 575770.0 0
226000.0 575770.0 0
230000.0 575770.0 0
234000.0 575770.0 0
238000.0 575770.0 0
242000.0 575770.0 0
246000.0 575770.0 0
250000.0 575770.0 0
254000.0 575770.0 0
258000.0 575770.0 0
262000.0 575770.0 0
266000.0 575770.0 0
270000.0 575770.0 0
274000.0 575770.0 0
278000.0 575770.0 0
282000.0 575770.0 0
286000.0 575770.0 0
290000.0 575770.0 0
294000.0 575770.0 0
298000.0 575770.0 0
302000.0 575770.0 0
306000.0 575770.0 0
310000.0 575770.0 0
314000.0 575770.0 0
318000.0 575770.0 0
322000.0 575770.0 0
326000.0 575770.0 0
330000.0 575770.0 0
334000.0 575770.0 0
338000.0 575770.0 0
342000.0 575770.0 0
346000.0 575770.0 0
350000.0 575770.0 0
354000.0 575770.0 0
358000.0 575770.0 0
362000.0 575770.0 0
366000.0 575770.0 0
370000.0 575770.0 0
374000.0 575770.0 0
378000.0 575772.0 0
382000.0 575771.0 0
386000.0 575780.0 0
390000.0 575783.0 0
394000.0 575795.0 0
398000.0 575798.0 0
102000.0 579794.0 0
106000.0 579792.0 0
110000.0 579781.0 0
114000.0 579778.0 0
118000.0 579771.0 0
122000.0 579771.0 0
126000.0 579770.0 0
130000.0 579770.0 0
134000.0 579770.0 0
138000.0 579770.0 0
142000.0 579770.0 0
146000.0 579770.0 0
150000.0 579770.0 0
154000.0 579770.0 0
158000.0 579770.0 0
162000.0 579770.0 0
166000.0 579770.0 0
170000.0 579770.0 0
174000.0 579770.0 0
178000.0 579770.0 0
182000.0 579770.0 0
186000.0 579770.0 0
190000.0 579770.0 0
194000.0 579770.0 0
198000.0 579770.0 0
202000.0 579770.0 0
206000.0 579770.0 0
210000.0 579770.0 0
214000.0 579770.0 0
218000.0 579770.0 0
222000.0 579770.0 0
226000.0 579770.0 0
230000.0 579770.0 0
234000.0 579770.0 0
238000.0 579770.0 0
242000.0 579770.0 0
246000.0 579770.0 0
250000.0 579770.0 0
254000.0 579770.0 0
258000.0 579770.0 0
262000.0 579770.0 0
266000.0 579770.0 0
270000.0 579770.0 0
274000.0 579770.0 0
278000.0 579770.0 0
282000.0 579770.0 0
286000.0 579770.0 0
290000.0 579770.0 0
294000.0 579770.0 0
298000.0 579770.0 0
302000.0 579770.0 0
306000.0 579770.0 0
310000.0 579770.0 0
314000.0 579770.0 0
318000.0 579770.0 0
322000.0 579770.0 0
326000.0 579770.0 0
330000.0 579770.0 0
334000.0 579770.0 0
338000.0 579770.0 0
342000.0 579770.0 0
346000.0 579770.0 0
350000.0 579770.0 0
354000.0 579770.0 0
358000.0 579770.0 0
362000.0 579770.0 0
366000.0 579770.0 0
370000.0 579770.0 0
374000.0 579770.0 0
378000.0 579771.0 0
382000.0 579771.0 0
386000.0 579778.0 0
390000.0 579781.0 0
394000.0 579792.0 0
398000.0 579794.0 0
102000.0 583791.0 0
106000.0 583789.0 0
110000.0 583779.0 0
114000.0 583777.0 0
118000.0 583771.0 0
122000.0 583771.0 0
126000.0 583770.0 0
130000.0 583770.0 0
134000.0 583770.0 0
138000.0 583770.0 0
142000.0 583770.0 0
146000.0 583770.0 0
150000.0 583770.0 0
154000.0 583770.0 0
158000.0 583770.0 0
162000.0 583770.0 0
166000.0 583770.0 0
170000.0 583770.0 0
174000.0 583770.0 0
178000.0 583770.0 0
182000.0 583770.0 0
186000.0 583770.0 0
190000.0 583770.0 0
194000.0 583770.0 0
198000.0 583770.0 0
202000.0 583770.0 0
206000.0 583770.0 0
210000.0 583770.0 0
214000.0 583770.0 0
218000.0 583770.0 0
222000.0 583770.0 0
226000.0 583770.0 0
230000.0 583770.0 0
234000.0 583770.0 0
238000.0 583770.0 0
242000.0 583770.0 0
246000.0 583770.0 0
250000.0 583770.0 0
254000.0 583770.0 0
258000.0 583770.0 0
262000.0 583770.0 0
266000.0 583770.0 0
270000.0 583770.0 0
274000.0 583770.0 0
278000.0 583770.0 0
282000.0 583770.0 0
286000.0 583770.0 0
290000.0 583770.0 0
294000.0 583770.0 0
298000.0 583770.0 0
302000.0 583770.0 0
306000.0 583770.0 0
310000.0 583770.0 0
314000.0 583770.0 0
318000.0 583770.0 0
322000.0 583770.0 0
326000.0 583770.0 0
330000.0 583770.0 0
334000.0 583770.0 0
338000.0 583770.0 0
342000.0 583770.0 0
346000.0 583770.0 0
350000.0 583770.0 0
354000.0 583770.0 0
358000.0 583770.0 0
362000.0 583770.0 0
366000.0 583770.0 0
370000.0 583770.0 0
374000.0 583770.0 0
378000.0 583771.0 0
382000.0 583771.0 0
386000.0 583777.0 0
390000.0 583779.0 0
394000.0 583789.0 0
398000.0 583791.0 0
102000.0 587789.0 0
106000.0 587786.0 0
110000.0 587778.0 0
114000.0 587775.0 0
118000.0 587771.0 0
122000.0 587771.0 0
126000.0 587770.0 0
130000.0 587770.0 0
134000.0 587770.0 0
138000.0 587770.0 0
142000.0 587770.0 0
146000.0 587770.0 0
150000.0 587770.0 0
154000.0 587770.0 0
158000.0 587770.0 0
162000.0 587770.0 0
166000.0 587770.0 0
170000.0 587770.0 0
174000.0 587770.0 0
178000.0 587770.0 0
182000.0 587770.0 0
186000.0 587770.0 0
190000.0 587770.0 0
194000.0 587770.0 0
198000.0 587770.0 0
202000.0 587770.0 0
206000.0 587770.0 0
210000.0 587770.0 0
214000.0 587770.0 0
218000.0 587770.0 0
222000.0 587770.0 0
226000.0 587770.0 0
230000.0 587770.0 0
234000.0 587770.0 0
238000.0 587770.0 0
242000.0 587770.0 0
246000.0 587770.0 0
250000.0 587770.0 0
254000.0 587770.0 0
258000.0 587770.0 0
262000.0 587770.0 0
266000.0 587770.0 0
270000.0 587770.0 0
274000.0 587770.0 0
278000.0 587770.0 0
282000.0 587770.0 0
286000.0 587770.0 0
290000.0 587770.0 0
294000.0 587770.0 0
298000.0 587770.0 0
302000.0 587770.0 0
306000.0 587770.0 0
310000.0 587770.0 0
314000.0 587770.0 0
318000.0 587770.0 0
322000.0 587770.0 0
326000.0 587770.0 0
330000.0 587770.0 0
334000.0 587770.0 0
338000.0 587770.0 0
342000.0 587770.0 0
346000.0 587770.0 0
350000.0 587770.0 0
354000.0 587770.0 0
358000.0 587770.0 0
362000.0 587770.0 0
366000.0 587770.0 0
370000.0 587770.0 0
374000.0 587770.0 0
378000.0 587771.0 0
382000.0 587771.0 0
386000.0 587775.0 0
390000.0 587778.0 0
394000.0 587786.0 0
398000.0 587789.0 0
102000.0 591786.0 0
106000.0 591784.0 0
110000.0 591777.0 0
114000.0 591774.0 0
118000.0 591770.0 0
122000.0 591770.0 0
126000.0 591770.0 0
130000.0 591770.0 0
134000.0 591770.0 0
138000.0 591770.0 0
142000.0 591770.0 0
146000.0 591770.0 0
150000.0 591770.0 0
154000.0 591770.0 0
158000.0 591770.0 0
162000.0 591770.0 0
166000.0 591770.0 0
170000.0 591770.0 0
174000.0 591770.0 0
178000.0 591770.0 0
182000.0 591770.0 0
186000.0 591770.0 0
190000.0 591770.0 0
194000.0 591770.0 0
198000.0 591770.0 0
202000.0 591770.0 0
206000.0 591770.0 0
210000.0 591770.0 0
214000.0 591770.0 0
218000.0 591770.0 0
222000.0 591770.0 0
226000.0 591770.0 0
230000.0 591770.0 0
234000.0 591770.0 0
238000.0 591770.0 0
242000.0 591770.0 0
246000.0 591770.0 0
250000.0 591770.0 0
254000.0 591770.0 0
258000.0 591770.0 0
262000.0 591770.0 0
266000.0 591770.0 0
270000.0 591770.0 0
274000.0 591770.0 0
278000.0 591770.0 0
282000.0 591770.0 0
286000.0 591770.0 0
290000.0 591770.0 0
294000.0 591770.0 0
298000.0 591770.0 0
302000.0 591770.0 0
306000.0 591770.0 0
310000.0 591770.0 0
314000.0 591770.0 0
318000.0 591770.0 0
322000.0 591770.0 0
326000.0 591770.0 0
330000.0 591770.0 0
334000.0 591770.0 0
338000.0 591770.0 0
342000.0 591770.0 0
346000.0 591770.0 0
350000.0 591770.0 0
354000.0 591770.0 0
358000.0 591770.0 0
362000.0 591770.0 0
366000.0 591770.0 0
370000.0 591770.0 0
374000.0 591770.0 0
378000.0 591770.0 0
382000.0 591770.0 0
386000.0 591774.0 0
390000.0 591777.0 0
394000.0 591784.0 0
398000.0 591786.0 0
102000.0 595784.0 0
106000.0 595782.0 0
110000.0 595776.0 0
114000.0 595773.0 0
118000.0 595770.0 0
122000.0 595770.0 0
126000.0 595770.0 0
130000.0 595770.0 0
134000.0 595770.0 0
138000.0 595770.0 0
142000.0 595770.0 0
146000.0 595770.0 0
150000.0 595770.0 0
154000.0 595770.0 0
158000.0 595770.0 0
162000.0 595770.0 0
166000.0 595770.0 0
170000.0 595770.0 0
174000.0 595770.0 0
178000.0 595770.0 0
182000.0 595770.0 0
186000.0 595770.0 0
190000.0 595770.0 0
194000.0 595770.0 0
198000.0 595770.0 0
202000.0 595770.0 0
206000.0 595770.0 0
210000.0 595770.0 0
214000.0 595770.0 0
218000.0 595770.0 0
222000.0 595770.0 0
226000.0 595770.0 0
230000.0 595770.0 0
234000.0 595770.0 0
238000.0 595770.0 0
242000.0 595770.0 0
246000.0 595770.0 0
250000.0 595770.0 0
254000.0 595770.0 0
258000.0 595770.0 0
262000.0 595770.0 0
266000.0 595770.0 0
270000.0 595770.0 0
274000.0 595770.0 0
278000.0 595770.0 0
282000.0 595770.0 0
286000.0 595770.0 0
290000.0 595770.0 0
294000.0 595770.0 0
298000.0 595770.0 0
302000.0 595770.0 0
306000.0 595770.0 0
310000.0 595770.0 0
314000.0 595770.0 0
318000.0 595770.0 0
322000.0 595770.0 0
326000.0 595770.0 0
330000.0 595770.0 0
334000.0 595770.0 0
338000.0 595770.0 0
342000.0 595770.0 0
346000.0 595770.0 0
350000.0 595770.0 0
354000.0 595770.0 0
358000.0 595770.0 0
362000.0 595770.0 0
366000.0 595770.0 0
370000.0 595770.0 0
374000.0 595770.0 0
378000.0 595770.0 0
382000.0 595770.0 0
386000.0 595773.0 0
390000.0 595776.0 0
394000.0 595782.0 0
398000.0 595784.0 0
102000.0 599782.0 0
106000.0 599780.0 0
110000.0 599775.0 0
114000.0 599773.0 0
118000.0 599770.0 0
122000.0 599770.0 0
126000.0 599770.0 0
130000.0 599770.0 0
134000.0 599770.0 0
138000.0 599770.0 0
142000.0 599770.0 0
146000.0 599770.0 0
150000.0 599770.0 0
154000.0 599770.0 0
158000.0 599770.0 0
162000.0 599770.0 0
166000.0 599770.0 0
170000.0 599770.0 0
174000.0 599770.0 0
178000.0 599770.0 0
182000.0 599770.0 0
186000.0 599770.0 0
190000.0 599770.0 0
194000.0 599770.0 0
198000.0 599770.0 0
202000.0 599770.0 0
206000.0 599770.0 0
210000.0 599770.0 0
214000.0 599770.0 0
218000.0 599770.0 0
222000.0 599770.0 0
226000.0 599770.0 0
230000.0 599770.0 0
234000.0 599770.0 0
238000.0 599770.0 0
242000.0 599770.0 0
246000.0 599770.0 0
250000.0 599770.0 0
254000.0 599770.0 0
258000.0 599770.0 0
262000.0 599770.0 0
266000.0 599770.0 0
270000.0 599770.0 0
274000.0 599770.0 0
278000.0 599770.0 0
282000.0 599770.0 0
286000.0 599770.0 0
290000.0 599770.0 0
294000.0 599770.0 0
298000.0 599770.0 0
302000.0 599770.0 0
306000.0 599770.0 0
310000.0 599770.0 0
314000.0 599770.0 0
318000.0 599770.0 0
322000.0 599770.0 0
326000.0 599770.0 0
330000.0 599770.0 0
334000.0 599770.0 0
338000.0 599770.0 0
342000.0 599770.0 0
346000.0 599770.0 0
350000.0 599770.0 0
354000.0 599770.0 0
358000.0 599770.0 0
362000.0 599770.0 0
366000.0 599770.0 0
370000.0 599770.0 0
374000.0 599770.0 0
378000.0 599770.0 0
382000.0 599770.0 0
386000.0 599773.0 0
390000.0 599775.0 0
394000.0 599780.0 0
398000.0 599782.0 0
102000.0 603781.0 0
106000.0 603779.0 0
110000.0 603774.0 0
114000.0 603772.0 0
118000.0 603770.0 0
122000.0 603770.0 0
126000.0 603770.0 0
130000.0 603770.0 0
134000.0 603770.0 0
138000.0 603770.0 0
142000.0 603770.0 0
146000.0 603770.0 0
150000.0 603770.0 0
154000.0 603770.0 0
158000.0 603770.0 0
162000.0 603770.0 0
166000.0 603770.0 0
170000.0 603770.0 0
174000.0 603770.0 0
178000.0 603770.0 0
182000.0 603770.0 0
186000.0 603770.0 0
190000.0 603770.0 0
194000.0 603770.0 0
198000.0 603770.0 0
202000.0 603770.0 0
206000.0 603770.0 0
210000.0 603770.0 0
214000.0 603770.0 0
218000.0 603770.0 0
222000.0 603770.0 0
226000.0 603770.0 0
230000.0 603770.0 0
234000.0 603770.0 0
238000.0 603770.0 0
242000.0 603770.0 0
246000.0 603770.0 0
250000.0 603770.0 0
254000.0 603770.0 0
258000.0 603770.0 0
262000.0 603770.0 0
266000.0 603770.0 0
270000.0 603770.0 0
274000.0 603770.0 0
278000.0 603770.0 0
282000.0 603770.0 0
286000.0 603770.0 0
290000.0 603770.0 0
294000.0 603770.0 0
298000.0 603770.0 0
302000.0 603770.0 0
306000.0 603770.0 0
310000.0 603770.0 0
314000.0 603770.0 0
318000.0 603770.0 0
322000.0 603770.0 0
326000.0 603770.0 0
330000.0 603770.0 0
334000.0 603770.0 0
338000.0 603770.0 0
342000.0 603770.0 0
346000.0 603770.0 0
350000.0 603770.0 0
354000.0 603770.0 0
358000.0 603770.0 0
362000.0 603770.0 0
366000.0 603770.0 0
370000.0 603770.0 0
374000.0 603770.0 0
378000.0 603770.0 0
382000.0 603770.0 0
386000.0 603772.0 0
390000.0 603774.0 0
394000.0 603779.0 0
398000.0 603781.0 0
102000.0 607779.0 0
106000.0 607778.0 0
110000.0 607773.0 0
114000.0 607772.0 0
118000.0 607770.0 0
122000.0 607770.0 0
126000.0 607770.0 0
130000.0 607770.0 0
134000.0 607770.0 0
138000.0 607770.0 0
142000.0 607770.0 0
146000.0 607770.0 0
150000.0 607770.0 0
154000.0 607770.0 0
158000.0 607770.0 0
162000.0 607770.0 0
166000.0 607770.0 0
170000.0 607770.0 0
174000.0 607770.0 0
178000.0 607770.0 0
182000.0 607770.0 0
186000.0 607770.0 0
190000.0 607770.0 0
194000.0 607770.0 0
198000.0 607770.0 0
202000.0 607770.0 0
206000.0 607770.0 0
210000.0 607770.0 0
214000.0 607770.0 0
218000.0 607770.0 0
222000.0 607770.0 0
226000.0 607770.0 0
230000.0 607770.0 0
234000.0 607770.0 0
238000.0 607770.0 0
242000.0 607770.0 0
246000.0 607770.0 0
250000.0 607770.0 0
254000.0 607770.0 0
258000.0 607770.0 0
262000.0 607770.0 0
266000.0 607770.0 0
270000.0 607770.0 0
274000.0 607770.0 0
278000.0 607770.0 0
282000.0 607770.0 0
286000.0 607770.0 0
290000.0 607770.0 0
294000.0 607770.0 0
298000.0 607770.0 0
302000.0 607770.0 0
306000.0 607770.0 0
310000.0 607770.0 0
314000.0 607770.0 0
318000.0 607770.0 0
322000.0 607770.0 0
326000.0 607770.0 0
330000.0 607770.0 0
334000.0 607770.0 0
338000.0 607770.0 0
342000.0 607770.0 0
346000.0 607770.0 0
350000.0 607770.0 0
354000.0 607770.0 0
358000.0 607770.0 0
362000.0 607770.0 0
366000.0 607770.0 0
370000.0 607770.0 0
374000.0 607770.0 0
378000.0 607770.0 0
382000.0 607770.0 0
386000.0 607772.0 0
390000.0 607773.0 0
394000.0 607778.0 0
398000.0 607779.0 0
102000.0 611778.0 0
106000.0 611777.0 0
110000.0 611773.0 0
114000.0 611771.0 0
118000.0 611770.0 0
122000.0 611770.0 0
126000.0 611770.0 0
130000.0 611770.0 0
134000.0 611770.0 0
138000.0 611770.0 0
142000.0 611770.0 0
146000.0 611770.0 0
150000.0 611770.0 0
154000.0 611770.0 0
158000.0 611770.0 0
162000.0 611770.0 0
166000.0 611770.0 0
170000.0 611770.0 0
174000.0 611770.0 0
178000.0 611770.0 0
182000.0 611770.0 0
186000.0 611770.0 0
190000.0 611770.0 0
194000.0 611770.0 0
198000.0 611770.0 0
202000.0 611770.0 0
206000.0 611770.0 0
210000.0 611770.0 0
214000.0 611770.0 0
218000.0 611770.0 0
222000.0 611770.0 0
226000.0 611770.0 0
230000.0 611770.0 0
234000.0 611770.0 0
238000.0 611770.0 0
242000.0 611770.0 0
246000.0 611770.0 0
250000.0 611770.0 0
254000.0 611770.0 0
258000.0 611770.0 0
262000.0 611770.0 0
266000.0 611770.0 0
270000.0 611770.0 0
274000.0 611770.0 0
278000.0 611770.0 0
282000.0 611770.0 0
286000.0 611770.0 0
290000.0 611770.0 0
294000.0 611770.0 0
298000.0 611770.0 0
302000.0 611770.0 0
306000.0 611770.0 0
310000.0 611770.0 0
314000.0 611770.0 0
318000.0 611770.0 0
322000.0 611770.0 0
326000.0 611770.0 0
330000.0 611770.0 0
334000.0 611770.0 0
338000.0 611770.0 0
342000.0 611770.0 0
346000.0 611770.0 0
350000.0 611770.0 0
354000.0 611770.0 0
358000.0 611770.0 0
362000.0 611770.0 0
366000.0 611770.0 0
370000.0 611770.0 0
374000.0 611770.0 0
378000.0 611770.0 0
382000.0 611770.0 0
386000.0 611771.0 0
390000.0 611773.0 0
394000.0 611777.0 0
398000.0 611778.0 0
102000.0 615777.0 0
106000.0 615776.0 0
110000.0 615772.0 0
114000.0 615771.0 0
118000.0 615770.0 0
122000.0 615770.0 0
126000.0 615770.0 0
130000.0 615770.0 0
134000.0 615770.0 0
138000.0 615770.0 0
142000.0 615770.0 0
146000.0 615770.0 0
150000.0 615770.0 0
154000.0 615770.0 0
158000.0 615770.0 0
162000.0 615770.0 0
166000.0 615770.0 0
170000.0 615770.0 0
174000.0 615770.0 0
178000.0 615770.0 0
182000.0 615770.0 0
186000.0 615770.0 0
190000.0 615770.0 0
194000.0 615770.0 0
198000.0 615770.0 0
202000.0 615770.0 0
206000.0 615770.0 0
210000.0 615770.0 0
214000.0 615770.0 0
218000.0 615770.0 0
222000.0 615770.0 0
226000.0 615770.0 0
230000.0 615770.0 0
234000.0 615770.0 0
238000.0 615770.0 0
242000.0 615770.0 0
246000.0 615770.0 0
250000.0 615770.0 0
254000.0 615770.0 0
258000.0 615770.0 0
262000.0 615770.0 0
266000.0 615770.0 0
270000.0 615770.0 0
274000.0 615770.0 0
278000.0 615770.0 0
282000.0 615770.0 0
286000.0 615770.0 0
290000.0 615770.0 0
294000.0 615770.0 0
298000.0 615770.0 0
302000.0 615770.0 0
306000.0 615770.0 0
310000.0 615770.0 0
314000.0 615770.0 0
318000.0 615770.0 0
322000.0 615770.0 0
326000.0 615770.0 0
330000.0 615770.0 0
334000.0 615770.0 0
338000.0 615770.0 0
342000.0 615770.0 0
346000.0 615770.0 0
350000.0 615770.0 0
354000.0 615770.0 0
358000.0 615770.0 0
362000.0 615770.0 0
366000.0 615770.0 0
370000.0 615770.0 0
374000.0 615770.0 0
378000.0 615770.0 0
382000.0 615770.0 0
386000.0 615771.0 0
390000.0 615772.0 0
394000.0 615776.0 0
398000.0 615777.0 0
102000.0 619776.0 0
106000.0 619775.0 0
110000.0 619772.0 0
114000.0 619771.0 0
118000.0 619770.0 0
122000.0 619770.0 0
126000.0 619770.0 0
130000.0 619770.0 0
134000.0 619770.0 0
138000.0 619770.0 0
142000.0 619770.0 0
146000.0 619770.0 0
150000.0 619770.0 0
154000.0 619770.0 0
158000.0 619770.0 0
162000.0 619770.0 0
166000.0 619770.0 0
170000.0 619770.0 0
174000.0 619770.0 0
178000.0 619770.0 0
182000.0 619770.0 0
186000.0 619770.0 0
190000.0 619770.0 0
194000.0 619770.0 0
198000.0 619770.0 0
202000.0 619770.0 0
206000.0 619770.0 0
210000.0 619770.0 0
214000.0 619770.0 0
218000.0 619770.0 0
222000.0 619770.0 0
226000.0 619770.0 0
230000.0 619770.0 0
234000.0 619770.0 0
238000.0 619770.0 0
242000.0 619770.0 0
246000.0 619770.0 0
250000.0 619770.0 0
254000.0 619770.0 0
258000.0 619770.0 0
262000.0 619770.0 0
266000.0 619770.0 0
270000.0 619770.0 0
274000.0 619770.0 0
278000.0 619770.0 0
282000.0 619770.0 0
286000.0 619770.0 0
290000.0 619770.0 0
294000.0 619770.0 0
298000.0 619770.0 0
302000.0 619770.0 0
306000.0 619770.0 0
310000.0 619770.0 0
314000.0 619770.0 0
318000.0 619770.0 0
322000.0 619770.0 0
326000.0 619770.0 0
330000.0 619770.0 0
334000.0 619770.0 0
338000.0 619770.0 0
342000.0 619770.0 0
346000.0 619770.0 0
350000.0 619770.0 0
354000.0 619770.0 0
358000.0 619770.0 0
362000.0 619770.0 0
366000.0 619770.0 0
370000.0 619770.0 0
374000.0 619770.0 0
378000.0 619770.0 0
382000.0 619770.0 0
386000.0 619771.0 0
390000.0 619772.0 0
394000.0 619775.0 0
398000.0 619776.0 0
102000.0 623775.0 0
106000.0 623774.0 0
110000.0 623771.0 0
114000.0 623771.0 0
118000.0 623770.0 0
122000.0 623770.0 0
126000.0 623770.0 0
130000.0 623770.0 0
134000.0 623770.0 0
138000.0 623770.0 0
142000.0 623770.0 0
146000.0 623770.0 0
150000.0 623770.0 0
154000.0 623770.0 0
158000.0 623770.0 0
162000.0 623770.0 0
166000.0 623770.0 0
170000.0 623770.0 0
174000.0 623770.0 0
178000.0 623770.0 0
182000.0 623770.0 0
186000.0 623770.0 0
190000.0 623770.0 0
194000.0 623770.0 0
198000.0 623770.0 0
202000.0 623770.0 0
206000.0 623770.0 0
210000.0 623770.0 0
214000.0 623770.0 0
218000.0 623770.0 0
222000.0 623770.0 0
226000.0 623770.0 0
230000.0 623770.0 0
234000.0 623770.0 0
238000.0 623770.0 0
242000.0 623770.0 0
246000.0 623770.0 0
250000.0 623770.0 0
254000.0 623770.0 0
258000.0 623770.0 0
262000.0 623770.0 0
266000.0 623770.0 0
270000.0 623770.0 0
274000.0 623770.0 0
278000.0 623770.0 0
282000.0 623770.0 0
286000.0 623770.0 0
290000.0 623770.0 0
294000.0 623770.0 0
298000.0 623770.0 0
302000.0 623770.0 0
306000.0 623770.0 0
310000.0 623770.0 0
314000.0 623770.0 0
318000.0 623770.0 0
322000.0 623770.0 0
326000.0 623770.0 0
330000.0 623770.0 0
334000.0 623770.0 0
338000.0 623770.0 0
342000.0 623770.0 0
346000.0 623770.0 0
350000.0 623770.0 0
354000.0 623770.0 0
358000.0 623770.0 0
362000.0 623770.0 0
366000.0 623770.0 0
370000.0 623770.0 0
374000.0 623770.0 0
378000.0 623770.0 0
382000.0 623770.0 0
386000.0 623771.0 0
390000.0 623771.0 0
394000.0 623774.0 0
398000.0 623775.0 0
102000.0 627774.0 0
106000.0 627773.0 0
110000.0 627771.0 0
114000.0 627770.0 0
118000.0 627770.0 0
122000.0 627770.0 0
126000.0 627770.0 0
130000.0 627770.0 0
134000.0 627770.0 0
138000.0 627770.0 0
142000.0 627770.0 0
146000.0 627770.0 0
150000.0 627770.0 0
154000.0 627770.0 0
158000.0 627770.0 0
162000.0 627770.0 0
166000.0 627770.0 0
170000.0 627770.0 0
174000.0 627770.0 0
178000.0 627770.0 0
182000.0 627770.0 0
186000.0 627770.0 0
190000.0 627770.0 0
194000.0 627770.0 0
198000.0 627770.0 0
202000.0 627770.0 0
206000.0 627770.0 0
210000.0 627770.0 0
214000.0 627770.0 0
218000.0 627770.0 0
222000.0 627770.0 0
226000.0 627770.0 0
230000.0 627770.0 0
234000.0 627770.0 0
238000.0 627770.0 0
242000.0 627770.0 0
246000.0 627770.0 0
250000.0 627770.0 0
254000.0 627770.0 0
258000.0 627770.0 0
262000.0 627770.0 0
266000.0 627770.0 0
270000.0 627770.0 0
274000.0 627770.0 0
278000.0 627770.0 0
282000.0 627770.0 0
286000.0 627770.0 0
290000.0 627770.0 0
294000.0 627770.0 0
298000.0 627770.0 0
302000.0 627770.0 0
306000.0 627770.0 0
310000.0 627770.0 0
314000.0 627770.0 0
318000.0 627770.0 0
322000.0 627770.0 0
326000.0 627770.0 0
330000.0 627770.0 0
334000.0 627770.0 0
338000.0 627770.0 0
342000.0 627770.0 0
346000.0 627770.0 0
350000.0 627770.0 0
354000.0 627770.0 0
358000.0 627770.0 0
362000.0 627770.0 0
366000.0 627770.0 0
370000.0 627770.0 0
374000.0 627770.0 0
378000.0 627770.0 0
382000.0 627770.0 0
386000.0 627770.0 0
390000.0 627771.0 0
394000.0 627773.0 0
398000.0 627774.0 0
102000.0 631774.0 0
106000.0 631773.0 0
110000.0 631771.0 0
114000.0 631770.0 0
118000.0 631770.0 0
122000.0 631770.0 0
126000.0 631770.0 0
130000.0 631770.0 0
134000.0 631770.0 0
138000.0 631770.0 0
142000.0 631770.0 0
146000.0 631770.0 0
150000.0 631770.0 0
154000.0 631770.0 0
158000.0 631770.0 0
162000.0 631770.0 0
166000.0 631770.0 0
170000.0 631770.0 0
174000.0 631770.0 0
178000.0 631770.0 0
182000.0 631770.0 0
186000.0 631770.0 0
190000.0 631770.0 0
194000.0 631770.0 0
198000.0 631770.0 0
202000.0 631770.0 0
206000.0 631770.0 0
210000.0 631770.0 0
214000.0 631770.0 0
218000.0 631770.0 0
222000.0 631770.0 0
226000.0 631770.0 0
230000.0 631770.0 0
234000.0 631770.0 0
238000.0 631770.0 0
242000.0 631770.0 0
246000.0 631770.0 0
250000.0 631770.0 0
254000.0 631770.0 0
258000.0 631770.0 0
262000.0 631770.0 0
266000.0 631770.0 0
270000.0 631770.0 0
274000.0 631770.0 0
278000.0 631770.0 0
282000.0 631770.0 0
286000.0 631770.0 0
290000.0 631770.0 0
294000.0 631770.0 0
298000.0 631770.0 0
302000.0 631770.0 0
306000.0 631770.0 0
310000.0 631770.0 0
314000.0 631770.0 0
318000.0 631770.0 0
322000.0 631770.0 0
326000.0 631770.0 0
330000.0 631770.0 0
334000.0 631770.0 0
338000.0 631770.0 0
342000.0 631770.0 0
346000.0 631770.0 0
350000.0 631770.0 0
354000.0 631770.0 0
358000.0 631770.0 0
362000.0 631770.0 0
366000.0 631770.0 0
370000.0 631770.0 0
374000.0 631770.0 0
378000.0 631770.0 0
382000.0 631770.0 0
386000.0 631770.0 0
390000.0 631771.0 0
394000.0 631773.0 0
398000.0 631774.0 0
102000.0 635773.0 0
106000.0 635772.0 0
110000.0 635771.0 0
114000.0 635770.0 0
118000.0 635770.0 0
122000.0 635770.0 0
126000.0 635770.0 0
130000.0 635770.0 0
134000.0 635770.0 0
138000.0 635770.0 0
142000.0 635770.0 0
146000.0 635770.0 0
150000.0 635770.0 0
154000.0 635770.0 0
158000.0 635770.0 0
162000.0 635770.0 0
166000.0 635770.0 0
170000.0 635770.0 0
174000.0 635770.0 0
178000.0 635770.0 0
182000.0 635770.0 0
186000.0 635770.0 0
190000.0 635770.0 0
194000.0 635770.0 0
198000.0 635770.0 0
202000.0 635770.0 0
206000.0 635770.0 0
210000.0 635770.0 0
214000.0 635770.0 0
218000.0 635770.0 0
222000.0 635770.0 0
226000.0 635770.0 0
230000.0 635770.0 0
234000.0 635770.0 0
238000.0 635770.0 0
242000.0 635770.0 0
246000.0 635770.0 0
250000.0 635770.0 0
254000.0 635770.0 0
258000.0 635770.0 0
262000.0 635770.0 0
266000.0 635770.0 0
270000.0 635770.0 0
274000.0 635770.0 0
278000.0 635770.0 0
282000.0 635770.0 0
286000.0 635770.0 0
290000.0 635770.0 0
294000.0 635770.0 0
298000.0 635770.0 0
302000.0 635770.0 0
306000.0 635770.0 0
310000.0 635770.0 0
314000.0 635770.0 0
318000.0 635770.0 0
322000.0 635770.0 0
326000.0 635770.0 0
330000.0 635770.0 0
334000.0 635770.0 0
338000.0 635770.0 0
342000.0 635770.0 0
346000.0 635770.0 0
350000.0 635770.0 0
354000.0 635770.0 0
358000.0 635770.0 0
362000.0 635770.0 0
366000.0 635770.0 0
370000.0 635770.0 0
374000.0 635770.0 0
378000.0 635770.0 0
382000.0 635770.0 0
386000.0 635770.0 0
390000.0 635771.0 0
394000.0 635772.0 0
398000.0 635773.0 0
102000.0 639773.0 0
106000.0 639772.0 0
110000.0 639771.0 0
114000.0 639770.0 0
118000.0 639770.0 0
122000.0 639770.0 0
126000.0 639770.0 0
130000.0 639770.0 0
134000.0 639770.0 0
138000.0 639770.0 0
142000.0 639770.0 0
146000.0 639770.0 0
150000.0 639770.0 0
154000.0 639770.0 0
158000.0 639770.0 0
162000.0 639770.0 0
166000.0 639770.0 0
170000.0 639770.0 0
174000.0 639770.0 0
178000.0 639770.0 0
182000.0 639770.0 0
186000.0 639770.0 0
190000.0 639770.0 0
194000.0 639770.0 0
198000.0 639770.0 0
202000.0 639770.0 0
206000.0 639770.0 0
210000.0 639770.0 0
214000.0 639770.0 0
218000.0 639770.0 0
222000.0 639770.0 0
226000.0 639770.0 0
230000.0 639770.0 0
234000.0 639770.0 0
238000.0 639770.0 0
242000.0 639770.0 0
246000.0 639770.0 0
250000.0 639770.0 0
254000.0 639770.0 0
258000.0 639770.0 0
262000.0 639770.0 0
266000.0 639770.0 0
270000.0 639770.0 0
274000.0 639770.0 0
278000.0 639770.0 0
282000.0 639770.0 0
286000.0 639770.0 0
290000.0 639770.0 0
294000.0 639770.0 0
298000.0 639770.0 0
302000.0 639770.0 0
306000.0 639770.0 0
310000.0 639770.0 0
314000.0 639770.0 0
318000.0 639770.0 0
322000.0 639770.0 0
326000.0 639770.0 0
330000.0 639770.0 0
334000.0 639770.0 0
338000.0 639770.0 0
342000.0 639770.0 0
346000.0 639770.0 0
350000.0 639770.0 0
354000.0 639770.0 0
358000.0 639770.0 0
362000.0 639770.0 0
366000.0 639770.0 0
370000.0 639770.0 0
374000.0 639770.0 0
378000.0 639770.0 0
382000.0 639770.0 0
386000.0 639770.0 0
390000.0 639771.0 0
394000.0 639772.0 0
398000.0 639773.0 0
102000.0 643772.0 0
106000.0 643772.0 0
110000.0 643770.0 0
114000.0 643770.0 0
118000.0 643770.0 0
122000.0 643770.0 0
126000.0 643770.0 0
130000.0 643770.0 0
134000.0 643770.0 0
138000.0 643770.0 0
142000.0 643770.0 0
146000.0 643770.0 0
150000.0 643770.0 0
154000.0 643770.0 0
158000.0 643770.0 0
162000.0 643770.0 0
166000.0 643770.0 0
170000.0 643770.0 0
174000.0 643770.0 0
178000.0 643770.0 0
182000.0 643770.0 0
186000.0 643770.0 0
190000.0 643770.0 0
194000.0 643770.0 0
198000.0 643770.0 0
202000.0 643770.0 0
206000.0 643770.0 0
210000.0 643770.0 0
214000.0 643770.0 0
218000.0 643770.0 0
222000.0 643770.0 0
226000.0 643770.0 0
230000.0 643770.0 0
234000.0 643770.0 0
238000.0 643770.0 0
242000.0 643770.0 0
246000.0 643770.0 0
250000.0 643770.0 0
254000.0 643770.0 0
258000.0 643770.0 0
262000.0 643770.0 0
266000.0 643770.0 0
270000.0 643770.0 0
274000.0 643770.0 0
278000.0 643770.0 0
282000.0 643770.0 0
286000.0 643770.0 0
290000.0 643770.0 0
294000.0 643770.0 0
298000.0 643770.0 0
302000.0 643770.0 0
306000.0 643770.0 0
310000.0 643770.0 0
314000.0 643770.0 0
318000.0 643770.0 0
322000.0 643770.0 0
326000.0 643770.0 0
330000.0 643770.0 0
334000.0 643770.0 0
338000.0 643770.0 0
342000.0 643770.0 0
346000.0 643770.0 0
350000.0 643770.0 0
354000.0 643770.0 0
358000.0 643770.0 0
362000.0 643770.0 0
366000.0 643770.0 0
370000.0 643770.0 0
374000.0 643770.0 0
378000.0 643770.0 0
382000.0 643770.0 0
386000.0 643770.0 0
390000.0 643770.0 0
394000.0 643772.0 0
398000.0 643772.0 0
102000.0 647772.0 0
106000.0 647771.0 0
110000.0 647770.0 0
114000.0 647770.0 0
118000.0 647770.0 0
122000.0 647770.0 0
126000.0 647770.0 0
130000.0 647770.0 0
134000.0 647770.0 0
138000.0 647770.0 0
142000.0 647770.0 0
146000.0 647770.0 0
150000.0 647770.0 0
154000.0 647770.0 0
158000.0 647770.0 0
162000.0 647770.0 0
166000.0 647770.0 0
170000.0 647770.0 0
174000.0 647770.0 0
178000.0 647770.0 0
182000.0 647770.0 0
186000.0 647770.0 0
190000.0 647770.0 0
194000.0 647770.0 0
198000.0 647770.0 0
202000.0 647770.0 0
206000.0 647770.0 0
210000.0 647770.0 0
214000.0 647770.0 0
218000.0 647770.0 0
222000.0 647770.0 0
226000.0 647770.0 0
230000.0 647770.0 0
234000.0 647770.0 0
238000.0 647770.0 0
242000.0 647770.0 0
246000.0 647770.0 0
250000.0 647770.0 0
254000.0 647770.0 0
258000.0 647770.0 0
262000.0 647770.0 0
266000.0 647770.0 0
270000.0 647770.0 0
274000.0 647770.0 0
278000.0 647770.0 0
282000.0 647770.0 0
286000.0 647770.0 0
290000.0 647770.0 0
294000.0 647770.0 0
298000.0 647770.0 0
302000.0 647770.0 0
306000.0 647770.0 0
310000.0 647770.0 0
314000.0 647770.0 0
318000.0 647770.0 0
322000.0 647770.0 0
326000.0 647770.0 0
330000.0 647770.0 0
334000.0 647770.0 0
338000.0 647770.0 0
342000.0 647770.0 0
346000.0 647770.0 0
350000.0 647770.0 0
354000.0 647770.0 0
358000.0 647770.0 0
362000.0 647770.0 0
366000.0 647770.0 0
370000.0 647770.0 0
374000.0 647770.0 0
378000.0 647770.0 0
382000.0 647770.0 0
386000.0 647770.0 0
390000.0 647770.0 0
394000.0 647771.0 0
398000.0 647772.0 0
102000.0 651772.0 0
106000.0 651771.0 0
110000.0 651770.0 0
114000.0 651770.0 0
118000.0 651770.0 0
122000.0 651770.0 0
126000.0 651770.0 0
130000.0 651770.0 0
134000.0 651770.0 0
138000.0 651770.0 0
142000.0 651770.0 0
146000.0 651770.0 0
150000.0 651770.0 0
154000.0 651770.0 0
158000.0 651770.0 0
162000.0 651770.0 0
166000.0 651770.0 0
170000.0 651770.0 0
174000.0 651770.0 0
178000.0 651770.0 0
182000.0 651770.0 0
186000.0 651770.0 0
190000.0 651770.0 0
194000.0 651770.0 0
198000.0 651770.0 0
202000.0 651770.0 0
206000.0 651770.0 0
210000.0 651770.0 0
214000.0 651770.0 0
218000.0 651770.0 0
222000.0 651770.0 0
226000.0 651770.0 0
230000.0 651770.0 0
234000.0 651770.0 0
238000.0 651770.0 0
242000.0 651770.0 0
246000.0 651770.0 0
250000.0 651770.0 0
254000.0 651770.0 0
258000.0 651770.0 0
262000.0 651770.0 0
266000.0 651770.0 0
270000.0 651770.0 0
274000.0 651770.0 0
278000.0 651770.0 0
282000.0 651770.0 0
286000.0 651770.0 0
290000.0 651770.0 0
294000.0 651770.0 0
298000.0 651770.0 0
302000.0 651770.0 0
306000.0 651770.0 0
310000.0 651770.0 0
314000.0 651770.0 0
318000.0 651770.0 0
322000.0 651770.0 0
326000.0 651770.0 0
330000.0 651770.0 0
334000.0 651770.0 0
338000.0 651770.0 0
342000.0 651770.0 0
346000.0 651770.0 0
350000.0 651770.0 0
354000.0 651770.0 0
358000.0 651770.0 0
362000.0 651770.0 0
366000.0 651770.0 0
370000.0 651770.0 0
374000.0 651770.0 0
378000.0 651770.0 0
382000.0 651770.0 0
386000.0 651770.0 0
390000.0 651770.0 0
394000.0 651771.0 0
398000.0 651772.0 0
102000.0 655772.0 0
106000.0 655771.0 0
110000.0 655770.0 0
114000.0 655770.0 0
118000.0 655770.0 0
122000.0 655770.0 0
126000.0 655770.0 0
130000.0 655770.0 0
134000.0 655770.0 0
138000.0 655770.0 0
142000.0 655770.0 0
146000.0 655770.0 0
150000.0 655770.0 0
154000.0 655770.0 0
158000.0 655770.0 0
162000.0 655770.0 0
166000.0 655770.0 0
170000.0 655770.0 0
174000.0 655770.0 0
178000.0 655770.0 0
182000.0 655770.0 0
186000.0 655770.0 0
190000.0 655770.0 0
194000.0 655770.0 0
198000.0 655770.0 0
202000.0 655770.0 0
206000.0 655770.0 0
210000.0 655770.0 0
214000.0 655770.0 0
218000.0 655770.0 0
222000.0 655770.0 0
226000.0 655770.0 0
230000.0 655770.0 0
234000.0 655770.0 0
238000.0 655770.0 0
242000.0 655770.0 0
246000.0 655770.0 0
250000.0 655770.0 0
254000.0 655770.0 0
258000.0 655770.0 0
262000.0 655770.0 0
266000.0 655770.0 0
270000.0 655770.0 0
274000.0 655770.0 0
278000.0 655770.0 0
282000.0 655770.0 0
286000.0 655770.0 0
290000.0 655770.0 0
294000.0 655770.0 0
298000.0 655770.0 0
302000.0 655770.0 0
306000.0 655770.0 0
310000.0 655770.0 0
314000.0 655770.0 0
318000.0 655770.0 0
322000.0 655770.0 0
326000.0 655770.0 0
330000.0 655770.0 0
334000.0 655770.0 0
338000.0 655770.0 0
342000.0 655770.0 0
346000.0 655770.0 0
350000.0 655770.0 0
354000.0 655770.0 0
358000.0 655770.0 0
362000.0 655770.0 0
366000.0 655770.0 0
370000.0 655770.0 0
374000.0 655770.0 0
378000.0 655770.0 0
382000.0 655770.0 0
386000.0 655770.0 0
390000.0 655770.0 0
394000.0 655771.0 0
398000.0 655772.0 0
102000.0 659772.0 0
106000.0 659771.0 0
110000.0 659770.0 0
114000.0 659770.0 0
118000.0 659770.0 0
122000.0 659770.0 0
126000.0 659770.0 0
130000.0 659770.0 0
134000.0 659770.0 0
138000.0 659770.0 0
142000.0 659770.0 0
146000.0 659770.0 0
150000.0 659770.0 0
154000.0 659770.0 0
158000.0 659770.0 0
162000.0 659770.0 0
166000.0 659770.0 0
170000.0 659770.0 0
174000.0 659770.0 0
178000.0 659770.0 0
182000.0 659770.0 0
186000.0 659770.0 0
190000.0 659770.0 0
194000.0 659770.0 0
198000.0 659770.0 0
202000.0 659770.0 0
206000.0 659770.0 0
210000.0 659770.0 0
214000.0 659770.0 0
218000.0 659770.0 0
222000.0 659770.0 0
226000.0 659770.0 0
230000.0 659770.0 0
234000.0 659770.0 0
238000.0 659770.0 0
242000.0 659770.0 0
246000.0 659770.0 0
250000.0 659770.0 0
254000.0 659770.0 0
258000.0 659770.0 0
262000.0 659770.0 0
266000.0 659770.0 0
270000.0 659770.0 0
274000.0 659770.0 0
278000.0 659770.0 0
282000.0 659770.0 0
286000.0 659770.0 0
290000.0 659770.0 0
294000.0 659770.0 0
298000.0 659770.0 0
302000.0 659770.0 0
306000.0 659770.0 0
310000.0 659770.0 0
314000.0 659770.0 0
318000.0 659770.0 0
322000.0 659770.0 0
326000.0 659770.0 0
330000.0 659770.0 0
334000.0 659770.0 0
338000.0 659770.0 0
342000.0 659770.0 0
346000.0 659770.0 0
350000.0 659770.0 0
354000.0 659770.0 0
358000.0 659770.0 0
362000.0 659770.0 0
366000.0 659770.0 0
370000.0 659770.0 0
374000.0 659770.0 0
378000.0 659770.0 0
382000.0 659770.0 0
386000.0 659770.0 0
390000.0 659770.0 0
394000.0 659771.0 0
398000.0 659772.0 0
102000.0 663772.0 0
106000.0 663771.0 0
110000.0 663770.0 0
114000.0 663770.0 0
118000.0 663770.0 0
122000.0 663770.0 0
126000.0 663770.0 0
130000.0 663770.0 0
134000.0 663770.0 0
138000.0 663770.0 0
142000.0 663770.0 0
146000.0 663770.0 0
150000.0 663770.0 0
154000.0 663770.0 0
158000.0 663770.0 0
162000.0 663770.0 0
166000.0 663770.0 0
170000.0 663770.0 0
174000.0 663770.0 0
178000.0 663770.0 0
182000.0 663770.0 0
186000.0 663770.0 0
190000.0 663770.0 0
194000.0 663770.0 0
198000.0 663770.0 0
202000.0 663770.0 0
206000.0 663770.0 0
210000.0 663770.0 0
214000.0 663770.0 0
218000.0 663770.0 0
222000.0 663770.0 0
226000.0 663770.0 0
230000.0 663770.0 0
234000.0 663770.0 0
238000.0 663770.0 0
242000.0 663770.0 0
246000.0 663770.0 0
250000.0 663770.0 0
254000.0 663770.0 0
258000.0 663770.0 0
262000.0 663770.0 0
266000.0 663770.0 0
270000.0 663770.0 0
274000.0 663770.0 0
278000.0 663770.0 0
282000.0 663770.0 0
286000.0 663770.0 0
290000.0 663770.0 0
294000.0 663770.0 0
298000.0 663770.0 0
302000.0 663770.0 0
306000.0 663770.0 0
310000.0 663770.0 0
314000.0 663770.0 0
318000.0 663770.0 0
322000.0 663770.0 0
326000.0 663770.0 0
330000.0 663770.0 0
334000.0 663770.0 0
338000.0 663770.0 0
342000.0 663770.0 0
346000.0 663770.0 0
350000.0 663770.0 0
354000.0 663770.0 0
358000.0 663770.0 0
362000.0 663770.0 0
366000.0 663770.0 0
370000.0 663770.0 0
374000.0 663770.0 0
378000.0 663770.0 0
382000.0 663770.0 0
386000.0 663770.0 0
390000.0 663770.0 0
394000.0 663771.0 0
398000.0 663772.0 0
POINT_DATA 4650
SCALARS Radius float 1
LOOKUP_TABLE default
4000.0 4000.0 4000.0 4000.0 4000.0 4000.0 4000.0 4000.0 4000.0 4000.0 4000.0 4000.0 4000.0 4000.0 4000.0 4000.0 4000.0 4000.0 4000.0 4000.0 4000.0 4000.0 4000.0 4000.0 4000.0 4000.0 4000.0 4000.0 4000.0 4000.0 4000.0 4000.0 4000.0 4000.0 4000.0 4000.0 4000.0 4000.0 4000.0 4000.0 4000.0 4000.0 4000.0 4000.0 4000.0 4000.0 4000.0 4000.0 4000.0 4000.0 4000.0 4000.0 4000.0 4000.0 4000.0 4000.0 4000.0 4000.0 4000.0 4000.0 4000.0 4000.0 4000.0 4000.0 4000.0 4000.0 4000.0 4000.0 4000.0 4000.0 4000.0 4000.0 4000.0 4000.0 4000.0 4000.0 4000.0 4000.0 4000.0 4000.0 4000.0 4000.0 4000.0 4000.0 4000.0 4000.0 4000.0 4000.0 4000.0 4000.0 4000.0 4000.0 4000.0 4000.0 4000.0 4000.0 4000.0 4000.0 4000.0 4000.0 4000.0 4000.0 4000.0 4000.0 4000.0 4000.0 4000.0 4000.0 4000.0 4000.0 4000.0 4000.0 4000.0 4000.0 4000.0 4000.0 4000.0 4000.0 4000.0 4000.0 4000.0 4000.0 4000.0 4000.0 4000.0 4000.0 4000.0 4000.0 4000.0 4000.0 4000.0 4000.0 4000.0 4000.0 4000.0 4000.0 4000.0 4000.0 4000.0 4000.0 4000.0 4000.0 4000.0 4000.0 4000.0 4000.0 4000.0 4000.0 4000.0 4000.0 4000.0 4000.0 4000.0 4000.0 4000.0 4000.0 4000.0 4000.0 4000.0 4000.0 4000.0 4000.0 4000.0 4000.0 4000.0 4000.0 4000.0 4000.0 4000.0 4000.0 4000.0 4000.0 4000.0 4000.0 4000.0 4000.0 4000.0 4000.0 4000.0 4000.0 4000.0 4000.0 4000.0 4000.0 4000.0 4000.0 4000.0 4000.0 4000.0 4000.0 4000.0 4000.0 4000.0 4000.0 4000.0 4000.0 4000.0 4000.0 4000.0 4000.0 4000.0 4000.0 4000.0 4000.0 4000.0 4000.0 4000.0 4000.0 4000.0 4000.0 4000.0 4000.0 4000.0 4000.0 4000.0 4000.0 4000.0 4000.0 4000.0 4000.0 4000.0 4000.0 4000.0 4000.0 4000.0 4000.0 4000.0 4000.0 4000.0 4000.0 4000.0 4000.0 4000.0 4000.0 4000.0 4000.0 4000.0 4000.0 4000.0 4000.0 4000.0 4000.0 4000.0 4000.0 4000.0 4000.0 4000.0 4000.0 4000.0 4000.0 4000.0 4000.0 4000.0 4000.0 4000.0 4000.0 4000.0 4000.0 4000.0 4000.0 4000.0 4000.0 4000.0 4000.0 4000.0 4000.0 4000.0 4000.0 4000.0 4000.0 4000.0 4000.0 4000.0 4000.0 4000.0 4000.0 4000.0 4000.0 4000.0 4000.0 4000.0 4000.0 4000.0 4000.0 4000.0 4000.0 4000.0 4000.0 4000.0 4000.0 4000.0 4000.0 4000.0 4000.0 4000.0 4000.0 4000.0 4000.0 4000.0 4000.0 4000.0 4000.0 4000.0 4000.0 4000.0 4000.0 4000.0 4000.0 4000.0 4000.0 4000.0 4000.0 4000.0 4000.0 4000.0 4000.0 4000.0 4000.0 4000.0 4000.0 4000.0 4000.0 4000.0 4000.0 4000.0 4000.0 4000.0 4000.0 4000.0 4000.0 4000.0 4000.0 4000.0 4000.0 4000.0 4000.0 4000.0 4000.0 4000.0 4000.0 4000.0 4000.0 4000.0 4000.0 4000.0 4000.0 4000.0 4000.0 4000.0 4000.0 4000.0 4000.0 4000.0 4000.0 4000.0 4000.0 4000.0 4000.0 4000.0 4000.0 4000.0 4000.0 4000.0 4000.0 4000.0 4000.0 4000.0 4000.0 4000.0 4000.0 4000.0 4000.0 4000.0 4000.0 4000.0 4000.0 4000.0 4000.0 4000.0 4000.0 4000.0 4000.0 4000.0 4000.0 4000.0 4000.0 4000.0 4000.0 4000.0 4000.0 4000.0 4000.0 4000.0 4000.0 4000.0 4000.0 4000.0 4000.0 4000.0 4000.0 4000.0 4000.0 4000.0 4000.0 4000.0 4000.0 4000.0 4000.0 4000.0 4000.0 4000.0 4000.0 4000.0 4000.0 4000.0 4000.0 4000.0 4000.0 4000.0 4000.0 4000.0 4000.0 4000.0 4000.0 4000.0 4000.0 4000.0 4000.0 4000.0 4000.0 4000.0 4000.0 4000.0 4000.0 4000.0 4000.0 4000.0 4000.0 4000.0 4000.0 4000.0 4000.0 4000.0 4000.0 4000.0 4000.0 4000.0 4000.0 4000.0 4000.0 4000.0 4000.0 4000.0 4000.0 4000.0 4000.0 4000.0 4000.0 4000.0 4000.0 4000.0 4000.0 4000.0 4000.0 4000.0 4000.0 4000.0 4000.0 4000.0 4000.0 4000.0 4000.0 4000.0 4000.0 4000.0 4000.0 4000.0 4000.0 4000.0 4000.0 4000.0 4000.0 4000.0 4000.0 4000.0 4000.0 4000.0 4000.0 4000.0 4000.0 4000.0 4000.0 4000.0 4000.0 4000.0 4000.0 4000.0 4000.0 4000.0 4000.0 4000.0 4000.0 4000.0 4000.0 4000.0 4000.0 4000.0 4000.0 4000.0 4000.0 4000.0 4000.0 4000.0 4000.0 4000.0 4000.0 4000.0 4000.0 4000.0 4000.0 4000.0 4000.0 4000.0 4000.0 4000.0 4000.0 4000.0 4000.0 4000.0 4000.0 4000.0 4000.0 4000.0 4000.0 4000.0 4000.0 4000.0 4000.0 4000.0 4000.0 4000.0 4000.0 4000.0 4000.0 4000.0 4000.0 4000.0 4000.0 4000.0 4000.0 4000.0 4000.0 4000.0 4000.0 4000.0 4000.0 4000.0 4000.0 4000.0 4000.0 4000.0 4000.0 4000.0 4000.0 4000.0 4000.0 4000.0 4000.0 4000.0 4000.0 4000.0 4000.0 4000.0 4000.0 4000.0 4000.0 4000.0 4000.0 4000.0 4000.0 4000.0 4000.0 4000.0 4000.0 4000.0 4000.0 4000.0 4000.0 4000.0 4000.0 4000.0 4000.0 4000.0 4000.0 4000.0 4000.0 4000.0 4000.0 4000.0 4000.0 4000.0 4000.0 4000.0 4000.0 4000.0 4000.0 4000.0 4000.0 4000.0 4000.0 4000.0 4000.0 4000.0 4000.0 4000.0 4000.0 4000.0 4000.0 4000.0 4000.0 4000.0 4000.0 4000.0 4000.0 4000.0 4000.0 4000.0 4000.0 4000.0 4000.0 4000.0 4000.0 4000.0 4000.0 4000.0 4000.0 4000.0 4000.0 4000.0 4000.0 4000.0 4000.0 4000.0 4000.0 4000.0 4000.0 4000.0 4000.0 4000.0 4000.0 4000.0 4000.0 4000.0 4000.0 4000.0 4000.0 4000.0 4000.0 4000.0 4000.0 4000.0 4000.0 4000.0 4000.0 4000.0 4000.0 4000.0 4000.0 4000.0 4000.0 4000.0 4000.0 4000.0 4000.0 4000.0 4000.0 4000.0 4000.0 4000.0 4000.0 4000.0 4000.0 4000.0 4000.0 4000.0 4000.0 4000.0 4000.0 4000.0 4000.0 4000.0 4000.0 4000.0 4000.0 4000.0 4000.0 4000.0 4000.0 4000.0 4000.0 4000.0 4000.0 4000.0 4000.0 4000.0 4000.0 4000.0 4000.0 4000.0 4000.0 4000.0 4000.0 4000.0 4000.0 4000.0 4000.0 4000.0 4000.0 4000.0 4000.0 4000.0 4000.0 4000.0 4000.0 4000.0 4000.0 4000.0 4000.0 4000.0 4000.0 4000.0 4000.0 4000.0 4000.0 4000.0 4000.0 4000.0 4000.0 4000.0 4000.0 4000.0 4000.0 4000.0 4000.0 4000.0 4000.0 4000.0 4000.0 4000.0 4000.0 4000.0 4000.0 4000.0 4000.0 4000.0 4000.0 4000.0 4000.0 4000.0 4000.0 4000.0 4000.0 4000.0 4000.0 4000.0 4000.0 4000.0 4000.0 4000.0 4000.0 4000.0 4000.0 4000.0 4000.0 4000.0 4000.0 4000.0 4000.0 4000.0 4000.0 4000.0 4000.0 4000.0 4000.0 4000.0 4000.0 4000.0 4000.0 4000.0 4000.0 4000.0 4000.0 4000.0 4000.0 4000.0 4000.0 4000.0 4000.0 4000.0 4000.0 4000.0 4000.0 4000.0 4000.0 4000.0 4000.0 4000.0 4000.0 4000.0 4000.0 4000.0 4000.0 4000.0 4000.0 4000.0 4000.0 4000.0 4000.0 4000.0 4000.0 4000.0 4000.0 4000.0 4000.0 4000.0 4000.0 4000.0 4000.0 4000.0 4000.0 4000.0 4000.0 4000.0 4000.0 4000.0 4000.0 4000.0 4000.0 4000.0 4000.0 4000.0 4000.0 4000.0 4000.0 4000.0 4000.0 4000.0 4000.0 4000.0 4000.0 4000.0 4000.0 4000.0 4000.0 4000.0 4000.0 4000.0 4000.0 4000.0 4000.0 4000.0 4000.0 4000.0 4000.0 4000.0 4000.0 4000.0 4000.0 4000.0 4000.0 4000.0 4000.0 4000.0 4000.0 4000.0 4000.0 4000.0 4000.0 4000.0 4000.0 4000.0 4000.0 4000.0 4000.0 4000.0 4000.0 4000.0 4000.0 4000.0 4000.0 4000.0 4000.0 4000.0 4000.0 4000.0 4000.0 4000.0 4000.0 4000.0 4000.0 4000.0 4000.0 4000.0 4000.0 4000.0 4000.0 4000.0 4000.0 4000.0 4000.0 4000.0 4000.0 4000.0 4000.0 4000.0 4000.0 4000.0 4000.0 4000.0 4000.0 4000.0 4000.0 4000.0 4000.0 4000.0 4000.0 4000.0 4000.0 4000.0 4000.0 4000.0 4000.0 4000.0 4000.0 4000.0 4000.0 4000.0 4000.0 4000.0 4000.0 4000.0 4000.0 4000.0 4000.0 4000.0 4000.0 4000.0 4000.0 4000.0 4000.0 4000.0 4000.0 4000.0 4000.0 4000.0 4000.0 4000.0 4000.0 4000.0 4000.0 4000.0 4000.0 4000.0 4000.0 4000.0 4000.0 4000.0 4000.0 4000.0 4000.0 4000.0 4000.0 4000.0 4000.0 4000.0 4000.0 4000.0 4000.0 4000.0 4000.0 4000.0 4000.0 4000.0 4000.0 4000.0 4000.0 4000.0 4000.0 4000.0 4000.0 4000.0 4000.0 4000.0 4000.0 4000.0 4000.0 4000.0 4000.0 4000.0 4000.0 4000.0 4000.0 4000.0 4000.0 4000.0 4000.0 4000.0 4000.0 4000.0 4000.0 4000.0 4000.0 4000.0 4000.0 4000.0 4000.0 4000.0 4000.0 4000.0 4000.0 4000.0 4000.0 4000.0 4000.0 4000.0 4000.0 4000.0 4000.0 4000.0 4000.0 4000.0 4000.0 4000.0 4000.0 4000.0 4000.0 4000.0 4000.0 4000.0 4000.0 4000.0 4000.0 4000.0 4000.0 4000.0 4000.0 4000.0 4000.0 4000.0 4000.0 4000.0 4000.0 4000.0 4000.0 4000.0 4000.0 4000.0 4000.0 4000.0 4000.0 4000.0 4000.0 4000.0 4000.0 4000.0 4000.0 4000.0 4000.0 4000.0 4000.0 4000.0 4000.0 4000.0 4000.0 4000.0 4000.0 4000.0 4000.0 4000.0 4000.0 4000.0 4000.0 4000.0 4000.0 4000.0 4000.0 4000.0 4000.0 4000.0 4000.0 4000.0 4000.0 4000.0 4000.0 4000.0 4000.0 4000.0 4000.0 4000.0 4000.0 4000.0 4000.0 4000.0 4000.0 4000.0 4000.0 4000.0 4000.0 4000.0 4000.0 4000.0 4000.0 4000.0 4000.0 4000.0 4000.0 4000.0 4000.0 4000.0 4000.0 4000.0 4000.0 4000.0 4000.0 4000.0 4000.0 4000.0 4000.0 4000.0 4000.0 4000.0 4000.0 4000.0 4000.0 4000.0 4000.0 4000.0 4000.0 4000.0 4000.0 4000.0 4000.0 4000.0 4000.0 4000.0 4000.0 4000.0 4000.0 4000.0 4000.0 4000.0 4000.0 4000.0 4000.0 4000.0 4000.0 4000.0 4000.0 4000.0 4000.0 4000.0 4000.0 4000.0 4000.0 4000.0 4000.0 4000.0 4000.0 4000.0 4000.0 4000.0 4000.0 4000.0 4000.0 4000.0 4000.0 4000.0 4000.0 4000.0 4000.0 4000.0 4000.0 4000.0 4000.0 4000.0 4000.0 4000.0 4000.0 4000.0 4000.0 4000.0 4000.0 4000.0 4000.0 4000.0 4000.0 4000.0 4000.0 4000.0 4000.0 4000.0 4000.0 4000.0 4000.0 4000.0 4000.0 4000.0 4000.0 4000.0 4000.0 4000.0 4000.0 4000.0 4000.0 4000.0 4000.0 4000.0 4000.0 4000.0 4000.0 4000.0 4000.0 4000.0 4000.0 4000.0 4000.0 4000.0 4000.0 4000.0 4000.0 4000.0 4000.0 4000.0 4000.0 4000.0 4000.0 4000.0 4000.0 4000.0 4000.0 4000.0 4000.0 4000.0 4000.0 4000.0 4000.0 4000.0 4000.0 4000.0 4000.0 4000.0 4000.0 4000.0 4000.0 4000.0 4000.0 4000.0 4000.0 4000.0 4000.0 4000.0 4000.0 4000.0 4000.0 4000.0 4000.0 4000.0 4000.0 4000.0 4000.0 4000.0 4000.0 4000.0 4000.0 4000.0 4000.0 4000.0 4000.0 4000.0 4000.0 4000.0 4000.0 4000.0 4000.0 4000.0 4000.0 4000.0 4000.0 4000.0 4000.0 4000.0 4000.0 4000.0 4000.0 4000.0 4000.0 4000.0 4000.0 4000.0 4000.0 4000.0 4000.0 4000.0 4000.0 4000.0 4000.0 4000.0 4000.0 4000.0 4000.0 4000.0 4000.0 4000.0 4000.0 4000.0 4000.0 4000.0 4000.0 4000.0 4000.0 4000.0 4000.0 4000.0 4000.0 4000.0 4000.0 4000.0 4000.0 4000.0 4000.0 4000.0 4000.0 4000.0 4000.0 4000.0 4000.0 4000.0 4000.0 4000.0 4000.0 4000.0 4000.0 4000.0 4000.0 4000.0 4000.0 4000.0 4000.0 4000.0 4000.0 4000.0 4000.0 4000.0 4000.0 4000.0 4000.0 4000.0 4000.0 4000.0 4000.0 4000.0 4000.0 4000.0 4000.0 4000.0 4000.0 4000.0 4000.0 4000.0 4000.0 4000.0 4000.0 4000.0 4000.0 4000.0 4000.0 4000.0 4000.0 4000.0 4000.0 4000.0 4000.0 4000.0 4000.0 4000.0 4000.0 4000.0 4000.0 4000.0 4000.0 4000.0 4000.0 4000.0 4000.0 4000.0 4000.0 4000.0 4000.0 4000.0 4000.0 4000.0 4000.0 4000.0 4000.0 4000.0 4000.0 4000.0 4000.0 4000.0 4000.0 4000.0 4000.0 4000.0 4000.0 4000.0 4000.0 4000.0 4000.0 4000.0 4000.0 4000.0 4000.0 4000.0 4000.0 4000.0 4000.0 4000.0 4000.0 4000.0 4000.0 4000.0 4000.0 4000.0 4000.0 4000.0 4000.0 4000.0 4000.0 4000.0 4000.0 4000.0 4000.0 4000.0 4000.0 4000.0 4000.0 4000.0 4000.0 4000.0 4000.0 4000.0 4000.0 4000.0 4000.0 4000.0 4000.0 4000.0 4000.0 4000.0 4000.0 4000.0 4000.0 4000.0 4000.0 4000.0 4000.0 4000.0 4000.0 4000.0 4000.0 4000.0 4000.0 4000.0 4000.0 4000.0 4000.0 4000.0 4000.0 4000.0 4000.0 4000.0 4000.0 4000.0 4000.0 4000.0 4000.0 4000.0 4000.0 4000.0 4000.0 4000.0 4000.0 4000.0 4000.0 4000.0 4000.0 4000.0 4000.0 4000.0 4000.0 4000.0 4000.0 4000.0 4000.0 4000.0 4000.0 4000.0 4000.0 4000.0 4000.0 4000.0 4000.0 4000.0 4000.0 4000.0 4000.0 4000.0 4000.0 4000.0 4000.0 4000.0 4000.0 4000.0 4000.0 4000.0 4000.0 4000.0 4000.0 4000.0 4000.0 4000.0 4000.0 4000.0 4000.0 4000.0 4000.0 4000.0 4000.0 4000.0 4000.0 4000.0 4000.0 4000.0 4000.0 4000.0 4000.0 4000.0 4000.0 4000.0 4000.0 4000.0 4000.0 4000.0 4000.0 4000.0 4000.0 4000.0 4000.0 4000.0 4000.0 4000.0 4000.0 4000.0 4000.0 4000.0 4000.0 4000.0 4000.0 4000.0 4000.0 4000.0 4000.0 4000.0 4000.0 4000.0 4000.0 4000.0 4000.0 4000.0 4000.0 4000.0 4000.0 4000.0 4000.0 4000.0 4000.0 4000.0 4000.0 4000.0 4000.0 4000.0 4000.0 4000.0 4000.0 4000.0 4000.0 4000.0 4000.0 4000.0 4000.0 4000.0 4000.0 4000.0 4000.0 4000.0 4000.0 4000.0 4000.0 4000.0 4000.0 4000.0 4000.0 4000.0 4000.0 4000.0 4000.0 4000.0 4000.0 4000.0 4000.0 4000.0 4000.0 4000.0 4000.0 4000.0 4000.0 4000.0 4000.0 4000.0 4000.0 4000.0 4000.0 4000.0 4000.0 4000.0 4000.0 4000.0 4000.0 4000.0 4000.0 4000.0 4000.0 4000.0 4000.0 4000.0 4000.0 4000.0 4000.0 4000.0 4000.0 4000.0 4000.0 4000.0 4000.0 4000.0 4000.0 4000.0 4000.0 4000.0 4000.0 4000.0 4000.0 4000.0 4000.0 4000.0 4000.0 4000.0 4000.0 4000.0 4000.0 4000.0 4000.0 4000.0 4000.0 4000.0 4000.0 4000.0 4000.0 4000.0 4000.0 4000.0 4000.0 4000.0 4000.0 4000.0 4000.0 4000.0 4000.0 4000.0 4000.0 4000.0 4000.0 4000.0 4000.0 4000.0 4000.0 4000.0 4000.0 4000.0 4000.0 4000.0 4000.0 4000.0 4000.0 4000.0 4000.0 4000.0 4000.0 4000.0 4000.0 4000.0 4000.0 4000.0 4000.0 4000.0 4000.0 4000.0 4000.0 4000.0 4000.0 4000.0 4000.0 4000.0 4000.0 4000.0 4000.0 4000.0 4000.0 4000.0 4000.0 4000.0 4000.0 4000.0 4000.0 4000.0 4000.0 4000.0 4000.0 4000.0 4000.0 4000.0 4000.0 4000.0 4000.0 4000.0 4000.0 4000.0 4000.0 4000.0 4000.0 4000.0 4000.0 4000.0 4000.0 4000.0 4000.0 4000.0 4000.0 4000.0 4000.0 4000.0 4000.0 4000.0 4000.0 4000.0 4000.0 4000.0 4000.0 4000.0 4000.0 4000.0 4000.0 4000.0 4000.0 4000.0 4000.0 4000.0 4000.0 4000.0 4000.0 4000.0 4000.0 4000.0 4000.0 4000.0 4000.0 4000.0 4000.0 4000.0 4000.0 4000.0 4000.0 4000.0 4000.0 4000.0 4000.0 4000.0 4000.0 4000.0 4000.0 4000.0 4000.0 4000.0 4000.0 4000.0 4000.0 4000.0 4000.0 4000.0 4000.0 4000.0 4000.0 4000.0 4000.0 4000.0 4000.0 4000.0 4000.0 4000.0 4000.0 4000.0 4000.0 4000.0 4000.0 4000.0 4000.0 4000.0 4000.0 4000.0 4000.0 4000.0 4000.0 4000.0 4000.0 4000.0 4000.0 4000.0 4000.0 4000.0 4000.0 4000.0 4000.0 4000.0 4000.0 4000.0 4000.0 4000.0 4000.0 4000.0 4000.0 4000.0 4000.0 4000.0 4000.0 4000.0 4000.0 4000.0 4000.0 4000.0 4000.0 4000.0 4000.0 4000.0 4000.0 4000.0 4000.0 4000.0 4000.0 4000.0 4000.0 4000.0 4000.0 4000.0 4000.0 4000.0 4000.0 4000.0 4000.0 4000.0 4000.0 4000.0 4000.0 4000.0 4000.0 4000.0 4000.0 4000.0 4000.0 4000.0 4000.0 4000.0 4000.0 4000.0 4000.0 4000.0 4000.0 4000.0 4000.0 4000.0 4000.0 4000.0 4000.0 4000.0 4000.0 4000.0 4000.0 4000.0 4000.0 4000.0 4000.0 4000.0 4000.0 4000.0 4000.0 4000.0 4000.0 4000.0 4000.0 4000.0 4000.0 4000.0 4000.0 4000.0 4000.0 4000.0 4000.0 4000.0 4000.0 4000.0 4000.0 4000.0 4000.0 4000.0 4000.0 4000.0 4000.0 4000.0 4000.0 4000.0 4000.0 4000.0 4000.0 4000.0 4000.0 4000.0 4000.0 4000.0 4000.0 4000.0 4000.0 4000.0 4000.0 4000.0 4000.0 4000.0 4000.0 4000.0 4000.0 4000.0 4000.0 4000.0 4000.0 4000.0 4000.0 4000.0 4000.0 4000.0 4000.0 4000.0 4000.0 4000.0 4000.0 4000.0 4000.0 4000.0 4000.0 4000.0 4000.0 4000.0 4000.0 4000.0 4000.0 4000.0 4000.0 4000.0 4000.0 4000.0 4000.0 4000.0 4000.0 4000.0 4000.0 4000.0 4000.0 4000.0 4000.0 4000.0 4000.0 4000.0 4000.0 4000.0 4000.0 4000.0 4000.0 4000.0 4000.0 4000.0 4000.0 4000.0 4000.0 4000.0 4000.0 4000.0 4000.0 4000.0 4000.0 4000.0 4000.0 4000.0 4000.0 4000.0 4000.0 4000.0 4000.0 4000.0 4000.0 4000.0 4000.0 4000.0 4000.0 4000.0 4000.0 4000.0 4000.0 4000.0 4000.0 4000.0 4000.0 4000.0 4000.0 4000.0 4000.0 4000.0 4000.0 4000.0 4000.0 4000.0 4000.0 4000.0 4000.0 4000.0 4000.0 4000.0 4000.0 4000.0 4000.0 4000.0 4000.0 4000.0 4000.0 4000.0 4000.0 4000.0 4000.0 4000.0 4000.0 4000.0 4000.0 4000.0 4000.0 4000.0 4000.0 4000.0 4000.0 4000.0 4000.0 4000.0 4000.0 4000.0 4000.0 4000.0 4000.0 4000.0 4000.0 4000.0 4000.0 4000.0 4000.0 4000.0 4000.0 4000.0 4000.0 4000.0 4000.0 4000.0 4000.0 4000.0 4000.0 4000.0 4000.0 4000.0 4000.0 4000.0 4000.0 4000.0 4000.0 4000.0 4000.0 4000.0 4000.0 4000.0 4000.0 4000.0 4000.0 4000.0 4000.0 4000.0 4000.0 4000.0 4000.0 4000.0 4000.0 4000.0 4000.0 4000.0 4000.0 4000.0 4000.0 4000.0 4000.0 4000.0 4000.0 4000.0 4000.0 4000.0 4000.0 4000.0 4000.0 4000.0 4000.0 4000.0 4000.0 4000.0 4000.0 4000.0 4000.0 4000.0 4000.0 4000.0 4000.0 4000.0 4000.0 4000.0 4000.0 4000.0 4000.0 4000.0 4000.0 4000.0 4000.0 4000.0 4000.0 4000.0 4000.0 4000.0 4000.0 4000.0 4000.0 4000.0 4000.0 4000.0 4000.0 4000.0 4000.0 4000.0 4000.0 4000.0 4000.0 4000.0 4000.0 4000.0 4000.0 4000.0 4000.0 4000.0 4000.0 4000.0 4000.0 4000.0 4000.0 4000.0 4000.0 4000.0 4000.0 4000.0 4000.0 4000.0 4000.0 4000.0 4000.0 4000.0 4000.0 4000.0 4000.0 4000.0 4000.0 4000.0 4000.0 4000.0 4000.0 4000.0 4000.0 4000.0 4000.0 4000.0 4000.0 4000.0 4000.0 4000.0 4000.0 4000.0 4000.0 4000.0 4000.0 4000.0 4000.0 4000.0 4000.0 4000.0 4000.0 4000.0 4000.0 4000.0 4000.0 4000.0 4000.0 4000.0 4000.0 4000.0 4000.0 4000.0 4000.0 4000.0 4000.0 4000.0 4000.0 4000.0 4000.0 4000.0 4000.0 4000.0 4000.0 4000.0 4000.0 4000.0 4000.0 4000.0 4000.0 4000.0 4000.0 4000.0 4000.0 4000.0 4000.0 4000.0 4000.0 4000.0 4000.0 4000.0 4000.0 4000.0 4000.0 4000.0 4000.0 4000.0 4000.0 4000.0 4000.0 4000.0 4000.0 4000.0 4000.0 4000.0 4000.0 4000.0 4000.0 4000.0 4000.0 4000.0 4000.0 4000.0 4000.0 4000.0 4000.0 4000.0 4000.0 4000.0 4000.0 4000.0 4000.0 4000.0 4000.0 4000.0 4000.0 4000.0 4000.0 4000.0 4000.0 4000.0 4000.0 4000.0 4000.0 4000.0 4000.0 4000.0 4000.0 4000.0 4000.0 4000.0 4000.0 4000.0 4000.0 4000.0 4000.0 4000.0 4000.0 4000.0 4000.0 4000.0 4000.0 4000.0 4000.0 4000.0 4000.0 4000.0 4000.0 4000.0 4000.0 4000.0 4000.0 4000.0 4000.0 4000.0 4000.0 4000.0 4000.0 4000.0 4000.0 4000.0 4000.0 4000.0 4000.0 4000.0 4000.0 4000.0 4000.0 4000.0 4000.0 4000.0 4000.0 4000.0 4000.0 4000.0 4000.0 4000.0 4000.0 4000.0 4000.0 4000.0 4000.0 4000.0 4000.0 4000.0 4000.0 4000.0 4000.0 4000.0 4000.0 4000.0 4000.0 4000.0 4000.0 4000.0 4000.0 4000.0 4000.0 4000.0 4000.0 4000.0 4000.0 4000.0 4000.0 4000.0 4000.0 4000.0 4000.0 4000.0 4000.0 4000.0 4000.0 4000.0 4000.0 4000.0 4000.0 4000.0 4000.0 4000.0 4000.0 4000.0 4000.0 4000.0 4000.0 4000.0 4000.0 4000.0 4000.0 4000.0 4000.0 4000.0 4000.0 4000.0 4000.0 4000.0 4000.0 4000.0 4000.0 4000.0 4000.0 4000.0 4000.0 4000.0 4000.0 4000.0 4000.0 4000.0 4000.0 4000.0 4000.0 4000.0 4000.0 4000.0 4000.0 4000.0 4000.0 4000.0 4000.0 4000.0 4000.0 4000.0 4000.0 4000.0 4000.0 4000.0 4000.0 4000.0 4000.0 4000.0 4000.0 4000.0 4000.0 4000.0 4000.0 4000.0 4000.0 4000.0 4000.0 4000.0 4000.0 4000.0 4000.0 4000.0 4000.0 4000.0 4000.0 4000.0 4000.0 4000.0 4000.0 4000.0 4000.0 4000.0 4000.0 4000.0 4000.0 4000.0 4000.0 4000.0 4000.0 4000.0 4000.0 4000.0 4000.0 4000.0 4000.0 4000.0 4000.0 4000.0 4000.0 4000.0 4000.0 4000.0 4000.0 4000.0 4000.0 4000.0 4000.0 4000.0 4000.0 4000.0 4000.0 4000.0 4000.0 4000.0 4000.0 4000.0 4000.0 4000.0 4000.0 4000.0 4000.0 4000.0 4000.0 4000.0 4000.0 4000.0 4000.0 4000.0 4000.0 4000.0 4000.0 4000.0 4000.0 4000.0 4000.0 4000.0 4000.0 4000.0 4000.0 4000.0 4000.0 4000.0 4000.0 4000.0 4000.0 4000.0 4000.0 4000.0 4000.0 4000.0 4000.0 4000.0 4000.0 4000.0 4000.0 4000.0 4000.0 4000.0 4000.0 4000.0 4000.0 4000.0 4000.0 4000.0 4000.0 4000.0 4000.0 4000.0 4000.0 4000.0 4000.0 4000.0 4000.0 4000.0 4000.0 4000.0 4000.0 4000.0 4000.0 4000.0 4000.0 4000.0 4000.0 4000.0 4000.0 4000.0 4000.0 4000.0 4000.0 4000.0 4000.0 4000.0 4000.0 4000.0 4000.0 4000.0 4000.0 4000.0 4000.0 4000.0 4000.0 4000.0 4000.0 4000.0 4000.0 4000.0 4000.0 4000.0 4000.0 4000.0 4000.0 4000.0 4000.0 4000.0 4000.0 4000.0 4000.0 4000.0 4000.0 4000.0 4000.0 4000.0 4000.0 4000.0 4000.0 4000.0 4000.0 4000.0 4000.0 4000.0 4000.0 4000.0 4000.0 4000.0 4000.0 4000.0 4000.0 4000.0 4000.0 4000.0 4000.0 4000.0 4000.0 4000.0 4000.0 4000.0 4000.0 4000.0 4000.0 4000.0 4000.0 4000.0 4000.0 4000.0 4000.0 4000.0 4000.0 4000.0 4000.0 4000.0 4000.0 4000.0 4000.0 4000.0 4000.0 4000.0 4000.0 4000.0 4000.0 4000.0 4000.0 4000.0 4000.0 4000.0 4000.0 4000.0 4000.0 4000.0 4000.0 4000.0 4000.0 4000.0 4000.0 4000.0 4000.0 4000.0 4000.0 4000.0 4000.0 4000.0 4000.0 4000.0 4000.0 4000.0 4000.0 4000.0 4000.0 4000.0 4000.0 4000.0 4000.0 4000.0 4000.0 4000.0 4000.0 4000.0 4000.0 4000.0 4000.0 4000.0 4000.0 4000.0 4000.0 4000.0 4000.0 4000.0 4000.0 4000.0 4000.0 4000.0 4000.0 4000.0 4000.0 4000.0 4000.0 4000.0 4000.0 4000.0 4000.0 4000.0 4000.0 4000.0 4000.0 4000.0 4000.0 4000.0 4000.0 4000.0 4000.0 4000.0 4000.0 4000.0 4000.0 4000.0 4000.0 4000.0 4000.0 4000.0 4000.0 4000.0 4000.0 4000.0 4000.0 4000.0 4000.0 4000.0 4000.0 4000.0 4000.0 4000.0 4000.0 4000.0 4000.0 4000.0 4000.0 4000.0 4000.0 4000.0 4000.0 4000.0 4000.0 4000.0 4000.0 4000.0 4000.0 4000.0 4000.0 4000.0 4000.0 4000.0 4000.0 4000.0 4000.0 4000.0 4000.0 4000.0 4000.0 4000.0 4000.0 4000.0 4000.0 4000.0 4000.0 4000.0 4000.0 4000.0 4000.0 4000.0 4000.0 4000.0 4000.0 4000.0 4000.0 4000.0 4000.0 4000.0 4000.0 4000.0 4000.0 4000.0 4000.0 4000.0 4000.0 4000.0 4000.0 4000.0 4000.0 4000.0 4000.0 4000.0 4000.0 4000.0 4000.0 4000.0 4000.0 4000.0 4000.0 4000.0 4000.0 4000.0 4000.0 4000.0 4000.0 4000.0 4000.0 4000.0 4000.0 4000.0 4000.0 4000.0 4000.0 4000.0 4000.0 4000.0 4000.0 4000.0 4000.0 4000.0 4000.0 4000.0 4000.0 4000.0 4000.0 4000.0 4000.0 4000.0 4000.0 4000.0 4000.0 4000.0 4000.0 4000.0 4000.0 4000.0 4000.0 4000.0 4000.0 4000.0 4000.0 4000.0 4000.0 4000.0 4000.0 4000.0 4000.0 4000.0 4000.0 4000.0 4000.0 4000.0 4000.0 4000.0 4000.0 4000.0 4000.0 4000.0 4000.0 4000.0 4000.0 4000.0 4000.0 4000.0 4000.0 4000.0 4000.0 4000.0 4000.0 4000.0 4000.0 4000.0 4000.0 4000.0 4000.0 4000.0 4000.0 4000.0 4000.0 4000.0 4000.0 4000.0 4000.0 4000.0 4000.0 4000.0 4000.0 4000.0 4000.0 4000.0 4000.0 4000.0 4000.0 4000.0 4000.0 4000.0 4000.0 4000.0 4000.0 4000.0 4000.0 4000.0 4000.0 4000.0 4000.0 4000.0 4000.0 4000.0 4000.0 4000.0 4000.0 4000.0 4000.0 4000.0 4000.0 4000.0 4000.0 4000.0 4000.0 4000.0 4000.0 4000.0 4000.0 4000.0 4000.0 4000.0 4000.0 4000.0 4000.0 4000.0 4000.0 4000.0 4000.0 4000.0 4000.0 4000.0 4000.0 4000.0 4000.0 4000.0 4000.0 4000.0 4000.0 4000.0 4000.0 4000.0 4000.0 4000.0 4000.0 4000.0 4000.0 4000.0 4000.0 4000.0 4000.0 4000.0 4000.0 4000.0 4000.0 4000.0 4000.0 4000.0 4000.0 4000.0 4000.0 4000.0 4000.0 4000.0 4000.0 4000.0 4000.0 4000.0 4000.0 4000.0 4000.0 4000.0 4000.0 4000.0 4000.0 4000.0 4000.0 4000.0 4000.0 4000.0 4000.0 4000.0 4000.0 4000.0 4000.0 4000.0 4000.0 4000.0 4000.0 4000.0 4000.0 4000.0 4000.0 4000.0 4000.0 4000.0 4000.0 4000.0 4000.0 4000.0 4000.0 4000.0 4000.0 4000.0 4000.0 4000.0 4000.0 4000.0 4000.0 4000.0 4000.0 4000.0 4000.0 4000.0 4000.0 4000.0 4000.0 4000.0 4000.0 4000.0 4000.0 4000.0 4000.0 4000.0 4000.0 4000.0 4000.0 4000.0 4000.0 4000.0 4000.0 4000.0 4000.0 4000.0 4000.0 4000.0 4000.0 4000.0 4000.0 4000.0 4000.0 4000.0 4000.0 4000.0 4000.0 4000.0 4000.0 4000.0 4000.0 4000.0 4000.0 4000.0 4000.0 4000.0 4000.0 4000.0 4000.0 4000.0 4000.0 4000.0 4000.0 4000.0 4000.0 4000.0 4000.0 4000.0 4000.0 4000.0 4000.0 4000.0 4000.0 4000.0 4000.0 4000.0 4000.0 4000.0 4000.0 4000.0 4000.0 4000.0 4000.0 4000.0 4000.0 4000.0 4000.0 4000.0 4000.0 4000.0 4000.0 4000.0 4000.0 4000.0 4000.0 4000.0 4000.0 4000.0 4000.0 4000.0 4000.0 4000.0 4000.0 4000.0 4000.0 4000.0 4000.0 4000.0 4000.0 4000.0 4000.0 4000.0 4000.0 4000.0 4000.0 4000.0 4000.0 4000.0 4000.0 4000.0 4000.0 4000.0 4000.0 4000.0 4000.0 4000.0 4000.0 4000.0 4000.0 4000.0 4000.0 4000.0 4000.0 4000.0 4000.0 4000.0 4000.0 4000.0 4000.0 4000.0 4000.0 4000.0 4000.0 4000.0 4000.0 4000.0 4000.0 4000.0 4000.0 4000.0 4000.0 4000.0 4000.0 4000.0 4000.0 4000.0 4000.0 4000.0 4000.0 4000.0 4000.0 4000.0 4000.0 4000.0 4000.0 4000.0 4000.0 4000.0 4000.0 4000.0 4000.0 4000.0 4000.0 4000.0 4000.0 4000.0 4000.0 4000.0 4000.0 4000.0 4000.0 4000.0 4000.0 4000.0 4000.0 4000.0 4000.0 4000.0 4000.0 4000.0 4000.0 4000.0 4000.0 4000.0 4000.0 4000.0 4000.0 4000.0 4000.0 4000.0 4000.0 4000.0 4000.0 4000.0 4000.0 4000.0 4000.0 4000.0 4000.0 4000.0 4000.0 4000.0 4000.0 4000.0 4000.0 4000.0 4000.0 4000.0 4000.0 4000.0 4000.0 4000.0 4000.0 4000.0 4000.0 4000.0 4000.0 4000.0 4000.0 4000.0 4000.0 4000.0 4000.0 4000.0 4000.0 4000.0 4000.0 4000.0 4000.0 4000.0 4000.0 4000.0 4000.0 4000.0 4000.0 4000.0 4000.0 4000.0 4000.0 4000.0 4000.0 4000.0 4000.0 4000.0 4000.0 4000.0 4000.0 4000.0 4000.0 4000.0 4000.0 4000.0 4000.0 4000.0 4000.0 4000.0 4000.0 4000.0 4000.0 4000.0 4000.0 4000.0 4000.0 4000.0 4000.0 4000.0 4000.0 4000.0 4000.0 4000.0 4000.0 4000.0 4000.0 4000.0 4000.0 4000.0 4000.0 4000.0 4000.0 4000.0 4000.0 4000.0 4000.0 4000.0 4000.0 4000.0 4000.0 4000.0 4000.0 4000.0 4000.0 4000.0 4000.0 4000.0 4000.0 4000.0 4000.0 4000.0 4000.0 4000.0 4000.0 4000.0 4000.0 4000.0 4000.0 4000.0 4000.0 4000.0 4000.0 4000.0 4000.0 4000.0 4000.0 4000.0 4000.0 4000.0 4000.0 4000.0 4000.0 4000.0 4000.0 4000.0 4000.0 4000.0 4000.0 4000.0 4000.0 4000.0 4000.0 4000.0 4000.0 4000.0 4000.0 4000.0 4000.0 4000.0 4000.0 4000.0 4000.0 4000.0 4000.0 4000.0 4000.0 4000.0 4000.0 4000.0 4000.0 4000.0 4000.0 4000.0 4000.0 4000.0 4000.0 4000.0 4000.0 4000.0 4000.0 4000.0 4000.0 4000.0 4000.0 4000.0 4000.0 4000.0 4000.0 4000.0 4000.0 4000.0 4000.0 4000.0 4000.0 4000.0 4000.0 4000.0 4000.0 4000.0 4000.0 4000.0 4000.0 4000.0 4000.0 4000.0 4000.0 4000.0 4000.0 4000.0 4000.0 4000.0 4000.0 4000.0 4000.0 4000.0 4000.0 4000.0 4000.0 4000.0 4000.0 4000.0 4000.0 4000.0 4000.0 4000.0 4000.0 4000.0 4000.0 4000.0 4000.0 4000.0 4000.0 4000.0 4000.0 4000.0 4000.0 4000.0 4000.0 4000.0 4000.0 4000.0 4000.0 4000.0 4000.0 4000.0 4000.0 4000.0 4000.0 4000.0 4000.0 4000.0 4000.0 4000.0 4000.0 4000.0 4000.0 4000.0 4000.0 4000.0 4000.0 4000.0 4000.0 4000.0 4000.0 4000.0 4000.0 4000.0 4000.0 4000.0 4000.0 4000.0 4000.0 4000.0 4000.0 4000.0 4000.0 4000.0 4000.0 4000.0 4000.0 4000.0 4000.0 4000.0 4000.0 4000.0 4000.0 4000.0 4000.0 4000.0 4000.0 4000.0 4000.0 4000.0 4000.0 4000.0 4000.0 4000.0 4000.0 4000.0 4000.0 4000.0 4000.0 4000.0 4000.0 4000.0 4000.0 4000.0 4000.0 4000.0 4000.0 4000.0 4000.0 4000.0 4000.0 4000.0 4000.0 4000.0 4000.0 4000.0 4000.0 4000.0 4000.0 4000.0 4000.0 4000.0 4000.0 4000.0 4000.0 4000.0 4000.0 4000.0 4000.0 4000.0 4000.0 4000.0 4000.0 4000.0 4000.0 4000.0 4000.0 4000.0 4000.0 4000.0 4000.0 4000.0 4000.0 4000.0 4000.0 4000.0 4000.0 4000.0 4000.0 4000.0 4000.0 4000.0 4000.0 4000.0 4000.0 4000.0 4000.0 4000.0 4000.0 4000.0 4000.0 4000.0 4000.0 4000.0 4000.0 4000.0 4000.0 4000.0 4000.0 4000.0 4000.0 4000.0 4000.0 4000.0 4000.0 4000.0 4000.0 4000.0 4000.0 4000.0 4000.0 4000.0 4000.0 4000.0 4000.0 4000.0 4000.0 4000.0 4000.0 4000.0 4000.0 4000.0 4000.0 4000.0 4000.0 4000.0 4000.0 4000.0 4000.0 4000.0 4000.0 4000.0 4000.0 4000.0 4000.0 4000.0 4000.0 4000.0 4000.0 4000.0 4000.0 4000.0 4000.0 4000.0 4000.0 4000.0 4000.0 4000.0 4000.0 4000.0 4000.0 4000.0 4000.0 4000.0 4000.0 4000.0 4000.0 4000.0 4000.0 4000.0 4000.0 4000.0 4000.0 4000.0 4000.0 4000.0 4000.0 4000.0 4000.0 4000.0 4000.0 4000.0 4000.0 4000.0 4000.0 4000.0 4000.0 4000.0 4000.0 4000.0 4000.0 4000.0 4000.0 4000.0 4000.0 4000.0 4000.0 4000.0 4000.0 4000.0 4000.0 4000.0 4000.0 4000.0 4000.0 4000.0 4000.0 4000.0 4000.0 4000.0 4000.0 4000.0 4000.0 4000.0 4000.0 4000.0 4000.0 4000.0 4000.0 4000.0 4000.0 4000.0 4000.0 4000.0 4000.0 4000.0 4000.0 4000.0 4000.0 4000.0 4000.0 4000.0 4000.0 4000.0 4000.0 4000.0 4000.0 4000.0 4000.0 4000.0 4000.0 4000.0 4000.0 4000.0 4000.0 4000.0 4000.0 4000.0 4000.0 4000.0 4000.0 4000.0 4000.0 4000.0 4000.0 4000.0 4000.0 4000.0 4000.0 4000.0 4000.0 4000.0 4000.0 4000.0 4000.0 4000.0 4000.0 4000.0 4000.0 4000.0 4000.0 4000.0 4000.0 4000.0 4000.0 4000.0 4000.0 4000.0 4000.0 4000.0 4000.0 4000.0 4000.0 4000.0 4000.0 4000.0 4000.0 4000.0 4000.0 4000.0 4000.0 4000.0 4000.0 4000.0 4000.0 4000.0 4000.0 4000.0 4000.0 4000.0 4000.0 4000.0 4000.0 4000.0 4000.0 4000.0 4000.0 4000.0 4000.0 4000.0 4000.0 4000.0 4000.0 4000.0 4000.0 4000.0 4000.0 4000.0 4000.0 4000.0 4000.0 4000.0 4000.0 4000.0 4000.0 4000.0 4000.0 4000.0 4000.0 4000.0 4000.0 4000.0 4000.0 4000.0 4000.0 4000.0 4000.0 4000.0 4000.0 4000.0 4000.0 4000.0 4000.0 4000.0 4000.0 4000.0 4000.0 4000.0 4000.0 4000.0 4000.0 4000.0 4000.0 4000.0 4000.0 4000.0 4000.0 4000.0 4000.0 4000.0 4000.0 4000.0 4000.0 4000.0 4000.0 4000.0 4000.0 4000.0 4000.0 4000.0 4000.0 4000.0 4000.0 4000.0 4000.0 4000.0 4000.0 4000.0 4000.0 4000.0 4000.0 4000.0 4000.0 4000.0 4000.0 4000.0 4000.0 4000.0 4000.0 4000.0 4000.0 4000.0 4000.0 4000.0 4000.0 4000.0 4000.0 4000.0 4000.0 4000.0 4000.0 4000.0 4000.0 4000.0 4000.0 4000.0 4000.0 4000.0 4000.0 4000.0 4000.0 4000.0 4000.0 4000.0 4000.0 4000.0 4000.0 4000.0 4000.0 4000.0 4000.0 4000.0 4000.0 4000.0 4000.0 4000.0 4000.0 4000.0 4000.0 4000.0 4000.0 4000.0 4000.0 4000.0 4000.0 4000.0 4000.0 4000.0 4000.0 4000.0 4000.0 4000.0 4000.0 4000.0 4000.0 4000.0 4000.0 4000.0 4000.0 4000.0 4000.0 4000.0 4000.0 4000.0 4000.0 4000.0 4000.0 4000.0 4000.0 4000.0 4000.0 4000.0 4000.0 4000.0 4000.0 4000.0 4000.0 4000.0 4000.0 4000.0 4000.0 4000.0 4000.0 4000.0 4000.0 4000.0 4000.0 4000.0 4000.0 4000.0 4000.0 4000.0 4000.0 4000.0 4000.0 4000.0 4000.0 4000.0 4000.0 4000.0 4000.0 4000.0 4000.0 4000.0 4000.0 4000.0 4000.0 4000.0 4000.0 4000.0 4000.0 4000.0 4000.0 4000.0 4000.0 4000.0 4000.0 4000.0 4000.0 4000.0 4000.0 4000.0 4000.0 4000.0 4000.0 4000.0 4000.0 4000.0 4000.0 4000.0 4000.0 4000.0 4000.0 4000.0 4000.0 4000.0 4000.0 4000.0 4000.0 4000.0 4000.0 4000.0 4000.0 4000.0 4000.0 4000.0 4000.0 4000.0 4000.0 4000.0 4000.0 4000.0 4000.0 4000.0 4000.0 4000.0 4000.0 4000.0 4000.0 4000.0 4000.0 4000.0 4000.0 4000.0 4000.0 4000.0 4000.0 4000.0 4000.0 4000.0 4000.0 4000.0 4000.0 4000.0 4000.0 4000.0 4000.0 4000.0 4000.0 4000.0 4000.0 4000.0 4000.0 4000.0 4000.0 4000.0 4000.0 4000.0 4000.0 4000.0 4000.0 4000.0 4000.0 4000.0 4000.0 4000.0 4000.0 4000.0 4000.0 4000.0 4000.0 4000.0 4000.0 4000.0 4000.0 4000.0 4000.0 4000.0 4000.0 4000.0 4000.0 4000.0 4000.0 4000.0 4000.0 4000.0 4000.0 4000.0 4000.0 4000.0 4000.0 4000.0 4000.0 4000.0 4000.0 4000.0 4000.0 4000.0 4000.0 4000.0 4000.0 4000.0 4000.0 4000.0 4000.0 4000.0 4000.0 4000.0 4000.0 4000.0 4000.0 4000.0 4000.0 4000.0 4000.0 4000.0 4000.0 4000.0 4000.0 4000.0 4000.0 4000.0 4000.0 4000.0 4000.0 4000.0 4000.0 4000.0 4000.0 4000.0 4000.0 4000.0 4000.0 4000.0 4000.0 4000.0 4000.0 4000.0 4000.0 4000.0 4000.0 4000.0 4000.0 4000.0 4000.0 4000.0 4000.0 4000.0 4000.0 4000.0 4000.0 4000.0 4000.0 4000.0 4000.0 4000.0 4000.0 4000.0 4000.0 4000.0 4000.0 4000.0 4000.0 4000.0 4000.0 4000.0 4000.0 4000.0 4000.0 4000.0 4000.0 4000.0 4000.0 4000.0 4000.0 4000.0 4000.0 4000.0 4000.0 4000.0 4000.0 4000.0 4000.0 4000.0 4000.0 4000.0 4000.0 4000.0 4000.0 4000.0 4000.0 4000.0 4000.0 4000.0 4000.0 4000.0 4000.0 4000.0 4000.0 4000.0 4000.0 4000.0 4000.0 4000.0 4000.0 4000.0 4000.0 4000.0 4000.0 4000.0 4000.0 4000.0 4000.0 4000.0 4000.0 4000.0 4000.0 4000.0 4000.0 4000.0 4000.0 4000.0 4000.0 4000.0 4000.0 4000.0 4000.0 4000.0 4000.0 4000.0 4000.0 4000.0 4000.0 4000.0 4000.0 4000.0 4000.0 4000.0 4000.0 4000.0 4000.0 4000.0 4000.0 4000.0 4000.0 4000.0 4000.0 4000.0 4000.0 4000.0 4000.0 4000.0 4000.0 4000.0 4000.0 4000.0 4000.0 4000.0 4000.0 4000.0 4000.0 4000.0 4000.0 4000.0 4000.0 4000.0 4000.0 4000.0 4000.0 4000.0 4000.0 4000.0 4000.0 4000.0 4000.0 4000.0 4000.0 4000.0 4000.0 4000.0 4000.0 4000.0 4000.0 4000.0 4000.0 4000.0 4000.0 4000.0 4000.0 4000.0 4000.0 4000.0 4000.0 4000.0 4000.0 4000.0 4000.0 4000.0 4000.0 4000.0 4000.0 4000.0 4000.0 4000.0 4000.0 4000.0 4000.0 4000.0 4000.0 4000.0 4000.0 4000.0 4000.0 4000.0 4000.0 4000.0 4000.0 4000.0 4000.0 4000.0 4000.0 4000.0 4000.0 4000.0 4000.0 4000.0 4000.0 4000.0 4000.0 4000.0 4000.0 4000.0 4000.0 4000.0 4000.0 4000.0 4000.0 4000.0 4000.0 4000.0 4000.0 4000.0 4000.0 4000.0 4000.0 4000.0 4000.0 4000.0 4000.0 4000.0 4000.0 4000.0 4000.0 4000.0 4000.0 4000.0 4000.0 4000.0 4000.0 4000.0 4000.0 4000.0 4000.0 4000.0 4000.0 4000.0 4000.0 4000.0 4000.0 4000.0 4000.0 4000.0 4000.0 4000.0 4000.0 4000.0 4000.0 4000.0 4000.0 4000.0 4000.0 4000.0 4000.0 4000.0 4000.0 4000.0 4000.0 4000.0 4000.0 4000.0 4000.0 4000.0 4000.0 4000.0 4000.0 4000.0 4000.0 4000.0 4000.0 4000.0 4000.0 4000.0 4000.0 4000.0 4000.0 4000.0 4000.0 4000.0 4000.0 4000.0 4000.0 4000.0 4000.0 4000.0 4000.0 4000.0 4000.0 4000.0 4000.0 4000.0 4000.0 4000.0 4000.0 4000.0 4000.0 4000.0 4000.0 4000.0 4000.0 4000.0 4000.0 4000.0 4000.0 4000.0 4000.0 4000.0 4000.0 4000.0 4000.0 4000.0 4000.0 4000.0 4000.0 4000.0 4000.0 4000.0 4000.0 4000.0 4000.0 4000.0 4000.0 4000.0 4000.0 4000.0 4000.0 4000.0 4000.0 4000.0 4000.0 4000.0 4000.0 4000.0 4000.0 4000.0 4000.0 4000.0 4000.0 4000.0 4000.0 4000.0 4000.0 4000.0 4000.0 4000.0 4000.0 4000.0 4000.0 4000.0 4000.0 4000.0 4000.0 4000.0 4000.0 4000.0 4000.0 4000.0 4000.0 4000.0 4000.0 4000.0 4000.0 4000.0 4000.0 4000.0 4000.0 4000.0 4000.0 4000.0 4000.0 4000.0 4000.0 4000.0 4000.0 4000.0 4000.0 4000.0 4000.0 4000.0 4000.0 4000.0 4000.0 4000.0 4000.0 4000.0 4000.0 4000.0 4000.0 4000.0 4000.0 4000.0 4000.0 4000.0 4000.0 4000.0 4000.0 4000.0 4000.0 4000.0 4000.0 4000.0 4000.0 4000.0 4000.0 4000.0 4000.0 4000.0 4000.0 4000.0 4000.0 4000.0 4000.0 4000.0 4000.0 4000.0 4000.0 4000.0 4000.0 4000.0 4000.0 4000.0 4000.0 4000.0 4000.0 4000.0 4000.0 4000.0 4000.0 4000.0 4000.0 4000.0 4000.0 4000.0 4000.0 4000.0 4000.0 4000.0 4000.0 4000.0 4000.0 4000.0 4000.0 4000.0 4000.0 4000.0 4000.0 4000.0 4000.0 4000.0 4000.0 4000.0 4000.0 4000.0 4000.0 4000.0 4000.0 4000.0 4000.0 4000.0 4000.0 4000.0 4000.0 4000.0 4000.0 4000.0 4000.0 4000.0 4000.0 4000.0 4000.0 4000.0 4000.0 4000.0 4000.0 4000.0 4000.0 4000.0 4000.0 4000.0 4000.0 4000.0 4000.0 4000.0 4000.0 4000.0 4000.0 4000.0 4000.0 4000.0 4000.0 4000.0 4000.0 4000.0 4000.0 4000.0 4000.0 4000.0 4000.0 4000.0 4000.0 4000.0 4000.0 4000.0 4000.0 4000.0 4000.0 4000.0 4000.0 4000.0 4000.0 4000.0 4000.0 4000.0 4000.0 4000.0 4000.0 4000.0 4000.0 4000.0 4000.0 4000.0 4000.0 SCALARS Mass float 1
LOOKUP_TABLE default
11309700000.0 11309700000.0 11309700000.0 11309700000.0 11309700000.0 11309700000.0 11309700000.0 11309700000.0 11309700000.0 11309700000.0 11309700000.0 11309700000.0 11309700000.0 11309700000.0 11309700000.0 11309700000.0 11309700000.0 11309700000.0 11309700000.0 11309700000.0 11309700000.0 11309700000.0 11309700000.0 11309700000.0 11309700000.0 11309700000.0 11309700000.0 11309700000.0 11309700000.0 11309700000.0 11309700000.0 11309700000.0 11309700000.0 11309700000.0 11309700000.0 11309700000.0 11309700000.0 11309700000.0 11309700000.0 11309700000.0 11309700000.0 11309700000.0 11309700000.0 11309700000.0 11309700000.0 11309700000.0 11309700000.0 11309700000.0 11309700000.0 11309700000.0 11309700000.0 11309700000.0 11309700000.0 11309700000.0 11309700000.0 11309700000.0 11309700000.0 11309700000.0 11309700000.0 11309700000.0 11309700000.0 11309700000.0 11309700000.0 11309700000.0 11309700000.0 11309700000.0 11309700000.0 11309700000.0 11309700000.0 11309700000.0 11309700000.0 11309700000.0 11309700000.0 11309700000.0 11309700000.0 11309700000.0 11309700000.0 11309700000.0 11309700000.0 11309700000.0 11309700000.0 11309700000.0 11309700000.0 11309700000.0 11309700000.0 11309700000.0 11309700000.0 11309700000.0 11309700000.0 11309700000.0 11309700000.0 11309700000.0 11309700000.0 11309700000.0 11309700000.0 11309700000.0 11309700000.0 11309700000.0 11309700000.0 11309700000.0 11309700000.0 11309700000.0 11309700000.0 11309700000.0 11309700000.0 11309700000.0 11309700000.0 11309700000.0 11309700000.0 11309700000.0 11309700000.0 11309700000.0 11309700000.0 11309700000.0 11309700000.0 11309700000.0 11309700000.0 11309700000.0 11309700000.0 11309700000.0 11309700000.0 11309700000.0 11309700000.0 11309700000.0 11309700000.0 11309700000.0 11309700000.0 11309700000.0 11309700000.0 11309700000.0 11309700000.0 11309700000.0 11309700000.0 11309700000.0 11309700000.0 11309700000.0 11309700000.0 11309700000.0 11309700000.0 11309700000.0 11309700000.0 11309700000.0 11309700000.0 11309700000.0 11309700000.0 11309700000.0 11309700000.0 11309700000.0 11309700000.0 11309700000.0 11309700000.0 11309700000.0 11309700000.0 11309700000.0 11309700000.0 11309700000.0 11309700000.0 11309700000.0 11309700000.0 11309700000.0 11309700000.0 11309700000.0 11309700000.0 11309700000.0 11309700000.0 11309700000.0 11309700000.0 11309700000.0 11309700000.0 11309700000.0 11309700000.0 11309700000.0 11309700000.0 11309700000.0 11309700000.0 11309700000.0 11309700000.0 11309700000.0 11309700000.0 11309700000.0 11309700000.0 11309700000.0 11309700000.0 11309700000.0 11309700000.0 11309700000.0 11309700000.0 11309700000.0 11309700000.0 11309700000.0 11309700000.0 11309700000.0 11309700000.0 11309700000.0 11309700000.0 11309700000.0 11309700000.0 11309700000.0 11309700000.0 11309700000.0 11309700000.0 11309700000.0 11309700000.0 11309700000.0 11309700000.0 11309700000.0 11309700000.0 11309700000.0 11309700000.0 11309700000.0 11309700000.0 11309700000.0 11309700000.0 11309700000.0 11309700000.0 11309700000.0 11309700000.0 11309700000.0 11309700000.0 11309700000.0 11309700000.0 11309700000.0 11309700000.0 11309700000.0 11309700000.0 11309700000.0 11309700000.0 11309700000.0 11309700000.0 11309700000.0 11309700000.0 11309700000.0 11309700000.0 11309700000.0 11309700000.0 11309700000.0 11309700000.0 11309700000.0 11309700000.0 11309700000.0 11309700000.0 11309700000.0 11309700000.0 11309700000.0 11309700000.0 11309700000.0 11309700000.0 11309700000.0 11309700000.0 11309700000.0 11309700000.0 11309700000.0 11309700000.0 11309700000.0 11309700000.0 11309700000.0 11309700000.0 11309700000.0 11309700000.0 11309700000.0 11309700000.0 11309700000.0 11309700000.0 11309700000.0 11309700000.0 11309700000.0 11309700000.0 11309700000.0 11309700000.0 11309700000.0 11309700000.0 11309700000.0 11309700000.0 11309700000.0 11309700000.0 11309700000.0 11309700000.0 11309700000.0 11309700000.0 11309700000.0 11309700000.0 11309700000.0 11309700000.0 11309700000.0 11309700000.0 11309700000.0 11309700000.0 11309700000.0 11309700000.0 11309700000.0 11309700000.0 11309700000.0 11309700000.0 11309700000.0 11309700000.0 11309700000.0 11309700000.0 11309700000.0 11309700000.0 11309700000.0 11309700000.0 11309700000.0 11309700000.0 11309700000.0 11309700000.0 11309700000.0 11309700000.0 11309700000.0 11309700000.0 11309700000.0 11309700000.0 11309700000.0 11309700000.0 11309700000.0 11309700000.0 11309700000.0 11309700000.0 11309700000.0 11309700000.0 11309700000.0 11309700000.0 11309700000.0 11309700000.0 11309700000.0 11309700000.0 11309700000.0 11309700000.0 11309700000.0 11309700000.0 11309700000.0 11309700000.0 11309700000.0 11309700000.0 11309700000.0 11309700000.0 11309700000.0 11309700000.0 11309700000.0 11309700000.0 11309700000.0 11309700000.0 11309700000.0 11309700000.0 11309700000.0 11309700000.0 11309700000.0 11309700000.0 11309700000.0 11309700000.0 11309700000.0 11309700000.0 11309700000.0 11309700000.0 11309700000.0 11309700000.0 11309700000.0 11309700000.0 11309700000.0 11309700000.0 11309700000.0 11309700000.0 11309700000.0 11309700000.0 11309700000.0 11309700000.0 11309700000.0 11309700000.0 11309700000.0 11309700000.0 11309700000.0 11309700000.0 11309700000.0 11309700000.0 11309700000.0 11309700000.0 11309700000.0 11309700000.0 11309700000.0 11309700000.0 11309700000.0 11309700000.0 11309700000.0 11309700000.0 11309700000.0 11309700000.0 11309700000.0 11309700000.0 11309700000.0 11309700000.0 11309700000.0 11309700000.0 11309700000.0 11309700000.0 11309700000.0 11309700000.0 11309700000.0 11309700000.0 11309700000.0 11309700000.0 11309700000.0 11309700000.0 11309700000.0 11309700000.0 11309700000.0 11309700000.0 11309700000.0 11309700000.0 11309700000.0 11309700000.0 11309700000.0 11309700000.0 11309700000.0 11309700000.0 11309700000.0 11309700000.0 11309700000.0 11309700000.0 11309700000.0 11309700000.0 11309700000.0 11309700000.0 11309700000.0 11309700000.0 11309700000.0 11309700000.0 11309700000.0 11309700000.0 11309700000.0 11309700000.0 11309700000.0 11309700000.0 11309700000.0 11309700000.0 11309700000.0 11309700000.0 11309700000.0 11309700000.0 11309700000.0 11309700000.0 11309700000.0 11309700000.0 11309700000.0 11309700000.0 11309700000.0 11309700000.0 11309700000.0 11309700000.0 11309700000.0 11309700000.0 11309700000.0 11309700000.0 11309700000.0 11309700000.0 11309700000.0 11309700000.0 11309700000.0 11309700000.0 11309700000.0 11309700000.0 11309700000.0 11309700000.0 11309700000.0 11309700000.0 11309700000.0 11309700000.0 11309700000.0 11309700000.0 11309700000.0 11309700000.0 11309700000.0 11309700000.0 11309700000.0 11309700000.0 11309700000.0 11309700000.0 11309700000.0 11309700000.0 11309700000.0 11309700000.0 11309700000.0 11309700000.0 11309700000.0 11309700000.0 11309700000.0 11309700000.0 11309700000.0 11309700000.0 11309700000.0 11309700000.0 11309700000.0 11309700000.0 11309700000.0 11309700000.0 11309700000.0 11309700000.0 11309700000.0 11309700000.0 11309700000.0 11309700000.0 11309700000.0 11309700000.0 11309700000.0 11309700000.0 11309700000.0 11309700000.0 11309700000.0 11309700000.0 11309700000.0 11309700000.0 11309700000.0 11309700000.0 11309700000.0 11309700000.0 11309700000.0 11309700000.0 11309700000.0 11309700000.0 11309700000.0 11309700000.0 11309700000.0 11309700000.0 11309700000.0 11309700000.0 11309700000.0 11309700000.0 11309700000.0 11309700000.0 11309700000.0 11309700000.0 11309700000.0 11309700000.0 11309700000.0 11309700000.0 11309700000.0 11309700000.0 11309700000.0 11309700000.0 11309700000.0 11309700000.0 11309700000.0 11309700000.0 11309700000.0 11309700000.0 11309700000.0 11309700000.0 11309700000.0 11309700000.0 11309700000.0 11309700000.0 11309700000.0 11309700000.0 11309700000.0 11309700000.0 11309700000.0 11309700000.0 11309700000.0 11309700000.0 11309700000.0 11309700000.0 11309700000.0 11309700000.0 11309700000.0 11309700000.0 11309700000.0 11309700000.0 11309700000.0 11309700000.0 11309700000.0 11309700000.0 11309700000.0 11309700000.0 11309700000.0 11309700000.0 11309700000.0 11309700000.0 11309700000.0 11309700000.0 11309700000.0 11309700000.0 11309700000.0 11309700000.0 11309700000.0 11309700000.0 11309700000.0 11309700000.0 11309700000.0 11309700000.0 11309700000.0 11309700000.0 11309700000.0 11309700000.0 11309700000.0 11309700000.0 11309700000.0 11309700000.0 11309700000.0 11309700000.0 11309700000.0 11309700000.0 11309700000.0 11309700000.0 11309700000.0 11309700000.0 11309700000.0 11309700000.0 11309700000.0 11309700000.0 11309700000.0 11309700000.0 11309700000.0 11309700000.0 11309700000.0 11309700000.0 11309700000.0 11309700000.0 11309700000.0 11309700000.0 11309700000.0 11309700000.0 11309700000.0 11309700000.0 11309700000.0 11309700000.0 11309700000.0 11309700000.0 11309700000.0 11309700000.0 11309700000.0 11309700000.0 11309700000.0 11309700000.0 11309700000.0 11309700000.0 11309700000.0 11309700000.0 11309700000.0 11309700000.0 11309700000.0 11309700000.0 11309700000.0 11309700000.0 11309700000.0 11309700000.0 11309700000.0 11309700000.0 11309700000.0 11309700000.0 11309700000.0 11309700000.0 11309700000.0 11309700000.0 11309700000.0 11309700000.0 11309700000.0 11309700000.0 11309700000.0 11309700000.0 11309700000.0 11309700000.0 11309700000.0 11309700000.0 11309700000.0 11309700000.0 11309700000.0 11309700000.0 11309700000.0 11309700000.0 11309700000.0 11309700000.0 11309700000.0 11309700000.0 11309700000.0 11309700000.0 11309700000.0 11309700000.0 11309700000.0 11309700000.0 11309700000.0 11309700000.0 11309700000.0 11309700000.0 11309700000.0 11309700000.0 11309700000.0 11309700000.0 11309700000.0 11309700000.0 11309700000.0 11309700000.0 11309700000.0 11309700000.0 11309700000.0 11309700000.0 11309700000.0 11309700000.0 11309700000.0 11309700000.0 11309700000.0 11309700000.0 11309700000.0 11309700000.0 11309700000.0 11309700000.0 11309700000.0 11309700000.0 11309700000.0 11309700000.0 11309700000.0 11309700000.0 11309700000.0 11309700000.0 11309700000.0 11309700000.0 11309700000.0 11309700000.0 11309700000.0 11309700000.0 11309700000.0 11309700000.0 11309700000.0 11309700000.0 11309700000.0 11309700000.0 11309700000.0 11309700000.0 11309700000.0 11309700000.0 11309700000.0 11309700000.0 11309700000.0 11309700000.0 11309700000.0 11309700000.0 11309700000.0 11309700000.0 11309700000.0 11309700000.0 11309700000.0 11309700000.0 11309700000.0 11309700000.0 11309700000.0 11309700000.0 11309700000.0 11309700000.0 11309700000.0 11309700000.0 11309700000.0 11309700000.0 11309700000.0 11309700000.0 11309700000.0 11309700000.0 11309700000.0 11309700000.0 11309700000.0 11309700000.0 11309700000.0 11309700000.0 11309700000.0 11309700000.0 11309700000.0 11309700000.0 11309700000.0 11309700000.0 11309700000.0 11309700000.0 11309700000.0 11309700000.0 11309700000.0 11309700000.0 11309700000.0 11309700000.0 11309700000.0 11309700000.0 11309700000.0 11309700000.0 11309700000.0 11309700000.0 11309700000.0 11309700000.0 11309700000.0 11309700000.0 11309700000.0 11309700000.0 11309700000.0 11309700000.0 11309700000.0 11309700000.0 11309700000.0 11309700000.0 11309700000.0 11309700000.0 11309700000.0 11309700000.0 11309700000.0 11309700000.0 11309700000.0 11309700000.0 11309700000.0 11309700000.0 11309700000.0 11309700000.0 11309700000.0 11309700000.0 11309700000.0 11309700000.0 11309700000.0 11309700000.0 11309700000.0 11309700000.0 11309700000.0 11309700000.0 11309700000.0 11309700000.0 11309700000.0 11309700000.0 11309700000.0 11309700000.0 11309700000.0 11309700000.0 11309700000.0 11309700000.0 11309700000.0 11309700000.0 11309700000.0 11309700000.0 11309700000.0 11309700000.0 11309700000.0 11309700000.0 11309700000.0 11309700000.0 11309700000.0 11309700000.0 11309700000.0 11309700000.0 11309700000.0 11309700000.0 11309700000.0 11309700000.0 11309700000.0 11309700000.0 11309700000.0 11309700000.0 11309700000.0 11309700000.0 11309700000.0 11309700000.0 11309700000.0 11309700000.0 11309700000.0 11309700000.0 11309700000.0 11309700000.0 11309700000.0 11309700000.0 11309700000.0 11309700000.0 11309700000.0 11309700000.0 11309700000.0 11309700000.0 11309700000.0 11309700000.0 11309700000.0 11309700000.0 11309700000.0 11309700000.0 11309700000.0 11309700000.0 11309700000.0 11309700000.0 11309700000.0 11309700000.0 11309700000.0 11309700000.0 11309700000.0 11309700000.0 11309700000.0 11309700000.0 11309700000.0 11309700000.0 11309700000.0 11309700000.0 11309700000.0 11309700000.0 11309700000.0 11309700000.0 11309700000.0 11309700000.0 11309700000.0 11309700000.0 11309700000.0 11309700000.0 11309700000.0 11309700000.0 11309700000.0 11309700000.0 11309700000.0 11309700000.0 11309700000.0 11309700000.0 11309700000.0 11309700000.0 11309700000.0 11309700000.0 11309700000.0 11309700000.0 11309700000.0 11309700000.0 11309700000.0 11309700000.0 11309700000.0 11309700000.0 11309700000.0 11309700000.0 11309700000.0 11309700000.0 11309700000.0 11309700000.0 11309700000.0 11309700000.0 11309700000.0 11309700000.0 11309700000.0 11309700000.0 11309700000.0 11309700000.0 11309700000.0 11309700000.0 11309700000.0 11309700000.0 11309700000.0 11309700000.0 11309700000.0 11309700000.0 11309700000.0 11309700000.0 11309700000.0 11309700000.0 11309700000.0 11309700000.0 11309700000.0 11309700000.0 11309700000.0 11309700000.0 11309700000.0 11309700000.0 11309700000.0 11309700000.0 11309700000.0 11309700000.0 11309700000.0 11309700000.0 11309700000.0 11309700000.0 11309700000.0 11309700000.0 11309700000.0 11309700000.0 11309700000.0 11309700000.0 11309700000.0 11309700000.0 11309700000.0 11309700000.0 11309700000.0 11309700000.0 11309700000.0 11309700000.0 11309700000.0 11309700000.0 11309700000.0 11309700000.0 11309700000.0 11309700000.0 11309700000.0 11309700000.0 11309700000.0 11309700000.0 11309700000.0 11309700000.0 11309700000.0 11309700000.0 11309700000.0 11309700000.0 11309700000.0 11309700000.0 11309700000.0 11309700000.0 11309700000.0 11309700000.0 11309700000.0 11309700000.0 11309700000.0 11309700000.0 11309700000.0 11309700000.0 11309700000.0 11309700000.0 11309700000.0 11309700000.0 11309700000.0 11309700000.0 11309700000.0 11309700000.0 11309700000.0 11309700000.0 11309700000.0 11309700000.0 11309700000.0 11309700000.0 11309700000.0 11309700000.0 11309700000.0 11309700000.0 11309700000.0 11309700000.0 11309700000.0 11309700000.0 11309700000.0 11309700000.0 11309700000.0 11309700000.0 11309700000.0 11309700000.0 11309700000.0 11309700000.0 11309700000.0 11309700000.0 11309700000.0 11309700000.0 11309700000.0 11309700000.0 11309700000.0 11309700000.0 11309700000.0 11309700000.0 11309700000.0 11309700000.0 11309700000.0 11309700000.0 11309700000.0 11309700000.0 11309700000.0 11309700000.0 11309700000.0 11309700000.0 11309700000.0 11309700000.0 11309700000.0 11309700000.0 11309700000.0 11309700000.0 11309700000.0 11309700000.0 11309700000.0 11309700000.0 11309700000.0 11309700000.0 11309700000.0 11309700000.0 11309700000.0 11309700000.0 11309700000.0 11309700000.0 11309700000.0 11309700000.0 11309700000.0 11309700000.0 11309700000.0 11309700000.0 11309700000.0 11309700000.0 11309700000.0 11309700000.0 11309700000.0 11309700000.0 11309700000.0 11309700000.0 11309700000.0 11309700000.0 11309700000.0 11309700000.0 11309700000.0 11309700000.0 11309700000.0 11309700000.0 11309700000.0 11309700000.0 11309700000.0 11309700000.0 11309700000.0 11309700000.0 11309700000.0 11309700000.0 11309700000.0 11309700000.0 11309700000.0 11309700000.0 11309700000.0 11309700000.0 11309700000.0 11309700000.0 11309700000.0 11309700000.0 11309700000.0 11309700000.0 11309700000.0 11309700000.0 11309700000.0 11309700000.0 11309700000.0 11309700000.0 11309700000.0 11309700000.0 11309700000.0 11309700000.0 11309700000.0 11309700000.0 11309700000.0 11309700000.0 11309700000.0 11309700000.0 11309700000.0 11309700000.0 11309700000.0 11309700000.0 11309700000.0 11309700000.0 11309700000.0 11309700000.0 11309700000.0 11309700000.0 11309700000.0 11309700000.0 11309700000.0 11309700000.0 11309700000.0 11309700000.0 11309700000.0 11309700000.0 11309700000.0 11309700000.0 11309700000.0 11309700000.0 11309700000.0 11309700000.0 11309700000.0 11309700000.0 11309700000.0 11309700000.0 11309700000.0 11309700000.0 11309700000.0 11309700000.0 11309700000.0 11309700000.0 11309700000.0 11309700000.0 11309700000.0 11309700000.0 11309700000.0 11309700000.0 11309700000.0 11309700000.0 11309700000.0 11309700000.0 11309700000.0 11309700000.0 11309700000.0 11309700000.0 11309700000.0 11309700000.0 11309700000.0 11309700000.0 11309700000.0 11309700000.0 11309700000.0 11309700000.0 11309700000.0 11309700000.0 11309700000.0 11309700000.0 11309700000.0 11309700000.0 11309700000.0 11309700000.0 11309700000.0 11309700000.0 11309700000.0 11309700000.0 11309700000.0 11309700000.0 11309700000.0 11309700000.0 11309700000.0 11309700000.0 11309700000.0 11309700000.0 11309700000.0 11309700000.0 11309700000.0 11309700000.0 11309700000.0 11309700000.0 11309700000.0 11309700000.0 11309700000.0 11309700000.0 11309700000.0 11309700000.0 11309700000.0 11309700000.0 11309700000.0 11309700000.0 11309700000.0 11309700000.0 11309700000.0 11309700000.0 11309700000.0 11309700000.0 11309700000.0 11309700000.0 11309700000.0 11309700000.0 11309700000.0 11309700000.0 11309700000.0 11309700000.0 11309700000.0 11309700000.0 11309700000.0 11309700000.0 11309700000.0 11309700000.0 11309700000.0 11309700000.0 11309700000.0 11309700000.0 11309700000.0 11309700000.0 11309700000.0 11309700000.0 11309700000.0 11309700000.0 11309700000.0 11309700000.0 11309700000.0 11309700000.0 11309700000.0 11309700000.0 11309700000.0 11309700000.0 11309700000.0 11309700000.0 11309700000.0 11309700000.0 11309700000.0 11309700000.0 11309700000.0 11309700000.0 11309700000.0 11309700000.0 11309700000.0 11309700000.0 11309700000.0 11309700000.0 11309700000.0 11309700000.0 11309700000.0 11309700000.0 11309700000.0 11309700000.0 11309700000.0 11309700000.0 11309700000.0 11309700000.0 11309700000.0 11309700000.0 11309700000.0 11309700000.0 11309700000.0 11309700000.0 11309700000.0 11309700000.0 11309700000.0 11309700000.0 11309700000.0 11309700000.0 11309700000.0 11309700000.0 11309700000.0 11309700000.0 11309700000.0 11309700000.0 11309700000.0 11309700000.0 11309700000.0 11309700000.0 11309700000.0 11309700000.0 11309700000.0 11309700000.0 11309700000.0 11309700000.0 11309700000.0 11309700000.0 11309700000.0 11309700000.0 11309700000.0 11309700000.0 11309700000.0 11309700000.0 11309700000.0 11309700000.0 11309700000.0 11309700000.0 11309700000.0 11309700000.0 11309700000.0 11309700000.0 11309700000.0 11309700000.0 11309700000.0 11309700000.0 11309700000.0 11309700000.0 11309700000.0 11309700000.0 11309700000.0 11309700000.0 11309700000.0 11309700000.0 11309700000.0 11309700000.0 11309700000.0 11309700000.0 11309700000.0 11309700000.0 11309700000.0 11309700000.0 11309700000.0 11309700000.0 11309700000.0 11309700000.0 11309700000.0 11309700000.0 11309700000.0 11309700000.0 11309700000.0 11309700000.0 11309700000.0 11309700000.0 11309700000.0 11309700000.0 11309700000.0 11309700000.0 11309700000.0 11309700000.0 11309700000.0 11309700000.0 11309700000.0 11309700000.0 11309700000.0 11309700000.0 11309700000.0 11309700000.0 11309700000.0 11309700000.0 11309700000.0 11309700000.0 11309700000.0 11309700000.0 11309700000.0 11309700000.0 11309700000.0 11309700000.0 11309700000.0 11309700000.0 11309700000.0 11309700000.0 11309700000.0 11309700000.0 11309700000.0 11309700000.0 11309700000.0 11309700000.0 11309700000.0 11309700000.0 11309700000.0 11309700000.0 11309700000.0 11309700000.0 11309700000.0 11309700000.0 11309700000.0 11309700000.0 11309700000.0 11309700000.0 11309700000.0 11309700000.0 11309700000.0 11309700000.0 11309700000.0 11309700000.0 11309700000.0 11309700000.0 11309700000.0 11309700000.0 11309700000.0 11309700000.0 11309700000.0 11309700000.0 11309700000.0 11309700000.0 11309700000.0 11309700000.0 11309700000.0 11309700000.0 11309700000.0 11309700000.0 11309700000.0 11309700000.0 11309700000.0 11309700000.0 11309700000.0 11309700000.0 11309700000.0 11309700000.0 11309700000.0 11309700000.0 11309700000.0 11309700000.0 11309700000.0 11309700000.0 11309700000.0 11309700000.0 11309700000.0 11309700000.0 11309700000.0 11309700000.0 11309700000.0 11309700000.0 11309700000.0 11309700000.0 11309700000.0 11309700000.0 11309700000.0 11309700000.0 11309700000.0 11309700000.0 11309700000.0 11309700000.0 11309700000.0 11309700000.0 11309700000.0 11309700000.0 11309700000.0 11309700000.0 11309700000.0 11309700000.0 11309700000.0 11309700000.0 11309700000.0 11309700000.0 11309700000.0 11309700000.0 11309700000.0 11309700000.0 11309700000.0 11309700000.0 11309700000.0 11309700000.0 11309700000.0 11309700000.0 11309700000.0 11309700000.0 11309700000.0 11309700000.0 11309700000.0 11309700000.0 11309700000.0 11309700000.0 11309700000.0 11309700000.0 11309700000.0 11309700000.0 11309700000.0 11309700000.0 11309700000.0 11309700000.0 11309700000.0 11309700000.0 11309700000.0 11309700000.0 11309700000.0 11309700000.0 11309700000.0 11309700000.0 11309700000.0 11309700000.0 11309700000.0 11309700000.0 11309700000.0 11309700000.0 11309700000.0 11309700000.0 11309700000.0 11309700000.0 11309700000.0 11309700000.0 11309700000.0 11309700000.0 11309700000.0 11309700000.0 11309700000.0 11309700000.0 11309700000.0 11309700000.0 11309700000.0 11309700000.0 11309700000.0 11309700000.0 11309700000.0 11309700000.0 11309700000.0 11309700000.0 11309700000.0 11309700000.0 11309700000.0 11309700000.0 11309700000.0 11309700000.0 11309700000.0 11309700000.0 11309700000.0 11309700000.0 11309700000.0 11309700000.0 11309700000.0 11309700000.0 11309700000.0 11309700000.0 11309700000.0 11309700000.0 11309700000.0 11309700000.0 11309700000.0 11309700000.0 11309700000.0 11309700000.0 11309700000.0 11309700000.0 11309700000.0 11309700000.0 11309700000.0 11309700000.0 11309700000.0 11309700000.0 11309700000.0 11309700000.0 11309700000.0 11309700000.0 11309700000.0 11309700000.0 11309700000.0 11309700000.0 11309700000.0 11309700000.0 11309700000.0 11309700000.0 11309700000.0 11309700000.0 11309700000.0 11309700000.0 11309700000.0 11309700000.0 11309700000.0 11309700000.0 11309700000.0 11309700000.0 11309700000.0 11309700000.0 11309700000.0 11309700000.0 11309700000.0 11309700000.0 11309700000.0 11309700000.0 11309700000.0 11309700000.0 11309700000.0 11309700000.0 11309700000.0 11309700000.0 11309700000.0 11309700000.0 11309700000.0 11309700000.0 11309700000.0 11309700000.0 11309700000.0 11309700000.0 11309700000.0 11309700000.0 11309700000.0 11309700000.0 11309700000.0 11309700000.0 11309700000.0 11309700000.0 11309700000.0 11309700000.0 11309700000.0 11309700000.0 11309700000.0 11309700000.0 11309700000.0 11309700000.0 11309700000.0 11309700000.0 11309700000.0 11309700000.0 11309700000.0 11309700000.0 11309700000.0 11309700000.0 11309700000.0 11309700000.0 11309700000.0 11309700000.0 11309700000.0 11309700000.0 11309700000.0 11309700000.0 11309700000.0 11309700000.0 11309700000.0 11309700000.0 11309700000.0 11309700000.0 11309700000.0 11309700000.0 11309700000.0 11309700000.0 11309700000.0 11309700000.0 11309700000.0 11309700000.0 11309700000.0 11309700000.0 11309700000.0 11309700000.0 11309700000.0 11309700000.0 11309700000.0 11309700000.0 11309700000.0 11309700000.0 11309700000.0 11309700000.0 11309700000.0 11309700000.0 11309700000.0 11309700000.0 11309700000.0 11309700000.0 11309700000.0 11309700000.0 11309700000.0 11309700000.0 11309700000.0 11309700000.0 11309700000.0 11309700000.0 11309700000.0 11309700000.0 11309700000.0 11309700000.0 11309700000.0 11309700000.0 11309700000.0 11309700000.0 11309700000.0 11309700000.0 11309700000.0 11309700000.0 11309700000.0 11309700000.0 11309700000.0 11309700000.0 11309700000.0 11309700000.0 11309700000.0 11309700000.0 11309700000.0 11309700000.0 11309700000.0 11309700000.0 11309700000.0 11309700000.0 11309700000.0 11309700000.0 11309700000.0 11309700000.0 11309700000.0 11309700000.0 11309700000.0 11309700000.0 11309700000.0 11309700000.0 11309700000.0 11309700000.0 11309700000.0 11309700000.0 11309700000.0 11309700000.0 11309700000.0 11309700000.0 11309700000.0 11309700000.0 11309700000.0 11309700000.0 11309700000.0 11309700000.0 11309700000.0 11309700000.0 11309700000.0 11309700000.0 11309700000.0 11309700000.0 11309700000.0 11309700000.0 11309700000.0 11309700000.0 11309700000.0 11309700000.0 11309700000.0 11309700000.0 11309700000.0 11309700000.0 11309700000.0 11309700000.0 11309700000.0 11309700000.0 11309700000.0 11309700000.0 11309700000.0 11309700000.0 11309700000.0 11309700000.0 11309700000.0 11309700000.0 11309700000.0 11309700000.0 11309700000.0 11309700000.0 11309700000.0 11309700000.0 11309700000.0 11309700000.0 11309700000.0 11309700000.0 11309700000.0 11309700000.0 11309700000.0 11309700000.0 11309700000.0 11309700000.0 11309700000.0 11309700000.0 11309700000.0 11309700000.0 11309700000.0 11309700000.0 11309700000.0 11309700000.0 11309700000.0 11309700000.0 11309700000.0 11309700000.0 11309700000.0 11309700000.0 11309700000.0 11309700000.0 11309700000.0 11309700000.0 11309700000.0 11309700000.0 11309700000.0 11309700000.0 11309700000.0 11309700000.0 11309700000.0 11309700000.0 11309700000.0 11309700000.0 11309700000.0 11309700000.0 11309700000.0 11309700000.0 11309700000.0 11309700000.0 11309700000.0 11309700000.0 11309700000.0 11309700000.0 11309700000.0 11309700000.0 11309700000.0 11309700000.0 11309700000.0 11309700000.0 11309700000.0 11309700000.0 11309700000.0 11309700000.0 11309700000.0 11309700000.0 11309700000.0 11309700000.0 11309700000.0 11309700000.0 11309700000.0 11309700000.0 11309700000.0 11309700000.0 11309700000.0 11309700000.0 11309700000.0 11309700000.0 11309700000.0 11309700000.0 11309700000.0 11309700000.0 11309700000.0 11309700000.0 11309700000.0 11309700000.0 11309700000.0 11309700000.0 11309700000.0 11309700000.0 11309700000.0 11309700000.0 11309700000.0 11309700000.0 11309700000.0 11309700000.0 11309700000.0 11309700000.0 11309700000.0 11309700000.0 11309700000.0 11309700000.0 11309700000.0 11309700000.0 11309700000.0 11309700000.0 11309700000.0 11309700000.0 11309700000.0 11309700000.0 11309700000.0 11309700000.0 11309700000.0 11309700000.0 11309700000.0 11309700000.0 11309700000.0 11309700000.0 11309700000.0 11309700000.0 11309700000.0 11309700000.0 11309700000.0 11309700000.0 11309700000.0 11309700000.0 11309700000.0 11309700000.0 11309700000.0 11309700000.0 11309700000.0 11309700000.0 11309700000.0 11309700000.0 11309700000.0 11309700000.0 11309700000.0 11309700000.0 11309700000.0 11309700000.0 11309700000.0 11309700000.0 11309700000.0 11309700000.0 11309700000.0 11309700000.0 11309700000.0 11309700000.0 11309700000.0 11309700000.0 11309700000.0 11309700000.0 11309700000.0 11309700000.0 11309700000.0 11309700000.0 11309700000.0 11309700000.0 11309700000.0 11309700000.0 11309700000.0 11309700000.0 11309700000.0 11309700000.0 11309700000.0 11309700000.0 11309700000.0 11309700000.0 11309700000.0 11309700000.0 11309700000.0 11309700000.0 11309700000.0 11309700000.0 11309700000.0 11309700000.0 11309700000.0 11309700000.0 11309700000.0 11309700000.0 11309700000.0 11309700000.0 11309700000.0 11309700000.0 11309700000.0 11309700000.0 11309700000.0 11309700000.0 11309700000.0 11309700000.0 11309700000.0 11309700000.0 11309700000.0 11309700000.0 11309700000.0 11309700000.0 11309700000.0 11309700000.0 11309700000.0 11309700000.0 11309700000.0 11309700000.0 11309700000.0 11309700000.0 11309700000.0 11309700000.0 11309700000.0 11309700000.0 11309700000.0 11309700000.0 11309700000.0 11309700000.0 11309700000.0 11309700000.0 11309700000.0 11309700000.0 11309700000.0 11309700000.0 11309700000.0 11309700000.0 11309700000.0 11309700000.0 11309700000.0 11309700000.0 11309700000.0 11309700000.0 11309700000.0 11309700000.0 11309700000.0 11309700000.0 11309700000.0 11309700000.0 11309700000.0 11309700000.0 11309700000.0 11309700000.0 11309700000.0 11309700000.0 11309700000.0 11309700000.0 11309700000.0 11309700000.0 11309700000.0 11309700000.0 11309700000.0 11309700000.0 11309700000.0 11309700000.0 11309700000.0 11309700000.0 11309700000.0 11309700000.0 11309700000.0 11309700000.0 11309700000.0 11309700000.0 11309700000.0 11309700000.0 11309700000.0 11309700000.0 11309700000.0 11309700000.0 11309700000.0 11309700000.0 11309700000.0 11309700000.0 11309700000.0 11309700000.0 11309700000.0 11309700000.0 11309700000.0 11309700000.0 11309700000.0 11309700000.0 11309700000.0 11309700000.0 11309700000.0 11309700000.0 11309700000.0 11309700000.0 11309700000.0 11309700000.0 11309700000.0 11309700000.0 11309700000.0 11309700000.0 11309700000.0 11309700000.0 11309700000.0 11309700000.0 11309700000.0 11309700000.0 11309700000.0 11309700000.0 11309700000.0 11309700000.0 11309700000.0 11309700000.0 11309700000.0 11309700000.0 11309700000.0 11309700000.0 11309700000.0 11309700000.0 11309700000.0 11309700000.0 11309700000.0 11309700000.0 11309700000.0 11309700000.0 11309700000.0 11309700000.0 11309700000.0 11309700000.0 11309700000.0 11309700000.0 11309700000.0 11309700000.0 11309700000.0 11309700000.0 11309700000.0 11309700000.0 11309700000.0 11309700000.0 11309700000.0 11309700000.0 11309700000.0 11309700000.0 11309700000.0 11309700000.0 11309700000.0 11309700000.0 11309700000.0 11309700000.0 11309700000.0 11309700000.0 11309700000.0 11309700000.0 11309700000.0 11309700000.0 11309700000.0 11309700000.0 11309700000.0 11309700000.0 11309700000.0 11309700000.0 11309700000.0 11309700000.0 11309700000.0 11309700000.0 11309700000.0 11309700000.0 11309700000.0 11309700000.0 11309700000.0 11309700000.0 11309700000.0 11309700000.0 11309700000.0 11309700000.0 11309700000.0 11309700000.0 11309700000.0 11309700000.0 11309700000.0 11309700000.0 11309700000.0 11309700000.0 11309700000.0 11309700000.0 11309700000.0 11309700000.0 11309700000.0 11309700000.0 11309700000.0 11309700000.0 11309700000.0 11309700000.0 11309700000.0 11309700000.0 11309700000.0 11309700000.0 11309700000.0 11309700000.0 11309700000.0 11309700000.0 11309700000.0 11309700000.0 11309700000.0 11309700000.0 11309700000.0 11309700000.0 11309700000.0 11309700000.0 11309700000.0 11309700000.0 11309700000.0 11309700000.0 11309700000.0 11309700000.0 11309700000.0 11309700000.0 11309700000.0 11309700000.0 11309700000.0 11309700000.0 11309700000.0 11309700000.0 11309700000.0 11309700000.0 11309700000.0 11309700000.0 11309700000.0 11309700000.0 11309700000.0 11309700000.0 11309700000.0 11309700000.0 11309700000.0 11309700000.0 11309700000.0 11309700000.0 11309700000.0 11309700000.0 11309700000.0 11309700000.0 11309700000.0 11309700000.0 11309700000.0 11309700000.0 11309700000.0 11309700000.0 11309700000.0 11309700000.0 11309700000.0 11309700000.0 11309700000.0 11309700000.0 11309700000.0 11309700000.0 11309700000.0 11309700000.0 11309700000.0 11309700000.0 11309700000.0 11309700000.0 11309700000.0 11309700000.0 11309700000.0 11309700000.0 11309700000.0 11309700000.0 11309700000.0 11309700000.0 11309700000.0 11309700000.0 11309700000.0 11309700000.0 11309700000.0 11309700000.0 11309700000.0 11309700000.0 11309700000.0 11309700000.0 11309700000.0 11309700000.0 11309700000.0 11309700000.0 11309700000.0 11309700000.0 11309700000.0 11309700000.0 11309700000.0 11309700000.0 11309700000.0 11309700000.0 11309700000.0 11309700000.0 11309700000.0 11309700000.0 11309700000.0 11309700000.0 11309700000.0 11309700000.0 11309700000.0 11309700000.0 11309700000.0 11309700000.0 11309700000.0 11309700000.0 11309700000.0 11309700000.0 11309700000.0 11309700000.0 11309700000.0 11309700000.0 11309700000.0 11309700000.0 11309700000.0 11309700000.0 11309700000.0 11309700000.0 11309700000.0 11309700000.0 11309700000.0 11309700000.0 11309700000.0 11309700000.0 11309700000.0 11309700000.0 11309700000.0 11309700000.0 11309700000.0 11309700000.0 11309700000.0 11309700000.0 11309700000.0 11309700000.0 11309700000.0 11309700000.0 11309700000.0 11309700000.0 11309700000.0 11309700000.0 11309700000.0 11309700000.0 11309700000.0 11309700000.0 11309700000.0 11309700000.0 11309700000.0 11309700000.0 11309700000.0 11309700000.0 11309700000.0 11309700000.0 11309700000.0 11309700000.0 11309700000.0 11309700000.0 11309700000.0 11309700000.0 11309700000.0 11309700000.0 11309700000.0 11309700000.0 11309700000.0 11309700000.0 11309700000.0 11309700000.0 11309700000.0 11309700000.0 11309700000.0 11309700000.0 11309700000.0 11309700000.0 11309700000.0 11309700000.0 11309700000.0 11309700000.0 11309700000.0 11309700000.0 11309700000.0 11309700000.0 11309700000.0 11309700000.0 11309700000.0 11309700000.0 11309700000.0 11309700000.0 11309700000.0 11309700000.0 11309700000.0 11309700000.0 11309700000.0 11309700000.0 11309700000.0 11309700000.0 11309700000.0 11309700000.0 11309700000.0 11309700000.0 11309700000.0 11309700000.0 11309700000.0 11309700000.0 11309700000.0 11309700000.0 11309700000.0 11309700000.0 11309700000.0 11309700000.0 11309700000.0 11309700000.0 11309700000.0 11309700000.0 11309700000.0 11309700000.0 11309700000.0 11309700000.0 11309700000.0 11309700000.0 11309700000.0 11309700000.0 11309700000.0 11309700000.0 11309700000.0 11309700000.0 11309700000.0 11309700000.0 11309700000.0 11309700000.0 11309700000.0 11309700000.0 11309700000.0 11309700000.0 11309700000.0 11309700000.0 11309700000.0 11309700000.0 11309700000.0 11309700000.0 11309700000.0 11309700000.0 11309700000.0 11309700000.0 11309700000.0 11309700000.0 11309700000.0 11309700000.0 11309700000.0 11309700000.0 11309700000.0 11309700000.0 11309700000.0 11309700000.0 11309700000.0 11309700000.0 11309700000.0 11309700000.0 11309700000.0 11309700000.0 11309700000.0 11309700000.0 11309700000.0 11309700000.0 11309700000.0 11309700000.0 11309700000.0 11309700000.0 11309700000.0 11309700000.0 11309700000.0 11309700000.0 11309700000.0 11309700000.0 11309700000.0 11309700000.0 11309700000.0 11309700000.0 11309700000.0 11309700000.0 11309700000.0 11309700000.0 11309700000.0 11309700000.0 11309700000.0 11309700000.0 11309700000.0 11309700000.0 11309700000.0 11309700000.0 11309700000.0 11309700000.0 11309700000.0 11309700000.0 11309700000.0 11309700000.0 11309700000.0 11309700000.0 11309700000.0 11309700000.0 11309700000.0 11309700000.0 11309700000.0 11309700000.0 11309700000.0 11309700000.0 11309700000.0 11309700000.0 11309700000.0 11309700000.0 11309700000.0 11309700000.0 11309700000.0 11309700000.0 11309700000.0 11309700000.0 11309700000.0 11309700000.0 11309700000.0 11309700000.0 11309700000.0 11309700000.0 11309700000.0 11309700000.0 11309700000.0 11309700000.0 11309700000.0 11309700000.0 11309700000.0 11309700000.0 11309700000.0 11309700000.0 11309700000.0 11309700000.0 11309700000.0 11309700000.0 11309700000.0 11309700000.0 11309700000.0 11309700000.0 11309700000.0 11309700000.0 11309700000.0 11309700000.0 11309700000.0 11309700000.0 11309700000.0 11309700000.0 11309700000.0 11309700000.0 11309700000.0 11309700000.0 11309700000.0 11309700000.0 11309700000.0 11309700000.0 11309700000.0 11309700000.0 11309700000.0 11309700000.0 11309700000.0 11309700000.0 11309700000.0 11309700000.0 11309700000.0 11309700000.0 11309700000.0 11309700000.0 11309700000.0 11309700000.0 11309700000.0 11309700000.0 11309700000.0 11309700000.0 11309700000.0 11309700000.0 11309700000.0 11309700000.0 11309700000.0 11309700000.0 11309700000.0 11309700000.0 11309700000.0 11309700000.0 11309700000.0 11309700000.0 11309700000.0 11309700000.0 11309700000.0 11309700000.0 11309700000.0 11309700000.0 11309700000.0 11309700000.0 11309700000.0 11309700000.0 11309700000.0 11309700000.0 11309700000.0 11309700000.0 11309700000.0 11309700000.0 11309700000.0 11309700000.0 11309700000.0 11309700000.0 11309700000.0 11309700000.0 11309700000.0 11309700000.0 11309700000.0 11309700000.0 11309700000.0 11309700000.0 11309700000.0 11309700000.0 11309700000.0 11309700000.0 11309700000.0 11309700000.0 11309700000.0 11309700000.0 11309700000.0 11309700000.0 11309700000.0 11309700000.0 11309700000.0 11309700000.0 11309700000.0 11309700000.0 11309700000.0 11309700000.0 11309700000.0 11309700000.0 11309700000.0 11309700000.0 11309700000.0 11309700000.0 11309700000.0 11309700000.0 11309700000.0 11309700000.0 11309700000.0 11309700000.0 11309700000.0 11309700000.0 11309700000.0 11309700000.0 11309700000.0 11309700000.0 11309700000.0 11309700000.0 11309700000.0 11309700000.0 11309700000.0 11309700000.0 11309700000.0 11309700000.0 11309700000.0 11309700000.0 11309700000.0 11309700000.0 11309700000.0 11309700000.0 11309700000.0 11309700000.0 11309700000.0 11309700000.0 11309700000.0 11309700000.0 11309700000.0 11309700000.0 11309700000.0 11309700000.0 11309700000.0 11309700000.0 11309700000.0 11309700000.0 11309700000.0 11309700000.0 11309700000.0 11309700000.0 11309700000.0 11309700000.0 11309700000.0 11309700000.0 11309700000.0 11309700000.0 11309700000.0 11309700000.0 11309700000.0 11309700000.0 11309700000.0 11309700000.0 11309700000.0 11309700000.0 11309700000.0 11309700000.0 11309700000.0 11309700000.0 11309700000.0 11309700000.0 11309700000.0 11309700000.0 11309700000.0 11309700000.0 11309700000.0 11309700000.0 11309700000.0 11309700000.0 11309700000.0 11309700000.0 11309700000.0 11309700000.0 11309700000.0 11309700000.0 11309700000.0 11309700000.0 11309700000.0 11309700000.0 11309700000.0 11309700000.0 11309700000.0 11309700000.0 11309700000.0 11309700000.0 11309700000.0 11309700000.0 11309700000.0 11309700000.0 11309700000.0 11309700000.0 11309700000.0 11309700000.0 11309700000.0 11309700000.0 11309700000.0 11309700000.0 11309700000.0 11309700000.0 11309700000.0 11309700000.0 11309700000.0 11309700000.0 11309700000.0 11309700000.0 11309700000.0 11309700000.0 11309700000.0 11309700000.0 11309700000.0 11309700000.0 11309700000.0 11309700000.0 11309700000.0 11309700000.0 11309700000.0 11309700000.0 11309700000.0 11309700000.0 11309700000.0 11309700000.0 11309700000.0 11309700000.0 11309700000.0 11309700000.0 11309700000.0 11309700000.0 11309700000.0 11309700000.0 11309700000.0 11309700000.0 11309700000.0 11309700000.0 11309700000.0 11309700000.0 11309700000.0 11309700000.0 11309700000.0 11309700000.0 11309700000.0 11309700000.0 11309700000.0 11309700000.0 11309700000.0 11309700000.0 11309700000.0 11309700000.0 11309700000.0 11309700000.0 11309700000.0 11309700000.0 11309700000.0 11309700000.0 11309700000.0 11309700000.0 11309700000.0 11309700000.0 11309700000.0 11309700000.0 11309700000.0 11309700000.0 11309700000.0 11309700000.0 11309700000.0 11309700000.0 11309700000.0 11309700000.0 11309700000.0 11309700000.0 11309700000.0 11309700000.0 11309700000.0 11309700000.0 11309700000.0 11309700000.0 11309700000.0 11309700000.0 11309700000.0 11309700000.0 11309700000.0 11309700000.0 11309700000.0 11309700000.0 11309700000.0 11309700000.0 11309700000.0 11309700000.0 11309700000.0 11309700000.0 11309700000.0 11309700000.0 11309700000.0 11309700000.0 11309700000.0 11309700000.0 11309700000.0 11309700000.0 11309700000.0 11309700000.0 11309700000.0 11309700000.0 11309700000.0 11309700000.0 11309700000.0 11309700000.0 11309700000.0 11309700000.0 11309700000.0 11309700000.0 11309700000.0 11309700000.0 11309700000.0 11309700000.0 11309700000.0 11309700000.0 11309700000.0 11309700000.0 11309700000.0 11309700000.0 11309700000.0 11309700000.0 11309700000.0 11309700000.0 11309700000.0 11309700000.0 11309700000.0 11309700000.0 11309700000.0 11309700000.0 11309700000.0 11309700000.0 11309700000.0 11309700000.0 11309700000.0 11309700000.0 11309700000.0 11309700000.0 11309700000.0 11309700000.0 11309700000.0 11309700000.0 11309700000.0 11309700000.0 11309700000.0 11309700000.0 11309700000.0 11309700000.0 11309700000.0 11309700000.0 11309700000.0 11309700000.0 11309700000.0 11309700000.0 11309700000.0 11309700000.0 11309700000.0 11309700000.0 11309700000.0 11309700000.0 11309700000.0 11309700000.0 11309700000.0 11309700000.0 11309700000.0 11309700000.0 11309700000.0 11309700000.0 11309700000.0 11309700000.0 11309700000.0 11309700000.0 11309700000.0 11309700000.0 11309700000.0 11309700000.0 11309700000.0 11309700000.0 11309700000.0 11309700000.0 11309700000.0 11309700000.0 11309700000.0 11309700000.0 11309700000.0 11309700000.0 11309700000.0 11309700000.0 11309700000.0 11309700000.0 11309700000.0 11309700000.0 11309700000.0 11309700000.0 11309700000.0 11309700000.0 11309700000.0 11309700000.0 11309700000.0 11309700000.0 11309700000.0 11309700000.0 11309700000.0 11309700000.0 11309700000.0 11309700000.0 11309700000.0 11309700000.0 11309700000.0 11309700000.0 11309700000.0 11309700000.0 11309700000.0 11309700000.0 11309700000.0 11309700000.0 11309700000.0 11309700000.0 11309700000.0 11309700000.0 11309700000.0 11309700000.0 11309700000.0 11309700000.0 11309700000.0 11309700000.0 11309700000.0 11309700000.0 11309700000.0 11309700000.0 11309700000.0 11309700000.0 11309700000.0 11309700000.0 11309700000.0 11309700000.0 11309700000.0 11309700000.0 11309700000.0 11309700000.0 11309700000.0 11309700000.0 11309700000.0 11309700000.0 11309700000.0 11309700000.0 11309700000.0 11309700000.0 11309700000.0 11309700000.0 11309700000.0 11309700000.0 11309700000.0 11309700000.0 11309700000.0 11309700000.0 11309700000.0 11309700000.0 11309700000.0 11309700000.0 11309700000.0 11309700000.0 11309700000.0 11309700000.0 11309700000.0 11309700000.0 11309700000.0 11309700000.0 11309700000.0 11309700000.0 11309700000.0 11309700000.0 11309700000.0 11309700000.0 11309700000.0 11309700000.0 11309700000.0 11309700000.0 11309700000.0 11309700000.0 11309700000.0 11309700000.0 11309700000.0 11309700000.0 11309700000.0 11309700000.0 11309700000.0 11309700000.0 11309700000.0 11309700000.0 11309700000.0 11309700000.0 11309700000.0 11309700000.0 11309700000.0 11309700000.0 11309700000.0 11309700000.0 11309700000.0 11309700000.0 11309700000.0 11309700000.0 11309700000.0 11309700000.0 11309700000.0 11309700000.0 11309700000.0 11309700000.0 11309700000.0 11309700000.0 11309700000.0 11309700000.0 11309700000.0 11309700000.0 11309700000.0 11309700000.0 11309700000.0 11309700000.0 11309700000.0 11309700000.0 11309700000.0 11309700000.0 11309700000.0 11309700000.0 11309700000.0 11309700000.0 11309700000.0 11309700000.0 11309700000.0 11309700000.0 11309700000.0 11309700000.0 11309700000.0 11309700000.0 11309700000.0 11309700000.0 11309700000.0 11309700000.0 11309700000.0 11309700000.0 11309700000.0 11309700000.0 11309700000.0 11309700000.0 11309700000.0 11309700000.0 11309700000.0 11309700000.0 11309700000.0 11309700000.0 11309700000.0 11309700000.0 11309700000.0 11309700000.0 11309700000.0 11309700000.0 11309700000.0 11309700000.0 11309700000.0 11309700000.0 11309700000.0 11309700000.0 11309700000.0 11309700000.0 11309700000.0 11309700000.0 11309700000.0 11309700000.0 11309700000.0 11309700000.0 11309700000.0 11309700000.0 11309700000.0 11309700000.0 11309700000.0 11309700000.0 11309700000.0 11309700000.0 11309700000.0 11309700000.0 11309700000.0 11309700000.0 11309700000.0 11309700000.0 11309700000.0 11309700000.0 11309700000.0 11309700000.0 11309700000.0 11309700000.0 11309700000.0 11309700000.0 11309700000.0 11309700000.0 11309700000.0 11309700000.0 11309700000.0 11309700000.0 11309700000.0 11309700000.0 11309700000.0 11309700000.0 11309700000.0 11309700000.0 11309700000.0 11309700000.0 11309700000.0 11309700000.0 11309700000.0 11309700000.0 11309700000.0 11309700000.0 11309700000.0 11309700000.0 11309700000.0 11309700000.0 11309700000.0 11309700000.0 11309700000.0 11309700000.0 11309700000.0 11309700000.0 11309700000.0 11309700000.0 11309700000.0 11309700000.0 11309700000.0 11309700000.0 11309700000.0 11309700000.0 11309700000.0 11309700000.0 11309700000.0 11309700000.0 11309700000.0 11309700000.0 11309700000.0 11309700000.0 11309700000.0 11309700000.0 11309700000.0 11309700000.0 11309700000.0 11309700000.0 11309700000.0 11309700000.0 11309700000.0 11309700000.0 11309700000.0 11309700000.0 11309700000.0 11309700000.0 11309700000.0 11309700000.0 11309700000.0 11309700000.0 11309700000.0 11309700000.0 11309700000.0 11309700000.0 11309700000.0 11309700000.0 11309700000.0 11309700000.0 11309700000.0 11309700000.0 11309700000.0 11309700000.0 11309700000.0 11309700000.0 11309700000.0 11309700000.0 11309700000.0 11309700000.0 11309700000.0 11309700000.0 11309700000.0 11309700000.0 11309700000.0 11309700000.0 11309700000.0 11309700000.0 11309700000.0 11309700000.0 11309700000.0 11309700000.0 11309700000.0 11309700000.0 11309700000.0 11309700000.0 11309700000.0 11309700000.0 11309700000.0 11309700000.0 11309700000.0 11309700000.0 11309700000.0 11309700000.0 11309700000.0 11309700000.0 11309700000.0 11309700000.0 11309700000.0 11309700000.0 11309700000.0 11309700000.0 11309700000.0 11309700000.0 11309700000.0 11309700000.0 11309700000.0 11309700000.0 11309700000.0 11309700000.0 11309700000.0 11309700000.0 11309700000.0 11309700000.0 11309700000.0 11309700000.0 11309700000.0 11309700000.0 11309700000.0 11309700000.0 11309700000.0 11309700000.0 11309700000.0 11309700000.0 11309700000.0 11309700000.0 11309700000.0 11309700000.0 11309700000.0 11309700000.0 11309700000.0 11309700000.0 11309700000.0 11309700000.0 11309700000.0 11309700000.0 11309700000.0 11309700000.0 11309700000.0 11309700000.0 11309700000.0 11309700000.0 11309700000.0 11309700000.0 11309700000.0 11309700000.0 11309700000.0 11309700000.0 11309700000.0 11309700000.0 11309700000.0 11309700000.0 11309700000.0 11309700000.0 11309700000.0 11309700000.0 11309700000.0 11309700000.0 11309700000.0 11309700000.0 11309700000.0 11309700000.0 11309700000.0 11309700000.0 11309700000.0 11309700000.0 11309700000.0 11309700000.0 11309700000.0 11309700000.0 11309700000.0 11309700000.0 11309700000.0 11309700000.0 11309700000.0 11309700000.0 11309700000.0 11309700000.0 11309700000.0 11309700000.0 11309700000.0 11309700000.0 11309700000.0 11309700000.0 11309700000.0 11309700000.0 11309700000.0 11309700000.0 11309700000.0 11309700000.0 11309700000.0 11309700000.0 11309700000.0 11309700000.0 11309700000.0 11309700000.0 11309700000.0 11309700000.0 11309700000.0 11309700000.0 11309700000.0 11309700000.0 11309700000.0 11309700000.0 11309700000.0 11309700000.0 11309700000.0 11309700000.0 11309700000.0 11309700000.0 11309700000.0 11309700000.0 11309700000.0 11309700000.0 11309700000.0 11309700000.0 11309700000.0 11309700000.0 11309700000.0 11309700000.0 11309700000.0 11309700000.0 11309700000.0 11309700000.0 11309700000.0 11309700000.0 11309700000.0 11309700000.0 11309700000.0 11309700000.0 11309700000.0 11309700000.0 11309700000.0 11309700000.0 11309700000.0 11309700000.0 11309700000.0 11309700000.0 11309700000.0 11309700000.0 11309700000.0 11309700000.0 11309700000.0 11309700000.0 11309700000.0 11309700000.0 11309700000.0 11309700000.0 11309700000.0 11309700000.0 11309700000.0 11309700000.0 11309700000.0 11309700000.0 11309700000.0 11309700000.0 11309700000.0 11309700000.0 11309700000.0 11309700000.0 11309700000.0 11309700000.0 11309700000.0 11309700000.0 11309700000.0 11309700000.0 11309700000.0 11309700000.0 11309700000.0 11309700000.0 11309700000.0 11309700000.0 11309700000.0 11309700000.0 11309700000.0 11309700000.0 11309700000.0 11309700000.0 11309700000.0 11309700000.0 11309700000.0 11309700000.0 11309700000.0 11309700000.0 11309700000.0 11309700000.0 11309700000.0 11309700000.0 11309700000.0 11309700000.0 11309700000.0 11309700000.0 11309700000.0 11309700000.0 11309700000.0 11309700000.0 11309700000.0 11309700000.0 11309700000.0 11309700000.0 11309700000.0 11309700000.0 11309700000.0 11309700000.0 11309700000.0 11309700000.0 11309700000.0 11309700000.0 11309700000.0 11309700000.0 11309700000.0 11309700000.0 11309700000.0 11309700000.0 11309700000.0 11309700000.0 11309700000.0 11309700000.0 11309700000.0 11309700000.0 11309700000.0 11309700000.0 11309700000.0 11309700000.0 11309700000.0 11309700000.0 11309700000.0 11309700000.0 11309700000.0 11309700000.0 11309700000.0 11309700000.0 11309700000.0 11309700000.0 11309700000.0 11309700000.0 11309700000.0 11309700000.0 11309700000.0 11309700000.0 11309700000.0 11309700000.0 11309700000.0 11309700000.0 11309700000.0 11309700000.0 11309700000.0 11309700000.0 11309700000.0 11309700000.0 11309700000.0 11309700000.0 11309700000.0 11309700000.0 11309700000.0 11309700000.0 11309700000.0 11309700000.0 11309700000.0 11309700000.0 11309700000.0 11309700000.0 11309700000.0 11309700000.0 11309700000.0 11309700000.0 11309700000.0 11309700000.0 11309700000.0 11309700000.0 11309700000.0 11309700000.0 11309700000.0 11309700000.0 11309700000.0 11309700000.0 11309700000.0 11309700000.0 11309700000.0 11309700000.0 11309700000.0 11309700000.0 11309700000.0 11309700000.0 11309700000.0 11309700000.0 11309700000.0 11309700000.0 11309700000.0 11309700000.0 11309700000.0 11309700000.0 11309700000.0 11309700000.0 11309700000.0 11309700000.0 11309700000.0 11309700000.0 11309700000.0 11309700000.0 11309700000.0 11309700000.0 11309700000.0 11309700000.0 11309700000.0 11309700000.0 11309700000.0 11309700000.0 11309700000.0 11309700000.0 11309700000.0 11309700000.0 11309700000.0 11309700000.0 11309700000.0 11309700000.0 11309700000.0 11309700000.0 11309700000.0 11309700000.0 11309700000.0 11309700000.0 11309700000.0 11309700000.0 11309700000.0 11309700000.0 11309700000.0 11309700000.0 11309700000.0 11309700000.0 11309700000.0 11309700000.0 11309700000.0 11309700000.0 11309700000.0 11309700000.0 11309700000.0 11309700000.0 11309700000.0 11309700000.0 11309700000.0 11309700000.0 11309700000.0 11309700000.0 11309700000.0 11309700000.0 11309700000.0 11309700000.0 11309700000.0 11309700000.0 11309700000.0 11309700000.0 11309700000.0 11309700000.0 11309700000.0 11309700000.0 11309700000.0 11309700000.0 11309700000.0 11309700000.0 11309700000.0 11309700000.0 11309700000.0 11309700000.0 11309700000.0 11309700000.0 11309700000.0 11309700000.0 11309700000.0 11309700000.0 11309700000.0 11309700000.0 11309700000.0 11309700000.0 11309700000.0 11309700000.0 11309700000.0 11309700000.0 11309700000.0 11309700000.0 11309700000.0 11309700000.0 11309700000.0 11309700000.0 11309700000.0 11309700000.0 11309700000.0 11309700000.0 11309700000.0 11309700000.0 11309700000.0 11309700000.0 11309700000.0 11309700000.0 11309700000.0 11309700000.0 11309700000.0 11309700000.0 11309700000.0 11309700000.0 11309700000.0 11309700000.0 11309700000.0 11309700000.0 11309700000.0 11309700000.0 11309700000.0 11309700000.0 11309700000.0 11309700000.0 11309700000.0 11309700000.0 11309700000.0 11309700000.0 11309700000.0 11309700000.0 11309700000.0 11309700000.0 11309700000.0 11309700000.0 11309700000.0 11309700000.0 11309700000.0 11309700000.0 11309700000.0 11309700000.0 11309700000.0 11309700000.0 11309700000.0 11309700000.0 11309700000.0 11309700000.0 11309700000.0 11309700000.0 11309700000.0 11309700000.0 11309700000.0 11309700000.0 11309700000.0 11309700000.0 11309700000.0 11309700000.0 11309700000.0 11309700000.0 11309700000.0 11309700000.0 11309700000.0 11309700000.0 11309700000.0 11309700000.0 11309700000.0 11309700000.0 11309700000.0 11309700000.0 11309700000.0 11309700000.0 11309700000.0 11309700000.0 11309700000.0 11309700000.0 11309700000.0 11309700000.0 11309700000.0 11309700000.0 11309700000.0 11309700000.0 11309700000.0 11309700000.0 11309700000.0 11309700000.0 11309700000.0 11309700000.0 11309700000.0 11309700000.0 11309700000.0 11309700000.0 11309700000.0 11309700000.0 11309700000.0 11309700000.0 11309700000.0 11309700000.0 11309700000.0 11309700000.0 11309700000.0 11309700000.0 11309700000.0 11309700000.0 11309700000.0 11309700000.0 11309700000.0 11309700000.0 11309700000.0 11309700000.0 11309700000.0 11309700000.0 11309700000.0 11309700000.0 11309700000.0 11309700000.0 11309700000.0 11309700000.0 11309700000.0 11309700000.0 11309700000.0 11309700000.0 11309700000.0 11309700000.0 11309700000.0 11309700000.0 11309700000.0 11309700000.0 11309700000.0 11309700000.0 11309700000.0 11309700000.0 11309700000.0 11309700000.0 11309700000.0 11309700000.0 11309700000.0 11309700000.0 11309700000.0 11309700000.0 11309700000.0 11309700000.0 11309700000.0 11309700000.0 11309700000.0 11309700000.0 11309700000.0 11309700000.0 11309700000.0 11309700000.0 11309700000.0 11309700000.0 11309700000.0 11309700000.0 11309700000.0 11309700000.0 11309700000.0 11309700000.0 11309700000.0 11309700000.0 11309700000.0 11309700000.0 11309700000.0 11309700000.0 11309700000.0 11309700000.0 11309700000.0 11309700000.0 11309700000.0 11309700000.0 11309700000.0 11309700000.0 11309700000.0 11309700000.0 11309700000.0 11309700000.0 11309700000.0 11309700000.0 11309700000.0 11309700000.0 11309700000.0 11309700000.0 11309700000.0 11309700000.0 11309700000.0 11309700000.0 11309700000.0 11309700000.0 11309700000.0 11309700000.0 11309700000.0 11309700000.0 11309700000.0 11309700000.0 11309700000.0 11309700000.0 11309700000.0 11309700000.0 11309700000.0 11309700000.0 11309700000.0 11309700000.0 11309700000.0 11309700000.0 11309700000.0 11309700000.0 11309700000.0 11309700000.0 11309700000.0 11309700000.0 11309700000.0 11309700000.0 11309700000.0 11309700000.0 11309700000.0 11309700000.0 11309700000.0 11309700000.0 11309700000.0 11309700000.0 11309700000.0 11309700000.0 11309700000.0 11309700000.0 11309700000.0 11309700000.0 11309700000.0 11309700000.0 11309700000.0 11309700000.0 11309700000.0 11309700000.0 11309700000.0 11309700000.0 11309700000.0 11309700000.0 11309700000.0 11309700000.0 11309700000.0 11309700000.0 11309700000.0 11309700000.0 11309700000.0 11309700000.0 11309700000.0 11309700000.0 11309700000.0 11309700000.0 11309700000.0 11309700000.0 11309700000.0 11309700000.0 11309700000.0 11309700000.0 11309700000.0 11309700000.0 11309700000.0 11309700000.0 11309700000.0 11309700000.0 11309700000.0 11309700000.0 11309700000.0 11309700000.0 11309700000.0 11309700000.0 11309700000.0 11309700000.0 11309700000.0 11309700000.0 11309700000.0 11309700000.0 11309700000.0 11309700000.0 11309700000.0 11309700000.0 11309700000.0 11309700000.0 11309700000.0 11309700000.0 11309700000.0 11309700000.0 11309700000.0 11309700000.0 11309700000.0 11309700000.0 11309700000.0 11309700000.0 11309700000.0 11309700000.0 11309700000.0 11309700000.0 11309700000.0 11309700000.0 11309700000.0 11309700000.0 11309700000.0 11309700000.0 11309700000.0 11309700000.0 11309700000.0 11309700000.0 11309700000.0 11309700000.0 11309700000.0 11309700000.0 11309700000.0 11309700000.0 11309700000.0 11309700000.0 11309700000.0 11309700000.0 11309700000.0 11309700000.0 11309700000.0 11309700000.0 11309700000.0 11309700000.0 11309700000.0 11309700000.0 11309700000.0 11309700000.0 11309700000.0 11309700000.0 11309700000.0 11309700000.0 11309700000.0 11309700000.0 11309700000.0 11309700000.0 11309700000.0 11309700000.0 11309700000.0 11309700000.0 11309700000.0 11309700000.0 11309700000.0 11309700000.0 11309700000.0 11309700000.0 11309700000.0 11309700000.0 11309700000.0 11309700000.0 11309700000.0 11309700000.0 11309700000.0 11309700000.0 11309700000.0 11309700000.0 11309700000.0 11309700000.0 11309700000.0 11309700000.0 11309700000.0 11309700000.0 11309700000.0 11309700000.0 11309700000.0 11309700000.0 11309700000.0 11309700000.0 11309700000.0 11309700000.0 11309700000.0 11309700000.0 11309700000.0 11309700000.0 11309700000.0 11309700000.0 11309700000.0 11309700000.0 11309700000.0 11309700000.0 11309700000.0 11309700000.0 11309700000.0 11309700000.0 11309700000.0 11309700000.0 11309700000.0 11309700000.0 11309700000.0 11309700000.0 11309700000.0 11309700000.0 11309700000.0 11309700000.0 11309700000.0 11309700000.0 11309700000.0 11309700000.0 11309700000.0 11309700000.0 11309700000.0 11309700000.0 11309700000.0 11309700000.0 11309700000.0 11309700000.0 11309700000.0 11309700000.0 11309700000.0 11309700000.0 11309700000.0 11309700000.0 11309700000.0 11309700000.0 11309700000.0 11309700000.0 11309700000.0 11309700000.0 11309700000.0 11309700000.0 11309700000.0 11309700000.0 11309700000.0 11309700000.0 11309700000.0 11309700000.0 11309700000.0 11309700000.0 11309700000.0 11309700000.0 11309700000.0 11309700000.0 11309700000.0 11309700000.0 11309700000.0 11309700000.0 11309700000.0 11309700000.0 11309700000.0 11309700000.0 11309700000.0 11309700000.0 11309700000.0 11309700000.0 11309700000.0 11309700000.0 11309700000.0 11309700000.0 11309700000.0 11309700000.0 11309700000.0 11309700000.0 11309700000.0 11309700000.0 11309700000.0 11309700000.0 11309700000.0 11309700000.0 11309700000.0 11309700000.0 11309700000.0 11309700000.0 11309700000.0 11309700000.0 11309700000.0 11309700000.0 11309700000.0 11309700000.0 11309700000.0 11309700000.0 11309700000.0 11309700000.0 11309700000.0 11309700000.0 11309700000.0 11309700000.0 11309700000.0 11309700000.0 11309700000.0 11309700000.0 11309700000.0 11309700000.0 11309700000.0 11309700000.0 11309700000.0 11309700000.0 11309700000.0 11309700000.0 11309700000.0 11309700000.0 11309700000.0 11309700000.0 11309700000.0 11309700000.0 11309700000.0 11309700000.0 11309700000.0 11309700000.0 11309700000.0 11309700000.0 11309700000.0 11309700000.0 11309700000.0 11309700000.0 11309700000.0 11309700000.0 11309700000.0 11309700000.0 11309700000.0 11309700000.0 11309700000.0 11309700000.0 11309700000.0 11309700000.0 11309700000.0 11309700000.0 11309700000.0 11309700000.0 11309700000.0 11309700000.0 11309700000.0 11309700000.0 11309700000.0 11309700000.0 11309700000.0 11309700000.0 11309700000.0 11309700000.0 11309700000.0 11309700000.0 11309700000.0 11309700000.0 11309700000.0 11309700000.0 11309700000.0 11309700000.0 11309700000.0 11309700000.0 11309700000.0 11309700000.0 11309700000.0 11309700000.0 11309700000.0 11309700000.0 11309700000.0 11309700000.0 11309700000.0 11309700000.0 11309700000.0 11309700000.0 11309700000.0 11309700000.0 11309700000.0 11309700000.0 11309700000.0 11309700000.0 11309700000.0 11309700000.0 11309700000.0 11309700000.0 11309700000.0 11309700000.0 11309700000.0 11309700000.0 11309700000.0 11309700000.0 11309700000.0 11309700000.0 11309700000.0 11309700000.0 11309700000.0 11309700000.0 11309700000.0 11309700000.0 11309700000.0 11309700000.0 11309700000.0 11309700000.0 11309700000.0 11309700000.0 11309700000.0 11309700000.0 11309700000.0 11309700000.0 11309700000.0 11309700000.0 11309700000.0 11309700000.0 11309700000.0 11309700000.0 11309700000.0 11309700000.0 11309700000.0 11309700000.0 11309700000.0 11309700000.0 11309700000.0 11309700000.0 11309700000.0 11309700000.0 11309700000.0 11309700000.0 11309700000.0 11309700000.0 11309700000.0 11309700000.0 11309700000.0 11309700000.0 11309700000.0 11309700000.0 11309700000.0 11309700000.0 11309700000.0 11309700000.0 11309700000.0 11309700000.0 11309700000.0 11309700000.0 11309700000.0 11309700000.0 11309700000.0 11309700000.0 11309700000.0 11309700000.0 11309700000.0 11309700000.0 11309700000.0 11309700000.0 11309700000.0 11309700000.0 11309700000.0 11309700000.0 11309700000.0 11309700000.0 11309700000.0 11309700000.0 11309700000.0 11309700000.0 11309700000.0 11309700000.0 11309700000.0 11309700000.0 11309700000.0 11309700000.0 11309700000.0 11309700000.0 11309700000.0 11309700000.0 11309700000.0 11309700000.0 11309700000.0 11309700000.0 11309700000.0 11309700000.0 11309700000.0 11309700000.0 11309700000.0 11309700000.0 11309700000.0 11309700000.0 11309700000.0 11309700000.0 11309700000.0 11309700000.0 11309700000.0 11309700000.0 11309700000.0 11309700000.0 11309700000.0 11309700000.0 11309700000.0 11309700000.0 11309700000.0 11309700000.0 11309700000.0 11309700000.0 11309700000.0 11309700000.0 11309700000.0 11309700000.0 11309700000.0 11309700000.0 11309700000.0 11309700000.0 11309700000.0 11309700000.0 11309700000.0 11309700000.0 11309700000.0 11309700000.0 11309700000.0 11309700000.0 11309700000.0 11309700000.0 11309700000.0 11309700000.0 11309700000.0 11309700000.0 11309700000.0 11309700000.0 11309700000.0 11309700000.0 11309700000.0 11309700000.0 11309700000.0 11309700000.0 11309700000.0 11309700000.0 11309700000.0 11309700000.0 11309700000.0 11309700000.0 11309700000.0 11309700000.0 11309700000.0 11309700000.0 11309700000.0 11309700000.0 11309700000.0 11309700000.0 11309700000.0 11309700000.0 11309700000.0 11309700000.0 11309700000.0 11309700000.0 11309700000.0 11309700000.0 11309700000.0 11309700000.0 11309700000.0 11309700000.0 11309700000.0 11309700000.0 11309700000.0 11309700000.0 11309700000.0 11309700000.0 11309700000.0 11309700000.0 11309700000.0 11309700000.0 11309700000.0 11309700000.0 11309700000.0 11309700000.0 11309700000.0 11309700000.0 11309700000.0 11309700000.0 11309700000.0 11309700000.0 11309700000.0 11309700000.0 11309700000.0 11309700000.0 11309700000.0 11309700000.0 11309700000.0 11309700000.0 11309700000.0 11309700000.0 11309700000.0 11309700000.0 11309700000.0 11309700000.0 11309700000.0 11309700000.0 11309700000.0 11309700000.0 11309700000.0 11309700000.0 11309700000.0 11309700000.0 11309700000.0 11309700000.0 11309700000.0 11309700000.0 11309700000.0 11309700000.0 11309700000.0 11309700000.0 11309700000.0 11309700000.0 11309700000.0 11309700000.0 11309700000.0 11309700000.0 11309700000.0 11309700000.0 11309700000.0 11309700000.0 11309700000.0 11309700000.0 11309700000.0 11309700000.0 11309700000.0 11309700000.0 11309700000.0 11309700000.0 11309700000.0 11309700000.0 11309700000.0 11309700000.0 11309700000.0 11309700000.0 11309700000.0 11309700000.0 11309700000.0 11309700000.0 11309700000.0 11309700000.0 11309700000.0 11309700000.0 11309700000.0 11309700000.0 11309700000.0 11309700000.0 11309700000.0 11309700000.0 11309700000.0 11309700000.0 11309700000.0 11309700000.0 11309700000.0 11309700000.0 11309700000.0 11309700000.0 11309700000.0 11309700000.0 11309700000.0 11309700000.0 11309700000.0 11309700000.0 11309700000.0 11309700000.0 11309700000.0 11309700000.0 11309700000.0 11309700000.0 11309700000.0 11309700000.0 11309700000.0 11309700000.0 11309700000.0 11309700000.0 11309700000.0 11309700000.0 11309700000.0 11309700000.0 11309700000.0 11309700000.0 11309700000.0 11309700000.0 11309700000.0 11309700000.0 11309700000.0 11309700000.0 11309700000.0 11309700000.0 11309700000.0 11309700000.0 11309700000.0 11309700000.0 11309700000.0 11309700000.0 11309700000.0 11309700000.0 11309700000.0 11309700000.0 11309700000.0 11309700000.0 11309700000.0 11309700000.0 11309700000.0 11309700000.0 11309700000.0 11309700000.0 11309700000.0 11309700000.0 11309700000.0 11309700000.0 11309700000.0 11309700000.0 11309700000.0 11309700000.0 11309700000.0 11309700000.0 11309700000.0 11309700000.0 11309700000.0 11309700000.0 11309700000.0 11309700000.0 11309700000.0 11309700000.0 11309700000.0 11309700000.0 11309700000.0 11309700000.0 11309700000.0 11309700000.0 11309700000.0 11309700000.0 11309700000.0 11309700000.0 11309700000.0 11309700000.0 11309700000.0 11309700000.0 11309700000.0 11309700000.0 11309700000.0 11309700000.0 11309700000.0 11309700000.0 11309700000.0 11309700000.0 11309700000.0 11309700000.0 11309700000.0 11309700000.0 11309700000.0 11309700000.0 11309700000.0 11309700000.0 11309700000.0 11309700000.0 11309700000.0 11309700000.0 11309700000.0 11309700000.0 11309700000.0 11309700000.0 11309700000.0 11309700000.0 11309700000.0 11309700000.0 11309700000.0 11309700000.0 11309700000.0 11309700000.0 11309700000.0 11309700000.0 11309700000.0 11309700000.0 11309700000.0 11309700000.0 11309700000.0 11309700000.0 11309700000.0 11309700000.0 11309700000.0 11309700000.0 11309700000.0 11309700000.0 11309700000.0 11309700000.0 11309700000.0 11309700000.0 11309700000.0 11309700000.0 11309700000.0 11309700000.0 11309700000.0 11309700000.0 11309700000.0 11309700000.0 11309700000.0 11309700000.0 11309700000.0 11309700000.0 11309700000.0 11309700000.0 11309700000.0 11309700000.0 11309700000.0 11309700000.0 11309700000.0 11309700000.0 11309700000.0 11309700000.0 11309700000.0 11309700000.0 11309700000.0 11309700000.0 11309700000.0 11309700000.0 11309700000.0 11309700000.0 11309700000.0 11309700000.0 11309700000.0 11309700000.0 11309700000.0 11309700000.0 11309700000.0 11309700000.0 11309700000.0 11309700000.0 11309700000.0 11309700000.0 11309700000.0 11309700000.0 11309700000.0 11309700000.0 11309700000.0 11309700000.0 11309700000.0 11309700000.0 11309700000.0 11309700000.0 11309700000.0 11309700000.0 11309700000.0 11309700000.0 11309700000.0 11309700000.0 11309700000.0 11309700000.0 11309700000.0 11309700000.0 11309700000.0 11309700000.0 11309700000.0 11309700000.0 11309700000.0 11309700000.0 11309700000.0 11309700000.0 11309700000.0 11309700000.0 11309700000.0 11309700000.0 11309700000.0 11309700000.0 11309700000.0 11309700000.0 11309700000.0 11309700000.0 11309700000.0 11309700000.0 11309700000.0 11309700000.0 11309700000.0 11309700000.0 11309700000.0 11309700000.0 11309700000.0 11309700000.0 11309700000.0 11309700000.0 11309700000.0 11309700000.0 11309700000.0 11309700000.0 11309700000.0 11309700000.0 11309700000.0 11309700000.0 11309700000.0 11309700000.0 11309700000.0 11309700000.0 11309700000.0 11309700000.0 11309700000.0 11309700000.0 11309700000.0 11309700000.0 11309700000.0 11309700000.0 11309700000.0 11309700000.0 11309700000.0 11309700000.0 11309700000.0 11309700000.0 11309700000.0 11309700000.0 11309700000.0 11309700000.0 11309700000.0 11309700000.0 11309700000.0 11309700000.0 11309700000.0 11309700000.0 11309700000.0 11309700000.0 11309700000.0 
SCALARS Velocity float 1
LOOKUP_TABLE default
0.483244 1.23437 1.22447 0.820055 0.998315 0.88712 0.895111 0.893631 0.894045 0.89389 0.893899 0.893885 0.893881 0.893874 0.893872 0.893868 0.893864 0.893855 0.893846 0.89384 0.893837 0.893837 0.893837 0.893837 0.893838 0.893838 0.893838 0.893837 0.893837 0.893838 0.893837 0.893837 0.893838 0.893838 0.893838 0.893837 0.893837 0.893837 0.893837 0.89384 0.893846 0.893855 0.893864 0.893868 0.893872 0.893874 0.893881 0.893885 0.893899 0.89389 0.894045 0.893631 0.895111 0.88712 0.998315 0.820055 1.22447 1.23437 0.483244 0.507865 1.15057 1.14744 1.14744 1.15057 0.507865 0.531759 0.437821 1.08631 1.03064 0.981978 1.25193 0.657295 1.0153 0.875059 0.897393 0.893424 0.893948 0.893965 0.893955 0.893938 0.893896 0.893878 0.893881 0.893901 0.893921 0.893933 0.893935 0.893928 0.893915 0.8939 0.893886 0.893873 0.893862 0.893853 0.893846 0.893841 0.893839 0.893838 0.893839 0.893841 0.893846 0.893853 0.893862 0.893873 0.893886 0.8939 0.893915 0.893928 0.893935 0.893933 0.893921 0.893901 0.893881 0.893878 0.893896 0.893938 0.893955 0.893965 0.893948 0.893424 0.897393 0.875059 1.0153 0.657295 1.25193 0.981978 1.03064 1.08631 0.437821 0.531759 0.559422 0.527286 0.487239 0.395925 1.01706 0.943392 1.08708 0.852646 0.916738 0.90161 0.900276 0.898543 0.897103 0.896043 0.895393 0.894868 0.894437 0.894187 0.894078 0.894037 0.894018 0.894 0.893977 0.89395 0.893924 0.8939 0.893879 0.893863 0.893851 0.893843 0.893838 0.893837 0.893838 0.893843 0.893851 0.893863 0.893879 0.8939 0.893924 0.89395 0.893977 0.894 0.894018 0.894037 0.894078 0.894187 0.894437 0.894868 0.895393 0.896043 0.897103 0.898543 0.900276 0.90161 0.916738 0.852646 1.08708 0.943392 1.01706 0.395925 0.487239 0.527286 0.559422 0.613711 0.585095 0.55836 0.455316 1.08369 0.958261 0.514522 0.514522 0.958261 1.08369 0.455316 0.55836 0.585095 0.613711 0.592425 0.497329 0.347734 0.998913 0.932203 0.923926 0.520678 1.10236 0.848534 0.916138 0.90187 0.901032 0.899209 0.897453 0.896255 0.895707 0.895269 0.894782 0.894428 0.894247 0.89417 0.894131 0.894096 0.894058 0.894016 0.893973 0.893935 0.893902 0.893877 0.893858 0.893845 0.893838 0.893835 0.893838 0.893845 0.893858 0.893877 0.893902 0.893935 0.893973 0.894016 0.894058 0.894096 0.894131 0.89417 0.894247 0.894428 0.894782 0.895269 0.895707 0.896255 0.897453 0.899209 0.901032 0.90187 0.916138 0.848534 1.10236 0.520678 0.923926 0.932203 0.998913 0.347734 0.497329 0.592425 0.272552 0.24957 0.539728 0.512708 0.538708 0.419807 0.377852 0.274573 1.07125 0.978021 0.896199 0.896199 0.978021 1.07125 0.274573 0.377852 0.419807 0.538708 0.512708 0.539728 0.24957 0.272552 0.281387 0.253646 0.559707 0.479726 0.271099 1.04081 0.884802 0.536291 1.10943 0.84751 0.914339 0.900911 0.901025 0.89965 0.897675 0.896379 0.895761 0.895264 0.894803 0.894502 0.894352 0.89428 0.894229 0.894176 0.894118 0.894059 0.894004 0.893956 0.893917 0.893886 0.893863 0.893847 0.893838 0.893834 0.893838 0.893847 0.893863 0.893886 0.893917 0.893956 0.894004 0.894059 0.894118 0.894176 0.894229 0.89428 0.894352 0.894502 0.894803 0.895264 0.895761 0.896379 0.897675 0.89965 0.901025 0.900911 0.914339 0.84751 1.10943 0.536291 0.884802 1.04081 0.271099 0.479726 0.559707 0.253646 0.281387 0.00381163 0.258812 0.270862 0.5158 0.358105 0.687823 1.03295 0.862462 0.889949 0.589076 1.12049 0.855788 0.920391 0.907651 0.906312 0.904994 0.903828 0.902306 0.900735 0.899048 0.897504 0.896496 0.895872 0.895591 0.895345 0.89465 0.894484 0.894333 0.894201 0.894091 0.894004 0.893937 0.893889 0.893857 0.893838 0.893832 0.893838 0.893857 0.893889 0.893937 0.894004 0.894091 0.894201 0.894333 0.894484 0.89465 0.895345 0.895591 0.895872 0.896496 0.897504 0.899048 0.900735 0.902306 0.903828 0.904994 0.906312 0.907651 0.920391 0.855788 1.12049 0.589076 0.889949 0.862462 1.03295 0.687823 0.358105 0.5158 0.270862 0.258812 0.00381163 0.129863 0.188578 0.5806 0.487227 0.479617 0.852812 1.03256 0.834842 0.834842 1.03256 0.852812 0.479617 0.487227 0.5806 0.188578 0.129863 0.380834 0.234906 0.276654 0.588178 0.541271 0.931228 0.561326 0.930435 0.789556 0.707583 0.636975 1.06602 0.856295 0.915246 0.903112 0.900843 0.898362 0.896886 0.895438 0.894442 0.894054 0.893961 0.893875 0.893841 0.893709 0.893648 0.894082 0.894012 0.893957 0.893917 0.893889 0.89387 0.893855 0.893845 0.893838 0.893834 0.893832 0.893834 0.893838 0.893845 0.893855 0.89387 0.893889 0.893917 0.893957 0.894012 0.894082 0.893648 0.893709 0.893841 0.893875 0.893961 0.894054 0.894442 0.895438 0.896886 0.898362 0.900843 0.903112 0.915246 0.856295 1.06602 0.636975 0.707583 0.789556 0.930435 0.561326 0.931228 0.541271 0.588178 0.276654 0.234906 0.380834 0.938248 0.196422 0.294974 0.459851 0.572125 0.902296 0.79855 0.756865 0.735827 0.675326 0.921449 0.896493 0.896104 0.896541 0.895519 0.89515 0.89478 0.894173 0.893891 0.893838 0.893832 0.893832 0.893832 0.893832 0.893832 0.893832 0.893832 0.893832 0.893832 0.893832 0.893832 0.893832 0.893832 0.893832 0.893832 0.893832 0.893832 0.893832 0.893832 0.893832 0.893832 0.893832 0.893832 0.893832 0.893832 0.893832 0.893832 0.893832 0.893832 0.893832 0.893832 0.893838 0.893891 0.894173 0.89478 0.89515 0.895519 0.896541 0.896104 0.896493 0.921449 0.675326 0.735827 0.756865 0.79855 0.902296 0.572125 0.459851 0.294974 0.196422 0.938248 0.708796 0.59714 0.566919 0.911726 0.911726 0.566919 0.59714 0.708796 0.889023 0.810394 0.520873 0.625947 0.584512 0.876035 0.550443 0.840138 0.732645 0.682776 0.711503 0.710482 0.92298 0.895524 0.897041 0.896318 0.895787 0.89544 0.895075 0.894724 0.894474 0.894318 0.89422 0.894151 0.894091 0.894037 0.893993 0.893959 0.89393 0.893906 0.893885 0.89387 0.893858 0.893848 0.893841 0.893836 0.893833 0.893832 0.893833 0.893836 0.893841 0.893848 0.893858 0.89387 0.893885 0.893906 0.89393 0.893959 0.893993 0.894037 0.894091 0.894151 0.89422 0.894318 0.894474 0.894724 0.895075 0.89544 0.895787 0.896318 0.897041 0.895524 0.92298 0.710482 0.711503 0.682776 0.732645 0.840138 0.550443 0.876035 0.584512 0.625947 0.520873 0.810394 0.889023 0.863545 0.698009 0.26211 0.724694 0.657656 0.874449 0.782248 0.726316 0.763473 0.782049 0.893832 0.893832 0.893832 0.893832 0.893832 0.893832 0.893832 0.893832 0.893832 0.893832 0.893832 0.893832 0.893832 0.893832 0.893832 0.893832 0.893832 0.893832 0.893832 0.893832 0.893832 0.893832 0.893832 0.893832 0.893832 0.893832 0.893832 0.893832 0.893832 0.893832 0.893832 0.893832 0.893832 0.893832 0.893832 0.893832 0.893832 0.893832 0.893832 0.893832 0.893832 0.893832 0.893832 0.893832 0.893832 0.893832 0.893832 0.893832 0.893832 0.893832 0.893832 0.782049 0.763473 0.726316 0.782248 0.874449 0.657656 0.724694 0.26211 0.698009 0.863545 0.765431 0.768728 0.768728 0.765431 0.889981 0.737888 0.862363 0.728935 0.815923 0.731606 0.773318 0.929522 0.861636 0.785607 0.812838 0.835462 0.905527 0.897893 0.896449 0.895587 0.895122 0.894798 0.894551 0.894363 0.894214 0.8941 0.894017 0.89396 0.893919 0.893892 0.893873 0.893861 0.893852 0.893846 0.893842 0.893838 0.893836 0.893834 0.893833 0.893833 0.893832 0.893832 0.893832 0.893833 0.893833 0.893834 0.893836 0.893838 0.893842 0.893846 0.893852 0.893861 0.893873 0.893892 0.893919 0.89396 0.894017 0.8941 0.894214 0.894363 0.894551 0.894798 0.895122 0.895587 0.896449 0.897893 0.905527 0.835462 0.812838 0.785607 0.861636 0.929522 0.773318 0.731606 0.815923 0.728935 0.862363 0.737888 0.889981 0.900634 0.775084 0.905897 0.822599 0.873282 0.836369 0.855892 0.958282 0.899461 0.820512 0.896148 0.848329 0.893832 0.893832 0.893832 0.893832 0.893832 0.893832 0.893832 0.893832 0.893832 0.893832 0.893832 0.893832 0.893832 0.893832 0.893832 0.893832 0.893832 0.893832 0.893832 0.893832 0.893832 0.893832 0.893832 0.893832 0.893832 0.893832 0.893832 0.893832 0.893832 0.893832 0.893832 0.893832 0.893832 0.893832 0.893832 0.893832 0.893832 0.893832 0.893832 0.893832 0.893832 0.893832 0.893832 0.893832 0.893832 0.893832 0.893832 0.893832 0.893832 0.893832 0.893832 0.848329 0.896148 0.820512 0.899461 0.958282 0.855892 0.836369 0.873282 0.822599 0.905897 0.775084 0.900634 0.899682 0.804601 0.897055 0.844776 0.876649 0.839348 0.872792 0.938935 0.886577 0.801524 0.897191 0.861475 0.89408 0.893889 0.893867 0.893853 0.893845 0.89384 0.893837 0.893835 0.893834 0.893834 0.893833 0.893833 0.893833 0.893832 0.893832 0.893832 0.893832 0.893832 0.893832 0.893832 0.893832 0.893832 0.893832 0.893832 0.893832 0.893832 0.893832 0.893832 0.893832 0.893832 0.893832 0.893832 0.893832 0.893832 0.893832 0.893832 0.893832 0.893832 0.893833 0.893833 0.893833 0.893834 0.893834 0.893835 0.893837 0.89384 0.893845 0.893853 0.893867 0.893889 0.89408 0.861475 0.897191 0.801524 0.886577 0.938935 0.872792 0.839348 0.876649 0.844776 0.897055 0.804601 0.899682 0.900773 0.834132 0.888264 0.858334 0.873483 0.838262 0.878011 0.91473 0.880114 0.798224 0.893835 0.871258 0.893834 0.893833 0.893833 0.893833 0.893833 0.893833 0.893833 0.893832 0.893832 0.893832 0.893832 0.893832 0.893832 0.893832 0.893832 0.893832 0.893832 0.893832 0.893832 0.893832 0.893832 0.893832 0.893832 0.893832 0.893832 0.893832 0.893832 0.893832 0.893832 0.893832 0.893832 0.893832 0.893832 0.893832 0.893832 0.893832 0.893832 0.893832 0.893832 0.893832 0.893832 0.893832 0.893832 0.893832 0.893833 0.893833 0.893833 0.893833 0.893833 0.893833 0.893834 0.871258 0.893835 0.798224 0.880114 0.91473 0.878011 0.838262 0.873483 0.858334 0.888264 0.834132 0.900773 0.900685 0.856731 0.883961 0.86779 0.874593 0.842815 0.880924 0.895637 0.877947 0.800721 0.893835 0.87896 0.893834 0.893833 0.893833 0.893833 0.893833 0.893833 0.893832 0.893832 0.893832 0.893832 0.893832 0.893832 0.893832 0.893832 0.893832 0.893832 0.893832 0.893832 0.893832 0.893832 0.893832 0.893832 0.893832 0.893832 0.893832 0.893832 0.893832 0.893832 0.893832 0.893832 0.893832 0.893832 0.893832 0.893832 0.893832 0.893832 0.893832 0.893832 0.893832 0.893832 0.893832 0.893832 0.893832 0.893832 0.893832 0.893833 0.893833 0.893833 0.893833 0.893833 0.893834 0.87896 0.893835 0.800721 0.877947 0.895637 0.880924 0.842815 0.874593 0.86779 0.883961 0.856731 0.900685 0.875831 0.876253 0.883805 0.881243 0.878606 0.806402 0.893835 0.88477 0.893834 0.893833 0.893833 0.893833 0.893833 0.893832 0.893832 0.893832 0.893832 0.893832 0.893832 0.893832 0.893832 0.893832 0.893832 0.893832 0.893832 0.893832 0.893832 0.893832 0.893832 0.893832 0.893832 0.893832 0.893832 0.893832 0.893832 0.893832 0.893832 0.893832 0.893832 0.893832 0.893832 0.893832 0.893832 0.893832 0.893832 0.893832 0.893832 0.893832 0.893832 0.893832 0.893832 0.893832 0.893832 0.893832 0.893833 0.893833 0.893833 0.893833 0.893834 0.88477 0.893835 0.806402 0.878606 0.881243 0.883805 0.876253 0.875831 0.900092 0.873506 0.882168 0.848293 0.848293 0.882168 0.873506 0.900092 0.898648 0.885055 0.880741 0.8824 0.876377 0.853997 0.886712 0.871082 0.880818 0.815217 0.893835 0.888663 0.893834 0.893833 0.893833 0.893833 0.893833 0.893832 0.893832 0.893832 0.893832 0.893832 0.893832 0.893832 0.893832 0.893832 0.893832 0.893832 0.893832 0.893832 0.893832 0.893832 0.893832 0.893832 0.893832 0.893832 0.893832 0.893832 0.893832 0.893832 0.893832 0.893832 0.893832 0.893832 0.893832 0.893832 0.893832 0.893832 0.893832 0.893832 0.893832 0.893832 0.893832 0.893832 0.893832 0.893832 0.893832 0.893832 0.893833 0.893833 0.893833 0.893833 0.893834 0.888663 0.893835 0.815217 0.880818 0.871082 0.886712 0.853997 0.876377 0.8824 0.880741 0.885055 0.898648 0.888201 0.883625 0.827068 0.893834 0.890987 0.893833 0.893833 0.893833 0.893833 0.893832 0.893832 0.893832 0.893832 0.893832 0.893832 0.893832 0.893832 0.893832 0.893832 0.893832 0.893832 0.893832 0.893832 0.893832 0.893832 0.893832 0.893832 0.893832 0.893832 0.893832 0.893832 0.893832 0.893832 0.893832 0.893832 0.893832 0.893832 0.893832 0.893832 0.893832 0.893832 0.893832 0.893832 0.893832 0.893832 0.893832 0.893832 0.893832 0.893832 0.893832 0.893832 0.893832 0.893833 0.893833 0.893833 0.893833 0.890987 0.893834 0.827068 0.883625 0.888201 0.896438 0.892369 0.87942 0.888557 0.877159 0.859587 0.864595 0.864595 0.859587 0.877159 0.888557 0.87942 0.892369 0.896438 0.894026 0.896055 0.878543 0.893417 0.879261 0.864106 0.888351 0.861203 0.886493 0.840295 0.893834 0.89229 0.893833 0.893833 0.893833 0.893833 0.893832 0.893832 0.893832 0.893832 0.893832 0.893832 0.893832 0.893832 0.893832 0.893832 0.893832 0.893832 0.893832 0.893832 0.893832 0.893832 0.893832 0.893832 0.893832 0.893832 0.893832 0.893832 0.893832 0.893832 0.893832 0.893832 0.893832 0.893832 0.893832 0.893832 0.893832 0.893832 0.893832 0.893832 0.893832 0.893832 0.893832 0.893832 0.893832 0.893832 0.893832 0.893832 0.893832 0.893833 0.893833 0.893833 0.893833 0.89229 0.893834 0.840295 0.886493 0.861203 0.888351 0.864106 0.879261 0.893417 0.878543 0.896055 0.894026 0.891903 0.896937 0.878194 0.89569 0.881699 0.867251 0.888134 0.860284 0.889004 0.852896 0.893834 0.893011 0.893833 0.893833 0.893833 0.893832 0.893832 0.893832 0.893832 0.893832 0.893832 0.893832 0.893832 0.893832 0.893832 0.893832 0.893832 0.893832 0.893832 0.893832 0.893832 0.893832 0.893832 0.893832 0.893832 0.893832 0.893832 0.893832 0.893832 0.893832 0.893832 0.893832 0.893832 0.893832 0.893832 0.893832 0.893832 0.893832 0.893832 0.893832 0.893832 0.893832 0.893832 0.893832 0.893832 0.893832 0.893832 0.893832 0.893832 0.893832 0.893833 0.893833 0.893833 0.893011 0.893834 0.852896 0.889004 0.860284 0.888134 0.867251 0.881699 0.89569 0.878194 0.896937 0.891903 0.890258 0.896256 0.87833 0.895834 0.883784 0.86934 0.888139 0.861191 0.8909 0.86363 0.893834 0.893419 0.893833 0.893833 0.893833 0.893832 0.893832 0.893832 0.893832 0.893832 0.893832 0.893832 0.893832 0.893832 0.893832 0.893832 0.893832 0.893832 0.893832 0.893832 0.893832 0.893832 0.893832 0.893832 0.893832 0.893832 0.893832 0.893832 0.893832 0.893832 0.893832 0.893832 0.893832 0.893832 0.893832 0.893832 0.893832 0.893832 0.893832 0.893832 0.893832 0.893832 0.893832 0.893832 0.893832 0.893832 0.893832 0.893832 0.893832 0.893832 0.893833 0.893833 0.893833 0.893419 0.893834 0.86363 0.8909 0.861191 0.888139 0.86934 0.883784 0.895834 0.87833 0.896256 0.890258 0.889086 0.895012 0.878897 0.894984 0.885326 0.870855 0.88847 0.863331 0.892208 0.872098 0.893833 0.893646 0.893833 0.893833 0.893832 0.893832 0.893832 0.893832 0.893832 0.893832 0.893832 0.893832 0.893832 0.893832 0.893832 0.893832 0.893832 0.893832 0.893832 0.893832 0.893832 0.893832 0.893832 0.893832 0.893832 0.893832 0.893832 0.893832 0.893832 0.893832 0.893832 0.893832 0.893832 0.893832 0.893832 0.893832 0.893832 0.893832 0.893832 0.893832 0.893832 0.893832 0.893832 0.893832 0.893832 0.893832 0.893832 0.893832 0.893832 0.893832 0.893832 0.893833 0.893833 0.893646 0.893833 0.872098 0.892208 0.863331 0.88847 0.870855 0.885326 0.894984 0.878897 0.895012 0.889086 0.888301 0.893707 0.879808 0.893874 0.886321 0.872156 0.889059 0.866211 0.893042 0.878446 0.893833 0.89376 0.893833 0.893832 0.893832 0.893832 0.893832 0.893832 0.893832 0.893832 0.893832 0.893832 0.893832 0.893832 0.893832 0.893832 0.893832 0.893832 0.893832 0.893832 0.893832 0.893832 0.893832 0.893832 0.893832 0.893832 0.893832 0.893832 0.893832 0.893832 0.893832 0.893832 0.893832 0.893832 0.893832 0.893832 0.893832 0.893832 0.893832 0.893832 0.893832 0.893832 0.893832 0.893832 0.893832 0.893832 0.893832 0.893832 0.893832 0.893832 0.893832 0.893832 0.893833 0.89376 0.893833 0.878446 0.893042 0.866211 0.889059 0.872156 0.886321 0.893874 0.879808 0.893707 0.888301 0.887806 0.892526 0.880945 0.892799 0.886896 0.87344 0.889812 0.869444 0.893507 0.883054 0.893833 0.893809 0.893832 0.893832 0.893832 0.893832 0.893832 0.893832 0.893832 0.893832 0.893832 0.893832 0.893832 0.893832 0.893832 0.893832 0.893832 0.893832 0.893832 0.893832 0.893832 0.893832 0.893832 0.893832 0.893832 0.893832 0.893832 0.893832 0.893832 0.893832 0.893832 0.893832 0.893832 0.893832 0.893832 0.893832 0.893832 0.893832 0.893832 0.893832 0.893832 0.893832 0.893832 0.893832 0.893832 0.893832 0.893832 0.893832 0.893832 0.893832 0.893832 0.893832 0.893832 0.893809 0.893833 0.883054 0.893507 0.869444 0.889812 0.87344 0.886896 0.892799 0.880945 0.892526 0.887806 0.887514 0.891519 0.882191 0.891846 0.887249 0.874796 0.890631 0.872746 0.89372 0.886334 0.893833 0.893826 0.893832 0.893832 0.893832 0.893832 0.893832 0.893832 0.893832 0.893832 0.893832 0.893832 0.893832 0.893832 0.893832 0.893832 0.893832 0.893832 0.893832 0.893832 0.893832 0.893832 0.893832 0.893832 0.893832 0.893832 0.893832 0.893832 0.893832 0.893832 0.893832 0.893832 0.893832 0.893832 0.893832 0.893832 0.893832 0.893832 0.893832 0.893832 0.893832 0.893832 0.893832 0.893832 0.893832 0.893832 0.893832 0.893832 0.893832 0.893832 0.893832 0.893832 0.893832 0.893826 0.893833 0.886334 0.89372 0.872746 0.890631 0.874796 0.887249 0.891846 0.882191 0.891519 0.887514 0.887363 0.890696 0.88345 0.891039 0.887543 0.876249 0.89142 0.875924 0.8938 0.88864 0.893832 0.893831 0.893832 0.893832 0.893832 0.893832 0.893832 0.893832 0.893832 0.893832 0.893832 0.893832 0.893832 0.893832 0.893832 0.893832 0.893832 0.893832 0.893832 0.893832 0.893832 0.893832 0.893832 0.893832 0.893832 0.893832 0.893832 0.893832 0.893832 0.893832 0.893832 0.893832 0.893832 0.893832 0.893832 0.893832 0.893832 0.893832 0.893832 0.893832 0.893832 0.893832 0.893832 0.893832 0.893832 0.893832 0.893832 0.893832 0.893832 0.893832 0.893832 0.893832 0.893832 0.893831 0.893832 0.88864 0.8938 0.875924 0.89142 0.876249 0.887543 0.891039 0.88345 0.890696 0.887363 0.887316 0.890052 0.884657 0.890385 0.887861 0.877792 0.892109 0.87886 0.893824 0.890246 0.893832 0.893832 0.893832 0.893832 0.893832 0.893832 0.893832 0.893832 0.893832 0.893832 0.893832 0.893832 0.893832 0.893832 0.893832 0.893832 0.893832 0.893832 0.893832 0.893832 0.893832 0.893832 0.893832 0.893832 0.893832 0.893832 0.893832 0.893832 0.893832 0.893832 0.893832 0.893832 0.893832 0.893832 0.893832 0.893832 0.893832 0.893832 0.893832 0.893832 0.893832 0.893832 0.893832 0.893832 0.893832 0.893832 0.893832 0.893832 0.893832 0.893832 0.893832 0.893832 0.893832 0.893832 0.893832 0.890246 0.893824 0.87886 0.892109 0.877792 0.887861 0.890385 0.884657 0.890052 0.887316 0.887348 0.889572 0.88577 0.889881 0.888227 0.879406 0.892664 0.881489 0.89383 0.891359 0.893832 0.893832 0.893832 0.893832 0.893832 0.893832 0.893832 0.893832 0.893832 0.893832 0.893832 0.893832 0.893832 0.893832 0.893832 0.893832 0.893832 0.893832 0.893832 0.893832 0.893832 0.893832 0.893832 0.893832 0.893832 0.893832 0.893832 0.893832 0.893832 0.893832 0.893832 0.893832 0.893832 0.893832 0.893832 0.893832 0.893832 0.893832 0.893832 0.893832 0.893832 0.893832 0.893832 0.893832 0.893832 0.893832 0.893832 0.893832 0.893832 0.893832 0.893832 0.893832 0.893832 0.893832 0.893832 0.891359 0.89383 0.881489 0.892664 0.879406 0.888227 0.889881 0.88577 0.889572 0.887348 0.887445 0.889242 0.886766 0.889522 0.888638 0.881056 0.893079 0.883786 0.893831 0.892129 0.893832 0.893832 0.893832 0.893832 0.893832 0.893832 0.893832 0.893832 0.893832 0.893832 0.893832 0.893832 0.893832 0.893832 0.893832 0.893832 0.893832 0.893832 0.893832 0.893832 0.893832 0.893832 0.893832 0.893832 0.893832 0.893832 0.893832 0.893832 0.893832 0.893832 0.893832 0.893832 0.893832 0.893832 0.893832 0.893832 0.893832 0.893832 0.893832 0.893832 0.893832 0.893832 0.893832 0.893832 0.893832 0.893832 0.893832 0.893832 0.893832 0.893832 0.893832 0.893832 0.893832 0.893832 0.893832 0.892129 0.893831 0.883786 0.893079 0.881056 0.888638 0.889522 0.886766 0.889242 0.887445 0.8876 0.889042 0.887639 0.889297 0.889083 0.882701 0.893371 0.885752 0.893831 0.892661 0.893832 0.893832 0.893832 0.893832 0.893832 0.893832 0.893832 0.893832 0.893832 0.893832 0.893832 0.893832 0.893832 0.893832 0.893832 0.893832 0.893832 0.893832 0.893832 0.893832 0.893832 0.893832 0.893832 0.893832 0.893832 0.893832 0.893832 0.893832 0.893832 0.893832 0.893832 0.893832 0.893832 0.893832 0.893832 0.893832 0.893832 0.893832 0.893832 0.893832 0.893832 0.893832 0.893832 0.893832 0.893832 0.893832 0.893832 0.893832 0.893832 0.893832 0.893832 0.893832 0.893832 0.893832 0.893832 0.892661 0.893831 0.885752 0.893371 0.882701 0.889083 0.889297 0.887639 0.889042 0.8876 0.887805 0.888954 0.888391 0.889193 0.889548 0.88429 0.893564 0.887405 0.893831 0.893028 0.893832 0.893832 0.893832 0.893832 0.893832 0.893832 0.893832 0.893832 0.893832 0.893832 0.893832 0.893832 0.893832 0.893832 0.893832 0.893832 0.893832 0.893832 0.893832 0.893832 0.893832 0.893832 0.893832 0.893832 0.893832 0.893832 0.893832 0.893832 0.893832 0.893832 0.893832 0.893832 0.893832 0.893832 0.893832 0.893832 0.893832 0.893832 0.893832 0.893832 0.893832 0.893832 0.893832 0.893832 0.893832 0.893832 0.893832 0.893832 0.893832 0.893832 0.893832 0.893832 0.893832 0.893832 0.893832 0.893028 0.893831 0.887405 0.893564 0.88429 0.889548 0.889193 0.888391 0.888954 0.887805 0.888051 0.888959 0.889031 0.889195 0.890021 0.88578 0.893685 0.888772 0.893831 0.893283 0.893831 0.893832 0.893832 0.893832 0.893832 0.893832 0.893832 0.893832 0.893832 0.893832 0.893832 0.893832 0.893832 0.893832 0.893832 0.893832 0.893832 0.893832 0.893832 0.893832 0.893832 0.893832 0.893832 0.893832 0.893832 0.893832 0.893832 0.893832 0.893832 0.893832 0.893832 0.893832 0.893832 0.893832 0.893832 0.893832 0.893832 0.893832 0.893832 0.893832 0.893832 0.893832 0.893832 0.893832 0.893832 0.893832 0.893832 0.893832 0.893832 0.893832 0.893832 0.893832 0.893832 0.893832 0.893831 0.893283 0.893831 0.888772 0.893685 0.88578 0.890021 0.889195 0.889031 0.888959 0.888051 0.888327 0.889038 0.88957 0.889287 0.890488 0.887138 0.893756 0.889887 0.89383 0.893459 0.893831 0.893832 0.893832 0.893832 0.893832 0.893832 0.893832 0.893832 0.893832 0.893832 0.893832 0.893832 0.893832 0.893832 0.893832 0.893832 0.893832 0.893832 0.893832 0.893832 0.893832 0.893832 0.893832 0.893832 0.893832 0.893832 0.893832 0.893832 0.893832 0.893832 0.893832 0.893832 0.893832 0.893832 0.893832 0.893832 0.893832 0.893832 0.893832 0.893832 0.893832 0.893832 0.893832 0.893832 0.893832 0.893832 0.893832 0.893832 0.893832 0.893832 0.893832 0.893832 0.893832 0.893832 0.893831 0.893459 0.89383 0.889887 0.893756 0.887138 0.890488 0.889287 0.88957 0.889038 0.888327 0.888625 0.889176 0.890025 0.889452 0.890937 0.888345 0.893794 0.890786 0.89383 0.893581 0.893831 0.893832 0.893832 0.893832 0.893832 0.893832 0.893832 0.893832 0.893832 0.893832 0.893832 0.893832 0.893832 0.893832 0.893832 0.893832 0.893832 0.893832 0.893832 0.893832 0.893832 0.893832 0.893832 0.893832 0.893832 0.893832 0.893832 0.893832 0.893832 0.893832 0.893832 0.893832 0.893832 0.893832 0.893832 0.893832 0.893832 0.893832 0.893832 0.893832 0.893832 0.893832 0.893832 0.893832 0.893832 0.893832 0.893832 0.893832 0.893832 0.893832 0.893832 0.893832 0.893832 0.893832 0.893831 0.893581 0.89383 0.890786 0.893794 0.888345 0.890937 0.889452 0.890025 0.889176 0.888625 0.888933 0.889358 0.89041 0.889675 0.891358 0.889393 0.893814 0.891501 0.89383 0.893665 0.893831 0.893831 0.893832 0.893832 0.893832 0.893832 0.893832 0.893832 0.893832 0.893832 0.893832 0.893832 0.893832 0.893832 0.893832 0.893832 0.893832 0.893832 0.893832 0.893832 0.893832 0.893832 0.893832 0.893832 0.893832 0.893832 0.893832 0.893832 0.893832 0.893832 0.893832 0.893832 0.893832 0.893832 0.893832 0.893832 0.893832 0.893832 0.893832 0.893832 0.893832 0.893832 0.893832 0.893832 0.893832 0.893832 0.893832 0.893832 0.893832 0.893832 0.893832 0.893832 0.893832 0.893831 0.893831 0.893665 0.89383 0.891501 0.893814 0.889393 0.891358 0.889675 0.89041 0.889358 0.888933 0.889244 0.889572 0.890738 0.889939 0.891745 0.890285 0.893822 0.892064 0.89383 0.893722 0.893831 0.893831 0.893832 0.893832 0.893832 0.893832 0.893832 0.893832 0.893832 0.893832 0.893832 0.893832 0.893832 0.893832 0.893832 0.893832 0.893832 0.893832 0.893832 0.893832 0.893832 0.893832 0.893832 0.893832 0.893832 0.893832 0.893832 0.893832 0.893832 0.893832 0.893832 0.893832 0.893832 0.893832 0.893832 0.893832 0.893832 0.893832 0.893832 0.893832 0.893832 0.893832 0.893832 0.893832 0.893832 0.893832 0.893832 0.893832 0.893832 0.893832 0.893832 0.893832 0.893832 0.893831 0.893831 0.893722 0.89383 0.892064 0.893822 0.890285 0.891745 0.889939 0.890738 0.889572 0.889244 0.889553 0.889807 0.891022 0.890233 0.892093 0.89103 0.893826 0.892504 0.89383 0.89376 0.893831 0.893831 0.893832 0.893832 0.893832 0.893832 0.893832 0.893832 0.893832 0.893832 0.893832 0.893832 0.893832 0.893832 0.893832 0.893832 0.893832 0.893832 0.893832 0.893832 0.893832 0.893832 0.893832 0.893832 0.893832 0.893832 0.893832 0.893832 0.893832 0.893832 0.893832 0.893832 0.893832 0.893832 0.893832 0.893832 0.893832 0.893832 0.893832 0.893832 0.893832 0.893832 0.893832 0.893832 0.893832 0.893832 0.893832 0.893832 0.893832 0.893832 0.893832 0.893832 0.893832 0.893831 0.893831 0.89376 0.89383 0.892504 0.893826 0.89103 0.892093 0.890233 0.891022 0.889807 0.889553 0.889854 0.890054 0.891273 0.890542 0.8924 0.891643 0.893827 0.892843 0.89383 0.893786 0.893831 0.893831 0.893832 0.893832 0.893832 0.893832 0.893832 0.893832 0.893832 0.893832 0.893832 0.893832 0.893832 0.893832 0.893832 0.893832 0.893832 0.893832 0.893832 0.893832 0.893832 0.893832 0.893832 0.893832 0.893832 0.893832 0.893832 0.893832 0.893832 0.893832 0.893832 0.893832 0.893832 0.893832 0.893832 0.893832 0.893832 0.893832 0.893832 0.893832 0.893832 0.893832 0.893832 0.893832 0.893832 0.893832 0.893832 0.893832 0.893832 0.893832 0.893832 0.893832 0.893832 0.893831 0.893831 0.893786 0.89383 0.892843 0.893827 0.891643 0.8924 0.890542 0.891273 0.890054 0.889854 0.890145 0.890307 0.891497 0.890858 0.892667 0.892139 0.893828 0.893102 0.89383 0.893803 0.893831 0.893831 0.893832 0.893832 0.893832 0.893832 0.893832 0.893832 0.893832 0.893832 0.893832 0.893832 0.893832 0.893832 0.893832 0.893832 0.893832 0.893832 0.893832 0.893832 0.893832 0.893832 0.893832 0.893832 0.893832 0.893832 0.893832 0.893832 0.893832 0.893832 0.893832 0.893832 0.893832 0.893832 0.893832 0.893832 0.893832 0.893832 0.893832 0.893832 0.893832 0.893832 0.893832 0.893832 0.893832 0.893832 0.893832 0.893832 0.893832 0.893832 0.893832 0.893832 0.893832 0.893831 0.893831 0.893803 0.89383 0.893102 0.893828 0.892139 0.892667 0.890858 0.891497 0.890307 0.890145 0.890423 0.890561 0.891702 0.89117 0.892894 0.892535 0.893828 0.893298 0.89383 0.893813 0.893831 0.893831 0.893832 0.893832 0.893832 0.893832 0.893832 0.893832 0.893832 0.893832 0.893832 0.893832 0.893832 0.893832 0.893832 0.893832 0.893832 0.893832 0.893832 0.893832 0.893832 0.893832 0.893832 0.893832 0.893832 0.893832 0.893832 0.893832 0.893832 0.893832 0.893832 0.893832 0.893832 0.893832 0.893832 0.893832 0.893832 0.893832 0.893832 0.893832 0.893832 0.893832 0.893832 0.893832 0.893832 0.893832 0.893832 0.893832 0.893832 0.893832 0.893832 0.893832 0.893832 0.893831 0.893831 0.893813 0.89383 0.893298 0.893828 0.892535 0.892894 0.89117 0.891702 0.890561 0.890423 0.890689 0.890812 0.891891 0.891473 0.893085 0.892847 0.893828 0.893446 0.89383 0.89382 0.893831 0.893831 0.893832 0.893832 0.893832 0.893832 0.893832 0.893832 0.893832 0.893832 0.893832 0.893832 0.893832 0.893832 0.893832 0.893832 0.893832 0.893832 0.893832 0.893832 0.893832 0.893832 0.893832 0.893832 0.893832 0.893832 0.893832 0.893832 0.893832 0.893832 0.893832 0.893832 0.893832 0.893832 0.893832 0.893832 0.893832 0.893832 0.893832 0.893832 0.893832 0.893832 0.893832 0.893832 0.893832 0.893832 0.893832 0.893832 0.893832 0.893832 0.893832 0.893832 0.893832 0.893831 0.893831 0.89382 0.89383 0.893446 0.893828 0.892847 0.893085 0.891473 0.891891 0.890812 0.890689 0.890942 0.891055 0.892068 0.891761 0.893244 0.89309 0.893828 0.893555 0.89383 0.893825 0.893831 0.893832 0.893832 0.893832 0.893832 0.893832 0.893832 0.893832 0.893832 0.893832 0.893832 0.893832 0.893832 0.893832 0.893832 0.893832 0.893832 0.893832 0.893832 0.893832 0.893832 0.893832 0.893832 0.893832 0.893832 0.893832 0.893832 0.893832 0.893832 0.893832 0.893832 0.893832 0.893832 0.893832 0.893832 0.893832 0.893832 0.893832 0.893832 0.893832 0.893832 0.893832 0.893832 0.893832 0.893832 0.893832 0.893832 0.893832 0.893832 0.893832 0.893832 0.893832 0.893832 0.893832 0.893831 0.893825 0.89383 0.893555 0.893828 0.89309 0.893244 0.891761 0.892068 0.891055 0.890942 0.891181 0.89129 0.892235 0.89203 0.893373 0.893278 0.893828 0.893635 0.89383 0.893827 0.893831 0.893832 0.893832 0.893832 0.893832 0.893832 0.893832 0.893832 0.893832 0.893832 0.893832 0.893832 0.893832 0.893832 0.893832 0.893832 0.893832 0.893832 0.893832 0.893832 0.893832 0.893832 0.893832 0.893832 0.893832 0.893832 0.893832 0.893832 0.893832 0.893832 0.893832 0.893832 0.893832 0.893832 0.893832 0.893832 0.893832 0.893832 0.893832 0.893832 0.893832 0.893832 0.893832 0.893832 0.893832 0.893832 0.893832 0.893832 0.893832 0.893832 0.893832 0.893832 0.893832 0.893832 0.893831 0.893827 0.89383 0.893635 0.893828 0.893278 0.893373 0.89203 0.892235 0.89129 0.891181 0.891408 0.891515 0.892392 0.892277 0.893478 0.893421 0.893829 0.893693 0.89383 0.893829 0.893831 0.893832 0.893832 0.893832 0.893832 0.893832 0.893832 0.893832 0.893832 0.893832 0.893832 0.893832 0.893832 0.893832 0.893832 0.893832 0.893832 0.893832 0.893832 0.893832 0.893832 0.893832 0.893832 0.893832 0.893832 0.893832 0.893832 0.893832 0.893832 0.893832 0.893832 0.893832 0.893832 0.893832 0.893832 0.893832 0.893832 0.893832 0.893832 0.893832 0.893832 0.893832 0.893832 0.893832 0.893832 0.893832 0.893832 0.893832 0.893832 0.893832 0.893832 0.893832 0.893832 0.893832 0.893831 0.893829 0.89383 0.893693 0.893829 0.893421 0.893478 0.892277 0.892392 0.891515 0.891408 0.891621 0.891728 0.89254 0.892502 0.893561 0.893529 0.893829 0.893735 0.893831 0.89383 0.893831 0.893832 0.893832 0.893832 0.893832 0.893832 0.893832 0.893832 0.893832 0.893832 0.893832 0.893832 0.893832 0.893832 0.893832 0.893832 0.893832 0.893832 0.893832 0.893832 0.893832 0.893832 0.893832 0.893832 0.893832 0.893832 0.893832 0.893832 0.893832 0.893832 0.893832 0.893832 0.893832 0.893832 0.893832 0.893832 0.893832 0.893832 0.893832 0.893832 0.893832 0.893832 0.893832 0.893832 0.893832 0.893832 0.893832 0.893832 0.893832 0.893832 0.893832 0.893832 0.893832 0.893832 0.893831 0.89383 0.893831 0.893735 0.893829 0.893529 0.893561 0.892502 0.89254 0.891728 0.891621 0.891821 0.891929 0.892679 0.892703 0.893626 0.89361 0.893829 0.893765 0.893831 0.893831 0.893831 0.893832 0.893832 0.893832 0.893832 0.893832 0.893832 0.893832 0.893832 0.893832 0.893832 0.893832 0.893832 0.893832 0.893832 0.893832 0.893832 0.893832 0.893832 0.893832 0.893832 0.893832 0.893832 0.893832 0.893832 0.893832 0.893832 0.893832 0.893832 0.893832 0.893832 0.893832 0.893832 0.893832 0.893832 0.893832 0.893832 0.893832 0.893832 0.893832 0.893832 0.893832 0.893832 0.893832 0.893832 0.893832 0.893832 0.893832 0.893832 0.893832 0.893832 0.893832 0.893832 0.893832 0.893831 0.893831 0.893831 0.893765 0.893829 0.89361 0.893626 0.892703 0.892679 0.891929 0.891821 0.892009 0.892117 0.892808 0.892881 0.893677 0.89367 0.893829 0.893786 0.893831 0.893831 0.893831 0.893832 0.893832 0.893832 0.893832 0.893832 0.893832 0.893832 0.893832 0.893832 0.893832 0.893832 0.893832 0.893832 0.893832 0.893832 0.893832 0.893832 0.893832 0.893832 0.893832 0.893832 0.893832 0.893832 0.893832 0.893832 0.893832 0.893832 0.893832 0.893832 0.893832 0.893832 0.893832 0.893832 0.893832 0.893832 0.893832 0.893832 0.893832 0.893832 0.893832 0.893832 0.893832 0.893832 0.893832 0.893832 0.893832 0.893832 0.893832 0.893832 0.893832 0.893832 0.893832 0.893832 0.893831 0.893831 0.893831 0.893786 0.893829 0.89367 0.893677 0.892881 0.892808 0.892117 0.892009 0.892184 0.892292 0.892928 0.893038 0.893717 0.893714 0.893829 0.8938 0.893831 0.893831 0.893832 0.893832 0.893832 0.893832 0.893832 0.893832 0.893832 0.893832 0.893832 0.893832 0.893832 0.893832 0.893832 0.893832 0.893832 0.893832 0.893832 0.893832 0.893832 0.893832 0.893832 0.893832 0.893832 0.893832 0.893832 0.893832 0.893832 0.893832 0.893832 0.893832 0.893832 0.893832 0.893832 0.893832 0.893832 0.893832 0.893832 0.893832 0.893832 0.893832 0.893832 0.893832 0.893832 0.893832 0.893832 0.893832 0.893832 0.893832 0.893832 0.893832 0.893832 0.893832 0.893832 0.893832 0.893832 0.893831 0.893831 0.8938 0.893829 0.893714 0.893717 0.893038 0.892928 0.892292 0.892184 0.892346 0.892453 0.893039 0.893173 0.893747 0.893747 0.89383 0.893811 0.893831 0.893831 0.893832 0.893832 0.893832 0.893832 0.893832 0.893832 0.893832 0.893832 0.893832 0.893832 0.893832 0.893832 0.893832 0.893832 0.893832 0.893832 0.893832 0.893832 0.893832 0.893832 0.893832 0.893832 0.893832 0.893832 0.893832 0.893832 0.893832 0.893832 0.893832 0.893832 0.893832 0.893832 0.893832 0.893832 0.893832 0.893832 0.893832 0.893832 0.893832 0.893832 0.893832 0.893832 0.893832 0.893832 0.893832 0.893832 0.893832 0.893832 0.893832 0.893832 0.893832 0.893832 0.893832 0.893832 0.893832 0.893831 0.893831 0.893811 0.89383 0.893747 0.893747 0.893173 0.893039 0.892453 0.892346 0.892496 0.892602 0.89314 0.89329 0.89377 0.893771 0.89383 0.893817 0.893831 0.893831 0.893832 0.893832 0.893832 0.893832 0.893832 0.893832 0.893832 0.893832 0.893832 0.893832 0.893832 0.893832 0.893832 0.893832 0.893832 0.893832 0.893832 0.893832 0.893832 0.893832 0.893832 0.893832 0.893832 0.893832 0.893832 0.893832 0.893832 0.893832 0.893832 0.893832 0.893832 0.893832 0.893832 0.893832 0.893832 0.893832 0.893832 0.893832 0.893832 0.893832 0.893832 0.893832 0.893832 0.893832 0.893832 0.893832 0.893832 0.893832 0.893832 0.893832 0.893832 0.893832 0.893832 0.893832 0.893832 0.893831 0.893831 0.893817 0.89383 0.893771 0.89377 0.89329 0.89314 0.892602 0.892496 0.892633 0.892737 0.893231 0.893389 0.893787 0.893788 0.89383 0.893822 0.893831 0.893831 0.893832 0.893832 0.893832 0.893832 0.893832 0.893832 0.893832 0.893832 0.893832 0.893832 0.893832 0.893832 0.893832 0.893832 0.893832 0.893832 0.893832 0.893832 0.893832 0.893832 0.893832 0.893832 0.893832 0.893832 0.893832 0.893832 0.893832 0.893832 0.893832 0.893832 0.893832 0.893832 0.893832 0.893832 0.893832 0.893832 0.893832 0.893832 0.893832 0.893832 0.893832 0.893832 0.893832 0.893832 0.893832 0.893832 0.893832 0.893832 0.893832 0.893832 0.893832 0.893832 0.893832 0.893832 0.893832 0.893831 0.893831 0.893822 0.89383 0.893788 0.893787 0.893389 0.893231 0.892737 0.892633 0.892758 0.892859 0.893313 0.893472 0.893799 0.8938 0.89383 0.893825 0.893831 0.893832 0.893832 0.893832 0.893832 0.893832 0.893832 0.893832 0.893832 0.893832 0.893832 0.893832 0.893832 0.893832 0.893832 0.893832 0.893832 0.893832 0.893832 0.893832 0.893832 0.893832 0.893832 0.893832 0.893832 0.893832 0.893832 0.893832 0.893832 0.893832 0.893832 0.893832 0.893832 0.893832 0.893832 0.893832 0.893832 0.893832 0.893832 0.893832 0.893832 0.893832 0.893832 0.893832 0.893832 0.893832 0.893832 0.893832 0.893832 0.893832 0.893832 0.893832 0.893832 0.893832 0.893832 0.893832 0.893832 0.893832 0.893831 0.893825 0.89383 0.8938 0.893799 0.893472 0.893313 0.892859 0.892758 0.89287 0.892969 0.893386 0.893542 0.893808 0.893809 0.89383 0.893827 0.893831 0.893832 0.893832 0.893832 0.893832 0.893832 0.893832 0.893832 0.893832 0.893832 0.893832 0.893832 0.893832 0.893832 0.893832 0.893832 0.893832 0.893832 0.893832 0.893832 0.893832 0.893832 0.893832 0.893832 0.893832 0.893832 0.893832 0.893832 0.893832 0.893832 0.893832 0.893832 0.893832 0.893832 0.893832 0.893832 0.893832 0.893832 0.893832 0.893832 0.893832 0.893832 0.893832 0.893832 0.893832 0.893832 0.893832 0.893832 0.893832 0.893832 0.893832 0.893832 0.893832 0.893832 0.893832 0.893832 0.893832 0.893832 0.893831 0.893827 0.89383 0.893809 0.893808 0.893542 0.893386 0.892969 0.89287 0.89297 0.893067 0.893449 0.893599 0.893815 0.893816 0.893831 0.893829 0.893831 0.893832 0.893832 0.893832 0.893832 0.893832 0.893832 0.893832 0.893832 0.893832 0.893832 0.893832 0.893832 0.893832 0.893832 0.893832 0.893832 0.893832 0.893832 0.893832 0.893832 0.893832 0.893832 0.893832 0.893832 0.893832 0.893832 0.893832 0.893832 0.893832 0.893832 0.893832 0.893832 0.893832 0.893832 0.893832 0.893832 0.893832 0.893832 0.893832 0.893832 0.893832 0.893832 0.893832 0.893832 0.893832 0.893832 0.893832 0.893832 0.893832 0.893832 0.893832 0.893832 0.893832 0.893832 0.893832 0.893832 0.893832 0.893831 0.893829 0.893831 0.893816 0.893815 0.893599 0.893449 0.893067 0.89297 0.893059 0.893152 0.893505 0.893646 0.89382 0.89382 0.893831 0.89383 0.893831 0.893832 0.893832 0.893832 0.893832 0.893832 0.893832 0.893832 0.893832 0.893832 0.893832 0.893832 0.893832 0.893832 0.893832 0.893832 0.893832 0.893832 0.893832 0.893832 0.893832 0.893832 0.893832 0.893832 0.893832 0.893832 0.893832 0.893832 0.893832 0.893832 0.893832 0.893832 0.893832 0.893832 0.893832 0.893832 0.893832 0.893832 0.893832 0.893832 0.893832 0.893832 0.893832 0.893832 0.893832 0.893832 0.893832 0.893832 0.893832 0.893832 0.893832 0.893832 0.893832 0.893832 0.893832 0.893832 0.893832 0.893832 0.893831 0.89383 0.893831 0.89382 0.89382 0.893646 0.893505 0.893152 0.893059 0.893135 0.893226 0.893552 0.893684 0.893823 0.893823 0.893831 0.89383 0.893832 0.893832 0.893832 0.893832 0.893832 0.893832 0.893832 0.893832 0.893832 0.893832 0.893832 0.893832 0.893832 0.893832 0.893832 0.893832 0.893832 0.893832 0.893832 0.893832 0.893832 0.893832 0.893832 0.893832 0.893832 0.893832 0.893832 0.893832 0.893832 0.893832 0.893832 0.893832 0.893832 0.893832 0.893832 0.893832 0.893832 0.893832 0.893832 0.893832 0.893832 0.893832 0.893832 0.893832 0.893832 0.893832 0.893832 0.893832 0.893832 0.893832 0.893832 0.893832 0.893832 0.893832 0.893832 0.893832 0.893832 0.893832 0.893832 0.89383 0.893831 0.893823 0.893823 0.893684 0.893552 0.893226 0.893135 0.8932 0.893288 0.893591 0.893714 0.893826 0.893826 0.893831 0.893831 0.893832 0.893832 0.893832 0.893832 0.893832 0.893832 0.893832 0.893832 0.893832 0.893832 0.893832 0.893832 0.893832 0.893832 0.893832 0.893832 0.893832 0.893832 0.893832 0.893832 0.893832 0.893832 0.893832 0.893832 0.893832 0.893832 0.893832 0.893832 0.893832 0.893832 0.893832 0.893832 0.893832 0.893832 0.893832 0.893832 0.893832 0.893832 0.893832 0.893832 0.893832 0.893832 0.893832 0.893832 0.893832 0.893832 0.893832 0.893832 0.893832 0.893832 0.893832 0.893832 0.893832 0.893832 0.893832 0.893832 0.893832 0.893832 0.893832 0.893831 0.893831 0.893826 0.893826 0.893714 0.893591 0.893288 0.8932 0.893253 0.89334 0.893623 0.893737 0.893827 0.893827 0.893831 0.893831 0.893832 0.893832 0.893832 0.893832 0.893832 0.893832 0.893832 0.893832 0.893832 0.893832 0.893832 0.893832 0.893832 0.893832 0.893832 0.893832 0.893832 0.893832 0.893832 0.893832 0.893832 0.893832 0.893832 0.893832 0.893832 0.893832 0.893832 0.893832 0.893832 0.893832 0.893832 0.893832 0.893832 0.893832 0.893832 0.893832 0.893832 0.893832 0.893832 0.893832 0.893832 0.893832 0.893832 0.893832 0.893832 0.893832 0.893832 0.893832 0.893832 0.893832 0.893832 0.893832 0.893832 0.893832 0.893832 0.893832 0.893832 0.893832 0.893832 0.893831 0.893831 0.893827 0.893827 0.893737 0.893623 0.89334 0.893253 0.893296 0.893381 0.893648 0.893754 0.893828 0.893828 0.893831 0.893831 0.893832 0.893832 0.893832 0.893832 0.893832 0.893832 0.893832 0.893832 0.893832 0.893832 0.893832 0.893832 0.893832 0.893832 0.893832 0.893832 0.893832 0.893832 0.893832 0.893832 0.893832 0.893832 0.893832 0.893832 0.893832 0.893832 0.893832 0.893832 0.893832 0.893832 0.893832 0.893832 0.893832 0.893832 0.893832 0.893832 0.893832 0.893832 0.893832 0.893832 0.893832 0.893832 0.893832 0.893832 0.893832 0.893832 0.893832 0.893832 0.893832 0.893832 0.893832 0.893832 0.893832 0.893832 0.893832 0.893832 0.893832 0.893832 0.893832 0.893831 0.893831 0.893828 0.893828 0.893754 0.893648 0.893381 0.893296 0.893327 0.893411 0.893667 0.893767 0.893829 0.893829 0.893831 0.893831 0.893832 0.893832 0.893832 0.893832 0.893832 0.893832 0.893832 0.893832 0.893832 0.893832 0.893832 0.893832 0.893832 0.893832 0.893832 0.893832 0.893832 0.893832 0.893832 0.893832 0.893832 0.893832 0.893832 0.893832 0.893832 0.893832 0.893832 0.893832 0.893832 0.893832 0.893832 0.893832 0.893832 0.893832 0.893832 0.893832 0.893832 0.893832 0.893832 0.893832 0.893832 0.893832 0.893832 0.893832 0.893832 0.893832 0.893832 0.893832 0.893832 0.893832 0.893832 0.893832 0.893832 0.893832 0.893832 0.893832 0.893832 0.893832 0.893832 0.893831 0.893831 0.893829 0.893829 0.893767 0.893667 0.893411 0.893327 0.893348 0.893431 0.893679 0.893775 0.89383 0.893829 0.893831 0.893831 0.893832 0.893832 0.893832 0.893832 0.893832 0.893832 0.893832 0.893832 0.893832 0.893832 0.893832 0.893832 0.893832 0.893832 0.893832 0.893832 0.893832 0.893832 0.893832 0.893832 0.893832 0.893832 0.893832 0.893832 0.893832 0.893832 0.893832 0.893832 0.893832 0.893832 0.893832 0.893832 0.893832 0.893832 0.893832 0.893832 0.893832 0.893832 0.893832 0.893832 0.893832 0.893832 0.893832 0.893832 0.893832 0.893832 0.893832 0.893832 0.893832 0.893832 0.893832 0.893832 0.893832 0.893832 0.893832 0.893832 0.893832 0.893832 0.893832 0.893831 0.893831 0.893829 0.89383 0.893775 0.893679 0.893431 0.893348 0.893359 0.893441 0.893685 0.893779 0.89383 0.89383 0.893831 0.893832 0.893832 0.893832 0.893832 0.893832 0.893832 0.893832 0.893832 0.893832 0.893832 0.893832 0.893832 0.893832 0.893832 0.893832 0.893832 0.893832 0.893832 0.893832 0.893832 0.893832 0.893832 0.893832 0.893832 0.893832 0.893832 0.893832 0.893832 0.893832 0.893832 0.893832 0.893832 0.893832 0.893832 0.893832 0.893832 0.893832 0.893832 0.893832 0.893832 0.893832 0.893832 0.893832 0.893832 0.893832 0.893832 0.893832 0.893832 0.893832 0.893832 0.893832 0.893832 0.893832 0.893832 0.893832 0.893832 0.893832 0.893832 0.893832 0.893832 0.893832 0.893831 0.89383 0.89383 0.893779 0.893685 0.893441 0.893359 
SCALARS Axial_Stress float 1
LOOKUP_TABLE default
-808910000000.0 -126607000000.0 -190138000000.0 -112686000000.0 -142410000000.0 -123656000000.0 -129933000000.0 -134558000000.0 -138210000000.0 -141858000000.0 -145165000000.0 -147786000000.0 -150177000000.0 -152484000000.0 -154554000000.0 -156457000000.0 -158321000000.0 -160091000000.0 -161610000000.0 -162752000000.0 -163482000000.0 -163855000000.0 -163962000000.0 -163883000000.0 -163684000000.0 -163424000000.0 -163160000000.0 -162942000000.0 -162803000000.0 -162755000000.0 -162803000000.0 -162942000000.0 -163160000000.0 -163424000000.0 -163684000000.0 -163883000000.0 -163962000000.0 -163855000000.0 -163482000000.0 -162752000000.0 -161610000000.0 -160091000000.0 -158321000000.0 -156457000000.0 -154554000000.0 -152484000000.0 -150177000000.0 -147786000000.0 -145165000000.0 -141858000000.0 -138210000000.0 -134558000000.0 -129933000000.0 -123656000000.0 -142410000000.0 -112686000000.0 -190138000000.0 -126607000000.0 -808910000000.0 -1.04356e+12 -803879000000.0 -219214000000.0 -219214000000.0 -803879000000.0 -1.04356e+12 -1.13253e+12 -1.65315e+12 -1.05316e+12 -956713000000.0 -1.00695e+12 -343163000000.0 -215235000000.0 -277788000000.0 -218935000000.0 -220916000000.0 -220482000000.0 -218851000000.0 -216437000000.0 -213258000000.0 -209221000000.0 -205276000000.0 -202261000000.0 -199942000000.0 -197626000000.0 -194887000000.0 -191715000000.0 -188300000000.0 -184823000000.0 -181440000000.0 -178295000000.0 -175480000000.0 -173036000000.0 -170982000000.0 -169324000000.0 -168052000000.0 -167150000000.0 -166610000000.0 -166430000000.0 -166610000000.0 -167150000000.0 -168052000000.0 -169324000000.0 -170982000000.0 -173036000000.0 -175480000000.0 -178295000000.0 -181440000000.0 -184823000000.0 -188300000000.0 -191715000000.0 -194887000000.0 -197626000000.0 -199942000000.0 -202261000000.0 -205276000000.0 -209221000000.0 -213258000000.0 -216437000000.0 -218851000000.0 -220482000000.0 -220916000000.0 -218935000000.0 -277788000000.0 -215235000000.0 -343163000000.0 -1.00695e+12 -956713000000.0 -1.05316e+12 -1.65315e+12 -1.13253e+12 -1.20158e+12 -1.99095e+12 -1.86008e+12 -1.54694e+12 -1.092e+12 -696092000000.0 -558000000000.0 -443357000000.0 -403261000000.0 -363186000000.0 -328114000000.0 -298690000000.0 -273370000000.0 -251915000000.0 -234193000000.0 -219034000000.0 -206265000000.0 -196349000000.0 -188942000000.0 -183051000000.0 -177852000000.0 -172976000000.0 -168361000000.0 -164078000000.0 -160216000000.0 -156827000000.0 -153943000000.0 -151590000000.0 -149778000000.0 -148497000000.0 -147734000000.0 -147479000000.0 -147734000000.0 -148497000000.0 -149778000000.0 -151590000000.0 -153943000000.0 -156827000000.0 -160216000000.0 -164078000000.0 -168361000000.0 -172976000000.0 -177852000000.0 -183051000000.0 -188942000000.0 -196349000000.0 -206265000000.0 -219034000000.0 -234193000000.0 -251915000000.0 -273370000000.0 -298690000000.0 -328114000000.0 -363186000000.0 -403261000000.0 -443357000000.0 -558000000000.0 -696092000000.0 -1.092e+12 -1.54694e+12 -1.86008e+12 -1.99095e+12 -1.20158e+12 -1.2256e+12 -1.26373e+12 -2.10759e+12 -1.72157e+12 -1.20046e+12 -954361000000.0 -579891000000.0 -579891000000.0 -954361000000.0 -1.20046e+12 -1.72157e+12 -2.10759e+12 -1.26373e+12 -1.2256e+12 -2.12243e+12 -1.88913e+12 -1.34813e+12 -1.14033e+12 -973391000000.0 -697636000000.0 -647520000000.0 -532696000000.0 -442278000000.0 -404131000000.0 -365530000000.0 -330360000000.0 -299248000000.0 -271785000000.0 -248900000000.0 -230440000000.0 -214223000000.0 -199570000000.0 -187341000000.0 -177741000000.0 -169988000000.0 -163195000000.0 -156900000000.0 -151008000000.0 -145569000000.0 -140666000000.0 -136374000000.0 -132738000000.0 -129774000000.0 -127488000000.0 -125874000000.0 -124920000000.0 -124605000000.0 -124920000000.0 -125874000000.0 -127488000000.0 -129774000000.0 -132738000000.0 -136374000000.0 -140666000000.0 -145569000000.0 -151008000000.0 -156900000000.0 -163195000000.0 -169988000000.0 -177741000000.0 -187341000000.0 -199570000000.0 -214223000000.0 -230440000000.0 -248900000000.0 -271785000000.0 -299248000000.0 -330360000000.0 -365530000000.0 -404131000000.0 -442278000000.0 -532696000000.0 -647520000000.0 -697636000000.0 -973391000000.0 -1.14033e+12 -1.34813e+12 -1.88913e+12 -2.12243e+12 -837342000000.0 -863818000000.0 -1.46658e+12 -1.29758e+12 -1.99608e+12 -1.79155e+12 -1.52967e+12 -1.10656e+12 -1.34746e+12 -1.19442e+12 -699591000000.0 -699591000000.0 -1.19442e+12 -1.34746e+12 -1.10656e+12 -1.52967e+12 -1.79155e+12 -1.99608e+12 -1.29758e+12 -1.46658e+12 -863818000000.0 -837342000000.0 -687951000000.0 -1.35892e+12 -1.38335e+12 -1.14073e+12 -1.03614e+12 -1.4663e+12 -914141000000.0 -694137000000.0 -503238000000.0 -428489000000.0 -391507000000.0 -354947000000.0 -322289000000.0 -291701000000.0 -263109000000.0 -239241000000.0 -220030000000.0 -203307000000.0 -188586000000.0 -176350000000.0 -166356000000.0 -157784000000.0 -149973000000.0 -142673000000.0 -135891000000.0 -129707000000.0 -124202000000.0 -119430000000.0 -115411000000.0 -112143000000.0 -109623000000.0 -107839000000.0 -106778000000.0 -106426000000.0 -106778000000.0 -107839000000.0 -109623000000.0 -112143000000.0 -115411000000.0 -119430000000.0 -124202000000.0 -129707000000.0 -135891000000.0 -142673000000.0 -149973000000.0 -157784000000.0 -166356000000.0 -176350000000.0 -188586000000.0 -203307000000.0 -220030000000.0 -239241000000.0 -263109000000.0 -291701000000.0 -322289000000.0 -354947000000.0 -391507000000.0 -428489000000.0 -503238000000.0 -694137000000.0 -914141000000.0 -1.4663e+12 -1.03614e+12 -1.14073e+12 -1.38335e+12 -1.35892e+12 -687951000000.0 -323074000000.0 -1.39744e+12 -1.21115e+12 -1.15098e+12 -1.11154e+12 -1.08991e+12 -812263000000.0 -1.11847e+12 -773547000000.0 -847945000000.0 -561547000000.0 -494314000000.0 -447358000000.0 -402015000000.0 -359254000000.0 -320669000000.0 -285018000000.0 -251830000000.0 -221322000000.0 -193139000000.0 -167870000000.0 -146527000000.0 -128965000000.0 -114063000000.0 -101017000000.0 -88979900000.0 -78269300000.0 -68707000000.0 -60324700000.0 -53143800000.0 -47160500000.0 -42345800000.0 -38658500000.0 -36058800000.0 -34513800000.0 -34001400000.0 -34513800000.0 -36058800000.0 -38658500000.0 -42345800000.0 -47160500000.0 -53143800000.0 -60324700000.0 -68707000000.0 -78269300000.0 -88979900000.0 -101017000000.0 -114063000000.0 -128965000000.0 -146527000000.0 -167870000000.0 -193139000000.0 -221322000000.0 -251830000000.0 -285018000000.0 -320669000000.0 -359254000000.0 -402015000000.0 -447358000000.0 -494314000000.0 -561547000000.0 -847945000000.0 -773547000000.0 -1.11847e+12 -812263000000.0 -1.08991e+12 -1.11154e+12 -1.15098e+12 -1.21115e+12 -1.39744e+12 -323074000000.0 -930209000000.0 -997017000000.0 -1.20576e+12 -670397000000.0 -1.03411e+12 -792792000000.0 -1.17751e+12 -650015000000.0 -650015000000.0 -1.17751e+12 -792792000000.0 -1.03411e+12 -670397000000.0 -1.20576e+12 -997017000000.0 -930209000000.0 -101313000000.0 -357459000000.0 -1.09397e+12 -873447000000.0 -672747000000.0 -238657000000.0 -958896000000.0 -728431000000.0 -1.08966e+12 -565998000000.0 -783776000000.0 -461229000000.0 -405284000000.0 -358356000000.0 -316549000000.0 -277510000000.0 -243696000000.0 -214742000000.0 -188307000000.0 -165438000000.0 -147548000000.0 -133863000000.0 -122677000000.0 -112881000000.0 -104087000000.0 -96405100000.0 -89392300000.0 -83402900000.0 -78291300000.0 -74036400000.0 -70557100000.0 -67749300000.0 -65526300000.0 -63832200000.0 -62637200000.0 -61926200000.0 -61690400000.0 -61926200000.0 -62637200000.0 -63832200000.0 -65526300000.0 -67749300000.0 -70557100000.0 -74036400000.0 -78291300000.0 -83402900000.0 -89392300000.0 -96405100000.0 -104087000000.0 -112881000000.0 -122677000000.0 -133863000000.0 -147548000000.0 -165438000000.0 -188307000000.0 -214742000000.0 -243696000000.0 -277510000000.0 -316549000000.0 -358356000000.0 -405284000000.0 -461229000000.0 -783776000000.0 -565998000000.0 -1.08966e+12 -728431000000.0 -958896000000.0 -238657000000.0 -672747000000.0 -873447000000.0 -1.09397e+12 -357459000000.0 -101313000000.0 -146636000000.0 -594984000000.0 -990535000000.0 -863668000000.0 -751414000000.0 -160748000000.0 -509749000000.0 -559750000000.0 -520211000000.0 -488888000000.0 -156017000000.0 -123801000000.0 -101709000000.0 -84606700000.0 -66163300000.0 -50989500000.0 -37504300000.0 -24561000000.0 -15431100000.0 -11032200000.0 -9519500000.0 -9129110000.0 -9050430000.0 -9037660000.0 -9035960000.0 -9035770000.0 -9035750000.0 -9035750000.0 -9035750000.0 -9035750000.0 -9035750000.0 -9035750000.0 -9035750000.0 -9035750000.0 -9035750000.0 -9035760000.0 -9035750000.0 -9035750000.0 -9035750000.0 -9035750000.0 -9035750000.0 -9035750000.0 -9035750000.0 -9035750000.0 -9035750000.0 -9035770000.0 -9035960000.0 -9037660000.0 -9050430000.0 -9129110000.0 -9519500000.0 -11032200000.0 -15431100000.0 -24561000000.0 -37504300000.0 -50989500000.0 -66163300000.0 -84606700000.0 -101709000000.0 -123801000000.0 -156017000000.0 -488888000000.0 -520211000000.0 -559750000000.0 -509749000000.0 -160748000000.0 -751414000000.0 -863668000000.0 -990535000000.0 -594984000000.0 -146636000000.0 -208408000000.0 -706144000000.0 -1.2158e+12 -763051000000.0 -763051000000.0 -1.2158e+12 -706144000000.0 -208408000000.0 -150161000000.0 -212122000000.0 -802384000000.0 -147603000000.0 -939262000000.0 -439951000000.0 -183377000000.0 -49218100000.0 -264947000000.0 -517995000000.0 -413285000000.0 -419658000000.0 -245034000000.0 -220820000000.0 -199091000000.0 -178255000000.0 -159443000000.0 -142777000000.0 -127529000000.0 -113854000000.0 -102152000000.0 -92268500000.0 -83763600000.0 -76232300000.0 -69417400000.0 -63259900000.0 -57784400000.0 -52953200000.0 -48683000000.0 -44930000000.0 -41692600000.0 -38961600000.0 -36703000000.0 -34878000000.0 -33462800000.0 -32450100000.0 -31840900000.0 -31637600000.0 -31840900000.0 -32450100000.0 -33462800000.0 -34878000000.0 -36703000000.0 -38961600000.0 -41692600000.0 -44930000000.0 -48683000000.0 -52953200000.0 -57784400000.0 -63259900000.0 -69417400000.0 -76232300000.0 -83763600000.0 -92268500000.0 -102152000000.0 -113854000000.0 -127529000000.0 -142777000000.0 -159443000000.0 -178255000000.0 -199091000000.0 -220820000000.0 -245034000000.0 -419658000000.0 -413285000000.0 -517995000000.0 -264947000000.0 -49218100000.0 -183377000000.0 -439951000000.0 -939262000000.0 -147603000000.0 -802384000000.0 -212122000000.0 -150161000000.0 -117221000000.0 -160035000000.0 -246486000000.0 -507710000000.0 -384111000000.0 -222486000000.0 -338188000000.0 -429342000000.0 -113228000000.0 -123409000000.0 -9035750000.0 -9035750000.0 -9035750000.0 -9035750000.0 -9035750000.0 -9035750000.0 -9035750000.0 -9035750000.0 -9035750000.0 -9035750000.0 -9035750000.0 -9035750000.0 -9035750000.0 -9035750000.0 -9035750000.0 -9035750000.0 -9035750000.0 -9035750000.0 -9035750000.0 -9035750000.0 -9035750000.0 -9035750000.0 -9035750000.0 -9035750000.0 -9035750000.0 -9035750000.0 -9035750000.0 -9035750000.0 -9035750000.0 -9035750000.0 -9035750000.0 -9035750000.0 -9035750000.0 -9035750000.0 -9035750000.0 -9035750000.0 -9035750000.0 -9035750000.0 -9035750000.0 -9035750000.0 -9035750000.0 -9035750000.0 -9035750000.0 -9035750000.0 -9035750000.0 -9035750000.0 -9035750000.0 -9035750000.0 -9035750000.0 -9035750000.0 -9035750000.0 -123409000000.0 -113228000000.0 -429342000000.0 -338188000000.0 -222486000000.0 -384111000000.0 -507710000000.0 -246486000000.0 -160035000000.0 -117221000000.0 -447504000000.0 -450035000000.0 -450035000000.0 -447504000000.0 -101149000000.0 -300846000000.0 -167175000000.0 -246389000000.0 -153148000000.0 -403035000000.0 -337714000000.0 -263147000000.0 -261135000000.0 -535671000000.0 -284030000000.0 -295757000000.0 -192067000000.0 -160796000000.0 -135210000000.0 -115120000000.0 -98948500000.0 -85226300000.0 -73362100000.0 -63102700000.0 -54241300000.0 -46670600000.0 -40302400000.0 -34991100000.0 -30577500000.0 -26925300000.0 -23910700000.0 -21418900000.0 -19351900000.0 -17633500000.0 -16208200000.0 -15038000000.0 -14096400000.0 -13361800000.0 -12814400000.0 -12436900000.0 -12215900000.0 -12143200000.0 -12215900000.0 -12436900000.0 -12814400000.0 -13361800000.0 -14096400000.0 -15038000000.0 -16208200000.0 -17633500000.0 -19351900000.0 -21418900000.0 -23910700000.0 -26925300000.0 -30577500000.0 -34991100000.0 -40302400000.0 -46670600000.0 -54241300000.0 -63102700000.0 -73362100000.0 -85226300000.0 -98948500000.0 -115120000000.0 -135210000000.0 -160796000000.0 -192067000000.0 -295757000000.0 -284030000000.0 -535671000000.0 -261135000000.0 -263147000000.0 -337714000000.0 -403035000000.0 -153148000000.0 -246389000000.0 -167175000000.0 -300846000000.0 -101149000000.0 -74965100000.0 -214867000000.0 -155285000000.0 -185509000000.0 -179418000000.0 -293279000000.0 -78134000000.0 -105523000000.0 -66814300000.0 -324356000000.0 -10890100000.0 -63569500000.0 -9035750000.0 -9035750000.0 -9035750000.0 -9035750000.0 -9035750000.0 -9035750000.0 -9035750000.0 -9035750000.0 -9035750000.0 -9035750000.0 -9035750000.0 -9035750000.0 -9035750000.0 -9035750000.0 -9035750000.0 -9035750000.0 -9035760000.0 -9035760000.0 -9035760000.0 -9035760000.0 -9035750000.0 -9035750000.0 -9035750000.0 -9035750000.0 -9035750000.0 -9035750000.0 -9035750000.0 -9035750000.0 -9035750000.0 -9035750000.0 -9035750000.0 -9035760000.0 -9035760000.0 -9035760000.0 -9035760000.0 -9035750000.0 -9035750000.0 -9035750000.0 -9035750000.0 -9035750000.0 -9035750000.0 -9035750000.0 -9035750000.0 -9035750000.0 -9035750000.0 -9035750000.0 -9035750000.0 -9035750000.0 -9035750000.0 -9035750000.0 -9035750000.0 -63569500000.0 -10890100000.0 -324356000000.0 -66814300000.0 -105523000000.0 -78134000000.0 -293279000000.0 -179418000000.0 -185509000000.0 -155285000000.0 -214867000000.0 -74965100000.0 -56360800000.0 -131014000000.0 -111492000000.0 -97148100000.0 -104183000000.0 -249931000000.0 -86142500000.0 -157811000000.0 -71998100000.0 -303878000000.0 -38066000000.0 -66895400000.0 -26418900000.0 -22555400000.0 -19539000000.0 -17178700000.0 -15362700000.0 -13963000000.0 -12866100000.0 -12004900000.0 -11334700000.0 -10811500000.0 -10397800000.0 -10068900000.0 -9808560000.0 -9603990000.0 -9444810000.0 -9322600000.0 -9231110000.0 -9165460000.0 -9120490000.0 -9090580000.0 -9070910000.0 -9058220000.0 -9050440000.0 -9046100000.0 -9044020000.0 -9043410000.0 -9044020000.0 -9046100000.0 -9050440000.0 -9058220000.0 -9070910000.0 -9090580000.0 -9120490000.0 -9165460000.0 -9231110000.0 -9322600000.0 -9444810000.0 -9603990000.0 -9808560000.0 -10068900000.0 -10397800000.0 -10811500000.0 -11334700000.0 -12004900000.0 -12866100000.0 -13963000000.0 -15362700000.0 -17178700000.0 -19539000000.0 -22555400000.0 -26418900000.0 -66895400000.0 -38066000000.0 -303878000000.0 -71998100000.0 -157811000000.0 -86142500000.0 -249931000000.0 -104183000000.0 -97148100000.0 -111492000000.0 -131014000000.0 -56360800000.0 -60349200000.0 -101359000000.0 -117340000000.0 -83825800000.0 -103815000000.0 -219255000000.0 -48519100000.0 -149421000000.0 -42829500000.0 -244838000000.0 -9068320000.0 -32223300000.0 -9036130000.0 -9036040000.0 -9035970000.0 -9035920000.0 -9035900000.0 -9035910000.0 -9035920000.0 -9035910000.0 -9035890000.0 -9035870000.0 -9035850000.0 -9035830000.0 -9035810000.0 -9035800000.0 -9035790000.0 -9035790000.0 -9035780000.0 -9035770000.0 -9035770000.0 -9035770000.0 -9035760000.0 -9035760000.0 -9035760000.0 -9035750000.0 -9035750000.0 -9035750000.0 -9035750000.0 -9035750000.0 -9035760000.0 -9035760000.0 -9035760000.0 -9035770000.0 -9035770000.0 -9035770000.0 -9035780000.0 -9035790000.0 -9035790000.0 -9035800000.0 -9035810000.0 -9035830000.0 -9035850000.0 -9035870000.0 -9035890000.0 -9035910000.0 -9035920000.0 -9035910000.0 -9035900000.0 -9035920000.0 -9035970000.0 -9036040000.0 -9036130000.0 -32223300000.0 -9068320000.0 -244838000000.0 -42829500000.0 -149421000000.0 -48519100000.0 -219255000000.0 -103815000000.0 -83825800000.0 -117340000000.0 -101359000000.0 -60349200000.0 -61370400000.0 -74578100000.0 -109901000000.0 -64077600000.0 -88017400000.0 -195214000000.0 -41800200000.0 -155032000000.0 -36902500000.0 -208143000000.0 -9037480000.0 -23324800000.0 -9036810000.0 -9036550000.0 -9036360000.0 -9036230000.0 -9036150000.0 -9036100000.0 -9036050000.0 -9036000000.0 -9035960000.0 -9035920000.0 -9035880000.0 -9035860000.0 -9035840000.0 -9035820000.0 -9035810000.0 -9035800000.0 -9035790000.0 -9035780000.0 -9035780000.0 -9035770000.0 -9035770000.0 -9035760000.0 -9035760000.0 -9035760000.0 -9035750000.0 -9035750000.0 -9035750000.0 -9035760000.0 -9035760000.0 -9035760000.0 -9035770000.0 -9035770000.0 -9035780000.0 -9035780000.0 -9035790000.0 -9035800000.0 -9035810000.0 -9035820000.0 -9035840000.0 -9035860000.0 -9035880000.0 -9035920000.0 -9035960000.0 -9036000000.0 -9036050000.0 -9036100000.0 -9036150000.0 -9036230000.0 -9036360000.0 -9036550000.0 -9036810000.0 -23324800000.0 -9037480000.0 -208143000000.0 -36902500000.0 -155032000000.0 -41800200000.0 -195214000000.0 -88017400000.0 -64077600000.0 -109901000000.0 -74578100000.0 -61370400000.0 -54309700000.0 -80257200000.0 -35732300000.0 -154306000000.0 -30931800000.0 -173419000000.0 -9038620000.0 -17385000000.0 -9037460000.0 -9037040000.0 -9036730000.0 -9036520000.0 -9036380000.0 -9036260000.0 -9036160000.0 -9036080000.0 -9036010000.0 -9035960000.0 -9035920000.0 -9035880000.0 -9035860000.0 -9035840000.0 -9035820000.0 -9035810000.0 -9035800000.0 -9035790000.0 -9035780000.0 -9035770000.0 -9035770000.0 -9035760000.0 -9035760000.0 -9035760000.0 -9035750000.0 -9035750000.0 -9035750000.0 -9035760000.0 -9035760000.0 -9035760000.0 -9035770000.0 -9035770000.0 -9035780000.0 -9035790000.0 -9035800000.0 -9035810000.0 -9035820000.0 -9035840000.0 -9035860000.0 -9035880000.0 -9035920000.0 -9035960000.0 -9036010000.0 -9036080000.0 -9036160000.0 -9036260000.0 -9036380000.0 -9036520000.0 -9036730000.0 -9037040000.0 -9037460000.0 -17385000000.0 -9038620000.0 -173419000000.0 -30931800000.0 -154306000000.0 -35732300000.0 -80257200000.0 -54309700000.0 -63777700000.0 -60299300000.0 -105364000000.0 -174854000000.0 -174854000000.0 -105364000000.0 -60299300000.0 -63777700000.0 -65838600000.0 -52185200000.0 -100069000000.0 -47654100000.0 -72838500000.0 -156624000000.0 -31432100000.0 -148253000000.0 -25171000000.0 -140984000000.0 -9039690000.0 -13681300000.0 -9038060000.0 -9037490000.0 -9037070000.0 -9036780000.0 -9036560000.0 -9036380000.0 -9036250000.0 -9036140000.0 -9036060000.0 -9035990000.0 -9035950000.0 -9035910000.0 -9035880000.0 -9035860000.0 -9035840000.0 -9035820000.0 -9035810000.0 -9035800000.0 -9035790000.0 -9035780000.0 -9035770000.0 -9035770000.0 -9035760000.0 -9035760000.0 -9035750000.0 -9035750000.0 -9035750000.0 -9035760000.0 -9035760000.0 -9035770000.0 -9035770000.0 -9035780000.0 -9035790000.0 -9035800000.0 -9035810000.0 -9035820000.0 -9035840000.0 -9035860000.0 -9035880000.0 -9035910000.0 -9035950000.0 -9035990000.0 -9036060000.0 -9036140000.0 -9036250000.0 -9036380000.0 -9036560000.0 -9036780000.0 -9037070000.0 -9037490000.0 -9038060000.0 -13681300000.0 -9039690000.0 -140984000000.0 -25171000000.0 -148253000000.0 -31432100000.0 -156624000000.0 -72838500000.0 -47654100000.0 -100069000000.0 -52185200000.0 -65838600000.0 -28174300000.0 -20210000000.0 -111672000000.0 -9040690000.0 -11532800000.0 -9038610000.0 -9037890000.0 -9037380000.0 -9036990000.0 -9036710000.0 -9036490000.0 -9036320000.0 -9036190000.0 -9036100000.0 -9036030000.0 -9035970000.0 -9035930000.0 -9035900000.0 -9035870000.0 -9035850000.0 -9035830000.0 -9035820000.0 -9035800000.0 -9035790000.0 -9035780000.0 -9035770000.0 -9035770000.0 -9035760000.0 -9035760000.0 -9035750000.0 -9035750000.0 -9035750000.0 -9035760000.0 -9035760000.0 -9035770000.0 -9035770000.0 -9035780000.0 -9035790000.0 -9035800000.0 -9035820000.0 -9035830000.0 -9035850000.0 -9035870000.0 -9035900000.0 -9035930000.0 -9035970000.0 -9036030000.0 -9036100000.0 -9036190000.0 -9036320000.0 -9036490000.0 -9036710000.0 -9036990000.0 -9037380000.0 -9037890000.0 -9038610000.0 -11532800000.0 -9040690000.0 -111672000000.0 -20210000000.0 -28174300000.0 -67334300000.0 -48436000000.0 -94323800000.0 -43330600000.0 -66005000000.0 -140589000000.0 -138525000000.0 -138525000000.0 -140589000000.0 -66005000000.0 -43330600000.0 -94323800000.0 -48436000000.0 -67334300000.0 -68022400000.0 -47464400000.0 -88164800000.0 -41068300000.0 -59443500000.0 -126521000000.0 -25618900000.0 -126499000000.0 -16280400000.0 -86427900000.0 -9041610000.0 -10342700000.0 -9039100000.0 -9038240000.0 -9037630000.0 -9037170000.0 -9036830000.0 -9036570000.0 -9036380000.0 -9036240000.0 -9036140000.0 -9036060000.0 -9036000000.0 -9035950000.0 -9035920000.0 -9035890000.0 -9035860000.0 -9035840000.0 -9035820000.0 -9035810000.0 -9035800000.0 -9035790000.0 -9035780000.0 -9035770000.0 -9035760000.0 -9035760000.0 -9035750000.0 -9035750000.0 -9035750000.0 -9035760000.0 -9035760000.0 -9035770000.0 -9035780000.0 -9035790000.0 -9035800000.0 -9035810000.0 -9035820000.0 -9035840000.0 -9035860000.0 -9035890000.0 -9035920000.0 -9035950000.0 -9036000000.0 -9036060000.0 -9036140000.0 -9036240000.0 -9036380000.0 -9036570000.0 -9036830000.0 -9037170000.0 -9037630000.0 -9038240000.0 -9039100000.0 -10342700000.0 -9041610000.0 -86427900000.0 -16280400000.0 -126499000000.0 -25618900000.0 -126521000000.0 -59443500000.0 -41068300000.0 -88164800000.0 -47464400000.0 -68022400000.0 -67813800000.0 -47970200000.0 -81744300000.0 -40544600000.0 -53560100000.0 -114155000000.0 -23281700000.0 -113312000000.0 -13411600000.0 -65846900000.0 -9042430000.0 -9697120000.0 -9039510000.0 -9038530000.0 -9037830000.0 -9037310000.0 -9036930000.0 -9036650000.0 -9036440000.0 -9036280000.0 -9036170000.0 -9036090000.0 -9036020000.0 -9035970000.0 -9035930000.0 -9035900000.0 -9035870000.0 -9035850000.0 -9035830000.0 -9035810000.0 -9035800000.0 -9035790000.0 -9035780000.0 -9035770000.0 -9035760000.0 -9035760000.0 -9035750000.0 -9035750000.0 -9035750000.0 -9035760000.0 -9035760000.0 -9035770000.0 -9035780000.0 -9035790000.0 -9035800000.0 -9035810000.0 -9035830000.0 -9035850000.0 -9035870000.0 -9035900000.0 -9035930000.0 -9035970000.0 -9036020000.0 -9036090000.0 -9036170000.0 -9036280000.0 -9036440000.0 -9036650000.0 -9036930000.0 -9037310000.0 -9037830000.0 -9038530000.0 -9039510000.0 -9697120000.0 -9042430000.0 -65846900000.0 -13411600000.0 -113312000000.0 -23281700000.0 -114155000000.0 -53560100000.0 -40544600000.0 -81744300000.0 -47970200000.0 -67813800000.0 -66795800000.0 -48903800000.0 -75257600000.0 -40955000000.0 -48539500000.0 -103058000000.0 -20958600000.0 -99865300000.0 -11490100000.0 -49872300000.0 -9043150000.0 -9352010000.0 -9039860000.0 -9038760000.0 -9037990000.0 -9037420000.0 -9037010000.0 -9036710000.0 -9036480000.0 -9036320000.0 -9036200000.0 -9036110000.0 -9036040000.0 -9035990000.0 -9035940000.0 -9035910000.0 -9035880000.0 -9035850000.0 -9035830000.0 -9035820000.0 -9035800000.0 -9035790000.0 -9035780000.0 -9035770000.0 -9035760000.0 -9035760000.0 -9035750000.0 -9035750000.0 -9035750000.0 -9035760000.0 -9035760000.0 -9035770000.0 -9035780000.0 -9035790000.0 -9035800000.0 -9035820000.0 -9035830000.0 -9035850000.0 -9035880000.0 -9035910000.0 -9035940000.0 -9035990000.0 -9036040000.0 -9036110000.0 -9036200000.0 -9036320000.0 -9036480000.0 -9036710000.0 -9037010000.0 -9037420000.0 -9037990000.0 -9038760000.0 -9039860000.0 -9352010000.0 -9043150000.0 -49872300000.0 -11490100000.0 -99865300000.0 -20958600000.0 -103058000000.0 -48539500000.0 -40955000000.0 -75257600000.0 -48903800000.0 -66795800000.0 -65139900000.0 -49624000000.0 -68881800000.0 -41497500000.0 -44297800000.0 -92851500000.0 -18688800000.0 -86829700000.0 -10301200000.0 -37944300000.0 -9043760000.0 -9175040000.0 -9040130000.0 -9038950000.0 -9038120000.0 -9037510000.0 -9037080000.0 -9036760000.0 -9036520000.0 -9036350000.0 -9036220000.0 -9036130000.0 -9036060000.0 -9036000000.0 -9035950000.0 -9035910000.0 -9035880000.0 -9035860000.0 -9035840000.0 -9035820000.0 -9035810000.0 -9035790000.0 -9035780000.0 -9035770000.0 -9035760000.0 -9035760000.0 -9035750000.0 -9035750000.0 -9035750000.0 -9035760000.0 -9035760000.0 -9035770000.0 -9035780000.0 -9035790000.0 -9035810000.0 -9035820000.0 -9035840000.0 -9035860000.0 -9035880000.0 -9035910000.0 -9035950000.0 -9036000000.0 -9036060000.0 -9036130000.0 -9036220000.0 -9036350000.0 -9036520000.0 -9036760000.0 -9037080000.0 -9037510000.0 -9038120000.0 -9038950000.0 -9040130000.0 -9175040000.0 -9043760000.0 -37944300000.0 -10301200000.0 -86829700000.0 -18688800000.0 -92851500000.0 -44297800000.0 -41497500000.0 -68881800000.0 -49624000000.0 -65139900000.0 -63023800000.0 -49872200000.0 -62769400000.0 -41738700000.0 -40660200000.0 -83313300000.0 -16577600000.0 -74663000000.0 -9624510000.0 -29285000000.0 -9044260000.0 -9092320000.0 -9040340000.0 -9039090000.0 -9038220000.0 -9037580000.0 -9037130000.0 -9036800000.0 -9036550000.0 -9036380000.0 -9036240000.0 -9036140000.0 -9036070000.0 -9036010000.0 -9035960000.0 -9035920000.0 -9035890000.0 -9035860000.0 -9035840000.0 -9035820000.0 -9035810000.0 -9035790000.0 -9035780000.0 -9035770000.0 -9035760000.0 -9035760000.0 -9035750000.0 -9035750000.0 -9035750000.0 -9035760000.0 -9035760000.0 -9035770000.0 -9035780000.0 -9035790000.0 -9035810000.0 -9035820000.0 -9035840000.0 -9035860000.0 -9035890000.0 -9035920000.0 -9035960000.0 -9036010000.0 -9036070000.0 -9036140000.0 -9036240000.0 -9036380000.0 -9036550000.0 -9036800000.0 -9037130000.0 -9037580000.0 -9038220000.0 -9039090000.0 -9040340000.0 -9092320000.0 -9044260000.0 -29285000000.0 -9624510000.0 -74663000000.0 -16577600000.0 -83313300000.0 -40660200000.0 -41738700000.0 -62769400000.0 -49872200000.0 -63023800000.0 -60598500000.0 -49608200000.0 -57042400000.0 -41547600000.0 -37441000000.0 -74354100000.0 -14711200000.0 -63643000000.0 -9281190000.0 -23117400000.0 -9044650000.0 -9058670000.0 -9040490000.0 -9039190000.0 -9038290000.0 -9037640000.0 -9037170000.0 -9036830000.0 -9036580000.0 -9036390000.0 -9036260000.0 -9036150000.0 -9036070000.0 -9036010000.0 -9035960000.0 -9035920000.0 -9035890000.0 -9035860000.0 -9035840000.0 -9035820000.0 -9035810000.0 -9035790000.0 -9035780000.0 -9035770000.0 -9035760000.0 -9035760000.0 -9035750000.0 -9035750000.0 -9035750000.0 -9035760000.0 -9035760000.0 -9035770000.0 -9035780000.0 -9035790000.0 -9035810000.0 -9035820000.0 -9035840000.0 -9035860000.0 -9035890000.0 -9035920000.0 -9035960000.0 -9036010000.0 -9036070000.0 -9036150000.0 -9036260000.0 -9036390000.0 -9036580000.0 -9036830000.0 -9037170000.0 -9037640000.0 -9038290000.0 -9039190000.0 -9040490000.0 -9058670000.0 -9044650000.0 -23117400000.0 -9281190000.0 -63643000000.0 -14711200000.0 -74354100000.0 -37441000000.0 -41547600000.0 -57042400000.0 -49608200000.0 -60598500000.0 -57979500000.0 -48878000000.0 -51781700000.0 -40930500000.0 -34486300000.0 -65963100000.0 -13142200000.0 -53904900000.0 -9131660000.0 -18778900000.0 -9044920000.0 -9047040000.0 -9040580000.0 -9039250000.0 -9038330000.0 -9037670000.0 -9037190000.0 -9036850000.0 -9036590000.0 -9036400000.0 -9036260000.0 -9036160000.0 -9036080000.0 -9036020000.0 -9035970000.0 -9035930000.0 -9035890000.0 -9035870000.0 -9035840000.0 -9035820000.0 -9035810000.0 -9035790000.0 -9035780000.0 -9035770000.0 -9035760000.0 -9035760000.0 -9035750000.0 -9035750000.0 -9035750000.0 -9035760000.0 -9035760000.0 -9035770000.0 -9035780000.0 -9035790000.0 -9035810000.0 -9035820000.0 -9035840000.0 -9035870000.0 -9035890000.0 -9035930000.0 -9035970000.0 -9036020000.0 -9036080000.0 -9036160000.0 -9036260000.0 -9036400000.0 -9036590000.0 -9036850000.0 -9037190000.0 -9037670000.0 -9038330000.0 -9039250000.0 -9040580000.0 -9047040000.0 -9044920000.0 -18778900000.0 -9131660000.0 -53904900000.0 -13142200000.0 -65963100000.0 -34486300000.0 -40930500000.0 -51781700000.0 -48878000000.0 -57979500000.0 -55250100000.0 -47753200000.0 -47025600000.0 -39937700000.0 -31705600000.0 -58164700000.0 -11889500000.0 -45476000000.0 -9076970000.0 -15751800000.0 -9045090000.0 -9043660000.0 -9040630000.0 -9039290000.0 -9038360000.0 -9037690000.0 -9037210000.0 -9036860000.0 -9036600000.0 -9036410000.0 -9036270000.0 -9036160000.0 -9036080000.0 -9036020000.0 -9035970000.0 -9035930000.0 -9035890000.0 -9035870000.0 -9035840000.0 -9035820000.0 -9035810000.0 -9035790000.0 -9035780000.0 -9035770000.0 -9035760000.0 -9035760000.0 -9035750000.0 -9035750000.0 -9035750000.0 -9035760000.0 -9035760000.0 -9035770000.0 -9035780000.0 -9035790000.0 -9035810000.0 -9035820000.0 -9035840000.0 -9035870000.0 -9035890000.0 -9035930000.0 -9035970000.0 -9036020000.0 -9036080000.0 -9036160000.0 -9036270000.0 -9036410000.0 -9036600000.0 -9036860000.0 -9037210000.0 -9037690000.0 -9038360000.0 -9039290000.0 -9040630000.0 -9043660000.0 -9045090000.0 -15751800000.0 -9076970000.0 -45476000000.0 -11889500000.0 -58164700000.0 -31705600000.0 -39937700000.0 -47025600000.0 -47753200000.0 -55250100000.0 -52469500000.0 -46308800000.0 -42777200000.0 -38630900000.0 -29068600000.0 -50992600000.0 -10940500000.0 -38309600000.0 -9060260000.0 -13651500000.0 -9045170000.0 -9042800000.0 -9040640000.0 -9039290000.0 -9038360000.0 -9037690000.0 -9037200000.0 -9036850000.0 -9036590000.0 -9036410000.0 -9036260000.0 -9036160000.0 -9036080000.0 -9036010000.0 -9035960000.0 -9035920000.0 -9035890000.0 -9035860000.0 -9035840000.0 -9035820000.0 -9035810000.0 -9035790000.0 -9035780000.0 -9035770000.0 -9035760000.0 -9035760000.0 -9035750000.0 -9035750000.0 -9035750000.0 -9035760000.0 -9035760000.0 -9035770000.0 -9035780000.0 -9035790000.0 -9035810000.0 -9035820000.0 -9035840000.0 -9035860000.0 -9035890000.0 -9035920000.0 -9035960000.0 -9036010000.0 -9036080000.0 -9036160000.0 -9036260000.0 -9036410000.0 -9036590000.0 -9036850000.0 -9037200000.0 -9037690000.0 -9038360000.0 -9039290000.0 -9040640000.0 -9042800000.0 -9045170000.0 -13651500000.0 -9060260000.0 -38309600000.0 -10940500000.0 -50992600000.0 -29068600000.0 -38630900000.0 -42777200000.0 -46308800000.0 -52469500000.0 -49681200000.0 -44617300000.0 -39014200000.0 -37073600000.0 -26579800000.0 -44475900000.0 -10258000000.0 -32311800000.0 -9055890000.0 -12199400000.0 -9045140000.0 -9042570000.0 -9040600000.0 -9039260000.0 -9038340000.0 -9037670000.0 -9037190000.0 -9036840000.0 -9036590000.0 -9036400000.0 -9036260000.0 -9036150000.0 -9036070000.0 -9036010000.0 -9035960000.0 -9035920000.0 -9035890000.0 -9035860000.0 -9035840000.0 -9035820000.0 -9035810000.0 -9035790000.0 -9035780000.0 -9035770000.0 -9035760000.0 -9035760000.0 -9035750000.0 -9035750000.0 -9035750000.0 -9035760000.0 -9035760000.0 -9035770000.0 -9035780000.0 -9035790000.0 -9035810000.0 -9035820000.0 -9035840000.0 -9035860000.0 -9035890000.0 -9035920000.0 -9035960000.0 -9036010000.0 -9036070000.0 -9036150000.0 -9036260000.0 -9036400000.0 -9036590000.0 -9036840000.0 -9037190000.0 -9037670000.0 -9038340000.0 -9039260000.0 -9040600000.0 -9042570000.0 -9045140000.0 -12199400000.0 -9055890000.0 -32311800000.0 -10258000000.0 -44475900000.0 -26579800000.0 -37073600000.0 -39014200000.0 -44617300000.0 -49681200000.0 -46918100000.0 -42745300000.0 -35698700000.0 -35327900000.0 -24255500000.0 -38634100000.0 -9791360000.0 -27362500000.0 -9054760000.0 -11197700000.0 -9045040000.0 -9042440000.0 -9040530000.0 -9039210000.0 -9038300000.0 -9037640000.0 -9037170000.0 -9036820000.0 -9036570000.0 -9036390000.0 -9036250000.0 -9036140000.0 -9036070000.0 -9036000000.0 -9035960000.0 -9035920000.0 -9035880000.0 -9035860000.0 -9035840000.0 -9035820000.0 -9035800000.0 -9035790000.0 -9035780000.0 -9035770000.0 -9035760000.0 -9035760000.0 -9035750000.0 -9035750000.0 -9035750000.0 -9035760000.0 -9035760000.0 -9035770000.0 -9035780000.0 -9035790000.0 -9035800000.0 -9035820000.0 -9035840000.0 -9035860000.0 -9035880000.0 -9035920000.0 -9035960000.0 -9036000000.0 -9036070000.0 -9036140000.0 -9036250000.0 -9036390000.0 -9036570000.0 -9036820000.0 -9037170000.0 -9037640000.0 -9038300000.0 -9039210000.0 -9040530000.0 -9042440000.0 -9045040000.0 -11197700000.0 -9054760000.0 -27362500000.0 -9791360000.0 -38634100000.0 -24255500000.0 -35327900000.0 -35698700000.0 -42745300000.0 -46918100000.0 -44206600000.0 -40752600000.0 -32784200000.0 -33452600000.0 -22111200000.0 -33473500000.0 -9487620000.0 -23330900000.0 -9054250000.0 -10507800000.0 -9044860000.0 -9042290000.0 -9040420000.0 -9039130000.0 -9038240000.0 -9037600000.0 -9037130000.0 -9036800000.0 -9036550000.0 -9036370000.0 -9036230000.0 -9036130000.0 -9036060000.0 -9036000000.0 -9035950000.0 -9035910000.0 -9035880000.0 -9035850000.0 -9035830000.0 -9035820000.0 -9035800000.0 -9035790000.0 -9035780000.0 -9035770000.0 -9035760000.0 -9035760000.0 -9035750000.0 -9035750000.0 -9035750000.0 -9035760000.0 -9035760000.0 -9035770000.0 -9035780000.0 -9035790000.0 -9035800000.0 -9035820000.0 -9035830000.0 -9035850000.0 -9035880000.0 -9035910000.0 -9035950000.0 -9036000000.0 -9036060000.0 -9036130000.0 -9036230000.0 -9036370000.0 -9036550000.0 -9036800000.0 -9037130000.0 -9037600000.0 -9038240000.0 -9039130000.0 -9040420000.0 -9042290000.0 -9044860000.0 -10507800000.0 -9054250000.0 -23330900000.0 -9487620000.0 -33473500000.0 -22111200000.0 -33452600000.0 -32784200000.0 -40752600000.0 -44206600000.0 -41569200000.0 -38691200000.0 -30221600000.0 -31501800000.0 -20158600000.0 -28984600000.0 -9299440000.0 -20085900000.0 -9053760000.0 -10033400000.0 -9044620000.0 -9042100000.0 -9040290000.0 -9039030000.0 -9038170000.0 -9037540000.0 -9037090000.0 -9036770000.0 -9036520000.0 -9036350000.0 -9036220000.0 -9036120000.0 -9036050000.0 -9035990000.0 -9035940000.0 -9035900000.0 -9035870000.0 -9035850000.0 -9035830000.0 -9035810000.0 -9035800000.0 -9035790000.0 -9035780000.0 -9035770000.0 -9035760000.0 -9035760000.0 -9035750000.0 -9035750000.0 -9035750000.0 -9035760000.0 -9035760000.0 -9035770000.0 -9035780000.0 -9035790000.0 -9035800000.0 -9035810000.0 -9035830000.0 -9035850000.0 -9035870000.0 -9035900000.0 -9035940000.0 -9035990000.0 -9036050000.0 -9036120000.0 -9036220000.0 -9036350000.0 -9036520000.0 -9036770000.0 -9037090000.0 -9037540000.0 -9038170000.0 -9039030000.0 -9040290000.0 -9042100000.0 -9044620000.0 -10033400000.0 -9053760000.0 -20085900000.0 -9299440000.0 -28984600000.0 -20158600000.0 -31501800000.0 -30221600000.0 -38691200000.0 -41569200000.0 -39024800000.0 -36605500000.0 -27963000000.0 -29523900000.0 -18403800000.0 -25140900000.0 -9188590000.0 -17503100000.0 -9053170000.0 -9708100000.0 -9044320000.0 -9041880000.0 -9040130000.0 -9038920000.0 -9038080000.0 -9037480000.0 -9037040000.0 -9036730000.0 -9036490000.0 -9036320000.0 -9036200000.0 -9036100000.0 -9036030000.0 -9035980000.0 -9035930000.0 -9035900000.0 -9035870000.0 -9035840000.0 -9035830000.0 -9035810000.0 -9035800000.0 -9035790000.0 -9035780000.0 -9035770000.0 -9035760000.0 -9035760000.0 -9035750000.0 -9035750000.0 -9035750000.0 -9035760000.0 -9035760000.0 -9035770000.0 -9035780000.0 -9035790000.0 -9035800000.0 -9035810000.0 -9035830000.0 -9035840000.0 -9035870000.0 -9035900000.0 -9035930000.0 -9035980000.0 -9036030000.0 -9036100000.0 -9036200000.0 -9036320000.0 -9036490000.0 -9036730000.0 -9037040000.0 -9037480000.0 -9038080000.0 -9038920000.0 -9040130000.0 -9041880000.0 -9044320000.0 -9708100000.0 -9053170000.0 -17503100000.0 -9188590000.0 -25140900000.0 -18403800000.0 -29523900000.0 -27963000000.0 -36605500000.0 -39024800000.0 -36588700000.0 -34531900000.0 -25963900000.0 -27560800000.0 -16847500000.0 -21899500000.0 -9126650000.0 -15468800000.0 -9052490000.0 -9485900000.0 -9043970000.0 -9041630000.0 -9039950000.0 -9038780000.0 -9037980000.0 -9037400000.0 -9036980000.0 -9036680000.0 -9036460000.0 -9036300000.0 -9036180000.0 -9036090000.0 -9036020000.0 -9035970000.0 -9035920000.0 -9035890000.0 -9035860000.0 -9035840000.0 -9035820000.0 -9035810000.0 -9035790000.0 -9035780000.0 -9035770000.0 -9035770000.0 -9035760000.0 -9035760000.0 -9035750000.0 -9035750000.0 -9035750000.0 -9035760000.0 -9035760000.0 -9035770000.0 -9035770000.0 -9035780000.0 -9035790000.0 -9035810000.0 -9035820000.0 -9035840000.0 -9035860000.0 -9035890000.0 -9035920000.0 -9035970000.0 -9036020000.0 -9036090000.0 -9036180000.0 -9036300000.0 -9036460000.0 -9036680000.0 -9036980000.0 -9037400000.0 -9037980000.0 -9038780000.0 -9039950000.0 -9041630000.0 -9043970000.0 -9485900000.0 -9052490000.0 -15468800000.0 -9126650000.0 -21899500000.0 -16847500000.0 -27560800000.0 -25963900000.0 -34531900000.0 -36588700000.0 -34272400000.0 -32499900000.0 -24185300000.0 -25647700000.0 -15485300000.0 -19205800000.0 -9093840000.0 -13882300000.0 -9051730000.0 -9335010000.0 -9043590000.0 -9041350000.0 -9039750000.0 -9038640000.0 -9037870000.0 -9037320000.0 -9036920000.0 -9036640000.0 -9036420000.0 -9036270000.0 -9036150000.0 -9036070000.0 -9036000000.0 -9035950000.0 -9035910000.0 -9035880000.0 -9035850000.0 -9035830000.0 -9035820000.0 -9035800000.0 -9035790000.0 -9035780000.0 -9035770000.0 -9035770000.0 -9035760000.0 -9035760000.0 -9035750000.0 -9035750000.0 -9035750000.0 -9035760000.0 -9035760000.0 -9035770000.0 -9035770000.0 -9035780000.0 -9035790000.0 -9035800000.0 -9035820000.0 -9035830000.0 -9035850000.0 -9035880000.0 -9035910000.0 -9035950000.0 -9036000000.0 -9036070000.0 -9036150000.0 -9036270000.0 -9036420000.0 -9036640000.0 -9036920000.0 -9037320000.0 -9037870000.0 -9038640000.0 -9039750000.0 -9041350000.0 -9043590000.0 -9335010000.0 -9051730000.0 -13882300000.0 -9093840000.0 -19205800000.0 -15485300000.0 -25647700000.0 -24185300000.0 -32499900000.0 -34272400000.0 -32083400000.0 -30532200000.0 -22593400000.0 -23813000000.0 -14308600000.0 -16998100000.0 -9077210000.0 -12656900000.0 -9050910000.0 -9233330000.0 -9043180000.0 -9041050000.0 -9039540000.0 -9038490000.0 -9037760000.0 -9037230000.0 -9036860000.0 -9036590000.0 -9036390000.0 -9036240000.0 -9036130000.0 -9036050000.0 -9035990000.0 -9035940000.0 -9035900000.0 -9035870000.0 -9035850000.0 -9035830000.0 -9035810000.0 -9035800000.0 -9035790000.0 -9035780000.0 -9035770000.0 -9035760000.0 -9035760000.0 -9035760000.0 -9035750000.0 -9035750000.0 -9035750000.0 -9035760000.0 -9035760000.0 -9035760000.0 -9035770000.0 -9035780000.0 -9035790000.0 -9035800000.0 -9035810000.0 -9035830000.0 -9035850000.0 -9035870000.0 -9035900000.0 -9035940000.0 -9035990000.0 -9036050000.0 -9036130000.0 -9036240000.0 -9036390000.0 -9036590000.0 -9036860000.0 -9037230000.0 -9037760000.0 -9038490000.0 -9039540000.0 -9041050000.0 -9043180000.0 -9233330000.0 -9050910000.0 -12656900000.0 -9077210000.0 -16998100000.0 -14308600000.0 -23813000000.0 -22593400000.0 -30532200000.0 -32083400000.0 -30025600000.0 -28646000000.0 -21160500000.0 -22078700000.0 -13305000000.0 -15212000000.0 -9068890000.0 -11719100000.0 -9050050000.0 -9165440000.0 -9042750000.0 -9040750000.0 -9039320000.0 -9038330000.0 -9037640000.0 -9037150000.0 -9036790000.0 -9036530000.0 -9036350000.0 -9036210000.0 -9036110000.0 -9036030000.0 -9035970000.0 -9035930000.0 -9035890000.0 -9035860000.0 -9035840000.0 -9035820000.0 -9035810000.0 -9035800000.0 -9035790000.0 -9035780000.0 -9035770000.0 -9035760000.0 -9035760000.0 -9035760000.0 -9035750000.0 -9035750000.0 -9035750000.0 -9035760000.0 -9035760000.0 -9035760000.0 -9035770000.0 -9035780000.0 -9035790000.0 -9035800000.0 -9035810000.0 -9035820000.0 -9035840000.0 -9035860000.0 -9035890000.0 -9035930000.0 -9035970000.0 -9036030000.0 -9036110000.0 -9036210000.0 -9036350000.0 -9036530000.0 -9036790000.0 -9037150000.0 -9037640000.0 -9038330000.0 -9039320000.0 -9040750000.0 -9042750000.0 -9165440000.0 -9050050000.0 -11719100000.0 -9068890000.0 -15212000000.0 -13305000000.0 -22078700000.0 -21160500000.0 -28646000000.0 -30025600000.0 -28099700000.0 -26853400000.0 -19864400000.0 -20460600000.0 -12459700000.0 -13784600000.0 -9064470000.0 -11007800000.0 -9049160000.0 -9120580000.0 -9042310000.0 -9040430000.0 -9039090000.0 -9038160000.0 -9037520000.0 -9037050000.0 -9036720000.0 -9036480000.0 -9036300000.0 -9036180000.0 -9036080000.0 -9036010000.0 -9035960000.0 -9035910000.0 -9035880000.0 -9035850000.0 -9035830000.0 -9035820000.0 -9035800000.0 -9035790000.0 -9035780000.0 -9035770000.0 -9035770000.0 -9035760000.0 -9035760000.0 -9035760000.0 -9035750000.0 -9035750000.0 -9035750000.0 -9035760000.0 -9035760000.0 -9035760000.0 -9035770000.0 -9035770000.0 -9035780000.0 -9035790000.0 -9035800000.0 -9035820000.0 -9035830000.0 -9035850000.0 -9035880000.0 -9035910000.0 -9035960000.0 -9036010000.0 -9036080000.0 -9036180000.0 -9036300000.0 -9036480000.0 -9036720000.0 -9037050000.0 -9037520000.0 -9038160000.0 -9039090000.0 -9040430000.0 -9042310000.0 -9120580000.0 -9049160000.0 -11007800000.0 -9064470000.0 -13784600000.0 -12459700000.0 -20460600000.0 -19864400000.0 -26853400000.0 -28099700000.0 -26304200000.0 -25162500000.0 -18687300000.0 -18969000000.0 -11756300000.0 -12656900000.0 -9061710000.0 -10473300000.0 -9048260000.0 -9091260000.0 -9041860000.0 -9040110000.0 -9038860000.0 -9037990000.0 -9037390000.0 -9036960000.0 -9036650000.0 -9036430000.0 -9036260000.0 -9036140000.0 -9036060000.0 -9035990000.0 -9035940000.0 -9035900000.0 -9035870000.0 -9035850000.0 -9035830000.0 -9035810000.0 -9035800000.0 -9035790000.0 -9035780000.0 -9035770000.0 -9035770000.0 -9035760000.0 -9035760000.0 -9035760000.0 -9035750000.0 -9035750000.0 -9035750000.0 -9035760000.0 -9035760000.0 -9035760000.0 -9035770000.0 -9035770000.0 -9035780000.0 -9035790000.0 -9035800000.0 -9035810000.0 -9035830000.0 -9035850000.0 -9035870000.0 -9035900000.0 -9035940000.0 -9035990000.0 -9036060000.0 -9036140000.0 -9036260000.0 -9036430000.0 -9036650000.0 -9036960000.0 -9037390000.0 -9037990000.0 -9038860000.0 -9040110000.0 -9041860000.0 -9091260000.0 -9048260000.0 -10473300000.0 -9061710000.0 -12656900000.0 -11756300000.0 -18969000000.0 -18687300000.0 -25162500000.0 -26304200000.0 -24635900000.0 -23577800000.0 -17615800000.0 -17609400000.0 -11177800000.0 -11775600000.0 -9059590000.0 -10075100000.0 -9047350000.0 -9072330000.0 -9041420000.0 -9039790000.0 -9038630000.0 -9037830000.0 -9037270000.0 -9036870000.0 -9036580000.0 -9036380000.0 -9036220000.0 -9036110000.0 -9036030000.0 -9035970000.0 -9035920000.0 -9035890000.0 -9035860000.0 -9035840000.0 -9035820000.0 -9035810000.0 -9035790000.0 -9035780000.0 -9035780000.0 -9035770000.0 -9035770000.0 -9035760000.0 -9035760000.0 -9035750000.0 -9035750000.0 -9035750000.0 -9035750000.0 -9035750000.0 -9035760000.0 -9035760000.0 -9035770000.0 -9035770000.0 -9035780000.0 -9035780000.0 -9035790000.0 -9035810000.0 -9035820000.0 -9035840000.0 -9035860000.0 -9035890000.0 -9035920000.0 -9035970000.0 -9036030000.0 -9036110000.0 -9036220000.0 -9036380000.0 -9036580000.0 -9036870000.0 -9037270000.0 -9037830000.0 -9038630000.0 -9039790000.0 -9041420000.0 -9072330000.0 -9047350000.0 -10075100000.0 -9059590000.0 -11775600000.0 -11177800000.0 -17609400000.0 -17615800000.0 -23577800000.0 -24635900000.0 -23090400000.0 -22101300000.0 -16639200000.0 -16383100000.0 -10707400000.0 -11093700000.0 -9057710000.0 -9781270000.0 -9046460000.0 -9060220000.0 -9040980000.0 -9039470000.0 -9038410000.0 -9037660000.0 -9037150000.0 -9036780000.0 -9036520000.0 -9036330000.0 -9036180000.0 -9036080000.0 -9036010000.0 -9035950000.0 -9035910000.0 -9035880000.0 -9035850000.0 -9035830000.0 -9035810000.0 -9035800000.0 -9035790000.0 -9035780000.0 -9035770000.0 -9035770000.0 -9035760000.0 -9035760000.0 -9035760000.0 -9035750000.0 -9035750000.0 -9035750000.0 -9035750000.0 -9035750000.0 -9035760000.0 -9035760000.0 -9035760000.0 -9035770000.0 -9035770000.0 -9035780000.0 -9035790000.0 -9035800000.0 -9035810000.0 -9035830000.0 -9035850000.0 -9035880000.0 -9035910000.0 -9035950000.0 -9036010000.0 -9036080000.0 -9036180000.0 -9036330000.0 -9036520000.0 -9036780000.0 -9037150000.0 -9037660000.0 -9038410000.0 -9039470000.0 -9040980000.0 -9060220000.0 -9046460000.0 -9781270000.0 -9057710000.0 -11093700000.0 -10707400000.0 -16383100000.0 -16639200000.0 -22101300000.0 -23090400000.0 -21662700000.0 -20732800000.0 -15749400000.0 -15288000000.0 -10329000000.0 -10571200000.0 -9055930000.0 -9566350000.0 -9045580000.0 -9052540000.0 -9040540000.0 -9039160000.0 -9038180000.0 -9037500000.0 -9037030000.0 -9036690000.0 -9036450000.0 -9036280000.0 -9036150000.0 -9036050000.0 -9035980000.0 -9035930000.0 -9035890000.0 -9035860000.0 -9035840000.0 -9035820000.0 -9035810000.0 -9035800000.0 -9035790000.0 -9035780000.0 -9035770000.0 -9035770000.0 -9035760000.0 -9035760000.0 -9035760000.0 -9035750000.0 -9035750000.0 -9035750000.0 -9035750000.0 -9035750000.0 -9035760000.0 -9035760000.0 -9035760000.0 -9035770000.0 -9035770000.0 -9035780000.0 -9035790000.0 -9035800000.0 -9035810000.0 -9035820000.0 -9035840000.0 -9035860000.0 -9035890000.0 -9035930000.0 -9035980000.0 -9036050000.0 -9036150000.0 -9036280000.0 -9036450000.0 -9036690000.0 -9037030000.0 -9037500000.0 -9038180000.0 -9039160000.0 -9040540000.0 -9052540000.0 -9045580000.0 -9566350000.0 -9055930000.0 -10571200000.0 -10329000000.0 -15288000000.0 -15749400000.0 -20732800000.0 -21662700000.0 -20347400000.0 -19470500000.0 -14940100000.0 -14319500000.0 -10027900000.0 -10174300000.0 -9054210000.0 -9410580000.0 -9044730000.0 -9047680000.0 -9040130000.0 -9038870000.0 -9037970000.0 -9037350000.0 -9036920000.0 -9036610000.0 -9036390000.0 -9036230000.0 -9036110000.0 -9036030000.0 -9035960000.0 -9035920000.0 -9035880000.0 -9035850000.0 -9035830000.0 -9035810000.0 -9035800000.0 -9035790000.0 -9035780000.0 -9035780000.0 -9035770000.0 -9035770000.0 -9035760000.0 -9035760000.0 -9035760000.0 -9035750000.0 -9035750000.0 -9035750000.0 -9035750000.0 -9035750000.0 -9035760000.0 -9035760000.0 -9035760000.0 -9035770000.0 -9035770000.0 -9035780000.0 -9035780000.0 -9035790000.0 -9035800000.0 -9035810000.0 -9035830000.0 -9035850000.0 -9035880000.0 -9035920000.0 -9035960000.0 -9036030000.0 -9036110000.0 -9036230000.0 -9036390000.0 -9036610000.0 -9036920000.0 -9037350000.0 -9037970000.0 -9038870000.0 -9040130000.0 -9047680000.0 -9044730000.0 -9410580000.0 -9054210000.0 -10174300000.0 -10027900000.0 -14319500000.0 -14940100000.0 -19470500000.0 -20347400000.0 -19138700000.0 -18311400000.0 -14206000000.0 -13470600000.0 -9790760000.0 -9875260000.0 -9052560000.0 -9298700000.0 -9043910000.0 -9044600000.0 -9039730000.0 -9038580000.0 -9037770000.0 -9037200000.0 -9036810000.0 -9036530000.0 -9036330000.0 -9036180000.0 -9036080000.0 -9036000000.0 -9035940000.0 -9035900000.0 -9035870000.0 -9035840000.0 -9035820000.0 -9035810000.0 -9035800000.0 -9035790000.0 -9035780000.0 -9035770000.0 -9035770000.0 -9035760000.0 -9035760000.0 -9035760000.0 -9035760000.0 -9035750000.0 -9035750000.0 -9035750000.0 -9035750000.0 -9035750000.0 -9035760000.0 -9035760000.0 -9035760000.0 -9035760000.0 -9035770000.0 -9035770000.0 -9035780000.0 -9035790000.0 -9035800000.0 -9035810000.0 -9035820000.0 -9035840000.0 -9035870000.0 -9035900000.0 -9035940000.0 -9036000000.0 -9036080000.0 -9036180000.0 -9036330000.0 -9036530000.0 -9036810000.0 -9037200000.0 -9037770000.0 -9038580000.0 -9039730000.0 -9044600000.0 -9043910000.0 -9298700000.0 -9052560000.0 -9875260000.0 -9790760000.0 -13470600000.0 -14206000000.0 -18311400000.0 -19138700000.0 -18031100000.0 -17251500000.0 -13542300000.0 -12733100000.0 -9605790000.0 -9651720000.0 -9050980000.0 -9219060000.0 -9043130000.0 -9042610000.0 -9039340000.0 -9038310000.0 -9037570000.0 -9037060000.0 -9036710000.0 -9036450000.0 -9036270000.0 -9036140000.0 -9036040000.0 -9035970000.0 -9035920000.0 -9035880000.0 -9035850000.0 -9035830000.0 -9035820000.0 -9035800000.0 -9035790000.0 -9035780000.0 -9035780000.0 -9035770000.0 -9035770000.0 -9035760000.0 -9035760000.0 -9035760000.0 -9035760000.0 -9035750000.0 -9035750000.0 -9035750000.0 -9035750000.0 -9035750000.0 -9035760000.0 -9035760000.0 -9035760000.0 -9035760000.0 -9035770000.0 -9035770000.0 -9035780000.0 -9035780000.0 -9035790000.0 -9035800000.0 -9035820000.0 -9035830000.0 -9035850000.0 -9035880000.0 -9035920000.0 -9035970000.0 -9036040000.0 -9036140000.0 -9036270000.0 -9036450000.0 -9036710000.0 -9037060000.0 -9037570000.0 -9038310000.0 -9039340000.0 -9042610000.0 -9043130000.0 -9219060000.0 -9050980000.0 -9651720000.0 -9605790000.0 -12733100000.0 -13542300000.0 -17251500000.0 -18031100000.0 -17018900000.0 -16286300000.0 -12944900000.0 -12097800000.0 -9462910000.0 -9485760000.0 -9049480000.0 -9162870000.0 -9042390000.0 -9041280000.0 -9038980000.0 -9038050000.0 -9037390000.0 -9036930000.0 -9036610000.0 -9036380000.0 -9036220000.0 -9036100000.0 -9036010000.0 -9035950000.0 -9035900000.0 -9035870000.0 -9035840000.0 -9035820000.0 -9035810000.0 -9035800000.0 -9035790000.0 -9035780000.0 -9035770000.0 -9035770000.0 -9035760000.0 -9035760000.0 -9035760000.0 -9035760000.0 -9035760000.0 -9035750000.0 -9035750000.0 -9035750000.0 -9035750000.0 -9035750000.0 -9035760000.0 -9035760000.0 -9035760000.0 -9035760000.0 -9035760000.0 -9035770000.0 -9035770000.0 -9035780000.0 -9035790000.0 -9035800000.0 -9035810000.0 -9035820000.0 -9035840000.0 -9035870000.0 -9035900000.0 -9035950000.0 -9036010000.0 -9036100000.0 -9036220000.0 -9036380000.0 -9036610000.0 -9036930000.0 -9037390000.0 -9038050000.0 -9038980000.0 -9041280000.0 -9042390000.0 -9162870000.0 -9049480000.0 -9485760000.0 -9462910000.0 -12097800000.0 -12944900000.0 -16286300000.0 -17018900000.0 -16096500000.0 -15410700000.0 -12409800000.0 -11555000000.0 -9353570000.0 -9363350000.0 -9048070000.0 -9123550000.0 -9041700000.0 -9040350000.0 -9038640000.0 -9037810000.0 -9037220000.0 -9036800000.0 -9036520000.0 -9036310000.0 -9036170000.0 -9036060000.0 -9035980000.0 -9035930000.0 -9035890000.0 -9035860000.0 -9035830000.0 -9035810000.0 -9035800000.0 -9035790000.0 -9035780000.0 -9035780000.0 -9035770000.0 -9035770000.0 -9035760000.0 -9035760000.0 -9035760000.0 -9035760000.0 -9035750000.0 -9035750000.0 -9035750000.0 -9035750000.0 -9035750000.0 -9035750000.0 -9035750000.0 -9035760000.0 -9035760000.0 -9035760000.0 -9035760000.0 -9035770000.0 -9035770000.0 -9035780000.0 -9035780000.0 -9035790000.0 -9035800000.0 -9035810000.0 -9035830000.0 -9035860000.0 -9035890000.0 -9035930000.0 -9035980000.0 -9036060000.0 -9036170000.0 -9036310000.0 -9036520000.0 -9036800000.0 -9037220000.0 -9037810000.0 -9038640000.0 -9040350000.0 -9041700000.0 -9123550000.0 -9048070000.0 -9363350000.0 -9353570000.0 -11555000000.0 -12409800000.0 -15410700000.0 -16096500000.0 -15258400000.0 -14619300000.0 -11933000000.0 -11094900000.0 -9270660000.0 -9273560000.0 -9046750000.0 -9096250000.0 -9041050000.0 -9039670000.0 -9038330000.0 -9037580000.0 -9037050000.0 -9036690000.0 -9036430000.0 -9036250000.0 -9036120000.0 -9036030000.0 -9035960000.0 -9035910000.0 -9035870000.0 -9035840000.0 -9035820000.0 -9035810000.0 -9035800000.0 -9035790000.0 -9035780000.0 -9035770000.0 -9035770000.0 -9035760000.0 -9035760000.0 -9035760000.0 -9035760000.0 -9035760000.0 -9035750000.0 -9035750000.0 -9035750000.0 -9035750000.0 -9035750000.0 -9035750000.0 -9035750000.0 -9035760000.0 -9035760000.0 -9035760000.0 -9035760000.0 -9035760000.0 -9035770000.0 -9035770000.0 -9035780000.0 -9035790000.0 -9035800000.0 -9035810000.0 -9035820000.0 -9035840000.0 -9035870000.0 -9035910000.0 -9035960000.0 -9036030000.0 -9036120000.0 -9036250000.0 -9036430000.0 -9036690000.0 -9037050000.0 -9037580000.0 -9038330000.0 -9039670000.0 -9041050000.0 -9096250000.0 -9046750000.0 -9273560000.0 -9270660000.0 -11094900000.0 -11933000000.0 -14619300000.0 -15258400000.0 -14499000000.0 -13906700000.0 -11510300000.0 -10708000000.0 -9208330000.0 -9208040000.0 -9045520000.0 -9077440000.0 -9040460000.0 -9039130000.0 -9038040000.0 -9037370000.0 -9036910000.0 -9036580000.0 -9036350000.0 -9036190000.0 -9036080000.0 -9035990000.0 -9035930000.0 -9035890000.0 -9035860000.0 -9035830000.0 -9035810000.0 -9035800000.0 -9035790000.0 -9035780000.0 -9035780000.0 -9035770000.0 -9035770000.0 -9035760000.0 -9035760000.0 -9035760000.0 -9035760000.0 -9035760000.0 -9035750000.0 -9035750000.0 -9035750000.0 -9035750000.0 -9035750000.0 -9035750000.0 -9035750000.0 -9035760000.0 -9035760000.0 -9035760000.0 -9035760000.0 -9035760000.0 -9035770000.0 -9035770000.0 -9035780000.0 -9035780000.0 -9035790000.0 -9035800000.0 -9035810000.0 -9035830000.0 -9035860000.0 -9035890000.0 -9035930000.0 -9035990000.0 -9036080000.0 -9036190000.0 -9036350000.0 -9036580000.0 -9036910000.0 -9037370000.0 -9038040000.0 -9039130000.0 -9040460000.0 -9077440000.0 -9045520000.0 -9208040000.0 -9208330000.0 -10708000000.0 -11510300000.0 -13906700000.0 -14499000000.0 -13812900000.0 -13267200000.0 -11137800000.0 -10385000000.0 -9161860000.0 -9160440000.0 -9044380000.0 -9064550000.0 -9039900000.0 -9038680000.0 -9037770000.0 -9037180000.0 -9036770000.0 -9036480000.0 -9036280000.0 -9036140000.0 -9036040000.0 -9035960000.0 -9035910000.0 -9035870000.0 -9035840000.0 -9035820000.0 -9035810000.0 -9035790000.0 -9035780000.0 -9035780000.0 -9035770000.0 -9035770000.0 -9035760000.0 -9035760000.0 -9035760000.0 -9035760000.0 -9035760000.0 -9035750000.0 -9035750000.0 -9035750000.0 -9035750000.0 -9035750000.0 -9035750000.0 -9035750000.0 -9035750000.0 -9035750000.0 -9035760000.0 -9035760000.0 -9035760000.0 -9035760000.0 -9035760000.0 -9035770000.0 -9035770000.0 -9035780000.0 -9035780000.0 -9035790000.0 -9035810000.0 -9035820000.0 -9035840000.0 -9035870000.0 -9035910000.0 -9035960000.0 -9036040000.0 -9036140000.0 -9036280000.0 -9036480000.0 -9036770000.0 -9037180000.0 -9037770000.0 -9038680000.0 -9039900000.0 -9064550000.0 -9044380000.0 -9160440000.0 -9161860000.0 -10385000000.0 -11137800000.0 -13267200000.0 -13812900000.0 -13194600000.0 -12695000000.0 -10811300000.0 -10117500000.0 -9127490000.0 -9125960000.0 -9043340000.0 -9055760000.0 -9039390000.0 -9038300000.0 -9037520000.0 -9037010000.0 -9036640000.0 -9036390000.0 -9036220000.0 -9036090000.0 -9036000000.0 -9035940000.0 -9035890000.0 -9035860000.0 -9035830000.0 -9035810000.0 -9035800000.0 -9035790000.0 -9035780000.0 -9035770000.0 -9035770000.0 -9035770000.0 -9035760000.0 -9035760000.0 -9035760000.0 -9035760000.0 -9035760000.0 -9035750000.0 -9035750000.0 -9035750000.0 -9035750000.0 -9035750000.0 -9035750000.0 -9035750000.0 -9035750000.0 -9035750000.0 -9035760000.0 -9035760000.0 -9035760000.0 -9035760000.0 -9035760000.0 -9035770000.0 -9035770000.0 -9035770000.0 -9035780000.0 -9035790000.0 -9035800000.0 -9035810000.0 -9035830000.0 -9035860000.0 -9035890000.0 -9035940000.0 -9036000000.0 -9036090000.0 -9036220000.0 -9036390000.0 -9036640000.0 -9037010000.0 -9037520000.0 -9038300000.0 -9039390000.0 -9055760000.0 -9043340000.0 -9125960000.0 -9127490000.0 -10117500000.0 -10811300000.0 -12695000000.0 -13194600000.0 -12638600000.0 -12184500000.0 -10526600000.0 -9897380000.0 -9102250000.0 -9101050000.0 -9042380000.0 -9049780000.0 -9038930000.0 -9037960000.0 -9037290000.0 -9036840000.0 -9036530000.0 -9036310000.0 -9036160000.0 -9036050000.0 -9035970000.0 -9035910000.0 -9035870000.0 -9035840000.0 -9035820000.0 -9035800000.0 -9035790000.0 -9035780000.0 -9035780000.0 -9035770000.0 -9035770000.0 -9035760000.0 -9035760000.0 -9035760000.0 -9035760000.0 -9035760000.0 -9035760000.0 -9035750000.0 -9035750000.0 -9035750000.0 -9035750000.0 -9035750000.0 -9035750000.0 -9035750000.0 -9035750000.0 -9035750000.0 -9035760000.0 -9035760000.0 -9035760000.0 -9035760000.0 -9035760000.0 -9035760000.0 -9035770000.0 -9035770000.0 -9035780000.0 -9035780000.0 -9035790000.0 -9035800000.0 -9035820000.0 -9035840000.0 -9035870000.0 -9035910000.0 -9035970000.0 -9036050000.0 -9036160000.0 -9036310000.0 -9036530000.0 -9036840000.0 -9037290000.0 -9037960000.0 -9038930000.0 -9049780000.0 -9042380000.0 -9101050000.0 -9102250000.0 -9897380000.0 -10526600000.0 -12184500000.0 -12638600000.0 -12139600000.0 -11730100000.0 -10279600000.0 -9717550000.0 -9083830000.0 -9083090000.0 -9041500000.0 -9045700000.0 -9038510000.0 -9037660000.0 -9037090000.0 -9036700000.0 -9036420000.0 -9036230000.0 -9036100000.0 -9036010000.0 -9035940000.0 -9035890000.0 -9035850000.0 -9035830000.0 -9035810000.0 -9035800000.0 -9035790000.0 -9035780000.0 -9035770000.0 -9035770000.0 -9035760000.0 -9035760000.0 -9035760000.0 -9035760000.0 -9035760000.0 -9035760000.0 -9035750000.0 -9035750000.0 -9035750000.0 -9035750000.0 -9035750000.0 -9035750000.0 -9035750000.0 -9035750000.0 -9035750000.0 -9035750000.0 -9035750000.0 -9035760000.0 -9035760000.0 -9035760000.0 -9035760000.0 -9035760000.0 -9035760000.0 -9035770000.0 -9035770000.0 -9035780000.0 -9035790000.0 -9035800000.0 -9035810000.0 -9035830000.0 -9035850000.0 -9035890000.0 -9035940000.0 -9036010000.0 -9036100000.0 -9036230000.0 -9036420000.0 -9036700000.0 -9037090000.0 -9037660000.0 -9038510000.0 -9045700000.0 -9041500000.0 -9083090000.0 -9083830000.0 -9717550000.0 -10279600000.0 -11730100000.0 -12139600000.0 -11692100000.0 -11326200000.0 -10066400000.0 -9571560000.0 -9070470000.0 -9070130000.0 -9040710000.0 -9042910000.0 -9038120000.0 -9037400000.0 -9036900000.0 -9036570000.0 -9036330000.0 -9036170000.0 -9036050000.0 -9035970000.0 -9035910000.0 -9035870000.0 -9035840000.0 -9035820000.0 -9035800000.0 -9035790000.0 -9035780000.0 -9035770000.0 -9035770000.0 -9035770000.0 -9035760000.0 -9035760000.0 -9035760000.0 -9035760000.0 -9035760000.0 -9035760000.0 -9035750000.0 -9035750000.0 -9035750000.0 -9035750000.0 -9035750000.0 -9035750000.0 -9035750000.0 -9035750000.0 -9035750000.0 -9035750000.0 -9035750000.0 -9035760000.0 -9035760000.0 -9035760000.0 -9035760000.0 -9035760000.0 -9035760000.0 -9035770000.0 -9035770000.0 -9035770000.0 -9035780000.0 -9035790000.0 -9035800000.0 -9035820000.0 -9035840000.0 -9035870000.0 -9035910000.0 -9035970000.0 -9036050000.0 -9036170000.0 -9036330000.0 -9036570000.0 -9036900000.0 -9037400000.0 -9038120000.0 -9042910000.0 -9040710000.0 -9070130000.0 -9070470000.0 -9571560000.0 -10066400000.0 -11326200000.0 -11692100000.0 -11290800000.0 -10967400000.0 -9882850000.0 -9453730000.0 -9060810000.0 -9060770000.0 -9039980000.0 -9040990000.0 -9037770000.0 -9037150000.0 -9036730000.0 -9036450000.0 -9036240000.0 -9036100000.0 -9036010000.0 -9035940000.0 -9035890000.0 -9035850000.0 -9035830000.0 -9035810000.0 -9035790000.0 -9035780000.0 -9035780000.0 -9035770000.0 -9035770000.0 -9035760000.0 -9035760000.0 -9035760000.0 -9035760000.0 -9035760000.0 -9035760000.0 -9035750000.0 -9035750000.0 -9035750000.0 -9035750000.0 -9035750000.0 -9035750000.0 -9035750000.0 -9035750000.0 -9035750000.0 -9035750000.0 -9035750000.0 -9035750000.0 -9035750000.0 -9035760000.0 -9035760000.0 -9035760000.0 -9035760000.0 -9035760000.0 -9035760000.0 -9035770000.0 -9035770000.0 -9035780000.0 -9035780000.0 -9035790000.0 -9035810000.0 -9035830000.0 -9035850000.0 -9035890000.0 -9035940000.0 -9036010000.0 -9036100000.0 -9036240000.0 -9036450000.0 -9036730000.0 -9037150000.0 -9037770000.0 -9040990000.0 -9039980000.0 -9060770000.0 -9060810000.0 -9453730000.0 -9882850000.0 -10967400000.0 -11290800000.0 -10930400000.0 -10648500000.0 -9725300000.0 -9359070000.0 -9053830000.0 -9053990000.0 -9039320000.0 -9039630000.0 -9037460000.0 -9036930000.0 -9036580000.0 -9036340000.0 -9036170000.0 -9036050000.0 -9035970000.0 -9035910000.0 -9035870000.0 -9035840000.0 -9035810000.0 -9035800000.0 -9035790000.0 -9035780000.0 -9035770000.0 -9035770000.0 -9035760000.0 -9035760000.0 -9035760000.0 -9035760000.0 -9035760000.0 -9035760000.0 -9035760000.0 -9035750000.0 -9035750000.0 -9035750000.0 -9035750000.0 -9035750000.0 -9035750000.0 -9035750000.0 -9035750000.0 -9035750000.0 -9035750000.0 -9035750000.0 -9035750000.0 -9035750000.0 -9035760000.0 -9035760000.0 -9035760000.0 -9035760000.0 -9035760000.0 -9035760000.0 -9035760000.0 -9035770000.0 -9035770000.0 -9035780000.0 -9035790000.0 -9035800000.0 -9035810000.0 -9035840000.0 -9035870000.0 -9035910000.0 -9035970000.0 -9036050000.0 -9036170000.0 -9036340000.0 -9036580000.0 -9036930000.0 -9037460000.0 -9039630000.0 -9039320000.0 -9053990000.0 -9053830000.0 -9359070000.0 -9725300000.0 -10648500000.0 -10930400000.0 -10605800000.0 -10364200000.0 -9590100000.0 -9283270000.0 -9048780000.0 -9049040000.0 -9038720000.0 -9038660000.0 -9037170000.0 -9036730000.0 -9036440000.0 -9036240000.0 -9036100000.0 -9036000000.0 -9035930000.0 -9035880000.0 -9035850000.0 -9035820000.0 -9035800000.0 -9035790000.0 -9035780000.0 -9035770000.0 -9035770000.0 -9035770000.0 -9035760000.0 -9035760000.0 -9035760000.0 -9035760000.0 -9035760000.0 -9035760000.0 -9035750000.0 -9035750000.0 -9035750000.0 -9035750000.0 -9035750000.0 -9035750000.0 -9035750000.0 -9035750000.0 -9035750000.0 -9035750000.0 -9035750000.0 -9035750000.0 -9035750000.0 -9035750000.0 -9035750000.0 -9035760000.0 -9035760000.0 -9035760000.0 -9035760000.0 -9035760000.0 -9035760000.0 -9035770000.0 -9035770000.0 -9035770000.0 -9035780000.0 -9035790000.0 -9035800000.0 -9035820000.0 -9035850000.0 -9035880000.0 -9035930000.0 -9036000000.0 -9036100000.0 -9036240000.0 -9036440000.0 -9036730000.0 -9037170000.0 -9038660000.0 -9038720000.0 -9049040000.0 -9048780000.0 -9283270000.0 -9590100000.0 -10364200000.0 -10605800000.0 -10311800000.0 -10109600000.0 -9473800000.0 -9222590000.0 -9045110000.0 -9045400000.0 -9038180000.0 -9037930000.0 -9036910000.0 -9036550000.0 -9036310000.0 -9036150000.0 -9036030000.0 -9035950000.0 -9035900000.0 -9035860000.0 -9035830000.0 -9035810000.0 -9035790000.0 -9035780000.0 -9035780000.0 -9035770000.0 -9035770000.0 -9035760000.0 -9035760000.0 -9035760000.0 -9035760000.0 -9035760000.0 -9035760000.0 -9035750000.0 -9035750000.0 -9035750000.0 -9035750000.0 -9035750000.0 -9035750000.0 -9035750000.0 -9035750000.0 -9035750000.0 -9035750000.0 -9035750000.0 -9035750000.0 -9035750000.0 -9035750000.0 -9035750000.0 -9035750000.0 -9035750000.0 -9035760000.0 -9035760000.0 -9035760000.0 -9035760000.0 -9035760000.0 -9035760000.0 -9035770000.0 -9035770000.0 -9035780000.0 -9035780000.0 -9035790000.0 -9035810000.0 -9035830000.0 -9035860000.0 -9035900000.0 -9035950000.0 -9036030000.0 -9036150000.0 -9036310000.0 -9036550000.0 -9036910000.0 -9037930000.0 -9038180000.0 -9045400000.0 -9045110000.0 -9222590000.0 -9473800000.0 -10109600000.0 -10311800000.0 -10043600000.0 -9879780000.0 -9373100000.0 -9173810000.0 -9042400000.0 -9042670000.0 -9037670000.0 -9037380000.0 -9036670000.0 -9036390000.0 -9036190000.0 -9036070000.0 -9035970000.0 -9035910000.0 -9035870000.0 -9035840000.0 -9035810000.0 -9035800000.0 -9035790000.0 -9035780000.0 -9035770000.0 -9035770000.0 -9035760000.0 -9035760000.0 -9035760000.0 -9035760000.0 -9035760000.0 -9035760000.0 -9035750000.0 -9035750000.0 -9035750000.0 -9035750000.0 -9035750000.0 -9035750000.0 -9035750000.0 -9035750000.0 -9035750000.0 -9035750000.0 -9035750000.0 -9035750000.0 -9035750000.0 -9035750000.0 -9035750000.0 -9035750000.0 -9035750000.0 -9035750000.0 -9035750000.0 -9035760000.0 -9035760000.0 -9035760000.0 -9035760000.0 -9035760000.0 -9035760000.0 -9035770000.0 -9035770000.0 -9035780000.0 -9035790000.0 -9035800000.0 -9035810000.0 -9035840000.0 -9035870000.0 -9035910000.0 -9035970000.0 -9036070000.0 -9036190000.0 -9036390000.0 -9036670000.0 -9037380000.0 -9037670000.0 -9042670000.0 -9042400000.0 -9173810000.0 -9373100000.0 -9879780000.0 -10043600000.0 -9796290000.0 -9670030000.0 -9284910000.0 -9134160000.0 -9040350000.0 -9040580000.0 -9037200000.0 -9036930000.0 -9036440000.0 -9036230000.0 -9036090000.0 -9035990000.0 -9035920000.0 -9035870000.0 -9035840000.0 -9035820000.0 -9035800000.0 -9035790000.0 -9035780000.0 -9035770000.0 -9035770000.0 -9035760000.0 -9035760000.0 -9035760000.0 -9035760000.0 -9035760000.0 -9035760000.0 -9035750000.0 -9035750000.0 -9035750000.0 -9035750000.0 -9035750000.0 -9035750000.0 -9035750000.0 -9035750000.0 -9035750000.0 -9035750000.0 -9035750000.0 -9035750000.0 -9035750000.0 -9035750000.0 -9035750000.0 -9035750000.0 -9035750000.0 -9035750000.0 -9035750000.0 -9035750000.0 -9035750000.0 -9035760000.0 -9035760000.0 -9035760000.0 -9035760000.0 -9035760000.0 -9035760000.0 -9035770000.0 -9035770000.0 -9035780000.0 -9035790000.0 -9035800000.0 -9035820000.0 -9035840000.0 -9035870000.0 -9035920000.0 -9035990000.0 -9036090000.0 -9036230000.0 -9036440000.0 -9036930000.0 -9037200000.0 -9040580000.0 -9040350000.0 -9134160000.0 -9284910000.0 -9670030000.0 -9796290000.0 -9564980000.0 -9475730000.0 -9206240000.0 -9101220000.0 -9038750000.0 -9038910000.0 -9036760000.0 -9036550000.0 -9036230000.0 -9036090000.0 -9035990000.0 -9035920000.0 -9035870000.0 -9035840000.0 -9035810000.0 -9035800000.0 -9035780000.0 -9035780000.0 -9035770000.0 -9035770000.0 -9035760000.0 -9035760000.0 -9035760000.0 -9035760000.0 -9035760000.0 -9035760000.0 -9035750000.0 -9035750000.0 -9035750000.0 -9035750000.0 -9035750000.0 -9035750000.0 -9035750000.0 -9035750000.0 -9035750000.0 -9035750000.0 -9035750000.0 -9035750000.0 -9035750000.0 -9035750000.0 -9035750000.0 -9035750000.0 -9035750000.0 -9035750000.0 -9035750000.0 -9035750000.0 -9035750000.0 -9035750000.0 -9035750000.0 -9035760000.0 -9035760000.0 -9035760000.0 -9035760000.0 -9035760000.0 -9035760000.0 -9035770000.0 -9035770000.0 -9035780000.0 -9035780000.0 -9035800000.0 -9035810000.0 -9035840000.0 -9035870000.0 -9035920000.0 -9035990000.0 -9036090000.0 -9036230000.0 -9036550000.0 -9036760000.0 -9038910000.0 -9038750000.0 -9101220000.0 -9206240000.0 -9475730000.0 -9564980000.0 -9345030000.0 -9292320000.0 -9134260000.0 -9072860000.0 -9037430000.0 -9037530000.0 -9036340000.0 -9036210000.0 -9036030000.0 -9035950000.0 -9035890000.0 -9035850000.0 -9035820000.0 -9035800000.0 -9035790000.0 -9035780000.0 -9035770000.0 -9035770000.0 -9035760000.0 -9035760000.0 -9035760000.0 -9035760000.0 -9035760000.0 -9035760000.0 -9035750000.0 -9035750000.0 -9035750000.0 -9035750000.0 -9035750000.0 -9035750000.0 -9035750000.0 -9035750000.0 -9035750000.0 -9035750000.0 -9035750000.0 -9035750000.0 -9035750000.0 -9035750000.0 -9035750000.0 -9035750000.0 -9035750000.0 -9035750000.0 -9035750000.0 -9035750000.0 -9035750000.0 -9035750000.0 -9035750000.0 -9035750000.0 -9035750000.0 -9035750000.0 -9035750000.0 -9035760000.0 -9035760000.0 -9035760000.0 -9035760000.0 -9035760000.0 -9035760000.0 -9035770000.0 -9035770000.0 -9035780000.0 -9035790000.0 -9035800000.0 -9035820000.0 -9035850000.0 -9035890000.0 -9035950000.0 -9036030000.0 -9036210000.0 -9036340000.0 -9037530000.0 -9037430000.0 -9072860000.0 -9134260000.0 -9292320000.0 -9345030000.0 -9131770000.0 -9115340000.0 -9066190000.0 -9047130000.0 -9036260000.0 -9036300000.0 -9035940000.0 -9035890000.0 -9035840000.0 -9035810000.0 -9035800000.0 -9035780000.0 -9035770000.0 -9035770000.0 -9035760000.0 -9035760000.0 -9035760000.0 -9035760000.0 -9035760000.0 -9035760000.0 -9035750000.0 -9035750000.0 -9035750000.0 -9035750000.0 -9035750000.0 -9035750000.0 -9035750000.0 -9035750000.0 -9035750000.0 -9035750000.0 -9035750000.0 -9035750000.0 -9035750000.0 -9035750000.0 -9035750000.0 -9035750000.0 -9035750000.0 -9035750000.0 -9035750000.0 -9035750000.0 -9035750000.0 -9035750000.0 -9035750000.0 -9035750000.0 -9035750000.0 -9035750000.0 -9035750000.0 -9035750000.0 -9035750000.0 -9035750000.0 -9035750000.0 -9035750000.0 -9035750000.0 -9035750000.0 -9035750000.0 -9035760000.0 -9035760000.0 -9035760000.0 -9035760000.0 -9035760000.0 -9035760000.0 -9035770000.0 -9035770000.0 -9035780000.0 -9035800000.0 -9035810000.0 -9035840000.0 -9035890000.0 -9035940000.0 -9036300000.0 -9036260000.0 -9047130000.0 -9066190000.0 -9115340000.0 -9131770000.0 
SCALARS Shear_Stress float 1
LOOKUP_TABLE default
111141000000.0 51915900000.0 35130200000.0 91022200000.0 75345500000.0 105799000000.0 111816000000.0 116501000000.0 120136000000.0 123790000000.0 127095000000.0 129717000000.0 132107000000.0 134414000000.0 136484000000.0 138386000000.0 140250000000.0 142020000000.0 143538000000.0 144680000000.0 145411000000.0 145783000000.0 145890000000.0 145812000000.0 145613000000.0 145352000000.0 145088000000.0 144871000000.0 144731000000.0 144684000000.0 144731000000.0 144871000000.0 145088000000.0 145352000000.0 145613000000.0 145812000000.0 145890000000.0 145783000000.0 145411000000.0 144680000000.0 143538000000.0 142020000000.0 140250000000.0 138386000000.0 136484000000.0 134414000000.0 132107000000.0 129717000000.0 127095000000.0 123790000000.0 120136000000.0 116501000000.0 111816000000.0 105799000000.0 75345500000.0 91022200000.0 35130200000.0 51915900000.0 111141000000.0 7731080000.0 455273000000.0 1297480000.0 1297480000.0 455273000000.0 7731080000.0 26285300000.0 222814000000.0 660843000000.0 283890000000.0 329538000000.0 43658300000.0 181237000000.0 133488000000.0 201362000000.0 202688000000.0 202429000000.0 200779000000.0 198365000000.0 195187000000.0 191150000000.0 187205000000.0 184191000000.0 181873000000.0 179558000000.0 176819000000.0 173647000000.0 170231000000.0 166754000000.0 163371000000.0 160226000000.0 157410000000.0 154964000000.0 152910000000.0 151252000000.0 149980000000.0 149079000000.0 148539000000.0 148359000000.0 148539000000.0 149079000000.0 149980000000.0 151252000000.0 152910000000.0 154964000000.0 157410000000.0 160226000000.0 163371000000.0 166754000000.0 170231000000.0 173647000000.0 176819000000.0 179558000000.0 181873000000.0 184191000000.0 187205000000.0 191150000000.0 195187000000.0 198365000000.0 200779000000.0 202429000000.0 202688000000.0 201362000000.0 133488000000.0 181237000000.0 43658300000.0 329538000000.0 283890000000.0 660843000000.0 222814000000.0 26285300000.0 35531100000.0 84907600000.0 99804800.0 384503000000.0 383391000000.0 430337000000.0 395062000000.0 426894000000.0 385028000000.0 345426000000.0 310218000000.0 280743000000.0 255383000000.0 233899000000.0 216157000000.0 200983000000.0 188206000000.0 178287000000.0 170879000000.0 164986000000.0 159787000000.0 154910000000.0 150294000000.0 146010000000.0 142147000000.0 138756000000.0 135871000000.0 133518000000.0 131706000000.0 130426000000.0 129662000000.0 129408000000.0 129662000000.0 130426000000.0 131706000000.0 133518000000.0 135871000000.0 138756000000.0 142147000000.0 146010000000.0 150294000000.0 154910000000.0 159787000000.0 164986000000.0 170879000000.0 178287000000.0 188206000000.0 200983000000.0 216157000000.0 233899000000.0 255383000000.0 280743000000.0 310218000000.0 345426000000.0 385028000000.0 426894000000.0 395062000000.0 430337000000.0 383391000000.0 384503000000.0 99824100.0 84907600000.0 35531100000.0 35306500000.0 437073000.0 112775000000.0 158217000000.0 580672000000.0 284892000000.0 457257000000.0 457257000000.0 284892000000.0 580672000000.0 158217000000.0 112775000000.0 437074000.0 35306500000.0 86726200000.0 11544700000.0 563914000000.0 352848000000.0 309324000000.0 418115000000.0 389501000000.0 418380000000.0 425390000000.0 385902000000.0 347791000000.0 312483000000.0 281315000000.0 253809000000.0 230897000000.0 212419000000.0 196185000000.0 181521000000.0 169285000000.0 159683000000.0 151928000000.0 145134000000.0 138838000000.0 132944000000.0 127503000000.0 122599000000.0 118306000000.0 114669000000.0 111704000000.0 109416000000.0 107803000000.0 106848000000.0 106533000000.0 106848000000.0 107803000000.0 109416000000.0 111704000000.0 114669000000.0 118306000000.0 122599000000.0 127503000000.0 132944000000.0 138838000000.0 145134000000.0 151928000000.0 159683000000.0 169285000000.0 181521000000.0 196185000000.0 212419000000.0 230897000000.0 253809000000.0 281315000000.0 312483000000.0 347791000000.0 385902000000.0 425390000000.0 418380000000.0 389501000000.0 418115000000.0 309324000000.0 352848000000.0 563914000000.0 11544700000.0 86726200000.0 109287000000.0 128776000000.0 194444000000.0 295495000000.0 31769100000.0 9728080000.0 334249000000.0 653239000000.0 435550000000.0 459400000000.0 368462000000.0 368462000000.0 459400000000.0 435550000000.0 653239000000.0 334249000000.0 9728080000.0 31769100000.0 295495000000.0 194444000000.0 128776000000.0 109287000000.0 74793500000.0 110576000000.0 164000000000.0 252892000000.0 177588000000.0 235372000000.0 132362000000.0 312228000000.0 419073000000.0 411523000000.0 373280000000.0 337198000000.0 304423000000.0 273775000000.0 245135000000.0 221239000000.0 202009000000.0 185271000000.0 170540000000.0 158299000000.0 148303000000.0 139729000000.0 131915000000.0 124613000000.0 117829000000.0 111643000000.0 106136000000.0 101362000000.0 97341600000.0 94073400000.0 91551900000.0 89767800000.0 88706700000.0 88354800000.0 88706700000.0 89767800000.0 91551900000.0 94073400000.0 97341600000.0 101362000000.0 106136000000.0 111643000000.0 117829000000.0 124613000000.0 131915000000.0 139729000000.0 148303000000.0 158299000000.0 170540000000.0 185271000000.0 202009000000.0 221239000000.0 245135000000.0 273775000000.0 304423000000.0 337198000000.0 373280000000.0 411523000000.0 419073000000.0 312228000000.0 132362000000.0 235372000000.0 177588000000.0 252892000000.0 164000000000.0 110576000000.0 74793500000.0 72463500000.0 286739000000.0 246409000000.0 105571000000.0 35468700000.0 326332000000.0 393396000000.0 27849500000.0 439628000000.0 306875000000.0 500841000000.0 471104000000.0 429277000000.0 383868000000.0 340984000000.0 302312000000.0 266473000000.0 233140000000.0 202664000000.0 174622000000.0 149488000000.0 128218000000.0 110674000000.0 95847400000.0 82625900000.0 70936800000.0 60219800000.0 50652000000.0 42265100000.0 35080500000.0 29094400000.0 24277500000.0 20588800000.0 17988000000.0 16442400000.0 15929800000.0 16442400000.0 17988000000.0 20588800000.0 24277500000.0 29094400000.0 35080500000.0 42265100000.0 50652000000.0 60219800000.0 70936800000.0 82625900000.0 95847400000.0 110674000000.0 128218000000.0 149488000000.0 174622000000.0 202664000000.0 233140000000.0 266473000000.0 302312000000.0 340984000000.0 383868000000.0 429277000000.0 471104000000.0 500841000000.0 306875000000.0 439628000000.0 27849500000.0 393396000000.0 326332000000.0 35468700000.0 105571000000.0 246409000000.0 286739000000.0 72463500000.0 188418000000.0 302450000000.0 228263000000.0 259696000000.0 262219000000.0 211801000000.0 157779000000.0 315722000000.0 315722000000.0 157779000000.0 211801000000.0 262219000000.0 259696000000.0 228263000000.0 302450000000.0 188418000000.0 89045400000.0 122499000000.0 380074000000.0 208527000000.0 484011000000.0 57882200000.0 32107300000.0 111059000000.0 139580000000.0 368739000000.0 180712000000.0 427980000000.0 382854000000.0 340335000000.0 298395000000.0 259219000000.0 225329000000.0 196205000000.0 169625000000.0 146782000000.0 129033000000.0 115487000000.0 104379000000.0 94598800000.0 85886900000.0 78031100000.0 71328300000.0 65336800000.0 60223500000.0 55967500000.0 52487400000.0 49679000000.0 47455500000.0 45761100000.0 44565800000.0 43854700000.0 43618800000.0 43854700000.0 44565800000.0 45761100000.0 47455500000.0 49679000000.0 52487400000.0 55967500000.0 60223500000.0 65336800000.0 71328300000.0 78031100000.0 85886900000.0 94598800000.0 104379000000.0 115487000000.0 129033000000.0 146782000000.0 169625000000.0 196205000000.0 225329000000.0 259219000000.0 298395000000.0 340335000000.0 382854000000.0 427980000000.0 180712000000.0 368739000000.0 139580000000.0 111059000000.0 32107300000.0 57882200000.0 484011000000.0 208527000000.0 380074000000.0 122499000000.0 89045400000.0 18418000000.0 93839300000.0 305864000000.0 149740000000.0 27041400000.0 94118000000.0 43066400000.0 229229000000.0 14811300000.0 18702000000.0 136557000000.0 105877000000.0 83752900000.0 66620700000.0 48147500000.0 32953300000.0 19448000000.0 6493060000.0 2639940000.0 7039250000.0 8552000000.0 8942390000.0 9021080000.0 9033850000.0 9035550000.0 9035740000.0 9035750000.0 9035750000.0 9035750000.0 9035750000.0 9035750000.0 9035750000.0 9035750000.0 9035750000.0 9035750000.0 9035760000.0 9035750000.0 9035750000.0 9035750000.0 9035750000.0 9035750000.0 9035750000.0 9035750000.0 9035750000.0 9035750000.0 9035740000.0 9035550000.0 9033850000.0 9021080000.0 8942390000.0 8552000000.0 7039250000.0 2639940000.0 6493060000.0 19448000000.0 32953300000.0 48147500000.0 66620700000.0 83752900000.0 105877000000.0 136557000000.0 18702000000.0 14811300000.0 229229000000.0 43066400000.0 94118000000.0 27041400000.0 149740000000.0 305864000000.0 93839300000.0 18418000000.0 33553200000.0 63175300000.0 186563000000.0 238350000000.0 238350000000.0 186563000000.0 63175300000.0 33553200000.0 31519700000.0 61019400000.0 386844000000.0 52260000000.0 350430000000.0 74635900000.0 131027000000.0 1768690000.0 179364000000.0 228484000000.0 8615880000.0 58098400000.0 225512000000.0 202942000000.0 181117000000.0 160262000000.0 141434000000.0 124754000000.0 109493000000.0 95808200000.0 84100400000.0 74212900000.0 65705100000.0 58171400000.0 51354500000.0 45195200000.0 39718300000.0 34885900000.0 30614700000.0 26860900000.0 23622800000.0 20891400000.0 18632400000.0 16807000000.0 15391600000.0 14378700000.0 13769500000.0 13566100000.0 13769500000.0 14378700000.0 15391600000.0 16807000000.0 18632400000.0 20891400000.0 23622800000.0 26860900000.0 30614700000.0 34885900000.0 39718300000.0 45195200000.0 51354500000.0 58171400000.0 65705100000.0 74212900000.0 84100400000.0 95808200000.0 109493000000.0 124754000000.0 141434000000.0 160262000000.0 181117000000.0 202942000000.0 225512000000.0 58098400000.0 8615880000.0 228484000000.0 179364000000.0 1768690000.0 131027000000.0 74635900000.0 350430000000.0 52260000000.0 386844000000.0 61019400000.0 31519700000.0 15017800000.0 10441100000.0 68338900000.0 32908600000.0 17655300000.0 171255000000.0 43533000000.0 226533000000.0 108001000000.0 118940000000.0 9035750000.0 9035750000.0 9035750000.0 9035750000.0 9035750000.0 9035750000.0 9035750000.0 9035750000.0 9035750000.0 9035750000.0 9035750000.0 9035750000.0 9035750000.0 9035750000.0 9035750000.0 9035750000.0 9035750000.0 9035750000.0 9035750000.0 9035750000.0 9035750000.0 9035750000.0 9035750000.0 9035750000.0 9035750000.0 9035750000.0 9035750000.0 9035750000.0 9035750000.0 9035750000.0 9035750000.0 9035750000.0 9035750000.0 9035750000.0 9035750000.0 9035750000.0 9035750000.0 9035750000.0 9035750000.0 9035750000.0 9035750000.0 9035750000.0 9035750000.0 9035750000.0 9035750000.0 9035750000.0 9035750000.0 9035750000.0 9035750000.0 9035750000.0 9035750000.0 118940000000.0 108001000000.0 226533000000.0 43533000000.0 171255000000.0 17655300000.0 32908600000.0 68338900000.0 10441100000.0 15017800000.0 193289000000.0 223056000000.0 223056000000.0 193289000000.0 13090000000.0 131148000000.0 34785900000.0 86695800000.0 91909700000.0 125022000000.0 71443200000.0 136842000000.0 101057000000.0 93849800000.0 188213000000.0 127666000000.0 173910000000.0 142839000000.0 117213000000.0 97103000000.0 80917700000.0 67185100000.0 55312800000.0 45047100000.0 36181000000.0 28606800000.0 22236300000.0 16923300000.0 12508600000.0 8855560000.0 5840430000.0 3348220000.0 1281000000.0 437611000.0 1863070000.0 3033310000.0 3974960000.0 4709670000.0 5257100000.0 5634600000.0 5855560000.0 5928280000.0 5855560000.0 5634600000.0 5257100000.0 4709670000.0 3974960000.0 3033310000.0 1863070000.0 437611000.0 1281000000.0 3348220000.0 5840430000.0 8855560000.0 12508600000.0 16923300000.0 22236300000.0 28606800000.0 36181000000.0 45047100000.0 55312800000.0 67185100000.0 80917700000.0 97103000000.0 117213000000.0 142839000000.0 173910000000.0 127666000000.0 188213000000.0 93849800000.0 101057000000.0 136842000000.0 71443200000.0 125022000000.0 91909700000.0 86695800000.0 34785900000.0 131148000000.0 13090000000.0 36523400000.0 135078000000.0 56597400000.0 64863100000.0 47428800000.0 199477000000.0 69438600000.0 96830100000.0 34028900000.0 283404000000.0 8395370000.0 60683300000.0 9035750000.0 9035750000.0 9035750000.0 9035750000.0 9035750000.0 9035750000.0 9035750000.0 9035750000.0 9035750000.0 9035750000.0 9035750000.0 9035750000.0 9035750000.0 9035750000.0 9035750000.0 9035750000.0 9035760000.0 9035760000.0 9035760000.0 9035760000.0 9035750000.0 9035750000.0 9035750000.0 9035750000.0 9035750000.0 9035750000.0 9035750000.0 9035750000.0 9035750000.0 9035750000.0 9035750000.0 9035760000.0 9035760000.0 9035760000.0 9035760000.0 9035750000.0 9035750000.0 9035750000.0 9035750000.0 9035750000.0 9035750000.0 9035750000.0 9035750000.0 9035750000.0 9035750000.0 9035750000.0 9035750000.0 9035750000.0 9035750000.0 9035750000.0 9035750000.0 60683300000.0 8395370000.0 283404000000.0 34028900000.0 96830100000.0 69438600000.0 199477000000.0 47428800000.0 64863100000.0 56597400000.0 135078000000.0 36523400000.0 55964400000.0 129603000000.0 109978000000.0 95572000000.0 102729000000.0 216227000000.0 30747200000.0 101857000000.0 22401500000.0 250548000000.0 18552900000.0 22620000000.0 8343230000.0 4485390000.0 1468410000.0 892250000.0 2708450000.0 4108390000.0 5205410000.0 6066680000.0 6736920000.0 7260110000.0 7673820000.0 8002650000.0 8262990000.0 8467550000.0 8626730000.0 8748930000.0 8840430000.0 8906080000.0 8951040000.0 8980940000.0 9000600000.0 9013290000.0 9021070000.0 9025410000.0 9027490000.0 9028090000.0 9027490000.0 9025410000.0 9021070000.0 9013290000.0 9000600000.0 8980940000.0 8951040000.0 8906080000.0 8840430000.0 8748930000.0 8626730000.0 8467550000.0 8262990000.0 8002650000.0 7673820000.0 7260110000.0 6736920000.0 6066680000.0 5205410000.0 4108390000.0 2708450000.0 892250000.0 1468410000.0 4485390000.0 8343230000.0 22620000000.0 18552900000.0 250548000000.0 22401500000.0 101857000000.0 30747200000.0 216227000000.0 102729000000.0 95572000000.0 109978000000.0 129603000000.0 55964400000.0 57151800000.0 93346100000.0 107014000000.0 71291800000.0 89075100000.0 211187000000.0 46444300000.0 147266000000.0 41352300000.0 243311000000.0 9004390000.0 32158500000.0 9036130000.0 9036040000.0 9035970000.0 9035920000.0 9035900000.0 9035910000.0 9035920000.0 9035910000.0 9035890000.0 9035870000.0 9035850000.0 9035830000.0 9035810000.0 9035800000.0 9035790000.0 9035790000.0 9035780000.0 9035770000.0 9035770000.0 9035770000.0 9035760000.0 9035760000.0 9035760000.0 9035750000.0 9035750000.0 9035750000.0 9035750000.0 9035750000.0 9035760000.0 9035760000.0 9035760000.0 9035770000.0 9035770000.0 9035770000.0 9035780000.0 9035790000.0 9035790000.0 9035800000.0 9035810000.0 9035830000.0 9035850000.0 9035870000.0 9035890000.0 9035910000.0 9035920000.0 9035910000.0 9035900000.0 9035920000.0 9035970000.0 9036040000.0 9036130000.0 32158500000.0 9004390000.0 243311000000.0 41352300000.0 147266000000.0 46444300000.0 211187000000.0 89075100000.0 71291800000.0 107014000000.0 93346100000.0 57151800000.0 61368400000.0 74574900000.0 109676000000.0 63853900000.0 88011600000.0 193623000000.0 40250800000.0 155016000000.0 36902500000.0 208141000000.0 9037480000.0 23324800000.0 9036810000.0 9036550000.0 9036360000.0 9036230000.0 9036150000.0 9036100000.0 9036050000.0 9036000000.0 9035960000.0 9035920000.0 9035880000.0 9035860000.0 9035840000.0 9035820000.0 9035810000.0 9035800000.0 9035790000.0 9035780000.0 9035780000.0 9035770000.0 9035770000.0 9035760000.0 9035760000.0 9035760000.0 9035750000.0 9035750000.0 9035750000.0 9035760000.0 9035760000.0 9035760000.0 9035770000.0 9035770000.0 9035780000.0 9035780000.0 9035790000.0 9035800000.0 9035810000.0 9035820000.0 9035840000.0 9035860000.0 9035880000.0 9035920000.0 9035960000.0 9036000000.0 9036050000.0 9036100000.0 9036150000.0 9036230000.0 9036360000.0 9036550000.0 9036810000.0 23324800000.0 9037480000.0 208141000000.0 36902500000.0 155016000000.0 40250800000.0 193623000000.0 88011600000.0 63853900000.0 109676000000.0 74574900000.0 61368400000.0 54303600000.0 79740400000.0 35732300000.0 154305000000.0 30931800000.0 173419000000.0 9038620000.0 17385000000.0 9037460000.0 9037040000.0 9036730000.0 9036520000.0 9036380000.0 9036260000.0 9036160000.0 9036080000.0 9036010000.0 9035960000.0 9035920000.0 9035880000.0 9035860000.0 9035840000.0 9035820000.0 9035810000.0 9035800000.0 9035790000.0 9035780000.0 9035770000.0 9035770000.0 9035760000.0 9035760000.0 9035760000.0 9035750000.0 9035750000.0 9035750000.0 9035760000.0 9035760000.0 9035760000.0 9035770000.0 9035770000.0 9035780000.0 9035790000.0 9035800000.0 9035810000.0 9035820000.0 9035840000.0 9035860000.0 9035880000.0 9035920000.0 9035960000.0 9036010000.0 9036080000.0 9036160000.0 9036260000.0 9036380000.0 9036520000.0 9036730000.0 9037040000.0 9037460000.0 17385000000.0 9038620000.0 173419000000.0 30931800000.0 154305000000.0 35732300000.0 79740400000.0 54303600000.0 63777600000.0 60238000000.0 105302000000.0 174338000000.0 174338000000.0 105302000000.0 60238000000.0 63777600000.0 65838600000.0 52185200000.0 100069000000.0 47654100000.0 72838500000.0 156624000000.0 31432100000.0 148253000000.0 25171000000.0 140984000000.0 9039690000.0 13681300000.0 9038060000.0 9037490000.0 9037070000.0 9036780000.0 9036560000.0 9036380000.0 9036250000.0 9036140000.0 9036060000.0 9035990000.0 9035950000.0 9035910000.0 9035880000.0 9035860000.0 9035840000.0 9035820000.0 9035810000.0 9035800000.0 9035790000.0 9035780000.0 9035770000.0 9035770000.0 9035760000.0 9035760000.0 9035750000.0 9035750000.0 9035750000.0 9035760000.0 9035760000.0 9035770000.0 9035770000.0 9035780000.0 9035790000.0 9035800000.0 9035810000.0 9035820000.0 9035840000.0 9035860000.0 9035880000.0 9035910000.0 9035950000.0 9035990000.0 9036060000.0 9036140000.0 9036250000.0 9036380000.0 9036560000.0 9036780000.0 9037070000.0 9037490000.0 9038060000.0 13681300000.0 9039690000.0 140984000000.0 25171000000.0 148253000000.0 31432100000.0 156624000000.0 72838500000.0 47654100000.0 100069000000.0 52185200000.0 65838600000.0 28174300000.0 20210000000.0 111672000000.0 9040690000.0 11532800000.0 9038610000.0 9037890000.0 9037380000.0 9036990000.0 9036710000.0 9036490000.0 9036320000.0 9036190000.0 9036100000.0 9036030000.0 9035970000.0 9035930000.0 9035900000.0 9035870000.0 9035850000.0 9035830000.0 9035820000.0 9035800000.0 9035790000.0 9035780000.0 9035770000.0 9035770000.0 9035760000.0 9035760000.0 9035750000.0 9035750000.0 9035750000.0 9035760000.0 9035760000.0 9035770000.0 9035770000.0 9035780000.0 9035790000.0 9035800000.0 9035820000.0 9035830000.0 9035850000.0 9035870000.0 9035900000.0 9035930000.0 9035970000.0 9036030000.0 9036100000.0 9036190000.0 9036320000.0 9036490000.0 9036710000.0 9036990000.0 9037380000.0 9037890000.0 9038610000.0 11532800000.0 9040690000.0 111672000000.0 20210000000.0 28174300000.0 67334300000.0 48436000000.0 94323800000.0 43330600000.0 66005000000.0 140589000000.0 138525000000.0 138525000000.0 140589000000.0 66005000000.0 43330600000.0 94323800000.0 48436000000.0 67334300000.0 68022400000.0 47464400000.0 88164800000.0 41068300000.0 59443500000.0 126521000000.0 25618900000.0 126499000000.0 16280400000.0 86427900000.0 9041610000.0 10342700000.0 9039100000.0 9038240000.0 9037630000.0 9037170000.0 9036830000.0 9036570000.0 9036380000.0 9036240000.0 9036140000.0 9036060000.0 9036000000.0 9035950000.0 9035920000.0 9035890000.0 9035860000.0 9035840000.0 9035820000.0 9035810000.0 9035800000.0 9035790000.0 9035780000.0 9035770000.0 9035760000.0 9035760000.0 9035750000.0 9035750000.0 9035750000.0 9035760000.0 9035760000.0 9035770000.0 9035780000.0 9035790000.0 9035800000.0 9035810000.0 9035820000.0 9035840000.0 9035860000.0 9035890000.0 9035920000.0 9035950000.0 9036000000.0 9036060000.0 9036140000.0 9036240000.0 9036380000.0 9036570000.0 9036830000.0 9037170000.0 9037630000.0 9038240000.0 9039100000.0 10342700000.0 9041610000.0 86427900000.0 16280400000.0 126499000000.0 25618900000.0 126521000000.0 59443500000.0 41068300000.0 88164800000.0 47464400000.0 68022400000.0 67813800000.0 47970200000.0 81744300000.0 40544600000.0 53560100000.0 114155000000.0 23281700000.0 113312000000.0 13411600000.0 65846900000.0 9042430000.0 9697120000.0 9039510000.0 9038530000.0 9037830000.0 9037310000.0 9036930000.0 9036650000.0 9036440000.0 9036280000.0 9036170000.0 9036090000.0 9036020000.0 9035970000.0 9035930000.0 9035900000.0 9035870000.0 9035850000.0 9035830000.0 9035810000.0 9035800000.0 9035790000.0 9035780000.0 9035770000.0 9035760000.0 9035760000.0 9035750000.0 9035750000.0 9035750000.0 9035760000.0 9035760000.0 9035770000.0 9035780000.0 9035790000.0 9035800000.0 9035810000.0 9035830000.0 9035850000.0 9035870000.0 9035900000.0 9035930000.0 9035970000.0 9036020000.0 9036090000.0 9036170000.0 9036280000.0 9036440000.0 9036650000.0 9036930000.0 9037310000.0 9037830000.0 9038530000.0 9039510000.0 9697120000.0 9042430000.0 65846900000.0 13411600000.0 113312000000.0 23281700000.0 114155000000.0 53560100000.0 40544600000.0 81744300000.0 47970200000.0 67813800000.0 66795800000.0 48903800000.0 75257600000.0 40955000000.0 48539500000.0 103058000000.0 20958600000.0 99865300000.0 11490100000.0 49872300000.0 9043150000.0 9352010000.0 9039860000.0 9038760000.0 9037990000.0 9037420000.0 9037010000.0 9036710000.0 9036480000.0 9036320000.0 9036200000.0 9036110000.0 9036040000.0 9035990000.0 9035940000.0 9035910000.0 9035880000.0 9035850000.0 9035830000.0 9035820000.0 9035800000.0 9035790000.0 9035780000.0 9035770000.0 9035760000.0 9035760000.0 9035750000.0 9035750000.0 9035750000.0 9035760000.0 9035760000.0 9035770000.0 9035780000.0 9035790000.0 9035800000.0 9035820000.0 9035830000.0 9035850000.0 9035880000.0 9035910000.0 9035940000.0 9035990000.0 9036040000.0 9036110000.0 9036200000.0 9036320000.0 9036480000.0 9036710000.0 9037010000.0 9037420000.0 9037990000.0 9038760000.0 9039860000.0 9352010000.0 9043150000.0 49872300000.0 11490100000.0 99865300000.0 20958600000.0 103058000000.0 48539500000.0 40955000000.0 75257600000.0 48903800000.0 66795800000.0 65139900000.0 49624000000.0 68881800000.0 41497500000.0 44297800000.0 92851500000.0 18688800000.0 86829700000.0 10301200000.0 37944300000.0 9043760000.0 9175040000.0 9040130000.0 9038950000.0 9038120000.0 9037510000.0 9037080000.0 9036760000.0 9036520000.0 9036350000.0 9036220000.0 9036130000.0 9036060000.0 9036000000.0 9035950000.0 9035910000.0 9035880000.0 9035860000.0 9035840000.0 9035820000.0 9035810000.0 9035790000.0 9035780000.0 9035770000.0 9035760000.0 9035760000.0 9035750000.0 9035750000.0 9035750000.0 9035760000.0 9035760000.0 9035770000.0 9035780000.0 9035790000.0 9035810000.0 9035820000.0 9035840000.0 9035860000.0 9035880000.0 9035910000.0 9035950000.0 9036000000.0 9036060000.0 9036130000.0 9036220000.0 9036350000.0 9036520000.0 9036760000.0 9037080000.0 9037510000.0 9038120000.0 9038950000.0 9040130000.0 9175040000.0 9043760000.0 37944300000.0 10301200000.0 86829700000.0 18688800000.0 92851500000.0 44297800000.0 41497500000.0 68881800000.0 49624000000.0 65139900000.0 63023800000.0 49872200000.0 62769400000.0 41738700000.0 40660200000.0 83313300000.0 16577600000.0 74663000000.0 9624510000.0 29285000000.0 9044260000.0 9092320000.0 9040340000.0 9039090000.0 9038220000.0 9037580000.0 9037130000.0 9036800000.0 9036550000.0 9036380000.0 9036240000.0 9036140000.0 9036070000.0 9036010000.0 9035960000.0 9035920000.0 9035890000.0 9035860000.0 9035840000.0 9035820000.0 9035810000.0 9035790000.0 9035780000.0 9035770000.0 9035760000.0 9035760000.0 9035750000.0 9035750000.0 9035750000.0 9035760000.0 9035760000.0 9035770000.0 9035780000.0 9035790000.0 9035810000.0 9035820000.0 9035840000.0 9035860000.0 9035890000.0 9035920000.0 9035960000.0 9036010000.0 9036070000.0 9036140000.0 9036240000.0 9036380000.0 9036550000.0 9036800000.0 9037130000.0 9037580000.0 9038220000.0 9039090000.0 9040340000.0 9092320000.0 9044260000.0 29285000000.0 9624510000.0 74663000000.0 16577600000.0 83313300000.0 40660200000.0 41738700000.0 62769400000.0 49872200000.0 63023800000.0 60598500000.0 49608200000.0 57042400000.0 41547600000.0 37441000000.0 74354100000.0 14711200000.0 63643000000.0 9281190000.0 23117400000.0 9044650000.0 9058670000.0 9040490000.0 9039190000.0 9038290000.0 9037640000.0 9037170000.0 9036830000.0 9036580000.0 9036390000.0 9036260000.0 9036150000.0 9036070000.0 9036010000.0 9035960000.0 9035920000.0 9035890000.0 9035860000.0 9035840000.0 9035820000.0 9035810000.0 9035790000.0 9035780000.0 9035770000.0 9035760000.0 9035760000.0 9035750000.0 9035750000.0 9035750000.0 9035760000.0 9035760000.0 9035770000.0 9035780000.0 9035790000.0 9035810000.0 9035820000.0 9035840000.0 9035860000.0 9035890000.0 9035920000.0 9035960000.0 9036010000.0 9036070000.0 9036150000.0 9036260000.0 9036390000.0 9036580000.0 9036830000.0 9037170000.0 9037640000.0 9038290000.0 9039190000.0 9040490000.0 9058670000.0 9044650000.0 23117400000.0 9281190000.0 63643000000.0 14711200000.0 74354100000.0 37441000000.0 41547600000.0 57042400000.0 49608200000.0 60598500000.0 57979500000.0 48878000000.0 51781700000.0 40930500000.0 34486300000.0 65963100000.0 13142200000.0 53904900000.0 9131660000.0 18778900000.0 9044920000.0 9047040000.0 9040580000.0 9039250000.0 9038330000.0 9037670000.0 9037190000.0 9036850000.0 9036590000.0 9036400000.0 9036260000.0 9036160000.0 9036080000.0 9036020000.0 9035970000.0 9035930000.0 9035890000.0 9035870000.0 9035840000.0 9035820000.0 9035810000.0 9035790000.0 9035780000.0 9035770000.0 9035760000.0 9035760000.0 9035750000.0 9035750000.0 9035750000.0 9035760000.0 9035760000.0 9035770000.0 9035780000.0 9035790000.0 9035810000.0 9035820000.0 9035840000.0 9035870000.0 9035890000.0 9035930000.0 9035970000.0 9036020000.0 9036080000.0 9036160000.0 9036260000.0 9036400000.0 9036590000.0 9036850000.0 9037190000.0 9037670000.0 9038330000.0 9039250000.0 9040580000.0 9047040000.0 9044920000.0 18778900000.0 9131660000.0 53904900000.0 13142200000.0 65963100000.0 34486300000.0 40930500000.0 51781700000.0 48878000000.0 57979500000.0 55250100000.0 47753200000.0 47025600000.0 39937700000.0 31705600000.0 58164700000.0 11889500000.0 45476000000.0 9076970000.0 15751800000.0 9045090000.0 9043660000.0 9040630000.0 9039290000.0 9038360000.0 9037690000.0 9037210000.0 9036860000.0 9036600000.0 9036410000.0 9036270000.0 9036160000.0 9036080000.0 9036020000.0 9035970000.0 9035930000.0 9035890000.0 9035870000.0 9035840000.0 9035820000.0 9035810000.0 9035790000.0 9035780000.0 9035770000.0 9035760000.0 9035760000.0 9035750000.0 9035750000.0 9035750000.0 9035760000.0 9035760000.0 9035770000.0 9035780000.0 9035790000.0 9035810000.0 9035820000.0 9035840000.0 9035870000.0 9035890000.0 9035930000.0 9035970000.0 9036020000.0 9036080000.0 9036160000.0 9036270000.0 9036410000.0 9036600000.0 9036860000.0 9037210000.0 9037690000.0 9038360000.0 9039290000.0 9040630000.0 9043660000.0 9045090000.0 15751800000.0 9076970000.0 45476000000.0 11889500000.0 58164700000.0 31705600000.0 39937700000.0 47025600000.0 47753200000.0 55250100000.0 52469500000.0 46308800000.0 42777200000.0 38630900000.0 29068600000.0 50992600000.0 10940500000.0 38309600000.0 9060260000.0 13651500000.0 9045170000.0 9042800000.0 9040640000.0 9039290000.0 9038360000.0 9037690000.0 9037200000.0 9036850000.0 9036590000.0 9036410000.0 9036260000.0 9036160000.0 9036080000.0 9036010000.0 9035960000.0 9035920000.0 9035890000.0 9035860000.0 9035840000.0 9035820000.0 9035810000.0 9035790000.0 9035780000.0 9035770000.0 9035760000.0 9035760000.0 9035750000.0 9035750000.0 9035750000.0 9035760000.0 9035760000.0 9035770000.0 9035780000.0 9035790000.0 9035810000.0 9035820000.0 9035840000.0 9035860000.0 9035890000.0 9035920000.0 9035960000.0 9036010000.0 9036080000.0 9036160000.0 9036260000.0 9036410000.0 9036590000.0 9036850000.0 9037200000.0 9037690000.0 9038360000.0 9039290000.0 9040640000.0 9042800000.0 9045170000.0 13651500000.0 9060260000.0 38309600000.0 10940500000.0 50992600000.0 29068600000.0 38630900000.0 42777200000.0 46308800000.0 52469500000.0 49681200000.0 44617300000.0 39014200000.0 37073600000.0 26579800000.0 44475900000.0 10258000000.0 32311800000.0 9055890000.0 12199400000.0 9045140000.0 9042570000.0 9040600000.0 9039260000.0 9038340000.0 9037670000.0 9037190000.0 9036840000.0 9036590000.0 9036400000.0 9036260000.0 9036150000.0 9036070000.0 9036010000.0 9035960000.0 9035920000.0 9035890000.0 9035860000.0 9035840000.0 9035820000.0 9035810000.0 9035790000.0 9035780000.0 9035770000.0 9035760000.0 9035760000.0 9035750000.0 9035750000.0 9035750000.0 9035760000.0 9035760000.0 9035770000.0 9035780000.0 9035790000.0 9035810000.0 9035820000.0 9035840000.0 9035860000.0 9035890000.0 9035920000.0 9035960000.0 9036010000.0 9036070000.0 9036150000.0 9036260000.0 9036400000.0 9036590000.0 9036840000.0 9037190000.0 9037670000.0 9038340000.0 9039260000.0 9040600000.0 9042570000.0 9045140000.0 12199400000.0 9055890000.0 32311800000.0 10258000000.0 44475900000.0 26579800000.0 37073600000.0 39014200000.0 44617300000.0 49681200000.0 46918100000.0 42745300000.0 35698700000.0 35327900000.0 24255500000.0 38634100000.0 9791360000.0 27362500000.0 9054760000.0 11197700000.0 9045040000.0 9042440000.0 9040530000.0 9039210000.0 9038300000.0 9037640000.0 9037170000.0 9036820000.0 9036570000.0 9036390000.0 9036250000.0 9036140000.0 9036070000.0 9036000000.0 9035960000.0 9035920000.0 9035880000.0 9035860000.0 9035840000.0 9035820000.0 9035800000.0 9035790000.0 9035780000.0 9035770000.0 9035760000.0 9035760000.0 9035750000.0 9035750000.0 9035750000.0 9035760000.0 9035760000.0 9035770000.0 9035780000.0 9035790000.0 9035800000.0 9035820000.0 9035840000.0 9035860000.0 9035880000.0 9035920000.0 9035960000.0 9036000000.0 9036070000.0 9036140000.0 9036250000.0 9036390000.0 9036570000.0 9036820000.0 9037170000.0 9037640000.0 9038300000.0 9039210000.0 9040530000.0 9042440000.0 9045040000.0 11197700000.0 9054760000.0 27362500000.0 9791360000.0 38634100000.0 24255500000.0 35327900000.0 35698700000.0 42745300000.0 46918100000.0 44206600000.0 40752600000.0 32784200000.0 33452600000.0 22111200000.0 33473500000.0 9487620000.0 23330900000.0 9054250000.0 10507800000.0 9044860000.0 9042290000.0 9040420000.0 9039130000.0 9038240000.0 9037600000.0 9037130000.0 9036800000.0 9036550000.0 9036370000.0 9036230000.0 9036130000.0 9036060000.0 9036000000.0 9035950000.0 9035910000.0 9035880000.0 9035850000.0 9035830000.0 9035820000.0 9035800000.0 9035790000.0 9035780000.0 9035770000.0 9035760000.0 9035760000.0 9035750000.0 9035750000.0 9035750000.0 9035760000.0 9035760000.0 9035770000.0 9035780000.0 9035790000.0 9035800000.0 9035820000.0 9035830000.0 9035850000.0 9035880000.0 9035910000.0 9035950000.0 9036000000.0 9036060000.0 9036130000.0 9036230000.0 9036370000.0 9036550000.0 9036800000.0 9037130000.0 9037600000.0 9038240000.0 9039130000.0 9040420000.0 9042290000.0 9044860000.0 10507800000.0 9054250000.0 23330900000.0 9487620000.0 33473500000.0 22111200000.0 33452600000.0 32784200000.0 40752600000.0 44206600000.0 41569200000.0 38691200000.0 30221600000.0 31501800000.0 20158600000.0 28984600000.0 9299440000.0 20085900000.0 9053760000.0 10033400000.0 9044620000.0 9042100000.0 9040290000.0 9039030000.0 9038170000.0 9037540000.0 9037090000.0 9036770000.0 9036520000.0 9036350000.0 9036220000.0 9036120000.0 9036050000.0 9035990000.0 9035940000.0 9035900000.0 9035870000.0 9035850000.0 9035830000.0 9035810000.0 9035800000.0 9035790000.0 9035780000.0 9035770000.0 9035760000.0 9035760000.0 9035750000.0 9035750000.0 9035750000.0 9035760000.0 9035760000.0 9035770000.0 9035780000.0 9035790000.0 9035800000.0 9035810000.0 9035830000.0 9035850000.0 9035870000.0 9035900000.0 9035940000.0 9035990000.0 9036050000.0 9036120000.0 9036220000.0 9036350000.0 9036520000.0 9036770000.0 9037090000.0 9037540000.0 9038170000.0 9039030000.0 9040290000.0 9042100000.0 9044620000.0 10033400000.0 9053760000.0 20085900000.0 9299440000.0 28984600000.0 20158600000.0 31501800000.0 30221600000.0 38691200000.0 41569200000.0 39024800000.0 36605500000.0 27963000000.0 29523900000.0 18403800000.0 25140900000.0 9188590000.0 17503100000.0 9053170000.0 9708100000.0 9044320000.0 9041880000.0 9040130000.0 9038920000.0 9038080000.0 9037480000.0 9037040000.0 9036730000.0 9036490000.0 9036320000.0 9036200000.0 9036100000.0 9036030000.0 9035980000.0 9035930000.0 9035900000.0 9035870000.0 9035840000.0 9035830000.0 9035810000.0 9035800000.0 9035790000.0 9035780000.0 9035770000.0 9035760000.0 9035760000.0 9035750000.0 9035750000.0 9035750000.0 9035760000.0 9035760000.0 9035770000.0 9035780000.0 9035790000.0 9035800000.0 9035810000.0 9035830000.0 9035840000.0 9035870000.0 9035900000.0 9035930000.0 9035980000.0 9036030000.0 9036100000.0 9036200000.0 9036320000.0 9036490000.0 9036730000.0 9037040000.0 9037480000.0 9038080000.0 9038920000.0 9040130000.0 9041880000.0 9044320000.0 9708100000.0 9053170000.0 17503100000.0 9188590000.0 25140900000.0 18403800000.0 29523900000.0 27963000000.0 36605500000.0 39024800000.0 36588700000.0 34531900000.0 25963900000.0 27560800000.0 16847500000.0 21899500000.0 9126650000.0 15468800000.0 9052490000.0 9485900000.0 9043970000.0 9041630000.0 9039950000.0 9038780000.0 9037980000.0 9037400000.0 9036980000.0 9036680000.0 9036460000.0 9036300000.0 9036180000.0 9036090000.0 9036020000.0 9035970000.0 9035920000.0 9035890000.0 9035860000.0 9035840000.0 9035820000.0 9035810000.0 9035790000.0 9035780000.0 9035770000.0 9035770000.0 9035760000.0 9035760000.0 9035750000.0 9035750000.0 9035750000.0 9035760000.0 9035760000.0 9035770000.0 9035770000.0 9035780000.0 9035790000.0 9035810000.0 9035820000.0 9035840000.0 9035860000.0 9035890000.0 9035920000.0 9035970000.0 9036020000.0 9036090000.0 9036180000.0 9036300000.0 9036460000.0 9036680000.0 9036980000.0 9037400000.0 9037980000.0 9038780000.0 9039950000.0 9041630000.0 9043970000.0 9485900000.0 9052490000.0 15468800000.0 9126650000.0 21899500000.0 16847500000.0 27560800000.0 25963900000.0 34531900000.0 36588700000.0 34272400000.0 32499900000.0 24185300000.0 25647700000.0 15485300000.0 19205800000.0 9093840000.0 13882300000.0 9051730000.0 9335010000.0 9043590000.0 9041350000.0 9039750000.0 9038640000.0 9037870000.0 9037320000.0 9036920000.0 9036640000.0 9036420000.0 9036270000.0 9036150000.0 9036070000.0 9036000000.0 9035950000.0 9035910000.0 9035880000.0 9035850000.0 9035830000.0 9035820000.0 9035800000.0 9035790000.0 9035780000.0 9035770000.0 9035770000.0 9035760000.0 9035760000.0 9035750000.0 9035750000.0 9035750000.0 9035760000.0 9035760000.0 9035770000.0 9035770000.0 9035780000.0 9035790000.0 9035800000.0 9035820000.0 9035830000.0 9035850000.0 9035880000.0 9035910000.0 9035950000.0 9036000000.0 9036070000.0 9036150000.0 9036270000.0 9036420000.0 9036640000.0 9036920000.0 9037320000.0 9037870000.0 9038640000.0 9039750000.0 9041350000.0 9043590000.0 9335010000.0 9051730000.0 13882300000.0 9093840000.0 19205800000.0 15485300000.0 25647700000.0 24185300000.0 32499900000.0 34272400000.0 32083400000.0 30532200000.0 22593400000.0 23813000000.0 14308600000.0 16998100000.0 9077210000.0 12656900000.0 9050910000.0 9233330000.0 9043180000.0 9041050000.0 9039540000.0 9038490000.0 9037760000.0 9037230000.0 9036860000.0 9036590000.0 9036390000.0 9036240000.0 9036130000.0 9036050000.0 9035990000.0 9035940000.0 9035900000.0 9035870000.0 9035850000.0 9035830000.0 9035810000.0 9035800000.0 9035790000.0 9035780000.0 9035770000.0 9035760000.0 9035760000.0 9035760000.0 9035750000.0 9035750000.0 9035750000.0 9035760000.0 9035760000.0 9035760000.0 9035770000.0 9035780000.0 9035790000.0 9035800000.0 9035810000.0 9035830000.0 9035850000.0 9035870000.0 9035900000.0 9035940000.0 9035990000.0 9036050000.0 9036130000.0 9036240000.0 9036390000.0 9036590000.0 9036860000.0 9037230000.0 9037760000.0 9038490000.0 9039540000.0 9041050000.0 9043180000.0 9233330000.0 9050910000.0 12656900000.0 9077210000.0 16998100000.0 14308600000.0 23813000000.0 22593400000.0 30532200000.0 32083400000.0 30025600000.0 28646000000.0 21160500000.0 22078700000.0 13305000000.0 15212000000.0 9068890000.0 11719100000.0 9050050000.0 9165440000.0 9042750000.0 9040750000.0 9039320000.0 9038330000.0 9037640000.0 9037150000.0 9036790000.0 9036530000.0 9036350000.0 9036210000.0 9036110000.0 9036030000.0 9035970000.0 9035930000.0 9035890000.0 9035860000.0 9035840000.0 9035820000.0 9035810000.0 9035800000.0 9035790000.0 9035780000.0 9035770000.0 9035760000.0 9035760000.0 9035760000.0 9035750000.0 9035750000.0 9035750000.0 9035760000.0 9035760000.0 9035760000.0 9035770000.0 9035780000.0 9035790000.0 9035800000.0 9035810000.0 9035820000.0 9035840000.0 9035860000.0 9035890000.0 9035930000.0 9035970000.0 9036030000.0 9036110000.0 9036210000.0 9036350000.0 9036530000.0 9036790000.0 9037150000.0 9037640000.0 9038330000.0 9039320000.0 9040750000.0 9042750000.0 9165440000.0 9050050000.0 11719100000.0 9068890000.0 15212000000.0 13305000000.0 22078700000.0 21160500000.0 28646000000.0 30025600000.0 28099700000.0 26853400000.0 19864400000.0 20460600000.0 12459700000.0 13784600000.0 9064470000.0 11007800000.0 9049160000.0 9120580000.0 9042310000.0 9040430000.0 9039090000.0 9038160000.0 9037520000.0 9037050000.0 9036720000.0 9036480000.0 9036300000.0 9036180000.0 9036080000.0 9036010000.0 9035960000.0 9035910000.0 9035880000.0 9035850000.0 9035830000.0 9035820000.0 9035800000.0 9035790000.0 9035780000.0 9035770000.0 9035770000.0 9035760000.0 9035760000.0 9035760000.0 9035750000.0 9035750000.0 9035750000.0 9035760000.0 9035760000.0 9035760000.0 9035770000.0 9035770000.0 9035780000.0 9035790000.0 9035800000.0 9035820000.0 9035830000.0 9035850000.0 9035880000.0 9035910000.0 9035960000.0 9036010000.0 9036080000.0 9036180000.0 9036300000.0 9036480000.0 9036720000.0 9037050000.0 9037520000.0 9038160000.0 9039090000.0 9040430000.0 9042310000.0 9120580000.0 9049160000.0 11007800000.0 9064470000.0 13784600000.0 12459700000.0 20460600000.0 19864400000.0 26853400000.0 28099700000.0 26304200000.0 25162500000.0 18687300000.0 18969000000.0 11756300000.0 12656900000.0 9061710000.0 10473300000.0 9048260000.0 9091260000.0 9041860000.0 9040110000.0 9038860000.0 9037990000.0 9037390000.0 9036960000.0 9036650000.0 9036430000.0 9036260000.0 9036140000.0 9036060000.0 9035990000.0 9035940000.0 9035900000.0 9035870000.0 9035850000.0 9035830000.0 9035810000.0 9035800000.0 9035790000.0 9035780000.0 9035770000.0 9035770000.0 9035760000.0 9035760000.0 9035760000.0 9035750000.0 9035750000.0 9035750000.0 9035760000.0 9035760000.0 9035760000.0 9035770000.0 9035770000.0 9035780000.0 9035790000.0 9035800000.0 9035810000.0 9035830000.0 9035850000.0 9035870000.0 9035900000.0 9035940000.0 9035990000.0 9036060000.0 9036140000.0 9036260000.0 9036430000.0 9036650000.0 9036960000.0 9037390000.0 9037990000.0 9038860000.0 9040110000.0 9041860000.0 9091260000.0 9048260000.0 10473300000.0 9061710000.0 12656900000.0 11756300000.0 18969000000.0 18687300000.0 25162500000.0 26304200000.0 24635900000.0 23577800000.0 17615800000.0 17609400000.0 11177800000.0 11775600000.0 9059590000.0 10075100000.0 9047350000.0 9072330000.0 9041420000.0 9039790000.0 9038630000.0 9037830000.0 9037270000.0 9036870000.0 9036580000.0 9036380000.0 9036220000.0 9036110000.0 9036030000.0 9035970000.0 9035920000.0 9035890000.0 9035860000.0 9035840000.0 9035820000.0 9035810000.0 9035790000.0 9035780000.0 9035780000.0 9035770000.0 9035770000.0 9035760000.0 9035760000.0 9035750000.0 9035750000.0 9035750000.0 9035750000.0 9035750000.0 9035760000.0 9035760000.0 9035770000.0 9035770000.0 9035780000.0 9035780000.0 9035790000.0 9035810000.0 9035820000.0 9035840000.0 9035860000.0 9035890000.0 9035920000.0 9035970000.0 9036030000.0 9036110000.0 9036220000.0 9036380000.0 9036580000.0 9036870000.0 9037270000.0 9037830000.0 9038630000.0 9039790000.0 9041420000.0 9072330000.0 9047350000.0 10075100000.0 9059590000.0 11775600000.0 11177800000.0 17609400000.0 17615800000.0 23577800000.0 24635900000.0 23090400000.0 22101300000.0 16639200000.0 16383100000.0 10707400000.0 11093700000.0 9057710000.0 9781270000.0 9046460000.0 9060220000.0 9040980000.0 9039470000.0 9038410000.0 9037660000.0 9037150000.0 9036780000.0 9036520000.0 9036330000.0 9036180000.0 9036080000.0 9036010000.0 9035950000.0 9035910000.0 9035880000.0 9035850000.0 9035830000.0 9035810000.0 9035800000.0 9035790000.0 9035780000.0 9035770000.0 9035770000.0 9035760000.0 9035760000.0 9035760000.0 9035750000.0 9035750000.0 9035750000.0 9035750000.0 9035750000.0 9035760000.0 9035760000.0 9035760000.0 9035770000.0 9035770000.0 9035780000.0 9035790000.0 9035800000.0 9035810000.0 9035830000.0 9035850000.0 9035880000.0 9035910000.0 9035950000.0 9036010000.0 9036080000.0 9036180000.0 9036330000.0 9036520000.0 9036780000.0 9037150000.0 9037660000.0 9038410000.0 9039470000.0 9040980000.0 9060220000.0 9046460000.0 9781270000.0 9057710000.0 11093700000.0 10707400000.0 16383100000.0 16639200000.0 22101300000.0 23090400000.0 21662700000.0 20732800000.0 15749400000.0 15288000000.0 10329000000.0 10571200000.0 9055930000.0 9566350000.0 9045580000.0 9052540000.0 9040540000.0 9039160000.0 9038180000.0 9037500000.0 9037030000.0 9036690000.0 9036450000.0 9036280000.0 9036150000.0 9036050000.0 9035980000.0 9035930000.0 9035890000.0 9035860000.0 9035840000.0 9035820000.0 9035810000.0 9035800000.0 9035790000.0 9035780000.0 9035770000.0 9035770000.0 9035760000.0 9035760000.0 9035760000.0 9035750000.0 9035750000.0 9035750000.0 9035750000.0 9035750000.0 9035760000.0 9035760000.0 9035760000.0 9035770000.0 9035770000.0 9035780000.0 9035790000.0 9035800000.0 9035810000.0 9035820000.0 9035840000.0 9035860000.0 9035890000.0 9035930000.0 9035980000.0 9036050000.0 9036150000.0 9036280000.0 9036450000.0 9036690000.0 9037030000.0 9037500000.0 9038180000.0 9039160000.0 9040540000.0 9052540000.0 9045580000.0 9566350000.0 9055930000.0 10571200000.0 10329000000.0 15288000000.0 15749400000.0 20732800000.0 21662700000.0 20347400000.0 19470500000.0 14940100000.0 14319500000.0 10027900000.0 10174300000.0 9054210000.0 9410580000.0 9044730000.0 9047680000.0 9040130000.0 9038870000.0 9037970000.0 9037350000.0 9036920000.0 9036610000.0 9036390000.0 9036230000.0 9036110000.0 9036030000.0 9035960000.0 9035920000.0 9035880000.0 9035850000.0 9035830000.0 9035810000.0 9035800000.0 9035790000.0 9035780000.0 9035780000.0 9035770000.0 9035770000.0 9035760000.0 9035760000.0 9035760000.0 9035750000.0 9035750000.0 9035750000.0 9035750000.0 9035750000.0 9035760000.0 9035760000.0 9035760000.0 9035770000.0 9035770000.0 9035780000.0 9035780000.0 9035790000.0 9035800000.0 9035810000.0 9035830000.0 9035850000.0 9035880000.0 9035920000.0 9035960000.0 9036030000.0 9036110000.0 9036230000.0 9036390000.0 9036610000.0 9036920000.0 9037350000.0 9037970000.0 9038870000.0 9040130000.0 9047680000.0 9044730000.0 9410580000.0 9054210000.0 10174300000.0 10027900000.0 14319500000.0 14940100000.0 19470500000.0 20347400000.0 19138700000.0 18311400000.0 14206000000.0 13470600000.0 9790760000.0 9875260000.0 9052560000.0 9298700000.0 9043910000.0 9044600000.0 9039730000.0 9038580000.0 9037770000.0 9037200000.0 9036810000.0 9036530000.0 9036330000.0 9036180000.0 9036080000.0 9036000000.0 9035940000.0 9035900000.0 9035870000.0 9035840000.0 9035820000.0 9035810000.0 9035800000.0 9035790000.0 9035780000.0 9035770000.0 9035770000.0 9035760000.0 9035760000.0 9035760000.0 9035760000.0 9035750000.0 9035750000.0 9035750000.0 9035750000.0 9035750000.0 9035760000.0 9035760000.0 9035760000.0 9035760000.0 9035770000.0 9035770000.0 9035780000.0 9035790000.0 9035800000.0 9035810000.0 9035820000.0 9035840000.0 9035870000.0 9035900000.0 9035940000.0 9036000000.0 9036080000.0 9036180000.0 9036330000.0 9036530000.0 9036810000.0 9037200000.0 9037770000.0 9038580000.0 9039730000.0 9044600000.0 9043910000.0 9298700000.0 9052560000.0 9875260000.0 9790760000.0 13470600000.0 14206000000.0 18311400000.0 19138700000.0 18031100000.0 17251500000.0 13542300000.0 12733100000.0 9605790000.0 9651720000.0 9050980000.0 9219060000.0 9043130000.0 9042610000.0 9039340000.0 9038310000.0 9037570000.0 9037060000.0 9036710000.0 9036450000.0 9036270000.0 9036140000.0 9036040000.0 9035970000.0 9035920000.0 9035880000.0 9035850000.0 9035830000.0 9035820000.0 9035800000.0 9035790000.0 9035780000.0 9035780000.0 9035770000.0 9035770000.0 9035760000.0 9035760000.0 9035760000.0 9035760000.0 9035750000.0 9035750000.0 9035750000.0 9035750000.0 9035750000.0 9035760000.0 9035760000.0 9035760000.0 9035760000.0 9035770000.0 9035770000.0 9035780000.0 9035780000.0 9035790000.0 9035800000.0 9035820000.0 9035830000.0 9035850000.0 9035880000.0 9035920000.0 9035970000.0 9036040000.0 9036140000.0 9036270000.0 9036450000.0 9036710000.0 9037060000.0 9037570000.0 9038310000.0 9039340000.0 9042610000.0 9043130000.0 9219060000.0 9050980000.0 9651720000.0 9605790000.0 12733100000.0 13542300000.0 17251500000.0 18031100000.0 17018900000.0 16286300000.0 12944900000.0 12097800000.0 9462910000.0 9485760000.0 9049480000.0 9162870000.0 9042390000.0 9041280000.0 9038980000.0 9038050000.0 9037390000.0 9036930000.0 9036610000.0 9036380000.0 9036220000.0 9036100000.0 9036010000.0 9035950000.0 9035900000.0 9035870000.0 9035840000.0 9035820000.0 9035810000.0 9035800000.0 9035790000.0 9035780000.0 9035770000.0 9035770000.0 9035760000.0 9035760000.0 9035760000.0 9035760000.0 9035760000.0 9035750000.0 9035750000.0 9035750000.0 9035750000.0 9035750000.0 9035760000.0 9035760000.0 9035760000.0 9035760000.0 9035760000.0 9035770000.0 9035770000.0 9035780000.0 9035790000.0 9035800000.0 9035810000.0 9035820000.0 9035840000.0 9035870000.0 9035900000.0 9035950000.0 9036010000.0 9036100000.0 9036220000.0 9036380000.0 9036610000.0 9036930000.0 9037390000.0 9038050000.0 9038980000.0 9041280000.0 9042390000.0 9162870000.0 9049480000.0 9485760000.0 9462910000.0 12097800000.0 12944900000.0 16286300000.0 17018900000.0 16096500000.0 15410700000.0 12409800000.0 11555000000.0 9353570000.0 9363350000.0 9048070000.0 9123550000.0 9041700000.0 9040350000.0 9038640000.0 9037810000.0 9037220000.0 9036800000.0 9036520000.0 9036310000.0 9036170000.0 9036060000.0 9035980000.0 9035930000.0 9035890000.0 9035860000.0 9035830000.0 9035810000.0 9035800000.0 9035790000.0 9035780000.0 9035780000.0 9035770000.0 9035770000.0 9035760000.0 9035760000.0 9035760000.0 9035760000.0 9035750000.0 9035750000.0 9035750000.0 9035750000.0 9035750000.0 9035750000.0 9035750000.0 9035760000.0 9035760000.0 9035760000.0 9035760000.0 9035770000.0 9035770000.0 9035780000.0 9035780000.0 9035790000.0 9035800000.0 9035810000.0 9035830000.0 9035860000.0 9035890000.0 9035930000.0 9035980000.0 9036060000.0 9036170000.0 9036310000.0 9036520000.0 9036800000.0 9037220000.0 9037810000.0 9038640000.0 9040350000.0 9041700000.0 9123550000.0 9048070000.0 9363350000.0 9353570000.0 11555000000.0 12409800000.0 15410700000.0 16096500000.0 15258400000.0 14619300000.0 11933000000.0 11094900000.0 9270660000.0 9273560000.0 9046750000.0 9096250000.0 9041050000.0 9039670000.0 9038330000.0 9037580000.0 9037050000.0 9036690000.0 9036430000.0 9036250000.0 9036120000.0 9036030000.0 9035960000.0 9035910000.0 9035870000.0 9035840000.0 9035820000.0 9035810000.0 9035800000.0 9035790000.0 9035780000.0 9035770000.0 9035770000.0 9035760000.0 9035760000.0 9035760000.0 9035760000.0 9035760000.0 9035750000.0 9035750000.0 9035750000.0 9035750000.0 9035750000.0 9035750000.0 9035750000.0 9035760000.0 9035760000.0 9035760000.0 9035760000.0 9035760000.0 9035770000.0 9035770000.0 9035780000.0 9035790000.0 9035800000.0 9035810000.0 9035820000.0 9035840000.0 9035870000.0 9035910000.0 9035960000.0 9036030000.0 9036120000.0 9036250000.0 9036430000.0 9036690000.0 9037050000.0 9037580000.0 9038330000.0 9039670000.0 9041050000.0 9096250000.0 9046750000.0 9273560000.0 9270660000.0 11094900000.0 11933000000.0 14619300000.0 15258400000.0 14499000000.0 13906700000.0 11510300000.0 10708000000.0 9208330000.0 9208040000.0 9045520000.0 9077440000.0 9040460000.0 9039130000.0 9038040000.0 9037370000.0 9036910000.0 9036580000.0 9036350000.0 9036190000.0 9036080000.0 9035990000.0 9035930000.0 9035890000.0 9035860000.0 9035830000.0 9035810000.0 9035800000.0 9035790000.0 9035780000.0 9035780000.0 9035770000.0 9035770000.0 9035760000.0 9035760000.0 9035760000.0 9035760000.0 9035760000.0 9035750000.0 9035750000.0 9035750000.0 9035750000.0 9035750000.0 9035750000.0 9035750000.0 9035760000.0 9035760000.0 9035760000.0 9035760000.0 9035760000.0 9035770000.0 9035770000.0 9035780000.0 9035780000.0 9035790000.0 9035800000.0 9035810000.0 9035830000.0 9035860000.0 9035890000.0 9035930000.0 9035990000.0 9036080000.0 9036190000.0 9036350000.0 9036580000.0 9036910000.0 9037370000.0 9038040000.0 9039130000.0 9040460000.0 9077440000.0 9045520000.0 9208040000.0 9208330000.0 10708000000.0 11510300000.0 13906700000.0 14499000000.0 13812900000.0 13267200000.0 11137800000.0 10385000000.0 9161860000.0 9160440000.0 9044380000.0 9064550000.0 9039900000.0 9038680000.0 9037770000.0 9037180000.0 9036770000.0 9036480000.0 9036280000.0 9036140000.0 9036040000.0 9035960000.0 9035910000.0 9035870000.0 9035840000.0 9035820000.0 9035810000.0 9035790000.0 9035780000.0 9035780000.0 9035770000.0 9035770000.0 9035760000.0 9035760000.0 9035760000.0 9035760000.0 9035760000.0 9035750000.0 9035750000.0 9035750000.0 9035750000.0 9035750000.0 9035750000.0 9035750000.0 9035750000.0 9035750000.0 9035760000.0 9035760000.0 9035760000.0 9035760000.0 9035760000.0 9035770000.0 9035770000.0 9035780000.0 9035780000.0 9035790000.0 9035810000.0 9035820000.0 9035840000.0 9035870000.0 9035910000.0 9035960000.0 9036040000.0 9036140000.0 9036280000.0 9036480000.0 9036770000.0 9037180000.0 9037770000.0 9038680000.0 9039900000.0 9064550000.0 9044380000.0 9160440000.0 9161860000.0 10385000000.0 11137800000.0 13267200000.0 13812900000.0 13194600000.0 12695000000.0 10811300000.0 10117500000.0 9127490000.0 9125960000.0 9043340000.0 9055760000.0 9039390000.0 9038300000.0 9037520000.0 9037010000.0 9036640000.0 9036390000.0 9036220000.0 9036090000.0 9036000000.0 9035940000.0 9035890000.0 9035860000.0 9035830000.0 9035810000.0 9035800000.0 9035790000.0 9035780000.0 9035770000.0 9035770000.0 9035770000.0 9035760000.0 9035760000.0 9035760000.0 9035760000.0 9035760000.0 9035750000.0 9035750000.0 9035750000.0 9035750000.0 9035750000.0 9035750000.0 9035750000.0 9035750000.0 9035750000.0 9035760000.0 9035760000.0 9035760000.0 9035760000.0 9035760000.0 9035770000.0 9035770000.0 9035770000.0 9035780000.0 9035790000.0 9035800000.0 9035810000.0 9035830000.0 9035860000.0 9035890000.0 9035940000.0 9036000000.0 9036090000.0 9036220000.0 9036390000.0 9036640000.0 9037010000.0 9037520000.0 9038300000.0 9039390000.0 9055760000.0 9043340000.0 9125960000.0 9127490000.0 10117500000.0 10811300000.0 12695000000.0 13194600000.0 12638600000.0 12184500000.0 10526600000.0 9897380000.0 9102250000.0 9101050000.0 9042380000.0 9049780000.0 9038930000.0 9037960000.0 9037290000.0 9036840000.0 9036530000.0 9036310000.0 9036160000.0 9036050000.0 9035970000.0 9035910000.0 9035870000.0 9035840000.0 9035820000.0 9035800000.0 9035790000.0 9035780000.0 9035780000.0 9035770000.0 9035770000.0 9035760000.0 9035760000.0 9035760000.0 9035760000.0 9035760000.0 9035760000.0 9035750000.0 9035750000.0 9035750000.0 9035750000.0 9035750000.0 9035750000.0 9035750000.0 9035750000.0 9035750000.0 9035760000.0 9035760000.0 9035760000.0 9035760000.0 9035760000.0 9035760000.0 9035770000.0 9035770000.0 9035780000.0 9035780000.0 9035790000.0 9035800000.0 9035820000.0 9035840000.0 9035870000.0 9035910000.0 9035970000.0 9036050000.0 9036160000.0 9036310000.0 9036530000.0 9036840000.0 9037290000.0 9037960000.0 9038930000.0 9049780000.0 9042380000.0 9101050000.0 9102250000.0 9897380000.0 10526600000.0 12184500000.0 12638600000.0 12139600000.0 11730100000.0 10279600000.0 9717550000.0 9083830000.0 9083090000.0 9041500000.0 9045700000.0 9038510000.0 9037660000.0 9037090000.0 9036700000.0 9036420000.0 9036230000.0 9036100000.0 9036010000.0 9035940000.0 9035890000.0 9035850000.0 9035830000.0 9035810000.0 9035800000.0 9035790000.0 9035780000.0 9035770000.0 9035770000.0 9035760000.0 9035760000.0 9035760000.0 9035760000.0 9035760000.0 9035760000.0 9035750000.0 9035750000.0 9035750000.0 9035750000.0 9035750000.0 9035750000.0 9035750000.0 9035750000.0 9035750000.0 9035750000.0 9035750000.0 9035760000.0 9035760000.0 9035760000.0 9035760000.0 9035760000.0 9035760000.0 9035770000.0 9035770000.0 9035780000.0 9035790000.0 9035800000.0 9035810000.0 9035830000.0 9035850000.0 9035890000.0 9035940000.0 9036010000.0 9036100000.0 9036230000.0 9036420000.0 9036700000.0 9037090000.0 9037660000.0 9038510000.0 9045700000.0 9041500000.0 9083090000.0 9083830000.0 9717550000.0 10279600000.0 11730100000.0 12139600000.0 11692100000.0 11326200000.0 10066400000.0 9571560000.0 9070470000.0 9070130000.0 9040710000.0 9042910000.0 9038120000.0 9037400000.0 9036900000.0 9036570000.0 9036330000.0 9036170000.0 9036050000.0 9035970000.0 9035910000.0 9035870000.0 9035840000.0 9035820000.0 9035800000.0 9035790000.0 9035780000.0 9035770000.0 9035770000.0 9035770000.0 9035760000.0 9035760000.0 9035760000.0 9035760000.0 9035760000.0 9035760000.0 9035750000.0 9035750000.0 9035750000.0 9035750000.0 9035750000.0 9035750000.0 9035750000.0 9035750000.0 9035750000.0 9035750000.0 9035750000.0 9035760000.0 9035760000.0 9035760000.0 9035760000.0 9035760000.0 9035760000.0 9035770000.0 9035770000.0 9035770000.0 9035780000.0 9035790000.0 9035800000.0 9035820000.0 9035840000.0 9035870000.0 9035910000.0 9035970000.0 9036050000.0 9036170000.0 9036330000.0 9036570000.0 9036900000.0 9037400000.0 9038120000.0 9042910000.0 9040710000.0 9070130000.0 9070470000.0 9571560000.0 10066400000.0 11326200000.0 11692100000.0 11290800000.0 10967400000.0 9882850000.0 9453730000.0 9060810000.0 9060770000.0 9039980000.0 9040990000.0 9037770000.0 9037150000.0 9036730000.0 9036450000.0 9036240000.0 9036100000.0 9036010000.0 9035940000.0 9035890000.0 9035850000.0 9035830000.0 9035810000.0 9035790000.0 9035780000.0 9035780000.0 9035770000.0 9035770000.0 9035760000.0 9035760000.0 9035760000.0 9035760000.0 9035760000.0 9035760000.0 9035750000.0 9035750000.0 9035750000.0 9035750000.0 9035750000.0 9035750000.0 9035750000.0 9035750000.0 9035750000.0 9035750000.0 9035750000.0 9035750000.0 9035750000.0 9035760000.0 9035760000.0 9035760000.0 9035760000.0 9035760000.0 9035760000.0 9035770000.0 9035770000.0 9035780000.0 9035780000.0 9035790000.0 9035810000.0 9035830000.0 9035850000.0 9035890000.0 9035940000.0 9036010000.0 9036100000.0 9036240000.0 9036450000.0 9036730000.0 9037150000.0 9037770000.0 9040990000.0 9039980000.0 9060770000.0 9060810000.0 9453730000.0 9882850000.0 10967400000.0 11290800000.0 10930400000.0 10648500000.0 9725300000.0 9359070000.0 9053830000.0 9053990000.0 9039320000.0 9039630000.0 9037460000.0 9036930000.0 9036580000.0 9036340000.0 9036170000.0 9036050000.0 9035970000.0 9035910000.0 9035870000.0 9035840000.0 9035810000.0 9035800000.0 9035790000.0 9035780000.0 9035770000.0 9035770000.0 9035760000.0 9035760000.0 9035760000.0 9035760000.0 9035760000.0 9035760000.0 9035760000.0 9035750000.0 9035750000.0 9035750000.0 9035750000.0 9035750000.0 9035750000.0 9035750000.0 9035750000.0 9035750000.0 9035750000.0 9035750000.0 9035750000.0 9035750000.0 9035760000.0 9035760000.0 9035760000.0 9035760000.0 9035760000.0 9035760000.0 9035760000.0 9035770000.0 9035770000.0 9035780000.0 9035790000.0 9035800000.0 9035810000.0 9035840000.0 9035870000.0 9035910000.0 9035970000.0 9036050000.0 9036170000.0 9036340000.0 9036580000.0 9036930000.0 9037460000.0 9039630000.0 9039320000.0 9053990000.0 9053830000.0 9359070000.0 9725300000.0 10648500000.0 10930400000.0 10605800000.0 10364200000.0 9590100000.0 9283270000.0 9048780000.0 9049040000.0 9038720000.0 9038660000.0 9037170000.0 9036730000.0 9036440000.0 9036240000.0 9036100000.0 9036000000.0 9035930000.0 9035880000.0 9035850000.0 9035820000.0 9035800000.0 9035790000.0 9035780000.0 9035770000.0 9035770000.0 9035770000.0 9035760000.0 9035760000.0 9035760000.0 9035760000.0 9035760000.0 9035760000.0 9035750000.0 9035750000.0 9035750000.0 9035750000.0 9035750000.0 9035750000.0 9035750000.0 9035750000.0 9035750000.0 9035750000.0 9035750000.0 9035750000.0 9035750000.0 9035750000.0 9035750000.0 9035760000.0 9035760000.0 9035760000.0 9035760000.0 9035760000.0 9035760000.0 9035770000.0 9035770000.0 9035770000.0 9035780000.0 9035790000.0 9035800000.0 9035820000.0 9035850000.0 9035880000.0 9035930000.0 9036000000.0 9036100000.0 9036240000.0 9036440000.0 9036730000.0 9037170000.0 9038660000.0 9038720000.0 9049040000.0 9048780000.0 9283270000.0 9590100000.0 10364200000.0 10605800000.0 10311800000.0 10109600000.0 9473800000.0 9222590000.0 9045110000.0 9045400000.0 9038180000.0 9037930000.0 9036910000.0 9036550000.0 9036310000.0 9036150000.0 9036030000.0 9035950000.0 9035900000.0 9035860000.0 9035830000.0 9035810000.0 9035790000.0 9035780000.0 9035780000.0 9035770000.0 9035770000.0 9035760000.0 9035760000.0 9035760000.0 9035760000.0 9035760000.0 9035760000.0 9035750000.0 9035750000.0 9035750000.0 9035750000.0 9035750000.0 9035750000.0 9035750000.0 9035750000.0 9035750000.0 9035750000.0 9035750000.0 9035750000.0 9035750000.0 9035750000.0 9035750000.0 9035750000.0 9035750000.0 9035760000.0 9035760000.0 9035760000.0 9035760000.0 9035760000.0 9035760000.0 9035770000.0 9035770000.0 9035780000.0 9035780000.0 9035790000.0 9035810000.0 9035830000.0 9035860000.0 9035900000.0 9035950000.0 9036030000.0 9036150000.0 9036310000.0 9036550000.0 9036910000.0 9037930000.0 9038180000.0 9045400000.0 9045110000.0 9222590000.0 9473800000.0 10109600000.0 10311800000.0 10043600000.0 9879780000.0 9373100000.0 9173810000.0 9042400000.0 9042670000.0 9037670000.0 9037380000.0 9036670000.0 9036390000.0 9036190000.0 9036070000.0 9035970000.0 9035910000.0 9035870000.0 9035840000.0 9035810000.0 9035800000.0 9035790000.0 9035780000.0 9035770000.0 9035770000.0 9035760000.0 9035760000.0 9035760000.0 9035760000.0 9035760000.0 9035760000.0 9035750000.0 9035750000.0 9035750000.0 9035750000.0 9035750000.0 9035750000.0 9035750000.0 9035750000.0 9035750000.0 9035750000.0 9035750000.0 9035750000.0 9035750000.0 9035750000.0 9035750000.0 9035750000.0 9035750000.0 9035750000.0 9035750000.0 9035760000.0 9035760000.0 9035760000.0 9035760000.0 9035760000.0 9035760000.0 9035770000.0 9035770000.0 9035780000.0 9035790000.0 9035800000.0 9035810000.0 9035840000.0 9035870000.0 9035910000.0 9035970000.0 9036070000.0 9036190000.0 9036390000.0 9036670000.0 9037380000.0 9037670000.0 9042670000.0 9042400000.0 9173810000.0 9373100000.0 9879780000.0 10043600000.0 9796290000.0 9670030000.0 9284910000.0 9134160000.0 9040350000.0 9040580000.0 9037200000.0 9036930000.0 9036440000.0 9036230000.0 9036090000.0 9035990000.0 9035920000.0 9035870000.0 9035840000.0 9035820000.0 9035800000.0 9035790000.0 9035780000.0 9035770000.0 9035770000.0 9035760000.0 9035760000.0 9035760000.0 9035760000.0 9035760000.0 9035760000.0 9035750000.0 9035750000.0 9035750000.0 9035750000.0 9035750000.0 9035750000.0 9035750000.0 9035750000.0 9035750000.0 9035750000.0 9035750000.0 9035750000.0 9035750000.0 9035750000.0 9035750000.0 9035750000.0 9035750000.0 9035750000.0 9035750000.0 9035750000.0 9035750000.0 9035760000.0 9035760000.0 9035760000.0 9035760000.0 9035760000.0 9035760000.0 9035770000.0 9035770000.0 9035780000.0 9035790000.0 9035800000.0 9035820000.0 9035840000.0 9035870000.0 9035920000.0 9035990000.0 9036090000.0 9036230000.0 9036440000.0 9036930000.0 9037200000.0 9040580000.0 9040350000.0 9134160000.0 9284910000.0 9670030000.0 9796290000.0 9564980000.0 9475730000.0 9206240000.0 9101220000.0 9038750000.0 9038910000.0 9036760000.0 9036550000.0 9036230000.0 9036090000.0 9035990000.0 9035920000.0 9035870000.0 9035840000.0 9035810000.0 9035800000.0 9035780000.0 9035780000.0 9035770000.0 9035770000.0 9035760000.0 9035760000.0 9035760000.0 9035760000.0 9035760000.0 9035760000.0 9035750000.0 9035750000.0 9035750000.0 9035750000.0 9035750000.0 9035750000.0 9035750000.0 9035750000.0 9035750000.0 9035750000.0 9035750000.0 9035750000.0 9035750000.0 9035750000.0 9035750000.0 9035750000.0 9035750000.0 9035750000.0 9035750000.0 9035750000.0 9035750000.0 9035750000.0 9035750000.0 9035760000.0 9035760000.0 9035760000.0 9035760000.0 9035760000.0 9035760000.0 9035770000.0 9035770000.0 9035780000.0 9035780000.0 9035800000.0 9035810000.0 9035840000.0 9035870000.0 9035920000.0 9035990000.0 9036090000.0 9036230000.0 9036550000.0 9036760000.0 9038910000.0 9038750000.0 9101220000.0 9206240000.0 9475730000.0 9564980000.0 9345030000.0 9292320000.0 9134260000.0 9072860000.0 9037430000.0 9037530000.0 9036340000.0 9036210000.0 9036030000.0 9035950000.0 9035890000.0 9035850000.0 9035820000.0 9035800000.0 9035790000.0 9035780000.0 9035770000.0 9035770000.0 9035760000.0 9035760000.0 9035760000.0 9035760000.0 9035760000.0 9035760000.0 9035750000.0 9035750000.0 9035750000.0 9035750000.0 9035750000.0 9035750000.0 9035750000.0 9035750000.0 9035750000.0 9035750000.0 9035750000.0 9035750000.0 9035750000.0 9035750000.0 9035750000.0 9035750000.0 9035750000.0 9035750000.0 9035750000.0 9035750000.0 9035750000.0 9035750000.0 9035750000.0 9035750000.0 9035750000.0 9035750000.0 9035750000.0 9035760000.0 9035760000.0 9035760000.0 9035760000.0 9035760000.0 9035760000.0 9035770000.0 9035770000.0 9035780000.0 9035790000.0 9035800000.0 9035820000.0 9035850000.0 9035890000.0 9035950000.0 9036030000.0 9036210000.0 9036340000.0 9037530000.0 9037430000.0 9072860000.0 9134260000.0 9292320000.0 9345030000.0 9131770000.0 9115340000.0 9066190000.0 9047130000.0 9036260000.0 9036300000.0 9035940000.0 9035890000.0 9035840000.0 9035810000.0 9035800000.0 9035780000.0 9035770000.0 9035770000.0 9035760000.0 9035760000.0 9035760000.0 9035760000.0 9035760000.0 9035760000.0 9035750000.0 9035750000.0 9035750000.0 9035750000.0 9035750000.0 9035750000.0 9035750000.0 9035750000.0 9035750000.0 9035750000.0 9035750000.0 9035750000.0 9035750000.0 9035750000.0 9035750000.0 9035750000.0 9035750000.0 9035750000.0 9035750000.0 9035750000.0 9035750000.0 9035750000.0 9035750000.0 9035750000.0 9035750000.0 9035750000.0 9035750000.0 9035750000.0 9035750000.0 9035750000.0 9035750000.0 9035750000.0 9035750000.0 9035750000.0 9035750000.0 9035760000.0 9035760000.0 9035760000.0 9035760000.0 9035760000.0 9035760000.0 9035770000.0 9035770000.0 9035780000.0 9035800000.0 9035810000.0 9035840000.0 9035890000.0 9035940000.0 9036300000.0 9036260000.0 9047130000.0 9066190000.0 9115340000.0 9131770000.0 