# vtk DataFile Version 2.0
Time step 71
ASCII
DATASET UNSTRUCTURED_GRID
POINTS 5000 float
199127.0 210216.0 0
204652.0 209390.0 0
211420.0 209238.0 0
220887.0 207642.0 0
229359.0 207385.0 0
234125.0 206388.0 0
233050.0 209597.0 0
237707.0 209147.0 0
243532.0 209200.0 0
256339.0 209564.0 0
272540.0 207782.0 0
278734.0 205919.0 0
287892.0 209485.0 0
298881.0 209598.0 0
197876.0 215188.0 0
202449.0 213437.0 0
204787.0 215471.0 0
207713.0 213344.0 0
216561.0 211840.0 0
222019.0 213011.0 0
226110.0 210445.0 0
229925.0 212149.0 0
234550.0 213875.0 0
239789.0 214134.0 0
244971.0 214627.0 0
250066.0 210610.0 0
258994.0 213528.0 0
262516.0 210964.0 0
264939.0 214493.0 0
267538.0 210350.0 0
272076.0 212299.0 0
276574.0 211648.0 0
282259.0 210956.0 0
283499.0 214943.0 0
286632.0 214122.0 0
290431.0 214682.0 0
293661.0 211087.0 0
301327.0 214552.0 0
196630.0 220484.0 0
202012.0 217857.0 0
207247.0 218484.0 0
212415.0 215298.0 0
217116.0 216836.0 0
222020.0 218780.0 0
226739.0 215568.0 0
231220.0 217527.0 0
235682.0 218903.0 0
241024.0 219466.0 0
247981.0 218774.0 0
251044.0 215907.0 0
255043.0 215552.0 0
252731.0 219706.0 0
257529.0 219756.0 0
261519.0 217065.0 0
269302.0 215197.0 0
266198.0 219287.0 0
274252.0 216414.0 0
270816.0 219059.0 0
279891.0 215233.0 0
278096.0 218911.0 0
282848.0 218778.0 0
287816.0 218157.0 0
295999.0 216292.0 0
292050.0 218599.0 0
299789.0 220033.0 0
305295.0 219863.0 0
193397.0 224218.0 0
201702.0 222903.0 0
207487.0 224452.0 0
212270.0 220646.0 0
217309.0 221431.0 0
221495.0 224476.0 0
227395.0 220716.0 0
225767.0 224486.0 0
232168.0 221714.0 0
233739.0 225163.0 0
237230.0 223287.0 0
250109.0 223832.0 0
245269.0 222801.0 0
254901.0 223995.0 0
261756.0 221380.0 0
265343.0 225302.0 0
269884.0 222731.0 0
274358.0 221587.0 0
272261.0 224902.0 0
280069.0 223468.0 0
286077.0 223028.0 0
291005.0 223446.0 0
295300.0 221661.0 0
296877.0 225697.0 0
196781.0 227459.0 0
202428.0 228258.0 0
209354.0 229934.0 0
214374.0 226383.0 0
219649.0 229553.0 0
225319.0 228735.0 0
229481.0 225335.0 0
232308.0 229502.0 0
236775.0 227602.0 0
241399.0 226144.0 0
246741.0 227649.0 0
251659.0 228498.0 0
259514.0 225336.0 0
256068.0 227980.0 0
270219.0 227375.0 0
275495.0 226004.0 0
273672.0 229904.0 0
279595.0 229704.0 0
284546.0 227428.0 0
289061.0 227486.0 0
293377.0 226688.0 0
297562.0 229118.0 0
302323.0 226343.0 0
194893.0 231982.0 0
198903.0 232747.0 0
203993.0 233916.0 0
210069.0 235311.0 0
214904.0 232299.0 0
219356.0 234204.0 0
228600.0 232349.0 0
224265.0 234198.0 0
231908.0 233809.0 0
237161.0 232963.0 0
244146.0 230446.0 0
241165.0 230479.0 0
243082.0 234410.0 0
246943.0 231988.0 0
254845.0 231836.0 0
250644.0 233036.0 0
260155.0 230642.0 0
257613.0 235154.0 0
266652.0 231667.0 0
271783.0 234001.0 0
276091.0 233878.0 0
279617.0 234419.0 0
284865.0 231138.0 0
282589.0 233551.0 0
286317.0 235142.0 0
289358.0 231747.0 0
293885.0 230932.0 0
292005.0 235101.0 0
300221.0 231532.0 0
297261.0 235121.0 0
305075.0 231972.0 0
302255.0 235642.0 0
197249.0 236806.0 0
196008.0 240925.0 0
201448.0 238941.0 0
206163.0 238393.0 0
210064.0 240666.0 0
215652.0 238306.0 0
221203.0 237566.0 0
229116.0 236252.0 0
225423.0 239359.0 0
233785.0 237461.0 0
230195.0 240391.0 0
239383.0 238824.0 0
247589.0 235625.0 0
244941.0 239306.0 0
249442.0 238934.0 0
253282.0 236831.0 0
258170.0 240242.0 0
262320.0 236094.0 0
266985.0 237269.0 0
270514.0 237280.0 0
274492.0 238204.0 0
278222.0 236817.0 0
281633.0 236716.0 0
284475.0 239837.0 0
289346.0 238774.0 0
294039.0 239477.0 0
298648.0 239763.0 0
304605.0 238609.0 0
196071.0 244566.0 0
199428.0 242828.0 0
204973.0 242850.0 0
211220.0 244521.0 0
215796.0 244486.0 0
220647.0 241741.0 0
224977.0 244220.0 0
235024.0 242358.0 0
239366.0 244011.0 0
243702.0 244004.0 0
248081.0 243123.0 0
252927.0 242047.0 0
264136.0 241207.0 0
260759.0 244034.0 0
269853.0 241438.0 0
265171.0 245672.0 0
274841.0 242676.0 0
279249.0 240686.0 0
278311.0 245471.0 0
282712.0 244215.0 0
287943.0 243545.0 0
296444.0 243627.0 0
301057.0 243200.0 0
304420.0 241766.0 0
199120.0 247201.0 0
203379.0 247096.0 0
208084.0 247395.0 0
212510.0 247616.0 0
216461.0 250062.0 0
220785.0 246891.0 0
225504.0 249039.0 0
230530.0 245690.0 0
233452.0 249945.0 0
236302.0 247200.0 0
241452.0 248594.0 0
246369.0 246612.0 0
246208.0 250248.0 0
251085.0 247659.0 0
256577.0 245842.0 0
261304.0 248188.0 0
269521.0 246458.0 0
266464.0 250584.0 0
274016.0 246638.0 0
276712.0 250346.0 0
285383.0 247319.0 0
281512.0 248845.0 0
291997.0 246626.0 0
288302.0 249080.0 0
296255.0 247954.0 0
300618.0 247597.0 0
202713.0 251210.0 0
201743.0 255088.0 0
206972.0 251915.0 0
205084.0 255181.0 0
208893.0 255360.0 0
211406.0 251552.0 0
214524.0 253365.0 0
217437.0 255690.0 0
221554.0 252155.0 0
226822.0 254360.0 0
229562.0 250802.0 0
232133.0 253966.0 0
237233.0 252629.0 0
242209.0 253703.0 0
246291.0 254354.0 0
250366.0 253103.0 0
256371.0 252355.0 0
262179.0 252905.0 0
269653.0 254394.0 0
271971.0 250775.0 0
274643.0 255526.0 0
280057.0 253998.0 0
285210.0 252429.0 0
291697.0 252636.0 0
297285.0 251896.0 0
202597.0 258837.0 0
206668.0 258384.0 0
212753.0 255866.0 0
210580.0 259021.0 0
214692.0 259584.0 0
218774.0 260676.0 0
222670.0 257423.0 0
227001.0 259218.0 0
230138.0 257242.0 0
234712.0 257613.0 0
239179.0 257569.0 0
244165.0 258559.0 0
249021.0 257806.0 0
252986.0 256793.0 0
257028.0 259481.0 0
260719.0 256483.0 0
265391.0 256307.0 0
262341.0 260253.0 0
270326.0 258673.0 0
266277.0 260683.0 0
278718.0 258679.0 0
283071.0 256999.0 0
285213.0 259928.0 0
282218.0 260517.0 0
287700.0 256597.0 0
291839.0 258056.0 0
296450.0 257220.0 0
202988.0 263656.0 0
207862.0 262548.0 0
212551.0 263183.0 0
216257.0 263267.0 0
223009.0 262237.0 0
219538.0 265055.0 0
227340.0 263782.0 0
231398.0 260997.0 0
231764.0 265889.0 0
236598.0 262761.0 0
240747.0 261251.0 0
243900.0 263256.0 0
240911.0 264388.0 0
247724.0 262115.0 0
246524.0 265494.0 0
252023.0 261465.0 0
250152.0 265884.0 0
259997.0 263721.0 0
255369.0 265808.0 0
264585.0 265242.0 0
269539.0 263227.0 0
274419.0 261474.0 0
279491.0 263934.0 0
285026.0 264658.0 0
289248.0 261404.0 0
293424.0 262038.0 0
297441.0 262232.0 0
202602.0 268958.0 0
206248.0 267206.0 0
210443.0 267403.0 0
215572.0 267878.0 0
223406.0 266820.0 0
220162.0 269757.0 0
224324.0 270803.0 0
227634.0 268607.0 0
231498.0 271057.0 0
235750.0 268300.0 0
239764.0 267475.0 0
243348.0 266856.0 0
242290.0 270906.0 0
246781.0 269628.0 0
251932.0 270862.0 0
260230.0 267952.0 0
263386.0 269796.0 0
268545.0 266782.0 0
266861.0 269855.0 0
272322.0 266207.0 0
270756.0 270032.0 0
275005.0 270266.0 0
275803.0 266125.0 0
278135.0 268264.0 0
281876.0 268671.0 0
290552.0 266331.0 0
286564.0 270426.0 0
292051.0 271078.0 0
296275.0 267268.0 0
202758.0 273343.0 0
207276.0 271768.0 0
211957.0 271761.0 0
209588.0 274848.0 0
212938.0 275256.0 0
216731.0 273254.0 0
221942.0 274308.0 0
227654.0 273845.0 0
232893.0 276227.0 0
235321.0 272574.0 0
238734.0 271782.0 0
237137.0 275416.0 0
244641.0 274188.0 0
240655.0 275476.0 0
248425.0 274006.0 0
254814.0 274747.0 0
257033.0 271198.0 0
257997.0 275693.0 0
260918.0 272742.0 0
265222.0 273876.0 0
268774.0 273151.0 0
272318.0 273736.0 0
279030.0 271864.0 0
276208.0 274652.0 0
280324.0 275766.0 0
282596.0 272599.0 0
284503.0 275773.0 0
288733.0 274264.0 0
292606.0 275491.0 0
297031.0 272752.0 0
201526.0 276854.0 0
201983.0 279749.0 0
205917.0 276896.0 0
204953.0 280682.0 0
207876.0 280554.0 0
210766.0 278703.0 0
218950.0 277285.0 0
215407.0 278053.0 0
222153.0 279570.0 0
225160.0 277483.0 0
229304.0 278827.0 0
233462.0 280840.0 0
237311.0 279285.0 0
243514.0 277918.0 0
241004.0 279370.0 0
246916.0 277732.0 0
248867.0 281016.0 0
251398.0 276934.0 0
252920.0 281070.0 0
255473.0 278421.0 0
258759.0 279483.0 0
261386.0 276806.0 0
264913.0 278061.0 0
262127.0 281189.0 0
269279.0 277401.0 0
273648.0 276836.0 0
273058.0 279885.0 0
277072.0 279095.0 0
281278.0 279655.0 0
284512.0 279549.0 0
288573.0 278622.0 0
292595.0 280280.0 0
296727.0 278044.0 0
202703.0 283912.0 0
206834.0 283669.0 0
210727.0 283699.0 0
213815.0 285950.0 0
214352.0 281800.0 0
218724.0 281699.0 0
216747.0 285071.0 0
222591.0 283752.0 0
219994.0 286327.0 0
225799.0 281542.0 0
226695.0 285872.0 0
229915.0 283087.0 0
233052.0 284787.0 0
236428.0 283847.0 0
244420.0 281503.0 0
240316.0 282823.0 0
243039.0 285806.0 0
247096.0 284964.0 0
251051.0 284311.0 0
254276.0 284334.0 0
256366.0 282216.0 0
259408.0 283522.0 0
263078.0 286000.0 0
266204.0 281794.0 0
270227.0 282483.0 0
267418.0 285361.0 0
274458.0 283556.0 0
278466.0 283345.0 0
282821.0 283817.0 0
286496.0 282354.0 0
290216.0 283935.0 0
286762.0 286282.0 0
293488.0 283413.0 0
296929.0 283239.0 0
202118.0 288351.0 0
205251.0 287085.0 0
208708.0 287604.0 0
205486.0 290393.0 0
209115.0 291168.0 0
212052.0 288332.0 0
216580.0 289535.0 0
223408.0 288159.0 0
220573.0 289816.0 0
227552.0 290432.0 0
230595.0 287313.0 0
234485.0 288140.0 0
231208.0 290193.0 0
238909.0 287573.0 0
242483.0 289350.0 0
249868.0 287839.0 0
245964.0 289119.0 0
249256.0 291219.0 0
253009.0 287162.0 0
253581.0 291347.0 0
257317.0 287278.0 0
260948.0 290124.0 0
264686.0 291008.0 0
266773.0 288495.0 0
268820.0 291667.0 0
271098.0 287099.0 0
273465.0 290985.0 0
275825.0 287322.0 0
280066.0 288050.0 0
277391.0 291458.0 0
284137.0 287718.0 0
283488.0 291352.0 0
290095.0 288283.0 0
286892.0 290079.0 0
293840.0 286735.0 0
293688.0 290961.0 0
297692.0 287809.0 0
297750.0 291381.0 0
197272.0 294746.0 0
202269.0 292136.0 0
203091.0 296419.0 0
206314.0 293574.0 0
212779.0 291930.0 0
209834.0 294431.0 0
212748.0 295413.0 0
216640.0 294691.0 0
223568.0 291716.0 0
220168.0 293109.0 0
222544.0 295483.0 0
226148.0 294800.0 0
233475.0 291733.0 0
230551.0 294416.0 0
234656.0 295445.0 0
236814.0 291705.0 0
238360.0 295549.0 0
240473.0 291947.0 0
243993.0 292338.0 0
242129.0 295682.0 0
246769.0 292862.0 0
245839.0 295829.0 0
250121.0 295622.0 0
254685.0 296471.0 0
257663.0 292941.0 0
261849.0 294420.0 0
265578.0 294727.0 0
268690.0 295641.0 0
271849.0 294844.0 0
280357.0 292516.0 0
275820.0 294745.0 0
279319.0 295788.0 0
282809.0 294434.0 0
289847.0 292203.0 0
286472.0 294411.0 0
294995.0 294829.0 0
291087.0 295779.0 0
298393.0 294287.0 0
202008.0 300256.0 0
207756.0 297430.0 0
205880.0 300912.0 0
211614.0 298529.0 0
215739.0 299175.0 0
220214.0 298490.0 0
224524.0 298938.0 0
228518.0 298692.0 0
226502.0 301573.0 0
232308.0 298794.0 0
236153.0 299266.0 0
244094.0 299067.0 0
240140.0 299840.0 0
247442.0 299670.0 0
251525.0 299885.0 0
254622.0 300817.0 0
258746.0 296826.0 0
256719.0 299345.0 0
259181.0 300703.0 0
262686.0 298726.0 0
266829.0 298835.0 0
274076.0 297802.0 0
270665.0 298678.0 0
273688.0 301527.0 0
276843.0 298667.0 0
279932.0 300176.0 0
277038.0 301276.0 0
283094.0 297820.0 0
287031.0 298848.0 0
294815.0 298449.0 0
291384.0 300465.0 0
297907.0 297165.0 0
297988.0 300177.0 0
202885.0 304033.0 0
207431.0 305173.0 0
210253.0 302219.0 0
214438.0 302893.0 0
218548.0 302277.0 0
216806.0 305994.0 0
222785.0 302471.0 0
220344.0 304919.0 0
222533.0 306684.0 0
226727.0 305896.0 0
230174.0 302390.0 0
234237.0 302700.0 0
232054.0 305997.0 0
238074.0 303267.0 0
235738.0 306557.0 0
239377.0 306457.0 0
243550.0 303964.0 0
248845.0 303655.0 0
252660.0 303189.0 0
256688.0 304463.0 0
261649.0 303140.0 0
260854.0 306631.0 0
263922.0 305955.0 0
265286.0 302636.0 0
269509.0 302447.0 0
267618.0 306156.0 0
272586.0 306649.0 0
279260.0 303444.0 0
276408.0 303939.0 0
283438.0 302598.0 0
281106.0 306128.0 0
287578.0 303711.0 0
295163.0 302101.0 0
292493.0 304996.0 0
297918.0 303400.0 0
296897.0 306940.0 0
202251.0 307737.0 0
203079.0 311622.0 0
205441.0 307929.0 0
208512.0 310405.0 0
212106.0 307102.0 0
212651.0 311066.0 0
216007.0 310168.0 0
219776.0 308534.0 0
223335.0 309769.0 0
226806.0 311422.0 0
230615.0 309296.0 0
234533.0 310464.0 0
238383.0 309794.0 0
242609.0 309241.0 0
246953.0 307717.0 0
245686.0 311109.0 0
248830.0 310836.0 0
251760.0 307177.0 0
252464.0 311809.0 0
256764.0 310001.0 0
261456.0 310464.0 0
265006.0 309499.0 0
269461.0 310854.0 0
274991.0 311517.0 0
277336.0 307211.0 0
280083.0 311100.0 0
284720.0 307637.0 0
284463.0 311804.0 0
288879.0 307100.0 0
288151.0 311172.0 0
292179.0 309089.0 0
294986.0 310824.0 0
298160.0 310630.0 0
302750.0 308479.0 0
202948.0 315864.0 0
207044.0 314557.0 0
214152.0 313275.0 0
211098.0 313913.0 0
212146.0 317024.0 0
217108.0 313414.0 0
215795.0 316316.0 0
220364.0 312409.0 0
224091.0 313922.0 0
220411.0 317116.0 0
228203.0 315614.0 0
230830.0 313171.0 0
233624.0 315083.0 0
237135.0 313501.0 0
236814.0 316942.0 0
240121.0 312776.0 0
243238.0 313510.0 0
240368.0 316809.0 0
246605.0 314194.0 0
249797.0 315012.0 0
254011.0 315464.0 0
257839.0 314920.0 0
261895.0 314254.0 0
265769.0 313932.0 0
269544.0 315603.0 0
271879.0 313418.0 0
273738.0 316442.0 0
277581.0 315415.0 0
282300.0 315685.0 0
287594.0 316519.0 0
292180.0 313437.0 0
296747.0 314460.0 0
304194.0 314249.0 0
201536.0 318950.0 0
202484.0 321705.0 0
208292.0 317807.0 0
204865.0 318734.0 0
206451.0 322015.0 0
210362.0 320722.0 0
213751.0 320191.0 0
216916.0 320283.0 0
219957.0 321493.0 0
223217.0 321806.0 0
225088.0 317973.0 0
228134.0 319361.0 0
231144.0 318079.0 0
230313.0 321680.0 0
234675.0 319855.0 0
238672.0 320842.0 0
244386.0 317483.0 0
242164.0 320840.0 0
248416.0 318560.0 0
245958.0 321671.0 0
249882.0 321989.0 0
252223.0 318901.0 0
259172.0 318552.0 0
255797.0 318911.0 0
257454.0 322080.0 0
262324.0 317636.0 0
262021.0 321703.0 0
266310.0 318910.0 0
270704.0 319896.0 0
273493.0 320972.0 0
275618.0 319367.0 0
279636.0 319724.0 0
284308.0 320525.0 0
288177.0 321966.0 0
292870.0 318328.0 0
297783.0 318175.0 0
297321.0 321422.0 0
197681.0 326410.0 0
202380.0 325005.0 0
205375.0 325026.0 0
207692.0 326245.0 0
212855.0 323502.0 0
209245.0 324211.0 0
210869.0 326559.0 0
216470.0 323412.0 0
219190.0 324021.0 0
214945.0 326841.0 0
218484.0 326658.0 0
222422.0 325658.0 0
226946.0 322444.0 0
226433.0 326093.0 0
233132.0 322865.0 0
230235.0 325297.0 0
234189.0 326189.0 0
236004.0 323044.0 0
238431.0 324987.0 0
240918.0 323445.0 0
243784.0 324932.0 0
241161.0 327419.0 0
248547.0 325098.0 0
253288.0 322547.0 0
251872.0 325925.0 0
255578.0 325995.0 0
260105.0 325757.0 0
264814.0 323172.0 0
263946.0 325304.0 0
266975.0 322817.0 0
269483.0 323102.0 0
266615.0 325637.0 0
269611.0 326330.0 0
272616.0 323950.0 0
276071.0 323393.0 0
279738.0 324107.0 0
276983.0 327325.0 0
283167.0 323790.0 0
286275.0 326063.0 0
289824.0 325728.0 0
292683.0 322826.0 0
294720.0 326101.0 0
291949.0 327135.0 0
297949.0 324482.0 0
202287.0 328222.0 0
202328.0 331314.0 0
205464.0 328048.0 0
208763.0 328411.0 0
206246.0 331081.0 0
211883.0 329231.0 0
209914.0 331830.0 0
214388.0 330822.0 0
217296.0 329866.0 0
220337.0 328933.0 0
224073.0 329445.0 0
220943.0 331532.0 0
228818.0 328463.0 0
227278.0 331045.0 0
231951.0 329189.0 0
237045.0 328711.0 0
234965.0 331184.0 0
239656.0 331194.0 0
243766.0 330833.0 0
245477.0 327898.0 0
248469.0 328645.0 0
247943.0 332437.0 0
251235.0 328658.0 0
254644.0 330049.0 0
251307.0 332056.0 0
257843.0 328605.0 0
257929.0 331778.0 0
263911.0 328886.0 0
260334.0 329917.0 0
261332.0 332494.0 0
267264.0 328670.0 0
270221.0 329460.0 0
267836.0 331443.0 0
273141.0 327603.0 0
273101.0 331323.0 0
276553.0 331226.0 0
279664.0 331744.0 0
281547.0 328161.0 0
285958.0 330536.0 0
290157.0 329997.0 0
294175.0 329945.0 0
297985.0 327635.0 0
297542.0 330490.0 0
202663.0 334552.0 0
206140.0 334506.0 0
213783.0 333982.0 0
209887.0 336220.0 0
218128.0 332791.0 0
216200.0 337366.0 0
223614.0 333940.0 0
220260.0 335702.0 0
227728.0 334971.0 0
231070.0 333240.0 0
231732.0 337231.0 0
234436.0 336845.0 0
234591.0 334231.0 0
237151.0 333288.0 0
238153.0 337416.0 0
240373.0 334072.0 0
243265.0 334543.0 0
242007.0 337238.0 0
246436.0 336278.0 0
253619.0 334882.0 0
250547.0 336885.0 0
256525.0 333622.0 0
259497.0 334369.0 0
257233.0 337351.0 0
264540.0 333091.0 0
262489.0 336976.0 0
266995.0 335313.0 0
270517.0 333790.0 0
273339.0 336446.0 0
279800.0 335144.0 0
276052.0 334713.0 0
282968.0 332927.0 0
284415.0 335580.0 0
281980.0 337669.0 0
287289.0 334054.0 0
287109.0 337578.0 0
290714.0 337189.0 0
290882.0 333853.0 0
294303.0 333176.0 0
294517.0 335914.0 0
297653.0 333430.0 0
297574.0 336337.0 0
196515.0 340043.0 0
202487.0 337788.0 0
201774.0 340555.0 0
206037.0 337966.0 0
204831.0 340442.0 0
208435.0 340338.0 0
212477.0 340022.0 0
218605.0 340978.0 0
221499.0 338808.0 0
223367.0 341633.0 0
224991.0 338268.0 0
228893.0 338512.0 0
226873.0 342588.0 0
233590.0 341049.0 0
230373.0 341517.0 0
237518.0 342319.0 0
243951.0 339241.0 0
241398.0 341597.0 0
247431.0 340068.0 0
250878.0 341705.0 0
254224.0 339736.0 0
259967.0 340974.0 0
256446.0 342710.0 0
263455.0 342231.0 0
265781.0 338898.0 0
269444.0 337935.0 0
275055.0 339392.0 0
271491.0 341265.0 0
277610.0 337891.0 0
279770.0 340302.0 0
276702.0 341561.0 0
284191.0 339462.0 0
283405.0 342467.0 0
287641.0 341218.0 0
293916.0 337972.0 0
291133.0 340297.0 0
293859.0 340431.0 0
297403.0 339302.0 0
297429.0 342488.0 0
303051.0 339375.0 0
195692.0 344961.0 0
202917.0 343530.0 0
202217.0 346588.0 0
206741.0 342778.0 0
207319.0 345036.0 0
205237.0 346100.0 0
210448.0 343250.0 0
209708.0 346768.0 0
213269.0 345738.0 0
215118.0 343158.0 0
217572.0 345384.0 0
221118.0 344283.0 0
220813.0 347997.0 0
224835.0 345396.0 0
229794.0 345234.0 0
232856.0 344770.0 0
233192.0 347958.0 0
235300.0 345014.0 0
238892.0 345827.0 0
236169.0 346975.0 0
241888.0 345190.0 0
244083.0 347599.0 0
245185.0 343360.0 0
248420.0 345259.0 0
253519.0 344506.0 0
251625.0 347026.0 0
257212.0 346723.0 0
260208.0 345094.0 0
262796.0 345571.0 0
267470.0 343431.0 0
266267.0 347667.0 0
273983.0 343440.0 0
270821.0 345849.0 0
273162.0 346439.0 0
280241.0 343992.0 0
277009.0 345097.0 0
281275.0 347045.0 0
284101.0 345862.0 0
286732.0 344336.0 0
289439.0 346849.0 0
290909.0 343576.0 0
294068.0 343624.0 0
294921.0 346630.0 0
298342.0 345131.0 0
297938.0 347725.0 0
202856.0 349543.0 0
206585.0 348923.0 0
206198.0 352160.0 0
213335.0 350050.0 0
209880.0 350864.0 0
216982.0 348106.0 0
217603.0 351766.0 0
220486.0 351319.0 0
224616.0 349024.0 0
228215.0 348288.0 0
227533.0 352293.0 0
230975.0 350823.0 0
234278.0 352916.0 0
236421.0 350030.0 0
238532.0 352347.0 0
240058.0 349122.0 0
243048.0 351673.0 0
247559.0 348746.0 0
246268.0 351566.0 0
248597.0 351876.0 0
250752.0 350122.0 0
254443.0 348105.0 0
253710.0 350570.0 0
259856.0 349548.0 0
256784.0 351811.0 0
262831.0 349113.0 0
263964.0 352502.0 0
269598.0 348501.0 0
266532.0 351031.0 0
273830.0 349369.0 0
270834.0 351037.0 0
277546.0 348950.0 0
280090.0 351318.0 0
282425.0 349448.0 0
284377.0 352097.0 0
285941.0 348958.0 0
289208.0 351766.0 0
293016.0 349350.0 0
293962.0 352805.0 0
297772.0 350369.0 0
202886.0 353220.0 0
201932.0 356281.0 0
208533.0 353942.0 0
205572.0 356049.0 0
208907.0 357187.0 0
211265.0 354592.0 0
213832.0 353594.0 0
211587.0 357087.0 0
217529.0 354652.0 0
214869.0 356895.0 0
220263.0 355567.0 0
223843.0 353406.0 0
225636.0 357507.0 0
229224.0 354680.0 0
231958.0 355948.0 0
234944.0 357226.0 0
237470.0 355364.0 0
240324.0 352935.0 0
244166.0 355777.0 0
240742.0 355205.0 0
241606.0 357734.0 0
247214.0 354539.0 0
249040.0 357440.0 0
250771.0 353693.0 0
254420.0 355070.0 0
258060.0 357274.0 0
260483.0 353848.0 0
264138.0 355533.0 0
261859.0 358092.0 0
268378.0 353356.0 0
267269.0 356866.0 0
273427.0 353249.0 0
271704.0 355732.0 0
274204.0 356913.0 0
276375.0 353231.0 0
278036.0 356761.0 0
281593.0 354106.0 0
284110.0 356652.0 0
286515.0 353818.0 0
288069.0 356488.0 0
291314.0 354962.0 0
294385.0 356693.0 0
291429.0 358045.0 0
297083.0 353437.0 0
297697.0 356392.0 0
201998.0 358786.0 0
202150.0 361365.0 0
205254.0 358704.0 0
208621.0 360041.0 0
205479.0 362035.0 0
211395.0 359632.0 0
214099.0 360098.0 0
210225.0 363176.0 0
213356.0 363283.0 0
218202.0 358112.0 0
217263.0 360533.0 0
221464.0 358720.0 0
220822.0 362318.0 0
224438.0 362384.0 0
229130.0 358611.0 0
227668.0 362538.0 0
232045.0 359482.0 0
231153.0 363234.0 0
238710.0 358974.0 0
235698.0 360118.0 0
242950.0 360133.0 0
240296.0 361981.0 0
243546.0 363003.0 0
246174.0 359444.0 0
247412.0 363447.0 0
252476.0 359012.0 0
251092.0 362139.0 0
255833.0 360664.0 0
259692.0 361482.0 0
264451.0 359732.0 0
262631.0 361747.0 0
269046.0 360041.0 0
266426.0 362551.0 0
271463.0 358572.0 0
273456.0 359967.0 0
271703.0 362723.0 0
276557.0 360633.0 0
278772.0 362359.0 0
281412.0 358945.0 0
285319.0 359128.0 0
281972.0 361864.0 0
285324.0 361581.0 0
288178.0 358878.0 0
288950.0 361581.0 0
292108.0 360684.0 0
295045.0 359281.0 0
298160.0 358747.0 0
297999.0 360990.0 0
196497.0 364907.0 0
202751.0 366341.0 0
202058.0 363881.0 0
206992.0 365094.0 0
210460.0 367329.0 0
213734.0 366599.0 0
216819.0 363352.0 0
217074.0 366281.0 0
220776.0 366306.0 0
224431.0 366670.0 0
227252.0 366735.0 0
235034.0 363298.0 0
231307.0 367296.0 0
238055.0 364244.0 0
235113.0 367242.0 0
237761.0 368472.0 0
240150.0 366845.0 0
242401.0 365452.0 0
245305.0 367079.0 0
253069.0 364516.0 0
249960.0 366497.0 0
252661.0 367443.0 0
255803.0 363707.0 0
255294.0 368298.0 0
257600.0 366554.0 0
260587.0 364898.0 0
263861.0 364257.0 0
261886.0 368028.0 0
264609.0 367184.0 0
268908.0 364978.0 0
267720.0 368346.0 0
274848.0 364048.0 0
271808.0 366099.0 0
273578.0 367797.0 0
278384.0 364975.0 0
276866.0 367025.0 0
281306.0 365218.0 0
284079.0 366501.0 0
280379.0 367600.0 0
285582.0 364389.0 0
288670.0 364610.0 0
287717.0 367489.0 0
293771.0 363817.0 0
291308.0 365500.0 0
291520.0 368315.0 0
294520.0 367877.0 0
296831.0 363741.0 0
297971.0 366485.0 0
303399.0 365277.0 0
201805.0 371319.0 0
202497.0 369006.0 0
206567.0 368681.0 0
205631.0 371892.0 0
208677.0 372272.0 0
214741.0 370151.0 0
211267.0 370728.0 0
217202.0 369299.0 0
218613.0 372702.0 0
220234.0 370025.0 0
223948.0 369982.0 0
222906.0 372874.0 0
228676.0 370122.0 0
226137.0 370413.0 0
225841.0 372779.0 0
228582.0 373372.0 0
232284.0 371093.0 0
231551.0 374142.0 0
235280.0 370778.0 0
237516.0 373431.0 0
240527.0 370157.0 0
243795.0 369864.0 0
244550.0 373588.0 0
248557.0 369045.0 0
247459.0 371987.0 0
251777.0 370566.0 0
254941.0 371835.0 0
257774.0 371646.0 0
259137.0 369385.0 0
262611.0 371294.0 0
265997.0 372138.0 0
270793.0 369627.0 0
274873.0 371395.0 0
271610.0 372935.0 0
278278.0 370456.0 0
283473.0 369031.0 0
281681.0 371817.0 0
285467.0 373130.0 0
286921.0 370113.0 0
290616.0 371174.0 0
294088.0 371493.0 0
297728.0 368903.0 0
297809.0 374022.0 0
297143.0 371378.0 0
195643.0 380108.0 0
201002.0 376489.0 0
197293.0 378897.0 0
199419.0 378071.0 0
201670.0 379704.0 0
202488.0 373736.0 0
205200.0 375367.0 0
203835.0 378131.0 0
205240.0 379889.0 0
207949.0 377059.0 0
210148.0 375831.0 0
212022.0 378489.0 0
212821.0 374363.0 0
215060.0 377702.0 0
215942.0 373465.0 0
218195.0 377178.0 0
220588.0 375064.0 0
224255.0 375313.0 0
223073.0 377926.0 0
226147.0 375290.0 0
227919.0 376857.0 0
234386.0 375591.0 0
230394.0 377572.0 0
238534.0 377153.0 0
241342.0 374055.0 0
245416.0 376814.0 0
241688.0 377376.0 0
250237.0 374276.0 0
247286.0 378835.0 0
251788.0 378048.0 0
255078.0 374752.0 0
258196.0 376327.0 0
255913.0 378363.0 0
260667.0 374316.0 0
263931.0 376836.0 0
268344.0 374194.0 0
267224.0 378018.0 0
272986.0 376242.0 0
270191.0 377618.0 0
275801.0 374718.0 0
277747.0 375087.0 0
279719.0 378736.0 0
280841.0 375560.0 0
284032.0 376470.0 0
288758.0 374761.0 0
286941.0 377523.0 0
293991.0 374390.0 0
291833.0 374388.0 0
292073.0 376295.0 0
292980.0 378827.0 0
290484.0 377990.0 0
299169.0 376813.0 0
295391.0 376769.0 0
297175.0 379307.0 0
301000.0 378008.0 0
302746.0 380027.0 0
305292.0 380953.0 0
186398.0 385997.0 0
188873.0 385303.0 0
192255.0 382029.0 0
193843.0 380860.0 0
196257.0 382416.0 0
194130.0 384071.0 0
190647.0 383834.0 0
198629.0 380553.0 0
198914.0 383310.0 0
201348.0 382220.0 0
202645.0 385031.0 0
203760.0 382541.0 0
206104.0 383282.0 0
208210.0 380927.0 0
210705.0 381326.0 0
213287.0 382669.0 0
215358.0 381067.0 0
217716.0 381803.0 0
220293.0 380008.0 0
221746.0 382606.0 0
224411.0 382422.0 0
225800.0 379415.0 0
228342.0 381074.0 0
231221.0 382419.0 0
233730.0 379436.0 0
237173.0 379435.0 0
235794.0 383131.0 0
239257.0 381956.0 0
242000.0 380060.0 0
244022.0 381489.0 0
243316.0 384113.0 0
249956.0 381600.0 0
246542.0 381680.0 0
248379.0 384043.0 0
251548.0 384168.0 0
254087.0 382563.0 0
257420.0 382031.0 0
259549.0 379493.0 0
262379.0 380103.0 0
264572.0 382095.0 0
260406.0 384020.0 0
267590.0 381525.0 0
271038.0 379482.0 0
270394.0 382134.0 0
274438.0 378714.0 0
273696.0 381584.0 0
277148.0 378824.0 0
276626.0 382433.0 0
278991.0 383036.0 0
283888.0 379119.0 0
281652.0 381353.0 0
284193.0 383948.0 0
286289.0 380544.0 0
289312.0 380090.0 0
288181.0 382422.0 0
293047.0 381265.0 0
291222.0 382565.0 0
295912.0 382015.0 0
295656.0 384715.0 0
300053.0 381630.0 0
303344.0 383498.0 0
300147.0 384410.0 0
307200.0 382649.0 0
306352.0 385629.0 0
309653.0 384078.0 0
311567.0 385777.0 0
314194.0 385950.0 0
179975.0 390223.0 0
182023.0 389080.0 0
184258.0 387862.0 0
184211.0 391239.0 0
186365.0 389329.0 0
188974.0 390149.0 0
194801.0 387174.0 0
191742.0 388665.0 0
198217.0 386199.0 0
196859.0 390160.0 0
199729.0 390420.0 0
201326.0 387771.0 0
205800.0 385866.0 0
204522.0 388539.0 0
208375.0 385396.0 0
209704.0 389123.0 0
210295.0 385945.0 0
213134.0 385616.0 0
216055.0 385232.0 0
215865.0 389331.0 0
213656.0 388094.0 0
217107.0 387410.0 0
218128.0 384246.0 0
219884.0 388399.0 0
220459.0 385438.0 0
222857.0 385813.0 0
224669.0 388232.0 0
226174.0 385108.0 0
229187.0 386153.0 0
231766.0 386756.0 0
233602.0 384646.0 0
233783.0 387175.0 0
235957.0 387666.0 0
236749.0 385303.0 0
238413.0 388985.0 0
240337.0 385442.0 0
245281.0 385068.0 0
242574.0 388314.0 0
245381.0 388255.0 0
248935.0 387677.0 0
251930.0 387129.0 0
253390.0 389135.0 0
257769.0 386569.0 0
254925.0 386292.0 0
263555.0 386080.0 0
261277.0 388977.0 0
267011.0 385227.0 0
269286.0 386800.0 0
272183.0 385500.0 0
273924.0 388927.0 0
275600.0 385016.0 0
277154.0 387432.0 0
278891.0 389122.0 0
279463.0 385781.0 0
282442.0 387213.0 0
287564.0 387967.0 0
287320.0 385087.0 0
284977.0 388919.0 0
290464.0 385292.0 0
293519.0 385761.0 0
291209.0 389190.0 0
298382.0 386248.0 0
294467.0 389958.0 0
296881.0 388775.0 0
300344.0 388390.0 0
299104.0 391266.0 0
302854.0 388175.0 0
303319.0 385826.0 0
304062.0 390832.0 0
307447.0 387891.0 0
311243.0 388586.0 0
312985.0 390328.0 0
315785.0 388307.0 0
317438.0 389893.0 0
320537.0 389875.0 0
322329.0 391254.0 0
175352.0 393628.0 0
173231.0 395667.0 0
170346.0 396751.0 0
177969.0 392274.0 0
177236.0 396100.0 0
180500.0 394388.0 0
183615.0 393387.0 0
185297.0 395427.0 0
187574.0 392581.0 0
188775.0 394317.0 0
187415.0 396424.0 0
192672.0 392430.0 0
191002.0 394303.0 0
195648.0 392721.0 0
193874.0 395394.0 0
197819.0 394495.0 0
200755.0 393221.0 0
203406.0 392507.0 0
206854.0 390708.0 0
206467.0 394325.0 0
209675.0 393836.0 0
212092.0 390713.0 0
214648.0 392696.0 0
218660.0 391404.0 0
216719.0 395505.0 0
220268.0 394255.0 0
222486.0 389558.0 0
223062.0 392265.0 0
226488.0 390156.0 0
225631.0 393000.0 0
229513.0 389810.0 0
229250.0 394555.0 0
232517.0 390157.0 0
232747.0 393881.0 0
234847.0 390346.0 0
235467.0 393577.0 0
236818.0 391412.0 0
238844.0 393450.0 0
241087.0 391254.0 0
243348.0 394198.0 0
245583.0 391654.0 0
249322.0 391301.0 0
252164.0 391269.0 0
253823.0 393440.0 0
255320.0 389962.0 0
258460.0 390717.0 0
256667.0 394239.0 0
263596.0 392073.0 0
260722.0 393398.0 0
265443.0 389887.0 0
268523.0 390161.0 0
266493.0 394490.0 0
268754.0 393561.0 0
271713.0 390865.0 0
270993.0 394759.0 0
273526.0 393796.0 0
276060.0 391510.0 0
278744.0 392964.0 0
281171.0 390302.0 0
282827.0 392295.0 0
287732.0 390857.0 0
285231.0 394307.0 0
285395.0 391350.0 0
288282.0 394545.0 0
290647.0 392931.0 0
293263.0 394851.0 0
295872.0 393451.0 0
298372.0 396083.0 0
301341.0 393528.0 0
303679.0 395957.0 0
307619.0 391096.0 0
305976.0 394295.0 0
310039.0 392951.0 0
313132.0 393696.0 0
315680.0 393321.0 0
317535.0 396207.0 0
319112.0 392779.0 0
323802.0 393065.0 0
320759.0 394878.0 0
325963.0 394556.0 0
328280.0 396314.0 0
331449.0 396735.0 0
163775.0 400081.0 0
162081.0 401886.0 0
168010.0 397922.0 0
165902.0 399135.0 0
170664.0 400731.0 0
173892.0 399408.0 0
177118.0 398732.0 0
180394.0 397343.0 0
179450.0 400690.0 0
183486.0 398009.0 0
184922.0 400649.0 0
190300.0 396383.0 0
187755.0 398979.0 0
191443.0 399734.0 0
194082.0 397922.0 0
197386.0 397656.0 0
196775.0 400769.0 0
200070.0 398369.0 0
201703.0 395988.0 0
204545.0 396136.0 0
201875.0 400170.0 0
205113.0 399169.0 0
208141.0 396220.0 0
208173.0 398362.0 0
211921.0 395679.0 0
210927.0 399125.0 0
214735.0 397512.0 0
215990.0 399997.0 0
218633.0 398138.0 0
219848.0 400695.0 0
222330.0 396950.0 0
222711.0 400486.0 0
224898.0 396020.0 0
226746.0 397807.0 0
228576.0 399627.0 0
231088.0 398722.0 0
234362.0 398249.0 0
237120.0 396607.0 0
240441.0 397036.0 0
242818.0 399361.0 0
245042.0 397425.0 0
248453.0 395189.0 0
247525.0 399720.0 0
251804.0 395649.0 0
250379.0 400236.0 0
253294.0 398900.0 0
256774.0 398424.0 0
260107.0 396384.0 0
263830.0 395469.0 0
262800.0 399928.0 0
268166.0 396800.0 0
269411.0 399300.0 0
266389.0 399460.0 0
271368.0 397759.0 0
274138.0 397844.0 0
276531.0 397384.0 0
275821.0 395175.0 0
278664.0 398945.0 0
280188.0 395613.0 0
281907.0 400314.0 0
283492.0 397302.0 0
286614.0 399587.0 0
289003.0 397512.0 0
291567.0 397892.0 0
292343.0 400908.0 0
294213.0 397351.0 0
296509.0 398348.0 0
299716.0 398560.0 0
302669.0 398333.0 0
306784.0 397702.0 0
306705.0 400588.0 0
309126.0 396256.0 0
313384.0 396841.0 0
311100.0 398131.0 0
311360.0 400689.0 0
316140.0 398405.0 0
321470.0 397422.0 0
324143.0 397720.0 0
320424.0 399930.0 0
325522.0 400997.0 0
328225.0 399360.0 0
333147.0 398962.0 0
330923.0 400998.0 0
335353.0 400252.0 0
337611.0 401490.0 0
153439.0 406154.0 0
155599.0 405382.0 0
159454.0 402249.0 0
157643.0 404637.0 0
159817.0 405111.0 0
163146.0 404543.0 0
167746.0 402070.0 0
166567.0 404838.0 0
170887.0 403719.0 0
174817.0 402370.0 0
172922.0 404845.0 0
175015.0 406742.0 0
177456.0 403023.0 0
177586.0 405231.0 0
181818.0 402575.0 0
181611.0 405455.0 0
190038.0 402717.0 0
186600.0 403467.0 0
194167.0 402014.0 0
191752.0 405425.0 0
194963.0 405344.0 0
198102.0 403190.0 0
200785.0 403359.0 0
203684.0 404501.0 0
206020.0 402409.0 0
208683.0 402049.0 0
206679.0 405797.0 0
208216.0 405304.0 0
210694.0 404516.0 0
212904.0 401908.0 0
215233.0 404167.0 0
217915.0 402915.0 0
219865.0 405667.0 0
222901.0 404066.0 0
225527.0 400239.0 0
227610.0 403098.0 0
231349.0 403576.0 0
235477.0 402260.0 0
238741.0 400831.0 0
241244.0 402501.0 0
244842.0 400855.0 0
244397.0 403968.0 0
247407.0 404665.0 0
250678.0 403999.0 0
253698.0 403404.0 0
256233.0 402653.0 0
259621.0 401004.0 0
258684.0 404051.0 0
261165.0 404498.0 0
263736.0 403356.0 0
268104.0 403060.0 0
271497.0 402076.0 0
274681.0 401175.0 0
277534.0 402369.0 0
281440.0 404140.0 0
289564.0 401625.0 0
285316.0 402250.0 0
288324.0 404125.0 0
292227.0 403923.0 0
290570.0 405925.0 0
292811.0 407373.0 0
295533.0 401172.0 0
294441.0 404192.0 0
298313.0 402853.0 0
298477.0 406325.0 0
300907.0 401271.0 0
303855.0 402054.0 0
301749.0 404463.0 0
301331.0 406034.0 0
304777.0 404904.0 0
309213.0 402743.0 0
307428.0 405051.0 0
314476.0 401548.0 0
313968.0 404457.0 0
311363.0 405233.0 0
318016.0 401476.0 0
318874.0 404530.0 0
322734.0 401799.0 0
321810.0 404750.0 0
327103.0 404396.0 0
334090.0 404026.0 0
330949.0 404099.0 0
339767.0 402482.0 0
336587.0 404421.0 0
342263.0 403107.0 0
343663.0 404624.0 0
340393.0 405020.0 0
345111.0 406415.0 0
147258.0 410144.0 0
151589.0 408149.0 0
150144.0 409896.0 0
154294.0 408266.0 0
152879.0 411934.0 0
157592.0 407934.0 0
155770.0 409573.0 0
159671.0 409003.0 0
159718.0 411463.0 0
161856.0 407274.0 0
163393.0 409248.0 0
162231.0 411857.0 0
168869.0 406848.0 0
165814.0 408339.0 0
166781.0 411446.0 0
169327.0 410092.0 0
171055.0 407144.0 0
171703.0 409938.0 0
174913.0 409653.0 0
178498.0 409536.0 0
179201.0 407317.0 0
179181.0 411575.0 0
183222.0 408311.0 0
182638.0 411092.0 0
186229.0 406487.0 0
189290.0 407839.0 0
186174.0 409684.0 0
188425.0 410702.0 0
191978.0 409612.0 0
194243.0 409154.0 0
197838.0 407507.0 0
196785.0 411003.0 0
200403.0 407644.0 0
203301.0 407842.0 0
203202.0 410781.0 0
206436.0 408041.0 0
208850.0 410248.0 0
214852.0 406769.0 0
211815.0 407423.0 0
217743.0 408344.0 0
222215.0 408628.0 0
225666.0 406928.0 0
229468.0 408511.0 0
232806.0 410453.0 0
233445.0 407438.0 0
239795.0 405749.0 0
236820.0 406336.0 0
240916.0 409857.0 0
242788.0 407259.0 0
245408.0 408616.0 0
248790.0 408305.0 0
251464.0 407717.0 0
253638.0 406175.0 0
253460.0 410126.0 0
256517.0 407066.0 0
259186.0 409438.0 0
262370.0 407612.0 0
263703.0 410504.0 0
265711.0 406165.0 0
268386.0 409030.0 0
273011.0 405301.0 0
270394.0 406313.0 0
272043.0 409610.0 0
273867.0 408179.0 0
276051.0 405317.0 0
276566.0 408959.0 0
278221.0 406567.0 0
279289.0 409554.0 0
281099.0 408012.0 0
283479.0 409477.0 0
285437.0 406218.0 0
286066.0 412863.0 0
286009.0 410258.0 0
288622.0 408934.0 0
292381.0 410032.0 0
295430.0 406519.0 0
295362.0 409356.0 0
299329.0 409506.0 0
303914.0 407464.0 0
302268.0 409446.0 0
306824.0 408947.0 0
309037.0 407660.0 0
309223.0 411352.0 0
311828.0 408587.0 0
316631.0 406662.0 0
314526.0 408929.0 0
319272.0 409127.0 0
318640.0 411622.0 0
321357.0 408065.0 0
322076.0 411097.0 0
324248.0 410258.0 0
325109.0 407032.0 0
328817.0 409159.0 0
327530.0 411358.0 0
330758.0 407174.0 0
334232.0 407109.0 0
331439.0 411586.0 0
333955.0 409516.0 0
336813.0 407034.0 0
339538.0 407337.0 0
336627.0 411232.0 0
339815.0 410603.0 0
342666.0 407932.0 0
344237.0 409088.0 0
344850.0 410893.0 0
347426.0 407351.0 0
349606.0 409598.0 0
347357.0 411446.0 0
352636.0 410853.0 0
136520.0 417213.0 0
138863.0 415882.0 0
140962.0 414268.0 0
143537.0 413576.0 0
143016.0 416926.0 0
145581.0 412386.0 0
148825.0 413388.0 0
146027.0 416841.0 0
148490.0 417247.0 0
151310.0 414438.0 0
152870.0 416392.0 0
155556.0 412313.0 0
157637.0 414484.0 0
160579.0 415332.0 0
164399.0 413916.0 0
166389.0 416217.0 0
168817.0 413995.0 0
169428.0 415965.0 0
170483.0 412809.0 0
171798.0 414928.0 0
172203.0 412983.0 0
173424.0 416214.0 0
175242.0 412476.0 0
176115.0 415072.0 0
178943.0 413835.0 0
182422.0 414617.0 0
185949.0 411797.0 0
188872.0 414285.0 0
185840.0 416244.0 0
191381.0 411790.0 0
193780.0 412513.0 0
192241.0 414867.0 0
194492.0 416237.0 0
200050.0 411290.0 0
196574.0 414020.0 0
198456.0 415391.0 0
201043.0 413743.0 0
209776.0 414004.0 0
205449.0 412621.0 0
207279.0 414874.0 0
212860.0 411518.0 0
213718.0 415155.0 0
215711.0 410870.0 0
220240.0 411138.0 0
217389.0 414427.0 0
220429.0 415403.0 0
222871.0 413044.0 0
224957.0 410980.0 0
228371.0 412442.0 0
225882.0 415120.0 0
229073.0 415801.0 0
231700.0 413224.0 0
234917.0 412513.0 0
237567.0 410652.0 0
239278.0 414985.0 0
243756.0 410557.0 0
241588.0 412608.0 0
244560.0 413416.0 0
247831.0 411595.0 0
247602.0 415433.0 0
250913.0 412630.0 0
253448.0 413781.0 0
256631.0 412700.0 0
259566.0 414816.0 0
261511.0 412585.0 0
263846.0 413872.0 0
262448.0 415733.0 0
265994.0 411842.0 0
268075.0 414999.0 0
270463.0 412665.0 0
273636.0 411788.0 0
272620.0 414098.0 0
275856.0 414820.0 0
276086.0 412137.0 0
278702.0 413109.0 0
280122.0 411706.0 0
282831.0 412402.0 0
282049.0 415299.0 0
284467.0 417529.0 0
286180.0 415236.0 0
289528.0 412501.0 0
289048.0 415705.0 0
293484.0 413477.0 0
296755.0 411584.0 0
298870.0 414257.0 0
296626.0 415749.0 0
300673.0 412391.0 0
303441.0 412533.0 0
303665.0 415586.0 0
305879.0 411532.0 0
308278.0 413662.0 0
306593.0 414910.0 0
311264.0 411195.0 0
311025.0 415993.0 0
312798.0 413369.0 0
314412.0 416296.0 0
315294.0 412002.0 0
314984.0 415127.0 0
316953.0 414553.0 0
319187.0 415559.0 0
321002.0 413337.0 0
323038.0 414431.0 0
325506.0 412895.0 0
329072.0 413090.0 0
327402.0 415498.0 0
329612.0 416576.0 0
332509.0 414582.0 0
335558.0 413914.0 0
337477.0 415936.0 0
339819.0 415043.0 0
342166.0 412757.0 0
344010.0 414931.0 0
341298.0 417166.0 0
346877.0 413932.0 0
350238.0 413006.0 0
348388.0 416829.0 0
354837.0 413210.0 0
350343.0 415044.0 0
353223.0 415789.0 0
357735.0 414000.0 0
360148.0 415272.0 0
131787.0 419639.0 0
130073.0 421754.0 0
134800.0 419154.0 0
138401.0 419877.0 0
135064.0 422089.0 0
140442.0 418255.0 0
142309.0 420676.0 0
144860.0 419854.0 0
148455.0 420731.0 0
146359.0 421778.0 0
150935.0 419197.0 0
152571.0 421136.0 0
155664.0 417250.0 0
158815.0 418210.0 0
155338.0 419773.0 0
157154.0 421274.0 0
162559.0 417220.0 0
164436.0 418591.0 0
160430.0 420422.0 0
163213.0 421672.0 0
166512.0 418768.0 0
169691.0 418706.0 0
172761.0 418490.0 0
174769.0 420063.0 0
177319.0 417763.0 0
180334.0 417230.0 0
178448.0 420596.0 0
176572.0 421905.0 0
181647.0 419681.0 0
184495.0 419504.0 0
187936.0 418962.0 0
189103.0 421048.0 0
190435.0 417405.0 0
191602.0 419059.0 0
195102.0 419622.0 0
198969.0 418300.0 0
200039.0 421172.0 0
203075.0 416492.0 0
203126.0 420202.0 0
206615.0 417504.0 0
210729.0 416959.0 0
206596.0 420662.0 0
210026.0 420402.0 0
214089.0 419506.0 0
217072.0 418205.0 0
220269.0 418788.0 0
223325.0 416984.0 0
225191.0 420211.0 0
227828.0 417938.0 0
231186.0 420045.0 0
232148.0 416502.0 0
234659.0 420617.0 0
235553.0 416206.0 0
237897.0 419313.0 0
240703.0 419650.0 0
242531.0 416921.0 0
243900.0 420453.0 0
245702.0 417303.0 0
247300.0 420342.0 0
250885.0 417361.0 0
253930.0 420097.0 0
255073.0 416296.0 0
257753.0 417792.0 0
261070.0 418008.0 0
264114.0 418925.0 0
265194.0 416403.0 0
267379.0 420778.0 0
270028.0 418162.0 0
274018.0 420677.0 0
273392.0 417157.0 0
276364.0 418864.0 0
278970.0 416323.0 0
280142.0 419295.0 0
283135.0 421310.0 0
288067.0 418619.0 0
286644.0 421579.0 0
292605.0 416865.0 0
291573.0 420384.0 0
295182.0 420980.0 0
296407.0 418328.0 0
300691.0 416639.0 0
299942.0 419919.0 0
303802.0 421396.0 0
305541.0 418187.0 0
308620.0 418312.0 0
311098.0 421199.0 0
313238.0 419016.0 0
316244.0 416727.0 0
316334.0 419691.0 0
320194.0 417928.0 0
324160.0 417446.0 0
321230.0 420896.0 0
325531.0 420513.0 0
328228.0 419515.0 0
333603.0 417472.0 0
331380.0 419627.0 0
334130.0 421906.0 0
336798.0 419150.0 0
342710.0 417635.0 0
340201.0 418948.0 0
344684.0 420465.0 0
342264.0 421844.0 0
345449.0 417361.0 0
347661.0 420049.0 0
349510.0 420760.0 0
350563.0 418873.0 0
353594.0 418973.0 0
352601.0 421924.0 0
356655.0 417317.0 0
358776.0 418514.0 0
355905.0 420986.0 0
358658.0 421788.0 0
362169.0 417629.0 0
364399.0 419226.0 0
361303.0 422186.0 0
367542.0 419872.0 0
369720.0 422108.0 0
123264.0 426051.0 0
127555.0 422773.0 0
125695.0 424499.0 0
132106.0 424220.0 0
129746.0 426348.0 0
134056.0 427004.0 0
137902.0 423637.0 0
137030.0 426792.0 0
140944.0 423244.0 0
142917.0 425543.0 0
145635.0 423968.0 0
149370.0 422821.0 0
147342.0 425803.0 0
149908.0 424958.0 0
153348.0 423873.0 0
154073.0 427087.0 0
156411.0 423612.0 0
157313.0 426840.0 0
159522.0 424298.0 0
162245.0 425053.0 0
165968.0 422385.0 0
169598.0 421993.0 0
165769.0 425173.0 0
169484.0 425162.0 0
172762.0 422279.0 0
171958.0 426900.0 0
173809.0 424545.0 0
176481.0 424743.0 0
178923.0 423943.0 0
180722.0 422090.0 0
185250.0 422033.0 0
180368.0 425698.0 0
183122.0 424150.0 0
187747.0 423801.0 0
188350.0 426941.0 0
191628.0 422508.0 0
192252.0 424863.0 0
196121.0 422930.0 0
197578.0 426108.0 0
200895.0 423783.0 0
203954.0 423271.0 0
204124.0 426182.0 0
207145.0 423759.0 0
210443.0 423312.0 0
214660.0 423426.0 0
217558.0 421423.0 0
217984.0 424815.0 0
220961.0 422519.0 0
224391.0 424903.0 0
228493.0 423097.0 0
231803.0 425007.0 0
235509.0 424207.0 0
238994.0 422934.0 0
239871.0 425894.0 0
242313.0 422901.0 0
245184.0 422903.0 0
247286.0 425279.0 0
250627.0 422884.0 0
254060.0 423332.0 0
257309.0 421331.0 0
261249.0 421999.0 0
260976.0 426579.0 0
265018.0 425082.0 0
264890.0 422818.0 0
268875.0 424214.0 0
271731.0 422098.0 0
272549.0 425906.0 0
277686.0 421424.0 0
275229.0 423083.0 0
276697.0 425220.0 0
280209.0 424425.0 0
285173.0 425662.0 0
288548.0 422648.0 0
288958.0 425346.0 0
292353.0 424493.0 0
295635.0 424364.0 0
298408.0 422769.0 0
299977.0 425552.0 0
302686.0 424438.0 0
307943.0 421964.0 0
306283.0 425159.0 0
309225.0 425411.0 0
314144.0 422061.0 0
312282.0 424190.0 0
318093.0 422973.0 0
315636.0 425011.0 0
323394.0 423304.0 0
320636.0 425495.0 0
325722.0 425758.0 0
328140.0 423944.0 0
330100.0 422180.0 0
332227.0 423879.0 0
331397.0 427138.0 0
339328.0 423090.0 0
336413.0 424260.0 0
340982.0 426494.0 0
343800.0 425980.0 0
346860.0 422817.0 0
349093.0 422863.0 0
346633.0 425446.0 0
351153.0 423549.0 0
354689.0 423281.0 0
352138.0 426730.0 0
355288.0 426320.0 0
358003.0 424844.0 0
364734.0 422820.0 0
362784.0 424923.0 0
360542.0 426350.0 0
364337.0 427234.0 0
367187.0 424207.0 0
367141.0 426623.0 0
370213.0 426455.0 0
372278.0 424010.0 0
374730.0 425338.0 0
377644.0 426353.0 0
112864.0 431861.0 0
115741.0 430992.0 0
118585.0 429594.0 0
121184.0 427812.0 0
123382.0 430681.0 0
120943.0 432576.0 0
127192.0 427695.0 0
125961.0 430314.0 0
128822.0 432326.0 0
130436.0 429863.0 0
133065.0 429901.0 0
135736.0 430806.0 0
138187.0 429520.0 0
140176.0 427674.0 0
143626.0 428320.0 0
142320.0 430781.0 0
146463.0 428510.0 0
144848.0 432146.0 0
148782.0 430042.0 0
150767.0 427617.0 0
151384.0 431740.0 0
153667.0 429917.0 0
158739.0 429316.0 0
155848.0 430711.0 0
162137.0 428084.0 0
163000.0 431601.0 0
165490.0 427717.0 0
168111.0 427210.0 0
166697.0 430714.0 0
169610.0 429593.0 0
171654.0 431522.0 0
174258.0 429199.0 0
177003.0 427689.0 0
175718.0 431780.0 0
180137.0 428917.0 0
184139.0 426883.0 0
182835.0 431901.0 0
184256.0 429841.0 0
188578.0 431143.0 0
193333.0 428199.0 0
194862.0 431527.0 0
198182.0 429810.0 0
201337.0 427260.0 0
200697.0 431929.0 0
203404.0 429218.0 0
207034.0 426831.0 0
205988.0 430349.0 0
208559.0 431244.0 0
210960.0 427050.0 0
215241.0 427028.0 0
211911.0 430909.0 0
214328.0 429297.0 0
218358.0 427961.0 0
220100.0 431676.0 0
221627.0 427266.0 0
223933.0 430524.0 0
226993.0 427337.0 0
227652.0 431341.0 0
230297.0 428856.0 0
234047.0 428469.0 0
237492.0 427960.0 0
240829.0 429579.0 0
243471.0 426692.0 0
245546.0 430516.0 0
249200.0 429047.0 0
252174.0 426805.0 0
254752.0 429841.0 0
256582.0 426006.0 0
258584.0 430251.0 0
261961.0 431332.0 0
264467.0 428291.0 0
267334.0 426846.0 0
265906.0 431165.0 0
270121.0 429239.0 0
273013.0 430554.0 0
275552.0 428420.0 0
279036.0 428022.0 0
279797.0 430900.0 0
282160.0 427757.0 0
282906.0 430625.0 0
286228.0 429538.0 0
289707.0 428794.0 0
293001.0 428570.0 0
297093.0 428328.0 0
300728.0 431050.0 0
302411.0 427867.0 0
304547.0 431331.0 0
305224.0 427990.0 0
307497.0 429304.0 0
312913.0 428227.0 0
310063.0 428700.0 0
313081.0 431366.0 0
316044.0 428266.0 0
319229.0 428581.0 0
315824.0 431972.0 0
323653.0 428504.0 0
328161.0 428036.0 0
326828.0 430135.0 0
328521.0 432094.0 0
331096.0 430559.0 0
335461.0 427696.0 0
339277.0 428715.0 0
335471.0 431273.0 0
338215.0 431572.0 0
344077.0 429509.0 0
341806.0 431700.0 0
349104.0 427643.0 0
347251.0 430073.0 0
349804.0 431506.0 0
352425.0 430620.0 0
355335.0 432443.0 0
357007.0 429316.0 0
360062.0 429005.0 0
363710.0 429678.0 0
361532.0 432210.0 0
368209.0 429378.0 0
370699.0 428951.0 0
366438.0 430840.0 0
372896.0 429597.0 0
374983.0 428579.0 0
376660.0 429839.0 0
379773.0 428157.0 0
376463.0 432117.0 0
379547.0 430842.0 0
382672.0 429238.0 0
384554.0 430906.0 0
386945.0 431607.0 0
105271.0 435824.0 0
108448.0 435740.0 0
110896.0 434223.0 0
113663.0 435849.0 0
116114.0 434234.0 0
119257.0 435381.0 0
123359.0 433477.0 0
122099.0 437257.0 0
125921.0 433633.0 0
125567.0 436574.0 0
128668.0 436465.0 0
130349.0 433927.0 0
132964.0 432812.0 0
131465.0 436105.0 0
136413.0 433057.0 0
134736.0 434656.0 0
139191.0 435694.0 0
139813.0 432676.0 0
143245.0 434193.0 0
144319.0 436581.0 0
147175.0 432778.0 0
147845.0 435668.0 0
151405.0 434110.0 0
153936.0 432758.0 0
153350.0 436509.0 0
155938.0 433419.0 0
159534.0 433257.0 0
164262.0 433873.0 0
162165.0 435338.0 0
163969.0 435962.0 0
167312.0 433760.0 0
170141.0 433799.0 0
170874.0 437302.0 0
173784.0 434205.0 0
178713.0 432413.0 0
176976.0 435594.0 0
181546.0 434547.0 0
184608.0 435581.0 0
185212.0 432794.0 0
188336.0 436060.0 0
191917.0 432952.0 0
192568.0 436177.0 0
196699.0 434403.0 0
199941.0 435766.0 0
202685.0 436903.0 0
203922.0 433486.0 0
206287.0 434888.0 0
209065.0 434541.0 0
213042.0 434316.0 0
216496.0 431219.0 0
217139.0 434468.0 0
219608.0 435174.0 0
222830.0 435050.0 0
226457.0 434849.0 0
233828.0 431822.0 0
230450.0 433517.0 0
233667.0 435833.0 0
237536.0 432332.0 0
236586.0 435945.0 0
242524.0 431745.0 0
240676.0 434706.0 0
244988.0 435087.0 0
248717.0 434045.0 0
252133.0 432008.0 0
254039.0 435006.0 0
257100.0 432947.0 0
260715.0 434925.0 0
264808.0 434587.0 0
266976.0 436387.0 0
269367.0 433552.0 0
273384.0 434118.0 0
276670.0 432060.0 0
278488.0 434702.0 0
280397.0 433652.0 0
283665.0 434782.0 0
287496.0 433553.0 0
290149.0 431927.0 0
291013.0 435740.0 0
293060.0 432936.0 0
293939.0 436315.0 0
295997.0 432196.0 0
295977.0 435984.0 0
298797.0 434499.0 0
301859.0 436439.0 0
303282.0 433969.0 0
304374.0 436929.0 0
307302.0 432618.0 0
305725.0 435056.0 0
308089.0 436963.0 0
310515.0 432873.0 0
311293.0 436600.0 0
319549.0 432334.0 0
314859.0 435587.0 0
319069.0 436406.0 0
323274.0 432489.0 0
323285.0 436874.0 0
326300.0 433578.0 0
326906.0 436766.0 0
333168.0 433060.0 0
330217.0 434951.0 0
337398.0 434059.0 0
335527.0 436491.0 0
344841.0 433681.0 0
340670.0 434926.0 0
344303.0 435910.0 0
347300.0 432987.0 0
346839.0 437489.0 0
349515.0 435559.0 0
350842.0 432842.0 0
353382.0 435281.0 0
358902.0 434405.0 0
357564.0 437507.0 0
364116.0 433963.0 0
363908.0 436728.0 0
366551.0 433319.0 0
370398.0 432591.0 0
366626.0 436890.0 0
369410.0 435357.0 0
373777.0 432913.0 0
372473.0 437003.0 0
375206.0 436335.0 0
380450.0 433261.0 0
377964.0 435204.0 0
379749.0 437540.0 0
383436.0 434111.0 0
382963.0 437382.0 0
386204.0 437601.0 0
386430.0 434923.0 0
389078.0 432636.0 0
391203.0 433823.0 0
388515.0 434731.0 0
389897.0 436888.0 0
392645.0 436052.0 0
395053.0 436747.0 0
101461.0 440182.0 0
98770.2 441450.0 0
103661.0 438119.0 0
106897.0 438639.0 0
103634.0 442165.0 0
107469.0 441992.0 0
111109.0 438128.0 0
110808.0 440578.0 0
114597.0 438106.0 0
114135.0 440861.0 0
117366.0 438087.0 0
118313.0 440048.0 0
121209.0 440257.0 0
120015.0 442865.0 0
126440.0 440336.0 0
123946.0 442192.0 0
132309.0 438958.0 0
129449.0 440494.0 0
133276.0 442112.0 0
136069.0 437499.0 0
137394.0 440312.0 0
141483.0 437686.0 0
140613.0 440505.0 0
143749.0 441396.0 0
145475.0 439744.0 0
149982.0 439344.0 0
153189.0 441339.0 0
156585.0 437478.0 0
156335.0 441239.0 0
159866.0 441410.0 0
160202.0 437684.0 0
162977.0 439344.0 0
166852.0 437742.0 0
167487.0 441545.0 0
174509.0 438542.0 0
171223.0 441701.0 0
180055.0 437525.0 0
177528.0 439544.0 0
181651.0 440811.0 0
183883.0 438503.0 0
186949.0 440267.0 0
190612.0 438739.0 0
191003.0 441183.0 0
194054.0 439532.0 0
196405.0 437448.0 0
198690.0 438604.0 0
201396.0 439747.0 0
203966.0 441739.0 0
205686.0 438062.0 0
208821.0 437555.0 0
207290.0 441157.0 0
209875.0 440255.0 0
211615.0 437899.0 0
213765.0 441776.0 0
215453.0 437504.0 0
218802.0 439171.0 0
222820.0 438764.0 0
226247.0 439305.0 0
229515.0 437079.0 0
228992.0 441430.0 0
231490.0 439078.0 0
235033.0 439738.0 0
238818.0 438804.0 0
243160.0 439171.0 0
247516.0 439470.0 0
251261.0 437212.0 0
251573.0 441592.0 0
254270.0 439507.0 0
257183.0 437403.0 0
257020.0 441043.0 0
263844.0 437958.0 0
260768.0 439966.0 0
267212.0 440351.0 0
269642.0 437178.0 0
271206.0 441370.0 0
272169.0 437911.0 0
276383.0 437282.0 0
274611.0 440341.0 0
278688.0 441469.0 0
280708.0 437749.0 0
282788.0 441590.0 0
288372.0 437028.0 0
285194.0 438768.0 0
289398.0 440414.0 0
292667.0 439025.0 0
296180.0 439200.0 0
298924.0 438224.0 0
302115.0 440345.0 0
305526.0 438744.0 0
308798.0 439924.0 0
311921.0 440260.0 0
315022.0 439267.0 0
317986.0 439593.0 0
322499.0 440337.0 0
329159.0 439179.0 0
326142.0 439703.0 0
328708.0 441687.0 0
332325.0 438019.0 0
333435.0 441321.0 0
340133.0 438548.0 0
336783.0 440314.0 0
343647.0 438480.0 0
344732.0 441316.0 0
347358.0 440576.0 0
349790.0 440371.0 0
351165.0 438329.0 0
354891.0 437773.0 0
351752.0 442483.0 0
353804.0 440317.0 0
358663.0 440351.0 0
356500.0 441790.0 0
361585.0 438001.0 0
362911.0 440965.0 0
360856.0 442760.0 0
366101.0 438968.0 0
369105.0 438777.0 0
366105.0 441584.0 0
369326.0 442028.0 0
372162.0 439657.0 0
374639.0 441483.0 0
376010.0 439017.0 0
378643.0 439807.0 0
380600.0 442352.0 0
383177.0 440281.0 0
385824.0 441635.0 0
388279.0 439454.0 0
390711.0 441036.0 0
392775.0 439168.0 0
395022.0 439992.0 0
392956.0 442830.0 0
395155.0 442528.0 0
397099.0 438464.0 0
399415.0 439979.0 0
398070.0 442577.0 0
402103.0 441301.0 0
92922.3 444269.0 0
90570.4 446836.0 0
95895.8 443140.0 0
93449.9 447378.0 0
96716.4 446309.0 0
100024.0 444648.0 0
102737.0 444848.0 0
101129.0 447466.0 0
107052.0 446410.0 0
111649.0 443151.0 0
111097.0 445099.0 0
113569.0 445677.0 0
116383.0 443477.0 0
118276.0 446696.0 0
122472.0 445321.0 0
126053.0 445513.0 0
127989.0 444202.0 0
130850.0 444753.0 0
133248.0 445974.0 0
136046.0 443298.0 0
138258.0 446187.0 0
140485.0 443344.0 0
143656.0 444242.0 0
141792.0 447029.0 0
146904.0 445430.0 0
147358.0 442321.0 0
150360.0 443544.0 0
152977.0 444789.0 0
156770.0 444595.0 0
163802.0 442396.0 0
160463.0 444125.0 0
164518.0 445253.0 0
167473.0 444781.0 0
167399.0 447324.0 0
174836.0 442859.0 0
170503.0 445386.0 0
173628.0 445870.0 0
178341.0 442842.0 0
176348.0 445161.0 0
179964.0 446174.0 0
184092.0 443451.0 0
186678.0 445531.0 0
188752.0 443882.0 0
192941.0 443448.0 0
191274.0 444637.0 0
194036.0 446667.0 0
196933.0 442636.0 0
198498.0 446923.0 0
200873.0 443102.0 0
202165.0 445914.0 0
206058.0 445263.0 0
209761.0 443869.0 0
210937.0 447105.0 0
218470.0 443343.0 0
215011.0 445804.0 0
219770.0 446402.0 0
222060.0 442361.0 0
222448.0 445257.0 0
225462.0 443423.0 0
228638.0 444976.0 0
232019.0 442833.0 0
232658.0 446697.0 0
239626.0 442891.0 0
235928.0 443675.0 0
243426.0 443073.0 0
241148.0 445776.0 0
247617.0 444856.0 0
252267.0 445488.0 0
259012.0 443076.0 0
255348.0 443595.0 0
258158.0 446398.0 0
263676.0 442181.0 0
261882.0 444890.0 0
266623.0 445013.0 0
269675.0 444354.0 0
271921.0 444929.0 0
274601.0 443532.0 0
277712.0 445943.0 0
281158.0 444963.0 0
284215.0 445469.0 0
286689.0 442878.0 0
289973.0 444829.0 0
291969.0 442787.0 0
292470.0 445768.0 0
298864.0 442079.0 0
295088.0 443226.0 0
299112.0 446055.0 0
302839.0 445158.0 0
306562.0 442861.0 0
307221.0 446684.0 0
310936.0 443177.0 0
310035.0 445816.0 0
313450.0 444727.0 0
315027.0 442438.0 0
319185.0 443366.0 0
316837.0 446890.0 0
323119.0 445336.0 0
325563.0 442635.0 0
327952.0 445633.0 0
331095.0 442712.0 0
330770.0 445099.0 0
334639.0 444826.0 0
337936.0 443961.0 0
338148.0 447704.0 0
341890.0 443240.0 0
341463.0 447120.0 0
344250.0 447594.0 0
346744.0 443526.0 0
349050.0 443299.0 0
345791.0 445666.0 0
349218.0 445534.0 0
353021.0 445120.0 0
356300.0 444766.0 0
359942.0 445251.0 0
356494.0 447826.0 0
364805.0 444452.0 0
368039.0 444930.0 0
368184.0 447423.0 0
370687.0 446599.0 0
371940.0 444085.0 0
374986.0 446420.0 0
377177.0 443580.0 0
378920.0 445989.0 0
382386.0 444683.0 0
381503.0 447526.0 0
386280.0 445176.0 0
389514.0 444363.0 0
391941.0 445291.0 0
394008.0 447034.0 0
396598.0 445613.0 0
400462.0 443667.0 0
399542.0 447339.0 0
402388.0 445552.0 0
404287.0 443110.0 0
406782.0 444649.0 0
404392.0 446906.0 0
409021.0 446765.0 0
411997.0 447418.0 0
82889.0 450579.0 0
80900.3 452898.0 0
85340.5 449599.0 0
87823.4 448194.0 0
86123.3 453167.0 0
91257.7 450356.0 0
89094.6 451971.0 0
93128.0 451554.0 0
93848.3 449338.0 0
95449.2 451188.0 0
97678.7 449072.0 0
99775.7 451422.0 0
103710.0 450231.0 0
106624.0 452320.0 0
109910.0 449619.0 0
113283.0 448472.0 0
110940.0 452912.0 0
116116.0 449998.0 0
114159.0 452847.0 0
118195.0 452498.0 0
120160.0 449187.0 0
123227.0 448605.0 0
120509.0 451652.0 0
123459.0 451880.0 0
126457.0 448470.0 0
126636.0 452317.0 0
129261.0 451355.0 0
129386.0 448108.0 0
132032.0 449024.0 0
132277.0 452201.0 0
134815.0 448109.0 0
138307.0 449888.0 0
135474.0 451126.0 0
140895.0 449428.0 0
139741.0 451819.0 0
142403.0 451118.0 0
144386.0 448922.0 0
147178.0 451605.0 0
149742.0 448039.0 0
154051.0 447899.0 0
152492.0 450954.0 0
157328.0 448457.0 0
161349.0 447649.0 0
162541.0 451733.0 0
165308.0 448278.0 0
166064.0 451338.0 0
169278.0 452275.0 0
169660.0 448684.0 0
172621.0 449233.0 0
171833.0 452060.0 0
176105.0 447535.0 0
175151.0 451083.0 0
178864.0 450595.0 0
183576.0 447723.0 0
182751.0 451295.0 0
187015.0 448505.0 0
186393.0 452977.0 0
190364.0 447247.0 0
196162.0 448787.0 0
190433.0 450949.0 0
193506.0 450064.0 0
196972.0 451539.0 0
203414.0 448722.0 0
200446.0 450048.0 0
203652.0 452310.0 0
206993.0 449233.0 0
210466.0 451350.0 0
213797.0 449347.0 0
217090.0 448204.0 0
216875.0 451583.0 0
220696.0 450336.0 0
224766.0 448351.0 0
228927.0 448578.0 0
231083.0 451048.0 0
238003.0 447316.0 0
234983.0 449827.0 0
243695.0 447219.0 0
241266.0 449177.0 0
245894.0 450075.0 0
250109.0 449159.0 0
254627.0 448637.0 0
257887.0 450541.0 0
261211.0 449521.0 0
264491.0 447887.0 0
267177.0 449646.0 0
273973.0 447513.0 0
270130.0 448097.0 0
273787.0 451915.0 0
277266.0 449556.0 0
284232.0 448884.0 0
280975.0 448746.0 0
283412.0 451910.0 0
287661.0 447466.0 0
287210.0 451626.0 0
291481.0 449358.0 0
295301.0 447621.0 0
298471.0 450599.0 0
301267.0 448951.0 0
304624.0 448885.0 0
309110.0 449353.0 0
312878.0 448309.0 0
317031.0 451775.0 0
320829.0 448564.0 0
321532.0 452176.0 0
324602.0 451417.0 0
325137.0 448323.0 0
329464.0 449600.0 0
332965.0 447788.0 0
335833.0 451029.0 0
340332.0 450272.0 0
342591.0 449513.0 0
342946.0 452403.0 0
348814.0 449068.0 0
345579.0 450349.0 0
352345.0 448143.0 0
354899.0 450493.0 0
359552.0 448596.0 0
358954.0 452695.0 0
364126.0 447708.0 0
362899.0 451607.0 0
366854.0 450680.0 0
369843.0 450564.0 0
373684.0 450068.0 0
378296.0 448133.0 0
380954.0 449983.0 0
377710.0 451548.0 0
384645.0 448813.0 0
383389.0 451617.0 0
389331.0 448101.0 0
387247.0 449925.0 0
387811.0 452174.0 0
390431.0 452514.0 0
391795.0 449588.0 0
396437.0 449755.0 0
394636.0 451718.0 0
401139.0 450149.0 0
398412.0 451820.0 0
403512.0 448855.0 0
405896.0 448789.0 0
402952.0 452873.0 0
406355.0 451746.0 0
409492.0 450383.0 0
414228.0 449352.0 0
412344.0 452140.0 0
417131.0 451086.0 0
419760.0 452506.0 0
75783.0 455831.0 0
72913.3 457268.0 0
78042.1 453770.0 0
79229.1 457667.0 0
83054.7 455391.0 0
87786.4 456064.0 0
92633.5 453645.0 0
90604.9 455149.0 0
96112.8 453404.0 0
94603.9 454845.0 0
94459.4 457609.0 0
98063.8 457012.0 0
98884.0 454286.0 0
102946.0 454121.0 0
101654.0 456838.0 0
105024.0 455336.0 0
107619.0 454546.0 0
108367.0 457444.0 0
111554.0 456158.0 0
115007.0 455388.0 0
118336.0 455215.0 0
121708.0 454749.0 0
125199.0 455808.0 0
128720.0 455054.0 0
127443.0 457977.0 0
131952.0 455543.0 0
135622.0 453518.0 0
137758.0 453325.0 0
135790.0 456043.0 0
140817.0 454132.0 0
143705.0 453461.0 0
139373.0 457136.0 0
143903.0 456636.0 0
147202.0 455135.0 0
147403.0 457875.0 0
150566.0 453105.0 0
150048.0 455818.0 0
152733.0 454548.0 0
153145.0 457164.0 0
155434.0 452640.0 0
159180.0 452318.0 0
156379.0 456223.0 0
159640.0 455277.0 0
159395.0 457410.0 0
162790.0 455311.0 0
165945.0 454501.0 0
169318.0 455391.0 0
173638.0 454681.0 0
177377.0 454659.0 0
181021.0 454699.0 0
183985.0 457224.0 0
193515.0 453384.0 0
190176.0 454662.0 0
196205.0 455107.0 0
199792.0 454177.0 0
202918.0 456655.0 0
207322.0 454203.0 0
213501.0 452467.0 0
211610.0 455271.0 0
214952.0 454877.0 0
218627.0 455212.0 0
222690.0 453439.0 0
224607.0 456842.0 0
226984.0 452619.0 0
228450.0 456834.0 0
234001.0 453538.0 0
230392.0 454055.0 0
232192.0 456848.0 0
238416.0 452398.0 0
236443.0 456681.0 0
242772.0 452310.0 0
241078.0 456916.0 0
248827.0 453085.0 0
245484.0 455041.0 0
248434.0 456854.0 0
253043.0 452653.0 0
251494.0 456221.0 0
256366.0 452824.0 0
256040.0 456862.0 0
260211.0 454162.0 0
264763.0 453090.0 0
269453.0 452704.0 0
272103.0 455723.0 0
279216.0 453344.0 0
275891.0 456787.0 0
283865.0 456001.0 0
287906.0 455303.0 0
291120.0 453221.0 0
294139.0 455226.0 0
290996.0 457369.0 0
294853.0 451890.0 0
296968.0 457590.0 0
297848.0 454227.0 0
302506.0 453396.0 0
300424.0 456864.0 0
307317.0 452401.0 0
306250.0 455738.0 0
309399.0 455264.0 0
312101.0 452944.0 0
312426.0 457335.0 0
315499.0 456280.0 0
320154.0 456459.0 0
324113.0 455079.0 0
327748.0 453356.0 0
327486.0 457309.0 0
330208.0 456213.0 0
332074.0 453299.0 0
339785.0 453473.0 0
335978.0 455094.0 0
338458.0 456011.0 0
342553.0 455694.0 0
349066.0 452921.0 0
346146.0 454394.0 0
348250.0 457741.0 0
352503.0 453160.0 0
350895.0 456126.0 0
355886.0 455837.0 0
360272.0 456503.0 0
362708.0 455303.0 0
365737.0 453831.0 0
365785.0 456863.0 0
369431.0 454551.0 0
373084.0 454469.0 0
375618.0 457211.0 0
376157.0 454635.0 0
380502.0 454042.0 0
378665.0 456879.0 0
385737.0 453884.0 0
383329.0 456519.0 0
389065.0 456633.0 0
393826.0 453868.0 0
392101.0 455426.0 0
395876.0 455841.0 0
394105.0 457883.0 0
397876.0 454169.0 0
400512.0 454800.0 0
398187.0 457796.0 0
401155.0 457208.0 0
404599.0 457037.0 0
407571.0 454943.0 0
410877.0 455145.0 0
415693.0 453959.0 0
415365.0 456729.0 0
419106.0 455189.0 0
422430.0 454144.0 0
425028.0 455601.0 0
422555.0 457207.0 0
427107.0 457545.0 0
67282.5 460984.0 0
64292.2 462907.0 0
70034.2 458998.0 0
71479.7 461700.0 0
74408.7 460311.0 0
77146.2 460106.0 0
74289.9 463392.0 0
81542.8 459773.0 0
78430.1 462762.0 0
81506.7 462699.0 0
84663.8 458415.0 0
88084.3 459790.0 0
84742.6 461847.0 0
91273.8 458654.0 0
88889.7 462959.0 0
92224.0 461877.0 0
95363.8 460605.0 0
96311.5 463251.0 0
98749.6 459567.0 0
101764.0 459801.0 0
98892.6 461799.0 0
101629.0 462635.0 0
104742.0 458402.0 0
105551.0 460999.0 0
109172.0 460162.0 0
112644.0 458103.0 0
112205.0 460899.0 0
115172.0 457987.0 0
114793.0 460277.0 0
118345.0 458452.0 0
116668.0 461589.0 0
122308.0 458636.0 0
119949.0 462515.0 0
125317.0 460880.0 0
128860.0 463130.0 0
130166.0 459285.0 0
132648.0 463045.0 0
133891.0 459772.0 0
137618.0 461317.0 0
141648.0 459550.0 0
144404.0 460068.0 0
145003.0 463032.0 0
147750.0 460985.0 0
150279.0 458782.0 0
151461.0 462261.0 0
153850.0 460104.0 0
157577.0 460111.0 0
161795.0 458953.0 0
166065.0 457914.0 0
164428.0 462070.0 0
168726.0 459777.0 0
171200.0 458063.0 0
172064.0 461968.0 0
174789.0 458501.0 0
178878.0 458777.0 0
175868.0 461789.0 0
181309.0 461782.0 0
188206.0 457658.0 0
185521.0 461270.0 0
192880.0 457810.0 0
189547.0 461063.0 0
193640.0 462146.0 0
198119.0 459147.0 0
202673.0 461430.0 0
206185.0 458569.0 0
209333.0 457461.0 0
206329.0 462257.0 0
209228.0 460998.0 0
214666.0 458014.0 0
211668.0 458841.0 0
217690.0 460228.0 0
221088.0 457759.0 0
222181.0 460966.0 0
225655.0 460984.0 0
229753.0 460718.0 0
233776.0 460537.0 0
237868.0 460930.0 0
249908.0 459786.0 0
245675.0 459857.0 0
253099.0 459640.0 0
258347.0 460829.0 0
263417.0 457881.0 0
260051.0 458281.0 0
261809.0 461562.0 0
268141.0 457797.0 0
272886.0 460138.0 0
277092.0 461670.0 0
280115.0 458536.0 0
283752.0 460411.0 0
287305.0 459610.0 0
293764.0 459000.0 0
291021.0 462104.0 0
295856.0 461923.0 0
300334.0 461020.0 0
304299.0 458844.0 0
308647.0 458545.0 0
307873.0 462453.0 0
312608.0 461601.0 0
317277.0 460532.0 0
324110.0 459176.0 0
321196.0 461293.0 0
330050.0 459284.0 0
327811.0 461093.0 0
333510.0 457607.0 0
332633.0 462504.0 0
336727.0 458215.0 0
336781.0 461435.0 0
340692.0 459151.0 0
344870.0 458361.0 0
344196.0 462013.0 0
347865.0 461580.0 0
353446.0 458324.0 0
351394.0 460524.0 0
355657.0 460515.0 0
354356.0 462703.0 0
358236.0 458576.0 0
358121.0 462244.0 0
362960.0 458212.0 0
361275.0 460766.0 0
365017.0 462579.0 0
366422.0 459786.0 0
369658.0 458027.0 0
369884.0 461660.0 0
372947.0 458274.0 0
373864.0 461999.0 0
381203.0 459088.0 0
377420.0 460499.0 0
386181.0 458970.0 0
384489.0 462548.0 0
389214.0 462149.0 0
391548.0 459813.0 0
396500.0 460082.0 0
393953.0 462222.0 0
400678.0 459718.0 0
399305.0 462820.0 0
403706.0 459969.0 0
406294.0 461762.0 0
403096.0 462323.0 0
407980.0 459051.0 0
409347.0 462178.0 0
412298.0 458686.0 0
412402.0 462553.0 0
416286.0 461704.0 0
419012.0 458843.0 0
421825.0 461402.0 0
424188.0 459332.0 0
426774.0 461122.0 0
424777.0 462783.0 0
429729.0 458552.0 0
429407.0 462891.0 0
431908.0 460460.0 0
434715.0 461952.0 0
54949.3 467609.0 0
58279.0 466640.0 0
60807.1 464374.0 0
60576.0 468657.0 0
63079.9 466198.0 0
66481.2 465551.0 0
66877.4 468340.0 0
68274.3 463540.0 0
69419.2 466468.0 0
70641.5 464293.0 0
70750.2 468185.0 0
72619.7 465460.0 0
76573.6 465107.0 0
74010.3 468120.0 0
79283.4 466888.0 0
82535.0 466048.0 0
85954.3 464610.0 0
90394.1 466118.0 0
93501.4 465032.0 0
95329.3 467593.0 0
98742.3 465223.0 0
102042.0 466043.0 0
98279.5 468410.0 0
104143.0 462813.0 0
108053.0 463219.0 0
105904.0 466170.0 0
111359.0 464390.0 0
110305.0 467775.0 0
114866.0 464160.0 0
117872.0 465483.0 0
120292.0 467338.0 0
123357.0 464874.0 0
131146.0 466371.0 0
135620.0 465262.0 0
139195.0 466452.0 0
141220.0 463055.0 0
143538.0 466210.0 0
148049.0 465068.0 0
152411.0 466114.0 0
154380.0 468272.0 0
155181.0 463728.0 0
156982.0 466520.0 0
159956.0 463530.0 0
160591.0 467732.0 0
163169.0 465514.0 0
164063.0 467933.0 0
168149.0 462911.0 0
166081.0 465709.0 0
169706.0 466346.0 0
174077.0 465370.0 0
178083.0 463885.0 0
180237.0 465668.0 0
182900.0 464761.0 0
184303.0 467516.0 0
187040.0 465051.0 0
190630.0 464304.0 0
193278.0 466396.0 0
196234.0 463968.0 0
199046.0 463626.0 0
201610.0 466068.0 0
204924.0 464876.0 0
208724.0 465506.0 0
212848.0 462642.0 0
216229.0 464815.0 0
220212.0 463600.0 0
223847.0 465361.0 0
227871.0 464869.0 0
231506.0 464527.0 0
234949.0 464494.0 0
238638.0 465413.0 0
241943.0 462312.0 0
241937.0 466718.0 0
245125.0 465295.0 0
248728.0 463765.0 0
252011.0 462704.0 0
252480.0 466441.0 0
255384.0 462473.0 0
256573.0 466031.0 0
259521.0 464148.0 0
262836.0 465561.0 0
265355.0 462252.0 0
269587.0 463331.0 0
266666.0 466943.0 0
273813.0 464728.0 0
278197.0 466420.0 0
281341.0 462923.0 0
282474.0 466216.0 0
286189.0 464346.0 0
290040.0 466015.0 0
294595.0 466255.0 0
299969.0 466357.0 0
304122.0 463367.0 0
304305.0 467274.0 0
306744.0 465686.0 0
309076.0 465693.0 0
311579.0 465382.0 0
316630.0 465661.0 0
324663.0 463304.0 0
320867.0 464717.0 0
324981.0 467098.0 0
328770.0 464473.0 0
333249.0 467488.0 0
340120.0 463440.0 0
336852.0 465016.0 0
339864.0 466367.0 0
343407.0 465633.0 0
348204.0 466075.0 0
351695.0 463815.0 0
353249.0 466934.0 0
356754.0 465648.0 0
361711.0 464812.0 0
364976.0 466607.0 0
367792.0 464300.0 0
368517.0 467926.0 0
371370.0 465368.0 0
374765.0 466632.0 0
377388.0 464947.0 0
380431.0 463092.0 0
380806.0 467359.0 0
384604.0 466941.0 0
388617.0 465538.0 0
392174.0 466045.0 0
391564.0 463525.0 0
396005.0 465120.0 0
398433.0 467361.0 0
402065.0 466481.0 0
405641.0 464730.0 0
409105.0 464739.0 0
407597.0 467499.0 0
412411.0 465894.0 0
417062.0 466215.0 0
420893.0 464454.0 0
424273.0 466320.0 0
428042.0 466242.0 0
431742.0 466288.0 0
433042.0 464444.0 0
437375.0 464309.0 0
436008.0 467362.0 0
440582.0 465943.0 0
440489.0 468565.0 0
443432.0 466795.0 0
49226.3 471589.0 0
52669.2 470174.0 0
56527.4 469818.0 0
53436.4 473327.0 0
56689.8 472939.0 0
59771.1 471647.0 0
63883.8 469192.0 0
64205.6 472696.0 0
68813.5 471286.0 0
72868.0 471856.0 0
77294.8 469696.0 0
76451.4 472707.0 0
80598.0 470229.0 0
83978.0 469249.0 0
87390.0 468009.0 0
83462.8 472898.0 0
86408.0 471607.0 0
89656.5 470955.0 0
91864.1 469055.0 0
94321.0 470747.0 0
97364.7 471323.0 0
101237.0 469159.0 0
100461.0 472499.0 0
104275.0 469636.0 0
104254.0 473438.0 0
108112.0 470874.0 0
111759.0 471344.0 0
114608.0 468552.0 0
115127.0 472635.0 0
118314.0 469312.0 0
121847.0 469448.0 0
119107.0 472367.0 0
126328.0 468145.0 0
128030.0 473536.0 0
130262.0 469988.0 0
134239.0 469289.0 0
138131.0 469947.0 0
142000.0 469859.0 0
147029.0 469629.0 0
150533.0 468633.0 0
148868.0 473055.0 0
152441.0 470876.0 0
157482.0 471365.0 0
162684.0 470709.0 0
166547.0 468953.0 0
168990.0 470476.0 0
165872.0 472489.0 0
172233.0 469493.0 0
176979.0 468624.0 0
174358.0 472775.0 0
181053.0 468864.0 0
182617.0 471730.0 0
185680.0 470282.0 0
189452.0 468359.0 0
192995.0 471485.0 0
197197.0 468070.0 0
201191.0 470828.0 0
204886.0 468357.0 0
207953.0 470524.0 0
212514.0 468645.0 0
216368.0 468479.0 0
216607.0 471725.0 0
220002.0 468061.0 0
220020.0 472536.0 0
223685.0 470409.0 0
226356.0 468298.0 0
229695.0 468504.0 0
227496.0 472443.0 0
232722.0 467487.0 0
232539.0 471838.0 0
235937.0 468722.0 0
239913.0 469615.0 0
243844.0 469433.0 0
248245.0 468842.0 0
252106.0 470537.0 0
255706.0 469803.0 0
259935.0 468513.0 0
263690.0 470469.0 0
268067.0 471711.0 0
270895.0 468026.0 0
274672.0 468680.0 0
277506.0 471261.0 0
284640.0 468210.0 0
281322.0 469656.0 0
284870.0 472132.0 0
288162.0 469395.0 0
291977.0 469111.0 0
291638.0 472546.0 0
297449.0 469337.0 0
295406.0 471161.0 0
299339.0 471473.0 0
302913.0 470900.0 0
308433.0 469976.0 0
313117.0 468437.0 0
312615.0 472792.0 0
317100.0 471177.0 0
321345.0 469094.0 0
328662.0 468153.0 0
326001.0 472490.0 0
330865.0 471624.0 0
337638.0 468962.0 0
340452.0 472412.0 0
341959.0 469102.0 0
345144.0 468854.0 0
345238.0 472612.0 0
348630.0 470538.0 0
352179.0 470067.0 0
360453.0 468561.0 0
356636.0 470432.0 0
360811.0 472926.0 0
364145.0 469755.0 0
366984.0 470524.0 0
369716.0 472489.0 0
372145.0 469408.0 0
375321.0 470386.0 0
377684.0 468841.0 0
377654.0 472952.0 0
381132.0 471398.0 0
384534.0 470592.0 0
387640.0 469141.0 0
390657.0 468811.0 0
388356.0 472340.0 0
394729.0 468694.0 0
392629.0 471850.0 0
397761.0 470145.0 0
401344.0 470736.0 0
396689.0 473241.0 0
405178.0 469284.0 0
404348.0 473126.0 0
410785.0 469583.0 0
407439.0 471882.0 0
410791.0 473638.0 0
414718.0 470639.0 0
420690.0 469381.0 0
417872.0 471878.0 0
420911.0 472820.0 0
424458.0 470233.0 0
423144.0 472905.0 0
429081.0 469995.0 0
431722.0 473125.0 0
432916.0 469223.0 0
435104.0 472390.0 0
437995.0 470525.0 0
442519.0 471980.0 0
445350.0 469244.0 0
448565.0 471075.0 0
451785.0 472846.0 0
38551.4 478378.0 0
42304.1 477141.0 0
46440.5 474949.0 0
50453.4 474171.0 0
50302.2 477279.0 0
53906.7 476803.0 0
57443.4 475795.0 0
60612.3 474833.0 0
58552.6 478642.0 0
64437.3 476241.0 0
61949.5 477923.0 0
68688.6 475347.0 0
72675.8 475933.0 0
76805.1 476190.0 0
80023.0 473464.0 0
80512.7 476589.0 0
83726.7 475989.0 0
87627.9 474879.0 0
92031.7 473969.0 0
90252.5 478227.0 0
95519.5 473872.0 0
97814.0 475083.0 0
94495.8 477511.0 0
97914.1 478236.0 0
101031.0 476296.0 0
107929.0 474501.0 0
105437.0 478019.0 0
110213.0 473385.0 0
112261.0 473960.0 0
109969.0 476316.0 0
117194.0 475838.0 0
113665.0 477147.0 0
120699.0 477125.0 0
123570.0 473178.0 0
125387.0 477507.0 0
132425.0 473812.0 0
129350.0 477531.0 0
136445.0 473850.0 0
133873.0 477633.0 0
137986.0 477418.0 0
140290.0 473740.0 0
142200.0 477019.0 0
144432.0 473336.0 0
146834.0 476399.0 0
152309.0 475004.0 0
156626.0 476185.0 0
161625.0 474589.0 0
165827.0 477345.0 0
170093.0 474159.0 0
173963.0 476831.0 0
178781.0 474146.0 0
184009.0 475387.0 0
188187.0 473125.0 0
187123.0 477265.0 0
190748.0 476432.0 0
194475.0 476051.0 0
197326.0 473309.0 0
196845.0 477680.0 0
204531.0 473257.0 0
200553.0 476278.0 0
204735.0 477623.0 0
207832.0 475140.0 0
210396.0 473056.0 0
210521.0 476130.0 0
213599.0 474027.0 0
217717.0 476483.0 0
222865.0 475740.0 0
227125.0 477061.0 0
230386.0 475341.0 0
234435.0 476751.0 0
237065.0 472754.0 0
238486.0 476407.0 0
241719.0 473526.0 0
245723.0 472545.0 0
245269.0 476427.0 0
249676.0 474153.0 0
254717.0 473723.0 0
258861.0 472406.0 0
262265.0 474442.0 0
265948.0 474711.0 0
269297.0 477224.0 0
272727.0 473075.0 0
276801.0 475995.0 0
280960.0 474162.0 0
284848.0 476864.0 0
288363.0 474506.0 0
292240.0 476756.0 0
294610.0 474421.0 0
297744.0 474632.0 0
295512.0 477414.0 0
301736.0 475490.0 0
305885.0 474058.0 0
310206.0 476356.0 0
319338.0 477158.0 0
315997.0 476170.0 0
320988.0 474267.0 0
324383.0 476553.0 0
327474.0 477480.0 0
335466.0 473276.0 0
331098.0 476289.0 0
339298.0 476712.0 0
343026.0 475644.0 0
350074.0 474530.0 0
346976.0 477428.0 0
354130.0 473376.0 0
353352.0 476807.0 0
357711.0 475852.0 0
365540.0 474173.0 0
362477.0 477108.0 0
366721.0 477945.0 0
370846.0 476953.0 0
373755.0 473339.0 0
375511.0 476713.0 0
379194.0 475951.0 0
382546.0 475006.0 0
385510.0 473578.0 0
386872.0 477551.0 0
390375.0 475480.0 0
394495.0 476435.0 0
400228.0 474579.0 0
398356.0 477654.0 0
400854.0 477619.0 0
403452.0 476885.0 0
407886.0 476225.0 0
413862.0 474341.0 0
417128.0 475166.0 0
412038.0 478137.0 0
415937.0 478464.0 0
420469.0 476099.0 0
424077.0 476632.0 0
427286.0 473818.0 0
429511.0 477094.0 0
432673.0 475976.0 0
436693.0 475511.0 0
439710.0 474624.0 0
441573.0 478124.0 0
444743.0 476070.0 0
447298.0 473885.0 0
450132.0 475872.0 0
452753.0 476643.0 0
454742.0 474438.0 0
457533.0 477059.0 0
454214.0 477750.0 0
32263.8 482248.0 0
35788.9 480601.0 0
39360.6 481561.0 0
41628.8 480693.0 0
46324.4 480064.0 0
43037.4 483068.0 0
50748.7 480325.0 0
48762.3 483285.0 0
54834.1 480404.0 0
59336.2 482021.0 0
63268.9 481838.0 0
67250.1 479242.0 0
71330.0 479403.0 0
70031.3 481936.0 0
75182.1 479995.0 0
72952.8 483473.0 0
76930.0 483487.0 0
78678.3 479695.0 0
82208.8 479337.0 0
79957.8 482452.0 0
85953.2 478617.0 0
84165.8 481999.0 0
88179.0 481180.0 0
92541.6 481172.0 0
90454.5 483519.0 0
96421.9 482041.0 0
100924.0 480003.0 0
103519.0 482341.0 0
106686.0 482190.0 0
109871.0 479824.0 0
113257.0 481057.0 0
117227.0 480036.0 0
122760.0 480702.0 0
126897.0 481154.0 0
131183.0 481159.0 0
135725.0 480973.0 0
139966.0 480878.0 0
144580.0 480652.0 0
148189.0 482559.0 0
149823.0 478684.0 0
153544.0 478738.0 0
152594.0 482262.0 0
155731.0 479834.0 0
156723.0 483042.0 0
160059.0 479252.0 0
163676.0 481788.0 0
168252.0 482761.0 0
170512.0 478545.0 0
173593.0 481200.0 0
177101.0 478541.0 0
178403.0 482113.0 0
181165.0 478833.0 0
184979.0 479862.0 0
188348.0 480149.0 0
193026.0 481103.0 0
198082.0 480877.0 0
201639.0 480268.0 0
204868.0 482218.0 0
208491.0 479249.0 0
213289.0 478735.0 0
210832.0 481879.0 0
216675.0 480713.0 0
220066.0 480313.0 0
223820.0 480474.0 0
227607.0 480917.0 0
230838.0 479313.0 0
233986.0 482161.0 0
237605.0 480261.0 0
241485.0 478375.0 0
244620.0 480806.0 0
248441.0 478828.0 0
252963.0 478072.0 0
251181.0 481669.0 0
258433.0 477723.0 0
264319.0 479123.0 0
268148.0 482336.0 0
273361.0 477691.0 0
272419.0 481368.0 0
276074.0 479936.0 0
280760.0 479242.0 0
284959.0 481313.0 0
289060.0 479521.0 0
294243.0 481911.0 0
298577.0 478838.0 0
299476.0 482805.0 0
302326.0 480018.0 0
305868.0 478187.0 0
305821.0 481821.0 0
309136.0 481347.0 0
313589.0 480439.0 0
318647.0 480895.0 0
322072.0 478817.0 0
322219.0 482317.0 0
325675.0 480906.0 0
329468.0 480565.0 0
335671.0 478449.0 0
332838.0 480168.0 0
332077.0 483106.0 0
339504.0 480901.0 0
343285.0 479241.0 0
342770.0 482407.0 0
350915.0 479482.0 0
347291.0 483097.0 0
355192.0 480041.0 0
359662.0 480529.0 0
364635.0 481346.0 0
369845.0 481539.0 0
374117.0 480092.0 0
378257.0 479430.0 0
377138.0 483202.0 0
382134.0 478957.0 0
385324.0 481535.0 0
389036.0 482674.0 0
391651.0 479538.0 0
396147.0 481007.0 0
401362.0 481293.0 0
405763.0 480014.0 0
408931.0 480202.0 0
411178.0 483240.0 0
414140.0 481294.0 0
417309.0 482415.0 0
419506.0 479509.0 0
420875.0 483386.0 0
422676.0 480218.0 0
426575.0 479624.0 0
425133.0 483395.0 0
430711.0 480503.0 0
429231.0 483530.0 0
434179.0 478643.0 0
437546.0 482584.0 0
434288.0 482225.0 0
437851.0 479066.0 0
440525.0 482238.0 0
444417.0 482044.0 0
448017.0 479372.0 0
452237.0 479992.0 0
450753.0 483770.0 0
455312.0 480206.0 0
454285.0 483619.0 0
458304.0 482314.0 0
461220.0 478981.0 0
463101.0 482734.0 0
464935.0 479914.0 0
467379.0 482737.0 0
470738.0 484009.0 0
21972.5 487845.0 0
25622.6 488040.0 0
29193.0 484727.0 0
30174.4 488273.0 0
32358.1 485330.0 0
32938.8 487661.0 0
36431.8 484665.0 0
35543.3 488914.0 0
40562.5 484450.0 0
39535.5 488595.0 0
45660.7 484827.0 0
42731.7 486875.0 0
45844.0 488903.0 0
48846.6 486838.0 0
51622.7 488201.0 0
52510.5 484331.0 0
54822.2 487854.0 0
56965.6 484920.0 0
60611.3 485772.0 0
62122.2 488870.0 0
64138.1 485832.0 0
66756.7 488542.0 0
67554.0 484071.0 0
70328.2 486523.0 0
74617.1 487210.0 0
77996.9 486333.0 0
81749.8 485574.0 0
86550.0 484743.0 0
84397.0 488553.0 0
89977.1 488315.0 0
93619.0 485325.0 0
96916.5 486866.0 0
100317.0 484181.0 0
100581.0 488148.0 0
104824.0 486219.0 0
110057.0 484539.0 0
112397.0 488268.0 0
114745.0 484074.0 0
116549.0 487571.0 0
119427.0 483745.0 0
121628.0 487801.0 0
124520.0 484595.0 0
128356.0 484773.0 0
133245.0 484851.0 0
137820.0 484578.0 0
141756.0 484076.0 0
145137.0 485891.0 0
149561.0 486083.0 0
153517.0 486410.0 0
158171.0 487762.0 0
160339.0 483697.0 0
163347.0 486078.0 0
171796.0 485771.0 0
175638.0 484704.0 0
179309.0 486674.0 0
182879.0 483281.0 0
187914.0 484311.0 0
192264.0 485975.0 0
196132.0 485099.0 0
198831.0 487979.0 0
200474.0 483992.0 0
203576.0 486683.0 0
208772.0 485496.0 0
213951.0 483570.0 0
213037.0 487092.0 0
216007.0 486946.0 0
218131.0 484140.0 0
221831.0 484326.0 0
224072.0 487775.0 0
226027.0 484536.0 0
228600.0 487518.0 0
230208.0 483851.0 0
232255.0 487063.0 0
236770.0 485970.0 0
240674.0 483051.0 0
240894.0 487334.0 0
244175.0 485730.0 0
247874.0 483562.0 0
251458.0 485758.0 0
254619.0 487536.0 0
255393.0 483190.0 0
257917.0 487603.0 0
260568.0 483436.0 0
264639.0 484191.0 0
266968.0 487094.0 0
270946.0 486043.0 0
278361.0 482774.0 0
275236.0 485368.0 0
278910.0 486178.0 0
282046.0 484169.0 0
285087.0 487015.0 0
285238.0 484244.0 0
288733.0 484567.0 0
292630.0 487487.0 0
297501.0 486712.0 0
303472.0 483914.0 0
301398.0 486631.0 0
304960.0 487764.0 0
307378.0 485020.0 0
311918.0 485727.0 0
316468.0 484532.0 0
324403.0 484627.0 0
320689.0 485884.0 0
328660.0 485064.0 0
333388.0 486798.0 0
336308.0 483314.0 0
337127.0 487557.0 0
341279.0 486020.0 0
350851.0 486650.0 0
353026.0 483668.0 0
353777.0 487483.0 0
356973.0 483574.0 0
356612.0 486584.0 0
361305.0 485845.0 0
367218.0 485669.0 0
371213.0 485777.0 0
373200.0 483563.0 0
375286.0 487682.0 0
381711.0 483617.0 0
379397.0 487101.0 0
385980.0 485837.0 0
382910.0 488391.0 0
390156.0 487047.0 0
393319.0 484100.0 0
394786.0 487947.0 0
397822.0 484914.0 0
402290.0 486092.0 0
406609.0 483898.0 0
406155.0 488166.0 0
410054.0 487361.0 0
414812.0 484270.0 0
413885.0 487411.0 0
418261.0 486839.0 0
422803.0 486990.0 0
427855.0 487882.0 0
432751.0 485782.0 0
437061.0 485757.0 0
436049.0 488533.0 0
440097.0 485192.0 0
439782.0 488646.0 0
443360.0 486314.0 0
447595.0 484409.0 0
446980.0 487485.0 0
450090.0 486690.0 0
457273.0 486098.0 0
453874.0 488004.0 0
460811.0 485900.0 0
462284.0 488648.0 0
458808.0 489069.0 0
464880.0 486238.0 0
468740.0 487245.0 0
473391.0 486484.0 0
476767.0 487519.0 0
17599.3 491717.0 0
20357.2 489650.0 0
21893.3 492347.0 0
25338.3 492744.0 0
28769.9 491971.0 0
32432.3 491154.0 0
36254.9 492722.0 0
40148.1 492488.0 0
42976.9 490934.0 0
45753.9 492888.0 0
49415.8 491408.0 0
53722.8 490691.0 0
56351.6 492543.0 0
58065.0 489087.0 0
60265.0 491941.0 0
64186.4 491859.0 0
68375.1 492243.0 0
71357.1 489767.0 0
71938.6 493358.0 0
76799.0 489355.0 0
74537.5 491127.0 0
77169.0 491809.0 0
79814.8 489669.0 0
82378.4 491901.0 0
86660.3 492194.0 0
90956.2 493440.0 0
94369.9 490001.0 0
98332.7 491101.0 0
108071.0 489371.0 0
103365.0 491262.0 0
107207.0 493146.0 0
111084.0 492577.0 0
114701.0 491541.0 0
117361.0 493808.0 0
118500.0 490618.0 0
122396.0 493188.0 0
125812.0 488811.0 0
127466.0 493472.0 0
130294.0 488872.0 0
132833.0 493304.0 0
135532.0 488844.0 0
137833.0 492945.0 0
140536.0 488586.0 0
142109.0 493152.0 0
144553.0 490080.0 0
147408.0 488870.0 0
147187.0 493408.0 0
150544.0 489572.0 0
152205.0 492793.0 0
154254.0 489937.0 0
162000.0 490994.0 0
167174.0 488536.0 0
171374.0 489522.0 0
169244.0 492291.0 0
175280.0 488744.0 0
179046.0 492017.0 0
183859.0 488545.0 0
189483.0 489312.0 0
186227.0 491520.0 0
194399.0 489875.0 0
197976.0 492715.0 0
201771.0 490747.0 0
206560.0 491266.0 0
210887.0 489910.0 0
214905.0 490903.0 0
219771.0 489024.0 0
223639.0 491304.0 0
226636.0 490415.0 0
230585.0 491782.0 0
234398.0 490134.0 0
238671.0 491354.0 0
244006.0 490574.0 0
247926.0 488069.0 0
248287.0 492228.0 0
251650.0 489438.0 0
255752.0 490804.0 0
259501.0 492908.0 0
262320.0 488713.0 0
266121.0 491116.0 0
269842.0 490361.0 0
273852.0 489582.0 0
277663.0 489251.0 0
276335.0 492636.0 0
281252.0 488281.0 0
280474.0 492718.0 0
284047.0 490864.0 0
288252.0 490416.0 0
291996.0 492189.0 0
296262.0 491637.0 0
301303.0 491359.0 0
308849.0 489115.0 0
305919.0 491633.0 0
312901.0 490869.0 0
316472.0 488549.0 0
316800.0 493105.0 0
320598.0 490462.0 0
325376.0 488884.0 0
323995.0 492952.0 0
330438.0 489876.0 0
335022.0 490529.0 0
338752.0 490534.0 0
342612.0 490433.0 0
347108.0 488776.0 0
351990.0 490117.0 0
355630.0 490030.0 0
358263.0 489163.0 0
360901.0 490411.0 0
358354.0 492384.0 0
365307.0 490114.0 0
370810.0 490202.0 0
375392.0 491575.0 0
379302.0 490840.0 0
383777.0 492135.0 0
387042.0 489710.0 0
391502.0 490917.0 0
396096.0 492206.0 0
399174.0 489026.0 0
400159.0 492934.0 0
403381.0 490785.0 0
405926.0 492797.0 0
408591.0 490735.0 0
412547.0 490625.0 0
407959.0 493420.0 0
410986.0 493630.0 0
416350.0 490734.0 0
420740.0 490531.0 0
424703.0 490406.0 0
432461.0 490102.0 0
428564.0 492410.0 0
437188.0 491907.0 0
441295.0 491475.0 0
443478.0 489804.0 0
446457.0 490796.0 0
444309.0 493051.0 0
450113.0 489719.0 0
453061.0 492259.0 0
449268.0 493976.0 0
456830.0 492040.0 0
461674.0 492387.0 0
465584.0 490093.0 0
465890.0 493945.0 0
468923.0 491740.0 0
471592.0 489652.0 0
472054.0 492725.0 0
475718.0 491109.0 0
479450.0 489772.0 0
482240.0 491965.0 0
479239.0 494099.0 0
6068.25 498307.0 0
8698.01 496967.0 0
11295.9 495319.0 0
14473.2 493757.0 0
14120.7 497572.0 0
18362.4 495844.0 0
22914.7 496528.0 0
27226.9 496417.0 0
31812.6 495812.0 0
35560.1 496902.0 0
38743.0 495621.0 0
38301.3 499464.0 0
42941.6 496138.0 0
48237.6 495730.0 0
51455.0 497124.0 0
52474.0 494080.0 0
55384.6 497028.0 0
58658.6 494866.0 0
59300.6 498562.0 0
62311.5 495396.0 0
66007.0 495074.0 0
62256.4 498745.0 0
65112.0 498620.0 0
69730.3 497060.0 0
75155.6 495171.0 0
79154.7 494133.0 0
80468.9 496799.0 0
78147.3 499051.0 0
83322.9 495194.0 0
87262.5 496339.0 0
91201.9 497518.0 0
95193.4 494480.0 0
97738.1 497381.0 0
100073.0 494493.0 0
100823.0 498497.0 0
104290.0 495639.0 0
109380.0 496960.0 0
113995.0 495633.0 0
118698.0 497671.0 0
124484.0 498256.0 0
129915.0 498086.0 0
135348.0 497495.0 0
139507.0 496003.0 0
143089.0 497103.0 0
147034.0 498509.0 0
152123.0 497408.0 0
156986.0 493462.0 0
161285.0 496156.0 0
165458.0 493877.0 0
169133.0 496519.0 0
173386.0 493306.0 0
176342.0 496139.0 0
183759.0 494536.0 0
179721.0 497832.0 0
187985.0 493463.0 0
188111.0 497715.0 0
191458.0 493892.0 0
194753.0 494645.0 0
197733.0 498086.0 0
202155.0 495452.0 0
206601.0 496755.0 0
211228.0 494613.0 0
217874.0 493813.0 0
215134.0 495604.0 0
221692.0 494228.0 0
223440.0 497811.0 0
226350.0 494639.0 0
230519.0 497039.0 0
234769.0 494754.0 0
238446.0 497515.0 0
241758.0 495009.0 0
245509.0 494968.0 0
249621.0 497647.0 0
252257.0 493160.0 0
255635.0 495833.0 0
263617.0 493709.0 0
264852.0 496689.0 0
268190.0 495110.0 0
272449.0 493845.0 0
275153.0 496358.0 0
278064.0 495705.0 0
281375.0 497715.0 0
285272.0 494988.0 0
289752.0 495733.0 0
293481.0 494979.0 0
296815.0 496062.0 0
300536.0 496564.0 0
304782.0 495785.0 0
309686.0 494099.0 0
310922.0 497686.0 0
314093.0 496710.0 0
317972.0 497091.0 0
320862.0 494984.0 0
324945.0 496950.0 0
328044.0 493433.0 0
329697.0 498293.0 0
333010.0 494367.0 0
337286.0 494006.0 0
341256.0 493966.0 0
345576.0 493516.0 0
344433.0 497015.0 0
349783.0 493468.0 0
347832.0 496786.0 0
354480.0 493858.0 0
351558.0 497868.0 0
355388.0 498385.0 0
358575.0 496232.0 0
362681.0 494568.0 0
361592.0 498565.0 0
367510.0 494523.0 0
370639.0 494325.0 0
371116.0 497613.0 0
373570.0 494201.0 0
375051.0 497497.0 0
377296.0 494588.0 0
381024.0 494745.0 0
384571.0 496983.0 0
388157.0 493894.0 0
393156.0 495743.0 0
398229.0 496898.0 0
403265.0 495565.0 0
407521.0 496434.0 0
412142.0 497287.0 0
414656.0 493776.0 0
416615.0 497847.0 0
418999.0 494004.0 0
421411.0 498667.0 0
424402.0 494620.0 0
429360.0 496446.0 0
432786.0 494192.0 0
436342.0 495480.0 0
433691.0 497967.0 0
440745.0 495070.0 0
437919.0 498670.0 0
445490.0 496612.0 0
449842.0 498541.0 0
454690.0 496774.0 0
459081.0 495556.0 0
459955.0 499101.0 0
462765.0 496482.0 0
466381.0 497546.0 0
470364.0 496113.0 0
475211.0 495750.0 0
478542.0 498697.0 0
481979.0 497166.0 0
485459.0 494622.0 0
489483.0 496808.0 0
493210.0 498455.0 0
2655.94 500032.0 0
10565.3 500372.0 0
6614.41 502468.0 0
14681.3 501357.0 0
16931.1 499576.0 0
20488.0 500400.0 0
17541.9 503705.0 0
25129.4 500690.0 0
22584.8 504350.0 0
29512.2 500695.0 0
26908.3 504734.0 0
31488.8 504487.0 0
33684.2 500365.0 0
36208.0 503608.0 0
42165.8 502342.0 0
46091.8 499273.0 0
49628.2 500076.0 0
47365.9 503650.0 0
51804.5 503796.0 0
53124.5 500250.0 0
56807.3 502471.0 0
61828.3 502107.0 0
66761.6 502228.0 0
70463.5 500932.0 0
73906.9 499211.0 0
72601.8 501994.0 0
75603.2 503450.0 0
80046.2 503026.0 0
82883.7 499315.0 0
87553.0 500437.0 0
84067.0 503159.0 0
91363.2 501941.0 0
94566.7 499035.0 0
97841.8 500226.0 0
95481.9 503028.0 0
100278.0 503101.0 0
104869.0 500064.0 0
109385.0 501915.0 0
113613.0 499625.0 0
117488.0 502432.0 0
121270.0 500865.0 0
123646.0 502642.0 0
127682.0 502519.0 0
133143.0 503073.0 0
139324.0 500807.0 0
144039.0 501817.0 0
149351.0 503160.0 0
157258.0 498844.0 0
154240.0 501874.0 0
157495.0 503463.0 0
161101.0 501110.0 0
164995.0 498793.0 0
164837.0 503521.0 0
168759.0 501222.0 0
173051.0 498752.0 0
176466.0 501288.0 0
180156.0 502795.0 0
183859.0 499985.0 0
187725.0 503092.0 0
192636.0 498797.0 0
195476.0 502205.0 0
201629.0 499588.0 0
205048.0 502140.0 0
213621.0 498392.0 0
209947.0 499767.0 0
213562.0 502891.0 0
218589.0 499586.0 0
223455.0 501418.0 0
226761.0 499548.0 0
230238.0 502258.0 0
234472.0 499670.0 0
238687.0 502202.0 0
243497.0 499782.0 0
247465.0 501647.0 0
253933.0 500672.0 0
257304.0 499038.0 0
257974.0 502581.0 0
261205.0 498115.0 0
266710.0 500531.0 0
271958.0 499086.0 0
277194.0 499582.0 0
280833.0 502523.0 0
285655.0 500426.0 0
290203.0 499984.0 0
293747.0 498465.0 0
297772.0 500013.0 0
302872.0 501815.0 0
307786.0 499179.0 0
311906.0 501069.0 0
316666.0 501275.0 0
321313.0 499171.0 0
321234.0 503362.0 0
325983.0 502289.0 0
334442.0 499108.0 0
339647.0 498581.0 0
337131.0 503485.0 0
344279.0 500073.0 0
348342.0 501276.0 0
353885.0 502817.0 0
358552.0 500496.0 0
366108.0 498929.0 0
362718.0 502110.0 0
370048.0 501494.0 0
374803.0 501654.0 0
379306.0 499007.0 0
378679.0 502875.0 0
382697.0 500122.0 0
382070.0 502909.0 0
386023.0 501613.0 0
389592.0 498873.0 0
390412.0 503638.0 0
394831.0 500983.0 0
399325.0 500989.0 0
401784.0 499206.0 0
405065.0 499818.0 0
402488.0 502283.0 0
406200.0 503180.0 0
409153.0 500342.0 0
413929.0 501539.0 0
418472.0 502303.0 0
426370.0 499380.0 0
423322.0 502885.0 0
430774.0 500358.0 0
428053.0 503811.0 0
435094.0 501967.0 0
442440.0 499330.0 0
439707.0 503327.0 0
446454.0 500547.0 0
444189.0 502791.0 0
447140.0 504401.0 0
449347.0 502491.0 0
453070.0 501840.0 0
457082.0 501096.0 0
460309.0 503764.0 0
464162.0 500840.0 0
467847.0 503958.0 0
469099.0 500239.0 0
473682.0 500108.0 0
471526.0 503124.0 0
477611.0 502573.0 0
482556.0 502804.0 0
485773.0 499814.0 0
487862.0 504355.0 0
489736.0 500889.0 0
493121.0 502609.0 0
497263.0 500065.0 0
497418.0 504139.0 0
2491.45 504276.0 0
2082.92 507857.0 0
9746.75 504730.0 0
6599.2 507356.0 0
13011.2 504482.0 0
15582.6 507416.0 0
11207.2 507711.0 0
19790.5 506847.0 0
23860.6 508220.0 0
28709.2 509167.0 0
34278.2 508073.0 0
39502.6 506987.0 0
44591.3 507222.0 0
49593.8 507635.0 0
54866.1 507110.0 0
59632.4 506274.0 0
63519.5 505387.0 0
67174.8 506938.0 0
62817.1 508951.0 0
70779.4 504366.0 0
72827.6 509194.0 0
78179.5 506968.0 0
87748.9 504930.0 0
82798.1 507246.0 0
91944.6 506136.0 0
96755.3 507180.0 0
101452.0 507472.0 0
105022.0 504696.0 0
112988.0 504301.0 0
108929.0 506540.0 0
116426.0 507335.0 0
120956.0 505902.0 0
125552.0 506473.0 0
129879.0 507704.0 0
137674.0 505378.0 0
141632.0 505137.0 0
139607.0 508295.0 0
145278.0 505724.0 0
153800.0 506281.0 0
160735.0 505460.0 0
161114.0 508482.0 0
164672.0 508171.0 0
168720.0 505744.0 0
172658.0 503638.0 0
172878.0 507823.0 0
176718.0 505826.0 0
183550.0 504210.0 0
180807.0 506847.0 0
184843.0 507585.0 0
192017.0 503538.0 0
189803.0 508292.0 0
195540.0 507055.0 0
199811.0 503414.0 0
200231.0 508007.0 0
203062.0 506300.0 0
209341.0 504137.0 0
206635.0 507336.0 0
211603.0 508058.0 0
217462.0 506493.0 0
221566.0 503867.0 0
222722.0 507656.0 0
225991.0 503892.0 0
226177.0 506927.0 0
230114.0 507833.0 0
234549.0 504804.0 0
238854.0 507455.0 0
241964.0 504658.0 0
245903.0 504931.0 0
248864.0 506815.0 0
250494.0 503641.0 0
254453.0 505187.0 0
251762.0 508266.0 0
258306.0 507437.0 0
262411.0 503907.0 0
266741.0 506268.0 0
270271.0 503724.0 0
275009.0 503978.0 0
271004.0 508186.0 0
279622.0 507177.0 0
285082.0 506348.0 0
289103.0 503697.0 0
294213.0 503576.0 0
290598.0 507902.0 0
299072.0 506026.0 0
303887.0 508051.0 0
308201.0 503829.0 0
308694.0 508190.0 0
313055.0 505888.0 0
318305.0 506255.0 0
323807.0 507873.0 0
328117.0 506569.0 0
331659.0 503688.0 0
334828.0 507347.0 0
339333.0 508490.0 0
343192.0 504145.0 0
348749.0 506549.0 0
353137.0 507179.0 0
358951.0 504475.0 0
356419.0 507029.0 0
362913.0 505883.0 0
365260.0 508828.0 0
366898.0 504487.0 0
371419.0 504778.0 0
370090.0 508746.0 0
375191.0 506512.0 0
380240.0 506407.0 0
385988.0 506495.0 0
390992.0 507849.0 0
394083.0 505638.0 0
398729.0 504938.0 0
403509.0 505988.0 0
410419.0 504293.0 0
407340.0 507089.0 0
411423.0 508239.0 0
415595.0 505866.0 0
420589.0 506470.0 0
425507.0 507350.0 0
432407.0 504557.0 0
430698.0 508605.0 0
436051.0 507023.0 0
440598.0 507289.0 0
443864.0 506043.0 0
447469.0 508034.0 0
451283.0 505957.0 0
455853.0 504967.0 0
454579.0 508912.0 0
459201.0 508271.0 0
462899.0 507642.0 0
464147.0 504956.0 0
467178.0 508580.0 0
471412.0 506787.0 0
474759.0 504999.0 0
475086.0 508952.0 0
479548.0 507411.0 0
485126.0 508087.0 0
492187.0 507048.0 0
497381.0 507964.0 0
3340.93 512107.0 0
9179.94 511849.0 0
13657.8 510587.0 0
19310.6 511765.0 0
24969.0 512270.0 0
32419.6 512957.0 0
37575.8 511321.0 0
41869.5 510817.0 0
46432.3 511547.0 0
52573.8 512301.0 0
58160.7 510303.0 0
61766.3 513235.0 0
66902.2 511094.0 0
70215.5 513713.0 0
78805.0 511821.0 0
83401.8 511464.0 0
85803.3 513811.0 0
87911.3 509676.0 0
93080.6 510599.0 0
97155.4 511953.0 0
99410.5 509817.0 0
101712.0 512503.0 0
105215.0 509431.0 0
108878.0 510873.0 0
112482.0 509215.0 0
115774.0 512104.0 0
119150.0 509854.0 0
122859.0 510084.0 0
119871.0 513584.0 0
126602.0 510403.0 0
130036.0 513287.0 0
134846.0 509625.0 0
143230.0 508954.0 0
139606.0 512031.0 0
148677.0 509229.0 0
144640.0 513199.0 0
153352.0 510765.0 0
157660.0 508918.0 0
161178.0 511710.0 0
169283.0 509997.0 0
165439.0 512810.0 0
173645.0 511666.0 0
177256.0 509737.0 0
181707.0 511235.0 0
186068.0 510963.0 0
193614.0 511602.0 0
198134.0 512075.0 0
203627.0 511324.0 0
208208.0 510735.0 0
211406.0 512916.0 0
215020.0 511031.0 0
219524.0 512215.0 0
223507.0 511479.0 0
226079.0 509936.0 0
228454.0 512384.0 0
234953.0 509667.0 0
232132.0 512808.0 0
243302.0 508685.0 0
240583.0 512257.0 0
244715.0 512852.0 0
247610.0 509839.0 0
251124.0 513490.0 0
255157.0 510580.0 0
259208.0 512062.0 0
262783.0 509122.0 0
262888.0 513452.0 0
266965.0 511596.0 0
275426.0 509568.0 0
282269.0 511129.0 0
287304.0 512473.0 0
292429.0 512151.0 0
295294.0 508903.0 0
296147.0 513076.0 0
299556.0 510688.0 0
303000.0 512838.0 0
307035.0 512391.0 0
312131.0 511996.0 0
315831.0 509789.0 0
319696.0 510469.0 0
327424.0 511738.0 0
331216.0 509187.0 0
335497.0 511841.0 0
344488.0 509801.0 0
348377.0 511259.0 0
351535.0 510294.0 0
355644.0 511236.0 0
360349.0 509057.0 0
359882.0 513841.0 0
363495.0 512137.0 0
367364.0 512983.0 0
374117.0 510438.0 0
371798.0 513692.0 0
375680.0 513430.0 0
378078.0 510290.0 0
383066.0 510751.0 0
388316.0 511625.0 0
390901.0 513675.0 0
392168.0 510791.0 0
396153.0 509508.0 0
401195.0 509641.0 0
405038.0 509429.0 0
404502.0 513247.0 0
408406.0 511123.0 0
414545.0 509409.0 0
412855.0 512044.0 0
418232.0 511305.0 0
422926.0 509981.0 0
426612.0 511398.0 0
422929.0 513819.0 0
430611.0 513728.0 0
435069.0 511777.0 0
439522.0 510550.0 0
439212.0 514567.0 0
443767.0 509774.0 0
446994.0 512086.0 0
443174.0 513503.0 0
450607.0 510491.0 0
453901.0 512789.0 0
457876.0 512736.0 0
463136.0 512269.0 0
471724.0 511093.0 0
467964.0 513780.0 0
477633.0 511792.0 0
481615.0 511761.0 0
485159.0 512297.0 0
489450.0 511327.0 0
494508.0 511619.0 0
498304.0 511333.0 0
497884.0 514407.0 0
3665.12 517920.0 0
9153.03 516676.0 0
13913.8 514674.0 0
18678.4 517708.0 0
23241.6 515672.0 0
22989.9 518911.0 0
27799.1 515899.0 0
32810.8 517629.0 0
36812.2 515107.0 0
37838.2 519514.0 0
41983.4 515418.0 0
47736.4 516532.0 0
53474.6 518171.0 0
57309.5 514882.0 0
57125.2 517902.0 0
60738.5 518316.0 0
66092.6 515805.0 0
70625.1 517376.0 0
74522.2 514838.0 0
74386.9 519342.0 0
79190.4 517520.0 0
82391.6 514693.0 0
85216.8 518303.0 0
90252.2 515119.0 0
94719.0 514631.0 0
94579.2 518687.0 0
98325.9 515923.0 0
102322.0 516707.0 0
106365.0 514370.0 0
111478.0 514259.0 0
111041.0 518801.0 0
115624.0 516631.0 0
120914.0 518567.0 0
124577.0 513991.0 0
126860.0 517992.0 0
131203.0 517760.0 0
135510.0 515513.0 0
140440.0 515962.0 0
144671.0 518875.0 0
150529.0 515403.0 0
156644.0 513985.0 0
161173.0 516043.0 0
165672.0 517775.0 0
169941.0 514687.0 0
174227.0 516147.0 0
177553.0 513719.0 0
180555.0 517306.0 0
185407.0 515135.0 0
190033.0 513556.0 0
189550.0 517933.0 0
194353.0 516281.0 0
199084.0 516370.0 0
203276.0 516668.0 0
207459.0 514596.0 0
207000.0 518746.0 0
211210.0 517644.0 0
215348.0 515255.0 0
218334.0 518801.0 0
222609.0 516664.0 0
225415.0 513719.0 0
228311.0 516597.0 0
232960.0 517302.0 0
236475.0 513944.0 0
237538.0 518674.0 0
242409.0 516946.0 0
246969.0 515974.0 0
251148.0 518363.0 0
255884.0 514583.0 0
259607.0 516516.0 0
264084.0 517539.0 0
268516.0 518233.0 0
272071.0 514180.0 0
278085.0 513947.0 0
275684.0 517809.0 0
279062.0 518530.0 0
282890.0 516247.0 0
290926.0 515842.0 0
294745.0 517272.0 0
299715.0 515996.0 0
305033.0 517374.0 0
309676.0 516055.0 0
313858.0 517465.0 0
316992.0 513993.0 0
318869.0 518734.0 0
322711.0 514442.0 0
327702.0 516532.0 0
331500.0 514231.0 0
335704.0 516926.0 0
340760.0 514188.0 0
344067.0 518134.0 0
346093.0 514350.0 0
348178.0 517712.0 0
351108.0 514577.0 0
355797.0 516502.0 0
360103.0 517969.0 0
364066.0 516474.0 0
369105.0 518086.0 0
375138.0 518229.0 0
379962.0 514849.0 0
385123.0 515173.0 0
382728.0 517530.0 0
389940.0 517690.0 0
394189.0 514174.0 0
396378.0 518644.0 0
399475.0 514322.0 0
401751.0 519257.0 0
405451.0 517213.0 0
410192.0 516091.0 0
415241.0 514973.0 0
415218.0 518876.0 0
419261.0 516698.0 0
426829.0 515166.0 0
424072.0 518506.0 0
429452.0 518011.0 0
434781.0 517283.0 0
439064.0 517696.0 0
442838.0 518012.0 0
446484.0 515820.0 0
450576.0 514979.0 0
451720.0 519723.0 0
455268.0 516424.0 0
460728.0 517128.0 0
465662.0 517225.0 0
474487.0 514467.0 0
470449.0 517620.0 0
479294.0 515868.0 0
479239.0 520296.0 0
475333.0 519111.0 0
483374.0 515033.0 0
483248.0 519201.0 0
487644.0 515930.0 0
493000.0 515750.0 0
497516.0 518098.0 0
3209.36 523899.0 0
8209.59 521437.0 0
13475.3 519916.0 0
18055.7 523523.0 0
20839.9 520738.0 0
23076.5 522626.0 0
25891.6 519856.0 0
29528.9 520329.0 0
27019.7 523697.0 0
33468.3 522109.0 0
39813.3 523064.0 0
43690.9 520774.0 0
49226.8 521502.0 0
52860.9 523423.0 0
56830.1 522167.0 0
61742.5 523390.0 0
65522.6 520437.0 0
70076.5 521619.0 0
73795.2 523366.0 0
77791.0 522515.0 0
81969.4 522009.0 0
90163.7 520005.0 0
93177.8 523135.0 0
99553.5 520739.0 0
105959.0 519347.0 0
103789.0 523499.0 0
109160.0 524092.0 0
115315.0 522103.0 0
120270.0 523527.0 0
124615.0 522629.0 0
129497.0 522042.0 0
134015.0 520443.0 0
138919.0 520543.0 0
153502.0 519205.0 0
149858.0 522096.0 0
157468.0 519166.0 0
154544.0 522156.0 0
161805.0 520137.0 0
161361.0 523300.0 0
165459.0 523144.0 0
170943.0 520493.0 0
176471.0 519826.0 0
179698.0 522971.0 0
184875.0 521166.0 0
189205.0 521378.0 0
192768.0 521454.0 0
197766.0 520681.0 0
203432.0 522572.0 0
209810.0 523163.0 0
214504.0 521012.0 0
222019.0 521199.0 0
225582.0 519817.0 0
225210.0 523597.0 0
229976.0 521849.0 0
235447.0 523336.0 0
241219.0 522859.0 0
247009.0 520939.0 0
252208.0 522798.0 0
255485.0 519040.0 0
260414.0 521953.0 0
266038.0 522111.0 0
272481.0 519676.0 0
276552.0 522035.0 0
282041.0 520934.0 0
285060.0 523667.0 0
287533.0 519270.0 0
292482.0 521921.0 0
296753.0 520878.0 0
301069.0 521246.0 0
305089.0 523767.0 0
309743.0 521304.0 0
315277.0 522225.0 0
319986.0 523423.0 0
324283.0 520482.0 0
331297.0 519699.0 0
339930.0 519371.0 0
336031.0 522010.0 0
346937.0 522651.0 0
352116.0 519982.0 0
357548.0 522115.0 0
362662.0 520758.0 0
366688.0 522749.0 0
372127.0 523447.0 0
380430.0 519690.0 0
377702.0 523199.0 0
384807.0 519608.0 0
382506.0 523414.0 0
387791.0 523733.0 0
393265.0 522692.0 0
398567.0 523322.0 0
407448.0 520598.0 0
411362.0 520762.0 0
414777.0 523653.0 0
419569.0 521528.0 0
423576.0 522941.0 0
427792.0 522047.0 0
432510.0 521407.0 0
439196.0 521305.0 0
444072.0 522480.0 0
447148.0 519872.0 0
453722.0 523683.0 0
456747.0 520505.0 0
462099.0 521620.0 0
467076.0 521795.0 0
472150.0 522075.0 0
476674.0 523800.0 0
481325.0 523255.0 0
487001.0 519735.0 0
486983.0 524438.0 0
490559.0 519769.0 0
494268.0 519582.0 0
493498.0 523476.0 0
497991.0 522090.0 0
2018.52 528374.0 0
7763.63 525445.0 0
5853.59 528904.0 0
11888.6 524541.0 0
10305.5 528782.0 0
15087.0 527817.0 0
21945.8 526729.0 0
26215.5 527685.0 0
31310.9 526701.0 0
35364.3 528317.0 0
36588.4 525239.0 0
41883.3 526746.0 0
46278.3 524750.0 0
50153.4 526133.0 0
46690.5 528879.0 0
54624.7 527172.0 0
58820.2 526282.0 0
58063.2 529446.0 0
66461.9 525424.0 0
62496.9 529523.0 0
71376.6 526642.0 0
76253.2 526970.0 0
80580.6 525990.0 0
87150.2 524667.0 0
83274.8 528973.0 0
92523.2 528118.0 0
97130.6 525527.0 0
100586.0 524580.0 0
102381.0 527680.0 0
117877.0 526741.0 0
113428.0 527585.0 0
122690.0 527510.0 0
127301.0 526060.0 0
133203.0 525055.0 0
130393.0 528256.0 0
137717.0 525481.0 0
143736.0 525754.0 0
149340.0 527168.0 0
153661.0 526444.0 0
157905.0 524160.0 0
161023.0 526110.0 0
164413.0 528740.0 0
169893.0 526572.0 0
175102.0 524627.0 0
178702.0 527923.0 0
182760.0 526218.0 0
189196.0 524928.0 0
192839.0 527966.0 0
195606.0 524762.0 0
199404.0 527033.0 0
218291.0 524150.0 0
270954.0 524541.0 0
280589.0 525723.0 0
288909.0 525008.0 0
285698.0 527628.0 0
297074.0 526283.0 0
302902.0 527708.0 0
308421.0 527302.0 0
312521.0 525505.0 0
316546.0 526940.0 0
321183.0 527611.0 0
326770.0 526357.0 0
332086.0 524464.0 0
331696.0 528639.0 0
336132.0 527439.0 0
341054.0 524522.0 0
345413.0 528266.0 0
352398.0 525856.0 0
357774.0 527845.0 0
362336.0 525395.0 0
366890.0 527542.0 0
375811.0 526914.0 0
380324.0 527592.0 0
385453.0 528856.0 0
390798.0 528574.0 0
395260.0 527104.0 0
399913.0 528417.0 0
404317.0 524580.0 0
409838.0 524564.0 0
408062.0 528671.0 0
413263.0 528896.0 0
418358.0 526805.0 0
421799.0 525640.0 0
425807.0 526520.0 0
430960.0 525909.0 0
436015.0 525043.0 0
441257.0 525762.0 0
438502.0 529212.0 0
445051.0 528290.0 0
448804.0 524611.0 0
453868.0 527982.0 0
458733.0 525275.0 0
463642.0 524865.0 0
462764.0 528491.0 0
466866.0 526760.0 0
469237.0 529221.0 0
471455.0 526146.0 0
475589.0 527849.0 0
480446.0 527767.0 0
491983.0 527729.0 0
497561.0 526174.0 0
2735.43 532627.0 0
8022.64 533295.0 0
13058.5 531843.0 0
18800.0 530322.0 0
20634.5 534188.0 0
23400.8 531013.0 0
28640.4 532072.0 0
33898.2 531501.0 0
38142.9 530085.0 0
42731.7 532559.0 0
51007.3 530391.0 0
47575.2 532715.0 0
55483.5 532459.0 0
60123.8 534038.0 0
64974.5 534584.0 0
68198.1 530584.0 0
73334.9 531147.0 0
78844.8 531373.0 0
83560.5 533497.0 0
87742.7 530796.0 0
92093.5 533397.0 0
97691.8 531250.0 0
103161.0 532091.0 0
107167.0 529467.0 0
111589.0 532326.0 0
116985.0 531501.0 0
122292.0 533112.0 0
126836.0 530556.0 0
130834.0 531920.0 0
134350.0 529746.0 0
136341.0 533417.0 0
138986.0 529998.0 0
140100.0 534272.0 0
142991.0 531545.0 0
147474.0 531107.0 0
152493.0 531329.0 0
158237.0 529408.0 0
161730.0 533039.0 0
169003.0 532086.0 0
174289.0 529711.0 0
186511.0 529108.0 0
318454.0 531503.0 0
323806.0 532101.0 0
329068.0 531878.0 0
334047.0 531819.0 0
340689.0 530273.0 0
344966.0 533053.0 0
349789.0 531350.0 0
354258.0 530463.0 0
357265.0 532236.0 0
362599.0 531621.0 0
368336.0 533187.0 0
371774.0 529270.0 0
376782.0 531212.0 0
381807.0 532682.0 0
388252.0 531464.0 0
391138.0 533341.0 0
395959.0 532179.0 0
401674.0 532965.0 0
404156.0 529600.0 0
406446.0 533208.0 0
411142.0 533956.0 0
415363.0 533425.0 0
417939.0 530781.0 0
422380.0 530089.0 0
425928.0 534571.0 0
428891.0 530413.0 0
431865.0 534774.0 0
434096.0 530112.0 0
441808.0 530622.0 0
444980.0 534036.0 0
449464.0 530271.0 0
458215.0 530590.0 0
453993.0 532994.0 0
462096.0 532783.0 0
466320.0 531180.0 0
472488.0 530798.0 0
469481.0 534021.0 0
477255.0 532083.0 0
482104.0 532993.0 0
485255.0 529755.0 0
489356.0 530773.0 0
486758.0 533884.0 0
493820.0 531738.0 0
490466.0 534040.0 0
497910.0 530221.0 0
497785.0 534265.0 0
2911.13 537836.0 0
8237.74 538408.0 0
11807.8 535778.0 0
14167.8 539437.0 0
16339.1 534796.0 0
19993.1 539373.0 0
24649.6 535834.0 0
28137.0 537844.0 0
32400.6 536628.0 0
37635.1 534720.0 0
46158.7 536514.0 0
41591.1 538173.0 0
51063.1 535403.0 0
48961.9 539808.0 0
57038.6 537212.0 0
61705.0 538558.0 0
70289.8 535224.0 0
67225.9 539469.0 0
75447.5 535740.0 0
80015.6 536030.0 0
87666.3 535719.0 0
83490.4 537936.0 0
90568.3 539132.0 0
96001.0 537786.0 0
101088.0 535693.0 0
106919.0 534651.0 0
104341.0 539018.0 0
110978.0 538055.0 0
114805.0 535552.0 0
118808.0 537028.0 0
127429.0 535238.0 0
123890.0 537594.0 0
132502.0 536067.0 0
144920.0 536228.0 0
353862.0 534580.0 0
358760.0 535568.0 0
365410.0 535996.0 0
369034.0 538179.0 0
373092.0 534497.0 0
374075.0 539487.0 0
377857.0 536118.0 0
382477.0 537801.0 0
386662.0 535018.0 0
389225.0 539261.0 0
393868.0 537418.0 0
398881.0 536588.0 0
403645.0 537184.0 0
408325.0 537767.0 0
414548.0 537960.0 0
419979.0 535472.0 0
423885.0 539160.0 0
428870.0 539423.0 0
433827.0 539191.0 0
438261.0 534682.0 0
450041.0 534911.0 0
453337.0 537806.0 0
448700.0 538978.0 0
458405.0 536227.0 0
465257.0 535993.0 0
473700.0 535398.0 0
469770.0 539456.0 0
479141.0 536546.0 0
483913.0 537804.0 0
489090.0 537679.0 0
493603.0 536314.0 0
497579.0 538665.0 0
1225.02 541586.0 0
5097.88 542848.0 0
10506.4 542991.0 0
25390.2 540496.0 0
29967.3 541515.0 0
34435.7 544331.0 0
36758.0 539644.0 0
39949.9 543615.0 0
44989.5 542158.0 0
50957.9 543303.0 0
53301.5 539832.0 0
57823.6 543070.0 0
63710.8 543296.0 0
72533.1 540054.0 0
78217.0 540331.0 0
86469.1 541123.0 0
93150.0 541858.0 0
100268.0 541490.0 0
400738.0 541634.0 0
410999.0 541952.0 0
416218.0 542801.0 0
419969.0 540573.0 0
423513.0 544103.0 0
429373.0 544740.0 0
437895.0 540195.0 0
434488.0 543725.0 0
439539.0 544624.0 0
443183.0 540106.0 0
447480.0 543371.0 0
452330.0 542721.0 0
457092.0 541238.0 0
462346.0 540695.0 0
472873.0 544560.0 0
475762.0 539932.0 0
477913.0 544464.0 0
480319.0 540803.0 0
482209.0 544320.0 0
486937.0 542682.0 0
492964.0 541565.0 0
497915.0 543084.0 0
1347.43 544537.0 0
7053.65 547458.0 0
10920.0 547286.0 0
16275.0 544896.0 0
22815.1 545159.0 0
466629.0 544819.0 0
490702.0 546420.0 0
495280.0 546072.0 0
POINT_DATA 5000
SCALARS Radius float 1
LOOKUP_TABLE default
5415.48 5120.0 6182.6 5258.36 5061.3 3163.97 3642.12 5812.43 5906.14 5254.28 5580.89 6810.52 6110.27 5073.35 4834.9 3863.18 2356.98 4998.37 5492.18 5867.73 3951.75 4499.64 5542.27 5122.66 5484.19 7513.1 4402.52 4436.4 4182.53 5733.48 3588.44 5645.7 5553.16 2938.66 3672.51 4008.92 5840.26 5670.04 6044.04 5085.53 5484.83 5351.6 4715.55 6059.59 5013.56 4375.68 5054.98 6030.06 5170.02 3557.27 4688.68 4927.31 5185.34 4517.56 4672.91 5903.42 5176.86 3761.32 4366.19 4118.05 5065.13 4940.78 5561.06 3615.22 4380.59 6716.79 3850.77 5325.36 6759.9 5538.89 4730.36 5926.61 5701.86 2720.68 4238.81 3563.63 4468.59 5200.76 5325.02 4862.64 4432.58 6684.56 3955.56 5292.64 2635.86 6166.5 5936.02 4231.61 5305.17 3379.84 5546.39 5945.65 5418.62 7021.47 5416.38 6051.14 4955.55 5836.15 4345.55 5885.03 5246.2 5017.13 5205.43 3673.74 3968.64 4385.06 4688.67 7184.19 4290.3 4861.08 3942.53 3607.45 7613.27 4133.88 4094.62 6483.19 6230.49 5493.32 4601.27 4195.44 5740.68 3261.21 6704.06 2837.58 3653.41 5600.93 3871.88 4827.23 4390.66 6116.18 4911.47 7447.37 4924.6 4733.32 2899.43 3867.67 2924.37 5399.73 4003.05 4827.82 4805.87 3589.27 5759.91 4951.03 4333.2 4665.12 3936.02 4927.02 4174.52 5109.54 7054.71 3641.64 4277.89 5747.75 5539.32 4796.33 6496.85 3856.01 5541.59 4124.71 5279.39 6337.56 5803.39 4381.97 3255.82 5242.73 2812.98 4065.69 5390.22 4712.33 5227.21 3997.1 3260.67 3383.4 3856.1 5980.74 3829.13 6458.82 5489.43 5054.25 5360.19 4874.39 4839.34 5083.08 5728.85 5863.59 3998.5 6257.19 4024.3 4737.14 5603.15 4695.45 4660.72 6038.78 5123.52 4295.38 3038.33 4780.03 4044.71 5816.2 3091.3 5789.98 5527.54 5573.7 7325.81 4055.8 4794.96 6186.19 2980.99 4840.01 6834.49 5525.39 5938.34 5555.28 6394.38 4686.65 5834.74 3888.21 5556.96 5697.78 3921.18 4667.36 4392.68 5495.39 3554.9 4487.31 3996.0 4002.16 5693.81 2540.31 6029.66 6138.47 5697.4 4727.62 5206.78 6425.26 5143.58 4484.76 5611.2 7933.0 5173.87 5118.27 5169.36 5932.23 5788.23 6052.7 6902.81 5529.52 5252.48 4015.92 4138.16 4778.34 4684.5 5120.49 6302.8 4270.95 4005.44 5280.17 5028.96 6362.12 5152.36 4220.65 6820.42 4455.12 5380.13 4894.16 5711.87 4896.52 5581.75 3798.62 4254.17 3666.57 5891.05 4091.31 7199.21 6124.89 5708.81 5043.05 3486.22 5409.61 4414.54 6038.2 5555.88 5713.22 6732.43 3866.16 4524.28 3183.98 4511.82 3778.1 5826.64 4727.24 4816.2 6959.81 6321.41 4941.22 5791.61 6392.01 6644.76 5615.42 4523.7 5255.32 5337.48 5542.21 5924.89 6894.71 5262.61 5201.36 4306.53 5094.81 5972.06 5861.71 5017.78 3794.63 5015.69 6175.81 6677.09 4829.35 4089.76 3372.79 4751.02 5282.64 5184.56 4715.72 4479.66 3369.13 5308.1 6372.62 6730.19 4937.02 7565.34 5637.59 5481.78 4937.14 3307.12 4467.94 5551.36 6038.14 6135.57 5998.38 4312.67 4359.04 4270.24 4947.52 4989.15 4520.1 4305.57 5813.4 3791.79 5201.67 5526.55 3192.41 4987.87 5367.2 4669.66 4808.52 3043.85 5461.13 4907.89 5629.19 6037.08 3103.0 4049.23 6084.86 3586.91 3115.91 5478.92 4850.81 4933.21 4723.12 5024.9 5659.17 4562.29 5423.8 4164.13 3417.33 4642.34 5153.74 5874.89 4165.81 4293.03 4424.7 4754.05 4951.47 4925.44 6084.93 3315.57 4764.96 5607.24 4726.76 3599.45 5655.21 5091.39 6756.95 5601.05 4948.92 5810.84 3748.24 5094.44 5375.47 4655.49 4809.42 4566.18 4717.05 5856.11 5287.2 4234.94 5013.13 4926.42 5080.66 5110.45 5248.77 4528.09 3556.85 4389.21 4128.98 6246.22 5246.61 5215.15 4307.28 5046.33 5053.92 5839.13 5090.24 5923.5 4073.93 2240.39 6324.23 4382.74 4516.43 4749.8 4384.42 4493.48 4230.54 6163.38 4964.09 3459.9 5543.27 4109.88 4980.85 3327.49 5714.58 3329.99 4083.97 5208.32 4607.02 3895.51 6673.96 6291.51 5882.89 4188.32 4100.38 5538.93 5804.71 5727.3 5020.12 6352.26 4242.52 3735.44 4907.06 4645.41 4786.6 5096.78 5740.84 4727.24 4612.68 4929.8 4651.28 6355.42 4362.19 5082.6 3693.63 3937.74 6061.47 4093.08 4997.27 4449.22 5628.24 3960.8 5992.26 5070.39 4923.9 4613.31 4973.78 3947.47 5091.68 3296.27 4713.25 6243.0 5441.96 5174.89 5370.52 4739.42 3697.96 4899.11 3847.38 4745.45 5356.51 3057.03 4433.59 5163.9 4973.83 5530.87 3320.52 4151.94 5690.56 5244.78 5478.47 6142.37 5806.08 4853.39 5365.89 3130.65 4511.54 5196.0 4204.84 6119.09 5069.25 5048.89 3991.03 4288.3 3435.9 4652.29 5774.81 5344.77 4278.07 4723.48 5281.28 3818.59 4863.72 2631.9 5495.68 6043.3 3912.37 6445.94 4310.18 4129.43 5927.43 5492.26 5762.84 5119.37 3982.23 5351.39 5243.29 4336.42 3402.32 7589.94 5004.67 5409.33 4466.03 4178.15 4898.94 4733.04 7531.29 5935.03 3161.47 6826.57 4495.87 4788.87 3746.31 5027.98 5097.87 5346.27 7267.18 4087.15 4143.08 5489.34 5002.48 5952.75 4281.49 5537.72 4320.28 6342.25 4685.34 6327.9 4220.88 6519.71 6640.13 3092.35 5210.03 4583.31 4306.11 5903.66 5419.37 5985.29 4247.23 5788.66 4755.47 3903.75 4485.99 6390.78 5475.8 7435.25 5543.46 5498.32 6475.1 6255.18 4758.21 7500.97 5708.14 3920.42 4262.82 6332.36 5542.14 4218.06 3843.58 5293.9 6082.81 5449.18 3629.96 4714.54 5030.91 3320.11 5507.24 6022.17 4503.89 6851.54 5313.66 4528.49 5275.32 4268.65 4649.22 4694.83 4354.08 5509.42 4520.62 5475.7 5314.69 6050.81 6022.72 5527.33 4969.21 2691.29 6256.02 4277.88 6623.85 8332.24 4931.53 6691.39 6142.94 3191.99 5110.37 5367.52 4048.37 5664.98 4659.59 4322.15 5101.59 3813.22 5570.3 5935.47 2651.49 5512.23 4711.62 5349.31 5394.55 5936.36 4256.43 5229.48 5415.19 4016.18 5127.16 4249.46 4244.99 5560.26 4643.31 5965.81 6917.52 5402.21 2845.98 4668.71 7228.46 5102.36 5787.31 7134.64 4602.25 5480.13 4329.05 4931.38 3485.26 3240.09 5025.39 4548.16 3688.8 4377.07 3848.93 5893.5 3695.36 6020.48 5234.29 5200.05 4114.24 4645.58 5670.2 2976.22 5094.52 2682.24 5928.32 4946.74 5526.75 5435.74 4275.57 5327.45 6185.89 2330.66 3702.37 4177.19 3691.0 3990.25 4752.51 4880.14 5320.92 3948.23 6362.14 5228.18 5978.82 4342.9 6122.55 5978.9 2739.94 4270.53 4736.58 4792.73 4556.36 3369.23 5264.06 4515.71 5358.59 3817.13 4547.19 3963.86 5076.35 3844.9 4091.8 5273.35 5181.4 5166.79 4662.56 5417.15 5996.33 3950.63 4612.62 6631.19 3619.07 6385.23 4467.04 2983.99 3997.96 5660.85 4750.17 3460.94 3758.07 3587.05 4373.45 4989.09 4982.31 5269.18 4406.1 6719.88 6155.31 6308.71 4790.08 4194.5 5082.47 5513.6 4901.41 6202.55 6387.01 5023.15 7111.16 6375.99 4871.44 4853.02 6259.23 4998.21 3931.07 3457.48 3405.98 7440.72 3688.16 4681.72 3949.6 5661.62 5817.25 5626.61 2614.4 4439.35 6363.92 6184.4 6205.93 3828.81 6229.37 5289.52 5034.59 5314.85 5065.11 4553.56 4942.77 4223.33 5069.84 5329.64 5911.67 4187.56 3629.62 4840.84 4997.27 4501.51 5138.31 3708.04 4551.24 3610.4 4621.75 6338.89 6480.17 4564.34 3838.56 6248.81 5088.44 5872.05 6079.11 4256.67 6430.39 4945.39 5376.71 4867.08 6648.68 5407.78 6632.99 5061.98 4923.24 5830.72 5309.98 4307.48 6718.19 4305.43 5450.44 3848.54 3927.99 5266.5 5868.82 3323.28 4051.44 4301.06 5344.25 5344.0 5191.63 5379.87 6013.14 4602.86 4581.13 3856.59 2765.2 4219.07 5413.79 5372.61 5584.06 3686.21 6445.22 5013.42 4962.77 5323.3 4427.28 4635.6 3082.32 4765.02 3658.37 4448.13 5070.29 5703.6 6326.18 4713.74 4266.03 6179.96 4537.6 4419.61 7177.44 6260.79 4407.87 4082.57 4236.14 5080.18 5941.4 4263.33 4454.63 4050.9 6695.82 4716.19 5135.69 5514.76 3456.98 4290.14 5925.6 5572.95 3979.82 6723.16 4746.52 5402.24 4948.5 5210.48 5651.07 6101.92 3627.55 6239.84 5865.39 5370.85 3178.54 5629.39 6157.04 4807.28 4768.61 2261.36 5075.55 4084.49 4220.03 5703.07 5449.46 5147.36 4662.43 4563.46 3963.76 5282.91 5169.9 6510.17 4871.96 4066.38 4523.88 6049.55 5709.62 6405.76 4877.67 4593.7 5987.17 4043.57 5586.81 5006.58 3824.16 3868.18 5130.91 3689.45 4527.02 5383.07 4519.22 7552.94 7644.38 4409.63 5521.25 3661.9 5949.46 2684.03 5246.47 3776.94 4010.57 4522.21 5506.19 5280.69 6923.84 6166.29 6113.54 4043.66 5294.77 5733.62 6553.94 4425.84 5282.51 3797.33 5331.02 7256.35 5742.65 5592.32 4241.89 5054.74 5835.78 4020.32 3498.2 6045.46 4763.45 4138.42 4481.53 5011.31 5077.33 5330.45 3948.17 4959.34 5045.38 5350.88 4531.14 4247.15 4602.85 6552.22 5379.09 4051.34 6004.68 5278.36 6799.4 5136.08 5107.23 4187.31 5558.68 3240.51 6191.29 7422.36 6719.94 5161.01 4950.67 5453.6 4709.05 3077.84 5255.18 5528.53 3004.16 4460.92 5460.65 5945.89 4105.55 4800.69 3279.1 5912.61 4978.31 4099.77 4981.9 5941.72 4245.72 3815.26 4150.99 4478.15 5681.38 4292.06 6318.18 5125.78 5452.83 4790.78 4591.87 6422.84 5534.94 5180.76 5222.16 6218.95 5533.42 5533.72 3678.08 4802.32 4599.38 5730.33 4628.4 4527.99 4376.7 5227.59 4298.15 6051.83 5409.63 4630.82 4263.16 4813.08 5726.66 6799.88 4767.78 3062.43 5426.78 4042.28 4863.23 4402.67 5381.16 3555.86 4403.98 4948.98 4414.48 5794.24 4537.32 5163.02 4127.74 6562.18 4216.92 5445.87 3771.48 5147.67 5577.04 4986.77 5423.0 5178.99 6034.41 4027.09 4135.62 5801.99 4502.18 4860.33 4993.35 3312.06 3361.26 4983.39 4690.55 5366.52 5146.37 7132.12 5518.57 5463.48 5680.94 4543.1 5545.46 5190.61 5832.37 4642.93 3973.12 6024.75 5860.67 4540.86 5235.17 5990.52 6566.1 4560.84 6386.78 5565.13 5227.52 6086.96 4541.21 4704.72 4571.7 5908.1 4271.69 4107.03 3970.25 4850.01 4138.46 5198.77 5643.58 5215.05 3975.31 5137.34 5344.43 4373.47 5197.52 6169.11 5615.35 5172.53 5266.22 3685.13 5226.97 3418.99 4480.95 5417.8 4558.15 4232.16 4836.16 5581.55 5151.11 6550.44 5193.01 8325.01 3764.06 5941.9 4440.81 6642.76 6109.49 5987.42 5567.93 5652.0 3764.1 4340.76 4435.36 5254.49 6065.22 4996.99 6193.35 4470.61 4302.5 3066.13 2476.04 4156.38 4656.78 4177.94 6048.7 6009.88 4344.58 5896.46 4742.68 4502.5 5922.5 3929.19 3633.87 3821.72 4810.12 5347.48 2775.04 6035.6 5198.29 3627.82 4044.45 5262.19 6070.58 5490.43 5022.28 4896.11 4318.48 6132.95 5008.63 4270.74 5754.18 5132.68 6595.03 6552.21 5227.02 4350.12 5670.0 5300.96 4344.51 3834.43 3474.5 4707.06 5491.37 3860.83 6348.03 5732.27 4523.39 5829.22 4497.78 5434.47 5811.18 2967.38 5332.65 5463.41 4835.83 4421.12 4779.5 4929.75 4221.28 6045.22 6649.96 4456.39 4631.83 3701.27 4092.24 4729.43 5105.16 5991.09 6006.16 4164.68 4678.38 5634.83 5316.75 5495.84 6268.1 3784.5 4862.21 5113.21 5499.11 4011.77 4374.35 6396.74 6898.19 7099.43 5526.14 4516.28 5315.4 6449.45 4244.9 6048.86 4285.32 5311.03 4986.51 5339.38 4285.66 4238.4 3872.61 3930.79 4004.35 5293.51 4763.96 3450.93 5097.45 6293.89 5737.75 2761.07 3778.02 4367.78 4095.75 3603.51 5222.51 6609.84 3781.77 5135.96 5658.37 6074.94 4250.88 3783.54 5278.56 4792.39 6917.62 5146.37 4243.79 5433.65 6451.33 5604.35 4159.35 5225.33 3091.67 4237.98 6439.37 4384.88 4896.39 4614.3 5233.78 4562.74 6887.27 5126.91 6008.49 4806.34 3942.07 5776.57 5448.61 5050.65 5133.97 4827.33 5022.8 3937.08 6133.92 7055.53 3719.84 4178.4 5782.6 7034.11 5820.48 6261.42 2586.12 6125.34 5965.78 5252.34 4527.08 2965.79 4410.55 5776.37 4287.63 5486.68 4190.31 5100.25 5678.96 4470.4 6894.26 4611.53 5094.48 5255.12 6408.83 5365.24 4586.19 6625.18 4446.06 4047.87 4185.61 5099.21 5742.47 6969.28 4917.99 5636.4 3319.67 4298.45 4076.59 4428.14 5164.1 6464.15 4972.17 5699.53 4222.77 5268.38 3475.67 7038.89 5527.23 4814.12 3863.67 5631.14 6137.8 4013.38 5067.56 4442.22 4343.78 4887.76 5413.31 6477.91 4332.87 4081.97 3633.79 5401.99 4303.19 5514.84 6081.14 5421.53 5480.83 5653.9 7144.24 5683.26 7443.72 3600.43 6600.94 5371.02 5513.57 5260.34 5013.67 5669.65 5729.23 5934.22 6586.45 3780.23 4359.62 5690.26 5253.55 5011.84 5062.71 6946.21 5433.8 5975.63 5564.02 4274.61 6314.07 3921.08 5083.41 7055.42 5683.61 5805.86 4558.46 5346.68 4049.02 5296.29 5020.71 5997.88 2681.29 4360.23 5576.92 6234.32 4585.31 5010.04 4570.98 4275.07 5323.91 5825.38 4573.72 4163.74 3665.95 5698.96 6471.42 5283.8 6016.19 4124.49 4479.11 6685.4 5714.25 4850.06 5325.96 6332.01 7044.29 4805.33 5980.95 7085.01 3352.35 2735.53 6193.08 5263.3 4909.65 4008.15 3012.99 4669.06 6316.56 4811.32 6420.81 6400.08 5134.39 4256.57 5580.92 3914.2 4607.85 4220.46 4287.53 5598.74 6070.3 4906.82 4788.58 5131.24 5046.21 6155.1 5206.48 4709.35 5196.67 6496.67 5876.71 5826.04 5474.8 5624.49 5339.78 3745.84 4730.41 3471.03 5696.88 4004.04 5607.14 6057.22 6915.83 4156.2 4289.17 6072.45 5511.88 4497.59 4470.98 6444.77 5759.46 5443.58 6248.6 3836.45 5687.85 6401.43 5731.57 5662.55 5737.92 5839.71 3755.95 2685.81 3056.7 5591.76 5889.35 4394.56 5388.78 6101.13 5599.7 4296.69 6238.32 6804.79 6372.13 5369.5 5535.91 3230.13 5955.86 6176.67 5412.24 5016.02 4581.37 4234.18 4920.21 4049.16 3936.95 6069.3 5887.01 5116.6 6523.86 7693.4 4715.58 4286.49 4743.59 3317.83 5208.14 4450.7 5784.3 3532.3 5769.98 5973.33 6088.68 5937.08 2221.99 3583.21 4643.56 5612.21 4135.08 5894.61 4929.14 5128.57 5687.83 5945.08 5004.23 5139.5 6442.69 5226.0 6320.71 4750.78 4373.3 3095.48 4166.08 5029.78 5762.59 3979.26 5188.81 6608.73 3923.03 3999.48 4203.26 4643.85 5082.74 4735.33 5411.85 3999.94 4413.85 4027.46 4844.57 6171.13 5092.37 3901.8 4864.22 5941.61 4933.65 4512.11 4031.78 6098.1 5950.04 5708.99 6333.29 2435.33 4074.48 4477.04 4558.47 5703.74 5831.96 4747.55 5464.68 4475.83 4510.8 7509.24 4587.67 5896.26 5951.81 3924.14 6918.35 6348.54 4066.57 5642.35 5404.01 6357.47 4891.38 4793.65 4532.89 4533.37 4848.46 2779.99 5742.09 5887.38 6942.34 5851.61 3658.05 6153.94 6836.82 5168.35 3862.77 3858.17 4631.99 3747.03 5388.39 2783.85 4356.49 4326.48 4437.07 6184.88 4526.81 3449.37 5829.32 4396.25 5151.52 3763.05 5092.24 5442.32 4347.74 5291.9 5067.46 4009.62 4863.01 6000.7 5620.74 5604.21 5233.29 3979.54 3169.67 4968.03 7493.3 5304.13 3361.92 4814.55 4648.04 5944.09 5833.06 3527.05 6262.72 5698.77 6607.87 3664.11 3365.82 4163.5 4861.06 6481.79 5374.51 5320.28 4569.12 4796.58 4298.67 5873.69 4472.17 5960.66 4962.09 6222.42 5470.77 5654.31 4831.47 6062.05 6939.12 4406.4 6853.85 3493.47 4020.4 4596.75 2395.5 3374.08 3497.9 4188.87 5782.48 5564.23 3735.24 6574.95 4231.83 6853.04 6817.57 3614.96 3886.68 4745.43 4912.04 4539.07 4691.91 4255.34 5064.79 4146.81 5480.3 3427.63 5756.75 4840.44 5093.82 5212.43 6639.64 3687.65 5454.12 4834.3 6318.23 3851.85 4058.87 4206.98 5156.76 6101.57 5948.71 2949.12 3856.53 5460.89 6040.74 4054.22 5260.85 2884.65 5807.46 4648.21 4393.16 3311.29 3110.13 5478.11 5526.31 5030.15 3477.1 3644.78 4078.93 4740.98 3185.39 3728.18 5335.47 5128.77 5633.61 3994.07 5491.9 4219.94 6405.0 5551.95 4659.16 4264.91 3918.87 5369.08 5549.49 4518.04 4766.06 3101.75 3580.58 6605.86 4874.18 2511.46 5356.79 2081.58 4011.37 4778.82 4312.56 4612.06 5204.04 3306.14 5467.84 5029.47 5490.58 4863.79 5395.14 4702.06 6515.84 5117.47 3464.83 4143.78 4123.6 5724.64 7092.87 4538.95 4970.88 5224.12 4850.14 3637.61 5463.38 6098.14 3493.7 5945.21 5750.71 4938.74 4200.03 3474.39 5313.22 5516.95 5328.22 5563.79 3905.51 4151.76 4216.17 4721.02 3546.71 6484.17 4938.72 4254.37 5768.57 4498.25 5108.06 5151.21 5398.64 3573.73 4000.43 4693.52 4568.41 3624.7 5262.35 3420.08 4320.42 7165.9 5344.83 4701.5 7046.11 4449.98 4863.97 6342.48 4771.65 5589.37 5439.49 5216.26 4887.52 5478.95 6571.31 4392.65 6103.11 5174.75 5048.55 5932.07 4984.46 4024.31 5844.72 4147.31 3992.97 5989.05 7228.94 4441.22 5393.65 4961.99 4595.12 4386.8 4549.69 6484.43 6423.81 3485.54 6192.77 4312.15 5934.82 4501.78 7122.87 5048.19 4243.26 5907.46 6799.23 4153.84 4888.27 5399.29 6740.71 6487.56 5789.55 5423.42 4633.05 4901.2 2775.69 6505.78 5657.36 6124.08 5012.5 6519.43 3619.79 4750.58 5876.64 5053.95 6710.88 2477.07 3967.48 6213.04 6667.68 4923.41 2990.77 3163.78 4925.63 5965.15 4305.16 4763.66 4666.81 4888.6 5882.65 6739.08 7042.12 5078.86 4797.52 6326.39 5501.93 4471.58 5462.21 6313.06 5374.98 5226.56 6345.13 5274.19 6470.3 5599.49 4719.7 3436.15 4097.57 5005.85 5711.11 5325.44 4575.94 5102.75 5021.88 4597.29 5956.65 5931.77 4200.09 5097.95 4222.4 5313.12 4914.45 4698.87 3984.88 4661.03 5160.59 3344.57 5318.53 4732.09 6945.98 4281.98 5138.2 5783.48 7001.83 4504.35 5012.97 4349.13 4036.91 5110.11 6379.14 3634.5 4027.63 6631.28 5420.67 6413.15 5416.45 6459.51 4955.16 3288.01 4904.51 2202.77 5751.15 5950.88 4149.55 5853.89 6551.93 7554.58 3380.69 4140.4 4725.01 4625.67 5966.75 4583.52 4458.64 3657.69 6418.11 6015.02 3572.94 4922.49 5797.36 5001.58 5119.86 4820.17 4592.15 4854.11 5084.17 4901.44 2275.45 5971.22 6522.59 4909.31 4785.25 5711.62 5435.19 5461.55 4270.15 3298.2 7093.13 5926.11 6306.21 5253.37 5235.11 4497.31 3830.46 5211.38 4721.32 3293.56 6031.67 6413.11 5092.28 4780.2 4918.77 4739.14 4636.5 5163.55 4819.73 3382.7 6817.32 6471.55 5085.71 4319.79 5960.56 6643.85 6343.14 4020.95 5774.97 6049.79 5862.86 4890.5 4390.41 6113.95 3981.07 4901.07 4050.08 5452.42 5186.3 5017.5 3991.42 5966.61 4893.49 4514.79 4834.87 5760.22 3672.21 5938.17 5269.38 4795.43 2928.82 5607.3 4811.76 4638.18 5498.42 5351.56 4196.37 6448.66 5220.76 3556.79 4453.97 7317.04 6412.67 6204.65 4482.9 4593.7 6550.4 3766.69 4891.67 5513.8 5188.53 6818.91 3503.65 4521.75 3429.57 5569.2 4642.74 5350.88 6735.97 5305.59 3636.15 6114.89 4330.58 5754.6 4355.83 6870.97 5351.86 6056.87 5474.01 5307.35 6201.86 4342.18 5166.89 3639.44 5446.4 5491.63 5725.37 3868.62 5510.9 4883.63 4505.28 3492.83 4971.29 6280.13 5244.22 5585.14 7039.98 6456.58 4729.42 4159.81 5089.26 3886.72 4998.22 5415.45 3776.8 5533.19 5417.21 5096.43 6602.43 3562.79 4383.56 4798.17 4990.79 6865.76 5424.46 4953.1 2895.63 5266.01 6449.64 6515.8 5767.9 2040.66 5384.76 7016.27 5529.42 5274.14 5257.12 6138.12 4903.82 5100.1 4434.19 4940.42 3954.91 3703.1 5923.4 4371.99 4946.42 4623.61 5409.66 4082.47 2965.01 6235.57 6263.44 4863.27 5122.63 6766.43 2315.64 5916.16 4703.08 6934.37 3423.15 4488.85 3731.84 5010.2 3554.48 4579.69 4997.83 6496.52 3718.69 5578.94 4388.63 6192.0 4940.28 2216.82 5885.28 4509.89 6752.75 3022.6 3004.34 3804.5 5375.1 4172.6 6083.28 5211.6 5806.31 4745.79 5456.71 4908.75 3503.41 6556.26 3971.08 5684.25 5438.92 4244.49 4775.04 5036.98 4120.07 4882.66 6746.66 5410.33 3908.56 4844.83 5244.78 5652.87 5135.63 5483.7 5018.69 6384.7 3152.86 3896.27 5952.38 5807.52 5963.36 5230.02 5087.14 5169.48 6016.08 4731.21 3124.7 6064.71 6102.98 5138.33 3743.76 3425.69 6711.21 5510.45 3684.15 4730.14 5832.29 2606.51 4438.76 3994.39 6006.89 4618.73 3814.65 2955.36 5244.98 3965.3 4960.64 5792.98 4983.3 6156.21 6592.93 6350.71 6104.26 6436.74 3568.28 5583.61 5166.79 5425.98 4516.53 5996.66 3940.49 5818.95 4093.99 4857.84 5079.22 6464.8 2978.76 4908.49 6622.11 4962.21 4689.15 5089.62 4428.78 4965.89 3685.65 6790.73 5746.28 4590.55 5243.43 5187.7 5659.95 4741.26 6090.91 5920.32 3701.16 4186.6 3561.29 3295.83 4537.14 4152.85 5551.9 4219.78 6413.02 5644.82 5203.08 5412.31 4440.57 6736.03 3492.19 5374.07 4584.5 5548.29 4118.84 3623.87 5163.77 3766.55 6027.62 5469.13 6098.95 5765.42 4817.16 6123.03 5453.98 5148.08 5653.03 4157.29 4777.03 7610.49 4286.17 6579.31 6028.09 4609.02 5323.55 5452.36 6486.37 5561.74 6100.73 5975.23 5470.04 4198.94 5212.37 4211.82 6003.78 2628.22 5058.51 4901.29 4124.76 4050.03 4813.33 4802.98 4952.52 3840.21 4833.55 3646.95 4081.34 7224.99 4954.76 6334.53 5377.37 5869.67 4311.48 4387.39 4899.73 5457.66 6394.19 5973.89 6193.73 5518.11 5254.24 4192.21 5712.35 3742.11 4743.9 5701.52 6776.22 3719.11 5321.17 4467.13 6060.17 3877.8 6273.6 5153.18 4763.4 4236.86 5902.67 5454.11 5393.76 4941.02 3864.92 6119.99 3668.93 4128.1 5372.82 4385.81 4034.05 5690.96 4653.83 2460.79 4456.11 6063.64 5096.24 6479.39 4986.71 4122.92 4405.42 4997.91 3604.14 4452.54 4684.44 4599.81 5381.54 4749.59 4406.05 5884.9 4858.44 4680.94 3468.42 3685.13 5828.35 5799.69 4673.35 5571.72 3876.21 4655.16 5869.4 4916.22 5297.19 6022.7 5251.4 3867.19 4188.3 4345.67 4453.64 4963.34 5081.78 5019.93 4459.28 4260.92 6116.33 5499.39 4479.94 6250.23 4407.9 4718.54 4435.51 8659.64 3087.09 4055.54 4588.7 7480.41 5683.95 6107.89 4233.8 4976.12 5530.49 4304.41 5660.55 6789.23 3989.7 5107.0 5069.89 6212.15 4246.61 3684.56 5327.75 4946.23 4896.65 4852.58 4532.7 4504.86 3217.67 4788.08 4473.29 5079.64 6163.54 996.652 6500.49 5965.58 3352.34 4607.18 3899.7 2403.72 5134.33 7200.89 5419.57 4147.49 5162.67 5760.98 4705.68 5469.35 4749.96 5384.86 4869.48 4658.24 3623.19 4906.11 4745.16 4564.1 5825.55 4848.14 5509.51 5366.22 3199.4 7261.51 4968.14 3597.43 4914.03 5086.29 4158.91 5144.56 5311.55 3360.86 3034.16 4869.25 5545.21 4333.87 5136.87 5024.32 4708.17 3779.45 2741.2 4983.1 5806.61 5784.37 6010.59 7123.04 3682.35 4009.24 3756.96 4446.58 4402.17 7778.01 5401.4 5127.82 5798.38 5124.17 4125.9 3862.91 5366.11 6171.71 5039.12 7382.3 3908.98 3628.89 2995.67 3598.08 4668.88 4022.56 5522.21 5698.23 5810.77 3772.3 5089.1 2711.19 4714.83 4028.32 5876.72 5236.43 5689.26 3809.69 4992.42 4771.13 7051.9 4940.84 4255.85 5097.69 5511.6 3885.86 6261.75 4517.73 5235.29 5177.64 3757.34 6415.61 4338.08 4255.31 6134.99 5191.08 5453.3 5424.88 3838.47 5148.58 4062.5 2588.37 4199.45 5887.15 5415.85 7234.66 4207.54 6599.66 4886.12 5625.65 6419.12 4936.96 4481.76 4301.61 5206.33 3184.64 5375.12 4446.84 5452.78 4356.36 5065.26 3746.36 5473.72 4892.44 4215.2 4741.28 2205.51 4553.68 3703.49 5361.87 6502.97 6813.72 4783.07 4757.2 6200.63 6816.66 5241.75 3844.54 5849.53 4651.99 5034.69 4509.46 3538.53 4680.69 4420.11 6127.39 4972.18 5640.12 5329.76 6638.25 5078.59 2646.13 4759.99 4365.58 5214.4 3629.49 4636.53 5399.43 5766.05 5117.64 3835.81 4019.34 5429.3 5510.96 6653.07 4697.91 4584.81 5719.79 5071.98 4316.5 4371.08 5148.1 5224.64 5949.73 4312.48 5527.13 5139.18 4278.57 5049.99 5551.43 6318.25 4201.03 3667.93 5001.87 4493.79 5638.7 5684.05 5813.79 5790.42 5293.13 3142.09 5591.77 5182.13 5906.57 7541.76 5053.15 4775.49 4681.29 5910.86 6239.68 5805.1 7320.78 4064.58 3419.87 4234.88 6589.82 4824.81 5027.43 6328.42 4855.01 7307.21 7300.58 5522.75 3608.06 5474.15 7519.2 4099.92 3208.96 6633.61 5285.07 4884.59 4680.14 3858.06 4478.6 4608.41 5895.77 4765.72 4732.09 5857.79 3988.3 2908.7 4039.91 5750.07 6136.49 4642.66 5276.7 6543.13 5149.72 4752.14 5660.16 5037.06 4541.8 5842.56 6200.54 4652.01 3583.49 4928.27 3548.39 3673.28 5775.31 5052.84 5421.64 4858.51 4366.74 3375.28 4603.5 5354.66 4647.67 4214.44 5378.23 4787.97 4981.43 4061.6 4508.18 6214.73 2603.64 2856.55 5175.89 3894.64 4268.19 6618.21 5232.85 4374.74 3717.47 3758.22 4062.56 3205.68 4583.94 5969.37 4928.35 5046.31 4337.32 1937.5 4731.53 3763.9 4788.7 5863.0 5084.5 4918.64 6562.03 4368.12 4815.47 3889.98 5193.58 5490.64 5695.44 3916.42 4507.46 3422.21 5603.68 4944.51 5610.95 5532.72 5042.75 5179.17 3220.8 4598.92 5579.39 5241.22 5270.51 6647.08 5490.75 4979.52 3422.29 5214.63 4407.79 3495.68 6548.29 5783.94 6370.33 5081.08 4202.77 6864.06 5836.14 6008.81 4932.56 4279.44 4899.19 5192.49 4644.88 5058.34 4028.22 7350.26 3918.94 5167.53 3768.46 3852.82 6110.48 4507.36 5003.3 6245.52 4932.29 5499.59 4990.23 3220.29 5749.6 4834.44 3845.9 4141.21 4439.71 4384.28 5782.43 5667.51 5769.14 4456.26 5944.3 3563.14 3381.82 5867.64 3619.72 6208.9 4923.57 4438.58 3340.09 6059.93 4565.93 5217.95 5602.53 6355.68 4184.23 4083.79 4144.57 4511.7 4833.46 4351.38 4304.63 4187.94 5980.59 5550.75 5933.7 4809.67 5021.77 4757.74 4687.64 4378.3 4356.25 5469.47 5411.02 5512.16 4950.97 4989.56 5175.29 4863.96 3645.12 4094.73 5199.44 5580.34 5713.03 5849.65 3852.6 5134.67 5131.15 4110.59 4847.14 4706.5 4165.21 4215.0 3332.49 4811.22 5297.16 3950.27 5116.66 3566.79 5003.78 3629.44 3299.24 5374.67 4208.41 6246.56 5730.61 5826.78 6358.93 5064.67 4383.68 5836.26 6666.67 2617.39 5144.44 2904.46 4826.52 4051.18 5120.92 4685.4 6240.42 5146.0 5721.14 6006.16 4288.45 4577.73 5407.96 4987.28 6206.98 4071.75 5131.77 4410.82 5549.71 6443.99 4967.51 5173.82 7212.97 5698.53 5034.34 3769.2 3856.73 4450.49 5036.14 3468.45 5635.32 4526.34 4316.45 5409.08 5481.64 5673.75 5360.67 4501.05 6263.3 4537.03 4114.2 5352.24 3990.96 4326.06 7362.42 5793.12 5469.17 5473.05 4373.2 5537.34 3487.31 5884.99 5726.42 6643.4 5575.11 5487.63 5461.72 6599.28 7145.73 5800.81 4168.52 3784.94 3954.77 6016.87 6793.1 3125.13 5166.05 6715.73 4174.44 5515.73 5209.55 5113.6 4708.31 3873.92 4027.33 4810.98 4198.9 5135.5 5431.29 5026.76 5091.22 5347.9 5023.41 4646.51 6282.38 4504.52 5640.72 6061.63 7107.63 5073.02 5484.36 4829.35 4867.7 3953.55 6545.43 4063.9 4277.24 4075.28 5263.27 4469.54 6834.41 4314.56 6300.92 7248.4 5161.1 3796.15 5036.58 3928.53 4419.71 5776.96 5329.59 4888.12 3498.16 5439.9 4244.21 4752.9 4588.99 4617.55 4321.21 3197.63 3875.05 4287.16 3540.11 3456.47 5471.74 5950.45 4344.34 5966.42 5009.83 5210.38 5717.8 4489.99 5210.75 4474.83 4548.45 3683.86 4918.76 6555.44 5293.75 5658.14 5114.07 4385.49 4263.18 7124.45 4559.74 6015.22 4454.74 6063.44 5512.44 6449.06 4924.07 3200.6 4629.02 4927.73 5914.5 4602.57 3565.32 3763.85 4608.62 3419.07 5710.33 5344.44 4626.72 3186.07 4369.86 4082.4 5482.76 3745.02 4887.73 3720.7 4211.36 5378.24 3604.31 5817.74 5887.71 5661.6 4827.61 5285.75 5385.03 4169.15 4778.37 5134.17 5968.54 4074.16 4904.35 5592.54 3247.97 5390.33 5124.34 4904.37 4358.81 4651.64 5034.46 5757.29 5729.92 5016.46 6224.13 5061.75 3769.24 6022.78 4087.32 6647.85 7025.09 4674.9 4433.12 3392.26 2549.95 4361.24 6224.85 5403.97 4556.19 5368.66 5106.46 6562.92 4506.66 4068.31 3671.06 5077.29 7035.54 4564.41 4850.5 6331.74 5951.86 4252.18 4833.67 5357.39 4659.88 5325.91 4546.44 5851.63 5657.55 5727.79 5212.92 4831.93 2279.05 5788.97 3472.91 6760.92 4989.2 4023.93 4928.85 5868.89 8137.11 5291.05 6650.77 6045.67 4216.95 4209.49 6119.63 5742.74 5464.25 3946.28 3821.94 4209.31 5486.48 4409.27 5718.28 4247.69 5301.47 4947.24 6242.79 6506.86 5391.48 5088.57 4803.57 4923.43 4568.64 5666.95 4929.6 3919.62 4642.2 4127.53 4945.0 4212.15 4658.11 5260.52 4551.26 6102.49 5678.58 3185.09 6570.35 5114.23 4242.63 3269.54 5495.0 7142.95 5846.95 5064.23 6061.85 5268.15 5819.0 6347.72 3460.93 4488.39 5124.86 7168.2 4571.74 4096.86 3622.48 4796.12 5001.51 6432.8 5385.86 5115.42 4209.0 4930.72 5728.58 6424.77 6297.99 5918.95 4538.89 5689.56 6556.86 3242.31 4898.29 6099.28 4431.06 5372.25 3234.26 4830.13 5730.2 3494.16 5620.88 5370.9 4529.77 4325.13 6172.27 3783.79 5078.73 5278.54 5729.0 5192.92 5275.57 4179.87 4786.66 3661.67 4761.84 5370.1 5517.65 4009.68 5114.51 2569.12 4622.73 4161.32 5161.74 7336.37 5138.93 5099.9 6945.69 6406.8 4795.08 7086.69 5648.78 5501.73 5226.42 4697.24 3612.44 6081.3 4983.43 5233.76 5763.05 5426.4 5866.91 5129.68 2820.07 5679.74 5076.84 3791.41 4092.07 5247.01 5853.12 4213.05 4224.3 4184.21 5157.38 4700.07 6203.03 5188.82 5615.84 5235.87 4464.73 5043.14 6440.38 4717.73 4732.37 5556.0 5484.32 4711.04 3904.07 5007.21 3274.85 6226.14 4173.54 5466.33 5599.29 5280.12 7216.98 5984.81 5721.05 5271.02 4350.15 6329.53 7013.17 3805.67 4590.01 5367.73 4514.39 4640.06 5078.31 4227.41 4807.35 5993.0 6047.14 5467.63 4728.55 4554.68 4368.28 5750.35 5984.8 5463.06 3127.83 4585.04 5236.24 3986.41 4241.68 3469.18 6949.65 2945.34 3372.95 4095.83 4489.29 5695.25 5676.61 7407.91 4301.93 5716.42 5796.26 5701.63 4603.04 4870.94 4620.95 5293.37 5368.93 5271.88 6121.56 5879.24 5740.78 6824.53 5997.91 4742.82 6791.86 6031.22 5485.84 3618.64 5703.84 4335.79 5453.69 3530.82 5432.04 5797.32 4886.99 3921.27 3702.45 3161.1 5265.63 5684.88 6523.78 4645.86 4045.67 6005.95 4941.52 4308.49 5900.0 4262.74 4581.1 6241.77 5317.19 4248.14 5279.19 4016.6 5821.49 7050.08 5580.44 5891.25 5095.52 5129.4 4746.15 3303.49 4655.37 3720.38 5585.25 5256.75 6351.89 2960.5 5932.28 5118.86 4298.7 4183.4 6875.73 6170.9 5833.78 4436.48 5615.35 5758.98 5117.52 3967.76 6311.89 6405.69 4683.28 4217.36 6549.8 4825.73 4851.18 4165.36 5288.33 4208.37 6296.54 4841.7 5702.4 5273.37 5069.9 952.938 5473.89 6089.45 4985.3 5072.5 5810.17 4966.07 5713.36 5748.9 7144.05 5545.59 4619.2 5606.51 4801.8 5740.65 6038.68 4444.97 5046.12 3000.29 4807.4 6349.67 2596.96 4264.54 5261.19 3516.27 4139.3 6541.45 4263.65 4601.74 4263.78 6101.86 5228.75 6545.99 6761.81 3903.91 2918.64 5630.9 6139.64 3990.94 4140.92 4512.07 4756.8 4692.32 4896.43 4176.32 4639.8 4462.35 6069.78 5532.75 3587.93 4517.29 4975.85 4495.75 5323.95 6171.01 4468.26 5578.18 5106.33 5198.94 5933.54 5464.05 5559.79 2980.31 5453.2 3148.79 5264.83 6348.93 5136.51 6815.51 4332.64 5232.16 4422.23 5189.91 4820.68 3989.26 4171.02 7012.36 5028.06 4002.99 5587.3 5159.67 5764.52 3572.73 3770.22 4390.64 5150.84 4608.01 5087.97 5339.82 4519.03 4930.17 5110.27 4745.44 5762.82 4085.96 7360.12 6223.98 5462.6 3035.06 5617.29 4262.19 5998.13 4878.93 6275.25 6892.33 4758.84 4505.3 4731.37 5023.61 3976.0 4672.86 6530.78 5560.23 4975.32 3043.77 5237.55 3902.48 4733.79 4304.64 3909.94 4905.53 4823.06 3799.01 5254.49 7392.65 5288.64 6213.24 6734.39 5942.45 4150.76 5005.72 6123.46 5368.52 4871.77 5811.26 5797.21 5685.74 6740.35 4678.7 3673.6 6028.63 3306.84 5265.21 4657.24 4550.92 4400.14 4749.18 6215.87 5553.94 5191.26 4506.18 4067.96 5494.28 5166.41 4824.12 6542.5 7104.73 5067.56 5206.47 3834.47 4834.39 6162.3 5701.75 5971.21 3272.75 5493.89 4057.17 2781.96 7066.96 5262.47 4467.0 3512.94 3104.96 7043.44 4587.7 3831.52 5601.55 4750.49 4258.98 5196.92 4643.9 3787.08 6106.43 4013.86 5644.81 4177.47 5218.42 4218.16 5345.73 5334.36 4933.49 4841.23 4357.11 5477.8 5486.89 5589.53 7208.19 4549.51 5025.42 5196.08 4965.24 6379.38 6257.79 5438.55 4849.5 5353.23 6229.83 5977.66 4523.81 5065.74 5791.25 4873.23 4028.35 5410.6 4733.41 4969.68 6636.43 3901.53 5431.14 5313.86 4457.05 5151.19 5777.26 6119.0 3792.06 5128.59 4993.49 4293.3 5310.33 6583.37 4864.38 3688.83 3402.44 4848.98 4491.96 4397.06 5184.98 4053.12 4467.51 4479.5 6261.67 5460.57 3435.13 5065.78 5703.34 4612.68 3207.84 6668.98 3977.98 6649.52 4232.33 4939.56 4747.68 4597.88 5770.92 3093.38 4845.91 4461.67 2002.78 5631.32 6322.0 5793.14 4452.36 4491.26 4511.34 4068.41 6463.71 5059.37 4139.39 5783.38 6264.03 5088.64 6030.39 3562.8 6589.8 3729.16 5319.1 3783.36 3757.23 4181.93 6828.8 5987.88 3579.59 4228.53 6161.94 6142.88 4065.28 5155.28 5057.59 5111.26 5388.73 5285.6 5062.77 6019.35 6075.99 4884.93 4600.71 3450.07 5262.79 5927.2 5146.1 6485.77 5866.42 4704.92 3669.32 3663.0 4762.1 5610.53 4099.26 4954.81 2970.9 4383.47 6304.49 4608.34 3926.11 4580.06 4835.97 5695.79 5464.83 3622.8 4770.51 4184.47 5414.58 4431.23 4991.35 4994.65 5740.98 4346.07 4462.87 4012.92 5759.79 4598.54 4711.15 4816.51 3825.48 4658.59 5188.22 4770.63 3810.68 2804.54 4196.62 2809.19 5005.6 4104.04 5593.79 5104.39 5234.2 4612.13 5327.05 5846.6 4109.44 4903.84 4290.49 4557.1 4434.65 6688.53 5209.5 5927.1 6175.27 6500.45 5876.51 4907.55 6731.89 4103.76 4286.61 2932.52 6605.11 4603.66 4757.87 3557.46 5971.95 6298.8 3689.24 3979.46 5178.07 6412.84 6509.54 6079.55 2589.19 5485.61 4937.36 5308.4 6581.13 4569.32 5537.61 6084.88 3543.98 4199.44 5878.55 4014.44 6604.72 6002.77 4431.46 4610.55 4521.42 4614.49 5400.69 6043.34 4128.93 4959.72 4712.17 3808.04 4023.88 4723.71 5348.11 4405.61 6126.5 4034.88 6007.1 6345.2 4832.21 4609.65 5009.21 4742.35 5410.73 5394.79 5645.54 4574.03 5264.08 4526.87 4151.74 5192.82 6920.92 4174.22 3573.84 3038.91 3922.28 4067.89 6570.43 6883.86 3350.99 4979.5 4745.37 4461.14 5418.98 5575.11 5205.38 4574.54 4949.55 3132.34 4764.83 3957.38 1969.87 4841.28 4494.15 5035.71 4419.79 6060.06 4710.88 5544.27 3484.81 3742.31 4316.0 3987.69 4546.96 4287.25 6502.99 5424.55 5755.15 5134.72 4921.1 4271.07 4191.01 3814.16 6419.64 4589.06 5340.05 4420.6 3626.86 4215.05 4140.04 4920.88 4668.8 5995.4 5577.41 5917.34 6511.37 4216.44 3999.5 5735.08 6710.14 5034.05 3953.26 4426.02 5467.51 4474.39 4625.53 5459.92 4096.47 2347.41 4542.16 6478.35 5453.77 4916.7 2638.82 5353.66 5030.33 5157.73 4541.22 5847.91 3539.68 4934.66 4696.03 4984.01 6217.33 4605.39 6270.59 6045.26 6263.87 5743.8 4094.63 5084.76 5581.01 6834.92 6379.33 5130.57 5652.73 5402.45 6321.97 3985.93 6071.59 5945.25 3856.4 5985.75 4696.06 4137.16 6189.29 5984.55 5672.46 5803.3 4721.98 3228.27 5252.82 4142.1 5056.26 5333.04 5445.91 4521.99 4812.59 3794.47 7115.67 4967.02 5675.45 4462.5 2807.46 5573.31 5004.68 4179.8 3488.34 5658.35 5428.24 5108.84 3511.5 4520.14 5067.92 5488.96 5704.61 3188.21 5128.03 3720.92 4379.91 4942.63 5290.37 6139.74 5850.38 4227.66 4691.01 4594.89 4730.97 5245.95 3677.85 5821.42 5214.71 4677.84 4515.02 6294.09 3463.53 4571.57 3445.92 5131.07 3820.19 4121.07 5236.69 4586.82 6026.04 5939.29 6200.05 5859.17 5615.06 5490.54 5203.54 4047.95 6189.67 5507.38 6142.94 6889.5 5001.69 5407.69 3869.39 4416.87 5960.5 5300.17 5308.33 5393.43 6896.55 4666.12 4638.09 4392.75 4685.65 6219.34 6023.07 5674.63 5287.25 6506.63 5939.22 4725.11 5418.12 6371.96 5934.05 4271.93 3495.3 5890.25 5125.17 5322.11 5322.07 5700.79 4859.01 5076.11 4697.49 5524.45 7133.44 4726.2 4750.81 5600.21 4656.01 4282.11 6589.13 5602.62 5714.51 3543.37 5114.67 2030.03 5628.97 4484.78 5527.27 5765.14 4621.33 4767.54 4946.08 2927.84 5121.08 5688.77 6177.68 5466.13 4698.7 6229.64 2848.44 4220.43 4975.56 7282.36 6666.34 4645.91 6959.88 5749.53 4125.75 3746.62 5247.73 5090.48 4876.37 5034.02 5582.28 4649.5 4810.74 5181.31 5784.38 5475.83 4329.8 3074.49 6571.26 3956.24 5202.33 5580.95 7558.99 3393.59 5043.14 5246.81 5089.1 5394.78 6842.54 2853.68 4998.37 3361.11 5329.84 6038.56 6559.82 5599.16 4577.98 5043.34 5886.81 4487.51 4582.12 4295.25 7394.47 5357.14 4850.95 5919.27 5087.3 4793.06 6637.38 4975.57 7066.26 6111.23 3057.3 6150.31 5873.62 4811.11 6126.03 4924.52 4866.8 6044.69 5524.28 2970.24 3133.28 4197.87 5105.54 5731.43 5462.1 6353.81 3414.67 4052.49 4034.41 3518.14 4150.44 5061.74 5326.03 4420.35 4948.96 5717.45 5117.83 5772.57 5256.82 5152.78 6581.56 4117.9 4052.43 3980.46 4057.4 5534.23 4753.76 5383.9 6025.77 5158.44 4441.91 5377.01 4466.22 5330.26 6470.23 5828.25 5339.6 4475.38 5917.08 5483.37 5259.21 5092.93 4256.08 2803.01 5881.93 4604.1 4714.66 4460.89 4399.52 4444.0 6771.18 5770.07 5990.75 5101.6 5327.39 5781.62 4037.86 4138.59 4970.55 5141.03 4938.33 8123.59 4819.83 4801.16 6286.27 5071.38 5616.66 4802.36 5368.28 5257.38 4880.78 5075.23 5625.02 5212.05 5479.86 4829.77 3826.01 3928.99 4444.92 5971.9 4532.67 2513.38 5316.05 4769.62 5260.13 3995.08 5019.84 3900.93 4028.13 4457.73 4149.17 6476.35 6260.58 5728.27 4067.24 3053.19 4313.38 4720.22 5827.3 6598.99 3549.92 5250.56 4032.06 2468.16 6294.14 5888.95 5203.75 3463.34 5122.38 2459.88 5262.85 4210.24 4512.6 5470.67 5901.71 5225.11 3879.83 6565.95 5342.9 5733.12 6436.29 4246.24 6805.02 5402.81 5354.48 5640.63 4729.45 4900.26 6261.13 5374.09 6271.22 3421.81 6188.33 3920.64 6186.24 6916.18 5786.06 4137.41 4996.91 3868.69 3920.44 4450.51 5379.52 3768.62 6033.72 5314.67 5658.05 6593.1 4066.36 4000.51 6032.45 5444.36 5522.34 4026.03 5044.68 5771.98 5899.78 5000.74 4813.81 6153.26 5268.27 4013.86 4061.87 5165.31 4896.67 4585.37 5448.64 5901.8 3798.09 3934.11 6417.61 4288.5 4781.9 4496.51 6815.96 6153.71 6561.94 5317.83 6738.9 5992.06 4157.1 8052.53 4554.24 6182.19 4984.17 4867.12 5910.66 7415.84 4981.81 5734.07 4840.44 3997.68 6033.28 4188.16 3717.22 6327.54 5507.07 4654.92 2943.17 5286.55 5327.71 4322.56 5509.09 4850.49 3873.72 4592.49 4981.55 3625.98 6188.62 6474.5 4763.04 4702.32 5944.52 5908.57 4413.56 5050.2 4821.41 4908.32 4924.53 4499.52 3874.12 5759.19 3113.64 4304.75 5480.86 6139.9 2832.83 4474.96 4084.87 6036.99 3010.1 3633.58 3825.98 4339.97 4589.22 5169.09 4667.84 3906.41 4691.15 6224.64 4260.38 4636.45 4932.27 3799.55 5638.51 5252.22 4962.35 6786.37 4333.23 4600.81 4328.76 4919.13 4124.33 5168.97 5783.88 4167.55 4720.34 5244.47 5378.75 5510.89 5822.7 3780.07 4159.89 5466.49 5447.74 5178.55 4038.17 5007.41 3851.47 4907.48 3692.99 4966.74 5563.47 5651.46 1635.31 3162.27 6033.93 5011.37 2827.92 5516.37 5092.44 2649.69 4441.44 6908.32 3467.11 4817.75 5336.61 5563.09 5637.53 5244.95 4848.15 4645.93 3882.37 4439.09 4634.25 4095.4 5188.57 6351.48 5715.51 5395.12 3886.56 4511.05 3456.3 6074.39 5350.9 3483.61 4262.52 7430.48 5640.67 5545.68 6080.69 3939.96 3751.73 5555.89 4970.12 4967.93 6369.66 6044.01 6520.19 5973.57 4637.3 1458.87 5922.62 6241.48 4414.09 5125.45 5191.29 5957.82 3784.68 6305.9 6649.21 3470.69 5093.28 4859.95 4132.08 5522.18 5223.1 4699.77 5093.41 6842.35 5144.23 5464.34 3621.63 6153.07 4414.06 6833.5 7296.47 5742.39 4780.16 5738.37 5616.11 4433.23 4813.24 5312.2 5847.27 4490.2 4706.59 5734.84 3982.31 4950.07 4582.24 3916.15 5367.05 4758.76 4790.63 5259.29 3584.05 4916.75 4818.53 5087.03 5097.85 5584.64 4123.08 3795.63 4221.03 4576.71 5082.66 4550.77 6793.49 6060.19 3563.33 3550.88 5536.0 3860.8 5145.13 5561.63 5940.5 4358.06 5093.51 5002.38 5647.93 6705.93 4865.11 4731.16 5502.14 6470.87 4465.56 4495.33 4131.08 5282.67 5747.9 3864.19 5146.69 6203.24 6818.23 6213.74 4959.94 2329.93 6938.87 5639.4 5412.07 6185.73 5512.57 4083.24 6520.96 4232.44 5432.2 4612.4 3312.3 6178.19 4746.19 6381.58 3282.57 5212.2 4798.13 5523.81 5648.59 4718.61 6697.45 3873.79 5357.33 5717.67 5783.69 3721.69 5515.59 3830.7 5252.37 6210.0 5432.4 5037.58 6457.89 4844.2 6572.17 6118.13 2181.29 4420.3 3374.62 4766.47 4926.62 4871.1 3917.09 6009.93 5678.08 3482.73 5872.45 5270.1 5130.56 4957.99 4063.26 4947.64 4997.89 4542.62 4881.51 6131.52 6009.88 4311.92 6729.99 6664.54 3922.98 5161.73 5259.48 4777.96 5801.89 2613.78 6608.94 5417.07 3796.73 3834.01 3082.16 5656.84 6789.66 4739.41 4694.27 6760.64 2515.5 5177.88 5551.79 6981.47 6189.81 4449.73 4088.72 3743.85 3945.62 6236.46 5342.17 6379.3 6189.04 5015.67 5189.4 6538.04 4894.15 4337.93 5201.3 4345.51 4048.73 6223.33 5438.6 3747.96 5611.29 4521.88 6568.45 5004.22 4280.92 6201.49 5449.09 4605.61 5154.74 6898.8 5386.95 6540.57 4287.93 5315.71 6158.93 4488.41 5081.65 4369.87 4823.14 6679.12 5652.19 5806.74 4806.99 3771.91 5856.43 5217.62 3839.0 5349.85 4616.81 5715.25 4362.94 4611.21 4469.82 5108.42 4630.5 6296.36 4432.32 5237.27 4451.76 3224.81 7885.41 4499.54 3775.38 5782.25 4046.22 4104.97 4081.77 4575.72 5114.61 4948.21 4987.01 4706.31 4202.12 6332.64 2694.25 4735.99 6492.44 4083.1 4613.32 4739.56 5145.39 3996.93 3352.46 6351.95 6225.05 5195.09 5345.05 3997.52 7679.2 4444.54 5779.9 4909.74 2626.41 5310.33 4565.36 5036.84 5813.68 4025.08 5254.93 4008.67 4803.4 8013.28 3846.55 5283.65 4644.68 2892.36 5981.54 5911.29 5416.41 4542.25 4414.23 4849.21 4785.55 3793.83 5245.4 5647.11 6157.59 5848.41 4246.83 4090.28 7370.52 4726.5 5467.05 3724.23 5103.3 4601.54 7263.57 4696.92 3832.09 5705.96 6437.99 5267.65 6632.04 5360.88 5332.11 4893.72 4072.4 5373.78 5345.65 5438.5 4621.32 5699.4 6578.62 4813.55 4698.94 6284.12 4796.04 3465.03 5229.56 6011.4 5799.86 5172.1 4672.34 5056.32 6052.22 5376.41 6545.78 3354.94 4870.14 4404.87 2932.2 5105.72 4082.01 5767.65 4750.76 4907.03 5497.27 5617.91 4444.95 4721.2 3943.77 5161.02 6265.48 5003.81 4203.68 6262.18 4701.03 3818.37 5663.36 4276.59 5579.04 5434.04 5200.1 5994.21 4884.93 5403.81 5082.25 6964.78 4374.05 5299.03 5504.65 5669.41 5732.11 5040.9 3618.53 4770.21 3783.35 4868.66 4037.16 4004.39 5159.9 4987.48 5943.61 4248.58 5479.17 5020.37 5233.88 4963.88 5888.94 4727.98 4122.2 5175.88 4516.26 5739.69 3509.34 3647.26 7360.62 4977.64 6004.72 4983.56 5699.51 2489.44 4489.18 5863.36 4632.75 3878.8 5237.76 4994.98 4286.84 3948.21 5669.15 6058.13 5296.05 5894.69 5263.86 3330.85 6635.51 5533.52 5003.63 5410.33 4747.24 4695.7 4944.08 4380.86 5576.16 5269.39 5003.49 3964.03 4305.35 5210.22 3308.75 4216.33 4439.17 5832.72 4929.35 3903.9 5051.39 5606.22 6673.92 5242.38 3124.49 6081.35 5459.52 4609.98 5362.15 5566.5 4455.61 4752.31 5240.97 5125.53 5569.85 5405.6 3929.35 4759.38 4223.53 4535.94 6960.97 4287.15 5282.51 5126.08 5604.0 3760.4 4951.02 4602.7 3919.47 5596.68 6395.63 4790.16 3731.58 3166.37 5369.42 4985.45 5207.08 5205.53 4714.52 5499.37 4587.19 5543.05 4883.13 4836.76 4752.94 5551.09 6423.96 4501.1 5581.47 4384.91 6988.4 4060.17 4713.56 4987.01 6051.35 5302.53 4909.13 6779.82 4287.61 5648.02 4867.13 4604.34 4863.27 2451.27 5677.42 5442.79 4633.59 5151.68 5733.59 4884.94 5575.8 5268.93 3695.72 4738.72 6874.6 5106.9 5306.31 5523.96 4733.37 3037.72 4523.9 6028.89 5333.16 4888.17 3950.53 5755.98 5392.85 4274.05 5077.2 5275.27 6550.61 4277.54 5529.09 4531.46 6094.34 5448.68 5543.67 4739.5 3999.81 4072.95 6210.48 6377.45 4182.05 2701.42 4502.12 3255.93 6853.07 6327.61 5925.82 4491.62 3865.5 
SCALARS Velocity float 1
LOOKUP_TABLE default
1.22274 1.38753 1.40156 1.46215 1.40808 1.37559 1.42827 1.38544 1.4318 1.38461 1.4446 1.46323 1.4277 1.23601 1.30085 1.38688 1.33317 1.43457 1.45079 1.45794 1.40576 1.42964 1.42915 1.37586 1.42834 1.44654 1.47959 1.47873 1.46286 1.45615 1.44174 1.44788 1.51084 1.52068 1.42703 1.40125 1.37732 1.20362 1.30999 1.41987 1.4011 1.46232 1.46458 1.44828 1.4725 1.46532 1.43542 1.35184 1.50809 1.47786 1.44154 1.45612 1.42205 1.45445 1.4525 1.46537 1.47947 1.43365 1.48984 1.52011 1.51715 1.42667 1.27312 1.11204 1.32372 1.28583 1.22175 1.43663 1.44257 1.44615 1.48191 1.44966 1.47272 1.49731 1.45896 1.47137 1.4649 1.4766 1.52595 1.43863 1.45205 1.46415 1.41132 1.48053 1.43474 1.54203 1.45192 1.50597 1.25785 1.24419 1.19409 1.43574 1.44487 1.45243 1.40225 1.50418 1.46166 1.4687 1.49235 1.53015 1.51216 1.46143 1.45445 1.44972 1.45631 1.51749 1.54993 1.50624 1.45048 1.49274 1.51358 1.22713 1.26934 1.25157 1.28407 1.38418 1.42881 1.44279 1.42194 1.50228 1.55225 1.49886 1.51057 1.50303 1.51667 1.5083 1.50567 1.45686 1.47691 1.44566 1.44734 1.46622 1.57134 1.54364 1.50064 1.46249 1.47981 1.4804 1.52013 1.45953 1.33741 1.31397 1.44716 1.18278 1.20453 1.46137 1.22697 1.45634 1.50569 1.33646 1.43704 1.4918 1.50417 1.54074 1.51872 1.52663 1.52286 1.50075 1.49722 1.51747 1.51226 1.44851 1.46028 1.48094 1.56123 1.56469 1.5286 1.49267 1.42891 1.22577 1.42008 1.60636 1.19249 1.51115 1.05995 1.6611 1.44491 1.44801 1.5216 1.53538 1.51566 1.5193 1.48486 1.52388 1.51896 1.47271 1.44592 1.53696 1.44114 1.57447 1.53225 1.53142 1.44269 1.08118 1.80216 1.35134 1.18962 1.28668 2.1752 1.60697 1.70603 1.51887 1.53217 1.52837 1.52909 1.52628 1.52345 1.50484 1.52562 1.53566 1.51236 1.4896 1.42108 1.52722 1.46194 1.57338 1.50891 1.17831 1.49635 1.90378 2.26585 2.20278 1.64578 1.58894 1.52341 1.32336 1.45157 1.47716 1.66037 1.5787 1.54961 1.53401 1.52276 1.52614 1.52242 1.51836 1.50547 1.52615 1.50724 1.4678 1.44344 1.49497 1.53987 1.54249 1.58317 1.99274 1.61038 1.36979 1.47958 1.47147 1.57481 1.4908 1.53108 1.53044 1.5412 1.512 1.51795 1.51945 1.51059 1.5126 1.51018 1.48712 1.47983 1.46442 1.47355 1.47898 1.50484 1.4868 1.56462 1.50947 1.50138 1.54631 1.52395 1.55046 1.45646 1.47424 1.47371 1.49199 1.5138 1.53108 1.51794 1.50157 1.51986 1.50776 1.51182 1.50963 1.50677 1.50796 1.50553 1.50225 1.49648 1.49706 1.48403 1.48889 1.48776 1.49844 1.50823 1.53257 1.50795 1.50887 1.4846 1.44663 1.46766 1.47027 1.47723 1.49402 1.50951 1.49723 1.49798 1.49735 1.49865 1.50196 1.50513 1.50321 1.49853 1.49668 1.48935 1.48766 1.48554 1.49542 1.48697 1.49718 1.49044 1.4911 1.5019 1.5063 1.49605 1.47871 1.47784 1.46477 1.45838 1.46318 1.46844 1.47661 1.46857 1.47069 1.48145 1.48585 1.49023 1.49022 1.49547 1.49849 1.49337 1.49258 1.4921 1.49 1.48552 1.48686 1.48301 1.48486 1.48144 1.48403 1.48308 1.4865 1.4778 1.47151 1.47702 1.46582 1.46484 1.45946 1.45809 1.46013 1.45766 1.46178 1.45752 1.45725 1.46364 1.47678 1.47096 1.47722 1.48137 1.48283 1.4822 1.48702 1.48881 1.48604 1.48626 1.48009 1.48394 1.47716 1.4808 1.47924 1.48119 1.47555 1.47856 1.47593 1.47353 1.46658 1.46548 1.46286 1.45882 1.45796 1.45509 1.45705 1.45357 1.4539 1.45547 1.45676 1.46321 1.46926 1.46281 1.47035 1.46422 1.47667 1.47167 1.47698 1.47616 1.47982 1.48288 1.48161 1.47828 1.47705 1.47416 1.47059 1.47469 1.47651 1.48027 1.47185 1.46379 1.46074 1.4602 1.45857 1.45618 1.45481 1.45344 1.45233 1.45253 1.45269 1.44643 1.45121 1.45112 1.44722 1.44575 1.45005 1.45634 1.46552 1.46083 1.4655 1.47203 1.4729 1.46888 1.47618 1.47452 1.47133 1.47368 1.46901 1.46908 1.46387 1.46491 1.46417 1.42742 1.45682 1.45375 1.45572 1.45285 1.4561 1.45323 1.45106 1.45211 1.44993 1.45016 1.4501 1.4508 1.44747 1.44865 1.44597 1.19178 1.44112 1.4347 1.44177 1.44338 1.43978 1.43722 1.44805 1.45934 1.4557 1.45309 1.45855 1.46715 1.46376 1.46469 1.4706 1.46817 1.47261 1.47191 1.47117 1.4696 1.46817 1.46475 1.45785 1.4642 1.44823 1.43584 1.4492 1.44929 1.45043 1.44825 1.44807 1.44825 1.4481 1.44712 1.44486 1.44586 1.44412 1.42977 1.43566 1.42912 1.43267 1.44068 1.44739 1.45112 1.45768 1.4495 1.45981 1.46175 1.46924 1.46852 1.46365 1.46042 1.44605 1.45029 1.44846 1.44505 1.44184 1.44151 1.4463 1.44547 1.44391 1.44626 1.44586 1.44419 1.44622 1.44455 1.44288 1.4432 1.44254 1.44091 1.4248 1.42153 1.42808 1.43365 1.43738 1.42863 1.4434 1.43502 1.43452 1.44365 1.45356 1.4562 1.44854 1.46378 1.45691 1.46386 1.46714 1.4597 1.45348 1.4378 1.43771 1.42696 1.44146 1.44198 1.43981 1.43653 1.43866 1.44303 1.44276 1.44464 1.44357 1.4434 1.44028 1.44225 1.43866 1.43654 1.42184 1.41794 1.41972 1.41709 1.42411 1.41263 1.4171 1.43068 1.42928 1.44753 1.43951 1.44875 1.4595 1.4699 1.46172 1.46842 1.4502 1.44932 1.44222 1.42214 1.42178 1.43518 1.43498 1.43286 1.44126 1.44426 1.44285 1.44126 1.44389 1.44629 1.4392 1.43036 1.43284 1.19178 1.41171 1.41359 1.40847 1.40497 1.39896 1.40353 1.40104 1.42331 1.42515 1.41241 1.43902 1.43748 1.45897 1.45299 1.44255 1.46962 1.45342 1.46122 1.46753 1.41784 1.4361 1.41084 1.42496 1.43232 1.42967 1.43085 1.42855 1.42988 1.44118 1.44605 1.43727 1.42824 1.19178 1.40581 1.40132 1.40869 1.4103 1.41116 1.40386 1.38727 1.41361 1.40628 1.38611 1.3891 1.42366 1.48107 1.46539 1.44728 1.46473 1.45668 1.46938 1.43694 1.4162 1.45134 1.41345 1.41842 1.41671 1.42857 1.423 1.41842 1.4249 1.4259 1.42316 1.43 1.41511 1.44783 1.43899 1.43675 1.4269 1.42789 1.19178 1.39766 1.40671 1.40773 1.37956 1.40703 1.39597 1.41264 1.40623 1.40404 1.40691 1.4015 1.38889 1.36069 1.42134 1.43671 1.43308 1.44478 1.49191 1.49789 1.40884 1.38986 1.41393 1.3936 1.35515 1.43017 1.41818 1.42569 1.41804 1.42365 1.42852 1.42467 1.42962 1.42463 1.41904 1.41822 1.42057 1.42559 1.39373 1.46766 1.43047 1.40824 1.42523 1.42391 1.39478 1.39169 1.39698 1.40369 1.38815 1.42091 1.42436 1.39538 1.37726 1.40103 1.38666 1.37587 1.40565 1.47377 1.40414 1.50209 1.42501 1.35141 1.40786 1.40388 1.40276 1.38051 1.36822 1.41308 1.39857 1.41443 1.41178 1.41055 1.40978 1.4081 1.43376 1.4198 1.41968 1.41608 1.42 1.41462 1.41856 1.41938 1.37579 1.43376 1.42175 1.41535 1.40776 1.38431 1.38718 1.41296 1.40875 1.38093 1.42632 1.37824 1.38235 1.42148 1.45521 1.40345 1.48398 1.44942 1.29589 1.35483 1.36741 1.38127 1.38968 1.35134 1.43065 1.3885 1.41282 1.40249 1.41383 1.40019 1.39831 1.41379 1.43141 1.42283 1.39663 1.41682 1.35866 1.34653 1.3877 1.38723 1.35697 1.45925 1.45735 1.41146 1.4107 1.4085 1.40382 1.19178 1.38924 1.37159 1.38408 1.40725 1.39067 1.42934 1.40388 1.37451 1.3579 1.35946 1.40648 1.35905 1.41578 1.39829 1.37542 1.37754 1.39362 1.36014 1.37129 1.40132 1.41791 1.40824 1.38069 1.40455 1.4286 1.41634 1.42769 1.39887 1.37625 1.39054 1.42774 1.40434 1.36031 1.37147 1.47573 1.3908 1.38352 1.37523 1.19178 1.19178 1.36117 1.38025 1.43761 1.4621 1.38976 1.42295 1.41245 1.45523 1.41273 1.36241 1.36741 1.36277 1.3603 1.38276 1.41082 1.39196 1.39083 1.40564 1.39493 1.40672 1.31956 1.36107 1.3531 1.38214 1.37295 1.39536 1.41776 1.38785 1.42016 1.46355 1.43065 1.42211 1.42529 1.35589 1.37219 1.34415 1.38036 1.35482 1.36474 1.4256 1.46337 1.45291 1.35661 1.35358 1.39778 1.3865 1.38908 1.47634 1.35156 1.35911 1.35816 1.38301 1.37092 1.37634 1.37843 1.37666 1.37494 1.41802 1.4951 1.44337 1.25478 1.33001 1.32561 1.35107 1.37277 1.39253 1.38535 1.36819 1.35906 1.40841 1.41248 1.404 1.51186 1.37688 1.3258 1.36016 1.35167 1.35614 1.37542 1.40267 1.42689 1.33005 1.29357 1.36174 1.39884 1.47772 1.35169 1.40289 1.34046 1.39576 1.44231 1.3831 1.3341 1.40688 1.39487 1.3844 1.39345 1.36795 1.35051 1.40838 1.40434 1.47208 1.29309 1.38056 1.35073 1.33877 1.32468 1.3677 1.33048 1.36681 1.38581 1.344 1.31331 1.38481 1.35094 1.35137 1.33875 1.35397 1.3685 1.36493 1.36408 1.36014 1.46281 1.49282 1.35146 1.34952 1.40381 1.34397 1.38028 1.54374 1.5892 1.48287 1.33164 1.52952 1.3334 1.3699 1.26787 1.39941 1.38484 1.45319 1.36883 1.38135 1.40823 1.33921 1.36518 1.38154 1.36739 1.35517 1.40168 1.31467 1.31691 1.28316 1.30934 1.31851 1.32773 1.32715 1.32345 1.31561 1.3489 1.3371 1.32969 1.3612 1.32453 1.34174 1.30853 1.3475 1.3541 1.36404 1.35242 1.38608 1.39039 1.48906 1.38334 1.33833 1.3698 1.48334 1.51821 1.19178 1.57716 1.64605 1.36032 1.37823 1.46968 1.47615 1.40953 1.38186 1.4223 1.37314 1.38738 1.33164 1.3067 1.30807 1.26296 1.30677 1.25357 1.27154 1.33155 1.33431 1.35607 1.28437 1.30173 1.26251 1.31685 1.36616 1.26956 1.40035 1.33108 1.37193 1.33972 1.28947 1.24963 1.32501 1.41308 1.38684 1.38357 1.36833 1.37769 1.34956 1.44399 1.32942 1.3575 1.36287 1.40562 1.50007 1.42489 1.19178 1.42463 1.64054 1.38107 2.20919 0.802199 1.48969 1.56773 1.38171 1.40195 1.34254 1.45351 1.29819 1.27723 1.43468 1.50685 1.3373 1.24945 1.1052 1.24067 1.2631 1.32943 1.26192 1.31334 1.29738 1.28286 1.35612 1.28718 1.27261 1.25528 1.25404 1.48258 1.25897 1.37004 1.27792 1.39458 1.39798 1.34064 1.44016 1.47338 1.55381 1.37135 1.43448 0.989969 1.3017 1.30569 4.77567 1.46618 1.27739 0.959706 1.18886 1.93844 1.84611 0.733043 0.877224 1.5496 1.41999 1.55663 1.43996 1.44277 1.40373 1.40743 0.695239 1.27925 2.08735 1.13692 1.28019 1.31978 1.25541 1.26557 1.29784 1.25793 1.23638 1.15337 1.21839 1.258 1.27277 1.23544 1.25008 1.26141 1.31189 1.18184 1.41663 1.33657 1.41159 1.40364 1.34228 1.32961 1.32996 1.44164 1.4776 1.73098 1.45647 1.49362 1.54442 1.53484 0.835272 1.62018 1.59438 0.654736 0.841631 1.01342 1.12571 1.08992 1.25454 1.25883 1.01442 1.0636 1.19072 0.878522 1.06718 1.40487 1.12099 1.2121 1.32694 1.62009 1.15007 1.37416 1.33644 1.3547 1.43828 1.30195 1.21612 1.25874 1.09045 1.2285 1.28669 1.26428 1.29533 1.26495 1.28318 1.18596 1.20478 1.17764 1.16978 1.13906 1.08563 1.17116 1.22752 1.25881 1.23592 1.22923 1.2184 1.21249 1.36415 1.23028 1.46814 1.46316 1.39089 1.41547 1.34405 1.28197 1.28764 1.24588 1.36011 1.47362 1.43639 1.59247 1.30953 1.31811 1.13796 1.5846 1.20199 1.33572 0.81249 1.49223 0.851294 0.932323 0.797072 0.887217 0.882872 0.972343 0.874108 0.995065 0.711286 0.87446 0.803618 1.15527 0.962422 0.943316 0.987005 0.873906 0.914673 1.28358 1.44271 1.39965 1.34429 1.23538 1.12361 1.24351 1.26283 1.30303 1.34022 1.41721 1.19144 1.07871 1.11822 1.09857 1.15391 1.14207 1.12549 1.26401 1.28444 1.261 1.26524 1.16544 1.24496 1.13167 1.06397 1.08169 1.05586 1.15744 1.15145 1.23965 1.20197 1.21483 1.18457 1.20523 1.1622 1.42696 1.28331 1.17264 1.35782 1.30306 1.16018 1.40707 1.36888 1.4391 1.04003 1.35632 1.02489 1.15526 1.13683 1.02069 1.01921 0.916726 1.65977 1.07475 1.3136 0.844186 0.896448 0.776709 0.720259 0.752243 0.765514 0.841824 0.818805 0.786259 0.854919 0.848929 0.871737 0.936158 0.853494 0.802989 0.86256 0.879946 0.89058 0.9144 0.837973 0.848808 1.018 0.988408 1.08154 1.24672 0.80015 1.05744 1.30119 0.905426 1.14329 1.02571 1.28282 1.15874 1.17356 1.07413 1.01193 1.09203 1.11413 1.12144 1.12077 1.15619 1.1274 1.28685 1.18274 1.25928 1.03575 1.0686 1.06102 1.04211 1.06536 1.15443 1.15511 1.18165 1.06932 1.21778 1.19151 1.18439 1.04323 1.24592 1.21284 1.14524 1.18561 1.07363 1.29226 1.23645 1.06229 1.07067 1.01565 1.656 1.35691 0.894869 1.1297 0.930378 1.02071 0.896313 0.958526 1.13648 1.1495 1.18326 1.14498 0.908712 0.898708 0.796706 0.779843 0.799009 0.773611 0.775167 0.762772 0.773664 0.776738 0.787404 0.78224 0.792561 0.820077 0.841461 0.910162 0.879889 0.909286 0.894869 0.930926 0.96841 0.868732 0.946769 1.11459 0.856675 0.940293 1.04854 0.909541 1.10287 0.963452 1.08864 1.10508 1.17824 1.17254 1.01844 1.02096 1.00326 0.915972 0.956728 0.984671 1.05444 1.29564 1.06041 1.09643 1.06818 1.05876 0.971572 0.994048 1.06165 1.06968 1.10037 1.02573 0.959898 1.10547 1.14553 1.19818 1.10806 1.07078 1.05906 0.974911 1.06256 1.19095 1.02408 1.12788 1.17224 0.921664 1.12421 1.06446 1.05949 1.00162 1.10456 1.01162 0.827723 1.28054 1.18154 1.19041 1.12203 1.18826 0.956522 1.12522 1.14466 1.12963 0.989957 0.99869 0.842582 0.796374 0.849125 0.791735 0.758585 0.749169 0.763096 0.731586 0.734259 0.743583 0.673747 0.768945 0.725631 0.787372 0.737378 0.766881 0.794192 0.809979 0.830037 0.823511 0.783209 0.842294 0.835245 0.883637 0.899152 0.792502 0.900056 0.736763 0.765749 0.831646 1.16723 1.08361 1.01017 1.02599 1.16648 0.770742 0.94311 0.995833 1.03073 0.921285 0.93428 0.936582 1.01677 1.19184 1.01312 1.07517 1.00829 0.966801 1.00339 1.05232 1.04416 1.03231 1.03401 0.963919 1.26553 0.923242 1.08529 0.922683 1.08264 0.984151 1.01806 1.06255 0.976264 0.992565 0.866238 1.01569 0.985191 0.848097 0.822406 0.787349 0.831536 0.847896 0.788851 0.822307 0.890933 0.784018 0.801536 0.829344 0.784093 1.01187 0.872438 0.97212 0.983046 0.98073 0.76317 0.777103 0.776617 0.76483 0.735319 0.733131 0.73146 0.723043 0.706595 0.701981 0.704573 0.719982 0.698045 0.689141 0.676631 0.685687 0.439315 0.633576 0.827959 0.930448 0.907956 0.796388 0.820988 0.808281 0.694825 0.817676 0.854124 0.778246 0.779954 0.801885 0.789022 0.817101 0.888437 0.846261 0.712941 0.903676 0.795716 0.852177 0.806192 0.841299 0.839511 0.856829 0.759369 1.11138 1.15545 1.04035 0.900987 0.88358 0.860553 0.891233 0.891853 0.969281 0.910823 0.947594 0.96574 0.949009 0.987505 0.998698 1.00528 0.933818 0.967347 1.00871 1.02482 1.04025 1.02248 0.973333 1.02845 1.06364 0.844285 0.994722 0.977748 0.992545 0.963807 0.945322 0.994654 0.985166 0.983062 0.980185 0.847687 0.935312 0.911016 1.24119 0.973961 0.96219 0.695953 1.23582 1.16681 0.89798 0.85816 0.816779 0.845324 0.789541 0.841534 0.726694 0.994501 0.877128 0.94392 0.896353 1.00582 0.795509 0.949056 0.797271 0.819616 0.78986 0.755379 0.73928 0.757914 0.713289 0.702712 0.735123 0.717434 0.700119 0.678651 0.714501 0.70566 0.698136 0.704656 0.699424 0.703747 0.69944 0.701447 0.699963 0.636494 0.62354 0.621381 0.605737 0.606345 0.63434 0.56644 0.600258 0.628087 0.583917 0.927503 0.894636 0.772637 0.721594 0.788611 0.748302 0.764534 0.712269 0.757437 0.740002 0.781834 0.746603 0.755061 0.737615 0.75307 0.743282 0.780774 0.753546 0.815161 0.798197 0.622952 0.40307 0.731148 0.948584 0.796677 0.839539 0.791595 0.474167 0.840321 0.805958 0.840749 0.989657 0.974434 0.878847 0.913012 0.876774 0.928267 0.92975 0.937086 0.946199 0.940854 0.9353 0.955307 0.966852 0.954828 0.990458 0.964044 0.979318 1.01141 0.927064 0.992431 0.966934 0.938067 0.883638 0.9346 0.972956 0.904398 0.982296 1.00342 0.954381 0.996454 1.04326 1.09941 1.01913 0.996531 1.05502 0.4437 0.751642 0.610358 0.618786 1.0489 0.667383 0.712847 0.86725 0.869394 0.7818 0.875458 0.823815 0.899646 0.812491 0.736648 0.839422 1.01219 0.810307 0.907305 0.832908 1.00668 0.924284 0.826822 0.76793 0.859546 0.809689 0.800217 0.765581 0.768555 0.761216 0.757143 0.729479 0.731904 0.718376 0.703562 0.708438 0.720797 0.699604 0.69973 0.70173 0.699611 0.703447 0.70357 0.699128 0.697694 0.647713 0.628031 0.632069 0.624286 0.67641 0.600694 0.627955 0.619484 0.684085 0.713286 0.797393 0.821168 0.773507 0.745292 0.817666 0.789359 0.793124 0.717553 0.743517 0.704175 0.709041 0.744919 0.759412 0.778843 0.748011 0.725231 0.77621 0.79957 0.806776 0.786395 0.940477 0.48375 0.57657 0.546382 0.743141 0.897283 0.888101 0.836032 0.922756 1.0231 0.947793 0.897964 0.697888 0.780593 0.870362 0.880919 0.938531 0.980296 0.940864 0.928593 0.934851 0.826376 0.921598 0.839681 0.941244 0.949403 0.861816 0.860534 0.887 0.960843 0.926753 0.919551 0.904995 0.813129 0.878103 0.982877 0.920227 1.06405 1.0292 0.973059 1.14992 1.05586 1.08812 1.00204 0.712303 0.611283 0.990874 0.811046 0.953331 0.934016 0.864148 0.811522 0.870751 0.92327 0.715483 0.800233 0.806469 0.874897 0.822419 0.804923 0.799428 0.785306 0.791695 0.778947 0.755427 0.779184 0.759558 0.740683 0.733643 0.729264 0.723419 0.725125 0.71085 0.706899 0.699409 0.689285 0.699994 0.694326 0.702422 0.702365 0.708163 0.71177 0.695999 0.696958 0.712856 0.688939 0.687109 0.615318 0.606051 0.605205 0.651639 0.602921 0.578535 0.632597 0.586483 0.643683 0.788237 0.76206 0.79801 0.823263 0.818027 0.818379 0.779399 0.767431 0.738423 0.695482 0.71472 0.746995 0.769162 0.787671 0.80846 0.800765 0.803611 0.803935 0.836194 0.827205 0.82831 1.00829 0.82439 0.94503 0.78412 0.685689 0.618051 1.05265 0.843735 0.948666 0.915028 0.839228 0.813634 0.795284 0.807562 0.823481 0.856985 0.91972 0.947594 1.02647 0.916823 0.760264 0.808443 0.861551 0.842054 0.883069 0.876914 0.806399 0.862854 0.941921 0.906716 0.832442 0.818864 0.858858 0.835374 0.840439 0.952368 0.897232 1.09669 1.05671 1.04041 0.860582 0.795581 0.613058 0.658041 0.770565 0.861056 0.84906 0.790348 0.816756 0.851863 0.785488 0.766607 0.806877 0.82442 0.78589 0.813283 0.756321 0.774249 0.733937 0.746475 0.77529 0.761583 0.746133 0.728746 0.742901 0.731472 0.713097 0.727367 0.70962 0.741873 0.704887 0.70321 0.686559 0.701563 0.711216 0.714824 0.720596 0.718425 0.774217 0.684548 0.754608 0.642976 0.680346 0.676998 0.677148 0.596056 0.603429 0.606794 0.609391 0.613407 0.611049 0.620564 0.58534 0.566403 0.554392 0.589858 0.622088 0.686408 0.756128 0.818955 0.71321 0.803479 0.764619 0.848992 0.839929 0.791667 0.779954 0.808868 0.745811 0.846867 0.88694 0.819813 0.822167 0.852579 0.833839 0.855524 0.849057 0.842748 0.834767 0.775137 1.04451 0.882933 0.813332 0.578829 0.898918 0.850205 0.808117 0.840883 0.703215 0.69848 0.819492 0.821582 0.802293 0.807249 0.978532 0.89494 1.04567 0.96006 0.80672 1.04749 0.710306 0.765746 0.764822 0.802944 0.731283 0.843773 0.860922 0.862258 0.802862 0.732117 0.819649 0.852031 0.95601 0.836612 0.751517 0.840322 0.790236 0.823888 0.853177 0.881501 0.873784 0.956989 0.922125 0.676267 0.443213 0.73461 0.729588 0.765258 0.796309 0.791378 0.8067 0.820249 0.82487 0.814838 0.764828 0.764706 0.764976 0.814627 0.800722 0.795483 0.771245 0.726734 0.723973 0.716553 0.737218 0.747442 0.724362 0.742174 0.729717 0.697895 0.709508 0.735733 0.680599 0.684757 0.671723 0.657814 0.686893 0.705766 0.689105 0.667807 0.93009 0.632748 0.666325 0.673687 0.676634 0.675841 0.677889 0.672631 0.659743 0.669732 0.668102 0.666482 0.591971 0.594249 0.594262 0.604271 0.606953 0.614931 0.657501 0.683061 0.61037 0.601905 0.561977 0.601769 0.622986 0.637869 0.708025 0.681096 0.761096 0.740805 0.747908 0.756157 0.821741 0.732513 0.786218 0.75251 0.528025 0.811013 0.932473 0.858784 0.892963 0.824964 0.848304 0.840331 0.817831 0.824652 0.916011 0.630814 0.342936 0.644041 1.01022 0.729436 0.830071 0.842427 0.78443 0.813713 0.833671 0.805978 0.814377 0.877172 0.897617 0.865777 0.832216 0.822516 0.749249 0.756689 0.765415 0.833522 0.746586 0.820469 0.823632 0.85959 0.846856 0.804607 0.785218 0.809643 0.808778 0.754461 0.725093 0.755935 0.772426 0.862993 0.865328 0.924183 1.03326 0.917512 0.703022 0.824808 0.704226 0.77047 0.734721 0.765917 0.797873 0.762223 0.808917 0.80112 0.781936 0.793171 0.867145 0.765621 0.756634 0.801019 0.712516 0.815097 0.7411 0.796596 0.757721 0.836772 0.703817 0.744746 0.732189 0.735953 0.727528 0.722878 0.693447 0.720243 0.710428 0.694413 0.686405 0.697405 0.674934 0.666047 0.651783 0.662356 0.639249 0.654065 0.692882 0.82485 0.663036 0.611803 0.653674 0.609939 0.622179 0.649303 0.644596 0.633762 0.632147 0.635899 0.628677 0.625291 0.684324 0.643055 0.613829 0.617626 0.614162 0.61367 0.590553 0.593681 0.590913 0.592292 0.597713 0.596302 0.593852 0.601579 0.601783 0.625969 0.618072 0.630672 0.591375 0.53952 0.657365 0.544628 0.658602 0.688398 1.01145 0.755202 0.82514 0.767154 0.737522 0.735154 0.729867 0.648759 0.677424 0.695938 0.80554 0.840286 0.845046 0.788903 0.832755 0.759726 0.657808 0.685885 0.602459 0.706486 0.771812 0.766619 0.819808 0.878927 0.709915 0.848009 0.858819 0.864338 0.881615 0.773228 0.835704 0.906905 0.691791 1.01758 0.930384 0.840613 0.844026 0.777122 0.72858 0.750206 0.808618 0.66614 0.680405 0.774111 0.849272 0.764724 0.784995 0.810809 0.755057 0.743165 0.710229 0.709652 0.75675 0.715743 0.778117 0.837986 0.81843 0.866397 0.881444 0.876774 0.879529 0.915712 0.919837 0.821589 0.781654 0.80424 0.801102 0.781096 0.772993 0.776896 0.777389 0.762529 0.731613 0.704849 0.713366 0.678988 0.72278 0.724008 0.747945 0.727309 0.70798 0.721387 0.718487 0.708156 0.713848 0.677061 0.68166 0.678858 0.657077 0.683424 0.671936 0.667755 0.667721 0.668079 0.670207 0.684883 0.690439 0.673131 0.673327 0.673452 0.636214 0.631585 0.632838 0.634434 0.637716 0.63423 0.633549 0.627315 0.612707 0.613202 0.612871 0.603951 0.613008 0.611827 0.606972 0.608299 0.595845 0.591951 0.589789 0.597535 0.601478 0.593939 0.592842 0.593386 0.589919 0.590126 0.614014 0.591919 0.581311 0.61848 0.566881 0.740724 0.403428 0.314802 1.00839 0.677291 0.751713 0.649527 0.73157 0.688759 0.643192 0.66236 0.659828 0.658356 0.564443 0.74187 0.794045 0.723206 0.767151 0.737062 0.739231 0.763079 0.686945 0.737927 0.737683 0.715098 0.764158 0.797902 0.506138 0.567517 0.868541 0.805531 1.09426 0.857525 0.90174 0.828703 0.906672 0.787857 1.13392 0.538159 0.608724 0.654923 0.62684 0.683475 0.684149 0.721504 0.726218 0.714627 0.693569 0.809555 0.735121 0.789528 0.777727 0.804551 0.770748 0.72117 0.729635 0.733235 0.704895 0.671131 0.736746 0.759238 0.729811 0.790008 0.726081 0.970241 0.757687 0.853397 0.907338 0.778009 0.846247 0.747145 0.735644 0.727342 0.759052 0.755841 0.739106 0.74157 0.721273 0.729018 0.71772 0.743128 0.702592 0.726604 0.659889 0.696249 0.753766 0.725278 0.716394 0.691632 0.661658 0.744168 0.680034 0.654629 0.701523 0.68649 0.759053 0.709634 0.683526 0.677536 0.665036 0.683206 0.684672 0.677701 0.675911 0.67544 0.665192 0.657353 0.644041 0.654309 0.644171 0.636734 0.634147 0.628038 0.600068 0.58286 0.598897 0.59683 0.586037 0.575786 0.582644 0.567065 0.566744 0.563621 0.561906 0.561167 0.555369 0.566921 0.58172 0.574411 0.592175 0.588354 0.603643 0.589931 0.603984 0.592672 0.586078 0.578822 0.600345 0.589097 0.611731 0.572927 0.517996 0.59864 0.763033 0.666428 0.295668 0.60689 0.527081 0.34302 0.820871 0.82844 0.754303 0.804904 0.742412 0.711354 0.62036 0.67907 0.630122 0.667378 0.647319 0.649675 0.665842 0.630645 0.764419 0.73411 0.75365 0.76706 0.744095 0.75478 0.768263 0.766781 0.73472 0.739139 0.754686 0.70879 0.675539 0.733537 0.717884 0.720123 0.637994 0.401931 0.889166 0.931004 0.641318 0.959241 0.765165 0.636785 0.652165 0.437787 0.379281 0.591667 0.589307 0.71315 0.718318 0.717641 0.760349 0.71136 0.694675 0.722907 0.677741 0.781858 0.738603 0.778624 0.788853 0.761308 0.768083 0.718589 0.703036 0.668011 0.7004 0.718395 0.692888 0.665125 0.597183 0.781049 0.715822 0.781405 0.609436 0.799617 0.825368 0.763252 0.735741 0.742737 0.714716 0.687964 0.681712 0.718811 0.705593 0.716296 0.714015 0.726887 0.703909 0.717119 0.708109 0.706322 0.671589 0.708417 0.666901 0.67425 0.68562 0.686122 0.677756 0.683618 0.689058 0.661033 0.651838 0.664039 0.635769 0.630319 0.649754 0.615423 0.634955 0.593204 0.604699 0.621258 0.599683 0.570105 0.584101 0.574421 0.583313 0.584668 0.583141 0.567766 0.583344 0.582963 0.566799 0.574721 0.569152 0.604416 0.625226 0.539214 0.513365 0.56377 0.496356 0.564517 0.590988 0.60153 0.611671 0.603543 0.618772 0.587069 0.585956 0.593355 0.600257 0.607081 0.651326 0.628241 0.568296 0.595389 0.710686 0.720804 0.531259 0.622723 0.676091 0.62505 0.668067 0.727929 0.679048 0.605474 0.65349 0.683822 0.580627 0.554444 0.609379 0.513108 0.621184 0.570754 0.790012 0.757758 0.744623 0.690752 0.694508 0.705101 0.688115 0.760663 0.76781 0.720493 0.570965 0.5881 0.639609 0.439243 0.874249 0.754047 0.620828 0.509237 0.500786 0.51008 0.653074 0.641702 0.710166 0.685696 0.701847 0.68652 0.713752 0.699676 0.681094 0.691996 0.683023 0.70501 0.695372 0.733124 0.714399 0.773465 0.742894 0.748398 0.779066 0.771737 0.77949 0.79596 0.76211 0.694202 0.682956 0.67894 0.671432 0.680182 0.66283 0.575986 0.640899 0.595568 0.57366 0.741234 0.553019 0.672884 0.724366 0.595981 0.756495 0.73437 0.76828 0.696727 0.733337 0.619103 0.658998 0.673489 0.708368 0.672133 0.684462 0.721967 0.718936 0.700657 0.702132 0.718569 0.656373 0.637228 0.647652 0.646764 0.620348 0.641416 0.670686 0.66871 0.691216 0.657612 0.64377 0.662848 0.649923 0.657986 0.644738 0.636624 0.627428 0.632931 0.598476 0.587831 0.565652 0.567756 0.571978 0.589678 0.585637 0.569916 0.589725 0.582482 0.596062 0.602964 0.60394 0.612592 0.671378 0.671856 0.618244 0.693104 0.625546 0.43346 0.468078 0.491203 0.403657 0.478367 0.476132 0.538548 0.506803 0.528505 0.493942 0.494413 0.601487 0.499674 0.615041 0.691668 0.628562 0.597655 0.61519 0.593186 0.467185 0.566318 0.49721 0.621414 0.504519 0.558302 0.608272 0.617744 0.69767 0.739966 0.659977 0.664715 0.650482 0.604056 0.53497 0.563205 0.603532 0.59017 0.547165 0.632644 0.541109 0.509949 0.581825 0.557817 0.504287 0.597879 0.742834 0.689695 0.717686 0.760969 0.666043 0.508928 0.58685 0.567396 0.497495 0.552151 0.545404 0.497645 0.610654 0.6597 0.689111 0.733633 0.641767 0.544106 0.547971 0.561553 0.609262 0.584535 0.619072 0.704969 0.645628 0.649594 0.655259 0.659337 0.684735 0.691048 0.689149 0.700701 0.74141 0.731546 0.775053 0.826816 0.736266 0.786867 0.773219 0.693187 0.675979 0.713817 0.699362 0.673988 0.609056 0.566559 0.571041 0.534788 0.543017 0.624625 0.68423 0.611596 0.695423 0.625482 0.666858 0.60373 0.658704 0.657743 0.699528 0.659357 0.677274 0.636127 0.700145 0.697756 0.691395 0.658701 0.616617 0.61557 0.619616 0.558525 0.628988 0.572281 0.689352 0.65943 0.717338 0.676132 0.575247 0.609367 0.610342 0.581791 0.619339 0.618824 0.613102 0.654464 0.611597 0.58665 0.572821 0.573125 0.55093 0.556357 0.572311 0.505847 0.501472 0.599993 0.467248 0.59785 0.430334 0.492595 0.608698 0.558917 0.66572 0.586505 0.493931 0.515682 0.449514 0.455768 0.435869 0.529002 0.558651 0.541119 0.568515 0.516796 0.451529 0.508374 0.399035 0.532766 0.48436 0.599328 0.54431 0.519565 0.592624 0.464097 0.500809 0.675911 0.665681 0.632872 0.384811 0.489212 0.409924 0.351762 0.44822 0.668704 0.519447 0.419048 0.426939 0.65649 0.523687 0.396483 0.37837 0.614245 0.683973 0.763728 0.562471 0.843582 0.658078 1.09739 0.180839 0.98158 0.652509 0.755699 0.592292 0.589735 0.515016 0.509769 0.549708 0.552848 0.5229 0.4989 0.573806 0.578018 0.912688 0.91705 0.672863 0.56125 0.542989 0.557729 0.56893 0.577726 0.624324 0.656062 0.625542 0.652051 0.671194 0.684036 0.691451 0.697104 0.702345 0.704622 0.700676 0.709284 0.733759 0.734654 0.717949 0.801404 0.821095 0.852154 0.758219 0.723864 0.683574 0.704137 0.713123 0.720094 0.706506 0.694865 0.63692 0.595886 0.532485 0.539036 0.57895 0.585356 0.585172 0.587831 0.631786 0.616463 0.617812 0.580515 0.594307 0.628698 0.622448 0.641594 0.621283 0.627017 0.648006 0.65756 0.63024 0.670368 0.548559 0.646583 0.717029 0.674626 0.620055 0.635465 0.645781 0.610266 0.633776 0.592058 0.629844 0.594938 0.583309 0.61034 0.536802 0.527826 0.521724 0.459268 0.474363 0.472896 0.461468 0.448344 0.554187 0.588077 0.503223 0.30061 0.530896 0.478335 0.426512 0.445596 0.433817 0.429232 0.506526 0.517735 0.535039 0.489352 0.449843 0.473273 0.485221 0.428223 0.621218 0.591305 0.633535 0.69806 0.746893 0.625452 0.816124 0.579284 0.859659 0.619976 0.596989 0.420996 0.41407 0.461267 0.534162 0.530314 0.457575 0.437806 0.542459 0.533886 0.442825 0.396859 0.526379 0.450711 0.629856 0.422044 0.417015 0.44722 0.520316 0.714301 0.6023 1.48468 0.556718 0.27213 0.525576 0.52563 0.564411 0.578157 0.590008 0.571309 0.555353 0.547155 0.749586 0.457289 0.282753 0.635752 0.656233 0.587427 0.606278 0.608744 0.622201 0.632602 0.631819 0.636693 0.654944 0.655922 0.662876 0.675416 0.683303 0.67336 0.696734 0.699014 0.704099 0.705435 0.705522 0.711287 0.718678 0.714829 0.935112 0.692677 0.862377 0.748307 0.707533 0.731508 0.67113 0.699085 0.672842 0.638544 0.593427 0.6128 0.517102 0.566145 0.543428 0.573515 0.590986 0.610926 0.584377 0.615209 0.579808 0.602062 0.585498 0.586165 0.588725 0.582072 0.625283 0.611915 0.615312 0.64735 0.510889 0.524683 0.522812 0.539729 0.588949 0.441611 0.44989 0.656687 0.675787 0.61352 0.61565 0.569522 0.598618 0.576716 0.578065 0.55568 0.56303 0.577268 0.543521 0.547048 0.565849 0.499355 0.555877 0.471323 0.451782 0.44454 0.497453 0.504846 0.545963 0.661235 0.589286 0.452016 0.624677 0.690849 0.436488 0.417179 0.447008 0.437475 0.42597 0.422887 0.42389 0.442073 0.456832 0.462128 0.476315 0.461554 0.426635 0.467704 0.41292 0.0941035 0.195638 0.348032 0.424595 0.3048 0.571156 0.669892 0.537504 0.203483 0.326667 0.237316 0.414048 0.116583 0.474971 0.32451 0.386346 0.418523 0.478981 0.488264 0.528544 0.443927 0.499733 0.499831 0.516434 0.60217 0.665647 0.521228 0.458635 0.462531 0.450215 0.469509 0.475375 0.534877 0.418889 0.418465 0.0389432 0.546195 0.578173 0.586186 0.60157 0.569631 0.570784 0.575127 0.512837 0.606045 0.609912 0.636622 0.659648 0.62187 0.63257 0.628153 0.63312 0.634298 0.621116 0.62098 0.621897 0.637137 0.64657 0.663216 0.672041 0.681662 0.723171 0.716265 0.735381 0.715099 0.70461 0.712301 0.727203 0.764636 0.826296 0.488519 0.695115 0.574003 0.741044 0.77384 0.700637 0.671724 0.650551 0.624171 0.594416 0.576515 0.598484 0.574428 0.581787 0.582221 0.577552 0.590149 0.593667 0.596681 0.589357 0.573921 0.589652 0.582392 0.606313 0.614474 0.597801 0.466643 0.562035 0.485823 0.556731 0.506369 0.530353 0.500271 0.537508 0.5527 0.588814 0.555852 0.599493 0.565092 0.537494 0.54091 0.555239 0.534316 0.535821 0.553264 0.525808 0.43709 0.403545 0.505638 0.519877 0.548641 0.455373 0.649846 0.552065 0.689679 0.38012 0.421227 0.412911 0.424608 0.42141 0.413721 0.407196 0.416162 0.413684 0.406385 0.462965 0.46077 0.389647 0.387626 0.364906 0.363933 0.321056 0.298497 0.296889 0.32462 0.572855 0.404962 0.37384 0.325146 0.508528 0.485231 0.251459 0.677865 0.356961 0.482498 0.508487 0.491438 0.459452 0.359012 0.369972 0.435416 0.471553 0.660863 0.604068 0.554056 0.54608 0.55307 0.49621 0.500158 0.471409 0.487419 0.458161 0.369096 0.605073 0.633365 0.525268 0.552008 0.568731 0.565683 0.576857 0.59384 0.593327 0.579255 0.587507 0.594474 0.594306 0.579352 0.563252 0.657734 0.638362 0.637317 0.63995 0.6338 0.615909 0.648073 0.654458 0.652957 0.654451 0.6775 0.681164 0.68107 0.736646 0.755542 0.713298 0.68856 0.707766 0.732598 0.712483 0.720084 0.600058 0.603061 0.700319 0.620691 0.782761 0.695255 0.668875 0.649872 0.625043 0.594473 0.605035 0.586423 0.581236 0.584919 0.587122 0.591159 0.587075 0.583182 0.586518 0.586442 0.588201 0.583658 0.593605 0.596935 0.587414 0.600888 0.59916 0.593221 0.595159 0.562753 0.493515 0.517015 0.503858 0.512762 0.54404 0.510859 0.548566 0.538115 0.531839 0.5537 0.543798 0.526419 0.519532 0.539675 0.486769 0.42993 0.470694 0.614861 0.412657 0.477408 0.390954 0.329125 0.482712 0.316375 0.678147 0.398526 0.564146 0.381013 0.468687 0.491285 0.419294 0.414126 0.35842 0.400262 0.356599 0.37315 0.391856 0.353659 0.366186 0.326304 0.291652 0.500682 0.493794 0.488823 0.446151 0.433891 0.423269 0.391046 0.402848 0.384317 0.361814 0.312139 0.347445 0.34162 0.311776 0.37995 0.318934 0.339406 0.298403 0.374236 0.459387 0.476942 0.435811 0.341479 0.499557 0.367204 0.386853 0.559284 0.475428 0.381061 0.278062 0.462383 0.781918 0.722461 0.675109 0.629744 0.570047 0.509882 0.540943 0.49619 0.493328 0.502187 0.504569 0.501712 0.496288 0.489319 0.459773 0.536894 0.569721 0.574278 0.58901 0.579774 0.596767 0.593562 0.594953 0.603102 0.587299 0.651678 0.647398 0.632669 0.63477 0.634146 0.640543 0.66864 0.658496 0.671973 0.67076 0.663226 0.661671 0.683984 0.710789 0.63697 0.664364 0.59359 0.654882 0.689477 0.691514 0.688152 0.691881 0.687245 0.686734 0.709849 0.702615 0.687386 0.624666 0.629718 0.633523 0.720785 0.599672 0.681705 0.700819 0.676272 0.674041 0.657694 0.650591 0.628619 0.594228 0.598466 0.60022 0.593466 0.597905 0.590894 0.587596 0.588091 0.587663 0.590332 0.590688 0.590084 0.594419 0.586499 0.576643 0.579522 0.545404 0.548508 0.515749 0.518102 0.512341 0.508728 0.515358 0.520449 0.514453 0.526711 0.516672 0.528079 0.530268 0.54665 0.519226 0.482652 0.385486 0.371305 0.525085 0.465962 0.51226 0.461461 0.399712 0.350686 0.410328 0.323313 0.327255 0.289793 0.340003 0.313957 0.410434 0.339057 0.365831 0.343643 0.339471 0.349336 0.334034 0.337248 0.33058 0.301095 0.267768 0.254457 0.444332 0.475422 0.484217 0.466672 0.425267 0.377592 0.33624 0.34622 0.354228 0.378864 0.399955 0.385985 0.45583 0.421528 0.46378 0.426513 0.430796 0.417436 0.428688 0.378764 0.383485 0.397974 0.394756 0.313868 0.289312 0.528444 0.542425 0.567712 0.513599 0.511161 0.510252 0.512504 0.507378 0.507546 0.50623 0.51212 0.511289 0.52052 0.515579 0.533331 0.520514 0.545883 0.528511 0.56272 0.556784 0.563419 0.57924 0.584241 0.589533 0.587601 0.598012 0.593569 0.599321 0.598651 0.602875 0.627935 0.635181 0.662878 0.650296 0.646338 0.63779 0.631413 0.672284 0.675052 0.68787 0.674164 0.650917 0.601398 0.621219 0.632205 0.686045 0.677743 0.680753 0.667087 0.670944 0.671962 0.647553 0.655641 0.636504 0.642623 0.636364 0.65178 0.670115 0.673597 0.659997 0.668283 0.659534 0.649724 0.660766 0.610472 0.601365 0.608105 0.606077 0.595547 0.60049 0.594355 0.58942 0.595185 0.588467 0.591891 0.593817 0.594487 0.595694 0.584322 0.567355 0.543353 0.529821 0.554356 0.521027 0.524112 0.521674 0.516779 0.514367 0.518085 0.520914 0.540746 0.586098 0.551714 0.683831 0.737358 0.409527 0.40237 0.581644 0.397612 0.438477 0.412414 0.406745 0.429777 0.39552 0.370234 0.364637 0.34514 0.370312 0.367058 0.35164 0.337633 0.368783 0.323586 0.324576 0.315336 0.302282 0.293447 0.285163 0.279786 0.262117 0.245276 0.216043 0.278175 0.192162 0.231527 0.331839 0.385777 0.371652 0.423561 0.418463 0.370799 0.331931 0.313747 0.351102 0.336404 0.36981 0.397627 0.415266 0.412203 0.439014 0.424166 0.426695 0.415066 0.412799 0.42454 0.411285 0.427455 0.40982 0.387279 0.406667 0.436892 0.364803 0.50559 0.582211 0.612935 0.604944 0.557534 0.537124 0.497112 0.505001 0.511192 0.517573 0.52002 0.538533 0.561492 0.568229 0.581487 0.592411 0.59895 0.597055 0.600345 0.595016 0.606103 0.609758 0.636618 0.648547 0.637048 0.674012 0.685739 0.65942 0.641274 0.648545 0.635822 0.706234 0.686183 0.664132 0.644895 0.64717 0.638003 0.62093 0.625366 0.637197 0.624331 0.664222 0.670488 0.661987 0.660664 0.635172 0.635014 0.632382 0.630707 0.655135 0.698179 0.669896 0.659805 0.659786 0.654357 0.649598 0.663518 0.611938 0.612282 0.605805 0.609275 0.598386 0.600163 0.599703 0.598608 0.591015 0.5954 0.586788 0.59582 0.587885 0.595112 0.584368 0.59406 0.599305 0.574315 0.589956 0.575079 0.561968 0.540954 0.554128 0.532843 0.533581 0.536648 0.528099 0.532398 0.522741 0.51696 0.517497 0.507399 0.496489 0.478027 0.528921 0.596853 0.462685 0.435064 0.46254 0.442454 0.453923 0.424322 0.414298 0.421942 0.391581 0.422413 0.379236 0.407606 0.37981 0.384703 0.338144 0.305082 0.290743 0.300541 0.250843 0.267025 0.278277 0.273004 0.245969 0.163197 0.129958 0.107598 2.74465 0.302131 0.251459 0.352893 0.377244 0.390251 0.3708 0.349996 0.332764 0.302821 0.285282 0.276212 0.301287 0.349947 0.399094 0.410862 0.437324 0.440654 0.442857 0.448334 0.434944 0.429288 0.429027 0.436174 0.437968 0.445481 0.459277 0.482177 0.471228 0.531247 0.512014 0.585124 0.617772 0.583806 0.582526 0.544166 0.507315 0.509369 0.512674 0.510553 0.487824 0.571926 0.552386 0.584122 0.583017 0.594816 0.604259 0.604342 0.605556 0.607505 0.605092 0.603821 0.608975 0.612005 0.624504 0.630024 0.660198 0.65983 0.721395 0.6284 0.653614 0.631342 0.705561 0.644854 0.668544 0.633651 0.644265 0.641553 0.62801 0.609748 0.618303 0.629439 0.661325 0.661448 0.628502 0.599398 0.605586 0.636281 0.635344 0.635837 0.695271 0.679644 0.669397 0.66167 0.658591 0.658158 0.625773 0.614966 0.609883 0.602797 0.600487 0.600573 0.600761 0.591651 0.599592 0.592837 0.600995 0.610011 0.591123 0.567623 0.545793 0.558583 0.544218 0.540401 0.525767 0.53201 0.526149 0.529723 0.523749 0.511661 0.520164 0.500706 0.491156 0.526674 0.52992 0.518852 0.520717 0.540037 0.482924 0.47147 0.43374 0.460907 0.427939 0.445015 0.429458 0.401327 0.424543 0.399789 0.416754 0.428006 0.403229 0.397776 0.326558 0.270939 0.297895 0.142926 0.198839 0.270588 0.166952 0.390418 0.311048 0.188728 0.129947 0.208484 0.268995 0.855969 0.0482427 0.141553 0.242025 0.309965 0.31262 0.34512 0.337103 0.349728 0.289503 0.28078 0.21003 0.359485 0.409154 0.452881 0.442512 0.436788 0.431973 0.42658 0.434642 0.423993 0.446409 0.47481 0.491558 0.548893 0.519176 0.564834 0.556166 0.544244 0.520864 0.512463 0.516276 0.542851 0.570588 0.538876 0.580001 0.584821 0.592819 0.589229 0.609794 0.60608 0.607913 0.607167 0.604023 0.611065 0.624793 0.62348 0.646286 0.677443 0.675587 0.634391 0.65117 0.662454 0.651762 0.64598 0.648588 0.71063 0.652198 0.662442 0.616749 0.638171 0.650797 0.682134 0.626971 0.650157 0.608018 0.60687 0.630122 0.651672 0.664166 0.622493 0.627838 0.620747 0.609275 0.5971 0.622174 0.632678 0.637573 0.6278 0.637707 0.645429 0.680249 0.673876 0.656961 0.680038 0.634232 0.636604 0.622146 0.633268 0.613919 0.603671 0.598787 0.603991 0.594201 0.596912 0.596758 0.593332 0.599703 0.574342 0.573216 0.550312 0.56446 0.562408 0.554562 0.547269 0.556427 0.54529 0.533594 0.53026 0.530081 0.512681 0.509498 0.515825 0.518147 0.51386 0.508826 0.487653 0.472392 0.46179 0.437039 0.448469 0.440912 0.436194 0.434345 0.446165 0.439658 0.438704 0.506978 0.584497 0.812142 0.382962 0.498671 0.327373 0.350544 0.684059 0.359484 0.367515 0.37096 0.0851979 0.344162 0.398935 0.375702 0.200543 0.193625 0.494352 0.477592 0.488549 0.435014 0.429385 0.430318 0.413631 0.431381 0.477304 0.516399 0.528652 0.538766 0.545157 0.55302 0.552028 0.547412 0.54938 0.527289 0.526703 0.533052 0.56313 0.569716 0.561153 0.566335 0.567379 0.583532 0.581686 0.619031 0.58101 0.60167 0.598858 0.605858 0.606792 0.605788 0.59801 0.597005 0.594827 0.610684 0.651622 0.63449 0.65703 0.666107 0.60525 0.625515 0.607757 0.641286 0.660514 0.696403 0.652303 0.591422 0.585193 0.619266 0.65944 0.747563 0.628099 0.614846 0.595616 0.575993 0.587243 0.614734 0.603483 0.63535 0.605736 0.654338 0.692802 0.681733 0.650626 0.631295 0.643709 0.652698 0.650225 0.633584 0.615195 0.604161 0.58866 0.599273 0.600178 0.599869 0.60339 0.603323 0.572392 0.56442 0.573678 0.566634 0.565761 0.554375 0.561868 0.556401 0.546841 0.537833 0.531996 0.531687 0.533733 0.516149 0.510516 0.513005 0.508993 0.512655 0.495477 0.505526 0.488325 0.47023 0.461135 0.479201 0.448344 0.443135 0.452213 0.442044 0.447339 0.465701 0.468517 0.474826 0.503829 0.527101 0.823502 0.974286 1.0986 0.383608 0.275985 0.297477 0.469494 0.248588 0.179274 0.246927 0.410477 0.461962 0.398514 0.0857269 0.142351 0.304885 0.56683 0.408764 0.389942 0.27152 0.381828 0.407422 0.39548 0.414922 0.389998 0.366652 0.425243 0.546397 0.516247 0.501489 0.515212 0.524513 0.537775 0.547541 0.551107 0.552485 0.547569 0.55611 0.532353 0.55031 0.51851 0.587181 0.580666 0.575384 0.588419 0.581424 0.582213 0.59343 0.610792 0.608778 0.609481 0.596132 0.58825 0.590868 0.58048 0.630806 0.598668 0.620495 0.65236 0.653425 0.66726 0.686561 0.56514 0.533734 0.538894 0.603338 0.666431 0.608886 0.588193 0.631286 0.580612 0.610941 0.522288 0.482416 0.710313 0.568521 0.609261 0.582285 0.585222 0.594646 0.61873 0.605783 0.588398 0.588881 0.576341 0.633284 0.691403 0.620086 0.623838 0.672835 0.646202 0.645943 0.624682 0.637085 0.602599 0.590651 0.594741 0.598382 0.602051 0.608192 0.601847 0.60165 0.602016 0.577069 0.577853 0.572284 0.571308 0.564379 0.55214 0.543 0.552791 0.537693 0.537018 0.541693 0.519214 0.528185 0.521732 0.516536 0.501911 0.504625 0.496172 0.470643 0.485598 0.47155 0.430729 0.439334 0.430406 0.496887 0.461246 0.414099 0.4442 0.385624 0.638816 0.632671 0.527851 0.308838 0.242893 0.518639 0.302031 0.26513 0.355844 0.354895 0.271426 0.442314 0.470791 0.509774 0.450583 0.413002 0.216383 0.611104 0.559836 0.56331 0.398321 0.467582 0.414027 0.382682 0.341831 0.349331 0.32328 0.343414 0.517528 0.468762 0.494007 0.519112 0.550231 0.55054 0.562539 0.480438 0.502081 0.553356 0.582414 0.582011 0.591359 0.599251 0.588934 0.600844 0.566588 0.606657 0.593085 0.590859 0.591353 0.596493 0.579596 0.57537 0.556665 0.540362 0.628912 0.658867 0.671593 0.694491 0.542785 0.58799 0.509368 0.572006 0.550152 0.555211 0.587851 0.44235 0.559586 0.55119 0.509439 0.577506 0.577028 0.59528 0.607475 0.595884 0.607525 0.569326 0.617372 0.567111 0.617516 0.597324 0.470755 0.664854 0.666751 0.656436 0.619137 0.597919 0.598586 0.599692 0.615692 0.586824 0.584965 0.581181 0.582793 0.576059 0.559747 0.569318 0.55294 0.563567 0.556559 0.542546 0.53721 0.51503 0.509539 0.497992 0.501625 0.48921 0.48772 0.48493 0.394238 0.377689 0.458089 0.350788 0.479596 0.700852 0.603384 0.593964 0.384688 0.221806 0.327854 0.307375 0.331651 0.353694 0.361481 0.287638 0.463483 0.588173 0.582907 0.628889 0.666898 0.756497 0.202358 0.530235 0.469832 0.52311 0.560468 0.351177 0.357566 0.335238 0.331842 0.30815 0.284383 0.323148 0.516878 0.512129 0.484715 0.501487 0.518196 0.548611 0.531441 0.540801 0.537471 0.548059 0.448927 0.583276 0.606233 0.601302 0.598794 0.576642 0.580747 0.592162 0.605547 0.607303 0.592309 0.596798 0.603454 0.573814 0.567564 0.563887 0.634509 0.639702 0.665031 0.690861 0.696173 0.532677 0.468423 0.583651 0.62771 0.452866 0.589526 0.599252 0.414546 0.469444 0.657564 0.664246 0.644119 0.613871 0.59654 0.600694 0.597613 0.601502 0.606526 0.59788 0.595329 0.587715 0.588077 0.576832 0.572357 0.568187 0.558804 0.54647 0.536124 0.526592 0.509181 0.522717 0.496027 0.489435 0.474627 0.473109 0.47972 0.478857 0.423173 0.482425 0.529779 0.438168 0.366481 0.568517 0.236914 0.344477 0.216062 0.203856 0.451684 0.444478 0.317647 0.365309 0.286299 0.497503 0.66512 1.46719 0.793691 0.557725 0.47245 0.510434 0.494417 0.413583 0.334455 0.305685 0.294311 0.264514 0.485618 0.494522 0.48178 0.483768 0.507216 0.550334 0.551515 0.506078 0.472171 0.473417 0.514466 0.601459 0.54768 0.592389 0.587156 0.583029 0.587009 0.60258 0.602796 0.612598 0.612597 0.61595 0.598087 0.603139 0.573447 0.563062 0.59947 0.665339 0.666499 0.643877 0.620026 0.600247 0.597638 0.638809 0.593399 0.59748 0.598094 0.595901 0.590466 0.583942 0.581183 0.576708 0.568278 0.567054 0.560846 0.533743 0.525325 0.513399 0.470805 0.484966 0.488422 0.48042 0.463081 0.458809 0.432679 0.489635 0.701324 0.609333 0.464603 0.434022 0.449187 0.245507 0.253546 0.362435 0.315709 0.355965 0.318649 0.340462 0.431069 0.383333 0.280225 0.385555 0.2921 0.300661 0.472686 0.637268 0.655064 0.646744 0.788808 0.520585 0.435001 0.381832 0.476981 0.412047 0.267316 0.343456 0.308172 0.34277 0.45797 0.527289 0.466503 0.445014 0.502458 0.537818 0.608356 0.587774 0.392015 0.45128 0.451722 0.569686 0.57198 0.493685 0.532128 0.608943 0.60223 0.608856 0.600915 0.621647 0.595144 0.599667 0.599154 0.597375 0.588646 0.593541 0.586318 0.58224 0.573233 0.576947 0.568872 0.565316 0.547637 0.527852 0.466319 0.479934 0.479211 0.471872 0.439838 0.413607 0.508444 0.489172 0.523305 0.494535 0.236546 0.350412 0.305047 0.33462 0.360462 0.366147 0.323845 0.325401 0.470934 0.473233 0.633023 0.388086 0.443497 0.383703 0.414363 0.513629 0.437726 0.468748 0.464956 0.540564 0.428496 0.489021 0.54574 0.370883 0.454736 0.590042 0.581468 0.524232 0.461456 0.484955 0.394193 0.365893 0.450157 0.331425 0.413057 0.611222 0.573197 0.518673 0.564523 0.520521 0.323442 0.360064 0.368121 0.431195 0.445553 0.361855 0.350126 0.322797 0.508985 0.733679 0.745584 0.544875 0.432305 0.544236 0.36177 0.33698 
SCALARS Stress float 1
LOOKUP_TABLE default
-26768000000.0 -90404200000.0 -207465000000.0 -123424000000.0 -117626000000.0 -32514500000.0 -246096000000.0 -209008000000.0 -222525000000.0 -124870000000.0 -153589000000.0 -232176000000.0 -135924000000.0 -52665000000.0 -61608900000.0 -76069100000.0 -166404000000.0 -436880000000.0 -391772000000.0 -735833000000.0 -212670000000.0 -304974000000.0 -510338000000.0 -486131000000.0 -534499000000.0 -316166000000.0 -398216000000.0 -150398000000.0 -323558000000.0 -239621000000.0 -270007000000.0 -591179000000.0 -246903000000.0 -287242000000.0 -282609000000.0 -264727000000.0 -166154000000.0 -26835300000.0 -117106000000.0 -363961000000.0 -450758000000.0 -391511000000.0 -513876000000.0 -1.07707e+12 -431600000000.0 -180335000000.0 -784694000000.0 -764706000000.0 -1.18475e+12 -593843000000.0 -374226000000.0 -1.05342e+12 -802434000000.0 -471475000000.0 -474371000000.0 -1.25303e+12 -458905000000.0 -731993000000.0 -552389000000.0 -589967000000.0 -685379000000.0 -627744000000.0 -70511200000.0 -50171400000.0 -151856000000.0 -133891000000.0 -38665500000.0 -692384000000.0 -844015000000.0 -565343000000.0 -576321000000.0 -1.40265e+12 -1.10142e+12 -330434000000.0 -517819000000.0 -385257000000.0 -430795000000.0 -1.3125e+12 -2.1674e+12 -850345000000.0 -1.45095e+12 -1.93634e+12 -285206000000.0 -777083000000.0 -277083000000.0 -1.22318e+12 -1.36828e+12 -468353000000.0 -266480000000.0 -66285600000.0 -88699600000.0 -931592000000.0 -1.10281e+12 -1.13086e+12 -893191000000.0 -1.45881e+12 -1.10284e+12 -2.01119e+12 -963850000000.0 -1.61258e+12 -1.11306e+12 -849094000000.0 -1.29903e+12 -472154000000.0 -361157000000.0 -1.0879e+12 -737801000000.0 -2.83422e+12 -1.33856e+12 -388856000000.0 -244668000000.0 -281639000000.0 -263098000000.0 -46898300000.0 -133726000000.0 -1.34246e+12 -2.17788e+12 -1.30684e+12 -1.68278e+12 -1.41201e+12 -1.86509e+12 -720566000000.0 -2.5411e+12 -679576000000.0 -1.50923e+12 -1.63288e+12 -1.01606e+12 -1.4769e+12 -982805000000.0 -1.41071e+12 -2.88591e+12 -3.32202e+12 -2.29667e+12 -2.12827e+12 -1.01093e+12 -901300000000.0 -569678000000.0 -1.52176e+12 -496489000000.0 -535802000000.0 -956377000000.0 -51695100000.0 -253429000000.0 -54939500000.0 -72224400000.0 -119777000000.0 -29657300000.0 -483785000000.0 -1.42206e+12 -1.05958e+12 -2.48483e+12 -949308000000.0 -976807000000.0 -2.45897e+12 -2.61589e+12 -2.39055e+12 -3.03365e+12 -740037000000.0 -2.47492e+12 -1.43608e+12 -1.50538e+12 -2.54624e+12 -2.68431e+12 -1.68645e+12 -1.52622e+12 -1.55198e+12 -482805000000.0 -1.29498e+12 -2.51561e+12 -1.50358e+12 -1.07117e+12 -188703000000.0 -24313700000.0 -88716700000.0 -20849900000.0 -1.89686e+12 -1.8094e+12 -3.72917e+12 -2.45806e+12 -2.60995e+12 -2.64941e+12 -2.85847e+12 -2.21966e+12 -2.64276e+12 -2.93234e+12 -2.45451e+12 -2.31056e+12 -3.10444e+12 -1.42845e+12 -2.4135e+12 -1.77342e+12 -1.75311e+12 -1.4017e+12 -2.86799e+12 -1.37133e+12 -115473000000.0 -22644700000.0 -229192000000.0 -1.62797e+12 -2.59944e+12 -719448000000.0 -2.98851e+12 -3.0627e+12 -3.72971e+12 -5.21886e+12 -2.69697e+12 -1.51472e+12 -3.29222e+12 -668136000000.0 -2.10304e+12 -3.93786e+12 -2.40906e+12 -4.2185e+12 -3.80181e+12 -4.49738e+12 -2.79832e+12 -4.17794e+12 -1.66239e+12 -3.65413e+12 -2.72802e+12 -1.9792e+12 -2.66931e+12 -190162000000.0 -2.04431e+12 -1.44625e+12 -2.77428e+12 -1.74941e+12 -1.59184e+12 -3.4827e+12 -1.5341e+12 -4.3199e+12 -4.68325e+12 -3.24108e+12 -4.02064e+12 -3.8426e+12 -4.07078e+12 -3.14382e+12 -3.42827e+12 -4.22202e+12 -5.21566e+12 -4.70546e+12 -4.27871e+12 -3.17898e+12 -2.85557e+12 -4.12889e+12 -3.44218e+12 -3.79794e+12 -3.19047e+12 -2.36174e+12 -2.19956e+12 -2.14672e+12 -3.24742e+12 -3.06533e+12 -3.90733e+12 -5.88249e+12 -2.13291e+12 -2.5347e+12 -3.61443e+12 -2.89879e+12 -5.55964e+12 -3.99122e+12 -2.87107e+12 -5.59292e+12 -3.15177e+12 -2.80915e+12 -3.26182e+12 -4.615e+12 -4.29834e+12 -4.09811e+12 -1.31635e+12 -3.55862e+12 -2.38841e+12 -5.19015e+12 -2.58677e+12 -4.86815e+12 -3.97368e+12 -4.67936e+12 -3.80078e+12 -2.06126e+12 -4.74606e+12 -2.7303e+12 -5.97688e+12 -4.70844e+12 -5.52629e+12 -5.05015e+12 -3.00089e+12 -3.44588e+12 -1.93106e+12 -2.97801e+12 -2.8289e+12 -5.19852e+12 -3.18514e+12 -4.08867e+12 -6.58778e+12 -4.67923e+12 -3.74031e+12 -3.40367e+12 -5.92695e+12 -6.67847e+12 -5.3517e+12 -2.5493e+12 -3.92393e+12 -3.18821e+12 -6.09705e+12 -5.95391e+12 -6.90622e+12 -4.65951e+12 -4.35871e+12 -3.74366e+12 -4.462e+12 -6.50842e+12 -6.21e+12 -4.1313e+12 -2.3546e+12 -4.20713e+12 -6.06024e+12 -6.70589e+12 -3.8032e+12 -3.30481e+12 -2.4004e+12 -3.89293e+12 -4.54293e+12 -4.8062e+12 -3.06773e+12 -3.81302e+12 -2.46735e+12 -4.98587e+12 -6.32043e+12 -6.46572e+12 -3.6923e+12 -6.00101e+12 -4.07158e+12 -4.11725e+12 -3.89201e+12 -2.08219e+12 -4.01842e+12 -4.3278e+12 -5.63572e+12 -5.96456e+12 -5.77015e+12 -4.27541e+12 -3.4505e+12 -3.93596e+12 -4.60127e+12 -3.75541e+12 -4.37972e+12 -3.90669e+12 -5.92773e+12 -2.38443e+12 -4.67253e+12 -4.99042e+12 -2.1248e+12 -4.45734e+12 -5.09469e+12 -3.78526e+12 -3.96523e+12 -1.66185e+12 -4.33238e+12 -4.95074e+12 -5.98959e+12 -4.34689e+12 -1.31803e+12 -1.92581e+12 -5.12075e+12 -3.0848e+12 -2.38693e+12 -4.8968e+12 -4.75393e+12 -4.37724e+12 -4.32824e+12 -5.41772e+12 -6.15355e+12 -3.97974e+12 -4.50982e+12 -3.7083e+12 -2.41087e+12 -4.17593e+12 -4.97419e+12 -5.55428e+12 -3.25798e+12 -3.37871e+12 -3.56311e+12 -4.19702e+12 -5.28743e+12 -4.76673e+12 -5.49589e+12 -2.62281e+12 -4.94696e+12 -4.98649e+12 -3.80058e+12 -2.89061e+12 -5.52777e+12 -5.4415e+12 -6.28614e+12 -4.05748e+12 -5.35256e+12 -6.02964e+12 -3.29974e+12 -5.17299e+12 -5.09798e+12 -4.84079e+12 -4.45583e+12 -4.23031e+12 -4.7009e+12 -6.6929e+12 -5.61532e+12 -3.93867e+12 -4.62031e+12 -3.96951e+12 -4.76288e+12 -5.14277e+12 -5.36478e+12 -4.199e+12 -2.92726e+12 -3.51249e+12 -3.66008e+12 -6.32459e+12 -5.34041e+12 -5.4478e+12 -4.49557e+12 -4.74647e+12 -4.70155e+12 -6.13022e+12 -5.58294e+12 -6.64314e+12 -3.61023e+12 -1.98322e+12 -5.34083e+12 -2.62759e+12 -4.774e+12 -4.68599e+12 -4.07653e+12 -4.1919e+12 -3.72495e+12 -6.91586e+12 -4.98976e+12 -2.97043e+12 -5.86952e+12 -3.54064e+12 -4.49085e+12 -2.60496e+12 -5.72218e+12 -2.75304e+12 -3.53807e+12 -5.20475e+12 -4.97661e+12 -3.74463e+12 -8.30706e+12 -6.47215e+12 -7.17412e+12 -3.58199e+12 -3.78507e+12 -5.84594e+12 -6.01371e+12 -6.69674e+12 -4.99118e+12 -7.4999e+12 -3.86441e+12 -3.526e+12 -5.07325e+12 -4.67931e+12 -4.81375e+12 -5.57789e+12 -5.94602e+12 -3.12024e+12 -3.27047e+12 -12549700000.0 -2.96816e+12 -5.83433e+12 -4.25966e+12 -5.55168e+12 -3.17356e+12 -3.94819e+12 -7.55129e+12 -3.74988e+12 -5.00743e+12 -4.70542e+12 -6.75598e+12 -3.85197e+12 -7.06444e+12 -5.55606e+12 -5.03004e+12 -4.84897e+12 -5.14398e+12 -3.43516e+12 -5.63792e+12 -2.87169e+12 -4.94981e+12 -7.7956e+12 -5.98242e+12 -5.51837e+12 -6.09556e+12 -4.60843e+12 -3.59028e+12 -5.42218e+12 -3.5557e+12 -4.90653e+12 -5.52726e+12 -2.52403e+12 -4.46759e+12 -5.23786e+12 -5.17384e+12 -5.81651e+12 -2.0172e+12 -3.16424e+12 -6.91238e+12 -6.3293e+12 -6.37939e+12 -7.97506e+12 -6.67104e+12 -5.42499e+12 -6.19553e+12 -2.9878e+12 -4.66272e+12 -5.91654e+12 -4.80668e+12 -7.90533e+12 -5.87367e+12 -5.57586e+12 -3.85706e+12 -4.19484e+12 -2.95601e+12 -4.98059e+12 -6.60895e+12 -6.12294e+12 -4.37448e+12 -5.1968e+12 -5.98874e+12 -3.31812e+12 -5.19569e+12 -2.06647e+12 -6.41133e+12 -7.85757e+12 -3.5104e+12 -8.91511e+12 -3.06957e+12 -2.77498e+12 -5.64476e+12 -7.13633e+12 -7.31627e+12 -6.0837e+12 -3.87013e+12 -6.49461e+12 -5.60245e+12 -4.47515e+12 -3.26898e+12 -1.10791e+13 -5.58666e+12 -6.08737e+12 -4.85145e+12 -4.16903e+12 -5.33292e+12 -5.44242e+12 -1.08894e+13 -7.72887e+12 -3.1284e+12 -9.07593e+12 -4.74039e+12 -5.6053e+12 -3.70463e+12 -5.57756e+12 -6.01504e+12 -6.90303e+12 -1.08935e+13 -3.86175e+12 -4.41301e+12 -6.26743e+12 -5.98013e+12 -7.77059e+12 -4.49832e+12 -6.94557e+12 -3.29725e+12 -6.28598e+12 -4.00122e+12 -6.96827e+12 -5.12607e+12 -9.33041e+12 -9.39783e+12 -3.11202e+12 -6.02704e+12 -5.1468e+12 -4.80416e+12 -7.95281e+12 -7.08384e+12 -7.3632e+12 -4.51185e+12 -7.32728e+12 -5.54332e+12 -4.0014e+12 -4.97999e+12 -8.82974e+12 -7.4933e+12 -1.18083e+13 -7.01157e+12 -6.73593e+12 -9.42607e+12 -8.8631e+12 -5.89212e+12 -1.16259e+13 -7.1569e+12 -4.97557e+12 -5.1525e+12 -9.24853e+12 -7.34429e+12 -5.16687e+12 -3.0667e+12 -12549700000.0 -6.17758e+12 -7.23598e+12 -3.44934e+12 -5.34211e+12 -5.85087e+12 -3.32621e+12 -6.95217e+12 -7.79226e+12 -5.44191e+12 -1.04156e+13 -6.4518e+12 -5.3609e+12 -6.43027e+12 -4.62532e+12 -5.4203e+12 -5.10498e+12 -5.00869e+12 -6.73597e+12 -4.98646e+12 -7.04638e+12 -6.98503e+12 -8.10595e+12 -7.71469e+12 -7.14217e+12 -6.60775e+12 -3.03007e+12 -8.1969e+12 -5.20189e+12 -1.04831e+13 -1.48368e+13 -7.06457e+12 -7.67353e+12 -12549700000.0 -2.21115e+12 -4.47379e+12 -6.65817e+12 -4.55856e+12 -7.49895e+12 -5.94206e+12 -4.94192e+12 -6.27125e+12 -4.16491e+12 -7.30855e+12 -8.01283e+12 -2.61771e+12 -6.55153e+12 -5.38982e+12 -6.65155e+12 -6.68783e+12 -7.88679e+12 -4.88455e+12 -6.61053e+12 -7.37899e+12 -4.56703e+12 -6.51632e+12 -4.87218e+12 -5.00472e+12 -7.60221e+12 -5.70283e+12 -8.56087e+12 -1.013e+13 -6.84123e+12 -2.68352e+12 -5.54108e+12 -1.12681e+13 -7.34697e+12 -8.64943e+12 -1.1884e+13 -4.35896e+12 -5.69105e+12 -12549700000.0 -4.4018e+12 -3.33027e+12 -2.90055e+12 -6.2637e+12 -5.09501e+12 -3.90254e+12 -4.92949e+12 -3.86529e+12 -8.09317e+12 -4.10626e+12 -8.17487e+12 -6.44561e+12 -6.47087e+12 -4.46442e+12 -5.7905e+12 -7.31135e+12 -3.08596e+12 -6.25911e+12 -2.5288e+12 -7.75977e+12 -6.2273e+12 -7.07677e+12 -6.86919e+12 -4.73049e+12 -7.26974e+12 -9.19364e+12 -1.99831e+12 -4.01879e+12 -4.10491e+12 -3.5846e+12 -4.0003e+12 -5.44866e+12 -5.81969e+12 -7.03364e+12 -5.12866e+12 -9.18871e+12 -7.06604e+12 -8.81853e+12 -5.66371e+12 -8.49833e+12 -8.763e+12 -2.88281e+12 -3.6024e+12 -3.91753e+12 -4.10283e+12 -5.21396e+12 -3.44896e+12 -6.61313e+12 -5.33341e+12 -7.24437e+12 -4.253e+12 -5.17231e+12 -4.19091e+12 -6.69943e+12 -4.22876e+12 -4.279e+12 -7.18568e+12 -6.57412e+12 -6.45869e+12 -5.79152e+12 -7.0244e+12 -8.21956e+12 -4.46392e+12 -5.3026e+12 -1.00099e+13 -3.7804e+12 -9.24051e+12 -5.55622e+12 -3.50681e+12 -4.34818e+12 -7.68039e+12 -5.76767e+12 -3.68271e+12 -3.87202e+12 -4.0141e+12 -5.11866e+12 -6.08648e+12 -6.07024e+12 -6.67085e+12 -5.57008e+12 -1.0931e+13 -8.99119e+12 -9.37168e+12 -5.83926e+12 -3.50725e+12 -4.92492e+12 -5.5338e+12 -6.3202e+12 -9.2782e+12 -1.03551e+13 -6.59763e+12 -1.2549e+13 -9.64363e+12 -6.45218e+12 -7.14903e+12 -8.91763e+12 -6.28642e+12 -4.68725e+12 -3.94897e+12 -3.62913e+12 -1.30023e+13 -4.26566e+12 -6.03082e+12 -4.7678e+12 -8.07113e+12 -8.35032e+12 -8.3625e+12 -2.89925e+12 -5.25234e+12 -1.00293e+13 -8.70715e+12 -9.57057e+12 -4.8303e+12 -9.07089e+12 -7.30392e+12 -6.37082e+12 -6.90755e+12 -6.82677e+12 -5.37672e+12 -5.86257e+12 -5.31387e+12 -6.43952e+12 -7.0548e+12 -8.07113e+12 -4.69158e+12 -3.84012e+12 -4.16908e+12 -4.26324e+12 -12549700000.0 -4.84243e+12 -2.92799e+12 -5.78549e+12 -4.47222e+12 -6.17832e+12 -9.84194e+12 -1.03563e+13 -5.94696e+12 -5.27385e+12 -9.806e+12 -6.89157e+12 -8.81089e+12 -9.33037e+12 -5.33789e+12 -1.01598e+13 -6.56911e+12 -7.95744e+12 -6.96729e+12 -1.03912e+13 -7.86609e+12 -1.00789e+13 -7.19959e+12 -7.02698e+12 -8.48407e+12 -8.00436e+12 -4.91871e+12 -1.04147e+13 -5.35811e+12 -7.2297e+12 -4.46542e+12 -4.74658e+12 -7.23536e+12 -9.03144e+12 -3.1825e+12 -4.57355e+12 -5.35041e+12 -4.99888e+12 -5.7926e+12 -12549700000.0 -12549700000.0 -6.61735e+12 -4.05803e+12 -5.18142e+12 -4.40099e+12 -2.86982e+12 -5.5449e+12 -8.00778e+12 -7.68755e+12 -8.03465e+12 -4.645e+12 -9.65463e+12 -6.64997e+12 -7.02815e+12 -7.02228e+12 -5.16944e+12 -6.22781e+12 -3.29663e+12 -5.98506e+12 -4.03212e+12 -5.85472e+12 -7.5086e+12 -8.65909e+12 -9.99812e+12 -6.70391e+12 -4.99221e+12 -9.00876e+12 -5.99856e+12 -5.87522e+12 -1.27439e+13 -9.40345e+12 -5.43992e+12 -5.18805e+12 -5.11541e+12 -6.77756e+12 -8.88296e+12 -5.20397e+12 -5.63583e+12 -5.25191e+12 -1.17493e+13 -5.93727e+12 -6.40973e+12 -8.05489e+12 -2.65817e+12 -3.59427e+12 -6.58529e+12 -8.15468e+12 -5.66359e+12 -1.11656e+13 -6.69426e+12 -8.33117e+12 -6.74357e+12 -8.07386e+12 -8.67222e+12 -9.11457e+12 -4.82264e+12 -9.67152e+12 -8.5217e+12 -7.55493e+12 -3.60603e+12 -8.25186e+12 -9.23922e+12 -6.0111e+12 -6.10351e+12 -2.47172e+12 -6.80763e+12 -4.93162e+12 -5.31874e+12 -8.24488e+12 -8.37773e+12 -6.87768e+12 -6.02376e+12 -6.10017e+12 -4.85827e+12 -7.70324e+12 -6.81372e+12 -1.02202e+13 -6.58239e+12 -5.25866e+12 -6.25478e+12 -9.30537e+12 -9.72815e+12 -1.02079e+13 -6.61686e+12 -4.3415e+12 -6.71915e+12 -3.69059e+12 -7.66397e+12 -6.87917e+12 -4.93389e+12 -4.73928e+12 -7.20558e+12 -4.51499e+12 -6.10747e+12 -7.8182e+12 -6.44893e+12 -1.32046e+13 -1.41404e+13 -6.02391e+12 -8.13769e+12 -4.88712e+12 -9.19417e+12 -2.96124e+12 -7.37519e+12 -4.54388e+12 -4.91788e+12 -6.09541e+12 -8.36735e+12 -7.83746e+12 -1.1849e+13 -1.04162e+13 -1.03627e+13 -5.07333e+12 -8.04456e+12 -8.033e+12 -1.05236e+13 -5.38505e+12 -7.67439e+12 -4.96705e+12 -7.81661e+12 -1.24289e+13 -8.45033e+12 -8.74283e+12 -5.32329e+12 -7.05188e+12 -8.32611e+12 -5.34912e+12 -3.96063e+12 -6.85322e+12 -4.40929e+12 -3.28162e+12 -4.35523e+12 -7.02705e+12 -7.11547e+12 -8.06228e+12 -5.04655e+12 -6.74829e+12 -7.33801e+12 -7.39981e+12 -6.31413e+12 -5.43397e+12 -6.43556e+12 -1.13262e+13 -8.42064e+12 -5.77509e+12 -1.00301e+13 -8.00503e+12 -1.20201e+13 -6.73812e+12 -7.84777e+12 -5.25608e+12 -7.9786e+12 -4.03051e+12 -9.31877e+12 -1.38568e+13 -1.17469e+13 -7.03577e+12 -6.70591e+12 -8.10933e+12 -6.10649e+12 -3.81604e+12 -7.95918e+12 -8.16589e+12 -3.16649e+12 -6.0981e+12 -7.84906e+12 -9.42309e+12 -4.73869e+12 -6.56884e+12 -3.54719e+12 -9.47337e+12 -7.04825e+12 -5.094e+12 -6.36023e+12 -9.68756e+12 -5.55082e+12 -2.84172e+12 -3.43508e+12 -12549700000.0 -7.05144e+12 -3.93697e+12 -1.01824e+13 -7.72275e+12 -8.908e+12 -7.69273e+12 -6.51926e+12 -1.14463e+13 -8.52688e+12 -7.93476e+12 -7.63964e+12 -1.03585e+13 -8.29597e+12 -8.91558e+12 -5.12567e+12 -6.53611e+12 -6.67942e+12 -8.30434e+12 -6.03414e+12 -6.49409e+12 -5.13046e+12 -7.1727e+12 -5.38617e+12 -9.14283e+12 -7.79866e+12 -5.58589e+12 -5.6646e+12 -7.11633e+12 -8.71325e+12 -1.18815e+13 -6.57398e+12 -3.51673e+12 -8.18748e+12 -4.82279e+12 -6.55274e+12 -5.33244e+12 -8.07766e+12 -5.01803e+12 -5.87643e+12 -7.08353e+12 -6.2756e+12 -8.27868e+12 -5.80516e+12 -7.62111e+12 -5.79198e+12 -8.83381e+12 -3.62878e+12 -12549700000.0 -2.9851e+12 -5.77924e+12 -9.86936e+12 -7.56167e+12 -8.90995e+12 -7.42301e+12 -1.05213e+13 -5.60395e+12 -4.94594e+12 -9.45199e+12 -6.39043e+12 -6.37244e+12 -7.05975e+12 -3.56923e+12 -4.10397e+12 -6.96151e+12 -6.76915e+12 -7.80999e+12 -7.58563e+12 -1.25602e+13 -8.20752e+12 -8.28303e+12 -8.91004e+12 -5.84713e+12 -8.68771e+12 -8.04966e+12 -8.36045e+12 -6.51002e+12 -4.77128e+12 -9.98762e+12 -9.01628e+12 -5.78347e+12 -7.79482e+12 -9.50178e+12 -1.14165e+13 -5.97798e+12 -1.07491e+13 -9.45519e+12 -8.48781e+12 -1.01426e+13 -6.14307e+12 -4.58146e+12 -4.8586e+12 -7.22158e+12 -4.89152e+12 -5.04606e+12 -3.52079e+12 -6.17994e+12 -6.36763e+12 -6.77381e+12 -9.53377e+12 -9.32522e+12 -5.95573e+12 -8.04901e+12 -8.47723e+12 -7.08495e+12 -8.81902e+12 -1.12242e+13 -9.70904e+12 -7.51305e+12 -8.6747e+12 -4.57261e+12 -7.28088e+12 -3.99687e+12 -5.8922e+12 -8.44709e+12 -6.81855e+12 -5.64944e+12 -7.34288e+12 -8.76385e+12 -7.77618e+12 -1.11072e+13 -7.49125e+12 -1.68894e+13 -5.00599e+12 -9.69553e+12 -7.01953e+12 -1.05331e+13 -9.95359e+12 -1.00939e+13 -8.28716e+12 -8.73673e+12 -4.53297e+12 -6.04302e+12 -5.96529e+12 -8.0985e+12 -1.07086e+13 -7.76316e+12 -1.09447e+13 -7.05132e+12 -6.09632e+12 -3.84957e+12 -3.42104e+12 -6.2243e+12 -6.43778e+12 -5.41753e+12 -1.05378e+13 -1.14821e+13 -5.26293e+12 -8.70802e+12 -4.86277e+12 -5.04133e+12 -9.14086e+12 -3.81204e+12 -3.43865e+12 -5.5356e+12 -9.19584e+12 -7.61154e+12 -4.05306e+12 -1.2813e+13 -8.59025e+12 -6.00346e+12 -5.7135e+12 -8.90097e+12 -1.04709e+13 -8.33243e+12 -7.56458e+12 -7.30791e+12 -5.77831e+12 -1.09722e+13 -7.76424e+12 -5.66611e+12 -8.98007e+12 -7.9027e+12 -1.16271e+13 -1.0493e+13 -7.80406e+12 -6.72237e+12 -8.47687e+12 -7.58191e+12 -4.99252e+12 -4.53929e+12 -5.3052e+12 -6.32869e+12 -7.78298e+12 -5.05222e+12 -1.08813e+13 -9.10523e+12 -6.40354e+12 -9.60985e+12 -5.9272e+12 -8.17333e+12 -8.35888e+12 -3.80021e+12 -7.79415e+12 -7.8399e+12 -7.17559e+12 -5.49366e+12 -6.75471e+12 -7.47977e+12 -6.56223e+12 -1.00631e+13 -1.26409e+13 -6.52946e+12 -6.67122e+12 -5.62094e+12 -5.46485e+12 -6.90592e+12 -8.20704e+12 -1.19641e+13 -1.24571e+13 -7.84367e+12 -7.44807e+12 -8.36509e+12 -1.09256e+13 -7.07679e+12 -1.06526e+13 -3.92693e+12 -6.00556e+12 -6.78821e+12 -8.07575e+12 -6.4385e+12 -7.73195e+12 -1.35329e+13 -1.48732e+13 -1.54128e+13 -1.00287e+13 -7.97519e+12 -9.88304e+12 -1.32941e+13 -6.37391e+12 -1.0466e+13 -5.94982e+12 -8.66572e+12 -6.88479e+12 -7.86447e+12 -5.77217e+12 -6.47528e+12 -5.57195e+12 -5.29552e+12 -5.11266e+12 -7.75552e+12 -5.70137e+12 -4.66451e+12 -7.61264e+12 -1.1216e+13 -9.01043e+12 -3.25699e+12 -4.41227e+12 -5.40899e+12 -5.01764e+12 -4.82594e+12 -8.16966e+12 -1.16108e+13 -5.09665e+12 -7.51508e+12 -8.98988e+12 -9.86944e+12 -5.14302e+12 -4.35375e+12 -8.40431e+12 -6.69272e+12 -1.22023e+13 -8.14888e+12 -5.35882e+12 -8.56768e+12 -1.1307e+13 -9.19707e+12 -6.19033e+12 -8.42347e+12 -4.18307e+12 -5.6347e+12 -1.1565e+13 -6.8466e+12 -7.18253e+12 -6.79706e+12 -8.6144e+12 -7.1539e+12 -1.30794e+13 -8.54634e+12 -1.20307e+13 -7.80905e+12 -6.07868e+12 -1.15999e+13 -1.08356e+13 -7.7257e+12 -8.42268e+12 -8.48166e+12 -9.9163e+12 -7.61375e+12 -9.09904e+12 -1.23409e+13 -3.79666e+12 -5.24938e+12 -7.51559e+12 -1.29104e+13 -8.59968e+12 -1.01968e+13 -4.49373e+12 -1.2213e+13 -1.1952e+13 -9.62718e+12 -7.86896e+12 -3.94402e+12 -7.05758e+12 -1.12355e+13 -6.47159e+12 -1.04843e+13 -7.75013e+12 -8.79076e+12 -9.70911e+12 -7.87145e+12 -1.34663e+13 -6.799e+12 -8.62906e+12 -8.75054e+12 -1.23091e+13 -8.67418e+12 -6.93179e+12 -1.21203e+13 -5.62312e+12 -4.67073e+12 -5.28921e+12 -7.40771e+12 -9.41025e+12 -1.33439e+13 -6.87847e+12 -9.27399e+12 -4.10876e+12 -5.80046e+12 -4.8698e+12 -6.92496e+12 -7.53611e+12 -1.07388e+13 -8.2189e+12 -9.29175e+12 -4.92094e+12 -8.59786e+12 -4.00596e+12 -1.2547e+13 -8.45007e+12 -7.0736e+12 -5.36435e+12 -8.59768e+12 -9.54191e+12 -4.65444e+12 -7.37848e+12 -6.33632e+12 -5.0379e+12 -7.35281e+12 -8.32266e+12 -1.05355e+13 -5.55741e+12 -6.3204e+12 -5.95696e+12 -8.95334e+12 -5.93541e+12 -9.56599e+12 -1.12638e+13 -9.0297e+12 -1.00538e+13 -9.9373e+12 -1.5568e+13 -9.28448e+12 -1.75566e+13 -6.56487e+12 -1.34936e+13 -9.30585e+12 -1.20522e+13 -9.92008e+12 -9.49266e+12 -8.46245e+12 -1.17266e+13 -8.1501e+12 -1.19796e+13 -4.04852e+12 -4.57467e+12 -8.879e+12 -7.12663e+12 -6.37561e+12 -1.00683e+13 -1.58083e+13 -1.06313e+13 -1.25923e+13 -9.83425e+12 -6.85173e+12 -1.23277e+13 -6.38367e+12 -9.75311e+12 -1.51775e+13 -9.64949e+12 -1.01738e+13 -7.86124e+12 -9.21773e+12 -5.9701e+12 -8.72109e+12 -8.55407e+12 -1.03827e+13 -3.40472e+12 -6.12559e+12 -8.87561e+12 -1.13191e+13 -7.42618e+12 -7.91438e+12 -7.34549e+12 -5.85161e+12 -7.49994e+12 -8.95181e+12 -6.77539e+12 -5.56562e+12 -4.85749e+12 -9.71007e+12 -1.17039e+13 -7.66912e+12 -9.61179e+12 -5.37084e+12 -6.74319e+12 -1.27997e+13 -9.14061e+12 -6.72966e+12 -7.89641e+12 -1.06248e+13 -1.28792e+13 -7.27778e+12 -1.01454e+13 -1.34081e+13 -4.06156e+12 -3.35859e+12 -1.04452e+13 -8.09867e+12 -6.67787e+12 -5.13449e+12 -3.98022e+12 -7.19407e+12 -1.07498e+13 -8.60587e+12 -1.08642e+13 -1.19516e+13 -8.65444e+12 -5.66473e+12 -8.72434e+12 -5.88958e+12 -6.5064e+12 -6.44937e+12 -7.71746e+12 -9.78943e+12 -1.1761e+13 -8.58256e+12 -9.29972e+12 -9.85792e+12 -8.35439e+12 -1.22947e+13 -8.91483e+12 -1.0011e+13 -1.0089e+13 -1.49513e+13 -1.25627e+13 -9.20955e+12 -1.1502e+13 -7.71566e+12 -7.20148e+12 -3.77326e+12 -5.45507e+12 -3.29678e+12 -8.19003e+12 -6.70663e+12 -1.00462e+13 -1.16515e+13 -1.41172e+13 -6.73174e+12 -6.57824e+12 -1.28479e+13 -9.91443e+12 -8.1103e+12 -7.25757e+12 -1.32052e+13 -1.09058e+13 -1.00056e+13 -1.39309e+13 -6.54182e+12 -1.03305e+13 -1.18022e+13 -9.66805e+12 -9.53664e+12 -9.55554e+12 -1.00567e+13 -5.1983e+12 -3.048e+12 -3.58156e+12 -9.52434e+12 -9.70047e+12 -6.52067e+12 -8.36748e+12 -9.64354e+12 -9.04777e+12 -5.6203e+12 -1.11482e+13 -1.28743e+13 -1.09924e+13 -8.41247e+12 -8.04836e+12 -3.92297e+12 -9.43128e+12 -9.52722e+12 -7.70936e+12 -7.1361e+12 -6.77285e+12 -5.68366e+12 -6.64213e+12 -5.14067e+12 -5.53603e+12 -1.01964e+13 -9.54869e+12 -7.40916e+12 -1.10572e+13 -1.49418e+13 -7.09304e+12 -6.64158e+12 -7.00033e+12 -4.11419e+12 -8.022e+12 -6.1874e+12 -8.94301e+12 -4.9154e+12 -9.64873e+12 -9.74026e+12 -1.03712e+13 -1.05193e+13 -2.84436e+12 -4.63472e+12 -6.73695e+12 -9.5039e+12 -6.85605e+12 -1.1953e+13 -8.02042e+12 -9.00504e+12 -1.066e+13 -1.14843e+13 -9.54076e+12 -9.28971e+12 -1.40651e+13 -9.81673e+12 -1.27574e+13 -5.82421e+12 -8.02468e+12 -2.67851e+12 -4.17409e+12 -8.70194e+12 -8.48136e+12 -4.04093e+12 -5.75471e+12 -1.21738e+13 -6.54503e+12 -6.03165e+12 -7.25527e+12 -7.77811e+12 -9.06627e+12 -8.51004e+12 -1.07329e+13 -6.35128e+12 -7.35059e+12 -6.18716e+12 -8.86133e+12 -1.09607e+13 -8.04855e+12 -6.54678e+12 -8.41185e+12 -1.05985e+13 -8.74739e+12 -6.92944e+12 -5.85622e+12 -1.12922e+13 -1.0024e+13 -9.33328e+12 -1.27486e+13 -3.71329e+12 -6.02878e+12 -6.72079e+12 -7.63294e+12 -1.02444e+13 -9.84383e+12 -7.12499e+12 -8.5311e+12 -6.28666e+12 -6.22755e+12 -1.49754e+13 -6.00699e+12 -9.65068e+12 -8.98494e+12 -5.41047e+12 -1.26623e+13 -1.1312e+13 -5.54233e+12 -9.10472e+12 -8.60986e+12 -9.7683e+12 -6.3715e+12 -6.4426e+12 -6.2029e+12 -5.8983e+12 -6.37237e+12 -3.23822e+12 -8.76152e+12 -9.22641e+12 -1.21491e+13 -8.54722e+12 -4.71254e+12 -9.24371e+12 -1.18613e+13 -7.57139e+12 -5.23897e+12 -4.495e+12 -5.75086e+12 -4.7818e+12 -7.1554e+12 -3.56685e+12 -5.38918e+12 -5.87291e+12 -5.83329e+12 -1.11622e+13 -6.12038e+12 -4.62196e+12 -9.78568e+12 -6.72429e+12 -7.73186e+12 -5.62788e+12 -7.51306e+12 -8.61628e+12 -5.97833e+12 -8.15299e+12 -7.42088e+12 -6.05182e+12 -7.20647e+12 -1.04552e+13 -1.00008e+13 -1.07654e+13 -8.64643e+12 -6.28829e+12 -4.60873e+12 -7.80553e+12 -1.74374e+13 -1.00361e+13 -5.03426e+12 -9.36797e+12 -7.88827e+12 -1.09945e+13 -1.0463e+13 -5.56912e+12 -1.24834e+13 -1.13289e+13 -1.2853e+13 -6.21186e+12 -4.90439e+12 -6.80025e+12 -5.38168e+12 -1.02108e+13 -9.56695e+12 -6.20961e+12 -5.07979e+12 -5.29059e+12 -4.92209e+12 -7.83296e+12 -7.72546e+12 -8.84712e+12 -9.14451e+12 -1.32616e+13 -9.41187e+12 -1.11589e+13 -8.01563e+12 -1.24575e+13 -1.37501e+13 -7.08821e+12 -1.39883e+13 -4.66712e+12 -6.14143e+12 -6.38838e+12 -2.82552e+12 -4.23098e+12 -4.6181e+12 -6.70654e+12 -1.0393e+13 -8.52904e+12 -5.66729e+12 -1.21694e+13 -7.85455e+12 -1.27754e+13 -1.30021e+13 -5.38315e+12 -6.11725e+12 -7.28625e+12 -6.96524e+12 -6.2817e+12 -6.50561e+12 -6.27659e+12 -7.92767e+12 -5.99892e+12 -9.01866e+12 -5.2561e+12 -9.98921e+12 -7.25792e+12 -7.63349e+12 -7.71534e+12 -1.17506e+13 -4.6771e+12 -8.01204e+12 -6.90528e+12 -1.03261e+13 -4.77542e+12 -5.13687e+12 -5.46756e+12 -7.20051e+12 -9.77312e+12 -9.06913e+12 -3.40272e+12 -4.99132e+12 -7.86008e+12 -8.74385e+12 -5.29877e+12 -6.94989e+12 -3.91149e+12 -8.76519e+12 -6.26585e+12 -5.61912e+12 -3.27991e+12 -3.18568e+12 -8.25999e+12 -7.61682e+12 -7.67448e+12 -3.90025e+12 -4.10675e+12 -4.83583e+12 -5.8072e+12 -3.2731e+12 -3.89882e+12 -7.37142e+12 -6.8217e+12 -8.37322e+12 -5.22065e+12 -8.72871e+12 -5.57003e+12 -1.0526e+13 -8.89307e+12 -5.84673e+12 -6.55212e+12 -5.67444e+12 -8.10922e+12 -8.78434e+12 -6.50749e+12 -6.73966e+12 -4.04954e+12 -4.76535e+12 -1.17081e+13 -6.8485e+12 -3.24844e+12 -8.59627e+12 -2.26263e+12 -5.19901e+12 -7.24942e+12 -5.92172e+12 -7.28823e+12 -9.13852e+12 -5.083e+12 -9.09996e+12 -7.66153e+12 -9.65585e+12 -8.72558e+12 -9.45694e+12 -8.45156e+12 -1.29644e+13 -8.84488e+12 -4.7572e+12 -7.2279e+12 -8.09258e+12 -1.11357e+13 -1.29973e+13 -7.53251e+12 -8.83467e+12 -6.28144e+12 -6.11965e+12 -3.79012e+12 -7.64378e+12 -9.30764e+12 -5.91725e+12 -1.11007e+13 -1.12785e+13 -8.48128e+12 -6.38902e+12 -4.59058e+12 -9.71145e+12 -1.00703e+13 -8.20813e+12 -1.05921e+13 -6.14532e+12 -5.83373e+12 -6.45139e+12 -7.37291e+12 -5.07535e+12 -1.25867e+13 -7.11114e+12 -6.48616e+12 -9.66827e+12 -6.4577e+12 -7.52921e+12 -7.48661e+12 -8.98581e+12 -5.00587e+12 -5.34176e+12 -7.22836e+12 -6.05396e+12 -4.88835e+12 -8.0494e+12 -4.61374e+12 -6.18748e+12 -1.32979e+13 -8.18172e+12 -7.20128e+12 -1.31071e+13 -6.10461e+12 -7.19363e+12 -1.01013e+13 -6.81312e+12 -8.72976e+12 -8.21363e+12 -7.01785e+12 -7.47771e+12 -7.77081e+12 -1.12013e+13 -5.61047e+12 -9.70069e+12 -7.20487e+12 -6.62206e+12 -8.8286e+12 -6.85641e+12 -4.81908e+12 -8.31702e+12 -5.0743e+12 -5.26487e+12 -8.88808e+12 -1.26664e+13 -6.19021e+12 -7.72222e+12 -6.50591e+12 -6.01261e+12 -5.56722e+12 -5.94436e+12 -1.01798e+13 -9.70271e+12 -4.16308e+12 -9.38739e+12 -5.46017e+12 -8.70594e+12 -6.55318e+12 -1.23432e+13 -8.05165e+12 -5.9617e+12 -9.77247e+12 -1.18946e+13 -6.13916e+12 -7.2668e+12 -8.94528e+12 -1.17513e+13 -1.10469e+13 -9.67132e+12 -8.38144e+12 -6.48021e+12 -6.93652e+12 -3.07149e+12 -1.21667e+13 -9.71712e+12 -1.09412e+13 -9.44507e+12 -1.25827e+13 -5.20202e+12 -8.21275e+12 -1.08344e+13 -8.21799e+12 -1.50884e+13 -3.21413e+12 -6.55273e+12 -1.06705e+13 -1.33611e+13 -7.56126e+12 -4.50177e+12 -4.09925e+12 -8.1275e+12 -1.09636e+13 -6.95927e+12 -9.61784e+12 -8.21865e+12 -8.57158e+12 -1.1153e+13 -1.01932e+13 -1.1352e+13 -1.00581e+13 -5.49908e+12 -9.89539e+12 -6.92597e+12 -4.97564e+12 -7.2676e+12 -1.23596e+13 -1.0388e+13 -9.27035e+12 -1.27623e+13 -9.50407e+12 -1.29323e+13 -1.00724e+13 -7.14309e+12 -4.73139e+12 -6.39793e+12 -8.05094e+12 -1.01012e+13 -8.8108e+12 -7.44272e+12 -7.83903e+12 -8.54728e+12 -6.99439e+12 -1.08736e+13 -9.82625e+12 -5.68255e+12 -8.34741e+12 -5.6196e+12 -7.59483e+12 -8.06911e+12 -5.36485e+12 -5.16004e+12 -6.07009e+12 -8.12654e+12 -4.1857e+12 -7.83508e+12 -6.54376e+12 -1.28365e+13 -5.99199e+12 -8.17326e+12 -8.71309e+12 -1.2938e+13 -6.2404e+12 -6.74168e+12 -5.48857e+12 -5.37781e+12 -6.93401e+12 -1.04026e+13 -5.03377e+12 -5.1081e+12 -1.07992e+13 -8.83111e+12 -1.02901e+13 -7.46897e+12 -9.80281e+12 -6.19391e+12 -3.6369e+12 -5.89664e+12 -2.4547e+12 -8.31264e+12 -9.02402e+12 -5.59783e+12 -8.81235e+12 -1.0729e+13 -1.32648e+13 -3.64437e+12 -5.22289e+12 -5.99147e+12 -6.83796e+12 -8.99905e+12 -5.90636e+12 -5.46446e+12 -4.66077e+12 -1.05316e+13 -9.62659e+12 -4.35372e+12 -7.01356e+12 -9.28599e+12 -7.29823e+12 -7.28727e+12 -6.64115e+12 -6.61676e+12 -8.03719e+12 -7.30195e+12 -6.8409e+12 -3.0027e+12 -1.02525e+13 -1.17468e+13 -7.28721e+12 -7.69901e+12 -9.81783e+12 -9.1187e+12 -8.69214e+12 -6.32899e+12 -4.55183e+12 -1.4255e+13 -1.05508e+13 -1.26126e+13 -9.80499e+12 -8.3513e+12 -7.3623e+12 -5.01581e+12 -8.56086e+12 -7.71546e+12 -5.01539e+12 -9.54096e+12 -1.30961e+13 -9.1264e+12 -8.29999e+12 -7.76123e+12 -7.88772e+12 -7.24191e+12 -9.38003e+12 -7.85687e+12 -5.27132e+12 -9.7318e+12 -9.91973e+12 -5.89534e+12 -4.54551e+12 -8.16265e+12 -1.03185e+13 -9.43614e+12 -5.95122e+12 -1.18748e+13 -1.0976e+13 -1.03027e+13 -8.29198e+12 -6.91223e+12 -1.17318e+13 -5.97942e+12 -7.6383e+12 -7.23436e+12 -8.80274e+12 -8.11345e+12 -7.95984e+12 -6.05857e+12 -1.07763e+13 -8.49329e+12 -5.59067e+12 -7.32405e+12 -9.46758e+12 -4.9161e+12 -1.0833e+13 -8.72588e+12 -6.9068e+12 -3.57101e+12 -8.52529e+12 -7.18281e+12 -6.1782e+12 -8.4241e+12 -8.6027e+12 -5.53345e+12 -1.04413e+13 -7.64044e+12 -4.41117e+12 -6.71564e+12 -1.34654e+13 -1.14392e+13 -1.07834e+13 -6.28945e+12 -6.3512e+12 -1.12467e+13 -4.34884e+12 -6.43695e+12 -7.63571e+12 -7.42295e+12 -1.17201e+13 -4.09916e+12 -6.0831e+12 -3.87231e+12 -7.34581e+12 -6.30725e+12 -7.56361e+12 -1.05023e+13 -7.23522e+12 -4.63619e+12 -8.91506e+12 -5.85713e+12 -8.13598e+12 -5.11906e+12 -1.05834e+13 -7.0739e+12 -8.7166e+12 -8.07918e+12 -6.94391e+12 -9.77773e+12 -5.75234e+12 -7.15702e+12 -4.48488e+12 -7.37575e+12 -7.64813e+12 -7.91341e+12 -4.80825e+12 -7.14877e+12 -6.62075e+12 -5.05534e+12 -4.38058e+12 -6.3918e+12 -1.03945e+13 -7.31809e+12 -8.229e+12 -1.27493e+13 -1.05189e+13 -6.83825e+12 -5.42795e+12 -7.11e+12 -4.50381e+12 -7.47409e+12 -8.56699e+12 -5.13032e+12 -8.73871e+12 -8.53686e+12 -7.66302e+12 -1.23981e+13 -5.10615e+12 -6.66281e+12 -6.47157e+12 -8.31095e+12 -1.25204e+13 -8.93593e+12 -7.53694e+12 -3.69631e+12 -9.09358e+12 -1.12809e+13 -1.22868e+13 -9.74818e+12 -2.65013e+12 -1.04454e+13 -1.37696e+13 -1.05109e+13 -9.48414e+12 -9.23096e+12 -1.08143e+13 -7.60331e+12 -8.60488e+12 -6.42143e+12 -8.20382e+12 -5.86387e+12 -5.99718e+12 -8.05352e+12 -6.78069e+12 -8.35388e+12 -5.26009e+12 -6.47818e+12 -4.46985e+12 -2.79302e+12 -8.54532e+12 -8.08576e+12 -7.25383e+12 -9.42691e+12 -1.40346e+13 -2.74705e+12 -1.01199e+13 -6.63123e+12 -1.41736e+13 -4.59907e+12 -5.90617e+12 -4.92209e+12 -8.14022e+12 -4.77395e+12 -6.5081e+12 -6.90815e+12 -1.16531e+13 -4.92946e+12 -8.29345e+12 -5.45126e+12 -1.10923e+13 -7.7976e+12 -2.42164e+12 -9.73007e+12 -6.96906e+12 -1.30196e+13 -3.44758e+12 -3.57345e+12 -5.07958e+12 -8.65694e+12 -5.67521e+12 -1.0507e+13 -8.40259e+12 -9.33372e+12 -7.0829e+12 -7.75052e+12 -6.53472e+12 -4.83924e+12 -1.09585e+13 -5.41628e+12 -8.85296e+12 -7.53544e+12 -5.20991e+12 -5.75151e+12 -6.10795e+12 -4.80787e+12 -5.87665e+12 -1.0672e+13 -7.42504e+12 -4.74929e+12 -5.88138e+12 -6.98676e+12 -8.25283e+12 -6.88937e+12 -7.5003e+12 -6.35359e+12 -9.04517e+12 -3.37157e+12 -4.49902e+12 -8.43536e+12 -8.25583e+12 -8.47712e+12 -6.67499e+12 -6.05388e+12 -6.78746e+12 -8.39145e+12 -6.05159e+12 -3.40464e+12 -8.58481e+12 -8.34176e+12 -7.01438e+12 -3.88306e+12 -3.65541e+12 -1.07432e+13 -7.48596e+12 -4.47251e+12 -5.98158e+12 -8.15502e+12 -2.65353e+12 -6.24959e+12 -4.66405e+12 -8.57266e+12 -5.64518e+12 -4.72018e+12 -2.93905e+12 -7.21551e+12 -4.25727e+12 -6.43421e+12 -8.78498e+12 -6.73587e+12 -1.13934e+13 -1.18517e+13 -1.11161e+13 -1.04697e+13 -1.03896e+13 -4.78381e+12 -8.1265e+12 -7.92098e+12 -8.74595e+12 -6.50404e+12 -1.00171e+13 -5.54343e+12 -9.1162e+12 -5.54643e+12 -6.8419e+12 -7.53848e+12 -1.06828e+13 -3.87696e+12 -7.58593e+12 -1.26235e+13 -7.96996e+12 -7.77376e+12 -8.20724e+12 -6.8809e+12 -8.30259e+12 -4.77947e+12 -1.3011e+13 -1.16186e+13 -6.26829e+12 -8.09116e+12 -9.12895e+12 -1.05109e+13 -7.52444e+12 -1.13337e+13 -1.11686e+13 -5.33328e+12 -6.29582e+12 -2.81825e+12 -2.87534e+12 -6.90057e+12 -5.6057e+12 -7.07311e+12 -4.15244e+12 -8.77298e+12 -6.54823e+12 -6.68386e+12 -8.64691e+12 -7.38148e+12 -1.28623e+13 -5.11059e+12 -8.99754e+12 -6.77721e+12 -8.69527e+12 -6.10009e+12 -4.87542e+12 -9.21259e+12 -5.70972e+12 -9.83066e+12 -9.12076e+12 -9.80462e+12 -1.0547e+13 -7.57039e+12 -1.04626e+13 -8.80026e+12 -8.04022e+12 -9.26944e+12 -4.99534e+12 -7.61868e+12 -1.56748e+13 -5.83901e+12 -1.17183e+13 -1.01842e+13 -6.97832e+12 -8.58814e+12 -8.13934e+12 -1.06701e+13 -8.47715e+12 -1.02698e+13 -1.00782e+13 -8.1231e+12 -5.52345e+12 -7.42433e+12 -5.47654e+12 -8.98157e+12 -3.1017e+12 -6.34408e+12 -6.34678e+12 -5.09663e+12 -4.42992e+12 -6.1369e+12 -5.95229e+12 -5.88379e+12 -4.09715e+12 -5.98226e+12 -4.15563e+12 -5.26824e+12 -1.15499e+13 -6.98814e+12 -9.42679e+12 -7.00617e+12 -7.5585e+12 -5.0001e+12 -4.92661e+12 -5.82143e+12 -6.95586e+12 -8.81802e+12 -8.62368e+12 -8.98111e+12 -7.12162e+12 -6.98301e+12 -4.49488e+12 -7.84144e+12 -3.99675e+12 -5.91852e+12 -7.29129e+12 -9.52035e+12 -3.95056e+12 -6.54146e+12 -5.37232e+12 -9.03533e+12 -4.66503e+12 -9.3345e+12 -7.30285e+12 -6.01393e+12 -5.19422e+12 -8.57659e+12 -7.44156e+12 -7.10095e+12 -6.04471e+12 -4.78106e+12 -9.16437e+12 -4.32249e+12 -5.14674e+12 -7.66353e+12 -5.84929e+12 -5.12393e+12 -8.78419e+12 -6.35028e+12 -2.93958e+12 -5.19947e+12 -9.76557e+12 -6.94618e+12 -1.11637e+13 -7.65751e+12 -6.09023e+12 -5.50276e+12 -6.79445e+12 -4.38412e+12 -6.7958e+12 -6.75269e+12 -5.61877e+12 -8.47868e+12 -6.83645e+12 -5.31273e+12 -1.01488e+13 -7.57622e+12 -5.94069e+12 -4.36283e+12 -5.40763e+12 -8.53937e+12 -8.91204e+12 -7.71071e+12 -8.98416e+12 -5.04383e+12 -7.37703e+12 -9.7224e+12 -7.3496e+12 -9.01867e+12 -1.07182e+13 -7.99104e+12 -5.34557e+12 -6.33786e+12 -6.39313e+12 -5.7484e+12 -5.45347e+12 -5.33554e+12 -8.45312e+12 -4.47283e+12 -4.82056e+12 -7.20103e+12 -6.08006e+12 -6.50927e+12 -1.09059e+13 -6.86459e+12 -7.91059e+12 -7.91316e+12 -1.94699e+13 -4.73469e+12 -6.65324e+12 -6.87734e+12 -1.56227e+13 -8.9473e+12 -1.05434e+13 -5.69724e+12 -7.70621e+12 -7.98854e+12 -6.1194e+12 -8.82082e+12 -1.1403e+13 -5.76601e+12 -7.86977e+12 -7.24352e+12 -9.58998e+12 -6.19982e+12 -5.42368e+12 -8.22705e+12 -7.29974e+12 -6.63543e+12 -6.75913e+12 -6.12227e+12 -5.73677e+12 -3.31362e+12 -6.14906e+12 -5.33316e+12 -6.47398e+12 -9.41558e+12 -928569000000.0 -1.00199e+13 -8.86594e+12 -3.50141e+12 -5.72333e+12 -4.52103e+12 -2.34403e+12 -6.73319e+12 -1.15134e+13 -7.20945e+12 -5.07266e+12 -6.12063e+12 -7.66933e+12 -5.84015e+12 -6.93372e+12 -5.71971e+12 -6.72686e+12 -5.41907e+12 -5.43708e+12 -3.74462e+12 -5.73294e+12 -5.4121e+12 -5.53296e+12 -7.44425e+12 -5.73549e+12 -7.07592e+12 -6.79113e+12 -3.06011e+12 -1.08695e+13 -6.40419e+12 -3.67731e+12 -5.35513e+12 -5.9041e+12 -4.68734e+12 -6.05128e+12 -6.28277e+12 -3.36897e+12 -2.92003e+12 -6.0525e+12 -7.41974e+12 -5.17298e+12 -6.23263e+12 -6.54258e+12 -5.44518e+12 -4.17478e+12 -2.72316e+12 -6.69545e+12 -8.07955e+12 -8.03169e+12 -8.87334e+12 -1.15942e+13 -4.29056e+12 -4.46591e+12 -4.54093e+12 -5.41049e+12 -5.38543e+12 -1.39105e+13 -7.95215e+12 -7.57867e+12 -8.52452e+12 -7.32459e+12 -5.0022e+12 -4.62103e+12 -7.65959e+12 -9.81617e+12 -7.45183e+12 -1.37457e+13 -4.87191e+12 -4.28599e+12 -3.37073e+12 -3.98016e+12 -5.81214e+12 -5.18915e+12 -8.17762e+12 -8.51545e+12 -9.23052e+12 -4.86675e+12 -7.85267e+12 -3.26659e+12 -6.63096e+12 -5.43781e+12 -1.00852e+13 -8.30057e+12 -9.05197e+12 -5.29031e+12 -7.65536e+12 -7.13187e+12 -1.33429e+13 -7.86478e+12 -5.90122e+12 -7.12312e+12 -8.86724e+12 -6.06508e+12 -1.09937e+13 -6.49034e+12 -5.81024e+12 -5.5343e+12 -5.15426e+12 -8.69799e+12 -4.57341e+12 -4.23194e+12 -7.84212e+12 -5.64244e+12 -5.99725e+12 -8.70465e+12 -4.87428e+12 -8.37488e+12 -4.74079e+12 -3.10603e+12 -5.3615e+12 -9.5237e+12 -8.69931e+12 -1.44709e+13 -6.47223e+12 -1.24279e+13 -7.30105e+12 -8.36125e+12 -1.13518e+13 -7.63639e+12 -5.85821e+12 -6.71923e+12 -7.35798e+12 -3.51106e+12 -7.82797e+12 -5.94481e+12 -7.45719e+12 -5.65546e+12 -7.41527e+12 -4.72236e+12 -7.643e+12 -6.99089e+12 -5.13686e+12 -5.8735e+12 -2.50592e+12 -5.26673e+12 -4.34025e+12 -8.33598e+12 -1.01606e+13 -1.20402e+13 -7.1781e+12 -6.35691e+12 -9.38635e+12 -1.14317e+13 -6.84417e+12 -4.4716e+12 -8.2718e+12 -5.55602e+12 -6.57133e+12 -5.17433e+12 -3.71654e+12 -6.33699e+12 -5.51041e+12 -9.1255e+12 -6.35676e+12 -7.86011e+12 -6.97662e+12 -9.68969e+12 -6.27355e+12 -2.62686e+12 -6.05494e+12 -5.00021e+12 -6.34022e+12 -3.91282e+12 -5.3559e+12 -6.77188e+12 -7.48338e+12 -6.07779e+12 -4.06547e+12 -4.3186e+12 -6.49767e+12 -6.74898e+12 -8.78063e+12 -5.53338e+12 -4.91576e+12 -6.88882e+12 -6.06077e+12 -4.68341e+12 -4.44198e+12 -5.57904e+12 -6.61776e+12 -7.37339e+12 -4.70556e+12 -6.80889e+12 -6.07992e+12 -4.67915e+12 -6.32107e+12 -6.4503e+12 -8.33959e+12 -5.0818e+12 -3.97431e+12 -6.05119e+12 -5.26575e+12 -7.59755e+12 -7.24131e+12 -7.64999e+12 -7.98201e+12 -6.89699e+12 -3.62244e+12 -7.56606e+12 -6.86905e+12 -8.83846e+12 -1.30244e+13 -7.61465e+12 -6.39701e+12 -5.76325e+12 -8.37921e+12 -9.99133e+12 -8.10424e+12 -1.20201e+13 -5.26359e+12 -3.57213e+12 -5.33468e+12 -1.06441e+13 -6.22855e+12 -6.97036e+12 -1.06782e+13 -8.03566e+12 -1.23256e+13 -1.30464e+13 -8.61799e+12 -5.13799e+12 -8.32979e+12 -1.44197e+13 -6.0345e+12 -4.19685e+12 -1.07968e+13 -7.88893e+12 -6.74206e+12 -6.87299e+12 -5.06365e+12 -6.02017e+12 -6.32795e+12 -9.59296e+12 -7.91027e+12 -6.26369e+12 -9.76423e+12 -5.52602e+12 -3.72799e+12 -5.3176e+12 -8.90798e+12 -1.12553e+13 -7.00029e+12 -5.49741e+12 -1.23115e+13 -6.04963e+12 -4.58832e+12 -6.8092e+12 -4.95914e+12 -4.59477e+12 -1.01764e+13 -1.02002e+13 -7.45106e+12 -3.88456e+12 -6.86741e+12 -3.99752e+12 -4.1473e+12 -8.36973e+12 -6.61566e+12 -7.81524e+12 -7.40544e+12 -5.88949e+12 -3.8081e+12 -5.84018e+12 -7.07903e+12 -6.09745e+12 -4.94047e+12 -7.81242e+12 -6.69615e+12 -7.54134e+12 -5.1467e+12 -5.57007e+12 -9.44483e+12 -2.56929e+12 -2.96197e+12 -7.2477e+12 -4.58993e+12 -5.1978e+12 -1.01304e+13 -6.88467e+12 -5.1595e+12 -4.26701e+12 -4.00952e+12 -4.52589e+12 -3.40856e+12 -5.29116e+12 -8.74315e+12 -6.93397e+12 -6.40048e+12 -4.98333e+12 -1.90849e+12 -5.69363e+12 -4.25757e+12 -5.58861e+12 -7.95122e+12 -6.66456e+12 -6.75437e+12 -9.29071e+12 -5.05484e+12 -6.00265e+12 -4.50156e+12 -6.52886e+12 -6.83769e+12 -6.91067e+12 -3.95968e+12 -4.53701e+12 -3.30365e+12 -6.11318e+12 -5.20708e+12 -6.48656e+12 -6.3649e+12 -5.4598e+12 -5.95796e+12 -2.8835e+12 -4.92035e+12 -6.59791e+12 -6.08649e+12 -6.16832e+12 -8.79816e+12 -6.43475e+12 -5.48397e+12 -3.23062e+12 -5.97571e+12 -4.58836e+12 -3.43296e+12 -8.12726e+12 -7.18455e+12 -8.53136e+12 -6.11762e+12 -4.88138e+12 -9.85664e+12 -7.46444e+12 -7.7067e+12 -5.83027e+12 -4.65641e+12 -5.38685e+12 -6.02801e+12 -5.31273e+12 -5.92525e+12 -4.33902e+12 -1.10185e+13 -4.31901e+12 -6.85528e+12 -4.3955e+12 -4.19441e+12 -9.10897e+12 -5.11234e+12 -6.78857e+12 -9.43116e+12 -6.86453e+12 -7.57145e+12 -6.11611e+12 -3.56085e+12 -8.6435e+12 -6.01503e+12 -4.64673e+12 -4.48597e+12 -5.54305e+12 -5.59562e+12 -8.14938e+12 -7.49284e+12 -8.51277e+12 -5.36278e+12 -9.31793e+12 -4.27134e+12 -4.17563e+12 -8.91259e+12 -4.42927e+12 -1.01213e+13 -7.17444e+12 -5.55773e+12 -4.11003e+12 -9.29747e+12 -6.16233e+12 -7.7837e+12 -8.54513e+12 -1.04827e+13 -5.04865e+12 -5.07399e+12 -4.83042e+12 -5.93276e+12 -6.25546e+12 -5.95278e+12 -5.8742e+12 -5.12575e+12 -9.72172e+12 -9.2264e+12 -1.00874e+13 -7.17981e+12 -8.4582e+12 -7.5232e+12 -4.82911e+12 -3.93561e+12 -6.44605e+12 -5.90612e+12 -5.88286e+12 -5.81276e+12 -4.9178e+12 -7.17986e+12 -7.613e+12 -6.12261e+12 -4.19862e+12 -5.29791e+12 -7.7205e+12 -8.05623e+12 -8.7789e+12 -8.60618e+12 -4.84358e+12 -7.29194e+12 -6.80429e+12 -4.95266e+12 -6.81703e+12 -5.45333e+12 -4.77723e+12 -4.71955e+12 -3.80159e+12 -5.90562e+12 -7.37493e+12 -4.31207e+12 -7.03224e+12 -3.756e+12 -6.40753e+12 -3.82134e+12 -3.44192e+12 -7.73423e+12 -4.80971e+12 -1.03393e+13 -8.47319e+12 -8.88883e+12 -9.82897e+12 -6.93554e+12 -5.63518e+12 -8.75439e+12 -1.04556e+13 -3.03792e+12 -6.4205e+12 -3.34632e+12 -6.10729e+12 -4.58776e+12 -6.65684e+12 -5.76877e+12 -8.68837e+12 -6.95244e+12 -7.54518e+12 -8.06774e+12 -4.82002e+12 -5.39035e+12 -6.72891e+12 -6.28533e+12 -8.4212e+12 -4.44836e+12 -5.93028e+12 -5.23592e+12 -6.93247e+12 -9.09795e+12 -5.69841e+12 -6.04781e+12 -1.01607e+13 -6.85727e+12 -5.72149e+12 -3.65067e+12 -3.82058e+12 -4.55702e+12 -5.08916e+12 -3.14624e+12 -6.1116e+12 -4.60062e+12 -3.956e+12 -5.94232e+12 -6.32663e+12 -6.55095e+12 -6.27099e+12 -4.55399e+12 -7.53211e+12 -4.83824e+12 -3.89023e+12 -6.24429e+12 -4.12228e+12 -3.94325e+12 -1.03595e+13 -7.25674e+12 -6.25501e+12 -6.67766e+12 -4.64376e+12 -6.76771e+12 -3.43617e+12 -6.94669e+12 -7.34316e+12 -9.39258e+12 -6.70314e+12 -7.05239e+12 -6.23333e+12 -9.16294e+12 -1.04257e+13 -7.73753e+12 -4.80757e+12 -4.19009e+12 -4.22954e+12 -8.25149e+12 -9.7033e+12 -3.47549e+12 -6.70803e+12 -1.00974e+13 -5.45213e+12 -7.43017e+12 -6.89005e+12 -6.256e+12 -5.58634e+12 -3.93855e+12 -4.34741e+12 -6.15936e+12 -5.20009e+12 -6.8237e+12 -7.07319e+12 -6.49511e+12 -6.61523e+12 -6.95371e+12 -6.72419e+12 -5.97845e+12 -9.18745e+12 -6.43961e+12 -8.17025e+12 -9.67778e+12 -1.22756e+13 -7.25114e+12 -7.74672e+12 -6.35899e+12 -6.68601e+12 -4.93007e+12 -1.05742e+13 -4.78296e+12 -5.22186e+12 -5.69775e+12 -8.55498e+12 -6.24297e+12 -1.22667e+13 -6.10249e+12 -1.12286e+13 -1.31244e+13 -7.53687e+12 -5.01247e+12 -6.92987e+12 -5.05708e+12 -4.5437e+12 -8.70982e+12 -5.42888e+12 -4.42908e+12 -2.62108e+12 -5.25669e+12 -3.58757e+12 -6.03659e+12 -6.08631e+12 -6.16999e+12 -5.13379e+12 -3.67272e+12 -4.48327e+12 -4.49604e+12 -3.77072e+12 -3.9774e+12 -7.58492e+12 -8.25164e+12 -5.74451e+12 -9.03685e+12 -6.92818e+12 -6.65019e+12 -8.14353e+12 -5.33015e+12 -7.14736e+12 -5.53643e+12 -5.20796e+12 -3.95498e+12 -6.52476e+12 -9.90845e+12 -7.65504e+12 -7.86882e+12 -6.78676e+12 -5.58916e+12 -4.66941e+12 -1.21029e+13 -6.074e+12 -8.27596e+12 -5.52235e+12 -8.46811e+12 -7.65713e+12 -9.58933e+12 -5.78364e+12 -3.18511e+12 -5.66452e+12 -5.94169e+12 -8.05088e+12 -5.36342e+12 -3.6384e+12 -3.42114e+12 -5.19255e+12 -3.25043e+12 -6.68501e+12 -6.45698e+12 -4.64805e+12 -2.74051e+12 -4.44565e+12 -3.94089e+12 -6.31471e+12 -3.71113e+12 -5.2864e+12 -3.4896e+12 -4.50543e+12 -6.09763e+12 -3.31233e+12 -6.25304e+12 -6.0921e+12 -6.77241e+12 -5.39932e+12 -5.07714e+12 -5.94622e+12 -3.60893e+12 -4.82845e+12 -5.51959e+12 -7.46845e+12 -3.90036e+12 -4.78287e+12 -6.29355e+12 -2.81363e+12 -5.29266e+12 -4.99082e+12 -5.2834e+12 -3.99551e+12 -4.15512e+12 -5.1586e+12 -6.78799e+12 -6.18135e+12 -5.20071e+12 -7.07227e+12 -5.3535e+12 -3.49464e+12 -6.07635e+12 -4.05146e+12 -8.51755e+12 -9.18192e+12 -5.21767e+12 -4.85767e+12 -3.29897e+12 -2.10247e+12 -4.16791e+12 -7.89777e+12 -6.57619e+12 -4.77684e+12 -6.49756e+12 -6.17736e+12 -8.93528e+12 -5.33084e+12 -4.43661e+12 -3.63657e+12 -6.17178e+12 -1.05368e+13 -5.48558e+12 -5.69102e+12 -8.88914e+12 -8.48719e+12 -4.96011e+12 -6.02545e+12 -7.01454e+12 -6.28031e+12 -6.94686e+12 -5.9024e+12 -8.52072e+12 -7.7697e+12 -8.02312e+12 -7.29018e+12 -6.06611e+12 -2.17117e+12 -8.19253e+12 -4.12805e+12 -1.11381e+13 -6.66086e+12 -4.69628e+12 -6.63501e+12 -9.54737e+12 -1.52901e+13 -8.35953e+12 -1.11199e+13 -8.91554e+12 -6.0479e+12 -5.76155e+12 -6.76913e+12 -9.04029e+12 -5.7008e+12 -4.80166e+12 -3.35735e+12 -3.6969e+12 -4.99906e+12 -5.89403e+12 -7.92584e+12 -4.74135e+12 -7.28373e+12 -6.80546e+12 -9.3947e+12 -1.03868e+13 -7.56183e+12 -7.04338e+12 -6.02222e+12 -6.66813e+12 -5.6809e+12 -8.16038e+12 -6.1741e+12 -4.67073e+12 -5.67458e+12 -5.03322e+12 -5.85926e+12 -4.43993e+12 -5.35662e+12 -6.70852e+12 -5.83133e+12 -8.80292e+12 -7.92305e+12 -3.35248e+12 -9.86673e+12 -6.24975e+12 -4.62967e+12 -3.67795e+12 -7.14609e+12 -1.14473e+13 -8.50232e+12 -6.88485e+12 -8.52885e+12 -6.7979e+12 -7.90277e+12 -9.00992e+12 -3.64804e+12 -4.95762e+12 -5.86385e+12 -9.90816e+12 -4.69393e+12 -3.62377e+12 -3.37804e+12 -4.92977e+12 -5.65886e+12 -8.12553e+12 -6.53525e+12 -5.31395e+12 -4.41985e+12 -4.96764e+12 -6.76685e+12 -7.71704e+12 -7.62939e+12 -6.79575e+12 -4.18881e+12 -6.15222e+12 -7.0243e+12 -3.31792e+12 -4.80701e+12 -7.34217e+12 -4.44138e+12 -5.39562e+12 -2.44993e+12 -4.34271e+12 -5.24069e+12 -2.7334e+12 -5.15464e+12 -5.62549e+12 -4.04675e+12 -3.60035e+12 -6.57236e+12 -3.14909e+12 -5.04605e+12 -5.20472e+12 -5.36629e+12 -4.72984e+12 -5.45049e+12 -4.07798e+12 -4.47645e+12 -3.2033e+12 -4.6041e+12 -5.65037e+12 -5.33569e+12 -3.95053e+12 -5.12818e+12 -2.25633e+12 -4.01654e+12 -3.31474e+12 -5.36272e+12 -9.25745e+12 -6.36512e+12 -6.19969e+12 -9.73264e+12 -8.16798e+12 -5.80636e+12 -8.7624e+12 -7.62271e+12 -6.88577e+12 -6.43226e+12 -5.2143e+12 -4.06148e+12 -7.5865e+12 -6.16008e+12 -6.35412e+12 -8.07749e+12 -6.81211e+12 -7.89831e+12 -6.43612e+12 -2.99059e+12 -7.74981e+12 -6.46908e+12 -4.15965e+12 -4.68556e+12 -6.14646e+12 -7.54745e+12 -4.57615e+12 -4.79509e+12 -5.04877e+12 -6.45839e+12 -5.825e+12 -8.97893e+12 -6.84356e+12 -7.75215e+12 -6.77563e+12 -5.69603e+12 -6.7569e+12 -9.47865e+12 -6.32345e+12 -6.22385e+12 -8.20665e+12 -8.32069e+12 -6.40318e+12 -4.08587e+12 -7.23125e+12 -3.7274e+12 -1.02862e+13 -5.83892e+12 -7.69545e+12 -8.07734e+12 -7.65363e+12 -1.25411e+13 -6.30866e+12 -6.17636e+12 -5.06356e+12 -3.40258e+12 -6.98668e+12 -8.6234e+12 -4.65967e+12 -5.69253e+12 -6.94645e+12 -5.27297e+12 -5.92232e+12 -6.60427e+12 -5.24845e+12 -5.78472e+12 -9.02157e+12 -8.79516e+12 -7.5189e+12 -5.92758e+12 -5.082e+12 -4.90228e+12 -8.02217e+12 -8.23098e+12 -6.9909e+12 -3.11764e+12 -5.08354e+12 -6.4184e+12 -4.3447e+12 -5.16703e+12 -3.88507e+12 -1.01041e+13 -2.57257e+12 -3.10062e+12 -4.2879e+12 -5.21672e+12 -7.00657e+12 -7.29009e+12 -1.14406e+13 -4.70962e+12 -7.76971e+12 -7.13937e+12 -7.32862e+12 -4.87534e+12 -5.19985e+12 -5.34844e+12 -6.07213e+12 -6.839e+12 -5.61504e+12 -7.31903e+12 -7.31598e+12 -7.0552e+12 -8.46652e+12 -6.79723e+12 -4.36461e+12 -7.7696e+12 -6.56598e+12 -6.26226e+12 -3.22035e+12 -6.48111e+12 -4.13101e+12 -5.94046e+12 -2.47439e+12 -5.44885e+12 -5.42167e+12 -4.40679e+12 -2.78124e+12 -2.9727e+12 -2.25018e+12 -4.96687e+12 -5.00344e+12 -6.43107e+12 -3.97274e+12 -3.5275e+12 -5.66053e+12 -4.65681e+12 -4.02412e+12 -5.64519e+12 -3.96901e+12 -3.49364e+12 -6.14258e+12 -5.1974e+12 -3.214e+12 -5.45407e+12 -3.07924e+12 -4.67378e+12 -8.10337e+12 -5.69174e+12 -6.54327e+12 -4.86729e+12 -4.84921e+12 -4.3262e+12 -2.66328e+12 -3.96702e+12 -3.07259e+12 -4.9608e+12 -6.02409e+12 -6.70407e+12 -2.48597e+12 -6.24255e+12 -5.01885e+12 -4.28582e+12 -3.8348e+12 -9.36419e+12 -6.87003e+12 -7.19304e+12 -5.10739e+12 -6.6267e+12 -7.05556e+12 -6.23623e+12 -4.20031e+12 -7.99002e+12 -8.70434e+12 -5.34988e+12 -4.55096e+12 -8.84511e+12 -6.01185e+12 -5.47243e+12 -4.46557e+12 -6.24582e+12 -4.54523e+12 -8.33452e+12 -6.28031e+12 -7.87736e+12 -6.71835e+12 -6.52334e+12 -804763000000.0 -7.35432e+12 -8.58035e+12 -6.04016e+12 -5.95559e+12 -7.6064e+12 -6.12665e+12 -7.6647e+12 -7.63089e+12 -1.16061e+13 -7.55021e+12 -5.86915e+12 -7.68814e+12 -6.20208e+12 -8.11349e+12 -9.00882e+12 -5.96995e+12 -6.74412e+12 -2.77849e+12 -4.19252e+12 -6.98511e+12 -2.63715e+12 -3.28323e+12 -4.70108e+12 -3.52812e+12 -4.47957e+12 -1.02247e+13 -4.39841e+12 -5.86832e+12 -5.11239e+12 -8.61188e+12 -6.94573e+12 -9.33091e+12 -1.01855e+13 -4.52571e+12 -3.05289e+12 -7.487e+12 -7.97746e+12 -3.80392e+12 -4.46533e+12 -5.11565e+12 -4.99398e+12 -5.47177e+12 -5.52146e+12 -4.23438e+12 -4.90433e+12 -4.88161e+12 -7.53162e+12 -7.0184e+12 -3.83097e+12 -5.41129e+12 -5.96705e+12 -4.86369e+12 -5.96669e+12 -7.494e+12 -4.42815e+12 -6.45222e+12 -5.50626e+12 -5.66376e+12 -6.40994e+12 -6.46114e+12 -6.31151e+12 -2.4436e+12 -5.61315e+12 -2.55241e+12 -5.51541e+12 -7.48752e+12 -5.97713e+12 -7.36614e+12 -4.06879e+12 -4.12518e+12 -3.94471e+12 -4.68836e+12 -4.2024e+12 -2.77756e+12 -3.73866e+12 -7.09282e+12 -4.23288e+12 -3.19753e+12 -4.94039e+12 -4.07719e+12 -5.31716e+12 -2.97257e+12 -2.71639e+12 -2.68271e+12 -4.52215e+12 -4.39926e+12 -4.76259e+12 -4.29265e+12 -3.26727e+12 -4.16213e+12 -4.42747e+12 -3.92941e+12 -6.07662e+12 -3.6774e+12 -8.60961e+12 -5.63514e+12 -4.62975e+12 -1.86511e+12 -4.78645e+12 -3.20947e+12 -5.78972e+12 -4.2226e+12 -6.67317e+12 -5.76221e+12 -3.88918e+12 -3.14537e+12 -3.9487e+12 -4.67412e+12 -3.27422e+12 -3.68125e+12 -7.88042e+12 -5.32909e+12 -4.87267e+12 -2.11008e+12 -4.71216e+12 -3.02266e+12 -4.47207e+12 -4.03272e+12 -3.53586e+12 -4.89235e+12 -5.25913e+12 -3.99354e+12 -5.87643e+12 -8.87849e+12 -6.10513e+12 -8.12776e+12 -9.21587e+12 -7.06783e+12 -4.11505e+12 -5.37389e+12 -7.6842e+12 -6.59566e+12 -5.97727e+12 -7.3472e+12 -7.72931e+12 -7.476e+12 -9.30076e+12 -5.76608e+12 -4.10186e+12 -7.49075e+12 -3.40796e+12 -6.25772e+12 -5.22065e+12 -5.34399e+12 -5.34495e+12 -6.04146e+12 -8.54099e+12 -7.29431e+12 -6.64479e+12 -5.72863e+12 -4.41962e+12 -7.31321e+12 -6.86108e+12 -6.05828e+12 -9.58906e+12 -1.11187e+13 -6.58331e+12 -6.29532e+12 -4.51429e+12 -6.15083e+12 -9.42555e+12 -5.9558e+12 -8.63862e+12 -2.29366e+12 -5.19655e+12 -3.11194e+12 -1.80452e+12 -7.52498e+12 -4.41324e+12 -5.18823e+12 -3.59082e+12 -2.91551e+12 -1.05063e+13 -5.55182e+12 -3.83101e+12 -6.84571e+12 -5.59352e+12 -4.31935e+12 -6.00665e+12 -5.43174e+12 -4.00566e+12 -8.53906e+12 -4.30909e+12 -7.40674e+12 -4.5571e+12 -5.78916e+12 -4.74482e+12 -6.10514e+12 -7.04514e+12 -5.73597e+12 -4.88516e+12 -4.20446e+12 -6.4441e+12 -6.95888e+12 -6.95114e+12 -1.01266e+13 -4.78757e+12 -5.31397e+12 -6.15762e+12 -5.64349e+12 -8.02026e+12 -7.59838e+12 -5.88554e+12 -5.05229e+12 -5.97675e+12 -7.67366e+12 -7.11518e+12 -4.18138e+12 -4.92879e+12 -6.69058e+12 -4.81623e+12 -3.62571e+12 -5.16942e+12 -4.31733e+12 -4.68148e+12 -7.28764e+12 -3.79106e+12 -5.22471e+12 -5.00091e+12 -4.11334e+12 -4.35433e+12 -5.2623e+12 -4.98206e+12 -2.27822e+12 -3.91358e+12 -3.55761e+12 -2.53065e+12 -4.36651e+12 -5.43121e+12 -3.19912e+12 -2.58138e+12 -1.99007e+12 -3.41144e+12 -2.70243e+12 -3.08862e+12 -4.48685e+12 -2.32363e+12 -3.13868e+12 -2.70134e+12 -5.32096e+12 -4.57122e+12 -2.01339e+12 -4.04082e+12 -5.61022e+12 -3.7587e+12 -1.77208e+12 -6.88086e+12 -1.96442e+12 -7.2319e+12 -3.28668e+12 -3.71127e+12 -3.24297e+12 -4.07038e+12 -4.88427e+12 -1.91472e+12 -3.53893e+12 -3.3069e+12 -1.14115e+12 -4.04973e+12 -6.57436e+12 -5.37454e+12 -3.19675e+12 -3.87687e+12 -3.18891e+12 -2.38079e+12 -6.0426e+12 -5.35373e+12 -3.65426e+12 -4.71992e+12 -6.29125e+12 -4.73934e+12 -5.98093e+12 -2.48351e+12 -6.08533e+12 -3.35678e+12 -4.84198e+12 -2.99023e+12 -3.28454e+12 -3.19222e+12 -7.74181e+12 -7.18135e+12 -3.11897e+12 -4.25008e+12 -6.86872e+12 -7.42975e+12 -4.12546e+12 -5.68388e+12 -4.90601e+12 -5.39664e+12 -6.5323e+12 -5.7027e+12 -5.88129e+12 -7.74154e+12 -7.70037e+12 -5.39106e+12 -4.5816e+12 -3.43353e+12 -5.83134e+12 -7.14019e+12 -6.15317e+12 -8.98613e+12 -7.68904e+12 -5.19481e+12 -3.72787e+12 -3.65323e+12 -4.9609e+12 -6.8441e+12 -4.65796e+12 -5.20054e+12 -2.74123e+12 -5.23533e+12 -7.93376e+12 -5.64112e+12 -4.12969e+12 -5.03716e+12 -6.09047e+12 -7.27265e+12 -5.0139e+12 -2.61995e+12 -3.98916e+12 -3.01318e+12 -6.36557e+12 -5.18555e+12 -6.15354e+12 -6.03752e+12 -6.92399e+12 -4.78856e+12 -4.52584e+12 -4.10811e+12 -6.64917e+12 -4.67239e+12 -4.40774e+12 -4.72628e+12 -3.41272e+12 -4.78881e+12 -5.69504e+12 -4.82348e+12 -3.57121e+12 -2.16728e+12 -3.70599e+12 -1.98969e+12 -4.90974e+12 -4.05224e+12 -6.80007e+12 -5.07716e+12 -5.42094e+12 -4.10326e+12 -5.53103e+12 -6.01477e+12 -3.67461e+12 -4.47342e+12 -3.69562e+12 -4.52566e+12 -4.63043e+12 -7.25373e+12 -5.00576e+12 -5.97677e+12 -7.31339e+12 -7.44484e+12 -6.80111e+12 -3.87339e+12 -7.5064e+12 -2.32522e+12 -3.90292e+12 -1.7718e+12 -5.61122e+12 -3.8105e+12 -4.57245e+12 -2.74841e+12 -5.71459e+12 -5.8129e+12 -2.94012e+12 -3.37654e+12 -4.71173e+12 -5.19369e+12 -5.65906e+12 -5.18607e+12 -1.92474e+12 -2.9534e+12 -3.39444e+12 -5.44256e+12 -5.6475e+12 -4.03716e+12 -4.0848e+12 -3.57824e+12 -2.09868e+12 -3.01743e+12 -3.84728e+12 -2.7826e+12 -5.92352e+12 -4.63679e+12 -2.83833e+12 -2.81516e+12 -3.01682e+12 -2.58884e+12 -3.5496e+12 -4.02577e+12 -2.83062e+12 -3.55917e+12 -3.09526e+12 -1.66439e+12 -2.09981e+12 -3.61696e+12 -3.35627e+12 -3.78619e+12 -4.66525e+12 -3.14272e+12 -5.4839e+12 -4.70064e+12 -3.57016e+12 -3.92923e+12 -3.58959e+12 -3.39228e+12 -4.03949e+12 -4.48181e+12 -4.06893e+12 -3.92247e+12 -4.03447e+12 -3.15551e+12 -2.58518e+12 -5.53311e+12 -7.71049e+12 -3.00377e+12 -2.16348e+12 -1.95624e+12 -3.52301e+12 -2.74566e+12 -8.00905e+12 -7.74894e+12 -2.38869e+12 -3.92436e+12 -3.94479e+12 -3.8177e+12 -5.70395e+12 -6.20496e+12 -5.6439e+12 -4.6397e+12 -4.55338e+12 -2.21629e+12 -4.35178e+12 -3.0175e+12 -1.45189e+12 -4.759e+12 -4.04194e+12 -5.32724e+12 -4.7844e+12 -7.76241e+12 -4.9597e+12 -6.06759e+12 -2.9986e+12 -3.27968e+12 -4.40953e+12 -3.51633e+12 -5.14598e+12 -4.80832e+12 -8.01719e+12 -6.42964e+12 -6.75609e+12 -6.18785e+12 -5.3084e+12 -4.32699e+12 -4.63631e+12 -4.19577e+12 -8.58184e+12 -3.4971e+12 -4.32388e+12 -4.38387e+12 -2.05851e+12 -2.93169e+12 -2.63103e+12 -3.99156e+12 -4.78542e+12 -7.43247e+12 -6.96236e+12 -7.52958e+12 -8.30657e+12 -4.45018e+12 -4.3738e+12 -6.54212e+12 -7.83988e+12 -4.69367e+12 -3.69215e+12 -4.10481e+12 -5.57755e+12 -4.71295e+12 -4.71141e+12 -5.8352e+12 -4.23279e+12 -1.76934e+12 -4.06948e+12 -6.70391e+12 -4.96817e+12 -4.25577e+12 -2.19393e+12 -4.34412e+12 -5.27789e+12 -4.98566e+12 -3.52396e+12 -5.62501e+12 -2.85235e+12 -4.32527e+12 -3.98602e+12 -4.46782e+12 -5.69716e+12 -3.36675e+12 -5.39016e+12 -4.4899e+12 -5.99911e+12 -5.08805e+12 -3.14994e+12 -3.82754e+12 -5.88957e+12 -6.55379e+12 -5.5964e+12 -3.71396e+12 -5.14759e+12 -4.65054e+12 -6.00595e+12 -3.15279e+12 -4.8705e+12 -4.83225e+12 -3.05934e+12 -4.7444e+12 -2.58117e+12 -2.51145e+12 -4.52156e+12 -4.96012e+12 -4.85602e+12 -3.8011e+12 -3.48602e+12 -1.5622e+12 -3.65047e+12 -2.84984e+12 -2.37269e+12 -2.99389e+12 -3.43926e+12 -1.81521e+12 -3.65128e+12 -1.91357e+12 -4.87895e+12 -4.43338e+12 -3.33825e+12 -2.41453e+12 -1.73367e+12 -3.15622e+12 -3.37919e+12 -2.92227e+12 -2.13833e+12 -4.28929e+12 -3.24988e+12 -2.40044e+12 -2.34371e+12 -3.30804e+12 -3.58652e+12 -3.97248e+12 -3.59657e+12 -2.44989e+12 -2.95575e+12 -2.30715e+12 -2.69178e+12 -3.34739e+12 -4.09544e+12 -5.36923e+12 -4.55097e+12 -2.56693e+12 -3.64248e+12 -3.77154e+12 -3.6486e+12 -4.50817e+12 -2.43095e+12 -4.99976e+12 -4.13408e+12 -4.09189e+12 -3.33268e+12 -6.19168e+12 -2.15546e+12 -3.56151e+12 -3.07346e+12 -3.61489e+12 -2.76831e+12 -3.23013e+12 -4.95851e+12 -4.17616e+12 -5.81686e+12 -6.33477e+12 -6.96477e+12 -5.61996e+12 -5.28271e+12 -5.43546e+12 -5.2426e+12 -3.07441e+12 -7.03863e+12 -5.93677e+12 -7.09075e+12 -8.20928e+12 -4.66669e+12 -5.80219e+12 -3.68087e+12 -3.78479e+12 -6.7369e+12 -5.68908e+12 -5.68503e+12 -6.04938e+12 -8.0854e+12 -5.05467e+12 -3.90468e+12 -4.3133e+12 -5.15787e+12 -7.35047e+12 -7.69402e+12 -6.20901e+12 -5.60252e+12 -6.67276e+12 -5.62949e+12 -3.68283e+12 -2.99956e+12 -6.79605e+12 -6.55971e+12 -4.2138e+12 -3.1137e+12 -7.00769e+12 -4.37455e+12 -5.94493e+12 -5.08919e+12 -6.17626e+12 -3.82019e+12 -4.13178e+12 -4.29625e+12 -5.31558e+12 -8.41067e+12 -5.05805e+12 -4.46356e+12 -5.76156e+12 -3.83454e+12 -4.1922e+12 -6.96422e+12 -5.11139e+12 -5.00281e+12 -3.13158e+12 -5.22344e+12 -1.40375e+12 -4.70986e+12 -2.90939e+12 -5.04882e+12 -5.90067e+12 -4.34066e+12 -3.59247e+12 -4.41735e+12 -1.82638e+12 -4.32135e+12 -4.29958e+12 -6.48718e+12 -4.62894e+12 -2.71522e+12 -6.0246e+12 -1.66668e+12 -2.93767e+12 -3.17852e+12 -5.96646e+12 -5.95423e+12 -2.84232e+12 -6.27634e+12 -4.92377e+12 -2.96251e+12 -1.20025e+12 -3.63286e+12 -3.46813e+12 -2.5472e+12 -3.22323e+12 -4.39239e+12 -3.18023e+12 -2.97142e+12 -3.58762e+12 -3.32659e+12 -2.91742e+12 -2.80995e+12 -1.62338e+12 -4.30896e+12 -2.56805e+12 -3.67525e+12 -3.75573e+12 -4.45377e+12 -1.35029e+12 -3.05445e+12 -2.22753e+12 -2.40589e+12 -3.02265e+12 -4.06031e+12 -1.72362e+12 -3.22606e+12 -2.5861e+12 -3.89924e+12 -2.55982e+12 -4.16376e+12 -2.24604e+12 -2.1855e+12 -1.77858e+12 -2.84334e+12 -2.75597e+12 -2.64138e+12 -2.01346e+12 -4.41645e+12 -4.05109e+12 -2.90689e+12 -3.39516e+12 -3.46321e+12 -3.67095e+12 -4.94366e+12 -3.31942e+12 -6.3475e+12 -5.08211e+12 -2.07984e+12 -4.2159e+12 -2.12565e+12 -3.32769e+12 -4.79067e+12 -3.50112e+12 -4.26862e+12 -4.46276e+12 -3.53378e+12 -1.37635e+12 -2.53401e+12 -2.42978e+12 -4.56974e+12 -5.49961e+12 -4.56034e+12 -5.52128e+12 -2.16509e+12 -3.26396e+12 -2.54667e+12 -1.55546e+12 -2.43661e+12 -4.50233e+12 -4.88713e+12 -2.97943e+12 -4.60922e+12 -5.59253e+12 -4.8019e+12 -5.75825e+12 -5.01906e+12 -5.44253e+12 -7.31263e+12 -3.31099e+12 -3.51981e+12 -2.67197e+12 -3.53353e+12 -5.9481e+12 -4.76775e+12 -4.59644e+12 -6.1722e+12 -4.94786e+12 -3.99985e+12 -5.03952e+12 -4.23167e+12 -5.86759e+12 -6.61051e+12 -7.39159e+12 -4.71273e+12 -4.87888e+12 -6.78365e+12 -3.15585e+12 -3.88987e+12 -3.62763e+12 -2.74163e+12 -1.51887e+12 -4.9515e+12 -3.80674e+12 -3.66376e+12 -3.10156e+12 -3.9647e+12 -2.81628e+12 -6.08564e+12 -5.36945e+12 -6.07048e+12 -4.15095e+12 -4.12954e+12 -4.89828e+12 -1.68185e+12 -3.13806e+12 -3.66854e+12 -3.49472e+12 -4.66379e+12 -7.63513e+12 -3.96322e+12 -3.33354e+12 -4.96041e+12 -3.55978e+12 -4.18015e+12 -3.52096e+12 -4.51851e+12 -4.20995e+12 -3.57458e+12 -4.07542e+12 -4.64454e+12 -3.81601e+12 -3.51008e+12 -4.14892e+12 -1.60518e+12 -2.36259e+12 -3.0657e+12 -4.15855e+12 -1.80957e+12 -1.28857e+12 -2.18012e+12 -2.4061e+12 -3.49856e+12 -1.23973e+12 -2.33501e+12 -2.17601e+12 -1.41362e+12 -1.75994e+12 -1.60962e+12 -3.08864e+12 -3.28137e+12 -3.05305e+12 -1.64513e+12 -650592000000.0 -2.78186e+12 -1.68087e+12 -2.24923e+12 -2.97729e+12 -1.42103e+12 -2.16988e+12 -553567000000.0 -827588000000.0 -2.59914e+12 -3.95506e+12 -1.82068e+12 -973395000000.0 -2.50049e+12 -958266000000.0 -2.65572e+12 -1.71364e+12 -1.19595e+12 -2.80775e+12 -3.66343e+12 -2.3106e+12 -1.41268e+12 -3.22883e+12 -2.06792e+12 -3.73224e+12 -2.39643e+12 -2.41936e+12 -4.14296e+12 -2.50229e+12 -3.02329e+12 -1.57291e+12 -1.91913e+12 -2.68476e+12 -3.42507e+12 -3.55242e+12 -3.03083e+12 -1.3071e+12 -3.56029e+12 -2.11781e+12 -5.02062e+12 -5.38641e+12 -2.95584e+12 -2.42499e+12 -3.15439e+12 -2.02129e+12 -2.33987e+12 -1.80114e+12 -2.78809e+12 -2.22933e+12 -3.4539e+12 -3.0668e+12 -4.01861e+12 -4.89616e+12 -1.57755e+12 -2.40732e+12 -4.54011e+12 -4.60402e+12 -4.97233e+12 -2.23824e+12 -4.32702e+12 -4.63921e+12 -5.48617e+12 -3.74038e+12 -4.60586e+12 -4.63327e+12 -3.18706e+12 -3.16062e+12 -2.97762e+12 -4.29976e+12 -3.19256e+12 -3.57233e+12 -4.89026e+12 -5.76609e+12 -3.01287e+12 -3.42059e+12 -6.73534e+12 -3.29531e+12 -4.10182e+12 -3.3884e+12 -7.301e+12 -5.05984e+12 -6.538e+12 -3.86759e+12 -4.57058e+12 -4.49188e+12 -2.91917e+12 -7.86253e+12 -3.10789e+12 -5.18702e+12 -3.71277e+12 -4.1013e+12 -4.80014e+12 -6.44407e+12 -2.8029e+12 -4.5131e+12 -2.72818e+12 -2.48192e+12 -3.47246e+12 -3.12138e+12 -2.32177e+12 -4.97517e+12 -4.33329e+12 -3.2775e+12 -2.14819e+12 -3.00785e+12 -4.14199e+12 -3.30884e+12 -4.49162e+12 -2.75591e+12 -2.53849e+12 -2.70531e+12 -2.86701e+12 -1.76509e+12 -2.40777e+12 -3.42246e+12 -2.48552e+12 -1.67358e+12 -1.95485e+12 -3.17055e+12 -2.26907e+12 -2.27886e+12 -2.26531e+12 -1.88919e+12 -2.12425e+12 -1.05825e+12 -1.08224e+12 -2.15308e+12 -754311000000.0 -1.91562e+12 -1.67233e+12 -1.99832e+12 -40195100000.0 -1.07873e+12 -1.60266e+12 -2.03308e+12 -1.20871e+12 -1.40798e+12 -1.48876e+12 -1.24895e+12 -1.37163e+12 -2.55888e+12 -1.20816e+12 -611721000000.0 -1.57538e+12 -1.95668e+12 -1.40601e+12 -1.42821e+12 -1.72907e+12 -784270000000.0 -1.89953e+12 -3.13826e+12 -2.49132e+12 -3.19896e+12 -1.56566e+12 -1.40446e+12 -1.9132e+12 -1.90565e+12 -1.48867e+12 -2.23583e+12 -2.03286e+12 -2.47953e+12 -3.32951e+12 -2.75371e+12 -2.68889e+12 -3.07426e+12 -3.96924e+12 -1.83105e+12 -2.55608e+12 -2.32017e+12 -2.77153e+12 -3.04577e+12 -2.24873e+12 -2.39254e+12 -2.31126e+12 -2.46027e+12 -2.12383e+12 -3.37232e+12 -3.86811e+12 -2.74119e+12 -709970000000.0 -1.69907e+12 -4.1192e+12 -3.14924e+12 -1.02308e+12 -3.36653e+12 -3.42399e+12 -1.88647e+12 -2.90251e+12 -5.61738e+12 -2.10947e+12 -3.26727e+12 -4.03299e+12 -4.35334e+12 -4.23168e+12 -4.23446e+12 -3.20113e+12 -3.41441e+12 -1.79136e+12 -2.46741e+12 -3.25806e+12 -3.17008e+12 -4.10342e+12 -5.66023e+12 -5.35679e+12 -4.60338e+12 -2.24397e+12 -2.8429e+12 -2.1706e+12 -5.35256e+12 -4.82258e+12 -1.97214e+12 -1.93954e+12 -5.10041e+12 -4.44968e+12 -3.98913e+12 -4.07014e+12 -1.7537e+12 -1.81384e+12 -1.83229e+12 -2.82992e+12 -3.9118e+12 -4.33488e+12 -3.26212e+12 -5.04706e+12 -3.40845e+12 -2.40355e+12 -118086000000.0 -3.14733e+12 -4.76132e+12 -2.2852e+12 -2.73476e+12 -3.18778e+12 -2.5114e+12 -2.24363e+12 -3.6463e+12 -5.10965e+12 -1.73514e+12 -1.90207e+12 -2.73332e+12 -2.05016e+12 -3.08261e+12 -2.34431e+12 -1.28693e+12 -1.97656e+12 -3.36832e+12 -2.53677e+12 -2.34498e+12 -880793000000.0 -1.88673e+12 -2.09103e+12 -4.31748e+12 -2.70774e+12 -2.28336e+12 -1.87181e+12 -2.73683e+12 -2.99691e+12 -1.60849e+12 -2.12998e+12 -1.42926e+12 -2.26724e+12 -1.17291e+12 -1.1496e+12 -840094000000.0 -1.08777e+12 -917145000000.0 -1.02726e+12 -859452000000.0 -1.406e+12 -1.03872e+12 -723990000000.0 -1.27054e+12 -1.1148e+12 -740838000000.0 -796387000000.0 -1.4838e+12 -1.10653e+12 -624988000000.0 -1.02319e+12 -425557000000.0 -1.3316e+12 -784243000000.0 -961219000000.0 -1.12868e+12 -2.30565e+12 -2.95629e+12 -764515000000.0 -513035000000.0 -2.04244e+12 -1.28035e+12 -1.55426e+12 -1.5771e+12 -1.57992e+12 -1.68501e+12 -1.4313e+12 -1.78479e+12 -2.05798e+12 -3.24817e+12 -2.05132e+12 -1.34793e+12 -1.8859e+12 -2.89e+12 -1.46407e+12 -1.44262e+12 -1.75313e+12 -1.71633e+12 -3.04918e+12 -1.66236e+12 -1.87315e+12 -2.74189e+12 -3.90257e+12 -4.7285e+12 -2.82468e+12 -1.14866e+12 -3.26782e+12 -4.2695e+12 -2.51756e+12 -4.0889e+12 -2.08511e+12 -2.37179e+12 -3.50085e+12 -2.74524e+12 -3.37474e+12 -1.70236e+12 -1.48037e+12 -3.77366e+12 -2.15634e+12 -3.76697e+12 -2.53863e+12 -2.7277e+12 -3.56503e+12 -3.75087e+12 -3.19389e+12 -2.57492e+12 -5.15966e+12 -1.30527e+12 -3.8755e+12 -3.52975e+12 -3.8451e+12 -1.82209e+12 -4.01223e+12 -2.50518e+12 -2.57795e+12 -5.10946e+12 -2.89638e+12 -2.32798e+12 -2.83794e+12 -2.08816e+12 -5.18365e+12 -2.44549e+12 -965773000000.0 -1.76013e+12 -989177000000.0 -2.72546e+12 -2.44726e+12 -2.76051e+12 -3.0784e+12 -2.72333e+12 -3.6468e+12 -1.40449e+12 -3.13298e+12 -3.07717e+12 -3.30323e+12 -2.02849e+12 -2.35393e+12 -2.59177e+12 -3.00719e+12 -2.53858e+12 -1.57558e+12 -2.07833e+12 -3.40769e+12 -1.44413e+12 -2.50783e+12 -2.1897e+12 -1.25329e+12 -1.95727e+12 -1.92096e+12 -1.84449e+12 -1.58732e+12 -266307000000.0 -2.65887e+12 -1.46476e+12 -1.58865e+12 -889464000000.0 -869424000000.0 -1.3616e+12 -2.28464e+12 -1.19017e+12 -884408000000.0 -1.72997e+12 -830942000000.0 -1.09013e+12 -1.29322e+12 -1.25849e+12 -613956000000.0 -815415000000.0 -416254000000.0 -615728000000.0 -92454000000.0 -584404000000.0 -411968000000.0 -614797000000.0 -776258000000.0 -258562000000.0 -776933000000.0 -512690000000.0 -345568000000.0 -807133000000.0 -300396000000.0 -571705000000.0 -409155000000.0 -1.15541e+12 -936432000000.0 -1.12132e+12 -1.408e+12 -1.04836e+12 -1.50785e+12 -1.04424e+12 -315527000000.0 -1.67974e+12 -1.13091e+12 -1.35911e+12 -1.12736e+12 -3.28044e+12 -1.71884e+12 -1.99963e+12 -1.21346e+12 -2.02747e+12 -1.57934e+12 -1.87426e+12 -1.67671e+12 -1.56051e+12 -1.81722e+12 -3.66869e+12 -2.6845e+12 -3.06512e+12 -2.38735e+12 -1.68019e+12 -3.67531e+12 -1.4424e+12 -1.88781e+12 -3.46569e+12 -2.18258e+12 -3.32295e+12 -1.16792e+12 -2.35545e+12 -2.44891e+12 -3.17811e+12 -2.87101e+12 -2.90921e+12 -2.06529e+12 -1.47814e+12 -2.17267e+12 -2.52537e+12 -4.33906e+12 -2.56043e+12 -2.51589e+12 -3.36437e+12 -1.15317e+12 -1.73507e+12 -2.0957e+12 -1.63547e+12 -2.87797e+12 -2.24472e+12 -1.74299e+12 -1.34442e+12 -1.32266e+12 -2.27217e+12 -928223000000.0 -1.41433e+12 -3.3889e+12 -1.97038e+12 -1.90562e+12 -1.66031e+12 -1.15859e+12 -1.85551e+12 -1.40373e+12 -4.58997e+12 -2.09934e+12 -2.603e+12 -2.55497e+12 -779299000000.0 -3.72171e+12 -1.09083e+12 -1.84026e+12 -1.04058e+12 -989605000000.0 -1.80453e+12 -1.68441e+12 -1.21634e+12 -1.63267e+12 -664039000000.0 -2.14639e+12 -1.20199e+12 -1.58917e+12 -2.40896e+12 -744527000000.0 -1.16197e+12 -899047000000.0 -464539000000.0 -550051000000.0 -996916000000.0 -1.0199e+12 -231129000000.0 -446821000000.0 -446862000000.0 -150362000000.0 -372608000000.0 -262697000000.0 -296709000000.0 -249998000000.0 -230689000000.0 -242137000000.0 -85799500000.0 -482552000000.0 -205234000000.0 -301124000000.0 -510758000000.0 -667441000000.0 -682013000000.0 -1.70529e+12 -1.39772e+12 -574232000000.0 -1.10627e+12 -2.06714e+12 -957693000000.0 -1.89402e+12 -1.41593e+12 -1.17034e+12 -1.12289e+12 -1.24061e+12 -1.33981e+12 -1.09651e+12 -1.28743e+12 -1.53615e+12 -2.68551e+12 -2.51242e+12 -1.3982e+12 -1.27604e+12 -1.96164e+12 -1.58697e+12 -1.13333e+12 -2.61707e+12 -4.45184e+12 -3.11247e+12 -2.58612e+12 -2.40704e+12 -1.92232e+12 -1.48994e+12 -2.45561e+12 -3.82142e+12 -1.13031e+12 -2.14206e+12 -1.27867e+12 -987641000000.0 -1.46898e+12 -1.27835e+12 -1.40605e+12 -2.31509e+12 -1.45727e+12 -1.64164e+12 -1.30144e+12 -1.57089e+12 -891678000000.0 -1.27814e+12 -2.27843e+12 -2.44069e+12 -1.83662e+12 -916160000000.0 -1.96468e+12 -1.18767e+12 -1.17166e+12 -1.65799e+12 -432166000000.0 -1.51304e+12 -1.88309e+12 -1.29149e+12 -1.82826e+12 -1.06555e+12 -1.48771e+12 -655486000000.0 -1.75986e+12 -1.15353e+12 -1.02338e+12 -913180000000.0 -939206000000.0 -874407000000.0 -1.14528e+12 -444358000000.0 -767545000000.0 -195274000000.0 -686971000000.0 -160893000000.0 -711017000000.0 -484735000000.0 -207255000000.0 -451172000000.0 -136942000000.0 -227590000000.0 -202462000000.0 -200395000000.0 -202321000000.0 -355880000000.0 -195875000000.0 -101673000000.0 -280395000000.0 -120513000000.0 -542784000000.0 -354554000000.0 -475362000000.0 -1.49305e+12 -941066000000.0 -1.80726e+12 -730716000000.0 -1.39435e+12 -337061000000.0 -922866000000.0 -1.06569e+12 -921370000000.0 -1.3412e+12 -1.39555e+12 -1.23348e+12 -1.91757e+12 -1.30726e+12 -1.55345e+12 -1.86137e+12 -2.46704e+12 -1.73399e+12 -1.81657e+12 -944830000000.0 -1.65005e+12 -2.02571e+12 -1.62191e+12 -2.13102e+12 -2.22987e+12 -1.35667e+12 -1.73508e+12 -1.21497e+12 -2.2981e+12 -1.99715e+12 -2.6891e+12 -879635000000.0 -824682000000.0 -1.7482e+12 -716770000000.0 -1.1765e+12 -701546000000.0 -1.04676e+12 -328803000000.0 -587521000000.0 -786971000000.0 -2.04224e+12 -1.21331e+12 -1.49905e+12 -443468000000.0 -1.58648e+12 -1.71771e+12 -880687000000.0 -675449000000.0 -1.34576e+12 -1.00025e+12 -735610000000.0 -706741000000.0 -592177000000.0 -728927000000.0 -1.08793e+12 -539919000000.0 -565589000000.0 -369467000000.0 -520296000000.0 -1.12124e+12 -463169000000.0 -1.04561e+12 -306978000000.0 -320725000000.0 -442843000000.0 -229062000000.0 -134068000000.0 -93539100000.0 -186984000000.0 -274344000000.0 -192194000000.0 -92206900000.0 -141759000000.0 -314823000000.0 -349520000000.0 -298958000000.0 -688333000000.0 -214492000000.0 -850360000000.0 -195021000000.0 -478767000000.0 -668649000000.0 -624014000000.0 -427310000000.0 -662189000000.0 -1.29401e+12 -785705000000.0 -778000000000.0 -714505000000.0 -810814000000.0 -1.05032e+12 -561420000000.0 -675883000000.0 -1.2146e+12 -1.61561e+12 -1.47906e+12 -1.61673e+12 -481279000000.0 -1.15415e+12 -777312000000.0 -877364000000.0 -737379000000.0 -33085300000.0 -778033000000.0 -630398000000.0 -954283000000.0 -703459000000.0 -446595000000.0 -824257000000.0 -537453000000.0 -620010000000.0 -83684700000.0 -1.09593e+12 -646495000000.0 -368870000000.0 -328601000000.0 -217290000000.0 -216317000000.0 -67904000000.0 -205841000000.0 -264345000000.0 -232385000000.0 -189460000000.0 -239002000000.0 -213444000000.0 -222315000000.0 -516777000000.0 -255996000000.0 -276269000000.0 -957780000000.0 -121363000000.0 -256825000000.0 -240773000000.0 -540646000000.0 -332589000000.0 -1.05545e+12 -341015000000.0 -365806000000.0 -334210000000.0 -882934000000.0 -1.24075e+12 -272273000000.0 -80720400000.0 -116637000000.0 -50179700000.0 -510575000000.0 -381000000000.0 -311509000000.0 -167069000000.0 -108976000000.0 