# vtk DataFile Version 2.0
Time step 79
ASCII
DATASET UNSTRUCTURED_GRID
POINTS 4650 float
205398.0 322814.0 0
208728.0 320634.0 0
212156.0 322660.0 0
215432.0 320406.0 0
219111.0 321926.0 0
236747.0 322651.0 0
243779.0 322477.0 0
248030.0 320512.0 0
251980.0 321085.0 0
257718.0 322367.0 0
263845.0 321438.0 0
277329.0 321935.0 0
284022.0 322235.0 0
290949.0 322242.0 0
294538.0 320498.0 0
298001.0 322482.0 0
201997.0 324838.0 0
208839.0 324809.0 0
215682.0 324470.0 0
222820.0 323383.0 0
226407.0 325132.0 0
233347.0 324750.0 0
240351.0 324532.0 0
247281.0 324414.0 0
254251.0 324352.0 0
261170.0 324383.0 0
267039.0 323824.0 0
273882.0 323931.0 0
280576.0 324244.0 0
287491.0 324217.0 0
294539.0 324460.0 0
205436.0 326816.0 0
212323.0 326724.0 0
219387.0 325889.0 0
223080.0 327348.0 0
229986.0 326902.0 0
236950.0 326623.0 0
243862.0 326453.0 0
250782.0 326331.0 0
257704.0 326345.0 0
264961.0 327221.0 0
270438.0 325895.0 0
277124.0 326245.0 0
284051.0 326216.0 0
290974.0 326223.0 0
298002.0 326440.0 0
201997.0 328808.0 0
208909.0 328784.0 0
212416.0 330710.0 0
215898.0 328441.0 0
219615.0 329828.0 0
226650.0 329099.0 0
233567.0 328722.0 0
237108.0 330582.0 0
240470.0 328507.0 0
243964.0 330417.0 0
247357.0 328375.0 0
250817.0 330309.0 0
254244.0 328315.0 0
257690.0 330297.0 0
261155.0 328350.0 0
268376.0 329269.0 0
273662.0 328244.0 0
277187.0 330204.0 0
280613.0 328209.0 0
284095.0 330171.0 0
287527.0 328191.0 0
291040.0 330185.0 0
294551.0 328388.0 0
298003.0 330367.0 0
201996.0 332760.0 0
205439.0 330768.0 0
208858.0 332726.0 0
216043.0 332393.0 0
223307.0 331287.0 0
226876.0 333039.0 0
230219.0 330867.0 0
233787.0 332672.0 0
240608.0 332470.0 0
247426.0 332339.0 0
254250.0 332270.0 0
261124.0 332289.0 0
264920.0 331208.0 0
269916.0 332906.0 0
273783.0 332206.0 0
280672.0 332153.0 0
287620.0 332140.0 0
294555.0 332289.0 0
205411.0 334715.0 0
212262.0 334670.0 0
219801.0 333745.0 0
223508.0 335199.0 0
230521.0 334789.0 0
237294.0 334540.0 0
244071.0 334379.0 0
250857.0 334274.0 0
257659.0 334232.0 0
266494.0 334848.0 0
277257.0 334146.0 0
284210.0 334099.0 0
291089.0 334129.0 0
298004.0 334267.0 0
201994.0 336709.0 0
208800.0 336664.0 0
215813.0 336327.0 0
219507.0 337636.0 0
227317.0 336917.0 0
234028.0 336627.0 0
237482.0 338504.0 0
240755.0 336434.0 0
244181.0 338343.0 0
247501.0 336302.0 0
250902.0 338234.0 0
254260.0 336222.0 0
257638.0 338172.0 0
261039.0 336187.0 0
264364.0 338120.0 0
269948.0 336860.0 0
273833.0 336138.0 0
277463.0 338040.0 0
280820.0 336065.0 0
284286.0 338014.0 0
287679.0 336066.0 0
291129.0 338048.0 0
294559.0 336173.0 0
298005.0 338146.0 0
201992.0 340656.0 0
205382.0 338662.0 0
208738.0 340614.0 0
212154.0 338605.0 0
215635.0 340238.0 0
221109.0 341120.0 0
224173.0 339025.0 0
227645.0 340844.0 0
230814.0 338732.0 0
234253.0 340591.0 0
240900.0 340400.0 0
247579.0 340263.0 0
254280.0 340173.0 0
260988.0 340122.0 0
267679.0 340045.0 0
274152.0 340019.0 0
280920.0 339975.0 0
287731.0 339974.0 0
294571.0 340046.0 0
205351.0 342612.0 0
212075.0 342540.0 0
218066.0 343135.0 0
224520.0 342950.0 0
231063.0 342691.0 0
237656.0 342473.0 0
244290.0 342308.0 0
250954.0 342189.0 0
257635.0 342116.0 0
264320.0 342058.0 0
270931.0 342028.0 0
277584.0 341950.0 0
284354.0 341916.0 0
291162.0 341941.0 0
298006.0 342008.0 0
201990.0 344602.0 0
208679.0 344570.0 0
214943.0 345009.0 0
221399.0 345026.0 0
227902.0 344793.0 0
234447.0 344559.0 0
241033.0 344368.0 0
244391.0 346269.0 0
247658.0 344221.0 0
251009.0 346139.0 0
254309.0 344121.0 0
257652.0 346053.0 0
260977.0 344056.0 0
264304.0 345991.0 0
267626.0 344004.0 0
270967.0 345938.0 0
274285.0 343949.0 0
277664.0 345854.0 0
280998.0 343876.0 0
284406.0 345801.0 0
287775.0 343862.0 0
291191.0 345810.0 0
294588.0 343909.0 0
298007.0 345857.0 0
201987.0 348547.0 0
205312.0 346565.0 0
208499.0 348657.0 0
211743.0 346825.0 0
215004.0 348894.0 0
218227.0 347012.0 0
221558.0 348911.0 0
224745.0 346878.0 0
228087.0 348735.0 0
231263.0 346652.0 0
234608.0 348524.0 0
237808.0 346442.0 0
241152.0 348331.0 0
247733.0 348173.0 0
254348.0 348059.0 0
260985.0 347981.0 0
267641.0 347915.0 0
274329.0 347839.0 0
281050.0 347757.0 0
287810.0 347727.0 0
294604.0 347756.0 0
205238.0 350546.0 0
211755.0 350732.0 0
218329.0 350864.0 0
224896.0 350784.0 0
231420.0 350602.0 0
237938.0 350404.0 0
244482.0 350223.0 0
251065.0 350078.0 0
257679.0 349977.0 0
264319.0 349898.0 0
270992.0 349819.0 0
277700.0 349726.0 0
284441.0 349660.0 0
291215.0 349656.0 0
298009.0 349692.0 0
201983.0 352498.0 0
208498.0 352583.0 0
215073.0 352744.0 0
221674.0 352775.0 0
228228.0 352657.0 0
234742.0 352478.0 0
241256.0 352288.0 0
244565.0 354169.0 0
247804.0 352115.0 0
251120.0 354006.0 0
254391.0 351984.0 0
257713.0 353887.0 0
261009.0 351888.0 0
264341.0 353783.0 0
267661.0 351798.0 0
271011.0 353677.0 0
274353.0 351701.0 0
277721.0 353568.0 0
281079.0 351608.0 0
284464.0 353489.0 0
287836.0 351565.0 0
291234.0 353475.0 0
294617.0 351585.0 0
298010.0 353512.0 0
201983.0 356414.0 0
205243.0 354480.0 0
208535.0 356460.0 0
211806.0 354594.0 0
215154.0 356565.0 0
218424.0 354697.0 0
221782.0 356618.0 0
225018.0 354667.0 0
228351.0 356560.0 0
231550.0 354536.0 0
234859.0 356421.0 0
238050.0 354359.0 0
241348.0 356237.0 0
247869.0 356046.0 0
254434.0 355896.0 0
261036.0 355777.0 0
267680.0 355659.0 0
274369.0 355537.0 0
281096.0 355427.0 0
287856.0 355372.0 0
294629.0 355394.0 0
205262.0 358364.0 0
211872.0 358416.0 0
218523.0 358507.0 0
225135.0 358531.0 0
231670.0 358457.0 0
238152.0 358306.0 0
244639.0 358106.0 0
251173.0 357919.0 0
257749.0 357780.0 0
264364.0 357649.0 0
271027.0 357513.0 0
274380.0 359347.0 0
277733.0 357381.0 0
281105.0 359214.0 0
284479.0 357284.0 0
287870.0 359145.0 0
291251.0 357268.0 0
294641.0 359186.0 0
298011.0 357322.0 0
201983.0 360294.0 0
208581.0 360287.0 0
215244.0 360354.0 0
221897.0 360439.0 0
228472.0 360447.0 0
234969.0 360357.0 0
241433.0 360180.0 0
244709.0 362033.0 0
247929.0 359964.0 0
251223.0 361818.0 0
254478.0 359792.0 0
257784.0 361659.0 0
261065.0 359650.0 0
264389.0 361495.0 0
267700.0 359498.0 0
271043.0 361326.0 0
277739.0 361164.0 0
284485.0 361042.0 0
291265.0 361030.0 0
298012.0 361129.0 0
201984.0 364141.0 0
205284.0 362202.0 0
208635.0 364061.0 0
211947.0 362192.0 0
215351.0 364100.0 0
218635.0 362289.0 0
222023.0 364237.0 0
225258.0 362376.0 0
228597.0 364322.0 0
231788.0 362369.0 0
235081.0 364290.0 0
238250.0 362251.0 0
241516.0 364120.0 0
247988.0 363871.0 0
254519.0 363675.0 0
261094.0 363505.0 0
267723.0 363317.0 0
274391.0 363134.0 0
281104.0 362967.0 0
287875.0 362880.0 0
294653.0 362961.0 0
205315.0 365996.0 0
212047.0 365910.0 0
218768.0 366035.0 0
225387.0 366205.0 0
231912.0 366274.0 0
238352.0 366199.0 0
244780.0 365953.0 0
251269.0 365704.0 0
257814.0 365523.0 0
264417.0 365320.0 0
267758.0 367112.0 0
271065.0 365118.0 0
274408.0 366903.0 0
277740.0 364922.0 0
281085.0 366689.0 0
284474.0 364761.0 0
287848.0 366568.0 0
291269.0 364756.0 0
294656.0 366715.0 0
298013.0 364945.0 0
201987.0 367961.0 0
205393.0 369733.0 0
208727.0 367766.0 0
212248.0 369555.0 0
215502.0 367795.0 0
222155.0 368012.0 0
228723.0 368185.0 0
235205.0 368225.0 0
241608.0 368062.0 0
244857.0 369869.0 0
248043.0 367773.0 0
251293.0 369584.0 0
254547.0 367548.0 0
257831.0 369368.0 0
261122.0 367338.0 0
264460.0 369116.0 0
271107.0 368894.0 0
277741.0 368664.0 0
284418.0 368442.0 0
291220.0 368427.0 0
298011.0 368789.0 0
201992.0 371744.0 0
209059.0 371352.0 0
215667.0 371470.0 0
218910.0 369756.0 0
222269.0 371770.0 0
225505.0 370017.0 0
228826.0 372031.0 0
232040.0 370170.0 0
235357.0 372156.0 0
238481.0 370160.0 0
241738.0 372014.0 0
248077.0 371690.0 0
254538.0 371415.0 0
261158.0 371135.0 0
267823.0 370884.0 0
274446.0 370664.0 0
281054.0 370398.0 0
284335.0 372117.0 0
287720.0 370203.0 0
290945.0 372008.0 0
294580.0 370415.0 0
298003.0 372671.0 0
200668.0 376895.0 0
206083.0 373252.0 0
209391.0 375058.0 0
212465.0 373213.0 0
219016.0 373459.0 0
225588.0 373816.0 0
232134.0 374038.0 0
238707.0 374145.0 0
244953.0 373800.0 0
251241.0 373473.0 0
254529.0 375251.0 0
257841.0 373169.0 0
264536.0 372871.0 0
267956.0 374630.0 0
271190.0 372659.0 0
274516.0 374434.0 0
277757.0 372406.0 0
281043.0 374111.0 0
287556.0 373860.0 0
293960.0 373921.0 0
299276.0 376835.0 0
197780.0 378680.0 0
203339.0 375166.0 0
206496.0 377027.0 0
212575.0 376924.0 0
215768.0 375147.0 0
219023.0 377137.0 0
222322.0 375506.0 0
228881.0 375858.0 0
235448.0 376031.0 0
242067.0 376223.0 0
247803.0 376087.0 0
251115.0 377272.0 0
257930.0 376894.0 0
261238.0 374863.0 0
264733.0 376564.0 0
271310.0 376438.0 0
277816.0 376156.0 0
284296.0 375812.0 0
287467.0 377585.0 0
290639.0 375701.0 0
293417.0 377793.0 0
296382.0 376145.0 0
302307.0 378721.0 0
194718.0 380583.0 0
197673.0 381880.0 0
200932.0 380267.0 0
203775.0 379019.0 0
209523.0 378861.0 0
215710.0 378818.0 0
218767.0 380754.0 0
222252.0 379197.0 0
225596.0 377595.0 0
228863.0 379663.0 0
232171.0 377878.0 0
235461.0 379886.0 0
238748.0 378040.0 0
245226.0 378572.0 0
254147.0 378980.0 0
258467.0 380368.0 0
261543.0 378472.0 0
264916.0 380302.0 0
268113.0 378396.0 0
271434.0 380238.0 0
274626.0 378221.0 0
277969.0 379891.0 0
281116.0 377825.0 0
284409.0 379531.0 0
290428.0 379539.0 0
296213.0 379976.0 0
299256.0 379849.0 0
302270.0 381888.0 0
305327.0 380612.0 0
188645.0 384381.0 0
191690.0 382478.0 0
194690.0 383849.0 0
200609.0 383306.0 0
203718.0 383001.0 0
206596.0 380926.0 0
209528.0 382668.0 0
212552.0 380669.0 0
215528.0 382533.0 0
221691.0 382718.0 0
225479.0 381339.0 0
232159.0 381696.0 0
238715.0 381933.0 0
241970.0 380165.0 0
245387.0 382305.0 0
248757.0 380377.0 0
251864.0 382753.0 0
255407.0 382086.0 0
261740.0 382198.0 0
268192.0 382193.0 0
274789.0 381999.0 0
278612.0 383455.0 0
281447.0 381497.0 0
284636.0 383339.0 0
287494.0 381406.0 0
293311.0 381617.0 0
299126.0 382910.0 0
305354.0 383800.0 0
308398.0 382530.0 0
311536.0 384486.0 0
185547.0 386316.0 0
191686.0 385738.0 0
194776.0 387146.0 0
197707.0 385204.0 0
200955.0 386309.0 0
206610.0 384779.0 0
212445.0 384433.0 0
218399.0 384470.0 0
224348.0 384705.0 0
228825.0 383421.0 0
235429.0 383729.0 0
242012.0 383989.0 0
248568.0 384410.0 0
255018.0 385512.0 0
258499.0 384029.0 0
261611.0 385921.0 0
264932.0 384083.0 0
271458.0 384019.0 0
275982.0 385385.0 0
281861.0 385298.0 0
287657.0 385275.0 0
290452.0 383388.0 0
293375.0 385418.0 0
296185.0 383762.0 0
299253.0 386190.0 0
302266.0 385044.0 0
305435.0 386987.0 0
308500.0 385684.0 0
314767.0 386500.0 0
182398.0 388291.0 0
185439.0 389498.0 0
188601.0 387597.0 0
191721.0 388984.0 0
197977.0 388436.0 0
203929.0 387019.0 0
209469.0 386470.0 0
215305.0 386303.0 0
218031.0 388299.0 0
221117.0 386473.0 0
223826.0 388430.0 0
226996.0 386486.0 0
229727.0 388143.0 0
232147.0 385503.0 0
235400.0 387566.0 0
238681.0 385751.0 0
241862.0 387812.0 0
245219.0 386129.0 0
251652.0 386724.0 0
258188.0 387624.0 0
264701.0 387839.0 0
268090.0 386003.0 0
270497.0 388600.0 0
273306.0 387075.0 0
276387.0 389134.0 0
279161.0 387262.0 0
284925.0 387227.0 0
290610.0 387238.0 0
296379.0 387437.0 0
302432.0 388304.0 0
308599.0 388837.0 0
311729.0 387553.0 0
315087.0 389421.0 0
318123.0 388628.0 0
176228.0 392149.0 0
179309.0 390223.0 0
182333.0 391646.0 0
188596.0 390782.0 0
191810.0 392224.0 0
194895.0 390400.0 0
198029.0 391742.0 0
201132.0 389643.0 0
204115.0 390959.0 0
206696.0 388708.0 0
209432.0 390261.0 0
212307.0 388181.0 0
215014.0 390108.0 0
220690.0 390300.0 0
226620.0 390231.0 0
232561.0 389801.0 0
238546.0 389581.0 0
244980.0 389941.0 0
248345.0 388317.0 0
251457.0 390599.0 0
254782.0 389149.0 0
257970.0 391306.0 0
261330.0 389618.0 0
267482.0 390049.0 0
273484.0 390818.0 0
279455.0 391102.0 0
282223.0 389192.0 0
285225.0 391143.0 0
287903.0 389170.0 0
293590.0 389163.0 0
296653.0 391031.0 0
299506.0 389616.0 0
302653.0 391684.0 0
305594.0 390266.0 0
308710.0 392112.0 0
311744.0 390586.0 0
318035.0 392271.0 0
321141.0 390520.0 0
173116.0 394092.0 0
179296.0 393578.0 0
185435.0 392644.0 0
188724.0 393948.0 0
194971.0 393751.0 0
201073.0 393137.0 0
207191.0 392719.0 0
211980.0 391888.0 0
217557.0 392162.0 0
223440.0 392192.0 0
229477.0 391945.0 0
232347.0 393677.0 0
235462.0 391572.0 0
238355.0 393505.0 0
241581.0 391619.0 0
244549.0 393674.0 0
248082.0 392128.0 0
254626.0 392893.0 0
261121.0 393386.0 0
264341.0 391692.0 0
267386.0 393863.0 0
270460.0 392348.0 0
276565.0 392888.0 0
282494.0 393074.0 0
288207.0 393063.0 0
290865.0 391069.0 0
293860.0 392871.0 0
296932.0 394542.0 0
299781.0 393127.0 0
305738.0 393662.0 0
311804.0 393838.0 0
314786.0 392239.0 0
321178.0 393980.0 0
324237.0 392443.0 0
327374.0 394399.0 0
169950.0 396067.0 0
172974.0 397361.0 0
176190.0 395464.0 0
179299.0 396932.0 0
182389.0 395074.0 0
185580.0 395660.0 0
188960.0 397109.0 0
191988.0 395537.0 0
195070.0 397284.0 0
198021.0 395179.0 0
201058.0 396711.0 0
204080.0 394601.0 0
207117.0 396298.0 0
210349.0 394850.0 0
213244.0 397218.0 0
214307.0 393881.0 0
216857.0 395892.0 0
220208.0 394090.0 0
222997.0 395918.0 0
226278.0 393977.0 0
229145.0 395735.0 0
235193.0 395505.0 0
241231.0 395483.0 0
247441.0 395726.0 0
251233.0 394389.0 0
257866.0 395055.0 0
264264.0 395482.0 0
270516.0 396064.0 0
273568.0 394523.0 0
276699.0 396628.0 0
279645.0 394908.0 0
285528.0 395033.0 0
291194.0 394896.0 0
299957.0 396739.0 0
302811.0 395190.0 0
305722.0 397172.0 0
308788.0 395484.0 0
312081.0 396987.0 0
315232.0 395114.0 0
318325.0 395926.0 0
321399.0 397491.0 0
324335.0 395806.0 0
330548.0 396378.0 0
163561.0 400056.0 0
166757.0 398061.0 0
169730.0 399315.0 0
175996.0 398736.0 0
182421.0 398569.0 0
185801.0 398488.0 0
192036.0 398960.0 0
198190.0 398684.0 0
204041.0 398198.0 0
209954.0 398524.0 0
216047.0 399414.0 0
219587.0 397749.0 0
225861.0 397707.0 0
232005.0 397535.0 0
238025.0 397421.0 0
244074.0 397486.0 0
246861.0 399513.0 0
250156.0 397775.0 0
252846.0 399657.0 0
254567.0 396625.0 0
257924.0 398813.0 0
261103.0 397152.0 0
267434.0 397611.0 0
273686.0 398230.0 0
279817.0 398695.0 0
282713.0 396907.0 0
285793.0 398851.0 0
288600.0 396935.0 0
294187.0 396576.0 0
297177.0 397959.0 0
299176.0 400581.0 0
302569.0 398843.0 0
308919.0 398790.0 0
315324.0 398320.0 0
318445.0 399463.0 0
324561.0 399201.0 0
327527.0 397697.0 0
330755.0 399629.0 0
333754.0 398380.0 0
160388.0 402040.0 0
166501.0 401307.0 0
169409.0 402604.0 0
172679.0 400630.0 0
175601.0 402004.0 0
179005.0 400196.0 0
181850.0 401971.0 0
185190.0 401317.0 0
188786.0 400345.0 0
191767.0 402335.0 0
195065.0 400910.0 0
198341.0 401857.0 0
201597.0 400406.0 0
206739.0 399857.0 0
209087.0 402218.0 0
212570.0 400928.0 0
218998.0 401309.0 0
222481.0 399569.0 0
225442.0 401402.0 0
228757.0 399516.0 0
231624.0 401383.0 0
234840.0 399407.0 0
237676.0 401328.0 0
240853.0 399377.0 0
243681.0 401363.0 0
249683.0 401506.0 0
255626.0 401372.0 0
261243.0 400918.0 0
264333.0 399231.0 0
267546.0 401331.0 0
270628.0 399767.0 0
276854.0 400372.0 0
282922.0 400717.0 0
288941.0 400671.0 0
291777.0 398727.0 0
295185.0 400323.0 0
302466.0 402193.0 0
305738.0 400598.0 0
308963.0 402116.0 0
312168.0 400224.0 0
315410.0 401668.0 0
321590.0 400923.0 0
324824.0 402558.0 0
327788.0 401018.0 0
331064.0 402903.0 0
334009.0 401608.0 0
336979.0 400394.0 0
340213.0 402414.0 0
157242.0 404007.0 0
160197.0 405318.0 0
163321.0 403318.0 0
166227.0 404626.0 0
172279.0 403941.0 0
175098.0 405331.0 0
178458.0 403487.0 0
184672.0 404375.0 0
188192.0 403406.0 0
194617.0 404560.0 0
198058.0 404814.0 0
201534.0 403778.0 0
204952.0 402676.0 0
211783.0 404595.0 0
215456.0 403018.0 0
218797.0 404853.0 0
222099.0 403189.0 0
228355.0 403298.0 0
234488.0 403287.0 0
240535.0 403276.0 0
246557.0 403345.0 0
252603.0 403381.0 0
258556.0 403031.0 0
264478.0 402982.0 0
270753.0 403457.0 0
273829.0 401939.0 0
277019.0 404122.0 0
280006.0 402487.0 0
286044.0 402633.0 0
289236.0 404335.0 0
292236.0 402280.0 0
295723.0 403577.0 0
299185.0 404029.0 0
302543.0 405490.0 0
305764.0 404043.0 0
312259.0 403474.0 0
315593.0 405114.0 0
318586.0 402918.0 0
321816.0 404262.0 0
328137.0 404327.0 0
334349.0 404871.0 0
337268.0 403612.0 0
343440.0 404431.0 0
150975.0 407925.0 0
154112.0 405965.0 0
157095.0 407290.0 0
163137.0 406668.0 0
166050.0 408054.0 0
169090.0 405980.0 0
171899.0 407359.0 0
177899.0 406765.0 0
181288.0 405252.0 0
184001.0 407550.0 0
187475.0 406548.0 0
191031.0 405574.0 0
196856.0 407732.0 0
200581.0 407164.0 0
204132.0 406242.0 0
207693.0 405399.0 0
212827.0 407898.0 0
215701.0 406479.0 0
225061.0 405141.0 0
231259.0 405215.0 0
237379.0 405212.0 0
243445.0 405229.0 0
246426.0 407160.0 0
249520.0 405274.0 0
252565.0 407116.0 0
255616.0 405134.0 0
258652.0 406879.0 0
261581.0 404852.0 0
264651.0 406811.0 0
267662.0 405049.0 0
273958.0 405640.0 0
280191.0 406290.0 0
283149.0 404540.0 0
286313.0 406438.0 0
292542.0 405744.0 0
295872.0 406887.0 0
299237.0 407478.0 0
305854.0 407641.0 0
309031.0 405445.0 0
312494.0 406636.0 0
318797.0 406330.0 0
322236.0 407448.0 0
325203.0 405842.0 0
328584.0 407630.0 0
331454.0 406190.0 0
334693.0 408196.0 0
337580.0 406893.0 0
340501.0 405631.0 0
343681.0 407669.0 0
346641.0 406432.0 0
147819.0 409897.0 0
153983.0 409235.0 0
160078.0 408664.0 0
163050.0 410100.0 0
168926.0 409499.0 0
174662.0 408751.0 0
177416.0 410077.0 0
180675.0 408473.0 0
186547.0 409784.0 0
190005.0 408891.0 0
193465.0 408051.0 0
202856.0 409767.0 0
206323.0 409027.0 0
209665.0 408354.0 0
215420.0 410313.0 0
218582.0 408655.0 0
221779.0 406917.0 0
224715.0 408931.0 0
227994.0 407095.0 0
230958.0 409034.0 0
234187.0 407138.0 0
237160.0 409060.0 0
240318.0 407143.0 0
243318.0 409062.0 0
249481.0 409041.0 0
255640.0 408905.0 0
261687.0 408724.0 0
267762.0 408786.0 0
270847.0 407126.0 0
274004.0 409331.0 0
277133.0 407871.0 0
283367.0 408392.0 0
289572.0 408011.0 0
292991.0 409264.0 0
299926.0 410980.0 0
302551.0 408607.0 0
309238.0 408699.0 0
312572.0 409572.0 0
315894.0 408733.0 0
319408.0 409581.0 0
325732.0 409076.0 0
331831.0 409531.0 0
337774.0 410281.0 0
340720.0 408931.0 0
346846.0 409671.0 0
349834.0 408429.0 0
353028.0 410426.0 0
144623.0 411894.0 0
147663.0 413109.0 0
150847.0 411176.0 0
153891.0 412534.0 0
156999.0 410618.0 0
160015.0 412055.0 0
166007.0 411570.0 0
168960.0 413119.0 0
171772.0 410941.0 0
174635.0 412361.0 0
180145.0 411733.0 0
183172.0 410874.0 0
188793.0 412234.0 0
192248.0 411490.0 0
195676.0 410971.0 0
199240.0 410407.0 0
205079.0 412563.0 0
208591.0 411962.0 0
212023.0 411400.0 0
221444.0 410746.0 0
227699.0 410897.0 0
233965.0 410960.0 0
240184.0 410974.0 0
246379.0 410956.0 0
252575.0 410879.0 0
258710.0 410714.0 0
264751.0 410627.0 0
270901.0 410778.0 0
277021.0 411626.0 0
280272.0 410093.0 0
286626.0 410281.0 0
290166.0 411623.0 0
296523.0 410216.0 0
293839.0 412694.0 0
303520.0 411550.0 0
306858.0 411318.0 0
310356.0 412067.0 0
314089.0 412237.0 0
317298.0 412245.0 0
320525.0 412934.0 0
322888.0 410529.0 0
326336.0 412359.0 0
329028.0 411020.0 0
331907.0 413022.0 0
334849.0 411643.0 0
340828.0 412297.0 0
343837.0 410969.0 0
346976.0 412941.0 0
350019.0 411671.0 0
356230.0 412427.0 0
138143.0 415947.0 0
141391.0 413915.0 0
144432.0 415095.0 0
150737.0 414442.0 0
156948.0 413978.0 0
160013.0 415477.0 0
163020.0 413580.0 0
166006.0 415100.0 0
171963.0 414592.0 0
177618.0 413558.0 0
181636.0 414417.0 0
185282.0 413061.0 0
190899.0 414888.0 0
194346.0 414308.0 0
197884.0 413735.0 0
201481.0 413150.0 0
207339.0 415441.0 0
211008.0 414904.0 0
214661.0 414036.0 0
218140.0 412521.0 0
221067.0 414549.0 0
224414.0 412737.0 0
230740.0 412835.0 0
233818.0 414763.0 0
237015.0 412877.0 0
240110.0 414781.0 0
243258.0 412871.0 0
246372.0 414749.0 0
249483.0 412820.0 0
252610.0 414666.0 0
255680.0 412702.0 0
258794.0 414541.0 0
261792.0 412573.0 0
264917.0 414449.0 0
267845.0 412524.0 0
270975.0 414388.0 0
273951.0 413084.0 0
279824.0 413821.0 0
283466.0 412238.0 0
287367.0 414004.0 0
291185.0 415113.0 0
297508.0 413629.0 0
301181.0 414274.0 0
304890.0 414597.0 0
308393.0 414777.0 0
312097.0 415104.0 0
315685.0 415387.0 0
323705.0 413611.0 0
328984.0 414721.0 0
334852.0 415136.0 0
337837.0 413751.0 0
343917.0 414312.0 0
350122.0 414942.0 0
353195.0 413675.0 0
356399.0 415641.0 0
359468.0 414452.0 0
134907.0 417974.0 0
141178.0 417142.0 0
144280.0 418294.0 0
147530.0 416320.0 0
150657.0 417725.0 0
153825.0 415846.0 0
156926.0 417355.0 0
163076.0 417118.0 0
168971.0 416728.0 0
171899.0 418047.0 0
175181.0 415977.0 0
178901.0 416287.0 0
184076.0 416125.0 0
187486.0 415541.0 0
192762.0 417667.0 0
196355.0 417087.0 0
199986.0 416513.0 0
203651.0 415960.0 0
213532.0 417660.0 0
217571.0 416291.0 0
224213.0 416495.0 0
227491.0 414683.0 0
230593.0 416627.0 0
236935.0 416677.0 0
243238.0 416670.0 0
249512.0 416612.0 0
255752.0 416509.0 0
261944.0 416395.0 0
268135.0 416288.0 0
276448.0 415647.0 0
282666.0 415772.0 0
285666.0 417126.0 0
288991.0 417836.0 0
294983.0 416081.0 0
298823.0 416952.0 0
302681.0 417477.0 0
306484.0 417760.0 0
310214.0 417944.0 0
319058.0 415730.0 0
322477.0 416280.0 0
326111.0 416021.0 0
331889.0 419515.0 0
331771.0 416464.0 0
337875.0 417279.0 0
340875.0 415693.0 0
343868.0 417725.0 0
347003.0 416235.0 0
350138.0 418232.0 0
353278.0 416950.0 0
359645.0 417664.0 0
362740.0 416500.0 0
366026.0 418560.0 0
131705.0 419980.0 0
137937.0 419232.0 0
141034.0 420382.0 0
147440.0 419520.0 0
150613.0 421037.0 0
153788.0 419162.0 0
156923.0 420753.0 0
160039.0 418888.0 0
163145.0 420689.0 0
166146.0 418667.0 0
169255.0 420517.0 0
174824.0 419145.0 0
178019.0 419129.0 0
181651.0 418482.0 0
185543.0 418746.0 0
189189.0 418244.0 0
194654.0 420422.0 0
198325.0 419865.0 0
202022.0 419319.0 0
205767.0 418799.0 0
209602.0 418331.0 0
217777.0 419941.0 0
220922.0 418244.0 0
227338.0 418465.0 0
233737.0 418555.0 0
240081.0 418580.0 0
246392.0 418547.0 0
252674.0 418467.0 0
258922.0 418354.0 0
265170.0 418222.0 0
268566.0 419887.0 0
271702.0 417758.0 0
274995.0 419126.0 0
279531.0 417686.0 0
282874.0 419555.0 0
292549.0 418641.0 0
296291.0 419415.0 0
300342.0 420177.0 0
304481.0 420597.0 0
308398.0 420833.0 0
313914.0 418260.0 0
317528.0 418623.0 0
321102.0 418982.0 0
324879.0 418985.0 0
328610.0 418551.0 0
334960.0 418566.0 0
340740.0 419144.0 0
346960.0 419512.0 0
353245.0 420269.0 0
356459.0 418851.0 0
359662.0 420867.0 0
362901.0 419758.0 0
369283.0 420610.0 0
125485.0 423879.0 0
128561.0 421953.0 0
131603.0 423443.0 0
134733.0 421338.0 0
137817.0 422545.0 0
140961.0 423631.0 0
144200.0 421493.0 0
147435.0 422702.0 0
153748.0 422472.0 0
160079.0 422251.0 0
166262.0 422100.0 0
172455.0 421666.0 0
176130.0 422132.0 0
179857.0 421785.0 0
183443.0 421511.0 0
187279.0 421412.0 0
190989.0 420962.0 0
196512.0 423205.0 0
200213.0 422684.0 0
203914.0 422182.0 0
207601.0 421730.0 0
211210.0 421447.0 0
214627.0 421112.0 0
220752.0 422110.0 0
224053.0 420278.0 0
227295.0 422232.0 0
230521.0 420407.0 0
233705.0 422349.0 0
236902.0 420474.0 0
240085.0 422381.0 0
243249.0 420470.0 0
246435.0 422351.0 0
249566.0 420414.0 0
252764.0 422271.0 0
255859.0 420315.0 0
259085.0 422145.0 0
262147.0 420179.0 0
265467.0 421926.0 0
271898.0 421452.0 0
278017.0 420939.0 0
281026.0 422540.0 0
286490.0 420687.0 0
290056.0 421419.0 0
293642.0 422097.0 0
297235.0 422692.0 0
300551.0 423461.0 0
303798.0 423773.0 0
312166.0 421098.0 0
315864.0 421445.0 0
319544.0 421768.0 0
323290.0 421867.0 0
327027.0 421768.0 0
330470.0 422096.0 0
334277.0 422012.0 0
337606.0 421024.0 0
340678.0 422448.0 0
343793.0 421186.0 0
346833.0 422751.0 0
350063.0 421547.0 0
356373.0 422054.0 0
362783.0 423023.0 0
366099.0 421925.0 0
372459.0 422608.0 0
122392.0 425813.0 0
128589.0 425522.0 0
134673.0 424760.0 0
137784.0 425893.0 0
144168.0 424668.0 0
147441.0 425795.0 0
150659.0 424440.0 0
153835.0 425814.0 0
156837.0 424186.0 0
159865.0 425428.0 0
163177.0 424370.0 0
166638.0 425114.0 0
170046.0 424295.0 0
173865.0 424777.0 0
177783.0 424857.0 0
181527.0 424663.0 0
185249.0 424398.0 0
189056.0 424148.0 0
192801.0 423712.0 0
202037.0 425566.0 0
205748.0 425127.0 0
209475.0 424786.0 0
213308.0 424546.0 0
217232.0 423780.0 0
224091.0 424033.0 0
230494.0 424203.0 0
236906.0 424275.0 0
243284.0 424276.0 0
249643.0 424220.0 0
255992.0 424112.0 0
262368.0 423932.0 0
268795.0 423603.0 0
275087.0 423077.0 0
278305.0 424826.0 0
284289.0 423529.0 0
287730.0 424337.0 0
291266.0 424989.0 0
294847.0 425573.0 0
307150.0 423825.0 0
310675.0 424019.0 0
314288.0 424311.0 0
317956.0 424601.0 0
321684.0 424764.0 0
325413.0 424810.0 0
329046.0 424983.0 0
332802.0 424942.0 0
336635.0 424646.0 0
340036.0 425353.0 0
343605.0 424811.0 0
346902.0 425722.0 0
350089.0 424872.0 0
353126.0 423683.0 0
356060.0 425249.0 0
359446.0 424089.0 0
362435.0 426353.0 0
365737.0 425308.0 0
369145.0 424185.0 0
373672.0 425877.0 0
376505.0 425095.0 0
379597.0 427051.0 0
119263.0 427772.0 0
122458.0 429317.0 0
125574.0 427398.0 0
131681.0 427007.0 0
134818.0 428264.0 0
140934.0 426887.0 0
144084.0 427812.0 0
147207.0 428722.0 0
150530.0 427949.0 0
153851.0 428760.0 0
157219.0 427852.0 0
161064.0 428158.0 0
164528.0 427819.0 0
168358.0 427810.0 0
171875.0 427597.0 0
175672.0 427729.0 0
179500.0 427719.0 0
183280.0 427525.0 0
187049.0 427251.0 0
190842.0 426935.0 0
194598.0 426512.0 0
198324.0 426040.0 0
203785.0 428519.0 0
207463.0 428154.0 0
211113.0 427867.0 0
214654.0 427789.0 0
217970.0 427360.0 0
220961.0 425805.0 0
227276.0 426044.0 0
233715.0 426151.0 0
240114.0 426190.0 0
246499.0 426160.0 0
252874.0 426075.0 0
256136.0 427907.0 0
259259.0 425924.0 0
262555.0 427699.0 0
265677.0 425668.0 0
268985.0 427369.0 0
272086.0 425263.0 0
275400.0 426946.0 0
281736.0 426261.0 0
285271.0 427233.0 0
288915.0 427938.0 0
298374.0 426227.0 0
301981.0 426755.0 0
305585.0 426944.0 0
309144.0 427056.0 0
312732.0 427268.0 0
316373.0 427511.0 0
320068.0 427694.0 0
323778.0 427803.0 0
327449.0 427929.0 0
331163.0 427948.0 0
334865.0 427838.0 0
338355.0 428093.0 0
342071.0 428112.0 0
349250.0 428186.0 0
352761.0 427390.0 0
355989.0 428220.0 0
359195.0 427315.0 0
364896.0 428915.0 0
368022.0 427939.0 0
370988.0 427141.0 0
376551.0 428496.0 0
382635.0 428959.0 0
113027.0 431678.0 0
116130.0 429734.0 0
119296.0 431335.0 0
125757.0 430861.0 0
128777.0 429195.0 0
131935.0 430652.0 0
138055.0 429314.0 0
141361.0 430253.0 0
144750.0 431111.0 0
148476.0 431363.0 0
151811.0 431358.0 0
155579.0 431343.0 0
159028.0 431024.0 0
162729.0 431077.0 0
166342.0 430865.0 0
170028.0 430837.0 0
173677.0 430721.0 0
177446.0 430716.0 0
181253.0 430620.0 0
185045.0 430405.0 0
188828.0 430116.0 0
192610.0 429776.0 0
196362.0 429371.0 0
200085.0 428939.0 0
209214.0 431233.0 0
212934.0 431042.0 0
216808.0 430864.0 0
220728.0 429758.0 0
224045.0 427894.0 0
227343.0 429844.0 0
230523.0 428007.0 0
233741.0 429975.0 0
236932.0 428090.0 0
240161.0 430010.0 0
243337.0 428090.0 0
246576.0 429976.0 0
249735.0 428030.0 0
252995.0 429880.0 0
259423.0 429710.0 0
265866.0 429439.0 0
272303.0 429045.0 0
278883.0 428595.0 0
282582.0 429968.0 0
286471.0 430825.0 0
292604.0 428501.0 0
296285.0 429053.0 0
300004.0 429554.0 0
303759.0 429903.0 0
307457.0 430102.0 0
311105.0 430278.0 0
314763.0 430483.0 0
318452.0 430667.0 0
322155.0 430804.0 0
325844.0 430926.0 0
329544.0 430982.0 0
333229.0 430974.0 0
345452.0 428319.0 0
351338.0 430856.0 0
354638.0 430912.0 0
358311.0 430676.0 0
361659.0 429839.0 0
370509.0 430758.0 0
373590.0 429662.0 0
376374.0 432113.0 0
379511.0 430613.0 0
385683.0 430866.0 0
109910.0 433626.0 0
116248.0 433375.0 0
122488.0 432779.0 0
125749.0 434096.0 0
129062.0 433012.0 0
135275.0 431772.0 0
138732.0 432722.0 0
142286.0 433554.0 0
186801.0 433313.0 0
190585.0 433015.0 0
194356.0 432673.0 0
198101.0 432292.0 0
201819.0 431902.0 0
205518.0 431539.0 0
221247.0 433391.0 0
224203.0 431653.0 0
230544.0 431848.0 0
236976.0 431918.0 0
243400.0 431914.0 0
249837.0 431843.0 0
256279.0 431707.0 0
262729.0 431483.0 0
269192.0 431147.0 0
272546.0 432821.0 0
275659.0 430676.0 0
278969.0 432274.0 0
290385.0 431425.0 0
294243.0 431925.0 0
298057.0 432381.0 0
301865.0 432769.0 0
305652.0 433064.0 0
309388.0 433286.0 0
313095.0 433483.0 0
316806.0 433666.0 0
336814.0 431093.0 0
340452.0 431144.0 0
344040.0 431294.0 0
347684.0 431168.0 0
357039.0 433720.0 0
360669.0 433239.0 0
364084.0 432465.0 0
367356.0 431606.0 0
373207.0 433342.0 0
379279.0 434255.0 0
382496.0 432559.0 0
385564.0 434438.0 0
388780.0 432801.0 0
391936.0 434772.0 0
106733.0 435608.0 0
110023.0 437224.0 0
113193.0 435324.0 0
116525.0 437075.0 0
119481.0 434994.0 0
122767.0 436305.0 0
126374.0 437127.0 0
132520.0 434248.0 0
136124.0 435203.0 0
139798.0 436032.0 0
146036.0 434068.0 0
149721.0 434369.0 0
153399.0 434305.0 0
157084.0 434283.0 0
160684.0 434122.0 0
164375.0 434076.0 0
168026.0 433962.0 0
171725.0 433895.0 0
175433.0 433793.0 0
179207.0 433705.0 0
183006.0 433550.0 0
192325.0 435955.0 0
196088.0 435622.0 0
199825.0 435269.0 0
203538.0 434922.0 0
207230.0 434608.0 0
210901.0 434357.0 0
214554.0 434154.0 0
218047.0 434163.0 0
224080.0 435657.0 0
227330.0 433715.0 0
233792.0 433811.0 0
240210.0 433844.0 0
243467.0 435745.0 0
246661.0 433798.0 0
249944.0 435662.0 0
253120.0 433691.0 0
256424.0 435517.0 0
259583.0 433509.0 0
262903.0 435282.0 0
266049.0 433222.0 0
269379.0 434926.0 0
275917.0 434483.0 0
282167.0 433644.0 0
285518.0 434351.0 0
289001.0 434679.0 0
292591.0 434950.0 0
296281.0 435295.0 0
300044.0 435664.0 0
303834.0 435989.0 0
307617.0 436259.0 0
320523.0 433819.0 0
324235.0 433949.0 0
327946.0 434033.0 0
331639.0 434075.0 0
335286.0 434153.0 0
338937.0 434208.0 0
342570.0 434285.0 0
346251.0 434243.0 0
349904.0 434050.0 0
353449.0 433990.0 0
359479.0 436444.0 0
363102.0 435882.0 0
366587.0 435151.0 0
369949.0 434348.0 0
372663.0 436994.0 0
376012.0 435798.0 0
382321.0 436169.0 0
388743.0 436340.0 0
395107.0 436757.0 0
100194.0 439689.0 0
103486.0 437634.0 0
106737.0 439156.0 0
113367.0 438942.0 0
119959.0 438735.0 0
123757.0 439634.0 0
129910.0 436849.0 0
133599.0 437742.0 0
137340.0 438558.0 0
143578.0 436656.0 0
147371.0 437102.0 0
151176.0 437295.0 0
154903.0 437314.0 0
158617.0 437292.0 0
162294.0 437199.0 0
165996.0 437142.0 0
169695.0 437050.0 0
173422.0 436960.0 0
177170.0 436841.0 0
180953.0 436701.0 0
184751.0 436508.0 0
188544.0 436254.0 0
197820.0 438619.0 0
201557.0 438296.0 0
205275.0 437987.0 0
208980.0 437716.0 0
212692.0 437493.0 0
216435.0 437371.0 0
220373.0 437080.0 0
227507.0 437506.0 0
230624.0 435682.0 0
233803.0 437689.0 0
237010.0 435768.0 0
240258.0 437687.0 0
246749.0 437623.0 0
253248.0 437508.0 0
259744.0 437319.0 0
266237.0 437025.0 0
272699.0 436598.0 0
275970.0 438234.0 0
279352.0 436155.0 0
283123.0 437307.0 0
287010.0 437796.0 0
290800.0 438050.0 0
294532.0 438325.0 0
298275.0 438634.0 0
302049.0 438945.0 0
311376.0 436483.0 0
315121.0 436675.0 0
318863.0 436841.0 0
322601.0 436983.0 0
326335.0 437091.0 0
330055.0 437164.0 0
333747.0 437233.0 0
337432.0 437287.0 0
341109.0 437333.0 0
344805.0 437308.0 0
348503.0 437194.0 0
352147.0 437077.0 0
355817.0 436849.0 0
361935.0 439169.0 0
365591.0 438571.0 0
369172.0 437867.0 0
375490.0 439512.0 0
378994.0 437926.0 0
382430.0 439706.0 0
385568.0 437989.0 0
388738.0 439921.0 0
391924.0 438334.0 0
398271.0 438738.0 0
96866.5 441769.0 0
103430.0 441163.0 0
109995.0 440769.0 0
113220.0 442462.0 0
116807.0 440737.0 0
121252.0 442194.0 0
127658.0 440122.0 0
131262.0 440451.0 0
134972.0 441180.0 0
141144.0 439236.0 0
144979.0 439765.0 0
148832.0 440115.0 0
152650.0 440298.0 0
156421.0 440351.0 0
160168.0 440345.0 0
163892.0 440290.0 0
167625.0 440229.0 0
171363.0 440137.0 0
175120.0 440026.0 0
178895.0 439884.0 0
182689.0 439710.0 0
186488.0 439493.0 0
190281.0 439231.0 0
194060.0 438935.0 0
203308.0 441360.0 0
207032.0 441085.0 0
210742.0 440843.0 0
214431.0 440655.0 0
218094.0 440466.0 0
221533.0 440468.0 0
224573.0 439350.0 0
230591.0 439610.0 0
237032.0 439628.0 0
243536.0 439579.0 0
250054.0 439485.0 0
256569.0 439335.0 0
263079.0 439095.0 0
266428.0 440843.0 0
269578.0 438744.0 0
272919.0 440453.0 0
279033.0 439860.0 0
282156.0 440826.0 0
285556.0 441014.0 0
289131.0 441162.0 0
292813.0 441409.0 0
305838.0 439228.0 0
309626.0 439476.0 0
313404.0 439688.0 0
317175.0 439869.0 0
320939.0 440023.0 0
324697.0 440149.0 0
328446.0 440244.0 0
332179.0 440321.0 0
335902.0 440376.0 0
339619.0 440410.0 0
343345.0 440394.0 0
347075.0 440310.0 0
350789.0 440187.0 0
354510.0 439976.0 0
358234.0 439641.0 0
364381.0 441916.0 0
368078.0 441295.0 0
371785.0 440563.0 0
379521.0 441439.0 0
385564.0 441610.0 0
391893.0 441952.0 0
395073.0 440386.0 0
398167.0 442417.0 0
401424.0 440715.0 0
93531.9 443855.0 0
100078.0 443210.0 0
103293.0 444694.0 0
106679.0 442710.0 0
109938.0 444369.0 0
116220.0 444210.0 0
119423.0 445173.0 0
125177.0 442861.0 0
128978.0 443427.0 0
132678.0 443940.0 0
138762.0 441859.0 0
142602.0 442434.0 0
146468.0 442875.0 0
150329.0 443180.0 0
154164.0 443355.0 0
157963.0 443425.0 0
161740.0 443433.0 0
165503.0 443394.0 0
169268.0 443327.0 0
173039.0 443226.0 0
176823.0 443095.0 0
180618.0 442931.0 0
184423.0 442735.0 0
188228.0 442504.0 0
192023.0 442240.0 0
195804.0 441954.0 0
199565.0 441656.0 0
212577.0 443989.0 0
216329.0 443799.0 0
220095.0 443690.0 0
224001.0 443270.0 0
227407.0 441590.0 0
230517.0 443533.0 0
233789.0 441573.0 0
237061.0 443481.0 0
240307.0 441531.0 0
243606.0 443414.0 0
246840.0 441452.0 0
250168.0 443312.0 0
253379.0 441332.0 0
256718.0 443164.0 0
259904.0 441141.0 0
263248.0 442921.0 0
269793.0 442576.0 0
276233.0 442208.0 0
279702.0 443730.0 0
296537.0 441675.0 0
300292.0 441953.0 0
304074.0 442226.0 0
307869.0 442479.0 0
311667.0 442705.0 0
315461.0 442901.0 0
319250.0 443070.0 0
323033.0 443211.0 0
326810.0 443323.0 0
330576.0 443411.0 0
334335.0 443473.0 0
338090.0 443506.0 0
341849.0 443495.0 0
345613.0 443428.0 0
349373.0 443311.0 0
353137.0 443119.0 0
356901.0 442828.0 0
360655.0 442428.0 0
370276.0 444156.0 0
373641.0 443625.0 0
376729.0 442901.0 0
379505.0 445332.0 0
382505.0 443526.0 0
388719.0 443538.0 0
394958.0 444126.0 0
404590.0 442697.0 0
407815.0 444710.0 0
90216.9 445933.0 0
93433.9 447455.0 0
96739.1 445312.0 0
99956.5 446765.0 0
106481.0 446251.0 0
113189.0 446229.0 0
116799.0 447855.0 0
122976.0 445667.0 0
126679.0 446266.0 0
130415.0 446832.0 0
136438.0 444568.0 0
140258.0 445148.0 0
144118.0 445637.0 0
147993.0 446020.0 0
151863.0 446291.0 0
155711.0 446457.0 0
159535.0 446534.0 0
163340.0 446548.0 0
167134.0 446511.0 0
170929.0 446434.0 0
174728.0 446319.0 0
178535.0 446170.0 0
182349.0 445989.0 0
186166.0 445778.0 0
189979.0 445540.0 0
193780.0 445279.0 0
197567.0 445004.0 0
201337.0 444725.0 0
205092.0 444455.0 0
208837.0 444205.0 0
222225.0 446615.0 0
227097.0 445486.0 0
233809.0 445433.0 0
240350.0 445377.0 0
246937.0 445280.0 0
253513.0 445163.0 0
260066.0 444980.0 0
266599.0 444666.0 0
273189.0 444316.0 0
276701.0 446096.0 0
283531.0 444185.0 0
287295.0 444350.0 0
291024.0 444530.0 0
294768.0 444762.0 0
298529.0 445010.0 0
302310.0 445262.0 0
306108.0 445508.0 0
309916.0 445737.0 0
313728.0 445943.0 0
317538.0 446125.0 0
321345.0 446279.0 0
325147.0 446406.0 0
328943.0 446505.0 0
344110.0 446555.0 0
347907.0 446448.0 0
351706.0 446276.0 0
355502.0 446024.0 0
359283.0 445683.0 0
363028.0 445256.0 0
366707.0 444745.0 0
372672.0 447160.0 0
376186.0 446533.0 0
382480.0 447477.0 0
385579.0 445287.0 0
388918.0 447161.0 0
391870.0 445632.0 0
397838.0 446184.0 0
401244.0 444401.0 0
404459.0 446355.0 0
411100.0 446761.0 0
86952.8 447986.0 0
90214.7 449634.0 0
96662.1 448907.0 0
103160.0 448278.0 0
106325.0 449901.0 0
109583.0 447897.0 0
112482.0 449667.0 0
120624.0 448605.0 0
124363.0 449144.0 0
134155.0 447374.0 0
137950.0 447930.0 0
141794.0 448434.0 0
145666.0 448861.0 0
149548.0 449199.0 0
184097.0 449057.0 0
187929.0 448838.0 0
191751.0 448600.0 0
195562.0 448345.0 0
199358.0 448082.0 0
203142.0 447820.0 0
206917.0 447567.0 0
210690.0 447333.0 0
214476.0 447114.0 0
218295.0 446917.0 0
230547.0 447332.0 0
237067.0 447343.0 0
243687.0 447244.0 0
250287.0 447141.0 0
256869.0 447006.0 0
263423.0 446768.0 0
266799.0 448510.0 0
269953.0 446387.0 0
273290.0 448064.0 0
281407.0 447154.0 0
285336.0 447449.0 0
289165.0 447660.0 0
292952.0 447870.0 0
296737.0 448098.0 0
300530.0 448333.0 0
304335.0 448566.0 0
308152.0 448791.0 0
311976.0 449000.0 0
315805.0 449190.0 0
332733.0 446576.0 0
336522.0 446614.0 0
340314.0 446610.0 0
354054.0 449227.0 0
357870.0 448934.0 0
361660.0 448573.0 0
365405.0 448148.0 0
369083.0 447662.0 0
379002.0 449137.0 0
386051.0 448757.0 0
394222.0 448331.0 0
401062.0 448056.0 0
407741.0 448354.0 0
411066.0 450402.0 0
414435.0 448845.0 0
77885.8 453666.0 0
81159.3 451618.0 0
84825.2 450982.0 0
93458.3 451138.0 0
96658.0 452577.0 0
99880.1 450374.0 0
103081.0 451924.0 0
109430.0 451663.0 0
115372.0 451077.0 0
118622.0 451604.0 0
122158.0 452124.0 0
128108.0 449708.0 0
131870.0 450257.0 0
135656.0 450780.0 0
139485.0 451280.0 0
143349.0 451727.0 0
153427.0 449443.0 0
157291.0 449597.0 0
161137.0 449673.0 0
164967.0 449685.0 0
168789.0 449642.0 0
172609.0 449551.0 0
176433.0 449419.0 0
180263.0 449252.0 0
193551.0 451681.0 0
197372.0 451434.0 0
201180.0 451183.0 0
204980.0 450933.0 0
208774.0 450691.0 0
212569.0 450457.0 0
216372.0 450230.0 0
220187.0 449966.0 0
223931.0 449724.0 0
227509.0 449287.0 0
233727.0 449328.0 0
237175.0 451151.0 0
240427.0 449208.0 0
243759.0 451082.0 0
247033.0 449108.0 0
250406.0 450968.0 0
253655.0 449002.0 0
257038.0 450863.0 0
260226.0 448838.0 0
263567.0 450630.0 0
270239.0 450245.0 0
276314.0 449901.0 0
279833.0 450352.0 0
283520.0 450523.0 0
287314.0 450771.0 0
291117.0 450991.0 0
294919.0 451207.0 0
298726.0 451429.0 0
302543.0 451651.0 0
319633.0 449356.0 0
323458.0 449495.0 0
327280.0 449607.0 0
331099.0 449688.0 0
334917.0 449734.0 0
338739.0 449738.0 0
342565.0 449694.0 0
346394.0 449600.0 0
350225.0 449447.0 0
360246.0 451868.0 0
364052.0 451504.0 0
367818.0 451082.0 0
371541.0 450614.0 0
375262.0 450040.0 0
380806.0 452392.0 0
383751.0 451108.0 0
387395.0 452106.0 0
390782.0 450231.0 0
394031.0 452166.0 0
397603.0 449813.0 0
400937.0 451688.0 0
404352.0 450004.0 0
407663.0 452005.0 0
414437.0 452474.0 0
417890.0 451016.0 0
421284.0 453140.0 0
74574.3 455738.0 0
81324.4 455476.0 0
88266.4 452735.0 0
91764.9 454390.0 0
99818.2 454032.0 0
106280.0 453615.0 0
109581.0 455405.0 0
112610.0 453458.0 0
116062.0 454606.0 0
125827.0 452634.0 0
129569.0 453165.0 0
133355.0 453683.0 0
137179.0 454172.0 0
147235.0 452106.0 0
151130.0 452407.0 0
155023.0 452628.0 0
158904.0 452770.0 0
162770.0 452839.0 0
166624.0 452843.0 0
170469.0 452785.0 0
174314.0 452676.0 0
178164.0 452523.0 0
182021.0 452340.0 0
185873.0 452137.0 0
189718.0 451916.0 0
203033.0 454302.0 0
206848.0 454060.0 0
210661.0 453822.0 0
214477.0 453585.0 0
218305.0 453336.0 0
222141.0 453088.0 0
226034.0 452789.0 0
230426.0 451708.0 0
234004.0 453086.0 0
240474.0 453075.0 0
247128.0 452931.0 0
253795.0 452841.0 0
260436.0 452739.0 0
266872.0 452311.0 0
270029.0 453936.0 0
273646.0 452599.0 0
277713.0 453428.0 0
281609.0 453695.0 0
285429.0 453896.0 0
289251.0 454118.0 0
293073.0 454333.0 0
306370.0 451868.0 0
310206.0 452075.0 0
314050.0 452268.0 0
317897.0 452442.0 0
321744.0 452593.0 0
325590.0 452717.0 0
329434.0 452810.0 0
333278.0 452866.0 0
337126.0 452880.0 0
340979.0 452847.0 0
344837.0 452765.0 0
348698.0 452629.0 0
352558.0 452435.0 0
356411.0 452181.0 0
366444.0 454469.0 0
370212.0 454062.0 0
373915.0 453581.0 0
377491.0 453004.0 0
383732.0 454934.0 0
390682.0 454028.0 0
397512.0 453416.0 0
404253.0 453672.0 0
407559.0 455681.0 0
410997.0 454047.0 0
417905.0 454834.0 0
424866.0 455383.0 0
71232.5 457830.0 0
78027.4 457559.0 0
85059.4 454818.0 0
88556.4 456538.0 0
95317.1 455986.0 0
98916.7 457555.0 0
102973.0 455573.0 0
106206.0 457236.0 0
113109.0 457199.0 0
119709.0 455121.0 0
123451.0 455604.0 0
127221.0 456108.0 0
131023.0 456613.0 0
134856.0 457100.0 0
141040.0 454627.0 0
144926.0 455030.0 0
148828.0 455370.0 0
152739.0 455642.0 0
156648.0 455842.0 0
160549.0 455970.0 0
164436.0 456030.0 0
168310.0 456019.0 0
172178.0 455939.0 0
176052.0 455802.0 0
179936.0 455625.0 0
183815.0 455436.0 0
187682.0 455232.0 0
191537.0 455014.0 0
195380.0 454783.0 0
199212.0 454544.0 0
212570.0 456962.0 0
216395.0 456718.0 0
220214.0 456470.0 0
224021.0 456199.0 0
227763.0 455946.0 0
231391.0 455544.0 0
237170.0 455061.0 0
243842.0 454916.0 0
250513.0 454788.0 0
257201.0 454712.0 0
263857.0 454587.0 0
267276.0 456527.0 0
272466.0 456355.0 0
276042.0 456625.0 0
279759.0 456822.0 0
296896.0 454545.0 0
300726.0 454758.0 0
304565.0 454967.0 0
308413.0 455169.0 0
312271.0 455361.0 0
316135.0 455539.0 0
320003.0 455700.0 0
323871.0 455836.0 0
327738.0 455942.0 0
331606.0 456011.0 0
335477.0 456036.0 0
339355.0 456014.0 0
343239.0 455944.0 0
347127.0 455823.0 0
351017.0 455651.0 0
354902.0 455427.0 0
358774.0 455152.0 0
362626.0 454834.0 0
368869.0 457467.0 0
372684.0 457060.0 0
376443.0 456575.0 0
380134.0 455986.0 0
387303.0 455696.0 0
390383.0 457886.0 0
393829.0 456096.0 0
397428.0 456988.0 0
400847.0 455343.0 0
410901.0 457718.0 0
414355.0 456119.0 0
417973.0 458695.0 0
421401.0 456994.0 0
428248.0 457503.0 0
67864.7 459938.0 0
74704.2 459666.0 0
78189.6 461491.0 0
81503.9 459363.0 0
85293.0 458652.0 0
92085.7 458166.0 0
95644.1 459728.0 0
102546.0 459126.0 0
109612.0 458958.0 0
117037.0 458031.0 0
120955.0 458533.0 0
124799.0 459057.0 0
128643.0 459561.0 0
138720.0 457557.0 0
142611.0 457976.0 0
146521.0 458343.0 0
150445.0 458651.0 0
154375.0 458898.0 0
158305.0 459080.0 0
162225.0 459198.0 0
166132.0 459244.0 0
170029.0 459211.0 0
173925.0 459091.0 0
177849.0 458909.0 0
181756.0 458733.0 0
185647.0 458546.0 0
189523.0 458346.0 0
193387.0 458131.0 0
197239.0 457906.0 0
201081.0 457673.0 0
204915.0 457437.0 0
208744.0 457200.0 0
225968.0 459372.0 0
229789.0 459073.0 0
233609.0 458652.0 0
237388.0 458815.0 0
240586.0 456937.0 0
243876.0 458775.0 0
247203.0 456753.0 0
250616.0 458590.0 0
253918.0 456679.0 0
257320.0 458543.0 0
260617.0 456636.0 0
264030.0 458503.0 0
270044.0 459279.0 0
283561.0 457054.0 0
287376.0 457262.0 0
291206.0 457473.0 0
295042.0 457680.0 0
298885.0 457885.0 0
302736.0 458086.0 0
306595.0 458283.0 0
310465.0 458471.0 0
314343.0 458648.0 0
318230.0 458813.0 0
322122.0 458962.0 0
326012.0 459083.0 0
329901.0 459167.0 0
333794.0 459207.0 0
337693.0 459196.0 0
341601.0 459137.0 0
345514.0 459030.0 0
349431.0 458875.0 0
353346.0 458674.0 0
357254.0 458430.0 0
361148.0 458148.0 0
365022.0 457828.0 0
379067.0 459527.0 0
382926.0 458731.0 0
386766.0 459202.0 0
393434.0 460037.0 0
400703.0 459048.0 0
404118.0 457396.0 0
407411.0 459361.0 0
414297.0 459795.0 0
421295.0 460908.0 0
424791.0 459271.0 0
428105.0 461467.0 0
431621.0 459617.0 0
71360.0 461791.0 0
74875.8 463639.0 0
81680.0 463285.0 0
85523.0 462513.0 0
88818.7 460351.0 0
92372.0 461955.0 0
99220.3 461251.0 0
102787.0 462771.0 0
106151.0 460749.0 0
110868.0 462253.0 0
114368.0 460787.0 0
118489.0 461401.0 0
122354.0 461991.0 0
132502.0 460048.0 0
136382.0 460511.0 0
140283.0 460942.0 0
144203.0 461330.0 0
148138.0 461667.0 0
152084.0 461948.0 0
156040.0 462171.0 0
179707.0 462026.0 0
183618.0 461860.0 0
187513.0 461678.0 0
191394.0 461480.0 0
195265.0 461269.0 0
199126.0 461048.0 0
202978.0 460820.0 0
206823.0 460588.0 0
210663.0 460354.0 0
214499.0 460115.0 0
218330.0 459873.0 0
222156.0 459622.0 0
240551.0 460980.0 0
247328.0 460545.0 0
253975.0 460545.0 0
260719.0 460572.0 0
273962.0 459777.0 0
277811.0 460016.0 0
281637.0 460219.0 0
285474.0 460428.0 0
289315.0 460630.0 0
293163.0 460832.0 0
297019.0 461030.0 0
300881.0 461225.0 0
304752.0 461415.0 0
308632.0 461599.0 0
312522.0 461773.0 0
316422.0 461936.0 0
320333.0 462088.0 0
347802.0 462112.0 0
351744.0 461928.0 0
355684.0 461705.0 0
359615.0 461450.0 0
363534.0 461165.0 0
367440.0 460843.0 0
371328.0 460481.0 0
375203.0 460056.0 0
385422.0 462492.0 0
389704.0 461740.0 0
397181.0 460527.0 0
403933.0 461216.0 0
407299.0 463002.0 0
410802.0 461378.0 0
414135.0 463545.0 0
417842.0 462582.0 0
424526.0 463226.0 0
89091.3 464189.0 0
95947.3 463489.0 0
99531.6 464986.0 0
106368.0 464264.0 0
109892.0 465656.0 0
116012.0 464189.0 0
119866.0 464913.0 0
126226.0 462515.0 0
130112.0 463006.0 0
134016.0 463476.0 0
137934.0 463922.0 0
141866.0 464329.0 0
145814.0 464690.0 0
159990.0 462344.0 0
163928.0 462452.0 0
167856.0 462478.0 0
171788.0 462407.0 0
175770.0 462187.0 0
193293.0 464634.0 0
197171.0 464426.0 0
201040.0 464208.0 0
204902.0 463984.0 0
208756.0 463755.0 0
212606.0 463522.0 0
216450.0 463285.0 0
220291.0 463042.0 0
224127.0 462794.0 0
227967.0 462520.0 0
231803.0 462202.0 0
235589.0 462018.0 0
244089.0 462537.0 0
247315.0 464388.0 0
250697.0 462403.0 0
257291.0 462308.0 0
264193.0 462329.0 0
268031.0 462484.0 0
271885.0 462814.0 0
275794.0 463155.0 0
279674.0 463393.0 0
283536.0 463601.0 0
287397.0 463803.0 0
291261.0 463999.0 0
295128.0 464192.0 0
299002.0 464382.0 0
302884.0 464567.0 0
306773.0 464746.0 0
324252.0 462229.0 0
328164.0 462335.0 0
332076.0 462392.0 0
335996.0 462395.0 0
339925.0 462346.0 0
343862.0 462252.0 0
358028.0 464749.0 0
361982.0 464489.0 0
365928.0 464199.0 0
369865.0 463875.0 0
373795.0 463498.0 0
377714.0 463052.0 0
381601.0 462456.0 0
392941.0 463858.0 0
396826.0 464063.0 0
400412.0 462765.0 0
407061.0 466585.0 0
410634.0 465075.0 0
418144.0 466491.0 0
81885.5 467220.0 0
85793.5 466410.0 0
89433.5 468057.0 0
92690.0 465769.0 0
96307.0 467280.0 0
103137.0 466453.0 0
106774.0 467894.0 0
113507.0 466919.0 0
117315.0 467839.0 0
123773.0 465467.0 0
127688.0 465974.0 0
131623.0 466443.0 0
135564.0 466910.0 0
149775.0 465002.0 0
153755.0 465251.0 0
157727.0 465469.0 0
161690.0 465638.0 0
165642.0 465738.0 0
169588.0 465729.0 0
173755.0 465457.0 0
177689.0 465320.0 0
181605.0 465177.0 0
185509.0 465013.0 0
189406.0 464831.0 0
206850.0 467164.0 0
210714.0 466938.0 0
214571.0 466706.0 0
218425.0 466469.0 0
222274.0 466225.0 0
226122.0 465968.0 0
229961.0 465691.0 0
233770.0 465448.0 0
237591.0 465162.0 0
241308.0 464884.0 0
250736.0 466082.0 0
254514.0 465097.0 0
258414.0 465751.0 0
262226.0 465620.0 0
266089.0 465781.0 0
269928.0 466000.0 0
273797.0 466280.0 0
277692.0 466553.0 0
281578.0 466780.0 0
285457.0 466985.0 0
289336.0 467181.0 0
310671.0 464916.0 0
314580.0 465076.0 0
318501.0 465224.0 0
322437.0 465363.0 0
326391.0 465508.0 0
330324.0 465593.0 0
334263.0 465609.0 0
338213.0 465572.0 0
342170.0 465487.0 0
346136.0 465361.0 0
350101.0 465193.0 0
354067.0 464985.0 0
364346.0 467547.0 0
368312.0 467255.0 0
372273.0 466924.0 0
376228.0 466538.0 0
380183.0 466094.0 0
384127.0 465965.0 0
388023.0 465294.0 0
395056.0 467168.0 0
399815.0 466533.0 0
403484.0 465135.0 0
410576.0 468773.0 0
414274.0 467371.0 0
86159.3 470324.0 0
93098.6 469614.0 0
99941.9 468740.0 0
103602.0 470152.0 0
110490.0 469281.0 0
121293.0 468404.0 0
125239.0 468950.0 0
129207.0 469417.0 0
133162.0 469885.0 0
139507.0 467340.0 0
143467.0 467721.0 0
147439.0 468061.0 0
151461.0 468326.0 0
155443.0 468581.0 0
159418.0 468803.0 0
163381.0 468976.0 0
167320.0 469074.0 0
171763.0 468692.0 0
175691.0 468619.0 0
179602.0 468502.0 0
183513.0 468355.0 0
187421.0 468188.0 0
191323.0 468004.0 0
195217.0 467808.0 0
199103.0 467601.0 0
202981.0 467386.0 0
216560.0 469905.0 0
220421.0 469667.0 0
224279.0 469420.0 0
228132.0 469162.0 0
231977.0 468909.0 0
235832.0 468643.0 0
239697.0 468382.0 0
243608.0 468037.0 0
247498.0 468147.0 0
252656.0 469140.0 0
256435.0 468960.0 0
260341.0 469036.0 0
264167.0 469082.0 0
268007.0 469260.0 0
271856.0 469483.0 0
275728.0 469728.0 0
293216.0 467371.0 0
297101.0 467557.0 0
300992.0 467737.0 0
304890.0 467912.0 0
308796.0 468079.0 0
312710.0 468236.0 0
316634.0 468381.0 0
320571.0 468512.0 0
324529.0 468635.0 0
328542.0 468808.0 0
332502.0 468845.0 0
336468.0 468814.0 0
340446.0 468741.0 0
344427.0 468620.0 0
348421.0 468473.0 0
352411.0 468276.0 0
356395.0 468053.0 0
360374.0 467810.0 0
374630.0 470012.0 0
378569.0 469639.0 0
382466.0 469329.0 0
386687.0 468990.0 0
391243.0 467312.0 0
397878.0 469803.0 0
402779.0 469077.0 0
406915.0 470153.0 0
413701.0 471228.0 0
89902.3 471951.0 0
93630.3 473497.0 0
96772.7 471094.0 0
100463.0 472515.0 0
107320.0 471502.0 0
111211.0 472890.0 0
114523.0 470671.0 0
118831.0 471338.0 0
122773.0 471929.0 0
126807.0 472406.0 0
137131.0 470360.0 0
141102.0 470762.0 0
145079.0 471123.0 0
149157.0 471399.0 0
153142.0 471687.0 0
157122.0 471950.0 0
161091.0 472185.0 0
165033.0 472381.0 0
169762.0 471892.0 0
173683.0 471911.0 0
177596.0 471838.0 0
181516.0 471707.0 0
185438.0 471551.0 0
189356.0 471379.0 0
193267.0 471194.0 0
197169.0 470998.0 0
201062.0 470793.0 0
204947.0 470581.0 0
208824.0 470361.0 0
212695.0 470136.0 0
230157.0 472379.0 0
234018.0 472119.0 0
237884.0 471853.0 0
241767.0 471574.0 0
245617.0 471446.0 0
249566.0 471394.0 0
279615.0 469965.0 0
283505.0 470178.0 0
287394.0 470376.0 0
291284.0 470565.0 0
295179.0 470748.0 0
299079.0 470925.0 0
302985.0 471096.0 0
306898.0 471261.0 0
310818.0 471417.0 0
314745.0 471561.0 0
318679.0 471691.0 0
322619.0 471803.0 0
326571.0 471903.0 0
330744.0 472110.0 0
334710.0 472087.0 0
338689.0 472007.0 0
342693.0 471907.0 0
346684.0 471748.0 0
350731.0 471581.0 0
354733.0 471369.0 0
358725.0 471139.0 0
362713.0 470897.0 0
366693.0 470634.0 0
370667.0 470343.0 0
384785.0 472439.0 0
390166.0 470895.0 0
394053.0 470723.0 0
400588.0 472543.0 0
404348.0 472703.0 0
409968.0 472530.0 0
86654.6 474248.0 0
90454.5 475861.0 0
97348.5 474935.0 0
104187.0 473852.0 0
107976.0 475103.0 0
112975.0 476211.0 0
116258.0 474176.0 0
120294.0 474903.0 0
130749.0 472886.0 0
134700.0 473339.0 0
138741.0 473821.0 0
142718.0 474196.0 0
146839.0 474474.0 0
150824.0 474791.0 0
154808.0 475085.0 0
179511.0 475067.0 0
183454.0 474921.0 0
187391.0 474759.0 0
191320.0 474585.0 0
195239.0 474401.0 0
199149.0 474206.0 0
203048.0 474003.0 0
206939.0 473793.0 0
210823.0 473575.0 0
214700.0 473351.0 0
218571.0 473119.0 0
222437.0 472879.0 0
226299.0 472631.0 0
243767.0 474876.0 0
247659.0 474752.0 0
251576.0 474734.0 0
254536.0 472367.0 0
258387.0 472335.0 0
262252.0 472426.0 0
266087.0 472550.0 0
269931.0 472737.0 0
273788.0 472951.0 0
277662.0 473173.0 0
281548.0 473388.0 0
285441.0 473587.0 0
289338.0 473775.0 0
293239.0 473956.0 0
297147.0 474130.0 0
301060.0 474299.0 0
304980.0 474461.0 0
308906.0 474616.0 0
312839.0 474761.0 0
316778.0 474895.0 0
320718.0 475012.0 0
324657.0 475102.0 0
344970.0 475066.0 0
348964.0 474872.0 0
353042.0 474699.0 0
357051.0 474481.0 0
361045.0 474253.0 0
365036.0 474016.0 0
369018.0 473759.0 0
372989.0 473475.0 0
376941.0 473160.0 0
380859.0 472836.0 0
388271.0 474088.0 0
393031.0 474345.0 0
396832.0 473531.0 0
407323.0 475292.0 0
412891.0 475110.0 0
87226.3 478185.0 0
94253.2 477411.0 0
101090.0 476315.0 0
104882.0 477550.0 0
108633.0 478740.0 0
117720.0 477769.0 0
124426.0 475394.0 0
128353.0 475922.0 0
132292.0 476377.0 0
136255.0 476788.0 0
140375.0 477290.0 0
144512.0 477564.0 0
158780.0 475366.0 0
162729.0 475635.0 0
167715.0 475052.0 0
171647.0 475191.0 0
175570.0 475181.0 0
197242.0 477625.0 0
201157.0 477433.0 0
205062.0 477231.0 0
208958.0 477022.0 0
212846.0 476805.0 0
216728.0 476581.0 0
220602.0 476349.0 0
224470.0 476108.0 0
228333.0 475861.0 0
232195.0 475606.0 0
236054.0 475345.0 0
239912.0 475077.0 0
256424.0 475659.0 0
260295.0 475729.0 0
264152.0 475860.0 0
267999.0 476021.0 0
271851.0 476213.0 0
275715.0 476418.0 0
279592.0 476622.0 0
283481.0 476818.0 0
287380.0 477004.0 0
291285.0 477182.0 0
295197.0 477353.0 0
299116.0 477519.0 0
303041.0 477679.0 0
328608.0 475146.0 0
332969.0 475407.0 0
336934.0 475319.0 0
340916.0 475191.0 0
355342.0 477834.0 0
359351.0 477622.0 0
363344.0 477402.0 0
367333.0 477174.0 0
371315.0 476928.0 0
375285.0 476659.0 0
379234.0 476371.0 0
383162.0 476018.0 0
390619.0 477178.0 0
395754.0 477270.0 0
399598.0 476353.0 0
403517.0 476354.0 0
410254.0 478071.0 0
91065.0 479789.0 0
97994.2 478800.0 0
101933.0 480115.0 0
112243.0 479924.0 0
122052.0 478371.0 0
125955.0 478976.0 0
129897.0 479460.0 0
133866.0 479863.0 0
137842.0 480239.0 0
148496.0 477898.0 0
152480.0 478214.0 0
156453.0 478526.0 0
160403.0 478848.0 0
165591.0 478175.0 0
169546.0 478428.0 0
173510.0 478535.0 0
177495.0 478430.0 0
181469.0 478295.0 0
185431.0 478142.0 0
189381.0 477980.0 0
193317.0 477807.0 0
211003.0 480268.0 0
214895.0 480052.0 0
218778.0 479829.0 0
222653.0 479596.0 0
226520.0 479356.0 0
230381.0 479107.0 0
234236.0 478855.0 0
238081.0 478599.0 0
241911.0 478349.0 0
245772.0 478161.0 0
249662.0 478078.0 0
253563.0 478117.0 0
258299.0 479011.0 0
262179.0 479152.0 0
266044.0 479316.0 0
269902.0 479498.0 0
273762.0 479692.0 0
277631.0 479887.0 0
281515.0 480074.0 0
285411.0 480254.0 0
306974.0 477832.0 0
310915.0 477978.0 0
314861.0 478114.0 0
318812.0 478238.0 0
322763.0 478345.0 0
326707.0 478397.0 0
330659.0 478370.0 0
335213.0 478687.0 0
339180.0 478537.0 0
343164.0 478363.0 0
347261.0 478222.0 0
351255.0 478008.0 0
369604.0 480373.0 0
373586.0 480140.0 0
377562.0 479888.0 0
381537.0 479607.0 0
386745.0 477552.0 0
398544.0 480134.0 0
402521.0 480030.0 0
406406.0 479060.0 0
98936.1 482631.0 0
105724.0 481317.0 0
109446.0 482530.0 0
115758.0 481038.0 0
119583.0 481242.0 0
123524.0 482042.0 0
127486.0 482559.0 0
131509.0 482975.0 0
142192.0 480680.0 0
146170.0 481018.0 0
150151.0 481346.0 0
154122.0 481676.0 0
158071.0 482027.0 0
163378.0 481289.0 0
167342.0 481609.0 0
171336.0 481842.0 0
175505.0 481805.0 0
179499.0 481672.0 0
183483.0 481528.0 0
187452.0 481377.0 0
191406.0 481218.0 0
195347.0 481049.0 0
199275.0 480869.0 0
203194.0 480678.0 0
207102.0 480477.0 0
228589.0 482621.0 0
232442.0 482374.0 0
236288.0 482132.0 0
240107.0 481893.0 0
243899.0 481618.0 0
247756.0 481451.0 0
251619.0 481442.0 0
255503.0 481534.0 0
260160.0 482416.0 0
264051.0 482600.0 0
289317.0 480428.0 0
293231.0 480595.0 0
297154.0 480757.0 0
301084.0 480914.0 0
305022.0 481065.0 0
308967.0 481210.0 0
312921.0 481346.0 0
316884.0 481474.0 0
320852.0 481590.0 0
324827.0 481687.0 0
328786.0 481681.0 0
332748.0 481570.0 0
337476.0 481940.0 0
341445.0 481740.0 0
345431.0 481534.0 0
349547.0 481384.0 0
353540.0 481167.0 0
357618.0 480997.0 0
361624.0 480798.0 0
365616.0 480590.0 0
385255.0 480996.0 0
389201.0 480700.0 0
393132.0 480129.0 0
401535.0 483766.0 0
405392.0 482809.0 0
95957.0 485223.0 0
102902.0 483943.0 0
106715.0 485153.0 0
113032.0 483901.0 0
116869.0 484628.0 0
120783.0 484844.0 0
125106.0 485696.0 0
135497.0 483345.0 0
139631.0 483622.0 0
143853.0 484160.0 0
147831.0 484489.0 0
151801.0 484826.0 0
155750.0 485187.0 0
161099.0 484423.0 0
165057.0 484771.0 0
169039.0 485063.0 0
173411.0 485121.0 0
177562.0 485065.0 0
181557.0 484919.0 0
185541.0 484778.0 0
189510.0 484633.0 0
193464.0 484478.0 0
197407.0 484311.0 0
201338.0 484131.0 0
205259.0 483940.0 0
209171.0 483739.0 0
213076.0 483532.0 0
216969.0 483317.0 0
220852.0 483095.0 0
224723.0 482862.0 0
242159.0 485220.0 0
245869.0 484854.0 0
249667.0 484803.0 0
253508.0 484842.0 0
257380.0 484968.0 0
267928.0 482790.0 0
271793.0 482987.0 0
275658.0 483180.0 0
279538.0 483357.0 0
283431.0 483529.0 0
287336.0 483696.0 0
291250.0 483858.0 0
295174.0 484015.0 0
299107.0 484168.0 0
303048.0 484317.0 0
306998.0 484459.0 0
310956.0 484594.0 0
314924.0 484722.0 0
318903.0 484841.0 0
322891.0 484948.0 0
326935.0 485028.0 0
330923.0 484934.0 0
334897.0 484759.0 0
339746.0 485166.0 0
343717.0 484937.0 0
347703.0 484717.0 0
351813.0 484564.0 0
355807.0 484358.0 0
359863.0 484196.0 0
363864.0 484011.0 0
367852.0 483819.0 0
371838.0 483617.0 0
375816.0 483395.0 0
379790.0 483155.0 0
383559.0 484341.0 0
387647.0 484197.0 0
391728.0 483763.0 0
395818.0 482961.0 0
99938.0 486471.0 0
103938.0 487780.0 0
110329.0 486851.0 0
114232.0 487626.0 0
118198.0 488124.0 0
129159.0 486101.0 0
133189.0 486483.0 0
137304.0 486770.0 0
141283.0 487108.0 0
145526.0 487650.0 0
149496.0 487984.0 0
158789.0 487591.0 0
187632.0 488053.0 0
191598.0 487913.0 0
195552.0 487759.0 0
199497.0 487593.0 0
203431.0 487413.0 0
207354.0 487220.0 0
211270.0 487017.0 0
215179.0 486814.0 0
219069.0 486602.0 0
222947.0 486383.0 0
226817.0 486142.0 0
230678.0 485909.0 0
234524.0 485661.0 0
238362.0 485446.0 0
262020.0 485861.0 0
265921.0 486067.0 0
269805.0 486286.0 0
273664.0 486496.0 0
277545.0 486664.0 0
281437.0 486827.0 0
285340.0 486987.0 0
289254.0 487142.0 0
293177.0 487293.0 0
297111.0 487441.0 0
301054.0 487586.0 0
305006.0 487727.0 0
308966.0 487861.0 0
312937.0 487986.0 0
337103.0 487956.0 0
349964.0 487923.0 0
354050.0 487771.0 0
358044.0 487587.0 0
362075.0 487434.0 0
366066.0 487268.0 0
370055.0 487088.0 0
374042.0 486900.0 0
378017.0 486694.0 0
381843.0 487729.0 0
385824.0 487580.0 0
390120.0 487325.0 0
394452.0 486644.0 0
398350.0 485981.0 0
404312.0 486597.0 0
97155.3 489263.0 0
101010.0 490311.0 0
107474.0 489637.0 0
122168.0 488334.0 0
126904.0 489308.0 0
130894.0 489642.0 0
135005.0 489949.0 0
138986.0 490287.0 0
142965.0 490608.0 0
153451.0 488343.0 0
162741.0 487942.0 0
166714.0 488262.0 0
171125.0 488321.0 0
175514.0 488402.0 0
179661.0 488324.0 0
183654.0 488183.0 0
209482.0 490515.0 0
213400.0 490308.0 0
217314.0 490121.0 0
221186.0 489912.0 0
225079.0 489679.0 0
228928.0 489446.0 0
232805.0 489210.0 0
236629.0 488969.0 0
240513.0 488782.0 0
244215.0 489972.0 0
247604.0 488165.0 0
251474.0 488181.0 0
255324.0 488266.0 0
259201.0 488391.0 0
263890.0 489330.0 0
267786.0 489558.0 0
271642.0 489837.0 0
275531.0 489993.0 0
279426.0 490148.0 0
283328.0 490300.0 0
287241.0 490449.0 0
291163.0 490594.0 0
316918.0 488103.0 0
320912.0 488218.0 0
324935.0 488302.0 0
329136.0 488323.0 0
333127.0 488168.0 0
342003.0 488380.0 0
345977.0 488141.0 0
364249.0 490716.0 0
368238.0 490562.0 0
372224.0 490394.0 0
392872.0 490207.0 0
397170.0 489716.0 0
401075.0 488882.0 0
98558.1 493388.0 0
104475.0 492519.0 0
111605.0 490655.0 0
115735.0 491221.0 0
119827.0 491530.0 0
123798.0 491731.0 0
128695.0 492880.0 0
132734.0 493158.0 0
147212.0 491156.0 0
151176.0 491503.0 0
156467.0 490796.0 0
160416.0 491136.0 0
164384.0 491460.0 0
168818.0 491518.0 0
173226.0 491590.0 0
177662.0 491673.0 0
181788.0 491594.0 0
185771.0 491478.0 0
189745.0 491353.0 0
193712.0 491214.0 0
197670.0 491061.0 0
201618.0 490893.0 0
205556.0 490712.0 0
223357.0 493183.0 0
227223.0 493047.0 0
231084.0 492710.0 0
234890.0 493184.0 0
238650.0 492281.0 0
246151.0 493465.0 0
249408.0 491496.0 0
253260.0 491606.0 0
257124.0 491688.0 0
261005.0 491786.0 0
265781.0 492814.0 0
295096.0 490735.0 0
299039.0 490875.0 0
302992.0 491012.0 0
306954.0 491145.0 0
310926.0 491270.0 0
314906.0 491386.0 0
318895.0 491493.0 0
322934.0 491594.0 0
327105.0 491594.0 0
331374.0 491594.0 0
335365.0 491403.0 0
339339.0 491178.0 0
344235.0 491594.0 0
348213.0 491362.0 0
352202.0 491161.0 0
356249.0 491015.0 0
360243.0 490856.0 0
376208.0 490225.0 0
380079.0 491117.0 0
384075.0 491026.0 0
388194.0 490741.0 0
395443.0 493247.0 0
399868.0 492668.0 0
108705.0 493422.0 0
113259.0 494307.0 0
117488.0 494709.0 0
121487.0 494958.0 0
125460.0 495124.0 0
136717.0 493496.0 0
140699.0 493816.0 0
144672.0 494122.0 0
148929.0 494671.0 0
154150.0 494034.0 0
158097.0 494361.0 0
162060.0 494672.0 0
166502.0 494719.0 0
170934.0 494785.0 0
175379.0 494848.0 0
179831.0 494946.0 0
183912.0 494906.0 0
187901.0 494799.0 0
191883.0 494676.0 0
195856.0 494535.0 0
199820.0 494380.0 0
203774.0 494211.0 0
207718.0 494026.0 0
211650.0 493820.0 0
215563.0 493609.0 0
219458.0 493493.0 0
242304.0 493386.0 0
251130.0 494932.0 0
255058.0 495028.0 0
258955.0 495093.0 0
262838.0 495139.0 0
269629.0 493229.0 0
273510.0 493346.0 0
277401.0 493490.0 0
281301.0 493637.0 0
285211.0 493777.0 0
289131.0 493917.0 0
293062.0 494049.0 0
297002.0 494183.0 0
300954.0 494316.0 0
304917.0 494447.0 0
308891.0 494572.0 0
312876.0 494689.0 0
316869.0 494794.0 0
320887.0 494877.0 0
325095.0 494898.0 0
329322.0 494873.0 0
333623.0 494854.0 0
337609.0 494657.0 0
341584.0 494434.0 0
346433.0 494820.0 0
350414.0 494610.0 0
354401.0 494436.0 0
358408.0 494301.0 0
362401.0 494162.0 0
366394.0 494034.0 0
370378.0 493889.0 0
374360.0 493742.0 0
378253.0 494505.0 0
382249.0 494448.0 0
386419.0 494244.0 0
390934.0 493609.0 0
101933.0 495642.0 0
105888.0 496261.0 0
110377.0 497031.0 0
115094.0 497862.0 0
119231.0 498206.0 0
123218.0 498390.0 0
130525.0 496422.0 0
134487.0 496741.0 0
138469.0 497051.0 0
142452.0 497361.0 0
146431.0 497628.0 0
151843.0 497292.0 0
155787.0 497618.0 0
159724.0 497925.0 0
163638.0 498225.0 0
194583.0 498235.0 0
198492.0 498065.0 0
202400.0 497883.0 0
206301.0 497683.0 0
210190.0 497448.0 0
214083.0 497202.0 0
217970.0 497201.0 0
221819.0 496734.0 0
225773.0 496772.0 0
229689.0 496338.0 0
233670.0 496982.0 0
237558.0 496103.0 0
241375.0 497169.0 0
245280.0 497291.0 0
249093.0 498238.0 0
253036.0 498367.0 0
256977.0 498438.0 0
260927.0 498457.0 0
264988.0 498314.0 0
268759.0 497092.0 0
272736.0 497193.0 0
276712.0 497339.0 0
280673.0 497491.0 0
284639.0 497628.0 0
288597.0 497768.0 0
292559.0 497895.0 0
296518.0 498026.0 0
300474.0 498156.0 0
304424.0 498283.0 0
308366.0 498402.0 0
312301.0 498508.0 0
331898.0 498325.0 0
335866.0 498138.0 0
339844.0 497935.0 0
343820.0 497722.0 0
348592.0 498071.0 0
352570.0 497897.0 0
356550.0 497750.0 0
360540.0 497622.0 0
364529.0 497503.0 0
368512.0 497384.0 0
372491.0 497251.0 0
376397.0 497917.0 0
380380.0 497858.0 0
384535.0 497702.0 0
389176.0 497122.0 0
393477.0 496669.0 0
398080.0 496232.0 0
100091.0 499543.0 0
104076.0 499831.0 0
108046.0 500245.0 0
112192.0 500575.0 0
127183.0 498508.0 0
133125.0 500460.0 0
137086.0 500728.0 0
149313.0 500377.0 0
167513.0 498468.0 0
171361.0 498635.0 0
175200.0 498715.0 0
179044.0 498724.0 0
182906.0 498650.0 0
186786.0 498532.0 0
190679.0 498392.0 0
212437.0 500735.0 0
223264.0 500355.0 0
227187.0 500594.0 0
231065.0 499996.0 0
234853.0 500851.0 0
238643.0 499931.0 0
246422.0 501097.0 0
270695.0 500584.0 0
274649.0 500689.0 0
278602.0 500854.0 0
282575.0 500974.0 0
316227.0 498597.0 0
320141.0 498652.0 0
324048.0 498616.0 0
327963.0 498497.0 0
358666.0 501091.0 0
362651.0 500976.0 0
366633.0 500875.0 0
387281.0 500588.0 0
391697.0 500210.0 0
395816.0 499901.0 0
399824.0 499821.0 0
116921.0 501416.0 0
121045.0 501686.0 0
125033.0 501822.0 0
129352.0 501653.0 0
141041.0 501018.0 0
144993.0 501212.0 0
153495.0 500887.0 0
157458.0 501203.0 0
161408.0 501502.0 0
165348.0 501778.0 0
169276.0 501990.0 0
173199.0 502107.0 0
177120.0 502145.0 0
181043.0 502113.0 0
184961.0 502025.0 0
188878.0 501901.0 0
192800.0 501753.0 0
196727.0 501590.0 0
200656.0 501415.0 0
204586.0 501226.0 0
208512.0 501010.0 0
219317.0 500960.0 0
242458.0 501009.0 0
251005.0 501711.0 0
254981.0 501795.0 0
258960.0 501816.0 0
262955.0 501743.0 0
266914.0 501669.0 0
286532.0 501123.0 0
290499.0 501241.0 0
294462.0 501368.0 0
298423.0 501497.0 0
302382.0 501627.0 0
306339.0 501750.0 0
310295.0 501863.0 0
314252.0 501960.0 0
318213.0 502032.0 0
322183.0 502051.0 0
326154.0 501977.0 0
330121.0 501826.0 0
334092.0 501637.0 0
338072.0 501437.0 0
342057.0 501236.0 0
346035.0 501042.0 0
350709.0 501364.0 0
354686.0 501222.0 0
370611.0 500758.0 0
374537.0 501351.0 0
378517.0 501294.0 0
382601.0 501144.0 0
101875.0 503478.0 0
105869.0 503586.0 0
109862.0 503803.0 0
114012.0 504123.0 0
118797.0 504937.0 0
122910.0 505159.0 0
127233.0 505032.0 0
131193.0 505042.0 0
135010.0 504086.0 0
138964.0 504361.0 0
142940.0 504567.0 0
147111.0 504533.0 0
151064.0 504035.0 0
155207.0 504486.0 0
159186.0 504787.0 0
163161.0 505070.0 0
167143.0 505319.0 0
171142.0 505479.0 0
175129.0 505542.0 0
179103.0 505545.0 0
183065.0 505499.0 0
187015.0 505403.0 0
190965.0 505271.0 0
194914.0 505116.0 0
198866.0 504946.0 0
202820.0 504762.0 0
206778.0 504565.0 0
210725.0 504325.0 0
214665.0 503945.0 0
218430.0 504877.0 0
222238.0 504134.0 0
226129.0 504443.0 0
229975.0 503786.0 0
233781.0 504690.0 0
237578.0 503736.0 0
241320.0 504835.0 0
245199.0 504841.0 0
249095.0 505112.0 0
253016.0 505185.0 0
256981.0 505203.0 0
260961.0 505175.0 0
264921.0 505118.0 0
268860.0 505041.0 0
272660.0 504100.0 0
276596.0 504290.0 0
280543.0 504339.0 0
284493.0 504519.0 0
288456.0 504606.0 0
292414.0 504732.0 0
296376.0 504855.0 0
300337.0 504984.0 0
304302.0 505110.0 0
308271.0 505226.0 0
312246.0 505326.0 0
316232.0 505406.0 0
320228.0 505455.0 0
324267.0 505435.0 0
328296.0 505328.0 0
332288.0 505152.0 0
336276.0 504952.0 0
340263.0 504747.0 0
344251.0 504561.0 0
348236.0 504422.0 0
352801.0 504701.0 0
356782.0 504575.0 0
360762.0 504456.0 0
364741.0 504361.0 0
368716.0 504267.0 0
372657.0 504786.0 0
376645.0 504755.0 0
380704.0 504613.0 0
385323.0 504040.0 0
389775.0 503698.0 0
394000.0 503467.0 0
398000.0 503475.0 0
100804.0 507529.0 0
104794.0 507494.0 0
108771.0 507639.0 0
112740.0 507893.0 0
116701.0 508307.0 0
120703.0 508442.0 0
125157.0 508420.0 0
129166.0 508465.0 0
133180.0 508382.0 0
137111.0 507867.0 0
141082.0 508070.0 0
145071.0 507967.0 0
149056.0 507985.0 0
153018.0 507812.0 0
156978.0 508089.0 0
160950.0 508368.0 0
164936.0 508632.0 0
169027.0 508813.0 0
189081.0 508781.0 0
193059.0 508642.0 0
197034.0 508478.0 0
201009.0 508300.0 0
204989.0 508102.0 0
209068.0 507959.0 0
213039.0 507558.0 0
223182.0 507974.0 0
227145.0 508283.0 0
231081.0 507619.0 0
234978.0 508465.0 0
238935.0 507996.0 0
246956.0 508406.0 0
250995.0 508609.0 0
254990.0 508619.0 0
258974.0 508606.0 0
262954.0 508572.0 0
266913.0 508512.0 0
270861.0 508412.0 0
274726.0 507846.0 0
278629.0 507795.0 0
282539.0 507992.0 0
286457.0 508009.0 0
290387.0 508130.0 0
294332.0 508232.0 0
298286.0 508360.0 0
302252.0 508485.0 0
306230.0 508602.0 0
310219.0 508702.0 0
314215.0 508784.0 0
318226.0 508848.0 0
322292.0 508861.0 0
326394.0 508807.0 0
330468.0 508672.0 0
334471.0 508484.0 0
338457.0 508276.0 0
342434.0 508075.0 0
346404.0 507926.0 0
350385.0 507835.0 0
354886.0 508068.0 0
358868.0 507947.0 0
362837.0 507848.0 0
366800.0 507774.0 0
370739.0 508218.0 0
374725.0 508210.0 0
378823.0 508101.0 0
382925.0 507917.0 0
386910.0 507683.0 0
390890.0 507530.0 0
394876.0 507468.0 0
398870.0 507499.0 0
173121.0 508931.0 0
177127.0 508961.0 0
181118.0 508947.0 0
185101.0 508893.0 0
219257.0 508749.0 0
242901.0 508514.0 0
102000.0 511472.0 0
106000.0 511448.0 0
110007.0 511441.0 0
114303.0 511566.0 0
118607.0 511811.0 0
122622.0 511945.0 0
126710.0 512067.0 0
130705.0 512101.0 0
134684.0 512005.0 0
138607.0 511568.0 0
142561.0 511772.0 0
146525.0 511751.0 0
150500.0 511700.0 0
154480.0 511623.0 0
158469.0 511795.0 0
162681.0 511960.0 0
166853.0 512124.0 0
171002.0 512269.0 0
175136.0 512372.0 0
179147.0 512391.0 0
183139.0 512362.0 0
187110.0 512317.0 0
191056.0 512220.0 0
194979.0 512125.0 0
198891.0 511996.0 0
202794.0 511856.0 0
206688.0 511687.0 0
210575.0 511762.0 0
214436.0 511255.0 0
218090.0 512559.0 0
221906.0 511721.0 0
225806.0 512094.0 0
229656.0 511348.0 0
233472.0 512156.0 0
237355.0 511649.0 0
241222.0 512219.0 0
245118.0 511883.0 0
249063.0 512093.0 0
253018.0 512051.0 0
256997.0 512056.0 0
260981.0 512017.0 0
264973.0 511988.0 0
268964.0 511895.0 0
273019.0 511739.0 0
276977.0 511415.0 0
280932.0 511696.0 0
284885.0 511661.0 0
288836.0 511799.0 0
292784.0 511890.0 0
296733.0 512019.0 0
300688.0 512135.0 0
304657.0 512231.0 0
308625.0 512313.0 0
312595.0 512378.0 0
316570.0 512423.0 0
320553.0 512423.0 0
324562.0 512341.0 0
328725.0 512250.0 0
332938.0 512151.0 0
337209.0 512042.0 0
341492.0 511918.0 0
345593.0 511809.0 0
349610.0 511735.0 0
353604.0 511820.0 0
357601.0 511707.0 0
361610.0 511630.0 0
365608.0 511598.0 0
369574.0 511994.0 0
373569.0 512010.0 0
377563.0 511867.0 0
381599.0 511680.0 0
385861.0 511527.0 0
389990.0 511441.0 0
394000.0 511449.0 0
398000.0 511472.0 0
101825.0 515474.0 0
105820.0 515450.0 0
109811.0 515435.0 0
113796.0 515527.0 0
117774.0 515695.0 0
121754.0 515845.0 0
125730.0 515921.0 0
129709.0 515936.0 0
133692.0 515817.0 0
137683.0 515549.0 0
141674.0 515663.0 0
145663.0 515689.0 0
149644.0 515604.0 0
153619.0 515606.0 0
157585.0 515696.0 0
161543.0 515790.0 0
165494.0 515853.0 0
169448.0 515912.0 0
173414.0 515939.0 0
177392.0 515950.0 0
181377.0 515927.0 0
185367.0 515895.0 0
189360.0 515819.0 0
193358.0 515769.0 0
197356.0 515675.0 0
201714.0 515692.0 0
205716.0 515548.0 0
209918.0 515695.0 0
214003.0 515324.0 0
222808.0 515597.0 0
226775.0 515962.0 0
230706.0 515299.0 0
234650.0 515943.0 0
238606.0 515441.0 0
242565.0 515977.0 0
246544.0 515583.0 0
250516.0 515947.0 0
254510.0 515732.0 0
258505.0 515738.0 0
262499.0 515669.0 0
266480.0 515665.0 0
270457.0 515553.0 0
274420.0 515564.0 0
278380.0 515249.0 0
282351.0 515540.0 0
286337.0 515381.0 0
290328.0 515509.0 0
294468.0 515506.0 0
298465.0 515615.0 0
302608.0 515633.0 0
306597.0 515725.0 0
310586.0 515790.0 0
314574.0 515849.0 0
318568.0 515871.0 0
322550.0 515873.0 0
326520.0 515827.0 0
330490.0 515834.0 0
334463.0 515838.0 0
338436.0 515829.0 0
342406.0 515782.0 0
346372.0 515712.0 0
350339.0 515653.0 0
354309.0 515734.0 0
358280.0 515629.0 0
362255.0 515567.0 0
366235.0 515560.0 0
370207.0 515905.0 0
374190.0 515939.0 0
378172.0 515798.0 0
382153.0 515632.0 0
386138.0 515505.0 0
390127.0 515439.0 0
394120.0 515449.0 0
398116.0 515472.0 0
218911.0 516409.0 0
102000.0 519471.0 0
106000.0 519448.0 0
110000.0 519433.0 0
114022.0 519514.0 0
118075.0 519665.0 0
122071.0 519826.0 0
126077.0 519886.0 0
130077.0 519886.0 0
134072.0 519748.0 0
138061.0 519547.0 0
142055.0 519635.0 0
146050.0 519670.0 0
150046.0 519583.0 0
154044.0 519607.0 0
158043.0 519670.0 0
162074.0 519750.0 0
166111.0 519786.0 0
170153.0 519822.0 0
174165.0 519840.0 0
178161.0 519854.0 0
182153.0 519832.0 0
186142.0 519802.0 0
190126.0 519726.0 0
194108.0 519687.0 0
198087.0 519595.0 0
202064.0 519663.0 0
206037.0 519517.0 0
210009.0 519683.0 0
213966.0 519320.0 0
217841.0 520205.0 0
221763.0 519446.0 0
225743.0 519815.0 0
229765.0 519324.0 0
233731.0 519806.0 0
237730.0 519344.0 0
241691.0 519874.0 0
245664.0 519459.0 0
249739.0 519887.0 0
253728.0 519635.0 0
257766.0 519657.0 0
261762.0 519566.0 0
265859.0 519599.0 0
269856.0 519470.0 0
273906.0 519531.0 0
277897.0 519297.0 0
281887.0 519516.0 0
285877.0 519350.0 0
289867.0 519481.0 0
293858.0 519449.0 0
297847.0 519560.0 0
301836.0 519532.0 0
305825.0 519624.0 0
309816.0 519680.0 0
313810.0 519746.0 0
317808.0 519777.0 0
321808.0 519793.0 0
325833.0 519764.0 0
329873.0 519781.0 0
333882.0 519786.0 0
337908.0 519777.0 0
341941.0 519733.0 0
345953.0 519674.0 0
349959.0 519626.0 0
353958.0 519701.0 0
357958.0 519602.0 0
361962.0 519551.0 0
365961.0 519552.0 0
369947.0 519864.0 0
373946.0 519911.0 0
377946.0 519774.0 0
381957.0 519616.0 0
385990.0 519493.0 0
389999.0 519438.0 0
394000.0 519448.0 0
398000.0 519471.0 0
101984.0 523471.0 0
105984.0 523448.0 0
109983.0 523433.0 0
113982.0 523507.0 0
117978.0 523649.0 0
121974.0 523815.0 0
125972.0 523867.0 0
129971.0 523855.0 0
133970.0 523704.0 0
137977.0 523549.0 0
141975.0 523624.0 0
145974.0 523667.0 0
149972.0 523584.0 0
153970.0 523606.0 0
157967.0 523667.0 0
161964.0 523741.0 0
165960.0 523768.0 0
169956.0 523796.0 0
173953.0 523813.0 0
177951.0 523828.0 0
181949.0 523808.0 0
185948.0 523779.0 0
189947.0 523703.0 0
193947.0 523671.0 0
197955.0 523580.0 0
201983.0 523647.0 0
205992.0 523500.0 0
210006.0 523669.0 0
214008.0 523348.0 0
222200.0 523411.0 0
226176.0 523780.0 0
230144.0 523317.0 0
234117.0 523761.0 0
238091.0 523331.0 0
242149.0 523840.0 0
246125.0 523411.0 0
250095.0 523875.0 0
254083.0 523601.0 0
258080.0 523634.0 0
262076.0 523524.0 0
266071.0 523580.0 0
270064.0 523434.0 0
274058.0 523528.0 0
278048.0 523299.0 0
282039.0 523513.0 0
286034.0 523341.0 0
290031.0 523475.0 0
294031.0 523435.0 0
298029.0 523548.0 0
302045.0 523513.0 0
306045.0 523603.0 0
310045.0 523647.0 0
314043.0 523719.0 0
318041.0 523752.0 0
322039.0 523774.0 0
326036.0 523754.0 0
330034.0 523771.0 0
334031.0 523772.0 0
338029.0 523759.0 0
342026.0 523713.0 0
346024.0 523661.0 0
350021.0 523618.0 0
354019.0 523685.0 0
358017.0 523591.0 0
362015.0 523549.0 0
366015.0 523551.0 0
370024.0 523836.0 0
374024.0 523891.0 0
378021.0 523757.0 0
382017.0 523603.0 0
386015.0 523484.0 0
390014.0 523438.0 0
394013.0 523448.0 0
398013.0 523471.0 0
218272.0 524125.0 0
102000.0 527471.0 0
106000.0 527448.0 0
110000.0 527433.0 0
114001.0 527499.0 0
118007.0 527634.0 0
122013.0 527802.0 0
126013.0 527851.0 0
130013.0 527828.0 0
134009.0 527668.0 0
138007.0 527548.0 0
142006.0 527614.0 0
146005.0 527664.0 0
150004.0 527584.0 0
154004.0 527606.0 0
158003.0 527665.0 0
162005.0 527733.0 0
166007.0 527756.0 0
170008.0 527778.0 0
174007.0 527793.0 0
178006.0 527810.0 0
182005.0 527787.0 0
186003.0 527760.0 0
189999.0 527683.0 0
193996.0 527658.0 0
197991.0 527565.0 0
201986.0 527633.0 0
205979.0 527483.0 0
209970.0 527656.0 0
213952.0 527346.0 0
217882.0 528054.0 0
221964.0 527394.0 0
225947.0 527761.0 0
229994.0 527329.0 0
233973.0 527732.0 0
237958.0 527329.0 0
241927.0 527824.0 0
245975.0 527389.0 0
249948.0 527872.0 0
253937.0 527583.0 0
257969.0 527623.0 0
261967.0 527497.0 0
265983.0 527568.0 0
269987.0 527408.0 0
273998.0 527526.0 0
278000.0 527305.0 0
281999.0 527512.0 0
285997.0 527335.0 0
289995.0 527471.0 0
293994.0 527424.0 0
297992.0 527539.0 0
301992.0 527501.0 0
305990.0 527590.0 0
309990.0 527626.0 0
313989.0 527701.0 0
317988.0 527732.0 0
321988.0 527760.0 0
325991.0 527746.0 0
329994.0 527763.0 0
333995.0 527760.0 0
337996.0 527743.0 0
341997.0 527698.0 0
345997.0 527650.0 0
349997.0 527613.0 0
353996.0 527672.0 0
357995.0 527583.0 0
361995.0 527549.0 0
365995.0 527550.0 0
369987.0 527812.0 0
373986.0 527875.0 0
377988.0 527743.0 0
381996.0 527590.0 0
385999.0 527477.0 0
390000.0 527438.0 0
394000.0 527448.0 0
398000.0 527471.0 0
102000.0 531471.0 0
106000.0 531448.0 0
110000.0 531433.0 0
113999.0 531491.0 0
117997.0 531618.0 0
133999.0 531638.0 0
138000.0 531548.0 0
142000.0 531604.0 0
145999.0 531660.0 0
149999.0 531584.0 0
153998.0 531606.0 0
157998.0 531662.0 0
161997.0 531725.0 0
165997.0 531746.0 0
181996.0 531765.0 0
185996.0 531741.0 0
189996.0 531664.0 0
193998.0 531644.0 0
197999.0 531550.0 0
202001.0 531618.0 0
206002.0 531467.0 0
210003.0 531643.0 0
214002.0 531346.0 0
222047.0 531384.0 0
226028.0 531747.0 0
230005.0 531329.0 0
234006.0 531708.0 0
238001.0 531329.0 0
246010.0 531373.0 0
254013.0 531568.0 0
258013.0 531615.0 0
262010.0 531473.0 0
266008.0 531558.0 0
270004.0 531388.0 0
274002.0 531526.0 0
278000.0 531305.0 0
282000.0 531511.0 0
286000.0 531329.0 0
290000.0 531468.0 0
294000.0 531412.0 0
298001.0 531530.0 0
302001.0 531488.0 0
306001.0 531578.0 0
310002.0 531608.0 0
314002.0 531684.0 0
318002.0 531712.0 0
322002.0 531745.0 0
326002.0 531737.0 0
330002.0 531754.0 0
334001.0 531748.0 0
338001.0 531729.0 0
342001.0 531686.0 0
346001.0 531642.0 0
350001.0 531609.0 0
354000.0 531659.0 0
358000.0 531576.0 0
362000.0 531549.0 0
366000.0 531549.0 0
378005.0 531731.0 0
382002.0 531578.0 0
386001.0 531471.0 0
390001.0 531438.0 0
394000.0 531448.0 0
398000.0 531471.0 0
121993.0 531788.0 0
125993.0 531837.0 0
129992.0 531804.0 0
169997.0 531764.0 0
173997.0 531777.0 0
177997.0 531792.0 0
218098.0 531999.0 0
242034.0 531811.0 0
250013.0 531871.0 0
370008.0 531792.0 0
374008.0 531861.0 0
102000.0 535471.0 0
106000.0 535448.0 0
110000.0 535433.0 0
114000.0 535484.0 0
118000.0 535603.0 0
122003.0 535773.0 0
126003.0 535825.0 0
130003.0 535782.0 0
134000.0 535614.0 0
138000.0 535548.0 0
142000.0 535595.0 0
146000.0 535656.0 0
150000.0 535584.0 0
154000.0 535606.0 0
158000.0 535658.0 0
162000.0 535717.0 0
166000.0 535737.0 0
170001.0 535753.0 0
174001.0 535762.0 0
178001.0 535775.0 0
182002.0 535744.0 0
186002.0 535723.0 0
190001.0 535644.0 0
194001.0 535630.0 0
198000.0 535535.0 0
202000.0 535605.0 0
206000.0 535453.0 0
210000.0 535632.0 0
213992.0 535345.0 0
217945.0 535951.0 0
221998.0 535374.0 0
225997.0 535733.0 0
230000.0 535329.0 0
233999.0 535685.0 0
238000.0 535328.0 0
241988.0 535800.0 0
246000.0 535358.0 0
249997.0 535870.0 0
253995.0 535555.0 0
257999.0 535609.0 0
261998.0 535453.0 0
265999.0 535550.0 0
270000.0 535372.0 0
274000.0 535525.0 0
278000.0 535305.0 0
282000.0 535510.0 0
286000.0 535324.0 0
290000.0 535465.0 0
294000.0 535400.0 0
298000.0 535521.0 0
302000.0 535475.0 0
306000.0 535566.0 0
310000.0 535591.0 0
314000.0 535667.0 0
317999.0 535692.0 0
322000.0 535729.0 0
326000.0 535727.0 0
330000.0 535745.0 0
334000.0 535736.0 0
338000.0 535717.0 0
342000.0 535676.0 0
346000.0 535635.0 0
350000.0 535606.0 0
354000.0 535648.0 0
358000.0 535571.0 0
362000.0 535549.0 0
366000.0 535547.0 0
369997.0 535775.0 0
373996.0 535848.0 0
377999.0 535720.0 0
382000.0 535566.0 0
386000.0 535466.0 0
390000.0 535437.0 0
394000.0 535448.0 0
398000.0 535471.0 0
102000.0 539471.0 0
106000.0 539448.0 0
110000.0 539433.0 0
114000.0 539478.0 0
118000.0 539588.0 0
134000.0 539595.0 0
138000.0 539548.0 0
142000.0 539588.0 0
198000.0 539520.0 0
206000.0 539439.0 0
214000.0 539344.0 0
222000.0 539365.0 0
230000.0 539329.0 0
238000.0 539328.0 0
246000.0 539347.0 0
254001.0 539545.0 0
262000.0 539436.0 0
266000.0 539542.0 0
270000.0 539360.0 0
274000.0 539524.0 0
278000.0 539305.0 0
282000.0 539509.0 0
286000.0 539320.0 0
290000.0 539462.0 0
294000.0 539389.0 0
298000.0 539512.0 0
302000.0 539461.0 0
306000.0 539553.0 0
310000.0 539574.0 0
358000.0 539566.0 0
362000.0 539549.0 0
366000.0 539545.0 0
382000.0 539555.0 0
386000.0 539462.0 0
390000.0 539437.0 0
394000.0 539448.0 0
398000.0 539471.0 0
122000.0 539758.0 0
125999.0 539815.0 0
130000.0 539764.0 0
146000.0 539651.0 0
150000.0 539584.0 0
154000.0 539606.0 0
158000.0 539655.0 0
162000.0 539709.0 0
166000.0 539729.0 0
170000.0 539743.0 0
174000.0 539749.0 0
178000.0 539758.0 0
182000.0 539723.0 0
186000.0 539704.0 0
190000.0 539625.0 0
194000.0 539616.0 0
202000.0 539593.0 0
210000.0 539621.0 0
218017.0 539909.0 0
226000.0 539719.0 0
234000.0 539664.0 0
242002.0 539788.0 0
250001.0 539870.0 0
258000.0 539604.0 0
314000.0 539651.0 0
318000.0 539673.0 0
322000.0 539714.0 0
326000.0 539717.0 0
330000.0 539735.0 0
334000.0 539725.0 0
338000.0 539706.0 0
342000.0 539668.0 0
346000.0 539629.0 0
350000.0 539605.0 0
354000.0 539639.0 0
370001.0 539760.0 0
374001.0 539837.0 0
378000.0 539710.0 0
102000.0 543471.0 0
106000.0 543448.0 0
110000.0 543433.0 0
114000.0 543472.0 0
118000.0 543574.0 0
122000.0 543744.0 0
126000.0 543807.0 0
130000.0 543748.0 0
134000.0 543580.0 0
138000.0 543548.0 0
142000.0 543581.0 0
146000.0 543646.0 0
150000.0 543584.0 0
154000.0 543606.0 0
158000.0 543652.0 0
162000.0 543702.0 0
166000.0 543721.0 0
170000.0 543734.0 0
174000.0 543736.0 0
178000.0 543742.0 0
182000.0 543704.0 0
186000.0 543687.0 0
190000.0 543607.0 0
194000.0 543602.0 0
198000.0 543505.0 0
202000.0 543583.0 0
206000.0 543427.0 0
210000.0 543611.0 0
214000.0 543342.0 0
217997.0 543872.0 0
222000.0 543357.0 0
226000.0 543706.0 0
230000.0 543329.0 0
234000.0 543646.0 0
238000.0 543327.0 0
242000.0 543776.0 0
246000.0 543337.0 0
250000.0 543869.0 0
254000.0 543535.0 0
258000.0 543600.0 0
262000.0 543422.0 0
266000.0 543536.0 0
270000.0 543349.0 0
274000.0 543523.0 0
278000.0 543305.0 0
282000.0 543508.0 0
286000.0 543316.0 0
290000.0 543460.0 0
294000.0 543379.0 0
298000.0 543504.0 0
302000.0 543449.0 0
306000.0 543541.0 0
310000.0 543557.0 0
314000.0 543635.0 0
318000.0 543655.0 0
322000.0 543699.0 0
326000.0 543706.0 0
330000.0 543725.0 0
334000.0 543715.0 0
338000.0 543697.0 0
342000.0 543662.0 0
346000.0 543625.0 0
350000.0 543603.0 0
354000.0 543630.0 0
358000.0 543563.0 0
362000.0 543549.0 0
366000.0 543543.0 0
370000.0 543747.0 0
374000.0 543828.0 0
378000.0 543701.0 0
382000.0 543545.0 0
386000.0 543459.0 0
390000.0 543437.0 0
394000.0 543448.0 0
398000.0 543471.0 0
214000.0 547340.0 0
222000.0 547349.0 0
230000.0 547329.0 0
238000.0 547326.0 0
246000.0 547329.0 0
270000.0 547341.0 0
278000.0 547305.0 0
286000.0 547313.0 0
294000.0 547370.0 0
102000.0 547471.0 0
106000.0 547448.0 0
110000.0 547433.0 0
114000.0 547468.0 0
118000.0 547562.0 0
122000.0 547730.0 0
126000.0 547799.0 0
130000.0 547734.0 0
134000.0 547568.0 0
138000.0 547548.0 0
142000.0 547576.0 0
146000.0 547641.0 0
150000.0 547584.0 0
154000.0 547606.0 0
158000.0 547648.0 0
162000.0 547696.0 0
166000.0 547714.0 0
170000.0 547727.0 0
174000.0 547725.0 0
178000.0 547727.0 0
182000.0 547686.0 0
186000.0 547671.0 0
190000.0 547590.0 0
194000.0 547590.0 0
198000.0 547492.0 0
202000.0 547573.0 0
206000.0 547417.0 0
210000.0 547602.0 0
218000.0 547840.0 0
226000.0 547693.0 0
234000.0 547629.0 0
242000.0 547765.0 0
250000.0 547869.0 0
254000.0 547527.0 0
258000.0 547596.0 0
262000.0 547410.0 0
266000.0 547530.0 0
274000.0 547522.0 0
282000.0 547507.0 0
290000.0 547457.0 0
298000.0 547497.0 0
302000.0 547437.0 0
306000.0 547530.0 0
310000.0 547542.0 0
314000.0 547621.0 0
318000.0 547638.0 0
322000.0 547684.0 0
326000.0 547695.0 0
330000.0 547716.0 0
334000.0 547705.0 0
338000.0 547689.0 0
342000.0 547656.0 0
346000.0 547622.0 0
350000.0 547602.0 0
354000.0 547623.0 0
358000.0 547560.0 0
362000.0 547549.0 0
366000.0 547542.0 0
370000.0 547735.0 0
374000.0 547819.0 0
378000.0 547692.0 0
382000.0 547536.0 0
386000.0 547456.0 0
390000.0 547437.0 0
394000.0 547448.0 0
398000.0 547471.0 0
102000.0 551471.0 0
106000.0 551448.0 0
110000.0 551433.0 0
114000.0 551464.0 0
118000.0 551550.0 0
122000.0 551717.0 0
126000.0 551793.0 0
130000.0 551722.0 0
134000.0 551559.0 0
138000.0 551548.0 0
142000.0 551571.0 0
146000.0 551636.0 0
150000.0 551584.0 0
154000.0 551606.0 0
158000.0 551646.0 0
162000.0 551691.0 0
166000.0 551707.0 0
170000.0 551720.0 0
174000.0 551714.0 0
178000.0 551713.0 0
182000.0 551669.0 0
186000.0 551656.0 0
190000.0 551575.0 0
194000.0 551579.0 0
198000.0 551480.0 0
202000.0 551565.0 0
206000.0 551407.0 0
210000.0 551593.0 0
214000.0 551338.0 0
218000.0 551811.0 0
222000.0 551343.0 0
226000.0 551681.0 0
230000.0 551329.0 0
234000.0 551615.0 0
238000.0 551325.0 0
242000.0 551754.0 0
246000.0 551323.0 0
250000.0 551868.0 0
254000.0 551520.0 0
258000.0 551593.0 0
262000.0 551400.0 0
266000.0 551524.0 0
270000.0 551334.0 0
274000.0 551520.0 0
278000.0 551305.0 0
282000.0 551506.0 0
286000.0 551311.0 0
290000.0 551456.0 0
294000.0 551362.0 0
298000.0 551491.0 0
302000.0 551426.0 0
306000.0 551520.0 0
310000.0 551528.0 0
314000.0 551607.0 0
318000.0 551622.0 0
322000.0 551671.0 0
326000.0 551685.0 0
330000.0 551708.0 0
334000.0 551697.0 0
338000.0 551683.0 0
342000.0 551652.0 0
346000.0 551619.0 0
350000.0 551601.0 0
354000.0 551618.0 0
358000.0 551559.0 0
362000.0 551549.0 0
366000.0 551541.0 0
370000.0 551725.0 0
374000.0 551811.0 0
378000.0 551685.0 0
382000.0 551529.0 0
386000.0 551454.0 0
390000.0 551436.0 0
394000.0 551448.0 0
398000.0 551471.0 0
102000.0 555471.0 0
106000.0 555448.0 0
110000.0 555433.0 0
114000.0 555460.0 0
118000.0 555541.0 0
122000.0 555705.0 0
126000.0 555788.0 0
130000.0 555711.0 0
134000.0 555553.0 0
138000.0 555548.0 0
142000.0 555568.0 0
146000.0 555631.0 0
150000.0 555584.0 0
154000.0 555605.0 0
158000.0 555643.0 0
162000.0 555686.0 0
166000.0 555701.0 0
170000.0 555713.0 0
174000.0 555704.0 0
178000.0 555700.0 0
182000.0 555654.0 0
186000.0 555643.0 0
190000.0 555561.0 0
194000.0 555568.0 0
198000.0 555469.0 0
202000.0 555558.0 0
206000.0 555399.0 0
210000.0 555586.0 0
214000.0 555335.0 0
218000.0 555787.0 0
222000.0 555337.0 0
226000.0 555670.0 0
230000.0 555329.0 0
234000.0 555602.0 0
238000.0 555324.0 0
242000.0 555745.0 0
246000.0 555318.0 0
250000.0 555868.0 0
254000.0 555513.0 0
258000.0 555591.0 0
262000.0 555391.0 0
266000.0 555519.0 0
270000.0 555328.0 0
274000.0 555519.0 0
278000.0 555305.0 0
282000.0 555505.0 0
286000.0 555309.0 0
290000.0 555454.0 0
294000.0 555355.0 0
298000.0 555485.0 0
302000.0 555416.0 0
306000.0 555510.0 0
310000.0 555516.0 0
314000.0 555595.0 0
318000.0 555608.0 0
322000.0 555659.0 0
326000.0 555675.0 0
330000.0 555700.0 0
334000.0 555690.0 0
338000.0 555677.0 0
342000.0 555648.0 0
346000.0 555617.0 0
350000.0 555600.0 0
354000.0 555613.0 0
358000.0 555557.0 0
362000.0 555549.0 0
366000.0 555540.0 0
370000.0 555717.0 0
374000.0 555803.0 0
378000.0 555678.0 0
382000.0 555522.0 0
386000.0 555453.0 0
390000.0 555436.0 0
394000.0 555448.0 0
398000.0 555471.0 0
102000.0 559471.0 0
106000.0 559448.0 0
110000.0 559433.0 0
114000.0 559458.0 0
118000.0 559533.0 0
122000.0 559695.0 0
126000.0 559783.0 0
130000.0 559702.0 0
134000.0 559548.0 0
138000.0 559548.0 0
142000.0 559565.0 0
146000.0 559627.0 0
150000.0 559584.0 0
154000.0 559605.0 0
158000.0 559641.0 0
162000.0 559682.0 0
166000.0 559696.0 0
170000.0 559708.0 0
174000.0 559696.0 0
178000.0 559689.0 0
182000.0 559641.0 0
186000.0 559631.0 0
190000.0 559549.0 0
194000.0 559559.0 0
198000.0 559459.0 0
202000.0 559552.0 0
206000.0 559392.0 0
210000.0 559580.0 0
214000.0 559333.0 0
218000.0 559766.0 0
222000.0 559332.0 0
226000.0 559660.0 0
230000.0 559328.0 0
234000.0 559591.0 0
238000.0 559324.0 0
242000.0 559737.0 0
246000.0 559315.0 0
250000.0 559867.0 0
254000.0 559508.0 0
258000.0 559589.0 0
262000.0 559384.0 0
266000.0 559515.0 0
270000.0 559323.0 0
274000.0 559519.0 0
278000.0 559305.0 0
282000.0 559504.0 0
286000.0 559308.0 0
290000.0 559453.0 0
294000.0 559349.0 0
298000.0 559481.0 0
302000.0 559407.0 0
306000.0 559502.0 0
310000.0 559505.0 0
314000.0 559585.0 0
318000.0 559596.0 0
322000.0 559649.0 0
326000.0 559667.0 0
330000.0 559693.0 0
334000.0 559684.0 0
338000.0 559673.0 0
342000.0 559645.0 0
346000.0 559616.0 0
350000.0 559599.0 0
354000.0 559609.0 0
358000.0 559556.0 0
362000.0 559549.0 0
366000.0 559539.0 0
370000.0 559709.0 0
374000.0 559797.0 0
378000.0 559672.0 0
382000.0 559517.0 0
386000.0 559452.0 0
390000.0 559436.0 0
394000.0 559448.0 0
398000.0 559471.0 0
102000.0 563471.0 0
106000.0 563448.0 0
110000.0 563433.0 0
114000.0 563455.0 0
118000.0 563526.0 0
122000.0 563687.0 0
126000.0 563779.0 0
130000.0 563695.0 0
134000.0 563545.0 0
138000.0 563548.0 0
142000.0 563563.0 0
146000.0 563624.0 0
150000.0 563584.0 0
154000.0 563605.0 0
158000.0 563639.0 0
162000.0 563679.0 0
166000.0 563691.0 0
170000.0 563703.0 0
174000.0 563689.0 0
178000.0 563680.0 0
182000.0 563630.0 0
186000.0 563621.0 0
190000.0 563539.0 0
194000.0 563552.0 0
198000.0 563451.0 0
202000.0 563547.0 0
206000.0 563387.0 0
210000.0 563575.0 0
214000.0 563331.0 0
218000.0 563749.0 0
222000.0 563328.0 0
226000.0 563652.0 0
230000.0 563328.0 0
234000.0 563583.0 0
238000.0 563323.0 0
242000.0 563730.0 0
246000.0 563312.0 0
250000.0 563867.0 0
254000.0 563503.0 0
258000.0 563587.0 0
262000.0 563378.0 0
266000.0 563512.0 0
270000.0 563320.0 0
274000.0 563518.0 0
278000.0 563305.0 0
282000.0 563503.0 0
286000.0 563307.0 0
290000.0 563453.0 0
294000.0 563344.0 0
298000.0 563477.0 0
302000.0 563400.0 0
306000.0 563496.0 0
310000.0 563495.0 0
314000.0 563576.0 0
318000.0 563586.0 0
322000.0 563640.0 0
326000.0 563660.0 0
330000.0 563687.0 0
334000.0 563679.0 0
338000.0 563670.0 0
342000.0 563642.0 0
346000.0 563615.0 0
350000.0 563598.0 0
354000.0 563606.0 0
358000.0 563556.0 0
362000.0 563549.0 0
366000.0 563539.0 0
370000.0 563703.0 0
374000.0 563792.0 0
378000.0 563667.0 0
382000.0 563513.0 0
386000.0 563451.0 0
390000.0 563435.0 0
394000.0 563448.0 0
398000.0 563471.0 0
102000.0 567471.0 0
106000.0 567448.0 0
110000.0 567433.0 0
114000.0 567454.0 0
118000.0 567521.0 0
122000.0 567680.0 0
126000.0 567776.0 0
130000.0 567689.0 0
134000.0 567543.0 0
138000.0 567548.0 0
142000.0 567561.0 0
146000.0 567621.0 0
150000.0 567584.0 0
154000.0 567605.0 0
158000.0 567637.0 0
162000.0 567676.0 0
166000.0 567688.0 0
170000.0 567699.0 0
174000.0 567683.0 0
178000.0 567673.0 0
182000.0 567621.0 0
186000.0 567613.0 0
190000.0 567531.0 0
194000.0 567546.0 0
198000.0 567444.0 0
202000.0 567543.0 0
206000.0 567382.0 0
210000.0 567571.0 0
214000.0 567329.0 0
218000.0 567735.0 0
222000.0 567325.0 0
226000.0 567645.0 0
230000.0 567328.0 0
234000.0 567576.0 0
238000.0 567323.0 0
242000.0 567724.0 0
246000.0 567310.0 0
250000.0 567866.0 0
254000.0 567500.0 0
258000.0 567586.0 0
262000.0 567374.0 0
266000.0 567509.0 0
270000.0 567317.0 0
274000.0 567517.0 0
278000.0 567305.0 0
282000.0 567503.0 0
286000.0 567306.0 0
290000.0 567452.0 0
294000.0 567340.0 0
298000.0 567474.0 0
302000.0 567394.0 0
306000.0 567490.0 0
310000.0 567488.0 0
314000.0 567569.0 0
318000.0 567578.0 0
322000.0 567633.0 0
326000.0 567654.0 0
330000.0 567683.0 0
334000.0 567675.0 0
338000.0 567667.0 0
342000.0 567640.0 0
346000.0 567614.0 0
350000.0 567597.0 0
354000.0 567604.0 0
358000.0 567555.0 0
362000.0 567549.0 0
366000.0 567539.0 0
370000.0 567697.0 0
374000.0 567787.0 0
378000.0 567664.0 0
382000.0 567509.0 0
386000.0 567450.0 0
390000.0 567435.0 0
394000.0 567448.0 0
398000.0 567471.0 0
102000.0 571471.0 0
106000.0 571448.0 0
110000.0 571433.0 0
114000.0 571453.0 0
118000.0 571517.0 0
122000.0 571675.0 0
126000.0 571773.0 0
130000.0 571685.0 0
134000.0 571541.0 0
138000.0 571548.0 0
142000.0 571560.0 0
146000.0 571618.0 0
150000.0 571584.0 0
154000.0 571605.0 0
158000.0 571636.0 0
162000.0 571675.0 0
166000.0 571685.0 0
170000.0 571696.0 0
174000.0 571678.0 0
178000.0 571667.0 0
182000.0 571614.0 0
186000.0 571608.0 0
190000.0 571525.0 0
194000.0 571541.0 0
198000.0 571440.0 0
202000.0 571540.0 0
206000.0 571379.0 0
210000.0 571568.0 0
214000.0 571328.0 0
218000.0 571725.0 0
222000.0 571323.0 0
226000.0 571640.0 0
230000.0 571328.0 0
234000.0 571570.0 0
238000.0 571323.0 0
242000.0 571719.0 0
246000.0 571309.0 0
250000.0 571866.0 0
254000.0 571497.0 0
258000.0 571585.0 0
262000.0 571371.0 0
266000.0 571507.0 0
270000.0 571315.0 0
274000.0 571517.0 0
278000.0 571305.0 0
282000.0 571502.0 0
286000.0 571306.0 0
290000.0 571452.0 0
294000.0 571337.0 0
298000.0 571472.0 0
302000.0 571390.0 0
306000.0 571486.0 0
310000.0 571483.0 0
314000.0 571564.0 0
318000.0 571572.0 0
322000.0 571628.0 0
326000.0 571650.0 0
330000.0 571679.0 0
334000.0 571672.0 0
338000.0 571665.0 0
342000.0 571639.0 0
346000.0 571613.0 0
350000.0 571597.0 0
354000.0 571603.0 0
358000.0 571555.0 0
362000.0 571549.0 0
366000.0 571538.0 0
370000.0 571693.0 0
374000.0 571784.0 0
378000.0 571661.0 0
382000.0 571507.0 0
386000.0 571450.0 0
390000.0 571435.0 0
394000.0 571448.0 0
398000.0 571471.0 0
102000.0 575471.0 0
106000.0 575448.0 0
110000.0 575433.0 0
114000.0 575452.0 0
118000.0 575514.0 0
122000.0 575671.0 0
126000.0 575772.0 0
130000.0 575682.0 0
134000.0 575540.0 0
138000.0 575548.0 0
142000.0 575559.0 0
146000.0 575617.0 0
150000.0 575584.0 0
154000.0 575605.0 0
158000.0 575635.0 0
162000.0 575673.0 0
166000.0 575683.0 0
170000.0 575694.0 0
174000.0 575675.0 0
178000.0 575663.0 0
182000.0 575610.0 0
186000.0 575604.0 0
190000.0 575520.0 0
194000.0 575538.0 0
198000.0 575436.0 0
202000.0 575538.0 0
206000.0 575377.0 0
210000.0 575565.0 0
214000.0 575327.0 0
218000.0 575719.0 0
222000.0 575321.0 0
226000.0 575637.0 0
230000.0 575328.0 0
234000.0 575567.0 0
238000.0 575322.0 0
242000.0 575717.0 0
246000.0 575308.0 0
250000.0 575866.0 0
254000.0 575495.0 0
258000.0 575584.0 0
262000.0 575368.0 0
266000.0 575506.0 0
270000.0 575313.0 0
274000.0 575516.0 0
278000.0 575305.0 0
282000.0 575502.0 0
286000.0 575305.0 0
290000.0 575451.0 0
294000.0 575335.0 0
298000.0 575471.0 0
302000.0 575387.0 0
306000.0 575483.0 0
310000.0 575479.0 0
314000.0 575561.0 0
318000.0 575568.0 0
322000.0 575624.0 0
326000.0 575647.0 0
330000.0 575677.0 0
334000.0 575670.0 0
338000.0 575664.0 0
342000.0 575638.0 0
346000.0 575612.0 0
350000.0 575596.0 0
354000.0 575602.0 0
358000.0 575554.0 0
362000.0 575549.0 0
366000.0 575538.0 0
370000.0 575691.0 0
374000.0 575782.0 0
378000.0 575659.0 0
382000.0 575505.0 0
386000.0 575449.0 0
390000.0 575435.0 0
394000.0 575448.0 0
398000.0 575471.0 0
102000.0 579471.0 0
106000.0 579448.0 0
110000.0 579433.0 0
114000.0 579452.0 0
118000.0 579513.0 0
122000.0 579670.0 0
126000.0 579771.0 0
130000.0 579681.0 0
134000.0 579540.0 0
138000.0 579548.0 0
142000.0 579559.0 0
146000.0 579616.0 0
150000.0 579584.0 0
154000.0 579605.0 0
158000.0 579635.0 0
162000.0 579673.0 0
166000.0 579682.0 0
170000.0 579693.0 0
174000.0 579674.0 0
178000.0 579661.0 0
182000.0 579608.0 0
186000.0 579602.0 0
190000.0 579518.0 0
194000.0 579537.0 0
198000.0 579435.0 0
202000.0 579537.0 0
206000.0 579376.0 0
210000.0 579564.0 0
214000.0 579326.0 0
218000.0 579715.0 0
222000.0 579320.0 0
226000.0 579635.0 0
230000.0 579328.0 0
234000.0 579565.0 0
238000.0 579322.0 0
242000.0 579715.0 0
246000.0 579307.0 0
250000.0 579866.0 0
254000.0 579494.0 0
258000.0 579584.0 0
262000.0 579367.0 0
266000.0 579505.0 0
270000.0 579313.0 0
274000.0 579516.0 0
278000.0 579305.0 0
282000.0 579502.0 0
286000.0 579305.0 0
290000.0 579451.0 0
294000.0 579334.0 0
298000.0 579470.0 0
302000.0 579386.0 0
306000.0 579482.0 0
310000.0 579477.0 0
314000.0 579559.0 0
318000.0 579565.0 0
322000.0 579622.0 0
326000.0 579645.0 0
330000.0 579676.0 0
334000.0 579669.0 0
338000.0 579663.0 0
342000.0 579637.0 0
346000.0 579612.0 0
350000.0 579596.0 0
354000.0 579601.0 0
358000.0 579554.0 0
362000.0 579549.0 0
366000.0 579538.0 0
370000.0 579689.0 0
374000.0 579781.0 0
378000.0 579658.0 0
382000.0 579504.0 0
386000.0 579449.0 0
390000.0 579435.0 0
394000.0 579448.0 0
398000.0 579471.0 0
POINT_DATA 4650
SCALARS Radius float 1
LOOKUP_TABLE default
4000.0 4000.0 4000.0 4000.0 4000.0 4000.0 4000.0 4000.0 4000.0 4000.0 4000.0 4000.0 4000.0 4000.0 4000.0 4000.0 4000.0 4000.0 4000.0 4000.0 4000.0 4000.0 4000.0 4000.0 4000.0 4000.0 4000.0 4000.0 4000.0 4000.0 4000.0 4000.0 4000.0 4000.0 4000.0 4000.0 4000.0 4000.0 4000.0 4000.0 4000.0 4000.0 4000.0 4000.0 4000.0 4000.0 4000.0 4000.0 4000.0 4000.0 4000.0 4000.0 4000.0 4000.0 4000.0 4000.0 4000.0 4000.0 4000.0 4000.0 4000.0 4000.0 4000.0 4000.0 4000.0 4000.0 4000.0 4000.0 4000.0 4000.0 4000.0 4000.0 4000.0 4000.0 4000.0 4000.0 4000.0 4000.0 4000.0 4000.0 4000.0 4000.0 4000.0 4000.0 4000.0 4000.0 4000.0 4000.0 4000.0 4000.0 4000.0 4000.0 4000.0 4000.0 4000.0 4000.0 4000.0 4000.0 4000.0 4000.0 4000.0 4000.0 4000.0 4000.0 4000.0 4000.0 4000.0 4000.0 4000.0 4000.0 4000.0 4000.0 4000.0 4000.0 4000.0 4000.0 4000.0 4000.0 4000.0 4000.0 4000.0 4000.0 4000.0 4000.0 4000.0 4000.0 4000.0 4000.0 4000.0 4000.0 4000.0 4000.0 4000.0 4000.0 4000.0 4000.0 4000.0 4000.0 4000.0 4000.0 4000.0 4000.0 4000.0 4000.0 4000.0 4000.0 4000.0 4000.0 4000.0 4000.0 4000.0 4000.0 4000.0 4000.0 4000.0 4000.0 4000.0 4000.0 4000.0 4000.0 4000.0 4000.0 4000.0 4000.0 4000.0 4000.0 4000.0 4000.0 4000.0 4000.0 4000.0 4000.0 4000.0 4000.0 4000.0 4000.0 4000.0 4000.0 4000.0 4000.0 4000.0 4000.0 4000.0 4000.0 4000.0 4000.0 4000.0 4000.0 4000.0 4000.0 4000.0 4000.0 4000.0 4000.0 4000.0 4000.0 4000.0 4000.0 4000.0 4000.0 4000.0 4000.0 4000.0 4000.0 4000.0 4000.0 4000.0 4000.0 4000.0 4000.0 4000.0 4000.0 4000.0 4000.0 4000.0 4000.0 4000.0 4000.0 4000.0 4000.0 4000.0 4000.0 4000.0 4000.0 4000.0 4000.0 4000.0 4000.0 4000.0 4000.0 4000.0 4000.0 4000.0 4000.0 4000.0 4000.0 4000.0 4000.0 4000.0 4000.0 4000.0 4000.0 4000.0 4000.0 4000.0 4000.0 4000.0 4000.0 4000.0 4000.0 4000.0 4000.0 4000.0 4000.0 4000.0 4000.0 4000.0 4000.0 4000.0 4000.0 4000.0 4000.0 4000.0 4000.0 4000.0 4000.0 4000.0 4000.0 4000.0 4000.0 4000.0 4000.0 4000.0 4000.0 4000.0 4000.0 4000.0 4000.0 4000.0 4000.0 4000.0 4000.0 4000.0 4000.0 4000.0 4000.0 4000.0 4000.0 4000.0 4000.0 4000.0 4000.0 4000.0 4000.0 4000.0 4000.0 4000.0 4000.0 4000.0 4000.0 4000.0 4000.0 4000.0 4000.0 4000.0 4000.0 4000.0 4000.0 4000.0 4000.0 4000.0 4000.0 4000.0 4000.0 4000.0 4000.0 4000.0 4000.0 4000.0 4000.0 4000.0 4000.0 4000.0 4000.0 4000.0 4000.0 4000.0 4000.0 4000.0 4000.0 4000.0 4000.0 4000.0 4000.0 4000.0 4000.0 4000.0 4000.0 4000.0 4000.0 4000.0 4000.0 4000.0 4000.0 4000.0 4000.0 4000.0 4000.0 4000.0 4000.0 4000.0 4000.0 4000.0 4000.0 4000.0 4000.0 4000.0 4000.0 4000.0 4000.0 4000.0 4000.0 4000.0 4000.0 4000.0 4000.0 4000.0 4000.0 4000.0 4000.0 4000.0 4000.0 4000.0 4000.0 4000.0 4000.0 4000.0 4000.0 4000.0 4000.0 4000.0 4000.0 4000.0 4000.0 4000.0 4000.0 4000.0 4000.0 4000.0 4000.0 4000.0 4000.0 4000.0 4000.0 4000.0 4000.0 4000.0 4000.0 4000.0 4000.0 4000.0 4000.0 4000.0 4000.0 4000.0 4000.0 4000.0 4000.0 4000.0 4000.0 4000.0 4000.0 4000.0 4000.0 4000.0 4000.0 4000.0 4000.0 4000.0 4000.0 4000.0 4000.0 4000.0 4000.0 4000.0 4000.0 4000.0 4000.0 4000.0 4000.0 4000.0 4000.0 4000.0 4000.0 4000.0 4000.0 4000.0 4000.0 4000.0 4000.0 4000.0 4000.0 4000.0 4000.0 4000.0 4000.0 4000.0 4000.0 4000.0 4000.0 4000.0 4000.0 4000.0 4000.0 4000.0 4000.0 4000.0 4000.0 4000.0 4000.0 4000.0 4000.0 4000.0 4000.0 4000.0 4000.0 4000.0 4000.0 4000.0 4000.0 4000.0 4000.0 4000.0 4000.0 4000.0 4000.0 4000.0 4000.0 4000.0 4000.0 4000.0 4000.0 4000.0 4000.0 4000.0 4000.0 4000.0 4000.0 4000.0 4000.0 4000.0 4000.0 4000.0 4000.0 4000.0 4000.0 4000.0 4000.0 4000.0 4000.0 4000.0 4000.0 4000.0 4000.0 4000.0 4000.0 4000.0 4000.0 4000.0 4000.0 4000.0 4000.0 4000.0 4000.0 4000.0 4000.0 4000.0 4000.0 4000.0 4000.0 4000.0 4000.0 4000.0 4000.0 4000.0 4000.0 4000.0 4000.0 4000.0 4000.0 4000.0 4000.0 4000.0 4000.0 4000.0 4000.0 4000.0 4000.0 4000.0 4000.0 4000.0 4000.0 4000.0 4000.0 4000.0 4000.0 4000.0 4000.0 4000.0 4000.0 4000.0 4000.0 4000.0 4000.0 4000.0 4000.0 4000.0 4000.0 4000.0 4000.0 4000.0 4000.0 4000.0 4000.0 4000.0 4000.0 4000.0 4000.0 4000.0 4000.0 4000.0 4000.0 4000.0 4000.0 4000.0 4000.0 4000.0 4000.0 4000.0 4000.0 4000.0 4000.0 4000.0 4000.0 4000.0 4000.0 4000.0 4000.0 4000.0 4000.0 4000.0 4000.0 4000.0 4000.0 4000.0 4000.0 4000.0 4000.0 4000.0 4000.0 4000.0 4000.0 4000.0 4000.0 4000.0 4000.0 4000.0 4000.0 4000.0 4000.0 4000.0 4000.0 4000.0 4000.0 4000.0 4000.0 4000.0 4000.0 4000.0 4000.0 4000.0 4000.0 4000.0 4000.0 4000.0 4000.0 4000.0 4000.0 4000.0 4000.0 4000.0 4000.0 4000.0 4000.0 4000.0 4000.0 4000.0 4000.0 4000.0 4000.0 4000.0 4000.0 4000.0 4000.0 4000.0 4000.0 4000.0 4000.0 4000.0 4000.0 4000.0 4000.0 4000.0 4000.0 4000.0 4000.0 4000.0 4000.0 4000.0 4000.0 4000.0 4000.0 4000.0 4000.0 4000.0 4000.0 4000.0 4000.0 4000.0 4000.0 4000.0 4000.0 4000.0 4000.0 4000.0 4000.0 4000.0 4000.0 4000.0 4000.0 4000.0 4000.0 4000.0 4000.0 4000.0 4000.0 4000.0 4000.0 4000.0 4000.0 4000.0 4000.0 4000.0 4000.0 4000.0 4000.0 4000.0 4000.0 4000.0 4000.0 4000.0 4000.0 4000.0 4000.0 4000.0 4000.0 4000.0 4000.0 4000.0 4000.0 4000.0 4000.0 4000.0 4000.0 4000.0 4000.0 4000.0 4000.0 4000.0 4000.0 4000.0 4000.0 4000.0 4000.0 4000.0 4000.0 4000.0 4000.0 4000.0 4000.0 4000.0 4000.0 4000.0 4000.0 4000.0 4000.0 4000.0 4000.0 4000.0 4000.0 4000.0 4000.0 4000.0 4000.0 4000.0 4000.0 4000.0 4000.0 4000.0 4000.0 4000.0 4000.0 4000.0 4000.0 4000.0 4000.0 4000.0 4000.0 4000.0 4000.0 4000.0 4000.0 4000.0 4000.0 4000.0 4000.0 4000.0 4000.0 4000.0 4000.0 4000.0 4000.0 4000.0 4000.0 4000.0 4000.0 4000.0 4000.0 4000.0 4000.0 4000.0 4000.0 4000.0 4000.0 4000.0 4000.0 4000.0 4000.0 4000.0 4000.0 4000.0 4000.0 4000.0 4000.0 4000.0 4000.0 4000.0 4000.0 4000.0 4000.0 4000.0 4000.0 4000.0 4000.0 4000.0 4000.0 4000.0 4000.0 4000.0 4000.0 4000.0 4000.0 4000.0 4000.0 4000.0 4000.0 4000.0 4000.0 4000.0 4000.0 4000.0 4000.0 4000.0 4000.0 4000.0 4000.0 4000.0 4000.0 4000.0 4000.0 4000.0 4000.0 4000.0 4000.0 4000.0 4000.0 4000.0 4000.0 4000.0 4000.0 4000.0 4000.0 4000.0 4000.0 4000.0 4000.0 4000.0 4000.0 4000.0 4000.0 4000.0 4000.0 4000.0 4000.0 4000.0 4000.0 4000.0 4000.0 4000.0 4000.0 4000.0 4000.0 4000.0 4000.0 4000.0 4000.0 4000.0 4000.0 4000.0 4000.0 4000.0 4000.0 4000.0 4000.0 4000.0 4000.0 4000.0 4000.0 4000.0 4000.0 4000.0 4000.0 4000.0 4000.0 4000.0 4000.0 4000.0 4000.0 4000.0 4000.0 4000.0 4000.0 4000.0 4000.0 4000.0 4000.0 4000.0 4000.0 4000.0 4000.0 4000.0 4000.0 4000.0 4000.0 4000.0 4000.0 4000.0 4000.0 4000.0 4000.0 4000.0 4000.0 4000.0 4000.0 4000.0 4000.0 4000.0 4000.0 4000.0 4000.0 4000.0 4000.0 4000.0 4000.0 4000.0 4000.0 4000.0 4000.0 4000.0 4000.0 4000.0 4000.0 4000.0 4000.0 4000.0 4000.0 4000.0 4000.0 4000.0 4000.0 4000.0 4000.0 4000.0 4000.0 4000.0 4000.0 4000.0 4000.0 4000.0 4000.0 4000.0 4000.0 4000.0 4000.0 4000.0 4000.0 4000.0 4000.0 4000.0 4000.0 4000.0 4000.0 4000.0 4000.0 4000.0 4000.0 4000.0 4000.0 4000.0 4000.0 4000.0 4000.0 4000.0 4000.0 4000.0 4000.0 4000.0 4000.0 4000.0 4000.0 4000.0 4000.0 4000.0 4000.0 4000.0 4000.0 4000.0 4000.0 4000.0 4000.0 4000.0 4000.0 4000.0 4000.0 4000.0 4000.0 4000.0 4000.0 4000.0 4000.0 4000.0 4000.0 4000.0 4000.0 4000.0 4000.0 4000.0 4000.0 4000.0 4000.0 4000.0 4000.0 4000.0 4000.0 4000.0 4000.0 4000.0 4000.0 4000.0 4000.0 4000.0 4000.0 4000.0 4000.0 4000.0 4000.0 4000.0 4000.0 4000.0 4000.0 4000.0 4000.0 4000.0 4000.0 4000.0 4000.0 4000.0 4000.0 4000.0 4000.0 4000.0 4000.0 4000.0 4000.0 4000.0 4000.0 4000.0 4000.0 4000.0 4000.0 4000.0 4000.0 4000.0 4000.0 4000.0 4000.0 4000.0 4000.0 4000.0 4000.0 4000.0 4000.0 4000.0 4000.0 4000.0 4000.0 4000.0 4000.0 4000.0 4000.0 4000.0 4000.0 4000.0 4000.0 4000.0 4000.0 4000.0 4000.0 4000.0 4000.0 4000.0 4000.0 4000.0 4000.0 4000.0 4000.0 4000.0 4000.0 4000.0 4000.0 4000.0 4000.0 4000.0 4000.0 4000.0 4000.0 4000.0 4000.0 4000.0 4000.0 4000.0 4000.0 4000.0 4000.0 4000.0 4000.0 4000.0 4000.0 4000.0 4000.0 4000.0 4000.0 4000.0 4000.0 4000.0 4000.0 4000.0 4000.0 4000.0 4000.0 4000.0 4000.0 4000.0 4000.0 4000.0 4000.0 4000.0 4000.0 4000.0 4000.0 4000.0 4000.0 4000.0 4000.0 4000.0 4000.0 4000.0 4000.0 4000.0 4000.0 4000.0 4000.0 4000.0 4000.0 4000.0 4000.0 4000.0 4000.0 4000.0 4000.0 4000.0 4000.0 4000.0 4000.0 4000.0 4000.0 4000.0 4000.0 4000.0 4000.0 4000.0 4000.0 4000.0 4000.0 4000.0 4000.0 4000.0 4000.0 4000.0 4000.0 4000.0 4000.0 4000.0 4000.0 4000.0 4000.0 4000.0 4000.0 4000.0 4000.0 4000.0 4000.0 4000.0 4000.0 4000.0 4000.0 4000.0 4000.0 4000.0 4000.0 4000.0 4000.0 4000.0 4000.0 4000.0 4000.0 4000.0 4000.0 4000.0 4000.0 4000.0 4000.0 4000.0 4000.0 4000.0 4000.0 4000.0 4000.0 4000.0 4000.0 4000.0 4000.0 4000.0 4000.0 4000.0 4000.0 4000.0 4000.0 4000.0 4000.0 4000.0 4000.0 4000.0 4000.0 4000.0 4000.0 4000.0 4000.0 4000.0 4000.0 4000.0 4000.0 4000.0 4000.0 4000.0 4000.0 4000.0 4000.0 4000.0 4000.0 4000.0 4000.0 4000.0 4000.0 4000.0 4000.0 4000.0 4000.0 4000.0 4000.0 4000.0 4000.0 4000.0 4000.0 4000.0 4000.0 4000.0 4000.0 4000.0 4000.0 4000.0 4000.0 4000.0 4000.0 4000.0 4000.0 4000.0 4000.0 4000.0 4000.0 4000.0 4000.0 4000.0 4000.0 4000.0 4000.0 4000.0 4000.0 4000.0 4000.0 4000.0 4000.0 4000.0 4000.0 4000.0 4000.0 4000.0 4000.0 4000.0 4000.0 4000.0 4000.0 4000.0 4000.0 4000.0 4000.0 4000.0 4000.0 4000.0 4000.0 4000.0 4000.0 4000.0 4000.0 4000.0 4000.0 4000.0 4000.0 4000.0 4000.0 4000.0 4000.0 4000.0 4000.0 4000.0 4000.0 4000.0 4000.0 4000.0 4000.0 4000.0 4000.0 4000.0 4000.0 4000.0 4000.0 4000.0 4000.0 4000.0 4000.0 4000.0 4000.0 4000.0 4000.0 4000.0 4000.0 4000.0 4000.0 4000.0 4000.0 4000.0 4000.0 4000.0 4000.0 4000.0 4000.0 4000.0 4000.0 4000.0 4000.0 4000.0 4000.0 4000.0 4000.0 4000.0 4000.0 4000.0 4000.0 4000.0 4000.0 4000.0 4000.0 4000.0 4000.0 4000.0 4000.0 4000.0 4000.0 4000.0 4000.0 4000.0 4000.0 4000.0 4000.0 4000.0 4000.0 4000.0 4000.0 4000.0 4000.0 4000.0 4000.0 4000.0 4000.0 4000.0 4000.0 4000.0 4000.0 4000.0 4000.0 4000.0 4000.0 4000.0 4000.0 4000.0 4000.0 4000.0 4000.0 4000.0 4000.0 4000.0 4000.0 4000.0 4000.0 4000.0 4000.0 4000.0 4000.0 4000.0 4000.0 4000.0 4000.0 4000.0 4000.0 4000.0 4000.0 4000.0 4000.0 4000.0 4000.0 4000.0 4000.0 4000.0 4000.0 4000.0 4000.0 4000.0 4000.0 4000.0 4000.0 4000.0 4000.0 4000.0 4000.0 4000.0 4000.0 4000.0 4000.0 4000.0 4000.0 4000.0 4000.0 4000.0 4000.0 4000.0 4000.0 4000.0 4000.0 4000.0 4000.0 4000.0 4000.0 4000.0 4000.0 4000.0 4000.0 4000.0 4000.0 4000.0 4000.0 4000.0 4000.0 4000.0 4000.0 4000.0 4000.0 4000.0 4000.0 4000.0 4000.0 4000.0 4000.0 4000.0 4000.0 4000.0 4000.0 4000.0 4000.0 4000.0 4000.0 4000.0 4000.0 4000.0 4000.0 4000.0 4000.0 4000.0 4000.0 4000.0 4000.0 4000.0 4000.0 4000.0 4000.0 4000.0 4000.0 4000.0 4000.0 4000.0 4000.0 4000.0 4000.0 4000.0 4000.0 4000.0 4000.0 4000.0 4000.0 4000.0 4000.0 4000.0 4000.0 4000.0 4000.0 4000.0 4000.0 4000.0 4000.0 4000.0 4000.0 4000.0 4000.0 4000.0 4000.0 4000.0 4000.0 4000.0 4000.0 4000.0 4000.0 4000.0 4000.0 4000.0 4000.0 4000.0 4000.0 4000.0 4000.0 4000.0 4000.0 4000.0 4000.0 4000.0 4000.0 4000.0 4000.0 4000.0 4000.0 4000.0 4000.0 4000.0 4000.0 4000.0 4000.0 4000.0 4000.0 4000.0 4000.0 4000.0 4000.0 4000.0 4000.0 4000.0 4000.0 4000.0 4000.0 4000.0 4000.0 4000.0 4000.0 4000.0 4000.0 4000.0 4000.0 4000.0 4000.0 4000.0 4000.0 4000.0 4000.0 4000.0 4000.0 4000.0 4000.0 4000.0 4000.0 4000.0 4000.0 4000.0 4000.0 4000.0 4000.0 4000.0 4000.0 4000.0 4000.0 4000.0 4000.0 4000.0 4000.0 4000.0 4000.0 4000.0 4000.0 4000.0 4000.0 4000.0 4000.0 4000.0 4000.0 4000.0 4000.0 4000.0 4000.0 4000.0 4000.0 4000.0 4000.0 4000.0 4000.0 4000.0 4000.0 4000.0 4000.0 4000.0 4000.0 4000.0 4000.0 4000.0 4000.0 4000.0 4000.0 4000.0 4000.0 4000.0 4000.0 4000.0 4000.0 4000.0 4000.0 4000.0 4000.0 4000.0 4000.0 4000.0 4000.0 4000.0 4000.0 4000.0 4000.0 4000.0 4000.0 4000.0 4000.0 4000.0 4000.0 4000.0 4000.0 4000.0 4000.0 4000.0 4000.0 4000.0 4000.0 4000.0 4000.0 4000.0 4000.0 4000.0 4000.0 4000.0 4000.0 4000.0 4000.0 4000.0 4000.0 4000.0 4000.0 4000.0 4000.0 4000.0 4000.0 4000.0 4000.0 4000.0 4000.0 4000.0 4000.0 4000.0 4000.0 4000.0 4000.0 4000.0 4000.0 4000.0 4000.0 4000.0 4000.0 4000.0 4000.0 4000.0 4000.0 4000.0 4000.0 4000.0 4000.0 4000.0 4000.0 4000.0 4000.0 4000.0 4000.0 4000.0 4000.0 4000.0 4000.0 4000.0 4000.0 4000.0 4000.0 4000.0 4000.0 4000.0 4000.0 4000.0 4000.0 4000.0 4000.0 4000.0 4000.0 4000.0 4000.0 4000.0 4000.0 4000.0 4000.0 4000.0 4000.0 4000.0 4000.0 4000.0 4000.0 4000.0 4000.0 4000.0 4000.0 4000.0 4000.0 4000.0 4000.0 4000.0 4000.0 4000.0 4000.0 4000.0 4000.0 4000.0 4000.0 4000.0 4000.0 4000.0 4000.0 4000.0 4000.0 4000.0 4000.0 4000.0 4000.0 4000.0 4000.0 4000.0 4000.0 4000.0 4000.0 4000.0 4000.0 4000.0 4000.0 4000.0 4000.0 4000.0 4000.0 4000.0 4000.0 4000.0 4000.0 4000.0 4000.0 4000.0 4000.0 4000.0 4000.0 4000.0 4000.0 4000.0 4000.0 4000.0 4000.0 4000.0 4000.0 4000.0 4000.0 4000.0 4000.0 4000.0 4000.0 4000.0 4000.0 4000.0 4000.0 4000.0 4000.0 4000.0 4000.0 4000.0 4000.0 4000.0 4000.0 4000.0 4000.0 4000.0 4000.0 4000.0 4000.0 4000.0 4000.0 4000.0 4000.0 4000.0 4000.0 4000.0 4000.0 4000.0 4000.0 4000.0 4000.0 4000.0 4000.0 4000.0 4000.0 4000.0 4000.0 4000.0 4000.0 4000.0 4000.0 4000.0 4000.0 4000.0 4000.0 4000.0 4000.0 4000.0 4000.0 4000.0 4000.0 4000.0 4000.0 4000.0 4000.0 4000.0 4000.0 4000.0 4000.0 4000.0 4000.0 4000.0 4000.0 4000.0 4000.0 4000.0 4000.0 4000.0 4000.0 4000.0 4000.0 4000.0 4000.0 4000.0 4000.0 4000.0 4000.0 4000.0 4000.0 4000.0 4000.0 4000.0 4000.0 4000.0 4000.0 4000.0 4000.0 4000.0 4000.0 4000.0 4000.0 4000.0 4000.0 4000.0 4000.0 4000.0 4000.0 4000.0 4000.0 4000.0 4000.0 4000.0 4000.0 4000.0 4000.0 4000.0 4000.0 4000.0 4000.0 4000.0 4000.0 4000.0 4000.0 4000.0 4000.0 4000.0 4000.0 4000.0 4000.0 4000.0 4000.0 4000.0 4000.0 4000.0 4000.0 4000.0 4000.0 4000.0 4000.0 4000.0 4000.0 4000.0 4000.0 4000.0 4000.0 4000.0 4000.0 4000.0 4000.0 4000.0 4000.0 4000.0 4000.0 4000.0 4000.0 4000.0 4000.0 4000.0 4000.0 4000.0 4000.0 4000.0 4000.0 4000.0 4000.0 4000.0 4000.0 4000.0 4000.0 4000.0 4000.0 4000.0 4000.0 4000.0 4000.0 4000.0 4000.0 4000.0 4000.0 4000.0 4000.0 4000.0 4000.0 4000.0 4000.0 4000.0 4000.0 4000.0 4000.0 4000.0 4000.0 4000.0 4000.0 4000.0 4000.0 4000.0 4000.0 4000.0 4000.0 4000.0 4000.0 4000.0 4000.0 4000.0 4000.0 4000.0 4000.0 4000.0 4000.0 4000.0 4000.0 4000.0 4000.0 4000.0 4000.0 4000.0 4000.0 4000.0 4000.0 4000.0 4000.0 4000.0 4000.0 4000.0 4000.0 4000.0 4000.0 4000.0 4000.0 4000.0 4000.0 4000.0 4000.0 4000.0 4000.0 4000.0 4000.0 4000.0 4000.0 4000.0 4000.0 4000.0 4000.0 4000.0 4000.0 4000.0 4000.0 4000.0 4000.0 4000.0 4000.0 4000.0 4000.0 4000.0 4000.0 4000.0 4000.0 4000.0 4000.0 4000.0 4000.0 4000.0 4000.0 4000.0 4000.0 4000.0 4000.0 4000.0 4000.0 4000.0 4000.0 4000.0 4000.0 4000.0 4000.0 4000.0 4000.0 4000.0 4000.0 4000.0 4000.0 4000.0 4000.0 4000.0 4000.0 4000.0 4000.0 4000.0 4000.0 4000.0 4000.0 4000.0 4000.0 4000.0 4000.0 4000.0 4000.0 4000.0 4000.0 4000.0 4000.0 4000.0 4000.0 4000.0 4000.0 4000.0 4000.0 4000.0 4000.0 4000.0 4000.0 4000.0 4000.0 4000.0 4000.0 4000.0 4000.0 4000.0 4000.0 4000.0 4000.0 4000.0 4000.0 4000.0 4000.0 4000.0 4000.0 4000.0 4000.0 4000.0 4000.0 4000.0 4000.0 4000.0 4000.0 4000.0 4000.0 4000.0 4000.0 4000.0 4000.0 4000.0 4000.0 4000.0 4000.0 4000.0 4000.0 4000.0 4000.0 4000.0 4000.0 4000.0 4000.0 4000.0 4000.0 4000.0 4000.0 4000.0 4000.0 4000.0 4000.0 4000.0 4000.0 4000.0 4000.0 4000.0 4000.0 4000.0 4000.0 4000.0 4000.0 4000.0 4000.0 4000.0 4000.0 4000.0 4000.0 4000.0 4000.0 4000.0 4000.0 4000.0 4000.0 4000.0 4000.0 4000.0 4000.0 4000.0 4000.0 4000.0 4000.0 4000.0 4000.0 4000.0 4000.0 4000.0 4000.0 4000.0 4000.0 4000.0 4000.0 4000.0 4000.0 4000.0 4000.0 4000.0 4000.0 4000.0 4000.0 4000.0 4000.0 4000.0 4000.0 4000.0 4000.0 4000.0 4000.0 4000.0 4000.0 4000.0 4000.0 4000.0 4000.0 4000.0 4000.0 4000.0 4000.0 4000.0 4000.0 4000.0 4000.0 4000.0 4000.0 4000.0 4000.0 4000.0 4000.0 4000.0 4000.0 4000.0 4000.0 4000.0 4000.0 4000.0 4000.0 4000.0 4000.0 4000.0 4000.0 4000.0 4000.0 4000.0 4000.0 4000.0 4000.0 4000.0 4000.0 4000.0 4000.0 4000.0 4000.0 4000.0 4000.0 4000.0 4000.0 4000.0 4000.0 4000.0 4000.0 4000.0 4000.0 4000.0 4000.0 4000.0 4000.0 4000.0 4000.0 4000.0 4000.0 4000.0 4000.0 4000.0 4000.0 4000.0 4000.0 4000.0 4000.0 4000.0 4000.0 4000.0 4000.0 4000.0 4000.0 4000.0 4000.0 4000.0 4000.0 4000.0 4000.0 4000.0 4000.0 4000.0 4000.0 4000.0 4000.0 4000.0 4000.0 4000.0 4000.0 4000.0 4000.0 4000.0 4000.0 4000.0 4000.0 4000.0 4000.0 4000.0 4000.0 4000.0 4000.0 4000.0 4000.0 4000.0 4000.0 4000.0 4000.0 4000.0 4000.0 4000.0 4000.0 4000.0 4000.0 4000.0 4000.0 4000.0 4000.0 4000.0 4000.0 4000.0 4000.0 4000.0 4000.0 4000.0 4000.0 4000.0 4000.0 4000.0 4000.0 4000.0 4000.0 4000.0 4000.0 4000.0 4000.0 4000.0 4000.0 4000.0 4000.0 4000.0 4000.0 4000.0 4000.0 4000.0 4000.0 4000.0 4000.0 4000.0 4000.0 4000.0 4000.0 4000.0 4000.0 4000.0 4000.0 4000.0 4000.0 4000.0 4000.0 4000.0 4000.0 4000.0 4000.0 4000.0 4000.0 4000.0 4000.0 4000.0 4000.0 4000.0 4000.0 4000.0 4000.0 4000.0 4000.0 4000.0 4000.0 4000.0 4000.0 4000.0 4000.0 4000.0 4000.0 4000.0 4000.0 4000.0 4000.0 4000.0 4000.0 4000.0 4000.0 4000.0 4000.0 4000.0 4000.0 4000.0 4000.0 4000.0 4000.0 4000.0 4000.0 4000.0 4000.0 4000.0 4000.0 4000.0 4000.0 4000.0 4000.0 4000.0 4000.0 4000.0 4000.0 4000.0 4000.0 4000.0 4000.0 4000.0 4000.0 4000.0 4000.0 4000.0 4000.0 4000.0 4000.0 4000.0 4000.0 4000.0 4000.0 4000.0 4000.0 4000.0 4000.0 4000.0 4000.0 4000.0 4000.0 4000.0 4000.0 4000.0 4000.0 4000.0 4000.0 4000.0 4000.0 4000.0 4000.0 4000.0 4000.0 4000.0 4000.0 4000.0 4000.0 4000.0 4000.0 4000.0 4000.0 4000.0 4000.0 4000.0 4000.0 4000.0 4000.0 4000.0 4000.0 4000.0 4000.0 4000.0 4000.0 4000.0 4000.0 4000.0 4000.0 4000.0 4000.0 4000.0 4000.0 4000.0 4000.0 4000.0 4000.0 4000.0 4000.0 4000.0 4000.0 4000.0 4000.0 4000.0 4000.0 4000.0 4000.0 4000.0 4000.0 4000.0 4000.0 4000.0 4000.0 4000.0 4000.0 4000.0 4000.0 4000.0 4000.0 4000.0 4000.0 4000.0 4000.0 4000.0 4000.0 4000.0 4000.0 4000.0 4000.0 4000.0 4000.0 4000.0 4000.0 4000.0 4000.0 4000.0 4000.0 4000.0 4000.0 4000.0 4000.0 4000.0 4000.0 4000.0 4000.0 4000.0 4000.0 4000.0 4000.0 4000.0 4000.0 4000.0 4000.0 4000.0 4000.0 4000.0 4000.0 4000.0 4000.0 4000.0 4000.0 4000.0 4000.0 4000.0 4000.0 4000.0 4000.0 4000.0 4000.0 4000.0 4000.0 4000.0 4000.0 4000.0 4000.0 4000.0 4000.0 4000.0 4000.0 4000.0 4000.0 4000.0 4000.0 4000.0 4000.0 4000.0 4000.0 4000.0 4000.0 4000.0 4000.0 4000.0 4000.0 4000.0 4000.0 4000.0 4000.0 4000.0 4000.0 4000.0 4000.0 4000.0 4000.0 4000.0 4000.0 4000.0 4000.0 4000.0 4000.0 4000.0 4000.0 4000.0 4000.0 4000.0 4000.0 4000.0 4000.0 4000.0 4000.0 4000.0 4000.0 4000.0 4000.0 4000.0 4000.0 4000.0 4000.0 4000.0 4000.0 4000.0 4000.0 4000.0 4000.0 4000.0 4000.0 4000.0 4000.0 4000.0 4000.0 4000.0 4000.0 4000.0 4000.0 4000.0 4000.0 4000.0 4000.0 4000.0 4000.0 4000.0 4000.0 4000.0 4000.0 4000.0 4000.0 4000.0 4000.0 4000.0 4000.0 4000.0 4000.0 4000.0 4000.0 4000.0 4000.0 4000.0 4000.0 4000.0 4000.0 4000.0 4000.0 4000.0 4000.0 4000.0 4000.0 4000.0 4000.0 4000.0 4000.0 4000.0 4000.0 4000.0 4000.0 4000.0 4000.0 4000.0 4000.0 4000.0 4000.0 4000.0 4000.0 4000.0 4000.0 4000.0 4000.0 4000.0 4000.0 4000.0 4000.0 4000.0 4000.0 4000.0 4000.0 4000.0 4000.0 4000.0 4000.0 4000.0 4000.0 4000.0 4000.0 4000.0 4000.0 4000.0 4000.0 4000.0 4000.0 4000.0 4000.0 4000.0 4000.0 4000.0 4000.0 4000.0 4000.0 4000.0 4000.0 4000.0 4000.0 4000.0 4000.0 4000.0 4000.0 4000.0 4000.0 4000.0 4000.0 4000.0 4000.0 4000.0 4000.0 4000.0 4000.0 4000.0 4000.0 4000.0 4000.0 4000.0 4000.0 4000.0 4000.0 4000.0 4000.0 4000.0 4000.0 4000.0 4000.0 4000.0 4000.0 4000.0 4000.0 4000.0 4000.0 4000.0 4000.0 4000.0 4000.0 4000.0 4000.0 4000.0 4000.0 4000.0 4000.0 4000.0 4000.0 4000.0 4000.0 4000.0 4000.0 4000.0 4000.0 4000.0 4000.0 4000.0 4000.0 4000.0 4000.0 4000.0 4000.0 4000.0 4000.0 4000.0 4000.0 4000.0 4000.0 4000.0 4000.0 4000.0 4000.0 4000.0 4000.0 4000.0 4000.0 4000.0 4000.0 4000.0 4000.0 4000.0 4000.0 4000.0 4000.0 4000.0 4000.0 4000.0 4000.0 4000.0 4000.0 4000.0 4000.0 4000.0 4000.0 4000.0 4000.0 4000.0 4000.0 4000.0 4000.0 4000.0 4000.0 4000.0 4000.0 4000.0 4000.0 4000.0 4000.0 4000.0 4000.0 4000.0 4000.0 4000.0 4000.0 4000.0 4000.0 4000.0 4000.0 4000.0 4000.0 4000.0 4000.0 4000.0 4000.0 4000.0 4000.0 4000.0 4000.0 4000.0 4000.0 4000.0 4000.0 4000.0 4000.0 4000.0 4000.0 4000.0 4000.0 4000.0 4000.0 4000.0 4000.0 4000.0 4000.0 4000.0 4000.0 4000.0 4000.0 4000.0 4000.0 4000.0 4000.0 4000.0 4000.0 4000.0 4000.0 4000.0 4000.0 4000.0 4000.0 4000.0 4000.0 4000.0 4000.0 4000.0 4000.0 4000.0 4000.0 4000.0 4000.0 4000.0 4000.0 4000.0 4000.0 4000.0 4000.0 4000.0 4000.0 4000.0 4000.0 4000.0 4000.0 4000.0 4000.0 4000.0 4000.0 4000.0 4000.0 4000.0 4000.0 4000.0 4000.0 4000.0 4000.0 4000.0 4000.0 4000.0 4000.0 4000.0 4000.0 4000.0 4000.0 4000.0 4000.0 4000.0 4000.0 4000.0 4000.0 4000.0 4000.0 4000.0 4000.0 4000.0 4000.0 4000.0 4000.0 4000.0 4000.0 4000.0 4000.0 4000.0 4000.0 4000.0 4000.0 4000.0 4000.0 4000.0 4000.0 4000.0 4000.0 4000.0 4000.0 4000.0 4000.0 4000.0 4000.0 4000.0 4000.0 4000.0 4000.0 4000.0 4000.0 4000.0 4000.0 4000.0 4000.0 4000.0 4000.0 4000.0 4000.0 4000.0 4000.0 4000.0 4000.0 4000.0 4000.0 4000.0 4000.0 4000.0 4000.0 4000.0 4000.0 4000.0 4000.0 4000.0 4000.0 4000.0 4000.0 4000.0 4000.0 4000.0 4000.0 4000.0 4000.0 4000.0 4000.0 4000.0 4000.0 4000.0 4000.0 4000.0 4000.0 4000.0 4000.0 4000.0 4000.0 4000.0 4000.0 4000.0 4000.0 4000.0 4000.0 4000.0 4000.0 4000.0 4000.0 4000.0 4000.0 4000.0 4000.0 4000.0 4000.0 4000.0 4000.0 4000.0 4000.0 4000.0 4000.0 4000.0 4000.0 4000.0 4000.0 4000.0 4000.0 4000.0 4000.0 4000.0 4000.0 4000.0 4000.0 4000.0 4000.0 4000.0 4000.0 4000.0 4000.0 4000.0 4000.0 4000.0 4000.0 4000.0 4000.0 4000.0 4000.0 4000.0 4000.0 4000.0 4000.0 4000.0 4000.0 4000.0 4000.0 4000.0 4000.0 4000.0 4000.0 4000.0 4000.0 4000.0 4000.0 4000.0 4000.0 4000.0 4000.0 4000.0 4000.0 4000.0 4000.0 4000.0 4000.0 4000.0 4000.0 4000.0 4000.0 4000.0 4000.0 4000.0 4000.0 4000.0 4000.0 4000.0 4000.0 4000.0 4000.0 4000.0 4000.0 4000.0 4000.0 4000.0 4000.0 4000.0 4000.0 4000.0 4000.0 4000.0 4000.0 4000.0 4000.0 4000.0 4000.0 4000.0 4000.0 4000.0 4000.0 4000.0 4000.0 4000.0 4000.0 4000.0 4000.0 4000.0 4000.0 4000.0 4000.0 4000.0 4000.0 4000.0 4000.0 4000.0 4000.0 4000.0 4000.0 4000.0 4000.0 4000.0 4000.0 4000.0 4000.0 4000.0 4000.0 4000.0 4000.0 4000.0 4000.0 4000.0 4000.0 4000.0 4000.0 4000.0 4000.0 4000.0 4000.0 4000.0 4000.0 4000.0 4000.0 4000.0 4000.0 4000.0 4000.0 4000.0 4000.0 4000.0 4000.0 4000.0 4000.0 4000.0 4000.0 4000.0 4000.0 4000.0 4000.0 4000.0 4000.0 4000.0 4000.0 4000.0 4000.0 4000.0 4000.0 4000.0 4000.0 4000.0 4000.0 4000.0 4000.0 4000.0 4000.0 4000.0 4000.0 4000.0 4000.0 4000.0 4000.0 4000.0 4000.0 4000.0 4000.0 4000.0 4000.0 4000.0 4000.0 4000.0 4000.0 4000.0 4000.0 4000.0 4000.0 4000.0 4000.0 4000.0 4000.0 4000.0 4000.0 4000.0 4000.0 4000.0 4000.0 4000.0 4000.0 4000.0 4000.0 4000.0 4000.0 4000.0 4000.0 4000.0 4000.0 4000.0 4000.0 4000.0 4000.0 4000.0 4000.0 4000.0 4000.0 4000.0 4000.0 4000.0 4000.0 4000.0 4000.0 4000.0 4000.0 4000.0 4000.0 4000.0 4000.0 4000.0 4000.0 4000.0 4000.0 4000.0 4000.0 4000.0 4000.0 4000.0 4000.0 4000.0 4000.0 4000.0 4000.0 4000.0 4000.0 4000.0 4000.0 4000.0 4000.0 4000.0 4000.0 4000.0 4000.0 4000.0 4000.0 4000.0 4000.0 4000.0 4000.0 4000.0 4000.0 4000.0 4000.0 4000.0 4000.0 4000.0 4000.0 4000.0 4000.0 4000.0 4000.0 4000.0 4000.0 4000.0 4000.0 4000.0 4000.0 4000.0 4000.0 4000.0 4000.0 4000.0 4000.0 4000.0 4000.0 4000.0 4000.0 4000.0 4000.0 4000.0 4000.0 4000.0 4000.0 4000.0 4000.0 4000.0 4000.0 4000.0 4000.0 4000.0 4000.0 4000.0 4000.0 4000.0 4000.0 4000.0 4000.0 4000.0 4000.0 4000.0 4000.0 4000.0 4000.0 4000.0 4000.0 4000.0 4000.0 4000.0 4000.0 4000.0 4000.0 4000.0 4000.0 4000.0 4000.0 4000.0 4000.0 4000.0 4000.0 4000.0 4000.0 4000.0 4000.0 4000.0 4000.0 4000.0 4000.0 4000.0 4000.0 4000.0 4000.0 4000.0 4000.0 4000.0 4000.0 4000.0 4000.0 4000.0 4000.0 4000.0 4000.0 4000.0 4000.0 4000.0 4000.0 4000.0 4000.0 4000.0 4000.0 4000.0 4000.0 4000.0 4000.0 4000.0 4000.0 4000.0 4000.0 4000.0 4000.0 4000.0 4000.0 4000.0 4000.0 4000.0 4000.0 4000.0 4000.0 4000.0 4000.0 4000.0 4000.0 4000.0 4000.0 4000.0 4000.0 4000.0 4000.0 4000.0 4000.0 4000.0 4000.0 4000.0 4000.0 4000.0 4000.0 4000.0 4000.0 4000.0 4000.0 4000.0 4000.0 4000.0 4000.0 4000.0 4000.0 4000.0 4000.0 4000.0 4000.0 4000.0 4000.0 4000.0 4000.0 4000.0 4000.0 4000.0 4000.0 4000.0 4000.0 4000.0 4000.0 4000.0 4000.0 4000.0 4000.0 4000.0 4000.0 4000.0 4000.0 4000.0 4000.0 4000.0 4000.0 4000.0 4000.0 4000.0 4000.0 4000.0 4000.0 4000.0 4000.0 4000.0 4000.0 4000.0 4000.0 4000.0 4000.0 4000.0 4000.0 4000.0 4000.0 4000.0 4000.0 4000.0 4000.0 4000.0 4000.0 4000.0 4000.0 4000.0 4000.0 4000.0 4000.0 4000.0 4000.0 4000.0 4000.0 4000.0 4000.0 4000.0 4000.0 4000.0 4000.0 4000.0 4000.0 4000.0 4000.0 4000.0 4000.0 4000.0 4000.0 4000.0 4000.0 4000.0 4000.0 4000.0 4000.0 4000.0 4000.0 4000.0 4000.0 4000.0 4000.0 4000.0 4000.0 4000.0 4000.0 4000.0 4000.0 4000.0 4000.0 4000.0 4000.0 4000.0 4000.0 4000.0 4000.0 4000.0 4000.0 4000.0 4000.0 4000.0 4000.0 4000.0 4000.0 4000.0 4000.0 4000.0 4000.0 4000.0 4000.0 4000.0 4000.0 4000.0 4000.0 4000.0 4000.0 4000.0 4000.0 4000.0 4000.0 4000.0 4000.0 4000.0 4000.0 4000.0 4000.0 4000.0 4000.0 4000.0 4000.0 4000.0 4000.0 4000.0 4000.0 4000.0 4000.0 4000.0 4000.0 4000.0 4000.0 4000.0 4000.0 4000.0 4000.0 4000.0 4000.0 4000.0 4000.0 4000.0 4000.0 4000.0 4000.0 4000.0 4000.0 4000.0 4000.0 4000.0 4000.0 4000.0 4000.0 4000.0 4000.0 4000.0 4000.0 4000.0 4000.0 4000.0 4000.0 4000.0 4000.0 4000.0 4000.0 4000.0 4000.0 4000.0 4000.0 4000.0 4000.0 4000.0 4000.0 4000.0 4000.0 4000.0 4000.0 4000.0 4000.0 4000.0 4000.0 4000.0 4000.0 4000.0 4000.0 4000.0 4000.0 4000.0 4000.0 4000.0 4000.0 4000.0 4000.0 4000.0 4000.0 4000.0 4000.0 4000.0 4000.0 4000.0 4000.0 4000.0 4000.0 4000.0 4000.0 4000.0 4000.0 4000.0 4000.0 4000.0 4000.0 4000.0 4000.0 4000.0 4000.0 4000.0 4000.0 4000.0 4000.0 4000.0 4000.0 4000.0 4000.0 4000.0 4000.0 4000.0 4000.0 4000.0 4000.0 4000.0 4000.0 4000.0 4000.0 4000.0 4000.0 4000.0 4000.0 4000.0 4000.0 4000.0 4000.0 4000.0 4000.0 4000.0 4000.0 4000.0 4000.0 4000.0 4000.0 4000.0 4000.0 4000.0 4000.0 4000.0 4000.0 4000.0 4000.0 4000.0 4000.0 4000.0 4000.0 4000.0 4000.0 4000.0 4000.0 4000.0 4000.0 4000.0 4000.0 4000.0 4000.0 4000.0 4000.0 4000.0 4000.0 4000.0 4000.0 4000.0 4000.0 4000.0 4000.0 4000.0 4000.0 4000.0 4000.0 4000.0 4000.0 4000.0 4000.0 4000.0 4000.0 4000.0 4000.0 4000.0 4000.0 4000.0 4000.0 4000.0 4000.0 4000.0 4000.0 4000.0 4000.0 4000.0 4000.0 4000.0 4000.0 4000.0 4000.0 4000.0 4000.0 4000.0 4000.0 4000.0 4000.0 4000.0 4000.0 4000.0 4000.0 4000.0 4000.0 4000.0 4000.0 4000.0 4000.0 4000.0 4000.0 4000.0 4000.0 4000.0 4000.0 4000.0 4000.0 4000.0 4000.0 4000.0 4000.0 4000.0 4000.0 4000.0 4000.0 4000.0 4000.0 4000.0 4000.0 4000.0 4000.0 4000.0 4000.0 4000.0 4000.0 4000.0 4000.0 4000.0 4000.0 4000.0 4000.0 4000.0 4000.0 4000.0 4000.0 4000.0 4000.0 4000.0 4000.0 4000.0 4000.0 4000.0 4000.0 4000.0 4000.0 4000.0 4000.0 4000.0 4000.0 4000.0 4000.0 4000.0 4000.0 4000.0 4000.0 4000.0 4000.0 4000.0 4000.0 4000.0 4000.0 4000.0 4000.0 4000.0 4000.0 4000.0 4000.0 4000.0 4000.0 4000.0 4000.0 4000.0 4000.0 4000.0 4000.0 4000.0 4000.0 4000.0 4000.0 4000.0 4000.0 4000.0 4000.0 4000.0 4000.0 4000.0 4000.0 4000.0 4000.0 4000.0 4000.0 4000.0 4000.0 4000.0 4000.0 4000.0 4000.0 4000.0 4000.0 4000.0 4000.0 4000.0 4000.0 4000.0 4000.0 4000.0 4000.0 4000.0 4000.0 4000.0 4000.0 4000.0 4000.0 4000.0 4000.0 4000.0 4000.0 4000.0 4000.0 4000.0 4000.0 4000.0 4000.0 4000.0 4000.0 4000.0 4000.0 4000.0 4000.0 4000.0 4000.0 4000.0 4000.0 4000.0 4000.0 4000.0 4000.0 4000.0 4000.0 4000.0 4000.0 4000.0 4000.0 4000.0 4000.0 4000.0 4000.0 4000.0 4000.0 4000.0 4000.0 4000.0 4000.0 4000.0 4000.0 4000.0 4000.0 4000.0 4000.0 4000.0 4000.0 4000.0 4000.0 4000.0 4000.0 4000.0 4000.0 4000.0 4000.0 4000.0 4000.0 4000.0 4000.0 4000.0 4000.0 4000.0 4000.0 4000.0 4000.0 4000.0 4000.0 4000.0 4000.0 4000.0 4000.0 4000.0 4000.0 4000.0 4000.0 4000.0 4000.0 4000.0 4000.0 4000.0 4000.0 4000.0 4000.0 4000.0 4000.0 4000.0 4000.0 4000.0 4000.0 4000.0 4000.0 4000.0 4000.0 4000.0 4000.0 4000.0 4000.0 4000.0 4000.0 4000.0 4000.0 4000.0 4000.0 4000.0 4000.0 4000.0 4000.0 4000.0 4000.0 4000.0 4000.0 4000.0 4000.0 4000.0 4000.0 4000.0 4000.0 4000.0 4000.0 4000.0 4000.0 4000.0 4000.0 4000.0 4000.0 4000.0 4000.0 4000.0 4000.0 4000.0 4000.0 4000.0 4000.0 4000.0 4000.0 4000.0 4000.0 4000.0 4000.0 4000.0 4000.0 4000.0 4000.0 4000.0 4000.0 4000.0 4000.0 4000.0 4000.0 4000.0 4000.0 4000.0 4000.0 4000.0 4000.0 4000.0 4000.0 4000.0 4000.0 4000.0 4000.0 4000.0 4000.0 4000.0 4000.0 4000.0 4000.0 4000.0 4000.0 4000.0 4000.0 4000.0 4000.0 4000.0 4000.0 4000.0 4000.0 4000.0 4000.0 4000.0 4000.0 4000.0 4000.0 4000.0 4000.0 4000.0 4000.0 4000.0 4000.0 4000.0 4000.0 4000.0 4000.0 4000.0 4000.0 4000.0 4000.0 4000.0 4000.0 4000.0 4000.0 4000.0 4000.0 4000.0 4000.0 4000.0 4000.0 4000.0 4000.0 4000.0 4000.0 4000.0 4000.0 4000.0 4000.0 4000.0 4000.0 4000.0 4000.0 4000.0 4000.0 4000.0 4000.0 4000.0 4000.0 4000.0 4000.0 4000.0 4000.0 4000.0 4000.0 4000.0 4000.0 4000.0 4000.0 4000.0 4000.0 4000.0 4000.0 4000.0 4000.0 4000.0 4000.0 4000.0 4000.0 4000.0 4000.0 4000.0 4000.0 4000.0 4000.0 4000.0 4000.0 4000.0 4000.0 4000.0 4000.0 4000.0 4000.0 4000.0 4000.0 4000.0 4000.0 4000.0 4000.0 4000.0 4000.0 4000.0 4000.0 4000.0 4000.0 4000.0 4000.0 4000.0 4000.0 4000.0 4000.0 4000.0 4000.0 4000.0 4000.0 4000.0 4000.0 4000.0 4000.0 4000.0 4000.0 4000.0 4000.0 4000.0 4000.0 4000.0 4000.0 4000.0 4000.0 4000.0 4000.0 4000.0 4000.0 4000.0 4000.0 4000.0 4000.0 4000.0 4000.0 4000.0 4000.0 4000.0 4000.0 4000.0 4000.0 4000.0 4000.0 4000.0 4000.0 4000.0 4000.0 4000.0 4000.0 4000.0 4000.0 4000.0 4000.0 4000.0 4000.0 4000.0 4000.0 4000.0 4000.0 4000.0 4000.0 4000.0 4000.0 4000.0 4000.0 4000.0 4000.0 4000.0 4000.0 4000.0 4000.0 4000.0 4000.0 4000.0 4000.0 4000.0 4000.0 4000.0 4000.0 4000.0 4000.0 4000.0 4000.0 4000.0 4000.0 4000.0 4000.0 4000.0 4000.0 4000.0 4000.0 4000.0 4000.0 4000.0 4000.0 4000.0 4000.0 4000.0 4000.0 4000.0 4000.0 4000.0 4000.0 4000.0 4000.0 4000.0 4000.0 4000.0 4000.0 4000.0 4000.0 4000.0 4000.0 4000.0 4000.0 4000.0 4000.0 4000.0 4000.0 4000.0 4000.0 4000.0 4000.0 4000.0 4000.0 4000.0 4000.0 4000.0 4000.0 4000.0 4000.0 4000.0 4000.0 4000.0 4000.0 4000.0 4000.0 4000.0 4000.0 4000.0 4000.0 4000.0 4000.0 4000.0 4000.0 4000.0 4000.0 4000.0 4000.0 4000.0 4000.0 4000.0 4000.0 4000.0 4000.0 4000.0 4000.0 4000.0 4000.0 4000.0 4000.0 4000.0 4000.0 4000.0 4000.0 4000.0 4000.0 4000.0 4000.0 4000.0 4000.0 4000.0 4000.0 4000.0 4000.0 4000.0 4000.0 4000.0 4000.0 4000.0 4000.0 4000.0 4000.0 4000.0 4000.0 4000.0 4000.0 4000.0 4000.0 4000.0 4000.0 4000.0 4000.0 4000.0 4000.0 4000.0 4000.0 4000.0 4000.0 4000.0 4000.0 4000.0 4000.0 4000.0 4000.0 4000.0 4000.0 4000.0 4000.0 4000.0 4000.0 4000.0 4000.0 4000.0 4000.0 4000.0 4000.0 4000.0 4000.0 4000.0 4000.0 4000.0 4000.0 4000.0 4000.0 4000.0 4000.0 4000.0 4000.0 4000.0 4000.0 4000.0 4000.0 4000.0 4000.0 4000.0 4000.0 4000.0 4000.0 4000.0 4000.0 4000.0 4000.0 4000.0 4000.0 4000.0 4000.0 4000.0 4000.0 4000.0 4000.0 4000.0 4000.0 4000.0 4000.0 4000.0 4000.0 4000.0 4000.0 4000.0 4000.0 4000.0 4000.0 4000.0 4000.0 4000.0 4000.0 4000.0 4000.0 4000.0 4000.0 4000.0 4000.0 4000.0 4000.0 4000.0 4000.0 4000.0 4000.0 4000.0 4000.0 4000.0 4000.0 4000.0 4000.0 4000.0 4000.0 4000.0 4000.0 4000.0 4000.0 4000.0 4000.0 4000.0 4000.0 4000.0 4000.0 4000.0 4000.0 4000.0 4000.0 4000.0 4000.0 4000.0 4000.0 4000.0 4000.0 4000.0 4000.0 4000.0 4000.0 4000.0 4000.0 4000.0 4000.0 4000.0 4000.0 4000.0 4000.0 4000.0 4000.0 4000.0 4000.0 4000.0 4000.0 4000.0 4000.0 4000.0 4000.0 4000.0 4000.0 4000.0 4000.0 4000.0 4000.0 4000.0 4000.0 4000.0 4000.0 4000.0 4000.0 4000.0 4000.0 4000.0 4000.0 4000.0 4000.0 4000.0 4000.0 4000.0 4000.0 4000.0 4000.0 4000.0 4000.0 4000.0 4000.0 4000.0 4000.0 4000.0 4000.0 4000.0 4000.0 4000.0 4000.0 4000.0 4000.0 4000.0 4000.0 4000.0 4000.0 4000.0 4000.0 4000.0 4000.0 4000.0 4000.0 4000.0 4000.0 4000.0 4000.0 4000.0 4000.0 4000.0 4000.0 4000.0 4000.0 4000.0 4000.0 4000.0 4000.0 4000.0 4000.0 4000.0 4000.0 4000.0 4000.0 4000.0 4000.0 4000.0 4000.0 4000.0 4000.0 4000.0 4000.0 4000.0 4000.0 4000.0 4000.0 4000.0 4000.0 4000.0 4000.0 4000.0 4000.0 4000.0 4000.0 4000.0 4000.0 4000.0 4000.0 4000.0 4000.0 4000.0 4000.0 4000.0 4000.0 4000.0 4000.0 4000.0 4000.0 4000.0 4000.0 4000.0 4000.0 4000.0 4000.0 4000.0 4000.0 4000.0 4000.0 4000.0 4000.0 4000.0 4000.0 4000.0 4000.0 4000.0 4000.0 4000.0 4000.0 4000.0 4000.0 4000.0 4000.0 4000.0 4000.0 4000.0 4000.0 4000.0 4000.0 4000.0 4000.0 4000.0 4000.0 4000.0 4000.0 4000.0 4000.0 4000.0 4000.0 4000.0 4000.0 4000.0 4000.0 4000.0 4000.0 4000.0 4000.0 4000.0 4000.0 4000.0 4000.0 4000.0 4000.0 4000.0 4000.0 4000.0 4000.0 4000.0 4000.0 4000.0 4000.0 4000.0 4000.0 4000.0 4000.0 SCALARS Mass float 1
LOOKUP_TABLE default
11309700000.0 11309700000.0 11309700000.0 11309700000.0 11309700000.0 11309700000.0 11309700000.0 11309700000.0 11309700000.0 11309700000.0 11309700000.0 11309700000.0 11309700000.0 11309700000.0 11309700000.0 11309700000.0 11309700000.0 11309700000.0 11309700000.0 11309700000.0 11309700000.0 11309700000.0 11309700000.0 11309700000.0 11309700000.0 11309700000.0 11309700000.0 11309700000.0 11309700000.0 11309700000.0 11309700000.0 11309700000.0 11309700000.0 11309700000.0 11309700000.0 11309700000.0 11309700000.0 11309700000.0 11309700000.0 11309700000.0 11309700000.0 11309700000.0 11309700000.0 11309700000.0 11309700000.0 11309700000.0 11309700000.0 11309700000.0 11309700000.0 11309700000.0 11309700000.0 11309700000.0 11309700000.0 11309700000.0 11309700000.0 11309700000.0 11309700000.0 11309700000.0 11309700000.0 11309700000.0 11309700000.0 11309700000.0 11309700000.0 11309700000.0 11309700000.0 11309700000.0 11309700000.0 11309700000.0 11309700000.0 11309700000.0 11309700000.0 11309700000.0 11309700000.0 11309700000.0 11309700000.0 11309700000.0 11309700000.0 11309700000.0 11309700000.0 11309700000.0 11309700000.0 11309700000.0 11309700000.0 11309700000.0 11309700000.0 11309700000.0 11309700000.0 11309700000.0 11309700000.0 11309700000.0 11309700000.0 11309700000.0 11309700000.0 11309700000.0 11309700000.0 11309700000.0 11309700000.0 11309700000.0 11309700000.0 11309700000.0 11309700000.0 11309700000.0 11309700000.0 11309700000.0 11309700000.0 11309700000.0 11309700000.0 11309700000.0 11309700000.0 11309700000.0 11309700000.0 11309700000.0 11309700000.0 11309700000.0 11309700000.0 11309700000.0 11309700000.0 11309700000.0 11309700000.0 11309700000.0 11309700000.0 11309700000.0 11309700000.0 11309700000.0 11309700000.0 11309700000.0 11309700000.0 11309700000.0 11309700000.0 11309700000.0 11309700000.0 11309700000.0 11309700000.0 11309700000.0 11309700000.0 11309700000.0 11309700000.0 11309700000.0 11309700000.0 11309700000.0 11309700000.0 11309700000.0 11309700000.0 11309700000.0 11309700000.0 11309700000.0 11309700000.0 11309700000.0 11309700000.0 11309700000.0 11309700000.0 11309700000.0 11309700000.0 11309700000.0 11309700000.0 11309700000.0 11309700000.0 11309700000.0 11309700000.0 11309700000.0 11309700000.0 11309700000.0 11309700000.0 11309700000.0 11309700000.0 11309700000.0 11309700000.0 11309700000.0 11309700000.0 11309700000.0 11309700000.0 11309700000.0 11309700000.0 11309700000.0 11309700000.0 11309700000.0 11309700000.0 11309700000.0 11309700000.0 11309700000.0 11309700000.0 11309700000.0 11309700000.0 11309700000.0 11309700000.0 11309700000.0 11309700000.0 11309700000.0 11309700000.0 11309700000.0 11309700000.0 11309700000.0 11309700000.0 11309700000.0 11309700000.0 11309700000.0 11309700000.0 11309700000.0 11309700000.0 11309700000.0 11309700000.0 11309700000.0 11309700000.0 11309700000.0 11309700000.0 11309700000.0 11309700000.0 11309700000.0 11309700000.0 11309700000.0 11309700000.0 11309700000.0 11309700000.0 11309700000.0 11309700000.0 11309700000.0 11309700000.0 11309700000.0 11309700000.0 11309700000.0 11309700000.0 11309700000.0 11309700000.0 11309700000.0 11309700000.0 11309700000.0 11309700000.0 11309700000.0 11309700000.0 11309700000.0 11309700000.0 11309700000.0 11309700000.0 11309700000.0 11309700000.0 11309700000.0 11309700000.0 11309700000.0 11309700000.0 11309700000.0 11309700000.0 11309700000.0 11309700000.0 11309700000.0 11309700000.0 11309700000.0 11309700000.0 11309700000.0 11309700000.0 11309700000.0 11309700000.0 11309700000.0 11309700000.0 11309700000.0 11309700000.0 11309700000.0 11309700000.0 11309700000.0 11309700000.0 11309700000.0 11309700000.0 11309700000.0 11309700000.0 11309700000.0 11309700000.0 11309700000.0 11309700000.0 11309700000.0 11309700000.0 11309700000.0 11309700000.0 11309700000.0 11309700000.0 11309700000.0 11309700000.0 11309700000.0 11309700000.0 11309700000.0 11309700000.0 11309700000.0 11309700000.0 11309700000.0 11309700000.0 11309700000.0 11309700000.0 11309700000.0 11309700000.0 11309700000.0 11309700000.0 11309700000.0 11309700000.0 11309700000.0 11309700000.0 11309700000.0 11309700000.0 11309700000.0 11309700000.0 11309700000.0 11309700000.0 11309700000.0 11309700000.0 11309700000.0 11309700000.0 11309700000.0 11309700000.0 11309700000.0 11309700000.0 11309700000.0 11309700000.0 11309700000.0 11309700000.0 11309700000.0 11309700000.0 11309700000.0 11309700000.0 11309700000.0 11309700000.0 11309700000.0 11309700000.0 11309700000.0 11309700000.0 11309700000.0 11309700000.0 11309700000.0 11309700000.0 11309700000.0 11309700000.0 11309700000.0 11309700000.0 11309700000.0 11309700000.0 11309700000.0 11309700000.0 11309700000.0 11309700000.0 11309700000.0 11309700000.0 11309700000.0 11309700000.0 11309700000.0 11309700000.0 11309700000.0 11309700000.0 11309700000.0 11309700000.0 11309700000.0 11309700000.0 11309700000.0 11309700000.0 11309700000.0 11309700000.0 11309700000.0 11309700000.0 11309700000.0 11309700000.0 11309700000.0 11309700000.0 11309700000.0 11309700000.0 11309700000.0 11309700000.0 11309700000.0 11309700000.0 11309700000.0 11309700000.0 11309700000.0 11309700000.0 11309700000.0 11309700000.0 11309700000.0 11309700000.0 11309700000.0 11309700000.0 11309700000.0 11309700000.0 11309700000.0 11309700000.0 11309700000.0 11309700000.0 11309700000.0 11309700000.0 11309700000.0 11309700000.0 11309700000.0 11309700000.0 11309700000.0 11309700000.0 11309700000.0 11309700000.0 11309700000.0 11309700000.0 11309700000.0 11309700000.0 11309700000.0 11309700000.0 11309700000.0 11309700000.0 11309700000.0 11309700000.0 11309700000.0 11309700000.0 11309700000.0 11309700000.0 11309700000.0 11309700000.0 11309700000.0 11309700000.0 11309700000.0 11309700000.0 11309700000.0 11309700000.0 11309700000.0 11309700000.0 11309700000.0 11309700000.0 11309700000.0 11309700000.0 11309700000.0 11309700000.0 11309700000.0 11309700000.0 11309700000.0 11309700000.0 11309700000.0 11309700000.0 11309700000.0 11309700000.0 11309700000.0 11309700000.0 11309700000.0 11309700000.0 11309700000.0 11309700000.0 11309700000.0 11309700000.0 11309700000.0 11309700000.0 11309700000.0 11309700000.0 11309700000.0 11309700000.0 11309700000.0 11309700000.0 11309700000.0 11309700000.0 11309700000.0 11309700000.0 11309700000.0 11309700000.0 11309700000.0 11309700000.0 11309700000.0 11309700000.0 11309700000.0 11309700000.0 11309700000.0 11309700000.0 11309700000.0 11309700000.0 11309700000.0 11309700000.0 11309700000.0 11309700000.0 11309700000.0 11309700000.0 11309700000.0 11309700000.0 11309700000.0 11309700000.0 11309700000.0 11309700000.0 11309700000.0 11309700000.0 11309700000.0 11309700000.0 11309700000.0 11309700000.0 11309700000.0 11309700000.0 11309700000.0 11309700000.0 11309700000.0 11309700000.0 11309700000.0 11309700000.0 11309700000.0 11309700000.0 11309700000.0 11309700000.0 11309700000.0 11309700000.0 11309700000.0 11309700000.0 11309700000.0 11309700000.0 11309700000.0 11309700000.0 11309700000.0 11309700000.0 11309700000.0 11309700000.0 11309700000.0 11309700000.0 11309700000.0 11309700000.0 11309700000.0 11309700000.0 11309700000.0 11309700000.0 11309700000.0 11309700000.0 11309700000.0 11309700000.0 11309700000.0 11309700000.0 11309700000.0 11309700000.0 11309700000.0 11309700000.0 11309700000.0 11309700000.0 11309700000.0 11309700000.0 11309700000.0 11309700000.0 11309700000.0 11309700000.0 11309700000.0 11309700000.0 11309700000.0 11309700000.0 11309700000.0 11309700000.0 11309700000.0 11309700000.0 11309700000.0 11309700000.0 11309700000.0 11309700000.0 11309700000.0 11309700000.0 11309700000.0 11309700000.0 11309700000.0 11309700000.0 11309700000.0 11309700000.0 11309700000.0 11309700000.0 11309700000.0 11309700000.0 11309700000.0 11309700000.0 11309700000.0 11309700000.0 11309700000.0 11309700000.0 11309700000.0 11309700000.0 11309700000.0 11309700000.0 11309700000.0 11309700000.0 11309700000.0 11309700000.0 11309700000.0 11309700000.0 11309700000.0 11309700000.0 11309700000.0 11309700000.0 11309700000.0 11309700000.0 11309700000.0 11309700000.0 11309700000.0 11309700000.0 11309700000.0 11309700000.0 11309700000.0 11309700000.0 11309700000.0 11309700000.0 11309700000.0 11309700000.0 11309700000.0 11309700000.0 11309700000.0 11309700000.0 11309700000.0 11309700000.0 11309700000.0 11309700000.0 11309700000.0 11309700000.0 11309700000.0 11309700000.0 11309700000.0 11309700000.0 11309700000.0 11309700000.0 11309700000.0 11309700000.0 11309700000.0 11309700000.0 11309700000.0 11309700000.0 11309700000.0 11309700000.0 11309700000.0 11309700000.0 11309700000.0 11309700000.0 11309700000.0 11309700000.0 11309700000.0 11309700000.0 11309700000.0 11309700000.0 11309700000.0 11309700000.0 11309700000.0 11309700000.0 11309700000.0 11309700000.0 11309700000.0 11309700000.0 11309700000.0 11309700000.0 11309700000.0 11309700000.0 11309700000.0 11309700000.0 11309700000.0 11309700000.0 11309700000.0 11309700000.0 11309700000.0 11309700000.0 11309700000.0 11309700000.0 11309700000.0 11309700000.0 11309700000.0 11309700000.0 11309700000.0 11309700000.0 11309700000.0 11309700000.0 11309700000.0 11309700000.0 11309700000.0 11309700000.0 11309700000.0 11309700000.0 11309700000.0 11309700000.0 11309700000.0 11309700000.0 11309700000.0 11309700000.0 11309700000.0 11309700000.0 11309700000.0 11309700000.0 11309700000.0 11309700000.0 11309700000.0 11309700000.0 11309700000.0 11309700000.0 11309700000.0 11309700000.0 11309700000.0 11309700000.0 11309700000.0 11309700000.0 11309700000.0 11309700000.0 11309700000.0 11309700000.0 11309700000.0 11309700000.0 11309700000.0 11309700000.0 11309700000.0 11309700000.0 11309700000.0 11309700000.0 11309700000.0 11309700000.0 11309700000.0 11309700000.0 11309700000.0 11309700000.0 11309700000.0 11309700000.0 11309700000.0 11309700000.0 11309700000.0 11309700000.0 11309700000.0 11309700000.0 11309700000.0 11309700000.0 11309700000.0 11309700000.0 11309700000.0 11309700000.0 11309700000.0 11309700000.0 11309700000.0 11309700000.0 11309700000.0 11309700000.0 11309700000.0 11309700000.0 11309700000.0 11309700000.0 11309700000.0 11309700000.0 11309700000.0 11309700000.0 11309700000.0 11309700000.0 11309700000.0 11309700000.0 11309700000.0 11309700000.0 11309700000.0 11309700000.0 11309700000.0 11309700000.0 11309700000.0 11309700000.0 11309700000.0 11309700000.0 11309700000.0 11309700000.0 11309700000.0 11309700000.0 11309700000.0 11309700000.0 11309700000.0 11309700000.0 11309700000.0 11309700000.0 11309700000.0 11309700000.0 11309700000.0 11309700000.0 11309700000.0 11309700000.0 11309700000.0 11309700000.0 11309700000.0 11309700000.0 11309700000.0 11309700000.0 11309700000.0 11309700000.0 11309700000.0 11309700000.0 11309700000.0 11309700000.0 11309700000.0 11309700000.0 11309700000.0 11309700000.0 11309700000.0 11309700000.0 11309700000.0 11309700000.0 11309700000.0 11309700000.0 11309700000.0 11309700000.0 11309700000.0 11309700000.0 11309700000.0 11309700000.0 11309700000.0 11309700000.0 11309700000.0 11309700000.0 11309700000.0 11309700000.0 11309700000.0 11309700000.0 11309700000.0 11309700000.0 11309700000.0 11309700000.0 11309700000.0 11309700000.0 11309700000.0 11309700000.0 11309700000.0 11309700000.0 11309700000.0 11309700000.0 11309700000.0 11309700000.0 11309700000.0 11309700000.0 11309700000.0 11309700000.0 11309700000.0 11309700000.0 11309700000.0 11309700000.0 11309700000.0 11309700000.0 11309700000.0 11309700000.0 11309700000.0 11309700000.0 11309700000.0 11309700000.0 11309700000.0 11309700000.0 11309700000.0 11309700000.0 11309700000.0 11309700000.0 11309700000.0 11309700000.0 11309700000.0 11309700000.0 11309700000.0 11309700000.0 11309700000.0 11309700000.0 11309700000.0 11309700000.0 11309700000.0 11309700000.0 11309700000.0 11309700000.0 11309700000.0 11309700000.0 11309700000.0 11309700000.0 11309700000.0 11309700000.0 11309700000.0 11309700000.0 11309700000.0 11309700000.0 11309700000.0 11309700000.0 11309700000.0 11309700000.0 11309700000.0 11309700000.0 11309700000.0 11309700000.0 11309700000.0 11309700000.0 11309700000.0 11309700000.0 11309700000.0 11309700000.0 11309700000.0 11309700000.0 11309700000.0 11309700000.0 11309700000.0 11309700000.0 11309700000.0 11309700000.0 11309700000.0 11309700000.0 11309700000.0 11309700000.0 11309700000.0 11309700000.0 11309700000.0 11309700000.0 11309700000.0 11309700000.0 11309700000.0 11309700000.0 11309700000.0 11309700000.0 11309700000.0 11309700000.0 11309700000.0 11309700000.0 11309700000.0 11309700000.0 11309700000.0 11309700000.0 11309700000.0 11309700000.0 11309700000.0 11309700000.0 11309700000.0 11309700000.0 11309700000.0 11309700000.0 11309700000.0 11309700000.0 11309700000.0 11309700000.0 11309700000.0 11309700000.0 11309700000.0 11309700000.0 11309700000.0 11309700000.0 11309700000.0 11309700000.0 11309700000.0 11309700000.0 11309700000.0 11309700000.0 11309700000.0 11309700000.0 11309700000.0 11309700000.0 11309700000.0 11309700000.0 11309700000.0 11309700000.0 11309700000.0 11309700000.0 11309700000.0 11309700000.0 11309700000.0 11309700000.0 11309700000.0 11309700000.0 11309700000.0 11309700000.0 11309700000.0 11309700000.0 11309700000.0 11309700000.0 11309700000.0 11309700000.0 11309700000.0 11309700000.0 11309700000.0 11309700000.0 11309700000.0 11309700000.0 11309700000.0 11309700000.0 11309700000.0 11309700000.0 11309700000.0 11309700000.0 11309700000.0 11309700000.0 11309700000.0 11309700000.0 11309700000.0 11309700000.0 11309700000.0 11309700000.0 11309700000.0 11309700000.0 11309700000.0 11309700000.0 11309700000.0 11309700000.0 11309700000.0 11309700000.0 11309700000.0 11309700000.0 11309700000.0 11309700000.0 11309700000.0 11309700000.0 11309700000.0 11309700000.0 11309700000.0 11309700000.0 11309700000.0 11309700000.0 11309700000.0 11309700000.0 11309700000.0 11309700000.0 11309700000.0 11309700000.0 11309700000.0 11309700000.0 11309700000.0 11309700000.0 11309700000.0 11309700000.0 11309700000.0 11309700000.0 11309700000.0 11309700000.0 11309700000.0 11309700000.0 11309700000.0 11309700000.0 11309700000.0 11309700000.0 11309700000.0 11309700000.0 11309700000.0 11309700000.0 11309700000.0 11309700000.0 11309700000.0 11309700000.0 11309700000.0 11309700000.0 11309700000.0 11309700000.0 11309700000.0 11309700000.0 11309700000.0 11309700000.0 11309700000.0 11309700000.0 11309700000.0 11309700000.0 11309700000.0 11309700000.0 11309700000.0 11309700000.0 11309700000.0 11309700000.0 11309700000.0 11309700000.0 11309700000.0 11309700000.0 11309700000.0 11309700000.0 11309700000.0 11309700000.0 11309700000.0 11309700000.0 11309700000.0 11309700000.0 11309700000.0 11309700000.0 11309700000.0 11309700000.0 11309700000.0 11309700000.0 11309700000.0 11309700000.0 11309700000.0 11309700000.0 11309700000.0 11309700000.0 11309700000.0 11309700000.0 11309700000.0 11309700000.0 11309700000.0 11309700000.0 11309700000.0 11309700000.0 11309700000.0 11309700000.0 11309700000.0 11309700000.0 11309700000.0 11309700000.0 11309700000.0 11309700000.0 11309700000.0 11309700000.0 11309700000.0 11309700000.0 11309700000.0 11309700000.0 11309700000.0 11309700000.0 11309700000.0 11309700000.0 11309700000.0 11309700000.0 11309700000.0 11309700000.0 11309700000.0 11309700000.0 11309700000.0 11309700000.0 11309700000.0 11309700000.0 11309700000.0 11309700000.0 11309700000.0 11309700000.0 11309700000.0 11309700000.0 11309700000.0 11309700000.0 11309700000.0 11309700000.0 11309700000.0 11309700000.0 11309700000.0 11309700000.0 11309700000.0 11309700000.0 11309700000.0 11309700000.0 11309700000.0 11309700000.0 11309700000.0 11309700000.0 11309700000.0 11309700000.0 11309700000.0 11309700000.0 11309700000.0 11309700000.0 11309700000.0 11309700000.0 11309700000.0 11309700000.0 11309700000.0 11309700000.0 11309700000.0 11309700000.0 11309700000.0 11309700000.0 11309700000.0 11309700000.0 11309700000.0 11309700000.0 11309700000.0 11309700000.0 11309700000.0 11309700000.0 11309700000.0 11309700000.0 11309700000.0 11309700000.0 11309700000.0 11309700000.0 11309700000.0 11309700000.0 11309700000.0 11309700000.0 11309700000.0 11309700000.0 11309700000.0 11309700000.0 11309700000.0 11309700000.0 11309700000.0 11309700000.0 11309700000.0 11309700000.0 11309700000.0 11309700000.0 11309700000.0 11309700000.0 11309700000.0 11309700000.0 11309700000.0 11309700000.0 11309700000.0 11309700000.0 11309700000.0 11309700000.0 11309700000.0 11309700000.0 11309700000.0 11309700000.0 11309700000.0 11309700000.0 11309700000.0 11309700000.0 11309700000.0 11309700000.0 11309700000.0 11309700000.0 11309700000.0 11309700000.0 11309700000.0 11309700000.0 11309700000.0 11309700000.0 11309700000.0 11309700000.0 11309700000.0 11309700000.0 11309700000.0 11309700000.0 11309700000.0 11309700000.0 11309700000.0 11309700000.0 11309700000.0 11309700000.0 11309700000.0 11309700000.0 11309700000.0 11309700000.0 11309700000.0 11309700000.0 11309700000.0 11309700000.0 11309700000.0 11309700000.0 11309700000.0 11309700000.0 11309700000.0 11309700000.0 11309700000.0 11309700000.0 11309700000.0 11309700000.0 11309700000.0 11309700000.0 11309700000.0 11309700000.0 11309700000.0 11309700000.0 11309700000.0 11309700000.0 11309700000.0 11309700000.0 11309700000.0 11309700000.0 11309700000.0 11309700000.0 11309700000.0 11309700000.0 11309700000.0 11309700000.0 11309700000.0 11309700000.0 11309700000.0 11309700000.0 11309700000.0 11309700000.0 11309700000.0 11309700000.0 11309700000.0 11309700000.0 11309700000.0 11309700000.0 11309700000.0 11309700000.0 11309700000.0 11309700000.0 11309700000.0 11309700000.0 11309700000.0 11309700000.0 11309700000.0 11309700000.0 11309700000.0 11309700000.0 11309700000.0 11309700000.0 11309700000.0 11309700000.0 11309700000.0 11309700000.0 11309700000.0 11309700000.0 11309700000.0 11309700000.0 11309700000.0 11309700000.0 11309700000.0 11309700000.0 11309700000.0 11309700000.0 11309700000.0 11309700000.0 11309700000.0 11309700000.0 11309700000.0 11309700000.0 11309700000.0 11309700000.0 11309700000.0 11309700000.0 11309700000.0 11309700000.0 11309700000.0 11309700000.0 11309700000.0 11309700000.0 11309700000.0 11309700000.0 11309700000.0 11309700000.0 11309700000.0 11309700000.0 11309700000.0 11309700000.0 11309700000.0 11309700000.0 11309700000.0 11309700000.0 11309700000.0 11309700000.0 11309700000.0 11309700000.0 11309700000.0 11309700000.0 11309700000.0 11309700000.0 11309700000.0 11309700000.0 11309700000.0 11309700000.0 11309700000.0 11309700000.0 11309700000.0 11309700000.0 11309700000.0 11309700000.0 11309700000.0 11309700000.0 11309700000.0 11309700000.0 11309700000.0 11309700000.0 11309700000.0 11309700000.0 11309700000.0 11309700000.0 11309700000.0 11309700000.0 11309700000.0 11309700000.0 11309700000.0 11309700000.0 11309700000.0 11309700000.0 11309700000.0 11309700000.0 11309700000.0 11309700000.0 11309700000.0 11309700000.0 11309700000.0 11309700000.0 11309700000.0 11309700000.0 11309700000.0 11309700000.0 11309700000.0 11309700000.0 11309700000.0 11309700000.0 11309700000.0 11309700000.0 11309700000.0 11309700000.0 11309700000.0 11309700000.0 11309700000.0 11309700000.0 11309700000.0 11309700000.0 11309700000.0 11309700000.0 11309700000.0 11309700000.0 11309700000.0 11309700000.0 11309700000.0 11309700000.0 11309700000.0 11309700000.0 11309700000.0 11309700000.0 11309700000.0 11309700000.0 11309700000.0 11309700000.0 11309700000.0 11309700000.0 11309700000.0 11309700000.0 11309700000.0 11309700000.0 11309700000.0 11309700000.0 11309700000.0 11309700000.0 11309700000.0 11309700000.0 11309700000.0 11309700000.0 11309700000.0 11309700000.0 11309700000.0 11309700000.0 11309700000.0 11309700000.0 11309700000.0 11309700000.0 11309700000.0 11309700000.0 11309700000.0 11309700000.0 11309700000.0 11309700000.0 11309700000.0 11309700000.0 11309700000.0 11309700000.0 11309700000.0 11309700000.0 11309700000.0 11309700000.0 11309700000.0 11309700000.0 11309700000.0 11309700000.0 11309700000.0 11309700000.0 11309700000.0 11309700000.0 11309700000.0 11309700000.0 11309700000.0 11309700000.0 11309700000.0 11309700000.0 11309700000.0 11309700000.0 11309700000.0 11309700000.0 11309700000.0 11309700000.0 11309700000.0 11309700000.0 11309700000.0 11309700000.0 11309700000.0 11309700000.0 11309700000.0 11309700000.0 11309700000.0 11309700000.0 11309700000.0 11309700000.0 11309700000.0 11309700000.0 11309700000.0 11309700000.0 11309700000.0 11309700000.0 11309700000.0 11309700000.0 11309700000.0 11309700000.0 11309700000.0 11309700000.0 11309700000.0 11309700000.0 11309700000.0 11309700000.0 11309700000.0 11309700000.0 11309700000.0 11309700000.0 11309700000.0 11309700000.0 11309700000.0 11309700000.0 11309700000.0 11309700000.0 11309700000.0 11309700000.0 11309700000.0 11309700000.0 11309700000.0 11309700000.0 11309700000.0 11309700000.0 11309700000.0 11309700000.0 11309700000.0 11309700000.0 11309700000.0 11309700000.0 11309700000.0 11309700000.0 11309700000.0 11309700000.0 11309700000.0 11309700000.0 11309700000.0 11309700000.0 11309700000.0 11309700000.0 11309700000.0 11309700000.0 11309700000.0 11309700000.0 11309700000.0 11309700000.0 11309700000.0 11309700000.0 11309700000.0 11309700000.0 11309700000.0 11309700000.0 11309700000.0 11309700000.0 11309700000.0 11309700000.0 11309700000.0 11309700000.0 11309700000.0 11309700000.0 11309700000.0 11309700000.0 11309700000.0 11309700000.0 11309700000.0 11309700000.0 11309700000.0 11309700000.0 11309700000.0 11309700000.0 11309700000.0 11309700000.0 11309700000.0 11309700000.0 11309700000.0 11309700000.0 11309700000.0 11309700000.0 11309700000.0 11309700000.0 11309700000.0 11309700000.0 11309700000.0 11309700000.0 11309700000.0 11309700000.0 11309700000.0 11309700000.0 11309700000.0 11309700000.0 11309700000.0 11309700000.0 11309700000.0 11309700000.0 11309700000.0 11309700000.0 11309700000.0 11309700000.0 11309700000.0 11309700000.0 11309700000.0 11309700000.0 11309700000.0 11309700000.0 11309700000.0 11309700000.0 11309700000.0 11309700000.0 11309700000.0 11309700000.0 11309700000.0 11309700000.0 11309700000.0 11309700000.0 11309700000.0 11309700000.0 11309700000.0 11309700000.0 11309700000.0 11309700000.0 11309700000.0 11309700000.0 11309700000.0 11309700000.0 11309700000.0 11309700000.0 11309700000.0 11309700000.0 11309700000.0 11309700000.0 11309700000.0 11309700000.0 11309700000.0 11309700000.0 11309700000.0 11309700000.0 11309700000.0 11309700000.0 11309700000.0 11309700000.0 11309700000.0 11309700000.0 11309700000.0 11309700000.0 11309700000.0 11309700000.0 11309700000.0 11309700000.0 11309700000.0 11309700000.0 11309700000.0 11309700000.0 11309700000.0 11309700000.0 11309700000.0 11309700000.0 11309700000.0 11309700000.0 11309700000.0 11309700000.0 11309700000.0 11309700000.0 11309700000.0 11309700000.0 11309700000.0 11309700000.0 11309700000.0 11309700000.0 11309700000.0 11309700000.0 11309700000.0 11309700000.0 11309700000.0 11309700000.0 11309700000.0 11309700000.0 11309700000.0 11309700000.0 11309700000.0 11309700000.0 11309700000.0 11309700000.0 11309700000.0 11309700000.0 11309700000.0 11309700000.0 11309700000.0 11309700000.0 11309700000.0 11309700000.0 11309700000.0 11309700000.0 11309700000.0 11309700000.0 11309700000.0 11309700000.0 11309700000.0 11309700000.0 11309700000.0 11309700000.0 11309700000.0 11309700000.0 11309700000.0 11309700000.0 11309700000.0 11309700000.0 11309700000.0 11309700000.0 11309700000.0 11309700000.0 11309700000.0 11309700000.0 11309700000.0 11309700000.0 11309700000.0 11309700000.0 11309700000.0 11309700000.0 11309700000.0 11309700000.0 11309700000.0 11309700000.0 11309700000.0 11309700000.0 11309700000.0 11309700000.0 11309700000.0 11309700000.0 11309700000.0 11309700000.0 11309700000.0 11309700000.0 11309700000.0 11309700000.0 11309700000.0 11309700000.0 11309700000.0 11309700000.0 11309700000.0 11309700000.0 11309700000.0 11309700000.0 11309700000.0 11309700000.0 11309700000.0 11309700000.0 11309700000.0 11309700000.0 11309700000.0 11309700000.0 11309700000.0 11309700000.0 11309700000.0 11309700000.0 11309700000.0 11309700000.0 11309700000.0 11309700000.0 11309700000.0 11309700000.0 11309700000.0 11309700000.0 11309700000.0 11309700000.0 11309700000.0 11309700000.0 11309700000.0 11309700000.0 11309700000.0 11309700000.0 11309700000.0 11309700000.0 11309700000.0 11309700000.0 11309700000.0 11309700000.0 11309700000.0 11309700000.0 11309700000.0 11309700000.0 11309700000.0 11309700000.0 11309700000.0 11309700000.0 11309700000.0 11309700000.0 11309700000.0 11309700000.0 11309700000.0 11309700000.0 11309700000.0 11309700000.0 11309700000.0 11309700000.0 11309700000.0 11309700000.0 11309700000.0 11309700000.0 11309700000.0 11309700000.0 11309700000.0 11309700000.0 11309700000.0 11309700000.0 11309700000.0 11309700000.0 11309700000.0 11309700000.0 11309700000.0 11309700000.0 11309700000.0 11309700000.0 11309700000.0 11309700000.0 11309700000.0 11309700000.0 11309700000.0 11309700000.0 11309700000.0 11309700000.0 11309700000.0 11309700000.0 11309700000.0 11309700000.0 11309700000.0 11309700000.0 11309700000.0 11309700000.0 11309700000.0 11309700000.0 11309700000.0 11309700000.0 11309700000.0 11309700000.0 11309700000.0 11309700000.0 11309700000.0 11309700000.0 11309700000.0 11309700000.0 11309700000.0 11309700000.0 11309700000.0 11309700000.0 11309700000.0 11309700000.0 11309700000.0 11309700000.0 11309700000.0 11309700000.0 11309700000.0 11309700000.0 11309700000.0 11309700000.0 11309700000.0 11309700000.0 11309700000.0 11309700000.0 11309700000.0 11309700000.0 11309700000.0 11309700000.0 11309700000.0 11309700000.0 11309700000.0 11309700000.0 11309700000.0 11309700000.0 11309700000.0 11309700000.0 11309700000.0 11309700000.0 11309700000.0 11309700000.0 11309700000.0 11309700000.0 11309700000.0 11309700000.0 11309700000.0 11309700000.0 11309700000.0 11309700000.0 11309700000.0 11309700000.0 11309700000.0 11309700000.0 11309700000.0 11309700000.0 11309700000.0 11309700000.0 11309700000.0 11309700000.0 11309700000.0 11309700000.0 11309700000.0 11309700000.0 11309700000.0 11309700000.0 11309700000.0 11309700000.0 11309700000.0 11309700000.0 11309700000.0 11309700000.0 11309700000.0 11309700000.0 11309700000.0 11309700000.0 11309700000.0 11309700000.0 11309700000.0 11309700000.0 11309700000.0 11309700000.0 11309700000.0 11309700000.0 11309700000.0 11309700000.0 11309700000.0 11309700000.0 11309700000.0 11309700000.0 11309700000.0 11309700000.0 11309700000.0 11309700000.0 11309700000.0 11309700000.0 11309700000.0 11309700000.0 11309700000.0 11309700000.0 11309700000.0 11309700000.0 11309700000.0 11309700000.0 11309700000.0 11309700000.0 11309700000.0 11309700000.0 11309700000.0 11309700000.0 11309700000.0 11309700000.0 11309700000.0 11309700000.0 11309700000.0 11309700000.0 11309700000.0 11309700000.0 11309700000.0 11309700000.0 11309700000.0 11309700000.0 11309700000.0 11309700000.0 11309700000.0 11309700000.0 11309700000.0 11309700000.0 11309700000.0 11309700000.0 11309700000.0 11309700000.0 11309700000.0 11309700000.0 11309700000.0 11309700000.0 11309700000.0 11309700000.0 11309700000.0 11309700000.0 11309700000.0 11309700000.0 11309700000.0 11309700000.0 11309700000.0 11309700000.0 11309700000.0 11309700000.0 11309700000.0 11309700000.0 11309700000.0 11309700000.0 11309700000.0 11309700000.0 11309700000.0 11309700000.0 11309700000.0 11309700000.0 11309700000.0 11309700000.0 11309700000.0 11309700000.0 11309700000.0 11309700000.0 11309700000.0 11309700000.0 11309700000.0 11309700000.0 11309700000.0 11309700000.0 11309700000.0 11309700000.0 11309700000.0 11309700000.0 11309700000.0 11309700000.0 11309700000.0 11309700000.0 11309700000.0 11309700000.0 11309700000.0 11309700000.0 11309700000.0 11309700000.0 11309700000.0 11309700000.0 11309700000.0 11309700000.0 11309700000.0 11309700000.0 11309700000.0 11309700000.0 11309700000.0 11309700000.0 11309700000.0 11309700000.0 11309700000.0 11309700000.0 11309700000.0 11309700000.0 11309700000.0 11309700000.0 11309700000.0 11309700000.0 11309700000.0 11309700000.0 11309700000.0 11309700000.0 11309700000.0 11309700000.0 11309700000.0 11309700000.0 11309700000.0 11309700000.0 11309700000.0 11309700000.0 11309700000.0 11309700000.0 11309700000.0 11309700000.0 11309700000.0 11309700000.0 11309700000.0 11309700000.0 11309700000.0 11309700000.0 11309700000.0 11309700000.0 11309700000.0 11309700000.0 11309700000.0 11309700000.0 11309700000.0 11309700000.0 11309700000.0 11309700000.0 11309700000.0 11309700000.0 11309700000.0 11309700000.0 11309700000.0 11309700000.0 11309700000.0 11309700000.0 11309700000.0 11309700000.0 11309700000.0 11309700000.0 11309700000.0 11309700000.0 11309700000.0 11309700000.0 11309700000.0 11309700000.0 11309700000.0 11309700000.0 11309700000.0 11309700000.0 11309700000.0 11309700000.0 11309700000.0 11309700000.0 11309700000.0 11309700000.0 11309700000.0 11309700000.0 11309700000.0 11309700000.0 11309700000.0 11309700000.0 11309700000.0 11309700000.0 11309700000.0 11309700000.0 11309700000.0 11309700000.0 11309700000.0 11309700000.0 11309700000.0 11309700000.0 11309700000.0 11309700000.0 11309700000.0 11309700000.0 11309700000.0 11309700000.0 11309700000.0 11309700000.0 11309700000.0 11309700000.0 11309700000.0 11309700000.0 11309700000.0 11309700000.0 11309700000.0 11309700000.0 11309700000.0 11309700000.0 11309700000.0 11309700000.0 11309700000.0 11309700000.0 11309700000.0 11309700000.0 11309700000.0 11309700000.0 11309700000.0 11309700000.0 11309700000.0 11309700000.0 11309700000.0 11309700000.0 11309700000.0 11309700000.0 11309700000.0 11309700000.0 11309700000.0 11309700000.0 11309700000.0 11309700000.0 11309700000.0 11309700000.0 11309700000.0 11309700000.0 11309700000.0 11309700000.0 11309700000.0 11309700000.0 11309700000.0 11309700000.0 11309700000.0 11309700000.0 11309700000.0 11309700000.0 11309700000.0 11309700000.0 11309700000.0 11309700000.0 11309700000.0 11309700000.0 11309700000.0 11309700000.0 11309700000.0 11309700000.0 11309700000.0 11309700000.0 11309700000.0 11309700000.0 11309700000.0 11309700000.0 11309700000.0 11309700000.0 11309700000.0 11309700000.0 11309700000.0 11309700000.0 11309700000.0 11309700000.0 11309700000.0 11309700000.0 11309700000.0 11309700000.0 11309700000.0 11309700000.0 11309700000.0 11309700000.0 11309700000.0 11309700000.0 11309700000.0 11309700000.0 11309700000.0 11309700000.0 11309700000.0 11309700000.0 11309700000.0 11309700000.0 11309700000.0 11309700000.0 11309700000.0 11309700000.0 11309700000.0 11309700000.0 11309700000.0 11309700000.0 11309700000.0 11309700000.0 11309700000.0 11309700000.0 11309700000.0 11309700000.0 11309700000.0 11309700000.0 11309700000.0 11309700000.0 11309700000.0 11309700000.0 11309700000.0 11309700000.0 11309700000.0 11309700000.0 11309700000.0 11309700000.0 11309700000.0 11309700000.0 11309700000.0 11309700000.0 11309700000.0 11309700000.0 11309700000.0 11309700000.0 11309700000.0 11309700000.0 11309700000.0 11309700000.0 11309700000.0 11309700000.0 11309700000.0 11309700000.0 11309700000.0 11309700000.0 11309700000.0 11309700000.0 11309700000.0 11309700000.0 11309700000.0 11309700000.0 11309700000.0 11309700000.0 11309700000.0 11309700000.0 11309700000.0 11309700000.0 11309700000.0 11309700000.0 11309700000.0 11309700000.0 11309700000.0 11309700000.0 11309700000.0 11309700000.0 11309700000.0 11309700000.0 11309700000.0 11309700000.0 11309700000.0 11309700000.0 11309700000.0 11309700000.0 11309700000.0 11309700000.0 11309700000.0 11309700000.0 11309700000.0 11309700000.0 11309700000.0 11309700000.0 11309700000.0 11309700000.0 11309700000.0 11309700000.0 11309700000.0 11309700000.0 11309700000.0 11309700000.0 11309700000.0 11309700000.0 11309700000.0 11309700000.0 11309700000.0 11309700000.0 11309700000.0 11309700000.0 11309700000.0 11309700000.0 11309700000.0 11309700000.0 11309700000.0 11309700000.0 11309700000.0 11309700000.0 11309700000.0 11309700000.0 11309700000.0 11309700000.0 11309700000.0 11309700000.0 11309700000.0 11309700000.0 11309700000.0 11309700000.0 11309700000.0 11309700000.0 11309700000.0 11309700000.0 11309700000.0 11309700000.0 11309700000.0 11309700000.0 11309700000.0 11309700000.0 11309700000.0 11309700000.0 11309700000.0 11309700000.0 11309700000.0 11309700000.0 11309700000.0 11309700000.0 11309700000.0 11309700000.0 11309700000.0 11309700000.0 11309700000.0 11309700000.0 11309700000.0 11309700000.0 11309700000.0 11309700000.0 11309700000.0 11309700000.0 11309700000.0 11309700000.0 11309700000.0 11309700000.0 11309700000.0 11309700000.0 11309700000.0 11309700000.0 11309700000.0 11309700000.0 11309700000.0 11309700000.0 11309700000.0 11309700000.0 11309700000.0 11309700000.0 11309700000.0 11309700000.0 11309700000.0 11309700000.0 11309700000.0 11309700000.0 11309700000.0 11309700000.0 11309700000.0 11309700000.0 11309700000.0 11309700000.0 11309700000.0 11309700000.0 11309700000.0 11309700000.0 11309700000.0 11309700000.0 11309700000.0 11309700000.0 11309700000.0 11309700000.0 11309700000.0 11309700000.0 11309700000.0 11309700000.0 11309700000.0 11309700000.0 11309700000.0 11309700000.0 11309700000.0 11309700000.0 11309700000.0 11309700000.0 11309700000.0 11309700000.0 11309700000.0 11309700000.0 11309700000.0 11309700000.0 11309700000.0 11309700000.0 11309700000.0 11309700000.0 11309700000.0 11309700000.0 11309700000.0 11309700000.0 11309700000.0 11309700000.0 11309700000.0 11309700000.0 11309700000.0 11309700000.0 11309700000.0 11309700000.0 11309700000.0 11309700000.0 11309700000.0 11309700000.0 11309700000.0 11309700000.0 11309700000.0 11309700000.0 11309700000.0 11309700000.0 11309700000.0 11309700000.0 11309700000.0 11309700000.0 11309700000.0 11309700000.0 11309700000.0 11309700000.0 11309700000.0 11309700000.0 11309700000.0 11309700000.0 11309700000.0 11309700000.0 11309700000.0 11309700000.0 11309700000.0 11309700000.0 11309700000.0 11309700000.0 11309700000.0 11309700000.0 11309700000.0 11309700000.0 11309700000.0 11309700000.0 11309700000.0 11309700000.0 11309700000.0 11309700000.0 11309700000.0 11309700000.0 11309700000.0 11309700000.0 11309700000.0 11309700000.0 11309700000.0 11309700000.0 11309700000.0 11309700000.0 11309700000.0 11309700000.0 11309700000.0 11309700000.0 11309700000.0 11309700000.0 11309700000.0 11309700000.0 11309700000.0 11309700000.0 11309700000.0 11309700000.0 11309700000.0 11309700000.0 11309700000.0 11309700000.0 11309700000.0 11309700000.0 11309700000.0 11309700000.0 11309700000.0 11309700000.0 11309700000.0 11309700000.0 11309700000.0 11309700000.0 11309700000.0 11309700000.0 11309700000.0 11309700000.0 11309700000.0 11309700000.0 11309700000.0 11309700000.0 11309700000.0 11309700000.0 11309700000.0 11309700000.0 11309700000.0 11309700000.0 11309700000.0 11309700000.0 11309700000.0 11309700000.0 11309700000.0 11309700000.0 11309700000.0 11309700000.0 11309700000.0 11309700000.0 11309700000.0 11309700000.0 11309700000.0 11309700000.0 11309700000.0 11309700000.0 11309700000.0 11309700000.0 11309700000.0 11309700000.0 11309700000.0 11309700000.0 11309700000.0 11309700000.0 11309700000.0 11309700000.0 11309700000.0 11309700000.0 11309700000.0 11309700000.0 11309700000.0 11309700000.0 11309700000.0 11309700000.0 11309700000.0 11309700000.0 11309700000.0 11309700000.0 11309700000.0 11309700000.0 11309700000.0 11309700000.0 11309700000.0 11309700000.0 11309700000.0 11309700000.0 11309700000.0 11309700000.0 11309700000.0 11309700000.0 11309700000.0 11309700000.0 11309700000.0 11309700000.0 11309700000.0 11309700000.0 11309700000.0 11309700000.0 11309700000.0 11309700000.0 11309700000.0 11309700000.0 11309700000.0 11309700000.0 11309700000.0 11309700000.0 11309700000.0 11309700000.0 11309700000.0 11309700000.0 11309700000.0 11309700000.0 11309700000.0 11309700000.0 11309700000.0 11309700000.0 11309700000.0 11309700000.0 11309700000.0 11309700000.0 11309700000.0 11309700000.0 11309700000.0 11309700000.0 11309700000.0 11309700000.0 11309700000.0 11309700000.0 11309700000.0 11309700000.0 11309700000.0 11309700000.0 11309700000.0 11309700000.0 11309700000.0 11309700000.0 11309700000.0 11309700000.0 11309700000.0 11309700000.0 11309700000.0 11309700000.0 11309700000.0 11309700000.0 11309700000.0 11309700000.0 11309700000.0 11309700000.0 11309700000.0 11309700000.0 11309700000.0 11309700000.0 11309700000.0 11309700000.0 11309700000.0 11309700000.0 11309700000.0 11309700000.0 11309700000.0 11309700000.0 11309700000.0 11309700000.0 11309700000.0 11309700000.0 11309700000.0 11309700000.0 11309700000.0 11309700000.0 11309700000.0 11309700000.0 11309700000.0 11309700000.0 11309700000.0 11309700000.0 11309700000.0 11309700000.0 11309700000.0 11309700000.0 11309700000.0 11309700000.0 11309700000.0 11309700000.0 11309700000.0 11309700000.0 11309700000.0 11309700000.0 11309700000.0 11309700000.0 11309700000.0 11309700000.0 11309700000.0 11309700000.0 11309700000.0 11309700000.0 11309700000.0 11309700000.0 11309700000.0 11309700000.0 11309700000.0 11309700000.0 11309700000.0 11309700000.0 11309700000.0 11309700000.0 11309700000.0 11309700000.0 11309700000.0 11309700000.0 11309700000.0 11309700000.0 11309700000.0 11309700000.0 11309700000.0 11309700000.0 11309700000.0 11309700000.0 11309700000.0 11309700000.0 11309700000.0 11309700000.0 11309700000.0 11309700000.0 11309700000.0 11309700000.0 11309700000.0 11309700000.0 11309700000.0 11309700000.0 11309700000.0 11309700000.0 11309700000.0 11309700000.0 11309700000.0 11309700000.0 11309700000.0 11309700000.0 11309700000.0 11309700000.0 11309700000.0 11309700000.0 11309700000.0 11309700000.0 11309700000.0 11309700000.0 11309700000.0 11309700000.0 11309700000.0 11309700000.0 11309700000.0 11309700000.0 11309700000.0 11309700000.0 11309700000.0 11309700000.0 11309700000.0 11309700000.0 11309700000.0 11309700000.0 11309700000.0 11309700000.0 11309700000.0 11309700000.0 11309700000.0 11309700000.0 11309700000.0 11309700000.0 11309700000.0 11309700000.0 11309700000.0 11309700000.0 11309700000.0 11309700000.0 11309700000.0 11309700000.0 11309700000.0 11309700000.0 11309700000.0 11309700000.0 11309700000.0 11309700000.0 11309700000.0 11309700000.0 11309700000.0 11309700000.0 11309700000.0 11309700000.0 11309700000.0 11309700000.0 11309700000.0 11309700000.0 11309700000.0 11309700000.0 11309700000.0 11309700000.0 11309700000.0 11309700000.0 11309700000.0 11309700000.0 11309700000.0 11309700000.0 11309700000.0 11309700000.0 11309700000.0 11309700000.0 11309700000.0 11309700000.0 11309700000.0 11309700000.0 11309700000.0 11309700000.0 11309700000.0 11309700000.0 11309700000.0 11309700000.0 11309700000.0 11309700000.0 11309700000.0 11309700000.0 11309700000.0 11309700000.0 11309700000.0 11309700000.0 11309700000.0 11309700000.0 11309700000.0 11309700000.0 11309700000.0 11309700000.0 11309700000.0 11309700000.0 11309700000.0 11309700000.0 11309700000.0 11309700000.0 11309700000.0 11309700000.0 11309700000.0 11309700000.0 11309700000.0 11309700000.0 11309700000.0 11309700000.0 11309700000.0 11309700000.0 11309700000.0 11309700000.0 11309700000.0 11309700000.0 11309700000.0 11309700000.0 11309700000.0 11309700000.0 11309700000.0 11309700000.0 11309700000.0 11309700000.0 11309700000.0 11309700000.0 11309700000.0 11309700000.0 11309700000.0 11309700000.0 11309700000.0 11309700000.0 11309700000.0 11309700000.0 11309700000.0 11309700000.0 11309700000.0 11309700000.0 11309700000.0 11309700000.0 11309700000.0 11309700000.0 11309700000.0 11309700000.0 11309700000.0 11309700000.0 11309700000.0 11309700000.0 11309700000.0 11309700000.0 11309700000.0 11309700000.0 11309700000.0 11309700000.0 11309700000.0 11309700000.0 11309700000.0 11309700000.0 11309700000.0 11309700000.0 11309700000.0 11309700000.0 11309700000.0 11309700000.0 11309700000.0 11309700000.0 11309700000.0 11309700000.0 11309700000.0 11309700000.0 11309700000.0 11309700000.0 11309700000.0 11309700000.0 11309700000.0 11309700000.0 11309700000.0 11309700000.0 11309700000.0 11309700000.0 11309700000.0 11309700000.0 11309700000.0 11309700000.0 11309700000.0 11309700000.0 11309700000.0 11309700000.0 11309700000.0 11309700000.0 11309700000.0 11309700000.0 11309700000.0 11309700000.0 11309700000.0 11309700000.0 11309700000.0 11309700000.0 11309700000.0 11309700000.0 11309700000.0 11309700000.0 11309700000.0 11309700000.0 11309700000.0 11309700000.0 11309700000.0 11309700000.0 11309700000.0 11309700000.0 11309700000.0 11309700000.0 11309700000.0 11309700000.0 11309700000.0 11309700000.0 11309700000.0 11309700000.0 11309700000.0 11309700000.0 11309700000.0 11309700000.0 11309700000.0 11309700000.0 11309700000.0 11309700000.0 11309700000.0 11309700000.0 11309700000.0 11309700000.0 11309700000.0 11309700000.0 11309700000.0 11309700000.0 11309700000.0 11309700000.0 11309700000.0 11309700000.0 11309700000.0 11309700000.0 11309700000.0 11309700000.0 11309700000.0 11309700000.0 11309700000.0 11309700000.0 11309700000.0 11309700000.0 11309700000.0 11309700000.0 11309700000.0 11309700000.0 11309700000.0 11309700000.0 11309700000.0 11309700000.0 11309700000.0 11309700000.0 11309700000.0 11309700000.0 11309700000.0 11309700000.0 11309700000.0 11309700000.0 11309700000.0 11309700000.0 11309700000.0 11309700000.0 11309700000.0 11309700000.0 11309700000.0 11309700000.0 11309700000.0 11309700000.0 11309700000.0 11309700000.0 11309700000.0 11309700000.0 11309700000.0 11309700000.0 11309700000.0 11309700000.0 11309700000.0 11309700000.0 11309700000.0 11309700000.0 11309700000.0 11309700000.0 11309700000.0 11309700000.0 11309700000.0 11309700000.0 11309700000.0 11309700000.0 11309700000.0 11309700000.0 11309700000.0 11309700000.0 11309700000.0 11309700000.0 11309700000.0 11309700000.0 11309700000.0 11309700000.0 11309700000.0 11309700000.0 11309700000.0 11309700000.0 11309700000.0 11309700000.0 11309700000.0 11309700000.0 11309700000.0 11309700000.0 11309700000.0 11309700000.0 11309700000.0 11309700000.0 11309700000.0 11309700000.0 11309700000.0 11309700000.0 11309700000.0 11309700000.0 11309700000.0 11309700000.0 11309700000.0 11309700000.0 11309700000.0 11309700000.0 11309700000.0 11309700000.0 11309700000.0 11309700000.0 11309700000.0 11309700000.0 11309700000.0 11309700000.0 11309700000.0 11309700000.0 11309700000.0 11309700000.0 11309700000.0 11309700000.0 11309700000.0 11309700000.0 11309700000.0 11309700000.0 11309700000.0 11309700000.0 11309700000.0 11309700000.0 11309700000.0 11309700000.0 11309700000.0 11309700000.0 11309700000.0 11309700000.0 11309700000.0 11309700000.0 11309700000.0 11309700000.0 11309700000.0 11309700000.0 11309700000.0 11309700000.0 11309700000.0 11309700000.0 11309700000.0 11309700000.0 11309700000.0 11309700000.0 11309700000.0 11309700000.0 11309700000.0 11309700000.0 11309700000.0 11309700000.0 11309700000.0 11309700000.0 11309700000.0 11309700000.0 11309700000.0 11309700000.0 11309700000.0 11309700000.0 11309700000.0 11309700000.0 11309700000.0 11309700000.0 11309700000.0 11309700000.0 11309700000.0 11309700000.0 11309700000.0 11309700000.0 11309700000.0 11309700000.0 11309700000.0 11309700000.0 11309700000.0 11309700000.0 11309700000.0 11309700000.0 11309700000.0 11309700000.0 11309700000.0 11309700000.0 11309700000.0 11309700000.0 11309700000.0 11309700000.0 11309700000.0 11309700000.0 11309700000.0 11309700000.0 11309700000.0 11309700000.0 11309700000.0 11309700000.0 11309700000.0 11309700000.0 11309700000.0 11309700000.0 11309700000.0 11309700000.0 11309700000.0 11309700000.0 11309700000.0 11309700000.0 11309700000.0 11309700000.0 11309700000.0 11309700000.0 11309700000.0 11309700000.0 11309700000.0 11309700000.0 11309700000.0 11309700000.0 11309700000.0 11309700000.0 11309700000.0 11309700000.0 11309700000.0 11309700000.0 11309700000.0 11309700000.0 11309700000.0 11309700000.0 11309700000.0 11309700000.0 11309700000.0 11309700000.0 11309700000.0 11309700000.0 11309700000.0 11309700000.0 11309700000.0 11309700000.0 11309700000.0 11309700000.0 11309700000.0 11309700000.0 11309700000.0 11309700000.0 11309700000.0 11309700000.0 11309700000.0 11309700000.0 11309700000.0 11309700000.0 11309700000.0 11309700000.0 11309700000.0 11309700000.0 11309700000.0 11309700000.0 11309700000.0 11309700000.0 11309700000.0 11309700000.0 11309700000.0 11309700000.0 11309700000.0 11309700000.0 11309700000.0 11309700000.0 11309700000.0 11309700000.0 11309700000.0 11309700000.0 11309700000.0 11309700000.0 11309700000.0 11309700000.0 11309700000.0 11309700000.0 11309700000.0 11309700000.0 11309700000.0 11309700000.0 11309700000.0 11309700000.0 11309700000.0 11309700000.0 11309700000.0 11309700000.0 11309700000.0 11309700000.0 11309700000.0 11309700000.0 11309700000.0 11309700000.0 11309700000.0 11309700000.0 11309700000.0 11309700000.0 11309700000.0 11309700000.0 11309700000.0 11309700000.0 11309700000.0 11309700000.0 11309700000.0 11309700000.0 11309700000.0 11309700000.0 11309700000.0 11309700000.0 11309700000.0 11309700000.0 11309700000.0 11309700000.0 11309700000.0 11309700000.0 11309700000.0 11309700000.0 11309700000.0 11309700000.0 11309700000.0 11309700000.0 11309700000.0 11309700000.0 11309700000.0 11309700000.0 11309700000.0 11309700000.0 11309700000.0 11309700000.0 11309700000.0 11309700000.0 11309700000.0 11309700000.0 11309700000.0 11309700000.0 11309700000.0 11309700000.0 11309700000.0 11309700000.0 11309700000.0 11309700000.0 11309700000.0 11309700000.0 11309700000.0 11309700000.0 11309700000.0 11309700000.0 11309700000.0 11309700000.0 11309700000.0 11309700000.0 11309700000.0 11309700000.0 11309700000.0 11309700000.0 11309700000.0 11309700000.0 11309700000.0 11309700000.0 11309700000.0 11309700000.0 11309700000.0 11309700000.0 11309700000.0 11309700000.0 11309700000.0 11309700000.0 11309700000.0 11309700000.0 11309700000.0 11309700000.0 11309700000.0 11309700000.0 11309700000.0 11309700000.0 11309700000.0 11309700000.0 11309700000.0 11309700000.0 11309700000.0 11309700000.0 11309700000.0 11309700000.0 11309700000.0 11309700000.0 11309700000.0 11309700000.0 11309700000.0 11309700000.0 11309700000.0 11309700000.0 11309700000.0 11309700000.0 11309700000.0 11309700000.0 11309700000.0 11309700000.0 11309700000.0 11309700000.0 11309700000.0 11309700000.0 11309700000.0 11309700000.0 11309700000.0 11309700000.0 11309700000.0 11309700000.0 11309700000.0 11309700000.0 11309700000.0 11309700000.0 11309700000.0 11309700000.0 11309700000.0 11309700000.0 11309700000.0 11309700000.0 11309700000.0 11309700000.0 11309700000.0 11309700000.0 11309700000.0 11309700000.0 11309700000.0 11309700000.0 11309700000.0 11309700000.0 11309700000.0 11309700000.0 11309700000.0 11309700000.0 11309700000.0 11309700000.0 11309700000.0 11309700000.0 11309700000.0 11309700000.0 11309700000.0 11309700000.0 11309700000.0 11309700000.0 11309700000.0 11309700000.0 11309700000.0 11309700000.0 11309700000.0 11309700000.0 11309700000.0 11309700000.0 11309700000.0 11309700000.0 11309700000.0 11309700000.0 11309700000.0 11309700000.0 11309700000.0 11309700000.0 11309700000.0 11309700000.0 11309700000.0 11309700000.0 11309700000.0 11309700000.0 11309700000.0 11309700000.0 11309700000.0 11309700000.0 11309700000.0 11309700000.0 11309700000.0 11309700000.0 11309700000.0 11309700000.0 11309700000.0 11309700000.0 11309700000.0 11309700000.0 11309700000.0 11309700000.0 11309700000.0 11309700000.0 11309700000.0 11309700000.0 11309700000.0 11309700000.0 11309700000.0 11309700000.0 11309700000.0 11309700000.0 11309700000.0 11309700000.0 11309700000.0 11309700000.0 11309700000.0 11309700000.0 11309700000.0 11309700000.0 11309700000.0 11309700000.0 11309700000.0 11309700000.0 11309700000.0 11309700000.0 11309700000.0 11309700000.0 11309700000.0 11309700000.0 11309700000.0 11309700000.0 11309700000.0 11309700000.0 11309700000.0 11309700000.0 11309700000.0 11309700000.0 11309700000.0 11309700000.0 11309700000.0 11309700000.0 11309700000.0 11309700000.0 11309700000.0 11309700000.0 11309700000.0 11309700000.0 11309700000.0 11309700000.0 11309700000.0 11309700000.0 11309700000.0 11309700000.0 11309700000.0 11309700000.0 11309700000.0 11309700000.0 11309700000.0 11309700000.0 11309700000.0 11309700000.0 11309700000.0 11309700000.0 11309700000.0 11309700000.0 11309700000.0 11309700000.0 11309700000.0 11309700000.0 11309700000.0 11309700000.0 11309700000.0 11309700000.0 11309700000.0 11309700000.0 11309700000.0 11309700000.0 11309700000.0 11309700000.0 11309700000.0 11309700000.0 11309700000.0 11309700000.0 11309700000.0 11309700000.0 11309700000.0 11309700000.0 11309700000.0 11309700000.0 11309700000.0 11309700000.0 11309700000.0 11309700000.0 11309700000.0 11309700000.0 11309700000.0 11309700000.0 11309700000.0 11309700000.0 11309700000.0 11309700000.0 11309700000.0 11309700000.0 11309700000.0 11309700000.0 11309700000.0 11309700000.0 11309700000.0 11309700000.0 11309700000.0 11309700000.0 11309700000.0 11309700000.0 11309700000.0 11309700000.0 11309700000.0 11309700000.0 11309700000.0 11309700000.0 11309700000.0 11309700000.0 11309700000.0 11309700000.0 11309700000.0 11309700000.0 11309700000.0 11309700000.0 11309700000.0 11309700000.0 11309700000.0 11309700000.0 11309700000.0 11309700000.0 11309700000.0 11309700000.0 11309700000.0 11309700000.0 11309700000.0 11309700000.0 11309700000.0 11309700000.0 11309700000.0 11309700000.0 11309700000.0 11309700000.0 11309700000.0 11309700000.0 11309700000.0 11309700000.0 11309700000.0 11309700000.0 11309700000.0 11309700000.0 11309700000.0 11309700000.0 11309700000.0 11309700000.0 11309700000.0 11309700000.0 11309700000.0 11309700000.0 11309700000.0 11309700000.0 11309700000.0 11309700000.0 11309700000.0 11309700000.0 11309700000.0 11309700000.0 11309700000.0 11309700000.0 11309700000.0 11309700000.0 11309700000.0 11309700000.0 11309700000.0 11309700000.0 11309700000.0 11309700000.0 11309700000.0 11309700000.0 11309700000.0 11309700000.0 11309700000.0 11309700000.0 11309700000.0 11309700000.0 11309700000.0 11309700000.0 11309700000.0 11309700000.0 11309700000.0 11309700000.0 11309700000.0 11309700000.0 11309700000.0 11309700000.0 11309700000.0 11309700000.0 11309700000.0 11309700000.0 11309700000.0 11309700000.0 11309700000.0 11309700000.0 11309700000.0 11309700000.0 11309700000.0 11309700000.0 11309700000.0 11309700000.0 11309700000.0 11309700000.0 11309700000.0 11309700000.0 11309700000.0 11309700000.0 11309700000.0 11309700000.0 11309700000.0 11309700000.0 11309700000.0 11309700000.0 11309700000.0 11309700000.0 11309700000.0 11309700000.0 11309700000.0 11309700000.0 11309700000.0 11309700000.0 11309700000.0 11309700000.0 11309700000.0 11309700000.0 11309700000.0 11309700000.0 11309700000.0 11309700000.0 11309700000.0 11309700000.0 11309700000.0 11309700000.0 11309700000.0 11309700000.0 11309700000.0 11309700000.0 11309700000.0 11309700000.0 11309700000.0 11309700000.0 11309700000.0 11309700000.0 11309700000.0 11309700000.0 11309700000.0 11309700000.0 11309700000.0 11309700000.0 11309700000.0 11309700000.0 11309700000.0 11309700000.0 11309700000.0 11309700000.0 11309700000.0 11309700000.0 11309700000.0 11309700000.0 11309700000.0 11309700000.0 11309700000.0 11309700000.0 11309700000.0 11309700000.0 11309700000.0 11309700000.0 11309700000.0 11309700000.0 11309700000.0 11309700000.0 11309700000.0 11309700000.0 11309700000.0 11309700000.0 11309700000.0 11309700000.0 11309700000.0 11309700000.0 11309700000.0 11309700000.0 11309700000.0 11309700000.0 11309700000.0 11309700000.0 11309700000.0 11309700000.0 11309700000.0 11309700000.0 11309700000.0 11309700000.0 11309700000.0 11309700000.0 11309700000.0 11309700000.0 11309700000.0 11309700000.0 11309700000.0 11309700000.0 11309700000.0 11309700000.0 11309700000.0 11309700000.0 11309700000.0 11309700000.0 11309700000.0 11309700000.0 11309700000.0 11309700000.0 11309700000.0 11309700000.0 11309700000.0 11309700000.0 11309700000.0 11309700000.0 11309700000.0 11309700000.0 11309700000.0 11309700000.0 11309700000.0 11309700000.0 11309700000.0 11309700000.0 11309700000.0 11309700000.0 11309700000.0 11309700000.0 11309700000.0 11309700000.0 11309700000.0 11309700000.0 11309700000.0 11309700000.0 11309700000.0 11309700000.0 11309700000.0 11309700000.0 11309700000.0 11309700000.0 11309700000.0 11309700000.0 11309700000.0 11309700000.0 11309700000.0 11309700000.0 11309700000.0 11309700000.0 11309700000.0 11309700000.0 11309700000.0 11309700000.0 11309700000.0 11309700000.0 11309700000.0 11309700000.0 11309700000.0 11309700000.0 11309700000.0 11309700000.0 11309700000.0 11309700000.0 11309700000.0 11309700000.0 11309700000.0 11309700000.0 11309700000.0 11309700000.0 11309700000.0 11309700000.0 11309700000.0 11309700000.0 11309700000.0 11309700000.0 11309700000.0 11309700000.0 11309700000.0 11309700000.0 11309700000.0 11309700000.0 11309700000.0 11309700000.0 11309700000.0 11309700000.0 11309700000.0 11309700000.0 11309700000.0 11309700000.0 11309700000.0 11309700000.0 11309700000.0 11309700000.0 11309700000.0 11309700000.0 11309700000.0 11309700000.0 11309700000.0 11309700000.0 11309700000.0 11309700000.0 11309700000.0 11309700000.0 11309700000.0 11309700000.0 11309700000.0 11309700000.0 11309700000.0 11309700000.0 11309700000.0 11309700000.0 11309700000.0 11309700000.0 11309700000.0 11309700000.0 11309700000.0 11309700000.0 11309700000.0 11309700000.0 11309700000.0 11309700000.0 11309700000.0 11309700000.0 11309700000.0 11309700000.0 11309700000.0 11309700000.0 11309700000.0 11309700000.0 11309700000.0 11309700000.0 11309700000.0 11309700000.0 11309700000.0 11309700000.0 11309700000.0 11309700000.0 11309700000.0 11309700000.0 11309700000.0 11309700000.0 11309700000.0 11309700000.0 11309700000.0 11309700000.0 11309700000.0 11309700000.0 11309700000.0 11309700000.0 11309700000.0 11309700000.0 11309700000.0 11309700000.0 11309700000.0 11309700000.0 11309700000.0 11309700000.0 11309700000.0 11309700000.0 11309700000.0 11309700000.0 11309700000.0 11309700000.0 11309700000.0 11309700000.0 11309700000.0 11309700000.0 11309700000.0 11309700000.0 11309700000.0 11309700000.0 11309700000.0 11309700000.0 11309700000.0 11309700000.0 11309700000.0 11309700000.0 11309700000.0 11309700000.0 11309700000.0 11309700000.0 11309700000.0 11309700000.0 11309700000.0 11309700000.0 11309700000.0 11309700000.0 11309700000.0 11309700000.0 11309700000.0 11309700000.0 11309700000.0 11309700000.0 11309700000.0 11309700000.0 11309700000.0 11309700000.0 11309700000.0 11309700000.0 11309700000.0 11309700000.0 11309700000.0 11309700000.0 11309700000.0 11309700000.0 11309700000.0 11309700000.0 11309700000.0 11309700000.0 11309700000.0 11309700000.0 11309700000.0 11309700000.0 11309700000.0 11309700000.0 11309700000.0 11309700000.0 11309700000.0 11309700000.0 11309700000.0 11309700000.0 11309700000.0 11309700000.0 11309700000.0 11309700000.0 11309700000.0 11309700000.0 11309700000.0 11309700000.0 11309700000.0 11309700000.0 11309700000.0 11309700000.0 11309700000.0 11309700000.0 11309700000.0 11309700000.0 11309700000.0 11309700000.0 11309700000.0 11309700000.0 11309700000.0 11309700000.0 11309700000.0 11309700000.0 11309700000.0 11309700000.0 11309700000.0 11309700000.0 11309700000.0 11309700000.0 11309700000.0 11309700000.0 11309700000.0 11309700000.0 11309700000.0 11309700000.0 11309700000.0 11309700000.0 11309700000.0 11309700000.0 11309700000.0 11309700000.0 11309700000.0 11309700000.0 11309700000.0 11309700000.0 11309700000.0 11309700000.0 11309700000.0 11309700000.0 11309700000.0 11309700000.0 11309700000.0 11309700000.0 11309700000.0 11309700000.0 11309700000.0 11309700000.0 11309700000.0 11309700000.0 11309700000.0 11309700000.0 11309700000.0 11309700000.0 11309700000.0 11309700000.0 11309700000.0 11309700000.0 11309700000.0 11309700000.0 11309700000.0 11309700000.0 11309700000.0 11309700000.0 11309700000.0 11309700000.0 11309700000.0 11309700000.0 11309700000.0 11309700000.0 11309700000.0 11309700000.0 11309700000.0 11309700000.0 11309700000.0 11309700000.0 11309700000.0 11309700000.0 11309700000.0 11309700000.0 11309700000.0 11309700000.0 11309700000.0 11309700000.0 11309700000.0 11309700000.0 11309700000.0 11309700000.0 11309700000.0 11309700000.0 11309700000.0 11309700000.0 11309700000.0 11309700000.0 11309700000.0 11309700000.0 11309700000.0 11309700000.0 11309700000.0 11309700000.0 11309700000.0 11309700000.0 11309700000.0 11309700000.0 11309700000.0 11309700000.0 11309700000.0 11309700000.0 11309700000.0 11309700000.0 11309700000.0 11309700000.0 11309700000.0 11309700000.0 11309700000.0 11309700000.0 11309700000.0 11309700000.0 11309700000.0 11309700000.0 11309700000.0 11309700000.0 11309700000.0 11309700000.0 11309700000.0 11309700000.0 11309700000.0 11309700000.0 11309700000.0 11309700000.0 11309700000.0 11309700000.0 11309700000.0 11309700000.0 11309700000.0 11309700000.0 11309700000.0 11309700000.0 11309700000.0 11309700000.0 11309700000.0 11309700000.0 11309700000.0 11309700000.0 11309700000.0 11309700000.0 11309700000.0 11309700000.0 11309700000.0 11309700000.0 11309700000.0 11309700000.0 11309700000.0 11309700000.0 11309700000.0 11309700000.0 11309700000.0 11309700000.0 11309700000.0 11309700000.0 11309700000.0 11309700000.0 11309700000.0 11309700000.0 11309700000.0 11309700000.0 11309700000.0 11309700000.0 11309700000.0 11309700000.0 11309700000.0 11309700000.0 11309700000.0 11309700000.0 11309700000.0 11309700000.0 11309700000.0 11309700000.0 11309700000.0 11309700000.0 11309700000.0 11309700000.0 11309700000.0 11309700000.0 11309700000.0 11309700000.0 11309700000.0 11309700000.0 11309700000.0 11309700000.0 11309700000.0 11309700000.0 11309700000.0 11309700000.0 11309700000.0 11309700000.0 11309700000.0 11309700000.0 11309700000.0 11309700000.0 11309700000.0 11309700000.0 11309700000.0 11309700000.0 11309700000.0 11309700000.0 11309700000.0 11309700000.0 11309700000.0 11309700000.0 11309700000.0 11309700000.0 11309700000.0 11309700000.0 11309700000.0 11309700000.0 11309700000.0 11309700000.0 11309700000.0 11309700000.0 11309700000.0 11309700000.0 11309700000.0 11309700000.0 11309700000.0 11309700000.0 11309700000.0 11309700000.0 11309700000.0 11309700000.0 11309700000.0 11309700000.0 11309700000.0 11309700000.0 11309700000.0 11309700000.0 11309700000.0 11309700000.0 11309700000.0 11309700000.0 11309700000.0 11309700000.0 11309700000.0 11309700000.0 11309700000.0 11309700000.0 11309700000.0 11309700000.0 11309700000.0 11309700000.0 11309700000.0 11309700000.0 11309700000.0 11309700000.0 11309700000.0 11309700000.0 11309700000.0 11309700000.0 11309700000.0 11309700000.0 11309700000.0 11309700000.0 11309700000.0 11309700000.0 11309700000.0 11309700000.0 11309700000.0 11309700000.0 11309700000.0 11309700000.0 11309700000.0 11309700000.0 11309700000.0 11309700000.0 11309700000.0 11309700000.0 11309700000.0 11309700000.0 11309700000.0 11309700000.0 11309700000.0 11309700000.0 11309700000.0 11309700000.0 11309700000.0 11309700000.0 11309700000.0 11309700000.0 11309700000.0 11309700000.0 11309700000.0 11309700000.0 11309700000.0 11309700000.0 11309700000.0 11309700000.0 11309700000.0 11309700000.0 11309700000.0 11309700000.0 11309700000.0 11309700000.0 11309700000.0 11309700000.0 11309700000.0 11309700000.0 11309700000.0 11309700000.0 11309700000.0 11309700000.0 11309700000.0 11309700000.0 11309700000.0 11309700000.0 11309700000.0 11309700000.0 11309700000.0 11309700000.0 11309700000.0 11309700000.0 11309700000.0 11309700000.0 11309700000.0 11309700000.0 11309700000.0 11309700000.0 11309700000.0 11309700000.0 11309700000.0 11309700000.0 11309700000.0 11309700000.0 11309700000.0 11309700000.0 11309700000.0 11309700000.0 11309700000.0 11309700000.0 11309700000.0 11309700000.0 11309700000.0 11309700000.0 11309700000.0 11309700000.0 11309700000.0 11309700000.0 11309700000.0 11309700000.0 11309700000.0 11309700000.0 11309700000.0 11309700000.0 11309700000.0 11309700000.0 11309700000.0 11309700000.0 11309700000.0 11309700000.0 11309700000.0 11309700000.0 11309700000.0 11309700000.0 11309700000.0 11309700000.0 11309700000.0 11309700000.0 11309700000.0 11309700000.0 11309700000.0 11309700000.0 11309700000.0 11309700000.0 11309700000.0 11309700000.0 11309700000.0 11309700000.0 11309700000.0 11309700000.0 11309700000.0 11309700000.0 11309700000.0 11309700000.0 11309700000.0 11309700000.0 11309700000.0 11309700000.0 11309700000.0 11309700000.0 11309700000.0 11309700000.0 11309700000.0 11309700000.0 11309700000.0 11309700000.0 11309700000.0 11309700000.0 11309700000.0 11309700000.0 11309700000.0 11309700000.0 11309700000.0 11309700000.0 11309700000.0 11309700000.0 11309700000.0 11309700000.0 11309700000.0 11309700000.0 11309700000.0 11309700000.0 11309700000.0 11309700000.0 11309700000.0 11309700000.0 11309700000.0 11309700000.0 11309700000.0 11309700000.0 11309700000.0 11309700000.0 11309700000.0 11309700000.0 11309700000.0 11309700000.0 11309700000.0 11309700000.0 11309700000.0 11309700000.0 11309700000.0 11309700000.0 11309700000.0 11309700000.0 11309700000.0 11309700000.0 11309700000.0 11309700000.0 11309700000.0 11309700000.0 11309700000.0 11309700000.0 11309700000.0 11309700000.0 11309700000.0 11309700000.0 11309700000.0 11309700000.0 11309700000.0 11309700000.0 11309700000.0 11309700000.0 11309700000.0 11309700000.0 11309700000.0 11309700000.0 11309700000.0 11309700000.0 11309700000.0 11309700000.0 11309700000.0 11309700000.0 11309700000.0 11309700000.0 11309700000.0 11309700000.0 11309700000.0 11309700000.0 11309700000.0 11309700000.0 11309700000.0 11309700000.0 11309700000.0 11309700000.0 11309700000.0 11309700000.0 11309700000.0 11309700000.0 11309700000.0 11309700000.0 11309700000.0 11309700000.0 11309700000.0 11309700000.0 11309700000.0 11309700000.0 11309700000.0 11309700000.0 11309700000.0 11309700000.0 11309700000.0 11309700000.0 11309700000.0 11309700000.0 11309700000.0 11309700000.0 11309700000.0 11309700000.0 11309700000.0 11309700000.0 11309700000.0 11309700000.0 11309700000.0 11309700000.0 11309700000.0 11309700000.0 11309700000.0 11309700000.0 11309700000.0 11309700000.0 11309700000.0 11309700000.0 11309700000.0 11309700000.0 11309700000.0 11309700000.0 11309700000.0 11309700000.0 11309700000.0 11309700000.0 11309700000.0 11309700000.0 11309700000.0 11309700000.0 11309700000.0 11309700000.0 11309700000.0 11309700000.0 11309700000.0 11309700000.0 11309700000.0 11309700000.0 11309700000.0 11309700000.0 11309700000.0 11309700000.0 11309700000.0 11309700000.0 11309700000.0 11309700000.0 11309700000.0 11309700000.0 11309700000.0 11309700000.0 11309700000.0 11309700000.0 11309700000.0 11309700000.0 11309700000.0 11309700000.0 11309700000.0 11309700000.0 11309700000.0 11309700000.0 11309700000.0 11309700000.0 11309700000.0 11309700000.0 11309700000.0 11309700000.0 11309700000.0 11309700000.0 11309700000.0 11309700000.0 11309700000.0 11309700000.0 11309700000.0 11309700000.0 11309700000.0 11309700000.0 11309700000.0 11309700000.0 11309700000.0 11309700000.0 11309700000.0 11309700000.0 11309700000.0 11309700000.0 11309700000.0 11309700000.0 11309700000.0 11309700000.0 11309700000.0 11309700000.0 11309700000.0 11309700000.0 11309700000.0 11309700000.0 11309700000.0 11309700000.0 11309700000.0 11309700000.0 11309700000.0 11309700000.0 11309700000.0 11309700000.0 11309700000.0 11309700000.0 11309700000.0 11309700000.0 11309700000.0 11309700000.0 11309700000.0 11309700000.0 11309700000.0 11309700000.0 11309700000.0 11309700000.0 11309700000.0 11309700000.0 11309700000.0 11309700000.0 11309700000.0 11309700000.0 11309700000.0 11309700000.0 11309700000.0 11309700000.0 11309700000.0 11309700000.0 11309700000.0 11309700000.0 11309700000.0 11309700000.0 11309700000.0 11309700000.0 11309700000.0 11309700000.0 11309700000.0 11309700000.0 11309700000.0 11309700000.0 11309700000.0 11309700000.0 11309700000.0 11309700000.0 11309700000.0 11309700000.0 11309700000.0 11309700000.0 11309700000.0 11309700000.0 11309700000.0 11309700000.0 11309700000.0 11309700000.0 11309700000.0 11309700000.0 11309700000.0 11309700000.0 11309700000.0 11309700000.0 11309700000.0 11309700000.0 11309700000.0 11309700000.0 11309700000.0 11309700000.0 11309700000.0 11309700000.0 11309700000.0 11309700000.0 11309700000.0 11309700000.0 11309700000.0 11309700000.0 11309700000.0 11309700000.0 11309700000.0 11309700000.0 11309700000.0 11309700000.0 11309700000.0 11309700000.0 11309700000.0 11309700000.0 11309700000.0 11309700000.0 11309700000.0 11309700000.0 11309700000.0 11309700000.0 11309700000.0 11309700000.0 11309700000.0 11309700000.0 11309700000.0 11309700000.0 11309700000.0 11309700000.0 11309700000.0 11309700000.0 11309700000.0 11309700000.0 11309700000.0 11309700000.0 11309700000.0 11309700000.0 11309700000.0 11309700000.0 11309700000.0 11309700000.0 11309700000.0 11309700000.0 11309700000.0 11309700000.0 11309700000.0 11309700000.0 11309700000.0 11309700000.0 11309700000.0 11309700000.0 11309700000.0 11309700000.0 11309700000.0 11309700000.0 11309700000.0 11309700000.0 11309700000.0 11309700000.0 11309700000.0 11309700000.0 11309700000.0 11309700000.0 11309700000.0 11309700000.0 11309700000.0 11309700000.0 11309700000.0 11309700000.0 11309700000.0 11309700000.0 11309700000.0 11309700000.0 11309700000.0 11309700000.0 11309700000.0 11309700000.0 11309700000.0 11309700000.0 11309700000.0 11309700000.0 11309700000.0 11309700000.0 11309700000.0 11309700000.0 11309700000.0 11309700000.0 11309700000.0 11309700000.0 11309700000.0 
SCALARS Velocity float 1
LOOKUP_TABLE default
1.08067 1.05765 1.06638 1.06995 1.1021 1.10102 1.10256 1.12168 1.0359 1.10423 1.08857 1.04162 1.11288 1.08673 1.2511 1.23783 1.09452 1.08933 1.04858 1.10663 1.10226 1.09952 1.10186 1.10303 1.10433 1.10467 1.04723 1.04766 1.11831 1.10646 1.24293 1.09592 1.08714 1.1015 1.10626 1.09703 1.10038 1.10211 1.10236 1.10394 1.02779 1.05076 1.12266 1.11451 1.08959 1.23234 1.09645 1.09212 1.08874 1.04603 1.09862 1.10032 1.09867 1.0998 1.10124 1.10056 1.10177 1.10138 1.10301 1.10291 1.10404 1.03097 1.12459 1.12305 1.11976 1.1184 1.10974 1.09513 1.23028 1.22295 1.0972 1.09659 1.09325 1.04291 1.10561 1.10015 1.09599 1.09869 1.09909 1.09971 1.10159 1.10293 1.02662 1.05212 1.12462 1.1224 1.11293 1.21489 1.09663 1.09148 1.0958 1.10238 1.09644 1.09742 1.09765 1.09906 1.10198 1.05034 1.12463 1.11918 1.10994 1.21091 1.09674 1.09483 1.03864 1.09357 1.09998 1.0954 1.09313 1.09542 1.0931 1.09619 1.09507 1.09888 1.09856 1.10111 1.10203 1.05074 1.12498 1.11784 1.11932 1.12261 1.12257 1.12901 1.19457 1.19697 1.09588 1.09574 1.09294 1.09406 1.03465 1.11112 1.10509 1.09731 1.0946 1.09167 1.09012 1.09086 1.09449 1.09886 1.10719 1.11499 1.12088 1.12591 1.17261 1.09493 1.0908 1.11272 1.10207 1.09228 1.08805 1.08672 1.0892 1.09499 1.10182 1.11071 1.11882 1.12432 1.13806 1.17619 1.09476 1.09233 1.12132 1.10703 1.09584 1.08791 1.08352 1.07849 1.0834 1.08134 1.08904 1.09146 1.09751 1.10219 1.10684 1.11181 1.11561 1.12004 1.12214 1.12566 1.12896 1.13675 1.15733 1.15642 1.0935 1.0947 1.10805 1.11713 1.11861 1.1136 1.109 1.10148 1.09619 1.09054 1.08468 1.08252 1.07587 1.07362 1.08238 1.09657 1.10805 1.11718 1.12433 1.12961 1.14151 1.09686 1.11455 1.11598 1.1045 1.09035 1.07712 1.06856 1.07109 1.08779 1.10333 1.11403 1.12278 1.12762 1.12971 1.13379 1.09505 1.10491 1.11825 1.11375 1.09933 1.08298 1.06821 1.05773 1.06142 1.05784 1.07426 1.08454 1.09638 1.10571 1.1106 1.11781 1.12043 1.12701 1.12758 1.12888 1.12698 1.11814 1.12283 1.10801 1.09853 1.09666 1.10175 1.11219 1.11979 1.12026 1.12117 1.11045 1.10521 1.09273 1.08396 1.07314 1.06348 1.04715 1.06453 1.09752 1.11392 1.12504 1.13174 1.12208 1.09919 1.09594 1.1106 1.12683 1.11896 1.09783 1.0726 1.04872 1.04012 1.08309 1.10832 1.12082 1.12763 1.13208 1.13615 1.13005 1.11546 1.10198 1.07152 1.07916 1.10952 1.0984 1.12282 1.13109 1.11253 1.08701 1.06542 1.04659 1.02992 1.01102 1.05234 1.08518 1.10081 1.10926 1.11402 1.1184 1.13627 1.13159 1.0829 1.05088 1.13911 1.0978 1.09543 1.10927 1.12649 1.13526 1.14252 1.12813 1.11766 1.10242 1.08902 1.07792 1.08141 1.00079 1.0308 1.10717 1.10871 1.12647 1.14111 1.10845 1.04115 1.10407 1.10822 1.14534 1.13773 1.1016 1.09378 1.04753 0.947665 1.09763 1.10726 1.09375 1.10945 1.12102 1.13927 1.1456 1.13309 1.10095 1.0622 1.00956 1.02977 1.20664 1.11636 1.09336 1.11219 1.13136 1.15776 1.12149 1.08905 1.11929 1.03541 0.935709 0.825772 1.00658 1.1473 1.12445 1.09675 1.08827 1.14113 1.13357 1.04555 1.03743 1.33247 1.09821 1.13148 1.15575 1.18034 1.15093 1.12707 1.09539 1.07589 1.09832 1.18046 0.842932 0.996889 1.17813 1.05565 1.11187 1.14687 1.12633 1.10413 1.07405 0.978523 1.11242 0.181294 1.10765 1.11827 1.10383 1.16498 1.1693 1.10606 1.04528 1.02817 0.612567 1.10822 1.23806 1.08436 0.991524 1.05693 1.10499 1.14901 1.14753 1.08882 1.06742 0.305521 0.542223 1.39749 1.31857 1.08475 1.11643 1.16638 1.22073 1.13338 1.08849 0.93457 2.27418 0.637868 1.38912 1.31986 0.920344 1.03312 1.16746 1.11038 1.06119 1.03885 1.09192 1.35079 0.366049 0.508231 0.621499 0.895061 1.50576 1.15235 1.10666 1.13368 1.27632 1.1845 1.10923 1.09815 1.06681 1.0458 1.66416 1.92268 1.14601 0.965243 0.973524 0.968123 1.00436 1.10671 1.20317 1.13638 1.08525 1.05527 1.29272 0.27399 0.357303 0.423453 0.519024 0.476147 0.423506 0.582011 1.42827 1.18125 1.18473 1.15022 1.19512 1.30418 1.17121 1.08418 1.18692 1.2149 1.32174 1.11494 1.20626 0.650438 1.0502 0.975374 1.07372 1.23975 1.104 1.11658 1.08797 1.05644 0.347718 0.483927 0.510302 0.581467 0.564243 0.458198 0.325247 0.174551 0.30442 1.196 1.29633 1.26285 1.07792 1.1317 1.07929 1.16737 1.228 0.574219 0.892773 0.915291 0.965056 1.01038 1.06275 1.18895 1.12786 1.08938 1.05498 1.09051 0.71943 0.500197 0.586748 0.568383 0.636058 0.59101 0.607113 0.54684 0.519384 0.364575 1.11919 1.38777 1.31324 1.15835 1.15129 0.853929 0.790619 0.636022 1.11681 1.00084 1.10211 1.12301 1.20745 1.15345 0.820444 0.901871 0.992101 0.781368 0.863503 0.936862 1.13853 1.16623 1.12003 1.0016 0.662828 0.647712 0.629853 0.659326 0.668644 0.62834 0.615799 0.627882 0.621108 0.684182 0.589255 0.79132 0.803268 1.14151 1.18726 1.68272 1.49795 1.22366 0.934599 0.648332 0.584007 1.04167 1.13059 1.23655 1.14726 0.881788 0.919051 0.888275 0.766037 0.799185 1.00708 1.13343 1.14032 1.16705 1.07318 0.967328 0.789529 0.722165 0.671595 0.691083 0.687829 0.695413 0.666152 0.620224 0.650857 0.681825 0.747682 0.767672 0.981356 1.37167 1.60926 1.08409 0.733863 0.593609 0.696275 0.843345 0.937919 1.00295 0.933561 1.29249 1.02573 0.936793 0.902862 0.83722 0.769245 0.86482 1.03742 1.15895 1.15363 1.11191 0.965067 0.791846 0.725855 0.711511 0.70843 0.677066 0.661077 0.640702 0.606902 0.617354 0.635985 0.654685 0.692256 0.816839 0.765491 0.769302 0.833292 0.89859 1.06896 1.25774 1.29651 1.42395 0.912605 1.2919 1.33113 0.915899 0.772023 0.659773 0.710183 0.879931 0.923426 1.1443 1.23072 1.03816 0.92303 0.821742 0.795638 0.830928 0.91416 1.07114 1.17557 0.81088 0.771247 0.809264 0.7436 0.744614 0.714261 0.697526 0.687856 0.660041 0.612983 0.581705 0.593663 0.601032 0.626665 0.650943 0.734005 0.808341 1.01655 1.24954 1.07727 1.14788 0.823922 0.791042 0.835082 0.916522 1.01453 0.985575 0.832675 0.529037 1.2602 1.18757 0.976955 0.884524 0.820257 0.853988 0.942983 0.975722 1.11796 1.18065 0.992136 1.05552 0.8972 0.79331 0.722169 0.705558 0.671452 0.632947 0.584432 0.597567 0.570479 0.58828 0.596864 0.609068 0.613044 0.635967 0.693089 0.74758 0.753265 0.748512 0.867735 1.20796 1.2137 1.11173 1.05448 1.11758 0.753604 0.861977 0.800777 0.843729 0.914718 0.922436 0.951568 0.964641 0.92486 0.647729 0.310715 0.997501 0.944724 0.907141 0.858321 0.822614 0.865654 1.01668 1.20864 1.35549 0.883769 0.847337 0.774096 0.76439 0.738926 0.715905 0.6975 0.634878 0.582995 0.571656 0.582315 0.562609 0.559146 0.570777 0.579573 0.589894 0.604895 0.610471 0.647098 0.735437 0.737729 0.537422 0.778255 0.657025 0.851325 1.2346 1.00468 0.656831 0.741547 0.885538 0.950764 0.916706 0.779889 0.402842 0.225885 0.942731 0.868914 0.837486 0.822998 0.824648 0.861137 0.849342 1.09555 1.31791 0.632505 0.536631 0.710551 0.734788 0.708903 0.721827 0.735457 0.659459 0.550395 0.556154 0.533783 0.524568 0.542202 0.555295 0.585933 0.603127 0.602591 0.614172 0.65107 0.718137 0.742614 0.698476 0.642564 0.716281 0.690225 0.742957 0.752701 0.451389 0.688771 0.793624 0.925108 0.915696 0.810117 0.675852 0.570622 0.442077 0.295036 0.427124 0.683157 0.796877 0.892981 0.838533 0.835684 0.809597 0.788545 0.903845 1.10156 0.279648 0.514831 0.671178 0.659251 0.706266 0.743273 0.736877 0.685701 0.608434 0.582544 0.540706 0.567043 0.56867 0.520122 0.50736 0.533506 0.571791 0.591407 0.628667 0.609248 0.655916 0.761115 0.702093 0.65594 0.620877 0.676829 0.636534 0.553558 0.661691 0.693962 0.696024 0.78147 0.85873 0.87942 0.915721 0.855084 0.83855 0.735753 0.552361 0.438175 0.656087 0.820696 0.853557 0.816018 0.817007 0.807314 0.843211 0.974073 0.580328 0.295783 0.557495 0.590175 0.633131 0.658231 0.757624 0.698953 0.60136 0.608681 0.5718 0.49093 0.469795 0.489385 0.500344 0.514058 0.523101 0.549332 0.568156 0.616497 0.658449 0.654128 0.657687 0.844859 0.797014 0.633337 0.621748 0.667476 0.671921 0.605478 0.547045 0.54104 0.740457 0.835066 0.845174 0.776967 0.641612 0.50588 0.54086 0.736998 0.833651 0.752674 0.859314 0.775398 0.843641 0.866747 0.850248 0.452468 0.508356 0.513163 0.540008 0.583594 0.630959 0.693077 0.656203 0.686439 0.694297 0.649851 0.587489 0.619988 0.584918 0.526317 0.42284 0.443219 0.466221 0.481781 0.505678 0.545977 0.569381 0.590036 0.608887 0.700987 0.751844 0.859077 0.663296 0.598431 0.627517 0.641302 0.631851 0.546067 0.552612 0.641508 0.717786 0.761195 0.792933 0.828612 0.801042 0.794822 0.737727 0.699574 0.644185 0.582156 0.574535 0.538917 0.609106 0.658069 0.70548 0.771409 0.799068 0.840381 0.810139 0.844364 0.767071 0.752235 0.818733 0.585567 0.43964 0.478871 0.500843 0.54071 0.692062 0.630317 0.54429 0.528234 0.59781 0.54252 0.477684 0.4137 0.399444 0.419601 0.460517 0.481664 0.494191 0.49989 0.521949 0.550427 0.593329 0.646939 0.624307 0.710319 0.877782 0.54696 0.584543 0.599695 0.612091 0.604252 0.58198 0.644437 0.742524 0.780276 0.804603 0.793649 0.75958 0.689278 0.620922 0.609537 0.67222 0.732155 0.938519 0.758513 0.63849 0.597371 0.793356 0.886428 0.610208 0.52512 0.509585 0.608974 0.627744 0.690325 0.834246 0.692396 0.531961 0.551444 0.567606 0.572176 0.507384 0.474375 0.385414 0.379467 0.370277 0.39663 0.441522 0.464728 0.499096 0.511929 0.534396 0.541035 0.584039 0.61545 0.588991 0.654173 0.275612 0.739859 0.475691 0.595128 0.589177 0.587556 0.583742 0.566385 0.548112 0.554801 0.725772 0.756111 0.785929 0.769914 0.716777 0.660028 0.628969 0.654827 0.711438 0.763539 0.809429 0.80218 0.872995 0.781205 0.665316 0.706684 1.46129 0.682501 0.562523 0.536922 0.586698 0.600439 0.548091 0.693181 0.619216 0.516862 0.538772 0.442965 0.406627 0.362291 0.376418 0.368298 0.346339 0.376114 0.38636 0.411615 0.437778 0.461885 0.481757 0.489998 0.542755 0.551368 0.621076 0.40828 0.538011 0.627879 0.550211 0.579816 0.58244 0.570476 0.555814 0.535288 0.516994 0.453876 0.506737 0.807056 0.781574 0.762597 0.77444 0.756137 0.73857 0.713776 0.689426 0.678464 0.654498 0.667084 0.656167 0.687018 0.695746 0.735878 0.80162 0.714305 0.581112 0.633601 0.604134 0.600914 0.693103 0.664188 0.325898 0.570187 0.565413 0.571933 0.545749 0.540418 0.583226 0.716354 0.4692 0.458123 0.518255 0.534679 0.487252 0.384508 0.338333 0.372062 0.339413 0.318449 0.363248 0.408251 0.431324 0.471981 0.460481 0.477161 0.47864 0.478384 0.549569 0.613299 0.359529 0.483229 0.507886 0.557294 0.60676 0.573189 0.577256 0.574909 0.540543 0.523534 0.506971 0.509178 0.709197 0.750771 0.761968 0.734038 0.698506 0.681627 0.68744 0.718956 0.769127 0.777103 0.697544 0.515551 0.587639 0.598706 0.652364 0.141531 0.42884 0.529501 0.562487 0.543138 0.469104 0.498815 0.497779 0.549999 0.522039 0.497682 0.498783 0.476525 0.421346 0.36789 0.334173 0.305047 0.314431 0.400487 0.51331 0.567 0.415347 0.295675 0.299041 0.328031 0.384174 0.404009 0.446885 0.453742 0.447104 0.438532 0.511589 0.453565 0.340841 0.439957 0.455038 0.52453 0.54815 0.574255 0.593149 0.57834 0.571708 0.56416 0.553332 0.520352 0.498807 0.469407 0.355677 0.604668 0.783725 0.763098 0.750765 0.714852 0.695096 0.69335 0.709273 0.710885 0.732605 0.746228 0.757985 0.775819 0.742698 0.591445 0.553501 0.585534 0.653099 0.40953 0.195349 0.284371 0.467825 0.546295 0.573394 0.521081 0.499457 0.467274 0.450645 0.504637 0.507765 0.468266 0.428765 0.375364 0.334822 0.292471 0.324755 0.55872 0.247476 0.348295 0.286878 0.296743 0.282764 0.325068 0.367694 0.380513 0.420689 0.433791 0.433182 0.406691 0.438069 0.409829 0.364352 0.411373 0.482453 0.508526 0.549064 0.565855 0.578773 0.58456 0.573794 0.563301 0.550436 0.537195 0.478714 0.425954 0.517896 0.760833 0.786322 0.767626 0.760868 0.7508 0.732437 0.71938 0.707228 0.708984 0.700922 0.711093 0.725406 0.746572 0.744922 0.699439 0.612779 0.577655 0.611381 0.611681 0.532559 0.397622 0.335432 0.402575 0.503031 0.565874 0.585654 0.574992 0.524389 0.490064 0.494515 0.442952 0.403122 0.36761 0.320904 0.434077 0.307013 0.0881105 0.239951 0.303943 0.277568 0.266539 0.310793 0.342247 0.38587 0.389368 0.404165 0.416834 0.576419 0.565772 0.552916 0.537652 0.522175 0.504552 0.740079 0.752676 0.763353 0.731217 0.717082 0.714952 0.722687 0.73751 0.745125 0.731295 0.714245 0.703962 0.598939 0.584006 0.547864 0.484216 0.431314 0.422248 0.4656 0.526165 0.487263 0.496321 0.508655 0.48447 0.411998 0.388648 0.358303 0.375764 0.292962 0.162174 0.180277 0.158985 0.252455 0.202564 0.276022 0.26837 0.252155 0.276373 0.275564 0.320209 0.285651 0.369497 0.383136 0.404287 0.41079 0.405866 0.405657 0.398254 0.412122 0.471941 0.514729 0.538213 0.56207 0.572196 0.577988 0.557555 0.543053 0.527164 0.510583 0.493447 0.467066 0.479505 0.465311 0.78695 0.765316 0.740851 0.72599 0.726746 0.719965 0.724534 0.722566 0.730382 0.733457 0.740138 0.741899 0.737328 0.722273 0.612548 0.544024 0.535869 0.527736 0.536306 0.513156 0.485518 0.466269 0.56263 0.579784 0.590004 0.555209 0.520081 0.533161 0.519254 0.509175 0.47469 0.43294 0.440231 0.433818 0.428019 0.397235 0.315629 0.101852 0.18497 0.211103 0.123029 0.27567 0.282827 0.28083 0.285601 0.304887 0.310095 0.371683 0.37753 0.396457 0.406391 0.405742 0.417601 0.424123 0.445631 0.473833 0.506724 0.534727 0.552996 0.568278 0.573614 0.574827 0.569213 0.534863 0.519352 0.505253 0.491646 0.489215 0.48638 0.656827 0.737203 0.744513 0.736759 0.73418 0.73375 0.728621 0.729537 0.737036 0.740231 0.728784 0.708248 0.702255 0.604936 0.545209 0.531808 0.522654 0.518999 0.508184 0.469624 0.496532 0.531619 0.551431 0.57087 0.573914 0.568515 0.554689 0.549928 0.529381 0.502489 0.468308 0.448255 0.477182 0.467405 0.465983 0.282661 0.138033 0.206368 0.119391 0.109684 0.225994 0.13777 0.275079 0.286178 0.270296 0.254506 0.302215 0.336712 0.349598 0.389492 0.407754 0.403882 0.413097 0.427254 0.440154 0.457607 0.480383 0.505028 0.527522 0.54781 0.561578 0.570905 0.573588 0.57109 0.562898 0.549928 0.516422 0.505129 0.498255 0.487018 0.463455 0.586253 0.741806 0.732612 0.737414 0.733659 0.730671 0.734547 0.740813 0.741516 0.737178 0.728634 0.694747 0.590003 0.534735 0.537878 0.52803 0.498628 0.489692 0.493851 0.512346 0.532188 0.545156 0.549946 0.560295 0.567462 0.556582 0.537582 0.523575 0.501782 0.490592 0.480479 0.497049 0.504477 0.525225 0.191453 0.228459 0.198168 0.195929 0.211575 0.0485144 0.269037 0.281095 0.297448 0.293944 0.256839 0.291807 0.385161 0.365526 0.37051 0.41779 0.41146 0.419437 0.432119 0.44586 0.466321 0.48433 0.503916 0.523754 0.540838 0.556237 0.566939 0.572474 0.572408 0.567469 0.557488 0.544898 0.53081 0.502153 0.493253 0.541481 0.679666 0.729148 0.73209 0.737512 0.739205 0.737516 0.736033 0.733401 0.734075 0.733439 0.736044 0.738215 0.740083 0.740309 0.717106 0.662524 0.520635 0.517864 0.512382 0.508037 0.507744 0.514065 0.522999 0.531058 0.538119 0.546589 0.553212 0.554605 0.544105 0.529296 0.520212 0.51767 0.510506 0.493375 0.579896 0.580394 0.233101 0.205223 0.369488 0.225697 0.246799 0.274121 0.163481 0.280015 0.291537 0.280823 0.28883 0.257711 0.208587 0.393758 0.371819 0.390798 0.397836 0.427107 0.427526 0.440367 0.453818 0.472379 0.488996 0.505076 0.521808 0.537568 0.551346 0.562514 0.570032 0.573496 0.571559 0.56515 0.555612 0.543557 0.530888 0.51863 0.510569 0.607102 0.705191 0.739119 0.737445 0.735051 0.735534 0.737081 0.742052 0.733758 0.709776 0.573593 0.543049 0.535664 0.528008 0.523467 0.520502 0.520875 0.523686 0.525882 0.528914 0.53322 0.539934 0.546779 0.537006 0.528681 0.528727 0.524599 0.503158 0.491811 0.52396 0.632468 0.513379 0.701107 0.319664 0.372645 0.312515 0.222889 0.132989 0.180874 0.218137 0.330453 0.349296 0.334326 0.306785 0.284462 0.18551 0.124903 0.376186 0.387929 0.435702 0.440547 0.451546 0.463311 0.480938 0.575379 0.572298 0.564911 0.556052 0.545136 0.534819 0.526343 0.520697 0.521971 0.548837 0.728369 0.735538 0.735438 0.73578 0.736006 0.738062 0.739963 0.74795 0.732979 0.619268 0.57621 0.550933 0.539224 0.531649 0.530038 0.532036 0.534812 0.53764 0.540533 0.551969 0.551928 0.54557 0.521332 0.497294 0.466002 0.488197 0.571605 0.592801 0.416317 1.10004 0.178671 0.199211 0.296093 0.261769 0.603388 0.629491 1.03149 0.417233 0.459533 0.368404 0.368373 0.183619 0.406161 0.431114 0.412308 0.398557 0.434461 0.445629 0.462181 0.476865 0.496992 0.508691 0.521916 0.53514 0.547544 0.559443 0.568054 0.573431 0.566899 0.55846 0.549638 0.542629 0.538435 0.539101 0.554894 0.583001 0.583009 0.701531 0.738144 0.728016 0.734372 0.733897 0.735307 0.737367 0.73653 0.73664 0.735001 0.732466 0.763708 0.710924 0.605672 0.601064 0.575103 0.555651 0.545777 0.542607 0.542277 0.543995 0.54901 0.554476 0.55875 0.557851 0.551908 0.542773 0.533433 0.5278 0.456724 0.464695 0.51851 0.636662 0.76943 0.561001 1.16309 1.33985 1.14842 0.889234 0.387216 0.374278 0.275606 0.381033 0.379251 0.547809 0.326362 0.582684 0.5984 0.928022 0.837555 0.460546 0.371544 0.332937 0.243976 0.387883 0.37062 0.431713 0.451405 0.465633 0.490036 0.505767 0.515598 0.52501 0.535462 0.544572 0.554718 0.565141 0.573318 0.577799 0.577836 0.574043 0.556752 0.553066 0.553563 0.562644 0.579335 0.59352 0.644025 0.574628 0.74681 0.733668 0.735201 0.738007 0.735606 0.727912 0.792554 0.52787 0.657947 0.612096 0.595112 0.575748 0.563318 0.544078 0.547268 0.55076 0.554608 0.558506 0.562582 0.565467 0.565075 0.559685 0.549582 0.537841 0.525914 0.514642 0.495613 0.484944 0.475778 0.59157 0.870797 0.248128 0.797595 0.477983 0.459799 0.453978 0.376258 0.465801 0.322542 0.57321 0.579698 0.888382 0.794938 0.74476 0.659449 0.435295 0.358308 0.117138 0.501145 0.404219 0.397144 0.441008 0.475786 0.489184 0.505179 0.517349 0.526193 0.530892 0.536859 0.543716 0.550966 0.56079 0.571829 0.581002 0.583694 0.581987 0.577087 0.570149 0.562964 0.570449 0.581327 0.595667 0.623235 0.633239 0.637116 0.72102 0.734087 0.739596 0.739831 0.733427 0.772859 0.619796 0.651305 0.638881 0.556764 0.553874 0.554034 0.556311 0.559704 0.56335 0.566345 0.568881 0.570462 0.570317 0.5668 0.557741 0.544486 0.5286 0.51222 0.500595 0.473161 0.448779 0.459803 0.59425 0.746158 0.696525 0.749356 0.537924 0.656053 0.432734 0.459857 0.321318 0.351095 0.310947 0.248554 0.347069 0.573253 0.563959 0.564836 0.564291 0.767169 0.698197 0.604236 0.592064 0.510336 0.618848 0.437115 0.417684 0.447857 0.503024 0.519182 0.526622 0.536603 0.542218 0.545197 0.545673 0.549001 0.555666 0.568941 0.584503 0.589954 0.590137 0.586461 0.580771 0.574663 0.569063 0.565409 0.565301 0.626833 0.63683 0.6429 0.712813 0.745976 0.725536 0.731995 0.746617 0.74177 0.747683 0.738828 0.735691 0.641425 0.611298 0.594345 0.580716 0.571744 0.566844 0.56505 0.565894 0.568518 0.571792 0.574463 0.575035 0.574818 0.573988 0.57231 0.565681 0.553124 0.536015 0.516548 0.499566 0.480271 0.458411 0.48561 0.679403 0.328978 0.575993 0.660182 0.42724 0.478702 0.466665 0.238098 0.2895 0.323246 0.328079 0.339298 0.568052 0.57294 0.514522 0.667566 0.683313 0.588278 0.524357 0.443887 0.538962 1.30319 0.8748 0.448295 0.483045 0.481953 0.516164 0.532646 0.540326 0.5472 0.553973 0.5559 0.597019 0.597348 0.594865 0.590252 0.584833 0.579965 0.576193 0.575173 0.577967 0.585318 0.596529 0.613724 0.662123 0.731806 0.743654 0.750333 0.642147 0.641921 0.627632 0.609142 0.595744 0.585787 0.579663 0.576468 0.575854 0.577547 0.580444 0.583217 0.584134 0.52472 0.505454 0.489582 0.468348 0.479426 0.519725 0.578009 0.636955 0.690463 0.55476 0.400258 0.38866 0.336301 0.32089 0.251099 0.437981 0.246158 0.592285 0.500119 0.414835 0.403224 0.464977 0.205817 0.412102 0.484548 0.484365 0.534188 0.55701 0.558597 0.558266 0.553118 0.547479 0.551135 0.562306 0.591161 0.593584 0.589296 0.585821 0.584122 0.585392 0.590073 0.598412 0.610603 0.62309 0.635508 0.647707 0.674693 0.732907 0.704219 0.759527 0.757355 0.721541 0.652617 0.648746 0.641693 0.633077 0.620585 0.607579 0.597734 0.59111 0.587176 0.585602 0.58621 0.580255 0.577362 0.575906 0.573609 0.564579 0.547029 0.482955 0.474297 0.512922 0.549785 0.623981 0.658127 0.669201 0.743747 0.535265 0.54564 0.548192 0.360638 0.785851 0.426728 0.580888 0.531814 0.513178 0.444143 0.344307 0.27812 0.475809 0.350656 0.537434 0.536142 0.532818 0.574708 0.564469 0.566691 0.563051 0.553861 0.54091 0.557372 0.602817 0.605255 0.603812 0.601293 0.597828 0.592591 0.595573 0.601402 0.610342 0.621102 0.633506 0.646962 0.664752 0.672073 0.674467 0.793015 0.75574 0.765407 0.726977 0.689765 0.658584 0.647437 0.637179 0.627057 0.616705 0.607573 0.588495 0.591436 0.593885 0.593416 0.581267 0.578925 0.576709 0.57677 0.56487 0.538641 0.513886 0.499516 0.50119 0.526003 0.591992 0.65007 0.666834 0.558471 0.751674 0.452459 0.683191 0.659212 0.888214 0.697392 0.57766 0.470249 0.377114 0.316614 0.203211 0.517665 0.612438 0.55144 0.555238 0.583944 0.575615 0.576579 0.579971 0.573334 0.560184 0.541754 0.504947 0.621719 0.612003 0.608451 0.605878 0.603199 0.600134 0.5968 0.593886 0.59218 0.611712 0.620477 0.631349 0.643841 0.658336 0.669027 0.675792 0.682325 0.687066 0.810007 0.79155 0.747853 0.71003 0.680713 0.658071 0.644416 0.600983 0.596797 0.594488 0.594064 0.595372 0.597989 0.601324 0.604111 0.602885 0.580687 0.578924 0.576138 0.585894 0.563625 0.527467 0.510629 0.502921 0.489271 0.623048 0.637363 0.62053 0.620374 0.79895 0.755658 0.963002 1.18108 0.947599 0.525132 0.438603 0.411368 0.353807 0.262401 0.426639 0.563181 0.510757 0.67677 0.563435 0.607869 0.600039 0.590524 0.595601 0.586111 0.56976 0.547276 0.516652 0.643092 0.621113 0.61139 0.608458 0.606721 0.604816 0.602546 0.600368 0.598965 0.599031 0.601049 0.605184 0.652574 0.663888 0.673418 0.681081 0.68321 0.660286 0.633358 0.623915 0.616045 0.609759 0.605337 0.602493 0.601095 0.601252 0.602876 0.60574 0.609716 0.612939 0.615313 0.58055 0.578839 0.574871 0.589899 0.566329 0.523653 0.515886 0.512274 0.511639 0.526173 0.563703 0.630233 0.624961 0.508057 0.843346 0.311026 1.15136 0.586122 0.505401 0.409476 0.306516 0.306447 0.850253 0.683835 0.727654 0.556436 0.58114 0.626395 0.607471 0.61463 0.602765 0.584197 0.610069 0.609208 0.6083 0.606924 0.605396 0.604378 0.604397 0.605792 0.608898 0.613948 0.621124 0.630123 0.640948 0.682604 0.672627 0.643042 0.818141 0.778151 0.734965 0.700534 0.67475 0.655473 0.641841 0.631776 0.624094 0.617981 0.613365 0.609965 0.607746 0.606748 0.606972 0.608434 0.611331 0.616932 0.622853 0.590087 0.574188 0.526451 0.526434 0.528047 0.537855 0.562865 0.592086 0.61655 0.598562 0.726828 0.570346 0.664685 0.447344 1.22137 0.586855 0.477978 0.373029 0.404962 0.547906 0.823159 0.53611 0.578477 0.587835 0.570299 0.632736 0.636876 0.558653 0.525848 0.66775 0.630226 0.613988 0.608361 0.608363 0.609574 0.612096 0.616154 0.62223 0.63054 0.639606 0.649279 0.658009 0.666563 0.676463 0.818172 0.767158 0.724938 0.693357 0.670014 0.652899 0.641126 0.632657 0.626371 0.621469 0.617505 0.614428 0.612283 0.629183 0.581988 0.580627 0.566469 0.533842 0.541058 0.545161 0.565971 0.598382 0.608969 0.610204 0.609199 0.769647 0.619546 0.732666 0.0630937 0.658671 0.53631 0.455838 0.476206 0.603922 0.470916 0.567946 0.591346 0.590326 0.558283 0.622202 0.602678 0.575363 0.54032 0.691497 0.645945 0.616059 0.612151 0.612116 0.611819 0.610709 0.609321 0.618149 0.623269 0.630958 0.640307 0.648662 0.654673 0.658762 0.664056 0.675316 0.679437 0.666013 0.62626 0.811963 0.757885 0.717738 0.687999 0.666435 0.651749 0.64197 0.63528 0.611134 0.61089 0.611774 0.614906 0.625112 0.63439 0.642401 0.582716 0.577799 0.564089 0.58993 0.582054 0.58276 0.61297 0.621638 0.63622 0.735821 0.700257 0.279803 0.366899 0.594962 0.552568 0.603179 1.02908 0.554853 0.533528 0.582289 0.594881 0.661785 0.643349 0.624561 0.597114 0.560037 0.712094 0.666763 0.625394 0.614703 0.616593 0.616835 0.615196 0.612889 0.611311 0.610898 0.611937 0.614436 0.653481 0.653319 0.652846 0.654914 0.680046 0.68734 0.657207 0.605605 0.802469 0.75118 0.629974 0.625437 0.621494 0.618248 0.615775 0.614048 0.613102 0.613286 0.616292 0.636981 0.644993 0.653928 0.580991 0.578006 0.568514 0.589674 0.58881 0.542439 0.560384 0.569761 0.741937 0.784164 0.765723 0.561829 0.558612 0.824073 0.605953 0.654954 0.9658 0.921658 0.598035 0.562655 0.580064 0.588486 0.667628 0.649036 0.622997 0.585481 0.729956 0.685635 0.646683 0.624269 0.621925 0.624115 0.621561 0.617042 0.613852 0.612435 0.612983 0.615315 0.619379 0.624349 0.630582 0.639824 0.647408 0.653993 0.706925 0.68554 0.638823 0.586418 0.712632 0.683878 0.664042 0.652029 0.644557 0.638983 0.633905 0.628964 0.624677 0.621034 0.618118 0.615955 0.614562 0.614243 0.614807 0.648869 0.655813 0.664814 0.582153 0.583362 0.577577 0.592324 0.593608 0.550978 0.580568 0.588596 0.597961 0.634545 0.622198 0.722061 0.765936 0.792459 0.809024 0.728768 0.706068 0.966165 0.908485 0.798356 0.594698 0.580922 0.60353 0.592068 0.676631 0.65339 0.745617 0.623012 0.616778 0.613356 0.613032 0.614875 0.618781 0.624908 0.630274 0.635228 0.642284 0.647217 0.652547 0.646266 0.642325 0.79214 0.744996 0.707221 0.679129 0.663604 0.654492 0.648319 0.642974 0.637373 0.631579 0.626613 0.622711 0.619684 0.617715 0.676088 0.590564 0.598241 0.595283 0.556921 0.601448 0.617395 0.648487 0.637049 0.745214 0.733222 0.74149 0.815012 0.738819 0.639475 0.880391 0.885852 0.963277 0.636039 0.631713 0.587141 0.606997 0.603222 0.595456 0.61555 0.703617 0.664253 0.651594 0.633861 0.633641 0.630756 0.623338 0.631144 0.632257 0.627613 0.642292 0.649069 0.642478 0.641284 0.639163 0.603913 0.714303 0.661798 0.62345 0.577928 0.783708 0.740446 0.697614 0.67743 0.666006 0.658101 0.653151 0.647246 0.616464 0.616184 0.611867 0.65919 0.666666 0.588305 0.591723 0.571645 0.660819 0.649015 0.720225 0.714329 0.782184 0.825772 0.895644 0.893775 0.810478 0.709632 0.637266 0.617611 0.608611 0.686435 0.651044 0.760499 0.719748 0.683093 0.671089 0.66796 0.64726 0.643085 0.632213 0.621902 0.614 0.612089 0.613263 0.616954 0.626707 0.64622 0.624197 0.81085 0.632423 0.510955 0.688125 0.656339 0.622674 0.57891 0.77956 0.63943 0.632797 0.627734 0.623813 0.620949 0.619328 0.61732 0.620718 0.612169 0.669822 0.677434 0.688129 0.597397 0.603464 0.603975 0.605565 0.596708 0.652001 0.76978 0.742134 0.723863 0.701733 0.749395 0.909746 0.797622 0.75096 0.675543 0.628541 0.610255 0.607863 0.598656 0.691178 0.777751 0.735195 0.7027 0.691212 0.689619 0.683193 0.657866 0.642595 0.63128 0.616431 0.610215 0.610718 0.614167 0.623118 0.629804 0.640828 0.61718 0.657111 0.686105 0.660918 0.627836 0.587783 0.718329 0.692955 0.679969 0.668957 0.662225 0.659375 0.649188 0.640159 0.633044 0.628432 0.624676 0.62198 0.620595 0.622485 0.62638 0.619026 0.677148 0.691787 0.700014 0.607461 0.608959 0.617578 0.622074 0.606016 0.617582 0.70033 0.687851 0.761796 0.761396 0.730892 0.682316 0.893827 0.885459 0.835562 0.789615 0.707862 0.649449 0.619229 0.617725 0.617383 0.614841 0.59642 0.798176 0.754549 0.709664 0.67762 0.721223 0.737977 0.76244 0.794232 0.820908 0.861071 0.795173 0.810262 0.823131 0.790623 0.884384 0.650729 0.724691 0.519492 0.705819 0.690674 0.663312 0.637753 0.652265 0.662492 0.643081 0.642284 0.636972 0.634904 0.637925 0.626497 0.617586 0.60945 0.605143 0.603581 0.602825 0.669938 0.687328 0.702593 0.706585 0.597344 0.62072 0.633935 0.637545 0.635964 0.754027 0.702977 0.768768 0.75322 0.759158 0.68601 0.685704 0.721628 0.899135 0.900173 0.799645 0.810807 0.63057 0.662766 0.674535 0.702011 0.66452 0.672404 0.69337 0.706802 0.714816 0.714272 0.714263 0.824035 0.828889 0.824381 0.809623 0.746935 0.64159 0.547621 0.648049 0.639875 0.647203 0.627041 0.604332 0.613419 0.625353 0.645946 0.644622 0.651895 0.727742 0.696779 0.728091 0.815028 0.790107 0.780425 0.671608 0.651801 0.634167 0.686256 0.68142 0.777771 0.73195 0.693811 0.668734 0.66424 0.677953 0.702044 0.709931 0.704781 0.706284 0.703284 0.713348 0.730937 0.759522 0.797728 0.821262 0.799559 0.712313 0.691178 0.666684 0.673333 0.662672 0.647066 0.631564 0.621985 0.612151 0.605426 0.602117 0.605564 0.609364 0.613603 0.619189 0.629 0.660293 0.675356 0.696316 0.714403 0.699774 0.622682 0.643789 0.762609 0.77016 0.765907 0.765748 0.896574 0.793435 0.797357 0.786629 0.764438 0.695958 0.651495 0.633234 0.62301 0.6281 0.619587 0.752162 0.731233 0.759732 0.711639 0.686259 0.663303 0.680398 0.692887 0.71054 0.715574 0.704426 0.690748 0.694344 0.707515 0.726342 0.764312 0.828835 0.816022 0.788486 0.847516 0.852018 0.846642 0.813011 0.682728 0.860616 0.565664 0.748984 0.717783 0.691317 0.682655 0.679547 0.653616 0.681436 0.686294 0.638459 0.680056 0.635092 0.629322 0.615069 0.606793 0.606959 0.615099 0.633242 0.646151 0.632066 0.618515 0.639206 0.668473 0.6803 0.694479 0.722848 0.815672 0.656158 0.669798 0.667143 0.700819 0.826644 0.7253 0.807885 0.755375 0.688896 0.743124 0.822527 0.893832 0.903388 0.910943 0.836104 0.793575 0.706089 0.784586 0.65281 0.635865 0.553738 0.736222 0.70973 0.854565 0.679214 0.790866 0.72547 0.698697 0.688785 0.681101 0.685322 0.678844 0.688783 0.704843 0.72696 0.853772 0.834946 0.860628 0.880265 0.847099 0.804506 0.787323 0.64762 0.732415 0.712257 0.694921 0.6778 0.686949 0.667157 0.990781 0.695492 0.724404 0.659556 0.652143 0.621715 0.611307 0.605314 0.661967 0.668719 0.673918 0.687762 0.625774 0.628213 0.638509 0.671723 0.681818 0.688696 0.759804 0.800791 0.671366 0.674414 0.673259 0.84306 0.726229 0.760925 0.788168 0.83653 0.812701 0.813361 0.900582 0.89701 0.695534 0.694382 0.718185 0.7434 0.795846 0.892912 0.893832 0.893832 0.880895 0.886319 0.7802 0.887011 0.821524 0.807448 0.751642 0.911791 0.857604 0.905951 0.816137 0.911296 0.849588 0.826786 0.724584 0.688281 0.699886 0.709749 0.735051 0.790738 0.787819 0.802969 0.818454 0.838955 0.851668 0.866992 0.984385 0.762855 0.837411 0.802589 0.88912 0.782245 0.795885 0.781637 0.736403 0.730157 0.725599 0.704964 0.685265 0.690716 0.689022 0.614967 0.795269 0.882296 0.787918 0.7889 0.768231 0.756781 0.722463 0.806192 0.779912 0.777576 0.821782 0.802343 0.766189 0.775105 0.789336 0.810032 0.794467 0.80539 0.820151 0.800979 0.805054 0.790724 0.917956 0.804887 0.857586 0.839825 0.898399 0.868285 0.893832 0.893832 0.893832 0.895495 0.895689 0.888956 0.903428 0.839772 0.92368 0.869535 0.861568 0.810103 0.900408 0.901097 0.900595 0.868695 0.905838 0.904791 0.907767 0.820561 0.807474 0.823017 0.847809 0.889685 0.888245 0.890293 0.896652 0.903227 0.893582 0.901323 0.886137 0.929523 0.871151 0.855835 0.926982 0.838406 0.864545 0.870658 0.836212 0.893474 0.849596 0.840875 0.826967 0.826801 0.818601 0.882726 0.930443 0.884865 0.896512 0.896721 0.894845 0.892266 0.795566 0.817154 0.817626 0.829377 0.842047 0.890714 0.905954 0.900983 0.896903 0.878207 0.839812 0.860638 0.860747 0.853803 0.84912 0.850955 0.90778 0.837451 0.871449 0.865584 0.908821 0.87941 0.896667 0.894919 0.894629 0.804669 0.893833 0.893832 0.893953 0.898671 0.890222 0.921259 0.872199 0.864919 0.820731 0.897594 0.897363 0.905176 0.894683 0.893974 0.905718 0.90732 0.857273 0.84666 0.854894 0.879026 0.910447 0.903464 0.903935 0.906854 0.910335 0.892303 0.896033 0.886058 0.930062 0.840523 0.898189 0.891652 0.901001 0.87644 0.899293 0.905215 0.867906 0.892976 0.875568 0.877317 0.860788 0.864998 0.834532 0.894435 0.897713 0.893961 0.899804 0.900591 0.904893 0.903728 0.851044 0.836218 0.82008 0.841148 0.900213 0.911847 0.916665 0.909963 0.906095 0.887124 0.857116 0.868602 0.871583 0.874749 0.868501 0.874271 0.900978 0.84837 0.868612 0.872004 0.901501 0.880483 0.894438 0.893833 0.893847 0.893865 0.893848 0.893988 0.894377 0.900998 0.914755 0.871715 0.864298 0.827301 0.894021 0.890764 0.903879 0.894205 0.894198 0.901135 0.900794 0.870701 0.856522 0.866893 0.885198 0.904765 0.900164 0.9003 0.902812 0.904756 0.888648 0.890222 0.886223 0.901882 0.89992 0.899861 0.902577 0.881008 0.897509 0.907447 0.871669 0.893587 0.876714 0.878436 0.863076 0.87414 0.838954 0.895668 0.896812 0.895087 0.895026 0.896746 0.900637 0.90002 0.896903 0.887753 0.860115 0.881117 0.903476 0.909592 0.913364 0.906811 0.900907 0.882677 0.862182 0.871149 0.876277 0.882701 0.877989 0.89024 0.90038 0.855776 0.871066 0.875865 0.895547 0.881378 0.89443 0.893848 0.893861 0.848616 0.893867 0.89385 0.893978 0.891188 0.896849 0.907736 0.872951 0.865204 0.833774 0.894047 0.886294 0.901953 0.893907 0.894218 0.897464 0.895291 0.878662 0.866421 0.875173 0.891186 0.897487 0.895686 0.895933 0.898454 0.899503 0.885746 0.886201 0.886405 0.901652 0.852056 0.896283 0.89962 0.894849 0.877547 0.896874 0.904216 0.871162 0.894197 0.876016 0.878453 0.863233 0.87991 0.848685 0.895405 0.893832 0.894902 0.890577 0.893604 0.895727 0.895667 0.900664 0.898617 0.887521 0.894742 0.897921 0.903813 0.908596 0.902697 0.895389 0.879543 0.867747 0.874643 0.88036 0.882742 0.880592 0.893688 0.898241 0.862284 0.875115 0.880198 0.890653 0.882609 0.894377 0.893851 0.893863 0.893861 0.893849 0.893959 0.888883 0.89124 0.841099 0.894021 0.8838 0.899811 0.893904 0.89417 0.895061 0.891307 0.885677 0.891548 0.891845 0.891839 0.894511 0.894873 0.883839 0.883507 0.886364 0.900579 0.893008 0.897356 0.894707 0.875703 0.896587 0.870783 0.877469 0.880064 0.863537 0.884113 0.858519 0.895034 0.893832 0.894667 0.887957 0.891642 0.891536 0.89204 0.896739 0.896314 0.892418 0.893587 0.892821 0.898257 0.903743 0.898684 0.891039 0.878026 0.872964 0.877803 0.884661 0.881316 0.881752 0.893971 0.895322 0.885038 0.886897 0.883944 0.8943 0.893848 0.893859 0.90103 0.875277 0.867091 0.874329 0.880264 0.892746 0.852829 0.900112 0.894099 0.868178 0.878953 0.893856 0.893846 0.893935 0.887332 0.886642 0.895061 0.87812 0.869497 0.848603 0.893989 0.882816 0.897615 0.893897 0.894107 0.893629 0.888774 0.890037 0.880168 0.883311 0.890419 0.887218 0.888482 0.888204 0.891072 0.890883 0.882777 0.881971 0.886111 0.900162 0.853675 0.889407 0.893668 0.894115 0.875125 0.895791 0.895623 0.871673 0.893942 0.879789 0.882887 0.865601 0.88695 0.86676 0.894652 0.893832 0.894392 0.886801 0.890504 0.888282 0.889291 0.89266 0.89265 0.889827 0.889966 0.888415 0.893369 0.899104 0.895035 0.887841 0.877919 0.877491 0.880692 0.888117 0.880599 0.88307 0.893957 0.893005 0.873261 0.882074 0.88752 0.884488 0.885319 0.894201 0.893845 0.893854 0.893849 0.893843 0.89391 0.886492 0.883339 0.855809 0.893955 0.882878 0.887544 0.881281 0.898123 0.887054 0.894085 0.894853 0.873861 0.882171 0.86914 0.888388 0.87328 0.894266 0.893832 0.89409 0.886647 0.889994 0.885962 0.887383 0.889205 0.889437 0.886465 0.884708 0.893925 0.891649 0.88321 0.886691 0.894092 0.893842 0.893848 0.890019 0.880994 0.872081 0.895502 0.893888 0.89404 0.892714 0.887357 0.890825 0.884116 0.885426 0.887149 0.883891 0.885407 0.884993 0.888188 0.882344 0.88577 0.854664 0.890696 0.874932 0.891526 0.893819 0.8857 0.886628 0.884725 0.889232 0.894882 0.891888 0.885548 0.878758 0.881262 0.883427 0.890967 0.880711 0.877337 0.884298 0.8875 0.893843 0.89384 0.893883 0.886256 0.881233 0.886007 0.883464 0.874536 0.862478 0.893919 0.883584 0.893538 0.893875 0.89397 0.892064 0.886722 0.889734 0.886678 0.886255 0.884292 0.881174 0.882749 0.882233 0.885805 0.884883 0.882349 0.881158 0.885404 0.896855 0.854919 0.885876 0.887911 0.893999 0.874897 0.894042 0.888338 0.876699 0.893725 0.883911 0.887943 0.873045 0.888494 0.878092 0.893896 0.893832 0.893781 0.887105 0.889938 0.884466 0.886197 0.886431 0.886842 0.883593 0.883893 0.881747 0.88585 0.891215 0.889305 0.884028 0.880118 0.884195 0.885904 0.892813 0.881428 0.88647 0.893892 0.891062 0.88029 0.885628 0.886495 0.882763 0.887976 0.893976 0.893839 0.893842 0.895633 0.885461 0.89393 0.893374 0.879462 0.881175 0.893832 0.887879 0.883646 0.893836 0.893836 0.893856 0.886473 0.880091 0.883006 0.885303 0.876621 0.868496 0.893882 0.884629 0.891798 0.89386 0.893899 0.891596 0.886573 0.888335 0.887949 0.885742 0.882046 0.878946 0.880604 0.879993 0.883886 0.882836 0.882631 0.881387 0.885062 0.855589 0.885359 0.875074 0.886022 0.893631 0.884882 0.889522 0.876485 0.887987 0.893558 0.893483 0.89017 0.885598 0.884306 0.884849 0.88133 0.881759 0.879437 0.883179 0.888163 0.887282 0.883201 0.881693 0.886301 0.887948 0.893484 0.882526 0.888115 0.893859 0.891007 0.882175 0.886197 0.885548 0.882877 0.889111 0.893858 0.893835 0.893836 0.89383 0.893832 0.893829 0.886993 0.87967 0.880902 0.886481 0.878229 0.873772 0.893845 0.885809 0.890368 0.893845 0.89383 0.891254 0.886697 0.887225 0.888034 0.884531 0.880314 0.877171 0.878952 0.878279 0.882431 0.881304 0.883059 0.881802 0.884776 0.894228 0.856835 0.885438 0.883219 0.893873 0.875454 0.892872 0.884338 0.881851 0.893525 0.885352 0.890438 0.879139 0.887509 0.882982 0.893253 0.893832 0.89321 0.888782 0.890563 0.883349 0.885444 0.882762 0.883399 0.879636 0.880175 0.877724 0.881151 0.885723 0.885772 0.88295 0.883267 0.887701 0.889465 0.893446 0.883807 0.889511 0.893828 0.891271 0.883175 0.886205 0.884963 0.883327 0.890061 0.893744 0.893832 0.893829 0.893823 0.893828 0.893803 0.88769 0.879754 0.879531 0.887077 0.879363 0.878252 0.893809 0.886984 0.889264 0.893829 0.893763 0.890985 0.886962 0.88648 0.887391 0.88323 0.878992 0.875807 0.877725 0.877024 0.881399 0.880217 0.883535 0.882279 0.884557 0.89292 0.858233 0.885597 0.881554 0.89382 0.875952 0.89259 0.883086 0.883896 0.893414 0.885562 0.890816 0.881019 0.887277 0.884154 0.892981 0.893832 0.892971 0.8897 0.89103 0.883422 0.885598 0.88171 0.882413 0.878436 0.879066 0.876524 0.879678 0.883848 0.884703 0.883112 0.884693 0.888548 0.890479 0.89316 0.885112 0.89062 0.893797 0.891683 0.883484 0.885841 0.884712 0.883936 0.890818 0.893637 0.893828 0.893823 0.893817 0.893825 0.893779 0.888449 0.880164 0.878717 0.887234 0.880083 0.881943 0.893776 0.888063 0.888442 0.893814 0.893701 0.890751 0.887279 0.88603 0.886523 0.882118 0.878005 0.874798 0.876847 0.87614 0.880706 0.879511 0.883992 0.882739 0.884406 0.891816 0.859557 0.885855 0.880314 0.893771 0.876488 0.892523 0.88215 0.885665 0.893302 0.885632 0.890879 0.882265 0.887256 0.885099 0.892747 0.893832 0.892771 0.890558 0.891503 0.883726 0.885936 0.88105 0.881798 0.877639 0.878344 0.87574 0.878663 0.882466 0.883994 0.883518 0.885892 0.888993 0.891089 0.892839 0.886338 0.891457 0.89377 0.892133 0.883305 0.885279 0.884688 0.884581 0.891393 0.893542 0.893825 0.893817 0.893812 0.893822 0.893757 0.889181 0.880739 0.878293 0.887113 0.880473 0.884887 0.893746 0.88899 0.887837 0.893801 0.893646 0.890536 0.887587 0.88579 0.885727 0.881258 0.87729 0.874083 0.876244 0.875541 0.880266 0.879104 0.884392 0.883135 0.884315 0.890911 0.860746 0.886157 0.879407 0.893729 0.877013 0.89261 0.881459 0.887174 0.8932 0.885621 0.890812 0.883027 0.88736 0.885949 0.892551 0.893832 0.892613 0.891306 0.891934 0.884142 0.886357 0.880681 0.88146 0.877153 0.877917 0.875273 0.878005 0.881491 0.883561 0.884028 0.886844 0.889168 0.891415 0.892552 0.887416 0.892062 0.893745 0.892556 0.882844 0.884673 0.884785 0.885185 0.891809 0.89346 0.893822 0.893812 0.893808 0.89382 0.893739 0.88982 0.881345 0.878127 0.886847 0.880631 0.887143 0.893721 0.889739 0.887398 0.893789 0.8936 0.890342 0.887852 0.885686 0.885104 0.88063 0.876792 0.873601 0.875849 0.875152 0.880002 0.878907 0.884714 0.883448 0.884274 0.890194 0.861755 0.886452 0.878757 0.893694 0.877486 0.892769 0.880957 0.888403 0.893116 0.885572 0.890716 0.88344 0.887515 0.886702 0.892394 0.893832 0.892494 0.891916 0.892294 0.884578 0.886781 0.88051 0.88131 0.876887 0.877698 0.875028 0.877608 0.880835 0.883323 0.884536 0.88756 0.889183 0.891557 0.892315 0.888304 0.892481 0.893724 0.892913 0.882286 0.884135 0.884927 0.885702 0.892095 0.893394 0.89382 0.893808 0.893804 0.893818 0.893726 0.890325 0.881879 0.878107 0.88654 0.880652 0.888772 0.893702 0.8903 0.887093 0.89378 0.893564 0.890181 0.888058 0.88566 0.884663 0.880198 0.876464 0.873297 0.875608 0.874915 0.879855 0.878836 0.884953 0.883674 0.884264 0.889664 0.862542 0.886699 0.878312 0.893667 0.877871 0.892936 0.880606 0.889335 0.893057 0.885513 0.890627 0.883632 0.887667 0.887313 0.892276 0.893832 0.892412 0.892375 0.89257 0.884964 0.887148 0.880458 0.88127 0.876762 0.877608 0.874923 0.877388 0.880418 0.883211 0.884971 0.888065 0.889122 0.891592 0.892135 0.888977 0.892758 0.893708 0.893183 0.881764 0.88372 0.885063 0.886106 0.89228 0.893343 0.893818 0.893804 0.893802 0.893816 0.893716 0.890671 0.88227 0.878147 0.886279 0.880618 0.889826 0.893688 0.890673 0.8869 0.893773 0.893539 0.890065 0.888196 0.885667 0.884386 0.87993 0.876266 0.873122 0.875474 0.874784 0.87978 0.878825 0.885109 0.883818 0.884269 0.889317 0.86308 0.886874 0.878036 0.893648 0.878141 0.893068 0.880382 0.889959 0.893022 0.885465 0.890561 0.883705 0.887785 0.887743 0.892198 0.893832 0.89236 0.89268 0.892755 0.885248 0.887415 0.880459 0.881279 0.876716 0.877584 0.874891 0.877279 0.880177 0.883168 0.885285 0.888384 0.889047 0.891582 0.892014 0.889425 0.892922 0.893697 0.893362 0.881368 0.883445 0.885166 0.886382 0.892388 0.893309 0.893817 0.893802 0.8938 0.893816 0.893711 0.890847 0.882476 0.878183 0.886132 0.880587 0.890343 0.893681 0.890859 0.886807 0.89377 0.893527 0.890004 0.888265 0.885678 0.884253 0.879802 0.876174 0.873043 0.875415 0.874727 0.87975 0.878831 0.885185 0.883888 0.884275 0.889146 0.863353 0.886963 0.877904 0.893638 0.87828 0.89314 0.880273 0.890271 0.893005 0.885438 0.890526 0.883726 0.887848 0.887965 0.892158 0.893832 0.892335 0.892832 0.892847 0.885398 0.887555 0.880471 0.881294 0.876704 0.877584 0.874886 0.877237 0.880069 0.883156 0.885449 0.888538 0.888998 0.891566 0.891954 0.889649 0.892999 0.893692 0.893449 0.881156 0.883308 0.88522 0.886522 0.892438 0.893292 0.893816 0.893801 
SCALARS Axial_Stress float 1
LOOKUP_TABLE default
-181246000000.0 -85682400000.0 -262310000000.0 -99131500000.0 -135523000000.0 -67449900000.0 -67327300000.0 -84836500000.0 -71920300000.0 -71721000000.0 -80860000000.0 -76475300000.0 -82609600000.0 -105287000000.0 -129175000000.0 -143840000000.0 -220780000000.0 -345808000000.0 -198141000000.0 -115291000000.0 -101877000000.0 -83717400000.0 -81349300000.0 -197516000000.0 -176351000000.0 -161441000000.0 -113282000000.0 -147745000000.0 -165195000000.0 -150909000000.0 -326873000000.0 -338909000000.0 -181033000000.0 -296841000000.0 -282850000000.0 -114818000000.0 -201588000000.0 -257704000000.0 -129570000000.0 -266600000000.0 -167503000000.0 -236405000000.0 -151639000000.0 -245792000000.0 -232514000000.0 -338971000000.0 -297175000000.0 -222738000000.0 -114683000000.0 -279235000000.0 -398587000000.0 -271679000000.0 -230602000000.0 -457481000000.0 -345023000000.0 -477951000000.0 -356364000000.0 -454875000000.0 -349838000000.0 -466141000000.0 -328911000000.0 -313325000000.0 -112878000000.0 -395467000000.0 -320049000000.0 -407244000000.0 -305017000000.0 -428849000000.0 -575045000000.0 -498156000000.0 -383057000000.0 -460071000000.0 -562969000000.0 -233563000000.0 -400175000000.0 -382901000000.0 -312804000000.0 -590836000000.0 -594757000000.0 -595334000000.0 -604579000000.0 -549698000000.0 -283124000000.0 -466707000000.0 -498035000000.0 -484318000000.0 -512690000000.0 -735041000000.0 -654936000000.0 -537730000000.0 -409252000000.0 -437668000000.0 -818454000000.0 -732594000000.0 -714098000000.0 -706835000000.0 -753511000000.0 -402175000000.0 -531617000000.0 -631879000000.0 -587943000000.0 -618869000000.0 -482529000000.0 -741376000000.0 -614259000000.0 -680030000000.0 -1.13844e+12 -904622000000.0 -986644000000.0 -840062000000.0 -938482000000.0 -822615000000.0 -930641000000.0 -838389000000.0 -975730000000.0 -944940000000.0 -1.08504e+12 -378978000000.0 -523786000000.0 -939460000000.0 -764171000000.0 -863172000000.0 -729191000000.0 -823746000000.0 -848095000000.0 -722955000000.0 -577939000000.0 -832776000000.0 -916949000000.0 -881448000000.0 -887822000000.0 -1.9195e+12 -1.45593e+12 -1.39801e+12 -1.13335e+12 -1.16072e+12 -1.06466e+12 -1.03435e+12 -1.04747e+12 -1.13446e+12 -1.11808e+12 -1.13866e+12 -1.00652e+12 -957879000000.0 -996473000000.0 -1.00999e+12 -917535000000.0 -2.27257e+12 -1.70535e+12 -1.36345e+12 -1.20709e+12 -1.14462e+12 -1.13269e+12 -1.17116e+12 -1.23124e+12 -1.48642e+12 -1.16722e+12 -1.08627e+12 -1.06256e+12 -834088000000.0 -685027000000.0 -995867000000.0 -2.18076e+12 -2.00506e+12 -1.59378e+12 -1.36707e+12 -1.26432e+12 -1.33052e+12 -1.22816e+12 -1.31611e+12 -1.23656e+12 -1.33904e+12 -1.28495e+12 -1.40454e+12 -1.39056e+12 -1.46236e+12 -1.3845e+12 -1.37584e+12 -1.22179e+12 -1.29343e+12 -1.17468e+12 -1.26799e+12 -1.1821e+12 -950504000000.0 -818039000000.0 -1.19141e+12 -1.73143e+12 -1.93398e+12 -2.05008e+12 -2.12163e+12 -1.98036e+12 -1.8196e+12 -1.72694e+12 -1.54522e+12 -1.53729e+12 -1.39513e+12 -1.43942e+12 -1.40394e+12 -1.40613e+12 -1.44396e+12 -1.48995e+12 -1.48589e+12 -1.41846e+12 -1.37367e+12 -1.36461e+12 -1.65386e+12 -1.93632e+12 -2.03955e+12 -1.88097e+12 -1.68513e+12 -1.55524e+12 -1.49629e+12 -1.48222e+12 -1.49738e+12 -1.53379e+12 -1.56017e+12 -1.52735e+12 -1.48448e+12 -1.45688e+12 -1.06197e+12 -1.01568e+12 -1.86026e+12 -2.02311e+12 -1.98706e+12 -1.82405e+12 -1.67617e+12 -1.59157e+12 -1.64279e+12 -1.56221e+12 -1.63365e+12 -1.56233e+12 -1.64121e+12 -1.58438e+12 -1.66661e+12 -1.61324e+12 -1.68839e+12 -1.61669e+12 -1.68142e+12 -1.58872e+12 -1.66145e+12 -1.5595e+12 -1.63242e+12 -1.53586e+12 -1.16103e+12 -1.15981e+12 -1.86066e+12 -1.98843e+12 -1.99494e+12 -2.06869e+12 -2.04298e+12 -2.03137e+12 -1.94079e+12 -1.90963e+12 -1.7965e+12 -1.79031e+12 -1.68973e+12 -1.72217e+12 -1.70445e+12 -1.70456e+12 -1.71997e+12 -1.74757e+12 -1.76183e+12 -1.7564e+12 -1.73536e+12 -1.6923e+12 -1.99221e+12 -2.09036e+12 -2.10065e+12 -2.01245e+12 -1.8914e+12 -1.80092e+12 -1.77226e+12 -1.77147e+12 -1.77514e+12 -1.80129e+12 -1.83006e+12 -1.9166e+12 -1.84183e+12 -1.92888e+12 -1.83583e+12 -1.90853e+12 -1.79729e+12 -1.83044e+12 -1.23783e+12 -1.27022e+12 -2.10425e+12 -2.15878e+12 -2.10739e+12 -1.99283e+12 -1.88354e+12 -1.83262e+12 -1.88931e+12 -1.83265e+12 -1.89778e+12 -1.83451e+12 -1.89837e+12 -1.85035e+12 -1.9336e+12 -1.88675e+12 -1.97861e+12 -2.01204e+12 -2.01619e+12 -1.95502e+12 -1.27619e+12 -1.34133e+12 -2.08101e+12 -2.21366e+12 -2.20538e+12 -2.28627e+12 -2.1995e+12 -2.21739e+12 -2.09843e+12 -2.07122e+12 -1.97178e+12 -1.9515e+12 -1.88776e+12 -1.92652e+12 -1.94898e+12 -1.94859e+12 -1.97105e+12 -2.0255e+12 -2.08099e+12 -2.11619e+12 -2.0872e+12 -1.94306e+12 -2.11534e+12 -2.34322e+12 -2.35792e+12 -2.19456e+12 -2.02906e+12 -1.94311e+12 -2.00507e+12 -2.00936e+12 -2.00511e+12 -2.05837e+12 -2.15858e+12 -2.12935e+12 -2.25216e+12 -2.20156e+12 -2.34501e+12 -2.21923e+12 -2.29448e+12 -2.10792e+12 -2.00429e+12 -1.24234e+12 -1.34121e+12 -1.90131e+12 -2.29819e+12 -2.70483e+12 -2.51911e+12 -2.35867e+12 -2.13733e+12 -1.9782e+12 -2.0134e+12 -2.15274e+12 -2.05119e+12 -2.09469e+12 -2.03399e+12 -2.08491e+12 -2.07766e+12 -2.17591e+12 -2.27367e+12 -2.4087e+12 -2.50974e+12 -2.2803e+12 -1.03488e+12 -1.12036e+12 -2.93042e+12 -2.81686e+12 -2.56598e+12 -2.52245e+12 -2.30138e+12 -2.20892e+12 -2.04323e+12 -1.88772e+12 -1.93233e+12 -2.12327e+12 -2.12994e+12 -2.03773e+12 -2.19103e+12 -2.2781e+12 -2.42337e+12 -2.6035e+12 -2.84601e+12 -2.70294e+12 -2.94828e+12 -1.97886e+12 -560666000000.0 -3.81819e+12 -3.49856e+12 -3.52715e+12 -3.1133e+12 -2.8092e+12 -2.40477e+12 -2.09168e+12 -1.52377e+12 -2.24109e+12 -1.97594e+12 -1.94561e+12 -2.16316e+12 -2.30039e+12 -2.43199e+12 -2.41742e+12 -2.54949e+12 -2.60936e+12 -2.86514e+12 -3.14613e+12 -3.34523e+12 -3.77851e+12 -3.85173e+12 -3.86122e+12 -3.95964e+12 -3.54154e+12 -3.14421e+12 -3.07993e+12 -2.70226e+12 -2.2616e+12 -1.94372e+12 -1.19031e+12 -2.2904e+12 -2.39806e+12 -2.14922e+12 -2.33187e+12 -2.54733e+12 -2.48925e+12 -2.77182e+12 -3.19111e+12 -3.58727e+12 -3.51099e+12 -4.19796e+12 -4.38198e+12 -4.0812e+12 -3.92405e+12 -6.27523e+12 -5.56803e+12 -4.20402e+12 -3.84684e+12 -3.59724e+12 -3.63201e+12 -2.82432e+12 -2.46149e+12 -2.22113e+12 -2.12034e+12 -2.04733e+12 -1.80023e+12 -2.14941e+12 -2.50452e+12 -3.51613e+12 -2.84563e+12 -2.70238e+12 -2.49958e+12 -2.41405e+12 -2.56534e+12 -2.80332e+12 -3.10645e+12 -3.59938e+12 -4.03791e+12 -4.10993e+12 -6.24561e+12 -6.26843e+12 -3.9014e+12 -3.74834e+12 -3.86453e+12 -6.22106e+12 -6.41608e+12 -3.44687e+12 -4.06441e+12 -4.16882e+12 -3.92695e+12 -3.99449e+12 -3.65404e+12 -2.07435e+12 -2.16734e+12 -2.11635e+12 -1.96366e+12 -1.85326e+12 -681713000000.0 -1.52251e+12 -4.25057e+12 -3.11038e+12 -2.49175e+12 -2.1175e+12 -3.65006e+12 -3.58304e+12 -3.86118e+12 -3.94332e+12 -4.44086e+12 -5.58137e+12 -6.14963e+12 -3.73854e+12 -3.5568e+12 -3.60368e+12 -6.09118e+12 -5.96903e+12 -6.24601e+12 -5.62226e+12 -4.19459e+12 -4.32719e+12 -4.02001e+12 -4.26468e+12 -1.97052e+12 -2.22189e+12 -2.05301e+12 -1.83656e+12 -3.13291e+12 -3.55139e+12 -3.10149e+12 -2.79911e+12 -2.05728e+12 -4.27362e+12 -3.83774e+12 -4.13156e+12 -4.28334e+12 -4.67592e+12 -4.56166e+12 -5.2808e+12 -5.8135e+12 -5.91158e+12 -6.09927e+12 -3.24463e+12 -3.45202e+12 -5.84247e+12 -5.99179e+12 -5.85392e+12 -5.62717e+12 -3.9961e+12 -4.54411e+12 -4.3812e+12 -4.27839e+12 -4.16142e+12 -4.2523e+12 -4.32329e+12 -4.05874e+12 -2.0743e+12 -2.26967e+12 -2.3115e+12 -2.43109e+12 -2.22309e+12 -2.01231e+12 -3.01037e+12 -2.80259e+12 -2.20488e+12 -4.19078e+12 -4.39901e+12 -4.2622e+12 -4.05175e+12 -4.01233e+12 -4.47401e+12 -4.90068e+12 -5.56418e+12 -6.02268e+12 -6.00543e+12 -5.68425e+12 -2.83867e+12 -3.45342e+12 -3.50173e+12 -5.51642e+12 -5.78793e+12 -5.63486e+12 -5.59576e+12 -5.31566e+12 -5.04277e+12 -4.25986e+12 -4.4882e+12 -5.16796e+12 -4.89234e+12 -4.69373e+12 -4.14717e+12 -4.1088e+12 -3.5865e+12 -2.65324e+12 -2.51671e+12 -2.24899e+12 -2.29773e+12 -2.67668e+12 -2.76725e+12 -2.93238e+12 -3.50417e+12 -4.19496e+12 -4.08463e+12 -4.01359e+12 -4.11934e+12 -4.26847e+12 -4.84734e+12 -5.14017e+12 -5.19159e+12 -5.42232e+12 -5.7272e+12 -5.85466e+12 -6.17958e+12 -4.03e+12 -3.14118e+12 -3.37033e+12 -5.56746e+12 -5.66245e+12 -5.69901e+12 -5.37302e+12 -4.92917e+12 -3.72435e+12 -5.35166e+12 -4.23471e+12 -4.03728e+12 -3.79316e+12 -3.43083e+12 -3.10503e+12 -3.06098e+12 -2.81729e+12 -2.97318e+12 -2.4402e+12 -2.45512e+12 -3.00327e+12 -3.23996e+12 -3.48523e+12 -3.86e+12 -4.08673e+12 -4.04874e+12 -4.33086e+12 -4.60386e+12 -5.01026e+12 -5.50451e+12 -5.16206e+12 -5.53431e+12 -5.99441e+12 -6.43832e+12 -5.11656e+12 -3.2692e+12 -3.29327e+12 -3.32949e+12 -5.57039e+12 -5.51819e+12 -5.23221e+12 -4.97551e+12 -5.70754e+12 -5.83752e+12 -5.51917e+12 -4.91651e+12 -5.20163e+12 -4.88321e+12 -4.63902e+12 -4.64865e+12 -3.29348e+12 -3.68736e+12 -4.45011e+12 -4.14514e+12 -4.02705e+12 -3.817e+12 -3.82875e+12 -3.57062e+12 -3.2217e+12 -3.10448e+12 -3.17384e+12 -1.97433e+12 -2.67319e+12 -3.25345e+12 -3.66611e+12 -3.90485e+12 -3.88435e+12 -4.00866e+12 -4.10355e+12 -4.65305e+12 -5.11334e+12 -5.31637e+12 -5.08575e+12 -5.53297e+12 -5.38718e+12 -5.40085e+12 -4.91859e+12 -5.33703e+12 -5.40309e+12 -3.27786e+12 -3.40383e+12 -3.34261e+12 -5.64994e+12 -5.36946e+12 -4.32276e+12 -6.10892e+12 -5.23469e+12 -4.73791e+12 -5.03288e+12 -4.19059e+12 -3.55987e+12 -3.8197e+12 -3.64121e+12 -3.37287e+12 -3.19643e+12 -3.25412e+12 -3.63403e+12 -3.95909e+12 -4.39006e+12 -2.04492e+12 -2.31284e+12 -2.97041e+12 -3.45519e+12 -3.71658e+12 -3.8499e+12 -4.00121e+12 -4.06161e+12 -4.21148e+12 -5.15191e+12 -6.1847e+12 -3.25454e+12 -4.61209e+12 -5.09381e+12 -5.24459e+12 -5.06925e+12 -5.45742e+12 -5.53858e+12 -5.60189e+12 -3.25032e+12 -3.48038e+12 -5.75275e+12 -5.58139e+12 -5.46868e+12 -5.31708e+12 -5.16718e+12 -5.24369e+12 -5.34665e+12 -5.54594e+12 -4.8443e+12 -4.04669e+12 -5.14419e+12 -3.85666e+12 -5.21141e+12 -3.6906e+12 -3.40868e+12 -3.39573e+12 -3.61414e+12 -3.54928e+12 -3.4771e+12 -3.33507e+12 -3.26734e+12 -3.27365e+12 -3.26116e+12 -3.45921e+12 -4.04001e+12 -4.34753e+12 -2.83668e+12 -3.27758e+12 -3.48957e+12 -3.58678e+12 -3.6926e+12 -3.8389e+12 -4.18769e+12 -4.3001e+12 -4.08042e+12 -4.38837e+12 -4.68687e+12 -4.80829e+12 -5.14989e+12 -4.97745e+12 -5.35403e+12 -5.39965e+12 -5.48975e+12 -5.52936e+12 -5.64422e+12 -3.24767e+12 -3.27754e+12 -3.52225e+12 -5.88279e+12 -5.8416e+12 -5.68937e+12 -5.44787e+12 -5.43635e+12 -5.44819e+12 -5.4884e+12 -5.16137e+12 -3.57261e+12 -5.4452e+12 -4.58082e+12 -2.73475e+12 -2.14514e+12 -2.84212e+12 -3.64435e+12 -3.58325e+12 -3.37866e+12 -3.28904e+12 -3.36709e+12 -3.69942e+12 -4.17341e+12 -3.87402e+12 -3.34363e+12 -3.59742e+12 -3.59483e+12 -3.51069e+12 -3.62694e+12 -3.87016e+12 -3.97668e+12 -4.27697e+12 -4.01492e+12 -3.86372e+12 -4.36162e+12 -4.20941e+12 -4.92099e+12 -4.61131e+12 -5.06016e+12 -5.29111e+12 -5.4305e+12 -5.5751e+12 -5.70826e+12 -3.32881e+12 -3.47292e+12 -3.5188e+12 -5.87037e+12 -5.72845e+12 -5.5935e+12 -5.55412e+12 -5.49946e+12 -5.6878e+12 -5.62277e+12 -5.68375e+12 -5.35119e+12 -4.8154e+12 -4.71584e+12 -4.64999e+12 -3.88967e+12 -2.83837e+12 -5.03224e+12 -4.07965e+12 -3.39854e+12 -3.28774e+12 -3.31638e+12 -3.50474e+12 -3.60986e+12 -3.85291e+12 -3.83345e+12 -4.00082e+12 -3.72728e+12 -3.56444e+12 -3.63673e+12 -3.58461e+12 -3.54505e+12 -3.34386e+12 -3.53191e+12 -3.43977e+12 -4.07744e+12 -4.51673e+12 -4.14405e+12 -3.21894e+12 -4.41386e+12 -4.73449e+12 -4.8803e+12 -5.44554e+12 -5.37221e+12 -5.44274e+12 -5.51998e+12 -5.5802e+12 -5.65417e+12 -5.78443e+12 -5.80257e+12 -3.36389e+12 -3.38843e+12 -5.8408e+12 -5.73345e+12 -5.56198e+12 -5.4517e+12 -5.56682e+12 -6.1132e+12 -6.08971e+12 -5.6581e+12 -5.18233e+12 -4.56915e+12 -4.22254e+12 -3.87317e+12 -3.8195e+12 -3.90493e+12 -3.51559e+12 -3.40609e+12 -3.20844e+12 -3.26139e+12 -3.21819e+12 -3.27564e+12 -3.29152e+12 -3.37991e+12 -3.43897e+12 -3.63154e+12 -3.7029e+12 -3.62681e+12 -3.79206e+12 -3.7336e+12 -3.65404e+12 -3.36492e+12 -3.02589e+12 -3.55844e+12 -3.9979e+12 -4.71686e+12 -5.42627e+12 -4.86777e+12 -6.04041e+12 -3.3277e+12 -5.21402e+12 -5.47422e+12 -5.63585e+12 -5.57368e+12 -5.69756e+12 -5.78476e+12 -3.34097e+12 -3.29058e+12 -3.25624e+12 -5.71012e+12 -5.78422e+12 -5.66963e+12 -5.70846e+12 -5.57862e+12 -5.41914e+12 -5.17972e+12 -5.41985e+12 -5.50971e+12 -6.59372e+12 -5.79381e+12 -5.27417e+12 -4.84992e+12 -4.7577e+12 -4.46358e+12 -3.86895e+12 -3.59876e+12 -3.84774e+12 -3.16309e+12 -3.13458e+12 -3.21528e+12 -3.31051e+12 -3.4566e+12 -3.5776e+12 -3.57975e+12 -3.71146e+12 -4.04069e+12 -3.39251e+12 -2.98757e+12 -2.56252e+12 -3.21558e+12 -4.26383e+12 -3.6983e+12 -4.98658e+12 -3.77316e+12 -5.12651e+12 -5.02625e+12 -4.87772e+12 -5.83483e+12 -5.88283e+12 -5.78252e+12 -5.55315e+12 -5.65928e+12 -5.51596e+12 -5.5828e+12 -5.66154e+12 -5.65062e+12 -5.71111e+12 -3.20785e+12 -3.04338e+12 -3.12699e+12 -5.56013e+12 -5.60097e+12 -5.52484e+12 -5.40178e+12 -5.38517e+12 -5.30871e+12 -5.0391e+12 -5.99714e+12 -4.57548e+12 -5.54044e+12 -4.99792e+12 -4.73099e+12 -4.42646e+12 -4.13017e+12 -3.388e+12 -3.05358e+12 -2.7159e+12 -3.0839e+12 -2.79676e+12 -3.02378e+12 -3.13418e+12 -3.10937e+12 -3.20543e+12 -3.19481e+12 -3.31462e+12 -3.29298e+12 -3.42973e+12 -3.37695e+12 -3.49551e+12 -3.43525e+12 -3.5482e+12 -3.6056e+12 -3.95594e+12 -4.52814e+12 -3.8046e+12 -2.81145e+12 -1.85887e+12 -1.82839e+12 -2.90119e+12 -4.06035e+12 -4.18763e+12 -4.3022e+12 -4.33594e+12 -4.67179e+12 -4.98066e+12 -6.67067e+12 -5.20386e+12 -5.33855e+12 -5.38283e+12 -5.52548e+12 -5.53044e+12 -5.61801e+12 -5.52315e+12 -3.04352e+12 -3.01091e+12 -5.39167e+12 -5.38312e+12 -5.54105e+12 -5.41992e+12 -5.49787e+12 -5.3333e+12 -5.1013e+12 -4.97871e+12 -5.12235e+12 -4.50119e+12 -5.4988e+12 -6.16762e+12 -5.53263e+12 -4.55741e+12 -4.30714e+12 -4.03798e+12 -3.74944e+12 -1.59486e+12 -1.99953e+12 -2.965e+12 -3.05158e+12 -3.00973e+12 -3.08931e+12 -3.17126e+12 -3.25217e+12 -3.32118e+12 -3.42296e+12 -3.73778e+12 -2.06985e+12 -3.80918e+12 -4.16719e+12 -3.42781e+12 -3.46864e+12 -3.47401e+12 -3.53988e+12 -4.07978e+12 -4.21405e+12 -4.98131e+12 -5.54708e+12 -5.66727e+12 -6.20518e+12 -5.40661e+12 -5.16021e+12 -5.50454e+12 -5.28147e+12 -5.51002e+12 -5.3747e+12 -5.4214e+12 -5.28962e+12 -2.85922e+12 -2.69027e+12 -3.01571e+12 -5.2279e+12 -5.1917e+12 -5.43879e+12 -5.27536e+12 -5.34853e+12 -5.10575e+12 -5.25552e+12 -4.73473e+12 -5.07021e+12 -4.0959e+12 -6.09014e+12 -5.4348e+12 -3.95887e+12 -4.97555e+12 -4.77113e+12 -4.17995e+12 -3.93381e+12 -3.64846e+12 -3.24702e+12 -2.42086e+12 -3.29413e+12 -2.82173e+12 -2.87908e+12 -2.99402e+12 -3.06114e+12 -3.13445e+12 -3.20343e+12 -3.28078e+12 -3.43361e+12 -3.13489e+12 -2.95995e+12 -2.39412e+12 -2.47549e+12 -2.54586e+12 -3.40409e+12 -3.36114e+12 -2.73606e+12 -3.00781e+12 -3.65592e+12 -4.51699e+12 -4.78922e+12 -4.90758e+12 -4.85986e+12 -3.6856e+12 -5.43935e+12 -5.29091e+12 -5.45183e+12 -5.20846e+12 -5.3727e+12 -5.18917e+12 -4.99683e+12 -2.46792e+12 -3.0166e+12 -3.01578e+12 -4.89598e+12 -5.07365e+12 -5.02421e+12 -5.03896e+12 -5.23945e+12 -5.36256e+12 -5.34251e+12 -5.1099e+12 -4.79112e+12 -4.89606e+12 -5.23792e+12 -4.56979e+12 -4.39036e+12 -4.57373e+12 -4.40521e+12 -3.858e+12 -3.65428e+12 -3.45074e+12 -3.2637e+12 -3.45527e+12 -3.83237e+12 -2.30587e+12 -2.66191e+12 -2.80507e+12 -2.89893e+12 -2.85729e+12 -2.95758e+12 -2.92311e+12 -3.02559e+12 -2.981e+12 -3.08886e+12 -3.03995e+12 -3.15611e+12 -3.10573e+12 -3.24416e+12 -3.08949e+12 -2.92463e+12 -3.46791e+12 -4.07275e+12 -3.09026e+12 -3.22285e+12 -3.4825e+12 -3.69702e+12 -4.96993e+12 -5.05336e+12 -4.0747e+12 -4.37762e+12 -4.63086e+12 -4.62905e+12 -4.36694e+12 -4.70575e+12 -5.08702e+12 -4.21865e+12 -5.23659e+12 -5.02286e+12 -5.2557e+12 -5.22384e+12 -5.38811e+12 -4.9322e+12 -4.58174e+12 -1.96684e+12 -2.87374e+12 -4.61392e+12 -4.87739e+12 -4.94004e+12 -5.15713e+12 -5.39069e+12 -4.93436e+12 -4.81378e+12 -4.9924e+12 -5.66013e+12 -3.65124e+12 -5.40291e+12 -2.82656e+12 -4.23163e+12 -4.35656e+12 -4.35784e+12 -4.19153e+12 -4.20612e+12 -4.05291e+12 -3.41045e+12 -3.21531e+12 -3.02194e+12 -2.28292e+12 -1.58636e+12 -2.77606e+12 -2.7501e+12 -2.82809e+12 -2.87931e+12 -2.93176e+12 -2.98638e+12 -3.00917e+12 -2.9517e+12 -2.91065e+12 -3.22129e+12 -3.3682e+12 -3.11181e+12 -3.20723e+12 -3.50842e+12 -4.42039e+12 -4.17183e+12 -4.19931e+12 -4.33334e+12 -4.39782e+12 -4.31758e+12 -4.50076e+12 -4.30633e+12 -3.43231e+12 -5.38824e+12 -3.86849e+12 -6.21986e+12 -5.30577e+12 -4.99765e+12 -5.26298e+12 -5.15597e+12 -5.09915e+12 -4.62592e+12 -3.55233e+12 -4.60565e+12 -3.20643e+12 -3.20421e+12 -2.70896e+12 -4.34162e+12 -4.58116e+12 -4.57946e+12 -4.61435e+12 -5.16482e+12 -5.59706e+12 -6.33072e+12 -4.11081e+12 -5.97942e+12 -3.49866e+12 -4.62471e+12 -4.07807e+12 -4.20606e+12 -3.80772e+12 -4.06329e+12 -4.15694e+12 -4.07723e+12 -3.9583e+12 -3.89746e+12 -3.75741e+12 -3.58933e+12 -3.28517e+12 -3.23838e+12 -3.24466e+12 -3.81896e+12 -3.99203e+12 -2.93784e+12 -2.63065e+12 -2.74177e+12 -2.78326e+12 -2.83072e+12 -2.87772e+12 -2.81467e+12 -2.91294e+12 -2.83489e+12 -2.91297e+12 -2.84608e+12 -2.87006e+12 -2.74213e+12 -2.98117e+12 -2.57121e+12 -2.68654e+12 -4.16765e+12 -4.65055e+12 -4.54609e+12 -4.24802e+12 -4.13373e+12 -4.14774e+12 -4.18378e+12 -4.19708e+12 -4.30663e+12 -4.2979e+12 -4.06534e+12 -4.56347e+12 -4.65289e+12 -5.21074e+12 -3.57347e+12 -6.29025e+12 -5.60703e+12 -4.89627e+12 -4.63377e+12 -5.18564e+12 -4.93195e+12 -3.00493e+12 -2.50762e+12 -2.63049e+12 -4.14219e+12 -4.2715e+12 -4.04321e+12 -4.03667e+12 -4.8525e+12 -5.19872e+12 -5.59704e+12 -5.06698e+12 -5.0562e+12 -4.77431e+12 -4.21546e+12 -4.43519e+12 -3.97665e+12 -4.07757e+12 -3.83585e+12 -3.89847e+12 -3.89491e+12 -3.81672e+12 -3.71937e+12 -3.63882e+12 -3.52238e+12 -3.39668e+12 -3.09212e+12 -3.04295e+12 -2.13231e+12 -1.77768e+12 -2.44436e+12 -2.66386e+12 -2.67409e+12 -2.60589e+12 -2.69276e+12 -2.6483e+12 -2.73582e+12 -2.68063e+12 -2.77641e+12 -2.71717e+12 -2.74814e+12 -2.76326e+12 -2.78879e+12 -2.23204e+12 -1.3935e+12 -1.56631e+12 -3.04241e+12 -3.5523e+12 -3.93132e+12 -4.1375e+12 -4.12686e+12 -4.03186e+12 -3.99612e+12 -3.99548e+12 -4.01117e+12 -4.07906e+12 -4.10394e+12 -4.05918e+12 -4.86656e+12 -4.56899e+12 -4.96845e+12 -5.5534e+12 -5.18747e+12 -4.64702e+12 -4.67596e+12 -4.41209e+12 -4.58378e+12 -2.83249e+12 -2.3595e+12 -3.82723e+12 -4.36442e+12 -4.92205e+12 -2.60284e+12 -4.31244e+12 -4.63546e+12 -4.8813e+12 -3.578e+12 -3.49826e+12 -3.42298e+12 -3.33323e+12 -3.24271e+12 -3.16945e+12 -3.82791e+12 -2.67429e+12 -2.51141e+12 -2.57423e+12 -2.58896e+12 -2.62339e+12 -2.65492e+12 -2.68437e+12 -2.68412e+12 -2.54482e+12 -2.66915e+12 -2.73173e+12 -2.12924e+12 -2.82517e+12 -3.36022e+12 -3.63406e+12 -3.7946e+12 -3.8366e+12 -3.82201e+12 -3.8139e+12 -4.27535e+12 -4.30905e+12 -4.71915e+12 -4.69968e+12 -4.76452e+12 -4.93291e+12 -4.72481e+12 -4.50116e+12 -4.1536e+12 -4.01827e+12 -4.28041e+12 -4.13042e+12 -2.67726e+12 -2.57143e+12 -2.22629e+12 -3.51537e+12 -3.57386e+12 -3.24125e+12 -3.75368e+12 -4.17858e+12 -4.6517e+12 -3.51738e+12 -4.01254e+12 -4.28035e+12 -4.77325e+12 -4.88828e+12 -4.43895e+12 -4.38606e+12 -4.07452e+12 -4.02379e+12 -3.85441e+12 -3.82209e+12 -3.70559e+12 -3.68774e+12 -3.64966e+12 -3.30211e+12 -3.2441e+12 -3.18433e+12 -3.1376e+12 -3.11843e+12 -3.18607e+12 -3.24772e+12 -4.12875e+12 -1.86169e+12 -2.36537e+12 -2.52295e+12 -2.50164e+12 -2.44267e+12 -2.53234e+12 -2.47572e+12 -2.56374e+12 -2.5015e+12 -2.59161e+12 -2.52641e+12 -2.62347e+12 -2.55991e+12 -2.34656e+12 -3.28675e+12 -3.33413e+12 -3.31929e+12 -3.18121e+12 -3.1793e+12 -3.33024e+12 -3.46223e+12 -3.56296e+12 -3.82177e+12 -3.86253e+12 -3.89511e+12 -3.90595e+12 -4.02054e+12 -4.08589e+12 -4.26866e+12 -4.39656e+12 -4.36487e+12 -4.72364e+12 -4.39933e+12 -4.42453e+12 -4.25049e+12 -4.15262e+12 -3.48224e+12 -3.62941e+12 -3.80007e+12 -4.1176e+12 -2.44861e+12 -2.01308e+12 -2.12812e+12 -3.60474e+12 -3.13178e+12 -2.57171e+12 -3.50693e+12 -2.26062e+12 -3.40314e+12 -3.75167e+12 -4.32392e+12 -4.40097e+12 -4.28546e+12 -4.12226e+12 -4.01109e+12 -3.81608e+12 -3.75284e+12 -3.64319e+12 -3.58827e+12 -3.50989e+12 -3.46932e+12 -3.42276e+12 -3.36338e+12 -3.08863e+12 -3.05335e+12 -3.02882e+12 -3.0259e+12 -2.98963e+12 -2.97923e+12 -1.81103e+12 -2.72583e+12 -2.51921e+12 -2.33097e+12 -2.41844e+12 -2.35278e+12 -2.38923e+12 -2.41554e+12 -2.4356e+12 -2.45712e+12 -2.5324e+12 -2.54329e+12 -1.6695e+12 -1.69376e+12 -2.43755e+12 -2.95427e+12 -3.04553e+12 -3.11558e+12 -3.20873e+12 -3.60871e+12 -3.62005e+12 -3.63036e+12 -3.65698e+12 -3.68657e+12 -3.71585e+12 -3.78503e+12 -3.85178e+12 -3.96548e+12 -4.05409e+12 -4.11831e+12 -4.28285e+12 -4.39163e+12 -4.01695e+12 -3.9462e+12 -3.73353e+12 -2.1645e+12 -2.99058e+12 -3.81733e+12 -4.04667e+12 -3.95411e+12 -3.96482e+12 -2.32839e+12 -1.9297e+12 -3.56434e+12 -3.45901e+12 -3.27623e+12 -2.21045e+12 -2.47393e+12 -3.43345e+12 -3.06287e+12 -3.38614e+12 -3.89115e+12 -3.97583e+12 -3.96382e+12 -3.91486e+12 -3.79511e+12 -3.68827e+12 -3.56786e+12 -3.49579e+12 -3.41649e+12 -3.3586e+12 -3.2988e+12 -3.25655e+12 -3.21506e+12 -3.17087e+12 -3.12811e+12 -2.93689e+12 -2.94492e+12 -2.98146e+12 -3.13083e+12 -3.25545e+12 -4.27921e+12 -3.45295e+12 -2.21145e+12 -2.25799e+12 -2.30357e+12 -2.33187e+12 -2.35226e+12 -2.36477e+12 -2.29259e+12 -2.38487e+12 -2.30072e+12 -3.41807e+12 -3.90049e+12 -3.49224e+12 -3.05157e+12 -3.01831e+12 -3.29488e+12 -3.3649e+12 -3.40627e+12 -3.43001e+12 -3.45493e+12 -3.48174e+12 -3.51391e+12 -3.56603e+12 -3.62228e+12 -3.70164e+12 -3.77286e+12 -3.83225e+12 -3.94402e+12 -4.01605e+12 -4.04616e+12 -3.63548e+12 -3.42955e+12 -2.71446e+12 -4.03412e+12 -3.88311e+12 -3.80985e+12 -3.69304e+12 -3.43415e+12 -2.18185e+12 -1.86219e+12 -3.53651e+12 -3.47459e+12 -3.39808e+12 -3.14243e+12 -4.07819e+12 -3.84604e+12 -3.02818e+12 -3.24448e+12 -3.12497e+12 -3.52336e+12 -3.60639e+12 -3.63367e+12 -3.63096e+12 -3.581e+12 -3.49087e+12 -3.40416e+12 -3.31465e+12 -3.24858e+12 -3.18602e+12 -3.13535e+12 -3.08995e+12 -3.05565e+12 -3.02578e+12 -2.99702e+12 -2.97062e+12 -2.9492e+12 -2.87289e+12 -2.891e+12 -3.05742e+12 -1.87367e+12 -2.35055e+12 -2.00316e+12 -2.13541e+12 -2.14155e+12 -2.21842e+12 -2.16126e+12 -2.24921e+12 -2.19492e+12 -2.27001e+12 -2.20058e+12 -2.28439e+12 -2.22221e+12 -2.19593e+12 -2.25556e+12 -1.87875e+12 -3.01071e+12 -3.03586e+12 -3.08409e+12 -3.13677e+12 -3.18399e+12 -3.21959e+12 -3.24867e+12 -3.27606e+12 -3.30621e+12 -3.3486e+12 -3.39793e+12 -3.45674e+12 -3.51345e+12 -3.5661e+12 -3.63842e+12 -3.70054e+12 -3.72783e+12 -3.71559e+12 -3.46743e+12 -3.95386e+12 -4.53276e+12 -3.40429e+12 -3.48128e+12 -3.86621e+12 -3.38723e+12 -1.95365e+12 -1.75878e+12 -1.78951e+12 -3.24247e+12 -3.4295e+12 -3.41348e+12 -3.43482e+12 -2.56318e+12 -2.15458e+12 -3.14665e+12 -3.11191e+12 -3.09733e+12 -3.2303e+12 -3.29194e+12 -3.32525e+12 -3.33699e+12 -3.32038e+12 -3.2732e+12 -3.20408e+12 -3.13242e+12 -3.0629e+12 -3.00732e+12 -2.95894e+12 -2.92043e+12 -2.88998e+12 -2.86935e+12 -2.85221e+12 -2.83609e+12 -2.82219e+12 -2.81354e+12 -2.81438e+12 -2.82855e+12 -2.16927e+12 -1.18183e+12 -2.09807e+12 -2.05681e+12 -2.12227e+12 -2.12604e+12 -2.12069e+12 -2.1948e+12 -2.05181e+12 -1.09256e+12 -2.98046e+12 -2.96402e+12 -2.88294e+12 -2.88507e+12 -2.8926e+12 -2.91228e+12 -2.94264e+12 -2.97655e+12 -3.00936e+12 -3.03906e+12 -3.06652e+12 -3.09461e+12 -3.12939e+12 -3.30935e+12 -3.36191e+12 -3.41185e+12 -3.44711e+12 -3.46353e+12 -3.46965e+12 -3.4756e+12 -3.28134e+12 -3.45792e+12 -2.06767e+12 -3.72236e+12 -4.03726e+12 -3.84548e+12 -2.69416e+12 -3.02019e+12 -2.87988e+12 -1.55857e+12 -1.50794e+12 -2.78207e+12 -3.29462e+12 -3.40756e+12 -3.39245e+12 -3.50892e+12 -4.18262e+12 -2.74803e+12 -2.82037e+12 -3.02134e+12 -3.03677e+12 -3.05009e+12 -3.05898e+12 -3.05235e+12 -2.7053e+12 -2.69757e+12 -2.69022e+12 -2.68266e+12 -2.67671e+12 -2.67429e+12 -2.6767e+12 -2.68671e+12 -2.6779e+12 -2.66036e+12 -2.14391e+12 -1.91367e+12 -2.05401e+12 -2.05582e+12 -2.05491e+12 -2.0384e+12 -1.97439e+12 -2.22239e+12 -2.37725e+12 -1.91754e+12 -2.58042e+12 -2.70239e+12 -2.72038e+12 -2.73946e+12 -2.75394e+12 -2.7708e+12 -2.79115e+12 -2.81314e+12 -2.8356e+12 -3.17082e+12 -3.21816e+12 -3.26487e+12 -3.16605e+12 -3.17797e+12 -3.17891e+12 -3.17771e+12 -3.17195e+12 -1.72328e+12 -4.32081e+12 -1.78001e+12 -2.74847e+12 -2.72929e+12 -2.55379e+12 -1.34255e+12 -880382000000.0 -1.05956e+12 -1.69694e+12 -3.00594e+12 -3.1815e+12 -3.33766e+12 -3.32386e+12 -3.50675e+12 -4.63815e+12 -3.33089e+12 -2.94603e+12 -2.86784e+12 -2.86431e+12 -2.82277e+12 -2.80895e+12 -2.80151e+12 -3.0266e+12 -2.98268e+12 -2.92558e+12 -2.8666e+12 -2.81342e+12 -2.77131e+12 -2.73839e+12 -2.7162e+12 -2.53636e+12 -2.53396e+12 -2.53233e+12 -2.53307e+12 -2.53921e+12 -2.5483e+12 -2.57866e+12 -2.554e+12 -2.8755e+12 -2.53123e+12 -1.52328e+12 -2.0143e+12 -1.9939e+12 -1.91421e+12 -1.99406e+12 -1.93579e+12 -1.96914e+12 -1.86153e+12 -1.97465e+12 -1.95238e+12 -1.66991e+12 -2.74038e+12 -3.05191e+12 -2.55517e+12 -2.58803e+12 -2.58985e+12 -2.59119e+12 -2.60051e+12 -2.61084e+12 -2.85864e+12 -2.88302e+12 -2.91142e+12 -2.94472e+12 -2.98281e+12 -3.02169e+12 -3.05952e+12 -3.09915e+12 -3.13718e+12 -2.89646e+12 -2.88645e+12 -2.86209e+12 -2.82566e+12 -2.60589e+12 -3.71515e+12 -3.49637e+12 -2.49316e+12 -1.93024e+12 -1.73755e+12 -2.51448e+12 -2.57446e+12 -2.63858e+12 -2.49686e+12 -2.28905e+12 -822358000000.0 -695865000000.0 -626106000000.0 -1.29284e+12 -1.83731e+12 -1.74246e+12 -3.27649e+12 -3.21215e+12 -2.84199e+12 -3.47676e+12 -2.9964e+12 -2.76817e+12 -2.69164e+12 -2.64457e+12 -2.59307e+12 -2.79194e+12 -2.77286e+12 -2.74264e+12 -2.70101e+12 -2.65192e+12 -2.60314e+12 -2.56531e+12 -2.53957e+12 -2.52683e+12 -2.53379e+12 -2.53714e+12 -2.53772e+12 -2.38748e+12 -2.38883e+12 -2.38992e+12 -2.3889e+12 -2.34588e+12 -2.31041e+12 -1.89857e+12 -805627000000.0 -2.52994e+12 -1.76503e+12 -1.90389e+12 -1.82014e+12 -1.65215e+12 -2.2396e+12 -3.02936e+12 -795310000000.0 -1.85444e+12 -2.3677e+12 -2.37024e+12 -2.42058e+12 -2.4389e+12 -2.62219e+12 -2.63438e+12 -2.64699e+12 -2.66014e+12 -2.67696e+12 -2.69826e+12 -2.72366e+12 -2.75289e+12 -2.78386e+12 -2.81505e+12 -2.84595e+12 -2.87422e+12 -2.89592e+12 -2.90294e+12 -2.6286e+12 -2.6436e+12 -2.69585e+12 -2.84017e+12 -1.9106e+12 -2.20865e+12 -2.63622e+12 -2.41722e+12 -2.26926e+12 -2.31168e+12 -1.45795e+12 -576014000000.0 -385474000000.0 -1.00871e+12 -1.546e+12 -1.60956e+12 -1.63031e+12 -1.58096e+12 -3.21512e+12 -2.86084e+12 -1.19128e+12 -2.61582e+12 -2.54881e+12 -2.46366e+12 -2.42873e+12 -2.3877e+12 -2.56427e+12 -2.54723e+12 -2.52688e+12 -2.49806e+12 -2.46238e+12 -2.42159e+12 -2.37561e+12 -2.33412e+12 -2.31436e+12 -2.3117e+12 -2.35385e+12 -2.37313e+12 -2.38197e+12 -2.38594e+12 -2.38724e+12 -2.38731e+12 -2.24804e+12 -2.24416e+12 -2.26565e+12 -2.27943e+12 -2.60019e+12 -2.06112e+12 -1.6137e+12 -1.86266e+12 -1.83513e+12 -1.71913e+12 -1.31892e+12 -1.12551e+12 -2.72389e+12 -2.72814e+12 -2.33895e+12 -2.4475e+12 -2.45567e+12 -2.4629e+12 -2.46909e+12 -2.47416e+12 -2.47784e+12 -2.48072e+12 -2.49137e+12 -2.50799e+12 -2.52844e+12 -2.55185e+12 -2.57631e+12 -2.60045e+12 -2.62155e+12 -2.63857e+12 -2.64752e+12 -2.64012e+12 -2.62986e+12 -2.30498e+12 -2.2647e+12 -2.23302e+12 -2.34652e+12 -3.03344e+12 -1.85706e+12 -1.42068e+12 -2.75179e+12 -2.50714e+12 -2.0736e+12 -2.14094e+12 -1.14366e+12 -1.11618e+12 -352214000000.0 -143639000000.0 -662781000000.0 -629940000000.0 -922284000000.0 -1.23293e+12 -1.56428e+12 -1.55608e+12 -1.67754e+12 -2.35062e+12 -1.90147e+12 -2.21004e+12 -2.19761e+12 -2.17779e+12 -2.34114e+12 -2.31285e+12 -2.28807e+12 -2.25808e+12 -2.22198e+12 -2.18544e+12 -2.13598e+12 -2.08409e+12 -2.04107e+12 -2.04312e+12 -2.16847e+12 -2.2091e+12 -2.22614e+12 -2.23422e+12 -2.23843e+12 -2.24058e+12 -2.242e+12 -2.24358e+12 -2.24548e+12 -2.16628e+12 -2.09537e+12 -1.28341e+12 -2.32779e+12 -1.7685e+12 -1.61399e+12 -1.79739e+12 -1.88146e+12 -1.69799e+12 -1.64731e+12 -1.373e+12 -1.26997e+12 -1.11634e+12 -2.32391e+12 -2.2856e+12 -2.29256e+12 -2.29947e+12 -2.30483e+12 -2.30965e+12 -2.31283e+12 -2.31379e+12 -2.31184e+12 -2.30533e+12 -2.29248e+12 -2.29602e+12 -2.30685e+12 -2.32212e+12 -2.34233e+12 -2.36084e+12 -2.37797e+12 -2.39002e+12 -2.39726e+12 -2.39483e+12 -2.37217e+12 -2.33862e+12 -1.64506e+12 -859907000000.0 -2.3721e+12 -1.28173e+12 -2.25299e+12 -2.12095e+12 -2.05096e+12 -1.71996e+12 -809666000000.0 -835412000000.0 -195811000000.0 -95365600000.0 -293594000000.0 -207525000000.0 -572376000000.0 -828734000000.0 -1.25764e+12 -1.26965e+12 -1.64955e+12 -1.93563e+12 -2.13896e+12 -2.05699e+12 -1.50631e+12 -2.13211e+12 -1.9814e+12 -2.16172e+12 -2.12578e+12 -2.0881e+12 -2.05747e+12 -2.0229e+12 -1.98525e+12 -1.95726e+12 -2.05506e+12 -2.07517e+12 -2.08383e+12 -2.08894e+12 -2.09262e+12 -2.09549e+12 -2.09815e+12 -2.10068e+12 -2.10334e+12 -2.10414e+12 -2.11131e+12 -2.1129e+12 -652291000000.0 -1.93328e+12 -1.58017e+12 -907285000000.0 -2.1909e+12 -2.20152e+12 -2.14502e+12 -2.15207e+12 -2.14632e+12 -2.15174e+12 -2.15673e+12 -2.16035e+12 -2.1624e+12 -2.16198e+12 -2.15822e+12 -2.14907e+12 -2.12917e+12 -2.14932e+12 -2.1546e+12 -2.15656e+12 -2.14141e+12 -2.09721e+12 -2.03621e+12 -1.95373e+12 -1.8292e+12 -2.02278e+12 -789563000000.0 -2.49679e+12 -1.4322e+12 -2.16222e+12 -1.91117e+12 -1.50729e+12 -1.00857e+12 -144262000000.0 -882499000000.0 -1.35192e+12 -1.53962e+12 -2.30115e+12 -2.45144e+12 -1.86246e+12 -1.66491e+12 -1.95087e+12 -1.93303e+12 -1.91313e+12 -1.87273e+12 -1.83499e+12 -1.79482e+12 -1.90088e+12 -1.82429e+12 -1.74197e+12 -1.61391e+12 -1.99236e+12 -1.94356e+12 -1.94768e+12 -1.95168e+12 -1.95541e+12 -1.95877e+12 -1.96129e+12 -1.96497e+12 -1.96612e+12 -1.97636e+12 -1.93701e+12 -1.73945e+12 -1.92298e+12 -2.25794e+12 -1.77531e+12 -1.83527e+12 -2.02016e+12 -1.28409e+12 -1.31278e+12 -1.59869e+12 -1.92768e+12 -1.98069e+12 -1.98562e+12 -1.99846e+12 -2.00366e+12 -2.00947e+12 -2.01353e+12 -2.01558e+12 -2.01529e+12 -2.08433e+12 -2.08173e+12 -2.0899e+12 -2.10751e+12 -2.1271e+12 -2.13835e+12 -1.92135e+12 -1.89011e+12 -1.82456e+12 -1.7378e+12 -1.61952e+12 -1.40904e+12 -1.00435e+12 -1.19186e+12 -2.36212e+12 -1.88449e+12 -2.0104e+12 -1.83383e+12 -224074000000.0 -139109000000.0 -397517000000.0 -503789000000.0 -972750000000.0 -1.13798e+12 -1.77705e+12 -2.0311e+12 -1.57773e+12 -1.03256e+12 -1.70388e+12 -1.68847e+12 -1.71455e+12 -1.66309e+12 -1.73636e+12 -1.75085e+12 -1.69307e+12 -1.59898e+12 -1.46211e+12 -1.32271e+12 -2.03131e+12 -1.96414e+12 -1.94352e+12 -1.9388e+12 -1.94002e+12 -1.81384e+12 -1.81804e+12 -1.82218e+12 -1.82505e+12 -1.82871e+12 -1.81434e+12 -1.7643e+12 -1.86682e+12 -1.83157e+12 -1.69414e+12 -2.14077e+12 -410460000000.0 -1.93697e+12 -1.19031e+12 -1.41069e+12 -1.4827e+12 -1.62344e+12 -1.77285e+12 -1.82252e+12 -1.8416e+12 -1.85556e+12 -2.01207e+12 -2.00463e+12 -1.98903e+12 -1.95242e+12 -1.82668e+12 -1.83673e+12 -1.86787e+12 -1.88918e+12 -1.91088e+12 -1.90868e+12 -1.9167e+12 -1.92536e+12 -1.64372e+12 -1.56118e+12 -1.44548e+12 -1.26162e+12 -781828000000.0 -1.28639e+12 -1.08854e+12 -2.08976e+12 -1.30224e+12 -765101000000.0 -1.24702e+12 -680334000000.0 -262643000000.0 -676160000000.0 -1.33831e+12 -1.56919e+12 -1.82634e+12 -1.43005e+12 -1.3916e+12 -1.52143e+12 -1.51583e+12 -1.62118e+12 -1.58916e+12 -1.52231e+12 -1.60573e+12 -1.53086e+12 -1.43332e+12 -1.29187e+12 -1.12264e+12 -2.01919e+12 -1.89482e+12 -1.81406e+12 -1.79185e+12 -1.78844e+12 -1.79192e+12 -1.79758e+12 -1.80348e+12 -1.80895e+12 -1.68435e+12 -1.68742e+12 -1.68113e+12 -1.65921e+12 -1.66799e+12 -1.5989e+12 -1.51061e+12 -660773000000.0 -1.64474e+12 -1.94982e+12 -1.42167e+12 -1.60845e+12 -1.39859e+12 -1.46228e+12 -1.50767e+12 -1.58048e+12 -1.86332e+12 -1.86851e+12 -1.8712e+12 -1.87149e+12 -1.86945e+12 -1.86511e+12 -1.85761e+12 -1.84343e+12 -1.80443e+12 -1.46741e+12 -1.59466e+12 -1.65663e+12 -1.67272e+12 -1.70275e+12 -1.6584e+12 -1.69753e+12 -1.71159e+12 -1.69497e+12 -1.2041e+12 -1.05845e+12 -1.23399e+12 -402237000000.0 -1.51305e+12 -1.31e+12 -291582000000.0 -1.89599e+12 -418009000000.0 -381183000000.0 -428810000000.0 -887316000000.0 -1.07396e+12 -1.76451e+12 -1.2256e+12 -468197000000.0 -1.32014e+12 -1.18558e+12 -1.41692e+12 -1.37332e+12 -1.39468e+12 -1.3679e+12 -1.48466e+12 -1.40459e+12 -1.30738e+12 -1.17636e+12 -946240000000.0 -1.91375e+12 -1.76971e+12 -1.65814e+12 -1.63017e+12 -1.62826e+12 -1.63507e+12 -1.64396e+12 -1.65265e+12 -1.66055e+12 -1.6676e+12 -1.6739e+12 -1.67962e+12 -1.54076e+12 -1.50781e+12 -1.45869e+12 -1.23426e+12 -1.28317e+12 -1.19676e+12 -1.65346e+12 -1.68883e+12 -1.70731e+12 -1.71919e+12 -1.72584e+12 -1.72915e+12 -1.72974e+12 -1.72814e+12 -1.72527e+12 -1.72314e+12 -1.72587e+12 -1.7479e+12 -1.81803e+12 -1.25375e+12 -1.41336e+12 -1.49241e+12 -1.47088e+12 -1.58174e+12 -1.51827e+12 -1.52802e+12 -1.5199e+12 -1.47946e+12 -1.41088e+12 -1.31573e+12 -881332000000.0 -1.29943e+12 -1.45173e+12 -1.08525e+12 -1.82417e+12 -1.26379e+12 -179737000000.0 -279364000000.0 -620299000000.0 -1.27794e+12 -1.47188e+12 -1.13156e+12 -1.00368e+12 -1.03952e+12 -1.38744e+12 -1.41161e+12 -1.1938e+12 -1.2297e+12 -1.33052e+12 -1.28561e+12 -1.20747e+12 -1.43434e+12 -1.4518e+12 -1.47005e+12 -1.48568e+12 -1.49852e+12 -1.50951e+12 -1.51932e+12 -1.5281e+12 -1.5363e+12 -1.5437e+12 -1.54992e+12 -1.55096e+12 -1.54433e+12 -1.36519e+12 -1.29463e+12 -1.19645e+12 -1.76792e+12 -1.54501e+12 -1.52925e+12 -1.43748e+12 -1.44736e+12 -1.46907e+12 -1.50502e+12 -1.54158e+12 -1.56467e+12 -1.57842e+12 -1.58657e+12 -1.59025e+12 -1.59054e+12 -1.5882e+12 -1.58404e+12 -1.5795e+12 -1.57866e+12 -1.59008e+12 -1.65319e+12 -1.35487e+12 -1.43861e+12 -1.39731e+12 -1.3787e+12 -1.33539e+12 -1.27292e+12 -1.18894e+12 -1.08924e+12 -986272000000.0 -1.00594e+12 -1.45533e+12 -1.19599e+12 -1.10209e+12 -782812000000.0 -352374000000.0 -92353500000.0 -210891000000.0 -692281000000.0 -1.15739e+12 -1.53406e+12 -1.00128e+12 -1.30094e+12 -1.20669e+12 -1.21703e+12 -1.28457e+12 -1.06688e+12 -1.16091e+12 -1.09233e+12 -856038000000.0 -1.70995e+12 -1.53799e+12 -1.41719e+12 -1.35533e+12 -1.36799e+12 -1.37993e+12 -1.39079e+12 -1.40171e+12 -1.41201e+12 -1.42069e+12 -1.42427e+12 -1.427e+12 -1.41607e+12 -1.39498e+12 -1.34472e+12 -1.65177e+12 -1.52981e+12 -1.45883e+12 -1.39968e+12 -1.38948e+12 -1.39429e+12 -1.40967e+12 -1.42962e+12 -1.4437e+12 -1.45202e+12 -1.45569e+12 -1.4553e+12 -1.45162e+12 -1.74461e+12 -1.0941e+12 -1.28647e+12 -1.40795e+12 -1.26645e+12 -1.22118e+12 -1.15249e+12 -1.07173e+12 -972601000000.0 -864326000000.0 -778396000000.0 -715182000000.0 -1.592e+12 -557406000000.0 -627511000000.0 -1.18172e+12 -127415000000.0 -97480200000.0 -349439000000.0 -709180000000.0 -1.70887e+12 -1.17829e+12 -964457000000.0 -940358000000.0 -1.06737e+12 -1.15987e+12 -1.16206e+12 -1.12194e+12 -1.0445e+12 -854643000000.0 -1.45383e+12 -1.25506e+12 -964306000000.0 -1.17485e+12 -1.25185e+12 -1.29569e+12 -1.32294e+12 -1.34111e+12 -1.25602e+12 -1.27174e+12 -1.28618e+12 -1.29987e+12 -1.30921e+12 -1.31945e+12 -1.31611e+12 -1.31178e+12 -1.3962e+12 -1.41026e+12 -1.37477e+12 -1.20158e+12 -1.51973e+12 -1.44071e+12 -1.36643e+12 -1.3203e+12 -1.30036e+12 -1.29384e+12 -1.30439e+12 -1.31566e+12 -1.44529e+12 -1.43685e+12 -1.42724e+12 -1.42143e+12 -1.42408e+12 -1.50299e+12 -1.61272e+12 -993366000000.0 -1.19395e+12 -1.29821e+12 -1.25689e+12 -1.28754e+12 -864623000000.0 -750932000000.0 -620181000000.0 -362084000000.0 -1.30003e+12 -341763000000.0 -681443000000.0 -600482000000.0 -445845000000.0 -1.06289e+12 -1.46368e+12 -1.81791e+12 -1.2347e+12 -463147000000.0 -642001000000.0 -836362000000.0 -1.00929e+12 -1.04217e+12 -1.03902e+12 -1.00782e+12 -886966000000.0 -1.18975e+12 -1.06493e+12 -686958000000.0 -931718000000.0 -1.05464e+12 -1.12279e+12 -1.16076e+12 -1.18242e+12 -1.19837e+12 -1.21277e+12 -1.22746e+12 -1.24258e+12 -1.20527e+12 -1.22814e+12 -1.23719e+12 -1.2747e+12 -1.51898e+12 -1.57031e+12 -1.42406e+12 -1.24119e+12 -1.3481e+12 -1.31891e+12 -1.32319e+12 -1.32632e+12 -1.32509e+12 -1.31993e+12 -1.31131e+12 -1.29967e+12 -1.28453e+12 -1.26322e+12 -1.23733e+12 -1.16529e+12 -1.29523e+12 -1.43536e+12 -949579000000.0 -1.1126e+12 -1.16611e+12 -1.1571e+12 -1.13061e+12 -1.12177e+12 -1.05456e+12 -968554000000.0 -1.09246e+12 -934233000000.0 -926090000000.0 -619916000000.0 -411399000000.0 -107818000000.0 -638904000000.0 -836874000000.0 -765569000000.0 -1.3094e+12 -1.16308e+12 -263834000000.0 -962052000000.0 -970566000000.0 -911167000000.0 -949559000000.0 -961269000000.0 -906249000000.0 -950861000000.0 -930278000000.0 -743810000000.0 -723612000000.0 -875253000000.0 -964448000000.0 -1.00722e+12 -1.02588e+12 -1.03972e+12 -1.05355e+12 -1.06907e+12 -1.08762e+12 -1.10857e+12 -1.1246e+12 -1.14862e+12 -1.16486e+12 -1.18529e+12 -1.21259e+12 -1.99681e+12 -1.62015e+12 -1.45098e+12 -1.30352e+12 -1.25616e+12 -1.21245e+12 -1.17908e+12 -1.18608e+12 -1.19358e+12 -1.19953e+12 -1.20216e+12 -1.20018e+12 -1.19386e+12 -1.18304e+12 -1.16874e+12 -1.15143e+12 -1.12932e+12 -1.0912e+12 -1.04136e+12 -846532000000.0 -1.10238e+12 -1.21932e+12 -937615000000.0 -1.03021e+12 -1.02448e+12 -1.0453e+12 -972318000000.0 -958797000000.0 -882833000000.0 -779814000000.0 -665198000000.0 -549522000000.0 -401858000000.0 -1.04895e+12 -673451000000.0 -516118000000.0 -598064000000.0 -411208000000.0 -657108000000.0 -87464400000.0 -442422000000.0 -1.0559e+12 -607375000000.0 -777986000000.0 -779981000000.0 -845366000000.0 -844137000000.0 -896472000000.0 -744509000000.0 -877770000000.0 -881269000000.0 -890461000000.0 -904438000000.0 -923090000000.0 -949402000000.0 -982890000000.0 -996538000000.0 -1.03172e+12 -1.03111e+12 -1.09608e+12 -1.08977e+12 -1.17135e+12 -1.14032e+12 -1.17967e+12 -1.20894e+12 -1.13082e+12 -1.04519e+12 -1.06583e+12 -1.07504e+12 -1.07939e+12 -1.08235e+12 -1.08021e+12 -1.07353e+12 -1.06059e+12 -1.04314e+12 -1.0232e+12 -1.0023e+12 -991005000000.0 -882021000000.0 -919470000000.0 -811910000000.0 -790814000000.0 -699832000000.0 -586387000000.0 -473382000000.0 -331704000000.0 -875425000000.0 -791211000000.0 -394643000000.0 -509533000000.0 -648778000000.0 -266659000000.0 -134268000000.0 -425907000000.0 -81992000000.0 -1.13046e+12 -286878000000.0 -535002000000.0 -590359000000.0 -668775000000.0 -742676000000.0 -897276000000.0 -791893000000.0 -710797000000.0 -727023000000.0 -689761000000.0 -843545000000.0 -878900000000.0 -816924000000.0 -883363000000.0 -859799000000.0 -878413000000.0 -941976000000.0 -974132000000.0 -1.00032e+12 -1.07554e+12 -718045000000.0 -710748000000.0 -1.56382e+12 -1.49031e+12 -1.38848e+12 -1.37745e+12 -1.08497e+12 -1.17279e+12 -823088000000.0 -933655000000.0 -954878000000.0 -962510000000.0 -965230000000.0 -964027000000.0 -978031000000.0 -915745000000.0 -857059000000.0 -775011000000.0 -949819000000.0 -916330000000.0 -938868000000.0 -618570000000.0 -527789000000.0 -411091000000.0 -438617000000.0 -322491000000.0 -185858000000.0 -137228000000.0 -9239070000.0 -9034600000.0 -566354000000.0 -1.02533e+12 -1.08964e+12 -329354000000.0 -342875000000.0 -796472000000.0 -860705000000.0 -573350000000.0 -657613000000.0 -645295000000.0 -662610000000.0 -693040000000.0 -685152000000.0 -806169000000.0 -747381000000.0 -725555000000.0 -723289000000.0 -733062000000.0 -749397000000.0 -773379000000.0 -1.01683e+12 -553862000000.0 -1.14849e+12 -692158000000.0 -964911000000.0 -825457000000.0 -1.54313e+12 -1.31728e+12 -1.35406e+12 -1.48363e+12 -1.13133e+12 -959291000000.0 -944648000000.0 -923095000000.0 -898105000000.0 -874643000000.0 -858460000000.0 -858802000000.0 -774957000000.0 -745249000000.0 -711897000000.0 -804736000000.0 -771951000000.0 -871972000000.0 -838788000000.0 -743244000000.0 -773374000000.0 -650147000000.0 -265532000000.0 -754426000000.0 -585136000000.0 -466884000000.0 -318494000000.0 -86104400000.0 -95649800000.0 -162672000000.0 -562355000000.0 -867876000000.0 -1.05433e+12 -475211000000.0 -571285000000.0 -698548000000.0 -809979000000.0 -441073000000.0 -520830000000.0 -539703000000.0 -548189000000.0 -592788000000.0 -615001000000.0 -648816000000.0 -587628000000.0 -545601000000.0 -532125000000.0 -539047000000.0 -555375000000.0 -574299000000.0 -606937000000.0 -704985000000.0 -880841000000.0 -443374000000.0 -1.02042e+12 -912089000000.0 -1.10586e+12 -1.31948e+12 -1.68391e+12 -673249000000.0 -805056000000.0 -827735000000.0 -816395000000.0 -825738000000.0 -810002000000.0 -813432000000.0 -795901000000.0 -768194000000.0 -733224000000.0 -698824000000.0 -672387000000.0 -667674000000.0 -693657000000.0 -631345000000.0 -591872000000.0 -648372000000.0 -650838000000.0 -580814000000.0 -809237000000.0 -733541000000.0 -613746000000.0 -602364000000.0 -515925000000.0 -465535000000.0 -375625000000.0 -260290000000.0 -654381000000.0 -561926000000.0 -336586000000.0 -421072000000.0 -9035640000.0 -10976400000.0 -217645000000.0 -149279000000.0 -531383000000.0 -796010000000.0 -314055000000.0 -288306000000.0 -382180000000.0 -431231000000.0 -730242000000.0 -372554000000.0 -426265000000.0 -534560000000.0 -782347000000.0 -676513000000.0 -648683000000.0 -650705000000.0 -681397000000.0 -738446000000.0 -844016000000.0 -486595000000.0 -784560000000.0 -221202000000.0 -524451000000.0 -92415300000.0 -288931000000.0 -707982000000.0 -527012000000.0 -722933000000.0 -842245000000.0 -959709000000.0 -1.10542e+12 -674858000000.0 -213764000000.0 -353536000000.0 -441421000000.0 -486541000000.0 -537218000000.0 -570404000000.0 -605490000000.0 -637470000000.0 -669936000000.0 -703828000000.0 -741241000000.0 -785782000000.0 -619217000000.0 -560264000000.0 -515337000000.0 -427293000000.0 -728529000000.0 -620758000000.0 -521224000000.0 -469964000000.0 -403741000000.0 -343117000000.0 -263361000000.0 -549825000000.0 -559196000000.0 -309603000000.0 -300262000000.0 -246619000000.0 -85505300000.0 -18313900000.0 -36292200000.0 -118843000000.0 -161905000000.0 -1.01552e+12 -228126000000.0 -373700000000.0 -60049900000.0 -958282000000.0 -1.08234e+12 -1.11909e+12 -1.1192e+12 -967350000000.0 -824973000000.0 -735116000000.0 -599665000000.0 -521423000000.0 -309646000000.0 -705182000000.0 -517561000000.0 -631213000000.0 -418499000000.0 -320654000000.0 -439796000000.0 -321799000000.0 -467676000000.0 -849465000000.0 -926452000000.0 -861299000000.0 -755968000000.0 -417251000000.0 -362509000000.0 -305164000000.0 -225663000000.0 -162302000000.0 -28983700000.0 -27618900000.0 -177857000000.0 -481787000000.0 -650067000000.0 -733465000000.0 -443684000000.0 -609021000000.0 -230957000000.0 -329916000000.0 -462754000000.0 -589986000000.0 -680865000000.0 -785861000000.0 -841592000000.0 -802528000000.0 -710690000000.0 -627769000000.0 -572177000000.0 -535376000000.0 -520695000000.0 -513152000000.0 -520669000000.0 -35972500000.0 -183320000000.0 -487215000000.0 -648303000000.0 -756083000000.0 -635339000000.0 -711333000000.0 -431386000000.0 -515963000000.0 -542001000000.0 -566885000000.0 -581724000000.0 -598723000000.0 -619136000000.0 -637867000000.0 -641400000000.0 -566006000000.0 -507499000000.0 -483347000000.0 -445366000000.0 -428030000000.0 -391189000000.0 -321949000000.0 -592988000000.0 -489914000000.0 -224084000000.0 -454843000000.0 -430264000000.0 -319036000000.0 -17734100000.0 -42886400000.0 -81048200000.0 -126686000000.0 -204905000000.0 -373455000000.0 -490348000000.0 -753338000000.0 -305902000000.0 -308402000000.0 -242766000000.0 -244441000000.0 -83580300000.0 -128991000000.0 -234790000000.0 -297956000000.0 -276122000000.0 -359001000000.0 -521145000000.0 -568007000000.0 -532297000000.0 -472749000000.0 -426390000000.0 -395478000000.0 -377752000000.0 -370135000000.0 -343869000000.0 -313064000000.0 -580891000000.0 -556284000000.0 -685731000000.0 -461316000000.0 -503120000000.0 -484727000000.0 -522992000000.0 -532783000000.0 -595051000000.0 -720018000000.0 -511343000000.0 -561289000000.0 -550441000000.0 -597785000000.0 -696913000000.0 -391503000000.0 -267199000000.0 -455703000000.0 -275192000000.0 -424155000000.0 -419388000000.0 -444042000000.0 -438780000000.0 -436263000000.0 -442063000000.0 -450439000000.0 -434943000000.0 -367442000000.0 -292156000000.0 -252337000000.0 -292174000000.0 -315297000000.0 -333249000000.0 -284128000000.0 -256817000000.0 -410891000000.0 -364400000000.0 -333487000000.0 -285296000000.0 -176697000000.0 -379740000000.0 -268971000000.0 -258028000000.0 -170320000000.0 -85728600000.0 -29621000000.0 -9952100000.0 -29259100000.0 -68700100000.0 -120929000000.0 -144148000000.0 -123550000000.0 -190333000000.0 -208718000000.0 -270051000000.0 -445580000000.0 -208576000000.0 -170043000000.0 -68714100000.0 -205892000000.0 -170538000000.0 -168109000000.0 -150940000000.0 -127144000000.0 -281865000000.0 -263424000000.0 -225840000000.0 -225521000000.0 -208239000000.0 -206507000000.0 -38434200000.0 -244749000000.0 -230399000000.0 -207233000000.0 -122694000000.0 -221347000000.0 -157719000000.0 -327779000000.0 -149339000000.0 -338129000000.0 -390391000000.0 -417975000000.0 -478069000000.0 -582883000000.0 -382100000000.0 -498867000000.0 -364262000000.0 -452141000000.0 -362530000000.0 -371819000000.0 -318431000000.0 -286085000000.0 -287124000000.0 -286941000000.0 -294723000000.0 -286830000000.0 -199214000000.0 -138762000000.0 -142702000000.0 -174175000000.0 -241915000000.0 -320509000000.0 -262652000000.0 -174974000000.0 -237979000000.0 -283622000000.0 -283216000000.0 -189287000000.0 -334681000000.0 -182887000000.0 -152943000000.0 -80929800000.0 -140407000000.0 -86300700000.0 -48727700000.0 -22058200000.0 -284303000000.0 -349378000000.0 -354459000000.0 -286877000000.0 -155718000000.0 -9393910000.0 -9035750000.0 -9035750000.0 -16577500000.0 -38788200000.0 -149059000000.0 -28233200000.0 -134298000000.0 -232681000000.0 -421453000000.0 -210099000000.0 -206678000000.0 -128725000000.0 -128049000000.0 -63148100000.0 -35657600000.0 -43055800000.0 -176718000000.0 -214739000000.0 -207629000000.0 -187660000000.0 -219829000000.0 -268799000000.0 -368591000000.0 -391414000000.0 -430284000000.0 -464712000000.0 -525812000000.0 -458566000000.0 -546834000000.0 -575839000000.0 -513340000000.0 -347167000000.0 -448192000000.0 -459306000000.0 -455815000000.0 -380314000000.0 -480168000000.0 -222419000000.0 -290284000000.0 -209887000000.0 -286531000000.0 -190731000000.0 -273638000000.0 -130289000000.0 -174335000000.0 -171617000000.0 -251800000000.0 -234557000000.0 -281226000000.0 -255183000000.0 -228511000000.0 -278789000000.0 -308466000000.0 -318348000000.0 -308705000000.0 -182160000000.0 -49498000000.0 -57396200000.0 -78213400000.0 -110656000000.0 -149838000000.0 -111544000000.0 -93937300000.0 -136297000000.0 -114978000000.0 -79105000000.0 -41847600000.0 -216832000000.0 -124135000000.0 -115528000000.0 -49039200000.0 -63822700000.0 -9035750000.0 -9035750000.0 -9035750000.0 -18060200000.0 -36136000000.0 -56891800000.0 -100037000000.0 -171929000000.0 -112282000000.0 -182298000000.0 -219040000000.0 -258393000000.0 -24159200000.0 -83145700000.0 -68675300000.0 -101282000000.0 -123366000000.0 -155398000000.0 -205943000000.0 -293677000000.0 -296042000000.0 -250257000000.0 -185665000000.0 -141168000000.0 -116378000000.0 -103024000000.0 -59153400000.0 -61016600000.0 -65928400000.0 -82344000000.0 -55314300000.0 -17825200000.0 -144800000000.0 -116674000000.0 -43301200000.0 -163779000000.0 -56227600000.0 -53332800000.0 -151649000000.0 -32447900000.0 -114619000000.0 -94760900000.0 -211832000000.0 -176173000000.0 -293758000000.0 -136386000000.0 -102107000000.0 -67913300000.0 -67231700000.0 -27803600000.0 -51927600000.0 -40118600000.0 -152014000000.0 -165741000000.0 -217628000000.0 -179021000000.0 -169208000000.0 -152021000000.0 -138685000000.0 -141038000000.0 -157290000000.0 -195045000000.0 -235567000000.0 -209951000000.0 -178991000000.0 -201993000000.0 -180244000000.0 -128522000000.0 -75059700000.0 -206870000000.0 -158219000000.0 -149940000000.0 -109148000000.0 -99918900000.0 -43864300000.0 -29511200000.0 -15789100000.0 -280924000000.0 -9035770000.0 -9035750000.0 -9063140000.0 -37772000000.0 -75564500000.0 -44152500000.0 -85168600000.0 -138343000000.0 -209069000000.0 -31212200000.0 -67503400000.0 -29499200000.0 -19706600000.0 -15216200000.0 -15092800000.0 -33319800000.0 -76993700000.0 -103673000000.0 -114119000000.0 -115493000000.0 -122580000000.0 -130314000000.0 -147774000000.0 -131591000000.0 -145598000000.0 -158835000000.0 -176997000000.0 -158987000000.0 -120106000000.0 -291646000000.0 -68973700000.0 -58268900000.0 -18460000000.0 -128509000000.0 -16704900000.0 -55187200000.0 -111032000000.0 -14584800000.0 -89103900000.0 -60285400000.0 -139899000000.0 -70111400000.0 -142696000000.0 -13679400000.0 -22064000000.0 -31280600000.0 -58473600000.0 -50946700000.0 -86406200000.0 -78014000000.0 -126376000000.0 -127634000000.0 -156796000000.0 -120059000000.0 -91617200000.0 -56086700000.0 -25738300000.0 -32239000000.0 -49964800000.0 -75698900000.0 -89866800000.0 -65829200000.0 -42621600000.0 -75345300000.0 -56879600000.0 -22268600000.0 -15589700000.0 -132361000000.0 -88114700000.0 -76100800000.0 -56453000000.0 -45621100000.0 -9174480000.0 -9035770000.0 -9038910000.0 -9669850000.0 -10919800000.0 -12231900000.0 -43492100000.0 -73669100000.0 -57858600000.0 -79345800000.0 -122973000000.0 -163799000000.0 -10124200000.0 -52845100000.0 -23011400000.0 -15357600000.0 -17729100000.0 -28849100000.0 -51482900000.0 -76025100000.0 -97592000000.0 -100356000000.0 -92657100000.0 -95131000000.0 -85507600000.0 -86523100000.0 -60356500000.0 -64745500000.0 -67988700000.0 -75879400000.0 -61467300000.0 -10895100000.0 -78365900000.0 -79353900000.0 -24204700000.0 -124048000000.0 -14852200000.0 -46535100000.0 -96021600000.0 -19874300000.0 -85244800000.0 -59559100000.0 -134054000000.0 -74982800000.0 -136971000000.0 -27972800000.0 -21391500000.0 -19471500000.0 -36342900000.0 -23321400000.0 -53758800000.0 -43085000000.0 -61280300000.0 -63715000000.0 -102757000000.0 -90699100000.0 -92177900000.0 -70798100000.0 -44932100000.0 -48107100000.0 -63492400000.0 -81698700000.0 -84657500000.0 -64728900000.0 -40717400000.0 -71632500000.0 -50505200000.0 -14936200000.0 -13301400000.0 -110869000000.0 -79949000000.0 -70343800000.0 -61852600000.0 -42785400000.0 -11331900000.0 -10171900000.0 -9425050000.0 -237160000000.0 -9059790000.0 -9043790000.0 -9102610000.0 -39106100000.0 -70435400000.0 -61549900000.0 -67644500000.0 -110670000000.0 -139741000000.0 -10996300000.0 -50345700000.0 -24221500000.0 -10077900000.0 -9724120000.0 -20805900000.0 -40947100000.0 -52943300000.0 -71038400000.0 -81465400000.0 -85220700000.0 -99969900000.0 -93185500000.0 -98613600000.0 -77414700000.0 -84454100000.0 -84441500000.0 -93576600000.0 -81624500000.0 -35788000000.0 -221248000000.0 -48352700000.0 -60421300000.0 -10077800000.0 -110104000000.0 -10423500000.0 -51153100000.0 -78401600000.0 -11883000000.0 -69376900000.0 -43114900000.0 -107078000000.0 -50009000000.0 -97243900000.0 -11966000000.0 -9035750000.0 -12332300000.0 -31900500000.0 -22920500000.0 -56186500000.0 -46282000000.0 -60846000000.0 -59149500000.0 -85927600000.0 -77931300000.0 -87368000000.0 -66489600000.0 -41965900000.0 -43163800000.0 -56352200000.0 -67394200000.0 -62733600000.0 -46845000000.0 -26513500000.0 -60143500000.0 -38642200000.0 -9574870000.0 -14807700000.0 -95455100000.0 -69110400000.0 -60644800000.0 -59068200000.0 -35096800000.0 -9632610000.0 -9044290000.0 -9063690000.0 -9154670000.0 -9271770000.0 -9555330000.0 -38388000000.0 -71621400000.0 -114617000000.0 -9105030000.0 -45547000000.0 -25868000000.0 -9250320000.0 -9632960000.0 -22509800000.0 -41815600000.0 -47222800000.0 -93957800000.0 -84336100000.0 -87266100000.0 -64908900000.0 -69492400000.0 -62919200000.0 -68976900000.0 -57480800000.0 -10788200000.0 -60241700000.0 -70647700000.0 -11447400000.0 -102380000000.0 -10503300000.0 -69605000000.0 -62072300000.0 -37965600000.0 -95927600000.0 -46026700000.0 -80993200000.0 -13169400000.0 -9035750000.0 -12723700000.0 -30272300000.0 -21963300000.0 -55207300000.0 -45192600000.0 -60937800000.0 -58107400000.0 -79572200000.0 -75821300000.0 -88038100000.0 -70105400000.0 -47784300000.0 -46644800000.0 -56865800000.0 -61884900000.0 -52768100000.0 -39428100000.0 -21408800000.0 -55213700000.0 -33226500000.0 -9185990000.0 -15855800000.0 -55476700000.0 -58058100000.0 -31182800000.0 -10245900000.0 -9259780000.0 -9140480000.0 -67045600000.0 -59880700000.0 -98634200000.0 -59994000000.0 -71633500000.0 -78546800000.0 -201014000000.0 -54327200000.0 -11207400000.0 -82958000000.0 -62148800000.0 -9084970000.0 -9058130000.0 -9200460000.0 -35548900000.0 -69149400000.0 -68412100000.0 -51952000000.0 -87564700000.0 -94055900000.0 -9178720000.0 -41448300000.0 -27905400000.0 -9076870000.0 -9424540000.0 -22479500000.0 -40089700000.0 -42702600000.0 -51556900000.0 -65365600000.0 -76718100000.0 -92104100000.0 -82642500000.0 -85657800000.0 -64622400000.0 -69276500000.0 -58639900000.0 -64545200000.0 -54140900000.0 -15937200000.0 -180895000000.0 -45242800000.0 -64275200000.0 -9092620000.0 -94672700000.0 -11448500000.0 -55872100000.0 -60029000000.0 -11302800000.0 -54957500000.0 -31480000000.0 -82424400000.0 -40114200000.0 -65608800000.0 -13026900000.0 -9035750000.0 -13008300000.0 -27897500000.0 -21023600000.0 -53850900000.0 -44132300000.0 -61474700000.0 -58457300000.0 -77830400000.0 -74821700000.0 -86618600000.0 -70784300000.0 -50721500000.0 -47677000000.0 -54908700000.0 -55132000000.0 -44215400000.0 -32948100000.0 -17776500000.0 -50013800000.0 -28446300000.0 -9224610000.0 -16372500000.0 -72484900000.0 -55539500000.0 -50645500000.0 -54326900000.0 -26607800000.0 -10014200000.0 -9057730000.0 -9086490000.0 -9093660000.0 -9063100000.0 -9238830000.0 -32802900000.0 -65794800000.0 -76359000000.0 -9238330000.0 -36991200000.0 -67493800000.0 -59527400000.0 -15305500000.0 -43271600000.0 -9196500000.0 -12110100000.0 -51259000000.0 -49181300000.0 -71325000000.0 -36923100000.0 -54659700000.0 -13298400000.0 -9035750000.0 -13174900000.0 -25084500000.0 -19658400000.0 -51265900000.0 -42033900000.0 -60439600000.0 -57438300000.0 -75473000000.0 -24218200000.0 -9270410000.0 -16040100000.0 -50363600000.0 -23201800000.0 -10145800000.0 -9062490000.0 -9094380000.0 -68200800000.0 -45664600000.0 -77701300000.0 -29114000000.0 -9101480000.0 -9527350000.0 -22302100000.0 -37912700000.0 -40489900000.0 -45904400000.0 -60721300000.0 -74653400000.0 -88746800000.0 -79786500000.0 -82657400000.0 -62941900000.0 -53964500000.0 -50701500000.0 -162020000000.0 -63593700000.0 -86708000000.0 -56069700000.0 -11329700000.0 -27160100000.0 -72607800000.0 -83714800000.0 -69928500000.0 -52245800000.0 -47696000000.0 -52133000000.0 -48717900000.0 -37666700000.0 -27780100000.0 -15459200000.0 -44606700000.0 -64097800000.0 -50569500000.0 -47505300000.0 -9099520000.0 -9066810000.0 -9265950000.0 -29771200000.0 -61205500000.0 -66049600000.0 -40408100000.0 -68782000000.0 -61440200000.0 -9282800000.0 -32574700000.0 -29479300000.0 -9121760000.0 -9600650000.0 -21743100000.0 -35167500000.0 -38760800000.0 -41616500000.0 -56659600000.0 -71303700000.0 -84028000000.0 -75747400000.0 -78428000000.0 -60146200000.0 -64408800000.0 -49129100000.0 -54243900000.0 -47130700000.0 -16892400000.0 -145769000000.0 -40382300000.0 -61691400000.0 -9288420000.0 -78694400000.0 -12427000000.0 -54684400000.0 -43291400000.0 -11299200000.0 -44205600000.0 -23814800000.0 -61439100000.0 -34348700000.0 -46167000000.0 -13411400000.0 -9035750000.0 -13216200000.0 -22219900000.0 -18107400000.0 -47811600000.0 -39221700000.0 -58064100000.0 -55182900000.0 -71877700000.0 -69113200000.0 -79382200000.0 -67446700000.0 -52091400000.0 -46479100000.0 -48506100000.0 -42636000000.0 -32546500000.0 -23648100000.0 -14159000000.0 -39283500000.0 -20623000000.0 -9302990000.0 -15191500000.0 -57200400000.0 -46402100000.0 -44544700000.0 -45920900000.0 -20337600000.0 -10230200000.0 -9065890000.0 -9099770000.0 -17874700000.0 -37012200000.0 -9349610000.0 -12446800000.0 -36402800000.0 -39561500000.0 -9035750000.0 -19543600000.0 -43802500000.0 -9102550000.0 -9069090000.0 -9281500000.0 -26677600000.0 -55833000000.0 -62360600000.0 -36046300000.0 -60760300000.0 -49105000000.0 -9311640000.0 -28445700000.0 -29074500000.0 -9136500000.0 -9643870000.0 -20914400000.0 -32173000000.0 -36764800000.0 -38285200000.0 -52966100000.0 -66880000000.0 -78258000000.0 -70681700000.0 -73136200000.0 -56428700000.0 -60290800000.0 -44297900000.0 -48909700000.0 -43421000000.0 -129737000000.0 -58710400000.0 -70697000000.0 -52029900000.0 -11223000000.0 -39919100000.0 -21320900000.0 -52955000000.0 -31926200000.0 -13371200000.0 -13131700000.0 -16543600000.0 -35972400000.0 -54618300000.0 -51927500000.0 -67180300000.0 -64565300000.0 -73902500000.0 -63652300000.0 -50499100000.0 -44261700000.0 -44332500000.0 -37081100000.0 -28544900000.0 -20445600000.0 -13574900000.0 -34264800000.0 -17702600000.0 -9321510000.0 -14117000000.0 -51382900000.0 -42714000000.0 -41298300000.0 -41312200000.0 -17977400000.0 -10265800000.0 -9067830000.0 -9102530000.0 -9102810000.0 -9069740000.0 -9285530000.0 -23688800000.0 -50042400000.0 -57520900000.0 -32356100000.0 -53505700000.0 -39107200000.0 -9324770000.0 -24733800000.0 -27989800000.0 -9144890000.0 -9657290000.0 -19886300000.0 -29115700000.0 -34273500000.0 -35439600000.0 -49134300000.0 -61569600000.0 -71621800000.0 -64782700000.0 -66978400000.0 -51973000000.0 -55384800000.0 -39574300000.0 -43657200000.0 -39582300000.0 -18358300000.0 -113946000000.0 -33466900000.0 -54747200000.0 -9380390000.0 -62780700000.0 -12233700000.0 -48440900000.0 -30612700000.0 -11105000000.0 -36028500000.0 -19427100000.0 -45748900000.0 -29379100000.0 -34247100000.0 -13192200000.0 -9035750000.0 -12927800000.0 -17179900000.0 -15077200000.0 -39493800000.0 -32507100000.0 -50355700000.0 -47906900000.0 -61613400000.0 -59198300000.0 -67536200000.0 -58824300000.0 -47714100000.0 -41261600000.0 -39862000000.0 -32132300000.0 -25352900000.0 -18016800000.0 -13299700000.0 -29688700000.0 -15418200000.0 -9326250000.0 -13018800000.0 -46251600000.0 -39228000000.0 -37718000000.0 -36750100000.0 -16060800000.0 -10252700000.0 -9068310000.0 -9102610000.0 -9100360000.0 -9068820000.0 -9278370000.0 -20914600000.0 -44102800000.0 -51871600000.0 -29098700000.0 -46845600000.0 -31164600000.0 -9322580000.0 -21487700000.0 -26340200000.0 -9146760000.0 -9641840000.0 -18709300000.0 -26102900000.0 -31360900000.0 -32670300000.0 -44878600000.0 -55577000000.0 -64295700000.0 -58239700000.0 -60152800000.0 -46953000000.0 -49893500000.0 -35012700000.0 -38556500000.0 -35635500000.0 -18297700000.0 -98579900000.0 -29911500000.0 -49950100000.0 -9387360000.0 -55013600000.0 -11847400000.0 -44174100000.0 -25790300000.0 -10943500000.0 -32331300000.0 -17900400000.0 -39550100000.0 -26670900000.0 -29727800000.0 -12889000000.0 -9035750000.0 -12615800000.0 -15176300000.0 -13768400000.0 -35080000000.0 -28991800000.0 -45499700000.0 -43329600000.0 -55394700000.0 -53222800000.0 -60511800000.0 -53211500000.0 -43978100000.0 -37677400000.0 -35303000000.0 -27789000000.0 -22701700000.0 -16171800000.0 -13041800000.0 -25619600000.0 -13677900000.0 -9317810000.0 -12019800000.0 -41479700000.0 -35740100000.0 -33914700000.0 -32362000000.0 -14515400000.0 -10193000000.0 -9067350000.0 -9100020000.0 -9095310000.0 -9066450000.0 -9260660000.0 -18415600000.0 -38198700000.0 -45690200000.0 -26062300000.0 -40607100000.0 -24970500000.0 -9305870000.0 -18702400000.0 -24250600000.0 -9142270000.0 -9599220000.0 -17416500000.0 -23188700000.0 -28157800000.0 -29693800000.0 -40135000000.0 -49064600000.0 -56437400000.0 -51216200000.0 -52834600000.0 -41527900000.0 -43984400000.0 -30631100000.0 -33632800000.0 -31605600000.0 -17719200000.0 -83715100000.0 -26419100000.0 -44496400000.0 -9372640000.0 -47437300000.0 -11360100000.0 -39406600000.0 -21788200000.0 -10738300000.0 -28718300000.0 -16540400000.0 -34073700000.0 -23873800000.0 -25716600000.0 -12477000000.0 -9035750000.0 -12210000000.0 -13534700000.0 -12642700000.0 -30697600000.0 -25539700000.0 -40236400000.0 -38371100000.0 -48710600000.0 -46818000000.0 -53022200000.0 -47026100000.0 -39510800000.0 -33678100000.0 -30806000000.0 -23995800000.0 -20380500000.0 -14724100000.0 -12682700000.0 -22062100000.0 -12372800000.0 -9297110000.0 -11178300000.0 -36817700000.0 -32116600000.0 -30008300000.0 -28208300000.0 -13266300000.0 -10090200000.0 -9065050000.0 -9094910000.0 -9087890000.0 -9062760000.0 -9233400000.0 -16210100000.0 -32444600000.0 -39185700000.0 -23087000000.0 -34640100000.0 -20213600000.0 -9275920000.0 -16336700000.0 -21833000000.0 -9131820000.0 -9532000000.0 -16027500000.0 -20392700000.0 -24775200000.0 -26402700000.0 -34962000000.0 -42163000000.0 -48181800000.0 -43845700000.0 -45165700000.0 -35827000000.0 -37797100000.0 -26421900000.0 -28880200000.0 -27516700000.0 -16704700000.0 -69324000000.0 -23023200000.0 -38551400000.0 -9338430000.0 -40061500000.0 -10845000000.0 -34266400000.0 -18481800000.0 -10490900000.0 -25133400000.0 -15218700000.0 -29082100000.0 -21063200000.0 -22088900000.0 -11971900000.0 -9035750000.0 -11726200000.0 -12227500000.0 -11700100000.0 -26428700000.0 -22216100000.0 -34712100000.0 -33169900000.0 -41712100000.0 -40128100000.0 -45222100000.0 -40441300000.0 -34502400000.0 -29399700000.0 -26459600000.0 -20666100000.0 -18236400000.0 -13520200000.0 -12200500000.0 -18979100000.0 -11397300000.0 -9265350000.0 -10508700000.0 -32091000000.0 -28285700000.0 -26083800000.0 -24300600000.0 -12242600000.0 -9949740000.0 -9061500000.0 -9087490000.0 -9078420000.0 -9057930000.0 -9197900000.0 -14281700000.0 -26894600000.0 -32503200000.0 -20073400000.0 -28825900000.0 -16593700000.0 -9234490000.0 -14327100000.0 -19176600000.0 -9116110000.0 -9443550000.0 -14555200000.0 -17711500000.0 -21292500000.0 -22810900000.0 -29453600000.0 -34977900000.0 -39640500000.0 -36233000000.0 -37254900000.0 -29946900000.0 -31441300000.0 -22362300000.0 -24274900000.0 -23390200000.0 -15339300000.0 -55345900000.0 -19737100000.0 -32248400000.0 -9287850000.0 -32874800000.0 -10356100000.0 -28852600000.0 -15755000000.0 -10205100000.0 -21546500000.0 -13878500000.0 -24393000000.0 -18285500000.0 -18786300000.0 -11390600000.0 -9035750000.0 -11180900000.0 -11207700000.0 -10922200000.0 -22309800000.0 -19046900000.0 -29034600000.0 -27828200000.0 -34514100000.0 -33262100000.0 -37228200000.0 -33591500000.0 -29109500000.0 -24945900000.0 -22298000000.0 -17703100000.0 -16167700000.0 -12450700000.0 -11607600000.0 -16307400000.0 -10660300000.0 -9224070000.0 -9999500000.0 -27200400000.0 -24230600000.0 -22188000000.0 -20619900000.0 -11382400000.0 -9777610000.0 -9056890000.0 -9078070000.0 -9067270000.0 -9052180000.0 -9155750000.0 -12588600000.0 -21552100000.0 -25735800000.0 -16974600000.0 -23081400000.0 -13828600000.0 -9183720000.0 -12598400000.0 -16350500000.0 -9096050000.0 -9337900000.0 -13012100000.0 -15127800000.0 -17760700000.0 -18982000000.0 -23701400000.0 -27594100000.0 -30902900000.0 -28457900000.0 -29183200000.0 -23955300000.0 -24994100000.0 -18421500000.0 -19784600000.0 -19242900000.0 -13702900000.0 -41703300000.0 -16555400000.0 -25692000000.0 -9224260000.0 -25850800000.0 -9919330000.0 -23243700000.0 -13486600000.0 -9887740000.0 -17943700000.0 -12505500000.0 -19873800000.0 -15558400000.0 -15756900000.0 -10750000000.0 -9035750000.0 -10590000000.0 -10417100000.0 -10279100000.0 -18341700000.0 -16027100000.0 -23277000000.0 -22414800000.0 -27198200000.0 -26296100000.0 -29122200000.0 -26575100000.0 -23456100000.0 -20389800000.0 -18314800000.0 -15012900000.0 -14115700000.0 -11444700000.0 -10926000000.0 -13966400000.0 -10088000000.0 -9175100000.0 -9623990000.0 -22115900000.0 -19977300000.0 -18337400000.0 -17128100000.0 -10634500000.0 -9580480000.0 -9051400000.0 -9067010000.0 -9054900000.0 -9045750000.0 -9108730000.0 -11071900000.0 -16381400000.0 -18936300000.0 -13783300000.0 -17357500000.0 -11655400000.0 -9126070000.0 -11070400000.0 -13411000000.0 -9072740000.0 -9219630000.0 -11413900000.0 -12616800000.0 -14209200000.0 -14989200000.0 -17785300000.0 -20079600000.0 -22038400000.0 -20580100000.0 -21009800000.0 -17897900000.0 -18503200000.0 -14565100000.0 -15374700000.0 -15085800000.0 -11873800000.0 -28303100000.0 -13457400000.0 -18966600000.0 -9151130000.0 -18950700000.0 -9535530000.0 -17502900000.0 -11547800000.0 -9548410000.0 -14322400000.0 -11103500000.0 -15436600000.0 -12879500000.0 -12935800000.0 -10067300000.0 -9035750000.0 -9968050000.0 -9791400000.0 -9734560000.0 -14498200000.0 -13128600000.0 -17483000000.0 -16970200000.0 -19817700000.0 -19278300000.0 -20956100000.0 -19460800000.0 -17637700000.0 -15779400000.0 -14475400000.0 -12508700000.0 -12054100000.0 -10460800000.0 -10180200000.0 -11865400000.0 -9621740000.0 -9120490000.0 -9346650000.0 -16859300000.0 -15575600000.0 -14529000000.0 -13776300000.0 -9958070000.0 -9365350000.0 -9045270000.0 -9054740000.0 -9041790000.0 -9038900000.0 -9058760000.0 -9662960000.0 -11320600000.0 -12127700000.0 -10522800000.0 -11633200000.0 -9826450000.0 -9064260000.0 -9661580000.0 -10406600000.0 -9047450000.0 -9093730000.0 -9780750000.0 -10150000000.0 -10651300000.0 -10901700000.0 -11774600000.0 -12489500000.0 -13101000000.0 -12644500000.0 -12778700000.0 -11805200000.0 -11993000000.0 -10757900000.0 -11010800000.0 -10924800000.0 -9930710000.0 -15041200000.0 -10411900000.0 -12143600000.0 -9072200000.0 -12125400000.0 -9188910000.0 -11685000000.0 -9804840000.0 -9196740000.0 -10687000000.0 -9682550000.0 -11031400000.0 -10233100000.0 -10243300000.0 -9359670000.0 -9035750000.0 -9328210000.0 -9263920000.0 -9249220000.0 -10734900000.0 -10307500000.0 -11674200000.0 -11513900000.0 -12404600000.0 -12235600000.0 -12759900000.0 -12294600000.0 -11728400000.0 -11143200000.0 -10726900000.0 -10111300000.0 -9978670000.0 -9480370000.0 -9395960000.0 -9907740000.0 -9213960000.0 -9062460000.0 -9128080000.0 -11486800000.0 -11084200000.0 -10748400000.0 -10509000000.0 -9320520000.0 -9139460000.0 -9038750000.0 -9041740000.0 
SCALARS Shear_Stress float 1
LOOKUP_TABLE default
64869000000.0 19374600000.0 102072000000.0 31432000000.0 19175200000.0 55077700000.0 56892400000.0 47752100000.0 10703600000.0 49876100000.0 10177800000.0 14635800000.0 35507300000.0 20282700000.0 70699000000.0 79732000000.0 768524000.0 72251400000.0 32964900000.0 33629500000.0 40687400000.0 46893600000.0 49546600000.0 111491000000.0 76683400000.0 64954900000.0 2597810000.0 50204500000.0 46758600000.0 22509100000.0 182754000000.0 4406300000.0 39265100000.0 82041000000.0 100518000000.0 49903700000.0 102716000000.0 68240800000.0 20418500000.0 94332600000.0 13501800000.0 6326210000.0 72477100000.0 86841200000.0 63640700000.0 195665000000.0 101871000000.0 151485000000.0 112029000000.0 55480500000.0 179049000000.0 110011000000.0 106623000000.0 29314500000.0 25128600000.0 3777340000.0 61776700000.0 37381500000.0 88913200000.0 122100000000.0 113015000000.0 67807200000.0 75907600000.0 115836000000.0 128879000000.0 157008000000.0 93081000000.0 71769700000.0 228932000000.0 279467000000.0 121081000000.0 88635400000.0 88515600000.0 206486000000.0 204976000000.0 262924000000.0 146162000000.0 7182370000.0 62594900000.0 58275300000.0 4346220000.0 181202000000.0 42108100000.0 23167700000.0 17837000000.0 194066000000.0 126779000000.0 272652000000.0 5695210000.0 22350900000.0 321164000000.0 361996000000.0 14273300000.0 119300000000.0 118117000000.0 106145000000.0 11705400000.0 67008000000.0 216670000000.0 159375000000.0 118838000000.0 355674000000.0 87543500000.0 20378300000.0 68742500000.0 286981000000.0 23801600000.0 194640000000.0 267692000000.0 189280000000.0 226030000000.0 159834000000.0 185879000000.0 108868000000.0 119978000000.0 37908300000.0 164390000000.0 67162800000.0 223425000000.0 110385000000.0 152699000000.0 120084000000.0 138939000000.0 147844000000.0 295585000000.0 409529000000.0 52939200000.0 87907500000.0 156779000000.0 82226000000.0 57196500000.0 200161000000.0 94084900000.0 304471000000.0 257359000000.0 346195000000.0 301154000000.0 244848000000.0 192545000000.0 149127000000.0 252232000000.0 12694700000.0 68566300000.0 131692000000.0 279194000000.0 187449000000.0 101133000000.0 404707000000.0 381443000000.0 399901000000.0 375939000000.0 310805000000.0 249595000000.0 197892000000.0 200541000000.0 414540000000.0 14661200000.0 95345600000.0 172636000000.0 435021000000.0 10470900000.0 263390000000.0 568966000000.0 344382000000.0 423822000000.0 433686000000.0 380200000000.0 367219000000.0 305336000000.0 287876000000.0 241695000000.0 222269000000.0 191043000000.0 197411000000.0 274079000000.0 92084100000.0 138778000000.0 14640400000.0 42801000000.0 111634000000.0 142360000000.0 203437000000.0 259288000000.0 452624000000.0 57588800000.0 331712000000.0 577149000000.0 596021000000.0 216248000000.0 224034000000.0 217585000000.0 373398000000.0 406624000000.0 453491000000.0 468192000000.0 439253000000.0 427924000000.0 340578000000.0 259735000000.0 193310000000.0 113110000000.0 2156880000.0 81331300000.0 181907000000.0 260075000000.0 508835000000.0 260604000000.0 80275700000.0 278300000000.0 441893000000.0 469963000000.0 399656000000.0 302924000000.0 222160000000.0 129397000000.0 2425350000.0 77727000000.0 168366000000.0 242363000000.0 473573000000.0 72439800000.0 308237000000.0 44399800000.0 111771000000.0 345372000000.0 470401000000.0 455225000000.0 416891000000.0 355804000000.0 301722000000.0 259304000000.0 206218000000.0 163141000000.0 83288200000.0 39617300000.0 54491700000.0 76994800000.0 158053000000.0 163679000000.0 251413000000.0 244585000000.0 293713000000.0 273358000000.0 488877000000.0 51706300000.0 341138000000.0 110605000000.0 65795200000.0 85521700000.0 18947400000.0 29661000000.0 194998000000.0 291526000000.0 410843000000.0 467582000000.0 485839000000.0 475403000000.0 357953000000.0 247643000000.0 135591000000.0 8853950000.0 138725000000.0 249225000000.0 326237000000.0 290439000000.0 156439000000.0 107744000000.0 114755000000.0 132011000000.0 388905000000.0 506228000000.0 427284000000.0 289831000000.0 188863000000.0 46433300000.0 100723000000.0 187235000000.0 228213000000.0 331098000000.0 344885000000.0 425149000000.0 358983000000.0 308993000000.0 485142000000.0 183132000000.0 96370500000.0 226270000000.0 43232400000.0 255892000000.0 477749000000.0 500372000000.0 435711000000.0 354747000000.0 277501000000.0 234473000000.0 171393000000.0 108929000000.0 6088940000.0 49487100000.0 136258000000.0 280595000000.0 444014000000.0 448509000000.0 445302000000.0 304584000000.0 27152900000.0 344383000000.0 307916000000.0 382115000000.0 217146000000.0 95323600000.0 87976200000.0 231805000000.0 381444000000.0 502315000000.0 544413000000.0 537981000000.0 365476000000.0 229363000000.0 69109400000.0 91231900000.0 209831000000.0 393726000000.0 546547000000.0 345583000000.0 257777000000.0 541894000000.0 275658000000.0 60066400000.0 369240000000.0 609568000000.0 455807000000.0 284982000000.0 137443000000.0 58022300000.0 141690000000.0 155726000000.0 187820000000.0 286321000000.0 380043000000.0 527904000000.0 673787000000.0 594109000000.0 487053000000.0 351442000000.0 467665000000.0 847066000000.0 714695000000.0 489446000000.0 422203000000.0 112357000000.0 194417000000.0 509891000000.0 605482000000.0 541153000000.0 442636000000.0 338065000000.0 230621000000.0 19960500000.0 22763300000.0 171430000000.0 151106000000.0 218323000000.0 476357000000.0 823327000000.0 248888000000.0 816824000000.0 434874000000.0 320147000000.0 267044000000.0 119162000000.0 46439000000.0 148067000000.0 283114000000.0 310422000000.0 712455000000.0 778686000000.0 745077000000.0 154867000000.0 225990000000.0 204307000000.0 99547300000.0 269905000000.0 276004000000.0 527313000000.0 469712000000.0 922893000000.0 447054000000.0 121605000000.0 113699000000.0 291000000000.0 169219000000.0 249307000000.0 24498200000.0 175552000000.0 312580000000.0 542592000000.0 113017000000.0 151449000000.0 230285000000.0 356734000000.0 145589000000.0 72886300000.0 22822400000.0 101770000000.0 133641000000.0 129599000000.0 246890000000.0 214562000000.0 4588800000.0 523462000000.0 726590000000.0 174827000000.0 196180000000.0 311159000000.0 185355000000.0 77082300000.0 159451000000.0 254148000000.0 776742000000.0 728947000000.0 895260000000.0 592711000000.0 282611000000.0 38188800000.0 42193900000.0 31093900000.0 364999000000.0 270355000000.0 931394000000.0 1.46418e+12 283638000000.0 296638000000.0 109676000000.0 594558000000.0 1.51106e+12 568036000000.0 63600500000.0 19652000000.0 518781000000.0 66567700000.0 111330000000.0 63754900000.0 126796000000.0 249683000000.0 10317900000.0 765770000000.0 429157000000.0 373940000000.0 16927100000.0 675035000.0 230182000.0 52437200000.0 326211000000.0 102152000000.0 351044000000.0 809228000000.0 1.47782e+12 298551000000.0 376618000000.0 149069000000.0 86608500000.0 208230000000.0 190459000000.0 397517000000.0 2.00538e+12 869580000000.0 679626000000.0 407466000000.0 382173000000.0 191746000000.0 723495000000.0 13924500000.0 213457000000.0 361579000000.0 324849000000.0 137092000000.0 992046000000.0 317766000000.0 20685100000.0 113879000000.0 539909000000.0 19139500000.0 240793000000.0 740014000000.0 761972000000.0 789834000000.0 319190000000.0 377808000000.0 33695600000.0 125931000000.0 12119100000.0 327765000000.0 312267000000.0 97843600000.0 274846000000.0 951401000000.0 505918000000.0 503320000000.0 51167800000.0 446781000000.0 178444000000.0 27717300000.0 633171000000.0 567543000000.0 199529000000.0 53485900000.0 78090000000.0 348029000000.0 205466000000.0 725426000000.0 921321000000.0 861535000000.0 721679000000.0 1.04701e+12 95398400000.0 405123000000.0 347563000000.0 467877000000.0 345889000000.0 301210000000.0 630894000000.0 484572000000.0 449274000000.0 421571000000.0 1.90167e+12 701611000000.0 641681000000.0 877271000000.0 675793000000.0 506996000000.0 516411000000.0 928493000000.0 19662900000.0 417963000000.0 121487000000.0 154571000000.0 75854500000.0 765799000000.0 373914000000.0 131155000000.0 67675100000.0 999517000000.0 647759000000.0 544731000000.0 746104000000.0 958648000000.0 862672000000.0 545304000000.0 208750000000.0 378704000000.0 734245000000.0 1.15869e+12 896813000000.0 95738500000.0 197875000000.0 79722900000.0 674971000000.0 466094000000.0 359323000000.0 275748000000.0 182666000000.0 755785000000.0 1.39629e+12 1.02999e+12 507074000000.0 780123000000.0 696601000000.0 508945000000.0 1.1362e+12 474417000000.0 33274300000.0 359743000000.0 326665000000.0 201105000000.0 149955000000.0 51564700000.0 1.08188e+12 483287000000.0 737678000000.0 932822000000.0 999581000000.0 986776000000.0 592138000000.0 187881000000.0 141016000000.0 49094100000.0 172924000000.0 247314000000.0 542234000000.0 781586000000.0 96149400000.0 13723900000.0 278214000000.0 898940000000.0 763482000000.0 6885280000.0 137906000000.0 7396560000.0 158266000000.0 679902000000.0 454466000000.0 630653000000.0 788026000000.0 1.1095e+12 827873000000.0 382428000000.0 180204000000.0 194033000000.0 130017000000.0 196797000000.0 565758000000.0 530285000000.0 456136000000.0 494611000000.0 837408000000.0 977658000000.0 852946000000.0 577569000000.0 100341000000.0 413544000000.0 40276600000.0 517408000000.0 820414000000.0 106588000000.0 57911500000.0 18336200000.0 23613900000.0 366680000000.0 434118000000.0 584479000000.0 268085000000.0 1.13718e+12 542421000000.0 270324000000.0 296592000000.0 81076600000.0 567784000000.0 288633000000.0 16572300000.0 323099000000.0 12199100000.0 170955000000.0 125459000000.0 393858000000.0 204746000000.0 400253000000.0 501965000000.0 909220000000.0 664230000000.0 147966000000.0 599143000000.0 27942900000.0 340845000000.0 305817000000.0 341243000000.0 446559000000.0 647452000000.0 815105000000.0 928017000000.0 1.20938e+12 389418000000.0 187072000000.0 372647000000.0 841446000000.0 895518000000.0 673173000000.0 12069700000.0 264495000000.0 11909200000.0 117927000000.0 62747900000.0 262211000000.0 470826000000.0 4179980000.0 1.01721e+12 303423000000.0 861346000000.0 973540000000.0 574279000000.0 299343000000.0 80147900000.0 229705000000.0 699630000000.0 840267000000.0 557895000000.0 578289000000.0 111460000000.0 290693000000.0 562214000000.0 82836700000.0 208530000000.0 311764000000.0 309970000000.0 602174000000.0 727174000000.0 655091000000.0 619418000000.0 966258000000.0 222609000000.0 804949000000.0 456303000000.0 623813000000.0 542524000000.0 158084000000.0 229478000000.0 324814000000.0 349709000000.0 8159150000.0 151561000000.0 166495000000.0 79656100000.0 271600000000.0 331674000000.0 641410000000.0 94820400000.0 1.17228e+12 820520000000.0 667372000000.0 504367000000.0 1.18879e+12 680442000000.0 25968600000.0 474964000000.0 154000000000.0 578325000000.0 101459000000.0 211333000000.0 446969000000.0 615018000000.0 799213000000.0 797325000000.0 783849000000.0 747130000000.0 460149000000.0 795365000000.0 340107000000.0 274259000000.0 246480000000.0 225713000000.0 439693000000.0 684439000000.0 327668000000.0 147624000000.0 940830000000.0 1.00324e+12 353350000000.0 705722000000.0 852509000000.0 279319000000.0 284991000000.0 392645000000.0 306950000000.0 294206000000.0 295429000000.0 6700240000.0 30727000000.0 150445000000.0 137629000000.0 105714000000.0 27977100000.0 32096000000.0 7518850000.0 369586000000.0 830675000000.0 1.02003e+12 409177000000.0 880286000000.0 339241000000.0 440688000000.0 1.08312e+12 990470000000.0 104470000000.0 64214100000.0 421437000000.0 687993000000.0 765984000000.0 630539000000.0 406968000000.0 1.10432e+12 387857000000.0 145751000000.0 277883000000.0 420084000000.0 588147000000.0 608371000000.0 205440000000.0 297222000000.0 883554000000.0 381636000000.0 1.3911e+12 133098000000.0 1.11441e+12 194682000000.0 130500000000.0 661126000000.0 300233000000.0 168251000000.0 222016000000.0 75994100000.0 65964400000.0 112896000000.0 195119000000.0 18072600000.0 179768000000.0 205746000000.0 351900000000.0 245176000000.0 408520000000.0 325430000000.0 675406000000.0 657261000000.0 425818000000.0 446150000000.0 12019000000.0 546575000000.0 645904000000.0 254178000000.0 323964000000.0 522478000000.0 686574000000.0 673105000000.0 525565000000.0 451122000000.0 368357000000.0 494896000000.0 725651000000.0 980054000000.0 626664000000.0 257650000000.0 242147000000.0 528803000000.0 684554000000.0 616455000000.0 272290000000.0 405294000000.0 94386500000.0 576067000000.0 994792000000.0 1.66866e+12 449045000000.0 906522000000.0 492399000000.0 107305000000.0 188233000000.0 63349100000.0 42638500000.0 196583000000.0 208214000000.0 57450200000.0 18415900000.0 273546000000.0 107011000000.0 72961800000.0 435677000000.0 464855000000.0 106133000000.0 393693000000.0 179226000000.0 68141000000.0 528281000000.0 185567000000.0 790781000000.0 1.41356e+12 651471000000.0 657706000000.0 376871000000.0 364534000000.0 399654000000.0 422222000000.0 553760000000.0 536378000000.0 633309000000.0 536022000000.0 399311000000.0 469247000000.0 773472000000.0 345697000000.0 82655500000.0 406369000000.0 411579000000.0 554714000000.0 36924300000.0 276396000000.0 109261000000.0 915425000000.0 301797000000.0 722451000000.0 546116000000.0 505961000000.0 304845000000.0 76115600000.0 106524000000.0 119422000000.0 307367000000.0 44973100000.0 26458600000.0 53218000000.0 494060000000.0 350614000000.0 329287000000.0 195332000000.0 109598000000.0 167112000000.0 405496000000.0 555750000000.0 690218000000.0 322033000000.0 725969000000.0 131701000000.0 287398000000.0 55116800000.0 144072000000.0 251768000000.0 583809000000.0 215868000000.0 414315000000.0 317246000000.0 428789000000.0 485072000000.0 432484000000.0 388262000000.0 624416000000.0 634020000000.0 33051700000.0 942506000000.0 289871000000.0 251154000000.0 367853000000.0 237311000000.0 584168000000.0 255462000000.0 955413000000.0 376359000000.0 161102000000.0 1.19769e+12 611385000000.0 897799000000.0 458138000000.0 584823000000.0 23375500000.0 165475000000.0 129290000000.0 197299000000.0 360174000000.0 329222000000.0 75362700000.0 17718200000.0 39756800000.0 524728000000.0 419026000000.0 233199000000.0 210921000000.0 158796000000.0 184362000000.0 60575300000.0 480971000000.0 155683000000.0 875766000000.0 312568000000.0 116402000000.0 8873400000.0 12227200000.0 62272900000.0 117581000000.0 150742000000.0 425394000000.0 61035800000.0 208522000000.0 331826000000.0 320237000000.0 405487000000.0 376202000000.0 423182000000.0 378965000000.0 383238000000.0 400166000000.0 473527000000.0 530167000000.0 631155000000.0 495739000000.0 475083000000.0 60224600000.0 1.07684e+12 48390800000.0 533181000000.0 653692000000.0 804629000000.0 445891000000.0 375844000000.0 178052000000.0 100888000000.0 243159000000.0 17253400000.0 32617700000.0 1.16483e+12 34708000000.0 206202000000.0 122979000000.0 394023000000.0 354702000000.0 572445000000.0 120325000000.0 110440000000.0 458977000000.0 634440000000.0 640372000000.0 452798000000.0 415350000000.0 262536000000.0 199622000000.0 864483000000.0 483921000000.0 659146000000.0 1.10801e+12 204345000000.0 245312000000.0 139519000000.0 117062000000.0 133607000000.0 138592000000.0 897915000000.0 599141000000.0 180772000000.0 251394000000.0 231872000000.0 317857000000.0 352974000000.0 369151000000.0 434085000000.0 462169000000.0 92987800000.0 55969500000.0 367737000000.0 780070000000.0 859978000000.0 923693000000.0 818461000000.0 611697000000.0 585894000000.0 369688000000.0 224267000000.0 556231000000.0 15155200000.0 437767000000.0 848261000000.0 749518000000.0 106025000000.0 76714900000.0 508254000000.0 423913000000.0 382324000000.0 643573000000.0 114585000000.0 23741800000.0 242524000000.0 344159000000.0 521223000000.0 794666000000.0 297476000000.0 524733000000.0 232632000000.0 411262000000.0 490566000000.0 220094000000.0 1.12313e+12 177116000000.0 225174000000.0 293343000000.0 1.01815e+12 326344000000.0 284982000000.0 250314000000.0 300412000000.0 483747000000.0 809763000000.0 552080000000.0 206940000000.0 124087000000.0 258706000000.0 313081000000.0 343051000000.0 375745000000.0 406889000000.0 215614000000.0 192570000000.0 541310000000.0 602467000000.0 57024900000.0 210727000000.0 68194100000.0 1.07401e+12 1.74074e+12 1.62754e+12 1.08924e+12 349549000000.0 339021000000.0 718388000000.0 948247000000.0 689196000000.0 339684000000.0 519758000000.0 683741000000.0 265282000000.0 756931000000.0 736883000000.0 597164000000.0 252431000000.0 212828000000.0 394946000000.0 76760300000.0 167646000000.0 313750000000.0 532206000000.0 760523000000.0 1.0652e+12 533990000000.0 863486000000.0 1.04777e+12 58773600000.0 902087000000.0 257447000000.0 333559000000.0 745959000000.0 432497000000.0 316349000000.0 213429000000.0 80938600000.0 253247000000.0 695044000000.0 754344000000.0 133355000000.0 4776420000.0 182495000000.0 204001000000.0 226308000000.0 268583000000.0 282757000000.0 313335000000.0 311763000000.0 340202000000.0 324243000000.0 358008000000.0 275124000000.0 260318000000.0 17276100000.0 125817000000.0 485725000000.0 778234000000.0 95860000000.0 272531000000.0 90204800000.0 151110000000.0 232813000000.0 409922000000.0 609451000000.0 519979000000.0 682198000000.0 663339000000.0 31535200000.0 430281000000.0 493368000000.0 928124000000.0 995829000000.0 397919000000.0 1.22893e+12 442277000000.0 851067000000.0 579651000000.0 460415000000.0 95765400000.0 138920000000.0 308493000000.0 17819700000.0 90462600000.0 835686000000.0 1.36211e+12 10373700000.0 1.36697e+12 493244000000.0 661833000000.0 755295000000.0 681239000000.0 386862000000.0 1.10036e+12 929068000000.0 587334000000.0 558359000000.0 664816000000.0 463415000000.0 191262000000.0 137116000000.0 387342000000.0 932605000000.0 690290000000.0 279437000000.0 190501000000.0 259427000000.0 287697000000.0 299947000000.0 273121000000.0 133026000000.0 34791800000.0 821333000000.0 517371000000.0 1.07562e+12 697716000000.0 441712000000.0 310044000000.0 337834000000.0 13122300000.0 263162000000.0 507618000000.0 579132000000.0 338681000000.0 624079000000.0 859450000000.0 126035000000.0 735496000000.0 622917000000.0 522607000000.0 14966800000.0 579747000000.0 1.31522e+12 795641000000.0 28144200000.0 131803000000.0 193464000000.0 1.25155e+12 589701000000.0 482343000000.0 213895000000.0 407275000000.0 337320000000.0 285098000000.0 103026000000.0 145672000000.0 166436000000.0 569398000000.0 626723000000.0 701888000000.0 86699600000.0 696307000000.0 88870200000.0 252363000000.0 56815800000.0 664417000000.0 748247000000.0 618519000000.0 588947000000.0 580561000000.0 428726000000.0 292345000000.0 36759000000.0 115035000000.0 457575000000.0 775115000000.0 719125000000.0 537458000000.0 163318000000.0 251096000000.0 270703000000.0 281413000000.0 266212000000.0 212532000000.0 187942000000.0 129034000000.0 83012800000.0 131753000000.0 235942000000.0 174777000000.0 258918000000.0 350946000000.0 202304000000.0 90789500000.0 276651000000.0 88180300000.0 50171600000.0 96082800000.0 309817000000.0 420735000000.0 351910000000.0 436109000000.0 430688000000.0 162968000000.0 163161000000.0 89833800000.0 750468000000.0 860501000000.0 550618000000.0 26699600000.0 712782000000.0 1.41558e+12 1.2147e+12 154341000000.0 388009000000.0 264877000000.0 341469000000.0 86985100000.0 990414000000.0 675309000000.0 208645000000.0 20109500000.0 125004000000.0 538002000000.0 321313000000.0 33127200000.0 205234000000.0 200557000000.0 349615000000.0 22816100000.0 234519000000.0 211037000000.0 564383000000.0 646264000000.0 593052000000.0 548304000000.0 484507000000.0 342792000000.0 190976000000.0 26357800000.0 495054000000.0 1.01987e+12 341101000000.0 80636600000.0 346300000000.0 273539000000.0 269652000000.0 264270000000.0 274406000000.0 270728000000.0 249110000000.0 256721000000.0 218424000000.0 166113000000.0 111487000000.0 161711000000.0 428980000000.0 775245000000.0 834756000000.0 73515700000.0 142008000000.0 404653000000.0 451164000000.0 251608000000.0 160231000000.0 246716000000.0 330798000000.0 325038000000.0 355680000000.0 330009000000.0 63334900000.0 335996000000.0 428507000000.0 108356000000.0 323151000000.0 282332000000.0 673533000000.0 1.01788e+12 381645000000.0 146600000000.0 232517000000.0 76768600000.0 124623000000.0 211998000000.0 1.03292e+12 882759000000.0 84712400000.0 291943000000.0 618984000000.0 535045000000.0 474629000000.0 383831000000.0 250282000000.0 116750000000.0 28168900000.0 720278000000.0 600164000000.0 264608000000.0 303166000000.0 249798000000.0 215814000000.0 181635000000.0 141283000000.0 92948200000.0 26637700000.0 118437000000.0 347132000000.0 738902000000.0 590517000000.0 574945000000.0 568518000000.0 477646000000.0 343362000000.0 299347000000.0 325777000000.0 161998000000.0 103536000000.0 420509000000.0 356368000000.0 451975000000.0 187756000000.0 334056000000.0 773012000000.0 589338000000.0 129657000000.0 2790080000.0 223178000000.0 108867000000.0 141854000000.0 70321800000.0 446682000000.0 188677000000.0 125357000000.0 360382000000.0 249219000000.0 795920000000.0 171205000000.0 449205000000.0 692876000000.0 783320000000.0 761631000000.0 396809000000.0 343349000000.0 112294000000.0 229749000000.0 143695000000.0 259000000000.0 331868000000.0 518232000000.0 571342000000.0 388923000000.0 285104000000.0 155128000000.0 25978300000.0 95527500000.0 182283000000.0 573774000000.0 738824000000.0 2147710000.0 146055000000.0 372574000000.0 266822000000.0 214510000000.0 212264000000.0 177413000000.0 183331000000.0 159722000000.0 156840000000.0 143463000000.0 133612000000.0 152725000000.0 81898800000.0 676174000000.0 818207000000.0 575959000000.0 248325000000.0 118951000000.0 386642000000.0 464107000000.0 440683000000.0 334702000000.0 343653000000.0 310908000000.0 185895000000.0 201365000000.0 196616000000.0 369443000000.0 416664000000.0 92036400000.0 357044000000.0 455814000000.0 174511000000.0 214423000000.0 371536000000.0 231925000000.0 331954000000.0 340252000000.0 190036000000.0 238597000000.0 152820000000.0 110390000000.0 428957000000.0 657386000000.0 167303000000.0 1.01956e+12 773732000000.0 390251000000.0 656981000000.0 869825000000.0 935733000000.0 782951000000.0 511994000000.0 385244000000.0 226897000000.0 252993000000.0 237538000000.0 313558000000.0 386552000000.0 483858000000.0 504508000000.0 462925000000.0 206470000000.0 94604500000.0 720787000.0 24674500000.0 37183100000.0 723232000000.0 919995000000.0 648597000000.0 507277000000.0 392147000000.0 309576000000.0 227744000000.0 169426000000.0 153408000000.0 146979000000.0 142805000000.0 260735000000.0 545646000000.0 332077000000.0 737160000000.0 582659000000.0 246441000000.0 141162000000.0 246940000000.0 370114000000.0 388643000000.0 366713000000.0 362763000000.0 362705000000.0 340519000000.0 273891000000.0 257998000000.0 269039000000.0 368676000000.0 433005000000.0 343396000000.0 453132000000.0 542904000000.0 460465000000.0 254327000000.0 45374900000.0 503727000000.0 545067000000.0 172647000000.0 126374000000.0 128266000000.0 130987000000.0 275856000000.0 119174000000.0 493580000000.0 433169000000.0 237122000000.0 1.01994e+12 952326000000.0 668626000000.0 289773000000.0 355898000000.0 837252000000.0 941732000000.0 921266000000.0 763757000000.0 556149000000.0 414666000000.0 308308000000.0 301650000000.0 306642000000.0 355627000000.0 405831000000.0 449611000000.0 443516000000.0 391853000000.0 310087000000.0 47687500000.0 37704500000.0 124148000000.0 186756000000.0 678166000000.0 688155000000.0 930563000000.0 531140000000.0 249122000000.0 167841000000.0 135612000000.0 145279000000.0 136859000000.0 112725000000.0 185099000000.0 305244000000.0 958806000000.0 897121000000.0 765854000000.0 405177000000.0 63472900000.0 424244000000.0 430065000000.0 413387000000.0 396111000000.0 386964000000.0 373401000000.0 341159000000.0 323565000000.0 331048000000.0 395254000000.0 457415000000.0 458163000000.0 528557000000.0 595935000000.0 578908000000.0 429408000000.0 381017000000.0 401565000000.0 511173000000.0 28878200000.0 35488900000.0 161470000000.0 191438000000.0 214761000000.0 32510000000.0 423337000000.0 404030000000.0 545475000000.0 636981000000.0 280227000000.0 698423000000.0 831343000000.0 450801000000.0 119216000000.0 667361000000.0 844898000000.0 907877000000.0 861172000000.0 725882000000.0 562905000000.0 441837000000.0 363490000000.0 346617000000.0 352205000000.0 380249000000.0 406694000000.0 417362000000.0 391188000000.0 330386000000.0 245971000000.0 147701000000.0 32601600000.0 83760000000.0 665606000000.0 122574000000.0 688148000000.0 147837000000.0 267121000000.0 209267000000.0 180006000000.0 97396400000.0 114596000000.0 91882500000.0 125339000000.0 134624000000.0 153528000000.0 165212000000.0 68040500000.0 638887000000.0 218662000000.0 106943000000.0 246217000000.0 349831000000.0 405694000000.0 423310000000.0 419353000000.0 412063000000.0 403505000000.0 386991000000.0 378379000000.0 389291000000.0 432176000000.0 485611000000.0 519039000000.0 572735000000.0 620383000000.0 617029000000.0 547916000000.0 791296000000.0 1.22675e+12 897198000000.0 806806000000.0 909412000000.0 83134700000.0 899359000000.0 32272200000.0 72499400000.0 140449000000.0 132345000000.0 331784000000.0 307215000000.0 290932000000.0 647737000000.0 879527000000.0 380672000000.0 118559000000.0 224178000000.0 443084000000.0 674697000000.0 808605000000.0 846553000000.0 798708000000.0 687117000000.0 558717000000.0 458577000000.0 396914000000.0 377758000000.0 380576000000.0 394920000000.0 402907000000.0 391363000000.0 349554000000.0 283092000000.0 202658000000.0 119729000000.0 49568600000.0 6215680000.0 830433000000.0 237221000000.0 311627000000.0 80131000000.0 59334000000.0 99102700000.0 168218000000.0 148699000000.0 121093000000.0 278602000000.0 437575000000.0 81519000000.0 2177720000.0 92104100000.0 189175000000.0 283487000000.0 356882000000.0 401740000000.0 423009000000.0 429109000000.0 427098000000.0 420366000000.0 419325000000.0 556391000000.0 600268000000.0 630059000000.0 611762000000.0 511668000000.0 295222000000.0 84579900000.0 217663000000.0 182537000000.0 473008000000.0 339959000000.0 432453000000.0 710661000000.0 377971000000.0 286127000000.0 382804000000.0 155654000000.0 298326000000.0 125692000000.0 131257000000.0 224158000000.0 7585530000.0 87949800000.0 323181000000.0 511582000000.0 126430000000.0 260792000000.0 494274000000.0 667103000000.0 762326000000.0 784859000000.0 402358000000.0 370753000000.0 317787000000.0 251039000000.0 181041000000.0 121120000000.0 88067100000.0 111874000000.0 211454000000.0 590549000000.0 405586000000.0 7410070000.0 59871900000.0 28732200000.0 142282000000.0 170622000000.0 35533600000.0 207514000000.0 407688000000.0 789266000000.0 595358000000.0 265376000000.0 165901000000.0 195315000000.0 254259000000.0 318336000000.0 373855000000.0 412970000000.0 434546000000.0 433144000000.0 468719000000.0 515470000000.0 636895000000.0 568051000000.0 427869000000.0 205505000000.0 102679000000.0 106854000000.0 452466000000.0 53327500000.0 502756000000.0 458299000000.0 543628000000.0 268335000000.0 121007000000.0 341489000000.0 147781000000.0 196317000000.0 174591000000.0 143594000000.0 159577000000.0 314241000000.0 737281000000.0 1.0587e+12 430069000000.0 195461000000.0 271893000000.0 370446000000.0 533569000000.0 660481000000.0 741864000000.0 652073000000.0 549478000000.0 465433000000.0 414617000000.0 398301000000.0 401785000000.0 409044000000.0 291174000000.0 228597000000.0 171706000000.0 130722000000.0 118143000000.0 134611000000.0 187607000000.0 3101580000.0 325657000000.0 452991000000.0 223230000000.0 169544000000.0 114937000000.0 3252490000.0 11644600000.0 50086000000.0 45110100000.0 65454900000.0 273233000000.0 470857000000.0 451231000000.0 530775000000.0 463183000000.0 166024000000.0 146546000000.0 176470000000.0 194962000000.0 240157000000.0 295113000000.0 442844000000.0 444466000000.0 448982000000.0 464516000000.0 496250000000.0 539195000000.0 582773000000.0 623412000000.0 648604000000.0 542960000000.0 409465000000.0 249926000000.0 220577000000.0 381313000000.0 1.02272e+12 635002000000.0 561439000000.0 309447000000.0 368112000000.0 670402000000.0 581764000000.0 471118000000.0 505424000000.0 680997000000.0 15822500000.0 27331800000.0 99878500000.0 103964000000.0 166042000000.0 343260000000.0 7489490000.0 187357000000.0 504692000000.0 446670000000.0 249569000000.0 80224900000.0 154074000000.0 313945000000.0 445331000000.0 729980000000.0 740262000000.0 698935000000.0 621388000000.0 533716000000.0 460872000000.0 423207000000.0 419838000000.0 430796000000.0 431374000000.0 399855000000.0 350555000000.0 167670000000.0 142661000000.0 142813000000.0 178419000000.0 205145000000.0 394478000000.0 702201000000.0 226271000000.0 305644000000.0 82600300000.0 69630500000.0 23829800000.0 206225000000.0 560226000000.0 141903000000.0 103375000000.0 720477000000.0 404566000000.0 168602000000.0 195121000000.0 207916000000.0 350586000000.0 398380000000.0 433182000000.0 452837000000.0 462181000000.0 470111000000.0 485687000000.0 514878000000.0 555823000000.0 600865000000.0 642430000000.0 670214000000.0 671208000000.0 632601000000.0 335249000000.0 119842000000.0 272601000000.0 1.04054e+12 467627000000.0 160354000000.0 711862000000.0 392738000000.0 564480000000.0 615015000000.0 39654600000.0 12137800000.0 82358600000.0 9432010000.0 26702200000.0 232009000000.0 591295000000.0 896116000000.0 310198000000.0 776537000000.0 540058000000.0 81128400000.0 158324000000.0 201909000000.0 305475000000.0 415163000000.0 569162000000.0 657561000000.0 705705000000.0 710203000000.0 670459000000.0 597062000000.0 513567000000.0 449110000000.0 436739000000.0 462821000000.0 481709000000.0 440205000000.0 384842000000.0 325959000000.0 266894000000.0 211908000000.0 131711000000.0 110616000000.0 76698600000.0 118148000000.0 341332000000.0 315319000000.0 170431000000.0 35626200000.0 159233000000.0 72323100000.0 213216000000.0 263332000000.0 226186000000.0 480588000000.0 172202000000.0 236407000000.0 281658000000.0 332789000000.0 383306000000.0 427843000000.0 461303000000.0 478391000000.0 487473000000.0 500130000000.0 525023000000.0 564326000000.0 611094000000.0 655896000000.0 689845000000.0 700408000000.0 676720000000.0 614212000000.0 506104000000.0 419466000000.0 255748000000.0 65235000000.0 192107000000.0 518785000000.0 246252000000.0 584041000000.0 723425000000.0 423628000000.0 712717000000.0 626470000000.0 15543900000.0 21544300000.0 91735800000.0 73523500000.0 57205700000.0 125428000000.0 49835100000.0 102549000000.0 349776000000.0 486252000000.0 1.19245e+12 997689000000.0 1.00659e+12 662089000000.0 419785000000.0 398572000000.0 516264000000.0 604069000000.0 666978000000.0 701428000000.0 698275000000.0 651433000000.0 570337000000.0 492631000000.0 446929000000.0 493684000000.0 565232000000.0 491580000000.0 418505000000.0 354761000000.0 296605000000.0 243001000000.0 196347000000.0 160815000000.0 139415000000.0 64868600000.0 86831500000.0 478489000000.0 22565700000.0 471572000000.0 241127000000.0 192959000000.0 157377000000.0 4793740000.0 328255000000.0 193990000000.0 117913000000.0 171150000000.0 78789100000.0 128977000000.0 187723000000.0 227704000000.0 269282000000.0 316749000000.0 366975000000.0 416801000000.0 462671000000.0 498457000000.0 509114000000.0 513039000000.0 528987000000.0 565022000000.0 615344000000.0 663500000000.0 701958000000.0 723694000000.0 720089000000.0 684968000000.0 618261000000.0 524003000000.0 535818000000.0 76655200000.0 834207000000.0 218414000000.0 363792000000.0 149888000000.0 787203000000.0 569691000000.0 222029000000.0 38212700000.0 1497710000.0 48837000000.0 41386800000.0 27874900000.0 32776900000.0 172000000000.0 291735000000.0 371804000000.0 611823000000.0 728424000000.0 1.44354e+12 1.02251e+12 286709000000.0 685468000000.0 461938000000.0 444075000000.0 509257000000.0 578135000000.0 637887000000.0 682060000000.0 712111000000.0 699507000000.0 541789000000.0 440809000000.0 372503000000.0 316535000000.0 265658000000.0 219050000000.0 178983000000.0 147769000000.0 125503000000.0 103333000000.0 81003900000.0 33197500000.0 251698000000.0 74728200000.0 418434000000.0 293038000000.0 514269000000.0 177390000000.0 102437000000.0 149512000000.0 177611000000.0 218355000000.0 258274000000.0 301315000000.0 348360000000.0 398189000000.0 449907000000.0 502429000000.0 548066000000.0 738451000000.0 750094000000.0 738637000000.0 702655000000.0 652009000000.0 585572000000.0 524958000000.0 491999000000.0 665430000000.0 110078000000.0 877907000000.0 109205000000.0 939708000000.0 719474000000.0 251906000000.0 109250000000.0 41352500000.0 307690000000.0 435408000000.0 497347000000.0 925964000000.0 607963000000.0 409355000000.0 460792000000.0 461891000000.0 499729000000.0 538041000000.0 575744000000.0 624934000000.0 673835000000.0 629609000000.0 543389000000.0 497726000000.0 524614000000.0 710963000000.0 279760000000.0 236128000000.0 194982000000.0 159087000000.0 129845000000.0 105245000000.0 85224200000.0 64888200000.0 73633300000.0 59221900000.0 202626000000.0 355058000000.0 279532000000.0 200136000000.0 495601000000.0 567056000000.0 118962000000.0 209345000000.0 99888900000.0 350029000000.0 238611000000.0 188292000000.0 197175000000.0 217141000000.0 249467000000.0 286779000000.0 328352000000.0 373871000000.0 540454000000.0 532185000000.0 558506000000.0 612068000000.0 667913000000.0 710568000000.0 755218000000.0 722548000000.0 678911000000.0 634362000000.0 569182000000.0 426185000000.0 218177000000.0 203811000000.0 632406000000.0 253140000000.0 1.13516e+12 647404000000.0 91764400000.0 102971000000.0 273467000000.0 315725000000.0 344345000000.0 377456000000.0 647325000000.0 885489000000.0 239831000000.0 319051000000.0 528239000000.0 571922000000.0 613606000000.0 583424000000.0 717752000000.0 738250000000.0 669920000000.0 580676000000.0 487983000000.0 411457000000.0 711672000000.0 488499000000.0 412118000000.0 365562000000.0 323168000000.0 136233000000.0 107639000000.0 84593500000.0 65452900000.0 54906100000.0 23437200000.0 109027000000.0 86445900000.0 369744000000.0 320343000000.0 400536000000.0 241440000000.0 493897000000.0 320368000000.0 122733000000.0 78277700000.0 128695000000.0 249438000000.0 225683000000.0 210362000000.0 220197000000.0 423357000000.0 478648000000.0 544669000000.0 619825000000.0 564270000000.0 547958000000.0 605753000000.0 664719000000.0 720119000000.0 749481000000.0 764345000000.0 772857000000.0 710970000000.0 663685000000.0 598595000000.0 516894000000.0 190781000000.0 516011000000.0 31460600000.0 560273000000.0 331776000000.0 258034000000.0 695078000000.0 387575000000.0 206518000000.0 281178000000.0 453658000000.0 657374000000.0 898561000000.0 622590000000.0 613933000000.0 653556000000.0 663662000000.0 610523000000.0 660796000000.0 687631000000.0 732823000000.0 665606000000.0 576236000000.0 428212000000.0 254073000000.0 624326000000.0 428945000000.0 357183000000.0 342519000000.0 321086000000.0 288747000000.0 249640000000.0 208770000000.0 170129000000.0 60109000000.0 43632200000.0 22173300000.0 23655400000.0 2747040000.0 15186100000.0 169584000000.0 237253000000.0 426442000000.0 47104200000.0 187814000000.0 34071900000.0 241607000000.0 135386000000.0 31746100000.0 101572000000.0 241454000000.0 272001000000.0 307862000000.0 347461000000.0 389962000000.0 435945000000.0 490248000000.0 570128000000.0 714794000000.0 570212000000.0 590753000000.0 658378000000.0 708862000000.0 768301000000.0 781157000000.0 790892000000.0 778450000000.0 750411000000.0 410393000000.0 133609000000.0 386195000000.0 150709000000.0 69021800000.0 268621000000.0 35451500000.0 563125000000.0 156493000000.0 207545000000.0 156362000000.0 333415000000.0 418206000000.0 995732000000.0 730407000000.0 285126000000.0 507194000000.0 499469000000.0 557874000000.0 600209000000.0 630694000000.0 630074000000.0 680500000000.0 640476000000.0 560010000000.0 406956000000.0 158032000000.0 482793000000.0 363764000000.0 316431000000.0 329103000000.0 324198000000.0 299883000000.0 263272000000.0 221738000000.0 180618000000.0 142847000000.0 109830000000.0 82321100000.0 19184100000.0 12213400000.0 25847400000.0 155554000000.0 68190400000.0 153178000000.0 180468000000.0 196657000000.0 207851000000.0 227566000000.0 253944000000.0 285867000000.0 321087000000.0 357648000000.0 393402000000.0 426693000000.0 458495000000.0 511151000000.0 674262000000.0 453943000000.0 564951000000.0 678249000000.0 701672000000.0 747619000000.0 734436000000.0 753069000000.0 739438000000.0 698861000000.0 641018000000.0 556308000000.0 54621200000.0 414917000000.0 538728000000.0 520438000000.0 33241300000.0 197431000000.0 113244000000.0 107889000000.0 283546000000.0 719329000000.0 1.00859e+12 506460000000.0 193003000000.0 406849000000.0 518400000000.0 619829000000.0 531496000000.0 563204000000.0 612290000000.0 610383000000.0 545193000000.0 355371000000.0 351432000000.0 323536000000.0 282322000000.0 236056000000.0 190587000000.0 148922000000.0 111740000000.0 79213300000.0 51271500000.0 28168100000.0 6103400000.0 18959000000.0 34323400000.0 85200000000.0 63575700000.0 175199000000.0 50612100000.0 85352300000.0 182025000000.0 114838000000.0 26214700000.0 67031800000.0 132833000000.0 169451000000.0 198006000000.0 227549000000.0 259496000000.0 293602000000.0 328359000000.0 361553000000.0 389504000000.0 407887000000.0 414062000000.0 464153000000.0 656712000000.0 689227000000.0 674252000000.0 687322000000.0 665914000000.0 612188000000.0 525809000000.0 397467000000.0 202559000000.0 172168000000.0 421004000000.0 265858000000.0 1744740000.0 129197000000.0 31454300000.0 28771900000.0 25971900000.0 391028000000.0 486931000000.0 304245000000.0 436490000000.0 425413000000.0 367448000000.0 464937000000.0 589272000000.0 465913000000.0 534209000000.0 407010000000.0 128780000000.0 375197000000.0 319441000000.0 293781000000.0 200660000000.0 153767000000.0 112890000000.0 76194200000.0 42632100000.0 11488800000.0 17110900000.0 44043500000.0 59703200000.0 74729300000.0 91368700000.0 138137000000.0 179901000000.0 19027500000.0 107713000000.0 148251000000.0 105726000000.0 38233600000.0 37641500000.0 102281000000.0 149181000000.0 188252000000.0 225125000000.0 261482000000.0 297560000000.0 591457000000.0 352877000000.0 516704000000.0 640568000000.0 612806000000.0 610825000000.0 569218000000.0 503074000000.0 409705000000.0 272993000000.0 136959000000.0 30647300000.0 261624000000.0 119602000000.0 2083340000.0 499451000000.0 34927300000.0 33726800000.0 219094000000.0 184001000000.0 428161000000.0 242864000000.0 228565000000.0 361304000000.0 484988000000.0 516357000000.0 559523000000.0 515214000000.0 395060000000.0 125391000000.0 326084000000.0 388906000000.0 318834000000.0 443677000000.0 412469000000.0 364691000000.0 309429000000.0 253156000000.0 36447400000.0 1140260000.0 39738100000.0 74379400000.0 103484000000.0 130599000000.0 175785000000.0 247750000000.0 169055000000.0 9611550000.0 78501100000.0 30149600000.0 161217000000.0 10892100000.0 102759000000.0 136133000000.0 114095000000.0 54211800000.0 21411200000.0 84483300000.0 332726000000.0 365192000000.0 390032000000.0 401728000000.0 383719000000.0 413933000000.0 493583000000.0 290877000000.0 493321000000.0 594427000000.0 608162000000.0 621226000000.0 393648000000.0 308246000000.0 235378000000.0 78801000000.0 258410000000.0 92520500000.0 501415000000.0 351996000000.0 104586000000.0 87571200000.0 187472000000.0 234606000000.0 113184000000.0 125179000000.0 304897000000.0 404992000000.0 419731000000.0 479093000000.0 462484000000.0 367923000000.0 132303000000.0 253416000000.0 451411000000.0 323992000000.0 409581000000.0 436276000000.0 399120000000.0 335913000000.0 269303000000.0 209529000000.0 157117000000.0 112018000000.0 73731300000.0 174528000000.0 221259000000.0 305685000000.0 422634000000.0 225464000000.0 10648400000.0 15410000000.0 21927800000.0 123498000000.0 2823040000.0 135832000000.0 180721000000.0 222145000000.0 261405000000.0 299423000000.0 337296000000.0 374902000000.0 406646000000.0 431449000000.0 370786000000.0 399738000000.0 423451000000.0 267828000000.0 473513000000.0 538780000000.0 558973000000.0 550318000000.0 547034000000.0 523228000000.0 469347000000.0 471077000000.0 385999000000.0 173993000000.0 100103000000.0 247381000000.0 18847100000.0 75576700000.0 16860600000.0 250258000000.0 421977000000.0 495631000000.0 50400300000.0 451897000000.0 439334000000.0 398407000000.0 403093000000.0 335527000000.0 146852000000.0 158816000000.0 369493000000.0 331302000000.0 296138000000.0 387068000000.0 405040000000.0 350800000000.0 277977000000.0 213974000000.0 158374000000.0 109372000000.0 67987900000.0 34603500000.0 6701380000.0 53553000000.0 103429000000.0 138844000000.0 687551000000.0 299226000000.0 203326000000.0 91889500000.0 44267000000.0 102662000000.0 156502000000.0 133411000000.0 54074200000.0 14733200000.0 74436700000.0 127252000000.0 174947000000.0 218611000000.0 259048000000.0 298904000000.0 341204000000.0 387815000000.0 424237000000.0 457573000000.0 375031000000.0 447445000000.0 358517000000.0 263929000000.0 440757000000.0 477136000000.0 505796000000.0 478007000000.0 472401000000.0 422414000000.0 347176000000.0 271136000000.0 182573000000.0 23712800000.0 462027000000.0 403073000000.0 289863000000.0 150335000000.0 38434000000.0 23985200000.0 37392300000.0 246483000000.0 600302000000.0 276148000000.0 353220000000.0 350510000000.0 377943000000.0 342397000000.0 307783000000.0 85862600000.0 272598000000.0 210840000000.0 157126000000.0 107615000000.0 61558700000.0 24746400000.0 1388780000.0 56138400000.0 121900000000.0 178233000000.0 192364000000.0 259782000000.0 281944000000.0 425448000000.0 71120300000.0 5963260000.0 161063000000.0 208891000000.0 114390000000.0 48515700000.0 10781500000.0 67370600000.0 120691000000.0 169794000000.0 213053000000.0 253535000000.0 294469000000.0 340110000000.0 278606000000.0 414783000000.0 445683000000.0 400519000000.0 377140000000.0 314941000000.0 251468000000.0 159746000000.0 16621900000.0 351557000000.0 354368000000.0 211215000000.0 165016000000.0 5690300000.0 75156700000.0 16942100000.0 4374800000.0 33701100000.0 576177000000.0 33140400000.0 229042000000.0 256747000000.0 288004000000.0 314688000000.0 167646000000.0 281433000000.0 296724000000.0 281910000000.0 278120000000.0 368641000000.0 347216000000.0 13914000000.0 17319900000.0 143033000000.0 212636000000.0 212843000000.0 277017000000.0 293173000000.0 271119000000.0 226013000000.0 248087000000.0 129871000000.0 40552200000.0 71794000000.0 113272000000.0 9647370000.0 106584000000.0 292831000000.0 148260000000.0 101103000000.0 49387500000.0 4610580000.0 59625200000.0 395281000000.0 412972000000.0 387829000000.0 357495000000.0 411283000000.0 266838000000.0 400425000000.0 284319000000.0 210452000000.0 143359000000.0 231907000000.0 209532000000.0 13797000000.0 21236100000.0 9197470000.0 9034440000.0 298443000000.0 503962000000.0 477498000000.0 41980000000.0 137184000000.0 288491000000.0 197924000000.0 32057100000.0 196994000000.0 251122000000.0 254560000000.0 259429000000.0 274403000000.0 335017000000.0 253980000000.0 201429000000.0 154821000000.0 109691000000.0 63123700000.0 17050100000.0 79515500000.0 456494000000.0 188886000000.0 503334000000.0 327097000000.0 321072000000.0 32529000000.0 134010000000.0 45757700000.0 158350000000.0 157331000000.0 114933000000.0 162255000000.0 205201000000.0 245547000000.0 284804000000.0 324218000000.0 372515000000.0 349138000000.0 325476000000.0 332150000000.0 351411000000.0 200363000000.0 269824000000.0 357323000000.0 352780000000.0 373203000000.0 316763000000.0 23824600000.0 327970000000.0 310945000000.0 200387000000.0 152931000000.0 64235600000.0 70045500000.0 21904300000.0 281099000000.0 415428000000.0 425551000000.0 199927000000.0 208976000000.0 257362000000.0 210286000000.0 4816330000.0 110530000000.0 251637000000.0 321767000000.0 371794000000.0 382723000000.0 421391000000.0 350845000000.0 263952000000.0 204380000000.0 153412000000.0 104082000000.0 54805300000.0 7754700000.0 25449500000.0 40921100000.0 328727000000.0 307248000000.0 265558000000.0 54620700000.0 17555800000.0 134849000000.0 341815000000.0 186872000000.0 104135000000.0 48461300000.0 22790700000.0 77634800000.0 145745000000.0 201618000000.0 254957000000.0 304907000000.0 351632000000.0 393031000000.0 431215000000.0 455419000000.0 390901000000.0 334586000000.0 330883000000.0 264432000000.0 138684000000.0 264237000000.0 297473000000.0 281355000000.0 287077000000.0 232703000000.0 181386000000.0 104575000000.0 3289770000.0 245717000000.0 281052000000.0 169529000000.0 184550000000.0 9035640000.0 8995870000.0 72757500000.0 28801100000.0 241854000000.0 297031000000.0 38560000000.0 60595000000.0 181776000000.0 194232000000.0 303795000000.0 28781000000.0 32683700000.0 62388300000.0 123801000000.0 131023000000.0 132068000000.0 153448000000.0 182803000000.0 167062000000.0 119671000000.0 429550000000.0 1058250000.0 196339000000.0 188588000000.0 4514720000.0 4715160000.0 36499000000.0 126616000000.0 76273400000.0 82512700000.0 154602000000.0 388114000000.0 205960000000.0 16151400000.0 111562000000.0 123667000000.0 126207000000.0 150491000000.0 161139000000.0 190615000000.0 193596000000.0 182976000000.0 162319000000.0 137608000000.0 108612000000.0 81820900000.0 170794000000.0 174162000000.0 93567200000.0 230609000000.0 199864000000.0 187631000000.0 183263000000.0 132974000000.0 74393100000.0 27526300000.0 138614000000.0 237375000000.0 142700000000.0 149117000000.0 115789000000.0 37906100000.0 103202000.0 17643300000.0 23825900000.0 51343500000.0 275155000000.0 63716300000.0 30461500000.0 7351440000.0 201361000000.0 225650000000.0 222772000000.0 171530000000.0 164607000000.0 158992000000.0 143632000000.0 112450000000.0 141743000000.0 255648000000.0 106054000000.0 345247000000.0 107456000000.0 87543500000.0 146004000000.0 44994800000.0 45728200000.0 30603500000.0 80497100000.0 66127500000.0 11424500000.0 24212100000.0 116759000000.0 96307400000.0 46729400000.0 97333100000.0 80159400000.0 13829500000.0 19446500000.0 46747600000.0 207311000000.0 268666000000.0 216829000000.0 24467500000.0 221458000000.0 50766300000.0 9663430000.0 28278600000.0 46192800000.0 70432600000.0 51693500000.0 29470300000.0 58502100000.0 114626000000.0 135969000000.0 131202000000.0 121310000000.0 110466000000.0 110262000000.0 105474000000.0 4290140000.0 90623700000.0 178909000000.0 190866000000.0 293489000000.0 170710000000.0 65272600000.0 3534950000.0 56225100000.0 50678000000.0 52235400000.0 46416300000.0 46413800000.0 56783400000.0 80138600000.0 119038000000.0 114033000000.0 91150800000.0 90890900000.0 116096000000.0 150242000000.0 129869000000.0 64933600000.0 182665000000.0 126447000000.0 28952500000.0 101330000000.0 164826000000.0 137606000000.0 296878000.0 5300430000.0 41134400000.0 49269100000.0 89706700000.0 166390000000.0 97660300000.0 91025800000.0 133310000000.0 9902670000.0 66169700000.0 71364600000.0 12440100000.0 33984500000.0 38388400000.0 67263600000.0 105701000000.0 136554000000.0 144957000000.0 97058100000.0 13399000000.0 48851500000.0 68492900000.0 71775400000.0 60859600000.0 39694700000.0 55551100000.0 101368000000.0 169122000000.0 345897000000.0 173601000000.0 296130000000.0 216545000000.0 202519000000.0 218912000000.0 354887000000.0 285640000000.0 150902000000.0 77204800000.0 116980000000.0 95548900000.0 3693020000.0 61651800000.0 210230000000.0 193683000000.0 62802500000.0 105053000000.0 15801900000.0 20911000000.0 1761090000.0 8326620000.0 27152300000.0 59517800000.0 111701000000.0 162517000000.0 170855000000.0 148841000000.0 121135000000.0 120063000000.0 118317000000.0 126638000000.0 96104800000.0 61563800000.0 126533000000.0 76233100000.0 56822300000.0 17291000000.0 51900500000.0 92314200000.0 108286000000.0 129586000000.0 75117900000.0 46576200000.0 13658700000.0 8119400000.0 11611600000.0 50610200000.0 55233400000.0 28527600000.0 12353000000.0 85382800000.0 106389000000.0 158575000000.0 146906000000.0 60960900000.0 4766680000.0 35549500000.0 31622200000.0 106707000000.0 61672700000.0 6933340000.0 52220100000.0 131493000000.0 17816000000.0 8326020000.0 7941220000.0 6941820000.0 73117100000.0 2582810000.0 126219000000.0 106066000000.0 7002790000.0 2300660000.0 54294100000.0 26548800000.0 166648000000.0 64987800000.0 109213000000.0 86091500000.0 28679200000.0 31938400000.0 130214000000.0 352427000000.0 270473000000.0 305415000000.0 205773000000.0 171361000000.0 91970600000.0 56265700000.0 3503120000.0 68062700000.0 122926000000.0 157559000000.0 160949000000.0 108992000000.0 75360200000.0 81915400000.0 77933700000.0 65926300000.0 63542100000.0 33351600000.0 36132200000.0 90334800000.0 26383100000.0 35410700000.0 117365000000.0 57081700000.0 75649500000.0 99473600000.0 21217000000.0 21332300000.0 35778600000.0 30726600000.0 4156110000.0 135531000000.0 145654000000.0 102116000000.0 41685000000.0 109894000000.0 8649260000.0 9035750000.0 9035750000.0 15519800000.0 33009200000.0 98180500000.0 21967500000.0 84983500000.0 90462100000.0 76325400000.0 162537000000.0 110067000000.0 111154000000.0 52239200000.0 45147800000.0 119119000.0 30986500000.0 100895000000.0 118388000000.0 114838000000.0 78700700000.0 7077510000.0 99741700000.0 183285000000.0 268296000000.0 303368000000.0 324422000000.0 335281000000.0 387799000000.0 298435000000.0 200696000000.0 209010000000.0 269837000000.0 282133000000.0 253943000000.0 268963000000.0 323054000000.0 137851000000.0 161100000000.0 34034700000.0 6264450000.0 91904200000.0 61346600000.0 135768000000.0 25898600000.0 93504200000.0 154661000000.0 136898000000.0 162966000000.0 138461000000.0 131856000000.0 90660100000.0 24041600000.0 4435580000.0 17957500000.0 47853300000.0 52724000000.0 29998100000.0 36651800000.0 55366700000.0 88122100000.0 131852000000.0 102281000000.0 67243600000.0 90455000000.0 91530300000.0 61350400000.0 22994900000.0 119205000000.0 79388500000.0 87846200000.0 43606600000.0 59080100000.0 9035750000.0 9035750000.0 9035750000.0 58271400.0 18129100000.0 34451600000.0 28977800000.0 22288900000.0 50449900000.0 542296000.0 64724600000.0 180401000000.0 6107110000.0 7981910000.0 48416700000.0 71359900000.0 105155000000.0 136332000000.0 151792000000.0 94380900000.0 46809800000.0 8011960000.0 12774100000.0 20997900000.0 30677100000.0 52722700000.0 39130400000.0 47347100000.0 61005800000.0 77233000000.0 53938900000.0 17823800000.0 3189480000.0 7885960000.0 22686400000.0 84189300000.0 16199200000.0 20556600000.0 80306000000.0 14719300000.0 72668900000.0 40094800000.0 84509800000.0 3569820000.0 29785200000.0 118655000000.0 81959900000.0 50158200000.0 5857010000.0 1009100000.0 39761600000.0 29927000000.0 70480000000.0 46993500000.0 74702000000.0 65140300000.0 36086900000.0 53831800000.0 101476000000.0 88540800000.0 66927000000.0 40631700000.0 22489900000.0 54281000000.0 67391900000.0 26583000000.0 30747800000.0 50642400000.0 56287800000.0 85670500000.0 27698400000.0 22144400000.0 6484270000.0 4755760000.0 25750600000.0 11468300000.0 2248120000.0 179300000000.0 9035770000.0 9035750000.0 9063140000.0 37680300000.0 73670300000.0 42505100000.0 83342700000.0 127080000000.0 172995000000.0 12931300000.0 30352600000.0 1359000000.0 1603260000.0 2854220000.0 11038300000.0 32925800000.0 74964500000.0 99917900000.0 92561600000.0 62667600000.0 42818500000.0 24937900000.0 14920600000.0 22605600000.0 26049800000.0 25739500000.0 18269400000.0 41643000000.0 78467900000.0 154566000000.0 35722000000.0 44919900000.0 19152500.0 102919000000.0 1751690000.0 19600700000.0 85872000000.0 3439240000.0 74331300000.0 46763900000.0 122983000000.0 66067000000.0 136783000000.0 5015490000.0 3791860000.0 11366100000.0 2612020000.0 15858300000.0 12254100000.0 1219840000.0 40777400000.0 46923900000.0 94633100000.0 88375100000.0 78588200000.0 52141500000.0 25340200000.0 31721500000.0 49064600000.0 74383700000.0 88555000000.0 65098700000.0 40996000000.0 73498300000.0 56499000000.0 18860800000.0 4717110000.0 122349000000.0 85924000000.0 75836200000.0 56327600000.0 45564700000.0 9174470000.0 9035770000.0 9038910000.0 8418370000.0 7155570000.0 5929050000.0 35076000000.0 64910300000.0 49833600000.0 72590500000.0 120077000000.0 163658000000.0 7979610000.0 47522300000.0 14676700000.0 2729280000.0 381793000.0 6721000000.0 25391200000.0 48152300000.0 71436200000.0 78692800000.0 75934900000.0 83329200000.0 78574600000.0 84110200000.0 60264600000.0 64680200000.0 67963200000.0 75869900000.0 61463000000.0 10894500000.0 21550600000.0 32200000000.0 5452990000.0 102746000000.0 3443010000.0 43016200000.0 79951300000.0 172504000.0 64954700000.0 36106200000.0 103668000000.0 39703700000.0 99635800000.0 6671010000.0 3131430000.0 3513090000.0 26805100000.0 18644500000.0 52002700000.0 42509000000.0 61116200000.0 63372400000.0 98113800000.0 79500200000.0 75822900000.0 50710100000.0 24283600000.0 28665800000.0 44641700000.0 62524500000.0 65455000000.0 46893700000.0 25643300000.0 59273400000.0 40638300000.0 8623580000.0 11197500000.0 109093000000.0 75752700000.0 65004600000.0 56021600000.0 37514600000.0 7487860000.0 7904270000.0 8673940000.0 201886000000.0 9059790000.0 9043790000.0 9102610000.0 39105300000.0 70431500000.0 61469400000.0 67151700000.0 108847000000.0 136129000000.0 7137200000.0 47075500000.0 21331900000.0 7997380000.0 8571450000.0 20451400000.0 40943600000.0 52936200000.0 69387900000.0 76187100000.0 75533500000.0 85791500000.0 74869600000.0 75698900000.0 49611700000.0 51931100000.0 47561800000.0 52900700000.0 37441200000.0 12931900000.0 192870000000.0 47792600000.0 59825400000.0 8323480000.0 108206000000.0 8676580000.0 49256500000.0 78287200000.0 10104300000.0 67496300000.0 41794000000.0 105700000000.0 49985200000.0 97203200000.0 11965400000.0 9035750000.0 12332000000.0 31418500000.0 21346700000.0 53807900000.0 43413700000.0 57600200000.0 55855100000.0 83168300000.0 76102300000.0 86503500000.0 66333300000.0 41961700000.0 43160300000.0 56347900000.0 67389800000.0 62730200000.0 46843000000.0 26390800000.0 60004300000.0 38577700000.0 9222030000.0 13953300000.0 94822800000.0 69031300000.0 60640000000.0 59066600000.0 35096400000.0 9632600000.0 9044290000.0 9063680000.0 8992310000.0 8831230000.0 8756950000.0 37115100000.0 69976700000.0 114616000000.0 9105030000.0 45546900000.0 25733200000.0 8850940000.0 8960230000.0 21595400000.0 40751400000.0 46064400000.0 93423500000.0 83973000000.0 87112800000.0 64908900000.0 69492200000.0 62918500000.0 68974700000.0 57477100000.0 10788200000.0 35180400000.0 55064000000.0 6970830000.0 102373000000.0 10503200000.0 68816200000.0 60941400000.0 35515300000.0 92621300000.0 42593900000.0 78332600000.0 11983300000.0 9035750000.0 12723700000.0 30272300000.0 21963300000.0 55207200000.0 45192400000.0 60937500000.0 58107000000.0 79571400000.0 75676000000.0 87548500000.0 69309900000.0 46891600000.0 45798200000.0 56078200000.0 61166100000.0 52200100000.0 39075500000.0 21288100000.0 55213600000.0 33219300000.0 9178840000.0 15855800000.0 54219700000.0 56722600000.0 29969000000.0 9437730000.0 8843440000.0 9011620000.0 65524900000.0 58624500000.0 98004000000.0 58828300000.0 70614200000.0 77768300000.0 186197000000.0 53507100000.0 11206800000.0 82512600000.0 61090600000.0 9084970000.0 9058130000.0 9200460000.0 35548900000.0 69149300000.0 68411700000.0 51951600000.0 87564100000.0 94055900000.0 9178720000.0 41448300000.0 27905400000.0 9076870000.0 9424540000.0 22479500000.0 40089700000.0 42702600000.0 51556800000.0 65365600000.0 76718000000.0 92095100000.0 82633500000.0 85624600000.0 64589300000.0 69276500000.0 58639900000.0 64545200000.0 54140800000.0 10817700000.0 175441000000.0 45237100000.0 64271800000.0 9092620000.0 94672500000.0 11448500000.0 55865000000.0 60028600000.0 11302800000.0 54956300000.0 31479700000.0 82423600000.0 40114000000.0 65608800000.0 13026900000.0 9035750000.0 13008300000.0 27897500000.0 21023600000.0 53850900000.0 44132300000.0 61474700000.0 58446100000.0 77819300000.0 74817100000.0 86614100000.0 70784300000.0 50721500000.0 47677000000.0 54908600000.0 55132000000.0 44215400000.0 32948100000.0 17776500000.0 50013800000.0 28446300000.0 9224610000.0 16372500000.0 72484200000.0 55539000000.0 50645400000.0 54326900000.0 26607800000.0 10014200000.0 9057730000.0 9086490000.0 9093660000.0 9063100000.0 9238830000.0 32802900000.0 65794800000.0 76359000000.0 9238330000.0 36991200000.0 67493800000.0 59527400000.0 15305400000.0 43271600000.0 9196500000.0 12110100000.0 51259000000.0 49141000000.0 71324900000.0 36923100000.0 54659700000.0 13298400000.0 9035750000.0 13174900000.0 25084500000.0 19658400000.0 51265900000.0 42033900000.0 60439600000.0 57438300000.0 75473000000.0 24218200000.0 9270410000.0 16040100000.0 50363600000.0 23201800000.0 10145800000.0 9062490000.0 9094380000.0 68200700000.0 45664600000.0 77701300000.0 29114000000.0 9101480000.0 9527350000.0 22302100000.0 37902100000.0 40455300000.0 45828400000.0 60615500000.0 74570000000.0 88717100000.0 79786500000.0 82657400000.0 62941900000.0 53964500000.0 50701500000.0 161958000000.0 63593700000.0 86708000000.0 56069100000.0 11329700000.0 27120000000.0 72607800000.0 83714800000.0 69923100000.0 52240300000.0 47689700000.0 52126700000.0 48717900000.0 37666700000.0 27780100000.0 15459200000.0 44606700000.0 64097800000.0 50569400000.0 47505300000.0 9099520000.0 9066810000.0 9265950000.0 29771200000.0 61205500000.0 66049600000.0 40408100000.0 68782000000.0 61440200000.0 9282800000.0 32574700000.0 29479300000.0 9121760000.0 9600650000.0 21743100000.0 35167500000.0 38760800000.0 41616500000.0 56659600000.0 71303700000.0 84028000000.0 75747400000.0 78427800000.0 60146000000.0 64408800000.0 49129100000.0 54243900000.0 47130700000.0 16892400000.0 145766000000.0 40382300000.0 61691400000.0 9288420000.0 78694400000.0 12427000000.0 54684400000.0 43291400000.0 11299200000.0 44205600000.0 23814800000.0 61439100000.0 34348700000.0 46167000000.0 13411400000.0 9035750000.0 13216200000.0 22219900000.0 18107400000.0 47811600000.0 39221700000.0 58064100000.0 55182900000.0 71877700000.0 69113200000.0 79382200000.0 67446700000.0 52091400000.0 46479100000.0 48506100000.0 42636000000.0 32546500000.0 23648100000.0 14159000000.0 39283500000.0 20623000000.0 9302990000.0 15191500000.0 57200400000.0 46402100000.0 44544700000.0 45920900000.0 20337600000.0 10230200000.0 9065890000.0 9099770000.0 17874700000.0 37012200000.0 9349610000.0 12446800000.0 36402800000.0 39561500000.0 9035750000.0 19543600000.0 43802500000.0 9102550000.0 9069090000.0 9281500000.0 26677600000.0 55833000000.0 62360600000.0 36046300000.0 60760300000.0 49105000000.0 9311640000.0 28445700000.0 29074500000.0 9136500000.0 9643870000.0 20914400000.0 32173000000.0 36764800000.0 38285000000.0 52965900000.0 66880000000.0 78258000000.0 70681700000.0 73136200000.0 56428700000.0 60290800000.0 44297900000.0 48909700000.0 43421000000.0 129737000000.0 58710400000.0 70697000000.0 52029900000.0 11223000000.0 39919100000.0 21320900000.0 52955000000.0 31926200000.0 13371200000.0 13131700000.0 16543600000.0 35972400000.0 54618300000.0 51927500000.0 67180300000.0 64565300000.0 73902500000.0 63652300000.0 50499100000.0 44261700000.0 44332500000.0 37081100000.0 28544900000.0 20445600000.0 13574900000.0 34264800000.0 17702600000.0 9321510000.0 14117000000.0 51382800000.0 42714000000.0 41298300000.0 41312200000.0 17977400000.0 10265800000.0 9067830000.0 9102530000.0 9102810000.0 9069740000.0 9285530000.0 23688800000.0 50042400000.0 57520900000.0 32356100000.0 53505700000.0 39107200000.0 9324770000.0 24733800000.0 27989800000.0 9144890000.0 9657290000.0 19886300000.0 29115700000.0 34273500000.0 35439600000.0 49134300000.0 61569600000.0 71621800000.0 64782700000.0 66978400000.0 51973000000.0 55384800000.0 39574300000.0 43657200000.0 39582300000.0 18358300000.0 113946000000.0 33466900000.0 54747200000.0 9380390000.0 62780700000.0 12233700000.0 48440900000.0 30612700000.0 11105000000.0 36028500000.0 19427100000.0 45748900000.0 29379100000.0 34247100000.0 13192200000.0 9035750000.0 12927800000.0 17179900000.0 15077200000.0 39493800000.0 32507100000.0 50355700000.0 47906900000.0 61613400000.0 59198300000.0 67536200000.0 58824300000.0 47714100000.0 41261600000.0 39862000000.0 32132300000.0 25352900000.0 18016800000.0 13299700000.0 29688700000.0 15418200000.0 9326250000.0 13018800000.0 46251600000.0 39228000000.0 37718000000.0 36750100000.0 16060800000.0 10252700000.0 9068310000.0 9102610000.0 9100360000.0 9068820000.0 9278370000.0 20914600000.0 44102800000.0 51871600000.0 29098700000.0 46845600000.0 31164600000.0 9322580000.0 21487700000.0 26340200000.0 9146760000.0 9641840000.0 18709300000.0 26102900000.0 31360900000.0 32670300000.0 44878600000.0 55577000000.0 64295700000.0 58239700000.0 60152800000.0 46953000000.0 49893500000.0 35012700000.0 38556500000.0 35635500000.0 18297700000.0 98579900000.0 29911500000.0 49950100000.0 9387360000.0 55013600000.0 11847400000.0 44174100000.0 25790300000.0 10943500000.0 32331300000.0 17900400000.0 39550100000.0 26670900000.0 29727800000.0 12889000000.0 9035750000.0 12615800000.0 15176300000.0 13768400000.0 35080000000.0 28991800000.0 45499700000.0 43329600000.0 55394700000.0 53222800000.0 60511800000.0 53211500000.0 43978100000.0 37677400000.0 35303000000.0 27789000000.0 22701700000.0 16171800000.0 13041800000.0 25619600000.0 13677900000.0 9317810000.0 12019800000.0 41479700000.0 35740100000.0 33914700000.0 32362000000.0 14515400000.0 10193000000.0 9067350000.0 9100020000.0 9095310000.0 9066450000.0 9260660000.0 18415600000.0 38198700000.0 45690200000.0 26062300000.0 40607100000.0 24970500000.0 9305870000.0 18702400000.0 24250600000.0 9142270000.0 9599220000.0 17416500000.0 23188700000.0 28157800000.0 29693800000.0 40135000000.0 49064600000.0 56437400000.0 51216200000.0 52834600000.0 41527900000.0 43984400000.0 30631100000.0 33632800000.0 31605600000.0 17719200000.0 83715100000.0 26419100000.0 44496400000.0 9372640000.0 47437300000.0 11360100000.0 39406600000.0 21788200000.0 10738300000.0 28718300000.0 16540400000.0 34073700000.0 23873800000.0 25716600000.0 12477000000.0 9035750000.0 12210000000.0 13534700000.0 12642700000.0 30697600000.0 25539700000.0 40236400000.0 38371100000.0 48710600000.0 46818000000.0 53022200000.0 47026100000.0 39510800000.0 33678100000.0 30806000000.0 23995800000.0 20380500000.0 14724100000.0 12682700000.0 22062100000.0 12372800000.0 9297110000.0 11178300000.0 36817700000.0 32116600000.0 30008300000.0 28208300000.0 13266300000.0 10090200000.0 9065050000.0 9094910000.0 9087890000.0 9062760000.0 9233400000.0 16210100000.0 32444600000.0 39185700000.0 23087000000.0 34640100000.0 20213600000.0 9275920000.0 16336700000.0 21833000000.0 9131820000.0 9532000000.0 16027500000.0 20392700000.0 24775200000.0 26402700000.0 34962000000.0 42163000000.0 48181800000.0 43845700000.0 45165700000.0 35827000000.0 37797100000.0 26421900000.0 28880200000.0 27516700000.0 16704700000.0 69324000000.0 23023200000.0 38551400000.0 9338430000.0 40061500000.0 10845000000.0 34266400000.0 18481800000.0 10490900000.0 25133400000.0 15218700000.0 29082100000.0 21063200000.0 22088900000.0 11971900000.0 9035750000.0 11726200000.0 12227500000.0 11700100000.0 26428700000.0 22216100000.0 34712100000.0 33169900000.0 41712100000.0 40128100000.0 45222100000.0 40441300000.0 34502400000.0 29399700000.0 26459600000.0 20666100000.0 18236400000.0 13520200000.0 12200500000.0 18979100000.0 11397300000.0 9265350000.0 10508700000.0 32091000000.0 28285700000.0 26083800000.0 24300600000.0 12242600000.0 9949740000.0 9061500000.0 9087490000.0 9078420000.0 9057930000.0 9197900000.0 14281700000.0 26894600000.0 32503200000.0 20073400000.0 28825900000.0 16593700000.0 9234490000.0 14327100000.0 19176600000.0 9116110000.0 9443550000.0 14555200000.0 17711500000.0 21292500000.0 22810900000.0 29453600000.0 34977900000.0 39640500000.0 36233000000.0 37254900000.0 29946900000.0 31441300000.0 22362300000.0 24274900000.0 23390200000.0 15339300000.0 55345900000.0 19737100000.0 32248400000.0 9287850000.0 32874800000.0 10356100000.0 28852600000.0 15755000000.0 10205100000.0 21546500000.0 13878500000.0 24393000000.0 18285500000.0 18786300000.0 11390600000.0 9035750000.0 11180900000.0 11207700000.0 10922200000.0 22309800000.0 19046900000.0 29034600000.0 27828200000.0 34514100000.0 33262100000.0 37228200000.0 33591500000.0 29109500000.0 24945900000.0 22298000000.0 17703100000.0 16167700000.0 12450700000.0 11607600000.0 16307400000.0 10660300000.0 9224070000.0 9999500000.0 27200400000.0 24230600000.0 22188000000.0 20619900000.0 11382400000.0 9777610000.0 9056890000.0 9078070000.0 9067270000.0 9052180000.0 9155750000.0 12588600000.0 21552100000.0 25735800000.0 16974600000.0 23081400000.0 13828600000.0 9183720000.0 12598400000.0 16350500000.0 9096050000.0 9337900000.0 13012100000.0 15127800000.0 17760700000.0 18982000000.0 23701400000.0 27594100000.0 30902900000.0 28457900000.0 29183200000.0 23955300000.0 24994100000.0 18421500000.0 19784600000.0 19242900000.0 13702900000.0 41703300000.0 16555400000.0 25692000000.0 9224260000.0 25850800000.0 9919330000.0 23243700000.0 13486600000.0 9887740000.0 17943700000.0 12505500000.0 19873800000.0 15558400000.0 15756900000.0 10750000000.0 9035750000.0 10590000000.0 10417100000.0 10279100000.0 18341700000.0 16027100000.0 23277000000.0 22414800000.0 27198200000.0 26296100000.0 29122200000.0 26575100000.0 23456100000.0 20389800000.0 18314800000.0 15012900000.0 14115700000.0 11444700000.0 10926000000.0 13966400000.0 10088000000.0 9175100000.0 9623990000.0 22115900000.0 19977300000.0 18337400000.0 17128100000.0 10634500000.0 9580480000.0 9051400000.0 9067010000.0 9054900000.0 9045750000.0 9108730000.0 11071900000.0 16381400000.0 18936300000.0 13783300000.0 17357500000.0 11655400000.0 9126070000.0 11070400000.0 13411000000.0 9072740000.0 9219630000.0 11413900000.0 12616800000.0 14209200000.0 14989200000.0 17785300000.0 20079600000.0 22038400000.0 20580100000.0 21009800000.0 17897900000.0 18503200000.0 14565100000.0 15374700000.0 15085800000.0 11873800000.0 28303100000.0 13457400000.0 18966600000.0 9151130000.0 18950700000.0 9535530000.0 17502900000.0 11547800000.0 9548410000.0 14322400000.0 11103500000.0 15436600000.0 12879500000.0 12935800000.0 10067300000.0 9035750000.0 9968050000.0 9791400000.0 9734560000.0 14498200000.0 13128600000.0 17483000000.0 16970200000.0 19817700000.0 19278300000.0 20956100000.0 19460800000.0 17637700000.0 15779400000.0 14475400000.0 12508700000.0 12054100000.0 10460800000.0 10180200000.0 11865400000.0 9621740000.0 9120490000.0 9346650000.0 16859300000.0 15575600000.0 14529000000.0 13776300000.0 9958070000.0 9365350000.0 9045270000.0 9054740000.0 9041790000.0 9038900000.0 9058760000.0 9662960000.0 11320600000.0 12127700000.0 10522800000.0 11633200000.0 9826450000.0 9064260000.0 9661580000.0 10406600000.0 9047450000.0 9093730000.0 9780750000.0 10150000000.0 10651300000.0 10901700000.0 11774600000.0 12489500000.0 13101000000.0 12644500000.0 12778700000.0 11805200000.0 11993000000.0 10757900000.0 11010800000.0 10924800000.0 9930710000.0 15041200000.0 10411900000.0 12143600000.0 9072200000.0 12125400000.0 9188910000.0 11685000000.0 9804840000.0 9196740000.0 10687000000.0 9682550000.0 11031400000.0 10233100000.0 10243300000.0 9359670000.0 9035750000.0 9328210000.0 9263920000.0 9249220000.0 10734900000.0 10307500000.0 11674200000.0 11513900000.0 12404600000.0 12235600000.0 12759900000.0 12294600000.0 11728400000.0 11143200000.0 10726900000.0 10111300000.0 9978670000.0 9480370000.0 9395960000.0 9907740000.0 9213960000.0 9062460000.0 9128080000.0 11486800000.0 11084200000.0 10748400000.0 10509000000.0 9320520000.0 9139460000.0 9038750000.0 9041740000.0 