# vtk DataFile Version 2.0
Time step 72
ASCII
DATASET UNSTRUCTURED_GRID
POINTS 4650 float
209235.0 338228.0 0
290602.0 338488.0 0
201998.0 341320.0 0
205820.0 340277.0 0
211989.0 341088.0 0
215403.0 339051.0 0
222786.0 340689.0 0
236076.0 340589.0 0
243070.0 340478.0 0
248094.0 338857.0 0
252079.0 338977.0 0
256946.0 340840.0 0
263586.0 340821.0 0
276852.0 341240.0 0
284299.0 339313.0 0
287765.0 341293.0 0
294108.0 340401.0 0
298000.0 341284.0 0
204769.0 344185.0 0
208586.0 343113.0 0
215441.0 343034.0 0
218855.0 341021.0 0
226085.0 342835.0 0
232683.0 342702.0 0
239600.0 342471.0 0
246520.0 342497.0 0
253434.0 342703.0 0
260273.0 343011.0 0
266913.0 342988.0 0
273420.0 343263.0 0
280831.0 341308.0 0
284267.0 343294.0 0
291267.0 343207.0 0
295110.0 344264.0 0
201995.0 347007.0 0
212049.0 345052.0 0
218870.0 344981.0 0
222769.0 345017.0 0
229386.0 344915.0 0
236194.0 344556.0 0
243063.0 344445.0 0
249931.0 344542.0 0
256774.0 344834.0 0
263580.0 345158.0 0
270057.0 345364.0 0
276884.0 345218.0 0
280831.0 345304.0 0
287689.0 345255.0 0
298002.0 346981.0 0
205341.0 349025.0 0
208673.0 347047.0 0
215481.0 346994.0 0
226079.0 347093.0 0
232852.0 346692.0 0
239654.0 346445.0 0
243071.0 348398.0 0
246481.0 346459.0 0
249837.0 348521.0 0
253280.0 346665.0 0
256576.0 348800.0 0
260082.0 347006.0 0
266737.0 347474.0 0
273480.0 347255.0 0
284258.0 347274.0 0
291115.0 347165.0 0
294577.0 348994.0 0
201991.0 351003.0 0
208734.0 350995.0 0
212105.0 349001.0 0
215536.0 350924.0 0
218914.0 348900.0 0
222781.0 349254.0 0
226257.0 351068.0 0
229537.0 348880.0 0
232974.0 350647.0 0
236293.0 348518.0 0
239700.0 350392.0 0
246437.0 350416.0 0
253133.0 350634.0 0
259784.0 350989.0 0
263281.0 349297.0 0
266505.0 351504.0 0
269984.0 349607.0 0
273497.0 351189.0 0
276922.0 349171.0 0
280842.0 349293.0 0
284263.0 351247.0 0
287684.0 349210.0 0
291122.0 351096.0 0
298004.0 350938.0 0
205360.0 352983.0 0
212148.0 352924.0 0
218997.0 352778.0 0
222997.0 353218.0 0
229711.0 352838.0 0
236371.0 352455.0 0
243067.0 352331.0 0
249740.0 352492.0 0
256359.0 352779.0 0
262873.0 353295.0 0
269693.0 353811.0 0
276870.0 353077.0 0
280844.0 353275.0 0
287706.0 353149.0 0
294569.0 352933.0 0
201992.0 354969.0 0
208753.0 354912.0 0
215581.0 354813.0 0
220561.0 356225.0 0
226547.0 355047.0 0
233101.0 354585.0 0
239723.0 354311.0 0
243037.0 356228.0 0
246382.0 354365.0 0
249630.0 356461.0 0
252980.0 354611.0 0
255829.0 357171.0 0
259320.0 355219.0 0
266072.0 355435.0 0
273387.0 355087.0 0
278526.0 356481.0 0
284315.0 355201.0 0
291150.0 355007.0 0
298005.0 354842.0 0
201995.0 358924.0 0
205368.0 356926.0 0
208776.0 358797.0 0
212170.0 356810.0 0
217271.0 358211.0 0
224001.0 357915.0 0
230696.0 357569.0 0
236428.0 356377.0 0
239706.0 358203.0 0
246293.0 358306.0 0
252358.0 359135.0 0
259081.0 359185.0 0
262563.0 357265.0 0
268786.0 358102.0 0
275201.0 358450.0 0
281870.0 358245.0 0
287778.0 357078.0 0
291197.0 358923.0 0
294580.0 356810.0 0
298008.0 358700.0 0
205439.0 360868.0 0
213936.0 360166.0 0
220727.0 360037.0 0
227446.0 359642.0 0
230886.0 361480.0 0
234192.0 359461.0 0
237672.0 361380.0 0
242943.0 360063.0 0
248890.0 361066.0 0
255601.0 361136.0 0
261820.0 361814.0 0
265277.0 359944.0 0
268411.0 362079.0 0
271862.0 360298.0 0
278511.0 360399.0 0
285268.0 360024.0 0
294611.0 360613.0 0
201994.0 362854.0 0
205397.0 364755.0 0
210554.0 362144.0 0
214093.0 363961.0 0
217409.0 362020.0 0
220867.0 363841.0 0
224174.0 361781.0 0
227591.0 363541.0 0
234325.0 363332.0 0
241147.0 363333.0 0
245382.0 362903.0 0
248567.0 364996.0 0
252100.0 363097.0 0
258398.0 363680.0 0
264957.0 363918.0 0
271582.0 364197.0 0
275092.0 362372.0 0
278397.0 364321.0 0
281900.0 362116.0 0
285298.0 363882.0 0
288693.0 361885.0 0
294579.0 364292.0 0
298011.0 362529.0 0
201997.0 366820.0 0
210829.0 365910.0 0
217568.0 365822.0 0
224290.0 365617.0 0
230995.0 365341.0 0
237760.0 365208.0 0
241189.0 367115.0 0
245006.0 366761.0 0
254993.0 365506.0 0
261506.0 365785.0 0
268096.0 366020.0 0
274756.0 366254.0 0
281877.0 365923.0 0
290281.0 365394.0 0
298004.0 366339.0 0
207619.0 367857.0 0
211140.0 369717.0 0
214321.0 367773.0 0
217748.0 369648.0 0
220995.0 367651.0 0
227683.0 367385.0 0
231058.0 369165.0 0
234387.0 367156.0 0
237756.0 368987.0 0
248147.0 368948.0 0
251580.0 367256.0 0
254563.0 369518.0 0
258045.0 367655.0 0
261156.0 369731.0 0
264625.0 367869.0 0
267741.0 369945.0 0
271238.0 368099.0 0
277978.0 368179.0 0
283388.0 369264.0 0
286737.0 367292.0 0
289973.0 369228.0 0
293506.0 367684.0 0
201976.0 372885.0 0
204412.0 369945.0 0
208038.0 371663.0 0
214570.0 371625.0 0
221136.0 371477.0 0
224508.0 373254.0 0
224389.0 369437.0 0
227762.0 371202.0 0
234409.0 370958.0 0
241070.0 370849.0 0
244770.0 370719.0 0
251066.0 371378.0 0
257687.0 371594.0 0
264260.0 371801.0 0
270847.0 372002.0 0
274376.0 370139.0 0
276839.0 372862.0 0
280132.0 371140.0 0
286603.0 371148.0 0
293224.0 371278.0 0
296797.0 369894.0 0
297977.0 373487.0 0
200929.0 376704.0 0
204019.0 377334.0 0
205392.0 374021.0 0
211470.0 373587.0 0
217943.0 373509.0 0
221304.0 375316.0 0
227868.0 375009.0 0
231117.0 372972.0 0
237726.0 372766.0 0
241068.0 374511.0 0
247609.0 373269.0 0
254223.0 373460.0 0
260799.0 373663.0 0
267341.0 373863.0 0
273504.0 374522.0 0
279912.0 374986.0 0
283279.0 373121.0 0
289860.0 373000.0 0
293932.0 374728.0 0
296451.0 377167.0 0
299511.0 376977.0 0
194730.0 380592.0 0
197812.0 378663.0 0
200990.0 379941.0 0
208663.0 375819.0 0
211940.0 377720.0 0
214832.0 375535.0 0
218186.0 377404.0 0
224664.0 377069.0 0
231212.0 376773.0 0
234547.0 378545.0 0
234450.0 374757.0 0
237786.0 376531.0 0
244541.0 375691.0 0
247678.0 377675.0 0
250793.0 375349.0 0
253961.0 377409.0 0
257360.0 375526.0 0
260450.0 377602.0 0
263873.0 375733.0 0
266774.0 377944.0 0
270140.0 376202.0 0
276512.0 376722.0 0
283087.0 376921.0 0
286520.0 374955.0 0
287520.0 378366.0 0
290569.0 376486.0 0
299172.0 380071.0 0
302449.0 378827.0 0
305421.0 380687.0 0
191661.0 382510.0 0
197869.0 382013.0 0
201009.0 383374.0 0
204031.0 381101.0 0
206948.0 378923.0 0
209851.0 380585.0 0
215236.0 379571.0 0
221537.0 379168.0 0
224864.0 380895.0 0
228006.0 378810.0 0
231338.0 380563.0 0
237881.0 380300.0 0
241141.0 378217.0 0
244421.0 379788.0 0
250828.0 379627.0 0
257075.0 379473.0 0
263429.0 379744.0 0
269721.0 380107.0 0
273107.0 378396.0 0
276100.0 380557.0 0
279590.0 378793.0 0
284607.0 380132.0 0
290427.0 380428.0 0
293398.0 378653.0 0
296104.0 381005.0 0
299049.0 383427.0 0
302231.0 382116.0 0
308427.0 382565.0 0
188604.0 384421.0 0
191675.0 385918.0 0
194765.0 383978.0 0
197900.0 385414.0 0
204082.0 384817.0 0
207001.0 382753.0 0
212810.0 382201.0 0
218544.0 381341.0 0
221827.0 383057.0 0
228178.0 382612.0 0
234659.0 382329.0 0
241180.0 382018.0 0
244368.0 383767.0 0
247578.0 381668.0 0
253931.0 381632.0 0
260107.0 381578.0 0
266387.0 381892.0 0
272672.0 382242.0 0
278614.0 383083.0 0
281664.0 381685.0 0
287475.0 382265.0 0
293156.0 382621.0 0
295985.0 384776.0 0
302146.0 385472.0 0
305301.0 384043.0 0
308370.0 385957.0 0
311448.0 384453.0 0
179579.0 390062.0 0
185568.0 386318.0 0
188611.0 387851.0 0
194774.0 387386.0 0
201034.0 386868.0 0
204149.0 388470.0 0
209998.0 384447.0 0
213041.0 386096.0 0
215856.0 383769.0 0
218964.0 385357.0 0
225089.0 384738.0 0
231482.0 384352.0 0
234750.0 386137.0 0
237944.0 384104.0 0
241153.0 385896.0 0
247484.0 385674.0 0
250689.0 383622.0 0
253752.0 385652.0 0
256973.0 383692.0 0
259972.0 385779.0 0
263098.0 383719.0 0
266078.0 385850.0 0
269337.0 384009.0 0
275444.0 384506.0 0
281375.0 385527.0 0
284460.0 383985.0 0
287232.0 386191.0 0
290225.0 384410.0 0
295920.0 388470.0 0
299008.0 386894.0 0
305265.0 387427.0 0
311423.0 387874.0 0
314465.0 386339.0 0
320435.0 390070.0 0
176590.0 391928.0 0
182561.0 388199.0 0
185593.0 389773.0 0
191668.0 389353.0 0
194746.0 390821.0 0
197894.0 388842.0 0
201033.0 390356.0 0
207126.0 386556.0 0
210164.0 388301.0 0
216123.0 387706.0 0
222115.0 386982.0 0
225301.0 388581.0 0
228353.0 386411.0 0
231599.0 388150.0 0
237951.0 387963.0 0
244282.0 387742.0 0
250560.0 387659.0 0
256786.0 387728.0 0
262960.0 387849.0 0
269038.0 387943.0 0
272228.0 386144.0 0
275107.0 388369.0 0
278250.0 386923.0 0
284152.0 387860.0 0
290010.0 388342.0 0
292997.0 386530.0 0
299021.0 390375.0 0
302146.0 388876.0 0
305295.0 390847.0 0
308367.0 389379.0 0
314431.0 389789.0 0
317460.0 388212.0 0
323420.0 391934.0 0
173567.0 393815.0 0
179662.0 393496.0 0
182624.0 391670.0 0
188619.0 391327.0 0
191652.0 392834.0 0
197849.0 392282.0 0
204183.0 392056.0 0
207228.0 390351.0 0
213238.0 389985.0 0
216392.0 391622.0 0
219241.0 389317.0 0
222383.0 390897.0 0
228493.0 390201.0 0
234778.0 389984.0 0
241080.0 389821.0 0
244168.0 391718.0 0
247365.0 389676.0 0
250431.0 391669.0 0
253612.0 389694.0 0
256672.0 391739.0 0
259823.0 389798.0 0
265954.0 389887.0 0
271997.0 390014.0 0
277929.0 390752.0 0
281029.0 389397.0 0
283723.0 391751.0 0
286935.0 390093.0 0
292879.0 390379.0 0
295891.0 392071.0 0
302204.0 392303.0 0
308385.0 392853.0 0
311410.0 391345.0 0
317393.0 391681.0 0
320350.0 393502.0 0
326441.0 393819.0 0
170506.0 395726.0 0
173579.0 397156.0 0
176651.0 395308.0 0
179744.0 396944.0 0
185641.0 393289.0 0
188647.0 394868.0 0
194700.0 394291.0 0
197771.0 395731.0 0
200984.0 393807.0 0
204169.0 395536.0 0
210270.0 392151.0 0
213388.0 393825.0 0
219646.0 393275.0 0
225495.0 392427.0 0
231630.0 391964.0 0
234662.0 393871.0 0
237876.0 391868.0 0
240952.0 393763.0 0
247244.0 393667.0 0
253505.0 393689.0 0
259759.0 393787.0 0
262880.0 391851.0 0
265986.0 393876.0 0
268968.0 391897.0 0
274951.0 392204.0 0
280365.0 393375.0 0
286707.0 393905.0 0
289851.0 392213.0 0
295914.0 395538.0 0
299085.0 393820.0 0
302285.0 395748.0 0
305346.0 394310.0 0
311382.0 394885.0 0
314382.0 393304.0 0
320269.0 396947.0 0
323360.0 395309.0 0
326432.0 397157.0 0
329502.0 395731.0 0
164318.0 399593.0 0
167417.0 397656.0 0
170468.0 399057.0 0
176683.0 398674.0 0
179815.0 400371.0 0
182707.0 395200.0 0
185709.0 396875.0 0
191665.0 396376.0 0
194712.0 397819.0 0
200866.0 397205.0 0
204007.0 398776.0 0
207277.0 394175.0 0
210339.0 395982.0 0
216598.0 395443.0 0
222994.0 395027.0 0
226406.0 396913.0 0
228518.0 393994.0 0
231392.0 395794.0 0
237697.0 395782.0 0
244036.0 395682.0 0
250326.0 395657.0 0
256602.0 395720.0 0
262903.0 395814.0 0
269232.0 395810.0 0
272059.0 393848.0 0
273512.0 397134.0 0
276948.0 395188.0 0
283444.0 395513.0 0
289741.0 396032.0 0
292811.0 394221.0 0
296058.0 398762.0 0
299200.0 397216.0 0
305331.0 397837.0 0
308371.0 396394.0 0
314315.0 396891.0 0
317309.0 395212.0 0
320201.0 400368.0 0
323331.0 398671.0 0
329543.0 399059.0 0
332590.0 397660.0 0
335688.0 399597.0 0
161228.0 401526.0 0
167352.0 400996.0 0
170404.0 402401.0 0
173550.0 400490.0 0
176674.0 402003.0 0
182799.0 398797.0 0
185789.0 400529.0 0
188709.0 398472.0 0
191753.0 399969.0 0
197788.0 399235.0 0
200896.0 400649.0 0
207281.0 398053.0 0
213521.0 397612.0 0
216743.0 399226.0 0
219859.0 397095.0 0
223123.0 398836.0 0
234349.0 397733.0 0
240788.0 397686.0 0
243900.0 399621.0 0
247128.0 397639.0 0
250233.0 399627.0 0
253425.0 397667.0 0
256559.0 399674.0 0
259746.0 397738.0 0
266178.0 397762.0 0
276898.0 398946.0 0
280159.0 397163.0 0
283305.0 399267.0 0
286537.0 397657.0 0
292783.0 398099.0 0
299153.0 400657.0 0
302261.0 399252.0 0
308281.0 399987.0 0
311320.0 398490.0 0
314237.0 400547.0 0
317218.0 398813.0 0
323350.0 401994.0 0
326467.0 400488.0 0
329609.0 402402.0 0
332657.0 400999.0 0
338777.0 401529.0 0
158141.0 403457.0 0
161205.0 404904.0 0
164271.0 402955.0 0
167335.0 404379.0 0
173468.0 403818.0 0
176543.0 405268.0 0
179860.0 403710.0 0
182889.0 402480.0 0
188818.0 402114.0 0
191949.0 403575.0 0
194853.0 401394.0 0
197996.0 402791.0 0
204159.0 401922.0 0
207483.0 401999.0 0
210444.0 399775.0 0
213659.0 401376.0 0
219936.0 400905.0 0
226357.0 400656.0 0
229256.0 402734.0 0
230699.0 399374.0 0
234008.0 401448.0 0
237468.0 399640.0 0
240622.0 401573.0 0
247021.0 401590.0 0
253361.0 401624.0 0
259757.0 401639.0 0
262986.0 399695.0 0
266385.0 401500.0 0
269746.0 399441.0 0
270826.0 402903.0 0
273708.0 400824.0 0
280122.0 400959.0 0
286397.0 401403.0 0
289614.0 399807.0 0
292571.0 402031.0 0
295886.0 401900.0 0
302039.0 402805.0 0
305183.0 401412.0 0
308079.0 403591.0 0
311209.0 402131.0 0
317135.0 402505.0 0
320175.0 403690.0 0
323481.0 405262.0 0
326550.0 403817.0 0
332673.0 404382.0 0
335735.0 402958.0 0
338798.0 404907.0 0
341862.0 403458.0 0
151936.0 407336.0 0
155048.0 405390.0 0
158134.0 406841.0 0
164296.0 406358.0 0
170414.0 405802.0 0
173513.0 407220.0 0
179644.0 406774.0 0
182901.0 406285.0 0
185876.0 404234.0 0
189043.0 405741.0 0
195132.0 404980.0 0
201221.0 404101.0 0
204545.0 405147.0 0
210650.0 403566.0 0
216831.0 403027.0 0
219915.0 404767.0 0
223062.0 402669.0 0
226014.0 404587.0 0
232179.0 404630.0 0
237274.0 403447.0 0
243777.0 403537.0 0
250153.0 403578.0 0
256528.0 403598.0 0
263051.0 403507.0 0
267937.0 404789.0 0
274096.0 404710.0 0
277027.0 402763.0 0
280177.0 404822.0 0
283236.0 403061.0 0
289404.0 403585.0 0
295489.0 405128.0 0
298811.0 404104.0 0
304897.0 404996.0 0
310976.0 405756.0 0
314146.0 404252.0 0
317110.0 406317.0 0
320375.0 406745.0 0
326494.0 407223.0 0
329594.0 405805.0 0
335709.0 406361.0 0
341867.0 406843.0 0
344953.0 405391.0 0
348065.0 407336.0 0
148792.0 409300.0 0
155043.0 408768.0 0
161251.0 408310.0 0
164400.0 409793.0 0
167410.0 407807.0 0
170556.0 409248.0 0
176660.0 408632.0 0
180053.0 409776.0 0
186123.0 407898.0 0
192277.0 407186.0 0
195541.0 408568.0 0
198365.0 406337.0 0
201632.0 407571.0 0
207738.0 405870.0 0
210838.0 407354.0 0
213800.0 405173.0 0
216851.0 406892.0 0
222879.0 406617.0 0
228951.0 406578.0 0
235129.0 406450.0 0
240492.0 405439.0 0
246927.0 405524.0 0
250083.0 407515.0 0
253305.0 405564.0 0
259755.0 405506.0 0
265019.0 406579.0 0
271175.0 406707.0 0
277235.0 406699.0 0
283234.0 406931.0 0
286265.0 405197.0 0
289219.0 407369.0 0
292309.0 405884.0 0
298405.0 407570.0 0
301666.0 406348.0 0
304483.0 408584.0 0
307744.0 407201.0 0
313883.0 407913.0 0
319930.0 409748.0 0
323337.0 408627.0 0
329445.0 409251.0 0
332593.0 407811.0 0
335602.0 409794.0 0
338751.0 408312.0 0
344957.0 408768.0 0
351207.0 409299.0 0
145606.0 411291.0 0
148741.0 412640.0 0
151917.0 410700.0 0
155082.0 412151.0 0
158185.0 410243.0 0
161363.0 411734.0 0
167583.0 411257.0 0
170820.0 412697.0 0
173761.0 410651.0 0
177118.0 411925.0 0
183323.0 410137.0 0
186595.0 411590.0 0
189415.0 409355.0 0
192736.0 410816.0 0
198826.0 409921.0 0
204845.0 408588.0 0
207914.0 409626.0 0
213849.0 409026.0 0
219795.0 408711.0 0
225802.0 408542.0 0
228757.0 410474.0 0
231929.0 408473.0 0
234925.0 410322.0 0
238101.0 408265.0 0
241093.0 410098.0 0
243679.0 407441.0 0
246848.0 409449.0 0
253252.0 409497.0 0
256491.0 407504.0 0
259066.0 410118.0 0
262063.0 408343.0 0
265205.0 410417.0 0
268206.0 408594.0 0
271368.0 410575.0 0
274323.0 408641.0 0
280311.0 408767.0 0
286228.0 409055.0 0
292142.0 409623.0 0
295208.0 408576.0 0
301205.0 409934.0 0
307277.0 410834.0 0
310593.0 409373.0 0
313405.0 411602.0 0
316668.0 410160.0 0
322869.0 411914.0 0
326233.0 410649.0 0
329178.0 412695.0 0
332418.0 411258.0 0
338639.0 411736.0 0
341816.0 410245.0 0
344918.0 412152.0 0
348083.0 410700.0 0
351258.0 412639.0 0
354393.0 411291.0 0
139137.0 415338.0 0
142381.0 413308.0 0
145518.0 414630.0 0
151929.0 414062.0 0
158285.0 413656.0 0
161524.0 415164.0 0
164576.0 413244.0 0
167831.0 414705.0 0
174145.0 414027.0 0
180555.0 412977.0 0
183809.0 413859.0 0
189898.0 412977.0 0
196076.0 412175.0 0
199477.0 413615.0 0
202042.0 411192.0 0
205095.0 412220.0 0
210872.0 411144.0 0
213676.0 412933.0 0
216737.0 410826.0 0
219592.0 412676.0 0
222696.0 410590.0 0
225618.0 412492.0 0
231747.0 412358.0 0
237933.0 412164.0 0
244107.0 411956.0 0
250013.0 411441.0 0
256031.0 411923.0 0
262178.0 412219.0 0
268366.0 412446.0 0
274497.0 412571.0 0
277420.0 410662.0 0
280510.0 412729.0 0
283359.0 410869.0 0
286415.0 412968.0 0
289200.0 411165.0 0
294962.0 412200.0 0
298003.0 411197.0 0
300542.0 413636.0 0
303941.0 412197.0 0
310105.0 413001.0 0
316193.0 413873.0 0
319445.0 412968.0 0
325848.0 414019.0 0
332171.0 414703.0 0
335426.0 413246.0 0
338477.0 415167.0 0
341715.0 413658.0 0
348069.0 414062.0 0
354481.0 414629.0 0
357618.0 413307.0 0
360862.0 415338.0 0
135897.0 417367.0 0
142269.0 416679.0 0
148722.0 415965.0 0
151979.0 417422.0 0
155158.0 415532.0 0
158423.0 417076.0 0
164802.0 416710.0 0
171149.0 416136.0 0
174507.0 417418.0 0
177545.0 415237.0 0
180917.0 416412.0 0
184217.0 417456.0 0
187090.0 415309.0 0
190385.0 416563.0 0
193248.0 414481.0 0
196591.0 415733.0 0
202912.0 415034.0 0
207920.0 413357.0 0
210550.0 414952.0 0
216447.0 414764.0 0
222483.0 414547.0 0
228580.0 414388.0 0
234758.0 414217.0 0
240953.0 414019.0 0
247141.0 413842.0 0
252945.0 413728.0 0
259129.0 414031.0 0
265334.0 414278.0 0
271523.0 414461.0 0
277619.0 414607.0 0
283637.0 414804.0 0
289542.0 414991.0 0
292152.0 413348.0 0
297099.0 415041.0 0
303428.0 415760.0 0
306763.0 414506.0 0
309616.0 416598.0 0
312916.0 415310.0 0
315791.0 417473.0 0
319088.0 416407.0 0
322453.0 415232.0 0
325490.0 417406.0 0
328851.0 416126.0 0
335200.0 416712.0 0
341577.0 417079.0 0
344841.0 415534.0 0
348020.0 417423.0 0
351276.0 415965.0 0
357730.0 416678.0 0
364102.0 417367.0 0
132676.0 419384.0 0
139027.0 418766.0 0
142212.0 420062.0 0
145469.0 417959.0 0
148743.0 419266.0 0
155266.0 418904.0 0
161716.0 418587.0 0
165042.0 420207.0 0
168115.0 418149.0 0
171480.0 419619.0 0
177903.0 418623.0 0
187532.0 419095.0 0
193801.0 418241.0 0
200040.0 417268.0 0
206293.0 416575.0 0
209589.0 418456.0 0
213196.0 416819.0 0
219312.0 416600.0 0
225412.0 416425.0 0
228387.0 418297.0 0
231578.0 416260.0 0
234599.0 418125.0 0
237783.0 416076.0 0
240819.0 417949.0 0
243983.0 415897.0 0
246978.0 417847.0 0
250067.0 415893.0 0
253094.0 417866.0 0
256058.0 415867.0 0
259221.0 417941.0 0
262283.0 416103.0 0
265460.0 418156.0 0
268505.0 416317.0 0
271689.0 418346.0 0
274680.0 416484.0 0
277862.0 418518.0 0
280774.0 416649.0 0
286871.0 416851.0 0
290447.0 418507.0 0
293714.0 416591.0 0
299973.0 417285.0 0
306224.0 418277.0 0
312477.0 419066.0 0
322093.0 418626.0 0
328524.0 419596.0 0
331888.0 418145.0 0
334958.0 420211.0 0
338284.0 418591.0 0
344733.0 418907.0 0
351255.0 419266.0 0
354529.0 417958.0 0
357787.0 420060.0 0
360972.0 418766.0 0
367323.0 419384.0 0
126267.0 423393.0 0
129475.0 421388.0 0
132649.0 422924.0 0
135818.0 420859.0 0
138988.0 422234.0 0
145468.0 421274.0 0
148809.0 422524.0 0
152062.0 420791.0 0
155380.0 422260.0 0
158576.0 420513.0 0
161905.0 421988.0 0
168380.0 421581.0 0
174871.0 420843.0 0
178373.0 422019.0 0
181284.0 419962.0 0
184538.0 420904.0 0
190828.0 419949.0 0
193200.0 422293.0 0
197162.0 419163.0 0
200339.0 421169.0 0
203212.0 418869.0 0
206344.0 420300.0 0
212631.0 420527.0 0
216050.0 418603.0 0
218966.0 420470.0 0
222218.0 418470.0 0
225172.0 420328.0 0
231396.0 420164.0 0
237638.0 419995.0 0
243851.0 419860.0 0
250025.0 419840.0 0
256197.0 419850.0 0
262400.0 420000.0 0
268659.0 420194.0 0
274896.0 420369.0 0
281096.0 420516.0 0
284015.0 418647.0 0
287414.0 420571.0 0
293686.0 420328.0 0
296794.0 418868.0 0
299648.0 421180.0 0
302856.0 419187.0 0
306723.0 422243.0 0
309205.0 420033.0 0
315421.0 420941.0 0
318710.0 419963.0 0
321649.0 422035.0 0
325133.0 420827.0 0
331623.0 421581.0 0
338091.0 421993.0 0
341421.0 420519.0 0
344618.0 422262.0 0
347937.0 420793.0 0
351190.0 422524.0 0
354531.0 421273.0 0
361010.0 422234.0 0
364181.0 420860.0 0
367350.0 422925.0 0
370524.0 421387.0 0
373732.0 423392.0 0
123015.0 425424.0 0
129487.0 424929.0 0
135832.0 424416.0 0
142208.0 423457.0 0
145502.0 424560.0 0
152172.0 424210.0 0
155488.0 425578.0 0
158694.0 424004.0 0
161989.0 425296.0 0
165255.0 423790.0 0
168679.0 424919.0 0
171806.0 423184.0 0
175186.0 424224.0 0
181909.0 423684.0 0
189045.0 422802.0 0
196733.0 422314.0 0
202677.0 424042.0 0
209423.0 422308.0 0
215597.0 422352.0 0
221924.0 422360.0 0
228164.0 422190.0 0
234432.0 422033.0 0
240686.0 421888.0 0
246909.0 421808.0 0
253129.0 421811.0 0
259346.0 421878.0 0
265604.0 422042.0 0
271886.0 422217.0 0
278131.0 422401.0 0
284446.0 422398.0 0
290606.0 422359.0 0
297336.0 424067.0 0
303217.0 422343.0 0
311121.0 422803.0 0
318134.0 423683.0 0
324829.0 424217.0 0
328198.0 423140.0 0
331294.0 424930.0 0
334732.0 423796.0 0
338003.0 425297.0 0
341303.0 424009.0 0
344509.0 425580.0 0
347828.0 424212.0 0
354496.0 424558.0 0
357790.0 423456.0 0
364167.0 424417.0 0
370511.0 424929.0 0
376983.0 425422.0 0
119698.0 427494.0 0
126257.0 426897.0 0
132731.0 426525.0 0
136004.0 428060.0 0
139032.0 425756.0 0
142269.0 426869.0 0
145532.0 427813.0 0
148881.0 425692.0 0
152130.0 427750.0 0
158862.0 427665.0 0
165822.0 427469.0 0
169382.0 427994.0 0
172639.0 426886.0 0
178532.0 425221.0 0
180771.0 427350.0 0
185669.0 423816.0 0
187960.0 426412.0 0
191542.0 425649.0 0
195244.0 425463.0 0
199078.0 424854.0 0
206204.0 423843.0 0
208886.0 426439.0 0
212231.0 424489.0 0
215405.0 426007.0 0
218667.0 424306.0 0
221592.0 426278.0 0
224890.0 424202.0 0
227922.0 426055.0 0
231197.0 424057.0 0
234251.0 425937.0 0
237487.0 423916.0 0
240564.0 425816.0 0
243757.0 423806.0 0
246862.0 425745.0 0
250013.0 423774.0 0
253157.0 425741.0 0
256271.0 423796.0 0
259454.0 425802.0 0
262538.0 423909.0 0
265770.0 425930.0 0
268837.0 424066.0 0
272108.0 426063.0 0
275155.0 424227.0 0
278442.0 426317.0 0
281371.0 424351.0 0
284617.0 426049.0 0
287794.0 424539.0 0
291141.0 426461.0 0
293824.0 423865.0 0
300918.0 424881.0 0
304764.0 425462.0 0
308476.0 425578.0 0
312030.0 426434.0 0
314460.0 423930.0 0
319155.0 427328.0 0
321501.0 425295.0 0
327429.0 426831.0 0
330639.0 428023.0 0
334170.0 427474.0 0
341131.0 427665.0 0
347866.0 427756.0 0
351116.0 425692.0 0
354466.0 427811.0 0
357729.0 426867.0 0
360967.0 425755.0 0
363993.0 428061.0 0
367267.0 426527.0 0
373741.0 426897.0 0
380300.0 427493.0 0
112972.0 431699.0 0
116344.0 429590.0 0
119547.0 430952.0 0
122910.0 428886.0 0
126138.0 430358.0 0
129547.0 428475.0 0
132909.0 430159.0 0
139349.0 429361.0 0
142776.0 430351.0 0
148786.0 428704.0 0
155467.0 428603.0 0
162416.0 428314.0 0
171579.0 430623.0 0
176205.0 427668.0 0
178811.0 430301.0 0
184184.0 426845.0 0
193749.0 428750.0 0
197544.0 428278.0 0
201313.0 427694.0 0
205002.0 427191.0 0
211034.0 429542.0 0
218363.0 428272.0 0
224592.0 428018.0 0
230976.0 427938.0 0
237330.0 427827.0 0
243674.0 427733.0 0
250005.0 427697.0 0
256337.0 427719.0 0
262683.0 427810.0 0
269044.0 427930.0 0
275431.0 428027.0 0
281656.0 428323.0 0
288982.0 429560.0 0
295014.0 427216.0 0
298696.0 427720.0 0
302468.0 428289.0 0
306264.0 428729.0 0
315778.0 426955.0 0
321183.0 430256.0 0
323892.0 427679.0 0
328391.0 430606.0 0
337574.0 428317.0 0
344520.0 428601.0 0
351214.0 428700.0 0
357217.0 430349.0 0
360646.0 429360.0 0
367087.0 430162.0 0
370450.0 428476.0 0
373859.0 430358.0 0
377088.0 428885.0 0
380451.0 430950.0 0
383654.0 429589.0 0
387027.0 431698.0 0
109596.0 433811.0 0
116168.0 433056.0 0
122766.0 432359.0 0
129345.0 431925.0 0
136456.0 431735.0 0
140173.0 432951.0 0
146300.0 431159.0 0
150062.0 431432.0 0
153436.0 431278.0 0
157201.0 431267.0 0
160585.0 431120.0 0
164327.0 431045.0 0
167774.0 430886.0 0
173441.0 433853.0 0
175062.0 430712.0 0
182661.0 430229.0 0
186365.0 429731.0 0
190110.0 429225.0 0
195970.0 431695.0 0
199751.0 431192.0 0
203514.0 430683.0 0
207301.0 430066.0 0
214699.0 429417.0 0
220695.0 431163.0 0
227653.0 429896.0 0
234048.0 429829.0 0
240446.0 429727.0 0
246819.0 429664.0 0
253185.0 429657.0 0
259560.0 429706.0 0
265963.0 429808.0 0
272364.0 429889.0 0
279321.0 431224.0 0
285324.0 429446.0 0
292711.0 430089.0 0
296494.0 430707.0 0
300257.0 431209.0 0
304038.0 431697.0 0
309871.0 429219.0 0
313595.0 429795.0 0
317335.0 430277.0 0
324909.0 430746.0 0
326544.0 433858.0 0
332212.0 430902.0 0
335658.0 431050.0 0
339400.0 431124.0 0
342784.0 431269.0 0
346545.0 431279.0 0
349921.0 431422.0 0
353690.0 431157.0 0
359818.0 432948.0 0
363537.0 431736.0 0
370652.0 431927.0 0
377231.0 432358.0 0
383830.0 433055.0 0
390403.0 433810.0 0
106218.0 435924.0 0
112802.0 435195.0 0
116021.0 436569.0 0
119378.0 434431.0 0
122596.0 435843.0 0
125996.0 433856.0 0
132388.0 433600.0 0
135358.0 435101.0 0
143944.0 433716.0 0
147775.0 434210.0 0
151529.0 434449.0 0
155179.0 434347.0 0
158832.0 434374.0 0
162461.0 434205.0 0
166123.0 434151.0 0
169795.0 433892.0 0
177197.0 433615.0 0
180913.0 433358.0 0
184736.0 433094.0 0
188489.0 432640.0 0
192226.0 432196.0 0
201913.0 434175.0 0
205707.0 433643.0 0
209472.0 433137.0 0
213226.0 432786.0 0
217091.0 432244.0 0
219749.0 435006.0 0
224232.0 431710.0 0
227262.0 433723.0 0
230705.0 431808.0 0
233839.0 433694.0 0
237171.0 431718.0 0
240334.0 433619.0 0
243597.0 431641.0 0
246780.0 433568.0 0
249999.0 431608.0 0
253214.0 433558.0 0
256402.0 431623.0 0
259662.0 433589.0 0
262832.0 431689.0 0
266165.0 433657.0 0
269307.0 431785.0 0
272756.0 433703.0 0
275782.0 431702.0 0
280295.0 435063.0 0
282922.0 432261.0 0
286782.0 432811.0 0
290531.0 433159.0 0
294295.0 433665.0 0
298088.0 434194.0 0
307764.0 432199.0 0
311482.0 432670.0 0
315251.0 433128.0 0
319087.0 433366.0 0
322777.0 433614.0 0
330184.0 433890.0 0
333861.0 434159.0 0
337524.0 434211.0 0
341153.0 434378.0 0
344804.0 434349.0 0
348457.0 434445.0 0
352211.0 434204.0 0
356044.0 433713.0 0
364639.0 435103.0 0
367610.0 433605.0 0
374001.0 433857.0 0
377401.0 435842.0 0
380620.0 434429.0 0
383978.0 436568.0 0
387197.0 435195.0 0
393782.0 435924.0 0
102839.0 438039.0 0
106099.0 439469.0 0
109448.0 437332.0 0
112694.0 438744.0 0
119248.0 437952.0 0
125803.0 437353.0 0
129198.0 435543.0 0
132455.0 437314.0 0
138522.0 436022.0 0
141961.0 436483.0 0
145644.0 436982.0 0
149408.0 437342.0 0
153178.0 437483.0 0
156870.0 437484.0 0
160589.0 437437.0 0
164273.0 437330.0 0
168001.0 437185.0 0
171691.0 437046.0 0
179214.0 436639.0 0
182990.0 436354.0 0
186801.0 436024.0 0
190576.0 435609.0 0
194351.0 435151.0 0
198128.0 434664.0 0
204054.0 437176.0 0
207853.0 436691.0 0
211664.0 436256.0 0
215563.0 435783.0 0
223663.0 435450.0 0
230428.0 435631.0 0
237027.0 435586.0 0
243525.0 435534.0 0
249994.0 435505.0 0
256465.0 435510.0 0
262969.0 435543.0 0
269582.0 435589.0 0
276367.0 435432.0 0
284425.0 435806.0 0
288327.0 436280.0 0
292139.0 436713.0 0
295940.0 437195.0 0
301871.0 434677.0 0
305639.0 435164.0 0
309405.0 435631.0 0
313182.0 436047.0 0
316999.0 436371.0 0
320773.0 436651.0 0
328293.0 437051.0 0
331979.0 437188.0 0
335708.0 437337.0 0
339395.0 437443.0 0
343113.0 437486.0 0
346807.0 437481.0 0
350579.0 437337.0 0
354344.0 436976.0 0
358028.0 436478.0 0
361471.0 436016.0 0
367540.0 437322.0 0
370799.0 435547.0 0
374194.0 437354.0 0
380750.0 437950.0 0
387305.0 438742.0 0
390551.0 437330.0 0
393900.0 439468.0 0
397161.0 438040.0 0
96074.9 442276.0 0
99448.5 440163.0 0
102744.0 441615.0 0
109383.0 440893.0 0
115939.0 440140.0 0
122486.0 439364.0 0
125754.0 440890.0 0
128955.0 439093.0 0
131906.0 440752.0 0
136038.0 438745.0 0
139823.0 439457.0 0
143545.0 439872.0 0
147295.0 440247.0 0
151081.0 440489.0 0
154855.0 440600.0 0
158611.0 440594.0 0
162366.0 440538.0 0
166118.0 440417.0 0
169870.0 440288.0 0
175453.0 436864.0 0
185038.0 439353.0 0
188853.0 439002.0 0
192656.0 438588.0 0
196453.0 438136.0 0
200250.0 437665.0 0
209962.0 439781.0 0
213786.0 439329.0 0
217599.0 438912.0 0
221389.0 438523.0 0
226912.0 437499.0 0
233675.0 437526.0 0
240234.0 437497.0 0
246745.0 437460.0 0
253241.0 437446.0 0
259756.0 437457.0 0
266326.0 437469.0 0
273104.0 437459.0 0
278579.0 438550.0 0
282372.0 438938.0 0
286188.0 439353.0 0
290017.0 439803.0 0
299743.0 437683.0 0
303536.0 438154.0 0
307328.0 438609.0 0
311130.0 439024.0 0
314947.0 439372.0 0
324531.0 436867.0 0
330111.0 440293.0 0
333862.0 440423.0 0
337616.0 440545.0 0
341371.0 440598.0 0
345129.0 440599.0 0
348907.0 440486.0 0
352693.0 440242.0 0
356442.0 439866.0 0
360164.0 439449.0 0
363949.0 438744.0 0
368099.0 440760.0 0
371044.0 439098.0 0
374243.0 440890.0 0
377511.0 439362.0 0
384059.0 440138.0 0
390615.0 440891.0 0
397258.0 441616.0 0
400551.0 440162.0 0
403918.0 442272.0 0
92685.5 444400.0 0
99392.4 443791.0 0
106081.0 443054.0 0
109452.0 444500.0 0
112683.0 442353.0 0
115961.0 443780.0 0
119179.0 441515.0 0
122432.0 442878.0 0
125731.0 444317.0 0
128954.0 442929.0 0
134901.0 442023.0 0
138151.0 442531.0 0
141630.0 442904.0 0
145263.0 443244.0 0
173641.0 440112.0 0
177429.0 439910.0 0
181230.0 439659.0 0
190896.0 442004.0 0
194718.0 441594.0 0
198534.0 441153.0 0
202347.0 440693.0 0
206155.0 440229.0 0
215841.0 442487.0 0
219619.0 442107.0 0
223353.0 441734.0 0
226993.0 441264.0 0
230294.0 439413.0 0
233542.0 441376.0 0
236905.0 439447.0 0
240157.0 441368.0 0
243464.0 439417.0 0
246714.0 441343.0 0
249992.0 439392.0 0
253270.0 441326.0 0
256521.0 439385.0 0
259831.0 441314.0 0
263088.0 439387.0 0
266458.0 441295.0 0
269715.0 439348.0 0
273017.0 441210.0 0
276628.0 441770.0 0
280346.0 442145.0 0
284122.0 442515.0 0
293829.0 440248.0 0
297639.0 440711.0 0
301451.0 441172.0 0
305265.0 441615.0 0
309087.0 442027.0 0
318757.0 439674.0 0
322556.0 439921.0 0
326342.0 440117.0 0
354727.0 443239.0 0
358361.0 442897.0 0
361844.0 442518.0 0
365099.0 442015.0 0
371045.0 442940.0 0
374271.0 444316.0 0
377566.0 442876.0 0
380818.0 441513.0 0
384035.0 443778.0 0
387314.0 442351.0 0
390543.0 444498.0 0
393917.0 443053.0 0
400603.0 443795.0 0
407302.0 444392.0 0
89305.6 446518.0 0
96037.4 445957.0 0
99437.2 447442.0 0
102766.0 445229.0 0
106188.0 446657.0 0
112827.0 446055.0 0
119228.0 445132.0 0
122521.0 446398.0 0
132243.0 444450.0 0
135854.0 445515.0 0
139479.0 446001.0 0
148998.0 443506.0 0
152781.0 443671.0 0
156582.0 443735.0 0
160379.0 443717.0 0
164178.0 443639.0 0
167972.0 443522.0 0
171776.0 443369.0 0
175587.0 443182.0 0
179408.0 442958.0 0
183236.0 442686.0 0
187066.0 442369.0 0
196767.0 444627.0 0
200596.0 444198.0 0
204416.0 443759.0 0
208230.0 443324.0 0
212041.0 442893.0 0
230157.0 443299.0 0
236837.0 443306.0 0
243408.0 443297.0 0
249992.0 443270.0 0
256576.0 443257.0 0
263160.0 443225.0 0
269850.0 443209.0 0
287926.0 442915.0 0
291742.0 443343.0 0
295560.0 443778.0 0
299382.0 444217.0 0
303212.0 444648.0 0
312919.0 442389.0 0
316750.0 442704.0 0
320578.0 442973.0 0
324399.0 443192.0 0
328207.0 443377.0 0
332010.0 443530.0 0
335804.0 443646.0 0
339604.0 443720.0 0
343404.0 443735.0 0
347206.0 443669.0 0
350991.0 443503.0 0
360512.0 445992.0 0
364136.0 445504.0 0
367749.0 444456.0 0
377470.0 446400.0 0
380766.0 445131.0 0
387167.0 446053.0 0
393806.0 446655.0 0
397229.0 445228.0 0
400551.0 447446.0 0
403950.0 445954.0 0
410680.0 446509.0 0
82572.3 450738.0 0
85935.6 448632.0 0
92695.3 448148.0 0
102880.0 448857.0 0
109657.0 448126.0 0
116164.0 447506.0 0
119555.0 448798.0 0
125944.0 447522.0 0
129443.0 446814.0 0
133131.0 447936.0 0
137115.0 448983.0 0
143151.0 446327.0 0
146888.0 446579.0 0
150679.0 446758.0 0
154502.0 446858.0 0
158338.0 446881.0 0
162178.0 446840.0 0
166016.0 446752.0 0
169854.0 446621.0 0
173693.0 446456.0 0
177537.0 446254.0 0
181386.0 446014.0 0
185235.0 445729.0 0
189084.0 445402.0 0
192930.0 445032.0 0
202643.0 447278.0 0
206470.0 446863.0 0
210292.0 446451.0 0
214106.0 446053.0 0
217924.0 445682.0 0
221763.0 445307.0 0
225647.0 444854.0 0
233542.0 445219.0 0
240080.0 445254.0 0
243361.0 447174.0 0
246689.0 445219.0 0
249997.0 447141.0 0
253298.0 445198.0 0
256629.0 447123.0 0
259909.0 445182.0 0
266476.0 445111.0 0
274271.0 444844.0 0
278170.0 445351.0 0
282023.0 445720.0 0
285851.0 446078.0 0
289671.0 446471.0 0
293496.0 446881.0 0
297327.0 447297.0 0
307050.0 445054.0 0
310898.0 445422.0 0
314749.0 445749.0 0
318600.0 446030.0 0
322449.0 446268.0 0
326291.0 446469.0 0
330129.0 446632.0 0
333967.0 446760.0 0
337807.0 446845.0 0
341649.0 446882.0 0
345486.0 446858.0 0
349310.0 446757.0 0
353103.0 446575.0 0
356841.0 446321.0 0
362881.0 448972.0 0
366846.0 447943.0 0
370538.0 446826.0 0
374040.0 447520.0 0
380434.0 448795.0 0
383828.0 447504.0 0
390335.0 448119.0 0
397110.0 448859.0 0
407288.0 448143.0 0
414048.0 448621.0 0
417409.0 450727.0 0
78930.3 453011.0 0
86044.5 452512.0 0
89367.4 450333.0 0
92852.1 451945.0 0
96129.2 449679.0 0
99606.4 451126.0 0
106368.0 450251.0 0
106630.0 453850.0 0
109884.0 451681.0 0
113133.0 449859.0 0
123062.0 449895.0 0
126801.0 450597.0 0
130446.0 450540.0 0
140919.0 449413.0 0
144720.0 449689.0 0
148543.0 449877.0 0
152392.0 449993.0 0
156258.0 450041.0 0
160133.0 450029.0 0
164011.0 449967.0 0
167887.0 449866.0 0
171758.0 449727.0 0
175627.0 449550.0 0
179497.0 449335.0 0
183367.0 449082.0 0
187236.0 448788.0 0
191101.0 448454.0 0
194958.0 448086.0 0
198806.0 447690.0 0
208516.0 450000.0 0
212336.0 449618.0 0
216134.0 449257.0 0
219891.0 448943.0 0
223573.0 448657.0 0
227117.0 448311.0 0
230343.0 447065.0 0
236736.0 447217.0 0
240008.0 449137.0 0
246675.0 449089.0 0
253325.0 449065.0 0
259984.0 449045.0 0
263263.0 447103.0 0
269715.0 446958.0 0
272912.0 448356.0 0
276411.0 448739.0 0
280070.0 449001.0 0
283823.0 449290.0 0
287622.0 449641.0 0
291444.0 450020.0 0
301167.0 447709.0 0
305016.0 448106.0 0
308876.0 448474.0 0
312743.0 448808.0 0
316614.0 449100.0 0
320485.0 449352.0 0
324355.0 449565.0 0
328225.0 449739.0 0
332098.0 449876.0 0
335975.0 449974.0 0
339854.0 450033.0 0
343730.0 450043.0 0
347597.0 449993.0 0
351447.0 449875.0 0
355271.0 449684.0 0
359074.0 449406.0 0
369534.0 450550.0 0
373184.0 450602.0 0
376921.0 449896.0 0
386858.0 449858.0 0
390111.0 451669.0 0
393358.0 453848.0 0
393625.0 450247.0 0
400378.0 451133.0 0
403856.0 449680.0 0
407128.0 451943.0 0
410613.0 450327.0 0
413935.0 452503.0 0
421090.0 453023.0 0
82314.1 454623.0 0
89588.1 454188.0 0
96374.2 453441.0 0
103113.0 452510.0 0
110210.0 455114.0 0
116630.0 451260.0 0
120257.0 452414.0 0
124110.0 453221.0 0
128024.0 453722.0 0
134256.0 451275.0 0
138667.0 452464.0 0
142523.0 452806.0 0
146386.0 453021.0 0
150264.0 453150.0 0
154157.0 453212.0 0
158063.0 453219.0 0
161977.0 453177.0 0
181471.0 452428.0 0
185359.0 452164.0 0
189242.0 451864.0 0
193118.0 451529.0 0
196985.0 451166.0 0
200840.0 450784.0 0
204683.0 450392.0 0
214401.0 452818.0 0
218227.0 452499.0 0
222057.0 452202.0 0
225924.0 451866.0 0
229840.0 451032.0 0
233365.0 449185.0 0
236617.0 451108.0 0
243334.0 451042.0 0
250006.0 451010.0 0
256672.0 450985.0 0
263369.0 450964.0 0
266641.0 449034.0 0
270130.0 450934.0 0
273982.0 451992.0 0
277877.0 452276.0 0
281723.0 452541.0 0
285551.0 452848.0 0
295279.0 450411.0 0
299126.0 450803.0 0
302984.0 451186.0 0
306853.0 451549.0 0
310731.0 451883.0 0
314617.0 452183.0 0
318506.0 452446.0 0
338010.0 453183.0 0
341925.0 453224.0 0
345832.0 453216.0 0
349725.0 453150.0 0
353605.0 453018.0 0
357469.0 452801.0 0
361327.0 452455.0 0
365723.0 451287.0 0
371962.0 453727.0 0
375881.0 453230.0 0
379727.0 452405.0 0
383358.0 451255.0 0
389779.0 455092.0 0
396873.0 452515.0 0
403604.0 453445.0 0
410388.0 454183.0 0
417706.0 454609.0 0
72427.0 457089.0 0
76150.4 455743.0 0
79701.2 457596.0 0
85592.7 456387.0 0
93177.3 455791.0 0
96828.0 457229.0 0
99940.4 454854.0 0
103503.0 456207.0 0
107083.0 457456.0 0
113703.0 453748.0 0
117379.0 454967.0 0
121432.0 455828.0 0
125417.0 456502.0 0
131745.0 454042.0 0
135582.0 454528.0 0
140342.0 455943.0 0
144227.0 456188.0 0
148137.0 456332.0 0
165886.0 453100.0 0
169790.0 452988.0 0
173688.0 452839.0 0
177581.0 452653.0 0
187360.0 455263.0 0
191254.0 454960.0 0
195139.0 454629.0 0
199013.0 454275.0 0
202876.0 453908.0 0
206728.0 453536.0 0
210569.0 453169.0 0
224278.0 455392.0 0
228489.0 454750.0 0
233157.0 453056.0 0
236600.0 454938.0 0
239974.0 452996.0 0
243324.0 454912.0 0
246673.0 452959.0 0
250023.0 454884.0 0
253353.0 452934.0 0
256711.0 454853.0 0
260037.0 452897.0 0
263423.0 454786.0 0
266821.0 452866.0 0
271200.0 454729.0 0
275681.0 455497.0 0
289384.0 453193.0 0
293228.0 453557.0 0
297082.0 453928.0 0
300948.0 454295.0 0
304825.0 454648.0 0
308713.0 454980.0 0
312610.0 455283.0 0
322398.0 452669.0 0
326294.0 452853.0 0
330193.0 452999.0 0
334099.0 453108.0 0
351854.0 456332.0 0
355763.0 456184.0 0
359650.0 455936.0 0
364398.0 454542.0 0
368236.0 454052.0 0
374567.0 456507.0 0
378584.0 455831.0 0
382596.0 454954.0 0
386279.0 453748.0 0
392887.0 457452.0 0
396472.0 456217.0 0
400036.0 454864.0 0
403142.0 457237.0 0
406797.0 455793.0 0
414440.0 456371.0 0
420299.0 457600.0 0
423861.0 455756.0 0
427583.0 457095.0 0
76318.4 459710.0 0
83204.2 459516.0 0
88915.9 458012.0 0
92248.6 459569.0 0
100484.0 458636.0 0
107906.0 461120.0 0
110683.0 458465.0 0
114543.0 457674.0 0
118752.0 458426.0 0
129298.0 457047.0 0
133124.0 457431.0 0
137029.0 457727.0 0
152054.0 456408.0 0
155983.0 456421.0 0
159930.0 456386.0 0
163871.0 456328.0 0
167802.0 456242.0 0
171726.0 456121.0 0
175642.0 455964.0 0
179553.0 455768.0 0
183459.0 455534.0 0
197166.0 457755.0 0
201047.0 457413.0 0
204918.0 457061.0 0
208779.0 456709.0 0
212634.0 456365.0 0
216488.0 456037.0 0
220361.0 455730.0 0
239959.0 456866.0 0
246687.0 456835.0 0
253378.0 456811.0 0
260083.0 456758.0 0
266796.0 456648.0 0
279598.0 455777.0 0
283464.0 456075.0 0
287315.0 456394.0 0
291169.0 456733.0 0
295032.0 457082.0 0
298906.0 457433.0 0
302791.0 457774.0 0
316513.0 455552.0 0
320422.0 455785.0 0
324336.0 455979.0 0
328254.0 456134.0 0
332179.0 456252.0 0
336113.0 456336.0 0
340056.0 456392.0 0
344005.0 456428.0 0
347936.0 456413.0 0
362951.0 457742.0 0
366859.0 457444.0 0
370686.0 457056.0 0
381272.0 458430.0 0
385417.0 457661.0 0
389267.0 458428.0 0
392031.0 461105.0 0
399479.0 458651.0 0
407810.0 459549.0 0
411129.0 457992.0 0
416795.0 459523.0 0
423682.0 459719.0 0
79830.7 461596.0 0
86765.9 461291.0 0
95690.9 460863.0 0
104184.0 459934.0 0
112607.0 461191.0 0
116319.0 461253.0 0
122821.0 459209.0 0
126751.0 459881.0 0
130681.0 460428.0 0
134659.0 460722.0 0
138583.0 460938.0 0
142093.0 459405.0 0
146020.0 459541.0 0
149958.0 459633.0 0
153908.0 459655.0 0
157889.0 459601.0 0
161855.0 459558.0 0
165808.0 459493.0 0
169752.0 459399.0 0
173689.0 459269.0 0
177618.0 459102.0 0
181542.0 458898.0 0
185460.0 458657.0 0
189371.0 458383.0 0
193273.0 458080.0 0
203088.0 460577.0 0
206965.0 460241.0 0
210833.0 459907.0 0
214693.0 459583.0 0
218546.0 459274.0 0
222383.0 458993.0 0
226174.0 458716.0 0
229895.0 458349.0 0
233296.0 456894.0 0
236586.0 458838.0 0
243343.0 458784.0 0
250047.0 458769.0 0
256738.0 458729.0 0
263468.0 458647.0 0
270075.0 458447.0 0
273759.0 458814.0 0
277558.0 459028.0 0
281396.0 459317.0 0
285246.0 459620.0 0
289105.0 459936.0 0
292976.0 460264.0 0
296857.0 460597.0 0
306687.0 458100.0 0
310593.0 458402.0 0
314508.0 458675.0 0
318429.0 458915.0 0
322356.0 459118.0 0
326287.0 459283.0 0
330225.0 459411.0 0
334171.0 459502.0 0
338127.0 459564.0 0
342096.0 459606.0 0
346082.0 459662.0 0
350033.0 459636.0 0
353971.0 459541.0 0
357899.0 459397.0 0
361396.0 460953.0 0
365324.0 460735.0 0
369307.0 460442.0 0
373240.0 459885.0 0
377174.0 459206.0 0
383706.0 461263.0 0
387441.0 461228.0 0
395770.0 459950.0 0
404378.0 460837.0 0
413231.0 461300.0 0
420169.0 461600.0 0
83473.4 463505.0 0
90361.6 462995.0 0
94099.6 464380.0 0
99137.6 462168.0 0
102678.0 463311.0 0
110154.0 464208.0 0
113980.0 464489.0 0
120215.0 461918.0 0
124150.0 462660.0 0
128089.0 463311.0 0
132341.0 463697.0 0
143946.0 462805.0 0
147871.0 462889.0 0
151826.0 462926.0 0
155883.0 462830.0 0
159859.0 462794.0 0
163823.0 462749.0 0
167779.0 462678.0 0
171729.0 462575.0 0
175673.0 462435.0 0
179611.0 462258.0 0
183544.0 462045.0 0
187471.0 461799.0 0
191391.0 461524.0 0
195301.0 461225.0 0
199200.0 460907.0 0
212892.0 463130.0 0
216759.0 462825.0 0
220622.0 462542.0 0
224499.0 462273.0 0
228414.0 461929.0 0
232909.0 460833.0 0
236688.0 462655.0 0
240008.0 460738.0 0
243362.0 462684.0 0
246707.0 460724.0 0
250076.0 462668.0 0
253412.0 460705.0 0
256780.0 462634.0 0
260092.0 460631.0 0
263422.0 462492.0 0
266872.0 460558.0 0
271520.0 462069.0 0
275457.0 462320.0 0
279315.0 462586.0 0
283167.0 462873.0 0
287034.0 463166.0 0
300750.0 460926.0 0
304653.0 461244.0 0
308567.0 461543.0 0
312490.0 461818.0 0
316421.0 462063.0 0
320358.0 462275.0 0
324299.0 462450.0 0
328246.0 462587.0 0
332198.0 462688.0 0
336156.0 462756.0 0
340121.0 462799.0 0
344097.0 462833.0 0
348168.0 462935.0 0
352123.0 462892.0 0
356049.0 462801.0 0
367637.0 463710.0 0
371914.0 463314.0 0
375852.0 462657.0 0
379796.0 461912.0 0
386039.0 464504.0 0
389879.0 464250.0 0
397395.0 463277.0 0
400938.0 462138.0 0
405891.0 464387.0 0
409634.0 463006.0 0
416525.0 463511.0 0
87098.6 465258.0 0
91067.6 466898.0 0
97843.6 465750.0 0
106283.0 464541.0 0
117715.0 464812.0 0
121551.0 465447.0 0
125487.0 466156.0 0
129892.0 466572.0 0
136290.0 464056.0 0
140346.0 464112.0 0
145779.0 466196.0 0
149723.0 466234.0 0
153919.0 466069.0 0
157889.0 466045.0 0
177673.0 465618.0 0
181619.0 465431.0 0
185560.0 465210.0 0
189495.0 464961.0 0
193421.0 464686.0 0
197338.0 464393.0 0
201242.0 464084.0 0
205136.0 463767.0 0
209018.0 463447.0 0
226426.0 465628.0 0
230095.0 465385.0 0
233550.0 464659.0 0
240019.0 464662.0 0
246724.0 464624.0 0
253456.0 464614.0 0
260149.0 464561.0 0
266657.0 464362.0 0
269968.0 465633.0 0
273574.0 465666.0 0
290912.0 463472.0 0
294800.0 463787.0 0
298699.0 464103.0 0
302609.0 464411.0 0
306530.0 464705.0 0
310461.0 464979.0 0
314400.0 465228.0 0
318346.0 465448.0 0
322295.0 465633.0 0
342088.0 466049.0 0
346060.0 466069.0 0
350274.0 466244.0 0
354218.0 466196.0 0
359641.0 464135.0 0
363687.0 464068.0 0
370101.0 466569.0 0
374519.0 466154.0 0
378455.0 465443.0 0
382293.0 464813.0 0
393771.0 464477.0 0
402143.0 465751.0 0
408922.0 466907.0 0
412899.0 465264.0 0
87827.6 469181.0 0
94821.2 468257.0 0
99014.6 469474.0 0
102013.0 467004.0 0
105759.0 468280.0 0
109652.0 468012.0 0
114758.0 468045.0 0
118888.0 468345.0 0
122824.0 468923.0 0
133832.0 467086.0 0
138162.0 467253.0 0
142097.0 467441.0 0
161852.0 466015.0 0
165812.0 465964.0 0
169769.0 465884.0 0
173723.0 465769.0 0
191530.0 468143.0 0
195463.0 467872.0 0
199384.0 467585.0 0
203294.0 467286.0 0
207191.0 466981.0 0
211078.0 466676.0 0
214953.0 466378.0 0
218813.0 466097.0 0
222647.0 465842.0 0
236701.0 466615.0 0
243352.0 466596.0 0
250110.0 466572.0 0
256845.0 466556.0 0
263530.0 466438.0 0
277288.0 465902.0 0
281090.0 466160.0 0
284951.0 466423.0 0
288836.0 466705.0 0
292733.0 467001.0 0
296639.0 467304.0 0
300555.0 467602.0 0
304481.0 467890.0 0
308419.0 468160.0 0
326248.0 465782.0 0
330204.0 465895.0 0
334164.0 465973.0 0
338125.0 466021.0 0
357890.0 467467.0 0
361826.0 467274.0 0
366143.0 467098.0 0
377179.0 468922.0 0
381115.0 468346.0 0
385222.0 468047.0 0
390343.0 468048.0 0
394235.0 468237.0 0
397987.0 466985.0 0
400972.0 469473.0 0
405165.0 468262.0 0
412164.0 469186.0 0
91802.9 470820.0 0
96032.2 472022.0 0
102805.0 470800.0 0
112165.0 470934.0 0
116419.0 471376.0 0
127368.0 469439.0 0
131310.0 470031.0 0
135818.0 470254.0 0
139796.0 470641.0 0
143853.0 470815.0 0
147610.0 469587.0 0
151973.0 469308.0 0
155939.0 469313.0 0
159895.0 469298.0 0
163852.0 469262.0 0
167811.0 469201.0 0
171772.0 469109.0 0
175730.0 468981.0 0
179686.0 468818.0 0
183639.0 468621.0 0
187588.0 468394.0 0
201442.0 470800.0 0
205356.0 470512.0 0
209258.0 470219.0 0
213151.0 469928.0 0
217035.0 469649.0 0
220913.0 469390.0 0
224790.0 469158.0 0
228694.0 468922.0 0
232675.0 468553.0 0
236467.0 470434.0 0
239974.0 468638.0 0
243343.0 470486.0 0
246739.0 468518.0 0
250141.0 470477.0 0
253507.0 468532.0 0
256924.0 470473.0 0
260245.0 468515.0 0
263727.0 470255.0 0
267127.0 468326.0 0
270984.0 469309.0 0
274955.0 469308.0 0
278903.0 469469.0 0
282824.0 469699.0 0
286737.0 469957.0 0
290651.0 470235.0 0
294568.0 470525.0 0
298491.0 470815.0 0
312366.0 468411.0 0
316320.0 468638.0 0
320278.0 468834.0 0
324237.0 468995.0 0
328199.0 469120.0 0
332162.0 469210.0 0
336124.0 469269.0 0
340083.0 469303.0 0
344039.0 469315.0 0
348004.0 469306.0 0
352394.0 469594.0 0
356145.0 470849.0 0
360194.0 470666.0 0
364170.0 470270.0 0
368681.0 470030.0 0
372628.0 469432.0 0
383578.0 471383.0 0
387811.0 470942.0 0
397181.0 470779.0 0
403952.0 472026.0 0
408183.0 470826.0 0
99833.8 473318.0 0
106601.0 472046.0 0
113935.0 474386.0 0
120346.0 471838.0 0
124658.0 472188.0 0
128798.0 472960.0 0
133329.0 473209.0 0
137258.0 473711.0 0
150068.0 472558.0 0
154010.0 472594.0 0
157951.0 472601.0 0
161899.0 472579.0 0
165856.0 472531.0 0
169819.0 472456.0 0
173785.0 472351.0 0
177749.0 472210.0 0
181712.0 472034.0 0
185673.0 471826.0 0
189630.0 471595.0 0
193579.0 471345.0 0
197517.0 471079.0 0
211339.0 473476.0 0
215241.0 473197.0 0
219140.0 472931.0 0
223043.0 472681.0 0
226960.0 472433.0 0
230900.0 472145.0 0
239769.0 472621.0 0
246761.0 472399.0 0
253533.0 472458.0 0
260463.0 472501.0 0
268250.0 472172.0 0
272837.0 472682.0 0
276773.0 472800.0 0
280703.0 472989.0 0
284633.0 473224.0 0
288560.0 473485.0 0
302422.0 471096.0 0
306365.0 471362.0 0
310319.0 471611.0 0
314281.0 471842.0 0
318249.0 472049.0 0
322216.0 472225.0 0
326184.0 472363.0 0
330153.0 472466.0 0
334119.0 472538.0 0
338077.0 472584.0 0
342027.0 472605.0 0
345968.0 472596.0 0
349912.0 472553.0 0
362736.0 473728.0 0
366665.0 473217.0 0
371197.0 472952.0 0
375337.0 472183.0 0
379652.0 471840.0 0
386057.0 474394.0 0
393381.0 472009.0 0
400142.0 473314.0 0
94132.1 475479.0 0
98079.5 476794.0 0
103626.0 474622.0 0
109901.0 474108.0 0
117924.0 474849.0 0
122137.0 475167.0 0
126079.0 475677.0 0
130850.0 476194.0 0
134793.0 476735.0 0
141093.0 474179.0 0
144860.0 474517.0 0
148316.0 475859.0 0
152130.0 475911.0 0
156018.0 475930.0 0
159946.0 475917.0 0
163896.0 475878.0 0
167860.0 475814.0 0
171832.0 475726.0 0
175807.0 475609.0 0
179779.0 475454.0 0
183752.0 475261.0 0
187723.0 475046.0 0
191687.0 474814.0 0
195641.0 474568.0 0
199583.0 474309.0 0
203512.0 474038.0 0
207431.0 473759.0 0
234469.0 473680.0 0
243351.0 474321.0 0
250154.0 474398.0 0
256947.0 474334.0 0
264668.0 473895.0 0
292486.0 473765.0 0
296416.0 474049.0 0
300350.0 474327.0 0
304298.0 474584.0 0
308258.0 474829.0 0
312227.0 475060.0 0
316204.0 475275.0 0
320184.0 475468.0 0
324160.0 475622.0 0
328138.0 475737.0 0
332113.0 475822.0 0
336080.0 475883.0 0
340032.0 475922.0 0
343961.0 475934.0 0
347849.0 475910.0 0
351659.0 475856.0 0
355131.0 474551.0 0
358903.0 474206.0 0
365210.0 476745.0 0
369152.0 476193.0 0
373912.0 475672.0 0
377854.0 475165.0 0
382072.0 474854.0 0
390101.0 474101.0 0
396346.0 474601.0 0
401916.0 476784.0 0
405866.0 475476.0 0
95045.4 479352.0 0
106966.0 476784.0 0
111621.0 477564.0 0
115575.0 477912.0 0
119711.0 478230.0 0
123667.0 478668.0 0
128056.0 478926.0 0
138714.0 477280.0 0
142593.0 477757.0 0
185810.0 478500.0 0
189789.0 478282.0 0
193758.0 478052.0 0
197716.0 477811.0 0
201662.0 477561.0 0
205595.0 477296.0 0
209519.0 477025.0 0
213434.0 476748.0 0
217346.0 476476.0 0
221260.0 476217.0 0
225179.0 475967.0 0
229102.0 475708.0 0
232703.0 477142.0 0
236618.0 476930.0 0
240468.0 476779.0 0
246686.0 476276.0 0
250054.0 478287.0 0
253580.0 476430.0 0
258681.0 477723.0 0
262552.0 477169.0 0
266893.0 477011.0 0
270691.0 475988.0 0
274657.0 476155.0 0
278596.0 476308.0 0
282532.0 476508.0 0
286468.0 476752.0 0
290395.0 477020.0 0
294332.0 477297.0 0
298266.0 477582.0 0
302220.0 477829.0 0
306184.0 478068.0 0
310158.0 478295.0 0
314140.0 478511.0 0
357404.0 477784.0 0
361284.0 477301.0 0
371948.0 478930.0 0
376322.0 478666.0 0
380278.0 478230.0 0
384424.0 477916.0 0
388382.0 477561.0 0
393027.0 476789.0 0
404947.0 479348.0 0
98880.6 480675.0 0
101924.0 478146.0 0
105226.0 480368.0 0
109196.0 480653.0 0
113296.0 481076.0 0
117353.0 481357.0 0
132337.0 479752.0 0
136295.0 480295.0 0
140251.0 480894.0 0
146214.0 479008.0 0
150118.0 479252.0 0
154030.0 479287.0 0
157965.0 479278.0 0
161921.0 479242.0 0
165889.0 479186.0 0
169868.0 479109.0 0
173853.0 479011.0 0
177840.0 478883.0 0
181826.0 478703.0 0
199805.0 481076.0 0
203756.0 480835.0 0
207691.0 480572.0 0
211625.0 480307.0 0
215541.0 480031.0 0
219461.0 479762.0 0
223382.0 479511.0 0
227303.0 479268.0 0
230943.0 480623.0 0
234850.0 480454.0 0
238743.0 480288.0 0
242666.0 480066.0 0
246576.0 480111.0 0
253293.0 480391.0 0
260944.0 480921.0 0
264822.0 480388.0 0
268750.0 480415.0 0
272568.0 479512.0 0
276513.0 479655.0 0
280445.0 479819.0 0
284379.0 480030.0 0
288301.0 480302.0 0
292241.0 480553.0 0
296176.0 480868.0 0
300135.0 481097.0 0
318131.0 478714.0 0
322127.0 478898.0 0
326118.0 479021.0 0
330105.0 479118.0 0
334086.0 479192.0 0
338057.0 479247.0 0
342012.0 479282.0 0
345949.0 479290.0 0
349859.0 479254.0 0
353765.0 479002.0 0
359745.0 480918.0 0
363716.0 480305.0 0
367672.0 479751.0 0
382639.0 481356.0 0
386710.0 481075.0 0
390807.0 480650.0 0
394778.0 480368.0 0
398065.0 478123.0 0
401100.0 480665.0 0
121323.0 481733.0 0
125578.0 481998.0 0
129534.0 482457.0 0
133854.0 483318.0 0
137770.0 483890.0 0
144001.0 482142.0 0
147966.0 482508.0 0
151966.0 482636.0 0
155944.0 482648.0 0
159920.0 482621.0 0
163900.0 482570.0 0
167887.0 482501.0 0
171879.0 482415.0 0
175875.0 482310.0 0
179904.0 482155.0 0
183899.0 481958.0 0
187888.0 481752.0 0
191870.0 481536.0 0
195843.0 481310.0 0
213744.0 483613.0 0
217658.0 483320.0 0
221575.0 483062.0 0
229171.0 484099.0 0
249829.0 482250.0 0
257024.0 481240.0 0
270649.0 483796.0 0
278391.0 483172.0 0
286227.0 483633.0 0
304102.0 481328.0 0
308077.0 481550.0 0
312060.0 481763.0 0
316050.0 481967.0 0
320054.0 482163.0 0
324102.0 482324.0 0
328097.0 482425.0 0
332090.0 482509.0 0
336079.0 482576.0 0
340060.0 482625.0 0
344036.0 482651.0 0
348013.0 482641.0 0
352014.0 482508.0 0
355981.0 482130.0 0
362244.0 483897.0 0
366161.0 483318.0 0
370469.0 482461.0 0
374426.0 482003.0 0
378669.0 481732.0 0
97813.6 484494.0 0
103014.0 483684.0 0
107000.0 483945.0 0
110975.0 484225.0 0
115076.0 484555.0 0
119044.0 484875.0 0
123165.0 485136.0 0
127123.0 485539.0 0
131070.0 485991.0 0
135414.0 486922.0 0
141473.0 485068.0 0
145705.0 485718.0 0
149849.0 485934.0 0
153902.0 486015.0 0
157900.0 486005.0 0
161895.0 485968.0 0
165892.0 485903.0 0
169891.0 485827.0 0
173891.0 485737.0 0
177945.0 485598.0 0
181995.0 485428.0 0
185990.0 485227.0 0
189981.0 485020.0 0
193964.0 484808.0 0
197939.0 484589.0 0
201905.0 484362.0 0
205866.0 484133.0 0
209804.0 483856.0 0
225495.0 482827.0 0
233073.0 483968.0 0
236965.0 483816.0 0
240855.0 483625.0 0
244704.0 483484.0 0
250818.0 486013.0 0
254384.0 484226.0 0
258834.0 484655.0 0
262789.0 484396.0 0
266706.0 483851.0 0
274468.0 483029.0 0
282316.0 483330.0 0
290162.0 483833.0 0
294091.0 484195.0 0
298052.0 484391.0 0
302018.0 484610.0 0
305991.0 484827.0 0
309972.0 485036.0 0
313961.0 485237.0 0
317957.0 485433.0 0
322016.0 485602.0 0
326091.0 485751.0 0
330089.0 485836.0 0
334087.0 485909.0 0
338085.0 485970.0 0
342080.0 486009.0 0
346077.0 486022.0 0
350133.0 485939.0 0
354286.0 485710.0 0
358529.0 485038.0 0
364606.0 486923.0 0
368935.0 485998.0 0
372881.0 485543.0 0
376840.0 485139.0 0
380952.0 484873.0 0
384922.0 484550.0 0
389029.0 484223.0 0
393003.0 483943.0 0
396989.0 483684.0 0
402178.0 484482.0 0
100870.0 487051.0 0
104843.0 487271.0 0
108819.0 487521.0 0
112805.0 487761.0 0
116812.0 488092.0 0
120844.0 488339.0 0
124792.0 488685.0 0
128720.0 489085.0 0
139115.0 488250.0 0
143070.0 488643.0 0
180045.0 488885.0 0
184097.0 488713.0 0
188092.0 488511.0 0
192082.0 488307.0 0
196067.0 488101.0 0
200043.0 487887.0 0
204012.0 487665.0 0
207980.0 487466.0 0
211916.0 487156.0 0
215862.0 486960.0 0
219770.0 486627.0 0
223674.0 486383.0 0
227365.0 487553.0 0
231280.0 487471.0 0
235187.0 487349.0 0
239104.0 487175.0 0
243017.0 487128.0 0
246920.0 486628.0 0
253162.0 489114.0 0
256994.0 488165.0 0
260957.0 487945.0 0
264885.0 487745.0 0
268742.0 487256.0 0
272660.0 487166.0 0
276460.0 486613.0 0
280325.0 486682.0 0
284193.0 487021.0 0
288111.0 487154.0 0
292018.0 487567.0 0
295977.0 487711.0 0
299934.0 487918.0 0
303901.0 488127.0 0
307880.0 488330.0 0
311866.0 488527.0 0
315859.0 488720.0 0
319909.0 488887.0 0
356939.0 488617.0 0
360892.0 488216.0 0
371287.0 489089.0 0
375214.0 488687.0 0
379162.0 488340.0 0
383189.0 488088.0 0
387194.0 487757.0 0
391182.0 487521.0 0
395158.0 487270.0 0
399131.0 487051.0 0
111961.0 491612.0 0
132638.0 489535.0 0
136313.0 491093.0 0
147636.0 489178.0 0
151782.0 489344.0 0
155873.0 489393.0 0
159881.0 489372.0 0
163897.0 489317.0 0
167897.0 489246.0 0
171901.0 489168.0 0
175964.0 489042.0 0
198178.0 491414.0 0
202156.0 491204.0 0
206116.0 490986.0 0
210074.0 490854.0 0
214007.0 490480.0 0
217891.0 491160.0 0
221684.0 490077.0 0
225496.0 490999.0 0
229408.0 490933.0 0
233359.0 490879.0 0
237324.0 490711.0 0
245310.0 490369.0 0
249237.0 489697.0 0
263094.0 491278.0 0
270807.0 490626.0 0
278463.0 490144.0 0
286076.0 490514.0 0
289981.0 491030.0 0
293918.0 491060.0 0
297853.0 491254.0 0
301807.0 491452.0 0
323997.0 489044.0 0
328088.0 489183.0 0
332087.0 489255.0 0
336087.0 489320.0 0
340098.0 489374.0 0
344101.0 489400.0 0
348196.0 489352.0 0
352364.0 489174.0 0
363682.0 491070.0 0
367371.0 489544.0 0
388041.0 491608.0 0
99983.6 490939.0 0
103981.0 491154.0 0
107971.0 491387.0 0
116039.0 491916.0 0
120067.0 492162.0 0
124074.0 492486.0 0
128048.0 492858.0 0
131999.0 493261.0 0
140770.0 491863.0 0
144971.0 492082.0 0
149581.0 492631.0 0
153762.0 492743.0 0
157854.0 492781.0 0
161894.0 492738.0 0
165911.0 492679.0 0
169910.0 492604.0 0
173972.0 492492.0 0
178072.0 492343.0 0
182155.0 492185.0 0
186205.0 492012.0 0
190199.0 491813.0 0
194191.0 491611.0 0
241305.0 491050.0 0
251486.0 492837.0 0
255375.0 492336.0 0
259188.0 491501.0 0
266980.0 491292.0 0
274662.0 491007.0 0
282221.0 491290.0 0
305780.0 491646.0 0
309766.0 491838.0 0
313759.0 492025.0 0
317801.0 492190.0 0
321882.0 492343.0 0
325990.0 492491.0 0
330085.0 492619.0 0
334083.0 492683.0 0
338090.0 492740.0 0
342117.0 492786.0 0
346210.0 492750.0 0
350419.0 492624.0 0
355047.0 492062.0 0
359246.0 491833.0 0
368000.0 493270.0 0
371950.0 492863.0 0
375925.0 492488.0 0
379935.0 492163.0 0
383961.0 491913.0 0
392031.0 491386.0 0
396020.0 491153.0 0
400018.0 490939.0 0
101801.0 494498.0 0
105792.0 494718.0 0
109786.0 494942.0 0
113783.0 495155.0 0
117871.0 495436.0 0
121850.0 495709.0 0
125821.0 496041.0 0
129783.0 496412.0 0
134878.0 495884.0 0
138788.0 495295.0 0
142765.0 495354.0 0
146894.0 495550.0 0
151577.0 496058.0 0
155746.0 496152.0 0
159873.0 496159.0 0
163916.0 496114.0 0
167932.0 496054.0 0
171932.0 495975.0 0
175920.0 495905.0 0
179896.0 495823.0 0
183864.0 495720.0 0
187821.0 495585.0 0
191774.0 495410.0 0
195729.0 495228.0 0
199681.0 495064.0 0
203609.0 494882.0 0
207532.0 494666.0 0
211427.0 494730.0 0
215308.0 494207.0 0
219138.0 494943.0 0
222937.0 493958.0 0
226838.0 494754.0 0
230819.0 494583.0 0
234760.0 494609.0 0
238698.0 494426.0 0
242594.0 495001.0 0
246452.0 494168.0 0
253821.0 496008.0 0
257763.0 495459.0 0
261677.0 494964.0 0
265642.0 495059.0 0
269539.0 494359.0 0
273461.0 495042.0 0
277284.0 493970.0 0
281052.0 495103.0 0
284865.0 494274.0 0
288711.0 494958.0 0
292595.0 494771.0 0
296510.0 494976.0 0
300428.0 495159.0 0
304362.0 495323.0 0
308300.0 495490.0 0
312241.0 495646.0 0
316188.0 495769.0 0
320143.0 495864.0 0
324110.0 495939.0 0
328089.0 496001.0 0
332082.0 496065.0 0
336080.0 496120.0 0
340105.0 496166.0 0
344224.0 496159.0 0
348421.0 496049.0 0
353121.0 495529.0 0
357231.0 495348.0 0
361208.0 495276.0 0
365116.0 495886.0 0
370219.0 496418.0 0
374180.0 496043.0 0
378151.0 495708.0 0
382132.0 495434.0 0
386219.0 495151.0 0
390214.0 494939.0 0
394209.0 494717.0 0
398200.0 494497.0 0
100246.0 498405.0 0
104230.0 498394.0 0
108196.0 498601.0 0
112153.0 498766.0 0
116122.0 498966.0 0
137029.0 499178.0 0
140992.0 498912.0 0
189902.0 498940.0 0
193869.0 498757.0 0
197832.0 498579.0 0
201803.0 498441.0 0
205775.0 498221.0 0
209760.0 498463.0 0
213820.0 497905.0 0
221885.0 497789.0 0
229749.0 498367.0 0
238338.0 498391.0 0
246213.0 498226.0 0
249730.0 496353.0 0
263061.0 498687.0 0
270882.0 498092.0 0
278622.0 498213.0 0
282537.0 498819.0 0
286453.0 498228.0 0
290404.0 498618.0 0
294362.0 498325.0 0
298312.0 498539.0 0
302266.0 498693.0 0
306218.0 498857.0 0
310175.0 499016.0 0
358995.0 498912.0 0
362958.0 499175.0 0
383876.0 498966.0 0
387844.0 498765.0 0
391801.0 498600.0 0
395767.0 498395.0 0
399751.0 498405.0 0
120097.0 499210.0 0
124074.0 499510.0 0
128175.0 499929.0 0
132638.0 499185.0 0
144973.0 499027.0 0
148968.0 499069.0 0
153573.0 499496.0 0
157775.0 499548.0 0
161895.0 499544.0 0
165939.0 499502.0 0
169957.0 499442.0 0
173953.0 499377.0 0
177947.0 499305.0 0
181936.0 499212.0 0
185923.0 499097.0 0
217741.0 498672.0 0
225777.0 498606.0 0
234271.0 498567.0 0
242292.0 498973.0 0
251230.0 499972.0 0
255201.0 499708.0 0
259128.0 499179.0 0
267006.0 498837.0 0
274742.0 498877.0 0
314142.0 499155.0 0
318117.0 499262.0 0
322099.0 499340.0 0
326086.0 499406.0 0
330077.0 499463.0 0
334075.0 499517.0 0
338094.0 499556.0 0
342198.0 499556.0 0
346424.0 499485.0 0
351019.0 499070.0 0
355013.0 499023.0 0
367359.0 499185.0 0
371824.0 499935.0 0
375924.0 499513.0 0
379901.0 499211.0 0
102012.0 502277.0 0
106008.0 502246.0 0
109986.0 502247.0 0
113964.0 502305.0 0
117928.0 502509.0 0
121884.0 502765.0 0
125848.0 503056.0 0
130877.0 502858.0 0
134855.0 502505.0 0
138854.0 502704.0 0
142831.0 502459.0 0
146820.0 502568.0 0
150812.0 502618.0 0
155377.0 503050.0 0
159411.0 503155.0 0
163390.0 503196.0 0
167358.0 503189.0 0
171324.0 503154.0 0
175290.0 503106.0 0
179253.0 503049.0 0
183207.0 502971.0 0
187145.0 502876.0 0
191075.0 502731.0 0
194996.0 502556.0 0
198909.0 502383.0 0
202815.0 502447.0 0
206712.0 502078.0 0
210609.0 502474.0 0
214478.0 501822.0 0
218325.0 502616.0 0
222157.0 501741.0 0
225999.0 502594.0 0
229934.0 502311.0 0
233882.0 502538.0 0
237840.0 502343.0 0
241768.0 502921.0 0
245681.0 502183.0 0
249440.0 503512.0 0
253425.0 503264.0 0
257559.0 502914.0 0
261514.0 502362.0 0
265491.0 502534.0 0
269445.0 501995.0 0
273381.0 502628.0 0
277309.0 501974.0 0
281238.0 502602.0 0
285163.0 502005.0 0
289092.0 502519.0 0
293018.0 502066.0 0
296940.0 502542.0 0
300879.0 502418.0 0
304819.0 502578.0 0
308763.0 502730.0 0
312713.0 502863.0 0
316675.0 502961.0 0
320650.0 503026.0 0
324624.0 503087.0 0
328597.0 503134.0 0
332568.0 503171.0 0
336541.0 503182.0 0
340525.0 503141.0 0
344612.0 503035.0 0
349180.0 502622.0 0
353173.0 502567.0 0
357161.0 502462.0 0
361138.0 502701.0 0
365136.0 502500.0 0
369114.0 502857.0 0
374152.0 503060.0 0
378116.0 502766.0 0
382071.0 502510.0 0
386034.0 502305.0 0
390013.0 502247.0 0
393991.0 502246.0 0
397987.0 502277.0 0
105618.0 506249.0 0
109602.0 506242.0 0
113577.0 506257.0 0
117544.0 506437.0 0
189389.0 506341.0 0
193735.0 506328.0 0
197785.0 506194.0 0
205969.0 506035.0 0
214003.0 506019.0 0
222054.0 506005.0 0
230331.0 506255.0 0
238467.0 506285.0 0
246446.0 506134.0 0
262709.0 506161.0 0
270606.0 505859.0 0
278488.0 505910.0 0
286405.0 505960.0 0
294366.0 506028.0 0
302352.0 506129.0 0
306359.0 506258.0 0
310557.0 506293.0 0
382450.0 506438.0 0
386418.0 506257.0 0
390393.0 506242.0 0
394376.0 506249.0 0
101627.0 506280.0 0
121511.0 506675.0 0
125485.0 506937.0 0
129495.0 506610.0 0
133485.0 506407.0 0
137474.0 506440.0 0
141465.0 506346.0 0
145450.0 506416.0 0
149430.0 506446.0 0
153404.0 506529.0 0
157377.0 506578.0 0
161363.0 506627.0 0
165355.0 506641.0 0
169344.0 506623.0 0
173327.0 506583.0 0
177308.0 506534.0 0
181293.0 506464.0 0
185345.0 506434.0 0
201901.0 506335.0 0
209951.0 506403.0 0
218090.0 506570.0 0
226294.0 506563.0 0
234366.0 506497.0 0
242517.0 506828.0 0
250764.0 507275.0 0
254815.0 506960.0 0
258778.0 506713.0 0
266670.0 506420.0 0
274543.0 506450.0 0
282443.0 506413.0 0
290382.0 506304.0 0
298355.0 506289.0 0
314569.0 506396.0 0
318610.0 506441.0 0
322600.0 506509.0 0
326588.0 506560.0 0
330578.0 506603.0 0
334573.0 506625.0 0
338573.0 506612.0 0
342570.0 506559.0 0
346554.0 506529.0 0
350536.0 506449.0 0
354521.0 506414.0 0
358510.0 506347.0 0
362504.0 506440.0 0
366495.0 506407.0 0
370486.0 506611.0 0
374509.0 506940.0 0
378483.0 506677.0 0
398367.0 506279.0 0
102002.0 510265.0 0
106002.0 510237.0 0
110005.0 510224.0 0
114009.0 510217.0 0
118108.0 510356.0 0
122215.0 510553.0 0
126201.0 510782.0 0
130171.0 510548.0 0
134149.0 510368.0 0
138135.0 510373.0 0
142123.0 510339.0 0
146114.0 510387.0 0
150110.0 510406.0 0
154153.0 510457.0 0
158181.0 510483.0 0
162179.0 510525.0 0
166175.0 510528.0 0
170167.0 510513.0 0
174155.0 510470.0 0
178140.0 510424.0 0
182123.0 510355.0 0
186104.0 510351.0 0
190083.0 510267.0 0
194059.0 510296.0 0
198032.0 510164.0 0
202002.0 510327.0 0
205963.0 510033.0 0
209920.0 510388.0 0
213875.0 510014.0 0
217812.0 510526.0 0
221750.0 509990.0 0
225688.0 510501.0 0
229647.0 510169.0 0
233615.0 510418.0 0
237584.0 510180.0 0
241526.0 510685.0 0
245446.0 509997.0 0
249297.0 510994.0 0
253256.0 510599.0 0
257542.0 510511.0 0
261897.0 510082.0 0
265888.0 510339.0 0
269883.0 510055.0 0
273869.0 510384.0 0
277916.0 510062.0 0
281903.0 510369.0 0
285890.0 510071.0 0
289882.0 510271.0 0
293873.0 510073.0 0
297863.0 510262.0 0
301852.0 510093.0 0
305842.0 510218.0 0
309833.0 510220.0 0
313824.0 510318.0 0
317813.0 510334.0 0
321805.0 510407.0 0
325798.0 510457.0 0
329793.0 510500.0 0
333790.0 510519.0 0
337790.0 510514.0 0
341794.0 510470.0 0
345842.0 510463.0 0
349889.0 510408.0 0
353885.0 510387.0 0
357877.0 510339.0 0
361865.0 510375.0 0
365851.0 510369.0 0
369828.0 510552.0 0
373798.0 510786.0 0
377784.0 510555.0 0
381893.0 510357.0 0
385991.0 510217.0 0
389995.0 510224.0 0
393998.0 510237.0 0
397998.0 510265.0 0
246278.0 514054.0 0
270206.0 514041.0 0
101978.0 514265.0 0
105977.0 514237.0 0
109974.0 514223.0 0
113970.0 514206.0 0
117963.0 514319.0 0
121953.0 514496.0 0
125944.0 514696.0 0
129959.0 514535.0 0
133956.0 514363.0 0
137956.0 514358.0 0
141955.0 514337.0 0
145953.0 514384.0 0
149951.0 514402.0 0
153948.0 514449.0 0
157945.0 514464.0 0
161943.0 514504.0 0
165941.0 514499.0 0
169939.0 514487.0 0
173938.0 514446.0 0
177937.0 514405.0 0
181936.0 514335.0 0
185955.0 514337.0 0
189966.0 514251.0 0
193988.0 514278.0 0
197997.0 514146.0 0
202001.0 514318.0 0
206000.0 514084.0 0
210022.0 514368.0 0
214012.0 514082.0 0
218076.0 514481.0 0
222054.0 514079.0 0
226124.0 514458.0 0
230110.0 514125.0 0
234133.0 514375.0 0
238125.0 514143.0 0
242317.0 514585.0 0
250315.0 514855.0 0
254291.0 514428.0 0
258277.0 514439.0 0
262247.0 514066.0 0
266227.0 514322.0 0
274183.0 514363.0 0
278162.0 514054.0 0
282142.0 514353.0 0
286124.0 514064.0 0
290112.0 514263.0 0
294101.0 514069.0 0
298092.0 514255.0 0
302084.0 514084.0 0
306079.0 514205.0 0
310076.0 514204.0 0
314073.0 514303.0 0
318071.0 514308.0 0
322068.0 514383.0 0
326065.0 514430.0 0
330063.0 514474.0 0
334061.0 514488.0 0
338058.0 514491.0 0
342054.0 514452.0 0
346051.0 514453.0 0
350048.0 514405.0 0
354046.0 514384.0 0
358044.0 514337.0 0
362043.0 514360.0 0
366042.0 514364.0 0
370041.0 514538.0 0
374056.0 514699.0 0
378046.0 514497.0 0
382037.0 514320.0 0
386029.0 514207.0 0
390025.0 514224.0 0
394023.0 514237.0 0
398022.0 514265.0 0
102000.0 518264.0 0
106000.0 518236.0 0
110000.0 518223.0 0
114000.0 518201.0 0
118003.0 518292.0 0
122010.0 518454.0 0
126014.0 518627.0 0
130011.0 518522.0 0
134007.0 518362.0 0
138007.0 518349.0 0
142006.0 518336.0 0
146006.0 518383.0 0
150005.0 518400.0 0
154011.0 518444.0 0
158016.0 518452.0 0
162020.0 518488.0 0
166020.0 518481.0 0
170019.0 518472.0 0
174018.0 518430.0 0
178017.0 518391.0 0
182015.0 518320.0 0
186013.0 518325.0 0
190009.0 518237.0 0
194007.0 518263.0 0
198002.0 518132.0 0
201995.0 518308.0 0
205986.0 518084.0 0
209974.0 518351.0 0
213961.0 518082.0 0
217939.0 518446.0 0
221918.0 518077.0 0
225897.0 518432.0 0
229879.0 518106.0 0
233866.0 518357.0 0
237854.0 518133.0 0
241826.0 518536.0 0
245788.0 518023.0 0
249705.0 518800.0 0
253673.0 518350.0 0
257851.0 518411.0 0
261974.0 518083.0 0
265967.0 518309.0 0
269973.0 518080.0 0
273963.0 518347.0 0
277986.0 518082.0 0
281977.0 518339.0 0
285998.0 518084.0 0
289994.0 518258.0 0
293996.0 518086.0 0
297993.0 518252.0 0
301989.0 518086.0 0
305987.0 518200.0 0
309986.0 518195.0 0
313984.0 518294.0 0
317983.0 518294.0 0
321982.0 518369.0 0
325982.0 518414.0 0
329981.0 518459.0 0
333981.0 518469.0 0
337981.0 518476.0 0
341986.0 518441.0 0
345988.0 518447.0 0
349995.0 518403.0 0
353994.0 518383.0 0
357994.0 518336.0 0
361993.0 518350.0 0
365993.0 518362.0 0
369989.0 518525.0 0
373986.0 518630.0 0
377990.0 518455.0 0
381997.0 518293.0 0
386000.0 518201.0 0
390000.0 518223.0 0
394000.0 518237.0 0
398000.0 518264.0 0
102000.0 522263.0 0
106000.0 522236.0 0
110000.0 522222.0 0
114000.0 522199.0 0
118000.0 522271.0 0
121998.0 522419.0 0
125995.0 522568.0 0
129996.0 522507.0 0
133997.0 522360.0 0
137997.0 522342.0 0
141997.0 522336.0 0
145997.0 522382.0 0
149996.0 522398.0 0
153996.0 522438.0 0
157996.0 522439.0 0
161995.0 522473.0 0
165995.0 522465.0 0
169995.0 522459.0 0
173994.0 522416.0 0
177994.0 522378.0 0
181995.0 522306.0 0
185997.0 522312.0 0
189998.0 522223.0 0
193999.0 522249.0 0
198000.0 522121.0 0
202000.0 522299.0 0
206000.0 522086.0 0
210004.0 522335.0 0
214000.0 522086.0 0
218016.0 522416.0 0
222003.0 522086.0 0
226026.0 522411.0 0
230013.0 522096.0 0
234029.0 522344.0 0
238023.0 522128.0 0
242086.0 522509.0 0
246061.0 522077.0 0
250144.0 522766.0 0
254115.0 522299.0 0
258109.0 522398.0 0
262091.0 522081.0 0
266081.0 522303.0 0
270070.0 522078.0 0
274059.0 522336.0 0
278047.0 522082.0 0
282037.0 522328.0 0
286027.0 522084.0 0
290021.0 522255.0 0
294015.0 522085.0 0
298011.0 522250.0 0
302006.0 522086.0 0
306004.0 522196.0 0
310004.0 522186.0 0
314002.0 522285.0 0
318004.0 522283.0 0
322005.0 522358.0 0
326005.0 522401.0 0
330004.0 522446.0 0
334004.0 522454.0 0
338004.0 522462.0 0
342004.0 522431.0 0
346004.0 522440.0 0
350003.0 522400.0 0
354003.0 522382.0 0
358003.0 522336.0 0
362002.0 522343.0 0
366002.0 522360.0 0
370004.0 522509.0 0
374005.0 522570.0 0
378002.0 522420.0 0
382000.0 522271.0 0
386000.0 522199.0 0
390000.0 522222.0 0
394000.0 522236.0 0
398000.0 522263.0 0
102000.0 526262.0 0
106000.0 526236.0 0
110000.0 526220.0 0
114000.0 526199.0 0
118000.0 526254.0 0
122000.0 526390.0 0
126001.0 526518.0 0
130001.0 526490.0 0
134000.0 526357.0 0
138000.0 526336.0 0
142000.0 526336.0 0
146000.0 526381.0 0
150000.0 526395.0 0
154001.0 526430.0 0
158001.0 526428.0 0
162001.0 526458.0 0
166002.0 526450.0 0
170002.0 526445.0 0
174002.0 526401.0 0
178002.0 526364.0 0
182001.0 526291.0 0
186001.0 526300.0 0
190000.0 526209.0 0
194000.0 526238.0 0
198000.0 526112.0 0
202000.0 526290.0 0
206000.0 526086.0 0
210000.0 526320.0 0
214000.0 526086.0 0
217997.0 526391.0 0
222000.0 526086.0 0
225988.0 526392.0 0
229977.0 526091.0 0
233969.0 526334.0 0
237962.0 526125.0 0
241945.0 526488.0 0
245923.0 526075.0 0
249865.0 526745.0 0
253923.0 526271.0 0
257963.0 526390.0 0
261997.0 526086.0 0
265992.0 526297.0 0
269999.0 526086.0 0
273991.0 526326.0 0
278000.0 526086.0 0
281996.0 526316.0 0
286000.0 526086.0 0
289999.0 526252.0 0
294000.0 526086.0 0
298000.0 526248.0 0
302000.0 526086.0 0
306000.0 526193.0 0
310000.0 526178.0 0
313999.0 526276.0 0
317999.0 526272.0 0
321999.0 526347.0 0
325998.0 526387.0 0
329998.0 526434.0 0
333998.0 526440.0 0
337999.0 526448.0 0
341999.0 526421.0 0
345999.0 526433.0 0
350000.0 526397.0 0
354000.0 526381.0 0
358000.0 526336.0 0
362000.0 526337.0 0
366000.0 526357.0 0
369999.0 526492.0 0
373999.0 526520.0 0
378000.0 526391.0 0
382000.0 526254.0 0
386000.0 526199.0 0
390000.0 526221.0 0
394000.0 526236.0 0
398000.0 526262.0 0
102000.0 530261.0 0
106000.0 530235.0 0
110000.0 530219.0 0
114000.0 530199.0 0
118000.0 530241.0 0
122000.0 530365.0 0
126000.0 530476.0 0
130000.0 530472.0 0
134000.0 530353.0 0
138000.0 530331.0 0
142000.0 530335.0 0
146000.0 530379.0 0
150000.0 530391.0 0
154000.0 530423.0 0
158000.0 530416.0 0
162000.0 530443.0 0
166000.0 530435.0 0
170000.0 530431.0 0
173999.0 530386.0 0
178000.0 530350.0 0
182000.0 530277.0 0
186000.0 530288.0 0
190000.0 530196.0 0
194000.0 530229.0 0
198000.0 530105.0 0
202000.0 530281.0 0
206000.0 530086.0 0
210000.0 530307.0 0
214000.0 530086.0 0
218000.0 530369.0 0
222000.0 530086.0 0
226001.0 530373.0 0
230000.0 530088.0 0
234003.0 530324.0 0
238002.0 530122.0 0
242020.0 530469.0 0
246001.0 530086.0 0
250070.0 530726.0 0
254040.0 530247.0 0
258036.0 530383.0 0
262024.0 530086.0 0
266017.0 530291.0 0
270011.0 530086.0 0
274004.0 530315.0 0
278000.0 530086.0 0
282000.0 530305.0 0
286000.0 530086.0 0
290000.0 530248.0 0
294000.0 530086.0 0
298000.0 530245.0 0
302000.0 530086.0 0
306000.0 530190.0 0
310000.0 530169.0 0
314000.0 530267.0 0
318000.0 530260.0 0
322000.0 530335.0 0
326000.0 530374.0 0
330000.0 530421.0 0
334000.0 530426.0 0
338000.0 530434.0 0
342000.0 530411.0 0
346000.0 530424.0 0
350000.0 530393.0 0
354000.0 530379.0 0
358000.0 530335.0 0
362000.0 530332.0 0
366000.0 530353.0 0
370000.0 530473.0 0
374000.0 530477.0 0
378000.0 530366.0 0
382000.0 530241.0 0
386000.0 530199.0 0
390000.0 530219.0 0
394000.0 530235.0 0
398000.0 530261.0 0
102000.0 534260.0 0
106000.0 534234.0 0
110000.0 534217.0 0
114000.0 534198.0 0
118000.0 534231.0 0
122000.0 534345.0 0
126000.0 534440.0 0
130000.0 534454.0 0
134000.0 534348.0 0
138000.0 534327.0 0
142000.0 534335.0 0
146000.0 534377.0 0
150000.0 534387.0 0
154000.0 534414.0 0
158000.0 534405.0 0
162000.0 534428.0 0
166000.0 534420.0 0
170000.0 534416.0 0
174000.0 534370.0 0
178000.0 534336.0 0
182000.0 534264.0 0
186000.0 534276.0 0
190000.0 534184.0 0
194000.0 534220.0 0
198000.0 534099.0 0
202000.0 534273.0 0
206000.0 534086.0 0
210000.0 534295.0 0
214000.0 534086.0 0
218000.0 534349.0 0
222000.0 534086.0 0
226000.0 534356.0 0
230000.0 534087.0 0
234000.0 534314.0 0
238000.0 534120.0 0
241996.0 534452.0 0
245989.0 534086.0 0
249940.0 534710.0 0
253991.0 534227.0 0
257996.0 534376.0 0
262000.0 534087.0 0
265999.0 534285.0 0
270000.0 534086.0 0
274000.0 534305.0 0
278000.0 534086.0 0
282000.0 534295.0 0
286000.0 534086.0 0
290000.0 534244.0 0
294000.0 534086.0 0
298000.0 534242.0 0
302000.0 534086.0 0
306000.0 534188.0 0
310000.0 534161.0 0
314000.0 534258.0 0
318000.0 534249.0 0
322000.0 534323.0 0
326000.0 534360.0 0
330000.0 534407.0 0
334000.0 534412.0 0
338000.0 534421.0 0
342000.0 534401.0 0
346000.0 534416.0 0
350000.0 534389.0 0
354000.0 534377.0 0
358000.0 534335.0 0
362000.0 534328.0 0
366000.0 534349.0 0
370000.0 534455.0 0
374000.0 534441.0 0
378000.0 534346.0 0
382000.0 534231.0 0
386000.0 534198.0 0
390000.0 534217.0 0
394000.0 534234.0 0
398000.0 534260.0 0
102000.0 538259.0 0
106000.0 538233.0 0
110000.0 538215.0 0
114000.0 538198.0 0
118000.0 538223.0 0
122000.0 538329.0 0
126000.0 538411.0 0
130000.0 538435.0 0
134000.0 538343.0 0
138000.0 538324.0 0
142000.0 538334.0 0
146000.0 538375.0 0
150000.0 538383.0 0
154000.0 538406.0 0
158000.0 538394.0 0
162000.0 538414.0 0
166000.0 538405.0 0
170000.0 538401.0 0
174000.0 538354.0 0
178000.0 538322.0 0
182000.0 538250.0 0
186000.0 538265.0 0
190000.0 538173.0 0
194000.0 538214.0 0
198000.0 538096.0 0
202000.0 538266.0 0
206000.0 538086.0 0
210000.0 538283.0 0
214000.0 538086.0 0
218000.0 538331.0 0
222000.0 538086.0 0
226000.0 538339.0 0
230000.0 538086.0 0
234000.0 538305.0 0
238000.0 538116.0 0
242000.0 538435.0 0
246000.0 538086.0 0
250026.0 538694.0 0
254001.0 538209.0 0
258000.0 538368.0 0
262000.0 538087.0 0
266000.0 538279.0 0
270000.0 538086.0 0
274000.0 538296.0 0
278000.0 538086.0 0
282000.0 538285.0 0
286000.0 538086.0 0
290000.0 538240.0 0
294000.0 538086.0 0
298000.0 538239.0 0
302000.0 538086.0 0
306000.0 538187.0 0
310000.0 538154.0 0
314000.0 538250.0 0
318000.0 538238.0 0
322000.0 538312.0 0
326000.0 538346.0 0
330000.0 538394.0 0
334000.0 538399.0 0
338000.0 538408.0 0
342000.0 538391.0 0
346000.0 538407.0 0
350000.0 538385.0 0
354000.0 538375.0 0
358000.0 538334.0 0
362000.0 538325.0 0
366000.0 538344.0 0
370000.0 538436.0 0
374000.0 538412.0 0
378000.0 538329.0 0
382000.0 538223.0 0
386000.0 538198.0 0
390000.0 538216.0 0
394000.0 538233.0 0
398000.0 538259.0 0
102000.0 542257.0 0
106000.0 542232.0 0
110000.0 542214.0 0
114000.0 542198.0 0
118000.0 542216.0 0
122000.0 542315.0 0
126000.0 542387.0 0
130000.0 542418.0 0
134000.0 542338.0 0
138000.0 542322.0 0
142000.0 542333.0 0
146000.0 542373.0 0
150000.0 542378.0 0
154000.0 542398.0 0
158000.0 542384.0 0
162000.0 542401.0 0
166000.0 542390.0 0
170000.0 542386.0 0
174000.0 542339.0 0
178000.0 542309.0 0
182000.0 542238.0 0
186000.0 542255.0 0
190000.0 542163.0 0
194000.0 542208.0 0
198000.0 542093.0 0
202000.0 542259.0 0
206000.0 542086.0 0
210000.0 542273.0 0
214000.0 542086.0 0
218000.0 542316.0 0
222000.0 542086.0 0
226000.0 542324.0 0
230000.0 542086.0 0
234000.0 542296.0 0
238000.0 542113.0 0
242000.0 542418.0 0
246000.0 542086.0 0
249994.0 542679.0 0
254000.0 542194.0 0
258000.0 542360.0 0
262000.0 542087.0 0
266000.0 542272.0 0
270000.0 542086.0 0
274000.0 542286.0 0
278000.0 542086.0 0
282000.0 542276.0 0
286000.0 542086.0 0
290000.0 542236.0 0
294000.0 542086.0 0
298000.0 542236.0 0
302000.0 542086.0 0
306000.0 542185.0 0
310000.0 542147.0 0
314000.0 542242.0 0
318000.0 542227.0 0
322000.0 542300.0 0
326000.0 542332.0 0
330000.0 542380.0 0
334000.0 542385.0 0
338000.0 542396.0 0
342000.0 542382.0 0
346000.0 542398.0 0
350000.0 542380.0 0
354000.0 542373.0 0
358000.0 542333.0 0
362000.0 542322.0 0
366000.0 542338.0 0
370000.0 542418.0 0
374000.0 542387.0 0
378000.0 542316.0 0
382000.0 542217.0 0
386000.0 542198.0 0
390000.0 542214.0 0
394000.0 542232.0 0
398000.0 542257.0 0
102000.0 546256.0 0
106000.0 546232.0 0
110000.0 546212.0 0
114000.0 546198.0 0
118000.0 546211.0 0
122000.0 546304.0 0
126000.0 546367.0 0
130000.0 546401.0 0
134000.0 546332.0 0
138000.0 546320.0 0
142000.0 546333.0 0
146000.0 546371.0 0
150000.0 546374.0 0
154000.0 546390.0 0
158000.0 546375.0 0
162000.0 546389.0 0
166000.0 546376.0 0
170000.0 546372.0 0
174000.0 546324.0 0
178000.0 546297.0 0
182000.0 546226.0 0
186000.0 546246.0 0
190000.0 546154.0 0
194000.0 546203.0 0
198000.0 546091.0 0
202000.0 546253.0 0
206000.0 546086.0 0
210000.0 546264.0 0
214000.0 546086.0 0
218000.0 546302.0 0
222000.0 546086.0 0
226000.0 546310.0 0
230000.0 546086.0 0
234000.0 546288.0 0
238000.0 546110.0 0
242000.0 546402.0 0
246000.0 546086.0 0
250001.0 546663.0 0
254000.0 546180.0 0
258000.0 546352.0 0
262000.0 546087.0 0
266000.0 546266.0 0
270000.0 546086.0 0
274000.0 546278.0 0
278000.0 546086.0 0
282000.0 546268.0 0
286000.0 546086.0 0
290000.0 546232.0 0
294000.0 546086.0 0
298000.0 546233.0 0
302000.0 546086.0 0
306000.0 546184.0 0
310000.0 546141.0 0
314000.0 546235.0 0
318000.0 546217.0 0
322000.0 546289.0 0
326000.0 546318.0 0
330000.0 546367.0 0
334000.0 546372.0 0
338000.0 546385.0 0
342000.0 546373.0 0
346000.0 546390.0 0
350000.0 546375.0 0
354000.0 546371.0 0
358000.0 546333.0 0
362000.0 546320.0 0
366000.0 546332.0 0
370000.0 546401.0 0
374000.0 546367.0 0
378000.0 546304.0 0
382000.0 546212.0 0
386000.0 546198.0 0
390000.0 546212.0 0
394000.0 546232.0 0
398000.0 546256.0 0
102000.0 550254.0 0
106000.0 550231.0 0
110000.0 550210.0 0
114000.0 550198.0 0
118000.0 550207.0 0
122000.0 550295.0 0
126000.0 550350.0 0
130000.0 550385.0 0
134000.0 550326.0 0
138000.0 550318.0 0
142000.0 550332.0 0
146000.0 550369.0 0
150000.0 550369.0 0
154000.0 550382.0 0
158000.0 550366.0 0
162000.0 550378.0 0
166000.0 550363.0 0
170000.0 550358.0 0
174000.0 550310.0 0
178000.0 550285.0 0
182000.0 550216.0 0
186000.0 550238.0 0
190000.0 550146.0 0
194000.0 550199.0 0
198000.0 550089.0 0
202000.0 550247.0 0
206000.0 550086.0 0
210000.0 550256.0 0
214000.0 550086.0 0
218000.0 550290.0 0
222000.0 550086.0 0
226000.0 550297.0 0
230000.0 550086.0 0
234000.0 550280.0 0
238000.0 550107.0 0
242000.0 550387.0 0
246000.0 550086.0 0
254000.0 550168.0 0
258000.0 550343.0 0
262000.0 550087.0 0
266000.0 550261.0 0
270000.0 550086.0 0
274000.0 550269.0 0
278000.0 550086.0 0
282000.0 550260.0 0
286000.0 550086.0 0
290000.0 550229.0 0
294000.0 550086.0 0
298000.0 550230.0 0
302000.0 550086.0 0
306000.0 550183.0 0
310000.0 550136.0 0
314000.0 550228.0 0
318000.0 550208.0 0
322000.0 550279.0 0
326000.0 550305.0 0
330000.0 550354.0 0
334000.0 550359.0 0
338000.0 550374.0 0
342000.0 550364.0 0
346000.0 550383.0 0
350000.0 550370.0 0
354000.0 550369.0 0
358000.0 550332.0 0
362000.0 550318.0 0
366000.0 550327.0 0
370000.0 550386.0 0
374000.0 550350.0 0
378000.0 550295.0 0
382000.0 550208.0 0
386000.0 550198.0 0
390000.0 550210.0 0
394000.0 550231.0 0
398000.0 550254.0 0
250000.0 550648.0 0
102000.0 554253.0 0
106000.0 554230.0 0
110000.0 554208.0 0
114000.0 554197.0 0
118000.0 554204.0 0
122000.0 554288.0 0
126000.0 554337.0 0
130000.0 554371.0 0
134000.0 554321.0 0
138000.0 554316.0 0
142000.0 554331.0 0
146000.0 554366.0 0
150000.0 554364.0 0
154000.0 554375.0 0
158000.0 554358.0 0
162000.0 554368.0 0
166000.0 554351.0 0
170000.0 554345.0 0
174000.0 554297.0 0
178000.0 554274.0 0
182000.0 554206.0 0
186000.0 554230.0 0
190000.0 554139.0 0
194000.0 554195.0 0
198000.0 554088.0 0
202000.0 554241.0 0
206000.0 554086.0 0
210000.0 554248.0 0
214000.0 554086.0 0
218000.0 554279.0 0
222000.0 554086.0 0
226000.0 554286.0 0
230000.0 554086.0 0
234000.0 554272.0 0
238000.0 554104.0 0
242000.0 554373.0 0
246000.0 554086.0 0
250000.0 554633.0 0
254000.0 554157.0 0
258000.0 554335.0 0
262000.0 554087.0 0
266000.0 554255.0 0
270000.0 554086.0 0
274000.0 554261.0 0
278000.0 554086.0 0
282000.0 554254.0 0
286000.0 554086.0 0
290000.0 554225.0 0
294000.0 554086.0 0
298000.0 554227.0 0
302000.0 554086.0 0
306000.0 554182.0 0
310000.0 554131.0 0
314000.0 554223.0 0
318000.0 554199.0 0
322000.0 554269.0 0
326000.0 554293.0 0
330000.0 554342.0 0
334000.0 554347.0 0
338000.0 554364.0 0
342000.0 554357.0 0
346000.0 554376.0 0
350000.0 554365.0 0
354000.0 554366.0 0
358000.0 554331.0 0
362000.0 554316.0 0
366000.0 554321.0 0
370000.0 554372.0 0
374000.0 554337.0 0
378000.0 554288.0 0
382000.0 554204.0 0
386000.0 554197.0 0
390000.0 554208.0 0
394000.0 554230.0 0
398000.0 554253.0 0
102000.0 558251.0 0
106000.0 558229.0 0
110000.0 558206.0 0
114000.0 558197.0 0
118000.0 558202.0 0
122000.0 558282.0 0
126000.0 558325.0 0
130000.0 558358.0 0
134000.0 558315.0 0
138000.0 558315.0 0
142000.0 558330.0 0
150000.0 558360.0 0
154000.0 558369.0 0
158000.0 558350.0 0
162000.0 558358.0 0
166000.0 558339.0 0
170000.0 558333.0 0
174000.0 558285.0 0
178000.0 558264.0 0
182000.0 558197.0 0
186000.0 558224.0 0
190000.0 558133.0 0
194000.0 558192.0 0
198000.0 558088.0 0
202000.0 558236.0 0
206000.0 558086.0 0
210000.0 558241.0 0
214000.0 558086.0 0
218000.0 558270.0 0
222000.0 558086.0 0
226000.0 558275.0 0
230000.0 558086.0 0
234000.0 558265.0 0
238000.0 558101.0 0
242000.0 558360.0 0
246000.0 558086.0 0
254000.0 558148.0 0
258000.0 558327.0 0
262000.0 558087.0 0
266000.0 558249.0 0
270000.0 558086.0 0
274000.0 558254.0 0
278000.0 558086.0 0
282000.0 558248.0 0
286000.0 558086.0 0
290000.0 558222.0 0
294000.0 558086.0 0
298000.0 558224.0 0
302000.0 558086.0 0
306000.0 558181.0 0
310000.0 558126.0 0
314000.0 558217.0 0
318000.0 558192.0 0
322000.0 558260.0 0
326000.0 558282.0 0
330000.0 558330.0 0
334000.0 558336.0 0
338000.0 558355.0 0
342000.0 558350.0 0
346000.0 558369.0 0
350000.0 558361.0 0
358000.0 558330.0 0
362000.0 558315.0 0
366000.0 558315.0 0
370000.0 558359.0 0
374000.0 558326.0 0
378000.0 558282.0 0
382000.0 558202.0 0
386000.0 558197.0 0
390000.0 558206.0 0
394000.0 558229.0 0
398000.0 558251.0 0
146000.0 558364.0 0
250000.0 558618.0 0
354000.0 558364.0 0
102000.0 562250.0 0
106000.0 562228.0 0
110000.0 562205.0 0
114000.0 562197.0 0
118000.0 562199.0 0
122000.0 562277.0 0
126000.0 562316.0 0
130000.0 562347.0 0
134000.0 562310.0 0
138000.0 562314.0 0
142000.0 562329.0 0
146000.0 562362.0 0
150000.0 562356.0 0
154000.0 562363.0 0
158000.0 562344.0 0
162000.0 562350.0 0
166000.0 562329.0 0
170000.0 562323.0 0
174000.0 562274.0 0
178000.0 562255.0 0
182000.0 562189.0 0
186000.0 562218.0 0
190000.0 562128.0 0
194000.0 562189.0 0
198000.0 562087.0 0
202000.0 562232.0 0
206000.0 562086.0 0
210000.0 562235.0 0
214000.0 562086.0 0
218000.0 562262.0 0
222000.0 562086.0 0
226000.0 562266.0 0
230000.0 562086.0 0
234000.0 562258.0 0
238000.0 562099.0 0
242000.0 562348.0 0
246000.0 562086.0 0
250000.0 562605.0 0
254000.0 562140.0 0
258000.0 562319.0 0
262000.0 562087.0 0
266000.0 562244.0 0
270000.0 562086.0 0
274000.0 562248.0 0
278000.0 562086.0 0
282000.0 562242.0 0
286000.0 562086.0 0
290000.0 562219.0 0
294000.0 562086.0 0
298000.0 562222.0 0
302000.0 562086.0 0
306000.0 562180.0 0
310000.0 562123.0 0
314000.0 562213.0 0
318000.0 562184.0 0
322000.0 562252.0 0
326000.0 562271.0 0
330000.0 562320.0 0
334000.0 562326.0 0
338000.0 562347.0 0
342000.0 562343.0 0
346000.0 562363.0 0
350000.0 562357.0 0
354000.0 562362.0 0
358000.0 562329.0 0
362000.0 562314.0 0
366000.0 562310.0 0
370000.0 562347.0 0
374000.0 562316.0 0
378000.0 562277.0 0
382000.0 562199.0 0
386000.0 562197.0 0
390000.0 562205.0 0
394000.0 562228.0 0
398000.0 562250.0 0
182000.0 566182.0 0
190000.0 566124.0 0
198000.0 566087.0 0
206000.0 566086.0 0
214000.0 566086.0 0
222000.0 566086.0 0
230000.0 566086.0 0
238000.0 566097.0 0
246000.0 566086.0 0
254000.0 566133.0 0
262000.0 566087.0 0
270000.0 566086.0 0
278000.0 566086.0 0
286000.0 566086.0 0
294000.0 566086.0 0
302000.0 566086.0 0
310000.0 566119.0 0
318000.0 566178.0 0
102000.0 566248.0 0
106000.0 566227.0 0
110000.0 566203.0 0
114000.0 566197.0 0
118000.0 566197.0 0
122000.0 566273.0 0
126000.0 566309.0 0
130000.0 566337.0 0
134000.0 566305.0 0
138000.0 566313.0 0
142000.0 566329.0 0
146000.0 566360.0 0
150000.0 566352.0 0
154000.0 566358.0 0
158000.0 566338.0 0
162000.0 566342.0 0
166000.0 566319.0 0
170000.0 566313.0 0
174000.0 566265.0 0
178000.0 566248.0 0
186000.0 566213.0 0
194000.0 566187.0 0
202000.0 566228.0 0
210000.0 566230.0 0
218000.0 566254.0 0
226000.0 566258.0 0
234000.0 566253.0 0
242000.0 566337.0 0
250000.0 566592.0 0
258000.0 566312.0 0
266000.0 566240.0 0
274000.0 566242.0 0
282000.0 566238.0 0
290000.0 566216.0 0
298000.0 566219.0 0
306000.0 566180.0 0
314000.0 566208.0 0
322000.0 566244.0 0
326000.0 566262.0 0
330000.0 566311.0 0
334000.0 566317.0 0
338000.0 566340.0 0
342000.0 566337.0 0
346000.0 566358.0 0
350000.0 566353.0 0
354000.0 566360.0 0
358000.0 566329.0 0
362000.0 566313.0 0
366000.0 566305.0 0
370000.0 566337.0 0
374000.0 566309.0 0
378000.0 566273.0 0
382000.0 566197.0 0
386000.0 566197.0 0
390000.0 566203.0 0
394000.0 566227.0 0
398000.0 566248.0 0
102000.0 570247.0 0
106000.0 570226.0 0
110000.0 570202.0 0
114000.0 570197.0 0
118000.0 570196.0 0
122000.0 570269.0 0
126000.0 570303.0 0
130000.0 570329.0 0
134000.0 570300.0 0
138000.0 570312.0 0
142000.0 570328.0 0
146000.0 570358.0 0
150000.0 570349.0 0
154000.0 570354.0 0
158000.0 570332.0 0
162000.0 570335.0 0
166000.0 570311.0 0
170000.0 570304.0 0
174000.0 570256.0 0
178000.0 570241.0 0
182000.0 570175.0 0
186000.0 570209.0 0
190000.0 570121.0 0
194000.0 570185.0 0
198000.0 570087.0 0
202000.0 570225.0 0
206000.0 570086.0 0
210000.0 570226.0 0
214000.0 570086.0 0
218000.0 570248.0 0
222000.0 570086.0 0
226000.0 570251.0 0
230000.0 570086.0 0
234000.0 570247.0 0
238000.0 570095.0 0
242000.0 570327.0 0
246000.0 570086.0 0
250000.0 570580.0 0
254000.0 570127.0 0
258000.0 570305.0 0
262000.0 570087.0 0
266000.0 570236.0 0
270000.0 570086.0 0
274000.0 570237.0 0
278000.0 570086.0 0
282000.0 570234.0 0
286000.0 570086.0 0
290000.0 570213.0 0
294000.0 570086.0 0
298000.0 570217.0 0
302000.0 570086.0 0
306000.0 570179.0 0
310000.0 570117.0 0
314000.0 570205.0 0
318000.0 570173.0 0
322000.0 570238.0 0
326000.0 570254.0 0
330000.0 570303.0 0
334000.0 570310.0 0
338000.0 570334.0 0
342000.0 570332.0 0
346000.0 570354.0 0
350000.0 570349.0 0
354000.0 570358.0 0
358000.0 570328.0 0
362000.0 570312.0 0
366000.0 570300.0 0
370000.0 570329.0 0
374000.0 570303.0 0
378000.0 570269.0 0
382000.0 570196.0 0
386000.0 570197.0 0
390000.0 570202.0 0
394000.0 570226.0 0
398000.0 570247.0 0
102000.0 574246.0 0
106000.0 574225.0 0
110000.0 574201.0 0
114000.0 574197.0 0
118000.0 574195.0 0
122000.0 574266.0 0
126000.0 574298.0 0
130000.0 574322.0 0
134000.0 574296.0 0
138000.0 574311.0 0
142000.0 574327.0 0
146000.0 574356.0 0
150000.0 574346.0 0
154000.0 574350.0 0
158000.0 574328.0 0
162000.0 574330.0 0
166000.0 574304.0 0
170000.0 574297.0 0
174000.0 574249.0 0
178000.0 574235.0 0
182000.0 574170.0 0
186000.0 574205.0 0
190000.0 574118.0 0
194000.0 574184.0 0
198000.0 574087.0 0
202000.0 574222.0 0
206000.0 574086.0 0
210000.0 574222.0 0
214000.0 574086.0 0
218000.0 574243.0 0
222000.0 574086.0 0
226000.0 574246.0 0
230000.0 574086.0 0
234000.0 574243.0 0
238000.0 574094.0 0
242000.0 574319.0 0
246000.0 574086.0 0
250000.0 574570.0 0
254000.0 574123.0 0
258000.0 574299.0 0
262000.0 574087.0 0
266000.0 574232.0 0
270000.0 574086.0 0
274000.0 574233.0 0
278000.0 574086.0 0
282000.0 574230.0 0
286000.0 574086.0 0
290000.0 574211.0 0
294000.0 574086.0 0
298000.0 574215.0 0
302000.0 574086.0 0
306000.0 574178.0 0
310000.0 574114.0 0
314000.0 574202.0 0
318000.0 574168.0 0
322000.0 574232.0 0
326000.0 574247.0 0
330000.0 574295.0 0
334000.0 574303.0 0
338000.0 574328.0 0
342000.0 574328.0 0
346000.0 574350.0 0
350000.0 574346.0 0
354000.0 574356.0 0
358000.0 574327.0 0
362000.0 574311.0 0
366000.0 574296.0 0
370000.0 574322.0 0
374000.0 574298.0 0
378000.0 574267.0 0
382000.0 574195.0 0
386000.0 574197.0 0
390000.0 574201.0 0
394000.0 574225.0 0
398000.0 574246.0 0
102000.0 578245.0 0
106000.0 578225.0 0
110000.0 578200.0 0
114000.0 578196.0 0
118000.0 578193.0 0
122000.0 578264.0 0
126000.0 578294.0 0
130000.0 578316.0 0
134000.0 578293.0 0
138000.0 578311.0 0
142000.0 578327.0 0
146000.0 578355.0 0
150000.0 578343.0 0
154000.0 578347.0 0
158000.0 578324.0 0
162000.0 578325.0 0
166000.0 578298.0 0
170000.0 578291.0 0
174000.0 578243.0 0
178000.0 578230.0 0
182000.0 578166.0 0
186000.0 578202.0 0
190000.0 578116.0 0
194000.0 578182.0 0
198000.0 578086.0 0
202000.0 578219.0 0
206000.0 578086.0 0
210000.0 578219.0 0
214000.0 578086.0 0
218000.0 578239.0 0
222000.0 578086.0 0
226000.0 578241.0 0
230000.0 578086.0 0
234000.0 578239.0 0
238000.0 578092.0 0
242000.0 578312.0 0
246000.0 578086.0 0
250000.0 578561.0 0
254000.0 578119.0 0
258000.0 578294.0 0
262000.0 578087.0 0
266000.0 578229.0 0
270000.0 578086.0 0
274000.0 578229.0 0
278000.0 578086.0 0
282000.0 578227.0 0
286000.0 578086.0 0
290000.0 578209.0 0
294000.0 578086.0 0
298000.0 578213.0 0
302000.0 578086.0 0
306000.0 578178.0 0
310000.0 578113.0 0
314000.0 578200.0 0
318000.0 578164.0 0
322000.0 578228.0 0
326000.0 578241.0 0
330000.0 578289.0 0
334000.0 578297.0 0
338000.0 578324.0 0
342000.0 578324.0 0
346000.0 578347.0 0
350000.0 578344.0 0
354000.0 578355.0 0
358000.0 578327.0 0
362000.0 578311.0 0
366000.0 578293.0 0
370000.0 578316.0 0
374000.0 578294.0 0
378000.0 578264.0 0
382000.0 578193.0 0
386000.0 578196.0 0
390000.0 578200.0 0
394000.0 578225.0 0
398000.0 578245.0 0
102000.0 582244.0 0
106000.0 582224.0 0
110000.0 582199.0 0
114000.0 582196.0 0
118000.0 582193.0 0
122000.0 582263.0 0
126000.0 582291.0 0
130000.0 582311.0 0
134000.0 582290.0 0
138000.0 582310.0 0
142000.0 582326.0 0
146000.0 582354.0 0
150000.0 582341.0 0
154000.0 582344.0 0
158000.0 582321.0 0
162000.0 582321.0 0
166000.0 582293.0 0
170000.0 582286.0 0
174000.0 582238.0 0
178000.0 582226.0 0
182000.0 582163.0 0
186000.0 582200.0 0
190000.0 582114.0 0
194000.0 582181.0 0
198000.0 582086.0 0
202000.0 582218.0 0
206000.0 582086.0 0
210000.0 582216.0 0
214000.0 582086.0 0
218000.0 582235.0 0
222000.0 582086.0 0
226000.0 582237.0 0
230000.0 582086.0 0
234000.0 582236.0 0
238000.0 582091.0 0
242000.0 582306.0 0
246000.0 582086.0 0
250000.0 582554.0 0
254000.0 582116.0 0
258000.0 582290.0 0
262000.0 582086.0 0
266000.0 582227.0 0
270000.0 582086.0 0
274000.0 582226.0 0
278000.0 582086.0 0
282000.0 582225.0 0
286000.0 582086.0 0
290000.0 582208.0 0
294000.0 582086.0 0
298000.0 582212.0 0
302000.0 582086.0 0
306000.0 582178.0 0
310000.0 582111.0 0
314000.0 582198.0 0
318000.0 582161.0 0
322000.0 582224.0 0
326000.0 582236.0 0
330000.0 582285.0 0
334000.0 582292.0 0
338000.0 582320.0 0
342000.0 582321.0 0
346000.0 582344.0 0
350000.0 582342.0 0
354000.0 582354.0 0
358000.0 582326.0 0
362000.0 582310.0 0
366000.0 582290.0 0
370000.0 582311.0 0
374000.0 582291.0 0
378000.0 582263.0 0
382000.0 582193.0 0
386000.0 582196.0 0
390000.0 582199.0 0
394000.0 582224.0 0
398000.0 582244.0 0
102000.0 586244.0 0
106000.0 586224.0 0
110000.0 586198.0 0
114000.0 586196.0 0
118000.0 586192.0 0
122000.0 586261.0 0
126000.0 586289.0 0
130000.0 586308.0 0
134000.0 586288.0 0
138000.0 586310.0 0
142000.0 586326.0 0
146000.0 586353.0 0
150000.0 586340.0 0
154000.0 586342.0 0
158000.0 586319.0 0
162000.0 586318.0 0
166000.0 586290.0 0
170000.0 586282.0 0
174000.0 586234.0 0
178000.0 586223.0 0
182000.0 586160.0 0
186000.0 586198.0 0
190000.0 586112.0 0
194000.0 586181.0 0
198000.0 586086.0 0
202000.0 586216.0 0
206000.0 586086.0 0
210000.0 586214.0 0
214000.0 586086.0 0
218000.0 586233.0 0
222000.0 586086.0 0
226000.0 586234.0 0
230000.0 586086.0 0
234000.0 586234.0 0
238000.0 586091.0 0
242000.0 586302.0 0
246000.0 586086.0 0
250000.0 586549.0 0
254000.0 586114.0 0
258000.0 586287.0 0
262000.0 586086.0 0
266000.0 586225.0 0
270000.0 586086.0 0
274000.0 586224.0 0
278000.0 586086.0 0
282000.0 586223.0 0
286000.0 586086.0 0
290000.0 586207.0 0
294000.0 586086.0 0
298000.0 586211.0 0
302000.0 586086.0 0
306000.0 586177.0 0
310000.0 586110.0 0
314000.0 586196.0 0
318000.0 586158.0 0
322000.0 586221.0 0
326000.0 586233.0 0
330000.0 586281.0 0
334000.0 586289.0 0
338000.0 586318.0 0
342000.0 586319.0 0
346000.0 586342.0 0
350000.0 586340.0 0
354000.0 586353.0 0
358000.0 586326.0 0
362000.0 586310.0 0
366000.0 586288.0 0
370000.0 586308.0 0
374000.0 586289.0 0
378000.0 586261.0 0
382000.0 586192.0 0
386000.0 586196.0 0
390000.0 586198.0 0
394000.0 586224.0 0
398000.0 586244.0 0
102000.0 590243.0 0
106000.0 590224.0 0
110000.0 590198.0 0
114000.0 590196.0 0
118000.0 590192.0 0
122000.0 590261.0 0
126000.0 590287.0 0
130000.0 590305.0 0
134000.0 590287.0 0
138000.0 590309.0 0
142000.0 590326.0 0
146000.0 590352.0 0
150000.0 590339.0 0
154000.0 590341.0 0
158000.0 590317.0 0
162000.0 590317.0 0
166000.0 590287.0 0
170000.0 590279.0 0
174000.0 590231.0 0
178000.0 590221.0 0
182000.0 590158.0 0
186000.0 590197.0 0
190000.0 590112.0 0
194000.0 590180.0 0
198000.0 590086.0 0
202000.0 590215.0 0
206000.0 590086.0 0
210000.0 590213.0 0
214000.0 590086.0 0
218000.0 590231.0 0
222000.0 590086.0 0
226000.0 590233.0 0
230000.0 590086.0 0
234000.0 590232.0 0
238000.0 590090.0 0
242000.0 590299.0 0
246000.0 590086.0 0
250000.0 590545.0 0
254000.0 590112.0 0
258000.0 590285.0 0
262000.0 590086.0 0
266000.0 590223.0 0
270000.0 590086.0 0
274000.0 590223.0 0
278000.0 590086.0 0
282000.0 590222.0 0
286000.0 590086.0 0
290000.0 590206.0 0
294000.0 590086.0 0
298000.0 590211.0 0
302000.0 590086.0 0
306000.0 590177.0 0
310000.0 590109.0 0
314000.0 590195.0 0
318000.0 590157.0 0
322000.0 590220.0 0
326000.0 590230.0 0
330000.0 590279.0 0
334000.0 590287.0 0
338000.0 590316.0 0
342000.0 590317.0 0
346000.0 590341.0 0
350000.0 590339.0 0
354000.0 590352.0 0
358000.0 590326.0 0
362000.0 590309.0 0
366000.0 590287.0 0
370000.0 590306.0 0
374000.0 590287.0 0
378000.0 590261.0 0
382000.0 590192.0 0
386000.0 590196.0 0
390000.0 590198.0 0
394000.0 590224.0 0
398000.0 590243.0 0
102000.0 594243.0 0
106000.0 594224.0 0
110000.0 594198.0 0
114000.0 594196.0 0
118000.0 594191.0 0
122000.0 594260.0 0
126000.0 594287.0 0
130000.0 594304.0 0
134000.0 594286.0 0
138000.0 594309.0 0
142000.0 594325.0 0
146000.0 594352.0 0
150000.0 594338.0 0
154000.0 594341.0 0
158000.0 594317.0 0
162000.0 594316.0 0
166000.0 594286.0 0
170000.0 594278.0 0
174000.0 594230.0 0
178000.0 594220.0 0
182000.0 594157.0 0
186000.0 594197.0 0
190000.0 594111.0 0
194000.0 594180.0 0
198000.0 594086.0 0
202000.0 594215.0 0
206000.0 594086.0 0
210000.0 594213.0 0
214000.0 594086.0 0
218000.0 594230.0 0
222000.0 594086.0 0
226000.0 594232.0 0
230000.0 594086.0 0
234000.0 594231.0 0
238000.0 594090.0 0
242000.0 594297.0 0
246000.0 594086.0 0
250000.0 594543.0 0
254000.0 594111.0 0
258000.0 594284.0 0
262000.0 594086.0 0
266000.0 594223.0 0
270000.0 594086.0 0
274000.0 594222.0 0
278000.0 594086.0 0
282000.0 594222.0 0
286000.0 594086.0 0
290000.0 594206.0 0
294000.0 594086.0 0
298000.0 594210.0 0
302000.0 594086.0 0
306000.0 594177.0 0
310000.0 594109.0 0
314000.0 594195.0 0
318000.0 594156.0 0
322000.0 594219.0 0
326000.0 594229.0 0
330000.0 594277.0 0
334000.0 594285.0 0
338000.0 594315.0 0
342000.0 594317.0 0
346000.0 594341.0 0
350000.0 594339.0 0
354000.0 594352.0 0
358000.0 594325.0 0
362000.0 594309.0 0
366000.0 594286.0 0
370000.0 594304.0 0
374000.0 594287.0 0
378000.0 594260.0 0
382000.0 594191.0 0
386000.0 594196.0 0
390000.0 594198.0 0
394000.0 594224.0 0
398000.0 594243.0 0
POINT_DATA 4650
SCALARS Radius float 1
LOOKUP_TABLE default
4000.0 4000.0 4000.0 4000.0 4000.0 4000.0 4000.0 4000.0 4000.0 4000.0 4000.0 4000.0 4000.0 4000.0 4000.0 4000.0 4000.0 4000.0 4000.0 4000.0 4000.0 4000.0 4000.0 4000.0 4000.0 4000.0 4000.0 4000.0 4000.0 4000.0 4000.0 4000.0 4000.0 4000.0 4000.0 4000.0 4000.0 4000.0 4000.0 4000.0 4000.0 4000.0 4000.0 4000.0 4000.0 4000.0 4000.0 4000.0 4000.0 4000.0 4000.0 4000.0 4000.0 4000.0 4000.0 4000.0 4000.0 4000.0 4000.0 4000.0 4000.0 4000.0 4000.0 4000.0 4000.0 4000.0 4000.0 4000.0 4000.0 4000.0 4000.0 4000.0 4000.0 4000.0 4000.0 4000.0 4000.0 4000.0 4000.0 4000.0 4000.0 4000.0 4000.0 4000.0 4000.0 4000.0 4000.0 4000.0 4000.0 4000.0 4000.0 4000.0 4000.0 4000.0 4000.0 4000.0 4000.0 4000.0 4000.0 4000.0 4000.0 4000.0 4000.0 4000.0 4000.0 4000.0 4000.0 4000.0 4000.0 4000.0 4000.0 4000.0 4000.0 4000.0 4000.0 4000.0 4000.0 4000.0 4000.0 4000.0 4000.0 4000.0 4000.0 4000.0 4000.0 4000.0 4000.0 4000.0 4000.0 4000.0 4000.0 4000.0 4000.0 4000.0 4000.0 4000.0 4000.0 4000.0 4000.0 4000.0 4000.0 4000.0 4000.0 4000.0 4000.0 4000.0 4000.0 4000.0 4000.0 4000.0 4000.0 4000.0 4000.0 4000.0 4000.0 4000.0 4000.0 4000.0 4000.0 4000.0 4000.0 4000.0 4000.0 4000.0 4000.0 4000.0 4000.0 4000.0 4000.0 4000.0 4000.0 4000.0 4000.0 4000.0 4000.0 4000.0 4000.0 4000.0 4000.0 4000.0 4000.0 4000.0 4000.0 4000.0 4000.0 4000.0 4000.0 4000.0 4000.0 4000.0 4000.0 4000.0 4000.0 4000.0 4000.0 4000.0 4000.0 4000.0 4000.0 4000.0 4000.0 4000.0 4000.0 4000.0 4000.0 4000.0 4000.0 4000.0 4000.0 4000.0 4000.0 4000.0 4000.0 4000.0 4000.0 4000.0 4000.0 4000.0 4000.0 4000.0 4000.0 4000.0 4000.0 4000.0 4000.0 4000.0 4000.0 4000.0 4000.0 4000.0 4000.0 4000.0 4000.0 4000.0 4000.0 4000.0 4000.0 4000.0 4000.0 4000.0 4000.0 4000.0 4000.0 4000.0 4000.0 4000.0 4000.0 4000.0 4000.0 4000.0 4000.0 4000.0 4000.0 4000.0 4000.0 4000.0 4000.0 4000.0 4000.0 4000.0 4000.0 4000.0 4000.0 4000.0 4000.0 4000.0 4000.0 4000.0 4000.0 4000.0 4000.0 4000.0 4000.0 4000.0 4000.0 4000.0 4000.0 4000.0 4000.0 4000.0 4000.0 4000.0 4000.0 4000.0 4000.0 4000.0 4000.0 4000.0 4000.0 4000.0 4000.0 4000.0 4000.0 4000.0 4000.0 4000.0 4000.0 4000.0 4000.0 4000.0 4000.0 4000.0 4000.0 4000.0 4000.0 4000.0 4000.0 4000.0 4000.0 4000.0 4000.0 4000.0 4000.0 4000.0 4000.0 4000.0 4000.0 4000.0 4000.0 4000.0 4000.0 4000.0 4000.0 4000.0 4000.0 4000.0 4000.0 4000.0 4000.0 4000.0 4000.0 4000.0 4000.0 4000.0 4000.0 4000.0 4000.0 4000.0 4000.0 4000.0 4000.0 4000.0 4000.0 4000.0 4000.0 4000.0 4000.0 4000.0 4000.0 4000.0 4000.0 4000.0 4000.0 4000.0 4000.0 4000.0 4000.0 4000.0 4000.0 4000.0 4000.0 4000.0 4000.0 4000.0 4000.0 4000.0 4000.0 4000.0 4000.0 4000.0 4000.0 4000.0 4000.0 4000.0 4000.0 4000.0 4000.0 4000.0 4000.0 4000.0 4000.0 4000.0 4000.0 4000.0 4000.0 4000.0 4000.0 4000.0 4000.0 4000.0 4000.0 4000.0 4000.0 4000.0 4000.0 4000.0 4000.0 4000.0 4000.0 4000.0 4000.0 4000.0 4000.0 4000.0 4000.0 4000.0 4000.0 4000.0 4000.0 4000.0 4000.0 4000.0 4000.0 4000.0 4000.0 4000.0 4000.0 4000.0 4000.0 4000.0 4000.0 4000.0 4000.0 4000.0 4000.0 4000.0 4000.0 4000.0 4000.0 4000.0 4000.0 4000.0 4000.0 4000.0 4000.0 4000.0 4000.0 4000.0 4000.0 4000.0 4000.0 4000.0 4000.0 4000.0 4000.0 4000.0 4000.0 4000.0 4000.0 4000.0 4000.0 4000.0 4000.0 4000.0 4000.0 4000.0 4000.0 4000.0 4000.0 4000.0 4000.0 4000.0 4000.0 4000.0 4000.0 4000.0 4000.0 4000.0 4000.0 4000.0 4000.0 4000.0 4000.0 4000.0 4000.0 4000.0 4000.0 4000.0 4000.0 4000.0 4000.0 4000.0 4000.0 4000.0 4000.0 4000.0 4000.0 4000.0 4000.0 4000.0 4000.0 4000.0 4000.0 4000.0 4000.0 4000.0 4000.0 4000.0 4000.0 4000.0 4000.0 4000.0 4000.0 4000.0 4000.0 4000.0 4000.0 4000.0 4000.0 4000.0 4000.0 4000.0 4000.0 4000.0 4000.0 4000.0 4000.0 4000.0 4000.0 4000.0 4000.0 4000.0 4000.0 4000.0 4000.0 4000.0 4000.0 4000.0 4000.0 4000.0 4000.0 4000.0 4000.0 4000.0 4000.0 4000.0 4000.0 4000.0 4000.0 4000.0 4000.0 4000.0 4000.0 4000.0 4000.0 4000.0 4000.0 4000.0 4000.0 4000.0 4000.0 4000.0 4000.0 4000.0 4000.0 4000.0 4000.0 4000.0 4000.0 4000.0 4000.0 4000.0 4000.0 4000.0 4000.0 4000.0 4000.0 4000.0 4000.0 4000.0 4000.0 4000.0 4000.0 4000.0 4000.0 4000.0 4000.0 4000.0 4000.0 4000.0 4000.0 4000.0 4000.0 4000.0 4000.0 4000.0 4000.0 4000.0 4000.0 4000.0 4000.0 4000.0 4000.0 4000.0 4000.0 4000.0 4000.0 4000.0 4000.0 4000.0 4000.0 4000.0 4000.0 4000.0 4000.0 4000.0 4000.0 4000.0 4000.0 4000.0 4000.0 4000.0 4000.0 4000.0 4000.0 4000.0 4000.0 4000.0 4000.0 4000.0 4000.0 4000.0 4000.0 4000.0 4000.0 4000.0 4000.0 4000.0 4000.0 4000.0 4000.0 4000.0 4000.0 4000.0 4000.0 4000.0 4000.0 4000.0 4000.0 4000.0 4000.0 4000.0 4000.0 4000.0 4000.0 4000.0 4000.0 4000.0 4000.0 4000.0 4000.0 4000.0 4000.0 4000.0 4000.0 4000.0 4000.0 4000.0 4000.0 4000.0 4000.0 4000.0 4000.0 4000.0 4000.0 4000.0 4000.0 4000.0 4000.0 4000.0 4000.0 4000.0 4000.0 4000.0 4000.0 4000.0 4000.0 4000.0 4000.0 4000.0 4000.0 4000.0 4000.0 4000.0 4000.0 4000.0 4000.0 4000.0 4000.0 4000.0 4000.0 4000.0 4000.0 4000.0 4000.0 4000.0 4000.0 4000.0 4000.0 4000.0 4000.0 4000.0 4000.0 4000.0 4000.0 4000.0 4000.0 4000.0 4000.0 4000.0 4000.0 4000.0 4000.0 4000.0 4000.0 4000.0 4000.0 4000.0 4000.0 4000.0 4000.0 4000.0 4000.0 4000.0 4000.0 4000.0 4000.0 4000.0 4000.0 4000.0 4000.0 4000.0 4000.0 4000.0 4000.0 4000.0 4000.0 4000.0 4000.0 4000.0 4000.0 4000.0 4000.0 4000.0 4000.0 4000.0 4000.0 4000.0 4000.0 4000.0 4000.0 4000.0 4000.0 4000.0 4000.0 4000.0 4000.0 4000.0 4000.0 4000.0 4000.0 4000.0 4000.0 4000.0 4000.0 4000.0 4000.0 4000.0 4000.0 4000.0 4000.0 4000.0 4000.0 4000.0 4000.0 4000.0 4000.0 4000.0 4000.0 4000.0 4000.0 4000.0 4000.0 4000.0 4000.0 4000.0 4000.0 4000.0 4000.0 4000.0 4000.0 4000.0 4000.0 4000.0 4000.0 4000.0 4000.0 4000.0 4000.0 4000.0 4000.0 4000.0 4000.0 4000.0 4000.0 4000.0 4000.0 4000.0 4000.0 4000.0 4000.0 4000.0 4000.0 4000.0 4000.0 4000.0 4000.0 4000.0 4000.0 4000.0 4000.0 4000.0 4000.0 4000.0 4000.0 4000.0 4000.0 4000.0 4000.0 4000.0 4000.0 4000.0 4000.0 4000.0 4000.0 4000.0 4000.0 4000.0 4000.0 4000.0 4000.0 4000.0 4000.0 4000.0 4000.0 4000.0 4000.0 4000.0 4000.0 4000.0 4000.0 4000.0 4000.0 4000.0 4000.0 4000.0 4000.0 4000.0 4000.0 4000.0 4000.0 4000.0 4000.0 4000.0 4000.0 4000.0 4000.0 4000.0 4000.0 4000.0 4000.0 4000.0 4000.0 4000.0 4000.0 4000.0 4000.0 4000.0 4000.0 4000.0 4000.0 4000.0 4000.0 4000.0 4000.0 4000.0 4000.0 4000.0 4000.0 4000.0 4000.0 4000.0 4000.0 4000.0 4000.0 4000.0 4000.0 4000.0 4000.0 4000.0 4000.0 4000.0 4000.0 4000.0 4000.0 4000.0 4000.0 4000.0 4000.0 4000.0 4000.0 4000.0 4000.0 4000.0 4000.0 4000.0 4000.0 4000.0 4000.0 4000.0 4000.0 4000.0 4000.0 4000.0 4000.0 4000.0 4000.0 4000.0 4000.0 4000.0 4000.0 4000.0 4000.0 4000.0 4000.0 4000.0 4000.0 4000.0 4000.0 4000.0 4000.0 4000.0 4000.0 4000.0 4000.0 4000.0 4000.0 4000.0 4000.0 4000.0 4000.0 4000.0 4000.0 4000.0 4000.0 4000.0 4000.0 4000.0 4000.0 4000.0 4000.0 4000.0 4000.0 4000.0 4000.0 4000.0 4000.0 4000.0 4000.0 4000.0 4000.0 4000.0 4000.0 4000.0 4000.0 4000.0 4000.0 4000.0 4000.0 4000.0 4000.0 4000.0 4000.0 4000.0 4000.0 4000.0 4000.0 4000.0 4000.0 4000.0 4000.0 4000.0 4000.0 4000.0 4000.0 4000.0 4000.0 4000.0 4000.0 4000.0 4000.0 4000.0 4000.0 4000.0 4000.0 4000.0 4000.0 4000.0 4000.0 4000.0 4000.0 4000.0 4000.0 4000.0 4000.0 4000.0 4000.0 4000.0 4000.0 4000.0 4000.0 4000.0 4000.0 4000.0 4000.0 4000.0 4000.0 4000.0 4000.0 4000.0 4000.0 4000.0 4000.0 4000.0 4000.0 4000.0 4000.0 4000.0 4000.0 4000.0 4000.0 4000.0 4000.0 4000.0 4000.0 4000.0 4000.0 4000.0 4000.0 4000.0 4000.0 4000.0 4000.0 4000.0 4000.0 4000.0 4000.0 4000.0 4000.0 4000.0 4000.0 4000.0 4000.0 4000.0 4000.0 4000.0 4000.0 4000.0 4000.0 4000.0 4000.0 4000.0 4000.0 4000.0 4000.0 4000.0 4000.0 4000.0 4000.0 4000.0 4000.0 4000.0 4000.0 4000.0 4000.0 4000.0 4000.0 4000.0 4000.0 4000.0 4000.0 4000.0 4000.0 4000.0 4000.0 4000.0 4000.0 4000.0 4000.0 4000.0 4000.0 4000.0 4000.0 4000.0 4000.0 4000.0 4000.0 4000.0 4000.0 4000.0 4000.0 4000.0 4000.0 4000.0 4000.0 4000.0 4000.0 4000.0 4000.0 4000.0 4000.0 4000.0 4000.0 4000.0 4000.0 4000.0 4000.0 4000.0 4000.0 4000.0 4000.0 4000.0 4000.0 4000.0 4000.0 4000.0 4000.0 4000.0 4000.0 4000.0 4000.0 4000.0 4000.0 4000.0 4000.0 4000.0 4000.0 4000.0 4000.0 4000.0 4000.0 4000.0 4000.0 4000.0 4000.0 4000.0 4000.0 4000.0 4000.0 4000.0 4000.0 4000.0 4000.0 4000.0 4000.0 4000.0 4000.0 4000.0 4000.0 4000.0 4000.0 4000.0 4000.0 4000.0 4000.0 4000.0 4000.0 4000.0 4000.0 4000.0 4000.0 4000.0 4000.0 4000.0 4000.0 4000.0 4000.0 4000.0 4000.0 4000.0 4000.0 4000.0 4000.0 4000.0 4000.0 4000.0 4000.0 4000.0 4000.0 4000.0 4000.0 4000.0 4000.0 4000.0 4000.0 4000.0 4000.0 4000.0 4000.0 4000.0 4000.0 4000.0 4000.0 4000.0 4000.0 4000.0 4000.0 4000.0 4000.0 4000.0 4000.0 4000.0 4000.0 4000.0 4000.0 4000.0 4000.0 4000.0 4000.0 4000.0 4000.0 4000.0 4000.0 4000.0 4000.0 4000.0 4000.0 4000.0 4000.0 4000.0 4000.0 4000.0 4000.0 4000.0 4000.0 4000.0 4000.0 4000.0 4000.0 4000.0 4000.0 4000.0 4000.0 4000.0 4000.0 4000.0 4000.0 4000.0 4000.0 4000.0 4000.0 4000.0 4000.0 4000.0 4000.0 4000.0 4000.0 4000.0 4000.0 4000.0 4000.0 4000.0 4000.0 4000.0 4000.0 4000.0 4000.0 4000.0 4000.0 4000.0 4000.0 4000.0 4000.0 4000.0 4000.0 4000.0 4000.0 4000.0 4000.0 4000.0 4000.0 4000.0 4000.0 4000.0 4000.0 4000.0 4000.0 4000.0 4000.0 4000.0 4000.0 4000.0 4000.0 4000.0 4000.0 4000.0 4000.0 4000.0 4000.0 4000.0 4000.0 4000.0 4000.0 4000.0 4000.0 4000.0 4000.0 4000.0 4000.0 4000.0 4000.0 4000.0 4000.0 4000.0 4000.0 4000.0 4000.0 4000.0 4000.0 4000.0 4000.0 4000.0 4000.0 4000.0 4000.0 4000.0 4000.0 4000.0 4000.0 4000.0 4000.0 4000.0 4000.0 4000.0 4000.0 4000.0 4000.0 4000.0 4000.0 4000.0 4000.0 4000.0 4000.0 4000.0 4000.0 4000.0 4000.0 4000.0 4000.0 4000.0 4000.0 4000.0 4000.0 4000.0 4000.0 4000.0 4000.0 4000.0 4000.0 4000.0 4000.0 4000.0 4000.0 4000.0 4000.0 4000.0 4000.0 4000.0 4000.0 4000.0 4000.0 4000.0 4000.0 4000.0 4000.0 4000.0 4000.0 4000.0 4000.0 4000.0 4000.0 4000.0 4000.0 4000.0 4000.0 4000.0 4000.0 4000.0 4000.0 4000.0 4000.0 4000.0 4000.0 4000.0 4000.0 4000.0 4000.0 4000.0 4000.0 4000.0 4000.0 4000.0 4000.0 4000.0 4000.0 4000.0 4000.0 4000.0 4000.0 4000.0 4000.0 4000.0 4000.0 4000.0 4000.0 4000.0 4000.0 4000.0 4000.0 4000.0 4000.0 4000.0 4000.0 4000.0 4000.0 4000.0 4000.0 4000.0 4000.0 4000.0 4000.0 4000.0 4000.0 4000.0 4000.0 4000.0 4000.0 4000.0 4000.0 4000.0 4000.0 4000.0 4000.0 4000.0 4000.0 4000.0 4000.0 4000.0 4000.0 4000.0 4000.0 4000.0 4000.0 4000.0 4000.0 4000.0 4000.0 4000.0 4000.0 4000.0 4000.0 4000.0 4000.0 4000.0 4000.0 4000.0 4000.0 4000.0 4000.0 4000.0 4000.0 4000.0 4000.0 4000.0 4000.0 4000.0 4000.0 4000.0 4000.0 4000.0 4000.0 4000.0 4000.0 4000.0 4000.0 4000.0 4000.0 4000.0 4000.0 4000.0 4000.0 4000.0 4000.0 4000.0 4000.0 4000.0 4000.0 4000.0 4000.0 4000.0 4000.0 4000.0 4000.0 4000.0 4000.0 4000.0 4000.0 4000.0 4000.0 4000.0 4000.0 4000.0 4000.0 4000.0 4000.0 4000.0 4000.0 4000.0 4000.0 4000.0 4000.0 4000.0 4000.0 4000.0 4000.0 4000.0 4000.0 4000.0 4000.0 4000.0 4000.0 4000.0 4000.0 4000.0 4000.0 4000.0 4000.0 4000.0 4000.0 4000.0 4000.0 4000.0 4000.0 4000.0 4000.0 4000.0 4000.0 4000.0 4000.0 4000.0 4000.0 4000.0 4000.0 4000.0 4000.0 4000.0 4000.0 4000.0 4000.0 4000.0 4000.0 4000.0 4000.0 4000.0 4000.0 4000.0 4000.0 4000.0 4000.0 4000.0 4000.0 4000.0 4000.0 4000.0 4000.0 4000.0 4000.0 4000.0 4000.0 4000.0 4000.0 4000.0 4000.0 4000.0 4000.0 4000.0 4000.0 4000.0 4000.0 4000.0 4000.0 4000.0 4000.0 4000.0 4000.0 4000.0 4000.0 4000.0 4000.0 4000.0 4000.0 4000.0 4000.0 4000.0 4000.0 4000.0 4000.0 4000.0 4000.0 4000.0 4000.0 4000.0 4000.0 4000.0 4000.0 4000.0 4000.0 4000.0 4000.0 4000.0 4000.0 4000.0 4000.0 4000.0 4000.0 4000.0 4000.0 4000.0 4000.0 4000.0 4000.0 4000.0 4000.0 4000.0 4000.0 4000.0 4000.0 4000.0 4000.0 4000.0 4000.0 4000.0 4000.0 4000.0 4000.0 4000.0 4000.0 4000.0 4000.0 4000.0 4000.0 4000.0 4000.0 4000.0 4000.0 4000.0 4000.0 4000.0 4000.0 4000.0 4000.0 4000.0 4000.0 4000.0 4000.0 4000.0 4000.0 4000.0 4000.0 4000.0 4000.0 4000.0 4000.0 4000.0 4000.0 4000.0 4000.0 4000.0 4000.0 4000.0 4000.0 4000.0 4000.0 4000.0 4000.0 4000.0 4000.0 4000.0 4000.0 4000.0 4000.0 4000.0 4000.0 4000.0 4000.0 4000.0 4000.0 4000.0 4000.0 4000.0 4000.0 4000.0 4000.0 4000.0 4000.0 4000.0 4000.0 4000.0 4000.0 4000.0 4000.0 4000.0 4000.0 4000.0 4000.0 4000.0 4000.0 4000.0 4000.0 4000.0 4000.0 4000.0 4000.0 4000.0 4000.0 4000.0 4000.0 4000.0 4000.0 4000.0 4000.0 4000.0 4000.0 4000.0 4000.0 4000.0 4000.0 4000.0 4000.0 4000.0 4000.0 4000.0 4000.0 4000.0 4000.0 4000.0 4000.0 4000.0 4000.0 4000.0 4000.0 4000.0 4000.0 4000.0 4000.0 4000.0 4000.0 4000.0 4000.0 4000.0 4000.0 4000.0 4000.0 4000.0 4000.0 4000.0 4000.0 4000.0 4000.0 4000.0 4000.0 4000.0 4000.0 4000.0 4000.0 4000.0 4000.0 4000.0 4000.0 4000.0 4000.0 4000.0 4000.0 4000.0 4000.0 4000.0 4000.0 4000.0 4000.0 4000.0 4000.0 4000.0 4000.0 4000.0 4000.0 4000.0 4000.0 4000.0 4000.0 4000.0 4000.0 4000.0 4000.0 4000.0 4000.0 4000.0 4000.0 4000.0 4000.0 4000.0 4000.0 4000.0 4000.0 4000.0 4000.0 4000.0 4000.0 4000.0 4000.0 4000.0 4000.0 4000.0 4000.0 4000.0 4000.0 4000.0 4000.0 4000.0 4000.0 4000.0 4000.0 4000.0 4000.0 4000.0 4000.0 4000.0 4000.0 4000.0 4000.0 4000.0 4000.0 4000.0 4000.0 4000.0 4000.0 4000.0 4000.0 4000.0 4000.0 4000.0 4000.0 4000.0 4000.0 4000.0 4000.0 4000.0 4000.0 4000.0 4000.0 4000.0 4000.0 4000.0 4000.0 4000.0 4000.0 4000.0 4000.0 4000.0 4000.0 4000.0 4000.0 4000.0 4000.0 4000.0 4000.0 4000.0 4000.0 4000.0 4000.0 4000.0 4000.0 4000.0 4000.0 4000.0 4000.0 4000.0 4000.0 4000.0 4000.0 4000.0 4000.0 4000.0 4000.0 4000.0 4000.0 4000.0 4000.0 4000.0 4000.0 4000.0 4000.0 4000.0 4000.0 4000.0 4000.0 4000.0 4000.0 4000.0 4000.0 4000.0 4000.0 4000.0 4000.0 4000.0 4000.0 4000.0 4000.0 4000.0 4000.0 4000.0 4000.0 4000.0 4000.0 4000.0 4000.0 4000.0 4000.0 4000.0 4000.0 4000.0 4000.0 4000.0 4000.0 4000.0 4000.0 4000.0 4000.0 4000.0 4000.0 4000.0 4000.0 4000.0 4000.0 4000.0 4000.0 4000.0 4000.0 4000.0 4000.0 4000.0 4000.0 4000.0 4000.0 4000.0 4000.0 4000.0 4000.0 4000.0 4000.0 4000.0 4000.0 4000.0 4000.0 4000.0 4000.0 4000.0 4000.0 4000.0 4000.0 4000.0 4000.0 4000.0 4000.0 4000.0 4000.0 4000.0 4000.0 4000.0 4000.0 4000.0 4000.0 4000.0 4000.0 4000.0 4000.0 4000.0 4000.0 4000.0 4000.0 4000.0 4000.0 4000.0 4000.0 4000.0 4000.0 4000.0 4000.0 4000.0 4000.0 4000.0 4000.0 4000.0 4000.0 4000.0 4000.0 4000.0 4000.0 4000.0 4000.0 4000.0 4000.0 4000.0 4000.0 4000.0 4000.0 4000.0 4000.0 4000.0 4000.0 4000.0 4000.0 4000.0 4000.0 4000.0 4000.0 4000.0 4000.0 4000.0 4000.0 4000.0 4000.0 4000.0 4000.0 4000.0 4000.0 4000.0 4000.0 4000.0 4000.0 4000.0 4000.0 4000.0 4000.0 4000.0 4000.0 4000.0 4000.0 4000.0 4000.0 4000.0 4000.0 4000.0 4000.0 4000.0 4000.0 4000.0 4000.0 4000.0 4000.0 4000.0 4000.0 4000.0 4000.0 4000.0 4000.0 4000.0 4000.0 4000.0 4000.0 4000.0 4000.0 4000.0 4000.0 4000.0 4000.0 4000.0 4000.0 4000.0 4000.0 4000.0 4000.0 4000.0 4000.0 4000.0 4000.0 4000.0 4000.0 4000.0 4000.0 4000.0 4000.0 4000.0 4000.0 4000.0 4000.0 4000.0 4000.0 4000.0 4000.0 4000.0 4000.0 4000.0 4000.0 4000.0 4000.0 4000.0 4000.0 4000.0 4000.0 4000.0 4000.0 4000.0 4000.0 4000.0 4000.0 4000.0 4000.0 4000.0 4000.0 4000.0 4000.0 4000.0 4000.0 4000.0 4000.0 4000.0 4000.0 4000.0 4000.0 4000.0 4000.0 4000.0 4000.0 4000.0 4000.0 4000.0 4000.0 4000.0 4000.0 4000.0 4000.0 4000.0 4000.0 4000.0 4000.0 4000.0 4000.0 4000.0 4000.0 4000.0 4000.0 4000.0 4000.0 4000.0 4000.0 4000.0 4000.0 4000.0 4000.0 4000.0 4000.0 4000.0 4000.0 4000.0 4000.0 4000.0 4000.0 4000.0 4000.0 4000.0 4000.0 4000.0 4000.0 4000.0 4000.0 4000.0 4000.0 4000.0 4000.0 4000.0 4000.0 4000.0 4000.0 4000.0 4000.0 4000.0 4000.0 4000.0 4000.0 4000.0 4000.0 4000.0 4000.0 4000.0 4000.0 4000.0 4000.0 4000.0 4000.0 4000.0 4000.0 4000.0 4000.0 4000.0 4000.0 4000.0 4000.0 4000.0 4000.0 4000.0 4000.0 4000.0 4000.0 4000.0 4000.0 4000.0 4000.0 4000.0 4000.0 4000.0 4000.0 4000.0 4000.0 4000.0 4000.0 4000.0 4000.0 4000.0 4000.0 4000.0 4000.0 4000.0 4000.0 4000.0 4000.0 4000.0 4000.0 4000.0 4000.0 4000.0 4000.0 4000.0 4000.0 4000.0 4000.0 4000.0 4000.0 4000.0 4000.0 4000.0 4000.0 4000.0 4000.0 4000.0 4000.0 4000.0 4000.0 4000.0 4000.0 4000.0 4000.0 4000.0 4000.0 4000.0 4000.0 4000.0 4000.0 4000.0 4000.0 4000.0 4000.0 4000.0 4000.0 4000.0 4000.0 4000.0 4000.0 4000.0 4000.0 4000.0 4000.0 4000.0 4000.0 4000.0 4000.0 4000.0 4000.0 4000.0 4000.0 4000.0 4000.0 4000.0 4000.0 4000.0 4000.0 4000.0 4000.0 4000.0 4000.0 4000.0 4000.0 4000.0 4000.0 4000.0 4000.0 4000.0 4000.0 4000.0 4000.0 4000.0 4000.0 4000.0 4000.0 4000.0 4000.0 4000.0 4000.0 4000.0 4000.0 4000.0 4000.0 4000.0 4000.0 4000.0 4000.0 4000.0 4000.0 4000.0 4000.0 4000.0 4000.0 4000.0 4000.0 4000.0 4000.0 4000.0 4000.0 4000.0 4000.0 4000.0 4000.0 4000.0 4000.0 4000.0 4000.0 4000.0 4000.0 4000.0 4000.0 4000.0 4000.0 4000.0 4000.0 4000.0 4000.0 4000.0 4000.0 4000.0 4000.0 4000.0 4000.0 4000.0 4000.0 4000.0 4000.0 4000.0 4000.0 4000.0 4000.0 4000.0 4000.0 4000.0 4000.0 4000.0 4000.0 4000.0 4000.0 4000.0 4000.0 4000.0 4000.0 4000.0 4000.0 4000.0 4000.0 4000.0 4000.0 4000.0 4000.0 4000.0 4000.0 4000.0 4000.0 4000.0 4000.0 4000.0 4000.0 4000.0 4000.0 4000.0 4000.0 4000.0 4000.0 4000.0 4000.0 4000.0 4000.0 4000.0 4000.0 4000.0 4000.0 4000.0 4000.0 4000.0 4000.0 4000.0 4000.0 4000.0 4000.0 4000.0 4000.0 4000.0 4000.0 4000.0 4000.0 4000.0 4000.0 4000.0 4000.0 4000.0 4000.0 4000.0 4000.0 4000.0 4000.0 4000.0 4000.0 4000.0 4000.0 4000.0 4000.0 4000.0 4000.0 4000.0 4000.0 4000.0 4000.0 4000.0 4000.0 4000.0 4000.0 4000.0 4000.0 4000.0 4000.0 4000.0 4000.0 4000.0 4000.0 4000.0 4000.0 4000.0 4000.0 4000.0 4000.0 4000.0 4000.0 4000.0 4000.0 4000.0 4000.0 4000.0 4000.0 4000.0 4000.0 4000.0 4000.0 4000.0 4000.0 4000.0 4000.0 4000.0 4000.0 4000.0 4000.0 4000.0 4000.0 4000.0 4000.0 4000.0 4000.0 4000.0 4000.0 4000.0 4000.0 4000.0 4000.0 4000.0 4000.0 4000.0 4000.0 4000.0 4000.0 4000.0 4000.0 4000.0 4000.0 4000.0 4000.0 4000.0 4000.0 4000.0 4000.0 4000.0 4000.0 4000.0 4000.0 4000.0 4000.0 4000.0 4000.0 4000.0 4000.0 4000.0 4000.0 4000.0 4000.0 4000.0 4000.0 4000.0 4000.0 4000.0 4000.0 4000.0 4000.0 4000.0 4000.0 4000.0 4000.0 4000.0 4000.0 4000.0 4000.0 4000.0 4000.0 4000.0 4000.0 4000.0 4000.0 4000.0 4000.0 4000.0 4000.0 4000.0 4000.0 4000.0 4000.0 4000.0 4000.0 4000.0 4000.0 4000.0 4000.0 4000.0 4000.0 4000.0 4000.0 4000.0 4000.0 4000.0 4000.0 4000.0 4000.0 4000.0 4000.0 4000.0 4000.0 4000.0 4000.0 4000.0 4000.0 4000.0 4000.0 4000.0 4000.0 4000.0 4000.0 4000.0 4000.0 4000.0 4000.0 4000.0 4000.0 4000.0 4000.0 4000.0 4000.0 4000.0 4000.0 4000.0 4000.0 4000.0 4000.0 4000.0 4000.0 4000.0 4000.0 4000.0 4000.0 4000.0 4000.0 4000.0 4000.0 4000.0 4000.0 4000.0 4000.0 4000.0 4000.0 4000.0 4000.0 4000.0 4000.0 4000.0 4000.0 4000.0 4000.0 4000.0 4000.0 4000.0 4000.0 4000.0 4000.0 4000.0 4000.0 4000.0 4000.0 4000.0 4000.0 4000.0 4000.0 4000.0 4000.0 4000.0 4000.0 4000.0 4000.0 4000.0 4000.0 4000.0 4000.0 4000.0 4000.0 4000.0 4000.0 4000.0 4000.0 4000.0 4000.0 4000.0 4000.0 4000.0 4000.0 4000.0 4000.0 4000.0 4000.0 4000.0 4000.0 4000.0 4000.0 4000.0 4000.0 4000.0 4000.0 4000.0 4000.0 4000.0 4000.0 4000.0 4000.0 4000.0 4000.0 4000.0 4000.0 4000.0 4000.0 4000.0 4000.0 4000.0 4000.0 4000.0 4000.0 4000.0 4000.0 4000.0 4000.0 4000.0 4000.0 4000.0 4000.0 4000.0 4000.0 4000.0 4000.0 4000.0 4000.0 4000.0 4000.0 4000.0 4000.0 4000.0 4000.0 4000.0 4000.0 4000.0 4000.0 4000.0 4000.0 4000.0 4000.0 4000.0 4000.0 4000.0 4000.0 4000.0 4000.0 4000.0 4000.0 4000.0 4000.0 4000.0 4000.0 4000.0 4000.0 4000.0 4000.0 4000.0 4000.0 4000.0 4000.0 4000.0 4000.0 4000.0 4000.0 4000.0 4000.0 4000.0 4000.0 4000.0 4000.0 4000.0 4000.0 4000.0 4000.0 4000.0 4000.0 4000.0 4000.0 4000.0 4000.0 4000.0 4000.0 4000.0 4000.0 4000.0 4000.0 4000.0 4000.0 4000.0 4000.0 4000.0 4000.0 4000.0 4000.0 4000.0 4000.0 4000.0 4000.0 4000.0 4000.0 4000.0 4000.0 4000.0 4000.0 4000.0 4000.0 4000.0 4000.0 4000.0 4000.0 4000.0 4000.0 4000.0 4000.0 4000.0 4000.0 4000.0 4000.0 4000.0 4000.0 4000.0 4000.0 4000.0 4000.0 4000.0 4000.0 4000.0 4000.0 4000.0 4000.0 4000.0 4000.0 4000.0 4000.0 4000.0 4000.0 4000.0 4000.0 4000.0 4000.0 4000.0 4000.0 4000.0 4000.0 4000.0 4000.0 4000.0 4000.0 4000.0 4000.0 4000.0 4000.0 4000.0 4000.0 4000.0 4000.0 4000.0 4000.0 4000.0 4000.0 4000.0 4000.0 4000.0 4000.0 4000.0 4000.0 4000.0 4000.0 4000.0 4000.0 4000.0 4000.0 4000.0 4000.0 4000.0 4000.0 4000.0 4000.0 4000.0 4000.0 4000.0 4000.0 4000.0 4000.0 4000.0 4000.0 4000.0 4000.0 4000.0 4000.0 4000.0 4000.0 4000.0 4000.0 4000.0 4000.0 4000.0 4000.0 4000.0 4000.0 4000.0 4000.0 4000.0 4000.0 4000.0 4000.0 4000.0 4000.0 4000.0 4000.0 4000.0 4000.0 4000.0 4000.0 4000.0 4000.0 4000.0 4000.0 4000.0 4000.0 4000.0 4000.0 4000.0 4000.0 4000.0 4000.0 4000.0 4000.0 4000.0 4000.0 4000.0 4000.0 4000.0 4000.0 4000.0 4000.0 4000.0 4000.0 4000.0 4000.0 4000.0 4000.0 4000.0 4000.0 4000.0 4000.0 4000.0 4000.0 4000.0 4000.0 4000.0 4000.0 4000.0 4000.0 4000.0 4000.0 4000.0 4000.0 4000.0 4000.0 4000.0 4000.0 4000.0 4000.0 4000.0 4000.0 4000.0 4000.0 4000.0 4000.0 4000.0 4000.0 4000.0 4000.0 4000.0 4000.0 4000.0 4000.0 4000.0 4000.0 4000.0 4000.0 4000.0 4000.0 4000.0 4000.0 4000.0 4000.0 4000.0 4000.0 4000.0 4000.0 4000.0 4000.0 4000.0 4000.0 4000.0 4000.0 4000.0 4000.0 4000.0 4000.0 4000.0 4000.0 4000.0 4000.0 4000.0 4000.0 4000.0 4000.0 4000.0 4000.0 4000.0 4000.0 4000.0 4000.0 4000.0 4000.0 4000.0 4000.0 4000.0 4000.0 4000.0 4000.0 4000.0 4000.0 4000.0 4000.0 4000.0 4000.0 4000.0 4000.0 4000.0 4000.0 4000.0 4000.0 4000.0 4000.0 4000.0 4000.0 4000.0 4000.0 4000.0 4000.0 4000.0 4000.0 4000.0 4000.0 4000.0 4000.0 4000.0 4000.0 4000.0 4000.0 4000.0 4000.0 4000.0 4000.0 4000.0 4000.0 4000.0 4000.0 4000.0 4000.0 4000.0 4000.0 4000.0 4000.0 4000.0 4000.0 4000.0 4000.0 4000.0 4000.0 4000.0 4000.0 4000.0 4000.0 4000.0 4000.0 4000.0 4000.0 4000.0 4000.0 4000.0 4000.0 4000.0 4000.0 4000.0 4000.0 4000.0 4000.0 4000.0 4000.0 4000.0 4000.0 4000.0 4000.0 4000.0 4000.0 4000.0 4000.0 4000.0 4000.0 4000.0 4000.0 4000.0 4000.0 4000.0 4000.0 4000.0 4000.0 4000.0 4000.0 4000.0 4000.0 4000.0 4000.0 4000.0 4000.0 4000.0 4000.0 4000.0 4000.0 4000.0 4000.0 4000.0 4000.0 4000.0 4000.0 4000.0 4000.0 4000.0 4000.0 4000.0 4000.0 4000.0 4000.0 4000.0 4000.0 4000.0 4000.0 4000.0 4000.0 4000.0 4000.0 4000.0 4000.0 4000.0 4000.0 4000.0 4000.0 4000.0 4000.0 4000.0 4000.0 4000.0 4000.0 4000.0 4000.0 4000.0 4000.0 4000.0 4000.0 4000.0 4000.0 4000.0 4000.0 4000.0 4000.0 4000.0 4000.0 4000.0 4000.0 4000.0 4000.0 4000.0 4000.0 4000.0 4000.0 4000.0 4000.0 4000.0 4000.0 4000.0 4000.0 4000.0 4000.0 4000.0 4000.0 4000.0 4000.0 4000.0 4000.0 4000.0 4000.0 4000.0 4000.0 4000.0 4000.0 4000.0 4000.0 4000.0 4000.0 4000.0 4000.0 4000.0 4000.0 4000.0 4000.0 4000.0 4000.0 4000.0 4000.0 4000.0 4000.0 4000.0 4000.0 4000.0 4000.0 4000.0 4000.0 4000.0 4000.0 4000.0 4000.0 4000.0 4000.0 4000.0 4000.0 4000.0 4000.0 4000.0 4000.0 4000.0 4000.0 4000.0 4000.0 4000.0 4000.0 4000.0 4000.0 4000.0 4000.0 4000.0 4000.0 4000.0 4000.0 4000.0 4000.0 4000.0 4000.0 4000.0 4000.0 4000.0 4000.0 4000.0 4000.0 4000.0 4000.0 4000.0 4000.0 4000.0 4000.0 4000.0 4000.0 4000.0 4000.0 4000.0 4000.0 4000.0 4000.0 4000.0 4000.0 4000.0 4000.0 4000.0 4000.0 4000.0 4000.0 4000.0 4000.0 4000.0 4000.0 4000.0 4000.0 4000.0 4000.0 4000.0 4000.0 4000.0 4000.0 4000.0 4000.0 4000.0 4000.0 4000.0 4000.0 4000.0 4000.0 4000.0 4000.0 4000.0 4000.0 4000.0 4000.0 4000.0 4000.0 4000.0 4000.0 4000.0 4000.0 4000.0 4000.0 4000.0 4000.0 4000.0 4000.0 4000.0 4000.0 4000.0 4000.0 4000.0 4000.0 4000.0 4000.0 4000.0 4000.0 4000.0 4000.0 4000.0 4000.0 4000.0 4000.0 4000.0 4000.0 4000.0 4000.0 4000.0 4000.0 4000.0 4000.0 4000.0 4000.0 4000.0 4000.0 4000.0 4000.0 4000.0 4000.0 4000.0 4000.0 4000.0 4000.0 4000.0 4000.0 4000.0 4000.0 4000.0 4000.0 4000.0 4000.0 4000.0 4000.0 4000.0 4000.0 4000.0 4000.0 4000.0 4000.0 4000.0 4000.0 4000.0 4000.0 4000.0 4000.0 4000.0 4000.0 4000.0 4000.0 4000.0 4000.0 4000.0 4000.0 4000.0 4000.0 4000.0 4000.0 4000.0 4000.0 4000.0 4000.0 4000.0 4000.0 4000.0 4000.0 4000.0 4000.0 4000.0 4000.0 4000.0 4000.0 4000.0 4000.0 4000.0 4000.0 4000.0 4000.0 4000.0 4000.0 4000.0 4000.0 4000.0 4000.0 4000.0 4000.0 4000.0 4000.0 4000.0 4000.0 4000.0 4000.0 4000.0 4000.0 4000.0 4000.0 4000.0 4000.0 4000.0 4000.0 4000.0 4000.0 4000.0 4000.0 4000.0 4000.0 4000.0 4000.0 4000.0 4000.0 4000.0 4000.0 4000.0 4000.0 4000.0 4000.0 4000.0 4000.0 4000.0 4000.0 4000.0 4000.0 4000.0 4000.0 4000.0 4000.0 4000.0 4000.0 4000.0 4000.0 4000.0 4000.0 4000.0 4000.0 4000.0 4000.0 4000.0 4000.0 4000.0 4000.0 4000.0 4000.0 4000.0 4000.0 4000.0 4000.0 4000.0 4000.0 4000.0 4000.0 4000.0 4000.0 4000.0 4000.0 4000.0 4000.0 4000.0 4000.0 4000.0 4000.0 4000.0 4000.0 4000.0 4000.0 4000.0 4000.0 4000.0 4000.0 4000.0 4000.0 4000.0 4000.0 4000.0 4000.0 4000.0 4000.0 4000.0 4000.0 4000.0 4000.0 4000.0 4000.0 4000.0 4000.0 4000.0 4000.0 4000.0 4000.0 4000.0 4000.0 4000.0 4000.0 4000.0 4000.0 4000.0 4000.0 4000.0 4000.0 4000.0 4000.0 4000.0 4000.0 4000.0 4000.0 4000.0 4000.0 4000.0 4000.0 4000.0 4000.0 4000.0 4000.0 4000.0 4000.0 4000.0 4000.0 4000.0 4000.0 4000.0 4000.0 4000.0 4000.0 4000.0 4000.0 4000.0 4000.0 4000.0 4000.0 4000.0 4000.0 4000.0 4000.0 4000.0 4000.0 4000.0 4000.0 4000.0 4000.0 4000.0 4000.0 4000.0 4000.0 4000.0 4000.0 4000.0 4000.0 4000.0 4000.0 4000.0 4000.0 4000.0 4000.0 4000.0 4000.0 4000.0 4000.0 4000.0 4000.0 4000.0 4000.0 4000.0 4000.0 4000.0 4000.0 4000.0 4000.0 4000.0 4000.0 4000.0 4000.0 4000.0 4000.0 4000.0 4000.0 4000.0 4000.0 4000.0 4000.0 4000.0 4000.0 4000.0 4000.0 4000.0 4000.0 4000.0 4000.0 4000.0 4000.0 4000.0 4000.0 4000.0 4000.0 4000.0 4000.0 4000.0 4000.0 4000.0 4000.0 4000.0 4000.0 4000.0 4000.0 4000.0 4000.0 4000.0 4000.0 4000.0 4000.0 4000.0 4000.0 4000.0 4000.0 4000.0 4000.0 4000.0 4000.0 4000.0 4000.0 4000.0 4000.0 4000.0 4000.0 4000.0 4000.0 4000.0 4000.0 4000.0 4000.0 4000.0 4000.0 4000.0 4000.0 4000.0 4000.0 4000.0 4000.0 4000.0 4000.0 4000.0 4000.0 4000.0 4000.0 4000.0 4000.0 4000.0 4000.0 4000.0 4000.0 4000.0 4000.0 4000.0 4000.0 4000.0 4000.0 4000.0 4000.0 4000.0 4000.0 4000.0 4000.0 4000.0 4000.0 4000.0 4000.0 4000.0 4000.0 4000.0 4000.0 4000.0 4000.0 4000.0 4000.0 4000.0 4000.0 4000.0 4000.0 4000.0 4000.0 4000.0 4000.0 4000.0 4000.0 4000.0 4000.0 4000.0 4000.0 4000.0 4000.0 4000.0 4000.0 4000.0 4000.0 4000.0 4000.0 4000.0 4000.0 4000.0 4000.0 4000.0 4000.0 4000.0 4000.0 4000.0 4000.0 4000.0 4000.0 4000.0 4000.0 4000.0 4000.0 4000.0 4000.0 4000.0 4000.0 4000.0 4000.0 4000.0 4000.0 4000.0 4000.0 4000.0 4000.0 4000.0 4000.0 4000.0 4000.0 4000.0 4000.0 4000.0 4000.0 4000.0 4000.0 4000.0 4000.0 4000.0 4000.0 4000.0 4000.0 4000.0 4000.0 4000.0 4000.0 4000.0 4000.0 4000.0 4000.0 4000.0 4000.0 4000.0 4000.0 4000.0 4000.0 4000.0 4000.0 4000.0 4000.0 4000.0 4000.0 4000.0 4000.0 4000.0 4000.0 4000.0 4000.0 4000.0 4000.0 4000.0 4000.0 4000.0 4000.0 4000.0 4000.0 4000.0 4000.0 4000.0 4000.0 4000.0 4000.0 4000.0 4000.0 4000.0 4000.0 4000.0 4000.0 4000.0 4000.0 4000.0 4000.0 4000.0 4000.0 4000.0 4000.0 4000.0 4000.0 4000.0 4000.0 4000.0 4000.0 4000.0 4000.0 4000.0 4000.0 4000.0 4000.0 4000.0 4000.0 4000.0 4000.0 4000.0 4000.0 4000.0 4000.0 4000.0 4000.0 4000.0 4000.0 4000.0 4000.0 4000.0 4000.0 4000.0 4000.0 4000.0 4000.0 4000.0 4000.0 4000.0 4000.0 4000.0 4000.0 4000.0 4000.0 4000.0 4000.0 4000.0 4000.0 4000.0 4000.0 4000.0 4000.0 4000.0 4000.0 4000.0 4000.0 4000.0 4000.0 4000.0 4000.0 4000.0 4000.0 4000.0 4000.0 4000.0 4000.0 4000.0 4000.0 4000.0 4000.0 4000.0 4000.0 4000.0 4000.0 4000.0 4000.0 4000.0 4000.0 4000.0 4000.0 4000.0 4000.0 4000.0 4000.0 4000.0 4000.0 4000.0 4000.0 4000.0 4000.0 4000.0 4000.0 4000.0 4000.0 4000.0 4000.0 4000.0 4000.0 4000.0 4000.0 4000.0 4000.0 4000.0 4000.0 4000.0 4000.0 4000.0 4000.0 4000.0 4000.0 4000.0 4000.0 4000.0 4000.0 4000.0 4000.0 4000.0 4000.0 4000.0 4000.0 4000.0 4000.0 4000.0 4000.0 4000.0 4000.0 4000.0 4000.0 4000.0 4000.0 4000.0 4000.0 4000.0 4000.0 4000.0 4000.0 4000.0 4000.0 4000.0 4000.0 4000.0 4000.0 4000.0 4000.0 4000.0 4000.0 4000.0 4000.0 4000.0 4000.0 4000.0 4000.0 4000.0 4000.0 4000.0 4000.0 4000.0 4000.0 4000.0 4000.0 4000.0 4000.0 4000.0 4000.0 4000.0 4000.0 4000.0 4000.0 4000.0 4000.0 4000.0 4000.0 4000.0 4000.0 4000.0 4000.0 4000.0 4000.0 4000.0 4000.0 4000.0 4000.0 4000.0 4000.0 4000.0 4000.0 4000.0 4000.0 4000.0 4000.0 4000.0 4000.0 4000.0 4000.0 4000.0 4000.0 4000.0 4000.0 4000.0 4000.0 4000.0 4000.0 4000.0 4000.0 4000.0 4000.0 4000.0 4000.0 4000.0 4000.0 4000.0 4000.0 4000.0 4000.0 4000.0 4000.0 4000.0 4000.0 4000.0 4000.0 4000.0 4000.0 4000.0 4000.0 4000.0 4000.0 4000.0 4000.0 4000.0 4000.0 4000.0 4000.0 4000.0 4000.0 4000.0 4000.0 4000.0 4000.0 4000.0 4000.0 4000.0 4000.0 4000.0 4000.0 4000.0 4000.0 4000.0 4000.0 4000.0 4000.0 4000.0 4000.0 4000.0 4000.0 4000.0 4000.0 4000.0 4000.0 4000.0 4000.0 4000.0 4000.0 4000.0 4000.0 4000.0 4000.0 4000.0 4000.0 4000.0 4000.0 4000.0 4000.0 4000.0 4000.0 4000.0 4000.0 4000.0 4000.0 4000.0 4000.0 4000.0 4000.0 4000.0 4000.0 4000.0 4000.0 4000.0 4000.0 4000.0 4000.0 4000.0 4000.0 4000.0 4000.0 4000.0 4000.0 4000.0 4000.0 4000.0 4000.0 4000.0 4000.0 4000.0 4000.0 4000.0 4000.0 4000.0 4000.0 4000.0 4000.0 4000.0 4000.0 4000.0 4000.0 4000.0 4000.0 4000.0 4000.0 4000.0 4000.0 4000.0 4000.0 4000.0 4000.0 4000.0 4000.0 4000.0 4000.0 4000.0 4000.0 4000.0 4000.0 4000.0 4000.0 4000.0 4000.0 4000.0 4000.0 4000.0 4000.0 4000.0 4000.0 4000.0 4000.0 4000.0 4000.0 4000.0 4000.0 4000.0 4000.0 4000.0 4000.0 4000.0 4000.0 4000.0 4000.0 4000.0 4000.0 4000.0 4000.0 4000.0 4000.0 4000.0 4000.0 4000.0 4000.0 4000.0 4000.0 4000.0 4000.0 4000.0 4000.0 4000.0 4000.0 4000.0 4000.0 4000.0 4000.0 4000.0 4000.0 4000.0 4000.0 4000.0 4000.0 4000.0 4000.0 4000.0 4000.0 4000.0 4000.0 4000.0 4000.0 4000.0 4000.0 4000.0 4000.0 4000.0 4000.0 4000.0 4000.0 4000.0 4000.0 4000.0 4000.0 4000.0 4000.0 4000.0 4000.0 4000.0 4000.0 4000.0 4000.0 4000.0 4000.0 4000.0 4000.0 4000.0 4000.0 4000.0 4000.0 4000.0 4000.0 4000.0 4000.0 4000.0 4000.0 4000.0 4000.0 4000.0 4000.0 4000.0 4000.0 4000.0 4000.0 4000.0 4000.0 4000.0 4000.0 4000.0 4000.0 4000.0 4000.0 4000.0 4000.0 4000.0 4000.0 4000.0 4000.0 4000.0 4000.0 4000.0 4000.0 4000.0 4000.0 4000.0 4000.0 4000.0 4000.0 4000.0 4000.0 4000.0 4000.0 4000.0 4000.0 4000.0 4000.0 4000.0 4000.0 4000.0 4000.0 4000.0 4000.0 4000.0 4000.0 4000.0 4000.0 4000.0 4000.0 4000.0 4000.0 4000.0 4000.0 4000.0 4000.0 4000.0 4000.0 4000.0 4000.0 4000.0 4000.0 4000.0 4000.0 4000.0 4000.0 4000.0 4000.0 4000.0 4000.0 4000.0 4000.0 4000.0 4000.0 4000.0 4000.0 4000.0 4000.0 4000.0 4000.0 4000.0 4000.0 4000.0 4000.0 4000.0 4000.0 4000.0 4000.0 4000.0 4000.0 4000.0 4000.0 4000.0 4000.0 4000.0 4000.0 4000.0 4000.0 4000.0 4000.0 4000.0 4000.0 4000.0 4000.0 4000.0 4000.0 4000.0 4000.0 4000.0 4000.0 4000.0 4000.0 4000.0 4000.0 4000.0 4000.0 4000.0 4000.0 4000.0 4000.0 4000.0 4000.0 4000.0 4000.0 4000.0 4000.0 4000.0 4000.0 4000.0 4000.0 4000.0 4000.0 4000.0 4000.0 4000.0 4000.0 4000.0 4000.0 4000.0 4000.0 4000.0 4000.0 4000.0 4000.0 4000.0 4000.0 4000.0 4000.0 4000.0 4000.0 4000.0 4000.0 4000.0 4000.0 4000.0 4000.0 4000.0 4000.0 4000.0 4000.0 4000.0 4000.0 4000.0 4000.0 4000.0 4000.0 4000.0 4000.0 4000.0 4000.0 4000.0 4000.0 4000.0 4000.0 4000.0 4000.0 4000.0 4000.0 4000.0 4000.0 4000.0 4000.0 4000.0 4000.0 4000.0 4000.0 4000.0 4000.0 4000.0 4000.0 4000.0 4000.0 4000.0 4000.0 4000.0 4000.0 4000.0 4000.0 4000.0 4000.0 4000.0 4000.0 4000.0 4000.0 4000.0 4000.0 4000.0 4000.0 4000.0 4000.0 4000.0 4000.0 4000.0 4000.0 4000.0 4000.0 4000.0 4000.0 4000.0 4000.0 4000.0 4000.0 4000.0 4000.0 4000.0 4000.0 4000.0 4000.0 4000.0 4000.0 4000.0 4000.0 4000.0 4000.0 4000.0 4000.0 4000.0 4000.0 4000.0 4000.0 4000.0 4000.0 4000.0 4000.0 4000.0 4000.0 4000.0 4000.0 4000.0 4000.0 4000.0 4000.0 4000.0 4000.0 4000.0 4000.0 4000.0 4000.0 4000.0 4000.0 4000.0 4000.0 4000.0 4000.0 4000.0 4000.0 4000.0 4000.0 4000.0 4000.0 4000.0 4000.0 4000.0 4000.0 4000.0 4000.0 4000.0 4000.0 4000.0 4000.0 4000.0 4000.0 4000.0 4000.0 4000.0 4000.0 4000.0 4000.0 4000.0 4000.0 4000.0 4000.0 4000.0 4000.0 4000.0 4000.0 4000.0 4000.0 4000.0 4000.0 4000.0 4000.0 4000.0 4000.0 4000.0 4000.0 4000.0 4000.0 4000.0 4000.0 4000.0 4000.0 4000.0 4000.0 4000.0 4000.0 4000.0 4000.0 4000.0 4000.0 4000.0 4000.0 4000.0 4000.0 4000.0 4000.0 4000.0 4000.0 4000.0 4000.0 4000.0 4000.0 4000.0 4000.0 4000.0 4000.0 4000.0 4000.0 4000.0 4000.0 4000.0 4000.0 4000.0 4000.0 4000.0 4000.0 4000.0 4000.0 4000.0 4000.0 4000.0 4000.0 4000.0 4000.0 4000.0 4000.0 4000.0 4000.0 4000.0 4000.0 4000.0 4000.0 4000.0 4000.0 4000.0 4000.0 4000.0 4000.0 4000.0 4000.0 4000.0 4000.0 4000.0 4000.0 4000.0 4000.0 4000.0 4000.0 4000.0 4000.0 4000.0 4000.0 4000.0 4000.0 4000.0 4000.0 4000.0 4000.0 4000.0 4000.0 4000.0 4000.0 4000.0 4000.0 4000.0 4000.0 4000.0 4000.0 4000.0 4000.0 4000.0 4000.0 4000.0 4000.0 4000.0 4000.0 4000.0 4000.0 4000.0 4000.0 4000.0 4000.0 4000.0 SCALARS Mass float 1
LOOKUP_TABLE default
11309700000.0 11309700000.0 11309700000.0 11309700000.0 11309700000.0 11309700000.0 11309700000.0 11309700000.0 11309700000.0 11309700000.0 11309700000.0 11309700000.0 11309700000.0 11309700000.0 11309700000.0 11309700000.0 11309700000.0 11309700000.0 11309700000.0 11309700000.0 11309700000.0 11309700000.0 11309700000.0 11309700000.0 11309700000.0 11309700000.0 11309700000.0 11309700000.0 11309700000.0 11309700000.0 11309700000.0 11309700000.0 11309700000.0 11309700000.0 11309700000.0 11309700000.0 11309700000.0 11309700000.0 11309700000.0 11309700000.0 11309700000.0 11309700000.0 11309700000.0 11309700000.0 11309700000.0 11309700000.0 11309700000.0 11309700000.0 11309700000.0 11309700000.0 11309700000.0 11309700000.0 11309700000.0 11309700000.0 11309700000.0 11309700000.0 11309700000.0 11309700000.0 11309700000.0 11309700000.0 11309700000.0 11309700000.0 11309700000.0 11309700000.0 11309700000.0 11309700000.0 11309700000.0 11309700000.0 11309700000.0 11309700000.0 11309700000.0 11309700000.0 11309700000.0 11309700000.0 11309700000.0 11309700000.0 11309700000.0 11309700000.0 11309700000.0 11309700000.0 11309700000.0 11309700000.0 11309700000.0 11309700000.0 11309700000.0 11309700000.0 11309700000.0 11309700000.0 11309700000.0 11309700000.0 11309700000.0 11309700000.0 11309700000.0 11309700000.0 11309700000.0 11309700000.0 11309700000.0 11309700000.0 11309700000.0 11309700000.0 11309700000.0 11309700000.0 11309700000.0 11309700000.0 11309700000.0 11309700000.0 11309700000.0 11309700000.0 11309700000.0 11309700000.0 11309700000.0 11309700000.0 11309700000.0 11309700000.0 11309700000.0 11309700000.0 11309700000.0 11309700000.0 11309700000.0 11309700000.0 11309700000.0 11309700000.0 11309700000.0 11309700000.0 11309700000.0 11309700000.0 11309700000.0 11309700000.0 11309700000.0 11309700000.0 11309700000.0 11309700000.0 11309700000.0 11309700000.0 11309700000.0 11309700000.0 11309700000.0 11309700000.0 11309700000.0 11309700000.0 11309700000.0 11309700000.0 11309700000.0 11309700000.0 11309700000.0 11309700000.0 11309700000.0 11309700000.0 11309700000.0 11309700000.0 11309700000.0 11309700000.0 11309700000.0 11309700000.0 11309700000.0 11309700000.0 11309700000.0 11309700000.0 11309700000.0 11309700000.0 11309700000.0 11309700000.0 11309700000.0 11309700000.0 11309700000.0 11309700000.0 11309700000.0 11309700000.0 11309700000.0 11309700000.0 11309700000.0 11309700000.0 11309700000.0 11309700000.0 11309700000.0 11309700000.0 11309700000.0 11309700000.0 11309700000.0 11309700000.0 11309700000.0 11309700000.0 11309700000.0 11309700000.0 11309700000.0 11309700000.0 11309700000.0 11309700000.0 11309700000.0 11309700000.0 11309700000.0 11309700000.0 11309700000.0 11309700000.0 11309700000.0 11309700000.0 11309700000.0 11309700000.0 11309700000.0 11309700000.0 11309700000.0 11309700000.0 11309700000.0 11309700000.0 11309700000.0 11309700000.0 11309700000.0 11309700000.0 11309700000.0 11309700000.0 11309700000.0 11309700000.0 11309700000.0 11309700000.0 11309700000.0 11309700000.0 11309700000.0 11309700000.0 11309700000.0 11309700000.0 11309700000.0 11309700000.0 11309700000.0 11309700000.0 11309700000.0 11309700000.0 11309700000.0 11309700000.0 11309700000.0 11309700000.0 11309700000.0 11309700000.0 11309700000.0 11309700000.0 11309700000.0 11309700000.0 11309700000.0 11309700000.0 11309700000.0 11309700000.0 11309700000.0 11309700000.0 11309700000.0 11309700000.0 11309700000.0 11309700000.0 11309700000.0 11309700000.0 11309700000.0 11309700000.0 11309700000.0 11309700000.0 11309700000.0 11309700000.0 11309700000.0 11309700000.0 11309700000.0 11309700000.0 11309700000.0 11309700000.0 11309700000.0 11309700000.0 11309700000.0 11309700000.0 11309700000.0 11309700000.0 11309700000.0 11309700000.0 11309700000.0 11309700000.0 11309700000.0 11309700000.0 11309700000.0 11309700000.0 11309700000.0 11309700000.0 11309700000.0 11309700000.0 11309700000.0 11309700000.0 11309700000.0 11309700000.0 11309700000.0 11309700000.0 11309700000.0 11309700000.0 11309700000.0 11309700000.0 11309700000.0 11309700000.0 11309700000.0 11309700000.0 11309700000.0 11309700000.0 11309700000.0 11309700000.0 11309700000.0 11309700000.0 11309700000.0 11309700000.0 11309700000.0 11309700000.0 11309700000.0 11309700000.0 11309700000.0 11309700000.0 11309700000.0 11309700000.0 11309700000.0 11309700000.0 11309700000.0 11309700000.0 11309700000.0 11309700000.0 11309700000.0 11309700000.0 11309700000.0 11309700000.0 11309700000.0 11309700000.0 11309700000.0 11309700000.0 11309700000.0 11309700000.0 11309700000.0 11309700000.0 11309700000.0 11309700000.0 11309700000.0 11309700000.0 11309700000.0 11309700000.0 11309700000.0 11309700000.0 11309700000.0 11309700000.0 11309700000.0 11309700000.0 11309700000.0 11309700000.0 11309700000.0 11309700000.0 11309700000.0 11309700000.0 11309700000.0 11309700000.0 11309700000.0 11309700000.0 11309700000.0 11309700000.0 11309700000.0 11309700000.0 11309700000.0 11309700000.0 11309700000.0 11309700000.0 11309700000.0 11309700000.0 11309700000.0 11309700000.0 11309700000.0 11309700000.0 11309700000.0 11309700000.0 11309700000.0 11309700000.0 11309700000.0 11309700000.0 11309700000.0 11309700000.0 11309700000.0 11309700000.0 11309700000.0 11309700000.0 11309700000.0 11309700000.0 11309700000.0 11309700000.0 11309700000.0 11309700000.0 11309700000.0 11309700000.0 11309700000.0 11309700000.0 11309700000.0 11309700000.0 11309700000.0 11309700000.0 11309700000.0 11309700000.0 11309700000.0 11309700000.0 11309700000.0 11309700000.0 11309700000.0 11309700000.0 11309700000.0 11309700000.0 11309700000.0 11309700000.0 11309700000.0 11309700000.0 11309700000.0 11309700000.0 11309700000.0 11309700000.0 11309700000.0 11309700000.0 11309700000.0 11309700000.0 11309700000.0 11309700000.0 11309700000.0 11309700000.0 11309700000.0 11309700000.0 11309700000.0 11309700000.0 11309700000.0 11309700000.0 11309700000.0 11309700000.0 11309700000.0 11309700000.0 11309700000.0 11309700000.0 11309700000.0 11309700000.0 11309700000.0 11309700000.0 11309700000.0 11309700000.0 11309700000.0 11309700000.0 11309700000.0 11309700000.0 11309700000.0 11309700000.0 11309700000.0 11309700000.0 11309700000.0 11309700000.0 11309700000.0 11309700000.0 11309700000.0 11309700000.0 11309700000.0 11309700000.0 11309700000.0 11309700000.0 11309700000.0 11309700000.0 11309700000.0 11309700000.0 11309700000.0 11309700000.0 11309700000.0 11309700000.0 11309700000.0 11309700000.0 11309700000.0 11309700000.0 11309700000.0 11309700000.0 11309700000.0 11309700000.0 11309700000.0 11309700000.0 11309700000.0 11309700000.0 11309700000.0 11309700000.0 11309700000.0 11309700000.0 11309700000.0 11309700000.0 11309700000.0 11309700000.0 11309700000.0 11309700000.0 11309700000.0 11309700000.0 11309700000.0 11309700000.0 11309700000.0 11309700000.0 11309700000.0 11309700000.0 11309700000.0 11309700000.0 11309700000.0 11309700000.0 11309700000.0 11309700000.0 11309700000.0 11309700000.0 11309700000.0 11309700000.0 11309700000.0 11309700000.0 11309700000.0 11309700000.0 11309700000.0 11309700000.0 11309700000.0 11309700000.0 11309700000.0 11309700000.0 11309700000.0 11309700000.0 11309700000.0 11309700000.0 11309700000.0 11309700000.0 11309700000.0 11309700000.0 11309700000.0 11309700000.0 11309700000.0 11309700000.0 11309700000.0 11309700000.0 11309700000.0 11309700000.0 11309700000.0 11309700000.0 11309700000.0 11309700000.0 11309700000.0 11309700000.0 11309700000.0 11309700000.0 11309700000.0 11309700000.0 11309700000.0 11309700000.0 11309700000.0 11309700000.0 11309700000.0 11309700000.0 11309700000.0 11309700000.0 11309700000.0 11309700000.0 11309700000.0 11309700000.0 11309700000.0 11309700000.0 11309700000.0 11309700000.0 11309700000.0 11309700000.0 11309700000.0 11309700000.0 11309700000.0 11309700000.0 11309700000.0 11309700000.0 11309700000.0 11309700000.0 11309700000.0 11309700000.0 11309700000.0 11309700000.0 11309700000.0 11309700000.0 11309700000.0 11309700000.0 11309700000.0 11309700000.0 11309700000.0 11309700000.0 11309700000.0 11309700000.0 11309700000.0 11309700000.0 11309700000.0 11309700000.0 11309700000.0 11309700000.0 11309700000.0 11309700000.0 11309700000.0 11309700000.0 11309700000.0 11309700000.0 11309700000.0 11309700000.0 11309700000.0 11309700000.0 11309700000.0 11309700000.0 11309700000.0 11309700000.0 11309700000.0 11309700000.0 11309700000.0 11309700000.0 11309700000.0 11309700000.0 11309700000.0 11309700000.0 11309700000.0 11309700000.0 11309700000.0 11309700000.0 11309700000.0 11309700000.0 11309700000.0 11309700000.0 11309700000.0 11309700000.0 11309700000.0 11309700000.0 11309700000.0 11309700000.0 11309700000.0 11309700000.0 11309700000.0 11309700000.0 11309700000.0 11309700000.0 11309700000.0 11309700000.0 11309700000.0 11309700000.0 11309700000.0 11309700000.0 11309700000.0 11309700000.0 11309700000.0 11309700000.0 11309700000.0 11309700000.0 11309700000.0 11309700000.0 11309700000.0 11309700000.0 11309700000.0 11309700000.0 11309700000.0 11309700000.0 11309700000.0 11309700000.0 11309700000.0 11309700000.0 11309700000.0 11309700000.0 11309700000.0 11309700000.0 11309700000.0 11309700000.0 11309700000.0 11309700000.0 11309700000.0 11309700000.0 11309700000.0 11309700000.0 11309700000.0 11309700000.0 11309700000.0 11309700000.0 11309700000.0 11309700000.0 11309700000.0 11309700000.0 11309700000.0 11309700000.0 11309700000.0 11309700000.0 11309700000.0 11309700000.0 11309700000.0 11309700000.0 11309700000.0 11309700000.0 11309700000.0 11309700000.0 11309700000.0 11309700000.0 11309700000.0 11309700000.0 11309700000.0 11309700000.0 11309700000.0 11309700000.0 11309700000.0 11309700000.0 11309700000.0 11309700000.0 11309700000.0 11309700000.0 11309700000.0 11309700000.0 11309700000.0 11309700000.0 11309700000.0 11309700000.0 11309700000.0 11309700000.0 11309700000.0 11309700000.0 11309700000.0 11309700000.0 11309700000.0 11309700000.0 11309700000.0 11309700000.0 11309700000.0 11309700000.0 11309700000.0 11309700000.0 11309700000.0 11309700000.0 11309700000.0 11309700000.0 11309700000.0 11309700000.0 11309700000.0 11309700000.0 11309700000.0 11309700000.0 11309700000.0 11309700000.0 11309700000.0 11309700000.0 11309700000.0 11309700000.0 11309700000.0 11309700000.0 11309700000.0 11309700000.0 11309700000.0 11309700000.0 11309700000.0 11309700000.0 11309700000.0 11309700000.0 11309700000.0 11309700000.0 11309700000.0 11309700000.0 11309700000.0 11309700000.0 11309700000.0 11309700000.0 11309700000.0 11309700000.0 11309700000.0 11309700000.0 11309700000.0 11309700000.0 11309700000.0 11309700000.0 11309700000.0 11309700000.0 11309700000.0 11309700000.0 11309700000.0 11309700000.0 11309700000.0 11309700000.0 11309700000.0 11309700000.0 11309700000.0 11309700000.0 11309700000.0 11309700000.0 11309700000.0 11309700000.0 11309700000.0 11309700000.0 11309700000.0 11309700000.0 11309700000.0 11309700000.0 11309700000.0 11309700000.0 11309700000.0 11309700000.0 11309700000.0 11309700000.0 11309700000.0 11309700000.0 11309700000.0 11309700000.0 11309700000.0 11309700000.0 11309700000.0 11309700000.0 11309700000.0 11309700000.0 11309700000.0 11309700000.0 11309700000.0 11309700000.0 11309700000.0 11309700000.0 11309700000.0 11309700000.0 11309700000.0 11309700000.0 11309700000.0 11309700000.0 11309700000.0 11309700000.0 11309700000.0 11309700000.0 11309700000.0 11309700000.0 11309700000.0 11309700000.0 11309700000.0 11309700000.0 11309700000.0 11309700000.0 11309700000.0 11309700000.0 11309700000.0 11309700000.0 11309700000.0 11309700000.0 11309700000.0 11309700000.0 11309700000.0 11309700000.0 11309700000.0 11309700000.0 11309700000.0 11309700000.0 11309700000.0 11309700000.0 11309700000.0 11309700000.0 11309700000.0 11309700000.0 11309700000.0 11309700000.0 11309700000.0 11309700000.0 11309700000.0 11309700000.0 11309700000.0 11309700000.0 11309700000.0 11309700000.0 11309700000.0 11309700000.0 11309700000.0 11309700000.0 11309700000.0 11309700000.0 11309700000.0 11309700000.0 11309700000.0 11309700000.0 11309700000.0 11309700000.0 11309700000.0 11309700000.0 11309700000.0 11309700000.0 11309700000.0 11309700000.0 11309700000.0 11309700000.0 11309700000.0 11309700000.0 11309700000.0 11309700000.0 11309700000.0 11309700000.0 11309700000.0 11309700000.0 11309700000.0 11309700000.0 11309700000.0 11309700000.0 11309700000.0 11309700000.0 11309700000.0 11309700000.0 11309700000.0 11309700000.0 11309700000.0 11309700000.0 11309700000.0 11309700000.0 11309700000.0 11309700000.0 11309700000.0 11309700000.0 11309700000.0 11309700000.0 11309700000.0 11309700000.0 11309700000.0 11309700000.0 11309700000.0 11309700000.0 11309700000.0 11309700000.0 11309700000.0 11309700000.0 11309700000.0 11309700000.0 11309700000.0 11309700000.0 11309700000.0 11309700000.0 11309700000.0 11309700000.0 11309700000.0 11309700000.0 11309700000.0 11309700000.0 11309700000.0 11309700000.0 11309700000.0 11309700000.0 11309700000.0 11309700000.0 11309700000.0 11309700000.0 11309700000.0 11309700000.0 11309700000.0 11309700000.0 11309700000.0 11309700000.0 11309700000.0 11309700000.0 11309700000.0 11309700000.0 11309700000.0 11309700000.0 11309700000.0 11309700000.0 11309700000.0 11309700000.0 11309700000.0 11309700000.0 11309700000.0 11309700000.0 11309700000.0 11309700000.0 11309700000.0 11309700000.0 11309700000.0 11309700000.0 11309700000.0 11309700000.0 11309700000.0 11309700000.0 11309700000.0 11309700000.0 11309700000.0 11309700000.0 11309700000.0 11309700000.0 11309700000.0 11309700000.0 11309700000.0 11309700000.0 11309700000.0 11309700000.0 11309700000.0 11309700000.0 11309700000.0 11309700000.0 11309700000.0 11309700000.0 11309700000.0 11309700000.0 11309700000.0 11309700000.0 11309700000.0 11309700000.0 11309700000.0 11309700000.0 11309700000.0 11309700000.0 11309700000.0 11309700000.0 11309700000.0 11309700000.0 11309700000.0 11309700000.0 11309700000.0 11309700000.0 11309700000.0 11309700000.0 11309700000.0 11309700000.0 11309700000.0 11309700000.0 11309700000.0 11309700000.0 11309700000.0 11309700000.0 11309700000.0 11309700000.0 11309700000.0 11309700000.0 11309700000.0 11309700000.0 11309700000.0 11309700000.0 11309700000.0 11309700000.0 11309700000.0 11309700000.0 11309700000.0 11309700000.0 11309700000.0 11309700000.0 11309700000.0 11309700000.0 11309700000.0 11309700000.0 11309700000.0 11309700000.0 11309700000.0 11309700000.0 11309700000.0 11309700000.0 11309700000.0 11309700000.0 11309700000.0 11309700000.0 11309700000.0 11309700000.0 11309700000.0 11309700000.0 11309700000.0 11309700000.0 11309700000.0 11309700000.0 11309700000.0 11309700000.0 11309700000.0 11309700000.0 11309700000.0 11309700000.0 11309700000.0 11309700000.0 11309700000.0 11309700000.0 11309700000.0 11309700000.0 11309700000.0 11309700000.0 11309700000.0 11309700000.0 11309700000.0 11309700000.0 11309700000.0 11309700000.0 11309700000.0 11309700000.0 11309700000.0 11309700000.0 11309700000.0 11309700000.0 11309700000.0 11309700000.0 11309700000.0 11309700000.0 11309700000.0 11309700000.0 11309700000.0 11309700000.0 11309700000.0 11309700000.0 11309700000.0 11309700000.0 11309700000.0 11309700000.0 11309700000.0 11309700000.0 11309700000.0 11309700000.0 11309700000.0 11309700000.0 11309700000.0 11309700000.0 11309700000.0 11309700000.0 11309700000.0 11309700000.0 11309700000.0 11309700000.0 11309700000.0 11309700000.0 11309700000.0 11309700000.0 11309700000.0 11309700000.0 11309700000.0 11309700000.0 11309700000.0 11309700000.0 11309700000.0 11309700000.0 11309700000.0 11309700000.0 11309700000.0 11309700000.0 11309700000.0 11309700000.0 11309700000.0 11309700000.0 11309700000.0 11309700000.0 11309700000.0 11309700000.0 11309700000.0 11309700000.0 11309700000.0 11309700000.0 11309700000.0 11309700000.0 11309700000.0 11309700000.0 11309700000.0 11309700000.0 11309700000.0 11309700000.0 11309700000.0 11309700000.0 11309700000.0 11309700000.0 11309700000.0 11309700000.0 11309700000.0 11309700000.0 11309700000.0 11309700000.0 11309700000.0 11309700000.0 11309700000.0 11309700000.0 11309700000.0 11309700000.0 11309700000.0 11309700000.0 11309700000.0 11309700000.0 11309700000.0 11309700000.0 11309700000.0 11309700000.0 11309700000.0 11309700000.0 11309700000.0 11309700000.0 11309700000.0 11309700000.0 11309700000.0 11309700000.0 11309700000.0 11309700000.0 11309700000.0 11309700000.0 11309700000.0 11309700000.0 11309700000.0 11309700000.0 11309700000.0 11309700000.0 11309700000.0 11309700000.0 11309700000.0 11309700000.0 11309700000.0 11309700000.0 11309700000.0 11309700000.0 11309700000.0 11309700000.0 11309700000.0 11309700000.0 11309700000.0 11309700000.0 11309700000.0 11309700000.0 11309700000.0 11309700000.0 11309700000.0 11309700000.0 11309700000.0 11309700000.0 11309700000.0 11309700000.0 11309700000.0 11309700000.0 11309700000.0 11309700000.0 11309700000.0 11309700000.0 11309700000.0 11309700000.0 11309700000.0 11309700000.0 11309700000.0 11309700000.0 11309700000.0 11309700000.0 11309700000.0 11309700000.0 11309700000.0 11309700000.0 11309700000.0 11309700000.0 11309700000.0 11309700000.0 11309700000.0 11309700000.0 11309700000.0 11309700000.0 11309700000.0 11309700000.0 11309700000.0 11309700000.0 11309700000.0 11309700000.0 11309700000.0 11309700000.0 11309700000.0 11309700000.0 11309700000.0 11309700000.0 11309700000.0 11309700000.0 11309700000.0 11309700000.0 11309700000.0 11309700000.0 11309700000.0 11309700000.0 11309700000.0 11309700000.0 11309700000.0 11309700000.0 11309700000.0 11309700000.0 11309700000.0 11309700000.0 11309700000.0 11309700000.0 11309700000.0 11309700000.0 11309700000.0 11309700000.0 11309700000.0 11309700000.0 11309700000.0 11309700000.0 11309700000.0 11309700000.0 11309700000.0 11309700000.0 11309700000.0 11309700000.0 11309700000.0 11309700000.0 11309700000.0 11309700000.0 11309700000.0 11309700000.0 11309700000.0 11309700000.0 11309700000.0 11309700000.0 11309700000.0 11309700000.0 11309700000.0 11309700000.0 11309700000.0 11309700000.0 11309700000.0 11309700000.0 11309700000.0 11309700000.0 11309700000.0 11309700000.0 11309700000.0 11309700000.0 11309700000.0 11309700000.0 11309700000.0 11309700000.0 11309700000.0 11309700000.0 11309700000.0 11309700000.0 11309700000.0 11309700000.0 11309700000.0 11309700000.0 11309700000.0 11309700000.0 11309700000.0 11309700000.0 11309700000.0 11309700000.0 11309700000.0 11309700000.0 11309700000.0 11309700000.0 11309700000.0 11309700000.0 11309700000.0 11309700000.0 11309700000.0 11309700000.0 11309700000.0 11309700000.0 11309700000.0 11309700000.0 11309700000.0 11309700000.0 11309700000.0 11309700000.0 11309700000.0 11309700000.0 11309700000.0 11309700000.0 11309700000.0 11309700000.0 11309700000.0 11309700000.0 11309700000.0 11309700000.0 11309700000.0 11309700000.0 11309700000.0 11309700000.0 11309700000.0 11309700000.0 11309700000.0 11309700000.0 11309700000.0 11309700000.0 11309700000.0 11309700000.0 11309700000.0 11309700000.0 11309700000.0 11309700000.0 11309700000.0 11309700000.0 11309700000.0 11309700000.0 11309700000.0 11309700000.0 11309700000.0 11309700000.0 11309700000.0 11309700000.0 11309700000.0 11309700000.0 11309700000.0 11309700000.0 11309700000.0 11309700000.0 11309700000.0 11309700000.0 11309700000.0 11309700000.0 11309700000.0 11309700000.0 11309700000.0 11309700000.0 11309700000.0 11309700000.0 11309700000.0 11309700000.0 11309700000.0 11309700000.0 11309700000.0 11309700000.0 11309700000.0 11309700000.0 11309700000.0 11309700000.0 11309700000.0 11309700000.0 11309700000.0 11309700000.0 11309700000.0 11309700000.0 11309700000.0 11309700000.0 11309700000.0 11309700000.0 11309700000.0 11309700000.0 11309700000.0 11309700000.0 11309700000.0 11309700000.0 11309700000.0 11309700000.0 11309700000.0 11309700000.0 11309700000.0 11309700000.0 11309700000.0 11309700000.0 11309700000.0 11309700000.0 11309700000.0 11309700000.0 11309700000.0 11309700000.0 11309700000.0 11309700000.0 11309700000.0 11309700000.0 11309700000.0 11309700000.0 11309700000.0 11309700000.0 11309700000.0 11309700000.0 11309700000.0 11309700000.0 11309700000.0 11309700000.0 11309700000.0 11309700000.0 11309700000.0 11309700000.0 11309700000.0 11309700000.0 11309700000.0 11309700000.0 11309700000.0 11309700000.0 11309700000.0 11309700000.0 11309700000.0 11309700000.0 11309700000.0 11309700000.0 11309700000.0 11309700000.0 11309700000.0 11309700000.0 11309700000.0 11309700000.0 11309700000.0 11309700000.0 11309700000.0 11309700000.0 11309700000.0 11309700000.0 11309700000.0 11309700000.0 11309700000.0 11309700000.0 11309700000.0 11309700000.0 11309700000.0 11309700000.0 11309700000.0 11309700000.0 11309700000.0 11309700000.0 11309700000.0 11309700000.0 11309700000.0 11309700000.0 11309700000.0 11309700000.0 11309700000.0 11309700000.0 11309700000.0 11309700000.0 11309700000.0 11309700000.0 11309700000.0 11309700000.0 11309700000.0 11309700000.0 11309700000.0 11309700000.0 11309700000.0 11309700000.0 11309700000.0 11309700000.0 11309700000.0 11309700000.0 11309700000.0 11309700000.0 11309700000.0 11309700000.0 11309700000.0 11309700000.0 11309700000.0 11309700000.0 11309700000.0 11309700000.0 11309700000.0 11309700000.0 11309700000.0 11309700000.0 11309700000.0 11309700000.0 11309700000.0 11309700000.0 11309700000.0 11309700000.0 11309700000.0 11309700000.0 11309700000.0 11309700000.0 11309700000.0 11309700000.0 11309700000.0 11309700000.0 11309700000.0 11309700000.0 11309700000.0 11309700000.0 11309700000.0 11309700000.0 11309700000.0 11309700000.0 11309700000.0 11309700000.0 11309700000.0 11309700000.0 11309700000.0 11309700000.0 11309700000.0 11309700000.0 11309700000.0 11309700000.0 11309700000.0 11309700000.0 11309700000.0 11309700000.0 11309700000.0 11309700000.0 11309700000.0 11309700000.0 11309700000.0 11309700000.0 11309700000.0 11309700000.0 11309700000.0 11309700000.0 11309700000.0 11309700000.0 11309700000.0 11309700000.0 11309700000.0 11309700000.0 11309700000.0 11309700000.0 11309700000.0 11309700000.0 11309700000.0 11309700000.0 11309700000.0 11309700000.0 11309700000.0 11309700000.0 11309700000.0 11309700000.0 11309700000.0 11309700000.0 11309700000.0 11309700000.0 11309700000.0 11309700000.0 11309700000.0 11309700000.0 11309700000.0 11309700000.0 11309700000.0 11309700000.0 11309700000.0 11309700000.0 11309700000.0 11309700000.0 11309700000.0 11309700000.0 11309700000.0 11309700000.0 11309700000.0 11309700000.0 11309700000.0 11309700000.0 11309700000.0 11309700000.0 11309700000.0 11309700000.0 11309700000.0 11309700000.0 11309700000.0 11309700000.0 11309700000.0 11309700000.0 11309700000.0 11309700000.0 11309700000.0 11309700000.0 11309700000.0 11309700000.0 11309700000.0 11309700000.0 11309700000.0 11309700000.0 11309700000.0 11309700000.0 11309700000.0 11309700000.0 11309700000.0 11309700000.0 11309700000.0 11309700000.0 11309700000.0 11309700000.0 11309700000.0 11309700000.0 11309700000.0 11309700000.0 11309700000.0 11309700000.0 11309700000.0 11309700000.0 11309700000.0 11309700000.0 11309700000.0 11309700000.0 11309700000.0 11309700000.0 11309700000.0 11309700000.0 11309700000.0 11309700000.0 11309700000.0 11309700000.0 11309700000.0 11309700000.0 11309700000.0 11309700000.0 11309700000.0 11309700000.0 11309700000.0 11309700000.0 11309700000.0 11309700000.0 11309700000.0 11309700000.0 11309700000.0 11309700000.0 11309700000.0 11309700000.0 11309700000.0 11309700000.0 11309700000.0 11309700000.0 11309700000.0 11309700000.0 11309700000.0 11309700000.0 11309700000.0 11309700000.0 11309700000.0 11309700000.0 11309700000.0 11309700000.0 11309700000.0 11309700000.0 11309700000.0 11309700000.0 11309700000.0 11309700000.0 11309700000.0 11309700000.0 11309700000.0 11309700000.0 11309700000.0 11309700000.0 11309700000.0 11309700000.0 11309700000.0 11309700000.0 11309700000.0 11309700000.0 11309700000.0 11309700000.0 11309700000.0 11309700000.0 11309700000.0 11309700000.0 11309700000.0 11309700000.0 11309700000.0 11309700000.0 11309700000.0 11309700000.0 11309700000.0 11309700000.0 11309700000.0 11309700000.0 11309700000.0 11309700000.0 11309700000.0 11309700000.0 11309700000.0 11309700000.0 11309700000.0 11309700000.0 11309700000.0 11309700000.0 11309700000.0 11309700000.0 11309700000.0 11309700000.0 11309700000.0 11309700000.0 11309700000.0 11309700000.0 11309700000.0 11309700000.0 11309700000.0 11309700000.0 11309700000.0 11309700000.0 11309700000.0 11309700000.0 11309700000.0 11309700000.0 11309700000.0 11309700000.0 11309700000.0 11309700000.0 11309700000.0 11309700000.0 11309700000.0 11309700000.0 11309700000.0 11309700000.0 11309700000.0 11309700000.0 11309700000.0 11309700000.0 11309700000.0 11309700000.0 11309700000.0 11309700000.0 11309700000.0 11309700000.0 11309700000.0 11309700000.0 11309700000.0 11309700000.0 11309700000.0 11309700000.0 11309700000.0 11309700000.0 11309700000.0 11309700000.0 11309700000.0 11309700000.0 11309700000.0 11309700000.0 11309700000.0 11309700000.0 11309700000.0 11309700000.0 11309700000.0 11309700000.0 11309700000.0 11309700000.0 11309700000.0 11309700000.0 11309700000.0 11309700000.0 11309700000.0 11309700000.0 11309700000.0 11309700000.0 11309700000.0 11309700000.0 11309700000.0 11309700000.0 11309700000.0 11309700000.0 11309700000.0 11309700000.0 11309700000.0 11309700000.0 11309700000.0 11309700000.0 11309700000.0 11309700000.0 11309700000.0 11309700000.0 11309700000.0 11309700000.0 11309700000.0 11309700000.0 11309700000.0 11309700000.0 11309700000.0 11309700000.0 11309700000.0 11309700000.0 11309700000.0 11309700000.0 11309700000.0 11309700000.0 11309700000.0 11309700000.0 11309700000.0 11309700000.0 11309700000.0 11309700000.0 11309700000.0 11309700000.0 11309700000.0 11309700000.0 11309700000.0 11309700000.0 11309700000.0 11309700000.0 11309700000.0 11309700000.0 11309700000.0 11309700000.0 11309700000.0 11309700000.0 11309700000.0 11309700000.0 11309700000.0 11309700000.0 11309700000.0 11309700000.0 11309700000.0 11309700000.0 11309700000.0 11309700000.0 11309700000.0 11309700000.0 11309700000.0 11309700000.0 11309700000.0 11309700000.0 11309700000.0 11309700000.0 11309700000.0 11309700000.0 11309700000.0 11309700000.0 11309700000.0 11309700000.0 11309700000.0 11309700000.0 11309700000.0 11309700000.0 11309700000.0 11309700000.0 11309700000.0 11309700000.0 11309700000.0 11309700000.0 11309700000.0 11309700000.0 11309700000.0 11309700000.0 11309700000.0 11309700000.0 11309700000.0 11309700000.0 11309700000.0 11309700000.0 11309700000.0 11309700000.0 11309700000.0 11309700000.0 11309700000.0 11309700000.0 11309700000.0 11309700000.0 11309700000.0 11309700000.0 11309700000.0 11309700000.0 11309700000.0 11309700000.0 11309700000.0 11309700000.0 11309700000.0 11309700000.0 11309700000.0 11309700000.0 11309700000.0 11309700000.0 11309700000.0 11309700000.0 11309700000.0 11309700000.0 11309700000.0 11309700000.0 11309700000.0 11309700000.0 11309700000.0 11309700000.0 11309700000.0 11309700000.0 11309700000.0 11309700000.0 11309700000.0 11309700000.0 11309700000.0 11309700000.0 11309700000.0 11309700000.0 11309700000.0 11309700000.0 11309700000.0 11309700000.0 11309700000.0 11309700000.0 11309700000.0 11309700000.0 11309700000.0 11309700000.0 11309700000.0 11309700000.0 11309700000.0 11309700000.0 11309700000.0 11309700000.0 11309700000.0 11309700000.0 11309700000.0 11309700000.0 11309700000.0 11309700000.0 11309700000.0 11309700000.0 11309700000.0 11309700000.0 11309700000.0 11309700000.0 11309700000.0 11309700000.0 11309700000.0 11309700000.0 11309700000.0 11309700000.0 11309700000.0 11309700000.0 11309700000.0 11309700000.0 11309700000.0 11309700000.0 11309700000.0 11309700000.0 11309700000.0 11309700000.0 11309700000.0 11309700000.0 11309700000.0 11309700000.0 11309700000.0 11309700000.0 11309700000.0 11309700000.0 11309700000.0 11309700000.0 11309700000.0 11309700000.0 11309700000.0 11309700000.0 11309700000.0 11309700000.0 11309700000.0 11309700000.0 11309700000.0 11309700000.0 11309700000.0 11309700000.0 11309700000.0 11309700000.0 11309700000.0 11309700000.0 11309700000.0 11309700000.0 11309700000.0 11309700000.0 11309700000.0 11309700000.0 11309700000.0 11309700000.0 11309700000.0 11309700000.0 11309700000.0 11309700000.0 11309700000.0 11309700000.0 11309700000.0 11309700000.0 11309700000.0 11309700000.0 11309700000.0 11309700000.0 11309700000.0 11309700000.0 11309700000.0 11309700000.0 11309700000.0 11309700000.0 11309700000.0 11309700000.0 11309700000.0 11309700000.0 11309700000.0 11309700000.0 11309700000.0 11309700000.0 11309700000.0 11309700000.0 11309700000.0 11309700000.0 11309700000.0 11309700000.0 11309700000.0 11309700000.0 11309700000.0 11309700000.0 11309700000.0 11309700000.0 11309700000.0 11309700000.0 11309700000.0 11309700000.0 11309700000.0 11309700000.0 11309700000.0 11309700000.0 11309700000.0 11309700000.0 11309700000.0 11309700000.0 11309700000.0 11309700000.0 11309700000.0 11309700000.0 11309700000.0 11309700000.0 11309700000.0 11309700000.0 11309700000.0 11309700000.0 11309700000.0 11309700000.0 11309700000.0 11309700000.0 11309700000.0 11309700000.0 11309700000.0 11309700000.0 11309700000.0 11309700000.0 11309700000.0 11309700000.0 11309700000.0 11309700000.0 11309700000.0 11309700000.0 11309700000.0 11309700000.0 11309700000.0 11309700000.0 11309700000.0 11309700000.0 11309700000.0 11309700000.0 11309700000.0 11309700000.0 11309700000.0 11309700000.0 11309700000.0 11309700000.0 11309700000.0 11309700000.0 11309700000.0 11309700000.0 11309700000.0 11309700000.0 11309700000.0 11309700000.0 11309700000.0 11309700000.0 11309700000.0 11309700000.0 11309700000.0 11309700000.0 11309700000.0 11309700000.0 11309700000.0 11309700000.0 11309700000.0 11309700000.0 11309700000.0 11309700000.0 11309700000.0 11309700000.0 11309700000.0 11309700000.0 11309700000.0 11309700000.0 11309700000.0 11309700000.0 11309700000.0 11309700000.0 11309700000.0 11309700000.0 11309700000.0 11309700000.0 11309700000.0 11309700000.0 11309700000.0 11309700000.0 11309700000.0 11309700000.0 11309700000.0 11309700000.0 11309700000.0 11309700000.0 11309700000.0 11309700000.0 11309700000.0 11309700000.0 11309700000.0 11309700000.0 11309700000.0 11309700000.0 11309700000.0 11309700000.0 11309700000.0 11309700000.0 11309700000.0 11309700000.0 11309700000.0 11309700000.0 11309700000.0 11309700000.0 11309700000.0 11309700000.0 11309700000.0 11309700000.0 11309700000.0 11309700000.0 11309700000.0 11309700000.0 11309700000.0 11309700000.0 11309700000.0 11309700000.0 11309700000.0 11309700000.0 11309700000.0 11309700000.0 11309700000.0 11309700000.0 11309700000.0 11309700000.0 11309700000.0 11309700000.0 11309700000.0 11309700000.0 11309700000.0 11309700000.0 11309700000.0 11309700000.0 11309700000.0 11309700000.0 11309700000.0 11309700000.0 11309700000.0 11309700000.0 11309700000.0 11309700000.0 11309700000.0 11309700000.0 11309700000.0 11309700000.0 11309700000.0 11309700000.0 11309700000.0 11309700000.0 11309700000.0 11309700000.0 11309700000.0 11309700000.0 11309700000.0 11309700000.0 11309700000.0 11309700000.0 11309700000.0 11309700000.0 11309700000.0 11309700000.0 11309700000.0 11309700000.0 11309700000.0 11309700000.0 11309700000.0 11309700000.0 11309700000.0 11309700000.0 11309700000.0 11309700000.0 11309700000.0 11309700000.0 11309700000.0 11309700000.0 11309700000.0 11309700000.0 11309700000.0 11309700000.0 11309700000.0 11309700000.0 11309700000.0 11309700000.0 11309700000.0 11309700000.0 11309700000.0 11309700000.0 11309700000.0 11309700000.0 11309700000.0 11309700000.0 11309700000.0 11309700000.0 11309700000.0 11309700000.0 11309700000.0 11309700000.0 11309700000.0 11309700000.0 11309700000.0 11309700000.0 11309700000.0 11309700000.0 11309700000.0 11309700000.0 11309700000.0 11309700000.0 11309700000.0 11309700000.0 11309700000.0 11309700000.0 11309700000.0 11309700000.0 11309700000.0 11309700000.0 11309700000.0 11309700000.0 11309700000.0 11309700000.0 11309700000.0 11309700000.0 11309700000.0 11309700000.0 11309700000.0 11309700000.0 11309700000.0 11309700000.0 11309700000.0 11309700000.0 11309700000.0 11309700000.0 11309700000.0 11309700000.0 11309700000.0 11309700000.0 11309700000.0 11309700000.0 11309700000.0 11309700000.0 11309700000.0 11309700000.0 11309700000.0 11309700000.0 11309700000.0 11309700000.0 11309700000.0 11309700000.0 11309700000.0 11309700000.0 11309700000.0 11309700000.0 11309700000.0 11309700000.0 11309700000.0 11309700000.0 11309700000.0 11309700000.0 11309700000.0 11309700000.0 11309700000.0 11309700000.0 11309700000.0 11309700000.0 11309700000.0 11309700000.0 11309700000.0 11309700000.0 11309700000.0 11309700000.0 11309700000.0 11309700000.0 11309700000.0 11309700000.0 11309700000.0 11309700000.0 11309700000.0 11309700000.0 11309700000.0 11309700000.0 11309700000.0 11309700000.0 11309700000.0 11309700000.0 11309700000.0 11309700000.0 11309700000.0 11309700000.0 11309700000.0 11309700000.0 11309700000.0 11309700000.0 11309700000.0 11309700000.0 11309700000.0 11309700000.0 11309700000.0 11309700000.0 11309700000.0 11309700000.0 11309700000.0 11309700000.0 11309700000.0 11309700000.0 11309700000.0 11309700000.0 11309700000.0 11309700000.0 11309700000.0 11309700000.0 11309700000.0 11309700000.0 11309700000.0 11309700000.0 11309700000.0 11309700000.0 11309700000.0 11309700000.0 11309700000.0 11309700000.0 11309700000.0 11309700000.0 11309700000.0 11309700000.0 11309700000.0 11309700000.0 11309700000.0 11309700000.0 11309700000.0 11309700000.0 11309700000.0 11309700000.0 11309700000.0 11309700000.0 11309700000.0 11309700000.0 11309700000.0 11309700000.0 11309700000.0 11309700000.0 11309700000.0 11309700000.0 11309700000.0 11309700000.0 11309700000.0 11309700000.0 11309700000.0 11309700000.0 11309700000.0 11309700000.0 11309700000.0 11309700000.0 11309700000.0 11309700000.0 11309700000.0 11309700000.0 11309700000.0 11309700000.0 11309700000.0 11309700000.0 11309700000.0 11309700000.0 11309700000.0 11309700000.0 11309700000.0 11309700000.0 11309700000.0 11309700000.0 11309700000.0 11309700000.0 11309700000.0 11309700000.0 11309700000.0 11309700000.0 11309700000.0 11309700000.0 11309700000.0 11309700000.0 11309700000.0 11309700000.0 11309700000.0 11309700000.0 11309700000.0 11309700000.0 11309700000.0 11309700000.0 11309700000.0 11309700000.0 11309700000.0 11309700000.0 11309700000.0 11309700000.0 11309700000.0 11309700000.0 11309700000.0 11309700000.0 11309700000.0 11309700000.0 11309700000.0 11309700000.0 11309700000.0 11309700000.0 11309700000.0 11309700000.0 11309700000.0 11309700000.0 11309700000.0 11309700000.0 11309700000.0 11309700000.0 11309700000.0 11309700000.0 11309700000.0 11309700000.0 11309700000.0 11309700000.0 11309700000.0 11309700000.0 11309700000.0 11309700000.0 11309700000.0 11309700000.0 11309700000.0 11309700000.0 11309700000.0 11309700000.0 11309700000.0 11309700000.0 11309700000.0 11309700000.0 11309700000.0 11309700000.0 11309700000.0 11309700000.0 11309700000.0 11309700000.0 11309700000.0 11309700000.0 11309700000.0 11309700000.0 11309700000.0 11309700000.0 11309700000.0 11309700000.0 11309700000.0 11309700000.0 11309700000.0 11309700000.0 11309700000.0 11309700000.0 11309700000.0 11309700000.0 11309700000.0 11309700000.0 11309700000.0 11309700000.0 11309700000.0 11309700000.0 11309700000.0 11309700000.0 11309700000.0 11309700000.0 11309700000.0 11309700000.0 11309700000.0 11309700000.0 11309700000.0 11309700000.0 11309700000.0 11309700000.0 11309700000.0 11309700000.0 11309700000.0 11309700000.0 11309700000.0 11309700000.0 11309700000.0 11309700000.0 11309700000.0 11309700000.0 11309700000.0 11309700000.0 11309700000.0 11309700000.0 11309700000.0 11309700000.0 11309700000.0 11309700000.0 11309700000.0 11309700000.0 11309700000.0 11309700000.0 11309700000.0 11309700000.0 11309700000.0 11309700000.0 11309700000.0 11309700000.0 11309700000.0 11309700000.0 11309700000.0 11309700000.0 11309700000.0 11309700000.0 11309700000.0 11309700000.0 11309700000.0 11309700000.0 11309700000.0 11309700000.0 11309700000.0 11309700000.0 11309700000.0 11309700000.0 11309700000.0 11309700000.0 11309700000.0 11309700000.0 11309700000.0 11309700000.0 11309700000.0 11309700000.0 11309700000.0 11309700000.0 11309700000.0 11309700000.0 11309700000.0 11309700000.0 11309700000.0 11309700000.0 11309700000.0 11309700000.0 11309700000.0 11309700000.0 11309700000.0 11309700000.0 11309700000.0 11309700000.0 11309700000.0 11309700000.0 11309700000.0 11309700000.0 11309700000.0 11309700000.0 11309700000.0 11309700000.0 11309700000.0 11309700000.0 11309700000.0 11309700000.0 11309700000.0 11309700000.0 11309700000.0 11309700000.0 11309700000.0 11309700000.0 11309700000.0 11309700000.0 11309700000.0 11309700000.0 11309700000.0 11309700000.0 11309700000.0 11309700000.0 11309700000.0 11309700000.0 11309700000.0 11309700000.0 11309700000.0 11309700000.0 11309700000.0 11309700000.0 11309700000.0 11309700000.0 11309700000.0 11309700000.0 11309700000.0 11309700000.0 11309700000.0 11309700000.0 11309700000.0 11309700000.0 11309700000.0 11309700000.0 11309700000.0 11309700000.0 11309700000.0 11309700000.0 11309700000.0 11309700000.0 11309700000.0 11309700000.0 11309700000.0 11309700000.0 11309700000.0 11309700000.0 11309700000.0 11309700000.0 11309700000.0 11309700000.0 11309700000.0 11309700000.0 11309700000.0 11309700000.0 11309700000.0 11309700000.0 11309700000.0 11309700000.0 11309700000.0 11309700000.0 11309700000.0 11309700000.0 11309700000.0 11309700000.0 11309700000.0 11309700000.0 11309700000.0 11309700000.0 11309700000.0 11309700000.0 11309700000.0 11309700000.0 11309700000.0 11309700000.0 11309700000.0 11309700000.0 11309700000.0 11309700000.0 11309700000.0 11309700000.0 11309700000.0 11309700000.0 11309700000.0 11309700000.0 11309700000.0 11309700000.0 11309700000.0 11309700000.0 11309700000.0 11309700000.0 11309700000.0 11309700000.0 11309700000.0 11309700000.0 11309700000.0 11309700000.0 11309700000.0 11309700000.0 11309700000.0 11309700000.0 11309700000.0 11309700000.0 11309700000.0 11309700000.0 11309700000.0 11309700000.0 11309700000.0 11309700000.0 11309700000.0 11309700000.0 11309700000.0 11309700000.0 11309700000.0 11309700000.0 11309700000.0 11309700000.0 11309700000.0 11309700000.0 11309700000.0 11309700000.0 11309700000.0 11309700000.0 11309700000.0 11309700000.0 11309700000.0 11309700000.0 11309700000.0 11309700000.0 11309700000.0 11309700000.0 11309700000.0 11309700000.0 11309700000.0 11309700000.0 11309700000.0 11309700000.0 11309700000.0 11309700000.0 11309700000.0 11309700000.0 11309700000.0 11309700000.0 11309700000.0 11309700000.0 11309700000.0 11309700000.0 11309700000.0 11309700000.0 11309700000.0 11309700000.0 11309700000.0 11309700000.0 11309700000.0 11309700000.0 11309700000.0 11309700000.0 11309700000.0 11309700000.0 11309700000.0 11309700000.0 11309700000.0 11309700000.0 11309700000.0 11309700000.0 11309700000.0 11309700000.0 11309700000.0 11309700000.0 11309700000.0 11309700000.0 11309700000.0 11309700000.0 11309700000.0 11309700000.0 11309700000.0 11309700000.0 11309700000.0 11309700000.0 11309700000.0 11309700000.0 11309700000.0 11309700000.0 11309700000.0 11309700000.0 11309700000.0 11309700000.0 11309700000.0 11309700000.0 11309700000.0 11309700000.0 11309700000.0 11309700000.0 11309700000.0 11309700000.0 11309700000.0 11309700000.0 11309700000.0 11309700000.0 11309700000.0 11309700000.0 11309700000.0 11309700000.0 11309700000.0 11309700000.0 11309700000.0 11309700000.0 11309700000.0 11309700000.0 11309700000.0 11309700000.0 11309700000.0 11309700000.0 11309700000.0 11309700000.0 11309700000.0 11309700000.0 11309700000.0 11309700000.0 11309700000.0 11309700000.0 11309700000.0 11309700000.0 11309700000.0 11309700000.0 11309700000.0 11309700000.0 11309700000.0 11309700000.0 11309700000.0 11309700000.0 11309700000.0 11309700000.0 11309700000.0 11309700000.0 11309700000.0 11309700000.0 11309700000.0 11309700000.0 11309700000.0 11309700000.0 11309700000.0 11309700000.0 11309700000.0 11309700000.0 11309700000.0 11309700000.0 11309700000.0 11309700000.0 11309700000.0 11309700000.0 11309700000.0 11309700000.0 11309700000.0 11309700000.0 11309700000.0 11309700000.0 11309700000.0 11309700000.0 11309700000.0 11309700000.0 11309700000.0 11309700000.0 11309700000.0 11309700000.0 11309700000.0 11309700000.0 11309700000.0 11309700000.0 11309700000.0 11309700000.0 11309700000.0 11309700000.0 11309700000.0 11309700000.0 11309700000.0 11309700000.0 11309700000.0 11309700000.0 11309700000.0 11309700000.0 11309700000.0 11309700000.0 11309700000.0 11309700000.0 11309700000.0 11309700000.0 11309700000.0 11309700000.0 11309700000.0 11309700000.0 11309700000.0 11309700000.0 11309700000.0 11309700000.0 11309700000.0 11309700000.0 11309700000.0 11309700000.0 11309700000.0 11309700000.0 11309700000.0 11309700000.0 11309700000.0 11309700000.0 11309700000.0 11309700000.0 11309700000.0 11309700000.0 11309700000.0 11309700000.0 11309700000.0 11309700000.0 11309700000.0 11309700000.0 11309700000.0 11309700000.0 11309700000.0 11309700000.0 11309700000.0 11309700000.0 11309700000.0 11309700000.0 11309700000.0 11309700000.0 11309700000.0 11309700000.0 11309700000.0 11309700000.0 11309700000.0 11309700000.0 11309700000.0 11309700000.0 11309700000.0 11309700000.0 11309700000.0 11309700000.0 11309700000.0 11309700000.0 11309700000.0 11309700000.0 11309700000.0 11309700000.0 11309700000.0 11309700000.0 11309700000.0 11309700000.0 11309700000.0 11309700000.0 11309700000.0 11309700000.0 11309700000.0 11309700000.0 11309700000.0 11309700000.0 11309700000.0 11309700000.0 11309700000.0 11309700000.0 11309700000.0 11309700000.0 11309700000.0 11309700000.0 11309700000.0 11309700000.0 11309700000.0 11309700000.0 11309700000.0 11309700000.0 11309700000.0 11309700000.0 11309700000.0 11309700000.0 11309700000.0 11309700000.0 11309700000.0 11309700000.0 11309700000.0 11309700000.0 11309700000.0 11309700000.0 11309700000.0 11309700000.0 11309700000.0 11309700000.0 11309700000.0 11309700000.0 11309700000.0 11309700000.0 11309700000.0 11309700000.0 11309700000.0 11309700000.0 11309700000.0 11309700000.0 11309700000.0 11309700000.0 11309700000.0 11309700000.0 11309700000.0 11309700000.0 11309700000.0 11309700000.0 11309700000.0 11309700000.0 11309700000.0 11309700000.0 11309700000.0 11309700000.0 11309700000.0 11309700000.0 11309700000.0 11309700000.0 11309700000.0 11309700000.0 11309700000.0 11309700000.0 11309700000.0 11309700000.0 11309700000.0 11309700000.0 11309700000.0 11309700000.0 11309700000.0 11309700000.0 11309700000.0 11309700000.0 11309700000.0 11309700000.0 11309700000.0 11309700000.0 11309700000.0 11309700000.0 11309700000.0 11309700000.0 11309700000.0 11309700000.0 11309700000.0 11309700000.0 11309700000.0 11309700000.0 11309700000.0 11309700000.0 11309700000.0 11309700000.0 11309700000.0 11309700000.0 11309700000.0 11309700000.0 11309700000.0 11309700000.0 11309700000.0 11309700000.0 11309700000.0 11309700000.0 11309700000.0 11309700000.0 11309700000.0 11309700000.0 11309700000.0 11309700000.0 11309700000.0 11309700000.0 11309700000.0 11309700000.0 11309700000.0 11309700000.0 11309700000.0 11309700000.0 11309700000.0 11309700000.0 11309700000.0 11309700000.0 11309700000.0 11309700000.0 11309700000.0 11309700000.0 11309700000.0 11309700000.0 11309700000.0 11309700000.0 11309700000.0 11309700000.0 11309700000.0 11309700000.0 11309700000.0 11309700000.0 11309700000.0 11309700000.0 11309700000.0 11309700000.0 11309700000.0 11309700000.0 11309700000.0 11309700000.0 11309700000.0 11309700000.0 11309700000.0 11309700000.0 11309700000.0 11309700000.0 11309700000.0 11309700000.0 11309700000.0 11309700000.0 11309700000.0 11309700000.0 11309700000.0 11309700000.0 11309700000.0 11309700000.0 11309700000.0 11309700000.0 11309700000.0 11309700000.0 11309700000.0 11309700000.0 11309700000.0 11309700000.0 11309700000.0 11309700000.0 11309700000.0 11309700000.0 11309700000.0 11309700000.0 11309700000.0 11309700000.0 11309700000.0 11309700000.0 11309700000.0 11309700000.0 11309700000.0 11309700000.0 11309700000.0 11309700000.0 11309700000.0 11309700000.0 11309700000.0 11309700000.0 11309700000.0 11309700000.0 11309700000.0 11309700000.0 11309700000.0 11309700000.0 11309700000.0 11309700000.0 11309700000.0 11309700000.0 11309700000.0 11309700000.0 11309700000.0 11309700000.0 11309700000.0 11309700000.0 11309700000.0 11309700000.0 11309700000.0 11309700000.0 11309700000.0 11309700000.0 11309700000.0 11309700000.0 11309700000.0 11309700000.0 11309700000.0 11309700000.0 11309700000.0 11309700000.0 11309700000.0 11309700000.0 11309700000.0 11309700000.0 11309700000.0 11309700000.0 11309700000.0 11309700000.0 11309700000.0 11309700000.0 11309700000.0 11309700000.0 11309700000.0 11309700000.0 11309700000.0 11309700000.0 11309700000.0 11309700000.0 11309700000.0 11309700000.0 11309700000.0 11309700000.0 11309700000.0 11309700000.0 11309700000.0 11309700000.0 11309700000.0 11309700000.0 11309700000.0 11309700000.0 11309700000.0 11309700000.0 11309700000.0 11309700000.0 11309700000.0 11309700000.0 11309700000.0 11309700000.0 11309700000.0 11309700000.0 11309700000.0 11309700000.0 11309700000.0 11309700000.0 11309700000.0 11309700000.0 11309700000.0 11309700000.0 11309700000.0 11309700000.0 11309700000.0 11309700000.0 11309700000.0 11309700000.0 11309700000.0 11309700000.0 11309700000.0 11309700000.0 11309700000.0 11309700000.0 11309700000.0 11309700000.0 11309700000.0 11309700000.0 11309700000.0 11309700000.0 11309700000.0 11309700000.0 11309700000.0 11309700000.0 11309700000.0 11309700000.0 11309700000.0 11309700000.0 11309700000.0 11309700000.0 11309700000.0 11309700000.0 11309700000.0 11309700000.0 11309700000.0 11309700000.0 11309700000.0 11309700000.0 11309700000.0 11309700000.0 11309700000.0 11309700000.0 11309700000.0 11309700000.0 11309700000.0 11309700000.0 11309700000.0 11309700000.0 11309700000.0 11309700000.0 11309700000.0 11309700000.0 11309700000.0 11309700000.0 11309700000.0 11309700000.0 11309700000.0 11309700000.0 11309700000.0 11309700000.0 11309700000.0 11309700000.0 11309700000.0 11309700000.0 11309700000.0 11309700000.0 11309700000.0 11309700000.0 11309700000.0 11309700000.0 11309700000.0 11309700000.0 11309700000.0 11309700000.0 11309700000.0 11309700000.0 11309700000.0 11309700000.0 11309700000.0 11309700000.0 11309700000.0 11309700000.0 11309700000.0 11309700000.0 11309700000.0 11309700000.0 11309700000.0 11309700000.0 11309700000.0 11309700000.0 11309700000.0 11309700000.0 11309700000.0 11309700000.0 11309700000.0 11309700000.0 11309700000.0 11309700000.0 11309700000.0 11309700000.0 11309700000.0 11309700000.0 11309700000.0 11309700000.0 11309700000.0 11309700000.0 11309700000.0 11309700000.0 11309700000.0 11309700000.0 11309700000.0 11309700000.0 11309700000.0 11309700000.0 11309700000.0 11309700000.0 11309700000.0 11309700000.0 11309700000.0 11309700000.0 11309700000.0 11309700000.0 11309700000.0 11309700000.0 11309700000.0 11309700000.0 11309700000.0 11309700000.0 11309700000.0 11309700000.0 11309700000.0 11309700000.0 11309700000.0 11309700000.0 11309700000.0 11309700000.0 11309700000.0 11309700000.0 11309700000.0 11309700000.0 11309700000.0 11309700000.0 11309700000.0 11309700000.0 11309700000.0 11309700000.0 11309700000.0 11309700000.0 11309700000.0 11309700000.0 11309700000.0 11309700000.0 11309700000.0 11309700000.0 11309700000.0 11309700000.0 11309700000.0 11309700000.0 11309700000.0 11309700000.0 11309700000.0 11309700000.0 11309700000.0 11309700000.0 11309700000.0 11309700000.0 11309700000.0 11309700000.0 11309700000.0 11309700000.0 11309700000.0 11309700000.0 11309700000.0 11309700000.0 11309700000.0 11309700000.0 11309700000.0 11309700000.0 11309700000.0 11309700000.0 11309700000.0 11309700000.0 11309700000.0 11309700000.0 11309700000.0 11309700000.0 11309700000.0 11309700000.0 11309700000.0 11309700000.0 11309700000.0 11309700000.0 11309700000.0 11309700000.0 11309700000.0 11309700000.0 11309700000.0 11309700000.0 11309700000.0 11309700000.0 11309700000.0 11309700000.0 11309700000.0 11309700000.0 11309700000.0 11309700000.0 11309700000.0 11309700000.0 11309700000.0 11309700000.0 11309700000.0 11309700000.0 11309700000.0 11309700000.0 11309700000.0 11309700000.0 11309700000.0 11309700000.0 11309700000.0 11309700000.0 11309700000.0 11309700000.0 11309700000.0 11309700000.0 11309700000.0 11309700000.0 11309700000.0 11309700000.0 11309700000.0 11309700000.0 11309700000.0 11309700000.0 11309700000.0 11309700000.0 11309700000.0 11309700000.0 11309700000.0 11309700000.0 11309700000.0 11309700000.0 11309700000.0 11309700000.0 11309700000.0 11309700000.0 11309700000.0 11309700000.0 11309700000.0 11309700000.0 11309700000.0 11309700000.0 11309700000.0 11309700000.0 11309700000.0 11309700000.0 11309700000.0 11309700000.0 11309700000.0 11309700000.0 11309700000.0 11309700000.0 11309700000.0 11309700000.0 11309700000.0 11309700000.0 11309700000.0 11309700000.0 11309700000.0 11309700000.0 11309700000.0 11309700000.0 11309700000.0 11309700000.0 11309700000.0 11309700000.0 11309700000.0 11309700000.0 11309700000.0 11309700000.0 11309700000.0 11309700000.0 11309700000.0 11309700000.0 11309700000.0 11309700000.0 11309700000.0 11309700000.0 11309700000.0 11309700000.0 11309700000.0 11309700000.0 11309700000.0 11309700000.0 11309700000.0 11309700000.0 11309700000.0 11309700000.0 11309700000.0 11309700000.0 11309700000.0 11309700000.0 11309700000.0 11309700000.0 11309700000.0 11309700000.0 11309700000.0 11309700000.0 11309700000.0 11309700000.0 11309700000.0 11309700000.0 11309700000.0 11309700000.0 11309700000.0 11309700000.0 11309700000.0 11309700000.0 11309700000.0 11309700000.0 11309700000.0 11309700000.0 11309700000.0 11309700000.0 11309700000.0 11309700000.0 11309700000.0 11309700000.0 11309700000.0 11309700000.0 11309700000.0 11309700000.0 11309700000.0 11309700000.0 11309700000.0 11309700000.0 11309700000.0 11309700000.0 11309700000.0 11309700000.0 11309700000.0 11309700000.0 11309700000.0 11309700000.0 11309700000.0 11309700000.0 11309700000.0 11309700000.0 11309700000.0 11309700000.0 11309700000.0 11309700000.0 11309700000.0 11309700000.0 11309700000.0 11309700000.0 11309700000.0 11309700000.0 11309700000.0 11309700000.0 11309700000.0 11309700000.0 11309700000.0 11309700000.0 11309700000.0 11309700000.0 11309700000.0 11309700000.0 11309700000.0 11309700000.0 11309700000.0 11309700000.0 11309700000.0 11309700000.0 11309700000.0 11309700000.0 11309700000.0 11309700000.0 11309700000.0 11309700000.0 11309700000.0 11309700000.0 11309700000.0 11309700000.0 11309700000.0 11309700000.0 11309700000.0 11309700000.0 11309700000.0 11309700000.0 11309700000.0 11309700000.0 11309700000.0 11309700000.0 11309700000.0 11309700000.0 11309700000.0 11309700000.0 11309700000.0 11309700000.0 11309700000.0 11309700000.0 11309700000.0 11309700000.0 11309700000.0 11309700000.0 11309700000.0 11309700000.0 11309700000.0 11309700000.0 11309700000.0 11309700000.0 11309700000.0 11309700000.0 11309700000.0 11309700000.0 11309700000.0 11309700000.0 11309700000.0 11309700000.0 11309700000.0 11309700000.0 11309700000.0 11309700000.0 11309700000.0 11309700000.0 11309700000.0 11309700000.0 11309700000.0 11309700000.0 11309700000.0 11309700000.0 11309700000.0 11309700000.0 11309700000.0 11309700000.0 11309700000.0 11309700000.0 11309700000.0 11309700000.0 11309700000.0 11309700000.0 11309700000.0 11309700000.0 11309700000.0 11309700000.0 11309700000.0 11309700000.0 11309700000.0 11309700000.0 11309700000.0 11309700000.0 11309700000.0 11309700000.0 11309700000.0 11309700000.0 11309700000.0 11309700000.0 11309700000.0 11309700000.0 11309700000.0 11309700000.0 11309700000.0 11309700000.0 11309700000.0 11309700000.0 11309700000.0 11309700000.0 11309700000.0 11309700000.0 11309700000.0 11309700000.0 11309700000.0 11309700000.0 11309700000.0 11309700000.0 11309700000.0 11309700000.0 11309700000.0 11309700000.0 11309700000.0 11309700000.0 11309700000.0 11309700000.0 11309700000.0 11309700000.0 11309700000.0 11309700000.0 11309700000.0 11309700000.0 11309700000.0 11309700000.0 11309700000.0 11309700000.0 11309700000.0 11309700000.0 11309700000.0 11309700000.0 11309700000.0 11309700000.0 11309700000.0 11309700000.0 11309700000.0 11309700000.0 11309700000.0 11309700000.0 11309700000.0 11309700000.0 11309700000.0 11309700000.0 11309700000.0 11309700000.0 11309700000.0 11309700000.0 11309700000.0 11309700000.0 11309700000.0 11309700000.0 11309700000.0 11309700000.0 11309700000.0 11309700000.0 11309700000.0 11309700000.0 11309700000.0 11309700000.0 11309700000.0 11309700000.0 11309700000.0 11309700000.0 11309700000.0 11309700000.0 11309700000.0 11309700000.0 11309700000.0 11309700000.0 11309700000.0 11309700000.0 11309700000.0 11309700000.0 11309700000.0 11309700000.0 11309700000.0 11309700000.0 11309700000.0 11309700000.0 11309700000.0 11309700000.0 11309700000.0 11309700000.0 11309700000.0 11309700000.0 11309700000.0 11309700000.0 11309700000.0 11309700000.0 11309700000.0 11309700000.0 11309700000.0 11309700000.0 11309700000.0 11309700000.0 11309700000.0 11309700000.0 11309700000.0 11309700000.0 11309700000.0 11309700000.0 11309700000.0 11309700000.0 11309700000.0 11309700000.0 11309700000.0 11309700000.0 11309700000.0 11309700000.0 11309700000.0 11309700000.0 11309700000.0 11309700000.0 11309700000.0 11309700000.0 11309700000.0 11309700000.0 11309700000.0 11309700000.0 11309700000.0 11309700000.0 11309700000.0 11309700000.0 11309700000.0 11309700000.0 11309700000.0 11309700000.0 11309700000.0 11309700000.0 11309700000.0 11309700000.0 11309700000.0 11309700000.0 11309700000.0 11309700000.0 11309700000.0 11309700000.0 11309700000.0 11309700000.0 11309700000.0 11309700000.0 11309700000.0 11309700000.0 11309700000.0 11309700000.0 11309700000.0 11309700000.0 11309700000.0 11309700000.0 11309700000.0 11309700000.0 11309700000.0 11309700000.0 11309700000.0 11309700000.0 11309700000.0 11309700000.0 11309700000.0 11309700000.0 11309700000.0 11309700000.0 11309700000.0 11309700000.0 11309700000.0 11309700000.0 11309700000.0 11309700000.0 11309700000.0 11309700000.0 11309700000.0 11309700000.0 11309700000.0 11309700000.0 11309700000.0 11309700000.0 11309700000.0 11309700000.0 11309700000.0 11309700000.0 11309700000.0 11309700000.0 11309700000.0 11309700000.0 11309700000.0 11309700000.0 11309700000.0 11309700000.0 11309700000.0 11309700000.0 11309700000.0 11309700000.0 11309700000.0 11309700000.0 11309700000.0 11309700000.0 11309700000.0 11309700000.0 11309700000.0 11309700000.0 11309700000.0 11309700000.0 11309700000.0 11309700000.0 11309700000.0 11309700000.0 11309700000.0 11309700000.0 11309700000.0 11309700000.0 11309700000.0 11309700000.0 11309700000.0 11309700000.0 11309700000.0 11309700000.0 11309700000.0 11309700000.0 11309700000.0 11309700000.0 11309700000.0 11309700000.0 11309700000.0 11309700000.0 11309700000.0 11309700000.0 11309700000.0 11309700000.0 11309700000.0 11309700000.0 11309700000.0 11309700000.0 11309700000.0 11309700000.0 11309700000.0 11309700000.0 11309700000.0 11309700000.0 11309700000.0 11309700000.0 11309700000.0 11309700000.0 11309700000.0 11309700000.0 11309700000.0 11309700000.0 11309700000.0 11309700000.0 11309700000.0 11309700000.0 11309700000.0 11309700000.0 11309700000.0 11309700000.0 11309700000.0 11309700000.0 11309700000.0 11309700000.0 11309700000.0 11309700000.0 11309700000.0 11309700000.0 11309700000.0 11309700000.0 11309700000.0 11309700000.0 11309700000.0 11309700000.0 11309700000.0 11309700000.0 11309700000.0 11309700000.0 11309700000.0 11309700000.0 11309700000.0 11309700000.0 11309700000.0 11309700000.0 11309700000.0 11309700000.0 11309700000.0 11309700000.0 11309700000.0 11309700000.0 11309700000.0 11309700000.0 11309700000.0 11309700000.0 11309700000.0 11309700000.0 11309700000.0 11309700000.0 11309700000.0 11309700000.0 11309700000.0 11309700000.0 11309700000.0 11309700000.0 11309700000.0 11309700000.0 11309700000.0 11309700000.0 11309700000.0 11309700000.0 11309700000.0 11309700000.0 11309700000.0 11309700000.0 11309700000.0 11309700000.0 11309700000.0 11309700000.0 11309700000.0 11309700000.0 11309700000.0 11309700000.0 11309700000.0 11309700000.0 11309700000.0 11309700000.0 11309700000.0 11309700000.0 11309700000.0 11309700000.0 11309700000.0 11309700000.0 11309700000.0 11309700000.0 11309700000.0 11309700000.0 11309700000.0 11309700000.0 11309700000.0 11309700000.0 11309700000.0 11309700000.0 11309700000.0 11309700000.0 11309700000.0 11309700000.0 11309700000.0 11309700000.0 11309700000.0 11309700000.0 11309700000.0 11309700000.0 11309700000.0 11309700000.0 11309700000.0 11309700000.0 11309700000.0 11309700000.0 11309700000.0 11309700000.0 11309700000.0 11309700000.0 11309700000.0 11309700000.0 11309700000.0 11309700000.0 11309700000.0 11309700000.0 11309700000.0 11309700000.0 11309700000.0 11309700000.0 11309700000.0 11309700000.0 11309700000.0 11309700000.0 11309700000.0 11309700000.0 11309700000.0 11309700000.0 11309700000.0 11309700000.0 11309700000.0 11309700000.0 11309700000.0 11309700000.0 11309700000.0 11309700000.0 11309700000.0 11309700000.0 11309700000.0 11309700000.0 11309700000.0 11309700000.0 11309700000.0 11309700000.0 11309700000.0 11309700000.0 11309700000.0 11309700000.0 11309700000.0 11309700000.0 11309700000.0 11309700000.0 11309700000.0 11309700000.0 11309700000.0 11309700000.0 11309700000.0 11309700000.0 11309700000.0 11309700000.0 11309700000.0 11309700000.0 11309700000.0 11309700000.0 11309700000.0 11309700000.0 11309700000.0 11309700000.0 11309700000.0 11309700000.0 11309700000.0 11309700000.0 11309700000.0 11309700000.0 11309700000.0 11309700000.0 11309700000.0 11309700000.0 11309700000.0 11309700000.0 11309700000.0 11309700000.0 11309700000.0 11309700000.0 11309700000.0 11309700000.0 11309700000.0 11309700000.0 11309700000.0 11309700000.0 11309700000.0 11309700000.0 11309700000.0 11309700000.0 11309700000.0 11309700000.0 11309700000.0 11309700000.0 11309700000.0 11309700000.0 11309700000.0 11309700000.0 11309700000.0 11309700000.0 11309700000.0 11309700000.0 11309700000.0 11309700000.0 11309700000.0 11309700000.0 11309700000.0 11309700000.0 11309700000.0 11309700000.0 11309700000.0 11309700000.0 11309700000.0 11309700000.0 11309700000.0 11309700000.0 11309700000.0 11309700000.0 11309700000.0 11309700000.0 11309700000.0 11309700000.0 11309700000.0 11309700000.0 11309700000.0 11309700000.0 11309700000.0 11309700000.0 11309700000.0 11309700000.0 11309700000.0 11309700000.0 11309700000.0 11309700000.0 11309700000.0 11309700000.0 11309700000.0 11309700000.0 11309700000.0 11309700000.0 11309700000.0 11309700000.0 11309700000.0 11309700000.0 11309700000.0 11309700000.0 11309700000.0 11309700000.0 11309700000.0 11309700000.0 11309700000.0 11309700000.0 11309700000.0 11309700000.0 11309700000.0 11309700000.0 11309700000.0 11309700000.0 11309700000.0 11309700000.0 11309700000.0 11309700000.0 11309700000.0 11309700000.0 11309700000.0 11309700000.0 11309700000.0 11309700000.0 11309700000.0 11309700000.0 11309700000.0 11309700000.0 11309700000.0 11309700000.0 11309700000.0 11309700000.0 11309700000.0 11309700000.0 11309700000.0 11309700000.0 11309700000.0 11309700000.0 11309700000.0 11309700000.0 11309700000.0 11309700000.0 11309700000.0 11309700000.0 11309700000.0 11309700000.0 11309700000.0 11309700000.0 11309700000.0 11309700000.0 11309700000.0 11309700000.0 11309700000.0 11309700000.0 11309700000.0 11309700000.0 11309700000.0 11309700000.0 11309700000.0 11309700000.0 11309700000.0 11309700000.0 11309700000.0 11309700000.0 11309700000.0 11309700000.0 11309700000.0 11309700000.0 11309700000.0 11309700000.0 11309700000.0 11309700000.0 11309700000.0 11309700000.0 11309700000.0 11309700000.0 11309700000.0 11309700000.0 11309700000.0 11309700000.0 11309700000.0 11309700000.0 11309700000.0 11309700000.0 11309700000.0 11309700000.0 11309700000.0 11309700000.0 11309700000.0 11309700000.0 11309700000.0 11309700000.0 11309700000.0 11309700000.0 11309700000.0 11309700000.0 11309700000.0 11309700000.0 11309700000.0 11309700000.0 11309700000.0 11309700000.0 11309700000.0 11309700000.0 11309700000.0 11309700000.0 11309700000.0 11309700000.0 11309700000.0 11309700000.0 11309700000.0 11309700000.0 11309700000.0 11309700000.0 11309700000.0 11309700000.0 11309700000.0 11309700000.0 11309700000.0 11309700000.0 11309700000.0 11309700000.0 11309700000.0 11309700000.0 11309700000.0 11309700000.0 11309700000.0 11309700000.0 11309700000.0 11309700000.0 11309700000.0 11309700000.0 11309700000.0 11309700000.0 11309700000.0 11309700000.0 11309700000.0 11309700000.0 11309700000.0 11309700000.0 11309700000.0 11309700000.0 11309700000.0 11309700000.0 11309700000.0 11309700000.0 11309700000.0 11309700000.0 11309700000.0 11309700000.0 11309700000.0 11309700000.0 11309700000.0 11309700000.0 11309700000.0 11309700000.0 11309700000.0 11309700000.0 11309700000.0 11309700000.0 11309700000.0 11309700000.0 11309700000.0 11309700000.0 11309700000.0 11309700000.0 11309700000.0 11309700000.0 11309700000.0 11309700000.0 11309700000.0 11309700000.0 11309700000.0 11309700000.0 11309700000.0 11309700000.0 11309700000.0 11309700000.0 11309700000.0 11309700000.0 11309700000.0 11309700000.0 11309700000.0 11309700000.0 11309700000.0 11309700000.0 11309700000.0 11309700000.0 11309700000.0 11309700000.0 11309700000.0 11309700000.0 11309700000.0 11309700000.0 11309700000.0 11309700000.0 11309700000.0 11309700000.0 11309700000.0 11309700000.0 11309700000.0 11309700000.0 11309700000.0 11309700000.0 11309700000.0 11309700000.0 11309700000.0 11309700000.0 11309700000.0 11309700000.0 11309700000.0 11309700000.0 11309700000.0 11309700000.0 11309700000.0 11309700000.0 11309700000.0 11309700000.0 11309700000.0 11309700000.0 11309700000.0 11309700000.0 11309700000.0 11309700000.0 11309700000.0 11309700000.0 11309700000.0 11309700000.0 11309700000.0 11309700000.0 11309700000.0 11309700000.0 11309700000.0 11309700000.0 11309700000.0 11309700000.0 11309700000.0 11309700000.0 11309700000.0 11309700000.0 11309700000.0 11309700000.0 11309700000.0 11309700000.0 11309700000.0 11309700000.0 11309700000.0 11309700000.0 11309700000.0 11309700000.0 11309700000.0 11309700000.0 11309700000.0 11309700000.0 11309700000.0 11309700000.0 11309700000.0 11309700000.0 11309700000.0 11309700000.0 11309700000.0 11309700000.0 11309700000.0 11309700000.0 11309700000.0 11309700000.0 11309700000.0 11309700000.0 11309700000.0 11309700000.0 11309700000.0 11309700000.0 11309700000.0 11309700000.0 11309700000.0 11309700000.0 11309700000.0 11309700000.0 11309700000.0 11309700000.0 11309700000.0 11309700000.0 11309700000.0 11309700000.0 11309700000.0 11309700000.0 11309700000.0 11309700000.0 11309700000.0 11309700000.0 11309700000.0 11309700000.0 11309700000.0 11309700000.0 11309700000.0 11309700000.0 11309700000.0 11309700000.0 11309700000.0 11309700000.0 11309700000.0 11309700000.0 11309700000.0 11309700000.0 11309700000.0 11309700000.0 11309700000.0 11309700000.0 11309700000.0 11309700000.0 11309700000.0 11309700000.0 11309700000.0 11309700000.0 11309700000.0 11309700000.0 11309700000.0 11309700000.0 11309700000.0 11309700000.0 11309700000.0 11309700000.0 11309700000.0 11309700000.0 11309700000.0 11309700000.0 11309700000.0 11309700000.0 11309700000.0 11309700000.0 11309700000.0 11309700000.0 11309700000.0 11309700000.0 11309700000.0 11309700000.0 11309700000.0 11309700000.0 11309700000.0 11309700000.0 11309700000.0 11309700000.0 11309700000.0 11309700000.0 11309700000.0 11309700000.0 11309700000.0 11309700000.0 11309700000.0 11309700000.0 11309700000.0 11309700000.0 11309700000.0 11309700000.0 11309700000.0 11309700000.0 11309700000.0 11309700000.0 11309700000.0 11309700000.0 11309700000.0 11309700000.0 11309700000.0 11309700000.0 11309700000.0 11309700000.0 11309700000.0 11309700000.0 11309700000.0 11309700000.0 11309700000.0 11309700000.0 11309700000.0 11309700000.0 11309700000.0 11309700000.0 11309700000.0 11309700000.0 11309700000.0 11309700000.0 11309700000.0 11309700000.0 11309700000.0 11309700000.0 11309700000.0 11309700000.0 11309700000.0 11309700000.0 11309700000.0 11309700000.0 11309700000.0 11309700000.0 11309700000.0 11309700000.0 11309700000.0 11309700000.0 11309700000.0 11309700000.0 11309700000.0 11309700000.0 11309700000.0 11309700000.0 11309700000.0 11309700000.0 11309700000.0 11309700000.0 11309700000.0 11309700000.0 11309700000.0 11309700000.0 11309700000.0 11309700000.0 11309700000.0 11309700000.0 11309700000.0 11309700000.0 11309700000.0 11309700000.0 11309700000.0 11309700000.0 11309700000.0 11309700000.0 11309700000.0 11309700000.0 11309700000.0 11309700000.0 11309700000.0 11309700000.0 11309700000.0 11309700000.0 11309700000.0 11309700000.0 11309700000.0 11309700000.0 11309700000.0 11309700000.0 11309700000.0 11309700000.0 11309700000.0 11309700000.0 11309700000.0 11309700000.0 11309700000.0 11309700000.0 11309700000.0 11309700000.0 11309700000.0 11309700000.0 11309700000.0 11309700000.0 11309700000.0 11309700000.0 11309700000.0 11309700000.0 11309700000.0 11309700000.0 11309700000.0 11309700000.0 11309700000.0 11309700000.0 11309700000.0 11309700000.0 11309700000.0 11309700000.0 11309700000.0 11309700000.0 11309700000.0 11309700000.0 11309700000.0 11309700000.0 11309700000.0 11309700000.0 11309700000.0 11309700000.0 11309700000.0 11309700000.0 11309700000.0 11309700000.0 
SCALARS Velocity float 1
LOOKUP_TABLE default
1.13278 0.985268 0.891932 1.1299 1.21543 1.21979 1.20704 1.17258 1.16648 1.15378 1.15952 1.13201 1.15187 1.14421 1.08135 1.13028 1.01451 0.883453 0.992048 1.21274 1.22019 1.2191 1.16036 1.17365 1.16766 1.1624 1.14672 1.1184 1.1484 1.12291 1.06284 1.08244 1.17695 0.958207 1.08861 1.20786 1.22978 1.14885 1.16498 1.17316 1.16206 1.15399 1.13384 1.11313 1.1021 1.14744 1.05728 1.12127 1.1787 1.10105 1.19188 1.22824 1.13965 1.17618 1.16377 1.152 1.15538 1.15041 1.1478 1.14113 1.11732 1.06932 1.12082 1.0866 1.16187 1.19672 1.06919 1.15364 1.20924 1.24251 1.25506 1.10186 1.13625 1.16826 1.17888 1.1716 1.15506 1.14532 1.1497 1.1233 1.07111 1.01037 1.02579 1.1195 1.1554 1.05051 1.09124 1.12799 1.16205 1.19187 1.07553 1.19778 1.28749 1.08508 1.17372 1.16802 1.14064 1.14599 1.14877 1.03433 0.94623 1.16539 1.0419 1.13622 1.19203 1.02787 1.11767 1.25579 1.24104 1.12834 1.17847 1.14658 1.1376 1.13716 1.1454 1.15143 1.01993 1.01398 1.02034 1.11606 1.11539 1.09759 1.16521 1.19172 0.971797 1.02495 1.08023 1.19097 1.17163 1.29852 1.24154 1.1608 1.14261 1.13764 1.01985 1.02442 1.04139 1.02105 1.05264 1.17109 1.14467 1.15845 1.18978 1.1887 0.963904 1.08107 1.2386 1.2947 1.24325 1.20787 1.18492 1.15183 1.02826 1.03163 1.02787 1.03312 1.03059 1.02543 1.11711 1.18655 1.19935 0.903948 0.872584 0.950572 1.07147 1.16663 1.22255 1.27239 1.25765 1.2006 1.18631 1.03554 1.04335 1.02386 1.02928 1.03851 1.03747 1.03571 1.13253 1.16981 1.16719 1.12118 1.21851 1.17775 0.830937 0.937132 1.15534 1.23953 1.21252 1.18478 1.19493 1.02147 1.01482 1.04082 1.04096 1.02082 1.15584 1.25398 1.17978 0.887107 0.920604 1.04597 1.13198 1.19772 1.21701 1.16944 1.17026 1.15478 1.03273 1.03052 1.06422 1.04425 1.05448 1.04819 1.0442 1.03437 1.12799 1.21054 1.22932 1.24296 1.16331 1.11293 0.9311 0.833292 1.03312 1.16816 1.15259 1.19742 1.15505 1.12848 1.19275 1.01698 1.06093 1.06381 1.05795 1.02231 1.0098 1.0793 1.16204 1.27058 1.21679 1.10362 0.681931 1.22837 1.26845 1.49741 0.86525 1.141 1.14175 1.10937 1.10513 1.11321 1.16342 1.02273 1.07136 1.07283 1.04279 1.04883 1.17288 1.24756 1.30994 1.18721 1.02478 0.618913 0.937228 1.05045 1.05455 1.68502 1.77473 1.03452 1.166 1.09503 1.07313 1.06205 1.08049 1.08931 0.82961 0.927836 1.06895 1.07226 1.08224 1.08923 1.06677 1.07154 1.05259 1.07729 1.33356 1.36535 1.26897 1.27071 0.762772 0.631924 0.660367 0.873976 0.930508 0.936719 1.03949 1.22063 1.20979 1.62059 1.08983 1.07722 1.06897 1.0468 1.05129 1.09669 0.910818 0.95939 1.10009 1.08324 1.07222 1.05654 1.08603 1.23921 1.09519 1.17179 1.07365 1.0139 0.829912 0.702914 0.693681 0.830293 0.838565 0.875753 0.866172 0.945958 1.04888 1.13975 1.2221 1.11389 1.05431 1.03308 0.987675 0.89304 0.926173 1.02152 1.0991 1.0782 1.09794 0.810773 0.869102 1.1178 1.10133 0.981487 0.762458 0.717805 0.734157 0.717169 0.644781 0.783477 0.820125 0.833467 0.858415 0.843347 1.08364 1.06439 1.00129 1.04585 1.07526 1.03533 0.998716 0.995232 0.931272 0.889427 0.960181 0.950184 1.00423 0.95673 1.08446 1.08523 1.0846 1.03995 0.814677 0.917951 1.02734 1.12693 0.869598 0.831758 0.752688 0.749918 0.714576 0.614647 0.596578 0.717602 0.767458 0.841763 0.857915 0.825607 0.807969 1.02572 1.10164 1.06224 1.09138 1.05771 1.03705 0.998446 0.946137 0.884678 0.864407 0.905692 0.955493 1.05321 1.06965 1.04595 0.912701 0.891979 1.0863 1.08907 0.795743 0.780846 0.816953 0.782637 0.721122 0.673095 0.576307 0.589034 0.605874 0.689497 0.802994 0.823149 0.888373 0.771386 1.1182 1.13511 1.04557 1.03154 1.0704 0.999567 0.957981 0.896151 0.862829 0.850601 0.825222 0.826908 0.848208 0.901987 0.963028 1.02738 0.978861 0.878214 0.923456 1.03335 1.12046 0.760111 0.866727 0.782839 0.757704 0.659223 0.584442 0.575972 0.59037 0.585884 0.572324 0.573998 0.747925 0.773194 0.837432 0.853501 0.96729 1.13852 1.23741 1.08591 0.99926 1.02174 0.969682 0.934785 0.908108 0.862691 0.83859 0.835829 0.888656 0.928409 0.977291 1.00698 1.04658 0.885633 1.00542 1.18222 1.1122 0.94921 0.824333 0.803103 0.738131 0.715708 0.562919 0.558096 0.576385 0.580493 0.576564 0.592858 0.613246 0.571439 0.549631 0.684698 0.740433 0.763906 0.719228 0.870451 0.667327 1.42703 1.15843 0.99796 0.881967 0.836485 0.969892 0.996325 0.879844 0.841806 0.832254 0.862763 0.931149 1.06789 0.984826 0.884089 0.907079 0.920271 1.10759 1.39901 0.617106 0.841375 0.687576 0.729586 0.716767 0.661399 0.541854 0.561145 0.602603 0.584351 0.569776 0.549198 0.600506 0.618041 0.63992 0.688119 0.718638 0.778 0.74617 0.668175 0.670614 0.40156 1.48826 1.01336 0.926389 0.922656 0.849001 0.925555 0.857286 0.851903 0.837725 0.848768 0.852752 0.89597 0.913133 1.01007 0.85136 0.882007 0.88365 0.954949 1.45261 0.356816 0.64164 0.642079 0.71861 0.759362 0.699834 0.676983 0.631924 0.610955 0.592229 0.544855 0.516008 0.527665 0.562556 0.566218 0.644815 0.642324 0.785205 0.876938 0.662848 0.560307 0.595647 0.46264 0.279282 1.45392 1.13635 0.960861 0.87721 0.782722 0.863512 1.0635 1.00506 0.903842 0.892509 0.858931 0.882548 0.98085 1.00089 1.16697 1.22417 0.925039 0.762735 0.847901 0.923572 1.09336 1.41236 0.255607 0.430428 0.57263 0.542372 0.642835 0.85839 0.776924 0.637439 0.636455 0.560526 0.556893 0.522878 0.513529 0.458253 0.481374 0.496361 0.52509 0.563488 0.529317 0.454294 0.823595 0.68971 0.554856 0.449756 0.302083 0.229914 1.07381 0.90877 0.862932 0.824187 0.82775 0.765153 0.973401 0.889957 0.880929 0.952662 1.12663 0.786884 0.821534 0.795159 0.828312 0.876829 1.0435 0.207973 0.287303 0.435765 0.542593 0.676406 0.814009 0.447156 0.529792 0.555723 0.520887 0.488247 0.47685 0.451374 0.439045 0.469297 0.508375 0.496309 0.518776 0.493861 0.317739 0.0464899 0.56972 0.471859 0.416426 0.345257 0.248142 1.22268 1.05908 0.969941 0.900545 0.836549 0.804927 0.700062 0.952369 0.897616 0.925865 0.927968 1.0804 0.672462 0.801448 0.808477 0.874134 0.946054 1.02142 1.19486 0.261466 0.335996 0.415765 0.459746 0.56214 0.0580274 0.314342 0.48574 0.507171 0.486406 0.498749 0.462361 0.434573 0.422619 0.4285 0.444754 0.456876 0.484869 0.490014 0.480883 0.408437 0.368646 0.242422 0.657217 0.5587 0.50928 0.483943 0.403255 0.612087 1.11056 0.944846 0.848556 0.815027 0.781292 0.734321 0.691581 0.668087 0.661355 0.941973 0.944853 0.984109 1.0293 0.570106 0.595827 0.611569 0.689914 0.744784 0.790356 0.826964 0.917398 1.0892 0.627248 0.42073 0.467358 0.496461 0.544841 0.656779 0.249398 0.379747 0.403899 0.475348 0.48377 0.474014 0.449372 0.438973 0.422943 0.42003 0.398591 0.41127 0.416688 0.440947 0.482755 0.491599 0.490305 0.447043 0.330126 0.387452 0.62083 0.539188 0.522934 0.641032 0.584506 0.840125 0.990937 0.856458 0.854024 0.821947 0.825016 0.80685 0.735451 0.673304 0.672154 0.982627 0.597906 0.580517 0.676476 0.770621 0.802988 0.817347 0.842808 0.825963 0.924694 0.84492 0.596228 0.637098 0.52449 0.527245 0.604659 0.383712 0.356203 0.450066 0.478003 0.48304 0.473695 0.435373 0.414258 0.411048 0.398782 0.387092 0.406732 0.427082 0.450792 0.465048 0.491386 0.492234 0.377337 0.371286 0.419491 0.500507 0.647375 0.554204 0.618082 0.568657 0.692644 0.806461 1.07747 0.836185 0.823512 0.815237 0.778192 0.705567 0.671486 0.709634 0.704716 0.589468 0.632785 0.735793 0.78274 0.810832 0.760818 1.0515 0.809836 0.671752 0.542658 0.631917 0.538223 0.631835 0.472988 0.415853 0.391516 0.397635 0.493859 0.488029 0.458104 0.444775 0.423124 0.405003 0.386855 0.373736 0.393232 0.410937 0.41872 0.435378 0.467005 0.495513 0.490949 0.452433 0.348091 0.514182 0.507546 0.703701 0.803915 0.981471 0.801495 0.8459 0.802855 0.806627 0.785565 0.745868 0.71853 0.689321 0.680868 0.677573 0.600173 0.510862 0.543274 0.631812 0.632105 0.619621 0.665842 0.694141 0.747782 0.771462 0.775987 0.769474 0.810973 0.766712 0.9553 0.793299 0.666814 0.514782 0.51592 0.372632 0.463284 0.502107 0.492371 0.463713 0.429392 0.416328 0.40902 0.392752 0.373124 0.366559 0.371284 0.381872 0.383235 0.398279 0.430882 0.456713 0.468234 0.476415 0.499065 0.483903 0.469821 0.390179 0.728955 0.618444 0.66885 0.838642 0.402788 0.836253 0.747767 0.835466 0.935116 0.741227 0.770887 0.776276 0.810655 0.815094 0.754586 0.697651 0.652077 0.560088 0.609571 0.654892 0.717176 0.784358 0.724405 0.754967 0.733637 0.860526 0.843257 0.755341 0.827304 0.529613 0.829037 0.65826 0.511672 0.733168 0.409993 0.473875 0.483137 0.499634 0.469618 0.465129 0.454801 0.427765 0.396752 0.382566 0.382572 0.371198 0.365117 0.321659 0.376818 0.386083 0.416178 0.434642 0.49434 0.469229 0.507855 0.42029 0.461093 0.460349 0.289804 0.508136 0.761001 0.939454 0.753656 0.658805 0.739983 0.724909 0.8066 0.794914 0.722592 0.674197 0.616685 0.585487 0.64087 0.689607 0.766081 0.772971 0.692139 0.695189 0.665506 0.744675 0.937255 0.655413 0.516029 0.294138 0.46184 0.464209 0.412181 0.533627 0.487599 0.506428 0.429665 0.414619 0.387129 0.378419 0.31904 0.260492 0.359714 0.384153 0.38837 0.40599 0.421788 0.445881 0.443227 0.507161 0.408786 0.448733 0.755822 0.827043 1.14171 0.478629 1.0766 0.677464 0.460109 0.675174 0.722622 0.816245 0.736144 0.673902 0.730745 0.737403 0.806445 0.830797 0.79655 0.755228 0.714238 0.693551 0.671291 0.650368 0.635542 0.60311 0.621123 0.6261 0.653833 0.668367 0.696782 0.730943 0.777882 0.80703 0.778345 0.698109 0.699151 0.682031 0.721962 0.770508 0.711912 0.693476 0.51256 0.63063 1.16844 0.402511 1.11366 0.749972 0.709855 0.444939 0.403673 0.514302 0.445027 0.441352 0.420835 0.405847 0.390678 0.38686 0.358982 0.260104 0.226956 0.23451 0.263218 0.312253 0.34787 0.380885 0.37399 0.403799 0.403332 0.457047 0.316028 0.381984 0.256651 1.20351 0.284471 0.776899 0.612482 0.670327 0.6853 0.732237 0.687233 0.683993 0.858629 0.738193 0.687285 0.65822 0.634887 0.647769 0.676877 0.723917 0.844957 0.646887 0.67026 0.718506 0.679683 0.669257 0.611547 1.12499 0.269549 1.11619 0.282556 0.346495 0.288439 0.455273 0.403917 0.40624 0.373959 0.380039 0.34614 0.311184 0.263782 0.239606 0.229582 0.217653 0.210061 0.301039 0.369654 0.388505 0.381571 0.365046 0.14878 0.332671 0.356333 0.374982 0.411494 0.54695 0.516672 0.79652 0.716283 0.770932 0.602205 0.651398 0.663861 0.695168 0.704858 0.710388 0.150386 0.778968 0.70141 0.674556 0.654361 0.649501 0.669997 0.695572 0.770441 0.0764444 0.682609 0.689701 0.683144 0.651754 0.643555 0.6063 0.850454 0.716702 0.724475 0.506147 0.522087 0.406243 0.388485 0.355318 0.325244 0.163882 0.368589 0.38639 0.39227 0.366524 0.299883 0.206026 0.220819 0.220461 0.176079 0.206066 0.272427 0.357081 0.354614 0.354816 0.367263 0.334464 0.232823 0.259516 0.363772 0.400348 0.422646 0.473785 0.388399 0.506439 0.5415 0.717553 0.722799 0.652325 0.680268 0.683415 0.665513 0.642077 0.572219 0.365372 0.909 0.761522 0.717721 0.702464 0.688129 0.685586 0.670435 0.671913 0.659154 0.67261 0.669796 0.690543 0.689912 0.707092 0.712561 0.761063 0.90802 0.355631 0.543086 0.620693 0.647778 0.66828 0.664883 0.644896 0.729441 0.695956 0.534835 0.447294 0.408792 0.454699 0.43563 0.393932 0.350554 0.264093 0.237838 0.336365 0.368438 0.351053 0.352685 0.354117 0.271037 0.204063 0.183274 0.226959 0.194696 0.196582 0.209931 0.171068 0.323121 0.369666 0.383196 0.381039 0.387739 0.318915 0.270476 0.27014 0.301789 0.384592 0.431305 0.450909 0.430133 0.501202 0.579023 0.622752 0.686587 0.707508 0.664947 0.666215 0.671047 0.647617 0.636213 0.602513 0.919013 0.737502 0.700262 0.685098 0.6776 0.692496 0.712018 0.739133 0.923897 0.577485 0.615622 0.637734 0.658601 0.667263 0.665841 0.700068 0.686746 0.620797 0.568323 0.467794 0.431235 0.454721 0.424552 0.360719 0.302761 0.27702 0.276491 0.32751 0.3927 0.379262 0.381462 0.368276 0.314882 0.184736 0.224414 0.184621 0.191057 0.298798 0.119026 0.113321 0.190362 0.252616 0.380652 0.36553 0.411663 0.428993 0.358137 0.339755 0.295315 0.285959 0.295184 0.332192 0.409713 0.456208 0.461832 0.4813 0.490483 0.66405 0.686581 0.697375 0.674568 0.673718 0.648513 0.648629 0.663328 0.621956 0.787155 0.724864 0.698569 0.683839 0.691806 0.714771 0.738359 0.78901 0.629517 0.650242 0.628582 0.632962 0.668914 0.678578 0.7001 0.698619 0.64707 0.503392 0.481428 0.474743 0.443832 0.392896 0.325897 0.298581 0.289797 0.298355 0.34499 0.370538 0.425696 0.406758 0.363181 0.379363 0.25012 0.195849 0.108875 0.210165 0.211101 0.372749 0.197082 0.127747 0.17619 0.227047 0.297264 0.338706 0.366297 0.356816 0.484097 0.337444 0.334191 0.320733 0.311443 0.515852 0.572325 0.621315 0.705722 0.691109 0.677839 0.664108 0.653695 0.648968 0.59409 0.503787 0.762619 0.77556 0.745295 0.715798 0.708265 0.696489 0.696291 0.689795 0.708473 0.712741 0.733449 0.737432 0.761671 0.778004 0.763282 0.498043 0.571377 0.630285 0.641809 0.659665 0.670891 0.688196 0.710538 0.616834 0.560519 0.499234 0.308552 0.326973 0.340634 0.350318 0.47842 0.35829 0.362159 0.334301 0.300221 0.231816 0.180091 0.151258 0.225374 0.36755 0.37139 0.335908 0.189512 0.214766 0.192324 0.314582 0.321606 0.340696 0.415027 0.315391 0.326889 0.316535 0.331938 0.371589 0.428462 0.48441 0.505917 0.527054 0.566122 0.615403 0.646233 0.679801 0.683509 0.667578 0.663393 0.662353 0.654392 0.785191 0.73077 0.706591 0.703593 0.731031 0.752257 0.767114 0.639915 0.650338 0.655911 0.662486 0.676214 0.679032 0.652999 0.604074 0.569788 0.534627 0.509993 0.482168 0.408959 0.368425 0.335988 0.314622 0.330699 0.319763 0.41567 0.340456 0.323251 0.319425 0.195409 0.221421 0.217122 0.29265 0.382274 0.34178 0.351047 0.329011 0.252988 0.263477 0.337627 0.309163 0.240133 0.476977 0.448816 0.317931 0.335412 0.337652 0.359835 0.382342 0.406571 0.4655 0.518463 0.558037 0.590321 0.611849 0.646439 0.680433 0.690278 0.698741 0.666234 0.663822 0.663891 0.65549 0.622618 0.547349 0.67154 0.807959 0.721683 0.699425 0.700627 0.710339 0.721298 0.741378 0.753983 0.760601 0.678514 0.569475 0.604868 0.63738 0.650957 0.659622 0.664177 0.69052 0.692154 0.687541 0.654485 0.623521 0.597178 0.565985 0.512931 0.459105 0.40945 0.381299 0.356956 0.333885 0.332671 0.310367 0.442325 0.474008 0.242196 0.317417 0.344483 0.26564 0.260325 0.33107 0.368049 0.354479 0.177049 0.33488 0.34279 0.252875 0.248115 0.229246 0.173852 0.222454 0.240802 0.366708 0.272483 0.259071 0.451763 0.345919 0.357372 0.372203 0.4006 0.431072 0.469233 0.507745 0.564082 0.605438 0.631736 0.654745 0.670847 0.685157 0.684843 0.682058 0.670974 0.660519 0.655923 0.638757 0.587121 0.461145 0.509213 0.818101 0.764899 0.711635 0.700143 0.72568 0.758588 0.765076 0.762543 0.533127 0.517632 0.5781 0.621386 0.638963 0.651469 0.667973 0.675141 0.681809 0.680661 0.670742 0.658388 0.634329 0.602735 0.564012 0.509831 0.470421 0.430289 0.394226 0.369386 0.351141 0.340602 0.441305 0.249667 0.276152 0.366721 0.254921 0.222786 0.17178 0.222167 0.235212 0.239489 0.350216 0.349907 0.216211 0.198637 0.277091 0.218574 0.199447 0.169767 0.349211 0.26135 0.298978 0.353472 0.500897 0.334916 0.366544 0.384079 0.414418 0.450742 0.487903 0.519487 0.668336 0.671968 0.676133 0.675426 0.670533 0.666791 0.662956 0.64683 0.61897 0.544052 0.456953 0.762398 0.894993 0.792294 0.694877 0.7072 0.739336 0.767354 0.785029 0.756609 0.496784 0.556841 0.600874 0.626858 0.660064 0.666265 0.668681 0.673339 0.672795 0.670706 0.665748 0.520426 0.485763 0.44987 0.404645 0.372259 0.363077 0.322769 0.492839 0.342377 0.290459 0.284776 0.365386 0.211048 0.204065 0.222572 0.285873 0.224493 0.413707 0.782574 0.758705 0.25945 0.165018 0.127545 0.130421 0.291526 0.229401 0.416469 0.343386 0.304175 0.344377 0.449966 0.538666 0.34775 0.378007 0.427158 0.556411 0.59527 0.631868 0.65722 0.671911 0.671536 0.67129 0.668075 0.665317 0.661955 0.6579 0.49415 0.815012 0.982658 0.732288 0.726886 0.699239 0.695254 0.7079 0.719392 0.742332 0.741349 0.74422 0.784506 0.847675 0.534763 0.641602 0.653223 0.661797 0.667085 0.670868 0.672629 0.674047 0.653698 0.630586 0.597943 0.56064 0.415527 0.372464 0.350402 0.526912 0.441938 0.337806 0.303745 0.372917 0.41517 0.244214 0.276187 0.131682 0.130483 0.172984 0.294257 0.741361 0.795011 0.444979 0.689982 0.740365 0.239876 0.170822 0.0972781 0.0999884 0.167458 0.414702 0.395682 0.399924 0.489785 0.55194 0.462952 0.498716 0.536082 0.565695 0.59269 0.622614 0.648676 0.664177 0.670629 0.670681 0.668423 0.665528 0.661998 0.652021 0.6347 0.599582 0.692454 0.697742 0.719093 0.750317 0.761738 0.586046 0.613546 0.632821 0.647775 0.657854 0.665065 0.669588 0.671135 0.663481 0.650515 0.629138 0.598869 0.566592 0.538798 0.502549 0.461628 0.549844 0.479238 0.392241 0.40051 0.436539 0.170182 0.16486 0.0957249 0.224347 0.286048 0.732105 0.672273 0.718136 0.682535 0.0977508 0.312047 0.201488 0.434708 0.345295 0.360132 0.453392 0.536661 0.522312 0.345467 0.433881 0.476314 0.495989 0.550154 0.578656 0.602298 0.623651 0.642736 0.659947 0.669317 0.671774 0.671866 0.671525 0.667446 0.664627 0.659634 0.649662 0.636005 0.634831 0.551975 0.40313 0.998301 0.749091 0.694887 0.703662 0.73465 0.766512 0.632919 0.569779 0.587396 0.610445 0.623638 0.639833 0.652764 0.661718 0.673398 0.674988 0.673272 0.669801 0.663017 0.648759 0.628402 0.606806 0.579389 0.550583 0.505762 0.468301 0.441274 0.347957 0.52686 0.53429 0.443406 0.3571 0.343076 0.442752 0.243423 0.321741 0.162797 0.674952 0.704539 0.793584 0.632083 0.61823 0.115446 0.333574 0.101753 0.395198 0.418337 0.374924 0.32515 0.571444 0.449383 0.474126 0.50388 0.568891 0.588626 0.608903 0.63013 0.642957 0.656606 0.667376 0.670903 0.670699 0.6712 0.671272 0.669782 0.658112 0.650004 0.652504 0.587471 0.456799 1.14884 0.72413 0.721531 0.705473 0.698762 0.704739 0.728677 0.742352 0.750364 0.751592 0.750684 0.631044 0.577439 0.618804 0.627463 0.637048 0.667412 0.672007 0.673633 0.6724 0.670293 0.667877 0.660645 0.647141 0.632798 0.613099 0.59084 0.565334 0.500394 0.488388 0.441293 0.574232 0.318317 0.367728 0.438977 0.35229 0.0611904 0.338166 0.0843745 0.608223 0.625033 0.790824 0.724082 0.636691 0.655091 0.242311 0.452636 0.419658 0.392835 0.48445 0.485637 0.637072 0.476508 0.494331 0.5919 0.592005 0.663012 0.669006 0.66964 0.669043 0.669217 0.669006 0.667579 0.665658 0.663846 0.639369 0.537158 0.795513 0.706073 0.702111 0.721254 0.754064 0.744288 0.652569 0.607229 0.647588 0.657012 0.6634 0.667974 0.670601 0.670497 0.669345 0.668597 0.665183 0.603673 0.588278 0.515473 0.468019 0.63279 0.483982 0.503368 0.385178 0.432725 0.448048 0.295671 0.641386 0.622685 0.724294 0.731342 0.59739 0.475197 0.597697 0.746808 0.652738 0.808285 0.448886 0.433097 0.500391 0.623524 0.602236 0.609711 0.626625 0.643081 0.653934 0.666741 0.667356 0.667377 0.666386 0.66517 0.664044 0.658148 0.659963 0.677686 0.712366 0.705339 0.70823 0.744942 0.750007 0.637216 0.634336 0.642307 0.648181 0.654358 0.661343 0.665018 0.666896 0.667083 0.657071 0.645618 0.631426 0.612698 0.599864 0.627486 0.541234 0.436083 0.451896 0.829513 0.669671 0.763546 0.609841 0.456935 0.588402 0.722902 0.698356 0.4577 0.446995 0.853116 0.447339 0.51153 0.382479 0.583483 0.602257 0.571307 0.502883 0.615865 0.612269 0.611245 0.622392 0.640145 0.651419 0.658375 0.663693 0.667032 0.666696 0.668051 0.66722 0.665929 0.665237 0.667385 0.673647 0.666719 0.646882 0.786567 0.698052 0.709765 0.711286 0.712079 0.71681 0.71429 0.730773 0.760822 0.738492 0.737563 0.644753 0.635254 0.645279 0.646191 0.649798 0.654189 0.660554 0.664267 0.666611 0.667246 0.666594 0.658621 0.648436 0.638226 0.62591 0.610085 0.600187 0.629455 0.493877 0.573816 0.617244 0.610204 0.357788 0.505611 0.439348 0.854475 0.453436 0.45114 0.683805 0.453269 0.546933 0.638501 0.477915 0.480149 0.463216 0.517437 0.563665 0.649921 0.6211 0.61177 0.615977 0.634059 0.646036 0.654551 0.660745 0.66368 0.663399 0.66467 0.666055 0.667855 0.668761 0.671088 0.674973 0.671505 0.670956 0.699699 0.706291 0.72546 0.719771 0.765648 0.708986 0.633533 0.64756 0.650434 0.653761 0.656241 0.66659 0.665774 0.663564 0.66349 0.664327 0.661362 0.653768 0.642731 0.633619 0.623804 0.611036 0.633649 0.648812 0.561364 0.530121 0.441989 0.489501 0.476918 0.627741 0.579772 0.415617 0.72368 0.687602 0.325614 0.834868 0.519098 0.525897 0.466391 0.516336 0.534114 0.577813 0.50271 0.718103 0.632211 0.620718 0.622067 0.630242 0.639453 0.651881 0.658892 0.661095 0.66003 0.662042 0.664491 0.667795 0.671646 0.671577 0.669507 0.714239 0.718979 0.724323 0.731846 0.715007 0.660376 0.664359 0.667701 0.66762 0.665013 0.661914 0.660515 0.662424 0.653537 0.650007 0.639608 0.626003 0.618649 0.626828 0.628355 0.723517 0.494566 0.574183 0.506018 0.533999 0.467386 0.5338 0.508794 0.833882 0.335189 0.693821 0.720546 0.642172 0.725442 0.607298 0.619263 0.559929 0.536858 0.575783 0.547242 0.474051 0.6587 0.663343 0.667995 0.672923 0.676858 0.675344 0.670836 0.676931 0.680495 0.679321 0.679619 0.698246 0.709798 0.731939 0.780388 0.740022 0.725754 0.710755 0.73236 0.656119 0.724023 0.62302 0.642571 0.653462 0.658726 0.66196 0.661518 0.662594 0.669729 0.67116 0.669543 0.664166 0.660302 0.48282 0.541593 0.597806 0.532932 0.56348 0.611679 0.601558 0.726244 0.648254 0.692176 0.634106 0.843464 0.758038 0.60347 0.59825 0.506961 0.497173 0.493988 0.738066 0.679972 0.632741 0.628365 0.624702 0.637852 0.651604 0.659193 0.665842 0.654549 0.679201 0.681869 0.674725 0.673189 0.691459 0.685587 0.684153 0.695685 0.709112 0.726282 0.762102 0.79598 0.760242 0.694333 0.744965 0.688663 0.722745 0.634826 0.652651 0.662128 0.670397 0.66597 0.66185 0.671394 0.674647 0.655978 0.65948 0.653613 0.64938 0.644469 0.630538 0.62474 0.635888 0.68874 0.741439 0.502728 0.4897 0.478218 0.598991 0.600972 0.756942 0.845147 0.654761 0.695112 0.578701 0.63903 0.574431 0.468933 0.385728 0.781127 0.704743 0.667721 0.641363 0.636727 0.641698 0.65549 0.663118 0.670076 0.65011 0.655567 0.662462 0.668185 0.673799 0.684353 0.703092 0.690704 0.710267 0.728858 0.742977 0.709761 0.660206 0.673587 0.67688 0.670087 0.662808 0.659996 0.64682 0.660584 0.653845 0.650565 0.649211 0.64439 0.649369 0.668009 0.710254 0.784537 0.362392 0.447707 0.571792 0.644387 0.572781 0.731798 0.842057 0.794558 0.767222 0.592021 0.597495 0.670896 0.603742 0.580024 0.381488 0.642684 0.743095 0.696398 0.669658 0.649057 0.647362 0.656538 0.664717 0.676853 0.644912 0.654655 0.662899 0.667682 0.675065 0.682618 0.690425 0.700111 0.675587 0.696952 0.72404 0.751973 0.774264 0.7921 0.770267 0.711583 0.723643 0.723488 0.708187 0.641288 0.678897 0.663123 0.675529 0.679985 0.685979 0.677811 0.668855 0.660203 0.655175 0.645981 0.66652 0.659564 0.65423 0.650918 0.659818 0.676445 0.701637 0.749583 0.648419 0.374811 0.570191 0.605784 0.66525 0.598425 0.593946 0.76655 0.797313 0.843279 0.738229 0.875107 0.821564 0.801346 0.753608 0.628588 0.647536 0.641052 0.597285 0.670991 0.582356 0.65407 0.66174 0.668292 0.67498 0.687296 0.701902 0.710519 0.716574 0.702858 0.709697 0.737905 0.69294 0.711091 0.731407 0.760055 0.755806 1.04881 0.884822 0.671799 0.728603 0.726784 0.715786 0.705903 0.693962 0.679829 0.717798 0.685662 0.674286 0.684266 0.678235 0.696834 0.690014 0.677196 0.665866 0.655437 0.656806 0.588031 0.673285 0.594287 0.639863 0.645189 0.628571 0.754402 0.799032 0.820882 0.875002 0.682285 0.574452 0.806221 0.733681 0.696036 0.665816 0.655514 0.658485 0.670612 0.68354 0.645784 0.703752 0.710645 0.70815 0.726743 0.735731 0.846031 0.764323 0.763428 0.696324 0.760333 0.768379 0.924652 0.772028 0.724974 0.695179 0.729073 0.681919 0.818743 0.684829 0.71751 0.704401 0.650447 0.679841 0.675565 0.66652 0.663584 0.67397 0.698555 0.734758 0.804527 0.570534 0.685058 0.817676 0.768853 0.733477 0.632599 0.658448 0.633787 0.619737 0.583244 0.614378 0.58931 0.718031 0.680493 0.676959 0.677116 0.684517 0.696873 0.645978 0.656862 0.66257 0.667545 0.676394 0.685686 0.892011 0.798505 0.693532 0.729181 0.76383 0.870614 0.750398 0.690746 0.674658 0.662913 0.657499 0.664567 0.663788 0.704377 0.700354 0.687597 0.690447 0.683832 0.71532 0.596315 0.618508 0.579622 0.616144 0.630745 0.654613 0.633277 0.73373 0.764825 0.816666 0.805513 0.773219 0.716791 0.655303 0.670783 0.652313 0.632376 0.611244 0.747944 0.632164 0.653143 0.581104 0.693189 0.681324 0.707855 0.719706 0.726254 0.73959 0.729485 0.724044 0.713068 0.706403 0.710335 0.723272 0.733494 0.730478 0.727339 0.953283 0.795205 0.848659 0.748823 0.807545 0.73658 0.862543 0.866832 0.878809 1.00399 0.740358 0.664712 0.775287 0.79884 0.720577 0.833011 0.841491 0.796342 0.705525 0.889194 0.698404 0.727051 0.717382 0.703995 0.688085 0.677374 0.679516 0.708884 0.740267 0.746931 0.730493 0.71845 0.720932 0.69376 0.694141 0.587912 0.653432 0.635328 0.747939 0.608071 0.62896 0.647789 0.670421 0.658446 0.717578 0.776967 0.804039 0.91682 0.88916 0.825579 0.771633 0.804779 0.732952 0.746026 0.706678 0.724371 0.741099 0.733562 0.73444 0.893598 0.852802 0.773814 0.786571 0.880813 0.913418 0.765948 0.821213 0.755377 0.790464 0.792104 0.849456 0.846506 0.716485 0.72584 0.713 0.697074 0.680224 0.746777 0.722742 0.805829 0.772577 0.827743 0.889556 0.917125 0.812278 0.799587 0.603152 0.745137 0.718921 0.779225 0.687215 0.708293 0.748171 0.754779 0.772288 0.766866 0.747714 0.716781 0.705246 0.845 0.84758 0.874244 0.878652 0.783765 0.783817 0.723116 0.838573 0.765865 0.679312 0.69165 0.751391 0.762079 0.753217 0.738702 0.750188 0.73997 0.690618 0.777535 0.719639 0.747106 0.601681 0.798438 0.811703 0.893823 0.899224 0.900001 0.81305 0.818622 0.788351 0.792848 0.825312 0.70555 0.772918 0.870709 0.838542 0.89595 0.774594 0.808508 0.815124 0.780031 0.784967 0.80688 0.82054 0.743617 0.741568 0.7423 0.768299 0.776848 0.870688 0.778958 0.865316 0.909288 0.857835 0.816056 0.8661 0.801677 0.871659 0.87736 0.863845 0.896697 0.796265 0.77267 0.82409 0.786927 0.847103 0.896849 0.821274 0.849831 0.855984 0.90881 0.822062 0.80142 0.832423 0.789201 0.771428 0.746852 0.74042 0.751462 0.798807 0.805038 0.798777 0.800276 0.809743 0.821271 0.786608 0.894902 0.839728 0.871149 0.773762 0.720804 0.831835 0.792366 0.787573 0.817842 0.8141 0.901165 0.898582 0.893813 0.900538 0.901069 0.801482 0.788703 0.894688 0.873672 0.867557 0.914039 0.920836 0.922802 0.811596 0.871807 0.880092 0.802091 0.95102 0.931002 0.913887 0.900591 0.868824 0.86892 0.883799 0.78819 0.801916 0.901075 0.900473 0.899482 0.767663 0.747097 0.914279 0.900407 0.852548 0.901493 0.896392 0.900275 0.901075 0.866945 0.834966 0.818812 0.826383 0.831082 0.817451 0.799501 0.89097 0.897522 0.87954 0.845064 0.859223 0.86376 0.841916 0.815707 0.795672 0.837967 0.87575 0.877328 0.901865 0.885801 0.892911 0.881939 0.821154 0.847942 0.828998 0.809638 0.818193 0.824558 0.863557 0.89854 0.897611 0.895747 0.899267 0.850141 0.898946 0.913841 0.745992 0.766664 0.899278 0.895956 0.89502 0.89698 0.835454 0.825256 0.815836 0.79049 0.93861 0.904217 0.877119 0.896821 0.896498 0.901526 0.913288 0.892036 0.89617 0.83976 0.840442 0.839698 0.858938 0.874464 0.903413 0.902464 0.871911 0.863108 0.89437 0.914327 0.878716 0.922777 0.84412 0.929113 0.879972 0.836411 0.88386 0.894852 0.853349 0.889251 0.871999 0.853633 0.876509 0.901352 0.891891 0.899413 0.890346 0.899136 0.904061 0.898072 0.894724 0.898465 0.895522 0.877019 0.88097 0.899599 0.901122 0.827395 0.845143 0.847945 0.846034 0.842062 0.869953 0.885478 0.910173 0.902026 0.89654 0.896935 0.874382 0.904436 0.937172 0.789632 0.81508 0.824344 0.834972 0.897039 0.895022 0.895966 0.900369 0.903185 0.896146 0.895278 0.897248 0.851518 0.832812 0.825723 0.796895 0.93034 0.904337 0.878454 0.895017 0.897142 0.901774 0.910534 0.895531 0.899873 0.863513 0.872883 0.880601 0.89572 0.895196 0.899801 0.897235 0.872515 0.865121 0.892171 0.895448 0.87979 0.896479 0.850546 0.897606 0.889967 0.850387 0.890735 0.901494 0.877585 0.894596 0.867955 0.888923 0.904725 0.895259 0.893481 0.902129 0.900209 0.900651 0.896884 0.898695 0.897717 0.87927 0.8846 0.898378 0.900041 0.869881 0.872989 0.867892 0.867465 0.859877 0.8971 0.89499 0.909031 0.902266 0.897175 0.895033 0.876381 0.904433 0.929146 0.796029 0.82513 0.832185 0.851701 0.897306 0.895283 0.896158 0.895934 0.895104 0.896821 0.872881 0.842936 0.832797 0.80186 0.92069 0.903442 0.879989 0.89511 0.897052 0.901174 0.906677 0.894134 0.895268 0.887311 0.896537 0.899818 0.900232 0.895164 0.89611 0.89268 0.873971 0.8682 0.890624 0.895632 0.880629 0.897134 0.856095 0.899195 0.890703 0.859549 0.892858 0.902401 0.886778 0.909813 0.903586 0.871633 0.895267 0.896524 0.896813 0.89576 0.894434 0.89549 0.896024 0.894916 0.896736 0.894427 0.897659 0.894118 0.8861 0.895524 0.897241 0.891331 0.893847 0.890084 0.889231 0.877497 0.896764 0.89622 0.905576 0.90159 0.897076 0.895117 0.878406 0.903536 0.919503 0.801012 0.832347 0.842431 0.872534 0.896867 0.895104 0.895941 0.895753 0.895001 0.896441 0.888086 0.852206 0.840271 0.809359 0.911232 0.902415 0.881573 0.895038 0.896776 0.900307 0.90292 0.89229 0.8923 0.895434 0.901603 0.901318 0.897894 0.893196 0.892919 0.889143 0.876045 0.871766 0.889737 0.893832 0.881755 0.893832 0.861421 0.894052 0.889161 0.867148 0.89312 0.901132 0.889386 0.895133 0.906028 0.872677 0.897912 0.89707 0.89674 0.896236 0.894093 0.895814 0.892503 0.895036 0.896223 0.89454 0.897158 0.894396 0.887346 0.893012 0.894699 0.895061 0.898477 0.899475 0.900017 0.891516 0.893318 0.894906 0.90194 0.900631 0.896788 0.895041 0.880443 0.902494 0.91023 0.808639 0.839823 0.851826 0.887687 0.896477 0.895001 0.895758 0.89553 0.894879 0.89599 0.893088 0.860651 0.847818 0.818678 0.90286 0.901254 0.883434 0.894933 0.896456 0.899286 0.899519 0.890819 0.890261 0.89543 0.899847 0.898498 0.89515 0.891333 0.890319 0.886552 0.87834 0.8754 0.889223 0.893832 0.882716 0.893832 0.866077 0.893832 0.887227 0.876102 0.892723 0.899233 0.889874 0.895858 0.904926 0.87405 0.899263 0.894604 0.896229 0.894062 0.893291 0.893832 0.889974 0.893832 0.89566 0.893832 0.896507 0.893832 0.888541 0.891016 0.892634 0.893978 0.897072 0.899449 0.900798 0.895783 0.891029 0.893332 0.898627 0.899506 0.896466 0.894934 0.882703 0.901298 0.902156 0.818054 0.84738 0.860409 0.892946 0.896013 0.894879 0.895534 0.895273 0.894738 0.895487 0.893992 0.868064 0.854927 0.828713 0.895968 0.899941 0.885465 0.894802 0.896102 0.898159 0.896566 0.889755 0.888708 0.89363 0.896955 0.895361 0.892732 0.889716 0.888323 0.884769 0.88056 0.878841 0.888964 0.893832 0.883542 0.893832 0.87013 0.893832 0.885337 0.881067 0.892158 0.897325 0.889745 0.894266 0.902879 0.874466 0.899941 0.894616 0.895525 0.894195 0.892335 0.893832 0.888245 0.893832 0.895036 0.893832 0.895817 0.893832 0.8897 0.889588 0.890988 0.892365 0.894807 0.896867 0.898363 0.895004 0.889487 0.892032 0.895779 0.898273 0.89611 0.894801 0.885014 0.899962 0.895489 0.828127 0.854571 0.867928 0.893966 0.895496 0.894738 0.895275 0.89499 0.894581 0.894968 0.894053 0.874193 0.861312 0.838444 0.890625 0.89858 0.887357 0.894652 0.895713 0.89698 0.894108 0.889001 0.887533 0.891708 0.89415 0.89256 0.890685 0.888358 0.886909 0.883715 0.882574 0.881915 0.888874 0.893832 0.884245 0.893832 0.873478 0.893832 0.883867 0.888222 0.891569 0.895717 0.889067 0.894316 0.900587 0.875157 0.899453 0.893961 0.894754 0.893832 0.891315 0.893832 0.887234 0.893832 0.894422 0.893832 0.895083 0.893832 0.890738 0.888629 0.889749 0.890904 0.892723 0.894139 0.895539 0.893055 0.888371 0.89101 0.893435 0.896994 0.89572 0.894651 0.887073 0.898589 0.890276 0.837914 0.861049 0.874123 0.89405 0.894968 0.894581 0.894991 0.894691 0.894411 0.894467 0.894008 0.879048 0.866913 0.84734 0.886693 0.897226 0.88892 0.894487 0.895297 0.895803 0.892143 0.888451 0.886679 0.889923 0.89163 0.890176 0.888991 0.887256 0.886011 0.88329 0.884372 0.884554 0.888883 0.893832 0.884837 0.893832 0.876136 0.893832 0.882856 0.892623 0.891012 0.894376 0.888354 0.893832 0.898249 0.876113 0.898193 0.893954 0.893944 0.893832 0.890423 0.893832 0.886772 0.893832 0.893833 0.893832 0.894386 0.893832 0.891588 0.888065 0.88888 0.889662 0.890936 0.891723 0.892941 0.891114 0.887556 0.890188 0.89158 0.895732 0.895302 0.894486 0.888731 0.897223 0.886425 0.846898 0.866725 0.879013 0.894008 0.894461 0.894411 0.894692 0.894385 0.894233 0.894004 0.893958 0.882806 0.871782 0.855165 0.88393 0.895899 0.890128 0.894313 0.894862 0.894675 0.890632 0.888033 0.886085 0.888325 0.889441 0.888197 0.887623 0.886398 0.885542 0.883356 0.885947 0.886776 0.888942 0.893832 0.885334 0.893832 0.87823 0.893832 0.882279 0.893687 0.89048 0.893254 0.887472 0.893832 0.895642 0.877219 0.896611 0.893941 0.893157 0.893832 0.889612 0.893832 0.886671 0.893832 0.893274 0.893832 0.893775 0.893832 0.892235 0.88782 0.888326 0.888643 0.88945 0.889671 0.89067 0.889396 0.886964 0.88951 0.890168 0.894542 0.894865 0.894311 0.889997 0.895887 0.883719 0.854821 0.871651 0.882787 0.893958 0.893994 0.894233 0.894385 0.89408 0.89405 0.893589 0.89391 0.885638 0.875931 0.861874 0.882088 0.89462 0.89103 0.894133 0.894415 0.893637 0.889519 0.887713 0.885685 0.886951 0.887601 0.886589 0.886555 0.885772 0.885408 0.883769 0.887282 0.888607 0.889019 0.893832 0.885757 0.893832 0.879886 0.893832 0.882056 0.893821 0.889956 0.892384 0.886537 0.893832 0.893066 0.878426 0.894952 0.893923 0.892407 0.893832 0.888915 0.893832 0.886781 0.893832 0.892757 0.893832 0.893249 0.893832 0.892699 0.887816 0.888028 0.887843 0.888251 0.887971 0.888747 0.887932 0.886538 0.888948 0.88914 0.893459 0.894417 0.894132 0.890937 0.894603 0.881919 0.861615 0.875841 0.885624 0.893909 0.893575 0.89405 0.894078 0.893782 0.893867 0.893227 0.893863 0.88769 0.87936 0.867529 0.880962 0.893414 0.891681 0.893954 0.893966 0.892711 0.888739 0.88747 0.88542 0.885819 0.886109 0.885318 0.885756 0.885355 0.885522 0.884403 0.888374 0.890067 0.889098 0.893832 0.886125 0.893832 0.881202 0.893832 0.882102 0.893832 0.889439 0.89177 0.885621 0.893832 0.879678 0.893326 0.893902 0.891694 0.893832 0.888354 0.893832 0.887004 0.893832 0.892292 0.893832 0.892796 0.893832 0.893005 0.887983 0.88793 0.887244 0.887314 0.886598 0.887167 0.886722 0.886229 0.888484 0.888433 0.892507 0.893966 0.893952 0.891614 0.893393 0.880824 0.867337 0.879297 0.887676 0.893862 0.893211 0.893867 0.89378 0.890607 0.893499 0.893686 0.892921 0.893817 0.889114 0.882126 0.872223 0.880393 0.8923 0.892129 0.893778 0.893523 0.891909 0.888228 0.88729 0.885251 0.884923 0.884943 0.884347 0.885191 0.885118 0.885805 0.885158 0.889238 0.89119 0.88917 0.893832 0.886455 0.893832 0.882257 0.893832 0.88234 0.893832 0.888941 0.891375 0.884747 0.893832 0.888303 0.880881 0.891785 0.893878 0.89103 0.893832 0.887915 0.893832 0.887277 0.893832 0.891883 0.893832 0.892407 0.893832 0.893178 0.888263 0.887976 0.886824 0.886608 0.885518 0.885909 0.885751 0.886007 0.888106 0.887985 0.891699 0.893521 0.893776 0.892081 0.892276 0.880279 0.872083 0.882081 0.889097 0.893817 0.892902 0.893686 0.893496 0.893232 0.893512 0.89267 0.893774 0.890062 0.884321 0.876047 0.880249 0.891293 0.892423 0.893608 0.891235 0.887929 0.887162 0.885151 0.884241 0.884065 0.883634 0.88482 0.88503 0.886193 0.885955 0.889904 0.892023 0.889232 0.893832 0.886756 0.893832 0.883114 0.893832 0.882704 0.893832 0.888482 0.891156 0.88393 0.893832 0.881993 0.890355 0.893853 0.89043 0.893832 0.887585 0.893832 0.88756 0.893832 0.891532 0.893832 0.892074 0.893832 0.893251 0.888607 0.88812 0.886555 0.886097 0.884693 0.884938 0.884994 0.88585 0.887803 0.887739 0.891037 0.893607 0.892388 0.891269 0.880154 0.875944 0.884286 0.890041 0.893774 0.892651 0.893512 0.89323 0.893093 0.886197 0.893091 0.892987 0.893348 0.892473 0.893732 0.890678 0.88603 0.8791 0.88042 0.890402 0.892602 0.893447 0.892686 0.890685 0.887787 0.887075 0.885099 0.883743 0.883433 0.883133 0.884607 0.885055 0.886631 0.886739 0.890404 0.89262 0.889281 0.893832 0.887033 0.893832 0.883821 0.893832 0.883136 0.893832 0.888075 0.891072 0.883189 0.893832 0.884304 0.883017 0.889051 0.893828 0.8899 0.893832 0.887356 0.893832 0.887826 0.893832 0.891238 0.893832 0.89179 0.893832 0.893254 0.888974 0.888322 0.886409 0.885748 0.884082 0.884214 0.884423 0.885741 0.887565 0.887641 0.890506 0.892682 0.893446 0.892576 0.890379 0.88034 0.879024 0.886001 0.890654 0.893732 0.892453 0.893348 0.892984 0.885164 0.88747 0.893034 0.893832 0.893832 0.893832 0.893832 0.891089 0.893832 0.883958 0.893806 0.893832 0.893832 0.893832 0.893832 0.893832 0.889337 0.886357 0.892764 0.893196 0.892324 0.893694 0.891083 0.887328 0.881493 0.880805 0.889631 0.892698 0.893296 0.892307 0.890245 0.887755 0.887019 0.88508 0.883396 0.883 0.882802 0.884514 0.887079 0.890774 0.889321 0.887288 0.884412 0.883591 0.887724 0.882533 0.882618 0.887885 0.889441 0.887216 0.88806 0.890996 0.891547 0.893214 0.888551 0.885528 0.883646 0.883693 0.884006 0.885665 0.887385 0.887645 0.890086 0.892302 0.893295 0.892678 0.889608 0.880736 0.881435 0.887302 0.891058 0.893694 0.892305 0.893196 0.892761 0.892566 0.893058 0.892218 0.893659 0.891365 0.888284 0.883341 0.881318 0.888977 0.892736 0.893158 0.891963 0.889899 0.887793 0.886988 0.885083 0.883168 0.882722 0.882602 0.884509 0.885324 0.887507 0.888121 0.891043 0.893312 0.889353 0.893832 0.887519 0.893832 0.884908 0.893832 0.884031 0.893832 0.887429 0.891174 0.881968 0.893832 0.881143 0.884811 0.886863 0.893786 0.889052 0.893832 0.887146 0.893832 0.888257 0.893832 0.890803 0.893832 0.891343 0.893832 0.89315 0.889674 0.888783 0.886374 0.885407 0.883348 0.883335 0.883711 0.885614 0.887253 0.887711 0.889757 0.891957 0.893158 0.892722 0.888954 0.881257 0.883295 0.88826 0.89134 0.893659 0.892199 0.893058 0.892562 0.892393 0.892936 0.892146 0.893627 0.891576 0.88897 0.884745 0.881883 0.888435 0.892737 0.893036 0.891658 0.889629 0.88787 0.886974 0.885099 0.883027 0.882558 0.882497 0.884562 0.885512 0.887894 0.888681 0.891237 0.893492 0.889378 0.893832 0.887725 0.893832 0.885323 0.893832 0.88443 0.893832 0.887187 0.891297 0.881494 0.893832 0.879883 0.885561 0.885989 0.89377 0.888731 0.893832 0.88713 0.893832 0.888415 0.893832 0.890652 0.893832 0.891174 0.893832 0.893078 0.889974 0.889 0.886434 0.885358 0.883157 0.8831 0.883511 0.885579 0.88716 0.88781 0.889503 0.891652 0.893035 0.892726 0.888412 0.881828 0.884707 0.888946 0.891553 0.893627 0.892129 0.892936 0.89239 0.892248 0.892833 0.892102 0.8936 0.891741 0.889451 0.885792 0.882439 0.887999 0.892717 0.892931 0.891399 0.889423 0.887962 0.886973 0.885122 0.882948 0.882474 0.882457 0.884647 0.885702 0.888228 0.889142 0.891375 0.893605 0.889398 0.893832 0.8879 0.893832 0.885664 0.893832 0.884773 0.893832 0.886995 0.891435 0.881108 0.893832 0.878839 0.886198 0.885262 0.893757 0.888472 0.893832 0.887149 0.893832 0.888538 0.893832 0.890537 0.893832 0.891037 0.893832 0.893009 0.890228 0.889193 0.886517 0.885355 0.883043 0.882955 0.88338 0.885558 0.887098 0.887919 0.889309 0.891391 0.89293 0.892708 0.887976 0.882389 0.885758 0.889427 0.89172 0.8936 0.892086 0.892833 0.892245 0.892131 0.892749 0.892077 0.893578 0.891868 0.889779 0.88655 0.882939 0.887661 0.892687 0.892844 0.891187 0.889269 0.888051 0.886978 0.885146 0.882909 0.882441 0.882457 0.884741 0.885877 0.8885 0.889505 0.891471 0.893673 0.889414 0.893832 0.888044 0.893832 0.885936 0.893832 0.885052 0.893832 0.886848 0.891568 0.880806 0.893832 0.878005 0.886713 0.884684 0.893747 0.888271 0.893832 0.887186 0.893832 0.888628 0.893832 0.890452 0.893832 0.890929 0.893832 0.89295 0.890432 0.889352 0.886604 0.885379 0.882982 0.882872 0.8833 0.885545 0.887058 0.888021 0.889165 0.891179 0.892843 0.892681 0.887639 0.882891 0.886519 0.889755 0.89185 0.893578 0.892062 0.892748 0.892128 0.892043 0.892684 0.892064 0.893561 0.891963 0.889994 0.887075 0.883344 0.887416 0.892656 0.892778 0.891025 0.889161 0.888126 0.886986 0.885167 0.882894 0.882435 0.882474 0.884827 0.886021 0.888705 0.889773 0.891536 0.893712 0.889426 0.893832 0.888153 0.893832 0.886139 0.893832 0.885263 0.893832 0.886741 0.89168 0.880584 0.893832 0.877381 0.887102 0.884252 0.89374 0.888124 0.893832 0.887228 0.893832 0.888692 0.893832 0.890394 0.893832 0.890851 0.893832 0.892905 0.890585 0.889473 0.886681 0.885412 0.882953 0.882828 0.883253 0.885538 0.887035 0.888105 0.889064 0.891017 0.892777 0.892652 0.887393 0.883299 0.887044 0.88997 0.891946 0.893561 0.89205 0.892684 0.89204 0.891984 0.892641 0.892059 0.89355 0.892025 0.890123 0.887403 0.883629 0.887256 0.892633 0.892733 0.890917 0.889092 0.88818 0.886993 0.885183 0.88289 0.88244 0.882495 0.884892 0.886123 0.888842 0.889948 0.891576 0.893733 0.889434 0.893832 0.888227 0.893832 0.886275 0.893832 0.885403 0.893832 0.886671 0.89176 0.880439 0.893832 0.876966 0.887362 0.883966 0.893735 0.888029 0.893832 0.887262 0.893832 0.888731 0.893832 0.890357 0.893832 0.890799 0.893832 0.892875 0.890687 0.889555 0.886739 0.88544 0.882943 0.882809 0.883228 0.885534 0.887022 0.888164 0.889 0.890908 0.892733 0.892629 0.887233 0.883585 0.887374 0.8901 0.892009 0.89355 0.892046 0.892641 0.891981 0.891955 0.89262 0.892058 0.893544 0.892055 0.890184 0.887561 0.883775 0.887177 0.89262 0.892711 0.890862 0.889059 0.888208 0.886998 0.885192 0.88289 0.882446 0.882508 0.884927 0.886175 0.888911 0.890035 0.891595 0.893742 0.889438 0.893832 0.888264 0.893832 0.886343 0.893832 0.885474 0.893832 0.886637 0.891802 0.880367 0.893832 0.876759 0.887491 0.883823 0.893733 0.887981 0.893832 0.887281 0.893832 0.888751 0.893832 0.89034 0.893832 0.890773 0.893832 0.89286 0.890738 0.889596 0.886769 0.885457 0.88294 0.882801 0.883217 0.885533 0.887017 0.888194 0.888968 0.890854 0.89271 0.892617 0.887154 0.883732 0.887532 0.890161 0.89204 0.893544 0.892045 0.892619 0.891951 
SCALARS Axial_Stress float 1
LOOKUP_TABLE default
-105895000000.0 -45568600000.0 -112167000000.0 -200986000000.0 -349059000000.0 -149531000000.0 -251857000000.0 -91276300000.0 -84526300000.0 -108405000000.0 -111246000000.0 -122639000000.0 -130538000000.0 -133168000000.0 -66879700000.0 -145159000000.0 -71138100000.0 -26088100000.0 -193410000000.0 -430646000000.0 -495878000000.0 -326670000000.0 -394079000000.0 -148741000000.0 -116135000000.0 -272042000000.0 -367048000000.0 -345908000000.0 -236361000000.0 -174847000000.0 -123952000000.0 -299348000000.0 -153788000000.0 -118334000000.0 -286558000000.0 -619913000000.0 -679394000000.0 -453043000000.0 -613313000000.0 -400050000000.0 -424405000000.0 -360467000000.0 -453732000000.0 -425980000000.0 -501528000000.0 -365407000000.0 -277077000000.0 -477863000000.0 -216784000000.0 -882090000000.0 -743123000000.0 -745296000000.0 -637937000000.0 -643329000000.0 -607510000000.0 -831126000000.0 -615697000000.0 -779167000000.0 -636375000000.0 -784889000000.0 -447408000000.0 -714684000000.0 -517994000000.0 -428945000000.0 -558944000000.0 -473496000000.0 -481680000000.0 -913288000000.0 -804871000000.0 -894100000000.0 -903029000000.0 -568647000000.0 -759914000000.0 -794036000000.0 -1.02327e+12 -843171000000.0 -1.04695e+12 -988551000000.0 -968782000000.0 -1.01615e+12 -727001000000.0 -484793000000.0 -593225000000.0 -930411000000.0 -611773000000.0 -407600000000.0 -494820000000.0 -555588000000.0 -692342000000.0 -461748000000.0 -917120000000.0 -960706000000.0 -851956000000.0 -524404000000.0 -1.08735e+12 -1.2591e+12 -1.24687e+12 -1.12125e+12 -1.16239e+12 -619426000000.0 -378550000000.0 -907054000000.0 -285508000000.0 -677056000000.0 -752161000000.0 -532886000000.0 -1.01924e+12 -921528000000.0 -1.6506e+12 -638465000000.0 -1.4178e+12 -1.47179e+12 -1.69655e+12 -1.32802e+12 -1.36411e+12 -1.25876e+12 -751967000000.0 -698926000000.0 -909938000000.0 -731806000000.0 -1.34406e+12 -544121000000.0 -852025000000.0 -711591000000.0 -482808000000.0 -921922000000.0 -1.12804e+12 -1.03669e+12 -1.50123e+12 -1.3818e+12 -833542000000.0 -1.62647e+12 -1.86539e+12 -1.55961e+12 -859753000000.0 -856128000000.0 -854608000000.0 -883071000000.0 -1.42253e+12 -1.19973e+12 -833098000000.0 -1.02176e+12 -1.15794e+12 -982182000000.0 -624127000000.0 -1.33221e+12 -1.62973e+12 -1.14684e+12 -1.29311e+12 -969955000000.0 -1.09275e+12 -2.22073e+12 -1.04634e+12 -864351000000.0 -1.18854e+12 -999199000000.0 -1.26345e+12 -1.49279e+12 -1.13585e+12 -1.12499e+12 -1.73036e+12 -463363000000.0 -822681000000.0 -1.03454e+12 -1.58032e+12 -1.61067e+12 -1.69423e+12 -1.52599e+12 -1.51209e+12 -1.40751e+12 -1.20516e+12 -1.17116e+12 -1.02538e+12 -898509000000.0 -1.37003e+12 -1.26946e+12 -1.33737e+12 -1.1778e+12 -1.03401e+12 -1.41179e+12 -1.32388e+12 -855939000000.0 -1.68571e+12 -1.16945e+12 -219890000000.0 -1.69913e+12 -1.7454e+12 -1.72368e+12 -1.6243e+12 -1.5309e+12 -1.56637e+12 -1.01856e+12 -1.53308e+12 -1.32992e+12 -1.34067e+12 -1.33105e+12 -1.34997e+12 -687014000000.0 -857007000000.0 -1.51563e+12 -1.8891e+12 -1.80492e+12 -1.90799e+12 -1.84795e+12 -1.7878e+12 -1.91145e+12 -1.76105e+12 -1.94496e+12 -1.46163e+12 -1.58013e+12 -1.22394e+12 -1.33324e+12 -1.42482e+12 -1.38356e+12 -1.4369e+12 -1.38875e+12 -1.32922e+12 -2.08513e+12 -1.49436e+12 -1.9848e+12 -1.95071e+12 -1.16067e+12 -788944000000.0 -1.89103e+12 -1.94007e+12 -2.00847e+12 -2.11962e+12 -1.92565e+12 -2.02527e+12 -2.06824e+12 -2.3367e+12 -1.33674e+12 -1.04194e+12 -1.41822e+12 -1.50085e+12 -1.37182e+12 -1.30232e+12 -2.39526e+12 -2.42548e+12 -2.13603e+12 -2.61043e+12 -1.28051e+12 -808290000000.0 -3.25082e+12 -3.6528e+12 -2.79349e+12 -1.93327e+12 -2.02053e+12 -2.16649e+12 -2.24196e+12 -2.15268e+12 -2.32264e+12 -2.49926e+12 -1.03204e+12 -1.34597e+12 -1.55264e+12 -1.49653e+12 -2.31107e+12 -2.29851e+12 -2.25049e+12 -2.37494e+12 -2.18949e+12 -3.68981e+12 -4.09262e+12 -3.35454e+12 -3.33362e+12 -4.90089e+12 -2.47853e+12 -2.33666e+12 -1.91614e+12 -2.09577e+12 -2.32146e+12 -2.35689e+12 -2.4284e+12 -2.29953e+12 -2.40372e+12 -1.33157e+12 -1.54876e+12 -1.22561e+12 -1.53898e+12 -1.57526e+12 -1.71316e+12 -1.61041e+12 -2.13101e+12 -2.21825e+12 -2.31898e+12 -1.86305e+12 -2.03232e+12 -3.54383e+12 -2.83214e+12 -5.23419e+12 -3.81381e+12 -3.63608e+12 -3.39194e+12 -5.13483e+12 -4.81969e+12 -4.2829e+12 -4.00952e+12 -3.98958e+12 -2.28715e+12 -2.35121e+12 -2.53472e+12 -2.44831e+12 -2.52879e+12 -2.39859e+12 -2.3125e+12 -1.6656e+12 -1.74667e+12 -1.78861e+12 -2.04458e+12 -2.39595e+12 -2.39223e+12 -2.15366e+12 -1.92165e+12 -3.97799e+12 -3.64234e+12 -3.61776e+12 -4.16601e+12 -4.95409e+12 -5.3557e+12 -3.55993e+12 -3.44737e+12 -5.28745e+12 -5.21941e+12 -4.98457e+12 -4.42134e+12 -4.20146e+12 -3.72606e+12 -2.36254e+12 -2.59846e+12 -2.66153e+12 -2.5323e+12 -2.22675e+12 -1.98567e+12 -1.84486e+12 -1.90258e+12 -1.99928e+12 -2.29804e+12 -2.58095e+12 -3.62966e+12 -3.96684e+12 -3.82264e+12 -3.94222e+12 -4.38348e+12 -5.10775e+12 -5.36327e+12 -5.38518e+12 -3.54674e+12 -3.62358e+12 -3.51583e+12 -5.35488e+12 -5.07969e+12 -4.73465e+12 -4.428e+12 -3.94212e+12 -3.56918e+12 -3.31047e+12 -2.95017e+12 -2.78799e+12 -2.71289e+12 -2.65819e+12 -2.44285e+12 -2.29254e+12 -1.99288e+12 -1.95502e+12 -2.06909e+12 -2.08987e+12 -2.28071e+12 -2.17087e+12 -2.40045e+12 -2.58446e+12 -3.16921e+12 -3.70473e+12 -3.87537e+12 -3.74966e+12 -3.81712e+12 -4.46956e+12 -4.81896e+12 -5.17549e+12 -5.42237e+12 -3.5762e+12 -3.64987e+12 -3.6196e+12 -3.57582e+12 -5.40799e+12 -5.16018e+12 -4.97478e+12 -4.87069e+12 -4.6683e+12 -4.09876e+12 -3.74159e+12 -3.20815e+12 -2.9316e+12 -3.10694e+12 -2.92867e+12 -2.94158e+12 -2.51267e+12 -2.13123e+12 -2.08975e+12 -2.19323e+12 -2.47454e+12 -2.85472e+12 -3.10717e+12 -3.56702e+12 -3.57778e+12 -3.61712e+12 -3.7819e+12 -4.0387e+12 -4.74886e+12 -4.95714e+12 -5.0489e+12 -5.23169e+12 -5.45408e+12 -3.61393e+12 -3.63821e+12 -3.57096e+12 -5.52449e+12 -5.4398e+12 -5.22622e+12 -5.05445e+12 -4.80848e+12 -4.41014e+12 -3.90703e+12 -3.37548e+12 -3.04653e+12 -2.98938e+12 -3.12327e+12 -3.2869e+12 -2.77417e+12 -2.32694e+12 -2.20426e+12 -2.11553e+12 -2.17607e+12 -2.18831e+12 -2.25564e+12 -2.33256e+12 -2.68938e+12 -3.4823e+12 -3.81354e+12 -3.45287e+12 -3.14986e+12 -3.52364e+12 -3.94221e+12 -4.48619e+12 -4.88588e+12 -5.10982e+12 -5.27652e+12 -5.47091e+12 -5.55205e+12 -3.58402e+12 -3.50959e+12 -5.57973e+12 -5.57497e+12 -5.38932e+12 -5.25368e+12 -5.07379e+12 -4.92033e+12 -4.86374e+12 -4.67615e+12 -4.41008e+12 -3.56111e+12 -3.26339e+12 -2.6068e+12 -3.44031e+12 -3.19802e+12 -2.75293e+12 -2.5105e+12 -2.31617e+12 -2.18434e+12 -2.2078e+12 -2.31374e+12 -2.45528e+12 -2.61238e+12 -3.09309e+12 -3.90921e+12 -2.38316e+12 -3.3753e+12 -3.65112e+12 -4.52775e+12 -4.76565e+12 -4.93048e+12 -4.98115e+12 -5.11024e+12 -5.28783e+12 -5.41479e+12 -5.59939e+12 -5.5999e+12 -3.52017e+12 -3.45256e+12 -3.46748e+12 -5.56632e+12 -5.44479e+12 -5.24687e+12 -5.251e+12 -5.04637e+12 -4.93084e+12 -4.86738e+12 -4.95394e+12 -5.18274e+12 -3.58352e+12 -3.33994e+12 -3.03455e+12 -2.15213e+12 -1.7722e+12 -3.69398e+12 -3.21168e+12 -2.40918e+12 -2.23365e+12 -2.19541e+12 -2.24051e+12 -2.37262e+12 -2.83679e+12 -3.77068e+12 -1.7106e+12 -1.98771e+12 -3.06621e+12 -3.42223e+12 -3.61283e+12 -5.24553e+12 -5.02965e+12 -4.91434e+12 -4.97214e+12 -5.0686e+12 -5.27204e+12 -5.26936e+12 -5.46676e+12 -5.58587e+12 -3.47827e+12 -3.46277e+12 -3.42719e+12 -5.56483e+12 -5.47177e+12 -5.44504e+12 -5.33212e+12 -4.96481e+12 -4.76315e+12 -4.86811e+12 -4.76018e+12 -4.91889e+12 -5.13523e+12 -2.72652e+12 -3.21758e+12 -3.09099e+12 -2.77335e+12 -2.53369e+12 -2.44628e+12 -2.28471e+12 -2.22583e+12 -2.20471e+12 -2.19479e+12 -2.20469e+12 -2.20973e+12 -2.26483e+12 -2.35667e+12 -2.57171e+12 -2.74919e+12 -3.13171e+12 -3.28087e+12 -2.79522e+12 -5.17615e+12 -4.96889e+12 -4.79234e+12 -4.89242e+12 -4.77207e+12 -4.96897e+12 -5.36791e+12 -5.46869e+12 -5.49081e+12 -5.58199e+12 -3.43536e+12 -3.37772e+12 -5.43643e+12 -5.51624e+12 -5.42054e+12 -5.4461e+12 -5.56774e+12 -5.07234e+12 -4.47323e+12 -4.59516e+12 -4.58065e+12 -4.76982e+12 -4.84966e+12 -5.1801e+12 -2.85009e+12 -3.24107e+12 -3.29291e+12 -2.91016e+12 -2.17102e+12 -3.08342e+12 -1.47035e+12 -1.81882e+12 -2.28316e+12 -2.22458e+12 -2.19487e+12 -2.18081e+12 -2.18411e+12 -2.23171e+12 -1.77456e+12 -1.5314e+12 -3.26593e+12 -2.40131e+12 -2.95293e+12 -3.355e+12 -3.31471e+12 -2.93245e+12 -5.19569e+12 -4.87819e+12 -4.80398e+12 -4.60898e+12 -4.61654e+12 -4.43564e+12 -5.11335e+12 -5.60136e+12 -5.4693e+12 -5.43265e+12 -5.52973e+12 -5.44604e+12 -3.38448e+12 -3.21035e+12 -3.30699e+12 -5.34312e+12 -5.32712e+12 -5.36514e+12 -5.39696e+12 -5.86536e+12 -3.22809e+12 -4.31932e+12 -4.36136e+12 -4.62148e+12 -4.91163e+12 -4.6505e+12 -3.48739e+12 -3.19576e+12 -2.99534e+12 -2.68252e+12 -2.82998e+12 -3.15564e+12 -1.98686e+12 -2.19284e+12 -2.17357e+12 -2.15832e+12 -1.90743e+12 -3.39978e+12 -3.00104e+12 -2.80864e+12 -3.07248e+12 -3.25052e+12 -3.56339e+12 -4.63073e+12 -4.92241e+12 -4.64607e+12 -4.3864e+12 -4.33081e+12 -3.20607e+12 -5.88827e+12 -5.4096e+12 -5.37818e+12 -5.33587e+12 -5.35016e+12 -3.31243e+12 -3.21446e+12 -3.08961e+12 -5.2516e+12 -5.23022e+12 -5.10913e+12 -5.2422e+12 -5.18012e+12 -5.56979e+12 -5.28082e+12 -3.97198e+12 -4.36668e+12 -4.40098e+12 -4.62439e+12 -4.50112e+12 -3.45427e+12 -3.8718e+12 -3.48799e+12 -3.29175e+12 -2.90812e+12 -3.07849e+12 -3.04636e+12 -2.05705e+12 -2.16579e+12 -2.14233e+12 -2.13509e+12 -1.97941e+12 -3.32824e+12 -3.27189e+12 -3.02368e+12 -3.34915e+12 -3.54639e+12 -3.93168e+12 -3.57421e+12 -4.50755e+12 -4.64249e+12 -4.41875e+12 -4.39041e+12 -4.01185e+12 -5.22552e+12 -5.56358e+12 -5.18876e+12 -5.24845e+12 -5.11189e+12 -5.2373e+12 -5.25656e+12 -3.09253e+12 -2.9355e+12 -5.03468e+12 -5.14847e+12 -5.03636e+12 -5.12711e+12 -5.00477e+12 -5.01489e+12 -4.90274e+12 -5.1713e+12 -5.00466e+12 -3.44173e+12 -3.94002e+12 -4.1509e+12 -4.06635e+12 -4.31011e+12 -4.28806e+12 -4.19577e+12 -3.65583e+12 -3.07952e+12 -2.93282e+12 -2.98111e+12 -3.05609e+12 -2.95513e+12 -2.91891e+12 -2.79507e+12 -2.07752e+12 -2.07359e+12 -1.99849e+12 -2.0093e+12 -2.97007e+12 -3.17085e+12 -3.1703e+12 -3.2776e+12 -3.15171e+12 -3.0856e+12 -3.1583e+12 -3.6963e+12 -4.27873e+12 -4.33693e+12 -4.32432e+12 -4.07812e+12 -4.17337e+12 -3.99125e+12 -3.53552e+12 -4.98452e+12 -5.17166e+12 -4.90696e+12 -5.0185e+12 -5.0066e+12 -5.13175e+12 -5.03903e+12 -5.15145e+12 -5.03619e+12 -2.93691e+12 -2.66075e+12 -2.78083e+12 -4.85883e+12 -4.92297e+12 -4.88839e+12 -4.76099e+12 -4.85167e+12 -4.73774e+12 -4.75274e+12 -4.47681e+12 -3.96169e+12 -4.08374e+12 -4.08096e+12 -3.7106e+12 -4.12732e+12 -4.47319e+12 -4.19835e+12 -3.64162e+12 -3.32046e+12 -3.08402e+12 -2.9686e+12 -2.93649e+12 -2.91911e+12 -2.84163e+12 -2.66069e+12 -2.06417e+12 -2.74957e+12 -3.00619e+12 -3.09201e+12 -3.06826e+12 -3.08188e+12 -3.17327e+12 -3.3722e+12 -3.64908e+12 -4.21014e+12 -4.55325e+12 -4.14955e+12 -3.70433e+12 -4.08289e+12 -4.09219e+12 -3.99739e+12 -4.49543e+12 -4.7528e+12 -4.73787e+12 -4.85278e+12 -4.76242e+12 -4.88891e+12 -4.92374e+12 -4.85875e+12 -2.78031e+12 -2.6591e+12 -2.58484e+12 -4.65128e+12 -4.82186e+12 -4.69088e+12 -4.80995e+12 -4.628e+12 -4.535e+12 -4.51814e+12 -4.37657e+12 -4.51994e+12 -4.17678e+12 -4.12944e+12 -3.78461e+12 -4.068e+12 -3.76094e+12 -4.0527e+12 -2.91538e+12 -4.67294e+12 -4.18818e+12 -3.24309e+12 -2.97296e+12 -2.89544e+12 -2.82162e+12 -2.7257e+12 -2.45085e+12 -2.42636e+12 -2.80825e+12 -2.97069e+12 -3.03308e+12 -3.07465e+12 -3.30263e+12 -4.12056e+12 -4.72416e+12 -2.89098e+12 -4.0325e+12 -3.76108e+12 -4.06499e+12 -3.84927e+12 -4.13979e+12 -4.19167e+12 -4.52657e+12 -4.38694e+12 -4.52797e+12 -4.53694e+12 -4.62667e+12 -4.81036e+12 -4.69065e+12 -4.82144e+12 -4.65017e+12 -2.58279e+12 -2.53538e+12 -4.4488e+12 -4.40794e+12 -4.63359e+12 -4.65303e+12 -4.60039e+12 -4.51476e+12 -4.13181e+12 -4.41667e+12 -4.03457e+12 -4.31614e+12 -3.16544e+12 -3.09996e+12 -3.57053e+12 -2.45528e+12 -2.50754e+12 -3.31389e+12 -3.0667e+12 -2.89507e+12 -2.81581e+12 -2.81057e+12 -2.70912e+12 -2.71748e+12 -2.61376e+12 -2.59423e+12 -2.64945e+12 -2.91712e+12 -2.7927e+12 -2.49194e+12 -2.63584e+12 -2.81929e+12 -2.81002e+12 -2.9386e+12 -2.92209e+12 -3.00377e+12 -2.98992e+12 -3.14492e+12 -3.35224e+12 -2.61031e+12 -2.46266e+12 -3.56167e+12 -3.05479e+12 -3.36823e+12 -4.29357e+12 -4.07917e+12 -4.42008e+12 -4.13394e+12 -4.51632e+12 -4.59836e+12 -4.6536e+12 -4.63311e+12 -4.40775e+12 -4.44695e+12 -2.53348e+12 -2.37092e+12 -2.48023e+12 -4.111e+12 -4.26872e+12 -4.19377e+12 -4.45068e+12 -4.5542e+12 -4.46678e+12 -4.47434e+12 -4.32719e+12 -4.28721e+12 -4.10489e+12 -3.99433e+12 -4.02024e+12 -3.94681e+12 -4.54989e+12 -5.17927e+12 -2.84717e+12 -4.52914e+12 -2.38514e+12 -2.94774e+12 -3.38215e+12 -2.75442e+12 -3.1763e+12 -2.93294e+12 -2.90567e+12 -2.83584e+12 -2.71054e+12 -2.60956e+12 -2.57789e+12 -2.70535e+12 -2.60967e+12 -2.66661e+12 -2.8043e+12 -2.92242e+12 -2.99606e+12 -3.22941e+12 -2.79909e+12 -3.38757e+12 -3.01088e+12 -2.39903e+12 -4.48511e+12 -2.87214e+12 -5.07035e+12 -4.38782e+12 -3.87738e+12 -3.98137e+12 -4.03733e+12 -4.1183e+12 -4.2758e+12 -4.3223e+12 -4.46681e+12 -4.46459e+12 -4.55691e+12 -4.45235e+12 -4.1929e+12 -4.26557e+12 -4.1074e+12 -2.47935e+12 -2.37021e+12 -2.20596e+12 -3.97469e+12 -3.98646e+12 -4.20885e+12 -4.36257e+12 -4.16369e+12 -4.177e+12 -3.95721e+12 -4.28711e+12 -3.39614e+12 -4.21976e+12 -3.40941e+12 -4.29256e+12 -2.44307e+12 -2.75307e+12 -4.38391e+12 -2.31605e+12 -3.05283e+12 -2.90682e+12 -2.79492e+12 -2.72516e+12 -2.60511e+12 -2.53861e+12 -2.56093e+12 -2.60764e+12 -2.58139e+12 -2.67484e+12 -2.80774e+12 -2.85686e+12 -2.96065e+12 -3.06273e+12 -2.38231e+12 -4.52679e+12 -2.76117e+12 -2.43905e+12 -4.30915e+12 -3.54884e+12 -4.14824e+12 -3.36878e+12 -4.28006e+12 -3.95522e+12 -4.17276e+12 -4.15386e+12 -4.36426e+12 -4.209e+12 -3.9845e+12 -3.97155e+12 -2.20448e+12 -2.07362e+12 -3.84172e+12 -3.73567e+12 -3.48689e+12 -3.96745e+12 -4.22621e+12 -4.81736e+12 -4.65744e+12 -3.42874e+12 -2.70501e+12 -2.79603e+12 -5.15237e+12 -2.80298e+12 -5.17078e+12 -4.4358e+12 -4.65473e+12 -3.76459e+12 -2.69962e+12 -3.47299e+12 -3.11367e+12 -3.69768e+12 -1.34946e+12 -1.95201e+12 -3.47879e+12 -2.8144e+12 -2.48461e+12 -2.74811e+12 -2.64964e+12 -2.61255e+12 -2.49104e+12 -2.51037e+12 -2.43412e+12 -2.48863e+12 -2.44412e+12 -2.53449e+12 -2.46697e+12 -2.51765e+12 -2.47265e+12 -2.56265e+12 -2.55138e+12 -2.68615e+12 -2.72442e+12 -2.81899e+12 -2.51527e+12 -2.85138e+12 -3.51761e+12 -1.98878e+12 -1.3944e+12 -3.75287e+12 -3.16766e+12 -3.46954e+12 -2.40808e+12 -3.79698e+12 -4.83551e+12 -4.52869e+12 -5.03435e+12 -2.86636e+12 -5.24517e+12 -2.80561e+12 -2.70267e+12 -3.40041e+12 -4.65501e+12 -4.82529e+12 -4.22893e+12 -3.96725e+12 -3.48242e+12 -3.73145e+12 -3.83875e+12 -2.07263e+12 -1.87024e+12 -1.95833e+12 -3.73776e+12 -3.83057e+12 -3.73483e+12 -3.53905e+12 -2.77738e+12 -3.57377e+12 -4.15946e+12 -5.82777e+12 -5.65566e+12 -5.21168e+12 -3.48187e+12 -4.20281e+12 -3.19246e+12 -3.82624e+12 -3.02882e+12 -2.90043e+12 -2.62719e+12 -2.53572e+12 -1.80143e+12 -1.78769e+12 -2.79453e+12 -2.49173e+12 -2.38346e+12 -2.37529e+12 -2.39715e+12 -2.402e+12 -2.43174e+12 -2.55825e+12 -2.87844e+12 -1.76711e+12 -1.79551e+12 -2.58003e+12 -2.67296e+12 -2.91215e+12 -2.96916e+12 -3.95923e+12 -3.01057e+12 -4.19798e+12 -3.37699e+12 -5.2053e+12 -5.65731e+12 -5.83851e+12 -4.16223e+12 -3.57366e+12 -2.76492e+12 -3.5341e+12 -3.73223e+12 -3.8288e+12 -3.73624e+12 -1.95712e+12 -1.86726e+12 -1.79093e+12 -3.63418e+12 -3.65491e+12 -3.61337e+12 -2.25122e+12 -2.61483e+12 -4.92959e+12 -4.7727e+12 -4.40438e+12 -4.29634e+12 -4.142e+12 -4.12843e+12 -3.88689e+12 -3.7613e+12 -4.08937e+12 -3.84217e+12 -3.40044e+12 -3.18208e+12 -2.75875e+12 -2.59982e+12 -2.51089e+12 -2.03575e+12 -2.96979e+12 -1.81401e+12 -2.5645e+12 -2.3254e+12 -2.31072e+12 -2.322e+12 -2.33792e+12 -2.34892e+12 -2.38222e+12 -2.63816e+12 -1.83097e+12 -3.02708e+12 -2.05833e+12 -2.53805e+12 -2.613e+12 -2.7453e+12 -3.13563e+12 -3.45819e+12 -3.88879e+12 -4.21525e+12 -3.764e+12 -3.89615e+12 -4.12529e+12 -4.13002e+12 -4.30103e+12 -4.41405e+12 -4.74642e+12 -4.92604e+12 -2.62182e+12 -2.24221e+12 -3.60806e+12 -3.65303e+12 -3.63109e+12 -1.78913e+12 -1.70246e+12 -3.50512e+12 -3.43972e+12 -3.57628e+12 -3.60255e+12 -3.60057e+12 -3.96301e+12 -4.27446e+12 -3.84797e+12 -4.1784e+12 -4.40431e+12 -3.98199e+12 -4.14847e+12 -3.7906e+12 -3.93513e+12 -3.48883e+12 -3.49131e+12 -3.3297e+12 -3.35682e+12 -3.0858e+12 -3.00183e+12 -2.40221e+12 -2.15907e+12 -1.97049e+12 -2.1352e+12 -1.78683e+12 -754682000000.0 -2.61867e+12 -2.05097e+12 -2.24448e+12 -2.13641e+12 -2.23856e+12 -2.1808e+12 -2.25191e+12 -2.19486e+12 -2.26783e+12 -2.20986e+12 -2.27918e+12 -2.2224e+12 -2.28892e+12 -2.19742e+12 -2.30471e+12 -2.10687e+12 -2.69506e+12 -712908000000.0 -1.82064e+12 -2.14443e+12 -1.97065e+12 -2.17152e+12 -2.41413e+12 -2.99958e+12 -3.10828e+12 -3.37428e+12 -3.31498e+12 -3.49161e+12 -3.46316e+12 -3.93946e+12 -3.78294e+12 -4.14845e+12 -3.98626e+12 -4.39569e+12 -4.1663e+12 -3.8474e+12 -4.27191e+12 -3.95947e+12 -3.59709e+12 -3.6011e+12 -3.57403e+12 -3.43798e+12 -3.50444e+12 -1.69915e+12 -1.56856e+12 -3.17185e+12 -3.37415e+12 -3.29828e+12 -3.45329e+12 -3.74886e+12 -3.49489e+12 -3.03193e+12 -4.15739e+12 -3.64615e+12 -3.79989e+12 -3.92046e+12 -3.89071e+12 -3.77701e+12 -3.69746e+12 -3.60041e+12 -3.48206e+12 -3.44197e+12 -3.25026e+12 -3.094e+12 -3.01482e+12 -2.86939e+12 -2.70925e+12 -2.52258e+12 -2.14144e+12 -1.97038e+12 -1.85334e+12 -1.3669e+12 -1.19982e+12 -1.93659e+12 -2.10162e+12 -2.11942e+12 -2.13916e+12 -2.15016e+12 -2.15896e+12 -2.00093e+12 -1.18536e+12 -1.34322e+12 -1.84238e+12 -1.96325e+12 -2.14199e+12 -2.52007e+12 -2.70537e+12 -2.8811e+12 -3.01934e+12 -3.08618e+12 -3.25607e+12 -3.44552e+12 -3.47375e+12 -3.59478e+12 -3.69414e+12 -3.77906e+12 -3.8832e+12 -3.91125e+12 -3.7931e+12 -3.64658e+12 -4.15062e+12 -3.00602e+12 -3.48671e+12 -3.74909e+12 -3.45096e+12 -3.30092e+12 -3.37517e+12 -3.16426e+12 -1.56501e+12 -1.26918e+12 -1.43085e+12 -2.87954e+12 -3.15708e+12 -3.28053e+12 -3.57434e+12 -3.75635e+12 -3.6125e+12 -4.29898e+12 -2.60312e+12 -3.069e+12 -3.31507e+12 -3.46713e+12 -3.52525e+12 -3.53334e+12 -3.43495e+12 -3.38737e+12 -3.28046e+12 -3.24877e+12 -3.33537e+12 -2.841e+12 -2.75308e+12 -2.61188e+12 -2.46085e+12 -2.3135e+12 -1.85712e+12 -1.67166e+12 -1.62891e+12 -1.38595e+12 -1.40723e+12 -2.00476e+12 -2.03605e+12 -2.06408e+12 -2.08158e+12 -2.08578e+12 -2.07664e+12 -1.46298e+12 -1.36388e+12 -1.57567e+12 -1.64251e+12 -1.83905e+12 -2.31433e+12 -2.45949e+12 -2.61277e+12 -2.75421e+12 -2.83621e+12 -3.31648e+12 -3.24544e+12 -3.26932e+12 -3.3835e+12 -3.43432e+12 -3.52543e+12 -3.51421e+12 -3.4609e+12 -3.31405e+12 -3.07851e+12 -2.60414e+12 -4.31129e+12 -3.60447e+12 -3.75481e+12 -3.57342e+12 -3.28122e+12 -3.15776e+12 -2.88049e+12 -1.44083e+12 -1.29242e+12 -1.05713e+12 -2.58672e+12 -2.90608e+12 -2.91983e+12 -3.07515e+12 -3.10956e+12 -3.3855e+12 -3.66431e+12 -4.16547e+12 -3.02421e+12 -4.7137e+12 -3.89116e+12 -3.37931e+12 -3.2445e+12 -3.13616e+12 -3.06436e+12 -2.96266e+12 -2.50095e+12 -2.37336e+12 -2.24322e+12 -2.10354e+12 -1.96851e+12 -1.62517e+12 -1.64741e+12 -1.93834e+12 -2.22639e+12 -1.89706e+12 -1.77498e+12 -1.92987e+12 -1.91557e+12 -1.98906e+12 -1.92712e+12 -2.00512e+12 -1.94916e+12 -2.02629e+12 -1.97357e+12 -2.00076e+12 -1.87013e+12 -1.97963e+12 -2.27695e+12 -2.01136e+12 -1.62138e+12 -1.58752e+12 -1.95518e+12 -2.09663e+12 -2.24233e+12 -2.37212e+12 -2.49665e+12 -2.96258e+12 -3.06144e+12 -3.12964e+12 -3.23741e+12 -3.37267e+12 -3.87529e+12 -4.70877e+12 -3.00164e+12 -4.18826e+12 -3.67127e+12 -3.3873e+12 -3.11274e+12 -3.07948e+12 -2.92537e+12 -2.90588e+12 -2.60744e+12 -1.06726e+12 -868862000000.0 -2.22387e+12 -2.28533e+12 -2.59808e+12 -2.64151e+12 -2.73552e+12 -3.33599e+12 -3.894e+12 -3.71887e+12 -3.42149e+12 -3.08556e+12 -3.21657e+12 -3.21529e+12 -3.1873e+12 -3.13336e+12 -3.07497e+12 -3.02217e+12 -2.95293e+12 -2.87878e+12 -2.79919e+12 -2.70578e+12 -2.60411e+12 -2.16158e+12 -2.04595e+12 -1.93012e+12 -1.82281e+12 -1.70102e+12 -1.52395e+12 -1.86855e+12 -1.84201e+12 -1.87392e+12 -1.88983e+12 -1.94393e+12 -1.66577e+12 -1.67583e+12 -1.80261e+12 -1.91338e+12 -2.03664e+12 -2.15791e+12 -2.59859e+12 -2.70022e+12 -2.79561e+12 -2.87358e+12 -2.94592e+12 -3.01441e+12 -3.06836e+12 -3.12921e+12 -3.17771e+12 -3.20251e+12 -3.20611e+12 -3.07729e+12 -3.43181e+12 -3.71449e+12 -3.89491e+12 -3.33837e+12 -2.73805e+12 -2.6476e+12 -2.6102e+12 -2.29803e+12 -2.23728e+12 -868233000000.0 -468385000000.0 -662600000000.0 -1.79959e+12 -2.35621e+12 -2.68374e+12 -2.79562e+12 -3.13518e+12 -4.53503e+12 -2.10234e+12 -2.98074e+12 -2.2463e+12 -2.92668e+12 -2.88056e+12 -2.87945e+12 -2.88174e+12 -2.87128e+12 -2.83755e+12 -2.80403e+12 -2.75149e+12 -2.69465e+12 -2.6279e+12 -2.55244e+12 -2.46728e+12 -2.37338e+12 -2.27216e+12 -1.87159e+12 -1.77164e+12 -1.66572e+12 -1.56224e+12 -1.40475e+12 -1.27959e+12 -1.20311e+12 -1.94598e+12 -1.74681e+12 -1.69986e+12 -1.79356e+12 -1.75202e+12 -1.82144e+12 -1.76098e+12 -1.82293e+12 -2.02144e+12 -1.12577e+12 -1.17685e+12 -1.33036e+12 -1.5251e+12 -1.63966e+12 -1.74893e+12 -1.85271e+12 -2.26728e+12 -2.36545e+12 -2.4573e+12 -2.54311e+12 -2.61896e+12 -2.68745e+12 -2.74388e+12 -2.79693e+12 -2.82968e+12 -2.85916e+12 -2.86729e+12 -2.86621e+12 -2.87178e+12 -2.92007e+12 -2.2349e+12 -2.95204e+12 -2.10218e+12 -4.51769e+12 -3.13917e+12 -2.79797e+12 -2.69277e+12 -2.36489e+12 -1.79484e+12 -661688000000.0 -466874000000.0 -670930000000.0 -829569000000.0 -1.34471e+12 -1.40062e+12 -1.88792e+12 -2.0137e+12 -2.51242e+12 -2.54142e+12 -2.80578e+12 -1.97689e+12 -3.61026e+12 -3.84297e+12 -2.1357e+12 -2.46153e+12 -2.49162e+12 -2.523e+12 -2.55647e+12 -2.57714e+12 -2.58065e+12 -2.57405e+12 -2.54677e+12 -2.50576e+12 -2.45356e+12 -2.3906e+12 -2.32205e+12 -2.24407e+12 -2.16019e+12 -2.06953e+12 -1.97226e+12 -1.63323e+12 -1.56965e+12 -1.53955e+12 -1.68257e+12 -2.03873e+12 -2.9365e+12 -2.5131e+12 -1.64313e+12 -1.58986e+12 -1.67373e+12 -1.7037e+12 -1.69461e+12 -1.75296e+12 -2.41202e+12 -2.96978e+12 -2.13255e+12 -1.6991e+12 -1.52671e+12 -1.54955e+12 -1.61208e+12 -1.95973e+12 -2.06095e+12 -2.15144e+12 -2.23572e+12 -2.31294e+12 -2.38155e+12 -2.44541e+12 -2.49871e+12 -2.53905e+12 -2.56382e+12 -2.56735e+12 -2.56139e+12 -2.54192e+12 -2.51156e+12 -2.48111e+12 -2.44749e+12 -2.12095e+12 -3.81776e+12 -3.60157e+12 -1.96575e+12 -2.84191e+12 -2.56543e+12 -2.52656e+12 -2.01589e+12 -1.88631e+12 -1.39595e+12 -1.33624e+12 -817823000000.0 -702764000000.0 -1.27828e+12 -866882000000.0 -1.54464e+12 -2.20971e+12 -3.02979e+12 -2.27515e+12 -2.50878e+12 -2.89759e+12 -2.82848e+12 -3.03884e+12 -1.8078e+12 -2.0699e+12 -2.15174e+12 -2.2206e+12 -2.2696e+12 -2.30294e+12 -2.33304e+12 -2.17282e+12 -2.10967e+12 -2.03987e+12 -1.96478e+12 -1.88412e+12 -1.79911e+12 -1.71418e+12 -1.43611e+12 -1.39627e+12 -1.37317e+12 -1.228e+12 -647868000000.0 -1.52497e+12 -1.45743e+12 -1.59347e+12 -1.63272e+12 -1.65276e+12 -1.60736e+12 -1.65281e+12 -904054000000.0 -991206000000.0 -1.30142e+12 -1.39141e+12 -1.41945e+12 -1.69297e+12 -1.77994e+12 -1.86865e+12 -1.95203e+12 -2.02956e+12 -2.09958e+12 -2.16293e+12 -2.31974e+12 -2.287e+12 -2.25369e+12 -2.20589e+12 -2.14078e+12 -2.05636e+12 -1.79258e+12 -3.02345e+12 -2.80792e+12 -2.85228e+12 -2.54169e+12 -2.28689e+12 -3.07916e+12 -2.21541e+12 -1.53699e+12 -860306000000.0 -1.31545e+12 -83020700000.0 -344913000000.0 -121326000000.0 -1.38962e+12 -831631000000.0 -1.19466e+12 -1.77435e+12 -2.0909e+12 -2.5448e+12 -1.1557e+12 -1.62553e+12 -2.32387e+12 -2.48114e+12 -2.60426e+12 -2.88125e+12 -1.50191e+12 -1.7522e+12 -1.87322e+12 -2.33402e+12 -2.31501e+12 -2.27908e+12 -2.23037e+12 -1.91079e+12 -1.84806e+12 -1.7803e+12 -1.70894e+12 -1.63518e+12 -1.56253e+12 -1.4959e+12 -902010000000.0 -629500000000.0 -986495000000.0 -1.43493e+12 -1.51373e+12 -1.47264e+12 -1.55822e+12 -1.52363e+12 -1.58789e+12 -1.53736e+12 -1.60572e+12 -1.55926e+12 -1.36181e+12 -535864000000.0 -872825000000.0 -1.47605e+12 -1.54218e+12 -1.61462e+12 -1.68943e+12 -1.76307e+12 -1.83306e+12 -1.89694e+12 -2.22058e+12 -2.27027e+12 -2.30652e+12 -2.32354e+12 -1.86191e+12 -1.74527e+12 -1.49508e+12 -2.86904e+12 -2.58835e+12 -2.48774e+12 -2.28322e+12 -1.67499e+12 -1.15187e+12 -2.53852e+12 -2.07577e+12 -1.76698e+12 -1.17232e+12 -812632000000.0 -1.43586e+12 -109957000000.0 -369032000000.0 -88455800000.0 -111477000000.0 -259378000000.0 -1.53066e+12 -1.57166e+12 -1.31831e+12 -1.69526e+12 -3.05794e+12 -283266000000.0 -1.92977e+12 -2.47334e+12 -2.38594e+12 -2.58893e+12 -1.946e+12 -2.0073e+12 -2.08997e+12 -2.11884e+12 -2.11877e+12 -2.1004e+12 -2.06748e+12 -2.02242e+12 -1.96918e+12 -1.60612e+12 -1.54363e+12 -1.47971e+12 -1.41645e+12 -1.35174e+12 -1.27608e+12 -1.12322e+12 -1.35521e+12 -1.45654e+12 -1.4795e+12 -1.4673e+12 -1.59302e+12 -1.19784e+12 -1.28642e+12 -1.33904e+12 -1.39861e+12 -1.46009e+12 -1.52316e+12 -1.5864e+12 -1.95552e+12 -2.00887e+12 -2.05563e+12 -2.09067e+12 -2.1083e+12 -2.10626e+12 -2.07639e+12 -1.98892e+12 -1.92979e+12 -2.58106e+12 -2.36717e+12 -2.45721e+12 -1.91834e+12 -347675000000.0 -3.06158e+12 -1.68087e+12 -1.28254e+12 -1.61865e+12 -1.58078e+12 -257322000000.0 -116180000000.0 -105229000000.0 -346909000000.0 -1.80847e+12 -1.65393e+12 -2.62168e+12 -1.49419e+12 -2.1371e+12 -2.07658e+12 -1.83128e+12 -2.14287e+12 -2.15795e+12 -1.21765e+12 -1.52682e+12 -1.61127e+12 -1.6547e+12 -1.85788e+12 -1.91312e+12 -1.92786e+12 -1.91971e+12 -1.89873e+12 -1.86687e+12 -1.82454e+12 -1.77492e+12 -1.72158e+12 -1.66567e+12 -1.39104e+12 -1.33869e+12 -1.2889e+12 -1.24442e+12 -1.20665e+12 -1.25043e+12 -1.49801e+12 -1.73793e+12 -1.60524e+12 -1.23527e+12 -1.40001e+12 -1.40722e+12 -1.44262e+12 -1.39385e+12 -1.77513e+12 -1.54492e+12 -1.22705e+12 -1.21302e+12 -1.22936e+12 -1.26834e+12 -1.31748e+12 -1.36943e+12 -1.64768e+12 -1.70494e+12 -1.75805e+12 -1.80757e+12 -1.85235e+12 -1.88798e+12 -1.90946e+12 -1.91593e+12 -1.90155e+12 -1.84697e+12 -1.62665e+12 -1.59587e+12 -1.51895e+12 -1.22086e+12 -2.15802e+12 -2.12927e+12 -1.78928e+12 -2.06403e+12 -2.10614e+12 -1.44457e+12 -2.599e+12 -1.59504e+12 -1.84703e+12 -342613000000.0 -110656000000.0 -76937700000.0 -371767000000.0 -553801000000.0 -1.87993e+12 -1.90877e+12 -1.41278e+12 -2.21804e+12 -1.71891e+12 -1.78567e+12 -1.63155e+12 -2.08911e+12 -1.25955e+12 -1.33298e+12 -1.31318e+12 -1.71614e+12 -1.74321e+12 -1.75523e+12 -1.74917e+12 -1.73183e+12 -1.70769e+12 -1.67542e+12 -1.63499e+12 -1.58954e+12 -1.54295e+12 -1.49488e+12 -1.44392e+12 -1.16833e+12 -1.12479e+12 -1.06443e+12 -938992000000.0 -849122000000.0 -515815000000.0 -1.48181e+12 -1.3849e+12 -1.30173e+12 -1.34656e+12 -1.28157e+12 -1.35198e+12 -1.30545e+12 -1.43568e+12 -1.59082e+12 -1.13504e+12 -625402000000.0 -1.06663e+12 -1.06858e+12 -1.10205e+12 -1.142e+12 -1.4225e+12 -1.47501e+12 -1.52469e+12 -1.57098e+12 -1.61548e+12 -1.65807e+12 -1.69467e+12 -1.72144e+12 -1.73832e+12 -1.74612e+12 -1.73987e+12 -1.72412e+12 -1.29455e+12 -1.31969e+12 -1.24549e+12 -2.08931e+12 -1.63854e+12 -1.78131e+12 -1.67386e+12 -2.19959e+12 -1.4113e+12 -1.8773e+12 -1.88974e+12 -551614000000.0 -368467000000.0 -78484700000.0 -121919000000.0 -294399000000.0 -727634000000.0 -1.4168e+12 -1.87998e+12 -1.68565e+12 -1.4785e+12 -1.82033e+12 -1.59675e+12 -1.78132e+12 -1.06444e+12 -1.04254e+12 -1.64666e+12 -1.62134e+12 -1.52318e+12 -1.49108e+12 -1.45335e+12 -1.41466e+12 -1.37618e+12 -1.3359e+12 -1.29309e+12 -1.24989e+12 -1.20829e+12 -1.47544e+12 -2.1008e+12 -2.1448e+12 -1.21416e+12 -1.23163e+12 -1.21413e+12 -1.23917e+12 -2.14268e+12 -2.26107e+12 -1.74503e+12 -1.18305e+12 -1.22607e+12 -1.2696e+12 -1.31352e+12 -1.35582e+12 -1.39502e+12 -1.43208e+12 -1.47036e+12 -1.50724e+12 -1.62293e+12 -1.6487e+12 -1.022e+12 -1.05868e+12 -1.77114e+12 -1.59815e+12 -1.78402e+12 -1.48373e+12 -1.66346e+12 -1.85559e+12 -1.33816e+12 -725358000000.0 -297586000000.0 -126986000000.0 -96403700000.0 -445031000000.0 -704855000000.0 -1.01541e+12 -1.20491e+12 -789402000000.0 -1.40861e+12 -1.27143e+12 -1.71624e+12 -1.52441e+12 -1.81726e+12 -1.28172e+12 -1.60664e+12 -1.59238e+12 -1.57163e+12 -1.54878e+12 -1.25101e+12 -1.22002e+12 -1.18667e+12 -1.15221e+12 -1.12046e+12 -1.09372e+12 -1.07599e+12 -1.08374e+12 -1.16528e+12 -1.54151e+12 -1.16756e+12 -1.16255e+12 -1.15751e+12 -1.39139e+12 -1.27018e+12 -1.03503e+12 -1.03645e+12 -1.06033e+12 -1.09141e+12 -1.12511e+12 -1.16074e+12 -1.1958e+12 -1.2297e+12 -1.53771e+12 -1.56109e+12 -1.58222e+12 -1.60198e+12 -1.26974e+12 -1.81822e+12 -1.49277e+12 -1.71423e+12 -1.26093e+12 -1.41776e+12 -836406000000.0 -1.16648e+12 -1.01009e+12 -702436000000.0 -438585000000.0 -97861200000.0 -105885000000.0 -353024000000.0 -858551000000.0 -949899000000.0 -1.38398e+12 -1.43416e+12 -1.47019e+12 -1.60506e+12 -1.04618e+12 -785798000000.0 -728012000000.0 -1.54957e+12 -1.51852e+12 -1.47727e+12 -1.44826e+12 -1.42012e+12 -1.39208e+12 -1.36734e+12 -1.34104e+12 -1.31176e+12 -1.28128e+12 -1.04474e+12 -1.0181e+12 -996628000000.0 -980116000000.0 -969960000000.0 -971675000000.0 -991832000000.0 -903497000000.0 -28785400000.0 -893605000000.0 -894889000000.0 -1.14981e+12 -1.15032e+12 -1.06916e+12 -1.05785e+12 -992084000000.0 -968086000000.0 -1.25903e+12 -407950000000.0 -830441000000.0 -519629000000.0 -657186000000.0 -842672000000.0 -917624000000.0 -958531000000.0 -985567000000.0 -1.01427e+12 -1.2594e+12 -1.28873e+12 -1.32157e+12 -1.35261e+12 -1.38068e+12 -1.40805e+12 -1.43922e+12 -1.47463e+12 -1.51811e+12 -1.54955e+12 -703439000000.0 -773842000000.0 -1.04968e+12 -1.62902e+12 -1.44827e+12 -1.42273e+12 -1.39867e+12 -969880000000.0 -834923000000.0 -347948000000.0 -107478000000.0 -550973000000.0 -623708000000.0 -780405000000.0 -1.51115e+12 -1.38036e+12 -1.27967e+12 -1.36559e+12 -1.32824e+12 -1.44996e+12 -1.42657e+12 -1.3666e+12 -1.31568e+12 -1.27758e+12 -1.24276e+12 -1.20991e+12 -1.18504e+12 -1.16195e+12 -1.14161e+12 -1.11998e+12 -1.09761e+12 -1.07216e+12 -877815000000.0 -870889000000.0 -863592000000.0 -855289000000.0 -808740000000.0 -526916000000.0 -175414000000.0 -1.14515e+12 -893133000000.0 -167198000000.0 -136832000000.0 -722300000000.0 -630183000000.0 -721095000000.0 -798642000000.0 -843654000000.0 -1.04111e+12 -1.07288e+12 -1.09807e+12 -1.11793e+12 -1.13721e+12 -1.1656e+12 -1.1953e+12 -1.22954e+12 -1.26808e+12 -1.30958e+12 -1.35999e+12 -1.42098e+12 -1.43324e+12 -1.33296e+12 -1.36424e+12 -1.28418e+12 -1.37463e+12 -1.50783e+12 -816099000000.0 -606248000000.0 -538482000000.0 -155283000000.0 -347232000000.0 -517633000000.0 -743305000000.0 -1.27898e+12 -1.18341e+12 -1.46646e+12 -1.05887e+12 -1.14184e+12 -1.52788e+12 -1.36146e+12 -2.10178e+12 -1.49751e+12 -1.29941e+12 -1.20095e+12 -1.14395e+12 -1.09948e+12 -1.05672e+12 -1.0191e+12 -998065000000.0 -993560000000.0 -983602000000.0 -970144000000.0 -952812000000.0 -929793000000.0 -908335000000.0 -888395000000.0 -1.00977e+12 -1.21993e+12 -843439000000.0 -979440000000.0 -1.03489e+12 -860706000000.0 -876620000000.0 -887393000000.0 -921984000000.0 -947083000000.0 -962572000000.0 -968757000000.0 -969783000000.0 -999017000000.0 -1.04373e+12 -1.08506e+12 -1.13497e+12 -1.19582e+12 -1.29287e+12 -1.4922e+12 -2.10325e+12 -1.34894e+12 -1.52535e+12 -1.14366e+12 -1.05281e+12 -1.46468e+12 -1.18309e+12 -1.27792e+12 -729938000000.0 -501476000000.0 -333051000000.0 -154362000000.0 -106998000000.0 -135811000000.0 -823659000000.0 -984385000000.0 -1.00056e+12 -1.26882e+12 -992314000000.0 -1.12555e+12 -995336000000.0 -841861000000.0 -839093000000.0 -830270000000.0 -813684000000.0 -788645000000.0 -776028000000.0 -761665000000.0 -769981000000.0 -772108000000.0 -762976000000.0 -725451000000.0 -590796000000.0 -919733000000.0 -809376000000.0 -958615000000.0 -1.08022e+12 -868606000000.0 -245799000000.0 -926843000000.0 -498846000000.0 -779541000000.0 -325751000000.0 -568507000000.0 -639113000000.0 -713599000000.0 -751252000000.0 -756460000000.0 -772418000000.0 -718095000000.0 -773246000000.0 -804098000000.0 -821234000000.0 -824620000000.0 -990044000000.0 -1.10663e+12 -978700000000.0 -1.26445e+12 -1.00602e+12 -992908000000.0 -815593000000.0 -138769000000.0 -104312000000.0 -233100000000.0 -297773000000.0 -161751000000.0 -292414000000.0 -764857000000.0 -763209000000.0 -950443000000.0 -981347000000.0 -621374000000.0 -1.38879e+12 -1.315e+12 -1.12687e+12 -1.04355e+12 -995254000000.0 -953980000000.0 -910431000000.0 -863242000000.0 -800356000000.0 -830929000000.0 -676588000000.0 -640761000000.0 -650512000000.0 -640317000000.0 -682223000000.0 -693087000000.0 -659588000000.0 -556529000000.0 -858504000000.0 -776504000000.0 -775552000000.0 -468359000000.0 -1.11989e+12 -819069000000.0 -596448000000.0 -624366000000.0 -774777000000.0 -368919000000.0 -559134000000.0 -658641000000.0 -735620000000.0 -627866000000.0 -717774000000.0 -541242000000.0 -628883000000.0 -802127000000.0 -759183000000.0 -846531000000.0 -901071000000.0 -942453000000.0 -988743000000.0 -1.04004e+12 -1.11708e+12 -1.30351e+12 -1.37023e+12 -617666000000.0 -1.00171e+12 -966847000000.0 -768880000000.0 -768778000000.0 -287888000000.0 -160831000000.0 -282975000000.0 -222591000000.0 -1.06068e+12 -799015000000.0 -1.02576e+12 -964615000000.0 -1.05094e+12 -785147000000.0 -720343000000.0 -822653000000.0 -833115000000.0 -820737000000.0 -800307000000.0 -772144000000.0 -731319000000.0 -664903000000.0 -657448000000.0 -698425000000.0 -709348000000.0 -708017000000.0 -697340000000.0 -502585000000.0 -643358000000.0 -630831000000.0 -843020000000.0 -622255000000.0 -977943000000.0 -801372000000.0 -558819000000.0 -532674000000.0 -668347000000.0 -691083000000.0 -702149000000.0 -702656000000.0 -666287000000.0 -648446000000.0 -723290000000.0 -767882000000.0 -794447000000.0 -818487000000.0 -827634000000.0 -809371000000.0 -699701000000.0 -781675000000.0 -1.05796e+12 -978815000000.0 -1.01993e+12 -801139000000.0 -1.05967e+12 -105012000000.0 -64535700000.0 -218741000000.0 -384521000000.0 -623937000000.0 -814281000000.0 -656765000000.0 -916140000000.0 -1.07685e+12 -941307000000.0 -728746000000.0 -425872000000.0 -641600000000.0 -616042000000.0 -641435000000.0 -629259000000.0 -638206000000.0 -615305000000.0 -572416000000.0 -551543000000.0 -568846000000.0 -587027000000.0 -591504000000.0 -583586000000.0 -566751000000.0 -540526000000.0 -467296000000.0 -581586000000.0 -522469000000.0 -738385000000.0 -696284000000.0 -696581000000.0 -901946000000.0 -568252000000.0 -82652700000.0 -578640000000.0 -405319000000.0 -388945000000.0 -467610000000.0 -749899000000.0 -663041000000.0 -427089000000.0 -515657000000.0 -547381000000.0 -568228000000.0 -582654000000.0 -588417000000.0 -576612000000.0 -554669000000.0 -555330000000.0 -611839000000.0 -639271000000.0 -638165000000.0 -645444000000.0 -605635000000.0 -619537000000.0 -432290000000.0 -726968000000.0 -952306000000.0 -1.08091e+12 -918812000000.0 -666140000000.0 -812753000000.0 -616790000000.0 -389754000000.0 -220209000000.0 -65145300000.0 -101708000000.0 -121130000000.0 -198982000000.0 -256782000000.0 -307215000000.0 -480941000000.0 -547163000000.0 -786101000000.0 -977870000000.0 -334612000000.0 -568889000000.0 -459079000000.0 -476073000000.0 -482066000000.0 -478740000000.0 -461726000000.0 -441862000000.0 -433074000000.0 -334327000000.0 -535006000000.0 -374647000000.0 -595980000000.0 -574951000000.0 -874842000000.0 -664735000000.0 -538314000000.0 -531503000000.0 -370812000000.0 -837940000000.0 -568119000000.0 -258473000000.0 -513918000000.0 -528954000000.0 -639625000000.0 -766738000000.0 -676221000000.0 -826593000000.0 -547429000000.0 -642103000000.0 -353261000000.0 -477908000000.0 -452100000000.0 -458724000000.0 -467561000000.0 -476977000000.0 -484029000000.0 -460649000000.0 -567565000000.0 -339483000000.0 -985734000000.0 -794097000000.0 -555186000000.0 -478154000000.0 -302160000000.0 -255582000000.0 -196905000000.0 -120916000000.0 -207157000000.0 -1.14725e+12 -38727900000.0 -412206000000.0 -487380000000.0 -511072000000.0 -496137000000.0 -516868000000.0 -520099000000.0 -490899000000.0 -445027000000.0 -319514000000.0 -335891000000.0 -430900000000.0 -216029000000.0 -505695000000.0 -273965000000.0 -376995000000.0 -683024000000.0 -669035000000.0 -264256000000.0 -269093000000.0 -167927000000.0 -666194000000.0 -658084000000.0 -830107000000.0 -482827000000.0 -560057000000.0 -251869000000.0 -551245000000.0 -426009000000.0 -360072000000.0 -449010000000.0 -473775000000.0 -514930000000.0 -529718000000.0 -506858000000.0 -507328000000.0 -473810000000.0 -414054000000.0 -39120800000.0 -1.15402e+12 -204525000000.0 -40093100000.0 -80653100000.0 -163022000000.0 -364644000000.0 -372052000000.0 -519684000000.0 -711966000000.0 -965386000000.0 -214337000000.0 -433247000000.0 -300266000000.0 -385110000000.0 -395123000000.0 -408164000000.0 -415657000000.0 -409811000000.0 -336257000000.0 -344529000000.0 -355631000000.0 -372947000000.0 -361113000000.0 -360729000000.0 -17223200000.0 -685573000000.0 -686306000000.0 -438399000000.0 -469053000000.0 -537551000000.0 -327745000000.0 -353331000000.0 -346793000000.0 -365032000000.0 -357418000000.0 -347903000000.0 -344926000000.0 -402266000000.0 -427038000000.0 -419915000000.0 -400313000000.0 -377261000000.0 -304300000000.0 -429231000000.0 -214203000000.0 -971252000000.0 -714642000000.0 -524333000000.0 -378816000000.0 -362269000000.0 -164432000000.0 -79680500000.0 -40475000000.0 -37728200000.0 -69955100000.0 -91369300000.0 -217506000000.0 -324339000000.0 -447352000000.0 -602104000000.0 -715494000000.0 -451153000000.0 -212894000000.0 -204724000000.0 -190193000000.0 -211298000000.0 -273282000000.0 -325825000000.0 -331541000000.0 -320305000000.0 -269881000000.0 -314320000000.0 -358957000000.0 -404174000000.0 -443812000000.0 -427308000000.0 -420901000000.0 -409772000000.0 -426324000000.0 -530216000000.0 -426423000000.0 -510427000000.0 -506687000000.0 -416605000000.0 -109607000000.0 -456075000000.0 -292626000000.0 -358422000000.0 -269750000000.0 -299284000000.0 -292863000000.0 -361307000000.0 -337794000000.0 -159808000000.0 -316438000000.0 -118401000000.0 -281204000000.0 -455453000000.0 -501626000000.0 -459986000000.0 -560114000000.0 -455950000000.0 -427411000000.0 -441377000000.0 -452549000000.0 -471959000000.0 -443156000000.0 -406311000000.0 -369883000000.0 -317326000000.0 -329698000000.0 -336151000000.0 -333794000000.0 -271864000000.0 -214589000000.0 -188164000000.0 -203044000000.0 -212444000000.0 -453795000000.0 -721467000000.0 -605820000000.0 -447668000000.0 -326262000000.0 -216479000000.0 -90164100000.0 -68863500000.0 -38415700000.0 -40389300000.0 -108338000000.0 -162641000000.0 -260149000000.0 -305943000000.0 -302234000000.0 -154165000000.0 -272703000000.0 -326369000000.0 -358272000000.0 -142554000000.0 -235232000000.0 -23035500000.0 -149996000000.0 -272942000000.0 -284889000000.0 -89080400000.0 -71691700000.0 -453090000000.0 -264195000000.0 -310002000000.0 -347065000000.0 -163500000000.0 -213576000000.0 -128836000000.0 -307766000000.0 -215421000000.0 -327252000000.0 -322517000000.0 -302395000000.0 -151399000000.0 -304491000000.0 -310071000000.0 -261315000000.0 -163309000000.0 -108522000000.0 -40496900000.0 -375805000000.0 -474125000000.0 -488169000000.0 -83812500000.0 -116161000000.0 -48997200000.0 -108798000000.0 -198921000000.0 -262867000000.0 -245498000000.0 -225554000000.0 -205772000000.0 -206934000000.0 -222654000000.0 -225485000000.0 -80981200000.0 -118682000000.0 -51650900000.0 -102642000000.0 -361549000000.0 -314590000000.0 -270140000000.0 -244799000000.0 -269904000000.0 -269239000000.0 -251164000000.0 -262542000000.0 -244850000000.0 -232800000000.0 -239089000000.0 -266020000000.0 -212137000000.0 -109525000000.0 -50301800000.0 -116324000000.0 -84798900000.0 -492721000000.0 -476875000000.0 -377519000000.0 -18044200000.0 -62418900000.0 -94749700000.0 -264624000000.0 -393354000000.0 -462918000000.0 -522333000000.0 -53674000000.0 -85268400000.0 -130391000000.0 -67533000000.0 -55219900000.0 -22535400000.0 -35574400000.0 -196540000000.0 -314284000000.0 -317551000000.0 -296383000000.0 -281687000000.0 -298721000000.0 -310417000000.0 -339265000000.0 -379075000000.0 -435879000000.0 -498288000000.0 -371505000000.0 -397445000000.0 -353815000000.0 -355865000000.0 -389309000000.0 -348523000000.0 -293034000000.0 -378271000000.0 -215072000000.0 -189787000000.0 -180048000000.0 -87110100000.0 -174783000000.0 -259042000000.0 -83051500000.0 -163322000000.0 -73499800000.0 -73875200000.0 -100390000000.0 -118070000000.0 -117791000000.0 -161069000000.0 -178409000000.0 -246521000000.0 -221119000000.0 -301535000000.0 -295418000000.0 -278006000000.0 -245322000000.0 -223665000000.0 -245161000000.0 -256602000000.0 -269044000000.0 -291316000000.0 -295076000000.0 -194390000000.0 -40179200000.0 -22901900000.0 -56172900000.0 -69753200000.0 -138587000000.0 -84344800000.0 -54881200000.0 -526737000000.0 -467204000000.0 -396985000000.0 -264802000000.0 -93325200000.0 -60593400000.0 -16883700000.0 -58930900000.0 -92033800000.0 -206141000000.0 -302218000000.0 -66876200000.0 -91080500000.0 -106447000000.0 -16239800000.0 -15757800000.0 -16216400000.0 -130982000000.0 -35889200000.0 -89519400000.0 -160182000000.0 -97472600000.0 -72669900000.0 -50414400000.0 -27301800000.0 -32185500000.0 -42607800000.0 -44385400000.0 -303295000000.0 -206312000000.0 -91959400000.0 -58879700000.0 -25822200000.0 -347983000000.0 -412952000000.0 -30917000000.0 -40165600000.0 -105513000000.0 -54342700000.0 -77076500000.0 -97996600000.0 -114960000000.0 -153204000000.0 -147802000000.0 -183434000000.0 -188286000000.0 -200873000000.0 -178214000000.0 -154983000000.0 -53243400000.0 -33649100000.0 -74137000000.0 -153435000000.0 -78773800000.0 -46547300000.0 -108507000000.0 -34269600000.0 -248968000000.0 -158943000000.0 -124059000000.0 -110706000000.0 -80965600000.0 -43498300000.0 -14999200000.0 -42737000000.0 -158785000000.0 -156162000000.0 -173000000000.0 -163360000000.0 -155038000000.0 -114087000000.0 -103345000000.0 -84525400000.0 -72595800000.0 -58460400000.0 -39919500000.0 -100567000000.0 -34124300000.0 -32171700000.0 -415798000000.0 -349671000000.0 -25770400000.0 -9526400000.0 -9308450000.0 -9752180000.0 -61580000000.0 -156514000000.0 -234184000000.0 -393338000000.0 -115873000000.0 -74088300000.0 -105006000000.0 -48622900000.0 -33733800000.0 -18868700000.0 -16991000000.0 -62220400000.0 -81311000000.0 -130093000000.0 -133044000000.0 -147984000000.0 -142875000000.0 -152268000000.0 -131293000000.0 -151423000000.0 -177037000000.0 -190577000000.0 -147771000000.0 -122486000000.0 -185178000000.0 -128867000000.0 -258592000000.0 -125218000000.0 -190122000000.0 -196134000000.0 -138550000000.0 -120329000000.0 -176570000000.0 -112995000000.0 -114323000000.0 -200277000000.0 -28620500000.0 -11555800000.0 -21439100000.0 -12242700000.0 -44896200000.0 -12987700000.0 -46460400000.0 -18419900000.0 -29787900000.0 -29076000000.0 -36630000000.0 -51662100000.0 -66122900000.0 -74072900000.0 -75417500000.0 -130991000000.0 -111710000000.0 -115970000000.0 -106286000000.0 -112523000000.0 -78117900000.0 -53408100000.0 -21964000000.0 -19122900000.0 -34126200000.0 -49125200000.0 -108955000000.0 -74195100000.0 -119154000000.0 -395721000000.0 -235699000000.0 -157696000000.0 -62001000000.0 -9765050000.0 -9308950000.0 -9528630000.0 -15744500000.0 -51152100000.0 -12822300000.0 -17128600000.0 -23898900000.0 -57692400000.0 -150345000000.0 -205716000000.0 -302118000000.0 -49172300000.0 -12837000000.0 -49435800000.0 -13500200000.0 -17385700000.0 -22536000000.0 -35644300000.0 -67651400000.0 -77269500000.0 -93825700000.0 -78746000000.0 -77856500000.0 -64973000000.0 -68025800000.0 -56089900000.0 -64905300000.0 -73583900000.0 -71301800000.0 -46907400000.0 -9444900000.0 -79556600000.0 -10294800000.0 -148054000000.0 -12927900000.0 -86410700000.0 -66580900000.0 -47981600000.0 -14706600000.0 -91723900000.0 -41248300000.0 -162739000000.0 -79472100000.0 -60590800000.0 -68734000000.0 -82757400000.0 -45407600000.0 -79951600000.0 -39577500000.0 -44223600000.0 -31328100000.0 -31885700000.0 -27247100000.0 -40838600000.0 -52029400000.0 -50278500000.0 -77559400000.0 -73530500000.0 -83460800000.0 -80997600000.0 -97557500000.0 -77221900000.0 -62024100000.0 -40209100000.0 -23531100000.0 -17780900000.0 -13710000000.0 -52282100000.0 -12913400000.0 -51743900000.0 -304422000000.0 -207211000000.0 -151440000000.0 -58156500000.0 -24059900000.0 -17198400000.0 -12848700000.0 -11397500000.0 -10399500000.0 -12448400000.0 -22595000000.0 -104068000000.0 -159358000000.0 -259324000000.0 -66846700000.0 -18861200000.0 -42799500000.0 -11319500000.0 -13209300000.0 -17231200000.0 -31249000000.0 -56793300000.0 -70334300000.0 -75970400000.0 -67297900000.0 -71130200000.0 -66963200000.0 -73401000000.0 -66426900000.0 -74927800000.0 -75453700000.0 -70533800000.0 -58363200000.0 -22430700000.0 -88615600000.0 -26652300000.0 -146807000000.0 -27766200000.0 -105683000000.0 -69261600000.0 -68973300000.0 -39628600000.0 -107115000000.0 -33416700000.0 -69869100000.0 -132351000000.0 -28158800000.0 -10069800000.0 -27722800000.0 -10200000000.0 -48444800000.0 -10011200000.0 -52679600000.0 -9402750000.0 -20816400000.0 -9583180000.0 -17172300000.0 -10891400000.0 -27875800000.0 -45545500000.0 -46059000000.0 -59325000000.0 -57450000000.0 -66221500000.0 -62862300000.0 -74683900000.0 -64253200000.0 -48892400000.0 -34142900000.0 -17497500000.0 -12866700000.0 -11210300000.0 -44729400000.0 -18919600000.0 -68954800000.0 -261244000000.0 -160389000000.0 -104702000000.0 -22902000000.0 -12506300000.0 -10400700000.0 -11407400000.0 -12255100000.0 -10922500000.0 -13630000000.0 -13336300000.0 -84343200000.0 -135809000000.0 -222874000000.0 -73100300000.0 -19769500000.0 -35379300000.0 -10765600000.0 -14127900000.0 -20568200000.0 -37270600000.0 -57785900000.0 -70999900000.0 -70418700000.0 -63893500000.0 -67797100000.0 -63236800000.0 -66367900000.0 -58706000000.0 -64546700000.0 -57483200000.0 -49028200000.0 -45788700000.0 -9035750000.0 -69553800000.0 -9035750000.0 -116784000000.0 -9551910000.0 -86051300000.0 -34859700000.0 -48114200000.0 -16232400000.0 -84907400000.0 -10975800000.0 -55783400000.0 -121960000000.0 -50182700000.0 -28340700000.0 -46203500000.0 -24358100000.0 -62112200000.0 -21649200000.0 -64228300000.0 -18825000000.0 -30131700000.0 -15785700000.0 -22763100000.0 -12382100000.0 -24444900000.0 -44521900000.0 -45201800000.0 -54563600000.0 -54051700000.0 -61745700000.0 -58674900000.0 -67077800000.0 -65567200000.0 -50338600000.0 -39424700000.0 -21004500000.0 -13964000000.0 -10637900000.0 -36613900000.0 -19814100000.0 -74728900000.0 -224485000000.0 -136672000000.0 -84796500000.0 -13577100000.0 -13704400000.0 -10923800000.0 -12267600000.0 -13026200000.0 -11396200000.0 -14638800000.0 -10218400000.0 -68142900000.0 -114693000000.0 -190601000000.0 -79335500000.0 -23083800000.0 -30270100000.0 -10740900000.0 -14557700000.0 -22112300000.0 -39481800000.0 -55787900000.0 -69105000000.0 -69484600000.0 -65773900000.0 -69906600000.0 -64455600000.0 -65827100000.0 -57991500000.0 -62272100000.0 -50341600000.0 -40302400000.0 -44004300000.0 -9035750000.0 -64509400000.0 -9035750000.0 -103341000000.0 -9035750000.0 -83844600000.0 -26521500000.0 -50581700000.0 -22322200000.0 -85117500000.0 -12559000000.0 -60455800000.0 -99597000000.0 -33000300000.0 -9367330000.0 -31652700000.0 -9228410000.0 -49539300000.0 -9035750000.0 -53215100000.0 -9035750000.0 -23401000000.0 -9035750000.0 -19251100000.0 -9035750000.0 -19968000000.0 -42775300000.0 -44819500000.0 -54559400000.0 -55249800000.0 -62822800000.0 -59732200000.0 -64443900000.0 -64383700000.0 -49655700000.0 -41496400000.0 -22878500000.0 -14573800000.0 -10748100000.0 -31141300000.0 -23184500000.0 -80567000000.0 -191944000000.0 -115396000000.0 -68455900000.0 -10310100000.0 -14726300000.0 -11397600000.0 -13040700000.0 -13695100000.0 -11812900000.0 -15453400000.0 -9662300000.0 -55129900000.0 -96610300000.0 -161768000000.0 -82290800000.0 -25987300000.0 -26153500000.0 -11168000000.0 -15615300000.0 -24225700000.0 -41511300000.0 -54409100000.0 -67406000000.0 -69635500000.0 -67636900000.0 -71233100000.0 -64519800000.0 -64384200000.0 -56216100000.0 -59028000000.0 -44098700000.0 -33004300000.0 -42016900000.0 -9035750000.0 -59847100000.0 -9035750000.0 -92130700000.0 -9035750000.0 -80146700000.0 -17393300000.0 -47024300000.0 -20023600000.0 -80457100000.0 -9357640000.0 -65290100000.0 -96607900000.0 -41738200000.0 -14160000000.0 -36145000000.0 -11304200000.0 -49662900000.0 -9035750000.0 -51455300000.0 -9035750000.0 -24049000000.0 -9035750000.0 -20243000000.0 -9035750000.0 -17882300000.0 -41416800000.0 -44053000000.0 -54201300000.0 -56074400000.0 -64456100000.0 -61921400000.0 -64535100000.0 -63027700000.0 -49277800000.0 -43151900000.0 -25056800000.0 -15632700000.0 -11174400000.0 -26725300000.0 -26104300000.0 -83232200000.0 -162886000000.0 -97157000000.0 -55347900000.0 -9682490000.0 -15549200000.0 -11814300000.0 -13711200000.0 -14249300000.0 -12165500000.0 -16057900000.0 -9680200000.0 -44943200000.0 -81247500000.0 -136539000000.0 -82559700000.0 -28329600000.0 -22825100000.0 -11549400000.0 -16492600000.0 -25801600000.0 -42287200000.0 -52500100000.0 -65008900000.0 -69106900000.0 -68426900000.0 -71403500000.0 -63705400000.0 -62386700000.0 -53723300000.0 -55144000000.0 -38745400000.0 -27062800000.0 -39925700000.0 -9035750000.0 -55514000000.0 -9035750000.0 -82469200000.0 -9035750000.0 -76338500000.0 -12501100000.0 -46166400000.0 -21275000000.0 -78206900000.0 -9819680000.0 -67606600000.0 -82678100000.0 -38033400000.0 -9065010000.0 -33268800000.0 -9035750000.0 -48153600000.0 -9035750000.0 -49037200000.0 -9035750000.0 -24435200000.0 -9035750000.0 -20951700000.0 -9035750000.0 -16248200000.0 -39521700000.0 -42685300000.0 -53306700000.0 -56124300000.0 -65242800000.0 -63286000000.0 -64526700000.0 -60984000000.0 -48304000000.0 -43622800000.0 -26672300000.0 -16515800000.0 -11555600000.0 -23210500000.0 -28454100000.0 -83303000000.0 -137449000000.0 -81661000000.0 -45105300000.0 -9683680000.0 -16156800000.0 -12166800000.0 -14266400000.0 -14679900000.0 -12447900000.0 -16448600000.0 -9760530000.0 -37123900000.0 -68355500000.0 -114894000000.0 -80752300000.0 -30087100000.0 -20225500000.0 -11863800000.0 -17206100000.0 -26911900000.0 -42137000000.0 -50332100000.0 -62194900000.0 -67839700000.0 -68104000000.0 -70458000000.0 -62079600000.0 -59860500000.0 -50703700000.0 -50891500000.0 -34196800000.0 -22339500000.0 -37796400000.0 -9035750000.0 -51462900000.0 -9035750000.0 -74108300000.0 -9035750000.0 -71994300000.0 -9882220000.0 -45054800000.0 -21879000000.0 -75917900000.0 -9035750000.0 -69309400000.0 -74967300000.0 -40040600000.0 -9116850000.0 -33481100000.0 -9035750000.0 -46885900000.0 -9035750000.0 -46229400000.0 -9035750000.0 -24563200000.0 -9035750000.0 -21366400000.0 -9035750000.0 -15013500000.0 -37270800000.0 -40845500000.0 -51835900000.0 -55346300000.0 -64954400000.0 -63543900000.0 -63815100000.0 -58524100000.0 -46944700000.0 -43201500000.0 -27777000000.0 -17231600000.0 -11869500000.0 -20493700000.0 -30213800000.0 -81353500000.0 -115613000000.0 -68668000000.0 -37255800000.0 -9761640000.0 -16546500000.0 -12449200000.0 -14697400000.0 -14981700000.0 -12655800000.0 -16634200000.0 -9826010000.0 -31192300000.0 -57639600000.0 -96587300000.0 -77424200000.0 -31268200000.0 -18237800000.0 -12106100000.0 -17736300000.0 -27537400000.0 -41217400000.0 -47941100000.0 -59043500000.0 -65863300000.0 -66779900000.0 -68566600000.0 -59788200000.0 -56910700000.0 -47356300000.0 -46506200000.0 -30360200000.0 -18662400000.0 -35668200000.0 -9035750000.0 -47652200000.0 -9035750000.0 -66794000000.0 -9035750000.0 -67283500000.0 -9155230000.0 -43701700000.0 -21959300000.0 -73312600000.0 -9035750000.0 -70622100000.0 -67655400000.0 -41523900000.0 -9164670000.0 -33353100000.0 -9035750000.0 -45260200000.0 -9035750000.0 -43241000000.0 -9035750000.0 -24446700000.0 -9035750000.0 -21498500000.0 -9035750000.0 -14106400000.0 -34817100000.0 -38678100000.0 -49878500000.0 -53860300000.0 -63704100000.0 -62765600000.0 -62336600000.0 -55737700000.0 -45250100000.0 -42055700000.0 -28365900000.0 -17763400000.0 -12111300000.0 -18428800000.0 -31392900000.0 -77917300000.0 -97142300000.0 -57878600000.0 -31308000000.0 -9826830000.0 -16728700000.0 -12657100000.0 -14999300000.0 -15153000000.0 -12786400000.0 -16631900000.0 -9870060000.0 -26724200000.0 -48816700000.0 -81259100000.0 -73038900000.0 -31891600000.0 -16726100000.0 -12272900000.0 -18076800000.0 -27704100000.0 -39709800000.0 -45383000000.0 -55655900000.0 -63258600000.0 -64593100000.0 -65894800000.0 -56963900000.0 -53635900000.0 -43845600000.0 -42172800000.0 -27144100000.0 -15862300000.0 -33561400000.0 -9035750000.0 -44045900000.0 -9035750000.0 -60310000000.0 -9035750000.0 -62369100000.0 -9046260000.0 -42120300000.0 -21610200000.0 -70343600000.0 -9035750000.0 -70840000000.0 -60799800000.0 -42347500000.0 -9206210000.0 -32894200000.0 -9035750000.0 -43316500000.0 -9035750000.0 -40213600000.0 -9035750000.0 -24100800000.0 -9035750000.0 -21379600000.0 -9035750000.0 -13448000000.0 -32283100000.0 -36305800000.0 -47525400000.0 -51788600000.0 -61640000000.0 -61086900000.0 -60177100000.0 -52714100000.0 -43281400000.0 -40362000000.0 -28473600000.0 -18104800000.0 -12277500000.0 -16863800000.0 -32010800000.0 -73447100000.0 -81683200000.0 -49003300000.0 -26830200000.0 -9870750000.0 -16721300000.0 -12787600000.0 -15170200000.0 -15195200000.0 -12838600000.0 -16462600000.0 -9893210000.0 -23364400000.0 -41612900000.0 -68508700000.0 -67961500000.0 -31983800000.0 -15569500000.0 -12362600000.0 -18225000000.0 -27451800000.0 -37771100000.0 -42697600000.0 -52108800000.0 -60116200000.0 -61685900000.0 -62593000000.0 -53726700000.0 -50127200000.0 -40299400000.0 -38021700000.0 -24454100000.0 -13783000000.0 -31483900000.0 -9035750000.0 -40615200000.0 -9035750000.0 -54486300000.0 -9035750000.0 -57385200000.0 -9036370000.0 -40320200000.0 -20928700000.0 -66987600000.0 -9035750000.0 -54432400000.0 -42478800000.0 -9239640000.0 -32123300000.0 -9035750000.0 -41099900000.0 -9035750000.0 -37230700000.0 -9035750000.0 -23544400000.0 -9035750000.0 -21044200000.0 -9035750000.0 -12966400000.0 -29760500000.0 -33827200000.0 -44863800000.0 -49246900000.0 -58904700000.0 -58649900000.0 -57439300000.0 -49519100000.0 -41086700000.0 -38271900000.0 -28147000000.0 -18253400000.0 -12366500000.0 -15669500000.0 -32095400000.0 -68301600000.0 -68832700000.0 -41762900000.0 -23462800000.0 -9893780000.0 -16545600000.0 -12839700000.0 -15211500000.0 -69988400000.0 -15112300000.0 -12812700000.0 -16149100000.0 -9896300000.0 -20816100000.0 -35754400000.0 -57944900000.0 -62472500000.0 -31579400000.0 -14668500000.0 -12375800000.0 -18182000000.0 -26827800000.0 -35531900000.0 -39915900000.0 -48456400000.0 -56531800000.0 -58196700000.0 -58795600000.0 -50182600000.0 -46466200000.0 -36811500000.0 -34135200000.0 -22195500000.0 -12279300000.0 -29436700000.0 -9035750000.0 -37337700000.0 -9035750000.0 -49190700000.0 -9035750000.0 -52433000000.0 -9035780000.0 -38308300000.0 -20014000000.0 -63254400000.0 -9035750000.0 -68125200000.0 -48571300000.0 -41934900000.0 -9263700000.0 -31059700000.0 -9035750000.0 -38664900000.0 -9035750000.0 -34336000000.0 -9035750000.0 -22799500000.0 -9035750000.0 -20522800000.0 -9035750000.0 -12600400000.0 -27314300000.0 -31318300000.0 -41973300000.0 -46339700000.0 -55629200000.0 -55592400000.0 -54225000000.0 -46199900000.0 -38706500000.0 -35911000000.0 -27439900000.0 -18210000000.0 -12379000000.0 -14741400000.0 -31681900000.0 -62757100000.0 -58193900000.0 -35878500000.0 -20907200000.0 -9896780000.0 -16224800000.0 -12813700000.0 -15127700000.0 -14910900000.0 -12710900000.0 -15714600000.0 -9880160000.0 -18839300000.0 -30983300000.0 -49205500000.0 -56786500000.0 -30719900000.0 -13943500000.0 -12314400000.0 -25882700000.0 -33097200000.0 -37063400000.0 -44736600000.0 -52597700000.0 -54253200000.0 -54620300000.0 -46423100000.0 -42722000000.0 -33445200000.0 -30557000000.0 -20279600000.0 -11219500000.0 -27417600000.0 -9035750000.0 -34197100000.0 -9035750000.0 -44320300000.0 -9035750000.0 -47583500000.0 -9035750000.0 -36095100000.0 -18952200000.0 -59164400000.0 -9035750000.0 -43201600000.0 -40755000000.0 -9277690000.0 -29725800000.0 -9035750000.0 -36061300000.0 -9035750000.0 -31548700000.0 -9035750000.0 -21890000000.0 -9035750000.0 -19842000000.0 -9035750000.0 -12299700000.0 -24986100000.0 -28834200000.0 -38923900000.0 -43158200000.0 -51930100000.0 -52041700000.0 -50628900000.0 -42791100000.0 -36175800000.0 -33379700000.0 -26409700000.0 -12317000000.0 -13996800000.0 -30812600000.0 -57025100000.0 -49398800000.0 -31088400000.0 -18922600000.0 -9880560000.0 -15782200000.0 -12711800000.0 -14925100000.0 -17951900000.0 -65319600000.0 -17979000000.0 -14599200000.0 -12536400000.0 -15181600000.0 -9845740000.0 -17250600000.0 -27075200000.0 -41960400000.0 -51064900000.0 -29451800000.0 -13333300000.0 -12181800000.0 -17542700000.0 -24667800000.0 -30548100000.0 -34160300000.0 -40976500000.0 -48397000000.0 -49967800000.0 -50167400000.0 -42523500000.0 -38951000000.0 -30238600000.0 -27300900000.0 -18628400000.0 -10490000000.0 -25422400000.0 -9035750000.0 -31180500000.0 -9035750000.0 -39796000000.0 -9035750000.0 -42882000000.0 -9035750000.0 -33697000000.0 -17811600000.0 -54743900000.0 -9035750000.0 -61656300000.0 -38286900000.0 -38989200000.0 -9281540000.0 -28148400000.0 -9035750000.0 -33332900000.0 -9035750000.0 -28872100000.0 -9035750000.0 -20839800000.0 -9035750000.0 -19025100000.0 -9035750000.0 -12025800000.0 -22799000000.0 -26411600000.0 -35774100000.0 -39779100000.0 -47907500000.0 -48110700000.0 -46735000000.0 -39318400000.0 -33525000000.0 -30755200000.0 -25113700000.0 -17568300000.0 -12184000000.0 -13372200000.0 -29534300000.0 -51264700000.0 -42112200000.0 -27165300000.0 -17324900000.0 -9846080000.0 -15241000000.0 -12537200000.0 -14612200000.0 -35195800000.0 -24358600000.0 -9998330000.0 -9035750000.0 -9035750000.0 -9035750000.0 -9035750000.0 -16644100000.0 -9035750000.0 -33787400000.0 -9275660000.0 -9035750000.0 -9035750000.0 -9035750000.0 -9035750000.0 -9035750000.0 -20760500000.0 -32570600000.0 -14186500000.0 -12294000000.0 -14571600000.0 -9794160000.0 -15918300000.0 -23839800000.0 -35913900000.0 -45424200000.0 -27824400000.0 -12792400000.0 -11982200000.0 -16965100000.0 -23232300000.0 -27944900000.0 -31222600000.0 -37195100000.0 -44000700000.0 -45435600000.0 -45519500000.0 -38544100000.0 -27209100000.0 -17177200000.0 -23446900000.0 -28276900000.0 -35556600000.0 -38352800000.0 -31135000000.0 -50024500000.0 -57227200000.0 -36693800000.0 -26356900000.0 -30518400000.0 -26299400000.0 -19671800000.0 -18092200000.0 -11752300000.0 -24071500000.0 -36265300000.0 -43645200000.0 -43895500000.0 -42615800000.0 -35800700000.0 -30780200000.0 -28094100000.0 -23604300000.0 -16988700000.0 -11984100000.0 -12820700000.0 -27896700000.0 -45590900000.0 -36034500000.0 -23917400000.0 -15982600000.0 -9794440000.0 -14622600000.0 -12294700000.0 -14198100000.0 -13683000000.0 -11989400000.0 -13903600000.0 -9726740000.0 -14755500000.0 -21117100000.0 -30810000000.0 -39941900000.0 -25887500000.0 -12288400000.0 -11720900000.0 -16232700000.0 -21620300000.0 -25329500000.0 -28262700000.0 -33405100000.0 -39467100000.0 -40733000000.0 -40741900000.0 -34530300000.0 -31486400000.0 -24358500000.0 -21706800000.0 -15874200000.0 -9672230000.0 -21487100000.0 -9035750000.0 -25476000000.0 -9035750000.0 -31553700000.0 -9035750000.0 -34002000000.0 -9035750000.0 -28432100000.0 -15487200000.0 -45041800000.0 -9035750000.0 -52122200000.0 -29665000000.0 -33928300000.0 -9260910000.0 -24381000000.0 -9035750000.0 -27651200000.0 -9035750000.0 -23818200000.0 -9035750000.0 -18407500000.0 -9035750000.0 -17061200000.0 -9035750000.0 -11462700000.0 -18867200000.0 -21822900000.0 -29349100000.0 -32666100000.0 -39211000000.0 -39475100000.0 -38331000000.0 -32251500000.0 -27964100000.0 -25434900000.0 -21926300000.0 -16254000000.0 -11722400000.0 -12308800000.0 -25949900000.0 -40079900000.0 -30906400000.0 -21183400000.0 -14809400000.0 -9726970000.0 -13946500000.0 -11990000000.0 -13693100000.0 -13099600000.0 -11629200000.0 -13194100000.0 -9645050000.0 -13709200000.0 -18773900000.0 -26434000000.0 -34661400000.0 -23690000000.0 -11799300000.0 -11403800000.0 -15361700000.0 -19869600000.0 -22728100000.0 -25289700000.0 -29614800000.0 -34841400000.0 -35919200000.0 -35884100000.0 -30514500000.0 -27840800000.0 -21676900000.0 -19312400000.0 -14679200000.0 -9457780000.0 -19539700000.0 -9035750000.0 -22766900000.0 -9035750000.0 -27747300000.0 -9035750000.0 -29822200000.0 -9035750000.0 -25611400000.0 -14365400000.0 -39833200000.0 -9035750000.0 -46430800000.0 -25879400000.0 -30755000000.0 -9238400000.0 -22249900000.0 -9035750000.0 -24757600000.0 -9035750000.0 -21413500000.0 -9035750000.0 -17066200000.0 -9035750000.0 -15948200000.0 -9035750000.0 -11148200000.0 -17107700000.0 -19665700000.0 -26134300000.0 -29019200000.0 -34658300000.0 -34912000000.0 -33928100000.0 -28680300000.0 -25095200000.0 -22801100000.0 -20116700000.0 -15380200000.0 -11405100000.0 -11813800000.0 -23742700000.0 -34773900000.0 -26510900000.0 -18829500000.0 -13752900000.0 -9645250000.0 -13229200000.0 -11629700000.0 -13108200000.0 -12447900000.0 -11220700000.0 -12456400000.0 -9550890000.0 -12748100000.0 -16703300000.0 -22609600000.0 -29597000000.0 -21278600000.0 -11310900000.0 -11038100000.0 -14370000000.0 -18011500000.0 -20155000000.0 -22310200000.0 -25828900000.0 -30157300000.0 -31037700000.0 -30981800000.0 -26517000000.0 -24266700000.0 -19146100000.0 -17136800000.0 -13561600000.0 -9316120000.0 -17602000000.0 -9035750000.0 -20137800000.0 -9035750000.0 -24102900000.0 -9035750000.0 -25795600000.0 -9035750000.0 -22694700000.0 -13291900000.0 -34436200000.0 -9035750000.0 -40243900000.0 -22386400000.0 -27237000000.0 -9209440000.0 -19991400000.0 -9035750000.0 -21856700000.0 -9035750000.0 -19070100000.0 -9035750000.0 -15664900000.0 -9035750000.0 -14768000000.0 -9035750000.0 -10806000000.0 -15465600000.0 -17593100000.0 -22941500000.0 -25351000000.0 -30027700000.0 -30253500000.0 -29443800000.0 -25094000000.0 -22188800000.0 -20204300000.0 -18205600000.0 -14385500000.0 -11039100000.0 -11321000000.0 -21321600000.0 -29686300000.0 -22669900000.0 -16748500000.0 -12782200000.0 -9551050000.0 -12484200000.0 -11221100000.0 -12455000000.0 -11739800000.0 -10772000000.0 -11700700000.0 -9446250000.0 -11851400000.0 -14822700000.0 -19192800000.0 -24739000000.0 -18697300000.0 -10815400000.0 -10631500000.0 -13277600000.0 -16072200000.0 -17615100000.0 -19328700000.0 -22049400000.0 -25438100000.0 -26118500000.0 -26059100000.0 -22548300000.0 -20762900000.0 -16742900000.0 -15139300000.0 -12498600000.0 -9220240000.0 -15671600000.0 -9035750000.0 -17575500000.0 -9035750000.0 -20588700000.0 -9035750000.0 -21898500000.0 -9035750000.0 -19702400000.0 -12270200000.0 -28887300000.0 -9035750000.0 -33652700000.0 -19136800000.0 -23437600000.0 -9175380000.0 -17631600000.0 -9035750000.0 -18960800000.0 -9035750000.0 -16773700000.0 -9035750000.0 -14218400000.0 -9035750000.0 -13534200000.0 -9035750000.0 -10437600000.0 -13921200000.0 -15593800000.0 -19777900000.0 -21678400000.0 -25348500000.0 -25534200000.0 -24905100000.0 -21497400000.0 -19256700000.0 -17647200000.0 -16218100000.0 -13289800000.0 -10632300000.0 -10822300000.0 -18730700000.0 -24806800000.0 -19238300000.0 -14857700000.0 -11876800000.0 -9446370000.0 -11721600000.0 -10772300000.0 -11745300000.0 -10987700000.0 -10291600000.0 -10934300000.0 -9333300000.0 -11003100000.0 -13070000000.0 -16066000000.0 -20058900000.0 -15987500000.0 -10309900000.0 -10192500000.0 -12105600000.0 -14073900000.0 -15106500000.0 -16347500000.0 -18276600000.0 -20699300000.0 -21180300000.0 -21129900000.0 -18610200000.0 -17320700000.0 -14440500000.0 -13278400000.0 -11472800000.0 -9152040000.0 -13746800000.0 -9035750000.0 -15065900000.0 -9035750000.0 -17174800000.0 -9035750000.0 -18103300000.0 -9035750000.0 -16653000000.0 -11296200000.0 -23221600000.0 -9035750000.0 -26747100000.0 -16078400000.0 -19420200000.0 -9137490000.0 -15195200000.0 -9035750000.0 -16075600000.0 -9035750000.0 -14511400000.0 -9035750000.0 -12739200000.0 -9035750000.0 -12259700000.0 -9035750000.0 -10047500000.0 -12453400000.0 -13653200000.0 -16643600000.0 -18010400000.0 -20640700000.0 -20777900000.0 -20331300000.0 -17894000000.0 -16307600000.0 -15126200000.0 -14175100000.0 -12114500000.0 -10193100000.0 -10314200000.0 -16011300000.0 -20106400000.0 -16097900000.0 -13094700000.0 -11020500000.0 -9333380000.0 -10948900000.0 -10291900000.0 -10991700000.0 -10204200000.0 -9788500000.0 -10162300000.0 -9214330000.0 -10188600000.0 -11397900000.0 -13131700000.0 -15514000000.0 -13188200000.0 -9794800000.0 -9730050000.0 -10876400000.0 -12035500000.0 -12622700000.0 -13367400000.0 -14508900000.0 -15949900000.0 -16233700000.0 -16200700000.0 -14697900000.0 -13925900000.0 -12210500000.0 -11513400000.0 -10471200000.0 -9099610000.0 -11825600000.0 -9035750000.0 -12594200000.0 -9035750000.0 -13831500000.0 -9035750000.0 -14380900000.0 -9035750000.0 -13563900000.0 -10359800000.0 -17472800000.0 -9035750000.0 -19616300000.0 -13156700000.0 -15247500000.0 -9097000000.0 -12705300000.0 -9035750000.0 -13201700000.0 -9035750000.0 -12271800000.0 -9035750000.0 -11238000000.0 -9035750000.0 -10956600000.0 -9035750000.0 -9641320000.0 -11040000000.0 -11755300000.0 -13533400000.0 -14349600000.0 -15916900000.0 -16000200000.0 -15736000000.0 -14286000000.0 -13347900000.0 -12633200000.0 -12094500000.0 -10881700000.0 -9730370000.0 -9797130000.0 -13202200000.0 -15541800000.0 -13150400000.0 -11412500000.0 -10198700000.0 -9214380000.0 -10170800000.0 -9788630000.0 -10206500000.0 -9401910000.0 -9271760000.0 -9387630000.0 -9091770000.0 -9394050000.0 -9769660000.0 -10305800000.0 -11051800000.0 -10336000000.0 -9273160000.0 -9253540000.0 -9612940000.0 -9973920000.0 -10154200000.0 -10387800000.0 -10744100000.0 -11194600000.0 -11283100000.0 -11272400000.0 -10802100000.0 -10560000000.0 -10023400000.0 -9804770000.0 -9482770000.0 -9055070000.0 -9906440000.0 -9035750000.0 -10144800000.0 -9035750000.0 -10529600000.0 -9035750000.0 -10701000000.0 -9035750000.0 -10451100000.0 -9447250000.0 -11673500000.0 -9035750000.0 -12349300000.0 -10315900000.0 -10982000000.0 -9054990000.0 -10183600000.0 -9035750000.0 -10335600000.0 -9035750000.0 -10044900000.0 -9035750000.0 -9724150000.0 -9035750000.0 -9636640000.0 -9035750000.0 -9225520000.0 -9658860000.0 -9882660000.0 -10438600000.0 -10694100000.0 -11184500000.0 -11210800000.0 -11128300000.0 -10674900000.0 -10382300000.0 -10157400000.0 -9992230000.0 -9614590000.0 -9253640000.0 -9273860000.0 -10340400000.0 -11060400000.0 -10311600000.0 -9774230000.0 -9397180000.0 -9091780000.0 -9390260000.0 -9271800000.0 -9402640000.0 
SCALARS Shear_Stress float 1
LOOKUP_TABLE default
760460000.0 3765770000.0 55096200000.0 64562200000.0 9454620000.0 1192660000.0 141130000000.0 69612200000.0 77242500000.0 35636300000.0 43357700000.0 29318900000.0 30999800000.0 1863910000.0 42636900000.0 68475300000.0 3829870000.0 6742510000.0 47370500000.0 15498500000.0 51802500000.0 69788800000.0 142774000000.0 28873100000.0 41479700000.0 80514400000.0 28472300000.0 135526000000.0 59448700000.0 39965600000.0 49916500000.0 14710000000.0 59089100000.0 2988270000.0 59746800000.0 27146000000.0 53955900000.0 284800000000.0 176798000000.0 21737200000.0 47889400000.0 100880000000.0 112241000000.0 149431000000.0 195706000000.0 6466070000.0 125503000000.0 22325900000.0 70874600000.0 282352000000.0 2266430000.0 22669000000.0 220738000000.0 170812000000.0 47365700000.0 48853700000.0 43604700000.0 220142000000.0 105092000000.0 218648000000.0 167482000000.0 283644000000.0 28138600000.0 54997600000.0 49895700000.0 42066900000.0 100906000000.0 33703300000.0 1385450000.0 99972000000.0 54920400000.0 284715000000.0 261007000000.0 184512000000.0 194944000000.0 110231000000.0 103358000000.0 187337000000.0 297909000000.0 424249000000.0 334731000000.0 45960900000.0 304825000000.0 6770240000.0 51952200000.0 173791000000.0 13208600000.0 51832600000.0 124251000000.0 200392000000.0 141135000000.0 96818200000.0 418823000000.0 44025900000.0 396651000000.0 193641000000.0 92349500000.0 350206000000.0 423124000000.0 142638000000.0 212090000000.0 270723000000.0 21912400000.0 62618500000.0 173442000000.0 12258300000.0 86212600000.0 314847000000.0 350467000000.0 26991200000.0 310138000000.0 152693000000.0 39119000000.0 303764000000.0 408352000000.0 420759000000.0 128988000000.0 132374000000.0 107427000000.0 256932000000.0 90304100000.0 13054300000.0 82314200000.0 356686000000.0 117021000000.0 105114000000.0 214396000000.0 255711000000.0 240054000000.0 137926000000.0 104564000000.0 288560000000.0 210344000000.0 381546000000.0 142853000000.0 135912000000.0 167450000000.0 160505000000.0 111009000000.0 117004000000.0 33839900000.0 132916000000.0 342246000000.0 426046000000.0 209639000000.0 343436000000.0 276832000000.0 256837000000.0 28935600000.0 208664000000.0 362010000000.0 187126000000.0 96579500000.0 143486000000.0 314674000000.0 227744000000.0 392941000000.0 392968000000.0 107939000000.0 12063900000.0 559293000000.0 85916200000.0 215514000000.0 547955000000.0 322118000000.0 301030000000.0 252865000000.0 87285000000.0 13216800000.0 185062000000.0 551437000000.0 131267000000.0 124277000000.0 174256000000.0 433952000000.0 389751000000.0 81207700000.0 22208200000.0 29263400000.0 187401000000.0 413708000000.0 76409700000.0 1.08261e+12 447557000000.0 79599800000.0 330612000000.0 193751000000.0 124656000000.0 97275000000.0 357371000000.0 432510000000.0 144909000000.0 567696000000.0 384354000000.0 261965000000.0 23850000000.0 560149000000.0 466458000000.0 733793000000.0 72808400000.0 28614200000.0 59360600000.0 37726600000.0 124288000000.0 74697600000.0 97799800000.0 187635000000.0 276740000000.0 524986000000.0 627823000000.0 312577000000.0 364505000000.0 327129000000.0 325617000000.0 251597000000.0 128056000000.0 210882000000.0 106795000000.0 362334000000.0 89610400000.0 1.11367e+12 430134000000.0 35425500000.0 104071000000.0 251669000000.0 24721200000.0 362923000.0 78663500000.0 60509600000.0 101068000000.0 238988000000.0 711154000000.0 288748000000.0 305450000000.0 329662000000.0 115924000000.0 49680400000.0 469140000000.0 266621000000.0 83919600000.0 876840000000.0 439128000000.0 602359000000.0 188474000000.0 882371000000.0 391063000000.0 378385000000.0 260098000000.0 164844000000.0 1243640000.0 42440300000.0 109907000000.0 319938000000.0 280776000000.0 322732000000.0 363468000000.0 290389000000.0 551756000000.0 139113000000.0 111645000000.0 556138000000.0 595461000000.0 1.77401e+12 228415000000.0 186821000000.0 171336000000.0 403120000000.0 178511000000.0 321055000000.0 508950000000.0 460128000000.0 116156000000.0 7434110000.0 2346600000.0 24124100000.0 94894600000.0 746363000000.0 606309000000.0 419567000000.0 487214000000.0 386267000000.0 517845000000.0 437930000000.0 722371000000.0 630838000000.0 276350000000.0 570298000000.0 617045000000.0 199824000000.0 70252000000.0 496230000000.0 276517000000.0 247022000000.0 225641000000.0 356834000000.0 200327000000.0 780375000000.0 601633000000.0 827396000000.0 569548000000.0 363830000000.0 271807000000.0 78544500000.0 55206200000.0 3556430000.0 139529000000.0 787545000000.0 698764000000.0 565869000000.0 772319000000.0 548927000000.0 356735000000.0 207870000000.0 261413000000.0 536857000000.0 1.14755e+12 1.25531e+12 1.0962e+12 298212000000.0 435335000000.0 262090000000.0 281657000000.0 169241000000.0 270920000000.0 316988000000.0 414591000000.0 792416000000.0 1.05403e+12 705527000000.0 628538000000.0 163635000000.0 87202300000.0 195507000000.0 778793000000.0 785635000000.0 738495000000.0 720792000000.0 736773000000.0 407626000000.0 1.1043e+12 936672000000.0 975171000000.0 1.19243e+12 599329000000.0 381988000000.0 305415000000.0 183077000000.0 303833000000.0 315354000000.0 343636000000.0 51658700000.0 244811000000.0 200502000000.0 95373200000.0 860031000000.0 926698000000.0 1.17223e+12 1.16063e+12 427315000000.0 149095000000.0 280794000000.0 221331000000.0 500801000000.0 838137000000.0 802215000000.0 824900000000.0 784536000000.0 857203000000.0 781448000000.0 830095000000.0 643615000000.0 1.00668e+12 911601000000.0 853998000000.0 995336000000.0 1.17137e+12 208354000000.0 226367000000.0 273500000000.0 51824300000.0 359509000000.0 320049000000.0 222563000000.0 384435000000.0 48742300000.0 91803100000.0 170607000000.0 304397000000.0 322306000000.0 691545000000.0 777226000000.0 1.00864e+12 901326000000.0 596952000000.0 248366000000.0 291409000000.0 482404000000.0 795528000000.0 849146000000.0 871254000000.0 954141000000.0 856913000000.0 727882000000.0 790823000000.0 833629000000.0 926633000000.0 946094000000.0 965276000000.0 311158000000.0 329746000000.0 177399000000.0 98210200000.0 54592900000.0 395748000000.0 222814000000.0 162568000000.0 86695300000.0 102810000000.0 77615500000.0 56629000000.0 278858000000.0 249356000000.0 713934000000.0 733090000000.0 636792000000.0 1.13585e+12 1.12474e+12 371062000000.0 510864000000.0 656603000000.0 784026000000.0 863927000000.0 868176000000.0 876479000000.0 878733000000.0 909483000000.0 1.02908e+12 665817000000.0 1.14078e+12 1.19686e+12 411025000000.0 688817000000.0 870773000000.0 211680000000.0 271264000000.0 63270300000.0 82697800000.0 111912000000.0 87728800000.0 163406000000.0 149461000000.0 320212000000.0 260003000000.0 174724000000.0 195740000000.0 226975000000.0 11343900000.0 108984000000.0 459582000000.0 713157000000.0 676424000000.0 499641000000.0 493586000000.0 967633000000.0 465393000000.0 547654000000.0 610024000000.0 644403000000.0 825936000000.0 848132000000.0 803725000000.0 892410000000.0 749444000000.0 915269000000.0 843872000000.0 174611000000.0 392572000000.0 706502000000.0 690432000000.0 428517000000.0 88278500000.0 287001000.0 237329000000.0 204002000000.0 182901000000.0 263602000000.0 320173000000.0 150920000000.0 201925000000.0 166538000000.0 284150000000.0 397473000000.0 408255000000.0 246587000000.0 343138000000.0 202130000000.0 155690000000.0 279632000000.0 738609000000.0 927164000000.0 480077000000.0 372957000000.0 133911000000.0 417439000000.0 621317000000.0 48883100000.0 459538000000.0 703704000000.0 809775000000.0 771545000000.0 599716000000.0 70500100000.0 361846000000.0 829394000000.0 342133000000.0 192817000000.0 441777000000.0 999815000000.0 726136000000.0 248583000000.0 168257000000.0 211502000000.0 354119000000.0 263221000000.0 435397000000.0 403022000000.0 277473000000.0 170019000000.0 205903000000.0 205384000000.0 193752000000.0 197623000000.0 382754000000.0 580412000000.0 463398000000.0 449406000000.0 321226000000.0 249341000000.0 108317000000.0 44226900000.0 1.22848e+12 328566000000.0 352593000000.0 321741000000.0 241536000000.0 11336600000.0 503010000000.0 584620000000.0 734737000000.0 724255000000.0 761499000000.0 627665000000.0 586042000000.0 62197600000.0 88603600000.0 212466000000.0 289243000000.0 237648000000.0 1.24801e+12 35440700000.0 122760000000.0 255124000000.0 326899000000.0 453352000000.0 496336000000.0 564398000000.0 371930000000.0 185817000000.0 188066000000.0 208604000000.0 184659000000.0 193708000000.0 170711000000.0 138195000000.0 234736000000.0 328236000000.0 868048000000.0 868750000000.0 277034000000.0 229440000000.0 207614000000.0 154130000000.0 575934000000.0 1.42258e+12 350952000000.0 365017000000.0 467483000000.0 60117900000.0 156212000000.0 961558000000.0 472317000000.0 158689000000.0 341822000000.0 639465000000.0 663243000000.0 354263000000.0 193532000000.0 592135000000.0 1.02979e+12 943965000.0 78557800000.0 450438000000.0 341236000000.0 314104000000.0 1.38248e+12 561408000000.0 155131000000.0 212613000000.0 233223000000.0 279749000000.0 914822000000.0 864765000000.0 299188000000.0 213918000000.0 133477000000.0 168632000000.0 191614000000.0 187189000000.0 78423700000.0 137954000000.0 231820000000.0 157567000000.0 103714000000.0 117316000000.0 748975000000.0 1.18146e+12 318610000000.0 164822000000.0 179097000000.0 39042400000.0 233217000000.0 474473000000.0 551004000000.0 763668000000.0 587747000000.0 906774000000.0 392958000000.0 59600200000.0 484798000000.0 638447000000.0 496158000000.0 200267000000.0 274457000000.0 804342000000.0 560013000000.0 786530000000.0 558484000000.0 467241000000.0 217203000000.0 42549200000.0 186303000000.0 176269000000.0 313832000000.0 1.19367e+12 727673000000.0 115449000000.0 98910000000.0 157894000000.0 229870000000.0 139600000000.0 79533200000.0 5723590000.0 310394000000.0 225147000000.0 181035000000.0 133543000000.0 122285000000.0 253339000000.0 652317000000.0 172802000000.0 206676000000.0 149229000000.0 166013000000.0 223818000000.0 1.10792e+12 623104000000.0 612717000000.0 842503000000.0 980064000000.0 614237000000.0 574605000000.0 212555000000.0 566918000000.0 564072000000.0 591455000000.0 109884000000.0 517622000000.0 536943000000.0 958043000000.0 870535000000.0 630892000000.0 645785000000.0 1.05168e+12 247034000000.0 177160000000.0 169651000000.0 217736000000.0 174055000000.0 637907000000.0 266939000000.0 130396000000.0 134528000000.0 180379000000.0 223591000000.0 308557000000.0 4980580000.0 48171300000.0 522712000000.0 392824000000.0 415418000000.0 291066000000.0 295303000000.0 204668000000.0 233217000000.0 259388000000.0 575241000000.0 1.11706e+12 388644000000.0 38957100000.0 189564000000.0 396416000000.0 296386000000.0 832498000000.0 886735000000.0 1.00115e+12 945789000000.0 739787000000.0 602212000000.0 665033000000.0 687418000000.0 759323000000.0 390043000000.0 507392000000.0 517068000000.0 347026000000.0 819248000000.0 696903000000.0 594211000000.0 528758000000.0 671647000000.0 890530000000.0 1.00899e+12 915231000000.0 788508000000.0 305113000000.0 431800000000.0 210185000000.0 62983000000.0 376550000000.0 1.09309e+12 576332000000.0 277840000000.0 253567000000.0 211709000000.0 293747000000.0 288672000000.0 413630000000.0 391605000000.0 522358000000.0 48102900000.0 15349300000.0 37534200000.0 549734000000.0 517343000000.0 371817000000.0 417164000000.0 233575000000.0 332045000000.0 464387000000.0 452515000000.0 475268000000.0 30114200000.0 128220000000.0 65007600000.0 1.01345e+12 1.22899e+12 752072000000.0 973606000000.0 1.00097e+12 963740000000.0 1.00822e+12 897375000000.0 683332000000.0 723815000000.0 808634000000.0 465952000000.0 905220000000.0 670744000000.0 600756000000.0 847195000000.0 988208000000.0 965841000000.0 1.00706e+12 966664000000.0 799176000000.0 1.218e+12 1.06544e+12 64224400000.0 113183000000.0 8490470000.0 464890000000.0 433599000000.0 479532000000.0 337713000000.0 230434000000.0 412731000000.0 367636000000.0 515151000000.0 550469000000.0 37977700000.0 15050900000.0 83299700000.0 463276000000.0 713495000000.0 621018000000.0 556522000000.0 441618000000.0 271940000000.0 301400000000.0 515989000000.0 631063000000.0 131680000000.0 231249000000.0 648733000000.0 489299000000.0 461180000000.0 422433000000.0 286572000000.0 932900000000.0 368268000000.0 785981000000.0 916462000000.0 752753000000.0 693744000000.0 768762000000.0 856241000000.0 844782000000.0 738282000000.0 607766000000.0 681434000000.0 891946000000.0 801903000000.0 349318000000.0 861357000000.0 251285000000.0 417939000000.0 494302000000.0 407498000000.0 561638000000.0 171396000000.0 115838000000.0 602429000000.0 535055000000.0 336389000000.0 265888000000.0 436269000000.0 554391000000.0 619740000000.0 713909000000.0 464196000000.0 83924700000.0 123400000000.0 307098000000.0 505420000000.0 695368000000.0 940003000000.0 723578000000.0 605840000000.0 173165000000.0 522426000000.0 236295000000.0 615706000000.0 1.32542e+12 1.17803e+12 587921000000.0 306018000000.0 133961000000.0 447078000000.0 781912000000.0 792500000000.0 692883000000.0 695255000000.0 685535000000.0 720978000000.0 759933000000.0 822615000000.0 977223000000.0 903547000000.0 965840000000.0 812991000000.0 717443000000.0 649544000000.0 605130000000.0 611264000000.0 623251000000.0 742599000000.0 749710000000.0 784223000000.0 482489000000.0 97885600000.0 315837000000.0 574345000000.0 1.16395e+12 1.21137e+12 598596000000.0 287879000000.0 511285000000.0 160487000000.0 600139000000.0 724522000000.0 940584000000.0 696450000000.0 505736000000.0 307331000000.0 124678000000.0 63309000000.0 69813200000.0 95279800000.0 145810000000.0 212801000000.0 841121000000.0 1.24584e+12 604887000000.0 915641000000.0 424525000000.0 968051000000.0 882632000000.0 734832000000.0 1.30587e+12 502950000000.0 661607000000.0 46204200000.0 366870000000.0 773317000000.0 213499000000.0 1.02244e+12 194471000000.0 537429000000.0 403194000000.0 534836000000.0 766949000000.0 654185000000.0 644431000000.0 700950000000.0 837644000000.0 790065000000.0 904299000000.0 643498000000.0 569429000000.0 608084000000.0 548195000000.0 425814000000.0 583546000000.0 186878000000.0 1.01363e+12 248946000000.0 811031000000.0 533724000000.0 136565000000.0 784706000000.0 427539000000.0 1.19153e+12 717143000000.0 833595000000.0 979242000000.0 422911000000.0 918373000000.0 604388000000.0 1.24443e+12 841143000000.0 213062000000.0 144943000000.0 92484100000.0 71204100000.0 62564500000.0 194837000000.0 313768000000.0 45912800000.0 476091000000.0 917089000000.0 328655000000.0 1.5795e+12 11880300000.0 1.42652e+12 133397000000.0 1.26422e+12 325032000000.0 144539000000.0 167122000000.0 180710000000.0 747328000000.0 1.0237e+12 962973000000.0 193736000000.0 754471000000.0 566202000000.0 640916000000.0 731763000000.0 801857000000.0 755777000000.0 734212000000.0 577649000000.0 504320000000.0 754525000000.0 185030000000.0 976537000000.0 1.05708e+12 686517000000.0 179840000000.0 269659000000.0 163932000000.0 253543000000.0 1.29383e+12 110550000000.0 1.43072e+12 1183900000.0 1.5856e+12 322278000000.0 918701000000.0 477427000000.0 47839000000.0 312210000000.0 195736000000.0 215228000000.0 593151000000.0 102996000000.0 93434000000.0 51842200000.0 102853000000.0 245057000000.0 1.55463e+12 584684000000.0 630261000000.0 763069000000.0 526267000000.0 782173000000.0 162063000000.0 25219600000.0 633189000000.0 127724000000.0 433782000000.0 586291000000.0 20671000000.0 93075400000.0 8084420000.0 823084000000.0 446305000000.0 775803000000.0 894175000000.0 421730000000.0 427082000000.0 560855000000.0 563719000000.0 646952000000.0 629788000000.0 720565000000.0 664146000000.0 690224000000.0 644373000000.0 725298000000.0 617089000000.0 616178000000.0 517934000000.0 501830000000.0 381720000000.0 376098000000.0 910388000000.0 803273000000.0 458535000000.0 860378000000.0 39341900000.0 61761000000.0 24184200000.0 623201000000.0 582343000000.0 60025600000.0 665982000000.0 158824000000.0 17103300000.0 762217000000.0 514426000000.0 805819000000.0 627405000000.0 584169000000.0 1.55873e+12 238618000000.0 101581000000.0 51682500000.0 95092000000.0 99059300000.0 593851000000.0 216447000000.0 199234000000.0 227285000000.0 551354000000.0 563104000000.0 616450000000.0 729721000000.0 888094000000.0 135617000000.0 104301000000.0 744371000000.0 731742000000.0 798510000000.0 351400000000.0 1.00192e+12 160815000000.0 13593700000.0 127292000000.0 243958000000.0 143003000000.0 481248000000.0 703504000000.0 404037000000.0 55766600000.0 470566000000.0 530009000000.0 593224000000.0 592197000000.0 583866000000.0 497356000000.0 425318000000.0 24071600000.0 419251000000.0 729313000000.0 461851000000.0 136989000000.0 252741000000.0 47356300000.0 9070960000.0 26836600000.0 1.01348e+12 384978000000.0 796906000000.0 735757000000.0 733324000000.0 108490000000.0 131437000000.0 886930000000.0 729985000000.0 617720000000.0 563969000000.0 554346000000.0 228142000000.0 198712000000.0 198298000000.0 486916000000.0 608991000000.0 500428000000.0 801776000000.0 656138000000.0 531567000000.0 288379000000.0 173396000000.0 184070000000.0 281782000000.0 211956000000.0 5570960000.0 261487000000.0 295476000000.0 625793000000.0 207594000000.0 93309900000.0 115289000000.0 64601100000.0 132865000000.0 266526000000.0 463180000000.0 905800000000.0 338164000000.0 406198000000.0 497930000000.0 543860000000.0 533017000000.0 475473000000.0 358797000000.0 306830000000.0 961399000000.0 470525000000.0 269559000000.0 136987000000.0 70018600000.0 76714200000.0 241893000000.0 258867000000.0 760103000000.0 370618000000.0 273033000000.0 65322100000.0 217417000000.0 286333000000.0 189108000000.0 176530000000.0 284869000000.0 544844000000.0 663463000000.0 801856000000.0 498140000000.0 611752000000.0 488342000000.0 201705000000.0 205407000000.0 424321000000.0 376096000000.0 499929000000.0 539723000000.0 651132000000.0 14736400000.0 648180000000.0 823068000000.0 780257000000.0 584938000000.0 35138700000.0 175911000000.0 68939900000.0 178749000000.0 158259000000.0 195255000000.0 310746000000.0 402622000000.0 128993000000.0 126092000000.0 85049900000.0 101927000000.0 289420000000.0 200554000000.0 255820000000.0 118216000000.0 183564000000.0 92097600000.0 223826000000.0 177900000000.0 369840000000.0 369092000000.0 469066000000.0 428950000000.0 484891000000.0 419254000000.0 453391000000.0 337506000000.0 328540000000.0 117851000000.0 168633000000.0 147914000000.0 175176000000.0 115676000000.0 279670000000.0 193993000000.0 301597000000.0 98883300000.0 84950100000.0 48871700000.0 120219000000.0 465446000000.0 283720000000.0 148003000000.0 178075000000.0 197656000000.0 71722200000.0 171512000000.0 38951300000.0 584616000000.0 780462000000.0 830448000000.0 651043000000.0 4241820000.0 653182000000.0 542617000000.0 503120000000.0 377530000000.0 425210000000.0 206888000000.0 210521000000.0 462877000000.0 445762000000.0 317008000000.0 398101000000.0 516176000000.0 388366000000.0 642048000000.0 868157000000.0 512127000000.0 255568000000.0 522960000000.0 398637000000.0 219196000000.0 173807000000.0 144892000000.0 92289400000.0 180806000000.0 283477000000.0 322643000000.0 292222000000.0 188125000000.0 130414000000.0 78413200000.0 697850000.0 56654500000.0 206254000000.0 392134000000.0 242386000000.0 147603000000.0 240534000000.0 352525000000.0 379095000000.0 331186000000.0 186229000000.0 218988000000.0 282056000000.0 392665000000.0 217398000000.0 51211700000.0 4712270000.0 57312200000.0 92904100000.0 175221000000.0 306598000000.0 327721000000.0 281798000000.0 175111000000.0 80150500000.0 150570000000.0 176186000000.0 223560000000.0 402563000000.0 526738000000.0 259814000000.0 501702000000.0 866074000000.0 644106000000.0 386933000000.0 516488000000.0 399741000000.0 320099000000.0 447328000000.0 467784000000.0 211112000000.0 147168000000.0 172387000000.0 494742000000.0 412434000000.0 193301000000.0 523522000000.0 747577000000.0 229847000000.0 181660000000.0 818337000000.0 511027000000.0 215817000000.0 373877000000.0 446704000000.0 397522000000.0 292839000000.0 270716000000.0 205247000000.0 245336000000.0 258284000000.0 306925000000.0 272700000000.0 184621000000.0 113409000000.0 76264200000.0 51198700000.0 152545000000.0 258236000000.0 102042000000.0 568188000000.0 88416600000.0 255578000000.0 325941000000.0 314569000000.0 214567000000.0 9158000000.0 621163000000.0 102819000000.0 269420000000.0 143965000000.0 35511600000.0 68603900000.0 95421500000.0 171471000000.0 272878000000.0 311011000000.0 239033000000.0 239717000000.0 202347000000.0 274404000000.0 298054000000.0 404639000000.0 450224000000.0 371025000000.0 210747000000.0 506553000000.0 821049000000.0 194483000000.0 242284000000.0 752709000000.0 525285000000.0 194767000000.0 414826000000.0 496959000000.0 156988000000.0 137427000000.0 99200100000.0 457302000000.0 508181000000.0 451833000000.0 121352000000.0 62696900000.0 209951000000.0 446439000000.0 1.01773e+12 899458000000.0 705783000000.0 986473000000.0 576240000000.0 101676000000.0 264566000000.0 311376000000.0 322298000000.0 248418000000.0 170402000000.0 98848200000.0 20299800000.0 51039700000.0 323648000000.0 486280000000.0 645004000000.0 296216000000.0 5979350000.0 14526800000.0 134926000000.0 223239000000.0 266502000000.0 228703000000.0 275969000000.0 217522000000.0 239993000000.0 166882000000.0 67488200000.0 100455000000.0 79490200000.0 306246000000.0 677630000000.0 539468000000.0 339725000000.0 40736900000.0 21488500000.0 93681200000.0 166801000000.0 251516000000.0 322553000000.0 302426000000.0 252729000000.0 97298100000.0 566508000000.0 983179000000.0 709061000000.0 917609000000.0 1.00313e+12 435775000000.0 207456000000.0 61526300000.0 122963000000.0 460320000000.0 513484000000.0 438806000000.0 90131400000.0 41548200000.0 364232000000.0 468595000000.0 535262000000.0 657416000000.0 139343000000.0 40817000000.0 215246000000.0 179453000000.0 93745800000.0 161158000000.0 221969000000.0 375264000000.0 396049000000.0 364846000000.0 328541000000.0 316006000000.0 323167000000.0 332569000000.0 341565000000.0 332185000000.0 302596000000.0 146459000000.0 59202300000.0 29191100000.0 98327300000.0 198953000000.0 251506000000.0 241835000000.0 185598000000.0 178962000000.0 158450000000.0 138506000000.0 297596000000.0 189806000000.0 86111900000.0 21680400000.0 61827700000.0 148646000000.0 305188000000.0 330448000000.0 340480000000.0 324098000000.0 310729000000.0 310516000000.0 328354000000.0 371995000000.0 401666000000.0 376094000000.0 223264000000.0 169621000000.0 96186400000.0 175831000000.0 213633000000.0 37360200000.0 141946000000.0 659195000000.0 525939000000.0 458745000000.0 350170000000.0 37140300000.0 62164700000.0 14136200000.0 250096000000.0 553504000000.0 767301000000.0 190512000000.0 4239430000.0 978865000000.0 645339000000.0 983629000000.0 310351000000.0 83759300000.0 135360000000.0 318181000000.0 416743000000.0 446953000000.0 430634000000.0 409023000000.0 386552000000.0 376868000000.0 374375000000.0 360199000000.0 332029000000.0 290765000000.0 226624000000.0 15201200000.0 67592400000.0 151870000000.0 209349000000.0 203971000000.0 11943900000.0 462932000000.0 394530000000.0 172356000000.0 92017900000.0 135239000000.0 103036000000.0 130804000000.0 76919900000.0 108734000000.0 248294000000.0 499203000000.0 53800700000.0 174020000000.0 189301000000.0 139911000000.0 58879300000.0 21950400000.0 232988000000.0 296769000000.0 334873000000.0 360018000000.0 367458000000.0 368282000000.0 381260000000.0 411902000000.0 435210000000.0 448372000000.0 418072000000.0 319672000000.0 137186000000.0 84438200000.0 323216000000.0 982914000000.0 643243000000.0 975357000000.0 14166000000.0 183548000000.0 785029000000.0 531608000000.0 239916000000.0 16478400000.0 63310000000.0 300749000000.0 180433000000.0 184852000000.0 175314000000.0 317629000000.0 390222000000.0 714900000000.0 596861000000.0 1.09614e+12 318336000000.0 532323000000.0 894464000000.0 263762000000.0 232456000000.0 224561000000.0 323171000000.0 426056000000.0 486713000000.0 504755000000.0 498270000000.0 469473000000.0 438016000000.0 414263000000.0 393153000000.0 367092000000.0 325972000000.0 269628000000.0 195050000000.0 106330000000.0 131064000000.0 252504000000.0 437089000000.0 655410000000.0 918985000000.0 767970000000.0 731477000000.0 203554000000.0 34251900000.0 68012000000.0 71710500000.0 11394500000.0 92608300000.0 588968000000.0 796130000000.0 991496000000.0 711687000000.0 455803000000.0 257828000000.0 130946000000.0 112209000000.0 201758000000.0 276346000000.0 332253000000.0 369921000000.0 391523000000.0 413007000000.0 440260000000.0 473747000000.0 501879000000.0 505052000000.0 483273000000.0 423870000000.0 322591000000.0 227021000000.0 238067000000.0 249100000000.0 895146000000.0 531858000000.0 327476000000.0 1.10654e+12 571917000000.0 702215000000.0 375464000000.0 303381000000.0 162769000000.0 182508000000.0 183821000000.0 317240000000.0 364582000000.0 263299000000.0 278704000000.0 422271000000.0 1.23958e+12 54985000000.0 598100000000.0 1.09213e+12 809693000000.0 981466000000.0 73191800000.0 275364000000.0 338415000000.0 424580000000.0 501931000000.0 555405000000.0 570094000000.0 398438000000.0 359845000000.0 305784000000.0 236787000000.0 153906000000.0 62287700000.0 30307600000.0 217673000000.0 229997000000.0 83866700000.0 330168000000.0 49404700000.0 205561000000.0 85254200000.0 28457000000.0 54818100000.0 31456700000.0 115222000000.0 58482400000.0 123007000000.0 268302000000.0 11668400000.0 182808000000.0 217048000000.0 26641800000.0 68289100000.0 161056000000.0 243749000000.0 312014000000.0 364236000000.0 402939000000.0 571005000000.0 553338000000.0 498527000000.0 422341000000.0 341224000000.0 278814000000.0 79819200000.0 987281000000.0 821804000000.0 1.08726e+12 607978000000.0 68959600000.0 1.23915e+12 393363000000.0 267401000000.0 269559000000.0 391202000000.0 63203200000.0 9740750000.0 3374300000.0 404966000000.0 235380000000.0 369737000000.0 226149000000.0 212640000000.0 226641000000.0 456042000000.0 518935000000.0 974216000000.0 979054000000.0 185299000000.0 791367000000.0 26091700000.0 294023000000.0 413269000000.0 542745000000.0 506439000000.0 467399000000.0 431547000000.0 336188000000.0 273719000000.0 198202000000.0 113804000000.0 25755800000.0 61728500000.0 145207000000.0 250764000000.0 292841000000.0 341127000000.0 69776000000.0 30446000000.0 18960200000.0 30664700000.0 49183500000.0 43428000000.0 13829100000.0 30328800000.0 125435000000.0 412576000000.0 283671000000.0 219035000000.0 148020000000.0 60648800000.0 30939900000.0 120997000000.0 205949000000.0 280946000000.0 342845000000.0 437155000000.0 473025000000.0 511676000000.0 546567000000.0 408401000000.0 293299000000.0 18238400000.0 799397000000.0 192334000000.0 981830000000.0 967201000000.0 539150000000.0 464455000000.0 238833000000.0 183242000000.0 210060000000.0 369058000000.0 237436000000.0 424606000000.0 1491980000.0 7757590000.0 67437900000.0 34083600000.0 23932900000.0 444158000000.0 543464000000.0 345549000000.0 614351000000.0 831170000000.0 109072000000.0 722698000000.0 679688000000.0 539738000000.0 719849000000.0 484089000000.0 570725000000.0 628720000000.0 601604000000.0 558019000000.0 513397000000.0 471648000000.0 430619000000.0 386823000000.0 159065000000.0 77265200000.0 3403040000.0 74637700000.0 121709000000.0 105281000000.0 10595500000.0 76901500000.0 31871700000.0 60980100000.0 43644600000.0 71975600000.0 12435800000.0 128459000000.0 138557000000.0 79438900000.0 245661000.0 85226400000.0 168314000000.0 394102000000.0 438424000000.0 478830000000.0 518348000000.0 560075000000.0 604609000000.0 636445000000.0 574222000000.0 483095000000.0 729675000000.0 543227000000.0 673788000000.0 736841000000.0 123625000000.0 897977000000.0 624110000000.0 340015000000.0 567294000000.0 462970000000.0 14963600000.0 40283100000.0 46291400000.0 24497900000.0 401953000000.0 423728000000.0 420013000000.0 289478000000.0 877642000000.0 896613000000.0 807237000000.0 789071000000.0 553523000000.0 19159600000.0 357753000000.0 449776000000.0 556900000000.0 686404000000.0 633884000000.0 584633000000.0 540178000000.0 497201000000.0 454568000000.0 410545000000.0 361418000000.0 303906000000.0 236130000000.0 39130100000.0 37502700000.0 106618000000.0 167318000000.0 253093000000.0 399213000000.0 539668000000.0 531502000000.0 299444000000.0 205519000000.0 27292700000.0 61231600000.0 72612800000.0 159164000000.0 591836000000.0 584970000000.0 400582000000.0 252916000000.0 183997000000.0 109950000000.0 30168200000.0 50856300000.0 245149000000.0 312844000000.0 370767000000.0 419787000000.0 462274000000.0 501978000000.0 543724000000.0 590466000000.0 642759000000.0 702849000000.0 559473000000.0 446655000000.0 356750000000.0 21636200000.0 562729000000.0 802760000000.0 814052000000.0 924811000000.0 874615000000.0 219966000000.0 532837000000.0 397164000000.0 425859000000.0 39288400000.0 49435900000.0 20307500000.0 85735500000.0 217711000000.0 265819000000.0 98490900000.0 76999100000.0 367794000000.0 583346000000.0 807504000000.0 738822000000.0 841338000000.0 3048640000.0 303678000000.0 451833000000.0 698260000000.0 615758000000.0 570674000000.0 533327000000.0 497724000000.0 462060000000.0 423177000000.0 379515000000.0 328464000000.0 267378000000.0 196386000000.0 118771000000.0 133918000000.0 182540000000.0 177789000000.0 58795100000.0 282270000000.0 271874000000.0 44141600000.0 90599300000.0 84182300000.0 45653200000.0 49164900000.0 86895500000.0 127721000000.0 134567000000.0 175720000000.0 271458000000.0 220454000000.0 4842260000.0 258940000000.0 220593000000.0 134880000000.0 131099000000.0 207959000000.0 278557000000.0 339918000000.0 390697000000.0 432947000000.0 470373000000.0 505311000000.0 539567000000.0 575991000000.0 616960000000.0 698609000000.0 441526000000.0 302672000000.0 6903840000.0 833840000000.0 742294000000.0 810175000000.0 596029000000.0 402587000000.0 15183700000.0 75850800000.0 282783000000.0 237644000000.0 103931000000.0 19563300000.0 34131900000.0 20761000000.0 385234000000.0 156076000000.0 43733600000.0 570090000000.0 601755000000.0 681010000000.0 644761000000.0 477705000000.0 97137500000.0 279843000000.0 640405000000.0 550425000000.0 418533000000.0 384858000000.0 343827000000.0 292038000000.0 228011000000.0 154964000000.0 77604600000.0 687723000.0 71207300000.0 723423000000.0 887245000000.0 969986000000.0 286001000000.0 4954970000.0 85161700000.0 253541000000.0 642572000000.0 857231000000.0 907800000000.0 56234800000.0 19185600000.0 94569300000.0 169832000000.0 242070000000.0 306283000000.0 357900000000.0 398035000000.0 429630000000.0 552828000000.0 639825000000.0 265684000000.0 94468700000.0 482739000000.0 647749000000.0 707705000000.0 600909000000.0 562437000000.0 60101400000.0 139429000000.0 402827000000.0 29540500000.0 38177200000.0 9206640000.0 122390000000.0 212096000000.0 541571000000.0 355819000000.0 149983000000.0 931599000000.0 707978000000.0 697374000000.0 613072000000.0 636937000000.0 214674000000.0 517039000000.0 496365000000.0 475417000000.0 448970000000.0 254987000000.0 187553000000.0 112419000000.0 34921100000.0 41157800000.0 115215000000.0 195545000000.0 303648000000.0 482625000000.0 95526400000.0 7621840000.0 11934100000.0 87133200000.0 37028400000.0 657990000000.0 400243000000.0 183666000000.0 75380700000.0 3229140000.0 62373100000.0 131047000000.0 202981000000.0 271779000000.0 457071000000.0 483322000000.0 502795000000.0 518030000000.0 214807000000.0 640935000000.0 653949000000.0 691001000000.0 701112000000.0 938324000000.0 155855000000.0 313233000000.0 539526000000.0 219030000000.0 127510000000.0 7307670000.0 2782930000.0 107801000000.0 302339000000.0 274907000000.0 576247000000.0 503500000000.0 590160000000.0 678575000000.0 652137000000.0 412316000000.0 163643000000.0 570816000000.0 483307000000.0 438744000000.0 433784000000.0 433799000000.0 422123000000.0 401579000000.0 376558000000.0 347627000000.0 309068000000.0 69378600000.0 4850210000.0 72211300000.0 129082000000.0 173230000000.0 186659000000.0 77273000000.0 267898000000.0 21722800000.0 396524000000.0 335712000000.0 216043000000.0 86274200000.0 17254000000.0 57697600000.0 162430000000.0 318124000000.0 496366000000.0 114671000000.0 375524000000.0 90355200000.0 4869370000.0 29340000000.0 20757200000.0 6779150000.0 43314900000.0 94180700000.0 326629000000.0 363574000000.0 389542000000.0 412149000000.0 431916000000.0 442816000000.0 442772000000.0 441122000000.0 478250000000.0 564640000000.0 160468000000.0 415131000000.0 649343000000.0 685654000000.0 590074000000.0 509791000000.0 583299000000.0 277116000000.0 300850000000.0 107428000000.0 6394200000.0 213681000000.0 127455000000.0 357435000000.0 540130000000.0 600713000000.0 454137000000.0 449056000000.0 254115000000.0 489212000000.0 348246000000.0 327933000000.0 349160000000.0 372580000000.0 382355000000.0 373911000000.0 355711000000.0 339457000000.0 318443000000.0 277409000000.0 217623000000.0 145479000000.0 87884000000.0 113241000000.0 110855000000.0 59180300000.0 34903300000.0 166464000000.0 46740200000.0 133253000000.0 142400000000.0 43977500000.0 21319500000.0 187714000000.0 54760000000.0 26741200000.0 1583110000.0 12758900000.0 160881000000.0 235084000000.0 296683000000.0 339279000000.0 357278000000.0 369201000000.0 385120000000.0 393889000000.0 379475000000.0 353045000000.0 331320000000.0 351804000000.0 485396000000.0 254994000000.0 447946000000.0 454975000000.0 596483000000.0 532407000000.0 376999000000.0 118445000000.0 210117000000.0 92867800000.0 179039000000.0 230968000000.0 135830000000.0 597033000000.0 489777000000.0 502871000000.0 334941000000.0 396169000000.0 114139000000.0 501185000000.0 148030000000.0 109474000000.0 98888200000.0 224666000000.0 296958000000.0 338150000000.0 350859000000.0 334501000000.0 322359000000.0 320877000000.0 293516000000.0 243594000000.0 177877000000.0 102183000000.0 28009400000.0 38298300000.0 222637000000.0 1593990000.0 134271000000.0 312714000000.0 559050000000.0 31118600000.0 56883700000.0 111127000000.0 195097000000.0 262905000000.0 316273000000.0 344634000000.0 338458000000.0 346008000000.0 362268000000.0 349296000000.0 306468000000.0 228959000000.0 99956500000.0 122953000000.0 162187000000.0 498512000000.0 103185000000.0 415773000000.0 340287000000.0 502976000000.0 486937000000.0 596979000000.0 132976000000.0 221511000000.0 169963000000.0 91727000000.0 26242000000.0 1417100000.0 316069000000.0 354690000000.0 420660000000.0 488128000000.0 424847000000.0 152772000000.0 184556000000.0 304827000000.0 264120000000.0 206124000000.0 137104000000.0 57485800000.0 10105200000.0 65109500000.0 93493100000.0 91900300000.0 72377700000.0 63452900000.0 210780000000.0 35279900000.0 261450000000.0 196120000000.0 296149000000.0 1160240000.0 54059300000.0 245754000000.0 40659700000.0 162465000000.0 114743000000.0 31931900000.0 26568200000.0 2192450000.0 8175550000.0 5567020000.0 27096100000.0 51678100000.0 154499000000.0 221453000000.0 279613000000.0 328863000000.0 172270000000.0 162086000000.0 425871000000.0 488654000000.0 422152000000.0 370460000000.0 321196000000.0 1268750000.0 26894100000.0 112775000000.0 75967800000.0 6775390000.0 44472700000.0 356013000000.0 327306000000.0 391260000000.0 436767000000.0 113037000000.0 58781800000.0 146865000000.0 113625000000.0 191036000000.0 257453000000.0 304708000000.0 332880000000.0 333692000000.0 309529000000.0 321466000000.0 98462600000.0 10010800000.0 39297500000.0 87539500000.0 109179000000.0 88304400000.0 100130000000.0 221993000000.0 82729300000.0 161610000000.0 102125000000.0 245232000000.0 124727000000.0 397728000000.0 158268000000.0 160552000000.0 17325800000.0 182459000000.0 68071600000.0 46204700000.0 36627400000.0 62044000000.0 18344200000.0 5719840000.0 109564000000.0 353104000000.0 327967000000.0 344549000000.0 339409000000.0 311716000000.0 262153000000.0 193203000000.0 108184000000.0 142395000000.0 55376900000.0 112027000000.0 446009000000.0 399724000000.0 331119000000.0 355662000000.0 44373000000.0 3883960000.0 71517900000.0 108150000000.0 440380000000.0 349459000000.0 428155000000.0 223133000000.0 14108700000.0 87563900000.0 290367000000.0 339502000000.0 273947000000.0 269423000000.0 289604000000.0 314188000000.0 319799000000.0 299278000000.0 297888000000.0 302009000000.0 271623000000.0 223827000000.0 164486000000.0 135129000000.0 137774000000.0 131984000000.0 102950000000.0 95414700000.0 134810000000.0 48055600000.0 151702000000.0 144540000000.0 171032000000.0 224986000000.0 272729000000.0 306480000000.0 301074000000.0 289629000000.0 317134000000.0 316201000000.0 295765000000.0 275025000000.0 271278000000.0 332073000000.0 283845000000.0 93324000000.0 17824500000.0 233135000000.0 427064000000.0 355921000000.0 444441000000.0 56346500000.0 14492100000.0 35654600000.0 106905000000.0 239257000000.0 323917000000.0 272295000000.0 321138000000.0 354510000000.0 49997900000.0 6484450000.0 154812000000.0 299512000000.0 292214000000.0 293011000000.0 281958000000.0 298781000000.0 294295000000.0 267302000000.0 248512000000.0 257113000000.0 254680000000.0 225446000000.0 177840000000.0 122451000000.0 71673100000.0 33462900000.0 42808100000.0 233366000000.0 196297000000.0 251933000000.0 380511000000.0 13297700000.0 135574000000.0 17592800000.0 191784000000.0 30801800000.0 98401600000.0 276319000000.0 74623400000.0 26168800000.0 54869200000.0 52164200000.0 103620000000.0 158216000000.0 209590000000.0 251254000000.0 260720000000.0 247743000000.0 254709000000.0 287939000000.0 298008000000.0 288817000000.0 293739000000.0 284844000000.0 287496000000.0 155982000000.0 14762800000.0 51389800000.0 354100000000.0 324705000000.0 280214000000.0 328713000000.0 238960000000.0 106535000000.0 34295600000.0 14765800000.0 54162900000.0 9373110000.0 1334150000.0 83740300000.0 161932000000.0 311650000000.0 245845000000.0 240608000000.0 299225000000.0 91101200000.0 178610000000.0 204840000000.0 214026000000.0 204939000000.0 176156000000.0 128883000000.0 74937900000.0 46053200000.0 69657900000.0 47942200000.0 183831000000.0 191253000000.0 303410000000.0 114384000000.0 165419000000.0 219879000000.0 202813000000.0 259566000000.0 36538700000.0 22470800000.0 97044600000.0 42277100000.0 249072000000.0 240560000000.0 294997000000.0 492234000000.0 309170000000.0 296036000000.0 130012000000.0 144602000000.0 23725600.0 17934800000.0 81241100000.0 139792000000.0 185774000000.0 213110000000.0 205573000000.0 172979000000.0 95016200000.0 299842000000.0 244351000000.0 251671000000.0 310032000000.0 161270000000.0 87365400000.0 3146410000.0 7883660000.0 137952000000.0 416334000000.0 3511310000.0 145158000000.0 228995000000.0 246808000000.0 240546000000.0 249614000000.0 251093000000.0 231589000000.0 199605000000.0 102091000000.0 30890200000.0 19343800000.0 152502000000.0 26210600000.0 161930000000.0 166062000000.0 172872000000.0 18352300000.0 91364900000.0 55258500000.0 55233200000.0 83530400000.0 231621000000.0 229898000000.0 216462000000.0 54270400000.0 232578000000.0 56595600000.0 68833600000.0 9778960000.0 199183000000.0 221011000000.0 249056000000.0 256624000000.0 246195000000.0 244854000000.0 220837000000.0 144911000000.0 2978510000.0 419944000000.0 136066000000.0 34257600000.0 50274400000.0 93370900000.0 254222000000.0 260913000000.0 331725000000.0 364079000000.0 416916000000.0 102164000000.0 162868000000.0 116241000000.0 182009000000.0 190940000000.0 197224000000.0 201530000000.0 198514000000.0 161979000000.0 171770000000.0 185701000000.0 200124000000.0 184460000000.0 165857000000.0 823024000.0 62197200000.0 198142000000.0 296041000000.0 419319000000.0 399818000000.0 211241000000.0 103702000000.0 157868000000.0 196016000000.0 192980000000.0 178834000000.0 168968000000.0 194618000000.0 206307000000.0 204158000000.0 194001000000.0 177070000000.0 116882000000.0 162193000000.0 102719000000.0 418870000000.0 367709000000.0 336530000000.0 265713000000.0 252547000000.0 93602600000.0 48978400000.0 34567100000.0 12661700000.0 28176000000.0 48994900000.0 109645000000.0 135118000000.0 146094000000.0 192329000000.0 281741000000.0 38720700000.0 89497600000.0 28820000000.0 72784600000.0 90239900000.0 131098000000.0 157038000000.0 161525000000.0 156710000000.0 97583400000.0 56876200000.0 28859900000.0 7051430000.0 4025210000.0 15100400000.0 17560200000.0 97659500000.0 175254000000.0 210048000000.0 337931000000.0 229648000000.0 244997000000.0 86347800000.0 30595700000.0 98106700000.0 173796000000.0 127024000000.0 171204000000.0 74929900000.0 96128900000.0 46906100000.0 47591300000.0 131142000000.0 37680500000.0 77201700000.0 139090000000.0 228382000000.0 257783000000.0 360608000000.0 237436000000.0 209347000000.0 172171000000.0 109988000000.0 82824300000.0 52610900000.0 34764200000.0 4249610000.0 34416000000.0 76112500000.0 139253000000.0 161281000000.0 162088000000.0 130289000000.0 91159000000.0 72227200000.0 30040700000.0 87680000000.0 39230800000.0 283818000000.0 195195000000.0 149236000000.0 137791000000.0 109204000000.0 48513500000.0 27046400000.0 12537600000.0 23153500000.0 73014000000.0 113942000000.0 46449300000.0 37269100000.0 55805400000.0 49413900000.0 17040400000.0 3803870000.0 35635800000.0 71348500000.0 59316600000.0 5081070000.0 83543100000.0 91979500000.0 178790000000.0 71680600000.0 8197310000.0 140651000000.0 104557000000.0 148756000000.0 132662000000.0 140399000000.0 92003900000.0 110870000000.0 50183000000.0 146343000000.0 83001900000.0 78640500000.0 45193000000.0 47647600000.0 59617100000.0 37702500000.0 48228800000.0 115361000000.0 73673400000.0 23266800000.0 113955000000.0 213299000000.0 231627000000.0 18901200000.0 1690080000.0 884050000.0 57076200000.0 110748000000.0 153863000000.0 146803000000.0 126389000000.0 98517100000.0 80035800000.0 66872400000.0 40349100000.0 50468800000.0 57137800000.0 50568700000.0 52450600000.0 151122000000.0 14318500000.0 66425100000.0 180488000000.0 205988000000.0 13040900000.0 20778800000.0 63238500000.0 78526200000.0 105235000000.0 135145000000.0 154386000000.0 117618000000.0 57121800000.0 251840000.0 2318170000.0 18946100000.0 233528000000.0 215280000000.0 114732000000.0 24836000.0 44367900000.0 77079600000.0 8904230000.0 43355400000.0 106659000000.0 251107000000.0 372497000.0 18464800000.0 37821500000.0 35985300000.0 18321100000.0 4724780000.0 23192800000.0 53986700000.0 27830100000.0 9757330000.0 26886000000.0 46652300000.0 70124100000.0 134951000000.0 188255000000.0 201603000000.0 203668000000.0 217107000000.0 329484000000.0 263943000000.0 261774000000.0 210719000000.0 142758000000.0 152285000000.0 163175000000.0 19097300000.0 115104000000.0 71916500000.0 6108760000.0 30279300000.0 23117700000.0 132105000000.0 22356100000.0 12648400000.0 40721600000.0 29032300000.0 28393700000.0 41452100000.0 83530400000.0 106675000000.0 154404000000.0 141529000000.0 203303000000.0 172988000000.0 160084000000.0 140692000000.0 109777000000.0 52522800000.0 4717830000.0 6980550000.0 11044500000.0 2432640000.0 45778100000.0 65806200000.0 25558200000.0 5040180000.0 19544800000.0 38521000000.0 40811500000.0 19999900000.0 2380850000.0 252971000000.0 106621000000.0 42638600000.0 9171480000.0 75679400000.0 42537900000.0 1185860000.0 41049800000.0 74156800000.0 9892360000.0 80038000000.0 53526200000.0 80961700000.0 96996400000.0 11322500000.0 15745000000.0 16140000000.0 125875000000.0 33960400000.0 1365900000.0 82277500000.0 73589100000.0 51004300000.0 30728700000.0 8863500000.0 27695300000.0 35827300000.0 34848500000.0 81871800000.0 9144300000.0 74080200000.0 40990900000.0 7963540000.0 167297000000.0 329336000000.0 10148700000.0 22068200000.0 19182200000.0 36212900000.0 59152600000.0 79855800000.0 92716100000.0 31436400000.0 28311500000.0 64289800000.0 34030300000.0 17772600000.0 12589800000.0 55876100000.0 41475300000.0 32363000000.0 67403500000.0 152224000000.0 76792000000.0 44711100000.0 60135700000.0 28022600000.0 80028600000.0 82074600000.0 92847800000.0 36805500000.0 21478200000.0 15306900000.0 3010690000.0 32755600000.0 77071500000.0 38329400000.0 46400500000.0 59559200000.0 89841400000.0 71910500000.0 10719200000.0 50735800000.0 54479700000.0 40488500000.0 21824000000.0 33798800000.0 16034400000.0 15585000000.0 332523000000.0 169560000000.0 7901240000.0 9524800000.0 9306860000.0 9752100000.0 60781000000.0 152685000000.0 195876000000.0 259494000000.0 49806100000.0 55592300000.0 724062000.0 30520600000.0 14849700000.0 2013890000.0 16837600000.0 53253800000.0 58355300000.0 79048500000.0 49451500000.0 38211800000.0 14913600000.0 7449730000.0 28611200000.0 25955100000.0 16449300000.0 15938500000.0 65625800000.0 93477600000.0 33206800000.0 94397900000.0 41691200000.0 88883300000.0 32228800000.0 9857400000.0 52575300000.0 77105700000.0 11112500000.0 49562600000.0 56098200000.0 79280400000.0 25769900000.0 10044300000.0 19406400000.0 8144720000.0 39614500000.0 7096400000.0 34022400000.0 617913000.0 1081630000.0 10742600000.0 15548000000.0 10060200000.0 435381000.0 5045680000.0 238830000.0 55483600000.0 50541000000.0 65270500000.0 71509000000.0 96774100000.0 74610700000.0 51351700000.0 21615200000.0 1986110000.0 15255500000.0 31020000000.0 4276600000.0 55686700000.0 46807300000.0 262181000000.0 197551000000.0 153917000000.0 61216000000.0 9764980000.0 9307330000.0 9527000000.0 3523780000.0 30181500000.0 8098880000.0 2553440000.0 1676900000.0 20339400000.0 105386000000.0 165435000000.0 284446000000.0 49072000000.0 10212000000.0 43787500000.0 5017940000.0 3843630000.0 4341610000.0 13805700000.0 45466400000.0 57965700000.0 79329100000.0 69006700000.0 71112800000.0 60685500000.0 66257500000.0 56013300000.0 64849200000.0 73559100000.0 71296200000.0 46907300000.0 9444890000.0 78290300000.0 9086690000.0 140632000000.0 6306540000.0 83996300000.0 64273900000.0 43869200000.0 11330900000.0 75220700000.0 32461100000.0 91491900000.0 26624400000.0 38222300000.0 21485500000.0 7017700000.0 24818200000.0 14893800000.0 20252400000.0 7749770000.0 12967700000.0 4674540000.0 2188380000.0 16894800000.0 31171700000.0 32064700000.0 60404700000.0 56571200000.0 66373000000.0 62565900000.0 75380700000.0 51762400000.0 36213500000.0 16355100000.0 3977910000.0 3430580000.0 4807060000.0 46378000000.0 10162300000.0 51633900000.0 286534000000.0 166471000000.0 106032000000.0 20455600000.0 1764340000.0 2485750000.0 8085230000.0 11397400000.0 10399400000.0 12448300000.0 22593900000.0 104057000000.0 159321000000.0 255335000000.0 59356600000.0 12756600000.0 38271200000.0 8131290000.0 10847800000.0 16056100000.0 31243800000.0 56776400000.0 69001000000.0 71929400000.0 60763800000.0 62227800000.0 55524200000.0 59243900000.0 49809300000.0 56281300000.0 55034000000.0 48634300000.0 34972600000.0 3434110000.0 59641900000.0 7029800000.0 112460000000.0 8232580000.0 65416200000.0 27678400000.0 24442800000.0 10502900000.0 58111000000.0 12577500000.0 18327800000.0 103822000000.0 27858600000.0 9252470000.0 26817100000.0 8700250000.0 46806000000.0 8788430000.0 51375000000.0 9195440000.0 20599000000.0 8747130000.0 14881100000.0 7195780000.0 23059700000.0 40477400000.0 41137000000.0 54866300000.0 53623200000.0 62992400000.0 60263300000.0 73052000000.0 63788000000.0 48879500000.0 34136900000.0 16786200000.0 11193900000.0 8241060000.0 40184700000.0 12776400000.0 61413100000.0 257231000000.0 160351000000.0 104690000000.0 22900900000.0 12506200000.0 10400700000.0 11407300000.0 12255100000.0 10922500000.0 13630000000.0 13336300000.0 84343100000.0 135440000000.0 222500000000.0 73099300000.0 19534200000.0 34744500000.0 9714230000.0 12591600000.0 18591100000.0 34984900000.0 55484600000.0 69038200000.0 68964800000.0 62882200000.0 67196600000.0 63046100000.0 66366300000.0 58705100000.0 64546200000.0 57483000000.0 49028200000.0 45788600000.0 9035750000.0 69550000000.0 9035750000.0 115721000000.0 8534970000.0 84927400000.0 33785600000.0 47179400000.0 15360700000.0 80828100000.0 7306200000.0 49028900000.0 94236200000.0 10155000000.0 8822690000.0 12747700000.0 5338790000.0 35271300000.0 2746440000.0 42509200000.0 169270000.0 14244100000.0 2570460000.0 12812800000.0 5719990000.0 20528900000.0 42221600000.0 44223300000.0 54562400000.0 53926100000.0 61326100000.0 57947200000.0 65991700000.0 64065200000.0 48590200000.0 37667200000.0 19456100000.0 12778100000.0 9849770000.0 36137900000.0 19630800000.0 74727800000.0 224104000000.0 136296000000.0 84796400000.0 13577100000.0 13704400000.0 10923800000.0 12267600000.0 13026200000.0 11396200000.0 14638800000.0 10218400000.0 68142900000.0 114693000000.0 190600000000.0 79335400000.0 23072100000.0 30229900000.0 10712500000.0 14557700000.0 22112300000.0 39481700000.0 55787800000.0 69104900000.0 69426300000.0 65643100000.0 69753400000.0 64281300000.0 65663100000.0 57921400000.0 62264800000.0 50334400000.0 40302400000.0 44004300000.0 9035750000.0 64509300000.0 9035750000.0 103339000000.0 9035750000.0 82603600000.0 22459900000.0 44347200000.0 14319200000.0 78010900000.0 5863680000.0 55782500000.0 99276700000.0 32960900000.0 9049310000.0 31322800000.0 8940370000.0 49239300000.0 9035750000.0 53210300000.0 9035750000.0 23400600000.0 9035750000.0 19251000000.0 9035750000.0 19960700000.0 42767900000.0 44755900000.0 54404900000.0 55073900000.0 62696600000.0 59690900000.0 64443800000.0 64383600000.0 49655600000.0 41496300000.0 22878500000.0 14573800000.0 10717500000.0 31097100000.0 23170900000.0 80566800000.0 191943000000.0 115396000000.0 68455900000.0 10310100000.0 14726300000.0 11397600000.0 13040700000.0 13695100000.0 11812900000.0 15453400000.0 9662300000.0 55129900000.0 96610300000.0 161768000000.0 82290800000.0 25987300000.0 26153500000.0 11168000000.0 15596100000.0 24170400000.0 41427600000.0 54311100000.0 67317600000.0 69580200000.0 67619600000.0 71233100000.0 64519800000.0 64384200000.0 56216100000.0 59028000000.0 44098700000.0 33004300000.0 42016900000.0 9035750000.0 59847100000.0 9035750000.0 92130700000.0 9035750000.0 80146000000.0 17392900000.0 47021400000.0 20022700000.0 79814900000.0 8742790000.0 60804300000.0 85453400000.0 29210900000.0 4297580000.0 28958200000.0 6880450000.0 48299600000.0 9035750000.0 51455200000.0 9035750000.0 24049000000.0 9035750000.0 20243000000.0 9035750000.0 17882300000.0 41416800000.0 44053000000.0 54201300000.0 56074400000.0 64456100000.0 61909300000.0 64496600000.0 62966700000.0 49210600000.0 43093600000.0 25017200000.0 15618800000.0 11174400000.0 26725300000.0 26104300000.0 83232200000.0 162886000000.0 97157000000.0 55347900000.0 9682490000.0 15549200000.0 11814300000.0 13711200000.0 14249300000.0 12165500000.0 16057900000.0 9680200000.0 44943200000.0 81247500000.0 136539000000.0 82559700000.0 28329600000.0 22825100000.0 11549400000.0 16492600000.0 25801600000.0 42287200000.0 52500100000.0 65008900000.0 69106900000.0 68426900000.0 71403500000.0 63705400000.0 62386700000.0 53723300000.0 55144000000.0 38745400000.0 27062800000.0 39925700000.0 9035750000.0 55514000000.0 9035750000.0 82469200000.0 9035750000.0 76338500000.0 12501100000.0 46166400000.0 21275000000.0 78204300000.0 8313980000.0 66013500000.0 82665000000.0 38030500000.0 9065010000.0 33268300000.0 9035750000.0 48153500000.0 9035750000.0 49037200000.0 9035750000.0 24435200000.0 9035750000.0 20951700000.0 9035750000.0 16248200000.0 39521700000.0 42685300000.0 53306700000.0 56124300000.0 65242800000.0 63286000000.0 64526700000.0 60984000000.0 48304000000.0 43622800000.0 26672300000.0 16515800000.0 11555600000.0 23210500000.0 28454100000.0 83303000000.0 137449000000.0 81661000000.0 45105300000.0 9683680000.0 16156800000.0 12166800000.0 14266400000.0 14679900000.0 12447900000.0 16448600000.0 9760530000.0 37123900000.0 68355500000.0 114894000000.0 80752300000.0 30087100000.0 20225500000.0 11863800000.0 17206100000.0 26911900000.0 42137000000.0 50332100000.0 62194900000.0 67839700000.0 68104000000.0 70458000000.0 62079600000.0 59860500000.0 50703700000.0 50891500000.0 34196800000.0 22339500000.0 37796400000.0 9035750000.0 51462900000.0 9035750000.0 74108300000.0 9035750000.0 71994300000.0 9882220000.0 45054800000.0 21879000000.0 75917800000.0 9035750000.0 69276100000.0 74966800000.0 40040600000.0 9116850000.0 33481100000.0 9035750000.0 46885900000.0 9035750000.0 46229400000.0 9035750000.0 24563200000.0 9035750000.0 21366400000.0 9035750000.0 15013500000.0 37270800000.0 40845500000.0 51835900000.0 55346300000.0 64954400000.0 63543900000.0 63815100000.0 58524100000.0 46944700000.0 43201500000.0 27777000000.0 17231600000.0 11869500000.0 20493700000.0 30213800000.0 81353500000.0 115613000000.0 68668000000.0 37255800000.0 9761640000.0 16546500000.0 12449200000.0 14697400000.0 14981700000.0 12655800000.0 16634200000.0 9826010000.0 31192300000.0 57639600000.0 96587300000.0 77424200000.0 31268200000.0 18237800000.0 12106100000.0 17736300000.0 27537400000.0 41217400000.0 47941100000.0 59043500000.0 65863300000.0 66779900000.0 68566600000.0 59788200000.0 56910700000.0 47356300000.0 46506200000.0 30360200000.0 18662400000.0 35668200000.0 9035750000.0 47652200000.0 9035750000.0 66794000000.0 9035750000.0 67283500000.0 9155230000.0 43701700000.0 21959300000.0 73312600000.0 9035750000.0 70617600000.0 67655400000.0 41523900000.0 9164670000.0 33353100000.0 9035750000.0 45260200000.0 9035750000.0 43241000000.0 9035750000.0 24446700000.0 9035750000.0 21498500000.0 9035750000.0 14106400000.0 34817100000.0 38678100000.0 49878500000.0 53860300000.0 63704100000.0 62765600000.0 62336600000.0 55737700000.0 45250100000.0 42055700000.0 28365900000.0 17763400000.0 12111300000.0 18428800000.0 31392900000.0 77917300000.0 97142300000.0 57878600000.0 31308000000.0 9826830000.0 16728700000.0 12657100000.0 14999300000.0 15153000000.0 12786400000.0 16631900000.0 9870060000.0 26724200000.0 48816700000.0 81259100000.0 73038900000.0 31891600000.0 16726100000.0 12272900000.0 18076800000.0 27704100000.0 39709800000.0 45383000000.0 55655900000.0 63258600000.0 64593100000.0 65894800000.0 56963900000.0 53635900000.0 43845600000.0 42172800000.0 27144100000.0 15862300000.0 33561400000.0 9035750000.0 44045900000.0 9035750000.0 60310000000.0 9035750000.0 62369100000.0 9046260000.0 42120300000.0 21610200000.0 70343600000.0 9035750000.0 70839700000.0 60799800000.0 42347500000.0 9206210000.0 32894200000.0 9035750000.0 43316500000.0 9035750000.0 40213600000.0 9035750000.0 24100800000.0 9035750000.0 21379600000.0 9035750000.0 13448000000.0 32283100000.0 36305800000.0 47525400000.0 51788600000.0 61640000000.0 61086900000.0 60177100000.0 52714100000.0 43281400000.0 40362000000.0 28473600000.0 18104800000.0 12277500000.0 16863800000.0 32010800000.0 73447100000.0 81683200000.0 49003300000.0 26830200000.0 9870750000.0 16721300000.0 12787600000.0 15170200000.0 15195200000.0 12838600000.0 16462600000.0 9893210000.0 23364400000.0 41612900000.0 68508700000.0 67961500000.0 31983800000.0 15569500000.0 12362600000.0 18225000000.0 27451800000.0 37771100000.0 42697600000.0 52108800000.0 60116200000.0 61685900000.0 62593000000.0 53726700000.0 50127200000.0 40299400000.0 38021700000.0 24454100000.0 13783000000.0 31483900000.0 9035750000.0 40615200000.0 9035750000.0 54486300000.0 9035750000.0 57385200000.0 9036370000.0 40320200000.0 20928700000.0 66987600000.0 9035750000.0 54432400000.0 42478800000.0 9239640000.0 32123300000.0 9035750000.0 41099900000.0 9035750000.0 37230700000.0 9035750000.0 23544400000.0 9035750000.0 21044200000.0 9035750000.0 12966400000.0 29760500000.0 33827200000.0 44863800000.0 49246900000.0 58904700000.0 58649900000.0 57439300000.0 49519100000.0 41086700000.0 38271900000.0 28147000000.0 18253400000.0 12366500000.0 15669500000.0 32095400000.0 68301600000.0 68832700000.0 41762900000.0 23462800000.0 9893780000.0 16545600000.0 12839700000.0 15211500000.0 69988400000.0 15112300000.0 12812700000.0 16149100000.0 9896300000.0 20816100000.0 35754400000.0 57944900000.0 62472500000.0 31579400000.0 14668500000.0 12375800000.0 18182000000.0 26827800000.0 35531900000.0 39915900000.0 48456400000.0 56531800000.0 58196700000.0 58795600000.0 50182600000.0 46466200000.0 36811500000.0 34135200000.0 22195500000.0 12279300000.0 29436700000.0 9035750000.0 37337700000.0 9035750000.0 49190700000.0 9035750000.0 52433000000.0 9035780000.0 38308300000.0 20014000000.0 63254400000.0 9035750000.0 68125200000.0 48571300000.0 41934900000.0 9263700000.0 31059700000.0 9035750000.0 38664900000.0 9035750000.0 34336000000.0 9035750000.0 22799500000.0 9035750000.0 20522800000.0 9035750000.0 12600400000.0 27314300000.0 31318300000.0 41973300000.0 46339700000.0 55629200000.0 55592400000.0 54225000000.0 46199900000.0 38706500000.0 35911000000.0 27439900000.0 18210000000.0 12379000000.0 14741400000.0 31681900000.0 62757100000.0 58193900000.0 35878500000.0 20907200000.0 9896780000.0 16224800000.0 12813700000.0 15127700000.0 14910900000.0 12710900000.0 15714600000.0 9880160000.0 18839300000.0 30983300000.0 49205500000.0 56786500000.0 30719900000.0 13943500000.0 12314400000.0 25882700000.0 33097200000.0 37063400000.0 44736600000.0 52597700000.0 54253200000.0 54620300000.0 46423100000.0 42722000000.0 33445200000.0 30557000000.0 20279600000.0 11219500000.0 27417600000.0 9035750000.0 34197100000.0 9035750000.0 44320300000.0 9035750000.0 47583500000.0 9035750000.0 36095100000.0 18952200000.0 59164400000.0 9035750000.0 43201600000.0 40755000000.0 9277690000.0 29725800000.0 9035750000.0 36061300000.0 9035750000.0 31548700000.0 9035750000.0 21890000000.0 9035750000.0 19842000000.0 9035750000.0 12299700000.0 24986100000.0 28834200000.0 38923900000.0 43158200000.0 51930100000.0 52041700000.0 50628900000.0 42791100000.0 36175800000.0 33379700000.0 26409700000.0 12317000000.0 13996800000.0 30812600000.0 57025100000.0 49398800000.0 31088400000.0 18922600000.0 9880560000.0 15782200000.0 12711800000.0 14925100000.0 17951900000.0 65319600000.0 17979000000.0 14599200000.0 12536400000.0 15181600000.0 9845740000.0 17250600000.0 27075200000.0 41960400000.0 51064900000.0 29451800000.0 13333300000.0 12181800000.0 17542700000.0 24667800000.0 30548100000.0 34160300000.0 40976500000.0 48397000000.0 49967800000.0 50167400000.0 42523500000.0 38951000000.0 30238600000.0 27300900000.0 18628400000.0 10490000000.0 25422400000.0 9035750000.0 31180500000.0 9035750000.0 39796000000.0 9035750000.0 42882000000.0 9035750000.0 33697000000.0 17811600000.0 54743900000.0 9035750000.0 61656300000.0 38286900000.0 38989200000.0 9281540000.0 28148400000.0 9035750000.0 33332900000.0 9035750000.0 28872100000.0 9035750000.0 20839800000.0 9035750000.0 19025100000.0 9035750000.0 12025800000.0 22799000000.0 26411600000.0 35774100000.0 39779100000.0 47907500000.0 48110700000.0 46735000000.0 39318400000.0 33525000000.0 30755200000.0 25113700000.0 17568300000.0 12184000000.0 13372200000.0 29534300000.0 51264700000.0 42112200000.0 27165300000.0 17324900000.0 9846080000.0 15241000000.0 12537200000.0 14612200000.0 35195800000.0 24358600000.0 9998330000.0 9035750000.0 9035750000.0 9035750000.0 9035750000.0 16644100000.0 9035750000.0 33787400000.0 9275660000.0 9035750000.0 9035750000.0 9035750000.0 9035750000.0 9035750000.0 20760500000.0 32570600000.0 14186500000.0 12294000000.0 14571600000.0 9794160000.0 15918300000.0 23839800000.0 35913900000.0 45424200000.0 27824400000.0 12792400000.0 11982200000.0 16965100000.0 23232300000.0 27944900000.0 31222600000.0 37195100000.0 44000700000.0 45435600000.0 45519500000.0 38544100000.0 27209100000.0 17177200000.0 23446900000.0 28276900000.0 35556600000.0 38352800000.0 31135000000.0 50024500000.0 57227200000.0 36693800000.0 26356900000.0 30518400000.0 26299400000.0 19671800000.0 18092200000.0 11752300000.0 24071500000.0 36265300000.0 43645200000.0 43895500000.0 42615800000.0 35800700000.0 30780200000.0 28094100000.0 23604300000.0 16988700000.0 11984100000.0 12820700000.0 27896700000.0 45590900000.0 36034500000.0 23917400000.0 15982600000.0 9794440000.0 14622600000.0 12294700000.0 14198100000.0 13683000000.0 11989400000.0 13903600000.0 9726740000.0 14755500000.0 21117100000.0 30810000000.0 39941900000.0 25887500000.0 12288400000.0 11720900000.0 16232700000.0 21620300000.0 25329500000.0 28262700000.0 33405100000.0 39467100000.0 40733000000.0 40741900000.0 34530300000.0 31486400000.0 24358500000.0 21706800000.0 15874200000.0 9672230000.0 21487100000.0 9035750000.0 25476000000.0 9035750000.0 31553700000.0 9035750000.0 34002000000.0 9035750000.0 28432100000.0 15487200000.0 45041800000.0 9035750000.0 52122200000.0 29665000000.0 33928300000.0 9260910000.0 24381000000.0 9035750000.0 27651200000.0 9035750000.0 23818200000.0 9035750000.0 18407500000.0 9035750000.0 17061200000.0 9035750000.0 11462700000.0 18867200000.0 21822900000.0 29349100000.0 32666100000.0 39211000000.0 39475100000.0 38331000000.0 32251500000.0 27964100000.0 25434900000.0 21926300000.0 16254000000.0 11722400000.0 12308800000.0 25949900000.0 40079900000.0 30906400000.0 21183400000.0 14809400000.0 9726970000.0 13946500000.0 11990000000.0 13693100000.0 13099600000.0 11629200000.0 13194100000.0 9645050000.0 13709200000.0 18773900000.0 26434000000.0 34661400000.0 23690000000.0 11799300000.0 11403800000.0 15361700000.0 19869600000.0 22728100000.0 25289700000.0 29614800000.0 34841400000.0 35919200000.0 35884100000.0 30514500000.0 27840800000.0 21676900000.0 19312400000.0 14679200000.0 9457780000.0 19539700000.0 9035750000.0 22766900000.0 9035750000.0 27747300000.0 9035750000.0 29822200000.0 9035750000.0 25611400000.0 14365400000.0 39833200000.0 9035750000.0 46430800000.0 25879400000.0 30755000000.0 9238400000.0 22249900000.0 9035750000.0 24757600000.0 9035750000.0 21413500000.0 9035750000.0 17066200000.0 9035750000.0 15948200000.0 9035750000.0 11148200000.0 17107700000.0 19665700000.0 26134300000.0 29019200000.0 34658300000.0 34912000000.0 33928100000.0 28680300000.0 25095200000.0 22801100000.0 20116700000.0 15380200000.0 11405100000.0 11813800000.0 23742700000.0 34773900000.0 26510900000.0 18829500000.0 13752900000.0 9645250000.0 13229200000.0 11629700000.0 13108200000.0 12447900000.0 11220700000.0 12456400000.0 9550890000.0 12748100000.0 16703300000.0 22609600000.0 29597000000.0 21278600000.0 11310900000.0 11038100000.0 14370000000.0 18011500000.0 20155000000.0 22310200000.0 25828900000.0 30157300000.0 31037700000.0 30981800000.0 26517000000.0 24266700000.0 19146100000.0 17136800000.0 13561600000.0 9316120000.0 17602000000.0 9035750000.0 20137800000.0 9035750000.0 24102900000.0 9035750000.0 25795600000.0 9035750000.0 22694700000.0 13291900000.0 34436200000.0 9035750000.0 40243900000.0 22386400000.0 27237000000.0 9209440000.0 19991400000.0 9035750000.0 21856700000.0 9035750000.0 19070100000.0 9035750000.0 15664900000.0 9035750000.0 14768000000.0 9035750000.0 10806000000.0 15465600000.0 17593100000.0 22941500000.0 25351000000.0 30027700000.0 30253500000.0 29443800000.0 25094000000.0 22188800000.0 20204300000.0 18205600000.0 14385500000.0 11039100000.0 11321000000.0 21321600000.0 29686300000.0 22669900000.0 16748500000.0 12782200000.0 9551050000.0 12484200000.0 11221100000.0 12455000000.0 11739800000.0 10772000000.0 11700700000.0 9446250000.0 11851400000.0 14822700000.0 19192800000.0 24739000000.0 18697300000.0 10815400000.0 10631500000.0 13277600000.0 16072200000.0 17615100000.0 19328700000.0 22049400000.0 25438100000.0 26118500000.0 26059100000.0 22548300000.0 20762900000.0 16742900000.0 15139300000.0 12498600000.0 9220240000.0 15671600000.0 9035750000.0 17575500000.0 9035750000.0 20588700000.0 9035750000.0 21898500000.0 9035750000.0 19702400000.0 12270200000.0 28887300000.0 9035750000.0 33652700000.0 19136800000.0 23437600000.0 9175380000.0 17631600000.0 9035750000.0 18960800000.0 9035750000.0 16773700000.0 9035750000.0 14218400000.0 9035750000.0 13534200000.0 9035750000.0 10437600000.0 13921200000.0 15593800000.0 19777900000.0 21678400000.0 25348500000.0 25534200000.0 24905100000.0 21497400000.0 19256700000.0 17647200000.0 16218100000.0 13289800000.0 10632300000.0 10822300000.0 18730700000.0 24806800000.0 19238300000.0 14857700000.0 11876800000.0 9446370000.0 11721600000.0 10772300000.0 11745300000.0 10987700000.0 10291600000.0 10934300000.0 9333300000.0 11003100000.0 13070000000.0 16066000000.0 20058900000.0 15987500000.0 10309900000.0 10192500000.0 12105600000.0 14073900000.0 15106500000.0 16347500000.0 18276600000.0 20699300000.0 21180300000.0 21129900000.0 18610200000.0 17320700000.0 14440500000.0 13278400000.0 11472800000.0 9152040000.0 13746800000.0 9035750000.0 15065900000.0 9035750000.0 17174800000.0 9035750000.0 18103300000.0 9035750000.0 16653000000.0 11296200000.0 23221600000.0 9035750000.0 26747100000.0 16078400000.0 19420200000.0 9137490000.0 15195200000.0 9035750000.0 16075600000.0 9035750000.0 14511400000.0 9035750000.0 12739200000.0 9035750000.0 12259700000.0 9035750000.0 10047500000.0 12453400000.0 13653200000.0 16643600000.0 18010400000.0 20640700000.0 20777900000.0 20331300000.0 17894000000.0 16307600000.0 15126200000.0 14175100000.0 12114500000.0 10193100000.0 10314200000.0 16011300000.0 20106400000.0 16097900000.0 13094700000.0 11020500000.0 9333380000.0 10948900000.0 10291900000.0 10991700000.0 10204200000.0 9788500000.0 10162300000.0 9214330000.0 10188600000.0 11397900000.0 13131700000.0 15514000000.0 13188200000.0 9794800000.0 9730050000.0 10876400000.0 12035500000.0 12622700000.0 13367400000.0 14508900000.0 15949900000.0 16233700000.0 16200700000.0 14697900000.0 13925900000.0 12210500000.0 11513400000.0 10471200000.0 9099610000.0 11825600000.0 9035750000.0 12594200000.0 9035750000.0 13831500000.0 9035750000.0 14380900000.0 9035750000.0 13563900000.0 10359800000.0 17472800000.0 9035750000.0 19616300000.0 13156700000.0 15247500000.0 9097000000.0 12705300000.0 9035750000.0 13201700000.0 9035750000.0 12271800000.0 9035750000.0 11238000000.0 9035750000.0 10956600000.0 9035750000.0 9641320000.0 11040000000.0 11755300000.0 13533400000.0 14349600000.0 15916900000.0 16000200000.0 15736000000.0 14286000000.0 13347900000.0 12633200000.0 12094500000.0 10881700000.0 9730370000.0 9797130000.0 13202200000.0 15541800000.0 13150400000.0 11412500000.0 10198700000.0 9214380000.0 10170800000.0 9788630000.0 10206500000.0 9401910000.0 9271760000.0 9387630000.0 9091770000.0 9394050000.0 9769660000.0 10305800000.0 11051800000.0 10336000000.0 9273160000.0 9253540000.0 9612940000.0 9973920000.0 10154200000.0 10387800000.0 10744100000.0 11194600000.0 11283100000.0 11272400000.0 10802100000.0 10560000000.0 10023400000.0 9804770000.0 9482770000.0 9055070000.0 9906440000.0 9035750000.0 10144800000.0 9035750000.0 10529600000.0 9035750000.0 10701000000.0 9035750000.0 10451100000.0 9447250000.0 11673500000.0 9035750000.0 12349300000.0 10315900000.0 10982000000.0 9054990000.0 10183600000.0 9035750000.0 10335600000.0 9035750000.0 10044900000.0 9035750000.0 9724150000.0 9035750000.0 9636640000.0 9035750000.0 9225520000.0 9658860000.0 9882660000.0 10438600000.0 10694100000.0 11184500000.0 11210800000.0 11128300000.0 10674900000.0 10382300000.0 10157400000.0 9992230000.0 9614590000.0 9253640000.0 9273860000.0 10340400000.0 11060400000.0 10311600000.0 9774230000.0 9397180000.0 9091780000.0 9390260000.0 9271800000.0 9402640000.0 