# vtk DataFile Version 2.0
Time step 111
ASCII
DATASET UNSTRUCTURED_GRID
POINTS 4650 float
208708.0 238938.0 0
215575.0 238909.0 0
219550.0 239165.0 0
247370.0 238158.0 0
295105.0 238210.0 0
205228.0 240905.0 0
212156.0 240952.0 0
223085.0 240997.0 0
237004.0 240331.0 0
240517.0 242238.0 0
243936.0 240192.0 0
247420.0 242145.0 0
250849.0 240113.0 0
254302.0 242088.0 0
257739.0 240074.0 0
261188.0 242070.0 0
274489.0 241765.0 0
281226.0 241948.0 0
284700.0 239998.0 0
288111.0 242060.0 0
291597.0 240120.0 0
295042.0 242193.0 0
298553.0 240286.0 0
201747.0 242877.0 0
205203.0 244881.0 0
208683.0 242921.0 0
212331.0 244917.0 0
215748.0 242895.0 0
219715.0 243148.0 0
226683.0 242701.0 0
230213.0 244540.0 0
233596.0 242420.0 0
237119.0 244311.0 0
244010.0 244176.0 0
250881.0 244106.0 0
257737.0 244068.0 0
265029.0 243094.0 0
271060.0 243789.0 0
277810.0 243962.0 0
284633.0 244013.0 0
291538.0 244102.0 0
298483.0 244269.0 0
201725.0 246856.0 0
208877.0 246875.0 0
215813.0 246881.0 0
219801.0 247121.0 0
223245.0 244972.0 0
226836.0 246676.0 0
233738.0 246399.0 0
240625.0 246218.0 0
247480.0 246127.0 0
254319.0 246080.0 0
261145.0 246052.0 0
267755.0 245975.0 0
274404.0 245952.0 0
281205.0 246009.0 0
288046.0 246036.0 0
294962.0 246158.0 0
205420.0 248823.0 0
212343.0 248864.0 0
223364.0 248924.0 0
230366.0 248512.0 0
237263.0 248276.0 0
244102.0 248153.0 0
247551.0 250106.0 0
250923.0 248091.0 0
254337.0 250070.0 0
257728.0 248063.0 0
261079.0 250098.0 0
264459.0 248121.0 0
271098.0 248066.0 0
274468.0 250071.0 0
277799.0 248003.0 0
281200.0 250005.0 0
284606.0 248008.0 0
287985.0 250017.0 0
291430.0 248060.0 0
294766.0 250094.0 0
298397.0 248236.0 0
201995.0 250803.0 0
208872.0 250813.0 0
215793.0 250845.0 0
219761.0 251075.0 0
226973.0 250627.0 0
230642.0 252436.0 0
233930.0 250346.0 0
237427.0 252236.0 0
240750.0 250188.0 0
244203.0 252126.0 0
250970.0 252074.0 0
257711.0 252075.0 0
264429.0 252113.0 0
267787.0 250132.0 0
271136.0 252105.0 0
277843.0 252037.0 0
284580.0 251998.0 0
291334.0 252034.0 0
298012.0 252167.0 0
201993.0 254747.0 0
205407.0 252763.0 0
208781.0 254734.0 0
212313.0 252806.0 0
215765.0 254782.0 0
219728.0 255019.0 0
223311.0 252857.0 0
227401.0 254530.0 0
234140.0 254299.0 0
240882.0 254155.0 0
247626.0 254082.0 0
254359.0 254061.0 0
261073.0 254086.0 0
267784.0 254108.0 0
274495.0 254064.0 0
281209.0 254003.0 0
287937.0 253999.0 0
294649.0 254074.0 0
205364.0 256707.0 0
212085.0 256716.0 0
224231.0 256643.0 0
230892.0 256378.0 0
237592.0 256197.0 0
244306.0 256096.0 0
251022.0 256055.0 0
257728.0 256061.0 0
264432.0 256088.0 0
271142.0 256078.0 0
277852.0 256022.0 0
284564.0 255983.0 0
291278.0 256010.0 0
298009.0 256083.0 0
201991.0 258694.0 0
208685.0 258688.0 0
215334.0 258663.0 0
221092.0 258688.0 0
227691.0 258475.0 0
231112.0 260333.0 0
234334.0 258256.0 0
237741.0 260159.0 0
241010.0 258120.0 0
244401.0 260062.0 0
247702.0 258054.0 0
251077.0 260026.0 0
254396.0 258041.0 0
257757.0 260033.0 0
261089.0 258061.0 0
264445.0 260052.0 0
267790.0 258072.0 0
271144.0 260038.0 0
274497.0 258036.0 0
277846.0 259988.0 0
281203.0 257982.0 0
284551.0 259949.0 0
287911.0 257970.0 0
291266.0 259956.0 0
294635.0 258013.0 0
298009.0 259991.0 0
201988.0 262640.0 0
205324.0 260661.0 0
208620.0 262656.0 0
211962.0 260675.0 0
215044.0 262867.0 0
218218.0 260981.0 0
221483.0 262772.0 0
224524.0 260581.0 0
227924.0 262427.0 0
234500.0 262215.0 0
241121.0 262081.0 0
247772.0 262018.0 0
254437.0 262008.0 0
261110.0 262024.0 0
267796.0 262027.0 0
274493.0 261991.0 0
281193.0 261940.0 0
287903.0 261915.0 0
294634.0 261930.0 0
205297.0 264615.0 0
211820.0 264742.0 0
218316.0 264857.0 0
224794.0 264561.0 0
231289.0 264290.0 0
237862.0 264116.0 0
244481.0 264018.0 0
251127.0 263986.0 0
257787.0 263993.0 0
264458.0 264005.0 0
271143.0 263986.0 0
277838.0 263936.0 0
284543.0 263889.0 0
291264.0 263876.0 0
298009.0 263889.0 0
201987.0 266576.0 0
208563.0 266636.0 0
215098.0 266785.0 0
221630.0 266693.0 0
228111.0 266390.0 0
231417.0 268245.0 0
234627.0 266170.0 0
237945.0 268065.0 0
241205.0 266033.0 0
244537.0 267961.0 0
247828.0 265969.0 0
251165.0 267930.0 0
254472.0 265961.0 0
257809.0 267939.0 0
261129.0 265975.0 0
264466.0 267947.0 0
267800.0 265971.0 0
271139.0 267922.0 0
274486.0 265931.0 0
277829.0 267863.0 0
281185.0 265873.0 0
284537.0 267804.0 0
287899.0 265834.0 0
291264.0 267773.0 0
294635.0 265828.0 0
298009.0 267772.0 0
201986.0 270491.0 0
205284.0 268559.0 0
208596.0 270560.0 0
211861.0 268674.0 0
215211.0 270675.0 0
218430.0 268738.0 0
221765.0 270606.0 0
224937.0 268499.0 0
228227.0 270333.0 0
234701.0 270118.0 0
241255.0 269969.0 0
247862.0 269902.0 0
254494.0 269900.0 0
261140.0 269914.0 0
267799.0 269905.0 0
274477.0 269855.0 0
281177.0 269783.0 0
287897.0 269728.0 0
294636.0 269707.0 0
205304.0 272459.0 0
211947.0 272556.0 0
218602.0 272627.0 0
225069.0 272420.0 0
231470.0 272192.0 0
237983.0 271997.0 0
244561.0 271883.0 0
251182.0 271857.0 0
257819.0 271871.0 0
264467.0 271878.0 0
271131.0 271844.0 0
277820.0 271770.0 0
284532.0 271694.0 0
291265.0 271647.0 0
294638.0 273564.0 0
298010.0 271637.0 0
201987.0 274365.0 0
208652.0 274430.0 0
215341.0 274526.0 0
222033.0 274542.0 0
228249.0 274287.0 0
231463.0 276115.0 0
234719.0 274046.0 0
237968.0 275906.0 0
241263.0 273884.0 0
244547.0 275776.0 0
247868.0 273813.0 0
251173.0 275761.0 0
254498.0 273820.0 0
257811.0 275787.0 0
261139.0 273840.0 0
264457.0 275797.0 0
267792.0 273827.0 0
271119.0 275752.0 0
274467.0 273761.0 0
277810.0 275656.0 0
281170.0 273670.0 0
284530.0 275558.0 0
287897.0 273597.0 0
291267.0 275498.0 0
298011.0 275482.0 0
201987.0 278197.0 0
205331.0 276310.0 0
208705.0 278250.0 0
212037.0 276390.0 0
215458.0 278332.0 0
218777.0 276465.0 0
222263.0 278365.0 0
225941.0 277301.0 0
234679.0 277950.0 0
241220.0 277771.0 0
247837.0 277695.0 0
254476.0 277720.0 0
261123.0 277750.0 0
267777.0 277736.0 0
274454.0 277650.0 0
281165.0 277532.0 0
287900.0 277440.0 0
294641.0 277400.0 0
205353.0 280115.0 0
212107.0 280180.0 0
218907.0 280253.0 0
226023.0 281186.0 0
229371.0 279275.0 0
232799.0 281237.0 0
237897.0 279787.0 0
244483.0 279629.0 0
251128.0 279639.0 0
257780.0 279682.0 0
264437.0 279702.0 0
271103.0 279644.0 0
277803.0 279519.0 0
281169.0 281366.0 0
284534.0 279396.0 0
287912.0 281258.0 0
291275.0 279324.0 0
294649.0 281216.0 0
298011.0 279309.0 0
201988.0 281990.0 0
205362.0 283883.0 0
208739.0 282027.0 0
212141.0 283933.0 0
215531.0 282100.0 0
222343.0 282183.0 0
229431.0 283153.0 0
236236.0 283183.0 0
241114.0 281629.0 0
244352.0 283420.0 0
247760.0 281542.0 0
251038.0 283485.0 0
254422.0 281594.0 0
257726.0 283552.0 0
261089.0 281642.0 0
264404.0 283591.0 0
267755.0 281631.0 0
271085.0 283519.0 0
274443.0 281517.0 0
277805.0 283355.0 0
284553.0 283205.0 0
291293.0 283129.0 0
298012.0 283119.0 0
201987.0 285754.0 0
208744.0 285771.0 0
215546.0 285842.0 0
218955.0 284024.0 0
222367.0 285971.0 0
226067.0 285061.0 0
232846.0 285094.0 0
239677.0 285127.0 0
247611.0 285346.0 0
254336.0 285435.0 0
261037.0 285511.0 0
267725.0 285514.0 0
274440.0 285360.0 0
281194.0 285169.0 0
287945.0 285051.0 0
294664.0 285015.0 0
205353.0 287624.0 0
212126.0 287658.0 0
218946.0 287768.0 0
226083.0 288936.0 0
229463.0 287017.0 0
232878.0 288929.0 0
236273.0 287016.0 0
240631.0 288804.0 0
244071.0 287092.0 0
247443.0 289082.0 0
250913.0 287286.0 0
257644.0 287392.0 0
264355.0 287462.0 0
271068.0 287371.0 0
274461.0 289169.0 0
277832.0 287159.0 0
281263.0 288934.0 0
284603.0 286984.0 0
288015.0 288822.0 0
291331.0 286916.0 0
294689.0 288804.0 0
298014.0 286918.0 0
201986.0 289499.0 0
205327.0 291355.0 0
208707.0 289493.0 0
212037.0 291359.0 0
215502.0 289554.0 0
218877.0 291479.0 0
222343.0 289719.0 0
229485.0 290864.0 0
237263.0 290652.0 0
244008.0 290845.0 0
250781.0 291052.0 0
254222.0 289239.0 0
257526.0 291201.0 0
260956.0 289354.0 0
264273.0 291312.0 0
267684.0 289387.0 0
271060.0 291184.0 0
277914.0 290918.0 0
284724.0 290732.0 0
291389.0 290696.0 0
298016.0 290712.0 0
201984.0 293238.0 0
208640.0 293214.0 0
215325.0 293223.0 0
222285.0 293417.0 0
226095.0 292815.0 0
233946.0 292534.0 0
240637.0 292622.0 0
247357.0 292841.0 0
254090.0 293021.0 0
260814.0 293169.0 0
267604.0 293251.0 0
274521.0 292925.0 0
281471.0 292644.0 0
288118.0 292592.0 0
294721.0 292593.0 0
201982.0 296977.0 0
205293.0 295089.0 0
208567.0 296949.0 0
211913.0 295075.0 0
215127.0 296948.0 0
218519.0 295098.0 0
221583.0 296957.0 0
227496.0 296374.0 0
230684.0 294437.0 0
234058.0 296356.0 0
237322.0 294471.0 0
240652.0 296439.0 0
243977.0 294627.0 0
247283.0 296619.0 0
250669.0 294822.0 0
253941.0 296805.0 0
257367.0 294997.0 0
260602.0 296986.0 0
264073.0 295128.0 0
271068.0 294926.0 0
275276.0 296493.0 0
278309.0 294571.0 0
281725.0 296404.0 0
284890.0 294492.0 0
288231.0 296378.0 0
291457.0 294482.0 0
294755.0 296387.0 0
298018.0 294506.0 0
205260.0 298830.0 0
211802.0 298819.0 0
218282.0 298839.0 0
224634.0 298615.0 0
230859.0 298279.0 0
237378.0 298298.0 0
243945.0 298427.0 0
250550.0 298607.0 0
257164.0 298801.0 0
263770.0 298980.0 0
267267.0 297073.0 0
272320.0 298330.0 0
278632.0 298335.0 0
285049.0 298285.0 0
291523.0 298279.0 0
298020.0 298302.0 0
201980.0 300716.0 0
208508.0 300695.0 0
215001.0 300704.0 0
221452.0 300684.0 0
227807.0 300329.0 0
231012.0 302170.0 0
234157.0 300199.0 0
237416.0 302135.0 0
240657.0 300261.0 0
243903.0 302239.0 0
247203.0 300415.0 0
253767.0 300603.0 0
260313.0 300832.0 0
266298.0 301584.0 0
269362.0 300022.0 0
272488.0 302089.0 0
275572.0 300252.0 0
278799.0 302135.0 0
281913.0 300208.0 0
285160.0 302098.0 0
288326.0 300182.0 0
291574.0 302084.0 0
294784.0 300187.0 0
298022.0 302099.0 0
201978.0 304451.0 0
205235.0 302572.0 0
208472.0 304439.0 0
211731.0 302570.0 0
214949.0 304446.0 0
218202.0 302579.0 0
221427.0 304404.0 0
224658.0 302416.0 0
227853.0 304181.0 0
234224.0 304057.0 0
240646.0 304089.0 0
247114.0 304227.0 0
250419.0 302410.0 0
253580.0 304428.0 0
256914.0 302628.0 0
259908.0 304771.0 0
263138.0 303135.0 0
269339.0 303792.0 0
275667.0 304025.0 0
282011.0 304019.0 0
288388.0 303992.0 0
294804.0 303988.0 0
205221.0 306308.0 0
211699.0 306308.0 0
218176.0 306301.0 0
224644.0 306182.0 0
231042.0 306015.0 0
237426.0 305975.0 0
243848.0 306059.0 0
250284.0 306232.0 0
256658.0 306507.0 0
262933.0 306991.0 0
266144.0 305396.0 0
272486.0 305828.0 0
278852.0 305924.0 0
285215.0 305906.0 0
291604.0 305887.0 0
298023.0 305890.0 0
201977.0 308176.0 0
205213.0 310029.0 0
208454.0 308169.0 0
211684.0 310028.0 0
214927.0 308169.0 0
218155.0 310014.0 0
221403.0 308124.0 0
224615.0 309930.0 0
227841.0 307981.0 0
231022.0 309823.0 0
234225.0 307891.0 0
237398.0 309798.0 0
240613.0 307916.0 0
243779.0 309879.0 0
247019.0 308047.0 0
250157.0 310061.0 0
253404.0 308275.0 0
259720.0 308644.0 0
266041.0 309165.0 0
269268.0 307529.0 0
272438.0 309555.0 0
275661.0 307778.0 0
278840.0 309690.0 0
282037.0 307813.0 0
285223.0 309697.0 0
288414.0 307793.0 0
291613.0 309678.0 0
294815.0 307780.0 0
298024.0 309670.0 0
201976.0 311887.0 0
208445.0 311882.0 0
214912.0 311880.0 0
221375.0 311843.0 0
227805.0 311753.0 0
234190.0 311698.0 0
240558.0 311732.0 0
246923.0 311866.0 0
253274.0 312105.0 0
256499.0 310358.0 0
259606.0 312466.0 0
262821.0 310798.0 0
269201.0 311257.0 0
275619.0 311515.0 0
282020.0 311585.0 0
288412.0 311576.0 0
294816.0 311557.0 0
205209.0 313733.0 0
211673.0 313733.0 0
218133.0 313721.0 0
224577.0 313667.0 0
230978.0 313604.0 0
237346.0 313602.0 0
243701.0 313689.0 0
250050.0 313876.0 0
256390.0 314173.0 0
262742.0 314573.0 0
265967.0 312917.0 0
269141.0 314983.0 0
272381.0 313277.0 0
275565.0 315246.0 0
278799.0 313439.0 0
285201.0 313466.0 0
291606.0 313448.0 0
298024.0 313431.0 0
201976.0 315581.0 0
205206.0 317420.0 0
208438.0 315579.0 0
211662.0 317423.0 0
214895.0 315578.0 0
218109.0 317419.0 0
221343.0 315555.0 0
224535.0 317392.0 0
227759.0 315505.0 0
230923.0 317365.0 0
234135.0 315482.0 0
237279.0 317385.0 0
240488.0 315531.0 0
243617.0 317481.0 0
246831.0 315669.0 0
249953.0 317668.0 0
253171.0 315908.0 0
259520.0 316250.0 0
265904.0 316656.0 0
272324.0 316999.0 0
278746.0 317176.0 0
281979.0 315337.0 0
285163.0 317214.0 0
288389.0 315336.0 0
291587.0 317194.0 0
294809.0 315312.0 0
298024.0 317170.0 0
201975.0 319257.0 0
208431.0 319259.0 0
214878.0 319266.0 0
221308.0 319260.0 0
227708.0 319241.0 0
234071.0 319247.0 0
240409.0 319310.0 0
246738.0 319451.0 0
253076.0 319681.0 0
256298.0 317953.0 0
259439.0 320001.0 0
262672.0 318322.0 0
265840.0 320380.0 0
269082.0 318705.0 0
275506.0 318973.0 0
281927.0 319074.0 0
288356.0 319072.0 0
294799.0 319042.0 0
201975.0 322916.0 0
205202.0 321089.0 0
208425.0 322923.0 0
211651.0 321099.0 0
214861.0 322942.0 0
218084.0 321109.0 0
221274.0 322956.0 0
224491.0 321106.0 0
227655.0 322965.0 0
230863.0 321108.0 0
234002.0 322994.0 0
237204.0 321149.0 0
240325.0 323070.0 0
243529.0 321253.0 0
249856.0 321435.0 0
256205.0 321701.0 0
262595.0 322046.0 0
269019.0 322418.0 0
272264.0 320720.0 0
275443.0 322698.0 0
278686.0 320906.0 0
281869.0 322798.0 0
285115.0 320942.0 0
288317.0 322783.0 0
291563.0 320913.0 0
294786.0 322743.0 0
298024.0 320883.0 0
205199.0 324741.0 0
211640.0 324761.0 0
218059.0 324788.0 0
224448.0 324810.0 0
230802.0 324838.0 0
237127.0 324896.0 0
243435.0 325005.0 0
246641.0 323211.0 0
249749.0 325178.0 0
252973.0 323427.0 0
256095.0 325422.0 0
259346.0 323723.0 0
265765.0 324084.0 0
272199.0 324437.0 0
278621.0 324631.0 0
285064.0 324651.0 0
291536.0 324605.0 0
298024.0 324568.0 0
201974.0 326555.0 0
208419.0 326571.0 0
214845.0 326605.0 0
221242.0 326641.0 0
227604.0 326676.0 0
233933.0 326726.0 0
240238.0 326813.0 0
246536.0 326952.0 0
252852.0 327149.0 0
259223.0 327415.0 0
262498.0 325742.0 0
265663.0 327762.0 0
268942.0 326117.0 0
272121.0 328149.0 0
275374.0 326423.0 0
281807.0 326510.0 0
285015.0 328338.0 0
288278.0 326470.0 0
291514.0 328268.0 0
294773.0 326415.0 0
298024.0 328225.0 0
201973.0 330174.0 0
205197.0 328374.0 0
208415.0 330200.0 0
211631.0 328408.0 0
214833.0 330255.0 0
218038.0 328457.0 0
221215.0 330317.0 0
224409.0 328504.0 0
227557.0 330376.0 0
230743.0 328554.0 0
233866.0 330446.0 0
237048.0 328629.0 0
240149.0 330543.0 0
243337.0 328742.0 0
246423.0 330679.0 0
249628.0 328904.0 0
252709.0 330857.0 0
255952.0 329118.0 0
262358.0 329406.0 0
268838.0 329790.0 0
275297.0 330148.0 0
278552.0 328352.0 0
281750.0 330208.0 0
288249.0 330129.0 0
294765.0 330059.0 0
205196.0 331986.0 0
211626.0 332039.0 0
218021.0 332113.0 0
224375.0 332187.0 0
230688.0 332261.0 0
236972.0 332350.0 0
243236.0 332468.0 0
249495.0 332621.0 0
255775.0 332806.0 0
259044.0 331081.0 0
262122.0 333031.0 0
265505.0 331399.0 0
268673.0 333413.0 0
272020.0 331849.0 0
278488.0 332069.0 0
284984.0 332001.0 0
291503.0 331903.0 0
298024.0 331856.0 0
302245.0 333046.0 0
201973.0 333772.0 0
205195.0 335577.0 0
208413.0 333810.0 0
211624.0 335650.0 0
214826.0 333890.0 0
218012.0 335756.0 0
221194.0 333982.0 0
224348.0 335862.0 0
227516.0 334068.0 0
230640.0 335958.0 0
233803.0 334156.0 0
236900.0 336062.0 0
240062.0 334264.0 0
246306.0 334400.0 0
252550.0 334562.0 0
258818.0 334746.0 0
265166.0 334963.0 0
271872.0 335518.0 0
275214.0 333870.0 0
278476.0 335773.0 0
281724.0 333886.0 0
284999.0 335640.0 0
288244.0 333762.0 0
291514.0 335515.0 0
294765.0 333677.0 0
298025.0 335464.0 0
201972.0 337346.0 0
208414.0 337399.0 0
214823.0 337508.0 0
221181.0 337637.0 0
227484.0 337751.0 0
233746.0 337858.0 0
239979.0 337977.0 0
243136.0 336187.0 0
246191.0 338118.0 0
249358.0 336336.0 0
252387.0 338274.0 0
255580.0 336501.0 0
258577.0 338435.0 0
261822.0 336674.0 0
264763.0 338592.0 0
268130.0 336872.0 0
275221.0 337563.0 0
281781.0 337542.0 0
288283.0 337376.0 0
294776.0 337276.0 0
201972.0 340896.0 0
205196.0 339144.0 0
208416.0 340963.0 0
211625.0 339241.0 0
214826.0 341107.0 0
218009.0 339385.0 0
221176.0 341280.0 0
224331.0 339529.0 0
230600.0 339649.0 0
236834.0 339767.0 0
243040.0 339902.0 0
249224.0 340054.0 0
255387.0 340213.0 0
261527.0 340367.0 0
267582.0 340541.0 0
270837.0 338820.0 0
273476.0 340564.0 0
278625.0 339477.0 0
281989.0 341202.0 0
285093.0 339266.0 0
288358.0 340992.0 0
291548.0 339115.0 0
294795.0 340864.0 0
298026.0 339056.0 0
302175.0 341130.0 0
205196.0 342686.0 0
211629.0 342807.0 0
218013.0 342997.0 0
224322.0 343187.0 0
227460.0 341429.0 0
230569.0 343335.0 0
233698.0 341554.0 0
236777.0 343468.0 0
239903.0 341686.0 0
242954.0 343614.0 0
246081.0 341834.0 0
249099.0 343775.0 0
252232.0 341995.0 0
258352.0 342154.0 0
264412.0 342315.0 0
270383.0 342478.0 0
276263.0 342023.0 0
279241.0 343404.0 0
285238.0 342925.0 0
291595.0 342715.0 0
298028.0 342632.0 0
201971.0 344422.0 0
205195.0 346202.0 0
208417.0 344501.0 0
211631.0 346347.0 0
214832.0 344682.0 0
221180.0 344910.0 0
227447.0 345101.0 0
233660.0 345246.0 0
239838.0 345391.0 0
245982.0 345551.0 0
252091.0 345721.0 0
255211.0 343940.0 0
258161.0 345891.0 0
261276.0 344103.0 0
264185.0 346052.0 0
267280.0 344264.0 0
270219.0 346131.0 0
273303.0 344211.0 0
276316.0 345713.0 0
282291.0 345006.0 0
288447.0 344625.0 0
291644.0 346314.0 0
294818.0 344443.0 0
298029.0 346194.0 0
201971.0 347924.0 0
208414.0 348012.0 0
214835.0 348230.0 0
218020.0 346588.0 0
221190.0 348524.0 0
224324.0 346839.0 0
227445.0 348770.0 0
230550.0 347017.0 0
233636.0 348936.0 0
236733.0 347165.0 0
239786.0 349094.0 0
242879.0 347324.0 0
248987.0 347497.0 0
255059.0 347674.0 0
261095.0 347841.0 0
267129.0 347960.0 0
273238.0 347823.0 0
279326.0 347186.0 0
282357.0 348741.0 0
285392.0 346638.0 0
288523.0 348269.0 0
294838.0 348011.0 0
201969.0 351409.0 0
205189.0 349694.0 0
208397.0 351499.0 0
211624.0 349858.0 0
218025.0 350152.0 0
224335.0 350481.0 0
230545.0 350698.0 0
236704.0 350861.0 0
242818.0 351034.0 0
245896.0 349267.0 0
248889.0 351220.0 0
251968.0 349450.0 0
254930.0 351404.0 0
258010.0 349626.0 0
260965.0 351562.0 0
264044.0 349767.0 0
267028.0 351633.0 0
270129.0 349768.0 0
273154.0 351448.0 0
276267.0 349372.0 0
279288.0 350886.0 0
285429.0 350308.0 0
291678.0 349904.0 0
294849.0 351557.0 0
298031.0 349735.0 0
197757.0 352673.0 0
205171.0 353171.0 0
211589.0 353340.0 0
214822.0 351744.0 0
218008.0 353676.0 0
221198.0 352113.0 0
224348.0 354109.0 0
227455.0 352435.0 0
230556.0 354376.0 0
233629.0 352624.0 0
239753.0 352797.0 0
245823.0 352985.0 0
251859.0 353175.0 0
257887.0 353347.0 0
263939.0 353460.0 0
270038.0 353413.0 0
276178.0 353022.0 0
282326.0 352409.0 0
285402.0 353922.0 0
288539.0 351877.0 0
291681.0 353457.0 0
298032.0 353249.0 0
201968.0 354884.0 0
205138.0 356649.0 0
208347.0 354969.0 0
211492.0 356799.0 0
214766.0 355220.0 0
221186.0 355658.0 0
227474.0 356095.0 0
233646.0 356309.0 0
236697.0 354556.0 0
239744.0 356502.0 0
242775.0 354746.0 0
245763.0 356708.0 0
248801.0 354943.0 0
251754.0 356898.0 0
254815.0 355124.0 0
260853.0 355264.0 0
266934.0 355301.0 0
273053.0 355091.0 0
276069.0 356666.0 0
279203.0 354539.0 0
282256.0 356021.0 0
288517.0 355435.0 0
294848.0 355067.0 0
298033.0 356727.0 0
201966.0 358352.0 0
208265.0 358446.0 0
214599.0 358651.0 0
217936.0 357144.0 0
221117.0 359124.0 0
224348.0 357710.0 0
230588.0 358050.0 0
236727.0 358249.0 0
242752.0 358468.0 0
248715.0 358672.0 0
254694.0 358836.0 0
257770.0 357053.0 0
260736.0 358948.0 0
263836.0 357140.0 0
266833.0 358967.0 0
269939.0 357072.0 0
272942.0 358750.0 0
279104.0 358156.0 0
285350.0 357480.0 0
288485.0 358939.0 0
291667.0 356964.0 0
294842.0 358534.0 0
201964.0 361803.0 0
205101.0 360147.0 0
208182.0 361952.0 0
211348.0 360273.0 0
214381.0 362114.0 0
217659.0 360518.0 0
220623.0 362383.0 0
224321.0 361247.0 0
227499.0 359737.0 0
230700.0 361699.0 0
233717.0 359986.0 0
236807.0 361952.0 0
239768.0 360218.0 0
245711.0 360446.0 0
251640.0 360623.0 0
257634.0 360743.0 0
263718.0 360805.0 0
269832.0 360747.0 0
275957.0 360302.0 0
279015.0 361735.0 0
282181.0 359584.0 0
285304.0 360985.0 0
291651.0 360423.0 0
294838.0 361959.0 0
298033.0 360168.0 0
205083.0 363671.0 0
211223.0 363789.0 0
217345.0 363973.0 0
223314.0 364323.0 0
227637.0 363306.0 0
233870.0 363665.0 0
239811.0 363961.0 0
242743.0 362211.0 0
245662.0 364208.0 0
248629.0 362417.0 0
251519.0 364363.0 0
254548.0 362544.0 0
257445.0 364420.0 0
260585.0 362612.0 0
263556.0 364441.0 0
266718.0 362627.0 0
269721.0 364440.0 0
272830.0 362425.0 0
275863.0 363920.0 0
282132.0 363096.0 0
285291.0 364444.0 0
288464.0 362395.0 0
291646.0 363840.0 0
298034.0 363576.0 0
201964.0 365199.0 0
205098.0 367196.0 0
208141.0 365492.0 0
211182.0 367340.0 0
214223.0 365646.0 0
217167.0 367550.0 0
220174.0 365904.0 0
223044.0 367828.0 0
225961.0 365996.0 0
228727.0 367537.0 0
230952.0 365335.0 0
234071.0 367392.0 0
236917.0 365691.0 0
242736.0 365986.0 0
248543.0 366186.0 0
254389.0 366270.0 0
260329.0 366241.0 0
266561.0 366254.0 0
272739.0 366113.0 0
278978.0 365267.0 0
282150.0 366564.0 0
288469.0 365813.0 0
291657.0 367223.0 0
294842.0 365347.0 0
298035.0 366963.0 0
201967.0 368486.0 0
208198.0 369041.0 0
214208.0 369218.0 0
220139.0 369472.0 0
226012.0 369564.0 0
231537.0 369302.0 0
237015.0 369490.0 0
239851.0 367747.0 0
242722.0 369794.0 0
245613.0 367998.0 0
251401.0 368129.0 0
257241.0 368126.0 0
260067.0 369927.0 0
263183.0 367999.0 0
265954.0 369688.0 0
269601.0 368141.0 0
272825.0 369788.0 0
275861.0 367496.0 0
279071.0 368753.0 0
285324.0 367874.0 0
288495.0 369207.0 0
294851.0 368706.0 0
201961.0 371605.0 0
205179.0 370672.0 0
211270.0 370909.0 0
217263.0 371116.0 0
223179.0 371350.0 0
228910.0 371298.0 0
234332.0 371313.0 0
239875.0 371575.0 0
245560.0 371813.0 0
248462.0 369979.0 0
251298.0 371919.0 0
254243.0 370028.0 0
257071.0 371879.0 0
262844.0 371679.0 0
268435.0 371415.0 0
270971.0 372761.0 0
276139.0 371021.0 0
279311.0 372279.0 0
282238.0 370021.0 0
285362.0 371295.0 0
288434.0 372577.0 0
291666.0 370579.0 0
294846.0 372032.0 0
298036.0 370343.0 0
201944.0 374659.0 0
204852.0 374012.0 0
207442.0 375596.0 0
208295.0 372555.0 0
211556.0 374426.0 0
214402.0 372760.0 0
217564.0 374642.0 0
220352.0 373012.0 0
223367.0 374935.0 0
226156.0 373183.0 0
228987.0 375085.0 0
231686.0 373205.0 0
234412.0 375233.0 0
237114.0 373384.0 0
242695.0 373631.0 0
248386.0 373791.0 0
254128.0 373814.0 0
259874.0 373687.0 0
265497.0 373448.0 0
268217.0 375106.0 0
273800.0 373607.0 0
276736.0 374740.0 0
282407.0 373525.0 0
285424.0 374774.0 0
291435.0 373860.0 0
298015.0 373730.0 0
299400.0 376902.0 0
196561.0 379411.0 0
199368.0 377652.0 0
202113.0 377526.0 0
204880.0 377702.0 0
209917.0 376953.0 0
214827.0 376253.0 0
220608.0 376601.0 0
226244.0 376892.0 0
231710.0 377088.0 0
237130.0 377295.0 0
239887.0 375454.0 0
242660.0 377494.0 0
245504.0 375646.0 0
248320.0 377612.0 0
251215.0 375724.0 0
254053.0 377613.0 0
256954.0 375667.0 0
259765.0 377497.0 0
262623.0 375485.0 0
265403.0 377222.0 0
271160.0 376320.0 0
274123.0 377290.0 0
279723.0 375918.0 0
282692.0 377130.0 0
288350.0 376022.0 0
291183.0 377245.0 0
294331.0 375167.0 0
296484.0 377107.0 0
302034.0 378545.0 0
193709.0 381194.0 0
199655.0 380456.0 0
202647.0 380621.0 0
207568.0 379234.0 0
210341.0 380549.0 0
212638.0 378279.0 0
215490.0 380025.0 0
217907.0 378223.0 0
220810.0 380288.0 0
223504.0 378619.0 0
226250.0 380683.0 0
228986.0 378911.0 0
234396.0 379143.0 0
239856.0 379347.0 0
245448.0 379487.0 0
251154.0 379529.0 0
256899.0 379471.0 0
262596.0 379285.0 0
268347.0 378702.0 0
271392.0 379857.0 0
277115.0 378394.0 0
280113.0 379564.0 0
283052.0 380806.0 0
285587.0 378372.0 0
288391.0 379598.0 0
293688.0 378800.0 0
298865.0 379757.0 0
301657.0 381529.0 0
304722.0 380224.0 0
307482.0 381948.0 0
190836.0 382995.0 0
193824.0 384089.0 0
196732.0 382231.0 0
199943.0 383225.0 0
202826.0 383937.0 0
205371.0 381459.0 0
207976.0 382929.0 0
213163.0 382023.0 0
218286.0 382009.0 0
223530.0 382411.0 0
228921.0 382767.0 0
231662.0 380973.0 0
234314.0 383047.0 0
237081.0 381202.0 0
242607.0 381362.0 0
248264.0 381429.0 0
254014.0 381408.0 0
259773.0 381294.0 0
262716.0 383035.0 0
265526.0 380923.0 0
268579.0 382259.0 0
274465.0 380882.0 0
274940.0 384398.0 0
277559.0 382001.0 0
280611.0 383234.0 0
285890.0 382083.0 0
291035.0 380895.0 0
293561.0 382516.0 0
296091.0 380731.0 0
298718.0 382907.0 0
301564.0 384624.0 0
304503.0 383234.0 0
310290.0 383700.0 0
185129.0 386573.0 0
187969.0 384792.0 0
190901.0 386006.0 0
193941.0 386955.0 0
196941.0 384974.0 0
200055.0 386155.0 0
205499.0 385072.0 0
210682.0 384092.0 0
213529.0 385675.0 0
215921.0 383843.0 0
218363.0 385962.0 0
220894.0 384151.0 0
226188.0 384526.0 0
231551.0 384867.0 0
236983.0 385097.0 0
239791.0 383235.0 0
242546.0 385218.0 0
245394.0 383324.0 0
248224.0 385233.0 0
251114.0 383322.0 0
254003.0 385174.0 0
256910.0 383251.0 0
259864.0 385042.0 0
265752.0 384581.0 0
271724.0 383354.0 0
272321.0 386746.0 0
278046.0 385600.0 0
283634.0 384555.0 0
286684.0 385938.0 0
288560.0 383329.0 0
291046.0 384545.0 0
295991.0 384372.0 0
298702.0 386179.0 0
304496.0 386281.0 0
307392.0 385003.0 0
310294.0 386759.0 0
313136.0 385479.0 0
315967.0 387252.0 0
182382.0 388290.0 0
185226.0 389862.0 0
187984.0 387922.0 0
190903.0 388999.0 0
197065.0 387772.0 0
200235.0 389215.0 0
202999.0 387429.0 0
205863.0 388623.0 0
208159.0 386596.0 0
210926.0 387387.0 0
215799.0 387778.0 0
220890.0 388071.0 0
223501.0 386282.0 0
226080.0 388418.0 0
228798.0 386650.0 0
234175.0 386946.0 0
239705.0 387101.0 0
245355.0 387145.0 0
251094.0 387096.0 0
256942.0 386981.0 0
262896.0 386741.0 0
268910.0 385752.0 0
269750.0 388977.0 0
275505.0 387959.0 0
281074.0 386884.0 0
284066.0 388203.0 0
289751.0 387451.0 0
293300.0 386229.0 0
295889.0 387850.0 0
298686.0 389421.0 0
301588.0 387749.0 0
304553.0 389335.0 0
307439.0 388095.0 0
310359.0 389847.0 0
313174.0 388603.0 0
318729.0 388976.0 0
176660.0 391847.0 0
179651.0 389988.0 0
182644.0 391539.0 0
187988.0 391120.0 0
190943.0 391977.0 0
193942.0 389793.0 0
197056.0 390501.0 0
203196.0 390995.0 0
206544.0 391466.0 0
209344.0 390157.0 0
212959.0 389436.0 0
218258.0 389845.0 0
223427.0 390209.0 0
228617.0 390572.0 0
231377.0 388774.0 0
233985.0 390831.0 0
236851.0 388962.0 0
239619.0 390922.0 0
242494.0 389047.0 0
248212.0 389022.0 0
251101.0 390860.0 0
254000.0 388913.0 0
256929.0 390679.0 0
259939.0 388731.0 0
263007.0 390391.0 0
266053.0 388182.0 0
267450.0 391158.0 0
273002.0 390268.0 0
276079.0 391608.0 0
278560.0 389251.0 0
281547.0 390566.0 0
287059.0 389538.0 0
289975.0 391045.0 0
292680.0 389322.0 0
295676.0 391053.0 0
298644.0 392576.0 0
301598.0 390859.0 0
304561.0 392367.0 0
307499.0 391224.0 0
313210.0 391808.0 0
315919.0 390495.0 0
318576.0 392123.0 0
321510.0 390702.0 0
173662.0 393723.0 0
176581.0 394767.0 0
179537.0 392883.0 0
182209.0 394584.0 0
185499.0 393358.0 0
188580.0 394346.0 0
193958.0 392639.0 0
196974.0 393252.0 0
200080.0 392205.0 0
205078.0 394030.0 0
208775.0 393770.0 0
211954.0 392516.0 0
215367.0 391441.0 0
217989.0 393536.0 0
220798.0 391967.0 0
225910.0 392364.0 0
231148.0 392702.0 0
236709.0 392769.0 0
242474.0 392834.0 0
245344.0 390941.0 0
248232.0 392799.0 0
254002.0 392661.0 0
259862.0 392381.0 0
265028.0 392924.0 0
270603.0 392540.0 0
273647.0 393944.0 0
279069.0 392953.0 0
284516.0 391862.0 0
287452.0 393203.0 0
293026.0 392700.0 0
296146.0 394500.0 0
301609.0 393961.0 0
304529.0 395433.0 0
307404.0 394383.0 0
310398.0 392954.0 0
313128.0 395069.0 0
315844.0 393905.0 0
321560.0 393468.0 0
324522.0 392588.0 0
327621.0 394528.0 0
170534.0 395676.0 0
173348.0 396561.0 0
179433.0 395967.0 0
184335.0 396390.0 0
186957.0 396951.0 0
190006.0 397592.0 0
191795.0 395076.0 0
195098.0 395660.0 0
198782.0 395441.0 0
201988.0 394499.0 0
206354.0 396778.0 0
209251.0 396867.0 0
211977.0 395750.0 0
214914.0 394735.0 0
220452.0 395782.0 0
223268.0 394181.0 0
225689.0 396436.0 0
228368.0 394537.0 0
233779.0 394682.0 0
239574.0 394673.0 0
245378.0 394712.0 0
248273.0 396585.0 0
251124.0 394634.0 0
253998.0 396442.0 0
256893.0 394418.0 0
259604.0 396292.0 0
262341.0 394438.0 0
265244.0 396475.0 0
268039.0 394675.0 0
271086.0 396152.0 0
276622.0 395335.0 0
279572.0 396677.0 0
282031.0 394259.0 0
284978.0 395536.0 0
290466.0 394581.0 0
293630.0 396054.0 0
299196.0 395948.0 0
302387.0 397276.0 0
306473.0 397690.0 0
309943.0 395996.0 0
316070.0 397338.0 0
318655.0 395226.0 0
321889.0 396109.0 0
324797.0 395427.0 0
328238.0 397410.0 0
330784.0 396498.0 0
164156.0 399661.0 0
167245.0 397725.0 0
169853.0 398381.0 0
172504.0 399217.0 0
176084.0 397593.0 0
178761.0 398801.0 0
181871.0 398258.0 0
184687.0 399748.0 0
187969.0 400121.0 0
193249.0 398108.0 0
196778.0 398149.0 0
200200.0 397899.0 0
203266.0 397299.0 0
211408.0 399293.0 0
214420.0 398242.0 0
217444.0 397112.0 0
222860.0 398078.0 0
228153.0 398607.0 0
230900.0 396648.0 0
233635.0 398451.0 0
236620.0 396469.0 0
239611.0 398344.0 0
242517.0 396573.0 0
245430.0 398489.0 0
251133.0 398440.0 0
256807.0 398271.0 0
262456.0 398190.0 0
268321.0 398186.0 0
274101.0 397641.0 0
277076.0 399062.0 0
282526.0 397949.0 0
285518.0 399152.0 0
287966.0 396789.0 0
291030.0 398009.0 0
294243.0 399213.0 0
296894.0 398045.0 0
300149.0 399237.0 0
304012.0 399793.0 0
309508.0 398670.0 0
312864.0 397970.0 0
319330.0 398163.0 0
322680.0 398688.0 0
325565.0 398075.0 0
330981.0 399718.0 0
333641.0 398313.0 0
336251.0 399928.0 0
161183.0 401524.0 0
163916.0 402713.0 0
166831.0 400650.0 0
169595.0 401379.0 0
172428.0 402331.0 0
175188.0 400276.0 0
177927.0 401460.0 0
181071.0 401394.0 0
183602.0 402609.0 0
191339.0 400651.0 0
194815.0 400852.0 0
198266.0 400829.0 0
201676.0 400557.0 0
204920.0 400058.0 0
208077.0 399882.0 0
213613.0 401754.0 0
216771.0 400718.0 0
219848.0 399487.0 0
225319.0 400371.0 0
230776.0 400611.0 0
236614.0 400015.0 0
239719.0 401983.0 0
242577.0 400298.0 0
248268.0 400410.0 0
253982.0 400277.0 0
259665.0 400090.0 0
265492.0 400052.0 0
268602.0 401724.0 0
271419.0 399736.0 0
274496.0 401343.0 0
280059.0 400383.0 0
283102.0 401586.0 0
288562.0 400305.0 0
291649.0 401352.0 0
294889.0 402111.0 0
297870.0 401523.0 0
301378.0 402098.0 0
307579.0 400873.0 0
311477.0 400842.0 0
314909.0 400447.0 0
317958.0 400629.0 0
321244.0 401107.0 0
324790.0 401110.0 0
327980.0 400524.0 0
330293.0 402879.0 0
333397.0 401944.0 0
336315.0 402767.0 0
339242.0 401790.0 0
155384.0 405153.0 0
158267.0 403351.0 0
161053.0 404640.0 0
166774.0 403660.0 0
169689.0 404466.0 0
175339.0 403471.0 0
178603.0 404248.0 0
181441.0 404970.0 0
186523.0 402906.0 0
189635.0 403244.0 0
193011.0 403570.0 0
196437.0 403662.0 0
199978.0 403473.0 0
203475.0 403191.0 0
206844.0 402923.0 0
210256.0 402464.0 0
215866.0 404226.0 0
219151.0 403146.0 0
222254.0 401835.0 0
224732.0 404107.0 0
227986.0 402524.0 0
233616.0 402105.0 0
234536.0 405409.0 0
236887.0 403397.0 0
242341.0 404110.0 0
245361.0 402315.0 0
248292.0 404225.0 0
251146.0 402267.0 0
254012.0 404114.0 0
256840.0 402087.0 0
259786.0 403805.0 0
262655.0 401856.0 0
265743.0 403664.0 0
271761.0 403292.0 0
277515.0 402778.0 0
280593.0 404023.0 0
286243.0 402701.0 0
289457.0 403786.0 0
292762.0 404620.0 0
299452.0 404743.0 0
304624.0 402796.0 0
307652.0 403721.0 0
310576.0 403440.0 0
313892.0 403377.0 0
317038.0 403481.0 0
320160.0 403706.0 0
323526.0 403720.0 0
327005.0 403494.0 0
332450.0 405266.0 0
335380.0 405305.0 0
338868.0 404831.0 0
342073.0 403570.0 0
344911.0 405361.0 0
152461.0 406980.0 0
155352.0 408230.0 0
158228.0 406505.0 0
161134.0 407766.0 0
163950.0 405777.0 0
166930.0 406698.0 0
169969.0 407536.0 0
172688.0 405455.0 0
175906.0 406433.0 0
178992.0 407431.0 0
184547.0 405780.0 0
187701.0 406029.0 0
191044.0 406224.0 0
194587.0 406466.0 0
198274.0 406253.0 0
201892.0 406081.0 0
205454.0 405882.0 0
209001.0 405557.0 0
212467.0 405024.0 0
214728.0 407554.0 0
218257.0 406601.0 0
221668.0 405560.0 0
227332.0 406016.0 0
230921.0 404623.0 0
232511.0 408012.0 0
239145.0 405852.0 0
245383.0 406043.0 0
251177.0 406109.0 0
256920.0 405869.0 0
262851.0 405451.0 0
268870.0 405263.0 0
272103.0 406742.0 0
274926.0 405091.0 0
278003.0 406471.0 0
283826.0 405093.0 0
287171.0 406119.0 0
290646.0 407109.0 0
296261.0 404885.0 0
302729.0 405350.0 0
305950.0 406131.0 0
309440.0 406480.0 0
312676.0 406270.0 0
315901.0 406357.0 0
319105.0 406502.0 0
322390.0 406478.0 0
325764.0 406282.0 0
329175.0 405908.0 0
337819.0 407618.0 0
341429.0 406516.0 0
348279.0 407429.0 0
146533.0 410688.0 0
149511.0 408825.0 0
152417.0 410048.0 0
158305.0 409659.0 0
164123.0 408844.0 0
167183.0 409727.0 0
170336.0 410519.0 0
173153.0 408437.0 0
176356.0 409523.0 0
179584.0 410606.0 0
182072.0 408251.0 0
185154.0 408876.0 0
188165.0 409004.0 0
191121.0 409103.0 0
194005.0 409438.0 0
197119.0 409081.0 0
200487.0 408931.0 0
203972.0 408744.0 0
207574.0 408513.0 0
211189.0 408184.0 0
217153.0 409856.0 0
220795.0 408968.0 0
224377.0 407983.0 0
229262.0 408169.0 0
236226.0 408192.0 0
239540.0 409392.0 0
242389.0 407671.0 0
245333.0 409798.0 0
248312.0 408072.0 0
254082.0 407959.0 0
256986.0 409644.0 0
259923.0 407460.0 0
263101.0 408948.0 0
265965.0 407323.0 0
268990.0 408768.0 0
272198.0 409862.0 0
275377.0 408946.0 0
278783.0 409981.0 0
281320.0 407508.0 0
284746.0 408449.0 0
288311.0 409339.0 0
294201.0 407629.0 0
297746.0 407802.0 0
301052.0 408013.0 0
304346.0 408638.0 0
307805.0 409053.0 0
311301.0 409228.0 0
314589.0 409230.0 0
317865.0 409332.0 0
321184.0 409325.0 0
324535.0 409158.0 0
327908.0 408845.0 0
331280.0 408386.0 0
334529.0 408254.0 0
336758.0 410788.0 0
340014.0 409662.0 0
343102.0 408768.0 0
345762.0 408188.0 0
348716.0 410495.0 0
351367.0 409368.0 0
143535.0 412564.0 0
149438.0 411903.0 0
152416.0 413086.0 0
155407.0 411282.0 0
158423.0 412834.0 0
161278.0 410892.0 0
164311.0 411900.0 0
167421.0 412708.0 0
173566.0 411419.0 0
176896.0 412576.0 0
182733.0 411558.0 0
185811.0 412026.0 0
188996.0 412063.0 0
192187.0 412252.0 0
195631.0 412192.0 0
198965.0 411897.0 0
202392.0 411683.0 0
205923.0 411399.0 0
209620.0 411168.0 0
213396.0 410760.0 0
216315.0 413041.0 0
219717.0 412294.0 0
223205.0 411493.0 0
226716.0 410842.0 0
230361.0 411207.0 0
233801.0 411132.0 0
237147.0 411492.0 0
242186.0 411400.0 0
248410.0 411922.0 0
251282.0 409947.0 0
254255.0 411879.0 0
259972.0 411014.0 0
263147.0 412110.0 0
266317.0 411183.0 0
269703.0 412246.0 0
273340.0 412719.0 0
282215.0 410875.0 0
285640.0 411681.0 0
288996.0 412422.0 0
292072.0 410228.0 0
292012.0 413323.0 0
295840.0 410541.0 0
299423.0 410826.0 0
302798.0 411254.0 0
306238.0 411672.0 0
309721.0 411939.0 0
313162.0 412111.0 0
316503.0 412180.0 0
319854.0 412192.0 0
323217.0 412076.0 0
326578.0 411826.0 0
329928.0 411444.0 0
333250.0 411133.0 0
337643.0 413761.0 0
340187.0 412647.0 0
343041.0 411840.0 0
345922.0 411251.0 0
351596.0 412558.0 0
354325.0 411226.0 0
357209.0 413035.0 0
140528.0 414445.0 0
143389.0 415705.0 0
146425.0 413791.0 0
149376.0 414967.0 0
152395.0 416092.0 0
155467.0 414292.0 0
161416.0 414033.0 0
164472.0 414940.0 0
167641.0 415664.0 0
170605.0 413456.0 0
173870.0 414308.0 0
177152.0 415576.0 0
180220.0 413827.0 0
183495.0 414938.0 0
186986.0 414991.0 0
190348.0 415109.0 0
193754.0 415020.0 0
197215.0 414916.0 0
200587.0 414710.0 0
203900.0 414495.0 0
207152.0 414203.0 0
210251.0 414131.0 0
213230.0 413955.0 0
221753.0 415019.0 0
225116.0 414389.0 0
228455.0 414193.0 0
231998.0 414311.0 0
235489.0 414375.0 0
239231.0 413991.0 0
242475.0 414636.0 0
245475.0 413440.0 0
251408.0 413747.0 0
257249.0 413495.0 0
260617.0 414511.0 0
264257.0 414985.0 0
267558.0 414888.0 0
276599.0 412661.0 0
279979.0 413476.0 0
283382.0 414261.0 0
286759.0 415020.0 0
294996.0 413421.0 0
298179.0 413620.0 0
301463.0 414011.0 0
304809.0 414373.0 0
308231.0 414667.0 0
311668.0 414889.0 0
315088.0 415037.0 0
318472.0 415072.0 0
321844.0 415012.0 0
325184.0 414842.0 0
328464.0 414563.0 0
331642.0 414244.0 0
334746.0 413862.0 0
339955.0 416125.0 0
342803.0 415081.0 0
345752.0 414348.0 0
348714.0 413608.0 0
351513.0 415751.0 0
354428.0 414502.0 0
360040.0 414812.0 0
134631.0 418143.0 0
137556.0 416308.0 0
140427.0 417660.0 0
146304.0 416893.0 0
149264.0 418012.0 0
155490.0 417235.0 0
158503.0 416059.0 0
161468.0 417173.0 0
164618.0 417926.0 0
170880.0 416369.0 0
174182.0 417200.0 0
180197.0 416998.0 0
182652.0 418261.0 0
185627.0 417946.0 0
188839.0 418040.0 0
192134.0 418047.0 0
205165.0 417442.0 0
208365.0 417254.0 0
211681.0 417140.0 0
215111.0 416579.0 0
218381.0 415734.0 0
226808.0 417565.0 0
230211.0 417429.0 0
233733.0 417451.0 0
237346.0 417258.0 0
240822.0 417404.0 0
244698.0 417158.0 0
248141.0 415909.0 0
251405.0 417029.0 0
254739.0 416183.0 0
258279.0 417097.0 0
261964.0 417722.0 0
265605.0 418096.0 0
271115.0 415488.0 0
274652.0 415881.0 0
277969.0 416247.0 0
281335.0 416954.0 0
284719.0 417679.0 0
290022.0 415884.0 0
293440.0 416429.0 0
296748.0 416571.0 0
300042.0 416839.0 0
303387.0 417167.0 0
306780.0 417447.0 0
310206.0 417681.0 0
313642.0 417858.0 0
317074.0 417954.0 0
320481.0 417945.0 0
323859.0 417843.0 0
327191.0 417653.0 0
330455.0 417395.0 0
333655.0 417044.0 0
336777.0 416820.0 0
342378.0 418456.0 0
345417.0 417520.0 0
348482.0 416727.0 0
354297.0 417788.0 0
357213.0 416385.0 0
359945.0 418220.0 0
362845.0 416563.0 0
365715.0 418355.0 0
131757.0 419948.0 0
137528.0 419606.0 0
140522.0 420920.0 0
143373.0 418898.0 0
146372.0 420070.0 0
149438.0 421157.0 0
152264.0 419053.0 0
155327.0 420038.0 0
158462.0 419384.0 0
161639.0 420231.0 0
167813.0 418594.0 0
171017.0 419247.0 0
174221.0 419990.0 0
177474.0 418769.0 0
180409.0 420849.0 0
190619.0 421050.0 0
195376.0 417824.0 0
198740.0 417707.0 0
201975.0 417653.0 0
206352.0 420426.0 0
209757.0 420196.0 0
213302.0 419830.0 0
216784.0 419263.0 0
220129.0 418547.0 0
223478.0 417948.0 0
235466.0 420495.0 0
242545.0 420327.0 0
246016.0 420212.0 0
249302.0 419771.0 0
252998.0 419969.0 0
256360.0 419997.0 0
259896.0 420509.0 0
269056.0 418318.0 0
272573.0 418786.0 0
276031.0 419245.0 0
279403.0 419755.0 0
282795.0 420409.0 0
288079.0 418454.0 0
291551.0 419075.0 0
295058.0 419475.0 0
298463.0 419714.0 0
301858.0 419992.0 0
305280.0 420265.0 0
308721.0 420499.0 0
312177.0 420688.0 0
322523.0 420817.0 0
325921.0 420685.0 0
329284.0 420479.0 0
332608.0 420183.0 0
335862.0 419877.0 0
339158.0 419297.0 0
344949.0 420745.0 0
348128.0 419864.0 0
351259.0 418938.0 0
354028.0 421078.0 0
357037.0 419773.0 0
362740.0 419866.0 0
365675.0 421576.0 0
368662.0 420196.0 0
126189.0 423429.0 0
128934.0 421722.0 0
131886.0 423426.0 0
134680.0 421526.0 0
137708.0 422932.0 0
143584.0 422146.0 0
146721.0 423283.0 0
152587.0 422144.0 0
155990.0 422708.0 0
159052.0 422660.0 0
162250.0 423407.0 0
164812.0 420928.0 0
167947.0 421556.0 0
171025.0 422151.0 0
174055.0 422793.0 0
177216.0 421863.0 0
183923.0 421172.0 0
187247.0 421037.0 0
193922.0 421043.0 0
196993.0 420684.0 0
199970.0 420751.0 0
203081.0 420668.0 0
207669.0 423284.0 0
211282.0 422959.0 0
214861.0 422562.0 0
218351.0 422046.0 0
221738.0 421466.0 0
225101.0 421018.0 0
228486.0 420738.0 0
231934.0 420612.0 0
238952.0 420471.0 0
251079.0 423117.0 0
258014.0 423494.0 0
263510.0 420975.0 0
267084.0 421353.0 0
270574.0 421696.0 0
274057.0 422160.0 0
277504.0 422660.0 0
286198.0 421105.0 0
289678.0 421717.0 0
293218.0 422194.0 0
296748.0 422557.0 0
300223.0 422829.0 0
303693.0 423092.0 0
315639.0 420815.0 0
319093.0 420862.0 0
331456.0 423249.0 0
334874.0 422940.0 0
338281.0 422407.0 0
341645.0 421661.0 0
347636.0 423009.0 0
350891.0 422125.0 0
356797.0 423167.0 0
359771.0 421660.0 0
362627.0 423114.0 0
368674.0 423415.0 0
371652.0 422065.0 0
374673.0 423952.0 0
120146.0 427189.0 0
123254.0 425252.0 0
126395.0 426652.0 0
129233.0 425370.0 0
134911.0 424938.0 0
138112.0 426252.0 0
140841.0 424208.0 0
144046.0 425398.0 0
147331.0 426478.0 0
149947.0 424310.0 0
153323.0 425095.0 0
156658.0 425628.0 0
159835.0 425933.0 0
165466.0 424072.0 0
168706.0 424692.0 0
172022.0 425257.0 0
175708.0 425147.0 0
179011.0 424365.0 0
182189.0 423995.0 0
185683.0 424075.0 0
189164.0 423996.0 0
192750.0 423975.0 0
196513.0 423745.0 0
200328.0 423693.0 0
204052.0 423546.0 0
212836.0 425752.0 0
216393.0 425373.0 0
219879.0 424924.0 0
223294.0 424471.0 0
226702.0 424122.0 0
230136.0 423896.0 0
233617.0 423745.0 0
237111.0 423668.0 0
240646.0 423559.0 0
244161.0 423469.0 0
247671.0 423291.0 0
254579.0 423286.0 0
261538.0 423891.0 0
265095.0 424296.0 0
268630.0 424683.0 0
272121.0 425089.0 0
275599.0 425563.0 0
280923.0 423210.0 0
284357.0 423830.0 0
287847.0 424412.0 0
291391.0 424904.0 0
294954.0 425313.0 0
298508.0 425649.0 0
302035.0 425920.0 0
307173.0 423330.0 0
310661.0 423526.0 0
314156.0 423673.0 0
317650.0 423757.0 0
321133.0 423766.0 0
324590.0 423684.0 0
328026.0 423512.0 0
333656.0 425938.0 0
337248.0 425486.0 0
340770.0 424810.0 0
344252.0 423881.0 0
346960.0 426077.0 0
350401.0 425269.0 0
353695.0 424349.0 0
359587.0 425131.0 0
362498.0 426255.0 0
365635.0 424765.0 0
368722.0 426625.0 0
371711.0 425294.0 0
377711.0 425852.0 0
117110.0 429100.0 0
123099.0 428378.0 0
126117.0 429533.0 0
132154.0 426994.0 0
135405.0 428302.0 0
141382.0 427491.0 0
144718.0 428628.0 0
150709.0 427388.0 0
154098.0 428130.0 0
157457.0 428693.0 0
163101.0 426602.0 0
166431.0 427209.0 0
169865.0 427725.0 0
173534.0 427854.0 0
177138.0 427675.0 0
180467.0 427244.0 0
183839.0 427002.0 0
187371.0 426965.0 0
190945.0 426865.0 0
194619.0 426694.0 0
198273.0 426554.0 0
201965.0 426504.0 0
205621.0 426342.0 0
209242.0 426071.0 0
217892.0 428262.0 0
221384.0 427882.0 0
224837.0 427520.0 0
228288.0 427240.0 0
231759.0 427042.0 0
235250.0 426917.0 0
238767.0 426812.0 0
242285.0 426721.0 0
245806.0 426611.0 0
249290.0 426503.0 0
252726.0 426492.0 0
256198.0 426671.0 0
259668.0 426925.0 0
263179.0 427278.0 0
266706.0 427659.0 0
270220.0 428059.0 0
279067.0 426074.0 0
282533.0 426620.0 0
286038.0 427161.0 0
289586.0 427648.0 0
293162.0 428070.0 0
296745.0 428433.0 0
305559.0 426162.0 0
309086.0 426369.0 0
312617.0 426531.0 0
316148.0 426642.0 0
319672.0 426691.0 0
323178.0 426666.0 0
326657.0 426535.0 0
330141.0 426282.0 0
332241.0 428976.0 0
335847.0 428438.0 0
339658.0 427869.0 0
343377.0 426965.0 0
350047.0 428329.0 0
353356.0 427524.0 0
356603.0 426551.0 0
359542.0 428702.0 0
362703.0 429159.0 0
365727.0 427902.0 0
371660.0 428568.0 0
374708.0 427193.0 0
377739.0 429083.0 0
380784.0 427774.0 0
114078.0 431007.0 0
117253.0 432471.0 0
120189.0 430470.0 0
123439.0 431623.0 0
127049.0 432277.0 0
129376.0 429110.0 0
132714.0 430395.0 0
138730.0 429568.0 0
142109.0 430760.0 0
148119.0 429634.0 0
151545.0 430503.0 0
154974.0 431225.0 0
160758.0 429158.0 0
164140.0 429744.0 0
167625.0 430236.0 0
171261.0 430492.0 0
174899.0 430550.0 0
178450.0 430419.0 0
181900.0 430126.0 0
185389.0 429936.0 0
188968.0 429836.0 0
192589.0 429689.0 0
196215.0 429564.0 0
199843.0 429463.0 0
203503.0 429367.0 0
207147.0 429175.0 0
210760.0 428913.0 0
214346.0 428608.0 0
222891.0 430893.0 0
226377.0 430600.0 0
229863.0 430370.0 0
233358.0 430206.0 0
236870.0 430085.0 0
240390.0 429990.0 0
243912.0 429900.0 0
247418.0 429824.0 0
250895.0 429796.0 0
254355.0 429870.0 0
257833.0 430066.0 0
261320.0 430337.0 0
264828.0 430674.0 0
268343.0 431050.0 0
273717.0 428490.0 0
277213.0 428963.0 0
280714.0 429463.0 0
284237.0 429962.0 0
287793.0 430430.0 0
291377.0 430853.0 0
300324.0 428740.0 0
303891.0 428995.0 0
307457.0 429213.0 0
311023.0 429390.0 0
314589.0 429522.0 0
318150.0 429603.0 0
321698.0 429625.0 0
325226.0 429564.0 0
328724.0 429345.0 0
337622.0 430938.0 0
340849.0 430680.0 0
343734.0 429849.0 0
346784.0 429037.0 0
352941.0 430707.0 0
356256.0 429821.0 0
362024.0 431989.0 0
365456.0 431194.0 0
368586.0 429935.0 0
371465.0 431875.0 0
374631.0 430445.0 0
380832.0 430991.0 0
383904.0 429725.0 0
387070.0 431705.0 0
107692.0 434972.0 0
111056.0 432893.0 0
114364.0 434516.0 0
120666.0 433687.0 0
124264.0 434613.0 0
130260.0 432696.0 0
133560.0 433842.0 0
136092.0 431652.0 0
139504.0 432876.0 0
142954.0 434030.0 0
145536.0 431845.0 0
148989.0 432812.0 0
152454.0 433651.0 0
158388.0 431810.0 0
161806.0 432311.0 0
165313.0 432792.0 0
168924.0 433121.0 0
172565.0 433304.0 0
176191.0 433341.0 0
179776.0 433222.0 0
183310.0 433010.0 0
186869.0 432843.0 0
190473.0 432715.0 0
194086.0 432593.0 0
197709.0 432489.0 0
201348.0 432385.0 0
205002.0 432252.0 0
208637.0 432053.0 0
212247.0 431803.0 0
215830.0 431522.0 0
219380.0 431213.0 0
231429.0 433519.0 0
234948.0 433378.0 0
238474.0 433272.0 0
242001.0 433187.0 0
245520.0 433122.0 0
249024.0 433093.0 0
252509.0 433127.0 0
255990.0 433251.0 0
259481.0 433466.0 0
262983.0 433745.0 0
271858.0 431454.0 0
275374.0 431886.0 0
278898.0 432344.0 0
282440.0 432808.0 0
286006.0 433254.0 0
289598.0 433667.0 0
294976.0 431225.0 0
298581.0 431550.0 0
302185.0 431828.0 0
305786.0 432059.0 0
309386.0 432251.0 0
312984.0 432401.0 0
316579.0 432508.0 0
320165.0 432567.0 0
323730.0 432568.0 0
327258.0 432468.0 0
330709.0 432141.0 0
334158.0 431622.0 0
339794.0 433701.0 0
343252.0 433122.0 0
346459.0 432250.0 0
349664.0 431479.0 0
355620.0 433167.0 0
358871.0 432236.0 0
364863.0 434329.0 0
368241.0 433259.0 0
371117.0 435180.0 0
374436.0 433686.0 0
377677.0 432299.0 0
380802.0 434186.0 0
383980.0 432940.0 0
390291.0 433719.0 0
104389.0 437041.0 0
110587.0 436033.0 0
113159.0 437480.0 0
117915.0 435732.0 0
121511.0 436810.0 0
127716.0 435410.0 0
131027.0 436175.0 0
136945.0 435029.0 0
140389.0 436205.0 0
146429.0 435082.0 0
149919.0 436019.0 0
155928.0 434352.0 0
159415.0 434924.0 0
162938.0 435391.0 0
166535.0 435761.0 0
170174.0 436019.0 0
173827.0 436157.0 0
177476.0 436169.0 0
181096.0 436065.0 0
184689.0 435904.0 0
188289.0 435759.0 0
191905.0 435641.0 0
195531.0 435535.0 0
199170.0 435433.0 0
202821.0 435317.0 0
206473.0 435168.0 0
210108.0 434971.0 0
213721.0 434739.0 0
217310.0 434483.0 0
220870.0 434212.0 0
224401.0 433944.0 0
227916.0 433706.0 0
266496.0 434079.0 0
270019.0 434449.0 0
273550.0 434846.0 0
277090.0 435266.0 0
280646.0 435696.0 0
284223.0 436117.0 0
293208.0 434040.0 0
296830.0 434372.0 0
300456.0 434662.0 0
304085.0 434911.0 0
307713.0 435117.0 0
311339.0 435283.0 0
314963.0 435411.0 0
318583.0 435497.0 0
322196.0 435539.0 0
325791.0 435525.0 0
329339.0 435399.0 0
332745.0 434904.0 0
336346.0 434060.0 0
338782.0 436653.0 0
342320.0 436156.0 0
345784.0 435502.0 0
349079.0 434740.0 0
352347.0 433980.0 0
354941.0 436532.0 0
358221.0 435687.0 0
361483.0 435101.0 0
364224.0 437541.0 0
367705.0 436522.0 0
374136.0 436886.0 0
377526.0 435481.0 0
384066.0 436119.0 0
387212.0 434925.0 0
390478.0 436962.0 0
393552.0 435759.0 0
101120.0 439091.0 0
107342.0 438211.0 0
110201.0 439505.0 0
115997.0 438309.0 0
119121.0 439190.0 0
125009.0 437784.0 0
128429.0 438683.0 0
131806.0 439586.0 0
134389.0 437261.0 0
137817.0 438402.0 0
143872.0 437325.0 0
147376.0 438351.0 0
153424.0 436824.0 0
156949.0 437489.0 0
160503.0 438017.0 0
164101.0 438422.0 0
167739.0 438728.0 0
171405.0 438934.0 0
175084.0 439034.0 0
178757.0 439031.0 0
182407.0 438946.0 0
186040.0 438820.0 0
189671.0 438701.0 0
193310.0 438596.0 0
196959.0 438496.0 0
200617.0 438391.0 0
204280.0 438267.0 0
207937.0 438115.0 0
211577.0 437927.0 0
215197.0 437714.0 0
218794.0 437486.0 0
222367.0 437253.0 0
225920.0 437031.0 0
229459.0 436837.0 0
232995.0 436683.0 0
236533.0 436566.0 0
240071.0 436477.0 0
243605.0 436415.0 0
247127.0 436383.0 0
250638.0 436398.0 0
254139.0 436480.0 0
257639.0 436638.0 0
261148.0 436867.0 0
264665.0 437153.0 0
268194.0 437483.0 0
271735.0 437843.0 0
275288.0 438227.0 0
278857.0 438624.0 0
287823.0 436515.0 0
291442.0 436883.0 0
295076.0 437216.0 0
298719.0 437512.0 0
302366.0 437771.0 0
306016.0 437992.0 0
309665.0 438174.0 0
313311.0 438318.0 0
316955.0 438425.0 0
320597.0 438494.0 0
324238.0 438521.0 0
327881.0 438492.0 0
331516.0 438338.0 0
335213.0 437045.0 0
341411.0 439176.0 0
344885.0 438645.0 0
348301.0 438012.0 0
351636.0 437297.0 0
357464.0 439130.0 0
360780.0 438365.0 0
366948.0 439764.0 0
370610.0 438459.0 0
374504.0 439869.0 0
377639.0 438549.0 0
380863.0 437316.0 0
384167.0 439297.0 0
387346.0 438137.0 0
393755.0 439040.0 0
396834.0 437813.0 0
400120.0 439871.0 0
97866.1 441131.0 0
100941.0 442466.0 0
104138.0 440355.0 0
107155.0 441622.0 0
113254.0 440797.0 0
116442.0 441703.0 0
122421.0 440147.0 0
125781.0 441096.0 0
135228.0 440656.0 0
138700.0 441771.0 0
141301.0 439544.0 0
144820.0 440650.0 0
148353.0 441653.0 0
150896.0 439254.0 0
154438.0 440016.0 0
158009.0 440627.0 0
161619.0 441094.0 0
165264.0 441445.0 0
168941.0 441700.0 0
198390.0 441471.0 0
202067.0 441365.0 0
205741.0 441240.0 0
209406.0 441092.0 0
213054.0 440918.0 0
216682.0 440726.0 0
220291.0 440527.0 0
223880.0 440330.0 0
227451.0 440147.0 0
231012.0 439990.0 0
234568.0 439866.0 0
238121.0 439772.0 0
241671.0 439706.0 0
245213.0 439671.0 0
248745.0 439675.0 0
252269.0 439730.0 0
255788.0 439847.0 0
259309.0 440029.0 0
262837.0 440270.0 0
266376.0 440556.0 0
269927.0 440878.0 0
273492.0 441227.0 0
282444.0 439019.0 0
286052.0 439400.0 0
289679.0 439757.0 0
293322.0 440086.0 0
296977.0 440384.0 0
300639.0 440649.0 0
304304.0 440880.0 0
307971.0 441076.0 0
311635.0 441236.0 0
315294.0 441362.0 0
318946.0 441454.0 0
334530.0 439874.0 0
337949.0 439594.0 0
343841.0 441780.0 0
347330.0 441241.0 0
350764.0 440615.0 0
354136.0 439912.0 0
359925.0 441780.0 0
363331.0 440821.0 0
368774.0 442379.0 0
371678.0 441317.0 0
377774.0 441724.0 0
380964.0 440470.0 0
387442.0 441366.0 0
390621.0 440218.0 0
393880.0 442348.0 0
397029.0 441145.0 0
403397.0 441924.0 0
91395.3 445188.0 0
94626.0 443162.0 0
97751.9 444568.0 0
104056.0 443758.0 0
107234.0 445033.0 0
110266.0 442902.0 0
113524.0 444070.0 0
116854.0 445009.0 0
119708.0 442568.0 0
123036.0 443496.0 0
126418.0 444421.0 0
129166.0 442013.0 0
132581.0 442963.0 0
142226.0 442891.0 0
145788.0 444007.0 0
151901.0 442517.0 0
155477.0 443220.0 0
159095.0 443763.0 0
162753.0 444169.0 0
172641.0 441864.0 0
176346.0 441937.0 0
180043.0 441928.0 0
183722.0 441858.0 0
187387.0 441761.0 0
191050.0 441662.0 0
194718.0 441568.0 0
214543.0 443942.0 0
218182.0 443773.0 0
221804.0 443602.0 0
225408.0 443438.0 0
228998.0 443290.0 0
232579.0 443165.0 0
236152.0 443068.0 0
239720.0 442999.0 0
243282.0 442959.0 0
246836.0 442954.0 0
250382.0 442991.0 0
253923.0 443078.0 0
257463.0 443222.0 0
261005.0 443421.0 0
264557.0 443667.0 0
268120.0 443951.0 0
277071.0 441592.0 0
280667.0 441960.0 0
284283.0 442321.0 0
287917.0 442665.0 0
291569.0 442986.0 0
295233.0 443281.0 0
298907.0 443548.0 0
302586.0 443786.0 0
306268.0 443992.0 0
322587.0 441511.0 0
326213.0 441533.0 0
329800.0 441530.0 0
333045.0 442319.0 0
336751.0 442557.0 0
340319.0 442239.0 0
349717.0 443897.0 0
353182.0 443285.0 0
356576.0 442580.0 0
362293.0 444371.0 0
365570.0 443277.0 0
371499.0 444652.0 0
374677.0 443204.0 0
377754.0 445000.0 0
380991.0 443681.0 0
384227.0 442504.0 0
387451.0 444627.0 0
390685.0 443503.0 0
397109.0 444515.0 0
400283.0 443267.0 0
406651.0 443964.0 0
88173.2 447209.0 0
94569.7 446663.0 0
97804.3 448047.0 0
100933.0 445899.0 0
104172.0 447185.0 0
110517.0 446246.0 0
113892.0 447348.0 0
120202.0 445909.0 0
123595.0 446824.0 0
129850.0 445335.0 0
133325.0 446309.0 0
136050.0 444031.0 0
139572.0 445128.0 0
143147.0 446238.0 0
149345.0 444992.0 0
152917.0 445804.0 0
156537.0 446430.0 0
160208.0 446896.0 0
166444.0 444468.0 0
170162.0 444679.0 0
173895.0 444809.0 0
177628.0 444864.0 0
181350.0 444855.0 0
185058.0 444800.0 0
188755.0 444723.0 0
192448.0 444640.0 0
196142.0 444554.0 0
199835.0 444462.0 0
203527.0 444359.0 0
207213.0 444239.0 0
210886.0 444099.0 0
226954.0 446575.0 0
230562.0 446457.0 0
234159.0 446362.0 0
237749.0 446291.0 0
241332.0 446248.0 0
244909.0 446235.0 0
248478.0 446259.0 0
252041.0 446325.0 0
255601.0 446439.0 0
259163.0 446602.0 0
271695.0 444265.0 0
275284.0 444598.0 0
278889.0 444939.0 0
282513.0 445278.0 0
286155.0 445605.0 0
289814.0 445916.0 0
293488.0 446205.0 0
297172.0 446471.0 0
300863.0 446712.0 0
309948.0 444168.0 0
313623.0 444312.0 0
317288.0 444425.0 0
320938.0 444510.0 0
324565.0 444573.0 0
328146.0 444634.0 0
331573.0 445032.0 0
335218.0 445272.0 0
338968.0 445234.0 0
342614.0 444896.0 0
346191.0 444435.0 0
352083.0 446596.0 0
355593.0 446011.0 0
358984.0 445295.0 0
364817.0 446806.0 0
368155.0 445739.0 0
371090.0 447896.0 0
374466.0 446551.0 0
380895.0 446925.0 0
384187.0 445750.0 0
390627.0 446825.0 0
393886.0 445693.0 0
400304.0 446705.0 0
403510.0 445395.0 0
406704.0 447528.0 0
409874.0 445987.0 0
84956.1 449226.0 0
91396.4 448759.0 0
94678.6 450204.0 0
101097.0 449361.0 0
104456.0 450609.0 0
107492.0 448422.0 0
110885.0 449579.0 0
117289.0 448315.0 0
120711.0 449231.0 0
127035.0 447727.0 0
130513.0 448639.0 0
136852.0 447389.0 0
140414.0 448472.0 0
146759.0 447410.0 0
150331.0 448374.0 0
153950.0 449101.0 0
163919.0 447240.0 0
167660.0 447490.0 0
171420.0 447665.0 0
175185.0 447770.0 0
178945.0 447815.0 0
182693.0 447809.0 0
186427.0 447767.0 0
190152.0 447705.0 0
193871.0 447635.0 0
197586.0 447558.0 0
201297.0 447473.0 0
205003.0 447376.0 0
208699.0 447264.0 0
212382.0 447137.0 0
216049.0 446998.0 0
219700.0 446853.0 0
223334.0 446709.0 0
262730.0 446811.0 0
266306.0 447059.0 0
269892.0 447339.0 0
273492.0 447641.0 0
277107.0 447954.0 0
280740.0 448270.0 0
284391.0 448579.0 0
288058.0 448877.0 0
291740.0 449158.0 0
304558.0 446926.0 0
308254.0 447112.0 0
311947.0 447271.0 0
315630.0 447404.0 0
319301.0 447512.0 0
322951.0 447603.0 0
326568.0 447695.0 0
330117.0 447926.0 0
333747.0 448097.0 0
337470.0 448106.0 0
341216.0 447940.0 0
344893.0 447588.0 0
348513.0 447130.0 0
358056.0 448797.0 0
361449.0 447980.0 0
364170.0 450283.0 0
367666.0 449042.0 0
374147.0 449901.0 0
377543.0 448236.0 0
380665.0 450158.0 0
384024.0 449024.0 0
387339.0 447926.0 0
390432.0 450186.0 0
393750.0 449078.0 0
397044.0 447924.0 0
400153.0 450182.0 0
403461.0 448912.0 0
409861.0 449658.0 0
413054.0 447984.0 0
416177.0 449945.0 0
81736.3 451245.0 0
85073.9 452934.0 0
88233.1 450852.0 0
91564.4 452369.0 0
98019.7 451554.0 0
101423.0 452833.0 0
107878.0 451809.0 0
111346.0 452931.0 0
114325.0 450651.0 0
117790.0 451630.0 0
121262.0 452558.0 0
124162.0 450137.0 0
127643.0 451026.0 0
131165.0 451923.0 0
134041.0 449622.0 0
137617.0 450742.0 0
144032.0 449564.0 0
147707.0 450891.0 0
151336.0 451776.0 0
157637.0 449628.0 0
161374.0 450016.0 0
165143.0 450303.0 0
168932.0 450514.0 0
172727.0 450660.0 0
176520.0 450750.0 0
180304.0 450789.0 0
184075.0 450788.0 0
187832.0 450758.0 0
191580.0 450710.0 0
195319.0 450651.0 0
199052.0 450583.0 0
202778.0 450506.0 0
206496.0 450417.0 0
210203.0 450316.0 0
213896.0 450204.0 0
217574.0 450084.0 0
221237.0 449962.0 0
224885.0 449845.0 0
228520.0 449739.0 0
232143.0 449649.0 0
235757.0 449580.0 0
239363.0 449535.0 0
242962.0 449517.0 0
246553.0 449531.0 0
250139.0 449581.0 0
253722.0 449672.0 0
257303.0 449807.0 0
260889.0 449983.0 0
264480.0 450199.0 0
268080.0 450446.0 0
271692.0 450717.0 0
275319.0 451003.0 0
278962.0 451295.0 0
282622.0 451586.0 0
286298.0 451869.0 0
295433.0 449420.0 0
299135.0 449660.0 0
302843.0 449878.0 0
306554.0 450072.0 0
310263.0 450243.0 0
313967.0 450389.0 0
317661.0 450515.0 0
321340.0 450624.0 0
324997.0 450730.0 0
328622.0 450887.0 0
332282.0 451012.0 0
335996.0 451031.0 0
339743.0 450923.0 0
343488.0 450684.0 0
347188.0 450310.0 0
350847.0 449851.0 0
354466.0 449331.0 0
360610.0 451618.0 0
367504.0 452244.0 0
370852.0 451164.0 0
377234.0 451407.0 0
383767.0 452317.0 0
387103.0 451262.0 0
393437.0 452509.0 0
396806.0 451376.0 0
403215.0 452462.0 0
406580.0 451134.0 0
412973.0 451780.0 0
422211.0 453717.0 0
75220.5 455326.0 0
78498.0 453274.0 0
81900.5 455001.0 0
88461.3 454537.0 0
91895.3 456009.0 0
94950.6 453778.0 0
98392.5 455079.0 0
104875.0 454046.0 0
108371.0 455208.0 0
114843.0 453984.0 0
118351.0 454974.0 0
124749.0 453456.0 0
128263.0 454323.0 0
134741.0 452903.0 0
138347.0 454139.0 0
141183.0 451806.0 0
144790.0 452833.0 0
148719.0 454454.0 0
155047.0 452373.0 0
158816.0 452801.0 0
162620.0 453121.0 0
166440.0 453363.0 0
170265.0 453544.0 0
174088.0 453671.0 0
177902.0 453751.0 0
181705.0 453789.0 0
185495.0 453794.0 0
189271.0 453774.0 0
193036.0 453737.0 0
196792.0 453689.0 0
200540.0 453630.0 0
204279.0 453562.0 0
208008.0 453484.0 0
211726.0 453396.0 0
215430.0 453300.0 0
219119.0 453200.0 0
222795.0 453101.0 0
226457.0 453008.0 0
230106.0 452928.0 0
233745.0 452864.0 0
237375.0 452820.0 0
240997.0 452800.0 0
244612.0 452807.0 0
248220.0 452845.0 0
251825.0 452918.0 0
255428.0 453030.0 0
259032.0 453179.0 0
262641.0 453365.0 0
266257.0 453582.0 0
269884.0 453825.0 0
273523.0 454084.0 0
277177.0 454353.0 0
289987.0 452139.0 0
293690.0 452395.0 0
297402.0 452632.0 0
301122.0 452851.0 0
304846.0 453049.0 0
308572.0 453227.0 0
312295.0 453384.0 0
316012.0 453522.0 0
319719.0 453644.0 0
323414.0 453756.0 0
327093.0 453880.0 0
330786.0 453978.0 0
334512.0 454003.0 0
338261.0 453930.0 0
342016.0 453750.0 0
345758.0 453460.0 0
349465.0 453067.0 0
353151.0 452609.0 0
356832.0 452097.0 0
361872.0 455050.0 0
364383.0 453612.0 0
367144.0 455642.0 0
370484.0 454473.0 0
373873.0 453439.0 0
377105.0 454447.0 0
380434.0 453369.0 0
386669.0 454655.0 0
390056.0 453599.0 0
396374.0 454866.0 0
399808.0 453698.0 0
406242.0 454759.0 0
409673.0 453374.0 0
416067.0 453854.0 0
419227.0 451862.0 0
425408.0 455702.0 0
71309.9 457746.0 0
78683.6 457056.0 0
85358.7 456676.0 0
88857.6 458260.0 0
95384.2 457367.0 0
98912.1 458625.0 0
101883.0 456320.0 0
105406.0 457503.0 0
111897.0 456309.0 0
115442.0 457353.0 0
121858.0 455910.0 0
125365.0 456794.0 0
131813.0 455187.0 0
135425.0 456141.0 0
141856.0 455164.0 0
145462.0 455965.0 0
152462.0 455146.0 0
156267.0 455608.0 0
160106.0 455950.0 0
163958.0 456219.0 0
167810.0 456429.0 0
171658.0 456588.0 0
175499.0 456702.0 0
179328.0 456776.0 0
183145.0 456816.0 0
186949.0 456827.0 0
190741.0 456816.0 0
194521.0 456789.0 0
198290.0 456750.0 0
202051.0 456702.0 0
205802.0 456644.0 0
209542.0 456578.0 0
213270.0 456504.0 0
216985.0 456424.0 0
220686.0 456344.0 0
224374.0 456267.0 0
228050.0 456198.0 0
231714.0 456141.0 0
235369.0 456101.0 0
239015.0 456081.0 0
242653.0 456084.0 0
246285.0 456114.0 0
249912.0 456174.0 0
253536.0 456267.0 0
257161.0 456394.0 0
260788.0 456554.0 0
264421.0 456745.0 0
268063.0 456961.0 0
280846.0 454624.0 0
284530.0 454891.0 0
288229.0 455150.0 0
291940.0 455397.0 0
295662.0 455629.0 0
299393.0 455846.0 0
303130.0 456045.0 0
306871.0 456227.0 0
310612.0 456390.0 0
314351.0 456536.0 0
318084.0 456666.0 0
321811.0 456783.0 0
325530.0 456893.0 0
329257.0 456978.0 0
333001.0 457009.0 0
336762.0 456962.0 0
340525.0 456829.0 0
344278.0 456603.0 0
347999.0 456285.0 0
351668.0 455898.0 0
355264.0 455480.0 0
358718.0 455038.0 0
361054.0 458242.0 0
364632.0 457646.0 0
369458.0 457839.0 0
372951.0 457060.0 0
376305.0 457328.0 0
379882.0 456671.0 0
383281.0 455682.0 0
385965.0 458089.0 0
389454.0 457055.0 0
392922.0 455982.0 0
399267.0 457244.0 0
402768.0 456042.0 0
409221.0 457083.0 0
412730.0 455643.0 0
418707.0 456478.0 0
422134.0 457323.0 0
428619.0 457715.0 0
67982.4 459836.0 0
74552.6 459023.0 0
77659.2 460618.0 0
82220.7 458771.0 0
85814.2 460446.0 0
92395.5 459674.0 0
95977.9 460975.0 0
102458.0 459830.0 0
108956.0 458633.0 0
112532.0 459711.0 0
118989.0 458360.0 0
122523.0 459302.0 0
126045.0 460171.0 0
128874.0 457626.0 0
132394.0 458427.0 0
135942.0 459265.0 0
139071.0 457665.0 0
142685.0 458502.0 0
146430.0 458947.0 0
149969.0 458003.0 0
153774.0 458469.0 0
157631.0 458811.0 0
161502.0 459092.0 0
165374.0 459324.0 0
169241.0 459509.0 0
173101.0 459653.0 0
176952.0 459758.0 0
180792.0 459829.0 0
211097.0 459697.0 0
214835.0 459638.0 0
218561.0 459576.0 0
222274.0 459515.0 0
225975.0 459458.0 0
229665.0 459411.0 0
233344.0 459377.0 0
237014.0 459359.0 0
240676.0 459361.0 0
244332.0 459386.0 0
247981.0 459436.0 0
251628.0 459515.0 0
255273.0 459624.0 0
271715.0 457195.0 0
275381.0 457441.0 0
279060.0 457693.0 0
282754.0 457944.0 0
286461.0 458189.0 0
290181.0 458426.0 0
293913.0 458652.0 0
297654.0 458864.0 0
301403.0 459062.0 0
305158.0 459245.0 0
308916.0 459411.0 0
312674.0 459561.0 0
316431.0 459696.0 0
320186.0 459816.0 0
346547.0 459491.0 0
350263.0 459168.0 0
353930.0 458812.0 0
357534.0 458447.0 0
359928.0 461462.0 0
367352.0 460485.0 0
371388.0 460489.0 0
374980.0 460277.0 0
378759.0 459856.0 0
382430.0 459069.0 0
388627.0 460517.0 0
392201.0 459476.0 0
395745.0 458385.0 0
402126.0 459646.0 0
405685.0 458410.0 0
412037.0 459533.0 0
415474.0 458208.0 0
421908.0 460837.0 0
425317.0 459377.0 0
428453.0 461474.0 0
431824.0 459726.0 0
64663.6 461917.0 0
67997.2 463584.0 0
71265.3 461405.0 0
74510.1 462882.0 0
80764.2 462143.0 0
83899.0 463560.0 0
89447.3 462023.0 0
93096.2 463370.0 0
99549.6 462210.0 0
103141.0 463374.0 0
106034.0 460981.0 0
109629.0 462082.0 0
116128.0 460755.0 0
119726.0 461792.0 0
123299.0 462742.0 0
129560.0 460963.0 0
133090.0 461684.0 0
136722.0 462214.0 0
140141.0 461235.0 0
143900.0 461732.0 0
147739.0 461872.0 0
151402.0 461461.0 0
155234.0 461740.0 0
159098.0 462007.0 0
162971.0 462245.0 0
166846.0 462447.0 0
184620.0 459870.0 0
188435.0 459886.0 0
192239.0 459883.0 0
196031.0 459866.0 0
199813.0 459837.0 0
203585.0 459798.0 0
207346.0 459751.0 0
258919.0 459763.0 0
262570.0 459930.0 0
266228.0 460122.0 0
269894.0 460333.0 0
273572.0 460558.0 0
277263.0 460790.0 0
280966.0 461024.0 0
284683.0 461256.0 0
288412.0 461482.0 0
292153.0 461700.0 0
295904.0 461907.0 0
299664.0 462101.0 0
303432.0 462282.0 0
323938.0 459922.0 0
327696.0 460002.0 0
331464.0 460039.0 0
335242.0 460015.0 0
339024.0 459919.0 0
342796.0 459744.0 0
356251.0 461764.0 0
363654.0 461009.0 0
377458.0 462958.0 0
381278.0 462335.0 0
385004.0 461495.0 0
391301.0 462963.0 0
394941.0 461914.0 0
398546.0 460809.0 0
404937.0 462093.0 0
408516.0 460848.0 0
414859.0 462120.0 0
418309.0 460704.0 0
424999.0 463086.0 0
431630.0 463532.0 0
435051.0 461746.0 0
438329.0 463795.0 0
58007.4 466087.0 0
61341.2 463999.0 0
64719.9 465721.0 0
71333.9 465193.0 0
77733.2 464471.0 0
80999.7 465993.0 0
87121.2 464838.0 0
90505.4 465959.0 0
96683.8 464642.0 0
100292.0 465826.0 0
106738.0 464490.0 0
110378.0 465543.0 0
113254.0 463132.0 0
116907.0 464173.0 0
120580.0 465275.0 0
126864.0 463586.0 0
130467.0 464309.0 0
134154.0 464866.0 0
137947.0 465064.0 0
141544.0 464662.0 0
145378.0 464861.0 0
149228.0 464876.0 0
152947.0 464795.0 0
156763.0 464994.0 0
170718.0 462612.0 0
174584.0 462743.0 0
178442.0 462841.0 0
182289.0 462909.0 0
186126.0 462952.0 0
189951.0 462973.0 0
193764.0 462977.0 0
197567.0 462968.0 0
201359.0 462948.0 0
205141.0 462920.0 0
208913.0 462884.0 0
212673.0 462843.0 0
216422.0 462799.0 0
220159.0 462753.0 0
223884.0 462711.0 0
227598.0 462674.0 0
231302.0 462647.0 0
234996.0 462634.0 0
238681.0 462637.0 0
242360.0 462659.0 0
246033.0 462703.0 0
249701.0 462772.0 0
253367.0 462867.0 0
257033.0 462989.0 0
260702.0 463136.0 0
264376.0 463307.0 0
268058.0 463496.0 0
271749.0 463701.0 0
275451.0 463915.0 0
279165.0 464133.0 0
282892.0 464351.0 0
286630.0 464565.0 0
290380.0 464774.0 0
307204.0 462449.0 0
310981.0 462601.0 0
314758.0 462738.0 0
318537.0 462861.0 0
322317.0 462966.0 0
326102.0 463046.0 0
329894.0 463089.0 0
333694.0 463083.0 0
337497.0 463017.0 0
341293.0 462885.0 0
345075.0 462683.0 0
348832.0 462416.0 0
352555.0 462099.0 0
358619.0 464719.0 0
362372.0 464315.0 0
366115.0 463863.0 0
369813.0 463518.0 0
373649.0 463392.0 0
380017.0 465546.0 0
383850.0 464821.0 0
387614.0 463946.0 0
393980.0 465439.0 0
397667.0 464383.0 0
401319.0 463269.0 0
407718.0 464604.0 0
411318.0 463378.0 0
417718.0 464743.0 0
421432.0 464365.0 0
424474.0 466833.0 0
428118.0 465254.0 0
434902.0 465558.0 0
441666.0 465879.0 0
54658.4 468184.0 0
61424.6 467844.0 0
68115.0 467406.0 0
71516.7 469059.0 0
74653.0 466769.0 0
78000.4 468346.0 0
84338.5 467396.0 0
87774.5 468636.0 0
93968.7 467180.0 0
103894.0 466964.0 0
107524.0 468016.0 0
114047.0 466562.0 0
117765.0 467581.0 0
124206.0 466221.0 0
127883.0 466984.0 0
131637.0 467576.0 0
135484.0 467936.0 0
160615.0 465212.0 0
164483.0 465414.0 0
168356.0 465591.0 0
172230.0 465740.0 0
176100.0 465859.0 0
179963.0 465951.0 0
183816.0 466017.0 0
187660.0 466061.0 0
191493.0 466087.0 0
195315.0 466097.0 0
199127.0 466096.0 0
202929.0 466086.0 0
206721.0 466067.0 0
210502.0 466043.0 0
214272.0 466015.0 0
218031.0 465985.0 0
221779.0 465956.0 0
225516.0 465931.0 0
229243.0 465913.0 0
232960.0 465906.0 0
236669.0 465912.0 0
240370.0 465934.0 0
244065.0 465974.0 0
247756.0 466036.0 0
251443.0 466120.0 0
255129.0 466228.0 0
258817.0 466358.0 0
262508.0 466511.0 0
266205.0 466682.0 0
269910.0 466868.0 0
273624.0 467064.0 0
277350.0 467267.0 0
281086.0 467471.0 0
294141.0 464973.0 0
297912.0 465163.0 0
301691.0 465340.0 0
305477.0 465505.0 0
309268.0 465657.0 0
313064.0 465795.0 0
316864.0 465918.0 0
320668.0 466024.0 0
324477.0 466106.0 0
328293.0 466156.0 0
332115.0 466165.0 0
335940.0 466124.0 0
339762.0 466026.0 0
343573.0 465866.0 0
347368.0 465645.0 0
351139.0 465370.0 0
354886.0 465056.0 0
361034.0 467626.0 0
364803.0 467205.0 0
368549.0 466819.0 0
372301.0 466493.0 0
376161.0 466115.0 0
382622.0 468116.0 0
386465.0 467329.0 0
390252.0 466430.0 0
396665.0 467949.0 0
400389.0 466890.0 0
404074.0 465777.0 0
410488.0 467185.0 0
414129.0 465993.0 0
420697.0 467921.0 0
427698.0 469007.0 0
431392.0 467329.0 0
438291.0 467601.0 0
445011.0 467973.0 0
51292.5 470291.0 0
58107.0 469968.0 0
64864.8 469577.0 0
68325.7 471288.0 0
74935.1 470671.0 0
81412.6 469839.0 0
84903.5 471202.0 0
91235.9 469812.0 0
94767.7 470977.0 0
97520.0 468355.0 0
101098.0 469497.0 0
111177.0 469021.0 0
114862.0 469978.0 0
121533.0 468829.0 0
125286.0 469678.0 0
129095.0 470316.0 0
139345.0 468006.0 0
143067.0 467907.0 0
146893.0 467994.0 0
150704.0 468034.0 0
154477.0 468079.0 0
158300.0 468244.0 0
162152.0 468427.0 0
166020.0 468602.0 0
169894.0 468758.0 0
173771.0 468891.0 0
177644.0 469001.0 0
181511.0 469087.0 0
185370.0 469151.0 0
189220.0 469197.0 0
193060.0 469227.0 0
196890.0 469244.0 0
200711.0 469250.0 0
204522.0 469248.0 0
208322.0 469240.0 0
212113.0 469228.0 0
215893.0 469213.0 0
219662.0 469197.0 0
223421.0 469184.0 0
227170.0 469175.0 0
230910.0 469175.0 0
234640.0 469185.0 0
238364.0 469209.0 0
242081.0 469248.0 0
245792.0 469305.0 0
249500.0 469381.0 0
253206.0 469478.0 0
256913.0 469596.0 0
260621.0 469733.0 0
264334.0 469888.0 0
268053.0 470058.0 0
284834.0 467674.0 0
288593.0 467873.0 0
292363.0 468065.0 0
296144.0 468248.0 0
299934.0 468421.0 0
303731.0 468583.0 0
307537.0 468733.0 0
311349.0 468869.0 0
315167.0 468992.0 0
318990.0 469098.0 0
322820.0 469183.0 0
326658.0 469239.0 0
330502.0 469260.0 0
334349.0 469240.0 0
338197.0 469171.0 0
342037.0 469047.0 0
345864.0 468866.0 0
349676.0 468626.0 0
353471.0 468339.0 0
357254.0 468009.0 0
367253.0 470141.0 0
371041.0 469749.0 0
374871.0 469311.0 0
378750.0 468780.0 0
385242.0 470705.0 0
389093.0 469873.0 0
392901.0 468949.0 0
399350.0 470502.0 0
403102.0 469448.0 0
406815.0 468343.0 0
413246.0 469828.0 0
416949.0 468671.0 0
419677.0 471563.0 0
423532.0 470583.0 0
431693.0 471084.0 0
434948.0 469340.0 0
438251.0 471482.0 0
441622.0 469727.0 0
448362.0 470071.0 0
47911.9 472408.0 0
54766.9 472100.0 0
58265.1 473886.0 0
61581.1 471731.0 0
65082.9 473475.0 0
71808.7 472972.0 0
78404.1 472225.0 0
81946.5 473680.0 0
88431.1 472459.0 0
91988.7 473630.0 0
98339.3 472100.0 0
101967.0 473175.0 0
104721.0 470568.0 0
108374.0 471569.0 0
112050.0 472518.0 0
118578.0 470932.0 0
122731.0 472408.0 0
126561.0 473099.0 0
132970.0 470761.0 0
136874.0 471009.0 0
140734.0 471100.0 0
144541.0 471108.0 0
148371.0 471182.0 0
152191.0 471253.0 0
156004.0 471346.0 0
159845.0 471493.0 0
163706.0 471652.0 0
167578.0 471806.0 0
171457.0 471945.0 0
175336.0 472066.0 0
179213.0 472167.0 0
183085.0 472248.0 0
186949.0 472312.0 0
190805.0 472359.0 0
194652.0 472393.0 0
198490.0 472416.0 0
202318.0 472429.0 0
206137.0 472436.0 0
209946.0 472438.0 0
213745.0 472437.0 0
217535.0 472435.0 0
221314.0 472433.0 0
225084.0 472434.0 0
228845.0 472442.0 0
232597.0 472458.0 0
236341.0 472484.0 0
240079.0 472524.0 0
243812.0 472578.0 0
271781.0 470238.0 0
275518.0 470426.0 0
279265.0 470617.0 0
283023.0 470808.0 0
286791.0 470997.0 0
290570.0 471180.0 0
294360.0 471357.0 0
298160.0 471524.0 0
301968.0 471682.0 0
305786.0 471828.0 0
309611.0 471963.0 0
313444.0 472084.0 0
317284.0 472190.0 0
321133.0 472276.0 0
324989.0 472338.0 0
328854.0 472369.0 0
332723.0 472365.0 0
336594.0 472321.0 0
340463.0 472228.0 0
344323.0 472083.0 0
348170.0 471879.0 0
352005.0 471618.0 0
355833.0 471304.0 0
359657.0 470940.0 0
363466.0 470542.0 0
369745.0 473058.0 0
373593.0 472591.0 0
377473.0 472056.0 0
381364.0 471432.0 0
387875.0 473314.0 0
391736.0 472447.0 0
395560.0 471505.0 0
402028.0 473106.0 0
405803.0 472065.0 0
409541.0 470975.0 0
412241.0 473671.0 0
415961.0 472532.0 0
425221.0 474042.0 0
428483.0 472696.0 0
434909.0 473256.0 0
441542.0 473644.0 0
444945.0 471866.0 0
448273.0 473997.0 0
451721.0 472175.0 0
455086.0 474283.0 0
51409.8 474245.0 0
54927.6 476054.0 0
61790.0 475651.0 0
68615.3 475209.0 0
72185.0 476923.0 0
75328.8 474589.0 0
78919.9 476105.0 0
85540.5 475031.0 0
89156.0 476287.0 0
95579.8 474756.0 0
99233.7 475825.0 0
105634.0 474189.0 0
109320.0 475147.0 0
115748.0 473401.0 0
119513.0 474186.0 0
124080.0 475959.0 0
130448.0 473601.0 0
134368.0 473942.0 0
138282.0 474150.0 0
142164.0 474256.0 0
146013.0 474319.0 0
149861.0 474404.0 0
153704.0 474497.0 0
157548.0 474607.0 0
161407.0 474745.0 0
165278.0 474888.0 0
169158.0 475026.0 0
173042.0 475152.0 0
176926.0 475263.0 0
180807.0 475357.0 0
247540.0 472650.0 0
251265.0 472739.0 0
254990.0 472846.0 0
258716.0 472971.0 0
262445.0 473112.0 0
266179.0 473267.0 0
269920.0 473433.0 0
273669.0 473608.0 0
277427.0 473786.0 0
281195.0 473966.0 0
284973.0 474145.0 0
288761.0 474320.0 0
292559.0 474489.0 0
296368.0 474651.0 0
300187.0 474803.0 0
304014.0 474946.0 0
307851.0 475077.0 0
311697.0 475196.0 0
315552.0 475300.0 0
319415.0 475387.0 0
338846.0 475411.0 0
342737.0 475299.0 0
346620.0 475132.0 0
350492.0 474901.0 0
354360.0 474604.0 0
358232.0 474249.0 0
362087.0 473874.0 0
365919.0 473478.0 0
376172.0 475380.0 0
380086.0 474780.0 0
383988.0 474096.0 0
390515.0 475950.0 0
394384.0 475058.0 0
398222.0 474106.0 0
404691.0 475772.0 0
408479.0 474753.0 0
418222.0 475693.0 0
421753.0 474784.0 0
428172.0 476603.0 0
431571.0 475017.0 0
438133.0 475431.0 0
444853.0 475828.0 0
451583.0 476152.0 0
58468.3 477839.0 0
65344.3 477401.0 0
68926.1 479155.0 0
75830.7 478517.0 0
82577.2 477533.0 0
86255.7 478885.0 0
92786.7 477433.0 0
96489.0 478506.0 0
102925.0 476855.0 0
106639.0 477833.0 0
113032.0 476029.0 0
116790.0 476797.0 0
120620.0 477386.0 0
127954.0 476491.0 0
131874.0 476880.0 0
135811.0 477155.0 0
139736.0 477338.0 0
143635.0 477457.0 0
147512.0 477549.0 0
151382.0 477649.0 0
155248.0 477755.0 0
159115.0 477873.0 0
162990.0 478004.0 0
184683.0 475435.0 0
188552.0 475497.0 0
192414.0 475546.0 0
196267.0 475584.0 0
200112.0 475613.0 0
203948.0 475634.0 0
207774.0 475650.0 0
211591.0 475662.0 0
215399.0 475671.0 0
219198.0 475681.0 0
222987.0 475692.0 0
226768.0 475708.0 0
230540.0 475730.0 0
234305.0 475761.0 0
238063.0 475802.0 0
241815.0 475856.0 0
245563.0 475924.0 0
249307.0 476008.0 0
253050.0 476107.0 0
256793.0 476222.0 0
260538.0 476352.0 0
264287.0 476495.0 0
268041.0 476649.0 0
271802.0 476811.0 0
275572.0 476978.0 0
279350.0 477148.0 0
283137.0 477317.0 0
286934.0 477483.0 0
290741.0 477645.0 0
294559.0 477800.0 0
298386.0 477948.0 0
323288.0 475453.0 0
327169.0 475493.0 0
331058.0 475502.0 0
334951.0 475476.0 0
352837.0 477917.0 0
356763.0 477553.0 0
360664.0 477201.0 0
364541.0 476826.0 0
368404.0 476406.0 0
372276.0 475927.0 0
378763.0 478147.0 0
382710.0 477518.0 0
386622.0 476774.0 0
393164.0 478614.0 0
397037.0 477708.0 0
400879.0 476759.0 0
411015.0 477594.0 0
414654.0 476661.0 0
420952.0 478583.0 0
424640.0 477905.0 0
431286.0 479010.0 0
434730.0 477230.0 0
437915.0 479493.0 0
441388.0 477602.0 0
62032.0 479602.0 0
65614.1 481352.0 0
73165.4 481429.0 0
79549.8 479983.0 0
83281.6 481414.0 0
89947.2 480128.0 0
93704.2 481200.0 0
100220.0 479548.0 0
103968.0 480549.0 0
110379.0 478735.0 0
114154.0 479526.0 0
117984.0 480160.0 0
125509.0 479466.0 0
129415.0 479865.0 0
133354.0 480169.0 0
137302.0 480397.0 0
141236.0 480565.0 0
145151.0 480692.0 0
166873.0 478136.0 0
170761.0 478262.0 0
174650.0 478378.0 0
178539.0 478481.0 0
182424.0 478570.0 0
186305.0 478645.0 0
190179.0 478708.0 0
194046.0 478759.0 0
197905.0 478801.0 0
201756.0 478835.0 0
205599.0 478864.0 0
209433.0 478888.0 0
213258.0 478909.0 0
217074.0 478930.0 0
220881.0 478951.0 0
224680.0 478975.0 0
228471.0 479004.0 0
232255.0 479039.0 0
236032.0 479083.0 0
239803.0 479138.0 0
243570.0 479205.0 0
247332.0 479285.0 0
251093.0 479379.0 0
254853.0 479486.0 0
258614.0 479607.0 0
262377.0 479740.0 0
266145.0 479883.0 0
269918.0 480034.0 0
273699.0 480191.0 0
277487.0 480351.0 0
302223.0 478086.0 0
306070.0 478213.0 0
309926.0 478329.0 0
313792.0 478431.0 0
317668.0 478518.0 0
321554.0 478586.0 0
325450.0 478632.0 0
329354.0 478651.0 0
333266.0 478640.0 0
337183.0 478596.0 0
341102.0 478512.0 0
345020.0 478382.0 0
348932.0 478192.0 0
359205.0 480521.0 0
363120.0 480177.0 0
367020.0 479782.0 0
370915.0 479307.0 0
374835.0 478747.0 0
381333.0 480924.0 0
385361.0 480263.0 0
389269.0 479472.0 0
399687.0 480412.0 0
403517.0 479482.0 0
407298.0 478530.0 0
413658.0 480474.0 0
417332.0 479539.0 0
423982.0 481793.0 0
427666.0 480509.0 0
441319.0 481550.0 0
77027.4 482957.0 0
87043.2 482768.0 0
90888.9 483916.0 0
97484.9 482254.0 0
101273.0 483275.0 0
107740.0 481476.0 0
111549.0 482312.0 0
115403.0 483002.0 0
121862.0 480582.0 0
127005.0 482931.0 0
130935.0 483227.0 0
134888.0 483470.0 0
149048.0 480802.0 0
152938.0 480913.0 0
156823.0 481028.0 0
160709.0 481149.0 0
164597.0 481274.0 0
168490.0 481398.0 0
172385.0 481516.0 0
176281.0 481624.0 0
180174.0 481721.0 0
184064.0 481806.0 0
187949.0 481880.0 0
191828.0 481943.0 0
195701.0 481996.0 0
199565.0 482043.0 0
203422.0 482083.0 0
207271.0 482118.0 0
211112.0 482150.0 0
214944.0 482181.0 0
218768.0 482212.0 0
222584.0 482244.0 0
226393.0 482279.0 0
230194.0 482320.0 0
233989.0 482368.0 0
237778.0 482425.0 0
241562.0 482492.0 0
245342.0 482570.0 0
249120.0 482660.0 0
252896.0 482762.0 0
256672.0 482876.0 0
260450.0 483000.0 0
281284.0 480511.0 0
285090.0 480670.0 0
288906.0 480824.0 0
292731.0 480973.0 0
296567.0 481115.0 0
300412.0 481249.0 0
304267.0 481372.0 0
308132.0 481485.0 0
312008.0 481585.0 0
315893.0 481670.0 0
319790.0 481739.0 0
323697.0 481789.0 0
327613.0 481816.0 0
331539.0 481817.0 0
335472.0 481788.0 0
339411.0 481727.0 0
343355.0 481627.0 0
347303.0 481477.0 0
351255.0 481254.0 0
355265.0 480847.0 0
365581.0 483174.0 0
369513.0 482736.0 0
373468.0 482145.0 0
377404.0 481560.0 0
388022.0 483025.0 0
391927.0 482187.0 0
395819.0 481315.0 0
402344.0 483177.0 0
406165.0 482279.0 0
409936.0 481380.0 0
416403.0 483341.0 0
420151.0 482417.0 0
73907.4 485360.0 0
80709.0 484365.0 0
84383.7 485666.0 0
88131.8 486684.0 0
94724.1 484963.0 0
98542.4 485998.0 0
105088.0 484243.0 0
108926.0 485110.0 0
119301.0 483504.0 0
123232.0 483787.0 0
128571.0 486361.0 0
138842.0 483666.0 0
142784.0 483824.0 0
146710.0 483956.0 0
150623.0 484077.0 0
154529.0 484196.0 0
158430.0 484316.0 0
162329.0 484437.0 0
166229.0 484559.0 0
170131.0 484677.0 0
174033.0 484788.0 0
177933.0 484890.0 0
181831.0 484983.0 0
185726.0 485065.0 0
189615.0 485138.0 0
193499.0 485202.0 0
197376.0 485258.0 0
201247.0 485309.0 0
205109.0 485355.0 0
208964.0 485397.0 0
212811.0 485437.0 0
216650.0 485476.0 0
220482.0 485517.0 0
224306.0 485559.0 0
228124.0 485605.0 0
231935.0 485657.0 0
264231.0 483134.0 0
268017.0 483276.0 0
271808.0 483424.0 0
275607.0 483575.0 0
279414.0 483727.0 0
283229.0 483878.0 0
287053.0 484026.0 0
290886.0 484169.0 0
294729.0 484306.0 0
298581.0 484435.0 0
302444.0 484554.0 0
306317.0 484664.0 0
310199.0 484761.0 0
314093.0 484845.0 0
317997.0 484914.0 0
321912.0 484966.0 0
325838.0 484998.0 0
329773.0 485008.0 0
333718.0 484993.0 0
337669.0 484951.0 0
341627.0 484876.0 0
345589.0 484761.0 0
349555.0 484592.0 0
353766.0 484126.0 0
357713.0 483836.0 0
361651.0 483529.0 0
372109.0 485558.0 0
376048.0 485006.0 0
379975.0 484392.0 0
383903.0 483701.0 0
390700.0 485785.0 0
394596.0 484932.0 0
398483.0 484062.0 0
405020.0 485999.0 0
408852.0 485137.0 0
412645.0 484257.0 0
419343.0 486298.0 0
77748.8 486977.0 0
81905.0 488755.0 0
91947.9 487717.0 0
102398.0 486998.0 0
106264.0 487942.0 0
112820.0 485868.0 0
116761.0 486465.0 0
120751.0 486814.0 0
124724.0 487011.0 0
132515.0 486585.0 0
136472.0 486787.0 0
140428.0 486961.0 0
144375.0 487112.0 0
148310.0 487247.0 0
152235.0 487374.0 0
156153.0 487498.0 0
160066.0 487621.0 0
163976.0 487741.0 0
167886.0 487860.0 0
171795.0 487973.0 0
175702.0 488079.0 0
179608.0 488177.0 0
183511.0 488266.0 0
187409.0 488346.0 0
235741.0 485716.0 0
239542.0 485784.0 0
243339.0 485862.0 0
247132.0 485949.0 0
250924.0 486048.0 0
254714.0 486156.0 0
258506.0 486275.0 0
262300.0 486402.0 0
266098.0 486536.0 0
269901.0 486676.0 0
273710.0 486819.0 0
277526.0 486964.0 0
281349.0 487108.0 0
285181.0 487250.0 0
289022.0 487387.0 0
292872.0 487519.0 0
296732.0 487644.0 0
300601.0 487760.0 0
304480.0 487866.0 0
308369.0 487961.0 0
312269.0 488044.0 0
316179.0 488112.0 0
320100.0 488166.0 0
324032.0 488201.0 0
327973.0 488218.0 0
331924.0 488214.0 0
335883.0 488186.0 0
339849.0 488133.0 0
343817.0 488050.0 0
347786.0 487930.0 0
352194.0 487375.0 0
356159.0 487150.0 0
360113.0 486883.0 0
364066.0 486576.0 0
368013.0 486193.0 0
374653.0 488466.0 0
378610.0 487905.0 0
382549.0 487226.0 0
386476.0 486491.0 0
393375.0 488570.0 0
397270.0 487713.0 0
401157.0 486858.0 0
411591.0 488022.0 0
415455.0 487149.0 0
89130.8 490485.0 0
92984.0 491484.0 0
95785.0 488725.0 0
99646.9 489746.0 0
103525.0 490728.0 0
110186.0 488719.0 0
114177.0 489410.0 0
118330.0 489857.0 0
122339.0 490121.0 0
126308.0 490287.0 0
130190.0 489769.0 0
134139.0 489949.0 0
138098.0 490121.0 0
142055.0 490280.0 0
146006.0 490427.0 0
149948.0 490563.0 0
153882.0 490694.0 0
157808.0 490821.0 0
161730.0 490944.0 0
191303.0 488419.0 0
195191.0 488484.0 0
199073.0 488544.0 0
202948.0 488599.0 0
206816.0 488651.0 0
210676.0 488700.0 0
214529.0 488747.0 0
218375.0 488795.0 0
222214.0 488844.0 0
226046.0 488896.0 0
229873.0 488952.0 0
233694.0 489014.0 0
237510.0 489083.0 0
241322.0 489161.0 0
245131.0 489248.0 0
248937.0 489344.0 0
252742.0 489449.0 0
256547.0 489563.0 0
260353.0 489684.0 0
264163.0 489812.0 0
267976.0 489945.0 0
271795.0 490082.0 0
275620.0 490220.0 0
279453.0 490358.0 0
283293.0 490495.0 0
287141.0 490627.0 0
290997.0 490755.0 0
294863.0 490876.0 0
350550.0 490614.0 0
354525.0 490453.0 0
358495.0 490236.0 0
362463.0 489974.0 0
366436.0 489669.0 0
370701.0 488967.0 0
381208.0 490787.0 0
385138.0 490067.0 0
389106.0 489261.0 0
396053.0 491377.0 0
399951.0 490536.0 0
403844.0 489702.0 0
407723.0 488869.0 0
414320.0 490946.0 0
85198.7 491002.0 0
90180.1 494281.0 0
96851.7 492487.0 0
100746.0 493502.0 0
107567.0 491618.0 0
111548.0 492312.0 0
115842.0 492858.0 0
119987.0 493234.0 0
131846.0 493170.0 0
135800.0 493321.0 0
139760.0 493474.0 0
143719.0 493623.0 0
165649.0 491064.0 0
169566.0 491179.0 0
173481.0 491288.0 0
177394.0 491390.0 0
181304.0 491484.0 0
185211.0 491571.0 0
189114.0 491650.0 0
193011.0 491723.0 0
196904.0 491791.0 0
200790.0 491854.0 0
204669.0 491914.0 0
208542.0 491971.0 0
212407.0 492026.0 0
216266.0 492081.0 0
220117.0 492136.0 0
223963.0 492193.0 0
227804.0 492254.0 0
231639.0 492319.0 0
235469.0 492390.0 0
239295.0 492469.0 0
243118.0 492555.0 0
246938.0 492650.0 0
250756.0 492753.0 0
254573.0 492864.0 0
258391.0 492981.0 0
262212.0 493104.0 0
266035.0 493232.0 0
269864.0 493363.0 0
273698.0 493496.0 0
298738.0 490988.0 0
302623.0 491092.0 0
306517.0 491185.0 0
310422.0 491266.0 0
314337.0 491334.0 0
318262.0 491388.0 0
322198.0 491427.0 0
326143.0 491448.0 0
330098.0 491452.0 0
334060.0 491437.0 0
338029.0 491401.0 0
342001.0 491345.0 0
345970.0 491265.0 0
356799.0 493586.0 0
360774.0 493374.0 0
364743.0 493120.0 0
369238.0 492380.0 0
373191.0 491948.0 0
377147.0 491412.0 0
383820.0 493679.0 0
387791.0 492873.0 0
391742.0 492064.0 0
402630.0 493403.0 0
406533.0 492595.0 0
410429.0 491777.0 0
86245.8 494855.0 0
94044.6 495257.0 0
97918.1 496250.0 0
104829.0 494425.0 0
108974.0 495271.0 0
113253.0 495790.0 0
123971.0 493466.0 0
127940.0 493614.0 0
147673.0 493767.0 0
151620.0 493904.0 0
155560.0 494037.0 0
159493.0 494164.0 0
163421.0 494287.0 0
167347.0 494405.0 0
171270.0 494517.0 0
175190.0 494623.0 0
179107.0 494721.0 0
183022.0 494813.0 0
186932.0 494898.0 0
190838.0 494977.0 0
194740.0 495051.0 0
198636.0 495121.0 0
202525.0 495187.0 0
206409.0 495252.0 0
210285.0 495315.0 0
214155.0 495376.0 0
218019.0 495438.0 0
221877.0 495500.0 0
225729.0 495564.0 0
229577.0 495632.0 0
233420.0 495705.0 0
237259.0 495785.0 0
241095.0 495872.0 0
244927.0 495967.0 0
248757.0 496069.0 0
277538.0 493629.0 0
281386.0 493760.0 0
285241.0 493888.0 0
289104.0 494012.0 0
292976.0 494130.0 0
296857.0 494240.0 0
300746.0 494341.0 0
304646.0 494432.0 0
308554.0 494512.0 0
312473.0 494580.0 0
316401.0 494635.0 0
320339.0 494676.0 0
324287.0 494701.0 0
328243.0 494711.0 0
332207.0 494705.0 0
336177.0 494683.0 0
340149.0 494648.0 0
344119.0 494599.0 0
348838.0 493859.0 0
352818.0 493752.0 0
367610.0 495743.0 0
371665.0 495453.0 0
375653.0 494945.0 0
379708.0 494312.0 0
390437.0 495713.0 0
394402.0 494885.0 0
398723.0 494224.0 0
405299.0 496319.0 0
409218.0 495532.0 0
91251.4 498080.0 0
95116.8 499042.0 0
102046.0 497210.0 0
106236.0 498098.0 0
117571.0 496302.0 0
121654.0 496643.0 0
125643.0 496840.0 0
129615.0 496982.0 0
133535.0 496571.0 0
137493.0 496705.0 0
141455.0 496847.0 0
145416.0 496990.0 0
149373.0 497132.0 0
153323.0 497270.0 0
157266.0 497402.0 0
161204.0 497530.0 0
165138.0 497651.0 0
169069.0 497766.0 0
172996.0 497875.0 0
176921.0 497978.0 0
180842.0 498074.0 0
184759.0 498163.0 0
188673.0 498247.0 0
192583.0 498326.0 0
196487.0 498401.0 0
200386.0 498474.0 0
204279.0 498545.0 0
208166.0 498614.0 0
212046.0 498682.0 0
215920.0 498750.0 0
252586.0 496177.0 0
256415.0 496292.0 0
260246.0 496412.0 0
264079.0 496535.0 0
267917.0 496662.0 0
271759.0 496790.0 0
275607.0 496919.0 0
279462.0 497046.0 0
283324.0 497170.0 0
287193.0 497291.0 0
291071.0 497406.0 0
294957.0 497513.0 0
298851.0 497613.0 0
302754.0 497703.0 0
306667.0 497783.0 0
310589.0 497851.0 0
314519.0 497906.0 0
318459.0 497949.0 0
322408.0 497977.0 0
326365.0 497992.0 0
330329.0 497993.0 0
334298.0 497982.0 0
338270.0 497961.0 0
342240.0 497934.0 0
347066.0 497123.0 0
351048.0 497055.0 0
355036.0 496935.0 0
359021.0 496772.0 0
362995.0 496571.0 0
374139.0 498495.0 0
378223.0 497870.0 0
382278.0 497228.0 0
386507.0 496518.0 0
393110.0 498561.0 0
397054.0 497754.0 0
401386.0 497108.0 0
407943.0 499287.0 0
87324.5 498703.0 0
92334.4 501895.0 0
99205.5 499956.0 0
103450.0 500898.0 0
110730.0 498796.0 0
115008.0 499267.0 0
119276.0 499779.0 0
123365.0 500063.0 0
127352.0 500245.0 0
131323.0 500388.0 0
135253.0 499979.0 0
139215.0 500104.0 0
143180.0 500240.0 0
147143.0 500381.0 0
151101.0 500522.0 0
155053.0 500659.0 0
158999.0 500791.0 0
162940.0 500917.0 0
166878.0 501035.0 0
170813.0 501148.0 0
174745.0 501254.0 0
178673.0 501354.0 0
219789.0 498817.0 0
223652.0 498885.0 0
227510.0 498955.0 0
231365.0 499030.0 0
235216.0 499111.0 0
239064.0 499198.0 0
242908.0 499294.0 0
246749.0 499396.0 0
250588.0 499504.0 0
254426.0 499617.0 0
258266.0 499734.0 0
262108.0 499855.0 0
265954.0 499978.0 0
269804.0 500102.0 0
273659.0 500227.0 0
277521.0 500351.0 0
281389.0 500472.0 0
285264.0 500590.0 0
289147.0 500703.0 0
293038.0 500809.0 0
296937.0 500907.0 0
300844.0 500997.0 0
304760.0 501076.0 0
308685.0 501145.0 0
312618.0 501201.0 0
316560.0 501245.0 0
320509.0 501277.0 0
324466.0 501295.0 0
328430.0 501302.0 0
332399.0 501298.0 0
336370.0 501287.0 0
340341.0 501274.0 0
345243.0 500412.0 0
349226.0 500370.0 0
353218.0 500285.0 0
357209.0 500165.0 0
361192.0 500017.0 0
365931.0 499135.0 0
369910.0 498879.0 0
380787.0 500820.0 0
384947.0 500080.0 0
389170.0 499396.0 0
395761.0 501458.0 0
399710.0 500658.0 0
404017.0 500052.0 0
96405.4 502761.0 0
100588.0 503647.0 0
107999.0 501635.0 0
112527.0 502315.0 0
116724.0 502788.0 0
121040.0 503252.0 0
125105.0 503506.0 0
129087.0 503683.0 0
136997.0 503399.0 0
140964.0 503520.0 0
144932.0 503654.0 0
148897.0 503795.0 0
152855.0 503937.0 0
156808.0 504074.0 0
182597.0 501447.0 0
186517.0 501535.0 0
190434.0 501617.0 0
194346.0 501697.0 0
198253.0 501775.0 0
202155.0 501851.0 0
206050.0 501926.0 0
209940.0 502000.0 0
213823.0 502073.0 0
217701.0 502146.0 0
221574.0 502218.0 0
225442.0 502290.0 0
229306.0 502366.0 0
233168.0 502447.0 0
237026.0 502535.0 0
240880.0 502631.0 0
244731.0 502734.0 0
248579.0 502843.0 0
252426.0 502956.0 0
256274.0 503071.0 0
260124.0 503190.0 0
263976.0 503310.0 0
267833.0 503432.0 0
271695.0 503554.0 0
275563.0 503675.0 0
279437.0 503794.0 0
283318.0 503909.0 0
343377.0 503730.0 0
347360.0 503703.0 0
351354.0 503643.0 0
355349.0 503557.0 0
359337.0 503451.0 0
364187.0 502536.0 0
368169.0 502343.0 0
372328.0 501933.0 0
376727.0 501449.0 0
387591.0 502981.0 0
391857.0 502271.0 0
398401.0 504381.0 0
402319.0 503636.0 0
406627.0 503046.0 0
93664.9 505648.0 0
105215.0 504442.0 0
109799.0 505164.0 0
114258.0 505878.0 0
118512.0 506296.0 0
133060.0 503823.0 0
160755.0 504204.0 0
164700.0 504325.0 0
168642.0 504440.0 0
172580.0 504550.0 0
176515.0 504653.0 0
180446.0 504751.0 0
184372.0 504842.0 0
188295.0 504928.0 0
192213.0 505010.0 0
196128.0 505091.0 0
200037.0 505172.0 0
203940.0 505252.0 0
207837.0 505331.0 0
211729.0 505410.0 0
215615.0 505488.0 0
219497.0 505564.0 0
223373.0 505639.0 0
227246.0 505716.0 0
231116.0 505796.0 0
234983.0 505884.0 0
238847.0 505980.0 0
242707.0 506084.0 0
246562.0 506195.0 0
250416.0 506308.0 0
254271.0 506424.0 0
287206.0 504020.0 0
291101.0 504125.0 0
295005.0 504223.0 0
298916.0 504312.0 0
302835.0 504392.0 0
306763.0 504461.0 0
310698.0 504520.0 0
314642.0 504566.0 0
318593.0 504600.0 0
322550.0 504622.0 0
326514.0 504633.0 0
330482.0 504634.0 0
334454.0 504629.0 0
338426.0 504623.0 0
362377.0 505941.0 0
366368.0 505808.0 0
370584.0 505425.0 0
374887.0 504895.0 0
379292.0 504431.0 0
383460.0 503694.0 0
390279.0 505869.0 0
394511.0 505211.0 0
97776.2 506469.0 0
102350.0 507188.0 0
107016.0 507979.0 0
111517.0 508744.0 0
122825.0 506738.0 0
126858.0 506980.0 0
130847.0 507143.0 0
134825.0 507281.0 0
138768.0 506834.0 0
142740.0 506955.0 0
146710.0 507092.0 0
150674.0 507236.0 0
154632.0 507378.0 0
158586.0 507513.0 0
162535.0 507637.0 0
166482.0 507754.0 0
170428.0 507865.0 0
174370.0 507972.0 0
178308.0 508075.0 0
182240.0 508170.0 0
186167.0 508258.0 0
190091.0 508342.0 0
194011.0 508425.0 0
197926.0 508508.0 0
201836.0 508593.0 0
205740.0 508677.0 0
209640.0 508761.0 0
213533.0 508843.0 0
217423.0 508924.0 0
221307.0 509003.0 0
225187.0 509081.0 0
258127.0 506541.0 0
261986.0 506660.0 0
265848.0 506779.0 0
269716.0 506899.0 0
273589.0 507018.0 0
277468.0 507135.0 0
281354.0 507249.0 0
285246.0 507358.0 0
289146.0 507462.0 0
293054.0 507560.0 0
296969.0 507649.0 0
300892.0 507730.0 0
304822.0 507801.0 0
308761.0 507861.0 0
312706.0 507909.0 0
316659.0 507946.0 0
320618.0 507972.0 0
324582.0 507987.0 0
328552.0 507992.0 0
332524.0 507990.0 0
336498.0 507987.0 0
341480.0 507079.0 0
345463.0 507059.0 0
349456.0 507015.0 0
353452.0 506952.0 0
357443.0 506878.0 0
368793.0 508915.0 0
373142.0 508411.0 0
377432.0 507892.0 0
381967.0 507327.0 0
386095.0 506622.0 0
392913.0 508830.0 0
400137.0 507914.0 0
404415.0 507008.0 0
99548.3 510022.0 0
104148.0 510728.0 0
108723.0 511572.0 0
116063.0 509416.0 0
120320.0 509814.0 0
124594.0 510254.0 0
128650.0 510469.0 0
132639.0 510623.0 0
136619.0 510756.0 0
140565.0 510285.0 0
144541.0 510412.0 0
148511.0 510556.0 0
152473.0 510704.0 0
156432.0 510844.0 0
160386.0 510975.0 0
164336.0 511091.0 0
168287.0 511201.0 0
172237.0 511310.0 0
176182.0 511417.0 0
180121.0 511518.0 0
184054.0 511610.0 0
187982.0 511695.0 0
191906.0 511778.0 0
229065.0 509160.0 0
232939.0 509245.0 0
236811.0 509340.0 0
240678.0 509446.0 0
244540.0 509559.0 0
248399.0 509676.0 0
252258.0 509792.0 0
256118.0 509909.0 0
259982.0 510027.0 0
263850.0 510144.0 0
267722.0 510262.0 0
271600.0 510379.0 0
275483.0 510494.0 0
279373.0 510607.0 0
283269.0 510716.0 0
287173.0 510820.0 0
291084.0 510917.0 0
295003.0 511007.0 0
298929.0 511089.0 0
302863.0 511161.0 0
306804.0 511223.0 0
310753.0 511275.0 0
314708.0 511315.0 0
318669.0 511344.0 0
322636.0 511362.0 0
326607.0 511371.0 0
330582.0 511371.0 0
334559.0 511369.0 0
339557.0 510458.0 0
343541.0 510439.0 0
347534.0 510405.0 0
351529.0 510357.0 0
355522.0 510302.0 0
360509.0 509355.0 0
364502.0 509262.0 0
375683.0 511430.0 0
380099.0 510805.0 0
384591.0 510282.0 0
388782.0 509523.0 0
396725.0 509984.0 0
402941.0 510724.0 0
101355.0 513573.0 0
113317.0 512295.0 0
117883.0 512957.0 0
122096.0 513365.0 0
126410.0 513768.0 0
130471.0 513975.0 0
134463.0 514123.0 0
138446.0 514245.0 0
142388.0 513755.0 0
146362.0 513898.0 0
150328.0 514051.0 0
154292.0 514197.0 0
158253.0 514334.0 0
162208.0 514458.0 0
195825.0 511863.0 0
199738.0 511950.0 0
203648.0 512037.0 0
207554.0 512126.0 0
211456.0 512214.0 0
215353.0 512299.0 0
219246.0 512383.0 0
223134.0 512463.0 0
227017.0 512542.0 0
230897.0 512623.0 0
234774.0 512714.0 0
238647.0 512820.0 0
242514.0 512937.0 0
246375.0 513059.0 0
250236.0 513177.0 0
254100.0 513294.0 0
257967.0 513411.0 0
261839.0 513527.0 0
265714.0 513643.0 0
269595.0 513759.0 0
273482.0 513873.0 0
277375.0 513985.0 0
281274.0 514093.0 0
285181.0 514197.0 0
289096.0 514294.0 0
293018.0 514385.0 0
337616.0 513865.0 0
341602.0 513846.0 0
345594.0 513816.0 0
349589.0 513776.0 0
353584.0 513733.0 0
358601.0 512784.0 0
362595.0 512716.0 0
366925.0 512387.0 0
371356.0 511928.0 0
382713.0 513787.0 0
387278.0 513198.0 0
391406.0 512499.0 0
399879.0 513353.0 0
105845.0 514333.0 0
110516.0 515135.0 0
115134.0 515848.0 0
119611.0 516552.0 0
166159.0 514562.0 0
170116.0 514666.0 0
174068.0 514778.0 0
178016.0 514885.0 0
181958.0 514984.0 0
185892.0 515072.0 0
189817.0 515152.0 0
193736.0 515238.0 0
197651.0 515327.0 0
201563.0 515416.0 0
205472.0 515506.0 0
209381.0 515598.0 0
213286.0 515689.0 0
217188.0 515776.0 0
221086.0 515861.0 0
224978.0 515942.0 0
228863.0 516021.0 0
232743.0 516105.0 0
236617.0 516205.0 0
240486.0 516327.0 0
244346.0 516458.0 0
248208.0 516579.0 0
252074.0 516697.0 0
255943.0 516813.0 0
259816.0 516928.0 0
296948.0 514468.0 0
300885.0 514542.0 0
304830.0 514607.0 0
308781.0 514661.0 0
312740.0 514704.0 0
316704.0 514737.0 0
320674.0 514759.0 0
324649.0 514771.0 0
328627.0 514774.0 0
332608.0 514771.0 0
356667.0 516232.0 0
360663.0 516177.0 0
365018.0 515860.0 0
369484.0 515422.0 0
373904.0 514973.0 0
378348.0 514363.0 0
392697.0 516260.0 0
395917.0 513896.0 0
123715.0 517005.0 0
127761.0 517506.0 0
131752.0 517737.0 0
135745.0 517885.0 0
139738.0 517992.0 0
144217.0 517251.0 0
148192.0 517419.0 0
152164.0 517570.0 0
156133.0 517714.0 0
160099.0 517847.0 0
164059.0 517963.0 0
168008.0 518041.0 0
171961.0 518156.0 0
175918.0 518266.0 0
179874.0 518372.0 0
183824.0 518472.0 0
187758.0 518554.0 0
191666.0 518636.0 0
195575.0 518725.0 0
199485.0 518815.0 0
203395.0 518905.0 0
207306.0 518997.0 0
211219.0 519093.0 0
215132.0 519184.0 0
219044.0 519272.0 0
222950.0 519360.0 0
226847.0 519439.0 0
230730.0 519518.0 0
263693.0 517043.0 0
267576.0 517158.0 0
271465.0 517271.0 0
275360.0 517382.0 0
279262.0 517489.0 0
283171.0 517593.0 0
287088.0 517691.0 0
291013.0 517783.0 0
294946.0 517868.0 0
298887.0 517944.0 0
302835.0 518011.0 0
306791.0 518068.0 0
310753.0 518114.0 0
314722.0 518150.0 0
318696.0 518176.0 0
322676.0 518192.0 0
326659.0 518198.0 0
330645.0 518194.0 0
335659.0 517298.0 0
339649.0 517277.0 0
343642.0 517249.0 0
347638.0 517214.0 0
351634.0 517176.0 0
363086.0 519341.0 0
367574.0 518917.0 0
372031.0 518487.0 0
376575.0 517930.0 0
380786.0 517506.0 0
384769.0 517194.0 0
388752.0 516889.0 0
142520.0 520845.0 0
169834.0 521554.0 0
173818.0 521662.0 0
177793.0 521772.0 0
181767.0 521877.0 0
185748.0 521973.0 0
234599.0 519612.0 0
238458.0 519723.0 0
242311.0 519875.0 0
246173.0 520000.0 0
250040.0 520118.0 0
253910.0 520234.0 0
257783.0 520349.0 0
261661.0 520463.0 0
265544.0 520576.0 0
269433.0 520688.0 0
273329.0 520798.0 0
277232.0 520906.0 0
281142.0 521009.0 0
285061.0 521108.0 0
288988.0 521201.0 0
292924.0 521287.0 0
296868.0 521365.0 0
300820.0 521434.0 0
304780.0 521494.0 0
308747.0 521544.0 0
312721.0 521583.0 0
316700.0 521612.0 0
320685.0 521632.0 0
324675.0 521641.0 0
328670.0 521641.0 0
333690.0 520753.0 0
337683.0 520732.0 0
341678.0 520706.0 0
345676.0 520674.0 0
349675.0 520637.0 0
354717.0 519700.0 0
358715.0 519650.0 0
193270.0 522261.0 0
197258.0 522314.0 0
201233.0 522372.0 0
205194.0 522436.0 0
209141.0 522510.0 0
213074.0 522604.0 0
216999.0 522695.0 0
220923.0 522785.0 0
224852.0 522872.0 0
228794.0 522976.0 0
232754.0 523121.0 0
236733.0 523294.0 0
POINT_DATA 4650
SCALARS Radius float 1
LOOKUP_TABLE default
4000.0 4000.0 4000.0 4000.0 4000.0 4000.0 4000.0 4000.0 4000.0 4000.0 4000.0 4000.0 4000.0 4000.0 4000.0 4000.0 4000.0 4000.0 4000.0 4000.0 4000.0 4000.0 4000.0 4000.0 4000.0 4000.0 4000.0 4000.0 4000.0 4000.0 4000.0 4000.0 4000.0 4000.0 4000.0 4000.0 4000.0 4000.0 4000.0 4000.0 4000.0 4000.0 4000.0 4000.0 4000.0 4000.0 4000.0 4000.0 4000.0 4000.0 4000.0 4000.0 4000.0 4000.0 4000.0 4000.0 4000.0 4000.0 4000.0 4000.0 4000.0 4000.0 4000.0 4000.0 4000.0 4000.0 4000.0 4000.0 4000.0 4000.0 4000.0 4000.0 4000.0 4000.0 4000.0 4000.0 4000.0 4000.0 4000.0 4000.0 4000.0 4000.0 4000.0 4000.0 4000.0 4000.0 4000.0 4000.0 4000.0 4000.0 4000.0 4000.0 4000.0 4000.0 4000.0 4000.0 4000.0 4000.0 4000.0 4000.0 4000.0 4000.0 4000.0 4000.0 4000.0 4000.0 4000.0 4000.0 4000.0 4000.0 4000.0 4000.0 4000.0 4000.0 4000.0 4000.0 4000.0 4000.0 4000.0 4000.0 4000.0 4000.0 4000.0 4000.0 4000.0 4000.0 4000.0 4000.0 4000.0 4000.0 4000.0 4000.0 4000.0 4000.0 4000.0 4000.0 4000.0 4000.0 4000.0 4000.0 4000.0 4000.0 4000.0 4000.0 4000.0 4000.0 4000.0 4000.0 4000.0 4000.0 4000.0 4000.0 4000.0 4000.0 4000.0 4000.0 4000.0 4000.0 4000.0 4000.0 4000.0 4000.0 4000.0 4000.0 4000.0 4000.0 4000.0 4000.0 4000.0 4000.0 4000.0 4000.0 4000.0 4000.0 4000.0 4000.0 4000.0 4000.0 4000.0 4000.0 4000.0 4000.0 4000.0 4000.0 4000.0 4000.0 4000.0 4000.0 4000.0 4000.0 4000.0 4000.0 4000.0 4000.0 4000.0 4000.0 4000.0 4000.0 4000.0 4000.0 4000.0 4000.0 4000.0 4000.0 4000.0 4000.0 4000.0 4000.0 4000.0 4000.0 4000.0 4000.0 4000.0 4000.0 4000.0 4000.0 4000.0 4000.0 4000.0 4000.0 4000.0 4000.0 4000.0 4000.0 4000.0 4000.0 4000.0 4000.0 4000.0 4000.0 4000.0 4000.0 4000.0 4000.0 4000.0 4000.0 4000.0 4000.0 4000.0 4000.0 4000.0 4000.0 4000.0 4000.0 4000.0 4000.0 4000.0 4000.0 4000.0 4000.0 4000.0 4000.0 4000.0 4000.0 4000.0 4000.0 4000.0 4000.0 4000.0 4000.0 4000.0 4000.0 4000.0 4000.0 4000.0 4000.0 4000.0 4000.0 4000.0 4000.0 4000.0 4000.0 4000.0 4000.0 4000.0 4000.0 4000.0 4000.0 4000.0 4000.0 4000.0 4000.0 4000.0 4000.0 4000.0 4000.0 4000.0 4000.0 4000.0 4000.0 4000.0 4000.0 4000.0 4000.0 4000.0 4000.0 4000.0 4000.0 4000.0 4000.0 4000.0 4000.0 4000.0 4000.0 4000.0 4000.0 4000.0 4000.0 4000.0 4000.0 4000.0 4000.0 4000.0 4000.0 4000.0 4000.0 4000.0 4000.0 4000.0 4000.0 4000.0 4000.0 4000.0 4000.0 4000.0 4000.0 4000.0 4000.0 4000.0 4000.0 4000.0 4000.0 4000.0 4000.0 4000.0 4000.0 4000.0 4000.0 4000.0 4000.0 4000.0 4000.0 4000.0 4000.0 4000.0 4000.0 4000.0 4000.0 4000.0 4000.0 4000.0 4000.0 4000.0 4000.0 4000.0 4000.0 4000.0 4000.0 4000.0 4000.0 4000.0 4000.0 4000.0 4000.0 4000.0 4000.0 4000.0 4000.0 4000.0 4000.0 4000.0 4000.0 4000.0 4000.0 4000.0 4000.0 4000.0 4000.0 4000.0 4000.0 4000.0 4000.0 4000.0 4000.0 4000.0 4000.0 4000.0 4000.0 4000.0 4000.0 4000.0 4000.0 4000.0 4000.0 4000.0 4000.0 4000.0 4000.0 4000.0 4000.0 4000.0 4000.0 4000.0 4000.0 4000.0 4000.0 4000.0 4000.0 4000.0 4000.0 4000.0 4000.0 4000.0 4000.0 4000.0 4000.0 4000.0 4000.0 4000.0 4000.0 4000.0 4000.0 4000.0 4000.0 4000.0 4000.0 4000.0 4000.0 4000.0 4000.0 4000.0 4000.0 4000.0 4000.0 4000.0 4000.0 4000.0 4000.0 4000.0 4000.0 4000.0 4000.0 4000.0 4000.0 4000.0 4000.0 4000.0 4000.0 4000.0 4000.0 4000.0 4000.0 4000.0 4000.0 4000.0 4000.0 4000.0 4000.0 4000.0 4000.0 4000.0 4000.0 4000.0 4000.0 4000.0 4000.0 4000.0 4000.0 4000.0 4000.0 4000.0 4000.0 4000.0 4000.0 4000.0 4000.0 4000.0 4000.0 4000.0 4000.0 4000.0 4000.0 4000.0 4000.0 4000.0 4000.0 4000.0 4000.0 4000.0 4000.0 4000.0 4000.0 4000.0 4000.0 4000.0 4000.0 4000.0 4000.0 4000.0 4000.0 4000.0 4000.0 4000.0 4000.0 4000.0 4000.0 4000.0 4000.0 4000.0 4000.0 4000.0 4000.0 4000.0 4000.0 4000.0 4000.0 4000.0 4000.0 4000.0 4000.0 4000.0 4000.0 4000.0 4000.0 4000.0 4000.0 4000.0 4000.0 4000.0 4000.0 4000.0 4000.0 4000.0 4000.0 4000.0 4000.0 4000.0 4000.0 4000.0 4000.0 4000.0 4000.0 4000.0 4000.0 4000.0 4000.0 4000.0 4000.0 4000.0 4000.0 4000.0 4000.0 4000.0 4000.0 4000.0 4000.0 4000.0 4000.0 4000.0 4000.0 4000.0 4000.0 4000.0 4000.0 4000.0 4000.0 4000.0 4000.0 4000.0 4000.0 4000.0 4000.0 4000.0 4000.0 4000.0 4000.0 4000.0 4000.0 4000.0 4000.0 4000.0 4000.0 4000.0 4000.0 4000.0 4000.0 4000.0 4000.0 4000.0 4000.0 4000.0 4000.0 4000.0 4000.0 4000.0 4000.0 4000.0 4000.0 4000.0 4000.0 4000.0 4000.0 4000.0 4000.0 4000.0 4000.0 4000.0 4000.0 4000.0 4000.0 4000.0 4000.0 4000.0 4000.0 4000.0 4000.0 4000.0 4000.0 4000.0 4000.0 4000.0 4000.0 4000.0 4000.0 4000.0 4000.0 4000.0 4000.0 4000.0 4000.0 4000.0 4000.0 4000.0 4000.0 4000.0 4000.0 4000.0 4000.0 4000.0 4000.0 4000.0 4000.0 4000.0 4000.0 4000.0 4000.0 4000.0 4000.0 4000.0 4000.0 4000.0 4000.0 4000.0 4000.0 4000.0 4000.0 4000.0 4000.0 4000.0 4000.0 4000.0 4000.0 4000.0 4000.0 4000.0 4000.0 4000.0 4000.0 4000.0 4000.0 4000.0 4000.0 4000.0 4000.0 4000.0 4000.0 4000.0 4000.0 4000.0 4000.0 4000.0 4000.0 4000.0 4000.0 4000.0 4000.0 4000.0 4000.0 4000.0 4000.0 4000.0 4000.0 4000.0 4000.0 4000.0 4000.0 4000.0 4000.0 4000.0 4000.0 4000.0 4000.0 4000.0 4000.0 4000.0 4000.0 4000.0 4000.0 4000.0 4000.0 4000.0 4000.0 4000.0 4000.0 4000.0 4000.0 4000.0 4000.0 4000.0 4000.0 4000.0 4000.0 4000.0 4000.0 4000.0 4000.0 4000.0 4000.0 4000.0 4000.0 4000.0 4000.0 4000.0 4000.0 4000.0 4000.0 4000.0 4000.0 4000.0 4000.0 4000.0 4000.0 4000.0 4000.0 4000.0 4000.0 4000.0 4000.0 4000.0 4000.0 4000.0 4000.0 4000.0 4000.0 4000.0 4000.0 4000.0 4000.0 4000.0 4000.0 4000.0 4000.0 4000.0 4000.0 4000.0 4000.0 4000.0 4000.0 4000.0 4000.0 4000.0 4000.0 4000.0 4000.0 4000.0 4000.0 4000.0 4000.0 4000.0 4000.0 4000.0 4000.0 4000.0 4000.0 4000.0 4000.0 4000.0 4000.0 4000.0 4000.0 4000.0 4000.0 4000.0 4000.0 4000.0 4000.0 4000.0 4000.0 4000.0 4000.0 4000.0 4000.0 4000.0 4000.0 4000.0 4000.0 4000.0 4000.0 4000.0 4000.0 4000.0 4000.0 4000.0 4000.0 4000.0 4000.0 4000.0 4000.0 4000.0 4000.0 4000.0 4000.0 4000.0 4000.0 4000.0 4000.0 4000.0 4000.0 4000.0 4000.0 4000.0 4000.0 4000.0 4000.0 4000.0 4000.0 4000.0 4000.0 4000.0 4000.0 4000.0 4000.0 4000.0 4000.0 4000.0 4000.0 4000.0 4000.0 4000.0 4000.0 4000.0 4000.0 4000.0 4000.0 4000.0 4000.0 4000.0 4000.0 4000.0 4000.0 4000.0 4000.0 4000.0 4000.0 4000.0 4000.0 4000.0 4000.0 4000.0 4000.0 4000.0 4000.0 4000.0 4000.0 4000.0 4000.0 4000.0 4000.0 4000.0 4000.0 4000.0 4000.0 4000.0 4000.0 4000.0 4000.0 4000.0 4000.0 4000.0 4000.0 4000.0 4000.0 4000.0 4000.0 4000.0 4000.0 4000.0 4000.0 4000.0 4000.0 4000.0 4000.0 4000.0 4000.0 4000.0 4000.0 4000.0 4000.0 4000.0 4000.0 4000.0 4000.0 4000.0 4000.0 4000.0 4000.0 4000.0 4000.0 4000.0 4000.0 4000.0 4000.0 4000.0 4000.0 4000.0 4000.0 4000.0 4000.0 4000.0 4000.0 4000.0 4000.0 4000.0 4000.0 4000.0 4000.0 4000.0 4000.0 4000.0 4000.0 4000.0 4000.0 4000.0 4000.0 4000.0 4000.0 4000.0 4000.0 4000.0 4000.0 4000.0 4000.0 4000.0 4000.0 4000.0 4000.0 4000.0 4000.0 4000.0 4000.0 4000.0 4000.0 4000.0 4000.0 4000.0 4000.0 4000.0 4000.0 4000.0 4000.0 4000.0 4000.0 4000.0 4000.0 4000.0 4000.0 4000.0 4000.0 4000.0 4000.0 4000.0 4000.0 4000.0 4000.0 4000.0 4000.0 4000.0 4000.0 4000.0 4000.0 4000.0 4000.0 4000.0 4000.0 4000.0 4000.0 4000.0 4000.0 4000.0 4000.0 4000.0 4000.0 4000.0 4000.0 4000.0 4000.0 4000.0 4000.0 4000.0 4000.0 4000.0 4000.0 4000.0 4000.0 4000.0 4000.0 4000.0 4000.0 4000.0 4000.0 4000.0 4000.0 4000.0 4000.0 4000.0 4000.0 4000.0 4000.0 4000.0 4000.0 4000.0 4000.0 4000.0 4000.0 4000.0 4000.0 4000.0 4000.0 4000.0 4000.0 4000.0 4000.0 4000.0 4000.0 4000.0 4000.0 4000.0 4000.0 4000.0 4000.0 4000.0 4000.0 4000.0 4000.0 4000.0 4000.0 4000.0 4000.0 4000.0 4000.0 4000.0 4000.0 4000.0 4000.0 4000.0 4000.0 4000.0 4000.0 4000.0 4000.0 4000.0 4000.0 4000.0 4000.0 4000.0 4000.0 4000.0 4000.0 4000.0 4000.0 4000.0 4000.0 4000.0 4000.0 4000.0 4000.0 4000.0 4000.0 4000.0 4000.0 4000.0 4000.0 4000.0 4000.0 4000.0 4000.0 4000.0 4000.0 4000.0 4000.0 4000.0 4000.0 4000.0 4000.0 4000.0 4000.0 4000.0 4000.0 4000.0 4000.0 4000.0 4000.0 4000.0 4000.0 4000.0 4000.0 4000.0 4000.0 4000.0 4000.0 4000.0 4000.0 4000.0 4000.0 4000.0 4000.0 4000.0 4000.0 4000.0 4000.0 4000.0 4000.0 4000.0 4000.0 4000.0 4000.0 4000.0 4000.0 4000.0 4000.0 4000.0 4000.0 4000.0 4000.0 4000.0 4000.0 4000.0 4000.0 4000.0 4000.0 4000.0 4000.0 4000.0 4000.0 4000.0 4000.0 4000.0 4000.0 4000.0 4000.0 4000.0 4000.0 4000.0 4000.0 4000.0 4000.0 4000.0 4000.0 4000.0 4000.0 4000.0 4000.0 4000.0 4000.0 4000.0 4000.0 4000.0 4000.0 4000.0 4000.0 4000.0 4000.0 4000.0 4000.0 4000.0 4000.0 4000.0 4000.0 4000.0 4000.0 4000.0 4000.0 4000.0 4000.0 4000.0 4000.0 4000.0 4000.0 4000.0 4000.0 4000.0 4000.0 4000.0 4000.0 4000.0 4000.0 4000.0 4000.0 4000.0 4000.0 4000.0 4000.0 4000.0 4000.0 4000.0 4000.0 4000.0 4000.0 4000.0 4000.0 4000.0 4000.0 4000.0 4000.0 4000.0 4000.0 4000.0 4000.0 4000.0 4000.0 4000.0 4000.0 4000.0 4000.0 4000.0 4000.0 4000.0 4000.0 4000.0 4000.0 4000.0 4000.0 4000.0 4000.0 4000.0 4000.0 4000.0 4000.0 4000.0 4000.0 4000.0 4000.0 4000.0 4000.0 4000.0 4000.0 4000.0 4000.0 4000.0 4000.0 4000.0 4000.0 4000.0 4000.0 4000.0 4000.0 4000.0 4000.0 4000.0 4000.0 4000.0 4000.0 4000.0 4000.0 4000.0 4000.0 4000.0 4000.0 4000.0 4000.0 4000.0 4000.0 4000.0 4000.0 4000.0 4000.0 4000.0 4000.0 4000.0 4000.0 4000.0 4000.0 4000.0 4000.0 4000.0 4000.0 4000.0 4000.0 4000.0 4000.0 4000.0 4000.0 4000.0 4000.0 4000.0 4000.0 4000.0 4000.0 4000.0 4000.0 4000.0 4000.0 4000.0 4000.0 4000.0 4000.0 4000.0 4000.0 4000.0 4000.0 4000.0 4000.0 4000.0 4000.0 4000.0 4000.0 4000.0 4000.0 4000.0 4000.0 4000.0 4000.0 4000.0 4000.0 4000.0 4000.0 4000.0 4000.0 4000.0 4000.0 4000.0 4000.0 4000.0 4000.0 4000.0 4000.0 4000.0 4000.0 4000.0 4000.0 4000.0 4000.0 4000.0 4000.0 4000.0 4000.0 4000.0 4000.0 4000.0 4000.0 4000.0 4000.0 4000.0 4000.0 4000.0 4000.0 4000.0 4000.0 4000.0 4000.0 4000.0 4000.0 4000.0 4000.0 4000.0 4000.0 4000.0 4000.0 4000.0 4000.0 4000.0 4000.0 4000.0 4000.0 4000.0 4000.0 4000.0 4000.0 4000.0 4000.0 4000.0 4000.0 4000.0 4000.0 4000.0 4000.0 4000.0 4000.0 4000.0 4000.0 4000.0 4000.0 4000.0 4000.0 4000.0 4000.0 4000.0 4000.0 4000.0 4000.0 4000.0 4000.0 4000.0 4000.0 4000.0 4000.0 4000.0 4000.0 4000.0 4000.0 4000.0 4000.0 4000.0 4000.0 4000.0 4000.0 4000.0 4000.0 4000.0 4000.0 4000.0 4000.0 4000.0 4000.0 4000.0 4000.0 4000.0 4000.0 4000.0 4000.0 4000.0 4000.0 4000.0 4000.0 4000.0 4000.0 4000.0 4000.0 4000.0 4000.0 4000.0 4000.0 4000.0 4000.0 4000.0 4000.0 4000.0 4000.0 4000.0 4000.0 4000.0 4000.0 4000.0 4000.0 4000.0 4000.0 4000.0 4000.0 4000.0 4000.0 4000.0 4000.0 4000.0 4000.0 4000.0 4000.0 4000.0 4000.0 4000.0 4000.0 4000.0 4000.0 4000.0 4000.0 4000.0 4000.0 4000.0 4000.0 4000.0 4000.0 4000.0 4000.0 4000.0 4000.0 4000.0 4000.0 4000.0 4000.0 4000.0 4000.0 4000.0 4000.0 4000.0 4000.0 4000.0 4000.0 4000.0 4000.0 4000.0 4000.0 4000.0 4000.0 4000.0 4000.0 4000.0 4000.0 4000.0 4000.0 4000.0 4000.0 4000.0 4000.0 4000.0 4000.0 4000.0 4000.0 4000.0 4000.0 4000.0 4000.0 4000.0 4000.0 4000.0 4000.0 4000.0 4000.0 4000.0 4000.0 4000.0 4000.0 4000.0 4000.0 4000.0 4000.0 4000.0 4000.0 4000.0 4000.0 4000.0 4000.0 4000.0 4000.0 4000.0 4000.0 4000.0 4000.0 4000.0 4000.0 4000.0 4000.0 4000.0 4000.0 4000.0 4000.0 4000.0 4000.0 4000.0 4000.0 4000.0 4000.0 4000.0 4000.0 4000.0 4000.0 4000.0 4000.0 4000.0 4000.0 4000.0 4000.0 4000.0 4000.0 4000.0 4000.0 4000.0 4000.0 4000.0 4000.0 4000.0 4000.0 4000.0 4000.0 4000.0 4000.0 4000.0 4000.0 4000.0 4000.0 4000.0 4000.0 4000.0 4000.0 4000.0 4000.0 4000.0 4000.0 4000.0 4000.0 4000.0 4000.0 4000.0 4000.0 4000.0 4000.0 4000.0 4000.0 4000.0 4000.0 4000.0 4000.0 4000.0 4000.0 4000.0 4000.0 4000.0 4000.0 4000.0 4000.0 4000.0 4000.0 4000.0 4000.0 4000.0 4000.0 4000.0 4000.0 4000.0 4000.0 4000.0 4000.0 4000.0 4000.0 4000.0 4000.0 4000.0 4000.0 4000.0 4000.0 4000.0 4000.0 4000.0 4000.0 4000.0 4000.0 4000.0 4000.0 4000.0 4000.0 4000.0 4000.0 4000.0 4000.0 4000.0 4000.0 4000.0 4000.0 4000.0 4000.0 4000.0 4000.0 4000.0 4000.0 4000.0 4000.0 4000.0 4000.0 4000.0 4000.0 4000.0 4000.0 4000.0 4000.0 4000.0 4000.0 4000.0 4000.0 4000.0 4000.0 4000.0 4000.0 4000.0 4000.0 4000.0 4000.0 4000.0 4000.0 4000.0 4000.0 4000.0 4000.0 4000.0 4000.0 4000.0 4000.0 4000.0 4000.0 4000.0 4000.0 4000.0 4000.0 4000.0 4000.0 4000.0 4000.0 4000.0 4000.0 4000.0 4000.0 4000.0 4000.0 4000.0 4000.0 4000.0 4000.0 4000.0 4000.0 4000.0 4000.0 4000.0 4000.0 4000.0 4000.0 4000.0 4000.0 4000.0 4000.0 4000.0 4000.0 4000.0 4000.0 4000.0 4000.0 4000.0 4000.0 4000.0 4000.0 4000.0 4000.0 4000.0 4000.0 4000.0 4000.0 4000.0 4000.0 4000.0 4000.0 4000.0 4000.0 4000.0 4000.0 4000.0 4000.0 4000.0 4000.0 4000.0 4000.0 4000.0 4000.0 4000.0 4000.0 4000.0 4000.0 4000.0 4000.0 4000.0 4000.0 4000.0 4000.0 4000.0 4000.0 4000.0 4000.0 4000.0 4000.0 4000.0 4000.0 4000.0 4000.0 4000.0 4000.0 4000.0 4000.0 4000.0 4000.0 4000.0 4000.0 4000.0 4000.0 4000.0 4000.0 4000.0 4000.0 4000.0 4000.0 4000.0 4000.0 4000.0 4000.0 4000.0 4000.0 4000.0 4000.0 4000.0 4000.0 4000.0 4000.0 4000.0 4000.0 4000.0 4000.0 4000.0 4000.0 4000.0 4000.0 4000.0 4000.0 4000.0 4000.0 4000.0 4000.0 4000.0 4000.0 4000.0 4000.0 4000.0 4000.0 4000.0 4000.0 4000.0 4000.0 4000.0 4000.0 4000.0 4000.0 4000.0 4000.0 4000.0 4000.0 4000.0 4000.0 4000.0 4000.0 4000.0 4000.0 4000.0 4000.0 4000.0 4000.0 4000.0 4000.0 4000.0 4000.0 4000.0 4000.0 4000.0 4000.0 4000.0 4000.0 4000.0 4000.0 4000.0 4000.0 4000.0 4000.0 4000.0 4000.0 4000.0 4000.0 4000.0 4000.0 4000.0 4000.0 4000.0 4000.0 4000.0 4000.0 4000.0 4000.0 4000.0 4000.0 4000.0 4000.0 4000.0 4000.0 4000.0 4000.0 4000.0 4000.0 4000.0 4000.0 4000.0 4000.0 4000.0 4000.0 4000.0 4000.0 4000.0 4000.0 4000.0 4000.0 4000.0 4000.0 4000.0 4000.0 4000.0 4000.0 4000.0 4000.0 4000.0 4000.0 4000.0 4000.0 4000.0 4000.0 4000.0 4000.0 4000.0 4000.0 4000.0 4000.0 4000.0 4000.0 4000.0 4000.0 4000.0 4000.0 4000.0 4000.0 4000.0 4000.0 4000.0 4000.0 4000.0 4000.0 4000.0 4000.0 4000.0 4000.0 4000.0 4000.0 4000.0 4000.0 4000.0 4000.0 4000.0 4000.0 4000.0 4000.0 4000.0 4000.0 4000.0 4000.0 4000.0 4000.0 4000.0 4000.0 4000.0 4000.0 4000.0 4000.0 4000.0 4000.0 4000.0 4000.0 4000.0 4000.0 4000.0 4000.0 4000.0 4000.0 4000.0 4000.0 4000.0 4000.0 4000.0 4000.0 4000.0 4000.0 4000.0 4000.0 4000.0 4000.0 4000.0 4000.0 4000.0 4000.0 4000.0 4000.0 4000.0 4000.0 4000.0 4000.0 4000.0 4000.0 4000.0 4000.0 4000.0 4000.0 4000.0 4000.0 4000.0 4000.0 4000.0 4000.0 4000.0 4000.0 4000.0 4000.0 4000.0 4000.0 4000.0 4000.0 4000.0 4000.0 4000.0 4000.0 4000.0 4000.0 4000.0 4000.0 4000.0 4000.0 4000.0 4000.0 4000.0 4000.0 4000.0 4000.0 4000.0 4000.0 4000.0 4000.0 4000.0 4000.0 4000.0 4000.0 4000.0 4000.0 4000.0 4000.0 4000.0 4000.0 4000.0 4000.0 4000.0 4000.0 4000.0 4000.0 4000.0 4000.0 4000.0 4000.0 4000.0 4000.0 4000.0 4000.0 4000.0 4000.0 4000.0 4000.0 4000.0 4000.0 4000.0 4000.0 4000.0 4000.0 4000.0 4000.0 4000.0 4000.0 4000.0 4000.0 4000.0 4000.0 4000.0 4000.0 4000.0 4000.0 4000.0 4000.0 4000.0 4000.0 4000.0 4000.0 4000.0 4000.0 4000.0 4000.0 4000.0 4000.0 4000.0 4000.0 4000.0 4000.0 4000.0 4000.0 4000.0 4000.0 4000.0 4000.0 4000.0 4000.0 4000.0 4000.0 4000.0 4000.0 4000.0 4000.0 4000.0 4000.0 4000.0 4000.0 4000.0 4000.0 4000.0 4000.0 4000.0 4000.0 4000.0 4000.0 4000.0 4000.0 4000.0 4000.0 4000.0 4000.0 4000.0 4000.0 4000.0 4000.0 4000.0 4000.0 4000.0 4000.0 4000.0 4000.0 4000.0 4000.0 4000.0 4000.0 4000.0 4000.0 4000.0 4000.0 4000.0 4000.0 4000.0 4000.0 4000.0 4000.0 4000.0 4000.0 4000.0 4000.0 4000.0 4000.0 4000.0 4000.0 4000.0 4000.0 4000.0 4000.0 4000.0 4000.0 4000.0 4000.0 4000.0 4000.0 4000.0 4000.0 4000.0 4000.0 4000.0 4000.0 4000.0 4000.0 4000.0 4000.0 4000.0 4000.0 4000.0 4000.0 4000.0 4000.0 4000.0 4000.0 4000.0 4000.0 4000.0 4000.0 4000.0 4000.0 4000.0 4000.0 4000.0 4000.0 4000.0 4000.0 4000.0 4000.0 4000.0 4000.0 4000.0 4000.0 4000.0 4000.0 4000.0 4000.0 4000.0 4000.0 4000.0 4000.0 4000.0 4000.0 4000.0 4000.0 4000.0 4000.0 4000.0 4000.0 4000.0 4000.0 4000.0 4000.0 4000.0 4000.0 4000.0 4000.0 4000.0 4000.0 4000.0 4000.0 4000.0 4000.0 4000.0 4000.0 4000.0 4000.0 4000.0 4000.0 4000.0 4000.0 4000.0 4000.0 4000.0 4000.0 4000.0 4000.0 4000.0 4000.0 4000.0 4000.0 4000.0 4000.0 4000.0 4000.0 4000.0 4000.0 4000.0 4000.0 4000.0 4000.0 4000.0 4000.0 4000.0 4000.0 4000.0 4000.0 4000.0 4000.0 4000.0 4000.0 4000.0 4000.0 4000.0 4000.0 4000.0 4000.0 4000.0 4000.0 4000.0 4000.0 4000.0 4000.0 4000.0 4000.0 4000.0 4000.0 4000.0 4000.0 4000.0 4000.0 4000.0 4000.0 4000.0 4000.0 4000.0 4000.0 4000.0 4000.0 4000.0 4000.0 4000.0 4000.0 4000.0 4000.0 4000.0 4000.0 4000.0 4000.0 4000.0 4000.0 4000.0 4000.0 4000.0 4000.0 4000.0 4000.0 4000.0 4000.0 4000.0 4000.0 4000.0 4000.0 4000.0 4000.0 4000.0 4000.0 4000.0 4000.0 4000.0 4000.0 4000.0 4000.0 4000.0 4000.0 4000.0 4000.0 4000.0 4000.0 4000.0 4000.0 4000.0 4000.0 4000.0 4000.0 4000.0 4000.0 4000.0 4000.0 4000.0 4000.0 4000.0 4000.0 4000.0 4000.0 4000.0 4000.0 4000.0 4000.0 4000.0 4000.0 4000.0 4000.0 4000.0 4000.0 4000.0 4000.0 4000.0 4000.0 4000.0 4000.0 4000.0 4000.0 4000.0 4000.0 4000.0 4000.0 4000.0 4000.0 4000.0 4000.0 4000.0 4000.0 4000.0 4000.0 4000.0 4000.0 4000.0 4000.0 4000.0 4000.0 4000.0 4000.0 4000.0 4000.0 4000.0 4000.0 4000.0 4000.0 4000.0 4000.0 4000.0 4000.0 4000.0 4000.0 4000.0 4000.0 4000.0 4000.0 4000.0 4000.0 4000.0 4000.0 4000.0 4000.0 4000.0 4000.0 4000.0 4000.0 4000.0 4000.0 4000.0 4000.0 4000.0 4000.0 4000.0 4000.0 4000.0 4000.0 4000.0 4000.0 4000.0 4000.0 4000.0 4000.0 4000.0 4000.0 4000.0 4000.0 4000.0 4000.0 4000.0 4000.0 4000.0 4000.0 4000.0 4000.0 4000.0 4000.0 4000.0 4000.0 4000.0 4000.0 4000.0 4000.0 4000.0 4000.0 4000.0 4000.0 4000.0 4000.0 4000.0 4000.0 4000.0 4000.0 4000.0 4000.0 4000.0 4000.0 4000.0 4000.0 4000.0 4000.0 4000.0 4000.0 4000.0 4000.0 4000.0 4000.0 4000.0 4000.0 4000.0 4000.0 4000.0 4000.0 4000.0 4000.0 4000.0 4000.0 4000.0 4000.0 4000.0 4000.0 4000.0 4000.0 4000.0 4000.0 4000.0 4000.0 4000.0 4000.0 4000.0 4000.0 4000.0 4000.0 4000.0 4000.0 4000.0 4000.0 4000.0 4000.0 4000.0 4000.0 4000.0 4000.0 4000.0 4000.0 4000.0 4000.0 4000.0 4000.0 4000.0 4000.0 4000.0 4000.0 4000.0 4000.0 4000.0 4000.0 4000.0 4000.0 4000.0 4000.0 4000.0 4000.0 4000.0 4000.0 4000.0 4000.0 4000.0 4000.0 4000.0 4000.0 4000.0 4000.0 4000.0 4000.0 4000.0 4000.0 4000.0 4000.0 4000.0 4000.0 4000.0 4000.0 4000.0 4000.0 4000.0 4000.0 4000.0 4000.0 4000.0 4000.0 4000.0 4000.0 4000.0 4000.0 4000.0 4000.0 4000.0 4000.0 4000.0 4000.0 4000.0 4000.0 4000.0 4000.0 4000.0 4000.0 4000.0 4000.0 4000.0 4000.0 4000.0 4000.0 4000.0 4000.0 4000.0 4000.0 4000.0 4000.0 4000.0 4000.0 4000.0 4000.0 4000.0 4000.0 4000.0 4000.0 4000.0 4000.0 4000.0 4000.0 4000.0 4000.0 4000.0 4000.0 4000.0 4000.0 4000.0 4000.0 4000.0 4000.0 4000.0 4000.0 4000.0 4000.0 4000.0 4000.0 4000.0 4000.0 4000.0 4000.0 4000.0 4000.0 4000.0 4000.0 4000.0 4000.0 4000.0 4000.0 4000.0 4000.0 4000.0 4000.0 4000.0 4000.0 4000.0 4000.0 4000.0 4000.0 4000.0 4000.0 4000.0 4000.0 4000.0 4000.0 4000.0 4000.0 4000.0 4000.0 4000.0 4000.0 4000.0 4000.0 4000.0 4000.0 4000.0 4000.0 4000.0 4000.0 4000.0 4000.0 4000.0 4000.0 4000.0 4000.0 4000.0 4000.0 4000.0 4000.0 4000.0 4000.0 4000.0 4000.0 4000.0 4000.0 4000.0 4000.0 4000.0 4000.0 4000.0 4000.0 4000.0 4000.0 4000.0 4000.0 4000.0 4000.0 4000.0 4000.0 4000.0 4000.0 4000.0 4000.0 4000.0 4000.0 4000.0 4000.0 4000.0 4000.0 4000.0 4000.0 4000.0 4000.0 4000.0 4000.0 4000.0 4000.0 4000.0 4000.0 4000.0 4000.0 4000.0 4000.0 4000.0 4000.0 4000.0 4000.0 4000.0 4000.0 4000.0 4000.0 4000.0 4000.0 4000.0 4000.0 4000.0 4000.0 4000.0 4000.0 4000.0 4000.0 4000.0 4000.0 4000.0 4000.0 4000.0 4000.0 4000.0 4000.0 4000.0 4000.0 4000.0 4000.0 4000.0 4000.0 4000.0 4000.0 4000.0 4000.0 4000.0 4000.0 4000.0 4000.0 4000.0 4000.0 4000.0 4000.0 4000.0 4000.0 4000.0 4000.0 4000.0 4000.0 4000.0 4000.0 4000.0 4000.0 4000.0 4000.0 4000.0 4000.0 4000.0 4000.0 4000.0 4000.0 4000.0 4000.0 4000.0 4000.0 4000.0 4000.0 4000.0 4000.0 4000.0 4000.0 4000.0 4000.0 4000.0 4000.0 4000.0 4000.0 4000.0 4000.0 4000.0 4000.0 4000.0 4000.0 4000.0 4000.0 4000.0 4000.0 4000.0 4000.0 4000.0 4000.0 4000.0 4000.0 4000.0 4000.0 4000.0 4000.0 4000.0 4000.0 4000.0 4000.0 4000.0 4000.0 4000.0 4000.0 4000.0 4000.0 4000.0 4000.0 4000.0 4000.0 4000.0 4000.0 4000.0 4000.0 4000.0 4000.0 4000.0 4000.0 4000.0 4000.0 4000.0 4000.0 4000.0 4000.0 4000.0 4000.0 4000.0 4000.0 4000.0 4000.0 4000.0 4000.0 4000.0 4000.0 4000.0 4000.0 4000.0 4000.0 4000.0 4000.0 4000.0 4000.0 4000.0 4000.0 4000.0 4000.0 4000.0 4000.0 4000.0 4000.0 4000.0 4000.0 4000.0 4000.0 4000.0 4000.0 4000.0 4000.0 4000.0 4000.0 4000.0 4000.0 4000.0 4000.0 4000.0 4000.0 4000.0 4000.0 4000.0 4000.0 4000.0 4000.0 4000.0 4000.0 4000.0 4000.0 4000.0 4000.0 4000.0 4000.0 4000.0 4000.0 4000.0 4000.0 4000.0 4000.0 4000.0 4000.0 4000.0 4000.0 4000.0 4000.0 4000.0 4000.0 4000.0 4000.0 4000.0 4000.0 4000.0 4000.0 4000.0 4000.0 4000.0 4000.0 4000.0 4000.0 4000.0 4000.0 4000.0 4000.0 4000.0 4000.0 4000.0 4000.0 4000.0 4000.0 4000.0 4000.0 4000.0 4000.0 4000.0 4000.0 4000.0 4000.0 4000.0 4000.0 4000.0 4000.0 4000.0 4000.0 4000.0 4000.0 4000.0 4000.0 4000.0 4000.0 4000.0 4000.0 4000.0 4000.0 4000.0 4000.0 4000.0 4000.0 4000.0 4000.0 4000.0 4000.0 4000.0 4000.0 4000.0 4000.0 4000.0 4000.0 4000.0 4000.0 4000.0 4000.0 4000.0 4000.0 4000.0 4000.0 4000.0 4000.0 4000.0 4000.0 4000.0 4000.0 4000.0 4000.0 4000.0 4000.0 4000.0 4000.0 4000.0 4000.0 4000.0 4000.0 4000.0 4000.0 4000.0 4000.0 4000.0 4000.0 4000.0 4000.0 4000.0 4000.0 4000.0 4000.0 4000.0 4000.0 4000.0 4000.0 4000.0 4000.0 4000.0 4000.0 4000.0 4000.0 4000.0 4000.0 4000.0 4000.0 4000.0 4000.0 4000.0 4000.0 4000.0 4000.0 4000.0 4000.0 4000.0 4000.0 4000.0 4000.0 4000.0 4000.0 4000.0 4000.0 4000.0 4000.0 4000.0 4000.0 4000.0 4000.0 4000.0 4000.0 4000.0 4000.0 4000.0 4000.0 4000.0 4000.0 4000.0 4000.0 4000.0 4000.0 4000.0 4000.0 4000.0 4000.0 4000.0 4000.0 4000.0 4000.0 4000.0 4000.0 4000.0 4000.0 4000.0 4000.0 4000.0 4000.0 4000.0 4000.0 4000.0 4000.0 4000.0 4000.0 4000.0 4000.0 4000.0 4000.0 4000.0 4000.0 4000.0 4000.0 4000.0 4000.0 4000.0 4000.0 4000.0 4000.0 4000.0 4000.0 4000.0 4000.0 4000.0 4000.0 4000.0 4000.0 4000.0 4000.0 4000.0 4000.0 4000.0 4000.0 4000.0 4000.0 4000.0 4000.0 4000.0 4000.0 4000.0 4000.0 4000.0 4000.0 4000.0 4000.0 4000.0 4000.0 4000.0 4000.0 4000.0 4000.0 4000.0 4000.0 4000.0 4000.0 4000.0 4000.0 4000.0 4000.0 4000.0 4000.0 4000.0 4000.0 4000.0 4000.0 4000.0 4000.0 4000.0 4000.0 4000.0 4000.0 4000.0 4000.0 4000.0 4000.0 4000.0 4000.0 4000.0 4000.0 4000.0 4000.0 4000.0 4000.0 4000.0 4000.0 4000.0 4000.0 4000.0 4000.0 4000.0 4000.0 4000.0 4000.0 4000.0 4000.0 4000.0 4000.0 4000.0 4000.0 4000.0 4000.0 4000.0 4000.0 4000.0 4000.0 4000.0 4000.0 4000.0 4000.0 4000.0 4000.0 4000.0 4000.0 4000.0 4000.0 4000.0 4000.0 4000.0 4000.0 4000.0 4000.0 4000.0 4000.0 4000.0 4000.0 4000.0 4000.0 4000.0 4000.0 4000.0 4000.0 4000.0 4000.0 4000.0 4000.0 4000.0 4000.0 4000.0 4000.0 4000.0 4000.0 4000.0 4000.0 4000.0 4000.0 4000.0 4000.0 4000.0 4000.0 4000.0 4000.0 4000.0 4000.0 4000.0 4000.0 4000.0 4000.0 4000.0 4000.0 4000.0 4000.0 4000.0 4000.0 4000.0 4000.0 4000.0 4000.0 4000.0 4000.0 4000.0 4000.0 4000.0 4000.0 4000.0 4000.0 4000.0 4000.0 4000.0 4000.0 4000.0 4000.0 4000.0 4000.0 4000.0 4000.0 4000.0 4000.0 4000.0 4000.0 4000.0 4000.0 4000.0 4000.0 4000.0 4000.0 4000.0 4000.0 4000.0 4000.0 4000.0 4000.0 4000.0 4000.0 4000.0 4000.0 4000.0 4000.0 4000.0 4000.0 4000.0 4000.0 4000.0 4000.0 4000.0 4000.0 4000.0 4000.0 4000.0 4000.0 4000.0 4000.0 4000.0 4000.0 4000.0 4000.0 4000.0 4000.0 4000.0 4000.0 4000.0 4000.0 4000.0 4000.0 4000.0 4000.0 4000.0 4000.0 4000.0 4000.0 4000.0 4000.0 4000.0 4000.0 4000.0 4000.0 4000.0 4000.0 4000.0 4000.0 4000.0 4000.0 4000.0 4000.0 4000.0 4000.0 4000.0 4000.0 4000.0 4000.0 4000.0 4000.0 4000.0 4000.0 4000.0 4000.0 4000.0 4000.0 4000.0 4000.0 4000.0 4000.0 4000.0 4000.0 4000.0 4000.0 4000.0 4000.0 4000.0 4000.0 4000.0 4000.0 4000.0 4000.0 4000.0 4000.0 4000.0 4000.0 4000.0 4000.0 4000.0 4000.0 4000.0 4000.0 4000.0 4000.0 4000.0 4000.0 4000.0 4000.0 4000.0 4000.0 4000.0 4000.0 4000.0 4000.0 4000.0 4000.0 4000.0 4000.0 4000.0 4000.0 4000.0 4000.0 4000.0 4000.0 4000.0 4000.0 4000.0 4000.0 4000.0 4000.0 4000.0 4000.0 4000.0 4000.0 4000.0 4000.0 4000.0 4000.0 4000.0 4000.0 4000.0 4000.0 4000.0 4000.0 4000.0 4000.0 4000.0 4000.0 4000.0 4000.0 4000.0 4000.0 4000.0 4000.0 4000.0 4000.0 4000.0 4000.0 4000.0 4000.0 4000.0 4000.0 4000.0 4000.0 4000.0 4000.0 4000.0 4000.0 4000.0 4000.0 4000.0 4000.0 4000.0 4000.0 4000.0 4000.0 4000.0 4000.0 4000.0 4000.0 4000.0 4000.0 4000.0 4000.0 4000.0 4000.0 4000.0 4000.0 4000.0 4000.0 4000.0 4000.0 4000.0 4000.0 4000.0 4000.0 4000.0 4000.0 4000.0 4000.0 4000.0 4000.0 4000.0 4000.0 4000.0 4000.0 4000.0 4000.0 4000.0 4000.0 4000.0 4000.0 4000.0 4000.0 4000.0 4000.0 4000.0 4000.0 4000.0 4000.0 4000.0 4000.0 4000.0 4000.0 4000.0 4000.0 4000.0 4000.0 4000.0 4000.0 4000.0 4000.0 4000.0 4000.0 4000.0 4000.0 4000.0 4000.0 4000.0 4000.0 4000.0 4000.0 4000.0 4000.0 4000.0 4000.0 4000.0 4000.0 4000.0 4000.0 4000.0 4000.0 4000.0 4000.0 4000.0 4000.0 4000.0 4000.0 4000.0 4000.0 4000.0 4000.0 4000.0 4000.0 4000.0 4000.0 4000.0 4000.0 4000.0 4000.0 4000.0 4000.0 4000.0 4000.0 4000.0 4000.0 4000.0 4000.0 4000.0 4000.0 4000.0 4000.0 4000.0 4000.0 4000.0 4000.0 4000.0 4000.0 4000.0 4000.0 4000.0 4000.0 4000.0 4000.0 4000.0 4000.0 4000.0 4000.0 4000.0 4000.0 4000.0 4000.0 4000.0 4000.0 4000.0 4000.0 4000.0 4000.0 4000.0 4000.0 4000.0 4000.0 4000.0 4000.0 4000.0 4000.0 4000.0 4000.0 4000.0 4000.0 4000.0 4000.0 4000.0 4000.0 4000.0 4000.0 4000.0 4000.0 4000.0 4000.0 4000.0 4000.0 4000.0 4000.0 4000.0 4000.0 4000.0 4000.0 4000.0 4000.0 4000.0 4000.0 4000.0 4000.0 4000.0 4000.0 4000.0 4000.0 4000.0 4000.0 4000.0 4000.0 4000.0 4000.0 4000.0 4000.0 4000.0 4000.0 4000.0 4000.0 4000.0 4000.0 4000.0 4000.0 4000.0 4000.0 4000.0 4000.0 4000.0 4000.0 4000.0 4000.0 4000.0 4000.0 4000.0 4000.0 4000.0 4000.0 4000.0 4000.0 4000.0 4000.0 4000.0 4000.0 4000.0 4000.0 4000.0 4000.0 4000.0 4000.0 4000.0 4000.0 4000.0 4000.0 4000.0 4000.0 4000.0 4000.0 4000.0 4000.0 4000.0 4000.0 4000.0 4000.0 4000.0 4000.0 4000.0 4000.0 4000.0 4000.0 4000.0 4000.0 4000.0 4000.0 4000.0 4000.0 4000.0 4000.0 4000.0 4000.0 4000.0 4000.0 4000.0 4000.0 4000.0 4000.0 4000.0 4000.0 4000.0 4000.0 4000.0 4000.0 4000.0 4000.0 4000.0 4000.0 4000.0 4000.0 4000.0 4000.0 4000.0 4000.0 4000.0 4000.0 4000.0 4000.0 4000.0 4000.0 4000.0 4000.0 4000.0 4000.0 4000.0 4000.0 4000.0 4000.0 4000.0 4000.0 4000.0 4000.0 4000.0 4000.0 4000.0 4000.0 4000.0 4000.0 4000.0 4000.0 4000.0 4000.0 4000.0 4000.0 4000.0 4000.0 4000.0 4000.0 4000.0 4000.0 4000.0 4000.0 4000.0 4000.0 4000.0 4000.0 4000.0 4000.0 4000.0 4000.0 4000.0 4000.0 4000.0 4000.0 4000.0 4000.0 4000.0 4000.0 4000.0 4000.0 4000.0 4000.0 4000.0 4000.0 4000.0 4000.0 4000.0 4000.0 4000.0 4000.0 4000.0 4000.0 4000.0 4000.0 4000.0 4000.0 4000.0 4000.0 4000.0 4000.0 4000.0 4000.0 4000.0 4000.0 4000.0 4000.0 4000.0 4000.0 4000.0 4000.0 4000.0 4000.0 4000.0 4000.0 4000.0 4000.0 4000.0 4000.0 4000.0 4000.0 4000.0 4000.0 4000.0 4000.0 4000.0 4000.0 4000.0 4000.0 4000.0 4000.0 4000.0 4000.0 4000.0 4000.0 4000.0 4000.0 4000.0 4000.0 4000.0 4000.0 4000.0 4000.0 4000.0 4000.0 4000.0 4000.0 4000.0 4000.0 4000.0 4000.0 4000.0 4000.0 4000.0 4000.0 4000.0 4000.0 4000.0 4000.0 4000.0 4000.0 4000.0 4000.0 4000.0 4000.0 4000.0 4000.0 4000.0 4000.0 4000.0 4000.0 4000.0 4000.0 4000.0 4000.0 4000.0 4000.0 4000.0 4000.0 4000.0 4000.0 4000.0 4000.0 4000.0 4000.0 4000.0 4000.0 4000.0 4000.0 4000.0 4000.0 4000.0 4000.0 4000.0 4000.0 4000.0 4000.0 4000.0 4000.0 4000.0 4000.0 4000.0 4000.0 4000.0 4000.0 4000.0 4000.0 4000.0 4000.0 4000.0 4000.0 4000.0 4000.0 4000.0 4000.0 4000.0 4000.0 4000.0 4000.0 4000.0 4000.0 4000.0 4000.0 4000.0 4000.0 4000.0 4000.0 4000.0 4000.0 4000.0 4000.0 4000.0 4000.0 4000.0 4000.0 4000.0 4000.0 4000.0 4000.0 4000.0 4000.0 4000.0 4000.0 4000.0 4000.0 4000.0 4000.0 4000.0 4000.0 4000.0 4000.0 4000.0 4000.0 4000.0 4000.0 4000.0 4000.0 4000.0 4000.0 4000.0 4000.0 4000.0 4000.0 4000.0 4000.0 4000.0 4000.0 4000.0 4000.0 4000.0 4000.0 4000.0 4000.0 4000.0 4000.0 4000.0 4000.0 4000.0 4000.0 4000.0 4000.0 4000.0 4000.0 4000.0 4000.0 4000.0 4000.0 4000.0 4000.0 4000.0 4000.0 4000.0 4000.0 4000.0 4000.0 4000.0 4000.0 4000.0 4000.0 4000.0 4000.0 4000.0 4000.0 4000.0 4000.0 4000.0 4000.0 4000.0 4000.0 4000.0 4000.0 4000.0 4000.0 4000.0 4000.0 4000.0 4000.0 4000.0 4000.0 4000.0 4000.0 4000.0 4000.0 4000.0 4000.0 4000.0 4000.0 4000.0 4000.0 4000.0 4000.0 4000.0 4000.0 4000.0 4000.0 4000.0 4000.0 4000.0 4000.0 4000.0 4000.0 4000.0 4000.0 4000.0 4000.0 4000.0 4000.0 4000.0 4000.0 4000.0 4000.0 4000.0 4000.0 4000.0 4000.0 4000.0 4000.0 4000.0 4000.0 4000.0 4000.0 4000.0 4000.0 4000.0 4000.0 4000.0 4000.0 4000.0 4000.0 4000.0 4000.0 4000.0 4000.0 4000.0 4000.0 4000.0 4000.0 4000.0 4000.0 4000.0 4000.0 4000.0 4000.0 4000.0 4000.0 4000.0 4000.0 4000.0 4000.0 4000.0 4000.0 4000.0 4000.0 4000.0 4000.0 4000.0 4000.0 4000.0 4000.0 4000.0 4000.0 4000.0 4000.0 4000.0 4000.0 4000.0 4000.0 4000.0 4000.0 4000.0 4000.0 4000.0 4000.0 4000.0 4000.0 4000.0 4000.0 4000.0 4000.0 4000.0 4000.0 4000.0 4000.0 4000.0 4000.0 4000.0 4000.0 4000.0 4000.0 4000.0 4000.0 4000.0 4000.0 4000.0 4000.0 4000.0 4000.0 4000.0 4000.0 4000.0 4000.0 4000.0 4000.0 4000.0 4000.0 4000.0 4000.0 4000.0 4000.0 4000.0 4000.0 4000.0 4000.0 4000.0 4000.0 4000.0 4000.0 4000.0 4000.0 4000.0 4000.0 4000.0 4000.0 4000.0 4000.0 4000.0 4000.0 4000.0 4000.0 4000.0 4000.0 4000.0 4000.0 4000.0 4000.0 4000.0 4000.0 4000.0 4000.0 4000.0 4000.0 4000.0 4000.0 4000.0 4000.0 4000.0 4000.0 4000.0 4000.0 4000.0 4000.0 4000.0 4000.0 4000.0 4000.0 4000.0 4000.0 4000.0 4000.0 4000.0 4000.0 4000.0 4000.0 4000.0 4000.0 4000.0 4000.0 4000.0 4000.0 4000.0 4000.0 4000.0 4000.0 4000.0 4000.0 4000.0 4000.0 4000.0 4000.0 4000.0 4000.0 4000.0 4000.0 4000.0 4000.0 4000.0 4000.0 4000.0 4000.0 4000.0 4000.0 4000.0 4000.0 4000.0 4000.0 4000.0 4000.0 4000.0 4000.0 4000.0 4000.0 4000.0 4000.0 4000.0 4000.0 4000.0 4000.0 4000.0 4000.0 4000.0 4000.0 4000.0 4000.0 4000.0 4000.0 4000.0 4000.0 4000.0 4000.0 4000.0 4000.0 4000.0 4000.0 4000.0 4000.0 4000.0 4000.0 4000.0 4000.0 4000.0 4000.0 4000.0 4000.0 4000.0 4000.0 4000.0 4000.0 4000.0 4000.0 4000.0 4000.0 4000.0 4000.0 4000.0 4000.0 4000.0 4000.0 4000.0 4000.0 4000.0 4000.0 4000.0 4000.0 4000.0 4000.0 4000.0 4000.0 4000.0 4000.0 4000.0 4000.0 4000.0 4000.0 4000.0 4000.0 4000.0 4000.0 4000.0 4000.0 4000.0 4000.0 4000.0 4000.0 4000.0 4000.0 4000.0 4000.0 4000.0 4000.0 4000.0 4000.0 4000.0 4000.0 4000.0 4000.0 4000.0 4000.0 4000.0 4000.0 4000.0 4000.0 4000.0 4000.0 4000.0 4000.0 4000.0 4000.0 4000.0 4000.0 4000.0 4000.0 4000.0 4000.0 4000.0 4000.0 4000.0 4000.0 4000.0 4000.0 4000.0 4000.0 4000.0 4000.0 4000.0 4000.0 4000.0 4000.0 4000.0 4000.0 4000.0 4000.0 4000.0 4000.0 4000.0 4000.0 4000.0 4000.0 4000.0 4000.0 4000.0 4000.0 4000.0 4000.0 4000.0 4000.0 4000.0 4000.0 4000.0 4000.0 4000.0 4000.0 4000.0 4000.0 4000.0 4000.0 4000.0 4000.0 4000.0 4000.0 4000.0 4000.0 4000.0 4000.0 4000.0 4000.0 4000.0 4000.0 4000.0 4000.0 4000.0 4000.0 4000.0 4000.0 4000.0 4000.0 4000.0 4000.0 4000.0 4000.0 4000.0 4000.0 4000.0 4000.0 4000.0 4000.0 4000.0 4000.0 4000.0 4000.0 4000.0 4000.0 4000.0 4000.0 4000.0 4000.0 4000.0 4000.0 4000.0 4000.0 4000.0 4000.0 4000.0 4000.0 4000.0 4000.0 4000.0 4000.0 4000.0 4000.0 4000.0 4000.0 4000.0 4000.0 4000.0 4000.0 4000.0 4000.0 4000.0 4000.0 4000.0 4000.0 4000.0 4000.0 4000.0 4000.0 4000.0 4000.0 4000.0 4000.0 4000.0 4000.0 4000.0 4000.0 4000.0 4000.0 4000.0 4000.0 4000.0 4000.0 4000.0 4000.0 4000.0 4000.0 4000.0 4000.0 4000.0 4000.0 4000.0 4000.0 4000.0 4000.0 4000.0 4000.0 4000.0 4000.0 4000.0 4000.0 4000.0 4000.0 4000.0 4000.0 4000.0 4000.0 4000.0 4000.0 4000.0 4000.0 4000.0 4000.0 4000.0 4000.0 4000.0 4000.0 4000.0 4000.0 4000.0 4000.0 4000.0 4000.0 4000.0 4000.0 4000.0 4000.0 4000.0 4000.0 4000.0 4000.0 4000.0 4000.0 4000.0 4000.0 4000.0 4000.0 4000.0 4000.0 4000.0 4000.0 4000.0 4000.0 4000.0 4000.0 4000.0 4000.0 4000.0 4000.0 4000.0 4000.0 4000.0 4000.0 4000.0 4000.0 4000.0 4000.0 4000.0 4000.0 4000.0 4000.0 4000.0 4000.0 4000.0 4000.0 4000.0 4000.0 4000.0 4000.0 4000.0 4000.0 4000.0 4000.0 4000.0 4000.0 4000.0 4000.0 4000.0 4000.0 4000.0 4000.0 4000.0 4000.0 4000.0 4000.0 4000.0 4000.0 4000.0 4000.0 4000.0 4000.0 4000.0 4000.0 4000.0 4000.0 4000.0 4000.0 4000.0 4000.0 4000.0 4000.0 4000.0 4000.0 4000.0 4000.0 4000.0 4000.0 4000.0 4000.0 4000.0 4000.0 4000.0 4000.0 4000.0 4000.0 4000.0 4000.0 4000.0 4000.0 4000.0 4000.0 4000.0 4000.0 4000.0 4000.0 4000.0 4000.0 4000.0 4000.0 4000.0 4000.0 4000.0 4000.0 4000.0 4000.0 4000.0 4000.0 4000.0 4000.0 4000.0 4000.0 4000.0 4000.0 4000.0 4000.0 4000.0 4000.0 4000.0 4000.0 4000.0 4000.0 4000.0 4000.0 4000.0 4000.0 4000.0 4000.0 4000.0 4000.0 4000.0 4000.0 4000.0 4000.0 4000.0 4000.0 4000.0 4000.0 4000.0 4000.0 4000.0 4000.0 4000.0 4000.0 SCALARS Mass float 1
LOOKUP_TABLE default
11309700000.0 11309700000.0 11309700000.0 11309700000.0 11309700000.0 11309700000.0 11309700000.0 11309700000.0 11309700000.0 11309700000.0 11309700000.0 11309700000.0 11309700000.0 11309700000.0 11309700000.0 11309700000.0 11309700000.0 11309700000.0 11309700000.0 11309700000.0 11309700000.0 11309700000.0 11309700000.0 11309700000.0 11309700000.0 11309700000.0 11309700000.0 11309700000.0 11309700000.0 11309700000.0 11309700000.0 11309700000.0 11309700000.0 11309700000.0 11309700000.0 11309700000.0 11309700000.0 11309700000.0 11309700000.0 11309700000.0 11309700000.0 11309700000.0 11309700000.0 11309700000.0 11309700000.0 11309700000.0 11309700000.0 11309700000.0 11309700000.0 11309700000.0 11309700000.0 11309700000.0 11309700000.0 11309700000.0 11309700000.0 11309700000.0 11309700000.0 11309700000.0 11309700000.0 11309700000.0 11309700000.0 11309700000.0 11309700000.0 11309700000.0 11309700000.0 11309700000.0 11309700000.0 11309700000.0 11309700000.0 11309700000.0 11309700000.0 11309700000.0 11309700000.0 11309700000.0 11309700000.0 11309700000.0 11309700000.0 11309700000.0 11309700000.0 11309700000.0 11309700000.0 11309700000.0 11309700000.0 11309700000.0 11309700000.0 11309700000.0 11309700000.0 11309700000.0 11309700000.0 11309700000.0 11309700000.0 11309700000.0 11309700000.0 11309700000.0 11309700000.0 11309700000.0 11309700000.0 11309700000.0 11309700000.0 11309700000.0 11309700000.0 11309700000.0 11309700000.0 11309700000.0 11309700000.0 11309700000.0 11309700000.0 11309700000.0 11309700000.0 11309700000.0 11309700000.0 11309700000.0 11309700000.0 11309700000.0 11309700000.0 11309700000.0 11309700000.0 11309700000.0 11309700000.0 11309700000.0 11309700000.0 11309700000.0 11309700000.0 11309700000.0 11309700000.0 11309700000.0 11309700000.0 11309700000.0 11309700000.0 11309700000.0 11309700000.0 11309700000.0 11309700000.0 11309700000.0 11309700000.0 11309700000.0 11309700000.0 11309700000.0 11309700000.0 11309700000.0 11309700000.0 11309700000.0 11309700000.0 11309700000.0 11309700000.0 11309700000.0 11309700000.0 11309700000.0 11309700000.0 11309700000.0 11309700000.0 11309700000.0 11309700000.0 11309700000.0 11309700000.0 11309700000.0 11309700000.0 11309700000.0 11309700000.0 11309700000.0 11309700000.0 11309700000.0 11309700000.0 11309700000.0 11309700000.0 11309700000.0 11309700000.0 11309700000.0 11309700000.0 11309700000.0 11309700000.0 11309700000.0 11309700000.0 11309700000.0 11309700000.0 11309700000.0 11309700000.0 11309700000.0 11309700000.0 11309700000.0 11309700000.0 11309700000.0 11309700000.0 11309700000.0 11309700000.0 11309700000.0 11309700000.0 11309700000.0 11309700000.0 11309700000.0 11309700000.0 11309700000.0 11309700000.0 11309700000.0 11309700000.0 11309700000.0 11309700000.0 11309700000.0 11309700000.0 11309700000.0 11309700000.0 11309700000.0 11309700000.0 11309700000.0 11309700000.0 11309700000.0 11309700000.0 11309700000.0 11309700000.0 11309700000.0 11309700000.0 11309700000.0 11309700000.0 11309700000.0 11309700000.0 11309700000.0 11309700000.0 11309700000.0 11309700000.0 11309700000.0 11309700000.0 11309700000.0 11309700000.0 11309700000.0 11309700000.0 11309700000.0 11309700000.0 11309700000.0 11309700000.0 11309700000.0 11309700000.0 11309700000.0 11309700000.0 11309700000.0 11309700000.0 11309700000.0 11309700000.0 11309700000.0 11309700000.0 11309700000.0 11309700000.0 11309700000.0 11309700000.0 11309700000.0 11309700000.0 11309700000.0 11309700000.0 11309700000.0 11309700000.0 11309700000.0 11309700000.0 11309700000.0 11309700000.0 11309700000.0 11309700000.0 11309700000.0 11309700000.0 11309700000.0 11309700000.0 11309700000.0 11309700000.0 11309700000.0 11309700000.0 11309700000.0 11309700000.0 11309700000.0 11309700000.0 11309700000.0 11309700000.0 11309700000.0 11309700000.0 11309700000.0 11309700000.0 11309700000.0 11309700000.0 11309700000.0 11309700000.0 11309700000.0 11309700000.0 11309700000.0 11309700000.0 11309700000.0 11309700000.0 11309700000.0 11309700000.0 11309700000.0 11309700000.0 11309700000.0 11309700000.0 11309700000.0 11309700000.0 11309700000.0 11309700000.0 11309700000.0 11309700000.0 11309700000.0 11309700000.0 11309700000.0 11309700000.0 11309700000.0 11309700000.0 11309700000.0 11309700000.0 11309700000.0 11309700000.0 11309700000.0 11309700000.0 11309700000.0 11309700000.0 11309700000.0 11309700000.0 11309700000.0 11309700000.0 11309700000.0 11309700000.0 11309700000.0 11309700000.0 11309700000.0 11309700000.0 11309700000.0 11309700000.0 11309700000.0 11309700000.0 11309700000.0 11309700000.0 11309700000.0 11309700000.0 11309700000.0 11309700000.0 11309700000.0 11309700000.0 11309700000.0 11309700000.0 11309700000.0 11309700000.0 11309700000.0 11309700000.0 11309700000.0 11309700000.0 11309700000.0 11309700000.0 11309700000.0 11309700000.0 11309700000.0 11309700000.0 11309700000.0 11309700000.0 11309700000.0 11309700000.0 11309700000.0 11309700000.0 11309700000.0 11309700000.0 11309700000.0 11309700000.0 11309700000.0 11309700000.0 11309700000.0 11309700000.0 11309700000.0 11309700000.0 11309700000.0 11309700000.0 11309700000.0 11309700000.0 11309700000.0 11309700000.0 11309700000.0 11309700000.0 11309700000.0 11309700000.0 11309700000.0 11309700000.0 11309700000.0 11309700000.0 11309700000.0 11309700000.0 11309700000.0 11309700000.0 11309700000.0 11309700000.0 11309700000.0 11309700000.0 11309700000.0 11309700000.0 11309700000.0 11309700000.0 11309700000.0 11309700000.0 11309700000.0 11309700000.0 11309700000.0 11309700000.0 11309700000.0 11309700000.0 11309700000.0 11309700000.0 11309700000.0 11309700000.0 11309700000.0 11309700000.0 11309700000.0 11309700000.0 11309700000.0 11309700000.0 11309700000.0 11309700000.0 11309700000.0 11309700000.0 11309700000.0 11309700000.0 11309700000.0 11309700000.0 11309700000.0 11309700000.0 11309700000.0 11309700000.0 11309700000.0 11309700000.0 11309700000.0 11309700000.0 11309700000.0 11309700000.0 11309700000.0 11309700000.0 11309700000.0 11309700000.0 11309700000.0 11309700000.0 11309700000.0 11309700000.0 11309700000.0 11309700000.0 11309700000.0 11309700000.0 11309700000.0 11309700000.0 11309700000.0 11309700000.0 11309700000.0 11309700000.0 11309700000.0 11309700000.0 11309700000.0 11309700000.0 11309700000.0 11309700000.0 11309700000.0 11309700000.0 11309700000.0 11309700000.0 11309700000.0 11309700000.0 11309700000.0 11309700000.0 11309700000.0 11309700000.0 11309700000.0 11309700000.0 11309700000.0 11309700000.0 11309700000.0 11309700000.0 11309700000.0 11309700000.0 11309700000.0 11309700000.0 11309700000.0 11309700000.0 11309700000.0 11309700000.0 11309700000.0 11309700000.0 11309700000.0 11309700000.0 11309700000.0 11309700000.0 11309700000.0 11309700000.0 11309700000.0 11309700000.0 11309700000.0 11309700000.0 11309700000.0 11309700000.0 11309700000.0 11309700000.0 11309700000.0 11309700000.0 11309700000.0 11309700000.0 11309700000.0 11309700000.0 11309700000.0 11309700000.0 11309700000.0 11309700000.0 11309700000.0 11309700000.0 11309700000.0 11309700000.0 11309700000.0 11309700000.0 11309700000.0 11309700000.0 11309700000.0 11309700000.0 11309700000.0 11309700000.0 11309700000.0 11309700000.0 11309700000.0 11309700000.0 11309700000.0 11309700000.0 11309700000.0 11309700000.0 11309700000.0 11309700000.0 11309700000.0 11309700000.0 11309700000.0 11309700000.0 11309700000.0 11309700000.0 11309700000.0 11309700000.0 11309700000.0 11309700000.0 11309700000.0 11309700000.0 11309700000.0 11309700000.0 11309700000.0 11309700000.0 11309700000.0 11309700000.0 11309700000.0 11309700000.0 11309700000.0 11309700000.0 11309700000.0 11309700000.0 11309700000.0 11309700000.0 11309700000.0 11309700000.0 11309700000.0 11309700000.0 11309700000.0 11309700000.0 11309700000.0 11309700000.0 11309700000.0 11309700000.0 11309700000.0 11309700000.0 11309700000.0 11309700000.0 11309700000.0 11309700000.0 11309700000.0 11309700000.0 11309700000.0 11309700000.0 11309700000.0 11309700000.0 11309700000.0 11309700000.0 11309700000.0 11309700000.0 11309700000.0 11309700000.0 11309700000.0 11309700000.0 11309700000.0 11309700000.0 11309700000.0 11309700000.0 11309700000.0 11309700000.0 11309700000.0 11309700000.0 11309700000.0 11309700000.0 11309700000.0 11309700000.0 11309700000.0 11309700000.0 11309700000.0 11309700000.0 11309700000.0 11309700000.0 11309700000.0 11309700000.0 11309700000.0 11309700000.0 11309700000.0 11309700000.0 11309700000.0 11309700000.0 11309700000.0 11309700000.0 11309700000.0 11309700000.0 11309700000.0 11309700000.0 11309700000.0 11309700000.0 11309700000.0 11309700000.0 11309700000.0 11309700000.0 11309700000.0 11309700000.0 11309700000.0 11309700000.0 11309700000.0 11309700000.0 11309700000.0 11309700000.0 11309700000.0 11309700000.0 11309700000.0 11309700000.0 11309700000.0 11309700000.0 11309700000.0 11309700000.0 11309700000.0 11309700000.0 11309700000.0 11309700000.0 11309700000.0 11309700000.0 11309700000.0 11309700000.0 11309700000.0 11309700000.0 11309700000.0 11309700000.0 11309700000.0 11309700000.0 11309700000.0 11309700000.0 11309700000.0 11309700000.0 11309700000.0 11309700000.0 11309700000.0 11309700000.0 11309700000.0 11309700000.0 11309700000.0 11309700000.0 11309700000.0 11309700000.0 11309700000.0 11309700000.0 11309700000.0 11309700000.0 11309700000.0 11309700000.0 11309700000.0 11309700000.0 11309700000.0 11309700000.0 11309700000.0 11309700000.0 11309700000.0 11309700000.0 11309700000.0 11309700000.0 11309700000.0 11309700000.0 11309700000.0 11309700000.0 11309700000.0 11309700000.0 11309700000.0 11309700000.0 11309700000.0 11309700000.0 11309700000.0 11309700000.0 11309700000.0 11309700000.0 11309700000.0 11309700000.0 11309700000.0 11309700000.0 11309700000.0 11309700000.0 11309700000.0 11309700000.0 11309700000.0 11309700000.0 11309700000.0 11309700000.0 11309700000.0 11309700000.0 11309700000.0 11309700000.0 11309700000.0 11309700000.0 11309700000.0 11309700000.0 11309700000.0 11309700000.0 11309700000.0 11309700000.0 11309700000.0 11309700000.0 11309700000.0 11309700000.0 11309700000.0 11309700000.0 11309700000.0 11309700000.0 11309700000.0 11309700000.0 11309700000.0 11309700000.0 11309700000.0 11309700000.0 11309700000.0 11309700000.0 11309700000.0 11309700000.0 11309700000.0 11309700000.0 11309700000.0 11309700000.0 11309700000.0 11309700000.0 11309700000.0 11309700000.0 11309700000.0 11309700000.0 11309700000.0 11309700000.0 11309700000.0 11309700000.0 11309700000.0 11309700000.0 11309700000.0 11309700000.0 11309700000.0 11309700000.0 11309700000.0 11309700000.0 11309700000.0 11309700000.0 11309700000.0 11309700000.0 11309700000.0 11309700000.0 11309700000.0 11309700000.0 11309700000.0 11309700000.0 11309700000.0 11309700000.0 11309700000.0 11309700000.0 11309700000.0 11309700000.0 11309700000.0 11309700000.0 11309700000.0 11309700000.0 11309700000.0 11309700000.0 11309700000.0 11309700000.0 11309700000.0 11309700000.0 11309700000.0 11309700000.0 11309700000.0 11309700000.0 11309700000.0 11309700000.0 11309700000.0 11309700000.0 11309700000.0 11309700000.0 11309700000.0 11309700000.0 11309700000.0 11309700000.0 11309700000.0 11309700000.0 11309700000.0 11309700000.0 11309700000.0 11309700000.0 11309700000.0 11309700000.0 11309700000.0 11309700000.0 11309700000.0 11309700000.0 11309700000.0 11309700000.0 11309700000.0 11309700000.0 11309700000.0 11309700000.0 11309700000.0 11309700000.0 11309700000.0 11309700000.0 11309700000.0 11309700000.0 11309700000.0 11309700000.0 11309700000.0 11309700000.0 11309700000.0 11309700000.0 11309700000.0 11309700000.0 11309700000.0 11309700000.0 11309700000.0 11309700000.0 11309700000.0 11309700000.0 11309700000.0 11309700000.0 11309700000.0 11309700000.0 11309700000.0 11309700000.0 11309700000.0 11309700000.0 11309700000.0 11309700000.0 11309700000.0 11309700000.0 11309700000.0 11309700000.0 11309700000.0 11309700000.0 11309700000.0 11309700000.0 11309700000.0 11309700000.0 11309700000.0 11309700000.0 11309700000.0 11309700000.0 11309700000.0 11309700000.0 11309700000.0 11309700000.0 11309700000.0 11309700000.0 11309700000.0 11309700000.0 11309700000.0 11309700000.0 11309700000.0 11309700000.0 11309700000.0 11309700000.0 11309700000.0 11309700000.0 11309700000.0 11309700000.0 11309700000.0 11309700000.0 11309700000.0 11309700000.0 11309700000.0 11309700000.0 11309700000.0 11309700000.0 11309700000.0 11309700000.0 11309700000.0 11309700000.0 11309700000.0 11309700000.0 11309700000.0 11309700000.0 11309700000.0 11309700000.0 11309700000.0 11309700000.0 11309700000.0 11309700000.0 11309700000.0 11309700000.0 11309700000.0 11309700000.0 11309700000.0 11309700000.0 11309700000.0 11309700000.0 11309700000.0 11309700000.0 11309700000.0 11309700000.0 11309700000.0 11309700000.0 11309700000.0 11309700000.0 11309700000.0 11309700000.0 11309700000.0 11309700000.0 11309700000.0 11309700000.0 11309700000.0 11309700000.0 11309700000.0 11309700000.0 11309700000.0 11309700000.0 11309700000.0 11309700000.0 11309700000.0 11309700000.0 11309700000.0 11309700000.0 11309700000.0 11309700000.0 11309700000.0 11309700000.0 11309700000.0 11309700000.0 11309700000.0 11309700000.0 11309700000.0 11309700000.0 11309700000.0 11309700000.0 11309700000.0 11309700000.0 11309700000.0 11309700000.0 11309700000.0 11309700000.0 11309700000.0 11309700000.0 11309700000.0 11309700000.0 11309700000.0 11309700000.0 11309700000.0 11309700000.0 11309700000.0 11309700000.0 11309700000.0 11309700000.0 11309700000.0 11309700000.0 11309700000.0 11309700000.0 11309700000.0 11309700000.0 11309700000.0 11309700000.0 11309700000.0 11309700000.0 11309700000.0 11309700000.0 11309700000.0 11309700000.0 11309700000.0 11309700000.0 11309700000.0 11309700000.0 11309700000.0 11309700000.0 11309700000.0 11309700000.0 11309700000.0 11309700000.0 11309700000.0 11309700000.0 11309700000.0 11309700000.0 11309700000.0 11309700000.0 11309700000.0 11309700000.0 11309700000.0 11309700000.0 11309700000.0 11309700000.0 11309700000.0 11309700000.0 11309700000.0 11309700000.0 11309700000.0 11309700000.0 11309700000.0 11309700000.0 11309700000.0 11309700000.0 11309700000.0 11309700000.0 11309700000.0 11309700000.0 11309700000.0 11309700000.0 11309700000.0 11309700000.0 11309700000.0 11309700000.0 11309700000.0 11309700000.0 11309700000.0 11309700000.0 11309700000.0 11309700000.0 11309700000.0 11309700000.0 11309700000.0 11309700000.0 11309700000.0 11309700000.0 11309700000.0 11309700000.0 11309700000.0 11309700000.0 11309700000.0 11309700000.0 11309700000.0 11309700000.0 11309700000.0 11309700000.0 11309700000.0 11309700000.0 11309700000.0 11309700000.0 11309700000.0 11309700000.0 11309700000.0 11309700000.0 11309700000.0 11309700000.0 11309700000.0 11309700000.0 11309700000.0 11309700000.0 11309700000.0 11309700000.0 11309700000.0 11309700000.0 11309700000.0 11309700000.0 11309700000.0 11309700000.0 11309700000.0 11309700000.0 11309700000.0 11309700000.0 11309700000.0 11309700000.0 11309700000.0 11309700000.0 11309700000.0 11309700000.0 11309700000.0 11309700000.0 11309700000.0 11309700000.0 11309700000.0 11309700000.0 11309700000.0 11309700000.0 11309700000.0 11309700000.0 11309700000.0 11309700000.0 11309700000.0 11309700000.0 11309700000.0 11309700000.0 11309700000.0 11309700000.0 11309700000.0 11309700000.0 11309700000.0 11309700000.0 11309700000.0 11309700000.0 11309700000.0 11309700000.0 11309700000.0 11309700000.0 11309700000.0 11309700000.0 11309700000.0 11309700000.0 11309700000.0 11309700000.0 11309700000.0 11309700000.0 11309700000.0 11309700000.0 11309700000.0 11309700000.0 11309700000.0 11309700000.0 11309700000.0 11309700000.0 11309700000.0 11309700000.0 11309700000.0 11309700000.0 11309700000.0 11309700000.0 11309700000.0 11309700000.0 11309700000.0 11309700000.0 11309700000.0 11309700000.0 11309700000.0 11309700000.0 11309700000.0 11309700000.0 11309700000.0 11309700000.0 11309700000.0 11309700000.0 11309700000.0 11309700000.0 11309700000.0 11309700000.0 11309700000.0 11309700000.0 11309700000.0 11309700000.0 11309700000.0 11309700000.0 11309700000.0 11309700000.0 11309700000.0 11309700000.0 11309700000.0 11309700000.0 11309700000.0 11309700000.0 11309700000.0 11309700000.0 11309700000.0 11309700000.0 11309700000.0 11309700000.0 11309700000.0 11309700000.0 11309700000.0 11309700000.0 11309700000.0 11309700000.0 11309700000.0 11309700000.0 11309700000.0 11309700000.0 11309700000.0 11309700000.0 11309700000.0 11309700000.0 11309700000.0 11309700000.0 11309700000.0 11309700000.0 11309700000.0 11309700000.0 11309700000.0 11309700000.0 11309700000.0 11309700000.0 11309700000.0 11309700000.0 11309700000.0 11309700000.0 11309700000.0 11309700000.0 11309700000.0 11309700000.0 11309700000.0 11309700000.0 11309700000.0 11309700000.0 11309700000.0 11309700000.0 11309700000.0 11309700000.0 11309700000.0 11309700000.0 11309700000.0 11309700000.0 11309700000.0 11309700000.0 11309700000.0 11309700000.0 11309700000.0 11309700000.0 11309700000.0 11309700000.0 11309700000.0 11309700000.0 11309700000.0 11309700000.0 11309700000.0 11309700000.0 11309700000.0 11309700000.0 11309700000.0 11309700000.0 11309700000.0 11309700000.0 11309700000.0 11309700000.0 11309700000.0 11309700000.0 11309700000.0 11309700000.0 11309700000.0 11309700000.0 11309700000.0 11309700000.0 11309700000.0 11309700000.0 11309700000.0 11309700000.0 11309700000.0 11309700000.0 11309700000.0 11309700000.0 11309700000.0 11309700000.0 11309700000.0 11309700000.0 11309700000.0 11309700000.0 11309700000.0 11309700000.0 11309700000.0 11309700000.0 11309700000.0 11309700000.0 11309700000.0 11309700000.0 11309700000.0 11309700000.0 11309700000.0 11309700000.0 11309700000.0 11309700000.0 11309700000.0 11309700000.0 11309700000.0 11309700000.0 11309700000.0 11309700000.0 11309700000.0 11309700000.0 11309700000.0 11309700000.0 11309700000.0 11309700000.0 11309700000.0 11309700000.0 11309700000.0 11309700000.0 11309700000.0 11309700000.0 11309700000.0 11309700000.0 11309700000.0 11309700000.0 11309700000.0 11309700000.0 11309700000.0 11309700000.0 11309700000.0 11309700000.0 11309700000.0 11309700000.0 11309700000.0 11309700000.0 11309700000.0 11309700000.0 11309700000.0 11309700000.0 11309700000.0 11309700000.0 11309700000.0 11309700000.0 11309700000.0 11309700000.0 11309700000.0 11309700000.0 11309700000.0 11309700000.0 11309700000.0 11309700000.0 11309700000.0 11309700000.0 11309700000.0 11309700000.0 11309700000.0 11309700000.0 11309700000.0 11309700000.0 11309700000.0 11309700000.0 11309700000.0 11309700000.0 11309700000.0 11309700000.0 11309700000.0 11309700000.0 11309700000.0 11309700000.0 11309700000.0 11309700000.0 11309700000.0 11309700000.0 11309700000.0 11309700000.0 11309700000.0 11309700000.0 11309700000.0 11309700000.0 11309700000.0 11309700000.0 11309700000.0 11309700000.0 11309700000.0 11309700000.0 11309700000.0 11309700000.0 11309700000.0 11309700000.0 11309700000.0 11309700000.0 11309700000.0 11309700000.0 11309700000.0 11309700000.0 11309700000.0 11309700000.0 11309700000.0 11309700000.0 11309700000.0 11309700000.0 11309700000.0 11309700000.0 11309700000.0 11309700000.0 11309700000.0 11309700000.0 11309700000.0 11309700000.0 11309700000.0 11309700000.0 11309700000.0 11309700000.0 11309700000.0 11309700000.0 11309700000.0 11309700000.0 11309700000.0 11309700000.0 11309700000.0 11309700000.0 11309700000.0 11309700000.0 11309700000.0 11309700000.0 11309700000.0 11309700000.0 11309700000.0 11309700000.0 11309700000.0 11309700000.0 11309700000.0 11309700000.0 11309700000.0 11309700000.0 11309700000.0 11309700000.0 11309700000.0 11309700000.0 11309700000.0 11309700000.0 11309700000.0 11309700000.0 11309700000.0 11309700000.0 11309700000.0 11309700000.0 11309700000.0 11309700000.0 11309700000.0 11309700000.0 11309700000.0 11309700000.0 11309700000.0 11309700000.0 11309700000.0 11309700000.0 11309700000.0 11309700000.0 11309700000.0 11309700000.0 11309700000.0 11309700000.0 11309700000.0 11309700000.0 11309700000.0 11309700000.0 11309700000.0 11309700000.0 11309700000.0 11309700000.0 11309700000.0 11309700000.0 11309700000.0 11309700000.0 11309700000.0 11309700000.0 11309700000.0 11309700000.0 11309700000.0 11309700000.0 11309700000.0 11309700000.0 11309700000.0 11309700000.0 11309700000.0 11309700000.0 11309700000.0 11309700000.0 11309700000.0 11309700000.0 11309700000.0 11309700000.0 11309700000.0 11309700000.0 11309700000.0 11309700000.0 11309700000.0 11309700000.0 11309700000.0 11309700000.0 11309700000.0 11309700000.0 11309700000.0 11309700000.0 11309700000.0 11309700000.0 11309700000.0 11309700000.0 11309700000.0 11309700000.0 11309700000.0 11309700000.0 11309700000.0 11309700000.0 11309700000.0 11309700000.0 11309700000.0 11309700000.0 11309700000.0 11309700000.0 11309700000.0 11309700000.0 11309700000.0 11309700000.0 11309700000.0 11309700000.0 11309700000.0 11309700000.0 11309700000.0 11309700000.0 11309700000.0 11309700000.0 11309700000.0 11309700000.0 11309700000.0 11309700000.0 11309700000.0 11309700000.0 11309700000.0 11309700000.0 11309700000.0 11309700000.0 11309700000.0 11309700000.0 11309700000.0 11309700000.0 11309700000.0 11309700000.0 11309700000.0 11309700000.0 11309700000.0 11309700000.0 11309700000.0 11309700000.0 11309700000.0 11309700000.0 11309700000.0 11309700000.0 11309700000.0 11309700000.0 11309700000.0 11309700000.0 11309700000.0 11309700000.0 11309700000.0 11309700000.0 11309700000.0 11309700000.0 11309700000.0 11309700000.0 11309700000.0 11309700000.0 11309700000.0 11309700000.0 11309700000.0 11309700000.0 11309700000.0 11309700000.0 11309700000.0 11309700000.0 11309700000.0 11309700000.0 11309700000.0 11309700000.0 11309700000.0 11309700000.0 11309700000.0 11309700000.0 11309700000.0 11309700000.0 11309700000.0 11309700000.0 11309700000.0 11309700000.0 11309700000.0 11309700000.0 11309700000.0 11309700000.0 11309700000.0 11309700000.0 11309700000.0 11309700000.0 11309700000.0 11309700000.0 11309700000.0 11309700000.0 11309700000.0 11309700000.0 11309700000.0 11309700000.0 11309700000.0 11309700000.0 11309700000.0 11309700000.0 11309700000.0 11309700000.0 11309700000.0 11309700000.0 11309700000.0 11309700000.0 11309700000.0 11309700000.0 11309700000.0 11309700000.0 11309700000.0 11309700000.0 11309700000.0 11309700000.0 11309700000.0 11309700000.0 11309700000.0 11309700000.0 11309700000.0 11309700000.0 11309700000.0 11309700000.0 11309700000.0 11309700000.0 11309700000.0 11309700000.0 11309700000.0 11309700000.0 11309700000.0 11309700000.0 11309700000.0 11309700000.0 11309700000.0 11309700000.0 11309700000.0 11309700000.0 11309700000.0 11309700000.0 11309700000.0 11309700000.0 11309700000.0 11309700000.0 11309700000.0 11309700000.0 11309700000.0 11309700000.0 11309700000.0 11309700000.0 11309700000.0 11309700000.0 11309700000.0 11309700000.0 11309700000.0 11309700000.0 11309700000.0 11309700000.0 11309700000.0 11309700000.0 11309700000.0 11309700000.0 11309700000.0 11309700000.0 11309700000.0 11309700000.0 11309700000.0 11309700000.0 11309700000.0 11309700000.0 11309700000.0 11309700000.0 11309700000.0 11309700000.0 11309700000.0 11309700000.0 11309700000.0 11309700000.0 11309700000.0 11309700000.0 11309700000.0 11309700000.0 11309700000.0 11309700000.0 11309700000.0 11309700000.0 11309700000.0 11309700000.0 11309700000.0 11309700000.0 11309700000.0 11309700000.0 11309700000.0 11309700000.0 11309700000.0 11309700000.0 11309700000.0 11309700000.0 11309700000.0 11309700000.0 11309700000.0 11309700000.0 11309700000.0 11309700000.0 11309700000.0 11309700000.0 11309700000.0 11309700000.0 11309700000.0 11309700000.0 11309700000.0 11309700000.0 11309700000.0 11309700000.0 11309700000.0 11309700000.0 11309700000.0 11309700000.0 11309700000.0 11309700000.0 11309700000.0 11309700000.0 11309700000.0 11309700000.0 11309700000.0 11309700000.0 11309700000.0 11309700000.0 11309700000.0 11309700000.0 11309700000.0 11309700000.0 11309700000.0 11309700000.0 11309700000.0 11309700000.0 11309700000.0 11309700000.0 11309700000.0 11309700000.0 11309700000.0 11309700000.0 11309700000.0 11309700000.0 11309700000.0 11309700000.0 11309700000.0 11309700000.0 11309700000.0 11309700000.0 11309700000.0 11309700000.0 11309700000.0 11309700000.0 11309700000.0 11309700000.0 11309700000.0 11309700000.0 11309700000.0 11309700000.0 11309700000.0 11309700000.0 11309700000.0 11309700000.0 11309700000.0 11309700000.0 11309700000.0 11309700000.0 11309700000.0 11309700000.0 11309700000.0 11309700000.0 11309700000.0 11309700000.0 11309700000.0 11309700000.0 11309700000.0 11309700000.0 11309700000.0 11309700000.0 11309700000.0 11309700000.0 11309700000.0 11309700000.0 11309700000.0 11309700000.0 11309700000.0 11309700000.0 11309700000.0 11309700000.0 11309700000.0 11309700000.0 11309700000.0 11309700000.0 11309700000.0 11309700000.0 11309700000.0 11309700000.0 11309700000.0 11309700000.0 11309700000.0 11309700000.0 11309700000.0 11309700000.0 11309700000.0 11309700000.0 11309700000.0 11309700000.0 11309700000.0 11309700000.0 11309700000.0 11309700000.0 11309700000.0 11309700000.0 11309700000.0 11309700000.0 11309700000.0 11309700000.0 11309700000.0 11309700000.0 11309700000.0 11309700000.0 11309700000.0 11309700000.0 11309700000.0 11309700000.0 11309700000.0 11309700000.0 11309700000.0 11309700000.0 11309700000.0 11309700000.0 11309700000.0 11309700000.0 11309700000.0 11309700000.0 11309700000.0 11309700000.0 11309700000.0 11309700000.0 11309700000.0 11309700000.0 11309700000.0 11309700000.0 11309700000.0 11309700000.0 11309700000.0 11309700000.0 11309700000.0 11309700000.0 11309700000.0 11309700000.0 11309700000.0 11309700000.0 11309700000.0 11309700000.0 11309700000.0 11309700000.0 11309700000.0 11309700000.0 11309700000.0 11309700000.0 11309700000.0 11309700000.0 11309700000.0 11309700000.0 11309700000.0 11309700000.0 11309700000.0 11309700000.0 11309700000.0 11309700000.0 11309700000.0 11309700000.0 11309700000.0 11309700000.0 11309700000.0 11309700000.0 11309700000.0 11309700000.0 11309700000.0 11309700000.0 11309700000.0 11309700000.0 11309700000.0 11309700000.0 11309700000.0 11309700000.0 11309700000.0 11309700000.0 11309700000.0 11309700000.0 11309700000.0 11309700000.0 11309700000.0 11309700000.0 11309700000.0 11309700000.0 11309700000.0 11309700000.0 11309700000.0 11309700000.0 11309700000.0 11309700000.0 11309700000.0 11309700000.0 11309700000.0 11309700000.0 11309700000.0 11309700000.0 11309700000.0 11309700000.0 11309700000.0 11309700000.0 11309700000.0 11309700000.0 11309700000.0 11309700000.0 11309700000.0 11309700000.0 11309700000.0 11309700000.0 11309700000.0 11309700000.0 11309700000.0 11309700000.0 11309700000.0 11309700000.0 11309700000.0 11309700000.0 11309700000.0 11309700000.0 11309700000.0 11309700000.0 11309700000.0 11309700000.0 11309700000.0 11309700000.0 11309700000.0 11309700000.0 11309700000.0 11309700000.0 11309700000.0 11309700000.0 11309700000.0 11309700000.0 11309700000.0 11309700000.0 11309700000.0 11309700000.0 11309700000.0 11309700000.0 11309700000.0 11309700000.0 11309700000.0 11309700000.0 11309700000.0 11309700000.0 11309700000.0 11309700000.0 11309700000.0 11309700000.0 11309700000.0 11309700000.0 11309700000.0 11309700000.0 11309700000.0 11309700000.0 11309700000.0 11309700000.0 11309700000.0 11309700000.0 11309700000.0 11309700000.0 11309700000.0 11309700000.0 11309700000.0 11309700000.0 11309700000.0 11309700000.0 11309700000.0 11309700000.0 11309700000.0 11309700000.0 11309700000.0 11309700000.0 11309700000.0 11309700000.0 11309700000.0 11309700000.0 11309700000.0 11309700000.0 11309700000.0 11309700000.0 11309700000.0 11309700000.0 11309700000.0 11309700000.0 11309700000.0 11309700000.0 11309700000.0 11309700000.0 11309700000.0 11309700000.0 11309700000.0 11309700000.0 11309700000.0 11309700000.0 11309700000.0 11309700000.0 11309700000.0 11309700000.0 11309700000.0 11309700000.0 11309700000.0 11309700000.0 11309700000.0 11309700000.0 11309700000.0 11309700000.0 11309700000.0 11309700000.0 11309700000.0 11309700000.0 11309700000.0 11309700000.0 11309700000.0 11309700000.0 11309700000.0 11309700000.0 11309700000.0 11309700000.0 11309700000.0 11309700000.0 11309700000.0 11309700000.0 11309700000.0 11309700000.0 11309700000.0 11309700000.0 11309700000.0 11309700000.0 11309700000.0 11309700000.0 11309700000.0 11309700000.0 11309700000.0 11309700000.0 11309700000.0 11309700000.0 11309700000.0 11309700000.0 11309700000.0 11309700000.0 11309700000.0 11309700000.0 11309700000.0 11309700000.0 11309700000.0 11309700000.0 11309700000.0 11309700000.0 11309700000.0 11309700000.0 11309700000.0 11309700000.0 11309700000.0 11309700000.0 11309700000.0 11309700000.0 11309700000.0 11309700000.0 11309700000.0 11309700000.0 11309700000.0 11309700000.0 11309700000.0 11309700000.0 11309700000.0 11309700000.0 11309700000.0 11309700000.0 11309700000.0 11309700000.0 11309700000.0 11309700000.0 11309700000.0 11309700000.0 11309700000.0 11309700000.0 11309700000.0 11309700000.0 11309700000.0 11309700000.0 11309700000.0 11309700000.0 11309700000.0 11309700000.0 11309700000.0 11309700000.0 11309700000.0 11309700000.0 11309700000.0 11309700000.0 11309700000.0 11309700000.0 11309700000.0 11309700000.0 11309700000.0 11309700000.0 11309700000.0 11309700000.0 11309700000.0 11309700000.0 11309700000.0 11309700000.0 11309700000.0 11309700000.0 11309700000.0 11309700000.0 11309700000.0 11309700000.0 11309700000.0 11309700000.0 11309700000.0 11309700000.0 11309700000.0 11309700000.0 11309700000.0 11309700000.0 11309700000.0 11309700000.0 11309700000.0 11309700000.0 11309700000.0 11309700000.0 11309700000.0 11309700000.0 11309700000.0 11309700000.0 11309700000.0 11309700000.0 11309700000.0 11309700000.0 11309700000.0 11309700000.0 11309700000.0 11309700000.0 11309700000.0 11309700000.0 11309700000.0 11309700000.0 11309700000.0 11309700000.0 11309700000.0 11309700000.0 11309700000.0 11309700000.0 11309700000.0 11309700000.0 11309700000.0 11309700000.0 11309700000.0 11309700000.0 11309700000.0 11309700000.0 11309700000.0 11309700000.0 11309700000.0 11309700000.0 11309700000.0 11309700000.0 11309700000.0 11309700000.0 11309700000.0 11309700000.0 11309700000.0 11309700000.0 11309700000.0 11309700000.0 11309700000.0 11309700000.0 11309700000.0 11309700000.0 11309700000.0 11309700000.0 11309700000.0 11309700000.0 11309700000.0 11309700000.0 11309700000.0 11309700000.0 11309700000.0 11309700000.0 11309700000.0 11309700000.0 11309700000.0 11309700000.0 11309700000.0 11309700000.0 11309700000.0 11309700000.0 11309700000.0 11309700000.0 11309700000.0 11309700000.0 11309700000.0 11309700000.0 11309700000.0 11309700000.0 11309700000.0 11309700000.0 11309700000.0 11309700000.0 11309700000.0 11309700000.0 11309700000.0 11309700000.0 11309700000.0 11309700000.0 11309700000.0 11309700000.0 11309700000.0 11309700000.0 11309700000.0 11309700000.0 11309700000.0 11309700000.0 11309700000.0 11309700000.0 11309700000.0 11309700000.0 11309700000.0 11309700000.0 11309700000.0 11309700000.0 11309700000.0 11309700000.0 11309700000.0 11309700000.0 11309700000.0 11309700000.0 11309700000.0 11309700000.0 11309700000.0 11309700000.0 11309700000.0 11309700000.0 11309700000.0 11309700000.0 11309700000.0 11309700000.0 11309700000.0 11309700000.0 11309700000.0 11309700000.0 11309700000.0 11309700000.0 11309700000.0 11309700000.0 11309700000.0 11309700000.0 11309700000.0 11309700000.0 11309700000.0 11309700000.0 11309700000.0 11309700000.0 11309700000.0 11309700000.0 11309700000.0 11309700000.0 11309700000.0 11309700000.0 11309700000.0 11309700000.0 11309700000.0 11309700000.0 11309700000.0 11309700000.0 11309700000.0 11309700000.0 11309700000.0 11309700000.0 11309700000.0 11309700000.0 11309700000.0 11309700000.0 11309700000.0 11309700000.0 11309700000.0 11309700000.0 11309700000.0 11309700000.0 11309700000.0 11309700000.0 11309700000.0 11309700000.0 11309700000.0 11309700000.0 11309700000.0 11309700000.0 11309700000.0 11309700000.0 11309700000.0 11309700000.0 11309700000.0 11309700000.0 11309700000.0 11309700000.0 11309700000.0 11309700000.0 11309700000.0 11309700000.0 11309700000.0 11309700000.0 11309700000.0 11309700000.0 11309700000.0 11309700000.0 11309700000.0 11309700000.0 11309700000.0 11309700000.0 11309700000.0 11309700000.0 11309700000.0 11309700000.0 11309700000.0 11309700000.0 11309700000.0 11309700000.0 11309700000.0 11309700000.0 11309700000.0 11309700000.0 11309700000.0 11309700000.0 11309700000.0 11309700000.0 11309700000.0 11309700000.0 11309700000.0 11309700000.0 11309700000.0 11309700000.0 11309700000.0 11309700000.0 11309700000.0 11309700000.0 11309700000.0 11309700000.0 11309700000.0 11309700000.0 11309700000.0 11309700000.0 11309700000.0 11309700000.0 11309700000.0 11309700000.0 11309700000.0 11309700000.0 11309700000.0 11309700000.0 11309700000.0 11309700000.0 11309700000.0 11309700000.0 11309700000.0 11309700000.0 11309700000.0 11309700000.0 11309700000.0 11309700000.0 11309700000.0 11309700000.0 11309700000.0 11309700000.0 11309700000.0 11309700000.0 11309700000.0 11309700000.0 11309700000.0 11309700000.0 11309700000.0 11309700000.0 11309700000.0 11309700000.0 11309700000.0 11309700000.0 11309700000.0 11309700000.0 11309700000.0 11309700000.0 11309700000.0 11309700000.0 11309700000.0 11309700000.0 11309700000.0 11309700000.0 11309700000.0 11309700000.0 11309700000.0 11309700000.0 11309700000.0 11309700000.0 11309700000.0 11309700000.0 11309700000.0 11309700000.0 11309700000.0 11309700000.0 11309700000.0 11309700000.0 11309700000.0 11309700000.0 11309700000.0 11309700000.0 11309700000.0 11309700000.0 11309700000.0 11309700000.0 11309700000.0 11309700000.0 11309700000.0 11309700000.0 11309700000.0 11309700000.0 11309700000.0 11309700000.0 11309700000.0 11309700000.0 11309700000.0 11309700000.0 11309700000.0 11309700000.0 11309700000.0 11309700000.0 11309700000.0 11309700000.0 11309700000.0 11309700000.0 11309700000.0 11309700000.0 11309700000.0 11309700000.0 11309700000.0 11309700000.0 11309700000.0 11309700000.0 11309700000.0 11309700000.0 11309700000.0 11309700000.0 11309700000.0 11309700000.0 11309700000.0 11309700000.0 11309700000.0 11309700000.0 11309700000.0 11309700000.0 11309700000.0 11309700000.0 11309700000.0 11309700000.0 11309700000.0 11309700000.0 11309700000.0 11309700000.0 11309700000.0 11309700000.0 11309700000.0 11309700000.0 11309700000.0 11309700000.0 11309700000.0 11309700000.0 11309700000.0 11309700000.0 11309700000.0 11309700000.0 11309700000.0 11309700000.0 11309700000.0 11309700000.0 11309700000.0 11309700000.0 11309700000.0 11309700000.0 11309700000.0 11309700000.0 11309700000.0 11309700000.0 11309700000.0 11309700000.0 11309700000.0 11309700000.0 11309700000.0 11309700000.0 11309700000.0 11309700000.0 11309700000.0 11309700000.0 11309700000.0 11309700000.0 11309700000.0 11309700000.0 11309700000.0 11309700000.0 11309700000.0 11309700000.0 11309700000.0 11309700000.0 11309700000.0 11309700000.0 11309700000.0 11309700000.0 11309700000.0 11309700000.0 11309700000.0 11309700000.0 11309700000.0 11309700000.0 11309700000.0 11309700000.0 11309700000.0 11309700000.0 11309700000.0 11309700000.0 11309700000.0 11309700000.0 11309700000.0 11309700000.0 11309700000.0 11309700000.0 11309700000.0 11309700000.0 11309700000.0 11309700000.0 11309700000.0 11309700000.0 11309700000.0 11309700000.0 11309700000.0 11309700000.0 11309700000.0 11309700000.0 11309700000.0 11309700000.0 11309700000.0 11309700000.0 11309700000.0 11309700000.0 11309700000.0 11309700000.0 11309700000.0 11309700000.0 11309700000.0 11309700000.0 11309700000.0 11309700000.0 11309700000.0 11309700000.0 11309700000.0 11309700000.0 11309700000.0 11309700000.0 11309700000.0 11309700000.0 11309700000.0 11309700000.0 11309700000.0 11309700000.0 11309700000.0 11309700000.0 11309700000.0 11309700000.0 11309700000.0 11309700000.0 11309700000.0 11309700000.0 11309700000.0 11309700000.0 11309700000.0 11309700000.0 11309700000.0 11309700000.0 11309700000.0 11309700000.0 11309700000.0 11309700000.0 11309700000.0 11309700000.0 11309700000.0 11309700000.0 11309700000.0 11309700000.0 11309700000.0 11309700000.0 11309700000.0 11309700000.0 11309700000.0 11309700000.0 11309700000.0 11309700000.0 11309700000.0 11309700000.0 11309700000.0 11309700000.0 11309700000.0 11309700000.0 11309700000.0 11309700000.0 11309700000.0 11309700000.0 11309700000.0 11309700000.0 11309700000.0 11309700000.0 11309700000.0 11309700000.0 11309700000.0 11309700000.0 11309700000.0 11309700000.0 11309700000.0 11309700000.0 11309700000.0 11309700000.0 11309700000.0 11309700000.0 11309700000.0 11309700000.0 11309700000.0 11309700000.0 11309700000.0 11309700000.0 11309700000.0 11309700000.0 11309700000.0 11309700000.0 11309700000.0 11309700000.0 11309700000.0 11309700000.0 11309700000.0 11309700000.0 11309700000.0 11309700000.0 11309700000.0 11309700000.0 11309700000.0 11309700000.0 11309700000.0 11309700000.0 11309700000.0 11309700000.0 11309700000.0 11309700000.0 11309700000.0 11309700000.0 11309700000.0 11309700000.0 11309700000.0 11309700000.0 11309700000.0 11309700000.0 11309700000.0 11309700000.0 11309700000.0 11309700000.0 11309700000.0 11309700000.0 11309700000.0 11309700000.0 11309700000.0 11309700000.0 11309700000.0 11309700000.0 11309700000.0 11309700000.0 11309700000.0 11309700000.0 11309700000.0 11309700000.0 11309700000.0 11309700000.0 11309700000.0 11309700000.0 11309700000.0 11309700000.0 11309700000.0 11309700000.0 11309700000.0 11309700000.0 11309700000.0 11309700000.0 11309700000.0 11309700000.0 11309700000.0 11309700000.0 11309700000.0 11309700000.0 11309700000.0 11309700000.0 11309700000.0 11309700000.0 11309700000.0 11309700000.0 11309700000.0 11309700000.0 11309700000.0 11309700000.0 11309700000.0 11309700000.0 11309700000.0 11309700000.0 11309700000.0 11309700000.0 11309700000.0 11309700000.0 11309700000.0 11309700000.0 11309700000.0 11309700000.0 11309700000.0 11309700000.0 11309700000.0 11309700000.0 11309700000.0 11309700000.0 11309700000.0 11309700000.0 11309700000.0 11309700000.0 11309700000.0 11309700000.0 11309700000.0 11309700000.0 11309700000.0 11309700000.0 11309700000.0 11309700000.0 11309700000.0 11309700000.0 11309700000.0 11309700000.0 11309700000.0 11309700000.0 11309700000.0 11309700000.0 11309700000.0 11309700000.0 11309700000.0 11309700000.0 11309700000.0 11309700000.0 11309700000.0 11309700000.0 11309700000.0 11309700000.0 11309700000.0 11309700000.0 11309700000.0 11309700000.0 11309700000.0 11309700000.0 11309700000.0 11309700000.0 11309700000.0 11309700000.0 11309700000.0 11309700000.0 11309700000.0 11309700000.0 11309700000.0 11309700000.0 11309700000.0 11309700000.0 11309700000.0 11309700000.0 11309700000.0 11309700000.0 11309700000.0 11309700000.0 11309700000.0 11309700000.0 11309700000.0 11309700000.0 11309700000.0 11309700000.0 11309700000.0 11309700000.0 11309700000.0 11309700000.0 11309700000.0 11309700000.0 11309700000.0 11309700000.0 11309700000.0 11309700000.0 11309700000.0 11309700000.0 11309700000.0 11309700000.0 11309700000.0 11309700000.0 11309700000.0 11309700000.0 11309700000.0 11309700000.0 11309700000.0 11309700000.0 11309700000.0 11309700000.0 11309700000.0 11309700000.0 11309700000.0 11309700000.0 11309700000.0 11309700000.0 11309700000.0 11309700000.0 11309700000.0 11309700000.0 11309700000.0 11309700000.0 11309700000.0 11309700000.0 11309700000.0 11309700000.0 11309700000.0 11309700000.0 11309700000.0 11309700000.0 11309700000.0 11309700000.0 11309700000.0 11309700000.0 11309700000.0 11309700000.0 11309700000.0 11309700000.0 11309700000.0 11309700000.0 11309700000.0 11309700000.0 11309700000.0 11309700000.0 11309700000.0 11309700000.0 11309700000.0 11309700000.0 11309700000.0 11309700000.0 11309700000.0 11309700000.0 11309700000.0 11309700000.0 11309700000.0 11309700000.0 11309700000.0 11309700000.0 11309700000.0 11309700000.0 11309700000.0 11309700000.0 11309700000.0 11309700000.0 11309700000.0 11309700000.0 11309700000.0 11309700000.0 11309700000.0 11309700000.0 11309700000.0 11309700000.0 11309700000.0 11309700000.0 11309700000.0 11309700000.0 11309700000.0 11309700000.0 11309700000.0 11309700000.0 11309700000.0 11309700000.0 11309700000.0 11309700000.0 11309700000.0 11309700000.0 11309700000.0 11309700000.0 11309700000.0 11309700000.0 11309700000.0 11309700000.0 11309700000.0 11309700000.0 11309700000.0 11309700000.0 11309700000.0 11309700000.0 11309700000.0 11309700000.0 11309700000.0 11309700000.0 11309700000.0 11309700000.0 11309700000.0 11309700000.0 11309700000.0 11309700000.0 11309700000.0 11309700000.0 11309700000.0 11309700000.0 11309700000.0 11309700000.0 11309700000.0 11309700000.0 11309700000.0 11309700000.0 11309700000.0 11309700000.0 11309700000.0 11309700000.0 11309700000.0 11309700000.0 11309700000.0 11309700000.0 11309700000.0 11309700000.0 11309700000.0 11309700000.0 11309700000.0 11309700000.0 11309700000.0 11309700000.0 11309700000.0 11309700000.0 11309700000.0 11309700000.0 11309700000.0 11309700000.0 11309700000.0 11309700000.0 11309700000.0 11309700000.0 11309700000.0 11309700000.0 11309700000.0 11309700000.0 11309700000.0 11309700000.0 11309700000.0 11309700000.0 11309700000.0 11309700000.0 11309700000.0 11309700000.0 11309700000.0 11309700000.0 11309700000.0 11309700000.0 11309700000.0 11309700000.0 11309700000.0 11309700000.0 11309700000.0 11309700000.0 11309700000.0 11309700000.0 11309700000.0 11309700000.0 11309700000.0 11309700000.0 11309700000.0 11309700000.0 11309700000.0 11309700000.0 11309700000.0 11309700000.0 11309700000.0 11309700000.0 11309700000.0 11309700000.0 11309700000.0 11309700000.0 11309700000.0 11309700000.0 11309700000.0 11309700000.0 11309700000.0 11309700000.0 11309700000.0 11309700000.0 11309700000.0 11309700000.0 11309700000.0 11309700000.0 11309700000.0 11309700000.0 11309700000.0 11309700000.0 11309700000.0 11309700000.0 11309700000.0 11309700000.0 11309700000.0 11309700000.0 11309700000.0 11309700000.0 11309700000.0 11309700000.0 11309700000.0 11309700000.0 11309700000.0 11309700000.0 11309700000.0 11309700000.0 11309700000.0 11309700000.0 11309700000.0 11309700000.0 11309700000.0 11309700000.0 11309700000.0 11309700000.0 11309700000.0 11309700000.0 11309700000.0 11309700000.0 11309700000.0 11309700000.0 11309700000.0 11309700000.0 11309700000.0 11309700000.0 11309700000.0 11309700000.0 11309700000.0 11309700000.0 11309700000.0 11309700000.0 11309700000.0 11309700000.0 11309700000.0 11309700000.0 11309700000.0 11309700000.0 11309700000.0 11309700000.0 11309700000.0 11309700000.0 11309700000.0 11309700000.0 11309700000.0 11309700000.0 11309700000.0 11309700000.0 11309700000.0 11309700000.0 11309700000.0 11309700000.0 11309700000.0 11309700000.0 11309700000.0 11309700000.0 11309700000.0 11309700000.0 11309700000.0 11309700000.0 11309700000.0 11309700000.0 11309700000.0 11309700000.0 11309700000.0 11309700000.0 11309700000.0 11309700000.0 11309700000.0 11309700000.0 11309700000.0 11309700000.0 11309700000.0 11309700000.0 11309700000.0 11309700000.0 11309700000.0 11309700000.0 11309700000.0 11309700000.0 11309700000.0 11309700000.0 11309700000.0 11309700000.0 11309700000.0 11309700000.0 11309700000.0 11309700000.0 11309700000.0 11309700000.0 11309700000.0 11309700000.0 11309700000.0 11309700000.0 11309700000.0 11309700000.0 11309700000.0 11309700000.0 11309700000.0 11309700000.0 11309700000.0 11309700000.0 11309700000.0 11309700000.0 11309700000.0 11309700000.0 11309700000.0 11309700000.0 11309700000.0 11309700000.0 11309700000.0 11309700000.0 11309700000.0 11309700000.0 11309700000.0 11309700000.0 11309700000.0 11309700000.0 11309700000.0 11309700000.0 11309700000.0 11309700000.0 11309700000.0 11309700000.0 11309700000.0 11309700000.0 11309700000.0 11309700000.0 11309700000.0 11309700000.0 11309700000.0 11309700000.0 11309700000.0 11309700000.0 11309700000.0 11309700000.0 11309700000.0 11309700000.0 11309700000.0 11309700000.0 11309700000.0 11309700000.0 11309700000.0 11309700000.0 11309700000.0 11309700000.0 11309700000.0 11309700000.0 11309700000.0 11309700000.0 11309700000.0 11309700000.0 11309700000.0 11309700000.0 11309700000.0 11309700000.0 11309700000.0 11309700000.0 11309700000.0 11309700000.0 11309700000.0 11309700000.0 11309700000.0 11309700000.0 11309700000.0 11309700000.0 11309700000.0 11309700000.0 11309700000.0 11309700000.0 11309700000.0 11309700000.0 11309700000.0 11309700000.0 11309700000.0 11309700000.0 11309700000.0 11309700000.0 11309700000.0 11309700000.0 11309700000.0 11309700000.0 11309700000.0 11309700000.0 11309700000.0 11309700000.0 11309700000.0 11309700000.0 11309700000.0 11309700000.0 11309700000.0 11309700000.0 11309700000.0 11309700000.0 11309700000.0 11309700000.0 11309700000.0 11309700000.0 11309700000.0 11309700000.0 11309700000.0 11309700000.0 11309700000.0 11309700000.0 11309700000.0 11309700000.0 11309700000.0 11309700000.0 11309700000.0 11309700000.0 11309700000.0 11309700000.0 11309700000.0 11309700000.0 11309700000.0 11309700000.0 11309700000.0 11309700000.0 11309700000.0 11309700000.0 11309700000.0 11309700000.0 11309700000.0 11309700000.0 11309700000.0 11309700000.0 11309700000.0 11309700000.0 11309700000.0 11309700000.0 11309700000.0 11309700000.0 11309700000.0 11309700000.0 11309700000.0 11309700000.0 11309700000.0 11309700000.0 11309700000.0 11309700000.0 11309700000.0 11309700000.0 11309700000.0 11309700000.0 11309700000.0 11309700000.0 11309700000.0 11309700000.0 11309700000.0 11309700000.0 11309700000.0 11309700000.0 11309700000.0 11309700000.0 11309700000.0 11309700000.0 11309700000.0 11309700000.0 11309700000.0 11309700000.0 11309700000.0 11309700000.0 11309700000.0 11309700000.0 11309700000.0 11309700000.0 11309700000.0 11309700000.0 11309700000.0 11309700000.0 11309700000.0 11309700000.0 11309700000.0 11309700000.0 11309700000.0 11309700000.0 11309700000.0 11309700000.0 11309700000.0 11309700000.0 11309700000.0 11309700000.0 11309700000.0 11309700000.0 11309700000.0 11309700000.0 11309700000.0 11309700000.0 11309700000.0 11309700000.0 11309700000.0 11309700000.0 11309700000.0 11309700000.0 11309700000.0 11309700000.0 11309700000.0 11309700000.0 11309700000.0 11309700000.0 11309700000.0 11309700000.0 11309700000.0 11309700000.0 11309700000.0 11309700000.0 11309700000.0 11309700000.0 11309700000.0 11309700000.0 11309700000.0 11309700000.0 11309700000.0 11309700000.0 11309700000.0 11309700000.0 11309700000.0 11309700000.0 11309700000.0 11309700000.0 11309700000.0 11309700000.0 11309700000.0 11309700000.0 11309700000.0 11309700000.0 11309700000.0 11309700000.0 11309700000.0 11309700000.0 11309700000.0 11309700000.0 11309700000.0 11309700000.0 11309700000.0 11309700000.0 11309700000.0 11309700000.0 11309700000.0 11309700000.0 11309700000.0 11309700000.0 11309700000.0 11309700000.0 11309700000.0 11309700000.0 11309700000.0 11309700000.0 11309700000.0 11309700000.0 11309700000.0 11309700000.0 11309700000.0 11309700000.0 11309700000.0 11309700000.0 11309700000.0 11309700000.0 11309700000.0 11309700000.0 11309700000.0 11309700000.0 11309700000.0 11309700000.0 11309700000.0 11309700000.0 11309700000.0 11309700000.0 11309700000.0 11309700000.0 11309700000.0 11309700000.0 11309700000.0 11309700000.0 11309700000.0 11309700000.0 11309700000.0 11309700000.0 11309700000.0 11309700000.0 11309700000.0 11309700000.0 11309700000.0 11309700000.0 11309700000.0 11309700000.0 11309700000.0 11309700000.0 11309700000.0 11309700000.0 11309700000.0 11309700000.0 11309700000.0 11309700000.0 11309700000.0 11309700000.0 11309700000.0 11309700000.0 11309700000.0 11309700000.0 11309700000.0 11309700000.0 11309700000.0 11309700000.0 11309700000.0 11309700000.0 11309700000.0 11309700000.0 11309700000.0 11309700000.0 11309700000.0 11309700000.0 11309700000.0 11309700000.0 11309700000.0 11309700000.0 11309700000.0 11309700000.0 11309700000.0 11309700000.0 11309700000.0 11309700000.0 11309700000.0 11309700000.0 11309700000.0 11309700000.0 11309700000.0 11309700000.0 11309700000.0 11309700000.0 11309700000.0 11309700000.0 11309700000.0 11309700000.0 11309700000.0 11309700000.0 11309700000.0 11309700000.0 11309700000.0 11309700000.0 11309700000.0 11309700000.0 11309700000.0 11309700000.0 11309700000.0 11309700000.0 11309700000.0 11309700000.0 11309700000.0 11309700000.0 11309700000.0 11309700000.0 11309700000.0 11309700000.0 11309700000.0 11309700000.0 11309700000.0 11309700000.0 11309700000.0 11309700000.0 11309700000.0 11309700000.0 11309700000.0 11309700000.0 11309700000.0 11309700000.0 11309700000.0 11309700000.0 11309700000.0 11309700000.0 11309700000.0 11309700000.0 11309700000.0 11309700000.0 11309700000.0 11309700000.0 11309700000.0 11309700000.0 11309700000.0 11309700000.0 11309700000.0 11309700000.0 11309700000.0 11309700000.0 11309700000.0 11309700000.0 11309700000.0 11309700000.0 11309700000.0 11309700000.0 11309700000.0 11309700000.0 11309700000.0 11309700000.0 11309700000.0 11309700000.0 11309700000.0 11309700000.0 11309700000.0 11309700000.0 11309700000.0 11309700000.0 11309700000.0 11309700000.0 11309700000.0 11309700000.0 11309700000.0 11309700000.0 11309700000.0 11309700000.0 11309700000.0 11309700000.0 11309700000.0 11309700000.0 11309700000.0 11309700000.0 11309700000.0 11309700000.0 11309700000.0 11309700000.0 11309700000.0 11309700000.0 11309700000.0 11309700000.0 11309700000.0 11309700000.0 11309700000.0 11309700000.0 11309700000.0 11309700000.0 11309700000.0 11309700000.0 11309700000.0 11309700000.0 11309700000.0 11309700000.0 11309700000.0 11309700000.0 11309700000.0 11309700000.0 11309700000.0 11309700000.0 11309700000.0 11309700000.0 11309700000.0 11309700000.0 11309700000.0 11309700000.0 11309700000.0 11309700000.0 11309700000.0 11309700000.0 11309700000.0 11309700000.0 11309700000.0 11309700000.0 11309700000.0 11309700000.0 11309700000.0 11309700000.0 11309700000.0 11309700000.0 11309700000.0 11309700000.0 11309700000.0 11309700000.0 11309700000.0 11309700000.0 11309700000.0 11309700000.0 11309700000.0 11309700000.0 11309700000.0 11309700000.0 11309700000.0 11309700000.0 11309700000.0 11309700000.0 11309700000.0 11309700000.0 11309700000.0 11309700000.0 11309700000.0 11309700000.0 11309700000.0 11309700000.0 11309700000.0 11309700000.0 11309700000.0 11309700000.0 11309700000.0 11309700000.0 11309700000.0 11309700000.0 11309700000.0 11309700000.0 11309700000.0 11309700000.0 11309700000.0 11309700000.0 11309700000.0 11309700000.0 11309700000.0 11309700000.0 11309700000.0 11309700000.0 11309700000.0 11309700000.0 11309700000.0 11309700000.0 11309700000.0 11309700000.0 11309700000.0 11309700000.0 11309700000.0 11309700000.0 11309700000.0 11309700000.0 11309700000.0 11309700000.0 11309700000.0 11309700000.0 11309700000.0 11309700000.0 11309700000.0 11309700000.0 11309700000.0 11309700000.0 11309700000.0 11309700000.0 11309700000.0 11309700000.0 11309700000.0 11309700000.0 11309700000.0 11309700000.0 11309700000.0 11309700000.0 11309700000.0 11309700000.0 11309700000.0 11309700000.0 11309700000.0 11309700000.0 11309700000.0 11309700000.0 11309700000.0 11309700000.0 11309700000.0 11309700000.0 11309700000.0 11309700000.0 11309700000.0 11309700000.0 11309700000.0 11309700000.0 11309700000.0 11309700000.0 11309700000.0 11309700000.0 11309700000.0 11309700000.0 11309700000.0 11309700000.0 11309700000.0 11309700000.0 11309700000.0 11309700000.0 11309700000.0 11309700000.0 11309700000.0 11309700000.0 11309700000.0 11309700000.0 11309700000.0 11309700000.0 11309700000.0 11309700000.0 11309700000.0 11309700000.0 11309700000.0 11309700000.0 11309700000.0 11309700000.0 11309700000.0 11309700000.0 11309700000.0 11309700000.0 11309700000.0 11309700000.0 11309700000.0 11309700000.0 11309700000.0 11309700000.0 11309700000.0 11309700000.0 11309700000.0 11309700000.0 11309700000.0 11309700000.0 11309700000.0 11309700000.0 11309700000.0 11309700000.0 11309700000.0 11309700000.0 11309700000.0 11309700000.0 11309700000.0 11309700000.0 11309700000.0 11309700000.0 11309700000.0 11309700000.0 11309700000.0 11309700000.0 11309700000.0 11309700000.0 11309700000.0 11309700000.0 11309700000.0 11309700000.0 11309700000.0 11309700000.0 11309700000.0 11309700000.0 11309700000.0 11309700000.0 11309700000.0 11309700000.0 11309700000.0 11309700000.0 11309700000.0 11309700000.0 11309700000.0 11309700000.0 11309700000.0 11309700000.0 11309700000.0 11309700000.0 11309700000.0 11309700000.0 11309700000.0 11309700000.0 11309700000.0 11309700000.0 11309700000.0 11309700000.0 11309700000.0 11309700000.0 11309700000.0 11309700000.0 11309700000.0 11309700000.0 11309700000.0 11309700000.0 11309700000.0 11309700000.0 11309700000.0 11309700000.0 11309700000.0 11309700000.0 11309700000.0 11309700000.0 11309700000.0 11309700000.0 11309700000.0 11309700000.0 11309700000.0 11309700000.0 11309700000.0 11309700000.0 11309700000.0 11309700000.0 11309700000.0 11309700000.0 11309700000.0 11309700000.0 11309700000.0 11309700000.0 11309700000.0 11309700000.0 11309700000.0 11309700000.0 11309700000.0 11309700000.0 11309700000.0 11309700000.0 11309700000.0 11309700000.0 11309700000.0 11309700000.0 11309700000.0 11309700000.0 11309700000.0 11309700000.0 11309700000.0 11309700000.0 11309700000.0 11309700000.0 11309700000.0 11309700000.0 11309700000.0 11309700000.0 11309700000.0 11309700000.0 11309700000.0 11309700000.0 11309700000.0 11309700000.0 11309700000.0 11309700000.0 11309700000.0 11309700000.0 11309700000.0 11309700000.0 11309700000.0 11309700000.0 11309700000.0 11309700000.0 11309700000.0 11309700000.0 11309700000.0 11309700000.0 11309700000.0 11309700000.0 11309700000.0 11309700000.0 11309700000.0 11309700000.0 11309700000.0 11309700000.0 11309700000.0 11309700000.0 11309700000.0 11309700000.0 11309700000.0 11309700000.0 11309700000.0 11309700000.0 11309700000.0 11309700000.0 11309700000.0 11309700000.0 11309700000.0 11309700000.0 11309700000.0 11309700000.0 11309700000.0 11309700000.0 11309700000.0 11309700000.0 11309700000.0 11309700000.0 11309700000.0 11309700000.0 11309700000.0 11309700000.0 11309700000.0 11309700000.0 11309700000.0 11309700000.0 11309700000.0 11309700000.0 11309700000.0 11309700000.0 11309700000.0 11309700000.0 11309700000.0 11309700000.0 11309700000.0 11309700000.0 11309700000.0 11309700000.0 11309700000.0 11309700000.0 11309700000.0 11309700000.0 11309700000.0 11309700000.0 11309700000.0 11309700000.0 11309700000.0 11309700000.0 11309700000.0 11309700000.0 11309700000.0 11309700000.0 11309700000.0 11309700000.0 11309700000.0 11309700000.0 11309700000.0 11309700000.0 11309700000.0 11309700000.0 11309700000.0 11309700000.0 11309700000.0 11309700000.0 11309700000.0 11309700000.0 11309700000.0 11309700000.0 11309700000.0 11309700000.0 11309700000.0 11309700000.0 11309700000.0 11309700000.0 11309700000.0 11309700000.0 11309700000.0 11309700000.0 11309700000.0 11309700000.0 11309700000.0 11309700000.0 11309700000.0 11309700000.0 11309700000.0 11309700000.0 11309700000.0 11309700000.0 11309700000.0 11309700000.0 11309700000.0 11309700000.0 11309700000.0 11309700000.0 11309700000.0 11309700000.0 11309700000.0 11309700000.0 11309700000.0 11309700000.0 11309700000.0 11309700000.0 11309700000.0 11309700000.0 11309700000.0 11309700000.0 11309700000.0 11309700000.0 11309700000.0 11309700000.0 11309700000.0 11309700000.0 11309700000.0 11309700000.0 11309700000.0 11309700000.0 11309700000.0 11309700000.0 11309700000.0 11309700000.0 11309700000.0 11309700000.0 11309700000.0 11309700000.0 11309700000.0 11309700000.0 11309700000.0 11309700000.0 11309700000.0 11309700000.0 11309700000.0 11309700000.0 11309700000.0 11309700000.0 11309700000.0 11309700000.0 11309700000.0 11309700000.0 11309700000.0 11309700000.0 11309700000.0 11309700000.0 11309700000.0 11309700000.0 11309700000.0 11309700000.0 11309700000.0 11309700000.0 11309700000.0 11309700000.0 11309700000.0 11309700000.0 11309700000.0 11309700000.0 11309700000.0 11309700000.0 11309700000.0 11309700000.0 11309700000.0 11309700000.0 11309700000.0 11309700000.0 11309700000.0 11309700000.0 11309700000.0 11309700000.0 11309700000.0 11309700000.0 11309700000.0 11309700000.0 11309700000.0 11309700000.0 11309700000.0 11309700000.0 11309700000.0 11309700000.0 11309700000.0 11309700000.0 11309700000.0 11309700000.0 11309700000.0 11309700000.0 11309700000.0 11309700000.0 11309700000.0 11309700000.0 11309700000.0 11309700000.0 11309700000.0 11309700000.0 11309700000.0 11309700000.0 11309700000.0 11309700000.0 11309700000.0 11309700000.0 11309700000.0 11309700000.0 11309700000.0 11309700000.0 11309700000.0 11309700000.0 11309700000.0 11309700000.0 11309700000.0 11309700000.0 11309700000.0 11309700000.0 11309700000.0 11309700000.0 11309700000.0 11309700000.0 11309700000.0 11309700000.0 11309700000.0 11309700000.0 11309700000.0 11309700000.0 11309700000.0 11309700000.0 11309700000.0 11309700000.0 11309700000.0 11309700000.0 11309700000.0 11309700000.0 11309700000.0 11309700000.0 11309700000.0 11309700000.0 11309700000.0 11309700000.0 11309700000.0 11309700000.0 11309700000.0 11309700000.0 11309700000.0 11309700000.0 11309700000.0 11309700000.0 11309700000.0 11309700000.0 11309700000.0 11309700000.0 11309700000.0 11309700000.0 11309700000.0 11309700000.0 11309700000.0 11309700000.0 11309700000.0 11309700000.0 11309700000.0 11309700000.0 11309700000.0 11309700000.0 11309700000.0 11309700000.0 11309700000.0 11309700000.0 11309700000.0 11309700000.0 11309700000.0 11309700000.0 11309700000.0 11309700000.0 11309700000.0 11309700000.0 11309700000.0 11309700000.0 11309700000.0 11309700000.0 11309700000.0 11309700000.0 11309700000.0 11309700000.0 11309700000.0 11309700000.0 11309700000.0 11309700000.0 11309700000.0 11309700000.0 11309700000.0 11309700000.0 11309700000.0 11309700000.0 11309700000.0 11309700000.0 11309700000.0 11309700000.0 11309700000.0 11309700000.0 11309700000.0 11309700000.0 11309700000.0 11309700000.0 11309700000.0 11309700000.0 11309700000.0 11309700000.0 11309700000.0 11309700000.0 11309700000.0 11309700000.0 11309700000.0 11309700000.0 11309700000.0 11309700000.0 11309700000.0 11309700000.0 11309700000.0 11309700000.0 11309700000.0 11309700000.0 11309700000.0 11309700000.0 11309700000.0 11309700000.0 11309700000.0 11309700000.0 11309700000.0 11309700000.0 11309700000.0 11309700000.0 11309700000.0 11309700000.0 11309700000.0 11309700000.0 11309700000.0 11309700000.0 11309700000.0 11309700000.0 11309700000.0 11309700000.0 11309700000.0 11309700000.0 11309700000.0 11309700000.0 11309700000.0 11309700000.0 11309700000.0 11309700000.0 11309700000.0 11309700000.0 11309700000.0 11309700000.0 11309700000.0 11309700000.0 11309700000.0 11309700000.0 11309700000.0 11309700000.0 11309700000.0 11309700000.0 11309700000.0 11309700000.0 11309700000.0 11309700000.0 11309700000.0 11309700000.0 11309700000.0 11309700000.0 11309700000.0 11309700000.0 11309700000.0 11309700000.0 11309700000.0 11309700000.0 11309700000.0 11309700000.0 11309700000.0 11309700000.0 11309700000.0 11309700000.0 11309700000.0 11309700000.0 11309700000.0 11309700000.0 11309700000.0 11309700000.0 11309700000.0 11309700000.0 11309700000.0 11309700000.0 11309700000.0 11309700000.0 11309700000.0 11309700000.0 11309700000.0 11309700000.0 11309700000.0 11309700000.0 11309700000.0 11309700000.0 11309700000.0 11309700000.0 11309700000.0 11309700000.0 11309700000.0 11309700000.0 11309700000.0 11309700000.0 11309700000.0 11309700000.0 11309700000.0 11309700000.0 11309700000.0 11309700000.0 11309700000.0 11309700000.0 11309700000.0 11309700000.0 11309700000.0 11309700000.0 11309700000.0 11309700000.0 11309700000.0 11309700000.0 11309700000.0 11309700000.0 11309700000.0 11309700000.0 11309700000.0 11309700000.0 11309700000.0 11309700000.0 11309700000.0 11309700000.0 11309700000.0 11309700000.0 11309700000.0 11309700000.0 11309700000.0 11309700000.0 11309700000.0 11309700000.0 11309700000.0 11309700000.0 11309700000.0 11309700000.0 11309700000.0 11309700000.0 11309700000.0 11309700000.0 11309700000.0 11309700000.0 11309700000.0 11309700000.0 11309700000.0 11309700000.0 11309700000.0 11309700000.0 11309700000.0 11309700000.0 11309700000.0 11309700000.0 11309700000.0 11309700000.0 11309700000.0 11309700000.0 11309700000.0 11309700000.0 11309700000.0 11309700000.0 11309700000.0 11309700000.0 11309700000.0 11309700000.0 11309700000.0 11309700000.0 11309700000.0 11309700000.0 11309700000.0 11309700000.0 11309700000.0 11309700000.0 11309700000.0 11309700000.0 11309700000.0 11309700000.0 11309700000.0 11309700000.0 11309700000.0 11309700000.0 11309700000.0 11309700000.0 11309700000.0 11309700000.0 11309700000.0 11309700000.0 11309700000.0 11309700000.0 11309700000.0 11309700000.0 11309700000.0 11309700000.0 11309700000.0 11309700000.0 11309700000.0 11309700000.0 11309700000.0 11309700000.0 11309700000.0 11309700000.0 11309700000.0 11309700000.0 11309700000.0 11309700000.0 11309700000.0 11309700000.0 11309700000.0 11309700000.0 11309700000.0 11309700000.0 11309700000.0 11309700000.0 11309700000.0 11309700000.0 11309700000.0 11309700000.0 11309700000.0 11309700000.0 11309700000.0 11309700000.0 11309700000.0 11309700000.0 11309700000.0 11309700000.0 11309700000.0 11309700000.0 11309700000.0 11309700000.0 11309700000.0 11309700000.0 11309700000.0 11309700000.0 11309700000.0 11309700000.0 11309700000.0 11309700000.0 11309700000.0 11309700000.0 11309700000.0 11309700000.0 11309700000.0 11309700000.0 11309700000.0 11309700000.0 11309700000.0 11309700000.0 11309700000.0 11309700000.0 11309700000.0 11309700000.0 11309700000.0 11309700000.0 11309700000.0 11309700000.0 11309700000.0 11309700000.0 11309700000.0 11309700000.0 11309700000.0 11309700000.0 11309700000.0 11309700000.0 11309700000.0 11309700000.0 11309700000.0 11309700000.0 11309700000.0 11309700000.0 11309700000.0 11309700000.0 11309700000.0 11309700000.0 11309700000.0 11309700000.0 11309700000.0 11309700000.0 11309700000.0 11309700000.0 11309700000.0 11309700000.0 11309700000.0 11309700000.0 11309700000.0 11309700000.0 11309700000.0 11309700000.0 11309700000.0 11309700000.0 11309700000.0 11309700000.0 11309700000.0 11309700000.0 11309700000.0 11309700000.0 11309700000.0 11309700000.0 11309700000.0 11309700000.0 11309700000.0 11309700000.0 11309700000.0 11309700000.0 11309700000.0 11309700000.0 11309700000.0 11309700000.0 11309700000.0 11309700000.0 11309700000.0 11309700000.0 11309700000.0 11309700000.0 11309700000.0 11309700000.0 11309700000.0 11309700000.0 11309700000.0 11309700000.0 11309700000.0 11309700000.0 11309700000.0 11309700000.0 11309700000.0 11309700000.0 11309700000.0 11309700000.0 11309700000.0 11309700000.0 11309700000.0 11309700000.0 11309700000.0 11309700000.0 11309700000.0 11309700000.0 11309700000.0 11309700000.0 11309700000.0 11309700000.0 11309700000.0 11309700000.0 11309700000.0 11309700000.0 11309700000.0 11309700000.0 11309700000.0 11309700000.0 11309700000.0 11309700000.0 11309700000.0 11309700000.0 11309700000.0 11309700000.0 11309700000.0 11309700000.0 11309700000.0 11309700000.0 11309700000.0 11309700000.0 11309700000.0 11309700000.0 11309700000.0 11309700000.0 11309700000.0 11309700000.0 11309700000.0 11309700000.0 11309700000.0 11309700000.0 11309700000.0 11309700000.0 11309700000.0 11309700000.0 11309700000.0 11309700000.0 11309700000.0 11309700000.0 11309700000.0 11309700000.0 11309700000.0 11309700000.0 11309700000.0 11309700000.0 11309700000.0 11309700000.0 11309700000.0 11309700000.0 11309700000.0 11309700000.0 11309700000.0 11309700000.0 11309700000.0 11309700000.0 11309700000.0 11309700000.0 11309700000.0 11309700000.0 11309700000.0 11309700000.0 11309700000.0 11309700000.0 11309700000.0 11309700000.0 11309700000.0 11309700000.0 11309700000.0 11309700000.0 11309700000.0 11309700000.0 11309700000.0 11309700000.0 11309700000.0 11309700000.0 11309700000.0 11309700000.0 11309700000.0 11309700000.0 11309700000.0 11309700000.0 11309700000.0 11309700000.0 11309700000.0 11309700000.0 11309700000.0 11309700000.0 11309700000.0 11309700000.0 11309700000.0 11309700000.0 11309700000.0 11309700000.0 11309700000.0 11309700000.0 11309700000.0 11309700000.0 11309700000.0 11309700000.0 11309700000.0 11309700000.0 11309700000.0 11309700000.0 11309700000.0 11309700000.0 11309700000.0 11309700000.0 11309700000.0 11309700000.0 11309700000.0 11309700000.0 11309700000.0 11309700000.0 11309700000.0 11309700000.0 11309700000.0 11309700000.0 11309700000.0 11309700000.0 11309700000.0 11309700000.0 11309700000.0 11309700000.0 11309700000.0 11309700000.0 11309700000.0 11309700000.0 11309700000.0 11309700000.0 11309700000.0 11309700000.0 11309700000.0 11309700000.0 11309700000.0 11309700000.0 11309700000.0 11309700000.0 11309700000.0 11309700000.0 11309700000.0 11309700000.0 11309700000.0 11309700000.0 11309700000.0 11309700000.0 11309700000.0 11309700000.0 11309700000.0 11309700000.0 11309700000.0 11309700000.0 11309700000.0 11309700000.0 11309700000.0 11309700000.0 11309700000.0 11309700000.0 11309700000.0 11309700000.0 11309700000.0 11309700000.0 11309700000.0 11309700000.0 11309700000.0 11309700000.0 11309700000.0 11309700000.0 11309700000.0 11309700000.0 11309700000.0 11309700000.0 11309700000.0 11309700000.0 11309700000.0 11309700000.0 11309700000.0 11309700000.0 11309700000.0 11309700000.0 11309700000.0 11309700000.0 11309700000.0 11309700000.0 11309700000.0 11309700000.0 11309700000.0 11309700000.0 11309700000.0 11309700000.0 11309700000.0 11309700000.0 11309700000.0 
SCALARS Velocity float 1
LOOKUP_TABLE default
1.08244 1.05889 1.07399 1.0728 1.05789 1.08428 1.08393 1.08243 1.07419 1.07386 1.07316 1.07303 1.0731 1.07342 1.07389 1.07425 1.05413 1.04267 1.02651 1.07638 1.06748 1.05773 1.05064 1.0841 1.08467 1.08348 1.08149 1.06647 1.07654 1.07739 1.07705 1.07475 1.07424 1.07341 1.07322 1.07359 1.05306 1.06344 1.0574 1.08531 1.06625 1.05028 1.08431 1.08493 1.07213 1.07796 1.07932 1.07713 1.07479 1.07395 1.07324 1.07344 1.07391 1.07004 1.06808 1.09036 1.07798 1.05961 1.08578 1.08035 1.07657 1.07607 1.0746 1.07348 1.07317 1.07326 1.07365 1.07341 1.07689 1.07898 1.07463 1.09068 1.0932 1.08854 1.08413 1.07611 1.06725 1.06097 1.05067 1.08528 1.08407 1.07581 1.07889 1.07713 1.076 1.07474 1.07412 1.07388 1.07331 1.07321 1.07567 1.07938 1.08258 1.08974 1.08826 1.08232 1.06706 1.0549 1.0841 1.08376 1.0833 1.08009 1.07792 1.07875 1.0759 1.07723 1.07457 1.07344 1.07305 1.07403 1.07754 1.08394 1.08951 1.08529 1.07419 1.06024 1.08341 1.08119 1.07811 1.07561 1.07364 1.07296 1.07326 1.07581 1.08046 1.08725 1.0865 1.07914 1.06677 1.05788 1.08348 1.08281 1.07907 1.08048 1.07674 1.07516 1.07417 1.07302 1.07289 1.07245 1.07285 1.07318 1.07417 1.07576 1.07798 1.08021 1.08331 1.08481 1.08685 1.08436 1.08263 1.07725 1.07252 1.06683 1.0618 1.0603 1.08272 1.08287 1.08223 1.0818 1.08169 1.08117 1.07984 1.07823 1.07656 1.07358 1.07215 1.07241 1.07402 1.07754 1.08194 1.0841 1.08069 1.07193 1.06323 1.0822 1.08143 1.08098 1.07829 1.07469 1.0722 1.07168 1.07277 1.07527 1.07915 1.08248 1.08203 1.0763 1.06749 1.0623 1.08186 1.0816 1.08121 1.07988 1.07632 1.07406 1.07282 1.07118 1.07117 1.07066 1.07166 1.07204 1.0735 1.07453 1.07664 1.07791 1.08028 1.08054 1.08174 1.0798 1.07883 1.0751 1.07186 1.06841 1.06488 1.06431 1.08089 1.08134 1.08078 1.081 1.08063 1.08067 1.07997 1.07841 1.07592 1.07186 1.07001 1.07068 1.07276 1.07568 1.07876 1.07981 1.07708 1.07153 1.06633 1.08037 1.08026 1.08024 1.07868 1.07324 1.07005 1.06948 1.07115 1.07371 1.07677 1.07898 1.07818 1.07392 1.06863 1.06666 1.06549 1.07984 1.07984 1.07985 1.08004 1.07516 1.07292 1.071 1.06889 1.0687 1.06826 1.06963 1.07023 1.07192 1.07284 1.07477 1.07582 1.07757 1.07775 1.07836 1.07685 1.07572 1.07279 1.0708 1.06811 1.06561 1.07871 1.07931 1.07881 1.07938 1.0791 1.07957 1.0803 1.06697 1.07041 1.06728 1.06866 1.07098 1.07381 1.07663 1.07715 1.07447 1.0698 1.06613 1.07815 1.07845 1.07929 1.06693 1.06656 1.06565 1.06782 1.06715 1.06935 1.07172 1.07485 1.07672 1.07567 1.0731 1.07151 1.0684 1.06713 1.06516 1.06501 1.07749 1.0769 1.07769 1.07743 1.0784 1.07956 1.06624 1.06454 1.06571 1.06634 1.06795 1.06842 1.06988 1.07029 1.07261 1.07387 1.0758 1.0757 1.07606 1.07449 1.0698 1.06572 1.06404 1.07619 1.07642 1.07743 1.07859 1.07845 1.06678 1.06499 1.06351 1.06731 1.06831 1.0711 1.0753 1.07493 1.0714 1.06656 1.06383 1.07551 1.07614 1.0777 1.06638 1.06562 1.064 1.06351 1.06605 1.06504 1.06541 1.0669 1.06839 1.07279 1.07443 1.07354 1.0734 1.06925 1.06763 1.06413 1.06389 1.06221 1.06271 1.07486 1.07413 1.07492 1.07439 1.07615 1.07688 1.07712 1.06457 1.06703 1.06471 1.06516 1.06646 1.06627 1.06911 1.0715 1.07548 1.07185 1.0727 1.06443 1.062 1.06122 1.07361 1.0735 1.0739 1.07572 1.06551 1.06818 1.06541 1.06454 1.06474 1.06693 1.07678 1.07216 1.06479 1.06206 1.06062 1.0725 1.07292 1.07239 1.07299 1.07298 1.07431 1.07256 1.07028 1.06925 1.06732 1.06632 1.0652 1.06456 1.06431 1.06424 1.06377 1.06441 1.06503 1.07109 1.07066 1.06354 1.06725 1.06423 1.06247 1.06075 1.06044 1.05918 1.0597 1.07192 1.07214 1.07283 1.07169 1.06833 1.06599 1.06462 1.06412 1.06319 1.07252 1.07785 1.05609 1.06539 1.06193 1.0592 1.05814 1.07155 1.07154 1.07197 1.07178 1.06955 1.06779 1.06685 1.06577 1.06516 1.06468 1.06439 1.06389 1.06261 1.04095 1.04662 1.05551 1.06231 1.06291 1.06324 1.0608 1.05985 1.05791 1.05776 1.05647 1.07072 1.07108 1.07071 1.07125 1.07085 1.07151 1.07041 1.0704 1.06858 1.06643 1.06503 1.06432 1.06416 1.06354 1.06337 1.05621 1.04244 1.04746 1.05926 1.0611 1.0584 1.05612 1.07031 1.0703 1.07012 1.06897 1.067 1.0654 1.06447 1.06368 1.05996 1.04689 1.04323 1.0533 1.05963 1.05872 1.05613 1.05455 1.06996 1.06958 1.06989 1.06934 1.06968 1.06874 1.06893 1.06747 1.06735 1.06587 1.06571 1.06465 1.06459 1.06383 1.0638 1.06244 1.06163 1.0546 1.04672 1.04786 1.05189 1.05611 1.05641 1.05817 1.05597 1.05622 1.05381 1.05409 1.0523 1.06928 1.06911 1.06855 1.06743 1.0659 1.06458 1.06372 1.06278 1.06029 1.05828 1.05484 1.05005 1.04923 1.05383 1.05514 1.05352 1.05166 1.06892 1.06847 1.06742 1.06587 1.06439 1.06345 1.06275 1.0613 1.05782 1.05242 1.04963 1.05084 1.05157 1.05251 1.0538 1.05304 1.05113 1.04985 1.06866 1.06834 1.06844 1.06774 1.06753 1.0662 1.06593 1.06415 1.06419 1.06253 1.06302 1.06179 1.06241 1.0614 1.06162 1.06036 1.05956 1.05568 1.05202 1.05194 1.0519 1.0524 1.05027 1.05065 1.0484 1.04904 1.04745 1.06804 1.06789 1.06669 1.06445 1.06221 1.061 1.06071 1.0604 1.05912 1.05789 1.0566 1.05433 1.05402 1.0525 1.05192 1.05016 1.04798 1.0466 1.06732 1.0678 1.06745 1.06719 1.0661 1.06515 1.06306 1.06232 1.05996 1.06028 1.05852 1.05968 1.05862 1.05979 1.05948 1.05809 1.05587 1.05413 1.05275 1.05186 1.05059 1.04841 1.04792 1.04583 1.04603 1.04474 1.04547 1.06721 1.06691 1.0644 1.06043 1.05759 1.05706 1.05786 1.05905 1.05852 1.05873 1.05818 1.05737 1.05568 1.05386 1.04974 1.04614 1.04439 1.04427 1.06633 1.06714 1.06594 1.06192 1.05742 1.05545 1.05602 1.05744 1.0582 1.05782 1.05699 1.05689 1.05566 1.05526 1.05217 1.04714 1.04506 1.04449 1.04386 1.04385 1.04418 1.06463 1.06644 1.06679 1.06699 1.06644 1.06419 1.06132 1.05858 1.05463 1.05438 1.05169 1.05379 1.05277 1.05548 1.05547 1.05735 1.05753 1.05802 1.05759 1.05695 1.05272 1.04914 1.04626 1.04421 1.04425 1.06501 1.0674 1.06488 1.05702 1.05057 1.04971 1.0525 1.05594 1.05783 1.05785 1.05749 1.05746 1.05765 1.05711 1.04851 1.04482 1.04469 1.04531 0.893832 1.06166 1.06226 1.06606 1.06787 1.06772 1.06687 1.06171 1.05604 1.05159 1.04592 1.04703 1.04457 1.04868 1.05303 1.05679 1.05805 1.05664 1.05965 1.05332 1.0472 1.04568 1.04578 1.04528 1.04695 1.04601 1.04744 1.05682 1.06438 1.06974 1.06369 1.04825 1.04108 1.04362 1.04882 1.05012 1.0543 1.0561 1.05783 1.05879 1.05796 1.05749 1.05506 1.0532 1.04607 1.04782 1.04877 1.0492 1.05734 1.06066 1.06797 1.07227 1.07068 1.06848 1.05614 1.04004 1.03807 1.0444 1.05244 1.0581 1.0594 1.0579 1.05533 1.04332 1.04619 1.04877 1.04843 1.05117 1.05012 1.05161 1.04982 0.893832 1.04885 1.06648 1.07697 1.05879 1.04482 1.03308 1.03344 1.02995 1.0375 1.03932 1.0468 1.05039 1.05536 1.05986 1.05985 1.0542 1.0356 1.04514 1.05163 1.05321 1.05122 1.03564 1.03581 1.05209 1.06077 1.07414 1.07887 1.04286 1.02397 1.0298 1.04306 1.05462 1.05836 1.06083 1.06104 1.0604 1.05796 1.05222 1.04374 1.04121 1.04998 1.05423 1.05475 1.05309 1.04981 1.01176 1.03709 1.07508 1.08688 1.10024 1.06682 1.0417 1.02464 1.01004 1.01868 1.01969 1.03297 1.0485 1.05877 1.06168 1.05699 1.04619 1.04778 1.05294 1.05393 1.05571 1.05137 0.983197 1.01287 1.01349 1.04683 1.10208 1.08369 1.01142 1.00522 1.0274 1.0397 1.04773 1.05449 1.05939 1.06149 1.06179 1.06012 1.05678 1.0523 1.04969 1.04657 1.05222 1.05612 1.05316 1.04454 1.04343 0.893832 0.976231 1.0169 1.06935 1.11822 1.13973 1.12273 1.04367 0.993752 0.993434 1.01097 1.03839 1.05517 1.06173 1.05993 1.05378 1.05234 1.05662 1.05683 1.05493 1.04716 1.02994 0.985445 0.943869 0.986943 0.966934 1.04619 1.19623 1.06031 0.973601 0.99233 1.00985 1.02579 1.0414 1.04922 1.05678 1.05994 1.0615 1.05743 1.05444 1.05924 1.05751 1.05955 1.05047 1.03109 1.00676 1.0395 0.975633 0.961343 1.1146 1.18937 1.21416 0.983743 0.990329 1.03164 1.05254 1.06044 1.06157 1.06116 1.05982 1.05843 1.05639 1.06092 1.06348 1.05476 1.04103 1.03538 1.00936 1.13136 0.967861 0.973513 0.976099 0.980349 1.01478 0.949978 1.33999 1.13772 0.999794 0.970932 1.00758 1.02049 1.0484 1.05849 1.06156 1.05999 1.05929 1.06778 1.06873 1.06071 1.0488 1.01744 0.979503 0.971561 1.15425 1.03906 1.01153 1.20097 1.24705 1.01725 1.04746 1.04592 1.05531 1.05655 1.06023 1.06138 1.06224 1.06114 1.05981 1.05939 1.06059 1.06916 1.0776 1.05912 1.0384 1.02701 0.994324 0.92096 1.24192 1.42987 0.985582 1.07808 1.06623 1.0876 1.12604 0.84027 0.698736 0.435505 1.11781 1.11779 1.06009 1.05824 1.05904 1.06068 1.061 1.05954 1.08207 1.07305 1.05132 1.00844 0.9715 0.943053 0.851018 1.04159 1.06971 1.05923 0.971408 0.488098 0.869244 1.09616 1.06688 1.06445 1.06094 1.06001 1.05751 1.05352 1.06051 1.06764 1.0595 1.10596 1.08963 1.0676 1.02264 0.991876 0.905721 0.740332 1.889 0.879622 0.999775 0.782678 0.634688 1.00505 1.07568 1.06212 1.06142 1.05738 1.05691 1.04993 1.05436 1.07454 1.14798 1.08228 1.05495 1.03856 1.00959 0.994188 0.963072 0.879742 0.75306 1.44532 2.04521 1.36984 1.22908 1.04751 1.028 0.999444 0.909879 0.83638 0.700075 0.807995 0.894442 0.97555 1.03961 1.06549 1.05765 1.04581 1.04383 1.06354 1.11277 1.10204 1.06496 1.02345 1.00507 1.01695 0.61089 0.364881 1.20802 1.41657 1.22517 1.62131 1.24965 1.03409 0.932655 0.837505 0.920341 1.01106 1.05003 1.05276 1.0597 1.04999 1.04547 1.02456 1.02928 1.01526 1.04316 1.08406 1.14893 1.08818 1.02061 1.00079 1.04906 1.15138 0.921985 0.712867 0.370746 0.921271 1.03103 0.825721 0.496677 0.804033 0.998113 0.978483 1.02635 0.962844 0.887259 0.901075 0.890056 0.970425 1.03315 1.04938 1.02971 1.00088 1.03163 1.15062 1.15072 1.00856 0.954535 0.968482 1.03368 1.19484 0.946638 0.461 0.621596 0.491795 0.545275 0.825758 0.186888 0.0995863 0.33681 0.788583 0.972382 0.905718 1.01368 0.968546 0.932197 0.925172 0.939693 0.973718 1.00011 1.04178 1.03679 0.99936 0.991512 1.03916 1.12475 1.1691 1.02606 0.973643 0.914109 0.845518 1.08088 1.39006 0.908579 0.757929 0.895089 0.744945 0.612022 0.616952 0.679071 0.79423 0.507829 0.74235 0.696444 0.964162 0.816568 1.17859 0.950886 0.971886 0.910064 0.935935 0.92168 0.949477 0.998418 1.02904 1.03895 1.03801 1.02322 1.01339 0.979338 0.972958 0.973676 1.18464 1.10374 1.03707 0.891869 0.78149 0.921884 1.5739 1.803 1.13792 0.858251 0.75403 0.673964 0.669908 0.628806 0.635053 0.582515 0.605952 0.582583 0.771935 0.89404 0.912309 1.23064 1.29393 1.5334 0.857658 0.887019 0.916823 0.926452 0.911607 0.922252 0.978996 1.04469 1.02862 1.00051 0.930575 1.01777 1.12668 0.957051 0.972472 0.882322 0.935704 0.630119 1.29915 1.08761 0.854518 0.801995 0.738205 0.713428 0.678459 0.663599 0.629455 0.66185 0.607824 0.644646 0.667452 0.633819 0.794608 0.805181 0.890662 0.438421 0.847942 0.826471 0.891115 0.900149 0.902768 0.941621 0.979892 0.997435 1.08611 1.05137 1.00153 0.972534 0.973512 0.942952 0.881995 0.991722 1.31069 1.29775 1.00086 1.00894 0.966775 0.986771 0.868784 0.654741 0.147242 0.401701 0.452319 0.724041 0.651117 0.717999 0.658402 0.654418 0.634723 0.61838 0.67601 0.678993 0.665672 0.646568 0.617156 0.584612 0.686741 0.764078 0.843778 0.277403 0.744598 0.944629 0.923111 0.904926 0.889081 0.913134 0.925199 1.01133 1.07866 1.01471 0.952111 0.953779 0.929598 0.326855 1.11796 1.0547 1.02497 1.01055 0.920462 0.399362 0.437834 0.550554 0.476885 0.648589 0.658237 0.632275 0.632254 0.613219 0.591437 0.544677 0.672669 0.68649 0.667867 0.623942 0.62508 0.618807 0.618666 0.677235 0.748973 0.693241 0.720447 0.84487 0.920346 0.984007 0.909684 0.924813 0.930878 0.877118 1.04667 1.14872 0.972528 0.827056 0.901162 0.916826 0.958411 0.785611 0.455027 0.3369 0.777419 0.839525 1.02298 1.01073 1.0444 1.01215 0.785434 0.630255 0.57325 0.643991 0.435081 0.585353 0.596658 0.60801 0.586249 0.574144 0.528174 0.505239 0.573419 0.600532 0.647323 0.640016 0.677462 0.657443 0.653653 0.66059 0.667341 0.645732 0.686893 0.664721 0.576247 0.78561 0.888025 0.949471 0.928017 1.11165 0.993947 1.18057 1.04214 1.03943 1.07251 0.817101 0.842347 0.855711 0.585693 0.620292 0.889502 0.923639 0.983702 0.933869 0.968849 0.959308 1.1008 0.554924 0.482502 0.571592 0.425876 0.55682 0.596673 0.581763 0.567205 0.497449 0.477893 0.463387 0.526009 0.581392 0.600338 0.642153 0.634789 0.627401 0.612354 0.631154 0.650999 0.667237 0.723608 0.754256 0.768872 0.726538 0.754968 0.849395 0.917246 0.964952 1.00194 0.971007 0.706503 0.768038 0.907545 0.795964 0.852362 0.771655 0.529058 0.629194 0.736923 0.818954 0.931654 0.936799 0.876909 0.79118 0.906203 0.328264 0.415396 0.494105 0.481481 0.547053 0.575615 0.586365 0.589201 0.543753 0.524599 0.475755 0.491563 0.522817 0.475617 0.472886 0.532288 0.607585 0.625071 0.632714 0.642787 0.646806 0.703277 0.690571 0.738957 0.887385 0.994768 0.904233 0.773162 0.774268 0.958164 0.992994 0.984917 1.03681 1.26286 1.34018 2.07146 0.642565 0.905454 0.8376 0.802951 0.813247 0.811191 0.81888 0.766448 0.689311 0.644517 0.7256 0.855576 0.889375 0.888059 0.865905 0.822197 0.51668 0.538742 0.533402 0.543951 0.532351 0.556247 0.563024 0.59091 0.585399 0.5129 0.475575 0.513206 0.479381 0.496309 0.468957 0.524333 0.523786 0.563088 0.584063 0.589144 0.59832 0.615548 0.608526 0.571635 0.737702 0.800067 0.857399 1.01716 0.998763 0.994982 0.872894 0.798357 0.8541 1.07216 1.09742 1.0074 1.71493 0.550094 1.19003 0.759466 0.84148 0.799132 0.775462 0.684532 0.669355 0.697944 0.794815 0.807778 0.879942 0.819181 0.935274 0.739744 0.551447 0.592062 0.576288 0.573546 0.562286 0.560583 0.569051 0.611026 0.580282 0.426424 0.502054 0.511319 0.418678 0.448122 0.509825 0.544773 0.568003 0.58087 0.575501 0.589326 0.559848 0.515599 0.558669 0.453154 0.344191 0.678771 1.02095 0.710306 0.859977 0.814961 0.828403 0.802632 1.00358 1.05437 1.10188 1.35589 1.17283 0.880941 0.685359 0.728223 0.826782 0.793634 0.739137 0.718281 0.645906 0.681472 0.648595 0.602422 0.784004 0.764325 0.819632 0.817568 0.80759 0.739541 0.730687 0.641598 0.637975 0.631163 0.603834 0.588177 0.569906 0.56526 0.578968 0.618109 0.498214 0.437119 0.401584 0.318256 0.45769 0.504281 0.446583 0.467996 0.372076 0.438744 0.449356 0.50741 0.501116 0.508361 0.552506 0.556974 0.559509 0.514783 0.463285 0.304286 0.121739 0.285174 0.797207 0.890715 0.941043 0.8863 0.877362 1.20351 0.676658 0.7888 0.615958 0.186041 0.88939 0.839774 0.838873 0.707515 0.793818 0.788603 0.804383 0.661123 0.535949 0.717157 0.677595 0.58507 0.792219 0.756641 0.679458 1.09103 0.968915 0.799233 0.755248 0.677964 0.661778 0.640419 0.606831 0.58028 0.554873 0.529847 0.533634 0.546379 0.375856 0.472239 0.198416 0.331184 0.424362 0.372499 0.413957 0.356158 0.340048 0.314076 0.375922 0.374797 0.422974 0.449124 0.511269 0.537547 0.525073 0.550349 0.525857 0.460405 0.455015 0.412916 0.314807 0.412454 0.414929 0.772201 1.09076 0.891136 0.449233 0.710195 1.26448 0.654124 0.358872 0.663984 0.508343 0.409054 0.365395 0.66882 0.778792 0.708136 0.723245 0.654847 0.561116 0.750176 0.775454 0.760688 0.739264 0.66202 0.0391224 0.478052 0.580099 0.599813 0.623274 0.611011 0.579237 0.550337 0.530672 0.51904 0.553818 0.531429 0.343414 0.286988 0.153181 0.347497 0.405582 0.37039 0.313991 0.246058 0.326752 0.332456 0.256928 0.382387 0.422758 0.461901 0.536783 0.537203 0.486953 0.509888 0.495562 0.427408 0.424769 0.471213 0.430459 0.543381 0.603341 0.0860525 0.318783 0.888587 0.738468 0.559143 0.523429 0.449656 0.362419 0.556709 0.640661 0.81598 0.622684 0.74316 0.634903 0.59166 0.588764 0.655504 0.660075 0.728055 0.722528 0.689622 0.767659 0.66189 0.299349 0.474414 0.526844 0.568072 0.592287 0.589785 0.573232 0.55219 0.527827 0.542382 0.584233 0.456187 0.263843 0.216485 0.243902 0.38747 0.380275 0.298211 0.302814 0.0413793 0.0636642 0.351801 0.226257 0.306807 0.36315 0.41187 0.467675 0.541509 0.605301 0.671553 0.452857 0.473784 0.474394 0.480868 0.449641 0.423106 0.454787 0.530016 1.14736 1.1012 0.239904 0.19541 0.363419 0.744525 0.750556 0.561937 0.470306 0.573338 0.566004 0.586268 0.597431 0.529369 0.544851 0.660988 0.650622 0.672669 0.702654 0.690513 0.708951 0.611827 0.583859 0.388435 0.480118 0.524616 0.557539 0.577985 0.591413 0.598778 0.653196 0.59355 0.441456 0.199198 0.290936 0.380065 0.406508 0.475287 0.461496 0.0986918 0.228848 0.135206 0.309209 0.35864 0.156972 0.20866 0.219415 0.394102 0.432577 0.486658 0.160104 0.51227 0.414062 0.431139 0.451041 0.466271 0.48275 0.455782 0.486717 0.517557 0.60827 1.33461 1.50616 0.870954 0.396801 0.327561 0.47932 0.663638 0.67842 0.594796 0.545783 0.523078 0.506115 0.581483 0.50202 0.558383 0.577296 0.622761 0.638967 0.661966 0.709117 0.646649 0.549783 0.541909 0.454889 0.503165 0.581794 0.582655 0.755779 0.617595 0.369033 0.253439 0.445321 0.438935 0.652111 0.565114 0.408479 0.37037 0.172066 0.1973 0.0627839 0.23346 0.246373 0.203236 0.137286 0.30401 0.342633 0.410814 0.375188 0.413882 0.331309 0.356337 0.471553 0.422564 0.455806 0.463032 0.462755 0.398763 0.459644 0.48653 0.533956 0.571043 0.521217 1.10563 0.691633 0.452082 0.521515 0.633312 0.640646 0.571499 0.548708 0.539769 0.543703 0.558753 0.566884 0.576645 0.549033 0.515862 0.534658 0.56601 0.605767 0.623097 0.673605 0.688808 0.653355 0.604047 0.543974 0.52202 0.496305 0.530509 0.548794 0.563025 0.572975 0.596488 0.645616 0.693093 0.888179 0.701639 0.461645 0.54133 0.612037 0.498901 0.442843 0.967515 0.744199 0.659103 0.277981 0.270469 0.268913 0.161965 0.24291 0.41257 0.146615 0.247156 0.381747 0.361982 0.351781 0.377959 0.379206 0.397091 0.43554 0.456423 0.449179 0.431175 0.412941 0.424907 0.403313 0.392596 0.474744 0.657983 0.784461 0.556609 0.443748 0.554032 0.61119 0.601256 0.573969 0.571115 0.573577 0.581402 0.578784 0.582245 0.573762 0.552939 0.512617 0.493196 0.506813 0.53376 0.573587 0.642961 0.658634 0.640711 0.610062 0.579014 0.542081 0.516575 0.528659 0.538195 0.549521 0.571165 0.620372 0.697898 0.732446 0.758601 0.975785 0.85833 0.839543 0.457447 0.355003 0.428573 0.602482 0.746158 0.126414 0.247943 0.239467 0.267232 0.293031 0.300828 0.25213 0.147479 0.21584 0.288843 0.260716 0.178192 0.356375 0.37224 0.348108 0.350253 0.391559 0.437413 0.400059 0.437982 0.439561 0.439291 0.431662 0.426499 0.364585 0.300381 0.330206 0.48209 0.668805 0.655372 0.541788 0.491547 0.488338 0.587579 0.590908 0.586201 0.5942 0.596425 0.592362 0.586911 0.576887 0.556412 0.522206 0.502452 0.497455 0.519622 0.548559 0.587224 0.602944 0.620829 0.616969 0.600336 0.580977 0.521739 0.513784 0.517265 0.517315 0.516987 0.521182 0.542487 0.607321 0.675821 0.765103 1.22324 1.2258 0.541829 0.485081 0.523739 0.302051 0.364059 0.0816192 0.308346 0.25647 0.293801 0.27223 0.25758 0.551608 0.342038 0.429996 0.413525 0.334574 0.258785 0.267545 0.303907 0.391156 0.362712 0.355749 0.356638 0.394625 0.393442 0.418032 0.41528 0.438507 0.426632 0.42708 0.441233 0.414017 0.371293 0.35468 0.426431 0.527587 0.611666 0.595679 0.537658 0.512859 0.521106 0.551833 0.597306 0.604378 0.599419 0.59259 0.58022 0.562466 0.5396 0.518554 0.506707 0.515345 0.561115 0.572092 0.590133 0.590763 0.584218 0.57326 0.560743 0.536782 0.519177 0.513002 0.509392 0.500761 0.494798 0.498636 0.525394 0.598432 0.547302 0.545718 0.760699 0.395192 0.590877 0.546191 0.472912 0.67317 0.0924807 0.250105 0.509347 0.32266 0.28752 0.28221 0.276689 0.21892 0.537087 0.761218 1.04744 0.498689 0.363132 0.346335 0.22388 0.34715 0.371005 0.37232 0.382197 0.407624 0.403079 0.424676 0.420352 0.423788 0.423298 0.433902 0.426746 0.422776 0.421735 0.444552 0.487364 0.551481 0.581796 0.565614 0.540358 0.527653 0.53193 0.557477 0.584916 0.59448 0.535696 0.540698 0.548886 0.565616 0.571966 0.569109 0.559065 0.542258 0.525441 0.514808 0.509689 0.501654 0.492545 0.485776 0.482488 0.522996 0.648626 0.700835 0.851608 0.595531 0.321966 0.165405 0.330041 0.389042 0.379109 0.527179 0.308018 0.528415 0.216237 0.508252 0.289616 0.211265 0.225355 0.176473 0.177444 0.445035 0.619654 0.681381 1.34819 0.525533 0.412893 0.428774 0.270568 0.271575 0.363515 0.377603 0.391441 0.394407 0.419988 0.417 0.413701 0.4202 0.424359 0.432559 0.438988 0.437769 0.444554 0.468007 0.494203 0.518544 0.549305 0.561571 0.555427 0.542023 0.537358 0.544358 0.564656 0.586901 0.598542 0.601324 0.600865 0.594476 0.58438 0.570314 0.548518 0.535966 0.519628 0.520355 0.529106 0.528732 0.533072 0.548529 0.557386 0.566043 0.555164 0.538968 0.525507 0.516764 0.510569 0.505376 0.500817 0.497653 0.496949 0.510868 0.569432 0.78741 0.805209 0.387565 0.309839 0.162184 0.251005 0.461723 0.53763 0.77221 0.860303 0.738753 0.202858 0.188829 0.217872 0.186863 0.135489 0.135221 0.0936691 0.373309 0.395728 0.48856 0.547376 0.257872 0.816102 0.443956 0.495052 0.341969 0.386081 0.3827 0.396225 0.406808 0.400183 0.409994 0.414456 0.412421 0.416481 0.428122 0.526846 0.544166 0.555547 0.55102 0.545036 0.544199 0.551754 0.568032 0.585342 0.595702 0.598084 0.595353 0.587283 0.575774 0.563135 0.546694 0.531705 0.530083 0.531395 0.526135 0.526125 0.539252 0.560186 0.558245 0.548843 0.536095 0.523524 0.515073 0.511291 0.50694 0.504042 0.50516 0.505861 0.773417 0.603138 0.358836 0.307904 0.25427 0.28895 0.488619 0.47097 1.26029 1.24665 0.455638 0.268225 0.212105 0.160503 0.140107 0.104967 0.0795919 0.281922 0.329704 0.323988 0.413962 0.21254 0.0529249 0.374237 0.638721 0.469052 0.502762 0.461926 0.374556 0.351556 0.406761 0.421795 0.404915 0.411292 0.414309 0.422638 0.435319 0.445582 0.448714 0.455649 0.46997 0.487989 0.510186 0.547382 0.549768 0.556515 0.568245 0.581208 0.590138 0.592057 0.588484 0.579537 0.569647 0.558005 0.542503 0.538645 0.533288 0.523787 0.527023 0.548233 0.55315 0.55192 0.543551 0.531634 0.52066 0.512583 0.508302 0.5074 0.519662 0.559081 0.618537 0.373976 0.553124 0.474125 0.337632 0.274953 0.350712 0.417113 0.449289 0.374827 0.717071 0.470553 0.344046 0.26946 0.226163 0.18137 0.0966671 0.102139 0.0696705 0.249317 0.296489 0.259875 0.341449 0.219189 0.113369 0.379141 0.502239 0.472355 0.389298 0.415737 0.396923 0.436984 0.455851 0.417446 0.417011 0.424682 0.42548 0.430952 0.441582 0.447728 0.454585 0.461833 0.469729 0.483307 0.498188 0.516457 0.533186 0.545087 0.551392 0.549041 0.568699 0.57754 0.584565 0.586203 0.581734 0.573048 0.562615 0.553248 0.54698 0.536098 0.536792 0.545825 0.54808 0.546549 0.538649 0.527681 0.518072 0.510807 0.506371 0.505801 0.508237 0.513511 0.525837 0.557482 0.594965 0.508284 0.384542 0.454622 0.426297 0.339865 0.37388 0.313579 0.380778 0.603834 0.842819 0.203329 0.329274 0.307723 0.272442 0.202136 0.145401 0.0957699 0.0961653 0.102849 0.0578947 0.215455 0.255757 0.247167 0.211202 0.10544 0.128117 0.151971 0.477669 0.411687 0.408834 0.415012 0.452703 0.48225 0.4365 0.431931 0.436662 0.433945 0.442325 0.449868 0.455463 0.46355 0.47203 0.481297 0.493101 0.507438 0.522569 0.535745 0.544146 0.548277 0.54871 0.550365 0.554188 0.560376 0.528287 0.530488 0.538565 0.543897 0.544446 0.542223 0.535238 0.525625 0.51711 0.504632 0.504921 0.507563 0.512549 0.520797 0.542254 0.567199 0.533354 0.472949 0.420955 0.443056 0.407371 0.350069 0.338686 0.487384 0.615305 0.588817 0.0712847 0.237634 0.214486 0.233668 0.222101 0.196353 0.14663 0.11308 0.122935 0.0790741 0.222112 0.0133898 0.121251 0.173649 0.239272 0.249944 0.189998 0.164483 0.0911827 0.0973865 0.20404 0.322508 0.40618 0.406304 0.445038 0.418177 0.436848 0.459523 0.480601 0.475023 0.450044 0.45147 0.431379 0.434386 0.444309 0.451647 0.4567 0.462891 0.470886 0.480901 0.491178 0.502107 0.514273 0.525762 0.535802 0.543034 0.546916 0.549266 0.552826 0.557629 0.563434 0.569755 0.575861 0.580231 0.581218 0.576738 0.567467 0.559605 0.552367 0.541807 0.535364 0.537954 0.540393 0.541394 0.541287 0.539131 0.53338 0.524969 0.510079 0.505278 0.502979 0.5021 0.503676 0.508843 0.514303 0.5267 0.540588 0.527158 0.488019 0.464778 0.45649 0.469404 0.445067 0.408072 0.402825 0.397562 0.53396 0.326609 0.132412 0.167304 0.190666 0.171551 0.153476 0.127145 0.0998979 0.367637 0.476272 0.0853475 0.12992 0.215518 0.245639 0.0847252 0.129518 0.0725685 0.0944121 0.125917 0.359864 0.412967 0.429849 0.428705 0.454636 0.50043 0.499521 0.503239 0.470127 0.442654 0.439302 0.442812 0.45014 0.455257 0.463147 0.471994 0.480324 0.489756 0.499095 0.508021 0.518028 0.527803 0.536168 0.54234 0.546526 0.550141 0.55463 0.560044 0.565604 0.570526 0.574614 0.576958 0.576429 0.572247 0.565235 0.556793 0.548251 0.5437 0.542686 0.541621 0.540745 0.539899 0.537694 0.517299 0.510659 0.505728 0.503358 0.501543 0.500659 0.503851 0.507503 0.514674 0.522718 0.51902 0.499051 0.485162 0.48973 0.501097 0.513997 0.436752 0.36152 0.438136 0.202462 0.670658 0.612769 0.309443 0.233626 0.0427686 0.111541 0.205578 0.198822 0.184739 0.14859 0.213561 0.173743 0.459661 0.787324 0.263414 0.606387 0.181173 0.299286 0.222709 0.0684385 0.131405 0.039366 0.0871321 0.282918 0.361875 0.426518 0.426838 0.442168 0.447672 0.522291 0.522321 0.452686 0.444926 0.444118 0.449712 0.456486 0.462858 0.471784 0.480112 0.488165 0.496266 0.504474 0.512672 0.52116 0.529289 0.53647 0.542246 0.547039 0.551584 0.556251 0.561051 0.565815 0.570148 0.573037 0.573929 0.572493 0.56848 0.561891 0.554286 0.550039 0.546927 0.543421 0.541678 0.532884 0.5259 0.518607 0.512008 0.50705 0.504244 0.50243 0.500382 0.501014 0.503774 0.507863 0.512742 0.512301 0.50337 0.496035 0.500294 0.513553 0.532902 0.512206 0.391124 0.416864 0.480625 0.356773 0.465555 0.359026 0.301887 0.118031 0.167252 0.187689 0.22249 0.220934 0.207859 0.199503 0.235332 0.288049 0.192965 1.39947 0.360146 0.280605 0.54449 0.465863 0.590265 0.297258 0.388463 0.0783096 0.0550003 0.0849486 0.198157 0.264226 0.414457 0.413737 0.428765 0.427575 0.442249 0.450224 0.540482 0.52249 0.499469 0.463212 0.45122 0.450311 0.452278 0.456476 0.461734 0.470466 0.480185 0.487963 0.543322 0.548374 0.552632 0.556694 0.560987 0.565262 0.568847 0.571038 0.571174 0.569342 0.564918 0.559457 0.554643 0.540894 0.537873 0.532916 0.527254 0.521258 0.515319 0.510252 0.506718 0.504042 0.50128 0.499915 0.501283 0.503393 0.506109 0.54302 0.483485 0.371712 0.472808 0.348915 0.353036 0.369897 0.254642 0.23081 0.234534 0.231517 0.215651 0.198126 0.285817 0.323784 0.484695 0.621135 0.569 0.287999 0.380072 0.366631 0.467728 0.489987 0.55465 0.492063 0.660177 0.652893 0.285646 0.148357 0.0745626 0.13734 0.181459 0.201892 0.383426 0.389589 0.408446 0.423123 0.437263 0.395055 0.537266 0.493225 0.475755 0.460392 0.455587 0.456781 0.460314 0.464778 0.495201 0.501792 0.508407 0.515947 0.523524 0.530567 0.537251 0.549941 0.546477 0.544556 0.542585 0.539163 0.534573 0.529357 0.524245 0.519494 0.514916 0.510776 0.507161 0.503724 0.506219 0.50245 0.496172 0.498029 0.511764 0.529411 0.446342 0.460902 0.268966 0.250541 0.236296 0.218261 0.23334 0.248514 0.369337 0.430684 0.55442 0.664254 0.514337 0.440625 0.430595 0.464771 0.356487 0.401846 0.425055 0.460582 0.531808 0.509755 0.499015 0.379627 0.0259658 0.116563 0.173422 0.246044 0.302108 0.363136 0.387781 0.405129 0.412473 0.388689 0.358461 0.485334 0.480482 0.470119 0.464304 0.464029 0.470587 0.479615 0.488259 0.49427 0.499646 0.505764 0.512071 0.518645 0.525435 0.532165 0.538643 0.544317 0.54901 0.553162 0.557059 0.560898 0.564462 0.567264 0.568816 0.568779 0.566718 0.563489 0.55915 0.554329 0.550673 0.54812 0.545132 0.541433 0.537193 0.532676 0.52812 0.523865 0.519886 0.500934 0.50005 0.500755 0.50295 0.504055 0.502582 0.497522 0.4942 0.500904 0.515708 0.529656 0.531607 0.46341 0.440479 0.425371 0.376872 0.443315 0.32965 0.247412 0.215726 0.199532 0.268232 0.282874 0.303187 0.430653 0.491857 0.458833 0.566165 0.558938 0.484173 0.475777 0.49465 0.325504 0.373539 0.431318 0.427302 0.442402 0.436841 0.372979 0.326076 0.200038 0.186313 0.16953 0.316163 0.348088 0.38748 0.385318 0.373548 0.364201 0.467047 0.470437 0.474443 0.479586 0.486904 0.494022 0.499342 0.503852 0.508988 0.514709 0.520864 0.527398 0.533595 0.539411 0.544841 0.549585 0.553779 0.557532 0.560902 0.563766 0.5659 0.566836 0.566545 0.565166 0.562362 0.558762 0.555247 0.551823 0.54826 0.544464 0.54051 0.536568 0.532585 0.515787 0.51148 0.507322 0.503718 0.501495 0.500448 0.500386 0.502105 0.503091 0.498509 0.493049 0.496093 0.504389 0.509841 0.517073 0.496205 0.497744 0.485246 0.420317 0.414575 0.393583 0.291047 0.232064 0.210914 0.247738 0.289205 0.320129 0.364631 0.45163 0.465877 0.417244 0.552357 0.487415 0.502573 0.508769 0.3033 0.33665 0.388866 0.400404 0.413943 0.340672 0.209097 0.32185 0.274671 0.0998394 0.222063 0.328776 0.316492 0.391443 0.358072 0.350329 0.411077 0.470123 0.475699 0.471242 0.47173 0.473462 0.475172 0.478912 0.483675 0.488804 0.493839 0.498411 0.502829 0.506824 0.511433 0.517185 0.522941 0.528667 0.534541 0.540164 0.545383 0.550085 0.554302 0.557983 0.561054 0.563441 0.564926 0.565418 0.56483 0.563312 0.561119 0.558291 0.554993 0.551475 0.54789 0.528647 0.524737 0.520716 0.516335 0.511822 0.507561 0.504048 0.501504 0.5003 0.50086 0.502838 0.502773 0.49626 0.49271 0.499789 0.502256 0.500745 0.491145 0.482454 0.494341 0.438529 0.367767 0.324831 0.269076 0.254396 0.245848 0.261374 0.341696 0.370318 0.416531 0.429825 0.383236 0.0680232 0.409273 0.560692 0.54404 0.539362 0.515663 0.511601 0.295512 0.31255 0.323778 0.348594 0.366496 0.410528 0.369408 0.243218 0.310895 0.351521 0.226508 0.244103 0.144057 0.255447 0.323133 0.358972 0.347212 0.345081 0.353056 0.38328 0.426535 0.462724 0.470566 0.475802 0.478113 0.480026 0.483359 0.48815 0.492531 0.495662 0.498211 0.50154 0.505613 0.509531 0.513849 0.519009 0.524379 0.529878 0.535556 0.540909 0.545868 0.550505 0.554726 0.558386 0.561296 0.563366 0.564501 0.564585 0.544302 0.54068 0.537088 0.533328 0.52939 0.525337 0.521148 0.516615 0.511978 0.507962 0.504472 0.501462 0.499925 0.501124 0.503427 0.501298 0.49564 0.495527 0.50114 0.498615 0.492114 0.472998 0.478776 0.462849 0.439298 0.40197 0.352606 0.31581 0.275241 0.26851 0.279793 0.314942 0.379202 0.417726 0.433679 0.385571 0.306633 0.588371 0.578973 0.555673 0.536319 0.518053 0.51525 0.511152 0.509081 0.300773 0.309503 0.342993 0.37815 0.404874 0.399129 0.34592 0.24158 0.293459 0.263312 0.265979 0.271459 0.304379 0.348503 0.364921 0.330765 0.338748 0.353262 0.39041 0.43349 0.459647 0.472126 0.479644 0.483399 0.487753 0.491964 0.495392 0.497936 0.499965 0.502135 0.563779 0.562352 0.560348 0.557728 0.554704 0.551519 0.548237 0.54487 0.541402 0.537751 0.533815 0.529626 0.525449 0.521238 0.5167 0.51194 0.507646 0.504161 0.501632 0.501 0.497371 0.498942 0.501917 0.483282 0.471775 0.453775 0.447044 0.435728 0.375981 0.301076 0.254856 0.3232 0.34253 0.359523 0.420751 0.422737 0.580368 0.579121 0.554261 0.565925 0.549469 0.531201 0.512164 0.328648 0.358581 0.379158 0.395596 0.278172 0.212687 0.440926 0.388449 0.327183 0.312346 0.31947 0.366615 0.408464 0.326596 0.33121 0.361135 0.403232 0.439545 0.460428 0.475214 0.484889 0.490009 0.494129 0.504811 0.508021 0.511702 0.515922 0.520636 0.5258 0.531173 0.536485 0.541563 0.546399 0.550986 0.555148 0.55871 0.561503 0.563389 0.564324 0.564369 0.563623 0.562237 0.560319 0.557907 0.555116 0.552094 0.548844 0.545389 0.541755 0.537903 0.533813 0.52959 0.525318 0.520897 0.502119 0.502867 0.500841 0.49658 0.49013 0.463867 0.45251 0.437982 0.412046 0.396206 0.365292 0.262016 0.305898 0.372403 0.390223 0.402987 0.530082 0.55278 0.559788 0.531938 0.545866 0.562572 0.574897 0.544038 0.347995 0.371219 0.780323 0.378598 0.291105 0.546332 0.487061 0.41356 0.315824 0.323611 0.337039 0.404027 0.304005 0.323932 0.349605 0.373854 0.41471 0.442232 0.497558 0.500229 0.502019 0.50354 0.505368 0.507521 0.510289 0.513831 0.517819 0.522234 0.527203 0.532324 0.537342 0.54229 0.547086 0.551581 0.555598 0.558982 0.56159 0.563346 0.564232 0.564296 0.56363 0.562323 0.560467 0.55814 0.555415 0.552357 0.548989 0.545371 0.516126 0.511557 0.507461 0.503483 0.501011 0.501792 0.503531 0.503321 0.50106 0.497065 0.496099 0.498212 0.499287 0.466124 0.438615 0.422351 0.405687 0.402051 0.3579 0.351315 0.364387 0.438123 0.44611 0.470244 0.543142 0.552922 0.515564 0.52256 0.580788 1.14034 0.193079 0.798049 0.473285 0.445457 0.388343 0.357402 0.370925 0.43206 0.311005 0.335448 0.364961 0.465562 0.481134 0.489283 0.494525 0.498877 0.50183 0.503436 0.504695 0.50627 0.507966 0.509923 0.512493 0.515673 0.51944 0.523802 0.528545 0.533393 0.538296 0.543203 0.54791 0.55224 0.556045 0.559205 0.561626 0.563244 0.564039 0.564062 0.563392 0.562095 0.560238 0.541571 0.537587 0.533446 0.529222 0.524918 0.520152 0.51491 0.510224 0.506819 0.503839 0.501227 0.501456 0.50392 0.50456 0.501765 0.498276 0.493856 0.495923 0.493833 0.483673 0.429498 0.409037 0.412521 0.386194 0.404825 0.420037 0.431461 0.471901 0.483511 0.515371 0.550332 0.544642 0.933425 1.07563 0.933886 0.781216 0.521185 0.528679 0.390402 0.421308 0.447927 0.485295 0.31757 0.392708 0.427248 0.449806 0.471709 0.485211 0.492783 0.498008 0.501576 0.503941 0.50563 0.507092 0.508503 0.510014 0.511885 0.514251 0.517278 0.521056 0.525317 0.529807 0.534525 0.539411 0.544248 0.5488 0.552913 0.556493 0.557913 0.555184 0.552072 0.548613 0.544885 0.540973 0.536905 0.532699 0.528365 0.523869 0.518975 0.51371 0.508872 0.505442 0.503263 0.501795 0.502101 0.503716 0.50412 0.502388 0.500029 0.497012 0.493919 0.478385 0.471286 0.45447 0.434704 0.39847 0.362763 0.400495 0.467956 0.466851 0.46909 0.497469 0.516637 0.53726 0.549251 0.85059 0.887041 0.640618 0.523747 0.46622 0.390301 0.434548 0.493348 0.546284 0.355127 0.383867 0.410258 0.436515 0.458499 0.476859 0.487599 0.494481 0.499854 0.503638 0.505923 0.507517 0.508887 0.510192 0.511634 0.559443 0.561675 0.563125 0.563778 0.563695 0.562947 0.561584 0.559676 0.557323 0.554571 0.551408 0.547853 0.543993 0.53992 0.535741 0.5315 0.527121 0.522362 0.517219 0.51222 0.507975 0.504821 0.502275 0.500753 0.502191 0.503848 0.503331 0.502103 0.501722 0.498946 0.480121 0.469229 0.459981 0.440339 0.40589 0.429743 0.375355 0.403041 0.447753 0.502227 0.495256 0.494199 0.542759 0.563397 0.715276 0.560863 0.66578 0.58228 0.601425 0.484462 0.435862 0.47788 0.546879 0.597739 0.340062 0.371786 0.395657 0.422726 0.444822 0.464919 0.479487 0.489152 0.496649 0.513437 0.515807 0.518915 0.522611 0.526663 0.531064 0.535788 0.54062 0.545312 0.549684 0.553603 0.556975 0.559715 0.561744 0.563 0.563485 0.563263 0.562387 0.560906 0.558905 0.556478 0.553648 0.550379 0.546684 0.542649 0.538404 0.534083 0.529801 0.474841 0.475454 0.467657 0.445361 0.423681 0.477487 0.440548 0.45475 0.496451 0.517726 0.517486 0.506428 0.525321 0.557174 0.914569 0.638944 0.705864 0.656892 0.504601 0.511148 0.500317 0.538425 0.36 0.386965 0.407698 0.431897 0.501915 0.50526 0.50743 0.508993 0.510316 0.511593 0.512985 0.514814 0.517319 0.520439 0.523989 0.527967 0.532378 0.537073 0.541819 0.546359 0.55055 0.55429 0.557467 0.559988 0.561784 0.562813 0.563099 0.562702 0.56166 0.560021 0.557875 0.555309 0.552333 0.525474 0.520733 0.515527 0.51059 0.506735 0.504337 0.50204 0.499873 0.500784 0.502588 0.502982 0.502386 0.504264 0.467331 0.45564 0.435291 0.510998 0.479586 0.428025 0.475447 0.523267 0.50318 0.519019 0.536788 0.547915 0.855855 0.627884 0.659915 0.600124 0.535575 0.577652 0.576658 0.617787 0.451884 0.469516 0.481749 0.491408 0.498965 0.50373 0.506679 0.508632 0.510063 0.511453 0.512929 0.514312 0.51611 0.51862 0.521692 0.525262 0.529308 0.533707 0.538361 0.543018 0.547422 0.551432 0.554953 0.557894 0.560164 0.5617 0.562474 0.548907 0.545041 0.54085 0.536497 0.532119 0.527814 0.523498 0.518843 0.514036 0.509509 0.505655 0.503349 0.501392 0.499783 0.499695 0.500723 0.502167 0.505179 0.477572 0.475201 0.544885 0.510955 0.477603 0.487159 0.521999 0.514579 0.531548 0.544741 0.560905 0.580048 0.605394 0.647859 0.650297 0.549087 0.56965 0.601343 0.619763 0.374201 0.397389 0.418411 0.440236 0.457865 0.472924 0.484991 0.494863 0.501139 0.505027 0.507692 0.509471 0.511031 0.512474 0.514293 0.515745 0.517126 0.519403 0.522708 0.526499 0.530659 0.535088 0.562525 0.561911 0.560664 0.558832 0.5565 0.553748 0.550588 0.546988 0.542971 0.53868 0.534297 0.529965 0.525799 0.521564 0.516928 0.512443 0.508459 0.50507 0.502714 0.500551 0.49939 0.499588 0.50038 0.503579 0.479042 0.4791 0.472896 0.459329 0.441774 0.497588 0.525719 0.508758 0.545922 0.532543 0.506455 0.53641 0.547812 0.846886 0.539649 0.658675 0.672166 0.621834 0.615436 0.576343 0.595746 0.609841 0.621769 0.390315 0.408762 0.429036 0.447133 0.463294 0.477756 0.48929 0.497529 0.502694 0.506201 0.508533 0.510228 0.539752 0.544306 0.548528 0.552302 0.555559 0.558202 0.560165 0.561408 0.561907 0.5617 0.560838 0.559357 0.557305 0.55476 0.551801 0.548453 0.544702 0.540596 0.5363 0.531959 0.527713 0.523729 0.519728 0.515385 0.511138 0.507315 0.504398 0.502272 0.500279 0.499442 0.500329 0.50238 0.480245 0.482124 0.478815 0.469723 0.451804 0.55972 0.547354 0.541341 0.567462 0.53623 0.516391 0.490044 0.537355 0.619926 0.64409 0.70046 0.66175 0.642787 0.601133 0.606551 0.616326 0.403226 0.418642 0.437115 0.453758 0.469597 0.482953 0.512185 0.513491 0.515313 0.517126 0.518001 0.519865 0.523189 0.527616 0.532012 0.536669 0.541373 0.545751 0.549665 0.553116 0.556039 0.558329 0.55995 0.56087 0.56108 0.560604 0.55948 0.557746 0.555453 0.552682 0.549525 0.546021 0.542172 0.485192 0.485407 0.483203 0.476866 0.464451 0.569513 0.555513 0.533045 0.540462 0.553923 0.538128 0.485294 0.51642 0.540618 0.497069 0.698287 0.709224 0.692694 0.672225 0.624379 0.493002 0.499777 0.504265 0.507241 0.509415 0.511343 0.513293 0.51452 0.51526 0.518396 0.519691 0.519981 0.523253 0.528206 0.5335 0.538669 0.543278 0.547312 0.550774 0.553794 0.556294 0.558214 0.559486 0.560077 0.559987 0.538057 0.533836 0.529598 0.525466 0.521618 0.517878 0.514056 0.510318 0.506732 0.503868 0.501899 0.500545 0.500452 0.501553 0.576586 0.565487 0.539935 0.577595 0.552253 0.592676 0.557552 0.508428 0.613012 0.636416 0.701328 0.714819 0.611924 0.612279 0.620771 0.626613 0.411622 0.427528 0.444796 0.461309 0.476436 0.487904 0.496107 0.501848 0.505691 0.508384 0.510524 0.512311 0.513204 0.515384 0.516022 0.518482 0.52137 0.521179 0.523086 0.52857 0.535314 0.540818 0.545394 0.55923 0.557834 0.555839 0.553308 0.550335 0.547021 0.543411 0.539514 0.535429 0.531309 0.527227 0.523299 0.519671 0.516195 0.512831 0.50966 0.506637 0.504064 0.502163 0.5012 0.501275 0.490611 0.489511 0.487183 0.483519 0.475363 0.557567 0.58248 0.58745 0.600345 0.572205 0.524864 0.630182 0.716081 0.627718 0.63899 0.696474 0.720086 0.68298 0.616915 0.617303 0.624003 0.630173 0.420455 0.436775 0.453599 0.469504 0.48253 0.491979 0.498774 0.503848 0.507159 0.509488 0.510482 0.512052 0.513407 0.516407 0.548801 0.551688 0.554187 0.556276 0.557816 0.558739 0.559008 0.558608 0.557559 0.555897 0.55367 0.550943 0.547813 0.544376 0.540681 0.536766 0.532755 0.52879 0.524936 0.521304 0.517974 0.514824 0.511861 0.509119 0.506701 0.504758 0.503173 0.501833 0.494992 0.493247 0.490975 0.488418 0.483468 0.58036 0.573381 0.58773 0.625203 0.57142 0.577086 0.859368 0.720542 0.643754 0.726029 0.722692 0.686757 0.622585 0.621775 0.628165 0.636102 0.430446 0.447228 0.463137 0.476679 0.48717 0.495174 0.517244 0.518127 0.521135 0.52366 0.524583 0.529834 0.536344 0.543076 0.547249 0.549962 0.552136 0.55421 0.555914 0.557091 0.557685 0.55763 0.556925 0.555603 0.553715 0.551303 0.548418 0.545153 0.541617 0.537882 0.534024 0.530175 0.498757 0.496499 0.494722 0.492165 0.488702 0.58147 0.577969 0.570305 0.596316 0.592339 0.577696 0.545066 0.896023 0.645681 0.697808 0.727158 0.79673 0.501235 0.505815 0.507989 0.508706 0.509891 0.512543 0.514502 0.515841 0.519137 0.518552 0.51998 0.525898 0.527862 0.530647 0.537725 0.54488 0.548518 0.550125 0.552108 0.55381 0.555124 0.556018 0.556292 0.55594 0.554971 0.526436 0.522845 0.519519 0.516496 0.513722 0.511145 0.508811 0.506868 0.505565 0.50401 0.58204 0.580181 0.577615 0.603748 0.599678 0.618881 0.649422 0.867512 0.758175 0.658725 0.647017 0.652144 0.660487 0.441369 0.458379 0.471736 0.482446 0.490759 0.497681 0.503167 0.50724 0.50645 0.508158 0.510292 0.513051 0.515114 0.517292 0.519122 0.52136 0.51924 0.525762 0.530859 0.533082 0.539411 0.546785 0.547587 0.553416 0.551326 0.548747 0.545741 0.542407 0.538855 0.535175 0.53146 0.527814 0.524311 0.521023 0.518004 0.515256 0.512775 0.510532 0.508536 0.506949 0.506255 0.502522 0.499767 0.497169 0.495533 0.492171 0.580946 0.607386 0.604487 0.625881 0.724097 0.726938 0.668331 0.489048 0.492517 0.504465 0.505786 0.508723 0.511547 0.549682 0.551659 0.552832 0.553976 0.554569 0.554573 0.553969 0.552758 0.550984 0.548725 0.546055 0.543032 0.539732 0.536258 0.532704 0.529167 0.525755 0.522521 0.519503 0.516734 0.514215 0.511923 0.509862 0.508083 0.506839 0.504964 0.502695 0.500079 0.497431 0.494811 0.581995 0.581129 0.522851 0.528103 0.530703 0.528969 0.51957 0.528819 0.531347 0.537495 0.542282 0.53723 0.538449 0.539271 
SCALARS Axial_Stress float 1
LOOKUP_TABLE default
-68678200000.0 -98565900000.0 -109516000000.0 -73397200000.0 -56693300000.0 -69075300000.0 -139360000000.0 -136201000000.0 -62067900000.0 -134158000000.0 -104445000000.0 -217570000000.0 -117490000000.0 -232545000000.0 -87112400000.0 -150563000000.0 -84107200000.0 -145693000000.0 -73560400000.0 -153666000000.0 -80847300000.0 -140840000000.0 -54194900000.0 -62920100000.0 -185959000000.0 -158779000000.0 -301592000000.0 -169545000000.0 -199000000000.0 -132562000000.0 -153403000000.0 -75865700000.0 -228592000000.0 -287885000000.0 -314278000000.0 -306424000000.0 -129993000000.0 -156669000000.0 -296498000000.0 -205447000000.0 -198632000000.0 -117126000000.0 -141965000000.0 -346667000000.0 -129886000000.0 -177106000000.0 -250371000000.0 -248078000000.0 -281293000000.0 -369772000000.0 -404300000000.0 -403030000000.0 -411309000000.0 -399295000000.0 -368488000000.0 -370894000000.0 -358953000000.0 -217487000000.0 -416239000000.0 -326359000000.0 -266212000000.0 -280842000000.0 -474496000000.0 -494938000000.0 -597887000000.0 -499235000000.0 -582753000000.0 -478018000000.0 -721289000000.0 -724755000000.0 -617276000000.0 -707469000000.0 -446267000000.0 -532995000000.0 -456672000000.0 -592220000000.0 -509162000000.0 -746792000000.0 -176749000000.0 -426216000000.0 -452647000000.0 -311310000000.0 -318920000000.0 -274007000000.0 -790311000000.0 -593191000000.0 -717988000000.0 -596816000000.0 -700641000000.0 -688470000000.0 -736318000000.0 -847587000000.0 -884741000000.0 -877796000000.0 -742685000000.0 -664840000000.0 -758586000000.0 -822642000000.0 -528286000000.0 -701968000000.0 -826440000000.0 -394878000000.0 -427120000000.0 -351348000000.0 -402922000000.0 -979234000000.0 -870495000000.0 -816214000000.0 -790515000000.0 -792484000000.0 -855627000000.0 -920471000000.0 -863393000000.0 -775322000000.0 -799905000000.0 -1.02506e+12 -940987000000.0 -1.07353e+12 -1.3191e+12 -1.04964e+12 -952771000000.0 -900955000000.0 -877862000000.0 -893493000000.0 -942151000000.0 -946718000000.0 -889898000000.0 -866942000000.0 -965538000000.0 -741780000000.0 -642377000000.0 -1.078e+12 -1.29949e+12 -1.40916e+12 -1.25959e+12 -1.29017e+12 -1.1094e+12 -1.16798e+12 -1.02611e+12 -1.09297e+12 -978004000000.0 -1.04868e+12 -960453000000.0 -1.03649e+12 -979834000000.0 -1.04772e+12 -1.00197e+12 -1.04545e+12 -976185000000.0 -1.02405e+12 -945455000000.0 -1.03059e+12 -982825000000.0 -1.08782e+12 -1.08266e+12 -773777000000.0 -764216000000.0 -1.16629e+12 -1.24075e+12 -1.18874e+12 -1.98508e+12 -2.48499e+12 -1.98932e+12 -1.39246e+12 -1.46336e+12 -1.32768e+12 -1.22265e+12 -1.15339e+12 -1.11295e+12 -1.10207e+12 -1.10251e+12 -1.09186e+12 -1.08938e+12 -1.12073e+12 -1.17407e+12 -1.3718e+12 -1.69575e+12 -2.06759e+12 -1.75021e+12 -1.49818e+12 -1.3675e+12 -1.27328e+12 -1.20742e+12 -1.17027e+12 -1.1575e+12 -1.15161e+12 -1.14927e+12 -1.16677e+12 -1.2051e+12 -840394000000.0 -892397000000.0 -1.559e+12 -1.85402e+12 -1.90078e+12 -1.7106e+12 -1.71119e+12 -1.52636e+12 -1.54791e+12 -1.40518e+12 -1.44414e+12 -1.31841e+12 -1.35615e+12 -1.25471e+12 -1.29552e+12 -1.2202e+12 -1.26441e+12 -1.2069e+12 -1.25615e+12 -1.20462e+12 -1.26613e+12 -1.21706e+12 -1.2919e+12 -1.24649e+12 -1.32337e+12 -1.28015e+12 -923183000000.0 -1.03731e+12 -1.5819e+12 -1.67283e+12 -1.70699e+12 -1.76207e+12 -1.89614e+12 -1.88809e+12 -1.88075e+12 -1.90539e+12 -1.70106e+12 -1.57648e+12 -1.47474e+12 -1.38655e+12 -1.33078e+12 -1.30696e+12 -1.31139e+12 -1.33627e+12 -1.36889e+12 -1.39474e+12 -1.70556e+12 -1.73306e+12 -1.72389e+12 -2.12955e+12 -1.85169e+12 -1.71809e+12 -1.6086e+12 -1.49528e+12 -1.4106e+12 -1.36301e+12 -1.35385e+12 -1.37613e+12 -1.41272e+12 -1.44455e+12 -1.51625e+12 -1.01479e+12 -1.16578e+12 -1.75266e+12 -1.73552e+12 -1.54766e+12 -1.92752e+12 -1.94729e+12 -1.86251e+12 -1.87609e+12 -1.73766e+12 -1.77231e+12 -1.62347e+12 -1.6232e+12 -1.50715e+12 -1.51245e+12 -1.4301e+12 -1.44825e+12 -1.39685e+12 -1.44058e+12 -1.41033e+12 -1.47993e+12 -1.45086e+12 -1.53293e+12 -1.49187e+12 -1.5705e+12 -1.11121e+12 -1.28179e+12 -1.79542e+12 -1.8259e+12 -1.77285e+12 -1.74603e+12 -1.65982e+12 -1.36029e+12 -1.03318e+12 -1.94719e+12 -1.8871e+12 -1.76384e+12 -1.61276e+12 -1.5138e+12 -1.47065e+12 -1.49917e+12 -1.56312e+12 -1.61853e+12 -1.64585e+12 -1.88199e+12 -1.83056e+12 -1.64164e+12 -1.23957e+12 -1.10953e+12 -1.13702e+12 -1.96556e+12 -1.94663e+12 -1.73409e+12 -1.59614e+12 -1.51489e+12 -1.51129e+12 -1.57708e+12 -1.67507e+12 -1.65566e+12 -1.75286e+12 -1.70436e+12 -1.78749e+12 -1.21009e+12 -1.38965e+12 -1.98868e+12 -1.91251e+12 -1.91955e+12 -1.79569e+12 -1.51198e+12 -1.27868e+12 -1.1547e+12 -1.95681e+12 -2.16042e+12 -1.88837e+12 -1.79935e+12 -1.69363e+12 -1.663e+12 -1.57901e+12 -1.55573e+12 -1.51909e+12 -1.55786e+12 -1.57379e+12 -1.66572e+12 -1.78512e+12 -1.85134e+12 -1.31018e+12 -1.49552e+12 -2.0302e+12 -1.90791e+12 -1.74807e+12 -1.65046e+12 -1.27362e+12 -1.30841e+12 -1.10915e+12 -1.89802e+12 -1.75891e+12 -1.62364e+12 -1.52336e+12 -1.62542e+12 -1.78974e+12 -1.90197e+12 -1.94728e+12 -2.13713e+12 -2.05122e+12 -1.8653e+12 -1.22515e+12 -1.32553e+12 -1.33197e+12 -1.31576e+12 -1.45513e+12 -1.63332e+12 -1.80819e+12 -1.84509e+12 -1.7201e+12 -1.55925e+12 -1.56397e+12 -1.63199e+12 -1.7404e+12 -1.90727e+12 -1.92972e+12 -2.09476e+12 -2.02281e+12 -2.12191e+12 -1.40859e+12 -1.59914e+12 -2.31648e+12 -2.20975e+12 -2.28805e+12 -2.03413e+12 -1.89214e+12 -1.76611e+12 -1.27306e+12 -1.63329e+12 -1.82169e+12 -1.8865e+12 -1.82683e+12 -1.79931e+12 -1.65245e+12 -1.51478e+12 -1.4348e+12 -1.52461e+12 -1.72821e+12 -2.17101e+12 -2.20869e+12 -1.5017e+12 -1.69738e+12 -2.4106e+12 -2.39747e+12 -1.7056e+12 -1.03001e+12 -1.78896e+12 -1.84405e+12 -1.95311e+12 -1.9184e+12 -1.73338e+12 -1.1632e+12 -1.49102e+12 -2.26983e+12 -2.30114e+12 -2.30023e+12 -1.78909e+12 -2.50249e+12 -2.60266e+12 -2.52124e+12 -2.69944e+12 -2.70442e+12 -3.26641e+12 -1.84029e+12 -1.90039e+12 -2.10983e+12 -1.97674e+12 -2.09974e+12 -2.02206e+12 -2.13107e+12 -2.02952e+12 -2.07209e+12 -1.91088e+12 -1.83652e+12 -1.60575e+12 -1.48471e+12 -3.05913e+12 -2.5575e+12 -2.59968e+12 -2.41334e+12 -2.4948e+12 -2.39177e+12 -2.47044e+12 -1.58775e+12 -2.67769e+12 -2.72807e+12 -2.97786e+12 -3.06784e+12 -2.22117e+12 -2.22085e+12 -2.22394e+12 -2.20892e+12 -2.07934e+12 -1.61636e+12 -1.54039e+12 -3.4676e+12 -2.90092e+12 -2.63155e+12 -2.56016e+12 -1.66827e+12 -1.87665e+12 -2.77492e+12 -2.88822e+12 -3.13364e+12 -2.64822e+12 -2.6035e+12 -2.3538e+12 -2.44535e+12 -2.32265e+12 -2.42075e+12 -2.31933e+12 -2.27001e+12 -1.9439e+12 -3.30176e+12 -3.58446e+12 -3.42373e+12 -3.22269e+12 -3.03506e+12 -2.81947e+12 -2.79841e+12 -2.66654e+12 -2.70991e+12 -2.62562e+12 -1.74685e+12 -1.96274e+12 -2.83489e+12 -2.9189e+12 -2.88543e+12 -2.98299e+12 -3.0138e+12 -3.03203e+12 -2.93179e+12 -2.79697e+12 -2.61771e+12 -2.52851e+12 -2.50819e+12 -2.40057e+12 -2.48134e+12 -2.31364e+12 -2.64611e+12 -2.90521e+12 -3.37486e+12 -3.21407e+12 -2.94776e+12 -2.80826e+12 -2.76335e+12 -2.97095e+12 -2.9986e+12 -3.03892e+12 -2.96053e+12 -2.78044e+12 -2.6621e+12 -2.61104e+12 -2.59572e+12 -2.66763e+12 -2.94237e+12 -3.16069e+12 -3.27614e+12 -3.08694e+12 -2.91748e+12 -2.83804e+12 -1.82651e+12 -2.04749e+12 -3.08921e+12 -3.03771e+12 -3.09733e+12 -3.06018e+12 -3.10158e+12 -3.05415e+12 -3.03781e+12 -2.91856e+12 -2.92514e+12 -2.79924e+12 -2.84018e+12 -2.72274e+12 -2.79403e+12 -2.69478e+12 -2.79509e+12 -2.72327e+12 -2.8456e+12 -3.09402e+12 -3.21446e+12 -3.1926e+12 -3.17492e+12 -3.10663e+12 -3.02374e+12 -3.00215e+12 -2.92027e+12 -2.9445e+12 -2.88235e+12 -1.90788e+12 -2.13063e+12 -3.14487e+12 -3.14661e+12 -3.12362e+12 -3.03653e+12 -2.95396e+12 -2.89637e+12 -2.87675e+12 -2.90287e+12 -2.85796e+12 -2.97695e+12 -3.00324e+12 -3.15343e+12 -3.15284e+12 -3.07226e+12 -3.00789e+12 -2.98301e+12 -3.19812e+12 -3.19587e+12 -3.18501e+12 -3.13451e+12 -3.05892e+12 -2.99851e+12 -2.96479e+12 -2.96641e+12 -3.00375e+12 -3.07531e+12 -3.10107e+12 -3.14918e+12 -3.16182e+12 -3.15072e+12 -3.12246e+12 -3.06493e+12 -3.03212e+12 -1.99e+12 -2.21309e+12 -3.30398e+12 -3.24891e+12 -3.29644e+12 -3.2408e+12 -3.27967e+12 -3.21407e+12 -3.23971e+12 -3.15416e+12 -3.18707e+12 -3.09609e+12 -3.14474e+12 -3.05537e+12 -3.12096e+12 -3.04093e+12 -3.11878e+12 -3.05431e+12 -3.08876e+12 -3.14037e+12 -3.16249e+12 -3.14058e+12 -3.10983e+12 -3.11557e+12 -3.07806e+12 -3.10572e+12 -3.06796e+12 -2.07179e+12 -2.296e+12 -3.35289e+12 -3.34008e+12 -3.31416e+12 -3.2711e+12 -3.23023e+12 -3.20219e+12 -3.19077e+12 -3.19204e+12 -3.13245e+12 -3.19592e+12 -3.15497e+12 -3.19605e+12 -3.1725e+12 -3.15975e+12 -3.14202e+12 -3.1374e+12 -3.14179e+12 -2.38014e+12 -3.40967e+12 -3.45782e+12 -3.39908e+12 -3.44242e+12 -3.3802e+12 -3.4183e+12 -3.34818e+12 -3.38634e+12 -3.31082e+12 -3.3578e+12 -3.28164e+12 -3.33929e+12 -3.26543e+12 -3.26014e+12 -3.25557e+12 -3.24102e+12 -3.20842e+12 -3.17655e+12 -3.16813e+12 -3.15759e+12 -3.16835e+12 -3.15901e+12 -3.19108e+12 -3.17102e+12 -3.21058e+12 -2.15297e+12 -3.51621e+12 -3.50335e+12 -3.48343e+12 -3.45699e+12 -3.43019e+12 -3.41079e+12 -3.40112e+12 -3.33129e+12 -3.39712e+12 -3.32484e+12 -3.38092e+12 -3.30498e+12 -3.26126e+12 -3.18928e+12 -3.16532e+12 -3.19734e+12 -3.23425e+12 -2.23433e+12 -2.46614e+12 -3.56389e+12 -3.54635e+12 -3.52341e+12 -3.49884e+12 -3.47937e+12 -3.46847e+12 -3.46542e+12 -3.46121e+12 -3.42284e+12 -3.33436e+12 -3.33308e+12 -3.24779e+12 -3.18218e+12 -3.16041e+12 -3.18523e+12 -3.23286e+12 -3.24421e+12 -3.30382e+12 -3.28212e+12 -2.31763e+12 -2.55435e+12 -3.62382e+12 -3.67099e+12 -3.60874e+12 -3.65086e+12 -3.58737e+12 -3.62759e+12 -3.56425e+12 -3.60769e+12 -3.54491e+12 -3.59515e+12 -3.53314e+12 -3.59074e+12 -3.52966e+12 -3.59369e+12 -3.53127e+12 -3.59886e+12 -3.52292e+12 -3.43922e+12 -3.28097e+12 -3.10881e+12 -3.14997e+12 -3.1881e+12 -3.30636e+12 -3.36659e+12 -3.73242e+12 -3.71483e+12 -3.69074e+12 -3.6686e+12 -3.6546e+12 -3.64916e+12 -3.65158e+12 -3.66058e+12 -3.66982e+12 -3.58312e+12 -3.64612e+12 -3.40202e+12 -3.23189e+12 -3.1142e+12 -3.0852e+12 -3.27825e+12 -3.39177e+12 -2.40544e+12 -9035750000.0 -2.64477e+12 -3.84188e+12 -3.77897e+12 -3.82142e+12 -3.75529e+12 -3.79266e+12 -3.72949e+12 -3.76877e+12 -3.71197e+12 -3.75859e+12 -3.70508e+12 -3.75895e+12 -3.70653e+12 -3.71548e+12 -3.7312e+12 -3.74795e+12 -3.72416e+12 -2.57498e+12 -2.93554e+12 -2.98185e+12 -3.19527e+12 -3.36364e+12 -3.39504e+12 -3.51272e+12 -3.47532e+12 -2.49944e+12 -2.73704e+12 -3.88789e+12 -3.85938e+12 -3.828e+12 -3.81045e+12 -3.80867e+12 -3.81599e+12 -3.76697e+12 -3.83043e+12 -3.7827e+12 -3.85397e+12 -3.80749e+12 -3.89305e+12 -3.84072e+12 -3.9606e+12 -3.82451e+12 -2.36141e+12 -3.26047e+12 -3.5349e+12 -3.61185e+12 -2.83018e+12 -3.95245e+12 -3.99822e+12 -3.92877e+12 -3.96353e+12 -3.89272e+12 -3.92224e+12 -3.86325e+12 -3.85569e+12 -3.86221e+12 -3.87607e+12 -3.89702e+12 -3.93086e+12 -3.99514e+12 -4.29229e+12 -4.54389e+12 -4.89502e+12 -2.673e+12 -3.45137e+12 -3.53832e+12 -3.70626e+12 -3.6638e+12 -3.77309e+12 -2.60107e+12 -9035750000.0 -4.06438e+12 -4.03762e+12 -3.9912e+12 -3.95019e+12 -3.90131e+12 -3.94425e+12 -3.90493e+12 -3.9585e+12 -3.91922e+12 -3.9795e+12 -3.93904e+12 -4.00461e+12 -3.96716e+12 -4.01742e+12 -4.1773e+12 -4.66883e+12 -4.60681e+12 -3.959e+12 -3.73331e+12 -3.83717e+12 -2.71186e+12 -2.92171e+12 -4.17838e+12 -4.1102e+12 -4.14862e+12 -4.0686e+12 -4.01188e+12 -3.98236e+12 -3.99275e+12 -4.01627e+12 -4.04234e+12 -4.07307e+12 -4.0427e+12 -4.13311e+12 -4.13795e+12 -4.28297e+12 -4.40029e+12 -4.53412e+12 -4.69707e+12 -4.37002e+12 -3.97805e+12 -3.89753e+12 -4.02487e+12 -3.95195e+12 -2.83303e+12 -3.00898e+12 -4.22523e+12 -4.17618e+12 -4.08916e+12 -4.09795e+12 -4.02732e+12 -4.04937e+12 -4.02193e+12 -4.06949e+12 -4.04674e+12 -4.1066e+12 -4.0776e+12 -4.10712e+12 -4.14757e+12 -4.23593e+12 -4.3959e+12 -4.45096e+12 -4.11695e+12 -4.12486e+12 -4.03295e+12 -4.11824e+12 -4.1394e+12 -3.09478e+12 -4.29738e+12 -4.34652e+12 -4.26298e+12 -4.18885e+12 -4.0909e+12 -4.08374e+12 -4.12592e+12 -4.17148e+12 -4.14157e+12 -4.20594e+12 -4.17373e+12 -4.24035e+12 -4.22678e+12 -4.29828e+12 -4.32531e+12 -4.37075e+12 -4.41885e+12 -4.34487e+12 -4.27481e+12 -4.17784e+12 -4.18436e+12 -4.21853e+12 -4.32328e+12 -2.96373e+12 -9035750000.0 -4.43207e+12 -4.38295e+12 -4.28714e+12 -4.2915e+12 -4.18284e+12 -4.13598e+12 -4.09562e+12 -4.12177e+12 -4.13219e+12 -4.19127e+12 -4.23825e+12 -4.2675e+12 -4.30032e+12 -4.34511e+12 -4.35612e+12 -4.24668e+12 -4.21286e+12 -4.29647e+12 -4.2749e+12 -4.37947e+12 -3.09865e+12 -3.188e+12 -4.58064e+12 -4.49414e+12 -4.55127e+12 -4.40047e+12 -4.26487e+12 -4.10971e+12 -4.17583e+12 -4.19562e+12 -4.27615e+12 -4.26371e+12 -4.33158e+12 -4.30062e+12 -4.35482e+12 -4.32203e+12 -4.34383e+12 -4.3555e+12 -4.2901e+12 -4.23714e+12 -4.22179e+12 -4.28842e+12 -4.4053e+12 -4.48406e+12 -3.22678e+12 -3.30039e+12 -4.65386e+12 -4.62331e+12 -4.37245e+12 -4.21546e+12 -4.14602e+12 -4.12329e+12 -4.26947e+12 -4.35297e+12 -4.38854e+12 -4.39922e+12 -4.36385e+12 -4.38601e+12 -4.36215e+12 -4.34567e+12 -4.31258e+12 -4.24195e+12 -4.26226e+12 -4.39986e+12 -4.52838e+12 -4.52049e+12 -4.62686e+12 -3.45421e+12 -4.72698e+12 -4.8027e+12 -4.72848e+12 -4.83657e+12 -4.74058e+12 -4.87787e+12 -3.66391e+12 -4.05865e+12 -4.11743e+12 -4.22789e+12 -4.35699e+12 -4.36324e+12 -4.41244e+12 -4.43836e+12 -4.42911e+12 -4.37993e+12 -4.25667e+12 -4.22541e+12 -4.30633e+12 -4.36721e+12 -4.51104e+12 -4.65423e+12 -4.76237e+12 -3.34289e+12 -4.86146e+12 -4.88498e+12 -5.00291e+12 -5.44765e+12 -3.44148e+12 -4.31593e+12 -4.4414e+12 -4.42951e+12 -4.47216e+12 -4.45915e+12 -4.50264e+12 -4.48542e+12 -4.53183e+12 -4.4332e+12 -4.38584e+12 -4.33106e+12 -4.13376e+12 -4.16053e+12 -4.19964e+12 -4.46983e+12 -4.65169e+12 -4.65906e+12 -4.79047e+12 -3.44298e+12 -3.65872e+12 -4.9366e+12 -4.92745e+12 -5.01665e+12 -5.01029e+12 -5.22094e+12 -5.3422e+12 -5.66828e+12 -5.72948e+12 -5.29174e+12 -3.8091e+12 -4.28707e+12 -4.44391e+12 -4.48415e+12 -4.50661e+12 -4.54796e+12 -4.57985e+12 -4.21976e+12 -3.97036e+12 -4.39399e+12 -4.64258e+12 -4.80292e+12 -4.93315e+12 -4.89954e+12 -3.51984e+12 -3.81991e+12 -5.04598e+12 -5.14733e+12 -5.40726e+12 -5.60241e+12 -4.74968e+12 -4.45085e+12 -4.49462e+12 -4.51979e+12 -4.51152e+12 -4.54163e+12 -4.59744e+12 -4.65455e+12 -4.63393e+12 -4.65501e+12 -3.4881e+12 -3.47451e+12 -4.23847e+12 -4.64873e+12 -4.8169e+12 -4.94708e+12 -5.03509e+12 -4.36152e+12 -4.97075e+12 -5.04863e+12 -5.29993e+12 -5.49726e+12 -5.22536e+12 -4.62667e+12 -4.51298e+12 -4.53781e+12 -4.53646e+12 -4.56428e+12 -4.58011e+12 -4.62377e+12 -4.71205e+12 -5.3449e+12 -5.5203e+12 -4.53201e+12 -4.90405e+12 -4.88352e+12 -5.07358e+12 -5.23675e+12 -5.02584e+12 -5.00266e+12 -3.54901e+12 -4.70916e+12 -5.62146e+12 -6.26238e+12 -4.81375e+12 -4.41685e+12 -5.22409e+12 -5.38014e+12 -5.39853e+12 -5.39996e+12 -5.38251e+12 -5.1367e+12 -4.89175e+12 -4.74127e+12 -4.58849e+12 -4.54003e+12 -4.55779e+12 -4.5954e+12 -4.67263e+12 -5.03344e+12 -5.42839e+12 -4.87723e+12 -5.07827e+12 -5.15351e+12 -5.35464e+12 -5.40668e+12 -3.335e+12 -5.48839e+12 -5.08442e+12 -4.64615e+12 -6.74389e+12 -5.83337e+12 -6.51602e+12 -5.11325e+12 -5.40911e+12 -5.26791e+12 -4.91873e+12 -4.66314e+12 -4.57671e+12 -4.57792e+12 -4.5593e+12 -4.58057e+12 -4.58094e+12 -4.60676e+12 -4.63173e+12 -4.7177e+12 -4.82976e+12 -5.07457e+12 -5.25798e+12 -5.05934e+12 -5.23442e+12 -5.39337e+12 -5.55414e+12 -5.70345e+12 -5.31214e+12 -6.33876e+12 -5.23108e+12 -4.99757e+12 -7.39884e+12 -6.68678e+12 -6.56619e+12 -6.53294e+12 -5.75703e+12 -5.6308e+12 -5.33785e+12 -5.3307e+12 -5.33211e+12 -5.1735e+12 -5.07094e+12 -4.78305e+12 -4.62454e+12 -4.59193e+12 -4.60208e+12 -4.65373e+12 -4.85274e+12 -5.19964e+12 -5.14908e+12 -5.2178e+12 -5.35256e+12 -5.45151e+12 -5.54952e+12 -5.73351e+12 -6.31192e+12 -7.44222e+12 -7.51069e+12 -5.12781e+12 -5.02555e+12 -4.87295e+12 -7.58283e+12 -7.67586e+12 -7.23741e+12 -6.73346e+12 -6.4142e+12 -6.46845e+12 -6.15426e+12 -5.45926e+12 -5.20729e+12 -5.01908e+12 -4.90746e+12 -4.78743e+12 -4.70086e+12 -4.61577e+12 -4.61416e+12 -4.62898e+12 -4.72347e+12 -4.76284e+12 -4.95718e+12 -5.06262e+12 -5.15417e+12 -5.33121e+12 -5.30167e+12 -5.31722e+12 -5.51738e+12 -6.31075e+12 -6.63148e+12 -6.67952e+12 -7.28711e+12 -7.38617e+12 -7.54774e+12 -4.97269e+12 -4.81853e+12 -4.80764e+12 -7.38022e+12 -7.16897e+12 -7.38801e+12 -7.21347e+12 -6.65133e+12 -6.74626e+12 -6.46376e+12 -5.82045e+12 -5.46079e+12 -5.26013e+12 -5.09563e+12 -4.87336e+12 -4.7214e+12 -4.65892e+12 -4.65262e+12 -4.63022e+12 -4.65442e+12 -4.63702e+12 -4.65442e+12 -4.66241e+12 -4.66352e+12 -4.77967e+12 -5.11802e+12 -5.37654e+12 -5.35239e+12 -5.27021e+12 -5.10253e+12 -5.96284e+12 -6.59406e+12 -6.81559e+12 -7.21151e+12 -7.43473e+12 -7.54604e+12 -7.58958e+12 -4.93167e+12 -4.9376e+12 -4.92299e+12 -7.19794e+12 -7.30967e+12 -7.0993e+12 -7.10771e+12 -6.93398e+12 -6.46193e+12 -6.32928e+12 -6.36476e+12 -7.04848e+12 -5.89008e+12 -5.2968e+12 -5.14588e+12 -5.03041e+12 -4.95606e+12 -4.7701e+12 -4.69444e+12 -4.66908e+12 -4.67347e+12 -4.64599e+12 -4.54312e+12 -4.87521e+12 -5.35975e+12 -5.36516e+12 -5.37394e+12 -5.43913e+12 -5.40325e+12 -6.64072e+12 -6.92143e+12 -7.13769e+12 -7.30215e+12 -7.33601e+12 -7.40884e+12 -7.47693e+12 -7.56066e+12 -5.03218e+12 -4.68245e+12 -4.76696e+12 -7.19341e+12 -7.15739e+12 -7.25054e+12 -6.99566e+12 -7.08752e+12 -5.93874e+12 -6.84453e+12 -5.59283e+12 -6.32493e+12 -5.65608e+12 -5.10586e+12 -4.85701e+12 -4.80161e+12 -4.73939e+12 -4.74959e+12 -4.74814e+12 -4.69503e+12 -4.68566e+12 -4.68422e+12 -4.67633e+12 -4.64644e+12 -4.5504e+12 -3.73514e+12 -4.13474e+12 -5.74347e+12 -5.36908e+12 -5.32655e+12 -5.34845e+12 -5.3988e+12 -5.60431e+12 -5.98694e+12 -6.30408e+12 -6.57788e+12 -6.96125e+12 -7.24544e+12 -7.34146e+12 -7.26968e+12 -7.43238e+12 -7.50088e+12 -7.70981e+12 -4.89875e+12 -4.4286e+12 -7.42454e+12 -7.68026e+12 -7.25624e+12 -6.55649e+12 -6.90908e+12 -7.37379e+12 -7.42123e+12 -7.12577e+12 -6.18395e+12 -5.51224e+12 -5.63397e+12 -6.05088e+12 -5.86016e+12 -5.39146e+12 -4.95407e+12 -4.67452e+12 -4.81946e+12 -4.74585e+12 -4.70405e+12 -4.69363e+12 -4.65275e+12 -4.32996e+12 -5.8334e+12 -5.58122e+12 -5.38984e+12 -5.33668e+12 -5.51779e+12 -5.80244e+12 -6.35137e+12 -6.23987e+12 -7.24193e+12 -7.24578e+12 -7.25961e+12 -7.40418e+12 -6.93978e+12 -7.17323e+12 -7.52305e+12 -4.46819e+12 -4.22871e+12 -4.05922e+12 -7.12723e+12 -7.40482e+12 -7.13783e+12 -6.65066e+12 -7.10176e+12 -7.19838e+12 -7.27729e+12 -6.93375e+12 -6.2569e+12 -6.25007e+12 -6.97402e+12 -6.25765e+12 -5.96016e+12 -5.42931e+12 -5.00111e+12 -4.7917e+12 -4.69425e+12 -4.73653e+12 -4.82837e+12 -4.72063e+12 -4.63817e+12 -4.64781e+12 -4.56332e+12 -4.52816e+12 -4.82117e+12 -5.08302e+12 -5.49004e+12 -5.79253e+12 -5.50821e+12 -5.31275e+12 -5.34058e+12 -5.43562e+12 -5.66932e+12 -6.12903e+12 -6.25771e+12 -6.72301e+12 -6.64425e+12 -6.3499e+12 -6.90245e+12 -6.39036e+12 -7.48712e+12 -7.31969e+12 -7.08355e+12 -7.19051e+12 -4.55586e+12 -4.58609e+12 -4.19875e+12 -7.17682e+12 -7.19302e+12 -7.06938e+12 -7.34585e+12 -6.93831e+12 -6.34803e+12 -6.66706e+12 -7.1446e+12 -6.90681e+12 -6.62088e+12 -6.58107e+12 -6.51138e+12 -5.96461e+12 -5.69276e+12 -5.0462e+12 -4.65952e+12 -4.46898e+12 -4.82722e+12 -4.96543e+12 -4.88646e+12 -4.79367e+12 -4.67689e+12 -4.54445e+12 -4.67425e+12 -5.07583e+12 -5.4262e+12 -5.27903e+12 -5.21878e+12 -5.50812e+12 -5.77962e+12 -5.98257e+12 -6.35315e+12 -6.44922e+12 -5.62818e+12 -6.25209e+12 -5.74863e+12 -7.15879e+12 -7.15843e+12 -7.29428e+12 -7.4939e+12 -7.30406e+12 -7.28781e+12 -4.61987e+12 -4.8015e+12 -4.72075e+12 -7.59558e+12 -7.49082e+12 -7.40183e+12 -7.49394e+12 -7.28888e+12 -7.3612e+12 -6.38183e+12 -7.10215e+12 -6.78187e+12 -6.71254e+12 -6.63172e+12 -6.66081e+12 -6.41513e+12 -6.63843e+12 -5.99758e+12 -5.5816e+12 -5.36413e+12 -4.70122e+12 -4.29356e+12 -5.11067e+12 -4.93579e+12 -4.8092e+12 -4.48247e+12 -4.56996e+12 -4.85641e+12 -5.14901e+12 -5.16132e+12 -5.30393e+12 -5.00305e+12 -5.29549e+12 -5.50338e+12 -6.10103e+12 -6.55587e+12 -6.68816e+12 -5.44809e+12 -6.21015e+12 -5.92452e+12 -6.59381e+12 -6.72301e+12 -6.54102e+12 -7.05108e+12 -7.46975e+12 -7.46922e+12 -7.22282e+12 -6.54476e+12 -7.45744e+12 -4.78566e+12 -4.73452e+12 -4.74565e+12 -7.53816e+12 -7.4212e+12 -7.34752e+12 -7.5422e+12 -6.89519e+12 -6.86736e+12 -6.91353e+12 -6.79778e+12 -6.60166e+12 -6.4639e+12 -6.51547e+12 -6.42234e+12 -6.34802e+12 -6.19748e+12 -5.52504e+12 -5.20568e+12 -5.04607e+12 -4.67788e+12 -4.38954e+12 -4.95534e+12 -5.35319e+12 -5.71444e+12 -4.41077e+12 -4.45622e+12 -4.39693e+12 -4.49399e+12 -4.47803e+12 -4.65856e+12 -4.81855e+12 -4.99156e+12 -4.87809e+12 -5.13682e+12 -5.03268e+12 -5.18025e+12 -5.77566e+12 -5.99145e+12 -6.29583e+12 -5.85893e+12 -6.76384e+12 -7.24437e+12 -6.58576e+12 -6.82635e+12 -6.77908e+12 -6.80577e+12 -7.01691e+12 -7.24471e+12 -6.64567e+12 -6.8568e+12 -7.37069e+12 -4.62148e+12 -3.60774e+12 -4.63004e+12 -7.41806e+12 -7.45309e+12 -7.32274e+12 -7.4009e+12 -7.25502e+12 -7.18464e+12 -7.36939e+12 -7.08673e+12 -7.02802e+12 -6.84773e+12 -6.39294e+12 -5.81947e+12 -5.7374e+12 -6.13465e+12 -6.22034e+12 -6.15726e+12 -5.94221e+12 -5.76957e+12 -5.26459e+12 -5.13371e+12 -4.65497e+12 -4.76604e+12 -2.77795e+12 -4.7317e+12 -3.72986e+12 -4.45166e+12 -4.37076e+12 -4.55262e+12 -4.97929e+12 -4.97537e+12 -4.91881e+12 -4.48933e+12 -4.70057e+12 -5.47668e+12 -5.66262e+12 -5.69089e+12 -6.22783e+12 -6.35571e+12 -6.74676e+12 -7.07126e+12 -6.71275e+12 -6.76099e+12 -6.85407e+12 -6.90773e+12 -6.95868e+12 -7.0531e+12 -6.70878e+12 -6.57836e+12 -3.94183e+12 -4.40777e+12 -4.51911e+12 -7.27252e+12 -7.22492e+12 -7.16155e+12 -7.01414e+12 -6.86642e+12 -7.04737e+12 -6.95216e+12 -6.70035e+12 -6.66542e+12 -6.46771e+12 -6.15753e+12 -6.52136e+12 -6.80197e+12 -6.53808e+12 -6.38259e+12 -6.17199e+12 -5.82044e+12 -5.50054e+12 -4.78926e+12 -4.55129e+12 -3.33597e+12 -4.81918e+12 -4.41452e+12 -5.17005e+12 -4.59803e+12 -4.05603e+12 -4.0967e+12 -4.29947e+12 -4.40626e+12 -4.72699e+12 -4.85481e+12 -4.55603e+12 -5.03382e+12 -5.92032e+12 -3.15205e+12 -4.63607e+12 -5.11014e+12 -5.32708e+12 -5.23337e+12 -5.79681e+12 -6.04742e+12 -6.0284e+12 -6.34656e+12 -6.53469e+12 -6.71016e+12 -6.63654e+12 -6.72971e+12 -6.80189e+12 -6.81482e+12 -6.80721e+12 -6.70945e+12 -6.782e+12 -6.1364e+12 -6.68535e+12 -6.83363e+12 -6.99213e+12 -7.27493e+12 -4.42736e+12 -4.31945e+12 -7.11878e+12 -7.056e+12 -7.22045e+12 -6.94744e+12 -7.06599e+12 -6.88832e+12 -6.70894e+12 -6.79184e+12 -6.52802e+12 -6.2744e+12 -6.07464e+12 -6.45475e+12 -6.77899e+12 -6.65547e+12 -6.36328e+12 -6.1224e+12 -5.64609e+12 -4.72963e+12 -4.43816e+12 -5.39297e+12 -4.94912e+12 -4.24453e+12 -3.15516e+12 -4.78851e+12 -4.70838e+12 -5.69424e+12 -4.06451e+12 -3.6953e+12 -4.2206e+12 -3.82177e+12 -4.88955e+12 -5.86333e+12 -3.26046e+12 -4.99536e+12 -5.0215e+12 -5.15101e+12 -5.52128e+12 -5.74422e+12 -4.56125e+12 -6.48782e+12 -5.11436e+12 -5.7593e+12 -5.96549e+12 -6.18771e+12 -6.33386e+12 -6.50155e+12 -6.54266e+12 -6.61884e+12 -6.65885e+12 -6.64863e+12 -6.56384e+12 -6.58498e+12 -7.14026e+12 -6.59618e+12 -6.80833e+12 -7.06959e+12 -7.24405e+12 -4.54745e+12 -4.54855e+12 -4.29457e+12 -6.87852e+12 -6.96698e+12 -6.88578e+12 -6.82418e+12 -7.02514e+12 -6.77144e+12 -6.51885e+12 -6.4411e+12 -6.66217e+12 -6.64636e+12 -6.55065e+12 -6.09339e+12 -5.04545e+12 -6.03552e+12 -6.34301e+12 -6.47793e+12 -6.48049e+12 -6.31009e+12 -6.01404e+12 -5.76159e+12 -6.14174e+12 -6.13048e+12 -4.56952e+12 -4.10228e+12 -4.1919e+12 -4.65661e+12 -4.87764e+12 -3.81919e+12 -5.93754e+12 -4.34706e+12 -3.59409e+12 -3.79134e+12 -4.93564e+12 -4.97194e+12 -4.00447e+12 -3.99376e+12 -4.83218e+12 -5.20385e+12 -5.49035e+12 -6.05712e+12 -5.84334e+12 -5.94695e+12 -6.01221e+12 -6.10904e+12 -6.2163e+12 -6.34556e+12 -6.41144e+12 -6.48519e+12 -6.54129e+12 -6.56676e+12 -6.72089e+12 -6.75238e+12 -6.98822e+12 -6.68599e+12 -6.84527e+12 -7.09238e+12 -6.97221e+12 -7.05755e+12 -4.48901e+12 -4.24084e+12 -4.27696e+12 -6.75032e+12 -6.83518e+12 -6.82483e+12 -6.78507e+12 -6.5873e+12 -6.32027e+12 -6.30044e+12 -6.40411e+12 -6.40963e+12 -5.81442e+12 -6.49457e+12 -6.09916e+12 -6.26623e+12 -6.2848e+12 -5.78424e+12 -5.89259e+12 -6.02032e+12 -5.55143e+12 -4.99446e+12 -4.3099e+12 -4.36119e+12 -4.61894e+12 -4.22256e+12 -4.58768e+12 -3.74689e+12 -2.40699e+12 -5.13241e+12 -2.19053e+12 -3.82644e+12 -4.42101e+12 -4.59433e+12 -4.69894e+12 -4.75526e+12 -4.53962e+12 -4.93045e+12 -5.18593e+12 -5.99342e+12 -6.27817e+12 -6.01103e+12 -5.90725e+12 -5.94419e+12 -5.9622e+12 -6.01536e+12 -6.09638e+12 -6.18683e+12 -6.24896e+12 -6.31228e+12 -6.3613e+12 -6.4436e+12 -6.51881e+12 -6.87944e+12 -6.6433e+12 -6.6292e+12 -6.80027e+12 -6.7742e+12 -6.83233e+12 -6.61913e+12 -4.44223e+12 -4.31532e+12 -4.17196e+12 -6.54891e+12 -6.52606e+12 -6.72168e+12 -6.72949e+12 -6.78774e+12 -6.88351e+12 -6.87232e+12 -5.80211e+12 -6.30723e+12 -6.2715e+12 -6.30774e+12 -6.54603e+12 -6.16406e+12 -5.01558e+12 -6.02482e+12 -6.4842e+12 -6.58898e+12 -6.14291e+12 -5.49015e+12 -5.53382e+12 -5.33707e+12 -5.03196e+12 -4.63849e+12 -4.35251e+12 -4.32166e+12 -4.29279e+12 -4.52661e+12 -3.266e+12 -3.90193e+12 -3.48618e+12 -4.04251e+12 -4.33952e+12 -4.57994e+12 -4.69832e+12 -4.71133e+12 -4.94504e+12 -5.51831e+12 -5.75409e+12 -5.89012e+12 -5.83008e+12 -5.8154e+12 -5.8325e+12 -5.85199e+12 -5.89604e+12 -6.07273e+12 -6.13038e+12 -6.20204e+12 -6.24683e+12 -6.44777e+12 -6.59051e+12 -6.4244e+12 -6.50203e+12 -6.65122e+12 -6.45029e+12 -6.55802e+12 -6.64751e+12 -6.58829e+12 -4.171e+12 -4.13073e+12 -3.98294e+12 -5.93259e+12 -6.288e+12 -6.25459e+12 -6.53787e+12 -6.56053e+12 -6.89049e+12 -6.36081e+12 -5.95875e+12 -6.39747e+12 -6.41438e+12 -6.55197e+12 -6.78815e+12 -7.13872e+12 -6.58487e+12 -6.06976e+12 -5.93336e+12 -6.08757e+12 -6.46287e+12 -6.21305e+12 -5.60717e+12 -5.07242e+12 -5.04368e+12 -4.94039e+12 -4.71775e+12 -4.45037e+12 -4.34552e+12 -4.32647e+12 -4.39099e+12 -4.5043e+12 -3.63864e+12 -3.84054e+12 -4.31674e+12 -4.4432e+12 -4.38441e+12 -4.53275e+12 -4.65157e+12 -5.19611e+12 -5.38948e+12 -5.52762e+12 -5.63745e+12 -5.64853e+12 -5.66082e+12 -5.95501e+12 -6.01764e+12 -6.03745e+12 -6.09673e+12 -6.1784e+12 -6.2632e+12 -6.21251e+12 -6.29772e+12 -6.2207e+12 -6.30245e+12 -6.45857e+12 -6.45465e+12 -4.05244e+12 -3.97328e+12 -3.83851e+12 -3.8881e+12 -5.97393e+12 -5.45569e+12 -5.91668e+12 -5.9992e+12 -6.2886e+12 -6.30568e+12 -6.314e+12 -6.59325e+12 -6.4554e+12 -6.27522e+12 -6.08831e+12 -6.53132e+12 -6.69206e+12 -6.817e+12 -6.42827e+12 -5.75829e+12 -5.57079e+12 -5.83938e+12 -5.63246e+12 -5.36337e+12 -4.66662e+12 -4.46765e+12 -4.85301e+12 -4.82379e+12 -4.70064e+12 -4.52017e+12 -4.35752e+12 -4.28605e+12 -4.27732e+12 -4.23864e+12 -4.31078e+12 -4.22309e+12 -4.267e+12 -4.06417e+12 -3.93277e+12 -4.07929e+12 -4.24279e+12 -4.33514e+12 -4.37117e+12 -4.48977e+12 -4.74718e+12 -4.94539e+12 -5.1149e+12 -5.23799e+12 -5.34474e+12 -5.43355e+12 -5.46568e+12 -5.68405e+12 -5.71257e+12 -5.75124e+12 -5.79587e+12 -5.84412e+12 -5.90288e+12 -5.97249e+12 -5.8827e+12 -5.79151e+12 -5.84682e+12 -6.02144e+12 -5.51725e+12 -5.82537e+12 -5.97839e+12 -5.85226e+12 -6.2168e+12 -6.37675e+12 -6.36452e+12 -6.40667e+12 -3.83976e+12 -3.60636e+12 -6.37293e+12 -6.63785e+12 -5.52737e+12 -5.70128e+12 -6.02807e+12 -6.03586e+12 -6.25106e+12 -6.20049e+12 -6.11331e+12 -6.29495e+12 -6.37704e+12 -6.39124e+12 -6.1024e+12 -5.85884e+12 -5.67496e+12 -5.51278e+12 -5.54088e+12 -5.38061e+12 -5.11383e+12 -4.97037e+12 -4.97333e+12 -4.98078e+12 -4.90933e+12 -4.49813e+12 -4.36802e+12 -4.25212e+12 -4.19456e+12 -4.1525e+12 -4.16112e+12 -4.12801e+12 -4.11624e+12 -4.02724e+12 -3.89578e+12 -3.78053e+12 -3.91147e+12 -3.93482e+12 -4.06735e+12 -4.17543e+12 -4.26003e+12 -4.60709e+12 -4.73534e+12 -4.87937e+12 -4.99432e+12 -5.09009e+12 -5.17713e+12 -5.49389e+12 -5.52489e+12 -5.55601e+12 -5.59074e+12 -5.62836e+12 -5.67331e+12 -5.74698e+12 -5.81518e+12 -5.60417e+12 -5.40515e+12 -4.89885e+12 -4.84063e+12 -5.66362e+12 -5.68472e+12 -5.6837e+12 -4.6639e+12 -6.63927e+12 -6.44483e+12 -6.18877e+12 -6.27757e+12 -6.09697e+12 -3.66763e+12 -3.2559e+12 -5.34685e+12 -5.94606e+12 -6.11679e+12 -5.51655e+12 -4.26622e+12 -5.30019e+12 -5.75007e+12 -5.76213e+12 -6.00485e+12 -5.97954e+12 -5.93639e+12 -6.00637e+12 -6.07915e+12 -6.05281e+12 -5.84753e+12 -5.70889e+12 -5.59337e+12 -5.39649e+12 -5.27323e+12 -5.20615e+12 -5.01044e+12 -4.8982e+12 -4.82264e+12 -4.80894e+12 -4.75974e+12 -4.68972e+12 -4.60669e+12 -4.22335e+12 -4.13463e+12 -4.07573e+12 -4.05104e+12 -4.02485e+12 -4.00699e+12 -3.95634e+12 -3.88806e+12 -3.82984e+12 -3.80894e+12 -3.88272e+12 -3.93522e+12 -4.02542e+12 -4.11164e+12 -4.33326e+12 -4.43951e+12 -4.55711e+12 -4.67103e+12 -4.77541e+12 -4.86431e+12 -5.25062e+12 -5.29094e+12 -5.326e+12 -5.35783e+12 -5.38723e+12 -5.41669e+12 -5.44637e+12 -5.4826e+12 -5.56696e+12 -5.99494e+12 -6.45664e+12 -6.24868e+12 -5.66527e+12 -5.56789e+12 -5.41795e+12 -5.66971e+12 -6.24866e+12 -6.14313e+12 -5.8636e+12 -6.00855e+12 -5.88565e+12 -3.47304e+12 -3.24944e+12 -2.91316e+12 -2.76107e+12 -3.98549e+12 -5.58495e+12 -5.44669e+12 -5.0564e+12 -5.32344e+12 -5.45071e+12 -5.49707e+12 -5.48987e+12 -5.74772e+12 -5.73043e+12 -5.69887e+12 -5.87594e+12 -5.79503e+12 -5.75726e+12 -5.61038e+12 -5.49164e+12 -5.39391e+12 -5.25614e+12 -5.09998e+12 -4.98495e+12 -4.87695e+12 -4.78209e+12 -4.71382e+12 -4.65483e+12 -4.61655e+12 -4.56256e+12 -4.49306e+12 -4.41684e+12 -4.3275e+12 -3.96337e+12 -3.93064e+12 -3.90782e+12 -3.876e+12 -3.83357e+12 -3.79465e+12 -3.77284e+12 -3.78464e+12 -3.83927e+12 -3.89537e+12 -4.1948e+12 -4.27754e+12 -4.37807e+12 -4.48193e+12 -4.57414e+12 -4.65582e+12 -4.94449e+12 -5.01716e+12 -5.07817e+12 -5.11959e+12 -5.15431e+12 -5.18364e+12 -5.20864e+12 -5.23354e+12 -5.2584e+12 -5.2771e+12 -5.44908e+12 -5.58428e+12 -6.1427e+12 -6.34192e+12 -6.02577e+12 -5.71141e+12 -5.43617e+12 -4.9804e+12 -5.53671e+12 -5.77578e+12 -5.38468e+12 -5.64815e+12 -5.80432e+12 -5.51852e+12 -5.62829e+12 -3.0445e+12 -2.90905e+12 -5.3423e+12 -6.25837e+12 -4.91012e+12 -5.20373e+12 -5.44016e+12 -5.16467e+12 -5.32377e+12 -5.2868e+12 -5.4715e+12 -5.44452e+12 -5.64872e+12 -5.58039e+12 -5.48515e+12 -5.37484e+12 -5.26822e+12 -5.16966e+12 -5.05928e+12 -4.93787e+12 -4.80979e+12 -4.70911e+12 -4.64067e+12 -4.57896e+12 -4.52449e+12 -4.47482e+12 -4.43255e+12 -4.37622e+12 -4.31376e+12 -4.24618e+12 -4.16729e+12 -4.08234e+12 -4.00884e+12 -3.96932e+12 -4.0475e+12 -4.12631e+12 -4.20899e+12 -4.29942e+12 -4.38431e+12 -4.7298e+12 -4.79873e+12 -4.86001e+12 -4.9111e+12 -4.94998e+12 -4.98116e+12 -5.00452e+12 -5.01761e+12 -5.02101e+12 -5.00358e+12 -4.93466e+12 -5.10087e+12 -5.80909e+12 -5.75343e+12 -5.8495e+12 -5.9077e+12 -5.72751e+12 -5.55964e+12 -5.29887e+12 -5.10492e+12 -5.33996e+12 -5.15759e+12 -5.17308e+12 -4.79594e+12 -5.29933e+12 -5.34911e+12 -5.41232e+12 -5.19899e+12 -2.86893e+12 -2.82102e+12 -5.33099e+12 -5.68567e+12 -5.58761e+12 -5.45087e+12 -5.30604e+12 -5.24819e+12 -5.08276e+12 -5.19259e+12 -5.13077e+12 -5.23377e+12 -5.19174e+12 -5.401e+12 -5.33473e+12 -5.24575e+12 -5.13458e+12 -5.03895e+12 -4.94567e+12 -4.85085e+12 -4.75551e+12 -4.65494e+12 -4.55665e+12 -4.48609e+12 -4.43424e+12 -4.38575e+12 -4.34044e+12 -4.29853e+12 -4.25518e+12 -4.20444e+12 -4.14807e+12 -4.08623e+12 -4.01726e+12 -3.94678e+12 -3.88895e+12 -3.84733e+12 -3.81735e+12 -3.78943e+12 -3.76025e+12 -3.73101e+12 -3.71162e+12 -3.70999e+12 -3.73437e+12 -3.78184e+12 -3.83809e+12 -3.90485e+12 -3.97539e+12 -4.0481e+12 -4.12575e+12 -4.45873e+12 -4.52729e+12 -4.59173e+12 -4.65115e+12 -4.70245e+12 -4.74599e+12 -4.78167e+12 -4.80911e+12 -4.82442e+12 -4.81892e+12 -4.77543e+12 -4.62968e+12 -3.82146e+12 -5.46302e+12 -5.73036e+12 -5.64652e+12 -5.58511e+12 -5.42904e+12 -5.00692e+12 -5.14228e+12 -4.34748e+12 -3.95952e+12 -5.38304e+12 -5.24345e+12 -5.28262e+12 -5.15104e+12 -5.16178e+12 -4.982e+12 -2.72582e+12 -2.61063e+12 -2.69428e+12 -4.83659e+12 -5.12578e+12 -5.24644e+12 -5.75707e+12 -5.35137e+12 -5.33763e+12 -5.20788e+12 -5.01235e+12 -4.9119e+12 -5.04656e+12 -4.94611e+12 -4.88256e+12 -5.14515e+12 -5.08039e+12 -4.99362e+12 -4.89368e+12 -4.80053e+12 -4.71577e+12 -4.20399e+12 -4.16579e+12 -4.12793e+12 -4.08831e+12 -4.04235e+12 -3.99092e+12 -3.93488e+12 -3.87554e+12 -3.81844e+12 -3.77029e+12 -3.73404e+12 -3.70426e+12 -3.67765e+12 -3.65397e+12 -3.63549e+12 -3.62951e+12 -3.6403e+12 -3.66916e+12 -3.7147e+12 -3.76794e+12 -3.828e+12 -3.89184e+12 -4.20202e+12 -4.27085e+12 -4.3343e+12 -4.39378e+12 -4.44962e+12 -4.50031e+12 -4.54379e+12 -4.58293e+12 -4.618e+12 -4.6457e+12 -4.66253e+12 -6.14231e+12 -5.88563e+12 -5.451e+12 -5.35011e+12 -5.24258e+12 -5.11765e+12 -4.83309e+12 -4.7718e+12 -5.62961e+12 -6.09023e+12 -5.34373e+12 -5.18941e+12 -4.97256e+12 -4.96088e+12 -4.74693e+12 -4.75559e+12 -2.51028e+12 -2.37028e+12 -2.54722e+12 -4.51128e+12 -4.88879e+12 -4.91277e+12 -5.28334e+12 -5.19267e+12 -4.97304e+12 -5.14565e+12 -5.04138e+12 -4.95036e+12 -5.08484e+12 -4.9369e+12 -4.78856e+12 -4.61337e+12 -4.81321e+12 -4.72419e+12 -4.63089e+12 -4.54951e+12 -4.63546e+12 -4.56189e+12 -4.4897e+12 -4.41312e+12 -4.34339e+12 -4.28911e+12 -4.24465e+12 -3.88694e+12 -3.83955e+12 -3.78968e+12 -3.73947e+12 -3.69217e+12 -3.65178e+12 -3.61908e+12 -3.59154e+12 -3.56876e+12 -3.55094e+12 -3.54182e+12 -3.54503e+12 -3.56263e+12 -3.59485e+12 -3.6378e+12 -3.68706e+12 -3.96041e+12 -4.02839e+12 -4.0913e+12 -4.14982e+12 -4.20404e+12 -4.25461e+12 -4.30239e+12 -4.34551e+12 -4.3836e+12 -4.66383e+12 -4.63239e+12 -4.25672e+12 -5.28593e+12 -5.75319e+12 -5.59188e+12 -5.03045e+12 -4.90339e+12 -4.80245e+12 -4.73828e+12 -5.0892e+12 -5.67587e+12 -5.64246e+12 -5.32092e+12 -5.13953e+12 -5.02565e+12 -4.82947e+12 -4.77096e+12 -4.50975e+12 -4.50704e+12 -2.40062e+12 -2.16415e+12 -4.14247e+12 -4.18929e+12 -4.54462e+12 -4.5758e+12 -4.88716e+12 -4.80228e+12 -4.84312e+12 -4.77385e+12 -4.85396e+12 -4.72981e+12 -4.80418e+12 -4.66896e+12 -4.51453e+12 -4.5305e+12 -4.42713e+12 -4.33539e+12 -4.27094e+12 -4.47744e+12 -4.41236e+12 -4.3575e+12 -4.30836e+12 -4.25584e+12 -4.20054e+12 -4.14822e+12 -4.10448e+12 -4.06665e+12 -4.03173e+12 -3.99869e+12 -3.96535e+12 -3.92922e+12 -3.6062e+12 -3.56648e+12 -3.53188e+12 -3.50282e+12 -3.47878e+12 -3.46041e+12 -3.44892e+12 -3.44674e+12 -3.45613e+12 -3.4787e+12 -3.74248e+12 -3.8018e+12 -3.86187e+12 -3.91822e+12 -3.97147e+12 -4.02081e+12 -4.06623e+12 -4.10957e+12 -4.15049e+12 -4.42084e+12 -4.45633e+12 -4.4858e+12 -4.50886e+12 -4.52464e+12 -4.45492e+12 -4.82821e+12 -5.07509e+12 -5.25374e+12 -5.20361e+12 -5.11661e+12 -4.69759e+12 -4.52592e+12 -4.55748e+12 -4.71944e+12 -5.24697e+12 -5.02757e+12 -5.1833e+12 -5.07526e+12 -4.9274e+12 -4.61648e+12 -4.54941e+12 -4.23384e+12 -4.2056e+12 -3.82791e+12 -2.27379e+12 -1.92781e+12 -3.72912e+12 -3.78903e+12 -4.22896e+12 -4.25659e+12 -4.57747e+12 -4.54562e+12 -4.67986e+12 -4.58892e+12 -4.70482e+12 -4.6327e+12 -4.55602e+12 -4.42194e+12 -4.19215e+12 -4.07732e+12 -3.98279e+12 -4.22041e+12 -4.17663e+12 -4.14159e+12 -4.11356e+12 -4.08321e+12 -4.04601e+12 -4.00448e+12 -3.96425e+12 -3.92871e+12 -3.89729e+12 -3.86768e+12 -3.83881e+12 -3.80887e+12 -3.7752e+12 -3.73593e+12 -3.69303e+12 -3.64914e+12 -3.5113e+12 -3.55148e+12 -3.59802e+12 -3.64849e+12 -3.70036e+12 -3.75037e+12 -3.79832e+12 -3.84319e+12 -3.8839e+12 -4.18753e+12 -4.22246e+12 -4.25853e+12 -4.29294e+12 -4.32304e+12 -4.35083e+12 -4.36291e+12 -4.56873e+12 -4.69837e+12 -4.78239e+12 -4.87398e+12 -4.85176e+12 -4.78447e+12 -3.98509e+12 -4.12697e+12 -3.8776e+12 -4.63712e+12 -4.71255e+12 -5.1312e+12 -4.95831e+12 -4.83427e+12 -4.71028e+12 -4.50048e+12 -4.38487e+12 -4.2962e+12 -3.9829e+12 -3.88838e+12 -3.36387e+12 -2.13263e+12 -2.03368e+12 -1.65799e+12 -2.77395e+12 -3.26641e+12 -3.35853e+12 -3.85316e+12 -3.90714e+12 -4.26282e+12 -4.25359e+12 -4.49922e+12 -4.4157e+12 -4.34991e+12 -4.52746e+12 -4.4803e+12 -4.44322e+12 -4.52865e+12 -4.31115e+12 -4.23528e+12 -3.46579e+12 -3.51012e+12 -3.94855e+12 -3.93472e+12 -3.92483e+12 -3.91541e+12 -3.90783e+12 -3.89723e+12 -3.87828e+12 -3.85135e+12 -3.82052e+12 -3.78972e+12 -3.76138e+12 -3.73518e+12 -3.70952e+12 -3.68358e+12 -3.65587e+12 -3.62431e+12 -3.58842e+12 -3.55012e+12 -3.51158e+12 -3.47469e+12 -3.44085e+12 -3.4112e+12 -3.38608e+12 -3.36602e+12 -3.35221e+12 -3.34589e+12 -3.34928e+12 -3.36338e+12 -3.38683e+12 -3.41816e+12 -3.45641e+12 -3.49891e+12 -3.54341e+12 -3.58755e+12 -3.6301e+12 -3.67034e+12 -3.92244e+12 -3.95954e+12 -3.99439e+12 -4.02724e+12 -4.06059e+12 -4.09515e+12 -4.12804e+12 -4.16057e+12 -4.19666e+12 -4.31868e+12 -4.4168e+12 -4.46984e+12 -4.50804e+12 -4.54917e+12 -4.53188e+12 -4.45699e+12 -4.32592e+12 -2.41749e+12 -4.90265e+12 -4.72375e+12 -4.96703e+12 -4.85942e+12 -4.65175e+12 -4.22511e+12 -4.09527e+12 -3.59455e+12 -3.44954e+12 -2.77058e+12 -2.0122e+12 -964152000000.0 -1.35516e+12 -2.26903e+12 -2.85682e+12 -2.98499e+12 -3.44634e+12 -3.53468e+12 -3.94788e+12 -3.97539e+12 -4.22384e+12 -4.17471e+12 -4.30976e+12 -4.29077e+12 -4.38407e+12 -4.0372e+12 -4.24383e+12 -4.1704e+12 -2.58002e+12 -3.5547e+12 -3.60782e+12 -3.64981e+12 -3.67676e+12 -3.69368e+12 -3.70251e+12 -3.70082e+12 -3.68872e+12 -3.66947e+12 -3.64647e+12 -3.62263e+12 -3.59983e+12 -3.57759e+12 -3.55483e+12 -3.53098e+12 -3.50495e+12 -3.47565e+12 -3.44334e+12 -3.40946e+12 -3.37577e+12 -3.34384e+12 -3.3148e+12 -3.2896e+12 -3.26862e+12 -3.25262e+12 -3.24283e+12 -3.24126e+12 -3.24839e+12 -3.26382e+12 -3.28733e+12 -3.31764e+12 -3.35273e+12 -3.39062e+12 -3.42926e+12 -3.70691e+12 -3.74095e+12 -3.77381e+12 -3.80524e+12 -3.83538e+12 -3.86553e+12 -3.89713e+12 -3.92924e+12 -3.96181e+12 -4.00157e+12 -4.08272e+12 -4.1573e+12 -4.20567e+12 -4.23626e+12 -4.25811e+12 -4.27487e+12 -4.23303e+12 -4.09803e+12 -3.78651e+12 -5.12416e+12 -4.70479e+12 -5.35189e+12 -4.86592e+12 -3.6994e+12 -5.66981e+12 -5.17793e+12 -4.57985e+12 -4.38108e+12 -3.87983e+12 -3.73498e+12 -3.12695e+12 -2.89406e+12 -2.10511e+12 -2.07269e+12 -2.07183e+12 -1.66249e+12 -1.68326e+12 -2.32268e+12 -2.40115e+12 -3.12137e+12 -3.25633e+12 -3.61579e+12 -3.66725e+12 -3.98509e+12 -3.98106e+12 -4.14325e+12 -4.15091e+12 -4.29212e+12 -4.25185e+12 -4.09964e+12 -4.38293e+12 -3.03955e+12 -3.2286e+12 -3.35243e+12 -3.42792e+12 -3.47462e+12 -3.50254e+12 -3.5161e+12 -3.51753e+12 -3.5101e+12 -3.49675e+12 -3.47952e+12 -3.46088e+12 -3.44202e+12 -3.42254e+12 -3.40198e+12 -3.37984e+12 -3.35549e+12 -3.32872e+12 -3.29993e+12 -3.27009e+12 -3.24059e+12 -3.21277e+12 -3.18786e+12 -3.16667e+12 -3.14959e+12 -3.13746e+12 -3.13166e+12 -3.13321e+12 -3.14224e+12 -3.15875e+12 -3.1819e+12 -3.2101e+12 -3.46672e+12 -3.50208e+12 -3.53455e+12 -3.56445e+12 -3.593e+12 -3.62068e+12 -3.64747e+12 -3.67406e+12 -3.70195e+12 -3.73141e+12 -3.76169e+12 -3.79733e+12 -3.8551e+12 -3.91364e+12 -3.95472e+12 -3.98549e+12 -4.01065e+12 -4.03435e+12 -4.06036e+12 -4.06765e+12 -4.10298e+12 -4.07562e+12 -4.13327e+12 -3.34836e+12 -5.12133e+12 -3.88699e+12 -5.31995e+12 -5.2798e+12 -4.85658e+12 -4.37546e+12 -4.18922e+12 -4.02893e+12 -3.47759e+12 -3.31089e+12 -2.54826e+12 -1.96807e+12 -1.97993e+12 -3.41792e+12 -1.81502e+12 -1.43412e+12 -2.5146e+12 -2.88885e+12 -1.64605e+12 -1.63792e+12 -2.5863e+12 -2.82637e+12 -3.34157e+12 -3.71553e+12 -3.73833e+12 -3.95111e+12 -3.95561e+12 -4.02383e+12 -4.21759e+12 -4.39522e+12 -4.75772e+12 -3.20208e+12 -3.83062e+12 -4.12658e+12 -2.26058e+12 -2.81607e+12 -3.05161e+12 -3.17847e+12 -3.25446e+12 -3.30067e+12 -3.32742e+12 -3.34054e+12 -3.34374e+12 -3.22975e+12 -3.2073e+12 -3.18313e+12 -3.1575e+12 -3.13118e+12 -3.10533e+12 -3.08119e+12 -3.05986e+12 -3.04211e+12 -3.02854e+12 -3.01995e+12 -3.01724e+12 -3.02116e+12 -3.24152e+12 -3.27456e+12 -3.30719e+12 -3.33807e+12 -3.36646e+12 -3.39247e+12 -3.41701e+12 -3.44096e+12 -3.46448e+12 -3.48741e+12 -3.5109e+12 -3.53628e+12 -3.56307e+12 -3.5924e+12 -3.79302e+12 -3.80444e+12 -3.8151e+12 -3.79966e+12 -3.64878e+12 -2.58484e+12 -3.93368e+12 -4.38751e+12 -4.62169e+12 -4.5819e+12 -3.91852e+12 -3.77795e+12 -3.63328e+12 -3.04435e+12 -2.83006e+12 -2.13411e+12 -2.15566e+12 -3.22759e+12 -3.04361e+12 -2.41736e+12 -1.52387e+12 -1.20211e+12 -2.18141e+12 -2.60308e+12 -2.37183e+12 -3.12014e+12 -3.19645e+12 -1.72827e+12 -2.2995e+12 -2.97148e+12 -3.09344e+12 -3.42002e+12 -3.46495e+12 -3.74968e+12 -3.69033e+12 -3.71685e+12 -4.18796e+12 -4.54121e+12 -4.80478e+12 -2.74302e+12 -3.481e+12 -3.60868e+12 -2.30898e+12 -2.78519e+12 -2.94916e+12 -3.04317e+12 -3.10222e+12 -3.33982e+12 -3.33029e+12 -3.31703e+12 -3.30218e+12 -3.28625e+12 -3.26905e+12 -3.25033e+12 -3.03184e+12 -3.04849e+12 -3.07014e+12 -3.09555e+12 -3.12296e+12 -3.15073e+12 -3.17756e+12 -3.20237e+12 -3.22476e+12 -3.24549e+12 -3.26569e+12 -3.28593e+12 -3.30554e+12 -3.63281e+12 -3.67761e+12 -3.71246e+12 -3.7373e+12 -3.76101e+12 -3.77963e+12 -3.54246e+12 -3.4593e+12 -3.9334e+12 -4.05458e+12 -4.03924e+12 -3.47881e+12 -3.35843e+12 -3.21615e+12 -2.62179e+12 -2.40386e+12 -1.71958e+12 -1.64778e+12 -2.40812e+12 -1.87821e+12 -1.25369e+12 -1.0415e+12 -759715000000.0 -978418000000.0 -1.76632e+12 -2.124e+12 -2.59683e+12 -2.69759e+12 -3.03603e+12 -2.48663e+12 -2.59763e+12 -2.74819e+12 -3.17669e+12 -3.23532e+12 -3.50247e+12 -3.50122e+12 -3.30756e+12 -3.80477e+12 -4.00613e+12 -4.19462e+12 -4.08715e+12 -2.74457e+12 -3.13979e+12 -2.99665e+12 -2.6157e+12 -2.77555e+12 -3.13845e+12 -3.16003e+12 -3.1717e+12 -3.17614e+12 -3.17446e+12 -3.16759e+12 -3.15756e+12 -3.14555e+12 -3.13184e+12 -3.11654e+12 -3.09945e+12 -3.08057e+12 -3.06017e+12 -3.03835e+12 -3.01544e+12 -2.99223e+12 -2.96971e+12 -2.94889e+12 -2.93073e+12 -2.91601e+12 -2.90541e+12 -2.89956e+12 -2.89934e+12 -2.90508e+12 -2.91626e+12 -2.93218e+12 -2.95193e+12 -2.97409e+12 -2.99715e+12 -3.0199e+12 -3.04139e+12 -3.06081e+12 -3.07825e+12 -3.32458e+12 -3.34513e+12 -3.36771e+12 -3.39121e+12 -3.4188e+12 -3.45074e+12 -3.47923e+12 -3.49764e+12 -3.51465e+12 -3.53176e+12 -3.54289e+12 -3.54868e+12 -3.54697e+12 -3.36204e+12 -3.30984e+12 -3.18761e+12 -3.08696e+12 -3.84781e+12 -3.53528e+12 -3.58916e+12 -3.56905e+12 -3.06358e+12 -2.94636e+12 -2.80197e+12 -2.18988e+12 -1.93894e+12 -1.11293e+12 -2.51642e+12 -1.24389e+12 -1.66571e+12 -1.5598e+12 -928629000000.0 -545153000000.0 -1.37608e+12 -1.72776e+12 -1.66655e+12 -2.06846e+12 -2.13999e+12 -2.65657e+12 -2.4051e+12 -2.41694e+12 -2.86886e+12 -2.96809e+12 -3.27361e+12 -3.24517e+12 -3.32412e+12 -3.45444e+12 -3.55623e+12 -3.50653e+12 -2.85577e+12 -2.91288e+12 -2.9521e+12 -2.97835e+12 -2.9961e+12 -3.00742e+12 -3.01283e+12 -3.01242e+12 -3.00762e+12 -3.00004e+12 -2.9902e+12 -2.97841e+12 -2.96475e+12 -2.94923e+12 -2.93215e+12 -2.9137e+12 -2.89397e+12 -2.87347e+12 -2.85303e+12 -2.8335e+12 -2.81569e+12 -2.80041e+12 -2.7884e+12 -2.78024e+12 -2.77665e+12 -2.77811e+12 -2.78461e+12 -2.79562e+12 -2.81027e+12 -2.82753e+12 -2.84612e+12 -2.8649e+12 -2.88305e+12 -3.09477e+12 -3.11145e+12 -3.12811e+12 -3.14367e+12 -3.15919e+12 -3.1765e+12 -3.19497e+12 -3.21364e+12 -3.23281e+12 -3.25248e+12 -3.266e+12 -3.27372e+12 -3.28502e+12 -3.2953e+12 -3.30161e+12 -3.30695e+12 -3.31258e+12 -3.08369e+12 -3.05709e+12 -3.10262e+12 -3.20323e+12 -3.46509e+12 -3.15431e+12 -3.17108e+12 -3.14737e+12 -2.65848e+12 -2.54068e+12 -2.38596e+12 -1.74639e+12 -1.47264e+12 -1.77859e+12 -1.07372e+12 -1.1881e+12 -1.62027e+12 -758615000000.0 -333519000000.0 -1.01012e+12 -1.33671e+12 -1.26036e+12 -1.61448e+12 -2.14477e+12 -2.03599e+12 -2.18612e+12 -2.17697e+12 -2.47465e+12 -2.57084e+12 -3.06992e+12 -3.20235e+12 -2.54305e+12 -2.85382e+12 -2.99728e+12 -3.24075e+12 -2.85941e+12 -2.84509e+12 -2.76889e+12 -2.63627e+12 -2.68817e+12 -2.7336e+12 -2.77046e+12 -2.798e+12 -2.81904e+12 -2.83526e+12 -2.84648e+12 -2.85198e+12 -2.85252e+12 -2.84963e+12 -2.84397e+12 -2.8359e+12 -2.82569e+12 -2.81345e+12 -2.79957e+12 -2.78429e+12 -2.76761e+12 -2.74977e+12 -2.73148e+12 -2.71352e+12 -2.69662e+12 -2.68147e+12 -2.66879e+12 -2.65918e+12 -2.65315e+12 -2.65116e+12 -2.65356e+12 -2.66016e+12 -2.67024e+12 -2.68292e+12 -2.8998e+12 -2.91468e+12 -2.9281e+12 -2.94114e+12 -2.95444e+12 -2.96696e+12 -2.97831e+12 -2.9905e+12 -3.00392e+12 -3.01654e+12 -3.02641e+12 -3.03507e+12 -3.04247e+12 -3.04333e+12 -3.04217e+12 -3.04573e+12 -3.05073e+12 -3.05904e+12 -3.06942e+12 -3.09172e+12 -2.88535e+12 -2.96882e+12 -3.0129e+12 -3.11587e+12 -2.78504e+12 -2.78473e+12 -2.746e+12 -2.27544e+12 -2.14138e+12 -1.96337e+12 -1.31668e+12 -868064000000.0 -1.13567e+12 -811749000000.0 -2.10103e+12 -1.70856e+12 -1.3656e+12 -1.37374e+12 -582307000000.0 -121354000000.0 -659203000000.0 -622668000000.0 -968660000000.0 -895065000000.0 -1.13734e+12 -1.61176e+12 -1.56902e+12 -1.92255e+12 -1.88341e+12 -2.24852e+12 -2.33461e+12 -2.66618e+12 -2.77146e+12 -2.92014e+12 -3.44193e+12 -2.10167e+12 -2.46797e+12 -3.01957e+12 -2.94843e+12 -2.85566e+12 -2.65845e+12 -2.63032e+12 -2.58912e+12 -2.53886e+12 -2.56427e+12 -2.59414e+12 -2.62026e+12 -2.64243e+12 -2.6615e+12 -2.6769e+12 -2.68743e+12 -2.69292e+12 -2.69454e+12 -2.69314e+12 -2.68899e+12 -2.68237e+12 -2.67345e+12 -2.66267e+12 -2.65046e+12 -2.63679e+12 -2.6217e+12 -2.60568e+12 -2.58945e+12 -2.57371e+12 -2.5591e+12 -2.54624e+12 -2.53574e+12 -2.69729e+12 -2.71231e+12 -2.72716e+12 -2.74123e+12 -2.75388e+12 -2.76488e+12 -2.77471e+12 -2.78443e+12 -2.79415e+12 -2.80253e+12 -2.80997e+12 -2.81799e+12 -2.82568e+12 -2.83019e+12 -2.83006e+12 -2.8276e+12 -2.82209e+12 -2.81109e+12 -2.79973e+12 -2.79306e+12 -2.7963e+12 -2.81008e+12 -2.82749e+12 -2.84604e+12 -2.84859e+12 -2.68266e+12 -2.7182e+12 -2.73551e+12 -2.7754e+12 -2.42987e+12 -2.41788e+12 -2.36715e+12 -1.90895e+12 -1.74304e+12 -1.52768e+12 -1.09039e+12 -1.09031e+12 -2.29306e+12 -2.42093e+12 -1.492e+12 -1.02703e+12 -1.05178e+12 -771079000000.0 -370807000000.0 -122510000000.0 -307749000000.0 -280592000000.0 -568238000000.0 -744973000000.0 -448332000000.0 -1.04888e+12 -1.04685e+12 -1.51456e+12 -1.48485e+12 -1.92425e+12 -1.98001e+12 -2.4247e+12 -2.54241e+12 -3.1685e+12 -3.40161e+12 -1.84796e+12 -2.57429e+12 -2.59772e+12 -2.59734e+12 -2.54545e+12 -2.46373e+12 -2.44312e+12 -2.42123e+12 -2.40663e+12 -2.42455e+12 -2.44659e+12 -2.46775e+12 -2.48779e+12 -2.5057e+12 -2.51988e+12 -2.52807e+12 -2.5236e+12 -2.52267e+12 -2.5254e+12 -2.53139e+12 -2.53994e+12 -2.55034e+12 -2.56179e+12 -2.57351e+12 -2.58486e+12 -2.59524e+12 -2.60417e+12 -2.6116e+12 -2.61814e+12 -2.62461e+12 -2.6304e+12 -2.63446e+12 -2.63791e+12 -2.64099e+12 -2.64127e+12 -2.56799e+12 -2.54217e+12 -2.52133e+12 -2.52476e+12 -2.54396e+12 -2.59294e+12 -2.60471e+12 -2.63363e+12 -2.44053e+12 -2.41239e+12 -2.42016e+12 -2.09479e+12 -2.07545e+12 -2.01418e+12 -1.56421e+12 -1.31103e+12 -1.58377e+12 -2.00204e+12 -1.50012e+12 -1.56446e+12 -1.06656e+12 -583495000000.0 -202539000000.0 -243717000000.0 -477235000000.0 -257125000000.0 -388548000000.0 -1.03999e+12 -988635000000.0 -1.52952e+12 -1.59388e+12 -2.04291e+12 -2.13959e+12 -2.73135e+12 -2.94368e+12 -3.07476e+12 -2.13854e+12 -2.23423e+12 -2.29035e+12 -2.31551e+12 -2.30602e+12 -2.2766e+12 -2.2659e+12 -2.25959e+12 -2.26184e+12 -2.27745e+12 -2.52966e+12 -2.53546e+12 -2.53803e+12 -2.5378e+12 -2.53491e+12 -2.52942e+12 -2.52176e+12 -2.51253e+12 -2.5018e+12 -2.4895e+12 -2.47594e+12 -2.46171e+12 -2.44742e+12 -2.43366e+12 -2.42102e+12 -2.41003e+12 -2.4012e+12 -2.39489e+12 -2.39142e+12 -2.39095e+12 -2.3934e+12 -2.39831e+12 -2.40509e+12 -2.41316e+12 -2.42184e+12 -2.43048e+12 -2.43853e+12 -2.4454e+12 -2.45079e+12 -2.45482e+12 -2.45824e+12 -2.63609e+12 -2.62563e+12 -2.61166e+12 -2.59265e+12 -2.20649e+12 -2.33462e+12 -2.34624e+12 -2.35475e+12 -2.38645e+12 -2.41468e+12 -2.15763e+12 -2.0201e+12 -2.08099e+12 -1.7953e+12 -1.76468e+12 -1.6918e+12 -1.44731e+12 -1.57798e+12 -1.39002e+12 -1.22484e+12 -529005000000.0 -1.0337e+12 -319608000000.0 -652600000000.0 -203442000000.0 -158382000000.0 -109307000000.0 -551494000000.0 -474514000000.0 -1.04645e+12 -1.18312e+12 -1.65554e+12 -1.72227e+12 -2.27135e+12 -2.41768e+12 -2.56378e+12 -1.61631e+12 -1.86065e+12 -1.96899e+12 -2.04159e+12 -2.08644e+12 -2.10085e+12 -2.29578e+12 -2.3152e+12 -2.33426e+12 -2.35077e+12 -2.3637e+12 -2.37311e+12 -2.37933e+12 -2.38275e+12 -2.38353e+12 -2.38156e+12 -2.37708e+12 -2.37079e+12 -2.36295e+12 -2.35344e+12 -2.34242e+12 -2.3304e+12 -2.31789e+12 -2.3054e+12 -2.29341e+12 -2.2824e+12 -2.27287e+12 -2.26523e+12 -2.25979e+12 -2.25677e+12 -2.25622e+12 -2.25793e+12 -2.26145e+12 -2.2663e+12 -2.27197e+12 -2.27789e+12 -2.46152e+12 -2.46337e+12 -2.46304e+12 -2.46151e+12 -2.45834e+12 -2.45064e+12 -2.43573e+12 -2.41461e+12 -2.38757e+12 -2.35279e+12 -2.31009e+12 -2.26099e+12 -2.21303e+12 -2.11112e+12 -2.0828e+12 -2.06523e+12 -2.08854e+12 -2.1621e+12 -1.97188e+12 -1.72652e+12 -1.7829e+12 -1.49974e+12 -1.44437e+12 -1.38012e+12 -1.24194e+12 -1.28597e+12 -535573000000.0 -491173000000.0 -151127000000.0 -447848000000.0 -359326000000.0 -706585000000.0 -1.29841e+12 -1.33754e+12 -1.8216e+12 -1.90137e+12 -1.97591e+12 -2.64887e+12 -1.42451e+12 -1.64439e+12 -1.75769e+12 -2.09651e+12 -2.09671e+12 -2.10198e+12 -2.11198e+12 -2.12696e+12 -2.1444e+12 -2.1632e+12 -2.18097e+12 -2.19614e+12 -2.20841e+12 -2.21775e+12 -2.22445e+12 -2.22867e+12 -2.23013e+12 -2.22886e+12 -2.22552e+12 -2.22053e+12 -2.21377e+12 -2.20535e+12 -2.19567e+12 -2.18518e+12 -2.1743e+12 -2.16341e+12 -2.1529e+12 -2.14321e+12 -2.13474e+12 -2.12787e+12 -2.12282e+12 -2.11977e+12 -2.11868e+12 -2.28352e+12 -2.28829e+12 -2.29177e+12 -2.29385e+12 -2.29476e+12 -2.29513e+12 -2.29489e+12 -2.29263e+12 -2.28789e+12 -2.28091e+12 -2.27085e+12 -2.25462e+12 -2.23018e+12 -2.19828e+12 -2.15696e+12 -2.10269e+12 -2.03215e+12 -1.93744e+12 -1.78025e+12 -2.13004e+12 -1.76398e+12 -1.65414e+12 -1.893e+12 -1.92901e+12 -1.45627e+12 -1.53644e+12 -1.53221e+12 -1.25305e+12 -1.1983e+12 -1.18746e+12 -904295000000.0 -738613000000.0 -132100000000.0 -596248000000.0 -643902000000.0 -643588000000.0 -944802000000.0 -1.03137e+12 -1.36464e+12 -1.40643e+12 -2.09995e+12 -2.23143e+12 -1.29866e+12 -1.83876e+12 -1.89106e+12 -1.91498e+12 -1.92369e+12 -1.93407e+12 -1.94675e+12 -1.95986e+12 -1.97503e+12 -1.99274e+12 -2.01105e+12 -2.02772e+12 -2.0421e+12 -2.05403e+12 -2.06356e+12 -2.07084e+12 -2.07555e+12 -2.07744e+12 -2.07701e+12 -2.07479e+12 -2.07076e+12 -2.06494e+12 -2.05768e+12 -2.04939e+12 -2.04039e+12 -2.03098e+12 -2.11926e+12 -2.12111e+12 -2.12382e+12 -2.12697e+12 -2.1301e+12 -2.13273e+12 -2.1343e+12 -2.13455e+12 -2.13347e+12 -2.13139e+12 -2.12875e+12 -2.1248e+12 -2.11821e+12 -2.10862e+12 -2.09602e+12 -2.07944e+12 -2.05509e+12 -2.02125e+12 -1.97797e+12 -1.92194e+12 -1.84737e+12 -1.74668e+12 -1.5778e+12 -2.13442e+12 -1.97162e+12 -1.85725e+12 -1.79992e+12 -1.68411e+12 -1.69054e+12 -1.74298e+12 -1.30402e+12 -1.32053e+12 -1.29576e+12 -990319000000.0 -918776000000.0 -899340000000.0 -113874000000.0 -111401000000.0 -112835000000.0 -726654000000.0 -1.00096e+12 -872222000000.0 -1.41329e+12 -1.39988e+12 -1.73581e+12 -1.84861e+12 -1.48096e+12 -1.58764e+12 -1.66488e+12 -1.71427e+12 -1.74113e+12 -1.7587e+12 -1.776e+12 -1.79169e+12 -1.80614e+12 -1.82266e+12 -1.84095e+12 -1.85861e+12 -1.87459e+12 -1.88865e+12 -1.90063e+12 -2.02144e+12 -2.0121e+12 -2.00333e+12 -1.99551e+12 -1.98894e+12 -1.98384e+12 -1.98031e+12 -1.97826e+12 -1.97738e+12 -1.97731e+12 -1.97771e+12 -1.97825e+12 -1.97859e+12 -1.97823e+12 -1.97672e+12 -1.97389e+12 -1.96973e+12 -1.96464e+12 -1.95878e+12 -1.95106e+12 -1.94037e+12 -1.92595e+12 -1.90783e+12 -1.88504e+12 -1.85335e+12 -1.81099e+12 -1.75683e+12 -1.68632e+12 -1.5915e+12 -1.42958e+12 -2.0172e+12 -1.86425e+12 -1.697e+12 -1.52821e+12 -1.35989e+12 -1.4967e+12 -1.31563e+12 -1.44101e+12 -1.48006e+12 -1.11461e+12 -1.11117e+12 -1.05712e+12 -517801000000.0 -342728000000.0 -470253000000.0 -602744000000.0 -806462000000.0 -749035000000.0 -689397000000.0 -1.05697e+12 -1.04694e+12 -1.35542e+12 -1.53351e+12 -1.53471e+12 -1.21047e+12 -1.34525e+12 -1.43724e+12 -1.50388e+12 -1.54745e+12 -1.57617e+12 -1.59946e+12 -1.61955e+12 -1.63581e+12 -1.91059e+12 -1.91826e+12 -1.92321e+12 -1.92564e+12 -1.92607e+12 -1.92467e+12 -1.9214e+12 -1.91659e+12 -1.91061e+12 -1.90373e+12 -1.89614e+12 -1.88799e+12 -1.8795e+12 -1.87095e+12 -1.86266e+12 -1.85499e+12 -1.84824e+12 -1.84263e+12 -1.83823e+12 -1.83489e+12 -1.83229e+12 -1.83009e+12 -1.82806e+12 -1.82596e+12 -1.82347e+12 -1.82013e+12 -1.81559e+12 -1.80973e+12 -1.85097e+12 -1.72098e+12 -1.55851e+12 -1.37205e+12 -1.08188e+12 -1.63497e+12 -1.13986e+12 -1.22416e+12 -1.27637e+12 -956409000000.0 -893425000000.0 -801848000000.0 -686840000000.0 -122486000000.0 -116557000000.0 -384564000000.0 -639979000000.0 -567353000000.0 -700228000000.0 -869230000000.0 -983428000000.0 -1.23538e+12 -1.11085e+12 -1.2178e+12 -1.29338e+12 -1.34793e+12 -1.65191e+12 -1.67014e+12 -1.68866e+12 -1.70595e+12 -1.72179e+12 -1.73592e+12 -1.74827e+12 -1.75868e+12 -1.76658e+12 -1.77182e+12 -1.77481e+12 -1.77584e+12 -1.77499e+12 -1.77254e+12 -1.76891e+12 -1.76434e+12 -1.75889e+12 -1.75259e+12 -1.74547e+12 -1.73766e+12 -1.7294e+12 -1.72104e+12 -1.71299e+12 -1.7056e+12 -1.69911e+12 -1.69351e+12 -1.6886e+12 -1.68404e+12 -1.67956e+12 -1.80257e+12 -1.79451e+12 -1.78529e+12 -1.77381e+12 -1.75922e+12 -1.74052e+12 -1.71778e+12 -1.68944e+12 -1.65142e+12 -1.60198e+12 -1.53874e+12 -1.4559e+12 -1.31221e+12 -1.41407e+12 -1.25318e+12 -1.04524e+12 -1.43792e+12 -1.28787e+12 -1.23476e+12 -932892000000.0 -1.06017e+12 -1.05199e+12 -671073000000.0 -534272000000.0 -384056000000.0 -77697100000.0 -490102000000.0 -532572000000.0 -568510000000.0 -573165000000.0 -775712000000.0 -1.2775e+12 -1.26905e+12 -1.38713e+12 -1.41751e+12 -1.44258e+12 -1.46212e+12 -1.47936e+12 -1.49801e+12 -1.51739e+12 -1.5359e+12 -1.55329e+12 -1.56944e+12 -1.58412e+12 -1.5971e+12 -1.60787e+12 -1.61596e+12 -1.62148e+12 -1.62477e+12 -1.62606e+12 -1.62571e+12 -1.62428e+12 -1.62208e+12 -1.61911e+12 -1.61517e+12 -1.61003e+12 -1.60359e+12 -1.59591e+12 -1.5873e+12 -1.57823e+12 -1.67497e+12 -1.67015e+12 -1.66477e+12 -1.65842e+12 -1.65089e+12 -1.64202e+12 -1.63189e+12 -1.6209e+12 -1.60847e+12 -1.59363e+12 -1.57559e+12 -1.55338e+12 -1.5271e+12 -1.49456e+12 -1.45227e+12 -1.39843e+12 -1.32957e+12 -1.20794e+12 -1.65529e+12 -1.55501e+12 -1.33986e+12 -951814000000.0 -1.03188e+12 -1.08005e+12 -863450000000.0 -864356000000.0 -760428000000.0 -423469000000.0 -227497000000.0 -314031000000.0 -411752000000.0 -470294000000.0 -455478000000.0 -876181000000.0 -998733000000.0 -1.05417e+12 -1.04066e+12 -1.00616e+12 -1.09011e+12 -1.14955e+12 -1.1954e+12 -1.23178e+12 -1.26134e+12 -1.28456e+12 -1.30394e+12 -1.3237e+12 -1.3442e+12 -1.36402e+12 -1.38287e+12 -1.40092e+12 -1.41789e+12 -1.43367e+12 -1.44738e+12 -1.45834e+12 -1.46643e+12 -1.47192e+12 -1.47512e+12 -1.47652e+12 -1.47684e+12 -1.56929e+12 -1.5609e+12 -1.55324e+12 -1.54617e+12 -1.53942e+12 -1.53268e+12 -1.52572e+12 -1.51846e+12 -1.51078e+12 -1.5024e+12 -1.49303e+12 -1.48254e+12 -1.47072e+12 -1.45775e+12 -1.44391e+12 -1.42856e+12 -1.41102e+12 -1.39045e+12 -1.36605e+12 -1.33764e+12 -1.30297e+12 -1.25966e+12 -1.20573e+12 -1.10786e+12 -1.44605e+12 -1.37465e+12 -1.25448e+12 -1.11134e+12 -920555000000.0 -793077000000.0 -900860000000.0 -875304000000.0 -813268000000.0 -697198000000.0 -649547000000.0 -591828000000.0 -158198000000.0 -62777000000.0 -136726000000.0 -440593000000.0 -353469000000.0 -492354000000.0 -666121000000.0 -688630000000.0 -843550000000.0 -863513000000.0 -842161000000.0 -893316000000.0 -957437000000.0 -1.00574e+12 -1.04545e+12 -1.07769e+12 -1.10328e+12 -1.12492e+12 -1.14642e+12 -1.16855e+12 -1.18995e+12 -1.21025e+12 -1.22996e+12 -1.47679e+12 -1.47646e+12 -1.47545e+12 -1.47307e+12 -1.46882e+12 -1.46244e+12 -1.45406e+12 -1.44425e+12 -1.43384e+12 -1.42365e+12 -1.41408e+12 -1.40501e+12 -1.3962e+12 -1.38734e+12 -1.37817e+12 -1.36853e+12 -1.35841e+12 -1.34773e+12 -1.33626e+12 -1.32386e+12 -1.31044e+12 -1.29582e+12 -1.28024e+12 -1.26384e+12 -1.24611e+12 -1.22667e+12 -1.20478e+12 -1.17987e+12 -1.15143e+12 -1.11784e+12 -1.07784e+12 -1.00343e+12 -1.23158e+12 -1.18898e+12 -1.09199e+12 -968343000000.0 -790504000000.0 -1.14649e+12 -975671000000.0 -725679000000.0 -730095000000.0 -651042000000.0 -528278000000.0 -461772000000.0 -335625000000.0 -333432000000.0 -304238000000.0 -387594000000.0 -424544000000.0 -491552000000.0 -561723000000.0 -685112000000.0 -673301000000.0 -768190000000.0 -821257000000.0 -861800000000.0 -894465000000.0 -919905000000.0 -941805000000.0 -1.24928e+12 -1.26791e+12 -1.28507e+12 -1.29944e+12 -1.31016e+12 -1.31762e+12 -1.3225e+12 -1.32538e+12 -1.32693e+12 -1.32836e+12 -1.33042e+12 -1.33276e+12 -1.33422e+12 -1.33338e+12 -1.32933e+12 -1.32185e+12 -1.31151e+12 -1.29955e+12 -1.28742e+12 -1.27602e+12 -1.26513e+12 -1.2544e+12 -1.24354e+12 -1.23226e+12 -1.22038e+12 -1.20783e+12 -1.19467e+12 -1.02023e+12 -1.00179e+12 -930817000000.0 -833351000000.0 -682530000000.0 -950309000000.0 -791289000000.0 -784713000000.0 -695386000000.0 -545004000000.0 -535797000000.0 -422750000000.0 -230932000000.0 -92978600000.0 -77929200000.0 -300072000000.0 -331807000000.0 -297445000000.0 -368545000000.0 -672002000000.0 -965274000000.0 -989796000000.0 -1.01344e+12 -1.0355e+12 -1.05648e+12 -1.07731e+12 -1.09921e+12 -1.12049e+12 -1.13896e+12 -1.15353e+12 -1.16302e+12 -1.16876e+12 -1.17249e+12 -1.17488e+12 -1.17692e+12 -1.18041e+12 -1.18599e+12 -1.19223e+12 -1.19692e+12 -1.19709e+12 -1.19161e+12 -1.18094e+12 -1.16698e+12 -1.15229e+12 -1.13902e+12 -1.18085e+12 -1.16623e+12 -1.15082e+12 -1.13456e+12 -1.11735e+12 -1.09948e+12 -1.08102e+12 -1.0617e+12 -1.04137e+12 -1.01963e+12 -996169000000.0 -970565000000.0 -942162000000.0 -888081000000.0 -759493000000.0 -598900000000.0 -642741000000.0 -636471000000.0 -565412000000.0 -594164000000.0 -426651000000.0 -301544000000.0 -188661000000.0 -245244000000.0 -247669000000.0 -217402000000.0 -448653000000.0 -461658000000.0 -503244000000.0 -521452000000.0 -638487000000.0 -684086000000.0 -715603000000.0 -737343000000.0 -755825000000.0 -777976000000.0 -806425000000.0 -834131000000.0 -859105000000.0 -881542000000.0 -901562000000.0 -925219000000.0 -952059000000.0 -977087000000.0 -996733000000.0 -1.0089e+12 -1.01596e+12 -1.019e+12 -1.02084e+12 -1.02265e+12 -1.02608e+12 -1.03357e+12 -1.04493e+12 -1.12648e+12 -1.11406e+12 -1.10135e+12 -1.08807e+12 -1.07404e+12 -1.05914e+12 -1.04343e+12 -1.02703e+12 -1.00993e+12 -992138000000.0 -973773000000.0 -954829000000.0 -935346000000.0 -915623000000.0 -895746000000.0 -875729000000.0 -855720000000.0 -835914000000.0 -816188000000.0 -796602000000.0 -759047000000.0 -817717000000.0 -815982000000.0 -769699000000.0 -700423000000.0 -588987000000.0 -469702000000.0 -499350000000.0 -479875000000.0 -456921000000.0 -425052000000.0 -262756000000.0 -208985000000.0 -69957300000.0 -125867000000.0 -175413000000.0 -143425000000.0 -208526000000.0 -263811000000.0 -278956000000.0 -323764000000.0 -357309000000.0 -392019000000.0 -513225000000.0 -547870000000.0 -560018000000.0 -568921000000.0 -586350000000.0 -611495000000.0 -650172000000.0 -681970000000.0 -707911000000.0 -723771000000.0 -744287000000.0 -774605000000.0 -811455000000.0 -841368000000.0 -1.05713e+12 -1.06607e+12 -1.06504e+12 -1.05441e+12 -1.03739e+12 -1.01831e+12 -1.00293e+12 -988923000000.0 -975115000000.0 -960842000000.0 -945743000000.0 -929639000000.0 -912452000000.0 -894211000000.0 -875070000000.0 -855205000000.0 -834715000000.0 -813758000000.0 -792549000000.0 -771184000000.0 -749842000000.0 -728814000000.0 -708262000000.0 -688459000000.0 -669968000000.0 -654084000000.0 -640543000000.0 -615626000000.0 -625932000000.0 -633367000000.0 -606024000000.0 -562540000000.0 -488278000000.0 -576252000000.0 -472612000000.0 -360662000000.0 -341786000000.0 -299570000000.0 -318277000000.0 -72717600000.0 -71789700000.0 -61338500000.0 -126793000000.0 -132635000000.0 -116898000000.0 -168073000000.0 -180341000000.0 -207377000000.0 -284435000000.0 -415073000000.0 -396998000000.0 -382059000000.0 -391993000000.0 -410496000000.0 -439976000000.0 -856548000000.0 -864330000000.0 -867801000000.0 -866986000000.0 -865913000000.0 -867379000000.0 -874339000000.0 -888703000000.0 -909980000000.0 -932039000000.0 -945464000000.0 -936054000000.0 -913844000000.0 -885281000000.0 -867339000000.0 -852139000000.0 -837377000000.0 -821977000000.0 -805397000000.0 -787413000000.0 -767991000000.0 -747210000000.0 -725243000000.0 -702357000000.0 -678817000000.0 -654862000000.0 -444366000000.0 -454021000000.0 -439163000000.0 -415146000000.0 -373155000000.0 -401923000000.0 -341037000000.0 -342493000000.0 -328832000000.0 -159469000000.0 -181600000000.0 -180205000000.0 -12034900000.0 -58732500000.0 -50145600000.0 -45943100000.0 -28810300000.0 -505586000000.0 -543772000000.0 -546697000000.0 -559811000000.0 -582891000000.0 -629431000000.0 -690054000000.0 -708862000000.0 -715725000000.0 -718688000000.0 -717604000000.0 -709558000000.0 -704204000000.0 -709393000000.0 -720934000000.0 -746980000000.0 -788907000000.0 -824529000000.0 -838734000000.0 -805382000000.0 -751868000000.0 -731028000000.0 -715304000000.0 -700395000000.0 -684577000000.0 -630801000000.0 -606943000000.0 -583514000000.0 -560803000000.0 -539089000000.0 -518593000000.0 -499750000000.0 -483657000000.0 -474160000000.0 -458972000000.0 -237162000000.0 -207709000000.0 -209160000000.0 -200525000000.0 -200388000000.0 -224627000000.0 -74335800000.0 -32866500000.0 -38287200000.0 -59649200000.0 -68105400000.0 -74128700000.0 -118350000000.0 -241259000000.0 -180766000000.0 -192653000000.0 -205175000000.0 -223459000000.0 -256486000000.0 -429599000000.0 -378416000000.0 -372878000000.0 -385226000000.0 -411969000000.0 -520742000000.0 -578364000000.0 -573065000000.0 -571427000000.0 -571325000000.0 -564019000000.0 -534990000000.0 -539481000000.0 -547029000000.0 -560209000000.0 -617876000000.0 -697014000000.0 -667068000000.0 -647575000000.0 -626086000000.0 -602763000000.0 -577871000000.0 -551748000000.0 -524793000000.0 -497395000000.0 -469952000000.0 -442916000000.0 -416700000000.0 -391661000000.0 -368138000000.0 -346354000000.0 -326422000000.0 -308661000000.0 -294695000000.0 -290848000000.0 -271854000000.0 -277538000000.0 -268397000000.0 -256927000000.0 -238085000000.0 -73035200000.0 -69675800000.0 -70313900000.0 -66856700000.0 -59230600000.0 -66766100000.0 -77097700000.0 -85880600000.0 -112189000000.0 -157236000000.0 -175712000000.0 -165065000000.0 -115612000000.0 -737033000000.0 -762633000000.0 -610907000000.0 -589960000000.0 -576205000000.0 -563091000000.0 -548230000000.0 -530724000000.0 -510319000000.0 -487091000000.0 -461318000000.0 -433404000000.0 -403819000000.0 -373085000000.0 -341749000000.0 -310349000000.0 -279449000000.0 -249650000000.0 -221494000000.0 -195437000000.0 -171780000000.0 -150462000000.0 -130868000000.0 -111661000000.0 -91317600000.0 -107560000000.0 -105451000000.0 -94548700000.0 -87874700000.0 -84869400000.0 -80823900000.0 -72821800000.0 -98588000000.0 -147833000000.0 -200428000000.0 -255443000000.0 -311624000000.0 -351935000000.0 -368545000000.0 -361647000000.0 -325541000000.0 -259648000000.0 -180655000000.0 -106465000000.0 
SCALARS Shear_Stress float 1
LOOKUP_TABLE default
37487600000.0 15235200000.0 12328000000.0 20265300000.0 39468400000.0 57378200000.0 43547100000.0 9596210000.0 43768200000.0 9675420000.0 13863600000.0 609663000.0 17426300000.0 70735200000.0 6417770000.0 22123400000.0 18830800000.0 52842100000.0 18629800000.0 11821600000.0 31214900000.0 97224100000.0 38834500000.0 49611600000.0 151880000000.0 114587000000.0 117618000000.0 17290000000.0 10466600000.0 9377320000.0 15111400000.0 38309000000.0 60902600000.0 10004300000.0 71638600000.0 99962100000.0 25855600000.0 47526500000.0 121045000000.0 68382100000.0 94792100000.0 103176000000.0 138937000000.0 149018000000.0 95878400000.0 137369000000.0 84824800000.0 88393500000.0 78458800000.0 20965000000.0 65318500000.0 123822000000.0 121932000000.0 114402000000.0 146787000000.0 149056000000.0 30715000000.0 184192000000.0 142913000000.0 182895000000.0 215188000000.0 149123000000.0 748256000.0 78219100000.0 139746000000.0 132176000000.0 206069000000.0 194597000000.0 291479000000.0 285609000000.0 255095000000.0 290070000000.0 189168000000.0 218306000000.0 160212000000.0 157942000000.0 32501600000.0 96789500000.0 174689000000.0 101216000000.0 203557000000.0 129589000000.0 131612000000.0 233501000000.0 622225000.0 9420280000.0 108086000000.0 92324600000.0 155863000000.0 205920000000.0 293279000000.0 290434000000.0 326954000000.0 321694000000.0 292625000000.0 225354000000.0 201310000000.0 22089800000.0 81851900000.0 13485500000.0 20212500000.0 238942000000.0 236702000000.0 191968000000.0 291177000000.0 65557100000.0 150086000000.0 180997000000.0 211181000000.0 275665000000.0 283900000000.0 248481000000.0 290464000000.0 285561000000.0 228532000000.0 247874000000.0 142076000000.0 137323000000.0 131283000000.0 200260000000.0 220848000000.0 228010000000.0 261541000000.0 288099000000.0 253667000000.0 240798000000.0 267350000000.0 252387000000.0 219265000000.0 165095000000.0 24187400000.0 270229000000.0 182701000000.0 268204000000.0 303654000000.0 345150000000.0 274809000000.0 304858000000.0 259410000000.0 277855000000.0 262309000000.0 281111000000.0 285607000000.0 279337000000.0 267738000000.0 239869000000.0 224587000000.0 215436000000.0 238422000000.0 223836000000.0 250194000000.0 205397000000.0 211563000000.0 123748000000.0 94467000000.0 199851000000.0 2754030000.0 269516000000.0 397968000000.0 369777000000.0 633640000000.0 549538000000.0 664236000000.0 382169000000.0 423341000000.0 364198000000.0 309367000000.0 283060000000.0 281900000000.0 257557000000.0 216805000000.0 203685000000.0 190895000000.0 132396000000.0 24692900000.0 329546000000.0 575521000000.0 260232000000.0 585928000000.0 430806000000.0 356750000000.0 295114000000.0 278781000000.0 267804000000.0 232978000000.0 198112000000.0 174394000000.0 129633000000.0 45684700000.0 239668000000.0 26594500000.0 443506000000.0 315833000000.0 416036000000.0 515411000000.0 499090000000.0 418943000000.0 367978000000.0 323927000000.0 277512000000.0 275302000000.0 256017000000.0 266818000000.0 249331000000.0 246703000000.0 222714000000.0 208191000000.0 177044000000.0 169049000000.0 120224000000.0 122517000000.0 51676700000.0 52348800000.0 23954200000.0 30072000000.0 289566000000.0 125392000000.0 288977000000.0 202355000000.0 273726000000.0 104939000000.0 233522000000.0 461646000000.0 467911000000.0 568222000000.0 425181000000.0 302558000000.0 238537000000.0 237560000000.0 228548000000.0 193069000000.0 129468000000.0 52098500000.0 24100700000.0 83989700000.0 103357000000.0 32932600000.0 41053900000.0 698247000000.0 477720000000.0 341707000000.0 221659000000.0 211402000000.0 218330000000.0 203805000000.0 148602000000.0 61371800000.0 25665300000.0 90424200000.0 137207000000.0 345345000000.0 284825000000.0 29670500000.0 117553000000.0 15525200000.0 484345000000.0 362695000000.0 387794000000.0 287495000000.0 250372000000.0 118703000000.0 170852000000.0 142681000000.0 189891000000.0 168064000000.0 197210000000.0 172267000000.0 169136000000.0 110374000000.0 82303600000.0 5597650000.0 21649900000.0 104599000000.0 98324300000.0 153252000000.0 400530000000.0 443304000000.0 98981500000.0 232463000000.0 186650000000.0 327426000000.0 234292000000.0 223377000000.0 17290900000.0 262213000000.0 182768000000.0 69975500000.0 117296000000.0 145716000000.0 135439000000.0 23049500000.0 103603000000.0 170204000000.0 183473000000.0 269491000000.0 367410000000.0 418930000000.0 36899400000.0 170562000000.0 267485000000.0 156758000000.0 58094300000.0 45571000000.0 87693300000.0 124902000000.0 57475000000.0 87522400000.0 200645000000.0 187613000000.0 235695000000.0 206694000000.0 210893000000.0 446309000000.0 568928000000.0 378285000000.0 383529000000.0 487148000000.0 470526000000.0 240009000000.0 118416000000.0 378137000000.0 68789900000.0 378286000000.0 64048700000.0 118355000000.0 2175720000.0 25117200000.0 68689700000.0 57750400000.0 91653800000.0 23972300000.0 57689700000.0 196077000000.0 274633000000.0 238140000000.0 471259000000.0 639651000000.0 464365000000.0 553010000000.0 478621000000.0 347344000000.0 35059100000.0 241262000000.0 483895000000.0 339676000000.0 143857000000.0 35590000000.0 36470500000.0 181432000000.0 321764000000.0 281540000000.0 200506000000.0 394859000000.0 550763000000.0 570868000000.0 27208200000.0 180372000000.0 421335000000.0 420956000000.0 297011000000.0 725362000000.0 490856000000.0 297420000000.0 151356000000.0 41135500000.0 177680000000.0 398196000000.0 352804000000.0 488693000000.0 356850000000.0 244662000000.0 216949000000.0 142267000000.0 467182000000.0 650519000000.0 324835000000.0 429563000000.0 451801000000.0 661540000000.0 822205000000.0 516919000000.0 383168000000.0 299275000000.0 382644000000.0 352336000000.0 256597000000.0 220733000000.0 158353000000.0 198470000000.0 43298300000.0 475031000000.0 687938000000.0 286083000000.0 130840000000.0 436377000000.0 619932000000.0 300249000000.0 452635000000.0 882416000000.0 143941000000.0 232979000000.0 115556000000.0 317485000000.0 262673000000.0 179955000000.0 259158000000.0 850291000000.0 331844000000.0 111676000000.0 48464800000.0 577817000000.0 214916000000.0 154245000000.0 237853000000.0 106208000000.0 373149000000.0 131596000000.0 201115000000.0 98086300000.0 65351900000.0 36622400000.0 3894070000.0 174017000000.0 142923000000.0 236760000000.0 149776000000.0 180872000000.0 48920700000.0 143935000000.0 820163000000.0 137534000000.0 313212000000.0 46078900000.0 66658100000.0 54754300000.0 6880410000.0 52177700000.0 392238000000.0 116455000000.0 64030000000.0 26337000000.0 812621000000.0 251849000000.0 114048000000.0 10583400000.0 74285200000.0 26567700000.0 16927800000.0 307280000000.0 142281000000.0 180188000000.0 149750000000.0 109465000000.0 352659000000.0 548742000000.0 57668100000.0 15712300000.0 2247520000.0 697393000000.0 450368000000.0 247736000000.0 232146000000.0 123299000000.0 122609000000.0 20614000000.0 36795200000.0 214546000000.0 840393000000.0 589233000000.0 241308000000.0 237448000000.0 276891000000.0 250431000000.0 250293000000.0 180928000000.0 183291000000.0 131118000000.0 332591000000.0 544564000000.0 59326300000.0 30484000000.0 10322500000.0 19199800000.0 13798300000.0 61165300000.0 203333000000.0 345168000000.0 341818000000.0 217645000000.0 157751000000.0 97349000000.0 236127000000.0 235178000000.0 731416000000.0 899477000000.0 263142000000.0 206321000000.0 273951000000.0 230245000000.0 170888000000.0 47483800000.0 31727500000.0 65319900000.0 86287400000.0 322697000000.0 290170000000.0 218365000000.0 237255000000.0 482826000000.0 486798000000.0 381055000000.0 107522000000.0 219708000000.0 248964000000.0 201544000000.0 340343000000.0 564738000000.0 64815900000.0 46892700000.0 62596500000.0 59062000000.0 72424900000.0 51998600000.0 48657900000.0 199734000000.0 233127000000.0 296265000000.0 279152000000.0 267875000000.0 268175000000.0 250340000000.0 308944000000.0 363822000000.0 499101000000.0 205577000000.0 107639000000.0 40923100000.0 113446000000.0 139424000000.0 217252000000.0 195520000000.0 213919000000.0 172031000000.0 166831000000.0 377167000000.0 600572000000.0 74553700000.0 76674100000.0 39128900000.0 133704000000.0 245522000000.0 272594000000.0 286543000000.0 337429000000.0 406761000000.0 332889000000.0 305764000000.0 56173300000.0 58653900000.0 145501000000.0 158533000000.0 124919000000.0 92585500000.0 85349500000.0 68858500000.0 34788400000.0 179607000000.0 251529000000.0 273843000000.0 295303000000.0 301559000000.0 192697000000.0 130100000000.0 37646600000.0 21413100000.0 36860500000.0 83476500000.0 126229000000.0 110329000000.0 438622000000.0 643156000000.0 121768000000.0 101043000000.0 102890000000.0 85097100000.0 64870000000.0 29859700000.0 29556800000.0 101652000000.0 147893000000.0 206808000000.0 222897000000.0 254869000000.0 251675000000.0 270735000000.0 247741000000.0 269439000000.0 212402000000.0 76616700000.0 19299100000.0 51096300000.0 85211600000.0 57358000000.0 85339000000.0 30146800000.0 55804400000.0 517519000000.0 688195000000.0 125368000000.0 91288400000.0 24032900000.0 85511200000.0 179339000000.0 229010000000.0 234417000000.0 196881000000.0 204539000000.0 114193000000.0 104289000000.0 20157500000.0 18872900000.0 31951600000.0 37269400000.0 5137980000.0 30066100000.0 734989000000.0 150774000000.0 149296000000.0 118735000000.0 98356500000.0 63052200000.0 20602900000.0 27987000000.0 77859400000.0 129248000000.0 161244000000.0 198662000000.0 206205000000.0 222754000000.0 196808000000.0 120445000000.0 19253700000.0 15590800000.0 17768200000.0 33224700000.0 32437400000.0 5917520000.0 9772260000.0 79506800000.0 59793100000.0 123904000000.0 606268000000.0 180845000000.0 135581000000.0 63852500000.0 28510900000.0 119462000000.0 182259000000.0 201604000000.0 201251000000.0 163236000000.0 136893000000.0 55558500000.0 26655900000.0 55407900000.0 7461380000.0 17891500000.0 80567100000.0 153891000000.0 697285000000.0 784293000000.0 175143000000.0 107970000000.0 18677800000.0 75801900000.0 151782000000.0 193058000000.0 185276000000.0 109418000000.0 47542000000.0 74261600000.0 168707000000.0 84356300000.0 26145800000.0 32458800000.0 55905800000.0 162063000000.0 168479000000.0 243611000000.0 216317000000.0 781926000000.0 837022000000.0 213847000000.0 205056000000.0 155626000000.0 121486000000.0 67397000000.0 17720900000.0 30842700000.0 78383000000.0 116785000000.0 150441000000.0 175328000000.0 191636000000.0 195051000000.0 190819000000.0 159142000000.0 126772000000.0 41285300000.0 178945000000.0 228751000000.0 9287470000.0 5578640000.0 129634000000.0 253917000000.0 293415000000.0 251299000000.0 180806000000.0 74117400000.0 35134100000.0 120431000000.0 177650000000.0 203293000000.0 184359000000.0 93712600000.0 40145100000.0 134459000000.0 357666000000.0 616889000000.0 133524000000.0 69056000000.0 245458000000.0 311008000000.0 850112000000.0 9035750000.0 893510000000.0 293762000000.0 240674000000.0 212832000000.0 140420000000.0 85098300000.0 17658500000.0 41541800000.0 85389200000.0 129872000000.0 156397000000.0 187683000000.0 200594000000.0 213934000000.0 181340000000.0 69154800000.0 241518000000.0 838768000000.0 134976000000.0 122166000000.0 212897000000.0 282812000000.0 308360000000.0 327303000000.0 336675000000.0 895607000000.0 953000000000.0 282749000000.0 166663000000.0 19146500000.0 96789200000.0 168483000000.0 216911000000.0 222372000000.0 246600000000.0 228132000000.0 251233000000.0 189699000000.0 220699000000.0 70362800000.0 129115000000.0 386481000000.0 585394000000.0 215605000000.0 278528000000.0 337901000000.0 1.01291e+12 340092000000.0 330122000000.0 252908000000.0 202373000000.0 102471000000.0 24336400000.0 49809000000.0 144407000000.0 203266000000.0 247246000000.0 276884000000.0 288947000000.0 288899000000.0 366924000000.0 140284000000.0 479375000000.0 81913400000.0 66138000000.0 165740000000.0 169619000000.0 286903000000.0 307370000000.0 920970000000.0 9035750000.0 386852000000.0 300884000000.0 130042000000.0 58389500000.0 112013000000.0 162584000000.0 185040000000.0 222463000000.0 237545000000.0 274644000000.0 281618000000.0 321306000000.0 315861000000.0 345780000000.0 419275000000.0 320974000000.0 1.04877e+12 1.13306e+12 58101100000.0 215075000000.0 937327000000.0 1.06805e+12 427369000000.0 378907000000.0 354747000000.0 250020000000.0 38693000000.0 129627000000.0 204570000000.0 261345000000.0 315737000000.0 364390000000.0 363513000000.0 413817000000.0 421780000000.0 433868000000.0 423604000000.0 224973000000.0 252824000000.0 402471000000.0 594351000000.0 39965100000.0 152476000000.0 268704000000.0 959431000000.0 1.10884e+12 420433000000.0 312919000000.0 175257000000.0 75120800000.0 63788000000.0 147054000000.0 182956000000.0 224808000000.0 244482000000.0 288673000000.0 304328000000.0 358582000000.0 403522000000.0 426270000000.0 319591000000.0 140103000000.0 600933000000.0 395806000000.0 270405000000.0 36453900000.0 248421000000.0 1.12379e+12 445837000000.0 439513000000.0 407562000000.0 251201000000.0 57211700000.0 201703000000.0 268052000000.0 340255000000.0 350641000000.0 392660000000.0 395466000000.0 409886000000.0 415744000000.0 377948000000.0 362667000000.0 257217000000.0 175842000000.0 171754000000.0 282931000000.0 359112000000.0 170017000000.0 140272000000.0 268313000000.0 999910000000.0 9035750000.0 407505000000.0 445393000000.0 393389000000.0 376447000000.0 161076000000.0 16329800000.0 156999000000.0 208814000000.0 241321000000.0 322832000000.0 394285000000.0 414946000000.0 385317000000.0 302253000000.0 202837000000.0 246516000000.0 217382000000.0 28932900000.0 38057200000.0 209138000000.0 1.06429e+12 1.11994e+12 293977000000.0 391302000000.0 381338000000.0 488145000000.0 344162000000.0 131082000000.0 240418000000.0 291164000000.0 378886000000.0 393595000000.0 459583000000.0 433453000000.0 438300000000.0 401580000000.0 324210000000.0 239379000000.0 227300000000.0 229603000000.0 225344000000.0 72907500000.0 154506000000.0 335497000000.0 1.14602e+12 1.13128e+12 263022000000.0 407409000000.0 593492000000.0 789131000000.0 122716000000.0 164824000000.0 340331000000.0 478105000000.0 494601000000.0 400226000000.0 348702000000.0 267854000000.0 254124000000.0 218655000000.0 252625000000.0 288060000000.0 122238000000.0 107393000000.0 269989000000.0 307804000000.0 419371000000.0 1.22052e+12 140513000000.0 95406300000.0 214888000000.0 164348000000.0 463299000000.0 542898000000.0 888429000000.0 30587900000.0 147690000000.0 268400000000.0 462865000000.0 480118000000.0 547606000000.0 490099000000.0 319316000000.0 182204000000.0 306205000000.0 200704000000.0 8131480000.0 58087800000.0 224927000000.0 400767000000.0 492398000000.0 1.22323e+12 15889100000.0 36598600000.0 69796100000.0 392225000000.0 637077000000.0 421248000000.0 622641000000.0 589179000000.0 643669000000.0 575073000000.0 569447000000.0 450641000000.0 386866000000.0 195864000000.0 19380100000.0 132343000000.0 329108000000.0 343975000000.0 111031000000.0 171331000000.0 289920000000.0 356139000000.0 465682000000.0 1.27502e+12 1.43101e+12 2720260000.0 28211500000.0 105393000000.0 56136100000.0 219121000000.0 197317000000.0 130661000000.0 347344000000.0 1.05533e+12 200921000000.0 672556000000.0 658562000000.0 702324000000.0 658350000000.0 546275000000.0 312156000000.0 239653000000.0 314837000000.0 104858000000.0 193712000000.0 393389000000.0 499124000000.0 542287000000.0 1.28613e+12 1.73974e+12 39393500000.0 143597000000.0 244011000000.0 280850000000.0 1.27563e+12 835843000000.0 764744000000.0 798221000000.0 729356000000.0 651101000000.0 526436000000.0 535975000000.0 236969000000.0 120520000000.0 273248000000.0 32702500000.0 5582800000.0 20895500000.0 278511000000.0 393623000000.0 591036000000.0 1.82318e+12 168906000000.0 118051000000.0 203171000000.0 207826000000.0 743736000000.0 1.11181e+12 876692000000.0 792143000000.0 725744000000.0 710419000000.0 641968000000.0 652887000000.0 597794000000.0 415103000000.0 1.14067e+12 157398000000.0 273557000000.0 24969900000.0 43281300000.0 84217200000.0 584112000000.0 852888000000.0 1.25911e+12 1.69144e+12 803342000000.0 11348600000.0 588954000000.0 395327000000.0 114076000000.0 285479000000.0 288833000000.0 425364000000.0 456982000000.0 819998000000.0 1.05676e+12 1.07889e+12 1.03208e+12 866376000000.0 764715000000.0 702705000000.0 701646000000.0 812740000000.0 570766000000.0 1.51835e+12 954675000000.0 323295000000.0 380037000000.0 202581000000.0 1.56391e+12 54082400000.0 279022000000.0 575017000000.0 470401000000.0 1.48257e+12 577617000000.0 125577000000.0 493776000000.0 685662000000.0 1.00491e+12 1.04808e+12 975145000000.0 910844000000.0 826452000000.0 772202000000.0 732995000000.0 712544000000.0 718832000000.0 771491000000.0 817735000000.0 728830000000.0 527948000000.0 876926000000.0 744451000000.0 729349000000.0 403980000000.0 269627000000.0 519064000000.0 1.20065e+12 511311000000.0 345552000000.0 444386000000.0 312441000000.0 468472000000.0 209736000000.0 1.13812e+12 852250000000.0 486697000000.0 761234000000.0 696721000000.0 841831000000.0 897277000000.0 1.04832e+12 988364000000.0 834302000000.0 717448000000.0 711884000000.0 751160000000.0 362099000000.0 352584000000.0 744349000000.0 775276000000.0 920127000000.0 809831000000.0 776205000000.0 718982000000.0 421482000000.0 262490000000.0 416849000000.0 437305000000.0 415589000000.0 418248000000.0 590404000000.0 509896000000.0 660462000000.0 1.04961e+12 891242000000.0 631923000000.0 967321000000.0 861684000000.0 960773000000.0 1.00804e+12 1.029e+12 1.02078e+12 904129000000.0 755370000000.0 668817000000.0 683072000000.0 600199000000.0 556843000000.0 206174000000.0 505385000000.0 375226000000.0 546852000000.0 592666000000.0 1.18732e+12 542357000000.0 694611000000.0 893297000000.0 246380000000.0 256360000000.0 297359000000.0 404415000000.0 693876000000.0 496787000000.0 293362000000.0 589824000000.0 749335000000.0 534683000000.0 609853000000.0 19346600000.0 720604000000.0 963120000000.0 952720000000.0 956938000000.0 944698000000.0 1.03312e+12 956406000000.0 948872000000.0 852526000000.0 810100000000.0 725516000000.0 681649000000.0 599878000000.0 603861000000.0 496615000000.0 413118000000.0 113280000000.0 61019800000.0 570528000000.0 529667000000.0 254098000000.0 1.14532e+12 255911000000.0 497849000000.0 85473600000.0 311694000000.0 131106000000.0 181137000000.0 500124000000.0 652655000000.0 555587000000.0 527875000000.0 35711200000.0 343724000000.0 953609000000.0 703842000000.0 763329000000.0 643612000000.0 1.28934e+12 104664000000.0 659896000000.0 1.0065e+12 1.0014e+12 1.04819e+12 1.03258e+12 998388000000.0 854244000000.0 759565000000.0 655783000000.0 481356000000.0 393776000000.0 190882000000.0 301380000000.0 469894000000.0 667464000000.0 638178000000.0 19151000000.0 159476000000.0 244206000000.0 69595100000.0 248038000000.0 366938000000.0 77217700000.0 206565000000.0 8578600000.0 435792000000.0 269498000000.0 47692800000.0 212499000000.0 111975000000.0 36837300000.0 572567000000.0 948890000000.0 818571000000.0 322128000000.0 144301000000.0 14486300000.0 748103000000.0 1.14148e+12 1.11749e+12 1.07752e+12 925394000000.0 822254000000.0 693124000000.0 760201000000.0 695297000000.0 663779000000.0 592799000000.0 529120000000.0 319827000000.0 65904900000.0 262648000000.0 301931000000.0 354744000000.0 645547000000.0 671937000000.0 723342000000.0 562852000000.0 439846000000.0 307315000000.0 128143000000.0 31352600000.0 226792000000.0 360261000000.0 16417600000.0 68329100000.0 420283000000.0 72770100000.0 80435400000.0 96921200000.0 375253000000.0 251249000000.0 395110000000.0 280567000000.0 226605000000.0 24861600000.0 130155000000.0 193754000000.0 486848000000.0 527688000000.0 654402000000.0 69569800000.0 634801000000.0 966536000000.0 1.13779e+12 1.13328e+12 565523000000.0 644834000000.0 700231000000.0 700657000000.0 654972000000.0 423190000000.0 584100000000.0 437786000000.0 681312000000.0 761008000000.0 671143000000.0 568351000000.0 89373700000.0 556972000000.0 31189200000.0 401135000000.0 592239000000.0 250507000000.0 366994000000.0 718106000000.0 798508000000.0 193169000000.0 339486000000.0 144569000000.0 158926000000.0 614217000000.0 329676000000.0 1.01881e+12 359940000000.0 297545000000.0 654467000000.0 603517000000.0 422938000000.0 943978000000.0 351175000000.0 434901000000.0 284165000000.0 808613000000.0 1.07699e+12 1.11077e+12 1.12278e+12 758128000000.0 496532000000.0 687594000000.0 772434000000.0 722077000000.0 733074000000.0 652447000000.0 998438000000.0 1.19908e+12 202793000000.0 185433000000.0 399113000000.0 801287000000.0 814050000000.0 748049000000.0 662972000000.0 238163000000.0 358528000000.0 55012700000.0 414385000000.0 481566000000.0 950470000000.0 399638000000.0 207318000000.0 635641000000.0 315614000000.0 261019000000.0 782880000000.0 483432000000.0 457615000000.0 171014000000.0 93731700000.0 223087000000.0 434738000000.0 784172000000.0 677916000000.0 323273000000.0 150441000000.0 170958000000.0 123816000000.0 349271000000.0 209411000000.0 453108000000.0 560389000000.0 924642000000.0 1.11947e+12 1.17902e+12 495092000000.0 185033000000.0 386284000000.0 576086000000.0 783451000000.0 760964000000.0 871647000000.0 592223000000.0 74484000000.0 705621000000.0 773104000000.0 737472000000.0 605114000000.0 486807000000.0 173901000000.0 531913000000.0 847810000000.0 698174000000.0 1.02338e+12 71243700000.0 283318000000.0 379826000000.0 116972000000.0 277828000000.0 100209000000.0 1.27114e+12 341022000000.0 463569000000.0 10353800000.0 62624400000.0 87101400000.0 7092010000.0 73748300000.0 154723000000.0 463644000000.0 432640000000.0 355318000000.0 251759000000.0 154642000000.0 77627900000.0 364982000000.0 55648800000.0 200503000000.0 487496000000.0 657958000000.0 923605000000.0 1.53054e+12 229115000000.0 987289000000.0 748504000000.0 765904000000.0 857785000000.0 665013000000.0 254782000000.0 43310700000.0 183005000000.0 759348000000.0 698509000000.0 499225000000.0 534649000000.0 339896000000.0 80860300000.0 728636000000.0 17222100000.0 1.70064e+12 1.23406e+12 20268500000.0 88548100000.0 557192000000.0 491535000000.0 135772000000.0 174284000000.0 1.12513e+12 351619000000.0 584624000000.0 291459000000.0 458770000000.0 29862300000.0 101206000000.0 69748600000.0 71480700000.0 203611000000.0 635056000000.0 622022000000.0 243527000000.0 20186300000.0 122458000000.0 333537000000.0 149618000000.0 203682000000.0 111779000000.0 183131000000.0 357499000000.0 736430000000.0 938906000000.0 335100000000.0 112912000000.0 911222000000.0 518424000000.0 150522000000.0 583333000000.0 848113000000.0 830289000000.0 879993000000.0 777226000000.0 442738000000.0 287943000000.0 384777000000.0 149160000000.0 689964000000.0 403342000000.0 324878000000.0 276864000000.0 95229600000.0 644088000000.0 228904000000.0 5535660000.0 163473000000.0 114412000000.0 31412400000.0 193201000000.0 371911000000.0 377978000000.0 597339000000.0 193500000000.0 206170000000.0 292750000000.0 447385000000.0 302482000000.0 281941000000.0 2316110000.0 107290000000.0 150653000000.0 222895000000.0 272208000000.0 210288000000.0 306275000000.0 38497800000.0 93754200000.0 252071000000.0 801396000000.0 1.08187e+12 936357000000.0 596225000000.0 496774000000.0 310428000000.0 93723800000.0 149125000000.0 186860000000.0 247555000000.0 49037200000.0 568518000000.0 277623000000.0 287739000000.0 579103000000.0 815046000000.0 722875000000.0 21029600000.0 60158500000.0 923705000000.0 1.07985e+12 381308000000.0 110765000000.0 140872000000.0 126565000000.0 7255570000.0 121272000000.0 232568000000.0 373056000000.0 155462000000.0 39981200000.0 130751000000.0 220087000000.0 249238000000.0 174525000000.0 496749000000.0 1.05368e+12 482643000000.0 288663000000.0 289648000000.0 277939000000.0 37707000000.0 246066000000.0 374409000000.0 536064000000.0 475003000000.0 354363000000.0 80721000000.0 418197000000.0 220622000000.0 386042000000.0 379186000000.0 431900000000.0 297602000000.0 65711300000.0 349594000000.0 433498000000.0 319048000000.0 1.03571e+12 562061000000.0 81078400000.0 48677000000.0 216312000000.0 867011000000.0 271993000000.0 235053000000.0 863385000000.0 1.05742e+12 947192000000.0 171265000000.0 793947000000.0 1.00106e+12 188059000000.0 570936000000.0 1.33016e+12 75879700000.0 16678600000.0 421805000000.0 1.05849e+12 255032000000.0 109708000000.0 230289000000.0 166004000000.0 312573000000.0 224604000000.0 26771900000.0 94887000000.0 173939000000.0 184345000000.0 165658000000.0 82383200000.0 244870000000.0 739602000000.0 43932900000.0 645217000000.0 486173000000.0 151890000000.0 515633000000.0 308717000000.0 256012000000.0 414994000000.0 454341000000.0 7016400000.0 157038000000.0 328243000000.0 505450000000.0 754930000000.0 734228000000.0 510033000000.0 322932000000.0 197629000000.0 199573000000.0 253306000000.0 96440200000.0 348089000000.0 770054000000.0 1.32906e+12 1.34377e+12 332512000000.0 108757000000.0 290921000000.0 796129000000.0 331477000000.0 515180000000.0 411693000000.0 779397000000.0 1.25375e+12 646356000000.0 1.29881e+12 317229000000.0 509712000000.0 1.37104e+12 217084000000.0 104298000000.0 24226300000.0 4032710000.0 195679000000.0 1.47465e+12 273368000000.0 1.15116e+12 529674000000.0 250826000000.0 336219000000.0 273709000000.0 195942000000.0 100870000000.0 138849000000.0 146548000000.0 130118000000.0 53141900000.0 574088000000.0 440601000000.0 231525000000.0 314470000000.0 169867000000.0 49109000000.0 545323000000.0 590278000000.0 394217000000.0 113353000000.0 222539000000.0 349380000000.0 543712000000.0 671379000000.0 203904000000.0 479308000000.0 661070000000.0 658824000000.0 868531000000.0 411151000000.0 533920000000.0 283814000000.0 418785000000.0 211052000000.0 285243000000.0 254320000000.0 13418800000.0 221468000000.0 537404000000.0 555467000000.0 371692000000.0 604251000000.0 1.00004e+12 702006000000.0 115624000000.0 416301000000.0 797252000000.0 27513400000.0 727239000000.0 698137000000.0 604192000000.0 125774000000.0 154720000000.0 925396000000.0 1.24347e+12 336147000000.0 191739000000.0 218607000000.0 556528000000.0 371751000000.0 47245900000.0 97843200000.0 183979000000.0 189565000000.0 176754000000.0 115084000000.0 55681200000.0 69930100000.0 301442000000.0 440790000000.0 823106000000.0 298446000000.0 325434000000.0 55240700000.0 35175900000.0 85644800000.0 66629100000.0 627823000000.0 541810000000.0 465141000000.0 74231400000.0 156651000000.0 223965000000.0 953355000000.0 234535000000.0 396011000000.0 553124000000.0 862223000000.0 1.20205e+12 683029000000.0 577269000000.0 885212000000.0 396579000000.0 329512000000.0 438399000000.0 274372000000.0 145823000000.0 130896000000.0 431910000000.0 785337000000.0 494312000000.0 59902700000.0 291153000000.0 588227000000.0 680198000000.0 1.32161e+12 429892000000.0 1.34971e+12 106544000000.0 415439000000.0 120215000000.0 44220500000.0 219457000000.0 821850000000.0 395720000000.0 262749000000.0 51177100000.0 153243000000.0 223326000000.0 171825000000.0 1867050000.0 92465300000.0 151461000000.0 175331000000.0 163197000000.0 100557000000.0 17282000000.0 113399000000.0 203615000000.0 330346000000.0 42920500000.0 167048000000.0 29694700000.0 164500000000.0 5884230000.0 151556000000.0 283681000000.0 374816000000.0 257221000000.0 644423000000.0 29024000000.0 92292800000.0 87371900000.0 128107000000.0 192225000000.0 308378000000.0 743174000000.0 356297000000.0 294391000000.0 665818000000.0 787435000000.0 1.14987e+12 786750000000.0 874558000000.0 226232000000.0 96257400000.0 102451000000.0 270249000000.0 103224000000.0 218658000000.0 250377000000.0 103909000000.0 519405000000.0 805083000000.0 343079000000.0 307264000000.0 507946000000.0 1.02244e+12 378608000000.0 1.0192e+12 183073000000.0 459821000000.0 220379000000.0 360036000000.0 529259000000.0 314893000000.0 41405700000.0 182331000000.0 160202000000.0 32895000000.0 3769420000.0 85617300000.0 137569000000.0 179142000000.0 112895000000.0 50386900000.0 5285930000.0 92361300000.0 117226000000.0 96286800000.0 215109000000.0 276761000000.0 183927000000.0 86725900000.0 144316000000.0 182732000000.0 304542000000.0 265955000000.0 29270600000.0 922671000000.0 221655000000.0 55303900000.0 100613000000.0 112006000000.0 184437000000.0 359520000000.0 456249000000.0 462085000000.0 28011000000.0 231808000000.0 124261000000.0 20513300000.0 203346000000.0 55812800000.0 308089000000.0 169263000000.0 565352000000.0 506109000000.0 325682000000.0 288294000000.0 612204000000.0 439693000000.0 231184000000.0 144470000000.0 537922000000.0 684220000000.0 620442000000.0 357629000000.0 102500000000.0 903894000000.0 673306000000.0 40277300000.0 94764000000.0 361552000000.0 318440000000.0 349431000000.0 90880300000.0 133300000000.0 228320000000.0 190948000000.0 101923000000.0 122225000000.0 193131000000.0 168851000000.0 150679000000.0 255835000000.0 267814000000.0 167549000000.0 477903000000.0 323584000000.0 56878000000.0 373950000000.0 438407000000.0 257061000000.0 251069000000.0 240735000000.0 350917000000.0 21007800000.0 900681000000.0 1.04677e+12 85871100000.0 167029000000.0 137519000000.0 203724000000.0 298680000000.0 321291000000.0 449060000000.0 300444000000.0 278009000000.0 56986100000.0 131200000000.0 536243000000.0 528890000000.0 480636000000.0 392892000000.0 213706000000.0 307919000000.0 857448000000.0 1.42063e+12 1.49706e+12 948968000000.0 285683000000.0 99568900000.0 213863000000.0 483620000000.0 564358000000.0 488764000000.0 430679000000.0 279819000000.0 303442000000.0 285795000000.0 583822000000.0 606484000000.0 297101000000.0 181748000000.0 243243000000.0 344515000000.0 307748000000.0 335949000000.0 128244000000.0 79511300000.0 200890000000.0 243887000000.0 231026000000.0 194030000000.0 165021000000.0 199249000000.0 222185000000.0 220835000000.0 189143000000.0 152042000000.0 145781000000.0 437233000000.0 423681000000.0 413295000000.0 492812000000.0 1.21304e+12 740492000000.0 369215000000.0 652413000000.0 855982000000.0 450862000000.0 103357000000.0 145838000000.0 163855000000.0 303621000000.0 135823000000.0 530685000000.0 69469500000.0 149364000000.0 224163000000.0 303317000000.0 393143000000.0 392109000000.0 255243000000.0 60752400000.0 218759000000.0 544723000000.0 641955000000.0 341367000000.0 57344100000.0 31522600000.0 296450000000.0 448262000000.0 436113000000.0 436889000000.0 529969000000.0 492731000000.0 389110000000.0 10390000000.0 230806000000.0 415686000000.0 468191000000.0 456300000000.0 378405000000.0 352536000000.0 342795000000.0 451927000000.0 679204000000.0 799264000000.0 633507000000.0 562433000000.0 376489000000.0 307037000000.0 310190000000.0 260277000000.0 146675000000.0 34306900000.0 166578000000.0 236348000000.0 265446000000.0 207881000000.0 233566000000.0 253551000000.0 257021000000.0 235722000000.0 191791000000.0 190612000000.0 259777000000.0 421811000000.0 882530000000.0 1.58417e+12 1.61831e+12 554760000000.0 458628000000.0 213079000000.0 774636000000.0 622689000000.0 125287000000.0 178510000000.0 258035000000.0 386907000000.0 80020400000.0 406628000000.0 419383000000.0 367395000000.0 547118000000.0 596022000000.0 956638000000.0 193690000000.0 233685000000.0 297847000000.0 378292000000.0 404806000000.0 377084000000.0 5816390000.0 266126000000.0 530539000000.0 668799000000.0 622298000000.0 426339000000.0 173597000000.0 212122000000.0 394988000000.0 384247000000.0 387347000000.0 418625000000.0 490582000000.0 432628000000.0 330466000000.0 205406000000.0 225488000000.0 362474000000.0 418653000000.0 408158000000.0 390668000000.0 384633000000.0 438242000000.0 562531000000.0 690133000000.0 714991000000.0 611420000000.0 526747000000.0 416856000000.0 350747000000.0 307063000000.0 237913000000.0 133194000000.0 301643000.0 127594000000.0 214124000000.0 268325000000.0 258909000000.0 273271000000.0 288394000000.0 292363000000.0 278687000000.0 245444000000.0 195568000000.0 216888000000.0 323514000000.0 470388000000.0 115786000000.0 501069000000.0 327327000000.0 326096000000.0 487390000000.0 262256000000.0 104986000000.0 275198000000.0 401656000000.0 495749000000.0 15060300000.0 51751700000.0 25305800000.0 512619000000.0 760636000000.0 690423000000.0 787661000000.0 712496000000.0 45847100000.0 235311000000.0 288950000000.0 336704000000.0 357707000000.0 393333000000.0 411787000000.0 304330000000.0 273745000000.0 511430000000.0 660374000000.0 708599000000.0 663558000000.0 499890000000.0 333588000000.0 341170000000.0 385094000000.0 385261000000.0 406432000000.0 438544000000.0 447495000000.0 376458000000.0 270462000000.0 138145000000.0 33715700000.0 375322000000.0 390417000000.0 398807000000.0 434037000000.0 509136000000.0 603912000000.0 668118000000.0 656733000000.0 579967000000.0 500933000000.0 302349000000.0 240945000000.0 141610000000.0 24288300000.0 89018300000.0 183295000000.0 264773000000.0 292400000000.0 307160000000.0 312911000000.0 322455000000.0 326823000000.0 318258000000.0 282521000000.0 200052000000.0 34704500000.0 44840700000.0 191904000000.0 546679000000.0 352068000000.0 126479000000.0 244091000000.0 58761800000.0 757916000000.0 505913000000.0 280965000000.0 462465000000.0 649053000000.0 614407000000.0 812294000000.0 592191000000.0 74789600000.0 49218900000.0 160586000000.0 338338000000.0 844372000000.0 725006000000.0 448708000000.0 193724000000.0 153887000000.0 270772000000.0 370762000000.0 405426000000.0 417367000000.0 430080000000.0 496904000000.0 643197000000.0 731170000000.0 756812000000.0 700925000000.0 568261000000.0 439630000000.0 400626000000.0 405592000000.0 410536000000.0 425914000000.0 432916000000.0 408520000000.0 328560000000.0 220898000000.0 90681100000.0 64736500000.0 218065000000.0 328043000000.0 412285000000.0 332631000000.0 255903000000.0 165552000000.0 56176400000.0 53080600000.0 250051000000.0 294432000000.0 322788000000.0 339354000000.0 347541000000.0 353562000000.0 354320000000.0 345025000000.0 311519000000.0 206163000000.0 82522800000.0 273505000000.0 499699000000.0 886624000000.0 637511000000.0 271663000000.0 76831800000.0 29754900000.0 111935000000.0 409763000000.0 310836000000.0 438133000000.0 542872000000.0 1.45648e+12 1.09914e+12 737222000000.0 558385000000.0 516491000000.0 77092100000.0 47265100000.0 149537000000.0 256572000000.0 1.06517e+12 496828000000.0 539842000000.0 331497000000.0 90728100000.0 70826400000.0 220925000000.0 320119000000.0 360087000000.0 442807000000.0 487156000000.0 554544000000.0 637879000000.0 731676000000.0 790235000000.0 792195000000.0 726281000000.0 611915000000.0 505292000000.0 454232000000.0 440559000000.0 439490000000.0 438937000000.0 421732000000.0 371464000000.0 284154000000.0 175146000000.0 49872200000.0 85977100000.0 212937000000.0 303208000000.0 353560000000.0 383207000000.0 417694000000.0 472953000000.0 544333000000.0 607529000000.0 634073000000.0 605417000000.0 540174000000.0 462519000000.0 374167000000.0 285407000000.0 192308000000.0 91028000000.0 148252000000.0 224707000000.0 281318000000.0 320308000000.0 345667000000.0 360532000000.0 366786000000.0 368704000000.0 368388000000.0 370067000000.0 378251000000.0 365406000000.0 333373000000.0 1.33459e+12 398401000000.0 287830000000.0 109049000000.0 19123600000.0 289361000000.0 106135000000.0 1.04814e+12 1.48213e+12 832514000000.0 1.00643e+12 905916000000.0 768214000000.0 648085000000.0 469169000000.0 60195500000.0 20640300000.0 59411900000.0 263911000000.0 220822000000.0 54219400000.0 266914000000.0 29615900000.0 26575400000.0 224232000000.0 206062000000.0 320176000000.0 324548000000.0 319717000000.0 354298000000.0 409480000000.0 480096000000.0 566661000000.0 653845000000.0 735668000000.0 806113000000.0 459694000000.0 438861000000.0 399027000000.0 333563000000.0 242248000000.0 135543000000.0 18553500000.0 101428000000.0 208464000000.0 289094000000.0 344141000000.0 388458000000.0 436849000000.0 494422000000.0 552771000000.0 589950000000.0 590552000000.0 554660000000.0 488896000000.0 406580000000.0 316645000000.0 225273000000.0 13654800000.0 110770000000.0 192850000000.0 257136000000.0 304869000000.0 338328000000.0 358995000000.0 367321000000.0 363935000000.0 350756000000.0 324768000000.0 757276000000.0 373927000000.0 309818000000.0 190288000000.0 33751400000.0 119065000000.0 111807000000.0 357795000000.0 786024000000.0 16332300000.0 720385000000.0 827545000000.0 663689000000.0 566666000000.0 490301000000.0 411209000000.0 39729600000.0 116989000000.0 80640200000.0 269677000000.0 226033000000.0 285626000000.0 217958000000.0 510352000000.0 388476000000.0 65179200000.0 228621000000.0 363088000000.0 278140000000.0 263550000000.0 414245000000.0 310541000000.0 422861000000.0 530444000000.0 647537000000.0 743106000000.0 837993000000.0 815138000000.0 741608000000.0 638659000000.0 549841000000.0 500867000000.0 475897000000.0 204071000000.0 101171000000.0 6760800000.0 112615000000.0 206640000000.0 282007000000.0 341229000000.0 393741000000.0 446492000000.0 498885000000.0 540022000000.0 557222000000.0 543322000000.0 496244000000.0 425483000000.0 346840000000.0 128437000000.0 28068900000.0 69266300000.0 155411000000.0 226728000000.0 282574000000.0 323384000000.0 350408000000.0 363804000000.0 274388000000.0 154921000000.0 465494000000.0 197240000000.0 710263000000.0 425128000000.0 142103000000.0 39920700000.0 225470000000.0 576002000000.0 683990000000.0 485034000000.0 241826000000.0 700445000000.0 769387000000.0 739043000000.0 635011000000.0 563820000000.0 412224000000.0 343972000000.0 139160000000.0 154720000000.0 241551000000.0 307238000000.0 288145000000.0 359503000000.0 492392000000.0 622907000000.0 335953000000.0 417689000000.0 447698000000.0 495055000000.0 345423000000.0 471016000000.0 592751000000.0 340501000000.0 450489000000.0 605317000000.0 741945000000.0 816777000000.0 863864000000.0 869398000000.0 828383000000.0 750691000000.0 659647000000.0 582305000000.0 531165000000.0 495362000000.0 463211000000.0 425493000000.0 371065000000.0 296377000000.0 123569000000.0 207971000000.0 279767000000.0 340839000000.0 395435000000.0 445512000000.0 487647000000.0 514222000000.0 515796000000.0 486806000000.0 261309000000.0 167785000000.0 68806900000.0 28537700000.0 117300000000.0 193295000000.0 255125000000.0 302587000000.0 336415000000.0 362834000000.0 346369000000.0 311519000000.0 247974000000.0 123644000000.0 212881000000.0 189760000000.0 697427000000.0 731574000000.0 476307000000.0 306312000000.0 163172000000.0 105017000000.0 377122000000.0 93387800000.0 362953000000.0 841579000000.0 402346000000.0 796340000000.0 705605000000.0 517830000000.0 467641000000.0 336454000000.0 257060000000.0 132237000000.0 274921000000.0 173485000000.0 185105000000.0 257375000000.0 367990000000.0 476645000000.0 475735000000.0 606256000000.0 526926000000.0 493769000000.0 518460000000.0 618742000000.0 493865000000.0 643075000000.0 248233000000.0 347317000000.0 540565000000.0 835063000000.0 889926000000.0 907751000000.0 886592000000.0 830914000000.0 752721000000.0 669837000000.0 598683000000.0 543940000000.0 498900000000.0 454907000000.0 404461000000.0 340208000000.0 260439000000.0 168692000000.0 70505200000.0 28896500000.0 434617000000.0 368472000000.0 290251000000.0 200774000000.0 104615000000.0 9277040000.0 79238500000.0 157505000000.0 223818000000.0 357109000000.0 363489000000.0 354247000000.0 327632000000.0 279477000000.0 198413000000.0 46298300000.0 260423000000.0 581976000000.0 730970000000.0 672105000000.0 481600000000.0 327365000000.0 100246000000.0 533939000000.0 912938000000.0 1.05819e+12 120201000000.0 966985000000.0 910985000000.0 681225000000.0 576008000000.0 399618000000.0 392374000000.0 371921000000.0 300918000000.0 241929000000.0 60753700000.0 469062000000.0 673508000000.0 151123000000.0 84853900000.0 111324000000.0 199990000000.0 363355000000.0 452376000000.0 583372000000.0 641358000000.0 661967000000.0 593957000000.0 543024000000.0 540665000000.0 634350000000.0 783909000000.0 720468000000.0 532109000000.0 947497000000.0 135247000000.0 463302000000.0 727487000000.0 851002000000.0 915694000000.0 937793000000.0 926824000000.0 886754000000.0 823505000000.0 746339000000.0 668196000000.0 599327000000.0 541753000000.0 490307000000.0 437872000000.0 378504000000.0 308118000000.0 226372000000.0 136477000000.0 43268800000.0 48675500000.0 135015000000.0 212535000000.0 280551000000.0 340313000000.0 392418000000.0 435602000000.0 466736000000.0 478597000000.0 465575000000.0 430596000000.0 377667000000.0 307651000000.0 224666000000.0 134986000000.0 44416200000.0 42205300000.0 121302000000.0 277421000000.0 318328000000.0 346603000000.0 361645000000.0 362491000000.0 347910000000.0 317661000000.0 271070000000.0 206866000000.0 321992000000.0 532839000000.0 672682000000.0 703100000000.0 632220000000.0 495189000000.0 360718000000.0 234140000000.0 423072000000.0 600973000000.0 714694000000.0 1.36246e+12 422494000000.0 400632000000.0 293296000000.0 313417000000.0 234747000000.0 148600000000.0 389435000000.0 130655000000.0 166396000000.0 66852100000.0 149875000000.0 98257400000.0 219485000000.0 291739000000.0 400667000000.0 530111000000.0 618175000000.0 652821000000.0 568616000000.0 582492000000.0 702802000000.0 953689000000.0 275508000000.0 693536000000.0 1.29853e+12 8428510000.0 702647000000.0 860040000000.0 938525000000.0 963246000000.0 954094000000.0 920450000000.0 868088000000.0 802035000000.0 728213000000.0 655075000000.0 588689000000.0 529060000000.0 472413000000.0 413998000000.0 349441000000.0 276087000000.0 194469000000.0 107583000000.0 19382600000.0 66088300000.0 145522000000.0 217193000000.0 280854000000.0 336610000000.0 383345000000.0 418193000000.0 436729000000.0 436062000000.0 415377000000.0 374367000000.0 314894000000.0 241766000000.0 160693000000.0 76449700000.0 190523000000.0 248865000000.0 295845000000.0 331324000000.0 355110000000.0 366629000000.0 365632000000.0 353047000000.0 331554000000.0 310245000000.0 377789000000.0 511618000000.0 621798000000.0 664664000000.0 639085000000.0 554888000000.0 458429000000.0 405219000000.0 580670000000.0 670934000000.0 682873000000.0 301643000000.0 373227000000.0 482206000000.0 1.00691e+12 510257000000.0 221716000000.0 261884000000.0 266860000000.0 263047000000.0 162512000000.0 1441840000.0 460829000000.0 905780000000.0 161216000000.0 96074200000.0 483448000000.0 124761000000.0 80007400000.0 328902000000.0 369408000000.0 488078000000.0 547609000000.0 652697000000.0 625151000000.0 498871000000.0 492701000000.0 945209000000.0 1.40189e+12 562675000000.0 1.23726e+12 619895000000.0 836557000000.0 937373000000.0 966229000000.0 959636000000.0 932541000000.0 890413000000.0 835620000000.0 771105000000.0 701544000000.0 632539000000.0 567981000000.0 507535000000.0 448138000000.0 386130000000.0 318661000000.0 244415000000.0 164331000000.0 81316700000.0 1210170000.0 80257000000.0 153569000000.0 219778000000.0 278284000000.0 328287000000.0 367564000000.0 392740000000.0 401207000000.0 391588000000.0 362371000000.0 314655000000.0 252898000000.0 6830600000.0 85351700000.0 156399000000.0 218465000000.0 270693000000.0 312714000000.0 344466000000.0 365835000000.0 376773000000.0 378596000000.0 375793000000.0 377209000000.0 422289000000.0 508865000000.0 591063000000.0 629059000000.0 608208000000.0 521107000000.0 356333000000.0 104867000000.0 318564000000.0 1.16617e+12 379431000000.0 200913000000.0 553021000000.0 820829000000.0 469744000000.0 322915000000.0 192984000000.0 276814000000.0 241974000000.0 248682000000.0 254927000000.0 224035000000.0 11389000000.0 300397000000.0 1.05614e+12 262196000000.0 241406000000.0 71799200000.0 476088000000.0 423572000000.0 523447000000.0 409318000000.0 211016000000.0 265930000000.0 455126000000.0 611270000000.0 665514000000.0 484847000000.0 380180000000.0 336597000000.0 563582000000.0 750682000000.0 1.3525e+12 12519500000.0 659041000000.0 1.0376e+12 101951000000.0 638782000000.0 849676000000.0 915159000000.0 929102000000.0 916965000000.0 887555000000.0 845266000000.0 792432000000.0 286713000000.0 213297000000.0 136265000000.0 57947300000.0 18961300000.0 91982900000.0 159283000000.0 219671000000.0 272114000000.0 315038000000.0 345974000000.0 362475000000.0 362263000000.0 181490000000.0 104020000000.0 25067500000.0 51235100000.0 122247000000.0 186369000000.0 242524000000.0 290073000000.0 328864000000.0 358945000000.0 380591000000.0 395066000000.0 406183000000.0 421079000000.0 441694000000.0 287239000000.0 91439000000.0 165875000000.0 527962000000.0 357519000000.0 652641000000.0 668333000000.0 793382000000.0 461490000000.0 373988000000.0 304874000000.0 273691000000.0 208263000000.0 129134000000.0 621869000000.0 780411000000.0 397731000000.0 66314800000.0 45250700000.0 202388000000.0 71642200000.0 36859400000.0 45512100000.0 591022000000.0 615433000000.0 840250000000.0 154254000000.0 40358600000.0 302884000000.0 351837000000.0 532278000000.0 622898000000.0 636604000000.0 400725000000.0 285223000000.0 370155000000.0 566030000000.0 988221000000.0 195214000000.0 761021000000.0 724301000000.0 56746400000.0 601574000000.0 769599000000.0 835689000000.0 857203000000.0 731808000000.0 667563000000.0 603330000000.0 540909000000.0 480151000000.0 419128000000.0 355247000000.0 343786000000.0 308157000000.0 257978000000.0 196087000000.0 126332000000.0 53222100000.0 19423700000.0 88949700000.0 153647000000.0 212341000000.0 264115000000.0 308651000000.0 346297000000.0 459375000000.0 521860000000.0 583689000000.0 617779000000.0 609284000000.0 550661000000.0 238478000000.0 496860000000.0 972368000000.0 831122000000.0 549920000000.0 440614000000.0 338391000000.0 269741000000.0 51739100000.0 187674000000.0 578279000000.0 1.12791e+12 124287000000.0 167715000000.0 78844300000.0 33884300000.0 47195800000.0 61259200000.0 38712100000.0 177515000000.0 575669000000.0 574162000000.0 946438000000.0 954295000000.0 88014200000.0 172469000000.0 486398000000.0 639921000000.0 704043000000.0 757182000000.0 325272000000.0 317519000000.0 494101000000.0 809127000000.0 733185000000.0 10492100000.0 737384000000.0 482183000000.0 108150000000.0 500641000000.0 852839000000.0 829670000000.0 792249000000.0 744312000000.0 688928000000.0 629340000000.0 568738000000.0 508568000000.0 448425000000.0 386898000000.0 322596000000.0 254751000000.0 183482000000.0 110037000000.0 36545400000.0 34707400000.0 101708000000.0 162869000000.0 216944000000.0 262582000000.0 297939000000.0 320879000000.0 328915000000.0 320527000000.0 296024000000.0 256669000000.0 204653000000.0 143529000000.0 77304200000.0 9513320000.0 57238200000.0 121158000000.0 180986000000.0 377440000000.0 402475000000.0 424056000000.0 448593000000.0 485732000000.0 534476000000.0 583502000000.0 616546000000.0 618157000000.0 582212000000.0 507075000000.0 397632000000.0 297171000000.0 458570000000.0 454698000000.0 279534000000.0 435459000000.0 998222000000.0 994573000000.0 836397000000.0 612900000000.0 447899000000.0 328270000000.0 210997000000.0 95734800000.0 371535000000.0 805565000000.0 538328000000.0 352102000000.0 414658000000.0 350467000000.0 47967100000.0 36928200000.0 48678700000.0 75473800000.0 264113000000.0 503459000000.0 453849000000.0 526866000000.0 538777000000.0 534301000000.0 262732000000.0 406177000000.0 816033000000.0 1.09643e+12 347585000000.0 540877000000.0 834210000000.0 1.03413e+12 667274000000.0 748012000000.0 782229000000.0 786917000000.0 770057000000.0 737196000000.0 693431000000.0 642846000000.0 587980000000.0 530890000000.0 472768000000.0 413572000000.0 352709000000.0 289364000000.0 223118000000.0 154580000000.0 85204600000.0 16836600000.0 48668000000.0 109609000000.0 164491000000.0 211918000000.0 250448000000.0 278240000000.0 293110000000.0 293572000000.0 279049000000.0 249873000000.0 207808000000.0 155801000000.0 97200900000.0 35161100000.0 27722100000.0 235759000000.0 284800000000.0 328064000000.0 366137000000.0 399920000000.0 431196000000.0 463246000000.0 501260000000.0 545927000000.0 589612000000.0 620940000000.0 629349000000.0 608298000000.0 558730000000.0 485409000000.0 404859000000.0 354545000000.0 462208000000.0 385719000000.0 427754000000.0 781684000000.0 1.03869e+12 958230000000.0 793911000000.0 602669000000.0 435358000000.0 284516000000.0 114275000000.0 193831000000.0 369040000000.0 522151000000.0 722072000000.0 618547000000.0 32154500000.0 81950000000.0 39615100000.0 49325000000.0 2080190000.0 106683000000.0 372578000000.0 354032000000.0 300350000000.0 611205000000.0 395165000000.0 200831000000.0 7113760000.0 555614000000.0 761855000000.0 305223000000.0 580432000000.0 820389000000.0 710780000000.0 296284000000.0 535710000000.0 398878000000.0 282398000000.0 488160000000.0 614528000000.0 685469000000.0 718726000000.0 725066000000.0 711114000000.0 681999000000.0 642361000000.0 595817000000.0 544528000000.0 490259000000.0 434341000000.0 376868000000.0 317383000000.0 255616000000.0 191742000000.0 126664000000.0 61778900000.0 1332070000.0 61063900000.0 115891000000.0 164367000000.0 205071000000.0 236398000000.0 256661000000.0 264363000000.0 258449000000.0 238782000000.0 206446000000.0 163609000000.0 89570600000.0 149144000000.0 205425000000.0 257502000000.0 305130000000.0 349017000000.0 389812000000.0 428026000000.0 465696000000.0 506808000000.0 551551000000.0 593340000000.0 624958000000.0 640090000000.0 631551000000.0 597242000000.0 545395000000.0 490599000000.0 457123000000.0 474683000000.0 494093000000.0 695211000000.0 930256000000.0 1.02959e+12 871760000000.0 741463000000.0 585720000000.0 382975000000.0 216372000000.0 17755200000.0 239082000000.0 489602000000.0 181362000000.0 354309000000.0 278823000000.0 41563800000.0 221607000000.0 49179000000.0 83286700000.0 65833700000.0 23758300000.0 31419900000.0 41958400000.0 26183500000.0 243984000000.0 260950000000.0 158673000000.0 390662000000.0 380197000000.0 191442000000.0 5412520000.0 183792000000.0 307086000000.0 453853000000.0 1.16882e+12 147535000000.0 664910000000.0 1.01456e+12 983613000000.0 726331000000.0 476810000000.0 492707000000.0 415191000000.0 391175000000.0 501114000000.0 586058000000.0 638925000000.0 664431000000.0 668121000000.0 654676000000.0 627867000000.0 591136000000.0 547560000000.0 499355000000.0 447934000000.0 394246000000.0 338646000000.0 281051000000.0 221574000000.0 160788000000.0 99696000000.0 39572100000.0 18181200000.0 72109000000.0 120808000000.0 162889000000.0 196882000000.0 113002000000.0 57369000000.0 809138000.0 59585300000.0 117581000000.0 173867000000.0 227666000000.0 278319000000.0 325827000000.0 371020000000.0 414997000000.0 458802000000.0 503357000000.0 548635000000.0 592019000000.0 627681000000.0 649176000000.0 651883000000.0 632007000000.0 592737000000.0 549278000000.0 529720000000.0 540223000000.0 542944000000.0 483256000000.0 670142000000.0 841384000000.0 965225000000.0 962801000000.0 803589000000.0 676894000000.0 534189000000.0 304796000000.0 119776000000.0 95650300000.0 205154000000.0 348204000000.0 999187000000.0 553106000000.0 431828000000.0 178681000000.0 130562000000.0 177638000000.0 127245000000.0 60613000000.0 30829500000.0 24526500000.0 52976400000.0 27685700000.0 100509000000.0 206712000000.0 40021800000.0 196960000000.0 267554000000.0 218233000000.0 64466600000.0 131932000000.0 241404000000.0 693134000000.0 1.09236e+12 122586000000.0 898162000000.0 983397000000.0 906122000000.0 710839000000.0 541149000000.0 495763000000.0 449043000000.0 449289000000.0 509371000000.0 563055000000.0 598844000000.0 615362000000.0 614626000000.0 599940000000.0 221299000000.0 234740000000.0 236094000000.0 224892000000.0 201600000000.0 167627000000.0 125060000000.0 76268600000.0 23498500000.0 31345800000.0 86825300000.0 141903000000.0 195760000000.0 247762000000.0 297765000000.0 346400000000.0 394238000000.0 441373000000.0 488548000000.0 536565000000.0 662219000000.0 638029000000.0 598917000000.0 578963000000.0 605989000000.0 646158000000.0 584916000000.0 567352000000.0 918606000000.0 950336000000.0 887203000000.0 717425000000.0 602953000000.0 460909000000.0 166742000000.0 32681600000.0 878192000000.0 956693000000.0 423725000000.0 583218000000.0 380734000000.0 207372000000.0 32854800000.0 6191900000.0 81689800000.0 11903100000.0 17330900000.0 29501400000.0 120743000000.0 141104000000.0 11131800000.0 45339500000.0 145164000000.0 432258000000.0 732820000000.0 986504000000.0 663758000000.0 860304000000.0 902826000000.0 822175000000.0 679331000000.0 561140000000.0 506664000000.0 472759000000.0 474029000000.0 506779000000.0 574212000000.0 539727000000.0 498684000000.0 453024000000.0 404063000000.0 352640000000.0 299204000000.0 243956000000.0 187357000000.0 130209000000.0 73486100000.0 18336900000.0 33965600000.0 82098300000.0 124733000000.0 160541000000.0 188159000000.0 206224000000.0 213611000000.0 209695000000.0 194496000000.0 168788000000.0 134058000000.0 92219800000.0 45274100000.0 4954110000.0 56990000000.0 109756000000.0 162520000000.0 214716000000.0 265788000000.0 583087000000.0 622854000000.0 651691000000.0 666166000000.0 658422000000.0 783243000000.0 692293000000.0 633255000000.0 662616000000.0 777339000000.0 946541000000.0 900464000000.0 809998000000.0 630644000000.0 503147000000.0 342628000000.0 519247000000.0 707439000000.0 493459000000.0 499998000000.0 285213000000.0 414361000000.0 130499000000.0 57590500000.0 17948200000.0 41866300000.0 3146860000.0 114377000000.0 86918300000.0 31780200000.0 89105200000.0 42362500000.0 98652500000.0 273961000000.0 494152000000.0 773753000000.0 201454000000.0 643020000000.0 798108000000.0 818024000000.0 747887000000.0 643259000000.0 539071000000.0 560047000000.0 567461000000.0 562383000000.0 546387000000.0 521064000000.0 488069000000.0 449034000000.0 405558000000.0 358908000000.0 309806000000.0 258717000000.0 206178000000.0 152933000000.0 99830500000.0 47770200000.0 2225480000.0 49019600000.0 91411100000.0 128170000000.0 158038000000.0 179751000000.0 192153000000.0 194426000000.0 186295000000.0 168102000000.0 140800000000.0 105848000000.0 64952000000.0 19786500000.0 315657000000.0 365176000000.0 415301000000.0 465821000000.0 515393000000.0 562965000000.0 606776000000.0 643261000000.0 668845000000.0 680991000000.0 676396000000.0 655052000000.0 625071000000.0 779989000000.0 688681000000.0 654925000000.0 720966000000.0 886611000000.0 832390000000.0 758963000000.0 700428000000.0 354632000000.0 121953000000.0 209361000000.0 372349000000.0 509897000000.0 263893000000.0 149988000000.0 79916700000.0 95634300000.0 64075000000.0 212508000000.0 125197000000.0 151556000000.0 234938000000.0 398182000000.0 589084000000.0 891233000000.0 278475000000.0 614332000000.0 726011000000.0 556145000000.0 506498000000.0 479412000000.0 477046000000.0 492522000000.0 509153000000.0 519089000000.0 519662000000.0 510733000000.0 493097000000.0 467789000000.0 435875000000.0 398549000000.0 357128000000.0 312645000000.0 265764000000.0 217180000000.0 167731000000.0 118236000000.0 69483600000.0 22298500000.0 22432600000.0 63748400000.0 100596000000.0 131827000000.0 156241000000.0 172675000000.0 180172000000.0 178180000000.0 166691000000.0 28198800000.0 77888000000.0 128458000000.0 179323000000.0 230116000000.0 280660000000.0 331079000000.0 381659000000.0 432595000000.0 483699000000.0 533805000000.0 580426000000.0 620625000000.0 652636000000.0 675101000000.0 687347000000.0 690106000000.0 687627000000.0 687404000000.0 949747000000.0 657244000000.0 672941000000.0 907491000000.0 827771000000.0 615784000000.0 611253000000.0 513893000000.0 225796000000.0 9782840000.0 223227000000.0 182181000000.0 241326000000.0 40317900000.0 238095000000.0 325088000000.0 152861000000.0 200763000000.0 226430000000.0 206268000000.0 399501000000.0 820689000000.0 825719000000.0 315623000000.0 730709000000.0 674720000000.0 599750000000.0 535480000000.0 492927000000.0 468726000000.0 462569000000.0 467759000000.0 473690000000.0 475075000000.0 470139000000.0 458258000000.0 439428000000.0 414105000000.0 383023000000.0 347169000000.0 307566000000.0 265050000000.0 220413000000.0 174599000000.0 128576000000.0 83155300000.0 39031500000.0 3125170000.0 42623600000.0 146258000000.0 117927000000.0 83084200000.0 43224600000.0 260464000.0 46235300000.0 93882200000.0 142625000000.0 192013000000.0 241631000000.0 291381000000.0 341720000000.0 392920000000.0 444326000000.0 494286000000.0 541465000000.0 584783000000.0 621383000000.0 647884000000.0 662593000000.0 664065000000.0 647345000000.0 567707000000.0 933481000000.0 766170000000.0 694136000000.0 864410000000.0 735316000000.0 693232000000.0 701151000000.0 518076000000.0 493715000000.0 400048000000.0 169869000000.0 11088700000.0 112429000000.0 32281400000.0 19769000000.0 2915310000.0 110202000000.0 290359000000.0 318624000000.0 578704000000.0 725753000000.0 893958000000.0 741979000000.0 556308000000.0 637740000000.0 642307000000.0 603626000000.0 549824000000.0 501173000000.0 465743000000.0 444271000000.0 435158000000.0 432927000000.0 431481000000.0 427372000000.0 418737000000.0 404628000000.0 384829000000.0 78684800000.0 110379000000.0 136611000000.0 156200000000.0 168040000000.0 171332000000.0 165758000000.0 151544000000.0 129409000000.0 100437000000.0 65908600000.0 27115800000.0 14807600000.0 58991000000.0 104803000000.0 151816000000.0 199747000000.0 248282000000.0 297211000000.0 346603000000.0 396576000000.0 446568000000.0 494472000000.0 537810000000.0 574989000000.0 603833000000.0 619995000000.0 617789000000.0 588199000000.0 478412000000.0 867858000000.0 756666000000.0 672198000000.0 602730000000.0 523412000000.0 700478000000.0 633160000000.0 639928000000.0 565368000000.0 428480000000.0 414923000000.0 317626000000.0 124514000000.0 90044200000.0 123091000000.0 247767000000.0 233933000000.0 282919000000.0 296082000000.0 528246000000.0 534940000000.0 679720000000.0 739142000000.0 565046000000.0 309706000000.0 490302000000.0 554243000000.0 559540000000.0 533337000000.0 494169000000.0 456187000000.0 426438000000.0 407235000000.0 359528000000.0 329228000000.0 294675000000.0 256625000000.0 215903000000.0 173581000000.0 130802000000.0 88540300000.0 47540100000.0 8325020000.0 28724500000.0 63199700000.0 94486600000.0 121682000000.0 143626000000.0 159060000000.0 166902000000.0 166510000000.0 157826000000.0 141323000000.0 117858000000.0 88508000000.0 54429300000.0 16720000000.0 23721600000.0 66243400000.0 110356000000.0 155687000000.0 765982000000.0 719493000000.0 641460000000.0 580908000000.0 432149000000.0 794204000000.0 540290000000.0 525470000000.0 487871000000.0 367602000000.0 343596000000.0 272846000000.0 186333000000.0 25062300000.0 58001500000.0 125063000000.0 288136000000.0 249120000000.0 299324000000.0 417248000000.0 433084000000.0 595276000000.0 298961000000.0 429010000000.0 477232000000.0 482819000000.0 396524000000.0 389917000000.0 383870000000.0 376086000000.0 364915000000.0 349328000000.0 328919000000.0 303773000000.0 274224000000.0 240718000000.0 203926000000.0 164928000000.0 125071000000.0 85612400000.0 47504000000.0 11308400000.0 22795000000.0 54856300000.0 84799800000.0 112096000000.0 135676000000.0 154101000000.0 165926000000.0 170114000000.0 166303000000.0 154789000000.0 136303000000.0 111783000000.0 82252200000.0 201929000000.0 248838000000.0 296356000000.0 344238000000.0 391827000000.0 438095000000.0 481274000000.0 519004000000.0 548147000000.0 564441000000.0 561443000000.0 528034000000.0 411121000000.0 591258000000.0 493223000000.0 339475000000.0 661785000000.0 555537000000.0 550433000000.0 432472000000.0 465716000000.0 399045000000.0 287233000000.0 212450000000.0 131108000000.0 21159100000.0 219314000000.0 262919000000.0 226568000000.0 225069000000.0 322671000000.0 589373000000.0 445102000000.0 463392000000.0 432517000000.0 401799000000.0 377530000000.0 360702000000.0 349121000000.0 340185000000.0 331569000000.0 321400000000.0 308506000000.0 292067000000.0 271416000000.0 246502000000.0 217500000000.0 184721000000.0 149039000000.0 111854000000.0 74696800000.0 38926300000.0 5440140000.0 25535900000.0 54478700000.0 82053500000.0 108432000000.0 132890000000.0 153844000000.0 169324000000.0 48727400000.0 12121500000.0 26865400000.0 67730200000.0 110092000000.0 153654000000.0 198028000000.0 242783000000.0 287755000000.0 332681000000.0 376657000000.0 417973000000.0 454332000000.0 483216000000.0 500686000000.0 499515000000.0 468702000000.0 358861000000.0 650412000000.0 660652000000.0 601120000000.0 473788000000.0 482686000000.0 482319000000.0 378173000000.0 340721000000.0 304069000000.0 198481000000.0 140897000000.0 75065900000.0 184857000000.0 188445000000.0 162023000000.0 388999000000.0 506958000000.0 485478000000.0 347354000000.0 276619000000.0 371111000000.0 405501000000.0 408376000000.0 391073000000.0 365098000000.0 340034000000.0 320634000000.0 306582000000.0 295614000000.0 285624000000.0 275028000000.0 263068000000.0 249243000000.0 232807000000.0 212303000000.0 187263000000.0 158264000000.0 126026000000.0 91551800000.0 56395600000.0 22299400000.0 177696000000.0 178199000000.0 171004000000.0 156847000000.0 136634000000.0 111301000000.0 81764300000.0 48893500000.0 13419600000.0 24119100000.0 63294700000.0 103751000000.0 145210000000.0 187270000000.0 229398000000.0 271064000000.0 311614000000.0 350123000000.0 384846000000.0 412975000000.0 430819000000.0 432999000000.0 410016000000.0 316456000000.0 536438000000.0 587896000000.0 543248000000.0 445695000000.0 280647000000.0 366450000000.0 414633000000.0 367634000000.0 373673000000.0 314610000000.0 263688000000.0 243589000000.0 85880900000.0 32263800000.0 89436900000.0 205762000000.0 129357000000.0 165233000000.0 276434000000.0 326078000000.0 418047000000.0 369746000000.0 257619000000.0 248095000000.0 314646000000.0 336838000000.0 333868000000.0 315133000000.0 291823000000.0 272339000000.0 258538000000.0 248062000000.0 238116000000.0 226800000000.0 213994000000.0 9259070000.0 37541300000.0 62972500000.0 87063200000.0 111244000000.0 135674000000.0 158794000000.0 177897000000.0 190366000000.0 194793000000.0 191256000000.0 180689000000.0 164102000000.0 142427000000.0 116506000000.0 87118400000.0 54976400000.0 20651100000.0 15429100000.0 52865800000.0 91278900000.0 130295000000.0 169423000000.0 208115000000.0 245683000000.0 281088000000.0 313038000000.0 339788000000.0 358541000000.0 364750000000.0 351098000000.0 278940000000.0 429821000000.0 506949000000.0 487234000000.0 407590000000.0 242955000000.0 456485000000.0 401552000000.0 318395000000.0 304195000000.0 292658000000.0 192494000000.0 199192000000.0 144327000000.0 174630000000.0 141123000000.0 112458000000.0 141480000000.0 215769000000.0 267333000000.0 321820000000.0 261669000000.0 217021000000.0 260840000000.0 269042000000.0 256367000000.0 234093000000.0 213654000000.0 200895000000.0 187252000000.0 171454000000.0 151181000000.0 125353000000.0 95722200000.0 64028700000.0 31207800000.0 1467250000.0 32024100000.0 58732100000.0 81239100000.0 101099000000.0 121372000000.0 144289000000.0 169113000000.0 192232000000.0 209264000000.0 217501000000.0 216941000000.0 209133000000.0 195368000000.0 176646000000.0 153776000000.0 127448000000.0 98293400000.0 66884500000.0 333045000000.0 419131000000.0 420354000000.0 362939000000.0 214527000000.0 353749000000.0 323964000000.0 312743000000.0 308281000000.0 222407000000.0 221961000000.0 109843000000.0 59915800000.0 34252300000.0 32943000000.0 87754600000.0 92244500000.0 108459000000.0 160542000000.0 193403000000.0 200990000000.0 194138000000.0 187846000000.0 177796000000.0 163245000000.0 147786000000.0 135037000000.0 122712000000.0 107134000000.0 86661000000.0 60079900000.0 29697700000.0 1299730000.0 31921000000.0 61394600000.0 87792600000.0 109171000000.0 125696000000.0 140467000000.0 159325000000.0 184689000000.0 212531000000.0 235470000000.0 247952000000.0 249626000000.0 33684300000.0 919491000.0 36526400000.0 72730100000.0 109055000000.0 144865000000.0 179467000000.0 212081000000.0 241667000000.0 266923000000.0 286002000000.0 296023000000.0 292181000000.0 243001000000.0 278259000000.0 254612000000.0 264585000000.0 241112000000.0 234522000000.0 256677000000.0 186467000000.0 97284500000.0 109565000000.0 90421000000.0 68077500000.0 68184400000.0 218308000000.0 230368000000.0 199358000000.0 143691000000.0 180952000000.0 205368000000.0 195420000000.0 170897000000.0 147939000000.0 132577000000.0 129165000000.0 131409000000.0 127997000000.0 113728000000.0 93329200000.0 76486800000.0 65584800000.0 55128900000.0 38107900000.0 15579100000.0 9162790000.0 38222200000.0 68556900000.0 96618300000.0 122235000000.0 144487000000.0 160770000000.0 243584000000.0 231698000000.0 215103000000.0 194573000000.0 170711000000.0 144052000000.0 115109000000.0 84360600000.0 52211900000.0 19054700000.0 14686400000.0 48570700000.0 82053200000.0 114391000000.0 144718000000.0 172107000000.0 195680000000.0 214920000000.0 228506000000.0 233677000000.0 206151000000.0 247349000000.0 329443000000.0 343221000000.0 306110000000.0 188308000000.0 195799000000.0 195118000000.0 174118000000.0 181549000000.0 173221000000.0 88458200000.0 68705600000.0 31963300000.0 58393700000.0 57212900000.0 46564200000.0 77997500000.0 116696000000.0 148824000000.0 154612000000.0 123074000000.0 89999700000.0 136724000000.0 139291000000.0 106341000000.0 78878800000.0 61858800000.0 50279200000.0 61053500000.0 74354800000.0 66911300000.0 42769300000.0 18385500000.0 31082600.0 7597320000.0 19179500000.0 171610000000.0 183038000000.0 205498000000.0 238405000000.0 269987000000.0 288170000000.0 291020000000.0 285498000000.0 274406000000.0 259020000000.0 240033000000.0 217932000000.0 193141000000.0 166088000000.0 137215000000.0 106943000000.0 75656500000.0 43767100000.0 11741400000.0 19907100000.0 50556200000.0 79443000000.0 105677000000.0 128298000000.0 146752000000.0 162356000000.0 174991000000.0 166763000000.0 173073000000.0 242703000000.0 262063000000.0 242617000000.0 159743000000.0 197191000000.0 198011000000.0 135604000000.0 120000000000.0 107231000000.0 132564000000.0 19249100000.0 5474000000.0 22765100000.0 41069800000.0 53722000000.0 66410600000.0 103156000000.0 97850700000.0 66131900000.0 45754600000.0 72450500000.0 45525100000.0 8850800000.0 4587210000.0 20411200000.0 35029200000.0 41120700000.0 62552500000.0 81698900000.0 105954000000.0 134009000000.0 159044000000.0 181986000000.0 202500000000.0 214638000000.0 221944000000.0 234739000000.0 269018000000.0 313464000000.0 341013000000.0 342862000000.0 336156000000.0 324695000000.0 309633000000.0 291419000000.0 270346000000.0 246711000000.0 220845000000.0 193122000000.0 163951000000.0 133744000000.0 102923000000.0 109421000000.0 161438000000.0 180952000000.0 175456000000.0 126764000000.0 127468000000.0 142328000000.0 139147000000.0 131387000000.0 57829600000.0 87664600000.0 95503300000.0 6213650000.0 22849400000.0 19386300000.0 17569800000.0 20447000000.0 2203280000.0 20242100000.0 3989840000.0 25844200000.0 58214100000.0 82767900000.0 92504200000.0 113803000000.0 130564000000.0 142885000000.0 153151000000.0 171029000000.0 192258000000.0 212032000000.0 238653000000.0 262428000000.0 274364000000.0 288969000000.0 308753000000.0 365230000000.0 410948000000.0 406189000000.0 396044000000.0 383296000000.0 368029000000.0 71962900000.0 41380400000.0 11722700000.0 16380400000.0 42209000000.0 64967900000.0 83859700000.0 98876200000.0 115678000000.0 123637000000.0 68103600000.0 88082600000.0 85537000000.0 78000300000.0 80089100000.0 83841000000.0 28003600000.0 12774500000.0 27389800000.0 39279500000.0 33336200000.0 25513300000.0 50380800000.0 69004100000.0 44260200000.0 59129300000.0 74123600000.0 93949900000.0 128632000000.0 55723700000.0 56615800000.0 54007100000.0 74284800000.0 129710000000.0 195874000000.0 220852000000.0 218077000000.0 219416000000.0 219004000000.0 216370000000.0 225404000000.0 229997000000.0 249176000000.0 285485000000.0 323487000000.0 359978000000.0 350084000000.0 329439000000.0 306235000000.0 280728000000.0 253258000000.0 224229000000.0 194091000000.0 163325000000.0 132440000000.0 101964000000.0 72421300000.0 44349400000.0 18297000000.0 5221290000.0 25712200000.0 42647000000.0 56093300000.0 75367700000.0 54031400000.0 87214000000.0 103058000000.0 106945000000.0 87902900000.0 32093000000.0 28484900000.0 29589000000.0 26899300000.0 7895820000.0 5450600000.0 19057500000.0 36733900000.0 17959800000.0 31400900000.0 51690800000.0 42752700000.0 4865110000.0 401999000000.0 425264000000.0 500849000000.0 477047000000.0 462961000000.0 449850000000.0 435025000000.0 417503000000.0 397005000000.0 373595000000.0 347541000000.0 319243000000.0 289176000000.0 257865000000.0 225867000000.0 193753000000.0 162104000000.0 131528000000.0 102600000000.0 75796700000.0 51428600000.0 29459800000.0 9290200000.0 10416100000.0 31129900000.0 3720530000.0 18956300000.0 30294500000.0 37229300000.0 41118500000.0 16568500000.0 33841600000.0 27783000000.0 23003800000.0 77358000000.0 132258000000.0 187640000000.0 231478000000.0 249026000000.0 245104000000.0 210704000000.0 142950000000.0 64040800000.0 10934500000.0 