# vtk DataFile Version 2.0
Time step 38
ASCII
DATASET UNSTRUCTURED_GRID
POINTS 4650 float
125742.0 423749.0 0
129115.0 421641.0 0
132541.0 423262.0 0
135585.0 420725.0 0
139182.0 422424.0 0
143095.0 421709.0 0
147059.0 421967.0 0
151024.0 421892.0 0
154986.0 421906.0 0
158945.0 421899.0 0
162902.0 421898.0 0
166857.0 421896.0 0
170810.0 421894.0 0
174763.0 421892.0 0
178717.0 421891.0 0
182670.0 421890.0 0
186625.0 421889.0 0
190580.0 421888.0 0
194536.0 421887.0 0
198493.0 421886.0 0
202452.0 421885.0 0
206411.0 421885.0 0
210371.0 421884.0 0
214332.0 421884.0 0
218293.0 421883.0 0
222255.0 421883.0 0
226218.0 421882.0 0
230181.0 421882.0 0
234144.0 421882.0 0
238108.0 421882.0 0
242072.0 421882.0 0
246036.0 421882.0 0
250000.0 421882.0 0
253964.0 421882.0 0
257928.0 421882.0 0
261892.0 421882.0 0
265856.0 421882.0 0
269819.0 421882.0 0
273782.0 421882.0 0
277745.0 421883.0 0
281707.0 421883.0 0
285668.0 421884.0 0
289629.0 421884.0 0
293589.0 421885.0 0
297548.0 421885.0 0
301507.0 421886.0 0
305464.0 421887.0 0
309420.0 421888.0 0
313375.0 421889.0 0
317330.0 421890.0 0
321283.0 421891.0 0
325237.0 421892.0 0
329190.0 421894.0 0
333143.0 421896.0 0
337098.0 421898.0 0
341055.0 421899.0 0
345014.0 421906.0 0
348976.0 421892.0 0
352941.0 421967.0 0
356905.0 421709.0 0
360818.0 422424.0 0
364415.0 420725.0 0
367459.0 423262.0 0
370885.0 421641.0 0
374258.0 423749.0 0
118977.0 427972.0 0
122365.0 425858.0 0
129143.0 425478.0 0
370857.0 425478.0 0
377635.0 425858.0 0
381023.0 427972.0 0
115569.0 430102.0 0
122354.0 429652.0 0
125754.0 427572.0 0
132530.0 427239.0 0
135918.0 425120.0 0
139491.0 426655.0 0
143280.0 425691.0 0
147190.0 425978.0 0
151114.0 425898.0 0
155047.0 425910.0 0
158985.0 425904.0 0
162928.0 425901.0 0
166876.0 425898.0 0
170826.0 425896.0 0
174777.0 425894.0 0
178730.0 425893.0 0
182683.0 425891.0 0
186636.0 425890.0 0
190591.0 425889.0 0
194547.0 425888.0 0
198503.0 425887.0 0
202461.0 425886.0 0
206419.0 425885.0 0
210379.0 425885.0 0
214339.0 425884.0 0
218299.0 425884.0 0
222260.0 425883.0 0
226222.0 425883.0 0
230184.0 425882.0 0
234147.0 425882.0 0
238110.0 425882.0 0
242073.0 425882.0 0
246036.0 425882.0 0
250000.0 425882.0 0
253964.0 425882.0 0
257927.0 425882.0 0
261890.0 425882.0 0
265853.0 425882.0 0
269816.0 425882.0 0
273778.0 425883.0 0
277740.0 425883.0 0
281701.0 425884.0 0
285661.0 425884.0 0
289621.0 425885.0 0
293581.0 425885.0 0
297539.0 425886.0 0
301497.0 425887.0 0
305453.0 425888.0 0
309409.0 425889.0 0
313364.0 425890.0 0
317317.0 425891.0 0
321270.0 425893.0 0
325223.0 425894.0 0
329174.0 425896.0 0
333124.0 425898.0 0
337072.0 425901.0 0
341015.0 425904.0 0
344953.0 425910.0 0
348886.0 425898.0 0
352810.0 425978.0 0
356720.0 425691.0 0
360509.0 426655.0 0
364082.0 425120.0 0
367470.0 427239.0 0
374246.0 427572.0 0
377646.0 429652.0 0
384431.0 430102.0 0
112193.0 432213.0 0
118945.0 431746.0 0
125713.0 431428.0 0
129123.0 429362.0 0
132457.0 431225.0 0
135870.0 429158.0 0
139457.0 430641.0 0
143236.0 429681.0 0
147136.0 429977.0 0
151054.0 429897.0 0
154981.0 429910.0 0
158914.0 429903.0 0
162852.0 429900.0 0
166795.0 429898.0 0
170742.0 429895.0 0
174693.0 429893.0 0
178647.0 429892.0 0
182602.0 429891.0 0
186558.0 429889.0 0
190515.0 429888.0 0
194474.0 429887.0 0
198434.0 429886.0 0
202396.0 429886.0 0
206358.0 429885.0 0
210321.0 429884.0 0
214286.0 429884.0 0
218251.0 429883.0 0
222218.0 429883.0 0
226185.0 429883.0 0
230153.0 429882.0 0
234122.0 429882.0 0
238091.0 429882.0 0
242060.0 429882.0 0
246030.0 429882.0 0
250000.0 429882.0 0
253970.0 429882.0 0
257940.0 429882.0 0
261909.0 429882.0 0
265878.0 429882.0 0
269847.0 429882.0 0
273815.0 429883.0 0
277782.0 429883.0 0
281749.0 429883.0 0
285714.0 429884.0 0
289679.0 429884.0 0
293642.0 429885.0 0
297604.0 429886.0 0
301566.0 429886.0 0
305526.0 429887.0 0
309485.0 429888.0 0
313442.0 429889.0 0
317398.0 429891.0 0
321353.0 429892.0 0
325307.0 429893.0 0
329258.0 429895.0 0
333205.0 429898.0 0
337148.0 429900.0 0
341086.0 429903.0 0
345019.0 429910.0 0
348946.0 429897.0 0
352864.0 429977.0 0
356764.0 429681.0 0
360543.0 430641.0 0
364130.0 429158.0 0
367543.0 431225.0 0
370877.0 429362.0 0
374287.0 431428.0 0
381055.0 431746.0 0
387807.0 432213.0 0
107799.0 434965.0 0
111499.0 435920.0 0
115540.0 433884.0 0
118887.0 435556.0 0
122298.0 433469.0 0
129037.0 433288.0 0
370963.0 433288.0 0
377702.0 433469.0 0
381113.0 435556.0 0
384460.0 433884.0 0
388501.0 435920.0 0
392201.0 434965.0 0
104437.0 437068.0 0
107875.0 438798.0 0
114954.0 437650.0 0
122209.0 437299.0 0
125621.0 435324.0 0
132332.0 435216.0 0
135764.0 433196.0 0
139372.0 434606.0 0
143151.0 433676.0 0
147047.0 433974.0 0
150961.0 433897.0 0
154885.0 433909.0 0
158815.0 433902.0 0
162752.0 433899.0 0
166695.0 433896.0 0
170641.0 433894.0 0
174591.0 433892.0 0
178546.0 433891.0 0
182503.0 433889.0 0
186463.0 433888.0 0
190425.0 433887.0 0
194388.0 433886.0 0
198353.0 433886.0 0
202319.0 433885.0 0
206287.0 433884.0 0
210255.0 433884.0 0
214225.0 433883.0 0
218197.0 433883.0 0
222169.0 433883.0 0
226143.0 433882.0 0
230117.0 433882.0 0
234093.0 433882.0 0
238069.0 433882.0 0
242046.0 433882.0 0
246023.0 433882.0 0
250000.0 433882.0 0
253977.0 433882.0 0
257954.0 433882.0 0
261931.0 433882.0 0
265907.0 433882.0 0
269883.0 433882.0 0
273857.0 433882.0 0
277831.0 433883.0 0
281803.0 433883.0 0
285775.0 433883.0 0
289745.0 433884.0 0
293713.0 433884.0 0
297681.0 433885.0 0
301647.0 433886.0 0
305612.0 433886.0 0
309575.0 433887.0 0
313537.0 433888.0 0
317497.0 433889.0 0
321454.0 433891.0 0
325409.0 433892.0 0
329359.0 433894.0 0
333305.0 433896.0 0
337248.0 433899.0 0
341185.0 433902.0 0
345115.0 433909.0 0
349039.0 433897.0 0
352953.0 433974.0 0
356849.0 433676.0 0
360628.0 434606.0 0
364236.0 433196.0 0
367668.0 435216.0 0
374379.0 435324.0 0
377791.0 437299.0 0
385046.0 437650.0 0
392125.0 438798.0 0
395563.0 437068.0 0
100759.0 439369.0 0
104325.0 440913.0 0
111610.0 439749.0 0
118416.0 439373.0 0
125476.0 439276.0 0
128893.0 437250.0 0
132159.0 439200.0 0
135613.0 437249.0 0
139266.0 438548.0 0
143059.0 437683.0 0
146955.0 437969.0 0
150869.0 437897.0 0
154793.0 437908.0 0
158724.0 437901.0 0
162663.0 437898.0 0
166607.0 437895.0 0
170556.0 437893.0 0
174510.0 437891.0 0
178468.0 437890.0 0
182429.0 437889.0 0
186391.0 437888.0 0
190355.0 437887.0 0
194322.0 437886.0 0
198290.0 437885.0 0
202259.0 437884.0 0
206231.0 437884.0 0
210204.0 437883.0 0
214179.0 437883.0 0
218155.0 437883.0 0
222133.0 437882.0 0
226112.0 437882.0 0
230091.0 437882.0 0
234072.0 437882.0 0
238053.0 437882.0 0
242035.0 437882.0 0
246018.0 437882.0 0
250000.0 437882.0 0
253982.0 437882.0 0
257965.0 437882.0 0
261947.0 437882.0 0
265928.0 437882.0 0
269909.0 437882.0 0
273888.0 437882.0 0
277867.0 437882.0 0
281845.0 437883.0 0
285821.0 437883.0 0
289796.0 437883.0 0
293769.0 437884.0 0
297741.0 437884.0 0
301710.0 437885.0 0
305678.0 437886.0 0
309645.0 437887.0 0
313609.0 437888.0 0
317571.0 437889.0 0
321532.0 437890.0 0
325490.0 437891.0 0
329444.0 437893.0 0
333393.0 437895.0 0
337337.0 437898.0 0
341276.0 437901.0 0
345207.0 437908.0 0
349131.0 437897.0 0
353045.0 437969.0 0
356941.0 437683.0 0
360734.0 438548.0 0
364387.0 437249.0 0
367841.0 439200.0 0
371107.0 437250.0 0
374524.0 439276.0 0
381584.0 439373.0 0
388390.0 439749.0 0
395675.0 440913.0 0
399241.0 439369.0 0
97301.8 441538.0 0
100835.0 443242.0 0
107840.0 442655.0 0
111671.0 443595.0 0
115082.0 441517.0 0
121881.0 441100.0 0
378119.0 441100.0 0
384918.0 441517.0 0
388329.0 443595.0 0
392160.0 442655.0 0
399165.0 443242.0 0
402698.0 441538.0 0
104465.0 444780.0 0
108019.0 446552.0 0
115226.0 445373.0 0
118607.0 443272.0 0
124372.0 443936.0 0
127937.0 442222.0 0
131688.0 443134.0 0
135249.0 441507.0 0
138965.0 442460.0 0
142757.0 441748.0 0
146632.0 441950.0 0
150527.0 441893.0 0
154437.0 441893.0 0
158360.0 441890.0 0
162294.0 441888.0 0
166240.0 441887.0 0
170194.0 441885.0 0
174157.0 441884.0 0
178127.0 441883.0 0
182102.0 441883.0 0
186081.0 441882.0 0
190065.0 441882.0 0
194051.0 441882.0 0
198040.0 441882.0 0
202031.0 441882.0 0
206024.0 441882.0 0
210018.0 441882.0 0
214014.0 441882.0 0
218010.0 441882.0 0
222008.0 441882.0 0
226006.0 441882.0 0
230004.0 441882.0 0
234003.0 441882.0 0
238002.0 441882.0 0
242001.0 441882.0 0
246001.0 441882.0 0
250000.0 441882.0 0
253999.0 441882.0 0
257999.0 441882.0 0
261998.0 441882.0 0
265997.0 441882.0 0
269996.0 441882.0 0
273994.0 441882.0 0
277992.0 441882.0 0
281990.0 441882.0 0
285986.0 441882.0 0
289982.0 441882.0 0
293976.0 441882.0 0
297969.0 441882.0 0
301960.0 441882.0 0
305949.0 441882.0 0
309935.0 441882.0 0
313919.0 441882.0 0
317898.0 441883.0 0
321873.0 441883.0 0
325843.0 441884.0 0
329806.0 441885.0 0
333760.0 441887.0 0
337706.0 441888.0 0
341640.0 441890.0 0
345563.0 441893.0 0
349473.0 441893.0 0
353368.0 441950.0 0
357243.0 441748.0 0
361035.0 442460.0 0
364751.0 441507.0 0
368312.0 443134.0 0
372063.0 442222.0 0
375628.0 443936.0 0
381393.0 443272.0 0
384774.0 445373.0 0
391981.0 446552.0 0
395535.0 444780.0 0
97323.0 445517.0 0
111829.0 447462.0 0
118872.0 447144.0 0
122833.0 447533.0 0
127514.0 446150.0 0
131276.0 447030.0 0
134880.0 445461.0 0
138712.0 446349.0 0
142615.0 445831.0 0
146556.0 445941.0 0
150502.0 445892.0 0
154453.0 445892.0 0
158410.0 445889.0 0
162372.0 445887.0 0
166337.0 445885.0 0
170306.0 445884.0 0
174278.0 445884.0 0
178253.0 445884.0 0
182230.0 445883.0 0
186209.0 445883.0 0
190189.0 445883.0 0
194170.0 445883.0 0
198153.0 445882.0 0
202136.0 445882.0 0
206121.0 445882.0 0
210106.0 445882.0 0
214093.0 445882.0 0
218080.0 445882.0 0
222068.0 445882.0 0
226057.0 445882.0 0
230047.0 445882.0 0
234037.0 445882.0 0
238027.0 445882.0 0
242018.0 445882.0 0
246009.0 445882.0 0
250000.0 445882.0 0
253991.0 445882.0 0
257982.0 445882.0 0
261973.0 445882.0 0
265963.0 445882.0 0
269953.0 445882.0 0
273943.0 445882.0 0
277932.0 445882.0 0
281920.0 445882.0 0
285907.0 445882.0 0
289894.0 445882.0 0
293879.0 445882.0 0
297864.0 445882.0 0
301847.0 445882.0 0
305830.0 445883.0 0
309811.0 445883.0 0
313791.0 445883.0 0
317770.0 445883.0 0
321747.0 445884.0 0
325722.0 445884.0 0
329694.0 445884.0 0
333663.0 445885.0 0
337628.0 445887.0 0
341590.0 445889.0 0
345547.0 445892.0 0
349498.0 445892.0 0
353444.0 445941.0 0
357385.0 445831.0 0
361288.0 446349.0 0
365120.0 445461.0 0
368724.0 447030.0 0
372486.0 446150.0 0
377167.0 447533.0 0
381128.0 447144.0 0
388171.0 447462.0 0
402677.0 445517.0 0
101047.0 447129.0 0
104699.0 448676.0 0
115336.0 449254.0 0
384664.0 449254.0 0
395301.0 448676.0 0
398953.0 447129.0 0
99346.4 450693.0 0
103045.0 452226.0 0
108126.0 450658.0 0
112030.0 451361.0 0
118751.0 451065.0 0
122626.0 451451.0 0
126181.0 449830.0 0
130027.0 450741.0 0
133941.0 449892.0 0
137891.0 450170.0 0
141998.0 449882.0 0
145998.0 449898.0 0
150000.0 449882.0 0
154000.0 449882.0 0
158000.0 449882.0 0
162000.0 449882.0 0
166000.0 449882.0 0
170000.0 449882.0 0
174000.0 449882.0 0
178000.0 449882.0 0
182000.0 449882.0 0
186000.0 449882.0 0
190000.0 449882.0 0
194000.0 449882.0 0
198000.0 449882.0 0
202000.0 449882.0 0
206000.0 449882.0 0
210000.0 449882.0 0
214000.0 449882.0 0
218000.0 449882.0 0
222000.0 449882.0 0
226000.0 449882.0 0
230000.0 449882.0 0
234000.0 449882.0 0
238000.0 449882.0 0
242000.0 449882.0 0
246000.0 449882.0 0
250000.0 449882.0 0
254000.0 449882.0 0
258000.0 449882.0 0
262000.0 449882.0 0
266000.0 449882.0 0
270000.0 449882.0 0
274000.0 449882.0 0
278000.0 449882.0 0
282000.0 449882.0 0
286000.0 449882.0 0
290000.0 449882.0 0
294000.0 449882.0 0
298000.0 449882.0 0
302000.0 449882.0 0
306000.0 449882.0 0
310000.0 449882.0 0
314000.0 449882.0 0
318000.0 449882.0 0
322000.0 449882.0 0
326000.0 449882.0 0
330000.0 449882.0 0
334000.0 449882.0 0
338000.0 449882.0 0
342000.0 449882.0 0
346000.0 449882.0 0
350000.0 449882.0 0
354002.0 449898.0 0
358002.0 449882.0 0
362109.0 450170.0 0
366059.0 449892.0 0
369973.0 450741.0 0
373819.0 449830.0 0
377374.0 451451.0 0
381249.0 451065.0 0
387970.0 451361.0 0
391874.0 450658.0 0
396955.0 452226.0 0
400654.0 450693.0 0
99905.6 454632.0 0
106306.0 454514.0 0
110274.0 454838.0 0
114604.0 454391.0 0
119022.0 454974.0 0
122984.0 455325.0 0
126672.0 453786.0 0
130582.0 454613.0 0
134463.0 453820.0 0
138418.0 454069.0 0
142370.0 453871.0 0
146331.0 453887.0 0
150293.0 453885.0 0
154257.0 453884.0 0
158225.0 453884.0 0
162197.0 453883.0 0
166172.0 453883.0 0
170150.0 453883.0 0
174131.0 453882.0 0
178114.0 453882.0 0
182099.0 453882.0 0
186086.0 453882.0 0
190074.0 453882.0 0
194064.0 453882.0 0
198055.0 453882.0 0
202047.0 453882.0 0
206041.0 453882.0 0
210035.0 453882.0 0
214029.0 453882.0 0
218024.0 453882.0 0
222020.0 453882.0 0
226017.0 453882.0 0
230013.0 453882.0 0
234010.0 453882.0 0
238007.0 453882.0 0
242005.0 453882.0 0
246002.0 453882.0 0
250000.0 453882.0 0
253998.0 453882.0 0
257995.0 453882.0 0
261993.0 453882.0 0
265990.0 453882.0 0
269987.0 453882.0 0
273983.0 453882.0 0
277980.0 453882.0 0
281976.0 453882.0 0
285971.0 453882.0 0
289965.0 453882.0 0
293959.0 453882.0 0
297953.0 453882.0 0
301945.0 453882.0 0
305936.0 453882.0 0
309926.0 453882.0 0
313914.0 453882.0 0
317901.0 453882.0 0
321886.0 453882.0 0
325869.0 453882.0 0
329850.0 453883.0 0
333828.0 453883.0 0
337803.0 453883.0 0
341775.0 453884.0 0
345743.0 453884.0 0
349707.0 453885.0 0
353669.0 453887.0 0
357630.0 453871.0 0
361582.0 454069.0 0
365537.0 453820.0 0
369418.0 454613.0 0
373328.0 453786.0 0
377016.0 455325.0 0
380978.0 454974.0 0
385396.0 454391.0 0
389726.0 454838.0 0
393694.0 454514.0 0
400094.0 454632.0 0
101080.0 458433.0 0
105060.0 458315.0 0
109015.0 458560.0 0
112987.0 458204.0 0
116952.0 458347.0 0
120915.0 458693.0 0
125861.0 457995.0 0
129801.0 458438.0 0
133968.0 457870.0 0
137963.0 457997.0 0
142000.0 457882.0 0
146000.0 457882.0 0
150000.0 457882.0 0
154000.0 457882.0 0
158000.0 457882.0 0
162000.0 457882.0 0
166000.0 457882.0 0
170000.0 457882.0 0
174000.0 457882.0 0
178000.0 457882.0 0
182000.0 457882.0 0
186000.0 457882.0 0
190000.0 457882.0 0
194000.0 457882.0 0
198000.0 457882.0 0
202000.0 457882.0 0
206000.0 457882.0 0
210000.0 457882.0 0
214000.0 457882.0 0
218000.0 457882.0 0
222000.0 457882.0 0
226000.0 457882.0 0
230000.0 457882.0 0
234000.0 457882.0 0
238000.0 457882.0 0
242000.0 457882.0 0
246000.0 457882.0 0
250000.0 457882.0 0
254000.0 457882.0 0
258000.0 457882.0 0
262000.0 457882.0 0
266000.0 457882.0 0
270000.0 457882.0 0
274000.0 457882.0 0
278000.0 457882.0 0
282000.0 457882.0 0
286000.0 457882.0 0
290000.0 457882.0 0
294000.0 457882.0 0
298000.0 457882.0 0
302000.0 457882.0 0
306000.0 457882.0 0
310000.0 457882.0 0
314000.0 457882.0 0
318000.0 457882.0 0
322000.0 457882.0 0
326000.0 457882.0 0
330000.0 457882.0 0
334000.0 457882.0 0
338000.0 457882.0 0
342000.0 457882.0 0
346000.0 457882.0 0
350000.0 457882.0 0
354000.0 457882.0 0
358000.0 457882.0 0
362037.0 457997.0 0
366032.0 457870.0 0
370199.0 458438.0 0
374139.0 457995.0 0
379085.0 458693.0 0
383048.0 458347.0 0
387013.0 458204.0 0
390985.0 458560.0 0
394940.0 458315.0 0
398920.0 458433.0 0
110330.0 462280.0 0
118310.0 462092.0 0
122293.0 462401.0 0
126249.0 461940.0 0
130212.0 462326.0 0
134156.0 461864.0 0
138130.0 461962.0 0
142105.0 461880.0 0
146085.0 461882.0 0
150069.0 461882.0 0
154056.0 461882.0 0
158045.0 461882.0 0
162036.0 461882.0 0
166029.0 461882.0 0
170023.0 461882.0 0
174019.0 461882.0 0
178015.0 461882.0 0
182012.0 461882.0 0
186010.0 461882.0 0
190008.0 461882.0 0
194006.0 461882.0 0
198005.0 461882.0 0
202004.0 461882.0 0
206003.0 461882.0 0
210003.0 461882.0 0
214002.0 461882.0 0
218002.0 461882.0 0
222001.0 461882.0 0
226001.0 461882.0 0
230001.0 461882.0 0
234001.0 461882.0 0
238000.0 461882.0 0
242000.0 461882.0 0
246000.0 461882.0 0
250000.0 461882.0 0
254000.0 461882.0 0
258000.0 461882.0 0
262000.0 461882.0 0
265999.0 461882.0 0
269999.0 461882.0 0
273999.0 461882.0 0
277999.0 461882.0 0
281998.0 461882.0 0
285998.0 461882.0 0
289997.0 461882.0 0
293997.0 461882.0 0
297996.0 461882.0 0
301995.0 461882.0 0
305994.0 461882.0 0
309992.0 461882.0 0
313990.0 461882.0 0
317988.0 461882.0 0
321985.0 461882.0 0
325981.0 461882.0 0
329977.0 461882.0 0
333971.0 461882.0 0
337964.0 461882.0 0
341955.0 461882.0 0
345944.0 461882.0 0
349931.0 461882.0 0
353915.0 461882.0 0
357895.0 461880.0 0
361870.0 461962.0 0
365844.0 461864.0 0
369788.0 462326.0 0
373751.0 461940.0 0
377707.0 462401.0 0
381690.0 462092.0 0
389670.0 462280.0 0
102213.0 462255.0 0
106210.0 462170.0 0
114314.0 462104.0 0
385686.0 462104.0 0
393790.0 462170.0 0
397787.0 462255.0 0
101889.0 466228.0 0
105895.0 466156.0 0
109891.0 466209.0 0
113890.0 466082.0 0
117887.0 466056.0 0
121873.0 466331.0 0
125959.0 465906.0 0
129943.0 466236.0 0
133997.0 465882.0 0
137997.0 465936.0 0
142000.0 465882.0 0
146000.0 465882.0 0
150000.0 465882.0 0
154000.0 465882.0 0
158000.0 465882.0 0
162000.0 465882.0 0
166000.0 465882.0 0
170000.0 465882.0 0
174000.0 465882.0 0
178000.0 465882.0 0
182000.0 465882.0 0
186000.0 465882.0 0
190000.0 465882.0 0
194000.0 465882.0 0
198000.0 465882.0 0
202000.0 465882.0 0
206000.0 465882.0 0
210000.0 465882.0 0
214000.0 465882.0 0
218000.0 465882.0 0
222000.0 465882.0 0
226000.0 465882.0 0
230000.0 465882.0 0
234000.0 465882.0 0
238000.0 465882.0 0
242000.0 465882.0 0
246000.0 465882.0 0
250000.0 465882.0 0
254000.0 465882.0 0
258000.0 465882.0 0
262000.0 465882.0 0
266000.0 465882.0 0
270000.0 465882.0 0
274000.0 465882.0 0
278000.0 465882.0 0
282000.0 465882.0 0
286000.0 465882.0 0
290000.0 465882.0 0
294000.0 465882.0 0
298000.0 465882.0 0
302000.0 465882.0 0
306000.0 465882.0 0
310000.0 465882.0 0
314000.0 465882.0 0
318000.0 465882.0 0
322000.0 465882.0 0
326000.0 465882.0 0
330000.0 465882.0 0
334000.0 465882.0 0
338000.0 465882.0 0
342000.0 465882.0 0
346000.0 465882.0 0
350000.0 465882.0 0
354000.0 465882.0 0
358000.0 465882.0 0
362003.0 465936.0 0
366003.0 465882.0 0
370057.0 466236.0 0
374041.0 465906.0 0
378127.0 466331.0 0
382113.0 466056.0 0
386110.0 466082.0 0
390109.0 466209.0 0
394105.0 466156.0 0
398111.0 466228.0 0
118022.0 470041.0 0
122046.0 470275.0 0
126026.0 469891.0 0
130015.0 470167.0 0
134003.0 469882.0 0
138002.0 469920.0 0
142001.0 469882.0 0
146001.0 469882.0 0
150000.0 469882.0 0
154000.0 469882.0 0
158000.0 469882.0 0
162000.0 469882.0 0
166000.0 469882.0 0
170000.0 469882.0 0
174000.0 469882.0 0
178000.0 469882.0 0
182000.0 469882.0 0
186000.0 469882.0 0
190000.0 469882.0 0
194000.0 469882.0 0
198000.0 469882.0 0
202000.0 469882.0 0
206000.0 469882.0 0
210000.0 469882.0 0
214000.0 469882.0 0
218000.0 469882.0 0
222000.0 469882.0 0
226000.0 469882.0 0
230000.0 469882.0 0
234000.0 469882.0 0
238000.0 469882.0 0
242000.0 469882.0 0
246000.0 469882.0 0
250000.0 469882.0 0
254000.0 469882.0 0
258000.0 469882.0 0
262000.0 469882.0 0
266000.0 469882.0 0
270000.0 469882.0 0
274000.0 469882.0 0
278000.0 469882.0 0
282000.0 469882.0 0
286000.0 469882.0 0
290000.0 469882.0 0
294000.0 469882.0 0
298000.0 469882.0 0
302000.0 469882.0 0
306000.0 469882.0 0
310000.0 469882.0 0
314000.0 469882.0 0
318000.0 469882.0 0
322000.0 469882.0 0
326000.0 469882.0 0
330000.0 469882.0 0
334000.0 469882.0 0
338000.0 469882.0 0
342000.0 469882.0 0
346000.0 469882.0 0
350000.0 469882.0 0
353999.0 469882.0 0
357999.0 469882.0 0
361998.0 469920.0 0
365997.0 469882.0 0
369985.0 470167.0 0
373974.0 469891.0 0
377954.0 470275.0 0
381978.0 470041.0 0
102022.0 470209.0 0
106021.0 470149.0 0
110024.0 470165.0 0
114022.0 470077.0 0
385978.0 470077.0 0
389976.0 470165.0 0
393979.0 470149.0 0
397978.0 470209.0 0
101994.0 474191.0 0
105995.0 474141.0 0
109995.0 474129.0 0
113994.0 474072.0 0
117993.0 474027.0 0
121988.0 474222.0 0
126000.0 473884.0 0
129998.0 474109.0 0
134000.0 473882.0 0
138000.0 473908.0 0
142000.0 473882.0 0
146000.0 473882.0 0
150000.0 473882.0 0
154000.0 473882.0 0
158000.0 473882.0 0
162000.0 473882.0 0
166000.0 473882.0 0
170000.0 473882.0 0
174000.0 473882.0 0
178000.0 473882.0 0
182000.0 473882.0 0
186000.0 473882.0 0
190000.0 473882.0 0
194000.0 473882.0 0
198000.0 473882.0 0
202000.0 473882.0 0
206000.0 473882.0 0
210000.0 473882.0 0
214000.0 473882.0 0
218000.0 473882.0 0
222000.0 473882.0 0
226000.0 473882.0 0
230000.0 473882.0 0
234000.0 473882.0 0
238000.0 473882.0 0
242000.0 473882.0 0
246000.0 473882.0 0
250000.0 473882.0 0
254000.0 473882.0 0
258000.0 473882.0 0
262000.0 473882.0 0
266000.0 473882.0 0
270000.0 473882.0 0
274000.0 473882.0 0
278000.0 473882.0 0
282000.0 473882.0 0
286000.0 473882.0 0
290000.0 473882.0 0
294000.0 473882.0 0
298000.0 473882.0 0
302000.0 473882.0 0
306000.0 473882.0 0
310000.0 473882.0 0
314000.0 473882.0 0
318000.0 473882.0 0
322000.0 473882.0 0
326000.0 473882.0 0
330000.0 473882.0 0
334000.0 473882.0 0
338000.0 473882.0 0
342000.0 473882.0 0
346000.0 473882.0 0
350000.0 473882.0 0
354000.0 473882.0 0
358000.0 473882.0 0
362000.0 473908.0 0
366000.0 473882.0 0
370002.0 474109.0 0
374000.0 473884.0 0
378012.0 474222.0 0
382007.0 474027.0 0
386006.0 474072.0 0
390005.0 474129.0 0
394005.0 474141.0 0
398006.0 474191.0 0
102001.0 478173.0 0
106001.0 478131.0 0
110001.0 478098.0 0
114001.0 478066.0 0
118001.0 478013.0 0
122003.0 478171.0 0
126000.0 477882.0 0
130000.0 478061.0 0
134000.0 477882.0 0
138000.0 477900.0 0
142000.0 477882.0 0
146000.0 477882.0 0
150000.0 477882.0 0
154000.0 477882.0 0
158000.0 477882.0 0
162000.0 477882.0 0
166000.0 477882.0 0
170000.0 477882.0 0
174000.0 477882.0 0
178000.0 477882.0 0
182000.0 477882.0 0
186000.0 477882.0 0
190000.0 477882.0 0
194000.0 477882.0 0
198000.0 477882.0 0
202000.0 477882.0 0
206000.0 477882.0 0
210000.0 477882.0 0
214000.0 477882.0 0
218000.0 477882.0 0
222000.0 477882.0 0
226000.0 477882.0 0
230000.0 477882.0 0
234000.0 477882.0 0
238000.0 477882.0 0
242000.0 477882.0 0
246000.0 477882.0 0
250000.0 477882.0 0
254000.0 477882.0 0
258000.0 477882.0 0
262000.0 477882.0 0
266000.0 477882.0 0
270000.0 477882.0 0
274000.0 477882.0 0
278000.0 477882.0 0
282000.0 477882.0 0
286000.0 477882.0 0
290000.0 477882.0 0
294000.0 477882.0 0
298000.0 477882.0 0
302000.0 477882.0 0
306000.0 477882.0 0
310000.0 477882.0 0
314000.0 477882.0 0
318000.0 477882.0 0
322000.0 477882.0 0
326000.0 477882.0 0
330000.0 477882.0 0
334000.0 477882.0 0
338000.0 477882.0 0
342000.0 477882.0 0
346000.0 477882.0 0
350000.0 477882.0 0
354000.0 477882.0 0
358000.0 477882.0 0
362000.0 477900.0 0
366000.0 477882.0 0
370000.0 478061.0 0
374000.0 477882.0 0
377997.0 478171.0 0
381999.0 478013.0 0
385999.0 478066.0 0
389999.0 478098.0 0
393999.0 478131.0 0
397999.0 478173.0 0
102000.0 482154.0 0
106000.0 482118.0 0
110000.0 482070.0 0
114000.0 482057.0 0
118000.0 481998.0 0
122000.0 482123.0 0
126000.0 481882.0 0
130000.0 482022.0 0
134000.0 481882.0 0
138000.0 481894.0 0
142000.0 481882.0 0
146000.0 481882.0 0
150000.0 481882.0 0
154000.0 481882.0 0
158000.0 481882.0 0
162000.0 481882.0 0
166000.0 481882.0 0
170000.0 481882.0 0
174000.0 481882.0 0
178000.0 481882.0 0
182000.0 481882.0 0
186000.0 481882.0 0
190000.0 481882.0 0
194000.0 481882.0 0
198000.0 481882.0 0
202000.0 481882.0 0
206000.0 481882.0 0
210000.0 481882.0 0
214000.0 481882.0 0
218000.0 481882.0 0
222000.0 481882.0 0
226000.0 481882.0 0
230000.0 481882.0 0
234000.0 481882.0 0
238000.0 481882.0 0
242000.0 481882.0 0
246000.0 481882.0 0
250000.0 481882.0 0
254000.0 481882.0 0
258000.0 481882.0 0
262000.0 481882.0 0
266000.0 481882.0 0
270000.0 481882.0 0
274000.0 481882.0 0
278000.0 481882.0 0
282000.0 481882.0 0
286000.0 481882.0 0
290000.0 481882.0 0
294000.0 481882.0 0
298000.0 481882.0 0
302000.0 481882.0 0
306000.0 481882.0 0
310000.0 481882.0 0
314000.0 481882.0 0
318000.0 481882.0 0
322000.0 481882.0 0
326000.0 481882.0 0
330000.0 481882.0 0
334000.0 481882.0 0
338000.0 481882.0 0
342000.0 481882.0 0
346000.0 481882.0 0
350000.0 481882.0 0
354000.0 481882.0 0
358000.0 481882.0 0
362000.0 481894.0 0
366000.0 481882.0 0
370000.0 482022.0 0
374000.0 481882.0 0
378000.0 482123.0 0
382000.0 481998.0 0
386000.0 482057.0 0
390000.0 482070.0 0
394000.0 482118.0 0
398000.0 482154.0 0
102000.0 486134.0 0
106000.0 486105.0 0
110000.0 486047.0 0
114000.0 486047.0 0
118000.0 485984.0 0
122000.0 486081.0 0
126000.0 485882.0 0
130000.0 485990.0 0
134000.0 485882.0 0
138000.0 485890.0 0
142000.0 485882.0 0
146000.0 485882.0 0
150000.0 485882.0 0
154000.0 485882.0 0
158000.0 485882.0 0
162000.0 485882.0 0
166000.0 485882.0 0
170000.0 485882.0 0
174000.0 485882.0 0
178000.0 485882.0 0
182000.0 485882.0 0
186000.0 485882.0 0
190000.0 485882.0 0
194000.0 485882.0 0
198000.0 485882.0 0
202000.0 485882.0 0
206000.0 485882.0 0
210000.0 485882.0 0
214000.0 485882.0 0
218000.0 485882.0 0
222000.0 485882.0 0
226000.0 485882.0 0
230000.0 485882.0 0
234000.0 485882.0 0
238000.0 485882.0 0
242000.0 485882.0 0
246000.0 485882.0 0
250000.0 485882.0 0
254000.0 485882.0 0
258000.0 485882.0 0
262000.0 485882.0 0
266000.0 485882.0 0
270000.0 485882.0 0
274000.0 485882.0 0
278000.0 485882.0 0
282000.0 485882.0 0
286000.0 485882.0 0
290000.0 485882.0 0
294000.0 485882.0 0
298000.0 485882.0 0
302000.0 485882.0 0
306000.0 485882.0 0
310000.0 485882.0 0
314000.0 485882.0 0
318000.0 485882.0 0
322000.0 485882.0 0
326000.0 485882.0 0
330000.0 485882.0 0
334000.0 485882.0 0
338000.0 485882.0 0
342000.0 485882.0 0
346000.0 485882.0 0
350000.0 485882.0 0
354000.0 485882.0 0
358000.0 485882.0 0
362000.0 485890.0 0
366000.0 485882.0 0
370000.0 485990.0 0
374000.0 485882.0 0
378000.0 486081.0 0
382000.0 485984.0 0
386000.0 486047.0 0
390000.0 486047.0 0
394000.0 486105.0 0
398000.0 486134.0 0
102000.0 490115.0 0
106000.0 490091.0 0
110000.0 490028.0 0
114000.0 490036.0 0
118000.0 489969.0 0
122000.0 490043.0 0
126000.0 489882.0 0
130000.0 489965.0 0
134000.0 489882.0 0
138000.0 489887.0 0
142000.0 489882.0 0
146000.0 489882.0 0
150000.0 489882.0 0
154000.0 489882.0 0
158000.0 489882.0 0
162000.0 489882.0 0
166000.0 489882.0 0
170000.0 489882.0 0
174000.0 489882.0 0
178000.0 489882.0 0
182000.0 489882.0 0
186000.0 489882.0 0
190000.0 489882.0 0
194000.0 489882.0 0
198000.0 489882.0 0
202000.0 489882.0 0
206000.0 489882.0 0
210000.0 489882.0 0
214000.0 489882.0 0
218000.0 489882.0 0
222000.0 489882.0 0
226000.0 489882.0 0
230000.0 489882.0 0
234000.0 489882.0 0
238000.0 489882.0 0
242000.0 489882.0 0
246000.0 489882.0 0
250000.0 489882.0 0
254000.0 489882.0 0
258000.0 489882.0 0
262000.0 489882.0 0
266000.0 489882.0 0
270000.0 489882.0 0
274000.0 489882.0 0
278000.0 489882.0 0
282000.0 489882.0 0
286000.0 489882.0 0
290000.0 489882.0 0
294000.0 489882.0 0
298000.0 489882.0 0
302000.0 489882.0 0
306000.0 489882.0 0
310000.0 489882.0 0
314000.0 489882.0 0
318000.0 489882.0 0
322000.0 489882.0 0
326000.0 489882.0 0
330000.0 489882.0 0
334000.0 489882.0 0
338000.0 489882.0 0
342000.0 489882.0 0
346000.0 489882.0 0
350000.0 489882.0 0
354000.0 489882.0 0
358000.0 489882.0 0
362000.0 489887.0 0
366000.0 489882.0 0
370000.0 489965.0 0
374000.0 489882.0 0
378000.0 490043.0 0
382000.0 489969.0 0
386000.0 490036.0 0
390000.0 490028.0 0
394000.0 490091.0 0
398000.0 490115.0 0
102000.0 494096.0 0
106000.0 494076.0 0
110000.0 494011.0 0
114000.0 494024.0 0
118000.0 493956.0 0
122000.0 494011.0 0
126000.0 493882.0 0
130000.0 493945.0 0
134000.0 493882.0 0
138000.0 493885.0 0
142000.0 493882.0 0
146000.0 493882.0 0
150000.0 493882.0 0
154000.0 493882.0 0
158000.0 493882.0 0
162000.0 493882.0 0
166000.0 493882.0 0
170000.0 493882.0 0
174000.0 493882.0 0
178000.0 493882.0 0
182000.0 493882.0 0
186000.0 493882.0 0
190000.0 493882.0 0
194000.0 493882.0 0
198000.0 493882.0 0
202000.0 493882.0 0
206000.0 493882.0 0
210000.0 493882.0 0
214000.0 493882.0 0
218000.0 493882.0 0
222000.0 493882.0 0
226000.0 493882.0 0
230000.0 493882.0 0
234000.0 493882.0 0
238000.0 493882.0 0
242000.0 493882.0 0
246000.0 493882.0 0
250000.0 493882.0 0
254000.0 493882.0 0
258000.0 493882.0 0
262000.0 493882.0 0
266000.0 493882.0 0
270000.0 493882.0 0
274000.0 493882.0 0
278000.0 493882.0 0
282000.0 493882.0 0
286000.0 493882.0 0
290000.0 493882.0 0
294000.0 493882.0 0
298000.0 493882.0 0
302000.0 493882.0 0
306000.0 493882.0 0
310000.0 493882.0 0
314000.0 493882.0 0
318000.0 493882.0 0
322000.0 493882.0 0
326000.0 493882.0 0
330000.0 493882.0 0
334000.0 493882.0 0
338000.0 493882.0 0
342000.0 493882.0 0
346000.0 493882.0 0
350000.0 493882.0 0
354000.0 493882.0 0
358000.0 493882.0 0
362000.0 493885.0 0
366000.0 493882.0 0
370000.0 493945.0 0
374000.0 493882.0 0
378000.0 494011.0 0
382000.0 493956.0 0
386000.0 494024.0 0
390000.0 494011.0 0
394000.0 494076.0 0
398000.0 494096.0 0
102000.0 498078.0 0
106000.0 498061.0 0
110000.0 497997.0 0
114000.0 498012.0 0
118000.0 497944.0 0
122000.0 497984.0 0
126000.0 497882.0 0
130000.0 497929.0 0
134000.0 497882.0 0
138000.0 497884.0 0
142000.0 497882.0 0
146000.0 497882.0 0
150000.0 497882.0 0
154000.0 497882.0 0
158000.0 497882.0 0
162000.0 497882.0 0
166000.0 497882.0 0
170000.0 497882.0 0
174000.0 497882.0 0
178000.0 497882.0 0
182000.0 497882.0 0
186000.0 497882.0 0
190000.0 497882.0 0
194000.0 497882.0 0
198000.0 497882.0 0
202000.0 497882.0 0
206000.0 497882.0 0
210000.0 497882.0 0
214000.0 497882.0 0
218000.0 497882.0 0
222000.0 497882.0 0
226000.0 497882.0 0
230000.0 497882.0 0
234000.0 497882.0 0
238000.0 497882.0 0
242000.0 497882.0 0
246000.0 497882.0 0
250000.0 497882.0 0
254000.0 497882.0 0
258000.0 497882.0 0
262000.0 497882.0 0
266000.0 497882.0 0
270000.0 497882.0 0
274000.0 497882.0 0
278000.0 497882.0 0
282000.0 497882.0 0
286000.0 497882.0 0
290000.0 497882.0 0
294000.0 497882.0 0
298000.0 497882.0 0
302000.0 497882.0 0
306000.0 497882.0 0
310000.0 497882.0 0
314000.0 497882.0 0
318000.0 497882.0 0
322000.0 497882.0 0
326000.0 497882.0 0
330000.0 497882.0 0
334000.0 497882.0 0
338000.0 497882.0 0
342000.0 497882.0 0
346000.0 497882.0 0
350000.0 497882.0 0
354000.0 497882.0 0
358000.0 497882.0 0
362000.0 497884.0 0
366000.0 497882.0 0
370000.0 497929.0 0
374000.0 497882.0 0
378000.0 497984.0 0
382000.0 497944.0 0
386000.0 498012.0 0
390000.0 497997.0 0
394000.0 498061.0 0
398000.0 498078.0 0
102000.0 502061.0 0
106000.0 502047.0 0
110000.0 501985.0 0
114000.0 502000.0 0
118000.0 501933.0 0
122000.0 501961.0 0
126000.0 501882.0 0
130000.0 501917.0 0
134000.0 501882.0 0
138000.0 501883.0 0
142000.0 501882.0 0
146000.0 501882.0 0
150000.0 501882.0 0
154000.0 501882.0 0
158000.0 501882.0 0
162000.0 501882.0 0
166000.0 501882.0 0
170000.0 501882.0 0
174000.0 501882.0 0
178000.0 501882.0 0
182000.0 501882.0 0
186000.0 501882.0 0
190000.0 501882.0 0
194000.0 501882.0 0
198000.0 501882.0 0
202000.0 501882.0 0
206000.0 501882.0 0
210000.0 501882.0 0
214000.0 501882.0 0
218000.0 501882.0 0
222000.0 501882.0 0
226000.0 501882.0 0
230000.0 501882.0 0
234000.0 501882.0 0
238000.0 501882.0 0
242000.0 501882.0 0
246000.0 501882.0 0
250000.0 501882.0 0
254000.0 501882.0 0
258000.0 501882.0 0
262000.0 501882.0 0
266000.0 501882.0 0
270000.0 501882.0 0
274000.0 501882.0 0
278000.0 501882.0 0
282000.0 501882.0 0
286000.0 501882.0 0
290000.0 501882.0 0
294000.0 501882.0 0
298000.0 501882.0 0
302000.0 501882.0 0
306000.0 501882.0 0
310000.0 501882.0 0
314000.0 501882.0 0
318000.0 501882.0 0
322000.0 501882.0 0
326000.0 501882.0 0
330000.0 501882.0 0
334000.0 501882.0 0
338000.0 501882.0 0
342000.0 501882.0 0
346000.0 501882.0 0
350000.0 501882.0 0
354000.0 501882.0 0
358000.0 501882.0 0
362000.0 501883.0 0
366000.0 501882.0 0
370000.0 501917.0 0
374000.0 501882.0 0
378000.0 501961.0 0
382000.0 501933.0 0
386000.0 502000.0 0
390000.0 501985.0 0
394000.0 502047.0 0
398000.0 502061.0 0
102000.0 506045.0 0
106000.0 506033.0 0
110000.0 505974.0 0
114000.0 505988.0 0
118000.0 505924.0 0
122000.0 505943.0 0
126000.0 505882.0 0
130000.0 505908.0 0
134000.0 505882.0 0
138000.0 505882.0 0
142000.0 505882.0 0
146000.0 505882.0 0
150000.0 505882.0 0
154000.0 505882.0 0
158000.0 505882.0 0
162000.0 505882.0 0
166000.0 505882.0 0
170000.0 505882.0 0
174000.0 505882.0 0
178000.0 505882.0 0
182000.0 505882.0 0
186000.0 505882.0 0
190000.0 505882.0 0
194000.0 505882.0 0
198000.0 505882.0 0
202000.0 505882.0 0
206000.0 505882.0 0
210000.0 505882.0 0
214000.0 505882.0 0
218000.0 505882.0 0
222000.0 505882.0 0
226000.0 505882.0 0
230000.0 505882.0 0
234000.0 505882.0 0
238000.0 505882.0 0
242000.0 505882.0 0
246000.0 505882.0 0
250000.0 505882.0 0
254000.0 505882.0 0
258000.0 505882.0 0
262000.0 505882.0 0
266000.0 505882.0 0
270000.0 505882.0 0
274000.0 505882.0 0
278000.0 505882.0 0
282000.0 505882.0 0
286000.0 505882.0 0
290000.0 505882.0 0
294000.0 505882.0 0
298000.0 505882.0 0
302000.0 505882.0 0
306000.0 505882.0 0
310000.0 505882.0 0
314000.0 505882.0 0
318000.0 505882.0 0
322000.0 505882.0 0
326000.0 505882.0 0
330000.0 505882.0 0
334000.0 505882.0 0
338000.0 505882.0 0
342000.0 505882.0 0
346000.0 505882.0 0
350000.0 505882.0 0
354000.0 505882.0 0
358000.0 505882.0 0
362000.0 505882.0 0
366000.0 505882.0 0
370000.0 505908.0 0
374000.0 505882.0 0
378000.0 505943.0 0
382000.0 505924.0 0
386000.0 505988.0 0
390000.0 505974.0 0
394000.0 506033.0 0
398000.0 506045.0 0
102000.0 510030.0 0
106000.0 510020.0 0
110000.0 509964.0 0
114000.0 509977.0 0
118000.0 509916.0 0
122000.0 509929.0 0
126000.0 509882.0 0
130000.0 509901.0 0
134000.0 509882.0 0
138000.0 509882.0 0
142000.0 509882.0 0
146000.0 509882.0 0
150000.0 509882.0 0
154000.0 509882.0 0
158000.0 509882.0 0
162000.0 509882.0 0
166000.0 509882.0 0
170000.0 509882.0 0
174000.0 509882.0 0
178000.0 509882.0 0
182000.0 509882.0 0
186000.0 509882.0 0
190000.0 509882.0 0
194000.0 509882.0 0
198000.0 509882.0 0
202000.0 509882.0 0
206000.0 509882.0 0
210000.0 509882.0 0
214000.0 509882.0 0
218000.0 509882.0 0
222000.0 509882.0 0
226000.0 509882.0 0
230000.0 509882.0 0
234000.0 509882.0 0
238000.0 509882.0 0
242000.0 509882.0 0
246000.0 509882.0 0
250000.0 509882.0 0
254000.0 509882.0 0
258000.0 509882.0 0
262000.0 509882.0 0
266000.0 509882.0 0
270000.0 509882.0 0
274000.0 509882.0 0
278000.0 509882.0 0
282000.0 509882.0 0
286000.0 509882.0 0
290000.0 509882.0 0
294000.0 509882.0 0
298000.0 509882.0 0
302000.0 509882.0 0
306000.0 509882.0 0
310000.0 509882.0 0
314000.0 509882.0 0
318000.0 509882.0 0
322000.0 509882.0 0
326000.0 509882.0 0
330000.0 509882.0 0
334000.0 509882.0 0
338000.0 509882.0 0
342000.0 509882.0 0
346000.0 509882.0 0
350000.0 509882.0 0
354000.0 509882.0 0
358000.0 509882.0 0
362000.0 509882.0 0
366000.0 509882.0 0
370000.0 509901.0 0
374000.0 509882.0 0
378000.0 509929.0 0
382000.0 509916.0 0
386000.0 509977.0 0
390000.0 509964.0 0
394000.0 510020.0 0
398000.0 510030.0 0
102000.0 514016.0 0
106000.0 514007.0 0
110000.0 513956.0 0
114000.0 513966.0 0
118000.0 513909.0 0
122000.0 513917.0 0
126000.0 513882.0 0
130000.0 513895.0 0
134000.0 513882.0 0
138000.0 513882.0 0
142000.0 513882.0 0
146000.0 513882.0 0
150000.0 513882.0 0
154000.0 513882.0 0
158000.0 513882.0 0
162000.0 513882.0 0
166000.0 513882.0 0
170000.0 513882.0 0
174000.0 513882.0 0
178000.0 513882.0 0
182000.0 513882.0 0
186000.0 513882.0 0
190000.0 513882.0 0
194000.0 513882.0 0
198000.0 513882.0 0
202000.0 513882.0 0
206000.0 513882.0 0
210000.0 513882.0 0
214000.0 513882.0 0
218000.0 513882.0 0
222000.0 513882.0 0
226000.0 513882.0 0
230000.0 513882.0 0
234000.0 513882.0 0
238000.0 513882.0 0
242000.0 513882.0 0
246000.0 513882.0 0
250000.0 513882.0 0
254000.0 513882.0 0
258000.0 513882.0 0
262000.0 513882.0 0
266000.0 513882.0 0
270000.0 513882.0 0
274000.0 513882.0 0
278000.0 513882.0 0
282000.0 513882.0 0
286000.0 513882.0 0
290000.0 513882.0 0
294000.0 513882.0 0
298000.0 513882.0 0
302000.0 513882.0 0
306000.0 513882.0 0
310000.0 513882.0 0
314000.0 513882.0 0
318000.0 513882.0 0
322000.0 513882.0 0
326000.0 513882.0 0
330000.0 513882.0 0
334000.0 513882.0 0
338000.0 513882.0 0
342000.0 513882.0 0
346000.0 513882.0 0
350000.0 513882.0 0
354000.0 513882.0 0
358000.0 513882.0 0
362000.0 513882.0 0
366000.0 513882.0 0
370000.0 513895.0 0
374000.0 513882.0 0
378000.0 513917.0 0
382000.0 513909.0 0
386000.0 513966.0 0
390000.0 513956.0 0
394000.0 514007.0 0
398000.0 514016.0 0
102000.0 518003.0 0
106000.0 517995.0 0
110000.0 517948.0 0
114000.0 517955.0 0
118000.0 517903.0 0
122000.0 517908.0 0
126000.0 517882.0 0
130000.0 517891.0 0
134000.0 517882.0 0
138000.0 517882.0 0
142000.0 517882.0 0
146000.0 517882.0 0
150000.0 517882.0 0
154000.0 517882.0 0
158000.0 517882.0 0
162000.0 517882.0 0
166000.0 517882.0 0
170000.0 517882.0 0
174000.0 517882.0 0
178000.0 517882.0 0
182000.0 517882.0 0
186000.0 517882.0 0
190000.0 517882.0 0
194000.0 517882.0 0
198000.0 517882.0 0
202000.0 517882.0 0
206000.0 517882.0 0
210000.0 517882.0 0
214000.0 517882.0 0
218000.0 517882.0 0
222000.0 517882.0 0
226000.0 517882.0 0
230000.0 517882.0 0
234000.0 517882.0 0
238000.0 517882.0 0
242000.0 517882.0 0
246000.0 517882.0 0
250000.0 517882.0 0
254000.0 517882.0 0
258000.0 517882.0 0
262000.0 517882.0 0
266000.0 517882.0 0
270000.0 517882.0 0
274000.0 517882.0 0
278000.0 517882.0 0
282000.0 517882.0 0
286000.0 517882.0 0
290000.0 517882.0 0
294000.0 517882.0 0
298000.0 517882.0 0
302000.0 517882.0 0
306000.0 517882.0 0
310000.0 517882.0 0
314000.0 517882.0 0
318000.0 517882.0 0
322000.0 517882.0 0
326000.0 517882.0 0
330000.0 517882.0 0
334000.0 517882.0 0
338000.0 517882.0 0
342000.0 517882.0 0
346000.0 517882.0 0
350000.0 517882.0 0
354000.0 517882.0 0
358000.0 517882.0 0
362000.0 517882.0 0
366000.0 517882.0 0
370000.0 517891.0 0
374000.0 517882.0 0
378000.0 517908.0 0
382000.0 517903.0 0
386000.0 517955.0 0
390000.0 517948.0 0
394000.0 517995.0 0
398000.0 518003.0 0
102000.0 521991.0 0
106000.0 521984.0 0
110000.0 521941.0 0
114000.0 521946.0 0
118000.0 521898.0 0
122000.0 521901.0 0
126000.0 521882.0 0
130000.0 521888.0 0
134000.0 521882.0 0
138000.0 521882.0 0
142000.0 521882.0 0
146000.0 521882.0 0
150000.0 521882.0 0
154000.0 521882.0 0
158000.0 521882.0 0
162000.0 521882.0 0
166000.0 521882.0 0
170000.0 521882.0 0
174000.0 521882.0 0
178000.0 521882.0 0
182000.0 521882.0 0
186000.0 521882.0 0
190000.0 521882.0 0
194000.0 521882.0 0
198000.0 521882.0 0
202000.0 521882.0 0
206000.0 521882.0 0
210000.0 521882.0 0
214000.0 521882.0 0
218000.0 521882.0 0
222000.0 521882.0 0
226000.0 521882.0 0
230000.0 521882.0 0
234000.0 521882.0 0
238000.0 521882.0 0
242000.0 521882.0 0
246000.0 521882.0 0
250000.0 521882.0 0
254000.0 521882.0 0
258000.0 521882.0 0
262000.0 521882.0 0
266000.0 521882.0 0
270000.0 521882.0 0
274000.0 521882.0 0
278000.0 521882.0 0
282000.0 521882.0 0
286000.0 521882.0 0
290000.0 521882.0 0
294000.0 521882.0 0
298000.0 521882.0 0
302000.0 521882.0 0
306000.0 521882.0 0
310000.0 521882.0 0
314000.0 521882.0 0
318000.0 521882.0 0
322000.0 521882.0 0
326000.0 521882.0 0
330000.0 521882.0 0
334000.0 521882.0 0
338000.0 521882.0 0
342000.0 521882.0 0
346000.0 521882.0 0
350000.0 521882.0 0
354000.0 521882.0 0
358000.0 521882.0 0
362000.0 521882.0 0
366000.0 521882.0 0
370000.0 521888.0 0
374000.0 521882.0 0
378000.0 521901.0 0
382000.0 521898.0 0
386000.0 521946.0 0
390000.0 521941.0 0
394000.0 521984.0 0
398000.0 521991.0 0
102000.0 525980.0 0
106000.0 525974.0 0
110000.0 525935.0 0
114000.0 525937.0 0
118000.0 525895.0 0
122000.0 525896.0 0
126000.0 525882.0 0
130000.0 525886.0 0
134000.0 525882.0 0
138000.0 525882.0 0
142000.0 525882.0 0
146000.0 525882.0 0
150000.0 525882.0 0
154000.0 525882.0 0
158000.0 525882.0 0
162000.0 525882.0 0
166000.0 525882.0 0
170000.0 525882.0 0
174000.0 525882.0 0
178000.0 525882.0 0
182000.0 525882.0 0
186000.0 525882.0 0
190000.0 525882.0 0
194000.0 525882.0 0
198000.0 525882.0 0
202000.0 525882.0 0
206000.0 525882.0 0
210000.0 525882.0 0
214000.0 525882.0 0
218000.0 525882.0 0
222000.0 525882.0 0
226000.0 525882.0 0
230000.0 525882.0 0
234000.0 525882.0 0
238000.0 525882.0 0
242000.0 525882.0 0
246000.0 525882.0 0
250000.0 525882.0 0
254000.0 525882.0 0
258000.0 525882.0 0
262000.0 525882.0 0
266000.0 525882.0 0
270000.0 525882.0 0
274000.0 525882.0 0
278000.0 525882.0 0
282000.0 525882.0 0
286000.0 525882.0 0
290000.0 525882.0 0
294000.0 525882.0 0
298000.0 525882.0 0
302000.0 525882.0 0
306000.0 525882.0 0
310000.0 525882.0 0
314000.0 525882.0 0
318000.0 525882.0 0
322000.0 525882.0 0
326000.0 525882.0 0
330000.0 525882.0 0
334000.0 525882.0 0
338000.0 525882.0 0
342000.0 525882.0 0
346000.0 525882.0 0
350000.0 525882.0 0
354000.0 525882.0 0
358000.0 525882.0 0
362000.0 525882.0 0
366000.0 525882.0 0
370000.0 525886.0 0
374000.0 525882.0 0
378000.0 525896.0 0
382000.0 525895.0 0
386000.0 525937.0 0
390000.0 525935.0 0
394000.0 525974.0 0
398000.0 525980.0 0
102000.0 529971.0 0
106000.0 529964.0 0
110000.0 529929.0 0
114000.0 529929.0 0
118000.0 529891.0 0
122000.0 529892.0 0
126000.0 529882.0 0
130000.0 529885.0 0
134000.0 529882.0 0
138000.0 529882.0 0
142000.0 529882.0 0
146000.0 529882.0 0
150000.0 529882.0 0
154000.0 529882.0 0
158000.0 529882.0 0
162000.0 529882.0 0
166000.0 529882.0 0
170000.0 529882.0 0
174000.0 529882.0 0
178000.0 529882.0 0
182000.0 529882.0 0
186000.0 529882.0 0
190000.0 529882.0 0
194000.0 529882.0 0
198000.0 529882.0 0
202000.0 529882.0 0
206000.0 529882.0 0
210000.0 529882.0 0
214000.0 529882.0 0
218000.0 529882.0 0
222000.0 529882.0 0
226000.0 529882.0 0
230000.0 529882.0 0
234000.0 529882.0 0
238000.0 529882.0 0
242000.0 529882.0 0
246000.0 529882.0 0
250000.0 529882.0 0
254000.0 529882.0 0
258000.0 529882.0 0
262000.0 529882.0 0
266000.0 529882.0 0
270000.0 529882.0 0
274000.0 529882.0 0
278000.0 529882.0 0
282000.0 529882.0 0
286000.0 529882.0 0
290000.0 529882.0 0
294000.0 529882.0 0
298000.0 529882.0 0
302000.0 529882.0 0
306000.0 529882.0 0
310000.0 529882.0 0
314000.0 529882.0 0
318000.0 529882.0 0
322000.0 529882.0 0
326000.0 529882.0 0
330000.0 529882.0 0
334000.0 529882.0 0
338000.0 529882.0 0
342000.0 529882.0 0
346000.0 529882.0 0
350000.0 529882.0 0
354000.0 529882.0 0
358000.0 529882.0 0
362000.0 529882.0 0
366000.0 529882.0 0
370000.0 529885.0 0
374000.0 529882.0 0
378000.0 529892.0 0
382000.0 529891.0 0
386000.0 529929.0 0
390000.0 529929.0 0
394000.0 529964.0 0
398000.0 529971.0 0
102000.0 533961.0 0
106000.0 533956.0 0
110000.0 533924.0 0
114000.0 533922.0 0
118000.0 533889.0 0
122000.0 533889.0 0
126000.0 533882.0 0
130000.0 533884.0 0
134000.0 533882.0 0
138000.0 533882.0 0
142000.0 533882.0 0
146000.0 533882.0 0
150000.0 533882.0 0
154000.0 533882.0 0
158000.0 533882.0 0
162000.0 533882.0 0
166000.0 533882.0 0
170000.0 533882.0 0
174000.0 533882.0 0
178000.0 533882.0 0
182000.0 533882.0 0
186000.0 533882.0 0
190000.0 533882.0 0
194000.0 533882.0 0
198000.0 533882.0 0
202000.0 533882.0 0
206000.0 533882.0 0
210000.0 533882.0 0
214000.0 533882.0 0
218000.0 533882.0 0
222000.0 533882.0 0
226000.0 533882.0 0
230000.0 533882.0 0
234000.0 533882.0 0
238000.0 533882.0 0
242000.0 533882.0 0
246000.0 533882.0 0
250000.0 533882.0 0
254000.0 533882.0 0
258000.0 533882.0 0
262000.0 533882.0 0
266000.0 533882.0 0
270000.0 533882.0 0
274000.0 533882.0 0
278000.0 533882.0 0
282000.0 533882.0 0
286000.0 533882.0 0
290000.0 533882.0 0
294000.0 533882.0 0
298000.0 533882.0 0
302000.0 533882.0 0
306000.0 533882.0 0
310000.0 533882.0 0
314000.0 533882.0 0
318000.0 533882.0 0
322000.0 533882.0 0
326000.0 533882.0 0
330000.0 533882.0 0
334000.0 533882.0 0
338000.0 533882.0 0
342000.0 533882.0 0
346000.0 533882.0 0
350000.0 533882.0 0
354000.0 533882.0 0
358000.0 533882.0 0
362000.0 533882.0 0
366000.0 533882.0 0
370000.0 533884.0 0
374000.0 533882.0 0
378000.0 533889.0 0
382000.0 533889.0 0
386000.0 533922.0 0
390000.0 533924.0 0
394000.0 533956.0 0
398000.0 533961.0 0
102000.0 537953.0 0
106000.0 537948.0 0
110000.0 537919.0 0
114000.0 537915.0 0
118000.0 537887.0 0
122000.0 537887.0 0
126000.0 537882.0 0
130000.0 537883.0 0
134000.0 537882.0 0
138000.0 537882.0 0
142000.0 537882.0 0
146000.0 537882.0 0
150000.0 537882.0 0
154000.0 537882.0 0
158000.0 537882.0 0
162000.0 537882.0 0
166000.0 537882.0 0
170000.0 537882.0 0
174000.0 537882.0 0
178000.0 537882.0 0
182000.0 537882.0 0
186000.0 537882.0 0
190000.0 537882.0 0
194000.0 537882.0 0
198000.0 537882.0 0
202000.0 537882.0 0
206000.0 537882.0 0
210000.0 537882.0 0
214000.0 537882.0 0
218000.0 537882.0 0
222000.0 537882.0 0
226000.0 537882.0 0
230000.0 537882.0 0
234000.0 537882.0 0
238000.0 537882.0 0
242000.0 537882.0 0
246000.0 537882.0 0
250000.0 537882.0 0
254000.0 537882.0 0
258000.0 537882.0 0
262000.0 537882.0 0
266000.0 537882.0 0
270000.0 537882.0 0
274000.0 537882.0 0
278000.0 537882.0 0
282000.0 537882.0 0
286000.0 537882.0 0
290000.0 537882.0 0
294000.0 537882.0 0
298000.0 537882.0 0
302000.0 537882.0 0
306000.0 537882.0 0
310000.0 537882.0 0
314000.0 537882.0 0
318000.0 537882.0 0
322000.0 537882.0 0
326000.0 537882.0 0
330000.0 537882.0 0
334000.0 537882.0 0
338000.0 537882.0 0
342000.0 537882.0 0
346000.0 537882.0 0
350000.0 537882.0 0
354000.0 537882.0 0
358000.0 537882.0 0
362000.0 537882.0 0
366000.0 537882.0 0
370000.0 537883.0 0
374000.0 537882.0 0
378000.0 537887.0 0
382000.0 537887.0 0
386000.0 537915.0 0
390000.0 537919.0 0
394000.0 537948.0 0
398000.0 537953.0 0
102000.0 541946.0 0
106000.0 541940.0 0
110000.0 541914.0 0
114000.0 541910.0 0
118000.0 541886.0 0
122000.0 541886.0 0
126000.0 541882.0 0
130000.0 541883.0 0
134000.0 541882.0 0
138000.0 541882.0 0
142000.0 541882.0 0
146000.0 541882.0 0
150000.0 541882.0 0
154000.0 541882.0 0
158000.0 541882.0 0
162000.0 541882.0 0
166000.0 541882.0 0
170000.0 541882.0 0
174000.0 541882.0 0
178000.0 541882.0 0
182000.0 541882.0 0
186000.0 541882.0 0
190000.0 541882.0 0
194000.0 541882.0 0
198000.0 541882.0 0
202000.0 541882.0 0
206000.0 541882.0 0
210000.0 541882.0 0
214000.0 541882.0 0
218000.0 541882.0 0
222000.0 541882.0 0
226000.0 541882.0 0
230000.0 541882.0 0
234000.0 541882.0 0
238000.0 541882.0 0
242000.0 541882.0 0
246000.0 541882.0 0
250000.0 541882.0 0
254000.0 541882.0 0
258000.0 541882.0 0
262000.0 541882.0 0
266000.0 541882.0 0
270000.0 541882.0 0
274000.0 541882.0 0
278000.0 541882.0 0
282000.0 541882.0 0
286000.0 541882.0 0
290000.0 541882.0 0
294000.0 541882.0 0
298000.0 541882.0 0
302000.0 541882.0 0
306000.0 541882.0 0
310000.0 541882.0 0
314000.0 541882.0 0
318000.0 541882.0 0
322000.0 541882.0 0
326000.0 541882.0 0
330000.0 541882.0 0
334000.0 541882.0 0
338000.0 541882.0 0
342000.0 541882.0 0
346000.0 541882.0 0
350000.0 541882.0 0
354000.0 541882.0 0
358000.0 541882.0 0
362000.0 541882.0 0
366000.0 541882.0 0
370000.0 541883.0 0
374000.0 541882.0 0
378000.0 541886.0 0
382000.0 541886.0 0
386000.0 541910.0 0
390000.0 541914.0 0
394000.0 541940.0 0
398000.0 541946.0 0
102000.0 545939.0 0
106000.0 545933.0 0
110000.0 545910.0 0
114000.0 545905.0 0
118000.0 545885.0 0
122000.0 545885.0 0
126000.0 545882.0 0
130000.0 545882.0 0
134000.0 545882.0 0
138000.0 545882.0 0
142000.0 545882.0 0
146000.0 545882.0 0
150000.0 545882.0 0
154000.0 545882.0 0
158000.0 545882.0 0
162000.0 545882.0 0
166000.0 545882.0 0
170000.0 545882.0 0
174000.0 545882.0 0
178000.0 545882.0 0
182000.0 545882.0 0
186000.0 545882.0 0
190000.0 545882.0 0
194000.0 545882.0 0
198000.0 545882.0 0
202000.0 545882.0 0
206000.0 545882.0 0
210000.0 545882.0 0
214000.0 545882.0 0
218000.0 545882.0 0
222000.0 545882.0 0
226000.0 545882.0 0
230000.0 545882.0 0
234000.0 545882.0 0
238000.0 545882.0 0
242000.0 545882.0 0
246000.0 545882.0 0
250000.0 545882.0 0
254000.0 545882.0 0
258000.0 545882.0 0
262000.0 545882.0 0
266000.0 545882.0 0
270000.0 545882.0 0
274000.0 545882.0 0
278000.0 545882.0 0
282000.0 545882.0 0
286000.0 545882.0 0
290000.0 545882.0 0
294000.0 545882.0 0
298000.0 545882.0 0
302000.0 545882.0 0
306000.0 545882.0 0
310000.0 545882.0 0
314000.0 545882.0 0
318000.0 545882.0 0
322000.0 545882.0 0
326000.0 545882.0 0
330000.0 545882.0 0
334000.0 545882.0 0
338000.0 545882.0 0
342000.0 545882.0 0
346000.0 545882.0 0
350000.0 545882.0 0
354000.0 545882.0 0
358000.0 545882.0 0
362000.0 545882.0 0
366000.0 545882.0 0
370000.0 545882.0 0
374000.0 545882.0 0
378000.0 545885.0 0
382000.0 545885.0 0
386000.0 545905.0 0
390000.0 545910.0 0
394000.0 545933.0 0
398000.0 545939.0 0
102000.0 549932.0 0
106000.0 549927.0 0
110000.0 549906.0 0
114000.0 549901.0 0
118000.0 549884.0 0
122000.0 549884.0 0
126000.0 549882.0 0
130000.0 549882.0 0
134000.0 549882.0 0
138000.0 549882.0 0
142000.0 549882.0 0
146000.0 549882.0 0
150000.0 549882.0 0
154000.0 549882.0 0
158000.0 549882.0 0
162000.0 549882.0 0
166000.0 549882.0 0
170000.0 549882.0 0
174000.0 549882.0 0
178000.0 549882.0 0
182000.0 549882.0 0
186000.0 549882.0 0
190000.0 549882.0 0
194000.0 549882.0 0
198000.0 549882.0 0
202000.0 549882.0 0
206000.0 549882.0 0
210000.0 549882.0 0
214000.0 549882.0 0
218000.0 549882.0 0
222000.0 549882.0 0
226000.0 549882.0 0
230000.0 549882.0 0
234000.0 549882.0 0
238000.0 549882.0 0
242000.0 549882.0 0
246000.0 549882.0 0
250000.0 549882.0 0
254000.0 549882.0 0
258000.0 549882.0 0
262000.0 549882.0 0
266000.0 549882.0 0
270000.0 549882.0 0
274000.0 549882.0 0
278000.0 549882.0 0
282000.0 549882.0 0
286000.0 549882.0 0
290000.0 549882.0 0
294000.0 549882.0 0
298000.0 549882.0 0
302000.0 549882.0 0
306000.0 549882.0 0
310000.0 549882.0 0
314000.0 549882.0 0
318000.0 549882.0 0
322000.0 549882.0 0
326000.0 549882.0 0
330000.0 549882.0 0
334000.0 549882.0 0
338000.0 549882.0 0
342000.0 549882.0 0
346000.0 549882.0 0
350000.0 549882.0 0
354000.0 549882.0 0
358000.0 549882.0 0
362000.0 549882.0 0
366000.0 549882.0 0
370000.0 549882.0 0
374000.0 549882.0 0
378000.0 549884.0 0
382000.0 549884.0 0
386000.0 549901.0 0
390000.0 549906.0 0
394000.0 549927.0 0
398000.0 549932.0 0
102000.0 553926.0 0
106000.0 553922.0 0
110000.0 553903.0 0
114000.0 553897.0 0
118000.0 553883.0 0
122000.0 553883.0 0
126000.0 553882.0 0
130000.0 553882.0 0
134000.0 553882.0 0
138000.0 553882.0 0
142000.0 553882.0 0
146000.0 553882.0 0
150000.0 553882.0 0
154000.0 553882.0 0
158000.0 553882.0 0
162000.0 553882.0 0
166000.0 553882.0 0
170000.0 553882.0 0
174000.0 553882.0 0
178000.0 553882.0 0
182000.0 553882.0 0
186000.0 553882.0 0
190000.0 553882.0 0
194000.0 553882.0 0
198000.0 553882.0 0
202000.0 553882.0 0
206000.0 553882.0 0
210000.0 553882.0 0
214000.0 553882.0 0
218000.0 553882.0 0
222000.0 553882.0 0
226000.0 553882.0 0
230000.0 553882.0 0
234000.0 553882.0 0
238000.0 553882.0 0
242000.0 553882.0 0
246000.0 553882.0 0
250000.0 553882.0 0
254000.0 553882.0 0
258000.0 553882.0 0
262000.0 553882.0 0
266000.0 553882.0 0
270000.0 553882.0 0
274000.0 553882.0 0
278000.0 553882.0 0
282000.0 553882.0 0
286000.0 553882.0 0
290000.0 553882.0 0
294000.0 553882.0 0
298000.0 553882.0 0
302000.0 553882.0 0
306000.0 553882.0 0
310000.0 553882.0 0
314000.0 553882.0 0
318000.0 553882.0 0
322000.0 553882.0 0
326000.0 553882.0 0
330000.0 553882.0 0
334000.0 553882.0 0
338000.0 553882.0 0
342000.0 553882.0 0
346000.0 553882.0 0
350000.0 553882.0 0
354000.0 553882.0 0
358000.0 553882.0 0
362000.0 553882.0 0
366000.0 553882.0 0
370000.0 553882.0 0
374000.0 553882.0 0
378000.0 553883.0 0
382000.0 553883.0 0
386000.0 553897.0 0
390000.0 553903.0 0
394000.0 553922.0 0
398000.0 553926.0 0
102000.0 557921.0 0
106000.0 557917.0 0
110000.0 557900.0 0
114000.0 557894.0 0
118000.0 557883.0 0
122000.0 557883.0 0
126000.0 557882.0 0
130000.0 557882.0 0
134000.0 557882.0 0
138000.0 557882.0 0
142000.0 557882.0 0
146000.0 557882.0 0
150000.0 557882.0 0
154000.0 557882.0 0
158000.0 557882.0 0
162000.0 557882.0 0
166000.0 557882.0 0
170000.0 557882.0 0
174000.0 557882.0 0
178000.0 557882.0 0
182000.0 557882.0 0
186000.0 557882.0 0
190000.0 557882.0 0
194000.0 557882.0 0
198000.0 557882.0 0
202000.0 557882.0 0
206000.0 557882.0 0
210000.0 557882.0 0
214000.0 557882.0 0
218000.0 557882.0 0
222000.0 557882.0 0
226000.0 557882.0 0
230000.0 557882.0 0
234000.0 557882.0 0
238000.0 557882.0 0
242000.0 557882.0 0
246000.0 557882.0 0
250000.0 557882.0 0
254000.0 557882.0 0
258000.0 557882.0 0
262000.0 557882.0 0
266000.0 557882.0 0
270000.0 557882.0 0
274000.0 557882.0 0
278000.0 557882.0 0
282000.0 557882.0 0
286000.0 557882.0 0
290000.0 557882.0 0
294000.0 557882.0 0
298000.0 557882.0 0
302000.0 557882.0 0
306000.0 557882.0 0
310000.0 557882.0 0
314000.0 557882.0 0
318000.0 557882.0 0
322000.0 557882.0 0
326000.0 557882.0 0
330000.0 557882.0 0
334000.0 557882.0 0
338000.0 557882.0 0
342000.0 557882.0 0
346000.0 557882.0 0
350000.0 557882.0 0
354000.0 557882.0 0
358000.0 557882.0 0
362000.0 557882.0 0
366000.0 557882.0 0
370000.0 557882.0 0
374000.0 557882.0 0
378000.0 557883.0 0
382000.0 557883.0 0
386000.0 557894.0 0
390000.0 557900.0 0
394000.0 557917.0 0
398000.0 557921.0 0
102000.0 561916.0 0
106000.0 561912.0 0
110000.0 561897.0 0
114000.0 561892.0 0
118000.0 561882.0 0
122000.0 561882.0 0
126000.0 561882.0 0
130000.0 561882.0 0
134000.0 561882.0 0
138000.0 561882.0 0
142000.0 561882.0 0
146000.0 561882.0 0
150000.0 561882.0 0
154000.0 561882.0 0
158000.0 561882.0 0
162000.0 561882.0 0
166000.0 561882.0 0
170000.0 561882.0 0
174000.0 561882.0 0
178000.0 561882.0 0
182000.0 561882.0 0
186000.0 561882.0 0
190000.0 561882.0 0
194000.0 561882.0 0
198000.0 561882.0 0
202000.0 561882.0 0
206000.0 561882.0 0
210000.0 561882.0 0
214000.0 561882.0 0
218000.0 561882.0 0
222000.0 561882.0 0
226000.0 561882.0 0
230000.0 561882.0 0
234000.0 561882.0 0
238000.0 561882.0 0
242000.0 561882.0 0
246000.0 561882.0 0
250000.0 561882.0 0
254000.0 561882.0 0
258000.0 561882.0 0
262000.0 561882.0 0
266000.0 561882.0 0
270000.0 561882.0 0
274000.0 561882.0 0
278000.0 561882.0 0
282000.0 561882.0 0
286000.0 561882.0 0
290000.0 561882.0 0
294000.0 561882.0 0
298000.0 561882.0 0
302000.0 561882.0 0
306000.0 561882.0 0
310000.0 561882.0 0
314000.0 561882.0 0
318000.0 561882.0 0
322000.0 561882.0 0
326000.0 561882.0 0
330000.0 561882.0 0
334000.0 561882.0 0
338000.0 561882.0 0
342000.0 561882.0 0
346000.0 561882.0 0
350000.0 561882.0 0
354000.0 561882.0 0
358000.0 561882.0 0
362000.0 561882.0 0
366000.0 561882.0 0
370000.0 561882.0 0
374000.0 561882.0 0
378000.0 561882.0 0
382000.0 561882.0 0
386000.0 561892.0 0
390000.0 561897.0 0
394000.0 561912.0 0
398000.0 561916.0 0
102000.0 565912.0 0
106000.0 565908.0 0
110000.0 565895.0 0
114000.0 565890.0 0
118000.0 565882.0 0
122000.0 565882.0 0
126000.0 565882.0 0
130000.0 565882.0 0
134000.0 565882.0 0
138000.0 565882.0 0
142000.0 565882.0 0
146000.0 565882.0 0
150000.0 565882.0 0
154000.0 565882.0 0
158000.0 565882.0 0
162000.0 565882.0 0
166000.0 565882.0 0
170000.0 565882.0 0
174000.0 565882.0 0
178000.0 565882.0 0
182000.0 565882.0 0
186000.0 565882.0 0
190000.0 565882.0 0
194000.0 565882.0 0
198000.0 565882.0 0
202000.0 565882.0 0
206000.0 565882.0 0
210000.0 565882.0 0
214000.0 565882.0 0
218000.0 565882.0 0
222000.0 565882.0 0
226000.0 565882.0 0
230000.0 565882.0 0
234000.0 565882.0 0
238000.0 565882.0 0
242000.0 565882.0 0
246000.0 565882.0 0
250000.0 565882.0 0
254000.0 565882.0 0
258000.0 565882.0 0
262000.0 565882.0 0
266000.0 565882.0 0
270000.0 565882.0 0
274000.0 565882.0 0
278000.0 565882.0 0
282000.0 565882.0 0
286000.0 565882.0 0
290000.0 565882.0 0
294000.0 565882.0 0
298000.0 565882.0 0
302000.0 565882.0 0
306000.0 565882.0 0
310000.0 565882.0 0
314000.0 565882.0 0
318000.0 565882.0 0
322000.0 565882.0 0
326000.0 565882.0 0
330000.0 565882.0 0
334000.0 565882.0 0
338000.0 565882.0 0
342000.0 565882.0 0
346000.0 565882.0 0
350000.0 565882.0 0
354000.0 565882.0 0
358000.0 565882.0 0
362000.0 565882.0 0
366000.0 565882.0 0
370000.0 565882.0 0
374000.0 565882.0 0
378000.0 565882.0 0
382000.0 565882.0 0
386000.0 565890.0 0
390000.0 565895.0 0
394000.0 565908.0 0
398000.0 565912.0 0
102000.0 569908.0 0
106000.0 569905.0 0
110000.0 569893.0 0
114000.0 569888.0 0
118000.0 569882.0 0
122000.0 569882.0 0
126000.0 569882.0 0
130000.0 569882.0 0
134000.0 569882.0 0
138000.0 569882.0 0
142000.0 569882.0 0
146000.0 569882.0 0
150000.0 569882.0 0
154000.0 569882.0 0
158000.0 569882.0 0
162000.0 569882.0 0
166000.0 569882.0 0
170000.0 569882.0 0
174000.0 569882.0 0
178000.0 569882.0 0
182000.0 569882.0 0
186000.0 569882.0 0
190000.0 569882.0 0
194000.0 569882.0 0
198000.0 569882.0 0
202000.0 569882.0 0
206000.0 569882.0 0
210000.0 569882.0 0
214000.0 569882.0 0
218000.0 569882.0 0
222000.0 569882.0 0
226000.0 569882.0 0
230000.0 569882.0 0
234000.0 569882.0 0
238000.0 569882.0 0
242000.0 569882.0 0
246000.0 569882.0 0
250000.0 569882.0 0
254000.0 569882.0 0
258000.0 569882.0 0
262000.0 569882.0 0
266000.0 569882.0 0
270000.0 569882.0 0
274000.0 569882.0 0
278000.0 569882.0 0
282000.0 569882.0 0
286000.0 569882.0 0
290000.0 569882.0 0
294000.0 569882.0 0
298000.0 569882.0 0
302000.0 569882.0 0
306000.0 569882.0 0
310000.0 569882.0 0
314000.0 569882.0 0
318000.0 569882.0 0
322000.0 569882.0 0
326000.0 569882.0 0
330000.0 569882.0 0
334000.0 569882.0 0
338000.0 569882.0 0
342000.0 569882.0 0
346000.0 569882.0 0
350000.0 569882.0 0
354000.0 569882.0 0
358000.0 569882.0 0
362000.0 569882.0 0
366000.0 569882.0 0
370000.0 569882.0 0
374000.0 569882.0 0
378000.0 569882.0 0
382000.0 569882.0 0
386000.0 569888.0 0
390000.0 569893.0 0
394000.0 569905.0 0
398000.0 569908.0 0
102000.0 573905.0 0
106000.0 573902.0 0
110000.0 573891.0 0
114000.0 573887.0 0
118000.0 573882.0 0
122000.0 573882.0 0
126000.0 573882.0 0
130000.0 573882.0 0
134000.0 573882.0 0
138000.0 573882.0 0
142000.0 573882.0 0
146000.0 573882.0 0
150000.0 573882.0 0
154000.0 573882.0 0
158000.0 573882.0 0
162000.0 573882.0 0
166000.0 573882.0 0
170000.0 573882.0 0
174000.0 573882.0 0
178000.0 573882.0 0
182000.0 573882.0 0
186000.0 573882.0 0
190000.0 573882.0 0
194000.0 573882.0 0
198000.0 573882.0 0
202000.0 573882.0 0
206000.0 573882.0 0
210000.0 573882.0 0
214000.0 573882.0 0
218000.0 573882.0 0
222000.0 573882.0 0
226000.0 573882.0 0
230000.0 573882.0 0
234000.0 573882.0 0
238000.0 573882.0 0
242000.0 573882.0 0
246000.0 573882.0 0
250000.0 573882.0 0
254000.0 573882.0 0
258000.0 573882.0 0
262000.0 573882.0 0
266000.0 573882.0 0
270000.0 573882.0 0
274000.0 573882.0 0
278000.0 573882.0 0
282000.0 573882.0 0
286000.0 573882.0 0
290000.0 573882.0 0
294000.0 573882.0 0
298000.0 573882.0 0
302000.0 573882.0 0
306000.0 573882.0 0
310000.0 573882.0 0
314000.0 573882.0 0
318000.0 573882.0 0
322000.0 573882.0 0
326000.0 573882.0 0
330000.0 573882.0 0
334000.0 573882.0 0
338000.0 573882.0 0
342000.0 573882.0 0
346000.0 573882.0 0
350000.0 573882.0 0
354000.0 573882.0 0
358000.0 573882.0 0
362000.0 573882.0 0
366000.0 573882.0 0
370000.0 573882.0 0
374000.0 573882.0 0
378000.0 573882.0 0
382000.0 573882.0 0
386000.0 573887.0 0
390000.0 573891.0 0
394000.0 573902.0 0
398000.0 573905.0 0
102000.0 577902.0 0
106000.0 577899.0 0
110000.0 577889.0 0
114000.0 577886.0 0
118000.0 577882.0 0
122000.0 577882.0 0
126000.0 577882.0 0
130000.0 577882.0 0
134000.0 577882.0 0
138000.0 577882.0 0
142000.0 577882.0 0
146000.0 577882.0 0
150000.0 577882.0 0
154000.0 577882.0 0
158000.0 577882.0 0
162000.0 577882.0 0
166000.0 577882.0 0
170000.0 577882.0 0
174000.0 577882.0 0
178000.0 577882.0 0
182000.0 577882.0 0
186000.0 577882.0 0
190000.0 577882.0 0
194000.0 577882.0 0
198000.0 577882.0 0
202000.0 577882.0 0
206000.0 577882.0 0
210000.0 577882.0 0
214000.0 577882.0 0
218000.0 577882.0 0
222000.0 577882.0 0
226000.0 577882.0 0
230000.0 577882.0 0
234000.0 577882.0 0
238000.0 577882.0 0
242000.0 577882.0 0
246000.0 577882.0 0
250000.0 577882.0 0
254000.0 577882.0 0
258000.0 577882.0 0
262000.0 577882.0 0
266000.0 577882.0 0
270000.0 577882.0 0
274000.0 577882.0 0
278000.0 577882.0 0
282000.0 577882.0 0
286000.0 577882.0 0
290000.0 577882.0 0
294000.0 577882.0 0
298000.0 577882.0 0
302000.0 577882.0 0
306000.0 577882.0 0
310000.0 577882.0 0
314000.0 577882.0 0
318000.0 577882.0 0
322000.0 577882.0 0
326000.0 577882.0 0
330000.0 577882.0 0
334000.0 577882.0 0
338000.0 577882.0 0
342000.0 577882.0 0
346000.0 577882.0 0
350000.0 577882.0 0
354000.0 577882.0 0
358000.0 577882.0 0
362000.0 577882.0 0
366000.0 577882.0 0
370000.0 577882.0 0
374000.0 577882.0 0
378000.0 577882.0 0
382000.0 577882.0 0
386000.0 577886.0 0
390000.0 577889.0 0
394000.0 577899.0 0
398000.0 577902.0 0
102000.0 581899.0 0
106000.0 581896.0 0
110000.0 581888.0 0
114000.0 581885.0 0
118000.0 581882.0 0
122000.0 581882.0 0
126000.0 581882.0 0
130000.0 581882.0 0
134000.0 581882.0 0
138000.0 581882.0 0
142000.0 581882.0 0
146000.0 581882.0 0
150000.0 581882.0 0
154000.0 581882.0 0
158000.0 581882.0 0
162000.0 581882.0 0
166000.0 581882.0 0
170000.0 581882.0 0
174000.0 581882.0 0
178000.0 581882.0 0
182000.0 581882.0 0
186000.0 581882.0 0
190000.0 581882.0 0
194000.0 581882.0 0
198000.0 581882.0 0
202000.0 581882.0 0
206000.0 581882.0 0
210000.0 581882.0 0
214000.0 581882.0 0
218000.0 581882.0 0
222000.0 581882.0 0
226000.0 581882.0 0
230000.0 581882.0 0
234000.0 581882.0 0
238000.0 581882.0 0
242000.0 581882.0 0
246000.0 581882.0 0
250000.0 581882.0 0
254000.0 581882.0 0
258000.0 581882.0 0
262000.0 581882.0 0
266000.0 581882.0 0
270000.0 581882.0 0
274000.0 581882.0 0
278000.0 581882.0 0
282000.0 581882.0 0
286000.0 581882.0 0
290000.0 581882.0 0
294000.0 581882.0 0
298000.0 581882.0 0
302000.0 581882.0 0
306000.0 581882.0 0
310000.0 581882.0 0
314000.0 581882.0 0
318000.0 581882.0 0
322000.0 581882.0 0
326000.0 581882.0 0
330000.0 581882.0 0
334000.0 581882.0 0
338000.0 581882.0 0
342000.0 581882.0 0
346000.0 581882.0 0
350000.0 581882.0 0
354000.0 581882.0 0
358000.0 581882.0 0
362000.0 581882.0 0
366000.0 581882.0 0
370000.0 581882.0 0
374000.0 581882.0 0
378000.0 581882.0 0
382000.0 581882.0 0
386000.0 581885.0 0
390000.0 581888.0 0
394000.0 581896.0 0
398000.0 581899.0 0
102000.0 585897.0 0
106000.0 585894.0 0
110000.0 585887.0 0
114000.0 585884.0 0
118000.0 585882.0 0
122000.0 585882.0 0
126000.0 585882.0 0
130000.0 585882.0 0
134000.0 585882.0 0
138000.0 585882.0 0
142000.0 585882.0 0
146000.0 585882.0 0
150000.0 585882.0 0
154000.0 585882.0 0
158000.0 585882.0 0
162000.0 585882.0 0
166000.0 585882.0 0
170000.0 585882.0 0
174000.0 585882.0 0
178000.0 585882.0 0
182000.0 585882.0 0
186000.0 585882.0 0
190000.0 585882.0 0
194000.0 585882.0 0
198000.0 585882.0 0
202000.0 585882.0 0
206000.0 585882.0 0
210000.0 585882.0 0
214000.0 585882.0 0
218000.0 585882.0 0
222000.0 585882.0 0
226000.0 585882.0 0
230000.0 585882.0 0
234000.0 585882.0 0
238000.0 585882.0 0
242000.0 585882.0 0
246000.0 585882.0 0
250000.0 585882.0 0
254000.0 585882.0 0
258000.0 585882.0 0
262000.0 585882.0 0
266000.0 585882.0 0
270000.0 585882.0 0
274000.0 585882.0 0
278000.0 585882.0 0
282000.0 585882.0 0
286000.0 585882.0 0
290000.0 585882.0 0
294000.0 585882.0 0
298000.0 585882.0 0
302000.0 585882.0 0
306000.0 585882.0 0
310000.0 585882.0 0
314000.0 585882.0 0
318000.0 585882.0 0
322000.0 585882.0 0
326000.0 585882.0 0
330000.0 585882.0 0
334000.0 585882.0 0
338000.0 585882.0 0
342000.0 585882.0 0
346000.0 585882.0 0
350000.0 585882.0 0
354000.0 585882.0 0
358000.0 585882.0 0
362000.0 585882.0 0
366000.0 585882.0 0
370000.0 585882.0 0
374000.0 585882.0 0
378000.0 585882.0 0
382000.0 585882.0 0
386000.0 585884.0 0
390000.0 585887.0 0
394000.0 585894.0 0
398000.0 585897.0 0
102000.0 589894.0 0
106000.0 589892.0 0
110000.0 589886.0 0
114000.0 589883.0 0
118000.0 589882.0 0
122000.0 589882.0 0
126000.0 589882.0 0
130000.0 589882.0 0
134000.0 589882.0 0
138000.0 589882.0 0
142000.0 589882.0 0
146000.0 589882.0 0
150000.0 589882.0 0
154000.0 589882.0 0
158000.0 589882.0 0
162000.0 589882.0 0
166000.0 589882.0 0
170000.0 589882.0 0
174000.0 589882.0 0
178000.0 589882.0 0
182000.0 589882.0 0
186000.0 589882.0 0
190000.0 589882.0 0
194000.0 589882.0 0
198000.0 589882.0 0
202000.0 589882.0 0
206000.0 589882.0 0
210000.0 589882.0 0
214000.0 589882.0 0
218000.0 589882.0 0
222000.0 589882.0 0
226000.0 589882.0 0
230000.0 589882.0 0
234000.0 589882.0 0
238000.0 589882.0 0
242000.0 589882.0 0
246000.0 589882.0 0
250000.0 589882.0 0
254000.0 589882.0 0
258000.0 589882.0 0
262000.0 589882.0 0
266000.0 589882.0 0
270000.0 589882.0 0
274000.0 589882.0 0
278000.0 589882.0 0
282000.0 589882.0 0
286000.0 589882.0 0
290000.0 589882.0 0
294000.0 589882.0 0
298000.0 589882.0 0
302000.0 589882.0 0
306000.0 589882.0 0
310000.0 589882.0 0
314000.0 589882.0 0
318000.0 589882.0 0
322000.0 589882.0 0
326000.0 589882.0 0
330000.0 589882.0 0
334000.0 589882.0 0
338000.0 589882.0 0
342000.0 589882.0 0
346000.0 589882.0 0
350000.0 589882.0 0
354000.0 589882.0 0
358000.0 589882.0 0
362000.0 589882.0 0
366000.0 589882.0 0
370000.0 589882.0 0
374000.0 589882.0 0
378000.0 589882.0 0
382000.0 589882.0 0
386000.0 589883.0 0
390000.0 589886.0 0
394000.0 589892.0 0
398000.0 589894.0 0
102000.0 593893.0 0
106000.0 593891.0 0
110000.0 593885.0 0
114000.0 593883.0 0
118000.0 593882.0 0
122000.0 593882.0 0
126000.0 593882.0 0
130000.0 593882.0 0
134000.0 593882.0 0
138000.0 593882.0 0
142000.0 593882.0 0
146000.0 593882.0 0
150000.0 593882.0 0
154000.0 593882.0 0
158000.0 593882.0 0
162000.0 593882.0 0
166000.0 593882.0 0
170000.0 593882.0 0
174000.0 593882.0 0
178000.0 593882.0 0
182000.0 593882.0 0
186000.0 593882.0 0
190000.0 593882.0 0
194000.0 593882.0 0
198000.0 593882.0 0
202000.0 593882.0 0
206000.0 593882.0 0
210000.0 593882.0 0
214000.0 593882.0 0
218000.0 593882.0 0
222000.0 593882.0 0
226000.0 593882.0 0
230000.0 593882.0 0
234000.0 593882.0 0
238000.0 593882.0 0
242000.0 593882.0 0
246000.0 593882.0 0
250000.0 593882.0 0
254000.0 593882.0 0
258000.0 593882.0 0
262000.0 593882.0 0
266000.0 593882.0 0
270000.0 593882.0 0
274000.0 593882.0 0
278000.0 593882.0 0
282000.0 593882.0 0
286000.0 593882.0 0
290000.0 593882.0 0
294000.0 593882.0 0
298000.0 593882.0 0
302000.0 593882.0 0
306000.0 593882.0 0
310000.0 593882.0 0
314000.0 593882.0 0
318000.0 593882.0 0
322000.0 593882.0 0
326000.0 593882.0 0
330000.0 593882.0 0
334000.0 593882.0 0
338000.0 593882.0 0
342000.0 593882.0 0
346000.0 593882.0 0
350000.0 593882.0 0
354000.0 593882.0 0
358000.0 593882.0 0
362000.0 593882.0 0
366000.0 593882.0 0
370000.0 593882.0 0
374000.0 593882.0 0
378000.0 593882.0 0
382000.0 593882.0 0
386000.0 593883.0 0
390000.0 593885.0 0
394000.0 593891.0 0
398000.0 593893.0 0
102000.0 597891.0 0
106000.0 597889.0 0
110000.0 597884.0 0
114000.0 597883.0 0
118000.0 597882.0 0
122000.0 597882.0 0
126000.0 597882.0 0
130000.0 597882.0 0
134000.0 597882.0 0
138000.0 597882.0 0
142000.0 597882.0 0
146000.0 597882.0 0
150000.0 597882.0 0
154000.0 597882.0 0
158000.0 597882.0 0
162000.0 597882.0 0
166000.0 597882.0 0
170000.0 597882.0 0
174000.0 597882.0 0
178000.0 597882.0 0
182000.0 597882.0 0
186000.0 597882.0 0
190000.0 597882.0 0
194000.0 597882.0 0
198000.0 597882.0 0
202000.0 597882.0 0
206000.0 597882.0 0
210000.0 597882.0 0
214000.0 597882.0 0
218000.0 597882.0 0
222000.0 597882.0 0
226000.0 597882.0 0
230000.0 597882.0 0
234000.0 597882.0 0
238000.0 597882.0 0
242000.0 597882.0 0
246000.0 597882.0 0
250000.0 597882.0 0
254000.0 597882.0 0
258000.0 597882.0 0
262000.0 597882.0 0
266000.0 597882.0 0
270000.0 597882.0 0
274000.0 597882.0 0
278000.0 597882.0 0
282000.0 597882.0 0
286000.0 597882.0 0
290000.0 597882.0 0
294000.0 597882.0 0
298000.0 597882.0 0
302000.0 597882.0 0
306000.0 597882.0 0
310000.0 597882.0 0
314000.0 597882.0 0
318000.0 597882.0 0
322000.0 597882.0 0
326000.0 597882.0 0
330000.0 597882.0 0
334000.0 597882.0 0
338000.0 597882.0 0
342000.0 597882.0 0
346000.0 597882.0 0
350000.0 597882.0 0
354000.0 597882.0 0
358000.0 597882.0 0
362000.0 597882.0 0
366000.0 597882.0 0
370000.0 597882.0 0
374000.0 597882.0 0
378000.0 597882.0 0
382000.0 597882.0 0
386000.0 597883.0 0
390000.0 597884.0 0
394000.0 597889.0 0
398000.0 597891.0 0
102000.0 601890.0 0
106000.0 601888.0 0
110000.0 601884.0 0
114000.0 601882.0 0
118000.0 601882.0 0
122000.0 601882.0 0
126000.0 601882.0 0
130000.0 601882.0 0
134000.0 601882.0 0
138000.0 601882.0 0
142000.0 601882.0 0
146000.0 601882.0 0
150000.0 601882.0 0
154000.0 601882.0 0
158000.0 601882.0 0
162000.0 601882.0 0
166000.0 601882.0 0
170000.0 601882.0 0
174000.0 601882.0 0
178000.0 601882.0 0
182000.0 601882.0 0
186000.0 601882.0 0
190000.0 601882.0 0
194000.0 601882.0 0
198000.0 601882.0 0
202000.0 601882.0 0
206000.0 601882.0 0
210000.0 601882.0 0
214000.0 601882.0 0
218000.0 601882.0 0
222000.0 601882.0 0
226000.0 601882.0 0
230000.0 601882.0 0
234000.0 601882.0 0
238000.0 601882.0 0
242000.0 601882.0 0
246000.0 601882.0 0
250000.0 601882.0 0
254000.0 601882.0 0
258000.0 601882.0 0
262000.0 601882.0 0
266000.0 601882.0 0
270000.0 601882.0 0
274000.0 601882.0 0
278000.0 601882.0 0
282000.0 601882.0 0
286000.0 601882.0 0
290000.0 601882.0 0
294000.0 601882.0 0
298000.0 601882.0 0
302000.0 601882.0 0
306000.0 601882.0 0
310000.0 601882.0 0
314000.0 601882.0 0
318000.0 601882.0 0
322000.0 601882.0 0
326000.0 601882.0 0
330000.0 601882.0 0
334000.0 601882.0 0
338000.0 601882.0 0
342000.0 601882.0 0
346000.0 601882.0 0
350000.0 601882.0 0
354000.0 601882.0 0
358000.0 601882.0 0
362000.0 601882.0 0
366000.0 601882.0 0
370000.0 601882.0 0
374000.0 601882.0 0
378000.0 601882.0 0
382000.0 601882.0 0
386000.0 601882.0 0
390000.0 601884.0 0
394000.0 601888.0 0
398000.0 601890.0 0
102000.0 605888.0 0
106000.0 605887.0 0
110000.0 605883.0 0
114000.0 605882.0 0
118000.0 605882.0 0
122000.0 605882.0 0
126000.0 605882.0 0
130000.0 605882.0 0
134000.0 605882.0 0
138000.0 605882.0 0
142000.0 605882.0 0
146000.0 605882.0 0
150000.0 605882.0 0
154000.0 605882.0 0
158000.0 605882.0 0
162000.0 605882.0 0
166000.0 605882.0 0
170000.0 605882.0 0
174000.0 605882.0 0
178000.0 605882.0 0
182000.0 605882.0 0
186000.0 605882.0 0
190000.0 605882.0 0
194000.0 605882.0 0
198000.0 605882.0 0
202000.0 605882.0 0
206000.0 605882.0 0
210000.0 605882.0 0
214000.0 605882.0 0
218000.0 605882.0 0
222000.0 605882.0 0
226000.0 605882.0 0
230000.0 605882.0 0
234000.0 605882.0 0
238000.0 605882.0 0
242000.0 605882.0 0
246000.0 605882.0 0
250000.0 605882.0 0
254000.0 605882.0 0
258000.0 605882.0 0
262000.0 605882.0 0
266000.0 605882.0 0
270000.0 605882.0 0
274000.0 605882.0 0
278000.0 605882.0 0
282000.0 605882.0 0
286000.0 605882.0 0
290000.0 605882.0 0
294000.0 605882.0 0
298000.0 605882.0 0
302000.0 605882.0 0
306000.0 605882.0 0
310000.0 605882.0 0
314000.0 605882.0 0
318000.0 605882.0 0
322000.0 605882.0 0
326000.0 605882.0 0
330000.0 605882.0 0
334000.0 605882.0 0
338000.0 605882.0 0
342000.0 605882.0 0
346000.0 605882.0 0
350000.0 605882.0 0
354000.0 605882.0 0
358000.0 605882.0 0
362000.0 605882.0 0
366000.0 605882.0 0
370000.0 605882.0 0
374000.0 605882.0 0
378000.0 605882.0 0
382000.0 605882.0 0
386000.0 605882.0 0
390000.0 605883.0 0
394000.0 605887.0 0
398000.0 605888.0 0
102000.0 609887.0 0
106000.0 609886.0 0
110000.0 609883.0 0
114000.0 609882.0 0
118000.0 609882.0 0
122000.0 609882.0 0
126000.0 609882.0 0
130000.0 609882.0 0
134000.0 609882.0 0
138000.0 609882.0 0
142000.0 609882.0 0
146000.0 609882.0 0
150000.0 609882.0 0
154000.0 609882.0 0
158000.0 609882.0 0
162000.0 609882.0 0
166000.0 609882.0 0
170000.0 609882.0 0
174000.0 609882.0 0
178000.0 609882.0 0
182000.0 609882.0 0
186000.0 609882.0 0
190000.0 609882.0 0
194000.0 609882.0 0
198000.0 609882.0 0
202000.0 609882.0 0
206000.0 609882.0 0
210000.0 609882.0 0
214000.0 609882.0 0
218000.0 609882.0 0
222000.0 609882.0 0
226000.0 609882.0 0
230000.0 609882.0 0
234000.0 609882.0 0
238000.0 609882.0 0
242000.0 609882.0 0
246000.0 609882.0 0
250000.0 609882.0 0
254000.0 609882.0 0
258000.0 609882.0 0
262000.0 609882.0 0
266000.0 609882.0 0
270000.0 609882.0 0
274000.0 609882.0 0
278000.0 609882.0 0
282000.0 609882.0 0
286000.0 609882.0 0
290000.0 609882.0 0
294000.0 609882.0 0
298000.0 609882.0 0
302000.0 609882.0 0
306000.0 609882.0 0
310000.0 609882.0 0
314000.0 609882.0 0
318000.0 609882.0 0
322000.0 609882.0 0
326000.0 609882.0 0
330000.0 609882.0 0
334000.0 609882.0 0
338000.0 609882.0 0
342000.0 609882.0 0
346000.0 609882.0 0
350000.0 609882.0 0
354000.0 609882.0 0
358000.0 609882.0 0
362000.0 609882.0 0
366000.0 609882.0 0
370000.0 609882.0 0
374000.0 609882.0 0
378000.0 609882.0 0
382000.0 609882.0 0
386000.0 609882.0 0
390000.0 609883.0 0
394000.0 609886.0 0
398000.0 609887.0 0
102000.0 613886.0 0
106000.0 613885.0 0
110000.0 613883.0 0
114000.0 613882.0 0
118000.0 613882.0 0
122000.0 613882.0 0
126000.0 613882.0 0
130000.0 613882.0 0
134000.0 613882.0 0
138000.0 613882.0 0
142000.0 613882.0 0
146000.0 613882.0 0
150000.0 613882.0 0
154000.0 613882.0 0
158000.0 613882.0 0
162000.0 613882.0 0
166000.0 613882.0 0
170000.0 613882.0 0
174000.0 613882.0 0
178000.0 613882.0 0
182000.0 613882.0 0
186000.0 613882.0 0
190000.0 613882.0 0
194000.0 613882.0 0
198000.0 613882.0 0
202000.0 613882.0 0
206000.0 613882.0 0
210000.0 613882.0 0
214000.0 613882.0 0
218000.0 613882.0 0
222000.0 613882.0 0
226000.0 613882.0 0
230000.0 613882.0 0
234000.0 613882.0 0
238000.0 613882.0 0
242000.0 613882.0 0
246000.0 613882.0 0
250000.0 613882.0 0
254000.0 613882.0 0
258000.0 613882.0 0
262000.0 613882.0 0
266000.0 613882.0 0
270000.0 613882.0 0
274000.0 613882.0 0
278000.0 613882.0 0
282000.0 613882.0 0
286000.0 613882.0 0
290000.0 613882.0 0
294000.0 613882.0 0
298000.0 613882.0 0
302000.0 613882.0 0
306000.0 613882.0 0
310000.0 613882.0 0
314000.0 613882.0 0
318000.0 613882.0 0
322000.0 613882.0 0
326000.0 613882.0 0
330000.0 613882.0 0
334000.0 613882.0 0
338000.0 613882.0 0
342000.0 613882.0 0
346000.0 613882.0 0
350000.0 613882.0 0
354000.0 613882.0 0
358000.0 613882.0 0
362000.0 613882.0 0
366000.0 613882.0 0
370000.0 613882.0 0
374000.0 613882.0 0
378000.0 613882.0 0
382000.0 613882.0 0
386000.0 613882.0 0
390000.0 613883.0 0
394000.0 613885.0 0
398000.0 613886.0 0
102000.0 617886.0 0
106000.0 617885.0 0
110000.0 617882.0 0
114000.0 617882.0 0
118000.0 617882.0 0
122000.0 617882.0 0
126000.0 617882.0 0
130000.0 617882.0 0
134000.0 617882.0 0
138000.0 617882.0 0
142000.0 617882.0 0
146000.0 617882.0 0
150000.0 617882.0 0
154000.0 617882.0 0
158000.0 617882.0 0
162000.0 617882.0 0
166000.0 617882.0 0
170000.0 617882.0 0
174000.0 617882.0 0
178000.0 617882.0 0
182000.0 617882.0 0
186000.0 617882.0 0
190000.0 617882.0 0
194000.0 617882.0 0
198000.0 617882.0 0
202000.0 617882.0 0
206000.0 617882.0 0
210000.0 617882.0 0
214000.0 617882.0 0
218000.0 617882.0 0
222000.0 617882.0 0
226000.0 617882.0 0
230000.0 617882.0 0
234000.0 617882.0 0
238000.0 617882.0 0
242000.0 617882.0 0
246000.0 617882.0 0
250000.0 617882.0 0
254000.0 617882.0 0
258000.0 617882.0 0
262000.0 617882.0 0
266000.0 617882.0 0
270000.0 617882.0 0
274000.0 617882.0 0
278000.0 617882.0 0
282000.0 617882.0 0
286000.0 617882.0 0
290000.0 617882.0 0
294000.0 617882.0 0
298000.0 617882.0 0
302000.0 617882.0 0
306000.0 617882.0 0
310000.0 617882.0 0
314000.0 617882.0 0
318000.0 617882.0 0
322000.0 617882.0 0
326000.0 617882.0 0
330000.0 617882.0 0
334000.0 617882.0 0
338000.0 617882.0 0
342000.0 617882.0 0
346000.0 617882.0 0
350000.0 617882.0 0
354000.0 617882.0 0
358000.0 617882.0 0
362000.0 617882.0 0
366000.0 617882.0 0
370000.0 617882.0 0
374000.0 617882.0 0
378000.0 617882.0 0
382000.0 617882.0 0
386000.0 617882.0 0
390000.0 617882.0 0
394000.0 617885.0 0
398000.0 617886.0 0
102000.0 621885.0 0
106000.0 621884.0 0
110000.0 621882.0 0
114000.0 621882.0 0
118000.0 621882.0 0
122000.0 621882.0 0
126000.0 621882.0 0
130000.0 621882.0 0
134000.0 621882.0 0
138000.0 621882.0 0
142000.0 621882.0 0
146000.0 621882.0 0
150000.0 621882.0 0
154000.0 621882.0 0
158000.0 621882.0 0
162000.0 621882.0 0
166000.0 621882.0 0
170000.0 621882.0 0
174000.0 621882.0 0
178000.0 621882.0 0
182000.0 621882.0 0
186000.0 621882.0 0
190000.0 621882.0 0
194000.0 621882.0 0
198000.0 621882.0 0
202000.0 621882.0 0
206000.0 621882.0 0
210000.0 621882.0 0
214000.0 621882.0 0
218000.0 621882.0 0
222000.0 621882.0 0
226000.0 621882.0 0
230000.0 621882.0 0
234000.0 621882.0 0
238000.0 621882.0 0
242000.0 621882.0 0
246000.0 621882.0 0
250000.0 621882.0 0
254000.0 621882.0 0
258000.0 621882.0 0
262000.0 621882.0 0
266000.0 621882.0 0
270000.0 621882.0 0
274000.0 621882.0 0
278000.0 621882.0 0
282000.0 621882.0 0
286000.0 621882.0 0
290000.0 621882.0 0
294000.0 621882.0 0
298000.0 621882.0 0
302000.0 621882.0 0
306000.0 621882.0 0
310000.0 621882.0 0
314000.0 621882.0 0
318000.0 621882.0 0
322000.0 621882.0 0
326000.0 621882.0 0
330000.0 621882.0 0
334000.0 621882.0 0
338000.0 621882.0 0
342000.0 621882.0 0
346000.0 621882.0 0
350000.0 621882.0 0
354000.0 621882.0 0
358000.0 621882.0 0
362000.0 621882.0 0
366000.0 621882.0 0
370000.0 621882.0 0
374000.0 621882.0 0
378000.0 621882.0 0
382000.0 621882.0 0
386000.0 621882.0 0
390000.0 621882.0 0
394000.0 621884.0 0
398000.0 621885.0 0
102000.0 625884.0 0
106000.0 625884.0 0
110000.0 625882.0 0
114000.0 625882.0 0
118000.0 625882.0 0
122000.0 625882.0 0
126000.0 625882.0 0
130000.0 625882.0 0
134000.0 625882.0 0
138000.0 625882.0 0
142000.0 625882.0 0
146000.0 625882.0 0
150000.0 625882.0 0
154000.0 625882.0 0
158000.0 625882.0 0
162000.0 625882.0 0
166000.0 625882.0 0
170000.0 625882.0 0
174000.0 625882.0 0
178000.0 625882.0 0
182000.0 625882.0 0
186000.0 625882.0 0
190000.0 625882.0 0
194000.0 625882.0 0
198000.0 625882.0 0
202000.0 625882.0 0
206000.0 625882.0 0
210000.0 625882.0 0
214000.0 625882.0 0
218000.0 625882.0 0
222000.0 625882.0 0
226000.0 625882.0 0
230000.0 625882.0 0
234000.0 625882.0 0
238000.0 625882.0 0
242000.0 625882.0 0
246000.0 625882.0 0
250000.0 625882.0 0
254000.0 625882.0 0
258000.0 625882.0 0
262000.0 625882.0 0
266000.0 625882.0 0
270000.0 625882.0 0
274000.0 625882.0 0
278000.0 625882.0 0
282000.0 625882.0 0
286000.0 625882.0 0
290000.0 625882.0 0
294000.0 625882.0 0
298000.0 625882.0 0
302000.0 625882.0 0
306000.0 625882.0 0
310000.0 625882.0 0
314000.0 625882.0 0
318000.0 625882.0 0
322000.0 625882.0 0
326000.0 625882.0 0
330000.0 625882.0 0
334000.0 625882.0 0
338000.0 625882.0 0
342000.0 625882.0 0
346000.0 625882.0 0
350000.0 625882.0 0
354000.0 625882.0 0
358000.0 625882.0 0
362000.0 625882.0 0
366000.0 625882.0 0
370000.0 625882.0 0
374000.0 625882.0 0
378000.0 625882.0 0
382000.0 625882.0 0
386000.0 625882.0 0
390000.0 625882.0 0
394000.0 625884.0 0
398000.0 625884.0 0
102000.0 629884.0 0
106000.0 629883.0 0
110000.0 629882.0 0
114000.0 629882.0 0
118000.0 629882.0 0
122000.0 629882.0 0
126000.0 629882.0 0
130000.0 629882.0 0
134000.0 629882.0 0
138000.0 629882.0 0
142000.0 629882.0 0
146000.0 629882.0 0
150000.0 629882.0 0
154000.0 629882.0 0
158000.0 629882.0 0
162000.0 629882.0 0
166000.0 629882.0 0
170000.0 629882.0 0
174000.0 629882.0 0
178000.0 629882.0 0
182000.0 629882.0 0
186000.0 629882.0 0
190000.0 629882.0 0
194000.0 629882.0 0
198000.0 629882.0 0
202000.0 629882.0 0
206000.0 629882.0 0
210000.0 629882.0 0
214000.0 629882.0 0
218000.0 629882.0 0
222000.0 629882.0 0
226000.0 629882.0 0
230000.0 629882.0 0
234000.0 629882.0 0
238000.0 629882.0 0
242000.0 629882.0 0
246000.0 629882.0 0
250000.0 629882.0 0
254000.0 629882.0 0
258000.0 629882.0 0
262000.0 629882.0 0
266000.0 629882.0 0
270000.0 629882.0 0
274000.0 629882.0 0
278000.0 629882.0 0
282000.0 629882.0 0
286000.0 629882.0 0
290000.0 629882.0 0
294000.0 629882.0 0
298000.0 629882.0 0
302000.0 629882.0 0
306000.0 629882.0 0
310000.0 629882.0 0
314000.0 629882.0 0
318000.0 629882.0 0
322000.0 629882.0 0
326000.0 629882.0 0
330000.0 629882.0 0
334000.0 629882.0 0
338000.0 629882.0 0
342000.0 629882.0 0
346000.0 629882.0 0
350000.0 629882.0 0
354000.0 629882.0 0
358000.0 629882.0 0
362000.0 629882.0 0
366000.0 629882.0 0
370000.0 629882.0 0
374000.0 629882.0 0
378000.0 629882.0 0
382000.0 629882.0 0
386000.0 629882.0 0
390000.0 629882.0 0
394000.0 629883.0 0
398000.0 629884.0 0
102000.0 633884.0 0
106000.0 633883.0 0
110000.0 633882.0 0
114000.0 633882.0 0
118000.0 633882.0 0
122000.0 633882.0 0
126000.0 633882.0 0
130000.0 633882.0 0
134000.0 633882.0 0
138000.0 633882.0 0
142000.0 633882.0 0
146000.0 633882.0 0
150000.0 633882.0 0
154000.0 633882.0 0
158000.0 633882.0 0
162000.0 633882.0 0
166000.0 633882.0 0
170000.0 633882.0 0
174000.0 633882.0 0
178000.0 633882.0 0
182000.0 633882.0 0
186000.0 633882.0 0
190000.0 633882.0 0
194000.0 633882.0 0
198000.0 633882.0 0
202000.0 633882.0 0
206000.0 633882.0 0
210000.0 633882.0 0
214000.0 633882.0 0
218000.0 633882.0 0
222000.0 633882.0 0
226000.0 633882.0 0
230000.0 633882.0 0
234000.0 633882.0 0
238000.0 633882.0 0
242000.0 633882.0 0
246000.0 633882.0 0
250000.0 633882.0 0
254000.0 633882.0 0
258000.0 633882.0 0
262000.0 633882.0 0
266000.0 633882.0 0
270000.0 633882.0 0
274000.0 633882.0 0
278000.0 633882.0 0
282000.0 633882.0 0
286000.0 633882.0 0
290000.0 633882.0 0
294000.0 633882.0 0
298000.0 633882.0 0
302000.0 633882.0 0
306000.0 633882.0 0
310000.0 633882.0 0
314000.0 633882.0 0
318000.0 633882.0 0
322000.0 633882.0 0
326000.0 633882.0 0
330000.0 633882.0 0
334000.0 633882.0 0
338000.0 633882.0 0
342000.0 633882.0 0
346000.0 633882.0 0
350000.0 633882.0 0
354000.0 633882.0 0
358000.0 633882.0 0
362000.0 633882.0 0
366000.0 633882.0 0
370000.0 633882.0 0
374000.0 633882.0 0
378000.0 633882.0 0
382000.0 633882.0 0
386000.0 633882.0 0
390000.0 633882.0 0
394000.0 633883.0 0
398000.0 633884.0 0
102000.0 637883.0 0
106000.0 637883.0 0
110000.0 637882.0 0
114000.0 637882.0 0
118000.0 637882.0 0
122000.0 637882.0 0
126000.0 637882.0 0
130000.0 637882.0 0
134000.0 637882.0 0
138000.0 637882.0 0
142000.0 637882.0 0
146000.0 637882.0 0
150000.0 637882.0 0
154000.0 637882.0 0
158000.0 637882.0 0
162000.0 637882.0 0
166000.0 637882.0 0
170000.0 637882.0 0
174000.0 637882.0 0
178000.0 637882.0 0
182000.0 637882.0 0
186000.0 637882.0 0
190000.0 637882.0 0
194000.0 637882.0 0
198000.0 637882.0 0
202000.0 637882.0 0
206000.0 637882.0 0
210000.0 637882.0 0
214000.0 637882.0 0
218000.0 637882.0 0
222000.0 637882.0 0
226000.0 637882.0 0
230000.0 637882.0 0
234000.0 637882.0 0
238000.0 637882.0 0
242000.0 637882.0 0
246000.0 637882.0 0
250000.0 637882.0 0
254000.0 637882.0 0
258000.0 637882.0 0
262000.0 637882.0 0
266000.0 637882.0 0
270000.0 637882.0 0
274000.0 637882.0 0
278000.0 637882.0 0
282000.0 637882.0 0
286000.0 637882.0 0
290000.0 637882.0 0
294000.0 637882.0 0
298000.0 637882.0 0
302000.0 637882.0 0
306000.0 637882.0 0
310000.0 637882.0 0
314000.0 637882.0 0
318000.0 637882.0 0
322000.0 637882.0 0
326000.0 637882.0 0
330000.0 637882.0 0
334000.0 637882.0 0
338000.0 637882.0 0
342000.0 637882.0 0
346000.0 637882.0 0
350000.0 637882.0 0
354000.0 637882.0 0
358000.0 637882.0 0
362000.0 637882.0 0
366000.0 637882.0 0
370000.0 637882.0 0
374000.0 637882.0 0
378000.0 637882.0 0
382000.0 637882.0 0
386000.0 637882.0 0
390000.0 637882.0 0
394000.0 637883.0 0
398000.0 637883.0 0
102000.0 641883.0 0
106000.0 641882.0 0
110000.0 641882.0 0
114000.0 641882.0 0
118000.0 641882.0 0
122000.0 641882.0 0
126000.0 641882.0 0
130000.0 641882.0 0
134000.0 641882.0 0
138000.0 641882.0 0
142000.0 641882.0 0
146000.0 641882.0 0
150000.0 641882.0 0
154000.0 641882.0 0
158000.0 641882.0 0
162000.0 641882.0 0
166000.0 641882.0 0
170000.0 641882.0 0
174000.0 641882.0 0
178000.0 641882.0 0
182000.0 641882.0 0
186000.0 641882.0 0
190000.0 641882.0 0
194000.0 641882.0 0
198000.0 641882.0 0
202000.0 641882.0 0
206000.0 641882.0 0
210000.0 641882.0 0
214000.0 641882.0 0
218000.0 641882.0 0
222000.0 641882.0 0
226000.0 641882.0 0
230000.0 641882.0 0
234000.0 641882.0 0
238000.0 641882.0 0
242000.0 641882.0 0
246000.0 641882.0 0
250000.0 641882.0 0
254000.0 641882.0 0
258000.0 641882.0 0
262000.0 641882.0 0
266000.0 641882.0 0
270000.0 641882.0 0
274000.0 641882.0 0
278000.0 641882.0 0
282000.0 641882.0 0
286000.0 641882.0 0
290000.0 641882.0 0
294000.0 641882.0 0
298000.0 641882.0 0
302000.0 641882.0 0
306000.0 641882.0 0
310000.0 641882.0 0
314000.0 641882.0 0
318000.0 641882.0 0
322000.0 641882.0 0
326000.0 641882.0 0
330000.0 641882.0 0
334000.0 641882.0 0
338000.0 641882.0 0
342000.0 641882.0 0
346000.0 641882.0 0
350000.0 641882.0 0
354000.0 641882.0 0
358000.0 641882.0 0
362000.0 641882.0 0
366000.0 641882.0 0
370000.0 641882.0 0
374000.0 641882.0 0
378000.0 641882.0 0
382000.0 641882.0 0
386000.0 641882.0 0
390000.0 641882.0 0
394000.0 641882.0 0
398000.0 641883.0 0
102000.0 645883.0 0
106000.0 645882.0 0
110000.0 645882.0 0
114000.0 645882.0 0
118000.0 645882.0 0
122000.0 645882.0 0
126000.0 645882.0 0
130000.0 645882.0 0
134000.0 645882.0 0
138000.0 645882.0 0
142000.0 645882.0 0
146000.0 645882.0 0
150000.0 645882.0 0
154000.0 645882.0 0
158000.0 645882.0 0
162000.0 645882.0 0
166000.0 645882.0 0
170000.0 645882.0 0
174000.0 645882.0 0
178000.0 645882.0 0
182000.0 645882.0 0
186000.0 645882.0 0
190000.0 645882.0 0
194000.0 645882.0 0
198000.0 645882.0 0
202000.0 645882.0 0
206000.0 645882.0 0
210000.0 645882.0 0
214000.0 645882.0 0
218000.0 645882.0 0
222000.0 645882.0 0
226000.0 645882.0 0
230000.0 645882.0 0
234000.0 645882.0 0
238000.0 645882.0 0
242000.0 645882.0 0
246000.0 645882.0 0
250000.0 645882.0 0
254000.0 645882.0 0
258000.0 645882.0 0
262000.0 645882.0 0
266000.0 645882.0 0
270000.0 645882.0 0
274000.0 645882.0 0
278000.0 645882.0 0
282000.0 645882.0 0
286000.0 645882.0 0
290000.0 645882.0 0
294000.0 645882.0 0
298000.0 645882.0 0
302000.0 645882.0 0
306000.0 645882.0 0
310000.0 645882.0 0
314000.0 645882.0 0
318000.0 645882.0 0
322000.0 645882.0 0
326000.0 645882.0 0
330000.0 645882.0 0
334000.0 645882.0 0
338000.0 645882.0 0
342000.0 645882.0 0
346000.0 645882.0 0
350000.0 645882.0 0
354000.0 645882.0 0
358000.0 645882.0 0
362000.0 645882.0 0
366000.0 645882.0 0
370000.0 645882.0 0
374000.0 645882.0 0
378000.0 645882.0 0
382000.0 645882.0 0
386000.0 645882.0 0
390000.0 645882.0 0
394000.0 645882.0 0
398000.0 645883.0 0
102000.0 649883.0 0
106000.0 649882.0 0
110000.0 649882.0 0
114000.0 649882.0 0
118000.0 649882.0 0
122000.0 649882.0 0
126000.0 649882.0 0
130000.0 649882.0 0
134000.0 649882.0 0
138000.0 649882.0 0
142000.0 649882.0 0
146000.0 649882.0 0
150000.0 649882.0 0
154000.0 649882.0 0
158000.0 649882.0 0
162000.0 649882.0 0
166000.0 649882.0 0
170000.0 649882.0 0
174000.0 649882.0 0
178000.0 649882.0 0
182000.0 649882.0 0
186000.0 649882.0 0
190000.0 649882.0 0
194000.0 649882.0 0
198000.0 649882.0 0
202000.0 649882.0 0
206000.0 649882.0 0
210000.0 649882.0 0
214000.0 649882.0 0
218000.0 649882.0 0
222000.0 649882.0 0
226000.0 649882.0 0
230000.0 649882.0 0
234000.0 649882.0 0
238000.0 649882.0 0
242000.0 649882.0 0
246000.0 649882.0 0
250000.0 649882.0 0
254000.0 649882.0 0
258000.0 649882.0 0
262000.0 649882.0 0
266000.0 649882.0 0
270000.0 649882.0 0
274000.0 649882.0 0
278000.0 649882.0 0
282000.0 649882.0 0
286000.0 649882.0 0
290000.0 649882.0 0
294000.0 649882.0 0
298000.0 649882.0 0
302000.0 649882.0 0
306000.0 649882.0 0
310000.0 649882.0 0
314000.0 649882.0 0
318000.0 649882.0 0
322000.0 649882.0 0
326000.0 649882.0 0
330000.0 649882.0 0
334000.0 649882.0 0
338000.0 649882.0 0
342000.0 649882.0 0
346000.0 649882.0 0
350000.0 649882.0 0
354000.0 649882.0 0
358000.0 649882.0 0
362000.0 649882.0 0
366000.0 649882.0 0
370000.0 649882.0 0
374000.0 649882.0 0
378000.0 649882.0 0
382000.0 649882.0 0
386000.0 649882.0 0
390000.0 649882.0 0
394000.0 649882.0 0
398000.0 649883.0 0
102000.0 653882.0 0
106000.0 653882.0 0
110000.0 653882.0 0
114000.0 653882.0 0
118000.0 653882.0 0
122000.0 653882.0 0
126000.0 653882.0 0
130000.0 653882.0 0
134000.0 653882.0 0
138000.0 653882.0 0
142000.0 653882.0 0
146000.0 653882.0 0
150000.0 653882.0 0
154000.0 653882.0 0
158000.0 653882.0 0
162000.0 653882.0 0
166000.0 653882.0 0
170000.0 653882.0 0
174000.0 653882.0 0
178000.0 653882.0 0
182000.0 653882.0 0
186000.0 653882.0 0
190000.0 653882.0 0
194000.0 653882.0 0
198000.0 653882.0 0
202000.0 653882.0 0
206000.0 653882.0 0
210000.0 653882.0 0
214000.0 653882.0 0
218000.0 653882.0 0
222000.0 653882.0 0
226000.0 653882.0 0
230000.0 653882.0 0
234000.0 653882.0 0
238000.0 653882.0 0
242000.0 653882.0 0
246000.0 653882.0 0
250000.0 653882.0 0
254000.0 653882.0 0
258000.0 653882.0 0
262000.0 653882.0 0
266000.0 653882.0 0
270000.0 653882.0 0
274000.0 653882.0 0
278000.0 653882.0 0
282000.0 653882.0 0
286000.0 653882.0 0
290000.0 653882.0 0
294000.0 653882.0 0
298000.0 653882.0 0
302000.0 653882.0 0
306000.0 653882.0 0
310000.0 653882.0 0
314000.0 653882.0 0
318000.0 653882.0 0
322000.0 653882.0 0
326000.0 653882.0 0
330000.0 653882.0 0
334000.0 653882.0 0
338000.0 653882.0 0
342000.0 653882.0 0
346000.0 653882.0 0
350000.0 653882.0 0
354000.0 653882.0 0
358000.0 653882.0 0
362000.0 653882.0 0
366000.0 653882.0 0
370000.0 653882.0 0
374000.0 653882.0 0
378000.0 653882.0 0
382000.0 653882.0 0
386000.0 653882.0 0
390000.0 653882.0 0
394000.0 653882.0 0
398000.0 653882.0 0
102000.0 657882.0 0
106000.0 657882.0 0
110000.0 657882.0 0
114000.0 657882.0 0
118000.0 657882.0 0
122000.0 657882.0 0
126000.0 657882.0 0
130000.0 657882.0 0
134000.0 657882.0 0
138000.0 657882.0 0
142000.0 657882.0 0
146000.0 657882.0 0
150000.0 657882.0 0
154000.0 657882.0 0
158000.0 657882.0 0
162000.0 657882.0 0
166000.0 657882.0 0
170000.0 657882.0 0
174000.0 657882.0 0
178000.0 657882.0 0
182000.0 657882.0 0
186000.0 657882.0 0
190000.0 657882.0 0
194000.0 657882.0 0
198000.0 657882.0 0
202000.0 657882.0 0
206000.0 657882.0 0
210000.0 657882.0 0
214000.0 657882.0 0
218000.0 657882.0 0
222000.0 657882.0 0
226000.0 657882.0 0
230000.0 657882.0 0
234000.0 657882.0 0
238000.0 657882.0 0
242000.0 657882.0 0
246000.0 657882.0 0
250000.0 657882.0 0
254000.0 657882.0 0
258000.0 657882.0 0
262000.0 657882.0 0
266000.0 657882.0 0
270000.0 657882.0 0
274000.0 657882.0 0
278000.0 657882.0 0
282000.0 657882.0 0
286000.0 657882.0 0
290000.0 657882.0 0
294000.0 657882.0 0
298000.0 657882.0 0
302000.0 657882.0 0
306000.0 657882.0 0
310000.0 657882.0 0
314000.0 657882.0 0
318000.0 657882.0 0
322000.0 657882.0 0
326000.0 657882.0 0
330000.0 657882.0 0
334000.0 657882.0 0
338000.0 657882.0 0
342000.0 657882.0 0
346000.0 657882.0 0
350000.0 657882.0 0
354000.0 657882.0 0
358000.0 657882.0 0
362000.0 657882.0 0
366000.0 657882.0 0
370000.0 657882.0 0
374000.0 657882.0 0
378000.0 657882.0 0
382000.0 657882.0 0
386000.0 657882.0 0
390000.0 657882.0 0
394000.0 657882.0 0
398000.0 657882.0 0
102000.0 661882.0 0
106000.0 661882.0 0
110000.0 661882.0 0
114000.0 661882.0 0
118000.0 661882.0 0
122000.0 661882.0 0
126000.0 661882.0 0
130000.0 661882.0 0
134000.0 661882.0 0
138000.0 661882.0 0
142000.0 661882.0 0
146000.0 661882.0 0
150000.0 661882.0 0
154000.0 661882.0 0
158000.0 661882.0 0
162000.0 661882.0 0
166000.0 661882.0 0
170000.0 661882.0 0
174000.0 661882.0 0
178000.0 661882.0 0
182000.0 661882.0 0
186000.0 661882.0 0
190000.0 661882.0 0
194000.0 661882.0 0
198000.0 661882.0 0
202000.0 661882.0 0
206000.0 661882.0 0
210000.0 661882.0 0
214000.0 661882.0 0
218000.0 661882.0 0
222000.0 661882.0 0
226000.0 661882.0 0
230000.0 661882.0 0
234000.0 661882.0 0
238000.0 661882.0 0
242000.0 661882.0 0
246000.0 661882.0 0
250000.0 661882.0 0
254000.0 661882.0 0
258000.0 661882.0 0
262000.0 661882.0 0
266000.0 661882.0 0
270000.0 661882.0 0
274000.0 661882.0 0
278000.0 661882.0 0
282000.0 661882.0 0
286000.0 661882.0 0
290000.0 661882.0 0
294000.0 661882.0 0
298000.0 661882.0 0
302000.0 661882.0 0
306000.0 661882.0 0
310000.0 661882.0 0
314000.0 661882.0 0
318000.0 661882.0 0
322000.0 661882.0 0
326000.0 661882.0 0
330000.0 661882.0 0
334000.0 661882.0 0
338000.0 661882.0 0
342000.0 661882.0 0
346000.0 661882.0 0
350000.0 661882.0 0
354000.0 661882.0 0
358000.0 661882.0 0
362000.0 661882.0 0
366000.0 661882.0 0
370000.0 661882.0 0
374000.0 661882.0 0
378000.0 661882.0 0
382000.0 661882.0 0
386000.0 661882.0 0
390000.0 661882.0 0
394000.0 661882.0 0
398000.0 661882.0 0
102000.0 665882.0 0
106000.0 665882.0 0
110000.0 665882.0 0
114000.0 665882.0 0
118000.0 665882.0 0
122000.0 665882.0 0
126000.0 665882.0 0
130000.0 665882.0 0
134000.0 665882.0 0
138000.0 665882.0 0
142000.0 665882.0 0
146000.0 665882.0 0
150000.0 665882.0 0
154000.0 665882.0 0
158000.0 665882.0 0
162000.0 665882.0 0
166000.0 665882.0 0
170000.0 665882.0 0
174000.0 665882.0 0
178000.0 665882.0 0
182000.0 665882.0 0
186000.0 665882.0 0
190000.0 665882.0 0
194000.0 665882.0 0
198000.0 665882.0 0
202000.0 665882.0 0
206000.0 665882.0 0
210000.0 665882.0 0
214000.0 665882.0 0
218000.0 665882.0 0
222000.0 665882.0 0
226000.0 665882.0 0
230000.0 665882.0 0
234000.0 665882.0 0
238000.0 665882.0 0
242000.0 665882.0 0
246000.0 665882.0 0
250000.0 665882.0 0
254000.0 665882.0 0
258000.0 665882.0 0
262000.0 665882.0 0
266000.0 665882.0 0
270000.0 665882.0 0
274000.0 665882.0 0
278000.0 665882.0 0
282000.0 665882.0 0
286000.0 665882.0 0
290000.0 665882.0 0
294000.0 665882.0 0
298000.0 665882.0 0
302000.0 665882.0 0
306000.0 665882.0 0
310000.0 665882.0 0
314000.0 665882.0 0
318000.0 665882.0 0
322000.0 665882.0 0
326000.0 665882.0 0
330000.0 665882.0 0
334000.0 665882.0 0
338000.0 665882.0 0
342000.0 665882.0 0
346000.0 665882.0 0
350000.0 665882.0 0
354000.0 665882.0 0
358000.0 665882.0 0
362000.0 665882.0 0
366000.0 665882.0 0
370000.0 665882.0 0
374000.0 665882.0 0
378000.0 665882.0 0
382000.0 665882.0 0
386000.0 665882.0 0
390000.0 665882.0 0
394000.0 665882.0 0
398000.0 665882.0 0
POINT_DATA 4650
SCALARS Radius float 1
LOOKUP_TABLE default
4000.0 4000.0 4000.0 4000.0 4000.0 4000.0 4000.0 4000.0 4000.0 4000.0 4000.0 4000.0 4000.0 4000.0 4000.0 4000.0 4000.0 4000.0 4000.0 4000.0 4000.0 4000.0 4000.0 4000.0 4000.0 4000.0 4000.0 4000.0 4000.0 4000.0 4000.0 4000.0 4000.0 4000.0 4000.0 4000.0 4000.0 4000.0 4000.0 4000.0 4000.0 4000.0 4000.0 4000.0 4000.0 4000.0 4000.0 4000.0 4000.0 4000.0 4000.0 4000.0 4000.0 4000.0 4000.0 4000.0 4000.0 4000.0 4000.0 4000.0 4000.0 4000.0 4000.0 4000.0 4000.0 4000.0 4000.0 4000.0 4000.0 4000.0 4000.0 4000.0 4000.0 4000.0 4000.0 4000.0 4000.0 4000.0 4000.0 4000.0 4000.0 4000.0 4000.0 4000.0 4000.0 4000.0 4000.0 4000.0 4000.0 4000.0 4000.0 4000.0 4000.0 4000.0 4000.0 4000.0 4000.0 4000.0 4000.0 4000.0 4000.0 4000.0 4000.0 4000.0 4000.0 4000.0 4000.0 4000.0 4000.0 4000.0 4000.0 4000.0 4000.0 4000.0 4000.0 4000.0 4000.0 4000.0 4000.0 4000.0 4000.0 4000.0 4000.0 4000.0 4000.0 4000.0 4000.0 4000.0 4000.0 4000.0 4000.0 4000.0 4000.0 4000.0 4000.0 4000.0 4000.0 4000.0 4000.0 4000.0 4000.0 4000.0 4000.0 4000.0 4000.0 4000.0 4000.0 4000.0 4000.0 4000.0 4000.0 4000.0 4000.0 4000.0 4000.0 4000.0 4000.0 4000.0 4000.0 4000.0 4000.0 4000.0 4000.0 4000.0 4000.0 4000.0 4000.0 4000.0 4000.0 4000.0 4000.0 4000.0 4000.0 4000.0 4000.0 4000.0 4000.0 4000.0 4000.0 4000.0 4000.0 4000.0 4000.0 4000.0 4000.0 4000.0 4000.0 4000.0 4000.0 4000.0 4000.0 4000.0 4000.0 4000.0 4000.0 4000.0 4000.0 4000.0 4000.0 4000.0 4000.0 4000.0 4000.0 4000.0 4000.0 4000.0 4000.0 4000.0 4000.0 4000.0 4000.0 4000.0 4000.0 4000.0 4000.0 4000.0 4000.0 4000.0 4000.0 4000.0 4000.0 4000.0 4000.0 4000.0 4000.0 4000.0 4000.0 4000.0 4000.0 4000.0 4000.0 4000.0 4000.0 4000.0 4000.0 4000.0 4000.0 4000.0 4000.0 4000.0 4000.0 4000.0 4000.0 4000.0 4000.0 4000.0 4000.0 4000.0 4000.0 4000.0 4000.0 4000.0 4000.0 4000.0 4000.0 4000.0 4000.0 4000.0 4000.0 4000.0 4000.0 4000.0 4000.0 4000.0 4000.0 4000.0 4000.0 4000.0 4000.0 4000.0 4000.0 4000.0 4000.0 4000.0 4000.0 4000.0 4000.0 4000.0 4000.0 4000.0 4000.0 4000.0 4000.0 4000.0 4000.0 4000.0 4000.0 4000.0 4000.0 4000.0 4000.0 4000.0 4000.0 4000.0 4000.0 4000.0 4000.0 4000.0 4000.0 4000.0 4000.0 4000.0 4000.0 4000.0 4000.0 4000.0 4000.0 4000.0 4000.0 4000.0 4000.0 4000.0 4000.0 4000.0 4000.0 4000.0 4000.0 4000.0 4000.0 4000.0 4000.0 4000.0 4000.0 4000.0 4000.0 4000.0 4000.0 4000.0 4000.0 4000.0 4000.0 4000.0 4000.0 4000.0 4000.0 4000.0 4000.0 4000.0 4000.0 4000.0 4000.0 4000.0 4000.0 4000.0 4000.0 4000.0 4000.0 4000.0 4000.0 4000.0 4000.0 4000.0 4000.0 4000.0 4000.0 4000.0 4000.0 4000.0 4000.0 4000.0 4000.0 4000.0 4000.0 4000.0 4000.0 4000.0 4000.0 4000.0 4000.0 4000.0 4000.0 4000.0 4000.0 4000.0 4000.0 4000.0 4000.0 4000.0 4000.0 4000.0 4000.0 4000.0 4000.0 4000.0 4000.0 4000.0 4000.0 4000.0 4000.0 4000.0 4000.0 4000.0 4000.0 4000.0 4000.0 4000.0 4000.0 4000.0 4000.0 4000.0 4000.0 4000.0 4000.0 4000.0 4000.0 4000.0 4000.0 4000.0 4000.0 4000.0 4000.0 4000.0 4000.0 4000.0 4000.0 4000.0 4000.0 4000.0 4000.0 4000.0 4000.0 4000.0 4000.0 4000.0 4000.0 4000.0 4000.0 4000.0 4000.0 4000.0 4000.0 4000.0 4000.0 4000.0 4000.0 4000.0 4000.0 4000.0 4000.0 4000.0 4000.0 4000.0 4000.0 4000.0 4000.0 4000.0 4000.0 4000.0 4000.0 4000.0 4000.0 4000.0 4000.0 4000.0 4000.0 4000.0 4000.0 4000.0 4000.0 4000.0 4000.0 4000.0 4000.0 4000.0 4000.0 4000.0 4000.0 4000.0 4000.0 4000.0 4000.0 4000.0 4000.0 4000.0 4000.0 4000.0 4000.0 4000.0 4000.0 4000.0 4000.0 4000.0 4000.0 4000.0 4000.0 4000.0 4000.0 4000.0 4000.0 4000.0 4000.0 4000.0 4000.0 4000.0 4000.0 4000.0 4000.0 4000.0 4000.0 4000.0 4000.0 4000.0 4000.0 4000.0 4000.0 4000.0 4000.0 4000.0 4000.0 4000.0 4000.0 4000.0 4000.0 4000.0 4000.0 4000.0 4000.0 4000.0 4000.0 4000.0 4000.0 4000.0 4000.0 4000.0 4000.0 4000.0 4000.0 4000.0 4000.0 4000.0 4000.0 4000.0 4000.0 4000.0 4000.0 4000.0 4000.0 4000.0 4000.0 4000.0 4000.0 4000.0 4000.0 4000.0 4000.0 4000.0 4000.0 4000.0 4000.0 4000.0 4000.0 4000.0 4000.0 4000.0 4000.0 4000.0 4000.0 4000.0 4000.0 4000.0 4000.0 4000.0 4000.0 4000.0 4000.0 4000.0 4000.0 4000.0 4000.0 4000.0 4000.0 4000.0 4000.0 4000.0 4000.0 4000.0 4000.0 4000.0 4000.0 4000.0 4000.0 4000.0 4000.0 4000.0 4000.0 4000.0 4000.0 4000.0 4000.0 4000.0 4000.0 4000.0 4000.0 4000.0 4000.0 4000.0 4000.0 4000.0 4000.0 4000.0 4000.0 4000.0 4000.0 4000.0 4000.0 4000.0 4000.0 4000.0 4000.0 4000.0 4000.0 4000.0 4000.0 4000.0 4000.0 4000.0 4000.0 4000.0 4000.0 4000.0 4000.0 4000.0 4000.0 4000.0 4000.0 4000.0 4000.0 4000.0 4000.0 4000.0 4000.0 4000.0 4000.0 4000.0 4000.0 4000.0 4000.0 4000.0 4000.0 4000.0 4000.0 4000.0 4000.0 4000.0 4000.0 4000.0 4000.0 4000.0 4000.0 4000.0 4000.0 4000.0 4000.0 4000.0 4000.0 4000.0 4000.0 4000.0 4000.0 4000.0 4000.0 4000.0 4000.0 4000.0 4000.0 4000.0 4000.0 4000.0 4000.0 4000.0 4000.0 4000.0 4000.0 4000.0 4000.0 4000.0 4000.0 4000.0 4000.0 4000.0 4000.0 4000.0 4000.0 4000.0 4000.0 4000.0 4000.0 4000.0 4000.0 4000.0 4000.0 4000.0 4000.0 4000.0 4000.0 4000.0 4000.0 4000.0 4000.0 4000.0 4000.0 4000.0 4000.0 4000.0 4000.0 4000.0 4000.0 4000.0 4000.0 4000.0 4000.0 4000.0 4000.0 4000.0 4000.0 4000.0 4000.0 4000.0 4000.0 4000.0 4000.0 4000.0 4000.0 4000.0 4000.0 4000.0 4000.0 4000.0 4000.0 4000.0 4000.0 4000.0 4000.0 4000.0 4000.0 4000.0 4000.0 4000.0 4000.0 4000.0 4000.0 4000.0 4000.0 4000.0 4000.0 4000.0 4000.0 4000.0 4000.0 4000.0 4000.0 4000.0 4000.0 4000.0 4000.0 4000.0 4000.0 4000.0 4000.0 4000.0 4000.0 4000.0 4000.0 4000.0 4000.0 4000.0 4000.0 4000.0 4000.0 4000.0 4000.0 4000.0 4000.0 4000.0 4000.0 4000.0 4000.0 4000.0 4000.0 4000.0 4000.0 4000.0 4000.0 4000.0 4000.0 4000.0 4000.0 4000.0 4000.0 4000.0 4000.0 4000.0 4000.0 4000.0 4000.0 4000.0 4000.0 4000.0 4000.0 4000.0 4000.0 4000.0 4000.0 4000.0 4000.0 4000.0 4000.0 4000.0 4000.0 4000.0 4000.0 4000.0 4000.0 4000.0 4000.0 4000.0 4000.0 4000.0 4000.0 4000.0 4000.0 4000.0 4000.0 4000.0 4000.0 4000.0 4000.0 4000.0 4000.0 4000.0 4000.0 4000.0 4000.0 4000.0 4000.0 4000.0 4000.0 4000.0 4000.0 4000.0 4000.0 4000.0 4000.0 4000.0 4000.0 4000.0 4000.0 4000.0 4000.0 4000.0 4000.0 4000.0 4000.0 4000.0 4000.0 4000.0 4000.0 4000.0 4000.0 4000.0 4000.0 4000.0 4000.0 4000.0 4000.0 4000.0 4000.0 4000.0 4000.0 4000.0 4000.0 4000.0 4000.0 4000.0 4000.0 4000.0 4000.0 4000.0 4000.0 4000.0 4000.0 4000.0 4000.0 4000.0 4000.0 4000.0 4000.0 4000.0 4000.0 4000.0 4000.0 4000.0 4000.0 4000.0 4000.0 4000.0 4000.0 4000.0 4000.0 4000.0 4000.0 4000.0 4000.0 4000.0 4000.0 4000.0 4000.0 4000.0 4000.0 4000.0 4000.0 4000.0 4000.0 4000.0 4000.0 4000.0 4000.0 4000.0 4000.0 4000.0 4000.0 4000.0 4000.0 4000.0 4000.0 4000.0 4000.0 4000.0 4000.0 4000.0 4000.0 4000.0 4000.0 4000.0 4000.0 4000.0 4000.0 4000.0 4000.0 4000.0 4000.0 4000.0 4000.0 4000.0 4000.0 4000.0 4000.0 4000.0 4000.0 4000.0 4000.0 4000.0 4000.0 4000.0 4000.0 4000.0 4000.0 4000.0 4000.0 4000.0 4000.0 4000.0 4000.0 4000.0 4000.0 4000.0 4000.0 4000.0 4000.0 4000.0 4000.0 4000.0 4000.0 4000.0 4000.0 4000.0 4000.0 4000.0 4000.0 4000.0 4000.0 4000.0 4000.0 4000.0 4000.0 4000.0 4000.0 4000.0 4000.0 4000.0 4000.0 4000.0 4000.0 4000.0 4000.0 4000.0 4000.0 4000.0 4000.0 4000.0 4000.0 4000.0 4000.0 4000.0 4000.0 4000.0 4000.0 4000.0 4000.0 4000.0 4000.0 4000.0 4000.0 4000.0 4000.0 4000.0 4000.0 4000.0 4000.0 4000.0 4000.0 4000.0 4000.0 4000.0 4000.0 4000.0 4000.0 4000.0 4000.0 4000.0 4000.0 4000.0 4000.0 4000.0 4000.0 4000.0 4000.0 4000.0 4000.0 4000.0 4000.0 4000.0 4000.0 4000.0 4000.0 4000.0 4000.0 4000.0 4000.0 4000.0 4000.0 4000.0 4000.0 4000.0 4000.0 4000.0 4000.0 4000.0 4000.0 4000.0 4000.0 4000.0 4000.0 4000.0 4000.0 4000.0 4000.0 4000.0 4000.0 4000.0 4000.0 4000.0 4000.0 4000.0 4000.0 4000.0 4000.0 4000.0 4000.0 4000.0 4000.0 4000.0 4000.0 4000.0 4000.0 4000.0 4000.0 4000.0 4000.0 4000.0 4000.0 4000.0 4000.0 4000.0 4000.0 4000.0 4000.0 4000.0 4000.0 4000.0 4000.0 4000.0 4000.0 4000.0 4000.0 4000.0 4000.0 4000.0 4000.0 4000.0 4000.0 4000.0 4000.0 4000.0 4000.0 4000.0 4000.0 4000.0 4000.0 4000.0 4000.0 4000.0 4000.0 4000.0 4000.0 4000.0 4000.0 4000.0 4000.0 4000.0 4000.0 4000.0 4000.0 4000.0 4000.0 4000.0 4000.0 4000.0 4000.0 4000.0 4000.0 4000.0 4000.0 4000.0 4000.0 4000.0 4000.0 4000.0 4000.0 4000.0 4000.0 4000.0 4000.0 4000.0 4000.0 4000.0 4000.0 4000.0 4000.0 4000.0 4000.0 4000.0 4000.0 4000.0 4000.0 4000.0 4000.0 4000.0 4000.0 4000.0 4000.0 4000.0 4000.0 4000.0 4000.0 4000.0 4000.0 4000.0 4000.0 4000.0 4000.0 4000.0 4000.0 4000.0 4000.0 4000.0 4000.0 4000.0 4000.0 4000.0 4000.0 4000.0 4000.0 4000.0 4000.0 4000.0 4000.0 4000.0 4000.0 4000.0 4000.0 4000.0 4000.0 4000.0 4000.0 4000.0 4000.0 4000.0 4000.0 4000.0 4000.0 4000.0 4000.0 4000.0 4000.0 4000.0 4000.0 4000.0 4000.0 4000.0 4000.0 4000.0 4000.0 4000.0 4000.0 4000.0 4000.0 4000.0 4000.0 4000.0 4000.0 4000.0 4000.0 4000.0 4000.0 4000.0 4000.0 4000.0 4000.0 4000.0 4000.0 4000.0 4000.0 4000.0 4000.0 4000.0 4000.0 4000.0 4000.0 4000.0 4000.0 4000.0 4000.0 4000.0 4000.0 4000.0 4000.0 4000.0 4000.0 4000.0 4000.0 4000.0 4000.0 4000.0 4000.0 4000.0 4000.0 4000.0 4000.0 4000.0 4000.0 4000.0 4000.0 4000.0 4000.0 4000.0 4000.0 4000.0 4000.0 4000.0 4000.0 4000.0 4000.0 4000.0 4000.0 4000.0 4000.0 4000.0 4000.0 4000.0 4000.0 4000.0 4000.0 4000.0 4000.0 4000.0 4000.0 4000.0 4000.0 4000.0 4000.0 4000.0 4000.0 4000.0 4000.0 4000.0 4000.0 4000.0 4000.0 4000.0 4000.0 4000.0 4000.0 4000.0 4000.0 4000.0 4000.0 4000.0 4000.0 4000.0 4000.0 4000.0 4000.0 4000.0 4000.0 4000.0 4000.0 4000.0 4000.0 4000.0 4000.0 4000.0 4000.0 4000.0 4000.0 4000.0 4000.0 4000.0 4000.0 4000.0 4000.0 4000.0 4000.0 4000.0 4000.0 4000.0 4000.0 4000.0 4000.0 4000.0 4000.0 4000.0 4000.0 4000.0 4000.0 4000.0 4000.0 4000.0 4000.0 4000.0 4000.0 4000.0 4000.0 4000.0 4000.0 4000.0 4000.0 4000.0 4000.0 4000.0 4000.0 4000.0 4000.0 4000.0 4000.0 4000.0 4000.0 4000.0 4000.0 4000.0 4000.0 4000.0 4000.0 4000.0 4000.0 4000.0 4000.0 4000.0 4000.0 4000.0 4000.0 4000.0 4000.0 4000.0 4000.0 4000.0 4000.0 4000.0 4000.0 4000.0 4000.0 4000.0 4000.0 4000.0 4000.0 4000.0 4000.0 4000.0 4000.0 4000.0 4000.0 4000.0 4000.0 4000.0 4000.0 4000.0 4000.0 4000.0 4000.0 4000.0 4000.0 4000.0 4000.0 4000.0 4000.0 4000.0 4000.0 4000.0 4000.0 4000.0 4000.0 4000.0 4000.0 4000.0 4000.0 4000.0 4000.0 4000.0 4000.0 4000.0 4000.0 4000.0 4000.0 4000.0 4000.0 4000.0 4000.0 4000.0 4000.0 4000.0 4000.0 4000.0 4000.0 4000.0 4000.0 4000.0 4000.0 4000.0 4000.0 4000.0 4000.0 4000.0 4000.0 4000.0 4000.0 4000.0 4000.0 4000.0 4000.0 4000.0 4000.0 4000.0 4000.0 4000.0 4000.0 4000.0 4000.0 4000.0 4000.0 4000.0 4000.0 4000.0 4000.0 4000.0 4000.0 4000.0 4000.0 4000.0 4000.0 4000.0 4000.0 4000.0 4000.0 4000.0 4000.0 4000.0 4000.0 4000.0 4000.0 4000.0 4000.0 4000.0 4000.0 4000.0 4000.0 4000.0 4000.0 4000.0 4000.0 4000.0 4000.0 4000.0 4000.0 4000.0 4000.0 4000.0 4000.0 4000.0 4000.0 4000.0 4000.0 4000.0 4000.0 4000.0 4000.0 4000.0 4000.0 4000.0 4000.0 4000.0 4000.0 4000.0 4000.0 4000.0 4000.0 4000.0 4000.0 4000.0 4000.0 4000.0 4000.0 4000.0 4000.0 4000.0 4000.0 4000.0 4000.0 4000.0 4000.0 4000.0 4000.0 4000.0 4000.0 4000.0 4000.0 4000.0 4000.0 4000.0 4000.0 4000.0 4000.0 4000.0 4000.0 4000.0 4000.0 4000.0 4000.0 4000.0 4000.0 4000.0 4000.0 4000.0 4000.0 4000.0 4000.0 4000.0 4000.0 4000.0 4000.0 4000.0 4000.0 4000.0 4000.0 4000.0 4000.0 4000.0 4000.0 4000.0 4000.0 4000.0 4000.0 4000.0 4000.0 4000.0 4000.0 4000.0 4000.0 4000.0 4000.0 4000.0 4000.0 4000.0 4000.0 4000.0 4000.0 4000.0 4000.0 4000.0 4000.0 4000.0 4000.0 4000.0 4000.0 4000.0 4000.0 4000.0 4000.0 4000.0 4000.0 4000.0 4000.0 4000.0 4000.0 4000.0 4000.0 4000.0 4000.0 4000.0 4000.0 4000.0 4000.0 4000.0 4000.0 4000.0 4000.0 4000.0 4000.0 4000.0 4000.0 4000.0 4000.0 4000.0 4000.0 4000.0 4000.0 4000.0 4000.0 4000.0 4000.0 4000.0 4000.0 4000.0 4000.0 4000.0 4000.0 4000.0 4000.0 4000.0 4000.0 4000.0 4000.0 4000.0 4000.0 4000.0 4000.0 4000.0 4000.0 4000.0 4000.0 4000.0 4000.0 4000.0 4000.0 4000.0 4000.0 4000.0 4000.0 4000.0 4000.0 4000.0 4000.0 4000.0 4000.0 4000.0 4000.0 4000.0 4000.0 4000.0 4000.0 4000.0 4000.0 4000.0 4000.0 4000.0 4000.0 4000.0 4000.0 4000.0 4000.0 4000.0 4000.0 4000.0 4000.0 4000.0 4000.0 4000.0 4000.0 4000.0 4000.0 4000.0 4000.0 4000.0 4000.0 4000.0 4000.0 4000.0 4000.0 4000.0 4000.0 4000.0 4000.0 4000.0 4000.0 4000.0 4000.0 4000.0 4000.0 4000.0 4000.0 4000.0 4000.0 4000.0 4000.0 4000.0 4000.0 4000.0 4000.0 4000.0 4000.0 4000.0 4000.0 4000.0 4000.0 4000.0 4000.0 4000.0 4000.0 4000.0 4000.0 4000.0 4000.0 4000.0 4000.0 4000.0 4000.0 4000.0 4000.0 4000.0 4000.0 4000.0 4000.0 4000.0 4000.0 4000.0 4000.0 4000.0 4000.0 4000.0 4000.0 4000.0 4000.0 4000.0 4000.0 4000.0 4000.0 4000.0 4000.0 4000.0 4000.0 4000.0 4000.0 4000.0 4000.0 4000.0 4000.0 4000.0 4000.0 4000.0 4000.0 4000.0 4000.0 4000.0 4000.0 4000.0 4000.0 4000.0 4000.0 4000.0 4000.0 4000.0 4000.0 4000.0 4000.0 4000.0 4000.0 4000.0 4000.0 4000.0 4000.0 4000.0 4000.0 4000.0 4000.0 4000.0 4000.0 4000.0 4000.0 4000.0 4000.0 4000.0 4000.0 4000.0 4000.0 4000.0 4000.0 4000.0 4000.0 4000.0 4000.0 4000.0 4000.0 4000.0 4000.0 4000.0 4000.0 4000.0 4000.0 4000.0 4000.0 4000.0 4000.0 4000.0 4000.0 4000.0 4000.0 4000.0 4000.0 4000.0 4000.0 4000.0 4000.0 4000.0 4000.0 4000.0 4000.0 4000.0 4000.0 4000.0 4000.0 4000.0 4000.0 4000.0 4000.0 4000.0 4000.0 4000.0 4000.0 4000.0 4000.0 4000.0 4000.0 4000.0 4000.0 4000.0 4000.0 4000.0 4000.0 4000.0 4000.0 4000.0 4000.0 4000.0 4000.0 4000.0 4000.0 4000.0 4000.0 4000.0 4000.0 4000.0 4000.0 4000.0 4000.0 4000.0 4000.0 4000.0 4000.0 4000.0 4000.0 4000.0 4000.0 4000.0 4000.0 4000.0 4000.0 4000.0 4000.0 4000.0 4000.0 4000.0 4000.0 4000.0 4000.0 4000.0 4000.0 4000.0 4000.0 4000.0 4000.0 4000.0 4000.0 4000.0 4000.0 4000.0 4000.0 4000.0 4000.0 4000.0 4000.0 4000.0 4000.0 4000.0 4000.0 4000.0 4000.0 4000.0 4000.0 4000.0 4000.0 4000.0 4000.0 4000.0 4000.0 4000.0 4000.0 4000.0 4000.0 4000.0 4000.0 4000.0 4000.0 4000.0 4000.0 4000.0 4000.0 4000.0 4000.0 4000.0 4000.0 4000.0 4000.0 4000.0 4000.0 4000.0 4000.0 4000.0 4000.0 4000.0 4000.0 4000.0 4000.0 4000.0 4000.0 4000.0 4000.0 4000.0 4000.0 4000.0 4000.0 4000.0 4000.0 4000.0 4000.0 4000.0 4000.0 4000.0 4000.0 4000.0 4000.0 4000.0 4000.0 4000.0 4000.0 4000.0 4000.0 4000.0 4000.0 4000.0 4000.0 4000.0 4000.0 4000.0 4000.0 4000.0 4000.0 4000.0 4000.0 4000.0 4000.0 4000.0 4000.0 4000.0 4000.0 4000.0 4000.0 4000.0 4000.0 4000.0 4000.0 4000.0 4000.0 4000.0 4000.0 4000.0 4000.0 4000.0 4000.0 4000.0 4000.0 4000.0 4000.0 4000.0 4000.0 4000.0 4000.0 4000.0 4000.0 4000.0 4000.0 4000.0 4000.0 4000.0 4000.0 4000.0 4000.0 4000.0 4000.0 4000.0 4000.0 4000.0 4000.0 4000.0 4000.0 4000.0 4000.0 4000.0 4000.0 4000.0 4000.0 4000.0 4000.0 4000.0 4000.0 4000.0 4000.0 4000.0 4000.0 4000.0 4000.0 4000.0 4000.0 4000.0 4000.0 4000.0 4000.0 4000.0 4000.0 4000.0 4000.0 4000.0 4000.0 4000.0 4000.0 4000.0 4000.0 4000.0 4000.0 4000.0 4000.0 4000.0 4000.0 4000.0 4000.0 4000.0 4000.0 4000.0 4000.0 4000.0 4000.0 4000.0 4000.0 4000.0 4000.0 4000.0 4000.0 4000.0 4000.0 4000.0 4000.0 4000.0 4000.0 4000.0 4000.0 4000.0 4000.0 4000.0 4000.0 4000.0 4000.0 4000.0 4000.0 4000.0 4000.0 4000.0 4000.0 4000.0 4000.0 4000.0 4000.0 4000.0 4000.0 4000.0 4000.0 4000.0 4000.0 4000.0 4000.0 4000.0 4000.0 4000.0 4000.0 4000.0 4000.0 4000.0 4000.0 4000.0 4000.0 4000.0 4000.0 4000.0 4000.0 4000.0 4000.0 4000.0 4000.0 4000.0 4000.0 4000.0 4000.0 4000.0 4000.0 4000.0 4000.0 4000.0 4000.0 4000.0 4000.0 4000.0 4000.0 4000.0 4000.0 4000.0 4000.0 4000.0 4000.0 4000.0 4000.0 4000.0 4000.0 4000.0 4000.0 4000.0 4000.0 4000.0 4000.0 4000.0 4000.0 4000.0 4000.0 4000.0 4000.0 4000.0 4000.0 4000.0 4000.0 4000.0 4000.0 4000.0 4000.0 4000.0 4000.0 4000.0 4000.0 4000.0 4000.0 4000.0 4000.0 4000.0 4000.0 4000.0 4000.0 4000.0 4000.0 4000.0 4000.0 4000.0 4000.0 4000.0 4000.0 4000.0 4000.0 4000.0 4000.0 4000.0 4000.0 4000.0 4000.0 4000.0 4000.0 4000.0 4000.0 4000.0 4000.0 4000.0 4000.0 4000.0 4000.0 4000.0 4000.0 4000.0 4000.0 4000.0 4000.0 4000.0 4000.0 4000.0 4000.0 4000.0 4000.0 4000.0 4000.0 4000.0 4000.0 4000.0 4000.0 4000.0 4000.0 4000.0 4000.0 4000.0 4000.0 4000.0 4000.0 4000.0 4000.0 4000.0 4000.0 4000.0 4000.0 4000.0 4000.0 4000.0 4000.0 4000.0 4000.0 4000.0 4000.0 4000.0 4000.0 4000.0 4000.0 4000.0 4000.0 4000.0 4000.0 4000.0 4000.0 4000.0 4000.0 4000.0 4000.0 4000.0 4000.0 4000.0 4000.0 4000.0 4000.0 4000.0 4000.0 4000.0 4000.0 4000.0 4000.0 4000.0 4000.0 4000.0 4000.0 4000.0 4000.0 4000.0 4000.0 4000.0 4000.0 4000.0 4000.0 4000.0 4000.0 4000.0 4000.0 4000.0 4000.0 4000.0 4000.0 4000.0 4000.0 4000.0 4000.0 4000.0 4000.0 4000.0 4000.0 4000.0 4000.0 4000.0 4000.0 4000.0 4000.0 4000.0 4000.0 4000.0 4000.0 4000.0 4000.0 4000.0 4000.0 4000.0 4000.0 4000.0 4000.0 4000.0 4000.0 4000.0 4000.0 4000.0 4000.0 4000.0 4000.0 4000.0 4000.0 4000.0 4000.0 4000.0 4000.0 4000.0 4000.0 4000.0 4000.0 4000.0 4000.0 4000.0 4000.0 4000.0 4000.0 4000.0 4000.0 4000.0 4000.0 4000.0 4000.0 4000.0 4000.0 4000.0 4000.0 4000.0 4000.0 4000.0 4000.0 4000.0 4000.0 4000.0 4000.0 4000.0 4000.0 4000.0 4000.0 4000.0 4000.0 4000.0 4000.0 4000.0 4000.0 4000.0 4000.0 4000.0 4000.0 4000.0 4000.0 4000.0 4000.0 4000.0 4000.0 4000.0 4000.0 4000.0 4000.0 4000.0 4000.0 4000.0 4000.0 4000.0 4000.0 4000.0 4000.0 4000.0 4000.0 4000.0 4000.0 4000.0 4000.0 4000.0 4000.0 4000.0 4000.0 4000.0 4000.0 4000.0 4000.0 4000.0 4000.0 4000.0 4000.0 4000.0 4000.0 4000.0 4000.0 4000.0 4000.0 4000.0 4000.0 4000.0 4000.0 4000.0 4000.0 4000.0 4000.0 4000.0 4000.0 4000.0 4000.0 4000.0 4000.0 4000.0 4000.0 4000.0 4000.0 4000.0 4000.0 4000.0 4000.0 4000.0 4000.0 4000.0 4000.0 4000.0 4000.0 4000.0 4000.0 4000.0 4000.0 4000.0 4000.0 4000.0 4000.0 4000.0 4000.0 4000.0 4000.0 4000.0 4000.0 4000.0 4000.0 4000.0 4000.0 4000.0 4000.0 4000.0 4000.0 4000.0 4000.0 4000.0 4000.0 4000.0 4000.0 4000.0 4000.0 4000.0 4000.0 4000.0 4000.0 4000.0 4000.0 4000.0 4000.0 4000.0 4000.0 4000.0 4000.0 4000.0 4000.0 4000.0 4000.0 4000.0 4000.0 4000.0 4000.0 4000.0 4000.0 4000.0 4000.0 4000.0 4000.0 4000.0 4000.0 4000.0 4000.0 4000.0 4000.0 4000.0 4000.0 4000.0 4000.0 4000.0 4000.0 4000.0 4000.0 4000.0 4000.0 4000.0 4000.0 4000.0 4000.0 4000.0 4000.0 4000.0 4000.0 4000.0 4000.0 4000.0 4000.0 4000.0 4000.0 4000.0 4000.0 4000.0 4000.0 4000.0 4000.0 4000.0 4000.0 4000.0 4000.0 4000.0 4000.0 4000.0 4000.0 4000.0 4000.0 4000.0 4000.0 4000.0 4000.0 4000.0 4000.0 4000.0 4000.0 4000.0 4000.0 4000.0 4000.0 4000.0 4000.0 4000.0 4000.0 4000.0 4000.0 4000.0 4000.0 4000.0 4000.0 4000.0 4000.0 4000.0 4000.0 4000.0 4000.0 4000.0 4000.0 4000.0 4000.0 4000.0 4000.0 4000.0 4000.0 4000.0 4000.0 4000.0 4000.0 4000.0 4000.0 4000.0 4000.0 4000.0 4000.0 4000.0 4000.0 4000.0 4000.0 4000.0 4000.0 4000.0 4000.0 4000.0 4000.0 4000.0 4000.0 4000.0 4000.0 4000.0 4000.0 4000.0 4000.0 4000.0 4000.0 4000.0 4000.0 4000.0 4000.0 4000.0 4000.0 4000.0 4000.0 4000.0 4000.0 4000.0 4000.0 4000.0 4000.0 4000.0 4000.0 4000.0 4000.0 4000.0 4000.0 4000.0 4000.0 4000.0 4000.0 4000.0 4000.0 4000.0 4000.0 4000.0 4000.0 4000.0 4000.0 4000.0 4000.0 4000.0 4000.0 4000.0 4000.0 4000.0 4000.0 4000.0 4000.0 4000.0 4000.0 4000.0 4000.0 4000.0 4000.0 4000.0 4000.0 4000.0 4000.0 4000.0 4000.0 4000.0 4000.0 4000.0 4000.0 4000.0 4000.0 4000.0 4000.0 4000.0 4000.0 4000.0 4000.0 4000.0 4000.0 4000.0 4000.0 4000.0 4000.0 4000.0 4000.0 4000.0 4000.0 4000.0 4000.0 4000.0 4000.0 4000.0 4000.0 4000.0 4000.0 4000.0 4000.0 4000.0 4000.0 4000.0 4000.0 4000.0 4000.0 4000.0 4000.0 4000.0 4000.0 4000.0 4000.0 4000.0 4000.0 4000.0 4000.0 4000.0 4000.0 4000.0 4000.0 4000.0 4000.0 4000.0 4000.0 4000.0 4000.0 4000.0 4000.0 4000.0 4000.0 4000.0 4000.0 4000.0 4000.0 4000.0 4000.0 4000.0 4000.0 4000.0 4000.0 4000.0 4000.0 4000.0 4000.0 4000.0 4000.0 4000.0 4000.0 4000.0 4000.0 4000.0 4000.0 4000.0 4000.0 4000.0 4000.0 4000.0 4000.0 4000.0 4000.0 4000.0 4000.0 4000.0 4000.0 4000.0 4000.0 4000.0 4000.0 4000.0 4000.0 4000.0 4000.0 4000.0 4000.0 4000.0 4000.0 4000.0 4000.0 4000.0 4000.0 4000.0 4000.0 4000.0 4000.0 4000.0 4000.0 4000.0 4000.0 4000.0 4000.0 4000.0 4000.0 4000.0 4000.0 4000.0 4000.0 4000.0 4000.0 4000.0 4000.0 4000.0 4000.0 4000.0 4000.0 4000.0 4000.0 4000.0 4000.0 4000.0 4000.0 4000.0 4000.0 4000.0 4000.0 4000.0 4000.0 4000.0 4000.0 4000.0 4000.0 4000.0 4000.0 4000.0 4000.0 4000.0 4000.0 4000.0 4000.0 4000.0 4000.0 4000.0 4000.0 4000.0 4000.0 4000.0 4000.0 4000.0 4000.0 4000.0 4000.0 4000.0 4000.0 4000.0 4000.0 4000.0 4000.0 4000.0 4000.0 4000.0 4000.0 4000.0 4000.0 4000.0 4000.0 4000.0 4000.0 4000.0 4000.0 4000.0 4000.0 4000.0 4000.0 4000.0 4000.0 4000.0 4000.0 4000.0 4000.0 4000.0 4000.0 4000.0 4000.0 4000.0 4000.0 4000.0 4000.0 4000.0 4000.0 4000.0 4000.0 4000.0 4000.0 4000.0 4000.0 4000.0 4000.0 4000.0 4000.0 4000.0 4000.0 4000.0 4000.0 4000.0 4000.0 4000.0 4000.0 4000.0 4000.0 4000.0 4000.0 4000.0 4000.0 4000.0 4000.0 4000.0 4000.0 4000.0 4000.0 4000.0 4000.0 4000.0 4000.0 4000.0 4000.0 4000.0 4000.0 4000.0 4000.0 4000.0 4000.0 4000.0 4000.0 4000.0 4000.0 4000.0 4000.0 4000.0 4000.0 4000.0 4000.0 4000.0 4000.0 4000.0 4000.0 4000.0 4000.0 4000.0 4000.0 4000.0 4000.0 4000.0 4000.0 4000.0 4000.0 4000.0 4000.0 4000.0 4000.0 4000.0 4000.0 4000.0 4000.0 4000.0 4000.0 4000.0 4000.0 4000.0 4000.0 4000.0 4000.0 4000.0 4000.0 4000.0 4000.0 4000.0 4000.0 4000.0 4000.0 4000.0 4000.0 4000.0 4000.0 4000.0 4000.0 4000.0 4000.0 4000.0 4000.0 4000.0 4000.0 4000.0 4000.0 4000.0 4000.0 4000.0 4000.0 4000.0 4000.0 4000.0 4000.0 4000.0 4000.0 4000.0 4000.0 4000.0 4000.0 4000.0 4000.0 4000.0 4000.0 4000.0 4000.0 4000.0 4000.0 4000.0 4000.0 4000.0 4000.0 4000.0 4000.0 4000.0 4000.0 4000.0 4000.0 4000.0 4000.0 4000.0 4000.0 4000.0 4000.0 4000.0 4000.0 4000.0 4000.0 4000.0 4000.0 4000.0 4000.0 4000.0 4000.0 4000.0 4000.0 4000.0 4000.0 4000.0 4000.0 4000.0 4000.0 4000.0 4000.0 4000.0 4000.0 4000.0 4000.0 4000.0 4000.0 4000.0 4000.0 4000.0 4000.0 4000.0 4000.0 4000.0 4000.0 4000.0 4000.0 4000.0 4000.0 4000.0 4000.0 4000.0 4000.0 4000.0 4000.0 4000.0 4000.0 4000.0 4000.0 4000.0 4000.0 4000.0 4000.0 4000.0 4000.0 4000.0 4000.0 4000.0 4000.0 4000.0 4000.0 4000.0 4000.0 4000.0 4000.0 4000.0 4000.0 4000.0 4000.0 4000.0 4000.0 4000.0 4000.0 4000.0 4000.0 4000.0 4000.0 4000.0 4000.0 4000.0 4000.0 4000.0 4000.0 4000.0 4000.0 4000.0 4000.0 4000.0 4000.0 4000.0 4000.0 4000.0 4000.0 4000.0 4000.0 4000.0 4000.0 4000.0 4000.0 4000.0 4000.0 4000.0 4000.0 4000.0 4000.0 4000.0 4000.0 4000.0 4000.0 4000.0 4000.0 4000.0 4000.0 4000.0 4000.0 4000.0 4000.0 4000.0 4000.0 4000.0 4000.0 4000.0 4000.0 4000.0 4000.0 4000.0 4000.0 4000.0 4000.0 4000.0 4000.0 4000.0 4000.0 4000.0 4000.0 4000.0 4000.0 4000.0 4000.0 4000.0 4000.0 4000.0 4000.0 4000.0 4000.0 4000.0 4000.0 4000.0 4000.0 4000.0 4000.0 4000.0 4000.0 4000.0 4000.0 4000.0 4000.0 4000.0 4000.0 4000.0 4000.0 4000.0 4000.0 4000.0 4000.0 4000.0 4000.0 4000.0 4000.0 4000.0 4000.0 4000.0 4000.0 4000.0 4000.0 4000.0 4000.0 4000.0 4000.0 4000.0 4000.0 4000.0 4000.0 4000.0 4000.0 4000.0 4000.0 4000.0 4000.0 4000.0 4000.0 4000.0 4000.0 4000.0 4000.0 4000.0 4000.0 4000.0 4000.0 4000.0 4000.0 4000.0 4000.0 4000.0 4000.0 4000.0 4000.0 4000.0 4000.0 4000.0 4000.0 4000.0 4000.0 4000.0 4000.0 4000.0 4000.0 4000.0 4000.0 4000.0 4000.0 4000.0 4000.0 4000.0 4000.0 4000.0 4000.0 4000.0 4000.0 4000.0 4000.0 4000.0 4000.0 4000.0 4000.0 4000.0 4000.0 4000.0 4000.0 4000.0 4000.0 4000.0 4000.0 4000.0 4000.0 4000.0 4000.0 4000.0 4000.0 4000.0 4000.0 4000.0 4000.0 4000.0 4000.0 4000.0 4000.0 4000.0 4000.0 4000.0 4000.0 4000.0 4000.0 4000.0 4000.0 4000.0 4000.0 4000.0 4000.0 4000.0 4000.0 4000.0 4000.0 4000.0 4000.0 4000.0 4000.0 4000.0 4000.0 4000.0 4000.0 4000.0 4000.0 4000.0 4000.0 4000.0 4000.0 4000.0 4000.0 4000.0 4000.0 4000.0 4000.0 4000.0 4000.0 4000.0 4000.0 4000.0 4000.0 4000.0 4000.0 4000.0 4000.0 4000.0 4000.0 4000.0 4000.0 4000.0 4000.0 4000.0 4000.0 4000.0 4000.0 4000.0 4000.0 4000.0 4000.0 4000.0 4000.0 4000.0 4000.0 4000.0 4000.0 4000.0 4000.0 4000.0 4000.0 4000.0 4000.0 4000.0 4000.0 4000.0 4000.0 4000.0 4000.0 4000.0 4000.0 4000.0 4000.0 4000.0 4000.0 4000.0 4000.0 4000.0 4000.0 4000.0 4000.0 4000.0 4000.0 4000.0 4000.0 4000.0 4000.0 4000.0 4000.0 4000.0 4000.0 4000.0 4000.0 4000.0 4000.0 4000.0 4000.0 4000.0 4000.0 4000.0 4000.0 4000.0 4000.0 4000.0 4000.0 4000.0 4000.0 4000.0 4000.0 4000.0 4000.0 4000.0 4000.0 4000.0 4000.0 4000.0 4000.0 4000.0 4000.0 4000.0 4000.0 4000.0 4000.0 4000.0 4000.0 4000.0 4000.0 4000.0 4000.0 4000.0 4000.0 4000.0 4000.0 4000.0 4000.0 4000.0 4000.0 4000.0 4000.0 4000.0 4000.0 4000.0 4000.0 4000.0 4000.0 4000.0 4000.0 4000.0 4000.0 4000.0 4000.0 4000.0 4000.0 4000.0 4000.0 4000.0 4000.0 4000.0 4000.0 4000.0 4000.0 4000.0 4000.0 4000.0 4000.0 4000.0 4000.0 4000.0 4000.0 4000.0 4000.0 4000.0 4000.0 4000.0 4000.0 4000.0 4000.0 4000.0 4000.0 4000.0 4000.0 4000.0 4000.0 4000.0 4000.0 4000.0 4000.0 4000.0 4000.0 4000.0 4000.0 4000.0 4000.0 4000.0 4000.0 4000.0 4000.0 4000.0 4000.0 4000.0 4000.0 4000.0 4000.0 4000.0 4000.0 4000.0 4000.0 4000.0 4000.0 4000.0 4000.0 4000.0 4000.0 4000.0 4000.0 4000.0 4000.0 4000.0 4000.0 4000.0 4000.0 4000.0 4000.0 4000.0 4000.0 4000.0 4000.0 4000.0 4000.0 4000.0 4000.0 4000.0 4000.0 4000.0 4000.0 4000.0 4000.0 4000.0 4000.0 4000.0 4000.0 4000.0 4000.0 4000.0 4000.0 4000.0 4000.0 4000.0 4000.0 4000.0 4000.0 4000.0 4000.0 4000.0 4000.0 4000.0 4000.0 4000.0 4000.0 4000.0 4000.0 4000.0 4000.0 4000.0 4000.0 4000.0 4000.0 4000.0 4000.0 4000.0 4000.0 4000.0 4000.0 4000.0 4000.0 4000.0 4000.0 4000.0 4000.0 4000.0 4000.0 4000.0 4000.0 4000.0 4000.0 4000.0 4000.0 4000.0 4000.0 4000.0 4000.0 4000.0 4000.0 4000.0 4000.0 4000.0 4000.0 4000.0 4000.0 4000.0 4000.0 4000.0 4000.0 4000.0 4000.0 4000.0 4000.0 4000.0 4000.0 4000.0 4000.0 4000.0 4000.0 4000.0 4000.0 4000.0 4000.0 4000.0 4000.0 4000.0 4000.0 4000.0 4000.0 4000.0 4000.0 4000.0 4000.0 4000.0 4000.0 4000.0 4000.0 4000.0 4000.0 4000.0 4000.0 4000.0 4000.0 4000.0 4000.0 4000.0 4000.0 4000.0 4000.0 4000.0 4000.0 4000.0 4000.0 4000.0 4000.0 4000.0 4000.0 4000.0 4000.0 4000.0 4000.0 4000.0 4000.0 4000.0 4000.0 4000.0 4000.0 4000.0 4000.0 4000.0 4000.0 4000.0 4000.0 4000.0 4000.0 4000.0 4000.0 4000.0 4000.0 4000.0 4000.0 4000.0 4000.0 4000.0 4000.0 4000.0 4000.0 4000.0 4000.0 4000.0 4000.0 4000.0 4000.0 4000.0 4000.0 4000.0 4000.0 4000.0 4000.0 4000.0 4000.0 4000.0 4000.0 4000.0 4000.0 4000.0 4000.0 4000.0 4000.0 4000.0 4000.0 4000.0 4000.0 4000.0 4000.0 4000.0 4000.0 4000.0 4000.0 4000.0 4000.0 4000.0 4000.0 4000.0 4000.0 4000.0 4000.0 4000.0 4000.0 4000.0 4000.0 4000.0 4000.0 4000.0 4000.0 4000.0 4000.0 4000.0 4000.0 4000.0 4000.0 4000.0 4000.0 4000.0 4000.0 4000.0 4000.0 4000.0 4000.0 4000.0 4000.0 4000.0 4000.0 4000.0 4000.0 4000.0 4000.0 4000.0 4000.0 4000.0 4000.0 4000.0 4000.0 4000.0 4000.0 4000.0 4000.0 4000.0 4000.0 4000.0 4000.0 4000.0 4000.0 4000.0 4000.0 4000.0 4000.0 4000.0 4000.0 4000.0 4000.0 4000.0 4000.0 4000.0 4000.0 4000.0 4000.0 4000.0 4000.0 4000.0 4000.0 4000.0 4000.0 4000.0 4000.0 4000.0 4000.0 4000.0 4000.0 4000.0 4000.0 4000.0 4000.0 4000.0 4000.0 4000.0 4000.0 4000.0 4000.0 4000.0 4000.0 4000.0 4000.0 4000.0 4000.0 4000.0 4000.0 4000.0 4000.0 4000.0 4000.0 4000.0 4000.0 4000.0 4000.0 4000.0 4000.0 4000.0 4000.0 4000.0 4000.0 4000.0 4000.0 4000.0 4000.0 4000.0 4000.0 4000.0 4000.0 4000.0 4000.0 4000.0 4000.0 4000.0 4000.0 4000.0 4000.0 4000.0 4000.0 4000.0 4000.0 4000.0 4000.0 4000.0 4000.0 4000.0 4000.0 4000.0 4000.0 4000.0 4000.0 4000.0 4000.0 4000.0 4000.0 4000.0 4000.0 4000.0 4000.0 4000.0 4000.0 4000.0 4000.0 4000.0 4000.0 4000.0 4000.0 4000.0 4000.0 4000.0 4000.0 4000.0 4000.0 4000.0 4000.0 4000.0 4000.0 4000.0 4000.0 4000.0 4000.0 4000.0 4000.0 4000.0 4000.0 4000.0 4000.0 4000.0 4000.0 4000.0 4000.0 4000.0 4000.0 4000.0 4000.0 4000.0 4000.0 4000.0 4000.0 4000.0 4000.0 4000.0 4000.0 4000.0 4000.0 4000.0 4000.0 4000.0 4000.0 4000.0 4000.0 4000.0 4000.0 4000.0 4000.0 4000.0 4000.0 4000.0 4000.0 4000.0 4000.0 4000.0 4000.0 4000.0 4000.0 4000.0 4000.0 4000.0 4000.0 4000.0 4000.0 4000.0 4000.0 4000.0 4000.0 4000.0 4000.0 4000.0 4000.0 4000.0 4000.0 4000.0 4000.0 4000.0 4000.0 4000.0 4000.0 4000.0 4000.0 4000.0 4000.0 4000.0 4000.0 4000.0 4000.0 4000.0 4000.0 4000.0 4000.0 4000.0 4000.0 4000.0 4000.0 4000.0 4000.0 4000.0 4000.0 4000.0 4000.0 4000.0 4000.0 4000.0 4000.0 4000.0 4000.0 4000.0 4000.0 4000.0 4000.0 4000.0 4000.0 4000.0 4000.0 4000.0 4000.0 4000.0 4000.0 4000.0 4000.0 4000.0 4000.0 4000.0 4000.0 4000.0 4000.0 4000.0 4000.0 4000.0 4000.0 4000.0 4000.0 4000.0 4000.0 4000.0 4000.0 4000.0 4000.0 4000.0 4000.0 4000.0 4000.0 4000.0 4000.0 4000.0 4000.0 4000.0 4000.0 4000.0 4000.0 4000.0 4000.0 4000.0 4000.0 4000.0 4000.0 4000.0 4000.0 4000.0 4000.0 4000.0 4000.0 4000.0 4000.0 4000.0 4000.0 4000.0 4000.0 4000.0 4000.0 4000.0 4000.0 4000.0 4000.0 4000.0 4000.0 4000.0 4000.0 4000.0 4000.0 4000.0 4000.0 4000.0 4000.0 4000.0 4000.0 4000.0 4000.0 4000.0 4000.0 4000.0 4000.0 4000.0 4000.0 4000.0 4000.0 4000.0 4000.0 4000.0 4000.0 4000.0 4000.0 4000.0 4000.0 4000.0 4000.0 4000.0 4000.0 4000.0 4000.0 4000.0 4000.0 4000.0 4000.0 4000.0 4000.0 4000.0 4000.0 4000.0 4000.0 4000.0 4000.0 4000.0 4000.0 4000.0 4000.0 4000.0 4000.0 4000.0 4000.0 4000.0 4000.0 4000.0 4000.0 4000.0 4000.0 4000.0 4000.0 4000.0 4000.0 4000.0 4000.0 4000.0 4000.0 4000.0 4000.0 4000.0 4000.0 4000.0 4000.0 4000.0 4000.0 4000.0 4000.0 4000.0 4000.0 4000.0 4000.0 4000.0 4000.0 4000.0 4000.0 4000.0 4000.0 4000.0 4000.0 4000.0 4000.0 4000.0 4000.0 4000.0 4000.0 4000.0 4000.0 4000.0 4000.0 4000.0 4000.0 4000.0 4000.0 4000.0 4000.0 4000.0 4000.0 4000.0 4000.0 4000.0 4000.0 4000.0 4000.0 4000.0 4000.0 4000.0 4000.0 4000.0 4000.0 4000.0 4000.0 4000.0 4000.0 4000.0 4000.0 4000.0 4000.0 4000.0 4000.0 4000.0 4000.0 4000.0 4000.0 4000.0 4000.0 4000.0 4000.0 4000.0 4000.0 4000.0 4000.0 4000.0 4000.0 4000.0 4000.0 4000.0 4000.0 4000.0 4000.0 4000.0 4000.0 4000.0 4000.0 4000.0 4000.0 4000.0 4000.0 4000.0 4000.0 4000.0 4000.0 4000.0 4000.0 4000.0 4000.0 4000.0 4000.0 4000.0 4000.0 4000.0 4000.0 4000.0 4000.0 4000.0 4000.0 4000.0 4000.0 4000.0 4000.0 4000.0 4000.0 4000.0 4000.0 4000.0 4000.0 4000.0 4000.0 4000.0 4000.0 4000.0 4000.0 4000.0 4000.0 4000.0 4000.0 4000.0 4000.0 4000.0 4000.0 4000.0 4000.0 4000.0 4000.0 4000.0 4000.0 4000.0 4000.0 4000.0 4000.0 4000.0 4000.0 4000.0 4000.0 4000.0 4000.0 4000.0 4000.0 4000.0 4000.0 4000.0 4000.0 4000.0 4000.0 4000.0 4000.0 4000.0 4000.0 4000.0 4000.0 4000.0 4000.0 4000.0 4000.0 4000.0 4000.0 4000.0 4000.0 4000.0 4000.0 4000.0 4000.0 4000.0 4000.0 4000.0 4000.0 4000.0 4000.0 4000.0 4000.0 4000.0 4000.0 4000.0 4000.0 4000.0 4000.0 4000.0 4000.0 4000.0 4000.0 4000.0 4000.0 4000.0 4000.0 4000.0 4000.0 4000.0 4000.0 4000.0 4000.0 4000.0 4000.0 4000.0 4000.0 4000.0 4000.0 4000.0 4000.0 4000.0 4000.0 4000.0 4000.0 4000.0 4000.0 4000.0 4000.0 4000.0 4000.0 4000.0 4000.0 4000.0 4000.0 4000.0 4000.0 4000.0 4000.0 4000.0 4000.0 4000.0 4000.0 4000.0 4000.0 4000.0 4000.0 4000.0 4000.0 4000.0 4000.0 4000.0 4000.0 4000.0 4000.0 4000.0 4000.0 4000.0 4000.0 4000.0 4000.0 4000.0 4000.0 4000.0 4000.0 4000.0 4000.0 4000.0 4000.0 4000.0 4000.0 4000.0 4000.0 4000.0 4000.0 4000.0 4000.0 4000.0 4000.0 4000.0 4000.0 4000.0 4000.0 4000.0 4000.0 4000.0 4000.0 4000.0 4000.0 4000.0 4000.0 4000.0 4000.0 4000.0 4000.0 4000.0 4000.0 4000.0 4000.0 4000.0 4000.0 4000.0 4000.0 4000.0 4000.0 4000.0 4000.0 4000.0 4000.0 4000.0 4000.0 4000.0 4000.0 4000.0 4000.0 4000.0 4000.0 4000.0 4000.0 4000.0 4000.0 4000.0 4000.0 4000.0 4000.0 4000.0 4000.0 4000.0 4000.0 4000.0 4000.0 4000.0 4000.0 4000.0 4000.0 4000.0 4000.0 4000.0 4000.0 4000.0 4000.0 4000.0 4000.0 4000.0 4000.0 4000.0 4000.0 4000.0 4000.0 4000.0 4000.0 4000.0 4000.0 4000.0 4000.0 4000.0 4000.0 4000.0 4000.0 4000.0 4000.0 4000.0 4000.0 4000.0 4000.0 4000.0 4000.0 4000.0 4000.0 4000.0 4000.0 4000.0 4000.0 4000.0 4000.0 4000.0 4000.0 4000.0 4000.0 4000.0 4000.0 4000.0 4000.0 4000.0 4000.0 4000.0 4000.0 4000.0 4000.0 4000.0 4000.0 4000.0 4000.0 4000.0 4000.0 4000.0 4000.0 4000.0 4000.0 4000.0 4000.0 4000.0 4000.0 4000.0 4000.0 4000.0 4000.0 4000.0 4000.0 4000.0 4000.0 4000.0 4000.0 4000.0 4000.0 4000.0 4000.0 4000.0 4000.0 4000.0 4000.0 4000.0 4000.0 4000.0 4000.0 4000.0 4000.0 4000.0 4000.0 4000.0 4000.0 4000.0 4000.0 4000.0 4000.0 4000.0 4000.0 4000.0 4000.0 4000.0 4000.0 4000.0 4000.0 4000.0 4000.0 4000.0 4000.0 4000.0 4000.0 4000.0 4000.0 4000.0 4000.0 4000.0 4000.0 4000.0 4000.0 4000.0 4000.0 4000.0 4000.0 4000.0 4000.0 4000.0 4000.0 4000.0 4000.0 4000.0 4000.0 4000.0 4000.0 4000.0 4000.0 4000.0 4000.0 4000.0 4000.0 4000.0 4000.0 4000.0 4000.0 4000.0 4000.0 4000.0 4000.0 4000.0 4000.0 4000.0 4000.0 4000.0 4000.0 4000.0 4000.0 4000.0 4000.0 4000.0 4000.0 4000.0 4000.0 4000.0 4000.0 4000.0 4000.0 4000.0 4000.0 4000.0 4000.0 4000.0 4000.0 4000.0 4000.0 4000.0 4000.0 4000.0 4000.0 4000.0 4000.0 4000.0 4000.0 4000.0 4000.0 4000.0 4000.0 4000.0 4000.0 4000.0 4000.0 4000.0 4000.0 4000.0 SCALARS Mass float 1
LOOKUP_TABLE default
11309700000.0 11309700000.0 11309700000.0 11309700000.0 11309700000.0 11309700000.0 11309700000.0 11309700000.0 11309700000.0 11309700000.0 11309700000.0 11309700000.0 11309700000.0 11309700000.0 11309700000.0 11309700000.0 11309700000.0 11309700000.0 11309700000.0 11309700000.0 11309700000.0 11309700000.0 11309700000.0 11309700000.0 11309700000.0 11309700000.0 11309700000.0 11309700000.0 11309700000.0 11309700000.0 11309700000.0 11309700000.0 11309700000.0 11309700000.0 11309700000.0 11309700000.0 11309700000.0 11309700000.0 11309700000.0 11309700000.0 11309700000.0 11309700000.0 11309700000.0 11309700000.0 11309700000.0 11309700000.0 11309700000.0 11309700000.0 11309700000.0 11309700000.0 11309700000.0 11309700000.0 11309700000.0 11309700000.0 11309700000.0 11309700000.0 11309700000.0 11309700000.0 11309700000.0 11309700000.0 11309700000.0 11309700000.0 11309700000.0 11309700000.0 11309700000.0 11309700000.0 11309700000.0 11309700000.0 11309700000.0 11309700000.0 11309700000.0 11309700000.0 11309700000.0 11309700000.0 11309700000.0 11309700000.0 11309700000.0 11309700000.0 11309700000.0 11309700000.0 11309700000.0 11309700000.0 11309700000.0 11309700000.0 11309700000.0 11309700000.0 11309700000.0 11309700000.0 11309700000.0 11309700000.0 11309700000.0 11309700000.0 11309700000.0 11309700000.0 11309700000.0 11309700000.0 11309700000.0 11309700000.0 11309700000.0 11309700000.0 11309700000.0 11309700000.0 11309700000.0 11309700000.0 11309700000.0 11309700000.0 11309700000.0 11309700000.0 11309700000.0 11309700000.0 11309700000.0 11309700000.0 11309700000.0 11309700000.0 11309700000.0 11309700000.0 11309700000.0 11309700000.0 11309700000.0 11309700000.0 11309700000.0 11309700000.0 11309700000.0 11309700000.0 11309700000.0 11309700000.0 11309700000.0 11309700000.0 11309700000.0 11309700000.0 11309700000.0 11309700000.0 11309700000.0 11309700000.0 11309700000.0 11309700000.0 11309700000.0 11309700000.0 11309700000.0 11309700000.0 11309700000.0 11309700000.0 11309700000.0 11309700000.0 11309700000.0 11309700000.0 11309700000.0 11309700000.0 11309700000.0 11309700000.0 11309700000.0 11309700000.0 11309700000.0 11309700000.0 11309700000.0 11309700000.0 11309700000.0 11309700000.0 11309700000.0 11309700000.0 11309700000.0 11309700000.0 11309700000.0 11309700000.0 11309700000.0 11309700000.0 11309700000.0 11309700000.0 11309700000.0 11309700000.0 11309700000.0 11309700000.0 11309700000.0 11309700000.0 11309700000.0 11309700000.0 11309700000.0 11309700000.0 11309700000.0 11309700000.0 11309700000.0 11309700000.0 11309700000.0 11309700000.0 11309700000.0 11309700000.0 11309700000.0 11309700000.0 11309700000.0 11309700000.0 11309700000.0 11309700000.0 11309700000.0 11309700000.0 11309700000.0 11309700000.0 11309700000.0 11309700000.0 11309700000.0 11309700000.0 11309700000.0 11309700000.0 11309700000.0 11309700000.0 11309700000.0 11309700000.0 11309700000.0 11309700000.0 11309700000.0 11309700000.0 11309700000.0 11309700000.0 11309700000.0 11309700000.0 11309700000.0 11309700000.0 11309700000.0 11309700000.0 11309700000.0 11309700000.0 11309700000.0 11309700000.0 11309700000.0 11309700000.0 11309700000.0 11309700000.0 11309700000.0 11309700000.0 11309700000.0 11309700000.0 11309700000.0 11309700000.0 11309700000.0 11309700000.0 11309700000.0 11309700000.0 11309700000.0 11309700000.0 11309700000.0 11309700000.0 11309700000.0 11309700000.0 11309700000.0 11309700000.0 11309700000.0 11309700000.0 11309700000.0 11309700000.0 11309700000.0 11309700000.0 11309700000.0 11309700000.0 11309700000.0 11309700000.0 11309700000.0 11309700000.0 11309700000.0 11309700000.0 11309700000.0 11309700000.0 11309700000.0 11309700000.0 11309700000.0 11309700000.0 11309700000.0 11309700000.0 11309700000.0 11309700000.0 11309700000.0 11309700000.0 11309700000.0 11309700000.0 11309700000.0 11309700000.0 11309700000.0 11309700000.0 11309700000.0 11309700000.0 11309700000.0 11309700000.0 11309700000.0 11309700000.0 11309700000.0 11309700000.0 11309700000.0 11309700000.0 11309700000.0 11309700000.0 11309700000.0 11309700000.0 11309700000.0 11309700000.0 11309700000.0 11309700000.0 11309700000.0 11309700000.0 11309700000.0 11309700000.0 11309700000.0 11309700000.0 11309700000.0 11309700000.0 11309700000.0 11309700000.0 11309700000.0 11309700000.0 11309700000.0 11309700000.0 11309700000.0 11309700000.0 11309700000.0 11309700000.0 11309700000.0 11309700000.0 11309700000.0 11309700000.0 11309700000.0 11309700000.0 11309700000.0 11309700000.0 11309700000.0 11309700000.0 11309700000.0 11309700000.0 11309700000.0 11309700000.0 11309700000.0 11309700000.0 11309700000.0 11309700000.0 11309700000.0 11309700000.0 11309700000.0 11309700000.0 11309700000.0 11309700000.0 11309700000.0 11309700000.0 11309700000.0 11309700000.0 11309700000.0 11309700000.0 11309700000.0 11309700000.0 11309700000.0 11309700000.0 11309700000.0 11309700000.0 11309700000.0 11309700000.0 11309700000.0 11309700000.0 11309700000.0 11309700000.0 11309700000.0 11309700000.0 11309700000.0 11309700000.0 11309700000.0 11309700000.0 11309700000.0 11309700000.0 11309700000.0 11309700000.0 11309700000.0 11309700000.0 11309700000.0 11309700000.0 11309700000.0 11309700000.0 11309700000.0 11309700000.0 11309700000.0 11309700000.0 11309700000.0 11309700000.0 11309700000.0 11309700000.0 11309700000.0 11309700000.0 11309700000.0 11309700000.0 11309700000.0 11309700000.0 11309700000.0 11309700000.0 11309700000.0 11309700000.0 11309700000.0 11309700000.0 11309700000.0 11309700000.0 11309700000.0 11309700000.0 11309700000.0 11309700000.0 11309700000.0 11309700000.0 11309700000.0 11309700000.0 11309700000.0 11309700000.0 11309700000.0 11309700000.0 11309700000.0 11309700000.0 11309700000.0 11309700000.0 11309700000.0 11309700000.0 11309700000.0 11309700000.0 11309700000.0 11309700000.0 11309700000.0 11309700000.0 11309700000.0 11309700000.0 11309700000.0 11309700000.0 11309700000.0 11309700000.0 11309700000.0 11309700000.0 11309700000.0 11309700000.0 11309700000.0 11309700000.0 11309700000.0 11309700000.0 11309700000.0 11309700000.0 11309700000.0 11309700000.0 11309700000.0 11309700000.0 11309700000.0 11309700000.0 11309700000.0 11309700000.0 11309700000.0 11309700000.0 11309700000.0 11309700000.0 11309700000.0 11309700000.0 11309700000.0 11309700000.0 11309700000.0 11309700000.0 11309700000.0 11309700000.0 11309700000.0 11309700000.0 11309700000.0 11309700000.0 11309700000.0 11309700000.0 11309700000.0 11309700000.0 11309700000.0 11309700000.0 11309700000.0 11309700000.0 11309700000.0 11309700000.0 11309700000.0 11309700000.0 11309700000.0 11309700000.0 11309700000.0 11309700000.0 11309700000.0 11309700000.0 11309700000.0 11309700000.0 11309700000.0 11309700000.0 11309700000.0 11309700000.0 11309700000.0 11309700000.0 11309700000.0 11309700000.0 11309700000.0 11309700000.0 11309700000.0 11309700000.0 11309700000.0 11309700000.0 11309700000.0 11309700000.0 11309700000.0 11309700000.0 11309700000.0 11309700000.0 11309700000.0 11309700000.0 11309700000.0 11309700000.0 11309700000.0 11309700000.0 11309700000.0 11309700000.0 11309700000.0 11309700000.0 11309700000.0 11309700000.0 11309700000.0 11309700000.0 11309700000.0 11309700000.0 11309700000.0 11309700000.0 11309700000.0 11309700000.0 11309700000.0 11309700000.0 11309700000.0 11309700000.0 11309700000.0 11309700000.0 11309700000.0 11309700000.0 11309700000.0 11309700000.0 11309700000.0 11309700000.0 11309700000.0 11309700000.0 11309700000.0 11309700000.0 11309700000.0 11309700000.0 11309700000.0 11309700000.0 11309700000.0 11309700000.0 11309700000.0 11309700000.0 11309700000.0 11309700000.0 11309700000.0 11309700000.0 11309700000.0 11309700000.0 11309700000.0 11309700000.0 11309700000.0 11309700000.0 11309700000.0 11309700000.0 11309700000.0 11309700000.0 11309700000.0 11309700000.0 11309700000.0 11309700000.0 11309700000.0 11309700000.0 11309700000.0 11309700000.0 11309700000.0 11309700000.0 11309700000.0 11309700000.0 11309700000.0 11309700000.0 11309700000.0 11309700000.0 11309700000.0 11309700000.0 11309700000.0 11309700000.0 11309700000.0 11309700000.0 11309700000.0 11309700000.0 11309700000.0 11309700000.0 11309700000.0 11309700000.0 11309700000.0 11309700000.0 11309700000.0 11309700000.0 11309700000.0 11309700000.0 11309700000.0 11309700000.0 11309700000.0 11309700000.0 11309700000.0 11309700000.0 11309700000.0 11309700000.0 11309700000.0 11309700000.0 11309700000.0 11309700000.0 11309700000.0 11309700000.0 11309700000.0 11309700000.0 11309700000.0 11309700000.0 11309700000.0 11309700000.0 11309700000.0 11309700000.0 11309700000.0 11309700000.0 11309700000.0 11309700000.0 11309700000.0 11309700000.0 11309700000.0 11309700000.0 11309700000.0 11309700000.0 11309700000.0 11309700000.0 11309700000.0 11309700000.0 11309700000.0 11309700000.0 11309700000.0 11309700000.0 11309700000.0 11309700000.0 11309700000.0 11309700000.0 11309700000.0 11309700000.0 11309700000.0 11309700000.0 11309700000.0 11309700000.0 11309700000.0 11309700000.0 11309700000.0 11309700000.0 11309700000.0 11309700000.0 11309700000.0 11309700000.0 11309700000.0 11309700000.0 11309700000.0 11309700000.0 11309700000.0 11309700000.0 11309700000.0 11309700000.0 11309700000.0 11309700000.0 11309700000.0 11309700000.0 11309700000.0 11309700000.0 11309700000.0 11309700000.0 11309700000.0 11309700000.0 11309700000.0 11309700000.0 11309700000.0 11309700000.0 11309700000.0 11309700000.0 11309700000.0 11309700000.0 11309700000.0 11309700000.0 11309700000.0 11309700000.0 11309700000.0 11309700000.0 11309700000.0 11309700000.0 11309700000.0 11309700000.0 11309700000.0 11309700000.0 11309700000.0 11309700000.0 11309700000.0 11309700000.0 11309700000.0 11309700000.0 11309700000.0 11309700000.0 11309700000.0 11309700000.0 11309700000.0 11309700000.0 11309700000.0 11309700000.0 11309700000.0 11309700000.0 11309700000.0 11309700000.0 11309700000.0 11309700000.0 11309700000.0 11309700000.0 11309700000.0 11309700000.0 11309700000.0 11309700000.0 11309700000.0 11309700000.0 11309700000.0 11309700000.0 11309700000.0 11309700000.0 11309700000.0 11309700000.0 11309700000.0 11309700000.0 11309700000.0 11309700000.0 11309700000.0 11309700000.0 11309700000.0 11309700000.0 11309700000.0 11309700000.0 11309700000.0 11309700000.0 11309700000.0 11309700000.0 11309700000.0 11309700000.0 11309700000.0 11309700000.0 11309700000.0 11309700000.0 11309700000.0 11309700000.0 11309700000.0 11309700000.0 11309700000.0 11309700000.0 11309700000.0 11309700000.0 11309700000.0 11309700000.0 11309700000.0 11309700000.0 11309700000.0 11309700000.0 11309700000.0 11309700000.0 11309700000.0 11309700000.0 11309700000.0 11309700000.0 11309700000.0 11309700000.0 11309700000.0 11309700000.0 11309700000.0 11309700000.0 11309700000.0 11309700000.0 11309700000.0 11309700000.0 11309700000.0 11309700000.0 11309700000.0 11309700000.0 11309700000.0 11309700000.0 11309700000.0 11309700000.0 11309700000.0 11309700000.0 11309700000.0 11309700000.0 11309700000.0 11309700000.0 11309700000.0 11309700000.0 11309700000.0 11309700000.0 11309700000.0 11309700000.0 11309700000.0 11309700000.0 11309700000.0 11309700000.0 11309700000.0 11309700000.0 11309700000.0 11309700000.0 11309700000.0 11309700000.0 11309700000.0 11309700000.0 11309700000.0 11309700000.0 11309700000.0 11309700000.0 11309700000.0 11309700000.0 11309700000.0 11309700000.0 11309700000.0 11309700000.0 11309700000.0 11309700000.0 11309700000.0 11309700000.0 11309700000.0 11309700000.0 11309700000.0 11309700000.0 11309700000.0 11309700000.0 11309700000.0 11309700000.0 11309700000.0 11309700000.0 11309700000.0 11309700000.0 11309700000.0 11309700000.0 11309700000.0 11309700000.0 11309700000.0 11309700000.0 11309700000.0 11309700000.0 11309700000.0 11309700000.0 11309700000.0 11309700000.0 11309700000.0 11309700000.0 11309700000.0 11309700000.0 11309700000.0 11309700000.0 11309700000.0 11309700000.0 11309700000.0 11309700000.0 11309700000.0 11309700000.0 11309700000.0 11309700000.0 11309700000.0 11309700000.0 11309700000.0 11309700000.0 11309700000.0 11309700000.0 11309700000.0 11309700000.0 11309700000.0 11309700000.0 11309700000.0 11309700000.0 11309700000.0 11309700000.0 11309700000.0 11309700000.0 11309700000.0 11309700000.0 11309700000.0 11309700000.0 11309700000.0 11309700000.0 11309700000.0 11309700000.0 11309700000.0 11309700000.0 11309700000.0 11309700000.0 11309700000.0 11309700000.0 11309700000.0 11309700000.0 11309700000.0 11309700000.0 11309700000.0 11309700000.0 11309700000.0 11309700000.0 11309700000.0 11309700000.0 11309700000.0 11309700000.0 11309700000.0 11309700000.0 11309700000.0 11309700000.0 11309700000.0 11309700000.0 11309700000.0 11309700000.0 11309700000.0 11309700000.0 11309700000.0 11309700000.0 11309700000.0 11309700000.0 11309700000.0 11309700000.0 11309700000.0 11309700000.0 11309700000.0 11309700000.0 11309700000.0 11309700000.0 11309700000.0 11309700000.0 11309700000.0 11309700000.0 11309700000.0 11309700000.0 11309700000.0 11309700000.0 11309700000.0 11309700000.0 11309700000.0 11309700000.0 11309700000.0 11309700000.0 11309700000.0 11309700000.0 11309700000.0 11309700000.0 11309700000.0 11309700000.0 11309700000.0 11309700000.0 11309700000.0 11309700000.0 11309700000.0 11309700000.0 11309700000.0 11309700000.0 11309700000.0 11309700000.0 11309700000.0 11309700000.0 11309700000.0 11309700000.0 11309700000.0 11309700000.0 11309700000.0 11309700000.0 11309700000.0 11309700000.0 11309700000.0 11309700000.0 11309700000.0 11309700000.0 11309700000.0 11309700000.0 11309700000.0 11309700000.0 11309700000.0 11309700000.0 11309700000.0 11309700000.0 11309700000.0 11309700000.0 11309700000.0 11309700000.0 11309700000.0 11309700000.0 11309700000.0 11309700000.0 11309700000.0 11309700000.0 11309700000.0 11309700000.0 11309700000.0 11309700000.0 11309700000.0 11309700000.0 11309700000.0 11309700000.0 11309700000.0 11309700000.0 11309700000.0 11309700000.0 11309700000.0 11309700000.0 11309700000.0 11309700000.0 11309700000.0 11309700000.0 11309700000.0 11309700000.0 11309700000.0 11309700000.0 11309700000.0 11309700000.0 11309700000.0 11309700000.0 11309700000.0 11309700000.0 11309700000.0 11309700000.0 11309700000.0 11309700000.0 11309700000.0 11309700000.0 11309700000.0 11309700000.0 11309700000.0 11309700000.0 11309700000.0 11309700000.0 11309700000.0 11309700000.0 11309700000.0 11309700000.0 11309700000.0 11309700000.0 11309700000.0 11309700000.0 11309700000.0 11309700000.0 11309700000.0 11309700000.0 11309700000.0 11309700000.0 11309700000.0 11309700000.0 11309700000.0 11309700000.0 11309700000.0 11309700000.0 11309700000.0 11309700000.0 11309700000.0 11309700000.0 11309700000.0 11309700000.0 11309700000.0 11309700000.0 11309700000.0 11309700000.0 11309700000.0 11309700000.0 11309700000.0 11309700000.0 11309700000.0 11309700000.0 11309700000.0 11309700000.0 11309700000.0 11309700000.0 11309700000.0 11309700000.0 11309700000.0 11309700000.0 11309700000.0 11309700000.0 11309700000.0 11309700000.0 11309700000.0 11309700000.0 11309700000.0 11309700000.0 11309700000.0 11309700000.0 11309700000.0 11309700000.0 11309700000.0 11309700000.0 11309700000.0 11309700000.0 11309700000.0 11309700000.0 11309700000.0 11309700000.0 11309700000.0 11309700000.0 11309700000.0 11309700000.0 11309700000.0 11309700000.0 11309700000.0 11309700000.0 11309700000.0 11309700000.0 11309700000.0 11309700000.0 11309700000.0 11309700000.0 11309700000.0 11309700000.0 11309700000.0 11309700000.0 11309700000.0 11309700000.0 11309700000.0 11309700000.0 11309700000.0 11309700000.0 11309700000.0 11309700000.0 11309700000.0 11309700000.0 11309700000.0 11309700000.0 11309700000.0 11309700000.0 11309700000.0 11309700000.0 11309700000.0 11309700000.0 11309700000.0 11309700000.0 11309700000.0 11309700000.0 11309700000.0 11309700000.0 11309700000.0 11309700000.0 11309700000.0 11309700000.0 11309700000.0 11309700000.0 11309700000.0 11309700000.0 11309700000.0 11309700000.0 11309700000.0 11309700000.0 11309700000.0 11309700000.0 11309700000.0 11309700000.0 11309700000.0 11309700000.0 11309700000.0 11309700000.0 11309700000.0 11309700000.0 11309700000.0 11309700000.0 11309700000.0 11309700000.0 11309700000.0 11309700000.0 11309700000.0 11309700000.0 11309700000.0 11309700000.0 11309700000.0 11309700000.0 11309700000.0 11309700000.0 11309700000.0 11309700000.0 11309700000.0 11309700000.0 11309700000.0 11309700000.0 11309700000.0 11309700000.0 11309700000.0 11309700000.0 11309700000.0 11309700000.0 11309700000.0 11309700000.0 11309700000.0 11309700000.0 11309700000.0 11309700000.0 11309700000.0 11309700000.0 11309700000.0 11309700000.0 11309700000.0 11309700000.0 11309700000.0 11309700000.0 11309700000.0 11309700000.0 11309700000.0 11309700000.0 11309700000.0 11309700000.0 11309700000.0 11309700000.0 11309700000.0 11309700000.0 11309700000.0 11309700000.0 11309700000.0 11309700000.0 11309700000.0 11309700000.0 11309700000.0 11309700000.0 11309700000.0 11309700000.0 11309700000.0 11309700000.0 11309700000.0 11309700000.0 11309700000.0 11309700000.0 11309700000.0 11309700000.0 11309700000.0 11309700000.0 11309700000.0 11309700000.0 11309700000.0 11309700000.0 11309700000.0 11309700000.0 11309700000.0 11309700000.0 11309700000.0 11309700000.0 11309700000.0 11309700000.0 11309700000.0 11309700000.0 11309700000.0 11309700000.0 11309700000.0 11309700000.0 11309700000.0 11309700000.0 11309700000.0 11309700000.0 11309700000.0 11309700000.0 11309700000.0 11309700000.0 11309700000.0 11309700000.0 11309700000.0 11309700000.0 11309700000.0 11309700000.0 11309700000.0 11309700000.0 11309700000.0 11309700000.0 11309700000.0 11309700000.0 11309700000.0 11309700000.0 11309700000.0 11309700000.0 11309700000.0 11309700000.0 11309700000.0 11309700000.0 11309700000.0 11309700000.0 11309700000.0 11309700000.0 11309700000.0 11309700000.0 11309700000.0 11309700000.0 11309700000.0 11309700000.0 11309700000.0 11309700000.0 11309700000.0 11309700000.0 11309700000.0 11309700000.0 11309700000.0 11309700000.0 11309700000.0 11309700000.0 11309700000.0 11309700000.0 11309700000.0 11309700000.0 11309700000.0 11309700000.0 11309700000.0 11309700000.0 11309700000.0 11309700000.0 11309700000.0 11309700000.0 11309700000.0 11309700000.0 11309700000.0 11309700000.0 11309700000.0 11309700000.0 11309700000.0 11309700000.0 11309700000.0 11309700000.0 11309700000.0 11309700000.0 11309700000.0 11309700000.0 11309700000.0 11309700000.0 11309700000.0 11309700000.0 11309700000.0 11309700000.0 11309700000.0 11309700000.0 11309700000.0 11309700000.0 11309700000.0 11309700000.0 11309700000.0 11309700000.0 11309700000.0 11309700000.0 11309700000.0 11309700000.0 11309700000.0 11309700000.0 11309700000.0 11309700000.0 11309700000.0 11309700000.0 11309700000.0 11309700000.0 11309700000.0 11309700000.0 11309700000.0 11309700000.0 11309700000.0 11309700000.0 11309700000.0 11309700000.0 11309700000.0 11309700000.0 11309700000.0 11309700000.0 11309700000.0 11309700000.0 11309700000.0 11309700000.0 11309700000.0 11309700000.0 11309700000.0 11309700000.0 11309700000.0 11309700000.0 11309700000.0 11309700000.0 11309700000.0 11309700000.0 11309700000.0 11309700000.0 11309700000.0 11309700000.0 11309700000.0 11309700000.0 11309700000.0 11309700000.0 11309700000.0 11309700000.0 11309700000.0 11309700000.0 11309700000.0 11309700000.0 11309700000.0 11309700000.0 11309700000.0 11309700000.0 11309700000.0 11309700000.0 11309700000.0 11309700000.0 11309700000.0 11309700000.0 11309700000.0 11309700000.0 11309700000.0 11309700000.0 11309700000.0 11309700000.0 11309700000.0 11309700000.0 11309700000.0 11309700000.0 11309700000.0 11309700000.0 11309700000.0 11309700000.0 11309700000.0 11309700000.0 11309700000.0 11309700000.0 11309700000.0 11309700000.0 11309700000.0 11309700000.0 11309700000.0 11309700000.0 11309700000.0 11309700000.0 11309700000.0 11309700000.0 11309700000.0 11309700000.0 11309700000.0 11309700000.0 11309700000.0 11309700000.0 11309700000.0 11309700000.0 11309700000.0 11309700000.0 11309700000.0 11309700000.0 11309700000.0 11309700000.0 11309700000.0 11309700000.0 11309700000.0 11309700000.0 11309700000.0 11309700000.0 11309700000.0 11309700000.0 11309700000.0 11309700000.0 11309700000.0 11309700000.0 11309700000.0 11309700000.0 11309700000.0 11309700000.0 11309700000.0 11309700000.0 11309700000.0 11309700000.0 11309700000.0 11309700000.0 11309700000.0 11309700000.0 11309700000.0 11309700000.0 11309700000.0 11309700000.0 11309700000.0 11309700000.0 11309700000.0 11309700000.0 11309700000.0 11309700000.0 11309700000.0 11309700000.0 11309700000.0 11309700000.0 11309700000.0 11309700000.0 11309700000.0 11309700000.0 11309700000.0 11309700000.0 11309700000.0 11309700000.0 11309700000.0 11309700000.0 11309700000.0 11309700000.0 11309700000.0 11309700000.0 11309700000.0 11309700000.0 11309700000.0 11309700000.0 11309700000.0 11309700000.0 11309700000.0 11309700000.0 11309700000.0 11309700000.0 11309700000.0 11309700000.0 11309700000.0 11309700000.0 11309700000.0 11309700000.0 11309700000.0 11309700000.0 11309700000.0 11309700000.0 11309700000.0 11309700000.0 11309700000.0 11309700000.0 11309700000.0 11309700000.0 11309700000.0 11309700000.0 11309700000.0 11309700000.0 11309700000.0 11309700000.0 11309700000.0 11309700000.0 11309700000.0 11309700000.0 11309700000.0 11309700000.0 11309700000.0 11309700000.0 11309700000.0 11309700000.0 11309700000.0 11309700000.0 11309700000.0 11309700000.0 11309700000.0 11309700000.0 11309700000.0 11309700000.0 11309700000.0 11309700000.0 11309700000.0 11309700000.0 11309700000.0 11309700000.0 11309700000.0 11309700000.0 11309700000.0 11309700000.0 11309700000.0 11309700000.0 11309700000.0 11309700000.0 11309700000.0 11309700000.0 11309700000.0 11309700000.0 11309700000.0 11309700000.0 11309700000.0 11309700000.0 11309700000.0 11309700000.0 11309700000.0 11309700000.0 11309700000.0 11309700000.0 11309700000.0 11309700000.0 11309700000.0 11309700000.0 11309700000.0 11309700000.0 11309700000.0 11309700000.0 11309700000.0 11309700000.0 11309700000.0 11309700000.0 11309700000.0 11309700000.0 11309700000.0 11309700000.0 11309700000.0 11309700000.0 11309700000.0 11309700000.0 11309700000.0 11309700000.0 11309700000.0 11309700000.0 11309700000.0 11309700000.0 11309700000.0 11309700000.0 11309700000.0 11309700000.0 11309700000.0 11309700000.0 11309700000.0 11309700000.0 11309700000.0 11309700000.0 11309700000.0 11309700000.0 11309700000.0 11309700000.0 11309700000.0 11309700000.0 11309700000.0 11309700000.0 11309700000.0 11309700000.0 11309700000.0 11309700000.0 11309700000.0 11309700000.0 11309700000.0 11309700000.0 11309700000.0 11309700000.0 11309700000.0 11309700000.0 11309700000.0 11309700000.0 11309700000.0 11309700000.0 11309700000.0 11309700000.0 11309700000.0 11309700000.0 11309700000.0 11309700000.0 11309700000.0 11309700000.0 11309700000.0 11309700000.0 11309700000.0 11309700000.0 11309700000.0 11309700000.0 11309700000.0 11309700000.0 11309700000.0 11309700000.0 11309700000.0 11309700000.0 11309700000.0 11309700000.0 11309700000.0 11309700000.0 11309700000.0 11309700000.0 11309700000.0 11309700000.0 11309700000.0 11309700000.0 11309700000.0 11309700000.0 11309700000.0 11309700000.0 11309700000.0 11309700000.0 11309700000.0 11309700000.0 11309700000.0 11309700000.0 11309700000.0 11309700000.0 11309700000.0 11309700000.0 11309700000.0 11309700000.0 11309700000.0 11309700000.0 11309700000.0 11309700000.0 11309700000.0 11309700000.0 11309700000.0 11309700000.0 11309700000.0 11309700000.0 11309700000.0 11309700000.0 11309700000.0 11309700000.0 11309700000.0 11309700000.0 11309700000.0 11309700000.0 11309700000.0 11309700000.0 11309700000.0 11309700000.0 11309700000.0 11309700000.0 11309700000.0 11309700000.0 11309700000.0 11309700000.0 11309700000.0 11309700000.0 11309700000.0 11309700000.0 11309700000.0 11309700000.0 11309700000.0 11309700000.0 11309700000.0 11309700000.0 11309700000.0 11309700000.0 11309700000.0 11309700000.0 11309700000.0 11309700000.0 11309700000.0 11309700000.0 11309700000.0 11309700000.0 11309700000.0 11309700000.0 11309700000.0 11309700000.0 11309700000.0 11309700000.0 11309700000.0 11309700000.0 11309700000.0 11309700000.0 11309700000.0 11309700000.0 11309700000.0 11309700000.0 11309700000.0 11309700000.0 11309700000.0 11309700000.0 11309700000.0 11309700000.0 11309700000.0 11309700000.0 11309700000.0 11309700000.0 11309700000.0 11309700000.0 11309700000.0 11309700000.0 11309700000.0 11309700000.0 11309700000.0 11309700000.0 11309700000.0 11309700000.0 11309700000.0 11309700000.0 11309700000.0 11309700000.0 11309700000.0 11309700000.0 11309700000.0 11309700000.0 11309700000.0 11309700000.0 11309700000.0 11309700000.0 11309700000.0 11309700000.0 11309700000.0 11309700000.0 11309700000.0 11309700000.0 11309700000.0 11309700000.0 11309700000.0 11309700000.0 11309700000.0 11309700000.0 11309700000.0 11309700000.0 11309700000.0 11309700000.0 11309700000.0 11309700000.0 11309700000.0 11309700000.0 11309700000.0 11309700000.0 11309700000.0 11309700000.0 11309700000.0 11309700000.0 11309700000.0 11309700000.0 11309700000.0 11309700000.0 11309700000.0 11309700000.0 11309700000.0 11309700000.0 11309700000.0 11309700000.0 11309700000.0 11309700000.0 11309700000.0 11309700000.0 11309700000.0 11309700000.0 11309700000.0 11309700000.0 11309700000.0 11309700000.0 11309700000.0 11309700000.0 11309700000.0 11309700000.0 11309700000.0 11309700000.0 11309700000.0 11309700000.0 11309700000.0 11309700000.0 11309700000.0 11309700000.0 11309700000.0 11309700000.0 11309700000.0 11309700000.0 11309700000.0 11309700000.0 11309700000.0 11309700000.0 11309700000.0 11309700000.0 11309700000.0 11309700000.0 11309700000.0 11309700000.0 11309700000.0 11309700000.0 11309700000.0 11309700000.0 11309700000.0 11309700000.0 11309700000.0 11309700000.0 11309700000.0 11309700000.0 11309700000.0 11309700000.0 11309700000.0 11309700000.0 11309700000.0 11309700000.0 11309700000.0 11309700000.0 11309700000.0 11309700000.0 11309700000.0 11309700000.0 11309700000.0 11309700000.0 11309700000.0 11309700000.0 11309700000.0 11309700000.0 11309700000.0 11309700000.0 11309700000.0 11309700000.0 11309700000.0 11309700000.0 11309700000.0 11309700000.0 11309700000.0 11309700000.0 11309700000.0 11309700000.0 11309700000.0 11309700000.0 11309700000.0 11309700000.0 11309700000.0 11309700000.0 11309700000.0 11309700000.0 11309700000.0 11309700000.0 11309700000.0 11309700000.0 11309700000.0 11309700000.0 11309700000.0 11309700000.0 11309700000.0 11309700000.0 11309700000.0 11309700000.0 11309700000.0 11309700000.0 11309700000.0 11309700000.0 11309700000.0 11309700000.0 11309700000.0 11309700000.0 11309700000.0 11309700000.0 11309700000.0 11309700000.0 11309700000.0 11309700000.0 11309700000.0 11309700000.0 11309700000.0 11309700000.0 11309700000.0 11309700000.0 11309700000.0 11309700000.0 11309700000.0 11309700000.0 11309700000.0 11309700000.0 11309700000.0 11309700000.0 11309700000.0 11309700000.0 11309700000.0 11309700000.0 11309700000.0 11309700000.0 11309700000.0 11309700000.0 11309700000.0 11309700000.0 11309700000.0 11309700000.0 11309700000.0 11309700000.0 11309700000.0 11309700000.0 11309700000.0 11309700000.0 11309700000.0 11309700000.0 11309700000.0 11309700000.0 11309700000.0 11309700000.0 11309700000.0 11309700000.0 11309700000.0 11309700000.0 11309700000.0 11309700000.0 11309700000.0 11309700000.0 11309700000.0 11309700000.0 11309700000.0 11309700000.0 11309700000.0 11309700000.0 11309700000.0 11309700000.0 11309700000.0 11309700000.0 11309700000.0 11309700000.0 11309700000.0 11309700000.0 11309700000.0 11309700000.0 11309700000.0 11309700000.0 11309700000.0 11309700000.0 11309700000.0 11309700000.0 11309700000.0 11309700000.0 11309700000.0 11309700000.0 11309700000.0 11309700000.0 11309700000.0 11309700000.0 11309700000.0 11309700000.0 11309700000.0 11309700000.0 11309700000.0 11309700000.0 11309700000.0 11309700000.0 11309700000.0 11309700000.0 11309700000.0 11309700000.0 11309700000.0 11309700000.0 11309700000.0 11309700000.0 11309700000.0 11309700000.0 11309700000.0 11309700000.0 11309700000.0 11309700000.0 11309700000.0 11309700000.0 11309700000.0 11309700000.0 11309700000.0 11309700000.0 11309700000.0 11309700000.0 11309700000.0 11309700000.0 11309700000.0 11309700000.0 11309700000.0 11309700000.0 11309700000.0 11309700000.0 11309700000.0 11309700000.0 11309700000.0 11309700000.0 11309700000.0 11309700000.0 11309700000.0 11309700000.0 11309700000.0 11309700000.0 11309700000.0 11309700000.0 11309700000.0 11309700000.0 11309700000.0 11309700000.0 11309700000.0 11309700000.0 11309700000.0 11309700000.0 11309700000.0 11309700000.0 11309700000.0 11309700000.0 11309700000.0 11309700000.0 11309700000.0 11309700000.0 11309700000.0 11309700000.0 11309700000.0 11309700000.0 11309700000.0 11309700000.0 11309700000.0 11309700000.0 11309700000.0 11309700000.0 11309700000.0 11309700000.0 11309700000.0 11309700000.0 11309700000.0 11309700000.0 11309700000.0 11309700000.0 11309700000.0 11309700000.0 11309700000.0 11309700000.0 11309700000.0 11309700000.0 11309700000.0 11309700000.0 11309700000.0 11309700000.0 11309700000.0 11309700000.0 11309700000.0 11309700000.0 11309700000.0 11309700000.0 11309700000.0 11309700000.0 11309700000.0 11309700000.0 11309700000.0 11309700000.0 11309700000.0 11309700000.0 11309700000.0 11309700000.0 11309700000.0 11309700000.0 11309700000.0 11309700000.0 11309700000.0 11309700000.0 11309700000.0 11309700000.0 11309700000.0 11309700000.0 11309700000.0 11309700000.0 11309700000.0 11309700000.0 11309700000.0 11309700000.0 11309700000.0 11309700000.0 11309700000.0 11309700000.0 11309700000.0 11309700000.0 11309700000.0 11309700000.0 11309700000.0 11309700000.0 11309700000.0 11309700000.0 11309700000.0 11309700000.0 11309700000.0 11309700000.0 11309700000.0 11309700000.0 11309700000.0 11309700000.0 11309700000.0 11309700000.0 11309700000.0 11309700000.0 11309700000.0 11309700000.0 11309700000.0 11309700000.0 11309700000.0 11309700000.0 11309700000.0 11309700000.0 11309700000.0 11309700000.0 11309700000.0 11309700000.0 11309700000.0 11309700000.0 11309700000.0 11309700000.0 11309700000.0 11309700000.0 11309700000.0 11309700000.0 11309700000.0 11309700000.0 11309700000.0 11309700000.0 11309700000.0 11309700000.0 11309700000.0 11309700000.0 11309700000.0 11309700000.0 11309700000.0 11309700000.0 11309700000.0 11309700000.0 11309700000.0 11309700000.0 11309700000.0 11309700000.0 11309700000.0 11309700000.0 11309700000.0 11309700000.0 11309700000.0 11309700000.0 11309700000.0 11309700000.0 11309700000.0 11309700000.0 11309700000.0 11309700000.0 11309700000.0 11309700000.0 11309700000.0 11309700000.0 11309700000.0 11309700000.0 11309700000.0 11309700000.0 11309700000.0 11309700000.0 11309700000.0 11309700000.0 11309700000.0 11309700000.0 11309700000.0 11309700000.0 11309700000.0 11309700000.0 11309700000.0 11309700000.0 11309700000.0 11309700000.0 11309700000.0 11309700000.0 11309700000.0 11309700000.0 11309700000.0 11309700000.0 11309700000.0 11309700000.0 11309700000.0 11309700000.0 11309700000.0 11309700000.0 11309700000.0 11309700000.0 11309700000.0 11309700000.0 11309700000.0 11309700000.0 11309700000.0 11309700000.0 11309700000.0 11309700000.0 11309700000.0 11309700000.0 11309700000.0 11309700000.0 11309700000.0 11309700000.0 11309700000.0 11309700000.0 11309700000.0 11309700000.0 11309700000.0 11309700000.0 11309700000.0 11309700000.0 11309700000.0 11309700000.0 11309700000.0 11309700000.0 11309700000.0 11309700000.0 11309700000.0 11309700000.0 11309700000.0 11309700000.0 11309700000.0 11309700000.0 11309700000.0 11309700000.0 11309700000.0 11309700000.0 11309700000.0 11309700000.0 11309700000.0 11309700000.0 11309700000.0 11309700000.0 11309700000.0 11309700000.0 11309700000.0 11309700000.0 11309700000.0 11309700000.0 11309700000.0 11309700000.0 11309700000.0 11309700000.0 11309700000.0 11309700000.0 11309700000.0 11309700000.0 11309700000.0 11309700000.0 11309700000.0 11309700000.0 11309700000.0 11309700000.0 11309700000.0 11309700000.0 11309700000.0 11309700000.0 11309700000.0 11309700000.0 11309700000.0 11309700000.0 11309700000.0 11309700000.0 11309700000.0 11309700000.0 11309700000.0 11309700000.0 11309700000.0 11309700000.0 11309700000.0 11309700000.0 11309700000.0 11309700000.0 11309700000.0 11309700000.0 11309700000.0 11309700000.0 11309700000.0 11309700000.0 11309700000.0 11309700000.0 11309700000.0 11309700000.0 11309700000.0 11309700000.0 11309700000.0 11309700000.0 11309700000.0 11309700000.0 11309700000.0 11309700000.0 11309700000.0 11309700000.0 11309700000.0 11309700000.0 11309700000.0 11309700000.0 11309700000.0 11309700000.0 11309700000.0 11309700000.0 11309700000.0 11309700000.0 11309700000.0 11309700000.0 11309700000.0 11309700000.0 11309700000.0 11309700000.0 11309700000.0 11309700000.0 11309700000.0 11309700000.0 11309700000.0 11309700000.0 11309700000.0 11309700000.0 11309700000.0 11309700000.0 11309700000.0 11309700000.0 11309700000.0 11309700000.0 11309700000.0 11309700000.0 11309700000.0 11309700000.0 11309700000.0 11309700000.0 11309700000.0 11309700000.0 11309700000.0 11309700000.0 11309700000.0 11309700000.0 11309700000.0 11309700000.0 11309700000.0 11309700000.0 11309700000.0 11309700000.0 11309700000.0 11309700000.0 11309700000.0 11309700000.0 11309700000.0 11309700000.0 11309700000.0 11309700000.0 11309700000.0 11309700000.0 11309700000.0 11309700000.0 11309700000.0 11309700000.0 11309700000.0 11309700000.0 11309700000.0 11309700000.0 11309700000.0 11309700000.0 11309700000.0 11309700000.0 11309700000.0 11309700000.0 11309700000.0 11309700000.0 11309700000.0 11309700000.0 11309700000.0 11309700000.0 11309700000.0 11309700000.0 11309700000.0 11309700000.0 11309700000.0 11309700000.0 11309700000.0 11309700000.0 11309700000.0 11309700000.0 11309700000.0 11309700000.0 11309700000.0 11309700000.0 11309700000.0 11309700000.0 11309700000.0 11309700000.0 11309700000.0 11309700000.0 11309700000.0 11309700000.0 11309700000.0 11309700000.0 11309700000.0 11309700000.0 11309700000.0 11309700000.0 11309700000.0 11309700000.0 11309700000.0 11309700000.0 11309700000.0 11309700000.0 11309700000.0 11309700000.0 11309700000.0 11309700000.0 11309700000.0 11309700000.0 11309700000.0 11309700000.0 11309700000.0 11309700000.0 11309700000.0 11309700000.0 11309700000.0 11309700000.0 11309700000.0 11309700000.0 11309700000.0 11309700000.0 11309700000.0 11309700000.0 11309700000.0 11309700000.0 11309700000.0 11309700000.0 11309700000.0 11309700000.0 11309700000.0 11309700000.0 11309700000.0 11309700000.0 11309700000.0 11309700000.0 11309700000.0 11309700000.0 11309700000.0 11309700000.0 11309700000.0 11309700000.0 11309700000.0 11309700000.0 11309700000.0 11309700000.0 11309700000.0 11309700000.0 11309700000.0 11309700000.0 11309700000.0 11309700000.0 11309700000.0 11309700000.0 11309700000.0 11309700000.0 11309700000.0 11309700000.0 11309700000.0 11309700000.0 11309700000.0 11309700000.0 11309700000.0 11309700000.0 11309700000.0 11309700000.0 11309700000.0 11309700000.0 11309700000.0 11309700000.0 11309700000.0 11309700000.0 11309700000.0 11309700000.0 11309700000.0 11309700000.0 11309700000.0 11309700000.0 11309700000.0 11309700000.0 11309700000.0 11309700000.0 11309700000.0 11309700000.0 11309700000.0 11309700000.0 11309700000.0 11309700000.0 11309700000.0 11309700000.0 11309700000.0 11309700000.0 11309700000.0 11309700000.0 11309700000.0 11309700000.0 11309700000.0 11309700000.0 11309700000.0 11309700000.0 11309700000.0 11309700000.0 11309700000.0 11309700000.0 11309700000.0 11309700000.0 11309700000.0 11309700000.0 11309700000.0 11309700000.0 11309700000.0 11309700000.0 11309700000.0 11309700000.0 11309700000.0 11309700000.0 11309700000.0 11309700000.0 11309700000.0 11309700000.0 11309700000.0 11309700000.0 11309700000.0 11309700000.0 11309700000.0 11309700000.0 11309700000.0 11309700000.0 11309700000.0 11309700000.0 11309700000.0 11309700000.0 11309700000.0 11309700000.0 11309700000.0 11309700000.0 11309700000.0 11309700000.0 11309700000.0 11309700000.0 11309700000.0 11309700000.0 11309700000.0 11309700000.0 11309700000.0 11309700000.0 11309700000.0 11309700000.0 11309700000.0 11309700000.0 11309700000.0 11309700000.0 11309700000.0 11309700000.0 11309700000.0 11309700000.0 11309700000.0 11309700000.0 11309700000.0 11309700000.0 11309700000.0 11309700000.0 11309700000.0 11309700000.0 11309700000.0 11309700000.0 11309700000.0 11309700000.0 11309700000.0 11309700000.0 11309700000.0 11309700000.0 11309700000.0 11309700000.0 11309700000.0 11309700000.0 11309700000.0 11309700000.0 11309700000.0 11309700000.0 11309700000.0 11309700000.0 11309700000.0 11309700000.0 11309700000.0 11309700000.0 11309700000.0 11309700000.0 11309700000.0 11309700000.0 11309700000.0 11309700000.0 11309700000.0 11309700000.0 11309700000.0 11309700000.0 11309700000.0 11309700000.0 11309700000.0 11309700000.0 11309700000.0 11309700000.0 11309700000.0 11309700000.0 11309700000.0 11309700000.0 11309700000.0 11309700000.0 11309700000.0 11309700000.0 11309700000.0 11309700000.0 11309700000.0 11309700000.0 11309700000.0 11309700000.0 11309700000.0 11309700000.0 11309700000.0 11309700000.0 11309700000.0 11309700000.0 11309700000.0 11309700000.0 11309700000.0 11309700000.0 11309700000.0 11309700000.0 11309700000.0 11309700000.0 11309700000.0 11309700000.0 11309700000.0 11309700000.0 11309700000.0 11309700000.0 11309700000.0 11309700000.0 11309700000.0 11309700000.0 11309700000.0 11309700000.0 11309700000.0 11309700000.0 11309700000.0 11309700000.0 11309700000.0 11309700000.0 11309700000.0 11309700000.0 11309700000.0 11309700000.0 11309700000.0 11309700000.0 11309700000.0 11309700000.0 11309700000.0 11309700000.0 11309700000.0 11309700000.0 11309700000.0 11309700000.0 11309700000.0 11309700000.0 11309700000.0 11309700000.0 11309700000.0 11309700000.0 11309700000.0 11309700000.0 11309700000.0 11309700000.0 11309700000.0 11309700000.0 11309700000.0 11309700000.0 11309700000.0 11309700000.0 11309700000.0 11309700000.0 11309700000.0 11309700000.0 11309700000.0 11309700000.0 11309700000.0 11309700000.0 11309700000.0 11309700000.0 11309700000.0 11309700000.0 11309700000.0 11309700000.0 11309700000.0 11309700000.0 11309700000.0 11309700000.0 11309700000.0 11309700000.0 11309700000.0 11309700000.0 11309700000.0 11309700000.0 11309700000.0 11309700000.0 11309700000.0 11309700000.0 11309700000.0 11309700000.0 11309700000.0 11309700000.0 11309700000.0 11309700000.0 11309700000.0 11309700000.0 11309700000.0 11309700000.0 11309700000.0 11309700000.0 11309700000.0 11309700000.0 11309700000.0 11309700000.0 11309700000.0 11309700000.0 11309700000.0 11309700000.0 11309700000.0 11309700000.0 11309700000.0 11309700000.0 11309700000.0 11309700000.0 11309700000.0 11309700000.0 11309700000.0 11309700000.0 11309700000.0 11309700000.0 11309700000.0 11309700000.0 11309700000.0 11309700000.0 11309700000.0 11309700000.0 11309700000.0 11309700000.0 11309700000.0 11309700000.0 11309700000.0 11309700000.0 11309700000.0 11309700000.0 11309700000.0 11309700000.0 11309700000.0 11309700000.0 11309700000.0 11309700000.0 11309700000.0 11309700000.0 11309700000.0 11309700000.0 11309700000.0 11309700000.0 11309700000.0 11309700000.0 11309700000.0 11309700000.0 11309700000.0 11309700000.0 11309700000.0 11309700000.0 11309700000.0 11309700000.0 11309700000.0 11309700000.0 11309700000.0 11309700000.0 11309700000.0 11309700000.0 11309700000.0 11309700000.0 11309700000.0 11309700000.0 11309700000.0 11309700000.0 11309700000.0 11309700000.0 11309700000.0 11309700000.0 11309700000.0 11309700000.0 11309700000.0 11309700000.0 11309700000.0 11309700000.0 11309700000.0 11309700000.0 11309700000.0 11309700000.0 11309700000.0 11309700000.0 11309700000.0 11309700000.0 11309700000.0 11309700000.0 11309700000.0 11309700000.0 11309700000.0 11309700000.0 11309700000.0 11309700000.0 11309700000.0 11309700000.0 11309700000.0 11309700000.0 11309700000.0 11309700000.0 11309700000.0 11309700000.0 11309700000.0 11309700000.0 11309700000.0 11309700000.0 11309700000.0 11309700000.0 11309700000.0 11309700000.0 11309700000.0 11309700000.0 11309700000.0 11309700000.0 11309700000.0 11309700000.0 11309700000.0 11309700000.0 11309700000.0 11309700000.0 11309700000.0 11309700000.0 11309700000.0 11309700000.0 11309700000.0 11309700000.0 11309700000.0 11309700000.0 11309700000.0 11309700000.0 11309700000.0 11309700000.0 11309700000.0 11309700000.0 11309700000.0 11309700000.0 11309700000.0 11309700000.0 11309700000.0 11309700000.0 11309700000.0 11309700000.0 11309700000.0 11309700000.0 11309700000.0 11309700000.0 11309700000.0 11309700000.0 11309700000.0 11309700000.0 11309700000.0 11309700000.0 11309700000.0 11309700000.0 11309700000.0 11309700000.0 11309700000.0 11309700000.0 11309700000.0 11309700000.0 11309700000.0 11309700000.0 11309700000.0 11309700000.0 11309700000.0 11309700000.0 11309700000.0 11309700000.0 11309700000.0 11309700000.0 11309700000.0 11309700000.0 11309700000.0 11309700000.0 11309700000.0 11309700000.0 11309700000.0 11309700000.0 11309700000.0 11309700000.0 11309700000.0 11309700000.0 11309700000.0 11309700000.0 11309700000.0 11309700000.0 11309700000.0 11309700000.0 11309700000.0 11309700000.0 11309700000.0 11309700000.0 11309700000.0 11309700000.0 11309700000.0 11309700000.0 11309700000.0 11309700000.0 11309700000.0 11309700000.0 11309700000.0 11309700000.0 11309700000.0 11309700000.0 11309700000.0 11309700000.0 11309700000.0 11309700000.0 11309700000.0 11309700000.0 11309700000.0 11309700000.0 11309700000.0 11309700000.0 11309700000.0 11309700000.0 11309700000.0 11309700000.0 11309700000.0 11309700000.0 11309700000.0 11309700000.0 11309700000.0 11309700000.0 11309700000.0 11309700000.0 11309700000.0 11309700000.0 11309700000.0 11309700000.0 11309700000.0 11309700000.0 11309700000.0 11309700000.0 11309700000.0 11309700000.0 11309700000.0 11309700000.0 11309700000.0 11309700000.0 11309700000.0 11309700000.0 11309700000.0 11309700000.0 11309700000.0 11309700000.0 11309700000.0 11309700000.0 11309700000.0 11309700000.0 11309700000.0 11309700000.0 11309700000.0 11309700000.0 11309700000.0 11309700000.0 11309700000.0 11309700000.0 11309700000.0 11309700000.0 11309700000.0 11309700000.0 11309700000.0 11309700000.0 11309700000.0 11309700000.0 11309700000.0 11309700000.0 11309700000.0 11309700000.0 11309700000.0 11309700000.0 11309700000.0 11309700000.0 11309700000.0 11309700000.0 11309700000.0 11309700000.0 11309700000.0 11309700000.0 11309700000.0 11309700000.0 11309700000.0 11309700000.0 11309700000.0 11309700000.0 11309700000.0 11309700000.0 11309700000.0 11309700000.0 11309700000.0 11309700000.0 11309700000.0 11309700000.0 11309700000.0 11309700000.0 11309700000.0 11309700000.0 11309700000.0 11309700000.0 11309700000.0 11309700000.0 11309700000.0 11309700000.0 11309700000.0 11309700000.0 11309700000.0 11309700000.0 11309700000.0 11309700000.0 11309700000.0 11309700000.0 11309700000.0 11309700000.0 11309700000.0 11309700000.0 11309700000.0 11309700000.0 11309700000.0 11309700000.0 11309700000.0 11309700000.0 11309700000.0 11309700000.0 11309700000.0 11309700000.0 11309700000.0 11309700000.0 11309700000.0 11309700000.0 11309700000.0 11309700000.0 11309700000.0 11309700000.0 11309700000.0 11309700000.0 11309700000.0 11309700000.0 11309700000.0 11309700000.0 11309700000.0 11309700000.0 11309700000.0 11309700000.0 11309700000.0 11309700000.0 11309700000.0 11309700000.0 11309700000.0 11309700000.0 11309700000.0 11309700000.0 11309700000.0 11309700000.0 11309700000.0 11309700000.0 11309700000.0 11309700000.0 11309700000.0 11309700000.0 11309700000.0 11309700000.0 11309700000.0 11309700000.0 11309700000.0 11309700000.0 11309700000.0 11309700000.0 11309700000.0 11309700000.0 11309700000.0 11309700000.0 11309700000.0 11309700000.0 11309700000.0 11309700000.0 11309700000.0 11309700000.0 11309700000.0 11309700000.0 11309700000.0 11309700000.0 11309700000.0 11309700000.0 11309700000.0 11309700000.0 11309700000.0 11309700000.0 11309700000.0 11309700000.0 11309700000.0 11309700000.0 11309700000.0 11309700000.0 11309700000.0 11309700000.0 11309700000.0 11309700000.0 11309700000.0 11309700000.0 11309700000.0 11309700000.0 11309700000.0 11309700000.0 11309700000.0 11309700000.0 11309700000.0 11309700000.0 11309700000.0 11309700000.0 11309700000.0 11309700000.0 11309700000.0 11309700000.0 11309700000.0 11309700000.0 11309700000.0 11309700000.0 11309700000.0 11309700000.0 11309700000.0 11309700000.0 11309700000.0 11309700000.0 11309700000.0 11309700000.0 11309700000.0 11309700000.0 11309700000.0 11309700000.0 11309700000.0 11309700000.0 11309700000.0 11309700000.0 11309700000.0 11309700000.0 11309700000.0 11309700000.0 11309700000.0 11309700000.0 11309700000.0 11309700000.0 11309700000.0 11309700000.0 11309700000.0 11309700000.0 11309700000.0 11309700000.0 11309700000.0 11309700000.0 11309700000.0 11309700000.0 11309700000.0 11309700000.0 11309700000.0 11309700000.0 11309700000.0 11309700000.0 11309700000.0 11309700000.0 11309700000.0 11309700000.0 11309700000.0 11309700000.0 11309700000.0 11309700000.0 11309700000.0 11309700000.0 11309700000.0 11309700000.0 11309700000.0 11309700000.0 11309700000.0 11309700000.0 11309700000.0 11309700000.0 11309700000.0 11309700000.0 11309700000.0 11309700000.0 11309700000.0 11309700000.0 11309700000.0 11309700000.0 11309700000.0 11309700000.0 11309700000.0 11309700000.0 11309700000.0 11309700000.0 11309700000.0 11309700000.0 11309700000.0 11309700000.0 11309700000.0 11309700000.0 11309700000.0 11309700000.0 11309700000.0 11309700000.0 11309700000.0 11309700000.0 11309700000.0 11309700000.0 11309700000.0 11309700000.0 11309700000.0 11309700000.0 11309700000.0 11309700000.0 11309700000.0 11309700000.0 11309700000.0 11309700000.0 11309700000.0 11309700000.0 11309700000.0 11309700000.0 11309700000.0 11309700000.0 11309700000.0 11309700000.0 11309700000.0 11309700000.0 11309700000.0 11309700000.0 11309700000.0 11309700000.0 11309700000.0 11309700000.0 11309700000.0 11309700000.0 11309700000.0 11309700000.0 11309700000.0 11309700000.0 11309700000.0 11309700000.0 11309700000.0 11309700000.0 11309700000.0 11309700000.0 11309700000.0 11309700000.0 11309700000.0 11309700000.0 11309700000.0 11309700000.0 11309700000.0 11309700000.0 11309700000.0 11309700000.0 11309700000.0 11309700000.0 11309700000.0 11309700000.0 11309700000.0 11309700000.0 11309700000.0 11309700000.0 11309700000.0 11309700000.0 11309700000.0 11309700000.0 11309700000.0 11309700000.0 11309700000.0 11309700000.0 11309700000.0 11309700000.0 11309700000.0 11309700000.0 11309700000.0 11309700000.0 11309700000.0 11309700000.0 11309700000.0 11309700000.0 11309700000.0 11309700000.0 11309700000.0 11309700000.0 11309700000.0 11309700000.0 11309700000.0 11309700000.0 11309700000.0 11309700000.0 11309700000.0 11309700000.0 11309700000.0 11309700000.0 11309700000.0 11309700000.0 11309700000.0 11309700000.0 11309700000.0 11309700000.0 11309700000.0 11309700000.0 11309700000.0 11309700000.0 11309700000.0 11309700000.0 11309700000.0 11309700000.0 11309700000.0 11309700000.0 11309700000.0 11309700000.0 11309700000.0 11309700000.0 11309700000.0 11309700000.0 11309700000.0 11309700000.0 11309700000.0 11309700000.0 11309700000.0 11309700000.0 11309700000.0 11309700000.0 11309700000.0 11309700000.0 11309700000.0 11309700000.0 11309700000.0 11309700000.0 11309700000.0 11309700000.0 11309700000.0 11309700000.0 11309700000.0 11309700000.0 11309700000.0 11309700000.0 11309700000.0 11309700000.0 11309700000.0 11309700000.0 11309700000.0 11309700000.0 11309700000.0 11309700000.0 11309700000.0 11309700000.0 11309700000.0 11309700000.0 11309700000.0 11309700000.0 11309700000.0 11309700000.0 11309700000.0 11309700000.0 11309700000.0 11309700000.0 11309700000.0 11309700000.0 11309700000.0 11309700000.0 11309700000.0 11309700000.0 11309700000.0 11309700000.0 11309700000.0 11309700000.0 11309700000.0 11309700000.0 11309700000.0 11309700000.0 11309700000.0 11309700000.0 11309700000.0 11309700000.0 11309700000.0 11309700000.0 11309700000.0 11309700000.0 11309700000.0 11309700000.0 11309700000.0 11309700000.0 11309700000.0 11309700000.0 11309700000.0 11309700000.0 11309700000.0 11309700000.0 11309700000.0 11309700000.0 11309700000.0 11309700000.0 11309700000.0 11309700000.0 11309700000.0 11309700000.0 11309700000.0 11309700000.0 11309700000.0 11309700000.0 11309700000.0 11309700000.0 11309700000.0 11309700000.0 11309700000.0 11309700000.0 11309700000.0 11309700000.0 11309700000.0 11309700000.0 11309700000.0 11309700000.0 11309700000.0 11309700000.0 11309700000.0 11309700000.0 11309700000.0 11309700000.0 11309700000.0 11309700000.0 11309700000.0 11309700000.0 11309700000.0 11309700000.0 11309700000.0 11309700000.0 11309700000.0 11309700000.0 11309700000.0 11309700000.0 11309700000.0 11309700000.0 11309700000.0 11309700000.0 11309700000.0 11309700000.0 11309700000.0 11309700000.0 11309700000.0 11309700000.0 11309700000.0 11309700000.0 11309700000.0 11309700000.0 11309700000.0 11309700000.0 11309700000.0 11309700000.0 11309700000.0 11309700000.0 11309700000.0 11309700000.0 11309700000.0 11309700000.0 11309700000.0 11309700000.0 11309700000.0 11309700000.0 11309700000.0 11309700000.0 11309700000.0 11309700000.0 11309700000.0 11309700000.0 11309700000.0 11309700000.0 11309700000.0 11309700000.0 11309700000.0 11309700000.0 11309700000.0 11309700000.0 11309700000.0 11309700000.0 11309700000.0 11309700000.0 11309700000.0 11309700000.0 11309700000.0 11309700000.0 11309700000.0 11309700000.0 11309700000.0 11309700000.0 11309700000.0 11309700000.0 11309700000.0 11309700000.0 11309700000.0 11309700000.0 11309700000.0 11309700000.0 11309700000.0 11309700000.0 11309700000.0 11309700000.0 11309700000.0 11309700000.0 11309700000.0 11309700000.0 11309700000.0 11309700000.0 11309700000.0 11309700000.0 11309700000.0 11309700000.0 11309700000.0 11309700000.0 11309700000.0 11309700000.0 11309700000.0 11309700000.0 11309700000.0 11309700000.0 11309700000.0 11309700000.0 11309700000.0 11309700000.0 11309700000.0 11309700000.0 11309700000.0 11309700000.0 11309700000.0 11309700000.0 11309700000.0 11309700000.0 11309700000.0 11309700000.0 11309700000.0 11309700000.0 11309700000.0 11309700000.0 11309700000.0 11309700000.0 11309700000.0 11309700000.0 11309700000.0 11309700000.0 11309700000.0 11309700000.0 11309700000.0 11309700000.0 11309700000.0 11309700000.0 11309700000.0 11309700000.0 11309700000.0 11309700000.0 11309700000.0 11309700000.0 11309700000.0 11309700000.0 11309700000.0 11309700000.0 11309700000.0 11309700000.0 11309700000.0 11309700000.0 11309700000.0 11309700000.0 11309700000.0 11309700000.0 11309700000.0 11309700000.0 11309700000.0 11309700000.0 11309700000.0 11309700000.0 11309700000.0 11309700000.0 11309700000.0 11309700000.0 11309700000.0 11309700000.0 11309700000.0 11309700000.0 11309700000.0 11309700000.0 11309700000.0 11309700000.0 11309700000.0 11309700000.0 11309700000.0 11309700000.0 11309700000.0 11309700000.0 11309700000.0 11309700000.0 11309700000.0 11309700000.0 11309700000.0 11309700000.0 11309700000.0 11309700000.0 11309700000.0 11309700000.0 11309700000.0 11309700000.0 11309700000.0 11309700000.0 11309700000.0 11309700000.0 11309700000.0 11309700000.0 11309700000.0 11309700000.0 11309700000.0 11309700000.0 11309700000.0 11309700000.0 11309700000.0 11309700000.0 11309700000.0 11309700000.0 11309700000.0 11309700000.0 11309700000.0 11309700000.0 11309700000.0 11309700000.0 11309700000.0 11309700000.0 11309700000.0 11309700000.0 11309700000.0 11309700000.0 11309700000.0 11309700000.0 11309700000.0 11309700000.0 11309700000.0 11309700000.0 11309700000.0 11309700000.0 11309700000.0 11309700000.0 11309700000.0 11309700000.0 11309700000.0 11309700000.0 11309700000.0 11309700000.0 11309700000.0 11309700000.0 11309700000.0 11309700000.0 11309700000.0 11309700000.0 11309700000.0 11309700000.0 11309700000.0 11309700000.0 11309700000.0 11309700000.0 11309700000.0 11309700000.0 11309700000.0 11309700000.0 11309700000.0 11309700000.0 11309700000.0 11309700000.0 11309700000.0 11309700000.0 11309700000.0 11309700000.0 11309700000.0 11309700000.0 11309700000.0 11309700000.0 11309700000.0 11309700000.0 11309700000.0 11309700000.0 11309700000.0 11309700000.0 11309700000.0 11309700000.0 11309700000.0 11309700000.0 11309700000.0 11309700000.0 11309700000.0 11309700000.0 11309700000.0 11309700000.0 11309700000.0 11309700000.0 11309700000.0 11309700000.0 11309700000.0 11309700000.0 11309700000.0 11309700000.0 11309700000.0 11309700000.0 11309700000.0 11309700000.0 11309700000.0 11309700000.0 11309700000.0 11309700000.0 11309700000.0 11309700000.0 11309700000.0 11309700000.0 11309700000.0 11309700000.0 11309700000.0 11309700000.0 11309700000.0 11309700000.0 11309700000.0 11309700000.0 11309700000.0 11309700000.0 11309700000.0 11309700000.0 11309700000.0 11309700000.0 11309700000.0 11309700000.0 11309700000.0 11309700000.0 11309700000.0 11309700000.0 11309700000.0 11309700000.0 11309700000.0 11309700000.0 11309700000.0 11309700000.0 11309700000.0 11309700000.0 11309700000.0 11309700000.0 11309700000.0 11309700000.0 11309700000.0 11309700000.0 11309700000.0 11309700000.0 11309700000.0 11309700000.0 11309700000.0 11309700000.0 11309700000.0 11309700000.0 11309700000.0 11309700000.0 11309700000.0 11309700000.0 11309700000.0 11309700000.0 11309700000.0 11309700000.0 11309700000.0 11309700000.0 11309700000.0 11309700000.0 11309700000.0 11309700000.0 11309700000.0 11309700000.0 11309700000.0 11309700000.0 11309700000.0 11309700000.0 11309700000.0 11309700000.0 11309700000.0 11309700000.0 11309700000.0 11309700000.0 11309700000.0 11309700000.0 11309700000.0 11309700000.0 11309700000.0 11309700000.0 11309700000.0 11309700000.0 11309700000.0 11309700000.0 11309700000.0 11309700000.0 11309700000.0 11309700000.0 11309700000.0 11309700000.0 11309700000.0 11309700000.0 11309700000.0 11309700000.0 11309700000.0 11309700000.0 11309700000.0 11309700000.0 11309700000.0 11309700000.0 11309700000.0 11309700000.0 11309700000.0 11309700000.0 11309700000.0 11309700000.0 11309700000.0 11309700000.0 11309700000.0 11309700000.0 11309700000.0 11309700000.0 11309700000.0 11309700000.0 11309700000.0 11309700000.0 11309700000.0 11309700000.0 11309700000.0 11309700000.0 11309700000.0 11309700000.0 11309700000.0 11309700000.0 11309700000.0 11309700000.0 11309700000.0 11309700000.0 11309700000.0 11309700000.0 11309700000.0 11309700000.0 11309700000.0 11309700000.0 11309700000.0 11309700000.0 11309700000.0 11309700000.0 11309700000.0 11309700000.0 11309700000.0 11309700000.0 11309700000.0 11309700000.0 11309700000.0 11309700000.0 11309700000.0 11309700000.0 11309700000.0 11309700000.0 11309700000.0 11309700000.0 11309700000.0 11309700000.0 11309700000.0 11309700000.0 11309700000.0 11309700000.0 11309700000.0 11309700000.0 11309700000.0 11309700000.0 11309700000.0 11309700000.0 11309700000.0 11309700000.0 11309700000.0 11309700000.0 11309700000.0 11309700000.0 11309700000.0 11309700000.0 11309700000.0 11309700000.0 11309700000.0 11309700000.0 11309700000.0 11309700000.0 11309700000.0 11309700000.0 11309700000.0 11309700000.0 11309700000.0 11309700000.0 11309700000.0 11309700000.0 11309700000.0 11309700000.0 11309700000.0 11309700000.0 11309700000.0 11309700000.0 11309700000.0 11309700000.0 11309700000.0 11309700000.0 11309700000.0 11309700000.0 11309700000.0 11309700000.0 11309700000.0 11309700000.0 11309700000.0 11309700000.0 11309700000.0 11309700000.0 11309700000.0 11309700000.0 11309700000.0 11309700000.0 11309700000.0 11309700000.0 11309700000.0 11309700000.0 11309700000.0 11309700000.0 11309700000.0 11309700000.0 11309700000.0 11309700000.0 11309700000.0 11309700000.0 11309700000.0 11309700000.0 11309700000.0 11309700000.0 11309700000.0 11309700000.0 11309700000.0 11309700000.0 11309700000.0 11309700000.0 11309700000.0 11309700000.0 11309700000.0 11309700000.0 11309700000.0 11309700000.0 11309700000.0 11309700000.0 11309700000.0 11309700000.0 11309700000.0 11309700000.0 11309700000.0 11309700000.0 11309700000.0 11309700000.0 11309700000.0 11309700000.0 11309700000.0 11309700000.0 11309700000.0 11309700000.0 11309700000.0 11309700000.0 11309700000.0 11309700000.0 11309700000.0 11309700000.0 11309700000.0 11309700000.0 11309700000.0 11309700000.0 11309700000.0 11309700000.0 11309700000.0 11309700000.0 11309700000.0 11309700000.0 11309700000.0 11309700000.0 11309700000.0 11309700000.0 11309700000.0 11309700000.0 11309700000.0 11309700000.0 11309700000.0 11309700000.0 11309700000.0 11309700000.0 11309700000.0 11309700000.0 11309700000.0 11309700000.0 11309700000.0 11309700000.0 11309700000.0 11309700000.0 11309700000.0 11309700000.0 11309700000.0 11309700000.0 11309700000.0 11309700000.0 11309700000.0 11309700000.0 11309700000.0 11309700000.0 11309700000.0 11309700000.0 11309700000.0 11309700000.0 11309700000.0 11309700000.0 11309700000.0 11309700000.0 11309700000.0 11309700000.0 11309700000.0 11309700000.0 11309700000.0 11309700000.0 11309700000.0 11309700000.0 11309700000.0 11309700000.0 11309700000.0 11309700000.0 11309700000.0 11309700000.0 11309700000.0 11309700000.0 11309700000.0 11309700000.0 11309700000.0 11309700000.0 11309700000.0 11309700000.0 11309700000.0 11309700000.0 11309700000.0 11309700000.0 11309700000.0 11309700000.0 11309700000.0 11309700000.0 11309700000.0 11309700000.0 11309700000.0 11309700000.0 11309700000.0 11309700000.0 11309700000.0 11309700000.0 11309700000.0 11309700000.0 11309700000.0 11309700000.0 11309700000.0 11309700000.0 11309700000.0 11309700000.0 11309700000.0 11309700000.0 11309700000.0 11309700000.0 11309700000.0 11309700000.0 11309700000.0 11309700000.0 11309700000.0 11309700000.0 11309700000.0 11309700000.0 11309700000.0 11309700000.0 11309700000.0 11309700000.0 11309700000.0 11309700000.0 11309700000.0 11309700000.0 11309700000.0 11309700000.0 11309700000.0 11309700000.0 11309700000.0 11309700000.0 11309700000.0 11309700000.0 11309700000.0 11309700000.0 11309700000.0 11309700000.0 11309700000.0 11309700000.0 11309700000.0 11309700000.0 11309700000.0 11309700000.0 11309700000.0 11309700000.0 11309700000.0 11309700000.0 11309700000.0 11309700000.0 11309700000.0 11309700000.0 11309700000.0 11309700000.0 11309700000.0 11309700000.0 11309700000.0 11309700000.0 11309700000.0 11309700000.0 11309700000.0 11309700000.0 11309700000.0 11309700000.0 11309700000.0 11309700000.0 11309700000.0 11309700000.0 11309700000.0 11309700000.0 11309700000.0 11309700000.0 11309700000.0 11309700000.0 11309700000.0 11309700000.0 11309700000.0 11309700000.0 11309700000.0 11309700000.0 11309700000.0 11309700000.0 11309700000.0 11309700000.0 11309700000.0 11309700000.0 11309700000.0 11309700000.0 11309700000.0 11309700000.0 11309700000.0 11309700000.0 11309700000.0 11309700000.0 11309700000.0 11309700000.0 11309700000.0 11309700000.0 11309700000.0 11309700000.0 11309700000.0 11309700000.0 11309700000.0 11309700000.0 11309700000.0 11309700000.0 11309700000.0 11309700000.0 11309700000.0 11309700000.0 11309700000.0 11309700000.0 11309700000.0 11309700000.0 11309700000.0 11309700000.0 11309700000.0 11309700000.0 11309700000.0 11309700000.0 11309700000.0 11309700000.0 11309700000.0 11309700000.0 11309700000.0 11309700000.0 11309700000.0 11309700000.0 11309700000.0 11309700000.0 11309700000.0 11309700000.0 11309700000.0 11309700000.0 11309700000.0 11309700000.0 11309700000.0 11309700000.0 11309700000.0 11309700000.0 11309700000.0 11309700000.0 11309700000.0 11309700000.0 11309700000.0 11309700000.0 11309700000.0 11309700000.0 11309700000.0 11309700000.0 11309700000.0 11309700000.0 11309700000.0 11309700000.0 11309700000.0 11309700000.0 11309700000.0 11309700000.0 11309700000.0 11309700000.0 11309700000.0 11309700000.0 11309700000.0 11309700000.0 11309700000.0 11309700000.0 11309700000.0 11309700000.0 11309700000.0 11309700000.0 11309700000.0 11309700000.0 11309700000.0 11309700000.0 11309700000.0 11309700000.0 11309700000.0 11309700000.0 11309700000.0 11309700000.0 11309700000.0 11309700000.0 11309700000.0 11309700000.0 11309700000.0 11309700000.0 11309700000.0 11309700000.0 11309700000.0 11309700000.0 11309700000.0 11309700000.0 11309700000.0 11309700000.0 11309700000.0 11309700000.0 11309700000.0 11309700000.0 11309700000.0 11309700000.0 11309700000.0 11309700000.0 11309700000.0 11309700000.0 11309700000.0 11309700000.0 11309700000.0 11309700000.0 11309700000.0 11309700000.0 11309700000.0 11309700000.0 11309700000.0 11309700000.0 11309700000.0 11309700000.0 11309700000.0 11309700000.0 11309700000.0 11309700000.0 11309700000.0 11309700000.0 11309700000.0 11309700000.0 11309700000.0 11309700000.0 11309700000.0 11309700000.0 11309700000.0 11309700000.0 11309700000.0 11309700000.0 11309700000.0 11309700000.0 11309700000.0 11309700000.0 11309700000.0 11309700000.0 11309700000.0 11309700000.0 11309700000.0 11309700000.0 11309700000.0 11309700000.0 11309700000.0 11309700000.0 11309700000.0 11309700000.0 11309700000.0 11309700000.0 11309700000.0 11309700000.0 11309700000.0 11309700000.0 11309700000.0 11309700000.0 11309700000.0 11309700000.0 11309700000.0 11309700000.0 11309700000.0 11309700000.0 11309700000.0 11309700000.0 11309700000.0 11309700000.0 11309700000.0 11309700000.0 11309700000.0 11309700000.0 11309700000.0 11309700000.0 11309700000.0 11309700000.0 11309700000.0 11309700000.0 11309700000.0 11309700000.0 11309700000.0 11309700000.0 11309700000.0 11309700000.0 11309700000.0 11309700000.0 11309700000.0 11309700000.0 11309700000.0 11309700000.0 11309700000.0 11309700000.0 11309700000.0 11309700000.0 11309700000.0 11309700000.0 11309700000.0 11309700000.0 11309700000.0 11309700000.0 11309700000.0 11309700000.0 11309700000.0 11309700000.0 11309700000.0 11309700000.0 11309700000.0 11309700000.0 11309700000.0 11309700000.0 11309700000.0 11309700000.0 11309700000.0 11309700000.0 11309700000.0 11309700000.0 11309700000.0 11309700000.0 11309700000.0 11309700000.0 11309700000.0 11309700000.0 11309700000.0 11309700000.0 11309700000.0 11309700000.0 11309700000.0 11309700000.0 11309700000.0 11309700000.0 11309700000.0 11309700000.0 11309700000.0 11309700000.0 11309700000.0 11309700000.0 11309700000.0 11309700000.0 11309700000.0 11309700000.0 11309700000.0 11309700000.0 11309700000.0 11309700000.0 11309700000.0 11309700000.0 11309700000.0 11309700000.0 11309700000.0 11309700000.0 11309700000.0 11309700000.0 11309700000.0 11309700000.0 11309700000.0 11309700000.0 11309700000.0 11309700000.0 11309700000.0 11309700000.0 11309700000.0 11309700000.0 11309700000.0 11309700000.0 11309700000.0 11309700000.0 11309700000.0 11309700000.0 11309700000.0 11309700000.0 11309700000.0 11309700000.0 11309700000.0 11309700000.0 11309700000.0 11309700000.0 11309700000.0 11309700000.0 11309700000.0 11309700000.0 11309700000.0 11309700000.0 11309700000.0 11309700000.0 11309700000.0 11309700000.0 11309700000.0 11309700000.0 11309700000.0 11309700000.0 11309700000.0 11309700000.0 11309700000.0 11309700000.0 11309700000.0 11309700000.0 11309700000.0 11309700000.0 11309700000.0 11309700000.0 11309700000.0 11309700000.0 11309700000.0 11309700000.0 11309700000.0 11309700000.0 11309700000.0 11309700000.0 11309700000.0 11309700000.0 11309700000.0 11309700000.0 11309700000.0 11309700000.0 11309700000.0 11309700000.0 11309700000.0 11309700000.0 11309700000.0 11309700000.0 11309700000.0 11309700000.0 11309700000.0 11309700000.0 11309700000.0 11309700000.0 11309700000.0 11309700000.0 11309700000.0 11309700000.0 11309700000.0 11309700000.0 11309700000.0 11309700000.0 11309700000.0 11309700000.0 11309700000.0 11309700000.0 11309700000.0 11309700000.0 11309700000.0 11309700000.0 11309700000.0 11309700000.0 11309700000.0 11309700000.0 11309700000.0 11309700000.0 11309700000.0 11309700000.0 11309700000.0 11309700000.0 11309700000.0 11309700000.0 11309700000.0 11309700000.0 11309700000.0 11309700000.0 11309700000.0 11309700000.0 11309700000.0 11309700000.0 11309700000.0 11309700000.0 11309700000.0 11309700000.0 11309700000.0 11309700000.0 11309700000.0 11309700000.0 11309700000.0 11309700000.0 11309700000.0 11309700000.0 11309700000.0 11309700000.0 11309700000.0 11309700000.0 11309700000.0 11309700000.0 11309700000.0 11309700000.0 11309700000.0 11309700000.0 11309700000.0 11309700000.0 11309700000.0 11309700000.0 11309700000.0 11309700000.0 11309700000.0 11309700000.0 11309700000.0 11309700000.0 11309700000.0 11309700000.0 11309700000.0 11309700000.0 11309700000.0 11309700000.0 11309700000.0 11309700000.0 11309700000.0 11309700000.0 11309700000.0 11309700000.0 11309700000.0 11309700000.0 11309700000.0 11309700000.0 11309700000.0 11309700000.0 11309700000.0 11309700000.0 11309700000.0 11309700000.0 11309700000.0 11309700000.0 11309700000.0 11309700000.0 11309700000.0 11309700000.0 11309700000.0 11309700000.0 11309700000.0 11309700000.0 11309700000.0 11309700000.0 11309700000.0 11309700000.0 11309700000.0 11309700000.0 11309700000.0 11309700000.0 11309700000.0 11309700000.0 11309700000.0 11309700000.0 11309700000.0 11309700000.0 11309700000.0 11309700000.0 11309700000.0 11309700000.0 11309700000.0 11309700000.0 11309700000.0 11309700000.0 11309700000.0 11309700000.0 11309700000.0 11309700000.0 11309700000.0 11309700000.0 11309700000.0 11309700000.0 11309700000.0 11309700000.0 11309700000.0 11309700000.0 
SCALARS Velocity float 1
LOOKUP_TABLE default
0.568475 0.586864 0.823467 1.16539 0.75475 1.04531 0.873187 0.902169 0.89265 0.89496 0.893926 0.893947 0.893825 0.893854 0.893873 0.893907 0.89396 0.89399 0.893973 0.893941 0.893914 0.893898 0.893887 0.893879 0.893872 0.893865 0.893859 0.893852 0.893847 0.893843 0.893839 0.893837 0.893837 0.893837 0.893839 0.893843 0.893847 0.893852 0.893859 0.893865 0.893872 0.893879 0.893887 0.893898 0.893914 0.893941 0.893973 0.89399 0.89396 0.893907 0.893873 0.893854 0.893825 0.893947 0.893926 0.89496 0.89265 0.902169 0.873187 1.04531 0.75475 1.16539 0.823467 0.586864 0.568475 0.576804 0.571343 0.594413 0.594413 0.571343 0.576804 0.554209 0.58767 0.582741 0.800913 0.797475 0.433333 1.08452 0.841039 0.912395 0.893957 0.896113 0.895052 0.894535 0.894262 0.894084 0.894013 0.893994 0.893997 0.893997 0.893987 0.893969 0.893949 0.893934 0.893922 0.893911 0.893899 0.893887 0.893875 0.893864 0.893855 0.893845 0.893841 0.893838 0.893837 0.893838 0.893841 0.893845 0.893855 0.893864 0.893875 0.893887 0.893899 0.893911 0.893922 0.893934 0.893949 0.893969 0.893987 0.893997 0.893997 0.893994 0.894013 0.894084 0.894262 0.894535 0.895052 0.896113 0.893957 0.912395 0.841039 1.08452 0.433333 0.797475 0.800913 0.582741 0.58767 0.554209 0.797805 0.568488 0.633538 0.644436 0.776498 0.800731 0.446286 1.10403 0.843911 0.914593 0.894809 0.896674 0.896004 0.89519 0.894551 0.894216 0.894089 0.894049 0.894036 0.894022 0.894003 0.893985 0.893971 0.893959 0.893949 0.893939 0.893928 0.893914 0.893898 0.893883 0.893867 0.893855 0.893844 0.893838 0.893836 0.893838 0.893844 0.893855 0.893867 0.893883 0.893898 0.893914 0.893928 0.893939 0.893949 0.893959 0.893971 0.893985 0.894003 0.894022 0.894036 0.894049 0.894089 0.894216 0.894551 0.89519 0.896004 0.896674 0.894809 0.914593 0.843911 1.10403 0.446286 0.800731 0.776498 0.644436 0.633538 0.568488 0.797805 0.195926 0.526841 0.6515 0.676418 0.623003 0.710869 0.710869 0.623003 0.676418 0.6515 0.526841 0.195926 0.67061 0.367167 0.564388 0.694923 0.683659 0.791304 0.807963 0.473978 1.12329 0.846998 0.915152 0.896006 0.898045 0.896436 0.89596 0.895377 0.894719 0.894336 0.894173 0.894093 0.894043 0.894016 0.894003 0.893998 0.893998 0.893998 0.893994 0.893984 0.893966 0.893943 0.893917 0.893891 0.893869 0.89385 0.893838 0.893834 0.893838 0.89385 0.893869 0.893891 0.893917 0.893943 0.893966 0.893984 0.893994 0.893998 0.893998 0.893998 0.894003 0.894016 0.894043 0.894093 0.894173 0.894336 0.894719 0.895377 0.89596 0.896436 0.898045 0.896006 0.915152 0.846998 1.12329 0.473978 0.807963 0.791304 0.683659 0.694923 0.564388 0.367167 0.67061 0.654896 0.666228 0.610027 0.500719 0.71792 0.733862 0.875928 0.84585 0.499629 1.13615 0.851147 0.915339 0.897315 0.898706 0.896688 0.895961 0.895372 0.894726 0.894352 0.894217 0.89419 0.894188 0.894181 0.894163 0.894134 0.894101 0.894068 0.894035 0.894001 0.893967 0.893936 0.893907 0.893882 0.893862 0.893847 0.893837 0.893833 0.893837 0.893847 0.893862 0.893882 0.893907 0.893936 0.893967 0.894001 0.894035 0.894068 0.894101 0.894134 0.894163 0.894181 0.894188 0.89419 0.894217 0.894352 0.894726 0.895372 0.895961 0.896688 0.898706 0.897315 0.915339 0.851147 1.13615 0.499629 0.84585 0.875928 0.733862 0.71792 0.500719 0.610027 0.666228 0.654896 0.37848 0.599909 0.404284 0.771568 0.533065 0.579776 0.579776 0.533065 0.771568 0.404284 0.599909 0.37848 0.517207 0.23758 0.569373 0.586034 0.778147 0.782181 0.97778 1.10024 0.600059 1.15412 0.873299 0.929501 0.916973 0.913422 0.909972 0.903548 0.899607 0.897792 0.896445 0.895569 0.895024 0.894673 0.894432 0.894255 0.894123 0.894027 0.893959 0.893913 0.893882 0.893862 0.89385 0.893842 0.893838 0.893835 0.893833 0.893832 0.893832 0.893832 0.893833 0.893835 0.893838 0.893842 0.89385 0.893862 0.893882 0.893913 0.893959 0.894027 0.894123 0.894255 0.894432 0.894673 0.895024 0.895569 0.896445 0.897792 0.899607 0.903548 0.909972 0.913422 0.916973 0.929501 0.873299 1.15412 0.600059 1.10024 0.97778 0.782181 0.778147 0.586034 0.569373 0.23758 0.517207 0.144162 0.630832 0.441457 0.807511 0.697096 0.916297 0.992794 0.54847 0.976128 0.843773 0.898238 0.889301 0.890541 0.889959 0.893076 0.894628 0.894475 0.894265 0.894085 0.893991 0.893957 0.89395 0.893949 0.893945 0.893937 0.893926 0.893913 0.893899 0.893885 0.893872 0.893861 0.893851 0.893843 0.893837 0.893834 0.893832 0.893834 0.893837 0.893843 0.893851 0.893861 0.893872 0.893885 0.893899 0.893913 0.893926 0.893937 0.893945 0.893949 0.89395 0.893957 0.893991 0.894085 0.894265 0.894475 0.894628 0.893076 0.889959 0.890541 0.889301 0.898238 0.843773 0.976128 0.54847 0.992794 0.916297 0.697096 0.807511 0.441457 0.630832 0.144162 0.308974 0.298562 0.405332 0.405332 0.298562 0.308974 0.623076 0.549146 0.747694 0.524327 0.378628 0.714156 0.773125 0.872282 0.702412 0.658321 0.893845 0.857538 0.893832 0.893832 0.893832 0.893832 0.893832 0.893832 0.893832 0.893832 0.893832 0.893832 0.893832 0.893832 0.893832 0.893832 0.893832 0.893832 0.893832 0.893832 0.893832 0.893832 0.893832 0.893832 0.893832 0.893832 0.893832 0.893832 0.893832 0.893832 0.893832 0.893832 0.893832 0.893832 0.893832 0.893832 0.893832 0.893832 0.893832 0.893832 0.893832 0.893832 0.893832 0.893832 0.893832 0.893832 0.893832 0.893832 0.893832 0.893832 0.893832 0.893832 0.893832 0.857538 0.893845 0.658321 0.702412 0.872282 0.773125 0.714156 0.378628 0.524327 0.747694 0.549146 0.623076 0.936294 0.811925 0.593219 0.748938 0.400687 0.677666 0.784509 0.832962 0.684605 0.698518 0.912675 0.892736 0.895206 0.895457 0.895206 0.894875 0.89462 0.894451 0.894336 0.894241 0.894153 0.894078 0.89402 0.893976 0.893942 0.893916 0.893896 0.893881 0.893869 0.893859 0.893852 0.893846 0.893841 0.893838 0.893835 0.893834 0.893833 0.893832 0.893833 0.893834 0.893835 0.893838 0.893841 0.893846 0.893852 0.893859 0.893869 0.893881 0.893896 0.893916 0.893942 0.893976 0.89402 0.894078 0.894153 0.894241 0.894336 0.894451 0.89462 0.894875 0.895206 0.895457 0.895206 0.892736 0.912675 0.698518 0.684605 0.832962 0.784509 0.677666 0.400687 0.748938 0.593219 0.811925 0.936294 0.864039 0.939382 0.749296 0.950295 0.754882 0.896532 0.812276 0.797501 0.908259 0.771989 0.893832 0.893832 0.893832 0.893832 0.893832 0.893832 0.893832 0.893832 0.893832 0.893832 0.893832 0.893832 0.893832 0.893832 0.893832 0.893832 0.893832 0.893832 0.893832 0.893832 0.893832 0.893832 0.893832 0.893832 0.893832 0.893832 0.893832 0.893832 0.893832 0.893832 0.893832 0.893832 0.893832 0.893832 0.893832 0.893832 0.893832 0.893832 0.893832 0.893832 0.893832 0.893832 0.893832 0.893832 0.893832 0.893832 0.893832 0.893832 0.893832 0.893832 0.893832 0.893832 0.893832 0.893832 0.893832 0.771989 0.908259 0.797501 0.812276 0.896532 0.754882 0.950295 0.749296 0.939382 0.864039 0.839035 0.880416 0.941178 0.786395 0.754555 0.917351 0.815422 0.899305 0.894908 0.894581 0.894332 0.89418 0.894074 0.893998 0.893944 0.893906 0.89388 0.893863 0.893851 0.893844 0.89384 0.893837 0.893835 0.893834 0.893833 0.893833 0.893833 0.893832 0.893832 0.893832 0.893832 0.893832 0.893832 0.893832 0.893832 0.893832 0.893832 0.893832 0.893832 0.893832 0.893832 0.893832 0.893833 0.893833 0.893833 0.893834 0.893835 0.893837 0.89384 0.893844 0.893851 0.893863 0.89388 0.893906 0.893944 0.893998 0.894074 0.89418 0.894332 0.894581 0.894908 0.899305 0.815422 0.917351 0.754555 0.786395 0.941178 0.880416 0.839035 0.90805 0.916027 0.910446 0.910446 0.916027 0.90805 0.909219 0.923024 0.842777 0.918351 0.901287 0.920219 0.803063 0.775099 0.894222 0.837761 0.893851 0.893834 0.893834 0.893833 0.893833 0.893833 0.893833 0.893833 0.893832 0.893832 0.893832 0.893832 0.893832 0.893832 0.893832 0.893832 0.893832 0.893832 0.893832 0.893832 0.893832 0.893832 0.893832 0.893832 0.893832 0.893832 0.893832 0.893832 0.893832 0.893832 0.893832 0.893832 0.893832 0.893832 0.893832 0.893832 0.893832 0.893832 0.893832 0.893832 0.893832 0.893832 0.893832 0.893832 0.893832 0.893832 0.893832 0.893833 0.893833 0.893833 0.893833 0.893833 0.893834 0.893834 0.893851 0.837761 0.894222 0.775099 0.803063 0.920219 0.901287 0.918351 0.842777 0.923024 0.909219 0.906497 0.89134 0.830086 0.784953 0.894387 0.853769 0.89386 0.893838 0.893835 0.893834 0.893833 0.893833 0.893833 0.893833 0.893832 0.893832 0.893832 0.893832 0.893832 0.893832 0.893832 0.893832 0.893832 0.893832 0.893832 0.893832 0.893832 0.893832 0.893832 0.893832 0.893832 0.893832 0.893832 0.893832 0.893832 0.893832 0.893832 0.893832 0.893832 0.893832 0.893832 0.893832 0.893832 0.893832 0.893832 0.893832 0.893832 0.893832 0.893832 0.893832 0.893832 0.893832 0.893832 0.893833 0.893833 0.893833 0.893833 0.893834 0.893835 0.893838 0.89386 0.853769 0.894387 0.784953 0.830086 0.89134 0.906497 0.906372 0.919896 0.845371 0.915461 0.915461 0.845371 0.919896 0.906372 0.90301 0.915623 0.848523 0.912275 0.902869 0.86909 0.865895 0.797514 0.893842 0.865192 0.893838 0.893834 0.893834 0.893833 0.893833 0.893833 0.893833 0.893833 0.893832 0.893832 0.893832 0.893832 0.893832 0.893832 0.893832 0.893832 0.893832 0.893832 0.893832 0.893832 0.893832 0.893832 0.893832 0.893832 0.893832 0.893832 0.893832 0.893832 0.893832 0.893832 0.893832 0.893832 0.893832 0.893832 0.893832 0.893832 0.893832 0.893832 0.893832 0.893832 0.893832 0.893832 0.893832 0.893832 0.893832 0.893832 0.893832 0.893833 0.893833 0.893833 0.893833 0.893833 0.893834 0.893834 0.893838 0.865192 0.893842 0.797514 0.865895 0.86909 0.902869 0.912275 0.848523 0.915623 0.90301 0.899602 0.910784 0.851397 0.909282 0.896771 0.854011 0.888734 0.811561 0.893841 0.873333 0.893838 0.893834 0.893834 0.893833 0.893833 0.893833 0.893833 0.893833 0.893832 0.893832 0.893832 0.893832 0.893832 0.893832 0.893832 0.893832 0.893832 0.893832 0.893832 0.893832 0.893832 0.893832 0.893832 0.893832 0.893832 0.893832 0.893832 0.893832 0.893832 0.893832 0.893832 0.893832 0.893832 0.893832 0.893832 0.893832 0.893832 0.893832 0.893832 0.893832 0.893832 0.893832 0.893832 0.893832 0.893832 0.893832 0.893832 0.893833 0.893833 0.893833 0.893833 0.893833 0.893834 0.893834 0.893838 0.873333 0.893841 0.811561 0.888734 0.854011 0.896771 0.909282 0.851397 0.910784 0.899602 0.895931 0.90572 0.855843 0.906121 0.89158 0.844973 0.893396 0.824574 0.89384 0.879112 0.893836 0.893834 0.893834 0.893833 0.893833 0.893833 0.893833 0.893833 0.893832 0.893832 0.893832 0.893832 0.893832 0.893832 0.893832 0.893832 0.893832 0.893832 0.893832 0.893832 0.893832 0.893832 0.893832 0.893832 0.893832 0.893832 0.893832 0.893832 0.893832 0.893832 0.893832 0.893832 0.893832 0.893832 0.893832 0.893832 0.893832 0.893832 0.893832 0.893832 0.893832 0.893832 0.893832 0.893832 0.893832 0.893832 0.893832 0.893833 0.893833 0.893833 0.893833 0.893833 0.893834 0.893834 0.893836 0.879112 0.89384 0.824574 0.893396 0.844973 0.89158 0.906121 0.855843 0.90572 0.895931 0.892183 0.900853 0.861616 0.902905 0.887628 0.84122 0.893823 0.835968 0.89384 0.883235 0.893835 0.893834 0.893833 0.893833 0.893833 0.893833 0.893833 0.893832 0.893832 0.893832 0.893832 0.893832 0.893832 0.893832 0.893832 0.893832 0.893832 0.893832 0.893832 0.893832 0.893832 0.893832 0.893832 0.893832 0.893832 0.893832 0.893832 0.893832 0.893832 0.893832 0.893832 0.893832 0.893832 0.893832 0.893832 0.893832 0.893832 0.893832 0.893832 0.893832 0.893832 0.893832 0.893832 0.893832 0.893832 0.893832 0.893832 0.893832 0.893833 0.893833 0.893833 0.893833 0.893833 0.893834 0.893835 0.883235 0.89384 0.835968 0.893823 0.84122 0.887628 0.902905 0.861616 0.900853 0.892183 0.888846 0.89663 0.867325 0.899797 0.884651 0.841483 0.893843 0.845973 0.893838 0.886226 0.893834 0.893834 0.893833 0.893833 0.893833 0.893833 0.893833 0.893832 0.893832 0.893832 0.893832 0.893832 0.893832 0.893832 0.893832 0.893832 0.893832 0.893832 0.893832 0.893832 0.893832 0.893832 0.893832 0.893832 0.893832 0.893832 0.893832 0.893832 0.893832 0.893832 0.893832 0.893832 0.893832 0.893832 0.893832 0.893832 0.893832 0.893832 0.893832 0.893832 0.893832 0.893832 0.893832 0.893832 0.893832 0.893832 0.893832 0.893832 0.893833 0.893833 0.893833 0.893833 0.893833 0.893834 0.893834 0.886226 0.893838 0.845973 0.893843 0.841483 0.884651 0.899797 0.867325 0.89663 0.888846 0.886261 0.893267 0.872253 0.8969 0.882569 0.844419 0.893843 0.854687 0.893837 0.888436 0.893834 0.893834 0.893833 0.893833 0.893833 0.893833 0.893832 0.893832 0.893832 0.893832 0.893832 0.893832 0.893832 0.893832 0.893832 0.893832 0.893832 0.893832 0.893832 0.893832 0.893832 0.893832 0.893832 0.893832 0.893832 0.893832 0.893832 0.893832 0.893832 0.893832 0.893832 0.893832 0.893832 0.893832 0.893832 0.893832 0.893832 0.893832 0.893832 0.893832 0.893832 0.893832 0.893832 0.893832 0.893832 0.893832 0.893832 0.893832 0.893832 0.893833 0.893833 0.893833 0.893833 0.893834 0.893834 0.888436 0.893837 0.854687 0.893843 0.844419 0.882569 0.8969 0.872253 0.893267 0.886261 0.884508 0.890753 0.876434 0.894279 0.881371 0.849014 0.893841 0.862166 0.893836 0.890075 0.893834 0.893833 0.893833 0.893833 0.893833 0.893833 0.893832 0.893832 0.893832 0.893832 0.893832 0.893832 0.893832 0.893832 0.893832 0.893832 0.893832 0.893832 0.893832 0.893832 0.893832 0.893832 0.893832 0.893832 0.893832 0.893832 0.893832 0.893832 0.893832 0.893832 0.893832 0.893832 0.893832 0.893832 0.893832 0.893832 0.893832 0.893832 0.893832 0.893832 0.893832 0.893832 0.893832 0.893832 0.893832 0.893832 0.893832 0.893832 0.893832 0.893833 0.893833 0.893833 0.893833 0.893833 0.893834 0.890075 0.893836 0.862166 0.893841 0.849014 0.881371 0.894279 0.876434 0.890753 0.884508 0.88351 0.888967 0.880009 0.891989 0.880981 0.854492 0.89384 0.86851 0.893835 0.891278 0.893833 0.893833 0.893833 0.893833 0.893833 0.893832 0.893832 0.893832 0.893832 0.893832 0.893832 0.893832 0.893832 0.893832 0.893832 0.893832 0.893832 0.893832 0.893832 0.893832 0.893832 0.893832 0.893832 0.893832 0.893832 0.893832 0.893832 0.893832 0.893832 0.893832 0.893832 0.893832 0.893832 0.893832 0.893832 0.893832 0.893832 0.893832 0.893832 0.893832 0.893832 0.893832 0.893832 0.893832 0.893832 0.893832 0.893832 0.893832 0.893832 0.893832 0.893833 0.893833 0.893833 0.893833 0.893833 0.891278 0.893835 0.86851 0.89384 0.854492 0.880981 0.891989 0.880009 0.888967 0.88351 0.883137 0.887768 0.88295 0.890067 0.881251 0.86023 0.893838 0.87383 0.893834 0.892144 0.893833 0.893833 0.893833 0.893833 0.893832 0.893832 0.893832 0.893832 0.893832 0.893832 0.893832 0.893832 0.893832 0.893832 0.893832 0.893832 0.893832 0.893832 0.893832 0.893832 0.893832 0.893832 0.893832 0.893832 0.893832 0.893832 0.893832 0.893832 0.893832 0.893832 0.893832 0.893832 0.893832 0.893832 0.893832 0.893832 0.893832 0.893832 0.893832 0.893832 0.893832 0.893832 0.893832 0.893832 0.893832 0.893832 0.893832 0.893832 0.893832 0.893832 0.893832 0.893833 0.893833 0.893833 0.893833 0.892144 0.893834 0.87383 0.893838 0.86023 0.881251 0.890067 0.88295 0.887768 0.883137 0.88324 0.887026 0.885205 0.888531 0.882008 0.865785 0.893836 0.878226 0.893834 0.892749 0.893833 0.893833 0.893832 0.893832 0.893832 0.893832 0.893832 0.893832 0.893832 0.893832 0.893832 0.893832 0.893832 0.893832 0.893832 0.893832 0.893832 0.893832 0.893832 0.893832 0.893832 0.893832 0.893832 0.893832 0.893832 0.893832 0.893832 0.893832 0.893832 0.893832 0.893832 0.893832 0.893832 0.893832 0.893832 0.893832 0.893832 0.893832 0.893832 0.893832 0.893832 0.893832 0.893832 0.893832 0.893832 0.893832 0.893832 0.893832 0.893832 0.893832 0.893832 0.893832 0.893832 0.893833 0.893833 0.892749 0.893834 0.878226 0.893836 0.865785 0.882008 0.888531 0.885205 0.887026 0.88324 0.883665 0.886629 0.886826 0.887376 0.883082 0.870893 0.893835 0.881802 0.893833 0.893161 0.893832 0.893832 0.893832 0.893832 0.893832 0.893832 0.893832 0.893832 0.893832 0.893832 0.893832 0.893832 0.893832 0.893832 0.893832 0.893832 0.893832 0.893832 0.893832 0.893832 0.893832 0.893832 0.893832 0.893832 0.893832 0.893832 0.893832 0.893832 0.893832 0.893832 0.893832 0.893832 0.893832 0.893832 0.893832 0.893832 0.893832 0.893832 0.893832 0.893832 0.893832 0.893832 0.893832 0.893832 0.893832 0.893832 0.893832 0.893832 0.893832 0.893832 0.893832 0.893832 0.893832 0.893832 0.893832 0.893161 0.893833 0.881802 0.893835 0.870893 0.883082 0.887376 0.886826 0.886629 0.883665 0.884281 0.886483 0.887945 0.886583 0.884325 0.875414 0.893833 0.884673 0.893832 0.893431 0.893832 0.893832 0.893832 0.893832 0.893832 0.893832 0.893832 0.893832 0.893832 0.893832 0.893832 0.893832 0.893832 0.893832 0.893832 0.893832 0.893832 0.893832 0.893832 0.893832 0.893832 0.893832 0.893832 0.893832 0.893832 0.893832 0.893832 0.893832 0.893832 0.893832 0.893832 0.893832 0.893832 0.893832 0.893832 0.893832 0.893832 0.893832 0.893832 0.893832 0.893832 0.893832 0.893832 0.893832 0.893832 0.893832 0.893832 0.893832 0.893832 0.893832 0.893832 0.893832 0.893832 0.893832 0.893832 0.893431 0.893832 0.884673 0.893833 0.875414 0.884325 0.886583 0.887945 0.886483 0.884281 0.88498 0.886516 0.888702 0.886117 0.885619 0.87929 0.893832 0.886949 0.893832 0.893602 0.893832 0.893832 0.893832 0.893832 0.893832 0.893832 0.893832 0.893832 0.893832 0.893832 0.893832 0.893832 0.893832 0.893832 0.893832 0.893832 0.893832 0.893832 0.893832 0.893832 0.893832 0.893832 0.893832 0.893832 0.893832 0.893832 0.893832 0.893832 0.893832 0.893832 0.893832 0.893832 0.893832 0.893832 0.893832 0.893832 0.893832 0.893832 0.893832 0.893832 0.893832 0.893832 0.893832 0.893832 0.893832 0.893832 0.893832 0.893832 0.893832 0.893832 0.893832 0.893832 0.893832 0.893832 0.893832 0.893602 0.893832 0.886949 0.893832 0.87929 0.885619 0.886117 0.888702 0.886516 0.88498 0.885687 0.886671 0.889211 0.885933 0.88688 0.882522 0.893831 0.888729 0.893831 0.893706 0.893832 0.893832 0.893832 0.893832 0.893832 0.893832 0.893832 0.893832 0.893832 0.893832 0.893832 0.893832 0.893832 0.893832 0.893832 0.893832 0.893832 0.893832 0.893832 0.893832 0.893832 0.893832 0.893832 0.893832 0.893832 0.893832 0.893832 0.893832 0.893832 0.893832 0.893832 0.893832 0.893832 0.893832 0.893832 0.893832 0.893832 0.893832 0.893832 0.893832 0.893832 0.893832 0.893832 0.893832 0.893832 0.893832 0.893832 0.893832 0.893832 0.893832 0.893832 0.893832 0.893832 0.893832 0.893832 0.893706 0.893831 0.888729 0.893831 0.882522 0.88688 0.885933 0.889211 0.886671 0.885687 0.886353 0.886905 0.889556 0.885985 0.888052 0.885154 0.89383 0.890102 0.893831 0.893766 0.893831 0.893832 0.893832 0.893832 0.893832 0.893832 0.893832 0.893832 0.893832 0.893832 0.893832 0.893832 0.893832 0.893832 0.893832 0.893832 0.893832 0.893832 0.893832 0.893832 0.893832 0.893832 0.893832 0.893832 0.893832 0.893832 0.893832 0.893832 0.893832 0.893832 0.893832 0.893832 0.893832 0.893832 0.893832 0.893832 0.893832 0.893832 0.893832 0.893832 0.893832 0.893832 0.893832 0.893832 0.893832 0.893832 0.893832 0.893832 0.893832 0.893832 0.893832 0.893832 0.893832 0.893832 0.893831 0.893766 0.893831 0.890102 0.89383 0.885154 0.888052 0.885985 0.889556 0.886905 0.886353 0.886952 0.887191 0.889797 0.886225 0.889103 0.887254 0.893829 0.891143 0.89383 0.8938 0.893831 0.893832 0.893832 0.893832 0.893832 0.893832 0.893832 0.893832 0.893832 0.893832 0.893832 0.893832 0.893832 0.893832 0.893832 0.893832 0.893832 0.893832 0.893832 0.893832 0.893832 0.893832 0.893832 0.893832 0.893832 0.893832 0.893832 0.893832 0.893832 0.893832 0.893832 0.893832 0.893832 0.893832 0.893832 0.893832 0.893832 0.893832 0.893832 0.893832 0.893832 0.893832 0.893832 0.893832 0.893832 0.893832 0.893832 0.893832 0.893832 0.893832 0.893832 0.893832 0.893832 0.893832 0.893831 0.8938 0.89383 0.891143 0.893829 0.887254 0.889103 0.886225 0.889797 0.887191 0.886952 0.887476 0.887507 0.889979 0.886608 0.89002 0.8889 0.893828 0.891921 0.89383 0.893817 0.893831 0.893831 0.893832 0.893832 0.893832 0.893832 0.893832 0.893832 0.893832 0.893832 0.893832 0.893832 0.893832 0.893832 0.893832 0.893832 0.893832 0.893832 0.893832 0.893832 0.893832 0.893832 0.893832 0.893832 0.893832 0.893832 0.893832 0.893832 0.893832 0.893832 0.893832 0.893832 0.893832 0.893832 0.893832 0.893832 0.893832 0.893832 0.893832 0.893832 0.893832 0.893832 0.893832 0.893832 0.893832 0.893832 0.893832 0.893832 0.893832 0.893832 0.893832 0.893832 0.893832 0.893831 0.893831 0.893817 0.89383 0.891921 0.893828 0.8889 0.89002 0.886608 0.889979 0.887507 0.887476 0.887928 0.887841 0.890131 0.887094 0.890802 0.89017 0.893828 0.892492 0.89383 0.893825 0.893831 0.893831 0.893832 0.893832 0.893832 0.893832 0.893832 0.893832 0.893832 0.893832 0.893832 0.893832 0.893832 0.893832 0.893832 0.893832 0.893832 0.893832 0.893832 0.893832 0.893832 0.893832 0.893832 0.893832 0.893832 0.893832 0.893832 0.893832 0.893832 0.893832 0.893832 0.893832 0.893832 0.893832 0.893832 0.893832 0.893832 0.893832 0.893832 0.893832 0.893832 0.893832 0.893832 0.893832 0.893832 0.893832 0.893832 0.893832 0.893832 0.893832 0.893832 0.893832 0.893832 0.893831 0.893831 0.893825 0.89383 0.892492 0.893828 0.89017 0.890802 0.887094 0.890131 0.887841 0.887928 0.888319 0.888183 0.890276 0.887646 0.891454 0.891137 0.893827 0.892905 0.89383 0.893828 0.893831 0.893831 0.893832 0.893832 0.893832 0.893832 0.893832 0.893832 0.893832 0.893832 0.893832 0.893832 0.893832 0.893832 0.893832 0.893832 0.893832 0.893832 0.893832 0.893832 0.893832 0.893832 0.893832 0.893832 0.893832 0.893832 0.893832 0.893832 0.893832 0.893832 0.893832 0.893832 0.893832 0.893832 0.893832 0.893832 0.893832 0.893832 0.893832 0.893832 0.893832 0.893832 0.893832 0.893832 0.893832 0.893832 0.893832 0.893832 0.893832 0.893832 0.893832 0.893832 0.893832 0.893831 0.893831 0.893828 0.89383 0.892905 0.893827 0.891137 0.891454 0.887646 0.890276 0.888183 0.888319 0.888664 0.888528 0.890426 0.888234 0.891991 0.891865 0.893827 0.893199 0.893829 0.89383 0.893831 0.893831 0.893831 0.893832 0.893832 0.893832 0.893832 0.893832 0.893832 0.893832 0.893832 0.893832 0.893832 0.893832 0.893832 0.893832 0.893832 0.893832 0.893832 0.893832 0.893832 0.893832 0.893832 0.893832 0.893832 0.893832 0.893832 0.893832 0.893832 0.893832 0.893832 0.893832 0.893832 0.893832 0.893832 0.893832 0.893832 0.893832 0.893832 0.893832 0.893832 0.893832 0.893832 0.893832 0.893832 0.893832 0.893832 0.893832 0.893832 0.893832 0.893832 0.893832 0.893831 0.893831 0.893831 0.89383 0.893829 0.893199 0.893827 0.891865 0.891991 0.888234 0.890426 0.888528 0.888664 0.888977 0.888871 0.89059 0.888833 0.892424 0.892407 0.893827 0.893406 0.893829 0.89383 0.893831 0.893831 0.893831 0.893832 0.893832 0.893832 0.893832 0.893832 0.893832 0.893832 0.893832 0.893832 0.893832 0.893832 0.893832 0.893832 0.893832 0.893832 0.893832 0.893832 0.893832 0.893832 0.893832 0.893832 0.893832 0.893832 0.893832 0.893832 0.893832 0.893832 0.893832 0.893832 0.893832 0.893832 0.893832 0.893832 0.893832 0.893832 0.893832 0.893832 0.893832 0.893832 0.893832 0.893832 0.893832 0.893832 0.893832 0.893832 0.893832 0.893832 0.893832 0.893832 0.893831 0.893831 0.893831 0.89383 0.893829 0.893406 0.893827 0.892407 0.892424 0.888833 0.89059 0.888871 0.888977 0.889269 0.88921 0.890769 0.889423 0.892769 0.892806 0.893827 0.893549 0.893829 0.89383 0.893831 0.893831 0.893831 0.893832 0.893832 0.893832 0.893832 0.893832 0.893832 0.893832 0.893832 0.893832 0.893832 0.893832 0.893832 0.893832 0.893832 0.893832 0.893832 0.893832 0.893832 0.893832 0.893832 0.893832 0.893832 0.893832 0.893832 0.893832 0.893832 0.893832 0.893832 0.893832 0.893832 0.893832 0.893832 0.893832 0.893832 0.893832 0.893832 0.893832 0.893832 0.893832 0.893832 0.893832 0.893832 0.893832 0.893832 0.893832 0.893832 0.893832 0.893832 0.893832 0.893831 0.893831 0.893831 0.89383 0.893829 0.893549 0.893827 0.892806 0.892769 0.889423 0.890769 0.88921 0.889269 0.88955 0.889543 0.890962 0.889988 0.893039 0.893097 0.893827 0.893646 0.893829 0.89383 0.893831 0.893831 0.893831 0.893832 0.893832 0.893832 0.893832 0.893832 0.893832 0.893832 0.893832 0.893832 0.893832 0.893832 0.893832 0.893832 0.893832 0.893832 0.893832 0.893832 0.893832 0.893832 0.893832 0.893832 0.893832 0.893832 0.893832 0.893832 0.893832 0.893832 0.893832 0.893832 0.893832 0.893832 0.893832 0.893832 0.893832 0.893832 0.893832 0.893832 0.893832 0.893832 0.893832 0.893832 0.893832 0.893832 0.893832 0.893832 0.893832 0.893832 0.893832 0.893832 0.893831 0.893831 0.893831 0.89383 0.893829 0.893646 0.893827 0.893097 0.893039 0.889988 0.890962 0.889543 0.88955 0.889826 0.889867 0.891169 0.890519 0.893249 0.893308 0.893827 0.893711 0.893829 0.89383 0.893831 0.893831 0.893831 0.893832 0.893832 0.893832 0.893832 0.893832 0.893832 0.893832 0.893832 0.893832 0.893832 0.893832 0.893832 0.893832 0.893832 0.893832 0.893832 0.893832 0.893832 0.893832 0.893832 0.893832 0.893832 0.893832 0.893832 0.893832 0.893832 0.893832 0.893832 0.893832 0.893832 0.893832 0.893832 0.893832 0.893832 0.893832 0.893832 0.893832 0.893832 0.893832 0.893832 0.893832 0.893832 0.893832 0.893832 0.893832 0.893832 0.893832 0.893832 0.893832 0.893831 0.893831 0.893831 0.89383 0.893829 0.893711 0.893827 0.893308 0.893249 0.890519 0.891169 0.889867 0.889826 0.8901 0.890183 0.891383 0.891007 0.893408 0.893459 0.893827 0.893754 0.893829 0.89383 0.893831 0.893831 0.893832 0.893832 0.893832 0.893832 0.893832 0.893832 0.893832 0.893832 0.893832 0.893832 0.893832 0.893832 0.893832 0.893832 0.893832 0.893832 0.893832 0.893832 0.893832 0.893832 0.893832 0.893832 0.893832 0.893832 0.893832 0.893832 0.893832 0.893832 0.893832 0.893832 0.893832 0.893832 0.893832 0.893832 0.893832 0.893832 0.893832 0.893832 0.893832 0.893832 0.893832 0.893832 0.893832 0.893832 0.893832 0.893832 0.893832 0.893832 0.893832 0.893832 0.893832 0.893831 0.893831 0.89383 0.893829 0.893754 0.893827 0.893459 0.893408 0.891007 0.891383 0.890183 0.8901 0.890373 0.890487 0.891602 0.891448 0.893527 0.893567 0.893827 0.893782 0.89383 0.89383 0.893831 0.893831 0.893832 0.893832 0.893832 0.893832 0.893832 0.893832 0.893832 0.893832 0.893832 0.893832 0.893832 0.893832 0.893832 0.893832 0.893832 0.893832 0.893832 0.893832 0.893832 0.893832 0.893832 0.893832 0.893832 0.893832 0.893832 0.893832 0.893832 0.893832 0.893832 0.893832 0.893832 0.893832 0.893832 0.893832 0.893832 0.893832 0.893832 0.893832 0.893832 0.893832 0.893832 0.893832 0.893832 0.893832 0.893832 0.893832 0.893832 0.893832 0.893832 0.893832 0.893832 0.893831 0.893831 0.89383 0.89383 0.893782 0.893827 0.893567 0.893527 0.891448 0.891602 0.890487 0.890373 0.890645 0.890781 0.89182 0.891841 0.893616 0.893644 0.893827 0.8938 0.89383 0.89383 0.893831 0.893831 0.893832 0.893832 0.893832 0.893832 0.893832 0.893832 0.893832 0.893832 0.893832 0.893832 0.893832 0.893832 0.893832 0.893832 0.893832 0.893832 0.893832 0.893832 0.893832 0.893832 0.893832 0.893832 0.893832 0.893832 0.893832 0.893832 0.893832 0.893832 0.893832 0.893832 0.893832 0.893832 0.893832 0.893832 0.893832 0.893832 0.893832 0.893832 0.893832 0.893832 0.893832 0.893832 0.893832 0.893832 0.893832 0.893832 0.893832 0.893832 0.893832 0.893832 0.893832 0.893831 0.893831 0.89383 0.89383 0.8938 0.893827 0.893644 0.893616 0.891841 0.89182 0.890781 0.890645 0.890912 0.891062 0.892034 0.892186 0.893681 0.893699 0.893827 0.893812 0.89383 0.893831 0.893831 0.893831 0.893832 0.893832 0.893832 0.893832 0.893832 0.893832 0.893832 0.893832 0.893832 0.893832 0.893832 0.893832 0.893832 0.893832 0.893832 0.893832 0.893832 0.893832 0.893832 0.893832 0.893832 0.893832 0.893832 0.893832 0.893832 0.893832 0.893832 0.893832 0.893832 0.893832 0.893832 0.893832 0.893832 0.893832 0.893832 0.893832 0.893832 0.893832 0.893832 0.893832 0.893832 0.893832 0.893832 0.893832 0.893832 0.893832 0.893832 0.893832 0.893832 0.893832 0.893832 0.893831 0.893831 0.893831 0.89383 0.893812 0.893827 0.893699 0.893681 0.892186 0.892034 0.891062 0.890912 0.891174 0.891329 0.89224 0.892485 0.893727 0.893738 0.893828 0.893819 0.89383 0.893831 0.893831 0.893831 0.893832 0.893832 0.893832 0.893832 0.893832 0.893832 0.893832 0.893832 0.893832 0.893832 0.893832 0.893832 0.893832 0.893832 0.893832 0.893832 0.893832 0.893832 0.893832 0.893832 0.893832 0.893832 0.893832 0.893832 0.893832 0.893832 0.893832 0.893832 0.893832 0.893832 0.893832 0.893832 0.893832 0.893832 0.893832 0.893832 0.893832 0.893832 0.893832 0.893832 0.893832 0.893832 0.893832 0.893832 0.893832 0.893832 0.893832 0.893832 0.893832 0.893832 0.893832 0.893831 0.893831 0.893831 0.89383 0.893819 0.893828 0.893738 0.893727 0.892485 0.89224 0.891329 0.891174 0.891427 0.891583 0.892434 0.89274 0.89376 0.893765 0.893828 0.893823 0.89383 0.893831 0.893831 0.893831 0.893832 0.893832 0.893832 0.893832 0.893832 0.893832 0.893832 0.893832 0.893832 0.893832 0.893832 0.893832 0.893832 0.893832 0.893832 0.893832 0.893832 0.893832 0.893832 0.893832 0.893832 0.893832 0.893832 0.893832 0.893832 0.893832 0.893832 0.893832 0.893832 0.893832 0.893832 0.893832 0.893832 0.893832 0.893832 0.893832 0.893832 0.893832 0.893832 0.893832 0.893832 0.893832 0.893832 0.893832 0.893832 0.893832 0.893832 0.893832 0.893832 0.893832 0.893832 0.893831 0.893831 0.893831 0.89383 0.893823 0.893828 0.893765 0.89376 0.89274 0.892434 0.891583 0.891427 0.891668 0.89182 0.892616 0.892955 0.893783 0.893784 0.893828 0.893826 0.89383 0.893831 0.893831 0.893832 0.893832 0.893832 0.893832 0.893832 0.893832 0.893832 0.893832 0.893832 0.893832 0.893832 0.893832 0.893832 0.893832 0.893832 0.893832 0.893832 0.893832 0.893832 0.893832 0.893832 0.893832 0.893832 0.893832 0.893832 0.893832 0.893832 0.893832 0.893832 0.893832 0.893832 0.893832 0.893832 0.893832 0.893832 0.893832 0.893832 0.893832 0.893832 0.893832 0.893832 0.893832 0.893832 0.893832 0.893832 0.893832 0.893832 0.893832 0.893832 0.893832 0.893832 0.893832 0.893832 0.893831 0.893831 0.89383 0.893826 0.893828 0.893784 0.893783 0.892955 0.892616 0.89182 0.891668 0.891896 0.892042 0.892783 0.893134 0.893799 0.893798 0.893829 0.893828 0.893831 0.893831 0.893831 0.893832 0.893832 0.893832 0.893832 0.893832 0.893832 0.893832 0.893832 0.893832 0.893832 0.893832 0.893832 0.893832 0.893832 0.893832 0.893832 0.893832 0.893832 0.893832 0.893832 0.893832 0.893832 0.893832 0.893832 0.893832 0.893832 0.893832 0.893832 0.893832 0.893832 0.893832 0.893832 0.893832 0.893832 0.893832 0.893832 0.893832 0.893832 0.893832 0.893832 0.893832 0.893832 0.893832 0.893832 0.893832 0.893832 0.893832 0.893832 0.893832 0.893832 0.893832 0.893832 0.893832 0.893831 0.893831 0.893831 0.893828 0.893829 0.893798 0.893799 0.893134 0.892783 0.892042 0.891896 0.89211 0.892248 0.892934 0.893282 0.893809 0.893807 0.893829 0.893829 0.893831 0.893831 0.893831 0.893832 0.893832 0.893832 0.893832 0.893832 0.893832 0.893832 0.893832 0.893832 0.893832 0.893832 0.893832 0.893832 0.893832 0.893832 0.893832 0.893832 0.893832 0.893832 0.893832 0.893832 0.893832 0.893832 0.893832 0.893832 0.893832 0.893832 0.893832 0.893832 0.893832 0.893832 0.893832 0.893832 0.893832 0.893832 0.893832 0.893832 0.893832 0.893832 0.893832 0.893832 0.893832 0.893832 0.893832 0.893832 0.893832 0.893832 0.893832 0.893832 0.893832 0.893832 0.893832 0.893832 0.893831 0.893831 0.893831 0.893829 0.893829 0.893807 0.893809 0.893282 0.892934 0.892248 0.89211 0.892307 0.892437 0.89307 0.893402 0.893817 0.893814 0.893829 0.89383 0.893831 0.893831 0.893832 0.893832 0.893832 0.893832 0.893832 0.893832 0.893832 0.893832 0.893832 0.893832 0.893832 0.893832 0.893832 0.893832 0.893832 0.893832 0.893832 0.893832 0.893832 0.893832 0.893832 0.893832 0.893832 0.893832 0.893832 0.893832 0.893832 0.893832 0.893832 0.893832 0.893832 0.893832 0.893832 0.893832 0.893832 0.893832 0.893832 0.893832 0.893832 0.893832 0.893832 0.893832 0.893832 0.893832 0.893832 0.893832 0.893832 0.893832 0.893832 0.893832 0.893832 0.893832 0.893832 0.893832 0.893832 0.893831 0.893831 0.89383 0.893829 0.893814 0.893817 0.893402 0.89307 0.892437 0.892307 0.892488 0.89261 0.893191 0.893499 0.893821 0.893819 0.89383 0.89383 0.893831 0.893831 0.893832 0.893832 0.893832 0.893832 0.893832 0.893832 0.893832 0.893832 0.893832 0.893832 0.893832 0.893832 0.893832 0.893832 0.893832 0.893832 0.893832 0.893832 0.893832 0.893832 0.893832 0.893832 0.893832 0.893832 0.893832 0.893832 0.893832 0.893832 0.893832 0.893832 0.893832 0.893832 0.893832 0.893832 0.893832 0.893832 0.893832 0.893832 0.893832 0.893832 0.893832 0.893832 0.893832 0.893832 0.893832 0.893832 0.893832 0.893832 0.893832 0.893832 0.893832 0.893832 0.893832 0.893832 0.893832 0.893831 0.893831 0.89383 0.89383 0.893819 0.893821 0.893499 0.893191 0.89261 0.892488 0.892652 0.892767 0.893296 0.893576 0.893825 0.893823 0.89383 0.89383 0.893831 0.893831 0.893832 0.893832 0.893832 0.893832 0.893832 0.893832 0.893832 0.893832 0.893832 0.893832 0.893832 0.893832 0.893832 0.893832 0.893832 0.893832 0.893832 0.893832 0.893832 0.893832 0.893832 0.893832 0.893832 0.893832 0.893832 0.893832 0.893832 0.893832 0.893832 0.893832 0.893832 0.893832 0.893832 0.893832 0.893832 0.893832 0.893832 0.893832 0.893832 0.893832 0.893832 0.893832 0.893832 0.893832 0.893832 0.893832 0.893832 0.893832 0.893832 0.893832 0.893832 0.893832 0.893832 0.893832 0.893832 0.893831 0.893831 0.89383 0.89383 0.893823 0.893825 0.893576 0.893296 0.892767 0.892652 0.8928 0.892907 0.893388 0.893637 0.893827 0.893825 0.89383 0.893831 0.893831 0.893832 0.893832 0.893832 0.893832 0.893832 0.893832 0.893832 0.893832 0.893832 0.893832 0.893832 0.893832 0.893832 0.893832 0.893832 0.893832 0.893832 0.893832 0.893832 0.893832 0.893832 0.893832 0.893832 0.893832 0.893832 0.893832 0.893832 0.893832 0.893832 0.893832 0.893832 0.893832 0.893832 0.893832 0.893832 0.893832 0.893832 0.893832 0.893832 0.893832 0.893832 0.893832 0.893832 0.893832 0.893832 0.893832 0.893832 0.893832 0.893832 0.893832 0.893832 0.893832 0.893832 0.893832 0.893832 0.893832 0.893832 0.893831 0.893831 0.89383 0.893825 0.893827 0.893637 0.893388 0.892907 0.8928 0.892932 0.893033 0.893467 0.893685 0.893828 0.893827 0.89383 0.893831 0.893831 0.893832 0.893832 0.893832 0.893832 0.893832 0.893832 0.893832 0.893832 0.893832 0.893832 0.893832 0.893832 0.893832 0.893832 0.893832 0.893832 0.893832 0.893832 0.893832 0.893832 0.893832 0.893832 0.893832 0.893832 0.893832 0.893832 0.893832 0.893832 0.893832 0.893832 0.893832 0.893832 0.893832 0.893832 0.893832 0.893832 0.893832 0.893832 0.893832 0.893832 0.893832 0.893832 0.893832 0.893832 0.893832 0.893832 0.893832 0.893832 0.893832 0.893832 0.893832 0.893832 0.893832 0.893832 0.893832 0.893832 0.893832 0.893831 0.893831 0.89383 0.893827 0.893828 0.893685 0.893467 0.893033 0.892932 0.893049 0.893145 0.893533 0.893721 0.893829 0.893828 0.893831 0.893831 0.893831 0.893832 0.893832 0.893832 0.893832 0.893832 0.893832 0.893832 0.893832 0.893832 0.893832 0.893832 0.893832 0.893832 0.893832 0.893832 0.893832 0.893832 0.893832 0.893832 0.893832 0.893832 0.893832 0.893832 0.893832 0.893832 0.893832 0.893832 0.893832 0.893832 0.893832 0.893832 0.893832 0.893832 0.893832 0.893832 0.893832 0.893832 0.893832 0.893832 0.893832 0.893832 0.893832 0.893832 0.893832 0.893832 0.893832 0.893832 0.893832 0.893832 0.893832 0.893832 0.893832 0.893832 0.893832 0.893832 0.893832 0.893832 0.893831 0.893831 0.893831 0.893828 0.893829 0.893721 0.893533 0.893145 0.893049 0.893151 0.893242 0.893589 0.893749 0.89383 0.893829 0.893831 0.893831 0.893832 0.893832 0.893832 0.893832 0.893832 0.893832 0.893832 0.893832 0.893832 0.893832 0.893832 0.893832 0.893832 0.893832 0.893832 0.893832 0.893832 0.893832 0.893832 0.893832 0.893832 0.893832 0.893832 0.893832 0.893832 0.893832 0.893832 0.893832 0.893832 0.893832 0.893832 0.893832 0.893832 0.893832 0.893832 0.893832 0.893832 0.893832 0.893832 0.893832 0.893832 0.893832 0.893832 0.893832 0.893832 0.893832 0.893832 0.893832 0.893832 0.893832 0.893832 0.893832 0.893832 0.893832 0.893832 0.893832 0.893832 0.893832 0.893832 0.893831 0.893831 0.893829 0.89383 0.893749 0.893589 0.893242 0.893151 0.89324 0.893327 0.893636 0.893771 0.89383 0.89383 0.893831 0.893831 0.893832 0.893832 0.893832 0.893832 0.893832 0.893832 0.893832 0.893832 0.893832 0.893832 0.893832 0.893832 0.893832 0.893832 0.893832 0.893832 0.893832 0.893832 0.893832 0.893832 0.893832 0.893832 0.893832 0.893832 0.893832 0.893832 0.893832 0.893832 0.893832 0.893832 0.893832 0.893832 0.893832 0.893832 0.893832 0.893832 0.893832 0.893832 0.893832 0.893832 0.893832 0.893832 0.893832 0.893832 0.893832 0.893832 0.893832 0.893832 0.893832 0.893832 0.893832 0.893832 0.893832 0.893832 0.893832 0.893832 0.893832 0.893832 0.893832 0.893831 0.893831 0.89383 0.89383 0.893771 0.893636 0.893327 0.89324 0.893316 0.8934 0.893675 0.893787 0.89383 0.89383 0.893831 0.893831 0.893832 0.893832 0.893832 0.893832 0.893832 0.893832 0.893832 0.893832 0.893832 0.893832 0.893832 0.893832 0.893832 0.893832 0.893832 0.893832 0.893832 0.893832 0.893832 0.893832 0.893832 0.893832 0.893832 0.893832 0.893832 0.893832 0.893832 0.893832 0.893832 0.893832 0.893832 0.893832 0.893832 0.893832 0.893832 0.893832 0.893832 0.893832 0.893832 0.893832 0.893832 0.893832 0.893832 0.893832 0.893832 0.893832 0.893832 0.893832 0.893832 0.893832 0.893832 0.893832 0.893832 0.893832 0.893832 0.893832 0.893832 0.893832 0.893832 0.893831 0.893831 0.89383 0.89383 0.893787 0.893675 0.8934 0.893316 0.89338 0.893462 0.893706 0.893799 0.893831 0.893831 0.893831 0.893832 0.893832 0.893832 0.893832 0.893832 0.893832 0.893832 0.893832 0.893832 0.893832 0.893832 0.893832 0.893832 0.893832 0.893832 0.893832 0.893832 0.893832 0.893832 0.893832 0.893832 0.893832 0.893832 0.893832 0.893832 0.893832 0.893832 0.893832 0.893832 0.893832 0.893832 0.893832 0.893832 0.893832 0.893832 0.893832 0.893832 0.893832 0.893832 0.893832 0.893832 0.893832 0.893832 0.893832 0.893832 0.893832 0.893832 0.893832 0.893832 0.893832 0.893832 0.893832 0.893832 0.893832 0.893832 0.893832 0.893832 0.893832 0.893832 0.893832 0.893832 0.893831 0.893831 0.893831 0.893799 0.893706 0.893462 0.89338 0.893434 0.893513 0.893731 0.893807 0.893831 0.893831 0.893831 0.893832 0.893832 0.893832 0.893832 0.893832 0.893832 0.893832 0.893832 0.893832 0.893832 0.893832 0.893832 0.893832 0.893832 0.893832 0.893832 0.893832 0.893832 0.893832 0.893832 0.893832 0.893832 0.893832 0.893832 0.893832 0.893832 0.893832 0.893832 0.893832 0.893832 0.893832 0.893832 0.893832 0.893832 0.893832 0.893832 0.893832 0.893832 0.893832 0.893832 0.893832 0.893832 0.893832 0.893832 0.893832 0.893832 0.893832 0.893832 0.893832 0.893832 0.893832 0.893832 0.893832 0.893832 0.893832 0.893832 0.893832 0.893832 0.893832 0.893832 0.893832 0.893831 0.893831 0.893831 0.893807 0.893731 0.893513 0.893434 0.893477 0.893554 0.89375 0.893814 0.893831 0.893831 0.893831 0.893832 0.893832 0.893832 0.893832 0.893832 0.893832 0.893832 0.893832 0.893832 0.893832 0.893832 0.893832 0.893832 0.893832 0.893832 0.893832 0.893832 0.893832 0.893832 0.893832 0.893832 0.893832 0.893832 0.893832 0.893832 0.893832 0.893832 0.893832 0.893832 0.893832 0.893832 0.893832 0.893832 0.893832 0.893832 0.893832 0.893832 0.893832 0.893832 0.893832 0.893832 0.893832 0.893832 0.893832 0.893832 0.893832 0.893832 0.893832 0.893832 0.893832 0.893832 0.893832 0.893832 0.893832 0.893832 0.893832 0.893832 0.893832 0.893832 0.893832 0.893832 0.893831 0.893831 0.893831 0.893814 0.89375 0.893554 0.893477 0.893511 0.893587 0.893765 0.893818 0.893831 0.893831 0.893832 0.893832 0.893832 0.893832 0.893832 0.893832 0.893832 0.893832 0.893832 0.893832 0.893832 0.893832 0.893832 0.893832 0.893832 0.893832 0.893832 0.893832 0.893832 0.893832 0.893832 0.893832 0.893832 0.893832 0.893832 0.893832 0.893832 0.893832 0.893832 0.893832 0.893832 0.893832 0.893832 0.893832 0.893832 0.893832 0.893832 0.893832 0.893832 0.893832 0.893832 0.893832 0.893832 0.893832 0.893832 0.893832 0.893832 0.893832 0.893832 0.893832 0.893832 0.893832 0.893832 0.893832 0.893832 0.893832 0.893832 0.893832 0.893832 0.893832 0.893832 0.893832 0.893832 0.893831 0.893831 0.893818 0.893765 0.893587 0.893511 0.893536 0.893611 0.893775 0.893821 0.893831 0.893831 0.893832 0.893832 0.893832 0.893832 0.893832 0.893832 0.893832 0.893832 0.893832 0.893832 0.893832 0.893832 0.893832 0.893832 0.893832 0.893832 0.893832 0.893832 0.893832 0.893832 0.893832 0.893832 0.893832 0.893832 0.893832 0.893832 0.893832 0.893832 0.893832 0.893832 0.893832 0.893832 0.893832 0.893832 0.893832 0.893832 0.893832 0.893832 0.893832 0.893832 0.893832 0.893832 0.893832 0.893832 0.893832 0.893832 0.893832 0.893832 0.893832 0.893832 0.893832 0.893832 0.893832 0.893832 0.893832 0.893832 0.893832 0.893832 0.893832 0.893832 0.893832 0.893832 0.893832 0.893831 0.893831 0.893821 0.893775 0.893611 0.893536 0.893552 0.893627 0.893782 0.893823 0.893831 0.893831 0.893832 0.893832 0.893832 0.893832 0.893832 0.893832 0.893832 0.893832 0.893832 0.893832 0.893832 0.893832 0.893832 0.893832 0.893832 0.893832 0.893832 0.893832 0.893832 0.893832 0.893832 0.893832 0.893832 0.893832 0.893832 0.893832 0.893832 0.893832 0.893832 0.893832 0.893832 0.893832 0.893832 0.893832 0.893832 0.893832 0.893832 0.893832 0.893832 0.893832 0.893832 0.893832 0.893832 0.893832 0.893832 0.893832 0.893832 0.893832 0.893832 0.893832 0.893832 0.893832 0.893832 0.893832 0.893832 0.893832 0.893832 0.893832 0.893832 0.893832 0.893832 0.893832 0.893832 0.893831 0.893831 0.893823 0.893782 0.893627 0.893552 0.893561 0.893634 0.893785 0.893824 0.893831 0.893831 0.893832 0.893832 0.893832 0.893832 0.893832 0.893832 0.893832 0.893832 0.893832 0.893832 0.893832 0.893832 0.893832 0.893832 0.893832 0.893832 0.893832 0.893832 0.893832 0.893832 0.893832 0.893832 0.893832 0.893832 0.893832 0.893832 0.893832 0.893832 0.893832 0.893832 0.893832 0.893832 0.893832 0.893832 0.893832 0.893832 0.893832 0.893832 0.893832 0.893832 0.893832 0.893832 0.893832 0.893832 0.893832 0.893832 0.893832 0.893832 0.893832 0.893832 0.893832 0.893832 0.893832 0.893832 0.893832 0.893832 0.893832 0.893832 0.893832 0.893832 0.893832 0.893832 0.893832 0.893831 0.893831 0.893824 0.893785 0.893634 0.893561 
SCALARS Axial_Stress float 1
LOOKUP_TABLE default
-776827000000.0 -756509000000.0 -804108000000.0 -133644000000.0 -94089600000.0 -137632000000.0 -131842000000.0 -153098000000.0 -165591000000.0 -175006000000.0 -183630000000.0 -190027000000.0 -193448000000.0 -194162000000.0 -193035000000.0 -191035000000.0 -188298000000.0 -184580000000.0 -180170000000.0 -175774000000.0 -171874000000.0 -168532000000.0 -165616000000.0 -163007000000.0 -160639000000.0 -158496000000.0 -156595000000.0 -154955000000.0 -153586000000.0 -152501000000.0 -151714000000.0 -151237000000.0 -151077000000.0 -151237000000.0 -151714000000.0 -152501000000.0 -153586000000.0 -154955000000.0 -156595000000.0 -158496000000.0 -160639000000.0 -163007000000.0 -165616000000.0 -168532000000.0 -171874000000.0 -175774000000.0 -180170000000.0 -184580000000.0 -188298000000.0 -191035000000.0 -193035000000.0 -194162000000.0 -193448000000.0 -190027000000.0 -183630000000.0 -175006000000.0 -165591000000.0 -153098000000.0 -131842000000.0 -137632000000.0 -94089600000.0 -133644000000.0 -804108000000.0 -756509000000.0 -776827000000.0 -876064000000.0 -827273000000.0 -1.27384e+12 -1.27384e+12 -827273000000.0 -876064000000.0 -914160000000.0 -1.58251e+12 -1.41479e+12 -721922000000.0 -511843000000.0 -422000000000.0 -391979000000.0 -313040000000.0 -288730000000.0 -262061000000.0 -242708000000.0 -225879000000.0 -211786000000.0 -203310000000.0 -199076000000.0 -196262000000.0 -193388000000.0 -190038000000.0 -186260000000.0 -182340000000.0 -178579000000.0 -175146000000.0 -172049000000.0 -169205000000.0 -166547000000.0 -164071000000.0 -161796000000.0 -159743000000.0 -157936000000.0 -156413000000.0 -155209000000.0 -154346000000.0 -153828000000.0 -153656000000.0 -153828000000.0 -154346000000.0 -155209000000.0 -156413000000.0 -157936000000.0 -159743000000.0 -161796000000.0 -164071000000.0 -166547000000.0 -169205000000.0 -172049000000.0 -175146000000.0 -178579000000.0 -182340000000.0 -186260000000.0 -190038000000.0 -193388000000.0 -196262000000.0 -199076000000.0 -203310000000.0 -211786000000.0 -225879000000.0 -242708000000.0 -262061000000.0 -288730000000.0 -313040000000.0 -391979000000.0 -422000000000.0 -511843000000.0 -721922000000.0 -1.41479e+12 -1.58251e+12 -914160000000.0 -958477000000.0 -1.68693e+12 -1.29372e+12 -1.09703e+12 -714391000000.0 -543559000000.0 -524487000000.0 -411846000000.0 -345095000000.0 -313251000000.0 -284302000000.0 -261506000000.0 -243587000000.0 -225954000000.0 -209696000000.0 -197924000000.0 -190403000000.0 -184892000000.0 -179802000000.0 -174702000000.0 -169679000000.0 -164837000000.0 -160227000000.0 -155890000000.0 -151813000000.0 -147938000000.0 -144248000000.0 -140796000000.0 -137665000000.0 -134922000000.0 -132611000000.0 -130762000000.0 -129411000000.0 -128586000000.0 -128309000000.0 -128586000000.0 -129411000000.0 -130762000000.0 -132611000000.0 -134922000000.0 -137665000000.0 -140796000000.0 -144248000000.0 -147938000000.0 -151813000000.0 -155890000000.0 -160227000000.0 -164837000000.0 -169679000000.0 -174702000000.0 -179802000000.0 -184892000000.0 -190403000000.0 -197924000000.0 -209696000000.0 -225954000000.0 -243587000000.0 -261506000000.0 -284302000000.0 -313251000000.0 -345095000000.0 -411846000000.0 -524487000000.0 -543559000000.0 -714391000000.0 -1.09703e+12 -1.29372e+12 -1.68693e+12 -958477000000.0 -729745000000.0 -1.36186e+12 -1.74422e+12 -1.61692e+12 -1.52591e+12 -989690000000.0 -989690000000.0 -1.52591e+12 -1.61692e+12 -1.74422e+12 -1.36186e+12 -729745000000.0 -658812000000.0 -1.16843e+12 -1.23917e+12 -1.60647e+12 -1.2099e+12 -707667000000.0 -575893000000.0 -635885000000.0 -416195000000.0 -368214000000.0 -325257000000.0 -295530000000.0 -269263000000.0 -246705000000.0 -229065000000.0 -212798000000.0 -196774000000.0 -183205000000.0 -172816000000.0 -164595000000.0 -157600000000.0 -151430000000.0 -145840000000.0 -140583000000.0 -135480000000.0 -130463000000.0 -125549000000.0 -120798000000.0 -116295000000.0 -112138000000.0 -108431000000.0 -105272000000.0 -102740000000.0 -100892000000.0 -99766000000.0 -99388000000.0 -99766000000.0 -100892000000.0 -102740000000.0 -105272000000.0 -108431000000.0 -112138000000.0 -116295000000.0 -120798000000.0 -125549000000.0 -130463000000.0 -135480000000.0 -140583000000.0 -145840000000.0 -151430000000.0 -157600000000.0 -164595000000.0 -172816000000.0 -183205000000.0 -196774000000.0 -212798000000.0 -229065000000.0 -246705000000.0 -269263000000.0 -295530000000.0 -325257000000.0 -368214000000.0 -416195000000.0 -635885000000.0 -575893000000.0 -707667000000.0 -1.2099e+12 -1.60647e+12 -1.23917e+12 -1.16843e+12 -658812000000.0 -473161000000.0 -926642000000.0 -1.20976e+12 -1.06542e+12 -804895000000.0 -899813000000.0 -823168000000.0 -582784000000.0 -717710000000.0 -409865000000.0 -376896000000.0 -326025000000.0 -294587000000.0 -265336000000.0 -239917000000.0 -218833000000.0 -199895000000.0 -183492000000.0 -170950000000.0 -161668000000.0 -154037000000.0 -146869000000.0 -139687000000.0 -132455000000.0 -125350000000.0 -118566000000.0 -112208000000.0 -106305000000.0 -100873000000.0 -95943200000.0 -91561700000.0 -87778100000.0 -84634000000.0 -82158600000.0 -80373600000.0 -79295100000.0 -78934200000.0 -79295100000.0 -80373600000.0 -82158600000.0 -84634000000.0 -87778100000.0 -91561700000.0 -95943200000.0 -100873000000.0 -106305000000.0 -112208000000.0 -118566000000.0 -125350000000.0 -132455000000.0 -139687000000.0 -146869000000.0 -154037000000.0 -161668000000.0 -170950000000.0 -183492000000.0 -199895000000.0 -218833000000.0 -239917000000.0 -265336000000.0 -294587000000.0 -326025000000.0 -376896000000.0 -409865000000.0 -717710000000.0 -582784000000.0 -823168000000.0 -899813000000.0 -804895000000.0 -1.06542e+12 -1.20976e+12 -926642000000.0 -473161000000.0 -193924000000.0 -723210000000.0 -754972000000.0 -721669000000.0 -938342000000.0 -1.16683e+12 -1.16683e+12 -938342000000.0 -721669000000.0 -754972000000.0 -723210000000.0 -193924000000.0 -639603000000.0 -528752000000.0 -616718000000.0 -724043000000.0 -993378000000.0 -773024000000.0 -782978000000.0 -827066000000.0 -941885000000.0 -521040000000.0 -471796000000.0 -390900000000.0 -339562000000.0 -291225000000.0 -246583000000.0 -207351000000.0 -172422000000.0 -143336000000.0 -118927000000.0 -99009300000.0 -82840200000.0 -69539000000.0 -58416000000.0 -49026800000.0 -41118500000.0 -34529900000.0 -29108800000.0 -24704100000.0 -21179200000.0 -18404000000.0 -16252700000.0 -14613100000.0 -13389700000.0 -12506100000.0 -11908300000.0 -11562500000.0 -11449400000.0 -11562500000.0 -11908300000.0 -12506100000.0 -13389700000.0 -14613100000.0 -16252700000.0 -18404000000.0 -21179200000.0 -24704100000.0 -29108800000.0 -34529900000.0 -41118500000.0 -49026800000.0 -58416000000.0 -69539000000.0 -82840200000.0 -99009300000.0 -118927000000.0 -143336000000.0 -172422000000.0 -207351000000.0 -246583000000.0 -291225000000.0 -339562000000.0 -390900000000.0 -471796000000.0 -521040000000.0 -941885000000.0 -827066000000.0 -782978000000.0 -773024000000.0 -993378000000.0 -724043000000.0 -616718000000.0 -528752000000.0 -639603000000.0 -41494400000.0 -749193000000.0 -421749000000.0 -367783000000.0 -835307000000.0 -913355000000.0 -435576000000.0 -635866000000.0 -247890000000.0 -252738000000.0 -211359000000.0 -190949000000.0 -171617000000.0 -154333000000.0 -139674000000.0 -126457000000.0 -115754000000.0 -105744000000.0 -97106100000.0 -90409600000.0 -85257200000.0 -80876400000.0 -76741100000.0 -72668800000.0 -68672700000.0 -64825000000.0 -61198000000.0 -57850700000.0 -54827600000.0 -52159900000.0 -49870600000.0 -47977400000.0 -46493400000.0 -45427100000.0 -44784600000.0 -44569900000.0 -44784600000.0 -45427100000.0 -46493400000.0 -47977400000.0 -49870600000.0 -52159900000.0 -54827600000.0 -57850700000.0 -61198000000.0 -64825000000.0 -68672700000.0 -72668800000.0 -76741100000.0 -80876400000.0 -85257200000.0 -90409600000.0 -97106100000.0 -105744000000.0 -115754000000.0 -126457000000.0 -139674000000.0 -154333000000.0 -171617000000.0 -190949000000.0 -211359000000.0 -252738000000.0 -247890000000.0 -635866000000.0 -435576000000.0 -913355000000.0 -835307000000.0 -367783000000.0 -421749000000.0 -749193000000.0 -41494400000.0 -376716000000.0 -618407000000.0 -768791000000.0 -768791000000.0 -618407000000.0 -376716000000.0 -147818000000.0 -288792000000.0 -154456000000.0 -666367000000.0 -778106000000.0 -754010000000.0 -477931000000.0 -439403000000.0 -334153000000.0 -391595000000.0 -9648910000.0 -17556400000.0 -9035750000.0 -9035750000.0 -9035750000.0 -9035750000.0 -9035750000.0 -9035750000.0 -9035750000.0 -9035750000.0 -9035750000.0 -9035750000.0 -9035750000.0 -9035750000.0 -9035750000.0 -9035750000.0 -9035750000.0 -9035750000.0 -9035750000.0 -9035750000.0 -9035750000.0 -9035750000.0 -9035750000.0 -9035750000.0 -9035750000.0 -9035750000.0 -9035750000.0 -9035750000.0 -9035750000.0 -9035750000.0 -9035750000.0 -9035750000.0 -9035750000.0 -9035750000.0 -9035750000.0 -9035750000.0 -9035750000.0 -9035750000.0 -9035750000.0 -9035750000.0 -9035750000.0 -9035750000.0 -9035750000.0 -9035750000.0 -9035750000.0 -9035750000.0 -9035750000.0 -9035750000.0 -9035750000.0 -9035750000.0 -9035750000.0 -9035750000.0 -9035750000.0 -17556400000.0 -9648910000.0 -391595000000.0 -334153000000.0 -439403000000.0 -477931000000.0 -754010000000.0 -778106000000.0 -666367000000.0 -154456000000.0 -288792000000.0 -147818000000.0 -185004000000.0 -78261600000.0 -384959000000.0 -55473200000.0 -291008000000.0 -510756000000.0 -48547900000.0 -452050000000.0 -232013000000.0 -384626000000.0 -170939000000.0 -162123000000.0 -155368000000.0 -143289000000.0 -128511000000.0 -114322000000.0 -101839000000.0 -91034300000.0 -81535900000.0 -72981300000.0 -65237200000.0 -58330300000.0 -52264500000.0 -46967400000.0 -42339800000.0 -38296400000.0 -34768500000.0 -31697700000.0 -29033600000.0 -26733800000.0 -24764700000.0 -23101000000.0 -21724200000.0 -20619600000.0 -19774200000.0 -19177600000.0 -18822400000.0 -18704400000.0 -18822400000.0 -19177600000.0 -19774200000.0 -20619600000.0 -21724200000.0 -23101000000.0 -24764700000.0 -26733800000.0 -29033600000.0 -31697700000.0 -34768500000.0 -38296400000.0 -42339800000.0 -46967400000.0 -52264500000.0 -58330300000.0 -65237200000.0 -72981300000.0 -81535900000.0 -91034300000.0 -101839000000.0 -114322000000.0 -128511000000.0 -143289000000.0 -155368000000.0 -162123000000.0 -170939000000.0 -384626000000.0 -232013000000.0 -452050000000.0 -48547900000.0 -510756000000.0 -291008000000.0 -55473200000.0 -384959000000.0 -78261600000.0 -185004000000.0 -114748000000.0 -120747000000.0 -350328000000.0 -98307600000.0 -233282000000.0 -234530000000.0 -296009000000.0 -441414000000.0 -18551900000.0 -166979000000.0 -9035750000.0 -9035750000.0 -9035750000.0 -9035750000.0 -9035750000.0 -9035750000.0 -9035750000.0 -9035750000.0 -9035750000.0 -9035750000.0 -9035750000.0 -9035750000.0 -9035750000.0 -9035750000.0 -9035750000.0 -9035750000.0 -9035750000.0 -9035750000.0 -9035750000.0 -9035750000.0 -9035750000.0 -9035750000.0 -9035750000.0 -9035750000.0 -9035750000.0 -9035750000.0 -9035750000.0 -9035750000.0 -9035750000.0 -9035750000.0 -9035750000.0 -9035750000.0 -9035750000.0 -9035750000.0 -9035750000.0 -9035750000.0 -9035750000.0 -9035750000.0 -9035750000.0 -9035750000.0 -9035750000.0 -9035750000.0 -9035750000.0 -9035750000.0 -9035750000.0 -9035750000.0 -9035750000.0 -9035750000.0 -9035750000.0 -9035750000.0 -9035750000.0 -9035750000.0 -9035750000.0 -9035750000.0 -9035750000.0 -166979000000.0 -18551900000.0 -441414000000.0 -296009000000.0 -234530000000.0 -233282000000.0 -98307600000.0 -350328000000.0 -120747000000.0 -114748000000.0 -233421000000.0 -86994700000.0 -235349000000.0 -193848000000.0 -436060000000.0 -120904000000.0 -212571000000.0 -95750300000.0 -80742300000.0 -67520600000.0 -56816700000.0 -48147700000.0 -40944100000.0 -34927600000.0 -29934200000.0 -25818700000.0 -22452700000.0 -19725100000.0 -17538800000.0 -15803600000.0 -14432700000.0 -13349500000.0 -12493000000.0 -11816400000.0 -11281900000.0 -10859700000.0 -10526800000.0 -10265900000.0 -10063300000.0 -9907890000.0 -9790980000.0 -9705920000.0 -9648060000.0 -9614430000.0 -9603390000.0 -9614430000.0 -9648060000.0 -9705920000.0 -9790980000.0 -9907890000.0 -10063300000.0 -10265900000.0 -10526800000.0 -10859700000.0 -11281900000.0 -11816400000.0 -12493000000.0 -13349500000.0 -14432700000.0 -15803600000.0 -17538800000.0 -19725100000.0 -22452700000.0 -25818700000.0 -29934200000.0 -34927600000.0 -40944100000.0 -48147700000.0 -56816700000.0 -67520600000.0 -80742300000.0 -95750300000.0 -212571000000.0 -120904000000.0 -436060000000.0 -193848000000.0 -235349000000.0 -86994700000.0 -233421000000.0 -70154300000.0 -18618800000.0 -42017700000.0 -42017700000.0 -18618800000.0 -70154300000.0 -70788400000.0 -30226400000.0 -188292000000.0 -20648700000.0 -75700500000.0 -216794000000.0 -88196400000.0 -305047000000.0 -9847370000.0 -87058000000.0 -9040960000.0 -9036120000.0 -9036120000.0 -9036040000.0 -9035970000.0 -9035920000.0 -9035880000.0 -9035850000.0 -9035830000.0 -9035810000.0 -9035800000.0 -9035790000.0 -9035780000.0 -9035780000.0 -9035770000.0 -9035770000.0 -9035770000.0 -9035760000.0 -9035760000.0 -9035760000.0 -9035760000.0 -9035760000.0 -9035760000.0 -9035760000.0 -9035750000.0 -9035750000.0 -9035750000.0 -9035750000.0 -9035750000.0 -9035750000.0 -9035750000.0 -9035760000.0 -9035760000.0 -9035760000.0 -9035760000.0 -9035760000.0 -9035760000.0 -9035760000.0 -9035770000.0 -9035770000.0 -9035770000.0 -9035780000.0 -9035780000.0 -9035790000.0 -9035800000.0 -9035810000.0 -9035830000.0 -9035850000.0 -9035880000.0 -9035920000.0 -9035970000.0 -9036040000.0 -9036120000.0 -9036120000.0 -9040960000.0 -87058000000.0 -9847370000.0 -305047000000.0 -88196400000.0 -216794000000.0 -75700500000.0 -20648700000.0 -188292000000.0 -30226400000.0 -70788400000.0 -61463000000.0 -220444000000.0 -58230300000.0 -261792000000.0 -14297700000.0 -67530500000.0 -11223700000.0 -10571000000.0 -9959080000.0 -9410520000.0 -9139690000.0 -9062290000.0 -9048660000.0 -9047620000.0 -9048100000.0 -9048480000.0 -9048670000.0 -9048670000.0 -9048440000.0 -9048030000.0 -9047420000.0 -9046600000.0 -9045700000.0 -9044750000.0 -9043710000.0 -9042680000.0 -9041710000.0 -9040800000.0 -9039920000.0 -9039160000.0 -9038570000.0 -9038130000.0 -9037860000.0 -9037770000.0 -9037860000.0 -9038130000.0 -9038570000.0 -9039160000.0 -9039920000.0 -9040800000.0 -9041710000.0 -9042680000.0 -9043710000.0 -9044750000.0 -9045700000.0 -9046600000.0 -9047420000.0 -9048030000.0 -9048440000.0 -9048670000.0 -9048670000.0 -9048480000.0 -9048100000.0 -9047620000.0 -9048660000.0 -9062290000.0 -9139690000.0 -9410520000.0 -9959080000.0 -10571000000.0 -11223700000.0 -67530500000.0 -14297700000.0 -261792000000.0 -58230300000.0 -220444000000.0 -61463000000.0 -77152600000.0 -35746800000.0 -163134000000.0 -26375500000.0 -26375500000.0 -163134000000.0 -35746800000.0 -77152600000.0 -81208300000.0 -45965600000.0 -143016000000.0 -34132800000.0 -66706000000.0 -214631000000.0 -25869800000.0 -215687000000.0 -9037880000.0 -48338000000.0 -9036930000.0 -9038430000.0 -9037620000.0 -9037100000.0 -9036750000.0 -9036500000.0 -9036320000.0 -9036190000.0 -9036090000.0 -9036020000.0 -9035960000.0 -9035920000.0 -9035890000.0 -9035870000.0 -9035850000.0 -9035830000.0 -9035820000.0 -9035810000.0 -9035800000.0 -9035790000.0 -9035780000.0 -9035770000.0 -9035770000.0 -9035760000.0 -9035760000.0 -9035760000.0 -9035750000.0 -9035750000.0 -9035750000.0 -9035760000.0 -9035760000.0 -9035760000.0 -9035770000.0 -9035770000.0 -9035780000.0 -9035790000.0 -9035800000.0 -9035810000.0 -9035820000.0 -9035830000.0 -9035850000.0 -9035870000.0 -9035890000.0 -9035920000.0 -9035960000.0 -9036020000.0 -9036090000.0 -9036190000.0 -9036320000.0 -9036500000.0 -9036750000.0 -9037100000.0 -9037620000.0 -9038430000.0 -9036930000.0 -48338000000.0 -9037880000.0 -215687000000.0 -25869800000.0 -214631000000.0 -66706000000.0 -34132800000.0 -143016000000.0 -45965600000.0 -81208300000.0 -84236600000.0 -53721300000.0 -124538000000.0 -40374300000.0 -67222700000.0 -202460000000.0 -12790300000.0 -179227000000.0 -9041690000.0 -36889100000.0 -9039090000.0 -9039310000.0 -9038290000.0 -9037600000.0 -9037120000.0 -9036780000.0 -9036530000.0 -9036350000.0 -9036210000.0 -9036110000.0 -9036040000.0 -9035980000.0 -9035940000.0 -9035910000.0 -9035880000.0 -9035860000.0 -9035840000.0 -9035820000.0 -9035810000.0 -9035800000.0 -9035790000.0 -9035780000.0 -9035770000.0 -9035770000.0 -9035760000.0 -9035760000.0 -9035750000.0 -9035750000.0 -9035750000.0 -9035760000.0 -9035760000.0 -9035770000.0 -9035770000.0 -9035780000.0 -9035790000.0 -9035800000.0 -9035810000.0 -9035820000.0 -9035840000.0 -9035860000.0 -9035880000.0 -9035910000.0 -9035940000.0 -9035980000.0 -9036040000.0 -9036110000.0 -9036210000.0 -9036350000.0 -9036530000.0 -9036780000.0 -9037120000.0 -9037600000.0 -9038290000.0 -9039310000.0 -9039090000.0 -36889100000.0 -9041690000.0 -179227000000.0 -12790300000.0 -202460000000.0 -67222700000.0 -40374300000.0 -124538000000.0 -53721300000.0 -84236600000.0 -85817600000.0 -60002400000.0 -108127000000.0 -46353100000.0 -67739100000.0 -186229000000.0 -9467310000.0 -147626000000.0 -9045270000.0 -28671100000.0 -9041170000.0 -9040180000.0 -9038930000.0 -9038060000.0 -9037470000.0 -9037030000.0 -9036720000.0 -9036500000.0 -9036330000.0 -9036200000.0 -9036110000.0 -9036040000.0 -9035990000.0 -9035950000.0 -9035910000.0 -9035880000.0 -9035860000.0 -9035840000.0 -9035820000.0 -9035810000.0 -9035800000.0 -9035790000.0 -9035780000.0 -9035770000.0 -9035760000.0 -9035760000.0 -9035750000.0 -9035750000.0 -9035750000.0 -9035760000.0 -9035760000.0 -9035770000.0 -9035780000.0 -9035790000.0 -9035800000.0 -9035810000.0 -9035820000.0 -9035840000.0 -9035860000.0 -9035880000.0 -9035910000.0 -9035950000.0 -9035990000.0 -9036040000.0 -9036110000.0 -9036200000.0 -9036330000.0 -9036500000.0 -9036720000.0 -9037030000.0 -9037470000.0 -9038060000.0 -9038930000.0 -9040180000.0 -9041170000.0 -28671100000.0 -9045270000.0 -147626000000.0 -9467310000.0 -186229000000.0 -67739100000.0 -46353100000.0 -108127000000.0 -60002400000.0 -85817600000.0 -86018000000.0 -64308400000.0 -93336600000.0 -50985700000.0 -66251100000.0 -166889000000.0 -9082700000.0 -120793000000.0 -9048520000.0 -22770200000.0 -9042850000.0 -9041000000.0 -9039520000.0 -9038490000.0 -9037780000.0 -9037270000.0 -9036900000.0 -9036630000.0 -9036430000.0 -9036290000.0 -9036180000.0 -9036090000.0 -9036030000.0 -9035980000.0 -9035940000.0 -9035910000.0 -9035880000.0 -9035860000.0 -9035840000.0 -9035820000.0 -9035810000.0 -9035790000.0 -9035780000.0 -9035770000.0 -9035760000.0 -9035760000.0 -9035750000.0 -9035750000.0 -9035750000.0 -9035760000.0 -9035760000.0 -9035770000.0 -9035780000.0 -9035790000.0 -9035810000.0 -9035820000.0 -9035840000.0 -9035860000.0 -9035880000.0 -9035910000.0 -9035940000.0 -9035980000.0 -9036030000.0 -9036090000.0 -9036180000.0 -9036290000.0 -9036430000.0 -9036630000.0 -9036900000.0 -9037270000.0 -9037780000.0 -9038490000.0 -9039520000.0 -9041000000.0 -9042850000.0 -22770200000.0 -9048520000.0 -120793000000.0 -9082700000.0 -166889000000.0 -66251100000.0 -50985700000.0 -93336600000.0 -64308400000.0 -86018000000.0 -84843000000.0 -66729400000.0 -80660800000.0 -54276000000.0 -63269700000.0 -146276000000.0 -9063350000.0 -98234200000.0 -9051420000.0 -18529500000.0 -9044060000.0 -9041740000.0 -9040050000.0 -9038870000.0 -9038070000.0 -9037480000.0 -9037060000.0 -9036750000.0 -9036520000.0 -9036360000.0 -9036230000.0 -9036140000.0 -9036070000.0 -9036010000.0 -9035960000.0 -9035930000.0 -9035890000.0 -9035870000.0 -9035850000.0 -9035830000.0 -9035810000.0 -9035800000.0 -9035780000.0 -9035770000.0 -9035770000.0 -9035760000.0 -9035750000.0 -9035750000.0 -9035750000.0 -9035760000.0 -9035770000.0 -9035770000.0 -9035780000.0 -9035800000.0 -9035810000.0 -9035830000.0 -9035850000.0 -9035870000.0 -9035890000.0 -9035930000.0 -9035960000.0 -9036010000.0 -9036070000.0 -9036140000.0 -9036230000.0 -9036360000.0 -9036520000.0 -9036750000.0 -9037060000.0 -9037480000.0 -9038070000.0 -9038870000.0 -9040050000.0 -9041740000.0 -9044060000.0 -18529500000.0 -9051420000.0 -98234200000.0 -9063350000.0 -146276000000.0 -63269700000.0 -54276000000.0 -80660800000.0 -66729400000.0 -84843000000.0 -82448700000.0 -67514400000.0 -70172300000.0 -56289200000.0 -59213300000.0 -125832000000.0 -9067140000.0 -79470300000.0 -9053830000.0 -15490800000.0 -9045010000.0 -9042390000.0 -9040510000.0 -9039210000.0 -9038310000.0 -9037670000.0 -9037200000.0 -9036860000.0 -9036600000.0 -9036420000.0 -9036280000.0 -9036180000.0 -9036100000.0 -9036030000.0 -9035980000.0 -9035940000.0 -9035910000.0 -9035880000.0 -9035860000.0 -9035830000.0 -9035820000.0 -9035800000.0 -9035790000.0 -9035780000.0 -9035770000.0 -9035760000.0 -9035750000.0 -9035750000.0 -9035750000.0 -9035760000.0 -9035770000.0 -9035780000.0 -9035790000.0 -9035800000.0 -9035820000.0 -9035830000.0 -9035860000.0 -9035880000.0 -9035910000.0 -9035940000.0 -9035980000.0 -9036030000.0 -9036100000.0 -9036180000.0 -9036280000.0 -9036420000.0 -9036600000.0 -9036860000.0 -9037200000.0 -9037670000.0 -9038310000.0 -9039210000.0 -9040510000.0 -9042390000.0 -9045010000.0 -15490800000.0 -9053830000.0 -79470300000.0 -9067140000.0 -125832000000.0 -59213300000.0 -56289200000.0 -70172300000.0 -67514400000.0 -82448700000.0 -79111800000.0 -66993000000.0 -61606700000.0 -57131800000.0 -54434800000.0 -106535000000.0 -9071250000.0 -64050900000.0 -9055690000.0 -13335100000.0 -9045780000.0 -9042940000.0 -9040900000.0 -9039490000.0 -9038520000.0 -9037820000.0 -9037310000.0 -9036950000.0 -9036670000.0 -9036470000.0 -9036320000.0 -9036210000.0 -9036120000.0 -9036050000.0 -9036000000.0 -9035950000.0 -9035920000.0 -9035890000.0 -9035860000.0 -9035840000.0 -9035820000.0 -9035800000.0 -9035790000.0 -9035780000.0 -9035770000.0 -9035760000.0 -9035750000.0 -9035750000.0 -9035750000.0 -9035760000.0 -9035770000.0 -9035780000.0 -9035790000.0 -9035800000.0 -9035820000.0 -9035840000.0 -9035860000.0 -9035890000.0 -9035920000.0 -9035950000.0 -9036000000.0 -9036050000.0 -9036120000.0 -9036210000.0 -9036320000.0 -9036470000.0 -9036670000.0 -9036950000.0 -9037310000.0 -9037820000.0 -9038520000.0 -9039490000.0 -9040900000.0 -9042940000.0 -9045780000.0 -13335100000.0 -9055690000.0 -64050900000.0 -9071250000.0 -106535000000.0 -54434800000.0 -57131800000.0 -61606700000.0 -66993000000.0 -79111800000.0 -75141800000.0 -65495700000.0 -54655000000.0 -56933300000.0 -49264300000.0 -88996700000.0 -9074740000.0 -51530400000.0 -9057080000.0 -11831900000.0 -9046400000.0 -9043380000.0 -9041220000.0 -9039720000.0 -9038690000.0 -9037950000.0 -9037410000.0 -9037020000.0 -9036720000.0 -9036510000.0 -9036350000.0 -9036230000.0 -9036140000.0 -9036070000.0 -9036010000.0 -9035960000.0 -9035930000.0 -9035890000.0 -9035870000.0 -9035840000.0 -9035820000.0 -9035810000.0 -9035790000.0 -9035780000.0 -9035770000.0 -9035760000.0 -9035750000.0 -9035750000.0 -9035750000.0 -9035760000.0 -9035770000.0 -9035780000.0 -9035790000.0 -9035810000.0 -9035820000.0 -9035840000.0 -9035870000.0 -9035890000.0 -9035930000.0 -9035960000.0 -9036010000.0 -9036070000.0 -9036140000.0 -9036230000.0 -9036350000.0 -9036510000.0 -9036720000.0 -9037020000.0 -9037410000.0 -9037950000.0 -9038690000.0 -9039720000.0 -9041220000.0 -9043380000.0 -9046400000.0 -11831900000.0 -9057080000.0 -51530400000.0 -9074740000.0 -88996700000.0 -49264300000.0 -56933300000.0 -54655000000.0 -65495700000.0 -75141800000.0 -70820800000.0 -63308400000.0 -49067600000.0 -55839500000.0 -44000000000.0 -73554000000.0 -9077570000.0 -41486900000.0 -9058120000.0 -10807500000.0 -9046880000.0 -9043720000.0 -9041460000.0 -9039900000.0 -9038820000.0 -9038040000.0 -9037480000.0 -9037070000.0 -9036760000.0 -9036540000.0 -9036380000.0 -9036250000.0 -9036160000.0 -9036080000.0 -9036020000.0 -9035970000.0 -9035930000.0 -9035900000.0 -9035870000.0 -9035840000.0 -9035820000.0 -9035810000.0 -9035790000.0 -9035780000.0 -9035770000.0 -9035760000.0 -9035750000.0 -9035750000.0 -9035750000.0 -9035760000.0 -9035770000.0 -9035780000.0 -9035790000.0 -9035810000.0 -9035820000.0 -9035840000.0 -9035870000.0 -9035900000.0 -9035930000.0 -9035970000.0 -9036020000.0 -9036080000.0 -9036160000.0 -9036250000.0 -9036380000.0 -9036540000.0 -9036760000.0 -9037070000.0 -9037480000.0 -9038040000.0 -9038820000.0 -9039900000.0 -9041460000.0 -9043720000.0 -9046880000.0 -10807500000.0 -9058120000.0 -41486900000.0 -9077570000.0 -73554000000.0 -44000000000.0 -55839500000.0 -49067600000.0 -63308400000.0 -70820800000.0 -66380300000.0 -60661100000.0 -44608800000.0 -54005900000.0 -38885800000.0 -60319400000.0 -9079710000.0 -33532800000.0 -9058850000.0 -10127600000.0 -9047220000.0 -9043960000.0 -9041630000.0 -9040020000.0 -9038910000.0 -9038100000.0 -9037520000.0 -9037100000.0 -9036790000.0 -9036560000.0 -9036390000.0 -9036260000.0 -9036160000.0 -9036090000.0 -9036020000.0 -9035970000.0 -9035930000.0 -9035900000.0 -9035870000.0 -9035850000.0 -9035820000.0 -9035810000.0 -9035790000.0 -9035780000.0 -9035770000.0 -9035760000.0 -9035750000.0 -9035750000.0 -9035750000.0 -9035760000.0 -9035770000.0 -9035780000.0 -9035790000.0 -9035810000.0 -9035820000.0 -9035850000.0 -9035870000.0 -9035900000.0 -9035930000.0 -9035970000.0 -9036020000.0 -9036090000.0 -9036160000.0 -9036260000.0 -9036390000.0 -9036560000.0 -9036790000.0 -9037100000.0 -9037520000.0 -9038100000.0 -9038910000.0 -9040020000.0 -9041630000.0 -9043960000.0 -9047220000.0 -10127600000.0 -9058850000.0 -33532800000.0 -9079710000.0 -60319400000.0 -38885800000.0 -54005900000.0 -44608800000.0 -60661100000.0 -66380300000.0 -61996300000.0 -57732800000.0 -41029100000.0 -51590500000.0 -34101500000.0 -49236900000.0 -9081200000.0 -27314300000.0 -9059300000.0 -9689460000.0 -9047420000.0 -9044100000.0 -9041730000.0 -9040090000.0 -9038960000.0 -9038140000.0 -9037550000.0 -9037120000.0 -9036800000.0 -9036570000.0 -9036400000.0 -9036270000.0 -9036170000.0 -9036090000.0 -9036020000.0 -9035970000.0 -9035930000.0 -9035900000.0 -9035870000.0 -9035840000.0 -9035820000.0 -9035810000.0 -9035790000.0 -9035780000.0 -9035770000.0 -9035760000.0 -9035750000.0 -9035750000.0 -9035750000.0 -9035760000.0 -9035770000.0 -9035780000.0 -9035790000.0 -9035810000.0 -9035820000.0 -9035840000.0 -9035870000.0 -9035900000.0 -9035930000.0 -9035970000.0 -9036020000.0 -9036090000.0 -9036170000.0 -9036270000.0 -9036400000.0 -9036570000.0 -9036800000.0 -9037120000.0 -9037550000.0 -9038140000.0 -9038960000.0 -9040090000.0 -9041730000.0 -9044100000.0 -9047420000.0 -9689460000.0 -9059300000.0 -27314300000.0 -9081200000.0 -49236900000.0 -34101500000.0 -51590500000.0 -41029100000.0 -57732800000.0 -61996300000.0 -57788800000.0 -54658500000.0 -38091000000.0 -48747000000.0 -29763600000.0 -40144600000.0 -9082060000.0 -22513700000.0 -9059470000.0 -9416120000.0 -9047480000.0 -9044140000.0 -9041760000.0 -9040110000.0 -9038970000.0 -9038150000.0 -9037550000.0 -9037120000.0 -9036800000.0 -9036570000.0 -9036390000.0 -9036260000.0 -9036160000.0 -9036080000.0 -9036020000.0 -9035970000.0 -9035930000.0 -9035900000.0 -9035870000.0 -9035840000.0 -9035820000.0 -9035800000.0 -9035790000.0 -9035780000.0 -9035770000.0 -9035760000.0 -9035750000.0 -9035750000.0 -9035750000.0 -9035760000.0 -9035770000.0 -9035780000.0 -9035790000.0 -9035800000.0 -9035820000.0 -9035840000.0 -9035870000.0 -9035900000.0 -9035930000.0 -9035970000.0 -9036020000.0 -9036080000.0 -9036160000.0 -9036260000.0 -9036390000.0 -9036570000.0 -9036800000.0 -9037120000.0 -9037550000.0 -9038150000.0 -9038970000.0 -9040110000.0 -9041760000.0 -9044140000.0 -9047480000.0 -9416120000.0 -9059470000.0 -22513700000.0 -9082060000.0 -40144600000.0 -29763600000.0 -48747000000.0 -38091000000.0 -54658500000.0 -57788800000.0 -53828100000.0 -51537200000.0 -35600600000.0 -45619100000.0 -25933400000.0 -32822800000.0 -9082330000.0 -18854300000.0 -9059390000.0 -9251520000.0 -9047420000.0 -9044100000.0 -9041720000.0 -9040080000.0 -9038950000.0 -9038130000.0 -9037540000.0 -9037110000.0 -9036790000.0 -9036560000.0 -9036390000.0 -9036250000.0 -9036160000.0 -9036080000.0 -9036020000.0 -9035970000.0 -9035920000.0 -9035890000.0 -9035860000.0 -9035840000.0 -9035820000.0 -9035800000.0 -9035790000.0 -9035780000.0 -9035770000.0 -9035760000.0 -9035750000.0 -9035750000.0 -9035750000.0 -9035760000.0 -9035770000.0 -9035780000.0 -9035790000.0 -9035800000.0 -9035820000.0 -9035840000.0 -9035860000.0 -9035890000.0 -9035920000.0 -9035970000.0 -9036020000.0 -9036080000.0 -9036160000.0 -9036250000.0 -9036390000.0 -9036560000.0 -9036790000.0 -9037110000.0 -9037540000.0 -9038130000.0 -9038950000.0 -9040080000.0 -9041720000.0 -9044100000.0 -9047420000.0 -9251520000.0 -9059390000.0 -18854300000.0 -9082330000.0 -32822800000.0 -25933400000.0 -45619100000.0 -35600600000.0 -51537200000.0 -53828100000.0 -50145500000.0 -48439100000.0 -33416100000.0 -42335300000.0 -22627700000.0 -27026200000.0 -9082060000.0 -16101000000.0 -9059090000.0 -9156200000.0 -9047250000.0 -9043970000.0 -9041630000.0 -9040010000.0 -9038890000.0 -9038090000.0 -9037500000.0 -9037080000.0 -9036770000.0 -9036540000.0 -9036370000.0 -9036240000.0 -9036150000.0 -9036070000.0 -9036010000.0 -9035960000.0 -9035920000.0 -9035890000.0 -9035860000.0 -9035840000.0 -9035820000.0 -9035800000.0 -9035790000.0 -9035770000.0 -9035770000.0 -9035760000.0 -9035750000.0 -9035750000.0 -9035750000.0 -9035760000.0 -9035770000.0 -9035770000.0 -9035790000.0 -9035800000.0 -9035820000.0 -9035840000.0 -9035860000.0 -9035890000.0 -9035920000.0 -9035960000.0 -9036010000.0 -9036070000.0 -9036150000.0 -9036240000.0 -9036370000.0 -9036540000.0 -9036770000.0 -9037080000.0 -9037500000.0 -9038090000.0 -9038890000.0 -9040010000.0 -9041630000.0 -9043970000.0 -9047250000.0 -9156200000.0 -9059090000.0 -16101000000.0 -9082060000.0 -27026200000.0 -22627700000.0 -42335300000.0 -33416100000.0 -48439100000.0 -50145500000.0 -46743900000.0 -45412400000.0 -31440100000.0 -39006300000.0 -19831300000.0 -22507300000.0 -9081310000.0 -14057400000.0 -9058570000.0 -9103280000.0 -9046980000.0 -9043780000.0 -9041490000.0 -9039910000.0 -9038810000.0 -9038020000.0 -9037460000.0 -9037040000.0 -9036740000.0 -9036520000.0 -9036350000.0 -9036230000.0 -9036130000.0 -9036060000.0 -9036000000.0 -9035950000.0 -9035910000.0 -9035880000.0 -9035850000.0 -9035830000.0 -9035810000.0 -9035800000.0 -9035780000.0 -9035770000.0 -9035760000.0 -9035760000.0 -9035750000.0 -9035750000.0 -9035750000.0 -9035760000.0 -9035760000.0 -9035770000.0 -9035780000.0 -9035800000.0 -9035810000.0 -9035830000.0 -9035850000.0 -9035880000.0 -9035910000.0 -9035950000.0 -9036000000.0 -9036060000.0 -9036130000.0 -9036230000.0 -9036350000.0 -9036520000.0 -9036740000.0 -9037040000.0 -9037460000.0 -9038020000.0 -9038810000.0 -9039910000.0 -9041490000.0 -9043780000.0 -9046980000.0 -9103280000.0 -9058570000.0 -14057400000.0 -9081310000.0 -22507300000.0 -19831300000.0 -39006300000.0 -31440100000.0 -45412400000.0 -46743900000.0 -43608600000.0 -42489200000.0 -29608600000.0 -35723400000.0 -17507300000.0 -19032900000.0 -9080150000.0 -12561600000.0 -9057880000.0 -9075230000.0 -9046620000.0 -9043520000.0 -9041300000.0 -9039770000.0 -9038710000.0 -9037950000.0 -9037400000.0 -9037000000.0 -9036700000.0 -9036490000.0 -9036330000.0 -9036210000.0 -9036110000.0 -9036040000.0 -9035990000.0 -9035940000.0 -9035900000.0 -9035870000.0 -9035850000.0 -9035830000.0 -9035810000.0 -9035800000.0 -9035780000.0 -9035770000.0 -9035760000.0 -9035760000.0 -9035750000.0 -9035750000.0 -9035750000.0 -9035760000.0 -9035760000.0 -9035770000.0 -9035780000.0 -9035800000.0 -9035810000.0 -9035830000.0 -9035850000.0 -9035870000.0 -9035900000.0 -9035940000.0 -9035990000.0 -9036040000.0 -9036110000.0 -9036210000.0 -9036330000.0 -9036490000.0 -9036700000.0 -9037000000.0 -9037400000.0 -9037950000.0 -9038710000.0 -9039770000.0 -9041300000.0 -9043520000.0 -9046620000.0 -9075230000.0 -9057880000.0 -12561600000.0 -9080150000.0 -19032900000.0 -17507300000.0 -35723400000.0 -29608600000.0 -42489200000.0 -43608600000.0 -40714700000.0 -39689600000.0 -27881300000.0 -32558900000.0 -15606700000.0 -16394600000.0 -9078640000.0 -11481900000.0 -9057030000.0 -9061040000.0 -9046190000.0 -9043210000.0 -9041080000.0 -9039610000.0 -9038590000.0 -9037850000.0 -9037320000.0 -9036940000.0 -9036660000.0 -9036450000.0 -9036300000.0 -9036180000.0 -9036100000.0 -9036030000.0 -9035970000.0 -9035930000.0 -9035890000.0 -9035870000.0 -9035840000.0 -9035820000.0 -9035810000.0 -9035790000.0 -9035780000.0 -9035770000.0 -9035760000.0 -9035760000.0 -9035750000.0 -9035750000.0 -9035750000.0 -9035760000.0 -9035760000.0 -9035770000.0 -9035780000.0 -9035790000.0 -9035810000.0 -9035820000.0 -9035840000.0 -9035870000.0 -9035890000.0 -9035930000.0 -9035970000.0 -9036030000.0 -9036100000.0 -9036180000.0 -9036300000.0 -9036450000.0 -9036660000.0 -9036940000.0 -9037320000.0 -9037850000.0 -9038590000.0 -9039610000.0 -9041080000.0 -9043210000.0 -9046190000.0 -9061040000.0 -9057030000.0 -11481900000.0 -9078640000.0 -16394600000.0 -15606700000.0 -32558900000.0 -27881300000.0 -39689600000.0 -40714700000.0 -38034300000.0 -37026100000.0 -26235400000.0 -29567500000.0 -14075000000.0 -14413400000.0 -9076830000.0 -10713300000.0 -9056060000.0 -9054110000.0 -9045700000.0 -9042860000.0 -9040830000.0 -9039420000.0 -9038450000.0 -9037750000.0 -9037240000.0 -9036880000.0 -9036610000.0 -9036410000.0 -9036270000.0 -9036160000.0 -9036070000.0 -9036010000.0 -9035960000.0 -9035920000.0 -9035880000.0 -9035860000.0 -9035840000.0 -9035820000.0 -9035800000.0 -9035790000.0 -9035780000.0 -9035770000.0 -9035760000.0 -9035760000.0 -9035750000.0 -9035750000.0 -9035750000.0 -9035760000.0 -9035760000.0 -9035770000.0 -9035780000.0 -9035790000.0 -9035800000.0 -9035820000.0 -9035840000.0 -9035860000.0 -9035880000.0 -9035920000.0 -9035960000.0 -9036010000.0 -9036070000.0 -9036160000.0 -9036270000.0 -9036410000.0 -9036610000.0 -9036880000.0 -9037240000.0 -9037750000.0 -9038450000.0 -9039420000.0 -9040830000.0 -9042860000.0 -9045700000.0 -9054110000.0 -9056060000.0 -10713300000.0 -9076830000.0 -14413400000.0 -14075000000.0 -29567500000.0 -26235400000.0 -37026100000.0 -38034300000.0 -35540600000.0 -34505600000.0 -24660000000.0 -26787700000.0 -12857600000.0 -12940500000.0 -9074800000.0 -10173600000.0 -9054990000.0 -9050710000.0 -9045170000.0 -9042470000.0 -9040550000.0 -9039220000.0 -9038300000.0 -9037630000.0 -9037160000.0 -9036810000.0 -9036560000.0 -9036370000.0 -9036230000.0 -9036130000.0 -9036050000.0 -9035990000.0 -9035940000.0 -9035910000.0 -9035870000.0 -9035850000.0 -9035830000.0 -9035810000.0 -9035800000.0 -9035790000.0 -9035780000.0 -9035770000.0 -9035760000.0 -9035760000.0 -9035750000.0 -9035750000.0 -9035750000.0 -9035760000.0 -9035760000.0 -9035770000.0 -9035780000.0 -9035790000.0 -9035800000.0 -9035810000.0 -9035830000.0 -9035850000.0 -9035870000.0 -9035910000.0 -9035940000.0 -9035990000.0 -9036050000.0 -9036130000.0 -9036230000.0 -9036370000.0 -9036560000.0 -9036810000.0 -9037160000.0 -9037630000.0 -9038300000.0 -9039220000.0 -9040550000.0 -9042470000.0 -9045170000.0 -9050710000.0 -9054990000.0 -10173600000.0 -9074800000.0 -12940500000.0 -12857600000.0 -26787700000.0 -24660000000.0 -34505600000.0 -35540600000.0 -33211300000.0 -32131500000.0 -23152000000.0 -24243600000.0 -11902800000.0 -11855400000.0 -9072590000.0 -9799690000.0 -9053850000.0 -9048890000.0 -9044600000.0 -9042060000.0 -9040260000.0 -9039010000.0 -9038140000.0 -9037520000.0 -9037070000.0 -9036740000.0 -9036500000.0 -9036330000.0 -9036200000.0 -9036100000.0 -9036030000.0 -9035970000.0 -9035930000.0 -9035890000.0 -9035860000.0 -9035840000.0 -9035820000.0 -9035810000.0 -9035790000.0 -9035780000.0 -9035770000.0 -9035770000.0 -9035760000.0 -9035760000.0 -9035750000.0 -9035750000.0 -9035750000.0 -9035760000.0 -9035760000.0 -9035770000.0 -9035770000.0 -9035780000.0 -9035790000.0 -9035810000.0 -9035820000.0 -9035840000.0 -9035860000.0 -9035890000.0 -9035930000.0 -9035970000.0 -9036030000.0 -9036100000.0 -9036200000.0 -9036330000.0 -9036500000.0 -9036740000.0 -9037070000.0 -9037520000.0 -9038140000.0 -9039010000.0 -9040260000.0 -9042060000.0 -9044600000.0 -9048890000.0 -9053850000.0 -9799690000.0 -9072590000.0 -11855400000.0 -11902800000.0 -24243600000.0 -23152000000.0 -32131500000.0 -33211300000.0 -31028800000.0 -29904800000.0 -21713700000.0 -21947500000.0 -11163300000.0 -11062500000.0 -9070270000.0 -9544050000.0 -9052660000.0 -9047690000.0 -9044010000.0 -9041640000.0 -9039950000.0 -9038780000.0 -9037980000.0 -9037390000.0 -9036970000.0 -9036670000.0 -9036450000.0 -9036290000.0 -9036170000.0 -9036080000.0 -9036010000.0 -9035960000.0 -9035910000.0 -9035880000.0 -9035850000.0 -9035830000.0 -9035820000.0 -9035800000.0 -9035790000.0 -9035780000.0 -9035770000.0 -9035770000.0 -9035760000.0 -9035760000.0 -9035750000.0 -9035750000.0 -9035750000.0 -9035760000.0 -9035760000.0 -9035770000.0 -9035770000.0 -9035780000.0 -9035790000.0 -9035800000.0 -9035820000.0 -9035830000.0 -9035850000.0 -9035880000.0 -9035910000.0 -9035960000.0 -9036010000.0 -9036080000.0 -9036170000.0 -9036290000.0 -9036450000.0 -9036670000.0 -9036970000.0 -9037390000.0 -9037980000.0 -9038780000.0 -9039950000.0 -9041640000.0 -9044010000.0 -9047690000.0 -9052660000.0 -9544050000.0 -9070270000.0 -11062500000.0 -11163300000.0 -21947500000.0 -21713700000.0 -29904800000.0 -31028800000.0 -28980800000.0 -27824500000.0 -20349900000.0 -19901900000.0 -10597900000.0 -10487200000.0 -9067870000.0 -9371500000.0 -9051440000.0 -9046720000.0 -9043410000.0 -9041210000.0 -9039650000.0 -9038560000.0 -9037810000.0 -9037270000.0 -9036880000.0 -9036600000.0 -9036390000.0 -9036240000.0 -9036130000.0 -9036050000.0 -9035990000.0 -9035940000.0 -9035900000.0 -9035870000.0 -9035840000.0 -9035830000.0 -9035810000.0 -9035800000.0 -9035790000.0 -9035780000.0 -9035770000.0 -9035760000.0 -9035760000.0 -9035760000.0 -9035750000.0 -9035750000.0 -9035750000.0 -9035760000.0 -9035760000.0 -9035760000.0 -9035770000.0 -9035780000.0 -9035790000.0 -9035800000.0 -9035810000.0 -9035830000.0 -9035840000.0 -9035870000.0 -9035900000.0 -9035940000.0 -9035990000.0 -9036050000.0 -9036130000.0 -9036240000.0 -9036390000.0 -9036600000.0 -9036880000.0 -9037270000.0 -9037810000.0 -9038560000.0 -9039650000.0 -9041210000.0 -9043410000.0 -9046720000.0 -9051440000.0 -9371500000.0 -9067870000.0 -10487200000.0 -10597900000.0 -19901900000.0 -20349900000.0 -27824500000.0 -28980800000.0 -27059400000.0 -25888700000.0 -19066200000.0 -18101400000.0 -10171000000.0 -10072600000.0 -9065450000.0 -9256450000.0 -9050220000.0 -9045830000.0 -9042810000.0 -9040780000.0 -9039340000.0 -9038340000.0 -9037640000.0 -9037140000.0 -9036790000.0 -9036530000.0 -9036340000.0 -9036200000.0 -9036100000.0 -9036020000.0 -9035960000.0 -9035920000.0 -9035890000.0 -9035860000.0 -9035840000.0 -9035820000.0 -9035800000.0 -9035790000.0 -9035780000.0 -9035770000.0 -9035770000.0 -9035760000.0 -9035760000.0 -9035760000.0 -9035750000.0 -9035750000.0 -9035750000.0 -9035760000.0 -9035760000.0 -9035760000.0 -9035770000.0 -9035770000.0 -9035780000.0 -9035790000.0 -9035800000.0 -9035820000.0 -9035840000.0 -9035860000.0 -9035890000.0 -9035920000.0 -9035960000.0 -9036020000.0 -9036100000.0 -9036200000.0 -9036340000.0 -9036530000.0 -9036790000.0 -9037140000.0 -9037640000.0 -9038340000.0 -9039340000.0 -9040780000.0 -9042810000.0 -9045830000.0 -9050220000.0 -9256450000.0 -9065450000.0 -10072600000.0 -10171000000.0 -18101400000.0 -19066200000.0 -25888700000.0 -27059400000.0 -25260100000.0 -24094500000.0 -17868100000.0 -16534800000.0 -9852540000.0 -9775240000.0 -9063030000.0 -9180630000.0 -9049020000.0 -9044970000.0 -9042210000.0 -9040350000.0 -9039030000.0 -9038120000.0 -9037480000.0 -9037020000.0 -9036700000.0 -9036460000.0 -9036290000.0 -9036160000.0 -9036070000.0 -9036000000.0 -9035940000.0 -9035900000.0 -9035870000.0 -9035850000.0 -9035830000.0 -9035810000.0 -9035800000.0 -9035790000.0 -9035780000.0 -9035770000.0 -9035770000.0 -9035760000.0 -9035760000.0 -9035760000.0 -9035750000.0 -9035750000.0 -9035750000.0 -9035760000.0 -9035760000.0 -9035760000.0 -9035770000.0 -9035770000.0 -9035780000.0 -9035790000.0 -9035800000.0 -9035810000.0 -9035830000.0 -9035850000.0 -9035870000.0 -9035900000.0 -9035940000.0 -9036000000.0 -9036070000.0 -9036160000.0 -9036290000.0 -9036460000.0 -9036700000.0 -9037020000.0 -9037480000.0 -9038120000.0 -9039030000.0 -9040350000.0 -9042210000.0 -9044970000.0 -9049020000.0 -9180630000.0 -9063030000.0 -9775240000.0 -9852540000.0 -16534800000.0 -17868100000.0 -24094500000.0 -25260100000.0 -23580400000.0 -22438300000.0 -16759800000.0 -15186600000.0 -9618000000.0 -9562940000.0 -9060660000.0 -9131180000.0 -9047840000.0 -9044150000.0 -9041630000.0 -9039940000.0 -9038740000.0 -9037900000.0 -9037320000.0 -9036910000.0 -9036610000.0 -9036390000.0 -9036230000.0 -9036120000.0 -9036030000.0 -9035970000.0 -9035920000.0 -9035890000.0 -9035860000.0 -9035840000.0 -9035820000.0 -9035800000.0 -9035790000.0 -9035780000.0 -9035780000.0 -9035770000.0 -9035760000.0 -9035760000.0 -9035760000.0 -9035750000.0 -9035750000.0 -9035750000.0 -9035750000.0 -9035750000.0 -9035760000.0 -9035760000.0 -9035760000.0 -9035770000.0 -9035780000.0 -9035780000.0 -9035790000.0 -9035800000.0 -9035820000.0 -9035840000.0 -9035860000.0 -9035890000.0 -9035920000.0 -9035970000.0 -9036030000.0 -9036120000.0 -9036230000.0 -9036390000.0 -9036610000.0 -9036910000.0 -9037320000.0 -9037900000.0 -9038740000.0 -9039940000.0 -9041630000.0 -9044150000.0 -9047840000.0 -9131180000.0 -9060660000.0 -9562940000.0 -9618000000.0 -15186600000.0 -16759800000.0 -22438300000.0 -23580400000.0 -22019100000.0 -20916000000.0 -15744000000.0 -14038800000.0 -9447350000.0 -9411850000.0 -9058370000.0 -9099220000.0 -9046700000.0 -9043350000.0 -9041080000.0 -9039540000.0 -9038450000.0 -9037700000.0 -9037170000.0 -9036790000.0 -9036520000.0 -9036330000.0 -9036190000.0 -9036080000.0 -9036000000.0 -9035950000.0 -9035910000.0 -9035870000.0 -9035850000.0 -9035830000.0 -9035810000.0 -9035800000.0 -9035790000.0 -9035780000.0 -9035770000.0 -9035770000.0 -9035760000.0 -9035760000.0 -9035760000.0 -9035750000.0 -9035750000.0 -9035750000.0 -9035750000.0 -9035750000.0 -9035760000.0 -9035760000.0 -9035760000.0 -9035770000.0 -9035770000.0 -9035780000.0 -9035790000.0 -9035800000.0 -9035810000.0 -9035830000.0 -9035850000.0 -9035870000.0 -9035910000.0 -9035950000.0 -9036000000.0 -9036080000.0 -9036190000.0 -9036330000.0 -9036520000.0 -9036790000.0 -9037170000.0 -9037700000.0 -9038450000.0 -9039540000.0 -9041080000.0 -9043350000.0 -9046700000.0 -9099220000.0 -9058370000.0 -9411850000.0 -9447350000.0 -14038800000.0 -15744000000.0 -20916000000.0 -22019100000.0 -20575200000.0 -19522900000.0 -14821400000.0 -13071700000.0 -9324680000.0 -9304550000.0 -9056160000.0 -9078670000.0 -9045610000.0 -9042600000.0 -9040550000.0 -9039160000.0 -9038180000.0 -9037500000.0 -9037030000.0 -9036690000.0 -9036440000.0 -9036270000.0 -9036140000.0 -9036050000.0 -9035980000.0 -9035930000.0 -9035890000.0 -9035860000.0 -9035840000.0 -9035820000.0 -9035800000.0 -9035790000.0 -9035780000.0 -9035780000.0 -9035770000.0 -9035770000.0 -9035760000.0 -9035760000.0 -9035760000.0 -9035750000.0 -9035750000.0 -9035750000.0 -9035750000.0 -9035750000.0 -9035760000.0 -9035760000.0 -9035760000.0 -9035770000.0 -9035770000.0 -9035780000.0 -9035780000.0 -9035790000.0 -9035800000.0 -9035820000.0 -9035840000.0 -9035860000.0 -9035890000.0 -9035930000.0 -9035980000.0 -9036050000.0 -9036140000.0 -9036270000.0 -9036440000.0 -9036690000.0 -9037030000.0 -9037500000.0 -9038180000.0 -9039160000.0 -9040550000.0 -9042600000.0 -9045610000.0 -9078670000.0 -9056160000.0 -9304550000.0 -9324680000.0 -13071700000.0 -14821400000.0 -19522900000.0 -20575200000.0 -19247200000.0 -18254000000.0 -13991100000.0 -12265000000.0 -9237530000.0 -9228430000.0 -9054070000.0 -9065500000.0 -9044590000.0 -9041880000.0 -9040040000.0 -9038800000.0 -9037920000.0 -9037310000.0 -9036890000.0 -9036580000.0 -9036370000.0 -9036210000.0 -9036100000.0 -9036010000.0 -9035950000.0 -9035910000.0 -9035870000.0 -9035850000.0 -9035830000.0 -9035810000.0 -9035800000.0 -9035790000.0 -9035780000.0 -9035770000.0 -9035770000.0 -9035760000.0 -9035760000.0 -9035760000.0 -9035760000.0 -9035750000.0 -9035750000.0 -9035750000.0 -9035750000.0 -9035750000.0 -9035760000.0 -9035760000.0 -9035760000.0 -9035760000.0 -9035770000.0 -9035770000.0 -9035780000.0 -9035790000.0 -9035800000.0 -9035810000.0 -9035830000.0 -9035850000.0 -9035870000.0 -9035910000.0 -9035950000.0 -9036010000.0 -9036100000.0 -9036210000.0 -9036370000.0 -9036580000.0 -9036890000.0 -9037310000.0 -9037920000.0 -9038800000.0 -9040040000.0 -9041880000.0 -9044590000.0 -9065500000.0 -9054070000.0 -9228430000.0 -9237530000.0 -12265000000.0 -13991100000.0 -18254000000.0 -19247200000.0 -18032900000.0 -17103600000.0 -13250800000.0 -11598800000.0 -9176310000.0 -9174420000.0 -9052100000.0 -9057020000.0 -9043620000.0 -9041210000.0 -9039570000.0 -9038470000.0 -9037680000.0 -9037140000.0 -9036760000.0 -9036490000.0 -9036300000.0 -9036160000.0 -9036060000.0 -9035980000.0 -9035930000.0 -9035890000.0 -9035860000.0 -9035830000.0 -9035820000.0 -9035800000.0 -9035790000.0 -9035780000.0 -9035780000.0 -9035770000.0 -9035770000.0 -9035760000.0 -9035760000.0 -9035760000.0 -9035760000.0 -9035750000.0 -9035750000.0 -9035750000.0 -9035750000.0 -9035750000.0 -9035760000.0 -9035760000.0 -9035760000.0 -9035760000.0 -9035770000.0 -9035770000.0 -9035780000.0 -9035780000.0 -9035790000.0 -9035800000.0 -9035820000.0 -9035830000.0 -9035860000.0 -9035890000.0 -9035930000.0 -9035980000.0 -9036060000.0 -9036160000.0 -9036300000.0 -9036490000.0 -9036760000.0 -9037140000.0 -9037680000.0 -9038470000.0 -9039570000.0 -9041210000.0 -9043620000.0 -9057020000.0 -9052100000.0 -9174420000.0 -9176310000.0 -11598800000.0 -13250800000.0 -17103600000.0 -18032900000.0 -16929300000.0 -16065800000.0 -12596600000.0 -11053900000.0 -9133740000.0 -9136070000.0 -9050260000.0 -9051500000.0 -9042730000.0 -9040590000.0 -9039140000.0 -9038160000.0 -9037460000.0 -9036980000.0 -9036640000.0 -9036400000.0 -9036230000.0 -9036110000.0 -9036020000.0 -9035950000.0 -9035900000.0 -9035870000.0 -9035840000.0 -9035820000.0 -9035810000.0 -9035790000.0 -9035790000.0 -9035780000.0 -9035770000.0 -9035770000.0 -9035760000.0 -9035760000.0 -9035760000.0 -9035760000.0 -9035750000.0 -9035750000.0 -9035750000.0 -9035750000.0 -9035750000.0 -9035750000.0 -9035750000.0 -9035760000.0 -9035760000.0 -9035760000.0 -9035760000.0 -9035770000.0 -9035770000.0 -9035780000.0 -9035790000.0 -9035790000.0 -9035810000.0 -9035820000.0 -9035840000.0 -9035870000.0 -9035900000.0 -9035950000.0 -9036020000.0 -9036110000.0 -9036230000.0 -9036400000.0 -9036640000.0 -9036980000.0 -9037460000.0 -9038160000.0 -9039140000.0 -9040590000.0 -9042730000.0 -9051500000.0 -9050260000.0 -9136070000.0 -9133740000.0 -11053900000.0 -12596600000.0 -16065800000.0 -16929300000.0 -15931900000.0 -15134300000.0 -12023400000.0 -10612500000.0 -9104410000.0 -9108780000.0 -9048560000.0 -9047830000.0 -9041900000.0 -9040010000.0 -9038730000.0 -9037870000.0 -9037260000.0 -9036830000.0 -9036540000.0 -9036320000.0 -9036170000.0 -9036060000.0 -9035980000.0 -9035930000.0 -9035890000.0 -9035850000.0 -9035830000.0 -9035810000.0 -9035800000.0 -9035790000.0 -9035780000.0 -9035770000.0 -9035770000.0 -9035770000.0 -9035760000.0 -9035760000.0 -9035760000.0 -9035760000.0 -9035750000.0 -9035750000.0 -9035750000.0 -9035750000.0 -9035750000.0 -9035750000.0 -9035750000.0 -9035760000.0 -9035760000.0 -9035760000.0 -9035760000.0 -9035770000.0 -9035770000.0 -9035770000.0 -9035780000.0 -9035790000.0 -9035800000.0 -9035810000.0 -9035830000.0 -9035850000.0 -9035890000.0 -9035930000.0 -9035980000.0 -9036060000.0 -9036170000.0 -9036320000.0 -9036540000.0 -9036830000.0 -9037260000.0 -9037870000.0 -9038730000.0 -9040010000.0 -9041900000.0 -9047830000.0 -9048560000.0 -9108780000.0 -9104410000.0 -10612500000.0 -12023400000.0 -15134300000.0 -15931900000.0 -15035900000.0 -14302300000.0 -11525600000.0 -10258300000.0 -9084320000.0 -9089310000.0 -9047000000.0 -9045310000.0 -9041140000.0 -9039490000.0 -9038370000.0 -9037610000.0 -9037070000.0 -9036700000.0 -9036440000.0 -9036250000.0 -9036120000.0 -9036020000.0 -9035950000.0 -9035900000.0 -9035870000.0 -9035840000.0 -9035820000.0 -9035800000.0 -9035790000.0 -9035780000.0 -9035780000.0 -9035770000.0 -9035770000.0 -9035760000.0 -9035760000.0 -9035760000.0 -9035760000.0 -9035760000.0 -9035750000.0 -9035750000.0 -9035750000.0 -9035750000.0 -9035750000.0 -9035750000.0 -9035750000.0 -9035760000.0 -9035760000.0 -9035760000.0 -9035760000.0 -9035760000.0 -9035770000.0 -9035770000.0 -9035780000.0 -9035780000.0 -9035790000.0 -9035800000.0 -9035820000.0 -9035840000.0 -9035870000.0 -9035900000.0 -9035950000.0 -9036020000.0 -9036120000.0 -9036250000.0 -9036440000.0 -9036700000.0 -9037070000.0 -9037610000.0 -9038370000.0 -9039490000.0 -9041140000.0 -9045310000.0 -9047000000.0 -9089310000.0 -9084320000.0 -10258300000.0 -11525600000.0 -14302300000.0 -15035900000.0 -14235200000.0 -13563100000.0 -11096800000.0 -9976590000.0 -9070630000.0 -9075360000.0 -9045580000.0 -9043510000.0 -9040460000.0 -9039010000.0 -9038030000.0 -9037370000.0 -9036900000.0 -9036570000.0 -9036350000.0 -9036190000.0 -9036070000.0 -9035990000.0 -9035930000.0 -9035880000.0 -9035850000.0 -9035830000.0 -9035810000.0 -9035800000.0 -9035790000.0 -9035780000.0 -9035770000.0 -9035770000.0 -9035760000.0 -9035760000.0 -9035760000.0 -9035760000.0 -9035760000.0 -9035750000.0 -9035750000.0 -9035750000.0 -9035750000.0 -9035750000.0 -9035750000.0 -9035750000.0 -9035750000.0 -9035750000.0 -9035760000.0 -9035760000.0 -9035760000.0 -9035760000.0 -9035760000.0 -9035770000.0 -9035770000.0 -9035780000.0 -9035790000.0 -9035800000.0 -9035810000.0 -9035830000.0 -9035850000.0 -9035880000.0 -9035930000.0 -9035990000.0 -9036070000.0 -9036190000.0 -9036350000.0 -9036570000.0 -9036900000.0 -9037370000.0 -9038030000.0 -9039010000.0 -9040460000.0 -9043510000.0 -9045580000.0 -9075360000.0 -9070630000.0 -9976590000.0 -11096800000.0 -13563100000.0 -14235200000.0 -13523400000.0 -12909600000.0 -10730400000.0 -9754570000.0 -9061280000.0 -9065320000.0 -9044300000.0 -9042170000.0 -9039840000.0 -9038580000.0 -9037730000.0 -9037150000.0 -9036750000.0 -9036460000.0 -9036270000.0 -9036130000.0 -9036030000.0 -9035950000.0 -9035900000.0 -9035860000.0 -9035840000.0 -9035820000.0 -9035800000.0 -9035790000.0 -9035780000.0 -9035770000.0 -9035770000.0 -9035770000.0 -9035760000.0 -9035760000.0 -9035760000.0 -9035760000.0 -9035760000.0 -9035750000.0 -9035750000.0 -9035750000.0 -9035750000.0 -9035750000.0 -9035750000.0 -9035750000.0 -9035750000.0 -9035750000.0 -9035760000.0 -9035760000.0 -9035760000.0 -9035760000.0 -9035760000.0 -9035770000.0 -9035770000.0 -9035770000.0 -9035780000.0 -9035790000.0 -9035800000.0 -9035820000.0 -9035840000.0 -9035860000.0 -9035900000.0 -9035950000.0 -9036030000.0 -9036130000.0 -9036270000.0 -9036460000.0 -9036750000.0 -9037150000.0 -9037730000.0 -9038580000.0 -9039840000.0 -9042170000.0 -9044300000.0 -9065320000.0 -9061280000.0 -9754570000.0 -10730400000.0 -12909600000.0 -13523400000.0 -12893700000.0 -12334800000.0 -10420000000.0 -9581120000.0 -9054870000.0 -9058040000.0 -9043140000.0 -9041120000.0 -9039280000.0 -9038190000.0 -9037460000.0 -9036960000.0 -9036610000.0 -9036370000.0 -9036200000.0 -9036070000.0 -9035990000.0 -9035930000.0 -9035880000.0 -9035850000.0 -9035820000.0 -9035810000.0 -9035790000.0 -9035780000.0 -9035780000.0 -9035770000.0 -9035770000.0 -9035760000.0 -9035760000.0 -9035760000.0 -9035760000.0 -9035760000.0 -9035760000.0 -9035750000.0 -9035750000.0 -9035750000.0 -9035750000.0 -9035750000.0 -9035750000.0 -9035750000.0 -9035750000.0 -9035750000.0 -9035760000.0 -9035760000.0 -9035760000.0 -9035760000.0 -9035760000.0 -9035760000.0 -9035770000.0 -9035770000.0 -9035780000.0 -9035780000.0 -9035790000.0 -9035810000.0 -9035820000.0 -9035850000.0 -9035880000.0 -9035930000.0 -9035990000.0 -9036070000.0 -9036200000.0 -9036370000.0 -9036610000.0 -9036960000.0 -9037460000.0 -9038190000.0 -9039280000.0 -9041120000.0 -9043140000.0 -9058040000.0 -9054870000.0 -9581120000.0 -10420000000.0 -12334800000.0 -12893700000.0 -12339000000.0 -11831700000.0 -10158900000.0 -9446770000.0 -9050410000.0 -9052740000.0 -9042110000.0 -9040280000.0 -9038780000.0 -9037850000.0 -9037220000.0 -9036790000.0 -9036490000.0 -9036280000.0 -9036130000.0 -9036030000.0 -9035950000.0 -9035900000.0 -9035860000.0 -9035830000.0 -9035810000.0 -9035800000.0 -9035790000.0 -9035780000.0 -9035770000.0 -9035770000.0 -9035760000.0 -9035760000.0 -9035760000.0 -9035760000.0 -9035760000.0 -9035760000.0 -9035750000.0 -9035750000.0 -9035750000.0 -9035750000.0 -9035750000.0 -9035750000.0 -9035750000.0 -9035750000.0 -9035750000.0 -9035750000.0 -9035750000.0 -9035760000.0 -9035760000.0 -9035760000.0 -9035760000.0 -9035760000.0 -9035760000.0 -9035770000.0 -9035770000.0 -9035780000.0 -9035790000.0 -9035800000.0 -9035810000.0 -9035830000.0 -9035860000.0 -9035900000.0 -9035950000.0 -9036030000.0 -9036130000.0 -9036280000.0 -9036490000.0 -9036790000.0 -9037220000.0 -9037850000.0 -9038780000.0 -9040280000.0 -9042110000.0 -9052740000.0 -9050410000.0 -9446770000.0 -10158900000.0 -11831700000.0 -12339000000.0 -11852200000.0 -11393400000.0 -9941040000.0 -9343540000.0 -9047240000.0 -9048830000.0 -9041190000.0 -9039570000.0 -9038340000.0 -9037540000.0 -9037000000.0 -9036640000.0 -9036380000.0 -9036200000.0 -9036080000.0 -9035990000.0 -9035920000.0 -9035880000.0 -9035840000.0 -9035820000.0 -9035800000.0 -9035790000.0 -9035780000.0 -9035770000.0 -9035770000.0 -9035770000.0 -9035760000.0 -9035760000.0 -9035760000.0 -9035760000.0 -9035760000.0 -9035750000.0 -9035750000.0 -9035750000.0 -9035750000.0 -9035750000.0 -9035750000.0 -9035750000.0 -9035750000.0 -9035750000.0 -9035750000.0 -9035750000.0 -9035750000.0 -9035750000.0 -9035760000.0 -9035760000.0 -9035760000.0 -9035760000.0 -9035760000.0 -9035770000.0 -9035770000.0 -9035770000.0 -9035780000.0 -9035790000.0 -9035800000.0 -9035820000.0 -9035840000.0 -9035880000.0 -9035920000.0 -9035990000.0 -9036080000.0 -9036200000.0 -9036380000.0 -9036640000.0 -9037000000.0 -9037540000.0 -9038340000.0 -9039570000.0 -9041190000.0 -9048830000.0 -9047240000.0 -9343540000.0 -9941040000.0 -11393400000.0 -11852200000.0 -11426400000.0 -11013400000.0 -9760570000.0 -9264860000.0 -9044940000.0 -9045920000.0 -9040380000.0 -9038980000.0 -9037950000.0 -9037270000.0 -9036820000.0 -9036500000.0 -9036280000.0 -9036130000.0 -9036030000.0 -9035950000.0 -9035900000.0 -9035860000.0 -9035830000.0 -9035810000.0 -9035800000.0 -9035780000.0 -9035780000.0 -9035770000.0 -9035770000.0 -9035760000.0 -9035760000.0 -9035760000.0 -9035760000.0 -9035760000.0 -9035760000.0 -9035750000.0 -9035750000.0 -9035750000.0 -9035750000.0 -9035750000.0 -9035750000.0 -9035750000.0 -9035750000.0 -9035750000.0 -9035750000.0 -9035750000.0 -9035750000.0 -9035750000.0 -9035760000.0 -9035760000.0 -9035760000.0 -9035760000.0 -9035760000.0 -9035760000.0 -9035770000.0 -9035770000.0 -9035780000.0 -9035780000.0 -9035800000.0 -9035810000.0 -9035830000.0 -9035860000.0 -9035900000.0 -9035950000.0 -9036030000.0 -9036130000.0 -9036280000.0 -9036500000.0 -9036820000.0 -9037270000.0 -9037950000.0 -9038980000.0 -9040380000.0 -9045920000.0 -9044940000.0 -9264860000.0 -9760570000.0 -11013400000.0 -11426400000.0 -11055000000.0 -10685100000.0 -9612140000.0 -9205330000.0 -9043200000.0 -9043720000.0 -9039670000.0 -9038470000.0 -9037610000.0 -9037040000.0 -9036650000.0 -9036390000.0 -9036200000.0 -9036070000.0 -9035980000.0 -9035920000.0 -9035870000.0 -9035840000.0 -9035820000.0 -9035800000.0 -9035790000.0 -9035780000.0 -9035770000.0 -9035770000.0 -9035760000.0 -9035760000.0 -9035760000.0 -9035760000.0 -9035760000.0 -9035760000.0 -9035750000.0 -9035750000.0 -9035750000.0 -9035750000.0 -9035750000.0 -9035750000.0 -9035750000.0 -9035750000.0 -9035750000.0 -9035750000.0 -9035750000.0 -9035750000.0 -9035750000.0 -9035750000.0 -9035750000.0 -9035760000.0 -9035760000.0 -9035760000.0 -9035760000.0 -9035760000.0 -9035760000.0 -9035770000.0 -9035770000.0 -9035780000.0 -9035790000.0 -9035800000.0 -9035820000.0 -9035840000.0 -9035870000.0 -9035920000.0 -9035980000.0 -9036070000.0 -9036200000.0 -9036390000.0 -9036650000.0 -9037040000.0 -9037610000.0 -9038470000.0 -9039670000.0 -9043720000.0 -9043200000.0 -9205330000.0 -9612140000.0 -10685100000.0 -11055000000.0 -10731400000.0 -10402500000.0 -9490860000.0 -9160600000.0 -9041850000.0 -9042040000.0 -9039040000.0 -9038020000.0 -9037310000.0 -9036830000.0 -9036500000.0 -9036280000.0 -9036130000.0 -9036020000.0 -9035940000.0 -9035890000.0 -9035850000.0 -9035830000.0 -9035810000.0 -9035790000.0 -9035780000.0 -9035770000.0 -9035770000.0 -9035770000.0 -9035760000.0 -9035760000.0 -9035760000.0 -9035760000.0 -9035760000.0 -9035750000.0 -9035750000.0 -9035750000.0 -9035750000.0 -9035750000.0 -9035750000.0 -9035750000.0 -9035750000.0 -9035750000.0 -9035750000.0 -9035750000.0 -9035750000.0 -9035750000.0 -9035750000.0 -9035750000.0 -9035750000.0 -9035750000.0 -9035760000.0 -9035760000.0 -9035760000.0 -9035760000.0 -9035760000.0 -9035770000.0 -9035770000.0 -9035770000.0 -9035780000.0 -9035790000.0 -9035810000.0 -9035830000.0 -9035850000.0 -9035890000.0 -9035940000.0 -9036020000.0 -9036130000.0 -9036280000.0 -9036500000.0 -9036830000.0 -9037310000.0 -9038020000.0 -9039040000.0 -9042040000.0 -9041850000.0 -9160600000.0 -9490860000.0 -10402500000.0 -10731400000.0 -10449600000.0 -10159900000.0 -9392350000.0 -9127190000.0 -9040770000.0 -9040740000.0 -9038490000.0 -9037640000.0 -9037050000.0 -9036650000.0 -9036380000.0 -9036190000.0 -9036060000.0 -9035970000.0 -9035910000.0 -9035870000.0 -9035840000.0 -9035810000.0 -9035800000.0 -9035790000.0 -9035780000.0 -9035770000.0 -9035770000.0 -9035760000.0 -9035760000.0 -9035760000.0 -9035760000.0 -9035760000.0 -9035760000.0 -9035750000.0 -9035750000.0 -9035750000.0 -9035750000.0 -9035750000.0 -9035750000.0 -9035750000.0 -9035750000.0 -9035750000.0 -9035750000.0 -9035750000.0 -9035750000.0 -9035750000.0 -9035750000.0 -9035750000.0 -9035750000.0 -9035750000.0 -9035760000.0 -9035760000.0 -9035760000.0 -9035760000.0 -9035760000.0 -9035760000.0 -9035770000.0 -9035770000.0 -9035780000.0 -9035790000.0 -9035800000.0 -9035810000.0 -9035840000.0 -9035870000.0 -9035910000.0 -9035970000.0 -9036060000.0 -9036190000.0 -9036380000.0 -9036650000.0 -9037050000.0 -9037640000.0 -9038490000.0 -9040740000.0 -9040770000.0 -9127190000.0 -9392350000.0 -10159900000.0 -10449600000.0 -10204000000.0 -9951850000.0 -9312740000.0 -9102360000.0 -9039870000.0 -9039710000.0 -9038020000.0 -9037310000.0 -9036820000.0 -9036490000.0 -9036270000.0 -9036120000.0 -9036010000.0 -9035930000.0 -9035880000.0 -9035850000.0 -9035820000.0 -9035800000.0 -9035790000.0 -9035780000.0 -9035770000.0 -9035770000.0 -9035760000.0 -9035760000.0 -9035760000.0 -9035760000.0 -9035760000.0 -9035760000.0 -9035750000.0 -9035750000.0 -9035750000.0 -9035750000.0 -9035750000.0 -9035750000.0 -9035750000.0 -9035750000.0 -9035750000.0 -9035750000.0 -9035750000.0 -9035750000.0 -9035750000.0 -9035750000.0 -9035750000.0 -9035750000.0 -9035750000.0 -9035750000.0 -9035750000.0 -9035760000.0 -9035760000.0 -9035760000.0 -9035760000.0 -9035760000.0 -9035760000.0 -9035770000.0 -9035770000.0 -9035780000.0 -9035790000.0 -9035800000.0 -9035820000.0 -9035850000.0 -9035880000.0 -9035930000.0 -9036010000.0 -9036120000.0 -9036270000.0 -9036490000.0 -9036820000.0 -9037310000.0 -9038020000.0 -9039710000.0 -9039870000.0 -9102360000.0 -9312740000.0 -9951850000.0 -10204000000.0 -9989160000.0 -9773280000.0 -9248620000.0 -9083960000.0 -9039100000.0 -9038880000.0 -9037600000.0 -9037020000.0 -9036620000.0 -9036350000.0 -9036170000.0 -9036050000.0 -9035960000.0 -9035900000.0 -9035860000.0 -9035830000.0 -9035810000.0 -9035790000.0 -9035780000.0 -9035770000.0 -9035770000.0 -9035760000.0 -9035760000.0 -9035760000.0 -9035760000.0 -9035760000.0 -9035760000.0 -9035750000.0 -9035750000.0 -9035750000.0 -9035750000.0 -9035750000.0 -9035750000.0 -9035750000.0 -9035750000.0 -9035750000.0 -9035750000.0 -9035750000.0 -9035750000.0 -9035750000.0 -9035750000.0 -9035750000.0 -9035750000.0 -9035750000.0 -9035750000.0 -9035750000.0 -9035750000.0 -9035750000.0 -9035760000.0 -9035760000.0 -9035760000.0 -9035760000.0 -9035760000.0 -9035760000.0 -9035770000.0 -9035770000.0 -9035780000.0 -9035790000.0 -9035810000.0 -9035830000.0 -9035860000.0 -9035900000.0 -9035960000.0 -9036050000.0 -9036170000.0 -9036350000.0 -9036620000.0 -9037020000.0 -9037600000.0 -9038880000.0 -9039100000.0 -9083960000.0 -9248620000.0 -9773280000.0 -9989160000.0 -9800210000.0 -9619490000.0 -9196980000.0 -9070320000.0 -9038440000.0 -9038190000.0 -9037230000.0 -9036770000.0 -9036450000.0 -9036230000.0 -9036090000.0 -9035990000.0 -9035920000.0 -9035870000.0 -9035840000.0 -9035810000.0 -9035800000.0 -9035780000.0 -9035780000.0 -9035770000.0 -9035770000.0 -9035760000.0 -9035760000.0 -9035760000.0 -9035760000.0 -9035760000.0 -9035750000.0 -9035750000.0 -9035750000.0 -9035750000.0 -9035750000.0 -9035750000.0 -9035750000.0 -9035750000.0 -9035750000.0 -9035750000.0 -9035750000.0 -9035750000.0 -9035750000.0 -9035750000.0 -9035750000.0 -9035750000.0 -9035750000.0 -9035750000.0 -9035750000.0 -9035750000.0 -9035750000.0 -9035750000.0 -9035750000.0 -9035760000.0 -9035760000.0 -9035760000.0 -9035760000.0 -9035760000.0 -9035770000.0 -9035770000.0 -9035780000.0 -9035780000.0 -9035800000.0 -9035810000.0 -9035840000.0 -9035870000.0 -9035920000.0 -9035990000.0 -9036090000.0 -9036230000.0 -9036450000.0 -9036770000.0 -9037230000.0 -9038190000.0 -9038440000.0 -9070320000.0 -9196980000.0 -9619490000.0 -9800210000.0 -9632510000.0 -9486050000.0 -9155250000.0 -9060160000.0 -9037850000.0 -9037620000.0 -9036900000.0 -9036540000.0 -9036290000.0 -9036130000.0 -9036010000.0 -9035940000.0 -9035880000.0 -9035840000.0 -9035820000.0 -9035800000.0 -9035790000.0 -9035780000.0 -9035770000.0 -9035770000.0 -9035760000.0 -9035760000.0 -9035760000.0 -9035760000.0 -9035760000.0 -9035750000.0 -9035750000.0 -9035750000.0 -9035750000.0 -9035750000.0 -9035750000.0 -9035750000.0 -9035750000.0 -9035750000.0 -9035750000.0 -9035750000.0 -9035750000.0 -9035750000.0 -9035750000.0 -9035750000.0 -9035750000.0 -9035750000.0 -9035750000.0 -9035750000.0 -9035750000.0 -9035750000.0 -9035750000.0 -9035750000.0 -9035750000.0 -9035750000.0 -9035760000.0 -9035760000.0 -9035760000.0 -9035760000.0 -9035760000.0 -9035770000.0 -9035770000.0 -9035780000.0 -9035790000.0 -9035800000.0 -9035820000.0 -9035840000.0 -9035880000.0 -9035940000.0 -9036010000.0 -9036130000.0 -9036290000.0 -9036540000.0 -9036900000.0 -9037620000.0 -9037850000.0 -9060160000.0 -9155250000.0 -9486050000.0 -9632510000.0 -9481730000.0 -9368850000.0 -9121140000.0 -9052500000.0 -9037330000.0 -9037130000.0 -9036610000.0 -9036340000.0 -9036160000.0 -9036030000.0 -9035950000.0 -9035890000.0 -9035850000.0 -9035820000.0 -9035800000.0 -9035790000.0 -9035780000.0 -9035770000.0 -9035770000.0 -9035760000.0 -9035760000.0 -9035760000.0 -9035760000.0 -9035760000.0 -9035750000.0 -9035750000.0 -9035750000.0 -9035750000.0 -9035750000.0 -9035750000.0 -9035750000.0 -9035750000.0 -9035750000.0 -9035750000.0 -9035750000.0 -9035750000.0 -9035750000.0 -9035750000.0 -9035750000.0 -9035750000.0 -9035750000.0 -9035750000.0 -9035750000.0 -9035750000.0 -9035750000.0 -9035750000.0 -9035750000.0 -9035750000.0 -9035750000.0 -9035750000.0 -9035750000.0 -9035760000.0 -9035760000.0 -9035760000.0 -9035760000.0 -9035760000.0 -9035770000.0 -9035770000.0 -9035780000.0 -9035790000.0 -9035800000.0 -9035820000.0 -9035850000.0 -9035890000.0 -9035950000.0 -9036030000.0 -9036160000.0 -9036340000.0 -9036610000.0 -9037130000.0 -9037330000.0 -9052500000.0 -9121140000.0 -9368850000.0 -9481730000.0 -9343820000.0 -9263980000.0 -9092670000.0 -9046570000.0 -9036840000.0 -9036690000.0 -9036340000.0 -9036160000.0 -9036030000.0 -9035940000.0 -9035890000.0 -9035850000.0 -9035820000.0 -9035800000.0 -9035790000.0 -9035780000.0 -9035770000.0 -9035770000.0 -9035760000.0 -9035760000.0 -9035760000.0 -9035760000.0 -9035760000.0 -9035750000.0 -9035750000.0 -9035750000.0 -9035750000.0 -9035750000.0 -9035750000.0 -9035750000.0 -9035750000.0 -9035750000.0 -9035750000.0 -9035750000.0 -9035750000.0 -9035750000.0 -9035750000.0 -9035750000.0 -9035750000.0 -9035750000.0 -9035750000.0 -9035750000.0 -9035750000.0 -9035750000.0 -9035750000.0 -9035750000.0 -9035750000.0 -9035750000.0 -9035750000.0 -9035750000.0 -9035750000.0 -9035750000.0 -9035760000.0 -9035760000.0 -9035760000.0 -9035760000.0 -9035760000.0 -9035770000.0 -9035770000.0 -9035780000.0 -9035790000.0 -9035800000.0 -9035820000.0 -9035850000.0 -9035890000.0 -9035940000.0 -9036030000.0 -9036160000.0 -9036340000.0 -9036690000.0 -9036840000.0 -9046570000.0 -9092670000.0 -9263980000.0 -9343820000.0 -9214910000.0 -9167740000.0 -9068050000.0 -9041760000.0 -9036390000.0 -9036300000.0 -9036100000.0 -9035990000.0 -9035910000.0 -9035860000.0 -9035830000.0 -9035810000.0 -9035790000.0 -9035780000.0 -9035770000.0 -9035770000.0 -9035760000.0 -9035760000.0 -9035760000.0 -9035760000.0 -9035760000.0 -9035750000.0 -9035750000.0 -9035750000.0 -9035750000.0 -9035750000.0 -9035750000.0 -9035750000.0 -9035750000.0 -9035750000.0 -9035750000.0 -9035750000.0 -9035750000.0 -9035750000.0 -9035750000.0 -9035750000.0 -9035750000.0 -9035750000.0 -9035750000.0 -9035750000.0 -9035750000.0 -9035750000.0 -9035750000.0 -9035750000.0 -9035750000.0 -9035750000.0 -9035750000.0 -9035750000.0 -9035750000.0 -9035750000.0 -9035750000.0 -9035750000.0 -9035750000.0 -9035750000.0 -9035760000.0 -9035760000.0 -9035760000.0 -9035760000.0 -9035760000.0 -9035770000.0 -9035770000.0 -9035780000.0 -9035790000.0 -9035810000.0 -9035830000.0 -9035860000.0 -9035910000.0 -9035990000.0 -9036100000.0 -9036300000.0 -9036390000.0 -9041760000.0 -9068050000.0 -9167740000.0 -9214910000.0 -9091260000.0 -9076560000.0 -9045660000.0 -9037580000.0 -9035950000.0 -9035920000.0 -9035860000.0 -9035830000.0 -9035800000.0 -9035790000.0 -9035780000.0 -9035770000.0 -9035760000.0 -9035760000.0 -9035760000.0 -9035760000.0 -9035760000.0 -9035760000.0 -9035750000.0 -9035750000.0 -9035750000.0 -9035750000.0 -9035750000.0 -9035750000.0 -9035750000.0 -9035750000.0 -9035750000.0 -9035750000.0 -9035750000.0 -9035750000.0 -9035750000.0 -9035750000.0 -9035750000.0 -9035750000.0 -9035750000.0 -9035750000.0 -9035750000.0 -9035750000.0 -9035750000.0 -9035750000.0 -9035750000.0 -9035750000.0 -9035750000.0 -9035750000.0 -9035750000.0 -9035750000.0 -9035750000.0 -9035750000.0 -9035750000.0 -9035750000.0 -9035750000.0 -9035750000.0 -9035750000.0 -9035750000.0 -9035750000.0 -9035750000.0 -9035750000.0 -9035760000.0 -9035760000.0 -9035760000.0 -9035760000.0 -9035760000.0 -9035760000.0 -9035770000.0 -9035780000.0 -9035790000.0 -9035800000.0 -9035830000.0 -9035860000.0 -9035920000.0 -9035950000.0 -9037580000.0 -9045660000.0 -9076560000.0 -9091260000.0 
SCALARS Shear_Stress float 1
LOOKUP_TABLE default
94437300000.0 39019300000.0 369742000000.0 26204800000.0 62475000000.0 57484200000.0 114256000000.0 134721000000.0 147620000000.0 156923000000.0 165567000000.0 171953000000.0 175376000000.0 176091000000.0 174967000000.0 172967000000.0 170231000000.0 166513000000.0 162102000000.0 157705000000.0 153805000000.0 150462000000.0 147546000000.0 144937000000.0 142568000000.0 140426000000.0 138524000000.0 136884000000.0 135515000000.0 134430000000.0 133642000000.0 133165000000.0 133005000000.0 133165000000.0 133642000000.0 134430000000.0 135515000000.0 136884000000.0 138524000000.0 140426000000.0 142568000000.0 144937000000.0 147546000000.0 150462000000.0 153805000000.0 157705000000.0 162102000000.0 166513000000.0 170231000000.0 172967000000.0 174967000000.0 176091000000.0 175376000000.0 171953000000.0 165567000000.0 156923000000.0 147620000000.0 134721000000.0 114256000000.0 57484200000.0 62475000000.0 26204800000.0 369742000000.0 39019300000.0 94437300000.0 158490000000.0 139517000000.0 114115000000.0 114115000000.0 139517000000.0 158490000000.0 111178000000.0 250826000000.0 162632000000.0 272723000000.0 301893000000.0 277069000000.0 251781000000.0 293842000000.0 270087000000.0 244146000000.0 224649000000.0 207809000000.0 193594000000.0 185060000000.0 180888000000.0 178127000000.0 175283000000.0 171946000000.0 168171000000.0 164250000000.0 160488000000.0 157056000000.0 153962000000.0 151120000000.0 148465000000.0 145991000000.0 143719000000.0 141667000000.0 139862000000.0 138340000000.0 137137000000.0 136274000000.0 135757000000.0 135585000000.0 135757000000.0 136274000000.0 137137000000.0 138340000000.0 139862000000.0 141667000000.0 143719000000.0 145991000000.0 148465000000.0 151120000000.0 153962000000.0 157056000000.0 160488000000.0 164250000000.0 168171000000.0 171946000000.0 175283000000.0 178127000000.0 180888000000.0 185060000000.0 193594000000.0 207809000000.0 224649000000.0 244146000000.0 270087000000.0 293842000000.0 251781000000.0 277069000000.0 301893000000.0 272723000000.0 162632000000.0 250826000000.0 111178000000.0 90919200000.0 250232000000.0 38311300000.0 21036100000.0 290368000000.0 315831000000.0 242673000000.0 301893000000.0 317802000000.0 294601000000.0 266447000000.0 243496000000.0 225571000000.0 207810000000.0 191377000000.0 179626000000.0 172187000000.0 166741000000.0 161686000000.0 156596000000.0 151573000000.0 146730000000.0 142122000000.0 137790000000.0 133718000000.0 129848000000.0 126162000000.0 122714000000.0 119586000000.0 116846000000.0 114537000000.0 112691000000.0 111340000000.0 110515000000.0 110237000000.0 110515000000.0 111340000000.0 112691000000.0 114537000000.0 116846000000.0 119586000000.0 122714000000.0 126162000000.0 129848000000.0 133718000000.0 137790000000.0 142122000000.0 146730000000.0 151573000000.0 156596000000.0 161686000000.0 166741000000.0 172187000000.0 179626000000.0 191377000000.0 207810000000.0 225571000000.0 243496000000.0 266447000000.0 294601000000.0 317802000000.0 301893000000.0 242673000000.0 315831000000.0 290368000000.0 21036100000.0 38311300000.0 250232000000.0 90919200000.0 9382180000.0 271131000000.0 170619000000.0 89172800000.0 203288000000.0 174724000000.0 174724000000.0 203288000000.0 89172800000.0 170619000000.0 271131000000.0 9382180000.0 89991600000.0 173414000000.0 238609000000.0 186859000000.0 170685000000.0 274291000000.0 332789000000.0 186536000000.0 343641000000.0 326916000000.0 306631000000.0 277718000000.0 251268000000.0 228619000000.0 210883000000.0 194583000000.0 178614000000.0 165066000000.0 154708000000.0 146505000000.0 139514000000.0 133337000000.0 127745000000.0 122490000000.0 117390000000.0 112378000000.0 107467000000.0 102719000000.0 98217800000.0 94062500000.0 90357100000.0 87199600000.0 84668900000.0 82820400000.0 81694600000.0 81316400000.0 81694600000.0 82820400000.0 84668900000.0 87199600000.0 90357100000.0 94062500000.0 98217800000.0 102719000000.0 107467000000.0 112378000000.0 117390000000.0 122490000000.0 127745000000.0 133337000000.0 139514000000.0 146505000000.0 154708000000.0 165066000000.0 178614000000.0 194583000000.0 210883000000.0 228619000000.0 251268000000.0 277718000000.0 306631000000.0 326916000000.0 343641000000.0 186536000000.0 332789000000.0 274291000000.0 170685000000.0 186859000000.0 238609000000.0 173414000000.0 89991600000.0 91017200000.0 298824000000.0 210808000000.0 139450000000.0 41974200000.0 325382000000.0 191128000000.0 337733000000.0 116824000000.0 358685000000.0 319995000000.0 307501000000.0 276810000000.0 247370000000.0 221857000000.0 200658000000.0 181758000000.0 165438000000.0 152892000000.0 143610000000.0 135980000000.0 128812000000.0 121623000000.0 114387000000.0 107281000000.0 100497000000.0 94138900000.0 88236000000.0 82803400000.0 77872900000.0 73491000000.0 69707200000.0 66563000000.0 64087800000.0 62302400000.0 61223600000.0 60862600000.0 61223600000.0 62302400000.0 64087800000.0 66563000000.0 69707200000.0 73491000000.0 77872900000.0 82803400000.0 88236000000.0 94138900000.0 100497000000.0 107281000000.0 114387000000.0 121623000000.0 128812000000.0 135980000000.0 143610000000.0 152892000000.0 165438000000.0 181758000000.0 200658000000.0 221857000000.0 247370000000.0 276810000000.0 307501000000.0 319995000000.0 358685000000.0 116824000000.0 337733000000.0 191128000000.0 325382000000.0 41974200000.0 139450000000.0 210808000000.0 298824000000.0 91017200000.0 53531600000.0 277528000000.0 267375000000.0 414484000000.0 296336000000.0 199605000000.0 199605000000.0 296336000000.0 414484000000.0 267375000000.0 277528000000.0 53531600000.0 313302000000.0 34224400000.0 441984000000.0 269189000000.0 19272400000.0 144447000000.0 140226000000.0 399948000000.0 184325000000.0 473124000000.0 398946000000.0 371396000000.0 318916000000.0 270914000000.0 226567000000.0 187264000000.0 154510000000.0 125372000000.0 100928000000.0 80988800000.0 64804900000.0 51493300000.0 40362700000.0 30967800000.0 23055400000.0 16463900000.0 11040700000.0 6634730000.0 3109000000.0 333225000.0 1818340000.0 3458160000.0 4681690000.0 5565350000.0 6163170000.0 6509000000.0 6622110000.0 6509000000.0 6163170000.0 5565350000.0 4681690000.0 3458160000.0 1818340000.0 333225000.0 3109000000.0 6634730000.0 11040700000.0 16463900000.0 23055400000.0 30967800000.0 40362700000.0 51493300000.0 64804900000.0 80988800000.0 100928000000.0 125372000000.0 154510000000.0 187264000000.0 226567000000.0 270914000000.0 318916000000.0 371396000000.0 398946000000.0 473124000000.0 184325000000.0 399948000000.0 140226000000.0 144447000000.0 19272400000.0 269189000000.0 441984000000.0 34224400000.0 313302000000.0 41491800000.0 211360000000.0 341544000000.0 236329000000.0 111105000000.0 22519400000.0 178805000000.0 127718000000.0 222132000000.0 187189000000.0 191926000000.0 170346000000.0 151361000000.0 134469000000.0 119530000000.0 108408000000.0 97697600000.0 87681300000.0 79040500000.0 72343000000.0 67190300000.0 62809600000.0 58674200000.0 54601700000.0 50605200000.0 46757000000.0 43129500000.0 39781600000.0 36758000000.0 34089900000.0 31800100000.0 29906500000.0 28422200000.0 27355800000.0 26713100000.0 26498300000.0 26713100000.0 27355800000.0 28422200000.0 29906500000.0 31800100000.0 34089900000.0 36758000000.0 39781600000.0 43129500000.0 46757000000.0 50605200000.0 54601700000.0 58674200000.0 62809600000.0 67190300000.0 72343000000.0 79040500000.0 87681300000.0 97697600000.0 108408000000.0 119530000000.0 134469000000.0 151361000000.0 170346000000.0 191926000000.0 187189000000.0 222132000000.0 127718000000.0 178805000000.0 22519400000.0 111105000000.0 236329000000.0 341544000000.0 211360000000.0 41491800000.0 223449000000.0 157297000000.0 53365700000.0 53365700000.0 157297000000.0 223449000000.0 104015000000.0 69741900000.0 97066700000.0 191218000000.0 35515300000.0 42501900000.0 38957000000.0 222309000000.0 11834000000.0 213529000000.0 8422770000.0 15994100000.0 9035750000.0 9035750000.0 9035750000.0 9035750000.0 9035750000.0 9035750000.0 9035750000.0 9035750000.0 9035750000.0 9035750000.0 9035750000.0 9035750000.0 9035750000.0 9035750000.0 9035750000.0 9035750000.0 9035750000.0 9035750000.0 9035750000.0 9035750000.0 9035750000.0 9035750000.0 9035750000.0 9035750000.0 9035750000.0 9035750000.0 9035750000.0 9035750000.0 9035750000.0 9035750000.0 9035750000.0 9035750000.0 9035750000.0 9035750000.0 9035750000.0 9035750000.0 9035750000.0 9035750000.0 9035750000.0 9035750000.0 9035750000.0 9035750000.0 9035750000.0 9035750000.0 9035750000.0 9035750000.0 9035750000.0 9035750000.0 9035750000.0 9035750000.0 9035750000.0 15994100000.0 8422770000.0 213529000000.0 11834000000.0 222309000000.0 38957000000.0 42501900000.0 35515300000.0 191218000000.0 97066700000.0 69741900000.0 104015000000.0 52900900000.0 40288700000.0 199401000000.0 12296700000.0 156183000000.0 197231000000.0 24201600000.0 269738000000.0 67823200000.0 62048000000.0 151716000000.0 144162000000.0 137356000000.0 125272000000.0 110481000000.0 96282500000.0 83792900000.0 72983500000.0 63481100000.0 54922900000.0 47175800000.0 40266500000.0 34198900000.0 28900500000.0 24271900000.0 20227600000.0 16699100000.0 13627800000.0 10963300000.0 8663210000.0 6693820000.0 5029950000.0 3653020000.0 2548240000.0 1702790000.0 1106150000.0 750899000.0 632906000.0 750899000.0 1106150000.0 1702790000.0 2548240000.0 3653020000.0 5029950000.0 6693820000.0 8663210000.0 10963300000.0 13627800000.0 16699100000.0 20227600000.0 24271900000.0 28900500000.0 34198900000.0 40266500000.0 47175800000.0 54922900000.0 63481100000.0 72983500000.0 83792900000.0 96282500000.0 110481000000.0 125272000000.0 137356000000.0 144162000000.0 151716000000.0 62048000000.0 67823200000.0 269738000000.0 24201600000.0 197231000000.0 156183000000.0 12296700000.0 199401000000.0 40288700000.0 52900900000.0 26698700000.0 101936000000.0 101224000000.0 80184100000.0 40224500000.0 70473700000.0 4471540000.0 281295000000.0 6140940000.0 151916000000.0 9035750000.0 9035750000.0 9035750000.0 9035750000.0 9035750000.0 9035750000.0 9035750000.0 9035750000.0 9035750000.0 9035750000.0 9035750000.0 9035750000.0 9035750000.0 9035750000.0 9035750000.0 9035750000.0 9035750000.0 9035750000.0 9035750000.0 9035750000.0 9035750000.0 9035750000.0 9035750000.0 9035750000.0 9035750000.0 9035750000.0 9035750000.0 9035750000.0 9035750000.0 9035750000.0 9035750000.0 9035750000.0 9035750000.0 9035750000.0 9035750000.0 9035750000.0 9035750000.0 9035750000.0 9035750000.0 9035750000.0 9035750000.0 9035750000.0 9035750000.0 9035750000.0 9035750000.0 9035750000.0 9035750000.0 9035750000.0 9035750000.0 9035750000.0 9035750000.0 9035750000.0 9035750000.0 9035750000.0 9035750000.0 151916000000.0 6140940000.0 281295000000.0 4471540000.0 70473700000.0 40224500000.0 80184100000.0 101224000000.0 101936000000.0 26698700000.0 155565000000.0 42935000000.0 126041000000.0 54549900000.0 243033000000.0 94302000000.0 18333900000.0 77529000000.0 62705900000.0 49470500000.0 38760100000.0 30086500000.0 22879600000.0 16860800000.0 11865800000.0 7749270000.0 4382510000.0 1654420000.0 532183000.0 2267600000.0 3638600000.0 4721930000.0 5578430000.0 6255110000.0 6789560000.0 7211770000.0 7544650000.0 7805580000.0 8008220000.0 8163610000.0 8280530000.0 8365590000.0 8423450000.0 8457080000.0 8468120000.0 8457080000.0 8423450000.0 8365590000.0 8280530000.0 8163610000.0 8008220000.0 7805580000.0 7544650000.0 7211770000.0 6789560000.0 6255110000.0 5578430000.0 4721930000.0 3638600000.0 2267600000.0 532183000.0 1654420000.0 4382510000.0 7749270000.0 11865800000.0 16860800000.0 22879600000.0 30086500000.0 38760100000.0 49470500000.0 62705900000.0 77529000000.0 18333900000.0 94302000000.0 243033000000.0 54549900000.0 126041000000.0 42935000000.0 155565000000.0 55627700000.0 8764170000.0 23836000000.0 23836000000.0 8764170000.0 55627700000.0 70309500000.0 17576000000.0 173249000000.0 8332110000.0 44868000000.0 196300000000.0 78746800000.0 294527000000.0 8430640000.0 85538500000.0 9040960000.0 9036120000.0 9036120000.0 9036040000.0 9035970000.0 9035920000.0 9035880000.0 9035850000.0 9035830000.0 9035810000.0 9035800000.0 9035790000.0 9035780000.0 9035780000.0 9035770000.0 9035770000.0 9035770000.0 9035760000.0 9035760000.0 9035760000.0 9035760000.0 9035760000.0 9035760000.0 9035760000.0 9035750000.0 9035750000.0 9035750000.0 9035750000.0 9035750000.0 9035750000.0 9035750000.0 9035760000.0 9035760000.0 9035760000.0 9035760000.0 9035760000.0 9035760000.0 9035760000.0 9035770000.0 9035770000.0 9035770000.0 9035780000.0 9035780000.0 9035790000.0 9035800000.0 9035810000.0 9035830000.0 9035850000.0 9035880000.0 9035920000.0 9035970000.0 9036040000.0 9036120000.0 9036120000.0 9040960000.0 85538500000.0 8430640000.0 294527000000.0 78746800000.0 196300000000.0 44868000000.0 8332110000.0 173249000000.0 17576000000.0 70309500000.0 60526500000.0 210895000000.0 43843900000.0 250190000000.0 4018300000.0 60933500000.0 6858670000.0 7503430000.0 8114640000.0 8662630000.0 8933050000.0 9010140000.0 9023550000.0 9024420000.0 9023820000.0 9023350000.0 9023090000.0 9023040000.0 9023230000.0 9023610000.0 9024200000.0 9025000000.0 9025880000.0 9026820000.0 9027840000.0 9028870000.0 9029830000.0 9030740000.0 9031600000.0 9032350000.0 9032950000.0 9033370000.0 9033640000.0 9033740000.0 9033640000.0 9033370000.0 9032950000.0 9032350000.0 9031600000.0 9030740000.0 9029830000.0 9028870000.0 9027840000.0 9026820000.0 9025880000.0 9025000000.0 9024200000.0 9023610000.0 9023230000.0 9023040000.0 9023090000.0 9023350000.0 9023820000.0 9024420000.0 9023550000.0 9010140000.0 8933050000.0 8662630000.0 8114640000.0 7503430000.0 6858670000.0 60933500000.0 4018300000.0 250190000000.0 43843900000.0 210895000000.0 60526500000.0 76162200000.0 34810700000.0 159611000000.0 22159900000.0 22159900000.0 159611000000.0 34810700000.0 76162200000.0 81204400000.0 44874800000.0 141458000000.0 31962600000.0 62446700000.0 212034000000.0 25868600000.0 215683000000.0 9037880000.0 48338000000.0 9036930000.0 9038430000.0 9037620000.0 9037100000.0 9036750000.0 9036500000.0 9036320000.0 9036190000.0 9036090000.0 9036020000.0 9035960000.0 9035920000.0 9035890000.0 9035870000.0 9035850000.0 9035830000.0 9035820000.0 9035810000.0 9035800000.0 9035790000.0 9035780000.0 9035770000.0 9035770000.0 9035760000.0 9035760000.0 9035760000.0 9035750000.0 9035750000.0 9035750000.0 9035760000.0 9035760000.0 9035760000.0 9035770000.0 9035770000.0 9035780000.0 9035790000.0 9035800000.0 9035810000.0 9035820000.0 9035830000.0 9035850000.0 9035870000.0 9035890000.0 9035920000.0 9035960000.0 9036020000.0 9036090000.0 9036190000.0 9036320000.0 9036500000.0 9036750000.0 9037100000.0 9037620000.0 9038430000.0 9036930000.0 48338000000.0 9037880000.0 215683000000.0 25868600000.0 212034000000.0 62446700000.0 31962600000.0 141458000000.0 44874800000.0 81204400000.0 84202000000.0 53686900000.0 124538000000.0 40374200000.0 67222500000.0 202456000000.0 12790300000.0 179226000000.0 9041690000.0 36889100000.0 9039090000.0 9039310000.0 9038290000.0 9037600000.0 9037120000.0 9036780000.0 9036530000.0 9036350000.0 9036210000.0 9036110000.0 9036040000.0 9035980000.0 9035940000.0 9035910000.0 9035880000.0 9035860000.0 9035840000.0 9035820000.0 9035810000.0 9035800000.0 9035790000.0 9035780000.0 9035770000.0 9035770000.0 9035760000.0 9035760000.0 9035750000.0 9035750000.0 9035750000.0 9035760000.0 9035760000.0 9035770000.0 9035770000.0 9035780000.0 9035790000.0 9035800000.0 9035810000.0 9035820000.0 9035840000.0 9035860000.0 9035880000.0 9035910000.0 9035940000.0 9035980000.0 9036040000.0 9036110000.0 9036210000.0 9036350000.0 9036530000.0 9036780000.0 9037120000.0 9037600000.0 9038290000.0 9039310000.0 9039090000.0 36889100000.0 9041690000.0 179226000000.0 12790300000.0 202456000000.0 67222500000.0 40374200000.0 124538000000.0 53686900000.0 84202000000.0 85817600000.0 60002400000.0 108127000000.0 46353100000.0 67739100000.0 186229000000.0 9467310000.0 147626000000.0 9045270000.0 28671100000.0 9041170000.0 9040180000.0 9038930000.0 9038060000.0 9037470000.0 9037030000.0 9036720000.0 9036500000.0 9036330000.0 9036200000.0 9036110000.0 9036040000.0 9035990000.0 9035950000.0 9035910000.0 9035880000.0 9035860000.0 9035840000.0 9035820000.0 9035810000.0 9035800000.0 9035790000.0 9035780000.0 9035770000.0 9035760000.0 9035760000.0 9035750000.0 9035750000.0 9035750000.0 9035760000.0 9035760000.0 9035770000.0 9035780000.0 9035790000.0 9035800000.0 9035810000.0 9035820000.0 9035840000.0 9035860000.0 9035880000.0 9035910000.0 9035950000.0 9035990000.0 9036040000.0 9036110000.0 9036200000.0 9036330000.0 9036500000.0 9036720000.0 9037030000.0 9037470000.0 9038060000.0 9038930000.0 9040180000.0 9041170000.0 28671100000.0 9045270000.0 147626000000.0 9467310000.0 186229000000.0 67739100000.0 46353100000.0 108127000000.0 60002400000.0 85817600000.0 86018000000.0 64308400000.0 93336600000.0 50985700000.0 66251100000.0 166889000000.0 9082700000.0 120793000000.0 9048520000.0 22770200000.0 9042850000.0 9041000000.0 9039520000.0 9038490000.0 9037780000.0 9037270000.0 9036900000.0 9036630000.0 9036430000.0 9036290000.0 9036180000.0 9036090000.0 9036030000.0 9035980000.0 9035940000.0 9035910000.0 9035880000.0 9035860000.0 9035840000.0 9035820000.0 9035810000.0 9035790000.0 9035780000.0 9035770000.0 9035760000.0 9035760000.0 9035750000.0 9035750000.0 9035750000.0 9035760000.0 9035760000.0 9035770000.0 9035780000.0 9035790000.0 9035810000.0 9035820000.0 9035840000.0 9035860000.0 9035880000.0 9035910000.0 9035940000.0 9035980000.0 9036030000.0 9036090000.0 9036180000.0 9036290000.0 9036430000.0 9036630000.0 9036900000.0 9037270000.0 9037780000.0 9038490000.0 9039520000.0 9041000000.0 9042850000.0 22770200000.0 9048520000.0 120793000000.0 9082700000.0 166889000000.0 66251100000.0 50985700000.0 93336600000.0 64308400000.0 86018000000.0 84843000000.0 66729400000.0 80660800000.0 54276000000.0 63269700000.0 146276000000.0 9063350000.0 98234200000.0 9051420000.0 18529500000.0 9044060000.0 9041740000.0 9040050000.0 9038870000.0 9038070000.0 9037480000.0 9037060000.0 9036750000.0 9036520000.0 9036360000.0 9036230000.0 9036140000.0 9036070000.0 9036010000.0 9035960000.0 9035930000.0 9035890000.0 9035870000.0 9035850000.0 9035830000.0 9035810000.0 9035800000.0 9035780000.0 9035770000.0 9035770000.0 9035760000.0 9035750000.0 9035750000.0 9035750000.0 9035760000.0 9035770000.0 9035770000.0 9035780000.0 9035800000.0 9035810000.0 9035830000.0 9035850000.0 9035870000.0 9035890000.0 9035930000.0 9035960000.0 9036010000.0 9036070000.0 9036140000.0 9036230000.0 9036360000.0 9036520000.0 9036750000.0 9037060000.0 9037480000.0 9038070000.0 9038870000.0 9040050000.0 9041740000.0 9044060000.0 18529500000.0 9051420000.0 98234200000.0 9063350000.0 146276000000.0 63269700000.0 54276000000.0 80660800000.0 66729400000.0 84843000000.0 82448700000.0 67514400000.0 70172300000.0 56289200000.0 59213300000.0 125832000000.0 9067140000.0 79470300000.0 9053830000.0 15490800000.0 9045010000.0 9042390000.0 9040510000.0 9039210000.0 9038310000.0 9037670000.0 9037200000.0 9036860000.0 9036600000.0 9036420000.0 9036280000.0 9036180000.0 9036100000.0 9036030000.0 9035980000.0 9035940000.0 9035910000.0 9035880000.0 9035860000.0 9035830000.0 9035820000.0 9035800000.0 9035790000.0 9035780000.0 9035770000.0 9035760000.0 9035750000.0 9035750000.0 9035750000.0 9035760000.0 9035770000.0 9035780000.0 9035790000.0 9035800000.0 9035820000.0 9035830000.0 9035860000.0 9035880000.0 9035910000.0 9035940000.0 9035980000.0 9036030000.0 9036100000.0 9036180000.0 9036280000.0 9036420000.0 9036600000.0 9036860000.0 9037200000.0 9037670000.0 9038310000.0 9039210000.0 9040510000.0 9042390000.0 9045010000.0 15490800000.0 9053830000.0 79470300000.0 9067140000.0 125832000000.0 59213300000.0 56289200000.0 70172300000.0 67514400000.0 82448700000.0 79111800000.0 66993000000.0 61606700000.0 57131800000.0 54434800000.0 106535000000.0 9071250000.0 64050900000.0 9055690000.0 13335100000.0 9045780000.0 9042940000.0 9040900000.0 9039490000.0 9038520000.0 9037820000.0 9037310000.0 9036950000.0 9036670000.0 9036470000.0 9036320000.0 9036210000.0 9036120000.0 9036050000.0 9036000000.0 9035950000.0 9035920000.0 9035890000.0 9035860000.0 9035840000.0 9035820000.0 9035800000.0 9035790000.0 9035780000.0 9035770000.0 9035760000.0 9035750000.0 9035750000.0 9035750000.0 9035760000.0 9035770000.0 9035780000.0 9035790000.0 9035800000.0 9035820000.0 9035840000.0 9035860000.0 9035890000.0 9035920000.0 9035950000.0 9036000000.0 9036050000.0 9036120000.0 9036210000.0 9036320000.0 9036470000.0 9036670000.0 9036950000.0 9037310000.0 9037820000.0 9038520000.0 9039490000.0 9040900000.0 9042940000.0 9045780000.0 13335100000.0 9055690000.0 64050900000.0 9071250000.0 106535000000.0 54434800000.0 57131800000.0 61606700000.0 66993000000.0 79111800000.0 75141800000.0 65495700000.0 54655000000.0 56933300000.0 49264300000.0 88996700000.0 9074740000.0 51530400000.0 9057080000.0 11831900000.0 9046400000.0 9043380000.0 9041220000.0 9039720000.0 9038690000.0 9037950000.0 9037410000.0 9037020000.0 9036720000.0 9036510000.0 9036350000.0 9036230000.0 9036140000.0 9036070000.0 9036010000.0 9035960000.0 9035930000.0 9035890000.0 9035870000.0 9035840000.0 9035820000.0 9035810000.0 9035790000.0 9035780000.0 9035770000.0 9035760000.0 9035750000.0 9035750000.0 9035750000.0 9035760000.0 9035770000.0 9035780000.0 9035790000.0 9035810000.0 9035820000.0 9035840000.0 9035870000.0 9035890000.0 9035930000.0 9035960000.0 9036010000.0 9036070000.0 9036140000.0 9036230000.0 9036350000.0 9036510000.0 9036720000.0 9037020000.0 9037410000.0 9037950000.0 9038690000.0 9039720000.0 9041220000.0 9043380000.0 9046400000.0 11831900000.0 9057080000.0 51530400000.0 9074740000.0 88996700000.0 49264300000.0 56933300000.0 54655000000.0 65495700000.0 75141800000.0 70820800000.0 63308400000.0 49067600000.0 55839500000.0 44000000000.0 73554000000.0 9077570000.0 41486900000.0 9058120000.0 10807500000.0 9046880000.0 9043720000.0 9041460000.0 9039900000.0 9038820000.0 9038040000.0 9037480000.0 9037070000.0 9036760000.0 9036540000.0 9036380000.0 9036250000.0 9036160000.0 9036080000.0 9036020000.0 9035970000.0 9035930000.0 9035900000.0 9035870000.0 9035840000.0 9035820000.0 9035810000.0 9035790000.0 9035780000.0 9035770000.0 9035760000.0 9035750000.0 9035750000.0 9035750000.0 9035760000.0 9035770000.0 9035780000.0 9035790000.0 9035810000.0 9035820000.0 9035840000.0 9035870000.0 9035900000.0 9035930000.0 9035970000.0 9036020000.0 9036080000.0 9036160000.0 9036250000.0 9036380000.0 9036540000.0 9036760000.0 9037070000.0 9037480000.0 9038040000.0 9038820000.0 9039900000.0 9041460000.0 9043720000.0 9046880000.0 10807500000.0 9058120000.0 41486900000.0 9077570000.0 73554000000.0 44000000000.0 55839500000.0 49067600000.0 63308400000.0 70820800000.0 66380300000.0 60661100000.0 44608800000.0 54005900000.0 38885800000.0 60319400000.0 9079710000.0 33532800000.0 9058850000.0 10127600000.0 9047220000.0 9043960000.0 9041630000.0 9040020000.0 9038910000.0 9038100000.0 9037520000.0 9037100000.0 9036790000.0 9036560000.0 9036390000.0 9036260000.0 9036160000.0 9036090000.0 9036020000.0 9035970000.0 9035930000.0 9035900000.0 9035870000.0 9035850000.0 9035820000.0 9035810000.0 9035790000.0 9035780000.0 9035770000.0 9035760000.0 9035750000.0 9035750000.0 9035750000.0 9035760000.0 9035770000.0 9035780000.0 9035790000.0 9035810000.0 9035820000.0 9035850000.0 9035870000.0 9035900000.0 9035930000.0 9035970000.0 9036020000.0 9036090000.0 9036160000.0 9036260000.0 9036390000.0 9036560000.0 9036790000.0 9037100000.0 9037520000.0 9038100000.0 9038910000.0 9040020000.0 9041630000.0 9043960000.0 9047220000.0 10127600000.0 9058850000.0 33532800000.0 9079710000.0 60319400000.0 38885800000.0 54005900000.0 44608800000.0 60661100000.0 66380300000.0 61996300000.0 57732800000.0 41029100000.0 51590500000.0 34101500000.0 49236900000.0 9081200000.0 27314300000.0 9059300000.0 9689460000.0 9047420000.0 9044100000.0 9041730000.0 9040090000.0 9038960000.0 9038140000.0 9037550000.0 9037120000.0 9036800000.0 9036570000.0 9036400000.0 9036270000.0 9036170000.0 9036090000.0 9036020000.0 9035970000.0 9035930000.0 9035900000.0 9035870000.0 9035840000.0 9035820000.0 9035810000.0 9035790000.0 9035780000.0 9035770000.0 9035760000.0 9035750000.0 9035750000.0 9035750000.0 9035760000.0 9035770000.0 9035780000.0 9035790000.0 9035810000.0 9035820000.0 9035840000.0 9035870000.0 9035900000.0 9035930000.0 9035970000.0 9036020000.0 9036090000.0 9036170000.0 9036270000.0 9036400000.0 9036570000.0 9036800000.0 9037120000.0 9037550000.0 9038140000.0 9038960000.0 9040090000.0 9041730000.0 9044100000.0 9047420000.0 9689460000.0 9059300000.0 27314300000.0 9081200000.0 49236900000.0 34101500000.0 51590500000.0 41029100000.0 57732800000.0 61996300000.0 57788800000.0 54658500000.0 38091000000.0 48747000000.0 29763600000.0 40144600000.0 9082060000.0 22513700000.0 9059470000.0 9416120000.0 9047480000.0 9044140000.0 9041760000.0 9040110000.0 9038970000.0 9038150000.0 9037550000.0 9037120000.0 9036800000.0 9036570000.0 9036390000.0 9036260000.0 9036160000.0 9036080000.0 9036020000.0 9035970000.0 9035930000.0 9035900000.0 9035870000.0 9035840000.0 9035820000.0 9035800000.0 9035790000.0 9035780000.0 9035770000.0 9035760000.0 9035750000.0 9035750000.0 9035750000.0 9035760000.0 9035770000.0 9035780000.0 9035790000.0 9035800000.0 9035820000.0 9035840000.0 9035870000.0 9035900000.0 9035930000.0 9035970000.0 9036020000.0 9036080000.0 9036160000.0 9036260000.0 9036390000.0 9036570000.0 9036800000.0 9037120000.0 9037550000.0 9038150000.0 9038970000.0 9040110000.0 9041760000.0 9044140000.0 9047480000.0 9416120000.0 9059470000.0 22513700000.0 9082060000.0 40144600000.0 29763600000.0 48747000000.0 38091000000.0 54658500000.0 57788800000.0 53828100000.0 51537200000.0 35600600000.0 45619100000.0 25933400000.0 32822800000.0 9082330000.0 18854300000.0 9059390000.0 9251520000.0 9047420000.0 9044100000.0 9041720000.0 9040080000.0 9038950000.0 9038130000.0 9037540000.0 9037110000.0 9036790000.0 9036560000.0 9036390000.0 9036250000.0 9036160000.0 9036080000.0 9036020000.0 9035970000.0 9035920000.0 9035890000.0 9035860000.0 9035840000.0 9035820000.0 9035800000.0 9035790000.0 9035780000.0 9035770000.0 9035760000.0 9035750000.0 9035750000.0 9035750000.0 9035760000.0 9035770000.0 9035780000.0 9035790000.0 9035800000.0 9035820000.0 9035840000.0 9035860000.0 9035890000.0 9035920000.0 9035970000.0 9036020000.0 9036080000.0 9036160000.0 9036250000.0 9036390000.0 9036560000.0 9036790000.0 9037110000.0 9037540000.0 9038130000.0 9038950000.0 9040080000.0 9041720000.0 9044100000.0 9047420000.0 9251520000.0 9059390000.0 18854300000.0 9082330000.0 32822800000.0 25933400000.0 45619100000.0 35600600000.0 51537200000.0 53828100000.0 50145500000.0 48439100000.0 33416100000.0 42335300000.0 22627700000.0 27026200000.0 9082060000.0 16101000000.0 9059090000.0 9156200000.0 9047250000.0 9043970000.0 9041630000.0 9040010000.0 9038890000.0 9038090000.0 9037500000.0 9037080000.0 9036770000.0 9036540000.0 9036370000.0 9036240000.0 9036150000.0 9036070000.0 9036010000.0 9035960000.0 9035920000.0 9035890000.0 9035860000.0 9035840000.0 9035820000.0 9035800000.0 9035790000.0 9035770000.0 9035770000.0 9035760000.0 9035750000.0 9035750000.0 9035750000.0 9035760000.0 9035770000.0 9035770000.0 9035790000.0 9035800000.0 9035820000.0 9035840000.0 9035860000.0 9035890000.0 9035920000.0 9035960000.0 9036010000.0 9036070000.0 9036150000.0 9036240000.0 9036370000.0 9036540000.0 9036770000.0 9037080000.0 9037500000.0 9038090000.0 9038890000.0 9040010000.0 9041630000.0 9043970000.0 9047250000.0 9156200000.0 9059090000.0 16101000000.0 9082060000.0 27026200000.0 22627700000.0 42335300000.0 33416100000.0 48439100000.0 50145500000.0 46743900000.0 45412400000.0 31440100000.0 39006300000.0 19831300000.0 22507300000.0 9081310000.0 14057400000.0 9058570000.0 9103280000.0 9046980000.0 9043780000.0 9041490000.0 9039910000.0 9038810000.0 9038020000.0 9037460000.0 9037040000.0 9036740000.0 9036520000.0 9036350000.0 9036230000.0 9036130000.0 9036060000.0 9036000000.0 9035950000.0 9035910000.0 9035880000.0 9035850000.0 9035830000.0 9035810000.0 9035800000.0 9035780000.0 9035770000.0 9035760000.0 9035760000.0 9035750000.0 9035750000.0 9035750000.0 9035760000.0 9035760000.0 9035770000.0 9035780000.0 9035800000.0 9035810000.0 9035830000.0 9035850000.0 9035880000.0 9035910000.0 9035950000.0 9036000000.0 9036060000.0 9036130000.0 9036230000.0 9036350000.0 9036520000.0 9036740000.0 9037040000.0 9037460000.0 9038020000.0 9038810000.0 9039910000.0 9041490000.0 9043780000.0 9046980000.0 9103280000.0 9058570000.0 14057400000.0 9081310000.0 22507300000.0 19831300000.0 39006300000.0 31440100000.0 45412400000.0 46743900000.0 43608600000.0 42489200000.0 29608600000.0 35723400000.0 17507300000.0 19032900000.0 9080150000.0 12561600000.0 9057880000.0 9075230000.0 9046620000.0 9043520000.0 9041300000.0 9039770000.0 9038710000.0 9037950000.0 9037400000.0 9037000000.0 9036700000.0 9036490000.0 9036330000.0 9036210000.0 9036110000.0 9036040000.0 9035990000.0 9035940000.0 9035900000.0 9035870000.0 9035850000.0 9035830000.0 9035810000.0 9035800000.0 9035780000.0 9035770000.0 9035760000.0 9035760000.0 9035750000.0 9035750000.0 9035750000.0 9035760000.0 9035760000.0 9035770000.0 9035780000.0 9035800000.0 9035810000.0 9035830000.0 9035850000.0 9035870000.0 9035900000.0 9035940000.0 9035990000.0 9036040000.0 9036110000.0 9036210000.0 9036330000.0 9036490000.0 9036700000.0 9037000000.0 9037400000.0 9037950000.0 9038710000.0 9039770000.0 9041300000.0 9043520000.0 9046620000.0 9075230000.0 9057880000.0 12561600000.0 9080150000.0 19032900000.0 17507300000.0 35723400000.0 29608600000.0 42489200000.0 43608600000.0 40714700000.0 39689600000.0 27881300000.0 32558900000.0 15606700000.0 16394600000.0 9078640000.0 11481900000.0 9057030000.0 9061040000.0 9046190000.0 9043210000.0 9041080000.0 9039610000.0 9038590000.0 9037850000.0 9037320000.0 9036940000.0 9036660000.0 9036450000.0 9036300000.0 9036180000.0 9036100000.0 9036030000.0 9035970000.0 9035930000.0 9035890000.0 9035870000.0 9035840000.0 9035820000.0 9035810000.0 9035790000.0 9035780000.0 9035770000.0 9035760000.0 9035760000.0 9035750000.0 9035750000.0 9035750000.0 9035760000.0 9035760000.0 9035770000.0 9035780000.0 9035790000.0 9035810000.0 9035820000.0 9035840000.0 9035870000.0 9035890000.0 9035930000.0 9035970000.0 9036030000.0 9036100000.0 9036180000.0 9036300000.0 9036450000.0 9036660000.0 9036940000.0 9037320000.0 9037850000.0 9038590000.0 9039610000.0 9041080000.0 9043210000.0 9046190000.0 9061040000.0 9057030000.0 11481900000.0 9078640000.0 16394600000.0 15606700000.0 32558900000.0 27881300000.0 39689600000.0 40714700000.0 38034300000.0 37026100000.0 26235400000.0 29567500000.0 14075000000.0 14413400000.0 9076830000.0 10713300000.0 9056060000.0 9054110000.0 9045700000.0 9042860000.0 9040830000.0 9039420000.0 9038450000.0 9037750000.0 9037240000.0 9036880000.0 9036610000.0 9036410000.0 9036270000.0 9036160000.0 9036070000.0 9036010000.0 9035960000.0 9035920000.0 9035880000.0 9035860000.0 9035840000.0 9035820000.0 9035800000.0 9035790000.0 9035780000.0 9035770000.0 9035760000.0 9035760000.0 9035750000.0 9035750000.0 9035750000.0 9035760000.0 9035760000.0 9035770000.0 9035780000.0 9035790000.0 9035800000.0 9035820000.0 9035840000.0 9035860000.0 9035880000.0 9035920000.0 9035960000.0 9036010000.0 9036070000.0 9036160000.0 9036270000.0 9036410000.0 9036610000.0 9036880000.0 9037240000.0 9037750000.0 9038450000.0 9039420000.0 9040830000.0 9042860000.0 9045700000.0 9054110000.0 9056060000.0 10713300000.0 9076830000.0 14413400000.0 14075000000.0 29567500000.0 26235400000.0 37026100000.0 38034300000.0 35540600000.0 34505600000.0 24660000000.0 26787700000.0 12857600000.0 12940500000.0 9074800000.0 10173600000.0 9054990000.0 9050710000.0 9045170000.0 9042470000.0 9040550000.0 9039220000.0 9038300000.0 9037630000.0 9037160000.0 9036810000.0 9036560000.0 9036370000.0 9036230000.0 9036130000.0 9036050000.0 9035990000.0 9035940000.0 9035910000.0 9035870000.0 9035850000.0 9035830000.0 9035810000.0 9035800000.0 9035790000.0 9035780000.0 9035770000.0 9035760000.0 9035760000.0 9035750000.0 9035750000.0 9035750000.0 9035760000.0 9035760000.0 9035770000.0 9035780000.0 9035790000.0 9035800000.0 9035810000.0 9035830000.0 9035850000.0 9035870000.0 9035910000.0 9035940000.0 9035990000.0 9036050000.0 9036130000.0 9036230000.0 9036370000.0 9036560000.0 9036810000.0 9037160000.0 9037630000.0 9038300000.0 9039220000.0 9040550000.0 9042470000.0 9045170000.0 9050710000.0 9054990000.0 10173600000.0 9074800000.0 12940500000.0 12857600000.0 26787700000.0 24660000000.0 34505600000.0 35540600000.0 33211300000.0 32131500000.0 23152000000.0 24243600000.0 11902800000.0 11855400000.0 9072590000.0 9799690000.0 9053850000.0 9048890000.0 9044600000.0 9042060000.0 9040260000.0 9039010000.0 9038140000.0 9037520000.0 9037070000.0 9036740000.0 9036500000.0 9036330000.0 9036200000.0 9036100000.0 9036030000.0 9035970000.0 9035930000.0 9035890000.0 9035860000.0 9035840000.0 9035820000.0 9035810000.0 9035790000.0 9035780000.0 9035770000.0 9035770000.0 9035760000.0 9035760000.0 9035750000.0 9035750000.0 9035750000.0 9035760000.0 9035760000.0 9035770000.0 9035770000.0 9035780000.0 9035790000.0 9035810000.0 9035820000.0 9035840000.0 9035860000.0 9035890000.0 9035930000.0 9035970000.0 9036030000.0 9036100000.0 9036200000.0 9036330000.0 9036500000.0 9036740000.0 9037070000.0 9037520000.0 9038140000.0 9039010000.0 9040260000.0 9042060000.0 9044600000.0 9048890000.0 9053850000.0 9799690000.0 9072590000.0 11855400000.0 11902800000.0 24243600000.0 23152000000.0 32131500000.0 33211300000.0 31028800000.0 29904800000.0 21713700000.0 21947500000.0 11163300000.0 11062500000.0 9070270000.0 9544050000.0 9052660000.0 9047690000.0 9044010000.0 9041640000.0 9039950000.0 9038780000.0 9037980000.0 9037390000.0 9036970000.0 9036670000.0 9036450000.0 9036290000.0 9036170000.0 9036080000.0 9036010000.0 9035960000.0 9035910000.0 9035880000.0 9035850000.0 9035830000.0 9035820000.0 9035800000.0 9035790000.0 9035780000.0 9035770000.0 9035770000.0 9035760000.0 9035760000.0 9035750000.0 9035750000.0 9035750000.0 9035760000.0 9035760000.0 9035770000.0 9035770000.0 9035780000.0 9035790000.0 9035800000.0 9035820000.0 9035830000.0 9035850000.0 9035880000.0 9035910000.0 9035960000.0 9036010000.0 9036080000.0 9036170000.0 9036290000.0 9036450000.0 9036670000.0 9036970000.0 9037390000.0 9037980000.0 9038780000.0 9039950000.0 9041640000.0 9044010000.0 9047690000.0 9052660000.0 9544050000.0 9070270000.0 11062500000.0 11163300000.0 21947500000.0 21713700000.0 29904800000.0 31028800000.0 28980800000.0 27824500000.0 20349900000.0 19901900000.0 10597900000.0 10487200000.0 9067870000.0 9371500000.0 9051440000.0 9046720000.0 9043410000.0 9041210000.0 9039650000.0 9038560000.0 9037810000.0 9037270000.0 9036880000.0 9036600000.0 9036390000.0 9036240000.0 9036130000.0 9036050000.0 9035990000.0 9035940000.0 9035900000.0 9035870000.0 9035840000.0 9035830000.0 9035810000.0 9035800000.0 9035790000.0 9035780000.0 9035770000.0 9035760000.0 9035760000.0 9035760000.0 9035750000.0 9035750000.0 9035750000.0 9035760000.0 9035760000.0 9035760000.0 9035770000.0 9035780000.0 9035790000.0 9035800000.0 9035810000.0 9035830000.0 9035840000.0 9035870000.0 9035900000.0 9035940000.0 9035990000.0 9036050000.0 9036130000.0 9036240000.0 9036390000.0 9036600000.0 9036880000.0 9037270000.0 9037810000.0 9038560000.0 9039650000.0 9041210000.0 9043410000.0 9046720000.0 9051440000.0 9371500000.0 9067870000.0 10487200000.0 10597900000.0 19901900000.0 20349900000.0 27824500000.0 28980800000.0 27059400000.0 25888700000.0 19066200000.0 18101400000.0 10171000000.0 10072600000.0 9065450000.0 9256450000.0 9050220000.0 9045830000.0 9042810000.0 9040780000.0 9039340000.0 9038340000.0 9037640000.0 9037140000.0 9036790000.0 9036530000.0 9036340000.0 9036200000.0 9036100000.0 9036020000.0 9035960000.0 9035920000.0 9035890000.0 9035860000.0 9035840000.0 9035820000.0 9035800000.0 9035790000.0 9035780000.0 9035770000.0 9035770000.0 9035760000.0 9035760000.0 9035760000.0 9035750000.0 9035750000.0 9035750000.0 9035760000.0 9035760000.0 9035760000.0 9035770000.0 9035770000.0 9035780000.0 9035790000.0 9035800000.0 9035820000.0 9035840000.0 9035860000.0 9035890000.0 9035920000.0 9035960000.0 9036020000.0 9036100000.0 9036200000.0 9036340000.0 9036530000.0 9036790000.0 9037140000.0 9037640000.0 9038340000.0 9039340000.0 9040780000.0 9042810000.0 9045830000.0 9050220000.0 9256450000.0 9065450000.0 10072600000.0 10171000000.0 18101400000.0 19066200000.0 25888700000.0 27059400000.0 25260100000.0 24094500000.0 17868100000.0 16534800000.0 9852540000.0 9775240000.0 9063030000.0 9180630000.0 9049020000.0 9044970000.0 9042210000.0 9040350000.0 9039030000.0 9038120000.0 9037480000.0 9037020000.0 9036700000.0 9036460000.0 9036290000.0 9036160000.0 9036070000.0 9036000000.0 9035940000.0 9035900000.0 9035870000.0 9035850000.0 9035830000.0 9035810000.0 9035800000.0 9035790000.0 9035780000.0 9035770000.0 9035770000.0 9035760000.0 9035760000.0 9035760000.0 9035750000.0 9035750000.0 9035750000.0 9035760000.0 9035760000.0 9035760000.0 9035770000.0 9035770000.0 9035780000.0 9035790000.0 9035800000.0 9035810000.0 9035830000.0 9035850000.0 9035870000.0 9035900000.0 9035940000.0 9036000000.0 9036070000.0 9036160000.0 9036290000.0 9036460000.0 9036700000.0 9037020000.0 9037480000.0 9038120000.0 9039030000.0 9040350000.0 9042210000.0 9044970000.0 9049020000.0 9180630000.0 9063030000.0 9775240000.0 9852540000.0 16534800000.0 17868100000.0 24094500000.0 25260100000.0 23580400000.0 22438300000.0 16759800000.0 15186600000.0 9618000000.0 9562940000.0 9060660000.0 9131180000.0 9047840000.0 9044150000.0 9041630000.0 9039940000.0 9038740000.0 9037900000.0 9037320000.0 9036910000.0 9036610000.0 9036390000.0 9036230000.0 9036120000.0 9036030000.0 9035970000.0 9035920000.0 9035890000.0 9035860000.0 9035840000.0 9035820000.0 9035800000.0 9035790000.0 9035780000.0 9035780000.0 9035770000.0 9035760000.0 9035760000.0 9035760000.0 9035750000.0 9035750000.0 9035750000.0 9035750000.0 9035750000.0 9035760000.0 9035760000.0 9035760000.0 9035770000.0 9035780000.0 9035780000.0 9035790000.0 9035800000.0 9035820000.0 9035840000.0 9035860000.0 9035890000.0 9035920000.0 9035970000.0 9036030000.0 9036120000.0 9036230000.0 9036390000.0 9036610000.0 9036910000.0 9037320000.0 9037900000.0 9038740000.0 9039940000.0 9041630000.0 9044150000.0 9047840000.0 9131180000.0 9060660000.0 9562940000.0 9618000000.0 15186600000.0 16759800000.0 22438300000.0 23580400000.0 22019100000.0 20916000000.0 15744000000.0 14038800000.0 9447350000.0 9411850000.0 9058370000.0 9099220000.0 9046700000.0 9043350000.0 9041080000.0 9039540000.0 9038450000.0 9037700000.0 9037170000.0 9036790000.0 9036520000.0 9036330000.0 9036190000.0 9036080000.0 9036000000.0 9035950000.0 9035910000.0 9035870000.0 9035850000.0 9035830000.0 9035810000.0 9035800000.0 9035790000.0 9035780000.0 9035770000.0 9035770000.0 9035760000.0 9035760000.0 9035760000.0 9035750000.0 9035750000.0 9035750000.0 9035750000.0 9035750000.0 9035760000.0 9035760000.0 9035760000.0 9035770000.0 9035770000.0 9035780000.0 9035790000.0 9035800000.0 9035810000.0 9035830000.0 9035850000.0 9035870000.0 9035910000.0 9035950000.0 9036000000.0 9036080000.0 9036190000.0 9036330000.0 9036520000.0 9036790000.0 9037170000.0 9037700000.0 9038450000.0 9039540000.0 9041080000.0 9043350000.0 9046700000.0 9099220000.0 9058370000.0 9411850000.0 9447350000.0 14038800000.0 15744000000.0 20916000000.0 22019100000.0 20575200000.0 19522900000.0 14821400000.0 13071700000.0 9324680000.0 9304550000.0 9056160000.0 9078670000.0 9045610000.0 9042600000.0 9040550000.0 9039160000.0 9038180000.0 9037500000.0 9037030000.0 9036690000.0 9036440000.0 9036270000.0 9036140000.0 9036050000.0 9035980000.0 9035930000.0 9035890000.0 9035860000.0 9035840000.0 9035820000.0 9035800000.0 9035790000.0 9035780000.0 9035780000.0 9035770000.0 9035770000.0 9035760000.0 9035760000.0 9035760000.0 9035750000.0 9035750000.0 9035750000.0 9035750000.0 9035750000.0 9035760000.0 9035760000.0 9035760000.0 9035770000.0 9035770000.0 9035780000.0 9035780000.0 9035790000.0 9035800000.0 9035820000.0 9035840000.0 9035860000.0 9035890000.0 9035930000.0 9035980000.0 9036050000.0 9036140000.0 9036270000.0 9036440000.0 9036690000.0 9037030000.0 9037500000.0 9038180000.0 9039160000.0 9040550000.0 9042600000.0 9045610000.0 9078670000.0 9056160000.0 9304550000.0 9324680000.0 13071700000.0 14821400000.0 19522900000.0 20575200000.0 19247200000.0 18254000000.0 13991100000.0 12265000000.0 9237530000.0 9228430000.0 9054070000.0 9065500000.0 9044590000.0 9041880000.0 9040040000.0 9038800000.0 9037920000.0 9037310000.0 9036890000.0 9036580000.0 9036370000.0 9036210000.0 9036100000.0 9036010000.0 9035950000.0 9035910000.0 9035870000.0 9035850000.0 9035830000.0 9035810000.0 9035800000.0 9035790000.0 9035780000.0 9035770000.0 9035770000.0 9035760000.0 9035760000.0 9035760000.0 9035760000.0 9035750000.0 9035750000.0 9035750000.0 9035750000.0 9035750000.0 9035760000.0 9035760000.0 9035760000.0 9035760000.0 9035770000.0 9035770000.0 9035780000.0 9035790000.0 9035800000.0 9035810000.0 9035830000.0 9035850000.0 9035870000.0 9035910000.0 9035950000.0 9036010000.0 9036100000.0 9036210000.0 9036370000.0 9036580000.0 9036890000.0 9037310000.0 9037920000.0 9038800000.0 9040040000.0 9041880000.0 9044590000.0 9065500000.0 9054070000.0 9228430000.0 9237530000.0 12265000000.0 13991100000.0 18254000000.0 19247200000.0 18032900000.0 17103600000.0 13250800000.0 11598800000.0 9176310000.0 9174420000.0 9052100000.0 9057020000.0 9043620000.0 9041210000.0 9039570000.0 9038470000.0 9037680000.0 9037140000.0 9036760000.0 9036490000.0 9036300000.0 9036160000.0 9036060000.0 9035980000.0 9035930000.0 9035890000.0 9035860000.0 9035830000.0 9035820000.0 9035800000.0 9035790000.0 9035780000.0 9035780000.0 9035770000.0 9035770000.0 9035760000.0 9035760000.0 9035760000.0 9035760000.0 9035750000.0 9035750000.0 9035750000.0 9035750000.0 9035750000.0 9035760000.0 9035760000.0 9035760000.0 9035760000.0 9035770000.0 9035770000.0 9035780000.0 9035780000.0 9035790000.0 9035800000.0 9035820000.0 9035830000.0 9035860000.0 9035890000.0 9035930000.0 9035980000.0 9036060000.0 9036160000.0 9036300000.0 9036490000.0 9036760000.0 9037140000.0 9037680000.0 9038470000.0 9039570000.0 9041210000.0 9043620000.0 9057020000.0 9052100000.0 9174420000.0 9176310000.0 11598800000.0 13250800000.0 17103600000.0 18032900000.0 16929300000.0 16065800000.0 12596600000.0 11053900000.0 9133740000.0 9136070000.0 9050260000.0 9051500000.0 9042730000.0 9040590000.0 9039140000.0 9038160000.0 9037460000.0 9036980000.0 9036640000.0 9036400000.0 9036230000.0 9036110000.0 9036020000.0 9035950000.0 9035900000.0 9035870000.0 9035840000.0 9035820000.0 9035810000.0 9035790000.0 9035790000.0 9035780000.0 9035770000.0 9035770000.0 9035760000.0 9035760000.0 9035760000.0 9035760000.0 9035750000.0 9035750000.0 9035750000.0 9035750000.0 9035750000.0 9035750000.0 9035750000.0 9035760000.0 9035760000.0 9035760000.0 9035760000.0 9035770000.0 9035770000.0 9035780000.0 9035790000.0 9035790000.0 9035810000.0 9035820000.0 9035840000.0 9035870000.0 9035900000.0 9035950000.0 9036020000.0 9036110000.0 9036230000.0 9036400000.0 9036640000.0 9036980000.0 9037460000.0 9038160000.0 9039140000.0 9040590000.0 9042730000.0 9051500000.0 9050260000.0 9136070000.0 9133740000.0 11053900000.0 12596600000.0 16065800000.0 16929300000.0 15931900000.0 15134300000.0 12023400000.0 10612500000.0 9104410000.0 9108780000.0 9048560000.0 9047830000.0 9041900000.0 9040010000.0 9038730000.0 9037870000.0 9037260000.0 9036830000.0 9036540000.0 9036320000.0 9036170000.0 9036060000.0 9035980000.0 9035930000.0 9035890000.0 9035850000.0 9035830000.0 9035810000.0 9035800000.0 9035790000.0 9035780000.0 9035770000.0 9035770000.0 9035770000.0 9035760000.0 9035760000.0 9035760000.0 9035760000.0 9035750000.0 9035750000.0 9035750000.0 9035750000.0 9035750000.0 9035750000.0 9035750000.0 9035760000.0 9035760000.0 9035760000.0 9035760000.0 9035770000.0 9035770000.0 9035770000.0 9035780000.0 9035790000.0 9035800000.0 9035810000.0 9035830000.0 9035850000.0 9035890000.0 9035930000.0 9035980000.0 9036060000.0 9036170000.0 9036320000.0 9036540000.0 9036830000.0 9037260000.0 9037870000.0 9038730000.0 9040010000.0 9041900000.0 9047830000.0 9048560000.0 9108780000.0 9104410000.0 10612500000.0 12023400000.0 15134300000.0 15931900000.0 15035900000.0 14302300000.0 11525600000.0 10258300000.0 9084320000.0 9089310000.0 9047000000.0 9045310000.0 9041140000.0 9039490000.0 9038370000.0 9037610000.0 9037070000.0 9036700000.0 9036440000.0 9036250000.0 9036120000.0 9036020000.0 9035950000.0 9035900000.0 9035870000.0 9035840000.0 9035820000.0 9035800000.0 9035790000.0 9035780000.0 9035780000.0 9035770000.0 9035770000.0 9035760000.0 9035760000.0 9035760000.0 9035760000.0 9035760000.0 9035750000.0 9035750000.0 9035750000.0 9035750000.0 9035750000.0 9035750000.0 9035750000.0 9035760000.0 9035760000.0 9035760000.0 9035760000.0 9035760000.0 9035770000.0 9035770000.0 9035780000.0 9035780000.0 9035790000.0 9035800000.0 9035820000.0 9035840000.0 9035870000.0 9035900000.0 9035950000.0 9036020000.0 9036120000.0 9036250000.0 9036440000.0 9036700000.0 9037070000.0 9037610000.0 9038370000.0 9039490000.0 9041140000.0 9045310000.0 9047000000.0 9089310000.0 9084320000.0 10258300000.0 11525600000.0 14302300000.0 15035900000.0 14235200000.0 13563100000.0 11096800000.0 9976590000.0 9070630000.0 9075360000.0 9045580000.0 9043510000.0 9040460000.0 9039010000.0 9038030000.0 9037370000.0 9036900000.0 9036570000.0 9036350000.0 9036190000.0 9036070000.0 9035990000.0 9035930000.0 9035880000.0 9035850000.0 9035830000.0 9035810000.0 9035800000.0 9035790000.0 9035780000.0 9035770000.0 9035770000.0 9035760000.0 9035760000.0 9035760000.0 9035760000.0 9035760000.0 9035750000.0 9035750000.0 9035750000.0 9035750000.0 9035750000.0 9035750000.0 9035750000.0 9035750000.0 9035750000.0 9035760000.0 9035760000.0 9035760000.0 9035760000.0 9035760000.0 9035770000.0 9035770000.0 9035780000.0 9035790000.0 9035800000.0 9035810000.0 9035830000.0 9035850000.0 9035880000.0 9035930000.0 9035990000.0 9036070000.0 9036190000.0 9036350000.0 9036570000.0 9036900000.0 9037370000.0 9038030000.0 9039010000.0 9040460000.0 9043510000.0 9045580000.0 9075360000.0 9070630000.0 9976590000.0 11096800000.0 13563100000.0 14235200000.0 13523400000.0 12909600000.0 10730400000.0 9754570000.0 9061280000.0 9065320000.0 9044300000.0 9042170000.0 9039840000.0 9038580000.0 9037730000.0 9037150000.0 9036750000.0 9036460000.0 9036270000.0 9036130000.0 9036030000.0 9035950000.0 9035900000.0 9035860000.0 9035840000.0 9035820000.0 9035800000.0 9035790000.0 9035780000.0 9035770000.0 9035770000.0 9035770000.0 9035760000.0 9035760000.0 9035760000.0 9035760000.0 9035760000.0 9035750000.0 9035750000.0 9035750000.0 9035750000.0 9035750000.0 9035750000.0 9035750000.0 9035750000.0 9035750000.0 9035760000.0 9035760000.0 9035760000.0 9035760000.0 9035760000.0 9035770000.0 9035770000.0 9035770000.0 9035780000.0 9035790000.0 9035800000.0 9035820000.0 9035840000.0 9035860000.0 9035900000.0 9035950000.0 9036030000.0 9036130000.0 9036270000.0 9036460000.0 9036750000.0 9037150000.0 9037730000.0 9038580000.0 9039840000.0 9042170000.0 9044300000.0 9065320000.0 9061280000.0 9754570000.0 10730400000.0 12909600000.0 13523400000.0 12893700000.0 12334800000.0 10420000000.0 9581120000.0 9054870000.0 9058040000.0 9043140000.0 9041120000.0 9039280000.0 9038190000.0 9037460000.0 9036960000.0 9036610000.0 9036370000.0 9036200000.0 9036070000.0 9035990000.0 9035930000.0 9035880000.0 9035850000.0 9035820000.0 9035810000.0 9035790000.0 9035780000.0 9035780000.0 9035770000.0 9035770000.0 9035760000.0 9035760000.0 9035760000.0 9035760000.0 9035760000.0 9035760000.0 9035750000.0 9035750000.0 9035750000.0 9035750000.0 9035750000.0 9035750000.0 9035750000.0 9035750000.0 9035750000.0 9035760000.0 9035760000.0 9035760000.0 9035760000.0 9035760000.0 9035760000.0 9035770000.0 9035770000.0 9035780000.0 9035780000.0 9035790000.0 9035810000.0 9035820000.0 9035850000.0 9035880000.0 9035930000.0 9035990000.0 9036070000.0 9036200000.0 9036370000.0 9036610000.0 9036960000.0 9037460000.0 9038190000.0 9039280000.0 9041120000.0 9043140000.0 9058040000.0 9054870000.0 9581120000.0 10420000000.0 12334800000.0 12893700000.0 12339000000.0 11831700000.0 10158900000.0 9446770000.0 9050410000.0 9052740000.0 9042110000.0 9040280000.0 9038780000.0 9037850000.0 9037220000.0 9036790000.0 9036490000.0 9036280000.0 9036130000.0 9036030000.0 9035950000.0 9035900000.0 9035860000.0 9035830000.0 9035810000.0 9035800000.0 9035790000.0 9035780000.0 9035770000.0 9035770000.0 9035760000.0 9035760000.0 9035760000.0 9035760000.0 9035760000.0 9035760000.0 9035750000.0 9035750000.0 9035750000.0 9035750000.0 9035750000.0 9035750000.0 9035750000.0 9035750000.0 9035750000.0 9035750000.0 9035750000.0 9035760000.0 9035760000.0 9035760000.0 9035760000.0 9035760000.0 9035760000.0 9035770000.0 9035770000.0 9035780000.0 9035790000.0 9035800000.0 9035810000.0 9035830000.0 9035860000.0 9035900000.0 9035950000.0 9036030000.0 9036130000.0 9036280000.0 9036490000.0 9036790000.0 9037220000.0 9037850000.0 9038780000.0 9040280000.0 9042110000.0 9052740000.0 9050410000.0 9446770000.0 10158900000.0 11831700000.0 12339000000.0 11852200000.0 11393400000.0 9941040000.0 9343540000.0 9047240000.0 9048830000.0 9041190000.0 9039570000.0 9038340000.0 9037540000.0 9037000000.0 9036640000.0 9036380000.0 9036200000.0 9036080000.0 9035990000.0 9035920000.0 9035880000.0 9035840000.0 9035820000.0 9035800000.0 9035790000.0 9035780000.0 9035770000.0 9035770000.0 9035770000.0 9035760000.0 9035760000.0 9035760000.0 9035760000.0 9035760000.0 9035750000.0 9035750000.0 9035750000.0 9035750000.0 9035750000.0 9035750000.0 9035750000.0 9035750000.0 9035750000.0 9035750000.0 9035750000.0 9035750000.0 9035750000.0 9035760000.0 9035760000.0 9035760000.0 9035760000.0 9035760000.0 9035770000.0 9035770000.0 9035770000.0 9035780000.0 9035790000.0 9035800000.0 9035820000.0 9035840000.0 9035880000.0 9035920000.0 9035990000.0 9036080000.0 9036200000.0 9036380000.0 9036640000.0 9037000000.0 9037540000.0 9038340000.0 9039570000.0 9041190000.0 9048830000.0 9047240000.0 9343540000.0 9941040000.0 11393400000.0 11852200000.0 11426400000.0 11013400000.0 9760570000.0 9264860000.0 9044940000.0 9045920000.0 9040380000.0 9038980000.0 9037950000.0 9037270000.0 9036820000.0 9036500000.0 9036280000.0 9036130000.0 9036030000.0 9035950000.0 9035900000.0 9035860000.0 9035830000.0 9035810000.0 9035800000.0 9035780000.0 9035780000.0 9035770000.0 9035770000.0 9035760000.0 9035760000.0 9035760000.0 9035760000.0 9035760000.0 9035760000.0 9035750000.0 9035750000.0 9035750000.0 9035750000.0 9035750000.0 9035750000.0 9035750000.0 9035750000.0 9035750000.0 9035750000.0 9035750000.0 9035750000.0 9035750000.0 9035760000.0 9035760000.0 9035760000.0 9035760000.0 9035760000.0 9035760000.0 9035770000.0 9035770000.0 9035780000.0 9035780000.0 9035800000.0 9035810000.0 9035830000.0 9035860000.0 9035900000.0 9035950000.0 9036030000.0 9036130000.0 9036280000.0 9036500000.0 9036820000.0 9037270000.0 9037950000.0 9038980000.0 9040380000.0 9045920000.0 9044940000.0 9264860000.0 9760570000.0 11013400000.0 11426400000.0 11055000000.0 10685100000.0 9612140000.0 9205330000.0 9043200000.0 9043720000.0 9039670000.0 9038470000.0 9037610000.0 9037040000.0 9036650000.0 9036390000.0 9036200000.0 9036070000.0 9035980000.0 9035920000.0 9035870000.0 9035840000.0 9035820000.0 9035800000.0 9035790000.0 9035780000.0 9035770000.0 9035770000.0 9035760000.0 9035760000.0 9035760000.0 9035760000.0 9035760000.0 9035760000.0 9035750000.0 9035750000.0 9035750000.0 9035750000.0 9035750000.0 9035750000.0 9035750000.0 9035750000.0 9035750000.0 9035750000.0 9035750000.0 9035750000.0 9035750000.0 9035750000.0 9035750000.0 9035760000.0 9035760000.0 9035760000.0 9035760000.0 9035760000.0 9035760000.0 9035770000.0 9035770000.0 9035780000.0 9035790000.0 9035800000.0 9035820000.0 9035840000.0 9035870000.0 9035920000.0 9035980000.0 9036070000.0 9036200000.0 9036390000.0 9036650000.0 9037040000.0 9037610000.0 9038470000.0 9039670000.0 9043720000.0 9043200000.0 9205330000.0 9612140000.0 10685100000.0 11055000000.0 10731400000.0 10402500000.0 9490860000.0 9160600000.0 9041850000.0 9042040000.0 9039040000.0 9038020000.0 9037310000.0 9036830000.0 9036500000.0 9036280000.0 9036130000.0 9036020000.0 9035940000.0 9035890000.0 9035850000.0 9035830000.0 9035810000.0 9035790000.0 9035780000.0 9035770000.0 9035770000.0 9035770000.0 9035760000.0 9035760000.0 9035760000.0 9035760000.0 9035760000.0 9035750000.0 9035750000.0 9035750000.0 9035750000.0 9035750000.0 9035750000.0 9035750000.0 9035750000.0 9035750000.0 9035750000.0 9035750000.0 9035750000.0 9035750000.0 9035750000.0 9035750000.0 9035750000.0 9035750000.0 9035760000.0 9035760000.0 9035760000.0 9035760000.0 9035760000.0 9035770000.0 9035770000.0 9035770000.0 9035780000.0 9035790000.0 9035810000.0 9035830000.0 9035850000.0 9035890000.0 9035940000.0 9036020000.0 9036130000.0 9036280000.0 9036500000.0 9036830000.0 9037310000.0 9038020000.0 9039040000.0 9042040000.0 9041850000.0 9160600000.0 9490860000.0 10402500000.0 10731400000.0 10449600000.0 10159900000.0 9392350000.0 9127190000.0 9040770000.0 9040740000.0 9038490000.0 9037640000.0 9037050000.0 9036650000.0 9036380000.0 9036190000.0 9036060000.0 9035970000.0 9035910000.0 9035870000.0 9035840000.0 9035810000.0 9035800000.0 9035790000.0 9035780000.0 9035770000.0 9035770000.0 9035760000.0 9035760000.0 9035760000.0 9035760000.0 9035760000.0 9035760000.0 9035750000.0 9035750000.0 9035750000.0 9035750000.0 9035750000.0 9035750000.0 9035750000.0 9035750000.0 9035750000.0 9035750000.0 9035750000.0 9035750000.0 9035750000.0 9035750000.0 9035750000.0 9035750000.0 9035750000.0 9035760000.0 9035760000.0 9035760000.0 9035760000.0 9035760000.0 9035760000.0 9035770000.0 9035770000.0 9035780000.0 9035790000.0 9035800000.0 9035810000.0 9035840000.0 9035870000.0 9035910000.0 9035970000.0 9036060000.0 9036190000.0 9036380000.0 9036650000.0 9037050000.0 9037640000.0 9038490000.0 9040740000.0 9040770000.0 9127190000.0 9392350000.0 10159900000.0 10449600000.0 10204000000.0 9951850000.0 9312740000.0 9102360000.0 9039870000.0 9039710000.0 9038020000.0 9037310000.0 9036820000.0 9036490000.0 9036270000.0 9036120000.0 9036010000.0 9035930000.0 9035880000.0 9035850000.0 9035820000.0 9035800000.0 9035790000.0 9035780000.0 9035770000.0 9035770000.0 9035760000.0 9035760000.0 9035760000.0 9035760000.0 9035760000.0 9035760000.0 9035750000.0 9035750000.0 9035750000.0 9035750000.0 9035750000.0 9035750000.0 9035750000.0 9035750000.0 9035750000.0 9035750000.0 9035750000.0 9035750000.0 9035750000.0 9035750000.0 9035750000.0 9035750000.0 9035750000.0 9035750000.0 9035750000.0 9035760000.0 9035760000.0 9035760000.0 9035760000.0 9035760000.0 9035760000.0 9035770000.0 9035770000.0 9035780000.0 9035790000.0 9035800000.0 9035820000.0 9035850000.0 9035880000.0 9035930000.0 9036010000.0 9036120000.0 9036270000.0 9036490000.0 9036820000.0 9037310000.0 9038020000.0 9039710000.0 9039870000.0 9102360000.0 9312740000.0 9951850000.0 10204000000.0 9989160000.0 9773280000.0 9248620000.0 9083960000.0 9039100000.0 9038880000.0 9037600000.0 9037020000.0 9036620000.0 9036350000.0 9036170000.0 9036050000.0 9035960000.0 9035900000.0 9035860000.0 9035830000.0 9035810000.0 9035790000.0 9035780000.0 9035770000.0 9035770000.0 9035760000.0 9035760000.0 9035760000.0 9035760000.0 9035760000.0 9035760000.0 9035750000.0 9035750000.0 9035750000.0 9035750000.0 9035750000.0 9035750000.0 9035750000.0 9035750000.0 9035750000.0 9035750000.0 9035750000.0 9035750000.0 9035750000.0 9035750000.0 9035750000.0 9035750000.0 9035750000.0 9035750000.0 9035750000.0 9035750000.0 9035750000.0 9035760000.0 9035760000.0 9035760000.0 9035760000.0 9035760000.0 9035760000.0 9035770000.0 9035770000.0 9035780000.0 9035790000.0 9035810000.0 9035830000.0 9035860000.0 9035900000.0 9035960000.0 9036050000.0 9036170000.0 9036350000.0 9036620000.0 9037020000.0 9037600000.0 9038880000.0 9039100000.0 9083960000.0 9248620000.0 9773280000.0 9989160000.0 9800210000.0 9619490000.0 9196980000.0 9070320000.0 9038440000.0 9038190000.0 9037230000.0 9036770000.0 9036450000.0 9036230000.0 9036090000.0 9035990000.0 9035920000.0 9035870000.0 9035840000.0 9035810000.0 9035800000.0 9035780000.0 9035780000.0 9035770000.0 9035770000.0 9035760000.0 9035760000.0 9035760000.0 9035760000.0 9035760000.0 9035750000.0 9035750000.0 9035750000.0 9035750000.0 9035750000.0 9035750000.0 9035750000.0 9035750000.0 9035750000.0 9035750000.0 9035750000.0 9035750000.0 9035750000.0 9035750000.0 9035750000.0 9035750000.0 9035750000.0 9035750000.0 9035750000.0 9035750000.0 9035750000.0 9035750000.0 9035750000.0 9035760000.0 9035760000.0 9035760000.0 9035760000.0 9035760000.0 9035770000.0 9035770000.0 9035780000.0 9035780000.0 9035800000.0 9035810000.0 9035840000.0 9035870000.0 9035920000.0 9035990000.0 9036090000.0 9036230000.0 9036450000.0 9036770000.0 9037230000.0 9038190000.0 9038440000.0 9070320000.0 9196980000.0 9619490000.0 9800210000.0 9632510000.0 9486050000.0 9155250000.0 9060160000.0 9037850000.0 9037620000.0 9036900000.0 9036540000.0 9036290000.0 9036130000.0 9036010000.0 9035940000.0 9035880000.0 9035840000.0 9035820000.0 9035800000.0 9035790000.0 9035780000.0 9035770000.0 9035770000.0 9035760000.0 9035760000.0 9035760000.0 9035760000.0 9035760000.0 9035750000.0 9035750000.0 9035750000.0 9035750000.0 9035750000.0 9035750000.0 9035750000.0 9035750000.0 9035750000.0 9035750000.0 9035750000.0 9035750000.0 9035750000.0 9035750000.0 9035750000.0 9035750000.0 9035750000.0 9035750000.0 9035750000.0 9035750000.0 9035750000.0 9035750000.0 9035750000.0 9035750000.0 9035750000.0 9035760000.0 9035760000.0 9035760000.0 9035760000.0 9035760000.0 9035770000.0 9035770000.0 9035780000.0 9035790000.0 9035800000.0 9035820000.0 9035840000.0 9035880000.0 9035940000.0 9036010000.0 9036130000.0 9036290000.0 9036540000.0 9036900000.0 9037620000.0 9037850000.0 9060160000.0 9155250000.0 9486050000.0 9632510000.0 9481730000.0 9368850000.0 9121140000.0 9052500000.0 9037330000.0 9037130000.0 9036610000.0 9036340000.0 9036160000.0 9036030000.0 9035950000.0 9035890000.0 9035850000.0 9035820000.0 9035800000.0 9035790000.0 9035780000.0 9035770000.0 9035770000.0 9035760000.0 9035760000.0 9035760000.0 9035760000.0 9035760000.0 9035750000.0 9035750000.0 9035750000.0 9035750000.0 9035750000.0 9035750000.0 9035750000.0 9035750000.0 9035750000.0 9035750000.0 9035750000.0 9035750000.0 9035750000.0 9035750000.0 9035750000.0 9035750000.0 9035750000.0 9035750000.0 9035750000.0 9035750000.0 9035750000.0 9035750000.0 9035750000.0 9035750000.0 9035750000.0 9035750000.0 9035750000.0 9035760000.0 9035760000.0 9035760000.0 9035760000.0 9035760000.0 9035770000.0 9035770000.0 9035780000.0 9035790000.0 9035800000.0 9035820000.0 9035850000.0 9035890000.0 9035950000.0 9036030000.0 9036160000.0 9036340000.0 9036610000.0 9037130000.0 9037330000.0 9052500000.0 9121140000.0 9368850000.0 9481730000.0 9343820000.0 9263980000.0 9092670000.0 9046570000.0 9036840000.0 9036690000.0 9036340000.0 9036160000.0 9036030000.0 9035940000.0 9035890000.0 9035850000.0 9035820000.0 9035800000.0 9035790000.0 9035780000.0 9035770000.0 9035770000.0 9035760000.0 9035760000.0 9035760000.0 9035760000.0 9035760000.0 9035750000.0 9035750000.0 9035750000.0 9035750000.0 9035750000.0 9035750000.0 9035750000.0 9035750000.0 9035750000.0 9035750000.0 9035750000.0 9035750000.0 9035750000.0 9035750000.0 9035750000.0 9035750000.0 9035750000.0 9035750000.0 9035750000.0 9035750000.0 9035750000.0 9035750000.0 9035750000.0 9035750000.0 9035750000.0 9035750000.0 9035750000.0 9035750000.0 9035750000.0 9035760000.0 9035760000.0 9035760000.0 9035760000.0 9035760000.0 9035770000.0 9035770000.0 9035780000.0 9035790000.0 9035800000.0 9035820000.0 9035850000.0 9035890000.0 9035940000.0 9036030000.0 9036160000.0 9036340000.0 9036690000.0 9036840000.0 9046570000.0 9092670000.0 9263980000.0 9343820000.0 9214910000.0 9167740000.0 9068050000.0 9041760000.0 9036390000.0 9036300000.0 9036100000.0 9035990000.0 9035910000.0 9035860000.0 9035830000.0 9035810000.0 9035790000.0 9035780000.0 9035770000.0 9035770000.0 9035760000.0 9035760000.0 9035760000.0 9035760000.0 9035760000.0 9035750000.0 9035750000.0 9035750000.0 9035750000.0 9035750000.0 9035750000.0 9035750000.0 9035750000.0 9035750000.0 9035750000.0 9035750000.0 9035750000.0 9035750000.0 9035750000.0 9035750000.0 9035750000.0 9035750000.0 9035750000.0 9035750000.0 9035750000.0 9035750000.0 9035750000.0 9035750000.0 9035750000.0 9035750000.0 9035750000.0 9035750000.0 9035750000.0 9035750000.0 9035750000.0 9035750000.0 9035750000.0 9035750000.0 9035760000.0 9035760000.0 9035760000.0 9035760000.0 9035760000.0 9035770000.0 9035770000.0 9035780000.0 9035790000.0 9035810000.0 9035830000.0 9035860000.0 9035910000.0 9035990000.0 9036100000.0 9036300000.0 9036390000.0 9041760000.0 9068050000.0 9167740000.0 9214910000.0 9091260000.0 9076560000.0 9045660000.0 9037580000.0 9035950000.0 9035920000.0 9035860000.0 9035830000.0 9035800000.0 9035790000.0 9035780000.0 9035770000.0 9035760000.0 9035760000.0 9035760000.0 9035760000.0 9035760000.0 9035760000.0 9035750000.0 9035750000.0 9035750000.0 9035750000.0 9035750000.0 9035750000.0 9035750000.0 9035750000.0 9035750000.0 9035750000.0 9035750000.0 9035750000.0 9035750000.0 9035750000.0 9035750000.0 9035750000.0 9035750000.0 9035750000.0 9035750000.0 9035750000.0 9035750000.0 9035750000.0 9035750000.0 9035750000.0 9035750000.0 9035750000.0 9035750000.0 9035750000.0 9035750000.0 9035750000.0 9035750000.0 9035750000.0 9035750000.0 9035750000.0 9035750000.0 9035750000.0 9035750000.0 9035750000.0 9035750000.0 9035760000.0 9035760000.0 9035760000.0 9035760000.0 9035760000.0 9035760000.0 9035770000.0 9035780000.0 9035790000.0 9035800000.0 9035830000.0 9035860000.0 9035920000.0 9035950000.0 9037580000.0 9045660000.0 9076560000.0 9091260000.0 