# vtk DataFile Version 2.0
Time step 9
ASCII
DATASET UNSTRUCTURED_GRID
POINTS 5000 float
50048.9 471665.0 0
53445.6 469002.0 0
56932.8 467035.0 0
61631.5 466642.0 0
65406.5 470694.0 0
74393.1 469416.0 0
78733.5 471325.0 0
83510.8 470644.0 0
87672.9 470068.0 0
92500.0 470990.0 0
97196.7 471011.0 0
101296.0 470928.0 0
105950.0 470326.0 0
111936.0 470804.0 0
117848.0 470982.0 0
123327.0 471059.0 0
128341.0 471175.0 0
133423.0 470429.0 0
138119.0 471112.0 0
142500.0 471033.0 0
147500.0 470967.0 0
152501.0 470936.0 0
157581.0 470586.0 0
162549.0 470742.0 0
167023.0 470338.0 0
171833.0 469182.0 0
177743.0 469224.0 0
182950.0 468422.0 0
187413.0 470261.0 0
196114.0 470583.0 0
201761.0 469925.0 0
207657.0 470671.0 0
212999.0 470075.0 0
218134.0 471093.0 0
222486.0 471104.0 0
225827.0 470457.0 0
230428.0 470285.0 0
241171.0 469934.0 0
252663.0 469897.0 0
259026.0 470421.0 0
268742.0 470432.0 0
273938.0 470698.0 0
278875.0 469318.0 0
286330.0 470955.0 0
297322.0 469296.0 0
303647.0 470152.0 0
312119.0 470490.0 0
317920.0 471124.0 0
323236.0 471053.0 0
332198.0 470879.0 0
337214.0 470584.0 0
345875.0 470156.0 0
355256.0 471160.0 0
361775.0 469702.0 0
372004.0 467803.0 0
367898.0 471052.0 0
377040.0 469721.0 0
382618.0 470597.0 0
388138.0 469907.0 0
394020.0 469210.0 0
399164.0 470980.0 0
403617.0 468227.0 0
408692.0 468734.0 0
412485.0 470939.0 0
417210.0 470924.0 0
421462.0 468418.0 0
426091.0 469632.0 0
430577.0 467001.0 0
434184.0 470050.0 0
440299.0 465146.0 0
437778.0 468072.0 0
440897.0 470717.0 0
443853.0 467677.0 0
447806.0 470662.0 0
45881.1 474673.0 0
50421.0 475823.0 0
53950.6 472811.0 0
54169.0 476873.0 0
57227.7 473904.0 0
59130.2 470606.0 0
61613.2 474893.0 0
66247.6 475621.0 0
70430.4 471732.0 0
69995.2 475774.0 0
74418.0 474998.0 0
78580.0 476155.0 0
82304.4 475191.0 0
87919.6 474841.0 0
92500.0 476129.0 0
97116.2 475655.0 0
102467.0 475663.0 0
108244.0 474914.0 0
112500.0 476066.0 0
117500.0 476147.0 0
122500.0 476070.0 0
127754.0 475530.0 0
132512.0 475965.0 0
137526.0 475978.0 0
142775.0 475454.0 0
146983.0 475805.0 0
151994.0 475689.0 0
156922.0 474647.0 0
161354.0 475473.0 0
166569.0 475013.0 0
172930.0 474758.0 0
178333.0 474641.0 0
183491.0 473495.0 0
188561.0 474723.0 0
192500.0 471385.0 0
193534.0 475541.0 0
198221.0 474958.0 0
203926.0 475548.0 0
213694.0 474626.0 0
209360.0 475796.0 0
217635.0 476152.0 0
222070.0 476013.0 0
226847.0 474688.0 0
232238.0 475655.0 0
235812.0 471231.0 0
246497.0 471947.0 0
248418.0 476038.0 0
257225.0 475054.0 0
263759.0 471455.0 0
262325.0 475636.0 0
267161.0 475306.0 0
271676.0 474638.0 0
276961.0 475036.0 0
282032.0 472642.0 0
282815.0 476332.0 0
287500.0 476044.0 0
291720.0 471427.0 0
292838.0 475938.0 0
298213.0 474812.0 0
303070.0 475817.0 0
307748.0 472684.0 0
307474.0 475977.0 0
312501.0 476238.0 0
317499.0 476002.0 0
322463.0 475527.0 0
327574.0 471280.0 0
327500.0 476024.0 0
332500.0 476096.0 0
341000.0 471822.0 0
337691.0 475472.0 0
343290.0 474846.0 0
350666.0 472068.0 0
347710.0 475323.0 0
352666.0 475947.0 0
361468.0 475020.0 0
357794.0 475554.0 0
365142.0 474783.0 0
372888.0 474489.0 0
378827.0 474263.0 0
382065.0 475229.0 0
388270.0 475000.0 0
393472.0 475253.0 0
398049.0 475737.0 0
402972.0 474421.0 0
408211.0 472980.0 0
412567.0 474892.0 0
417163.0 475714.0 0
421280.0 473077.0 0
425838.0 474582.0 0
430575.0 473260.0 0
433901.0 476215.0 0
437093.0 473419.0 0
444993.0 474104.0 0
441180.0 474951.0 0
452246.0 473371.0 0
456673.0 476554.0 0
29871.0 483324.0 0
33572.6 482028.0 0
37913.9 479666.0 0
43070.1 479327.0 0
49167.9 480513.0 0
57832.6 477703.0 0
54891.9 481587.0 0
60635.1 481250.0 0
65765.7 480162.0 0
71128.2 480418.0 0
76964.4 480441.0 0
83042.4 479809.0 0
87957.5 480418.0 0
93267.8 481070.0 0
98162.1 480054.0 0
108097.0 479693.0 0
112500.0 480986.0 0
116779.0 480826.0 0
120879.0 480619.0 0
125930.0 479909.0 0
141027.0 479588.0 0
146341.0 480693.0 0
156283.0 479204.0 0
161737.0 481162.0 0
170037.0 479591.0 0
176332.0 480425.0 0
182219.0 478651.0 0
188085.0 480889.0 0
194293.0 480556.0 0
200006.0 480040.0 0
204283.0 481067.0 0
208098.0 480651.0 0
213291.0 479434.0 0
217709.0 481098.0 0
222585.0 480288.0 0
226897.0 479688.0 0
232475.0 481120.0 0
237738.0 476463.0 0
237490.0 480889.0 0
243336.0 476387.0 0
246905.0 480145.0 0
252635.0 476485.0 0
251856.0 481395.0 0
257675.0 479807.0 0
262661.0 480417.0 0
267426.0 479770.0 0
272982.0 479911.0 0
279893.0 479007.0 0
283581.0 481272.0 0
287243.0 481349.0 0
291064.0 480295.0 0
296777.0 479878.0 0
302265.0 481062.0 0
307722.0 480407.0 0
318218.0 480631.0 0
322507.0 479530.0 0
326815.0 481389.0 0
336487.0 480135.0 0
331858.0 481207.0 0
341376.0 479040.0 0
346790.0 479706.0 0
351850.0 480788.0 0
355991.0 479390.0 0
361205.0 479718.0 0
366456.0 478884.0 0
371039.0 480710.0 0
377570.0 480160.0 0
384158.0 478729.0 0
391929.0 479955.0 0
396690.0 479991.0 0
402273.0 480609.0 0
408390.0 478656.0 0
422505.0 478187.0 0
418279.0 481057.0 0
428688.0 478990.0 0
433396.0 480271.0 0
437873.0 478601.0 0
443416.0 479603.0 0
448451.0 477297.0 0
452797.0 478987.0 0
461051.0 478437.0 0
458573.0 481090.0 0
463155.0 482540.0 0
468092.0 483095.0 0
23848.7 488514.0 0
27184.4 485332.0 0
32027.1 487064.0 0
36933.2 484352.0 0
41658.1 485957.0 0
45470.0 482863.0 0
47248.4 485864.0 0
51304.1 484586.0 0
54322.8 486482.0 0
57841.6 484900.0 0
61709.2 486201.0 0
65684.0 484662.0 0
70013.0 485777.0 0
74200.1 484545.0 0
80650.0 482687.0 0
78386.3 485749.0 0
83332.7 485518.0 0
88410.2 485550.0 0
98330.8 485389.0 0
103106.0 481435.0 0
107949.0 485182.0 0
113297.0 485321.0 0
118316.0 485288.0 0
123581.0 484554.0 0
127500.0 486144.0 0
131185.0 481717.0 0
136470.0 481617.0 0
137768.0 485528.0 0
142521.0 485712.0 0
151863.0 482307.0 0
148019.0 485305.0 0
156826.0 484659.0 0
160425.0 485964.0 0
166548.0 483009.0 0
170844.0 485619.0 0
182234.0 484127.0 0
186636.0 486513.0 0
191651.0 486030.0 0
197212.0 485310.0 0
203035.0 485206.0 0
214371.0 485096.0 0
218761.0 486249.0 0
222160.0 484557.0 0
227638.0 485218.0 0
234192.0 485568.0 0
237710.0 484235.0 0
241828.0 481530.0 0
241914.0 486123.0 0
246396.0 485339.0 0
255911.0 484560.0 0
260373.0 484210.0 0
266400.0 484475.0 0
271789.0 486193.0 0
278354.0 484503.0 0
284347.0 486028.0 0
288756.0 484545.0 0
292979.0 486261.0 0
298936.0 486194.0 0
303975.0 486364.0 0
307500.0 486188.0 0
313222.0 481540.0 0
312182.0 486005.0 0
316222.0 485353.0 0
321046.0 484908.0 0
325852.0 486387.0 0
329900.0 485032.0 0
339778.0 484442.0 0
346060.0 485962.0 0
352804.0 486358.0 0
357330.0 483341.0 0
361646.0 485738.0 0
366536.0 483574.0 0
371800.0 486329.0 0
382597.0 484237.0 0
387019.0 486173.0 0
388028.0 482028.0 0
399021.0 485759.0 0
407214.0 483972.0 0
403816.0 485871.0 0
411403.0 485774.0 0
413386.0 481324.0 0
415907.0 485083.0 0
424885.0 482163.0 0
423955.0 486139.0 0
429199.0 485215.0 0
434373.0 484184.0 0
439288.0 483337.0 0
443201.0 484456.0 0
447849.0 483394.0 0
452009.0 482607.0 0
455615.0 482289.0 0
453878.0 486460.0 0
458674.0 484728.0 0
458348.0 487948.0 0
461749.0 487230.0 0
466459.0 487051.0 0
472222.0 486549.0 0
477024.0 488382.0 0
16294.0 492586.0 0
19712.4 490148.0 0
25514.0 492487.0 0
28017.0 489028.0 0
29507.5 492362.0 0
36691.0 488358.0 0
33814.7 491981.0 0
39147.8 491919.0 0
44987.9 490359.0 0
50482.7 489894.0 0
57582.7 489297.0 0
61924.0 490630.0 0
66362.9 489378.0 0
71093.9 491206.0 0
75018.4 488807.0 0
79459.2 490872.0 0
84685.9 490429.0 0
89459.6 490326.0 0
93106.3 486896.0 0
93476.4 491229.0 0
97545.8 490747.0 0
101483.0 491105.0 0
103163.0 487171.0 0
106107.0 490868.0 0
111485.0 489899.0 0
116797.0 490539.0 0
122223.0 489723.0 0
127017.0 490368.0 0
131311.0 490952.0 0
132707.0 486547.0 0
136652.0 490089.0 0
142278.0 491406.0 0
147067.0 489589.0 0
151834.0 491564.0 0
153381.0 486979.0 0
157960.0 490524.0 0
164439.0 486703.0 0
167079.0 489553.0 0
163705.0 491191.0 0
171006.0 491618.0 0
177036.0 486990.0 0
182901.0 490974.0 0
193657.0 490132.0 0
189165.0 490924.0 0
198226.0 491188.0 0
203156.0 490305.0 0
208743.0 486980.0 0
212129.0 491210.0 0
216359.0 489699.0 0
221217.0 489893.0 0
232008.0 490147.0 0
237937.0 488964.0 0
242872.0 490708.0 0
248070.0 490460.0 0
251555.0 486658.0 0
252918.0 490703.0 0
257749.0 489742.0 0
262651.0 487797.0 0
267636.0 490371.0 0
278478.0 491176.0 0
283568.0 490613.0 0
288832.0 489863.0 0
293485.0 490840.0 0
302639.0 490669.0 0
307186.0 491027.0 0
312011.0 490736.0 0
317066.0 489764.0 0
322390.0 490469.0 0
331055.0 490572.0 0
327254.0 491225.0 0
334383.0 486972.0 0
341408.0 489898.0 0
337050.0 490931.0 0
357827.0 489882.0 0
367013.0 488477.0 0
362895.0 490721.0 0
377722.0 487666.0 0
383058.0 490352.0 0
392633.0 486845.0 0
387914.0 490276.0 0
402428.0 489803.0 0
407350.0 488954.0 0
412995.0 489635.0 0
416029.0 491207.0 0
419688.0 487461.0 0
423958.0 489799.0 0
427577.0 490383.0 0
432638.0 490338.0 0
437347.0 487612.0 0
442914.0 489621.0 0
449060.0 488946.0 0
455656.0 491074.0 0
460491.0 491799.0 0
464462.0 490167.0 0
469477.0 490996.0 0
474901.0 492625.0 0
480863.0 491680.0 0
5509.97 499087.0 0
9108.49 496860.0 0
12507.6 494828.0 0
16225.7 497414.0 0
20866.3 494143.0 0
25585.3 497109.0 0
31109.3 496405.0 0
35754.7 496041.0 0
39209.5 496716.0 0
43088.9 495038.0 0
47554.0 493833.0 0
50491.1 496463.0 0
54492.0 493748.0 0
59209.1 493759.0 0
64234.9 495286.0 0
70843.3 495153.0 0
73993.6 494360.0 0
77900.0 495854.0 0
83329.1 496257.0 0
89018.2 495352.0 0
93607.3 495764.0 0
102151.0 495751.0 0
97717.7 495292.0 0
106967.0 496192.0 0
111440.0 494725.0 0
115700.0 495287.0 0
121137.0 495755.0 0
127646.0 495614.0 0
133460.0 495370.0 0
138844.0 495874.0 0
143836.0 496003.0 0
148462.0 495663.0 0
152854.0 496125.0 0
157050.0 496224.0 0
161443.0 495007.0 0
166777.0 494888.0 0
176735.0 493271.0 0
186810.0 495901.0 0
192351.0 495442.0 0
202579.0 494823.0 0
207343.0 492352.0 0
210636.0 495783.0 0
216359.0 495544.0 0
222658.0 495635.0 0
226320.0 491781.0 0
236135.0 493968.0 0
241031.0 496406.0 0
250992.0 494883.0 0
256830.0 495947.0 0
262879.0 493369.0 0
268296.0 495762.0 0
272716.0 492069.0 0
282093.0 494546.0 0
287106.0 495945.0 0
293024.0 495234.0 0
297498.0 492229.0 0
301883.0 494591.0 0
306215.0 496418.0 0
311466.0 496428.0 0
316934.0 494884.0 0
322390.0 496379.0 0
328033.0 495848.0 0
333919.0 494854.0 0
346795.0 491843.0 0
342316.0 495843.0 0
351711.0 492043.0 0
348075.0 496585.0 0
355649.0 494219.0 0
352375.0 496330.0 0
360533.0 495496.0 0
366499.0 495539.0 0
370126.0 491854.0 0
374471.0 491928.0 0
378477.0 495232.0 0
382985.0 494484.0 0
386813.0 494685.0 0
391734.0 493160.0 0
397383.0 491787.0 0
399512.0 496087.0 0
404302.0 495158.0 0
410544.0 493869.0 0
416031.0 495843.0 0
420106.0 492330.0 0
424807.0 494310.0 0
429743.0 494868.0 0
434102.0 496636.0 0
437818.0 493129.0 0
446866.0 493446.0 0
442742.0 495910.0 0
451626.0 494027.0 0
456746.0 496103.0 0
461117.0 496351.0 0
465885.0 494845.0 0
471445.0 496218.0 0
476112.0 497980.0 0
480357.0 496171.0 0
485862.0 495099.0 0
483482.0 498645.0 0
491219.0 498244.0 0
2416.12 500007.0 0
2744.92 503250.0 0
10281.4 500894.0 0
14640.1 501199.0 0
20873.3 498635.0 0
18447.4 502419.0 0
23519.5 502190.0 0
28952.4 501165.0 0
34245.1 500426.0 0
41136.1 500521.0 0
46365.4 498510.0 0
49721.6 501387.0 0
54271.5 499493.0 0
59362.6 498166.0 0
65337.5 500379.0 0
68541.8 497628.0 0
68758.5 501063.0 0
73410.4 499636.0 0
79501.1 501068.0 0
89008.0 500357.0 0
93844.3 500365.0 0
98683.8 499763.0 0
106257.0 500602.0 0
102538.0 501718.0 0
111214.0 500187.0 0
117052.0 500029.0 0
126515.0 500725.0 0
122697.0 501356.0 0
131459.0 500113.0 0
139909.0 501405.0 0
145230.0 500582.0 0
150945.0 500689.0 0
156947.0 501579.0 0
162080.0 499657.0 0
167208.0 499981.0 0
172273.0 497380.0 0
177014.0 497598.0 0
176203.0 501337.0 0
181298.0 497640.0 0
185803.0 501198.0 0
191582.0 501328.0 0
197795.0 496892.0 0
202619.0 500231.0 0
206591.0 496949.0 0
207586.0 500964.0 0
212122.0 500169.0 0
223337.0 501600.0 0
228326.0 497317.0 0
233996.0 498447.0 0
243823.0 501530.0 0
246494.0 496930.0 0
248858.0 501139.0 0
252268.0 499226.0 0
262556.0 500578.0 0
268733.0 500731.0 0
272898.0 496951.0 0
273473.0 501483.0 0
277855.0 497151.0 0
282786.0 499926.0 0
293172.0 500567.0 0
297877.0 497503.0 0
302608.0 500399.0 0
308385.0 501351.0 0
313173.0 501018.0 0
317443.0 500536.0 0
326008.0 500244.0 0
330201.0 500921.0 0
335253.0 501489.0 0
337682.0 498109.0 0
351148.0 500776.0 0
356056.0 498815.0 0
360825.0 501364.0 0
366417.0 501270.0 0
371077.0 501840.0 0
372477.0 496862.0 0
383336.0 498910.0 0
390211.0 497784.0 0
395262.0 497564.0 0
403279.0 501253.0 0
408770.0 499707.0 0
413660.0 500116.0 0
416948.0 499871.0 0
420806.0 497155.0 0
419810.0 501305.0 0
425428.0 500705.0 0
430723.0 499209.0 0
434578.0 501507.0 0
438594.0 498588.0 0
447679.0 498357.0 0
452612.0 499035.0 0
456397.0 500290.0 0
459968.0 499998.0 0
464298.0 500171.0 0
472677.0 500671.0 0
468660.0 499281.0 0
476845.0 502694.0 0
480261.0 500292.0 0
487030.0 499953.0 0
484273.0 501614.0 0
492482.0 503309.0 0
496608.0 499994.0 0
3047.69 508368.0 0
7547.55 505444.0 0
13916.5 505581.0 0
20680.9 506900.0 0
26541.6 505878.0 0
31981.6 505203.0 0
37284.9 504339.0 0
42020.4 505572.0 0
45465.6 502946.0 0
48606.5 506608.0 0
52518.4 503772.0 0
56547.7 503949.0 0
53837.7 507727.0 0
61206.1 502796.0 0
65542.9 506256.0 0
70240.7 504267.0 0
81159.8 506541.0 0
84771.5 502418.0 0
91018.3 504878.0 0
99217.4 503999.0 0
105896.0 505091.0 0
111566.0 506519.0 0
118401.0 505621.0 0
123994.0 505844.0 0
128505.0 504082.0 0
135427.0 501994.0 0
133329.0 506249.0 0
137833.0 505284.0 0
141905.0 506253.0 0
147417.0 505900.0 0
152986.0 505930.0 0
161843.0 505200.0 0
167185.0 504944.0 0
171473.0 502675.0 0
170784.0 506678.0 0
176942.0 506321.0 0
180992.0 503245.0 0
186951.0 506208.0 0
191593.0 506628.0 0
197334.0 502425.0 0
201754.0 505808.0 0
207285.0 505942.0 0
213124.0 505797.0 0
217208.0 501924.0 0
228958.0 503318.0 0
224955.0 506902.0 0
233383.0 502906.0 0
232593.0 506650.0 0
238431.0 502107.0 0
242035.0 505670.0 0
246496.0 505537.0 0
251450.0 505016.0 0
255527.0 502025.0 0
262737.0 506637.0 0
268236.0 506346.0 0
274039.0 506426.0 0
278380.0 502539.0 0
284607.0 506079.0 0
287942.0 501956.0 0
289601.0 506914.0 0
293265.0 505162.0 0
297705.0 502740.0 0
302393.0 506304.0 0
307427.0 506690.0 0
311960.0 505161.0 0
316696.0 505119.0 0
322163.0 501934.0 0
326349.0 505578.0 0
331658.0 505969.0 0
340511.0 501862.0 0
337259.0 507003.0 0
346070.0 502769.0 0
351225.0 505949.0 0
356353.0 504304.0 0
367004.0 506124.0 0
371650.0 506323.0 0
377130.0 502501.0 0
382168.0 506292.0 0
387331.0 502345.0 0
392188.0 502168.0 0
391267.0 506714.0 0
397750.0 503056.0 0
405155.0 506796.0 0
410848.0 505241.0 0
416167.0 503918.0 0
421418.0 506311.0 0
426884.0 507445.0 0
430464.0 504298.0 0
435275.0 507110.0 0
438983.0 503338.0 0
444361.0 502963.0 0
449655.0 503727.0 0
452735.0 507505.0 0
454052.0 503345.0 0
458165.0 503496.0 0
462697.0 504804.0 0
468253.0 503853.0 0
473246.0 504856.0 0
470871.0 508466.0 0
477090.0 507435.0 0
481740.0 504891.0 0
487538.0 504069.0 0
485813.0 508260.0 0
493674.0 507847.0 0
497481.0 504665.0 0
2099.18 512673.0 0
10467.5 510041.0 0
16241.2 510619.0 0
20927.3 511528.0 0
24393.5 509622.0 0
29431.1 510398.0 0
34927.1 508008.0 0
34034.8 511087.0 0
39024.9 509995.0 0
44344.8 509270.0 0
54792.2 512204.0 0
59557.4 508578.0 0
63958.9 512491.0 0
69389.4 510945.0 0
74977.9 507194.0 0
79104.8 510989.0 0
86377.3 507257.0 0
83737.7 511744.0 0
89562.7 512049.0 0
95819.0 506873.0 0
94664.3 511352.0 0
101506.0 507647.0 0
98333.6 510408.0 0
101620.0 512096.0 0
106006.0 510540.0 0
110503.0 511858.0 0
115759.0 511489.0 0
121840.0 510671.0 0
128189.0 510231.0 0
137527.0 509341.0 0
133723.0 511069.0 0
142054.0 511508.0 0
157284.0 507419.0 0
153568.0 510739.0 0
158015.0 511598.0 0
163124.0 511031.0 0
173369.0 509892.0 0
168454.0 510187.0 0
177733.0 510776.0 0
182394.0 508043.0 0
186432.0 511465.0 0
191544.0 511136.0 0
196410.0 507879.0 0
201142.0 511388.0 0
207162.0 512002.0 0
212135.0 510705.0 0
216850.0 511857.0 0
219847.0 507056.0 0
228690.0 507414.0 0
226095.0 511432.0 0
231041.0 510770.0 0
237039.0 507362.0 0
235893.0 511987.0 0
241304.0 510592.0 0
246745.0 510463.0 0
252438.0 510510.0 0
257771.0 507278.0 0
269687.0 511987.0 0
274658.0 511379.0 0
279351.0 508048.0 0
283908.0 510516.0 0
288483.0 511926.0 0
292544.0 510342.0 0
296707.0 507702.0 0
303495.0 511317.0 0
307626.0 511194.0 0
312094.0 510394.0 0
321234.0 507034.0 0
317346.0 509989.0 0
323356.0 511968.0 0
328021.0 510209.0 0
332745.0 511055.0 0
342904.0 507227.0 0
346802.0 507347.0 0
342038.0 511153.0 0
345608.0 511099.0 0
349609.0 510153.0 0
355407.0 510499.0 0
361753.0 507448.0 0
366606.0 510848.0 0
373527.0 511411.0 0
378397.0 509063.0 0
386759.0 507072.0 0
387827.0 511450.0 0
392299.0 511068.0 0
395299.0 507575.0 0
396791.0 511465.0 0
399882.0 508141.0 0
407347.0 511532.0 0
411736.0 510487.0 0
416293.0 509017.0 0
420027.0 511139.0 0
424274.0 511413.0 0
431084.0 510856.0 0
441152.0 507963.0 0
447317.0 508546.0 0
451451.0 511185.0 0
458251.0 508468.0 0
462645.0 509673.0 0
466208.0 508409.0 0
470059.0 512909.0 0
474511.0 511476.0 0
481053.0 508875.0 0
479000.0 511669.0 0
483237.0 511531.0 0
488479.0 511522.0 0
489711.0 507472.0 0
492761.0 512292.0 0
497791.0 509156.0 0
2232.13 516500.0 0
6690.8 513954.0 0
12718.7 515691.0 0
18443.7 515020.0 0
24794.1 514116.0 0
30339.5 516118.0 0
35840.2 514778.0 0
43031.5 513402.0 0
45105.6 517618.0 0
48759.1 512765.0 0
54487.1 516548.0 0
59194.7 514550.0 0
63413.5 517394.0 0
67619.6 516028.0 0
74791.4 513951.0 0
80148.8 516458.0 0
85259.5 516370.0 0
89263.8 517053.0 0
92954.8 516039.0 0
97656.1 514752.0 0
102560.0 516543.0 0
107385.0 515299.0 0
112031.0 516032.0 0
118099.0 517021.0 0
123339.0 515922.0 0
127848.0 515616.0 0
132898.0 516129.0 0
138596.0 515458.0 0
143217.0 516308.0 0
148138.0 512483.0 0
151861.0 516298.0 0
156549.0 516412.0 0
161570.0 515985.0 0
166891.0 515049.0 0
173220.0 516091.0 0
178576.0 516293.0 0
181574.0 512589.0 0
183697.0 517133.0 0
189471.0 516286.0 0
195889.0 513597.0 0
199715.0 516324.0 0
203844.0 516921.0 0
208269.0 517161.0 0
212725.0 515331.0 0
219036.0 516629.0 0
221628.0 512598.0 0
223293.0 516061.0 0
227639.0 516157.0 0
232481.0 515661.0 0
237995.0 516320.0 0
242514.0 517020.0 0
246907.0 515288.0 0
252101.0 516755.0 0
257587.0 512479.0 0
257445.0 516776.0 0
263802.0 512109.0 0
267726.0 516207.0 0
271790.0 515748.0 0
279860.0 513395.0 0
276124.0 516203.0 0
284187.0 514921.0 0
293448.0 514895.0 0
298567.0 512554.0 0
302506.0 516050.0 0
306806.0 515132.0 0
311859.0 516065.0 0
316996.0 514859.0 0
324980.0 515801.0 0
321451.0 516845.0 0
328822.0 514899.0 0
334307.0 516641.0 0
337396.0 512311.0 0
339724.0 516127.0 0
344344.0 515318.0 0
350295.0 515791.0 0
360714.0 512620.0 0
369475.0 515654.0 0
374951.0 516733.0 0
378245.0 513539.0 0
382926.0 512112.0 0
388142.0 515891.0 0
393152.0 516063.0 0
397842.0 515550.0 0
401825.0 516655.0 0
402693.0 512245.0 0
406307.0 516232.0 0
412332.0 516344.0 0
417967.0 514727.0 0
422830.0 516511.0 0
427905.0 514820.0 0
433037.0 517157.0 0
437563.0 512800.0 0
443436.0 512844.0 0
448832.0 515085.0 0
455268.0 512940.0 0
453747.0 517201.0 0
457409.0 516473.0 0
460122.0 513721.0 0
465175.0 513190.0 0
472654.0 516248.0 0
477070.0 515588.0 0
481662.0 515237.0 0
485804.0 514392.0 0
489985.0 516774.0 0
497425.0 513645.0 0
2112.22 520308.0 0
7176.07 519288.0 0
9984.58 522860.0 0
13686.6 520944.0 0
16622.6 518477.0 0
17999.5 521937.0 0
20988.6 518564.0 0
25705.3 518927.0 0
34303.8 519363.0 0
33113.6 522310.0 0
39593.7 518982.0 0
43843.9 522560.0 0
50163.7 518600.0 0
54115.2 522038.0 0
57896.3 519100.0 0
63653.8 521788.0 0
67827.0 520502.0 0
71970.2 518465.0 0
76332.8 521441.0 0
83097.7 520208.0 0
87085.9 520273.0 0
91843.6 521308.0 0
97074.2 519881.0 0
101602.0 521232.0 0
106671.0 520455.0 0
112593.0 521529.0 0
123367.0 521158.0 0
128511.0 520109.0 0
133277.0 521604.0 0
138742.0 521180.0 0
147961.0 518452.0 0
143914.0 520354.0 0
152574.0 520767.0 0
157817.0 520945.0 0
162817.0 520122.0 0
168092.0 520481.0 0
172548.0 521875.0 0
177256.0 521477.0 0
182433.0 522044.0 0
187117.0 521178.0 0
192287.0 521433.0 0
193920.0 517417.0 0
197949.0 521056.0 0
202920.0 520913.0 0
207328.0 521881.0 0
212084.0 520284.0 0
217230.0 521712.0 0
222472.0 520388.0 0
227468.0 521647.0 0
232530.0 520365.0 0
237183.0 520598.0 0
241436.0 521448.0 0
246166.0 520281.0 0
250447.0 521721.0 0
254628.0 521269.0 0
258892.0 521945.0 0
262266.0 518291.0 0
267365.0 521533.0 0
272475.0 519647.0 0
277130.0 521487.0 0
283064.0 520297.0 0
288451.0 517235.0 0
288053.0 521784.0 0
292571.0 520472.0 0
298711.0 517322.0 0
297175.0 521234.0 0
301888.0 521036.0 0
306777.0 519856.0 0
316105.0 519732.0 0
311417.0 521448.0 0
320433.0 521236.0 0
326158.0 520592.0 0
338272.0 521650.0 0
343360.0 520218.0 0
348101.0 521174.0 0
356871.0 517388.0 0
353254.0 521773.0 0
363371.0 517228.0 0
367653.0 521270.0 0
372379.0 520825.0 0
377391.0 522121.0 0
379732.0 517481.0 0
382136.0 520547.0 0
383956.0 517367.0 0
386906.0 520385.0 0
391471.0 520606.0 0
396082.0 520092.0 0
401149.0 521460.0 0
406300.0 521073.0 0
417506.0 520113.0 0
427435.0 521028.0 0
434913.0 522429.0 0
439078.0 518874.0 0
444188.0 517649.0 0
447662.0 519888.0 0
444030.0 522554.0 0
452030.0 522067.0 0
456960.0 520149.0 0
460227.0 517800.0 0
461115.0 521841.0 0
464383.0 518187.0 0
466007.0 522767.0 0
469220.0 519056.0 0
475354.0 520446.0 0
479542.0 522876.0 0
480010.0 519011.0 0
484761.0 519052.0 0
493724.0 519949.0 0
489817.0 521990.0 0
497813.0 518096.0 0
497282.0 522737.0 0
4649.55 524187.0 0
8962.44 527177.0 0
13424.1 525437.0 0
18708.6 527317.0 0
22803.4 523042.0 0
28929.3 523374.0 0
34506.5 525907.0 0
39386.6 524321.0 0
48999.9 523846.0 0
52866.8 526565.0 0
59846.8 522529.0 0
57203.7 526019.0 0
62325.8 526408.0 0
68014.6 526014.0 0
71663.3 522605.0 0
73685.0 526836.0 0
81024.0 524134.0 0
86826.3 525853.0 0
92989.4 526915.0 0
98513.0 525331.0 0
103791.0 525284.0 0
108685.0 525840.0 0
113817.0 526906.0 0
118243.0 522400.0 0
123688.0 526179.0 0
128538.0 525272.0 0
133180.0 526113.0 0
137669.0 526553.0 0
146862.0 522705.0 0
143141.0 524481.0 0
146704.0 526745.0 0
150629.0 524732.0 0
155598.0 524814.0 0
161142.0 525006.0 0
167220.0 526541.0 0
172993.0 526152.0 0
178145.0 526963.0 0
183542.0 526829.0 0
189278.0 525904.0 0
194210.0 525949.0 0
203769.0 525077.0 0
199080.0 526659.0 0
208251.0 526930.0 0
213102.0 525497.0 0
217811.0 527015.0 0
222500.0 526105.0 0
227500.0 526224.0 0
231925.0 524592.0 0
235923.0 524806.0 0
241040.0 525826.0 0
246252.0 526094.0 0
252692.0 526502.0 0
257732.0 525627.0 0
262607.0 524953.0 0
268543.0 526264.0 0
272370.0 524296.0 0
276534.0 526510.0 0
282751.0 526092.0 0
287760.0 526182.0 0
293262.0 525924.0 0
297940.0 525078.0 0
302037.0 527202.0 0
306662.0 524722.0 0
311455.0 526668.0 0
317247.0 525553.0 0
322959.0 525797.0 0
326783.0 525580.0 0
331495.0 527061.0 0
332578.0 522641.0 0
340722.0 526385.0 0
345170.0 524631.0 0
349879.0 525768.0 0
358617.0 522848.0 0
363216.0 522701.0 0
367117.0 526573.0 0
372511.0 525723.0 0
382776.0 525229.0 0
388898.0 525212.0 0
397057.0 525098.0 0
393253.0 527391.0 0
402171.0 527028.0 0
407334.0 525742.0 0
411730.0 522677.0 0
416723.0 525832.0 0
421675.0 523485.0 0
425527.0 527065.0 0
431344.0 526360.0 0
437070.0 527265.0 0
439693.0 523625.0 0
442353.0 527366.0 0
447908.0 523124.0 0
447294.0 526496.0 0
452264.0 527707.0 0
457055.0 525161.0 0
462197.0 526624.0 0
467202.0 527505.0 0
471098.0 523847.0 0
476101.0 526209.0 0
480203.0 526201.0 0
483671.0 523713.0 0
483009.0 527632.0 0
487933.0 526978.0 0
493180.0 525509.0 0
497793.0 527305.0 0
2822.89 529293.0 0
7351.84 531601.0 0
11742.1 530294.0 0
14475.6 528905.0 0
24999.7 528229.0 0
30302.8 528319.0 0
28656.4 532499.0 0
33088.6 530141.0 0
39021.4 529959.0 0
44971.2 527904.0 0
49766.6 529002.0 0
48227.4 532639.0 0
53746.8 531449.0 0
59048.1 530740.0 0
64996.3 531904.0 0
71708.6 530261.0 0
75348.4 532296.0 0
78437.1 528089.0 0
81301.2 532258.0 0
87260.1 532471.0 0
92158.3 531493.0 0
96851.4 531017.0 0
102020.0 529625.0 0
107509.0 531895.0 0
113421.0 531886.0 0
118854.0 527668.0 0
123401.0 531227.0 0
128588.0 530432.0 0
133538.0 530644.0 0
141719.0 529040.0 0
137944.0 532147.0 0
145553.0 531585.0 0
150807.0 530437.0 0
156873.0 530018.0 0
162729.0 530941.0 0
170965.0 530979.0 0
179563.0 531683.0 0
183062.0 530774.0 0
187111.0 530900.0 0
192482.0 530497.0 0
197811.0 532298.0 0
202824.0 530191.0 0
206850.0 532269.0 0
211040.0 530960.0 0
215687.0 531372.0 0
221112.0 531464.0 0
227056.0 531583.0 0
231705.0 528776.0 0
237722.0 530652.0 0
243982.0 531349.0 0
249030.0 531067.0 0
257371.0 528967.0 0
260305.0 531011.0 0
265475.0 530099.0 0
272347.0 530598.0 0
279439.0 531208.0 0
285539.0 530336.0 0
290211.0 530035.0 0
297204.0 530306.0 0
302156.0 532278.0 0
306733.0 530076.0 0
318352.0 531382.0 0
323499.0 530737.0 0
328194.0 529093.0 0
335579.0 527548.0 0
332448.0 531581.0 0
337143.0 532084.0 0
341058.0 530950.0 0
345794.0 529726.0 0
351222.0 531950.0 0
355459.0 527820.0 0
361537.0 527392.0 0
359170.0 532127.0 0
364361.0 531869.0 0
368945.0 531216.0 0
377528.0 527839.0 0
373328.0 530578.0 0
381306.0 531042.0 0
386893.0 531326.0 0
393243.0 532224.0 0
398373.0 530584.0 0
402709.0 531936.0 0
407562.0 531064.0 0
411770.0 527944.0 0
415485.0 531836.0 0
421040.0 528223.0 0
424449.0 531194.0 0
428791.0 531355.0 0
433905.0 531383.0 0
438588.0 532246.0 0
443386.0 531434.0 0
448235.0 531658.0 0
453513.0 532424.0 0
458599.0 530869.0 0
463876.0 531024.0 0
468515.0 532414.0 0
471814.0 528725.0 0
473861.0 532417.0 0
478131.0 530922.0 0
483418.0 531593.0 0
488012.0 532484.0 0
492621.0 530462.0 0
497564.0 531645.0 0
2511.4 534244.0 0
7069.44 536599.0 0
11826.9 534590.0 0
17016.8 533174.0 0
22751.0 533589.0 0
26664.0 537344.0 0
34336.6 535239.0 0
40115.1 534908.0 0
43864.9 533163.0 0
44654.2 537639.0 0
48850.5 536400.0 0
53153.8 536552.0 0
60115.8 535818.0 0
64253.4 536955.0 0
70090.6 532718.0 0
67996.4 536487.0 0
72022.8 535971.0 0
78414.3 535855.0 0
82621.4 537245.0 0
92127.9 536129.0 0
97123.8 536124.0 0
102251.0 535435.0 0
111092.0 536248.0 0
115803.0 537477.0 0
118456.0 532899.0 0
121070.0 537501.0 0
126549.0 535941.0 0
132415.0 535618.0 0
137095.0 536714.0 0
142213.0 535734.0 0
147654.0 535405.0 0
152516.0 536150.0 0
157386.0 535116.0 0
161959.0 536477.0 0
167174.0 535047.0 0
172444.0 536029.0 0
175326.0 532631.0 0
178184.0 536944.0 0
183509.0 534856.0 0
190259.0 535494.0 0
195227.0 536978.0 0
203246.0 535565.0 0
207892.0 536359.0 0
212387.0 535633.0 0
217623.0 536102.0 0
223428.0 536166.0 0
227754.0 536552.0 0
232807.0 535897.0 0
238417.0 536619.0 0
242505.0 535604.0 0
246829.0 535438.0 0
254308.0 532581.0 0
251628.0 537046.0 0
257617.0 536998.0 0
262618.0 535270.0 0
268083.0 535338.0 0
273454.0 537238.0 0
279446.0 537377.0 0
283842.0 534510.0 0
288902.0 535078.0 0
293358.0 533250.0 0
293700.0 537457.0 0
298714.0 536103.0 0
302707.0 535970.0 0
307511.0 535620.0 0
312350.0 532728.0 0
316438.0 536105.0 0
321339.0 536365.0 0
327633.0 534864.0 0
333441.0 536600.0 0
340774.0 535074.0 0
346486.0 536279.0 0
352466.0 536856.0 0
362709.0 535738.0 0
367626.0 536439.0 0
377230.0 532905.0 0
373219.0 535524.0 0
383050.0 536522.0 0
388868.0 537156.0 0
397513.0 535005.0 0
393872.0 537475.0 0
401897.0 536540.0 0
407437.0 536854.0 0
417741.0 535792.0 0
413212.0 537121.0 0
420773.0 532946.0 0
420735.0 537088.0 0
425764.0 536548.0 0
431745.0 535922.0 0
436455.0 536012.0 0
442288.0 536164.0 0
452727.0 536395.0 0
457699.0 537438.0 0
462890.0 535352.0 0
467222.0 537520.0 0
471461.0 535699.0 0
476078.0 536802.0 0
480405.0 534636.0 0
484690.0 536225.0 0
489600.0 537071.0 0
494823.0 536040.0 0
2469.51 538961.0 0
8269.15 541507.0 0
10966.3 538631.0 0
12746.5 541913.0 0
15262.1 538128.0 0
17443.7 542544.0 0
20599.2 538541.0 0
26163.1 542075.0 0
30768.7 540517.0 0
40100.9 539100.0 0
35652.8 541039.0 0
43780.9 541646.0 0
48079.8 540449.0 0
52062.2 540606.0 0
57019.1 540725.0 0
62724.2 540844.0 0
67307.7 541128.0 0
72642.0 541175.0 0
78089.0 539916.0 0
82416.3 541650.0 0
86204.0 542035.0 0
87311.2 538043.0 0
90282.0 541390.0 0
95335.8 541135.0 0
101234.0 541094.0 0
106969.0 537767.0 0
111894.0 541063.0 0
118250.0 542168.0 0
123197.0 541947.0 0
127555.0 541068.0 0
132143.0 540949.0 0
137163.0 541308.0 0
141639.0 542582.0 0
146193.0 540334.0 0
151364.0 542624.0 0
156072.0 540056.0 0
169346.0 541383.0 0
181660.0 541724.0 0
186221.0 539216.0 0
191051.0 540750.0 0
195793.0 541629.0 0
199594.0 537596.0 0
204855.0 540085.0 0
208572.0 541952.0 0
211997.0 540287.0 0
216869.0 541482.0 0
222049.0 540684.0 0
227048.0 541095.0 0
232266.0 540175.0 0
236387.0 541420.0 0
241795.0 540118.0 0
247105.0 540538.0 0
251763.0 541294.0 0
256424.0 542175.0 0
261668.0 540623.0 0
266436.0 539824.0 0
270608.0 542154.0 0
276586.0 542118.0 0
284867.0 539591.0 0
290087.0 539903.0 0
293719.0 542048.0 0
297371.0 540543.0 0
302469.0 539121.0 0
307383.0 539549.0 0
310324.0 541829.0 0
312990.0 538519.0 0
316969.0 540597.0 0
326230.0 540224.0 0
321632.0 542336.0 0
331782.0 541596.0 0
336626.0 541899.0 0
337783.0 537889.0 0
341689.0 540783.0 0
346533.0 541952.0 0
350433.0 540813.0 0
354514.0 541857.0 0
358059.0 537722.0 0
363425.0 541004.0 0
368517.0 541665.0 0
372589.0 540200.0 0
377690.0 537623.0 0
381246.0 541075.0 0
385743.0 541586.0 0
391572.0 542213.0 0
397926.0 540898.0 0
403524.0 541418.0 0
408234.0 541936.0 0
412642.0 542201.0 0
417247.0 540674.0 0
422141.0 540872.0 0
432842.0 541782.0 0
438434.0 540161.0 0
443385.0 541742.0 0
448169.0 538346.0 0
453169.0 540857.0 0
462683.0 541280.0 0
467620.0 542218.0 0
471649.0 540005.0 0
475735.0 541605.0 0
480825.0 540562.0 0
486559.0 541033.0 0
491857.0 542253.0 0
497277.0 541050.0 0
3724.5 543709.0 0
8216.59 546478.0 0
14519.2 546352.0 0
19963.6 547147.0 0
22038.7 542910.0 0
25352.8 546881.0 0
32561.3 547210.0 0
39402.8 544405.0 0
47380.6 545626.0 0
52813.7 544792.0 0
57919.6 546944.0 0
63889.9 546171.0 0
69687.7 546503.0 0
74790.9 546889.0 0
78941.1 544641.0 0
82845.3 546214.0 0
87467.9 546418.0 0
93104.5 546512.0 0
98837.5 546399.0 0
106666.0 542789.0 0
103885.0 546890.0 0
107201.0 546814.0 0
111601.0 546892.0 0
120292.0 546899.0 0
124092.0 546276.0 0
128382.0 545681.0 0
132846.0 545275.0 0
136835.0 545998.0 0
141043.0 546766.0 0
146479.0 546267.0 0
156596.0 546068.0 0
161884.0 542759.0 0
166671.0 547591.0 0
172431.0 546276.0 0
176036.0 542722.0 0
179282.0 546333.0 0
184168.0 546933.0 0
189317.0 545225.0 0
193648.0 546203.0 0
197499.0 546109.0 0
200500.0 543018.0 0
202962.0 546838.0 0
206651.0 544497.0 0
212428.0 545933.0 0
217169.0 545988.0 0
221320.0 545515.0 0
226089.0 546106.0 0
231311.0 544513.0 0
235936.0 546335.0 0
240666.0 545316.0 0
248658.0 545327.0 0
252831.0 545003.0 0
256251.0 547159.0 0
260216.0 545247.0 0
265537.0 545075.0 0
272766.0 545686.0 0
275522.0 546045.0 0
281974.0 545120.0 0
288350.0 544679.0 0
293516.0 546720.0 0
298821.0 544955.0 0
304692.0 543683.0 0
309351.0 545491.0 0
313950.0 543662.0 0
317802.0 545397.0 0
323302.0 547563.0 0
327670.0 544772.0 0
332500.0 546169.0 0
336738.0 546510.0 0
341867.0 546352.0 0
351667.0 545432.0 0
347071.0 546323.0 0
357530.0 545576.0 0
363204.0 547332.0 0
368486.0 545921.0 0
376871.0 542732.0 0
373367.0 547152.0 0
379093.0 547049.0 0
382639.0 545052.0 0
387182.0 547131.0 0
395853.0 545545.0 0
400693.0 546037.0 0
405874.0 545804.0 0
411089.0 547322.0 0
416792.0 546527.0 0
421945.0 545714.0 0
426834.0 543329.0 0
431029.0 547403.0 0
437783.0 545544.0 0
443559.0 547552.0 0
448199.0 544138.0 0
453287.0 546071.0 0
457713.0 543177.0 0
458467.0 547311.0 0
462440.0 546307.0 0
467397.0 547216.0 0
472113.0 544777.0 0
477729.0 546065.0 0
483798.0 545038.0 0
488017.0 545373.0 0
491520.0 547590.0 0
496255.0 546390.0 0
2739.64 548875.0 0
7192.01 551471.0 0
11662.6 549211.0 0
11338.6 552863.0 0
16161.3 551491.0 0
22489.8 551756.0 0
27130.9 551317.0 0
37941.3 552560.0 0
42646.7 548800.0 0
47282.6 550729.0 0
52228.2 550134.0 0
62721.8 551508.0 0
67646.6 551780.0 0
72727.0 551371.0 0
77873.3 550902.0 0
83357.0 550926.0 0
88692.7 551392.0 0
93535.1 551361.0 0
97480.0 551041.0 0
102519.0 552114.0 0
107432.0 550061.0 0
116344.0 549607.0 0
120415.0 552731.0 0
125864.0 550620.0 0
131731.0 550000.0 0
137350.0 550875.0 0
143272.0 551643.0 0
151923.0 547985.0 0
148388.0 550900.0 0
157515.0 551023.0 0
153129.0 552455.0 0
161081.0 548360.0 0
163439.0 550938.0 0
170961.0 549656.0 0
175985.0 550361.0 0
182175.0 552328.0 0
189121.0 550463.0 0
194236.0 551008.0 0
199457.0 550452.0 0
203692.0 552197.0 0
207494.0 549341.0 0
216260.0 551450.0 0
221763.0 549806.0 0
226519.0 551409.0 0
232468.0 550555.0 0
238455.0 550422.0 0
244948.0 549547.0 0
251561.0 550140.0 0
257023.0 551674.0 0
261875.0 549888.0 0
270064.0 549138.0 0
274233.0 551765.0 0
277865.0 549053.0 0
283141.0 551495.0 0
288679.0 549996.0 0
292966.0 552235.0 0
297049.0 549760.0 0
302825.0 550079.0 0
308631.0 550868.0 0
312879.0 548379.0 0
318323.0 550685.0 0
328661.0 549969.0 0
333898.0 551742.0 0
339389.0 551076.0 0
344712.0 550728.0 0
349757.0 550361.0 0
354261.0 549139.0 0
358647.0 551990.0 0
368201.0 550629.0 0
372397.0 551707.0 0
377045.0 551599.0 0
382517.0 550459.0 0
387497.0 551781.0 0
392396.0 548214.0 0
391862.0 552303.0 0
395963.0 551307.0 0
401046.0 551496.0 0
406480.0 550955.0 0
410912.0 552184.0 0
415149.0 551510.0 0
420772.0 551216.0 0
426020.0 548859.0 0
428488.0 552157.0 0
430970.0 551791.0 0
435574.0 551465.0 0
446334.0 551914.0 0
449112.0 548422.0 0
451012.0 552755.0 0
455884.0 550754.0 0
461279.0 551257.0 0
466548.0 552518.0 0
472916.0 549848.0 0
477904.0 551440.0 0
482079.0 549205.0 0
487264.0 550360.0 0
493329.0 551229.0 0
498093.0 550656.0 0
2120.26 553588.0 0
3378.65 558169.0 0
8474.57 556429.0 0
13146.9 556025.0 0
16594.7 556273.0 0
20616.1 556268.0 0
25530.7 557263.0 0
31439.3 555040.0 0
37168.8 557904.0 0
44029.9 553256.0 0
41605.0 556941.0 0
47415.4 557170.0 0
53044.8 556397.0 0
57399.9 553005.0 0
63588.9 556653.0 0
68280.5 556176.0 0
72463.8 556210.0 0
77199.5 556002.0 0
82044.3 556035.0 0
86322.7 555034.0 0
91306.8 555894.0 0
96818.9 555430.0 0
111827.0 553231.0 0
116479.0 555960.0 0
121225.0 557469.0 0
125960.0 556719.0 0
132167.0 556369.0 0
137912.0 556503.0 0
147716.0 555469.0 0
142950.0 557024.0 0
152775.0 557084.0 0
157666.0 556009.0 0
162875.0 555428.0 0
168245.0 552924.0 0
167618.0 557930.0 0
172668.0 555080.0 0
178413.0 555430.0 0
182698.0 557431.0 0
186705.0 554985.0 0
192379.0 555624.0 0
196974.0 556075.0 0
201482.0 555800.0 0
207135.0 555893.0 0
210952.0 553005.0 0
212749.0 556145.0 0
217683.0 557362.0 0
221906.0 554463.0 0
226946.0 556467.0 0
231696.0 556192.0 0
236604.0 555665.0 0
241358.0 554802.0 0
245917.0 554896.0 0
250543.0 556008.0 0
255273.0 555782.0 0
260823.0 556058.0 0
266252.0 553221.0 0
271191.0 555391.0 0
277971.0 555262.0 0
288221.0 555260.0 0
293236.0 557125.0 0
298221.0 554962.0 0
303271.0 555611.0 0
307988.0 555862.0 0
314132.0 555844.0 0
319048.0 555461.0 0
323993.0 553004.0 0
329488.0 555347.0 0
333668.0 556030.0 0
337221.0 555820.0 0
342526.0 556136.0 0
347863.0 555700.0 0
353140.0 554914.0 0
357924.0 557079.0 0
363885.0 552894.0 0
362614.0 557722.0 0
367847.0 556061.0 0
373598.0 556310.0 0
382631.0 555683.0 0
378372.0 556429.0 0
387500.0 556318.0 0
390959.0 556149.0 0
394296.0 555533.0 0
398123.0 555604.0 0
406067.0 557001.0 0
412349.0 556687.0 0
417971.0 556343.0 0
423098.0 556252.0 0
427947.0 556060.0 0
432804.0 556727.0 0
437694.0 556966.0 0
441707.0 553418.0 0
441692.0 558065.0 0
447074.0 556118.0 0
451762.0 557915.0 0
456103.0 555692.0 0
461100.0 556888.0 0
466135.0 557131.0 0
470873.0 554643.0 0
475945.0 556344.0 0
482609.0 555141.0 0
488828.0 555680.0 0
497009.0 555312.0 0
1748.14 562284.0 0
7280.66 561127.0 0
12040.7 559916.0 0
17761.8 560551.0 0
22237.8 561009.0 0
25750.2 561800.0 0
33580.7 560663.0 0
37027.6 562879.0 0
41438.6 562130.0 0
46390.1 562424.0 0
51633.5 561756.0 0
58723.1 558274.0 0
56842.6 562488.0 0
62317.8 562073.0 0
67592.4 560916.0 0
72578.6 560810.0 0
81328.0 561160.0 0
76678.0 561938.0 0
87067.2 560039.0 0
92346.3 561142.0 0
101392.0 558039.0 0
97288.7 561309.0 0
107488.0 558153.0 0
111758.0 562010.0 0
113021.0 558056.0 0
117627.0 561497.0 0
123422.0 561287.0 0
128733.0 561774.0 0
133996.0 561241.0 0
137950.0 561149.0 0
141900.0 561078.0 0
146893.0 561172.0 0
152302.0 561985.0 0
159562.0 560197.0 0
163483.0 560610.0 0
166867.0 562454.0 0
172463.0 559350.0 0
178083.0 560941.0 0
183505.0 562124.0 0
188450.0 559999.0 0
194117.0 560717.0 0
199269.0 560540.0 0
204378.0 560684.0 0
209702.0 561041.0 0
214187.0 559797.0 0
217554.0 561738.0 0
222175.0 559945.0 0
226307.0 560360.0 0
230525.0 561672.0 0
235828.0 560387.0 0
240152.0 558155.0 0
243873.0 559081.0 0
240144.0 562089.0 0
250474.0 561386.0 0
256562.0 561344.0 0
262563.0 561706.0 0
266583.0 558589.0 0
272552.0 560996.0 0
278345.0 561050.0 0
283126.0 558214.0 0
289565.0 560747.0 0
294477.0 561607.0 0
298930.0 560359.0 0
303154.0 559589.0 0
307313.0 560973.0 0
312497.0 561940.0 0
317435.0 560447.0 0
322318.0 558590.0 0
327494.0 560068.0 0
332690.0 560185.0 0
338566.0 561129.0 0
346312.0 559017.0 0
343844.0 561773.0 0
350672.0 560840.0 0
358341.0 561451.0 0
363351.0 562580.0 0
368005.0 561412.0 0
373236.0 561946.0 0
377929.0 560698.0 0
383061.0 560812.0 0
387681.0 561094.0 0
390704.0 561066.0 0
394884.0 560191.0 0
400854.0 559923.0 0
409822.0 562513.0 0
416531.0 562090.0 0
423038.0 561884.0 0
428514.0 560849.0 0
433182.0 561533.0 0
438390.0 562210.0 0
444046.0 561883.0 0
448670.0 561194.0 0
452097.0 561873.0 0
457209.0 561677.0 0
462808.0 561282.0 0
466843.0 562219.0 0
470998.0 559747.0 0
476459.0 562629.0 0
482898.0 561825.0 0
488650.0 560978.0 0
492832.0 558327.0 0
492896.0 561991.0 0
497141.0 561094.0 0
2911.84 565950.0 0
8067.17 565472.0 0
12491.5 564466.0 0
16844.9 565340.0 0
21967.9 565270.0 0
29659.1 563566.0 0
25917.1 565581.0 0
34080.2 565869.0 0
38763.0 566343.0 0
43648.1 567071.0 0
47776.2 566102.0 0
51889.9 567396.0 0
59033.3 566952.0 0
64610.8 567242.0 0
69063.6 565790.0 0
73969.0 565264.0 0
77281.5 565832.0 0
80615.1 566242.0 0
86240.9 566317.0 0
92886.2 566132.0 0
98305.7 566564.0 0
102458.0 563181.0 0
106796.0 563300.0 0
103081.0 567150.0 0
109120.0 566427.0 0
113250.0 566089.0 0
122363.0 566079.0 0
117533.0 567202.0 0
126489.0 566654.0 0
131759.0 565979.0 0
136739.0 565543.0 0
140052.0 567904.0 0
143795.0 566181.0 0
149720.0 565759.0 0
156967.0 565077.0 0
162919.0 565153.0 0
167777.0 567000.0 0
173109.0 565024.0 0
178767.0 567055.0 0
183229.0 566508.0 0
186937.0 565390.0 0
192075.0 565601.0 0
197024.0 564886.0 0
202077.0 565478.0 0
207551.0 566143.0 0
213859.0 564128.0 0
217057.0 566949.0 0
220568.0 564791.0 0
225446.0 564262.0 0
229436.0 566716.0 0
236335.0 565842.0 0
240627.0 567794.0 0
245259.0 565158.0 0
252747.0 566232.0 0
257525.0 566736.0 0
262102.0 566447.0 0
267405.0 564057.0 0
272534.0 567072.0 0
277756.0 566039.0 0
283042.0 563769.0 0
289376.0 565470.0 0
285863.0 567512.0 0
293004.0 565157.0 0
297448.0 566075.0 0
303325.0 564659.0 0
308939.0 566486.0 0
314823.0 567340.0 0
319850.0 564747.0 0
324100.0 563130.0 0
323646.0 567820.0 0
328611.0 565583.0 0
334535.0 565356.0 0
338301.0 567223.0 0
342994.0 567062.0 0
348457.0 565969.0 0
354772.0 564915.0 0
358976.0 565405.0 0
362295.0 566534.0 0
366699.0 566354.0 0
371926.0 567224.0 0
376876.0 564340.0 0
380624.0 565026.0 0
386442.0 565336.0 0
391185.0 564506.0 0
396533.0 565915.0 0
400581.0 564284.0 0
404319.0 563333.0 0
407620.0 567988.0 0
412990.0 567973.0 0
417847.0 567188.0 0
421816.0 566920.0 0
425937.0 566481.0 0
430260.0 565192.0 0
435168.0 567030.0 0
441595.0 567056.0 0
447544.0 565959.0 0
452774.0 566044.0 0
457488.0 567568.0 0
461609.0 565490.0 0
465821.0 566662.0 0
470729.0 565442.0 0
480644.0 566297.0 0
485159.0 566817.0 0
491164.0 566730.0 0
497366.0 566530.0 0
2104.31 570089.0 0
7050.01 570447.0 0
12984.2 569833.0 0
19063.4 569949.0 0
24866.9 570105.0 0
30623.2 570063.0 0
40349.9 570442.0 0
35870.4 571630.0 0
43735.6 572904.0 0
47530.5 570348.0 0
51815.3 572236.0 0
56750.7 571935.0 0
61991.3 572094.0 0
66651.6 571782.0 0
71591.1 570052.0 0
77110.6 569406.0 0
82216.9 571184.0 0
88499.5 572578.0 0
92682.0 570250.0 0
97500.0 571165.0 0
102140.0 570972.0 0
106976.0 570460.0 0
112014.0 570258.0 0
122411.0 569600.0 0
117532.0 571814.0 0
127382.0 571660.0 0
132234.0 570565.0 0
137554.0 570447.0 0
142378.0 571027.0 0
147551.0 570506.0 0
152967.0 569264.0 0
156969.0 571970.0 0
160777.0 569608.0 0
165183.0 570869.0 0
171562.0 570878.0 0
176509.0 571551.0 0
180612.0 571568.0 0
185359.0 570490.0 0
190306.0 569817.0 0
195422.0 570523.0 0
201392.0 570892.0 0
206634.0 571401.0 0
212584.0 569952.0 0
218403.0 571283.0 0
223108.0 569147.0 0
227584.0 572012.0 0
232608.0 570302.0 0
238015.0 571647.0 0
243627.0 571393.0 0
248522.0 570211.0 0
255148.0 570350.0 0
259902.0 570810.0 0
266611.0 571080.0 0
272566.0 571970.0 0
276406.0 570599.0 0
281494.0 569742.0 0
286821.0 572110.0 0
292442.0 569942.0 0
298343.0 571929.0 0
303097.0 569933.0 0
307301.0 571111.0 0
312111.0 572553.0 0
318726.0 571466.0 0
323366.0 572229.0 0
327668.0 571158.0 0
332229.0 569798.0 0
337093.0 570938.0 0
341466.0 572180.0 0
347522.0 571416.0 0
353403.0 570237.0 0
358880.0 569253.0 0
363906.0 570875.0 0
368620.0 570585.0 0
372351.0 571172.0 0
377206.0 568590.0 0
383153.0 569968.0 0
392530.0 569253.0 0
388414.0 571509.0 0
396824.0 571323.0 0
401766.0 569335.0 0
408286.0 572674.0 0
412598.0 572900.0 0
417500.0 571063.0 0
423167.0 570871.0 0
430330.0 570064.0 0
438338.0 570782.0 0
434069.0 571147.0 0
445495.0 570128.0 0
449925.0 570691.0 0
454255.0 570353.0 0
458013.0 572115.0 0
461646.0 569829.0 0
466052.0 571372.0 0
471824.0 571414.0 0
476659.0 568491.0 0
476762.0 573045.0 0
481339.0 570971.0 0
487076.0 571860.0 0
492793.0 572589.0 0
497597.0 571517.0 0
3505.55 575695.0 0
8726.61 577093.0 0
12485.7 575222.0 0
17972.6 576068.0 0
23723.1 575379.0 0
29049.6 575552.0 0
33761.8 575592.0 0
38506.2 576401.0 0
43640.2 577435.0 0
47666.1 575109.0 0
51970.1 576788.0 0
56945.6 577341.0 0
61775.8 576799.0 0
66374.5 576369.0 0
71586.0 575932.0 0
78141.7 576596.0 0
84045.4 575923.0 0
87636.1 577629.0 0
94252.4 574094.0 0
99261.0 575940.0 0
103907.0 576982.0 0
108362.0 575379.0 0
113672.0 575000.0 0
122258.0 573987.0 0
118201.0 576087.0 0
126468.0 576571.0 0
131083.0 575591.0 0
135068.0 574017.0 0
139700.0 574994.0 0
144943.0 575541.0 0
152078.0 575422.0 0
157592.0 577267.0 0
161897.0 574715.0 0
167731.0 574970.0 0
174080.0 576243.0 0
179371.0 575670.0 0
184187.0 576002.0 0
189287.0 574055.0 0
193945.0 576487.0 0
198653.0 574917.0 0
202639.0 576604.0 0
207401.0 576520.0 0
212817.0 576325.0 0
217728.0 575762.0 0
222313.0 574496.0 0
226593.0 576682.0 0
231499.0 575724.0 0
236422.0 576296.0 0
241147.0 576351.0 0
247367.0 575209.0 0
251833.0 573309.0 0
251834.0 577316.0 0
256815.0 575737.0 0
262137.0 575802.0 0
272526.0 576697.0 0
277643.0 576003.0 0
282481.0 575224.0 0
287476.0 577358.0 0
293522.0 576569.0 0
298951.0 576802.0 0
303362.0 574969.0 0
308234.0 575804.0 0
315518.0 576898.0 0
311365.0 577976.0 0
320537.0 576297.0 0
326207.0 576654.0 0
333252.0 575861.0 0
339214.0 576548.0 0
343556.0 576006.0 0
347487.0 576226.0 0
351917.0 575680.0 0
357751.0 574522.0 0
363103.0 575883.0 0
368293.0 575415.0 0
373585.0 574399.0 0
378636.0 573514.0 0
383252.0 576120.0 0
392219.0 574230.0 0
388374.0 577255.0 0
397018.0 575879.0 0
402834.0 576028.0 0
407508.0 576296.0 0
411331.0 577257.0 0
416258.0 575678.0 0
421477.0 575478.0 0
426947.0 574321.0 0
431354.0 577179.0 0
435844.0 574822.0 0
442313.0 574947.0 0
449113.0 576245.0 0
454480.0 575060.0 0
458527.0 576292.0 0
461963.0 574007.0 0
465712.0 576219.0 0
470061.0 576359.0 0
475185.0 576771.0 0
480052.0 576582.0 0
485611.0 577491.0 0
490819.0 576544.0 0
496439.0 576932.0 0
3164.52 582342.0 0
8516.81 581284.0 0
13838.0 580813.0 0
18499.0 583043.0 0
23131.4 580886.0 0
28526.6 580713.0 0
33942.2 580492.0 0
38911.2 581324.0 0
42632.3 581324.0 0
47500.0 580940.0 0
52541.0 581178.0 0
57935.4 582621.0 0
62828.9 581248.0 0
67057.8 580680.0 0
73074.3 581930.0 0
78441.6 582386.0 0
82616.4 580983.0 0
87357.9 581578.0 0
92163.5 579361.0 0
97533.1 581372.0 0
102092.0 580610.0 0
107201.0 581161.0 0
113386.0 580450.0 0
121347.0 579502.0 0
117623.0 581710.0 0
125797.0 582305.0 0
129729.0 579670.0 0
135431.0 579700.0 0
141647.0 579821.0 0
147658.0 581178.0 0
152866.0 580797.0 0
156892.0 581706.0 0
162405.0 580792.0 0
168642.0 580462.0 0
173695.0 581536.0 0
178679.0 580687.0 0
183438.0 581624.0 0
188724.0 579966.0 0
193868.0 581401.0 0
198427.0 579943.0 0
203310.0 580762.0 0
207149.0 580913.0 0
211205.0 581074.0 0
216479.0 580311.0 0
222996.0 580807.0 0
228904.0 580809.0 0
233317.0 580061.0 0
237944.0 580947.0 0
243115.0 581097.0 0
248477.0 580709.0 0
254225.0 581106.0 0
259077.0 580729.0 0
262914.0 581902.0 0
266543.0 578375.0 0
270730.0 580924.0 0
276218.0 580435.0 0
282064.0 581320.0 0
287443.0 581991.0 0
291751.0 582095.0 0
297588.0 581099.0 0
305292.0 580527.0 0
309519.0 581863.0 0
313435.0 581636.0 0
318608.0 580181.0 0
322500.0 581226.0 0
328379.0 581606.0 0
332777.0 581929.0 0
336776.0 580501.0 0
340858.0 580488.0 0
345895.0 580616.0 0
352084.0 581776.0 0
357151.0 579794.0 0
361838.0 580711.0 0
372248.0 578992.0 0
367435.0 581504.0 0
377939.0 579144.0 0
383699.0 582254.0 0
388778.0 581945.0 0
393025.0 579357.0 0
398390.0 581287.0 0
406392.0 580144.0 0
411120.0 581530.0 0
408393.0 583332.0 0
415028.0 580353.0 0
420136.0 580844.0 0
426623.0 580854.0 0
432937.0 581022.0 0
438036.0 580580.0 0
443938.0 581061.0 0
448888.0 581879.0 0
453682.0 579975.0 0
458514.0 580384.0 0
462382.0 578860.0 0
466799.0 580967.0 0
472007.0 580616.0 0
477202.0 580807.0 0
482041.0 581562.0 0
489767.0 580849.0 0
493065.0 582669.0 0
497152.0 582860.0 0
2175.0 587582.0 0
6289.2 586538.0 0
11624.2 586727.0 0
17409.4 587415.0 0
22203.4 586340.0 0
28455.1 585807.0 0
33610.8 585917.0 0
38635.8 585935.0 0
43622.7 586003.0 0
48020.1 586033.0 0
52551.9 585942.0 0
56978.0 586987.0 0
62272.0 586308.0 0
67465.9 585023.0 0
71644.2 587509.0 0
76714.6 586396.0 0
81326.9 585872.0 0
85922.3 585521.0 0
91401.1 585725.0 0
97969.5 586742.0 0
102632.0 585028.0 0
106905.0 587108.0 0
111179.0 585025.0 0
115570.0 585141.0 0
120863.0 585379.0 0
125877.0 587476.0 0
131106.0 585247.0 0
137676.0 585805.0 0
143135.0 585921.0 0
149107.0 586831.0 0
153111.0 584696.0 0
157223.0 586362.0 0
161749.0 587211.0 0
165992.0 585044.0 0
170892.0 585411.0 0
176314.0 586369.0 0
180989.0 584838.0 0
186142.0 586444.0 0
191490.0 584853.0 0
196661.0 585643.0 0
200992.0 583641.0 0
202510.0 588455.0 0
208522.0 585742.0 0
214330.0 585100.0 0
218904.0 584232.0 0
222392.0 586579.0 0
227039.0 585594.0 0
232799.0 585139.0 0
237203.0 588332.0 0
240854.0 585367.0 0
246491.0 586753.0 0
252630.0 586413.0 0
257398.0 584777.0 0
262130.0 587105.0 0
267073.0 584122.0 0
272360.0 585102.0 0
277516.0 585044.0 0
282657.0 588339.0 0
288955.0 586674.0 0
295328.0 586224.0 0
301361.0 585187.0 0
307355.0 586175.0 0
312853.0 586716.0 0
317707.0 584658.0 0
325803.0 585672.0 0
321527.0 587100.0 0
331408.0 586806.0 0
336416.0 584999.0 0
342253.0 585815.0 0
348063.0 585893.0 0
352557.0 587484.0 0
357688.0 585269.0 0
363341.0 585565.0 0
368031.0 586956.0 0
372487.0 584201.0 0
377845.0 585078.0 0
387587.0 586916.0 0
393098.0 585080.0 0
397942.0 587698.0 0
403658.0 585390.0 0
409194.0 586743.0 0
413723.0 585262.0 0
418192.0 586487.0 0
422399.0 585599.0 0
427567.0 587516.0 0
432659.0 585275.0 0
436787.0 585406.0 0
442777.0 586539.0 0
447186.0 585606.0 0
451829.0 585713.0 0
455978.0 584155.0 0
461899.0 585542.0 0
468644.0 586312.0 0
474667.0 585821.0 0
479985.0 585644.0 0
486388.0 585881.0 0
492926.0 587019.0 0
498365.0 587126.0 0
2132.18 591883.0 0
6200.0 591067.0 0
10897.8 593476.0 0
16291.0 591781.0 0
20694.3 591116.0 0
25553.1 590252.0 0
32137.2 591189.0 0
37657.6 590908.0 0
42833.1 591079.0 0
48297.0 590895.0 0
52981.3 591121.0 0
57851.8 591179.0 0
62355.2 590869.0 0
67121.3 590622.0 0
73028.2 591682.0 0
77200.4 590327.0 0
81005.5 590947.0 0
86653.1 590649.0 0
92808.4 592218.0 0
98431.6 591912.0 0
102800.0 589802.0 0
106515.0 592990.0 0
111314.0 590377.0 0
116908.0 589650.0 0
121792.0 592194.0 0
126407.0 591434.0 0
130874.0 591984.0 0
134416.0 589257.0 0
139127.0 591861.0 0
145941.0 591331.0 0
152629.0 591485.0 0
158569.0 590902.0 0
162241.0 593476.0 0
165926.0 590254.0 0
171419.0 590602.0 0
177104.0 592607.0 0
182927.0 591579.0 0
188209.0 592251.0 0
192482.0 589393.0 0
197224.0 592348.0 0
206928.0 592825.0 0
212538.0 590740.0 0
218074.0 588873.0 0
222775.0 591448.0 0
228443.0 590993.0 0
233449.0 590368.0 0
237309.0 592398.0 0
241704.0 590637.0 0
247050.0 593205.0 0
252640.0 591893.0 0
257011.0 589296.0 0
263066.0 592699.0 0
268512.0 590087.0 0
275322.0 588945.0 0
273707.0 593173.0 0
278310.0 591784.0 0
287393.0 591368.0 0
292426.0 591638.0 0
298908.0 591628.0 0
303794.0 589496.0 0
307378.0 591727.0 0
312032.0 591570.0 0
316766.0 589794.0 0
321254.0 591499.0 0
327348.0 591689.0 0
333785.0 592034.0 0
338017.0 589343.0 0
342598.0 591272.0 0
347193.0 590775.0 0
356962.0 591000.0 0
352054.0 592307.0 0
361878.0 590180.0 0
366146.0 590914.0 0
370561.0 591296.0 0
376139.0 590605.0 0
382036.0 588942.0 0
386467.0 591891.0 0
383141.0 593069.0 0
391764.0 591041.0 0
396559.0 591764.0 0
401609.0 592173.0 0
406929.0 590443.0 0
411743.0 590479.0 0
416962.0 590961.0 0
422617.0 590954.0 0
427383.0 592827.0 0
432365.0 591282.0 0
437943.0 589724.0 0
442688.0 592159.0 0
448052.0 589932.0 0
451839.0 593188.0 0
455781.0 589939.0 0
461248.0 592044.0 0
465852.0 590571.0 0
471584.0 591956.0 0
477252.0 590714.0 0
481786.0 589664.0 0
480044.0 593132.0 0
486557.0 592686.0 0
491940.0 592174.0 0
497016.0 591494.0 0
4442.2 596044.0 0
8239.21 597797.0 0
14036.8 597913.0 0
17525.5 595862.0 0
22704.6 596100.0 0
27962.1 594646.0 0
32706.3 596909.0 0
38233.1 596214.0 0
43384.2 596025.0 0
48103.6 596287.0 0
52500.0 596053.0 0
56926.5 596048.0 0
61950.5 595146.0 0
66650.8 595816.0 0
71719.6 596448.0 0
76968.7 594358.0 0
82500.0 596205.0 0
87399.9 595978.0 0
91898.0 598062.0 0
97487.1 596075.0 0
102533.0 595672.0 0
106351.0 597041.0 0
110644.0 596153.0 0
116702.0 595295.0 0
122041.0 597484.0 0
126407.0 595575.0 0
131187.0 597431.0 0
136360.0 597297.0 0
143242.0 595717.0 0
148880.0 596898.0 0
154216.0 596998.0 0
158547.0 595695.0 0
162299.0 598106.0 0
166252.0 595582.0 0
171855.0 596449.0 0
177190.0 598526.0 0
180910.0 596089.0 0
185176.0 596424.0 0
192397.0 595725.0 0
196734.0 597865.0 0
202198.0 593846.0 0
207151.0 597733.0 0
211644.0 596426.0 0
217258.0 595004.0 0
223106.0 597142.0 0
228533.0 596431.0 0
233581.0 595159.0 0
236694.0 598008.0 0
240805.0 596363.0 0
249140.0 598129.0 0
253632.0 596850.0 0
258069.0 594292.0 0
260820.0 597301.0 0
265078.0 597967.0 0
269767.0 595738.0 0
277978.0 597245.0 0
283819.0 594695.0 0
289195.0 596428.0 0
295360.0 596685.0 0
300649.0 597273.0 0
303740.0 593900.0 0
304974.0 597440.0 0
308072.0 595713.0 0
311829.0 595960.0 0
316555.0 594347.0 0
322593.0 596123.0 0
327042.0 597671.0 0
331962.0 596391.0 0
338852.0 593871.0 0
342602.0 597035.0 0
347155.0 595656.0 0
351790.0 597464.0 0
355805.0 595321.0 0
360442.0 595098.0 0
366856.0 596043.0 0
373319.0 596282.0 0
379676.0 595808.0 0
384275.0 598707.0 0
388404.0 596308.0 0
397376.0 595427.0 0
393342.0 597334.0 0
401226.0 598333.0 0
406790.0 596005.0 0
413571.0 596389.0 0
421719.0 595669.0 0
418778.0 597564.0 0
425634.0 596992.0 0
430353.0 596196.0 0
436927.0 595987.0 0
442769.0 597109.0 0
447954.0 596067.0 0
452802.0 596794.0 0
457684.0 596121.0 0
462326.0 595999.0 0
466404.0 595382.0 0
470815.0 598183.0 0
476439.0 594932.0 0
482183.0 596556.0 0
486767.0 598233.0 0
491201.0 596699.0 0
497255.0 597181.0 0
2631.17 600982.0 0
7019.2 601070.0 0
11307.1 601377.0 0
16553.1 601284.0 0
20962.5 600977.0 0
27696.8 600412.0 0
34044.2 601389.0 0
38272.9 601331.0 0
42492.0 600951.0 0
46506.8 601005.0 0
51165.5 600878.0 0
55993.0 600644.0 0
61486.9 601052.0 0
67575.2 600647.0 0
73257.9 601381.0 0
78571.6 599970.0 0
83239.1 600202.0 0
87424.0 600841.0 0
91582.7 602662.0 0
95213.6 603736.0 0
97764.8 600684.0 0
102055.0 600205.0 0
107500.0 600975.0 0
112907.0 600634.0 0
118110.0 601158.0 0
123260.0 601951.0 0
127101.0 599985.0 0
131003.0 603379.0 0
135926.0 601833.0 0
141110.0 600483.0 0
146888.0 602465.0 0
152349.0 601579.0 0
158318.0 601777.0 0
163587.0 601951.0 0
167637.0 600427.0 0
172930.0 602925.0 0
178069.0 602811.0 0
180941.0 600729.0 0
185788.0 602139.0 0
192315.0 601719.0 0
197695.0 602460.0 0
201697.0 598969.0 0
206063.0 601705.0 0
210657.0 601489.0 0
216182.0 601052.0 0
221464.0 602379.0 0
226927.0 602247.0 0
231793.0 599980.0 0
235902.0 601293.0 0
240518.0 602052.0 0
244881.0 599621.0 0
252434.0 601750.0 0
257706.0 600186.0 0
261925.0 600983.0 0
270145.0 600887.0 0
275173.0 602270.0 0
279675.0 602644.0 0
282694.0 599619.0 0
283498.0 603073.0 0
286631.0 600708.0 0
292029.0 601641.0 0
298268.0 602334.0 0
303360.0 601069.0 0
306802.0 603873.0 0
311562.0 601182.0 0
317670.0 600173.0 0
323207.0 600971.0 0
331157.0 600898.0 0
337301.0 599657.0 0
343301.0 602699.0 0
347842.0 600013.0 0
351589.0 602549.0 0
357504.0 599847.0 0
362581.0 599484.0 0
366356.0 601325.0 0
371167.0 601886.0 0
376854.0 601214.0 0
381633.0 601919.0 0
388307.0 601495.0 0
392663.0 602007.0 0
396645.0 600969.0 0
402892.0 603495.0 0
408195.0 601974.0 0
412839.0 602926.0 0
416959.0 601587.0 0
422049.0 600445.0 0
427440.0 601909.0 0
432332.0 600261.0 0
436797.0 602121.0 0
442166.0 602287.0 0
446993.0 603580.0 0
450617.0 600677.0 0
455988.0 602369.0 0
461547.0 600310.0 0
466786.0 601910.0 0
471807.0 603284.0 0
476096.0 599769.0 0
481315.0 601905.0 0
486445.0 602913.0 0
493736.0 600245.0 0
497972.0 601892.0 0
3533.3 607077.0 0
9087.14 605550.0 0
13809.0 605721.0 0
18875.3 606206.0 0
22996.8 604440.0 0
27186.5 606576.0 0
32607.4 605767.0 0
37632.5 605935.0 0
42449.0 606214.0 0
47765.7 605780.0 0
52876.4 605622.0 0
57336.2 604942.0 0
60997.3 607709.0 0
64961.6 605379.0 0
70081.8 605737.0 0
76466.2 606293.0 0
82948.3 604474.0 0
88475.5 605861.0 0
93965.6 608735.0 0
99172.3 605789.0 0
103513.0 604152.0 0
106345.0 606796.0 0
111166.0 605682.0 0
122011.0 605575.0 0
117407.0 607503.0 0
126107.0 606101.0 0
132500.0 608963.0 0
137123.0 606389.0 0
142730.0 606516.0 0
147038.0 606606.0 0
153034.0 606774.0 0
157658.0 607115.0 0
162183.0 606121.0 0
167431.0 605687.0 0
173051.0 608899.0 0
177397.0 606759.0 0
181218.0 604863.0 0
184180.0 608628.0 0
189355.0 606891.0 0
195448.0 606808.0 0
201336.0 606406.0 0
207562.0 606521.0 0
213079.0 605978.0 0
218639.0 607309.0 0
223747.0 606231.0 0
227639.0 608390.0 0
231997.0 605262.0 0
236881.0 605068.0 0
241044.0 607743.0 0
246208.0 604715.0 0
251008.0 606172.0 0
256612.0 606551.0 0
262686.0 605031.0 0
267770.0 605682.0 0
273189.0 607470.0 0
278741.0 607033.0 0
282918.0 607748.0 0
287437.0 606144.0 0
293574.0 606951.0 0
297889.0 607150.0 0
302579.0 605421.0 0
306805.0 607984.0 0
313010.0 605913.0 0
317876.0 606278.0 0
322811.0 606896.0 0
327104.0 604871.0 0
329687.0 608187.0 0
332631.0 605899.0 0
338097.0 606113.0 0
346617.0 606719.0 0
342778.0 607786.0 0
351225.0 607686.0 0
355896.0 604962.0 0
362244.0 605541.0 0
368602.0 606629.0 0
374095.0 606425.0 0
379555.0 606320.0 0
384498.0 604702.0 0
388368.0 606160.0 0
392654.0 605831.0 0
398460.0 605173.0 0
401727.0 608126.0 0
406251.0 607138.0 0
411189.0 606915.0 0
416851.0 607281.0 0
422633.0 605899.0 0
427993.0 607619.0 0
433546.0 606473.0 0
438942.0 607207.0 0
444040.0 607281.0 0
448913.0 607718.0 0
453802.0 607650.0 0
458661.0 606790.0 0
463472.0 606474.0 0
468587.0 606121.0 0
471823.0 607918.0 0
476771.0 605789.0 0
482421.0 607206.0 0
487180.0 608140.0 0
491627.0 604913.0 0
497270.0 606591.0 0
1390.72 611504.0 0
6456.67 612027.0 0
11437.0 610633.0 0
17243.2 611347.0 0
22347.7 610751.0 0
27883.9 612603.0 0
33813.9 611103.0 0
38900.8 611119.0 0
43356.1 611006.0 0
47882.7 610999.0 0
52654.1 610335.0 0
57500.0 611142.0 0
62950.1 611675.0 0
67565.3 610526.0 0
72308.9 610266.0 0
76139.1 612266.0 0
81710.2 611105.0 0
88260.7 610559.0 0
98489.0 609646.0 0
102300.0 610362.0 0
106887.0 610628.0 0
112524.0 611603.0 0
117680.0 613355.0 0
122774.0 610533.0 0
127564.0 610658.0 0
131118.0 612538.0 0
134823.0 610768.0 0
140228.0 612175.0 0
148940.0 610442.0 0
154434.0 610894.0 0
158805.0 611519.0 0
163200.0 610754.0 0
167597.0 610820.0 0
171339.0 613189.0 0
177386.0 611456.0 0
181471.0 612220.0 0
187042.0 614071.0 0
192407.0 611259.0 0
197397.0 611436.0 0
202889.0 612771.0 0
208843.0 612034.0 0
214122.0 611151.0 0
218753.0 612664.0 0
223736.0 612006.0 0
228221.0 612572.0 0
231995.0 610623.0 0
236347.0 609533.0 0
240978.0 611838.0 0
246098.0 610613.0 0
251892.0 611077.0 0
256839.0 612231.0 0
260803.0 610593.0 0
265936.0 610741.0 0
272844.0 612421.0 0
276753.0 611389.0 0
280948.0 610933.0 0
285735.0 611823.0 0
291181.0 610996.0 0
296485.0 611653.0 0
302068.0 610357.0 0
310808.0 609467.0 0
306776.0 612059.0 0
315864.0 611497.0 0
321131.0 611168.0 0
326117.0 610034.0 0
332084.0 610433.0 0
336872.0 612026.0 0
342223.0 611943.0 0
346448.0 610763.0 0
350400.0 612508.0 0
357487.0 609329.0 0
361527.0 612067.0 0
366653.0 611314.0 0
372089.0 611556.0 0
378095.0 612149.0 0
384646.0 610431.0 0
390692.0 609915.0 0
395973.0 609581.0 0
400620.0 612212.0 0
404444.0 611261.0 0
408876.0 611398.0 0
413840.0 612058.0 0
418383.0 612225.0 0
423431.0 610929.0 0
427673.0 612523.0 0
431574.0 610989.0 0
436008.0 611178.0 0
441266.0 611921.0 0
446258.0 611620.0 0
451252.0 611945.0 0
457591.0 611470.0 0
462802.0 611845.0 0
467801.0 610628.0 0
473411.0 611746.0 0
478961.0 611159.0 0
484077.0 611948.0 0
488433.0 612146.0 0
492980.0 610770.0 0
498189.0 611016.0 0
2818.35 615338.0 0
8287.85 616718.0 0
13889.3 615918.0 0
18928.3 616021.0 0
23216.7 615070.0 0
27769.1 617936.0 0
32242.4 615754.0 0
37347.5 616199.0 0
40851.5 615776.0 0
45129.9 616415.0 0
50332.4 615739.0 0
55913.5 616273.0 0
60757.2 615485.0 0
65884.4 615636.0 0
71982.3 615721.0 0
78715.1 616437.0 0
86370.2 614595.0 0
82505.7 616934.0 0
91549.1 614455.0 0
97840.3 614234.0 0
103526.0 617083.0 0
108275.0 614702.0 0
114147.0 616852.0 0
118191.0 617006.0 0
121783.0 614856.0 0
126535.0 615727.0 0
131656.0 616807.0 0
136009.0 615602.0 0
140378.0 618306.0 0
145664.0 615503.0 0
152501.0 614580.0 0
157091.0 615930.0 0
161439.0 615837.0 0
167001.0 616805.0 0
173065.0 617267.0 0
177851.0 616348.0 0
182237.0 616273.0 0
185026.0 619080.0 0
192613.0 616385.0 0
198375.0 615598.0 0
201753.0 618444.0 0
206653.0 617384.0 0
210804.0 615996.0 0
215540.0 616737.0 0
221107.0 616753.0 0
226674.0 618004.0 0
231170.0 615139.0 0
236761.0 615018.0 0
242854.0 615116.0 0
248474.0 615989.0 0
254214.0 616253.0 0
262450.0 615645.0 0
269252.0 616540.0 0
279863.0 614857.0 0
275534.0 615837.0 0
283907.0 616976.0 0
289446.0 615924.0 0
294233.0 616010.0 0
298664.0 616787.0 0
302706.0 614920.0 0
306192.0 616169.0 0
311400.0 615224.0 0
317619.0 615734.0 0
322377.0 616449.0 0
327230.0 614715.0 0
330587.0 618331.0 0
332455.0 614337.0 0
336022.0 618007.0 0
340590.0 615364.0 0
344534.0 615349.0 0
348266.0 616139.0 0
355833.0 615029.0 0
364856.0 615882.0 0
369557.0 616197.0 0
374276.0 615564.0 0
381980.0 615306.0 0
378679.0 618773.0 0
386925.0 615842.0 0
383834.0 618792.0 0
391890.0 614991.0 0
397045.0 614695.0 0
401149.0 616386.0 0
405889.0 615669.0 0
411195.0 616214.0 0
416416.0 616542.0 0
421549.0 614882.0 0
425810.0 616793.0 0
431415.0 616157.0 0
437096.0 616018.0 0
442530.0 617459.0 0
448341.0 616445.0 0
454421.0 615756.0 0
459689.0 616057.0 0
463708.0 615955.0 0
467873.0 615725.0 0
472326.0 616315.0 0
476482.0 615292.0 0
481092.0 615519.0 0
486648.0 615994.0 0
490946.0 615389.0 0
493225.0 619184.0 0
496359.0 615048.0 0
2385.09 620402.0 0
6757.97 621353.0 0
12087.3 621768.0 0
17306.7 620528.0 0
22213.7 619849.0 0
27233.1 622263.0 0
31749.1 620427.0 0
36723.8 621283.0 0
42216.5 620871.0 0
47698.8 620523.0 0
52808.3 621216.0 0
57822.5 620824.0 0
62685.0 620030.0 0
66902.0 619947.0 0
70262.2 623142.0 0
75213.2 620553.0 0
80222.1 622171.0 0
86435.6 620547.0 0
91426.8 624215.0 0
94447.0 619580.0 0
99584.4 620557.0 0
105198.0 621243.0 0
108605.0 619378.0 0
113263.0 621833.0 0
117634.0 620093.0 0
122342.0 619355.0 0
127024.0 620988.0 0
131245.0 620988.0 0
135419.0 620158.0 0
143065.0 623013.0 0
148396.0 620702.0 0
153751.0 619570.0 0
158443.0 620834.0 0
162500.0 621363.0 0
166257.0 622926.0 0
170727.0 621066.0 0
176125.0 620939.0 0
180922.0 620776.0 0
184579.0 622915.0 0
189952.0 621824.0 0
196549.0 620390.0 0
201039.0 623601.0 0
205984.0 622613.0 0
211126.0 620617.0 0
216908.0 622334.0 0
222118.0 621713.0 0
227564.0 622663.0 0
232455.0 620112.0 0
237351.0 620350.0 0
242168.0 620652.0 0
247887.0 621929.0 0
253450.0 621532.0 0
258351.0 619645.0 0
262800.0 621439.0 0
267390.0 622587.0 0
273613.0 621737.0 0
278798.0 619498.0 0
282362.0 621079.0 0
286835.0 621984.0 0
292761.0 620760.0 0
298539.0 622482.0 0
303132.0 619328.0 0
308030.0 619827.0 0
313149.0 621278.0 0
318730.0 620432.0 0
325849.0 620817.0 0
322014.0 623631.0 0
330877.0 623689.0 0
337379.0 622655.0 0
342166.0 620177.0 0
347144.0 622219.0 0
351383.0 619959.0 0
359094.0 620344.0 0
364092.0 620681.0 0
368479.0 620663.0 0
373154.0 619775.0 0
377375.0 623014.0 0
387274.0 621090.0 0
382719.0 624061.0 0
391501.0 620058.0 0
397507.0 620172.0 0
403478.0 621535.0 0
408274.0 619847.0 0
412512.0 621113.0 0
416697.0 621095.0 0
421330.0 619903.0 0
428648.0 621413.0 0
434792.0 620656.0 0
439728.0 622486.0 0
444392.0 622000.0 0
447757.0 621072.0 0
452194.0 620350.0 0
457086.0 619743.0 0
462027.0 621463.0 0
467199.0 620380.0 0
471552.0 620387.0 0
472138.0 624071.0 0
476772.0 620653.0 0
483503.0 620186.0 0
488803.0 620111.0 0
491790.0 624036.0 0
497707.0 619738.0 0
2460.39 625237.0 0
7827.94 626275.0 0
13640.9 626898.0 0
16990.3 624521.0 0
19388.7 629307.0 0
23399.6 625096.0 0
28728.4 626713.0 0
33609.9 625363.0 0
38645.0 625733.0 0
42938.6 626564.0 0
47178.1 625516.0 0
52162.8 626645.0 0
56934.1 625280.0 0
60303.4 629315.0 0
61842.9 624553.0 0
65784.5 625708.0 0
73890.0 626264.0 0
77500.0 626183.0 0
82946.5 626325.0 0
87316.0 626414.0 0
96873.7 625065.0 0
102576.0 624534.0 0
108474.0 624997.0 0
117230.0 624686.0 0
113473.0 627653.0 0
117755.0 629213.0 0
122652.0 625085.0 0
128277.0 625747.0 0
133627.0 625076.0 0
136654.0 629021.0 0
138755.0 625132.0 0
142389.0 628239.0 0
147131.0 625814.0 0
152846.0 625461.0 0
158658.0 625312.0 0
163274.0 626870.0 0
166918.0 627210.0 0
170666.0 625822.0 0
175921.0 625893.0 0
181317.0 626307.0 0
186490.0 626622.0 0
191349.0 628046.0 0
196442.0 626235.0 0
200792.0 627961.0 0
205105.0 627536.0 0
210207.0 626286.0 0
215248.0 626920.0 0
219845.0 626589.0 0
224976.0 626086.0 0
230886.0 626064.0 0
237003.0 625252.0 0
242045.0 627823.0 0
247798.0 627962.0 0
253521.0 626884.0 0
258380.0 624817.0 0
259383.0 629109.0 0
263519.0 626408.0 0
269053.0 627719.0 0
274199.0 627078.0 0
279593.0 625174.0 0
285171.0 627418.0 0
289491.0 626090.0 0
293580.0 625949.0 0
297549.0 627336.0 0
303375.0 626258.0 0
308835.0 624679.0 0
307749.0 628907.0 0
313451.0 626757.0 0
318129.0 625469.0 0
321583.0 626818.0 0
325873.0 626602.0 0
335123.0 625196.0 0
339402.0 626873.0 0
344711.0 625967.0 0
350450.0 625820.0 0
356569.0 625328.0 0
361531.0 624325.0 0
366610.0 625998.0 0
372950.0 625511.0 0
377959.0 626956.0 0
388452.0 625620.0 0
393628.0 624541.0 0
398989.0 626034.0 0
404319.0 627006.0 0
408929.0 624593.0 0
413988.0 625749.0 0
419055.0 624940.0 0
423729.0 624313.0 0
427631.0 626569.0 0
432799.0 625643.0 0
436020.0 624587.0 0
438349.0 628408.0 0
443567.0 626094.0 0
447358.0 624629.0 0
447341.0 628786.0 0
451981.0 626037.0 0
457505.0 624636.0 0
462399.0 627406.0 0
467850.0 625469.0 0
475811.0 626474.0 0
480492.0 624781.0 0
481637.0 629302.0 0
485705.0 625838.0 0
497330.0 624628.0 0
2995.89 630657.0 0
8337.28 632397.0 0
13768.7 631850.0 0
25072.5 629510.0 0
23139.3 633629.0 0
29494.2 631409.0 0
34925.0 630453.0 0
32617.5 634316.0 0
40269.9 630247.0 0
37877.8 633837.0 0
43549.8 632200.0 0
46566.6 630284.0 0
51004.4 631750.0 0
55552.0 631197.0 0
65956.0 630582.0 0
72161.5 631193.0 0
81288.9 629862.0 0
77647.3 630646.0 0
80841.3 634353.0 0
85636.9 631108.0 0
91208.9 629651.0 0
97671.1 630615.0 0
103199.0 630221.0 0
109196.0 631322.0 0
115262.0 631415.0 0
121486.0 630385.0 0
118491.0 634216.0 0
126709.0 631022.0 0
132559.0 632120.0 0
139730.0 632719.0 0
147058.0 631325.0 0
154237.0 631891.0 0
159826.0 630879.0 0
164392.0 631281.0 0
168617.0 630256.0 0
173379.0 630382.0 0
178243.0 631029.0 0
182356.0 630882.0 0
186943.0 631800.0 0
192165.0 633262.0 0
197453.0 631327.0 0
202995.0 631786.0 0
207648.0 631051.0 0
212928.0 630893.0 0
217544.0 630597.0 0
221957.0 631222.0 0
227133.0 631279.0 0
232758.0 631680.0 0
237770.0 630586.0 0
244723.0 632178.0 0
241055.0 632828.0 0
251406.0 632377.0 0
255939.0 631067.0 0
262551.0 630951.0 0
267561.0 632891.0 0
272541.0 631192.0 0
277515.0 630847.0 0
282443.0 631203.0 0
289273.0 630378.0 0
294427.0 630850.0 0
299551.0 630913.0 0
304407.0 632127.0 0
311450.0 631694.0 0
317089.0 630762.0 0
322288.0 630391.0 0
326952.0 632023.0 0
332876.0 629919.0 0
338140.0 631578.0 0
342558.0 631813.0 0
347382.0 630371.0 0
351942.0 630678.0 0
356861.0 631337.0 0
362079.0 629820.0 0
366671.0 631424.0 0
371246.0 630831.0 0
376792.0 631579.0 0
381840.0 630092.0 0
386968.0 630402.0 0
392279.0 629980.0 0
402335.0 630425.0 0
398046.0 632040.0 0
406243.0 632050.0 0
410838.0 629556.0 0
412668.0 634140.0 0
415769.0 630604.0 0
421507.0 630137.0 0
427255.0 631848.0 0
433119.0 632017.0 0
443379.0 632290.0 0
451271.0 631623.0 0
456925.0 630433.0 0
461496.0 632809.0 0
466320.0 631955.0 0
471447.0 629559.0 0
476818.0 632484.0 0
484971.0 633056.0 0
490341.0 629918.0 0
496749.0 630462.0 0
2068.94 636376.0 0
5845.55 636005.0 0
11576.1 636564.0 0
18230.8 635389.0 0
23862.1 639493.0 0
28708.2 636069.0 0
32651.2 638460.0 0
37182.4 637993.0 0
42386.0 635496.0 0
46783.1 636177.0 0
50612.2 636685.0 0
55781.4 636020.0 0
62129.8 635673.0 0
67985.2 635180.0 0
71840.7 636448.0 0
76103.0 636762.0 0
85852.7 636597.0 0
81793.1 639348.0 0
94006.2 634681.0 0
99601.8 635695.0 0
104732.0 635208.0 0
109328.0 637148.0 0
113773.0 635082.0 0
116664.0 639514.0 0
123381.0 635283.0 0
128071.0 636085.0 0
132058.0 636874.0 0
136060.0 636108.0 0
143713.0 635214.0 0
147786.0 636649.0 0
152570.0 637471.0 0
157839.0 636760.0 0
162560.0 635247.0 0
167960.0 635605.0 0
173099.0 634890.0 0
177491.0 636045.0 0
182755.0 635484.0 0
188547.0 637270.0 0
193075.0 637662.0 0
196038.0 635527.0 0
200602.0 636322.0 0
206041.0 635953.0 0
212063.0 636568.0 0
217545.0 635134.0 0
222006.0 636580.0 0
226619.0 636448.0 0
231412.0 636755.0 0
236717.0 635809.0 0
241704.0 636524.0 0
247470.0 637244.0 0
253563.0 636988.0 0
258079.0 635057.0 0
263038.0 635252.0 0
267416.0 638193.0 0
272155.0 635803.0 0
280053.0 635637.0 0
276033.0 638430.0 0
284324.0 635626.0 0
288325.0 635228.0 0
292918.0 635481.0 0
297479.0 635092.0 0
301952.0 636534.0 0
307525.0 636009.0 0
313210.0 636640.0 0
318150.0 636089.0 0
322464.0 634684.0 0
326410.0 637392.0 0
321876.0 638583.0 0
336223.0 634857.0 0
331780.0 636227.0 0
340220.0 636030.0 0
346695.0 636364.0 0
352854.0 635322.0 0
357758.0 636541.0 0
363289.0 635519.0 0
369265.0 635780.0 0
373643.0 634538.0 0
376835.0 636289.0 0
373434.0 638686.0 0
382221.0 636332.0 0
388497.0 635179.0 0
393442.0 635090.0 0
397899.0 637340.0 0
403270.0 637374.0 0
408903.0 636584.0 0
417370.0 635422.0 0
413546.0 638816.0 0
422640.0 636251.0 0
427990.0 637191.0 0
432664.0 638879.0 0
437437.0 636211.0 0
442804.0 637929.0 0
448017.0 636013.0 0
453214.0 635992.0 0
458074.0 636705.0 0
463346.0 636904.0 0
467973.0 636708.0 0
472380.0 636236.0 0
476833.0 638418.0 0
481105.0 636293.0 0
489605.0 635719.0 0
485299.0 637964.0 0
497033.0 636613.0 0
2349.8 640976.0 0
7760.36 639843.0 0
6180.79 644250.0 0
12536.5 641244.0 0
17701.8 640941.0 0
29222.1 640884.0 0
35293.6 642665.0 0
41965.9 640813.0 0
47911.0 641105.0 0
52659.5 640697.0 0
57452.2 641299.0 0
62983.3 641992.0 0
67866.7 639952.0 0
69671.1 644601.0 0
72909.0 640701.0 0
77724.8 641249.0 0
85722.9 641848.0 0
90728.4 639588.0 0
96807.3 640908.0 0
101954.0 640207.0 0
106517.0 641378.0 0
111543.0 641976.0 0
119660.0 644492.0 0
125010.0 641092.0 0
130440.0 641592.0 0
133631.0 639978.0 0
138095.0 640841.0 0
143521.0 639901.0 0
149002.0 641994.0 0
154575.0 641096.0 0
158116.0 642383.0 0
162057.0 639897.0 0
166773.0 641740.0 0
172796.0 640398.0 0
179081.0 641143.0 0
184292.0 640511.0 0
188682.0 641982.0 0
192797.0 641606.0 0
197499.0 640815.0 0
202843.0 641335.0 0
208075.0 640745.0 0
213310.0 642540.0 0
218350.0 640197.0 0
222712.0 640460.0 0
221533.0 644404.0 0
226808.0 641322.0 0
232131.0 641992.0 0
237474.0 641251.0 0
242652.0 641154.0 0
247330.0 643595.0 0
252378.0 641919.0 0
257757.0 640472.0 0
262838.0 639945.0 0
266215.0 643689.0 0
272023.0 641901.0 0
279904.0 641016.0 0
285509.0 640146.0 0
282792.0 644648.0 0
292034.0 640937.0 0
298436.0 640489.0 0
303886.0 640771.0 0
308792.0 641765.0 0
312987.0 640811.0 0
317889.0 641932.0 0
324657.0 642308.0 0
329718.0 641745.0 0
335648.0 640842.0 0
342005.0 641069.0 0
351880.0 640582.0 0
347250.0 642164.0 0
357213.0 641695.0 0
363365.0 642619.0 0
369170.0 641136.0 0
373865.0 644248.0 0
377879.0 640458.0 0
382070.0 643180.0 0
387179.0 640774.0 0
393636.0 640752.0 0
399692.0 642471.0 0
404719.0 642652.0 0
409130.0 641495.0 0
418583.0 640286.0 0
423630.0 641761.0 0
428888.0 642211.0 0
433581.0 643857.0 0
437638.0 641539.0 0
441816.0 642408.0 0
446599.0 641001.0 0
451317.0 640336.0 0
456057.0 641359.0 0
461001.0 641996.0 0
465534.0 640934.0 0
470301.0 640929.0 0
475274.0 643813.0 0
481395.0 642000.0 0
487431.0 642350.0 0
492606.0 640363.0 0
497638.0 641899.0 0
2107.17 645410.0 0
1811.77 649315.0 0
6773.21 649523.0 0
10490.6 645500.0 0
15325.5 645649.0 0
21207.3 645462.0 0
26940.8 645064.0 0
32064.0 647040.0 0
37816.9 647027.0 0
42072.3 646093.0 0
46670.7 646236.0 0
49924.6 649078.0 0
52447.6 645418.0 0
56234.4 646689.0 0
60057.3 646413.0 0
65163.1 646919.0 0
75134.4 646032.0 0
81404.6 645326.0 0
87188.2 646721.0 0
92796.8 645380.0 0
98052.4 646179.0 0
102936.0 645149.0 0
108277.0 646121.0 0
114405.0 646782.0 0
124461.0 647579.0 0
129286.0 645589.0 0
133778.0 645408.0 0
137636.0 645470.0 0
137212.0 649642.0 0
141895.0 644805.0 0
147622.0 647686.0 0
153795.0 645159.0 0
158136.0 646602.0 0
162649.0 645082.0 0
168397.0 646010.0 0
173688.0 645745.0 0
177604.0 646301.0 0
182491.0 645562.0 0
187119.0 645299.0 0
188738.0 648638.0 0
192484.0 646064.0 0
197331.0 645082.0 0
198432.0 649650.0 0
203454.0 646901.0 0
208296.0 645441.0 0
212251.0 647353.0 0
217093.0 647132.0 0
222094.0 649622.0 0
226013.0 646145.0 0
230805.0 647197.0 0
236748.0 647243.0 0
242464.0 646200.0 0
247346.0 647997.0 0
251195.0 646685.0 0
255911.0 645733.0 0
262228.0 646064.0 0
270290.0 647482.0 0
265737.0 648522.0 0
277064.0 646532.0 0
283342.0 649610.0 0
287706.0 645797.0 0
293213.0 646981.0 0
297803.0 648690.0 0
301472.0 645374.0 0
307305.0 647242.0 0
312814.0 645416.0 0
318651.0 648685.0 0
324048.0 646838.0 0
330722.0 645590.0 0
327766.0 645700.0 0
334117.0 646091.0 0
338845.0 645764.0 0
344507.0 646838.0 0
352207.0 646817.0 0
358875.0 647316.0 0
364681.0 648833.0 0
368909.0 645955.0 0
378781.0 647361.0 0
384436.0 647032.0 0
389487.0 646590.0 0
395564.0 646770.0 0
402871.0 646410.0 0
399834.0 648853.0 0
408006.0 646929.0 0
413786.0 644878.0 0
416981.0 649169.0 0
419749.0 645281.0 0
425145.0 646507.0 0
429915.0 647147.0 0
434315.0 647731.0 0
436611.0 646625.0 0
440006.0 646403.0 0
445134.0 645758.0 0
452127.0 646218.0 0
457740.0 645597.0 0
461843.0 646610.0 0
466133.0 645357.0 0
470541.0 645685.0 0
473554.0 649108.0 0
479624.0 647347.0 0
485884.0 647862.0 0
491637.0 646079.0 0
497259.0 646973.0 0
2706.76 653743.0 0
12547.7 650016.0 0
18045.9 650333.0 0
23420.2 651140.0 0
28085.9 650650.0 0
34567.0 652470.0 0
39011.3 651024.0 0
43600.7 650129.0 0
47500.0 651580.0 0
52227.4 653031.0 0
57383.6 650952.0 0
62667.5 651404.0 0
67516.6 651236.0 0
72719.2 651649.0 0
78251.5 650950.0 0
83620.8 650730.0 0
88282.3 652327.0 0
93400.6 651407.0 0
98587.0 650632.0 0
101643.0 654311.0 0
104572.0 650169.0 0
110580.0 650804.0 0
115026.0 652014.0 0
119289.0 649959.0 0
123097.0 651779.0 0
126047.0 654784.0 0
127615.0 650792.0 0
131972.0 649982.0 0
142559.0 650258.0 0
147496.0 652705.0 0
152958.0 651027.0 0
162948.0 650264.0 0
158428.0 650716.0 0
168218.0 650851.0 0
173433.0 649998.0 0
178828.0 651413.0 0
184608.0 650668.0 0
188539.0 654041.0 0
192825.0 651176.0 0
203213.0 652871.0 0
207616.0 650054.0 0
212213.0 652108.0 0
217519.0 652508.0 0
227353.0 651411.0 0
232817.0 652067.0 0
238302.0 653386.0 0
244113.0 651560.0 0
249600.0 651210.0 0
253790.0 652820.0 0
258916.0 650760.0 0
264029.0 652171.0 0
268225.0 651842.0 0
273363.0 651665.0 0
278620.0 652879.0 0
288660.0 651421.0 0
293852.0 652202.0 0
298105.0 653324.0 0
302417.0 651038.0 0
307209.0 652535.0 0
312459.0 651561.0 0
316806.0 653083.0 0
320012.0 654097.0 0
324049.0 651658.0 0
330183.0 650477.0 0
336375.0 650226.0 0
341762.0 652852.0 0
347998.0 651386.0 0
356315.0 651843.0 0
352295.0 653104.0 0
360797.0 652382.0 0
371967.0 650217.0 0
367626.0 653274.0 0
377531.0 652604.0 0
382588.0 651251.0 0
388352.0 653014.0 0
395177.0 653167.0 0
400121.0 654346.0 0
403894.0 651488.0 0
412403.0 650356.0 0
408727.0 653017.0 0
418198.0 654068.0 0
421748.0 650076.0 0
426978.0 651521.0 0
432518.0 651644.0 0
437791.0 650896.0 0
442365.0 650314.0 0
447386.0 651092.0 0
452842.0 652103.0 0
458522.0 651039.0 0
463715.0 650152.0 0
463200.0 654126.0 0
468373.0 649967.0 0
471658.0 653154.0 0
477636.0 651011.0 0
481811.0 651256.0 0
485874.0 653191.0 0
491322.0 652241.0 0
497370.0 652327.0 0
2545.88 658982.0 0
7534.58 656670.0 0
12547.2 655010.0 0
18039.9 656533.0 0
23901.9 656157.0 0
28730.6 655073.0 0
27444.9 659896.0 0
32785.0 658384.0 0
37454.1 656873.0 0
41809.7 654867.0 0
43654.5 659692.0 0
47354.0 655884.0 0
52262.8 658744.0 0
56184.5 656157.0 0
60982.9 656214.0 0
66570.7 656374.0 0
71999.8 656990.0 0
81061.4 655185.0 0
76608.2 655874.0 0
85511.9 656337.0 0
90937.1 657207.0 0
96753.6 655852.0 0
107028.0 654971.0 0
103369.0 659641.0 0
112296.0 655515.0 0
116461.0 659484.0 0
120669.0 655185.0 0
131777.0 656019.0 0
138289.0 655338.0 0
143822.0 655250.0 0
148169.0 657629.0 0
152893.0 656783.0 0
157136.0 655018.0 0
162489.0 655714.0 0
158791.0 659068.0 0
168162.0 656454.0 0
164853.0 659919.0 0
174018.0 655588.0 0
178866.0 658943.0 0
183823.0 656243.0 0
188136.0 659907.0 0
192772.0 656908.0 0
198857.0 657127.0 0
203728.0 657538.0 0
208147.0 656062.0 0
214444.0 656904.0 0
218832.0 656611.0 0
222500.0 656003.0 0
228462.0 656510.0 0
234189.0 657111.0 0
238598.0 658388.0 0
242846.0 656980.0 0
248030.0 655985.0 0
252408.0 656457.0 0
256566.0 656752.0 0
261478.0 655876.0 0
266089.0 655848.0 0
270568.0 655646.0 0
275357.0 657551.0 0
283018.0 655979.0 0
288487.0 657264.0 0
294125.0 657101.0 0
299721.0 656660.0 0
304301.0 656469.0 0
309041.0 656127.0 0
311946.0 658311.0 0
315370.0 656350.0 0
322179.0 658262.0 0
327764.0 656838.0 0
335151.0 655582.0 0
339311.0 657136.0 0
346728.0 655904.0 0
342994.0 658623.0 0
350718.0 656805.0 0
357744.0 656785.0 0
363203.0 656523.0 0
367348.0 657773.0 0
372827.0 656734.0 0
379140.0 657633.0 0
383250.0 655719.0 0
386380.0 658148.0 0
391701.0 658907.0 0
398360.0 657468.0 0
402845.0 657466.0 0
407687.0 657287.0 0
412822.0 655835.0 0
422956.0 656792.0 0
427728.0 656280.0 0
432225.0 656889.0 0
437342.0 656136.0 0
443037.0 655457.0 0
448487.0 656499.0 0
452104.0 659943.0 0
455762.0 656292.0 0
460329.0 656932.0 0
467672.0 655188.0 0
474177.0 656291.0 0
470677.0 659001.0 0
479109.0 655567.0 0
483693.0 656679.0 0
487277.0 656918.0 0
491778.0 658480.0 0
497344.0 657600.0 0
2126.67 663614.0 0
7058.22 662535.0 0
11109.9 660171.0 0
15010.8 661229.0 0
11867.7 664312.0 0
17262.1 665121.0 0
21697.2 661777.0 0
33016.2 664970.0 0
37957.0 661302.0 0
42132.7 664072.0 0
47959.6 661175.0 0
57435.5 660532.0 0
60021.0 665032.0 0
62744.6 660695.0 0
67349.2 661709.0 0
71539.6 661240.0 0
75675.2 660320.0 0
81241.8 660686.0 0
86612.4 660773.0 0
91960.8 663580.0 0
97595.8 661330.0 0
109351.0 660301.0 0
113045.0 663624.0 0
122168.0 660023.0 0
119742.0 662975.0 0
127158.0 660024.0 0
122893.0 664954.0 0
131598.0 661122.0 0
136111.0 660897.0 0
143031.0 660713.0 0
148982.0 662834.0 0
154431.0 660940.0 0
158450.0 663604.0 0
163826.0 664500.0 0
169143.0 661950.0 0
174064.0 660967.0 0
177397.0 663151.0 0
183192.0 662518.0 0
188054.0 665042.0 0
192931.0 661729.0 0
197121.0 661950.0 0
202646.0 661648.0 0
207716.0 661531.0 0
212364.0 661317.0 0
217526.0 661486.0 0
222789.0 661242.0 0
226834.0 660306.0 0
226915.0 664862.0 0
231131.0 661361.0 0
236048.0 661839.0 0
240811.0 661944.0 0
246039.0 661487.0 0
251910.0 660744.0 0
257687.0 661709.0 0
262776.0 660790.0 0
268254.0 660383.0 0
273239.0 662559.0 0
278440.0 662072.0 0
282917.0 660572.0 0
286937.0 662546.0 0
292248.0 662083.0 0
297697.0 660688.0 0
302964.0 661600.0 0
307971.0 660559.0 0
308570.0 664930.0 0
312559.0 662224.0 0
317506.0 660934.0 0
322246.0 663400.0 0
326999.0 662439.0 0
332470.0 661184.0 0
338488.0 661299.0 0
344348.0 662335.0 0
346685.0 665010.0 0
348029.0 660489.0 0
352579.0 660222.0 0
356600.0 662180.0 0
362435.0 662200.0 0
369148.0 662813.0 0
374455.0 662400.0 0
378197.0 662083.0 0
382500.0 661161.0 0
387498.0 662033.0 0
391011.0 664426.0 0
395892.0 661645.0 0
400227.0 661840.0 0
405433.0 661483.0 0
408109.0 665064.0 0
410996.0 661520.0 0
416969.0 660244.0 0
422548.0 662489.0 0
426939.0 660235.0 0
431338.0 662081.0 0
436977.0 661927.0 0
441930.0 660744.0 0
446925.0 661594.0 0
456758.0 662207.0 0
461565.0 661060.0 0
466538.0 661796.0 0
475575.0 661444.0 0
481365.0 660615.0 0
486803.0 661558.0 0
494205.0 663622.0 0
498259.0 661899.0 0
3367.83 668940.0 0
8714.65 667416.0 0
12853.4 668461.0 0
21727.2 666813.0 0
26444.0 665420.0 0
38518.7 667336.0 0
43090.0 669709.0 0
46716.0 665895.0 0
48986.1 669643.0 0
53116.5 665214.0 0
57451.0 670005.0 0
65183.0 666045.0 0
62230.6 669791.0 0
70114.8 665904.0 0
73715.1 667665.0 0
76533.5 665103.0 0
81693.8 666806.0 0
86094.8 669925.0 0
86850.1 665340.0 0
93017.1 667987.0 0
97387.1 667287.0 0
103487.0 665933.0 0
109151.0 665786.0 0
116912.0 665175.0 0
113453.0 667686.0 0
117827.0 669742.0 0
127639.0 665149.0 0
129220.0 669977.0 0
133331.0 666075.0 0
139274.0 665466.0 0
144914.0 666974.0 0
149829.0 667658.0 0
153752.0 665702.0 0
157926.0 668728.0 0
168205.0 666788.0 0
173774.0 666940.0 0
179777.0 666691.0 0
184241.0 667303.0 0
192838.0 666546.0 0
196819.0 665364.0 0
201001.0 666899.0 0
206709.0 666713.0 0
212806.0 666758.0 0
218381.0 666583.0 0
222676.0 667156.0 0
231984.0 666554.0 0
237396.0 666867.0 0
242939.0 665663.0 0
241679.0 669881.0 0
247903.0 667379.0 0
252457.0 665294.0 0
256744.0 666803.0 0
261282.0 665307.0 0
266042.0 665419.0 0
270601.0 666310.0 0
276201.0 667182.0 0
282604.0 666570.0 0
288815.0 667526.0 0
294579.0 667549.0 0
299706.0 665507.0 0
304563.0 666270.0 0
312311.0 666906.0 0
316951.0 666006.0 0
321640.0 667858.0 0
325559.0 666567.0 0
330781.0 667415.0 0
336393.0 666157.0 0
341802.0 665885.0 0
351862.0 665270.0 0
347903.0 669718.0 0
358879.0 665797.0 0
361966.0 668062.0 0
357963.0 669696.0 0
366595.0 668255.0 0
377348.0 666024.0 0
373493.0 666243.0 0
381156.0 665911.0 0
386217.0 666964.0 0
394719.0 667542.0 0
399188.0 666396.0 0
403999.0 666390.0 0
411924.0 667309.0 0
417901.0 666447.0 0
422668.0 669886.0 0
427814.0 665380.0 0
424280.0 666834.0 0
431979.0 667313.0 0
437128.0 666135.0 0
441402.0 666160.0 0
446791.0 666949.0 0
451928.0 665353.0 0
456861.0 667238.0 0
461721.0 665992.0 0
466575.0 666826.0 0
471793.0 666255.0 0
478119.0 667299.0 0
482792.0 665283.0 0
487304.0 667482.0 0
492957.0 668845.0 0
497869.0 666723.0 0
9506.67 672589.0 0
18070.0 671537.0 0
24354.5 670334.0 0
23473.4 675162.0 0
28937.8 673187.0 0
34991.1 671633.0 0
38936.9 671045.0 0
40312.2 674848.0 0
46891.7 674295.0 0
52834.5 672815.0 0
61520.6 675264.0 0
66387.4 672376.0 0
71660.9 671917.0 0
77044.7 670374.0 0
82045.3 672895.0 0
91073.2 672052.0 0
96238.2 672262.0 0
101423.0 671931.0 0
107272.0 670745.0 0
113008.0 673034.0 0
123585.0 670494.0 0
133203.0 671152.0 0
138115.0 671011.0 0
143635.0 672788.0 0
148067.0 671030.0 0
153126.0 671824.0 0
163094.0 671368.0 0
169361.0 671777.0 0
174275.0 672354.0 0
183366.0 671351.0 0
178667.0 671624.0 0
188182.0 670262.0 0
192716.0 670906.0 0
197307.0 670700.0 0
202720.0 671345.0 0
208542.0 671393.0 0
213158.0 672567.0 0
217817.0 671162.0 0
222622.0 671718.0 0
228035.0 670562.0 0
233159.0 671026.0 0
237592.0 672273.0 0
241646.0 675276.0 0
245608.0 672359.0 0
250000.0 672079.0 0
254908.0 672013.0 0
261391.0 671108.0 0
268157.0 670789.0 0
273797.0 672282.0 0
279321.0 671963.0 0
283620.0 671507.0 0
287119.0 672526.0 0
291493.0 671848.0 0
296278.0 672708.0 0
301531.0 670866.0 0
308092.0 670897.0 0
313765.0 671294.0 0
318132.0 670390.0 0
317370.0 674771.0 0
322068.0 672445.0 0
326466.0 671005.0 0
330881.0 673138.0 0
335167.0 670887.0 0
340193.0 671189.0 0
347163.0 675110.0 0
353225.0 670861.0 0
356950.0 673915.0 0
361644.0 672464.0 0
366411.0 673114.0 0
371323.0 670414.0 0
376828.0 670876.0 0
373365.0 675210.0 0
381987.0 670810.0 0
385840.0 671810.0 0
391025.0 671775.0 0
397809.0 670262.0 0
396437.0 674555.0 0
401385.0 670486.0 0
407395.0 670477.0 0
413072.0 672768.0 0
418803.0 672570.0 0
427016.0 670692.0 0
431433.0 672381.0 0
436705.0 670950.0 0
441840.0 671574.0 0
445962.0 671784.0 0
451411.0 671267.0 0
457698.0 672380.0 0
462082.0 670537.0 0
462674.0 675287.0 0
466019.0 671141.0 0
467793.0 675161.0 0
471360.0 671755.0 0
475882.0 671891.0 0
482442.0 671249.0 0
487428.0 673166.0 0
492261.0 673746.0 0
497481.0 671471.0 0
3712.91 675976.0 0
9054.78 679633.0 0
13764.8 676726.0 0
19223.5 678682.0 0
27226.8 678403.0 0
33077.8 677773.0 0
43902.3 679553.0 0
50554.5 678611.0 0
56017.4 677865.0 0
67181.9 678006.0 0
73059.0 677676.0 0
77709.8 675539.0 0
81888.2 678327.0 0
86627.6 675801.0 0
91624.7 677742.0 0
96703.3 676855.0 0
101665.0 677504.0 0
107764.0 677566.0 0
114564.0 678041.0 0
118175.0 675265.0 0
122309.0 678226.0 0
117870.0 680066.0 0
127901.0 675605.0 0
134453.0 675939.0 0
140096.0 676779.0 0
144662.0 678994.0 0
148711.0 675672.0 0
153217.0 676975.0 0
158231.0 675604.0 0
168289.0 675992.0 0
164256.0 677547.0 0
172507.0 676960.0 0
178270.0 676900.0 0
183421.0 675988.0 0
188554.0 675682.0 0
194486.0 675662.0 0
197950.0 680023.0 0
199586.0 676220.0 0
203102.0 676643.0 0
207133.0 675785.0 0
212445.0 677315.0 0
217399.0 676036.0 0
222205.0 676474.0 0
227128.0 676162.0 0
232057.0 675432.0 0
236810.0 677391.0 0
242214.0 680365.0 0
246731.0 677448.0 0
251693.0 676070.0 0
257041.0 677845.0 0
263690.0 677722.0 0
268831.0 675962.0 0
273163.0 677439.0 0
277973.0 676945.0 0
283419.0 675911.0 0
287844.0 676160.0 0
293022.0 676305.0 0
296433.0 676605.0 0
300250.0 676652.0 0
296361.0 679851.0 0
306485.0 677301.0 0
312449.0 676262.0 0
317094.0 680160.0 0
321477.0 676937.0 0
326568.0 676272.0 0
332688.0 678003.0 0
337801.0 676011.0 0
342286.0 675659.0 0
341834.0 680349.0 0
352569.0 676366.0 0
358282.0 679375.0 0
363547.0 676766.0 0
369064.0 676265.0 0
378127.0 676458.0 0
382715.0 677578.0 0
387204.0 675754.0 0
391791.0 677401.0 0
402229.0 675338.0 0
408257.0 676377.0 0
413520.0 677468.0 0
418406.0 678580.0 0
423575.0 675839.0 0
427478.0 675484.0 0
428264.0 679365.0 0
432700.0 676418.0 0
437035.0 676505.0 0
442013.0 675971.0 0
442058.0 680294.0 0
448465.0 676328.0 0
453669.0 676256.0 0
458157.0 677382.0 0
465936.0 679971.0 0
473033.0 677446.0 0
478949.0 675570.0 0
484231.0 677466.0 0
488593.0 677219.0 0
493815.0 677564.0 0
497977.0 675985.0 0
3228.94 682896.0 0
8550.41 684794.0 0
14291.9 682756.0 0
19336.0 683809.0 0
23738.8 682334.0 0
28845.6 682975.0 0
33621.6 683337.0 0
38256.5 680834.0 0
43048.9 685350.0 0
48030.6 682631.0 0
52714.0 683688.0 0
57879.0 682337.0 0
61386.6 680483.0 0
64814.5 682413.0 0
73806.4 682696.0 0
77268.2 681133.0 0
86246.4 680952.0 0
81834.5 683606.0 0
90602.3 682394.0 0
95461.8 681973.0 0
100952.0 682713.0 0
106262.0 683610.0 0
112209.0 681672.0 0
116476.0 685373.0 0
121418.0 683130.0 0
127053.0 682431.0 0
132282.0 680673.0 0
137318.0 681409.0 0
142346.0 683611.0 0
148760.0 681915.0 0
154051.0 681683.0 0
159802.0 681567.0 0
165094.0 683277.0 0
168899.0 680841.0 0
173044.0 682291.0 0
177400.0 681628.0 0
181829.0 680687.0 0
186936.0 680720.0 0
192736.0 681999.0 0
198766.0 685140.0 0
202881.0 681107.0 0
208688.0 681022.0 0
205607.0 685454.0 0
214150.0 681404.0 0
218403.0 680851.0 0
222510.0 681119.0 0
226766.0 681058.0 0
232123.0 680884.0 0
238159.0 681619.0 0
247139.0 682489.0 0
252171.0 680596.0 0
251918.0 685140.0 0
257494.0 682760.0 0
261062.0 682338.0 0
269066.0 681090.0 0
274089.0 681872.0 0
278630.0 681736.0 0
283417.0 681149.0 0
287664.0 681203.0 0
291909.0 680942.0 0
296251.0 684280.0 0
301174.0 682437.0 0
306242.0 682509.0 0
311226.0 682032.0 0
323237.0 681661.0 0
328529.0 681309.0 0
332766.0 682557.0 0
336905.0 681114.0 0
347329.0 680805.0 0
352777.0 681753.0 0
367189.0 680788.0 0
362707.0 681824.0 0
373191.0 680744.0 0
374223.0 685497.0 0
378593.0 681272.0 0
387524.0 680887.0 0
382997.0 681927.0 0
391791.0 682517.0 0
395831.0 680468.0 0
401232.0 680855.0 0
398093.0 685080.0 0
406630.0 682276.0 0
411246.0 680788.0 0
414798.0 681424.0 0
417048.0 685516.0 0
423396.0 681466.0 0
433142.0 681333.0 0
438132.0 680782.0 0
442670.0 685169.0 0
446040.0 680874.0 0
451569.0 681444.0 0
456416.0 680898.0 0
457831.0 685030.0 0
460868.0 681091.0 0
466475.0 685315.0 0
470406.0 682461.0 0
475770.0 683333.0 0
480286.0 680469.0 0
484283.0 682442.0 0
490446.0 682433.0 0
497110.0 681008.0 0
2050.59 688037.0 0
6271.28 688867.0 0
12159.5 688190.0 0
17755.8 688479.0 0
22041.6 686459.0 0
26153.3 686984.0 0
32472.7 687568.0 0
37416.7 687182.0 0
41536.6 690066.0 0
48190.7 687442.0 0
52907.8 689570.0 0
56928.2 686566.0 0
62540.1 686861.0 0
68924.9 685540.0 0
73591.0 687484.0 0
77600.8 686384.0 0
83028.2 688136.0 0
87342.9 686024.0 0
93128.8 686803.0 0
97652.6 686101.0 0
97014.3 690387.0 0
102270.0 687626.0 0
106350.0 688026.0 0
110659.0 686587.0 0
121554.0 687685.0 0
126236.0 688214.0 0
133272.0 685591.0 0
135908.0 690061.0 0
138040.0 686526.0 0
142235.0 688498.0 0
146491.0 686500.0 0
151287.0 686091.0 0
156157.0 687204.0 0
161068.0 686697.0 0
165386.0 688571.0 0
170508.0 686960.0 0
176189.0 686278.0 0
182010.0 686238.0 0
188085.0 686231.0 0
193603.0 688057.0 0
202407.0 687807.0 0
212547.0 685940.0 0
216931.0 686199.0 0
216112.0 689952.0 0
221210.0 685857.0 0
226655.0 686246.0 0
231585.0 685988.0 0
236864.0 686457.0 0
243126.0 685822.0 0
247965.0 686510.0 0
256425.0 686704.0 0
261195.0 686632.0 0
266140.0 685999.0 0
271054.0 686056.0 0
276048.0 686303.0 0
282487.0 685918.0 0
283214.0 690452.0 0
286998.0 686032.0 0
287038.0 690258.0 0
291679.0 685958.0 0
296773.0 689167.0 0
301908.0 687989.0 0
307913.0 685889.0 0
306449.0 689661.0 0
316106.0 685742.0 0
311621.0 687424.0 0
321388.0 686755.0 0
325707.0 685597.0 0
330153.0 686580.0 0
335475.0 685841.0 0
341204.0 686066.0 0
347543.0 686953.0 0
353674.0 687189.0 0
360136.0 686094.0 0
366449.0 686685.0 0
371193.0 688099.0 0
378730.0 686639.0 0
383637.0 686056.0 0
388858.0 686432.0 0
392630.0 689556.0 0
393776.0 685963.0 0
402920.0 686224.0 0
402508.0 689845.0 0
407512.0 685810.0 0
407102.0 690452.0 0
411145.0 685634.0 0
422140.0 686098.0 0
427430.0 685920.0 0
423767.0 690232.0 0
432554.0 686073.0 0
437001.0 685557.0 0
438383.0 689863.0 0
448034.0 685650.0 0
452908.0 687330.0 0
457634.0 689809.0 0
462109.0 687425.0 0
472293.0 686679.0 0
476893.0 688562.0 0
480910.0 685909.0 0
486101.0 687682.0 0
493084.0 688170.0 0
497547.0 686330.0 0
3233.14 692914.0 0
8023.29 692778.0 0
12505.5 693189.0 0
17395.8 694018.0 0
20212.8 691819.0 0
23292.9 690662.0 0
24194.6 694871.0 0
29344.5 691613.0 0
36779.8 693382.0 0
42248.4 694322.0 0
47358.4 691717.0 0
50653.0 693524.0 0
57568.6 691463.0 0
62024.8 692017.0 0
66414.2 690985.0 0
71152.2 690657.0 0
75932.0 691069.0 0
81215.6 692901.0 0
87151.1 691752.0 0
92473.3 691742.0 0
101494.0 692330.0 0
97076.3 695355.0 0
106536.0 692402.0 0
112180.0 692194.0 0
118319.0 692020.0 0
123592.0 691953.0 0
127215.0 695619.0 0
130807.0 690949.0 0
139861.0 692656.0 0
143541.0 691784.0 0
147468.0 691496.0 0
152523.0 690757.0 0
157362.0 691667.0 0
154588.0 695584.0 0
161855.0 691968.0 0
167924.0 692104.0 0
172756.0 692382.0 0
177625.0 690868.0 0
181817.0 691488.0 0
187497.0 692047.0 0
192334.0 692494.0 0
191975.0 695538.0 0
198313.0 690737.0 0
202832.0 691371.0 0
208557.0 690930.0 0
213689.0 692832.0 0
220583.0 690991.0 0
225706.0 691792.0 0
230974.0 690675.0 0
235799.0 691907.0 0
240454.0 691773.0 0
246267.0 691535.0 0
253235.0 691826.0 0
259624.0 691528.0 0
264257.0 691863.0 0
268938.0 690985.0 0
273384.0 690770.0 0
278411.0 691337.0 0
287736.0 694954.0 0
291449.0 691442.0 0
300844.0 692653.0 0
296136.0 694787.0 0
305806.0 695317.0 0
310289.0 691875.0 0
316127.0 691940.0 0
322166.0 692243.0 0
326671.0 690664.0 0
331593.0 692029.0 0
337338.0 691196.0 0
342506.0 690916.0 0
346550.0 692640.0 0
341897.0 695200.0 0
351045.0 691457.0 0
357410.0 692031.0 0
363389.0 691597.0 0
368504.0 690998.0 0
367609.0 695432.0 0
372311.0 695138.0 0
374930.0 691102.0 0
379675.0 691286.0 0
384175.0 690863.0 0
389023.0 691892.0 0
397463.0 690630.0 0
402102.0 693170.0 0
413270.0 690718.0 0
418702.0 691140.0 0
428370.0 691589.0 0
433630.0 690763.0 0
437473.0 693399.0 0
442817.0 691016.0 0
448377.0 690846.0 0
453835.0 692682.0 0
461510.0 691918.0 0
467150.0 691095.0 0
472845.0 690810.0 0
473917.0 695469.0 0
478081.0 692031.0 0
482069.0 691325.0 0
489696.0 691676.0 0
494111.0 692406.0 0
497892.0 690875.0 0
2915.73 698671.0 0
8518.89 697567.0 0
14225.4 697687.0 0
20671.7 697585.0 0
27526.4 695729.0 0
26097.0 699961.0 0
31053.6 696874.0 0
35214.1 698483.0 0
39672.9 698193.0 0
46809.4 695977.0 0
50407.5 698199.0 0
46427.9 700866.0 0
54918.4 696444.0 0
60684.2 696442.0 0
65939.7 696171.0 0
68090.6 700498.0 0
72426.5 696616.0 0
78581.5 697696.0 0
82282.3 697146.0 0
85706.1 696677.0 0
91518.6 697369.0 0
102973.0 698024.0 0
109029.0 697079.0 0
113557.0 696890.0 0
116880.0 699431.0 0
121562.0 697027.0 0
133690.0 696863.0 0
140074.0 698044.0 0
144862.0 695836.0 0
149555.0 697132.0 0
159606.0 696151.0 0
158185.0 700376.0 0
163776.0 696479.0 0
167700.0 696059.0 0
171723.0 697393.0 0
177138.0 696653.0 0
173917.0 700473.0 0
183497.0 696505.0 0
188647.0 696802.0 0
192268.0 700387.0 0
197311.0 696532.0 0
203368.0 696105.0 0
201833.0 700806.0 0
209158.0 697979.0 0
213937.0 696291.0 0
217707.0 695953.0 0
214440.0 700660.0 0
222337.0 696147.0 0
227470.0 696695.0 0
232934.0 696240.0 0
238569.0 696515.0 0
242979.0 696096.0 0
242466.0 700771.0 0
247845.0 697296.0 0
251812.0 696918.0 0
255833.0 697440.0 0
260907.0 696707.0 0
265993.0 695846.0 0
271890.0 696546.0 0
277057.0 695867.0 0
277640.0 700432.0 0
282273.0 696020.0 0
286772.0 700198.0 0
291599.0 697819.0 0
300603.0 697172.0 0
307597.0 700728.0 0
311744.0 696550.0 0
316916.0 698393.0 0
322006.0 697050.0 0
327507.0 696152.0 0
332695.0 696667.0 0
337136.0 696668.0 0
342931.0 700146.0 0
351913.0 696090.0 0
347036.0 697660.0 0
357672.0 698315.0 0
362906.0 696723.0 0
366470.0 699994.0 0
372199.0 700121.0 0
376881.0 696050.0 0
376983.0 700566.0 0
382033.0 695973.0 0
381062.0 700742.0 0
387555.0 697242.0 0
393964.0 696123.0 0
399559.0 696935.0 0
405538.0 697490.0 0
411499.0 695945.0 0
417190.0 696591.0 0
423344.0 695908.0 0
429684.0 696975.0 0
435223.0 696862.0 0
440974.0 695973.0 0
443009.0 700827.0 0
446573.0 696455.0 0
451860.0 697178.0 0
458297.0 696080.0 0
464009.0 696152.0 0
469183.0 696500.0 0
472579.0 699996.0 0
478648.0 696371.0 0
477301.0 700833.0 0
483120.0 695797.0 0
482276.0 700646.0 0
487750.0 696423.0 0
492532.0 696225.0 0
497284.0 695986.0 0
1225.54 702449.0 0
6887.86 702037.0 0
11653.8 701466.0 0
17505.4 701362.0 0
18008.4 705875.0 0
21642.4 701426.0 0
31896.3 701670.0 0
37451.9 703202.0 0
42248.3 701665.0 0
47727.6 705866.0 0
52571.1 702454.0 0
58261.0 701288.0 0
63533.9 700861.0 0
62060.9 705806.0 0
71628.9 702769.0 0
76716.2 702666.0 0
81871.3 701300.0 0
86960.8 701296.0 0
91677.3 703652.0 0
97255.0 701565.0 0
102237.0 703351.0 0
107144.0 702326.0 0
112255.0 701347.0 0
112866.0 705931.0 0
117968.0 704313.0 0
122768.0 702193.0 0
128653.0 701806.0 0
135149.0 703639.0 0
139526.0 702186.0 0
144444.0 700934.0 0
143341.0 705906.0 0
148528.0 702241.0 0
153153.0 701066.0 0
157146.0 705884.0 0
162766.0 700970.0 0
162903.0 705743.0 0
168049.0 700939.0 0
172944.0 704845.0 0
177337.0 702129.0 0
181678.0 701458.0 0
186569.0 701506.0 0
192516.0 705918.0 0
197528.0 702172.0 0
206173.0 703425.0 0
218838.0 701283.0 0
222500.0 701335.0 0
226832.0 702350.0 0
232446.0 701325.0 0
237235.0 701643.0 0
242755.0 705319.0 0
247197.0 702154.0 0
252500.0 701339.0 0
252088.0 705604.0 0
256728.0 702089.0 0
261564.0 701899.0 0
267236.0 701511.0 0
272731.0 702376.0 0
282165.0 703176.0 0
291423.0 702822.0 0
296784.0 700906.0 0
302665.0 701532.0 0
308211.0 705150.0 0
312260.0 701655.0 0
320958.0 701971.0 0
316486.0 703244.0 0
326432.0 702068.0 0
331746.0 701150.0 0
337573.0 702345.0 0
347468.0 702722.0 0
352855.0 701833.0 0
357989.0 703823.0 0
362336.0 701158.0 0
368508.0 704290.0 0
378308.0 704965.0 0
385484.0 702613.0 0
391324.0 702133.0 0
396878.0 701307.0 0
401795.0 701848.0 0
407746.0 703132.0 0
412927.0 700871.0 0
417882.0 702300.0 0
422508.0 701068.0 0
422228.0 705617.0 0
426753.0 701673.0 0
432809.0 701018.0 0
430372.0 704331.0 0
437582.0 701552.0 0
448174.0 701913.0 0
452398.0 701133.0 0
456582.0 701362.0 0
461870.0 701158.0 0
467433.0 701408.0 0
464437.0 705208.0 0
474374.0 704689.0 0
479370.0 705740.0 0
483946.0 705287.0 0
488484.0 701828.0 0
492999.0 700914.0 0
492622.0 704853.0 0
497500.0 700982.0 0
2838.28 706178.0 0
8065.33 707012.0 0
13259.8 706195.0 0
11032.4 711022.0 0
22047.6 708021.0 0
27311.0 706001.0 0
32976.4 706948.0 0
37611.6 708891.0 0
42197.1 706706.0 0
47141.5 711029.0 0
52121.6 708163.0 0
56778.6 706588.0 0
67603.2 706071.0 0
67177.2 711010.0 0
73029.3 707810.0 0
78272.2 707854.0 0
84188.8 706760.0 0
89704.0 708059.0 0
94406.7 708022.0 0
99062.1 706878.0 0
104158.0 707820.0 0
108907.0 706564.0 0
115897.0 708228.0 0
122072.0 707179.0 0
128133.0 709193.0 0
134933.0 708852.0 0
138926.0 707211.0 0
146964.0 708124.0 0
143374.0 710934.0 0
150941.0 706315.0 0
162830.0 710824.0 0
167779.0 706941.0 0
177988.0 706679.0 0
183204.0 706236.0 0
188061.0 706211.0 0
187123.0 710977.0 0
197198.0 706810.0 0
198717.0 710778.0 0
202500.0 706212.0 0
202912.0 710839.0 0
207994.0 708033.0 0
212630.0 706005.0 0
217500.0 706167.0 0
217524.0 710936.0 0
222500.0 706036.0 0
227997.0 707664.0 0
232709.0 706026.0 0
231483.0 710822.0 0
237717.0 706555.0 0
241593.0 709920.0 0
247784.0 706517.0 0
253440.0 710799.0 0
256417.0 706311.0 0
260826.0 706898.0 0
265606.0 706690.0 0
270835.0 707462.0 0
277126.0 706474.0 0
282228.0 707580.0 0
286887.0 706288.0 0
292438.0 707968.0 0
298558.0 707269.0 0
304013.0 706207.0 0
306225.0 710395.0 0
312843.0 706875.0 0
318512.0 707836.0 0
323346.0 706087.0 0
327904.0 707299.0 0
333232.0 706720.0 0
337963.0 708206.0 0
342775.0 706142.0 0
351202.0 706890.0 0
347043.0 709524.0 0
356609.0 709153.0 0
362903.0 706801.0 0
373194.0 707975.0 0
382971.0 707055.0 0
388402.0 707463.0 0
393438.0 707578.0 0
398012.0 706410.0 0
403363.0 706680.0 0
407962.0 708410.0 0
412588.0 706096.0 0
417652.0 707461.0 0
422665.0 710691.0 0
426983.0 707495.0 0
435001.0 707019.0 0
441183.0 706196.0 0
446564.0 708790.0 0
452494.0 706282.0 0
459291.0 706662.0 0
469175.0 706966.0 0
484207.0 709422.0 0
488160.0 707074.0 0
492975.0 710332.0 0
497500.0 705955.0 0
1783.21 711261.0 0
2251.04 715679.0 0
5831.39 711698.0 0
16948.8 711085.0 0
23508.7 713001.0 0
28294.5 711496.0 0
33347.8 712334.0 0
38140.0 713388.0 0
42469.1 711848.0 0
51792.4 712903.0 0
57142.5 712149.0 0
62515.3 711052.0 0
71252.4 712672.0 0
76046.8 712234.0 0
81805.0 713296.0 0
87143.7 711546.0 0
91831.5 712487.0 0
87338.9 715983.0 0
97667.7 712151.0 0
103095.0 713460.0 0
108492.0 711629.0 0
113859.0 712042.0 0
119160.0 711467.0 0
123771.0 713928.0 0
128020.0 715196.0 0
133437.0 713091.0 0
138476.0 711726.0 0
146964.0 712073.0 0
151399.0 712111.0 0
148109.0 716111.0 0
157343.0 712226.0 0
162927.0 715923.0 0
167760.0 711942.0 0
173429.0 711128.0 0
177975.0 712048.0 0
177548.0 715957.0 0
181782.0 711502.0 0
186775.0 716074.0 0
193339.0 711821.0 0
203467.0 715730.0 0
207276.0 712395.0 0
212286.0 711407.0 0
218101.0 715999.0 0
222458.0 711061.0 0
222118.0 715979.0 0
226555.0 712193.0 0
236424.0 711264.0 0
242529.0 715835.0 0
247223.0 711639.0 0
258817.0 711254.0 0
256716.0 715472.0 0
262822.0 711061.0 0
267246.0 711442.0 0
273187.0 711980.0 0
277631.0 712015.0 0
282059.0 711130.0 0
283254.0 715338.0 0
286980.0 711490.0 0
291041.0 712549.0 0
296121.0 713298.0 0
301849.0 711453.0 0
310615.0 711090.0 0
315082.0 712477.0 0
320142.0 712799.0 0
325682.0 712684.0 0
331383.0 711710.0 0
336153.0 712259.0 0
342057.0 712826.0 0
351431.0 712312.0 0
347287.0 714665.0 0
356271.0 714990.0 0
361381.0 712930.0 0
367682.0 711578.0 0
372819.0 714663.0 0
378691.0 712227.0 0
382420.0 716127.0 0
384827.0 711627.0 0
389664.0 712810.0 0
394574.0 711961.0 0
399908.0 711681.0 0
403952.0 711047.0 0
407218.0 713346.0 0
412918.0 711457.0 0
418104.0 712172.0 0
422821.0 715852.0 0
427388.0 712749.0 0
431858.0 711144.0 0
432616.0 715937.0 0
436465.0 712282.0 0
441498.0 712004.0 0
446103.0 713908.0 0
451489.0 712972.0 0
457330.0 712905.0 0
462110.0 711582.0 0
467334.0 712959.0 0
473623.0 711589.0 0
479770.0 711175.0 0
487457.0 713359.0 0
497909.0 712208.0 0
5570.11 717686.0 0
10570.0 716948.0 0
17130.2 717576.0 0
22605.4 717806.0 0
27766.0 716914.0 0
33351.1 717797.0 0
38757.2 718207.0 0
42898.2 719918.0 0
47187.3 716834.0 0
53079.6 717912.0 0
58266.8 717483.0 0
63574.3 716420.0 0
68442.4 716253.0 0
72813.3 717220.0 0
77442.2 717035.0 0
82538.0 718241.0 0
92543.2 717640.0 0
98288.8 717667.0 0
102944.0 718171.0 0
107323.0 716841.0 0
112355.0 716261.0 0
117383.0 716246.0 0
121616.0 717678.0 0
125669.0 718457.0 0
131897.0 718655.0 0
137320.0 716727.0 0
142968.0 716211.0 0
153170.0 717558.0 0
158442.0 717578.0 0
167371.0 716479.0 0
172168.0 716991.0 0
182500.0 716431.0 0
191065.0 717494.0 0
197770.0 716689.0 0
208230.0 716916.0 0
213263.0 716534.0 0
225929.0 716478.0 0
230917.0 716318.0 0
236704.0 716476.0 0
248080.0 717174.0 0
252481.0 716971.0 0
261180.0 717449.0 0
266733.0 717229.0 0
272418.0 716639.0 0
277908.0 717254.0 0
288570.0 716834.0 0
293460.0 717714.0 0
297368.0 719162.0 0
301186.0 716184.0 0
307581.0 716502.0 0
313557.0 717413.0 0
318649.0 717560.0 0
323228.0 717205.0 0
327501.0 718307.0 0
332240.0 716617.0 0
337569.0 717627.0 0
342850.0 718767.0 0
347272.0 718641.0 0
351832.0 717736.0 0
359108.0 718973.0 0
363586.0 717710.0 0
367668.0 716964.0 0
372546.0 719158.0 0
377190.0 717589.0 0
386600.0 716988.0 0
392321.0 717158.0 0
397509.0 716722.0 0
402444.0 716228.0 0
406583.0 718349.0 0
411677.0 716603.0 0
417383.0 717556.0 0
427678.0 717959.0 0
438098.0 716951.0 0
443278.0 717702.0 0
448185.0 717703.0 0
452850.0 718724.0 0
457478.0 717544.0 0
462307.0 716698.0 0
467065.0 718330.0 0
472265.0 717795.0 0
477756.0 716315.0 0
482850.0 716317.0 0
487930.0 718479.0 0
492474.0 716522.0 0
497462.0 716207.0 0
POINT_DATA 5000
SCALARS Radius float 1
LOOKUP_TABLE default
5113.21 4107.03 4478.15 5379.87 5925.6 4792.73 4736.58 4931.38 3485.26 4329.05 4151.94 4049.23 5337.48 6124.89 5708.81 5252.48 4780.03 5495.39 3996.0 3856.1 4665.12 3383.4 4133.88 4834.9 3850.77 6044.04 5415.48 5120.0 3863.18 4998.37 6182.6 5492.18 5258.36 5061.3 3642.12 3163.97 5812.43 5906.14 7513.1 5254.28 5733.48 4672.91 5580.89 5645.7 6810.52 5840.26 6110.27 5561.06 5073.35 5670.04 4380.59 6716.79 5759.91 7613.27 5529.52 4951.03 5255.32 6037.08 5096.78 6756.95 4129.43 6324.23 3843.58 3320.52 4194.5 4270.53 5344.25 5191.63 4593.7 4216.92 4150.99 4177.94 4742.68 5634.83 5782.6 4862.21 3929.19 4502.5 3771.48 4043.57 5681.38 4138.42 4501.51 3708.04 5513.6 3240.09 4556.36 6082.81 3191.99 4685.34 5601.05 4929.8 3586.91 3103.0 3554.9 4015.92 5542.21 4487.31 3936.02 4044.71 5980.74 4094.62 4927.02 5546.39 5325.36 5484.83 5085.53 5351.6 2356.98 4730.36 4715.55 5867.73 3951.75 5013.56 4499.64 4375.68 5542.27 5054.98 5122.66 5484.19 3557.27 4688.68 4436.4 4402.52 4517.56 4182.53 5903.42 3588.44 3955.56 3761.32 5176.86 4118.05 4366.19 5553.16 3672.51 2938.66 4940.78 4231.61 4008.92 3615.22 3942.53 3379.84 3589.27 4827.82 3997.1 3607.45 3260.67 5123.52 3038.33 4392.68 4333.2 7199.21 4523.7 2240.39 5091.39 5293.9 3912.37 6142.94 4727.24 4602.25 4790.08 5082.47 4763.45 5445.87 3815.26 4704.72 4344.58 4571.7 5495.84 6268.1 3471.03 5253.55 5820.48 7034.11 6261.42 4271.69 5499.11 5922.5 5198.77 5987.17 6013.14 4901.41 5110.37 5664.98 4382.74 4651.28 4384.42 3693.63 4516.43 5481.78 5043.05 5816.2 5109.54 6483.19 5945.65 6759.9 5538.89 7021.47 5416.38 6059.59 2720.68 4955.55 5701.86 3563.63 4238.81 4468.59 5885.03 6030.06 2837.58 5170.02 5200.76 4927.31 5017.13 4862.64 5185.34 4432.58 6684.56 3968.64 4688.67 2635.86 5292.64 6166.5 5065.13 5936.02 4861.08 4003.05 5390.22 4805.87 4712.33 5227.21 5697.78 4667.36 4091.31 6372.62 4295.38 5615.42 7565.34 5923.5 4612.68 4973.83 6342.25 6691.39 5344.0 5135.69 6045.46 4245.72 5908.1 6048.7 5896.46 5022.8 4861.06 3784.5 6481.79 5320.28 5960.66 3979.26 6608.73 5011.84 6946.21 2586.12 5433.8 4011.77 4527.08 3633.87 4850.01 3970.25 5147.67 3979.82 2765.2 5011.31 5138.31 5264.06 6327.9 5927.43 6355.42 4362.19 5690.56 4948.92 3115.91 5637.59 4937.14 3307.12 5924.89 5693.81 4002.16 4174.52 3486.22 3829.13 6230.49 5418.62 4601.27 5493.32 5740.68 5926.61 5836.15 3261.21 4345.55 6704.06 3653.41 3871.88 5325.02 3856.01 5246.2 5279.39 3673.74 5205.43 6116.18 7447.37 4924.6 4385.06 4733.32 7184.19 2899.43 2924.37 5305.17 3867.67 4290.3 5399.73 4660.72 3888.21 6038.78 6902.81 6644.76 4254.17 5629.19 5090.24 5740.84 5530.87 4310.18 4281.49 5978.9 4187.56 3629.62 4997.27 4840.84 4301.06 4020.32 4290.14 6562.18 4156.38 4541.21 4164.68 6133.92 3719.84 4178.4 5934.22 3780.23 3095.48 4166.08 5374.51 6739.08 4797.52 4796.58 4298.67 4962.09 3999.48 4203.26 4359.62 5188.81 6057.22 5062.71 6125.34 5347.48 4810.12 5643.58 5215.05 4292.06 5577.04 5006.58 4602.86 4659.59 3688.8 4548.16 3369.23 4048.37 5449.18 5492.26 5244.78 5762.84 3937.74 4749.8 4493.48 6084.86 5478.92 4778.34 5551.36 4138.16 6894.71 4684.5 3091.3 4414.54 5789.98 6458.82 7054.71 3641.64 5489.43 5747.75 4277.89 6051.14 4796.33 4195.44 5539.32 6496.85 5600.93 4874.39 5541.59 4390.66 4124.71 5728.85 4827.23 4911.47 5863.59 4381.97 6257.19 3255.82 2812.98 4065.69 5603.15 4695.45 6052.7 3921.18 3798.62 5891.05 5308.1 3666.57 5655.21 4786.6 4645.41 6445.94 5542.14 7134.64 4218.06 4716.19 5514.76 3456.98 3498.2 4877.67 3066.13 4302.5 6006.16 5316.75 7055.53 5669.65 5624.49 5762.59 4123.6 5224.12 7042.12 6326.39 4319.79 4471.58 4569.12 6098.14 5873.69 6222.42 5654.31 4730.41 3745.84 5690.26 4156.2 4497.59 5965.78 4374.35 6396.74 2775.04 3821.72 4986.77 6318.18 5586.81 3948.17 4551.24 4621.75 5358.59 4220.88 4515.71 6519.71 6640.13 5082.6 5810.84 4230.54 5094.44 3748.24 4655.49 4467.94 4850.81 6138.47 5527.54 5573.7 4727.62 5054.25 4055.8 7325.81 5280.17 5360.19 4794.96 6186.19 5083.08 6834.49 6337.56 5525.39 5803.39 4024.3 6394.38 5555.28 5242.73 4737.14 4686.65 5834.74 5556.96 5788.23 5581.75 6392.01 4907.89 6730.19 4937.02 4907.06 4073.93 3735.44 6043.3 5952.75 4433.59 4320.28 6122.55 2739.94 4931.53 5480.13 6308.71 3323.28 6695.82 6405.76 5794.24 5105.16 5448.61 5050.65 4827.33 6009.88 5013.67 5513.57 5826.04 5339.78 4143.78 7092.87 4850.14 5163.55 4819.73 6817.32 3382.7 6471.55 2965.01 5499.39 6643.85 3637.61 4472.17 5501.93 5463.38 5945.21 4938.74 5696.88 5607.14 3923.03 5975.63 5252.34 4274.61 4138.46 2965.79 6898.19 6035.6 4481.53 5330.45 4581.13 3610.4 4219.07 6387.01 5367.52 3092.35 4322.15 5210.03 5478.47 5351.39 6142.37 6061.47 4933.21 5375.47 6038.14 2540.31 5120.49 6029.66 5262.61 6302.8 5697.4 6038.2 4270.95 4005.44 5206.78 6732.43 6425.26 5143.58 4484.76 4839.34 4840.01 2980.99 7933.0 4455.12 3998.5 5173.87 5938.34 5380.13 5118.27 5169.36 5932.23 5791.61 3369.13 4479.66 3043.85 5461.13 4726.76 3599.45 5489.34 5163.9 5708.14 5537.72 3920.42 6332.36 6155.31 4223.33 5911.67 5709.62 5835.78 4127.74 2476.04 4678.38 3942.07 7443.72 3937.08 5260.34 5206.48 5729.23 5226.0 3365.82 4538.95 4970.88 4666.81 4763.66 4636.5 4940.42 3954.91 3703.1 5923.4 5085.71 6116.33 5644.82 6343.14 5774.97 5462.21 5750.71 5470.77 4831.47 4643.85 6062.05 4004.04 4289.17 5082.74 5564.02 6072.45 4410.55 5526.14 5137.34 5423.0 3856.59 5413.79 6338.89 6202.55 5025.39 4714.54 3629.96 5893.5 3320.11 5030.91 6022.17 5119.37 6163.38 4566.18 4723.12 3459.9 4964.09 5201.36 5024.9 4306.53 5409.61 5094.81 5972.06 5713.22 5555.88 5028.96 4359.04 3866.16 3794.63 6362.12 3778.1 5152.36 4511.82 5611.2 4220.65 6820.42 4816.2 4894.16 4896.52 5711.87 4751.02 3372.79 4941.22 5282.64 4715.72 4669.66 4808.52 5367.2 5607.24 5053.92 5839.13 6352.26 5495.68 4863.72 5002.48 4262.82 5102.36 8332.24 4342.9 4553.56 5329.64 4051.44 6049.55 5941.72 5991.09 5133.97 6600.94 4788.58 5371.02 6155.1 4709.35 6586.45 4373.3 5029.78 4750.78 4163.5 5724.64 5965.15 4780.2 5078.86 5100.1 6090.91 4946.42 4963.34 5019.93 5081.78 4260.92 6263.44 5960.56 4118.84 4020.95 6313.06 3474.39 3493.7 6470.3 4200.03 4735.33 6915.83 5092.37 6444.77 7099.43 4287.63 5198.29 5315.4 6449.45 5077.33 3975.31 4746.52 3689.45 3824.16 5572.95 3868.18 6723.16 5584.06 7111.16 4547.19 3817.13 5507.24 3982.23 4583.31 4503.89 5806.08 4853.39 4997.27 4093.08 4809.42 5543.27 4717.05 5659.17 6135.57 5998.38 4312.67 5423.8 5861.71 3183.98 4989.15 5017.78 4524.28 5015.69 6175.81 4727.24 6677.09 5826.64 4829.35 5201.67 6321.41 4089.76 5526.55 3192.41 5184.56 4987.87 3315.57 5804.71 5046.33 4764.96 5727.3 4242.52 5356.51 3847.38 3818.59 3057.03 4087.15 4143.08 7500.97 6623.85 5228.18 5787.31 5065.11 5069.84 4050.9 4978.31 4241.89 4099.77 5054.74 4537.32 4656.78 5126.91 3600.43 5131.24 5196.67 5876.71 6262.72 3664.11 6515.84 2990.77 4888.6 4739.14 4918.77 3561.29 4371.99 4219.78 3885.86 3295.83 5235.29 4459.28 4479.94 6250.23 6413.02 4863.27 5862.86 6049.79 5374.98 4719.7 5274.19 6939.12 4406.4 5411.85 4844.57 4027.46 6314.07 5776.37 4516.28 3627.82 4044.45 5125.78 5344.43 4373.47 5045.38 5350.88 5372.61 3686.21 6480.17 5023.15 4377.07 6851.54 3813.22 5570.3 4336.42 5243.29 7589.94 3130.65 4449.22 5628.24 5856.11 5287.2 4109.88 4234.94 4562.29 5013.13 5080.66 4270.24 3417.33 4926.42 4164.13 4642.34 4520.1 4947.52 5874.89 4305.57 4293.03 6959.81 4389.21 3791.79 4424.7 4925.44 4754.05 6084.93 5215.15 3697.96 4739.42 5538.93 5020.12 2631.9 4745.45 5281.28 6255.18 4277.88 4668.71 4758.21 7228.46 3948.23 5978.82 5266.5 3927.99 5868.82 4948.98 5227.52 4414.48 4092.24 4981.9 5163.02 7144.24 4906.82 5687.83 5004.23 6442.69 6496.67 5474.8 6607.87 5117.47 4721.32 3163.78 4925.63 5882.65 4434.19 5187.7 4623.61 4188.3 6261.75 5177.64 4255.31 5453.3 4094.73 4407.9 3492.19 4440.57 4584.5 5122.63 4703.08 2315.64 6345.13 5226.56 5516.95 5313.22 4413.85 3999.94 4864.22 4470.98 5759.46 3921.08 4190.31 5678.96 5262.19 4244.9 6070.58 6034.41 5130.91 5402.24 4519.22 6445.22 5101.59 3844.9 3963.86 3848.93 4306.11 5935.47 3402.32 5903.66 4528.49 5004.67 5365.89 3327.49 5992.26 3960.8 5070.39 4980.85 5714.58 5110.45 5208.32 5248.77 4083.97 4607.02 5153.74 3895.51 4528.09 4165.81 5813.4 6291.51 4128.98 5882.89 6246.22 4951.47 4188.32 5246.61 4307.28 4100.38 5344.77 4723.48 4899.11 5097.87 4278.07 7267.18 5320.92 5269.18 4406.1 6362.14 5034.59 6719.88 5080.18 4454.63 5912.61 4523.88 3279.1 4066.38 4403.98 4560.84 4729.43 5776.57 4562.74 5598.74 7493.3 4814.55 6320.71 4648.04 3464.83 5698.77 6413.11 4305.16 3293.56 5092.28 5274.14 4965.89 4903.82 5746.28 4152.85 4082.47 5511.6 4338.08 4517.73 4378.3 5469.47 6134.99 4989.56 4718.54 6736.03 5548.29 6766.43 5916.16 4390.41 5599.49 4097.57 3905.51 5017.5 5563.79 6171.13 3901.8 5511.88 5083.41 7055.42 5486.68 6048.86 4285.32 5490.43 5022.28 5452.83 4959.34 4948.5 4527.02 4531.14 3695.36 4564.34 3838.56 4871.44 5076.35 6020.48 6375.99 5200.05 5234.29 5313.66 5419.37 4466.03 4511.54 5409.33 5196.0 4923.9 4973.78 3329.99 3947.47 3296.27 4713.25 4204.84 6243.0 6673.96 3556.85 5441.96 3435.9 5174.89 4288.3 5370.52 4652.29 5774.81 3746.31 5498.32 5027.98 5346.27 6475.1 4969.21 2691.29 2845.98 6256.02 5314.85 4305.43 5450.44 4942.77 4263.33 5592.32 5381.16 6193.35 6086.96 5233.78 3701.27 5653.9 5046.21 5683.26 5894.61 5139.5 5304.13 5944.09 5833.06 3527.05 4923.41 2477.07 4497.31 5384.76 5529.42 5257.12 5243.43 5659.95 5551.9 2908.7 4453.64 3757.34 6415.61 4687.64 4419.71 5660.16 4541.8 3838.47 2588.37 6235.57 3623.87 5412.31 3087.09 6934.37 6113.95 4050.08 3981.07 5452.42 5328.22 6853.85 2395.5 5941.61 4512.11 5782.48 6248.6 3836.45 5683.61 5100.25 6894.26 4986.51 5197.52 5178.99 5383.07 4591.87 5013.42 4790.78 4247.15 6552.22 5651.07 6248.81 5273.35 4645.58 2651.49 5512.23 5275.32 5985.29 4898.94 4178.15 4613.31 4733.04 6119.09 5788.66 5091.68 7531.29 5069.25 5048.89 3161.47 3991.03 6390.78 7435.25 6826.57 4788.87 4495.87 6022.72 4643.31 5527.33 5402.21 4989.09 4880.14 5289.52 4982.31 4307.48 3848.54 5941.4 5331.02 6510.17 5742.65 4871.96 4863.23 4402.67 5565.13 4470.61 4384.88 6887.27 6008.49 4806.34 4287.53 5612.21 4929.14 5945.08 3979.54 3306.14 5490.58 4863.79 4702.06 3830.46 6031.67 4689.15 6138.12 4428.78 5409.66 4537.14 4345.67 4765.72 4642.66 4752.14 5329.59 4888.12 5037.06 5512.16 5175.29 5842.56 5887.15 5203.08 7480.41 3423.15 4890.5 4488.85 3731.84 4901.07 5186.3 3436.15 3497.9 4151.76 4020.4 3493.47 4596.75 5443.58 4558.46 5805.86 4470.4 5311.03 5339.38 5255.12 6169.11 5615.35 4027.09 6422.84 4502.18 5379.09 4602.85 4962.77 5872.05 4853.02 4091.8 6259.23 5181.4 5670.2 4711.62 4247.23 4268.65 4694.83 5509.42 4354.08 4256.43 5936.36 4520.62 3903.75 4755.47 5935.03 4485.99 5127.16 5475.8 5314.69 6050.81 5543.46 4249.46 5965.81 3702.37 4750.17 5660.85 2330.66 4177.19 6917.52 3587.05 6229.37 6718.19 5282.91 4425.84 7256.35 4800.69 3555.86 6386.78 4631.83 4996.99 6081.14 5480.83 4220.46 4607.85 5128.57 6000.7 3169.67 5604.21 4968.03 3361.92 6710.88 5395.14 3967.48 6213.04 3685.13 6790.73 4655.16 5251.4 3867.19 5857.79 4039.91 5276.7 5036.58 6119.63 4950.97 4752.9 3197.63 4287.16 4863.96 5199.44 5191.08 4435.51 5374.07 5163.77 4588.7 3766.55 4579.69 3554.48 6496.52 5005.85 4216.17 6484.17 4721.02 4254.37 3374.08 4933.65 4031.78 6098.1 5708.99 4049.02 5346.68 5296.29 4611.53 4285.66 4896.11 5172.53 4135.62 5801.99 5534.94 5210.48 7552.94 5323.3 5088.44 4998.21 4662.56 4114.24 5349.31 2976.22 4649.22 5394.55 5094.52 4946.74 2682.24 5928.32 5229.48 5475.7 4016.18 5526.75 5435.74 4244.99 5327.45 5560.26 6185.89 3997.96 4439.35 3460.94 3990.25 3691.0 3758.07 4752.51 4236.14 4407.87 5733.62 5282.51 4460.92 3797.33 5945.89 4042.28 4105.55 4340.76 6566.1 6065.22 4221.28 4456.39 4896.39 3633.79 5421.53 5937.08 6070.3 5233.29 4312.56 4612.06 5204.04 4750.58 6667.68 5235.11 5211.38 6622.11 4590.55 5920.32 4255.85 5097.69 3988.3 6543.13 5149.72 5776.96 5464.25 5411.02 5301.47 4617.55 5424.88 4062.5 5415.85 8659.64 5683.95 6027.62 5010.2 6123.03 5966.61 5711.11 4575.94 4938.72 3546.71 5768.57 5564.23 5950.04 5687.85 4231.83 2435.33 6401.43 5020.71 2681.29 5094.48 3872.61 4238.4 4318.48 6132.95 4860.33 7644.38 6004.68 4051.34 6101.92 3627.55 6239.84 4635.6 4256.67 3457.48 5166.79 3931.07 3405.98 5417.15 3688.16 4681.72 4945.39 5996.33 3950.63 5415.19 4612.62 3619.07 4467.04 4275.57 6385.23 2983.99 2614.4 6363.92 6205.93 4923.24 5830.72 6184.4 3828.81 4373.45 4082.57 5255.18 5169.9 3004.16 4767.78 5235.17 4421.12 4779.5 5254.49 6649.96 4303.19 5514.84 5784.3 4256.57 3914.2 6088.68 4135.08 5620.74 4778.82 6124.08 5467.84 5053.95 5926.11 5253.37 5767.9 6515.8 5089.62 5869.4 4741.26 3701.16 4186.6 5895.77 4732.09 6136.49 4356.25 4216.95 4209.49 5742.74 5486.48 4947.24 3645.12 3875.05 6200.54 5148.58 4199.45 6599.66 5469.13 4233.8 5765.42 4997.83 4893.49 5325.44 5021.88 5956.65 4498.25 4188.87 3735.24 6574.95 4074.48 4558.47 5731.57 5997.88 5839.71 5576.92 6408.83 5266.22 3930.79 5226.97 4004.35 3685.13 3312.06 3361.26 6799.4 5278.36 5865.39 4427.28 6079.11 3082.32 6430.39 7440.72 3949.6 5703.6 6326.18 5661.62 6631.19 6648.68 4713.74 5626.61 5817.25 4084.49 5061.98 6632.99 4537.6 5147.36 4419.61 7177.44 4563.46 5309.98 6553.94 5460.65 5652.0 5463.41 5225.33 4929.75 4435.36 6045.22 5134.39 3532.3 5769.98 5442.32 2221.99 4643.56 3580.58 4863.01 5356.79 5657.36 3619.79 5029.47 6306.21 5266.01 2978.76 2040.66 7016.27 3876.21 3685.65 5689.26 4916.22 6022.7 4940.84 5750.07 4809.67 4757.74 6045.67 3946.28 3821.94 4244.21 5439.9 5367.73 3540.11 3456.47 4652.01 5421.64 7234.66 4207.54 4055.54 4886.12 6419.12 4976.12 6098.95 5453.98 3991.42 4388.63 5102.75 4597.29 4200.09 5931.77 5151.21 6333.29 4477.04 3886.68 5703.74 5662.55 5737.92 5365.24 4360.23 5293.51 4763.96 5754.18 5180.76 5008.63 3418.99 4480.95 4993.35 4409.63 5521.25 3661.9 5370.85 5949.46 3658.37 3178.54 4765.02 5376.71 4448.13 5070.29 4807.28 4867.08 4266.03 5280.69 4220.03 6923.84 5407.78 5449.46 6179.96 6113.54 4662.43 6260.79 3963.76 5528.53 6799.88 3062.43 5726.66 5426.78 2967.38 4159.35 6477.91 4237.98 6439.37 4081.97 4614.3 5401.99 5580.92 5973.33 5067.46 3583.21 2511.46 4011.37 2775.69 4785.25 6519.43 5876.64 5424.46 4857.84 4908.49 4962.21 4858.44 5884.9 3468.42 4673.35 4771.13 4992.42 5297.19 4351.38 4833.46 5933.7 7248.4 5280.12 5984.81 3498.16 4409.27 4640.06 5471.74 3548.39 3673.28 4858.51 3375.28 5625.65 4301.61 6107.89 4817.16 4446.84 5660.55 5148.08 4834.87 5760.22 3672.21 5938.17 4795.43 5398.64 5097.95 6817.57 4693.52 3614.96 6853.04 4745.43 5831.96 4747.55 3056.7 3755.95 6234.32 4586.19 4446.06 3450.93 4270.74 5132.68 6595.03 4558.15 6218.95 5222.16 5107.23 5136.08 5558.68 3776.94 4010.57 5629.39 2684.03 6157.04 4768.61 2261.36 5075.55 4522.21 5506.19 6719.94 4950.67 5227.59 6166.29 5453.6 5703.07 5294.77 4709.05 4630.82 4043.66 4813.08 5860.67 4540.86 5990.52 4835.83 5604.35 6316.56 3091.67 4332.87 6420.81 4715.58 4450.7 5151.52 5369.08 4347.74 5291.9 4009.62 2081.58 6505.78 5461.55 6865.76 6449.64 6464.8 4684.44 4749.59 5799.69 5571.72 3809.69 3208.96 7051.9 4184.23 4144.57 5550.75 6834.41 6226.14 5466.33 4444.97 3000.29 5721.05 4247.69 4514.39 4588.99 4321.21 4344.34 4928.27 3583.49 5052.84 4366.74 5297.16 3184.64 5206.33 5530.49 5653.03 3718.69 4514.79 2216.82 4509.89 6752.75 5269.38 5607.3 5108.06 3573.73 2928.82 4222.4 4000.43 3420.08 4568.41 4912.04 4539.07 5464.68 2685.81 5591.76 4585.31 6625.18 5323.91 5097.45 6293.89 5737.75 2761.07 4983.39 5366.52 4690.55 5533.72 5533.42 4802.32 3678.08 4599.38 5246.47 4187.31 6191.29 3240.51 7422.36 5161.01 4298.15 4628.4 5832.37 6051.83 4642.93 5409.63 4263.16 3973.12 3077.84 6024.75 6109.49 5567.93 5987.42 5332.65 3764.1 4442.22 6451.33 5413.31 3012.99 6400.08 4743.59 5208.14 3317.83 3763.05 5092.24 5549.49 3101.75 4518.04 4766.06 4874.18 5435.19 3298.2 4270.15 4953.1 5818.95 4093.99 3940.49 4406.05 4680.94 5828.35 5876.72 5236.43 5285.07 4680.14 4608.41 4187.94 5980.59 3796.15 4801.8 7216.98 5271.02 4209.31 5718.28 6242.79 5950.45 5713.03 5849.65 4165.21 5134.67 4215.0 4936.96 4481.76 5452.78 5065.26 4304.41 6192.0 4940.28 5885.28 6579.31 3004.34 3022.6 4811.76 4914.45 4698.87 3624.7 4661.03 5262.35 4691.91 4475.83 4510.8 5889.35 5010.04 4394.56 4570.98 4275.07 5825.38 4185.61 4047.87 5742.47 3778.02 6552.21 5417.8 5146.37 7132.12 4836.16 5518.57 5151.11 5463.48 5730.33 5545.46 4527.99 4376.7 5190.61 8325.01 3764.06 4440.81 5941.9 5434.47 6642.76 5829.22 4497.78 4243.79 5811.18 5433.65 4008.15 4887.76 4669.06 4811.32 4286.49 6184.88 5829.32 4396.25 5551.95 3918.87 2275.45 5423.42 6605.86 5012.5 4383.56 3562.79 7093.13 4516.53 4122.92 3604.14 4452.54 5089.1 4028.32 2711.19 4099.92 4884.59 3858.06 4511.7 4083.79 5263.27 6300.92 5021.77 4173.54 5599.29 6038.68 5046.12 4807.4 7013.17 3805.67 4601.74 6506.86 5088.57 5580.34 3852.6 5775.31 4706.5 4603.5 4647.67 5375.12 4356.36 4892.44 5578.94 7610.49 4286.17 3684.56 5323.55 5375.1 4172.6 5313.12 5351.56 5160.59 3984.88 4732.09 4320.42 4255.34 5064.79 5480.3 7509.24 4146.81 5896.26 5388.78 6101.13 4573.72 5099.21 4917.99 5636.4 4367.78 4350.12 5227.02 5670.0 4232.16 5300.96 4344.51 5680.94 3781.77 5581.55 5193.01 4543.1 3474.5 6550.44 3860.83 5732.27 4523.39 5278.56 5146.37 6917.62 4013.38 5631.14 4343.78 5263.3 3352.35 4909.65 6523.86 7693.4 4326.48 4437.07 3449.37 5491.9 6405.0 4659.16 5789.55 4633.05 4901.2 5711.62 4990.79 4798.17 5166.79 6479.39 2895.63 4997.91 5079.22 5381.54 5810.77 4714.83 5474.15 7519.2 6355.68 4478.6 3953.55 4304.63 4469.54 4314.56 3928.53 5606.51 5740.65 3834.47 6349.67 6329.53 4590.01 6101.86 4227.41 5993.0 4803.57 5966.42 4110.59 3332.49 5354.66 4214.44 5378.23 4787.97 3746.36 6789.23 3989.7 4777.03 4246.61 6028.09 5452.36 3804.5 6486.37 5498.42 5318.53 3344.57 5220.76 4281.98 7165.9 5344.83 7046.11 3427.63 4863.97 6342.48 5756.75 4587.67 5599.7 4163.74 6969.28 3665.95 5698.96 4095.75 3603.51 4298.45 5222.51 6609.84 5135.96 3834.43 5658.37 4707.06 6074.94 5491.37 4250.88 3783.54 6348.03 3475.67 4792.39 7038.89 3863.67 4814.12 5067.56 6137.8 2735.53 5116.6 3747.03 2783.85 4356.49 4526.81 3994.07 4219.94 5907.46 6740.71 4264.91 5399.29 4909.31 5971.22 6522.59 6602.43 3568.28 5425.98 5996.66 4405.42 3598.08 2995.67 4599.81 5698.23 7300.58 3608.06 6633.61 5217.95 4867.7 5484.36 4277.24 4063.9 5291.05 5161.1 4619.2 5166.41 5067.56 2596.96 5701.75 4350.15 4139.3 6541.45 4750.49 5078.31 5391.48 4923.43 5131.15 4847.14 3950.27 5116.66 3566.79 5374.67 4981.43 4741.28 4215.2 5069.89 4157.29 6813.72 5327.75 4609.02 4896.65 4638.18 4196.37 6448.66 4453.97 6945.98 5138.2 5783.48 4701.5 4449.98 4504.35 4771.65 4840.44 5093.82 5951.81 3924.14 6918.35 4296.69 6238.32 3319.67 6804.79 6471.42 5283.8 4076.59 4428.14 5164.1 6464.15 4479.11 4972.17 6685.4 5699.53 4222.77 6332.01 5268.38 5527.23 4805.33 7085.01 5980.95 6193.08 6069.3 5887.01 5168.35 5388.39 5335.47 3728.18 5633.61 5048.19 6799.23 4888.27 4592.15 6487.56 4854.11 4998.22 5533.19 5417.21 5583.61 6063.64 4986.71 7382.3 4022.56 5522.21 3772.3 4855.01 6208.9 4923.57 3340.09 6061.63 2279.05 4829.35 4075.28 8137.11 5484.32 6650.77 4067.96 7104.73 6162.3 3272.75 4264.54 3516.27 7043.44 4263.78 4643.9 5228.75 6047.14 5009.83 5210.38 5717.8 3629.44 5003.78 3299.24 6246.56 4061.6 2603.64 5107.0 6212.15 6502.97 4783.07 4946.23 4852.58 6083.28 5211.6 5806.31 3556.79 5456.71 3503.41 7317.04 6412.67 7001.83 5012.97 4036.91 5589.37 5439.49 6639.64 5212.43 5454.12 4834.3 6348.54 5642.35 6372.13 5369.5 5404.01 6016.19 4124.49 3230.13 5714.25 6176.67 5325.96 4850.06 5016.02 7044.29 4234.18 4920.21 4049.16 3936.95 6153.94 6836.82 3862.77 4631.99 4740.98 3185.39 5128.77 7122.87 5797.36 4243.26 4153.84 5119.86 5084.17 5089.26 4901.44 3776.8 5096.43 6156.21 6104.26 4653.83 2460.79 6171.71 3628.89 6589.82 4668.88 5027.43 5522.75 5867.64 4438.58 6059.93 5602.53 5073.02 6545.43 3472.91 6760.92 4989.2 4711.04 7144.05 4506.18 4824.12 2970.9 6542.5 4383.47 5971.21 5261.19 3104.96 3831.52 4263.65 6106.43 4807.35 5467.63 5666.95 4642.2 4811.22 3683.86 4918.76 5293.75 4208.41 5826.78 5473.72 2856.55 4553.68 5361.87 3758.22 4757.2 3205.68 5561.74 6100.73 4788.08 4745.79 5470.04 4908.75 3971.08 6204.65 4482.9 4593.7 4349.13 5110.11 6379.14 5216.26 3687.65 4887.52 5478.95 3851.85 4066.57 4206.98 5156.76 6357.47 6101.57 4891.38 5535.91 2949.12 5955.86 4533.37 4848.46 5412.24 2779.99 5887.38 4581.37 6942.34 5851.61 5478.11 5526.31 5030.15 3858.17 3644.78 3477.1 4078.93 5934.82 4501.78 4922.49 3572.94 5001.58 4820.17 4729.42 5244.98 3886.72 5415.45 6592.93 6350.71 6436.74 4456.11 5096.24 3908.98 5039.12 5769.14 6328.42 7307.21 3619.72 3381.82 4646.51 4565.93 7107.63 4831.93 5788.97 4023.93 5868.89 3274.85 5007.21 5494.28 4099.26 5206.47 4580.06 4834.39 5493.89 5262.47 3512.94 4991.35 4587.7 4258.98 6761.81 3903.91 4568.64 3919.62 4127.53 5210.75 4474.83 6555.44 5658.14 4508.18 6214.73 2205.51 5175.89 3894.64 3703.49 4268.19 4374.74 4532.7 4504.86 5975.23 4473.29 4198.94 6163.54 4211.82 6556.26 5684.25 5438.92 6550.4 3766.69 4891.67 6818.91 3503.65 3634.5 6631.28 6571.31 4392.65 6318.23 4058.87 5174.75 5932.07 4984.46 5948.71 4793.65 3856.53 5460.89 4532.89 5260.85 5742.09 2884.65 5807.46 4648.21 4393.16 3658.05 3311.29 4549.69 6423.81 6192.77 4312.15 4583.52 6418.11 6015.02 5244.22 5585.14 7039.98 6456.58 4159.81 4960.64 5792.98 4385.81 4034.05 5690.96 5798.38 3862.91 5366.11 3419.87 4824.81 5113.6 5944.3 3563.14 5135.5 5347.9 5851.63 4504.52 5212.92 5615.84 4464.73 4928.85 6440.38 5556.0 5545.59 4954.81 5610.53 5755.15 4835.97 3926.11 4057.17 7066.96 4467.0 4994.65 5196.92 3787.08 5644.81 5334.36 4728.55 4929.6 5750.35 4489.99 4548.45 4658.11 4551.26 5730.61 7124.45 6358.93 5064.67 6618.21 5232.85 4062.56 3717.47 6200.63 3217.67 6816.66 5079.64 996.652 5212.37 6003.78 2628.22 5058.51 4244.49 5036.98 5513.8 5188.53 4521.75 4027.63 5569.2 5350.88 5420.67 6413.15 6103.11 5048.55 6459.51 4024.31 4955.16 5844.72 3992.97 5989.05 6040.74 4054.22 7228.94 5393.65 4961.99 6551.93 4595.12 3110.13 6484.43 4625.67 3485.54 4458.64 3657.69 3492.83 6280.13 3684.15 5832.29 2606.51 4438.76 6006.89 3965.3 3814.65 5372.82 4983.3 7778.01 5127.82 5124.17 5805.1 4125.9 4064.58 4234.88 4384.28 4456.26 4810.98 5091.22 6282.38 5640.72 5657.55 5727.79 5188.82 5043.14 4717.73 5072.5 3904.07 5748.9 3663.0 3742.31 6304.49 5134.72 4608.34 6419.64 5464.83 2781.96 4431.23 5917.34 5601.55 4462.87 6545.99 5630.9 4554.68 4368.28 4692.32 4945.0 3127.83 4212.15 5114.07 4385.49 4263.18 7142.95 4383.68 2617.39 5144.44 4051.18 5969.37 4928.35 5034.69 4509.46 3538.53 4680.69 6500.49 5965.58 3352.34 4901.29 4050.03 4775.04 4120.07 4882.66 3429.57 6746.66 5410.33 4642.74 6735.97 5305.59 5416.45 4330.58 5754.6 3288.01 4904.51 4147.31 2202.77 5751.15 5950.88 4149.55 4441.22 5853.89 3380.69 4140.4 4386.8 5446.4 4725.01 5966.75 5510.9 4883.63 4505.28 4971.29 5510.45 4730.14 3994.39 6119.99 4618.73 4128.1 4446.58 4402.17 5401.4 5053.15 5910.86 6239.68 7320.78 4834.44 5782.43 4027.33 3873.92 5026.76 5023.41 4092.07 4546.44 4224.3 4184.21 4700.07 5273.37 4732.37 4985.3 5713.36 4749.18 5553.94 4546.96 5424.55 4921.1 3814.16 5695.79 3622.8 5414.58 5577.41 5740.98 4346.07 4013.86 4177.47 4218.16 2918.64 4140.92 4512.07 5984.8 5236.24 4585.04 5678.58 6570.35 4242.63 4559.74 3269.54 5836.26 6666.67 6063.44 4583.94 5046.31 1937.5 3844.54 5849.53 4651.99 4420.11 5863.0 6127.39 4972.18 4607.18 4124.76 7200.89 4813.33 4952.52 3840.21 4081.34 4954.76 3908.56 4844.83 5244.78 3636.15 6114.89 5135.63 6384.7 4355.83 6870.97 5351.86 6056.87 5474.01 6201.86 7554.58 3639.44 5166.89 5491.63 5725.37 3868.62 5138.33 3743.76 3425.69 6711.21 4236.86 5393.76 4941.02 4983.1 3864.92 6010.59 2955.36 3668.93 4009.24 7541.76 4775.49 4681.29 3220.29 3845.9 5749.6 4439.71 4141.21 5667.51 4708.31 4198.9 5431.29 4833.67 5325.91 4213.05 5157.38 6203.03 5235.87 6089.45 5810.17 4966.07 4400.14 3669.32 4704.92 4316.0 4287.25 4392.75 4271.07 4420.6 4475.38 5287.25 4770.51 4184.47 6511.37 4012.92 5759.79 4598.54 5218.42 4933.49 6139.64 4896.43 5463.06 4639.8 5260.52 3185.09 6102.49 5114.23 5495.0 7407.91 5064.23 6015.22 4454.74 2904.46 4826.52 5120.92 4337.32 5241.75 4731.53 3763.9 4788.7 5084.5 5640.12 5329.76 3899.7 2403.72 5134.33 4147.49 4802.98 4833.55 3646.95 7224.99 6334.53 4749.96 5377.37 5652.87 5483.7 5018.69 3152.86 5952.38 3896.27 5807.52 5963.36 5230.02 5307.35 4342.18 5169.48 6016.08 4731.21 3124.7 6064.71 6102.98 6060.17 5153.18 4763.4 5902.67 5454.11 5806.61 3779.45 5784.37 3682.35 7123.04 3756.96 5906.57 4932.29 4990.23 3784.94 5499.59 3125.13 4174.44 6715.73 4564.41 6331.74 5951.86 4252.18 4659.88 3791.41 5853.12 5702.4 5069.9 5473.89 3673.6 3306.84 5265.21 4657.24 5866.42 4762.1 3987.69 3484.81 6502.99 6219.34 4191.01 5674.63 4589.06 4920.88 5890.25 4216.44 3999.5 6710.14 5034.05 4816.51 5345.73 4770.63 3990.94 4756.8 5477.8 4462.35 6069.78 3986.41 4241.68 3469.18 2945.34 4489.29 4301.93 6061.85 5512.44 6449.06 4685.4 4924.07 3200.6 6240.42 5146.0 5721.14 4288.45 4577.73 4987.28 4918.64 6638.25 5078.59 4759.99 2646.13 5419.57 5162.67 5760.98 4705.68 5469.35 5384.86 4019.34 4658.24 5869.67 4311.48 4899.73 5457.66 6394.19 5973.89 5366.22 6193.73 5518.11 5087.14 3742.11 5712.35 5701.52 4743.9 6776.22 5321.17 3719.11 4467.13 3877.8 6273.6 5136.87 3667.93 5024.32 4708.17 2741.2 5790.42 3142.09 5591.77 5182.13 6110.48 6245.52 3954.77 6793.1 6016.87 4506.66 5209.55 5426.4 5763.05 5129.68 5357.39 5076.84 5247.01 4208.37 4841.7 5685.74 952.938 6740.35 4678.7 3450.07 4550.92 6215.87 5191.26 6060.06 5544.27 5308.33 4666.12 4685.65 6023.07 5340.05 5995.4 5322.11 5700.79 4426.02 4726.2 4711.15 5188.22 3825.48 4841.23 3810.68 2804.54 4357.11 5005.6 4176.32 5532.75 6949.65 3372.95 4095.83 5695.25 5676.61 5846.95 5268.15 5819.0 6347.72 3460.93 4629.02 5124.86 5914.5 6006.16 5407.96 6206.98 6562.03 4815.47 4368.12 4365.58 5214.4 4636.53 3629.49 5766.05 5117.64 3835.81 4869.48 3623.19 4906.11 4387.39 4564.1 5825.55 5509.51 4848.14 4316.5 3199.4 5254.24 4192.21 3597.43 5144.56 4158.91 5311.55 3360.86 4869.25 5545.21 4333.87 5684.05 5638.7 5813.79 4644.88 5293.13 7350.26 3768.46 5167.53 5003.3 4168.52 5800.81 5106.46 4068.31 5166.05 5077.29 5515.73 4850.5 5866.91 2820.07 6405.69 5679.74 4825.73 4165.36 5288.33 6296.54 5797.21 6019.35 6028.63 5146.1 6485.77 3869.39 5960.5 5393.43 6896.55 5377.01 6470.23 6506.63 4140.04 3495.3 4697.49 5735.08 7133.44 4750.81 4474.39 4658.59 4196.62 2809.19 4916.7 5486.89 7208.19 4549.51 3587.93 4975.85 5323.95 4495.75 5716.42 5701.63 4620.95 5368.93 4488.39 6121.56 4927.73 4602.57 3565.32 4608.62 4071.75 4626.72 5131.77 5549.71 4410.82 6443.99 3889.98 5193.58 5399.43 5695.44 3422.21 3916.42 5429.3 5510.96 6653.07 4745.16 4697.91 4584.81 5071.98 5719.79 4371.08 7261.51 4968.14 4914.03 5086.29 5527.13 5139.18 5551.43 4278.57 3034.16 5049.99 4201.03 5001.87 4493.79 4279.44 4899.19 5058.34 4028.22 5575.11 3918.94 3852.82 5487.63 4507.36 7145.73 5403.97 4795.08 6562.92 5501.73 3671.06 3612.44 4697.24 7035.54 5233.76 4683.28 4217.36 6549.8 4851.18 4871.77 5368.52 5811.26 5062.77 4884.93 6075.99 5262.79 5927.2 4419.79 5407.69 5152.78 4117.9 4753.76 4781.9 4638.09 5330.26 4441.91 5939.22 4668.8 5125.17 4271.93 4859.01 5524.45 3953.26 5459.92 6478.35 5453.77 4104.04 5589.53 5593.79 5025.42 4965.24 5196.08 4517.29 4849.5 6171.01 5796.26 4603.04 4870.94 5271.88 5559.79 7168.2 3763.85 3419.07 5710.33 5344.44 6432.8 3186.07 4369.86 4967.51 5173.82 7212.97 5490.64 5034.34 3769.2 4507.46 5036.14 5603.68 4944.51 5610.95 5532.72 3220.8 5042.75 5179.17 5579.39 5270.51 5148.1 5490.75 5224.64 5949.73 4312.48 5783.94 6370.33 5081.08 6318.25 4202.77 6864.06 6008.81 4932.56 5192.49 3487.31 6643.4 4674.9 5461.72 6599.28 6224.85 5368.66 4556.19 5648.78 6875.73 5226.42 6081.3 4983.43 5117.52 6311.89 6734.39 5942.45 4150.76 5005.72 5155.28 5388.73 5205.38 4764.83 4600.71 3957.38 4494.15 5035.71 4710.88 5300.17 4057.4 5534.23 6025.77 6815.96 5339.6 5828.25 4725.11 4215.05 3626.86 6371.96 4604.1 5076.11 5990.75 5600.21 5467.51 4625.53 4096.47 5114.67 3543.37 5353.66 2638.82 5030.33 5234.2 6379.38 6257.79 5353.23 6229.83 4468.26 5578.18 5293.37 5933.54 5879.24 4571.74 4096.86 3622.48 4796.12 5001.51 5385.86 5115.42 4082.4 5482.76 3745.02 3720.7 4211.36 5698.53 3604.31 3856.73 4450.49 3468.45 5887.71 5635.32 4526.34 4316.45 5409.08 5481.64 4598.92 5241.22 6647.08 4979.52 3422.29 4407.79 5214.63 3495.68 5352.24 3990.96 7362.42 5793.12 5836.14 5473.05 4373.2 5537.34 5884.99 5726.42 7025.09 4433.12 2549.95 3392.26 4361.24 5138.93 6406.8 7086.69 6170.9 5833.78 4436.48 5615.35 3967.76 6213.24 5987.88 4228.53 3579.59 6123.46 6142.88 4461.14 5111.26 4574.54 4949.55 3132.34 1969.87 4841.28 5507.38 6889.5 4416.87 4052.43 4896.67 3934.11 5158.44 4466.22 6153.71 5917.08 5483.37 5418.12 5322.07 5770.07 5101.6 4282.11 6589.13 2347.41 4542.16 2030.03 5628.97 5527.27 5104.39 4612.13 5846.6 5327.05 5438.55 4434.65 5977.66 4523.81 5065.74 5106.33 5198.94 4028.35 5464.05 2980.31 5453.2 3148.79 5740.78 5997.91 4742.82 6791.86 4930.72 4209.0 5728.58 4887.73 6297.99 5378.24 4538.89 5817.74 5661.6 4827.61 5285.75 5385.03 5673.75 5360.67 5968.54 6263.3 4501.05 4537.03 6548.29 4114.2 4326.06 5034.46 5757.29 5469.17 5061.75 3769.24 6022.78 4087.32 6647.85 2569.12 4161.32 5161.74 7336.37 5099.9 6945.69 5118.86 4304.64 4183.4 4733.79 5758.98 4823.06 5254.49 5288.64 6828.8 6883.86 3350.99 6161.94 5057.59 4065.28 5418.98 5285.6 5615.06 5490.54 5203.54 4047.95 6142.94 5001.69 6581.56 3980.46 4061.87 5383.9 3798.09 3886.56 4496.51 4511.05 6561.94 5259.21 5092.93 5934.05 4714.66 6771.18 4984.17 4656.01 5327.39 5781.62 4037.86 5602.62 4138.59 5714.51 4938.33 4484.78 5157.73 5847.91 4934.66 4903.84 4109.44 4290.49 6688.53 5209.5 5791.25 6175.27 4873.23 6731.89 5410.6 6348.93 6824.53 4332.64 5232.16 4422.23 4820.68 6031.22 3989.26 5485.84 3618.64 6424.77 5453.69 5918.95 5432.04 5689.56 6556.86 3242.31 6099.28 5372.25 3234.26 4169.15 4778.37 5134.17 4074.16 4904.35 5592.54 3247.97 5124.34 4904.37 4358.81 4651.64 5729.92 5016.46 6224.13 4761.84 3661.67 5517.65 4009.68 3303.49 4622.73 5256.75 6351.89 5932.28 2960.5 4298.7 4975.32 3902.48 6030.39 4905.53 3799.01 7392.65 5319.1 3757.23 4181.93 6570.43 3820.19 4979.5 4745.37 5939.29 5575.11 4052.49 5061.74 5326.03 6189.67 4948.96 5117.83 5256.82 4013.86 5165.31 4288.5 4585.37 5715.51 3721.69 3456.3 6074.39 5317.83 4256.08 5881.93 2803.01 4444.0 4399.52 4554.24 6182.19 7415.84 4981.81 5141.03 4970.55 4621.33 5765.14 4541.22 4946.08 3539.68 4984.01 6217.33 4557.1 6270.59 5927.1 5876.51 4103.76 4733.41 2932.52 5264.83 4603.66 3901.53 5136.51 6815.51 5313.86 4457.05 5189.91 5777.26 5703.84 4335.79 3530.82 5797.32 4886.99 3921.27 3702.45 5265.63 4898.29 4431.06 5730.2 4830.13 3494.16 5620.88 5370.9 4529.77 4325.13 6172.27 5390.33 5078.73 5278.54 5729.0 5192.92 5275.57 4179.87 4786.66 5891.25 5370.1 5129.4 5114.51 3720.38 4655.37 5585.25 5023.61 4672.86 6530.78 5560.23 3043.77 4139.39 5237.55 3909.94 5088.64 6589.8 6920.92 3729.16 3783.36 3038.91 3922.28 4571.57 3445.92 5236.69 4586.82 3133.28 6026.04 6200.05 5859.17 4034.41 5522.34 5771.98 4420.35 5717.45 5268.27 4645.93 5448.64 6417.61 5395.12 5783.69 5350.9 3483.61 6738.9 4460.89 4157.1 3939.96 5910.66 4637.3 5734.07 4840.44 3997.68 8123.59 4819.83 4767.54 4801.16 5121.08 2927.84 4696.03 6177.68 4698.7 4605.39 2848.44 6045.26 6500.45 4907.55 4286.61 4094.63 5084.76 4969.68 4757.87 6636.43 5431.14 6298.8 3689.24 5178.07 5151.19 4171.02 7012.36 5028.06 4002.99 5159.67 3161.1 5764.52 5684.88 6523.78 4645.86 4045.67 4941.52 5900.0 4262.74 4581.1 6241.77 3783.79 5317.19 4248.14 5279.19 4016.6 5821.49 7050.08 5580.44 5998.13 5095.52 4746.15 4758.84 4731.37 3976.0 4068.41 6463.71 5059.37 5783.38 6264.03 5645.54 3562.8 4151.74 4526.87 5192.82 3573.84 4174.22 4067.89 6294.09 5131.07 4121.07 5524.28 5731.43 6353.81 3414.67 4150.44 3518.14 5044.68 2649.69 5899.78 5000.74 5772.57 4813.81 5244.95 4634.25 5901.8 6351.48 3830.7 6210.0 5432.4 4262.52 5992.06 8052.53 4867.12 4970.12 6044.01 6520.19 1458.87 5973.57 6241.48 6033.28 6286.27 5071.38 5616.66 5688.77 5368.28 6229.64 4220.43 6263.87 5743.8 6666.34 6605.11 3557.46 5971.95 5652.73 3979.46 6321.97 6509.54 6119.0 3792.06 4293.3 5128.59 5587.3 3572.73 4864.38 3770.22 4390.64 5150.84 4608.01 5087.97 6005.95 4308.49 4930.17 5110.27 4745.44 4085.96 5762.82 7360.12 6223.98 5462.6 5617.29 3035.06 4262.19 4597.88 4878.93 6275.25 6892.33 4505.3 4452.36 4491.26 4511.34 4832.21 5009.21 4742.35 5394.79 5290.37 5264.08 4227.66 4691.01 4594.89 5245.95 5821.42 5214.71 4515.02 3463.53 6126.03 2970.24 6044.69 4197.87 5105.54 5462.1 6032.45 5444.36 4026.03 6908.32 3467.11 4817.75 6153.26 5637.53 3882.37 5523.81 4095.4 4718.61 5188.57 3873.79 5357.33 5252.37 4499.54 5037.58 7430.48 5640.67 5545.68 6080.69 4967.93 6369.66 5922.62 5125.45 5957.82 6327.54 5507.07 4802.36 5327.71 5466.13 5257.38 5075.23 4975.56 7282.36 3826.01 4645.91 5581.01 3928.99 6834.92 6379.33 5130.57 5090.48 5402.45 3985.93 6412.84 2589.19 6071.59 6079.55 5485.61 4993.49 5310.33 6583.37 4569.32 3688.83 3402.44 4848.98 4491.96 5184.98 4467.51 5339.82 4519.03 5460.57 5065.78 5703.34 4612.68 6668.98 6649.52 4232.33 4939.56 4747.68 5770.92 3093.38 4845.91 2002.78 5631.32 4461.67 6322.0 5793.14 6345.2 4609.65 5704.61 5410.73 4379.91 4574.03 4942.63 5850.38 7066.26 4730.97 3677.85 4677.84 4811.11 4924.52 4866.8 5658.05 6593.1 4000.51 6033.93 5011.37 2827.92 5092.44 4441.44 4232.44 5336.61 3312.3 5563.09 4848.15 4439.09 5648.59 6697.45 5717.67 5515.59 3224.81 3775.38 4046.22 6457.89 4844.2 6572.17 3751.73 5555.89 4766.47 4871.1 5678.08 5872.45 4414.09 5191.29 3784.68 4188.16 3717.22 4654.92 2943.17 4880.78 5286.55 4322.56 5509.09 5625.02 5212.05 4829.77 6474.5 4444.92 6959.88 4125.75 5749.53 5247.73 5034.02 5582.28 5945.25 5181.31 3856.4 4696.06 4137.16 4937.36 5308.4 6581.13 5803.3 5537.61 6084.88 4721.98 4397.06 4199.44 4053.12 4479.5 6261.67 3435.13 4431.46 4521.42 4610.55 3207.84 3977.98 6043.34 4128.93 4959.72 4712.17 3808.04 4723.71 4405.61 6126.5 4034.88 6007.1 5488.96 5128.03 3720.92 5087.3 6139.74 4975.57 6150.31 3057.3 5873.62 3868.69 4996.91 5379.52 3920.44 3768.62 5314.67 5563.47 4966.74 5651.46 4066.36 3162.27 6185.73 5516.37 5432.2 4612.4 6178.19 4746.19 6381.58 3282.57 5212.2 4798.13 5108.42 4630.5 6296.36 4432.32 4451.76 7885.41 5782.25 4104.97 4575.72 5114.61 6118.13 3374.62 4926.62 3917.09 6009.93 4083.1 5270.1 5130.56 4947.64 6305.9 6649.21 3470.69 4859.95 4132.08 5522.18 5223.1 3873.72 4850.49 4592.49 3625.98 5479.86 4702.32 4763.04 5971.9 4413.56 3746.62 4532.67 4876.37 4769.62 5260.13 4649.5 4810.74 5985.75 5475.83 6189.29 5984.55 5672.46 3228.27 5252.82 3543.98 4142.1 5056.26 5878.55 4014.44 6604.72 6002.77 3794.47 4967.02 4614.49 5400.69 4462.5 5573.31 5004.68 4179.8 4023.88 3488.34 5348.11 5428.24 5108.84 3511.5 4582.12 5067.92 4520.14 5357.14 3188.21 5919.27 4793.06 6637.38 6188.33 6111.23 6916.18 5786.06 4137.41 5447.74 4450.51 6033.72 3692.99 3851.47 4959.94 2329.93 1635.31 6938.87 5639.4 4083.24 6520.96 4806.99 3771.91 5217.62 3839.0 4616.81 5715.25 4362.94 4611.21 3354.94 4404.87 5237.27 5767.65 4750.76 4907.03 5497.27 4081.77 4948.21 4987.01 2181.29 4420.3 4202.12 6332.64 6492.44 4613.32 3482.73 3996.93 4957.99 4063.26 4997.89 4542.62 5093.28 6131.52 6009.88 4699.77 4981.55 5093.41 5144.23 6188.62 6153.07 4414.06 5908.57 5944.52 5050.2 2513.38 5316.05 4908.32 3995.08 5616.11 5019.84 3900.93 5784.38 4149.17 4329.8 5728.27 3074.49 3053.19 5202.33 3956.24 7558.99 3393.59 5043.14 5333.04 5445.91 4521.99 4812.59 6842.54 7115.67 5675.45 3361.11 6038.56 2807.46 5599.16 4577.98 5658.35 4487.51 5886.81 6805.02 4295.25 7394.47 4729.45 4850.95 5374.09 6271.22 3421.81 5378.75 5244.47 3920.64 6186.24 5822.7 3780.07 5282.67 4159.89 5466.49 4038.17 5007.41 4907.48 6213.74 4369.87 5412.07 5512.57 4813.55 5856.43 3465.03 5349.85 5799.86 5172.1 4469.82 6545.78 4870.14 4695.7 2932.2 5105.72 5003.49 3964.03 4216.33 5832.72 5617.91 4721.2 4706.31 2694.25 6265.48 4735.99 4203.68 4739.56 5145.39 3352.46 4701.03 6351.95 5195.09 5345.05 3997.52 7679.2 4881.51 2626.41 4311.92 6729.99 6842.35 5464.34 3621.63 4777.96 5801.89 7296.47 5742.39 4821.41 4924.53 4499.52 4433.23 3874.12 4028.13 4457.73 6476.35 3113.64 6260.58 4067.24 6139.9 6571.26 5580.95 4313.38 6598.99 3549.92 4032.06 5250.56 5246.81 5089.1 5888.95 5394.78 3463.34 5169.09 5122.38 2853.68 5262.85 4998.37 5329.84 6559.82 3879.83 5342.9 6565.95 5733.12 5043.34 4246.24 4600.81 5354.48 5640.63 4900.26 6261.13 4167.55 4720.34 4865.11 5510.89 4731.16 6470.87 4495.33 4131.08 5747.9 5178.55 3864.19 5146.69 4287.93 6203.24 6818.23 4488.41 6679.12 5652.19 5806.74 6578.62 6284.12 4796.04 5229.56 5296.05 6011.4 4672.34 6052.22 5376.41 5003.63 4747.24 4944.08 4380.86 4082.01 5576.16 5269.39 4305.35 5210.22 2451.27 3903.9 4444.95 5161.02 3943.77 3124.49 5003.81 6262.18 3818.37 5663.36 6225.05 5434.04 5200.1 5125.53 4444.54 5779.9 4909.74 5310.33 5299.03 6664.54 3922.98 5161.73 5259.48 4008.67 5254.93 4803.4 6833.5 6608.94 2613.78 4780.16 5417.07 3834.01 5738.37 6789.66 4813.24 4739.41 5759.19 5847.27 4490.2 4304.75 5480.86 4950.07 4720.22 5827.3 3633.58 2468.16 6294.14 4339.97 5203.75 3906.41 4691.15 2459.88 4512.6 4210.24 5470.67 5901.71 5225.11 5252.22 4962.35 6436.29 5402.81 4328.76 4919.13 5168.97 4124.33 5783.88 5002.38 6705.93 5449.09 5502.14 4605.61 4465.56 5386.95 5332.11 5315.71 6158.93 5081.65 4823.14 5438.5 4621.32 5699.4 3878.8 5237.76 4698.94 3948.21 4286.84 5669.15 5263.86 3330.85 5056.32 5533.52 5410.33 4060.17 5302.53 4909.13 4287.61 5648.02 3308.75 4604.34 4439.17 5677.42 4929.35 5606.22 5051.39 5242.38 6081.35 5459.52 4609.98 5566.5 4752.31 4276.59 5579.04 5994.21 3929.35 5403.81 5082.25 6964.78 4374.05 5036.84 4565.36 5813.68 4025.08 3618.53 4770.21 8013.28 3846.55 3796.73 3082.16 4644.68 5656.84 5416.41 5312.2 4706.59 5734.84 3982.31 5551.79 4582.24 3916.15 2832.83 4474.96 4084.87 6036.99 3010.1 5259.29 3825.98 4589.22 5087.03 4818.53 4667.84 5584.64 4123.08 6224.64 4260.38 4636.45 4932.27 5638.51 6793.49 3563.33 6060.19 5536.0 6786.37 4333.23 5145.13 5561.63 5940.5 4358.06 5093.51 5647.93 4280.92 6201.49 5154.74 4696.92 6437.99 6898.8 6540.57 4893.72 6004.72 4072.4 5373.78 5345.65 4489.18 5863.36 4632.75 4752.94 4994.98 6423.96 6058.13 5894.69 6988.4 6635.51 6051.35 3999.81 4867.13 6377.45 4863.27 2701.42 4502.12 5442.79 6673.92 5151.68 4884.94 5362.15 4455.61 4738.72 5240.97 5569.85 5405.6 4884.93 4759.38 6960.97 4287.15 5282.51 4523.9 5504.65 5669.41 5732.11 5040.9 5596.68 4868.66 4004.39 5159.9 5283.65 2892.36 5981.54 4248.58 5911.29 4542.25 4694.27 6760.64 2515.5 4849.21 5177.88 3793.83 6981.47 5367.05 4758.76 4790.63 4088.72 3584.05 3945.62 4916.75 5097.85 6379.3 6189.04 4221.03 5189.4 3799.55 5082.66 4550.77 4337.93 3550.88 5201.3 4345.51 4048.73 6223.33 3860.8 3747.96 5611.29 4521.88 6568.45 5004.22 4601.54 7263.57 5705.96 3832.09 5267.65 5739.69 6632.04 5360.88 7360.62 3166.37 4977.64 4985.45 4983.56 5699.51 2489.44 5499.37 4883.13 4836.76 5333.16 5551.09 3950.53 5755.98 4501.1 5581.47 4384.91 6550.61 4987.01 4713.56 6094.34 6779.82 5543.67 6210.48 4182.05 3255.93 6853.07 6327.61 4633.59 5733.59 5575.8 5268.93 3695.72 6874.6 5106.9 5306.31 5523.96 4223.53 4733.37 4535.94 3037.72 5126.08 5604.0 3760.4 4951.02 3919.47 4602.7 3783.35 4037.16 6395.63 4987.48 5943.61 5479.17 5020.37 4414.23 5233.88 4785.55 5245.4 6189.81 4449.73 5647.11 3743.85 6236.46 5342.17 5015.67 3795.63 4576.71 6538.04 4894.15 6157.59 5848.41 4090.28 4246.83 5438.6 7370.52 4726.5 5467.05 3724.23 5103.3 4963.88 5888.94 4727.98 4122.2 5175.88 4516.26 4790.16 3509.34 3647.26 3731.58 5369.42 5207.08 5205.53 4714.52 4587.19 5543.05 6028.89 4888.17 5392.85 5077.2 4274.05 5275.27 4277.54 5529.09 4531.46 5925.82 5448.68 4739.5 4072.95 4491.62 3865.5 
SCALARS Velocity float 1
LOOKUP_TABLE default
1.25863 1.39075 1.63128 1.67374 1.44358 1.36703 1.14517 1.35162 1.24162 1.19178 1.19173 1.1912 1.20458 1.19947 1.19167 1.19179 1.20421 1.19246 1.19145 1.19178 1.19178 1.19178 1.1946 1.19738 1.19856 1.19555 1.19559 1.19574 1.19477 1.19446 1.19337 1.19175 1.19767 1.19178 1.19162 1.20164 1.19835 1.19378 1.192 1.19506 1.19642 1.1923 1.19226 1.19193 1.19268 1.19809 1.19213 1.19171 1.19716 1.19182 1.19443 1.1991 1.1948 1.19962 1.20492 1.22372 1.2166 1.20314 1.19208 1.19555 1.20109 1.20925 1.28578 1.25334 1.3091 1.31523 1.40328 1.69256 1.49538 1.37047 0.886545 1.11102 1.365 1.14366 1.30307 1.20642 1.25524 1.46907 1.45392 1.55389 1.41889 1.48071 1.19543 1.24038 1.34087 1.32764 1.33859 1.23385 1.19178 1.25239 1.19178 1.20696 1.19178 1.19178 1.19178 1.20564 1.19145 1.19177 1.19367 1.19478 1.19106 1.19567 1.19936 1.19884 1.19657 1.1961 1.19629 1.1963 1.19178 1.19258 1.19724 1.19364 1.19767 1.19656 1.19077 1.19863 1.20127 1.19351 1.19441 1.19472 1.19613 1.19436 1.19216 1.19273 1.19864 1.19808 1.19704 1.19149 1.19199 1.19178 1.19334 1.19491 1.19298 1.19774 1.19464 1.19459 1.19178 1.19163 1.19748 1.1908 1.19178 1.19178 1.18683 1.19535 1.19256 1.17866 1.19868 1.18875 1.19792 1.19916 1.221 1.21899 1.21266 1.25627 1.19178 1.20861 1.19148 1.20812 1.28278 1.25935 1.04746 1.34478 1.45404 1.44037 1.31002 1.49939 1.38413 1.5644 0.970006 0.812254 0.311055 0.37444 0.444839 1.17856 0.873787 1.32858 1.18432 1.09404 1.45305 1.30696 1.38791 1.30111 1.24772 1.16071 1.27574 1.20869 1.19178 1.19178 1.19178 1.20854 1.19545 1.19458 1.19508 1.19982 1.20056 1.19827 1.19785 1.19678 1.19166 1.19517 1.19765 1.19183 1.19737 1.19178 1.19857 1.20076 1.1934 1.19276 1.19266 1.19953 1.19905 1.19408 1.19543 1.19446 1.193 1.19901 1.19982 1.19266 1.19146 1.19164 1.19837 1.19411 1.19804 1.19463 1.20299 1.19741 1.18416 1.19778 1.19819 1.19748 1.20074 1.19008 1.19924 1.19804 1.21975 1.20733 1.21609 1.2203 1.24075 1.21232 1.22068 1.26735 1.24382 1.0587 1.39896 1.25384 1.37661 1.46328 1.49746 1.54792 0.78532 0.608607 0.727304 0.736372 0.115489 0.35261 0.50587 0.56415 1.14998 0.778203 1.05197 1.17943 1.17497 1.13957 1.16398 1.45066 1.3258 1.60981 1.15853 1.21508 1.08991 1.31565 1.28492 1.20519 1.21242 1.2134 1.19559 1.20408 1.19178 1.19178 1.1919 1.19566 1.1999 1.19723 1.20058 1.20562 1.19944 1.19892 1.20055 1.19779 1.196 1.19861 1.19378 1.19723 1.19639 1.18559 1.19905 1.19927 1.19774 1.19361 1.19143 1.19074 1.1996 1.19745 1.1974 1.2002 1.20102 1.19308 1.19623 1.19581 1.19514 1.1954 1.19175 1.19178 1.1897 1.19039 1.20563 1.20066 1.1973 1.19842 1.19768 1.20067 1.19059 1.19846 1.18947 1.21951 1.20763 1.21024 1.21612 1.2195 1.19232 1.30972 1.16001 1.36501 1.32161 1.20465 1.10698 0.970704 1.31415 1.21739 1.43854 1.50152 1.35197 0.844688 1.64132 1.108 1.12124 0.910291 0.991757 0.760243 0.77053 0.797794 0.504319 0.114539 1.3548 0.831311 2.02595 0.957374 1.19862 1.15839 1.06465 1.09129 1.08815 1.18033 1.432 1.23985 1.35773 1.12262 1.2109 1.26354 1.01366 1.12213 1.28313 1.18973 1.17044 1.16701 1.21481 1.19567 1.20767 1.22665 1.19052 1.19384 1.19433 1.19971 1.20007 1.19987 1.20133 1.19258 1.19822 1.19884 1.19866 1.20003 1.1983 1.19197 1.20062 1.196 1.19149 1.19707 1.18904 1.18888 1.19579 1.18542 1.20308 1.19291 1.1855 1.20245 1.19164 1.19944 1.19757 1.19785 1.19777 1.196 1.19593 1.19569 1.19472 1.19178 1.19157 1.19048 1.20505 1.19979 1.20419 1.19622 1.19884 1.19384 1.20121 1.18619 1.21931 1.18908 1.2073 1.18797 1.14601 1.21959 1.16976 1.32821 1.31953 1.21762 1.21838 1.07739 1.43172 1.17604 1.07156 1.24295 1.1233 1.15762 0.961254 1.12398 0.696753 0.711205 0.81147 0.734672 0.616538 0.548663 0.920735 1.06336 0.588581 0.985736 0.840517 1.14695 1.08469 1.10618 1.11006 1.03997 1.25749 1.20623 1.23318 0.965153 1.09925 1.13402 1.28084 1.20462 1.18276 1.28851 1.18739 1.222 1.18621 1.20438 1.23039 1.20106 1.19432 1.20103 1.1992 1.18805 1.19215 1.19236 1.19853 1.19771 1.1944 1.19524 1.19237 1.18873 1.19315 1.19157 1.19058 1.1913 1.1937 1.19379 1.20024 1.19719 1.19721 1.19382 1.20106 1.19559 1.19557 1.1927 1.1949 1.19133 1.17247 1.19045 1.20484 1.19981 1.19655 1.20614 1.19243 1.19034 1.19396 1.18775 1.1938 1.19304 1.19395 1.19857 1.21298 1.21297 1.22583 1.19454 1.23539 1.19439 1.19868 1.17346 1.14776 1.27641 1.20782 1.22714 1.26507 1.08237 1.10426 1.14652 1.32249 1.18563 0.896398 1.02473 0.725976 0.840728 0.481327 0.753219 0.786664 0.931442 0.611799 0.861722 1.20959 0.2471 0.576156 0.846973 0.776416 0.793909 0.669371 0.834057 0.803913 1.00384 1.09266 0.857886 0.910015 1.23048 1.03284 1.058 1.06131 0.990599 1.12125 1.28986 1.20782 1.28785 1.19164 1.20086 1.17371 1.19104 1.1979 1.20599 1.20499 1.19135 1.19399 1.1915 1.19199 1.191 1.19857 1.1987 1.19766 1.19857 1.19721 1.19553 1.19561 1.19133 1.18875 1.18732 1.18641 1.19341 1.19056 1.19074 1.18876 1.20054 1.19418 1.19992 1.20189 1.1982 1.19372 1.20076 1.20034 1.19124 1.19213 1.19255 1.19017 1.19237 1.18525 1.19178 1.19588 1.22738 1.1904 1.18907 1.18969 1.1902 1.19569 1.19268 1.19922 1.19129 1.20616 1.19817 1.19279 1.16898 1.1217 1.21354 1.12548 1.21752 1.21679 1.17468 1.24784 1.08728 1.08891 1.10986 1.27085 0.826163 0.975469 0.74325 0.739182 0.694715 0.841539 0.649554 0.656998 1.09893 0.578977 0.525399 1.26346 0.317219 0.644854 0.862008 0.675188 0.843155 0.813502 1.02695 0.925222 1.04183 0.979923 0.840092 0.847426 0.796916 1.04225 1.04995 1.04542 1.07219 1.15229 1.24797 1.22925 1.19354 1.17514 1.17415 1.21094 1.20783 1.19063 1.19229 1.19182 1.19581 1.19243 1.19503 1.19139 1.19837 1.19703 1.19494 1.19796 1.19734 1.19465 1.19546 1.19143 1.19718 1.18666 1.19872 1.19129 1.1939 1.189 1.18824 1.18692 1.18943 1.1907 1.20222 1.19455 1.19545 1.19704 1.19354 1.19949 1.19094 1.19766 1.19381 1.19463 1.20292 1.18965 1.19984 1.19178 1.18864 1.19394 1.19935 1.2071 1.1979 1.18994 1.17318 1.19987 1.18934 1.18359 1.19909 1.18582 1.19023 1.20686 1.15254 1.16472 1.16484 1.22739 1.24229 1.19355 1.16722 1.15454 0.907101 1.13359 1.10293 1.0931 1.16694 1.01354 1.14203 0.908529 0.927555 0.869054 0.673481 0.424783 0.662979 0.533826 0.608192 0.995577 0.774925 0.505109 0.467385 0.393806 0.896219 0.744614 0.742974 0.829802 0.71509 1.10631 1.15494 0.865464 0.809737 0.81223 0.988328 1.0042 1.07901 1.13807 1.17294 1.11631 1.1389 1.09385 1.22295 1.28519 1.23136 1.22989 1.15718 1.19305 1.18602 1.16106 1.19822 1.19766 1.20191 1.19426 1.19727 1.18591 1.19498 1.18584 1.19139 1.19301 1.19316 1.19907 1.19614 1.19404 1.1953 1.1915 1.19616 1.18633 1.1973 1.19738 1.19171 1.19414 1.18843 1.19161 1.19092 1.19041 1.19178 1.20114 1.1924 1.19294 1.19156 1.19806 1.1895 1.19615 1.19429 1.19317 1.19127 1.20212 1.20532 1.18874 1.19697 1.18416 1.19419 1.20445 1.19531 1.19178 1.20263 1.19175 1.20922 1.18757 1.18448 1.19298 1.19727 1.1922 1.19147 1.14848 1.15966 1.1773 1.20898 1.21598 1.23513 1.22091 1.1811 1.21937 1.21216 1.0716 1.11865 1.08865 1.15037 1.13104 1.0759 1.08208 1.01651 0.309861 0.50665 0.635575 0.561876 0.812403 0.790988 1.21278 0.617996 0.579616 0.44642 0.878658 0.885062 0.813516 0.852884 0.511325 0.900064 0.758483 0.921906 0.995472 0.915619 1.00985 0.99657 1.22094 1.1455 1.22029 1.19108 1.10577 1.16695 1.2321 1.14448 1.19201 1.17865 1.15791 1.19237 1.196 1.19472 1.19357 1.19874 1.19085 1.19018 1.18535 1.19218 1.19173 1.19177 1.19172 1.19445 1.19088 1.19229 1.19357 1.19216 1.19442 1.18934 1.20225 1.19968 1.16948 1.1782 1.19178 1.20401 1.18554 1.19525 1.20011 1.19126 1.19216 1.19238 1.19484 1.20404 1.19682 1.19068 1.20069 1.19569 1.19242 1.19612 1.19253 1.20938 1.18923 1.18584 1.19124 1.19565 1.2032 1.19139 1.17259 1.16922 1.20782 1.18677 1.19128 1.19677 1.19113 1.19225 1.17785 1.1641 1.18129 1.22423 1.16317 1.18851 1.19622 1.17591 1.12075 1.01963 1.12269 1.15676 1.10939 1.02664 1.01336 1.02794 0.954599 1.04658 1.09815 1.08772 0.369436 0.464742 0.672633 0.905896 0.8569 0.680669 0.441501 0.952371 0.819623 0.937836 0.880602 0.862245 0.834784 0.841544 0.888809 0.952607 1.19516 0.931389 1.03703 1.033 1.025 1.0118 1.20311 1.18615 1.22388 1.15533 1.14603 1.10155 1.22396 1.13372 1.19295 1.18046 1.19265 1.19544 1.19293 1.19391 1.19091 1.19596 1.1958 1.19195 1.19253 1.19036 1.19663 1.18929 1.18982 1.19196 1.19362 1.19427 1.19175 1.19408 1.19147 1.20232 1.20115 1.19667 1.18283 1.20379 1.18291 1.19233 1.19818 1.18448 1.193 1.19016 1.19348 1.20389 1.19469 1.19815 1.19833 1.20369 1.20539 1.19185 1.1985 1.19834 1.18823 1.2087 1.18427 1.18187 1.1939 1.19336 1.18741 1.20464 1.18177 1.20013 1.18732 1.19157 1.19428 1.189 1.18985 1.19398 1.18145 1.17274 1.16844 1.16841 1.19987 1.15904 1.19226 1.20639 1.11235 1.14442 1.10076 1.02762 0.995138 1.02755 0.92174 1.02743 1.08104 1.09165 1.07171 1.04543 1.08091 0.37529 0.527128 0.516423 0.867667 1.129 0.898965 0.809872 0.915302 0.963437 0.861167 1.01119 0.916839 0.893124 1.00093 0.982724 1.11103 1.02681 1.04337 1.03272 1.04619 1.08086 1.18464 1.19644 1.23085 1.21575 1.15009 1.19395 1.18821 1.21274 1.18077 1.17459 1.16139 1.19139 1.19522 1.19251 1.19379 1.19221 1.1967 1.19178 1.19555 1.20494 1.19111 1.18845 1.19646 1.18896 1.1948 1.19248 1.19441 1.18967 1.18671 1.19161 1.19469 1.20148 1.19178 1.18268 1.20661 1.18884 1.19116 1.19189 1.18812 1.18809 1.19846 1.20011 1.19423 1.19656 1.19665 1.2047 1.19182 1.1998 1.19956 1.20801 1.18173 1.19094 1.19495 1.20112 1.18667 1.18743 1.19091 1.20911 1.1852 1.19159 1.19244 1.19202 1.19158 1.18366 1.18047 1.16555 1.17845 1.16209 1.18846 1.16197 1.18025 1.15512 1.11681 1.11193 1.14615 1.10315 1.05907 0.964018 0.96138 0.912958 0.977384 1.11532 1.01459 1.09288 1.17936 0.527908 0.964108 1.06507 0.951021 1.10382 0.969933 0.990206 0.956804 0.950378 1.02059 0.982547 1.00762 0.984284 0.99153 1.08041 0.995847 1.09915 1.11662 1.17624 1.08494 1.12825 1.25873 1.22149 1.16345 1.1182 1.15938 1.18618 1.19443 1.21234 1.1809 1.17475 1.16252 1.19172 1.19506 1.19251 1.19602 1.18916 1.19261 1.19521 1.20297 1.19313 1.19339 1.19228 1.19544 1.18706 1.19014 1.18756 1.19451 1.17822 1.18896 1.20244 1.20001 1.19016 1.20483 1.19444 1.19015 1.19334 1.18875 1.19137 1.19484 1.19384 1.1966 1.20163 1.19943 1.19255 1.19693 1.204 1.19047 1.19604 1.19627 1.1942 1.20721 1.18591 1.18903 1.20436 1.19492 1.17291 1.19149 1.1843 1.1925 1.19007 1.19045 1.19206 1.18789 1.18716 1.18036 1.18324 1.1639 1.18344 1.16316 1.17254 1.16932 1.13231 1.10407 1.06976 1.16674 1.1235 0.993576 0.942628 0.964755 1.16882 1.04767 1.01654 1.17763 1.3157 1.06403 1.00072 1.06253 1.00765 0.985613 0.990632 0.935261 1.02064 1.10714 1.09772 1.05267 1.05377 1.01595 0.971732 1.09761 1.17779 1.07597 1.12949 1.13127 1.05556 1.17204 1.18597 1.11908 1.18601 1.19287 1.19898 1.1854 1.16557 1.16603 1.17027 1.1956 1.1922 1.1863 1.18666 1.19703 1.19813 1.20361 1.1906 1.2003 1.2031 1.19597 1.19324 1.19429 1.18879 1.18582 1.20017 1.185 1.19944 1.20155 1.19602 1.18966 1.19212 1.19143 1.19245 1.20015 1.18431 1.18837 1.19234 1.1909 1.19722 1.19503 1.19447 1.20358 1.19552 1.19297 1.19247 1.20496 1.2202 1.21318 1.18215 1.19184 1.1874 1.19444 1.20714 1.18809 1.20581 1.20099 1.19445 1.18968 1.18974 1.20028 1.19148 1.18566 1.18351 1.18013 1.17015 1.18335 1.17402 1.18155 1.12139 1.12367 1.16489 1.1088 1.17647 1.15761 0.969008 1.1778 1.16497 1.09661 1.17593 1.05715 1.16903 1.0541 1.02247 1.09442 0.978598 1.04798 0.944119 1.00692 1.01255 1.06215 1.08909 1.09432 1.17625 1.04166 0.981681 0.980875 1.10467 1.18295 1.15068 1.16418 1.18557 1.16614 1.18548 1.14339 1.17588 1.16117 1.15416 1.19369 1.19914 1.19178 1.18134 1.16692 1.17084 1.19741 1.19897 1.18613 1.1956 1.19441 1.19372 1.20219 1.20137 1.19335 1.19228 1.18714 1.18474 1.18544 1.20058 1.17095 1.20094 1.20398 1.20127 1.1924 1.19442 1.18938 1.19184 1.19948 1.18818 1.19656 1.19481 1.20873 1.21431 1.18739 1.20122 1.19517 1.19179 1.20293 1.21933 1.21307 1.18871 1.18052 1.2006 1.19631 1.18599 1.2026 1.17844 1.19484 1.20616 1.19927 1.20402 1.19234 1.18666 1.18462 1.18996 1.19993 1.18842 1.19356 1.1891 1.17532 1.19723 1.18626 1.18656 1.16982 1.20413 1.12564 1.13189 1.17722 1.14757 1.1159 1.18869 1.18788 1.09914 1.13503 1.06567 1.03486 1.0552 1.22319 1.13877 0.999041 1.10322 1.15125 1.10347 1.10828 1.10397 1.16543 1.02791 1.10583 1.1817 1.1608 1.16413 1.17789 1.16779 1.16753 1.19429 1.1927 1.1886 1.19348 1.18777 1.17776 1.18985 1.17974 1.17297 1.19369 1.19765 1.19709 1.18631 1.19625 1.19292 1.19982 1.18884 1.19662 1.19823 1.19434 1.19493 1.19392 1.18779 1.18292 1.20055 1.19533 1.17823 1.19132 1.19178 1.20323 1.20172 1.18973 1.18697 1.18861 1.1932 1.20362 1.19106 1.1964 1.19662 1.19501 1.22025 1.19064 1.2017 1.19884 1.19172 1.20332 1.20991 1.18492 1.20962 1.19602 1.19104 1.20064 1.19178 1.17851 1.20543 1.19178 1.20084 1.20495 1.18412 1.18942 1.18764 1.17864 1.18731 1.17676 1.1951 1.2004 1.19355 1.18672 1.17351 1.19479 1.14194 1.15045 1.13553 1.16652 1.14653 1.1157 1.18038 1.18145 1.17579 1.18597 1.09914 1.12526 1.0676 1.11671 1.11604 1.07418 1.142 1.02606 1.13766 1.04378 1.06457 1.1638 1.13372 1.1261 1.17309 1.11774 1.10558 1.18208 1.16895 1.18901 1.18181 1.19425 1.19148 1.19055 1.18836 1.19424 1.17906 1.18933 1.18948 1.17402 1.20025 1.19724 1.1856 1.19282 1.19159 1.19288 1.19827 1.19041 1.18979 1.20111 1.1979 1.19876 1.19695 1.18792 1.18887 1.19933 1.18948 1.19565 1.19892 1.20338 1.19206 1.19234 1.20662 1.20941 1.1978 1.19647 1.20033 1.20752 1.18946 1.19531 1.20213 1.19894 1.19863 1.20171 1.20709 1.20532 1.20507 1.19718 1.19864 1.20309 1.20777 1.20036 1.20212 1.20217 1.19382 1.18883 1.17809 1.18098 1.19848 1.19178 1.18843 1.1875 1.16384 1.19612 1.18602 1.17552 1.19646 1.15984 1.14687 1.19712 1.19458 1.1622 1.14924 1.12557 1.18646 1.15792 1.19752 1.10946 1.12935 1.09076 1.14397 1.13369 1.10421 1.14237 1.04001 1.05022 1.13461 1.09252 1.1756 1.14826 1.17403 1.15154 1.17741 1.11773 1.14858 1.14529 1.15906 1.17036 1.16946 1.18893 1.18383 1.19291 1.19187 1.19024 1.19136 1.19485 1.17868 1.17863 1.17332 1.19959 1.19786 1.18604 1.19174 1.19178 1.19055 1.19775 1.20278 1.19271 1.19346 1.1972 1.19661 1.19642 1.19346 1.19178 1.19163 1.19435 1.20471 1.19805 1.19178 1.19817 1.20316 1.18996 1.19513 1.20248 1.19048 1.20892 1.19728 1.19413 1.20133 1.20892 1.1889 1.19629 1.19832 1.19891 1.20222 1.20702 1.20376 1.18645 1.19239 1.18993 1.20244 1.20557 1.19525 1.20261 1.20794 1.19737 1.21839 1.18396 1.18257 1.18525 1.17754 1.19865 1.18823 1.19178 1.19178 1.19178 1.17895 1.18515 1.18258 1.16592 1.17079 1.20489 1.16307 1.16103 1.14462 1.14355 1.15349 1.18893 1.15705 1.19701 1.10396 1.16119 1.13715 1.14969 1.15435 1.15186 1.0565 1.12947 1.12896 1.16618 1.20175 1.16996 1.13145 1.16293 1.15246 1.14686 1.15743 1.17436 1.16885 1.17393 1.19521 1.18504 1.19225 1.18573 1.19055 1.19133 1.18708 1.18645 1.1774 1.17801 1.17867 1.17993 1.19191 1.19786 1.19653 1.19178 1.19207 1.19306 1.19169 1.20348 1.21446 1.19101 1.1975 1.19649 1.19562 1.19289 1.1906 1.19374 1.20357 1.20525 1.205 1.19804 1.20155 1.20366 1.19232 1.20102 1.18847 1.20041 1.21119 1.19685 1.20641 1.20445 1.19793 1.18923 1.19534 1.19506 1.19361 1.19438 1.20077 1.20639 1.20404 1.1882 1.18134 1.18629 1.2043 1.19934 1.18537 1.20716 1.19092 1.19838 1.21646 1.1866 1.18563 1.17665 1.19512 1.1981 1.18125 1.19442 1.18766 1.17623 1.1826 1.17471 1.17234 1.20102 1.16293 1.17289 1.1712 1.23236 1.19298 1.19508 1.19966 1.17241 1.16258 1.15085 1.15464 1.15502 1.13115 1.13939 1.15805 1.10665 1.13404 1.14347 1.16912 1.19311 1.15681 1.19741 1.18389 1.16553 1.15485 1.19286 1.15859 1.17485 1.18599 1.20402 1.19023 1.19288 1.19103 1.1893 1.19237 1.18731 1.18794 1.17676 1.18778 1.18794 1.18515 1.20053 1.17974 1.19552 1.19843 1.19689 1.18565 1.18959 1.19393 1.20926 1.19272 1.18938 1.19727 1.19585 1.19105 1.19361 1.19107 1.19257 1.20118 1.20394 1.19831 1.19779 1.20213 1.19695 1.19246 1.2018 1.18044 1.19534 1.1982 1.20285 1.20527 1.19627 1.1859 1.19659 1.19428 1.19075 1.18561 1.19234 1.19354 1.20631 1.19178 1.19171 1.18792 1.19038 1.17721 1.20045 1.1947 1.19992 1.19229 1.19229 1.20244 1.21827 1.19561 1.19385 1.18597 1.19607 1.1968 1.20776 1.19373 1.19028 1.17568 1.16932 1.18595 1.17987 1.17663 1.18282 1.15179 1.18786 1.19832 1.17139 1.17564 1.19775 1.18795 1.20048 1.17299 1.1671 1.16726 1.16207 1.15197 1.16338 1.12428 1.14877 1.14943 1.17314 1.1891 1.18474 1.15945 1.19489 1.17689 1.17405 1.15973 1.18376 1.1886 1.17795 1.19354 1.19305 1.19051 1.18223 1.19374 1.19178 1.19155 1.19946 1.19338 1.20048 1.17959 1.19352 1.19771 1.19766 1.18824 1.19201 1.20677 1.18783 1.20217 1.19152 1.19413 1.18089 1.19861 1.19005 1.1924 1.18862 1.20178 1.20649 1.19668 1.20632 1.20432 1.2062 1.20136 1.18275 1.19091 1.19733 1.19457 1.20967 1.19764 1.18357 1.1783 1.1923 1.1856 1.19018 1.19382 1.20495 1.19303 1.20004 1.16197 1.18785 1.20098 1.19587 1.19905 1.19185 1.18473 1.20459 1.21726 1.19453 1.19021 1.19178 1.19607 1.19837 1.19579 1.1904 1.18711 1.17112 1.18846 1.17908 1.19178 1.18903 1.18818 1.19401 1.19187 1.18032 1.19865 1.1956 1.18695 1.20106 1.17271 1.16798 1.15545 1.15733 1.17554 1.16283 1.155 1.1683 1.16894 1.18286 1.15378 1.17667 1.19137 1.18739 1.20015 1.1889 1.18115 1.1733 1.16031 1.18367 1.18946 1.17912 1.19412 1.19493 1.18597 1.18144 1.19836 1.18689 1.19848 1.19901 1.19482 1.20621 1.20182 1.19348 1.20409 1.19306 1.18585 1.19619 1.20443 1.18222 1.20243 1.19645 1.19893 1.19235 1.21332 1.18387 1.18471 1.19676 1.18139 1.20774 1.19552 1.20635 1.20451 1.20307 1.20044 1.19178 1.18733 1.18066 1.18717 1.18707 1.20122 1.20158 1.1807 1.20248 1.19228 1.18528 1.1852 1.19255 1.20365 1.2014 1.19766 1.19875 1.16625 1.19565 1.19665 1.20018 1.19557 1.18558 1.19869 1.22037 1.19249 1.19063 1.19178 1.1968 1.19848 1.19573 1.19501 1.19723 1.17403 1.1875 1.17812 1.19397 1.18585 1.19595 1.18249 1.18503 1.1987 1.20257 1.20064 1.18905 1.20294 1.17203 1.17308 1.1589 1.18626 1.1648 1.19153 1.17002 1.17473 1.18505 1.18765 1.1916 1.19169 1.18777 1.20044 1.18954 1.17922 1.19178 1.16293 1.18588 1.19153 1.20545 1.19539 1.19505 1.19178 1.17993 1.1959 1.18527 1.20508 1.19873 1.19334 1.1922 1.18834 1.19837 1.19857 1.19364 1.18514 1.20599 1.20187 1.18222 1.20249 1.19405 1.19924 1.1953 1.19277 1.18406 1.19178 1.1992 1.18559 1.20647 1.19936 1.20292 1.19415 1.20677 1.20122 1.18622 1.18849 1.18398 1.19057 1.20148 1.15518 1.19702 1.1895 1.1987 1.19066 1.17915 1.17816 1.19499 1.20865 1.17362 1.19669 1.20175 1.19178 1.18698 1.19629 1.18877 1.19611 1.19031 1.19793 1.22058 1.19325 1.19779 1.19802 1.1963 1.1988 1.19178 1.19627 1.19756 1.1849 1.1786 1.19074 1.20003 1.19121 1.19619 1.18313 1.19212 1.20073 1.20035 1.2042 1.18965 1.15568 1.18293 1.20006 1.19957 1.17795 1.17109 1.17957 1.17388 1.17813 1.17645 1.18691 1.19185 1.19382 1.18792 1.20016 1.18939 1.19171 1.19163 1.19184 1.19196 1.19178 1.20555 1.19553 1.19134 1.1896 1.18886 1.19664 1.18504 1.19864 1.19617 1.19566 1.1984 1.19284 1.18818 1.19525 1.19234 1.20084 1.2016 1.19914 1.18178 1.18418 1.19485 1.19599 1.19105 1.19402 1.19108 1.18144 1.2026 1.19965 1.20203 1.20066 1.20408 1.1995 1.19598 1.20585 1.19865 1.19228 1.18748 1.18338 1.19073 1.18112 1.18238 1.19906 1.20193 1.19629 1.1884 1.17743 1.18257 1.21252 1.20506 1.19321 1.20231 1.17853 1.1949 1.19789 1.18909 1.19544 1.20106 1.19178 1.20151 1.19684 1.19655 1.19977 1.1958 1.1965 1.19651 1.18462 1.18426 1.19277 1.18295 1.19894 1.202 1.19897 1.18207 1.1849 1.19687 1.20298 1.21475 1.21501 1.20578 1.19132 1.19152 1.17024 1.17804 1.18042 1.17882 1.18045 1.19296 1.18841 1.19046 1.19518 1.19736 1.20053 1.18973 1.19178 1.19178 1.19178 1.1988 1.19566 1.20615 1.18968 1.19829 1.18931 1.18918 1.19709 1.17592 1.19794 1.19806 1.19558 1.19712 1.19148 1.18724 1.19413 1.19312 1.19025 1.19655 1.20327 1.1827 1.19171 1.19447 1.19492 1.19183 1.18186 1.19619 1.21106 1.21174 1.19603 1.19615 1.19995 1.19493 1.20328 1.1961 1.19178 1.18647 1.18361 1.1911 1.18037 1.18098 1.19767 1.1962 1.19291 1.18435 1.17336 1.1828 1.18145 1.20955 1.17959 1.19414 1.21703 1.19315 1.17946 1.19119 1.1919 1.19577 1.1983 1.20203 1.19123 1.19917 1.20116 1.19085 1.19674 1.19142 1.19663 1.19178 1.19653 1.18324 1.18953 1.18948 1.19627 1.19907 1.20198 1.19838 1.19674 1.18398 1.19122 1.20584 1.19153 1.2038 1.20593 1.19733 1.19899 1.18786 1.16804 1.17623 1.17626 1.18046 1.1836 1.18975 1.17942 1.1944 1.19335 1.19927 1.2025 1.1997 1.18927 1.1918 1.19177 1.19178 1.20307 1.19581 1.20566 1.18646 1.19889 1.19178 1.18966 1.19532 1.1772 1.21667 1.19063 1.19551 1.19691 1.19202 1.18675 1.19431 1.18658 1.19237 1.19943 1.20458 1.18198 1.1812 1.19317 1.19311 1.19112 1.19082 1.20172 1.19539 1.19284 1.20317 1.19631 1.19197 1.19509 1.1933 1.20219 1.19352 1.1766 1.18851 1.17557 1.18799 1.17479 1.18786 1.17111 1.19634 1.18089 1.18841 1.19117 1.18279 1.18284 1.15333 1.16115 1.1838 1.19058 1.21724 1.18647 1.17945 1.1918 1.19207 1.18724 1.19652 1.19185 1.20103 1.1981 1.20123 1.18913 1.19567 1.19289 1.19494 1.18665 1.21431 1.1881 1.20007 1.19381 1.20213 1.20438 1.1936 1.19769 1.18656 1.19063 1.20491 1.19063 1.19835 1.19979 1.19436 1.2016 1.18849 1.18529 1.17387 1.18406 1.18619 1.19514 1.19178 1.19474 1.17949 1.20707 1.20203 1.19789 1.18918 1.19768 1.19506 1.19088 1.20159 1.19549 1.20525 1.18941 1.20082 1.20105 1.18966 1.19345 1.21149 1.22488 1.21356 1.19178 1.19714 1.19813 1.19015 1.18544 1.17863 1.18655 1.18746 1.19737 1.20114 1.18039 1.18107 1.19939 1.19008 1.18564 1.18092 1.20228 1.19381 1.19021 1.2032 1.20267 1.19655 1.19635 1.19374 1.18716 1.19411 1.17581 1.18598 1.19307 1.18368 1.20204 1.19013 1.19636 1.16187 1.19042 1.16046 1.15253 1.18887 1.19203 1.19285 1.16873 1.16979 1.18926 1.21461 1.18154 1.19169 1.19355 1.19438 1.19495 1.19161 1.19948 1.19641 1.20065 1.18758 1.19249 1.18841 1.19564 1.19897 1.21158 1.18506 1.1981 1.20567 1.19048 1.19696 1.19031 1.19692 1.18605 1.19011 1.17671 1.19621 1.19839 1.19394 1.18233 1.20726 1.18939 1.18781 1.17295 1.1923 1.18777 1.1955 1.19467 1.19939 1.19428 1.21452 1.20138 1.19844 1.18956 1.18855 1.19449 1.18646 1.20007 1.20046 1.1966 1.20596 1.20017 1.20133 1.20408 1.21409 1.19531 1.2135 1.19043 1.20052 1.19106 1.19887 1.18071 1.19177 1.19016 1.18942 1.19704 1.19838 1.18135 1.18712 1.2027 1.18925 1.18241 1.20209 1.19616 1.19655 1.19039 1.19052 1.20454 1.20253 1.1853 1.19907 1.1881 1.1913 1.17763 1.18533 1.19577 1.18451 1.20241 1.19086 1.20831 1.1723 1.19879 1.21318 1.18832 1.19178 1.18905 1.19248 1.16962 1.18842 1.21322 1.18685 1.19185 1.15951 1.19178 1.19312 1.19178 1.19311 1.19056 1.19566 1.19537 1.18758 1.20032 1.20291 1.19085 1.19594 1.19828 1.20893 1.19086 1.16853 1.21259 1.18983 1.19391 1.18767 1.19532 1.20634 1.18199 1.17463 1.19482 1.20516 1.17284 1.1912 1.19247 1.17971 1.19326 1.17799 1.19268 1.18904 1.19526 1.19791 1.19822 1.19906 1.19178 1.2011 1.20313 1.19109 1.19246 1.19493 1.19266 1.19178 1.19474 1.20766 1.20379 1.209 1.20079 1.20375 1.19564 1.18997 1.19239 1.19976 1.19781 1.20871 1.18833 1.16199 1.20282 1.19919 1.18846 1.19222 1.18228 1.20985 1.20244 1.19804 1.18281 1.18755 1.19237 1.19188 1.1881 1.18993 1.2012 1.18797 1.18352 1.17799 1.19147 1.18888 1.21525 1.18545 1.19121 1.18579 1.20098 1.20351 1.20609 1.16904 1.1832 1.20729 1.18759 1.19543 1.2006 1.19232 1.20037 1.16844 1.20593 1.19613 1.19699 1.19973 1.19405 1.19459 1.19178 1.19111 1.1935 1.19406 1.18808 1.20381 1.20417 1.19383 1.19775 1.19756 1.18163 1.21135 1.201 1.17596 1.19565 1.19705 1.18605 1.19235 1.20346 1.19547 1.17939 1.18409 1.20377 1.18433 1.19291 1.18775 1.18996 1.17895 1.16633 1.18464 1.18831 1.19678 1.19204 1.19312 1.20155 1.21451 1.19841 1.20387 1.19156 1.19243 1.1999 1.1869 1.19796 1.18562 1.2046 1.2027 1.19178 1.19326 1.19771 1.21843 1.19578 1.18139 1.18631 1.1986 1.21293 1.21291 1.19509 1.18349 1.203 1.19743 1.19394 1.19401 1.1805 1.21299 1.19408 1.19714 1.18129 1.1883 1.19005 1.18881 1.18917 1.19127 1.1857 1.19606 1.18746 1.17978 1.18519 1.18426 1.21595 1.19865 1.18613 1.18534 1.20437 1.20193 1.19191 1.18445 1.18725 1.19137 1.19318 1.19931 1.19494 1.20119 1.20267 1.1974 1.20101 1.20184 1.19842 1.19877 1.19341 1.19178 1.18491 1.20281 1.19092 1.19209 1.20241 1.2049 1.19407 1.1763 1.19484 1.19498 1.19551 1.19504 1.19069 1.20696 1.18505 1.18025 1.19562 1.17996 1.19111 1.20592 1.19919 1.18629 1.1916 1.20185 1.18428 1.19237 1.19016 1.19264 1.17226 1.2129 1.17622 1.18549 1.19598 1.1967 1.19026 1.19087 1.19834 1.21267 1.1951 1.20306 1.20675 1.18798 1.21319 1.18762 1.20417 1.18767 1.20922 1.16609 1.18128 1.19559 1.19124 1.19681 1.20603 1.19656 1.19175 1.18685 1.19548 1.21671 1.20983 1.19253 1.18383 1.20476 1.20321 1.19313 1.19007 1.23546 1.19178 1.19402 1.19368 1.20676 1.17558 1.18775 1.1808 1.1965 1.19277 1.18566 1.19444 1.18844 1.17842 1.18239 1.1827 1.21508 1.20097 1.18347 1.18437 1.17979 1.1998 1.19045 1.21087 1.19255 1.19817 1.1852 1.19123 1.18794 1.19383 1.20684 1.19705 1.19753 1.19752 1.19144 1.19798 1.19018 1.18055 1.18788 1.20289 1.19417 1.19255 1.19187 1.20418 1.18398 1.18953 1.19607 1.19312 1.19341 1.17627 1.19915 1.20862 1.17427 1.19561 1.18495 1.19548 1.19468 1.19315 1.19185 1.1926 1.19022 1.17887 1.19087 1.18855 1.18578 1.19156 1.18935 1.19203 1.18686 1.19842 1.19619 1.19042 1.19201 1.19837 1.20065 1.20998 1.19473 1.20439 1.20805 1.17072 1.20641 1.18883 1.20647 1.18879 1.19967 1.20654 1.19178 1.19178 1.20189 1.19746 1.20918 1.20924 1.18564 1.20576 1.19968 1.23072 1.21136 1.19654 1.19569 1.18965 1.18568 1.18986 1.18964 1.18726 1.23524 1.19347 1.17593 1.19193 1.2075 1.19968 1.17757 1.19427 1.19555 1.19138 1.18369 1.19142 1.19053 1.19195 1.17928 1.18318 1.21488 1.21165 1.18065 1.1829 1.17728 1.17966 1.19756 1.1852 1.21099 1.19333 1.18334 1.18783 1.19004 1.18581 1.17582 1.20277 1.1993 1.18723 1.1995 1.19229 1.19723 1.22845 1.19144 1.18632 1.19645 1.19662 1.19965 1.18777 1.20265 1.20492 1.18519 1.18731 1.19522 1.17852 1.19987 1.21207 1.18531 1.20536 1.18539 1.1974 1.19177 1.19518 1.19221 1.19443 1.198 1.19063 1.18882 1.17885 1.18836 1.19162 1.18365 1.18359 1.18647 1.19552 1.19561 1.19859 1.1915 1.21075 1.20397 1.1919 1.20134 1.19702 1.21735 1.22396 1.17108 1.22729 1.1945 1.18699 1.20547 1.19649 1.20349 1.19847 1.20279 1.20085 1.19345 1.20823 1.19745 1.18588 1.20886 1.2105 1.19692 1.19585 1.18376 1.19663 1.18597 1.19245 1.20194 1.1962 1.18393 1.19985 1.1761 1.20203 1.17515 1.19385 1.19178 1.18633 1.19178 1.18811 1.19543 1.17917 1.17604 1.18033 1.21347 1.18344 1.19541 1.18997 1.18854 1.19248 1.1832 1.20302 1.1995 1.19178 1.18784 1.18936 1.18338 1.17737 1.18725 1.18778 1.19294 1.19872 1.19925 1.19509 1.19909 1.19752 1.19191 1.19602 1.19054 1.18807 1.2013 1.20728 1.197 1.18467 1.187 1.17608 1.1953 1.18037 1.22431 1.20047 1.20328 1.17492 1.18321 1.20354 1.19016 1.18999 1.18895 1.20179 1.18645 1.19266 1.18925 1.17744 1.18484 1.19246 1.17736 1.1994 1.19637 1.19791 1.20184 1.18964 1.19656 1.22428 1.18304 1.19229 1.1915 1.18744 1.19353 1.20892 1.19588 1.1975 1.20137 1.20228 1.20178 1.20943 1.20084 1.18408 1.21384 1.2027 1.18676 1.19861 1.18294 1.19081 1.18901 1.18201 1.19874 1.18174 1.19924 1.18416 1.20002 1.1971 1.18025 1.1794 1.18969 1.20505 1.18021 1.19158 1.18416 1.19851 1.2146 1.174 1.17461 1.20315 1.19742 1.19051 1.18701 1.18513 1.18786 1.18286 1.20473 1.19937 1.20042 1.20578 1.19 1.1912 1.18459 1.17465 1.18137 1.18763 1.187 1.19203 1.19759 1.19081 1.19403 1.19912 1.19757 1.19603 1.18917 1.19542 1.19024 1.19919 1.20126 1.19751 1.20052 1.19607 1.18517 1.18732 1.19466 1.18671 1.17484 1.20607 1.20231 1.19913 1.18087 1.1845 1.20034 1.18687 1.18023 1.18715 1.19133 1.19423 1.18247 1.20207 1.19178 1.19201 1.18454 1.18281 1.18921 1.19897 1.2011 1.20202 1.19834 1.19601 1.21101 1.21254 1.18102 1.18825 1.193 1.18707 1.1923 1.20651 1.20253 1.19658 1.19171 1.20487 1.20771 1.20578 1.19421 1.18934 1.17727 1.21014 1.19074 1.18708 1.18956 1.19466 1.18727 1.18409 1.21236 1.18626 1.19758 1.21478 1.1976 1.20602 1.17231 1.17881 1.18822 1.19471 1.17666 1.18701 1.18564 1.20342 1.21228 1.20988 1.17325 1.17108 1.20194 1.19436 1.18983 1.18715 1.18468 1.18596 1.18254 1.18177 1.19033 1.20477 1.20264 1.19417 1.17988 1.15886 1.18632 1.18696 1.18592 1.19178 1.1939 1.19657 1.19465 1.18696 1.19469 1.19378 1.19263 1.19806 1.1973 1.19903 1.1844 1.18482 1.18561 1.18164 1.17506 1.17554 1.20651 1.19992 1.17903 1.17157 1.20033 1.18752 1.18056 1.17502 1.19867 1.16425 1.19986 1.19255 1.18227 1.19006 1.17925 1.18272 1.18903 1.19899 1.1988 1.20096 1.19875 1.19784 1.19745 1.20645 1.22458 1.16998 1.17983 1.19323 1.20345 1.19246 1.18115 1.19164 1.19026 1.19407 1.19928 1.20594 1.20421 1.18742 1.19024 1.18491 1.18495 1.1931 1.19406 1.19576 1.19532 1.1926 1.1954 1.18535 1.2097 1.18619 1.2001 1.19178 1.19124 1.1708 1.18366 1.19915 1.2121 1.19069 1.19178 1.18963 1.17891 1.18516 1.18341 1.17798 1.20997 1.17438 1.17209 1.19035 1.1936 1.188 1.18935 1.18534 1.19161 1.18104 1.18064 1.18104 1.20598 1.20459 1.19459 1.1547 1.16685 1.19043 1.18427 1.18439 1.19455 1.19231 1.19447 1.19747 1.1947 1.19288 1.19178 1.19248 1.192 1.19744 1.18154 1.18796 1.18584 1.18391 1.17729 1.1774 1.17692 1.19205 1.1954 1.20445 1.20425 1.17986 1.17196 1.2216 1.18763 1.18451 1.17039 1.1873 1.23133 1.1995 1.19178 1.18178 1.18958 1.17658 1.17993 1.18895 1.19866 1.19773 1.19875 1.1998 1.19242 1.20066 1.19178 1.20465 1.19178 1.20475 1.18894 1.18749 1.19227 1.18766 1.19864 1.20094 1.19874 1.19994 1.18833 1.19429 1.19245 1.19159 1.20112 1.2078 1.19279 1.18767 1.18937 1.19376 1.19509 1.18259 1.21003 1.20034 1.18619 1.1826 1.18725 1.17749 1.19819 1.18612 1.19147 1.19345 1.1835 1.18176 1.17743 1.17004 1.17189 1.1877 1.19421 1.18639 1.1899 1.1879 1.17895 1.18015 1.18291 1.18147 1.1889 1.19345 1.16 1.1673 1.18544 1.18222 1.18411 1.18367 1.19037 1.19198 1.19527 1.19295 1.19587 1.19366 1.19249 1.19022 1.19824 1.19059 1.17708 1.18715 1.18431 1.18264 1.16657 1.17612 1.18848 1.19019 1.21482 1.20987 1.18628 1.16958 1.17156 1.21824 1.19248 1.17113 1.18976 1.23179 1.23242 1.19618 1.18542 1.1866 1.18976 1.1757 1.17656 1.18894 1.19789 1.19587 1.19674 1.19549 1.19922 1.19152 1.19171 1.19619 1.2052 1.22078 1.2122 1.19518 1.20412 1.20197 1.19006 1.19428 1.18785 1.19869 1.21195 1.19169 1.1974 1.20093 1.18403 1.18863 1.19556 1.1834 1.20113 1.19318 1.19156 1.19593 1.18037 1.19688 1.19206 1.20138 1.19476 1.1824 1.21133 1.18396 1.17976 1.19998 1.19961 1.18996 1.19123 1.17976 1.18962 1.1794 1.17423 1.19178 1.18043 1.17569 1.18772 1.18959 1.18955 1.19417 1.18161 1.18309 1.17406 1.17434 1.18434 1.19537 1.18785 1.19247 1.18606 1.18832 1.20929 1.16811 1.18235 1.18617 1.1847 1.19154 1.18714 1.19387 1.19385 1.18986 1.19184 1.18436 1.17806 1.19663 1.17172 1.18368 1.19028 1.19359 1.1731 1.16484 1.19032 1.18884 1.18163 1.1812 1.16994 1.17263 1.20305 1.18839 1.19397 1.1815 1.18935 1.19914 1.19533 1.2082 1.18657 1.16983 1.18097 1.17353 1.18879 1.19708 1.19416 1.19178 1.18448 1.19633 1.18117 1.17876 1.19647 1.20166 1.20818 1.19347 1.20648 1.20558 1.20044 1.19841 1.16944 1.20825 1.19738 1.17127 1.19372 1.1956 1.17627 1.17808 1.20634 1.19682 1.1904 1.17947 1.19098 1.1864 1.19129 1.18252 1.20462 1.19356 1.21182 1.18386 1.18412 1.1766 1.18092 1.1977 1.19178 1.20009 1.18212 1.18908 1.18565 1.17379 1.18297 1.19147 1.19092 1.17581 1.18895 1.1821 1.18356 1.19377 1.18281 1.18448 1.17721 1.1832 1.18498 1.19533 1.19144 1.18589 1.20357 1.1926 1.21115 1.20676 1.16922 1.18145 1.18577 1.19178 1.18627 1.18451 1.19017 1.19228 1.19244 1.18709 1.18822 1.18216 1.18274 1.19183 1.16909 1.19178 1.19014 1.19196 1.18292 1.17938 1.17266 1.19298 1.1892 1.18648 1.17996 1.17478 1.16562 1.19002 1.19942 1.18391 1.18605 1.1842 1.17687 1.18911 1.17821 1.18268 1.17489 1.18883 1.19588 1.19386 1.1966 1.17874 1.19028 1.20895 1.19285 1.18759 1.19318 1.20662 1.20075 1.20256 1.20158 1.19081 1.19662 1.20667 1.19307 1.17129 1.16889 1.19109 1.19199 1.18548 1.17839 1.19781 1.17922 1.19182 1.21065 1.18768 1.1867 1.18336 1.19092 1.19006 1.20626 1.19559 1.18494 1.17455 1.17675 1.18258 1.18596 1.19773 1.18256 1.18806 1.1853 1.17194 1.17081 1.19862 1.18549 1.18198 1.18353 1.18282 1.19414 1.18313 1.18651 1.18095 1.18971 1.18544 1.18367 1.19295 1.18929 1.20532 1.18746 1.17209 1.18012 1.18599 1.19178 1.18558 1.18397 1.18362 1.18403 1.18962 1.18443 1.17833 1.18435 1.18263 1.19485 1.18966 1.20908 1.18642 1.187 1.17459 1.18827 1.18806 1.18526 1.17046 1.19639 1.1735 1.15901 1.18881 1.19367 1.18518 1.19198 1.18487 1.18343 1.17649 1.1876 1.20016 1.20087 1.18028 1.17664 1.16733 1.19211 1.18015 1.18159 1.18122 1.18783 1.19961 1.193 1.18645 1.19817 1.17861 1.20225 1.18324 1.15653 1.18393 1.17935 1.18967 1.19111 1.1858 1.1803 1.17929 1.17864 1.18551 1.18258 1.18909 1.18944 1.18322 1.19254 1.1822 1.18432 1.18449 1.17789 1.19674 1.18572 1.20518 1.18473 1.18341 1.18502 1.17203 1.17073 1.19119 1.19866 1.18525 1.18317 1.18531 1.17936 1.18153 1.18632 1.18635 1.18804 1.1837 1.18282 1.18855 1.19087 1.18357 1.19825 1.17375 1.17233 1.17862 1.18157 1.1744 1.18664 1.18463 1.18379 1.18368 1.1868 1.18159 1.18 1.17856 1.18042 1.19257 1.18894 1.1955 1.20384 1.18571 1.19072 1.20334 1.20049 1.19827 1.18828 1.18586 1.18297 1.19554 1.18534 1.19483 1.19297 1.18086 1.18685 1.18446 1.18399 1.19551 1.17609 1.19 1.18231 1.19283 1.19178 1.17808 1.17365 1.18649 1.19343 1.17548 1.18357 1.18429 1.18858 1.19506 1.18982 1.18581 1.16628 1.17928 1.16232 1.17986 1.1955 1.19177 1.18555 1.18828 1.18229 1.17952 1.18174 1.22104 1.1843 1.18806 1.18395 1.18527 1.18853 1.18872 1.1876 1.18333 1.18098 1.18125 1.1928 1.18295 1.17714 1.18411 1.19622 1.18735 1.18584 1.19182 1.18548 1.17675 1.1857 1.17222 1.17087 1.1904 1.19178 1.18402 1.19163 1.18499 1.17969 1.18255 1.18666 1.18663 1.18777 1.18327 1.18723 1.19153 1.18496 1.19089 1.19493 1.18356 1.17878 1.17583 1.18067 1.17287 1.18605 1.18468 1.19178 1.18577 1.18472 1.17985 1.17866 1.18396 1.18346 1.19108 1.16465 1.18406 1.19384 1.19935 1.18577 1.18596 1.18231 1.19176 1.1967 1.19785 1.1833 1.19365 1.1927 1.19246 1.18467 1.18596 1.18665 1.18968 1.17837 1.18149 1.17825 1.17624 1.1518 1.18649 1.19418 1.17211 1.18616 1.18253 1.18999 1.18775 1.19077 1.18072 1.18876 1.17499 1.19045 1.17001 1.20057 1.17212 1.16934 1.19503 1.19246 1.19254 1.1832 1.18881 1.18017 1.18088 1.18592 1.17881 1.18221 1.18303 1.18409 1.19115 1.19313 1.19253 1.1837 1.18075 1.18711 1.19473 1.18224 1.17586 1.18183 1.19283 1.18473 1.18403 1.1855 1.17337 1.17874 1.18953 1.2039 1.18637 1.19062 1.1849 1.1838 1.18426 1.17929 1.17926 1.18235 1.18836 1.18684 1.18781 1.18263 1.18697 1.18475 1.18172 1.18436 1.1903 1.1935 1.17452 1.17528 1.18748 1.18398 1.18508 1.18556 1.17897 1.18582 1.18335 1.19553 1.19553 1.19048 1.1825 1.16428 1.18711 1.18959 1.19835 1.19288 1.18527 1.18727 1.185 1.18626 1.1937 1.18368 1.1932 1.1911 1.19087 1.18726 1.19178 1.18527 1.18197 1.18818 1.18061 1.17641 1.18265 1.17773 1.174 1.19125 1.19436 1.167 1.18586 1.18085 1.18991 1.18905 1.1922 1.17929 1.18655 1.17304 1.1656 1.16979 1.16107 1.20107 1.1961 1.19422 1.17906 1.18902 1.18317 1.18469 1.17916 1.18114 1.18109 1.18864 1.18112 1.18149 1.18287 1.18266 1.1915 1.19329 1.19023 1.18312 1.19239 1.17767 1.1787 1.18412 1.17782 1.18158 1.19006 1.18262 1.18357 1.19181 1.2012 1.20061 1.19689 1.18834 1.18502 1.18488 1.19126 1.18228 1.18351 1.18823 1.18999 1.19543 1.18512 1.19217 1.19521 1.19103 1.20809 1.18263 1.18643 1.19163 1.19652 1.19077 1.17946 1.17833 1.17798 1.19244 1.18508 1.18491 1.18317 1.18474 1.17786 1.18041 1.18378 1.18793 1.18268 1.16449 1.18301 1.19841 1.19747 1.19794 1.19881 1.18574 1.18803 1.18702 1.19488 1.18914 1.19293 1.18726 1.19161 1.1897 1.18677 1.18539 1.1848 1.18338 1.18827 1.17587 1.17578 1.17365 1.1767 1.1912 1.19178 1.16816 1.18496 1.18083 1.17933 1.19054 1.1884 1.19003 1.178 1.18083 1.17797 1.17733 1.16955 1.16036 1.20687 1.19795 1.19497 1.16376 1.18457 1.17988 1.17843 1.17899 1.18123 1.18863 1.17671 1.17933 1.17709 1.17908 1.18829 1.19217 1.19153 1.18514 1.19058 1.18324 1.18794 1.18358 1.1863 1.17469 1.1826 1.18868 1.19178 1.19385 1.18965 1.18529 1.18005 1.18825 1.19154 1.18811 1.18482 1.18497 1.19354 1.18056 1.18422 1.18886 1.19643 1.19184 1.19178 1.18503 1.17565 1.18128 1.19136 1.18692 1.19106 1.17353 1.17779 1.18407 1.18304 1.18441 1.18703 1.18034 1.18561 1.17972 1.18465 1.18039 1.18246 1.18579 1.18789 1.1979 1.19148 1.1854 1.19419 1.18233 1.19274 1.19806 1.18559 1.18816 1.19105 1.18644 1.18883 1.18312 1.18634 1.18476 1.18313 1.18736 1.18848 1.18998 1.17801 1.19015 1.17887 1.17391 1.19095 1.18998 1.16689 1.18294 1.17726 1.19521 1.19566 1.18438 1.17398 1.17823 1.17493 1.17636 1.17305 1.18071 1.16673 1.20088 1.1819 1.1938 1.16548 1.16158 1.18363 1.17772 1.17732 1.1841 1.18929 1.17652 1.17435 1.17617 1.18866 1.19045 1.18143 1.18205 1.18127 1.18552 1.18378 1.18661 1.18234 1.1883 1.18712 1.18741 1.1861 1.18986 1.18484 1.18806 1.1797 1.18739 1.19661 1.18815 1.19325 1.19027 1.18145 1.191 1.19178 1.19254 1.18124 1.20173 1.18459 1.18897 1.19587 1.18783 1.18622 1.18636 1.18009 1.18285 1.18051 1.18938 1.19197 1.17365 1.17777 1.18368 1.18291 1.18406 1.18595 1.18151 1.18637 1.18573 1.17853 1.18202 1.18868 1.19198 1.18681 1.18639 1.20113 1.19208 1.18422 1.19129 1.19163 1.19033 1.18529 1.18828 1.19277 1.19081 1.19003 1.18344 1.18395 1.1859 1.18627 1.18338 1.18305 1.18976 1.18983 1.18956 1.19025 1.19356 1.19209 1.1833 1.17604 1.19178 1.18995 1.17343 1.17465 1.17904 1.17847 1.17126 1.18201 1.17371 1.19382 1.17393 1.17979 1.18713 1.19644 1.19373 1.18525 1.15715 1.17455 1.18427 1.17481 1.18816 1.17864 1.17066 1.17693 1.17775 1.17789 1.19178 1.17612 1.1757 1.18919 1.18886 1.18813 1.1821 1.18226 1.18149 1.19385 1.19371 1.1842 1.18977 1.18218 1.188 1.18591 1.1853 1.18946 1.18532 1.19127 1.19178 1.19029 1.18263 1.19119 1.19178 1.18185 1.19178 1.19222 1.18504 1.18925 1.19268 1.18812 1.18371 1.18509 1.18665 1.19113 1.19182 1.17369 1.18222 1.17718 1.18128 1.18261 1.1854 1.18474 1.1803 1.17758 1.18109 1.18751 1.18785 1.18607 1.18526 1.19165 1.18332 1.19178 1.18548 1.18856 1.1924 1.19205 1.19627 1.19001 1.19071 1.18841 1.18876 1.18587 1.18411 1.18382 1.19178 1.18303 1.18922 1.19121 1.19283 1.18428 1.19229 1.19177 1.19178 1.18992 1.18277 1.16938 1.17465 1.17068 1.19506 1.17184 1.17903 1.17518 1.17262 1.17925 1.18532 1.17865 1.17966 1.19041 1.15853 1.17806 1.17022 1.17943 1.1913 1.18376 1.1744 1.17755 1.18119 1.17468 1.17517 1.18056 1.18213 1.18795 1.18197 1.19211 1.18681 1.18143 1.18666 1.19123 1.19178 1.18872 1.18807 1.19178 1.19177 1.18893 1.19001 1.19178 1.19178 1.19178 1.19068 1.18384 1.18686 1.19129 1.19195 1.18437 1.19212 1.18501 1.18912 1.19191 1.18754 1.18668 1.18354 1.19144 1.18515 1.18676 1.19142 1.18971 1.19026 1.17744 1.1815 1.181 1.18463 1.18051 1.18231 1.1807 1.18027 1.17774 1.18023 1.18842 1.18385 1.18795 1.19023 1.19054 1.18194 1.18687 1.18502 1.1885 1.19242 1.18519 1.18946 1.18445 1.18804 1.18519 1.18447 1.19008 1.19284 1.18478 1.1915 1.19178 1.19255 1.19328 1.19051 1.17013 1.17254 1.19516 1.17139 1.18001 1.17498 1.17911 1.18447 1.19259 1.18677 1.16489 1.18047 1.17375 1.18115 1.19178 1.18134 1.18228 1.18892 1.17674 1.18081 1.17491 1.17444 1.17215 1.18089 1.18284 1.18145 1.19178 1.1813 1.19194 1.18681 1.18945 1.18814 1.19178 1.18732 1.19243 1.18461 1.19145 1.18861 1.19009 1.19213 1.19181 1.1922 1.19095 1.19154 1.1918 1.1857 1.19168 1.19211 1.1923 1.18975 1.18997 1.18745 1.18413 1.18711 1.19132 1.18697 1.18901 1.1847 1.19411 1.18107 1.17603 1.18189 1.18578 1.18179 1.18182 1.18023 1.18115 1.17744 1.18069 1.18115 1.18259 1.19162 1.19178 1.1851 1.18895 1.1913 1.19231 1.19495 1.18726 1.18489 1.18831 1.19178 1.18475 1.189 1.18969 1.19018 1.18443 1.18783 1.18458 1.19178 1.18677 1.19002 1.19113 1.19145 1.19119 1.19124 1.1879 1.17313 1.17061 1.17409 1.19186 1.17088 1.17919 1.17392 1.17228 1.18036 1.19063 1.193 1.184 1.18812 1.18143 1.18108 1.18099 1.18 1.18242 1.19088 1.18201 1.18645 1.18468 1.18643 1.17201 1.18299 1.18832 1.18222 1.18128 1.18685 1.18941 1.18737 1.18561 1.18628 1.19065 1.19174 1.19083 1.18665 1.19158 1.18596 1.19121 1.19061 1.18938 1.19062 1.18728 1.18488 1.18688 1.18803 1.19121 1.18948 1.1807 1.17603 1.18222 1.18729 1.18594 1.18029 1.18179 1.18104 1.18016 1.18344 1.18374 1.19233 1.18295 1.19178 1.19178 1.18765 1.19184 1.19126 1.18698 1.19117 1.18846 1.18489 1.19077 1.18806 1.18958 1.18458 1.19182 1.18666 1.1904 1.19156 1.19217 1.19093 1.19117 1.19178 1.19126 
SCALARS Stress float 1
LOOKUP_TABLE default
-2.0378e+12 -791926000000.0 -635659000000.0 -463591000000.0 -532154000000.0 -109138000000.0 -48644100000.0 -78953800000.0 -26252800000.0 -12549700000.0 -12940600000.0 -13818000000.0 -18417000000.0 -20030400000.0 -16636600000.0 -15245600000.0 -18326000000.0 -14250800000.0 -13000100000.0 -12549700000.0 -12549700000.0 -12549700000.0 -13069500000.0 -14178700000.0 -14031200000.0 -14609700000.0 -14022600000.0 -13847800000.0 -13094600000.0 -13424900000.0 -13478700000.0 -12649800000.0 -14486100000.0 -12621000000.0 -12702900000.0 -13813500000.0 -17869500000.0 -15600000000.0 -13157200000.0 -13795000000.0 -14927100000.0 -13487200000.0 -12925300000.0 -12834800000.0 -13176000000.0 -15481400000.0 -13260500000.0 -13659300000.0 -15527700000.0 -14928800000.0 -15254500000.0 -21211400000.0 -30822900000.0 -43112100000.0 -22715200000.0 -66735900000.0 -27799200000.0 -26881600000.0 -24211300000.0 -22997500000.0 -22216400000.0 -22932900000.0 -28104400000.0 -20989400000.0 -54511800000.0 -58395200000.0 -251227000000.0 -312860000000.0 -946363000000.0 -454141000000.0 -670753000000.0 -460267000000.0 -668194000000.0 -1.38127e+12 -2.4788e+12 -3.23696e+12 -1.13703e+12 -1.80662e+12 -883560000000.0 -215635000000.0 -1.05246e+12 -596346000000.0 -225775000000.0 -431517000000.0 -212860000000.0 -179267000000.0 -172071000000.0 -46272500000.0 -12549700000.0 -28535500000.0 -12549700000.0 -33601400000.0 -12549700000.0 -12549700000.0 -12549700000.0 -23793600000.0 -14390000000.0 -13048000000.0 -12918000000.0 -13693900000.0 -14518600000.0 -16946400000.0 -22802200000.0 -20898000000.0 -20043300000.0 -21678300000.0 -19615400000.0 -19105700000.0 -12549700000.0 -15199800000.0 -16550200000.0 -17286800000.0 -17448400000.0 -16570600000.0 -13754700000.0 -15931300000.0 -24292200000.0 -13136300000.0 -17656900000.0 -16406200000.0 -17344900000.0 -15950300000.0 -12752900000.0 -12959600000.0 -17490000000.0 -14094000000.0 -16512900000.0 -12872900000.0 -12815500000.0 -12549700000.0 -13359800000.0 -14252100000.0 -13910200000.0 -20415900000.0 -13199500000.0 -13692200000.0 -12549700000.0 -12575400000.0 -16114600000.0 -14401600000.0 -12549700000.0 -12549700000.0 -15772200000.0 -13569700000.0 -16493400000.0 -23263200000.0 -13455900000.0 -13374800000.0 -19514600000.0 -21772200000.0 -30250000000.0 -90299400000.0 -56524300000.0 -20846700000.0 -12549700000.0 -19056600000.0 -13029000000.0 -53678600000.0 -73769100000.0 -86946100000.0 -99492900000.0 -276804000000.0 -895369000000.0 -679181000000.0 -499029000000.0 -643362000000.0 -1.64867e+12 -1.57863e+12 -1.38941e+12 -2.90035e+12 -1.52359e+12 -3.11135e+12 -3.117e+12 -4.56967e+12 -2.51952e+12 -1.75703e+12 -730068000000.0 -1.69163e+12 -944510000000.0 -764427000000.0 -470532000000.0 -227180000000.0 -202016000000.0 -93656600000.0 -111935000000.0 -43978200000.0 -12549700000.0 -12549700000.0 -12549700000.0 -35127500000.0 -17795800000.0 -20037200000.0 -17110500000.0 -30790500000.0 -37886100000.0 -32100900000.0 -21473900000.0 -27721400000.0 -20156000000.0 -26517700000.0 -13237900000.0 -12657300000.0 -24756700000.0 -12549700000.0 -17619000000.0 -29053600000.0 -14300500000.0 -17571900000.0 -15465200000.0 -17764900000.0 -27811200000.0 -15737000000.0 -21834800000.0 -16380500000.0 -13876000000.0 -21440800000.0 -27775400000.0 -13997600000.0 -12714600000.0 -12727100000.0 -19648900000.0 -18985800000.0 -36775100000.0 -26826800000.0 -28170400000.0 -24761100000.0 -24332600000.0 -34274400000.0 -31694900000.0 -33635100000.0 -37968500000.0 -39371500000.0 -37101000000.0 -56989000000.0 -74032700000.0 -132073000000.0 -274588000000.0 -46270600000.0 -89549400000.0 -109453000000.0 -353945000000.0 -389589000000.0 -414234000000.0 -339372000000.0 -737200000000.0 -864947000000.0 -1.94594e+12 -1.97831e+12 -2.36014e+12 -3.07118e+12 -2.80869e+12 -1.91942e+12 -3.95486e+12 -3.17508e+12 -3.23527e+12 -1.11138e+12 -4.72487e+12 -4.02042e+12 -3.35169e+12 -1.08047e+12 -3.09699e+12 -1.85103e+12 -1.882e+12 -839869000000.0 -1.17892e+12 -420649000000.0 -804425000000.0 -452020000000.0 -302196000000.0 -612060000000.0 -369748000000.0 -364167000000.0 -194238000000.0 -72466000000.0 -135737000000.0 -38831900000.0 -29543000000.0 -46872500000.0 -12549700000.0 -18407700000.0 -17959000000.0 -14777100000.0 -16469400000.0 -21277500000.0 -17070600000.0 -17644200000.0 -35551800000.0 -27081500000.0 -43752900000.0 -26614000000.0 -47898000000.0 -42707200000.0 -40873500000.0 -53901700000.0 -45306700000.0 -35901600000.0 -31041300000.0 -54215800000.0 -17220400000.0 -16353600000.0 -12994000000.0 -13476800000.0 -28830200000.0 -28739600000.0 -15891300000.0 -32924800000.0 -49724600000.0 -20584600000.0 -21841700000.0 -23226700000.0 -18740400000.0 -41830900000.0 -12617800000.0 -12549700000.0 -28052600000.0 -15705600000.0 -15728000000.0 -25379900000.0 -26930400000.0 -28130100000.0 -38061600000.0 -75971300000.0 -88009000000.0 -44283500000.0 -45127300000.0 -67970700000.0 -79015800000.0 -291827000000.0 -321973000000.0 -99188000000.0 -332764000000.0 -66912400000.0 -40844700000.0 -403130000000.0 -377050000000.0 -359702000000.0 -248889000000.0 -363233000000.0 -556647000000.0 -518308000000.0 -928647000000.0 -1.62923e+12 -1.89274e+12 -2.23801e+12 -1.9066e+12 -2.74916e+12 -559126000000.0 -569989000000.0 -1.15643e+12 -3.46088e+12 -3.47935e+12 -2.84111e+12 -2.0358e+12 -2.08947e+12 -3.78835e+12 -2.58735e+12 -2.06631e+12 -2.77522e+12 -2.66727e+12 -2.66621e+12 -1.78651e+12 -2.11121e+12 -1.84833e+12 -2.76235e+12 -1.57422e+12 -934717000000.0 -355594000000.0 -277067000000.0 -109395000000.0 -194992000000.0 -179472000000.0 -62010200000.0 -114155000000.0 -17361100000.0 -112390000000.0 -62178600000.0 -130696000000.0 -70873900000.0 -84736500000.0 -47033400000.0 -38733700000.0 -14706700000.0 -28644000000.0 -45048500000.0 -30318500000.0 -61277200000.0 -27327200000.0 -45943600000.0 -25690900000.0 -22942600000.0 -23134700000.0 -54594500000.0 -49908600000.0 -69419700000.0 -25308800000.0 -39797200000.0 -26982000000.0 -26984700000.0 -52365400000.0 -39487600000.0 -25811000000.0 -37854900000.0 -88972300000.0 -23989300000.0 -21719100000.0 -41235000000.0 -12610700000.0 -15430700000.0 -41650700000.0 -36133100000.0 -16931000000.0 -20727200000.0 -24224600000.0 -29810900000.0 -17567600000.0 -12549700000.0 -13212600000.0 -18521000000.0 -27524000000.0 -48768800000.0 -26098700000.0 -22327500000.0 -37395400000.0 -48176400000.0 -41073300000.0 -76090300000.0 -101470000000.0 -84490200000.0 -148818000000.0 -80209300000.0 -232896000000.0 -219520000000.0 -416713000000.0 -445871000000.0 -167644000000.0 -152855000000.0 -409182000000.0 -42358400000.0 -257320000000.0 -992819000000.0 -1.37849e+12 -2.52189e+12 -1.61472e+12 -3.61136e+12 -2.75255e+12 -2.70293e+12 -3.24553e+12 -5.49644e+12 -3.58833e+12 -997346000000.0 -2.15648e+12 -1.77851e+12 -3.90639e+12 -4.0443e+12 -4.3492e+12 -3.08177e+12 -2.07684e+12 -1.77308e+12 -3.39609e+12 -1.40087e+12 -1.8586e+12 -2.33622e+12 -1.76571e+12 -1.5576e+12 -159154000000.0 -600061000000.0 -789914000000.0 -614632000000.0 -574180000000.0 -386292000000.0 -299762000000.0 -384677000000.0 -349327000000.0 -224107000000.0 -194235000000.0 -273772000000.0 -235353000000.0 -131914000000.0 -128432000000.0 -80285200000.0 -84002800000.0 -23819900000.0 -27430100000.0 -35689500000.0 -14533000000.0 -97367900000.0 -23265700000.0 -23512400000.0 -12959400000.0 -30960600000.0 -12823700000.0 -31732300000.0 -25762700000.0 -50966600000.0 -79071300000.0 -88087600000.0 -89735600000.0 -127509000000.0 -53698300000.0 -40613700000.0 -53791700000.0 -33420300000.0 -64359700000.0 -55894700000.0 -54047700000.0 -37067100000.0 -36635300000.0 -55120100000.0 -60307800000.0 -100327000000.0 -71759000000.0 -81986700000.0 -15984100000.0 -47246400000.0 -26009900000.0 -46804600000.0 -61021800000.0 -46384500000.0 -137399000000.0 -139512000000.0 -95388200000.0 -120221000000.0 -134909000000.0 -32519500000.0 -217201000000.0 -347690000000.0 -275896000000.0 -326058000000.0 -533893000000.0 -911741000000.0 -956929000000.0 -554332000000.0 -896127000000.0 -890097000000.0 -1.15671e+12 -1.58012e+12 -2.96077e+12 -1.38983e+12 -2.36449e+12 -1.35255e+12 -2.08223e+12 -5.116e+12 -2.42233e+12 -2.41876e+12 -2.82034e+12 -3.12971e+12 -1.85631e+12 -2.89292e+12 -1.13974e+12 -2.05169e+12 -4.69795e+12 -2.8141e+12 -2.98169e+12 -3.42853e+12 -2.83907e+12 -3.75134e+12 -1.00306e+12 -1.21641e+12 -2.76516e+12 -677329000000.0 -1.87416e+12 -1.68413e+12 -445674000000.0 -949089000000.0 -439127000000.0 -983107000000.0 -747530000000.0 -256758000000.0 -299009000000.0 -226661000000.0 -102553000000.0 -205997000000.0 -191102000000.0 -174139000000.0 -13282100000.0 -15805400000.0 -103855000000.0 -123525000000.0 -104366000000.0 -136412000000.0 -125122000000.0 -63602100000.0 -68686300000.0 -122787000000.0 -21701100000.0 -38341900000.0 -16206200000.0 -29553400000.0 -27119100000.0 -21619300000.0 -19218400000.0 -21630100000.0 -18639700000.0 -15807200000.0 -40602500000.0 -28911500000.0 -33015800000.0 -16321100000.0 -84924600000.0 -47191300000.0 -14231900000.0 -95463400000.0 -57210600000.0 -71627300000.0 -95290200000.0 -34974800000.0 -57475400000.0 -24102500000.0 -26850200000.0 -33151200000.0 -36726100000.0 -12549700000.0 -14181900000.0 -25014600000.0 -42654300000.0 -41315400000.0 -69607000000.0 -123688000000.0 -162780000000.0 -116535000000.0 -129431000000.0 -109058000000.0 -102852000000.0 -434420000000.0 -26369100000.0 -351832000000.0 -234959000000.0 -234074000000.0 -286127000000.0 -27939800000.0 -958147000000.0 -205189000000.0 -1.27296e+12 -586063000000.0 -1.42322e+12 -1.37266e+12 -1.95937e+12 -2.24885e+12 -1.1005e+12 -1.6966e+12 -2.21631e+12 -1.80857e+12 -3.45216e+12 -1.49807e+12 -3.2046e+12 -2.08684e+12 -1.98425e+12 -3.43275e+12 -848323000000.0 -2.42341e+12 -2.88003e+12 -3.77305e+12 -1.77117e+12 -2.70821e+12 -2.49169e+12 -1.37131e+12 -1.51123e+12 -2.02263e+12 -1.84622e+12 -1.44136e+12 -589269000000.0 -1.4284e+12 -1.56753e+12 -976204000000.0 -646530000000.0 -384147000000.0 -414223000000.0 -279586000000.0 -41054100000.0 -192085000000.0 -134655000000.0 -126469000000.0 -96683700000.0 -85574900000.0 -102940000000.0 -87755700000.0 -12797500000.0 -49175900000.0 -19166000000.0 -35508300000.0 -93600900000.0 -62387500000.0 -89960400000.0 -111039000000.0 -22338700000.0 -36424100000.0 -30593100000.0 -35283100000.0 -22483300000.0 -15854000000.0 -18978100000.0 -33022500000.0 -39150600000.0 -22867600000.0 -21467600000.0 -28570100000.0 -19833300000.0 -46828200000.0 -19314000000.0 -31045300000.0 -50483200000.0 -39764700000.0 -98103300000.0 -53414900000.0 -99020200000.0 -72711900000.0 -15716100000.0 -28158500000.0 -22177400000.0 -15120100000.0 -24243400000.0 -15408800000.0 -12549700000.0 -26673800000.0 -19758500000.0 -75100100000.0 -36356000000.0 -43590300000.0 -121191000000.0 -49031100000.0 -137482000000.0 -20824100000.0 -17025200000.0 -107980000000.0 -139370000000.0 -378842000000.0 -151065000000.0 -282973000000.0 -369692000000.0 -185091000000.0 -247027000000.0 -213958000000.0 -227452000000.0 -451342000000.0 -773138000000.0 -786856000000.0 -1.41872e+12 -1.0387e+12 -1.2663e+12 -1.81703e+12 -347496000000.0 -1.44481e+12 -1.8011e+12 -1.58767e+12 -1.9746e+12 -2.45704e+12 -2.43788e+12 -2.09242e+12 -1.38237e+12 -3.1143e+12 -1.67235e+12 -1.62318e+12 -2.32665e+12 -1.2276e+12 -1.96153e+12 -3.58704e+12 -2.34008e+12 -1.41117e+12 -1.49089e+12 -2.21685e+12 -1.3858e+12 -857986000000.0 -1.66747e+12 -434416000000.0 -726300000000.0 -1.33437e+12 -474757000000.0 -851241000000.0 -612274000000.0 -357834000000.0 -517363000000.0 -332842000000.0 -309807000000.0 -147321000000.0 -162004000000.0 -26357100000.0 -185390000000.0 -166740000000.0 -186598000000.0 -100295000000.0 -221020000000.0 -88492600000.0 -18119500000.0 -36573400000.0 -67433600000.0 -90477700000.0 -18480300000.0 -57438400000.0 -54222400000.0 -84778300000.0 -101828000000.0 -54676400000.0 -66574300000.0 -37561200000.0 -38242900000.0 -37540000000.0 -31976200000.0 -66138700000.0 -62258000000.0 -58294100000.0 -49305100000.0 -13492900000.0 -18513600000.0 -45811700000.0 -53599500000.0 -29358700000.0 -64251200000.0 -38457100000.0 -58463200000.0 -102949000000.0 -67252500000.0 -36779900000.0 -80985000000.0 -93432600000.0 -78974000000.0 -72439700000.0 -12955300000.0 -20862100000.0 -61421500000.0 -60253500000.0 -63242300000.0 -105044000000.0 -75011200000.0 -50657400000.0 -19187700000.0 -26962100000.0 -12549700000.0 -64502600000.0 -13599100000.0 -53789800000.0 -57105500000.0 -98294200000.0 -120815000000.0 -28136900000.0 -117117000000.0 -122442000000.0 -233650000000.0 -172166000000.0 -172749000000.0 -90557900000.0 -134795000000.0 -275218000000.0 -241006000000.0 -256919000000.0 -348720000000.0 -419439000000.0 -662161000000.0 -111521000000.0 -1.42528e+12 -544888000000.0 -1.23583e+12 -2.24517e+12 -498387000000.0 -2.02356e+12 -1.5124e+12 -1.18836e+12 -1.73818e+12 -1.27409e+12 -1.64384e+12 -567554000000.0 -425155000000.0 -1.95373e+12 -1.11211e+12 -1.34754e+12 -2.75358e+12 -786395000000.0 -1.48794e+12 -1.9183e+12 -1.27895e+12 -1.2291e+12 -1.02787e+12 -1.099e+12 -1.02033e+12 -615373000000.0 -732355000000.0 -142042000000.0 -28253800000.0 -691411000000.0 -343659000000.0 -170812000000.0 -81696400000.0 -32514900000.0 -109440000000.0 -132029000000.0 -63756700000.0 -62534600000.0 -96334300000.0 -78075800000.0 -40658500000.0 -114571000000.0 -69825600000.0 -23664100000.0 -69495200000.0 -20682300000.0 -23799500000.0 -12632600000.0 -92855900000.0 -96456100000.0 -12755800000.0 -90241300000.0 -77235300000.0 -16548000000.0 -52585700000.0 -13162800000.0 -13165700000.0 -21732000000.0 -15784300000.0 -24511300000.0 -42769700000.0 -13666000000.0 -12549700000.0 -15068400000.0 -46697100000.0 -43572300000.0 -59688800000.0 -101755000000.0 -12628700000.0 -13322100000.0 -73499200000.0 -17425500000.0 -16476500000.0 -18632000000.0 -76923200000.0 -35741900000.0 -100944000000.0 -72909300000.0 -12860100000.0 -27233600000.0 -16818800000.0 -42617300000.0 -66500000000.0 -32080700000.0 -46524900000.0 -85266000000.0 -22687500000.0 -70766000000.0 -115948000000.0 -120989000000.0 -59251400000.0 -175799000000.0 -206196000000.0 -61999200000.0 -43963300000.0 -254741000000.0 -333654000000.0 -300327000000.0 -425269000000.0 -175157000000.0 -416766000000.0 -545384000000.0 -521753000000.0 -535416000000.0 -300915000000.0 -900834000000.0 -1.24376e+12 -1.20427e+12 -1.77535e+12 -1.38726e+12 -1.76117e+12 -506783000000.0 -955816000000.0 -2.30791e+12 -1.1473e+12 -1.98127e+12 -1.41615e+12 -1.2395e+12 -2.10477e+12 -1.12962e+12 -1.18222e+12 -1.32272e+12 -588748000000.0 -367860000000.0 -795010000000.0 -538094000000.0 -834772000000.0 -2.10668e+12 -1.13324e+12 -761607000000.0 -1.16171e+12 -953977000000.0 -1.3532e+12 -544311000000.0 -686633000000.0 -175427000000.0 -154304000000.0 -200440000000.0 -51905300000.0 -240390000000.0 -277315000000.0 -156734000000.0 -181647000000.0 -112530000000.0 -216278000000.0 -138490000000.0 -99496300000.0 -80046000000.0 -45099700000.0 -46606100000.0 -30999000000.0 -25794300000.0 -13344100000.0 -18276400000.0 -12894400000.0 -120385000000.0 -13757100000.0 -66178400000.0 -47089000000.0 -75599000000.0 -57104100000.0 -36481900000.0 -22634300000.0 -20756800000.0 -41965600000.0 -36810800000.0 -47245600000.0 -32584100000.0 -32101900000.0 -36368800000.0 -47164100000.0 -49827700000.0 -35299600000.0 -32171000000.0 -118358000000.0 -93575800000.0 -74366600000.0 -65010000000.0 -17475000000.0 -104283000000.0 -63839300000.0 -19223300000.0 -60684300000.0 -84330400000.0 -14391000000.0 -31674400000.0 -24711200000.0 -44985500000.0 -35249500000.0 -28866100000.0 -57737300000.0 -101447000000.0 -38180400000.0 -66811700000.0 -22238400000.0 -143183000000.0 -48194100000.0 -207361000000.0 -73706400000.0 -101234000000.0 -78157800000.0 -200218000000.0 -38362100000.0 -185206000000.0 -77687900000.0 -141601000000.0 -24068200000.0 -240383000000.0 -72736400000.0 -21946800000.0 -911915000000.0 -313946000000.0 -989321000000.0 -1.3061e+12 -279050000000.0 -1.02319e+12 -1.35702e+12 -534256000000.0 -300208000000.0 -1.13229e+12 -1.65534e+12 -830006000000.0 -690515000000.0 -1.05845e+12 -639631000000.0 -704864000000.0 -839114000000.0 -950422000000.0 -431692000000.0 -646838000000.0 -1.29496e+12 -2.10266e+12 -929747000000.0 -466654000000.0 -1.38004e+12 -1.47705e+12 -1.71347e+12 -1.20138e+12 -108440000000.0 -772026000000.0 -497423000000.0 -535270000000.0 -794953000000.0 -763748000000.0 -464277000000.0 -153993000000.0 -340497000000.0 -210377000000.0 -149334000000.0 -81038500000.0 -130916000000.0 -17651000000.0 -112695000000.0 -80488300000.0 -132611000000.0 -96389800000.0 -85034300000.0 -88026800000.0 -68597900000.0 -32391500000.0 -48009400000.0 -12549700000.0 -30168600000.0 -29417600000.0 -13946400000.0 -131414000000.0 -19704100000.0 -44978400000.0 -32167300000.0 -79647800000.0 -63430100000.0 -41357500000.0 -54632900000.0 -25231400000.0 -15367500000.0 -43792600000.0 -12549700000.0 -13811100000.0 -21309700000.0 -29271200000.0 -47731900000.0 -28027000000.0 -90577300000.0 -14096400000.0 -88957500000.0 -17666300000.0 -66477100000.0 -128444000000.0 -30328200000.0 -48033100000.0 -68975700000.0 -32716100000.0 -74920700000.0 -60446200000.0 -59653000000.0 -61844200000.0 -45286400000.0 -13418900000.0 -12878500000.0 -111219000000.0 -89957600000.0 -109175000000.0 -136562000000.0 -14476400000.0 -73414300000.0 -106069000000.0 -113387000000.0 -80021300000.0 -248849000000.0 -80822400000.0 -96205300000.0 -204564000000.0 -132578000000.0 -154788000000.0 -103093000000.0 -157172000000.0 -176372000000.0 -564677000000.0 -803564000000.0 -549624000000.0 -597648000000.0 -425760000000.0 -82354300000.0 -692743000000.0 -303901000000.0 -962825000000.0 -1.08797e+12 -1.12821e+12 -445234000000.0 -397357000000.0 -555718000000.0 -649198000000.0 -717782000000.0 -340033000000.0 -743651000000.0 -1.15467e+12 -123628000000.0 -594571000000.0 -307733000000.0 -1.62268e+12 -140930000000.0 -631435000000.0 -118022000000.0 -1.48686e+12 -1.22441e+12 -496187000000.0 -164743000000.0 -210850000000.0 -352093000000.0 -313616000000.0 -17642600000.0 -104358000000.0 -339639000000.0 -271757000000.0 -209773000000.0 -137665000000.0 -124359000000.0 -197163000000.0 -257034000000.0 -99567200000.0 -115435000000.0 -131788000000.0 -104536000000.0 -117251000000.0 -100074000000.0 -113470000000.0 -101737000000.0 -82658900000.0 -89998300000.0 -121845000000.0 -79119400000.0 -105349000000.0 -82660500000.0 -111898000000.0 -42387700000.0 -28196900000.0 -35349700000.0 -31337300000.0 -32386400000.0 -42938800000.0 -51207300000.0 -44911900000.0 -43007400000.0 -83186100000.0 -19204200000.0 -40747200000.0 -12912600000.0 -12667600000.0 -129364000000.0 -114801000000.0 -162275000000.0 -42033400000.0 -69242800000.0 -71125000000.0 -31722500000.0 -46539600000.0 -53837100000.0 -51816000000.0 -16785600000.0 -119745000000.0 -108362000000.0 -14832000000.0 -27344100000.0 -44198800000.0 -22906300000.0 -128032000000.0 -159468000000.0 -59804600000.0 -44007400000.0 -44075000000.0 -167329000000.0 -38345300000.0 -128283000000.0 -290602000000.0 -172020000000.0 -93680600000.0 -121214000000.0 -102386000000.0 -261666000000.0 -194584000000.0 -24332200000.0 -176083000000.0 -449418000000.0 -445852000000.0 -216189000000.0 -494553000000.0 -253467000000.0 -504468000000.0 -324444000000.0 -381805000000.0 -775110000000.0 -711180000000.0 -552184000000.0 -137466000000.0 -498537000000.0 -209479000000.0 -130087000000.0 -794727000000.0 -999843000000.0 -630587000000.0 -803939000000.0 -772124000000.0 -890871000000.0 -470146000000.0 -758866000000.0 -278162000000.0 -566491000000.0 -367423000000.0 -99031700000.0 -120462000000.0 -176637000000.0 -147354000000.0 -36766900000.0 -91799300000.0 -85353000000.0 -99559200000.0 -77879800000.0 -30195600000.0 -49558600000.0 -54027900000.0 -135765000000.0 -154127000000.0 -178804000000.0 -67409700000.0 -71224000000.0 -60573200000.0 -55286700000.0 -145667000000.0 -85590800000.0 -75280500000.0 -47565600000.0 -96568900000.0 -84026400000.0 -61162600000.0 -83918600000.0 -59662100000.0 -14598700000.0 -80171000000.0 -28104200000.0 -15021400000.0 -19273800000.0 -14506500000.0 -67064300000.0 -13535600000.0 -24219400000.0 -13639500000.0 -70315400000.0 -15364600000.0 -35809100000.0 -56733300000.0 -17374000000.0 -61250500000.0 -90470900000.0 -15206300000.0 -53952400000.0 -71344500000.0 -138674000000.0 -134218000000.0 -63349600000.0 -54110600000.0 -46487100000.0 -14273900000.0 -16345000000.0 -66261000000.0 -12716900000.0 -31039400000.0 -99862900000.0 -70036300000.0 -25487500000.0 -98400400000.0 -86851500000.0 -27513200000.0 -111954000000.0 -138423000000.0 -95773800000.0 -93786000000.0 -134278000000.0 -96989100000.0 -143246000000.0 -157615000000.0 -102960000000.0 -19371900000.0 -110980000000.0 -173813000000.0 -57396300000.0 -332607000000.0 -308818000000.0 -24478800000.0 -808694000000.0 -592597000000.0 -551171000000.0 -437002000000.0 -394949000000.0 -625268000000.0 -877530000000.0 -360786000000.0 -747225000000.0 -737934000000.0 -1.06645e+12 -744893000000.0 -280485000000.0 -104284000000.0 -83530700000.0 -411998000000.0 -507752000000.0 -354738000000.0 -242829000000.0 -523149000000.0 -295891000000.0 -375421000000.0 -35707400000.0 -344782000000.0 -239133000000.0 -270909000000.0 -187216000000.0 -54878400000.0 -72669800000.0 -97761200000.0 -49005800000.0 -41727100000.0 -75200000000.0 -25670900000.0 -51027500000.0 -55813900000.0 -12549700000.0 -148898000000.0 -38927000000.0 -22675000000.0 -25409200000.0 -17709800000.0 -24954800000.0 -14118500000.0 -132457000000.0 -59673500000.0 -71911300000.0 -150211000000.0 -15973800000.0 -13571300000.0 -67447600000.0 -32924900000.0 -16591000000.0 -29070400000.0 -21135800000.0 -25972000000.0 -79575800000.0 -26710500000.0 -34254100000.0 -13260100000.0 -82447100000.0 -86649900000.0 -101685000000.0 -79093400000.0 -119438000000.0 -90032900000.0 -30438200000.0 -57053600000.0 -61612600000.0 -204518000000.0 -67473300000.0 -22764100000.0 -14475900000.0 -39648400000.0 -25312000000.0 -27528900000.0 -37071800000.0 -31381800000.0 -80592100000.0 -56824000000.0 -98881800000.0 -61831300000.0 -41190200000.0 -124485000000.0 -46282900000.0 -39438800000.0 -44198800000.0 -123750000000.0 -138827000000.0 -45587300000.0 -48169200000.0 -113401000000.0 -14544400000.0 -133280000000.0 -19965000000.0 -129827000000.0 -195209000000.0 -136996000000.0 -153642000000.0 -214659000000.0 -377082000000.0 -539539000000.0 -585936000000.0 -231048000000.0 -659510000000.0 -69374900000.0 -231255000000.0 -317718000000.0 -744029000000.0 -617601000000.0 -743041000000.0 -495050000000.0 -205474000000.0 -630461000000.0 -734713000000.0 -303401000000.0 -249358000000.0 -256251000000.0 -139711000000.0 -141133000000.0 -317906000000.0 -384466000000.0 -249891000000.0 -127651000000.0 -167990000000.0 -166817000000.0 -98675700000.0 -109111000000.0 -139158000000.0 -97231200000.0 -114002000000.0 -109988000000.0 -89877200000.0 -47144900000.0 -63037800000.0 -46352600000.0 -147184000000.0 -22193400000.0 -13313200000.0 -24926800000.0 -18634300000.0 -23061300000.0 -16887600000.0 -97616600000.0 -55966400000.0 -164563000000.0 -133559000000.0 -88171900000.0 -75902200000.0 -47871700000.0 -55121500000.0 -70540300000.0 -23997900000.0 -27350700000.0 -39827300000.0 -21820600000.0 -16170400000.0 -12549700000.0 -86780600000.0 -35723400000.0 -42852400000.0 -81738400000.0 -25768900000.0 -21979400000.0 -42715200000.0 -13536500000.0 -39249300000.0 -86412400000.0 -73684500000.0 -63982900000.0 -69059700000.0 -130826000000.0 -156530000000.0 -43123700000.0 -22373900000.0 -76644700000.0 -39770000000.0 -26908800000.0 -28183400000.0 -108084000000.0 -143477000000.0 -12549700000.0 -15432100000.0 -72190500000.0 -12549700000.0 -33259600000.0 -55809200000.0 -125497000000.0 -45432500000.0 -117397000000.0 -49180900000.0 -115736000000.0 -52337800000.0 -161410000000.0 -70502200000.0 -96252100000.0 -152570000000.0 -157245000000.0 -126744000000.0 -298592000000.0 -289818000000.0 -208546000000.0 -286924000000.0 -296022000000.0 -222654000000.0 -155171000000.0 -109781000000.0 -58083100000.0 -67126500000.0 -176343000000.0 -299497000000.0 -505508000000.0 -227312000000.0 -429015000000.0 -267937000000.0 -508343000000.0 -473831000000.0 -215203000000.0 -268734000000.0 -280461000000.0 -150354000000.0 -84097800000.0 -92518300000.0 -161634000000.0 -366224000000.0 -94791300000.0 -78835800000.0 -92261600000.0 -46342200000.0 -69800400000.0 -27959600000.0 -52236800000.0 -41344200000.0 -38412300000.0 -33285300000.0 -22764100000.0 -15134800000.0 -53103300000.0 -79783100000.0 -76565400000.0 -76283900000.0 -80787500000.0 -98034500000.0 -68887200000.0 -91415400000.0 -35642300000.0 -28758600000.0 -30913100000.0 -31390000000.0 -63759800000.0 -73471300000.0 -34633900000.0 -40932700000.0 -18878600000.0 -30245000000.0 -14026900000.0 -27613700000.0 -124067000000.0 -19474600000.0 -35670100000.0 -53573700000.0 -39716900000.0 -40953300000.0 -54560700000.0 -62099600000.0 -87066200000.0 -124467000000.0 -145196000000.0 -165755000000.0 -183785000000.0 -134564000000.0 -45780600000.0 -70769400000.0 -121319000000.0 -59994400000.0 -76176100000.0 -162098000000.0 -122181000000.0 -103527000000.0 -107597000000.0 -97212200000.0 -77968000000.0 -54468700000.0 -54141100000.0 -17237900000.0 -16587400000.0 -126002000000.0 -145863000000.0 -12549700000.0 -128853000000.0 -14884900000.0 -99593400000.0 -166733000000.0 -238206000000.0 -128126000000.0 -105374000000.0 -270176000000.0 -144119000000.0 -18944100000.0 -13078000000.0 -332293000000.0 -105401000000.0 -20197800000.0 -119017000000.0 -200084000000.0 -251319000000.0 -261337000000.0 -309609000000.0 -436887000000.0 -418025000000.0 -466344000000.0 -25134600000.0 -318223000000.0 -250999000000.0 -225461000000.0 -207384000000.0 -151211000000.0 -146135000000.0 -91061800000.0 -70262300000.0 -187111000000.0 -34490900000.0 -296623000000.0 -215541000000.0 -175571000000.0 -58501100000.0 -165156000000.0 -38902300000.0 -28736600000.0 -51192200000.0 -25121900000.0 -31975300000.0 -58893700000.0 -86806400000.0 -45377300000.0 -94522500000.0 -61158500000.0 -15722900000.0 -16983300000.0 -15149000000.0 -14861600000.0 -160500000000.0 -12549700000.0 -90595400000.0 -79603200000.0 -71439700000.0 -144412000000.0 -189804000000.0 -13272800000.0 -78210500000.0 -54733400000.0 -39717000000.0 -12549700000.0 -12897800000.0 -41444300000.0 -66045700000.0 -66942400000.0 -12549700000.0 -86810400000.0 -62542100000.0 -14009600000.0 -43730100000.0 -25774900000.0 -49967400000.0 -71902400000.0 -83734000000.0 -52065500000.0 -240617000000.0 -177027000000.0 -157137000000.0 -69796800000.0 -308528000000.0 -150596000000.0 -102550000000.0 -116715000000.0 -104803000000.0 -131527000000.0 -13288400000.0 -118963000000.0 -24451100000.0 -51239800000.0 -22726900000.0 -146158000000.0 -24521000000.0 -75822100000.0 -42917500000.0 -123916000000.0 -58423000000.0 -93703400000.0 -127223000000.0 -95821400000.0 -17192100000.0 -12549700000.0 -12549700000.0 -12549700000.0 -126399000000.0 -114984000000.0 -96194100000.0 -107790000000.0 -154718000000.0 -93663100000.0 -174727000000.0 -180557000000.0 -182133000000.0 -103039000000.0 -21048900000.0 -56763000000.0 -40263800000.0 -95481500000.0 -27563100000.0 -354063000000.0 -299007000000.0 -252816000000.0 -380157000000.0 -341867000000.0 -83522300000.0 -146181000000.0 -124570000000.0 -81690300000.0 -34281700000.0 -39460400000.0 -99750500000.0 -77545100000.0 -199927000000.0 -25902200000.0 -103100000000.0 -86689200000.0 -75094700000.0 -32401900000.0 -23523600000.0 -41151000000.0 -26114000000.0 -16127300000.0 -56809500000.0 -49523300000.0 -47294000000.0 -16951800000.0 -58416700000.0 -22369700000.0 -23339900000.0 -35465200000.0 -13552700000.0 -23242700000.0 -19565400000.0 -12549700000.0 -14221300000.0 -133223000000.0 -59947200000.0 -39869900000.0 -25626000000.0 -153199000000.0 -76318100000.0 -143431000000.0 -115532000000.0 -42936200000.0 -39141400000.0 -57724600000.0 -84593300000.0 -62784100000.0 -46470100000.0 -52195200000.0 -97395500000.0 -21085700000.0 -55774400000.0 -32303400000.0 -12601500000.0 -72507800000.0 -53461700000.0 -116044000000.0 -149505000000.0 -99595400000.0 -15658400000.0 -161238000000.0 -125445000000.0 -68148300000.0 -170823000000.0 -175241000000.0 -115381000000.0 -137981000000.0 -207367000000.0 -244093000000.0 -132795000000.0 -148212000000.0 -114372000000.0 -100602000000.0 -113056000000.0 -94896500000.0 -47308300000.0 -115816000000.0 -33166400000.0 -46384700000.0 -49674100000.0 -79706800000.0 -15250500000.0 -124529000000.0 -55357000000.0 -58399900000.0 -119732000000.0 -77321700000.0 -147442000000.0 -39101000000.0 -82532100000.0 -16915500000.0 -123083000000.0 -187326000000.0 -142279000000.0 -45834100000.0 -84468900000.0 -57264600000.0 -97710200000.0 -67310900000.0 -256274000000.0 -360732000000.0 -255280000000.0 -259726000000.0 -226352000000.0 -169129000000.0 -212230000000.0 -48423000000.0 -127728000000.0 -128309000000.0 -80831000000.0 -15112700000.0 -54819900000.0 -25803500000.0 -61166500000.0 -21784200000.0 -142240000000.0 -13032100000.0 -31502500000.0 -55706700000.0 -29504600000.0 -16737400000.0 -37357300000.0 -20948800000.0 -34865000000.0 -62681100000.0 -45499700000.0 -17142600000.0 -19813600000.0 -19413300000.0 -12777900000.0 -14968000000.0 -16791200000.0 -14323400000.0 -23097100000.0 -15523400000.0 -27584300000.0 -26990000000.0 -52698800000.0 -85470500000.0 -103984000000.0 -110535000000.0 -86839000000.0 -189401000000.0 -57115000000.0 -62810300000.0 -12698000000.0 -129132000000.0 -101484000000.0 -88268100000.0 -120010000000.0 -87476200000.0 -31009200000.0 -55154300000.0 -97985100000.0 -100588000000.0 -112537000000.0 -50414400000.0 -15243800000.0 -158409000000.0 -14820500000.0 -101392000000.0 -91398400000.0 -59723400000.0 -183408000000.0 -116655000000.0 -24758300000.0 -197878000000.0 -146118000000.0 -154054000000.0 -83468000000.0 -123603000000.0 -12549700000.0 -159840000000.0 -29427900000.0 -14496100000.0 -18139900000.0 -72005100000.0 -135359000000.0 -41304100000.0 -59082100000.0 -13284100000.0 -128006000000.0 -94751100000.0 -109775000000.0 -87179200000.0 -138187000000.0 -13196300000.0 -112969000000.0 -25791300000.0 -43239100000.0 -70463500000.0 -36467900000.0 -23364800000.0 -71697600000.0 -160088000000.0 -103780000000.0 -129963000000.0 -79586200000.0 -124013000000.0 -83642500000.0 -86459800000.0 -122090000000.0 -126998000000.0 -105159000000.0 -117370000000.0 -86745000000.0 -297745000000.0 -16652700000.0 -98654200000.0 -444618000000.0 -204223000000.0 -29422300000.0 -140789000000.0 -107562000000.0 -122433000000.0 -95786800000.0 -98843200000.0 -51889500000.0 -65546800000.0 -16690300000.0 -100987000000.0 -86505500000.0 -82578100000.0 -50759300000.0 -52672800000.0 -62796400000.0 -37118700000.0 -36354500000.0 -48021500000.0 -44852900000.0 -12549700000.0 -13101900000.0 -17257400000.0 -16518200000.0 -16849400000.0 -16741900000.0 -20832800000.0 -29897700000.0 -43220900000.0 -19285600000.0 -103310000000.0 -133805000000.0 -13954000000.0 -27259500000.0 -84664000000.0 -151378000000.0 -42352900000.0 -108315000000.0 -113428000000.0 -13366800000.0 -37669200000.0 -92966800000.0 -71917800000.0 -160801000000.0 -64109400000.0 -75468800000.0 -69939100000.0 -167337000000.0 -81995200000.0 -167183000000.0 -15317600000.0 -54067200000.0 -237641000000.0 -299024000000.0 -109359000000.0 -89897800000.0 -213203000000.0 -63821500000.0 -263887000000.0 -57211200000.0 -89342800000.0 -25572200000.0 -97352400000.0 -93629600000.0 -60675900000.0 -100558000000.0 -136838000000.0 -33644100000.0 -21113900000.0 -51955000000.0 -102650000000.0 -36369700000.0 -111057000000.0 -66408100000.0 -12549700000.0 -142447000000.0 -76178600000.0 -63227400000.0 -45209600000.0 -14416900000.0 -82662800000.0 -17326000000.0 -82369600000.0 -12549700000.0 -64418200000.0 -52479000000.0 -65532400000.0 -40757700000.0 -149053000000.0 -83565500000.0 -98176400000.0 -131848000000.0 -37265900000.0 -53210800000.0 -271209000000.0 -187056000000.0 -184934000000.0 -51322000000.0 -281926000000.0 -155374000000.0 -133590000000.0 -96069100000.0 -25349000000.0 -33742800000.0 -61530700000.0 -37180400000.0 -36775300000.0 -33085800000.0 -28444400000.0 -24823100000.0 -34320900000.0 -40959600000.0 -38543700000.0 -26513000000.0 -29672400000.0 -43311600000.0 -35433200000.0 -40024100000.0 -50311800000.0 -57559600000.0 -42451800000.0 -47552900000.0 -40888300000.0 -40503000000.0 -29152400000.0 -40576300000.0 -33319400000.0 -20474900000.0 -65042900000.0 -16461200000.0 -60216700000.0 -203325000000.0 -66496300000.0 -107007000000.0 -27104400000.0 -137649000000.0 -98401300000.0 -37212700000.0 -83180500000.0 -146367000000.0 -134124000000.0 -87048700000.0 -113764000000.0 -144730000000.0 -51905300000.0 -58307400000.0 -69600000000.0 -176153000000.0 -12549700000.0 -80841900000.0 -97125800000.0 -59216700000.0 -17975900000.0 -190171000000.0 -16024400000.0 -61925600000.0 -16935400000.0 -164853000000.0 -14472000000.0 -256090000000.0 -159184000000.0 -152253000000.0 -126822000000.0 -110486000000.0 -96938800000.0 -118565000000.0 -179795000000.0 -182990000000.0 -36007100000.0 -31045200000.0 -44275400000.0 -75187100000.0 -99833200000.0 -132864000000.0 -69146600000.0 -12549700000.0 -137027000000.0 -57804100000.0 -74661800000.0 -36170300000.0 -30954500000.0 -42124900000.0 -25279700000.0 -64757500000.0 -36017900000.0 -52431200000.0 -91794600000.0 -85833200000.0 -100741000000.0 -227436000000.0 -80305700000.0 -14779500000.0 -64596300000.0 -87799700000.0 -130919000000.0 -199753000000.0 -17003900000.0 -193492000000.0 -308155000000.0 -56657000000.0 -191312000000.0 -58211900000.0 -24983900000.0 -44987900000.0 -12647600000.0 -20645400000.0 -21920900000.0 -32764000000.0 -19099400000.0 -13994300000.0 -12549700000.0 -17192300000.0 -22490500000.0 -14013200000.0 -15037100000.0 -31898900000.0 -26050400000.0 -12549700000.0 -25514400000.0 -65651700000.0 -31033100000.0 -28679700000.0 -59287000000.0 -14232200000.0 -37779300000.0 -17122000000.0 -99869800000.0 -79521000000.0 -165015000000.0 -137506000000.0 -185700000000.0 -130252000000.0 -84618000000.0 -105238000000.0 -35647700000.0 -187403000000.0 -140290000000.0 -109896000000.0 -140826000000.0 -12549700000.0 -38118000000.0 -41098800000.0 -58251600000.0 -14666200000.0 -120243000000.0 -29086800000.0 -54260500000.0 -186645000000.0 -122037000000.0 -62899000000.0 -126055000000.0 -221274000000.0 -23205300000.0 -22124900000.0 -162554000000.0 -56932500000.0 -43184900000.0 -225881000000.0 -87091700000.0 -234352000000.0 -97237500000.0 -28466300000.0 -19366000000.0 -128882000000.0 -14226100000.0 -12549700000.0 -131399000000.0 -148580000000.0 -88403900000.0 -77832400000.0 -109095000000.0 -271978000000.0 -203038000000.0 -230909000000.0 -92808300000.0 -110747000000.0 -185289000000.0 -84568700000.0 -12549700000.0 -92805500000.0 -49238200000.0 -14604300000.0 -85917400000.0 -73253300000.0 -59110800000.0 -81788100000.0 -126323000000.0 -25004600000.0 -30158800000.0 -173598000000.0 -87826800000.0 -121400000000.0 -146650000000.0 -43052300000.0 -49986400000.0 -177066000000.0 -56485600000.0 -163022000000.0 -214729000000.0 -163791000000.0 -214902000000.0 -28360100000.0 -19240800000.0 -33174500000.0 -14636700000.0 -22880000000.0 -20228800000.0 -43843500000.0 -22558900000.0 -16050400000.0 -14625100000.0 -13366500000.0 -19025500000.0 -12549700000.0 -21492100000.0 -30994900000.0 -13293000000.0 -28556000000.0 -33642600000.0 -58547400000.0 -15139200000.0 -15540600000.0 -44301700000.0 -86854500000.0 -72701700000.0 -113252000000.0 -69806500000.0 -126531000000.0 -13605200000.0 -18381100000.0 -209114000000.0 -131393000000.0 -141781000000.0 -141797000000.0 -181559000000.0 -234993000000.0 -71786600000.0 -82997600000.0 -147467000000.0 -124680000000.0 -123323000000.0 -61435400000.0 -234259000000.0 -172532000000.0 -111495000000.0 -155435000000.0 -169118000000.0 -153718000000.0 -198705000000.0 -165694000000.0 -121397000000.0 -200112000000.0 -238115000000.0 -24888000000.0 -91833800000.0 -163754000000.0 -107000000000.0 -150336000000.0 -114208000000.0 -117346000000.0 -226458000000.0 -68503500000.0 -24452400000.0 -101074000000.0 -75067300000.0 -104610000000.0 -90232300000.0 -98207600000.0 -139194000000.0 -142689000000.0 -203537000000.0 -12549700000.0 -58071000000.0 -170908000000.0 -124894000000.0 -154565000000.0 -216639000000.0 -102698000000.0 -103169000000.0 -88420800000.0 -111536000000.0 -40424400000.0 -47779100000.0 -52836400000.0 -73013900000.0 -172242000000.0 -22813400000.0 -17906700000.0 -180418000000.0 -13371800000.0 -103299000000.0 -86623100000.0 -254668000000.0 -94048000000.0 -328357000000.0 -161076000000.0 -100798000000.0 -84181600000.0 -127263000000.0 -22358800000.0 -12948500000.0 -25551900000.0 -14001900000.0 -15872600000.0 -30717300000.0 -52375700000.0 -17657000000.0 -12549700000.0 -12549700000.0 -12549700000.0 -21499700000.0 -13602300000.0 -40372200000.0 -25064500000.0 -13176000000.0 -29086600000.0 -35285900000.0 -87257500000.0 -46512400000.0 -49402700000.0 -35044600000.0 -47089200000.0 -48740000000.0 -21688500000.0 -46706500000.0 -40609500000.0 -92828500000.0 -128116000000.0 -248554000000.0 -161233000000.0 -181119000000.0 -113865000000.0 -65397800000.0 -176398000000.0 -90038900000.0 -52937500000.0 -112410000000.0 -23168900000.0 -89476200000.0 -93963000000.0 -121896000000.0 -125198000000.0 -191736000000.0 -115480000000.0 -156942000000.0 -12549700000.0 -202928000000.0 -55946300000.0 -115139000000.0 -120433000000.0 -15841700000.0 -78449400000.0 -174473000000.0 -174310000000.0 -96089300000.0 -46594800000.0 -163028000000.0 -168951000000.0 -94062500000.0 -90486700000.0 -143560000000.0 -15755100000.0 -132094000000.0 -199795000000.0 -54428500000.0 -69951400000.0 -63589600000.0 -149003000000.0 -59689200000.0 -36447300000.0 -122437000000.0 -39955800000.0 -92708900000.0 -36740900000.0 -188959000000.0 -264399000000.0 -83006400000.0 -163293000000.0 -157719000000.0 -156834000000.0 -119473000000.0 -100402000000.0 -147228000000.0 -130516000000.0 -150565000000.0 -220466000000.0 -154945000000.0 -22938500000.0 -166193000000.0 -56585900000.0 -62949700000.0 -156082000000.0 -146807000000.0 -213747000000.0 -168845000000.0 -147604000000.0 -122539000000.0 -231312000000.0 -218462000000.0 -204642000000.0 -21147500000.0 -14416300000.0 -21261600000.0 -14180700000.0 -22258200000.0 -51364800000.0 -41743300000.0 -14805800000.0 -12675900000.0 -12590000000.0 -12549700000.0 -29611300000.0 -20263300000.0 -50385300000.0 -16299300000.0 -36604500000.0 -12549700000.0 -17247200000.0 -62543600000.0 -14295800000.0 -26173500000.0 -13119300000.0 -48657000000.0 -36345100000.0 -19966100000.0 -34215600000.0 -61132000000.0 -73270800000.0 -128106000000.0 -121196000000.0 -65229800000.0 -60386000000.0 -121142000000.0 -230864000000.0 -354506000000.0 -216634000000.0 -33462900000.0 -54370500000.0 -124930000000.0 -13395300000.0 -154292000000.0 -45148500000.0 -38611100000.0 -26743300000.0 -194495000000.0 -103761000000.0 -120389000000.0 -83290000000.0 -146742000000.0 -70088300000.0 -141185000000.0 -73178500000.0 -74342600000.0 -118077000000.0 -201402000000.0 -225196000000.0 -99589300000.0 -145977000000.0 -27350000000.0 -94043900000.0 -33306200000.0 -42658000000.0 -45025700000.0 -84093600000.0 -187435000000.0 -15721700000.0 -125085000000.0 -12550100000.0 -117863000000.0 -62763500000.0 -138753000000.0 -71080700000.0 -60246300000.0 -119995000000.0 -40658400000.0 -123471000000.0 -130317000000.0 -39815500000.0 -164810000000.0 -59335900000.0 -81238800000.0 -108360000000.0 -112720000000.0 -114189000000.0 -15122900000.0 -29390000000.0 -80686200000.0 -44975100000.0 -146921000000.0 -88831100000.0 -141654000000.0 -77876100000.0 -75125400000.0 -101715000000.0 -82328800000.0 -248572000000.0 -26920100000.0 -214030000000.0 -80644100000.0 -80753800000.0 -134369000000.0 -20653500000.0 -12549700000.0 -15978400000.0 -18730600000.0 -28880700000.0 -61566300000.0 -46064500000.0 -29780400000.0 -29535300000.0 -32349800000.0 -34249400000.0 -51073400000.0 -34867400000.0 -67506300000.0 -13092000000.0 -44972600000.0 -13173500000.0 -21111200000.0 -67388700000.0 -53316300000.0 -26571400000.0 -38669500000.0 -12549700000.0 -60547200000.0 -79640600000.0 -66560400000.0 -75738800000.0 -87553100000.0 -88864900000.0 -193863000000.0 -188194000000.0 -115995000000.0 -118229000000.0 -19660800000.0 -18192000000.0 -163086000000.0 -72510000000.0 -220119000000.0 -324211000000.0 -261673000000.0 -201392000000.0 -177409000000.0 -140817000000.0 -71165000000.0 -48323300000.0 -193258000000.0 -20260500000.0 -130394000000.0 -69178800000.0 -48880100000.0 -102300000000.0 -45904700000.0 -138561000000.0 -78668500000.0 -116391000000.0 -138279000000.0 -40932100000.0 -58078800000.0 -22063500000.0 -108570000000.0 -139971000000.0 -137161000000.0 -43030500000.0 -101947000000.0 -133555000000.0 -226544000000.0 -126545000000.0 -161201000000.0 -216079000000.0 -130671000000.0 -137104000000.0 -135623000000.0 -82474100000.0 -74102600000.0 -81625000000.0 -119725000000.0 -115621000000.0 -13973000000.0 -145913000000.0 -30628500000.0 -90665000000.0 -84327500000.0 -50899100000.0 -57989900000.0 -109023000000.0 -108331000000.0 -92533500000.0 -74642300000.0 -187707000000.0 -137716000000.0 -184689000000.0 -219328000000.0 -257027000000.0 -274775000000.0 -251427000000.0 -222715000000.0 -134432000000.0 -364087000000.0 -221643000000.0 -152029000000.0 -36029300000.0 -36917000000.0 -31837800000.0 -29788700000.0 -36123700000.0 -44443000000.0 -109651000000.0 -58378200000.0 -23131900000.0 -25297400000.0 -32005400000.0 -30411600000.0 -47493200000.0 -52745500000.0 -35595600000.0 -113935000000.0 -103418000000.0 -71590500000.0 -78338900000.0 -55478100000.0 -40187000000.0 -50127600000.0 -54401300000.0 -71926000000.0 -75628200000.0 -123848000000.0 -72462200000.0 -12549600000.0 -14698000000.0 -230033000000.0 -48524800000.0 -62963900000.0 -89085100000.0 -36790300000.0 -55277600000.0 -112891000000.0 -49012400000.0 -49844200000.0 -37361700000.0 -161435000000.0 -126367000000.0 -166346000000.0 -216026000000.0 -122786000000.0 -213902000000.0 -114033000000.0 -191595000000.0 -160706000000.0 -130323000000.0 -257428000000.0 -124300000000.0 -122197000000.0 -274932000000.0 -178734000000.0 -232154000000.0 -207369000000.0 -37600000000.0 -18716400000.0 -135127000000.0 -12549700000.0 -32638700000.0 -97227800000.0 -30123100000.0 -38038600000.0 -167667000000.0 -44127800000.0 -158699000000.0 -41479600000.0 -12549700000.0 -92185200000.0 -12549700000.0 -64659500000.0 -55061400000.0 -152929000000.0 -129553000000.0 -60031700000.0 -36088100000.0 -104957000000.0 -12732800000.0 -146832000000.0 -21552400000.0 -99643600000.0 -71573100000.0 -33967900000.0 -72090400000.0 -100190000000.0 -77962100000.0 -134387000000.0 -148377000000.0 -59991800000.0 -75791100000.0 -85123700000.0 -137072000000.0 -35488500000.0 -28307300000.0 -99258200000.0 -14681000000.0 -281318000000.0 -120292000000.0 -79619000000.0 -356542000000.0 -133753000000.0 -27920400000.0 -21285700000.0 -22421600000.0 -28251300000.0 -12549700000.0 -100108000000.0 -55254000000.0 -25222700000.0 -22007000000.0 -23712400000.0 -14232600000.0 -12549700000.0 -50009800000.0 -52002200000.0 -54556400000.0 -49584800000.0 -110462000000.0 -68697600000.0 -37455800000.0 -19017100000.0 -43923600000.0 -102235000000.0 -77163800000.0 -17343800000.0 -38037800000.0 -19421300000.0 -24422200000.0 -227221000000.0 -89047200000.0 -12616000000.0 -79178400000.0 -45754700000.0 -61457700000.0 -136014000000.0 -26252300000.0 -13600300000.0 -88791200000.0 -255437000000.0 -119747000000.0 -196740000000.0 -174265000000.0 -42166200000.0 -150340000000.0 -104251000000.0 -12809700000.0 -163322000000.0 -121677000000.0 -13882800000.0 -195192000000.0 -259288000000.0 -36539200000.0 -64555500000.0 -121873000000.0 -20652100000.0 -171580000000.0 -130932000000.0 -203419000000.0 -14972800000.0 -51094900000.0 -75214800000.0 -36635200000.0 -26768900000.0 -115818000000.0 -94683000000.0 -82793500000.0 -47895700000.0 -134843000000.0 -88158300000.0 -12549700000.0 -58657000000.0 -160519000000.0 -256228000000.0 -154203000000.0 -152622000000.0 -151481000000.0 -163138000000.0 -138039000000.0 -90889600000.0 -47900400000.0 -72723900000.0 -92449300000.0 -64158200000.0 -61319600000.0 -14399900000.0 -94267400000.0 -99523600000.0 -35098300000.0 -16109500000.0 -60607700000.0 -155588000000.0 -75344100000.0 -29920300000.0 -100399000000.0 -13307300000.0 -252703000000.0 -29520600000.0 -53889700000.0 -155844000000.0 -70006400000.0 -36672600000.0 -14230800000.0 -32461000000.0 -34691500000.0 -19177300000.0 -84232400000.0 -60479600000.0 -12783300000.0 -13456300000.0 -19364900000.0 -24351000000.0 -25573700000.0 -21788500000.0 -145848000000.0 -128828000000.0 -12549700000.0 -141943000000.0 -13806100000.0 -134135000000.0 -44507600000.0 -42424400000.0 -86852600000.0 -81997600000.0 -13499500000.0 -67300500000.0 -74345000000.0 -63500300000.0 -84111300000.0 -224715000000.0 -73775600000.0 -41183300000.0 -97737000000.0 -55408200000.0 -78982700000.0 -120940000000.0 -38618600000.0 -38073300000.0 -78792100000.0 -172308000000.0 -12900400000.0 -107032000000.0 -228404000000.0 -250512000000.0 -305340000000.0 -233191000000.0 -196136000000.0 -161415000000.0 -106835000000.0 -68347400000.0 -194028000000.0 -185798000000.0 -109426000000.0 -206164000000.0 -12592100000.0 -178328000000.0 -14268600000.0 -174297000000.0 -61462600000.0 -25861000000.0 -57852300000.0 -13896600000.0 -125823000000.0 -58792100000.0 -130448000000.0 -94604400000.0 -217406000000.0 -47105500000.0 -209980000000.0 -12549700000.0 -89165800000.0 -87560700000.0 -301002000000.0 -100160000000.0 -66584200000.0 -15118800000.0 -153207000000.0 -38641000000.0 -65351500000.0 -154661000000.0 -153384000000.0 -136999000000.0 -69901700000.0 -113263000000.0 -14474100000.0 -16742000000.0 -61679900000.0 -204843000000.0 -184110000000.0 -131416000000.0 -183799000000.0 -231575000000.0 -80319500000.0 -62634600000.0 -43358400000.0 -124898000000.0 -64290700000.0 -113554000000.0 -152262000000.0 -25627600000.0 -70319100000.0 -73513500000.0 -167611000000.0 -40942100000.0 -19148600000.0 -28877900000.0 -13655100000.0 -52153500000.0 -157317000000.0 -123576000000.0 -102641000000.0 -88679800000.0 -77009900000.0 -75197100000.0 -80362700000.0 -119952000000.0 -29427500000.0 -64171200000.0 -138988000000.0 -144096000000.0 -172823000000.0 -202909000000.0 -163290000000.0 -34773500000.0 -13764200000.0 -56910100000.0 -157905000000.0 -70397500000.0 -93748500000.0 -105259000000.0 -83615100000.0 -117179000000.0 -199571000000.0 -60625500000.0 -107940000000.0 -20348900000.0 -12549700000.0 -20659000000.0 -87239000000.0 -99948900000.0 -57144000000.0 -25989100000.0 -205926000000.0 -199775000000.0 -89946600000.0 -150394000000.0 -64197200000.0 -123180000000.0 -55227400000.0 -80123300000.0 -114621000000.0 -123027000000.0 -81457500000.0 -204865000000.0 -114071000000.0 -193945000000.0 -83124200000.0 -152728000000.0 -24788600000.0 -127658000000.0 -85664300000.0 -112549000000.0 -273418000000.0 -206713000000.0 -134358000000.0 -158610000000.0 -121294000000.0 -160750000000.0 -171260000000.0 -128776000000.0 -84343600000.0 -48358300000.0 -217410000000.0 -182777000000.0 -326574000000.0 -16712200000.0 -76028400000.0 -13713200000.0 -75808600000.0 -13186800000.0 -76268600000.0 -199060000000.0 -116921000000.0 -141856000000.0 -68924300000.0 -124851000000.0 -113150000000.0 -109642000000.0 -182966000000.0 -64781200000.0 -47364500000.0 -101828000000.0 -12790500000.0 -12574500000.0 -205354000000.0 -144459000000.0 -111552000000.0 -139203000000.0 -73497900000.0 -30834600000.0 -120146000000.0 -173418000000.0 -12618900000.0 -53839200000.0 -175044000000.0 -41086700000.0 -13171700000.0 -25208800000.0 -16687400000.0 -202771000000.0 -189100000000.0 -75868100000.0 -76168200000.0 -48752700000.0 -27372300000.0 -28227800000.0 -43581400000.0 -42928900000.0 -120570000000.0 -75782300000.0 -46842100000.0 -12549700000.0 -12549700000.0 -95499200000.0 -84375400000.0 -310156000000.0 -202780000000.0 -285985000000.0 -88759800000.0 -99356300000.0 -19779600000.0 -104402000000.0 -169016000000.0 -177373000000.0 -127175000000.0 -88796400000.0 -14900100000.0 -254223000000.0 -223202000000.0 -143822000000.0 -126931000000.0 -103335000000.0 -154401000000.0 -196699000000.0 -150389000000.0 -235022000000.0 -90929900000.0 -88956300000.0 -96089700000.0 -75421100000.0 -152658000000.0 -75061000000.0 -95763900000.0 -123236000000.0 -153815000000.0 -105506000000.0 -85619700000.0 -243983000000.0 -146525000000.0 -108587000000.0 -30440100000.0 -89468800000.0 -207382000000.0 -152927000000.0 -168331000000.0 -128272000000.0 -16971900000.0 -95485300000.0 -50257200000.0 -120601000000.0 -181919000000.0 -118085000000.0 -70677100000.0 -56241000000.0 -109784000000.0 -54422500000.0 -45445400000.0 -13303700000.0 -15086300000.0 -404311000000.0 -134700000000.0 -117381000000.0 -174449000000.0 -182677000000.0 -187083000000.0 -126664000000.0 -248052000000.0 -101938000000.0 -141515000000.0 -134760000000.0 -119664000000.0 -143315000000.0 -59360800000.0 -108492000000.0 -59363600000.0 -12549600000.0 -164637000000.0 -14939000000.0 -13547100000.0 -15111600000.0 -161240000000.0 -63377400000.0 -88605600000.0 -102527000000.0 -63499700000.0 -110882000000.0 -78237900000.0 -254820000000.0 -174879000000.0 -86132900000.0 -168568000000.0 -180059000000.0 -75513000000.0 -94525200000.0 -26667700000.0 -42889100000.0 -32077000000.0 -40837200000.0 -57447300000.0 -28156200000.0 -28539800000.0 -54605600000.0 -42742900000.0 -67259800000.0 -39715900000.0 -71384600000.0 -38008000000.0 -104554000000.0 -33108800000.0 -88705600000.0 -189885000000.0 -17269700000.0 -110222000000.0 -80804000000.0 -57418100000.0 -114700000000.0 -118048000000.0 -48293400000.0 -121611000000.0 -154586000000.0 -93354900000.0 -33793400000.0 -80361300000.0 -110992000000.0 -158094000000.0 -53606800000.0 -57904200000.0 -159721000000.0 -101193000000.0 -12549700000.0 -132522000000.0 -12549700000.0 -152525000000.0 -133032000000.0 -57065300000.0 -114761000000.0 -215316000000.0 -174561000000.0 -128826000000.0 -119813000000.0 -77195600000.0 -80360200000.0 -43922500000.0 -125602000000.0 -65616700000.0 -39257500000.0 -12549700000.0 -122045000000.0 -172162000000.0 -27502800000.0 -146037000000.0 -81457400000.0 -68108500000.0 -160342000000.0 -173717000000.0 -209647000000.0 -127959000000.0 -153875000000.0 -250603000000.0 -193420000000.0 -101085000000.0 -85198600000.0 -28775300000.0 -33455100000.0 -143008000000.0 -212575000000.0 -173375000000.0 -177555000000.0 -87642100000.0 -116391000000.0 -110141000000.0 -77751700000.0 -71345400000.0 -129968000000.0 -174897000000.0 -233452000000.0 -157686000000.0 -107228000000.0 -240654000000.0 -147722000000.0 -85516300000.0 -72163100000.0 -122552000000.0 -160829000000.0 -37679100000.0 -313775000000.0 -294338000000.0 -33948000000.0 -82720700000.0 -14443200000.0 -188458000000.0 -117747000000.0 -36735500000.0 -49572800000.0 -93878500000.0 -21877100000.0 -12824200000.0 -40426100000.0 -17701100000.0 -96560800000.0 -62333500000.0 -43695500000.0 -65811500000.0 -94610500000.0 -67719700000.0 -170000000000.0 -205233000000.0 -33106600000.0 -162502000000.0 -92644600000.0 -121742000000.0 -89299500000.0 -86150200000.0 -62530100000.0 -52880900000.0 -125498000000.0 -199428000000.0 -157061000000.0 -75892900000.0 -99102900000.0 -88214400000.0 -102871000000.0 -18777900000.0 -21903700000.0 -123628000000.0 -55098000000.0 -108428000000.0 -146572000000.0 -146688000000.0 -240367000000.0 -145590000000.0 -96353800000.0 -92211100000.0 -157790000000.0 -33819500000.0 -99916000000.0 -120739000000.0 -140528000000.0 -132970000000.0 -135355000000.0 -245416000000.0 -100151000000.0 -75180900000.0 -122263000000.0 -61583800000.0 -108330000000.0 -80674800000.0 -197674000000.0 -189283000000.0 -15118100000.0 -63992600000.0 -43668600000.0 -111705000000.0 -271806000000.0 -213536000000.0 -63464000000.0 -147524000000.0 -74421500000.0 -234870000000.0 -228735000000.0 -221280000000.0 -183822000000.0 -167047000000.0 -148382000000.0 -13855400000.0 -188228000000.0 -108477000000.0 -96919400000.0 -164996000000.0 -62330400000.0 -101415000000.0 -78122700000.0 -34001500000.0 -80700200000.0 -31358700000.0 -119461000000.0 -47366700000.0 -128824000000.0 -143393000000.0 -302565000000.0 -16258800000.0 -20153600000.0 -64268800000.0 -37135600000.0 -52179900000.0 -12549700000.0 -105588000000.0 -207890000000.0 -111681000000.0 -248141000000.0 -14291700000.0 -73627700000.0 -62799500000.0 -65562600000.0 -197717000000.0 -53903100000.0 -77803700000.0 -67788200000.0 -62544800000.0 -58859200000.0 -58412800000.0 -149256000000.0 -80008000000.0 -112864000000.0 -98064000000.0 -54793500000.0 -84375400000.0 -217699000000.0 -29502200000.0 -196626000000.0 -169078000000.0 -77918700000.0 -179479000000.0 -137301000000.0 -52078700000.0 -58288900000.0 -89398600000.0 -99783700000.0 -260422000000.0 -53230200000.0 -41028000000.0 -58971000000.0 -84086900000.0 -228319000000.0 -87303400000.0 -56853100000.0 -59742100000.0 -46529600000.0 -17098000000.0 -87631000000.0 -126036000000.0 -122409000000.0 -70836100000.0 -66272800000.0 -100489000000.0 -54002900000.0 -177429000000.0 -94161300000.0 -165563000000.0 -218227000000.0 -146997000000.0 -93331800000.0 -74666800000.0 -102080000000.0 -153718000000.0 -110516000000.0 -136495000000.0 -25885200000.0 -97401000000.0 -124778000000.0 -214065000000.0 -160088000000.0 -116482000000.0 -267604000000.0 -12549700000.0 -181328000000.0 -192179000000.0 -309143000000.0 -229387000000.0 -260943000000.0 -280835000000.0 -211571000000.0 -202101000000.0 -123905000000.0 -191113000000.0 -261907000000.0 -286991000000.0 -335556000000.0 -167061000000.0 -56351000000.0 -97656800000.0 -56469200000.0 -72814600000.0 -153419000000.0 -44739900000.0 -46073500000.0 -87193400000.0 -74475100000.0 -137856000000.0 -72496100000.0 -65659200000.0 -110239000000.0 -114603000000.0 -150895000000.0 -167150000000.0 -172056000000.0 -384403000000.0 -68505000000.0 -27396100000.0 -63972400000.0 -215273000000.0 -42931500000.0 -90050900000.0 -289280000000.0 -160973000000.0 -180824000000.0 -21573300000.0 -35846900000.0 -35213400000.0 -39074100000.0 -21485500000.0 -15696100000.0 -44164400000.0 -144047000000.0 -134674000000.0 -50582200000.0 -105067000000.0 -250923000000.0 -109058000000.0 -240842000000.0 -94696200000.0 -68330100000.0 -87721500000.0 -37014400000.0 -14310200000.0 -49019400000.0 -89948600000.0 -31170100000.0 -162372000000.0 -138104000000.0 -94058300000.0 -93601900000.0 -12549700000.0 -131807000000.0 -37885600000.0 -84367700000.0 -67959200000.0 -80585000000.0 -37096300000.0 -12549700000.0 -138940000000.0 -135342000000.0 -130083000000.0 -160304000000.0 -56252200000.0 -95391900000.0 -48907800000.0 -139927000000.0 -18289300000.0 -54139800000.0 -147384000000.0 -13699100000.0 -85823700000.0 -12593600000.0 -61518700000.0 -85411600000.0 -116943000000.0 -113389000000.0 -94336500000.0 -99566600000.0 -81474400000.0 -157343000000.0 -14514900000.0 -145432000000.0 -180692000000.0 -71095400000.0 -106733000000.0 -78270800000.0 -86996600000.0 -97717100000.0 -303419000000.0 -12549700000.0 -220615000000.0 -74470400000.0 -68153800000.0 -189329000000.0 -88996400000.0 -76558700000.0 -199016000000.0 -89305500000.0 -93196100000.0 -80668900000.0 -12980000000.0 -89553900000.0 -51202700000.0 -16818200000.0 -106308000000.0 -25373500000.0 -18185500000.0 -53305900000.0 -120393000000.0 -83936700000.0 -37534300000.0 -38796500000.0 -52171400000.0 -12549700000.0 -104673000000.0 -35140500000.0 -97298600000.0 -267150000000.0 -65863000000.0 -129557000000.0 -202487000000.0 -292770000000.0 -17872600000.0 -13224200000.0 -163552000000.0 -12549700000.0 -25377500000.0 -12549700000.0 -103493000000.0 -69185300000.0 -127530000000.0 -48530700000.0 -41814500000.0 -125968000000.0 -129842000000.0 -39732500000.0 -184391000000.0 -47958900000.0 -86839500000.0 -185937000000.0 -132459000000.0 -48499400000.0 -117857000000.0 -48080400000.0 -144644000000.0 -53718800000.0 -68557400000.0 -78562500000.0 -241319000000.0 -199207000000.0 -116287000000.0 -120575000000.0 -85449600000.0 -160528000000.0 -48508400000.0 -86889500000.0 -76324700000.0 -178755000000.0 -86036900000.0 -92784700000.0 -195339000000.0 -89257400000.0 -87729100000.0 -132298000000.0 -98102500000.0 -159068000000.0 -107394000000.0 -95995800000.0 -117692000000.0 -119560000000.0 -75200200000.0 -16739300000.0 -171413000000.0 -53237400000.0 -66126500000.0 -57101200000.0 -187062000000.0 -110408000000.0 -161050000000.0 -75674900000.0 -49348200000.0 -15424000000.0 -160573000000.0 -168615000000.0 -273831000000.0 -99518200000.0 -129830000000.0 -92914600000.0 -162911000000.0 -15907500000.0 -12930100000.0 -229303000000.0 -152607000000.0 -118919000000.0 -180423000000.0 -108826000000.0 -155828000000.0 -100788000000.0 -145118000000.0 -74736100000.0 -92493000000.0 -99303000000.0 -124632000000.0 -81097300000.0 -47694800000.0 -159054000000.0 -118309000000.0 -49139800000.0 -79199900000.0 -70009400000.0 -106803000000.0 -68321400000.0 -66831700000.0 -83702500000.0 -33790300000.0 -224912000000.0 -54524700000.0 -79924100000.0 -170523000000.0 -162377000000.0 -348924000000.0 -27108800000.0 -12601000000.0 -32058900000.0 -48997500000.0 -167866000000.0 -82298700000.0 -17837100000.0 -100580000000.0 -50817200000.0 -76021600000.0 -124833000000.0 -26970600000.0 -13643500000.0 -175696000000.0 -17446900000.0 -12607500000.0 -135691000000.0 -98034600000.0 -269319000000.0 -248346000000.0 -171871000000.0 -284859000000.0 -212809000000.0 -167348000000.0 -173793000000.0 -246345000000.0 -120636000000.0 -84483100000.0 -180397000000.0 -144297000000.0 -113775000000.0 -140198000000.0 -19105100000.0 -180616000000.0 -194681000000.0 -151022000000.0 -153778000000.0 -154015000000.0 -129495000000.0 -44226500000.0 -81000000000.0 -152216000000.0 -14031000000.0 -12549700000.0 -27806000000.0 -78761300000.0 -80314200000.0 -73497000000.0 -129534000000.0 -55961000000.0 -107856000000.0 -96456700000.0 -106067000000.0 -107786000000.0 -197637000000.0 -28208800000.0 -19364600000.0 -27485300000.0 -34605500000.0 -91063200000.0 -67374900000.0 -67331200000.0 -155267000000.0 -141292000000.0 -193035000000.0 -81129200000.0 -57952600000.0 -65459200000.0 -214159000000.0 -67509700000.0 -140133000000.0 -103105000000.0 -74670400000.0 -233351000000.0 -29075300000.0 -31619000000.0 -38630100000.0 -68829300000.0 -15365300000.0 -75577000000.0 -69179800000.0 -135979000000.0 -55981000000.0 -80326000000.0 -124868000000.0 -80681900000.0 -79889500000.0 -134324000000.0 -151358000000.0 -93394000000.0 -85486400000.0 -73641600000.0 -83366700000.0 -114975000000.0 -110991000000.0 -16463000000.0 -14122400000.0 -350684000000.0 -124909000000.0 -104705000000.0 -113491000000.0 -12549700000.0 -62431700000.0 -72249100000.0 -14913700000.0 -270426000000.0 -309225000000.0 -203607000000.0 -174907000000.0 -81793600000.0 -25205600000.0 -179510000000.0 -130090000000.0 -105462000000.0 -66509400000.0 -74091900000.0 -235917000000.0 -66980000000.0 -176037000000.0 -188409000000.0 -80090400000.0 -211200000000.0 -45279900000.0 -140914000000.0 -38125900000.0 -129410000000.0 -75889000000.0 -41530000000.0 -264216000000.0 -21850200000.0 -31460000000.0 -182563000000.0 -104580000000.0 -42407400000.0 -16354100000.0 -103500000000.0 -92060600000.0 -87415500000.0 -12549700000.0 -21230100000.0 -64174900000.0 -73060100000.0 -79967300000.0 -92287800000.0 -38421800000.0 -38700800000.0 -57600000000.0 -76312400000.0 -48505600000.0 -34809700000.0 -143605000000.0 -20105700000.0 -68468200000.0 -53171100000.0 -83740000000.0 -133698000000.0 -126589000000.0 -28815500000.0 -37980600000.0 -38220500000.0 -50237800000.0 -85891000000.0 -37272800000.0 -35895000000.0 -67255800000.0 -203350000000.0 -16130600000.0 -12549700000.0 -208480000000.0 -150150000000.0 -178002000000.0 -108324000000.0 -67812600000.0 -75786400000.0 -191578000000.0 -93325300000.0 -225372000000.0 -14903600000.0 -16447000000.0 -12549700000.0 -51086300000.0 -47480200000.0 -17271800000.0 -34949700000.0 -17329500000.0 -40433100000.0 -87827400000.0 -76964600000.0 -75095000000.0 -45041500000.0 -89816500000.0 -26129800000.0 -21069700000.0 -24169000000.0 -65790900000.0 -92273200000.0 -80482800000.0 -214613000000.0 -229627000000.0 -300805000000.0 -100561000000.0 -31632000000.0 -179331000000.0 -139911000000.0 -144469000000.0 -96782200000.0 -312821000000.0 -164101000000.0 -153623000000.0 -260086000000.0 -118575000000.0 -187107000000.0 -91768400000.0 -63174500000.0 -194140000000.0 -53654900000.0 -49000700000.0 -19574100000.0 -316512000000.0 -161218000000.0 -112377000000.0 -104486000000.0 -150397000000.0 -237761000000.0 -153065000000.0 -97014400000.0 -47611800000.0 -157751000000.0 -108583000000.0 -114541000000.0 -260727000000.0 -289899000000.0 -161518000000.0 -134948000000.0 -137791000000.0 -124739000000.0 -125130000000.0 -128008000000.0 -108760000000.0 -45177100000.0 -36074900000.0 -33647200000.0 -77437500000.0 -73968600000.0 -84189500000.0 -76284400000.0 -47195000000.0 -14514900000.0 -36395200000.0 -65234900000.0 -83198600000.0 -96725200000.0 -29269000000.0 -76613600000.0 -32315400000.0 -22886200000.0 -59599300000.0 -62280300000.0 -159850000000.0 -105246000000.0 -107498000000.0 -140663000000.0 -36625500000.0 -102681000000.0 -164886000000.0 -13348700000.0 -12549700000.0 -172059000000.0 -77504100000.0 -152450000000.0 -78519800000.0 -99812700000.0 -157288000000.0 -109260000000.0 -134009000000.0 -194144000000.0 -35574100000.0 -50309800000.0 -38468700000.0 -79258300000.0 -51231000000.0 -47615400000.0 -41430600000.0 -72269800000.0 -33965500000.0 -53800000000.0 -43384300000.0 -50933000000.0 -55417900000.0 -13380600000.0 -18653100000.0 -34268400000.0 -121726000000.0 -76718900000.0 -64346200000.0 -84773300000.0 -137597000000.0 -22295100000.0 -16480700000.0 -163169000000.0 -74764800000.0 -19408200000.0 -12929900000.0 -319423000000.0 -277135000000.0 -55079800000.0 -205913000000.0 -190380000000.0 -12723400000.0 -120019000000.0 -184919000000.0 -136473000000.0 -175529000000.0 -177177000000.0 -151772000000.0 -258079000000.0 -35930100000.0 -274786000000.0 -215622000000.0 -250839000000.0 -140373000000.0 -250569000000.0 -180747000000.0 -66641100000.0 -137931000000.0 -199011000000.0 -144197000000.0 -120872000000.0 -129374000000.0 -195351000000.0 -33207500000.0 -34714700000.0 -75937400000.0 -59975600000.0 -22060200000.0 -54509200000.0 -13556300000.0 -44793800000.0 -86666800000.0 -62525200000.0 -51874100000.0 -52270200000.0 -47849500000.0 -83134400000.0 -31753800000.0 -90264700000.0 -86378600000.0 -104067000000.0 -85642700000.0 -92916800000.0 -46545200000.0 -105788000000.0 -22556000000.0 -23218800000.0 -43832100000.0 -49106800000.0 -145896000000.0 -100672000000.0 -75896600000.0 -166362000000.0 -70825300000.0 -143410000000.0 -133524000000.0 -152290000000.0 -126191000000.0 -179566000000.0 -130697000000.0 -79507900000.0 -115354000000.0 -31747700000.0 -93299500000.0 -87170300000.0 -36129000000.0 -93652500000.0 -32310200000.0 -64984700000.0 -40369600000.0 -14431500000.0 -33949100000.0 -18926300000.0 -13906600000.0 -83761900000.0 -70933500000.0 -28256400000.0 -30170900000.0 -66918000000.0 -48219200000.0 -52352900000.0 -103533000000.0 -57588200000.0 -27651700000.0 -17023700000.0 -46865700000.0 -90184700000.0 -102851000000.0 -34808800000.0 -12549700000.0 -145845000000.0 -58942800000.0 -18555900000.0 -196452000000.0 -280050000000.0 -218867000000.0 -59192900000.0 -76562400000.0 -133221000000.0 -204341000000.0 -110915000000.0 -175650000000.0 -128400000000.0 -111225000000.0 -170005000000.0 -158944000000.0 -106412000000.0 -97387600000.0 -123970000000.0 -197671000000.0 -170688000000.0 -18079400000.0 -88986900000.0 -134500000000.0 -13434100000.0 -246456000000.0 -298817000000.0 -258273000000.0 -111691000000.0 -42111700000.0 -24954800000.0 -77251300000.0 -32278400000.0 -39308100000.0 -144050000000.0 -97126300000.0 -47102700000.0 -93156400000.0 -92545400000.0 -33407800000.0 -23250500000.0 -22096000000.0 -30536500000.0 -66226000000.0 -17989700000.0 -16630100000.0 -13044400000.0 -12549700000.0 -78133000000.0 -32187100000.0 -63090600000.0 -79224900000.0 -49890400000.0 -46977100000.0 -52876500000.0 -50812000000.0 -72075500000.0 -25295400000.0 -13007100000.0 -55768100000.0 -12784600000.0 -96516400000.0 -40001100000.0 -24695700000.0 -42669300000.0 -180112000000.0 -136211000000.0 -92378200000.0 -63363600000.0 -12549700000.0 -157643000000.0 -193559000000.0 -113272000000.0 -164078000000.0 -99368200000.0 -70881800000.0 -68291700000.0 -73613900000.0 -111580000000.0 -71841000000.0 -44520700000.0 -50223900000.0 -42131200000.0 -56707100000.0 -12590300000.0 -13044900000.0 -19085400000.0 -18026000000.0 -29664800000.0 -15394100000.0 -25167800000.0 -23617400000.0 -90076700000.0 -81581000000.0 -130691000000.0 -40998300000.0 -27319100000.0 -84147600000.0 -65668900000.0 -41871800000.0 -13336500000.0 -35921200000.0 -166393000000.0 -55376200000.0 -42093500000.0 -76210200000.0 -108093000000.0 -161375000000.0 -50550900000.0 -155182000000.0 -100102000000.0 -14320100000.0 -98014300000.0 -71338800000.0 -98707500000.0 -23347200000.0 -13199400000.0 -75835600000.0 -89693600000.0 -160282000000.0 -155369000000.0 -203052000000.0 -137987000000.0 -26484100000.0 -125952000000.0 -144829000000.0 -146994000000.0 -146639000000.0 -141271000000.0 -45345500000.0 -92795400000.0 -47878200000.0 -83369000000.0 -16670100000.0 -13440000000.0 -110949000000.0 -40733300000.0 -79418400000.0 -88580000000.0 -45155400000.0 -20706800000.0 -23625500000.0 -42874300000.0 -22350000000.0 -55262200000.0 -34126100000.0 -34101600000.0 -38143700000.0 -56659200000.0 -44139200000.0 -33475900000.0 -49837100000.0 -69806700000.0 -17847100000.0 -15474900000.0 -40336700000.0 -31904100000.0 -78001800000.0 -45890100000.0 -39097900000.0 -73590600000.0 -39021900000.0 -93853400000.0 -48038400000.0 -58345400000.0 -33776500000.0 -51874200000.0 -83393400000.0 -82777900000.0 -130937000000.0 -163030000000.0 -110518000000.0 -24553600000.0 -55585600000.0 -40833800000.0 -29594900000.0 -41692000000.0 -41086200000.0 -43910400000.0 -87529700000.0 -89180900000.0 -31721600000.0 -90401100000.0 -48035600000.0 -27000100000.0 -42040900000.0 -45787000000.0 -19034800000.0 -37061800000.0 -55108600000.0 -34385900000.0 -70878900000.0 -12549700000.0 -110295000000.0 -121450000000.0 -60754700000.0 -98920700000.0 -109176000000.0 -54436100000.0 -39470900000.0 -109972000000.0 -65722700000.0 -63967000000.0 -149560000000.0 -93767900000.0 -51474000000.0 -33617400000.0 -68836900000.0 -43366500000.0 -147295000000.0 -100966000000.0 -129041000000.0 -101800000000.0 -98897700000.0 -44673600000.0 -68264300000.0 -32396300000.0 -36723900000.0 -111055000000.0 -159265000000.0 -15533300000.0 -89461900000.0 -131574000000.0 -73462500000.0 -41625800000.0 -159515000000.0 -94456300000.0 -113310000000.0 -207674000000.0 -22068100000.0 -12763100000.0 -22377000000.0 -45861300000.0 -87381100000.0 -65712000000.0 -79947900000.0 -103411000000.0 -122564000000.0 -57061700000.0 -67498800000.0 -92195200000.0 -70903100000.0 -20677300000.0 -63373800000.0 -30134700000.0 -21120300000.0 -32020400000.0 -35344100000.0 -49310800000.0 -68798400000.0 -45775100000.0 -72223100000.0 -71883600000.0 -69140800000.0 -75655100000.0 -56047200000.0 -102492000000.0 -15668600000.0 -25029300000.0 -19842200000.0 -25014600000.0 -64561800000.0 -17685900000.0 -61503800000.0 -18339300000.0 -28699500000.0 -123636000000.0 -20069600000.0 -17422200000.0 -12885100000.0 -90205100000.0 -14261300000.0 -146425000000.0 -87445400000.0 -135082000000.0 -96149000000.0 -110384000000.0 -50797100000.0 -32260100000.0 -38948500000.0 -52074400000.0 -18793500000.0 -19074800000.0 -19796700000.0 -13510200000.0 -12589800000.0 -19757800000.0 -78870900000.0 -40456400000.0 -72320500000.0 -58637600000.0 -60782300000.0 -70940900000.0 -46997200000.0 -50853400000.0 -131962000000.0 -27881400000.0 -45787900000.0 -13096900000.0 -34025300000.0 -78027800000.0 -76717300000.0 -22169700000.0 -25719300000.0 -12549700000.0 -116500000000.0 -86564600000.0 -44230100000.0 -34059300000.0 -44676000000.0 -34412600000.0 -56870800000.0 -64523000000.0 -117804000000.0 -55381500000.0 -46290400000.0 -87823000000.0 -69309500000.0 -61793900000.0 -113853000000.0 -70336500000.0 -171835000000.0 -179023000000.0 -109879000000.0 -144383000000.0 -16836300000.0 -74375300000.0 -152160000000.0 -114115000000.0 -45574900000.0 -162341000000.0 -256764000000.0 -26419500000.0 -12645900000.0 -31479700000.0 -48783000000.0 -30351100000.0 -64734500000.0 -49706600000.0 -25684400000.0 -60661900000.0 -17187000000.0 -27864100000.0 -43220400000.0 -12549700000.0 -13008800000.0 -65505100000.0 -62154800000.0 -73947500000.0 -23961300000.0 -19463500000.0 -22556700000.0 -27861700000.0 -58262100000.0 -39338600000.0 -67551400000.0 -36478600000.0 -18477000000.0 -13210400000.0 -21037400000.0 -12549700000.0 -86985600000.0 -31660700000.0 -69284200000.0 -73692200000.0 -86674600000.0 -64795900000.0 -28063000000.0 -143166000000.0 -62058100000.0 -69752500000.0 -82071500000.0 -114952000000.0 -32789600000.0 -48918600000.0 -22717900000.0 -20410500000.0 -168723000000.0 -64930500000.0 -33378300000.0 -53946300000.0 -37793200000.0 -34492200000.0 -21128900000.0 -17517100000.0 -38680100000.0 -31583700000.0 -23946800000.0 -74025800000.0 -52431700000.0 -46977000000.0 -42671500000.0 -16680900000.0 -46836000000.0 -83229300000.0 -53461300000.0 -36501600000.0 -45233400000.0 -31714300000.0 -25284400000.0 -13279600000.0 -15840500000.0 -48366900000.0 -35372300000.0 -27251700000.0 -35795000000.0 -114280000000.0 -74998200000.0 -30637700000.0 -55198500000.0 -52398600000.0 -32343300000.0 -59237800000.0 -79558500000.0 -123958000000.0 -66050700000.0 -60883600000.0 -74330300000.0 -39943000000.0 -40994000000.0 -88554700000.0 -130498000000.0 -171529000000.0 -37287200000.0 -89888800000.0 -29563600000.0 -160458000000.0 -102166000000.0 -57027600000.0 -98930700000.0 -107753000000.0 -189225000000.0 -103847000000.0 -38392000000.0 -23709300000.0 -50377500000.0 -42856200000.0 -21754100000.0 -25085700000.0 -31816000000.0 -49163200000.0 -21247000000.0 -55692800000.0 -37541700000.0 -48092900000.0 -41931400000.0 -34149600000.0 -16425400000.0 -40960500000.0 -30091000000.0 -24207700000.0 -17859800000.0 -26264400000.0 -30254400000.0 -44157200000.0 -13865900000.0 -12549700000.0 -13374600000.0 -36518700000.0 -19357600000.0 -29404400000.0 -29385700000.0 -29961000000.0 -40865100000.0 -53372900000.0 -41059200000.0 -61016400000.0 -55596800000.0 -35139200000.0 -21616900000.0 -31463600000.0 -71781000000.0 -79830300000.0 -39266400000.0 -63814600000.0 -23204400000.0 -72986400000.0 -15187600000.0 -14229600000.0 -39054800000.0 -162625000000.0 -67204000000.0 -25455100000.0 -13344100000.0 -45576800000.0 -22313000000.0 -38668500000.0 -12709800000.0 -57181100000.0 -29253700000.0 -12806000000.0 -40283400000.0 -56406400000.0 -23324000000.0 -21659400000.0 -30027700000.0 -12943700000.0 -17341500000.0 -53180100000.0 -59355100000.0 -44819700000.0 -25359500000.0 -55608900000.0 -24296400000.0 -14916100000.0 -23031500000.0 -14441400000.0 -22926300000.0 -12803800000.0 -32270400000.0 -16596700000.0 -12549700000.0 -17447800000.0 -15340300000.0 -100833000000.0 -55779500000.0 -65970500000.0 -24026200000.0 -16069000000.0 -119363000000.0 -21977500000.0 -120626000000.0 -94894800000.0 -94409000000.0 -85062900000.0 -48873600000.0 -76834100000.0 -107411000000.0 -81874200000.0 -133224000000.0 -123599000000.0 -105112000000.0 -25623600000.0 -38493600000.0 -63486800000.0 -41203100000.0 -47420800000.0 -12549700000.0 -90234700000.0 -69759200000.0 -12764500000.0 -68998700000.0 -28239800000.0 -61102500000.0 -63702600000.0 -52454900000.0 -22380800000.0 -28157100000.0 -20275800000.0 -29729800000.0 -34186800000.0 -32324600000.0 -19156100000.0 -35077200000.0 -16300700000.0 -20289000000.0 -13025900000.0 -12549700000.0 -14960500000.0 -25687100000.0 -13194100000.0 -12549700000.0 -25966600000.0 -12549700000.0 -12679200000.0 -16967700000.0 -16922800000.0 -15987500000.0 -27605700000.0 -34441100000.0 -36846200000.0 -51400400000.0 -31323700000.0 -18390800000.0 -33667600000.0 -32040500000.0 -52292600000.0 -39411600000.0 -15456600000.0 -81985500000.0 -72338800000.0 -76651700000.0 -73110100000.0 -49549800000.0 -22185000000.0 -24528100000.0 -19052300000.0 -35283700000.0 -31792700000.0 -33627100000.0 -12549700000.0 -35333000000.0 -24861400000.0 -18842700000.0 -24448400000.0 -16274800000.0 -32842400000.0 -28680800000.0 -32021100000.0 -17166600000.0 -40243100000.0 -21715500000.0 -43312400000.0 -12549700000.0 -17719500000.0 -16203900000.0 -13404600000.0 -13164700000.0 -21126300000.0 -12610000000.0 -14232500000.0 -12549700000.0 -28419700000.0 -40060500000.0 -120244000000.0 -45242800000.0 -92178200000.0 -103814000000.0 -112337000000.0 -39849500000.0 -80129100000.0 -41786800000.0 -49959900000.0 -54717500000.0 -51456500000.0 -30603400000.0 -14139500000.0 -50671600000.0 -63633700000.0 -34193500000.0 -62145100000.0 -35718100000.0 -43263600000.0 -32388500000.0 -47381700000.0 -29284400000.0 -72285800000.0 -37782800000.0 -26205700000.0 -14199700000.0 -22899800000.0 -40110900000.0 -13045600000.0 -28026500000.0 -14734800000.0 -21874500000.0 -15757400000.0 -12549700000.0 -14886600000.0 -13178800000.0 -12549700000.0 -12669800000.0 -16234600000.0 -15542000000.0 -12549700000.0 -12549700000.0 -12549700000.0 -13908200000.0 -21284100000.0 -18751700000.0 -12861700000.0 -12810200000.0 -21788400000.0 -13014500000.0 -13656200000.0 -13272100000.0 -12866300000.0 -20804800000.0 -21485600000.0 -19101900000.0 -13446500000.0 -23420100000.0 -31768700000.0 -24786100000.0 -21067700000.0 -17326200000.0 -59867400000.0 -44182100000.0 -53013200000.0 -60995800000.0 -27956900000.0 -89893200000.0 -30046200000.0 -23956400000.0 -55998800000.0 -57150900000.0 -25163600000.0 -22128400000.0 -28804300000.0 -17391100000.0 -18700600000.0 -24533700000.0 -24855400000.0 -31393100000.0 -22187600000.0 -13024600000.0 -26791200000.0 -27204400000.0 -36422100000.0 -23872300000.0 -45231600000.0 -34915200000.0 -17083000000.0 -13692900000.0 -14428600000.0 -14532500000.0 -12549700000.0 -13018300000.0 -13095900000.0 -16071500000.0 -60839900000.0 -28553600000.0 -16447500000.0 -39917500000.0 -27534000000.0 -21805800000.0 -31995700000.0 -23314000000.0 -25020400000.0 -31645000000.0 -38199900000.0 -42440000000.0 -31855300000.0 -26524400000.0 -12549700000.0 -34567800000.0 -25629200000.0 -23718600000.0 -23309500000.0 -33275500000.0 -30032800000.0 -28263100000.0 -35681300000.0 -25793800000.0 -16733700000.0 -28800900000.0 -12549700000.0 -26529100000.0 -12705200000.0 -16150100000.0 -17064000000.0 -13755900000.0 -12549700000.0 -17123500000.0 -12997900000.0 -28124100000.0 -16080100000.0 -14603200000.0 -12991100000.0 -13652500000.0 -12565400000.0 -13458600000.0 -12886200000.0 -12747600000.0 -12685300000.0 -18858700000.0 -12878700000.0 -13779000000.0 -13556100000.0 -16804800000.0 -14232500000.0 -16667100000.0 -17184100000.0 -18659600000.0 -13079300000.0 -19779300000.0 -20831700000.0 -14513100000.0 -16994100000.0 -24877000000.0 -32050400000.0 -33027700000.0 -28525700000.0 -18081700000.0 -47141700000.0 -35931800000.0 -22705800000.0 -24857800000.0 -24125400000.0 -34597200000.0 -25113000000.0 -26048300000.0 -12549700000.0 -24655500000.0 -19426200000.0 -15608200000.0 -14273600000.0 -13135000000.0 -17019700000.0 -14408400000.0 -16233500000.0 -12549700000.0 -19675000000.0 -16543600000.0 -13704300000.0 -14052700000.0 -17255200000.0 -18357800000.0 -24565800000.0 -12549700000.0 -21784200000.0 -16140600000.0 -16267400000.0 -14185100000.0 -14241300000.0 -13195400000.0 -13745400000.0 -25104600000.0 -25617600000.0 -17136300000.0 -12779100000.0 -21405200000.0 -20070200000.0 -17597100000.0 -32698900000.0 -18768400000.0 -17685300000.0 -18918900000.0 -20210700000.0 -17225900000.0 -19198100000.0 -13430000000.0 -15680600000.0 -17165000000.0 -13915100000.0 -12798400000.0 -13948500000.0 -13821500000.0 -13545700000.0 -13416000000.0 -24129500000.0 -14968300000.0 -13949000000.0 -16260300000.0 -15714500000.0 -13596400000.0 -13467800000.0 -13774400000.0 -15091800000.0 -18066700000.0 -14071600000.0 -13909300000.0 -13528500000.0 -15741500000.0 -12954200000.0 -14521500000.0 -13053500000.0 -13895600000.0 -15532300000.0 -14992500000.0 -16435500000.0 -18544300000.0 -15260900000.0 -13860300000.0 -18802700000.0 -23180600000.0 -23449600000.0 -23822800000.0 -19268000000.0 -16674000000.0 -21400600000.0 -22774400000.0 -15977400000.0 -15356300000.0 -18132200000.0 -14942800000.0 -15602600000.0 -12913300000.0 -13558000000.0 -12549700000.0 -12549700000.0 -14397500000.0 -13211200000.0 -13051500000.0 -13652700000.0 -13266000000.0 -14207000000.0 -14349100000.0 -13870600000.0 -14261300000.0 -12953000000.0 -15442900000.0 -13561300000.0 -15998800000.0 -13988900000.0 -13831300000.0 -13559500000.0 -13387300000.0 -12655400000.0 -12549700000.0 -12610800000.0 