# vtk DataFile Version 2.0
Time step 36
ASCII
DATASET UNSTRUCTURED_GRID
POINTS 5000 float
203662.0 361476.0 0
288997.0 362327.0 0
297463.0 362109.0 0
202707.0 366705.0 0
211581.0 363580.0 0
207070.0 362994.0 0
215912.0 367493.0 0
221047.0 367303.0 0
226004.0 367620.0 0
272782.0 367688.0 0
278468.0 368935.0 0
283737.0 365802.0 0
291434.0 367729.0 0
197535.0 378726.0 0
202393.0 372029.0 0
201544.0 377381.0 0
206593.0 370319.0 0
207278.0 366058.0 0
211220.0 369048.0 0
215340.0 373158.0 0
219833.0 371582.0 0
223579.0 373405.0 0
229677.0 369321.0 0
227192.0 371643.0 0
234527.0 368646.0 0
236505.0 374419.0 0
240033.0 370346.0 0
245240.0 372156.0 0
251588.0 372206.0 0
257765.0 370866.0 0
262575.0 371040.0 0
267244.0 369036.0 0
271043.0 372656.0 0
274810.0 371620.0 0
277921.0 374235.0 0
282181.0 372465.0 0
286691.0 370880.0 0
290947.0 372556.0 0
297177.0 367333.0 0
295355.0 372303.0 0
298544.0 377071.0 0
194741.0 380672.0 0
191631.0 382880.0 0
199061.0 381906.0 0
204247.0 380693.0 0
205981.0 375534.0 0
208570.0 380157.0 0
210226.0 373787.0 0
212597.0 377629.0 0
219758.0 375885.0 0
223932.0 378767.0 0
227350.0 375480.0 0
228822.0 379292.0 0
231451.0 373213.0 0
233054.0 378098.0 0
238179.0 379562.0 0
242822.0 376795.0 0
247509.0 375932.0 0
250903.0 378323.0 0
255154.0 376976.0 0
259136.0 375434.0 0
263313.0 375375.0 0
266977.0 373796.0 0
269681.0 377735.0 0
273992.0 375902.0 0
281425.0 376614.0 0
285489.0 376790.0 0
290076.0 377266.0 0
288320.0 374272.0 0
293744.0 376613.0 0
295235.0 380001.0 0
298315.0 382282.0 0
302998.0 381205.0 0
308174.0 382940.0 0
188098.0 384669.0 0
184870.0 387152.0 0
187775.0 387448.0 0
191261.0 386346.0 0
194512.0 389100.0 0
194963.0 384159.0 0
198380.0 386376.0 0
203278.0 385378.0 0
212589.0 382167.0 0
216868.0 379994.0 0
220778.0 381308.0 0
218774.0 385043.0 0
223352.0 383868.0 0
226784.0 382283.0 0
230287.0 383235.0 0
234153.0 382599.0 0
238045.0 385376.0 0
241969.0 386373.0 0
242619.0 382652.0 0
246617.0 380113.0 0
249692.0 383910.0 0
254008.0 381853.0 0
258570.0 380205.0 0
257274.0 384320.0 0
262991.0 379553.0 0
261421.0 384419.0 0
266797.0 382953.0 0
271624.0 382439.0 0
273857.0 379681.0 0
275482.0 383690.0 0
277859.0 379343.0 0
278783.0 383172.0 0
282520.0 381484.0 0
287646.0 381647.0 0
290464.0 385889.0 0
292093.0 381711.0 0
295540.0 383181.0 0
294161.0 385781.0 0
297736.0 385863.0 0
301228.0 385685.0 0
305004.0 385238.0 0
303995.0 388098.0 0
308028.0 387261.0 0
311856.0 384874.0 0
311972.0 387437.0 0
315610.0 387862.0 0
177308.0 392151.0 0
181253.0 389830.0 0
180174.0 393574.0 0
182891.0 392992.0 0
185110.0 390069.0 0
185780.0 392817.0 0
189223.0 390585.0 0
192160.0 393462.0 0
196281.0 393050.0 0
200110.0 391036.0 0
204759.0 390044.0 0
208968.0 386212.0 0
214259.0 386387.0 0
222246.0 389163.0 0
227237.0 386921.0 0
225915.0 391570.0 0
229291.0 390847.0 0
232865.0 388062.0 0
237198.0 389961.0 0
240757.0 389100.0 0
245565.0 386947.0 0
253879.0 386848.0 0
249681.0 388367.0 0
258461.0 388304.0 0
264860.0 388687.0 0
271253.0 387914.0 0
276889.0 388118.0 0
280435.0 386101.0 0
285534.0 387145.0 0
281454.0 390651.0 0
289842.0 389809.0 0
293327.0 389312.0 0
296846.0 388856.0 0
297495.0 392874.0 0
300585.0 389385.0 0
301774.0 392947.0 0
305146.0 391492.0 0
308602.0 391397.0 0
313190.0 390254.0 0
310622.0 389617.0 0
311939.0 393308.0 0
320010.0 391559.0 0
316021.0 391958.0 0
324898.0 393526.0 0
165840.0 398632.0 0
173531.0 395010.0 0
169532.0 397052.0 0
173226.0 399456.0 0
177441.0 396563.0 0
181013.0 396312.0 0
183850.0 396153.0 0
187803.0 395765.0 0
184505.0 399117.0 0
191257.0 397934.0 0
194690.0 395925.0 0
195121.0 398668.0 0
198879.0 396826.0 0
208303.0 391673.0 0
204114.0 395433.0 0
212423.0 391082.0 0
209116.0 395793.0 0
212605.0 395016.0 0
217215.0 390505.0 0
220414.0 393704.0 0
224041.0 395398.0 0
228673.0 394867.0 0
234245.0 394590.0 0
239777.0 393260.0 0
243792.0 391095.0 0
243918.0 395501.0 0
247876.0 392638.0 0
252409.0 391209.0 0
256361.0 393552.0 0
260976.0 392038.0 0
265338.0 394284.0 0
270621.0 394083.0 0
274901.0 392280.0 0
278172.0 391489.0 0
278656.0 395712.0 0
284880.0 391822.0 0
283286.0 395069.0 0
287054.0 394475.0 0
287394.0 391439.0 0
289640.0 392953.0 0
290384.0 397117.0 0
293157.0 393425.0 0
300834.0 396009.0 0
298147.0 397172.0 0
304767.0 396808.0 0
308532.0 395361.0 0
312642.0 397286.0 0
315238.0 394772.0 0
318933.0 395878.0 0
316038.0 398005.0 0
322688.0 395981.0 0
328580.0 396275.0 0
332446.0 399094.0 0
155937.0 404875.0 0
159273.0 402921.0 0
162747.0 401455.0 0
166136.0 401494.0 0
165470.0 404514.0 0
169101.0 400502.0 0
168286.0 403339.0 0
172039.0 403471.0 0
176920.0 400670.0 0
175427.0 403434.0 0
180958.0 399855.0 0
179158.0 404013.0 0
187272.0 400069.0 0
183681.0 403255.0 0
187664.0 403894.0 0
189899.0 401534.0 0
193216.0 401377.0 0
197102.0 401935.0 0
202475.0 401099.0 0
207457.0 400296.0 0
212246.0 399364.0 0
216251.0 395818.0 0
216341.0 400872.0 0
220300.0 398121.0 0
225202.0 401022.0 0
230563.0 399116.0 0
238808.0 397718.0 0
242823.0 400654.0 0
247551.0 398228.0 0
251716.0 395607.0 0
250922.0 399174.0 0
255466.0 399905.0 0
260709.0 397424.0 0
268086.0 397694.0 0
265147.0 400457.0 0
271664.0 400013.0 0
274373.0 396456.0 0
282144.0 400106.0 0
286197.0 398587.0 0
289238.0 401472.0 0
293213.0 401701.0 0
294722.0 397594.0 0
298021.0 401647.0 0
301527.0 399508.0 0
305292.0 401850.0 0
301857.0 403178.0 0
309818.0 400636.0 0
315358.0 401824.0 0
320319.0 400234.0 0
325438.0 399495.0 0
324616.0 403813.0 0
329177.0 401745.0 0
331048.0 404239.0 0
333465.0 403317.0 0
337001.0 401690.0 0
340673.0 403120.0 0
343272.0 403920.0 0
149885.0 408759.0 0
153108.0 406947.0 0
156366.0 409094.0 0
158847.0 405858.0 0
162176.0 405406.0 0
160806.0 409671.0 0
164812.0 407743.0 0
168724.0 406308.0 0
172166.0 406910.0 0
175763.0 407060.0 0
181446.0 407406.0 0
186284.0 407772.0 0
192035.0 405695.0 0
197385.0 406154.0 0
199694.0 403957.0 0
202197.0 406293.0 0
206976.0 405154.0 0
212362.0 404259.0 0
217105.0 404982.0 0
219928.0 402145.0 0
221494.0 405734.0 0
226095.0 406997.0 0
230432.0 404188.0 0
235165.0 401066.0 0
239249.0 404368.0 0
246949.0 402944.0 0
251002.0 402643.0 0
260644.0 404624.0 0
268385.0 404005.0 0
277131.0 401358.0 0
273200.0 405077.0 0
281985.0 405090.0 0
285946.0 403406.0 0
290533.0 406192.0 0
295706.0 406072.0 0
300304.0 406680.0 0
305130.0 406957.0 0
308687.0 405099.0 0
312369.0 405493.0 0
316719.0 406076.0 0
320530.0 404490.0 0
324042.0 407522.0 0
328418.0 405718.0 0
333081.0 406488.0 0
336040.0 409424.0 0
337241.0 405877.0 0
341035.0 406439.0 0
339429.0 408917.0 0
344941.0 406638.0 0
348072.0 407213.0 0
352908.0 410425.0 0
350231.0 409000.0 0
140745.0 414723.0 0
147105.0 410837.0 0
143988.0 412673.0 0
146615.0 414390.0 0
152438.0 411195.0 0
149357.0 413305.0 0
153011.0 414600.0 0
156716.0 413742.0 0
160648.0 414361.0 0
167549.0 409337.0 0
164661.0 411799.0 0
170918.0 409365.0 0
168820.0 412998.0 0
173509.0 411123.0 0
178153.0 410486.0 0
182811.0 411525.0 0
179566.0 413956.0 0
186624.0 411727.0 0
190239.0 410334.0 0
195016.0 409725.0 0
199806.0 409873.0 0
204732.0 410482.0 0
209651.0 409100.0 0
208043.0 412925.0 0
214482.0 408948.0 0
218621.0 408742.0 0
222343.0 410687.0 0
230569.0 409955.0 0
234884.0 406412.0 0
235139.0 410171.0 0
238725.0 408476.0 0
243882.0 407114.0 0
244783.0 411887.0 0
249468.0 406857.0 0
254510.0 405985.0 0
248272.0 410804.0 0
257451.0 409666.0 0
262197.0 411535.0 0
265705.0 407468.0 0
267101.0 411600.0 0
270082.0 408465.0 0
274477.0 409869.0 0
277908.0 406878.0 0
278282.0 411062.0 0
281830.0 409956.0 0
286094.0 408441.0 0
290245.0 411833.0 0
293867.0 409638.0 0
294621.0 412791.0 0
298218.0 410801.0 0
301976.0 410290.0 0
305464.0 411614.0 0
310529.0 409811.0 0
308735.0 413536.0 0
315260.0 409387.0 0
315065.0 413360.0 0
320115.0 408932.0 0
318075.0 411904.0 0
321470.0 412637.0 0
324248.0 411255.0 0
327974.0 409710.0 0
332045.0 409671.0 0
327597.0 413360.0 0
331923.0 413944.0 0
335529.0 412823.0 0
338707.0 412217.0 0
342661.0 410859.0 0
347363.0 411611.0 0
351588.0 412690.0 0
350003.0 415292.0 0
355591.0 412682.0 0
353789.0 415685.0 0
358666.0 414680.0 0
134370.0 419028.0 0
137660.0 419755.0 0
137411.0 416636.0 0
140607.0 418326.0 0
143963.0 415979.0 0
146965.0 416623.0 0
144447.0 419173.0 0
150451.0 416752.0 0
147919.0 419779.0 0
157650.0 417813.0 0
154246.0 417462.0 0
160775.0 417925.0 0
164497.0 415865.0 0
171958.0 414530.0 0
168416.0 417973.0 0
175618.0 414270.0 0
173187.0 418043.0 0
181892.0 415615.0 0
178048.0 418027.0 0
185074.0 415171.0 0
189272.0 414541.0 0
182908.0 419602.0 0
187799.0 418758.0 0
193259.0 413979.0 0
192370.0 417838.0 0
197423.0 413513.0 0
196772.0 417342.0 0
201242.0 413943.0 0
204816.0 415539.0 0
209045.0 417102.0 0
212266.0 413362.0 0
217431.0 413534.0 0
221687.0 415214.0 0
226161.0 414013.0 0
230307.0 415120.0 0
234241.0 414091.0 0
237601.0 411873.0 0
238286.0 415897.0 0
241171.0 411664.0 0
247547.0 414784.0 0
253007.0 411210.0 0
257481.0 415464.0 0
266822.0 416324.0 0
271412.0 413724.0 0
274322.0 417384.0 0
276442.0 414078.0 0
280881.0 414358.0 0
282127.0 417929.0 0
285447.0 413561.0 0
289264.0 416392.0 0
293165.0 415879.0 0
297550.0 415019.0 0
301996.0 414475.0 0
306601.0 415949.0 0
311804.0 415591.0 0
316635.0 417821.0 0
319456.0 415315.0 0
324461.0 415908.0 0
329023.0 417514.0 0
333869.0 417595.0 0
337226.0 416242.0 0
340648.0 414856.0 0
340927.0 418690.0 0
344848.0 415961.0 0
349220.0 418712.0 0
357017.0 417376.0 0
352790.0 418628.0 0
361895.0 416678.0 0
360376.0 419385.0 0
365350.0 418430.0 0
368432.0 420438.0 0
125056.0 425051.0 0
130370.0 420780.0 0
127798.0 422653.0 0
129568.0 424586.0 0
132963.0 422370.0 0
137340.0 422923.0 0
141340.0 421880.0 0
141503.0 425099.0 0
145063.0 422696.0 0
151673.0 420229.0 0
148973.0 422185.0 0
151762.0 423692.0 0
154930.0 420575.0 0
155393.0 423955.0 0
158794.0 421507.0 0
163803.0 420684.0 0
167181.0 422585.0 0
170331.0 422014.0 0
174546.0 421975.0 0
178737.0 422381.0 0
182522.0 423707.0 0
186564.0 423695.0 0
191111.0 421857.0 0
194633.0 420373.0 0
197833.0 421172.0 0
201058.0 418303.0 0
205297.0 419954.0 0
209711.0 421737.0 0
213959.0 418195.0 0
219005.0 419082.0 0
224051.0 418932.0 0
228215.0 418547.0 0
229937.0 421632.0 0
232478.0 418598.0 0
236183.0 419640.0 0
240123.0 420155.0 0
243193.0 416397.0 0
247359.0 419562.0 0
251764.0 417013.0 0
255094.0 420352.0 0
262495.0 417192.0 0
259596.0 421387.0 0
264196.0 421119.0 0
267705.0 420443.0 0
270823.0 418744.0 0
274425.0 421338.0 0
278379.0 418615.0 0
282411.0 422359.0 0
285504.0 418349.0 0
288870.0 419824.0 0
292570.0 420833.0 0
296193.0 418634.0 0
300236.0 418869.0 0
302164.0 423568.0 0
306437.0 422574.0 0
304263.0 419102.0 0
309412.0 419858.0 0
313002.0 422442.0 0
313515.0 419567.0 0
315771.0 421959.0 0
321871.0 419167.0 0
318967.0 421659.0 0
322802.0 423497.0 0
326593.0 421115.0 0
331962.0 420658.0 0
330649.0 423734.0 0
334297.0 423901.0 0
337083.0 421087.0 0
341830.0 423079.0 0
345116.0 420718.0 0
345709.0 424183.0 0
352325.0 421679.0 0
349167.0 423248.0 0
355600.0 420217.0 0
354611.0 423575.0 0
357859.0 424819.0 0
358500.0 421544.0 0
360939.0 423466.0 0
363656.0 421449.0 0
367097.0 422650.0 0
364127.0 424724.0 0
371498.0 422023.0 0
369849.0 424860.0 0
374429.0 423872.0 0
377318.0 425659.0 0
116141.0 429605.0 0
118851.0 428012.0 0
121241.0 426331.0 0
120052.0 430025.0 0
123307.0 428250.0 0
127911.0 427529.0 0
130559.0 429618.0 0
132626.0 426524.0 0
135930.0 425925.0 0
134512.0 429916.0 0
139112.0 425859.0 0
137795.0 428255.0 0
141509.0 429069.0 0
144369.0 426178.0 0
146643.0 428116.0 0
147748.0 424683.0 0
149579.0 427065.0 0
153142.0 428088.0 0
158036.0 426238.0 0
161429.0 424407.0 0
164988.0 425204.0 0
161767.0 428212.0 0
168384.0 425352.0 0
171629.0 424938.0 0
170537.0 428134.0 0
175236.0 426357.0 0
179727.0 425869.0 0
183321.0 427271.0 0
186845.0 428044.0 0
190732.0 426197.0 0
194658.0 423965.0 0
198224.0 425129.0 0
201671.0 422723.0 0
205890.0 424872.0 0
208759.0 427259.0 0
211413.0 425600.0 0
213880.0 422840.0 0
214938.0 426639.0 0
217526.0 423574.0 0
219606.0 427215.0 0
221979.0 423356.0 0
226533.0 423051.0 0
229746.0 426498.0 0
233172.0 423239.0 0
237575.0 423738.0 0
241694.0 424742.0 0
243932.0 421640.0 0
246143.0 425677.0 0
250916.0 423148.0 0
255693.0 423996.0 0
258120.0 426837.0 0
262898.0 426104.0 0
266934.0 424031.0 0
270788.0 423228.0 0
278093.0 423452.0 0
274772.0 426758.0 0
284598.0 426605.0 0
287162.0 423019.0 0
288015.0 427322.0 0
290703.0 424967.0 0
294829.0 425769.0 0
297628.0 422570.0 0
302719.0 428518.0 0
306391.0 426180.0 0
310664.0 424847.0 0
313706.0 428022.0 0
315139.0 425028.0 0
318714.0 425149.0 0
322522.0 428485.0 0
327550.0 426121.0 0
332919.0 427076.0 0
338419.0 427449.0 0
344414.0 427361.0 0
347998.0 426912.0 0
352473.0 426495.0 0
349843.0 429955.0 0
356690.0 428773.0 0
361837.0 427469.0 0
366703.0 425627.0 0
366027.0 428460.0 0
372925.0 425888.0 0
369466.0 428325.0 0
376023.0 427712.0 0
372939.0 429514.0 0
380272.0 427820.0 0
378325.0 429722.0 0
383226.0 430192.0 0
110073.0 434081.0 0
113318.0 431702.0 0
113400.0 435185.0 0
117307.0 432423.0 0
122180.0 431606.0 0
120367.0 433636.0 0
125915.0 430896.0 0
123460.0 434433.0 0
129182.0 432689.0 0
133398.0 433454.0 0
138053.0 431645.0 0
137679.0 434842.0 0
141321.0 432613.0 0
144592.0 430170.0 0
144695.0 433065.0 0
148706.0 430880.0 0
148358.0 435182.0 0
152757.0 433218.0 0
157279.0 430689.0 0
161500.0 433206.0 0
166056.0 429265.0 0
165915.0 433371.0 0
169410.0 432045.0 0
173817.0 430952.0 0
179139.0 430285.0 0
180881.0 434167.0 0
184388.0 431625.0 0
189568.0 430138.0 0
195249.0 429608.0 0
199321.0 431287.0 0
201527.0 427932.0 0
202217.0 432673.0 0
206132.0 430147.0 0
211322.0 430308.0 0
216469.0 430380.0 0
224643.0 427811.0 0
221041.0 431457.0 0
228058.0 430351.0 0
234771.0 427791.0 0
231305.0 430280.0 0
238988.0 427203.0 0
238484.0 430757.0 0
242432.0 428568.0 0
246646.0 431331.0 0
249866.0 427778.0 0
253726.0 427311.0 0
256340.0 429942.0 0
260277.0 430903.0 0
265297.0 430887.0 0
269336.0 428064.0 0
273294.0 431804.0 0
277542.0 430910.0 0
280362.0 427633.0 0
283989.0 430303.0 0
288157.0 431279.0 0
291801.0 429073.0 0
296113.0 430506.0 0
299040.0 427185.0 0
300136.0 431752.0 0
306033.0 429193.0 0
305419.0 433180.0 0
310060.0 429929.0 0
317219.0 428728.0 0
314471.0 432087.0 0
319469.0 433611.0 0
327379.0 430580.0 0
325204.0 433857.0 0
330901.0 430113.0 0
335177.0 431819.0 0
339695.0 433409.0 0
342456.0 431005.0 0
346445.0 430880.0 0
344417.0 434046.0 0
351776.0 433994.0 0
353269.0 430523.0 0
356207.0 433428.0 0
360478.0 432053.0 0
367383.0 432286.0 0
363749.0 431048.0 0
363926.0 435134.0 0
370987.0 432108.0 0
370046.0 435594.0 0
375923.0 432476.0 0
373076.0 434460.0 0
380631.0 432781.0 0
386645.0 432227.0 0
383706.0 434478.0 0
390510.0 435087.0 0
104237.0 438083.0 0
100714.0 441030.0 0
106061.0 441047.0 0
107191.0 435768.0 0
108706.0 438725.0 0
111142.0 437774.0 0
114552.0 439080.0 0
116914.0 436169.0 0
119876.0 435694.0 0
118421.0 438993.0 0
126580.0 435726.0 0
121510.0 437141.0 0
124236.0 438114.0 0
130043.0 436940.0 0
133853.0 437550.0 0
141510.0 436057.0 0
137667.0 438729.0 0
145079.0 436354.0 0
144050.0 438781.0 0
147258.0 438998.0 0
151794.0 438656.0 0
156567.0 435829.0 0
159548.0 437851.0 0
163837.0 437880.0 0
168169.0 435970.0 0
170981.0 437887.0 0
172136.0 434553.0 0
174044.0 437196.0 0
176580.0 434625.0 0
176594.0 438864.0 0
179458.0 436963.0 0
183897.0 437015.0 0
188294.0 434352.0 0
191737.0 432502.0 0
188751.0 438933.0 0
193476.0 435966.0 0
198021.0 434563.0 0
201792.0 437102.0 0
205827.0 434573.0 0
209946.0 435729.0 0
213897.0 433863.0 0
214235.0 437957.0 0
217903.0 434915.0 0
221969.0 435962.0 0
225178.0 432969.0 0
229729.0 434778.0 0
234453.0 432789.0 0
238672.0 436612.0 0
242153.0 432619.0 0
244398.0 436392.0 0
248808.0 436498.0 0
252308.0 432345.0 0
256959.0 433091.0 0
255363.0 435990.0 0
262989.0 433752.0 0
259814.0 436729.0 0
266022.0 437526.0 0
269065.0 432930.0 0
272049.0 437282.0 0
276792.0 435147.0 0
281167.0 433675.0 0
285256.0 433995.0 0
288978.0 436067.0 0
292671.0 433451.0 0
297022.0 435220.0 0
301764.0 436630.0 0
306905.0 437422.0 0
310798.0 435418.0 0
315435.0 436712.0 0
319825.0 438978.0 0
323251.0 437669.0 0
327138.0 438516.0 0
330511.0 434781.0 0
335511.0 436557.0 0
339310.0 436762.0 0
343133.0 437513.0 0
347638.0 436906.0 0
348122.0 433954.0 0
350854.0 437762.0 0
354966.0 437392.0 0
359715.0 436691.0 0
367266.0 436374.0 0
363841.0 438800.0 0
366361.0 438082.0 0
369634.0 438870.0 0
377676.0 436196.0 0
373788.0 437994.0 0
381872.0 437191.0 0
378517.0 439867.0 0
382036.0 441092.0 0
386659.0 435704.0 0
385970.0 439388.0 0
390663.0 439130.0 0
394093.0 435930.0 0
396725.0 437793.0 0
394108.0 438433.0 0
89056.5 446291.0 0
92823.8 444921.0 0
96620.8 442882.0 0
100931.0 445715.0 0
104165.0 443598.0 0
108383.0 443760.0 0
111790.0 441675.0 0
116547.0 442844.0 0
121779.0 441544.0 0
124835.0 444610.0 0
127080.0 440477.0 0
131173.0 440808.0 0
133268.0 443827.0 0
134749.0 441078.0 0
140933.0 440348.0 0
137464.0 443341.0 0
141541.0 443923.0 0
144901.0 442044.0 0
148756.0 442710.0 0
156150.0 440448.0 0
153018.0 443697.0 0
159987.0 441645.0 0
163620.0 442506.0 0
168135.0 441214.0 0
173052.0 440555.0 0
176229.0 442742.0 0
180079.0 440558.0 0
184536.0 442283.0 0
188908.0 443698.0 0
192809.0 440730.0 0
197480.0 439180.0 0
198660.0 442513.0 0
202048.0 442019.0 0
206133.0 438957.0 0
210611.0 441273.0 0
215461.0 441912.0 0
218231.0 439161.0 0
221951.0 440189.0 0
225765.0 437865.0 0
229172.0 440375.0 0
233360.0 438801.0 0
238401.0 442242.0 0
242424.0 440244.0 0
246448.0 440693.0 0
252828.0 439423.0 0
257621.0 441544.0 0
262375.0 442110.0 0
276467.0 439746.0 0
279971.0 438312.0 0
284432.0 438534.0 0
286067.0 442902.0 0
288963.0 440511.0 0
293448.0 438493.0 0
291611.0 441795.0 0
298887.0 441112.0 0
304994.0 440414.0 0
312795.0 439247.0 0
309304.0 439874.0 0
312441.0 442813.0 0
316119.0 441232.0 0
320367.0 443365.0 0
323889.0 441411.0 0
327926.0 442691.0 0
331446.0 439644.0 0
335582.0 440838.0 0
339538.0 440419.0 0
341218.0 443947.0 0
343864.0 441753.0 0
346671.0 439759.0 0
347091.0 442903.0 0
349873.0 441147.0 0
352606.0 444169.0 0
353487.0 440394.0 0
357815.0 440297.0 0
355964.0 442829.0 0
361561.0 440718.0 0
359793.0 444437.0 0
366697.0 441624.0 0
363351.0 443664.0 0
371328.0 442109.0 0
370042.0 445273.0 0
375040.0 441816.0 0
373857.0 445128.0 0
378986.0 444757.0 0
383585.0 443836.0 0
386931.0 443341.0 0
394554.0 441925.0 0
390564.0 442942.0 0
398284.0 440236.0 0
398656.0 445460.0 0
401122.0 441533.0 0
402392.0 444962.0 0
404918.0 442665.0 0
405433.0 445029.0 0
407879.0 445148.0 0
82404.3 450726.0 0
86704.6 449532.0 0
90431.2 450281.0 0
91518.1 447451.0 0
95953.6 446476.0 0
94174.3 448982.0 0
98227.6 449498.0 0
105201.0 446610.0 0
102623.0 450079.0 0
110123.0 447325.0 0
106619.0 449698.0 0
113524.0 445643.0 0
113607.0 449639.0 0
115844.0 447327.0 0
119777.0 446632.0 0
116689.0 450127.0 0
121525.0 450247.0 0
124944.0 448388.0 0
129266.0 445232.0 0
128237.0 449828.0 0
131489.0 448114.0 0
134653.0 446832.0 0
139524.0 447415.0 0
144989.0 446497.0 0
149771.0 446959.0 0
153998.0 447996.0 0
157016.0 445027.0 0
160950.0 445811.0 0
162823.0 449062.0 0
165007.0 445512.0 0
166301.0 448795.0 0
169100.0 445673.0 0
170584.0 449953.0 0
172213.0 443803.0 0
174628.0 446926.0 0
180117.0 445581.0 0
185412.0 447827.0 0
189889.0 448071.0 0
192477.0 444990.0 0
195826.0 443641.0 0
199179.0 446106.0 0
203536.0 447331.0 0
206256.0 443494.0 0
208986.0 446089.0 0
213376.0 445602.0 0
219107.0 443155.0 0
217579.0 447048.0 0
225397.0 442885.0 0
221992.0 446593.0 0
229456.0 444548.0 0
233919.0 444130.0 0
238442.0 447403.0 0
242382.0 444360.0 0
250069.0 442982.0 0
246684.0 445741.0 0
254222.0 444689.0 0
250676.0 446967.0 0
258978.0 446595.0 0
263685.0 446287.0 0
267658.0 443625.0 0
272776.0 442953.0 0
277061.0 443625.0 0
281599.0 443521.0 0
282153.0 448565.0 0
285513.0 446777.0 0
289945.0 445241.0 0
294114.0 442845.0 0
293970.0 446430.0 0
296773.0 445240.0 0
299955.0 446577.0 0
302894.0 448786.0 0
303679.0 444603.0 0
307094.0 448898.0 0
308239.0 444058.0 0
312634.0 447646.0 0
316785.0 445420.0 0
320168.0 447313.0 0
324223.0 446353.0 0
332928.0 444520.0 0
328827.0 447083.0 0
337698.0 444361.0 0
336541.0 448457.0 0
340850.0 447851.0 0
345242.0 446119.0 0
349384.0 445442.0 0
352550.0 448202.0 0
348776.0 449673.0 0
356232.0 446534.0 0
360197.0 448468.0 0
363354.0 447138.0 0
366447.0 445816.0 0
367495.0 449500.0 0
372440.0 449453.0 0
376461.0 448159.0 0
383754.0 447083.0 0
380942.0 450284.0 0
387553.0 447084.0 0
391108.0 446185.0 0
392934.0 449475.0 0
395239.0 445863.0 0
403227.0 448306.0 0
399838.0 449325.0 0
406128.0 447893.0 0
407983.0 450845.0 0
410691.0 447833.0 0
414332.0 449458.0 0
79787.9 453482.0 0
76044.9 454891.0 0
84542.4 452361.0 0
82665.5 454983.0 0
88203.2 453347.0 0
90941.8 454532.0 0
93758.0 452216.0 0
95073.6 455624.0 0
97929.2 453295.0 0
101397.0 452918.0 0
105357.0 452422.0 0
109956.0 451442.0 0
108391.0 455141.0 0
113752.0 454051.0 0
119000.0 453118.0 0
124447.0 452773.0 0
128367.0 453354.0 0
132045.0 451427.0 0
135606.0 454203.0 0
135973.0 450020.0 0
139009.0 451734.0 0
142712.0 450773.0 0
145023.0 454149.0 0
147151.0 450635.0 0
151099.0 451398.0 0
154868.0 452398.0 0
158216.0 449432.0 0
161184.0 452292.0 0
166122.0 453361.0 0
170595.0 454860.0 0
174489.0 452420.0 0
177629.0 449749.0 0
178653.0 454081.0 0
181404.0 450225.0 0
184535.0 454253.0 0
190459.0 452686.0 0
194808.0 448817.0 0
199506.0 450818.0 0
203549.0 452478.0 0
207137.0 449919.0 0
211204.0 449725.0 0
214845.0 449325.0 0
213927.0 452334.0 0
217850.0 451735.0 0
222064.0 450826.0 0
225747.0 452226.0 0
226550.0 447841.0 0
231043.0 448739.0 0
234487.0 448060.0 0
235135.0 452025.0 0
239815.0 451849.0 0
243484.0 449573.0 0
248356.0 450282.0 0
251190.0 452960.0 0
253930.0 449637.0 0
257944.0 451215.0 0
262673.0 450967.0 0
267537.0 449002.0 0
272349.0 448038.0 0
270465.0 451709.0 0
277728.0 448127.0 0
280599.0 453295.0 0
285099.0 451206.0 0
288344.0 449320.0 0
292698.0 450434.0 0
296828.0 448763.0 0
296794.0 452388.0 0
299967.0 450768.0 0
303418.0 452422.0 0
311286.0 451967.0 0
315361.0 453712.0 0
317468.0 449791.0 0
319385.0 453385.0 0
321936.0 450744.0 0
326986.0 451895.0 0
332297.0 449543.0 0
332300.0 453192.0 0
336221.0 452651.0 0
340110.0 451913.0 0
344438.0 450865.0 0
347825.0 453906.0 0
352537.0 453029.0 0
356616.0 450802.0 0
363533.0 450937.0 0
360466.0 452335.0 0
366735.0 453700.0 0
370663.0 453865.0 0
377101.0 451458.0 0
375225.0 454088.0 0
379780.0 454276.0 0
384046.0 454319.0 0
385424.0 450859.0 0
388021.0 454599.0 0
389441.0 450942.0 0
393436.0 453982.0 0
396651.0 450742.0 0
398666.0 454456.0 0
401276.0 452408.0 0
404157.0 451607.0 0
406741.0 454264.0 0
411520.0 452506.0 0
409558.0 455022.0 0
411699.0 456595.0 0
417621.0 451454.0 0
415182.0 454583.0 0
419014.0 456189.0 0
420698.0 453166.0 0
423634.0 456077.0 0
70174.2 458692.0 0
67088.5 460117.0 0
73375.6 456830.0 0
71424.6 461490.0 0
74502.3 459378.0 0
78190.6 457677.0 0
81938.2 458813.0 0
85909.7 459909.0 0
86157.4 455730.0 0
89122.9 457648.0 0
92604.3 456870.0 0
91265.6 460663.0 0
98992.8 457120.0 0
95343.7 459094.0 0
103339.0 456187.0 0
106672.0 459328.0 0
110649.0 457867.0 0
113501.0 458428.0 0
117456.0 457462.0 0
120858.0 459558.0 0
121664.0 455974.0 0
125855.0 457578.0 0
131106.0 456102.0 0
135316.0 458299.0 0
140564.0 456165.0 0
145447.0 458321.0 0
149018.0 455147.0 0
153301.0 457016.0 0
158093.0 455292.0 0
161024.0 458943.0 0
162405.0 455623.0 0
165170.0 457869.0 0
169221.0 459169.0 0
174276.0 457148.0 0
179462.0 459512.0 0
188838.0 457117.0 0
192315.0 456737.0 0
195613.0 453927.0 0
199986.0 455443.0 0
204084.0 456665.0 0
207245.0 453669.0 0
210768.0 453780.0 0
208679.0 457768.0 0
214770.0 456786.0 0
221449.0 456205.0 0
226764.0 456122.0 0
230174.0 453532.0 0
235236.0 457592.0 0
240307.0 456174.0 0
245752.0 454905.0 0
251194.0 457764.0 0
255073.0 454227.0 0
259821.0 455557.0 0
267064.0 454466.0 0
270857.0 454273.0 0
271813.0 457693.0 0
274824.0 453240.0 0
281902.0 458182.0 0
285203.0 455890.0 0
289070.0 453732.0 0
294285.0 456752.0 0
299965.0 455290.0 0
303967.0 456464.0 0
307439.0 454046.0 0
311729.0 456195.0 0
315125.0 457697.0 0
318390.0 457088.0 0
322821.0 455848.0 0
326829.0 457180.0 0
330126.0 455866.0 0
329981.0 459151.0 0
334865.0 457456.0 0
338917.0 455192.0 0
340018.0 459296.0 0
343435.0 455459.0 0
347530.0 458346.0 0
350584.0 456780.0 0
353874.0 457767.0 0
357909.0 455947.0 0
363241.0 455807.0 0
364914.0 459687.0 0
368418.0 457827.0 0
372948.0 457757.0 0
377748.0 457860.0 0
382412.0 457987.0 0
386636.0 458215.0 0
391251.0 457813.0 0
396670.0 457977.0 0
403082.0 456250.0 0
400468.0 458846.0 0
409460.0 458393.0 0
407271.0 457137.0 0
405479.0 460640.0 0
412584.0 459444.0 0
415264.0 458573.0 0
418312.0 460122.0 0
421875.0 459333.0 0
424711.0 461393.0 0
427445.0 458616.0 0
431755.0 460044.0 0
64441.3 462217.0 0
61168.4 465347.0 0
65238.6 465523.0 0
68271.1 463250.0 0
73762.4 464396.0 0
77077.1 461818.0 0
77541.9 465281.0 0
80516.1 462510.0 0
83635.0 462496.0 0
80795.1 466554.0 0
87511.9 462843.0 0
84373.8 464746.0 0
91336.1 465530.0 0
98901.3 461295.0 0
95224.4 462854.0 0
98334.1 465148.0 0
102569.0 460464.0 0
101522.0 464042.0 0
109648.0 461165.0 0
105427.0 463738.0 0
108878.0 463999.0 0
112675.0 461486.0 0
116157.0 461785.0 0
119282.0 463247.0 0
123556.0 463109.0 0
127432.0 461345.0 0
130954.0 460425.0 0
127817.0 464788.0 0
131531.0 464790.0 0
135075.0 462563.0 0
138677.0 460273.0 0
139012.0 464284.0 0
142194.0 460956.0 0
146094.0 462458.0 0
149577.0 459934.0 0
153208.0 461973.0 0
156782.0 460026.0 0
156358.0 464166.0 0
159813.0 462664.0 0
164550.0 462335.0 0
169192.0 464413.0 0
173249.0 461665.0 0
176355.0 463704.0 0
179330.0 464157.0 0
185325.0 460343.0 0
190782.0 461574.0 0
196064.0 459108.0 0
201096.0 460270.0 0
205365.0 461039.0 0
211806.0 460092.0 0
214438.0 462920.0 0
218038.0 460256.0 0
221572.0 461947.0 0
225759.0 460573.0 0
230279.0 458796.0 0
238410.0 461655.0 0
242625.0 460432.0 0
246704.0 460141.0 0
249905.0 463310.0 0
254206.0 462000.0 0
256350.0 458476.0 0
259489.0 462930.0 0
263687.0 458754.0 0
268092.0 459026.0 0
266602.0 463009.0 0
276923.0 459242.0 0
281663.0 462949.0 0
285992.0 460694.0 0
289389.0 458432.0 0
295396.0 461882.0 0
298754.0 459654.0 0
303501.0 461200.0 0
307915.0 458861.0 0
312442.0 460672.0 0
316780.0 460977.0 0
321280.0 460653.0 0
325856.0 460943.0 0
329786.0 462505.0 0
333222.0 461608.0 0
337027.0 462749.0 0
342581.0 464431.0 0
344313.0 460167.0 0
347442.0 462401.0 0
351464.0 460987.0 0
354116.0 464296.0 0
356500.0 461401.0 0
361111.0 460291.0 0
360419.0 464849.0 0
364385.0 463461.0 0
367673.0 461812.0 0
371639.0 461882.0 0
375597.0 461177.0 0
376773.0 465104.0 0
380415.0 462150.0 0
383500.0 464909.0 0
385058.0 461751.0 0
390101.0 462718.0 0
394676.0 461278.0 0
395183.0 465440.0 0
398791.0 462887.0 0
401954.0 461486.0 0
403239.0 465099.0 0
406682.0 464865.0 0
409948.0 462573.0 0
414422.0 462885.0 0
409664.0 466831.0 0
412682.0 465957.0 0
415326.0 466143.0 0
418120.0 464255.0 0
421555.0 463022.0 0
429215.0 462386.0 0
426377.0 464230.0 0
428327.0 466863.0 0
431400.0 464773.0 0
434660.0 462737.0 0
438511.0 465417.0 0
51206.8 470421.0 0
57431.2 467855.0 0
54246.1 470101.0 0
63028.9 468811.0 0
60144.3 470771.0 0
66597.1 469017.0 0
70221.4 467174.0 0
71387.0 471102.0 0
75339.5 468541.0 0
78675.0 470638.0 0
83893.7 468894.0 0
86975.5 467065.0 0
95434.4 466557.0 0
89948.0 470292.0 0
93895.2 470239.0 0
97560.4 468829.0 0
101596.0 468379.0 0
108628.0 466517.0 0
105870.0 467691.0 0
105313.0 470647.0 0
108759.0 469751.0 0
112051.0 465333.0 0
112990.0 469756.0 0
116142.0 466195.0 0
117022.0 470059.0 0
120309.0 467324.0 0
124762.0 468345.0 0
129562.0 468888.0 0
134874.0 467771.0 0
139872.0 468552.0 0
143101.0 464980.0 0
144652.0 469050.0 0
149659.0 464445.0 0
146731.0 465891.0 0
153024.0 465701.0 0
155667.0 468530.0 0
160521.0 467003.0 0
165163.0 466473.0 0
167617.0 468479.0 0
173430.0 466310.0 0
178278.0 467767.0 0
182828.0 464896.0 0
185825.0 467382.0 0
186844.0 464399.0 0
189547.0 466831.0 0
193945.0 465714.0 0
197768.0 463795.0 0
201947.0 465582.0 0
205592.0 464544.0 0
209359.0 463281.0 0
211842.0 467591.0 0
218303.0 463602.0 0
220583.0 465577.0 0
216800.0 467726.0 0
224915.0 465866.0 0
229297.0 463661.0 0
228599.0 466945.0 0
233683.0 462815.0 0
237182.0 465832.0 0
241263.0 463732.0 0
241405.0 467123.0 0
245045.0 464430.0 0
248427.0 468170.0 0
254238.0 467119.0 0
263635.0 466709.0 0
272135.0 463119.0 0
277222.0 465552.0 0
282062.0 468107.0 0
286076.0 465505.0 0
290826.0 463333.0 0
295069.0 465685.0 0
299162.0 464330.0 0
304172.0 467303.0 0
308946.0 468038.0 0
308672.0 463952.0 0
313644.0 465325.0 0
318577.0 465167.0 0
316283.0 468341.0 0
320843.0 469037.0 0
323303.0 465068.0 0
327815.0 465384.0 0
330095.0 468711.0 0
332822.0 465616.0 0
337507.0 467239.0 0
341399.0 469063.0 0
345614.0 469418.0 0
347106.0 466140.0 0
350866.0 465335.0 0
356927.0 465977.0 0
354416.0 468000.0 0
359186.0 469940.0 0
364047.0 468030.0 0
368177.0 470004.0 0
368530.0 465922.0 0
373021.0 466088.0 0
376452.0 469829.0 0
380674.0 467391.0 0
384279.0 467843.0 0
386988.0 465884.0 0
387673.0 469496.0 0
391571.0 467820.0 0
396500.0 469388.0 0
399820.0 467118.0 0
403947.0 468976.0 0
406368.0 467137.0 0
407268.0 470125.0 0
411033.0 470095.0 0
413922.0 468785.0 0
417511.0 468067.0 0
419864.0 466575.0 0
423146.0 466058.0 0
421149.0 469740.0 0
425248.0 468819.0 0
428759.0 470244.0 0
431732.0 468457.0 0
432888.0 471574.0 0
434793.0 467224.0 0
438167.0 469216.0 0
435919.0 470456.0 0
442479.0 467692.0 0
440260.0 470383.0 0
446383.0 469346.0 0
449734.0 470434.0 0
42476.3 476640.0 0
44854.8 473619.0 0
46455.4 476760.0 0
48790.5 473061.0 0
52815.9 474076.0 0
50537.5 476524.0 0
57337.9 473293.0 0
55507.2 475533.0 0
63836.2 472843.0 0
60797.7 476152.0 0
67943.1 472938.0 0
64937.9 475834.0 0
67448.0 476717.0 0
71168.8 475421.0 0
74528.7 473153.0 0
78034.2 475083.0 0
82240.2 472074.0 0
81764.5 475744.0 0
86537.3 471175.0 0
85655.8 474579.0 0
89761.2 473995.0 0
93866.7 474076.0 0
97659.3 471895.0 0
97526.7 475266.0 0
101718.0 473552.0 0
106332.0 473508.0 0
109688.0 473143.0 0
112707.0 473228.0 0
116155.0 474003.0 0
120889.0 472174.0 0
125469.0 472146.0 0
128050.0 474651.0 0
128221.0 471939.0 0
132170.0 472916.0 0
136815.0 471663.0 0
140748.0 473119.0 0
150073.0 469276.0 0
145966.0 473148.0 0
153965.0 471923.0 0
159022.0 473004.0 0
163800.0 470628.0 0
167742.0 472879.0 0
170907.0 469849.0 0
171816.0 474238.0 0
174828.0 470934.0 0
178727.0 472501.0 0
182523.0 469833.0 0
187562.0 471622.0 0
192634.0 470212.0 0
195538.0 473666.0 0
197962.0 469049.0 0
203360.0 470549.0 0
207222.0 467905.0 0
213724.0 472175.0 0
218711.0 472151.0 0
221243.0 468798.0 0
223257.0 471859.0 0
227546.0 470576.0 0
232487.0 468220.0 0
237685.0 470845.0 0
244005.0 472339.0 0
251549.0 472148.0 0
256055.0 472142.0 0
259412.0 468800.0 0
264506.0 471643.0 0
260108.0 473204.0 0
268911.0 468089.0 0
274061.0 469425.0 0
278768.0 471924.0 0
283523.0 472238.0 0
289342.0 468430.0 0
286935.0 471365.0 0
293757.0 469295.0 0
290954.0 473270.0 0
298243.0 468880.0 0
296498.0 473773.0 0
301965.0 472285.0 0
307679.0 471431.0 0
312563.0 470347.0 0
317602.0 471636.0 0
322134.0 473582.0 0
325658.0 470050.0 0
329566.0 472134.0 0
333902.0 470864.0 0
338641.0 471951.0 0
342907.0 472822.0 0
347472.0 474179.0 0
350289.0 470042.0 0
351568.0 474246.0 0
354903.0 472185.0 0
358471.0 474444.0 0
362296.0 474554.0 0
362706.0 471302.0 0
365723.0 472345.0 0
372186.0 470099.0 0
369917.0 473613.0 0
374231.0 474455.0 0
378185.0 473607.0 0
384062.0 470898.0 0
380539.0 471145.0 0
382857.0 475131.0 0
387613.0 473777.0 0
390605.0 471276.0 0
393486.0 470943.0 0
392206.0 473896.0 0
397100.0 473990.0 0
401109.0 471039.0 0
405092.0 472859.0 0
409506.0 474042.0 0
413266.0 472560.0 0
414360.0 476525.0 0
417146.0 472109.0 0
418991.0 476431.0 0
425419.0 472084.0 0
421991.0 473417.0 0
429909.0 473220.0 0
427046.0 475350.0 0
434074.0 475318.0 0
437063.0 473384.0 0
439415.0 472473.0 0
438379.0 476733.0 0
443607.0 471905.0 0
441901.0 474885.0 0
445404.0 475557.0 0
447579.0 473108.0 0
450877.0 475472.0 0
452047.0 472825.0 0
455208.0 474863.0 0
453007.0 477249.0 0
458621.0 476644.0 0
38830.8 478823.0 0
34994.2 480539.0 0
42434.2 480298.0 0
45325.1 480652.0 0
53099.0 478013.0 0
49551.7 480346.0 0
57111.3 478598.0 0
54156.6 481725.0 0
60297.4 480405.0 0
64199.4 479339.0 0
73998.4 477384.0 0
69972.4 480208.0 0
74447.6 481283.0 0
76953.0 478982.0 0
80026.8 478793.0 0
81380.4 481507.0 0
83589.8 478406.0 0
87805.3 478005.0 0
91407.9 476932.0 0
90693.3 480347.0 0
94927.3 478456.0 0
99820.3 477883.0 0
104417.0 477294.0 0
102467.0 480604.0 0
107991.0 476444.0 0
107857.0 480614.0 0
111792.0 476778.0 0
112547.0 480446.0 0
115946.0 478295.0 0
119135.0 476241.0 0
119637.0 479875.0 0
123695.0 476474.0 0
129091.0 479008.0 0
132970.0 476755.0 0
136305.0 475380.0 0
138744.0 477469.0 0
142597.0 477313.0 0
146704.0 477348.0 0
150548.0 474585.0 0
152949.0 477618.0 0
154843.0 475069.0 0
156821.0 478319.0 0
161139.0 477754.0 0
163895.0 475132.0 0
168250.0 478228.0 0
173631.0 478458.0 0
175370.0 474568.0 0
178082.0 476952.0 0
182764.0 475167.0 0
187821.0 477334.0 0
191647.0 474857.0 0
193793.0 477674.0 0
196931.0 477379.0 0
200079.0 474116.0 0
204696.0 475227.0 0
208448.0 472471.0 0
210982.0 476611.0 0
216600.0 477392.0 0
221352.0 475150.0 0
225841.0 475725.0 0
231168.0 473244.0 0
235090.0 475716.0 0
230354.0 477824.0 0
239492.0 474848.0 0
248649.0 475622.0 0
252848.0 476565.0 0
257347.0 476627.0 0
263673.0 478368.0 0
269436.0 474053.0 0
274485.0 473985.0 0
272709.0 477865.0 0
277437.0 477926.0 0
281442.0 475594.0 0
286365.0 476539.0 0
296572.0 478834.0 0
300804.0 477313.0 0
305990.0 476004.0 0
310773.0 475251.0 0
313891.0 478579.0 0
314718.0 474437.0 0
318541.0 476940.0 0
323343.0 479460.0 0
327104.0 475913.0 0
331440.0 474982.0 0
335942.0 476009.0 0
340299.0 475888.0 0
341952.0 479674.0 0
343985.0 476392.0 0
346273.0 478717.0 0
350545.0 477886.0 0
355170.0 477169.0 0
359942.0 477956.0 0
364234.0 478975.0 0
367067.0 476236.0 0
370888.0 477178.0 0
371585.0 479619.0 0
374146.0 478289.0 0
378527.0 477664.0 0
383256.0 480454.0 0
386484.0 477453.0 0
390308.0 477266.0 0
394520.0 477355.0 0
398630.0 479761.0 0
402013.0 475782.0 0
403456.0 480351.0 0
406486.0 476997.0 0
407809.0 481507.0 0
410761.0 478582.0 0
417527.0 480859.0 0
421499.0 480387.0 0
423664.0 477391.0 0
430811.0 477064.0 0
427682.0 479145.0 0
430957.0 480874.0 0
435024.0 479432.0 0
439982.0 480147.0 0
442727.0 478139.0 0
445603.0 478213.0 0
443869.0 481308.0 0
448664.0 477238.0 0
447947.0 481061.0 0
451506.0 479574.0 0
456118.0 478698.0 0
454680.0 481696.0 0
458936.0 480308.0 0
461587.0 478952.0 0
464980.0 481039.0 0
462132.0 482777.0 0
28069.1 484843.0 0
23989.9 488210.0 0
32060.4 483423.0 0
31299.5 487645.0 0
35410.7 484584.0 0
38488.6 482656.0 0
42534.0 483719.0 0
38561.0 486610.0 0
40724.6 485778.0 0
46506.6 484770.0 0
51176.8 484386.0 0
57565.6 481949.0 0
55860.6 485414.0 0
60785.0 484515.0 0
65593.7 482971.0 0
65236.3 486680.0 0
69111.8 485383.0 0
72623.0 484049.0 0
78199.3 482023.0 0
75828.3 484997.0 0
80785.4 485689.0 0
85315.5 482320.0 0
89242.0 484300.0 0
93742.0 483022.0 0
97717.2 481549.0 0
100181.0 484267.0 0
104663.0 483527.0 0
111223.0 483666.0 0
115845.0 482980.0 0
120586.0 484177.0 0
124061.0 481383.0 0
127349.0 483205.0 0
130970.0 483886.0 0
134967.0 480605.0 0
137624.0 484126.0 0
140028.0 481202.0 0
144755.0 481829.0 0
149668.0 479765.0 0
148434.0 484488.0 0
151832.0 482790.0 0
153529.0 480087.0 0
155320.0 482949.0 0
159572.0 482487.0 0
163957.0 481056.0 0
167304.0 483413.0 0
171342.0 482702.0 0
175477.0 482432.0 0
179811.0 481357.0 0
183898.0 479856.0 0
187017.0 481681.0 0
191541.0 481153.0 0
196319.0 481412.0 0
201386.0 479390.0 0
204439.0 483503.0 0
207073.0 479519.0 0
212089.0 481425.0 0
216935.0 483298.0 0
221886.0 478980.0 0
221742.0 483206.0 0
225965.0 481005.0 0
230010.0 482513.0 0
234384.0 481055.0 0
239440.0 478968.0 0
244914.0 478644.0 0
242330.0 483418.0 0
247243.0 483379.0 0
249942.0 479730.0 0
255011.0 481521.0 0
259783.0 482729.0 0
269232.0 478819.0 0
273701.0 481958.0 0
277949.0 483312.0 0
282133.0 480220.0 0
287388.0 482945.0 0
291886.0 478914.0 0
295307.0 483415.0 0
299654.0 481778.0 0
304530.0 481073.0 0
309622.0 480387.0 0
313517.0 482580.0 0
317350.0 481591.0 0
321229.0 483505.0 0
325893.0 483605.0 0
327380.0 480314.0 0
331834.0 479970.0 0
330232.0 484370.0 0
337359.0 480571.0 0
340698.0 484189.0 0
345192.0 482686.0 0
348818.0 481158.0 0
353004.0 482014.0 0
357563.0 481292.0 0
359906.0 484456.0 0
361791.0 481914.0 0
368480.0 480000.0 0
365883.0 483176.0 0
369816.0 484091.0 0
370710.0 481230.0 0
374194.0 482949.0 0
376561.0 480162.0 0
379082.0 482454.0 0
388533.0 481088.0 0
386251.0 484282.0 0
393583.0 481407.0 0
397074.0 484601.0 0
401286.0 484007.0 0
404673.0 483704.0 0
406349.0 484707.0 0
409946.0 486210.0 0
413434.0 482455.0 0
418853.0 485535.0 0
421388.0 483673.0 0
423506.0 486421.0 0
425624.0 482706.0 0
429394.0 484333.0 0
433494.0 483616.0 0
437534.0 483144.0 0
439690.0 486201.0 0
441740.0 483838.0 0
445731.0 484523.0 0
451194.0 483095.0 0
449134.0 484948.0 0
453745.0 485451.0 0
456766.0 487736.0 0
458462.0 483762.0 0
460341.0 487297.0 0
462208.0 485915.0 0
466012.0 485622.0 0
468270.0 482615.0 0
470953.0 484572.0 0
473800.0 486106.0 0
476667.0 487910.0 0
16706.2 492369.0 0
20360.3 490135.0 0
26974.4 487452.0 0
24323.8 492119.0 0
32797.3 491354.0 0
28509.6 491293.0 0
35389.8 488194.0 0
36201.2 492377.0 0
38921.7 489644.0 0
42595.8 488443.0 0
47015.9 488855.0 0
45210.4 491847.0 0
51910.0 489420.0 0
57646.0 489086.0 0
62219.3 489026.0 0
67399.9 489792.0 0
72471.7 488326.0 0
77204.4 489153.0 0
82164.4 490801.0 0
84975.3 487184.0 0
86639.3 491236.0 0
88554.9 488029.0 0
92265.6 486913.0 0
90556.0 490121.0 0
93997.2 489930.0 0
96104.4 486183.0 0
96881.6 489599.0 0
98839.2 487858.0 0
102856.0 487321.0 0
108013.0 486363.0 0
113015.0 487038.0 0
117506.0 487380.0 0
119178.0 490542.0 0
121958.0 488226.0 0
124677.0 485586.0 0
126473.0 489461.0 0
128107.0 486251.0 0
130972.0 488428.0 0
134328.0 485896.0 0
137577.0 487147.0 0
141105.0 485333.0 0
140159.0 489815.0 0
145003.0 486514.0 0
148563.0 488629.0 0
152304.0 486577.0 0
156912.0 487211.0 0
162988.0 487180.0 0
169306.0 487596.0 0
174159.0 486604.0 0
179387.0 486730.0 0
183852.0 484174.0 0
188417.0 485400.0 0
194099.0 486797.0 0
199828.0 484856.0 0
204053.0 488288.0 0
208440.0 483987.0 0
208710.0 487857.0 0
211886.0 485782.0 0
215199.0 487696.0 0
219892.0 487417.0 0
225470.0 486790.0 0
231054.0 486780.0 0
235130.0 485685.0 0
238024.0 483455.0 0
239157.0 487881.0 0
244154.0 487935.0 0
249144.0 488396.0 0
251240.0 484324.0 0
254495.0 487295.0 0
258943.0 486550.0 0
263878.0 485477.0 0
269120.0 483267.0 0
268226.0 487552.0 0
273181.0 486568.0 0
282423.0 485235.0 0
291467.0 485459.0 0
298788.0 487838.0 0
302237.0 484816.0 0
303255.0 488203.0 0
306657.0 485844.0 0
311245.0 485838.0 0
316717.0 486724.0 0
322993.0 488838.0 0
328024.0 487418.0 0
331813.0 488274.0 0
335229.0 484975.0 0
339377.0 488945.0 0
344897.0 487886.0 0
349079.0 484855.0 0
352820.0 486307.0 0
350148.0 489141.0 0
356695.0 485756.0 0
359469.0 489602.0 0
362816.0 486449.0 0
367906.0 488344.0 0
373090.0 487761.0 0
377667.0 486718.0 0
382331.0 485727.0 0
386470.0 487092.0 0
388628.0 489994.0 0
391224.0 486081.0 0
396110.0 489066.0 0
400755.0 488154.0 0
404661.0 487205.0 0
407968.0 490077.0 0
415150.0 487477.0 0
412378.0 490864.0 0
418740.0 489256.0 0
421414.0 488479.0 0
425119.0 489850.0 0
427333.0 487287.0 0
429828.0 490969.0 0
431729.0 487370.0 0
435958.0 486969.0 0
434750.0 490853.0 0
438908.0 489608.0 0
443317.0 487799.0 0
447682.0 487911.0 0
451125.0 487644.0 0
447077.0 491399.0 0
450951.0 491418.0 0
453861.0 489717.0 0
459777.0 491008.0 0
465933.0 489964.0 0
462931.0 488926.0 0
469497.0 488357.0 0
472717.0 488863.0 0
475676.0 491243.0 0
471680.0 492532.0 0
479688.0 490079.0 0
482852.0 492768.0 0
10030.0 496132.0 0
13311.8 494755.0 0
16361.8 496872.0 0
20055.9 493790.0 0
19874.1 496763.0 0
23184.6 495314.0 0
27473.4 495219.0 0
25048.5 497502.0 0
31731.5 494588.0 0
35821.5 496503.0 0
40448.5 492988.0 0
43847.7 495067.0 0
49151.5 494830.0 0
55506.2 493914.0 0
59478.9 491901.0 0
59992.2 495478.0 0
63986.0 493095.0 0
68331.7 495311.0 0
70509.1 491946.0 0
73905.8 492931.0 0
72594.3 496755.0 0
78237.0 493014.0 0
81533.2 495671.0 0
85959.1 495344.0 0
90984.6 494080.0 0
99708.7 490895.0 0
95927.1 492980.0 0
99885.1 495121.0 0
104787.0 491428.0 0
110193.0 490564.0 0
108244.0 493685.0 0
115126.0 491207.0 0
112046.0 493529.0 0
118899.0 493943.0 0
122762.0 492205.0 0
126998.0 493863.0 0
130845.0 492120.0 0
134038.0 494768.0 0
135139.0 490330.0 0
138417.0 493856.0 0
144371.0 490070.0 0
142429.0 493552.0 0
147715.0 493689.0 0
152820.0 490871.0 0
158296.0 492600.0 0
163000.0 492435.0 0
166260.0 491226.0 0
170412.0 493292.0 0
175643.0 491626.0 0
180257.0 491405.0 0
184621.0 488954.0 0
189396.0 489368.0 0
187569.0 492534.0 0
192535.0 493502.0 0
199703.0 489083.0 0
197031.0 491387.0 0
201445.0 493543.0 0
207173.0 491145.0 0
211871.0 491676.0 0
217537.0 491714.0 0
222411.0 491148.0 0
228840.0 491248.0 0
234368.0 491170.0 0
242097.0 492077.0 0
253031.0 492492.0 0
257607.0 490930.0 0
261266.0 489656.0 0
265502.0 490819.0 0
270693.0 491075.0 0
278439.0 489206.0 0
274916.0 493372.0 0
284521.0 488848.0 0
288740.0 488734.0 0
285600.0 493370.0 0
293666.0 488842.0 0
291283.0 493535.0 0
296984.0 493100.0 0
302734.0 492546.0 0
305607.0 489620.0 0
309078.0 490259.0 0
312895.0 489535.0 0
312769.0 493959.0 0
315303.0 491052.0 0
318254.0 491886.0 0
326182.0 493540.0 0
329108.0 491163.0 0
332777.0 492162.0 0
335261.0 489517.0 0
337088.0 493538.0 0
342984.0 493549.0 0
347573.0 492130.0 0
351694.0 493368.0 0
355014.0 490301.0 0
360656.0 492606.0 0
362702.0 495379.0 0
363448.0 490966.0 0
367418.0 494094.0 0
372250.0 492304.0 0
379613.0 489843.0 0
376384.0 490947.0 0
379863.0 493830.0 0
383863.0 490751.0 0
387886.0 494029.0 0
390839.0 495175.0 0
392384.0 492057.0 0
396378.0 493856.0 0
399506.0 491723.0 0
404123.0 492289.0 0
409393.0 493482.0 0
413815.0 494545.0 0
416675.0 491901.0 0
418277.0 496254.0 0
421431.0 492388.0 0
426440.0 493815.0 0
430333.0 494852.0 0
433665.0 494221.0 0
439041.0 494381.0 0
442757.0 491839.0 0
444725.0 494983.0 0
448675.0 494964.0 0
452065.0 494712.0 0
455716.0 492909.0 0
459600.0 496088.0 0
463741.0 493804.0 0
468334.0 492861.0 0
470334.0 496501.0 0
466855.0 496810.0 0
474393.0 495625.0 0
478439.0 494142.0 0
480714.0 496545.0 0
486811.0 494852.0 0
484362.0 497638.0 0
490108.0 495991.0 0
488452.0 498698.0 0
492617.0 498818.0 0
7477.27 498460.0 0
4211.6 499360.0 0
2036.89 500991.0 0
11898.5 498863.0 0
6376.64 502379.0 0
14695.4 501067.0 0
21961.6 498722.0 0
18650.8 500256.0 0
21665.4 502635.0 0
24681.5 500572.0 0
27348.4 498689.0 0
27609.6 501292.0 0
30748.6 498563.0 0
37632.3 500559.0 0
33834.1 500517.0 0
40270.2 497027.0 0
41065.0 500310.0 0
44633.1 498465.0 0
45915.0 501889.0 0
53003.5 497869.0 0
48842.9 499340.0 0
51974.6 501095.0 0
56271.0 497865.0 0
55674.7 501584.0 0
59626.8 499289.0 0
63796.9 497306.0 0
63285.7 501020.0 0
66440.2 499037.0 0
70048.1 499700.0 0
76555.5 496709.0 0
79471.0 499799.0 0
84123.0 499310.0 0
88849.0 499112.0 0
94723.9 498527.0 0
100224.0 499462.0 0
104722.0 496773.0 0
110060.0 496478.0 0
112500.0 500482.0 0
114809.0 496103.0 0
116190.0 500087.0 0
118763.0 497648.0 0
122978.0 496971.0 0
127510.0 498175.0 0
130217.0 495644.0 0
132146.0 499627.0 0
137447.0 498208.0 0
143219.0 498575.0 0
148867.0 498984.0 0
153076.0 495959.0 0
157149.0 497956.0 0
161363.0 497007.0 0
164539.0 499730.0 0
165410.0 495358.0 0
168761.0 498274.0 0
174276.0 496734.0 0
178768.0 495955.0 0
183598.0 494405.0 0
187928.0 496973.0 0
197093.0 496846.0 0
207069.0 495982.0 0
215241.0 496837.0 0
220828.0 495552.0 0
225332.0 494080.0 0
224894.0 498794.0 0
229918.0 496536.0 0
234750.0 496314.0 0
238337.0 494471.0 0
237837.0 498277.0 0
242172.0 497335.0 0
247270.0 494159.0 0
251882.0 497777.0 0
256412.0 496151.0 0
261338.0 494576.0 0
267436.0 496459.0 0
272676.0 496779.0 0
279952.0 495928.0 0
284763.0 498170.0 0
300077.0 496510.0 0
303800.0 497474.0 0
307684.0 494845.0 0
310724.0 497598.0 0
317460.0 495673.0 0
314561.0 498708.0 0
321760.0 494782.0 0
325846.0 498198.0 0
330246.0 495522.0 0
334855.0 498856.0 0
340072.0 497589.0 0
348054.0 497217.0 0
353458.0 497168.0 0
357782.0 494985.0 0
361205.0 499572.0 0
366288.0 499212.0 0
371715.0 498012.0 0
376047.0 495165.0 0
376190.0 498753.0 0
379912.0 498487.0 0
384162.0 496084.0 0
389288.0 498730.0 0
393563.0 496464.0 0
396976.0 497947.0 0
403483.0 496668.0 0
400146.0 495283.0 0
400795.0 499446.0 0
405063.0 500043.0 0
407064.0 496484.0 0
410019.0 500624.0 0
410914.0 496728.0 0
414478.0 498830.0 0
417774.0 500293.0 0
420523.0 499836.0 0
423489.0 496907.0 0
428719.0 498148.0 0
432203.0 497307.0 0
433126.0 500623.0 0
435913.0 497911.0 0
439955.0 498829.0 0
443103.0 497793.0 0
445752.0 500281.0 0
450929.0 498173.0 0
447296.0 497723.0 0
449199.0 501006.0 0
455171.0 497511.0 0
453683.0 501804.0 0
459002.0 501114.0 0
463433.0 498881.0 0
468177.0 501407.0 0
473170.0 499879.0 0
477404.0 498225.0 0
476890.0 502398.0 0
480615.0 500152.0 0
485474.0 502260.0 0
490227.0 501939.0 0
494286.0 502100.0 0
497198.0 499997.0 0
3429.16 505671.0 0
10288.8 502085.0 0
8806.44 505580.0 0
13223.5 504842.0 0
16467.0 507547.0 0
17748.0 504092.0 0
21540.4 506888.0 0
25314.0 503721.0 0
30288.9 503635.0 0
32130.0 508174.0 0
34976.2 504316.0 0
39849.2 504292.0 0
43115.8 502134.0 0
44484.9 505454.0 0
48766.1 503409.0 0
52608.9 504600.0 0
56146.2 505731.0 0
59485.9 503616.0 0
66793.1 502436.0 0
63195.6 504782.0 0
70805.8 503813.0 0
74704.6 501027.0 0
74631.2 505842.0 0
81983.9 502615.0 0
77988.1 503901.0 0
80892.2 505824.0 0
86475.5 503895.0 0
91448.9 502666.0 0
97466.1 502679.0 0
101096.0 503154.0 0
103496.0 501050.0 0
107753.0 500988.0 0
110633.0 505006.0 0
115208.0 504027.0 0
120041.0 502058.0 0
124766.0 501050.0 0
128256.0 503239.0 0
136000.0 502165.0 0
139518.0 501981.0 0
141938.0 504384.0 0
146946.0 504292.0 0
153272.0 501761.0 0
159767.0 502365.0 0
167578.0 502880.0 0
172414.0 501243.0 0
177489.0 500917.0 0
183122.0 500144.0 0
188122.0 501160.0 0
192247.0 499370.0 0
196532.0 501905.0 0
201748.0 499697.0 0
206426.0 501292.0 0
210853.0 500395.0 0
214620.0 503600.0 0
219587.0 501166.0 0
229403.0 501863.0 0
234368.0 500904.0 0
239798.0 502422.0 0
246998.0 500371.0 0
252623.0 502653.0 0
257567.0 500908.0 0
262616.0 500040.0 0
266861.0 502060.0 0
271371.0 500938.0 0
275729.0 499154.0 0
281873.0 501948.0 0
289464.0 499027.0 0
287024.0 503905.0 0
295653.0 499065.0 0
300670.0 500206.0 0
303891.0 501381.0 0
307513.0 499620.0 0
306462.0 503784.0 0
311164.0 502900.0 0
315965.0 503090.0 0
320354.0 500286.0 0
326982.0 503604.0 0
329982.0 499979.0 0
332122.0 503830.0 0
339848.0 501937.0 0
336306.0 503773.0 0
343842.0 499929.0 0
343683.0 504670.0 0
347632.0 502552.0 0
351972.0 501064.0 0
355083.0 503696.0 0
356638.0 500103.0 0
359251.0 504139.0 0
364446.0 503973.0 0
370017.0 503465.0 0
375266.0 502486.0 0
380309.0 503797.0 0
384607.0 500770.0 0
385423.0 505163.0 0
390647.0 504677.0 0
393968.0 500520.0 0
395233.0 503674.0 0
397907.0 504948.0 0
397663.0 501666.0 0
401634.0 503675.0 0
406474.0 504270.0 0
411915.0 505951.0 0
415586.0 502656.0 0
419846.0 503789.0 0
425187.0 502078.0 0
430182.0 502031.0 0
434222.0 504817.0 0
438163.0 502389.0 0
442598.0 501634.0 0
442797.0 505694.0 0
446376.0 503550.0 0
450169.0 504345.0 0
454410.0 506038.0 0
459673.0 505977.0 0
463724.0 503229.0 0
468348.0 505894.0 0
472890.0 505042.0 0
477925.0 506954.0 0
480814.0 504000.0 0
488212.0 506229.0 0
492692.0 504557.0 0
497414.0 504200.0 0
3129.48 510671.0 0
7258.86 508607.0 0
11514.8 508777.0 0
15601.0 511026.0 0
19729.9 511294.0 0
26914.2 507551.0 0
24134.4 511201.0 0
29048.7 511918.0 0
36884.7 508415.0 0
41031.4 507988.0 0
44156.0 509598.0 0
47552.2 511192.0 0
48800.9 507349.0 0
53101.5 507512.0 0
51589.4 510648.0 0
55864.2 509630.0 0
58815.6 512118.0 0
59892.5 507949.0 0
66828.4 506076.0 0
63952.5 507941.0 0
66508.6 509709.0 0
70242.3 508017.0 0
73834.1 510231.0 0
78263.0 508475.0 0
83135.5 508262.0 0
87101.8 508604.0 0
90820.0 506680.0 0
94526.2 504920.0 0
94521.0 509213.0 0
99114.1 507251.0 0
105087.0 505756.0 0
108998.0 509363.0 0
113551.0 508223.0 0
118279.0 506970.0 0
123708.0 506060.0 0
128571.0 508534.0 0
132864.0 505099.0 0
133664.0 509700.0 0
137871.0 506134.0 0
142296.0 508210.0 0
150852.0 507804.0 0
155393.0 507054.0 0
160214.0 507639.0 0
164072.0 505657.0 0
167786.0 507688.0 0
170908.0 505396.0 0
171957.0 509355.0 0
175186.0 505599.0 0
180602.0 505849.0 0
184415.0 508806.0 0
186105.0 504886.0 0
190978.0 504175.0 0
199599.0 505032.0 0
195264.0 507623.0 0
204307.0 505764.0 0
209378.0 504925.0 0
208186.0 508831.0 0
212611.0 508177.0 0
218089.0 507543.0 0
224674.0 504224.0 0
228284.0 508755.0 0
232437.0 505597.0 0
236116.0 504678.0 0
236021.0 507961.0 0
244334.0 504798.0 0
240696.0 507976.0 0
248750.0 505148.0 0
251649.0 508756.0 0
256419.0 506158.0 0
260131.0 504072.0 0
263901.0 506165.0 0
260078.0 508186.0 0
270041.0 506009.0 0
276103.0 504333.0 0
280881.0 506491.0 0
284575.0 508007.0 0
289788.0 508995.0 0
292480.0 503971.0 0
298691.0 504035.0 0
295854.0 508685.0 0
302879.0 504717.0 0
300985.0 508062.0 0
308444.0 508329.0 0
314385.0 507664.0 0
319376.0 506078.0 0
322946.0 504682.0 0
323849.0 508982.0 0
329906.0 509049.0 0
335240.0 507569.0 0
339611.0 506568.0 0
344027.0 509560.0 0
347298.0 506956.0 0
351280.0 505664.0 0
355880.0 508399.0 0
361910.0 508966.0 0
367909.0 508774.0 0
373394.0 505740.0 0
373042.0 508870.0 0
376655.0 506919.0 0
382751.0 508806.0 0
387364.0 508696.0 0
395365.0 507498.0 0
400061.0 508308.0 0
403563.0 507522.0 0
407006.0 508520.0 0
415383.0 510769.0 0
416640.0 506397.0 0
420178.0 508789.0 0
424317.0 506916.0 0
429796.0 506423.0 0
427055.0 509215.0 0
434639.0 509817.0 0
438423.0 506916.0 0
438418.0 509904.0 0
441679.0 509870.0 0
447236.0 506815.0 0
445250.0 509292.0 0
450578.0 507518.0 0
448642.0 510436.0 0
452712.0 510138.0 0
456825.0 509035.0 0
461292.0 510587.0 0
464615.0 507366.0 0
468058.0 509028.0 0
471073.0 508513.0 0
470741.0 512107.0 0
475033.0 510037.0 0
483056.0 507329.0 0
480371.0 510940.0 0
486130.0 511326.0 0
494630.0 507218.0 0
491280.0 508887.0 0
494395.0 509855.0 0
497662.0 508219.0 0
2119.9 514353.0 0
7748.19 512109.0 0
5465.37 515240.0 0
8733.09 515846.0 0
12201.5 513545.0 0
16867.5 515053.0 0
21096.8 515320.0 0
25367.8 514917.0 0
34401.1 511978.0 0
31672.2 515314.0 0
36612.5 515738.0 0
39730.9 512262.0 0
44459.9 513947.0 0
49203.1 514457.0 0
54340.2 513883.0 0
58426.7 515939.0 0
63032.1 511374.0 0
61578.1 514579.0 0
65447.5 515107.0 0
69130.3 512269.0 0
72584.6 513868.0 0
77020.0 513786.0 0
80911.6 511533.0 0
88442.7 510943.0 0
84949.4 512514.0 0
90717.3 510167.0 0
92317.8 511650.0 0
89728.5 514461.0 0
94675.2 513567.0 0
98536.9 512278.0 0
103687.0 511163.0 0
107879.0 512994.0 0
112014.0 512684.0 0
116402.0 511110.0 0
115296.0 514632.0 0
118926.0 514304.0 0
121295.0 510571.0 0
125554.0 513308.0 0
130631.0 513036.0 0
134516.0 513800.0 0
138156.0 511090.0 0
142201.0 512598.0 0
146925.0 510806.0 0
152732.0 512116.0 0
158033.0 511875.0 0
163822.0 511030.0 0
168655.0 511590.0 0
172126.0 514494.0 0
177051.0 511114.0 0
181802.0 510805.0 0
189203.0 509534.0 0
184902.0 512575.0 0
193591.0 513146.0 0
198758.0 513597.0 0
200283.0 509039.0 0
204350.0 512292.0 0
210278.0 513266.0 0
215431.0 512209.0 0
223009.0 509141.0 0
220513.0 513969.0 0
225417.0 512731.0 0
233043.0 511740.0 0
237731.0 511378.0 0
241954.0 513731.0 0
246162.0 509661.0 0
249851.0 513011.0 0
256322.0 512478.0 0
262382.0 511497.0 0
267262.0 510420.0 0
273810.0 509491.0 0
278213.0 509375.0 0
276672.0 513389.0 0
281718.0 510335.0 0
280492.0 513144.0 0
285369.0 513429.0 0
299627.0 512178.0 0
295896.0 513512.0 0
303994.0 511196.0 0
309514.0 512938.0 0
314133.0 513285.0 0
318941.0 510827.0 0
322685.0 514471.0 0
327262.0 513566.0 0
335335.0 512724.0 0
339683.0 510589.0 0
346313.0 513942.0 0
342111.0 513455.0 0
350200.0 510726.0 0
354452.0 513110.0 0
358479.0 512512.0 0
362620.0 514371.0 0
367665.0 514381.0 0
371329.0 512269.0 0
374783.0 512587.0 0
378286.0 510849.0 0
382228.0 513524.0 0
386406.0 512045.0 0
391523.0 510998.0 0
397374.0 512102.0 0
404019.0 512881.0 0
410102.0 511208.0 0
409065.0 514683.0 0
412485.0 514102.0 0
415865.0 515449.0 0
419669.0 513344.0 0
424608.0 511959.0 0
423346.0 515681.0 0
430048.0 511844.0 0
433962.0 514785.0 0
439078.0 513673.0 0
445141.0 514085.0 0
450516.0 513925.0 0
456471.0 513813.0 0
461873.0 515569.0 0
466081.0 512725.0 0
471184.0 516152.0 0
473904.0 513893.0 0
477609.0 513736.0 0
482416.0 515876.0 0
487694.0 515540.0 0
491823.0 513141.0 0
496892.0 512510.0 0
2116.47 517456.0 0
2607.6 520933.0 0
7068.61 519154.0 0
12958.4 518723.0 0
18593.4 518419.0 0
16732.7 521448.0 0
23106.7 518714.0 0
25404.6 522777.0 0
27957.7 518334.0 0
33319.6 519336.0 0
41239.0 516969.0 0
38141.1 520217.0 0
46097.2 518334.0 0
49346.1 521093.0 0
51117.5 517779.0 0
54991.4 517858.0 0
58287.5 520300.0 0
62120.1 518159.0 0
66378.3 520419.0 0
69782.5 516530.0 0
71941.5 520867.0 0
73972.7 517025.0 0
77359.1 519936.0 0
81333.4 516245.0 0
85775.4 517068.0 0
93509.9 517390.0 0
97648.9 516521.0 0
101231.0 515368.0 0
101100.0 520068.0 0
104995.0 515759.0 0
106492.0 519637.0 0
109177.0 516123.0 0
112899.0 516860.0 0
110604.0 519584.0 0
117230.0 518735.0 0
122060.0 516667.0 0
125497.0 517892.0 0
128832.0 516742.0 0
133092.0 517963.0 0
138256.0 516616.0 0
135839.0 519252.0 0
143628.0 516598.0 0
148854.0 516119.0 0
153004.0 516165.0 0
156628.0 516718.0 0
161098.0 515229.0 0
160768.0 519268.0 0
166982.0 515435.0 0
170037.0 518977.0 0
176914.0 516820.0 0
181292.0 514748.0 0
188566.0 515356.0 0
184673.0 517452.0 0
193015.0 518169.0 0
197788.0 518401.0 0
203299.0 518733.0 0
209191.0 518602.0 0
214368.0 517273.0 0
219286.0 518929.0 0
224571.0 518337.0 0
228879.0 515136.0 0
228937.0 519193.0 0
233223.0 516973.0 0
237249.0 515267.0 0
241121.0 517731.0 0
246482.0 517195.0 0
252162.0 517363.0 0
257052.0 518046.0 0
260711.0 516029.0 0
265643.0 515945.0 0
271356.0 514290.0 0
272113.0 519047.0 0
279552.0 516640.0 0
275504.0 517573.0 0
283632.0 518965.0 0
288479.0 518022.0 0
290954.0 514139.0 0
293640.0 518475.0 0
298819.0 517044.0 0
302456.0 514865.0 0
303462.0 518806.0 0
306344.0 515266.0 0
310649.0 516977.0 0
318253.0 515440.0 0
315325.0 518967.0 0
320212.0 518938.0 0
323542.0 518468.0 0
326405.0 517584.0 0
331044.0 516689.0 0
335938.0 517755.0 0
339390.0 515842.0 0
343084.0 517137.0 0
347266.0 518700.0 0
351192.0 515874.0 0
357422.0 517928.0 0
363426.0 519308.0 0
368223.0 519160.0 0
372830.0 516738.0 0
378033.0 515737.0 0
382448.0 517613.0 0
385348.0 515354.0 0
386504.0 518512.0 0
389093.0 515234.0 0
390495.0 519080.0 0
394073.0 516468.0 0
399558.0 516902.0 0
403639.0 518202.0 0
407303.0 517751.0 0
411797.0 517863.0 0
415907.0 520358.0 0
419699.0 517884.0 0
423763.0 519469.0 0
428577.0 516988.0 0
433545.0 519022.0 0
437896.0 518404.0 0
441984.0 517459.0 0
445291.0 519490.0 0
448660.0 517556.0 0
452957.0 518214.0 0
458107.0 518935.0 0
467003.0 518562.0 0
462010.0 519878.0 0
472823.0 520581.0 0
478314.0 516730.0 0
475142.0 517097.0 0
478220.0 519980.0 0
482499.0 520576.0 0
486705.0 518914.0 0
491704.0 517810.0 0
489883.0 521702.0 0
494509.0 521452.0 0
497166.0 517080.0 0
498400.0 520459.0 0
3507.95 525694.0 0
9775.89 522194.0 0
6977.26 522837.0 0
9112.79 525844.0 0
13122.2 523870.0 0
20519.9 521793.0 0
17608.5 524774.0 0
21930.7 525870.0 0
30065.3 522266.0 0
25627.3 527493.0 0
34832.1 524737.0 0
39561.8 524166.0 0
42405.1 521301.0 0
42844.0 525711.0 0
46143.8 523205.0 0
49924.3 524858.0 0
53538.4 521735.0 0
53581.1 526005.0 0
57424.9 524506.0 0
61767.6 522527.0 0
65000.7 525285.0 0
69262.0 524724.0 0
74652.2 524440.0 0
78956.9 524483.0 0
83205.9 521749.0 0
89398.7 520379.0 0
92692.9 524001.0 0
95763.8 520589.0 0
97198.8 524893.0 0
105675.0 523034.0 0
109260.0 523566.0 0
113270.0 521781.0 0
117126.0 524173.0 0
122692.0 521820.0 0
129224.0 520920.0 0
126845.0 524156.0 0
134695.0 522214.0 0
138385.0 523506.0 0
141005.0 520629.0 0
142104.0 524694.0 0
146247.0 521450.0 0
152333.0 520349.0 0
156822.0 520785.0 0
155065.0 524659.0 0
159485.0 523470.0 0
163521.0 522509.0 0
165749.0 519493.0 0
168536.0 524508.0 0
174100.0 520196.0 0
178886.0 523659.0 0
181076.0 519348.0 0
183108.0 523046.0 0
187996.0 521298.0 0
193536.0 523014.0 0
199284.0 522269.0 0
207083.0 523333.0 0
211323.0 522324.0 0
216017.0 522739.0 0
221624.0 522897.0 0
227263.0 523712.0 0
232038.0 521268.0 0
237655.0 520646.0 0
243560.0 521836.0 0
249181.0 522443.0 0
254942.0 522265.0 0
261047.0 521206.0 0
267777.0 522155.0 0
274894.0 522143.0 0
278911.0 520510.0 0
281823.0 523927.0 0
287266.0 523055.0 0
291930.0 522845.0 0
296321.0 523292.0 0
300257.0 521345.0 0
303530.0 522677.0 0
308329.0 521781.0 0
313503.0 523343.0 0
319660.0 523627.0 0
324484.0 521942.0 0
328566.0 520742.0 0
333224.0 522177.0 0
337321.0 520696.0 0
340190.0 519471.0 0
343498.0 521268.0 0
348954.0 522793.0 0
352133.0 520276.0 0
355624.0 523573.0 0
360704.0 523373.0 0
366088.0 523786.0 0
372329.0 522381.0 0
378517.0 521469.0 0
383869.0 521451.0 0
388271.0 522970.0 0
392890.0 522285.0 0
396848.0 520967.0 0
399112.0 524628.0 0
401493.0 521382.0 0
406069.0 521908.0 0
411324.0 523186.0 0
416376.0 524574.0 0
420839.0 523115.0 0
426502.0 522389.0 0
431209.0 522363.0 0
436448.0 523064.0 0
440741.0 525148.0 0
441454.0 521141.0 0
444926.0 523883.0 0
449746.0 522404.0 0
455426.0 522358.0 0
453700.0 525813.0 0
459486.0 522514.0 0
463454.0 523916.0 0
468370.0 523512.0 0
472140.0 525334.0 0
476857.0 524551.0 0
482014.0 525054.0 0
486128.0 522594.0 0
486884.0 526067.0 0
492083.0 525741.0 0
498009.0 523397.0 0
1346.12 528942.0 0
6564.86 529440.0 0
14538.6 527800.0 0
10768.5 530400.0 0
19041.9 529176.0 0
23500.1 530288.0 0
29465.5 526573.0 0
27845.5 530605.0 0
33176.4 530407.0 0
38770.1 528524.0 0
43497.3 530047.0 0
47055.1 527556.0 0
50967.0 529079.0 0
56151.8 529490.0 0
60738.2 526708.0 0
60796.5 531173.0 0
63901.2 528643.0 0
67408.0 528592.0 0
71827.4 528508.0 0
77234.2 529130.0 0
82244.1 527107.0 0
87792.1 526311.0 0
93265.7 528280.0 0
102727.0 525933.0 0
98168.5 529937.0 0
107821.0 528609.0 0
112655.0 526515.0 0
116561.0 529059.0 0
121104.0 527272.0 0
122939.0 530141.0 0
125725.0 528060.0 0
131020.0 525742.0 0
135914.0 526532.0 0
139922.0 528410.0 0
144985.0 528675.0 0
149933.0 525845.0 0
153627.0 529828.0 0
158545.0 527972.0 0
162668.0 526106.0 0
165261.0 527730.0 0
172526.0 528464.0 0
174261.0 524420.0 0
176979.0 528133.0 0
181659.0 527636.0 0
185634.0 525901.0 0
190672.0 528215.0 0
197290.0 526924.0 0
202478.0 525132.0 0
206222.0 528492.0 0
211444.0 526848.0 0
216760.0 528295.0 0
221941.0 527863.0 0
227269.0 528470.0 0
232837.0 526158.0 0
237696.0 525876.0 0
242261.0 527231.0 0
247969.0 528254.0 0
253389.0 527275.0 0
258481.0 526274.0 0
263202.0 525924.0 0
267118.0 528379.0 0
272351.0 527043.0 0
277450.0 526291.0 0
280799.0 528019.0 0
285172.0 528535.0 0
290968.0 527550.0 0
296612.0 529005.0 0
300766.0 525706.0 0
305456.0 526450.0 0
310662.0 527486.0 0
316098.0 527321.0 0
323828.0 527105.0 0
328659.0 525019.0 0
333797.0 527975.0 0
339241.0 524765.0 0
345257.0 525834.0 0
351468.0 527759.0 0
358259.0 527562.0 0
362813.0 527636.0 0
369950.0 525808.0 0
367642.0 528943.0 0
372934.0 528844.0 0
375798.0 525749.0 0
379248.0 527083.0 0
382823.0 525423.0 0
386998.0 527764.0 0
382576.0 529503.0 0
391789.0 526496.0 0
395644.0 525132.0 0
395347.0 528870.0 0
399886.0 528964.0 0
403123.0 525542.0 0
404691.0 529943.0 0
407506.0 526381.0 0
410437.0 529831.0 0
413886.0 527430.0 0
417882.0 528040.0 0
421577.0 527651.0 0
424610.0 525902.0 0
425927.0 530313.0 0
428835.0 526466.0 0
431407.0 530579.0 0
433119.0 526427.0 0
437067.0 528284.0 0
441615.0 529150.0 0
445796.0 528188.0 0
450087.0 527300.0 0
454297.0 530091.0 0
458402.0 526451.0 0
459357.0 531137.0 0
463188.0 528485.0 0
467134.0 527217.0 0
470288.0 528638.0 0
474411.0 528852.0 0
479108.0 529532.0 0
483976.0 529389.0 0
488984.0 529759.0 0
493994.0 530929.0 0
497284.0 527058.0 0
498215.0 530626.0 0
2678.11 531849.0 0
2371.75 536428.0 0
6734.76 534159.0 0
11579.4 535968.0 0
15754.0 532677.0 0
21811.4 536717.0 0
20606.1 533307.0 0
25463.1 534397.0 0
30026.3 533896.0 0
34114.2 535917.0 0
37222.0 532623.0 0
40412.9 532535.0 0
44091.1 534841.0 0
47962.5 531758.0 0
52467.4 533120.0 0
57166.1 534695.0 0
61931.1 535360.0 0
65101.5 531891.0 0
65881.5 535456.0 0
69581.7 532931.0 0
73727.0 532273.0 0
78406.6 534354.0 0
81488.1 531000.0 0
83592.8 534674.0 0
84729.0 530160.0 0
89232.1 532555.0 0
94814.5 533864.0 0
100089.0 534977.0 0
103241.0 531039.0 0
105573.0 535112.0 0
108784.0 532631.0 0
112247.0 531020.0 0
116110.0 533676.0 0
120272.0 531573.0 0
125067.0 533585.0 0
129467.0 530652.0 0
132196.0 534322.0 0
133331.0 529680.0 0
136861.0 532283.0 0
141761.0 532616.0 0
148748.0 532288.0 0
152840.0 534757.0 0
158293.0 533604.0 0
162810.0 530314.0 0
167693.0 530508.0 0
164575.0 534475.0 0
168242.0 534603.0 0
171959.0 533121.0 0
177057.0 532941.0 0
182284.0 532827.0 0
185437.0 529543.0 0
187336.0 533121.0 0
192075.0 534316.0 0
197034.0 532613.0 0
201544.0 530344.0 0
205113.0 533313.0 0
210182.0 532385.0 0
215169.0 532809.0 0
219825.0 532348.0 0
224884.0 532074.0 0
230663.0 531823.0 0
236639.0 530576.0 0
241717.0 532791.0 0
247180.0 534198.0 0
252559.0 532490.0 0
257553.0 531320.0 0
262791.0 531473.0 0
267992.0 533605.0 0
272930.0 532297.0 0
278553.0 532268.0 0
284245.0 534073.0 0
288690.0 531831.0 0
292706.0 532465.0 0
296644.0 533815.0 0
301437.0 532724.0 0
306699.0 531002.0 0
311137.0 533175.0 0
319934.0 529631.0 0
315789.0 532219.0 0
319338.0 532713.0 0
323494.0 532781.0 0
328486.0 530243.0 0
332337.0 532024.0 0
338165.0 529949.0 0
335958.0 533971.0 0
341956.0 529178.0 0
340943.0 533276.0 0
346117.0 531575.0 0
351349.0 534310.0 0
355908.0 531646.0 0
360451.0 531751.0 0
358000.0 535430.0 0
364446.0 531372.0 0
369658.0 534012.0 0
373647.0 532702.0 0
378159.0 532123.0 0
385878.0 532078.0 0
391240.0 531684.0 0
397086.0 533341.0 0
401934.0 533230.0 0
407389.0 533315.0 0
411471.0 533856.0 0
415452.0 531884.0 0
420531.0 531673.0 0
418975.0 535830.0 0
424083.0 535040.0 0
429083.0 534755.0 0
433909.0 534808.0 0
438711.0 533048.0 0
444240.0 533057.0 0
448009.0 536032.0 0
449250.0 531570.0 0
452542.0 534718.0 0
456582.0 533990.0 0
463276.0 532364.0 0
460892.0 535974.0 0
467200.0 531054.0 0
465685.0 535211.0 0
471906.0 531901.0 0
469363.0 534328.0 0
475869.0 532564.0 0
478315.0 535550.0 0
482041.0 533455.0 0
486106.0 532829.0 0
486214.0 536209.0 0
490059.0 533628.0 0
493691.0 535415.0 0
497719.0 533916.0 0
2423.39 540754.0 0
6204.57 538705.0 0
15145.8 539114.0 0
17978.7 536390.0 0
19909.8 540949.0 0
25140.6 539463.0 0
29102.9 537693.0 0
32308.4 540191.0 0
36867.7 540350.0 0
39031.9 536129.0 0
42050.1 539374.0 0
46101.0 538777.0 0
49061.1 535944.0 0
53400.5 538060.0 0
59368.2 538807.0 0
64185.8 539801.0 0
68806.6 537409.0 0
73532.2 536639.0 0
77695.0 538377.0 0
80591.1 537451.0 0
83250.0 538686.0 0
87078.2 537974.0 0
91569.9 537256.0 0
95964.5 538884.0 0
101497.0 539905.0 0
106772.0 540436.0 0
111149.0 536327.0 0
116181.0 538331.0 0
120221.0 535776.0 0
119822.0 539393.0 0
123598.0 538667.0 0
128767.0 538256.0 0
134594.0 539147.0 0
138916.0 536507.0 0
145099.0 535691.0 0
149497.0 538818.0 0
155829.0 539409.0 0
161437.0 538081.0 0
165983.0 538455.0 0
170115.0 537564.0 0
174804.0 537449.0 0
179568.0 537119.0 0
183584.0 537282.0 0
188059.0 538228.0 0
193265.0 539313.0 0
197968.0 537101.0 0
201073.0 534706.0 0
204049.0 537856.0 0
208110.0 536644.0 0
213010.0 536857.0 0
217582.0 536309.0 0
221957.0 537076.0 0
227121.0 537176.0 0
232732.0 537314.0 0
237596.0 535776.0 0
244117.0 538257.0 0
240487.0 538413.0 0
251618.0 537760.0 0
259995.0 535257.0 0
256079.0 535774.0 0
263568.0 536083.0 0
267299.0 538815.0 0
271901.0 536570.0 0
276438.0 537896.0 0
280852.0 536754.0 0
283769.0 538178.0 0
288853.0 536036.0 0
293789.0 537266.0 0
298774.0 537308.0 0
303486.0 538947.0 0
305728.0 535051.0 0
309061.0 538060.0 0
314635.0 537246.0 0
319676.0 536260.0 0
324205.0 538124.0 0
330118.0 536508.0 0
335271.0 538444.0 0
339650.0 538179.0 0
344372.0 536616.0 0
348342.0 538204.0 0
354566.0 538963.0 0
359639.0 539532.0 0
364015.0 536174.0 0
368860.0 539383.0 0
374341.0 536012.0 0
378613.0 538162.0 0
382799.0 535333.0 0
387856.0 536156.0 0
393301.0 537041.0 0
399061.0 538237.0 0
404482.0 536948.0 0
409559.0 537309.0 0
414592.0 536898.0 0
422110.0 538826.0 0
427287.0 539398.0 0
431341.0 536734.0 0
433103.0 540389.0 0
437761.0 537865.0 0
442510.0 539995.0 0
441445.0 536720.0 0
444453.0 537492.0 0
451160.0 539629.0 0
456040.0 538157.0 0
460186.0 541256.0 0
465231.0 539790.0 0
468754.0 537672.0 0
473335.0 536943.0 0
477394.0 539765.0 0
482242.0 538557.0 0
489791.0 537095.0 0
487277.0 541089.0 0
492642.0 540018.0 0
497362.0 538139.0 0
5797.59 543994.0 0
10335.3 541151.0 0
14912.0 543716.0 0
24437.9 543967.0 0
28580.3 542403.0 0
32928.2 544405.0 0
40603.6 543371.0 0
36692.7 544860.0 0
45449.4 542669.0 0
49384.9 540411.0 0
49016.5 543848.0 0
52720.0 543127.0 0
56499.1 541335.0 0
58750.4 545130.0 0
64795.2 545859.0 0
69348.2 541712.0 0
75117.1 542664.0 0
80271.9 540840.0 0
80327.9 545185.0 0
84738.1 542459.0 0
90267.8 541659.0 0
97950.2 543702.0 0
103189.0 544868.0 0
107980.0 545379.0 0
112381.0 542290.0 0
117204.0 542136.0 0
121248.0 542878.0 0
125961.0 542566.0 0
130537.0 543156.0 0
138267.0 542856.0 0
134427.0 543823.0 0
142057.0 539815.0 0
145804.0 542211.0 0
149584.0 544007.0 0
163622.0 541916.0 0
159374.0 544153.0 0
168865.0 542797.0 0
173691.0 541617.0 0
178135.0 541714.0 0
183780.0 541761.0 0
190036.0 543569.0 0
197294.0 540898.0 0
194586.0 543333.0 0
201554.0 542278.0 0
206917.0 542026.0 0
212846.0 542542.0 0
218121.0 540703.0 0
222628.0 541658.0 0
227111.0 542332.0 0
231832.0 542454.0 0
236938.0 540996.0 0
241864.0 541901.0 0
247616.0 542760.0 0
253654.0 542396.0 0
257878.0 539919.0 0
262716.0 540944.0 0
267373.0 544042.0 0
271833.0 541158.0 0
280756.0 541185.0 0
276170.0 542856.0 0
287000.0 540551.0 0
291494.0 541371.0 0
296470.0 541646.0 0
300900.0 543149.0 0
306776.0 542654.0 0
311340.0 542665.0 0
316231.0 542328.0 0
320291.0 540450.0 0
320197.0 544309.0 0
324663.0 543392.0 0
329972.0 542698.0 0
334411.0 541978.0 0
338379.0 542727.0 0
344135.0 542419.0 0
350242.0 542242.0 0
354837.0 544125.0 0
360336.0 544975.0 0
363877.0 541267.0 0
370722.0 543121.0 0
366587.0 544941.0 0
373869.0 540302.0 0
374131.0 544259.0 0
380117.0 543971.0 0
384344.0 539864.0 0
385987.0 544435.0 0
389546.0 540910.0 0
395169.0 542486.0 0
399246.0 542135.0 0
402954.0 541716.0 0
407584.0 541317.0 0
409870.0 544760.0 0
412440.0 541265.0 0
417896.0 541341.0 0
423580.0 543262.0 0
428999.0 544787.0 0
438986.0 542635.0 0
446257.0 540742.0 0
449316.0 544437.0 0
455007.0 543737.0 0
459700.0 545753.0 0
464373.0 545005.0 0
470089.0 541572.0 0
475051.0 544585.0 0
480286.0 542990.0 0
484303.0 545308.0 0
491322.0 545461.0 0
496797.0 543351.0 0
2050.85 546783.0 0
10505.7 546469.0 0
6572.69 548311.0 0
14866.2 548483.0 0
19563.4 546418.0 0
24706.9 549427.0 0
29417.1 546737.0 0
31153.4 550568.0 0
34794.7 548510.0 0
39459.9 547725.0 0
43367.0 546168.0 0
47115.5 546589.0 0
50528.7 546187.0 0
49798.5 550140.0 0
54154.8 547487.0 0
70527.5 546237.0 0
68458.1 550541.0 0
76659.3 547322.0 0
73293.2 549796.0 0
79564.4 549669.0 0
83681.8 548376.0 0
87864.4 546390.0 0
93161.3 546418.0 0
98267.9 549061.0 0
103161.0 549770.0 0
111909.0 547919.0 0
116291.0 545807.0 0
120950.0 548072.0 0
127322.0 548080.0 0
132478.0 546832.0 0
135953.0 546868.0 0
140337.0 547453.0 0
145631.0 546756.0 0
150883.0 549230.0 0
154166.0 544698.0 0
156841.0 547602.0 0
160215.0 548996.0 0
164076.0 546375.0 0
168658.0 548408.0 0
174571.0 546923.0 0
180776.0 546235.0 0
185910.0 546884.0 0
193655.0 547139.0 0
189874.0 548764.0 0
198351.0 546398.0 0
203676.0 547246.0 0
208896.0 546768.0 0
213829.0 548485.0 0
218642.0 545748.0 0
223012.0 545595.0 0
226908.0 547155.0 0
232258.0 547675.0 0
237509.0 546427.0 0
242689.0 546505.0 0
247303.0 549087.0 0
252322.0 547301.0 0
257718.0 545944.0 0
262757.0 545607.0 0
272577.0 546823.0 0
279052.0 546507.0 0
284654.0 545632.0 0
291113.0 546733.0 0
297432.0 546993.0 0
302872.0 547328.0 0
307833.0 547254.0 0
312049.0 546688.0 0
316801.0 548077.0 0
322444.0 547958.0 0
328046.0 547659.0 0
334007.0 547084.0 0
340283.0 547604.0 0
346011.0 547881.0 0
350872.0 547281.0 0
355943.0 549096.0 0
371152.0 547029.0 0
367493.0 550125.0 0
375794.0 547842.0 0
385357.0 549638.0 0
390768.0 545669.0 0
395136.0 547532.0 0
400149.0 546657.0 0
405712.0 545902.0 0
411119.0 548802.0 0
414689.0 545553.0 0
415974.0 550230.0 0
419727.0 546884.0 0
424914.0 548096.0 0
430844.0 549695.0 0
434596.0 546267.0 0
439641.0 547969.0 0
444123.0 545258.0 0
447846.0 549016.0 0
452137.0 548034.0 0
456761.0 548858.0 0
461530.0 549650.0 0
465940.0 549329.0 0
469493.0 546579.0 0
473134.0 549622.0 0
477552.0 550572.0 0
479962.0 547168.0 0
483117.0 549981.0 0
487495.0 548944.0 0
497049.0 548770.0 0
3549.55 550674.0 0
2095.86 554518.0 0
9448.25 551146.0 0
6179.46 554242.0 0
14002.5 552815.0 0
10594.0 555495.0 0
18762.8 551441.0 0
22616.7 555086.0 0
28214.0 554279.0 0
33500.5 554541.0 0
38120.9 552126.0 0
43895.7 550723.0 0
47733.7 554659.0 0
53948.2 551807.0 0
56367.4 553983.0 0
58312.6 550362.0 0
59859.0 555208.0 0
63442.0 551652.0 0
71188.3 554626.0 0
76679.3 553975.0 0
82883.4 553595.0 0
87698.1 551090.0 0
93199.3 552239.0 0
98043.8 553828.0 0
107599.0 550441.0 0
102878.0 554632.0 0
111757.0 553121.0 0
116183.0 550515.0 0
122671.0 553378.0 0
128221.0 554233.0 0
132297.0 550958.0 0
136548.0 550538.0 0
140067.0 552004.0 0
144278.0 551552.0 0
148602.0 554384.0 0
156080.0 551510.0 0
160131.0 553446.0 0
164351.0 551420.0 0
168631.0 552702.0 0
172151.0 551729.0 0
177517.0 551748.0 0
182404.0 551473.0 0
186983.0 551025.0 0
193247.0 551564.0 0
189624.0 553574.0 0
197090.0 550458.0 0
204091.0 552757.0 0
208959.0 551441.0 0
212929.0 553286.0 0
217672.0 552336.0 0
222143.0 549649.0 0
226326.0 551963.0 0
231083.0 552871.0 0
236965.0 552346.0 0
242682.0 551505.0 0
247500.0 553501.0 0
251159.0 552167.0 0
255832.0 551160.0 0
261650.0 551184.0 0
265947.0 549442.0 0
265232.0 554206.0 0
270400.0 552701.0 0
276684.0 552241.0 0
282006.0 550109.0 0
286870.0 551281.0 0
292332.0 552725.0 0
300364.0 551830.0 0
305977.0 552690.0 0
311550.0 551208.0 0
317790.0 554651.0 0
322952.0 552447.0 0
329604.0 551337.0 0
326666.0 551685.0 0
332900.0 552323.0 0
337919.0 552590.0 0
343652.0 552740.0 0
350313.0 553249.0 0
361775.0 551155.0 0
356600.0 554812.0 0
368377.0 554811.0 0
372687.0 552001.0 0
379961.0 549946.0 0
377762.0 554699.0 0
382403.0 553565.0 0
391386.0 550961.0 0
397412.0 552086.0 0
401286.0 555131.0 0
402323.0 551299.0 0
406585.0 550498.0 0
412134.0 554008.0 0
417594.0 554802.0 0
421700.0 551899.0 0
426987.0 552352.0 0
432587.0 553956.0 0
436042.0 551205.0 0
439994.0 552162.0 0
443665.0 550501.0 0
453599.0 552097.0 0
448878.0 554558.0 0
458229.0 553715.0 0
464341.0 552787.0 0
469163.0 552389.0 0
474351.0 554512.0 0
481169.0 554852.0 0
486939.0 553637.0 0
492234.0 551252.0 0
497643.0 553595.0 0
1809.72 558140.0 0
7365.5 559284.0 0
13336.4 559405.0 0
17264.8 556289.0 0
20745.2 560133.0 0
25979.8 559069.0 0
30497.5 558409.0 0
35395.8 560094.0 0
39365.2 556685.0 0
43343.5 555514.0 0
42271.6 558285.0 0
45506.7 559026.0 0
49295.2 558181.0 0
53077.6 556160.0 0
57244.5 559514.0 0
66347.3 555795.0 0
62606.2 559182.0 0
69286.2 559426.0 0
74327.8 559414.0 0
79739.8 558558.0 0
84953.0 558771.0 0
89010.8 555710.0 0
89402.1 560330.0 0
94044.3 558230.0 0
99152.0 557786.0 0
107707.0 556257.0 0
112320.0 558147.0 0
117067.0 555674.0 0
121623.0 558621.0 0
125565.0 557575.0 0
129956.0 558261.0 0
133607.0 555854.0 0
138625.0 555821.0 0
143725.0 556875.0 0
148818.0 559344.0 0
154019.0 556945.0 0
160062.0 557516.0 0
164492.0 556468.0 0
169736.0 557081.0 0
174616.0 555182.0 0
179874.0 556872.0 0
185633.0 555872.0 0
188931.0 559502.0 0
193262.0 556682.0 0
198784.0 554884.0 0
203471.0 558306.0 0
208158.0 556021.0 0
212776.0 557992.0 0
218073.0 558203.0 0
222356.0 554967.0 0
227495.0 556959.0 0
232917.0 557759.0 0
238398.0 558996.0 0
244091.0 556884.0 0
249823.0 556690.0 0
254240.0 557598.0 0
259449.0 555760.0 0
264221.0 558070.0 0
268283.0 557018.0 0
272953.0 557220.0 0
278162.0 558595.0 0
282580.0 555054.0 0
287862.0 556819.0 0
292945.0 557922.0 0
296651.0 555054.0 0
296972.0 559640.0 0
301264.0 557414.0 0
306256.0 557750.0 0
311546.0 557298.0 0
315814.0 558855.0 0
322850.0 557953.0 0
328826.0 556436.0 0
334904.0 556515.0 0
340469.0 558531.0 0
346324.0 557677.0 0
350736.0 558825.0 0
354808.0 559590.0 0
359328.0 559373.0 0
363830.0 556889.0 0
367941.0 560057.0 0
372592.0 557588.0 0
382124.0 557877.0 0
377447.0 560033.0 0
387164.0 555425.0 0
393535.0 556534.0 0
398128.0 557300.0 0
402049.0 560031.0 0
406323.0 555749.0 0
410790.0 558922.0 0
415414.0 558850.0 0
420505.0 558849.0 0
424201.0 555937.0 0
428885.0 556774.0 0
432692.0 557747.0 0
434748.0 556466.0 0
437907.0 555681.0 0
436004.0 560094.0 0
442986.0 555381.0 0
440479.0 559302.0 0
446062.0 560021.0 0
451417.0 559837.0 0
454209.0 556315.0 0
458363.0 559601.0 0
462009.0 555960.0 0
463489.0 559616.0 0
466201.0 556341.0 0
467925.0 560686.0 0
470321.0 556870.0 0
473008.0 560328.0 0
477224.0 558273.0 0
486102.0 558898.0 0
491574.0 556527.0 0
496877.0 558229.0 0
2691.12 562304.0 0
7388.15 565135.0 0
12253.5 564105.0 0
17622.2 564975.0 0
24414.5 563774.0 0
29031.0 562555.0 0
37711.4 564670.0 0
41339.1 561854.0 0
48307.3 560620.0 0
46574.3 563890.0 0
51983.6 561379.0 0
55817.2 564096.0 0
60519.2 563705.0 0
65964.5 563317.0 0
71221.0 563693.0 0
77816.0 562860.0 0
82255.0 562744.0 0
86651.8 563552.0 0
92672.5 564428.0 0
98051.6 562160.0 0
103222.0 559923.0 0
108200.0 561626.0 0
117157.0 560615.0 0
113302.0 562823.0 0
122407.0 563717.0 0
127151.0 561378.0 0
132980.0 561804.0 0
139463.0 561499.0 0
144993.0 561699.0 0
148916.0 564258.0 0
153305.0 562462.0 0
157711.0 561302.0 0
163079.0 561635.0 0
168723.0 562420.0 0
174441.0 560804.0 0
179211.0 564214.0 0
184027.0 561265.0 0
193089.0 562392.0 0
199099.0 562459.0 0
203952.0 562953.0 0
208371.0 561517.0 0
219441.0 562289.0 0
215160.0 562679.0 0
222878.0 560920.0 0
229440.0 561778.0 0
234277.0 562758.0 0
238669.0 563998.0 0
242772.0 562284.0 0
247908.0 561354.0 0
252242.0 560917.0 0
256190.0 562126.0 0
261073.0 561247.0 0
265610.0 562025.0 0
270003.0 561133.0 0
274769.0 563085.0 0
283169.0 560985.0 0
288550.0 562597.0 0
294023.0 562668.0 0
299810.0 562021.0 0
304384.0 562167.0 0
309060.0 561911.0 0
314644.0 562103.0 0
311587.0 564463.0 0
318826.0 560236.0 0
321854.0 563796.0 0
327543.0 563037.0 0
334398.0 561832.0 0
338626.0 563028.0 0
346548.0 562201.0 0
342398.0 564156.0 0
350830.0 562838.0 0
357075.0 564086.0 0
363261.0 562116.0 0
366995.0 564289.0 0
372544.0 563892.0 0
381631.0 562091.0 0
378569.0 565113.0 0
386807.0 561625.0 0
393415.0 562640.0 0
398371.0 562761.0 0
406884.0 560648.0 0
407007.0 564762.0 0
412216.0 563825.0 0
417690.0 563089.0 0
422717.0 564914.0 0
425582.0 560520.0 0
427515.0 564736.0 0
430932.0 561475.0 0
436440.0 565126.0 0
441978.0 564117.0 0
447418.0 565145.0 0
454381.0 563733.0 0
462217.0 563257.0 0
458685.0 564805.0 0
466212.0 565287.0 0
470612.0 564093.0 0
474433.0 564768.0 0
477069.0 561915.0 0
479359.0 565562.0 0
481000.0 560426.0 0
484153.0 563435.0 0
491377.0 562280.0 0
497372.0 563218.0 0
2538.26 567274.0 0
10926.5 567612.0 0
14203.8 569051.0 0
22455.5 568883.0 0
27946.8 567349.0 0
33046.9 565526.0 0
38649.8 568820.0 0
42480.2 566480.0 0
47689.2 568889.0 0
51802.1 566413.0 0
57865.9 567724.0 0
63278.6 567593.0 0
68759.7 567902.0 0
75129.2 566484.0 0
72521.2 569834.0 0
80520.5 567549.0 0
88075.7 567628.0 0
98079.0 567465.0 0
103715.0 565482.0 0
110101.0 567027.0 0
117324.0 566648.0 0
120888.0 569823.0 0
124330.0 568208.0 0
128834.0 566361.0 0
133243.0 566827.0 0
137616.0 567055.0 0
143550.0 566943.0 0
149784.0 569326.0 0
155291.0 566416.0 0
159639.0 565159.0 0
158954.0 569564.0 0
165618.0 565701.0 0
169954.0 567735.0 0
174719.0 566167.0 0
178198.0 568561.0 0
183475.0 567823.0 0
188253.0 564955.0 0
192802.0 567176.0 0
196606.0 566936.0 0
202770.0 567032.0 0
207818.0 566961.0 0
212443.0 566702.0 0
217857.0 567467.0 0
222923.0 566060.0 0
226937.0 565049.0 0
230985.0 566820.0 0
235904.0 567270.0 0
240706.0 567643.0 0
245891.0 566849.0 0
251637.0 565373.0 0
257522.0 567025.0 0
262736.0 566045.0 0
268225.0 566284.0 0
273279.0 568233.0 0
278408.0 567207.0 0
282838.0 565569.0 0
286737.0 567771.0 0
292046.0 567564.0 0
297767.0 566034.0 0
302871.0 567192.0 0
307858.0 566292.0 0
312419.0 568273.0 0
317180.0 566450.0 0
321841.0 568927.0 0
326641.0 568442.0 0
332129.0 567462.0 0
338096.0 567165.0 0
343425.0 568002.0 0
348149.0 566524.0 0
352672.0 566278.0 0
356177.0 569426.0 0
362165.0 567669.0 0
368553.0 569515.0 0
373851.0 569218.0 0
380991.0 568466.0 0
377551.0 569328.0 0
383203.0 565615.0 0
384334.0 569308.0 0
389245.0 567687.0 0
394228.0 568094.0 0
397243.0 566105.0 0
401519.0 565402.0 0
399290.0 569950.0 0
404800.0 568640.0 0
409974.0 569125.0 0
415956.0 568416.0 0
421620.0 570224.0 0
426064.0 568359.0 0
431583.0 566491.0 0
435137.0 570429.0 0
439722.0 568592.0 0
444620.0 569535.0 0
451516.0 567695.0 0
456454.0 568767.0 0
461305.0 568089.0 0
465698.0 570239.0 0
470146.0 568100.0 0
475261.0 569845.0 0
483459.0 567071.0 0
481038.0 570708.0 0
487544.0 565487.0 0
486532.0 570010.0 0
491853.0 568146.0 0
497348.0 568227.0 0
2115.32 571603.0 0
6945.07 570715.0 0
8643.47 575358.0 0
11736.9 572412.0 0
17855.4 571664.0 0
22250.9 573778.0 0
26959.9 572726.0 0
33306.7 571808.0 0
39014.5 573423.0 0
43176.1 570979.0 0
47403.5 573563.0 0
53728.9 572455.0 0
60491.7 571780.0 0
65619.1 571529.0 0
69917.9 573643.0 0
73793.7 573540.0 0
76530.0 571048.0 0
82124.7 573219.0 0
87290.7 572062.0 0
92469.6 570744.0 0
94093.2 574934.0 0
98048.3 573151.0 0
104063.0 571766.0 0
109654.0 572244.0 0
113775.0 570608.0 0
113359.0 574652.0 0
118034.0 571994.0 0
123364.0 572605.0 0
127987.0 571383.0 0
133798.0 571976.0 0
139818.0 571720.0 0
145460.0 573138.0 0
150417.0 573724.0 0
154364.0 571780.0 0
158660.0 574659.0 0
164341.0 570179.0 0
168712.0 572435.0 0
174404.0 572192.0 0
180381.0 572228.0 0
188536.0 570049.0 0
184857.0 572509.0 0
193272.0 571685.0 0
197192.0 570313.0 0
201192.0 572278.0 0
206896.0 572150.0 0
212992.0 572117.0 0
218552.0 572568.0 0
222851.0 573095.0 0
226460.0 569906.0 0
231908.0 571883.0 0
237314.0 572245.0 0
243058.0 571218.0 0
248109.0 572628.0 0
252306.0 569902.0 0
256297.0 572067.0 0
260752.0 570363.0 0
265447.0 571022.0 0
270058.0 571455.0 0
276153.0 572832.0 0
282474.0 571828.0 0
288677.0 572913.0 0
294445.0 572968.0 0
299529.0 570940.0 0
304507.0 571839.0 0
308551.0 570634.0 0
312114.0 572896.0 0
316640.0 571524.0 0
320914.0 573312.0 0
324793.0 572380.0 0
329933.0 573387.0 0
335790.0 571940.0 0
341204.0 571803.0 0
345917.0 570559.0 0
350989.0 571418.0 0
359572.0 571925.0 0
360576.0 575504.0 0
364961.0 574170.0 0
372813.0 572971.0 0
376665.0 572740.0 0
380387.0 571952.0 0
384988.0 574181.0 0
390236.0 572954.0 0
394422.0 575170.0 0
398903.0 574535.0 0
407599.0 572937.0 0
403433.0 573216.0 0
411589.0 574579.0 0
417427.0 574310.0 0
422246.0 574795.0 0
425555.0 573144.0 0
429755.0 571253.0 0
433668.0 574308.0 0
439899.0 573511.0 0
444982.0 574813.0 0
449562.0 572420.0 0
454695.0 573452.0 0
459652.0 572833.0 0
464115.0 574713.0 0
470296.0 573265.0 0
477902.0 575443.0 0
483580.0 574416.0 0
488453.0 575243.0 0
494055.0 573118.0 0
498267.0 572306.0 0
3364.57 576617.0 0
9416.87 580291.0 0
12696.2 576493.0 0
18409.8 578133.0 0
24711.8 577392.0 0
29873.9 578927.0 0
36014.5 577975.0 0
39593.2 576383.0 0
43117.5 576364.0 0
49957.4 576975.0 0
54151.0 579475.0 0
58666.2 576620.0 0
63469.0 575778.0 0
67318.9 578488.0 0
72461.1 579013.0 0
77122.7 576137.0 0
86259.2 576535.0 0
81811.7 578857.0 0
91297.7 578352.0 0
96464.7 577887.0 0
101702.0 577879.0 0
107502.0 576956.0 0
112829.0 579973.0 0
117463.0 576533.0 0
122966.0 578032.0 0
129355.0 576030.0 0
133383.0 577006.0 0
138869.0 577204.0 0
144358.0 578973.0 0
148677.0 577071.0 0
153726.0 577462.0 0
164028.0 576800.0 0
170270.0 577240.0 0
175082.0 578321.0 0
179368.0 577176.0 0
184023.0 576561.0 0
188771.0 575242.0 0
193255.0 576043.0 0
197452.0 575997.0 0
203013.0 576680.0 0
208459.0 576924.0 0
213116.0 577925.0 0
217917.0 577121.0 0
222726.0 577650.0 0
227848.0 575550.0 0
232927.0 576388.0 0
237362.0 577635.0 0
241516.0 575347.0 0
245616.0 577520.0 0
250005.0 577414.0 0
254903.0 577410.0 0
261309.0 576126.0 0
268074.0 576134.0 0
273648.0 577853.0 0
279376.0 577500.0 0
283605.0 576727.0 0
287051.0 577826.0 0
291397.0 577235.0 0
296037.0 578163.0 0
301280.0 576291.0 0
307809.0 576776.0 0
313469.0 577260.0 0
317677.0 575948.0 0
325550.0 576818.0 0
321269.0 578521.0 0
330226.0 579035.0 0
334438.0 576646.0 0
339429.0 577002.0 0
346552.0 575361.0 0
351805.0 577022.0 0
356282.0 575058.0 0
355873.0 579416.0 0
360276.0 579767.0 0
365155.0 578946.0 0
369712.0 576485.0 0
375451.0 577134.0 0
380547.0 577166.0 0
384083.0 578922.0 0
389581.0 578142.0 0
398457.0 577997.0 0
401989.0 577589.0 0
406875.0 577193.0 0
411329.0 579994.0 0
416947.0 580200.0 0
421005.0 577909.0 0
425463.0 577867.0 0
430468.0 576369.0 0
429239.0 580648.0 0
436046.0 578415.0 0
441845.0 577634.0 0
445456.0 579522.0 0
450728.0 578075.0 0
456497.0 578310.0 0
460929.0 577210.0 0
467231.0 577449.0 0
471628.0 578450.0 0
475712.0 579799.0 0
482554.0 578824.0 0
493109.0 578217.0 0
497870.0 575996.0 0
497492.0 580488.0 0
3700.7 583407.0 0
14131.5 583229.0 0
19426.7 585074.0 0
23895.9 582084.0 0
28282.7 584185.0 0
33842.7 583804.0 0
40896.2 581673.0 0
46927.6 580827.0 0
51381.6 584281.0 0
57058.4 584590.0 0
61976.8 581003.0 0
67441.9 584096.0 0
73299.5 584427.0 0
77392.8 581345.0 0
86411.1 581531.0 0
81633.0 584090.0 0
91078.1 584002.0 0
95884.9 582382.0 0
100741.0 583285.0 0
106802.0 583373.0 0
114969.0 584672.0 0
118349.0 581298.0 0
122664.0 584067.0 0
128380.0 581734.0 0
134820.0 581715.0 0
140403.0 582522.0 0
145114.0 584273.0 0
149599.0 581624.0 0
154163.0 582558.0 0
159053.0 580884.0 0
164846.0 583122.0 0
168726.0 581281.0 0
172799.0 582692.0 0
178522.0 582395.0 0
183588.0 581173.0 0
188687.0 580652.0 0
194597.0 580929.0 0
199723.0 581168.0 0
203209.0 581795.0 0
207312.0 581392.0 0
212252.0 582640.0 0
217027.0 581917.0 0
221832.0 582333.0 0
227065.0 581191.0 0
231969.0 580694.0 0
236902.0 582782.0 0
241585.0 580339.0 0
246638.0 582637.0 0
251642.0 581429.0 0
256970.0 583264.0 0
263598.0 582734.0 0
268838.0 581274.0 0
273080.0 583000.0 0
277881.0 582433.0 0
283530.0 581374.0 0
288061.0 581361.0 0
292546.0 581781.0 0
295947.0 581599.0 0
299725.0 581985.0 0
305577.0 582987.0 0
311496.0 581931.0 0
316766.0 580318.0 0
320875.0 583010.0 0
325879.0 582058.0 0
332733.0 583533.0 0
337294.0 581390.0 0
341806.0 581281.0 0
346668.0 580776.0 0
351915.0 582502.0 0
363371.0 583188.0 0
367637.0 582168.0 0
371916.0 581221.0 0
376842.0 582128.0 0
381480.0 583014.0 0
386265.0 582427.0 0
390842.0 584136.0 0
394905.0 580679.0 0
400369.0 582012.0 0
406288.0 582993.0 0
413714.0 583997.0 0
422184.0 581886.0 0
426090.0 581951.0 0
432780.0 582874.0 0
428730.0 585128.0 0
436863.0 584105.0 0
441026.0 581880.0 0
448621.0 583389.0 0
453719.0 582672.0 0
458303.0 582991.0 0
462944.0 581372.0 0
467972.0 581665.0 0
472961.0 584179.0 0
478986.0 582971.0 0
484128.0 584768.0 0
487410.0 580648.0 0
488395.0 584673.0 0
491657.0 582780.0 0
494340.0 585664.0 0
497987.0 584768.0 0
3427.34 590120.0 0
9477.3 586086.0 0
14668.1 589197.0 0
19753.6 589871.0 0
24462.6 587770.0 0
29442.8 588873.0 0
34154.7 589254.0 0
38891.2 587082.0 0
44586.5 586217.0 0
48837.2 589040.0 0
53584.8 588902.0 0
59099.0 588943.0 0
61867.7 586154.0 0
65032.7 588420.0 0
75146.9 589070.0 0
77444.5 586044.0 0
86255.9 586620.0 0
81964.4 589287.0 0
90387.5 588605.0 0
95168.9 587574.0 0
100700.0 588461.0 0
105973.0 589520.0 0
111486.0 587149.0 0
118454.0 586169.0 0
121516.0 588948.0 0
127158.0 588453.0 0
132164.0 586174.0 0
137534.0 587092.0 0
142715.0 588828.0 0
149235.0 587099.0 0
154505.0 587281.0 0
160230.0 586937.0 0
165493.0 588711.0 0
168983.0 585852.0 0
173602.0 587946.0 0
177931.0 587170.0 0
182286.0 585960.0 0
187371.0 585763.0 0
193083.0 587329.0 0
198201.0 585150.0 0
203071.0 586390.0 0
208851.0 586656.0 0
214162.0 586645.0 0
218446.0 586382.0 0
222562.0 586524.0 0
226796.0 586093.0 0
232155.0 586197.0 0
238120.0 587044.0 0
242030.0 585402.0 0
247112.0 587680.0 0
252071.0 585960.0 0
257613.0 588157.0 0
261133.0 587440.0 0
268767.0 586386.0 0
273720.0 587476.0 0
278246.0 587252.0 0
283006.0 586574.0 0
287226.0 586877.0 0
291434.0 586405.0 0
295361.0 589506.0 0
295804.0 585103.0 0
300343.0 587815.0 0
305397.0 588147.0 0
310389.0 587693.0 0
316201.0 585704.0 0
323262.0 587441.0 0
328518.0 586748.0 0
332721.0 588072.0 0
341777.0 585961.0 0
336876.0 586700.0 0
347235.0 586435.0 0
352550.0 587803.0 0
357827.0 585038.0 0
367075.0 586985.0 0
362475.0 587150.0 0
372964.0 586598.0 0
378284.0 586710.0 0
387036.0 587410.0 0
382504.0 587723.0 0
391499.0 588393.0 0
395842.0 586250.0 0
401236.0 587340.0 0
406465.0 589028.0 0
410502.0 586374.0 0
414086.0 587536.0 0
418334.0 585819.0 0
423872.0 586802.0 0
433250.0 587736.0 0
443374.0 585403.0 0
439911.0 587269.0 0
446428.0 587881.0 0
452165.0 588016.0 0
456682.0 586463.0 0
460651.0 586945.0 0
465732.0 586175.0 0
470026.0 588938.0 0
475342.0 590090.0 0
480199.0 587782.0 0
484253.0 589636.0 0
490326.0 589739.0 0
497111.0 589431.0 0
2045.62 595046.0 0
8949.7 591198.0 0
6328.48 595035.0 0
12535.7 594572.0 0
18139.6 594474.0 0
22316.8 592235.0 0
26400.5 592595.0 0
32704.2 593303.0 0
37641.7 593284.0 0
43340.0 591789.0 0
48463.5 593844.0 0
56915.2 592639.0 0
62478.8 592645.0 0
69703.3 590538.0 0
74112.5 592983.0 0
78233.2 592612.0 0
86734.5 591757.0 0
82490.4 593935.0 0
92918.4 592556.0 0
97340.8 591700.0 0
102341.0 593252.0 0
106384.0 593893.0 0
110580.0 592171.0 0
116413.0 590934.0 0
121510.0 593492.0 0
126179.0 594170.0 0
133295.0 591059.0 0
138296.0 591772.0 0
142282.0 593692.0 0
146663.0 591953.0 0
151442.0 591439.0 0
156361.0 592339.0 0
161286.0 592111.0 0
165551.0 594090.0 0
170604.0 592307.0 0
176369.0 592173.0 0
182153.0 591504.0 0
188228.0 591322.0 0
193651.0 593422.0 0
198497.0 590323.0 0
202135.0 592988.0 0
205512.0 590899.0 0
212336.0 591105.0 0
216713.0 590924.0 0
215952.0 594690.0 0
220992.0 590793.0 0
226415.0 591344.0 0
231344.0 591265.0 0
236609.0 591813.0 0
242828.0 590872.0 0
247629.0 591763.0 0
251613.0 590489.0 0
256146.0 591970.0 0
260908.0 591730.0 0
265873.0 591296.0 0
270797.0 591213.0 0
275754.0 591867.0 0
281697.0 591248.0 0
286200.0 590957.0 0
287042.0 594617.0 0
290863.0 591378.0 0
296506.0 594281.0 0
301671.0 593260.0 0
307386.0 591334.0 0
311034.0 593010.0 0
306129.0 595134.0 0
315516.0 591322.0 0
320901.0 592318.0 0
325587.0 591099.0 0
330041.0 592037.0 0
335365.0 591390.0 0
341256.0 591668.0 0
347586.0 592580.0 0
353693.0 593116.0 0
360130.0 591613.0 0
366370.0 592762.0 0
371165.0 593901.0 0
374132.0 591282.0 0
378667.0 592125.0 0
383550.0 591743.0 0
388640.0 592728.0 0
392679.0 595403.0 0
393391.0 591690.0 0
397666.0 591036.0 0
402433.0 592399.0 0
408134.0 592237.0 0
411571.0 591122.0 0
417339.0 591648.0 0
422420.0 591295.0 0
427766.0 591310.0 0
432780.0 592290.0 0
437135.0 591296.0 0
442765.0 591842.0 0
448239.0 592047.0 0
453021.0 593849.0 0
457444.0 590725.0 0
461527.0 593432.0 0
465901.0 591433.0 0
471286.0 592694.0 0
476644.0 595223.0 0
480500.0 592503.0 0
485540.0 594556.0 0
492918.0 595366.0 0
497553.0 594561.0 0
3409.44 599499.0 0
8115.01 598918.0 0
12519.6 599530.0 0
20494.7 597887.0 0
17432.5 599926.0 0
23194.6 595990.0 0
23961.3 600197.0 0
29516.2 597195.0 0
36072.4 599300.0 0
41590.0 596315.0 0
41843.3 600511.0 0
45823.3 597330.0 0
50209.0 599253.0 0
53190.9 595896.0 0
57973.1 597439.0 0
62450.0 597803.0 0
71370.0 595867.0 0
66697.2 596319.0 0
75996.1 596981.0 0
81224.6 598847.0 0
87098.7 597437.0 0
96889.7 595972.0 0
92402.8 597429.0 0
101353.0 597905.0 0
106375.0 598249.0 0
112003.0 597769.0 0
118137.0 597716.0 0
123398.0 597759.0 0
130974.0 596468.0 0
136054.0 595458.0 0
140079.0 597944.0 0
147848.0 596894.0 0
143747.0 596895.0 0
152877.0 596031.0 0
157248.0 596860.0 0
161732.0 597148.0 0
168284.0 597471.0 0
173121.0 597604.0 0
178000.0 596682.0 0
182232.0 596749.0 0
187527.0 597123.0 0
192196.0 597545.0 0
198485.0 595878.0 0
203013.0 596467.0 0
208756.0 596394.0 0
214015.0 597921.0 0
220362.0 595973.0 0
225471.0 596868.0 0
230783.0 595960.0 0
235592.0 597268.0 0
240212.0 596648.0 0
246031.0 596827.0 0
253000.0 597117.0 0
259382.0 596641.0 0
264175.0 596745.0 0
268933.0 596110.0 0
273415.0 595746.0 0
278567.0 596660.0 0
283323.0 595541.0 0
291029.0 596852.0 0
300714.0 597955.0 0
295907.0 599902.0 0
310006.0 597294.0 0
315846.0 597504.0 0
326400.0 595968.0 0
321890.0 597523.0 0
331415.0 597490.0 0
337155.0 596605.0 0
342036.0 596615.0 0
346143.0 598176.0 0
350638.0 597062.0 0
357670.0 597682.0 0
363618.0 597742.0 0
368661.0 596933.0 0
372409.0 600240.0 0
375261.0 596372.0 0
379995.0 596678.0 0
384499.0 596364.0 0
389155.0 598037.0 0
397485.0 596540.0 0
401680.0 595884.0 0
402056.0 599143.0 0
406954.0 596327.0 0
413591.0 596234.0 0
418975.0 597093.0 0
423827.0 595448.0 0
428348.0 596922.0 0
433641.0 596994.0 0
438798.0 595466.0 0
437817.0 598955.0 0
442854.0 597587.0 0
448401.0 597161.0 0
457655.0 595628.0 0
454033.0 599085.0 0
461343.0 597970.0 0
466724.0 597088.0 0
472326.0 596648.0 0
476982.0 598812.0 0
480769.0 597561.0 0
489231.0 598397.0 0
493876.0 599571.0 0
497895.0 598972.0 0
2916.27 605031.0 0
8477.33 603719.0 0
14568.7 603834.0 0
20821.1 603315.0 0
27274.6 601046.0 0
25903.9 605259.0 0
30655.9 602548.0 0
34641.6 604440.0 0
39038.1 604086.0 0
46467.2 601746.0 0
50136.9 603814.0 0
54599.0 601960.0 0
60353.2 601896.0 0
65579.1 601342.0 0
72046.6 601936.0 0
78144.3 603387.0 0
85204.6 602188.0 0
81883.8 603142.0 0
91583.2 603014.0 0
97231.9 600913.0 0
102998.0 603540.0 0
109078.0 602782.0 0
113588.0 602386.0 0
116952.0 604850.0 0
121670.0 602534.0 0
127326.0 601097.0 0
133800.0 602395.0 0
140225.0 603338.0 0
144969.0 601049.0 0
149657.0 602360.0 0
154725.0 600931.0 0
159745.0 601460.0 0
167862.0 601407.0 0
163922.0 601588.0 0
171934.0 602580.0 0
177423.0 601952.0 0
183783.0 601797.0 0
192294.0 600606.0 0
188942.0 601804.0 0
197502.0 601678.0 0
203559.0 601198.0 0
213850.0 601388.0 0
209216.0 603450.0 0
217586.0 600761.0 0
222211.0 601081.0 0
227334.0 601733.0 0
232818.0 601657.0 0
238567.0 601495.0 0
242979.0 601073.0 0
247762.0 602548.0 0
251699.0 601927.0 0
255681.0 602691.0 0
260730.0 601804.0 0
265799.0 600846.0 0
271669.0 601765.0 0
276832.0 601065.0 0
282014.0 601646.0 0
287455.0 600491.0 0
291519.0 603151.0 0
300342.0 602302.0 0
305613.0 600764.0 0
311506.0 602144.0 0
316685.0 603955.0 0
321683.0 602327.0 0
327180.0 601457.0 0
332335.0 602162.0 0
341600.0 600910.0 0
336762.0 602053.0 0
347310.0 603093.0 0
352190.0 601505.0 0
357763.0 603949.0 0
363117.0 602801.0 0
367828.0 601351.0 0
371867.0 605162.0 0
376925.0 601417.0 0
382044.0 600797.0 0
387208.0 603147.0 0
393633.0 601711.0 0
399220.0 602512.0 0
405632.0 603257.0 0
411433.0 601306.0 0
417037.0 602307.0 0
423401.0 601111.0 0
429683.0 602270.0 0
435210.0 602153.0 0
440400.0 602381.0 0
445973.0 602417.0 0
451234.0 603063.0 0
458498.0 602364.0 0
464168.0 602393.0 0
469329.0 602209.0 0
473996.0 601103.0 0
472784.0 605649.0 0
478625.0 602347.0 0
482995.0 601466.0 0
487274.0 603042.0 0
492017.0 603226.0 0
496751.0 603428.0 0
1222.8 608728.0 0
6665.22 608112.0 0
11798.3 607457.0 0
18002.2 607314.0 0
22083.2 607969.0 0
31131.7 607381.0 0
36978.3 609101.0 0
41720.8 607395.0 0
45892.0 606597.0 0
52449.6 607978.0 0
58105.0 606684.0 0
63361.3 606109.0 0
67917.8 606024.0 0
71615.0 608008.0 0
76673.6 608496.0 0
81741.8 606874.0 0
86834.4 606662.0 0
91564.0 609008.0 0
97096.8 606780.0 0
101974.0 608809.0 0
107252.0 607758.0 0
112410.0 606952.0 0
118205.0 609684.0 0
122923.0 607677.0 0
128726.0 607293.0 0
135357.0 609145.0 0
139655.0 607476.0 0
144735.0 606018.0 0
148733.0 607581.0 0
153365.0 606415.0 0
158400.0 605710.0 0
163021.0 605837.0 0
168290.0 606280.0 0
173016.0 609899.0 0
174226.0 605587.0 0
177550.0 607425.0 0
181885.0 606717.0 0
186781.0 606837.0 0
192436.0 605511.0 0
197550.0 607323.0 0
201805.0 605820.0 0
205952.0 608732.0 0
214691.0 605709.0 0
219097.0 606277.0 0
222456.0 606306.0 0
226701.0 607389.0 0
231971.0 606694.0 0
237189.0 606620.0 0
242295.0 605711.0 0
242755.0 610296.0 0
246933.0 607380.0 0
252500.0 606315.0 0
256683.0 607318.0 0
261511.0 606979.0 0
267172.0 606447.0 0
272620.0 607568.0 0
277531.0 605621.0 0
282024.0 608423.0 0
286717.0 605585.0 0
291343.0 608235.0 0
296603.0 606085.0 0
302540.0 606588.0 0
307518.0 606124.0 0
308322.0 610509.0 0
312142.0 607229.0 0
320925.0 607302.0 0
316370.0 608814.0 0
326406.0 607415.0 0
331748.0 606701.0 0
337516.0 607685.0 0
342963.0 605763.0 0
347502.0 608179.0 0
352888.0 607355.0 0
358109.0 609462.0 0
366239.0 605754.0 0
362174.0 607127.0 0
368363.0 609983.0 0
376611.0 605920.0 0
380818.0 605654.0 0
378445.0 610130.0 0
384816.0 608312.0 0
391347.0 607734.0 0
396859.0 606661.0 0
401729.0 607454.0 0
408084.0 608755.0 0
412624.0 606303.0 0
417507.0 607970.0 0
421910.0 606099.0 0
426183.0 606570.0 0
432673.0 606366.0 0
429779.0 609254.0 0
437404.0 606902.0 0
442842.0 607033.0 0
448057.0 607631.0 0
452266.0 606885.0 0
456385.0 607467.0 0
461661.0 607186.0 0
467115.0 606891.0 0
474576.0 610737.0 0
477312.0 606778.0 0
482255.0 606209.0 0
488922.0 608131.0 0
493866.0 606532.0 0
493450.0 610443.0 0
497781.0 608080.0 0
2852.57 612376.0 0
8141.36 612260.0 0
13391.3 612185.0 0
18109.5 611808.0 0
22190.7 613798.0 0
27189.6 611245.0 0
32651.3 612982.0 0
37599.9 614470.0 0
42080.7 612063.0 0
47645.2 611442.0 0
52109.8 613594.0 0
56758.8 612003.0 0
62016.4 611071.0 0
67565.5 611285.0 0
73080.6 612794.0 0
78461.4 613611.0 0
84309.5 612207.0 0
89823.1 613503.0 0
94529.6 613215.0 0
99166.8 611991.0 0
104229.0 613104.0 0
109010.0 611989.0 0
112988.0 611534.0 0
116165.0 613612.0 0
122387.0 612430.0 0
128357.0 614689.0 0
134931.0 614343.0 0
139299.0 612531.0 0
143639.0 610995.0 0
147147.0 613389.0 0
151156.0 611655.0 0
157368.0 611220.0 0
163097.0 610611.0 0
167893.0 612099.0 0
178073.0 611988.0 0
183374.0 611505.0 0
188228.0 611338.0 0
192683.0 611046.0 0
197357.0 611969.0 0
202410.0 611222.0 0
208175.0 613159.0 0
212757.0 611011.0 0
217500.0 611144.0 0
222500.0 611013.0 0
227990.0 612675.0 0
232968.0 611296.0 0
237840.0 611513.0 0
241662.0 614927.0 0
247985.0 611657.0 0
252152.0 610529.0 0
256419.0 611543.0 0
260844.0 611988.0 0
265615.0 611646.0 0
270798.0 612678.0 0
276976.0 611698.0 0
282270.0 612822.0 0
286888.0 611474.0 0
292539.0 613337.0 0
298621.0 612374.0 0
304052.0 611208.0 0
306130.0 615462.0 0
312881.0 612410.0 0
318550.0 613334.0 0
323314.0 611421.0 0
327867.0 612649.0 0
333192.0 612066.0 0
337920.0 613574.0 0
342719.0 611474.0 0
346916.0 614945.0 0
351106.0 612364.0 0
356515.0 614739.0 0
362857.0 612703.0 0
373367.0 613195.0 0
382727.0 612910.0 0
388165.0 612875.0 0
393385.0 612594.0 0
398027.0 611725.0 0
403485.0 612212.0 0
408179.0 613700.0 0
412980.0 611547.0 0
417997.0 613071.0 0
422278.0 610626.0 0
426873.0 612840.0 0
434317.0 612084.0 0
440540.0 612160.0 0
446203.0 614097.0 0
452295.0 612017.0 0
459050.0 612640.0 0
464191.0 611237.0 0
469118.0 612230.0 0
479681.0 610768.0 0
484453.0 610611.0 0
484042.0 614729.0 0
488177.0 613265.0 0
497572.0 612689.0 0
1350.52 616280.0 0
5559.29 617195.0 0
10770.2 616786.0 0
17178.2 617011.0 0
23709.4 618736.0 0
28354.7 616591.0 0
33167.9 618339.0 0
38033.7 618960.0 0
42278.3 617203.0 0
46979.0 616584.0 0
51660.6 618324.0 0
57009.8 617560.0 0
62351.9 616314.0 0
67015.5 616214.0 0
71144.4 617745.0 0
75960.8 617840.0 0
81762.4 618655.0 0
87260.2 616987.0 0
92090.7 617758.0 0
97819.0 617319.0 0
103215.0 618747.0 0
108617.0 616845.0 0
113977.0 617341.0 0
119517.0 616748.0 0
124000.0 619426.0 0
128247.0 620692.0 0
133619.0 618641.0 0
138627.0 617018.0 0
143489.0 616023.0 0
147058.0 617232.0 0
151489.0 617454.0 0
157434.0 617563.0 0
162834.0 615800.0 0
167720.0 617098.0 0
173375.0 616191.0 0
177904.0 617188.0 0
181719.0 616702.0 0
187116.0 615971.0 0
193322.0 616973.0 0
198787.0 615969.0 0
202980.0 615816.0 0
207358.0 617503.0 0
212269.0 616406.0 0
217524.0 615913.0 0
222451.0 616037.0 0
226539.0 617201.0 0
231345.0 615972.0 0
236422.0 616243.0 0
247256.0 616759.0 0
253390.0 615819.0 0
258639.0 616183.0 0
256698.0 620469.0 0
262645.0 616009.0 0
267056.0 616512.0 0
273379.0 617068.0 0
277822.0 617196.0 0
281668.0 616327.0 0
283186.0 620430.0 0
286899.0 616675.0 0
290930.0 617845.0 0
296041.0 618343.0 0
301789.0 616650.0 0
310474.0 616392.0 0
314926.0 617824.0 0
319963.0 618362.0 0
325489.0 617966.0 0
331189.0 616990.0 0
335959.0 617558.0 0
341862.0 618141.0 0
351272.0 617786.0 0
347072.0 620035.0 0
356084.0 620572.0 0
361283.0 618798.0 0
368016.0 617033.0 0
373052.0 620246.0 0
378782.0 617537.0 0
384944.0 617310.0 0
389903.0 618076.0 0
394750.0 616912.0 0
400091.0 616841.0 0
404106.0 616071.0 0
407198.0 618585.0 0
413118.0 616916.0 0
418350.0 617761.0 0
422630.0 615603.0 0
427140.0 618090.0 0
431603.0 616486.0 0
436291.0 617308.0 0
441297.0 617898.0 0
446074.0 619260.0 0
451499.0 618712.0 0
457226.0 618135.0 0
462022.0 617440.0 0
467328.0 618352.0 0
473559.0 616818.0 0
479673.0 616526.0 0
487441.0 618732.0 0
493061.0 615954.0 0
497910.0 617976.0 0
2250.38 620888.0 0
5532.6 622944.0 0
10577.3 622718.0 0
17118.1 623497.0 0
22596.2 623491.0 0
27995.7 622069.0 0
33375.1 623791.0 0
38792.5 623748.0 0
42908.5 625508.0 0
47161.1 622379.0 0
53076.5 623297.0 0
58258.5 622847.0 0
63531.7 621643.0 0
68390.1 621370.0 0
72762.0 622308.0 0
77388.8 622369.0 0
82652.1 623572.0 0
87372.9 621385.0 0
92620.7 622931.0 0
98311.6 622847.0 0
102954.0 623452.0 0
107380.0 622038.0 0
112189.0 621447.0 0
117289.0 621335.0 0
121357.0 622851.0 0
125486.0 623621.0 0
132076.0 624203.0 0
137411.0 622006.0 0
142908.0 621285.0 0
148002.0 621194.0 0
153349.0 622870.0 0
162934.0 620886.0 0
158598.0 622900.0 0
167349.0 621637.0 0
172154.0 622062.0 0
177548.0 620934.0 0
182515.0 621618.0 0
186764.0 621031.0 0
190993.0 622625.0 0
197797.0 621803.0 0
203479.0 620755.0 0
208220.0 622025.0 0
213244.0 621533.0 0
218078.0 620964.0 0
222095.0 620935.0 0
225899.0 621485.0 0
230889.0 621479.0 0
236677.0 621464.0 0
242507.0 620873.0 0
248070.0 622301.0 0
252463.0 621965.0 0
261164.0 622442.0 0
266720.0 622311.0 0
272402.0 621688.0 0
277876.0 622441.0 0
288445.0 622120.0 0
293374.0 622756.0 0
297276.0 624219.0 0
301098.0 621246.0 0
307493.0 621567.0 0
313418.0 622765.0 0
318499.0 623131.0 0
323047.0 622494.0 0
327343.0 623499.0 0
332106.0 621883.0 0
337414.0 622979.0 0
342600.0 624090.0 0
351593.0 623217.0 0
347019.0 624010.0 0
359380.0 624203.0 0
364064.0 623260.0 0
368048.0 622102.0 0
377045.0 622798.0 0
372419.0 624699.0 0
382536.0 621224.0 0
386722.0 622160.0 0
392489.0 622460.0 0
397637.0 621702.0 0
402607.0 621393.0 0
406699.0 623599.0 0
411596.0 621910.0 0
417260.0 623064.0 0
422553.0 621006.0 0
427547.0 623287.0 0
432464.0 621255.0 0
437947.0 622225.0 0
443152.0 622978.0 0
448223.0 623016.0 0
452782.0 624474.0 0
457233.0 622757.0 0
462124.0 622547.0 0
467019.0 623655.0 0
472195.0 623016.0 0
477698.0 621646.0 0
482775.0 621553.0 0
488000.0 623838.0 0
492474.0 621499.0 0
497254.0 621942.0 0
POINT_DATA 5000
SCALARS Radius float 1
LOOKUP_TABLE default
5120.0 5840.26 5073.35 5415.48 6182.6 2356.98 5492.18 5258.36 5061.3 5580.89 5645.7 6810.52 6110.27 3850.77 4834.9 6044.04 5085.53 3863.18 4998.37 5867.73 3951.75 4499.64 3163.97 3642.12 5812.43 5122.66 5906.14 5484.19 7513.1 5254.28 4436.4 5733.48 4672.91 3588.44 5176.86 4366.19 5553.16 3672.51 5670.04 5561.06 6716.79 4133.88 4665.12 5546.39 5325.36 5484.83 5538.89 5351.6 4715.55 5013.56 5701.86 4375.68 4238.81 5542.27 5054.98 6030.06 5170.02 3557.27 4927.31 4688.68 4402.52 4517.56 4182.53 5903.42 3761.32 4118.05 5065.13 4940.78 2938.66 4008.92 3615.22 4380.59 7613.27 4951.03 3936.02 4780.03 3383.4 4927.02 6483.19 4094.62 5945.65 6759.9 4730.36 6059.59 2720.68 5926.61 4955.55 3563.63 4345.55 4468.59 5885.03 2837.58 5325.02 5200.76 5017.13 4862.64 5185.34 3673.74 4432.58 5205.43 6684.56 3968.64 3955.56 4688.67 5292.64 2635.86 6166.5 5936.02 4290.3 5305.17 3379.84 4231.61 3942.53 4827.82 3607.45 3589.27 5759.91 4333.2 3038.33 5529.52 5252.48 5495.39 3554.9 3996.0 3856.1 4044.71 5980.74 5109.54 4174.52 6230.49 5418.62 7021.47 5416.38 6051.14 5836.15 4195.44 3261.21 6704.06 3653.41 3871.88 5246.2 5279.39 4390.66 4827.23 6116.18 7447.37 4924.6 4385.06 7184.19 4733.32 3867.67 4861.08 4003.05 5390.22 4805.87 4712.33 5227.21 3997.1 4295.38 3260.67 5123.52 7199.21 4392.68 5255.32 4049.23 6124.89 5337.48 5481.78 5708.81 4015.92 4487.31 5816.2 4002.16 5693.81 3829.13 3091.3 6458.82 4601.27 7054.71 5493.32 5489.43 3641.64 5740.68 4277.89 4796.33 5539.32 6496.85 5600.93 3856.01 4874.39 5541.59 4124.71 5728.85 4911.47 5803.39 5863.59 4381.97 3255.82 6257.19 2812.98 5242.73 4065.69 2899.43 2924.37 5603.15 5399.73 3888.21 4660.72 6038.78 5697.78 4667.36 4091.31 5615.42 4254.17 4523.7 6037.08 6756.95 4151.94 4382.74 5601.05 3586.91 4516.43 4929.8 3103.0 5637.59 5542.21 3307.12 5043.05 4937.14 4138.16 5924.89 4778.34 3486.22 4684.5 5789.98 6138.47 5527.54 5573.7 5747.75 4727.62 5054.25 7325.81 5360.19 4794.96 6186.19 4839.34 5083.08 2980.99 6834.49 6337.56 3998.5 5525.39 5938.34 4024.3 5555.28 4737.14 4686.65 5556.96 4695.45 6052.7 3921.18 5891.05 3798.62 6902.81 6644.76 6372.62 7565.34 5090.24 5091.39 2240.39 5096.78 6324.23 4727.24 3320.52 4329.05 4685.34 5927.43 4651.28 4384.42 6355.42 4362.19 4948.92 3115.91 6084.86 5478.92 5551.36 6894.71 4414.54 2540.31 6029.66 6302.8 5697.4 4270.95 4055.8 5206.78 5555.88 5280.17 6425.26 5143.58 4484.76 4840.01 7933.0 5173.87 6394.38 5380.13 5118.27 5169.36 5834.74 5788.23 5581.75 6392.01 3666.57 5308.1 4937.02 5629.19 4786.6 5923.5 4612.68 4973.83 5293.9 4129.43 3912.37 6142.94 3843.58 4194.5 4602.25 4792.73 4931.38 4736.58 3485.26 6082.81 5110.37 3191.99 6327.9 5492.26 3693.63 5690.56 4493.48 5762.84 4749.8 5810.84 5094.44 4230.54 4467.94 4850.81 6038.14 5120.49 5262.61 5409.61 4306.53 6038.2 4005.44 5713.22 6732.43 5028.96 3183.98 3866.16 6362.12 3778.1 5152.36 5611.2 4511.82 4220.65 6820.42 4455.12 4816.2 4894.16 4896.52 5711.87 3372.79 4941.22 5932.23 5791.61 4479.66 3369.13 5367.2 3043.85 5461.13 6730.19 3599.45 4907.89 4907.06 5655.21 3735.44 4073.93 4645.41 5740.84 5530.87 4433.59 6445.94 4310.18 4281.49 6342.25 6691.39 4270.53 4790.08 5191.63 5082.47 5344.25 5379.87 3708.04 4501.51 5513.6 4556.36 3240.09 4901.41 5664.98 5264.06 4048.37 4659.59 4220.88 5244.78 3937.74 6640.13 5082.6 5478.47 3748.24 6142.37 4655.49 4933.21 6061.47 6163.38 5375.47 4566.18 4723.12 4964.09 5201.36 5024.9 5659.17 5094.81 5972.06 4312.67 5861.71 4359.04 5017.78 3794.63 5015.69 4524.28 4727.24 5826.64 6959.81 5201.67 6321.41 4089.76 4751.02 5184.56 3192.41 5282.64 4715.72 4669.66 4808.52 5607.24 4726.76 5839.13 5495.68 5163.9 6043.3 5952.75 4320.28 5542.14 4218.06 4931.53 7134.64 5978.9 4840.84 4187.56 5344.0 5135.69 4593.7 4763.45 5681.38 4043.57 4478.15 4138.42 5925.6 6013.14 5138.31 4602.86 4621.75 3688.8 3369.23 5358.59 4548.16 4515.71 5449.18 6519.71 3092.35 5210.03 5351.39 5119.37 3982.23 5806.08 4997.27 3459.9 4093.08 4809.42 4717.05 5287.2 6135.57 5998.38 5423.8 4270.24 3417.33 4989.15 4164.13 4642.34 6175.81 4947.52 6677.09 4305.57 4829.35 5813.4 4389.21 3791.79 4424.7 4754.05 5526.55 6084.93 4987.87 3315.57 5804.71 4764.96 5046.33 5727.3 4242.52 5053.92 6352.26 3057.03 3847.38 3818.59 5489.34 4863.72 5002.48 5708.14 5537.72 4262.82 3920.42 6332.36 6122.55 5480.13 2739.94 3629.62 6308.71 4997.27 4716.19 5514.76 4301.06 3456.98 6045.46 3815.26 4290.14 4150.99 5445.87 4216.92 4177.94 3929.19 4107.03 3771.48 4271.69 5198.77 5147.67 4292.06 5987.17 3979.82 5011.31 2765.2 5006.58 5586.81 4581.13 4219.07 4551.24 3610.4 6387.01 5367.52 4322.15 4714.54 5025.39 3629.96 3320.11 5030.91 6022.17 4583.31 4503.89 4336.42 5243.29 4853.39 4449.22 5543.27 5856.11 3327.49 4109.88 4234.94 3960.8 4562.29 4980.85 5013.13 5080.66 5110.45 4926.42 5248.77 4083.97 4520.1 5153.74 5874.89 4293.03 4165.81 6291.51 4128.98 4925.44 4951.47 6246.22 4307.28 5215.15 3697.96 4739.42 5538.93 5020.12 4745.45 5281.28 5356.51 4277.88 4087.15 4143.08 7500.97 6623.85 5102.36 8332.24 6155.31 4223.33 5911.67 5329.64 6695.82 6405.76 4020.32 4877.67 4704.72 4245.72 4571.7 5908.1 4742.68 4344.58 5634.83 5113.21 4502.5 5499.11 5922.5 3970.25 3633.87 5643.58 4850.01 5577.04 6318.18 4481.53 5330.45 3948.17 3856.59 4746.52 5413.79 5572.95 6338.89 6202.55 7111.16 5893.5 3817.13 4547.19 5507.24 6851.54 3813.22 5570.3 4306.11 7589.94 3130.65 5628.24 5004.67 5365.89 5992.26 5070.39 5714.58 4923.9 3329.99 5208.32 3947.47 3296.27 4713.25 4607.02 6243.0 3895.51 4528.09 3556.85 5441.96 5174.89 5882.89 5370.52 4188.32 5246.61 4100.38 5344.77 4723.48 5097.87 4899.11 4278.07 2631.9 7267.18 6255.18 4758.21 4668.71 7228.46 3948.23 6362.14 5228.18 5787.31 5065.11 4342.9 4553.56 5069.84 6049.55 3323.28 5709.62 5835.78 6562.18 3498.2 5794.24 4541.21 4302.5 6048.7 4156.38 5896.46 5495.84 4164.68 6268.1 5782.6 7034.11 6261.42 4862.21 4011.77 4527.08 4374.35 5347.48 2775.04 4810.12 5215.05 4138.46 3821.72 4986.77 5137.34 5077.33 5423.0 3689.45 3824.16 3868.18 6723.16 5584.06 3686.21 6480.17 5023.15 3844.9 4377.07 3695.36 5101.59 3963.86 3848.93 6020.48 5935.47 3402.32 5200.05 5903.66 4528.49 5419.37 4466.03 5409.33 4511.54 4898.94 5196.0 4613.31 4973.78 6119.09 5091.68 7531.29 4204.84 5069.25 5048.89 6673.96 3161.47 3991.03 3435.9 6390.78 7435.25 4288.3 6826.57 4652.29 5774.81 3746.31 5498.32 5027.98 5346.27 6475.1 2691.29 6256.02 5320.92 5269.18 4406.1 5034.59 6719.88 5978.82 3927.99 5868.82 4050.9 4051.44 4241.89 5054.74 5941.72 3066.13 4127.74 2476.04 5105.16 6009.88 6006.16 5316.75 5050.65 4827.33 5022.8 7055.53 6133.92 3784.5 4178.4 3719.84 3471.03 5253.55 5820.48 6946.21 2586.12 6125.34 5965.78 6396.74 6898.19 5526.14 6035.6 5198.29 4044.45 3975.31 5125.78 5344.43 4373.47 5045.38 5350.88 5372.61 5130.91 5402.24 4519.22 6445.22 4564.34 4871.44 5076.35 6375.99 5273.35 5234.29 5313.66 2651.49 5512.23 5275.32 5985.29 4247.23 4178.15 4694.83 4733.04 4354.08 5788.66 4520.62 3903.75 4755.47 5935.03 5475.8 5314.69 4788.87 4495.87 6022.72 3702.37 4643.31 5527.33 2330.66 6917.52 4969.21 2845.98 4880.14 4982.31 5289.52 5314.85 4305.43 5450.44 4942.77 5080.18 5266.5 4454.63 4523.88 4066.38 3279.1 4978.31 4948.98 4099.77 4981.9 4414.48 4537.32 5163.02 5991.09 4656.78 4678.38 5126.91 5448.61 3942.07 7443.72 3937.08 5513.57 5729.23 5013.67 5669.65 5826.04 5934.22 5624.49 3780.23 3095.48 4861.06 3979.26 6608.73 5188.81 4359.62 5011.84 3745.84 6057.22 5433.8 5062.71 5975.63 4497.59 5252.34 4274.61 2965.79 7099.43 4410.55 4287.63 5315.4 6449.45 4516.28 3627.82 5262.19 6070.58 6034.41 5452.83 4959.34 4948.5 4527.02 4591.87 4531.14 4247.15 5013.42 6552.22 3838.56 5651.07 6248.81 5872.05 4853.02 4091.8 4645.58 5181.4 5670.2 4711.62 4114.24 5349.31 4268.65 4649.22 5509.42 5394.55 4256.43 5936.36 5928.32 5229.48 4485.99 5475.7 5127.16 4016.18 5435.74 4244.99 6050.81 5543.46 4249.46 5965.81 3997.96 4750.17 5660.85 4177.19 3990.25 3691.0 4752.51 3587.05 5402.21 6229.37 4989.09 6718.19 4307.48 3848.54 5941.4 6510.17 5331.02 4263.33 5742.65 5592.32 5912.61 4403.98 4560.84 5565.13 5227.52 4729.43 4092.24 4562.74 5776.57 7144.24 5133.97 5371.02 6600.94 5260.34 5206.48 4709.35 6586.45 5339.78 5226.0 4166.08 5762.59 6481.79 5320.28 5960.66 4298.67 3999.48 4962.09 4203.26 4730.41 5696.88 4004.04 5690.26 4156.2 4289.17 5564.02 6072.45 6444.77 6314.07 5776.37 4190.31 5678.96 6048.86 4244.9 4285.32 5490.43 4986.51 5022.28 5197.52 5178.99 5383.07 4790.78 6422.84 4502.18 5379.09 4602.85 5210.48 4962.77 7552.94 6101.92 6259.23 5088.44 4998.21 4662.56 5166.79 2976.22 3405.98 5417.15 3688.16 4681.72 5094.52 4946.74 2682.24 5996.33 3950.63 5415.19 4612.62 3619.07 5526.75 4275.57 6385.23 5327.45 5560.26 2983.99 6185.89 6205.93 4439.35 3460.94 6184.4 3758.07 3828.81 4373.45 4236.14 4407.87 5282.51 5282.91 3797.33 4425.84 7256.35 4871.96 4800.69 4863.23 4402.67 5381.16 4470.61 6193.35 6086.96 5233.78 3701.27 4806.34 5683.26 3600.43 5598.74 4906.82 5131.24 4788.58 5196.67 6155.1 6496.67 5876.71 5474.8 4373.3 4750.78 5029.78 5374.51 3365.82 4123.6 5224.12 7092.87 4970.88 4850.14 6739.08 4569.12 3637.61 4796.58 6098.14 4472.17 5873.69 6222.42 5470.77 5654.31 4643.85 3923.03 6062.05 5607.14 5082.74 6915.83 5092.37 4027.46 4470.98 5759.46 5083.41 3921.08 7055.42 5486.68 5100.25 6894.26 5311.03 5339.38 6169.11 5615.35 5172.53 4027.09 4135.62 5801.99 5534.94 7644.38 4051.34 3627.55 5323.3 4635.6 4256.67 3457.48 3931.07 6079.11 6430.39 7440.72 3949.6 4945.39 6326.18 5661.62 6631.19 6648.68 4467.04 5626.61 5817.25 2614.4 5061.98 6363.92 4537.6 4923.24 5830.72 7177.44 5309.98 4082.57 5733.62 5169.9 3004.16 4460.92 5945.89 4042.28 4105.55 4340.76 6566.1 3555.86 6065.22 6386.78 4996.99 4631.83 4384.88 6887.27 6008.49 4220.46 5653.9 5046.21 5894.61 5687.83 5004.23 6442.69 6320.71 6262.72 4648.04 4163.5 3664.11 6607.87 4143.78 4538.95 5965.15 4763.66 4666.81 7042.12 4797.52 4471.58 6343.14 5501.93 5463.38 5945.21 5750.71 3493.7 4938.74 3474.39 6470.3 4831.47 4200.03 6939.12 5411.85 4735.33 4413.85 4844.57 3999.94 4864.22 6171.13 2395.5 3901.8 5511.88 4512.11 6248.6 3836.45 5683.61 5443.58 4558.46 5805.86 4049.02 5346.68 4470.4 4611.53 5255.12 4285.66 4896.11 4238.4 4318.48 6132.95 5266.22 4860.33 3685.13 3312.06 6004.68 6799.4 6239.84 5865.39 4427.28 3082.32 5949.46 3658.37 4765.02 5376.71 5703.6 4807.28 4867.08 4266.03 5280.69 4220.03 4713.74 6923.84 5407.78 4084.49 5449.46 6632.99 6113.54 5147.36 4419.61 3963.76 4563.46 6553.94 5255.18 5460.65 4767.78 5235.17 4779.5 4421.12 4435.36 5254.49 6649.96 4221.28 4456.39 4896.39 3633.79 6081.14 5480.83 5421.53 4607.85 4287.53 5612.21 4929.14 6000.7 5945.08 3979.54 5139.5 7493.3 4814.55 5944.09 5833.06 3527.05 5698.77 3464.83 6515.84 5724.64 5117.47 2990.77 3163.78 4925.63 4888.6 4780.2 5078.86 4918.77 5163.55 6326.39 6817.32 4319.79 6643.85 5960.56 4020.95 5774.97 5462.21 6313.06 5374.98 6345.13 5274.19 4719.7 5516.95 4406.4 5313.22 5563.79 3905.51 6853.85 3497.9 4020.4 3493.47 4596.75 5941.61 5782.48 4933.65 4031.78 6098.1 5708.99 5687.85 6401.43 5020.71 5296.29 5997.88 5094.48 2681.29 3872.61 5576.92 6408.83 3930.79 4004.35 5226.97 5754.18 5180.76 3418.99 3361.26 4480.95 5278.36 4409.63 5521.25 3661.9 5370.85 5136.08 3178.54 3776.94 5558.68 5629.39 4448.13 2684.03 5070.29 4768.61 2261.36 4522.21 5075.55 5506.19 6719.94 5227.59 6179.96 5703.07 5294.77 4662.43 6260.79 4043.66 5528.53 6799.88 3062.43 5726.66 5426.78 5652.0 2967.38 4159.35 5463.41 5225.33 4237.98 4929.75 6045.22 4614.3 5134.39 4303.19 5514.84 3914.2 4256.57 6088.68 5937.08 4135.08 6070.3 5128.57 5233.29 5604.21 3169.67 4968.03 5204.04 5304.13 5490.58 4863.79 4702.06 2477.07 4923.41 4497.31 4721.32 4305.16 3293.56 5882.65 5092.28 4739.14 4434.19 4636.5 5100.1 4819.73 3382.7 4940.42 6471.55 3954.91 5085.71 3295.83 5644.82 2965.01 6413.02 6263.44 4863.27 3492.19 5122.63 4118.84 5862.86 6766.43 6049.79 2315.64 4703.08 4390.41 5226.56 6113.95 5599.49 4050.08 4097.57 5452.42 5017.5 5328.22 4151.76 4216.17 6484.17 4721.02 4254.37 3374.08 5564.23 5950.04 4231.83 4074.48 2435.33 6333.29 4558.47 5731.57 5839.71 5662.55 4360.23 6234.32 5365.24 5293.51 4763.96 4446.06 5008.63 4270.74 5132.68 6595.03 4993.35 4983.39 6218.95 5222.16 5107.23 5533.42 4802.32 4010.57 4599.38 5246.47 6157.04 6191.29 7422.36 5161.01 4298.15 4950.67 5832.37 4628.4 6166.29 5453.6 5409.63 4263.16 4709.05 3077.84 4630.82 6024.75 4813.08 6109.49 5860.67 4540.86 5990.52 4835.83 5604.35 6477.91 3091.67 6439.37 4081.97 5401.99 5580.92 5784.3 3532.3 5769.98 3583.21 5442.32 2221.99 4643.56 5620.74 4863.01 5356.79 4778.82 4612.06 4312.56 6124.08 5467.84 3361.92 3306.14 4750.58 6710.88 5395.14 3967.48 6213.04 3830.46 6031.67 6413.11 5384.76 5274.14 5529.42 4903.82 5257.12 5746.28 4371.99 3703.1 5187.7 4946.42 6090.91 3561.29 5923.4 4219.78 4963.34 5081.78 4188.3 4459.28 5499.39 4260.92 4407.9 4440.57 4584.5 6235.57 5548.29 5412.31 3623.87 5916.16 4890.5 6934.37 4488.85 3731.84 3981.07 3554.48 4901.07 5186.3 3436.15 5005.85 5711.11 4575.94 4938.72 5021.88 3546.71 5956.65 5768.57 4498.25 4188.87 3735.24 5151.21 6574.95 6817.57 3614.96 4477.04 3886.68 5703.74 4747.55 5737.92 3056.7 3755.95 5591.76 4585.31 4586.19 6625.18 5323.91 3450.93 5097.45 6293.89 5737.75 4558.15 2761.07 3778.02 5366.52 4690.55 5533.72 5146.37 7132.12 3678.08 5518.57 4187.31 5463.48 5151.11 3240.51 4527.99 4376.7 5190.61 8325.01 6051.83 4642.93 4440.81 5941.9 3973.12 6642.76 4497.78 5567.93 5987.42 5332.65 4442.22 3764.1 6451.33 5413.31 6316.56 4332.87 6420.81 4715.58 5208.14 3317.83 4450.7 5151.52 5973.33 4347.74 5291.9 5067.46 3580.58 2511.46 4011.37 5657.36 6519.43 3619.79 5029.47 5053.95 5926.11 6667.68 5253.37 5235.11 5767.9 5211.38 6622.11 4689.15 6138.12 4965.89 4428.78 5243.43 5659.95 5409.66 4152.85 4082.47 4537.14 4623.61 5551.9 4453.64 5019.93 5511.6 3885.86 5235.29 5177.64 4517.73 4255.31 5660.16 6116.33 6134.99 4479.94 6250.23 4718.54 3838.47 2588.37 6736.03 5203.08 3087.09 5374.07 7480.41 5163.77 3766.55 6027.62 3423.15 4579.69 5010.2 6123.03 6496.52 5966.61 4893.49 5325.44 5102.75 4597.29 4200.09 5931.77 5108.06 5398.64 3573.73 4693.52 6853.04 3420.08 4745.43 5831.96 5464.68 4539.07 4475.83 2685.81 4510.8 5889.35 5010.04 4394.56 4570.98 4275.07 5825.38 4185.61 4047.87 5742.47 4917.99 6552.21 4367.78 5417.8 5227.02 5670.0 4836.16 4232.16 5300.96 4344.51 5680.94 5730.33 5545.46 5581.55 5193.01 4543.1 6550.44 3860.83 3764.06 4523.39 5278.56 5434.47 6917.62 5829.22 5631.14 4243.79 5811.18 5433.65 4008.15 4887.76 4669.06 4811.32 3012.99 6400.08 4286.49 4743.59 5829.32 4396.25 3763.05 5092.24 5369.08 3101.75 4518.04 4009.62 4766.06 4874.18 2081.58 6505.78 2775.69 4785.25 5876.64 4270.15 6306.21 5424.46 5266.01 2978.76 2040.66 7016.27 6515.8 5089.62 3685.13 4590.55 6790.73 4655.16 4741.26 5920.32 3701.16 4186.6 5251.4 4345.67 3867.19 4765.72 5857.79 6261.75 2908.7 3757.34 6415.61 4338.08 4752.14 4378.3 4419.71 4950.97 5037.06 4541.8 5175.29 4094.73 5842.56 5453.3 5191.08 4062.5 5887.15 4435.51 5415.85 8659.64 4588.7 5683.95 5469.13 5765.42 6098.95 5453.98 4997.83 5148.08 3991.42 4388.63 3718.69 4514.79 4834.87 2216.82 3672.21 5760.22 5938.17 4795.43 5097.95 2928.82 4914.45 4222.4 4698.87 4000.43 4661.03 4568.41 3624.7 4912.04 5262.35 4691.91 4255.34 5064.79 5480.3 7509.24 5896.26 5388.78 6101.13 4573.72 5099.21 6969.28 5636.4 5698.96 4350.12 4095.75 3603.51 4298.45 5222.51 6609.84 5135.96 3834.43 3781.77 5658.37 4707.06 6074.94 3474.5 5491.37 4250.88 6348.03 5732.27 3475.67 4792.39 5146.37 4013.38 6137.8 4343.78 3352.35 5263.3 4909.65 6523.86 7693.4 4326.48 4437.07 6184.88 5491.9 6405.0 5551.95 3918.87 4659.16 5549.49 4633.05 5423.42 6605.86 5012.5 5435.19 5461.55 3298.2 4953.1 6865.76 6449.64 4857.84 4908.49 4962.21 5884.9 4749.59 3468.42 3685.65 4673.35 3876.21 5689.26 5869.4 4916.22 4992.42 5297.19 6022.7 4255.85 5097.69 5895.77 4732.09 3988.3 6136.49 4642.66 4039.91 5276.7 4687.64 5469.47 5036.58 4888.12 6119.63 4244.21 5411.02 5512.16 4989.56 3197.63 4287.16 4863.96 3645.12 5199.44 6200.54 5424.88 4199.45 7234.66 6599.66 4055.54 4886.12 6419.12 6107.89 4233.8 4976.12 4446.84 4817.16 5660.55 5653.03 6192.0 4509.89 4940.28 5885.28 6752.75 5269.38 3004.34 5607.3 3022.6 4811.76 5313.12 5351.56 3984.88 5318.53 5160.59 4732.09 4320.42 4281.98 7165.9 5344.83 7046.11 3427.63 4146.81 6342.48 5756.75 4587.67 5599.7 4163.74 3924.14 6918.35 3665.95 4296.69 6238.32 3319.67 6471.42 5283.8 4076.59 5164.1 6464.15 4972.17 5699.53 4222.77 3783.54 5268.38 5527.23 7038.89 4805.33 3863.67 4814.12 5980.95 5067.56 6193.08 6069.3 5887.01 2735.53 5116.6 3747.03 5388.39 2783.85 4356.49 4526.81 3994.07 4219.94 3449.37 5907.46 6740.71 4264.91 5399.29 5789.55 2275.45 4909.31 4901.2 6522.59 5711.62 3562.79 4383.56 4990.79 7093.13 4516.53 2895.63 5818.95 4093.99 3940.49 6464.8 4684.44 4680.94 4858.44 5828.35 5799.69 5571.72 3809.69 4771.13 7051.9 4940.84 4608.41 4184.23 4833.46 5750.07 5933.7 6543.13 5149.72 4356.25 4757.74 5776.96 5329.59 4209.49 5464.25 5742.74 3821.94 3946.28 5984.81 5439.9 3498.16 4209.31 4752.9 5486.48 5301.47 4617.55 4947.24 4588.99 3875.05 3456.47 3540.11 5471.74 4652.01 4344.34 5148.58 3548.39 5421.64 3673.28 4207.54 4858.51 4366.74 3375.28 5297.16 5625.65 4301.61 4936.96 3184.64 5206.33 5530.49 5065.26 4304.41 5578.94 7610.49 4286.17 6579.31 5323.55 5452.36 5375.1 3804.5 4172.6 5498.42 4196.37 3344.57 6448.66 5220.76 6945.98 5138.2 5783.48 4701.5 4449.98 4504.35 4863.97 4771.65 4840.44 5093.82 5951.81 5212.43 4834.3 6804.79 6372.13 5369.5 4428.14 5404.01 6016.19 4124.49 4479.11 3230.13 5714.25 6685.4 5325.96 4850.06 6332.01 7044.29 4234.18 7085.01 3936.95 3862.77 4631.99 5168.35 3185.39 3728.18 5128.77 5335.47 5633.61 5048.19 6799.23 4888.27 6487.56 4854.11 5971.22 5533.19 5417.21 6602.43 4798.17 3568.28 5425.98 5166.79 6479.39 4122.92 4997.91 3604.14 5079.22 4599.81 5381.54 4452.54 5810.77 4406.05 5089.1 2711.19 4028.32 5876.72 5236.43 3208.96 4884.59 5285.07 3858.06 4680.14 4083.79 4351.38 4144.57 4187.94 5550.75 5980.59 6834.41 4809.67 7248.4 6045.67 4216.95 5466.33 5280.12 7216.98 4444.97 3000.29 5721.05 7013.17 4409.27 4247.69 5367.73 4514.39 4640.06 6242.79 4321.21 5950.45 5088.57 5713.03 5849.65 3583.49 4928.27 5052.84 4165.21 4215.0 4603.5 4481.76 4647.67 5375.12 5452.78 4787.97 4892.44 4356.36 3746.36 6789.23 3989.7 4777.03 4246.61 3684.56 6028.09 5327.75 4609.02 6486.37 4638.18 5211.6 3556.79 4453.97 3503.41 7317.04 6412.67 7001.83 5012.97 5589.37 5439.49 6639.64 3687.65 5454.12 5478.95 6348.54 4066.57 5642.35 5156.76 6357.47 4891.38 5535.91 5955.86 6176.67 4848.46 5412.24 5016.02 4581.37 4920.21 4049.16 5851.61 6153.94 5478.11 6836.82 3858.17 3477.1 4740.98 4078.93 5934.82 4501.78 7122.87 5797.36 4243.26 5001.58 5119.86 4153.84 4592.15 5089.26 5084.17 4901.44 3776.8 4998.22 5096.43 6156.21 6104.26 5583.61 6063.64 5996.66 4986.71 7382.3 4405.42 2995.67 4022.56 3598.08 5522.21 5698.23 7300.58 4714.83 5474.15 7519.2 4099.92 5217.95 6355.68 4478.6 5484.36 4511.7 4304.63 5263.27 6300.92 5021.77 3796.15 6226.14 5599.29 4801.8 6038.68 5046.12 5271.02 6329.53 3805.67 5718.28 4601.74 6101.86 6506.86 4227.41 5993.0 5580.34 3852.6 5134.67 4110.59 5775.31 3332.49 4847.14 4706.5 3950.27 5354.66 4214.44 3566.79 3629.44 5378.23 5374.67 4981.43 4741.28 4215.2 5069.89 4157.29 5107.0 6212.15 6813.72 4783.07 4946.23 4896.65 6083.28 6100.73 5806.31 4745.79 5456.71 4908.75 3971.08 6204.65 4482.9 4593.7 4349.13 4036.91 4891.67 5110.11 6379.14 3634.5 5216.26 4887.52 3851.85 6571.31 6318.23 4206.98 4058.87 5174.75 5932.07 6101.57 5948.71 4793.65 2949.12 3856.53 4532.89 5460.89 4533.37 5260.85 5742.09 2779.99 5887.38 2884.65 5807.46 6942.34 3658.05 4549.69 6423.81 5526.31 5030.15 6192.77 3644.78 4312.15 6418.11 6015.02 4922.49 3572.94 5585.14 7039.98 4820.17 4729.42 5244.98 3886.72 5415.45 6592.93 6350.71 6436.74 2460.79 4456.11 4653.83 6171.71 3628.89 4668.88 5027.43 3772.3 4855.01 5867.64 3608.06 6208.9 4923.57 6633.61 3340.09 6061.63 4867.7 2279.05 4829.35 3953.55 4075.28 4063.9 4277.24 4469.54 4314.56 5291.05 5161.1 3928.53 4173.54 4619.2 5606.51 5740.65 5166.41 7104.73 3834.47 5067.56 2596.96 4807.4 4350.15 4590.01 4139.3 3516.27 6541.45 4263.78 4750.49 5078.31 4803.57 5391.48 4923.43 5966.42 5131.15 5210.38 5717.8 4811.22 5116.66 3683.86 4918.76 5003.78 3299.24 6246.56 4061.6 2603.64 5473.72 2856.55 2205.51 6214.73 4553.68 5361.87 6502.97 3758.22 4757.2 4852.58 3205.68 4532.7 5561.74 5975.23 4788.08 4198.94 5470.04 4211.82 6556.26 5684.25 5438.92 6550.4 3766.69 5513.8 6818.91 3503.65 6631.28 4027.63 5350.88 5420.67 4392.65 6413.15 6103.11 5048.55 4984.46 6459.51 4024.31 5844.72 3992.97 5989.05 6040.74 4054.22 7228.94 5393.65 4961.99 4648.21 4393.16 4595.12 3311.29 3110.13 6484.43 4458.64 3485.54 4583.52 3492.83 6280.13 5244.22 5832.29 4438.76 6456.58 4159.81 4960.64 3965.3 5792.98 4385.81 4034.05 5690.96 5798.38 3862.91 4125.9 5096.24 5039.12 3908.98 6589.82 6328.42 7307.21 5522.75 3381.82 3619.72 4646.51 4438.58 6059.93 4565.93 5602.53 5073.02 6545.43 6760.92 4989.2 8137.11 5484.32 6650.77 4506.18 4067.96 4824.12 6542.5 4383.47 6162.3 6349.67 4264.54 5262.47 5261.19 7043.44 4263.65 3831.52 4643.9 6106.43 5228.75 6047.14 5009.83 5467.63 5666.95 3919.62 4642.2 4127.53 5210.75 4474.83 6555.44 5293.75 5658.14 4208.41 5730.61 5826.78 4508.18 5175.89 3894.64 3703.49 6618.21 4268.19 5232.85 4374.74 4062.56 3717.47 6200.63 4504.86 3217.67 4473.29 5079.64 6163.54 996.652 5212.37 6003.78 2628.22 5058.51 4244.49 4901.29 5036.98 4775.04 5188.53 4521.75 5569.2 3429.57 5410.33 4642.74 6735.97 5305.59 5416.45 4330.58 5754.6 4955.16 3288.01 4904.51 4147.31 2202.77 5751.15 5950.88 4149.55 4441.22 5853.89 6551.93 3380.69 4386.8 4140.4 5446.4 4725.01 4625.67 5966.75 5510.9 3657.69 4505.28 4883.63 4971.29 3684.15 5510.45 4730.14 2606.51 3994.39 6006.89 4618.73 3814.65 4128.1 5372.82 4983.3 7778.01 5127.82 5124.17 5805.1 5366.11 4064.58 3419.87 4234.88 4824.81 4384.28 5769.14 5944.3 3563.14 5135.5 5347.9 5640.72 5851.63 4504.52 7107.63 4831.93 5788.97 3472.91 4928.85 4023.93 5868.89 4711.04 7144.05 5007.21 5610.53 2970.9 4099.26 5206.47 4580.06 4834.39 5971.21 3926.11 5493.89 5701.75 3272.75 7066.96 3104.96 3512.94 4467.0 4991.35 4258.98 4587.7 5196.92 4807.35 3787.08 6761.81 3903.91 4568.64 4728.55 4929.6 4368.28 5750.35 4692.32 4489.99 4548.45 4658.11 4551.26 5114.07 4385.49 7124.45 6358.93 4383.68 5064.67 5836.26 2617.39 5144.44 4051.18 5969.37 6816.66 5034.69 3844.54 4509.46 3538.53 4680.69 4420.11 6500.49 5965.58 3352.34 4972.18 4607.18 4124.76 4050.03 7200.89 4120.07 4952.52 4882.66 3840.21 6746.66 4954.76 3908.56 5244.78 3636.15 6114.89 5135.63 6384.7 4355.83 6870.97 5351.86 6056.87 5474.01 6201.86 7554.58 5166.89 3639.44 5491.63 5725.37 3868.62 5138.33 3743.76 3425.69 6711.21 4236.86 5393.76 4941.02 3864.92 6119.99 2955.36 3668.93 4009.24 4446.58 4402.17 5401.4 5053.15 5910.86 6239.68 7320.78 4834.44 5782.43 4456.26 5113.6 3873.92 4810.98 5091.22 6282.38 4546.44 5657.55 5727.79 5212.92 5615.84 5043.14 4464.73 4717.73 6440.38 5556.0 3904.07 3274.85 5545.59 5494.28 4954.81 6304.49 5755.15 4835.97 4608.34 6419.64 4057.17 2781.96 4431.23 4994.65 5917.34 5601.55 4462.87 5644.81 4013.86 6545.99 5334.36 5630.9 4554.68 4512.07 5984.8 4945.0 5236.24 3127.83 4212.15 5678.58 6570.35 4263.18 7142.95 4559.74 6666.67 6015.22 6063.44 4583.94 5046.31 4928.35 1937.5 5241.75 5849.53 4651.99 4788.7 5863.0 6127.39 5640.12 5329.76 3899.7 2403.72 4147.49 4813.33 4802.98 4833.55 4081.34 7224.99 6334.53 4844.83 5377.37 5652.87 5483.7 5018.69 3152.86 5952.38 3896.27 5807.52 5963.36 5230.02 5307.35 4342.18 5169.48 6016.08 4731.21 3124.7 6064.71 6102.98 6060.17 5153.18 4763.4 5902.67 5454.11 5806.61 4983.1 6010.59 7123.04 5906.57 7541.76 4775.49 4681.29 3220.29 5499.59 5749.6 3845.9 4141.21 4439.71 5667.51 4174.44 4708.31 4027.33 4198.9 5431.29 5026.76 4833.67 5023.41 5325.91 4092.07 4213.05 4224.3 4184.21 6203.03 4700.07 5235.87 5188.82 5273.37 4732.37 4985.3 5072.5 5713.36 5748.9 4749.18 5553.94 3663.0 3742.31 4546.96 5424.55 5134.72 5695.79 5287.25 5464.83 3622.8 5414.58 4770.51 5577.41 6511.37 5740.98 4012.92 4346.07 5759.79 4177.47 5218.42 4218.16 2918.64 6139.64 4140.92 4896.43 5463.06 4639.8 4585.04 3986.41 5260.52 3185.09 5114.23 4242.63 5495.0 3269.54 7407.91 5064.23 6061.85 4454.74 5512.44 2904.46 4826.52 5120.92 4337.32 6240.42 4731.53 5146.0 3763.9 5721.14 4577.73 5084.5 4918.64 6638.25 5078.59 5134.33 4759.99 2646.13 5419.57 5162.67 5760.98 3646.95 4705.68 5469.35 5384.86 4749.96 4658.24 5869.67 4311.48 4899.73 5457.66 6394.19 5973.89 5366.22 6193.73 5518.11 5087.14 5712.35 5701.52 4743.9 6776.22 5321.17 3719.11 4467.13 3877.8 6273.6 5136.87 5024.32 3779.45 4708.17 2741.2 5790.42 5784.37 3142.09 3682.35 5591.77 3756.96 5182.13 6110.48 6245.52 4932.29 4990.23 3954.77 3784.94 6016.87 3125.13 6715.73 4564.41 6331.74 5951.86 4252.18 4659.88 3791.41 5853.12 5157.38 4208.37 5702.4 5069.9 5473.89 6089.45 5810.17 5265.21 4966.07 4657.24 4400.14 3669.32 5866.42 4704.92 4762.1 4316.0 3987.69 4287.25 4392.75 4921.1 3814.16 4271.07 4420.6 4475.38 4589.06 4920.88 4184.47 4216.44 3999.5 6710.14 5034.05 4598.54 4816.51 5345.73 4933.49 4770.63 3990.94 4756.8 5477.8 4462.35 6069.78 4241.68 6102.49 3469.18 2945.34 3372.95 4489.29 4301.93 5846.95 5268.15 5819.0 6449.06 4924.07 4685.4 3200.6 4629.02 5914.5 6006.16 4288.45 4987.28 6206.98 6562.03 4815.47 4368.12 4365.58 5214.4 4636.53 3629.49 5766.05 5117.64 3835.81 4019.34 4869.48 3623.19 4906.11 4387.39 4564.1 5825.55 5509.51 4848.14 4316.5 3199.4 5254.24 3742.11 4192.21 3597.43 5144.56 4158.91 5311.55 3360.86 3034.16 4869.25 5545.21 4333.87 5684.05 3667.93 5638.7 5813.79 4644.88 5293.13 7350.26 3768.46 5167.53 5003.3 4168.52 5800.81 5106.46 6793.1 5166.05 4506.66 5515.73 5209.55 5426.4 5763.05 5129.68 5357.39 5076.84 5247.01 4841.7 5685.74 952.938 6740.35 4678.7 3450.07 3673.6 3306.84 6215.87 5191.26 6060.06 5544.27 3484.81 6502.99 4666.12 6219.34 4191.01 6023.07 5674.63 5340.05 5995.4 5890.25 5700.79 4726.2 4426.02 4711.15 5188.22 3825.48 4841.23 4357.11 2804.54 5005.6 4176.32 5486.89 7208.19 5532.75 6949.65 4095.83 4975.85 5695.25 5676.61 5716.42 5701.63 4620.95 6347.72 3460.93 5124.86 4927.73 4602.57 4608.62 3565.32 5407.96 4071.75 4626.72 4410.82 5549.71 6443.99 3889.98 5193.58 5399.43 5695.44 3916.42 3422.21 5429.3 5510.96 6653.07 4745.16 4697.91 4584.81 5071.98 5719.79 4371.08 7261.51 4968.14 4914.03 5086.29 5527.13 5139.18 5551.43 4278.57 5049.99 4201.03 5001.87 4493.79 4279.44 4899.19 5058.34 4028.22 3918.94 5575.11 5487.63 3852.82 4507.36 7145.73 5403.97 4795.08 6562.92 4068.31 3671.06 5501.73 5077.29 3612.44 7035.54 4850.5 5233.76 5866.91 6405.69 2820.07 5679.74 4825.73 4165.36 5288.33 6296.54 5797.21 6019.35 6028.63 4550.92 5146.1 6485.77 3869.39 5960.5 5308.33 6896.55 4685.65 5377.01 6470.23 6506.63 4140.04 5322.11 3495.3 4697.49 5735.08 7133.44 4750.81 3953.26 4474.39 4658.59 3810.68 4196.62 2809.19 5453.77 4916.7 4549.51 5025.42 3587.93 5196.08 4517.29 4495.75 5323.95 6171.01 5796.26 4603.04 5368.93 4488.39 6121.56 7168.2 3763.85 3419.07 5710.33 5344.44 6432.8 5131.77 3186.07 4369.86 4967.51 5173.82 7212.97 5490.64 5034.34 4507.46 3769.2 5036.14 5603.68 4944.51 5610.95 5532.72 3220.8 5179.17 5579.39 5270.51 5148.1 5490.75 5224.64 5949.73 4312.48 6370.33 5081.08 6318.25 6864.06 6008.81 4932.56 5192.49 3487.31 6643.4 4674.9 5461.72 6599.28 6224.85 4556.19 5368.66 5648.78 4697.24 5226.42 4983.43 6311.89 4683.28 4217.36 6549.8 4851.18 5368.52 4871.77 5155.28 5811.26 5062.77 4884.93 6075.99 5262.79 5927.2 5035.71 4419.79 5407.69 5152.78 4117.9 5393.43 4753.76 4781.9 4638.09 4441.91 5330.26 5939.22 4668.8 4215.05 5125.17 4271.93 4859.01 4604.1 5524.45 5990.75 5600.21 5467.51 5459.92 6478.35 5114.67 4104.04 2638.82 5589.53 5030.33 5593.79 4965.24 6379.38 6257.79 4849.5 6229.83 4468.26 4870.94 5578.18 5293.37 5271.88 5559.79 5879.24 4571.74 4096.86 3622.48 5001.51 5385.86 5115.42 4082.4 5482.76 3745.02 3720.7 4211.36 5698.53 3604.31 4450.49 3856.73 3468.45 5635.32 4526.34 4316.45 5409.08 5042.75 4598.92 5241.22 6647.08 4979.52 3422.29 4407.79 5214.63 3495.68 5783.94 3990.96 5352.24 7362.42 4202.77 5836.14 5473.05 5537.34 5884.99 5726.42 7025.09 4433.12 2549.95 3392.26 4361.24 5138.93 6406.8 7086.69 6875.73 6170.9 4436.48 6081.3 5117.52 5615.35 3967.76 6734.39 5942.45 4228.53 4150.76 5005.72 6142.88 5111.26 5388.73 5205.38 4764.83 4600.71 3957.38 4494.15 4710.88 6889.5 5300.17 4057.4 5534.23 6025.77 6815.96 5339.6 5828.25 4725.11 3626.86 6371.96 5322.07 5076.11 5770.07 5101.6 4282.11 6589.13 4625.53 4096.47 2347.41 4542.16 3543.37 5353.66 5527.27 5234.2 5104.39 4612.13 5846.6 5327.05 5438.55 5353.23 4434.65 5977.66 4523.81 5106.33 5198.94 5933.54 5464.05 2980.31 3148.79 5740.78 4796.12 5997.91 4742.82 6791.86 4209.0 4930.72 5728.58 4887.73 6297.99 5378.24 4538.89 5817.74 5887.71 5661.6 4827.61 5285.75 5385.03 5481.64 5673.75 5360.67 5968.54 6263.3 4501.05 4537.03 6548.29 4114.2 4326.06 5034.46 5757.29 5793.12 5469.17 5061.75 4373.2 3769.24 6022.78 4087.32 6647.85 2569.12 5161.74 7336.37 5099.9 6945.69 5118.86 4183.4 4304.64 4733.79 5833.78 4823.06 5758.98 5288.64 5254.49 6213.24 5987.88 3579.59 6161.94 6123.46 5057.59 4461.14 5285.6 4574.54 4949.55 3132.34 1969.87 4841.28 5203.54 5507.38 4047.95 6142.94 5001.69 4416.87 6581.56 4052.43 3980.46 4896.67 5383.9 3934.11 5158.44 4466.22 6153.71 5917.08 5483.37 5418.12 5934.05 4714.66 6771.18 4984.17 4656.01 4037.86 5602.62 2030.03 5714.51 5628.97 4484.78 5157.73 5847.91 4934.66 4109.44 4903.84 4290.49 6688.53 5209.5 5065.74 5791.25 4028.35 4873.23 5410.6 5453.2 6348.93 6824.53 4332.64 5232.16 4422.23 4820.68 6031.22 5485.84 6424.77 5453.69 5918.95 5689.56 6556.86 3242.31 6099.28 3234.26 5372.25 4169.15 4778.37 5134.17 4074.16 4904.35 5592.54 3247.97 5124.34 4904.37 4358.81 4651.64 5729.92 5016.46 6224.13 4761.84 3661.67 5517.65 4009.68 4622.73 3303.49 4161.32 5256.75 6351.89 5932.28 2960.5 4298.7 4975.32 3902.48 6030.39 4905.53 3799.01 7392.65 3757.23 5319.1 6828.8 6883.86 3350.99 4065.28 4745.37 5939.29 5418.98 5575.11 5615.06 4052.49 5490.54 5326.03 6189.67 4948.96 5256.82 4061.87 4013.86 5165.31 3798.09 4288.5 3886.56 5715.51 4496.51 4511.05 6561.94 5259.21 5092.93 2803.01 4444.0 6182.19 5327.39 5781.62 4981.81 4138.59 4970.55 4938.33 4621.33 4541.22 4946.08 4984.01 3539.68 6217.33 4557.1 5927.1 6175.27 5876.51 6731.89 2932.52 4733.41 5264.83 3901.53 5136.51 6815.51 5313.86 4457.05 3989.26 5189.91 3618.64 5703.84 4335.79 3530.82 5797.32 5432.04 3921.27 3702.45 5265.63 4898.29 4431.06 5730.2 4830.13 3494.16 5370.9 4529.77 4325.13 6172.27 5390.33 5078.73 5278.54 5729.0 5192.92 5275.57 4179.87 4786.66 5891.25 5370.1 5129.4 5114.51 4655.37 5585.25 5023.61 4672.86 6530.78 5560.23 3043.77 5237.55 3909.94 5088.64 6589.8 6920.92 3729.16 3038.91 3783.36 4181.93 3922.28 6570.43 3445.92 3820.19 4979.5 5236.69 4586.82 6026.04 6200.05 5859.17 4034.41 5061.74 5771.98 4420.35 5717.45 5117.83 5268.27 4645.93 5448.64 4585.37 6417.61 3721.69 5395.12 3456.3 5783.69 6074.39 5317.83 4256.08 5881.93 4460.89 4399.52 4554.24 3939.96 5910.66 7415.84 4637.3 5141.03 4840.44 8123.59 5765.14 4767.54 5121.08 2927.84 4696.03 6177.68 4605.39 6270.59 2848.44 6045.26 6500.45 4907.55 4103.76 4094.63 4286.61 4603.66 4969.68 6636.43 5431.14 6298.8 3689.24 5178.07 5151.19 5777.26 4171.02 7012.36 5028.06 4886.99 4002.99 5159.67 3161.1 5764.52 5684.88 6523.78 4645.86 4045.67 5620.88 4941.52 5900.0 4262.74 6241.77 3783.79 5317.19 4248.14 5279.19 4016.6 5821.49 7050.08 5580.44 5998.13 5095.52 4746.15 3720.38 4758.84 4731.37 3976.0 4068.41 6463.71 5059.37 5783.38 4139.39 6264.03 3562.8 4151.74 5192.82 4174.22 3573.84 4067.89 6294.09 4571.57 5131.07 4121.07 3133.28 5524.28 5731.43 6353.81 3518.14 4150.44 5522.34 2649.69 5899.78 5000.74 5772.57 4813.81 5244.95 4634.25 5901.8 6351.48 3830.7 6210.0 5350.9 3483.61 6738.9 5992.06 4157.1 8052.53 4867.12 6044.01 6520.19 1458.87 5734.07 3997.68 6033.28 4819.83 4801.16 5071.38 5616.66 5688.77 4698.7 5368.28 6229.64 4220.43 6263.87 5743.8 6666.34 5084.76 6605.11 4757.87 3557.46 5971.95 5652.73 3979.46 6321.97 6509.54 6119.0 3792.06 5128.59 4293.3 5587.3 3572.73 4864.38 3770.22 4390.64 5150.84 4608.01 5087.97 6005.95 4308.49 4930.17 4581.1 4745.44 4085.96 5762.82 7360.12 6223.98 5462.6 5617.29 3035.06 4262.19 4597.88 4878.93 6275.25 6892.33 4505.3 4452.36 4832.21 4511.34 5009.21 4742.35 5394.79 5645.54 5264.08 4526.87 4227.66 4691.01 4594.89 5245.95 5821.42 4515.02 3463.53 6126.03 2970.24 4197.87 5105.54 5462.1 6032.45 3414.67 5444.36 5044.68 4026.03 6908.32 3467.11 4817.75 6153.26 5637.53 3882.37 4095.4 5188.57 3873.79 5357.33 5432.4 4262.52 5037.58 7430.48 5545.68 6080.69 4970.12 4967.93 6369.66 5973.57 6241.48 5125.45 5957.82 6286.27 6327.54 5507.07 4802.36 5466.13 5327.71 5257.38 5075.23 4975.56 7282.36 3826.01 4645.91 5581.01 6834.92 6379.33 5130.57 5090.48 5402.45 3985.93 6412.84 6071.59 2589.19 6079.55 5485.61 4993.49 5310.33 6583.37 3688.83 3402.44 4848.98 4491.96 5184.98 4467.51 5339.82 4519.03 5460.57 5110.27 5703.34 4612.68 6668.98 6649.52 4232.33 4939.56 4747.68 5770.92 3093.38 4845.91 2002.78 5631.32 6322.0 5793.14 4491.26 4609.65 5704.61 5410.73 4379.91 4574.03 5290.37 5850.38 4730.97 3677.85 5214.71 4677.84 4811.11 4924.52 4866.8 6044.69 5658.05 6593.1 4000.51 5011.37 2827.92 4441.44 5092.44 4232.44 5336.61 5563.09 4848.15 4439.09 5523.81 4718.61 6697.45 5717.67 5515.59 5252.37 3224.81 4499.54 3775.38 4046.22 6457.89 5640.67 6572.17 3751.73 5555.89 4766.47 4871.1 5678.08 5922.62 4414.09 5191.29 3784.68 4188.16 3717.22 4654.92 2943.17 4880.78 5286.55 4322.56 5509.09 5625.02 5212.05 4829.77 3928.99 4444.92 6959.88 4125.75 5749.53 5247.73 5034.02 5582.28 5945.25 5181.31 3856.4 4696.06 4137.16 4937.36 5308.4 6581.13 4569.32 5537.61 6084.88 4397.06 4199.44 4053.12 4479.5 6261.67 3435.13 5065.78 4431.46 4521.42 3207.84 3977.98 6043.34 4128.93 4959.72 4712.17 3808.04 4723.71 4405.61 4461.67 6126.5 4034.88 6007.1 6345.2 5488.96 5128.03 3720.92 4942.63 5087.3 6139.74 4975.57 7066.26 6150.31 3057.3 5873.62 4996.91 5379.52 3920.44 3768.62 5314.67 5563.47 5651.46 4066.36 3162.27 6033.93 5516.37 5432.2 3312.3 4612.4 4746.19 6381.58 3282.57 4798.13 5648.59 4630.5 6296.36 4432.32 4451.76 7885.41 5782.25 4104.97 4844.2 4575.72 5114.61 6118.13 3374.62 4926.62 3917.09 6009.93 5872.45 5270.1 4947.64 6305.9 6649.21 3470.69 4859.95 5522.18 4132.08 5223.1 3873.72 4592.49 3625.98 5479.86 6474.5 4702.32 4763.04 5971.9 3746.62 4532.67 4876.37 4769.62 5260.13 4649.5 4810.74 5985.75 5475.83 6189.29 5984.55 5672.46 5803.3 3228.27 4721.98 5252.82 3543.98 4142.1 5056.26 5878.55 4014.44 6604.72 6002.77 3794.47 4610.55 4967.02 4614.49 5400.69 4462.5 5573.31 5004.68 4023.88 3488.34 5348.11 5428.24 5108.84 3511.5 4520.14 4582.12 5067.92 5357.14 3188.21 5919.27 4793.06 6637.38 6188.33 6111.23 6916.18 5786.06 4137.41 3868.69 5447.74 4450.51 6033.72 3692.99 3851.47 4966.74 4959.94 1635.31 5639.4 6185.73 4083.24 6520.96 3771.91 5217.62 6178.19 4616.81 5715.25 5212.2 4611.21 5108.42 3354.94 4404.87 5237.27 5767.65 4750.76 4907.03 5497.27 4081.77 4948.21 2181.29 4987.01 4420.3 4202.12 6332.64 6492.44 4083.1 4613.32 3482.73 3996.93 5130.56 4957.99 4063.26 4542.62 4997.89 5093.28 6131.52 6009.88 4850.49 4699.77 4981.55 5144.23 6188.62 6153.07 4414.06 5944.52 4413.56 5050.2 5316.05 2513.38 4908.32 3995.08 5019.84 3900.93 5784.38 4149.17 4329.8 5728.27 3074.49 5202.33 3956.24 7558.99 3393.59 5043.14 5333.04 5445.91 4521.99 4812.59 6842.54 7115.67 5675.45 3361.11 6038.56 2807.46 5599.16 4179.8 5658.35 4487.51 5886.81 4295.25 7394.47 4850.95 4729.45 5374.09 6271.22 3421.81 5378.75 3920.64 6186.24 5822.7 3780.07 4159.89 5466.49 4038.17 5007.41 4907.48 6213.74 2329.93 4369.87 6938.87 5412.07 5512.57 4806.99 4813.55 5856.43 3839.0 3465.03 5349.85 5799.86 4362.94 5172.1 4469.82 6545.78 4870.14 2932.2 5105.72 5003.49 3964.03 4216.33 5832.72 5617.91 4721.2 4706.31 2694.25 6265.48 4735.99 4203.68 4739.56 5145.39 3352.46 6351.95 5195.09 5345.05 7679.2 4881.51 4311.92 2626.41 6729.99 5093.41 6842.35 5464.34 3621.63 4777.96 5801.89 5908.57 7296.47 5742.39 4821.41 4924.53 5616.11 4499.52 4028.13 3874.12 4457.73 6476.35 6260.58 3053.19 4067.24 6571.26 5580.95 3549.92 6598.99 4032.06 5246.81 5089.1 5888.95 5394.78 3463.34 5122.38 2853.68 5262.85 4998.37 5329.84 6559.82 3879.83 6565.95 4577.98 5043.34 4246.24 6805.02 5354.48 5640.63 4900.26 6261.13 4167.55 5244.47 4720.34 4731.16 5510.89 6470.87 4495.33 5282.67 5747.9 5178.55 5146.69 6203.24 6818.23 4488.41 6679.12 5652.19 5806.74 6578.62 6284.12 4796.04 5229.56 6011.4 4672.34 6052.22 5376.41 5003.63 4695.7 4747.24 4944.08 4082.01 5269.39 4305.35 5210.22 2451.27 3903.9 4444.95 5161.02 3124.49 5003.81 6262.18 3818.37 4701.03 6225.05 5434.04 5200.1 3997.52 4444.54 5779.9 4909.74 5310.33 5299.03 6664.54 3922.98 5161.73 5259.48 5254.93 4803.4 6833.5 6608.94 2613.78 4780.16 3834.01 5738.37 4433.23 4813.24 5759.19 5847.27 3113.64 4490.2 4304.75 5480.86 6139.9 4720.22 4313.38 5827.3 5250.56 3633.58 2468.16 6294.14 4339.97 5203.75 5169.09 3906.41 4691.15 2459.88 4210.24 5470.67 5901.71 5225.11 5342.9 5252.22 5733.12 4962.35 6436.29 5402.81 4600.81 4328.76 4919.13 5168.97 4124.33 5783.88 5002.38 6705.93 4865.11 5449.09 5502.14 4605.61 4131.08 4465.56 5386.95 3864.19 4287.93 5332.11 5315.71 6158.93 5081.65 4823.14 5438.5 4621.32 5699.4 3878.8 4698.94 3948.21 4286.84 5669.15 5296.05 5263.86 3330.85 5056.32 5533.52 5410.33 5302.53 4380.86 5576.16 5648.02 3308.75 4604.34 4439.17 5677.42 4929.35 5606.22 3943.77 5242.38 6081.35 5459.52 4609.98 5566.5 5663.36 4276.59 5579.04 5125.53 5994.21 5403.81 5082.25 6964.78 4374.05 5036.84 4565.36 5813.68 4025.08 4008.67 3618.53 4770.21 8013.28 3846.55 3796.73 5417.07 3082.16 5656.84 6789.66 4739.41 5312.2 4706.59 5734.84 3982.31 4950.07 4582.24 2832.83 4084.87 6036.99 3010.1 3825.98 4589.22 5087.03 4667.84 5584.64 4123.08 4512.6 4260.38 4636.45 4932.27 5638.51 6793.49 3563.33 6060.19 5536.0 6786.37 4333.23 5145.13 5561.63 5940.5 4358.06 5093.51 5647.93 4280.92 6201.49 4696.92 5154.74 6437.99 6898.8 6540.57 4893.72 6004.72 4072.4 5373.78 5345.65 4489.18 5863.36 4632.75 5237.76 4994.98 6423.96 6058.13 5894.69 6988.4 6635.51 4060.17 6051.35 4909.13 4287.61 3999.81 4867.13 4863.27 2701.42 5442.79 5051.39 6673.92 5151.68 4884.94 5362.15 4455.61 4738.72 4752.31 5240.97 5569.85 5405.6 3929.35 4884.93 4759.38 6960.97 4287.15 5282.51 5504.65 5669.41 5732.11 5040.9 5596.68 4868.66 4004.39 5159.9 5283.65 4644.68 2892.36 5981.54 5911.29 5416.41 4694.27 6760.64 2515.5 5177.88 5551.79 6981.47 3916.15 4474.96 4758.76 4790.63 5259.29 3584.05 4916.75 4818.53 5097.85 6189.04 6224.64 4221.03 5189.4 3799.55 5082.66 4550.77 4337.93 3550.88 5201.3 4345.51 4048.73 6223.33 3860.8 3747.96 5611.29 4521.88 6568.45 5004.22 4601.54 7263.57 5705.96 3832.09 5267.65 5739.69 6632.04 5360.88 7360.62 4977.64 4985.45 4983.56 5699.51 2489.44 5499.37 4883.13 4836.76 4752.94 5551.09 3950.53 4501.1 5581.47 4384.91 6550.61 4987.01 4713.56 6094.34 6779.82 5543.67 6210.48 6377.45 4182.05 4502.12 3255.93 6853.07 6327.61 4633.59 5733.59 5575.8 5268.93 3695.72 6874.6 5106.9 5306.31 5523.96 4223.53 4733.37 4535.94 3037.72 4523.9 5126.08 5604.0 3760.4 4951.02 3919.47 4602.7 3783.35 4037.16 6395.63 4987.48 5943.61 4248.58 5479.17 4542.25 5020.37 4414.23 5233.88 4849.21 4785.55 3793.83 5245.4 6189.81 5367.05 4449.73 5647.11 4088.72 3945.62 3743.85 6236.46 5342.17 6379.3 5015.67 3795.63 4576.71 6538.04 4894.15 6157.59 5848.41 4090.28 4246.83 5438.6 7370.52 4726.5 5467.05 3724.23 5103.3 4963.88 5888.94 4727.98 5175.88 4122.2 4516.26 4790.16 3509.34 3731.58 3647.26 3166.37 5369.42 5207.08 5205.53 4714.52 4587.19 5543.05 6028.89 5333.16 4888.17 5755.98 5392.85 5077.2 4274.05 5275.27 4277.54 5529.09 4531.46 5925.82 5448.68 4739.5 4072.95 4491.62 3865.5 
SCALARS Velocity float 1
LOOKUP_TABLE default
1.21004 1.36253 1.69402 1.1799 1.53241 1.83619 1.50028 1.78371 1.82178 1.64282 1.44113 1.79353 1.36661 1.2485 0.881494 3.34668 1.60182 1.76919 1.86851 1.70808 1.80002 1.74589 1.59306 1.63432 1.66263 1.45127 1.53881 1.58461 1.49473 1.45087 1.56218 1.72396 1.31543 1.71411 1.54339 1.34865 1.70335 1.38996 1.6799 1.7939 3.03477 1.31234 1.30063 1.42052 1.62022 1.63076 2.07305 1.96293 1.88162 1.81972 1.22493 1.43123 1.38702 1.48174 1.46955 1.47455 1.58285 1.55094 1.52191 1.42189 1.3969 1.50913 1.7812 1.59384 1.64322 1.50217 1.59797 1.26265 1.50208 1.82573 2.40759 2.14379 1.08796 1.20505 1.31146 1.26165 1.37686 1.30196 1.0809 1.30158 1.04645 1.08074 1.73121 1.89637 1.32212 1.4109 1.2562 1.29882 1.41471 1.49858 1.47528 1.47717 1.44903 1.53652 1.31324 1.39875 1.37561 1.39748 1.53853 1.39656 1.39652 1.44173 1.60181 1.4844 1.59306 1.61644 1.58227 1.55024 1.48975 1.33067 1.7488 1.35982 1.62084 1.5055 1.23283 1.29066 1.22381 1.22221 1.22866 1.2316 1.1551 1.15643 1.13396 1.09601 1.03999 1.14207 1.12424 1.1099 1.13273 1.13749 1.30362 1.66169 1.21514 1.4693 1.30726 1.27834 1.24851 1.43201 1.48293 1.4764 1.40691 1.40337 1.25143 1.36013 1.43474 1.4156 1.37484 1.6492 1.50224 1.34615 1.49495 1.54879 1.2178 1.02242 1.20938 1.1569 1.13878 1.08356 1.26347 1.22699 1.0694 1.21871 1.2128 1.24125 1.10483 1.11202 1.12754 1.07975 1.12134 1.09068 1.12303 1.13273 1.10094 1.15037 1.17986 1.19096 1.23236 1.56103 1.35002 1.37556 1.71606 1.63078 1.38169 1.50121 1.23146 1.21909 1.38269 1.45925 1.40781 1.2219 1.27517 1.30673 1.05748 1.32396 1.50723 1.44183 1.35749 1.34698 1.32149 1.38593 1.33482 1.33313 1.4227 1.39936 1.30548 1.45347 1.0541 0.887779 1.10101 1.07228 1.07699 1.05021 1.05722 1.11406 1.14409 1.2413 1.2657 1.02959 1.06598 1.08088 1.07609 1.05478 1.10543 1.05706 0.97791 1.18898 1.13351 1.10642 1.08565 1.12977 1.09718 1.13204 1.16542 1.16763 1.26017 1.35464 1.58762 1.63995 1.50345 1.33221 1.3176 1.21014 1.26955 1.48472 1.23376 1.15842 1.27981 1.3075 1.32155 1.22305 1.51972 1.16984 1.24786 1.30064 1.31083 1.3078 1.28605 1.30632 1.36808 1.14302 1.00876 1.06974 1.09781 1.06227 1.05666 1.08796 1.22704 0.951627 1.19077 1.20399 1.09967 1.42701 1.65642 2.11449 1.02138 1.03412 1.03059 1.02314 1.04324 1.05472 1.04598 1.09525 1.0366 1.2 1.13094 1.12412 1.13523 1.18719 1.33614 1.00565 1.17264 1.35689 1.24158 1.24694 1.20245 1.21297 1.2504 1.27263 1.03209 1.16268 1.34249 1.22065 1.05627 1.29566 1.20639 1.29622 1.287 1.26324 1.19844 1.12437 1.10191 1.06293 1.04424 1.03729 0.986193 0.958192 0.887911 1.00232 1.11156 0.86967 0.460947 1.27562 1.28034 0.630069 0.48011 0.627834 0.973318 1.01923 1.01302 1.02322 1.02893 1.02236 0.991345 1.00842 1.04241 1.0186 1.05097 0.887524 1.03986 1.18916 1.12812 1.09653 1.09321 1.10523 1.12865 1.14385 1.05181 1.18759 1.25787 1.20555 1.27927 1.21898 1.21425 1.21071 1.22277 1.24484 1.03439 1.04382 1.01141 1.28575 1.32499 1.53994 1.24531 1.23549 1.03249 1.01686 1.07688 1.18042 1.26001 1.23407 1.27285 1.27075 1.24956 1.18238 1.16495 1.14865 1.12202 1.11464 1.08689 1.11071 1.07647 1.08502 1.04115 1.05818 1.05667 0.99542 0.935012 0.943674 0.941726 0.910275 0.764453 0.784235 1.35231 1.10427 0.921408 1.06925 0.525813 0.886824 0.821032 0.977578 0.944197 0.96535 0.932983 1.00544 0.999284 0.978529 0.95933 0.914441 1.00468 1.01158 1.01557 1.01428 1.16555 1.06161 1.13015 1.0798 1.03782 1.04036 1.05126 1.05623 0.977333 0.968896 1.12339 1.00851 1.04124 0.946718 1.2809 1.1557 1.15803 1.22462 1.22692 1.20515 1.18893 1.19485 1.21349 0.988134 0.930085 1.12427 1.3135 1.36373 1.3301 0.987166 1.09535 1.11068 1.17368 1.23898 1.22668 1.26668 1.34298 1.13752 1.15137 1.13295 1.11722 1.1296 1.10578 1.06479 1.03943 1.00856 0.985201 0.890631 1.25172 1.14146 1.05305 0.888181 0.883606 0.956421 0.889406 0.974942 0.877108 0.90723 0.943655 0.948477 0.945978 0.967217 0.989915 0.95732 0.964832 0.85013 0.978505 0.999359 1.07848 1.01244 0.996711 1.00696 1.0069 1.02698 1.03002 1.02974 1.02718 0.999139 0.968582 0.964951 1.00694 0.993959 1.06378 1.15286 1.1174 1.09477 1.15783 1.2545 1.1511 1.21738 1.23273 1.21407 0.914623 1.00196 1.08376 1.2602 1.22591 1.25384 1.26853 1.31755 1.2183 1.0044 1.06101 1.08592 1.14867 1.16089 1.19223 1.31482 1.06173 1.13881 1.13912 1.10807 1.09398 1.11864 1.11282 1.11997 1.18679 1.25034 1.08878 1.0735 1.07699 1.10623 1.0908 1.17431 1.13042 1.04266 1.20188 0.975133 1.14399 1.02128 0.930758 0.972882 1.00956 0.96819 0.968085 0.989068 1.00122 1.06049 0.998868 0.941335 0.970877 0.958272 0.956169 0.896712 0.930443 0.932187 0.928806 0.945845 0.959617 0.972367 0.984205 0.944641 0.907298 0.881929 0.922248 0.938804 0.992045 1.18851 1.07622 1.03909 0.979023 0.991652 1.0083 1.01891 1.00244 1.02369 1.01462 1.01726 1.02247 1.00677 0.996314 0.969317 1.02485 1.04197 1.0877 1.12697 1.09243 1.07478 1.05795 1.09481 1.24194 1.31136 1.13142 1.14071 1.09363 1.09299 1.15291 1.02592 1.1248 1.10115 1.10489 1.19972 1.27348 1.13317 1.26649 1.06426 1.04671 1.13055 1.06215 1.17753 1.14986 1.09551 0.976962 1.061 1.10992 1.10392 1.08734 1.06151 1.06483 1.07072 0.929348 0.984944 1.11465 1.17514 1.14346 1.4758 0.837218 0.957422 0.498649 1.01036 0.965565 1.04885 0.954259 0.967209 0.955607 0.958292 0.950656 0.962991 0.956047 0.985264 0.770656 0.866458 0.877939 0.938412 0.95946 0.927058 0.958969 0.907199 1.03452 0.948821 0.896199 0.881572 0.759845 1.2543 0.911329 0.999927 0.927646 0.947021 0.980103 1.01208 1.02174 1.03211 1.0258 1.04047 1.03439 1.0242 0.988929 1.05706 1.0755 1.07765 1.09514 1.05421 1.0515 1.00525 0.99522 1.13026 1.13167 1.14289 1.10305 1.06287 1.07856 1.09811 1.12099 1.16042 1.19568 1.22257 1.08516 1.13931 1.26144 1.074 1.05788 1.0492 1.13626 1.11838 1.06833 1.04027 1.08039 1.0751 1.13099 1.09632 1.12312 1.05284 1.00918 1.02369 0.983497 1.03679 0.965222 1.12574 1.11207 1.01218 1.20789 1.51638 1.22969 0.964534 0.720209 0.952363 0.951088 0.957661 0.932581 0.94147 0.981781 0.964556 0.979311 0.985106 0.936293 1.048 0.970799 1.12909 0.69064 0.740189 0.917136 0.768862 0.894185 0.872428 0.943275 0.924069 0.894986 0.909165 0.971213 0.886279 0.925751 0.922277 0.879608 0.900616 0.906252 0.939214 0.964361 0.945471 0.947094 0.993372 1.03958 1.03938 1.02004 1.04605 1.05038 1.1246 1.06566 1.06383 1.02884 0.994412 1.04565 1.06558 0.949784 1.03369 1.04444 1.01872 1.03287 1.02508 0.984208 0.982898 1.01964 1.223 1.19614 1.09996 1.09197 1.0993 1.12312 1.16229 1.18599 1.2245 1.11446 1.17421 1.13504 1.1483 1.07689 1.10589 1.09143 1.04339 1.01181 1.0684 1.04728 1.0528 1.09104 1.1385 1.15416 1.071 1.01092 0.998534 0.972985 0.976974 1.00936 0.968386 0.821289 0.827071 1.38508 1.74479 0.692103 0.796946 0.940509 0.945563 0.879406 0.903044 0.915546 0.987794 0.916546 0.938133 0.896136 0.824006 1.01768 0.921785 0.99775 1.43617 1.97171 1.08244 0.707621 0.853783 0.799595 0.846339 0.898114 0.904119 0.909222 0.906029 0.904893 0.893356 0.908547 0.884057 0.885917 0.874268 0.933465 0.947186 0.914996 0.941534 0.90182 1.02539 0.974942 1.09965 1.05343 1.01688 1.19745 1.00561 0.985122 0.896807 0.963318 0.993021 0.992002 0.972312 0.988545 1.02398 1.03491 0.952975 1.00301 1.24092 1.03428 0.877233 1.08461 1.1253 1.1623 1.19523 1.06537 1.09148 1.02599 1.05808 1.00188 1.03811 1.04019 1.03955 1.03603 1.03716 1.0153 1.10815 1.08347 1.16236 1.17882 0.990187 0.98952 0.983615 0.992948 0.983363 0.953339 0.859418 0.880264 0.917591 1.11875 1.05694 0.591424 0.795691 0.768102 0.813435 0.901557 0.931105 0.903248 0.877077 0.965684 0.879221 0.894806 0.838753 0.880949 0.809145 0.734127 0.744074 0.747935 0.837929 2.3437 1.10635 0.107842 0.432625 0.354032 0.521213 0.525587 0.622827 0.634208 0.892878 0.889302 0.826718 0.803816 0.844803 0.918936 0.87221 0.928714 0.922856 0.92123 0.881555 0.865129 0.892684 0.930152 0.72898 0.792631 0.883035 0.938577 1.00726 0.954969 0.915113 0.935899 0.874451 1.05553 1.16682 1.21966 1.03783 1.16701 1.06448 1.21062 0.650225 1.29585 0.838105 0.866946 0.910892 0.985584 0.984272 0.976041 0.964754 0.987814 1.03029 0.980618 1.01672 1.16098 1.20806 0.996134 0.926584 0.904652 1.059 1.14982 1.18663 1.11658 1.19477 1.03833 1.17698 1.0959 1.0618 1.09246 1.10403 1.03621 1.08118 0.923305 1.05119 1.05258 1.05065 1.0626 1.04662 1.01823 0.987917 0.964541 0.993973 1.08622 1.12027 0.943088 0.951993 0.986647 1.00196 1.01386 0.930881 0.977147 0.930463 0.908071 0.881537 0.897134 0.891459 0.906744 0.930156 0.940641 0.921609 0.908744 0.892564 0.881594 0.734879 0.832485 0.787076 0.8823 0.991044 0.966374 0.774484 0.948206 0.642459 0.78172 0.667644 0.753584 0.695358 0.745403 0.749192 0.597978 0.940978 1.18861 0.880935 0.891632 0.760077 0.798696 0.903381 0.86108 0.888061 0.871417 0.783414 0.881303 0.915744 0.926559 0.881113 0.924458 0.889756 0.926403 0.796475 0.961458 1.01095 1.64748 1.42451 0.810264 0.81902 0.732563 0.859518 0.913812 0.927119 0.892474 0.951554 0.990092 0.975147 0.967491 0.942229 1.02537 1.06821 1.11488 1.17512 1.2473 1.0815 1.04273 0.979935 0.954779 1.09537 1.14928 1.16186 1.1792 1.18945 0.987647 1.02658 1.13452 1.08941 1.08854 1.11485 1.11708 1.02207 0.951788 0.994655 1.0795 1.06193 1.03819 1.02945 1.02283 1.00311 1.02588 0.955957 1.01826 1.04058 0.984041 1.02571 1.01733 1.01767 0.982036 0.948603 0.933105 0.936601 0.926935 0.934409 0.94918 0.951263 0.936504 0.875574 0.878776 0.866597 0.855206 0.886085 0.802997 0.904556 0.868428 0.968852 1.03666 0.971854 0.897786 0.877776 0.921845 0.806732 0.821127 0.827061 0.783051 0.834278 0.823665 0.802416 0.809579 0.805906 0.858008 0.784027 0.774989 0.773989 0.747407 0.807025 1.1372 0.87946 1.40376 0.896273 0.728969 0.828028 0.747799 0.935929 0.839007 0.763138 1.06098 0.845534 0.872001 0.871536 0.885597 0.889187 0.828256 0.758324 0.711097 0.693624 1.27139 0.738307 0.834609 0.892725 0.852617 0.796076 0.853454 0.971115 1.00121 1.01274 0.993806 0.940355 0.866421 1.16496 1.20864 1.34584 1.20208 1.09152 1.00623 0.961399 1.16351 1.14634 1.17929 1.00431 1.05278 1.12882 1.08274 1.12791 1.14183 1.13078 0.99843 1.0931 1.10558 1.0222 1.04132 1.01322 1.01174 1.01986 0.967614 0.970962 1.12776 1.04071 1.04339 1.0429 1.01791 0.955684 0.970183 0.960351 0.960896 0.94252 0.946819 0.949672 0.973372 0.998554 0.983995 0.873971 0.851147 0.896559 0.904228 0.891192 0.939529 0.829067 0.978046 0.734399 0.812297 0.830913 0.760529 0.822588 0.837298 0.829451 0.804693 0.801149 0.807548 0.919096 1.04618 0.720638 0.769392 0.750524 0.776511 0.723831 0.758936 0.877932 0.688627 0.502506 0.554673 0.872053 0.831044 0.820388 0.919681 0.879854 0.900003 0.631688 0.83202 0.716179 1.06425 0.846223 0.86698 0.861616 0.871236 0.885797 0.885772 0.942265 0.872323 0.793878 0.863702 0.790319 0.866705 0.992728 1.12442 0.907156 0.953038 0.881442 0.826209 0.812953 0.849179 0.983832 0.977499 0.999658 1.01995 0.992307 0.812044 1.75687 1.22049 1.10136 1.0958 1.06009 0.986867 0.938906 1.13733 1.08383 1.12846 1.05927 1.04556 1.04818 1.04069 1.10785 1.06854 1.10271 1.17849 1.02391 1.04121 1.21702 1.04919 1.03569 0.997628 1.01419 1.02442 0.952751 1.0119 0.931196 0.94227 1.09137 0.973306 0.970106 0.989555 0.971447 0.955216 0.952254 0.958433 0.969295 0.963483 0.968054 1.01911 1.12084 0.826697 0.593453 0.884375 0.889808 0.890063 0.884443 0.828321 0.840645 0.838549 0.966922 0.901948 0.803512 0.720394 0.783261 0.699399 0.639017 0.72008 0.83996 0.838616 0.779766 0.805343 0.80113 0.789351 0.827542 0.838285 0.995196 1.45279 2.61621 0.302394 0.050305 0.572142 0.697495 0.698324 0.693174 0.629325 0.79102 0.871355 1.01513 0.9063 1.10289 0.939176 0.860282 0.886932 0.89133 0.784361 0.65782 1.06698 0.853417 0.864673 0.824095 0.884655 0.88791 0.996198 0.889719 0.878307 0.934566 0.86152 1.08022 0.911386 1.04519 0.96232 0.910131 0.835726 0.83494 0.93375 0.999468 1.01392 1.03882 1.02295 1.02862 0.992536 0.936637 0.818347 1.80609 1.27443 1.09578 1.10049 1.05255 1.08008 0.985573 0.936251 0.944725 1.10487 1.12291 1.03328 1.00801 1.11037 1.05277 1.08214 1.03334 1.18614 1.02695 1.04596 1.06507 1.2169 1.13139 1.03771 1.02835 1.01932 0.992507 1.03701 0.97245 1.04687 0.9973 0.963215 0.921494 0.967475 0.951993 0.828066 0.86731 0.924558 0.968868 0.961652 0.952552 0.949639 0.947158 0.953982 0.944555 0.934438 1.05279 0.874587 0.747422 0.823373 0.882031 0.845279 0.882725 0.852137 0.839135 0.858051 0.819213 0.784428 0.633779 0.610278 0.749264 0.89199 0.86746 0.898958 0.924248 0.771035 0.822427 0.6684 0.85712 0.800224 0.842775 0.839252 0.806031 0.798896 0.761883 0.444268 0.0331898 0.53343 0.300584 1.09034 0.938479 1.23476 0.587068 0.845291 0.7773 0.795445 0.642487 0.654508 0.628332 0.602583 0.657557 0.732566 0.675181 0.785542 0.626026 0.423827 0.850177 0.797217 0.789248 0.804654 0.764159 0.783285 0.890294 0.852433 0.834173 0.750384 0.952907 0.9823 0.814631 0.862856 0.892728 1.01312 0.944163 0.98168 0.943528 0.862103 0.897672 0.93169 0.913682 0.938527 1.0808 1.06079 1.04879 0.999807 0.998748 0.954084 0.876661 1.53365 1.14198 1.07102 1.04804 1.06715 0.965091 1.16373 1.11438 0.961408 1.09617 1.10918 1.05689 1.06837 1.08078 1.1378 0.979045 1.04629 1.0562 1.1523 1.25278 0.990156 1.14617 0.944493 0.986072 0.937703 1.01636 1.05237 1.06839 1.04227 0.97113 0.982397 0.956252 0.88322 0.888361 0.924475 0.944992 0.934793 0.940957 0.938174 0.941016 0.951764 0.959504 1.01239 0.964498 0.94252 0.869296 0.809086 0.832441 0.833719 0.8292 0.849245 0.895195 0.852249 0.889321 0.856118 0.899243 0.859598 0.679635 0.53454 0.701363 0.616437 0.911005 0.901182 0.610423 0.977926 0.550297 0.812443 0.66944 0.724742 0.734223 0.696594 0.709877 0.68571 0.625587 0.699851 0.702692 0.624275 0.748128 0.617739 0.713588 0.526691 0.542714 0.78859 0.78038 0.87954 0.86281 0.739107 0.655692 0.639904 0.578935 0.698747 0.704542 0.708552 0.721403 0.710625 0.653757 0.79525 0.867237 0.90956 0.877481 0.833869 0.878447 0.820658 0.860146 0.86159 0.85575 0.862244 0.851776 0.868248 0.838476 1.01818 0.950851 0.929163 0.90545 0.929053 0.956659 0.997898 0.98648 0.979497 0.973475 0.952255 0.890035 0.947104 0.918333 0.891954 1.12945 1.08646 1.04264 0.990162 1.00462 1.03115 0.985801 0.968592 1.50108 1.3016 1.08505 1.0724 1.06424 1.13071 1.05312 1.1253 1.06649 1.11328 1.09636 1.11092 1.08306 1.1312 1.00737 1.09182 0.998319 1.05865 1.07436 0.976973 0.977128 0.965034 1.00738 1.01107 1.05761 1.0732 0.976121 0.993056 0.991033 0.998637 0.884252 0.898897 0.915015 0.918865 0.914641 0.930518 0.936972 0.94691 0.961443 0.953946 0.954801 0.935576 0.89248 0.841609 0.832651 0.838881 0.839501 0.841906 0.929746 0.849761 1.04716 0.902906 1.23531 0.247602 0.545816 0.894902 0.698344 1.07044 0.780936 0.681698 0.733279 0.723053 0.689083 0.729859 0.703793 0.637015 0.633691 0.670226 0.603158 0.711875 0.750304 0.734495 0.737145 1.29074 0.117797 0.880755 0.40745 0.587748 0.607115 0.638106 0.600185 0.610359 0.751205 0.857832 0.88272 0.845939 0.79876 0.638087 0.657518 0.582414 0.684922 0.722334 0.755678 0.780367 0.766589 0.931286 0.936408 0.908859 0.911282 0.892616 0.860825 0.871591 0.914472 0.925044 0.992243 0.985669 0.933899 0.962256 0.924047 0.945556 0.986608 0.998205 1.00777 0.994525 1.01226 0.992073 0.994928 0.939484 0.907318 0.78297 1.09523 1.06021 1.05361 1.04275 1.04601 0.995459 0.940003 0.902592 1.22325 1.06167 1.09241 1.10344 1.07185 1.11951 1.07336 1.05069 1.0106 1.03548 1.01762 1.10608 1.10665 1.04814 1.13449 1.14143 1.00865 1.06353 1.10458 1.14568 1.07444 0.954327 1.01639 0.964301 1.01241 1.00869 0.907019 0.954754 1.00437 0.979756 0.947067 0.993256 0.967192 0.928452 0.919321 0.895459 0.933761 0.987249 0.94417 0.955498 0.938323 0.96149 0.965921 0.967765 0.898906 0.895715 0.844702 0.857905 0.84995 0.840461 0.802804 0.766653 0.693646 0.790244 1.22411 0.304682 0.412043 0.42312 0.663135 0.464202 0.722287 0.750694 0.81609 0.801352 0.865418 0.517432 0.755321 0.642076 0.494857 0.686154 0.563022 0.714838 0.689716 0.711965 0.671676 0.636191 0.584429 0.743363 0.425819 1.36331 0.280539 0.501198 0.7719 0.54809 0.614278 0.65241 0.697873 0.583605 0.51375 0.787337 0.77711 0.777593 0.728477 0.821629 0.989779 0.873056 0.843096 1.13068 1.03824 1.00031 1.04871 0.939045 0.933307 0.907874 0.90857 0.900159 0.861866 0.86492 0.911155 0.909865 0.947996 0.953317 0.927467 0.96286 0.99595 0.968993 0.958889 0.915154 0.857044 1.01463 1.02413 1.04452 1.00955 0.961667 0.886315 0.775197 1.09952 1.07089 1.06019 1.05429 1.00104 0.966137 0.897279 1.01328 1.18558 1.00549 1.10785 1.10233 1.10249 1.07216 1.06014 1.0564 1.04966 1.04732 1.04968 1.09026 1.04808 1.09898 1.12101 1.12258 1.13695 1.08744 0.973483 1.13279 1.00774 1.03555 1.04136 1.04532 0.999988 0.93257 0.954574 0.96539 0.987584 0.977363 0.976591 0.934524 0.922577 0.980664 0.835237 0.779204 0.93653 0.960021 0.95518 0.985291 0.847641 0.857194 0.834053 0.852464 0.843556 0.810083 0.749163 0.820323 1.08473 0.87111 0.666581 0.48381 0.555778 0.547142 0.641424 0.498004 0.703842 0.622923 0.749218 0.893545 1.25527 1.01096 0.925233 0.297323 0.688246 0.398239 0.54907 0.582473 0.664006 0.63885 0.641959 0.783324 0.550693 0.499743 1.24767 1.33099 0.639222 0.226629 0.182907 0.304944 0.602241 0.604493 0.57811 0.618405 0.609159 0.579348 0.694189 0.582943 0.668683 0.515648 0.561245 0.639879 1.12254 1.27238 1.03758 0.957177 0.44252 0.932582 0.862374 0.876152 0.865091 0.860197 0.868342 0.838301 0.846438 0.886433 0.887045 0.883145 0.897913 0.798704 0.902107 0.942676 0.933199 0.863225 0.940523 0.920465 0.944291 0.93103 0.95914 0.941717 0.904467 0.871593 0.801189 1.06201 1.07739 1.07459 1.08853 1.07085 1.01839 1.04948 0.987474 1.03684 0.986067 1.06536 1.08142 1.10836 1.07373 1.0674 1.08035 1.10736 1.08778 1.10893 1.13786 1.0407 1.08122 1.06652 0.951183 1.09366 1.04678 1.00227 1.09393 1.0446 1.06689 1.03847 1.04063 1.0346 1.0429 0.96503 0.930704 0.964351 0.97544 0.98089 0.977811 0.979035 1.00324 1.01415 0.936815 0.783766 0.817869 0.893124 0.931487 0.938662 0.988636 0.938 0.953338 0.819135 0.826428 0.832254 0.842848 0.852541 0.835113 0.811504 0.847482 0.802736 0.908676 0.825606 0.734352 0.702652 0.695214 0.676703 0.710262 0.724998 0.842148 0.828307 0.532338 0.584071 0.523174 0.515061 0.60267 0.745892 0.627311 0.883554 0.67564 0.694899 0.414015 0.611873 0.273948 0.575407 0.31783 1.45577 1.40366 1.71637 1.58771 0.68735 0.954846 0.474262 0.52091 0.489978 0.485495 0.514276 0.463201 0.587842 0.650583 0.70141 0.625529 0.668424 0.645247 0.636254 0.600069 0.649727 0.631891 0.553859 0.586061 0.594313 0.604591 0.696784 0.720171 0.888442 0.586075 0.559091 0.706766 0.942962 0.857082 0.871323 0.865308 0.88608 0.843674 0.850613 0.836839 0.845138 0.835265 0.830033 0.886822 0.911363 0.906911 0.933587 0.95909 0.953903 0.964579 0.948634 0.915292 0.919476 0.918187 1.03484 1.01246 1.11764 1.07777 0.999635 1.05191 1.05023 1.04904 1.07723 1.05613 1.11988 1.08602 1.07889 1.09101 1.07642 1.07068 1.0841 1.08889 1.1067 1.1107 1.08427 1.06372 1.09999 1.06909 1.05164 1.04922 1.07102 0.927531 1.03809 0.982281 0.940441 0.957621 0.979827 0.9685 0.99542 1.0385 0.959336 0.942607 0.955905 0.927971 0.954168 0.980727 0.936512 0.899386 0.84894 0.855958 0.867852 0.851076 0.857425 0.865848 0.871011 0.860014 0.868716 0.830374 0.757998 0.771819 0.779626 0.771712 0.763141 0.684627 0.68085 0.701831 0.708784 0.850763 0.879346 0.837573 0.837066 0.88699 0.648594 1.07598 0.801414 0.727811 0.537137 0.798867 0.89525 0.836042 0.851489 0.729327 0.580242 0.371648 1.34334 1.03125 1.01359 0.865071 0.0920125 0.285209 0.434897 0.455449 0.50269 0.743929 0.545552 0.613975 0.655289 0.650923 0.649915 0.647382 0.604713 0.641276 0.65337 0.836607 0.762688 0.823663 0.793919 0.737356 0.548286 0.713875 0.576441 0.947965 0.930283 0.88786 0.872559 0.869801 0.868145 0.833137 0.819834 0.812914 0.833581 0.885848 0.916262 0.946504 0.979946 0.967293 0.957872 0.964959 0.953474 1.04069 1.03415 1.0948 1.0903 1.09361 1.01988 0.998058 1.07397 1.11648 1.11053 1.05338 1.1259 1.10037 1.10018 1.08203 1.08772 1.08828 1.11204 1.12488 1.09726 1.05598 1.08005 1.0511 1.06245 1.12185 1.06832 1.07703 1.04296 1.05433 1.02158 1.03225 1.09058 0.940649 0.972017 0.999445 0.961945 1.00381 0.969014 0.949484 1.01693 1.03565 1.0092 1.01346 0.996465 0.949488 0.912087 0.936729 0.866388 0.973001 0.945669 0.842222 0.873974 0.863098 0.857456 0.865376 0.857662 0.848473 0.845799 0.695955 0.710111 0.771271 0.848872 0.682485 0.720627 0.765418 0.726687 0.782175 0.724313 0.876855 0.228828 0.791859 0.25439 0.434607 0.499304 0.898151 0.818208 0.588456 0.0694203 0.798007 0.857003 0.513667 0.489367 0.313719 0.869867 0.862539 0.297151 0.651782 0.659456 0.656488 0.658091 0.647699 0.637068 0.651681 0.663072 0.704497 0.692739 0.818931 0.754002 0.850883 0.794885 0.688355 0.616123 0.984067 0.888551 0.894759 0.920073 0.903058 0.875045 0.857471 0.832872 0.813045 0.815546 0.842167 0.883757 0.914107 0.940569 0.96726 0.986126 0.9649 0.964377 0.997392 1.01169 1.05423 1.03577 1.03966 1.04619 1.07406 1.1102 1.10871 1.10335 1.08063 1.04162 1.1058 1.12177 1.11655 1.11857 1.12498 1.04535 1.04808 1.11026 1.096 1.09406 1.10826 1.12384 1.08199 1.09369 1.09789 1.10404 1.10123 1.11477 1.11172 1.07445 1.07878 1.08416 1.07444 1.06858 1.10269 1.04946 1.12283 1.10739 1.05237 1.01958 1.05623 1.13898 1.12982 0.973038 1.04817 0.968539 0.87618 1.05257 1.03641 0.992146 1.0325 0.901275 0.962179 1.00779 0.940467 0.908412 0.907048 0.859032 0.855065 0.853297 0.858122 0.754693 0.708175 0.715341 0.744442 0.79646 0.776249 0.756917 0.718102 0.747215 0.730405 0.70976 0.733386 0.7499 0.771067 0.792287 0.702811 0.545988 0.617227 0.312745 0.218871 0.299899 0.418749 0.672316 0.614942 0.760294 0.326225 0.515825 0.208531 0.121876 0.720212 0.715738 0.68197 0.637072 0.550678 0.523937 0.444499 1.01042 0.643953 0.808697 0.697492 0.661495 0.672882 0.672931 0.679004 0.676622 0.752314 0.729589 0.685992 0.742921 0.739956 0.67465 0.867889 0.911528 0.931894 0.898514 0.909758 0.914433 0.905957 0.878835 0.857058 0.841871 0.815055 0.828693 0.84251 0.87487 0.849282 0.878816 0.900161 1.00815 1.01372 0.98891 0.984827 0.95859 1.00501 1.03169 1.0467 1.04573 1.0614 1.10792 1.11643 1.12487 1.04872 1.1102 1.09588 1.09036 1.12903 1.11864 1.06243 1.08403 1.06098 1.05448 1.10586 1.07226 1.10184 1.10263 1.11295 1.11208 1.08322 1.0898 1.09021 1.09644 1.1272 1.11296 1.08211 1.08742 1.0507 1.12412 1.07701 1.01689 1.05079 1.07765 0.987436 1.0676 0.904392 0.830023 0.933595 1.06101 0.959805 0.996558 1.04121 0.792755 0.908698 0.994485 0.947748 0.944334 0.917089 0.880449 0.871082 0.876933 0.842895 0.784977 0.737469 0.768461 0.743193 0.75387 0.761757 0.806038 0.800262 0.767595 0.75044 0.768234 0.726115 0.668759 0.566406 0.350413 0.432047 0.597627 0.679441 0.627378 0.402816 0.332169 0.641983 0.601088 0.615801 0.524885 0.522985 0.506851 0.642504 0.84912 1.10001 0.71146 0.684449 0.698769 0.691381 0.682059 0.67756 0.664689 0.666882 0.704646 0.729669 0.748286 0.763828 0.743189 0.923685 0.915252 0.921446 0.924721 0.892995 0.867922 0.861635 0.840691 0.777138 0.832995 0.810602 0.87571 0.92264 0.891396 0.841952 0.902317 1.03785 1.05008 1.02299 0.980115 0.975146 0.935352 1.06423 1.02817 0.981943 1.03276 1.04243 1.084 1.09246 1.14073 1.27078 1.04746 1.1319 1.10319 1.14631 1.10746 1.11493 1.10066 1.07234 1.07697 1.05802 1.11123 1.05862 1.05985 1.1208 1.12459 1.10915 1.11147 1.06287 1.06728 1.12933 1.09443 1.07514 1.10465 1.08975 1.08528 1.09001 1.10717 1.12462 1.1573 1.08059 1.03406 1.047 1.04895 1.08626 1.02264 1.05406 1.07643 1.10056 0.945431 0.836039 1.13258 0.973813 0.9986 0.777498 0.897223 0.96415 0.971993 0.9459 0.958075 0.925799 0.949181 0.891397 0.897293 0.89532 0.912463 0.707549 0.782091 0.761463 0.775131 0.807399 0.82048 0.810699 0.780096 0.756662 0.752701 0.747193 0.757224 0.584941 0.819453 0.561514 0.608546 0.519303 0.611519 0.700367 0.625359 0.462887 0.543765 0.617488 0.529567 0.645696 0.598101 0.548986 0.620806 0.607307 0.513076 0.675076 0.630232 0.75715 0.924058 0.871454 0.769457 0.719296 0.706048 0.745209 0.716129 0.699725 0.673527 0.67881 0.670718 0.728599 0.719279 0.760869 0.912892 0.919901 0.909568 0.928416 0.886556 0.879227 0.873911 0.7594 0.925755 1.06898 0.885203 0.829419 1.01601 1.06198 0.916857 0.925405 0.969869 1.01342 0.996059 0.960123 1.14088 0.888229 0.964042 1.08939 1.01775 1.06266 1.0984 1.14622 1.08138 0.965288 1.15428 1.06528 1.13198 1.12997 1.15338 1.09942 1.13233 1.08894 1.07259 1.11632 1.0316 1.09197 1.12825 1.10601 1.12336 1.08899 1.13953 1.0834 1.10136 1.08598 1.09378 1.11312 1.13205 1.06883 1.04545 1.05312 1.0898 1.05337 1.07929 1.07105 1.12988 1.12782 0.906463 1.12786 1.03577 0.991217 0.992565 0.819204 0.931982 0.990104 0.948182 0.985751 0.923618 0.944251 0.88787 0.820341 0.64518 0.797262 0.781606 0.790641 0.82041 0.814921 0.821651 0.803092 0.769417 0.73688 0.745903 0.662008 0.771005 0.896397 0.614323 0.610321 0.6579 0.694548 0.67845 0.7233 0.677751 0.733933 0.606584 0.595561 0.613256 0.691656 0.710437 0.798187 0.855834 0.847161 0.812946 0.741738 0.811608 0.757739 0.710651 0.715081 0.739334 0.757017 0.748487 0.733402 0.906291 0.910609 0.889277 0.960097 0.863802 0.870082 0.872979 0.914236 0.832035 0.870447 0.877746 0.963234 1.03296 0.905965 0.89456 1.05057 0.969008 0.963249 1.05358 1.00707 1.05479 1.02751 1.04919 1.06068 1.1138 1.18271 1.09949 1.0498 1.12829 1.15353 1.13307 1.15537 1.11996 1.13079 1.0884 1.08689 1.11459 1.05893 1.11945 1.15651 1.09732 1.11468 1.12396 1.13028 1.05461 1.07935 1.11418 1.09814 1.14656 1.12289 1.08364 1.07674 1.04337 1.08101 1.05788 1.08714 1.0967 1.14548 0.890413 0.979651 1.00916 1.06881 1.03236 1.07581 0.807812 0.968261 0.95481 0.912501 0.937476 0.977938 0.972993 0.993423 0.971396 0.910382 0.883652 0.82938 0.977721 0.791799 0.785307 0.771124 0.818692 0.823607 0.843669 0.893287 0.832015 0.763489 0.836918 0.751423 0.692712 0.72036 0.768817 0.786823 0.858669 0.675435 0.634618 0.655967 0.668002 0.739737 0.73387 0.7589 0.780565 0.792863 0.610344 0.630521 0.624649 0.757088 0.686962 0.776968 0.780078 0.767877 0.87295 0.798671 0.802555 0.919437 0.87799 0.813661 0.806842 0.698091 0.827735 0.766303 0.873687 0.906228 0.895294 0.884851 0.867646 0.861525 1.08271 0.926929 0.869312 0.890737 0.865821 0.808292 0.86536 0.85326 0.903088 0.910017 0.995406 0.966328 1.08355 0.875653 1.0949 1.00527 1.06928 1.06127 1.02851 1.03392 1.06324 1.00014 1.02379 1.0409 1.11489 1.16788 1.1151 1.08517 1.07299 1.12296 1.10394 1.13384 1.15048 1.12166 1.12854 1.12511 1.10474 1.1105 1.16635 1.12283 1.16225 1.09543 1.10754 1.13202 1.1452 1.06641 1.14572 1.09836 1.10355 1.15463 1.14387 1.09419 1.08802 1.08119 1.04689 1.09065 1.07668 1.07718 1.09405 1.12057 1.13913 1.14183 1.13421 1.15827 0.946383 0.835543 0.960448 0.864971 1.05186 1.07618 1.05281 1.07914 0.939992 0.945708 1.01322 0.956712 1.01968 0.944921 0.812617 0.782801 0.817001 0.83139 0.83703 0.990983 0.816419 0.771853 0.697996 0.710636 0.768028 0.766705 0.834111 0.765691 0.75961 0.862186 0.653874 0.74743 0.665745 0.809295 0.741316 0.750936 0.765878 0.757727 0.785484 0.789355 0.62445 0.627487 0.870497 0.800002 0.78867 0.830179 0.8647 0.744059 0.940786 0.911367 0.900565 0.928972 0.900204 0.901525 0.777596 0.919066 0.864993 0.888891 0.879394 0.87653 0.880051 0.920761 1.03974 0.853658 0.999814 0.891359 0.899371 0.933359 0.941957 0.941806 1.0055 1.0978 1.02395 1.0379 1.10272 1.08939 1.05012 0.990927 1.02752 1.03636 1.09197 1.14367 1.18762 1.09085 1.09287 1.12131 1.13609 1.14886 1.13867 1.1327 1.12156 1.16701 1.14431 1.13431 1.13086 1.12834 1.13068 1.15504 1.06838 1.20197 1.18741 1.13378 1.15025 1.07419 1.09192 1.21362 1.09978 1.09751 1.15452 1.15084 1.11847 1.10869 1.06088 1.10046 1.08311 1.08627 1.14044 1.11325 1.18014 0.893687 1.09502 0.913639 1.02852 1.06048 1.04374 1.08695 1.03257 0.949768 0.906264 1.03608 1.09757 0.924369 0.929202 0.869768 0.865555 0.850693 0.991576 0.948548 0.712853 0.723874 0.836322 0.801553 0.788874 0.758023 0.986574 0.790906 0.626304 0.922954 0.786345 0.768874 0.771695 0.787949 0.785411 0.827582 0.821252 0.857503 0.847534 0.84103 0.679954 0.890052 0.965794 0.940031 0.928125 0.949702 0.964525 1.04835 1.09802 0.863192 0.828127 0.877652 0.887082 0.9064 0.907732 1.02284 0.970006 0.985512 0.886261 0.927799 0.979176 0.986777 1.095 1.12744 1.11409 1.04943 1.13598 1.12759 1.09227 1.0235 1.04441 1.03523 1.12063 1.16327 1.16642 1.10163 1.114 1.09906 1.15159 1.1637 1.13383 1.13737 1.16974 1.14645 1.14131 1.13598 1.13307 1.1458 1.16176 1.20058 1.18844 1.13331 1.15891 1.10229 1.15495 1.18971 1.19845 1.08294 1.10006 1.16973 1.12746 1.0629 1.11257 1.11059 1.08293 1.08284 1.11093 1.08446 1.16161 1.03396 1.05947 0.973086 1.0139 1.03767 0.910769 1.02323 1.04273 1.10675 1.03363 1.03768 0.955688 0.886016 1.01942 1.14371 0.740804 0.811481 0.938434 0.961041 0.904159 0.89351 1.01447 0.96774 0.869526 0.756681 0.778466 0.869661 0.833576 1.11141 0.909577 0.987328 0.810463 0.772586 1.07169 0.839285 0.782736 0.8004 0.797486 0.845567 0.807491 0.954196 0.890463 0.952396 0.938698 0.968091 0.984711 1.00662 1.04405 0.807573 0.821548 0.861076 0.898589 0.954544 0.973078 1.00466 1.10207 0.898681 1.0355 0.991945 0.984751 0.993782 1.12481 1.08893 1.00267 1.08283 1.13231 1.08614 1.06878 1.06601 1.03909 1.03121 1.0488 1.1255 1.15874 1.15151 1.10598 1.1562 1.16253 1.13985 1.14971 1.13498 1.1392 1.16609 1.15028 1.14857 1.14471 1.14484 1.14918 1.16535 1.16498 1.19059 1.16841 1.14672 1.11989 1.16264 1.09393 1.12309 1.18664 1.14266 1.08536 1.10629 1.08207 1.11449 1.1304 1.15221 1.05809 1.03519 1.01432 0.920953 1.0646 1.0094 0.975504 0.842803 1.03639 1.16596 0.809423 0.921831 0.886931 0.960096 0.943097 0.906977 1.00353 1.04734 1.07264 0.983853 0.797836 0.818056 0.824055 0.875943 0.670994 0.93107 0.683733 1.01142 1.04793 1.00848 0.759934 1.033 0.958559 0.869226 1.08259 0.770622 0.844723 0.797297 0.857876 0.984592 0.954469 0.938113 0.982052 1.0201 1.08407 1.09424 1.08139 0.993822 0.887025 0.922091 0.995405 0.952483 1.01252 1.0701 0.910652 1.07086 1.07637 1.03859 0.977629 0.909629 1.12334 1.09092 1.02153 1.09116 1.13784 1.09384 1.07725 1.08074 1.05148 1.07244 1.15083 1.10956 1.15973 1.15486 1.11865 1.14488 1.18542 1.1483 1.14902 1.14187 1.14296 1.14783 1.15253 1.15586 1.15098 1.15438 1.15316 1.14791 1.16782 1.18108 1.15161 1.14924 1.18096 1.13171 1.13299 1.1533 1.15387 1.12785 1.14479 1.15395 1.09575 1.1082 1.03854 1.11884 1.15102 1.14682 1.13256 1.07155 1.00045 1.0233 0.94793 1.02367 1.0909 1.03792 1.06624 0.985639 1.02608 1.04912 1.03881 1.12651 0.844218 0.861606 0.952897 0.992012 0.931082 1.03139 1.04923 1.06949 0.821872 0.98627 0.8828 0.903979 1.00517 0.856599 0.882526 0.931613 0.915558 0.808264 0.959274 1.0585 0.851481 0.781587 0.868284 0.983313 1.03677 1.01002 1.00604 1.00433 1.02172 1.00661 1.01565 1.0986 1.00289 1.026 1.08707 1.02801 1.01442 0.951218 0.898556 0.984144 1.01874 1.08311 1.00217 1.17488 1.05932 0.934744 0.907297 1.18564 1.10692 1.05853 1.14074 1.12373 1.1015 1.09411 1.08262 1.05951 1.09453 1.13669 1.17305 1.15187 1.13428 1.12804 1.18531 1.15548 1.14839 1.14857 1.16733 1.15394 1.15253 1.16525 1.15176 1.16204 1.15349 1.23346 1.19356 1.13669 1.17759 1.1873 1.13759 1.14128 1.1715 1.15136 1.15532 1.13501 1.14082 1.17181 1.15835 1.1319 1.05749 1.11974 1.1737 1.16294 1.11689 1.06998 1.02643 1.04161 1.05194 1.0877 1.03296 1.03717 1.02747 1.02361 0.992356 1.11171 1.06863 1.05416 0.924472 0.879977 0.928805 0.983103 1.01135 0.969216 0.88268 1.03927 1.02467 1.07904 1.05056 1.07248 0.940208 0.829658 0.98968 0.975351 0.979279 0.951389 0.918514 0.947359 1.00211 0.999292 0.883787 0.891846 0.842746 0.957714 1.02751 0.857817 0.951287 1.00958 1.02431 1.01784 1.04697 1.0058 1.00927 1.08091 0.968854 1.09855 1.04186 1.06858 0.977455 0.929458 1.07526 1.01875 1.03184 1.1242 1.16011 0.929676 1.04759 0.923835 1.16473 1.06957 1.13384 1.1093 1.11256 1.10441 1.09543 1.07203 1.11292 1.13642 1.14821 1.16196 1.14106 1.15777 1.1611 1.1606 1.17297 1.16051 1.19826 1.14903 1.16764 1.15145 1.16824 1.15993 1.2598 1.18394 1.17387 1.1231 1.1624 1.16832 1.20527 1.17556 1.15004 1.14199 1.15837 1.13491 1.13087 1.12451 1.11364 1.17753 1.11179 1.16287 1.14678 1.1328 1.17353 1.07015 1.04113 1.08974 1.04727 1.04796 1.03457 1.04097 1.03735 0.98011 0.989101 1.0568 1.03557 0.967474 0.924989 0.984142 0.990382 0.984317 0.990754 1.03496 1.04093 1.0705 1.08562 0.998873 1.04631 0.948575 0.969076 0.997051 1.01732 0.963067 0.914555 0.930176 0.938345 0.848323 0.977508 0.904732 1.01103 1.0776 0.994179 1.02861 1.01051 1.03103 1.00462 1.07444 1.04186 1.07099 1.05984 1.09614 1.00908 1.03213 1.08134 1.06244 1.15206 1.12887 1.07124 1.10495 0.957966 1.17314 1.08045 1.13709 1.11611 1.11493 1.12268 1.09931 1.11347 1.09634 1.12058 1.1369 1.15491 1.16652 1.17202 1.15283 1.19179 1.1617 1.16344 1.17523 1.14098 1.19667 1.16535 1.18235 1.16305 1.1452 1.16541 1.19997 1.18571 1.18253 1.14679 1.1593 1.19547 1.20498 1.18006 1.15465 1.15531 1.16433 1.1366 1.13723 1.1625 1.17698 1.10979 1.13746 1.14179 1.16307 1.14518 1.00613 1.03165 1.12226 1.03767 1.05376 1.04182 1.03232 1.02748 1.01836 1.03347 1.08574 0.983114 1.02101 0.982146 1.08545 0.988102 0.940104 1.01736 0.974542 0.988047 1.02041 1.05871 1.03906 1.1359 1.11763 1.07375 0.953071 0.977856 0.967258 0.990603 0.982494 1.05083 1.05811 0.92666 0.886589 0.987456 1.0267 1.0352 1.00899 1.16411 1.08157 1.00322 1.03377 1.02937 1.02756 1.01903 1.08165 1.02313 1.12171 0.85456 0.949689 1.10266 1.10557 1.09362 1.01976 1.03652 1.07809 1.15769 1.13572 1.09782 1.10034 1.07941 1.00729 1.16865 1.08954 1.12788 1.11178 1.11941 1.13038 1.11818 1.11781 1.13307 1.13911 1.16761 1.17457 1.17492 1.16988 1.203 1.16757 1.16701 1.17656 1.14572 1.16567 1.19848 1.18447 1.16888 1.15462 1.17635 1.19688 1.18167 1.19195 1.16178 1.18612 1.15746 1.18147 1.18151 1.16475 1.16297 1.16828 1.14031 1.14273 1.16693 1.19268 1.13606 1.14897 1.1412 1.14161 1.16327 1.13996 1.12298 1.09458 1.19858 1.058 1.03823 1.02384 1.03414 1.04915 1.14592 0.924846 0.938746 1.07975 1.01847 0.978767 1.03558 1.04314 0.984168 1.08926 1.0828 1.02671 1.12344 1.15186 1.11264 0.952865 0.994748 1.0018 1.05492 1.1085 0.955571 0.919865 0.997454 1.05285 1.01736 1.12545 1.05483 1.13664 1.05008 1.02901 1.0438 1.05001 1.08393 1.05687 1.0897 1.08698 1.095 1.13399 1.09924 1.11371 1.08626 1.09845 1.08744 1.14997 1.10063 1.08641 1.03428 1.15944 1.10461 1.12682 1.12358 1.11626 1.13297 1.19452 1.15042 1.1342 1.1738 1.17908 1.17506 1.17489 1.15765 1.16699 1.16193 1.1771 1.14851 1.16794 1.19894 1.18131 1.17028 1.15952 1.18242 1.17513 1.1776 1.19371 1.17557 1.15763 1.16722 1.18546 1.17802 1.1689 1.16635 1.17011 1.16633 1.1406 1.16471 1.15359 1.1473 1.14789 1.15358 1.15156 1.16432 1.13267 1.226 1.20517 1.09671 1.18568 1.15056 1.05377 1.12744 1.06121 1.04916 0.894276 0.989464 1.08767 1.03776 1.02613 1.08733 1.03671 1.00168 1.02606 1.14259 1.06477 1.01784 1.10544 1.15072 1.07823 1.26489 1.07587 1.02038 1.05227 0.969817 0.946822 0.969706 1.00732 1.11853 1.12314 1.07215 1.13481 1.07418 1.05882 1.06488 1.1052 1.10965 1.09497 1.08768 1.09438 1.13452 1.10677 1.11465 1.0929 1.11772 1.11705 1.15751 1.11261 1.09237 1.04492 1.14033 1.13808 1.11996 1.14543 1.12338 1.14595 1.18933 1.16147 1.15723 1.14658 1.1793 1.18213 1.17932 1.17344 1.19521 1.1831 1.16021 1.18021 1.1513 1.17286 1.19457 1.17949 1.1698 1.18836 1.18351 1.17727 1.17783 1.19481 1.17718 1.15938 1.16807 1.16886 1.18426 1.16981 1.16734 1.17821 1.17522 1.15342 1.16021 1.14511 1.15325 1.17425 1.15226 1.16875 1.16844 1.13336 1.12219 1.15883 1.13893 1.05875 1.21218 1.08715 1.16563 1.15641 1.08954 1.09468 1.06911 1.08545 1.0299 1.13542 1.02369 1.0012 1.07364 1.06941 1.12263 1.18309 1.12958 1.19138 1.07613 1.05601 1.11033 1.09411 1.06415 0.991275 1.01909 0.990789 1.01808 1.08862 1.11153 1.13073 1.14117 1.13898 1.08624 1.06565 1.07085 1.10661 1.12364 1.11484 1.09521 1.09882 1.12084 1.19214 1.11212 1.11564 1.1031 1.11439 1.13149 1.14647 1.17238 1.16117 1.14176 1.14536 1.17523 1.13149 1.16867 1.163 1.14965 1.17813 1.15798 1.14847 1.15136 1.17939 1.1825 1.18295 1.17713 1.17625 1.1763 1.17869 1.17986 1.15386 1.17561 1.19444 1.18367 1.17019 1.18826 1.18402 1.17846 1.17888 1.19066 1.17807 1.15823 1.16805 1.17163 1.14896 1.17061 1.17967 1.17699 1.17812 1.17642 1.15322 1.16496 1.16323 1.17315 1.17253 1.17045 1.15717 1.17347 1.12936 1.11473 1.12555 1.19146 1.15358 1.10154 1.10752 1.16386 1.16474 1.14273 1.11167 1.08684 1.14093 1.09373 1.0458 1.11012 1.14754 1.17635 1.13153 1.07647 1.10886 1.16746 1.20002 1.15478 1.08284 1.09802 1.08637 1.1024 1.06397 1.00662 1.04423 1.11265 1.18437 1.10282 1.1258 1.15034 1.1419 1.08218 1.12095 1.07795 1.10737 1.13062 1.12034 1.18043 1.12865 1.09242 1.11666 1.11803 1.13056 1.13245 1.14316 1.1468 1.16369 1.15631 1.14199 1.14754 1.17565 1.13283 1.17591 1.17189 1.15811 1.15233 1.17762 1.17072 1.16697 1.14719 1.18456 1.18385 1.17732 1.17733 1.18469 1.17794 1.17773 1.19536 1.19581 1.17956 1.18969 1.18411 1.17454 1.18781 1.18387 1.18035 1.18442 1.19116 1.17524 1.18199 1.16355 1.17331 1.19698 1.20508 1.17337 1.18639 1.18306 1.17052 1.18939 1.16341 1.16662 1.17576 1.15951 1.17211 1.16232 1.17211 1.1744 1.13606 1.14549 1.12616 1.14659 1.15355 1.18473 1.16877 1.12904 1.13819 1.16219 1.13633 1.1073 1.10873 1.12836 1.0365 1.10242 1.15332 1.14659 1.15158 1.07739 1.09774 1.12162 1.18488 1.13561 1.14544 1.08986 1.10806 1.10525 1.09217 1.07025 1.0176 1.06503 1.19354 1.10774 1.11923 1.13342 1.14886 1.1474 1.12505 1.13727 1.09694 1.10569 1.16681 1.16289 1.11517 1.15108 1.12378 1.15851 1.14915 1.12279 1.13914 1.11852 1.14679 1.14237 1.15832 1.14633 1.15715 1.14697 1.15977 1.16557 1.1923 1.1831 1.17048 1.1806 1.16042 1.15596 1.1724 1.1831 1.17654 1.15742 1.18647 1.18571 1.18309 1.18637 1.18534 1.17763 1.18991 1.19175 1.19033 1.18434 1.17583 1.1961 1.18451 1.18489 1.18958 1.19178 1.18024 1.19178 1.1806 1.18811 1.17552 1.18073 1.18675 1.18182 1.16905 1.18545 1.18631 1.16985 1.16485 1.17016 1.1787 1.14288 1.16535 1.12439 1.1297 1.18227 1.17871 1.18268 1.16334 1.13061 1.13333 1.11064 1.11669 1.13 1.16735 1.06605 1.11592 1.16024 1.15085 1.19101 1.19867 1.08088 1.10005 1.07973 1.11325 1.12685 1.14553 1.09321 1.11156 1.11885 1.09835 1.07306 1.02685 1.0766 1.18755 1.12002 1.14668 1.12864 1.12985 1.12973 1.13341 1.13764 1.14816 1.1626 1.17884 1.14813 1.16303 1.15056 1.15862 1.12906 1.14072 1.15088 1.15417 1.16483 1.15329 1.16213 1.16481 1.15847 1.17249 1.1666 1.18331 1.17675 1.17922 1.16328 1.17472 1.18448 1.19213 1.17927 1.16254 1.18054 1.18379 1.18835 1.18642 1.18698 1.19052 1.17781 1.19599 1.19281 1.18905 1.17873 1.19178 1.19178 1.1853 1.18455 1.18585 1.18909 1.18178 1.18046 1.18849 1.16646 1.18121 1.18632 1.18141 1.16491 1.17 1.16953 1.18676 1.1844 1.16666 1.16994 1.16744 1.18515 1.15887 1.16939 1.13423 1.12433 1.18474 1.17767 1.16461 1.1341 1.1432 1.13117 1.14381 1.19866 1.10007 1.11496 1.17358 1.18707 1.13047 1.1407 1.13301 1.14567 1.14665 1.13839 1.09695 1.10938 1.12197 1.1454 1.10243 1.09885 1.04975 1.08572 1.15416 1.16108 1.13878 1.10234 1.13073 1.13561 1.14893 1.15284 1.15599 1.16359 1.15982 1.14429 1.17497 1.15648 1.14407 1.14117 1.15861 1.15938 1.1664 1.15835 1.15733 1.16867 1.16143 1.17294 1.17061 1.18269 1.19243 1.17513 1.17062 1.17791 1.19387 1.18389 1.18978 1.18475 1.16553 1.18149 1.18117 1.18791 1.18623 1.18947 1.18179 1.19102 1.19129 1.19281 1.1894 1.17943 1.19207 1.1931 1.19178 1.18549 1.19178 1.18734 1.19003 1.19262 1.18194 1.18878 1.18776 1.1797 1.17428 1.18287 1.18586 1.16802 1.16928 1.17102 1.18401 1.16967 1.1821 1.16431 1.17121 1.17634 1.18388 1.16975 1.17188 1.13176 1.14194 1.13885 1.18029 1.19479 1.19241 1.14898 1.14327 1.14159 1.16481 1.15316 1.19363 1.11948 1.16322 1.21002 1.11791 1.18457 1.14161 1.12167 1.15642 1.14965 1.14538 1.147 1.14188 1.11597 1.12847 1.15215 1.13439 1.08151 1.06919 1.0649 1.09437 1.13293 1.17301 1.14372 1.13459 1.13275 1.13269 1.13926 1.15204 1.15933 1.17129 1.16347 1.16626 1.18053 1.19178 1.15799 1.14666 1.16502 1.16981 1.16326 1.17123 1.16787 1.15893 1.16902 1.16142 1.17371 1.17213 1.17774 1.19138 1.17375 1.17453 1.17706 1.19404 1.18724 1.16612 1.18251 1.18178 1.18816 1.18629 1.18879 1.18734 1.19212 1.19178 1.19178 1.19134 1.18278 1.19365 1.19034 1.18809 1.19333 1.18743 1.18979 1.19284 1.18184 1.18287 1.18747 1.17977 1.17669 1.18647 1.18768 1.18774 1.17173 1.17282 1.18217 1.18136 1.17617 1.18507 1.17752 1.16957 1.1726 1.1821 1.14375 1.17872 1.14485 1.15789 1.191 1.15212 1.17689 1.15513 1.16626 1.11668 1.16825 1.15275 1.18657 1.13106 1.1881 1.15468 1.14655 1.14879 1.147 1.14179 1.17326 1.17627 1.14099 1.06723 1.09802 1.11503 1.15136 1.15162 1.14261 1.14233 1.13295 1.1397 1.15331 1.16189 1.17234 1.16493 1.17058 1.18131 1.19403 1.15992 1.15165 1.15747 1.17235 1.17799 1.17204 1.16921 1.17267 1.17593 1.17331 1.17407 1.16921 1.17968 1.19143 1.18948 1.1764 1.17782 1.19178 1.18768 1.18964 1.18731 1.18588 1.18469 1.1873 1.18455 1.19182 1.18845 1.19182 1.19178 1.19179 1.19121 1.18693 1.19178 1.18861 1.18946 1.19317 1.19019 1.19299 1.18832 1.18745 1.18457 1.18738 1.18995 1.17988 1.17905 1.18784 1.1856 1.17638 1.17881 1.17092 1.18261 1.17844 1.18919 1.17997 1.17319 1.17495 1.18209 1.14268 1.1763 1.13314 1.14092 1.15016 1.16995 1.19215 1.16289 1.17458 1.16304 1.17997 1.12026 1.17359 1.15517 1.16957 1.19202 1.13254 1.17552 1.15296 1.14263 1.15365 1.16779 1.15946 1.16274 1.14671 1.10378 1.15617 1.15162 1.15721 1.15157 1.15117 1.14437 1.17187 1.13477 1.14381 1.14629 1.16362 1.17499 1.16745 1.17436 1.19373 1.18519 1.15402 1.15571 1.15833 1.1734 1.17802 1.17279 1.16974 1.18079 1.18724 1.18892 1.1727 1.16959 1.1769 1.19173 1.18351 1.17872 1.1923 1.17918 1.18778 1.18928 1.19178 1.18632 1.1923 1.18788 1.18845 1.19048 1.18808 1.19167 1.19209 1.1924 1.19111 1.18673 1.19142 1.18945 1.189 1.19135 1.19088 1.18795 1.18924 1.18474 1.18073 1.1891 1.18797 1.18609 1.18774 1.17945 1.17166 1.18447 1.18089 1.17823 1.18138 1.17986 1.17365 1.17518 1.19178 1.16052 1.17627 1.14699 1.13466 1.17995 1.16192 1.1688 1.16914 1.16944 1.162 1.17869 1.13111 1.18202 1.15829 1.17408 1.14309 1.18485 1.16643 1.14686 1.14323 1.15351 1.16931 1.16614 1.17499 1.1358 1.15103 1.19178 1.15818 
SCALARS Stress float 1
LOOKUP_TABLE default
-20881100000.0 -120951000000.0 -208758000000.0 -37979100000.0 -244657000000.0 -67308700000.0 -698740000000.0 -746231000000.0 -499693000000.0 -201368000000.0 -369422000000.0 -662706000000.0 -527074000000.0 -2.30702e+12 -697044000000.0 -4.36268e+12 -1.25846e+12 -325158000000.0 -1.25086e+12 -1.17614e+12 -633552000000.0 -512436000000.0 -169413000000.0 -463088000000.0 -399001000000.0 -648204000000.0 -582144000000.0 -765197000000.0 -691158000000.0 -227151000000.0 -153267000000.0 -260315000000.0 -488729000000.0 -835779000000.0 -1.45073e+12 -438930000000.0 -1.38621e+12 -465009000000.0 -827037000000.0 -1.4656e+12 -4.22375e+12 -2.00558e+12 -2.77538e+12 -4.89976e+12 -4.35238e+12 -2.63247e+12 -2.97791e+12 -2.80786e+12 -1.94837e+12 -1.7795e+12 -1.32275e+12 -1.22047e+12 -926999000000.0 -1.09402e+12 -983884000000.0 -1.62179e+12 -593946000000.0 -368678000000.0 -1.31792e+12 -1.19492e+12 -677433000000.0 -1.06065e+12 -1.14763e+12 -1.41676e+12 -484047000000.0 -1.44431e+12 -1.54081e+12 -2.40236e+12 -1.21451e+12 -1.69285e+12 -2.16854e+12 -3.39062e+12 -7.1538e+12 -3.10885e+12 -2.0076e+12 -2.88752e+12 -2.98404e+12 -5.02243e+12 -7.4892e+12 -3.0452e+12 -7.19277e+12 -7.26704e+12 -2.88524e+12 -3.08575e+12 -730450000000.0 -3.9145e+12 -2.43768e+12 -1.18294e+12 -1.31968e+12 -1.38055e+12 -2.49743e+12 -1.26431e+12 -1.7687e+12 -1.69688e+12 -804568000000.0 -916351000000.0 -1.14556e+12 -977694000000.0 -1.28028e+12 -1.38288e+12 -3.37473e+12 -1.53768e+12 -1.44399e+12 -931712000000.0 -1.87509e+12 -748215000000.0 -3.2424e+12 -4.30588e+12 -1.97881e+12 -3.54579e+12 -2.3326e+12 -2.72876e+12 -2.574e+12 -4.51176e+12 -3.38892e+12 -2.75129e+12 -5.79461e+12 -1.99703e+12 -2.57931e+12 -3.78239e+12 -4.19063e+12 -4.09205e+12 -3.52861e+12 -3.7654e+12 -3.64161e+12 -4.16112e+12 -6.8833e+12 -5.48966e+12 -3.98917e+12 -5.94414e+12 -5.68025e+12 -5.42329e+12 -4.14326e+12 -3.63301e+12 -2.74478e+12 -2.13992e+12 -1.23382e+12 -2.55879e+12 -1.22569e+12 -1.40534e+12 -1.04314e+12 -1.23502e+12 -1.90402e+12 -982750000000.0 -2.31519e+12 -3.46506e+12 -2.04352e+12 -1.75601e+12 -5.1217e+12 -1.69231e+12 -1.97421e+12 -3.5494e+12 -2.72725e+12 -3.90368e+12 -3.55879e+12 -4.44852e+12 -4.23596e+12 -3.93589e+12 -4.52743e+12 -2.9174e+12 -5.81039e+12 -7.02504e+12 -5.13767e+12 -4.41784e+12 -2.72181e+12 -5.82964e+12 -4.62863e+12 -7.25801e+12 -7.55013e+12 -3.87581e+12 -4.35332e+12 -6.40892e+12 -3.60856e+12 -6.28637e+12 -3.60341e+12 -2.62473e+12 -6.7983e+12 -3.61891e+12 -7.42358e+12 -3.46121e+12 -5.15644e+12 -2.6935e+12 -3.74534e+12 -2.10651e+12 -2.18846e+12 -3.09425e+12 -1.43535e+12 -3.02323e+12 -826093000000.0 -1.73292e+12 -1.80591e+12 -1.08905e+12 -1.67572e+12 -2.34925e+12 -3.01401e+12 -3.13214e+12 -1.61728e+12 -1.88546e+12 -4.08218e+12 -1.05947e+12 -3.47582e+12 -2.35336e+12 -1.43056e+12 -1.29908e+12 -4.34298e+12 -4.4061e+12 -3.19571e+12 -3.9597e+12 -5.96682e+12 -6.48538e+12 -5.17888e+12 -4.22833e+12 -7.36049e+12 -4.88742e+12 -5.91993e+12 -5.82443e+12 -7.41613e+12 -3.06461e+12 -3.23528e+12 -4.83706e+12 -3.69715e+12 -5.08978e+12 -5.97424e+12 -3.0831e+12 -6.80672e+12 -6.56794e+12 -3.22427e+12 -5.40826e+12 -5.27422e+12 -3.46068e+12 -6.44579e+12 -5.03592e+12 -3.2827e+12 -5.09645e+12 -5.2719e+12 -5.49598e+12 -4.52179e+12 -4.22046e+12 -3.29727e+12 -2.07972e+12 -2.80657e+12 -3.80511e+12 -3.44039e+12 -2.36398e+12 -2.65118e+12 -1.0406e+12 -1.91119e+12 -1.45104e+12 -3.42166e+12 -3.18755e+12 -2.64923e+12 -3.06039e+12 -3.08067e+12 -2.00724e+12 -3.51179e+12 -3.1074e+12 -3.92446e+12 -4.8436e+12 -3.60823e+12 -5.67071e+12 -2.88845e+12 -6.15482e+12 -3.00599e+12 -8.14568e+12 -8.69526e+12 -8.99256e+12 -1.18306e+13 -6.13566e+12 -6.65748e+12 -2.24179e+12 -6.84814e+12 -6.74287e+12 -4.0517e+12 -2.45554e+12 -3.40737e+12 -4.09288e+12 -8.76023e+12 -5.69175e+12 -5.14967e+12 -9.23793e+12 -4.88813e+12 -5.49027e+12 -2.90754e+12 -6.71761e+12 -5.55531e+12 -4.61867e+12 -6.93034e+12 -3.41358e+12 -2.0563e+12 -6.20922e+12 -5.0972e+12 -2.81787e+12 -1.61062e+12 -2.35504e+12 -3.17533e+12 -3.20401e+12 -1.76162e+12 -3.40863e+12 -2.55745e+12 -1.85828e+12 -2.82575e+12 -3.60125e+12 -2.38355e+12 -3.82145e+12 -3.03806e+12 -2.9187e+12 -3.3733e+12 -3.87361e+12 -5.43754e+12 -5.16398e+12 -6.17121e+12 -2.80859e+12 -5.73066e+12 -5.61946e+12 -6.75371e+12 -5.38223e+12 -7.3064e+12 -5.15506e+12 -5.85859e+12 -6.82338e+12 -4.65708e+12 -4.36313e+12 -6.84068e+12 -3.34451e+12 -3.13415e+12 -4.24485e+12 -4.11884e+12 -4.29289e+12 -3.87029e+12 -3.74491e+12 -8.8853e+12 -6.2625e+12 -3.74303e+12 -9.10242e+12 -7.01699e+12 -3.8495e+12 -7.55026e+12 -4.38633e+12 -6.69348e+12 -4.65961e+12 -6.85738e+12 -4.52027e+12 -4.23304e+12 -4.27135e+12 -4.29292e+12 -6.81408e+12 -4.50054e+12 -2.69091e+12 -3.73404e+12 -3.19021e+12 -4.93179e+12 -2.22893e+12 -3.39579e+12 -3.67557e+12 -1.88423e+12 -1.22325e+12 -883796000000.0 -1.50668e+12 -1.67998e+12 -2.08025e+12 -2.31108e+12 -2.27589e+12 -1.32742e+12 -3.92845e+12 -1.91564e+12 -3.24627e+12 -2.28837e+12 -2.61035e+12 -4.02941e+12 -1.48044e+12 -2.7132e+12 -4.36541e+12 -3.53363e+12 -3.55168e+12 -1.83577e+12 -3.58538e+12 -1.51645e+12 -5.48356e+12 -6.3631e+12 -3.47957e+12 -4.70715e+12 -4.07461e+12 -6.24213e+12 -3.4071e+12 -4.02264e+12 -4.9285e+12 -7.19158e+12 -6.87233e+12 -5.14712e+12 -8.4007e+12 -4.73074e+12 -4.85775e+12 -9.46702e+12 -1.091e+13 -5.53212e+12 -6.37982e+12 -4.80648e+12 -6.34602e+12 -5.05115e+12 -5.22539e+12 -4.3726e+12 -3.83788e+12 -7.68377e+12 -5.69619e+12 -3.41773e+12 -6.26755e+12 -7.10283e+12 -6.31199e+12 -4.13771e+12 -5.34286e+12 -4.52056e+12 -6.52223e+12 -3.87981e+12 -8.52572e+12 -5.71783e+12 -6.36633e+12 -3.12834e+12 -7.04889e+12 -4.29846e+12 -4.61966e+12 -6.30525e+12 -6.8028e+12 -5.14045e+12 -3.57662e+12 -4.54013e+12 -3.24293e+12 -4.26346e+12 -3.53605e+12 -4.80904e+12 -3.2343e+12 -2.85285e+12 -2.72699e+12 -3.29014e+12 -2.89693e+12 -2.43355e+12 -1.84011e+12 -2.34663e+12 -1.64813e+12 -2.96086e+12 -2.08071e+12 -4.03324e+12 -2.10256e+12 -4.30384e+12 -2.6495e+12 -2.62379e+12 -2.89979e+12 -1.72761e+12 -2.55828e+12 -2.87698e+12 -2.82389e+12 -3.54642e+12 -3.76155e+12 -3.7643e+12 -5.48084e+12 -4.82183e+12 -5.12051e+12 -6.84813e+12 -7.64779e+12 -4.71526e+12 -6.53669e+12 -4.95857e+12 -6.16196e+12 -1.16052e+13 -8.5648e+12 -5.78757e+12 -4.55143e+12 -5.17053e+12 -6.44662e+12 -3.59475e+12 -4.07094e+12 -5.62659e+12 -2.91604e+12 -3.31844e+12 -5.09835e+12 -8.30698e+12 -8.94813e+12 -6.49472e+12 -5.41651e+12 -5.33028e+12 -3.72358e+12 -3.09928e+12 -6.393e+12 -4.77463e+12 -5.11641e+12 -6.30716e+12 -8.45868e+12 -2.4558e+12 -5.46031e+12 -5.70678e+12 -5.17526e+12 -3.53965e+12 -5.2076e+12 -4.44764e+12 -2.28697e+12 -2.35497e+12 -2.73446e+12 -2.64285e+12 -3.23696e+12 -4.16749e+12 -3.9417e+12 -3.3804e+12 -1.78346e+12 -1.55411e+12 -2.44401e+12 -1.8628e+12 -2.44031e+12 -3.43728e+12 -2.61377e+12 -4.88368e+12 -2.33856e+12 -2.32436e+12 -2.37306e+12 -1.90351e+12 -1.74302e+12 -1.92056e+12 -2.55494e+12 -3.20764e+12 -3.97083e+12 -2.87749e+12 -2.21426e+12 -3.37355e+12 -4.25509e+12 -3.84301e+12 -4.08681e+12 -3.55178e+12 -3.98979e+12 -6.521e+12 -2.04786e+12 -3.39936e+12 -2.90675e+12 -5.50593e+12 -4.58462e+12 -4.89561e+12 -5.45389e+12 -6.12467e+12 -4.05102e+12 -4.14342e+12 -8.18584e+12 -8.50556e+12 -7.4476e+12 -2.65046e+12 -4.00807e+12 -8.43785e+12 -6.12163e+12 -5.40813e+12 -7.40655e+12 -4.72903e+12 -4.12449e+12 -8.57889e+12 -4.33105e+12 -5.28799e+12 -3.05945e+12 -6.93782e+12 -2.94996e+12 -2.72806e+12 -2.903e+12 -3.13026e+12 -2.76823e+12 -4.93661e+12 -7.08957e+12 -6.7692e+12 -5.28362e+12 -8.49421e+12 -4.6898e+12 -6.36455e+12 -2.67498e+12 -5.97951e+12 -6.86703e+12 -5.22788e+12 -4.39313e+12 -5.03489e+12 -3.69055e+12 -8.53569e+12 -6.27386e+12 -4.63047e+12 -4.64964e+12 -5.47422e+12 -2.5804e+12 -2.65677e+12 -4.7531e+12 -6.4404e+12 -4.73665e+12 -3.63214e+12 -3.46506e+12 -4.52479e+12 -3.82093e+12 -3.60951e+12 -4.62187e+12 -4.13202e+12 -2.37893e+12 -2.14427e+12 -2.34019e+12 -1.2259e+12 -2.52343e+12 -2.66247e+12 -2.47926e+12 -2.41584e+12 -1.45692e+12 -2.1896e+12 -3.06903e+12 -1.46938e+12 -2.03695e+12 -1.01992e+12 -1.49765e+12 -2.27361e+12 -1.43198e+12 -2.97954e+12 -2.25016e+12 -2.57464e+12 -3.80432e+12 -3.31509e+12 -2.23242e+12 -3.20891e+12 -1.70786e+12 -3.85963e+12 -4.50981e+12 -3.50555e+12 -3.41486e+12 -4.76469e+12 -4.19585e+12 -3.55879e+12 -2.49408e+12 -3.0641e+12 -9.77157e+12 -7.89706e+12 -5.42504e+12 -1.25709e+13 -8.0714e+12 -4.65976e+12 -7.7175e+12 -6.18622e+12 -1.01332e+13 -9.46141e+12 -4.27333e+12 -6.26391e+12 -5.79934e+12 -5.32836e+12 -6.01621e+12 -8.05295e+12 -4.16988e+12 -5.12417e+12 -5.55113e+12 -4.68583e+12 -3.9061e+12 -7.87603e+12 -8.62901e+12 -4.61801e+12 -4.08309e+12 -7.62156e+12 -5.78657e+12 -7.35074e+12 -8.87544e+12 -5.27452e+12 -6.52735e+12 -3.88683e+12 -3.74141e+12 -4.80991e+12 -6.37431e+12 -6.91698e+12 -8.70122e+12 -8.25289e+12 -8.92711e+12 -5.95814e+12 -3.41958e+12 -4.03953e+12 -5.6014e+12 -7.83148e+12 -3.02927e+12 -4.45398e+12 -3.10848e+12 -6.1576e+12 -2.38457e+12 -3.4855e+12 -3.64601e+12 -3.14858e+12 -3.30744e+12 -2.91492e+12 -1.86571e+12 -2.39363e+12 -879947000000.0 -1.43099e+12 -1.9235e+12 -1.13865e+12 -1.97532e+12 -1.8867e+12 -2.74292e+12 -1.22297e+12 -1.88202e+12 -1.63939e+12 -2.52994e+12 -2.68106e+12 -2.73156e+12 -2.83484e+12 -1.79958e+12 -1.62584e+12 -1.71713e+12 -3.33825e+12 -2.99124e+12 -3.17393e+12 -3.19251e+12 -1.78544e+12 -2.25097e+12 -7.95431e+12 -6.34033e+12 -3.91397e+12 -3.32804e+12 -8.43673e+12 -3.74822e+12 -7.67469e+12 -5.79733e+12 -6.61733e+12 -4.47874e+12 -4.84652e+12 -4.86424e+12 -5.04751e+12 -7.34312e+12 -3.64555e+12 -7.72227e+12 -8.46185e+12 -9.57183e+12 -4.32992e+12 -7.6602e+12 -5.79472e+12 -5.32313e+12 -9.38838e+12 -4.81401e+12 -9.20755e+12 -5.47184e+12 -5.60991e+12 -7.15988e+12 -6.20344e+12 -9.2457e+12 -9.74365e+12 -4.29028e+12 -4.66685e+12 -5.68003e+12 -5.87312e+12 -7.0015e+12 -2.45226e+12 -6.30188e+12 -6.78307e+12 -4.69618e+12 -4.65496e+12 -6.59542e+12 -6.58399e+12 -5.60308e+12 -6.66918e+12 -3.51736e+12 -3.68603e+12 -3.59972e+12 -8.39601e+12 -6.27949e+12 -3.20787e+12 -7.4909e+12 -4.777e+12 -3.43294e+12 -3.66047e+12 -2.99482e+12 -4.20821e+12 -2.7865e+12 -2.95973e+12 -5.08619e+12 -5.57406e+12 -3.0992e+12 -3.59424e+12 -3.74067e+12 -2.35881e+12 -3.65952e+12 -2.6537e+12 -2.48932e+12 -3.44895e+12 -2.82412e+12 -3.18367e+12 -2.2973e+12 -2.30825e+12 -2.96791e+12 -2.61774e+12 -5.35841e+12 -2.38531e+12 -2.32491e+12 -2.12809e+12 -3.65894e+12 -1.09603e+12 -2.42594e+12 -2.41452e+12 -3.54329e+12 -5.32705e+12 -2.09362e+12 -5.02923e+12 -1.96087e+12 -2.93081e+12 -1.97204e+12 -3.91319e+12 -2.92891e+12 -3.17516e+12 -6.57496e+12 -1.21348e+12 -5.53938e+12 -4.67431e+12 -4.73565e+12 -3.90535e+12 -4.63247e+12 -7.73814e+12 -6.05623e+12 -3.87603e+12 -6.10993e+12 -3.0202e+12 -3.95529e+12 -3.82384e+12 -5.68947e+12 -7.80131e+12 -3.05618e+12 -4.15928e+12 -2.11495e+12 -6.12866e+12 -8.77118e+12 -8.46099e+12 -7.9191e+12 -7.2154e+12 -6.64801e+12 -7.12704e+12 -1.20024e+13 -9.69928e+12 -2.96286e+12 -3.29163e+12 -4.20356e+12 -2.32319e+12 -4.74419e+12 -6.68985e+12 -1.20366e+13 -3.21295e+12 -8.53793e+12 -8.98798e+12 -1.00055e+13 -1.14141e+13 -7.73424e+12 -8.76391e+12 -6.60745e+12 -4.24527e+12 -4.31716e+12 -5.78591e+12 -6.11898e+12 -4.78373e+12 -5.61205e+12 -5.64736e+12 -5.62083e+12 -5.11401e+12 -5.46654e+12 -4.37961e+12 -6.4159e+12 -3.80936e+12 -3.93466e+12 -4.35915e+12 -6.09494e+12 -4.12381e+12 -3.85111e+12 -2.76831e+12 -1.68255e+12 -2.92468e+12 -3.33172e+12 -3.07958e+12 -2.01639e+12 -1.84095e+12 -2.47506e+12 -1.68358e+12 -1.58541e+12 -3.39286e+12 -1.49902e+12 -1.57919e+12 -1.01965e+12 -2.91833e+12 -3.2672e+12 -2.19057e+12 -2.81722e+12 -2.21911e+12 -3.11852e+12 -1.47593e+12 -2.57319e+12 -2.61636e+12 -1.07923e+12 -4.19638e+12 -2.81429e+12 -1.41551e+12 -3.59493e+12 -4.00727e+12 -4.43533e+12 -4.6517e+12 -2.6263e+12 -4.89836e+12 -4.34158e+12 -5.29612e+12 -5.00001e+12 -4.34218e+12 -4.16313e+12 -3.64465e+12 -2.68631e+12 -4.63626e+12 -5.10185e+12 -3.77109e+12 -5.32592e+12 -4.56393e+12 -4.65348e+12 -5.31299e+12 -7.30245e+12 -5.10449e+12 -5.46762e+12 -6.03656e+12 -7.13979e+12 -4.47139e+12 -1.23655e+13 -4.98948e+12 -7.69471e+12 -8.34917e+12 -6.68903e+12 -6.086e+12 -8.88527e+12 -6.36148e+12 -8.28178e+12 -3.04448e+12 -3.32524e+12 -4.13697e+12 -3.13426e+12 -7.16659e+12 -7.05447e+12 -4.76991e+12 -7.05776e+12 -4.52464e+12 -9.22534e+12 -7.81654e+12 -6.71386e+12 -8.57535e+12 -5.40619e+12 -6.82406e+12 -4.94208e+12 -2.98006e+12 -1.07839e+13 -4.93099e+12 -5.11603e+12 -6.61235e+12 -8.52431e+12 -4.61231e+12 -3.61317e+12 -5.5579e+12 -7.21148e+12 -6.60507e+12 -5.60424e+12 -4.53197e+12 -4.39894e+12 -3.47036e+12 -3.50093e+12 -3.57774e+12 -3.98272e+12 -4.63544e+12 -7.3576e+12 -2.81853e+12 -4.4781e+12 -5.31581e+12 -3.61348e+12 -3.78278e+12 -3.18113e+12 -3.21275e+12 -3.7366e+12 -2.8212e+12 -2.99763e+12 -1.51492e+12 -3.10412e+12 -1.59703e+12 -2.19117e+12 -2.70839e+12 -2.50624e+12 -1.81336e+12 -2.65241e+12 -2.60598e+12 -2.5782e+12 -2.415e+12 -3.11121e+12 -2.29289e+12 -2.0674e+12 -1.06215e+12 -1.74878e+12 -2.61749e+12 -3.01638e+12 -2.60289e+12 -1.81985e+12 -1.67793e+12 -2.24617e+12 -2.38936e+12 -2.36329e+12 -2.82085e+12 -2.5472e+12 -3.21627e+12 -2.07128e+12 -3.52932e+12 -4.51893e+12 -3.19724e+12 -5.67848e+12 -2.85296e+12 -2.67527e+12 -4.57978e+12 -6.99242e+12 -5.84422e+12 -3.54986e+12 -5.57722e+12 -5.83622e+12 -6.40042e+12 -3.87894e+12 -4.18072e+12 -5.59223e+12 -5.9102e+12 -4.78482e+12 -3.63631e+12 -5.12207e+12 -6.90412e+12 -1.02699e+13 -6.71611e+12 -7.52118e+12 -9.73213e+12 -6.67833e+12 -7.07503e+12 -6.70253e+12 -9.89861e+12 -7.1253e+12 -6.96188e+12 -5.46204e+12 -8.26148e+12 -8.01196e+12 -5.84147e+12 -6.25576e+12 -3.54458e+12 -4.87133e+12 -6.48833e+12 -5.03695e+12 -5.71296e+12 -7.60818e+12 -4.66423e+12 -7.70916e+12 -4.87495e+12 -5.06302e+12 -7.44255e+12 -8.27438e+12 -8.69064e+12 -8.22473e+12 -7.0213e+12 -4.35807e+12 -6.46904e+12 -7.64182e+12 -4.45813e+12 -4.66415e+12 -6.10915e+12 -5.45843e+12 -5.11187e+12 -4.89299e+12 -4.96099e+12 -4.29392e+12 -4.39785e+12 -5.52941e+12 -3.49427e+12 -4.64629e+12 -4.07013e+12 -3.89407e+12 -4.64621e+12 -5.98457e+12 -3.98977e+12 -4.53319e+12 -2.54529e+12 -2.42428e+12 -2.57847e+12 -3.31028e+12 -1.13907e+12 -1.58004e+12 -2.44407e+12 -1.04123e+12 -1.54928e+12 -2.18713e+12 -1.3075e+12 -1.23292e+12 -2.5609e+12 -1.57254e+12 -1.66466e+12 -1.27154e+12 -902741000000.0 -2.29589e+12 -1.97317e+12 -3.90821e+12 -2.26016e+12 -2.345e+12 -549246000000.0 -3.23676e+12 -2.53088e+12 -1.56898e+12 -1.24058e+12 -4.10796e+12 -1.82169e+12 -2.05523e+12 -2.40867e+12 -1.96617e+12 -3.13417e+12 -3.33875e+12 -3.91358e+12 -2.35937e+12 -2.1579e+12 -6.59542e+12 -4.17456e+12 -4.46929e+12 -4.06231e+12 -3.26671e+12 -5.34892e+12 -3.59517e+12 -6.46246e+12 -7.36892e+12 -5.71337e+12 -3.45532e+12 -5.44198e+12 -7.17813e+12 -3.7806e+12 -6.88796e+12 -5.78366e+12 -5.9759e+12 -6.17536e+12 -6.56884e+12 -8.70531e+12 -1.01145e+13 -8.53739e+12 -7.5118e+12 -5.45528e+12 -6.26134e+12 -6.36233e+12 -8.15692e+12 -3.3574e+12 -5.02495e+12 -5.08375e+12 -1.17927e+13 -7.30676e+12 -4.70421e+12 -8.06829e+12 -3.49662e+12 -2.5457e+12 -4.27385e+12 -9.09741e+12 -5.58154e+12 -8.69433e+12 -9.74287e+12 -7.21881e+12 -8.10066e+12 -5.72336e+12 -4.37285e+12 -8.48388e+12 -7.4163e+12 -6.53557e+12 -1.03737e+13 -6.42665e+12 -3.91092e+12 -4.79233e+12 -7.16682e+12 -5.38326e+12 -4.13903e+12 -8.96641e+12 -6.10915e+12 -5.20725e+12 -7.77188e+12 -5.16875e+12 -4.98704e+12 -5.83115e+12 -4.93304e+12 -4.60223e+12 -3.62381e+12 -3.10367e+12 -3.32027e+12 -3.87211e+12 -6.08112e+12 -2.5409e+12 -1.64744e+12 -2.948e+12 -1.51409e+12 -1.58247e+12 -1.24671e+12 -1.59604e+12 -3.29649e+12 -1.9534e+12 -3.6657e+12 -1.5492e+12 -953930000000.0 -3.83212e+12 -2.7438e+12 -2.46476e+12 -3.35903e+12 -1.26256e+12 -2.57619e+12 -1.76968e+12 -1.19649e+12 -2.26326e+12 -2.75556e+12 -2.46172e+12 -2.34866e+12 -4.32163e+12 -4.09629e+12 -2.54696e+12 -2.07683e+12 -4.828e+12 -4.15745e+12 -1.26884e+12 -2.42957e+12 -4.12616e+12 -2.7179e+12 -3.31615e+12 -2.84011e+12 -5.64893e+12 -2.49012e+12 -6.12444e+12 -6.31597e+12 -4.13246e+12 -4.43251e+12 -4.18074e+12 -8.2748e+12 -6.49813e+12 -4.11917e+12 -5.92766e+12 -5.58119e+12 -7.35135e+12 -7.06937e+12 -6.06266e+12 -9.6341e+12 -8.98295e+12 -9.03839e+12 -5.71654e+12 -4.95374e+12 -4.14704e+12 -9.84343e+12 -5.06385e+12 -5.88281e+12 -8.67808e+12 -6.62589e+12 -6.30601e+12 -8.84008e+12 -4.59184e+12 -3.91435e+12 -7.10119e+12 -8.12e+12 -7.44462e+12 -8.72021e+12 -8.24774e+12 -4.22555e+12 -6.0752e+12 -3.69185e+12 -8.93067e+12 -6.13549e+12 -4.59318e+12 -1.0753e+13 -6.73004e+12 -5.95499e+12 -4.915e+12 -6.03039e+12 -4.54583e+12 -5.10784e+12 -7.52248e+12 -2.11336e+12 -3.89333e+12 -5.86737e+12 -4.9277e+12 -7.75492e+12 -4.26946e+12 -6.14101e+12 -6.20078e+12 -4.8124e+12 -6.83065e+12 -3.72708e+12 -5.15435e+12 -3.64461e+12 -3.81379e+12 -4.74345e+12 -2.62982e+12 -3.76238e+12 -2.57238e+12 -3.52525e+12 -4.49291e+12 -2.44897e+12 -2.53861e+12 -2.25493e+12 -2.66789e+12 -4.6621e+12 -4.69378e+12 -3.98383e+12 -3.61424e+12 -2.43062e+12 -1.87021e+12 -3.22839e+12 -1.38128e+12 -2.36608e+12 -2.54832e+12 -2.83185e+12 -1.59757e+12 -1.8422e+12 -1.5324e+12 -1.95313e+12 -1.68266e+12 -2.37492e+12 -2.08187e+12 -1.92705e+12 -1.8612e+12 -2.31968e+12 -2.45561e+12 -4.15266e+12 -2.27891e+12 -2.31999e+12 -1.51084e+12 -2.54899e+12 -4.67965e+12 -3.67598e+12 -4.0541e+12 -2.75492e+12 -2.8675e+12 -1.97318e+12 -3.5581e+12 -3.79619e+12 -3.89742e+12 -5.11661e+12 -3.73513e+12 -3.10266e+12 -3.29095e+12 -2.68569e+12 -6.02299e+12 -5.75723e+12 -5.14859e+12 -4.11497e+12 -4.32205e+12 -5.90654e+12 -5.45978e+12 -7.03287e+12 -7.2059e+12 -3.9229e+12 -6.12369e+12 -1.11967e+13 -6.44994e+12 -7.8527e+12 -7.67856e+12 -3.91806e+12 -7.04276e+12 -3.71647e+12 -9.44488e+12 -7.92959e+12 -5.78011e+12 -2.76357e+12 -3.06333e+12 -6.12665e+12 -6.30028e+12 -6.27306e+12 -6.47955e+12 -6.29289e+12 -6.79021e+12 -6.97319e+12 -8.00691e+12 -3.73086e+12 -7.4249e+12 -6.47027e+12 -5.14764e+12 -8.60132e+12 -7.55992e+12 -9.93287e+12 -7.22378e+12 -9.59694e+12 -6.67432e+12 -5.55062e+12 -7.2334e+12 -5.09807e+12 -6.444e+12 -6.77227e+12 -4.06373e+12 -8.78935e+12 -3.12162e+12 -4.12659e+12 -3.12848e+12 -3.78689e+12 -6.57608e+12 -5.91833e+12 -5.18977e+12 -3.64737e+12 -7.35164e+12 -6.02124e+12 -5.8468e+12 -6.61371e+12 -4.30455e+12 -5.07365e+12 -5.41544e+12 -3.99966e+12 -1.40822e+12 -2.56832e+12 -4.16823e+12 -4.7558e+12 -2.49239e+12 -2.27577e+12 -3.28867e+12 -3.62329e+12 -2.22813e+12 -1.42395e+12 -1.34642e+12 -1.79511e+12 -3.29909e+12 -1.9371e+12 -2.70887e+12 -2.40128e+12 -2.62066e+12 -2.14441e+12 -1.31931e+12 -2.07135e+12 -2.23308e+12 -1.31992e+12 -1.06688e+12 -999016000000.0 -1.37523e+12 -1.89624e+12 -14510700000.0 -904764000000.0 -1.29937e+12 -1.96526e+12 -2.37365e+12 -2.79791e+12 -1.82588e+12 -2.17494e+12 -1.79207e+12 -1.36547e+12 -1.87193e+12 -1.54305e+12 -3.25243e+12 -3.9081e+12 -851824000000.0 -3.37205e+12 -2.98442e+12 -3.57356e+12 -1.16442e+12 -1.67887e+12 -3.64383e+12 -3.9805e+12 -3.25369e+12 -2.67599e+12 -5.55401e+12 -4.13875e+12 -3.96653e+12 -3.40777e+12 -5.02679e+12 -2.99056e+12 -2.76312e+12 -4.52397e+12 -5.93071e+12 -3.77165e+12 -6.5906e+12 -5.37247e+12 -4.68499e+12 -5.87176e+12 -2.72849e+12 -5.42969e+12 -5.62488e+12 -5.67548e+12 -6.29386e+12 -5.458e+12 -4.73803e+12 -1.99784e+12 -5.4758e+12 -5.04007e+12 -5.0124e+12 -4.83427e+12 -3.4566e+12 -8.06223e+12 -6.58789e+12 -5.82372e+12 -5.40395e+12 -5.63189e+12 -6.48826e+12 -6.66374e+12 -3.64832e+12 -5.97358e+12 -7.38243e+12 -4.42319e+12 -4.93183e+12 -2.26964e+12 -5.28907e+12 -2.10244e+12 -9.44123e+12 -6.75002e+12 -6.34869e+12 -4.25706e+12 -6.79894e+12 -4.46345e+12 -8.31535e+12 -1.02487e+13 -8.00908e+12 -2.17769e+12 -5.46839e+12 -5.06689e+12 -6.51424e+12 -7.89702e+12 -7.21161e+12 -4.42016e+12 -4.44673e+12 -6.49313e+12 -5.3073e+12 -5.65202e+12 -3.912e+12 -4.17814e+12 -7.67054e+12 -4.3695e+12 -3.71062e+12 -3.21583e+12 -5.0861e+12 -5.91761e+12 -3.4026e+12 -3.48885e+12 -1.69923e+12 -5.91583e+12 -4.18168e+12 -4.26241e+12 -2.9991e+12 -4.94423e+12 -3.17088e+12 -2.45251e+12 -3.90633e+12 -3.82737e+12 -3.12326e+12 -1.96842e+12 -3.26209e+12 -1.59548e+12 -2.55329e+12 -4.17288e+12 -2.19276e+12 -2.87268e+12 -2.83716e+12 -1.6586e+12 -2.64874e+12 -1.94301e+12 -1.74164e+12 -1.69642e+12 -2.05684e+12 -1.29668e+12 -1.53559e+12 -2.49113e+12 -2.12199e+12 -1.50167e+12 -862575000000.0 -1.45862e+12 -2.93453e+12 -2.20156e+12 -2.34516e+12 -2.05617e+12 -1.11647e+12 -1.21062e+12 -1.20029e+12 -353377000000.0 -1.64317e+12 -3.00735e+12 -1.58139e+12 -2.33476e+12 -3.35119e+12 -1.34345e+12 -2.7374e+12 -1.93723e+12 -3.87413e+12 -5.13229e+12 -1.33364e+12 -5.65306e+12 -2.12456e+12 -4.8938e+12 -3.87972e+12 -4.46333e+12 -2.14666e+12 -5.34427e+12 -2.14027e+12 -4.0641e+12 -1.49357e+12 -3.9624e+12 -5.75005e+12 -4.34536e+12 -4.02849e+12 -4.72227e+12 -4.34527e+12 -4.1422e+12 -6.5005e+12 -5.41238e+12 -2.97928e+12 -2.74713e+12 -4.78696e+12 -8.56239e+12 -6.18195e+12 -3.44798e+12 -7.64843e+12 -4.14497e+12 -7.53449e+12 -8.78829e+12 -7.09582e+12 -6.55219e+12 -7.16082e+12 -6.16611e+12 -6.52291e+12 -7.91613e+12 -4.96822e+12 -3.59225e+12 -6.60584e+12 -6.76625e+12 -8.21049e+12 -3.80433e+12 -8.35115e+12 -4.87408e+12 -4.22266e+12 -4.59915e+12 -4.44443e+12 -3.58505e+12 -5.10195e+12 -3.32547e+12 -5.27753e+12 -5.65689e+12 -5.7013e+12 -9.3959e+12 -7.07518e+12 -6.96848e+12 -4.19376e+12 -7.59007e+12 -5.64883e+12 -9.23023e+12 -4.62484e+12 -3.60616e+12 -3.78097e+12 -3.30352e+12 -5.45565e+12 -5.73402e+12 -3.1734e+12 -5.04371e+12 -5.93284e+12 -3.87737e+12 -4.4507e+12 -4.44415e+12 -2.75371e+12 -4.59663e+12 -5.55224e+12 -4.11058e+12 -2.82332e+12 -2.86657e+12 -4.41131e+12 -6.84532e+12 -6.33065e+12 -3.22704e+12 -3.12702e+12 -2.64472e+12 -5.40926e+12 -4.47996e+12 -4.50303e+12 -1.63163e+12 -2.51333e+12 -3.77993e+12 -2.63245e+12 -2.29069e+12 -3.58703e+12 -2.47775e+12 -1.58796e+12 -3.14098e+12 -3.82731e+12 -3.44491e+12 -2.00755e+12 -318125000000.0 -1.17e+12 -2.75281e+12 -1.56787e+12 -2.17057e+12 -2.23429e+12 -3.43306e+12 -1.23065e+12 -1.25166e+12 -497239000000.0 -1.2921e+12 -1.01565e+12 -958192000000.0 -1.46695e+12 -931552000000.0 -1.91306e+12 -2.57662e+12 -1.6373e+12 -1.99296e+12 -1.86227e+12 -2.257e+12 -1.12233e+12 -3.16561e+12 -1.96268e+12 -3.13202e+12 -3.50192e+12 -2.65531e+12 -1.66541e+12 -1.72373e+12 -4.70393e+12 -2.53054e+12 -3.78013e+12 -3.29031e+12 -5.86815e+12 -3.63341e+12 -3.44208e+12 -2.09688e+12 -2.65837e+12 -3.80246e+12 -4.57238e+12 -2.63362e+12 -4.25619e+12 -4.19726e+12 -1.75251e+12 -1.21191e+12 -2.80474e+12 -5.0435e+12 -6.72853e+12 -3.08998e+12 -5.08558e+12 -5.83845e+12 -6.23873e+12 -8.8353e+12 -5.80477e+12 -5.89116e+12 -6.53671e+12 -6.22706e+12 -8.55315e+12 -5.58938e+12 -8.42249e+12 -6.21144e+12 -5.42281e+12 -6.31229e+12 -7.5325e+12 -6.87766e+12 -4.61772e+12 -4.43596e+12 -5.38035e+12 -5.5309e+12 -7.34611e+12 -5.09366e+12 -6.04564e+12 -7.12257e+12 -4.41517e+12 -4.42078e+12 -4.78628e+12 -5.49051e+12 -3.11302e+12 -4.67853e+12 -5.63989e+12 -8.71593e+12 -5.28388e+12 -8.55701e+12 -5.75989e+12 -4.12407e+12 -2.50226e+12 -9.86124e+12 -7.24438e+12 -3.23787e+12 -6.9569e+12 -1.05247e+13 -6.44856e+12 -4.00074e+12 -7.58069e+12 -3.11144e+12 -4.51972e+12 -5.22881e+12 -6.55988e+12 -7.65569e+12 -6.97923e+12 -4.80958e+12 -5.1343e+12 -5.02301e+12 -4.43128e+12 -3.39637e+12 -5.02694e+12 -4.34479e+12 -4.94413e+12 -2.64081e+12 -3.33615e+12 -6.03072e+12 -2.14933e+12 -3.42327e+12 -4.29826e+12 -3.95289e+12 -2.89843e+12 -3.94104e+12 -1.29027e+12 -2.8723e+12 -4.86269e+12 -3.05523e+12 -2.24647e+12 -1.25791e+12 -1.90533e+12 -3.34497e+12 -2.08853e+12 -2.25362e+12 -2.14668e+12 -1.9323e+12 -3.28447e+12 -1.42712e+12 -1.49734e+12 -1.26822e+12 -2.00864e+12 -2.00818e+12 -982125000000.0 -1.53329e+12 -1.45587e+12 -1.85626e+12 -1.66887e+12 -985928000000.0 -2.17173e+12 -1.68077e+12 -1.03518e+12 -1.96515e+12 -1.07673e+12 -1.60624e+12 -1.24299e+12 -1.75088e+12 -2.16097e+12 -2.94718e+12 -1.81623e+12 -1.70107e+12 -1.23419e+12 -3.26825e+12 -1.44374e+12 -1.50452e+12 -2.80487e+12 -1.99424e+12 -1.44634e+12 -918852000000.0 -3.0945e+12 -1.86155e+12 -2.48392e+12 -4.16521e+12 -2.16288e+12 -2.40878e+12 -2.4489e+12 -4.62055e+12 -2.20728e+12 -3.09858e+12 -1.77949e+12 -2.92818e+12 -3.91122e+12 -1.29545e+12 -6.61319e+12 -2.307e+12 -4.17328e+12 -6.50862e+12 -3.55144e+12 -7.58644e+12 -5.02219e+12 -5.01761e+12 -2.28817e+12 -1.57667e+12 -9.17313e+12 -8.0847e+12 -4.66728e+12 -3.71638e+12 -4.20079e+12 -9.08428e+12 -5.28188e+12 -5.74527e+12 -7.66113e+12 -3.8863e+12 -4.65783e+12 -6.49367e+12 -4.99872e+12 -4.13012e+12 -5.65592e+12 -7.68224e+12 -8.53624e+12 -2.91361e+12 -3.95202e+12 -9.14523e+12 -3.55316e+12 -3.83471e+12 -3.09976e+12 -3.50232e+12 -3.85586e+12 -4.01731e+12 -4.8666e+12 -5.90921e+12 -4.57225e+12 -7.50124e+12 -6.65216e+12 -5.80221e+12 -4.38098e+12 -7.35724e+12 -5.5631e+12 -6.20651e+12 -1.41215e+13 -4.7276e+12 -6.8272e+12 -5.57987e+12 -6.08714e+12 -6.88948e+12 -4.52261e+12 -4.98099e+12 -4.72829e+12 -3.66554e+12 -3.90725e+12 -2.99924e+12 -3.46962e+12 -3.59914e+12 -830222000000.0 -2.99798e+12 -6.28204e+12 -4.90854e+12 -3.27153e+12 -4.07275e+12 -1.39567e+12 -3.56033e+12 -2.73506e+12 -2.21135e+12 -2.97723e+12 -2.28679e+12 -2.82417e+12 -2.28333e+12 -3.06396e+12 -3.16982e+12 -3.20096e+12 -1.78055e+12 -3.53973e+12 -3.2028e+12 -4.22927e+12 -2.83247e+12 -2.673e+12 -2.63917e+12 -1.37175e+12 -1.94917e+12 -1.71335e+12 -2.40762e+12 -1.58478e+12 -1.37442e+12 -1.12774e+12 -332199000000.0 -920633000000.0 -1.72848e+12 -1.82173e+12 -1.68937e+12 -693291000000.0 -1.19232e+12 -1.40447e+12 -1.29853e+12 -2.32975e+12 -917748000000.0 -1.61354e+12 -1.00575e+12 -2.03582e+12 -1.56269e+12 -714521000000.0 -135691000000.0 -2.53203e+12 -2.00196e+12 -2.66906e+12 -2.39705e+12 -1.22642e+12 -1.74008e+12 -1.69936e+12 -2.51055e+12 -4.86338e+12 -2.49816e+12 -2.14846e+12 -3.11611e+12 -2.94822e+12 -3.96887e+12 -4.58311e+12 -2.48101e+12 -2.71338e+12 -4.08766e+12 -2.47565e+12 -3.68542e+12 -5.32693e+12 -3.43903e+12 -4.5115e+12 -4.34732e+12 -2.23003e+12 -5.16419e+12 -6.71727e+12 -7.13239e+12 -3.93683e+12 -4.2431e+12 -5.28387e+12 -6.53633e+12 -4.20601e+12 -2.9433e+12 -2.95116e+12 -4.0273e+12 -3.09338e+12 -5.4448e+12 -6.9968e+12 -5.75356e+12 -5.07645e+12 -6.37394e+12 -7.70934e+12 -4.72575e+12 -5.52915e+12 -7.05201e+12 -5.00404e+12 -4.23184e+12 -8.33465e+12 -5.6031e+12 -4.33194e+12 -6.15224e+12 -5.3782e+12 -7.2511e+12 -5.95137e+12 -4.23298e+12 -6.1084e+12 -3.32493e+12 -4.63983e+12 -6.17944e+12 -5.38501e+12 -2.77703e+12 -4.10416e+12 -5.00427e+12 -3.37036e+12 -5.76059e+12 -6.76454e+12 -5.59088e+12 -4.2748e+12 -9.38772e+12 -7.87738e+12 -4.12174e+12 -4.8797e+12 -7.94322e+12 -5.91196e+12 -4.03896e+12 -4.29754e+12 -3.70672e+12 -4.98173e+12 -5.30056e+12 -5.30064e+12 -5.63727e+12 -3.51609e+12 -4.02671e+12 -5.43596e+12 -6.68812e+12 -3.91972e+12 -2.02121e+12 -4.11876e+12 -1.96464e+12 -3.27597e+12 -4.21959e+12 -3.54411e+12 -1.65539e+12 -3.70115e+12 -2.30061e+12 -2.50257e+12 -2.73614e+12 -2.49389e+12 -5.58598e+12 -2.82552e+12 -3.82076e+12 -1.51974e+12 -2.43203e+12 -3.14232e+12 -1.98064e+12 -2.39875e+12 -1.41494e+12 -1.7601e+12 -1.69632e+12 -3.01866e+12 -1.34003e+12 -1.89241e+12 -1.69388e+12 -844846000000.0 -1.86724e+12 -1.54954e+12 -370501000000.0 -1.60961e+12 -1.75794e+12 -1.26634e+12 -1.56472e+12 -452333000000.0 -754637000000.0 -1.41464e+12 -934694000000.0 -2.00972e+12 -1.94914e+12 -795503000000.0 -407836000000.0 -1.52015e+12 -1.74953e+12 -2.31089e+12 -2.81421e+12 -1.27787e+12 -859081000000.0 -1.64839e+12 -1.74337e+12 -921226000000.0 -1.03053e+12 -1.52564e+12 -2.24573e+12 -1.28799e+12 -1.8667e+12 -1.37834e+12 -3.57131e+12 -4.35647e+12 -2.6668e+12 -4.22414e+12 -4.22466e+12 -962417000000.0 -3.10265e+12 -3.62978e+12 -6.27866e+12 -4.48084e+12 -2.58787e+12 -2.48881e+12 -3.51019e+12 -7.76081e+12 -3.54639e+12 -2.35343e+12 -5.36717e+12 -2.67213e+12 -3.20942e+12 -5.55631e+12 -3.769e+12 -3.75884e+12 -4.24326e+12 -5.14921e+12 -5.58036e+12 -5.78416e+12 -3.35926e+12 -4.17891e+12 -8.37911e+12 -6.01873e+12 -4.34987e+12 -3.92609e+12 -5.24273e+12 -7.18099e+12 -7.71624e+12 -8.8537e+12 -5.93505e+12 -4.50116e+12 -5.38299e+12 -7.48945e+12 -6.72603e+12 -4.70842e+12 -4.78658e+12 -7.76434e+12 -2.6329e+12 -4.15271e+12 -5.23029e+12 -4.66569e+12 -2.42696e+12 -2.01922e+12 -5.0238e+12 -6.35545e+12 -5.81622e+12 -4.6633e+12 -5.3765e+12 -4.3936e+12 -3.39441e+12 -3.02983e+12 -3.00869e+12 -5.53549e+12 -4.52579e+12 -4.25996e+12 -5.36097e+12 -2.9817e+12 -5.43429e+12 -3.12157e+12 -3.37436e+12 -4.95527e+12 -4.08213e+12 -2.71588e+12 -4.53752e+12 -5.66486e+12 -3.58901e+12 -4.41924e+12 -2.10475e+12 -4.89047e+12 -5.58458e+12 -3.9211e+12 -2.66205e+12 -4.42639e+12 -7.0529e+12 -2.64711e+12 -6.59386e+12 -4.34788e+12 -4.64513e+12 -3.89013e+12 -2.67911e+12 -3.14011e+12 -2.9425e+12 -1.72346e+12 -1.68217e+12 -4.42033e+12 -2.77009e+12 -3.70713e+12 -3.45884e+12 -3.46384e+12 -2.7274e+12 -1.60319e+12 -1.58688e+12 -1.89037e+12 -1.74057e+12 -1.43768e+12 -1.40538e+12 -3.83929e+12 -2.25466e+12 -690662000000.0 -2.03885e+12 -1.76332e+12 -1.19718e+12 -884471000000.0 -1.27867e+12 -993976000000.0 -1.01464e+12 -1.36578e+12 -125936000000.0 -1.48228e+12 -1.97379e+12 -1.19123e+12 -1.53711e+12 -1.64511e+12 -1.62469e+12 -1.47489e+12 -2.0833e+12 -867540000000.0 -1.35204e+12 -1.57982e+12 -1.20976e+12 -527619000000.0 -572870000000.0 -1.25901e+12 -2.55564e+12 -2.43586e+12 -1.55885e+12 -3.37985e+12 -3.18954e+12 -3.64786e+12 -3.4263e+12 -2.64108e+12 -3.10611e+12 -3.09064e+12 -5.08256e+12 -3.06591e+12 -2.5798e+12 -3.08765e+12 -3.57184e+12 -5.40796e+12 -2.63691e+12 -4.07987e+12 -2.67699e+12 -4.6107e+12 -3.40072e+12 -4.84045e+12 -3.02427e+12 -4.82947e+12 -3.98888e+12 -4.18104e+12 -1.30515e+12 -3.48569e+12 -6.1943e+12 -4.21645e+12 -2.37283e+12 -3.84996e+12 -5.55654e+12 -3.69442e+12 -4.26832e+12 -3.60303e+12 -3.93621e+12 -3.3817e+12 -3.48274e+12 -6.82708e+12 -6.39352e+12 -8.38345e+12 -4.83761e+12 -8.71517e+12 -7.71485e+12 -4.35185e+12 -6.42321e+12 -6.61568e+12 -1.03537e+13 -4.62662e+12 -2.58522e+12 -3.38837e+12 -6.04621e+12 -4.03065e+12 -3.43491e+12 -5.1162e+12 -3.22784e+12 -4.18031e+12 -6.10205e+12 -3.77033e+12 -5.97589e+12 -4.29835e+12 -6.12711e+12 -5.91817e+12 -3.05183e+12 -3.8381e+12 -4.89827e+12 -3.03308e+12 -2.73039e+12 -3.5791e+12 -3.529e+12 -3.71794e+12 -4.90461e+12 -3.86535e+12 -3.22432e+12 -4.39313e+12 -2.69081e+12 -2.64493e+12 -5.60288e+12 -2.17767e+12 -4.09569e+12 -3.53545e+12 -2.68723e+12 -6.22915e+12 -3.85181e+12 -2.38961e+12 -5.00467e+12 -3.15017e+12 -3.06159e+12 -1.61163e+12 -2.87796e+12 -1.40299e+12 -3.19585e+12 -2.59425e+12 -3.25252e+12 -1.57461e+12 -2.44952e+12 -1.42584e+12 -2.48685e+12 -811646000000.0 -1.89526e+12 -1.6136e+12 -1.21649e+12 -1.13605e+12 -2.24683e+12 -1.47742e+12 -1.37438e+12 -662889000000.0 -854447000000.0 -901096000000.0 -1.57859e+12 -463621000000.0 -712817000000.0 -368532000000.0 -879791000000.0 -713165000000.0 -1.00415e+12 -984539000000.0 -1.92827e+12 -1.29075e+12 -2.22649e+12 -821992000000.0 -732331000000.0 -1.54025e+12 -1.13435e+12 -1.96394e+12 -2.24703e+12 -3.02789e+12 -1.86901e+12 -1.95952e+12 -1.85493e+12 -2.72706e+12 -2.17299e+12 -1.81904e+12 -2.2865e+12 -2.61859e+12 -2.57227e+12 -1.82844e+12 -2.71164e+12 -2.39349e+12 -4.1755e+12 -3.50741e+12 -3.5268e+12 -4.11009e+12 -5.28293e+12 -4.1661e+12 -5.94642e+12 -2.62255e+12 -1.36821e+12 -2.8631e+12 -1.53752e+12 -4.06015e+12 -5.57192e+12 -7.47953e+12 -3.66437e+12 -4.23989e+12 -8.97377e+12 -3.61943e+12 -4.74213e+12 -6.43079e+12 -3.95826e+12 -4.36871e+12 -3.70967e+12 -3.38245e+12 -4.31235e+12 -6.71187e+12 -5.02721e+12 -2.83362e+12 -6.74848e+12 -5.77644e+12 -5.75391e+12 -7.48484e+12 -4.76473e+12 -3.67898e+12 -4.94598e+12 -2.88447e+12 -5.04603e+12 -4.34928e+12 -5.98139e+12 -7.28298e+12 -2.89121e+12 -5.20559e+12 -5.44139e+12 -2.98495e+12 -4.30933e+12 -3.55663e+12 -5.16021e+12 -2.07565e+12 -4.136e+12 -3.39397e+12 -1.75262e+12 -3.83345e+12 -2.95484e+12 -2.5863e+12 -2.14935e+12 -4.79846e+12 -4.19955e+12 -2.33031e+12 -2.64311e+12 -2.77808e+12 -3.56591e+12 -1.90461e+12 -2.98867e+12 -4.40721e+12 -5.92107e+12 -2.12615e+12 -2.4176e+12 -2.19052e+12 -3.64518e+12 -3.3885e+12 -3.93002e+12 -2.04029e+12 -2.38421e+12 -1.70508e+12 -1.62191e+12 -3.09963e+12 -2.34858e+12 -1.62202e+12 -1.12041e+12 -1.81115e+12 -1.63734e+12 -1.34029e+12 -1.89331e+12 -1.00672e+12 -1.78513e+12 -1.03349e+12 -965168000000.0 -1.78721e+12 -1.37019e+12 -530770000000.0 -829591000000.0 -845777000000.0 -979688000000.0 -1.94949e+12 -1.27725e+12 -472584000000.0 -414985000000.0 -289238000000.0 -846047000000.0 -611976000000.0 -981491000000.0 -989308000000.0 -944941000000.0 -62205500000.0 -456952000000.0 -320150000000.0 -807859000000.0 -1.49968e+12 -414281000000.0 -920032000000.0 -1.86321e+12 -1.1201e+12 -678778000000.0 -1.03925e+12 -454144000000.0 -457512000000.0 -1.42412e+12 -2.34495e+12 -1.50379e+12 -1.4544e+12 -964403000000.0 -2.78363e+12 -2.09065e+12 -1.68349e+12 -1.48458e+12 -1.29815e+12 -3.39442e+12 -3.88931e+12 -3.52615e+12 -3.37924e+12 -796000000000.0 -1.64143e+12 -2.42002e+12 -4.39388e+12 -1.69714e+12 -2.66527e+12 -3.20754e+12 -2.37783e+12 -4.63456e+12 -4.01185e+12 -2.4287e+12 -5.77509e+12 -4.20641e+12 -6.68109e+12 -2.9801e+12 -4.964e+12 -4.11772e+12 -1.61016e+12 -4.10502e+12 -2.56889e+12 -3.17074e+12 -3.2058e+12 -2.8982e+12 -3.43151e+12 -4.03524e+12 -4.63553e+12 -4.01406e+12 -3.35582e+12 -3.60458e+12 -3.56463e+12 -4.82954e+12 -6.7812e+12 -4.15609e+12 -8.07137e+12 -3.34345e+12 -5.19296e+12 -1.8561e+12 -3.29179e+12 -3.06999e+12 -3.19432e+12 -2.39333e+12 -2.35666e+12 -7.59305e+12 -2.50961e+12 -3.46853e+12 -3.75212e+12 -3.01692e+12 -4.72178e+12 -3.20627e+12 -4.48292e+12 -4.04447e+12 -4.01166e+12 -4.14376e+12 -3.6024e+12 -3.56832e+12 -2.38892e+12 -2.67809e+12 -3.1514e+12 -1.85842e+12 -4.76869e+12 -2.55678e+12 -1.50493e+12 -3.72077e+12 -1.00909e+12 -1.13225e+12 -4.83726e+12 -3.03516e+12 -3.69419e+12 -4.5838e+12 -1.79874e+12 -1.19236e+12 -2.69572e+12 -1.16515e+12 -2.85681e+12 -3.46942e+12 -2.88616e+12 -2.34288e+12 -2.0197e+12 -2.59161e+12 -1.67513e+12 -3.21251e+12 -1.54012e+12 -1.83869e+12 -2.8763e+12 -1.11537e+12 -848266000000.0 -2.54772e+12 -927886000000.0 -2.26136e+12 -589628000000.0 -1.39057e+12 -801659000000.0 -1.00697e+12 -1.06097e+12 -1.47818e+12 -1.40385e+12 -1.65647e+12 -1.71879e+12 -831645000000.0 -920594000000.0 -944720000000.0 -832170000000.0 -724034000000.0 -227044000000.0 -1.59024e+12 -995667000000.0 -635373000000.0 -759794000000.0 -917882000000.0 -675374000000.0 -679834000000.0 -262147000000.0 -816089000000.0 -579281000000.0 -34654000000.0 -629245000000.0 -859345000000.0 -2.74102e+12 -1.62216e+12 -1.79149e+12 -1.71941e+12 -2.6999e+12 -1.54803e+12 -1.25125e+12 -1.3003e+12 -1.61611e+12 -2.144e+12 -1.91514e+12 -3.23085e+12 -3.19038e+12 -1.89409e+12 -2.02359e+12 -3.01443e+12 -3.00173e+12 -899144000000.0 -3.96574e+12 -4.68761e+12 -3.4105e+12 -4.51729e+12 -1.6002e+12 -2.246e+12 -2.7234e+12 -2.25476e+12 -4.76424e+12 -3.82123e+12 -4.86618e+12 -3.2402e+12 -5.91432e+12 -5.06693e+12 -3.67633e+12 -1.02705e+13 -4.95412e+12 -6.40544e+12 -3.0069e+12 -3.37558e+12 -4.02202e+12 -5.04569e+12 -3.84788e+12 -6.31341e+12 -5.20688e+12 -2.22437e+12 -3.25164e+12 -2.81291e+12 -5.48484e+12 -1.79551e+12 -2.31265e+12 -2.57691e+12 -4.54727e+12 -3.21656e+12 -5.79997e+12 -3.16526e+12 -4.35432e+12 -3.46458e+12 -2.57329e+12 -2.9717e+12 -3.33313e+12 -3.80385e+12 -2.46013e+12 -4.80423e+12 -4.24913e+12 -3.90342e+12 -2.8979e+12 -2.299e+12 -4.35709e+12 -3.18274e+12 -4.33994e+12 -1.09674e+12 -1.49841e+12 -3.14877e+12 -1.68767e+12 -2.95069e+12 -1.93871e+12 -1.63315e+12 -1.56573e+12 -2.96054e+12 -1.9981e+12 -723897000000.0 -2.34744e+12 -1.55347e+12 -2.48125e+12 -15496100000.0 -2.03778e+12 -3.08315e+12 -505351000000.0 -711225000000.0 -1.36601e+12 -1.35136e+12 -1.37875e+12 -1.20957e+12 -971655000000.0 -355578000000.0 -1.26125e+12 -198180000000.0 -1.63325e+12 -834504000000.0 -559869000000.0 -890889000000.0 -238513000000.0 -777289000000.0 -415994000000.0 -651076000000.0 -261605000000.0 -994367000000.0 -628989000000.0 -29218900000.0 -586033000000.0 -1.03673e+12 -592590000000.0 -944795000000.0 -1.02981e+12 -1.34598e+12 -542353000000.0 -749050000000.0 -334002000000.0 -1.09333e+12 -631595000000.0 -671664000000.0 -1.28197e+12 -1.08755e+12 -1.03831e+12 -352184000000.0 -1.14611e+12 -1.96566e+12 -860991000000.0 -801121000000.0 -1.37529e+12 -785934000000.0 -848733000000.0 -2.13046e+12 -1.9248e+12 -628308000000.0 -779894000000.0 -1.80171e+12 -1.26713e+12 -3.79537e+12 -2.00725e+12 -2.65919e+12 -1.98298e+12 -2.4448e+12 -1.15785e+12 -1.53073e+12 -1.8831e+12 -2.67629e+12 -2.62189e+12 -2.63522e+12 -4.46006e+12 -1.58878e+12 -3.44375e+12 -3.42558e+12 -4.17614e+12 -5.30895e+12 -3.70293e+12 -5.14245e+12 -3.83063e+12 -4.87442e+12 -1.85916e+12 -2.962e+12 -2.55146e+12 -5.54073e+12 -3.44101e+12 -6.25608e+12 -4.54475e+12 -2.72701e+12 -2.18249e+12 -2.53484e+12 -2.94595e+12 -3.167e+12 -3.29741e+12 -5.1056e+12 -2.11672e+12 -4.4253e+12 -3.52543e+12 -1.69342e+12 -4.86929e+12 -1.21706e+12 -2.13727e+12 -1.33144e+12 -2.86092e+12 -1.99504e+12 -2.71668e+12 -3.83024e+12 -4.18839e+12 -2.10404e+12 -5.72863e+12 -2.2307e+12 -2.49821e+12 -2.60137e+12 -3.24893e+12 -2.48472e+12 -4.51847e+12 -3.83171e+12 -2.35171e+12 -2.38101e+12 -2.41985e+12 -2.01486e+12 -2.91947e+12 -2.43209e+12 -5.01013e+12 -4.19934e+12 -1.97002e+12 -3.02048e+12 -3.57583e+12 -1.1389e+12 -2.05251e+12 -1.30867e+12 -3.47567e+12 -2.69135e+12 -1.63045e+12 -2.02242e+12 -619558000000.0 -589944000000.0 -1.79922e+12 -1.29632e+12 -2.49432e+12 -1.54981e+12 -502993000000.0 -1.50489e+12 -1.60863e+12 -1.47648e+12 -746859000000.0 -1.61981e+12 -766925000000.0 -552767000000.0 -664992000000.0 -571376000000.0 -1.05901e+12 -990817000000.0 -310226000000.0 -503411000000.0 -622030000000.0 -832792000000.0 -416991000000.0 -353940000000.0 -545097000000.0 -697005000000.0 -347252000000.0 -366361000000.0 -430839000000.0 -642702000000.0 -897861000000.0 -440628000000.0 -257688000000.0 -862132000000.0 -688097000000.0 -743222000000.0 -329136000000.0 -314528000000.0 -567485000000.0 -1.57841e+12 -434420000000.0 -1.09363e+12 -619112000000.0 -787070000000.0 -1.5197e+12 -1.40196e+12 -446940000000.0 -388258000000.0 -1.97772e+12 -1.15912e+12 -2.50952e+12 -846332000000.0 -2.02133e+12 -2.77137e+12 -3.70462e+12 -3.22663e+12 -3.49937e+12 -2.11969e+12 -2.44438e+12 -1.53931e+12 -2.51866e+12 -2.491e+12 -3.14023e+12 -2.68495e+12 -2.16197e+12 -4.50129e+12 -3.35486e+12 -3.19175e+12 -3.12988e+12 -2.37529e+12 -2.38471e+12 -4.13888e+12 -4.32779e+12 -2.03531e+12 -1.61237e+12 -3.11603e+12 -4.28482e+12 -3.80094e+12 -4.84923e+12 -3.86223e+12 -3.75638e+12 -3.16145e+12 -4.79918e+12 -2.25696e+12 -1.72094e+12 -2.81788e+12 -3.499e+12 -3.98081e+12 -4.5033e+12 -2.079e+12 -4.45192e+12 -1.21097e+12 -4.25191e+12 -2.2423e+12 -4.0392e+12 -2.11904e+12 -1.81819e+12 -3.14586e+12 -2.69763e+12 -3.32364e+12 -1.28726e+12 -1.55474e+12 -3.54354e+12 -3.98767e+12 -913876000000.0 -4.41198e+12 -534421000000.0 -4.10348e+12 -2.99283e+12 -2.39788e+12 -1.16696e+12 -2.02401e+12 -1.68784e+12 -254276000000.0 -1.80404e+12 -1.74158e+12 -1.12459e+12 -1.47708e+12 -1.53026e+12 -2.31707e+12 -1.48686e+12 -2.14911e+12 -891025000000.0 -550213000000.0 -295496000000.0 -1.22175e+12 -619681000000.0 -427253000000.0 -942757000000.0 -681318000000.0 -938209000000.0 -470474000000.0 -500280000000.0 -400534000000.0 -703467000000.0 -333802000000.0 -26357600000.0 -806234000000.0 -530508000000.0 -285457000000.0 -493569000000.0 -500883000000.0 -469076000000.0 -415715000000.0 -930283000000.0 -926627000000.0 -710564000000.0 -639608000000.0 -877263000000.0 -1.20142e+12 -1.14627e+12 -1.02913e+12 -915399000000.0 -943405000000.0 -1.19288e+12 -1.22567e+12 -779292000000.0 -1.28073e+12 -2.32268e+12 -1.98714e+12 -3.28065e+12 -1.00195e+12 -1.01942e+12 -1.51445e+12 -2.48573e+12 -1.90876e+12 -1.79193e+12 -1.11735e+12 -1.48979e+12 -2.82123e+12 -1.06465e+12 -1.74367e+12 -1.55714e+12 -1.54157e+12 -2.2592e+12 -2.84255e+12 -1.76369e+12 -3.07017e+12 -2.34367e+12 -1.73255e+12 -1.9175e+12 -2.18656e+12 -2.72621e+12 -3.4393e+12 -2.66722e+12 -2.26715e+12 -4.06041e+12 -2.83548e+12 -3.19153e+12 -2.36619e+12 -3.47972e+12 -2.38856e+12 -2.76865e+12 -2.21182e+12 -3.90517e+12 -1.68513e+12 -1.41064e+12 -2.39251e+12 -2.46885e+12 -3.34271e+12 -4.77483e+12 -2.23622e+12 -2.90528e+12 -1.67872e+12 -2.7142e+12 -1.4791e+12 -3.41697e+12 -4.92024e+12 -3.80104e+12 -2.33413e+12 -1.76288e+12 -2.96652e+12 -1.99004e+12 -1.49659e+12 -2.46255e+12 -894027000000.0 -3.90357e+12 -852934000000.0 -1.69892e+12 -2.37599e+12 -2.04331e+12 -2.27025e+12 -2.05431e+12 -1.78905e+12 -756704000000.0 -1.68231e+12 -2.32809e+12 -2.23697e+12 -1.00898e+12 -4.18552e+12 -1.83668e+12 -2.87158e+12 -1.3217e+12 -1.58805e+12 -881464000000.0 -1.63099e+12 -1.91741e+12 -1.11887e+12 -1.23616e+12 -1.6261e+12 -1.52392e+12 -1.07193e+12 -1.88471e+12 -848470000000.0 -669865000000.0 -1.61087e+12 -2.17892e+12 -1.97113e+12 -856707000000.0 -861875000000.0 -73593700000.0 -1.01033e+12 -985753000000.0 -1.01277e+12 -564156000000.0 -749449000000.0 -849451000000.0 -715741000000.0 -262068000000.0 -496487000000.0 -615874000000.0 -380408000000.0 -397588000000.0 -585534000000.0 -623628000000.0 -814812000000.0 -413161000000.0 -892408000000.0 -749598000000.0 -528163000000.0 -528944000000.0 -707996000000.0 -536237000000.0 -573159000000.0 -409522000000.0 -289844000000.0 -304860000000.0 -685645000000.0 -669317000000.0 -1.23056e+12 -422397000000.0 -475230000000.0 -621174000000.0 -461144000000.0 -856542000000.0 -1.29083e+12 -1.10525e+12 -379960000000.0 -1.11615e+12 -922710000000.0 -1.59302e+12 -1.85637e+12 -2.25053e+12 -1.67943e+12 -1.50654e+12 -317979000000.0 -1.73819e+12 -1.79622e+12 -1.69432e+12 -2.04122e+12 -2.00886e+12 -2.10196e+12 -2.48611e+12 -1.05017e+12 -1.78367e+12 -1.61559e+12 -2.63165e+12 -2.39968e+12 -724812000000.0 -3.70451e+12 -2.22216e+12 -2.79924e+12 -3.84754e+12 -2.99801e+12 -3.30443e+12 -2.07266e+12 -1.76106e+12 -2.723e+12 -1.80436e+12 -2.92079e+12 -1.87712e+12 -2.74213e+12 -1.90132e+12 -2.40726e+12 -2.07106e+12 -1.91187e+12 -2.19493e+12 -1.92034e+12 -1.98529e+12 -2.35935e+12 -1.9879e+12 -1.86926e+12 -1.7482e+12 -927512000000.0 -1.7649e+12 -1.54317e+12 -4.48744e+12 -2.34337e+12 -1.97625e+12 -2.53593e+12 -1.78864e+12 -2.23819e+12 -2.22603e+12 -2.22512e+12 -1.75774e+12 -1.91919e+12 -1.52818e+12 -2.56914e+12 -1.82187e+12 -2.1952e+12 -1.10676e+12 -760404000000.0 -1.15885e+12 -742481000000.0 -1.71411e+12 -1.98523e+12 -1.72099e+12 -1.32058e+12 -2.26907e+12 -1.53737e+12 -1.39539e+12 -979960000000.0 -929549000000.0 -1.22319e+12 -703232000000.0 -803264000000.0 -710677000000.0 -1.1686e+12 -1.42173e+12 -622475000000.0 -1.01609e+12 -407337000000.0 -928053000000.0 -609817000000.0 -366585000000.0 -531530000000.0 -706812000000.0 -66513600000.0 -380908000000.0 -509357000000.0 -32032300000.0 -342798000000.0 -460882000000.0 -89407800000.0 -290436000000.0 -440436000000.0 -436775000000.0 -529116000000.0 -342895000000.0 -162996000000.0 -54826500000.0 -117652000000.0 -14712200000.0 -499371000000.0 -182925000000.0 -72292800000.0 -89589300000.0 -130776000000.0 -458696000000.0 -903716000000.0 -54688300000.0 -485456000000.0 -754303000000.0 -545784000000.0 -607882000000.0 -508106000000.0 -910428000000.0 -1.35464e+12 -508271000000.0 -506502000000.0 -1.53115e+12 -1.05411e+12 -1.37836e+12 -1.66142e+12 -2.69086e+12 -764215000000.0 -1.59935e+12 -1.29958e+12 -1.84786e+12 -2.06801e+12 -2.34585e+12 -671950000000.0 -1.56168e+12 -2.05245e+12 -1.9686e+12 -2.92087e+12 -2.22066e+12 -15322000000.0 -2.88119e+12 -2.1659e+12 -813922000000.0 -1.21411e+12 -1.22378e+12 -4.50019e+12 -2.51598e+12 -3.96178e+12 -2.72047e+12 -1.58685e+12 -3.1501e+12 -2.52724e+12 -3.74755e+12 -2.6446e+12 -2.98153e+12 -4.02692e+12 -2.59452e+12 -3.01472e+12 -3.33737e+12 -3.2152e+12 -1.54776e+12 -906047000000.0 -1.63076e+12 -2.85128e+12 -1.17332e+12 -1.36867e+12 -1.45354e+12 -454903000000.0 -1.69578e+12 -1.73201e+12 -1.29281e+12 -2.68602e+12 -2.33992e+12 -2.07502e+12 -808646000000.0 -1.04936e+12 -1.6525e+12 -1.61028e+12 -2.71903e+12 -1.59072e+12 -1.10273e+12 -1.68637e+12 -720224000000.0 -1.53933e+12 -1.67411e+12 -419964000000.0 -579855000000.0 -540048000000.0 -938096000000.0 -845706000000.0 -1.16518e+12 -1.03315e+12 -782258000000.0 -963441000000.0 -854526000000.0 -380320000000.0 -168916000000.0 -267420000000.0 -475813000000.0 -124357000000.0 -629305000000.0 -620221000000.0 -678534000000.0 -539629000000.0 -270367000000.0 -388708000000.0 -459232000000.0 -359355000000.0 -252374000000.0 -327005000000.0 -330130000000.0 -174340000000.0 -201171000000.0 -404929000000.0 -275565000000.0 -153687000000.0 -146506000000.0 -330172000000.0 -489068000000.0 -368418000000.0 -486054000000.0 -90287800000.0 -411624000000.0 -496639000000.0 -428300000000.0 -673416000000.0 -814552000000.0 -1.12097e+12 -640837000000.0 -551802000000.0 -1.21882e+12 -1.4193e+12 -684029000000.0 -1.60307e+12 -938901000000.0 -788446000000.0 -569417000000.0 -1.21316e+12 -860757000000.0 -1.30691e+12 -707417000000.0 -1.99626e+12 -2.96145e+12 -1.94011e+12 -1.18064e+12 -3.01133e+12 -1.86691e+12 -1.58069e+12 -2.2589e+12 -2.37317e+12 -2.94714e+12 -2.25035e+12 -2.21681e+12 -1.18922e+12 -1.81626e+12 -3.31331e+12 -1.41953e+12 -2.47315e+12 -1.79058e+12 -2.68865e+12 -2.50173e+12 -2.22579e+12 -3.36878e+12 -3.90773e+12 -718732000000.0 -2.08143e+12 -980355000000.0 -1.54458e+12 -2.988e+12 -3.49874e+12 -1.59843e+12 -355027000000.0 -237397000000.0 -1.58635e+12 -1.71371e+12 -1.2414e+12 -338467000000.0 -1.43155e+12 -1.0531e+12 -1.05098e+12 -865019000000.0 -1.01072e+12 -1.46066e+12 -1.39619e+12 -789043000000.0 -2.24955e+12 -2.59162e+12 -1.6542e+12 -1.17965e+12 -1.47489e+12 -839609000000.0 -1.97374e+12 -1.84129e+12 -462462000000.0 -376399000000.0 -709892000000.0 -1.00644e+12 -1.11536e+12 -1.31829e+12 -596738000000.0 -340845000000.0 -609244000000.0 -774253000000.0 -760519000000.0 -660838000000.0 -281012000000.0 -162848000000.0 -66562800000.0 -52104700000.0 -337448000000.0 -333629000000.0 -487169000000.0 -209792000000.0 -23347400000.0 -141749000000.0 -278042000000.0 -154287000000.0 -292419000000.0 -245474000000.0 -105614000000.0 -282215000000.0 -286871000000.0 -254558000000.0 -114459000000.0 -362782000000.0 -749301000000.0 -573703000000.0 -374614000000.0 -292109000000.0 -422711000000.0 -963278000000.0 -147614000000.0 -568400000000.0 -679471000000.0 -1.21979e+12 -308422000000.0 -1.01327e+12 -807415000000.0 -1.04078e+12 -950674000000.0 -1.69159e+12 -2.24628e+12 -1.13913e+12 -1.21775e+12 -1.74486e+12 -954076000000.0 -2.19888e+12 -1.39994e+12 -1.72642e+12 -2.17816e+12 -1.82883e+12 -1.46645e+12 -2.62158e+12 -1.98285e+12 -1.70438e+12 -1.78073e+12 -1.49693e+12 -2.86957e+12 -1.56671e+12 -1.73242e+12 -1.86094e+12 -2.0746e+12 -1.53758e+12 -2.03465e+12 -1.38375e+12 -3.13203e+12 -2.29161e+12 -872885000000.0 -764102000000.0 -1.60094e+12 -611915000000.0 -1.53872e+12 -1.70629e+12 -2.22817e+12 -2.7735e+12 -1.49247e+12 -999691000000.0 -1.34253e+12 -2.12533e+12 -1.41993e+12 -1.25697e+12 -284328000000.0 -1.61242e+12 -1.33832e+12 -2.08133e+12 -454778000000.0 -2.00797e+12 -1.166e+12 -989785000000.0 -1.48545e+12 -1.30395e+12 -614935000000.0 -975919000000.0 -867744000000.0 -1.7345e+12 -741518000000.0 -1.20418e+12 -403959000000.0 -179696000000.0 -390916000000.0 -558530000000.0 -990763000000.0 -648223000000.0 -327806000000.0 -962143000000.0 -673684000000.0 -266857000000.0 -229126000000.0 -457147000000.0 -184505000000.0 -82878700000.0 -154782000000.0 -13337900000.0 -363446000000.0 -211645000000.0 -296583000000.0 -247306000000.0 -132010000000.0 -293344000000.0 -404787000000.0 -142014000000.0 -252291000000.0 -138743000000.0 -85728800000.0 -144540000000.0 -16347000000.0 -340758000000.0 -165125000000.0 -211393000000.0 -447167000000.0 -203502000000.0 -437164000000.0 -166221000000.0 -548893000000.0 -114398000000.0 -435707000000.0 -829541000000.0 -330309000000.0 -43586200000.0 -506781000000.0 -376880000000.0 -502120000000.0 -871611000000.0 -985877000000.0 -1.76955e+12 -1.12835e+12 -463300000000.0 -1.63073e+12 -1.3867e+12 -536642000000.0 -829660000000.0 -2.96452e+12 -962294000000.0 -913314000000.0 -867377000000.0 -1.3891e+12 -1.85593e+12 -1.26231e+12 -1.15122e+12 -1.62113e+12 -988260000000.0 -879440000000.0 -1.53283e+12 -810252000000.0 -1.9555e+12 -2.22537e+12 -955982000000.0 -1.2679e+12 -1.50915e+12 -2.07838e+12 -1.87627e+12 -1.7794e+12 -2.20474e+12 -1.05628e+12 -552575000000.0 -1.72859e+12 -696420000000.0 -1.13834e+12 -2.1121e+12 -1.18925e+12 -825027000000.0 -1.69838e+12 -1.23571e+12 -1.32677e+12 -704278000000.0 -751458000000.0 -1.32501e+12 -889467000000.0 -714396000000.0 -1.0545e+12 -835248000000.0 -788737000000.0 -897898000000.0 -1.13154e+12 -1.70616e+12 -1.59258e+12 -1.26274e+12 -441903000000.0 -1.3997e+12 -712580000000.0 -1.18932e+12 -1.19645e+12 -1.10752e+12 -429118000000.0 -447354000000.0 -866807000000.0 -804456000000.0 -1.16427e+12 -331728000000.0 -615165000000.0 -190001000000.0 -459249000000.0 -770245000000.0 -372066000000.0 -256523000000.0 -232765000000.0 -177317000000.0 -233380000000.0 -141363000000.0 -295078000000.0 -149927000000.0 -375814000000.0 -197331000000.0 -364732000000.0 -223703000000.0 -317904000000.0 -157046000000.0 -319078000000.0 -44641800000.0 -68906500000.0 -128059000000.0 -222482000000.0 -122681000000.0 -34610200000.0 -406432000000.0 -502827000000.0 -259191000000.0 -272507000000.0 -137284000000.0 -178074000000.0 -481416000000.0 -161246000000.0 -518484000000.0 -428705000000.0 -257444000000.0 -828041000000.0 -921412000000.0 -581739000000.0 -910864000000.0 -309387000000.0 -452052000000.0 -611470000000.0 -1.0885e+12 -399641000000.0 -1.09537e+12 -1.16565e+12 -625111000000.0 -1.50533e+12 -1.33555e+12 -338720000000.0 -1.28025e+12 -1.13726e+12 -1.77193e+12 -534961000000.0 -1.01339e+12 -1.3182e+12 -1.1588e+12 -648831000000.0 -253472000000.0 -821003000000.0 -862293000000.0 -1.4548e+12 -345099000000.0 -2.10308e+12 -951939000000.0 -977445000000.0 -1.14604e+12 -993133000000.0 -770799000000.0 -2.11023e+12 -1.80586e+12 -1.1194e+12 -824512000000.0 -1.93691e+12 -1.47044e+12 -1.95854e+12 -1.11431e+12 -1.36576e+12 -1.91982e+12 -1.10102e+12 -1.9427e+12 -752311000000.0 -800044000000.0 -977581000000.0 -765040000000.0 -391507000000.0 -792875000000.0 -1.45086e+12 -1.28863e+12 -595898000000.0 -793200000000.0 -675831000000.0 -219584000000.0 -1.52552e+12 -400577000000.0 -1.03861e+12 -923445000000.0 -541074000000.0 -824675000000.0 -65649000000.0 -917360000000.0 -1.08507e+12 -625065000000.0 -567712000000.0 -729429000000.0 -645616000000.0 -521245000000.0 -262483000000.0 -450477000000.0 -487477000000.0 -580665000000.0 -316516000000.0 -264173000000.0 -308133000000.0 -437499000000.0 -402378000000.0 -74182900000.0 -180390000000.0 -20508300000.0 -294694000000.0 -15196800000.0 -93039100000.0 -243619000000.0 -164245000000.0 -144803000000.0 -253095000000.0 -160855000000.0 -168987000000.0 -174981000000.0 -172089000000.0 -120692000000.0 -370438000000.0 -19620400000.0 -113976000000.0 -234218000000.0 -64393300000.0 -347790000000.0 -302911000000.0 -322249000000.0 -301521000000.0 -135723000000.0 -219927000000.0 -459788000000.0 -548097000000.0 -305383000000.0 -453135000000.0 -169867000000.0 -55733300000.0 -776129000000.0 -346263000000.0 -90104400000.0 -1.66477e+12 -793539000000.0 -1.07525e+12 -1.43837e+12 -1.53313e+12 -514483000000.0 -1.11182e+12 -743248000000.0 -1.33639e+12 -1.20217e+12 -1.08221e+12 -1.72284e+12 -583359000000.0 -933203000000.0 -888374000000.0 -1.25233e+12 -797109000000.0 -1.14171e+12 -504035000000.0 -757440000000.0 -1.06098e+12 -617254000000.0 -718939000000.0 -1.39973e+12 -1.33659e+12 -422370000000.0 -1.05691e+12 -1.49905e+12 -805539000000.0 -996441000000.0 -109061000000.0 -704769000000.0 -1.02797e+12 -737670000000.0 -1.55846e+12 -757687000000.0 -414827000000.0 -839493000000.0 -892934000000.0 -1.07622e+12 -532789000000.0 -211304000000.0 -480197000000.0 -41837000000.0 -1.37902e+12 -279624000000.0 -1.06593e+12 -353386000000.0 -489889000000.0 -1.01913e+12 -171670000000.0 -624229000000.0 -499336000000.0 -566048000000.0 -572450000000.0 -526941000000.0 -371151000000.0 -26655100000.0 -363100000000.0 -437894000000.0 -135694000000.0 -390447000000.0 -28651900000.0 -82118200000.0 -182193000000.0 -354823000000.0 -35474400000.0 -23088000000.0 -181705000000.0 -156756000000.0 -153381000000.0 -168959000000.0 -67301600000.0 -68831000000.0 -109844000000.0 -143822000000.0 -56720800000.0 -112458000000.0 -35292500000.0 -78098600000.0 -55220100000.0 -158588000000.0 -382257000000.0 -39650200000.0 -27012700000.0 -133316000000.0 -154677000000.0 -111972000000.0 -328493000000.0 -183175000000.0 -203370000000.0 -296625000000.0 -111014000000.0 -144919000000.0 -807405000000.0 -368023000000.0 -71955300000.0 -476570000000.0 -125816000000.0 -484956000000.0 -559240000000.0 -1.00573e+12 -246153000000.0 -97088800000.0 -487642000000.0 -579759000000.0 -552951000000.0 -967549000000.0 -40415200000.0 -580202000000.0 -626341000000.0 -478785000000.0 -915268000000.0 -1.12692e+12 -1.08387e+12 -1.27127e+12 -404439000000.0 -1.00581e+12 -1.0448e+12 -1.0853e+12 -399607000000.0 -1.22637e+12 -521006000000.0 -409596000000.0 -1.2939e+12 -543516000000.0 -1.20719e+12 -1.51392e+12 -982244000000.0 -44643600000.0 -1.61223e+12 -1.70351e+12 -861685000000.0 -982550000000.0 -992659000000.0 -1.09147e+12 -605103000000.0 -22004000000.0 -639056000000.0 -1.19657e+12 -1.54969e+12 -817916000000.0 -459905000000.0 -792820000000.0 -1.15351e+12 -1.54989e+12 -549066000000.0 -333434000000.0 -344236000000.0 -479432000000.0 -1.15651e+12 -423682000000.0 -623269000000.0 -337439000000.0 -1.27538e+12 -366414000000.0 -704049000000.0 -257853000000.0 -266333000000.0 -314098000000.0 -465504000000.0 -84441600000.0 -203218000000.0 -537948000000.0 -393051000000.0 -192537000000.0 -271541000000.0 -258430000000.0 -210686000000.0 -290048000000.0 -262781000000.0 -198044000000.0 -172737000000.0 -123355000000.0 -52147100000.0 -31015900000.0 -155342000000.0 -98021400000.0 -120823000000.0 -122306000000.0 -60079100000.0 -62278400000.0 -40160300000.0 -128379000000.0 -67649600000.0 -84672300000.0 -44650400000.0 -76594100000.0 -110727000000.0 -81548500000.0 -137223000000.0 -293060000000.0 -176778000000.0 -71295800000.0 -268442000000.0 -330377000000.0 -56987700000.0 -68320200000.0 -252376000000.0 -156048000000.0 -106789000000.0 -107906000000.0 -618498000000.0 -51535800000.0 -392989000000.0 -359045000000.0 -554294000000.0 -372029000000.0 -425354000000.0 -510530000000.0 -278250000000.0 -332748000000.0 -186251000000.0 -744178000000.0 -642422000000.0 -341324000000.0 -381592000000.0 -394709000000.0 -1.13348e+12 -973336000000.0 -1.5047e+12 -466273000000.0 -615740000000.0 -1.0499e+12 -154286000000.0 -1.20397e+12 -872697000000.0 -1.09827e+12 -232529000000.0 -284278000000.0 -914883000000.0 -795972000000.0 -1.02347e+12 -314538000000.0 -1.41591e+12 -819231000000.0 -523747000000.0 -1.15705e+12 -1.02533e+12 -514623000000.0 -1.03698e+12 -777515000000.0 -229238000000.0 -1.28956e+12 -168394000000.0 -849436000000.0 -863686000000.0 -575373000000.0 -379425000000.0 -826092000000.0 -631543000000.0 -591155000000.0 -823062000000.0 -535104000000.0 -649329000000.0 -492399000000.0 -368794000000.0 -653018000000.0 -614030000000.0 -533499000000.0 -598534000000.0 -773204000000.0 -63457300000.0 -142563000000.0 -459414000000.0 -373340000000.0 -419423000000.0 -379045000000.0 -213760000000.0 -479244000000.0 -72789300000.0 -117663000000.0 -70487000000.0 -183418000000.0 -85870100000.0 -121157000000.0 -16126400000.0 -45871600000.0 -107506000000.0 -94389700000.0 -62788300000.0 -47334400000.0 -48765800000.0 -118369000000.0 -92806000000.0 -91271000000.0 -107757000000.0 -143443000000.0 -144006000000.0 -168362000000.0 -99466400000.0 -162431000000.0 -88769300000.0 -112274000000.0 -177956000000.0 -43851400000.0 -255626000000.0 -159798000000.0 -287168000000.0 -265122000000.0 -224755000000.0 -217722000000.0 -326014000000.0 -198239000000.0 -343666000000.0 -169319000000.0 -296797000000.0 -46497100000.0 -114665000000.0 -424201000000.0 -289381000000.0 -47616300000.0 -584378000000.0 -215367000000.0 -181144000000.0 -807124000000.0 -143015000000.0 -584267000000.0 -179131000000.0 -772512000000.0 -1.09817e+12 -247499000000.0 -270603000000.0 -370659000000.0 -281223000000.0 -653324000000.0 -319225000000.0 -625884000000.0 -707126000000.0 -584612000000.0 -541241000000.0 -525571000000.0 -857644000000.0 -962445000000.0 -479528000000.0 -1.26471e+12 -352690000000.0 -788481000000.0 -1.46978e+12 -1.11817e+12 -918397000000.0 -522884000000.0 -365185000000.0 -720071000000.0 -587191000000.0 -847486000000.0 -172031000000.0 -376590000000.0 -447351000000.0 -342723000000.0 -342604000000.0 -126286000000.0 -483654000000.0 -304125000000.0 -520560000000.0 -434409000000.0 -556992000000.0 -430313000000.0 -254533000000.0 -33235000000.0 -196154000000.0 -727117000000.0 -811844000000.0 -462995000000.0 -300868000000.0 -154220000000.0 -201130000000.0 -219057000000.0 -138896000000.0 -105391000000.0 -364386000000.0 -185293000000.0 -99920500000.0 -185170000000.0 -158753000000.0 -21353500000.0 -18653500000.0 -23397500000.0 -99833200000.0 -57334600000.0 -34676700000.0 -14054000000.0 -15410800000.0 -89315300000.0 -42323300000.0 -50395600000.0 -81566800000.0 -58704000000.0 -79891500000.0 -94671900000.0 -85564600000.0 -85193800000.0 -73025000000.0 -13028400000.0 -102218000000.0 -49590600000.0 -235390000000.0 -169842000000.0 -291935000000.0 -26026900000.0 -285509000000.0 -244376000000.0 -165006000000.0 -21079800000.0 -266757000000.0 -239976000000.0 -343512000000.0 -453553000000.0 -230966000000.0 -335254000000.0 -161254000000.0 -117110000000.0 -430560000000.0 -325361000000.0 -956263000000.0 -1.06198e+12 -592372000000.0 -251759000000.0 -283607000000.0 -42584200000.0 -561974000000.0 -488500000000.0 -193647000000.0 -424311000000.0 -932116000000.0 -324139000000.0 -226273000000.0 -334977000000.0 -714523000000.0 -812297000000.0 -839820000000.0 -670588000000.0 -872368000000.0 -483032000000.0 -648928000000.0 -628144000000.0 -607193000000.0 -634049000000.0 -704208000000.0 -416133000000.0 -318295000000.0 -324507000000.0 -289288000000.0 -669963000000.0 -239324000000.0 -858889000000.0 -185645000000.0 -256871000000.0 -262960000000.0 -254268000000.0 -321834000000.0 -220610000000.0 -12557400000.0 -229122000000.0 -355278000000.0 -430313000000.0 -141601000000.0 -379313000000.0 -204864000000.0 -195139000000.0 -227474000000.0 -154390000000.0 -329164000000.0 -195648000000.0 -269678000000.0 -129724000000.0 -179591000000.0 -216225000000.0 -136756000000.0 -33156000000.0 -45033900000.0 -234909000000.0 -52740100000.0 -140765000000.0 -160193000000.0 -93997300000.0 -107657000000.0 -86507200000.0 -112621000000.0 -34175300000.0 -33889400000.0 -44568300000.0 -38508400000.0 -53014700000.0 -61440300000.0 -52982600000.0 -14193600000.0 -50429300000.0 -19231500000.0 -15875400000.0 -156028000000.0 -74575000000.0 -113581000000.0 -102309000000.0 -76550600000.0 -154247000000.0 -41263400000.0 -115418000000.0 -90304300000.0 -77223300000.0 -168504000000.0 -303376000000.0 -51982500000.0 -115158000000.0 -150350000000.0 -347532000000.0 -175314000000.0 -246991000000.0 -448912000000.0 -364217000000.0 -649745000000.0 -13520100000.0 -469933000000.0 -353325000000.0 -615270000000.0 -295985000000.0 -35365400000.0 -78752200000.0 -697085000000.0 -590761000000.0 -82553900000.0 -72744000000.0 -975562000000.0 -705772000000.0 -232885000000.0 -231060000000.0 -105936000000.0 -548512000000.0 -582241000000.0 -147566000000.0 -245037000000.0 -548907000000.0 -277831000000.0 -425415000000.0 -301594000000.0 -467780000000.0 -814908000000.0 -652203000000.0 -449992000000.0 -319818000000.0 -205807000000.0 -274326000000.0 -228891000000.0 -177704000000.0 -272892000000.0 -260841000000.0 -403899000000.0 -574012000000.0 -173274000000.0 -416810000000.0 -346587000000.0 -143010000000.0 -105748000000.0 -330124000000.0 -399958000000.0 -233099000000.0 -230719000000.0 -262777000000.0 -120310000000.0 -108259000000.0 -242585000000.0 -55875900000.0 -92450700000.0 -220667000000.0 -243742000000.0 -20094200000.0 -24588300000.0 -85589000000.0 -136894000000.0 -137174000000.0 -97845800000.0 -136428000000.0 -159708000000.0 -90149600000.0 -84277700000.0 -95549500000.0 -66276300000.0 -34782900000.0 -26699600000.0 -23575200000.0 -93890000000.0 -52825300000.0 -14213900000.0 -61056200000.0 -57624800000.0 -64036100000.0 -96589200000.0 -63332200000.0 -63884800000.0 -72155200000.0 -78109600000.0 -73361700000.0 -103038000000.0 -78293700000.0 -117224000000.0 -21047800000.0 -19579500000.0 -18126100000.0 -96168400000.0 -31874400000.0 -54421200000.0 -119250000000.0 -20452000000.0 -125405000000.0 -146563000000.0 -18531300000.0 -18564200000.0 -151341000000.0 -67961100000.0 -209175000000.0 -89251600000.0 -362511000000.0 -69021600000.0 -469148000000.0 -145346000000.0 -161704000000.0 -145981000000.0 -197732000000.0 -612619000000.0 -52864400000.0 -207890000000.0 -410687000000.0 -236976000000.0 -89177900000.0 -445441000000.0 -759708000000.0 -222359000000.0 -187291000000.0 -157099000000.0 -246036000000.0 -191627000000.0 -357101000000.0 -717485000000.0 -152954000000.0 -128076000000.0 -446536000000.0 -72848500000.0 -381633000000.0 -718021000000.0 -262260000000.0 -520919000000.0 -560562000000.0 -388382000000.0 -246423000000.0 -306746000000.0 -15215300000.0 -211049000000.0 -93545100000.0 -104853000000.0 -379816000000.0 -80531800000.0 -399788000000.0 -424987000000.0 -15780700000.0 -201265000000.0 -291069000000.0 -153349000000.0 -136448000000.0 -222439000000.0 -249024000000.0 -328572000000.0 -314112000000.0 -289010000000.0 -237135000000.0 -320409000000.0 -210703000000.0 -140439000000.0 -237979000000.0 -132107000000.0 -142477000000.0 -304198000000.0 -14708600000.0 -17688100000.0 -60528900000.0 -13205800000.0 -103600000000.0 -73124700000.0 -69968300000.0 -32037100000.0 -75941900000.0 -56623600000.0 -56442500000.0 -50315200000.0 -14796700000.0 -54006000000.0 -58009800000.0 -77878800000.0 -15180000000.0 -14144800000.0 -17590300000.0 -16222600000.0 -55523300000.0 -28030400000.0 -46724500000.0 -39426800000.0 -16139300000.0 -12549700000.0 -81494100000.0 -12549700000.0 -93562700000.0 -19326100000.0 -102773000000.0 -25038700000.0 -86245600000.0 -15684300000.0 -156529000000.0 -88144300000.0 -69700100000.0 -97929800000.0 -162302000000.0 -64487700000.0 -61892900000.0 -75323100000.0 -336938000000.0 -364628000000.0 -106219000000.0 -35280900000.0 -84226500000.0 -31949500000.0 -72716600000.0 -426761000000.0 -323508000000.0 -165361000000.0 -243673000000.0 -50308400000.0 -94661900000.0 -540458000000.0 -208910000000.0 -218460000000.0 -159853000000.0 -102248000000.0 -156919000000.0 -74326800000.0 -415606000000.0 -195356000000.0 -330764000000.0 -173057000000.0 -520133000000.0 -292674000000.0 -185203000000.0 -304234000000.0 -334155000000.0 -120429000000.0 -317542000000.0 -276237000000.0 -120210000000.0 -192064000000.0 -218411000000.0 -168067000000.0 -257077000000.0 -230417000000.0 -211639000000.0 -356789000000.0 -292863000000.0 -104855000000.0 -119508000000.0 -183956000000.0 -112890000000.0 -184750000000.0 -83894100000.0 -175357000000.0 -97539600000.0 -224170000000.0 -49709000000.0 -185730000000.0 -185230000000.0 -90765600000.0 -132476000000.0 -140614000000.0 -126773000000.0 -208011000000.0 -95234300000.0 -54466200000.0 -25282700000.0 -122207000000.0 -56938900000.0 -33162900000.0 -27640200000.0 -29735600000.0 -69843100000.0 -77629200000.0 -13315400000.0 -39823000000.0 -22980000000.0 -26557100000.0 -18972900000.0 -41111100000.0 -18513100000.0 -20703700000.0 -26991200000.0 -45636900000.0 -12549700000.0 -12549700000.0 -27576400000.0 -19997200000.0 -29241400000.0 -27250100000.0 -31192800000.0 -75082300000.0 -45009900000.0 -91931400000.0 -59929600000.0 -25310500000.0 -132946000000.0 -176680000000.0 -119121000000.0 -86788200000.0 -61977100000.0 -108130000000.0 -63291700000.0 -74498700000.0 -132910000000.0 -15735400000.0 -23154400000.0 -239275000000.0 -194286000000.0 -100238000000.0 -17931400000.0 -44619000000.0 -34925600000.0 -232198000000.0 -374290000000.0 -66007900000.0 -267959000000.0 -161631000000.0 -297864000000.0 -231527000000.0 -203217000000.0 -33934400000.0 -185598000000.0 -438220000000.0 -178348000000.0 -289645000000.0 -299214000000.0 -188519000000.0 -203692000000.0 -31125100000.0 -190747000000.0 -349875000000.0 -458022000000.0 -136508000000.0 -258125000000.0 -155996000000.0 -56406000000.0 -121715000000.0 -199291000000.0 -33482500000.0 -86837900000.0 -278533000000.0 -59196900000.0 -109676000000.0 -122795000000.0 -165303000000.0 -173323000000.0 -126154000000.0 -89720300000.0 -117167000000.0 -117901000000.0 -236763000000.0 -147980000000.0 -148727000000.0 -68756600000.0 -57275900000.0 -79445600000.0 -64990900000.0 -33824100000.0 -101910000000.0 -80123300000.0 -13417400000.0 -50460900000.0 -46143500000.0 -95762000000.0 -32333100000.0 -14597000000.0 -15311600000.0 -28235200000.0 -22942800000.0 -45224800000.0 -36581100000.0 -28736300000.0 -44030300000.0 -25672100000.0 -25871400000.0 -26208600000.0 -15630500000.0 -13067300000.0 -12828500000.0 -16921500000.0 -29420900000.0 -13192500000.0 -13985900000.0 -12549700000.0 -21180900000.0 -12549700000.0 -18870800000.0 -15708800000.0 -15070600000.0 -52122100000.0 -19799800000.0 -36847000000.0 -93145400000.0 -74296700000.0 -76181600000.0 -32839500000.0 -49442300000.0 -31929800000.0 -51787100000.0 -20837500000.0 -53442300000.0 -58639600000.0 -29045600000.0 -135324000000.0 -62273800000.0 -94130200000.0 -124152000000.0 -48884700000.0 -100075000000.0 -212208000000.0 -71664200000.0 -30667400000.0 -13700100000.0 -36091800000.0 -177411000000.0 -150883000000.0 -155295000000.0 -78944200000.0 -113331000000.0 -13291200000.0 -200000000000.0 -65635200000.0 -19742600000.0 -154210000000.0 -85817800000.0 -186844000000.0 -309219000000.0 -149173000000.0 -148760000000.0 -142561000000.0 -220561000000.0 -124570000000.0 -73943100000.0 -103616000000.0 -73887000000.0 -301605000000.0 -74548400000.0 -132248000000.0 -125041000000.0 -150479000000.0 -66622200000.0 -182355000000.0 -216319000000.0 -185669000000.0 -260663000000.0 -176271000000.0 -80835600000.0 -82190700000.0 -151038000000.0 -55691600000.0 -99285700000.0 -81652400000.0 -37411300000.0 -12549700000.0 -53084300000.0 -192100000000.0 -53075600000.0 -64106200000.0 -38441400000.0 -74009700000.0 -58933000000.0 -60793100000.0 -67019200000.0 -41982400000.0 -82344700000.0 -41593300000.0 -27280300000.0 -22874300000.0 -15840200000.0 -51966200000.0 -52357900000.0 -24160900000.0 -24740000000.0 -18040200000.0 -24796600000.0 -22956600000.0 -29288200000.0 -17108600000.0 -12900000000.0 -18632800000.0 -14203000000.0 -12549700000.0 -12549700000.0 -13629600000.0 -23046600000.0 -15459500000.0 -14567200000.0 -19443700000.0 -13838800000.0 -18624800000.0 -15211300000.0 -14867800000.0 -28720700000.0 -34697000000.0 -16864500000.0 -27571400000.0 -35789500000.0 -42552200000.0 -38233300000.0 -30021900000.0 -41618300000.0 -80221700000.0 -59233700000.0 -57302500000.0 -80857000000.0 -19066900000.0 -91324300000.0 -23413000000.0 -41328200000.0 -55174500000.0 -212610000000.0 -63608200000.0 -186597000000.0 -110991000000.0 -13358000000.0 -79892100000.0 -36753600000.0 -48897800000.0 -59891500000.0 -114826000000.0 -75471500000.0 -82094000000.0 -91884700000.0 -166108000000.0 -18480800000.0 -188932000000.0 -251544000000.0 -97396700000.0 -163746000000.0 -28805500000.0 -36052300000.0 -125189000000.0 -253503000000.0 -171598000000.0 -18018000000.0 -100619000000.0 -107494000000.0 -81390400000.0 -79892700000.0 -31107800000.0 -76588500000.0 -62256100000.0 -31598000000.0 -72087800000.0 -30915600000.0 -42559700000.0 -42605100000.0 -22568000000.0 -24337300000.0 -29524900000.0 -84167600000.0 -37159000000.0 -31276400000.0 -40487200000.0 -37467100000.0 -38732800000.0 -26009400000.0 -47091500000.0 -42344500000.0 -30105300000.0 -44315600000.0 -20984800000.0 -14760400000.0 -13599200000.0 -36425200000.0 -28936000000.0 -12549700000.0 -15396200000.0 -17128300000.0 -14059100000.0 -18404400000.0 -14839000000.0 -22113900000.0 -13739000000.0 -12753200000.0 -16292600000.0 -12564100000.0 -12549700000.0 -12558200000.0 -12700400000.0 -18696200000.0 -12549700000.0 -21410000000.0 -17150200000.0 -13588200000.0 -14223500000.0 -14524100000.0 -19916800000.0 -15551900000.0 -21136900000.0 -15487100000.0 -15670000000.0 -15398600000.0 -24212500000.0 -18499000000.0 -20521600000.0 -23558100000.0 -28591400000.0 -37094800000.0 -38192000000.0 -38611900000.0 -14056100000.0 -47160200000.0 -37747700000.0 -25426000000.0 -44231900000.0 -73985400000.0 -101284000000.0 -89143600000.0 -150166000000.0 -50884600000.0 -37042100000.0 -12799900000.0 -63915300000.0 -36487700000.0 -53231100000.0 -16469900000.0 -75793200000.0 -23591000000.0 -63849300000.0 -51738600000.0 -13056000000.0 -98690600000.0 -57563900000.0 -115113000000.0 -77809300000.0 -102671000000.0 -70887600000.0 -165689000000.0 -143708000000.0 -120067000000.0 -220878000000.0 -51012500000.0 -34524800000.0 -23374100000.0 -49193100000.0 -43625000000.0 -26533500000.0 -39100200000.0 -46097000000.0 -42258500000.0 -25620900000.0 -49777600000.0 -29381400000.0 -34607200000.0 -38368200000.0 -31929700000.0 -28789800000.0 -35803500000.0 -15685000000.0 -18748800000.0 -18014200000.0 -18068000000.0 -15234500000.0 -20014200000.0 -14200700000.0 -13702600000.0 -12997600000.0 -15517400000.0 -25747800000.0 -17929500000.0 -13641900000.0 -15913100000.0 -18131700000.0 -12927900000.0 -16871900000.0 -13544400000.0 -13551700000.0 -12549700000.0 -13980900000.0 -12860600000.0 -14163300000.0 -15958300000.0 -15011000000.0 -13785400000.0 -13516200000.0 -13627600000.0 -13661600000.0 -13952200000.0 -16859100000.0 -14999800000.0 -16121700000.0 -13584600000.0 -12930300000.0 -13549400000.0 -15553200000.0 -13925000000.0 -16187200000.0 -18528300000.0 -13702200000.0 -13811000000.0 -18823500000.0 -23532000000.0 -23673200000.0 -25250200000.0 -20296700000.0 -20925600000.0 -32318700000.0 -33707700000.0 -27160600000.0 -33387500000.0 -28172600000.0 -12549700000.0 -22680900000.0 -16110900000.0 -19924700000.0 -19138500000.0 -14379500000.0 -22739200000.0 -23886000000.0 -25316600000.0 -22060300000.0 -20135200000.0 -30806500000.0 -46932000000.0 -24247900000.0 -23131400000.0 -32136300000.0 -40044000000.0 -14853100000.0 -18444200000.0 -32230000000.0 -38343600000.0 -51929100000.0 -43773800000.0 -62021100000.0 -68093500000.0 -62948500000.0 -19489800000.0 -12549700000.0 -16463900000.0 