# vtk DataFile Version 2.0
Time step 51
ASCII
DATASET UNSTRUCTURED_GRID
POINTS 4650 float
179724.0 390024.0 0
186612.0 390872.0 0
313388.0 390872.0 0
320276.0 390024.0 0
173985.0 393598.0 0
177814.0 393428.0 0
182909.0 392322.0 0
191608.0 392202.0 0
198599.0 393013.0 0
301401.0 393013.0 0
308392.0 392202.0 0
317091.0 392322.0 0
322186.0 393428.0 0
326015.0 393598.0 0
170608.0 395692.0 0
173834.0 397347.0 0
180951.0 395748.0 0
184794.0 395939.0 0
188364.0 394450.0 0
194887.0 394460.0 0
202276.0 394574.0 0
206151.0 393590.0 0
210067.0 394462.0 0
214061.0 394255.0 0
218055.0 394439.0 0
222051.0 394419.0 0
226047.0 394433.0 0
230041.0 394430.0 0
234034.0 394432.0 0
238026.0 394426.0 0
242018.0 394431.0 0
246009.0 394423.0 0
250000.0 394432.0 0
253991.0 394423.0 0
257982.0 394431.0 0
261974.0 394426.0 0
265966.0 394432.0 0
269959.0 394430.0 0
273953.0 394433.0 0
277949.0 394419.0 0
281945.0 394439.0 0
285939.0 394255.0 0
289933.0 394462.0 0
293849.0 393590.0 0
297724.0 394574.0 0
305113.0 394460.0 0
311636.0 394450.0 0
315206.0 395939.0 0
319049.0 395748.0 0
326166.0 397347.0 0
329392.0 395692.0 0
164014.0 399817.0 0
167275.0 397775.0 0
170490.0 399388.0 0
177463.0 397377.0 0
188015.0 398681.0 0
191595.0 396704.0 0
195171.0 398439.0 0
198873.0 396994.0 0
202469.0 398706.0 0
206283.0 397567.0 0
210153.0 398523.0 0
214130.0 398241.0 0
218113.0 398444.0 0
222100.0 398417.0 0
226086.0 398433.0 0
230073.0 398430.0 0
234059.0 398432.0 0
238045.0 398425.0 0
242030.0 398432.0 0
246015.0 398423.0 0
250000.0 398432.0 0
253985.0 398423.0 0
257970.0 398432.0 0
261955.0 398425.0 0
265941.0 398432.0 0
269927.0 398430.0 0
273914.0 398433.0 0
277900.0 398417.0 0
281887.0 398444.0 0
285870.0 398241.0 0
289847.0 398523.0 0
293717.0 397567.0 0
297531.0 398706.0 0
301127.0 396994.0 0
304829.0 398439.0 0
308405.0 396704.0 0
311985.0 398681.0 0
322537.0 397377.0 0
329510.0 399388.0 0
332725.0 397775.0 0
335986.0 399817.0 0
160807.0 401824.0 0
167251.0 401498.0 0
173707.0 401003.0 0
177185.0 401794.0 0
180455.0 399668.0 0
184235.0 399827.0 0
191864.0 400658.0 0
199186.0 400969.0 0
300814.0 400969.0 0
308136.0 400658.0 0
315765.0 399827.0 0
319545.0 399668.0 0
322815.0 401794.0 0
326293.0 401003.0 0
332749.0 401498.0 0
339193.0 401824.0 0
157636.0 403805.0 0
164066.0 403567.0 0
170486.0 403141.0 0
173787.0 404682.0 0
180413.0 403530.0 0
186871.0 402616.0 0
190338.0 404294.0 0
195468.0 402401.0 0
202883.0 402670.0 0
206660.0 401515.0 0
210419.0 402765.0 0
214344.0 402210.0 0
218299.0 402470.0 0
222262.0 402411.0 0
226224.0 402436.0 0
230186.0 402428.0 0
234148.0 402434.0 0
238111.0 402424.0 0
242074.0 402434.0 0
246037.0 402422.0 0
250000.0 402434.0 0
253963.0 402422.0 0
257926.0 402434.0 0
261889.0 402424.0 0
265852.0 402434.0 0
269814.0 402428.0 0
273776.0 402436.0 0
277738.0 402411.0 0
281701.0 402470.0 0
285656.0 402210.0 0
289581.0 402765.0 0
293340.0 401515.0 0
297117.0 402670.0 0
304532.0 402401.0 0
309662.0 404294.0 0
313129.0 402616.0 0
319587.0 403530.0 0
326213.0 404682.0 0
329514.0 403141.0 0
335934.0 403567.0 0
342364.0 403805.0 0
151235.0 407798.0 0
154452.0 405791.0 0
157756.0 407505.0 0
160918.0 405586.0 0
167315.0 405285.0 0
170601.0 406918.0 0
177213.0 405792.0 0
183755.0 405011.0 0
187149.0 406601.0 0
193795.0 405989.0 0
199653.0 404907.0 0
206977.0 405474.0 0
210615.0 407012.0 0
214479.0 406174.0 0
218416.0 406504.0 0
222365.0 406406.0 0
226314.0 406443.0 0
230262.0 406427.0 0
234209.0 406440.0 0
238157.0 406423.0 0
242105.0 406439.0 0
246052.0 406421.0 0
250000.0 406437.0 0
253948.0 406421.0 0
257895.0 406439.0 0
261843.0 406423.0 0
265791.0 406440.0 0
269738.0 406427.0 0
273686.0 406443.0 0
277635.0 406406.0 0
281584.0 406504.0 0
285521.0 406174.0 0
289385.0 407012.0 0
293023.0 405474.0 0
300347.0 404907.0 0
306205.0 405989.0 0
312851.0 406601.0 0
316245.0 405011.0 0
322787.0 405792.0 0
329399.0 406918.0 0
332685.0 405285.0 0
339082.0 405586.0 0
342244.0 407505.0 0
345548.0 405791.0 0
348765.0 407798.0 0
147994.0 409821.0 0
154533.0 409424.0 0
164173.0 407384.0 0
167438.0 409116.0 0
173952.0 408417.0 0
180555.0 407402.0 0
183945.0 408937.0 0
190567.0 408276.0 0
197155.0 407879.0 0
200615.0 409605.0 0
203223.0 406673.0 0
296777.0 406673.0 0
299385.0 409605.0 0
302845.0 407879.0 0
309433.0 408276.0 0
316055.0 408937.0 0
319445.0 407402.0 0
326048.0 408417.0 0
332562.0 409116.0 0
335827.0 407384.0 0
345467.0 409424.0 0
352006.0 409821.0 0
144749.0 411849.0 0
151261.0 411398.0 0
154559.0 413024.0 0
157862.0 411185.0 0
161047.0 409401.0 0
164301.0 411264.0 0
170763.0 410723.0 0
174147.0 412205.0 0
177353.0 409733.0 0
180734.0 411281.0 0
187343.0 410554.0 0
193948.0 410065.0 0
197386.0 411843.0 0
203711.0 411945.0 0
206794.0 409458.0 0
210460.0 411001.0 0
214344.0 410135.0 0
218304.0 410502.0 0
222274.0 410400.0 0
226242.0 410443.0 0
230207.0 410426.0 0
234169.0 410440.0 0
238128.0 410423.0 0
242086.0 410440.0 0
246043.0 410421.0 0
250000.0 410439.0 0
253957.0 410421.0 0
257914.0 410440.0 0
261872.0 410423.0 0
265831.0 410440.0 0
269793.0 410426.0 0
273758.0 410443.0 0
277726.0 410400.0 0
281696.0 410502.0 0
285656.0 410135.0 0
289540.0 411001.0 0
293206.0 409458.0 0
296289.0 411945.0 0
302614.0 411843.0 0
306052.0 410065.0 0
312657.0 410554.0 0
319266.0 411281.0 0
322647.0 409733.0 0
325853.0 412205.0 0
329237.0 410723.0 0
335699.0 411264.0 0
338953.0 409401.0 0
342138.0 411185.0 0
345441.0 413024.0 0
348739.0 411398.0 0
355251.0 411849.0 0
138286.0 415893.0 0
141511.0 413874.0 0
144768.0 415465.0 0
148002.0 413424.0 0
151280.0 415007.0 0
157886.0 414779.0 0
161167.0 413290.0 0
167595.0 412991.0 0
170973.0 414558.0 0
177540.0 413630.0 0
184132.0 412849.0 0
187522.0 414499.0 0
190731.0 412262.0 0
194142.0 414031.0 0
200469.0 414183.0 0
207236.0 413614.0 0
210758.0 415356.0 0
214489.0 414084.0 0
218408.0 414535.0 0
222350.0 414393.0 0
226297.0 414445.0 0
230244.0 414425.0 0
234192.0 414441.0 0
238142.0 414422.0 0
242094.0 414442.0 0
246047.0 414420.0 0
250000.0 414441.0 0
253953.0 414420.0 0
257906.0 414442.0 0
261858.0 414422.0 0
265808.0 414441.0 0
269756.0 414425.0 0
273703.0 414445.0 0
277650.0 414393.0 0
281592.0 414535.0 0
285511.0 414084.0 0
289242.0 415356.0 0
292764.0 413614.0 0
299531.0 414183.0 0
305858.0 414031.0 0
309269.0 412262.0 0
312478.0 414499.0 0
315868.0 412849.0 0
322460.0 413630.0 0
329027.0 414558.0 0
332405.0 412991.0 0
338833.0 413290.0 0
342114.0 414779.0 0
348720.0 415007.0 0
351998.0 413424.0 0
355232.0 415465.0 0
358489.0 413874.0 0
361714.0 415893.0 0
135078.0 417901.0 0
141553.0 417514.0 0
148060.0 417054.0 0
154583.0 416615.0 0
157952.0 418252.0 0
164445.0 415208.0 0
167854.0 416892.0 0
174377.0 416039.0 0
180934.0 415157.0 0
184327.0 416759.0 0
190913.0 416222.0 0
197192.0 416374.0 0
203973.0 415925.0 0
296027.0 415925.0 0
302808.0 416374.0 0
309087.0 416222.0 0
315673.0 416759.0 0
319066.0 415157.0 0
325623.0 416039.0 0
332146.0 416892.0 0
335555.0 415208.0 0
342048.0 418252.0 0
345417.0 416615.0 0
351940.0 417054.0 0
358447.0 417514.0 0
364922.0 417901.0 0
131880.0 419902.0 0
138354.0 419565.0 0
144863.0 419108.0 0
148217.0 420712.0 0
151382.0 418649.0 0
154752.0 420218.0 0
161512.0 417605.0 0
164908.0 419302.0 0
171282.0 418439.0 0
174678.0 419925.0 0
177768.0 417510.0 0
181152.0 419026.0 0
187706.0 418435.0 0
193911.0 418568.0 0
200659.0 418149.0 0
204118.0 419944.0 0
207455.0 417751.0 0
210905.0 419684.0 0
214512.0 418041.0 0
218437.0 418573.0 0
222389.0 418386.0 0
226339.0 418449.0 0
230287.0 418424.0 0
234232.0 418442.0 0
238175.0 418421.0 0
242117.0 418443.0 0
246059.0 418419.0 0
250000.0 418441.0 0
253941.0 418419.0 0
257883.0 418443.0 0
261825.0 418421.0 0
265768.0 418442.0 0
269713.0 418424.0 0
273661.0 418449.0 0
277611.0 418386.0 0
281563.0 418573.0 0
285488.0 418041.0 0
289095.0 419684.0 0
292545.0 417751.0 0
295882.0 419944.0 0
299341.0 418149.0 0
306089.0 418568.0 0
312294.0 418435.0 0
318848.0 419026.0 0
322232.0 417510.0 0
325322.0 419925.0 0
328718.0 418439.0 0
335092.0 419302.0 0
338488.0 417605.0 0
345248.0 420218.0 0
348618.0 418649.0 0
351783.0 420712.0 0
355137.0 419108.0 0
361646.0 419565.0 0
368120.0 419902.0 0
128685.0 421900.0 0
131984.0 423620.0 0
135166.0 421600.0 0
138482.0 423268.0 0
141671.0 421178.0 0
145044.0 422765.0 0
151614.0 422316.0 0
155070.0 423817.0 0
158228.0 421721.0 0
161880.0 421625.0 0
168384.0 420922.0 0
171898.0 422557.0 0
178029.0 421407.0 0
184535.0 420676.0 0
190636.0 420788.0 0
194039.0 422517.0 0
197347.0 420334.0 0
200785.0 422138.0 0
207552.0 421836.0 0
214536.0 421996.0 0
218445.0 422604.0 0
222391.0 422379.0 0
226340.0 422450.0 0
230287.0 422423.0 0
234231.0 422442.0 0
238175.0 422420.0 0
242117.0 422443.0 0
246059.0 422418.0 0
250000.0 422441.0 0
253941.0 422418.0 0
257883.0 422443.0 0
261825.0 422420.0 0
265769.0 422442.0 0
269713.0 422423.0 0
273660.0 422450.0 0
277609.0 422379.0 0
281555.0 422604.0 0
285464.0 421996.0 0
292448.0 421836.0 0
299215.0 422138.0 0
302653.0 420334.0 0
305961.0 422517.0 0
309364.0 420788.0 0
315465.0 420676.0 0
321971.0 421407.0 0
328102.0 422557.0 0
331616.0 420922.0 0
338120.0 421625.0 0
341772.0 421721.0 0
344930.0 423817.0 0
348386.0 422316.0 0
354956.0 422765.0 0
358329.0 421178.0 0
361518.0 423268.0 0
364834.0 421600.0 0
368016.0 423620.0 0
371315.0 421900.0 0
122284.0 425902.0 0
125490.0 423901.0 0
135305.0 425333.0 0
141848.0 424853.0 0
148475.0 424382.0 0
151947.0 426011.0 0
158603.0 425262.0 0
165331.0 423244.0 0
168819.0 424866.0 0
175433.0 424229.0 0
181354.0 422871.0 0
184129.0 425187.0 0
187400.0 423071.0 0
190743.0 424730.0 0
197445.0 424301.0 0
204204.0 424009.0 0
210995.0 423754.0 0
289005.0 423754.0 0
295796.0 424009.0 0
302555.0 424301.0 0
309257.0 424730.0 0
312600.0 423071.0 0
315871.0 425187.0 0
318646.0 422871.0 0
324567.0 424229.0 0
331181.0 424866.0 0
334669.0 423244.0 0
341397.0 425262.0 0
348053.0 426011.0 0
351525.0 424382.0 0
358152.0 424853.0 0
364695.0 425333.0 0
374510.0 423901.0 0
377716.0 425902.0 0
119062.0 427915.0 0
122393.0 429638.0 0
125611.0 427635.0 0
128803.0 425632.0 0
132135.0 427373.0 0
138656.0 427005.0 0
142059.0 428519.0 0
145291.0 426407.0 0
148812.0 428054.0 0
155449.0 427424.0 0
159037.0 428912.0 0
162276.0 425569.0 0
165757.0 427168.0 0
172311.0 426502.0 0
179003.0 425911.0 0
187337.0 427090.0 0
194104.0 426465.0 0
200844.0 426153.0 0
207600.0 425965.0 0
211114.0 427738.0 0
214635.0 425954.0 0
218519.0 426673.0 0
222453.0 426371.0 0
226394.0 426458.0 0
230333.0 426422.0 0
234269.0 426443.0 0
238203.0 426419.0 0
242136.0 426443.0 0
246068.0 426417.0 0
250000.0 426441.0 0
253932.0 426417.0 0
257864.0 426443.0 0
261797.0 426419.0 0
265731.0 426443.0 0
269667.0 426422.0 0
273606.0 426458.0 0
277547.0 426371.0 0
281481.0 426673.0 0
285365.0 425954.0 0
288886.0 427738.0 0
292400.0 425965.0 0
299156.0 426153.0 0
305896.0 426465.0 0
312663.0 427090.0 0
320997.0 425911.0 0
327689.0 426502.0 0
334243.0 427168.0 0
337724.0 425569.0 0
340963.0 428912.0 0
344551.0 427424.0 0
351188.0 428054.0 0
354709.0 426407.0 0
357941.0 428519.0 0
361344.0 427005.0 0
367865.0 427373.0 0
371197.0 425632.0 0
374389.0 427635.0 0
377607.0 429638.0 0
380938.0 427915.0 0
112526.0 431999.0 0
115809.0 429948.0 0
119148.0 431639.0 0
128954.0 429395.0 0
135493.0 429102.0 0
145572.0 430002.0 0
152328.0 429801.0 0
155877.0 430985.0 0
162680.0 429449.0 0
169237.0 428824.0 0
172738.0 430450.0 0
175817.0 428159.0 0
179290.0 429817.0 0
183043.0 428872.0 0
190761.0 428651.0 0
194102.0 430403.0 0
197470.0 428268.0 0
200824.0 430151.0 0
204224.0 428083.0 0
207607.0 430050.0 0
214682.0 429922.0 0
285318.0 429922.0 0
292393.0 430050.0 0
295776.0 428083.0 0
299176.0 430151.0 0
302530.0 428268.0 0
305898.0 430403.0 0
309239.0 428651.0 0
316957.0 428872.0 0
320710.0 429817.0 0
324183.0 428159.0 0
327262.0 430450.0 0
330763.0 428824.0 0
337320.0 429449.0 0
344123.0 430985.0 0
347672.0 429801.0 0
354428.0 430002.0 0
364507.0 429102.0 0
371046.0 429395.0 0
380852.0 431639.0 0
384191.0 429948.0 0
387474.0 431999.0 0
109213.0 434069.0 0
115867.0 433659.0 0
122501.0 433389.0 0
125738.0 431396.0 0
129090.0 433176.0 0
132326.0 431154.0 0
135756.0 432905.0 0
138870.0 430801.0 0
142263.0 432156.0 0
145731.0 433515.0 0
149114.0 431723.0 0
159344.0 432760.0 0
163036.0 433251.0 0
166147.0 431090.0 0
176523.0 432548.0 0
181945.0 432651.0 0
186358.0 430928.0 0
189967.0 432505.0 0
197432.0 432229.0 0
204181.0 432080.0 0
211170.0 431704.0 0
218553.0 430671.0 0
222481.0 430365.0 0
226416.0 430463.0 0
230350.0 430421.0 0
234282.0 430444.0 0
238212.0 430419.0 0
242142.0 430443.0 0
246071.0 430417.0 0
250000.0 430440.0 0
253929.0 430417.0 0
257858.0 430443.0 0
261788.0 430419.0 0
265718.0 430444.0 0
269650.0 430421.0 0
273584.0 430463.0 0
277519.0 430365.0 0
281447.0 430671.0 0
288830.0 431704.0 0
295819.0 432080.0 0
302568.0 432229.0 0
310033.0 432505.0 0
313642.0 430928.0 0
318055.0 432651.0 0
323477.0 432548.0 0
333853.0 431090.0 0
336964.0 433251.0 0
340656.0 432760.0 0
350886.0 431723.0 0
354269.0 433515.0 0
357737.0 432156.0 0
361130.0 430801.0 0
364244.0 432905.0 0
367674.0 431154.0 0
370910.0 433176.0 0
374262.0 431396.0 0
377499.0 433389.0 0
384133.0 433659.0 0
390787.0 434069.0 0
105872.0 436159.0 0
112555.0 435705.0 0
115918.0 437386.0 0
119225.0 435377.0 0
122599.0 437153.0 0
125871.0 435185.0 0
132449.0 434929.0 0
139247.0 434723.0 0
142960.0 435744.0 0
148623.0 435372.0 0
152202.0 434186.0 0
155944.0 434470.0 0
166381.0 435060.0 0
169559.0 432791.0 0
173058.0 434291.0 0
186613.0 434856.0 0
193514.0 434292.0 0
200757.0 434144.0 0
207562.0 434054.0 0
211152.0 435645.0 0
214682.0 433902.0 0
218549.0 434663.0 0
222477.0 434361.0 0
226413.0 434471.0 0
230347.0 434420.0 0
234279.0 434444.0 0
238210.0 434419.0 0
242141.0 434443.0 0
246070.0 434417.0 0
250000.0 434440.0 0
253930.0 434417.0 0
257859.0 434443.0 0
261790.0 434419.0 0
265721.0 434444.0 0
269653.0 434420.0 0
273587.0 434471.0 0
277523.0 434361.0 0
281451.0 434663.0 0
285318.0 433902.0 0
288848.0 435645.0 0
292438.0 434054.0 0
299243.0 434144.0 0
306486.0 434292.0 0
313387.0 434856.0 0
326942.0 434291.0 0
330441.0 432791.0 0
333619.0 435060.0 0
344056.0 434470.0 0
347798.0 434186.0 0
351377.0 435372.0 0
357040.0 435744.0 0
360753.0 434723.0 0
367551.0 434929.0 0
374129.0 435185.0 0
377401.0 437153.0 0
380775.0 435377.0 0
384082.0 437386.0 0
387445.0 435705.0 0
394128.0 436159.0 0
102521.0 438256.0 0
105879.0 439898.0 0
109219.0 437782.0 0
112583.0 439429.0 0
119290.0 439128.0 0
129258.0 437009.0 0
135787.0 436627.0 0
142386.0 439061.0 0
146146.0 438235.0 0
150442.0 438242.0 0
154149.0 437703.0 0
158092.0 437372.0 0
161856.0 436811.0 0
167707.0 438639.0 0
171516.0 437847.0 0
175537.0 437196.0 0
179130.0 435535.0 0
182988.0 436360.0 0
190210.0 436431.0 0
196983.0 436142.0 0
200409.0 438110.0 0
204121.0 436050.0 0
207427.0 438145.0 0
292573.0 438145.0 0
295879.0 436050.0 0
299591.0 438110.0 0
303017.0 436142.0 0
309790.0 436431.0 0
317012.0 436360.0 0
320870.0 435535.0 0
324463.0 437196.0 0
328484.0 437847.0 0
332293.0 438639.0 0
338144.0 436811.0 0
341908.0 437372.0 0
345851.0 437703.0 0
349558.0 438242.0 0
353854.0 438235.0 0
357614.0 439061.0 0
364213.0 436627.0 0
370742.0 437009.0 0
380710.0 439128.0 0
387417.0 439429.0 0
390781.0 437782.0 0
394121.0 439898.0 0
397479.0 438256.0 0
99182.1 440349.0 0
102563.0 442044.0 0
109257.0 441524.0 0
115958.0 441127.0 0
122682.0 440928.0 0
125975.0 438985.0 0
129334.0 440849.0 0
132687.0 438795.0 0
138720.0 438634.0 0
152494.0 441257.0 0
156367.0 440840.0 0
160262.0 440448.0 0
164067.0 439885.0 0
174013.0 440864.0 0
177906.0 440255.0 0
181740.0 440039.0 0
185593.0 439286.0 0
189348.0 440236.0 0
193137.0 439093.0 0
196949.0 440078.0 0
203883.0 439984.0 0
211096.0 439561.0 0
214665.0 437894.0 0
218535.0 438651.0 0
222465.0 438360.0 0
226402.0 438470.0 0
230338.0 438420.0 0
234272.0 438443.0 0
238205.0 438419.0 0
242137.0 438442.0 0
246069.0 438417.0 0
250000.0 438439.0 0
253931.0 438417.0 0
257863.0 438442.0 0
261795.0 438419.0 0
265728.0 438443.0 0
269662.0 438420.0 0
273598.0 438470.0 0
277535.0 438360.0 0
281465.0 438651.0 0
285335.0 437894.0 0
288904.0 439561.0 0
296117.0 439984.0 0
303051.0 440078.0 0
306863.0 439093.0 0
310652.0 440236.0 0
314407.0 439286.0 0
318260.0 440039.0 0
322094.0 440255.0 0
325987.0 440864.0 0
335933.0 439885.0 0
339738.0 440448.0 0
343633.0 440840.0 0
347506.0 441257.0 0
361280.0 438634.0 0
367313.0 438795.0 0
370666.0 440849.0 0
374025.0 438985.0 0
377318.0 440928.0 0
384042.0 441127.0 0
390743.0 441524.0 0
397437.0 442044.0 0
400818.0 440349.0 0
95866.9 442431.0 0
99299.6 444214.0 0
105966.0 443679.0 0
112634.0 443183.0 0
115992.0 444900.0 0
119325.0 442890.0 0
122686.0 444686.0 0
126096.0 442819.0 0
132635.0 442553.0 0
136453.0 441816.0 0
140368.0 442058.0 0
144651.0 441839.0 0
148481.0 441433.0 0
162522.0 443556.0 0
166412.0 442853.0 0
170155.0 441606.0 0
176486.0 443912.0 0
184249.0 443041.0 0
191914.0 443163.0 0
199604.0 442977.0 0
207075.0 442331.0 0
210875.0 443453.0 0
214541.0 441963.0 0
218441.0 442632.0 0
222385.0 442359.0 0
226333.0 442468.0 0
230280.0 442420.0 0
234226.0 442443.0 0
238170.0 442425.0 0
242114.0 442441.0 0
246057.0 442424.0 0
250000.0 442437.0 0
253943.0 442424.0 0
257886.0 442441.0 0
261830.0 442425.0 0
265774.0 442443.0 0
269720.0 442420.0 0
273667.0 442468.0 0
277615.0 442359.0 0
281559.0 442632.0 0
285459.0 441963.0 0
289125.0 443453.0 0
292925.0 442331.0 0
300396.0 442977.0 0
308086.0 443163.0 0
315751.0 443041.0 0
323514.0 443912.0 0
329845.0 441606.0 0
333588.0 442853.0 0
337478.0 443556.0 0
351519.0 441433.0 0
355349.0 441839.0 0
359632.0 442058.0 0
363547.0 441816.0 0
367365.0 442553.0 0
373904.0 442819.0 0
377314.0 444686.0 0
380675.0 442890.0 0
384008.0 444900.0 0
387366.0 443183.0 0
394034.0 443679.0 0
400700.0 444214.0 0
404133.0 442431.0 0
86100.1 448542.0 0
89462.0 446439.0 0
93156.7 445195.0 0
102728.0 445895.0 0
106123.0 447527.0 0
109350.0 445317.0 0
112717.0 446989.0 0
119305.0 446699.0 0
126028.0 446589.0 0
129600.0 444980.0 0
134861.0 445442.0 0
138674.0 445281.0 0
142664.0 445093.0 0
146730.0 444908.0 0
150658.0 444613.0 0
154642.0 444342.0 0
158582.0 443976.0 0
168843.0 445771.0 0
172615.0 444610.0 0
180370.0 443752.0 0
188027.0 443953.0 0
195741.0 443855.0 0
203414.0 443894.0 0
296586.0 443894.0 0
304259.0 443855.0 0
311973.0 443953.0 0
319630.0 443752.0 0
327385.0 444610.0 0
331157.0 445771.0 0
341418.0 443976.0 0
345358.0 444342.0 0
349342.0 444613.0 0
353270.0 444908.0 0
357336.0 445093.0 0
361326.0 445281.0 0
365139.0 445442.0 0
370400.0 444980.0 0
373972.0 446589.0 0
380695.0 446699.0 0
387283.0 446989.0 0
390650.0 445317.0 0
393877.0 447527.0 0
397272.0 445895.0 0
406843.0 445195.0 0
410538.0 446439.0 0
413900.0 448542.0 0
89612.5 450398.0 0
93371.1 449161.0 0
96665.7 447019.0 0
100210.0 448797.0 0
109472.0 449171.0 0
116083.0 448737.0 0
122523.0 448448.0 0
132944.0 448742.0 0
136902.0 448678.0 0
140855.0 448461.0 0
144833.0 448251.0 0
148844.0 448043.0 0
152818.0 447766.0 0
156809.0 447473.0 0
160789.0 447130.0 0
164954.0 446564.0 0
171398.0 448627.0 0
175166.0 447583.0 0
179093.0 447729.0 0
182917.0 446772.0 0
186747.0 447724.0 0
190619.0 446890.0 0
194506.0 447659.0 0
198381.0 446761.0 0
202237.0 447673.0 0
206382.0 446468.0 0
210250.0 447303.0 0
214104.0 446276.0 0
218080.0 446597.0 0
222067.0 446425.0 0
226058.0 446456.0 0
230048.0 446430.0 0
234038.0 446438.0 0
238028.0 446430.0 0
242019.0 446438.0 0
246009.0 446429.0 0
250000.0 446436.0 0
253991.0 446429.0 0
257981.0 446438.0 0
261972.0 446430.0 0
265962.0 446438.0 0
269952.0 446430.0 0
273942.0 446456.0 0
277933.0 446425.0 0
281920.0 446597.0 0
285896.0 446276.0 0
289750.0 447303.0 0
293618.0 446468.0 0
297763.0 447673.0 0
301619.0 446761.0 0
305494.0 447659.0 0
309381.0 446890.0 0
313253.0 447724.0 0
317083.0 446772.0 0
320907.0 447729.0 0
324834.0 447583.0 0
328602.0 448627.0 0
335046.0 446564.0 0
339211.0 447130.0 0
343191.0 447473.0 0
347182.0 447766.0 0
351156.0 448043.0 0
355167.0 448251.0 0
359145.0 448461.0 0
363098.0 448678.0 0
367056.0 448742.0 0
377477.0 448448.0 0
383917.0 448737.0 0
390528.0 449171.0 0
399790.0 448797.0 0
403334.0 447019.0 0
406629.0 449161.0 0
410387.0 450398.0 0
96924.7 450949.0 0
103774.0 450560.0 0
107331.0 452354.0 0
112805.0 450822.0 0
116101.0 452554.0 0
119430.0 450671.0 0
125492.0 450340.0 0
129103.0 448920.0 0
143009.0 451653.0 0
146989.0 451438.0 0
150980.0 451208.0 0
154961.0 450937.0 0
158947.0 450648.0 0
163230.0 450127.0 0
167516.0 449515.0 0
176279.0 451317.0 0
183973.0 450585.0 0
191640.0 450655.0 0
199296.0 450590.0 0
206912.0 450404.0 0
210798.0 451183.0 0
214616.0 450235.0 0
218538.0 450559.0 0
222468.0 450407.0 0
226401.0 450440.0 0
230334.0 450432.0 0
234267.0 450432.0 0
238200.0 450430.0 0
242133.0 450436.0 0
246067.0 450429.0 0
250000.0 450435.0 0
253933.0 450429.0 0
257867.0 450436.0 0
261800.0 450430.0 0
265733.0 450432.0 0
269666.0 450432.0 0
273599.0 450440.0 0
277532.0 450407.0 0
281462.0 450559.0 0
285384.0 450235.0 0
289202.0 451183.0 0
293088.0 450404.0 0
300704.0 450590.0 0
308360.0 450655.0 0
316027.0 450585.0 0
323721.0 451317.0 0
332484.0 449515.0 0
336770.0 450127.0 0
341053.0 450648.0 0
345039.0 450937.0 0
349020.0 451208.0 0
353011.0 451438.0 0
356991.0 451653.0 0
370897.0 448920.0 0
374508.0 450340.0 0
380570.0 450671.0 0
383899.0 452554.0 0
387195.0 450822.0 0
392669.0 452354.0 0
396226.0 450560.0 0
403075.0 450949.0 0
93599.1 453131.0 0
100496.0 452718.0 0
104056.0 454473.0 0
110884.0 454098.0 0
122565.0 452940.0 0
127429.0 453218.0 0
131170.0 452247.0 0
135066.0 452053.0 0
139039.0 451871.0 0
157056.0 454155.0 0
160978.0 453911.0 0
164856.0 453631.0 0
168709.0 453239.0 0
172491.0 452336.0 0
180163.0 451566.0 0
187788.0 451562.0 0
195460.0 451537.0 0
203115.0 451527.0 0
296885.0 451527.0 0
304540.0 451537.0 0
312212.0 451562.0 0
319837.0 451566.0 0
327509.0 452336.0 0
331291.0 453239.0 0
335144.0 453631.0 0
339022.0 453911.0 0
342944.0 454155.0 0
360961.0 451871.0 0
364934.0 452053.0 0
368830.0 452247.0 0
372571.0 453218.0 0
377435.0 452940.0 0
389116.0 454098.0 0
395944.0 454473.0 0
399504.0 452718.0 0
406401.0 453131.0 0
97180.4 454867.0 0
100735.0 456655.0 0
107632.0 456289.0 0
114413.0 455919.0 0
119114.0 454819.0 0
124809.0 456113.0 0
129427.0 456187.0 0
133270.0 455544.0 0
137219.0 455291.0 0
141190.0 455077.0 0
145161.0 454865.0 0
149133.0 454648.0 0
153103.0 454412.0 0
167072.0 456852.0 0
171354.0 456140.0 0
175212.0 455122.0 0
179133.0 455710.0 0
182890.0 454418.0 0
186725.0 455397.0 0
190537.0 454430.0 0
194370.0 455414.0 0
198197.0 454405.0 0
202042.0 455350.0 0
205893.0 454327.0 0
209801.0 454974.0 0
213987.0 454408.0 0
217985.0 454508.0 0
222000.0 454430.0 0
226000.0 454430.0 0
230000.0 454430.0 0
234000.0 454430.0 0
238000.0 454430.0 0
242000.0 454434.0 0
246000.0 454430.0 0
250000.0 454434.0 0
254000.0 454430.0 0
258000.0 454434.0 0
262000.0 454430.0 0
266000.0 454430.0 0
270000.0 454430.0 0
274000.0 454430.0 0
278000.0 454430.0 0
282015.0 454508.0 0
286013.0 454408.0 0
290199.0 454974.0 0
294107.0 454327.0 0
297958.0 455350.0 0
301803.0 454405.0 0
305630.0 455414.0 0
309463.0 454430.0 0
313275.0 455397.0 0
317110.0 454418.0 0
320867.0 455710.0 0
324788.0 455122.0 0
328646.0 456140.0 0
332928.0 456852.0 0
346897.0 454412.0 0
350867.0 454648.0 0
354839.0 454865.0 0
358810.0 455077.0 0
362781.0 455291.0 0
366730.0 455544.0 0
370573.0 456187.0 0
375191.0 456113.0 0
380886.0 454819.0 0
385587.0 455919.0 0
392368.0 456289.0 0
399265.0 456655.0 0
402820.0 454867.0 0
97098.8 458792.0 0
104317.0 458359.0 0
111205.0 457965.0 0
117370.0 458387.0 0
121329.0 457949.0 0
127051.0 459300.0 0
131516.0 459229.0 0
135435.0 458766.0 0
139387.0 458520.0 0
143347.0 458309.0 0
147309.0 458103.0 0
151270.0 457889.0 0
155222.0 457661.0 0
159163.0 457427.0 0
163111.0 457185.0 0
176573.0 458784.0 0
183987.0 458234.0 0
191557.0 458241.0 0
199186.0 458249.0 0
203026.0 459194.0 0
206836.0 458187.0 0
210730.0 458801.0 0
214625.0 458353.0 0
218547.0 458465.0 0
222473.0 458431.0 0
226401.0 458434.0 0
230331.0 458432.0 0
234263.0 458432.0 0
238196.0 458431.0 0
242131.0 458431.0 0
246065.0 458429.0 0
250000.0 458434.0 0
253935.0 458429.0 0
257869.0 458431.0 0
261804.0 458431.0 0
265737.0 458432.0 0
269669.0 458432.0 0
273599.0 458434.0 0
277527.0 458431.0 0
281453.0 458465.0 0
285375.0 458353.0 0
289270.0 458801.0 0
293164.0 458187.0 0
296974.0 459194.0 0
300814.0 458249.0 0
308443.0 458241.0 0
316013.0 458234.0 0
323427.0 458784.0 0
336889.0 457185.0 0
340837.0 457427.0 0
344778.0 457661.0 0
348730.0 457889.0 0
352691.0 458103.0 0
356653.0 458309.0 0
360613.0 458520.0 0
364565.0 458766.0 0
368484.0 459229.0 0
372949.0 459300.0 0
378671.0 457949.0 0
382630.0 458387.0 0
388795.0 457965.0 0
395683.0 458359.0 0
402901.0 458792.0 0
97741.2 462697.0 0
101094.0 460601.0 0
106105.0 461816.0 0
110030.0 461536.0 0
114126.0 460721.0 0
119614.0 461513.0 0
123558.0 461124.0 0
137620.0 461995.0 0
141557.0 461769.0 0
145505.0 461568.0 0
149456.0 461370.0 0
153404.0 461166.0 0
157341.0 460949.0 0
161271.0 460719.0 0
165177.0 460498.0 0
169032.0 460222.0 0
172847.0 459771.0 0
180335.0 459521.0 0
187752.0 459321.0 0
195369.0 459284.0 0
304631.0 459284.0 0
312248.0 459321.0 0
319665.0 459521.0 0
327153.0 459771.0 0
330968.0 460222.0 0
334823.0 460498.0 0
338729.0 460719.0 0
342659.0 460949.0 0
346596.0 461166.0 0
350544.0 461370.0 0
354495.0 461568.0 0
358443.0 461769.0 0
362380.0 461995.0 0
376442.0 461124.0 0
380386.0 461513.0 0
385874.0 460721.0 0
389970.0 461536.0 0
393895.0 461816.0 0
398906.0 460601.0 0
402259.0 462697.0 0
102904.0 464131.0 0
112654.0 464442.0 0
116605.0 464087.0 0
121806.0 464699.0 0
125773.0 464331.0 0
129283.0 462492.0 0
133706.0 462292.0 0
151604.0 464668.0 0
155548.0 464474.0 0
159488.0 464256.0 0
163423.0 464038.0 0
167365.0 463816.0 0
171310.0 463441.0 0
175224.0 462900.0 0
179126.0 463303.0 0
182977.0 462447.0 0
186820.0 463220.0 0
190589.0 462090.0 0
194377.0 463141.0 0
198190.0 462106.0 0
202043.0 463022.0 0
205969.0 462358.0 0
209942.0 462664.0 0
214000.0 462430.0 0
218000.0 462430.0 0
222000.0 462430.0 0
226000.0 462430.0 0
230000.0 462430.0 0
234000.0 462430.0 0
238000.0 462430.0 0
242000.0 462430.0 0
246000.0 462430.0 0
250000.0 462433.0 0
254000.0 462430.0 0
258000.0 462430.0 0
262000.0 462430.0 0
266000.0 462430.0 0
270000.0 462430.0 0
274000.0 462430.0 0
278000.0 462430.0 0
282000.0 462430.0 0
286000.0 462430.0 0
290058.0 462664.0 0
294031.0 462358.0 0
297957.0 463022.0 0
301810.0 462106.0 0
305623.0 463141.0 0
309411.0 462090.0 0
313180.0 463220.0 0
317023.0 462447.0 0
320874.0 463303.0 0
324776.0 462900.0 0
328690.0 463441.0 0
332635.0 463816.0 0
336577.0 464038.0 0
340512.0 464256.0 0
344452.0 464474.0 0
348396.0 464668.0 0
366294.0 462292.0 0
370717.0 462492.0 0
374227.0 464331.0 0
378194.0 464699.0 0
383395.0 464087.0 0
387346.0 464442.0 0
397096.0 464131.0 0
97873.2 466657.0 0
108393.0 465030.0 0
131658.0 465582.0 0
135847.0 465492.0 0
139787.0 465250.0 0
143721.0 465045.0 0
147661.0 464855.0 0
175308.0 466869.0 0
183203.0 466431.0 0
190972.0 466060.0 0
194836.0 467078.0 0
198702.0 466111.0 0
202602.0 466935.0 0
206520.0 466318.0 0
210477.0 466587.0 0
214428.0 466420.0 0
218381.0 466437.0 0
222334.0 466434.0 0
226287.0 466433.0 0
230239.0 466432.0 0
234191.0 466432.0 0
238143.0 466431.0 0
242095.0 466431.0 0
246048.0 466430.0 0
250000.0 466432.0 0
253952.0 466430.0 0
257905.0 466431.0 0
261857.0 466431.0 0
265809.0 466432.0 0
269761.0 466432.0 0
273713.0 466433.0 0
277666.0 466434.0 0
281619.0 466437.0 0
285572.0 466420.0 0
289523.0 466587.0 0
293480.0 466318.0 0
297398.0 466935.0 0
301298.0 466111.0 0
305164.0 467078.0 0
309028.0 466060.0 0
316797.0 466431.0 0
324692.0 466869.0 0
352339.0 464855.0 0
356279.0 465045.0 0
360213.0 465250.0 0
364153.0 465492.0 0
368342.0 465582.0 0
391607.0 465030.0 0
402127.0 466657.0 0
101661.0 467889.0 0
105626.0 467767.0 0
110907.0 468026.0 0
114885.0 467704.0 0
118856.0 467378.0 0
124010.0 467904.0 0
127962.0 467586.0 0
131422.0 469412.0 0
135325.0 469281.0 0
139271.0 469076.0 0
143245.0 468890.0 0
147232.0 468722.0 0
151222.0 468557.0 0
155210.0 468386.0 0
159195.0 468183.0 0
163197.0 467971.0 0
167310.0 467777.0 0
171282.0 467386.0 0
179278.0 467259.0 0
187138.0 467181.0 0
312862.0 467181.0 0
320722.0 467259.0 0
328718.0 467386.0 0
332690.0 467777.0 0
336803.0 467971.0 0
340805.0 468183.0 0
344790.0 468386.0 0
348778.0 468557.0 0
352768.0 468722.0 0
356755.0 468890.0 0
360729.0 469076.0 0
364675.0 469281.0 0
368578.0 469412.0 0
372038.0 467586.0 0
375990.0 467904.0 0
381144.0 467378.0 0
385115.0 467704.0 0
389093.0 468026.0 0
394374.0 467767.0 0
398339.0 467889.0 0
100026.0 471506.0 0
104183.0 471422.0 0
108449.0 471175.0 0
113087.0 471291.0 0
117060.0 471019.0 0
121024.0 470719.0 0
124864.0 471717.0 0
128763.0 472238.0 0
141404.0 472370.0 0
145387.0 472201.0 0
149375.0 472047.0 0
153367.0 471893.0 0
157369.0 471717.0 0
161375.0 471507.0 0
165407.0 471275.0 0
169644.0 471019.0 0
173719.0 470519.0 0
177696.0 470921.0 0
181687.0 470416.0 0
185649.0 470875.0 0
189611.0 470390.0 0
193578.0 470848.0 0
197707.0 470404.0 0
201681.0 470783.0 0
205971.0 470418.0 0
209967.0 470522.0 0
214000.0 470430.0 0
218000.0 470430.0 0
222000.0 470430.0 0
226000.0 470430.0 0
230000.0 470430.0 0
234000.0 470430.0 0
238000.0 470430.0 0
242000.0 470430.0 0
246000.0 470430.0 0
250000.0 470432.0 0
254000.0 470430.0 0
258000.0 470430.0 0
262000.0 470430.0 0
266000.0 470430.0 0
270000.0 470430.0 0
274000.0 470430.0 0
278000.0 470430.0 0
282000.0 470430.0 0
286000.0 470430.0 0
290033.0 470522.0 0
294029.0 470418.0 0
298319.0 470783.0 0
302293.0 470404.0 0
306422.0 470848.0 0
310389.0 470390.0 0
314351.0 470875.0 0
318313.0 470416.0 0
322304.0 470921.0 0
326281.0 470519.0 0
330356.0 471019.0 0
334593.0 471275.0 0
338625.0 471507.0 0
342631.0 471717.0 0
346633.0 471893.0 0
350625.0 472047.0 0
354613.0 472201.0 0
358596.0 472370.0 0
371237.0 472238.0 0
375136.0 471717.0 0
378976.0 470719.0 0
382940.0 471019.0 0
386913.0 471291.0 0
391551.0 471175.0 0
395817.0 471422.0 0
399974.0 471506.0 0
118402.0 474768.0 0
133445.0 472735.0 0
137426.0 472560.0 0
167245.0 474805.0 0
171157.0 474746.0 0
175045.0 474263.0 0
182820.0 474234.0 0
190623.0 474258.0 0
198463.0 474331.0 0
202399.0 474683.0 0
206336.0 474400.0 0
210289.0 474488.0 0
214244.0 474432.0 0
218205.0 474433.0 0
222170.0 474432.0 0
226138.0 474432.0 0
230110.0 474431.0 0
234085.0 474431.0 0
238062.0 474431.0 0
242040.0 474431.0 0
246020.0 474430.0 0
250000.0 474432.0 0
253980.0 474430.0 0
257960.0 474431.0 0
261938.0 474431.0 0
265915.0 474431.0 0
269890.0 474431.0 0
273862.0 474432.0 0
277830.0 474432.0 0
281795.0 474433.0 0
285756.0 474432.0 0
289711.0 474488.0 0
293664.0 474400.0 0
297601.0 474683.0 0
301537.0 474331.0 0
309377.0 474258.0 0
317180.0 474234.0 0
324955.0 474263.0 0
328843.0 474746.0 0
332755.0 474805.0 0
362574.0 472560.0 0
366555.0 472735.0 0
381598.0 474768.0 0
102207.0 474850.0 0
106306.0 474802.0 0
110302.0 474722.0 0
114429.0 475003.0 0
122378.0 474790.0 0
126380.0 475382.0 0
130794.0 475648.0 0
135529.0 476035.0 0
139528.0 475851.0 0
143515.0 475686.0 0
147498.0 475536.0 0
151482.0 475397.0 0
155452.0 475264.0 0
159404.0 475124.0 0
163330.0 474973.0 0
178932.0 474748.0 0
186718.0 474722.0 0
194539.0 474714.0 0
305461.0 474714.0 0
313282.0 474722.0 0
321068.0 474748.0 0
336670.0 474973.0 0
340596.0 475124.0 0
344548.0 475264.0 0
348518.0 475397.0 0
352502.0 475536.0 0
356485.0 475686.0 0
360472.0 475851.0 0
364471.0 476035.0 0
369206.0 475648.0 0
373620.0 475382.0 0
377622.0 474790.0 0
385571.0 475003.0 0
389698.0 474722.0 0
393694.0 474802.0 0
397793.0 474850.0 0
101358.0 478727.0 0
105355.0 478695.0 0
109336.0 478667.0 0
113301.0 478803.0 0
117267.0 478600.0 0
121225.0 478592.0 0
125138.0 479128.0 0
129105.0 479214.0 0
133100.0 479184.0 0
137635.0 479330.0 0
141625.0 479170.0 0
145611.0 479028.0 0
149594.0 478893.0 0
153579.0 478777.0 0
157566.0 478652.0 0
161710.0 478621.0 0
165780.0 478518.0 0
169921.0 478547.0 0
173919.0 478422.0 0
177912.0 478602.0 0
181918.0 478423.0 0
185911.0 478622.0 0
189927.0 478425.0 0
193919.0 478641.0 0
197948.0 478427.0 0
201941.0 478621.0 0
205996.0 478429.0 0
209995.0 478461.0 0
214000.0 478430.0 0
218000.0 478430.0 0
222000.0 478430.0 0
226000.0 478430.0 0
230000.0 478430.0 0
234000.0 478430.0 0
238000.0 478430.0 0
242000.0 478430.0 0
246000.0 478430.0 0
250000.0 478431.0 0
254000.0 478430.0 0
258000.0 478430.0 0
262000.0 478430.0 0
266000.0 478430.0 0
270000.0 478430.0 0
274000.0 478430.0 0
278000.0 478430.0 0
282000.0 478430.0 0
286000.0 478430.0 0
290005.0 478461.0 0
294004.0 478429.0 0
298059.0 478621.0 0
302052.0 478427.0 0
306081.0 478641.0 0
310073.0 478425.0 0
314089.0 478622.0 0
318082.0 478423.0 0
322088.0 478602.0 0
326081.0 478422.0 0
330079.0 478547.0 0
334220.0 478518.0 0
338290.0 478621.0 0
342434.0 478652.0 0
346421.0 478777.0 0
350406.0 478893.0 0
354389.0 479028.0 0
358375.0 479170.0 0
362365.0 479330.0 0
366900.0 479184.0 0
370895.0 479214.0 0
374862.0 479128.0 0
378775.0 478592.0 0
382733.0 478600.0 0
386699.0 478803.0 0
390664.0 478667.0 0
394645.0 478695.0 0
398642.0 478727.0 0
102038.0 482650.0 0
106035.0 482640.0 0
110034.0 482621.0 0
114075.0 482697.0 0
118068.0 482546.0 0
122066.0 482589.0 0
126458.0 482864.0 0
130454.0 482942.0 0
134451.0 482943.0 0
138489.0 483145.0 0
142467.0 483004.0 0
146431.0 482883.0 0
150389.0 482762.0 0
154343.0 482676.0 0
158299.0 482567.0 0
162259.0 482577.0 0
166223.0 482487.0 0
170193.0 482535.0 0
174167.0 482414.0 0
178142.0 482582.0 0
182120.0 482418.0 0
186101.0 482601.0 0
190084.0 482421.0 0
194069.0 482616.0 0
198054.0 482425.0 0
202043.0 482588.0 0
206033.0 482429.0 0
210027.0 482450.0 0
214021.0 482430.0 0
218017.0 482430.0 0
222014.0 482430.0 0
226011.0 482430.0 0
230008.0 482430.0 0
234006.0 482430.0 0
238004.0 482430.0 0
242003.0 482430.0 0
246001.0 482430.0 0
250000.0 482431.0 0
253999.0 482430.0 0
257997.0 482430.0 0
261996.0 482430.0 0
265994.0 482430.0 0
269992.0 482430.0 0
273989.0 482430.0 0
277986.0 482430.0 0
281983.0 482430.0 0
285979.0 482430.0 0
289973.0 482450.0 0
293967.0 482429.0 0
297957.0 482588.0 0
301946.0 482425.0 0
305931.0 482616.0 0
309916.0 482421.0 0
313899.0 482601.0 0
317880.0 482418.0 0
321858.0 482582.0 0
325833.0 482414.0 0
329807.0 482535.0 0
333777.0 482487.0 0
337741.0 482577.0 0
341701.0 482567.0 0
345657.0 482676.0 0
349611.0 482762.0 0
353569.0 482883.0 0
357533.0 483004.0 0
361511.0 483145.0 0
365549.0 482943.0 0
369546.0 482942.0 0
373542.0 482864.0 0
377934.0 482589.0 0
381932.0 482546.0 0
385925.0 482697.0 0
389966.0 482621.0 0
393965.0 482640.0 0
397962.0 482650.0 0
101933.0 486637.0 0
105931.0 486638.0 0
109926.0 486619.0 0
113918.0 486669.0 0
117907.0 486542.0 0
121895.0 486585.0 0
125873.0 486784.0 0
129859.0 486867.0 0
133846.0 486888.0 0
137827.0 487015.0 0
141817.0 486889.0 0
145815.0 486789.0 0
149858.0 486689.0 0
153931.0 486632.0 0
157956.0 486538.0 0
161974.0 486560.0 0
165985.0 486474.0 0
169992.0 486526.0 0
173994.0 486430.0 0
177991.0 486566.0 0
181995.0 486430.0 0
185992.0 486583.0 0
189997.0 486430.0 0
193994.0 486593.0 0
197999.0 486430.0 0
201996.0 486559.0 0
206000.0 486430.0 0
210000.0 486443.0 0
214000.0 486430.0 0
218000.0 486430.0 0
222000.0 486430.0 0
226000.0 486430.0 0
230000.0 486430.0 0
234000.0 486430.0 0
238000.0 486430.0 0
242000.0 486430.0 0
246000.0 486430.0 0
250000.0 486431.0 0
254000.0 486430.0 0
258000.0 486430.0 0
262000.0 486430.0 0
266000.0 486430.0 0
270000.0 486430.0 0
274000.0 486430.0 0
278000.0 486430.0 0
282000.0 486430.0 0
286000.0 486430.0 0
290000.0 486443.0 0
294000.0 486430.0 0
298004.0 486559.0 0
302001.0 486430.0 0
306006.0 486593.0 0
310003.0 486430.0 0
314008.0 486583.0 0
318005.0 486430.0 0
322009.0 486566.0 0
326006.0 486430.0 0
330008.0 486526.0 0
334015.0 486474.0 0
338026.0 486560.0 0
342044.0 486538.0 0
346069.0 486632.0 0
350142.0 486689.0 0
354185.0 486789.0 0
358183.0 486889.0 0
362173.0 487015.0 0
366154.0 486888.0 0
370141.0 486867.0 0
374127.0 486784.0 0
378105.0 486585.0 0
382093.0 486542.0 0
386082.0 486669.0 0
390074.0 486619.0 0
394069.0 486638.0 0
398067.0 486637.0 0
102003.0 490629.0 0
106003.0 490634.0 0
110003.0 490616.0 0
114006.0 490645.0 0
118004.0 490540.0 0
122004.0 490584.0 0
126026.0 490745.0 0
130045.0 490835.0 0
134046.0 490868.0 0
138051.0 490946.0 0
142047.0 490830.0 0
146042.0 490744.0 0
150036.0 490653.0 0
154031.0 490612.0 0
158026.0 490526.0 0
162022.0 490551.0 0
166018.0 490467.0 0
170016.0 490522.0 0
174013.0 490430.0 0
178010.0 490554.0 0
182007.0 490430.0 0
186004.0 490568.0 0
190001.0 490430.0 0
194001.0 490573.0 0
198000.0 490430.0 0
202000.0 490535.0 0
206000.0 490430.0 0
210000.0 490438.0 0
214000.0 490430.0 0
218000.0 490430.0 0
222000.0 490430.0 0
226000.0 490430.0 0
230000.0 490430.0 0
234000.0 490430.0 0
238000.0 490430.0 0
242000.0 490430.0 0
246000.0 490430.0 0
250000.0 490431.0 0
254000.0 490430.0 0
258000.0 490430.0 0
262000.0 490430.0 0
266000.0 490430.0 0
270000.0 490430.0 0
274000.0 490430.0 0
278000.0 490430.0 0
282000.0 490430.0 0
286000.0 490430.0 0
290000.0 490438.0 0
294000.0 490430.0 0
298000.0 490535.0 0
302000.0 490430.0 0
305999.0 490573.0 0
309999.0 490430.0 0
313996.0 490568.0 0
317993.0 490430.0 0
321990.0 490554.0 0
325987.0 490430.0 0
329984.0 490522.0 0
333982.0 490467.0 0
337978.0 490551.0 0
341974.0 490526.0 0
345969.0 490612.0 0
349964.0 490653.0 0
353958.0 490744.0 0
357953.0 490830.0 0
361949.0 490946.0 0
365954.0 490868.0 0
369955.0 490835.0 0
373974.0 490745.0 0
377996.0 490584.0 0
381996.0 490540.0 0
385994.0 490645.0 0
389997.0 490616.0 0
393997.0 490634.0 0
397997.0 490629.0 0
101996.0 494624.0 0
105996.0 494631.0 0
109996.0 494613.0 0
113996.0 494625.0 0
117994.0 494539.0 0
121993.0 494583.0 0
125990.0 494710.0 0
129988.0 494808.0 0
133987.0 494848.0 0
137985.0 494892.0 0
141984.0 494785.0 0
145990.0 494710.0 0
149993.0 494625.0 0
153996.0 494595.0 0
157998.0 494516.0 0
161999.0 494543.0 0
165999.0 494461.0 0
170000.0 494517.0 0
174000.0 494430.0 0
178000.0 494542.0 0
182000.0 494430.0 0
186000.0 494554.0 0
190000.0 494430.0 0
194000.0 494554.0 0
198000.0 494430.0 0
202000.0 494514.0 0
206000.0 494430.0 0
210000.0 494435.0 0
214000.0 494430.0 0
218000.0 494430.0 0
222000.0 494430.0 0
226000.0 494430.0 0
230000.0 494430.0 0
234000.0 494430.0 0
238000.0 494430.0 0
242000.0 494430.0 0
246000.0 494430.0 0
250000.0 494431.0 0
254000.0 494430.0 0
258000.0 494430.0 0
262000.0 494430.0 0
266000.0 494430.0 0
270000.0 494430.0 0
274000.0 494430.0 0
278000.0 494430.0 0
282000.0 494430.0 0
286000.0 494430.0 0
290000.0 494435.0 0
294000.0 494430.0 0
298000.0 494514.0 0
302000.0 494430.0 0
306000.0 494554.0 0
310000.0 494430.0 0
314000.0 494554.0 0
318000.0 494430.0 0
322000.0 494542.0 0
326000.0 494430.0 0
330000.0 494517.0 0
334001.0 494461.0 0
338001.0 494543.0 0
342002.0 494516.0 0
346004.0 494595.0 0
350007.0 494625.0 0
354010.0 494710.0 0
358016.0 494785.0 0
362015.0 494892.0 0
366013.0 494848.0 0
370012.0 494808.0 0
374010.0 494710.0 0
378007.0 494583.0 0
382006.0 494539.0 0
386004.0 494625.0 0
390004.0 494613.0 0
394004.0 494631.0 0
398004.0 494624.0 0
102000.0 498620.0 0
106000.0 498626.0 0
110000.0 498609.0 0
114000.0 498608.0 0
118000.0 498537.0 0
122000.0 498581.0 0
126001.0 498680.0 0
130004.0 498783.0 0
134006.0 498825.0 0
138006.0 498846.0 0
142004.0 498745.0 0
146003.0 498680.0 0
150002.0 498600.0 0
154002.0 498580.0 0
158001.0 498507.0 0
162001.0 498534.0 0
166000.0 498455.0 0
170000.0 498513.0 0
174000.0 498430.0 0
178000.0 498531.0 0
182000.0 498430.0 0
186000.0 498540.0 0
190000.0 498430.0 0
194000.0 498538.0 0
198000.0 498430.0 0
202000.0 498497.0 0
206000.0 498430.0 0
210000.0 498433.0 0
214000.0 498430.0 0
218000.0 498430.0 0
222000.0 498430.0 0
226000.0 498430.0 0
230000.0 498430.0 0
234000.0 498430.0 0
238000.0 498430.0 0
242000.0 498430.0 0
246000.0 498430.0 0
250000.0 498431.0 0
254000.0 498430.0 0
258000.0 498430.0 0
262000.0 498430.0 0
266000.0 498430.0 0
270000.0 498430.0 0
274000.0 498430.0 0
278000.0 498430.0 0
282000.0 498430.0 0
286000.0 498430.0 0
290000.0 498433.0 0
294000.0 498430.0 0
298000.0 498497.0 0
302000.0 498430.0 0
306000.0 498538.0 0
310000.0 498430.0 0
314000.0 498540.0 0
318000.0 498430.0 0
322000.0 498531.0 0
326000.0 498430.0 0
330000.0 498513.0 0
334000.0 498455.0 0
337999.0 498534.0 0
341999.0 498507.0 0
345998.0 498580.0 0
349998.0 498600.0 0
353997.0 498680.0 0
357996.0 498745.0 0
361994.0 498846.0 0
365994.0 498825.0 0
369996.0 498783.0 0
373999.0 498680.0 0
378000.0 498581.0 0
382000.0 498537.0 0
386000.0 498608.0 0
390000.0 498609.0 0
394000.0 498626.0 0
398000.0 498620.0 0
102000.0 502614.0 0
106000.0 502621.0 0
110000.0 502605.0 0
114000.0 502592.0 0
118000.0 502534.0 0
122000.0 502579.0 0
126000.0 502655.0 0
129998.0 502760.0 0
133998.0 502800.0 0
137998.0 502805.0 0
141999.0 502710.0 0
146000.0 502654.0 0
150000.0 502578.0 0
154000.0 502566.0 0
158000.0 502498.0 0
162000.0 502526.0 0
166000.0 502450.0 0
170000.0 502508.0 0
174000.0 502430.0 0
178000.0 502521.0 0
182000.0 502430.0 0
186000.0 502528.0 0
190000.0 502430.0 0
194000.0 502523.0 0
198000.0 502430.0 0
202000.0 502483.0 0
206000.0 502430.0 0
210000.0 502432.0 0
214000.0 502430.0 0
218000.0 502430.0 0
222000.0 502430.0 0
226000.0 502430.0 0
230000.0 502430.0 0
234000.0 502430.0 0
238000.0 502430.0 0
242000.0 502430.0 0
246000.0 502430.0 0
250000.0 502431.0 0
254000.0 502430.0 0
258000.0 502430.0 0
262000.0 502430.0 0
266000.0 502430.0 0
270000.0 502430.0 0
274000.0 502430.0 0
278000.0 502430.0 0
282000.0 502430.0 0
286000.0 502430.0 0
290000.0 502432.0 0
294000.0 502430.0 0
298000.0 502483.0 0
302000.0 502430.0 0
306000.0 502523.0 0
310000.0 502430.0 0
314000.0 502528.0 0
318000.0 502430.0 0
322000.0 502521.0 0
326000.0 502430.0 0
330000.0 502508.0 0
334000.0 502450.0 0
338000.0 502526.0 0
342000.0 502498.0 0
346000.0 502566.0 0
350000.0 502578.0 0
354000.0 502654.0 0
358001.0 502710.0 0
362002.0 502805.0 0
366002.0 502800.0 0
370002.0 502760.0 0
374000.0 502655.0 0
378000.0 502579.0 0
382000.0 502534.0 0
386000.0 502592.0 0
390000.0 502605.0 0
394000.0 502621.0 0
398000.0 502614.0 0
102000.0 506609.0 0
106000.0 506614.0 0
110000.0 506599.0 0
114000.0 506579.0 0
118000.0 506531.0 0
122000.0 506576.0 0
126000.0 506634.0 0
130000.0 506738.0 0
134001.0 506774.0 0
138001.0 506770.0 0
142000.0 506680.0 0
146000.0 506632.0 0
150000.0 506559.0 0
154000.0 506554.0 0
158000.0 506490.0 0
162000.0 506518.0 0
166000.0 506445.0 0
170000.0 506503.0 0
174000.0 506430.0 0
178000.0 506512.0 0
182000.0 506430.0 0
186000.0 506516.0 0
190000.0 506430.0 0
194000.0 506510.0 0
198000.0 506430.0 0
202000.0 506472.0 0
206000.0 506430.0 0
210000.0 506431.0 0
214000.0 506430.0 0
218000.0 506430.0 0
222000.0 506430.0 0
226000.0 506430.0 0
230000.0 506430.0 0
234000.0 506430.0 0
238000.0 506430.0 0
242000.0 506430.0 0
246000.0 506430.0 0
250000.0 506431.0 0
254000.0 506430.0 0
258000.0 506430.0 0
262000.0 506430.0 0
266000.0 506430.0 0
270000.0 506430.0 0
274000.0 506430.0 0
278000.0 506430.0 0
282000.0 506430.0 0
286000.0 506430.0 0
290000.0 506431.0 0
294000.0 506430.0 0
298000.0 506472.0 0
302000.0 506430.0 0
306000.0 506510.0 0
310000.0 506430.0 0
314000.0 506516.0 0
318000.0 506430.0 0
322000.0 506512.0 0
326000.0 506430.0 0
330000.0 506503.0 0
334000.0 506445.0 0
338000.0 506518.0 0
342000.0 506490.0 0
346000.0 506554.0 0
350000.0 506559.0 0
354000.0 506632.0 0
358000.0 506680.0 0
361999.0 506770.0 0
365999.0 506774.0 0
370000.0 506738.0 0
374000.0 506634.0 0
378000.0 506576.0 0
382000.0 506531.0 0
386000.0 506579.0 0
390000.0 506599.0 0
394000.0 506614.0 0
398000.0 506609.0 0
102000.0 510603.0 0
106000.0 510608.0 0
110000.0 510593.0 0
114000.0 510567.0 0
118000.0 510528.0 0
122000.0 510573.0 0
126000.0 510617.0 0
130000.0 510718.0 0
134000.0 510748.0 0
138000.0 510739.0 0
142000.0 510653.0 0
146000.0 510612.0 0
150000.0 510543.0 0
154000.0 510543.0 0
158000.0 510482.0 0
162000.0 510511.0 0
166000.0 510442.0 0
170000.0 510498.0 0
174000.0 510430.0 0
178000.0 510503.0 0
182000.0 510430.0 0
186000.0 510505.0 0
190000.0 510430.0 0
194000.0 510498.0 0
198000.0 510430.0 0
202000.0 510463.0 0
206000.0 510430.0 0
210000.0 510431.0 0
214000.0 510430.0 0
218000.0 510430.0 0
222000.0 510430.0 0
226000.0 510430.0 0
230000.0 510430.0 0
234000.0 510430.0 0
238000.0 510430.0 0
242000.0 510430.0 0
246000.0 510430.0 0
250000.0 510431.0 0
254000.0 510430.0 0
258000.0 510430.0 0
262000.0 510430.0 0
266000.0 510430.0 0
270000.0 510430.0 0
274000.0 510430.0 0
278000.0 510430.0 0
282000.0 510430.0 0
286000.0 510430.0 0
290000.0 510431.0 0
294000.0 510430.0 0
298000.0 510463.0 0
302000.0 510430.0 0
306000.0 510498.0 0
310000.0 510430.0 0
314000.0 510505.0 0
318000.0 510430.0 0
322000.0 510503.0 0
326000.0 510430.0 0
330000.0 510498.0 0
334000.0 510442.0 0
338000.0 510511.0 0
342000.0 510482.0 0
346000.0 510543.0 0
350000.0 510543.0 0
354000.0 510612.0 0
358000.0 510653.0 0
362000.0 510739.0 0
366000.0 510748.0 0
370000.0 510718.0 0
374000.0 510617.0 0
378000.0 510573.0 0
382000.0 510528.0 0
386000.0 510567.0 0
390000.0 510593.0 0
394000.0 510608.0 0
398000.0 510603.0 0
102000.0 514596.0 0
106000.0 514601.0 0
110000.0 514587.0 0
114000.0 514557.0 0
118000.0 514524.0 0
122000.0 514569.0 0
126000.0 514603.0 0
130000.0 514699.0 0
134000.0 514722.0 0
138000.0 514711.0 0
142000.0 514629.0 0
146000.0 514594.0 0
150000.0 514528.0 0
154000.0 514533.0 0
158000.0 514475.0 0
162000.0 514504.0 0
166000.0 514439.0 0
170000.0 514493.0 0
174000.0 514430.0 0
178000.0 514495.0 0
182000.0 514430.0 0
186000.0 514496.0 0
190000.0 514430.0 0
194000.0 514488.0 0
198000.0 514430.0 0
202000.0 514456.0 0
206000.0 514430.0 0
210000.0 514431.0 0
214000.0 514430.0 0
218000.0 514430.0 0
222000.0 514430.0 0
226000.0 514430.0 0
230000.0 514430.0 0
234000.0 514430.0 0
238000.0 514430.0 0
242000.0 514430.0 0
246000.0 514430.0 0
250000.0 514431.0 0
254000.0 514430.0 0
258000.0 514430.0 0
262000.0 514430.0 0
266000.0 514430.0 0
270000.0 514430.0 0
274000.0 514430.0 0
278000.0 514430.0 0
282000.0 514430.0 0
286000.0 514430.0 0
290000.0 514431.0 0
294000.0 514430.0 0
298000.0 514456.0 0
302000.0 514430.0 0
306000.0 514488.0 0
310000.0 514430.0 0
314000.0 514496.0 0
318000.0 514430.0 0
322000.0 514495.0 0
326000.0 514430.0 0
330000.0 514493.0 0
334000.0 514439.0 0
338000.0 514504.0 0
342000.0 514475.0 0
346000.0 514533.0 0
350000.0 514528.0 0
354000.0 514594.0 0
358000.0 514629.0 0
362000.0 514711.0 0
366000.0 514722.0 0
370000.0 514699.0 0
374000.0 514603.0 0
378000.0 514569.0 0
382000.0 514524.0 0
386000.0 514557.0 0
390000.0 514587.0 0
394000.0 514601.0 0
398000.0 514596.0 0
102000.0 518590.0 0
106000.0 518595.0 0
110000.0 518581.0 0
114000.0 518548.0 0
118000.0 518519.0 0
122000.0 518566.0 0
126000.0 518592.0 0
130000.0 518682.0 0
134000.0 518696.0 0
138000.0 518686.0 0
142000.0 518608.0 0
146000.0 518579.0 0
150000.0 518516.0 0
154000.0 518523.0 0
158000.0 518468.0 0
162000.0 518498.0 0
166000.0 518437.0 0
170000.0 518488.0 0
174000.0 518430.0 0
178000.0 518488.0 0
182000.0 518430.0 0
186000.0 518487.0 0
190000.0 518430.0 0
194000.0 518479.0 0
198000.0 518430.0 0
202000.0 518450.0 0
206000.0 518430.0 0
210000.0 518430.0 0
214000.0 518430.0 0
218000.0 518430.0 0
222000.0 518430.0 0
226000.0 518430.0 0
230000.0 518430.0 0
234000.0 518430.0 0
238000.0 518430.0 0
242000.0 518430.0 0
246000.0 518430.0 0
250000.0 518430.0 0
254000.0 518430.0 0
258000.0 518430.0 0
262000.0 518430.0 0
266000.0 518430.0 0
270000.0 518430.0 0
274000.0 518430.0 0
278000.0 518430.0 0
282000.0 518430.0 0
286000.0 518430.0 0
290000.0 518430.0 0
294000.0 518430.0 0
298000.0 518450.0 0
302000.0 518430.0 0
306000.0 518479.0 0
310000.0 518430.0 0
314000.0 518487.0 0
318000.0 518430.0 0
322000.0 518488.0 0
326000.0 518430.0 0
330000.0 518488.0 0
334000.0 518437.0 0
338000.0 518498.0 0
342000.0 518468.0 0
346000.0 518523.0 0
350000.0 518516.0 0
354000.0 518579.0 0
358000.0 518608.0 0
362000.0 518686.0 0
366000.0 518696.0 0
370000.0 518682.0 0
374000.0 518592.0 0
378000.0 518566.0 0
382000.0 518519.0 0
386000.0 518548.0 0
390000.0 518581.0 0
394000.0 518595.0 0
398000.0 518590.0 0
102000.0 522583.0 0
106000.0 522588.0 0
110000.0 522574.0 0
114000.0 522541.0 0
118000.0 522515.0 0
122000.0 522561.0 0
126000.0 522582.0 0
130000.0 522665.0 0
134000.0 522672.0 0
138000.0 522663.0 0
142000.0 522589.0 0
146000.0 522565.0 0
150000.0 522505.0 0
154000.0 522515.0 0
158000.0 522462.0 0
162000.0 522492.0 0
166000.0 522435.0 0
170000.0 522484.0 0
174000.0 522430.0 0
178000.0 522481.0 0
182000.0 522430.0 0
186000.0 522480.0 0
190000.0 522430.0 0
194000.0 522471.0 0
198000.0 522430.0 0
202000.0 522445.0 0
206000.0 522430.0 0
210000.0 522430.0 0
214000.0 522430.0 0
218000.0 522430.0 0
222000.0 522430.0 0
226000.0 522430.0 0
230000.0 522430.0 0
234000.0 522430.0 0
238000.0 522430.0 0
242000.0 522430.0 0
246000.0 522430.0 0
250000.0 522430.0 0
254000.0 522430.0 0
258000.0 522430.0 0
262000.0 522430.0 0
266000.0 522430.0 0
270000.0 522430.0 0
274000.0 522430.0 0
278000.0 522430.0 0
282000.0 522430.0 0
286000.0 522430.0 0
290000.0 522430.0 0
294000.0 522430.0 0
298000.0 522445.0 0
302000.0 522430.0 0
306000.0 522471.0 0
310000.0 522430.0 0
314000.0 522480.0 0
318000.0 522430.0 0
322000.0 522481.0 0
326000.0 522430.0 0
330000.0 522484.0 0
334000.0 522435.0 0
338000.0 522492.0 0
342000.0 522462.0 0
346000.0 522515.0 0
350000.0 522505.0 0
354000.0 522565.0 0
358000.0 522589.0 0
362000.0 522663.0 0
366000.0 522672.0 0
370000.0 522665.0 0
374000.0 522582.0 0
378000.0 522561.0 0
382000.0 522515.0 0
386000.0 522541.0 0
390000.0 522574.0 0
394000.0 522588.0 0
398000.0 522583.0 0
102000.0 526577.0 0
106000.0 526581.0 0
110000.0 526567.0 0
114000.0 526534.0 0
118000.0 526511.0 0
122000.0 526557.0 0
126000.0 526573.0 0
130000.0 526650.0 0
134000.0 526649.0 0
138000.0 526642.0 0
142000.0 526572.0 0
146000.0 526552.0 0
150000.0 526495.0 0
154000.0 526507.0 0
158000.0 526456.0 0
162000.0 526487.0 0
166000.0 526434.0 0
170000.0 526479.0 0
174000.0 526430.0 0
178000.0 526475.0 0
182000.0 526430.0 0
186000.0 526473.0 0
190000.0 526430.0 0
194000.0 526465.0 0
198000.0 526430.0 0
202000.0 526442.0 0
206000.0 526430.0 0
210000.0 526430.0 0
214000.0 526430.0 0
218000.0 526430.0 0
222000.0 526430.0 0
226000.0 526430.0 0
230000.0 526430.0 0
234000.0 526430.0 0
238000.0 526430.0 0
242000.0 526430.0 0
246000.0 526430.0 0
250000.0 526430.0 0
254000.0 526430.0 0
258000.0 526430.0 0
262000.0 526430.0 0
266000.0 526430.0 0
270000.0 526430.0 0
274000.0 526430.0 0
278000.0 526430.0 0
282000.0 526430.0 0
286000.0 526430.0 0
290000.0 526430.0 0
294000.0 526430.0 0
298000.0 526442.0 0
302000.0 526430.0 0
306000.0 526465.0 0
310000.0 526430.0 0
314000.0 526473.0 0
318000.0 526430.0 0
322000.0 526475.0 0
326000.0 526430.0 0
330000.0 526479.0 0
334000.0 526434.0 0
338000.0 526487.0 0
342000.0 526456.0 0
346000.0 526507.0 0
350000.0 526495.0 0
354000.0 526552.0 0
358000.0 526572.0 0
362000.0 526642.0 0
366000.0 526649.0 0
370000.0 526650.0 0
374000.0 526573.0 0
378000.0 526557.0 0
382000.0 526511.0 0
386000.0 526534.0 0
390000.0 526567.0 0
394000.0 526581.0 0
398000.0 526577.0 0
102000.0 530571.0 0
106000.0 530575.0 0
110000.0 530561.0 0
114000.0 530527.0 0
118000.0 530506.0 0
122000.0 530553.0 0
126000.0 530565.0 0
130000.0 530635.0 0
134000.0 530627.0 0
138000.0 530624.0 0
142000.0 530557.0 0
146000.0 530540.0 0
150000.0 530486.0 0
154000.0 530499.0 0
158000.0 530452.0 0
162000.0 530482.0 0
166000.0 530433.0 0
170000.0 530475.0 0
174000.0 530430.0 0
178000.0 530470.0 0
182000.0 530430.0 0
186000.0 530467.0 0
190000.0 530430.0 0
194000.0 530459.0 0
198000.0 530430.0 0
202000.0 530439.0 0
206000.0 530430.0 0
210000.0 530430.0 0
214000.0 530430.0 0
218000.0 530430.0 0
222000.0 530430.0 0
226000.0 530430.0 0
230000.0 530430.0 0
234000.0 530430.0 0
238000.0 530430.0 0
242000.0 530430.0 0
246000.0 530430.0 0
250000.0 530430.0 0
254000.0 530430.0 0
258000.0 530430.0 0
262000.0 530430.0 0
266000.0 530430.0 0
270000.0 530430.0 0
274000.0 530430.0 0
278000.0 530430.0 0
282000.0 530430.0 0
286000.0 530430.0 0
290000.0 530430.0 0
294000.0 530430.0 0
298000.0 530439.0 0
302000.0 530430.0 0
306000.0 530459.0 0
310000.0 530430.0 0
314000.0 530467.0 0
318000.0 530430.0 0
322000.0 530470.0 0
326000.0 530430.0 0
330000.0 530475.0 0
334000.0 530433.0 0
338000.0 530482.0 0
342000.0 530452.0 0
346000.0 530499.0 0
350000.0 530486.0 0
354000.0 530540.0 0
358000.0 530557.0 0
362000.0 530624.0 0
366000.0 530627.0 0
370000.0 530635.0 0
374000.0 530565.0 0
378000.0 530553.0 0
382000.0 530506.0 0
386000.0 530527.0 0
390000.0 530561.0 0
394000.0 530575.0 0
398000.0 530571.0 0
118000.0 534502.0 0
150000.0 534479.0 0
154000.0 534492.0 0
158000.0 534448.0 0
162000.0 534477.0 0
166000.0 534432.0 0
170000.0 534471.0 0
174000.0 534430.0 0
178000.0 534465.0 0
182000.0 534430.0 0
186000.0 534462.0 0
190000.0 534430.0 0
194000.0 534454.0 0
198000.0 534430.0 0
202000.0 534437.0 0
206000.0 534430.0 0
210000.0 534430.0 0
214000.0 534430.0 0
218000.0 534430.0 0
222000.0 534430.0 0
226000.0 534430.0 0
230000.0 534430.0 0
234000.0 534430.0 0
238000.0 534430.0 0
242000.0 534430.0 0
246000.0 534430.0 0
250000.0 534430.0 0
254000.0 534430.0 0
258000.0 534430.0 0
262000.0 534430.0 0
266000.0 534430.0 0
270000.0 534430.0 0
274000.0 534430.0 0
278000.0 534430.0 0
282000.0 534430.0 0
286000.0 534430.0 0
290000.0 534430.0 0
294000.0 534430.0 0
298000.0 534437.0 0
302000.0 534430.0 0
306000.0 534454.0 0
310000.0 534430.0 0
314000.0 534462.0 0
318000.0 534430.0 0
322000.0 534465.0 0
326000.0 534430.0 0
330000.0 534471.0 0
334000.0 534432.0 0
338000.0 534477.0 0
342000.0 534448.0 0
346000.0 534492.0 0
350000.0 534479.0 0
382000.0 534502.0 0
102000.0 534564.0 0
106000.0 534568.0 0
110000.0 534554.0 0
114000.0 534522.0 0
122000.0 534548.0 0
126000.0 534558.0 0
130000.0 534621.0 0
134000.0 534607.0 0
138000.0 534606.0 0
142000.0 534543.0 0
146000.0 534530.0 0
354000.0 534530.0 0
358000.0 534543.0 0
362000.0 534606.0 0
366000.0 534607.0 0
370000.0 534621.0 0
374000.0 534558.0 0
378000.0 534548.0 0
386000.0 534522.0 0
390000.0 534554.0 0
394000.0 534568.0 0
398000.0 534564.0 0
102000.0 538558.0 0
106000.0 538562.0 0
110000.0 538548.0 0
114000.0 538516.0 0
118000.0 538498.0 0
122000.0 538543.0 0
126000.0 538551.0 0
130000.0 538607.0 0
134000.0 538588.0 0
138000.0 538591.0 0
142000.0 538530.0 0
146000.0 538521.0 0
150000.0 538472.0 0
154000.0 538486.0 0
158000.0 538444.0 0
162000.0 538473.0 0
166000.0 538431.0 0
170000.0 538467.0 0
174000.0 538430.0 0
178000.0 538460.0 0
182000.0 538430.0 0
186000.0 538457.0 0
190000.0 538430.0 0
194000.0 538450.0 0
198000.0 538430.0 0
202000.0 538435.0 0
206000.0 538430.0 0
210000.0 538430.0 0
214000.0 538430.0 0
218000.0 538430.0 0
222000.0 538430.0 0
226000.0 538430.0 0
230000.0 538430.0 0
234000.0 538430.0 0
238000.0 538430.0 0
242000.0 538430.0 0
246000.0 538430.0 0
250000.0 538430.0 0
254000.0 538430.0 0
258000.0 538430.0 0
262000.0 538430.0 0
266000.0 538430.0 0
270000.0 538430.0 0
274000.0 538430.0 0
278000.0 538430.0 0
282000.0 538430.0 0
286000.0 538430.0 0
290000.0 538430.0 0
294000.0 538430.0 0
298000.0 538435.0 0
302000.0 538430.0 0
306000.0 538450.0 0
310000.0 538430.0 0
314000.0 538457.0 0
318000.0 538430.0 0
322000.0 538460.0 0
326000.0 538430.0 0
330000.0 538467.0 0
334000.0 538431.0 0
338000.0 538473.0 0
342000.0 538444.0 0
346000.0 538486.0 0
350000.0 538472.0 0
354000.0 538521.0 0
358000.0 538530.0 0
362000.0 538591.0 0
366000.0 538588.0 0
370000.0 538607.0 0
374000.0 538551.0 0
378000.0 538543.0 0
382000.0 538498.0 0
386000.0 538516.0 0
390000.0 538548.0 0
394000.0 538562.0 0
398000.0 538558.0 0
102000.0 542552.0 0
106000.0 542556.0 0
110000.0 542542.0 0
114000.0 542511.0 0
118000.0 542493.0 0
122000.0 542538.0 0
126000.0 542544.0 0
130000.0 542594.0 0
134000.0 542572.0 0
138000.0 542577.0 0
142000.0 542519.0 0
146000.0 542512.0 0
150000.0 542466.0 0
154000.0 542481.0 0
158000.0 542441.0 0
162000.0 542469.0 0
166000.0 542431.0 0
170000.0 542464.0 0
174000.0 542430.0 0
178000.0 542457.0 0
182000.0 542430.0 0
186000.0 542453.0 0
190000.0 542430.0 0
194000.0 542447.0 0
198000.0 542430.0 0
202000.0 542434.0 0
206000.0 542430.0 0
210000.0 542430.0 0
214000.0 542430.0 0
218000.0 542430.0 0
222000.0 542430.0 0
226000.0 542430.0 0
230000.0 542430.0 0
234000.0 542430.0 0
238000.0 542430.0 0
242000.0 542430.0 0
246000.0 542430.0 0
250000.0 542430.0 0
254000.0 542430.0 0
258000.0 542430.0 0
262000.0 542430.0 0
266000.0 542430.0 0
270000.0 542430.0 0
274000.0 542430.0 0
278000.0 542430.0 0
282000.0 542430.0 0
286000.0 542430.0 0
290000.0 542430.0 0
294000.0 542430.0 0
298000.0 542434.0 0
302000.0 542430.0 0
306000.0 542447.0 0
310000.0 542430.0 0
314000.0 542453.0 0
318000.0 542430.0 0
322000.0 542457.0 0
326000.0 542430.0 0
330000.0 542464.0 0
334000.0 542431.0 0
338000.0 542469.0 0
342000.0 542441.0 0
346000.0 542481.0 0
350000.0 542466.0 0
354000.0 542512.0 0
358000.0 542519.0 0
362000.0 542577.0 0
366000.0 542572.0 0
370000.0 542594.0 0
374000.0 542544.0 0
378000.0 542538.0 0
382000.0 542493.0 0
386000.0 542511.0 0
390000.0 542542.0 0
394000.0 542556.0 0
398000.0 542552.0 0
102000.0 546547.0 0
106000.0 546550.0 0
110000.0 546536.0 0
114000.0 546507.0 0
118000.0 546489.0 0
122000.0 546533.0 0
126000.0 546537.0 0
130000.0 546582.0 0
134000.0 546556.0 0
138000.0 546564.0 0
142000.0 546509.0 0
146000.0 546504.0 0
150000.0 546461.0 0
154000.0 546476.0 0
158000.0 546439.0 0
162000.0 546466.0 0
166000.0 546431.0 0
170000.0 546460.0 0
174000.0 546430.0 0
178000.0 546453.0 0
182000.0 546430.0 0
186000.0 546450.0 0
190000.0 546430.0 0
194000.0 546444.0 0
198000.0 546430.0 0
202000.0 546433.0 0
206000.0 546430.0 0
210000.0 546430.0 0
214000.0 546430.0 0
218000.0 546430.0 0
222000.0 546430.0 0
226000.0 546430.0 0
230000.0 546430.0 0
234000.0 546430.0 0
238000.0 546430.0 0
242000.0 546430.0 0
246000.0 546430.0 0
250000.0 546430.0 0
254000.0 546430.0 0
258000.0 546430.0 0
262000.0 546430.0 0
266000.0 546430.0 0
270000.0 546430.0 0
274000.0 546430.0 0
278000.0 546430.0 0
282000.0 546430.0 0
286000.0 546430.0 0
290000.0 546430.0 0
294000.0 546430.0 0
298000.0 546433.0 0
302000.0 546430.0 0
306000.0 546444.0 0
310000.0 546430.0 0
314000.0 546450.0 0
318000.0 546430.0 0
322000.0 546453.0 0
326000.0 546430.0 0
330000.0 546460.0 0
334000.0 546431.0 0
338000.0 546466.0 0
342000.0 546439.0 0
346000.0 546476.0 0
350000.0 546461.0 0
354000.0 546504.0 0
358000.0 546509.0 0
362000.0 546564.0 0
366000.0 546556.0 0
370000.0 546582.0 0
374000.0 546537.0 0
378000.0 546533.0 0
382000.0 546489.0 0
386000.0 546507.0 0
390000.0 546536.0 0
394000.0 546550.0 0
398000.0 546547.0 0
102000.0 550541.0 0
106000.0 550544.0 0
110000.0 550530.0 0
114000.0 550502.0 0
118000.0 550485.0 0
122000.0 550529.0 0
126000.0 550531.0 0
130000.0 550570.0 0
134000.0 550542.0 0
138000.0 550552.0 0
142000.0 550500.0 0
146000.0 550497.0 0
150000.0 550456.0 0
154000.0 550471.0 0
158000.0 550437.0 0
162000.0 550463.0 0
166000.0 550431.0 0
170000.0 550457.0 0
174000.0 550430.0 0
178000.0 550450.0 0
182000.0 550430.0 0
186000.0 550447.0 0
190000.0 550430.0 0
194000.0 550441.0 0
198000.0 550430.0 0
202000.0 550432.0 0
206000.0 550430.0 0
210000.0 550430.0 0
214000.0 550430.0 0
218000.0 550430.0 0
222000.0 550430.0 0
226000.0 550430.0 0
230000.0 550430.0 0
234000.0 550430.0 0
238000.0 550430.0 0
242000.0 550430.0 0
246000.0 550430.0 0
250000.0 550430.0 0
254000.0 550430.0 0
258000.0 550430.0 0
262000.0 550430.0 0
266000.0 550430.0 0
270000.0 550430.0 0
274000.0 550430.0 0
278000.0 550430.0 0
282000.0 550430.0 0
286000.0 550430.0 0
290000.0 550430.0 0
294000.0 550430.0 0
298000.0 550432.0 0
302000.0 550430.0 0
306000.0 550441.0 0
310000.0 550430.0 0
314000.0 550447.0 0
318000.0 550430.0 0
322000.0 550450.0 0
326000.0 550430.0 0
330000.0 550457.0 0
334000.0 550431.0 0
338000.0 550463.0 0
342000.0 550437.0 0
346000.0 550471.0 0
350000.0 550456.0 0
354000.0 550497.0 0
358000.0 550500.0 0
362000.0 550552.0 0
366000.0 550542.0 0
370000.0 550570.0 0
374000.0 550531.0 0
378000.0 550529.0 0
382000.0 550485.0 0
386000.0 550502.0 0
390000.0 550530.0 0
394000.0 550544.0 0
398000.0 550541.0 0
102000.0 554536.0 0
106000.0 554538.0 0
110000.0 554525.0 0
114000.0 554498.0 0
118000.0 554482.0 0
122000.0 554524.0 0
126000.0 554525.0 0
130000.0 554559.0 0
134000.0 554530.0 0
138000.0 554541.0 0
142000.0 554492.0 0
146000.0 554491.0 0
150000.0 554452.0 0
154000.0 554467.0 0
158000.0 554436.0 0
162000.0 554460.0 0
166000.0 554431.0 0
170000.0 554454.0 0
174000.0 554430.0 0
178000.0 554447.0 0
182000.0 554430.0 0
186000.0 554444.0 0
190000.0 554430.0 0
194000.0 554439.0 0
198000.0 554430.0 0
202000.0 554432.0 0
206000.0 554430.0 0
210000.0 554430.0 0
214000.0 554430.0 0
218000.0 554430.0 0
222000.0 554430.0 0
226000.0 554430.0 0
230000.0 554430.0 0
234000.0 554430.0 0
238000.0 554430.0 0
242000.0 554430.0 0
246000.0 554430.0 0
250000.0 554430.0 0
254000.0 554430.0 0
258000.0 554430.0 0
262000.0 554430.0 0
266000.0 554430.0 0
270000.0 554430.0 0
274000.0 554430.0 0
278000.0 554430.0 0
282000.0 554430.0 0
286000.0 554430.0 0
290000.0 554430.0 0
294000.0 554430.0 0
298000.0 554432.0 0
302000.0 554430.0 0
306000.0 554439.0 0
310000.0 554430.0 0
314000.0 554444.0 0
318000.0 554430.0 0
322000.0 554447.0 0
326000.0 554430.0 0
330000.0 554454.0 0
334000.0 554431.0 0
338000.0 554460.0 0
342000.0 554436.0 0
346000.0 554467.0 0
350000.0 554452.0 0
354000.0 554491.0 0
358000.0 554492.0 0
362000.0 554541.0 0
366000.0 554530.0 0
370000.0 554559.0 0
374000.0 554525.0 0
378000.0 554524.0 0
382000.0 554482.0 0
386000.0 554498.0 0
390000.0 554525.0 0
394000.0 554538.0 0
398000.0 554536.0 0
102000.0 558531.0 0
106000.0 558533.0 0
110000.0 558520.0 0
114000.0 558494.0 0
118000.0 558478.0 0
122000.0 558519.0 0
126000.0 558519.0 0
130000.0 558549.0 0
134000.0 558519.0 0
138000.0 558531.0 0
142000.0 558485.0 0
146000.0 558485.0 0
150000.0 558449.0 0
154000.0 558464.0 0
158000.0 558434.0 0
162000.0 558457.0 0
166000.0 558431.0 0
170000.0 558452.0 0
174000.0 558430.0 0
178000.0 558445.0 0
182000.0 558430.0 0
186000.0 558442.0 0
190000.0 558430.0 0
194000.0 558437.0 0
198000.0 558430.0 0
202000.0 558432.0 0
206000.0 558430.0 0
210000.0 558430.0 0
214000.0 558430.0 0
218000.0 558430.0 0
222000.0 558430.0 0
226000.0 558430.0 0
230000.0 558430.0 0
234000.0 558430.0 0
238000.0 558430.0 0
242000.0 558430.0 0
246000.0 558430.0 0
250000.0 558430.0 0
254000.0 558430.0 0
258000.0 558430.0 0
262000.0 558430.0 0
266000.0 558430.0 0
270000.0 558430.0 0
274000.0 558430.0 0
278000.0 558430.0 0
282000.0 558430.0 0
286000.0 558430.0 0
290000.0 558430.0 0
294000.0 558430.0 0
298000.0 558432.0 0
302000.0 558430.0 0
306000.0 558437.0 0
310000.0 558430.0 0
314000.0 558442.0 0
318000.0 558430.0 0
322000.0 558445.0 0
326000.0 558430.0 0
330000.0 558452.0 0
334000.0 558431.0 0
338000.0 558457.0 0
342000.0 558434.0 0
346000.0 558464.0 0
350000.0 558449.0 0
354000.0 558485.0 0
358000.0 558485.0 0
362000.0 558531.0 0
366000.0 558519.0 0
370000.0 558549.0 0
374000.0 558519.0 0
378000.0 558519.0 0
382000.0 558478.0 0
386000.0 558494.0 0
390000.0 558520.0 0
394000.0 558533.0 0
398000.0 558531.0 0
102000.0 562526.0 0
106000.0 562528.0 0
110000.0 562515.0 0
114000.0 562490.0 0
118000.0 562475.0 0
122000.0 562515.0 0
126000.0 562513.0 0
130000.0 562540.0 0
134000.0 562509.0 0
138000.0 562522.0 0
142000.0 562478.0 0
146000.0 562479.0 0
150000.0 562446.0 0
154000.0 562460.0 0
158000.0 562433.0 0
162000.0 562454.0 0
166000.0 562431.0 0
170000.0 562449.0 0
174000.0 562430.0 0
178000.0 562443.0 0
182000.0 562430.0 0
186000.0 562440.0 0
190000.0 562430.0 0
194000.0 562436.0 0
198000.0 562430.0 0
202000.0 562431.0 0
206000.0 562430.0 0
210000.0 562430.0 0
214000.0 562430.0 0
218000.0 562430.0 0
222000.0 562430.0 0
226000.0 562430.0 0
230000.0 562430.0 0
234000.0 562430.0 0
238000.0 562430.0 0
242000.0 562430.0 0
246000.0 562430.0 0
250000.0 562430.0 0
254000.0 562430.0 0
258000.0 562430.0 0
262000.0 562430.0 0
266000.0 562430.0 0
270000.0 562430.0 0
274000.0 562430.0 0
278000.0 562430.0 0
282000.0 562430.0 0
286000.0 562430.0 0
290000.0 562430.0 0
294000.0 562430.0 0
298000.0 562431.0 0
302000.0 562430.0 0
306000.0 562436.0 0
310000.0 562430.0 0
314000.0 562440.0 0
318000.0 562430.0 0
322000.0 562443.0 0
326000.0 562430.0 0
330000.0 562449.0 0
334000.0 562431.0 0
338000.0 562454.0 0
342000.0 562433.0 0
346000.0 562460.0 0
350000.0 562446.0 0
354000.0 562479.0 0
358000.0 562478.0 0
362000.0 562522.0 0
366000.0 562509.0 0
370000.0 562540.0 0
374000.0 562513.0 0
378000.0 562515.0 0
382000.0 562475.0 0
386000.0 562490.0 0
390000.0 562515.0 0
394000.0 562528.0 0
398000.0 562526.0 0
102000.0 566521.0 0
106000.0 566523.0 0
110000.0 566510.0 0
114000.0 566487.0 0
118000.0 566472.0 0
122000.0 566510.0 0
126000.0 566508.0 0
130000.0 566531.0 0
134000.0 566500.0 0
138000.0 566514.0 0
142000.0 566473.0 0
146000.0 566474.0 0
150000.0 566443.0 0
154000.0 566457.0 0
158000.0 566433.0 0
162000.0 566452.0 0
166000.0 566430.0 0
170000.0 566447.0 0
174000.0 566430.0 0
178000.0 566441.0 0
182000.0 566430.0 0
186000.0 566438.0 0
190000.0 566430.0 0
194000.0 566435.0 0
198000.0 566430.0 0
202000.0 566431.0 0
206000.0 566430.0 0
210000.0 566430.0 0
214000.0 566430.0 0
218000.0 566430.0 0
222000.0 566430.0 0
226000.0 566430.0 0
230000.0 566430.0 0
234000.0 566430.0 0
238000.0 566430.0 0
242000.0 566430.0 0
246000.0 566430.0 0
250000.0 566430.0 0
254000.0 566430.0 0
258000.0 566430.0 0
262000.0 566430.0 0
266000.0 566430.0 0
270000.0 566430.0 0
274000.0 566430.0 0
278000.0 566430.0 0
282000.0 566430.0 0
286000.0 566430.0 0
290000.0 566430.0 0
294000.0 566430.0 0
298000.0 566431.0 0
302000.0 566430.0 0
306000.0 566435.0 0
310000.0 566430.0 0
314000.0 566438.0 0
318000.0 566430.0 0
322000.0 566441.0 0
326000.0 566430.0 0
330000.0 566447.0 0
334000.0 566430.0 0
338000.0 566452.0 0
342000.0 566433.0 0
346000.0 566457.0 0
350000.0 566443.0 0
354000.0 566474.0 0
358000.0 566473.0 0
362000.0 566514.0 0
366000.0 566500.0 0
370000.0 566531.0 0
374000.0 566508.0 0
378000.0 566510.0 0
382000.0 566472.0 0
386000.0 566487.0 0
390000.0 566510.0 0
394000.0 566523.0 0
398000.0 566521.0 0
102000.0 570517.0 0
106000.0 570518.0 0
110000.0 570506.0 0
114000.0 570484.0 0
118000.0 570469.0 0
122000.0 570506.0 0
126000.0 570502.0 0
130000.0 570522.0 0
134000.0 570492.0 0
138000.0 570506.0 0
142000.0 570467.0 0
146000.0 570470.0 0
150000.0 570441.0 0
154000.0 570455.0 0
158000.0 570432.0 0
162000.0 570450.0 0
166000.0 570430.0 0
170000.0 570445.0 0
174000.0 570430.0 0
178000.0 570440.0 0
182000.0 570430.0 0
186000.0 570437.0 0
190000.0 570430.0 0
194000.0 570434.0 0
198000.0 570430.0 0
202000.0 570431.0 0
206000.0 570430.0 0
210000.0 570430.0 0
214000.0 570430.0 0
218000.0 570430.0 0
222000.0 570430.0 0
226000.0 570430.0 0
230000.0 570430.0 0
234000.0 570430.0 0
238000.0 570430.0 0
242000.0 570430.0 0
246000.0 570430.0 0
250000.0 570430.0 0
254000.0 570430.0 0
258000.0 570430.0 0
262000.0 570430.0 0
266000.0 570430.0 0
270000.0 570430.0 0
274000.0 570430.0 0
278000.0 570430.0 0
282000.0 570430.0 0
286000.0 570430.0 0
290000.0 570430.0 0
294000.0 570430.0 0
298000.0 570431.0 0
302000.0 570430.0 0
306000.0 570434.0 0
310000.0 570430.0 0
314000.0 570437.0 0
318000.0 570430.0 0
322000.0 570440.0 0
326000.0 570430.0 0
330000.0 570445.0 0
334000.0 570430.0 0
338000.0 570450.0 0
342000.0 570432.0 0
346000.0 570455.0 0
350000.0 570441.0 0
354000.0 570470.0 0
358000.0 570467.0 0
362000.0 570506.0 0
366000.0 570492.0 0
370000.0 570522.0 0
374000.0 570502.0 0
378000.0 570506.0 0
382000.0 570469.0 0
386000.0 570484.0 0
390000.0 570506.0 0
394000.0 570518.0 0
398000.0 570517.0 0
102000.0 574512.0 0
106000.0 574513.0 0
110000.0 574501.0 0
114000.0 574481.0 0
118000.0 574466.0 0
122000.0 574502.0 0
126000.0 574497.0 0
130000.0 574515.0 0
134000.0 574485.0 0
138000.0 574500.0 0
142000.0 574463.0 0
146000.0 574466.0 0
150000.0 574439.0 0
154000.0 574453.0 0
158000.0 574432.0 0
162000.0 574448.0 0
166000.0 574430.0 0
170000.0 574443.0 0
174000.0 574430.0 0
178000.0 574438.0 0
182000.0 574430.0 0
186000.0 574436.0 0
190000.0 574430.0 0
194000.0 574433.0 0
198000.0 574430.0 0
202000.0 574431.0 0
206000.0 574430.0 0
210000.0 574430.0 0
214000.0 574430.0 0
218000.0 574430.0 0
222000.0 574430.0 0
226000.0 574430.0 0
230000.0 574430.0 0
234000.0 574430.0 0
238000.0 574430.0 0
242000.0 574430.0 0
246000.0 574430.0 0
250000.0 574430.0 0
254000.0 574430.0 0
258000.0 574430.0 0
262000.0 574430.0 0
266000.0 574430.0 0
270000.0 574430.0 0
274000.0 574430.0 0
278000.0 574430.0 0
282000.0 574430.0 0
286000.0 574430.0 0
290000.0 574430.0 0
294000.0 574430.0 0
298000.0 574431.0 0
302000.0 574430.0 0
306000.0 574433.0 0
310000.0 574430.0 0
314000.0 574436.0 0
318000.0 574430.0 0
322000.0 574438.0 0
326000.0 574430.0 0
330000.0 574443.0 0
334000.0 574430.0 0
338000.0 574448.0 0
342000.0 574432.0 0
346000.0 574453.0 0
350000.0 574439.0 0
354000.0 574466.0 0
358000.0 574463.0 0
362000.0 574500.0 0
366000.0 574485.0 0
370000.0 574515.0 0
374000.0 574497.0 0
378000.0 574502.0 0
382000.0 574466.0 0
386000.0 574481.0 0
390000.0 574501.0 0
394000.0 574513.0 0
398000.0 574512.0 0
102000.0 578509.0 0
106000.0 578509.0 0
110000.0 578498.0 0
114000.0 578478.0 0
118000.0 578463.0 0
122000.0 578498.0 0
126000.0 578492.0 0
130000.0 578508.0 0
134000.0 578479.0 0
138000.0 578493.0 0
142000.0 578459.0 0
146000.0 578463.0 0
150000.0 578438.0 0
154000.0 578450.0 0
158000.0 578431.0 0
162000.0 578446.0 0
166000.0 578430.0 0
170000.0 578442.0 0
174000.0 578430.0 0
178000.0 578437.0 0
182000.0 578430.0 0
186000.0 578435.0 0
190000.0 578430.0 0
194000.0 578433.0 0
198000.0 578430.0 0
202000.0 578431.0 0
206000.0 578430.0 0
210000.0 578430.0 0
214000.0 578430.0 0
218000.0 578430.0 0
222000.0 578430.0 0
226000.0 578430.0 0
230000.0 578430.0 0
234000.0 578430.0 0
238000.0 578430.0 0
242000.0 578430.0 0
246000.0 578430.0 0
250000.0 578430.0 0
254000.0 578430.0 0
258000.0 578430.0 0
262000.0 578430.0 0
266000.0 578430.0 0
270000.0 578430.0 0
274000.0 578430.0 0
278000.0 578430.0 0
282000.0 578430.0 0
286000.0 578430.0 0
290000.0 578430.0 0
294000.0 578430.0 0
298000.0 578431.0 0
302000.0 578430.0 0
306000.0 578433.0 0
310000.0 578430.0 0
314000.0 578435.0 0
318000.0 578430.0 0
322000.0 578437.0 0
326000.0 578430.0 0
330000.0 578442.0 0
334000.0 578430.0 0
338000.0 578446.0 0
342000.0 578431.0 0
346000.0 578450.0 0
350000.0 578438.0 0
354000.0 578463.0 0
358000.0 578459.0 0
362000.0 578493.0 0
366000.0 578479.0 0
370000.0 578508.0 0
374000.0 578492.0 0
378000.0 578498.0 0
382000.0 578463.0 0
386000.0 578478.0 0
390000.0 578498.0 0
394000.0 578509.0 0
398000.0 578509.0 0
102000.0 582505.0 0
106000.0 582505.0 0
110000.0 582494.0 0
114000.0 582475.0 0
118000.0 582461.0 0
122000.0 582494.0 0
126000.0 582488.0 0
130000.0 582502.0 0
134000.0 582473.0 0
138000.0 582488.0 0
142000.0 582455.0 0
146000.0 582460.0 0
150000.0 582436.0 0
154000.0 582449.0 0
158000.0 582431.0 0
162000.0 582445.0 0
166000.0 582430.0 0
170000.0 582440.0 0
174000.0 582430.0 0
178000.0 582436.0 0
182000.0 582430.0 0
186000.0 582434.0 0
190000.0 582430.0 0
194000.0 582432.0 0
198000.0 582430.0 0
202000.0 582431.0 0
206000.0 582430.0 0
210000.0 582430.0 0
214000.0 582430.0 0
218000.0 582430.0 0
222000.0 582430.0 0
226000.0 582430.0 0
230000.0 582430.0 0
234000.0 582430.0 0
238000.0 582430.0 0
242000.0 582430.0 0
246000.0 582430.0 0
250000.0 582430.0 0
254000.0 582430.0 0
258000.0 582430.0 0
262000.0 582430.0 0
266000.0 582430.0 0
270000.0 582430.0 0
274000.0 582430.0 0
278000.0 582430.0 0
282000.0 582430.0 0
286000.0 582430.0 0
290000.0 582430.0 0
294000.0 582430.0 0
298000.0 582431.0 0
302000.0 582430.0 0
306000.0 582432.0 0
310000.0 582430.0 0
314000.0 582434.0 0
318000.0 582430.0 0
322000.0 582436.0 0
326000.0 582430.0 0
330000.0 582440.0 0
334000.0 582430.0 0
338000.0 582445.0 0
342000.0 582431.0 0
346000.0 582449.0 0
350000.0 582436.0 0
354000.0 582460.0 0
358000.0 582455.0 0
362000.0 582488.0 0
366000.0 582473.0 0
370000.0 582502.0 0
374000.0 582488.0 0
378000.0 582494.0 0
382000.0 582461.0 0
386000.0 582475.0 0
390000.0 582494.0 0
394000.0 582505.0 0
398000.0 582505.0 0
102000.0 586501.0 0
106000.0 586501.0 0
110000.0 586490.0 0
114000.0 586473.0 0
118000.0 586459.0 0
122000.0 586490.0 0
126000.0 586483.0 0
130000.0 586496.0 0
134000.0 586468.0 0
138000.0 586483.0 0
142000.0 586452.0 0
146000.0 586457.0 0
150000.0 586435.0 0
154000.0 586447.0 0
158000.0 586431.0 0
162000.0 586443.0 0
166000.0 586430.0 0
170000.0 586439.0 0
174000.0 586430.0 0
178000.0 586435.0 0
182000.0 586430.0 0
186000.0 586433.0 0
190000.0 586430.0 0
194000.0 586432.0 0
198000.0 586430.0 0
202000.0 586431.0 0
206000.0 586430.0 0
210000.0 586430.0 0
214000.0 586430.0 0
218000.0 586430.0 0
222000.0 586430.0 0
226000.0 586430.0 0
230000.0 586430.0 0
234000.0 586430.0 0
238000.0 586430.0 0
242000.0 586430.0 0
246000.0 586430.0 0
250000.0 586430.0 0
254000.0 586430.0 0
258000.0 586430.0 0
262000.0 586430.0 0
266000.0 586430.0 0
270000.0 586430.0 0
274000.0 586430.0 0
278000.0 586430.0 0
282000.0 586430.0 0
286000.0 586430.0 0
290000.0 586430.0 0
294000.0 586430.0 0
298000.0 586431.0 0
302000.0 586430.0 0
306000.0 586432.0 0
310000.0 586430.0 0
314000.0 586433.0 0
318000.0 586430.0 0
322000.0 586435.0 0
326000.0 586430.0 0
330000.0 586439.0 0
334000.0 586430.0 0
338000.0 586443.0 0
342000.0 586431.0 0
346000.0 586447.0 0
350000.0 586435.0 0
354000.0 586457.0 0
358000.0 586452.0 0
362000.0 586483.0 0
366000.0 586468.0 0
370000.0 586496.0 0
374000.0 586483.0 0
378000.0 586490.0 0
382000.0 586459.0 0
386000.0 586473.0 0
390000.0 586490.0 0
394000.0 586501.0 0
398000.0 586501.0 0
102000.0 590498.0 0
106000.0 590498.0 0
110000.0 590487.0 0
114000.0 590470.0 0
118000.0 590457.0 0
122000.0 590487.0 0
126000.0 590479.0 0
130000.0 590491.0 0
134000.0 590464.0 0
138000.0 590478.0 0
142000.0 590449.0 0
146000.0 590454.0 0
150000.0 590434.0 0
154000.0 590445.0 0
158000.0 590431.0 0
162000.0 590442.0 0
166000.0 590430.0 0
170000.0 590438.0 0
174000.0 590430.0 0
178000.0 590434.0 0
182000.0 590430.0 0
186000.0 590433.0 0
190000.0 590430.0 0
194000.0 590432.0 0
198000.0 590430.0 0
202000.0 590430.0 0
206000.0 590430.0 0
210000.0 590430.0 0
214000.0 590430.0 0
218000.0 590430.0 0
222000.0 590430.0 0
226000.0 590430.0 0
230000.0 590430.0 0
234000.0 590430.0 0
238000.0 590430.0 0
242000.0 590430.0 0
246000.0 590430.0 0
250000.0 590430.0 0
254000.0 590430.0 0
258000.0 590430.0 0
262000.0 590430.0 0
266000.0 590430.0 0
270000.0 590430.0 0
274000.0 590430.0 0
278000.0 590430.0 0
282000.0 590430.0 0
286000.0 590430.0 0
290000.0 590430.0 0
294000.0 590430.0 0
298000.0 590430.0 0
302000.0 590430.0 0
306000.0 590432.0 0
310000.0 590430.0 0
314000.0 590433.0 0
318000.0 590430.0 0
322000.0 590434.0 0
326000.0 590430.0 0
330000.0 590438.0 0
334000.0 590430.0 0
338000.0 590442.0 0
342000.0 590431.0 0
346000.0 590445.0 0
350000.0 590434.0 0
354000.0 590454.0 0
358000.0 590449.0 0
362000.0 590478.0 0
366000.0 590464.0 0
370000.0 590491.0 0
374000.0 590479.0 0
378000.0 590487.0 0
382000.0 590457.0 0
386000.0 590470.0 0
390000.0 590487.0 0
394000.0 590498.0 0
398000.0 590498.0 0
102000.0 594495.0 0
106000.0 594494.0 0
110000.0 594484.0 0
114000.0 594468.0 0
118000.0 594455.0 0
122000.0 594484.0 0
126000.0 594475.0 0
130000.0 594486.0 0
134000.0 594460.0 0
138000.0 594474.0 0
142000.0 594447.0 0
146000.0 594452.0 0
150000.0 594434.0 0
154000.0 594444.0 0
158000.0 594431.0 0
162000.0 594441.0 0
166000.0 594430.0 0
170000.0 594437.0 0
174000.0 594430.0 0
178000.0 594434.0 0
182000.0 594430.0 0
186000.0 594432.0 0
190000.0 594430.0 0
194000.0 594431.0 0
198000.0 594430.0 0
202000.0 594430.0 0
206000.0 594430.0 0
210000.0 594430.0 0
214000.0 594430.0 0
218000.0 594430.0 0
222000.0 594430.0 0
226000.0 594430.0 0
230000.0 594430.0 0
234000.0 594430.0 0
238000.0 594430.0 0
242000.0 594430.0 0
246000.0 594430.0 0
250000.0 594430.0 0
254000.0 594430.0 0
258000.0 594430.0 0
262000.0 594430.0 0
266000.0 594430.0 0
270000.0 594430.0 0
274000.0 594430.0 0
278000.0 594430.0 0
282000.0 594430.0 0
286000.0 594430.0 0
290000.0 594430.0 0
294000.0 594430.0 0
298000.0 594430.0 0
302000.0 594430.0 0
306000.0 594431.0 0
310000.0 594430.0 0
314000.0 594432.0 0
318000.0 594430.0 0
322000.0 594434.0 0
326000.0 594430.0 0
330000.0 594437.0 0
334000.0 594430.0 0
338000.0 594441.0 0
342000.0 594431.0 0
346000.0 594444.0 0
350000.0 594434.0 0
354000.0 594452.0 0
358000.0 594447.0 0
362000.0 594474.0 0
366000.0 594460.0 0
370000.0 594486.0 0
374000.0 594475.0 0
378000.0 594484.0 0
382000.0 594455.0 0
386000.0 594468.0 0
390000.0 594484.0 0
394000.0 594494.0 0
398000.0 594495.0 0
102000.0 598493.0 0
106000.0 598491.0 0
110000.0 598481.0 0
114000.0 598467.0 0
118000.0 598454.0 0
122000.0 598481.0 0
126000.0 598472.0 0
130000.0 598482.0 0
134000.0 598457.0 0
138000.0 598471.0 0
142000.0 598445.0 0
146000.0 598450.0 0
150000.0 598433.0 0
154000.0 598443.0 0
158000.0 598431.0 0
162000.0 598440.0 0
166000.0 598430.0 0
170000.0 598436.0 0
174000.0 598430.0 0
178000.0 598433.0 0
182000.0 598430.0 0
186000.0 598432.0 0
190000.0 598430.0 0
194000.0 598431.0 0
198000.0 598430.0 0
202000.0 598430.0 0
206000.0 598430.0 0
210000.0 598430.0 0
214000.0 598430.0 0
218000.0 598430.0 0
222000.0 598430.0 0
226000.0 598430.0 0
230000.0 598430.0 0
234000.0 598430.0 0
238000.0 598430.0 0
242000.0 598430.0 0
246000.0 598430.0 0
250000.0 598430.0 0
254000.0 598430.0 0
258000.0 598430.0 0
262000.0 598430.0 0
266000.0 598430.0 0
270000.0 598430.0 0
274000.0 598430.0 0
278000.0 598430.0 0
282000.0 598430.0 0
286000.0 598430.0 0
290000.0 598430.0 0
294000.0 598430.0 0
298000.0 598430.0 0
302000.0 598430.0 0
306000.0 598431.0 0
310000.0 598430.0 0
314000.0 598432.0 0
318000.0 598430.0 0
322000.0 598433.0 0
326000.0 598430.0 0
330000.0 598436.0 0
334000.0 598430.0 0
338000.0 598440.0 0
342000.0 598431.0 0
346000.0 598443.0 0
350000.0 598433.0 0
354000.0 598450.0 0
358000.0 598445.0 0
362000.0 598471.0 0
366000.0 598457.0 0
370000.0 598482.0 0
374000.0 598472.0 0
378000.0 598481.0 0
382000.0 598454.0 0
386000.0 598467.0 0
390000.0 598481.0 0
394000.0 598491.0 0
398000.0 598493.0 0
102000.0 602490.0 0
106000.0 602489.0 0
110000.0 602479.0 0
114000.0 602465.0 0
118000.0 602452.0 0
122000.0 602479.0 0
126000.0 602469.0 0
130000.0 602478.0 0
134000.0 602454.0 0
138000.0 602467.0 0
142000.0 602443.0 0
146000.0 602448.0 0
150000.0 602433.0 0
154000.0 602442.0 0
158000.0 602431.0 0
162000.0 602439.0 0
166000.0 602430.0 0
170000.0 602435.0 0
174000.0 602430.0 0
178000.0 602433.0 0
182000.0 602430.0 0
186000.0 602432.0 0
190000.0 602430.0 0
194000.0 602431.0 0
198000.0 602430.0 0
202000.0 602430.0 0
206000.0 602430.0 0
210000.0 602430.0 0
214000.0 602430.0 0
218000.0 602430.0 0
222000.0 602430.0 0
226000.0 602430.0 0
230000.0 602430.0 0
234000.0 602430.0 0
238000.0 602430.0 0
242000.0 602430.0 0
246000.0 602430.0 0
250000.0 602430.0 0
254000.0 602430.0 0
258000.0 602430.0 0
262000.0 602430.0 0
266000.0 602430.0 0
270000.0 602430.0 0
274000.0 602430.0 0
278000.0 602430.0 0
282000.0 602430.0 0
286000.0 602430.0 0
290000.0 602430.0 0
294000.0 602430.0 0
298000.0 602430.0 0
302000.0 602430.0 0
306000.0 602431.0 0
310000.0 602430.0 0
314000.0 602432.0 0
318000.0 602430.0 0
322000.0 602433.0 0
326000.0 602430.0 0
330000.0 602435.0 0
334000.0 602430.0 0
338000.0 602439.0 0
342000.0 602431.0 0
346000.0 602442.0 0
350000.0 602433.0 0
354000.0 602448.0 0
358000.0 602443.0 0
362000.0 602467.0 0
366000.0 602454.0 0
370000.0 602478.0 0
374000.0 602469.0 0
378000.0 602479.0 0
382000.0 602452.0 0
386000.0 602465.0 0
390000.0 602479.0 0
394000.0 602489.0 0
398000.0 602490.0 0
102000.0 606488.0 0
106000.0 606486.0 0
110000.0 606477.0 0
114000.0 606463.0 0
118000.0 606451.0 0
122000.0 606476.0 0
126000.0 606466.0 0
130000.0 606475.0 0
134000.0 606451.0 0
138000.0 606465.0 0
142000.0 606441.0 0
146000.0 606447.0 0
150000.0 606432.0 0
154000.0 606441.0 0
158000.0 606431.0 0
162000.0 606438.0 0
166000.0 606430.0 0
170000.0 606435.0 0
174000.0 606430.0 0
178000.0 606432.0 0
182000.0 606430.0 0
186000.0 606431.0 0
190000.0 606430.0 0
194000.0 606431.0 0
198000.0 606430.0 0
202000.0 606430.0 0
206000.0 606430.0 0
210000.0 606430.0 0
214000.0 606430.0 0
218000.0 606430.0 0
222000.0 606430.0 0
226000.0 606430.0 0
230000.0 606430.0 0
234000.0 606430.0 0
238000.0 606430.0 0
242000.0 606430.0 0
246000.0 606430.0 0
250000.0 606430.0 0
254000.0 606430.0 0
258000.0 606430.0 0
262000.0 606430.0 0
266000.0 606430.0 0
270000.0 606430.0 0
274000.0 606430.0 0
278000.0 606430.0 0
282000.0 606430.0 0
286000.0 606430.0 0
290000.0 606430.0 0
294000.0 606430.0 0
298000.0 606430.0 0
302000.0 606430.0 0
306000.0 606431.0 0
310000.0 606430.0 0
314000.0 606431.0 0
318000.0 606430.0 0
322000.0 606432.0 0
326000.0 606430.0 0
330000.0 606435.0 0
334000.0 606430.0 0
338000.0 606438.0 0
342000.0 606431.0 0
346000.0 606441.0 0
350000.0 606432.0 0
354000.0 606447.0 0
358000.0 606441.0 0
362000.0 606465.0 0
366000.0 606451.0 0
370000.0 606475.0 0
374000.0 606466.0 0
378000.0 606476.0 0
382000.0 606451.0 0
386000.0 606463.0 0
390000.0 606477.0 0
394000.0 606486.0 0
398000.0 606488.0 0
102000.0 610486.0 0
106000.0 610484.0 0
110000.0 610475.0 0
114000.0 610462.0 0
118000.0 610450.0 0
122000.0 610474.0 0
126000.0 610464.0 0
130000.0 610472.0 0
134000.0 610449.0 0
138000.0 610462.0 0
142000.0 610440.0 0
146000.0 610446.0 0
150000.0 610432.0 0
154000.0 610440.0 0
158000.0 610430.0 0
162000.0 610437.0 0
166000.0 610430.0 0
170000.0 610434.0 0
174000.0 610430.0 0
178000.0 610432.0 0
182000.0 610430.0 0
186000.0 610431.0 0
190000.0 610430.0 0
194000.0 610431.0 0
198000.0 610430.0 0
202000.0 610430.0 0
206000.0 610430.0 0
210000.0 610430.0 0
214000.0 610430.0 0
218000.0 610430.0 0
222000.0 610430.0 0
226000.0 610430.0 0
230000.0 610430.0 0
234000.0 610430.0 0
238000.0 610430.0 0
242000.0 610430.0 0
246000.0 610430.0 0
250000.0 610430.0 0
254000.0 610430.0 0
258000.0 610430.0 0
262000.0 610430.0 0
266000.0 610430.0 0
270000.0 610430.0 0
274000.0 610430.0 0
278000.0 610430.0 0
282000.0 610430.0 0
286000.0 610430.0 0
290000.0 610430.0 0
294000.0 610430.0 0
298000.0 610430.0 0
302000.0 610430.0 0
306000.0 610431.0 0
310000.0 610430.0 0
314000.0 610431.0 0
318000.0 610430.0 0
322000.0 610432.0 0
326000.0 610430.0 0
330000.0 610434.0 0
334000.0 610430.0 0
338000.0 610437.0 0
342000.0 610430.0 0
346000.0 610440.0 0
350000.0 610432.0 0
354000.0 610446.0 0
358000.0 610440.0 0
362000.0 610462.0 0
366000.0 610449.0 0
370000.0 610472.0 0
374000.0 610464.0 0
378000.0 610474.0 0
382000.0 610450.0 0
386000.0 610462.0 0
390000.0 610475.0 0
394000.0 610484.0 0
398000.0 610486.0 0
102000.0 614484.0 0
106000.0 614482.0 0
110000.0 614473.0 0
114000.0 614461.0 0
118000.0 614449.0 0
122000.0 614472.0 0
126000.0 614462.0 0
130000.0 614469.0 0
134000.0 614447.0 0
138000.0 614460.0 0
142000.0 614439.0 0
146000.0 614444.0 0
150000.0 614432.0 0
154000.0 614439.0 0
158000.0 614430.0 0
162000.0 614436.0 0
166000.0 614430.0 0
170000.0 614434.0 0
174000.0 614430.0 0
178000.0 614432.0 0
182000.0 614430.0 0
186000.0 614431.0 0
190000.0 614430.0 0
194000.0 614431.0 0
198000.0 614430.0 0
202000.0 614430.0 0
206000.0 614430.0 0
210000.0 614430.0 0
214000.0 614430.0 0
218000.0 614430.0 0
222000.0 614430.0 0
226000.0 614430.0 0
230000.0 614430.0 0
234000.0 614430.0 0
238000.0 614430.0 0
242000.0 614430.0 0
246000.0 614430.0 0
250000.0 614430.0 0
254000.0 614430.0 0
258000.0 614430.0 0
262000.0 614430.0 0
266000.0 614430.0 0
270000.0 614430.0 0
274000.0 614430.0 0
278000.0 614430.0 0
282000.0 614430.0 0
286000.0 614430.0 0
290000.0 614430.0 0
294000.0 614430.0 0
298000.0 614430.0 0
302000.0 614430.0 0
306000.0 614431.0 0
310000.0 614430.0 0
314000.0 614431.0 0
318000.0 614430.0 0
322000.0 614432.0 0
326000.0 614430.0 0
330000.0 614434.0 0
334000.0 614430.0 0
338000.0 614436.0 0
342000.0 614430.0 0
346000.0 614439.0 0
350000.0 614432.0 0
354000.0 614444.0 0
358000.0 614439.0 0
362000.0 614460.0 0
366000.0 614447.0 0
370000.0 614469.0 0
374000.0 614462.0 0
378000.0 614472.0 0
382000.0 614449.0 0
386000.0 614461.0 0
390000.0 614473.0 0
394000.0 614482.0 0
398000.0 614484.0 0
102000.0 618483.0 0
106000.0 618480.0 0
110000.0 618472.0 0
114000.0 618460.0 0
118000.0 618448.0 0
122000.0 618471.0 0
126000.0 618460.0 0
130000.0 618467.0 0
134000.0 618446.0 0
138000.0 618458.0 0
142000.0 618438.0 0
146000.0 618443.0 0
150000.0 618431.0 0
154000.0 618439.0 0
158000.0 618430.0 0
162000.0 618436.0 0
166000.0 618430.0 0
170000.0 618433.0 0
174000.0 618430.0 0
178000.0 618432.0 0
182000.0 618430.0 0
186000.0 618431.0 0
190000.0 618430.0 0
194000.0 618431.0 0
198000.0 618430.0 0
202000.0 618430.0 0
206000.0 618430.0 0
210000.0 618430.0 0
214000.0 618430.0 0
218000.0 618430.0 0
222000.0 618430.0 0
226000.0 618430.0 0
230000.0 618430.0 0
234000.0 618430.0 0
238000.0 618430.0 0
242000.0 618430.0 0
246000.0 618430.0 0
250000.0 618430.0 0
254000.0 618430.0 0
258000.0 618430.0 0
262000.0 618430.0 0
266000.0 618430.0 0
270000.0 618430.0 0
274000.0 618430.0 0
278000.0 618430.0 0
282000.0 618430.0 0
286000.0 618430.0 0
290000.0 618430.0 0
294000.0 618430.0 0
298000.0 618430.0 0
302000.0 618430.0 0
306000.0 618431.0 0
310000.0 618430.0 0
314000.0 618431.0 0
318000.0 618430.0 0
322000.0 618432.0 0
326000.0 618430.0 0
330000.0 618433.0 0
334000.0 618430.0 0
338000.0 618436.0 0
342000.0 618430.0 0
346000.0 618439.0 0
350000.0 618431.0 0
354000.0 618443.0 0
358000.0 618438.0 0
362000.0 618458.0 0
366000.0 618446.0 0
370000.0 618467.0 0
374000.0 618460.0 0
378000.0 618471.0 0
382000.0 618448.0 0
386000.0 618460.0 0
390000.0 618472.0 0
394000.0 618480.0 0
398000.0 618483.0 0
102000.0 622482.0 0
106000.0 622479.0 0
110000.0 622470.0 0
114000.0 622459.0 0
118000.0 622447.0 0
122000.0 622469.0 0
126000.0 622458.0 0
130000.0 622466.0 0
134000.0 622444.0 0
138000.0 622457.0 0
142000.0 622437.0 0
146000.0 622443.0 0
150000.0 622431.0 0
154000.0 622438.0 0
158000.0 622430.0 0
162000.0 622435.0 0
166000.0 622430.0 0
170000.0 622433.0 0
174000.0 622430.0 0
178000.0 622431.0 0
182000.0 622430.0 0
186000.0 622431.0 0
190000.0 622430.0 0
194000.0 622431.0 0
198000.0 622430.0 0
202000.0 622430.0 0
206000.0 622430.0 0
210000.0 622430.0 0
214000.0 622430.0 0
218000.0 622430.0 0
222000.0 622430.0 0
226000.0 622430.0 0
230000.0 622430.0 0
234000.0 622430.0 0
238000.0 622430.0 0
242000.0 622430.0 0
246000.0 622430.0 0
250000.0 622430.0 0
254000.0 622430.0 0
258000.0 622430.0 0
262000.0 622430.0 0
266000.0 622430.0 0
270000.0 622430.0 0
274000.0 622430.0 0
278000.0 622430.0 0
282000.0 622430.0 0
286000.0 622430.0 0
290000.0 622430.0 0
294000.0 622430.0 0
298000.0 622430.0 0
302000.0 622430.0 0
306000.0 622431.0 0
310000.0 622430.0 0
314000.0 622431.0 0
318000.0 622430.0 0
322000.0 622431.0 0
326000.0 622430.0 0
330000.0 622433.0 0
334000.0 622430.0 0
338000.0 622435.0 0
342000.0 622430.0 0
346000.0 622438.0 0
350000.0 622431.0 0
354000.0 622443.0 0
358000.0 622437.0 0
362000.0 622457.0 0
366000.0 622444.0 0
370000.0 622466.0 0
374000.0 622458.0 0
378000.0 622469.0 0
382000.0 622447.0 0
386000.0 622459.0 0
390000.0 622470.0 0
394000.0 622479.0 0
398000.0 622482.0 0
102000.0 626481.0 0
106000.0 626478.0 0
110000.0 626469.0 0
114000.0 626458.0 0
118000.0 626447.0 0
122000.0 626468.0 0
126000.0 626457.0 0
130000.0 626464.0 0
134000.0 626443.0 0
138000.0 626456.0 0
142000.0 626437.0 0
146000.0 626442.0 0
150000.0 626431.0 0
154000.0 626438.0 0
158000.0 626430.0 0
162000.0 626435.0 0
166000.0 626430.0 0
170000.0 626433.0 0
174000.0 626430.0 0
178000.0 626431.0 0
182000.0 626430.0 0
186000.0 626431.0 0
190000.0 626430.0 0
194000.0 626431.0 0
198000.0 626430.0 0
202000.0 626430.0 0
206000.0 626430.0 0
210000.0 626430.0 0
214000.0 626430.0 0
218000.0 626430.0 0
222000.0 626430.0 0
226000.0 626430.0 0
230000.0 626430.0 0
234000.0 626430.0 0
238000.0 626430.0 0
242000.0 626430.0 0
246000.0 626430.0 0
250000.0 626430.0 0
254000.0 626430.0 0
258000.0 626430.0 0
262000.0 626430.0 0
266000.0 626430.0 0
270000.0 626430.0 0
274000.0 626430.0 0
278000.0 626430.0 0
282000.0 626430.0 0
286000.0 626430.0 0
290000.0 626430.0 0
294000.0 626430.0 0
298000.0 626430.0 0
302000.0 626430.0 0
306000.0 626431.0 0
310000.0 626430.0 0
314000.0 626431.0 0
318000.0 626430.0 0
322000.0 626431.0 0
326000.0 626430.0 0
330000.0 626433.0 0
334000.0 626430.0 0
338000.0 626435.0 0
342000.0 626430.0 0
346000.0 626438.0 0
350000.0 626431.0 0
354000.0 626442.0 0
358000.0 626437.0 0
362000.0 626456.0 0
366000.0 626443.0 0
370000.0 626464.0 0
374000.0 626457.0 0
378000.0 626468.0 0
382000.0 626447.0 0
386000.0 626458.0 0
390000.0 626469.0 0
394000.0 626478.0 0
398000.0 626481.0 0
102000.0 630480.0 0
106000.0 630477.0 0
110000.0 630469.0 0
114000.0 630458.0 0
118000.0 630446.0 0
122000.0 630467.0 0
126000.0 630456.0 0
130000.0 630463.0 0
134000.0 630443.0 0
138000.0 630455.0 0
142000.0 630436.0 0
146000.0 630442.0 0
150000.0 630431.0 0
154000.0 630437.0 0
158000.0 630430.0 0
162000.0 630435.0 0
166000.0 630430.0 0
170000.0 630433.0 0
174000.0 630430.0 0
178000.0 630431.0 0
182000.0 630430.0 0
186000.0 630431.0 0
190000.0 630430.0 0
194000.0 630430.0 0
198000.0 630430.0 0
202000.0 630430.0 0
206000.0 630430.0 0
210000.0 630430.0 0
214000.0 630430.0 0
218000.0 630430.0 0
222000.0 630430.0 0
226000.0 630430.0 0
230000.0 630430.0 0
234000.0 630430.0 0
238000.0 630430.0 0
242000.0 630430.0 0
246000.0 630430.0 0
250000.0 630430.0 0
254000.0 630430.0 0
258000.0 630430.0 0
262000.0 630430.0 0
266000.0 630430.0 0
270000.0 630430.0 0
274000.0 630430.0 0
278000.0 630430.0 0
282000.0 630430.0 0
286000.0 630430.0 0
290000.0 630430.0 0
294000.0 630430.0 0
298000.0 630430.0 0
302000.0 630430.0 0
306000.0 630430.0 0
310000.0 630430.0 0
314000.0 630431.0 0
318000.0 630430.0 0
322000.0 630431.0 0
326000.0 630430.0 0
330000.0 630433.0 0
334000.0 630430.0 0
338000.0 630435.0 0
342000.0 630430.0 0
346000.0 630437.0 0
350000.0 630431.0 0
354000.0 630442.0 0
358000.0 630436.0 0
362000.0 630455.0 0
366000.0 630443.0 0
370000.0 630463.0 0
374000.0 630456.0 0
378000.0 630467.0 0
382000.0 630446.0 0
386000.0 630458.0 0
390000.0 630469.0 0
394000.0 630477.0 0
398000.0 630480.0 0
102000.0 634479.0 0
106000.0 634477.0 0
110000.0 634468.0 0
114000.0 634458.0 0
118000.0 634446.0 0
122000.0 634467.0 0
126000.0 634455.0 0
130000.0 634463.0 0
134000.0 634442.0 0
138000.0 634454.0 0
142000.0 634436.0 0
146000.0 634441.0 0
150000.0 634431.0 0
154000.0 634437.0 0
158000.0 634430.0 0
162000.0 634435.0 0
166000.0 634430.0 0
170000.0 634432.0 0
174000.0 634430.0 0
178000.0 634431.0 0
182000.0 634430.0 0
186000.0 634431.0 0
190000.0 634430.0 0
194000.0 634430.0 0
198000.0 634430.0 0
202000.0 634430.0 0
206000.0 634430.0 0
210000.0 634430.0 0
214000.0 634430.0 0
218000.0 634430.0 0
222000.0 634430.0 0
226000.0 634430.0 0
230000.0 634430.0 0
234000.0 634430.0 0
238000.0 634430.0 0
242000.0 634430.0 0
246000.0 634430.0 0
250000.0 634430.0 0
254000.0 634430.0 0
258000.0 634430.0 0
262000.0 634430.0 0
266000.0 634430.0 0
270000.0 634430.0 0
274000.0 634430.0 0
278000.0 634430.0 0
282000.0 634430.0 0
286000.0 634430.0 0
290000.0 634430.0 0
294000.0 634430.0 0
298000.0 634430.0 0
302000.0 634430.0 0
306000.0 634430.0 0
310000.0 634430.0 0
314000.0 634431.0 0
318000.0 634430.0 0
322000.0 634431.0 0
326000.0 634430.0 0
330000.0 634432.0 0
334000.0 634430.0 0
338000.0 634435.0 0
342000.0 634430.0 0
346000.0 634437.0 0
350000.0 634431.0 0
354000.0 634441.0 0
358000.0 634436.0 0
362000.0 634454.0 0
366000.0 634442.0 0
370000.0 634463.0 0
374000.0 634455.0 0
378000.0 634467.0 0
382000.0 634446.0 0
386000.0 634458.0 0
390000.0 634468.0 0
394000.0 634477.0 0
398000.0 634479.0 0
102000.0 638479.0 0
106000.0 638476.0 0
110000.0 638468.0 0
114000.0 638457.0 0
118000.0 638446.0 0
122000.0 638467.0 0
126000.0 638455.0 0
130000.0 638462.0 0
134000.0 638442.0 0
138000.0 638454.0 0
142000.0 638436.0 0
146000.0 638441.0 0
150000.0 638431.0 0
154000.0 638437.0 0
158000.0 638430.0 0
162000.0 638435.0 0
166000.0 638430.0 0
170000.0 638432.0 0
174000.0 638430.0 0
178000.0 638431.0 0
182000.0 638430.0 0
186000.0 638431.0 0
190000.0 638430.0 0
194000.0 638430.0 0
198000.0 638430.0 0
202000.0 638430.0 0
206000.0 638430.0 0
210000.0 638430.0 0
214000.0 638430.0 0
218000.0 638430.0 0
222000.0 638430.0 0
226000.0 638430.0 0
230000.0 638430.0 0
234000.0 638430.0 0
238000.0 638430.0 0
242000.0 638430.0 0
246000.0 638430.0 0
250000.0 638430.0 0
254000.0 638430.0 0
258000.0 638430.0 0
262000.0 638430.0 0
266000.0 638430.0 0
270000.0 638430.0 0
274000.0 638430.0 0
278000.0 638430.0 0
282000.0 638430.0 0
286000.0 638430.0 0
290000.0 638430.0 0
294000.0 638430.0 0
298000.0 638430.0 0
302000.0 638430.0 0
306000.0 638430.0 0
310000.0 638430.0 0
314000.0 638431.0 0
318000.0 638430.0 0
322000.0 638431.0 0
326000.0 638430.0 0
330000.0 638432.0 0
334000.0 638430.0 0
338000.0 638435.0 0
342000.0 638430.0 0
346000.0 638437.0 0
350000.0 638431.0 0
354000.0 638441.0 0
358000.0 638436.0 0
362000.0 638454.0 0
366000.0 638442.0 0
370000.0 638462.0 0
374000.0 638455.0 0
378000.0 638467.0 0
382000.0 638446.0 0
386000.0 638457.0 0
390000.0 638468.0 0
394000.0 638476.0 0
398000.0 638479.0 0
POINT_DATA 4650
SCALARS Radius float 1
LOOKUP_TABLE default
4000.0 4000.0 4000.0 4000.0 4000.0 4000.0 4000.0 4000.0 4000.0 4000.0 4000.0 4000.0 4000.0 4000.0 4000.0 4000.0 4000.0 4000.0 4000.0 4000.0 4000.0 4000.0 4000.0 4000.0 4000.0 4000.0 4000.0 4000.0 4000.0 4000.0 4000.0 4000.0 4000.0 4000.0 4000.0 4000.0 4000.0 4000.0 4000.0 4000.0 4000.0 4000.0 4000.0 4000.0 4000.0 4000.0 4000.0 4000.0 4000.0 4000.0 4000.0 4000.0 4000.0 4000.0 4000.0 4000.0 4000.0 4000.0 4000.0 4000.0 4000.0 4000.0 4000.0 4000.0 4000.0 4000.0 4000.0 4000.0 4000.0 4000.0 4000.0 4000.0 4000.0 4000.0 4000.0 4000.0 4000.0 4000.0 4000.0 4000.0 4000.0 4000.0 4000.0 4000.0 4000.0 4000.0 4000.0 4000.0 4000.0 4000.0 4000.0 4000.0 4000.0 4000.0 4000.0 4000.0 4000.0 4000.0 4000.0 4000.0 4000.0 4000.0 4000.0 4000.0 4000.0 4000.0 4000.0 4000.0 4000.0 4000.0 4000.0 4000.0 4000.0 4000.0 4000.0 4000.0 4000.0 4000.0 4000.0 4000.0 4000.0 4000.0 4000.0 4000.0 4000.0 4000.0 4000.0 4000.0 4000.0 4000.0 4000.0 4000.0 4000.0 4000.0 4000.0 4000.0 4000.0 4000.0 4000.0 4000.0 4000.0 4000.0 4000.0 4000.0 4000.0 4000.0 4000.0 4000.0 4000.0 4000.0 4000.0 4000.0 4000.0 4000.0 4000.0 4000.0 4000.0 4000.0 4000.0 4000.0 4000.0 4000.0 4000.0 4000.0 4000.0 4000.0 4000.0 4000.0 4000.0 4000.0 4000.0 4000.0 4000.0 4000.0 4000.0 4000.0 4000.0 4000.0 4000.0 4000.0 4000.0 4000.0 4000.0 4000.0 4000.0 4000.0 4000.0 4000.0 4000.0 4000.0 4000.0 4000.0 4000.0 4000.0 4000.0 4000.0 4000.0 4000.0 4000.0 4000.0 4000.0 4000.0 4000.0 4000.0 4000.0 4000.0 4000.0 4000.0 4000.0 4000.0 4000.0 4000.0 4000.0 4000.0 4000.0 4000.0 4000.0 4000.0 4000.0 4000.0 4000.0 4000.0 4000.0 4000.0 4000.0 4000.0 4000.0 4000.0 4000.0 4000.0 4000.0 4000.0 4000.0 4000.0 4000.0 4000.0 4000.0 4000.0 4000.0 4000.0 4000.0 4000.0 4000.0 4000.0 4000.0 4000.0 4000.0 4000.0 4000.0 4000.0 4000.0 4000.0 4000.0 4000.0 4000.0 4000.0 4000.0 4000.0 4000.0 4000.0 4000.0 4000.0 4000.0 4000.0 4000.0 4000.0 4000.0 4000.0 4000.0 4000.0 4000.0 4000.0 4000.0 4000.0 4000.0 4000.0 4000.0 4000.0 4000.0 4000.0 4000.0 4000.0 4000.0 4000.0 4000.0 4000.0 4000.0 4000.0 4000.0 4000.0 4000.0 4000.0 4000.0 4000.0 4000.0 4000.0 4000.0 4000.0 4000.0 4000.0 4000.0 4000.0 4000.0 4000.0 4000.0 4000.0 4000.0 4000.0 4000.0 4000.0 4000.0 4000.0 4000.0 4000.0 4000.0 4000.0 4000.0 4000.0 4000.0 4000.0 4000.0 4000.0 4000.0 4000.0 4000.0 4000.0 4000.0 4000.0 4000.0 4000.0 4000.0 4000.0 4000.0 4000.0 4000.0 4000.0 4000.0 4000.0 4000.0 4000.0 4000.0 4000.0 4000.0 4000.0 4000.0 4000.0 4000.0 4000.0 4000.0 4000.0 4000.0 4000.0 4000.0 4000.0 4000.0 4000.0 4000.0 4000.0 4000.0 4000.0 4000.0 4000.0 4000.0 4000.0 4000.0 4000.0 4000.0 4000.0 4000.0 4000.0 4000.0 4000.0 4000.0 4000.0 4000.0 4000.0 4000.0 4000.0 4000.0 4000.0 4000.0 4000.0 4000.0 4000.0 4000.0 4000.0 4000.0 4000.0 4000.0 4000.0 4000.0 4000.0 4000.0 4000.0 4000.0 4000.0 4000.0 4000.0 4000.0 4000.0 4000.0 4000.0 4000.0 4000.0 4000.0 4000.0 4000.0 4000.0 4000.0 4000.0 4000.0 4000.0 4000.0 4000.0 4000.0 4000.0 4000.0 4000.0 4000.0 4000.0 4000.0 4000.0 4000.0 4000.0 4000.0 4000.0 4000.0 4000.0 4000.0 4000.0 4000.0 4000.0 4000.0 4000.0 4000.0 4000.0 4000.0 4000.0 4000.0 4000.0 4000.0 4000.0 4000.0 4000.0 4000.0 4000.0 4000.0 4000.0 4000.0 4000.0 4000.0 4000.0 4000.0 4000.0 4000.0 4000.0 4000.0 4000.0 4000.0 4000.0 4000.0 4000.0 4000.0 4000.0 4000.0 4000.0 4000.0 4000.0 4000.0 4000.0 4000.0 4000.0 4000.0 4000.0 4000.0 4000.0 4000.0 4000.0 4000.0 4000.0 4000.0 4000.0 4000.0 4000.0 4000.0 4000.0 4000.0 4000.0 4000.0 4000.0 4000.0 4000.0 4000.0 4000.0 4000.0 4000.0 4000.0 4000.0 4000.0 4000.0 4000.0 4000.0 4000.0 4000.0 4000.0 4000.0 4000.0 4000.0 4000.0 4000.0 4000.0 4000.0 4000.0 4000.0 4000.0 4000.0 4000.0 4000.0 4000.0 4000.0 4000.0 4000.0 4000.0 4000.0 4000.0 4000.0 4000.0 4000.0 4000.0 4000.0 4000.0 4000.0 4000.0 4000.0 4000.0 4000.0 4000.0 4000.0 4000.0 4000.0 4000.0 4000.0 4000.0 4000.0 4000.0 4000.0 4000.0 4000.0 4000.0 4000.0 4000.0 4000.0 4000.0 4000.0 4000.0 4000.0 4000.0 4000.0 4000.0 4000.0 4000.0 4000.0 4000.0 4000.0 4000.0 4000.0 4000.0 4000.0 4000.0 4000.0 4000.0 4000.0 4000.0 4000.0 4000.0 4000.0 4000.0 4000.0 4000.0 4000.0 4000.0 4000.0 4000.0 4000.0 4000.0 4000.0 4000.0 4000.0 4000.0 4000.0 4000.0 4000.0 4000.0 4000.0 4000.0 4000.0 4000.0 4000.0 4000.0 4000.0 4000.0 4000.0 4000.0 4000.0 4000.0 4000.0 4000.0 4000.0 4000.0 4000.0 4000.0 4000.0 4000.0 4000.0 4000.0 4000.0 4000.0 4000.0 4000.0 4000.0 4000.0 4000.0 4000.0 4000.0 4000.0 4000.0 4000.0 4000.0 4000.0 4000.0 4000.0 4000.0 4000.0 4000.0 4000.0 4000.0 4000.0 4000.0 4000.0 4000.0 4000.0 4000.0 4000.0 4000.0 4000.0 4000.0 4000.0 4000.0 4000.0 4000.0 4000.0 4000.0 4000.0 4000.0 4000.0 4000.0 4000.0 4000.0 4000.0 4000.0 4000.0 4000.0 4000.0 4000.0 4000.0 4000.0 4000.0 4000.0 4000.0 4000.0 4000.0 4000.0 4000.0 4000.0 4000.0 4000.0 4000.0 4000.0 4000.0 4000.0 4000.0 4000.0 4000.0 4000.0 4000.0 4000.0 4000.0 4000.0 4000.0 4000.0 4000.0 4000.0 4000.0 4000.0 4000.0 4000.0 4000.0 4000.0 4000.0 4000.0 4000.0 4000.0 4000.0 4000.0 4000.0 4000.0 4000.0 4000.0 4000.0 4000.0 4000.0 4000.0 4000.0 4000.0 4000.0 4000.0 4000.0 4000.0 4000.0 4000.0 4000.0 4000.0 4000.0 4000.0 4000.0 4000.0 4000.0 4000.0 4000.0 4000.0 4000.0 4000.0 4000.0 4000.0 4000.0 4000.0 4000.0 4000.0 4000.0 4000.0 4000.0 4000.0 4000.0 4000.0 4000.0 4000.0 4000.0 4000.0 4000.0 4000.0 4000.0 4000.0 4000.0 4000.0 4000.0 4000.0 4000.0 4000.0 4000.0 4000.0 4000.0 4000.0 4000.0 4000.0 4000.0 4000.0 4000.0 4000.0 4000.0 4000.0 4000.0 4000.0 4000.0 4000.0 4000.0 4000.0 4000.0 4000.0 4000.0 4000.0 4000.0 4000.0 4000.0 4000.0 4000.0 4000.0 4000.0 4000.0 4000.0 4000.0 4000.0 4000.0 4000.0 4000.0 4000.0 4000.0 4000.0 4000.0 4000.0 4000.0 4000.0 4000.0 4000.0 4000.0 4000.0 4000.0 4000.0 4000.0 4000.0 4000.0 4000.0 4000.0 4000.0 4000.0 4000.0 4000.0 4000.0 4000.0 4000.0 4000.0 4000.0 4000.0 4000.0 4000.0 4000.0 4000.0 4000.0 4000.0 4000.0 4000.0 4000.0 4000.0 4000.0 4000.0 4000.0 4000.0 4000.0 4000.0 4000.0 4000.0 4000.0 4000.0 4000.0 4000.0 4000.0 4000.0 4000.0 4000.0 4000.0 4000.0 4000.0 4000.0 4000.0 4000.0 4000.0 4000.0 4000.0 4000.0 4000.0 4000.0 4000.0 4000.0 4000.0 4000.0 4000.0 4000.0 4000.0 4000.0 4000.0 4000.0 4000.0 4000.0 4000.0 4000.0 4000.0 4000.0 4000.0 4000.0 4000.0 4000.0 4000.0 4000.0 4000.0 4000.0 4000.0 4000.0 4000.0 4000.0 4000.0 4000.0 4000.0 4000.0 4000.0 4000.0 4000.0 4000.0 4000.0 4000.0 4000.0 4000.0 4000.0 4000.0 4000.0 4000.0 4000.0 4000.0 4000.0 4000.0 4000.0 4000.0 4000.0 4000.0 4000.0 4000.0 4000.0 4000.0 4000.0 4000.0 4000.0 4000.0 4000.0 4000.0 4000.0 4000.0 4000.0 4000.0 4000.0 4000.0 4000.0 4000.0 4000.0 4000.0 4000.0 4000.0 4000.0 4000.0 4000.0 4000.0 4000.0 4000.0 4000.0 4000.0 4000.0 4000.0 4000.0 4000.0 4000.0 4000.0 4000.0 4000.0 4000.0 4000.0 4000.0 4000.0 4000.0 4000.0 4000.0 4000.0 4000.0 4000.0 4000.0 4000.0 4000.0 4000.0 4000.0 4000.0 4000.0 4000.0 4000.0 4000.0 4000.0 4000.0 4000.0 4000.0 4000.0 4000.0 4000.0 4000.0 4000.0 4000.0 4000.0 4000.0 4000.0 4000.0 4000.0 4000.0 4000.0 4000.0 4000.0 4000.0 4000.0 4000.0 4000.0 4000.0 4000.0 4000.0 4000.0 4000.0 4000.0 4000.0 4000.0 4000.0 4000.0 4000.0 4000.0 4000.0 4000.0 4000.0 4000.0 4000.0 4000.0 4000.0 4000.0 4000.0 4000.0 4000.0 4000.0 4000.0 4000.0 4000.0 4000.0 4000.0 4000.0 4000.0 4000.0 4000.0 4000.0 4000.0 4000.0 4000.0 4000.0 4000.0 4000.0 4000.0 4000.0 4000.0 4000.0 4000.0 4000.0 4000.0 4000.0 4000.0 4000.0 4000.0 4000.0 4000.0 4000.0 4000.0 4000.0 4000.0 4000.0 4000.0 4000.0 4000.0 4000.0 4000.0 4000.0 4000.0 4000.0 4000.0 4000.0 4000.0 4000.0 4000.0 4000.0 4000.0 4000.0 4000.0 4000.0 4000.0 4000.0 4000.0 4000.0 4000.0 4000.0 4000.0 4000.0 4000.0 4000.0 4000.0 4000.0 4000.0 4000.0 4000.0 4000.0 4000.0 4000.0 4000.0 4000.0 4000.0 4000.0 4000.0 4000.0 4000.0 4000.0 4000.0 4000.0 4000.0 4000.0 4000.0 4000.0 4000.0 4000.0 4000.0 4000.0 4000.0 4000.0 4000.0 4000.0 4000.0 4000.0 4000.0 4000.0 4000.0 4000.0 4000.0 4000.0 4000.0 4000.0 4000.0 4000.0 4000.0 4000.0 4000.0 4000.0 4000.0 4000.0 4000.0 4000.0 4000.0 4000.0 4000.0 4000.0 4000.0 4000.0 4000.0 4000.0 4000.0 4000.0 4000.0 4000.0 4000.0 4000.0 4000.0 4000.0 4000.0 4000.0 4000.0 4000.0 4000.0 4000.0 4000.0 4000.0 4000.0 4000.0 4000.0 4000.0 4000.0 4000.0 4000.0 4000.0 4000.0 4000.0 4000.0 4000.0 4000.0 4000.0 4000.0 4000.0 4000.0 4000.0 4000.0 4000.0 4000.0 4000.0 4000.0 4000.0 4000.0 4000.0 4000.0 4000.0 4000.0 4000.0 4000.0 4000.0 4000.0 4000.0 4000.0 4000.0 4000.0 4000.0 4000.0 4000.0 4000.0 4000.0 4000.0 4000.0 4000.0 4000.0 4000.0 4000.0 4000.0 4000.0 4000.0 4000.0 4000.0 4000.0 4000.0 4000.0 4000.0 4000.0 4000.0 4000.0 4000.0 4000.0 4000.0 4000.0 4000.0 4000.0 4000.0 4000.0 4000.0 4000.0 4000.0 4000.0 4000.0 4000.0 4000.0 4000.0 4000.0 4000.0 4000.0 4000.0 4000.0 4000.0 4000.0 4000.0 4000.0 4000.0 4000.0 4000.0 4000.0 4000.0 4000.0 4000.0 4000.0 4000.0 4000.0 4000.0 4000.0 4000.0 4000.0 4000.0 4000.0 4000.0 4000.0 4000.0 4000.0 4000.0 4000.0 4000.0 4000.0 4000.0 4000.0 4000.0 4000.0 4000.0 4000.0 4000.0 4000.0 4000.0 4000.0 4000.0 4000.0 4000.0 4000.0 4000.0 4000.0 4000.0 4000.0 4000.0 4000.0 4000.0 4000.0 4000.0 4000.0 4000.0 4000.0 4000.0 4000.0 4000.0 4000.0 4000.0 4000.0 4000.0 4000.0 4000.0 4000.0 4000.0 4000.0 4000.0 4000.0 4000.0 4000.0 4000.0 4000.0 4000.0 4000.0 4000.0 4000.0 4000.0 4000.0 4000.0 4000.0 4000.0 4000.0 4000.0 4000.0 4000.0 4000.0 4000.0 4000.0 4000.0 4000.0 4000.0 4000.0 4000.0 4000.0 4000.0 4000.0 4000.0 4000.0 4000.0 4000.0 4000.0 4000.0 4000.0 4000.0 4000.0 4000.0 4000.0 4000.0 4000.0 4000.0 4000.0 4000.0 4000.0 4000.0 4000.0 4000.0 4000.0 4000.0 4000.0 4000.0 4000.0 4000.0 4000.0 4000.0 4000.0 4000.0 4000.0 4000.0 4000.0 4000.0 4000.0 4000.0 4000.0 4000.0 4000.0 4000.0 4000.0 4000.0 4000.0 4000.0 4000.0 4000.0 4000.0 4000.0 4000.0 4000.0 4000.0 4000.0 4000.0 4000.0 4000.0 4000.0 4000.0 4000.0 4000.0 4000.0 4000.0 4000.0 4000.0 4000.0 4000.0 4000.0 4000.0 4000.0 4000.0 4000.0 4000.0 4000.0 4000.0 4000.0 4000.0 4000.0 4000.0 4000.0 4000.0 4000.0 4000.0 4000.0 4000.0 4000.0 4000.0 4000.0 4000.0 4000.0 4000.0 4000.0 4000.0 4000.0 4000.0 4000.0 4000.0 4000.0 4000.0 4000.0 4000.0 4000.0 4000.0 4000.0 4000.0 4000.0 4000.0 4000.0 4000.0 4000.0 4000.0 4000.0 4000.0 4000.0 4000.0 4000.0 4000.0 4000.0 4000.0 4000.0 4000.0 4000.0 4000.0 4000.0 4000.0 4000.0 4000.0 4000.0 4000.0 4000.0 4000.0 4000.0 4000.0 4000.0 4000.0 4000.0 4000.0 4000.0 4000.0 4000.0 4000.0 4000.0 4000.0 4000.0 4000.0 4000.0 4000.0 4000.0 4000.0 4000.0 4000.0 4000.0 4000.0 4000.0 4000.0 4000.0 4000.0 4000.0 4000.0 4000.0 4000.0 4000.0 4000.0 4000.0 4000.0 4000.0 4000.0 4000.0 4000.0 4000.0 4000.0 4000.0 4000.0 4000.0 4000.0 4000.0 4000.0 4000.0 4000.0 4000.0 4000.0 4000.0 4000.0 4000.0 4000.0 4000.0 4000.0 4000.0 4000.0 4000.0 4000.0 4000.0 4000.0 4000.0 4000.0 4000.0 4000.0 4000.0 4000.0 4000.0 4000.0 4000.0 4000.0 4000.0 4000.0 4000.0 4000.0 4000.0 4000.0 4000.0 4000.0 4000.0 4000.0 4000.0 4000.0 4000.0 4000.0 4000.0 4000.0 4000.0 4000.0 4000.0 4000.0 4000.0 4000.0 4000.0 4000.0 4000.0 4000.0 4000.0 4000.0 4000.0 4000.0 4000.0 4000.0 4000.0 4000.0 4000.0 4000.0 4000.0 4000.0 4000.0 4000.0 4000.0 4000.0 4000.0 4000.0 4000.0 4000.0 4000.0 4000.0 4000.0 4000.0 4000.0 4000.0 4000.0 4000.0 4000.0 4000.0 4000.0 4000.0 4000.0 4000.0 4000.0 4000.0 4000.0 4000.0 4000.0 4000.0 4000.0 4000.0 4000.0 4000.0 4000.0 4000.0 4000.0 4000.0 4000.0 4000.0 4000.0 4000.0 4000.0 4000.0 4000.0 4000.0 4000.0 4000.0 4000.0 4000.0 4000.0 4000.0 4000.0 4000.0 4000.0 4000.0 4000.0 4000.0 4000.0 4000.0 4000.0 4000.0 4000.0 4000.0 4000.0 4000.0 4000.0 4000.0 4000.0 4000.0 4000.0 4000.0 4000.0 4000.0 4000.0 4000.0 4000.0 4000.0 4000.0 4000.0 4000.0 4000.0 4000.0 4000.0 4000.0 4000.0 4000.0 4000.0 4000.0 4000.0 4000.0 4000.0 4000.0 4000.0 4000.0 4000.0 4000.0 4000.0 4000.0 4000.0 4000.0 4000.0 4000.0 4000.0 4000.0 4000.0 4000.0 4000.0 4000.0 4000.0 4000.0 4000.0 4000.0 4000.0 4000.0 4000.0 4000.0 4000.0 4000.0 4000.0 4000.0 4000.0 4000.0 4000.0 4000.0 4000.0 4000.0 4000.0 4000.0 4000.0 4000.0 4000.0 4000.0 4000.0 4000.0 4000.0 4000.0 4000.0 4000.0 4000.0 4000.0 4000.0 4000.0 4000.0 4000.0 4000.0 4000.0 4000.0 4000.0 4000.0 4000.0 4000.0 4000.0 4000.0 4000.0 4000.0 4000.0 4000.0 4000.0 4000.0 4000.0 4000.0 4000.0 4000.0 4000.0 4000.0 4000.0 4000.0 4000.0 4000.0 4000.0 4000.0 4000.0 4000.0 4000.0 4000.0 4000.0 4000.0 4000.0 4000.0 4000.0 4000.0 4000.0 4000.0 4000.0 4000.0 4000.0 4000.0 4000.0 4000.0 4000.0 4000.0 4000.0 4000.0 4000.0 4000.0 4000.0 4000.0 4000.0 4000.0 4000.0 4000.0 4000.0 4000.0 4000.0 4000.0 4000.0 4000.0 4000.0 4000.0 4000.0 4000.0 4000.0 4000.0 4000.0 4000.0 4000.0 4000.0 4000.0 4000.0 4000.0 4000.0 4000.0 4000.0 4000.0 4000.0 4000.0 4000.0 4000.0 4000.0 4000.0 4000.0 4000.0 4000.0 4000.0 4000.0 4000.0 4000.0 4000.0 4000.0 4000.0 4000.0 4000.0 4000.0 4000.0 4000.0 4000.0 4000.0 4000.0 4000.0 4000.0 4000.0 4000.0 4000.0 4000.0 4000.0 4000.0 4000.0 4000.0 4000.0 4000.0 4000.0 4000.0 4000.0 4000.0 4000.0 4000.0 4000.0 4000.0 4000.0 4000.0 4000.0 4000.0 4000.0 4000.0 4000.0 4000.0 4000.0 4000.0 4000.0 4000.0 4000.0 4000.0 4000.0 4000.0 4000.0 4000.0 4000.0 4000.0 4000.0 4000.0 4000.0 4000.0 4000.0 4000.0 4000.0 4000.0 4000.0 4000.0 4000.0 4000.0 4000.0 4000.0 4000.0 4000.0 4000.0 4000.0 4000.0 4000.0 4000.0 4000.0 4000.0 4000.0 4000.0 4000.0 4000.0 4000.0 4000.0 4000.0 4000.0 4000.0 4000.0 4000.0 4000.0 4000.0 4000.0 4000.0 4000.0 4000.0 4000.0 4000.0 4000.0 4000.0 4000.0 4000.0 4000.0 4000.0 4000.0 4000.0 4000.0 4000.0 4000.0 4000.0 4000.0 4000.0 4000.0 4000.0 4000.0 4000.0 4000.0 4000.0 4000.0 4000.0 4000.0 4000.0 4000.0 4000.0 4000.0 4000.0 4000.0 4000.0 4000.0 4000.0 4000.0 4000.0 4000.0 4000.0 4000.0 4000.0 4000.0 4000.0 4000.0 4000.0 4000.0 4000.0 4000.0 4000.0 4000.0 4000.0 4000.0 4000.0 4000.0 4000.0 4000.0 4000.0 4000.0 4000.0 4000.0 4000.0 4000.0 4000.0 4000.0 4000.0 4000.0 4000.0 4000.0 4000.0 4000.0 4000.0 4000.0 4000.0 4000.0 4000.0 4000.0 4000.0 4000.0 4000.0 4000.0 4000.0 4000.0 4000.0 4000.0 4000.0 4000.0 4000.0 4000.0 4000.0 4000.0 4000.0 4000.0 4000.0 4000.0 4000.0 4000.0 4000.0 4000.0 4000.0 4000.0 4000.0 4000.0 4000.0 4000.0 4000.0 4000.0 4000.0 4000.0 4000.0 4000.0 4000.0 4000.0 4000.0 4000.0 4000.0 4000.0 4000.0 4000.0 4000.0 4000.0 4000.0 4000.0 4000.0 4000.0 4000.0 4000.0 4000.0 4000.0 4000.0 4000.0 4000.0 4000.0 4000.0 4000.0 4000.0 4000.0 4000.0 4000.0 4000.0 4000.0 4000.0 4000.0 4000.0 4000.0 4000.0 4000.0 4000.0 4000.0 4000.0 4000.0 4000.0 4000.0 4000.0 4000.0 4000.0 4000.0 4000.0 4000.0 4000.0 4000.0 4000.0 4000.0 4000.0 4000.0 4000.0 4000.0 4000.0 4000.0 4000.0 4000.0 4000.0 4000.0 4000.0 4000.0 4000.0 4000.0 4000.0 4000.0 4000.0 4000.0 4000.0 4000.0 4000.0 4000.0 4000.0 4000.0 4000.0 4000.0 4000.0 4000.0 4000.0 4000.0 4000.0 4000.0 4000.0 4000.0 4000.0 4000.0 4000.0 4000.0 4000.0 4000.0 4000.0 4000.0 4000.0 4000.0 4000.0 4000.0 4000.0 4000.0 4000.0 4000.0 4000.0 4000.0 4000.0 4000.0 4000.0 4000.0 4000.0 4000.0 4000.0 4000.0 4000.0 4000.0 4000.0 4000.0 4000.0 4000.0 4000.0 4000.0 4000.0 4000.0 4000.0 4000.0 4000.0 4000.0 4000.0 4000.0 4000.0 4000.0 4000.0 4000.0 4000.0 4000.0 4000.0 4000.0 4000.0 4000.0 4000.0 4000.0 4000.0 4000.0 4000.0 4000.0 4000.0 4000.0 4000.0 4000.0 4000.0 4000.0 4000.0 4000.0 4000.0 4000.0 4000.0 4000.0 4000.0 4000.0 4000.0 4000.0 4000.0 4000.0 4000.0 4000.0 4000.0 4000.0 4000.0 4000.0 4000.0 4000.0 4000.0 4000.0 4000.0 4000.0 4000.0 4000.0 4000.0 4000.0 4000.0 4000.0 4000.0 4000.0 4000.0 4000.0 4000.0 4000.0 4000.0 4000.0 4000.0 4000.0 4000.0 4000.0 4000.0 4000.0 4000.0 4000.0 4000.0 4000.0 4000.0 4000.0 4000.0 4000.0 4000.0 4000.0 4000.0 4000.0 4000.0 4000.0 4000.0 4000.0 4000.0 4000.0 4000.0 4000.0 4000.0 4000.0 4000.0 4000.0 4000.0 4000.0 4000.0 4000.0 4000.0 4000.0 4000.0 4000.0 4000.0 4000.0 4000.0 4000.0 4000.0 4000.0 4000.0 4000.0 4000.0 4000.0 4000.0 4000.0 4000.0 4000.0 4000.0 4000.0 4000.0 4000.0 4000.0 4000.0 4000.0 4000.0 4000.0 4000.0 4000.0 4000.0 4000.0 4000.0 4000.0 4000.0 4000.0 4000.0 4000.0 4000.0 4000.0 4000.0 4000.0 4000.0 4000.0 4000.0 4000.0 4000.0 4000.0 4000.0 4000.0 4000.0 4000.0 4000.0 4000.0 4000.0 4000.0 4000.0 4000.0 4000.0 4000.0 4000.0 4000.0 4000.0 4000.0 4000.0 4000.0 4000.0 4000.0 4000.0 4000.0 4000.0 4000.0 4000.0 4000.0 4000.0 4000.0 4000.0 4000.0 4000.0 4000.0 4000.0 4000.0 4000.0 4000.0 4000.0 4000.0 4000.0 4000.0 4000.0 4000.0 4000.0 4000.0 4000.0 4000.0 4000.0 4000.0 4000.0 4000.0 4000.0 4000.0 4000.0 4000.0 4000.0 4000.0 4000.0 4000.0 4000.0 4000.0 4000.0 4000.0 4000.0 4000.0 4000.0 4000.0 4000.0 4000.0 4000.0 4000.0 4000.0 4000.0 4000.0 4000.0 4000.0 4000.0 4000.0 4000.0 4000.0 4000.0 4000.0 4000.0 4000.0 4000.0 4000.0 4000.0 4000.0 4000.0 4000.0 4000.0 4000.0 4000.0 4000.0 4000.0 4000.0 4000.0 4000.0 4000.0 4000.0 4000.0 4000.0 4000.0 4000.0 4000.0 4000.0 4000.0 4000.0 4000.0 4000.0 4000.0 4000.0 4000.0 4000.0 4000.0 4000.0 4000.0 4000.0 4000.0 4000.0 4000.0 4000.0 4000.0 4000.0 4000.0 4000.0 4000.0 4000.0 4000.0 4000.0 4000.0 4000.0 4000.0 4000.0 4000.0 4000.0 4000.0 4000.0 4000.0 4000.0 4000.0 4000.0 4000.0 4000.0 4000.0 4000.0 4000.0 4000.0 4000.0 4000.0 4000.0 4000.0 4000.0 4000.0 4000.0 4000.0 4000.0 4000.0 4000.0 4000.0 4000.0 4000.0 4000.0 4000.0 4000.0 4000.0 4000.0 4000.0 4000.0 4000.0 4000.0 4000.0 4000.0 4000.0 4000.0 4000.0 4000.0 4000.0 4000.0 4000.0 4000.0 4000.0 4000.0 4000.0 4000.0 4000.0 4000.0 4000.0 4000.0 4000.0 4000.0 4000.0 4000.0 4000.0 4000.0 4000.0 4000.0 4000.0 4000.0 4000.0 4000.0 4000.0 4000.0 4000.0 4000.0 4000.0 4000.0 4000.0 4000.0 4000.0 4000.0 4000.0 4000.0 4000.0 4000.0 4000.0 4000.0 4000.0 4000.0 4000.0 4000.0 4000.0 4000.0 4000.0 4000.0 4000.0 4000.0 4000.0 4000.0 4000.0 4000.0 4000.0 4000.0 4000.0 4000.0 4000.0 4000.0 4000.0 4000.0 4000.0 4000.0 4000.0 4000.0 4000.0 4000.0 4000.0 4000.0 4000.0 4000.0 4000.0 4000.0 4000.0 4000.0 4000.0 4000.0 4000.0 4000.0 4000.0 4000.0 4000.0 4000.0 4000.0 4000.0 4000.0 4000.0 4000.0 4000.0 4000.0 4000.0 4000.0 4000.0 4000.0 4000.0 4000.0 4000.0 4000.0 4000.0 4000.0 4000.0 4000.0 4000.0 4000.0 4000.0 4000.0 4000.0 4000.0 4000.0 4000.0 4000.0 4000.0 4000.0 4000.0 4000.0 4000.0 4000.0 4000.0 4000.0 4000.0 4000.0 4000.0 4000.0 4000.0 4000.0 4000.0 4000.0 4000.0 4000.0 4000.0 4000.0 4000.0 4000.0 4000.0 4000.0 4000.0 4000.0 4000.0 4000.0 4000.0 4000.0 4000.0 4000.0 4000.0 4000.0 4000.0 4000.0 4000.0 4000.0 4000.0 4000.0 4000.0 4000.0 4000.0 4000.0 4000.0 4000.0 4000.0 4000.0 4000.0 4000.0 4000.0 4000.0 4000.0 4000.0 4000.0 4000.0 4000.0 4000.0 4000.0 4000.0 4000.0 4000.0 4000.0 4000.0 4000.0 4000.0 4000.0 4000.0 4000.0 4000.0 4000.0 4000.0 4000.0 4000.0 4000.0 4000.0 4000.0 4000.0 4000.0 4000.0 4000.0 4000.0 4000.0 4000.0 4000.0 4000.0 4000.0 4000.0 4000.0 4000.0 4000.0 4000.0 4000.0 4000.0 4000.0 4000.0 4000.0 4000.0 4000.0 4000.0 4000.0 4000.0 4000.0 4000.0 4000.0 4000.0 4000.0 4000.0 4000.0 4000.0 4000.0 4000.0 4000.0 4000.0 4000.0 4000.0 4000.0 4000.0 4000.0 4000.0 4000.0 4000.0 4000.0 4000.0 4000.0 4000.0 4000.0 4000.0 4000.0 4000.0 4000.0 4000.0 4000.0 4000.0 4000.0 4000.0 4000.0 4000.0 4000.0 4000.0 4000.0 4000.0 4000.0 4000.0 4000.0 4000.0 4000.0 4000.0 4000.0 4000.0 4000.0 4000.0 4000.0 4000.0 4000.0 4000.0 4000.0 4000.0 4000.0 4000.0 4000.0 4000.0 4000.0 4000.0 4000.0 4000.0 4000.0 4000.0 4000.0 4000.0 4000.0 4000.0 4000.0 4000.0 4000.0 4000.0 4000.0 4000.0 4000.0 4000.0 4000.0 4000.0 4000.0 4000.0 4000.0 4000.0 4000.0 4000.0 4000.0 4000.0 4000.0 4000.0 4000.0 4000.0 4000.0 4000.0 4000.0 4000.0 4000.0 4000.0 4000.0 4000.0 4000.0 4000.0 4000.0 4000.0 4000.0 4000.0 4000.0 4000.0 4000.0 4000.0 4000.0 4000.0 4000.0 4000.0 4000.0 4000.0 4000.0 4000.0 4000.0 4000.0 4000.0 4000.0 4000.0 4000.0 4000.0 4000.0 4000.0 4000.0 4000.0 4000.0 4000.0 4000.0 4000.0 4000.0 4000.0 4000.0 4000.0 4000.0 4000.0 4000.0 4000.0 4000.0 4000.0 4000.0 4000.0 4000.0 4000.0 4000.0 4000.0 4000.0 4000.0 4000.0 4000.0 4000.0 4000.0 4000.0 4000.0 4000.0 4000.0 4000.0 4000.0 4000.0 4000.0 4000.0 4000.0 4000.0 4000.0 4000.0 4000.0 4000.0 4000.0 4000.0 4000.0 4000.0 4000.0 4000.0 4000.0 4000.0 4000.0 4000.0 4000.0 4000.0 4000.0 4000.0 4000.0 4000.0 4000.0 4000.0 4000.0 4000.0 4000.0 4000.0 4000.0 4000.0 4000.0 4000.0 4000.0 4000.0 4000.0 4000.0 4000.0 4000.0 4000.0 4000.0 4000.0 4000.0 4000.0 4000.0 4000.0 4000.0 4000.0 4000.0 4000.0 4000.0 4000.0 4000.0 4000.0 4000.0 4000.0 4000.0 4000.0 4000.0 4000.0 4000.0 4000.0 4000.0 4000.0 4000.0 4000.0 4000.0 4000.0 4000.0 4000.0 4000.0 4000.0 4000.0 4000.0 4000.0 4000.0 4000.0 4000.0 4000.0 4000.0 4000.0 4000.0 4000.0 4000.0 4000.0 4000.0 4000.0 4000.0 4000.0 4000.0 4000.0 4000.0 4000.0 4000.0 4000.0 4000.0 4000.0 4000.0 4000.0 4000.0 4000.0 4000.0 4000.0 4000.0 4000.0 4000.0 4000.0 4000.0 4000.0 4000.0 4000.0 4000.0 4000.0 4000.0 4000.0 4000.0 4000.0 4000.0 4000.0 4000.0 4000.0 4000.0 4000.0 4000.0 4000.0 4000.0 4000.0 4000.0 4000.0 4000.0 4000.0 4000.0 4000.0 4000.0 4000.0 4000.0 4000.0 4000.0 4000.0 4000.0 4000.0 4000.0 4000.0 4000.0 4000.0 4000.0 4000.0 4000.0 4000.0 4000.0 4000.0 4000.0 4000.0 4000.0 4000.0 4000.0 4000.0 4000.0 4000.0 4000.0 4000.0 4000.0 4000.0 4000.0 4000.0 4000.0 4000.0 4000.0 4000.0 4000.0 4000.0 4000.0 4000.0 4000.0 4000.0 4000.0 4000.0 4000.0 4000.0 4000.0 4000.0 4000.0 4000.0 4000.0 4000.0 4000.0 4000.0 4000.0 4000.0 4000.0 4000.0 4000.0 4000.0 4000.0 4000.0 4000.0 4000.0 4000.0 4000.0 4000.0 4000.0 4000.0 4000.0 4000.0 4000.0 4000.0 4000.0 4000.0 4000.0 4000.0 4000.0 4000.0 4000.0 4000.0 4000.0 4000.0 4000.0 4000.0 4000.0 4000.0 4000.0 4000.0 4000.0 4000.0 4000.0 4000.0 4000.0 4000.0 4000.0 4000.0 4000.0 4000.0 4000.0 4000.0 4000.0 4000.0 4000.0 4000.0 4000.0 4000.0 4000.0 4000.0 4000.0 4000.0 4000.0 4000.0 4000.0 4000.0 4000.0 4000.0 4000.0 4000.0 4000.0 4000.0 4000.0 4000.0 4000.0 4000.0 4000.0 4000.0 4000.0 4000.0 4000.0 4000.0 4000.0 4000.0 4000.0 4000.0 4000.0 4000.0 4000.0 4000.0 4000.0 4000.0 4000.0 4000.0 4000.0 4000.0 4000.0 4000.0 4000.0 4000.0 4000.0 4000.0 4000.0 4000.0 4000.0 4000.0 4000.0 4000.0 4000.0 4000.0 4000.0 4000.0 4000.0 4000.0 4000.0 4000.0 4000.0 4000.0 4000.0 4000.0 4000.0 4000.0 4000.0 4000.0 4000.0 4000.0 4000.0 4000.0 4000.0 4000.0 4000.0 4000.0 4000.0 4000.0 4000.0 4000.0 4000.0 4000.0 4000.0 4000.0 4000.0 4000.0 4000.0 4000.0 4000.0 4000.0 4000.0 4000.0 4000.0 4000.0 4000.0 4000.0 4000.0 4000.0 4000.0 4000.0 4000.0 4000.0 4000.0 4000.0 4000.0 4000.0 4000.0 4000.0 4000.0 4000.0 4000.0 4000.0 4000.0 4000.0 4000.0 4000.0 4000.0 4000.0 4000.0 4000.0 4000.0 4000.0 4000.0 4000.0 4000.0 4000.0 4000.0 4000.0 4000.0 4000.0 4000.0 4000.0 4000.0 4000.0 4000.0 4000.0 4000.0 4000.0 4000.0 4000.0 4000.0 4000.0 4000.0 4000.0 4000.0 4000.0 4000.0 4000.0 4000.0 4000.0 4000.0 4000.0 4000.0 4000.0 4000.0 4000.0 4000.0 4000.0 4000.0 4000.0 4000.0 4000.0 4000.0 4000.0 4000.0 4000.0 4000.0 4000.0 4000.0 4000.0 4000.0 4000.0 4000.0 4000.0 4000.0 4000.0 4000.0 4000.0 4000.0 4000.0 4000.0 4000.0 4000.0 4000.0 4000.0 4000.0 4000.0 4000.0 4000.0 4000.0 4000.0 4000.0 4000.0 4000.0 4000.0 4000.0 4000.0 4000.0 4000.0 4000.0 4000.0 4000.0 4000.0 4000.0 4000.0 4000.0 4000.0 4000.0 4000.0 4000.0 4000.0 4000.0 4000.0 4000.0 4000.0 4000.0 4000.0 4000.0 4000.0 4000.0 4000.0 4000.0 4000.0 4000.0 4000.0 4000.0 4000.0 4000.0 4000.0 4000.0 4000.0 4000.0 4000.0 4000.0 4000.0 4000.0 4000.0 4000.0 4000.0 4000.0 4000.0 4000.0 4000.0 4000.0 4000.0 4000.0 4000.0 4000.0 4000.0 4000.0 4000.0 4000.0 4000.0 4000.0 4000.0 4000.0 4000.0 4000.0 4000.0 4000.0 4000.0 4000.0 4000.0 4000.0 4000.0 4000.0 4000.0 4000.0 4000.0 4000.0 4000.0 4000.0 4000.0 4000.0 4000.0 4000.0 4000.0 4000.0 4000.0 4000.0 4000.0 4000.0 4000.0 4000.0 4000.0 4000.0 4000.0 4000.0 4000.0 4000.0 4000.0 4000.0 4000.0 4000.0 4000.0 4000.0 4000.0 4000.0 4000.0 4000.0 4000.0 4000.0 4000.0 4000.0 4000.0 4000.0 4000.0 4000.0 4000.0 4000.0 4000.0 4000.0 4000.0 4000.0 4000.0 4000.0 4000.0 4000.0 4000.0 4000.0 4000.0 4000.0 4000.0 4000.0 4000.0 4000.0 4000.0 4000.0 4000.0 4000.0 4000.0 4000.0 4000.0 4000.0 4000.0 4000.0 4000.0 4000.0 4000.0 4000.0 4000.0 4000.0 4000.0 4000.0 4000.0 4000.0 4000.0 4000.0 4000.0 4000.0 4000.0 4000.0 4000.0 4000.0 4000.0 4000.0 4000.0 4000.0 4000.0 4000.0 4000.0 4000.0 4000.0 4000.0 4000.0 4000.0 4000.0 4000.0 4000.0 4000.0 4000.0 4000.0 4000.0 4000.0 4000.0 4000.0 4000.0 4000.0 4000.0 4000.0 4000.0 4000.0 4000.0 4000.0 4000.0 4000.0 4000.0 4000.0 4000.0 4000.0 4000.0 4000.0 4000.0 4000.0 4000.0 4000.0 4000.0 4000.0 4000.0 4000.0 4000.0 4000.0 4000.0 4000.0 4000.0 4000.0 4000.0 4000.0 4000.0 4000.0 4000.0 4000.0 4000.0 4000.0 4000.0 4000.0 4000.0 4000.0 4000.0 4000.0 4000.0 4000.0 4000.0 4000.0 4000.0 4000.0 4000.0 4000.0 4000.0 4000.0 4000.0 4000.0 4000.0 4000.0 4000.0 4000.0 4000.0 4000.0 4000.0 4000.0 4000.0 4000.0 4000.0 4000.0 4000.0 4000.0 4000.0 4000.0 4000.0 4000.0 4000.0 4000.0 4000.0 4000.0 4000.0 4000.0 4000.0 4000.0 4000.0 4000.0 4000.0 4000.0 4000.0 4000.0 4000.0 4000.0 4000.0 4000.0 4000.0 4000.0 4000.0 4000.0 4000.0 4000.0 4000.0 4000.0 4000.0 4000.0 4000.0 4000.0 4000.0 4000.0 4000.0 4000.0 4000.0 4000.0 4000.0 4000.0 4000.0 4000.0 4000.0 4000.0 4000.0 4000.0 4000.0 4000.0 4000.0 4000.0 4000.0 4000.0 4000.0 4000.0 4000.0 4000.0 4000.0 4000.0 4000.0 4000.0 4000.0 4000.0 4000.0 4000.0 4000.0 4000.0 4000.0 4000.0 4000.0 4000.0 4000.0 4000.0 4000.0 4000.0 4000.0 4000.0 4000.0 4000.0 4000.0 4000.0 4000.0 4000.0 4000.0 4000.0 4000.0 4000.0 4000.0 4000.0 4000.0 4000.0 4000.0 4000.0 4000.0 4000.0 4000.0 4000.0 4000.0 4000.0 4000.0 4000.0 4000.0 4000.0 4000.0 4000.0 4000.0 4000.0 4000.0 4000.0 4000.0 4000.0 4000.0 4000.0 4000.0 4000.0 4000.0 4000.0 4000.0 4000.0 4000.0 4000.0 4000.0 4000.0 4000.0 4000.0 4000.0 4000.0 4000.0 4000.0 4000.0 4000.0 4000.0 4000.0 4000.0 4000.0 4000.0 4000.0 4000.0 4000.0 4000.0 4000.0 4000.0 4000.0 4000.0 4000.0 4000.0 4000.0 4000.0 4000.0 4000.0 4000.0 4000.0 4000.0 4000.0 4000.0 4000.0 4000.0 4000.0 4000.0 4000.0 4000.0 4000.0 4000.0 4000.0 4000.0 4000.0 4000.0 4000.0 4000.0 4000.0 4000.0 4000.0 4000.0 4000.0 4000.0 4000.0 4000.0 4000.0 4000.0 4000.0 4000.0 4000.0 4000.0 4000.0 4000.0 4000.0 4000.0 4000.0 4000.0 4000.0 4000.0 4000.0 4000.0 4000.0 4000.0 4000.0 4000.0 4000.0 4000.0 4000.0 4000.0 4000.0 4000.0 4000.0 4000.0 4000.0 4000.0 4000.0 4000.0 4000.0 4000.0 4000.0 4000.0 4000.0 4000.0 4000.0 4000.0 4000.0 4000.0 4000.0 4000.0 4000.0 4000.0 4000.0 4000.0 4000.0 4000.0 4000.0 4000.0 4000.0 4000.0 4000.0 4000.0 4000.0 4000.0 4000.0 4000.0 4000.0 4000.0 4000.0 4000.0 4000.0 4000.0 4000.0 4000.0 4000.0 4000.0 4000.0 4000.0 4000.0 4000.0 4000.0 4000.0 4000.0 4000.0 4000.0 4000.0 4000.0 4000.0 4000.0 4000.0 4000.0 4000.0 4000.0 4000.0 4000.0 4000.0 4000.0 4000.0 4000.0 4000.0 4000.0 4000.0 4000.0 4000.0 4000.0 4000.0 4000.0 4000.0 4000.0 4000.0 4000.0 4000.0 4000.0 4000.0 4000.0 4000.0 4000.0 4000.0 4000.0 4000.0 4000.0 4000.0 4000.0 4000.0 4000.0 4000.0 4000.0 4000.0 4000.0 4000.0 4000.0 4000.0 4000.0 4000.0 4000.0 4000.0 4000.0 4000.0 4000.0 4000.0 4000.0 4000.0 4000.0 4000.0 4000.0 4000.0 4000.0 4000.0 4000.0 4000.0 4000.0 4000.0 4000.0 4000.0 4000.0 4000.0 4000.0 4000.0 4000.0 4000.0 4000.0 4000.0 4000.0 4000.0 4000.0 4000.0 4000.0 4000.0 4000.0 4000.0 4000.0 4000.0 4000.0 4000.0 4000.0 4000.0 4000.0 4000.0 4000.0 4000.0 4000.0 4000.0 4000.0 4000.0 4000.0 4000.0 4000.0 4000.0 4000.0 4000.0 4000.0 4000.0 4000.0 4000.0 4000.0 4000.0 4000.0 4000.0 4000.0 4000.0 4000.0 4000.0 4000.0 4000.0 4000.0 4000.0 4000.0 4000.0 4000.0 4000.0 4000.0 4000.0 4000.0 4000.0 4000.0 4000.0 4000.0 4000.0 4000.0 4000.0 4000.0 4000.0 4000.0 4000.0 4000.0 4000.0 4000.0 4000.0 4000.0 4000.0 4000.0 4000.0 4000.0 4000.0 4000.0 4000.0 4000.0 4000.0 4000.0 4000.0 4000.0 4000.0 4000.0 4000.0 4000.0 4000.0 4000.0 4000.0 4000.0 4000.0 4000.0 4000.0 4000.0 4000.0 4000.0 4000.0 4000.0 4000.0 4000.0 4000.0 4000.0 4000.0 4000.0 4000.0 4000.0 4000.0 4000.0 4000.0 4000.0 4000.0 4000.0 4000.0 4000.0 4000.0 4000.0 4000.0 4000.0 4000.0 4000.0 4000.0 4000.0 4000.0 4000.0 4000.0 4000.0 4000.0 4000.0 4000.0 4000.0 4000.0 4000.0 4000.0 4000.0 4000.0 4000.0 4000.0 4000.0 4000.0 4000.0 4000.0 4000.0 4000.0 4000.0 4000.0 4000.0 4000.0 4000.0 4000.0 4000.0 4000.0 4000.0 4000.0 4000.0 4000.0 4000.0 4000.0 4000.0 4000.0 4000.0 4000.0 4000.0 4000.0 4000.0 4000.0 4000.0 4000.0 4000.0 4000.0 4000.0 4000.0 4000.0 4000.0 4000.0 4000.0 4000.0 4000.0 4000.0 4000.0 4000.0 4000.0 4000.0 4000.0 4000.0 4000.0 4000.0 4000.0 4000.0 4000.0 4000.0 4000.0 4000.0 4000.0 4000.0 4000.0 4000.0 4000.0 4000.0 4000.0 4000.0 4000.0 4000.0 4000.0 4000.0 4000.0 4000.0 4000.0 4000.0 4000.0 4000.0 4000.0 4000.0 4000.0 4000.0 4000.0 4000.0 4000.0 4000.0 4000.0 4000.0 4000.0 4000.0 4000.0 4000.0 4000.0 4000.0 4000.0 4000.0 4000.0 4000.0 4000.0 4000.0 4000.0 4000.0 4000.0 4000.0 4000.0 4000.0 4000.0 4000.0 4000.0 4000.0 4000.0 4000.0 4000.0 4000.0 4000.0 4000.0 4000.0 4000.0 4000.0 4000.0 4000.0 4000.0 4000.0 4000.0 4000.0 4000.0 4000.0 4000.0 4000.0 4000.0 4000.0 4000.0 4000.0 4000.0 4000.0 4000.0 4000.0 4000.0 4000.0 4000.0 4000.0 4000.0 4000.0 4000.0 4000.0 4000.0 4000.0 4000.0 4000.0 4000.0 4000.0 4000.0 4000.0 4000.0 4000.0 4000.0 4000.0 4000.0 4000.0 4000.0 4000.0 4000.0 4000.0 4000.0 4000.0 4000.0 4000.0 4000.0 4000.0 4000.0 4000.0 4000.0 4000.0 4000.0 4000.0 4000.0 4000.0 4000.0 4000.0 4000.0 4000.0 4000.0 4000.0 4000.0 4000.0 4000.0 4000.0 4000.0 4000.0 4000.0 4000.0 4000.0 4000.0 4000.0 4000.0 4000.0 4000.0 4000.0 4000.0 4000.0 4000.0 4000.0 4000.0 4000.0 4000.0 4000.0 4000.0 4000.0 4000.0 4000.0 4000.0 4000.0 4000.0 4000.0 4000.0 4000.0 4000.0 4000.0 4000.0 4000.0 4000.0 4000.0 4000.0 4000.0 4000.0 4000.0 4000.0 4000.0 4000.0 4000.0 4000.0 4000.0 4000.0 4000.0 4000.0 4000.0 4000.0 4000.0 4000.0 4000.0 4000.0 4000.0 4000.0 4000.0 4000.0 4000.0 4000.0 4000.0 4000.0 4000.0 4000.0 4000.0 4000.0 4000.0 4000.0 4000.0 4000.0 4000.0 4000.0 4000.0 4000.0 4000.0 4000.0 4000.0 4000.0 4000.0 4000.0 4000.0 4000.0 4000.0 4000.0 4000.0 4000.0 4000.0 4000.0 4000.0 4000.0 4000.0 4000.0 4000.0 4000.0 4000.0 4000.0 4000.0 4000.0 4000.0 4000.0 4000.0 4000.0 4000.0 4000.0 4000.0 4000.0 4000.0 4000.0 4000.0 4000.0 4000.0 4000.0 4000.0 4000.0 4000.0 4000.0 4000.0 4000.0 4000.0 4000.0 4000.0 4000.0 4000.0 4000.0 4000.0 4000.0 4000.0 4000.0 4000.0 4000.0 4000.0 4000.0 4000.0 4000.0 4000.0 4000.0 4000.0 4000.0 4000.0 4000.0 4000.0 4000.0 4000.0 4000.0 4000.0 4000.0 4000.0 4000.0 4000.0 4000.0 4000.0 4000.0 4000.0 4000.0 4000.0 4000.0 4000.0 4000.0 4000.0 4000.0 4000.0 4000.0 4000.0 4000.0 4000.0 4000.0 4000.0 4000.0 4000.0 4000.0 4000.0 4000.0 4000.0 4000.0 4000.0 4000.0 4000.0 4000.0 4000.0 4000.0 4000.0 4000.0 4000.0 4000.0 4000.0 4000.0 4000.0 4000.0 4000.0 4000.0 4000.0 4000.0 4000.0 4000.0 4000.0 4000.0 4000.0 4000.0 4000.0 4000.0 4000.0 4000.0 4000.0 4000.0 4000.0 4000.0 4000.0 4000.0 4000.0 4000.0 4000.0 4000.0 4000.0 4000.0 4000.0 4000.0 4000.0 4000.0 4000.0 4000.0 4000.0 4000.0 4000.0 4000.0 4000.0 4000.0 4000.0 4000.0 4000.0 4000.0 4000.0 4000.0 4000.0 4000.0 4000.0 4000.0 4000.0 4000.0 4000.0 4000.0 4000.0 4000.0 4000.0 4000.0 4000.0 4000.0 4000.0 4000.0 4000.0 4000.0 4000.0 4000.0 4000.0 4000.0 4000.0 4000.0 4000.0 4000.0 4000.0 4000.0 4000.0 4000.0 4000.0 4000.0 4000.0 4000.0 4000.0 4000.0 4000.0 4000.0 4000.0 4000.0 4000.0 4000.0 4000.0 4000.0 4000.0 4000.0 4000.0 4000.0 4000.0 4000.0 4000.0 4000.0 4000.0 4000.0 4000.0 4000.0 4000.0 4000.0 4000.0 4000.0 4000.0 4000.0 4000.0 4000.0 4000.0 4000.0 4000.0 4000.0 4000.0 4000.0 4000.0 4000.0 4000.0 4000.0 4000.0 4000.0 4000.0 4000.0 4000.0 4000.0 4000.0 4000.0 4000.0 4000.0 4000.0 4000.0 4000.0 4000.0 4000.0 4000.0 4000.0 4000.0 4000.0 4000.0 4000.0 4000.0 4000.0 4000.0 4000.0 4000.0 4000.0 4000.0 4000.0 4000.0 4000.0 4000.0 4000.0 4000.0 4000.0 4000.0 4000.0 4000.0 4000.0 4000.0 4000.0 4000.0 4000.0 4000.0 4000.0 4000.0 4000.0 4000.0 4000.0 4000.0 4000.0 4000.0 4000.0 4000.0 4000.0 4000.0 4000.0 4000.0 4000.0 4000.0 4000.0 4000.0 4000.0 4000.0 4000.0 4000.0 4000.0 4000.0 4000.0 4000.0 4000.0 4000.0 4000.0 4000.0 4000.0 4000.0 4000.0 4000.0 4000.0 4000.0 4000.0 4000.0 4000.0 4000.0 4000.0 4000.0 4000.0 4000.0 4000.0 4000.0 4000.0 4000.0 4000.0 4000.0 4000.0 4000.0 4000.0 4000.0 4000.0 4000.0 4000.0 4000.0 4000.0 4000.0 4000.0 4000.0 4000.0 4000.0 4000.0 4000.0 4000.0 4000.0 4000.0 4000.0 4000.0 4000.0 4000.0 4000.0 4000.0 4000.0 4000.0 4000.0 4000.0 4000.0 4000.0 4000.0 4000.0 4000.0 4000.0 4000.0 4000.0 4000.0 4000.0 4000.0 4000.0 4000.0 4000.0 4000.0 4000.0 4000.0 4000.0 4000.0 4000.0 4000.0 4000.0 4000.0 4000.0 4000.0 4000.0 4000.0 4000.0 4000.0 4000.0 4000.0 4000.0 4000.0 4000.0 4000.0 4000.0 4000.0 4000.0 4000.0 4000.0 4000.0 4000.0 4000.0 4000.0 4000.0 4000.0 4000.0 4000.0 4000.0 4000.0 4000.0 4000.0 4000.0 4000.0 4000.0 4000.0 4000.0 4000.0 4000.0 4000.0 SCALARS Mass float 1
LOOKUP_TABLE default
11309700000.0 11309700000.0 11309700000.0 11309700000.0 11309700000.0 11309700000.0 11309700000.0 11309700000.0 11309700000.0 11309700000.0 11309700000.0 11309700000.0 11309700000.0 11309700000.0 11309700000.0 11309700000.0 11309700000.0 11309700000.0 11309700000.0 11309700000.0 11309700000.0 11309700000.0 11309700000.0 11309700000.0 11309700000.0 11309700000.0 11309700000.0 11309700000.0 11309700000.0 11309700000.0 11309700000.0 11309700000.0 11309700000.0 11309700000.0 11309700000.0 11309700000.0 11309700000.0 11309700000.0 11309700000.0 11309700000.0 11309700000.0 11309700000.0 11309700000.0 11309700000.0 11309700000.0 11309700000.0 11309700000.0 11309700000.0 11309700000.0 11309700000.0 11309700000.0 11309700000.0 11309700000.0 11309700000.0 11309700000.0 11309700000.0 11309700000.0 11309700000.0 11309700000.0 11309700000.0 11309700000.0 11309700000.0 11309700000.0 11309700000.0 11309700000.0 11309700000.0 11309700000.0 11309700000.0 11309700000.0 11309700000.0 11309700000.0 11309700000.0 11309700000.0 11309700000.0 11309700000.0 11309700000.0 11309700000.0 11309700000.0 11309700000.0 11309700000.0 11309700000.0 11309700000.0 11309700000.0 11309700000.0 11309700000.0 11309700000.0 11309700000.0 11309700000.0 11309700000.0 11309700000.0 11309700000.0 11309700000.0 11309700000.0 11309700000.0 11309700000.0 11309700000.0 11309700000.0 11309700000.0 11309700000.0 11309700000.0 11309700000.0 11309700000.0 11309700000.0 11309700000.0 11309700000.0 11309700000.0 11309700000.0 11309700000.0 11309700000.0 11309700000.0 11309700000.0 11309700000.0 11309700000.0 11309700000.0 11309700000.0 11309700000.0 11309700000.0 11309700000.0 11309700000.0 11309700000.0 11309700000.0 11309700000.0 11309700000.0 11309700000.0 11309700000.0 11309700000.0 11309700000.0 11309700000.0 11309700000.0 11309700000.0 11309700000.0 11309700000.0 11309700000.0 11309700000.0 11309700000.0 11309700000.0 11309700000.0 11309700000.0 11309700000.0 11309700000.0 11309700000.0 11309700000.0 11309700000.0 11309700000.0 11309700000.0 11309700000.0 11309700000.0 11309700000.0 11309700000.0 11309700000.0 11309700000.0 11309700000.0 11309700000.0 11309700000.0 11309700000.0 11309700000.0 11309700000.0 11309700000.0 11309700000.0 11309700000.0 11309700000.0 11309700000.0 11309700000.0 11309700000.0 11309700000.0 11309700000.0 11309700000.0 11309700000.0 11309700000.0 11309700000.0 11309700000.0 11309700000.0 11309700000.0 11309700000.0 11309700000.0 11309700000.0 11309700000.0 11309700000.0 11309700000.0 11309700000.0 11309700000.0 11309700000.0 11309700000.0 11309700000.0 11309700000.0 11309700000.0 11309700000.0 11309700000.0 11309700000.0 11309700000.0 11309700000.0 11309700000.0 11309700000.0 11309700000.0 11309700000.0 11309700000.0 11309700000.0 11309700000.0 11309700000.0 11309700000.0 11309700000.0 11309700000.0 11309700000.0 11309700000.0 11309700000.0 11309700000.0 11309700000.0 11309700000.0 11309700000.0 11309700000.0 11309700000.0 11309700000.0 11309700000.0 11309700000.0 11309700000.0 11309700000.0 11309700000.0 11309700000.0 11309700000.0 11309700000.0 11309700000.0 11309700000.0 11309700000.0 11309700000.0 11309700000.0 11309700000.0 11309700000.0 11309700000.0 11309700000.0 11309700000.0 11309700000.0 11309700000.0 11309700000.0 11309700000.0 11309700000.0 11309700000.0 11309700000.0 11309700000.0 11309700000.0 11309700000.0 11309700000.0 11309700000.0 11309700000.0 11309700000.0 11309700000.0 11309700000.0 11309700000.0 11309700000.0 11309700000.0 11309700000.0 11309700000.0 11309700000.0 11309700000.0 11309700000.0 11309700000.0 11309700000.0 11309700000.0 11309700000.0 11309700000.0 11309700000.0 11309700000.0 11309700000.0 11309700000.0 11309700000.0 11309700000.0 11309700000.0 11309700000.0 11309700000.0 11309700000.0 11309700000.0 11309700000.0 11309700000.0 11309700000.0 11309700000.0 11309700000.0 11309700000.0 11309700000.0 11309700000.0 11309700000.0 11309700000.0 11309700000.0 11309700000.0 11309700000.0 11309700000.0 11309700000.0 11309700000.0 11309700000.0 11309700000.0 11309700000.0 11309700000.0 11309700000.0 11309700000.0 11309700000.0 11309700000.0 11309700000.0 11309700000.0 11309700000.0 11309700000.0 11309700000.0 11309700000.0 11309700000.0 11309700000.0 11309700000.0 11309700000.0 11309700000.0 11309700000.0 11309700000.0 11309700000.0 11309700000.0 11309700000.0 11309700000.0 11309700000.0 11309700000.0 11309700000.0 11309700000.0 11309700000.0 11309700000.0 11309700000.0 11309700000.0 11309700000.0 11309700000.0 11309700000.0 11309700000.0 11309700000.0 11309700000.0 11309700000.0 11309700000.0 11309700000.0 11309700000.0 11309700000.0 11309700000.0 11309700000.0 11309700000.0 11309700000.0 11309700000.0 11309700000.0 11309700000.0 11309700000.0 11309700000.0 11309700000.0 11309700000.0 11309700000.0 11309700000.0 11309700000.0 11309700000.0 11309700000.0 11309700000.0 11309700000.0 11309700000.0 11309700000.0 11309700000.0 11309700000.0 11309700000.0 11309700000.0 11309700000.0 11309700000.0 11309700000.0 11309700000.0 11309700000.0 11309700000.0 11309700000.0 11309700000.0 11309700000.0 11309700000.0 11309700000.0 11309700000.0 11309700000.0 11309700000.0 11309700000.0 11309700000.0 11309700000.0 11309700000.0 11309700000.0 11309700000.0 11309700000.0 11309700000.0 11309700000.0 11309700000.0 11309700000.0 11309700000.0 11309700000.0 11309700000.0 11309700000.0 11309700000.0 11309700000.0 11309700000.0 11309700000.0 11309700000.0 11309700000.0 11309700000.0 11309700000.0 11309700000.0 11309700000.0 11309700000.0 11309700000.0 11309700000.0 11309700000.0 11309700000.0 11309700000.0 11309700000.0 11309700000.0 11309700000.0 11309700000.0 11309700000.0 11309700000.0 11309700000.0 11309700000.0 11309700000.0 11309700000.0 11309700000.0 11309700000.0 11309700000.0 11309700000.0 11309700000.0 11309700000.0 11309700000.0 11309700000.0 11309700000.0 11309700000.0 11309700000.0 11309700000.0 11309700000.0 11309700000.0 11309700000.0 11309700000.0 11309700000.0 11309700000.0 11309700000.0 11309700000.0 11309700000.0 11309700000.0 11309700000.0 11309700000.0 11309700000.0 11309700000.0 11309700000.0 11309700000.0 11309700000.0 11309700000.0 11309700000.0 11309700000.0 11309700000.0 11309700000.0 11309700000.0 11309700000.0 11309700000.0 11309700000.0 11309700000.0 11309700000.0 11309700000.0 11309700000.0 11309700000.0 11309700000.0 11309700000.0 11309700000.0 11309700000.0 11309700000.0 11309700000.0 11309700000.0 11309700000.0 11309700000.0 11309700000.0 11309700000.0 11309700000.0 11309700000.0 11309700000.0 11309700000.0 11309700000.0 11309700000.0 11309700000.0 11309700000.0 11309700000.0 11309700000.0 11309700000.0 11309700000.0 11309700000.0 11309700000.0 11309700000.0 11309700000.0 11309700000.0 11309700000.0 11309700000.0 11309700000.0 11309700000.0 11309700000.0 11309700000.0 11309700000.0 11309700000.0 11309700000.0 11309700000.0 11309700000.0 11309700000.0 11309700000.0 11309700000.0 11309700000.0 11309700000.0 11309700000.0 11309700000.0 11309700000.0 11309700000.0 11309700000.0 11309700000.0 11309700000.0 11309700000.0 11309700000.0 11309700000.0 11309700000.0 11309700000.0 11309700000.0 11309700000.0 11309700000.0 11309700000.0 11309700000.0 11309700000.0 11309700000.0 11309700000.0 11309700000.0 11309700000.0 11309700000.0 11309700000.0 11309700000.0 11309700000.0 11309700000.0 11309700000.0 11309700000.0 11309700000.0 11309700000.0 11309700000.0 11309700000.0 11309700000.0 11309700000.0 11309700000.0 11309700000.0 11309700000.0 11309700000.0 11309700000.0 11309700000.0 11309700000.0 11309700000.0 11309700000.0 11309700000.0 11309700000.0 11309700000.0 11309700000.0 11309700000.0 11309700000.0 11309700000.0 11309700000.0 11309700000.0 11309700000.0 11309700000.0 11309700000.0 11309700000.0 11309700000.0 11309700000.0 11309700000.0 11309700000.0 11309700000.0 11309700000.0 11309700000.0 11309700000.0 11309700000.0 11309700000.0 11309700000.0 11309700000.0 11309700000.0 11309700000.0 11309700000.0 11309700000.0 11309700000.0 11309700000.0 11309700000.0 11309700000.0 11309700000.0 11309700000.0 11309700000.0 11309700000.0 11309700000.0 11309700000.0 11309700000.0 11309700000.0 11309700000.0 11309700000.0 11309700000.0 11309700000.0 11309700000.0 11309700000.0 11309700000.0 11309700000.0 11309700000.0 11309700000.0 11309700000.0 11309700000.0 11309700000.0 11309700000.0 11309700000.0 11309700000.0 11309700000.0 11309700000.0 11309700000.0 11309700000.0 11309700000.0 11309700000.0 11309700000.0 11309700000.0 11309700000.0 11309700000.0 11309700000.0 11309700000.0 11309700000.0 11309700000.0 11309700000.0 11309700000.0 11309700000.0 11309700000.0 11309700000.0 11309700000.0 11309700000.0 11309700000.0 11309700000.0 11309700000.0 11309700000.0 11309700000.0 11309700000.0 11309700000.0 11309700000.0 11309700000.0 11309700000.0 11309700000.0 11309700000.0 11309700000.0 11309700000.0 11309700000.0 11309700000.0 11309700000.0 11309700000.0 11309700000.0 11309700000.0 11309700000.0 11309700000.0 11309700000.0 11309700000.0 11309700000.0 11309700000.0 11309700000.0 11309700000.0 11309700000.0 11309700000.0 11309700000.0 11309700000.0 11309700000.0 11309700000.0 11309700000.0 11309700000.0 11309700000.0 11309700000.0 11309700000.0 11309700000.0 11309700000.0 11309700000.0 11309700000.0 11309700000.0 11309700000.0 11309700000.0 11309700000.0 11309700000.0 11309700000.0 11309700000.0 11309700000.0 11309700000.0 11309700000.0 11309700000.0 11309700000.0 11309700000.0 11309700000.0 11309700000.0 11309700000.0 11309700000.0 11309700000.0 11309700000.0 11309700000.0 11309700000.0 11309700000.0 11309700000.0 11309700000.0 11309700000.0 11309700000.0 11309700000.0 11309700000.0 11309700000.0 11309700000.0 11309700000.0 11309700000.0 11309700000.0 11309700000.0 11309700000.0 11309700000.0 11309700000.0 11309700000.0 11309700000.0 11309700000.0 11309700000.0 11309700000.0 11309700000.0 11309700000.0 11309700000.0 11309700000.0 11309700000.0 11309700000.0 11309700000.0 11309700000.0 11309700000.0 11309700000.0 11309700000.0 11309700000.0 11309700000.0 11309700000.0 11309700000.0 11309700000.0 11309700000.0 11309700000.0 11309700000.0 11309700000.0 11309700000.0 11309700000.0 11309700000.0 11309700000.0 11309700000.0 11309700000.0 11309700000.0 11309700000.0 11309700000.0 11309700000.0 11309700000.0 11309700000.0 11309700000.0 11309700000.0 11309700000.0 11309700000.0 11309700000.0 11309700000.0 11309700000.0 11309700000.0 11309700000.0 11309700000.0 11309700000.0 11309700000.0 11309700000.0 11309700000.0 11309700000.0 11309700000.0 11309700000.0 11309700000.0 11309700000.0 11309700000.0 11309700000.0 11309700000.0 11309700000.0 11309700000.0 11309700000.0 11309700000.0 11309700000.0 11309700000.0 11309700000.0 11309700000.0 11309700000.0 11309700000.0 11309700000.0 11309700000.0 11309700000.0 11309700000.0 11309700000.0 11309700000.0 11309700000.0 11309700000.0 11309700000.0 11309700000.0 11309700000.0 11309700000.0 11309700000.0 11309700000.0 11309700000.0 11309700000.0 11309700000.0 11309700000.0 11309700000.0 11309700000.0 11309700000.0 11309700000.0 11309700000.0 11309700000.0 11309700000.0 11309700000.0 11309700000.0 11309700000.0 11309700000.0 11309700000.0 11309700000.0 11309700000.0 11309700000.0 11309700000.0 11309700000.0 11309700000.0 11309700000.0 11309700000.0 11309700000.0 11309700000.0 11309700000.0 11309700000.0 11309700000.0 11309700000.0 11309700000.0 11309700000.0 11309700000.0 11309700000.0 11309700000.0 11309700000.0 11309700000.0 11309700000.0 11309700000.0 11309700000.0 11309700000.0 11309700000.0 11309700000.0 11309700000.0 11309700000.0 11309700000.0 11309700000.0 11309700000.0 11309700000.0 11309700000.0 11309700000.0 11309700000.0 11309700000.0 11309700000.0 11309700000.0 11309700000.0 11309700000.0 11309700000.0 11309700000.0 11309700000.0 11309700000.0 11309700000.0 11309700000.0 11309700000.0 11309700000.0 11309700000.0 11309700000.0 11309700000.0 11309700000.0 11309700000.0 11309700000.0 11309700000.0 11309700000.0 11309700000.0 11309700000.0 11309700000.0 11309700000.0 11309700000.0 11309700000.0 11309700000.0 11309700000.0 11309700000.0 11309700000.0 11309700000.0 11309700000.0 11309700000.0 11309700000.0 11309700000.0 11309700000.0 11309700000.0 11309700000.0 11309700000.0 11309700000.0 11309700000.0 11309700000.0 11309700000.0 11309700000.0 11309700000.0 11309700000.0 11309700000.0 11309700000.0 11309700000.0 11309700000.0 11309700000.0 11309700000.0 11309700000.0 11309700000.0 11309700000.0 11309700000.0 11309700000.0 11309700000.0 11309700000.0 11309700000.0 11309700000.0 11309700000.0 11309700000.0 11309700000.0 11309700000.0 11309700000.0 11309700000.0 11309700000.0 11309700000.0 11309700000.0 11309700000.0 11309700000.0 11309700000.0 11309700000.0 11309700000.0 11309700000.0 11309700000.0 11309700000.0 11309700000.0 11309700000.0 11309700000.0 11309700000.0 11309700000.0 11309700000.0 11309700000.0 11309700000.0 11309700000.0 11309700000.0 11309700000.0 11309700000.0 11309700000.0 11309700000.0 11309700000.0 11309700000.0 11309700000.0 11309700000.0 11309700000.0 11309700000.0 11309700000.0 11309700000.0 11309700000.0 11309700000.0 11309700000.0 11309700000.0 11309700000.0 11309700000.0 11309700000.0 11309700000.0 11309700000.0 11309700000.0 11309700000.0 11309700000.0 11309700000.0 11309700000.0 11309700000.0 11309700000.0 11309700000.0 11309700000.0 11309700000.0 11309700000.0 11309700000.0 11309700000.0 11309700000.0 11309700000.0 11309700000.0 11309700000.0 11309700000.0 11309700000.0 11309700000.0 11309700000.0 11309700000.0 11309700000.0 11309700000.0 11309700000.0 11309700000.0 11309700000.0 11309700000.0 11309700000.0 11309700000.0 11309700000.0 11309700000.0 11309700000.0 11309700000.0 11309700000.0 11309700000.0 11309700000.0 11309700000.0 11309700000.0 11309700000.0 11309700000.0 11309700000.0 11309700000.0 11309700000.0 11309700000.0 11309700000.0 11309700000.0 11309700000.0 11309700000.0 11309700000.0 11309700000.0 11309700000.0 11309700000.0 11309700000.0 11309700000.0 11309700000.0 11309700000.0 11309700000.0 11309700000.0 11309700000.0 11309700000.0 11309700000.0 11309700000.0 11309700000.0 11309700000.0 11309700000.0 11309700000.0 11309700000.0 11309700000.0 11309700000.0 11309700000.0 11309700000.0 11309700000.0 11309700000.0 11309700000.0 11309700000.0 11309700000.0 11309700000.0 11309700000.0 11309700000.0 11309700000.0 11309700000.0 11309700000.0 11309700000.0 11309700000.0 11309700000.0 11309700000.0 11309700000.0 11309700000.0 11309700000.0 11309700000.0 11309700000.0 11309700000.0 11309700000.0 11309700000.0 11309700000.0 11309700000.0 11309700000.0 11309700000.0 11309700000.0 11309700000.0 11309700000.0 11309700000.0 11309700000.0 11309700000.0 11309700000.0 11309700000.0 11309700000.0 11309700000.0 11309700000.0 11309700000.0 11309700000.0 11309700000.0 11309700000.0 11309700000.0 11309700000.0 11309700000.0 11309700000.0 11309700000.0 11309700000.0 11309700000.0 11309700000.0 11309700000.0 11309700000.0 11309700000.0 11309700000.0 11309700000.0 11309700000.0 11309700000.0 11309700000.0 11309700000.0 11309700000.0 11309700000.0 11309700000.0 11309700000.0 11309700000.0 11309700000.0 11309700000.0 11309700000.0 11309700000.0 11309700000.0 11309700000.0 11309700000.0 11309700000.0 11309700000.0 11309700000.0 11309700000.0 11309700000.0 11309700000.0 11309700000.0 11309700000.0 11309700000.0 11309700000.0 11309700000.0 11309700000.0 11309700000.0 11309700000.0 11309700000.0 11309700000.0 11309700000.0 11309700000.0 11309700000.0 11309700000.0 11309700000.0 11309700000.0 11309700000.0 11309700000.0 11309700000.0 11309700000.0 11309700000.0 11309700000.0 11309700000.0 11309700000.0 11309700000.0 11309700000.0 11309700000.0 11309700000.0 11309700000.0 11309700000.0 11309700000.0 11309700000.0 11309700000.0 11309700000.0 11309700000.0 11309700000.0 11309700000.0 11309700000.0 11309700000.0 11309700000.0 11309700000.0 11309700000.0 11309700000.0 11309700000.0 11309700000.0 11309700000.0 11309700000.0 11309700000.0 11309700000.0 11309700000.0 11309700000.0 11309700000.0 11309700000.0 11309700000.0 11309700000.0 11309700000.0 11309700000.0 11309700000.0 11309700000.0 11309700000.0 11309700000.0 11309700000.0 11309700000.0 11309700000.0 11309700000.0 11309700000.0 11309700000.0 11309700000.0 11309700000.0 11309700000.0 11309700000.0 11309700000.0 11309700000.0 11309700000.0 11309700000.0 11309700000.0 11309700000.0 11309700000.0 11309700000.0 11309700000.0 11309700000.0 11309700000.0 11309700000.0 11309700000.0 11309700000.0 11309700000.0 11309700000.0 11309700000.0 11309700000.0 11309700000.0 11309700000.0 11309700000.0 11309700000.0 11309700000.0 11309700000.0 11309700000.0 11309700000.0 11309700000.0 11309700000.0 11309700000.0 11309700000.0 11309700000.0 11309700000.0 11309700000.0 11309700000.0 11309700000.0 11309700000.0 11309700000.0 11309700000.0 11309700000.0 11309700000.0 11309700000.0 11309700000.0 11309700000.0 11309700000.0 11309700000.0 11309700000.0 11309700000.0 11309700000.0 11309700000.0 11309700000.0 11309700000.0 11309700000.0 11309700000.0 11309700000.0 11309700000.0 11309700000.0 11309700000.0 11309700000.0 11309700000.0 11309700000.0 11309700000.0 11309700000.0 11309700000.0 11309700000.0 11309700000.0 11309700000.0 11309700000.0 11309700000.0 11309700000.0 11309700000.0 11309700000.0 11309700000.0 11309700000.0 11309700000.0 11309700000.0 11309700000.0 11309700000.0 11309700000.0 11309700000.0 11309700000.0 11309700000.0 11309700000.0 11309700000.0 11309700000.0 11309700000.0 11309700000.0 11309700000.0 11309700000.0 11309700000.0 11309700000.0 11309700000.0 11309700000.0 11309700000.0 11309700000.0 11309700000.0 11309700000.0 11309700000.0 11309700000.0 11309700000.0 11309700000.0 11309700000.0 11309700000.0 11309700000.0 11309700000.0 11309700000.0 11309700000.0 11309700000.0 11309700000.0 11309700000.0 11309700000.0 11309700000.0 11309700000.0 11309700000.0 11309700000.0 11309700000.0 11309700000.0 11309700000.0 11309700000.0 11309700000.0 11309700000.0 11309700000.0 11309700000.0 11309700000.0 11309700000.0 11309700000.0 11309700000.0 11309700000.0 11309700000.0 11309700000.0 11309700000.0 11309700000.0 11309700000.0 11309700000.0 11309700000.0 11309700000.0 11309700000.0 11309700000.0 11309700000.0 11309700000.0 11309700000.0 11309700000.0 11309700000.0 11309700000.0 11309700000.0 11309700000.0 11309700000.0 11309700000.0 11309700000.0 11309700000.0 11309700000.0 11309700000.0 11309700000.0 11309700000.0 11309700000.0 11309700000.0 11309700000.0 11309700000.0 11309700000.0 11309700000.0 11309700000.0 11309700000.0 11309700000.0 11309700000.0 11309700000.0 11309700000.0 11309700000.0 11309700000.0 11309700000.0 11309700000.0 11309700000.0 11309700000.0 11309700000.0 11309700000.0 11309700000.0 11309700000.0 11309700000.0 11309700000.0 11309700000.0 11309700000.0 11309700000.0 11309700000.0 11309700000.0 11309700000.0 11309700000.0 11309700000.0 11309700000.0 11309700000.0 11309700000.0 11309700000.0 11309700000.0 11309700000.0 11309700000.0 11309700000.0 11309700000.0 11309700000.0 11309700000.0 11309700000.0 11309700000.0 11309700000.0 11309700000.0 11309700000.0 11309700000.0 11309700000.0 11309700000.0 11309700000.0 11309700000.0 11309700000.0 11309700000.0 11309700000.0 11309700000.0 11309700000.0 11309700000.0 11309700000.0 11309700000.0 11309700000.0 11309700000.0 11309700000.0 11309700000.0 11309700000.0 11309700000.0 11309700000.0 11309700000.0 11309700000.0 11309700000.0 11309700000.0 11309700000.0 11309700000.0 11309700000.0 11309700000.0 11309700000.0 11309700000.0 11309700000.0 11309700000.0 11309700000.0 11309700000.0 11309700000.0 11309700000.0 11309700000.0 11309700000.0 11309700000.0 11309700000.0 11309700000.0 11309700000.0 11309700000.0 11309700000.0 11309700000.0 11309700000.0 11309700000.0 11309700000.0 11309700000.0 11309700000.0 11309700000.0 11309700000.0 11309700000.0 11309700000.0 11309700000.0 11309700000.0 11309700000.0 11309700000.0 11309700000.0 11309700000.0 11309700000.0 11309700000.0 11309700000.0 11309700000.0 11309700000.0 11309700000.0 11309700000.0 11309700000.0 11309700000.0 11309700000.0 11309700000.0 11309700000.0 11309700000.0 11309700000.0 11309700000.0 11309700000.0 11309700000.0 11309700000.0 11309700000.0 11309700000.0 11309700000.0 11309700000.0 11309700000.0 11309700000.0 11309700000.0 11309700000.0 11309700000.0 11309700000.0 11309700000.0 11309700000.0 11309700000.0 11309700000.0 11309700000.0 11309700000.0 11309700000.0 11309700000.0 11309700000.0 11309700000.0 11309700000.0 11309700000.0 11309700000.0 11309700000.0 11309700000.0 11309700000.0 11309700000.0 11309700000.0 11309700000.0 11309700000.0 11309700000.0 11309700000.0 11309700000.0 11309700000.0 11309700000.0 11309700000.0 11309700000.0 11309700000.0 11309700000.0 11309700000.0 11309700000.0 11309700000.0 11309700000.0 11309700000.0 11309700000.0 11309700000.0 11309700000.0 11309700000.0 11309700000.0 11309700000.0 11309700000.0 11309700000.0 11309700000.0 11309700000.0 11309700000.0 11309700000.0 11309700000.0 11309700000.0 11309700000.0 11309700000.0 11309700000.0 11309700000.0 11309700000.0 11309700000.0 11309700000.0 11309700000.0 11309700000.0 11309700000.0 11309700000.0 11309700000.0 11309700000.0 11309700000.0 11309700000.0 11309700000.0 11309700000.0 11309700000.0 11309700000.0 11309700000.0 11309700000.0 11309700000.0 11309700000.0 11309700000.0 11309700000.0 11309700000.0 11309700000.0 11309700000.0 11309700000.0 11309700000.0 11309700000.0 11309700000.0 11309700000.0 11309700000.0 11309700000.0 11309700000.0 11309700000.0 11309700000.0 11309700000.0 11309700000.0 11309700000.0 11309700000.0 11309700000.0 11309700000.0 11309700000.0 11309700000.0 11309700000.0 11309700000.0 11309700000.0 11309700000.0 11309700000.0 11309700000.0 11309700000.0 11309700000.0 11309700000.0 11309700000.0 11309700000.0 11309700000.0 11309700000.0 11309700000.0 11309700000.0 11309700000.0 11309700000.0 11309700000.0 11309700000.0 11309700000.0 11309700000.0 11309700000.0 11309700000.0 11309700000.0 11309700000.0 11309700000.0 11309700000.0 11309700000.0 11309700000.0 11309700000.0 11309700000.0 11309700000.0 11309700000.0 11309700000.0 11309700000.0 11309700000.0 11309700000.0 11309700000.0 11309700000.0 11309700000.0 11309700000.0 11309700000.0 11309700000.0 11309700000.0 11309700000.0 11309700000.0 11309700000.0 11309700000.0 11309700000.0 11309700000.0 11309700000.0 11309700000.0 11309700000.0 11309700000.0 11309700000.0 11309700000.0 11309700000.0 11309700000.0 11309700000.0 11309700000.0 11309700000.0 11309700000.0 11309700000.0 11309700000.0 11309700000.0 11309700000.0 11309700000.0 11309700000.0 11309700000.0 11309700000.0 11309700000.0 11309700000.0 11309700000.0 11309700000.0 11309700000.0 11309700000.0 11309700000.0 11309700000.0 11309700000.0 11309700000.0 11309700000.0 11309700000.0 11309700000.0 11309700000.0 11309700000.0 11309700000.0 11309700000.0 11309700000.0 11309700000.0 11309700000.0 11309700000.0 11309700000.0 11309700000.0 11309700000.0 11309700000.0 11309700000.0 11309700000.0 11309700000.0 11309700000.0 11309700000.0 11309700000.0 11309700000.0 11309700000.0 11309700000.0 11309700000.0 11309700000.0 11309700000.0 11309700000.0 11309700000.0 11309700000.0 11309700000.0 11309700000.0 11309700000.0 11309700000.0 11309700000.0 11309700000.0 11309700000.0 11309700000.0 11309700000.0 11309700000.0 11309700000.0 11309700000.0 11309700000.0 11309700000.0 11309700000.0 11309700000.0 11309700000.0 11309700000.0 11309700000.0 11309700000.0 11309700000.0 11309700000.0 11309700000.0 11309700000.0 11309700000.0 11309700000.0 11309700000.0 11309700000.0 11309700000.0 11309700000.0 11309700000.0 11309700000.0 11309700000.0 11309700000.0 11309700000.0 11309700000.0 11309700000.0 11309700000.0 11309700000.0 11309700000.0 11309700000.0 11309700000.0 11309700000.0 11309700000.0 11309700000.0 11309700000.0 11309700000.0 11309700000.0 11309700000.0 11309700000.0 11309700000.0 11309700000.0 11309700000.0 11309700000.0 11309700000.0 11309700000.0 11309700000.0 11309700000.0 11309700000.0 11309700000.0 11309700000.0 11309700000.0 11309700000.0 11309700000.0 11309700000.0 11309700000.0 11309700000.0 11309700000.0 11309700000.0 11309700000.0 11309700000.0 11309700000.0 11309700000.0 11309700000.0 11309700000.0 11309700000.0 11309700000.0 11309700000.0 11309700000.0 11309700000.0 11309700000.0 11309700000.0 11309700000.0 11309700000.0 11309700000.0 11309700000.0 11309700000.0 11309700000.0 11309700000.0 11309700000.0 11309700000.0 11309700000.0 11309700000.0 11309700000.0 11309700000.0 11309700000.0 11309700000.0 11309700000.0 11309700000.0 11309700000.0 11309700000.0 11309700000.0 11309700000.0 11309700000.0 11309700000.0 11309700000.0 11309700000.0 11309700000.0 11309700000.0 11309700000.0 11309700000.0 11309700000.0 11309700000.0 11309700000.0 11309700000.0 11309700000.0 11309700000.0 11309700000.0 11309700000.0 11309700000.0 11309700000.0 11309700000.0 11309700000.0 11309700000.0 11309700000.0 11309700000.0 11309700000.0 11309700000.0 11309700000.0 11309700000.0 11309700000.0 11309700000.0 11309700000.0 11309700000.0 11309700000.0 11309700000.0 11309700000.0 11309700000.0 11309700000.0 11309700000.0 11309700000.0 11309700000.0 11309700000.0 11309700000.0 11309700000.0 11309700000.0 11309700000.0 11309700000.0 11309700000.0 11309700000.0 11309700000.0 11309700000.0 11309700000.0 11309700000.0 11309700000.0 11309700000.0 11309700000.0 11309700000.0 11309700000.0 11309700000.0 11309700000.0 11309700000.0 11309700000.0 11309700000.0 11309700000.0 11309700000.0 11309700000.0 11309700000.0 11309700000.0 11309700000.0 11309700000.0 11309700000.0 11309700000.0 11309700000.0 11309700000.0 11309700000.0 11309700000.0 11309700000.0 11309700000.0 11309700000.0 11309700000.0 11309700000.0 11309700000.0 11309700000.0 11309700000.0 11309700000.0 11309700000.0 11309700000.0 11309700000.0 11309700000.0 11309700000.0 11309700000.0 11309700000.0 11309700000.0 11309700000.0 11309700000.0 11309700000.0 11309700000.0 11309700000.0 11309700000.0 11309700000.0 11309700000.0 11309700000.0 11309700000.0 11309700000.0 11309700000.0 11309700000.0 11309700000.0 11309700000.0 11309700000.0 11309700000.0 11309700000.0 11309700000.0 11309700000.0 11309700000.0 11309700000.0 11309700000.0 11309700000.0 11309700000.0 11309700000.0 11309700000.0 11309700000.0 11309700000.0 11309700000.0 11309700000.0 11309700000.0 11309700000.0 11309700000.0 11309700000.0 11309700000.0 11309700000.0 11309700000.0 11309700000.0 11309700000.0 11309700000.0 11309700000.0 11309700000.0 11309700000.0 11309700000.0 11309700000.0 11309700000.0 11309700000.0 11309700000.0 11309700000.0 11309700000.0 11309700000.0 11309700000.0 11309700000.0 11309700000.0 11309700000.0 11309700000.0 11309700000.0 11309700000.0 11309700000.0 11309700000.0 11309700000.0 11309700000.0 11309700000.0 11309700000.0 11309700000.0 11309700000.0 11309700000.0 11309700000.0 11309700000.0 11309700000.0 11309700000.0 11309700000.0 11309700000.0 11309700000.0 11309700000.0 11309700000.0 11309700000.0 11309700000.0 11309700000.0 11309700000.0 11309700000.0 11309700000.0 11309700000.0 11309700000.0 11309700000.0 11309700000.0 11309700000.0 11309700000.0 11309700000.0 11309700000.0 11309700000.0 11309700000.0 11309700000.0 11309700000.0 11309700000.0 11309700000.0 11309700000.0 11309700000.0 11309700000.0 11309700000.0 11309700000.0 11309700000.0 11309700000.0 11309700000.0 11309700000.0 11309700000.0 11309700000.0 11309700000.0 11309700000.0 11309700000.0 11309700000.0 11309700000.0 11309700000.0 11309700000.0 11309700000.0 11309700000.0 11309700000.0 11309700000.0 11309700000.0 11309700000.0 11309700000.0 11309700000.0 11309700000.0 11309700000.0 11309700000.0 11309700000.0 11309700000.0 11309700000.0 11309700000.0 11309700000.0 11309700000.0 11309700000.0 11309700000.0 11309700000.0 11309700000.0 11309700000.0 11309700000.0 11309700000.0 11309700000.0 11309700000.0 11309700000.0 11309700000.0 11309700000.0 11309700000.0 11309700000.0 11309700000.0 11309700000.0 11309700000.0 11309700000.0 11309700000.0 11309700000.0 11309700000.0 11309700000.0 11309700000.0 11309700000.0 11309700000.0 11309700000.0 11309700000.0 11309700000.0 11309700000.0 11309700000.0 11309700000.0 11309700000.0 11309700000.0 11309700000.0 11309700000.0 11309700000.0 11309700000.0 11309700000.0 11309700000.0 11309700000.0 11309700000.0 11309700000.0 11309700000.0 11309700000.0 11309700000.0 11309700000.0 11309700000.0 11309700000.0 11309700000.0 11309700000.0 11309700000.0 11309700000.0 11309700000.0 11309700000.0 11309700000.0 11309700000.0 11309700000.0 11309700000.0 11309700000.0 11309700000.0 11309700000.0 11309700000.0 11309700000.0 11309700000.0 11309700000.0 11309700000.0 11309700000.0 11309700000.0 11309700000.0 11309700000.0 11309700000.0 11309700000.0 11309700000.0 11309700000.0 11309700000.0 11309700000.0 11309700000.0 11309700000.0 11309700000.0 11309700000.0 11309700000.0 11309700000.0 11309700000.0 11309700000.0 11309700000.0 11309700000.0 11309700000.0 11309700000.0 11309700000.0 11309700000.0 11309700000.0 11309700000.0 11309700000.0 11309700000.0 11309700000.0 11309700000.0 11309700000.0 11309700000.0 11309700000.0 11309700000.0 11309700000.0 11309700000.0 11309700000.0 11309700000.0 11309700000.0 11309700000.0 11309700000.0 11309700000.0 11309700000.0 11309700000.0 11309700000.0 11309700000.0 11309700000.0 11309700000.0 11309700000.0 11309700000.0 11309700000.0 11309700000.0 11309700000.0 11309700000.0 11309700000.0 11309700000.0 11309700000.0 11309700000.0 11309700000.0 11309700000.0 11309700000.0 11309700000.0 11309700000.0 11309700000.0 11309700000.0 11309700000.0 11309700000.0 11309700000.0 11309700000.0 11309700000.0 11309700000.0 11309700000.0 11309700000.0 11309700000.0 11309700000.0 11309700000.0 11309700000.0 11309700000.0 11309700000.0 11309700000.0 11309700000.0 11309700000.0 11309700000.0 11309700000.0 11309700000.0 11309700000.0 11309700000.0 11309700000.0 11309700000.0 11309700000.0 11309700000.0 11309700000.0 11309700000.0 11309700000.0 11309700000.0 11309700000.0 11309700000.0 11309700000.0 11309700000.0 11309700000.0 11309700000.0 11309700000.0 11309700000.0 11309700000.0 11309700000.0 11309700000.0 11309700000.0 11309700000.0 11309700000.0 11309700000.0 11309700000.0 11309700000.0 11309700000.0 11309700000.0 11309700000.0 11309700000.0 11309700000.0 11309700000.0 11309700000.0 11309700000.0 11309700000.0 11309700000.0 11309700000.0 11309700000.0 11309700000.0 11309700000.0 11309700000.0 11309700000.0 11309700000.0 11309700000.0 11309700000.0 11309700000.0 11309700000.0 11309700000.0 11309700000.0 11309700000.0 11309700000.0 11309700000.0 11309700000.0 11309700000.0 11309700000.0 11309700000.0 11309700000.0 11309700000.0 11309700000.0 11309700000.0 11309700000.0 11309700000.0 11309700000.0 11309700000.0 11309700000.0 11309700000.0 11309700000.0 11309700000.0 11309700000.0 11309700000.0 11309700000.0 11309700000.0 11309700000.0 11309700000.0 11309700000.0 11309700000.0 11309700000.0 11309700000.0 11309700000.0 11309700000.0 11309700000.0 11309700000.0 11309700000.0 11309700000.0 11309700000.0 11309700000.0 11309700000.0 11309700000.0 11309700000.0 11309700000.0 11309700000.0 11309700000.0 11309700000.0 11309700000.0 11309700000.0 11309700000.0 11309700000.0 11309700000.0 11309700000.0 11309700000.0 11309700000.0 11309700000.0 11309700000.0 11309700000.0 11309700000.0 11309700000.0 11309700000.0 11309700000.0 11309700000.0 11309700000.0 11309700000.0 11309700000.0 11309700000.0 11309700000.0 11309700000.0 11309700000.0 11309700000.0 11309700000.0 11309700000.0 11309700000.0 11309700000.0 11309700000.0 11309700000.0 11309700000.0 11309700000.0 11309700000.0 11309700000.0 11309700000.0 11309700000.0 11309700000.0 11309700000.0 11309700000.0 11309700000.0 11309700000.0 11309700000.0 11309700000.0 11309700000.0 11309700000.0 11309700000.0 11309700000.0 11309700000.0 11309700000.0 11309700000.0 11309700000.0 11309700000.0 11309700000.0 11309700000.0 11309700000.0 11309700000.0 11309700000.0 11309700000.0 11309700000.0 11309700000.0 11309700000.0 11309700000.0 11309700000.0 11309700000.0 11309700000.0 11309700000.0 11309700000.0 11309700000.0 11309700000.0 11309700000.0 11309700000.0 11309700000.0 11309700000.0 11309700000.0 11309700000.0 11309700000.0 11309700000.0 11309700000.0 11309700000.0 11309700000.0 11309700000.0 11309700000.0 11309700000.0 11309700000.0 11309700000.0 11309700000.0 11309700000.0 11309700000.0 11309700000.0 11309700000.0 11309700000.0 11309700000.0 11309700000.0 11309700000.0 11309700000.0 11309700000.0 11309700000.0 11309700000.0 11309700000.0 11309700000.0 11309700000.0 11309700000.0 11309700000.0 11309700000.0 11309700000.0 11309700000.0 11309700000.0 11309700000.0 11309700000.0 11309700000.0 11309700000.0 11309700000.0 11309700000.0 11309700000.0 11309700000.0 11309700000.0 11309700000.0 11309700000.0 11309700000.0 11309700000.0 11309700000.0 11309700000.0 11309700000.0 11309700000.0 11309700000.0 11309700000.0 11309700000.0 11309700000.0 11309700000.0 11309700000.0 11309700000.0 11309700000.0 11309700000.0 11309700000.0 11309700000.0 11309700000.0 11309700000.0 11309700000.0 11309700000.0 11309700000.0 11309700000.0 11309700000.0 11309700000.0 11309700000.0 11309700000.0 11309700000.0 11309700000.0 11309700000.0 11309700000.0 11309700000.0 11309700000.0 11309700000.0 11309700000.0 11309700000.0 11309700000.0 11309700000.0 11309700000.0 11309700000.0 11309700000.0 11309700000.0 11309700000.0 11309700000.0 11309700000.0 11309700000.0 11309700000.0 11309700000.0 11309700000.0 11309700000.0 11309700000.0 11309700000.0 11309700000.0 11309700000.0 11309700000.0 11309700000.0 11309700000.0 11309700000.0 11309700000.0 11309700000.0 11309700000.0 11309700000.0 11309700000.0 11309700000.0 11309700000.0 11309700000.0 11309700000.0 11309700000.0 11309700000.0 11309700000.0 11309700000.0 11309700000.0 11309700000.0 11309700000.0 11309700000.0 11309700000.0 11309700000.0 11309700000.0 11309700000.0 11309700000.0 11309700000.0 11309700000.0 11309700000.0 11309700000.0 11309700000.0 11309700000.0 11309700000.0 11309700000.0 11309700000.0 11309700000.0 11309700000.0 11309700000.0 11309700000.0 11309700000.0 11309700000.0 11309700000.0 11309700000.0 11309700000.0 11309700000.0 11309700000.0 11309700000.0 11309700000.0 11309700000.0 11309700000.0 11309700000.0 11309700000.0 11309700000.0 11309700000.0 11309700000.0 11309700000.0 11309700000.0 11309700000.0 11309700000.0 11309700000.0 11309700000.0 11309700000.0 11309700000.0 11309700000.0 11309700000.0 11309700000.0 11309700000.0 11309700000.0 11309700000.0 11309700000.0 11309700000.0 11309700000.0 11309700000.0 11309700000.0 11309700000.0 11309700000.0 11309700000.0 11309700000.0 11309700000.0 11309700000.0 11309700000.0 11309700000.0 11309700000.0 11309700000.0 11309700000.0 11309700000.0 11309700000.0 11309700000.0 11309700000.0 11309700000.0 11309700000.0 11309700000.0 11309700000.0 11309700000.0 11309700000.0 11309700000.0 11309700000.0 11309700000.0 11309700000.0 11309700000.0 11309700000.0 11309700000.0 11309700000.0 11309700000.0 11309700000.0 11309700000.0 11309700000.0 11309700000.0 11309700000.0 11309700000.0 11309700000.0 11309700000.0 11309700000.0 11309700000.0 11309700000.0 11309700000.0 11309700000.0 11309700000.0 11309700000.0 11309700000.0 11309700000.0 11309700000.0 11309700000.0 11309700000.0 11309700000.0 11309700000.0 11309700000.0 11309700000.0 11309700000.0 11309700000.0 11309700000.0 11309700000.0 11309700000.0 11309700000.0 11309700000.0 11309700000.0 11309700000.0 11309700000.0 11309700000.0 11309700000.0 11309700000.0 11309700000.0 11309700000.0 11309700000.0 11309700000.0 11309700000.0 11309700000.0 11309700000.0 11309700000.0 11309700000.0 11309700000.0 11309700000.0 11309700000.0 11309700000.0 11309700000.0 11309700000.0 11309700000.0 11309700000.0 11309700000.0 11309700000.0 11309700000.0 11309700000.0 11309700000.0 11309700000.0 11309700000.0 11309700000.0 11309700000.0 11309700000.0 11309700000.0 11309700000.0 11309700000.0 11309700000.0 11309700000.0 11309700000.0 11309700000.0 11309700000.0 11309700000.0 11309700000.0 11309700000.0 11309700000.0 11309700000.0 11309700000.0 11309700000.0 11309700000.0 11309700000.0 11309700000.0 11309700000.0 11309700000.0 11309700000.0 11309700000.0 11309700000.0 11309700000.0 11309700000.0 11309700000.0 11309700000.0 11309700000.0 11309700000.0 11309700000.0 11309700000.0 11309700000.0 11309700000.0 11309700000.0 11309700000.0 11309700000.0 11309700000.0 11309700000.0 11309700000.0 11309700000.0 11309700000.0 11309700000.0 11309700000.0 11309700000.0 11309700000.0 11309700000.0 11309700000.0 11309700000.0 11309700000.0 11309700000.0 11309700000.0 11309700000.0 11309700000.0 11309700000.0 11309700000.0 11309700000.0 11309700000.0 11309700000.0 11309700000.0 11309700000.0 11309700000.0 11309700000.0 11309700000.0 11309700000.0 11309700000.0 11309700000.0 11309700000.0 11309700000.0 11309700000.0 11309700000.0 11309700000.0 11309700000.0 11309700000.0 11309700000.0 11309700000.0 11309700000.0 11309700000.0 11309700000.0 11309700000.0 11309700000.0 11309700000.0 11309700000.0 11309700000.0 11309700000.0 11309700000.0 11309700000.0 11309700000.0 11309700000.0 11309700000.0 11309700000.0 11309700000.0 11309700000.0 11309700000.0 11309700000.0 11309700000.0 11309700000.0 11309700000.0 11309700000.0 11309700000.0 11309700000.0 11309700000.0 11309700000.0 11309700000.0 11309700000.0 11309700000.0 11309700000.0 11309700000.0 11309700000.0 11309700000.0 11309700000.0 11309700000.0 11309700000.0 11309700000.0 11309700000.0 11309700000.0 11309700000.0 11309700000.0 11309700000.0 11309700000.0 11309700000.0 11309700000.0 11309700000.0 11309700000.0 11309700000.0 11309700000.0 11309700000.0 11309700000.0 11309700000.0 11309700000.0 11309700000.0 11309700000.0 11309700000.0 11309700000.0 11309700000.0 11309700000.0 11309700000.0 11309700000.0 11309700000.0 11309700000.0 11309700000.0 11309700000.0 11309700000.0 11309700000.0 11309700000.0 11309700000.0 11309700000.0 11309700000.0 11309700000.0 11309700000.0 11309700000.0 11309700000.0 11309700000.0 11309700000.0 11309700000.0 11309700000.0 11309700000.0 11309700000.0 11309700000.0 11309700000.0 11309700000.0 11309700000.0 11309700000.0 11309700000.0 11309700000.0 11309700000.0 11309700000.0 11309700000.0 11309700000.0 11309700000.0 11309700000.0 11309700000.0 11309700000.0 11309700000.0 11309700000.0 11309700000.0 11309700000.0 11309700000.0 11309700000.0 11309700000.0 11309700000.0 11309700000.0 11309700000.0 11309700000.0 11309700000.0 11309700000.0 11309700000.0 11309700000.0 11309700000.0 11309700000.0 11309700000.0 11309700000.0 11309700000.0 11309700000.0 11309700000.0 11309700000.0 11309700000.0 11309700000.0 11309700000.0 11309700000.0 11309700000.0 11309700000.0 11309700000.0 11309700000.0 11309700000.0 11309700000.0 11309700000.0 11309700000.0 11309700000.0 11309700000.0 11309700000.0 11309700000.0 11309700000.0 11309700000.0 11309700000.0 11309700000.0 11309700000.0 11309700000.0 11309700000.0 11309700000.0 11309700000.0 11309700000.0 11309700000.0 11309700000.0 11309700000.0 11309700000.0 11309700000.0 11309700000.0 11309700000.0 11309700000.0 11309700000.0 11309700000.0 11309700000.0 11309700000.0 11309700000.0 11309700000.0 11309700000.0 11309700000.0 11309700000.0 11309700000.0 11309700000.0 11309700000.0 11309700000.0 11309700000.0 11309700000.0 11309700000.0 11309700000.0 11309700000.0 11309700000.0 11309700000.0 11309700000.0 11309700000.0 11309700000.0 11309700000.0 11309700000.0 11309700000.0 11309700000.0 11309700000.0 11309700000.0 11309700000.0 11309700000.0 11309700000.0 11309700000.0 11309700000.0 11309700000.0 11309700000.0 11309700000.0 11309700000.0 11309700000.0 11309700000.0 11309700000.0 11309700000.0 11309700000.0 11309700000.0 11309700000.0 11309700000.0 11309700000.0 11309700000.0 11309700000.0 11309700000.0 11309700000.0 11309700000.0 11309700000.0 11309700000.0 11309700000.0 11309700000.0 11309700000.0 11309700000.0 11309700000.0 11309700000.0 11309700000.0 11309700000.0 11309700000.0 11309700000.0 11309700000.0 11309700000.0 11309700000.0 11309700000.0 11309700000.0 11309700000.0 11309700000.0 11309700000.0 11309700000.0 11309700000.0 11309700000.0 11309700000.0 11309700000.0 11309700000.0 11309700000.0 11309700000.0 11309700000.0 11309700000.0 11309700000.0 11309700000.0 11309700000.0 11309700000.0 11309700000.0 11309700000.0 11309700000.0 11309700000.0 11309700000.0 11309700000.0 11309700000.0 11309700000.0 11309700000.0 11309700000.0 11309700000.0 11309700000.0 11309700000.0 11309700000.0 11309700000.0 11309700000.0 11309700000.0 11309700000.0 11309700000.0 11309700000.0 11309700000.0 11309700000.0 11309700000.0 11309700000.0 11309700000.0 11309700000.0 11309700000.0 11309700000.0 11309700000.0 11309700000.0 11309700000.0 11309700000.0 11309700000.0 11309700000.0 11309700000.0 11309700000.0 11309700000.0 11309700000.0 11309700000.0 11309700000.0 11309700000.0 11309700000.0 11309700000.0 11309700000.0 11309700000.0 11309700000.0 11309700000.0 11309700000.0 11309700000.0 11309700000.0 11309700000.0 11309700000.0 11309700000.0 11309700000.0 11309700000.0 11309700000.0 11309700000.0 11309700000.0 11309700000.0 11309700000.0 11309700000.0 11309700000.0 11309700000.0 11309700000.0 11309700000.0 11309700000.0 11309700000.0 11309700000.0 11309700000.0 11309700000.0 11309700000.0 11309700000.0 11309700000.0 11309700000.0 11309700000.0 11309700000.0 11309700000.0 11309700000.0 11309700000.0 11309700000.0 11309700000.0 11309700000.0 11309700000.0 11309700000.0 11309700000.0 11309700000.0 11309700000.0 11309700000.0 11309700000.0 11309700000.0 11309700000.0 11309700000.0 11309700000.0 11309700000.0 11309700000.0 11309700000.0 11309700000.0 11309700000.0 11309700000.0 11309700000.0 11309700000.0 11309700000.0 11309700000.0 11309700000.0 11309700000.0 11309700000.0 11309700000.0 11309700000.0 11309700000.0 11309700000.0 11309700000.0 11309700000.0 11309700000.0 11309700000.0 11309700000.0 11309700000.0 11309700000.0 11309700000.0 11309700000.0 11309700000.0 11309700000.0 11309700000.0 11309700000.0 11309700000.0 11309700000.0 11309700000.0 11309700000.0 11309700000.0 11309700000.0 11309700000.0 11309700000.0 11309700000.0 11309700000.0 11309700000.0 11309700000.0 11309700000.0 11309700000.0 11309700000.0 11309700000.0 11309700000.0 11309700000.0 11309700000.0 11309700000.0 11309700000.0 11309700000.0 11309700000.0 11309700000.0 11309700000.0 11309700000.0 11309700000.0 11309700000.0 11309700000.0 11309700000.0 11309700000.0 11309700000.0 11309700000.0 11309700000.0 11309700000.0 11309700000.0 11309700000.0 11309700000.0 11309700000.0 11309700000.0 11309700000.0 11309700000.0 11309700000.0 11309700000.0 11309700000.0 11309700000.0 11309700000.0 11309700000.0 11309700000.0 11309700000.0 11309700000.0 11309700000.0 11309700000.0 11309700000.0 11309700000.0 11309700000.0 11309700000.0 11309700000.0 11309700000.0 11309700000.0 11309700000.0 11309700000.0 11309700000.0 11309700000.0 11309700000.0 11309700000.0 11309700000.0 11309700000.0 11309700000.0 11309700000.0 11309700000.0 11309700000.0 11309700000.0 11309700000.0 11309700000.0 11309700000.0 11309700000.0 11309700000.0 11309700000.0 11309700000.0 11309700000.0 11309700000.0 11309700000.0 11309700000.0 11309700000.0 11309700000.0 11309700000.0 11309700000.0 11309700000.0 11309700000.0 11309700000.0 11309700000.0 11309700000.0 11309700000.0 11309700000.0 11309700000.0 11309700000.0 11309700000.0 11309700000.0 11309700000.0 11309700000.0 11309700000.0 11309700000.0 11309700000.0 11309700000.0 11309700000.0 11309700000.0 11309700000.0 11309700000.0 11309700000.0 11309700000.0 11309700000.0 11309700000.0 11309700000.0 11309700000.0 11309700000.0 11309700000.0 11309700000.0 11309700000.0 11309700000.0 11309700000.0 11309700000.0 11309700000.0 11309700000.0 11309700000.0 11309700000.0 11309700000.0 11309700000.0 11309700000.0 11309700000.0 11309700000.0 11309700000.0 11309700000.0 11309700000.0 11309700000.0 11309700000.0 11309700000.0 11309700000.0 11309700000.0 11309700000.0 11309700000.0 11309700000.0 11309700000.0 11309700000.0 11309700000.0 11309700000.0 11309700000.0 11309700000.0 11309700000.0 11309700000.0 11309700000.0 11309700000.0 11309700000.0 11309700000.0 11309700000.0 11309700000.0 11309700000.0 11309700000.0 11309700000.0 11309700000.0 11309700000.0 11309700000.0 11309700000.0 11309700000.0 11309700000.0 11309700000.0 11309700000.0 11309700000.0 11309700000.0 11309700000.0 11309700000.0 11309700000.0 11309700000.0 11309700000.0 11309700000.0 11309700000.0 11309700000.0 11309700000.0 11309700000.0 11309700000.0 11309700000.0 11309700000.0 11309700000.0 11309700000.0 11309700000.0 11309700000.0 11309700000.0 11309700000.0 11309700000.0 11309700000.0 11309700000.0 11309700000.0 11309700000.0 11309700000.0 11309700000.0 11309700000.0 11309700000.0 11309700000.0 11309700000.0 11309700000.0 11309700000.0 11309700000.0 11309700000.0 11309700000.0 11309700000.0 11309700000.0 11309700000.0 11309700000.0 11309700000.0 11309700000.0 11309700000.0 11309700000.0 11309700000.0 11309700000.0 11309700000.0 11309700000.0 11309700000.0 11309700000.0 11309700000.0 11309700000.0 11309700000.0 11309700000.0 11309700000.0 11309700000.0 11309700000.0 11309700000.0 11309700000.0 11309700000.0 11309700000.0 11309700000.0 11309700000.0 11309700000.0 11309700000.0 11309700000.0 11309700000.0 11309700000.0 11309700000.0 11309700000.0 11309700000.0 11309700000.0 11309700000.0 11309700000.0 11309700000.0 11309700000.0 11309700000.0 11309700000.0 11309700000.0 11309700000.0 11309700000.0 11309700000.0 11309700000.0 11309700000.0 11309700000.0 11309700000.0 11309700000.0 11309700000.0 11309700000.0 11309700000.0 11309700000.0 11309700000.0 11309700000.0 11309700000.0 11309700000.0 11309700000.0 11309700000.0 11309700000.0 11309700000.0 11309700000.0 11309700000.0 11309700000.0 11309700000.0 11309700000.0 11309700000.0 11309700000.0 11309700000.0 11309700000.0 11309700000.0 11309700000.0 11309700000.0 11309700000.0 11309700000.0 11309700000.0 11309700000.0 11309700000.0 11309700000.0 11309700000.0 11309700000.0 11309700000.0 11309700000.0 11309700000.0 11309700000.0 11309700000.0 11309700000.0 11309700000.0 11309700000.0 11309700000.0 11309700000.0 11309700000.0 11309700000.0 11309700000.0 11309700000.0 11309700000.0 11309700000.0 11309700000.0 11309700000.0 11309700000.0 11309700000.0 11309700000.0 11309700000.0 11309700000.0 11309700000.0 11309700000.0 11309700000.0 11309700000.0 11309700000.0 11309700000.0 11309700000.0 11309700000.0 11309700000.0 11309700000.0 11309700000.0 11309700000.0 11309700000.0 11309700000.0 11309700000.0 11309700000.0 11309700000.0 11309700000.0 11309700000.0 11309700000.0 11309700000.0 11309700000.0 11309700000.0 11309700000.0 11309700000.0 11309700000.0 11309700000.0 11309700000.0 11309700000.0 11309700000.0 11309700000.0 11309700000.0 11309700000.0 11309700000.0 11309700000.0 11309700000.0 11309700000.0 11309700000.0 11309700000.0 11309700000.0 11309700000.0 11309700000.0 11309700000.0 11309700000.0 11309700000.0 11309700000.0 11309700000.0 11309700000.0 11309700000.0 11309700000.0 11309700000.0 11309700000.0 11309700000.0 11309700000.0 11309700000.0 11309700000.0 11309700000.0 11309700000.0 11309700000.0 11309700000.0 11309700000.0 11309700000.0 11309700000.0 11309700000.0 11309700000.0 11309700000.0 11309700000.0 11309700000.0 11309700000.0 11309700000.0 11309700000.0 11309700000.0 11309700000.0 11309700000.0 11309700000.0 11309700000.0 11309700000.0 11309700000.0 11309700000.0 11309700000.0 11309700000.0 11309700000.0 11309700000.0 11309700000.0 11309700000.0 11309700000.0 11309700000.0 11309700000.0 11309700000.0 11309700000.0 11309700000.0 11309700000.0 11309700000.0 11309700000.0 11309700000.0 11309700000.0 11309700000.0 11309700000.0 11309700000.0 11309700000.0 11309700000.0 11309700000.0 11309700000.0 11309700000.0 11309700000.0 11309700000.0 11309700000.0 11309700000.0 11309700000.0 11309700000.0 11309700000.0 11309700000.0 11309700000.0 11309700000.0 11309700000.0 11309700000.0 11309700000.0 11309700000.0 11309700000.0 11309700000.0 11309700000.0 11309700000.0 11309700000.0 11309700000.0 11309700000.0 11309700000.0 11309700000.0 11309700000.0 11309700000.0 11309700000.0 11309700000.0 11309700000.0 11309700000.0 11309700000.0 11309700000.0 11309700000.0 11309700000.0 11309700000.0 11309700000.0 11309700000.0 11309700000.0 11309700000.0 11309700000.0 11309700000.0 11309700000.0 11309700000.0 11309700000.0 11309700000.0 11309700000.0 11309700000.0 11309700000.0 11309700000.0 11309700000.0 11309700000.0 11309700000.0 11309700000.0 11309700000.0 11309700000.0 11309700000.0 11309700000.0 11309700000.0 11309700000.0 11309700000.0 11309700000.0 11309700000.0 11309700000.0 11309700000.0 11309700000.0 11309700000.0 11309700000.0 11309700000.0 11309700000.0 11309700000.0 11309700000.0 11309700000.0 11309700000.0 11309700000.0 11309700000.0 11309700000.0 11309700000.0 11309700000.0 11309700000.0 11309700000.0 11309700000.0 11309700000.0 11309700000.0 11309700000.0 11309700000.0 11309700000.0 11309700000.0 11309700000.0 11309700000.0 11309700000.0 11309700000.0 11309700000.0 11309700000.0 11309700000.0 11309700000.0 11309700000.0 11309700000.0 11309700000.0 11309700000.0 11309700000.0 11309700000.0 11309700000.0 11309700000.0 11309700000.0 11309700000.0 11309700000.0 11309700000.0 11309700000.0 11309700000.0 11309700000.0 11309700000.0 11309700000.0 11309700000.0 11309700000.0 11309700000.0 11309700000.0 11309700000.0 11309700000.0 11309700000.0 11309700000.0 11309700000.0 11309700000.0 11309700000.0 11309700000.0 11309700000.0 11309700000.0 11309700000.0 11309700000.0 11309700000.0 11309700000.0 11309700000.0 11309700000.0 11309700000.0 11309700000.0 11309700000.0 11309700000.0 11309700000.0 11309700000.0 11309700000.0 11309700000.0 11309700000.0 11309700000.0 11309700000.0 11309700000.0 11309700000.0 11309700000.0 11309700000.0 11309700000.0 11309700000.0 11309700000.0 11309700000.0 11309700000.0 11309700000.0 11309700000.0 11309700000.0 11309700000.0 11309700000.0 11309700000.0 11309700000.0 11309700000.0 11309700000.0 11309700000.0 11309700000.0 11309700000.0 11309700000.0 11309700000.0 11309700000.0 11309700000.0 11309700000.0 11309700000.0 11309700000.0 11309700000.0 11309700000.0 11309700000.0 11309700000.0 11309700000.0 11309700000.0 11309700000.0 11309700000.0 11309700000.0 11309700000.0 11309700000.0 11309700000.0 11309700000.0 11309700000.0 11309700000.0 11309700000.0 11309700000.0 11309700000.0 11309700000.0 11309700000.0 11309700000.0 11309700000.0 11309700000.0 11309700000.0 11309700000.0 11309700000.0 11309700000.0 11309700000.0 11309700000.0 11309700000.0 11309700000.0 11309700000.0 11309700000.0 11309700000.0 11309700000.0 11309700000.0 11309700000.0 11309700000.0 11309700000.0 11309700000.0 11309700000.0 11309700000.0 11309700000.0 11309700000.0 11309700000.0 11309700000.0 11309700000.0 11309700000.0 11309700000.0 11309700000.0 11309700000.0 11309700000.0 11309700000.0 11309700000.0 11309700000.0 11309700000.0 11309700000.0 11309700000.0 11309700000.0 11309700000.0 11309700000.0 11309700000.0 11309700000.0 11309700000.0 11309700000.0 11309700000.0 11309700000.0 11309700000.0 11309700000.0 11309700000.0 11309700000.0 11309700000.0 11309700000.0 11309700000.0 11309700000.0 11309700000.0 11309700000.0 11309700000.0 11309700000.0 11309700000.0 11309700000.0 11309700000.0 11309700000.0 11309700000.0 11309700000.0 11309700000.0 11309700000.0 11309700000.0 11309700000.0 11309700000.0 11309700000.0 11309700000.0 11309700000.0 11309700000.0 11309700000.0 11309700000.0 11309700000.0 11309700000.0 11309700000.0 11309700000.0 11309700000.0 11309700000.0 11309700000.0 11309700000.0 11309700000.0 11309700000.0 11309700000.0 11309700000.0 11309700000.0 11309700000.0 11309700000.0 11309700000.0 11309700000.0 11309700000.0 11309700000.0 11309700000.0 11309700000.0 11309700000.0 11309700000.0 11309700000.0 11309700000.0 11309700000.0 11309700000.0 11309700000.0 11309700000.0 11309700000.0 11309700000.0 11309700000.0 11309700000.0 11309700000.0 11309700000.0 11309700000.0 11309700000.0 11309700000.0 11309700000.0 11309700000.0 11309700000.0 11309700000.0 11309700000.0 11309700000.0 11309700000.0 11309700000.0 11309700000.0 11309700000.0 11309700000.0 11309700000.0 11309700000.0 11309700000.0 11309700000.0 11309700000.0 11309700000.0 11309700000.0 11309700000.0 11309700000.0 11309700000.0 11309700000.0 11309700000.0 11309700000.0 11309700000.0 11309700000.0 11309700000.0 11309700000.0 11309700000.0 11309700000.0 11309700000.0 11309700000.0 11309700000.0 11309700000.0 11309700000.0 11309700000.0 11309700000.0 11309700000.0 11309700000.0 11309700000.0 11309700000.0 11309700000.0 11309700000.0 11309700000.0 11309700000.0 11309700000.0 11309700000.0 11309700000.0 11309700000.0 11309700000.0 11309700000.0 11309700000.0 11309700000.0 11309700000.0 11309700000.0 11309700000.0 11309700000.0 11309700000.0 11309700000.0 11309700000.0 11309700000.0 11309700000.0 11309700000.0 11309700000.0 11309700000.0 11309700000.0 11309700000.0 11309700000.0 11309700000.0 11309700000.0 11309700000.0 11309700000.0 11309700000.0 11309700000.0 11309700000.0 11309700000.0 11309700000.0 11309700000.0 11309700000.0 11309700000.0 11309700000.0 11309700000.0 11309700000.0 11309700000.0 11309700000.0 11309700000.0 11309700000.0 11309700000.0 11309700000.0 11309700000.0 11309700000.0 11309700000.0 11309700000.0 11309700000.0 11309700000.0 11309700000.0 11309700000.0 11309700000.0 11309700000.0 11309700000.0 11309700000.0 11309700000.0 11309700000.0 11309700000.0 11309700000.0 11309700000.0 11309700000.0 11309700000.0 11309700000.0 11309700000.0 11309700000.0 11309700000.0 11309700000.0 11309700000.0 11309700000.0 11309700000.0 11309700000.0 11309700000.0 11309700000.0 11309700000.0 11309700000.0 11309700000.0 11309700000.0 11309700000.0 11309700000.0 11309700000.0 11309700000.0 11309700000.0 11309700000.0 11309700000.0 11309700000.0 11309700000.0 11309700000.0 11309700000.0 11309700000.0 11309700000.0 11309700000.0 11309700000.0 11309700000.0 11309700000.0 11309700000.0 11309700000.0 11309700000.0 11309700000.0 11309700000.0 11309700000.0 11309700000.0 11309700000.0 11309700000.0 11309700000.0 11309700000.0 11309700000.0 11309700000.0 11309700000.0 11309700000.0 11309700000.0 11309700000.0 11309700000.0 11309700000.0 11309700000.0 11309700000.0 11309700000.0 11309700000.0 11309700000.0 11309700000.0 11309700000.0 11309700000.0 11309700000.0 11309700000.0 11309700000.0 11309700000.0 11309700000.0 11309700000.0 11309700000.0 11309700000.0 11309700000.0 11309700000.0 11309700000.0 11309700000.0 11309700000.0 11309700000.0 11309700000.0 11309700000.0 11309700000.0 11309700000.0 11309700000.0 11309700000.0 11309700000.0 11309700000.0 11309700000.0 11309700000.0 11309700000.0 11309700000.0 11309700000.0 11309700000.0 11309700000.0 11309700000.0 11309700000.0 11309700000.0 11309700000.0 11309700000.0 11309700000.0 11309700000.0 11309700000.0 11309700000.0 11309700000.0 11309700000.0 11309700000.0 11309700000.0 11309700000.0 11309700000.0 11309700000.0 11309700000.0 11309700000.0 11309700000.0 11309700000.0 11309700000.0 11309700000.0 11309700000.0 11309700000.0 11309700000.0 11309700000.0 11309700000.0 11309700000.0 11309700000.0 11309700000.0 11309700000.0 11309700000.0 11309700000.0 11309700000.0 11309700000.0 11309700000.0 11309700000.0 11309700000.0 11309700000.0 11309700000.0 11309700000.0 11309700000.0 11309700000.0 11309700000.0 11309700000.0 11309700000.0 11309700000.0 11309700000.0 11309700000.0 11309700000.0 11309700000.0 11309700000.0 11309700000.0 11309700000.0 11309700000.0 11309700000.0 11309700000.0 11309700000.0 11309700000.0 11309700000.0 11309700000.0 11309700000.0 11309700000.0 11309700000.0 11309700000.0 11309700000.0 11309700000.0 11309700000.0 11309700000.0 11309700000.0 11309700000.0 11309700000.0 11309700000.0 11309700000.0 11309700000.0 11309700000.0 11309700000.0 11309700000.0 11309700000.0 11309700000.0 11309700000.0 11309700000.0 11309700000.0 11309700000.0 11309700000.0 11309700000.0 11309700000.0 11309700000.0 11309700000.0 11309700000.0 11309700000.0 11309700000.0 11309700000.0 11309700000.0 11309700000.0 11309700000.0 11309700000.0 11309700000.0 11309700000.0 11309700000.0 11309700000.0 11309700000.0 11309700000.0 11309700000.0 11309700000.0 11309700000.0 11309700000.0 11309700000.0 11309700000.0 11309700000.0 11309700000.0 11309700000.0 11309700000.0 11309700000.0 11309700000.0 11309700000.0 11309700000.0 11309700000.0 11309700000.0 11309700000.0 11309700000.0 11309700000.0 11309700000.0 11309700000.0 11309700000.0 11309700000.0 11309700000.0 11309700000.0 11309700000.0 11309700000.0 11309700000.0 11309700000.0 11309700000.0 11309700000.0 11309700000.0 11309700000.0 11309700000.0 11309700000.0 11309700000.0 11309700000.0 11309700000.0 11309700000.0 11309700000.0 11309700000.0 11309700000.0 11309700000.0 11309700000.0 11309700000.0 11309700000.0 11309700000.0 11309700000.0 11309700000.0 11309700000.0 11309700000.0 11309700000.0 11309700000.0 11309700000.0 11309700000.0 11309700000.0 11309700000.0 11309700000.0 11309700000.0 11309700000.0 11309700000.0 11309700000.0 11309700000.0 11309700000.0 11309700000.0 11309700000.0 11309700000.0 11309700000.0 11309700000.0 11309700000.0 11309700000.0 11309700000.0 11309700000.0 11309700000.0 11309700000.0 11309700000.0 11309700000.0 11309700000.0 11309700000.0 11309700000.0 11309700000.0 11309700000.0 11309700000.0 11309700000.0 11309700000.0 11309700000.0 11309700000.0 11309700000.0 11309700000.0 11309700000.0 11309700000.0 11309700000.0 11309700000.0 11309700000.0 11309700000.0 11309700000.0 11309700000.0 11309700000.0 11309700000.0 11309700000.0 11309700000.0 11309700000.0 11309700000.0 11309700000.0 11309700000.0 11309700000.0 11309700000.0 11309700000.0 11309700000.0 11309700000.0 11309700000.0 11309700000.0 11309700000.0 11309700000.0 11309700000.0 11309700000.0 11309700000.0 11309700000.0 11309700000.0 11309700000.0 11309700000.0 11309700000.0 11309700000.0 11309700000.0 11309700000.0 11309700000.0 11309700000.0 11309700000.0 11309700000.0 11309700000.0 11309700000.0 11309700000.0 11309700000.0 11309700000.0 11309700000.0 11309700000.0 11309700000.0 11309700000.0 11309700000.0 11309700000.0 11309700000.0 11309700000.0 11309700000.0 11309700000.0 11309700000.0 11309700000.0 11309700000.0 11309700000.0 11309700000.0 11309700000.0 11309700000.0 11309700000.0 11309700000.0 11309700000.0 11309700000.0 11309700000.0 11309700000.0 11309700000.0 11309700000.0 11309700000.0 11309700000.0 11309700000.0 11309700000.0 11309700000.0 11309700000.0 11309700000.0 11309700000.0 11309700000.0 11309700000.0 11309700000.0 11309700000.0 11309700000.0 11309700000.0 11309700000.0 11309700000.0 11309700000.0 11309700000.0 11309700000.0 11309700000.0 11309700000.0 11309700000.0 11309700000.0 11309700000.0 11309700000.0 11309700000.0 11309700000.0 11309700000.0 11309700000.0 11309700000.0 11309700000.0 11309700000.0 11309700000.0 11309700000.0 11309700000.0 11309700000.0 11309700000.0 11309700000.0 11309700000.0 11309700000.0 11309700000.0 11309700000.0 11309700000.0 11309700000.0 11309700000.0 11309700000.0 11309700000.0 11309700000.0 11309700000.0 11309700000.0 11309700000.0 11309700000.0 11309700000.0 11309700000.0 11309700000.0 11309700000.0 11309700000.0 11309700000.0 11309700000.0 11309700000.0 11309700000.0 11309700000.0 11309700000.0 11309700000.0 11309700000.0 11309700000.0 11309700000.0 11309700000.0 11309700000.0 11309700000.0 11309700000.0 11309700000.0 11309700000.0 11309700000.0 11309700000.0 11309700000.0 11309700000.0 11309700000.0 11309700000.0 11309700000.0 11309700000.0 11309700000.0 11309700000.0 11309700000.0 11309700000.0 11309700000.0 11309700000.0 11309700000.0 11309700000.0 11309700000.0 11309700000.0 11309700000.0 11309700000.0 11309700000.0 11309700000.0 11309700000.0 11309700000.0 11309700000.0 11309700000.0 11309700000.0 11309700000.0 11309700000.0 11309700000.0 11309700000.0 11309700000.0 11309700000.0 11309700000.0 11309700000.0 11309700000.0 11309700000.0 11309700000.0 11309700000.0 11309700000.0 11309700000.0 11309700000.0 11309700000.0 11309700000.0 11309700000.0 11309700000.0 11309700000.0 11309700000.0 11309700000.0 11309700000.0 11309700000.0 11309700000.0 11309700000.0 11309700000.0 11309700000.0 11309700000.0 11309700000.0 11309700000.0 11309700000.0 11309700000.0 11309700000.0 11309700000.0 11309700000.0 11309700000.0 11309700000.0 11309700000.0 11309700000.0 11309700000.0 11309700000.0 11309700000.0 11309700000.0 11309700000.0 11309700000.0 11309700000.0 11309700000.0 11309700000.0 11309700000.0 11309700000.0 11309700000.0 11309700000.0 11309700000.0 11309700000.0 11309700000.0 11309700000.0 11309700000.0 11309700000.0 11309700000.0 11309700000.0 11309700000.0 11309700000.0 11309700000.0 11309700000.0 11309700000.0 11309700000.0 11309700000.0 11309700000.0 11309700000.0 11309700000.0 11309700000.0 11309700000.0 11309700000.0 11309700000.0 11309700000.0 11309700000.0 11309700000.0 11309700000.0 11309700000.0 11309700000.0 11309700000.0 11309700000.0 11309700000.0 11309700000.0 11309700000.0 11309700000.0 11309700000.0 11309700000.0 11309700000.0 11309700000.0 11309700000.0 11309700000.0 11309700000.0 11309700000.0 11309700000.0 11309700000.0 11309700000.0 11309700000.0 11309700000.0 11309700000.0 11309700000.0 11309700000.0 11309700000.0 11309700000.0 11309700000.0 11309700000.0 11309700000.0 11309700000.0 11309700000.0 11309700000.0 11309700000.0 11309700000.0 11309700000.0 11309700000.0 11309700000.0 11309700000.0 11309700000.0 11309700000.0 11309700000.0 11309700000.0 11309700000.0 11309700000.0 11309700000.0 11309700000.0 11309700000.0 11309700000.0 11309700000.0 11309700000.0 11309700000.0 11309700000.0 11309700000.0 11309700000.0 11309700000.0 11309700000.0 11309700000.0 11309700000.0 11309700000.0 11309700000.0 11309700000.0 11309700000.0 11309700000.0 11309700000.0 11309700000.0 11309700000.0 11309700000.0 11309700000.0 11309700000.0 11309700000.0 11309700000.0 11309700000.0 11309700000.0 11309700000.0 11309700000.0 11309700000.0 11309700000.0 11309700000.0 11309700000.0 11309700000.0 11309700000.0 11309700000.0 11309700000.0 11309700000.0 11309700000.0 11309700000.0 11309700000.0 11309700000.0 11309700000.0 11309700000.0 11309700000.0 11309700000.0 11309700000.0 11309700000.0 11309700000.0 11309700000.0 11309700000.0 11309700000.0 11309700000.0 11309700000.0 11309700000.0 11309700000.0 11309700000.0 11309700000.0 11309700000.0 11309700000.0 11309700000.0 11309700000.0 11309700000.0 11309700000.0 11309700000.0 11309700000.0 11309700000.0 11309700000.0 11309700000.0 11309700000.0 11309700000.0 11309700000.0 11309700000.0 11309700000.0 11309700000.0 11309700000.0 11309700000.0 11309700000.0 11309700000.0 11309700000.0 11309700000.0 11309700000.0 11309700000.0 11309700000.0 11309700000.0 11309700000.0 11309700000.0 11309700000.0 11309700000.0 11309700000.0 11309700000.0 11309700000.0 11309700000.0 11309700000.0 11309700000.0 11309700000.0 11309700000.0 11309700000.0 11309700000.0 11309700000.0 11309700000.0 11309700000.0 11309700000.0 11309700000.0 11309700000.0 11309700000.0 11309700000.0 11309700000.0 11309700000.0 11309700000.0 11309700000.0 11309700000.0 11309700000.0 11309700000.0 11309700000.0 11309700000.0 11309700000.0 11309700000.0 11309700000.0 11309700000.0 11309700000.0 11309700000.0 11309700000.0 11309700000.0 11309700000.0 11309700000.0 11309700000.0 11309700000.0 11309700000.0 11309700000.0 11309700000.0 11309700000.0 11309700000.0 11309700000.0 11309700000.0 11309700000.0 11309700000.0 11309700000.0 11309700000.0 11309700000.0 11309700000.0 11309700000.0 11309700000.0 11309700000.0 11309700000.0 11309700000.0 11309700000.0 11309700000.0 11309700000.0 11309700000.0 11309700000.0 11309700000.0 11309700000.0 11309700000.0 11309700000.0 11309700000.0 11309700000.0 11309700000.0 11309700000.0 11309700000.0 11309700000.0 11309700000.0 11309700000.0 11309700000.0 11309700000.0 11309700000.0 11309700000.0 11309700000.0 11309700000.0 11309700000.0 11309700000.0 11309700000.0 11309700000.0 11309700000.0 11309700000.0 11309700000.0 11309700000.0 11309700000.0 11309700000.0 11309700000.0 11309700000.0 11309700000.0 11309700000.0 11309700000.0 11309700000.0 11309700000.0 11309700000.0 11309700000.0 11309700000.0 11309700000.0 11309700000.0 11309700000.0 11309700000.0 11309700000.0 11309700000.0 11309700000.0 11309700000.0 11309700000.0 11309700000.0 11309700000.0 11309700000.0 11309700000.0 11309700000.0 11309700000.0 11309700000.0 11309700000.0 11309700000.0 11309700000.0 11309700000.0 11309700000.0 11309700000.0 11309700000.0 11309700000.0 11309700000.0 11309700000.0 11309700000.0 11309700000.0 11309700000.0 11309700000.0 11309700000.0 11309700000.0 11309700000.0 11309700000.0 11309700000.0 11309700000.0 11309700000.0 11309700000.0 11309700000.0 11309700000.0 11309700000.0 11309700000.0 11309700000.0 11309700000.0 11309700000.0 11309700000.0 11309700000.0 11309700000.0 11309700000.0 11309700000.0 11309700000.0 11309700000.0 11309700000.0 11309700000.0 11309700000.0 
SCALARS Velocity float 1
LOOKUP_TABLE default
1.23474 1.07729 1.07729 1.23474 0.882797 1.27974 1.1149 1.23466 1.04172 1.04172 1.23466 1.1149 1.27974 0.882797 0.887688 0.810364 1.09606 1.11346 1.23682 0.949476 0.873426 1.07745 0.893492 1.00586 0.893046 0.907071 0.8938 0.895124 0.893778 0.896224 0.893576 0.896812 0.893484 0.896812 0.893576 0.896224 0.893778 0.895124 0.8938 0.907071 0.893046 1.00586 0.893492 1.07745 0.873426 0.949476 1.23682 1.11346 1.09606 0.810364 0.887688 0.848216 0.884878 0.860376 1.27574 1.15996 0.946112 0.943607 1.05008 0.975526 1.07522 0.855985 1.01129 0.887708 0.908108 0.893308 0.895312 0.893608 0.896378 0.893352 0.89698 0.893218 0.89698 0.893352 0.896378 0.893608 0.895312 0.893308 0.908108 0.887708 1.01129 0.855985 1.07522 0.975526 1.05008 0.943607 0.946112 1.15996 1.27574 0.860376 0.884878 0.848216 0.791746 0.864444 0.793263 1.10835 1.0947 1.20246 0.951584 1.05329 1.05329 0.951584 1.20246 1.0947 1.10835 0.793263 0.864444 0.791746 0.749888 0.810712 0.83411 0.786845 1.1111 0.96386 0.94729 0.942853 0.998297 1.08396 0.723179 1.02085 0.867585 0.910531 0.891106 0.896476 0.892485 0.89707 0.892054 0.897352 0.892022 0.897352 0.892054 0.89707 0.892485 0.896476 0.891106 0.910531 0.867585 1.02085 0.723179 1.08396 0.998297 0.942853 0.94729 0.96386 1.1111 0.786845 0.83411 0.810712 0.749888 0.723739 0.731583 0.716107 0.764147 0.830547 0.814678 1.12906 0.941321 0.969155 0.905826 1.09034 1.08033 0.669043 1.03264 0.853668 0.912755 0.887745 0.896725 0.890399 0.897295 0.890061 0.897709 0.890242 0.897709 0.890061 0.897295 0.890399 0.896725 0.887745 0.912755 0.853668 1.03264 0.669043 1.08033 1.09034 0.905826 0.969155 0.941321 1.12906 0.814678 0.830547 0.764147 0.716107 0.731583 0.723739 0.727691 0.723878 0.801939 0.829935 0.780556 1.01792 0.94623 0.942299 0.924729 0.941875 1.15926 1.15926 0.941875 0.924729 0.942299 0.94623 1.01792 0.780556 0.829935 0.801939 0.723878 0.727691 0.733203 0.739705 0.749265 0.700033 0.773806 0.834293 0.823754 0.810375 1.04134 0.951252 0.953858 0.942689 0.93906 0.817852 1.0688 0.67169 1.05027 0.861233 0.918967 0.890316 0.898626 0.891318 0.897891 0.890299 0.898055 0.890225 0.898055 0.890299 0.897891 0.891318 0.898626 0.890316 0.918967 0.861233 1.05027 0.67169 1.0688 0.817852 0.93906 0.942689 0.953858 0.951252 1.04134 0.810375 0.823754 0.834293 0.773806 0.700033 0.749265 0.739705 0.733203 0.664524 0.695426 0.732587 0.751494 0.754911 0.758432 0.817803 0.865227 0.845587 0.946383 0.939501 0.950465 0.94889 0.945571 0.834149 0.9003 0.371687 1.0667 0.819201 0.921738 0.885611 0.89959 0.89029 0.898277 0.889369 0.89846 0.889376 0.89846 0.889369 0.898277 0.89029 0.89959 0.885611 0.921738 0.819201 1.0667 0.371687 0.9003 0.834149 0.945571 0.94889 0.950465 0.939501 0.946383 0.845587 0.865227 0.817803 0.758432 0.754911 0.751494 0.732587 0.695426 0.664524 0.624946 0.695329 0.743998 0.746687 0.652773 0.915205 0.863363 0.878895 0.934597 0.94211 0.949235 0.835903 0.896755 0.896755 0.835903 0.949235 0.94211 0.934597 0.878895 0.863363 0.915205 0.652773 0.746687 0.743998 0.695329 0.624946 0.557219 0.651768 0.698061 0.680111 0.711342 0.611565 1.12274 0.95666 0.863155 0.888434 0.927727 0.945983 0.955241 0.823374 0.870942 0.898895 0.916693 0.469415 1.07496 0.826662 0.924664 0.884747 0.899554 0.889172 0.898694 0.887762 0.898907 0.888651 0.898907 0.887762 0.898694 0.889172 0.899554 0.884747 0.924664 0.826662 1.07496 0.469415 0.916693 0.898895 0.870942 0.823374 0.955241 0.945983 0.927727 0.888434 0.863155 0.95666 1.12274 0.611565 0.711342 0.680111 0.698061 0.651768 0.557219 0.486653 0.547179 0.601523 0.634465 0.675475 0.632011 0.564408 0.439879 0.49481 1.03363 0.897973 0.88767 0.936852 0.95496 0.801718 0.837866 0.855803 0.877706 0.888115 1.08406 0.805857 0.926592 0.883037 0.900379 0.888968 0.899164 0.888073 0.899301 0.888694 0.899301 0.888073 0.899164 0.888968 0.900379 0.883037 0.926592 0.805857 1.08406 0.888115 0.877706 0.855803 0.837866 0.801718 0.95496 0.936852 0.88767 0.897973 1.03363 0.49481 0.439879 0.564408 0.632011 0.675475 0.634465 0.601523 0.547179 0.486653 0.353612 0.470628 0.618037 0.66017 0.595497 0.431763 0.359542 0.940618 0.883297 0.943068 0.956593 0.809885 0.776712 0.828549 0.869703 0.905041 0.525801 0.525801 0.905041 0.869703 0.828549 0.776712 0.809885 0.956593 0.943068 0.883297 0.940618 0.359542 0.431763 0.595497 0.66017 0.618037 0.470628 0.353612 0.273999 0.313506 0.370843 0.473324 0.53987 0.668452 0.709152 0.539927 0.612553 0.219403 0.281741 1.00885 0.932371 0.886707 0.928335 0.932122 0.851593 0.900254 0.918874 0.537095 1.09757 0.7904 0.92989 0.878423 0.901378 0.887508 0.899577 0.888117 0.899649 0.888762 0.899649 0.888117 0.899577 0.887508 0.901378 0.878423 0.92989 0.7904 1.09757 0.537095 0.918874 0.900254 0.851593 0.932122 0.928335 0.886707 0.932371 1.00885 0.281741 0.219403 0.612553 0.539927 0.709152 0.668452 0.53987 0.473324 0.370843 0.313506 0.273999 0.127581 0.203115 0.239259 0.471073 0.621986 0.594408 0.127883 0.272382 0.967816 0.918591 0.924031 0.972646 0.787724 0.849682 0.846574 0.856993 0.882561 0.907346 0.916937 0.914332 1.11005 1.11005 0.914332 0.916937 0.907346 0.882561 0.856993 0.846574 0.849682 0.787724 0.972646 0.924031 0.918591 0.967816 0.272382 0.127883 0.594408 0.621986 0.471073 0.239259 0.203115 0.127581 0.0892935 0.180154 0.293923 0.375665 0.49916 0.56087 0.63805 0.696697 0.643699 0.717067 0.694942 0.313635 0.893954 0.912929 0.918516 0.889976 0.898313 0.834295 0.900525 0.91917 0.552188 0.788987 0.931634 0.874106 0.901771 0.88751 0.899824 0.888217 0.8999 0.88894 0.8999 0.888217 0.899824 0.88751 0.901771 0.874106 0.931634 0.788987 0.552188 0.91917 0.900525 0.834295 0.898313 0.889976 0.918516 0.912929 0.893954 0.313635 0.694942 0.717067 0.643699 0.696697 0.63805 0.56087 0.49916 0.375665 0.293923 0.180154 0.0892935 0.083756 0.148109 0.22545 0.292462 0.382428 0.440586 0.587651 0.795522 1.03524 0.804067 1.25707 0.388898 1.00268 1.03247 0.649354 0.848413 0.794279 0.904514 0.932982 0.564134 1.1203 0.790641 0.933298 0.879129 0.902156 0.888137 0.899994 0.888475 0.900038 0.889265 0.900038 0.888475 0.899994 0.888137 0.902156 0.879129 0.933298 0.790641 1.1203 0.564134 0.932982 0.904514 0.794279 0.848413 0.649354 1.03247 1.00268 0.388898 1.25707 0.804067 1.03524 0.795522 0.587651 0.440586 0.382428 0.292462 0.22545 0.148109 0.083756 0.0121367 0.0905431 0.119233 0.158915 0.309446 0.556501 0.615918 0.253116 0.938157 0.51973 0.680528 0.508386 0.794985 0.589512 0.616628 0.634381 0.915151 0.799103 0.8347 0.853458 0.834647 0.936827 0.757494 0.757494 0.936827 0.834647 0.853458 0.8347 0.799103 0.915151 0.634381 0.616628 0.589512 0.794985 0.508386 0.680528 0.51973 0.938157 0.253116 0.615918 0.556501 0.309446 0.158915 0.119233 0.0905431 0.0121367 0.0245984 0.119426 0.0097258 0.199504 0.399386 0.51468 0.578203 0.607328 0.711785 0.650064 0.642876 0.665765 0.755702 0.6175 0.543716 0.830386 0.863298 0.846027 0.897489 0.856371 0.889388 0.573231 1.12613 0.799655 0.9341 0.880351 0.902334 0.888963 0.900069 0.888869 0.900089 0.889731 0.900089 0.888869 0.900069 0.888963 0.902334 0.880351 0.9341 0.799655 1.12613 0.573231 0.889388 0.856371 0.897489 0.846027 0.863298 0.830386 0.543716 0.6175 0.755702 0.665765 0.642876 0.650064 0.711785 0.607328 0.578203 0.51468 0.399386 0.199504 0.0097258 0.119426 0.0245984 0.0336799 0.109568 0.155311 0.162279 0.312942 0.333411 0.410362 0.541522 0.521897 0.818586 0.503517 0.638284 0.770011 0.704195 0.767122 0.61159 0.575779 0.862359 0.886213 0.901644 0.872486 0.558788 1.0902 0.810255 0.933959 0.881194 0.902377 0.889241 0.898046 0.889359 0.897493 0.890323 0.897493 0.889359 0.898046 0.889241 0.902377 0.881194 0.933959 0.810255 1.0902 0.558788 0.872486 0.901644 0.886213 0.862359 0.575779 0.61159 0.767122 0.704195 0.770011 0.638284 0.503517 0.818586 0.521897 0.541522 0.410362 0.333411 0.312942 0.162279 0.155311 0.109568 0.0336799 0.538888 0.549563 0.919778 0.230914 0.339603 0.252093 0.315069 0.41811 0.604262 0.822086 0.644311 0.497764 0.662047 0.646196 0.71433 0.64769 0.673195 0.766815 0.609713 0.840774 0.849097 0.853683 0.895057 0.895057 0.853683 0.849097 0.840774 0.609713 0.766815 0.673195 0.64769 0.71433 0.646196 0.662047 0.497764 0.644311 0.822086 0.604262 0.41811 0.315069 0.252093 0.339603 0.230914 0.919778 0.549563 0.538888 0.534484 0.868644 0.913191 0.900564 0.395133 0.400143 0.450624 0.593506 0.571941 0.614743 0.675719 0.668204 0.674166 0.672718 0.693776 0.751637 0.734816 0.58643 0.897485 0.869654 0.850492 0.890937 0.845755 0.90412 0.889845 0.820388 0.577174 0.995948 0.814034 0.898078 0.879162 0.894539 0.888563 0.894154 0.889698 0.895006 0.890927 0.895006 0.889698 0.894154 0.888563 0.894539 0.879162 0.898078 0.814034 0.995948 0.577174 0.820388 0.889845 0.90412 0.845755 0.890937 0.850492 0.869654 0.897485 0.58643 0.734816 0.751637 0.693776 0.672718 0.674166 0.668204 0.675719 0.614743 0.571941 0.593506 0.450624 0.400143 0.395133 0.900564 0.913191 0.868644 0.534484 0.861316 0.875108 0.86692 0.454334 0.431518 0.445807 0.877482 0.902803 0.655342 0.692732 0.668898 0.683709 0.692765 0.738699 0.758059 0.607939 0.860902 0.865298 0.855922 0.807419 0.607093 1.00308 0.820201 0.920297 0.879342 0.89489 0.893561 0.895048 0.890375 0.895084 0.891399 0.895084 0.890375 0.895048 0.893561 0.89489 0.879342 0.920297 0.820201 1.00308 0.607093 0.807419 0.855922 0.865298 0.860902 0.607939 0.758059 0.738699 0.692765 0.683709 0.668898 0.692732 0.655342 0.902803 0.877482 0.445807 0.431518 0.454334 0.86692 0.875108 0.861316 0.840532 0.843461 0.814959 0.859575 0.948587 0.200339 0.563534 0.582595 0.582228 0.696109 0.704206 0.720307 0.770096 0.728982 0.892543 0.833238 0.792163 0.833749 0.833749 0.792163 0.833238 0.892543 0.728982 0.770096 0.720307 0.704206 0.696109 0.582228 0.582595 0.563534 0.200339 0.948587 0.859575 0.814959 0.843461 0.840532 0.832175 0.805003 0.764055 0.778691 0.913036 0.343881 0.444515 0.589021 0.608939 0.643666 0.696823 0.705567 0.696023 0.754625 0.71865 0.637806 0.803742 0.847037 0.846048 0.8639 0.816736 0.851102 0.809199 0.874541 0.644136 0.932164 0.825304 0.893832 0.893832 0.893832 0.893832 0.893832 0.891724 0.8942 0.891867 0.8942 0.891724 0.893832 0.893832 0.893832 0.893832 0.893832 0.825304 0.932164 0.644136 0.874541 0.809199 0.851102 0.816736 0.8639 0.846048 0.847037 0.803742 0.637806 0.71865 0.754625 0.696023 0.705567 0.696823 0.643666 0.608939 0.589021 0.444515 0.343881 0.913036 0.778691 0.764055 0.805003 0.832175 0.577894 0.760622 0.811629 0.896843 0.455205 0.513961 0.593917 0.625467 0.665383 0.703072 0.718339 0.725905 0.712549 0.705855 0.714066 0.73324 0.861369 0.853553 0.889951 0.789244 0.88018 0.68581 0.950282 0.83784 0.899418 0.893749 0.894171 0.893971 0.893987 0.891946 0.894286 0.892217 0.894286 0.891946 0.893987 0.893971 0.894171 0.893749 0.899418 0.83784 0.950282 0.68581 0.88018 0.789244 0.889951 0.853553 0.861369 0.73324 0.714066 0.705855 0.712549 0.725905 0.718339 0.703072 0.665383 0.625467 0.593917 0.513961 0.455205 0.896843 0.811629 0.760622 0.577894 0.815045 0.831811 0.619015 0.563535 0.866693 0.667947 0.542 0.683318 0.709451 0.739329 0.746394 0.738733 0.718398 0.706174 0.722672 0.754994 0.790404 0.84791 0.821194 0.805618 0.805618 0.821194 0.84791 0.790404 0.754994 0.722672 0.706174 0.718398 0.738733 0.746394 0.739329 0.709451 0.683318 0.542 0.667947 0.866693 0.563535 0.619015 0.831811 0.815045 0.715373 0.752993 0.795598 0.734129 0.668435 0.656921 0.63068 0.760097 0.753018 0.70097 0.7136 0.748284 0.780852 0.819529 0.85331 0.854554 0.837659 0.861572 0.791728 1.01544 0.785112 0.948986 0.74045 0.893832 0.893832 0.893832 0.893832 0.893832 0.893832 0.893832 0.893832 0.894002 0.892543 0.894002 0.893832 0.893832 0.893832 0.893832 0.893832 0.893832 0.893832 0.893832 0.74045 0.948986 0.785112 1.01544 0.791728 0.861572 0.837659 0.854554 0.85331 0.819529 0.780852 0.748284 0.7136 0.70097 0.753018 0.760097 0.63068 0.656921 0.668435 0.734129 0.795598 0.752993 0.715373 0.590669 0.579116 0.656676 0.706346 0.738008 0.75885 0.764925 0.766763 0.804417 0.809967 0.746087 0.958659 0.767505 0.940791 0.769278 0.911608 0.892006 0.893994 0.893833 0.893844 0.893847 0.893856 0.893802 0.89398 0.892792 0.89398 0.893802 0.893856 0.893847 0.893844 0.893833 0.893994 0.892006 0.911608 0.769278 0.940791 0.767505 0.958659 0.746087 0.809967 0.804417 0.766763 0.764925 0.75885 0.738008 0.706346 0.656676 0.579116 0.590669 0.73287 0.831937 0.732585 0.765956 0.853729 0.708441 0.722912 0.623294 0.617722 0.668501 0.70534 0.726404 0.733502 0.754067 0.665317 0.684383 0.695568 0.726176 0.80443 0.783155 0.783155 0.80443 0.726176 0.695568 0.684383 0.665317 0.754067 0.733502 0.726404 0.70534 0.668501 0.617722 0.623294 0.722912 0.708441 0.853729 0.765956 0.732585 0.831937 0.73287 0.732644 0.714077 0.84417 0.764301 0.7752 0.860964 0.657367 0.653638 0.67925 0.714152 0.746918 0.768867 0.681003 0.667089 0.703926 0.706502 0.755801 0.800609 0.853049 0.78216 0.921194 0.802671 0.918305 0.808454 0.906642 0.799088 0.893832 0.893832 0.893832 0.893832 0.893832 0.893832 0.893832 0.893832 0.893832 0.893009 0.893832 0.893832 0.893832 0.893832 0.893832 0.893832 0.893832 0.893832 0.893832 0.799088 0.906642 0.808454 0.918305 0.802671 0.921194 0.78216 0.853049 0.800609 0.755801 0.706502 0.703926 0.667089 0.681003 0.768867 0.746918 0.714152 0.67925 0.653638 0.657367 0.860964 0.7752 0.764301 0.84417 0.714077 0.732644 0.782035 0.617745 0.631803 0.816404 0.84293 0.842533 0.918708 1.00815 0.97192 0.84417 0.92635 0.833394 0.901152 0.895497 0.895257 0.894878 0.894559 0.894297 0.894094 0.893947 0.89392 0.893177 0.89392 0.893947 0.894094 0.894297 0.894559 0.894878 0.895257 0.895497 0.901152 0.833394 0.92635 0.84417 0.97192 1.00815 0.918708 0.842533 0.84293 0.816404 0.631803 0.617745 0.782035 0.754465 0.824929 0.894434 0.730178 0.68843 0.622143 0.638419 0.624345 0.653814 0.705743 0.73248 0.787635 0.82227 0.800743 0.79624 0.843546 0.851627 0.866871 0.866871 0.851627 0.843546 0.79624 0.800743 0.82227 0.787635 0.73248 0.705743 0.653814 0.624345 0.638419 0.622143 0.68843 0.730178 0.894434 0.824929 0.754465 0.802086 0.912238 0.92295 0.8328 0.891328 0.835932 0.718491 0.745455 0.80075 0.656325 0.693721 0.726808 0.756843 0.818574 0.839778 0.876297 0.885747 0.890466 0.898023 0.881061 0.898353 0.880004 0.897967 0.879476 0.897268 0.852842 0.894992 0.85166 0.893832 0.893832 0.893832 0.893832 0.893832 0.893832 0.893832 0.893832 0.893833 0.893318 0.893833 0.893832 0.893832 0.893832 0.893832 0.893832 0.893832 0.893832 0.893832 0.85166 0.894992 0.852842 0.897268 0.879476 0.897967 0.880004 0.898353 0.881061 0.898023 0.890466 0.885747 0.876297 0.839778 0.818574 0.756843 0.726808 0.693721 0.656325 0.80075 0.745455 0.718491 0.835932 0.891328 0.8328 0.92295 0.912238 0.802086 0.835311 0.905582 0.902956 0.859337 0.898291 0.896438 0.920836 0.863637 0.935579 0.756456 0.780009 0.797492 0.8127 0.855233 0.872354 0.902157 0.90182 0.898842 0.907039 0.886947 0.904193 0.885407 0.901548 0.878372 0.898993 0.853215 0.895593 0.864635 0.894095 0.893878 0.893863 0.893853 0.893845 0.89384 0.893836 0.893834 0.893834 0.893428 0.893834 0.893834 0.893836 0.89384 0.893845 0.893853 0.893863 0.893878 0.894095 0.864635 0.895593 0.853215 0.898993 0.878372 0.901548 0.885407 0.904193 0.886947 0.907039 0.898842 0.90182 0.902157 0.872354 0.855233 0.8127 0.797492 0.780009 0.756456 0.935579 0.863637 0.920836 0.896438 0.898291 0.859337 0.902956 0.905582 0.835311 0.861803 0.906853 0.904757 0.868138 0.902387 0.901701 0.882932 0.883072 0.950829 0.795363 0.821161 0.843881 0.855047 0.868432 0.876715 0.900023 0.896776 0.897612 0.894155 0.886688 0.894064 0.886147 0.893906 0.876552 0.893871 0.854809 0.893833 0.873765 0.893832 0.893832 0.893832 0.893832 0.893832 0.893832 0.893832 0.893832 0.893832 0.893515 0.893832 0.893832 0.893832 0.893832 0.893832 0.893832 0.893832 0.893832 0.893832 0.873765 0.893833 0.854809 0.893871 0.876552 0.893906 0.886147 0.894064 0.886688 0.894155 0.897612 0.896776 0.900023 0.876715 0.868432 0.855047 0.843881 0.821161 0.795363 0.950829 0.883072 0.882932 0.901701 0.902387 0.868138 0.904757 0.906853 0.861803 0.88581 0.905104 0.903583 0.869909 0.901108 0.900389 0.85661 0.882079 0.932751 0.8109 0.832224 0.847891 0.860902 0.87389 0.880887 0.896135 0.891977 0.896438 0.894278 0.886038 0.894124 0.88624 0.893929 0.87604 0.893832 0.857873 0.893832 0.880067 0.893832 0.893832 0.893832 0.893832 0.893832 0.893832 0.893832 0.893832 0.893832 0.893582 0.893832 0.893832 0.893832 0.893832 0.893832 0.893832 0.893832 0.893832 0.893832 0.880067 0.893832 0.857873 0.893832 0.87604 0.893929 0.88624 0.894124 0.886038 0.894278 0.896438 0.891977 0.896135 0.880887 0.87389 0.860902 0.847891 0.832224 0.8109 0.932751 0.882079 0.85661 0.900389 0.901108 0.869909 0.903583 0.905104 0.88581 0.897514 0.903129 0.902465 0.871071 0.900191 0.899654 0.844647 0.878665 0.919366 0.826793 0.842415 0.85305 0.862684 0.876969 0.88761 0.89281 0.888761 0.89544 0.893832 0.885856 0.893832 0.885692 0.893832 0.876381 0.893832 0.861748 0.893832 0.884463 0.893832 0.893832 0.893832 0.893832 0.893832 0.893832 0.893832 0.893832 0.893832 0.893635 0.893832 0.893832 0.893832 0.893832 0.893832 0.893832 0.893832 0.893832 0.893832 0.884463 0.893832 0.861748 0.893832 0.876381 0.893832 0.885692 0.893832 0.885856 0.893832 0.89544 0.888761 0.89281 0.88761 0.876969 0.862684 0.85305 0.842415 0.826793 0.919366 0.878665 0.844647 0.899654 0.900191 0.871071 0.902465 0.903129 0.897514 0.899486 0.900878 0.901184 0.872718 0.899268 0.898947 0.84524 0.876294 0.910276 0.839446 0.849689 0.859812 0.864609 0.878989 0.891903 0.890595 0.886955 0.894662 0.893832 0.886313 0.893832 0.884966 0.893832 0.877214 0.893832 0.865893 0.893832 0.887594 0.893832 0.893832 0.893832 0.893832 0.893832 0.893832 0.893832 0.893832 0.893832 0.893677 0.893832 0.893832 0.893832 0.893832 0.893832 0.893832 0.893832 0.893832 0.893832 0.887594 0.893832 0.865893 0.893832 0.877214 0.893832 0.884966 0.893832 0.886313 0.893832 0.894662 0.886955 0.890595 0.891903 0.878989 0.864609 0.859812 0.849689 0.839446 0.910276 0.876294 0.84524 0.898947 0.899268 0.872718 0.901184 0.900878 0.899486 0.898317 0.898722 0.899816 0.874903 0.898368 0.898335 0.851583 0.876194 0.903068 0.849306 0.856238 0.865527 0.86732 0.881312 0.892166 0.889324 0.886151 0.894049 0.893832 0.886929 0.893832 0.884392 0.893832 0.878301 0.893832 0.869956 0.893832 0.889824 0.893832 0.893832 0.893832 0.893832 0.893832 0.893832 0.893832 0.893832 0.893832 0.89371 0.893832 0.893832 0.893832 0.893832 0.893832 0.893832 0.893832 0.893832 0.893832 0.889824 0.893832 0.869956 0.893832 0.878301 0.893832 0.884392 0.893832 0.886929 0.893832 0.894049 0.886151 0.889324 0.892166 0.881312 0.86732 0.865527 0.856238 0.849306 0.903068 0.876194 0.851583 0.898335 0.898368 0.874903 0.899816 0.898722 0.898317 0.896879 0.896879 0.898431 0.877394 0.897502 0.897788 0.859531 0.877961 0.8969 0.857472 0.861941 0.869778 0.870804 0.8843 0.890568 0.888744 0.886179 0.893575 0.893832 0.887365 0.893832 0.884137 0.893832 0.879497 0.893832 0.873748 0.893832 0.891378 0.893832 0.893832 0.893832 0.893832 0.893832 0.893832 0.893832 0.893832 0.893832 0.893736 0.893832 0.893832 0.893832 0.893832 0.893832 0.893832 0.893832 0.893832 0.893832 0.891378 0.893832 0.873748 0.893832 0.879497 0.893832 0.884137 0.893832 0.887365 0.893832 0.893575 0.886179 0.888744 0.890568 0.8843 0.870804 0.869778 0.861941 0.857472 0.8969 0.877961 0.859531 0.897788 0.897502 0.877394 0.898431 0.896879 0.896879 0.895727 0.895417 0.8971 0.879993 0.896686 0.897283 0.867194 0.880582 0.891573 0.863922 0.866451 0.873235 0.87443 0.886787 0.888859 0.888637 0.886812 0.893194 0.893832 0.887619 0.893832 0.884213 0.893832 0.880718 0.893832 0.877173 0.893832 0.89241 0.893832 0.893832 0.893832 0.893832 0.893832 0.893832 0.893832 0.893832 0.893832 0.893757 0.893832 0.893832 0.893832 0.893832 0.893832 0.893832 0.893832 0.893832 0.893832 0.89241 0.893832 0.877173 0.893832 0.880718 0.893832 0.884213 0.893832 0.887619 0.893832 0.893194 0.886812 0.888637 0.888859 0.886787 0.87443 0.873235 0.866451 0.863922 0.891573 0.880582 0.867194 0.897283 0.896686 0.879993 0.8971 0.895417 0.895727 0.894821 0.894334 0.895876 0.882505 0.89592 0.896806 0.873863 0.883156 0.887083 0.8687 0.870101 0.876319 0.877686 0.887942 0.887656 0.888822 0.887783 0.892864 0.893832 0.887791 0.893832 0.884556 0.893832 0.881919 0.893832 0.880191 0.893832 0.893063 0.893832 0.893832 0.893832 0.893832 0.893832 0.893832 0.893832 0.893832 0.893832 0.893773 0.893832 0.893832 0.893832 0.893832 0.893832 0.893832 0.893832 0.893832 0.893832 0.893063 0.893832 0.880191 0.893832 0.881919 0.893832 0.884556 0.893832 0.887791 0.893832 0.892864 0.887783 0.888822 0.887656 0.887942 0.877686 0.876319 0.870101 0.8687 0.887083 0.883156 0.873863 0.896806 0.89592 0.882505 0.895876 0.894334 0.894821 0.894098 0.893575 0.894799 0.88476 0.895216 0.896349 0.879329 0.885226 0.883545 0.872232 0.873214 0.879051 0.880391 0.888078 0.887022 0.889156 0.888865 0.892567 0.893832 0.887955 0.893832 0.885085 0.893832 0.88308 0.893832 0.882794 0.893832 0.893456 0.893832 0.893832 0.893832 0.893832 0.893832 0.893832 0.893832 0.893832 0.893832 0.893786 0.893832 0.893832 0.893832 0.893832 0.893832 0.893832 0.893832 0.893832 0.893832 0.893456 0.893832 0.882794 0.893832 0.88308 0.893832 0.885085 0.893832 0.887955 0.893832 0.892567 0.888865 0.889156 0.887022 0.888078 0.880391 0.879051 0.873214 0.872232 0.883545 0.885226 0.879329 0.896349 0.895216 0.88476 0.894799 0.893575 0.894098 0.89353 0.893069 0.893899 0.88666 0.894589 0.895909 0.88361 0.886682 0.88102 0.874948 0.875891 0.881334 0.882507 0.887867 0.886852 0.889545 0.889907 0.892304 0.893832 0.888151 0.893832 0.885727 0.893832 0.884187 0.893832 0.884996 0.893832 0.893672 0.893832 0.893832 0.893832 0.893832 0.893832 0.893832 0.893832 0.893832 0.893832 0.893796 0.893832 0.893832 0.893832 0.893832 0.893832 0.893832 0.893832 0.893832 0.893832 0.893672 0.893832 0.884996 0.893832 0.884187 0.893832 0.885727 0.893832 0.888151 0.893832 0.892304 0.889907 0.889545 0.886852 0.887867 0.882507 0.881334 0.875891 0.874948 0.88102 0.886682 0.88361 0.895909 0.894589 0.88666 0.893899 0.893069 0.89353 0.893085 0.892748 0.893182 0.888181 0.894045 0.895484 0.886831 0.887576 0.879435 0.877113 0.878148 0.883144 0.884078 0.887719 0.887021 0.889938 0.890825 0.892079 0.893832 0.888399 0.893832 0.886423 0.893832 0.885237 0.893832 0.88683 0.893832 0.893774 0.893832 0.893832 0.893832 0.893832 0.893832 0.893832 0.893832 0.893832 0.893832 0.893804 0.893832 0.893832 0.893832 0.893832 0.893832 0.893832 0.893832 0.893832 0.893832 0.893774 0.893832 0.88683 0.893832 0.885237 0.893832 0.886423 0.893832 0.888399 0.893832 0.892079 0.890825 0.889938 0.887021 0.887719 0.884078 0.883144 0.878148 0.877113 0.879435 0.887576 0.886831 0.895484 0.894045 0.888181 0.893182 0.892748 0.893085 0.89273 0.892555 0.892637 0.889342 0.893575 0.895076 0.889151 0.888024 0.878634 0.878874 0.880008 0.884525 0.885215 0.887754 0.887423 0.890307 0.891586 0.891896 0.893832 0.8887 0.893832 0.887128 0.893832 0.886224 0.893832 0.888333 0.893832 0.893814 0.893832 0.893832 0.893832 0.893832 0.893832 0.893832 0.893832 0.893832 0.893832 0.89381 0.893832 0.893832 0.893832 0.893832 0.893832 0.893832 0.893832 0.893832 0.893832 0.893814 0.893832 0.888333 0.893832 0.886224 0.893832 0.887128 0.893832 0.8887 0.893832 0.891896 0.891586 0.890307 0.887423 0.887754 0.885215 0.884525 0.880008 0.878874 0.878634 0.888024 0.889151 0.895076 0.893575 0.889342 0.892637 0.892555 0.89273 0.893172 0.886042 0.88796 0.887974 0.89064 0.892188 0.891755 0.893832 0.889042 0.893832 0.88781 0.893832 0.887146 0.893832 0.889548 0.893832 0.893827 0.893832 0.893832 0.893832 0.893832 0.893832 0.893832 0.893832 0.893832 0.893832 0.893815 0.893832 0.893832 0.893832 0.893832 0.893832 0.893832 0.893832 0.893832 0.893832 0.893827 0.893832 0.889548 0.893832 0.887146 0.893832 0.88781 0.893832 0.889042 0.893832 0.891755 0.892188 0.89064 0.887974 0.88796 0.886042 0.893172 0.892445 0.892439 0.892242 0.890187 0.894688 0.890731 0.888155 0.878443 0.88033 0.881522 0.885557 0.885557 0.881522 0.88033 0.878443 0.888155 0.890731 0.894688 0.890187 0.892242 0.892439 0.892445 0.89222 0.892362 0.891971 0.890769 0.892829 0.894321 0.891726 0.888088 0.878706 0.881554 0.882759 0.886328 0.886673 0.888289 0.888606 0.890931 0.892649 0.891656 0.893832 0.88941 0.893832 0.888454 0.893832 0.888 0.893832 0.890517 0.893832 0.893831 0.893832 0.893832 0.893832 0.893832 0.893832 0.893832 0.893832 0.893832 0.893832 0.893819 0.893832 0.893832 0.893832 0.893832 0.893832 0.893832 0.893832 0.893832 0.893832 0.893831 0.893832 0.890517 0.893832 0.888 0.893832 0.888454 0.893832 0.88941 0.893832 0.891656 0.892649 0.890931 0.888606 0.888289 0.886673 0.886328 0.882759 0.881554 0.878706 0.888088 0.891726 0.894321 0.892829 0.890769 0.891971 0.892362 0.89222 0.892049 0.892301 0.891796 0.891152 0.892544 0.893976 0.892278 0.887923 0.879293 0.882606 0.883787 0.886924 0.887208 0.888695 0.889267 0.891182 0.892992 0.891599 0.893832 0.889788 0.893832 0.889049 0.893832 0.888782 0.893832 0.891282 0.893832 0.893832 0.893832 0.893832 0.893832 0.893832 0.893832 0.893832 0.893832 0.893832 0.893832 0.893822 0.893832 0.893832 0.893832 0.893832 0.893832 0.893832 0.893832 0.893832 0.893832 0.893832 0.893832 0.891282 0.893832 0.888782 0.893832 0.889049 0.893832 0.889788 0.893832 0.891599 0.892992 0.891182 0.889267 0.888695 0.887208 0.886924 0.883787 0.882606 0.879293 0.887923 0.892278 0.893976 0.892544 0.891152 0.891796 0.892301 0.892049 0.891921 0.89224 0.89169 0.891394 0.892315 0.893656 0.89251 0.887736 0.880095 0.883527 0.884665 0.887415 0.887718 0.889138 0.889917 0.891396 0.89324 0.89158 0.893832 0.890162 0.893832 0.889595 0.893832 0.88949 0.893832 0.891879 0.893832 0.893832 0.893832 0.893832 0.893832 0.893832 0.893832 0.893832 0.893832 0.893832 0.893832 0.893824 0.893832 0.893832 0.893832 0.893832 0.893832 0.893832 0.893832 0.893832 0.893832 0.893832 0.893832 0.891879 0.893832 0.88949 0.893832 0.889595 0.893832 0.890162 0.893832 0.89158 0.89324 0.891396 0.889917 0.889138 0.887718 0.887415 0.884665 0.883527 0.880095 0.887736 0.89251 0.893656 0.892315 0.891394 0.89169 0.89224 0.891921 0.891828 0.892171 0.89163 0.891546 0.892141 0.893362 0.892526 0.887579 0.881029 0.884351 0.88544 0.887852 0.888238 0.889589 0.89053 0.891579 0.893418 0.891596 0.893832 0.890524 0.893832 0.890092 0.893832 0.890125 0.893832 0.892341 0.893832 0.893832 0.893832 0.893832 0.893832 0.893832 0.893832 0.893832 0.893832 0.893832 0.893832 0.893826 0.893832 0.893832 0.893832 0.893832 0.893832 0.893832 0.893832 0.893832 0.893832 0.893832 0.893832 0.892341 0.893832 0.890125 0.893832 0.890092 0.893832 0.890524 0.893832 0.891596 0.893418 0.891579 0.89053 0.889589 0.888238 0.887852 0.88544 0.884351 0.881029 0.887579 0.892526 0.893362 0.892141 0.891546 0.89163 0.892171 0.891828 0.891759 0.892093 0.891599 0.891644 0.892019 0.893092 0.892408 0.887481 0.882026 0.885102 0.886142 0.888267 0.888773 0.890028 0.891087 0.891736 0.893543 0.891642 0.893832 0.890865 0.893832 0.890541 0.893832 0.890686 0.893832 0.892698 0.893832 0.893832 0.893832 0.893832 0.893832 0.893832 0.893832 0.893832 0.893832 0.893832 0.893832 0.893827 0.893832 0.893832 0.893832 0.893832 0.893832 0.893832 0.893832 0.893832 0.893832 0.893832 0.893832 0.892698 0.893832 0.890686 0.893832 0.890541 0.893832 0.890865 0.893832 0.891642 0.893543 0.891736 0.891087 0.890028 0.888773 0.888267 0.886142 0.885102 0.882026 0.887481 0.892408 0.893092 0.892019 0.891644 0.891599 0.892093 0.891759 0.891709 0.892005 0.891585 0.891712 0.891941 0.892849 0.892219 0.887459 0.883037 0.885793 0.886793 0.888675 0.889313 0.890438 0.891579 0.891873 0.893632 0.891712 0.893832 0.891182 0.893832 0.890946 0.893832 0.891179 0.893832 0.892971 0.893832 0.893832 0.893832 0.893832 0.893832 0.893832 0.893832 0.893832 0.893832 0.893832 0.893832 0.893828 0.893832 0.893832 0.893832 0.893832 0.893832 0.893832 0.893832 0.893832 0.893832 0.893832 0.893832 0.892971 0.893832 0.891179 0.893832 0.890946 0.893832 0.891182 0.893832 0.891712 0.893632 0.891873 0.891579 0.890438 0.889313 0.888675 0.886793 0.885793 0.883037 0.887459 0.892219 0.892849 0.891941 0.891712 0.891585 0.892005 0.891709 0.891672 0.891912 0.891579 0.891767 0.891902 0.89263 0.892002 0.887513 0.884025 0.886432 0.887406 0.889079 0.88984 0.890812 0.892005 0.891993 0.893694 0.891801 0.893832 0.891474 0.893832 0.891311 0.893832 0.891607 0.893832 0.89318 0.893832 0.893832 0.893832 0.893832 0.893832 0.893832 0.893832 0.893832 0.893832 0.893832 0.893832 0.893829 0.893832 0.893832 0.893832 0.893832 0.893832 0.893832 0.893832 0.893832 0.893832 0.893832 0.893832 0.89318 0.893832 0.891607 0.893832 0.891311 0.893832 0.891474 0.893832 0.891801 0.893694 0.891993 0.892005 0.890812 0.88984 0.889079 0.887406 0.886432 0.884025 0.887513 0.892002 0.89263 0.891902 0.891767 0.891579 0.891912 0.891672 0.891645 0.891818 0.891575 0.891818 0.891893 0.892435 0.891786 0.887636 0.884965 0.887023 0.887986 0.889473 0.890341 0.891145 0.892366 0.892102 0.893738 0.891905 0.893832 0.891739 0.893832 0.891637 0.893832 0.891976 0.893832 0.89334 0.893832 0.893832 0.893832 0.893832 0.893832 0.893832 0.893832 0.893832 0.893832 0.893832 0.893832 0.89383 0.893832 0.893832 0.893832 0.893832 0.893832 0.893832 0.893832 0.893832 0.893832 0.893832 0.893832 0.89334 0.893832 0.891976 0.893832 0.891637 0.893832 0.891739 0.893832 0.891905 0.893738 0.892102 0.892366 0.891145 0.890341 0.889473 0.887986 0.887023 0.884965 0.887636 0.891786 0.892435 0.891893 0.891818 0.891575 0.891818 0.891645 0.891626 0.891725 0.891572 0.891867 0.891909 0.892264 0.891589 0.887815 0.885842 0.887568 0.888533 0.88985 0.890805 0.891437 0.892667 0.892201 0.893769 0.892018 0.893832 0.891978 0.893832 0.891928 0.893832 0.892291 0.893832 0.893462 0.893832 0.893832 0.893832 0.893832 0.893832 0.893832 0.893832 0.893832 0.893832 0.893832 0.893832 0.89383 0.893832 0.893832 0.893832 0.893832 0.893832 0.893832 0.893832 0.893832 0.893832 0.893832 0.893832 0.893462 0.893832 0.892291 0.893832 0.891928 0.893832 0.891978 0.893832 0.892018 0.893769 0.892201 0.892667 0.891437 0.890805 0.88985 0.888533 0.887568 0.885842 0.887815 0.891589 0.892264 0.891909 0.891867 0.891572 0.891725 0.891626 0.891612 0.891639 0.891569 0.891917 0.891943 0.892114 0.891418 0.888036 0.886645 0.888066 0.889045 0.890202 0.891225 0.89169 0.892914 0.892293 0.893791 0.892138 0.893832 0.892194 0.893832 0.892187 0.893832 0.892558 0.893832 0.893555 0.893832 0.893832 0.893832 0.893832 0.893832 0.893832 0.893832 0.893832 0.893832 0.893832 0.893832 0.893831 0.893832 0.893832 0.893832 0.893832 0.893832 0.893832 0.893832 0.893832 0.893832 0.893832 0.893832 0.893555 0.893832 0.892558 0.893832 0.892187 0.893832 0.892194 0.893832 0.892138 0.893791 0.892293 0.892914 0.89169 0.891225 0.890202 0.889045 0.888066 0.886645 0.888036 0.891418 0.892114 0.891943 0.891917 0.891569 0.891639 0.891612 0.891602 0.891561 0.891566 0.891965 0.89199 0.891984 0.891278 0.888285 0.887372 0.888518 0.889518 0.890527 0.891601 0.891907 0.893115 0.892378 0.893806 0.892259 0.893832 0.892387 0.893832 0.892417 0.893832 0.892785 0.893832 0.893625 0.893832 0.893832 0.893832 0.893832 0.893832 0.893832 0.893832 0.893832 0.893832 0.893832 0.893832 0.893831 0.893832 0.893832 0.893832 0.893832 0.893832 0.893832 0.893832 0.893832 0.893832 0.893832 0.893832 0.893625 0.893832 0.892785 0.893832 0.892417 0.893832 0.892387 0.893832 0.892259 0.893806 0.892378 0.893115 0.891907 0.891601 0.890527 0.889518 0.888518 0.887372 0.888285 0.891278 0.891984 0.89199 0.891965 0.891566 0.891561 0.891602 0.891596 0.891494 0.891563 0.892012 0.892046 0.891873 0.891166 0.88855 0.888023 0.888924 0.88995 0.89082 0.891932 0.892092 0.893277 0.892458 0.893816 0.89238 0.893832 0.892559 0.893832 0.89262 0.893832 0.892974 0.893832 0.893678 0.893832 0.893832 0.893832 0.893832 0.893832 0.893832 0.893832 0.893832 0.893832 0.893832 0.893832 0.893831 0.893832 0.893832 0.893832 0.893832 0.893832 0.893832 0.893832 0.893832 0.893832 0.893832 0.893832 0.893678 0.893832 0.892974 0.893832 0.89262 0.893832 0.892559 0.893832 0.89238 0.893816 0.892458 0.893277 0.892092 0.891932 0.89082 0.88995 0.888924 0.888023 0.88855 0.891166 0.891873 0.892046 0.892012 0.891563 0.891494 0.891596 0.891592 0.891438 0.89156 0.892057 0.892107 0.891778 0.891081 0.888819 0.888602 0.889287 0.890342 0.891082 0.89222 0.892248 0.893406 0.892533 0.893823 0.892497 0.893832 0.892712 0.893832 0.892798 0.893832 0.893133 0.893832 0.893719 0.893832 0.893832 0.893832 0.893832 0.893832 0.893832 0.893832 0.893832 0.893832 0.893832 0.893832 0.893832 0.893832 0.893832 0.893832 0.893832 0.893832 0.893832 0.893832 0.893832 0.893832 0.893832 0.893832 0.893719 0.893832 0.893133 0.893832 0.892798 0.893832 0.892712 0.893832 0.892497 0.893823 0.892533 0.893406 0.892248 0.89222 0.891082 0.890342 0.889287 0.888602 0.888819 0.891081 0.891778 0.892107 0.892057 0.89156 0.891438 0.891592 0.891589 0.891393 0.891559 0.892099 0.89217 0.891699 0.891019 0.889085 0.889113 0.889608 0.890693 0.891315 0.892469 0.892381 0.893508 0.892604 0.893827 0.892609 0.893832 0.892848 0.893832 0.892954 0.893832 0.893265 0.893832 0.893749 0.893832 0.893832 0.893832 0.893832 0.893832 0.893832 0.893832 0.893832 0.893832 0.893832 0.893832 0.893832 0.893832 0.893832 0.893832 0.893832 0.893832 0.893832 0.893832 0.893832 0.893832 0.893832 0.893832 0.893749 0.893832 0.893265 0.893832 0.892954 0.893832 0.892848 0.893832 0.892609 0.893827 0.892604 0.893508 0.892381 0.892469 0.891315 0.890693 0.889608 0.889113 0.889085 0.891019 0.891699 0.89217 0.892099 0.891559 0.891393 0.891589 0.891587 0.891359 0.891559 0.892138 0.892234 0.891633 0.890978 0.88934 0.889562 0.889891 0.891007 0.891519 0.892683 0.892492 0.893587 0.892671 0.893829 0.892715 0.893832 0.892969 0.893832 0.89309 0.893832 0.893374 0.893832 0.893772 0.893832 0.893832 0.893832 0.893832 0.893832 0.893832 0.893832 0.893832 0.893832 0.893832 0.893832 0.893832 0.893832 0.893832 0.893832 0.893832 0.893832 0.893832 0.893832 0.893832 0.893832 0.893832 0.893832 0.893772 0.893832 0.893374 0.893832 0.89309 0.893832 0.892969 0.893832 0.892715 0.893829 0.892671 0.893587 0.892492 0.892683 0.891519 0.891007 0.889891 0.889562 0.88934 0.890978 0.891633 0.892234 0.892138 0.891559 0.891359 0.891587 0.891586 0.891334 0.891559 0.892174 0.892296 0.891579 0.890954 0.889581 0.889955 0.890138 0.891285 0.891698 0.892865 0.892587 0.893649 0.892733 0.893831 0.892814 0.893832 0.893075 0.893832 0.893208 0.893832 0.893464 0.893832 0.893788 0.893832 0.893832 0.893832 0.893832 0.893832 0.893832 0.893832 0.893832 0.893832 0.893832 0.893832 0.893832 0.893832 0.893832 0.893832 0.893832 0.893832 0.893832 0.893832 0.893832 0.893832 0.893832 0.893832 0.893788 0.893832 0.893464 0.893832 0.893208 0.893832 0.893075 0.893832 0.892814 0.893831 0.892733 0.893649 0.892587 0.892865 0.891698 0.891285 0.890138 0.889955 0.889581 0.890954 0.891579 0.892296 0.892174 0.891559 0.891334 0.891586 0.891585 0.891318 0.891561 0.892207 0.892355 0.891535 0.890944 0.889803 0.890297 0.890354 0.891529 0.891853 0.89302 0.892666 0.893697 0.892791 0.893831 0.892904 0.893832 0.893169 0.893832 0.893309 0.893832 0.893537 0.893832 0.893801 0.893832 0.893832 0.893832 0.893832 0.893832 0.893832 0.893832 0.893832 0.893832 0.893832 0.893832 0.893832 0.893832 0.893832 0.893832 0.893832 0.893832 0.893832 0.893832 0.893832 0.893832 0.893832 0.893832 0.893801 0.893832 0.893537 0.893832 0.893309 0.893832 0.893169 0.893832 0.892904 0.893831 0.892791 0.893697 0.892666 0.89302 0.891853 0.891529 0.890354 0.890297 0.889803 0.890944 0.891535 0.892355 0.892207 0.891561 0.891318 0.891585 0.891585 0.891309 0.891564 0.892236 0.89241 0.8915 0.890945 0.890004 0.890592 0.89054 0.891743 0.891988 0.89315 0.892732 0.893733 0.892845 0.893832 0.892985 0.893832 0.89325 0.893832 0.893395 0.893832 0.893597 0.893832 0.89381 0.893832 0.893832 0.893832 0.893832 0.893832 0.893832 0.893832 0.893832 0.893832 0.893832 0.893832 0.893832 0.893832 0.893832 0.893832 0.893832 0.893832 0.893832 0.893832 0.893832 0.893832 0.893832 0.893832 0.89381 0.893832 0.893597 0.893832 0.893395 0.893832 0.89325 0.893832 0.892985 0.893832 0.892845 0.893733 0.892732 0.89315 0.891988 0.891743 0.89054 0.890592 0.890004 0.890945 0.8915 0.89241 0.892236 0.891564 0.891309 0.891585 0.891584 0.891305 0.891568 0.892263 0.89246 0.891472 0.890953 0.890184 0.890846 0.890701 0.891929 0.892103 0.893258 0.892788 0.893761 0.892893 0.893832 0.893058 0.893832 0.893321 0.893832 0.893467 0.893832 0.893645 0.893832 0.893816 0.893832 0.893832 0.893832 0.893832 0.893832 0.893832 0.893832 0.893832 0.893832 0.893832 0.893832 0.893832 0.893832 0.893832 0.893832 0.893832 0.893832 0.893832 0.893832 0.893832 0.893832 0.893832 0.893832 0.893816 0.893832 0.893645 0.893832 0.893467 0.893832 0.893321 0.893832 0.893058 0.893832 0.892893 0.893761 0.892788 0.893258 0.892103 0.891929 0.890701 0.890846 0.890184 0.890953 0.891472 0.89246 0.892263 0.891568 0.891305 0.891584 0.891584 0.891305 0.891572 0.892286 0.892505 0.89145 0.890966 0.89034 0.891061 0.890838 0.892087 0.892202 0.893348 0.892834 0.893781 0.892937 0.893832 0.893121 0.893832 0.893381 0.893832 0.893528 0.893832 0.893684 0.893832 0.893821 0.893832 0.893832 0.893832 0.893832 0.893832 0.893832 0.893832 0.893832 0.893832 0.893832 0.893832 0.893832 0.893832 0.893832 0.893832 0.893832 0.893832 0.893832 0.893832 0.893832 0.893832 0.893832 0.893832 0.893821 0.893832 0.893684 0.893832 0.893528 0.893832 0.893381 0.893832 0.893121 0.893832 0.892937 0.893781 0.892834 0.893348 0.892202 0.892087 0.890838 0.891061 0.89034 0.890966 0.89145 0.892505 0.892286 0.891572 0.891305 0.891584 0.891584 0.891308 0.891575 0.892306 0.892545 0.891434 0.890982 0.890474 0.891241 0.890953 0.892221 0.892284 0.893422 0.892872 0.893796 0.892975 0.893832 0.893176 0.893832 0.893431 0.893832 0.893577 0.893832 0.893714 0.893832 0.893825 0.893832 0.893832 0.893832 0.893832 0.893832 0.893832 0.893832 0.893832 0.893832 0.893832 0.893832 0.893832 0.893832 0.893832 0.893832 0.893832 0.893832 0.893832 0.893832 0.893832 0.893832 0.893832 0.893832 0.893825 0.893832 0.893714 0.893832 0.893577 0.893832 0.893431 0.893832 0.893176 0.893832 0.892975 0.893796 0.892872 0.893422 0.892284 0.892221 0.890953 0.891241 0.890474 0.890982 0.891434 0.892545 0.892306 0.891575 0.891308 0.891584 0.891583 0.891312 0.891579 0.892323 0.892578 0.891422 0.890999 0.890584 0.891388 0.891047 0.892331 0.892351 0.893481 0.892903 0.893807 0.893007 0.893832 0.893221 0.893832 0.893473 0.893832 0.893616 0.893832 0.893737 0.893832 0.893827 0.893832 0.893832 0.893832 0.893832 0.893832 0.893832 0.893832 0.893832 0.893832 0.893832 0.893832 0.893832 0.893832 0.893832 0.893832 0.893832 0.893832 0.893832 0.893832 0.893832 0.893832 0.893832 0.893832 0.893827 0.893832 0.893737 0.893832 0.893616 0.893832 0.893473 0.893832 0.893221 0.893832 0.893007 0.893807 0.892903 0.893481 0.892351 0.892331 0.891047 0.891388 0.890584 0.890999 0.891422 0.892578 0.892323 0.891579 0.891312 0.891583 0.891583 0.891317 0.891582 0.892337 0.892605 0.891413 0.891014 0.890672 0.891503 0.891121 0.892417 0.892403 0.893526 0.892926 0.893814 0.893034 0.893832 0.893257 0.893832 0.893505 0.893832 0.893647 0.893832 0.893755 0.893832 0.893829 0.893832 0.893832 0.893832 0.893832 0.893832 0.893832 0.893832 0.893832 0.893832 0.893832 0.893832 0.893832 0.893832 0.893832 0.893832 0.893832 0.893832 0.893832 0.893832 0.893832 0.893832 0.893832 0.893832 0.893829 0.893832 0.893755 0.893832 0.893647 0.893832 0.893505 0.893832 0.893257 0.893832 0.893034 0.893814 0.892926 0.893526 0.892403 0.892417 0.891121 0.891503 0.890672 0.891014 0.891413 0.892605 0.892337 0.891582 0.891317 0.891583 0.891583 0.891321 0.891585 0.892347 0.892625 0.891407 0.891027 0.890737 0.891589 0.891176 0.892482 0.892442 0.893559 0.892944 0.89382 0.893054 0.893832 0.893284 0.893832 0.89353 0.893832 0.893669 0.893832 0.893767 0.893832 0.89383 0.893832 0.893832 0.893832 0.893832 0.893832 0.893832 0.893832 0.893832 0.893832 0.893832 0.893832 0.893832 0.893832 0.893832 0.893832 0.893832 0.893832 0.893832 0.893832 0.893832 0.893832 0.893832 0.893832 0.89383 0.893832 0.893767 0.893832 0.893669 0.893832 0.89353 0.893832 0.893284 0.893832 0.893054 0.89382 0.892944 0.893559 0.892442 0.892482 0.891176 0.891589 0.890737 0.891027 0.891407 0.892625 0.892347 0.891585 0.891321 0.891583 0.891583 0.891324 0.891587 0.892354 0.892639 0.891403 0.891036 0.890781 0.891645 0.891213 0.892525 0.892468 0.893581 0.892955 0.893823 0.893067 0.893832 0.893302 0.893832 0.893546 0.893832 0.893684 0.893832 0.893775 0.893832 0.89383 0.893832 0.893832 0.893832 0.893832 0.893832 0.893832 0.893832 0.893832 0.893832 0.893832 0.893832 0.893832 0.893832 0.893832 0.893832 0.893832 0.893832 0.893832 0.893832 0.893832 0.893832 0.893832 0.893832 0.89383 0.893832 0.893775 0.893832 0.893684 0.893832 0.893546 0.893832 0.893302 0.893832 0.893067 0.893823 0.892955 0.893581 0.892468 0.892525 0.891213 0.891645 0.890781 0.891036 0.891403 0.892639 0.892354 0.891587 0.891324 0.891583 0.891583 0.891326 0.891587 0.892358 0.892645 0.891402 0.891041 0.890802 0.891673 0.891231 0.892546 0.892481 0.893591 0.892961 0.893824 0.893074 0.893832 0.893311 0.893832 0.893554 0.893832 0.893691 0.893832 0.893779 0.893832 0.893831 0.893832 0.893832 0.893832 0.893832 0.893832 0.893832 0.893832 0.893832 0.893832 0.893832 0.893832 0.893832 0.893832 0.893832 0.893832 0.893832 0.893832 0.893832 0.893832 0.893832 0.893832 0.893832 0.893832 0.893831 0.893832 0.893779 0.893832 0.893691 0.893832 0.893554 0.893832 0.893311 0.893832 0.893074 0.893824 0.892961 0.893591 0.892481 0.892546 0.891231 0.891673 0.890802 0.891041 0.891402 0.892645 0.892358 0.891587 0.891326 0.891583 
SCALARS Axial_Stress float 1
LOOKUP_TABLE default
-348716000000.0 -90627300000.0 -90627300000.0 -348716000000.0 -847271000000.0 -790038000000.0 -309814000000.0 -159917000000.0 -75415800000.0 -75415800000.0 -159917000000.0 -309814000000.0 -790038000000.0 -847271000000.0 -1.43641e+12 -2.61017e+12 -990301000000.0 -703139000000.0 -528333000000.0 -133069000000.0 -23058900000.0 -58653400000.0 -10737200000.0 -43645000000.0 -19661800000.0 -28363600000.0 -29904400000.0 -34596900000.0 -38129400000.0 -41780200000.0 -43458400000.0 -45469800000.0 -45239100000.0 -45469800000.0 -43458400000.0 -41780200000.0 -38129400000.0 -34596900000.0 -29904400000.0 -28363600000.0 -19661800000.0 -43645000000.0 -10737200000.0 -58653400000.0 -23058900000.0 -133069000000.0 -528333000000.0 -703139000000.0 -990301000000.0 -2.61017e+12 -1.43641e+12 -1.82234e+12 -1.681e+12 -2.89858e+12 -1.48787e+12 -113568000000.0 -285141000000.0 -221440000000.0 -143897000000.0 -139476000000.0 -188006000000.0 -60811000000.0 -140029000000.0 -59317800000.0 -71059400000.0 -62546500000.0 -64328600000.0 -64755300000.0 -67976100000.0 -67959200000.0 -70928800000.0 -69439600000.0 -70928800000.0 -67959200000.0 -67976100000.0 -64755300000.0 -64328600000.0 -62546500000.0 -71059400000.0 -59317800000.0 -140029000000.0 -60811000000.0 -188006000000.0 -139476000000.0 -143897000000.0 -221440000000.0 -285141000000.0 -113568000000.0 -1.48787e+12 -2.89858e+12 -1.681e+12 -1.82234e+12 -1.91157e+12 -2.88613e+12 -2.97573e+12 -1.59871e+12 -1.41771e+12 -977885000000.0 -229627000000.0 -161553000000.0 -161553000000.0 -229627000000.0 -977885000000.0 -1.41771e+12 -1.59871e+12 -2.97573e+12 -2.88613e+12 -1.91157e+12 -2.00519e+12 -2.85051e+12 -2.80389e+12 -2.66265e+12 -1.92399e+12 -755944000000.0 -845329000000.0 -175633000000.0 -278533000000.0 -313449000000.0 -154303000000.0 -272431000000.0 -153990000000.0 -172356000000.0 -158799000000.0 -160377000000.0 -157800000000.0 -159040000000.0 -155598000000.0 -157733000000.0 -154557000000.0 -157733000000.0 -155598000000.0 -159040000000.0 -157800000000.0 -160377000000.0 -158799000000.0 -172356000000.0 -153990000000.0 -272431000000.0 -154303000000.0 -313449000000.0 -278533000000.0 -175633000000.0 -845329000000.0 -755944000000.0 -1.92399e+12 -2.66265e+12 -2.80389e+12 -2.85051e+12 -2.00519e+12 -2.05674e+12 -2.04785e+12 -3.06856e+12 -2.86288e+12 -2.67861e+12 -2.49573e+12 -1.54611e+12 -1.39513e+12 -1.14182e+12 -745718000000.0 -482104000000.0 -309712000000.0 -212123000000.0 -339023000000.0 -205550000000.0 -227171000000.0 -212631000000.0 -216179000000.0 -215259000000.0 -218404000000.0 -215596000000.0 -218756000000.0 -215424000000.0 -218756000000.0 -215596000000.0 -218404000000.0 -215259000000.0 -216179000000.0 -212631000000.0 -227171000000.0 -205550000000.0 -339023000000.0 -212123000000.0 -309712000000.0 -482104000000.0 -745718000000.0 -1.14182e+12 -1.39513e+12 -1.54611e+12 -2.49573e+12 -2.67861e+12 -2.86288e+12 -3.06856e+12 -2.04785e+12 -2.05674e+12 -2.07086e+12 -3.23514e+12 -2.60522e+12 -2.35353e+12 -2.2637e+12 -1.62855e+12 -1.39203e+12 -948283000000.0 -1.06433e+12 -787805000000.0 -314381000000.0 -314381000000.0 -787805000000.0 -1.06433e+12 -948283000000.0 -1.39203e+12 -1.62855e+12 -2.2637e+12 -2.35353e+12 -2.60522e+12 -3.23514e+12 -2.07086e+12 -2.07681e+12 -3.35426e+12 -3.24123e+12 -2.97401e+12 -2.58072e+12 -2.21126e+12 -2.13958e+12 -1.95448e+12 -1.56324e+12 -1.59272e+12 -1.23774e+12 -1.08676e+12 -878662000000.0 -653784000000.0 -157915000000.0 -106675000000.0 -267234000000.0 -112131000000.0 -150729000000.0 -142498000000.0 -156726000000.0 -164646000000.0 -174790000000.0 -176591000000.0 -182683000000.0 -180093000000.0 -182683000000.0 -176591000000.0 -174790000000.0 -164646000000.0 -156726000000.0 -142498000000.0 -150729000000.0 -112131000000.0 -267234000000.0 -106675000000.0 -157915000000.0 -653784000000.0 -878662000000.0 -1.08676e+12 -1.23774e+12 -1.59272e+12 -1.56324e+12 -1.95448e+12 -2.13958e+12 -2.21126e+12 -2.58072e+12 -2.97401e+12 -3.24123e+12 -3.35426e+12 -2.07681e+12 -2.02826e+12 -2.05968e+12 -3.35258e+12 -3.39148e+12 -3.28944e+12 -3.22921e+12 -1.98001e+12 -1.9444e+12 -1.86914e+12 -1.64558e+12 -1.4687e+12 -1.37576e+12 -1.17044e+12 -1.02839e+12 -724678000000.0 -346541000000.0 -254520000000.0 -417465000000.0 -225745000000.0 -249111000000.0 -218657000000.0 -219099000000.0 -209314000000.0 -204278000000.0 -196371000000.0 -198810000000.0 -195148000000.0 -198810000000.0 -196371000000.0 -204278000000.0 -209314000000.0 -219099000000.0 -218657000000.0 -249111000000.0 -225745000000.0 -417465000000.0 -254520000000.0 -346541000000.0 -724678000000.0 -1.02839e+12 -1.17044e+12 -1.37576e+12 -1.4687e+12 -1.64558e+12 -1.86914e+12 -1.9444e+12 -1.98001e+12 -3.22921e+12 -3.28944e+12 -3.39148e+12 -3.35258e+12 -2.05968e+12 -2.02826e+12 -1.99222e+12 -3.25349e+12 -3.23717e+12 -3.33715e+12 -3.44942e+12 -1.56164e+12 -1.58259e+12 -1.81916e+12 -1.68288e+12 -1.58735e+12 -1.21472e+12 -801132000000.0 -359703000000.0 -359703000000.0 -801132000000.0 -1.21472e+12 -1.58735e+12 -1.68288e+12 -1.81916e+12 -1.58259e+12 -1.56164e+12 -3.44942e+12 -3.33715e+12 -3.23717e+12 -3.25349e+12 -1.99222e+12 -1.94764e+12 -3.11538e+12 -3.14837e+12 -3.03377e+12 -3.17331e+12 -3.22422e+12 -1.49262e+12 -1.50245e+12 -1.72292e+12 -1.84863e+12 -1.77878e+12 -1.86247e+12 -1.44349e+12 -927654000000.0 -572768000000.0 -399080000000.0 -247289000000.0 -196976000000.0 -336641000000.0 -171127000000.0 -221063000000.0 -209158000000.0 -224441000000.0 -229109000000.0 -237668000000.0 -237933000000.0 -243188000000.0 -240379000000.0 -243188000000.0 -237933000000.0 -237668000000.0 -229109000000.0 -224441000000.0 -209158000000.0 -221063000000.0 -171127000000.0 -336641000000.0 -196976000000.0 -247289000000.0 -399080000000.0 -572768000000.0 -927654000000.0 -1.44349e+12 -1.86247e+12 -1.77878e+12 -1.84863e+12 -1.72292e+12 -1.50245e+12 -1.49262e+12 -3.22422e+12 -3.17331e+12 -3.03377e+12 -3.14837e+12 -3.11538e+12 -1.94764e+12 -1.88809e+12 -2.87418e+12 -2.98953e+12 -2.84591e+12 -3.01941e+12 -2.92669e+12 -2.91416e+12 -2.91207e+12 -3.12394e+12 -1.42501e+12 -1.29835e+12 -1.113e+12 -1.93538e+12 -1.59489e+12 -1.08583e+12 -985918000000.0 -771998000000.0 -515287000000.0 -329339000000.0 -360484000000.0 -187568000000.0 -231739000000.0 -213596000000.0 -226744000000.0 -229877000000.0 -237248000000.0 -237333000000.0 -242040000000.0 -240072000000.0 -242040000000.0 -237333000000.0 -237248000000.0 -229877000000.0 -226744000000.0 -213596000000.0 -231739000000.0 -187568000000.0 -360484000000.0 -329339000000.0 -515287000000.0 -771998000000.0 -985918000000.0 -1.08583e+12 -1.59489e+12 -1.93538e+12 -1.113e+12 -1.29835e+12 -1.42501e+12 -3.12394e+12 -2.91207e+12 -2.91416e+12 -2.92669e+12 -3.01941e+12 -2.84591e+12 -2.98953e+12 -2.87418e+12 -1.88809e+12 -1.75768e+12 -1.83493e+12 -2.7288e+12 -2.7752e+12 -2.76057e+12 -2.47362e+12 -2.64577e+12 -1.46103e+12 -1.30137e+12 -977351000000.0 -2.22402e+12 -1.71662e+12 -1.28204e+12 -1.24414e+12 -765661000000.0 -413155000000.0 -239706000000.0 -239706000000.0 -413155000000.0 -765661000000.0 -1.24414e+12 -1.28204e+12 -1.71662e+12 -2.22402e+12 -977351000000.0 -1.30137e+12 -1.46103e+12 -2.64577e+12 -2.47362e+12 -2.76057e+12 -2.7752e+12 -2.7288e+12 -1.83493e+12 -1.75768e+12 -1.67977e+12 -2.59674e+12 -2.65948e+12 -2.76047e+12 -2.60841e+12 -2.53534e+12 -2.54979e+12 -2.68695e+12 -2.42926e+12 -2.55481e+12 -2.09149e+12 -1.48736e+12 -1.48592e+12 -1.20006e+12 -776083000000.0 -1.03573e+12 -1.04162e+12 -536482000000.0 -323298000000.0 -329309000000.0 -361026000000.0 -218084000000.0 -256215000000.0 -243383000000.0 -258786000000.0 -263547000000.0 -272213000000.0 -274771000000.0 -279232000000.0 -278719000000.0 -279232000000.0 -274771000000.0 -272213000000.0 -263547000000.0 -258786000000.0 -243383000000.0 -256215000000.0 -218084000000.0 -361026000000.0 -329309000000.0 -323298000000.0 -536482000000.0 -1.04162e+12 -1.03573e+12 -776083000000.0 -1.20006e+12 -1.48592e+12 -1.48736e+12 -2.09149e+12 -2.55481e+12 -2.42926e+12 -2.68695e+12 -2.54979e+12 -2.53534e+12 -2.60841e+12 -2.76047e+12 -2.65948e+12 -2.59674e+12 -1.67977e+12 -1.47819e+12 -1.58067e+12 -2.53707e+12 -2.48259e+12 -2.44238e+12 -2.56072e+12 -1.62055e+12 -2.74481e+12 -1.77569e+12 -1.24723e+12 -1.03122e+12 -1.14832e+12 -1.15591e+12 -884979000000.0 -1.17722e+12 -1.10173e+12 -855215000000.0 -654798000000.0 -464368000000.0 -356005000000.0 -351311000000.0 -351311000000.0 -356005000000.0 -464368000000.0 -654798000000.0 -855215000000.0 -1.10173e+12 -1.17722e+12 -884979000000.0 -1.15591e+12 -1.14832e+12 -1.03122e+12 -1.24723e+12 -1.77569e+12 -2.74481e+12 -1.62055e+12 -2.56072e+12 -2.44238e+12 -2.48259e+12 -2.53707e+12 -1.58067e+12 -1.47819e+12 -1.35209e+12 -2.46658e+12 -2.36298e+12 -2.42877e+12 -2.25684e+12 -2.26739e+12 -1.98442e+12 -2.15786e+12 -2.61147e+12 -3.45345e+12 -2.20608e+12 -1.35785e+12 -2.11207e+12 -1.56791e+12 -533323000000.0 -646106000000.0 -524877000000.0 -445039000000.0 -949681000000.0 -529051000000.0 -448259000000.0 -258449000000.0 -272346000000.0 -263782000000.0 -275627000000.0 -279011000000.0 -284835000000.0 -287581000000.0 -289272000000.0 -290218000000.0 -289272000000.0 -287581000000.0 -284835000000.0 -279011000000.0 -275627000000.0 -263782000000.0 -272346000000.0 -258449000000.0 -448259000000.0 -529051000000.0 -949681000000.0 -445039000000.0 -524877000000.0 -646106000000.0 -533323000000.0 -1.56791e+12 -2.11207e+12 -1.35785e+12 -2.20608e+12 -3.45345e+12 -2.61147e+12 -2.15786e+12 -1.98442e+12 -2.26739e+12 -2.25684e+12 -2.42877e+12 -2.36298e+12 -2.46658e+12 -1.35209e+12 -1.21769e+12 -2.374e+12 -2.25831e+12 -2.3177e+12 -2.15649e+12 -2.15347e+12 -2.14957e+12 -822197000000.0 -2.78566e+12 -3.42249e+12 -1.01349e+12 -2.99154e+12 -968156000000.0 -1.06502e+12 -1.47493e+12 -425105000000.0 -457830000000.0 -633194000000.0 -365286000000.0 -550778000000.0 -308184000000.0 -279894000000.0 -264354000000.0 -264579000000.0 -272644000000.0 -277706000000.0 -281963000000.0 -286199000000.0 -285860000000.0 -288659000000.0 -285860000000.0 -286199000000.0 -281963000000.0 -277706000000.0 -272644000000.0 -264579000000.0 -264354000000.0 -279894000000.0 -308184000000.0 -550778000000.0 -365286000000.0 -633194000000.0 -457830000000.0 -425105000000.0 -1.47493e+12 -1.06502e+12 -968156000000.0 -2.99154e+12 -1.01349e+12 -3.42249e+12 -2.78566e+12 -822197000000.0 -2.14957e+12 -2.15347e+12 -2.15649e+12 -2.3177e+12 -2.25831e+12 -2.374e+12 -1.21769e+12 -1.10231e+12 -2.05212e+12 -2.24269e+12 -2.18145e+12 -2.11507e+12 -1.86341e+12 -2.30179e+12 -3.37236e+12 -975269000000.0 -2.62279e+12 -1.58234e+12 -1.8492e+12 -1.30681e+12 -1.15583e+12 -623906000000.0 -742366000000.0 -270250000000.0 -932270000000.0 -686836000000.0 -484382000000.0 -282058000000.0 -655256000000.0 -321026000000.0 -321026000000.0 -655256000000.0 -282058000000.0 -484382000000.0 -686836000000.0 -932270000000.0 -270250000000.0 -742366000000.0 -623906000000.0 -1.15583e+12 -1.30681e+12 -1.8492e+12 -1.58234e+12 -2.62279e+12 -975269000000.0 -3.37236e+12 -2.30179e+12 -1.86341e+12 -2.11507e+12 -2.18145e+12 -2.24269e+12 -2.05212e+12 -1.10231e+12 -954889000000.0 -1.7776e+12 -2.05657e+12 -2.11078e+12 -1.93092e+12 -1.96412e+12 -1.6743e+12 -1.50734e+12 -2.03387e+12 -1.79419e+12 -1.41946e+12 -1.45089e+12 -1.44439e+12 -630149000000.0 -831648000000.0 -941081000000.0 -585198000000.0 -844698000000.0 -301838000000.0 -498438000000.0 -441223000000.0 -618759000000.0 -263079000000.0 -294050000000.0 -250978000000.0 -261898000000.0 -264723000000.0 -271605000000.0 -274498000000.0 -280383000000.0 -278425000000.0 -282995000000.0 -278425000000.0 -280383000000.0 -274498000000.0 -271605000000.0 -264723000000.0 -261898000000.0 -250978000000.0 -294050000000.0 -263079000000.0 -618760000000.0 -441223000000.0 -498438000000.0 -301838000000.0 -844698000000.0 -585198000000.0 -941081000000.0 -831648000000.0 -630149000000.0 -1.44439e+12 -1.45089e+12 -1.41946e+12 -1.79419e+12 -2.03387e+12 -1.50734e+12 -1.6743e+12 -1.96412e+12 -1.93092e+12 -2.11078e+12 -2.05657e+12 -1.7776e+12 -954889000000.0 -671372000000.0 -1.31209e+12 -1.85636e+12 -2.0512e+12 -2.03924e+12 -1.97629e+12 -1.90044e+12 -1.55626e+12 -2.07113e+12 -637979000000.0 -2.25682e+12 -2.12705e+12 -1.33979e+12 -822517000000.0 -1.02864e+12 -778363000000.0 -843421000000.0 -611872000000.0 -605975000000.0 -424757000000.0 -198410000000.0 -555282000000.0 -182875000000.0 -257722000000.0 -202388000000.0 -220970000000.0 -220366000000.0 -227910000000.0 -229638000000.0 -236006000000.0 -233172000000.0 -238516000000.0 -233172000000.0 -236006000000.0 -229638000000.0 -227910000000.0 -220366000000.0 -220970000000.0 -202388000000.0 -257722000000.0 -182875000000.0 -555282000000.0 -198410000000.0 -424757000000.0 -605975000000.0 -611872000000.0 -843421000000.0 -778363000000.0 -1.02864e+12 -822517000000.0 -1.33979e+12 -2.12705e+12 -2.25682e+12 -637979000000.0 -2.07113e+12 -1.55626e+12 -1.90044e+12 -1.97629e+12 -2.03924e+12 -2.0512e+12 -1.85636e+12 -1.31209e+12 -671372000000.0 -126178000000.0 -345362000000.0 -603078000000.0 -1.52011e+12 -1.71837e+12 -1.91214e+12 -1.93331e+12 -1.95584e+12 -1.63079e+12 -446495000000.0 -1.76342e+12 -1.61805e+12 -1.40394e+12 -1.59347e+12 -1.32818e+12 -1.34362e+12 -1.1001e+12 -933037000000.0 -632260000000.0 -519802000000.0 -602125000000.0 -515649000000.0 -553662000000.0 -553662000000.0 -515649000000.0 -602125000000.0 -519802000000.0 -632260000000.0 -933037000000.0 -1.1001e+12 -1.34362e+12 -1.32818e+12 -1.59347e+12 -1.40394e+12 -1.61805e+12 -1.76342e+12 -446495000000.0 -1.63079e+12 -1.95584e+12 -1.93331e+12 -1.91214e+12 -1.71837e+12 -1.52011e+12 -603078000000.0 -345362000000.0 -126178000000.0 -218427000000.0 -378385000000.0 -720224000000.0 -707352000000.0 -1.79343e+12 -1.89732e+12 -2.33467e+12 -1.00694e+12 -1.43109e+12 -1.28351e+12 -1.22411e+12 -1.28574e+12 -1.13394e+12 -1.01033e+12 -678105000000.0 -610789000000.0 -796868000000.0 -874192000000.0 -295118000000.0 -488348000000.0 -302667000000.0 -624723000000.0 -141709000000.0 -446861000000.0 -259458000000.0 -291303000000.0 -465589000000.0 -72244900000.0 -108268000000.0 -45803200000.0 -54616300000.0 -48389900000.0 -49251800000.0 -47564100000.0 -49979400000.0 -46372700000.0 -50337600000.0 -46372700000.0 -49979400000.0 -47564100000.0 -49251800000.0 -48389900000.0 -54616300000.0 -45803200000.0 -108268000000.0 -72244900000.0 -465589000000.0 -291303000000.0 -259458000000.0 -446861000000.0 -141709000000.0 -624723000000.0 -302667000000.0 -488348000000.0 -295118000000.0 -874192000000.0 -796868000000.0 -610789000000.0 -678105000000.0 -1.01033e+12 -1.13394e+12 -1.28574e+12 -1.22411e+12 -1.28351e+12 -1.43109e+12 -1.00694e+12 -2.33467e+12 -1.89732e+12 -1.79343e+12 -707352000000.0 -720224000000.0 -378385000000.0 -218427000000.0 -533422000000.0 -699652000000.0 -737289000000.0 -1.96465e+12 -2.08012e+12 -1.26723e+12 -2.57332e+12 -1.0317e+12 -1.13549e+12 -1.0803e+12 -1.05479e+12 -931130000000.0 -729293000000.0 -612138000000.0 -450799000000.0 -660644000000.0 -407555000000.0 -574268000000.0 -422440000000.0 -218954000000.0 -524490000000.0 -284043000000.0 -312838000000.0 -273573000000.0 -274467000000.0 -272567000000.0 -272542000000.0 -272337000000.0 -273820000000.0 -271231000000.0 -274432000000.0 -271231000000.0 -273820000000.0 -272337000000.0 -272542000000.0 -272567000000.0 -274467000000.0 -273573000000.0 -312838000000.0 -284043000000.0 -524490000000.0 -218954000000.0 -422440000000.0 -574268000000.0 -407555000000.0 -660644000000.0 -450799000000.0 -612138000000.0 -729293000000.0 -931130000000.0 -1.05479e+12 -1.0803e+12 -1.13549e+12 -1.0317e+12 -2.57332e+12 -1.26723e+12 -2.08012e+12 -1.96465e+12 -737289000000.0 -699652000000.0 -533422000000.0 -138376000000.0 -586872000000.0 -668746000000.0 -919633000000.0 -786718000000.0 -2.12217e+12 -936708000000.0 -1.03879e+12 -1.17681e+12 -853299000000.0 -928971000000.0 -992775000000.0 -859076000000.0 -897107000000.0 -488092000000.0 -353576000000.0 -345235000000.0 -480156000000.0 -480156000000.0 -345235000000.0 -353576000000.0 -488092000000.0 -897107000000.0 -859076000000.0 -992775000000.0 -928971000000.0 -853299000000.0 -1.17681e+12 -1.03879e+12 -936708000000.0 -2.12217e+12 -786718000000.0 -919633000000.0 -668746000000.0 -586872000000.0 -138376000000.0 -473254000000.0 -351488000000.0 -550753000000.0 -1.16424e+12 -957001000000.0 -739201000000.0 -1.69177e+12 -841387000000.0 -994924000000.0 -1.04815e+12 -1.01146e+12 -962216000000.0 -915890000000.0 -496887000000.0 -378185000000.0 -575379000000.0 -136625000000.0 -342645000000.0 -377076000000.0 -519344000000.0 -206828000000.0 -363425000000.0 -239718000000.0 -278996000000.0 -360358000000.0 -20342400000.0 -39246500000.0 -9039120000.0 -9045950000.0 -9053370000.0 -9063150000.0 -9082090000.0 -10535600000.0 -9128600000.0 -12216800000.0 -9128600000.0 -10535600000.0 -9082090000.0 -9063150000.0 -9053370000.0 -9045950000.0 -9039120000.0 -39246500000.0 -20342400000.0 -360358000000.0 -278996000000.0 -239718000000.0 -363425000000.0 -206828000000.0 -519344000000.0 -377076000000.0 -342645000000.0 -136625000000.0 -575379000000.0 -378185000000.0 -496887000000.0 -915890000000.0 -962216000000.0 -1.01146e+12 -1.04815e+12 -994924000000.0 -841387000000.0 -1.69177e+12 -739201000000.0 -957001000000.0 -1.16424e+12 -550753000000.0 -351488000000.0 -473254000000.0 -233588000000.0 -813527000000.0 -1.16729e+12 -683918000000.0 -802307000000.0 -691329000000.0 -1.21378e+12 -944708000000.0 -968337000000.0 -952216000000.0 -900849000000.0 -842390000000.0 -785387000000.0 -741608000000.0 -624352000000.0 -787752000000.0 -588400000000.0 -385663000000.0 -279491000000.0 -372260000000.0 -292960000000.0 -509310000000.0 -324231000000.0 -310088000000.0 -295588000000.0 -287263000000.0 -280090000000.0 -274186000000.0 -269893000000.0 -267710000000.0 -265981000000.0 -268119000000.0 -265981000000.0 -267710000000.0 -269893000000.0 -274186000000.0 -280090000000.0 -287263000000.0 -295588000000.0 -310088000000.0 -324231000000.0 -509310000000.0 -292960000000.0 -372260000000.0 -279491000000.0 -385663000000.0 -588400000000.0 -787752000000.0 -624352000000.0 -741608000000.0 -785387000000.0 -842390000000.0 -900849000000.0 -952216000000.0 -968337000000.0 -944708000000.0 -1.21378e+12 -691329000000.0 -802307000000.0 -683918000000.0 -1.16729e+12 -813527000000.0 -233588000000.0 -256549000000.0 -383804000000.0 -549799000000.0 -1.02204e+12 -15483500000.0 -791892000000.0 -664856000000.0 -989461000000.0 -924552000000.0 -862326000000.0 -793002000000.0 -725733000000.0 -686475000000.0 -678097000000.0 -772573000000.0 -956502000000.0 -916845000000.0 -756484000000.0 -324306000000.0 -252469000000.0 -252469000000.0 -324306000000.0 -756484000000.0 -916845000000.0 -956502000000.0 -772573000000.0 -678097000000.0 -686475000000.0 -725733000000.0 -793002000000.0 -862326000000.0 -924552000000.0 -989461000000.0 -664856000000.0 -791892000000.0 -15483500000.0 -1.02204e+12 -549799000000.0 -383804000000.0 -256549000000.0 -253350000000.0 -360302000000.0 -177847000000.0 -576936000000.0 -494206000000.0 -575126000000.0 -1.26698e+12 -640904000000.0 -559888000000.0 -540115000000.0 -529189000000.0 -383832000000.0 -439339000000.0 -454524000000.0 -409086000000.0 -405741000000.0 -346259000000.0 -429296000000.0 -345226000000.0 -236885000000.0 -307698000000.0 -81275200000.0 -232390000000.0 -9035750000.0 -9035750000.0 -9035750000.0 -9035750000.0 -9035760000.0 -9035780000.0 -9035920000.0 -9036300000.0 -9078240000.0 -11285600000.0 -9078240000.0 -9036300000.0 -9035920000.0 -9035780000.0 -9035760000.0 -9035750000.0 -9035750000.0 -9035750000.0 -9035750000.0 -232390000000.0 -81275200000.0 -307698000000.0 -236885000000.0 -345226000000.0 -429296000000.0 -346259000000.0 -405741000000.0 -409086000000.0 -454524000000.0 -439339000000.0 -383832000000.0 -529189000000.0 -540115000000.0 -559888000000.0 -640904000000.0 -1.26698e+12 -575126000000.0 -494206000000.0 -576936000000.0 -177847000000.0 -360302000000.0 -253350000000.0 -113155000000.0 -770069000000.0 -759261000000.0 -888434000000.0 -858579000000.0 -803201000000.0 -724357000000.0 -125932000000.0 -25621000000.0 -50257400000.0 -166872000000.0 -68967200000.0 -281182000000.0 -148225000000.0 -309905000000.0 -190822000000.0 -193674000000.0 -195949000000.0 -197351000000.0 -198033000000.0 -198187000000.0 -198031000000.0 -197762000000.0 -197568000000.0 -199263000000.0 -197568000000.0 -197762000000.0 -198031000000.0 -198187000000.0 -198033000000.0 -197351000000.0 -195949000000.0 -193674000000.0 -190822000000.0 -309905000000.0 -148225000000.0 -281182000000.0 -68967200000.0 -166872000000.0 -50257400000.0 -25621000000.0 -125932000000.0 -724357000000.0 -803201000000.0 -858579000000.0 -888434000000.0 -759261000000.0 -770069000000.0 -113155000000.0 -247699000000.0 -420075000000.0 -379611000000.0 -219627000000.0 -129645000000.0 -502427000000.0 -399179000000.0 -1.1174e+12 -957465000000.0 -674988000000.0 -548526000000.0 -462450000000.0 -383952000000.0 -322269000000.0 -240079000000.0 -217374000000.0 -145927000000.0 -221352000000.0 -189048000000.0 -105754000000.0 -105754000000.0 -189048000000.0 -221352000000.0 -145927000000.0 -217374000000.0 -240079000000.0 -322269000000.0 -383952000000.0 -462450000000.0 -548526000000.0 -674988000000.0 -957465000000.0 -1.1174e+12 -399179000000.0 -502427000000.0 -129645000000.0 -219627000000.0 -379611000000.0 -420075000000.0 -247699000000.0 -82887000000.0 -249005000000.0 -18419400000.0 -291201000000.0 -196505000000.0 -156457000000.0 -540907000000.0 -538064000000.0 -566555000000.0 -477892000000.0 -384466000000.0 -273328000000.0 -173132000000.0 -138933000000.0 -130876000000.0 -46059800000.0 -164502000000.0 -34052700000.0 -123101000000.0 -95420000000.0 -45719200000.0 -104664000000.0 -28548600000.0 -177277000000.0 -17624200000.0 -118262000000.0 -9035750000.0 -9035750000.0 -9035750000.0 -9035750000.0 -9035750000.0 -9035750000.0 -9035750000.0 -9035750000.0 -9035750000.0 -10559900000.0 -9035750000.0 -9035750000.0 -9035750000.0 -9035750000.0 -9035750000.0 -9035750000.0 -9035750000.0 -9035750000.0 -9035750000.0 -118262000000.0 -17624200000.0 -177277000000.0 -28548600000.0 -104664000000.0 -45719200000.0 -95420000000.0 -123101000000.0 -34052700000.0 -164502000000.0 -46059800000.0 -130876000000.0 -138933000000.0 -173132000000.0 -273328000000.0 -384466000000.0 -477892000000.0 -566555000000.0 -538064000000.0 -540907000000.0 -156457000000.0 -196505000000.0 -291201000000.0 -18419400000.0 -249005000000.0 -82887000000.0 -138103000000.0 -690887000000.0 -654728000000.0 -393540000000.0 -345434000000.0 -388539000000.0 -338510000000.0 -262290000000.0 -221732000000.0 -346901000000.0 -207733000000.0 -260172000000.0 -174323000000.0 -156350000000.0 -140554000000.0 -126791000000.0 -115090000000.0 -105476000000.0 -97979600000.0 -92618400000.0 -89405800000.0 -89548700000.0 -89405800000.0 -92618400000.0 -97979600000.0 -105476000000.0 -115090000000.0 -126791000000.0 -140554000000.0 -156350000000.0 -174323000000.0 -260172000000.0 -207733000000.0 -346901000000.0 -221732000000.0 -262290000000.0 -338510000000.0 -388539000000.0 -345434000000.0 -393540000000.0 -654728000000.0 -690887000000.0 -138103000000.0 -172205000000.0 -33101800000.0 -16052100000.0 -220538000000.0 -201767000000.0 -285920000000.0 -295075000000.0 -496719000000.0 -522583000000.0 -456215000000.0 -388894000000.0 -312733000000.0 -274374000000.0 -343705000000.0 -363983000000.0 -351746000000.0 -331544000000.0 -314163000000.0 -314163000000.0 -331544000000.0 -351746000000.0 -363983000000.0 -343705000000.0 -274374000000.0 -312733000000.0 -388894000000.0 -456215000000.0 -522583000000.0 -496719000000.0 -295075000000.0 -285920000000.0 -201767000000.0 -220538000000.0 -16052100000.0 -33101800000.0 -172205000000.0 -113066000000.0 -52946900000.0 -111522000000.0 -261291000000.0 -157079000000.0 -242994000000.0 -348035000000.0 -259677000000.0 -75290700000.0 -447754000000.0 -404956000000.0 -344327000000.0 -299625000000.0 -190836000000.0 -121893000000.0 -38928800000.0 -38158300000.0 -20542200000.0 -15903500000.0 -67031100000.0 -14156800000.0 -80668000000.0 -14302700000.0 -106569000000.0 -14486200000.0 -148035000000.0 -10497100000.0 -61847500000.0 -9035750000.0 -9035750000.0 -9035750000.0 -9035750000.0 -9035750000.0 -9035750000.0 -9035750000.0 -9035750000.0 -9035930000.0 -10009000000.0 -9035930000.0 -9035750000.0 -9035750000.0 -9035750000.0 -9035750000.0 -9035750000.0 -9035750000.0 -9035750000.0 -9035750000.0 -61847500000.0 -10497100000.0 -148035000000.0 -14486200000.0 -106569000000.0 -14302700000.0 -80668000000.0 -14156800000.0 -67031100000.0 -15903500000.0 -20542200000.0 -38158300000.0 -38928800000.0 -121893000000.0 -190836000000.0 -299625000000.0 -344327000000.0 -404956000000.0 -447754000000.0 -75290700000.0 -259677000000.0 -348035000000.0 -242994000000.0 -157079000000.0 -261291000000.0 -111522000000.0 -52946900000.0 -113066000000.0 -72449100000.0 -18656900000.0 -13415300000.0 -126106000000.0 -22382200000.0 -13724200000.0 -162736000000.0 -149138000000.0 -45496600000.0 -365667000000.0 -381263000000.0 -359787000000.0 -348449000000.0 -280641000000.0 -234524000000.0 -182752000000.0 -160764000000.0 -130003000000.0 -101227000000.0 -137973000000.0 -76079800000.0 -129016000000.0 -57331600000.0 -138290000000.0 -44536800000.0 -157889000000.0 -36236300000.0 -66577400000.0 -27849200000.0 -24613400000.0 -21975900000.0 -19839700000.0 -18128600000.0 -16785100000.0 -15770100000.0 -15058500000.0 -14636100000.0 -15261000000.0 -14636100000.0 -15058500000.0 -15770100000.0 -16785100000.0 -18128600000.0 -19839700000.0 -21975900000.0 -24613400000.0 -27849200000.0 -66577400000.0 -36236300000.0 -157889000000.0 -44536800000.0 -138290000000.0 -57331600000.0 -129016000000.0 -76079800000.0 -137973000000.0 -101227000000.0 -130003000000.0 -160764000000.0 -182752000000.0 -234524000000.0 -280641000000.0 -348449000000.0 -359787000000.0 -381263000000.0 -365667000000.0 -45496600000.0 -149138000000.0 -162736000000.0 -13724200000.0 -22382200000.0 -126106000000.0 -13415300000.0 -18656900000.0 -72449100000.0 -50338900000.0 -30680500000.0 -39844300000.0 -136794000000.0 -53795700000.0 -67442200000.0 -213000000000.0 -175979000000.0 -116611000000.0 -322930000000.0 -248375000000.0 -177498000000.0 -145913000000.0 -90772600000.0 -59115200000.0 -39928300000.0 -33534000000.0 -25042200000.0 -9640370000.0 -60666800000.0 -9544240000.0 -71973800000.0 -9445000000.0 -93373300000.0 -9324920000.0 -112881000000.0 -9076420000.0 -32620300000.0 -9035760000.0 -9035760000.0 -9035760000.0 -9035760000.0 -9035760000.0 -9035760000.0 -9035750000.0 -9035750000.0 -9035750000.0 -9637980000.0 -9035750000.0 -9035750000.0 -9035750000.0 -9035760000.0 -9035760000.0 -9035760000.0 -9035760000.0 -9035760000.0 -9035760000.0 -32620300000.0 -9076420000.0 -112881000000.0 -9324920000.0 -93373300000.0 -9445000000.0 -71973800000.0 -9544240000.0 -60666800000.0 -9640370000.0 -25042200000.0 -33534000000.0 -39928300000.0 -59115200000.0 -90772600000.0 -145913000000.0 -177498000000.0 -248375000000.0 -322930000000.0 -116611000000.0 -175979000000.0 -213000000000.0 -67442200000.0 -53795700000.0 -136794000000.0 -39844300000.0 -30680500000.0 -50338900000.0 -32755900000.0 -21594700000.0 -19026200000.0 -93798200000.0 -14148900000.0 -12035800000.0 -148975000000.0 -116776000000.0 -78496600000.0 -241682000000.0 -211874000000.0 -169426000000.0 -146953000000.0 -99015800000.0 -68613100000.0 -55164000000.0 -44515600000.0 -34659700000.0 -15098700000.0 -61816100000.0 -12326500000.0 -69784100000.0 -9595040000.0 -85822800000.0 -9035760000.0 -97155600000.0 -9035750000.0 -24551100000.0 -9035780000.0 -9035770000.0 -9035770000.0 -9035770000.0 -9035760000.0 -9035760000.0 -9035760000.0 -9035760000.0 -9035750000.0 -9508920000.0 -9035750000.0 -9035760000.0 -9035760000.0 -9035760000.0 -9035760000.0 -9035770000.0 -9035770000.0 -9035770000.0 -9035780000.0 -24551100000.0 -9035750000.0 -97155600000.0 -9035760000.0 -85822800000.0 -9595040000.0 -69784100000.0 -12326500000.0 -61816100000.0 -15098700000.0 -34659700000.0 -44515600000.0 -55164000000.0 -68613100000.0 -99015800000.0 -146953000000.0 -169426000000.0 -211874000000.0 -241682000000.0 -78496600000.0 -116776000000.0 -148975000000.0 -12035800000.0 -14148900000.0 -93798200000.0 -19026200000.0 -21594700000.0 -32755900000.0 -28469400000.0 -26708900000.0 -24233200000.0 -85190700000.0 -18561500000.0 -18032600000.0 -140207000000.0 -115719000000.0 -97870300000.0 -208171000000.0 -175963000000.0 -134125000000.0 -113685000000.0 -72362100000.0 -47222800000.0 -43025100000.0 -33075600000.0 -27792100000.0 -9035760000.0 -54174700000.0 -9035760000.0 -64593300000.0 -9035760000.0 -78488200000.0 -9035760000.0 -82909000000.0 -9035760000.0 -19056600000.0 -9035790000.0 -9035790000.0 -9035780000.0 -9035780000.0 -9035770000.0 -9035770000.0 -9035760000.0 -9035760000.0 -9035750000.0 -9407360000.0 -9035750000.0 -9035760000.0 -9035760000.0 -9035770000.0 -9035770000.0 -9035780000.0 -9035780000.0 -9035790000.0 -9035790000.0 -19056600000.0 -9035760000.0 -82909000000.0 -9035760000.0 -78488200000.0 -9035760000.0 -64593300000.0 -9035760000.0 -54174700000.0 -9035760000.0 -27792100000.0 -33075600000.0 -43025100000.0 -47222800000.0 -72362100000.0 -113685000000.0 -134125000000.0 -175963000000.0 -208171000000.0 -97870300000.0 -115719000000.0 -140207000000.0 -18032600000.0 -18561500000.0 -85190700000.0 -24233200000.0 -26708900000.0 -28469400000.0 -28891100000.0 -29525800000.0 -26373300000.0 -74366600000.0 -18658700000.0 -16784400000.0 -117908000000.0 -105606000000.0 -103854000000.0 -179828000000.0 -155661000000.0 -119102000000.0 -102288000000.0 -66534000000.0 -44550800000.0 -42959200000.0 -31148100000.0 -28385200000.0 -9035780000.0 -50868000000.0 -9035770000.0 -60975900000.0 -9035770000.0 -71299200000.0 -9035760000.0 -70166400000.0 -9035760000.0 -15320200000.0 -9035800000.0 -9035800000.0 -9035790000.0 -9035780000.0 -9035780000.0 -9035770000.0 -9035760000.0 -9035760000.0 -9035750000.0 -9327380000.0 -9035750000.0 -9035760000.0 -9035760000.0 -9035770000.0 -9035780000.0 -9035780000.0 -9035790000.0 -9035800000.0 -9035800000.0 -15320200000.0 -9035760000.0 -70166400000.0 -9035760000.0 -71299200000.0 -9035770000.0 -60975900000.0 -9035770000.0 -50868000000.0 -9035780000.0 -28385200000.0 -31148100000.0 -42959200000.0 -44550800000.0 -66534000000.0 -102288000000.0 -119102000000.0 -155661000000.0 -179828000000.0 -103854000000.0 -105606000000.0 -117908000000.0 -16784400000.0 -18658700000.0 -74366600000.0 -26373300000.0 -29525800000.0 -28891100000.0 -30895400000.0 -32225000000.0 -29245200000.0 -65985600000.0 -20834100000.0 -18905900000.0 -99837500000.0 -99331700000.0 -110118000000.0 -158407000000.0 -137362000000.0 -104409000000.0 -89819200000.0 -59984200000.0 -42409700000.0 -41091800000.0 -28140200000.0 -28659300000.0 -9035790000.0 -47676800000.0 -9035780000.0 -57150300000.0 -9035770000.0 -64453300000.0 -9035770000.0 -59044800000.0 -9035760000.0 -12826700000.0 -9035810000.0 -9035800000.0 -9035790000.0 -9035790000.0 -9035780000.0 -9035770000.0 -9035760000.0 -9035760000.0 -9035750000.0 -9264400000.0 -9035750000.0 -9035760000.0 -9035760000.0 -9035770000.0 -9035780000.0 -9035790000.0 -9035790000.0 -9035800000.0 -9035810000.0 -12826700000.0 -9035760000.0 -59044800000.0 -9035770000.0 -64453300000.0 -9035770000.0 -57150300000.0 -9035780000.0 -47676800000.0 -9035790000.0 -28659300000.0 -28140200000.0 -41091800000.0 -42409700000.0 -59984200000.0 -89819200000.0 -104409000000.0 -137362000000.0 -158407000000.0 -110118000000.0 -99331700000.0 -99837500000.0 -18905900000.0 -20834100000.0 -65985600000.0 -29245200000.0 -32225000000.0 -30895400000.0 -32611600000.0 -34089500000.0 -31543700000.0 -58494600000.0 -22628200000.0 -20764100000.0 -83489600000.0 -92131000000.0 -112564000000.0 -140578000000.0 -122320000000.0 -93026900000.0 -79364800000.0 -54918800000.0 -41242200000.0 -39209900000.0 -25089900000.0 -28677800000.0 -9035810000.0 -44706200000.0 -9035790000.0 -53156600000.0 -9035780000.0 -58054400000.0 -9035770000.0 -49522800000.0 -9035770000.0 -11215200000.0 -9035820000.0 -9035800000.0 -9035800000.0 -9035790000.0 -9035780000.0 -9035770000.0 -9035760000.0 -9035760000.0 -9035750000.0 -9214810000.0 -9035750000.0 -9035760000.0 -9035760000.0 -9035770000.0 -9035780000.0 -9035790000.0 -9035800000.0 -9035800000.0 -9035820000.0 -11215200000.0 -9035770000.0 -49522800000.0 -9035770000.0 -58054400000.0 -9035780000.0 -53156600000.0 -9035790000.0 -44706200000.0 -9035810000.0 -28677800000.0 -25089900000.0 -39209900000.0 -41242200000.0 -54918800000.0 -79364800000.0 -93026900000.0 -122320000000.0 -140578000000.0 -112564000000.0 -92131000000.0 -83489600000.0 -20764100000.0 -22628200000.0 -58494600000.0 -31543700000.0 -34089500000.0 -32611600000.0 -33772800000.0 -35237600000.0 -33275000000.0 -51989800000.0 -24058900000.0 -22385700000.0 -70223200000.0 -85908700000.0 -112994000000.0 -125968000000.0 -109474000000.0 -83380600000.0 -70185300000.0 -50803400000.0 -39630800000.0 -37105000000.0 -22070700000.0 -28494900000.0 -9035820000.0 -41921500000.0 -9035800000.0 -49101500000.0 -9035790000.0 -52148700000.0 -9035780000.0 -41499700000.0 -9035770000.0 -10219200000.0 -9035820000.0 -9035810000.0 -9035790000.0 -9035790000.0 -9035780000.0 -9035770000.0 -9035760000.0 -9035760000.0 -9035750000.0 -9175790000.0 -9035750000.0 -9035760000.0 -9035760000.0 -9035770000.0 -9035780000.0 -9035790000.0 -9035790000.0 -9035810000.0 -9035820000.0 -10219200000.0 -9035770000.0 -41499700000.0 -9035780000.0 -52148700000.0 -9035790000.0 -49101500000.0 -9035800000.0 -41921500000.0 -9035820000.0 -28494900000.0 -22070700000.0 -37105000000.0 -39630800000.0 -50803400000.0 -70185300000.0 -83380600000.0 -109474000000.0 -125968000000.0 -112994000000.0 -85908700000.0 -70223200000.0 -22385700000.0 -24058900000.0 -51989800000.0 -33275000000.0 -35237600000.0 -33772800000.0 -34465300000.0 -35815600000.0 -34470900000.0 -46495700000.0 -25150500000.0 -23788700000.0 -59842000000.0 -80590200000.0 -111386000000.0 -113830000000.0 -98418700000.0 -75103200000.0 -62354600000.0 -47606400000.0 -37434100000.0 -34959400000.0 -19302200000.0 -28151100000.0 -9035840000.0 -39260600000.0 -9035810000.0 -45104000000.0 -9035790000.0 -46748600000.0 -9035780000.0 -34834700000.0 -9035770000.0 -9634530000.0 -9035820000.0 -9035800000.0 -9035790000.0 -9035780000.0 -9035780000.0 -9035770000.0 -9035760000.0 -9035760000.0 -9035750000.0 -9145130000.0 -9035750000.0 -9035760000.0 -9035760000.0 -9035770000.0 -9035780000.0 -9035780000.0 -9035790000.0 -9035800000.0 -9035820000.0 -9634530000.0 -9035770000.0 -34834700000.0 -9035780000.0 -46748600000.0 -9035790000.0 -45104000000.0 -9035810000.0 -39260600000.0 -9035840000.0 -28151100000.0 -19302200000.0 -34959400000.0 -37434100000.0 -47606400000.0 -62354600000.0 -75103200000.0 -98418700000.0 -113830000000.0 -111386000000.0 -80590200000.0 -59842000000.0 -23788700000.0 -25150500000.0 -46495700000.0 -34470900000.0 -35815600000.0 -34465300000.0 -34790100000.0 -35968000000.0 -35181000000.0 -41972600000.0 -25927100000.0 -24985800000.0 -52011200000.0 -76199100000.0 -108100000000.0 -103573000000.0 -88803400000.0 -68010100000.0 -55757000000.0 -44938800000.0 -34809000000.0 -32887200000.0 -16911300000.0 -27671200000.0 -9035850000.0 -36691000000.0 -9035820000.0 -41262800000.0 -9035800000.0 -41847400000.0 -9035780000.0 -29369600000.0 -9035770000.0 -9311970000.0 -9035810000.0 -9035800000.0 -9035790000.0 -9035780000.0 -9035770000.0 -9035760000.0 -9035760000.0 -9035760000.0 -9035750000.0 -9121060000.0 -9035750000.0 -9035760000.0 -9035760000.0 -9035760000.0 -9035770000.0 -9035780000.0 -9035790000.0 -9035800000.0 -9035810000.0 -9311970000.0 -9035770000.0 -29369600000.0 -9035780000.0 -41847400000.0 -9035800000.0 -41262800000.0 -9035820000.0 -36691000000.0 -9035850000.0 -27671200000.0 -16911300000.0 -32887200000.0 -34809000000.0 -44938800000.0 -55757000000.0 -68010100000.0 -88803400000.0 -103573000000.0 -108100000000.0 -76199100000.0 -52011200000.0 -24985800000.0 -25927100000.0 -41972600000.0 -35181000000.0 -35968000000.0 -34790100000.0 -34822100000.0 -35819900000.0 -35467800000.0 -38321600000.0 -26414900000.0 -25986400000.0 -46287900000.0 -72571300000.0 -103505000000.0 -94722700000.0 -80401700000.0 -61961500000.0 -50197700000.0 -42417300000.0 -31965400000.0 -30948900000.0 -14941800000.0 -27072100000.0 -9035860000.0 -34208100000.0 -9035820000.0 -37647600000.0 -9035800000.0 -37428300000.0 -9035780000.0 -24941400000.0 -9035770000.0 -9149090000.0 -9035810000.0 -9035790000.0 -9035780000.0 -9035780000.0 -9035770000.0 -9035760000.0 -9035760000.0 -9035760000.0 -9035750000.0 -9102190000.0 -9035750000.0 -9035760000.0 -9035760000.0 -9035760000.0 -9035770000.0 -9035780000.0 -9035780000.0 -9035790000.0 -9035810000.0 -9149090000.0 -9035770000.0 -24941400000.0 -9035780000.0 -37428300000.0 -9035800000.0 -37647600000.0 -9035820000.0 -34208100000.0 -9035860000.0 -27072100000.0 -14941800000.0 -30948900000.0 -31965400000.0 -42417300000.0 -50197700000.0 -61961500000.0 -80401700000.0 -94722700000.0 -103505000000.0 -72571300000.0 -46287900000.0 -25986400000.0 -26414900000.0 -38321600000.0 -35467800000.0 -35819900000.0 -34822100000.0 -34623400000.0 -35468900000.0 -35402000000.0 -35407000000.0 -26645600000.0 -26798400000.0 -42221800000.0 -69486200000.0 -97982600000.0 -86953600000.0 -73043500000.0 -56795500000.0 -45465800000.0 -39873000000.0 -29081100000.0 -29167400000.0 -13380000000.0 -26369100000.0 -9035870000.0 -31822400000.0 -9035830000.0 -34300500000.0 -9035800000.0 -33469500000.0 -9035790000.0 -21392300000.0 -9035780000.0 -9076340000.0 -9035800000.0 -9035790000.0 -9035780000.0 -9035770000.0 -9035760000.0 -9035760000.0 -9035760000.0 -9035750000.0 -9035750000.0 -9087430000.0 -9035750000.0 -9035750000.0 -9035760000.0 -9035760000.0 -9035760000.0 -9035770000.0 -9035780000.0 -9035790000.0 -9035800000.0 -9076340000.0 -9035780000.0 -21392300000.0 -9035790000.0 -33469500000.0 -9035800000.0 -34300500000.0 -9035830000.0 -31822400000.0 -9035870000.0 -26369100000.0 -13380000000.0 -29167400000.0 -29081100000.0 -39873000000.0 -45465800000.0 -56795500000.0 -73043500000.0 -86953600000.0 -97982600000.0 -69486200000.0 -42221800000.0 -26798400000.0 -26645600000.0 -35407000000.0 -35402000000.0 -35468900000.0 -34623400000.0 -34244500000.0 -34986300000.0 -35056100000.0 -33083100000.0 -26652900000.0 -27429700000.0 -39403000000.0 -66737400000.0 -91889200000.0 -80048800000.0 -66572700000.0 -52339200000.0 -41365200000.0 -37303900000.0 -26286500000.0 -27544300000.0 -12179200000.0 -25578800000.0 -9035880000.0 -29551200000.0 -9035840000.0 -31241600000.0 -9035810000.0 -29946100000.0 -9035790000.0 -18576200000.0 -9035780000.0 -9048340000.0 -9035790000.0 -9035780000.0 -9035770000.0 -9035770000.0 -9035760000.0 -9035760000.0 -9035760000.0 -9035750000.0 -9035750000.0 -9075890000.0 -9035750000.0 -9035750000.0 -9035760000.0 -9035760000.0 -9035760000.0 -9035770000.0 -9035770000.0 -9035780000.0 -9035790000.0 -9048340000.0 -9035780000.0 -18576200000.0 -9035790000.0 -29946100000.0 -9035810000.0 -31241600000.0 -9035840000.0 -29551200000.0 -9035880000.0 -25578800000.0 -12179200000.0 -27544300000.0 -26286500000.0 -37303900000.0 -41365200000.0 -52339200000.0 -66572700000.0 -80048800000.0 -91889200000.0 -66737400000.0 -39403000000.0 -27429700000.0 -26652900000.0 -33083100000.0 -35056100000.0 -34986300000.0 -34244500000.0 -26469200000.0 -37736700000.0 -34769400000.0 -23670100000.0 -26070200000.0 -11279300000.0 -24719000000.0 -9035890000.0 -27412400000.0 -9035840000.0 -28473500000.0 -9035810000.0 -26831200000.0 -9035790000.0 -16362000000.0 -9035780000.0 -9039140000.0 -9035790000.0 -9035780000.0 -9035770000.0 -9035770000.0 -9035760000.0 -9035760000.0 -9035760000.0 -9035750000.0 -9035750000.0 -9066880000.0 -9035750000.0 -9035750000.0 -9035760000.0 -9035760000.0 -9035760000.0 -9035770000.0 -9035770000.0 -9035780000.0 -9035790000.0 -9039140000.0 -9035780000.0 -16362000000.0 -9035790000.0 -26831200000.0 -9035810000.0 -28473500000.0 -9035840000.0 -27412400000.0 -9035890000.0 -24719000000.0 -11279300000.0 -26070200000.0 -23670100000.0 -34769400000.0 -37736700000.0 -26469200000.0 -33723600000.0 -34420800000.0 -34497100000.0 -31212400000.0 -27888500000.0 -37481000000.0 -64160100000.0 -85523800000.0 -73851900000.0 -60842800000.0 -48434400000.0 -48434400000.0 -60842800000.0 -73851900000.0 -85523800000.0 -64160100000.0 -37481000000.0 -27888500000.0 -31212400000.0 -34497100000.0 -34420800000.0 -33723600000.0 -33089300000.0 -33802700000.0 -33783200000.0 -29674000000.0 -26123700000.0 -28183500000.0 -36168200000.0 -61637300000.0 -79120000000.0 -68244900000.0 -55724600000.0 -44951000000.0 -34464700000.0 -32331900000.0 -21287200000.0 -24730900000.0 -10618700000.0 -23807400000.0 -9035900000.0 -25420600000.0 -9035850000.0 -25987400000.0 -9035810000.0 -24096900000.0 -9035790000.0 -14635100000.0 -9035780000.0 -9036560000.0 -9035780000.0 -9035770000.0 -9035770000.0 -9035760000.0 -9035760000.0 -9035760000.0 -9035760000.0 -9035750000.0 -9035750000.0 -9059850000.0 -9035750000.0 -9035750000.0 -9035760000.0 -9035760000.0 -9035760000.0 -9035760000.0 -9035770000.0 -9035770000.0 -9035780000.0 -9036560000.0 -9035780000.0 -14635100000.0 -9035790000.0 -24096900000.0 -9035810000.0 -25987400000.0 -9035850000.0 -25420600000.0 -9035900000.0 -23807400000.0 -10618700000.0 -24730900000.0 -21287200000.0 -32331900000.0 -34464700000.0 -44951000000.0 -55724600000.0 -68244900000.0 -79120000000.0 -61637300000.0 -36168200000.0 -28183500000.0 -26123700000.0 -29674000000.0 -33783200000.0 -33802700000.0 -33089300000.0 -32365600000.0 -33147900000.0 -32962100000.0 -28367900000.0 -25642600000.0 -28324400000.0 -35237500000.0 -59096700000.0 -72851200000.0 -63138500000.0 -51112400000.0 -41791000000.0 -31473700000.0 -30037200000.0 -19166800000.0 -23510200000.0 -10142000000.0 -22861600000.0 -9035900000.0 -23584500000.0 -9035850000.0 -23767200000.0 -9035810000.0 -21713900000.0 -9035790000.0 -13297400000.0 -9035780000.0 -9035940000.0 -9035780000.0 -9035770000.0 -9035770000.0 -9035760000.0 -9035760000.0 -9035760000.0 -9035760000.0 -9035750000.0 -9035750000.0 -9054380000.0 -9035750000.0 -9035750000.0 -9035760000.0 -9035760000.0 -9035760000.0 -9035760000.0 -9035770000.0 -9035770000.0 -9035780000.0 -9035940000.0 -9035780000.0 -13297400000.0 -9035790000.0 -21713900000.0 -9035810000.0 -23767200000.0 -9035850000.0 -23584500000.0 -9035900000.0 -22861600000.0 -10142000000.0 -23510200000.0 -19166800000.0 -30037200000.0 -31473700000.0 -41791000000.0 -51112400000.0 -63138500000.0 -72851200000.0 -59096700000.0 -35237500000.0 -28324400000.0 -25642600000.0 -28367900000.0 -32962100000.0 -33147900000.0 -32365600000.0 -31573200000.0 -32462600000.0 -32070900000.0 -27216900000.0 -25050100000.0 -28321200000.0 -34517100000.0 -56503200000.0 -66840300000.0 -58464900000.0 -46925900000.0 -38886600000.0 -28722800000.0 -27913200000.0 -17317900000.0 -22392100000.0 -9802480000.0 -21898400000.0 -9035910000.0 -21906900000.0 -9035850000.0 -21793600000.0 -9035820000.0 -19651900000.0 -9035790000.0 -12267400000.0 -9035780000.0 -9035810000.0 -9035780000.0 -9035770000.0 -9035770000.0 -9035760000.0 -9035760000.0 -9035760000.0 -9035760000.0 -9035750000.0 -9035750000.0 -9050120000.0 -9035750000.0 -9035750000.0 -9035760000.0 -9035760000.0 -9035760000.0 -9035760000.0 -9035770000.0 -9035770000.0 -9035780000.0 -9035810000.0 -9035780000.0 -12267400000.0 -9035790000.0 -19651900000.0 -9035820000.0 -21793600000.0 -9035850000.0 -21906900000.0 -9035910000.0 -21898400000.0 -9802480000.0 -22392100000.0 -17317900000.0 -27913200000.0 -28722800000.0 -38886600000.0 -46925900000.0 -58464900000.0 -66840300000.0 -56503200000.0 -34517100000.0 -28321200000.0 -25050100000.0 -27216900000.0 -32070900000.0 -32462600000.0 -31573200000.0 -30729500000.0 -31747600000.0 -31136600000.0 -26166300000.0 -24369300000.0 -28184700000.0 -33883400000.0 -53849800000.0 -61169200000.0 -54172500000.0 -43106600000.0 -36195500000.0 -26196400000.0 -25973200000.0 -15734300000.0 -21362200000.0 -9563120000.0 -20933300000.0 -9035910000.0 -20385700000.0 -9035850000.0 -20045800000.0 -9035820000.0 -17880200000.0 -9035790000.0 -11478000000.0 -9035780000.0 -9035780000.0 -9035770000.0 -9035770000.0 -9035760000.0 -9035760000.0 -9035760000.0 -9035760000.0 -9035760000.0 -9035750000.0 -9035750000.0 -9046820000.0 -9035750000.0 -9035750000.0 -9035760000.0 -9035760000.0 -9035760000.0 -9035760000.0 -9035760000.0 -9035770000.0 -9035770000.0 -9035780000.0 -9035780000.0 -11478000000.0 -9035790000.0 -17880200000.0 -9035820000.0 -20045800000.0 -9035850000.0 -20385700000.0 -9035910000.0 -20933300000.0 -9563120000.0 -21362200000.0 -15734300000.0 -25973200000.0 -26196400000.0 -36195500000.0 -43106600000.0 -54172500000.0 -61169200000.0 -53849800000.0 -33883400000.0 -28184700000.0 -24369300000.0 -26166300000.0 -31136600000.0 -31747600000.0 -30729500000.0 -29847900000.0 -31000600000.0 -30177400000.0 -25180200000.0 -23622400000.0 -27925800000.0 -33252700000.0 -51148900000.0 -55886600000.0 -50221800000.0 -39612700000.0 -33694200000.0 -23893300000.0 -24219000000.0 -14399400000.0 -20408000000.0 -9395530000.0 -19979800000.0 -9035910000.0 -19014800000.0 -9035850000.0 -18503800000.0 -9035820000.0 -16368000000.0 -9035790000.0 -10875300000.0 -9035780000.0 -9035780000.0 -9035770000.0 -9035770000.0 -9035760000.0 -9035760000.0 -9035760000.0 -9035760000.0 -9035750000.0 -9035750000.0 -9035750000.0 -9044260000.0 -9035750000.0 -9035750000.0 -9035750000.0 -9035760000.0 -9035760000.0 -9035760000.0 -9035760000.0 -9035770000.0 -9035770000.0 -9035780000.0 -9035780000.0 -10875300000.0 -9035790000.0 -16368000000.0 -9035820000.0 -18503800000.0 -9035850000.0 -19014800000.0 -9035910000.0 -19979800000.0 -9395530000.0 -20408000000.0 -14399400000.0 -24219000000.0 -23893300000.0 -33694200000.0 -39612700000.0 -50221800000.0 -55886600000.0 -51148900000.0 -33252700000.0 -27925800000.0 -23622400000.0 -25180200000.0 -30177400000.0 -31000600000.0 -29847900000.0 -28938700000.0 -30218700000.0 -29204800000.0 -24236700000.0 -22829800000.0 -27555500000.0 -32573700000.0 -48423800000.0 -51015300000.0 -46582200000.0 -36414600000.0 -31371100000.0 -21815600000.0 -22644100000.0 -13290200000.0 -19519200000.0 -9278810000.0 -19049700000.0 -9035910000.0 -17785600000.0 -9035850000.0 -17147800000.0 -9035820000.0 -15085600000.0 -9035790000.0 -10416500000.0 -9035780000.0 -9035780000.0 -9035770000.0 -9035770000.0 -9035760000.0 -9035760000.0 -9035760000.0 -9035760000.0 -9035750000.0 -9035750000.0 -9035750000.0 -9042270000.0 -9035750000.0 -9035750000.0 -9035750000.0 -9035760000.0 -9035760000.0 -9035760000.0 -9035760000.0 -9035770000.0 -9035770000.0 -9035780000.0 -9035780000.0 -10416500000.0 -9035790000.0 -15085600000.0 -9035820000.0 -17147800000.0 -9035850000.0 -17785600000.0 -9035910000.0 -19049700000.0 -9278810000.0 -19519200000.0 -13290200000.0 -22644100000.0 -21815600000.0 -31371100000.0 -36414600000.0 -46582200000.0 -51015300000.0 -48423800000.0 -32573700000.0 -27555500000.0 -22829800000.0 -24236700000.0 -29204800000.0 -30218700000.0 -28938700000.0 -28009300000.0 -29399200000.0 -28225400000.0 -23323500000.0 -22009400000.0 -27084500000.0 -31818700000.0 -45703200000.0 -46559000000.0 -43228700000.0 -33490200000.0 -29220900000.0 -19962100000.0 -21236800000.0 -12380300000.0 -18687700000.0 -9197890000.0 -18152500000.0 -9035910000.0 -16688000000.0 -9035850000.0 -15959700000.0 -9035820000.0 -14004400000.0 -9035790000.0 -10068400000.0 -9035780000.0 -9035780000.0 -9035770000.0 -9035770000.0 -9035760000.0 -9035760000.0 -9035760000.0 -9035760000.0 -9035750000.0 -9035750000.0 -9035750000.0 -9040740000.0 -9035750000.0 -9035750000.0 -9035750000.0 -9035760000.0 -9035760000.0 -9035760000.0 -9035760000.0 -9035770000.0 -9035770000.0 -9035780000.0 -9035780000.0 -10068400000.0 -9035790000.0 -14004400000.0 -9035820000.0 -15959700000.0 -9035850000.0 -16688000000.0 -9035910000.0 -18152500000.0 -9197890000.0 -18687700000.0 -12380300000.0 -21236800000.0 -19962100000.0 -29220900000.0 -33490200000.0 -43228700000.0 -46559000000.0 -45703200000.0 -31818700000.0 -27084500000.0 -22009400000.0 -23323500000.0 -28225400000.0 -29399200000.0 -28009300000.0 -27065000000.0 -28540500000.0 -27242700000.0 -22434800000.0 -21176300000.0 -26523600000.0 -30977400000.0 -43016000000.0 -42507300000.0 -40139200000.0 -30822200000.0 -27239600000.0 -18326400000.0 -19981900000.0 -11642600000.0 -17907000000.0 -9142130000.0 -17295600000.0 -9035910000.0 -15711200000.0 -9035850000.0 -14922300000.0 -9035820000.0 -13098000000.0 -9035790000.0 -9804820000.0 -9035780000.0 -9035770000.0 -9035770000.0 -9035770000.0 -9035760000.0 -9035760000.0 -9035760000.0 -9035760000.0 -9035750000.0 -9035750000.0 -9035750000.0 -9039550000.0 -9035750000.0 -9035750000.0 -9035750000.0 -9035760000.0 -9035760000.0 -9035760000.0 -9035760000.0 -9035770000.0 -9035770000.0 -9035770000.0 -9035780000.0 -9804820000.0 -9035790000.0 -13098000000.0 -9035820000.0 -14922300000.0 -9035850000.0 -15711200000.0 -9035910000.0 -17295600000.0 -9142130000.0 -17907000000.0 -11642600000.0 -19981900000.0 -18326400000.0 -27239600000.0 -30822200000.0 -40139200000.0 -42507300000.0 -43016000000.0 -30977400000.0 -26523600000.0 -21176300000.0 -22434800000.0 -27242700000.0 -28540500000.0 -27065000000.0 -26109700000.0 -27642800000.0 -26258200000.0 -21568100000.0 -20342600000.0 -25882800000.0 -30050300000.0 -40388000000.0 -38839900000.0 -37293000000.0 -28395600000.0 -25421700000.0 -16896600000.0 -18862800000.0 -11050700000.0 -17172300000.0 -9104090000.0 -16484300000.0 -9035910000.0 -14844300000.0 -9035850000.0 -14019800000.0 -9035810000.0 -12342000000.0 -9035790000.0 -9605920000.0 -9035780000.0 -9035770000.0 -9035770000.0 -9035770000.0 -9035760000.0 -9035760000.0 -9035760000.0 -9035760000.0 -9035750000.0 -9035750000.0 -9035750000.0 -9038640000.0 -9035750000.0 -9035750000.0 -9035750000.0 -9035760000.0 -9035760000.0 -9035760000.0 -9035760000.0 -9035770000.0 -9035770000.0 -9035770000.0 -9035780000.0 -9605920000.0 -9035790000.0 -12342000000.0 -9035810000.0 -14019800000.0 -9035850000.0 -14844300000.0 -9035910000.0 -16484300000.0 -9104090000.0 -17172300000.0 -11050700000.0 -18862800000.0 -16896600000.0 -25421700000.0 -28395600000.0 -37293000000.0 -38839900000.0 -40388000000.0 -30050300000.0 -25882800000.0 -20342600000.0 -21568100000.0 -26258200000.0 -27642800000.0 -26109700000.0 -25146600000.0 -26707400000.0 -25272300000.0 -20722600000.0 -19517700000.0 -25171800000.0 -29045000000.0 -37840600000.0 -35530600000.0 -34670500000.0 -26195700000.0 -23759300000.0 -15657200000.0 -17862900000.0 -10580400000.0 -16479500000.0 -9078530000.0 -15722400000.0 -9035910000.0 -14076800000.0 -9035850000.0 -13237800000.0 -9035810000.0 -11714700000.0 -9035790000.0 -9456320000.0 -9035780000.0 -9035770000.0 -9035770000.0 -9035770000.0 -9035760000.0 -9035760000.0 -9035760000.0 -9035760000.0 -9035750000.0 -9035750000.0 -9035750000.0 -9037940000.0 -9035750000.0 -9035750000.0 -9035750000.0 -9035760000.0 -9035760000.0 -9035760000.0 -9035760000.0 -9035770000.0 -9035770000.0 -9035770000.0 -9035780000.0 -9456320000.0 -9035790000.0 -11714700000.0 -9035810000.0 -13237800000.0 -9035850000.0 -14076800000.0 -9035910000.0 -15722400000.0 -9078530000.0 -16479500000.0 -10580400000.0 -17862900000.0 -15657200000.0 -23759300000.0 -26195700000.0 -34670500000.0 -35530600000.0 -37840600000.0 -29045000000.0 -25171800000.0 -19517700000.0 -20722600000.0 -25272300000.0 -26707400000.0 -25146600000.0 -24177900000.0 -25737300000.0 -24285100000.0 -19898000000.0 -18708800000.0 -24399600000.0 -27972300000.0 -35389300000.0 -32549400000.0 -32252200000.0 -24207100000.0 -22242000000.0 -14590200000.0 -16966200000.0 -10210200000.0 -15825600000.0 -9061750000.0 -15011600000.0 -9035900000.0 -13398600000.0 -9035850000.0 -12562700000.0 -9035810000.0 -11196600000.0 -9035790000.0 -9344260000.0 -9035780000.0 -9035770000.0 -9035770000.0 -9035760000.0 -9035760000.0 -9035760000.0 -9035760000.0 -9035760000.0 -9035750000.0 -9035750000.0 -9035750000.0 -9037410000.0 -9035750000.0 -9035750000.0 -9035750000.0 -9035760000.0 -9035760000.0 -9035760000.0 -9035760000.0 -9035760000.0 -9035770000.0 -9035770000.0 -9035780000.0 -9344260000.0 -9035790000.0 -11196600000.0 -9035810000.0 -12562700000.0 -9035850000.0 -13398600000.0 -9035900000.0 -15011600000.0 -9061750000.0 -15825600000.0 -10210200000.0 -16966200000.0 -14590200000.0 -22242000000.0 -24207100000.0 -32252200000.0 -32549400000.0 -35389300000.0 -27972300000.0 -24399600000.0 -18708800000.0 -19898000000.0 -24285100000.0 -25737300000.0 -24177900000.0 -23205200000.0 -24736200000.0 -23296600000.0 -19093700000.0 -17920800000.0 -23574400000.0 -26844200000.0 -33044200000.0 -29865400000.0 -30018900000.0 -22413600000.0 -20858000000.0 -13677100000.0 -16158000000.0 -9921170000.0 -15207800000.0 -9051050000.0 -14352500000.0 -9035900000.0 -12800400000.0 -9035840000.0 -11982500000.0 -9035810000.0 -10770700000.0 -9035790000.0 -9260690000.0 -9035780000.0 -9035770000.0 -9035770000.0 -9035760000.0 -9035760000.0 -9035760000.0 -9035760000.0 -9035760000.0 -9035750000.0 -9035750000.0 -9035750000.0 -9037000000.0 -9035750000.0 -9035750000.0 -9035750000.0 -9035760000.0 -9035760000.0 -9035760000.0 -9035760000.0 -9035760000.0 -9035770000.0 -9035770000.0 -9035780000.0 -9260690000.0 -9035790000.0 -10770700000.0 -9035810000.0 -11982500000.0 -9035840000.0 -12800400000.0 -9035900000.0 -14352500000.0 -9051050000.0 -15207800000.0 -9921170000.0 -16158000000.0 -13677100000.0 -20858000000.0 -22413600000.0 -30018900000.0 -29865400000.0 -33044200000.0 -26844200000.0 -23574400000.0 -17920800000.0 -19093700000.0 -23296600000.0 -24736200000.0 -23205200000.0 -22229800000.0 -23708300000.0 -22307000000.0 -18309100000.0 -17157000000.0 -22704000000.0 -25672400000.0 -30810400000.0 -27447700000.0 -27952100000.0 -20798400000.0 -19594500000.0 -12899500000.0 -15425200000.0 -9697470000.0 -14623900000.0 -9044450000.0 -13744300000.0 -9035890000.0 -12273500000.0 -9035840000.0 -11485900000.0 -9035810000.0 -10422200000.0 -9035790000.0 -9198700000.0 -9035780000.0 -9035770000.0 -9035770000.0 -9035760000.0 -9035760000.0 -9035760000.0 -9035760000.0 -9035760000.0 -9035750000.0 -9035750000.0 -9035750000.0 -9036680000.0 -9035750000.0 -9035750000.0 -9035750000.0 -9035760000.0 -9035760000.0 -9035760000.0 -9035760000.0 -9035760000.0 -9035770000.0 -9035770000.0 -9035780000.0 -9198700000.0 -9035790000.0 -10422200000.0 -9035810000.0 -11485900000.0 -9035840000.0 -12273500000.0 -9035890000.0 -13744300000.0 -9044450000.0 -14623900000.0 -9697470000.0 -15425200000.0 -12899500000.0 -19594500000.0 -20798400000.0 -27952100000.0 -27447700000.0 -30810400000.0 -25672400000.0 -22704000000.0 -17157000000.0 -18309100000.0 -22307000000.0 -23708300000.0 -22229800000.0 -21252600000.0 -22658500000.0 -21316500000.0 -17543200000.0 -16419400000.0 -21795200000.0 -24467700000.0 -28689100000.0 -25266800000.0 -26033600000.0 -19344600000.0 -18438700000.0 -12239800000.0 -14756400000.0 -9525780000.0 -14071900000.0 -9040540000.0 -13185500000.0 -9035880000.0 -11810100000.0 -9035830000.0 -11062800000.0 -9035800000.0 -10138400000.0 -9035790000.0 -9152980000.0 -9035770000.0 -9035770000.0 -9035770000.0 -9035760000.0 -9035760000.0 -9035760000.0 -9035760000.0 -9035760000.0 -9035750000.0 -9035750000.0 -9035750000.0 -9036450000.0 -9035750000.0 -9035750000.0 -9035750000.0 -9035760000.0 -9035760000.0 -9035760000.0 -9035760000.0 -9035760000.0 -9035770000.0 -9035770000.0 -9035770000.0 -9152980000.0 -9035790000.0 -10138400000.0 -9035800000.0 -11062800000.0 -9035830000.0 -11810100000.0 -9035880000.0 -13185500000.0 -9040540000.0 -14071900000.0 -9525780000.0 -14756400000.0 -12239800000.0 -18438700000.0 -19344600000.0 -26033600000.0 -25266800000.0 -28689100000.0 -24467700000.0 -21795200000.0 -16419400000.0 -17543200000.0 -21316500000.0 -22658500000.0 -21252600000.0 -20274200000.0 -21591000000.0 -20325500000.0 -16794700000.0 -15708600000.0 -20854300000.0 -23239600000.0 -26678000000.0 -23294900000.0 -24246400000.0 -18035600000.0 -17378400000.0 -11682000000.0 -14141700000.0 -9395160000.0 -13549900000.0 -9038310000.0 -12673700000.0 -9035870000.0 -11403000000.0 -9035830000.0 -10703800000.0 -9035800000.0 -9908150000.0 -9035780000.0 -9119470000.0 -9035770000.0 -9035770000.0 -9035770000.0 -9035760000.0 -9035760000.0 -9035760000.0 -9035760000.0 -9035760000.0 -9035750000.0 -9035750000.0 -9035750000.0 -9036270000.0 -9035750000.0 -9035750000.0 -9035750000.0 -9035760000.0 -9035760000.0 -9035760000.0 -9035760000.0 -9035760000.0 -9035770000.0 -9035770000.0 -9035770000.0 -9119470000.0 -9035780000.0 -9908150000.0 -9035800000.0 -10703800000.0 -9035830000.0 -11403000000.0 -9035870000.0 -12673700000.0 -9038310000.0 -13549900000.0 -9395160000.0 -14141700000.0 -11682000000.0 -17378400000.0 -18035600000.0 -24246400000.0 -23294900000.0 -26678000000.0 -23239600000.0 -20854300000.0 -15708600000.0 -16794700000.0 -20325500000.0 -21591000000.0 -20274200000.0 -19294900000.0 -20510300000.0 -19334400000.0 -16062500000.0 -15024500000.0 -19886600000.0 -21996100000.0 -24772300000.0 -21506800000.0 -22574800000.0 -16855400000.0 -16401900000.0 -11211600000.0 -13572700000.0 -9296680000.0 -13055800000.0 -9037100000.0 -12205900000.0 -9035870000.0 -11045700000.0 -9035820000.0 -10400500000.0 -9035800000.0 -9722300000.0 -9035780000.0 -9095070000.0 -9035770000.0 -9035770000.0 -9035760000.0 -9035760000.0 -9035760000.0 -9035760000.0 -9035760000.0 -9035760000.0 -9035750000.0 -9035750000.0 -9035750000.0 -9036130000.0 -9035750000.0 -9035750000.0 -9035750000.0 -9035760000.0 -9035760000.0 -9035760000.0 -9035760000.0 -9035760000.0 -9035760000.0 -9035770000.0 -9035770000.0 -9095070000.0 -9035780000.0 -9722300000.0 -9035800000.0 -10400500000.0 -9035820000.0 -11045700000.0 -9035870000.0 -12205900000.0 -9037100000.0 -13055800000.0 -9296680000.0 -13572700000.0 -11211600000.0 -16401900000.0 -16855400000.0 -22574800000.0 -21506800000.0 -24772300000.0 -21996100000.0 -19886600000.0 -15024500000.0 -16062500000.0 -19334400000.0 -20510300000.0 -19294900000.0 -18315000000.0 -19420100000.0 -18343900000.0 -15345000000.0 -14366100000.0 -18897000000.0 -20744000000.0 -22965200000.0 -19879000000.0 -21004200000.0 -15789400000.0 -15498700000.0 -10815500000.0 -13042100000.0 -9223160000.0 -12587900000.0 -9036470000.0 -11778900000.0 -9035860000.0 -10732200000.0 -9035820000.0 -10145400000.0 -9035790000.0 -9572900000.0 -9035780000.0 -9077440000.0 -9035770000.0 -9035770000.0 -9035760000.0 -9035760000.0 -9035760000.0 -9035760000.0 -9035760000.0 -9035760000.0 -9035750000.0 -9035750000.0 -9035750000.0 -9036030000.0 -9035750000.0 -9035750000.0 -9035750000.0 -9035760000.0 -9035760000.0 -9035760000.0 -9035760000.0 -9035760000.0 -9035760000.0 -9035770000.0 -9035770000.0 -9077440000.0 -9035780000.0 -9572900000.0 -9035790000.0 -10145400000.0 -9035820000.0 -10732200000.0 -9035860000.0 -11778900000.0 -9036470000.0 -12587900000.0 -9223160000.0 -13042100000.0 -10815500000.0 -15498700000.0 -15789400000.0 -21004200000.0 -19879000000.0 -22965200000.0 -20744000000.0 -18897000000.0 -14366100000.0 -15345000000.0 -18343900000.0 -19420100000.0 -18315000000.0 -17334700000.0 -18323800000.0 -17354200000.0 -14641100000.0 -13732300000.0 -17889700000.0 -19488500000.0 -21248800000.0 -18390500000.0 -19521500000.0 -14823400000.0 -14659000000.0 -10482400000.0 -12543900000.0 -9168820000.0 -12144000000.0 -9036150000.0 -11389000000.0 -9035850000.0 -10457000000.0 -9035810000.0 -9931420000.0 -9035790000.0 -9453270000.0 -9035780000.0 -9064790000.0 -9035770000.0 -9035770000.0 -9035760000.0 -9035760000.0 -9035760000.0 -9035760000.0 -9035760000.0 -9035750000.0 -9035750000.0 -9035750000.0 -9035750000.0 -9035960000.0 -9035750000.0 -9035750000.0 -9035750000.0 -9035750000.0 -9035760000.0 -9035760000.0 -9035760000.0 -9035760000.0 -9035760000.0 -9035770000.0 -9035770000.0 -9064790000.0 -9035780000.0 -9453270000.0 -9035790000.0 -9931420000.0 -9035810000.0 -10457000000.0 -9035850000.0 -11389000000.0 -9036150000.0 -12144000000.0 -9168820000.0 -12543900000.0 -10482400000.0 -14659000000.0 -14823400000.0 -19521500000.0 -18390500000.0 -21248800000.0 -19488500000.0 -17889700000.0 -13732300000.0 -14641100000.0 -17354200000.0 -18323800000.0 -17334700000.0 -16354000000.0 -17223800000.0 -16365600000.0 -13949300000.0 -13121000000.0 -16868200000.0 -18233800000.0 -19613900000.0 -17022000000.0 -18114600000.0 -13944700000.0 -13874100000.0 -10202200000.0 -12072800000.0 -9129090000.0 -11722200000.0 -9035990000.0 -11032500000.0 -9035840000.0 -10215200000.0 -9035810000.0 -9752370000.0 -9035790000.0 -9357790000.0 -9035770000.0 -9055790000.0 -9035770000.0 -9035760000.0 -9035760000.0 -9035760000.0 -9035760000.0 -9035760000.0 -9035760000.0 -9035750000.0 -9035750000.0 -9035750000.0 -9035750000.0 -9035900000.0 -9035750000.0 -9035750000.0 -9035750000.0 -9035750000.0 -9035760000.0 -9035760000.0 -9035760000.0 -9035760000.0 -9035760000.0 -9035760000.0 -9035770000.0 -9055790000.0 -9035770000.0 -9357790000.0 -9035790000.0 -9752370000.0 -9035810000.0 -10215200000.0 -9035840000.0 -11032500000.0 -9035990000.0 -11722200000.0 -9129090000.0 -12072800000.0 -10202200000.0 -13874100000.0 -13944700000.0 -18114600000.0 -17022000000.0 -19613900000.0 -18233800000.0 -16868200000.0 -13121000000.0 -13949300000.0 -16365600000.0 -17223800000.0 -16354000000.0 -15373000000.0 -16122500000.0 -15378400000.0 -13268300000.0 -12530300000.0 -15835400000.0 -16982600000.0 -18051300000.0 -15755900000.0 -16772600000.0 -13141000000.0 -13136000000.0 -9965890000.0 -11624200000.0 -9100360000.0 -11320200000.0 -9035920000.0 -10705500000.0 -9035830000.0 -10002000000.0 -9035800000.0 -9602620000.0 -9035780000.0 -9281710000.0 -9035770000.0 -9049430000.0 -9035760000.0 -9035760000.0 -9035760000.0 -9035760000.0 -9035760000.0 -9035760000.0 -9035760000.0 -9035750000.0 -9035750000.0 -9035750000.0 -9035750000.0 -9035860000.0 -9035750000.0 -9035750000.0 -9035750000.0 -9035750000.0 -9035760000.0 -9035760000.0 -9035760000.0 -9035760000.0 -9035760000.0 -9035760000.0 -9035760000.0 -9049430000.0 -9035770000.0 -9281710000.0 -9035780000.0 -9602620000.0 -9035800000.0 -10002000000.0 -9035830000.0 -10705500000.0 -9035920000.0 -11320200000.0 -9100360000.0 -11624200000.0 -9965890000.0 -13136000000.0 -13141000000.0 -16772600000.0 -15755900000.0 -18051300000.0 -16982600000.0 -15835400000.0 -12530300000.0 -13268300000.0 -15378400000.0 -16122500000.0 -15373000000.0 -14391700000.0 -15021100000.0 -14392600000.0 -12596700000.0 -11957600000.0 -14794000000.0 -15736800000.0 -16550900000.0 -14575900000.0 -15485300000.0 -12401100000.0 -12437200000.0 -9765770000.0 -11194100000.0 -9079790000.0 -10935800000.0 -9035870000.0 -10404000000.0 -9035820000.0 -9813000000.0 -9035790000.0 -9477090000.0 -9035780000.0 -9221060000.0 -9035770000.0 -9044970000.0 -9035760000.0 -9035760000.0 -9035760000.0 -9035760000.0 -9035760000.0 -9035760000.0 -9035750000.0 -9035750000.0 -9035750000.0 -9035750000.0 -9035750000.0 -9035830000.0 -9035750000.0 -9035750000.0 -9035750000.0 -9035750000.0 -9035750000.0 -9035760000.0 -9035760000.0 -9035760000.0 -9035760000.0 -9035760000.0 -9035760000.0 -9044970000.0 -9035770000.0 -9221060000.0 -9035780000.0 -9477090000.0 -9035790000.0 -9813000000.0 -9035820000.0 -10404000000.0 -9035870000.0 -10935800000.0 -9079790000.0 -11194100000.0 -9765770000.0 -12437200000.0 -12401100000.0 -15485300000.0 -14575900000.0 -16550900000.0 -15736800000.0 -14794000000.0 -11957600000.0 -12596700000.0 -14392600000.0 -15021100000.0 -14391700000.0 -13410100000.0 -13920800000.0 -13408200000.0 -11933000000.0 -11400500000.0 -13745900000.0 -14497100000.0 -15103000000.0 -13467100000.0 -14243300000.0 -11714100000.0 -11771000000.0 -9594850000.0 -10779100000.0 -9065200000.0 -10566500000.0 -9035850000.0 -10124200000.0 -9035810000.0 -9644090000.0 -9035790000.0 -9371200000.0 -9035770000.0 -9172470000.0 -9035770000.0 -9041870000.0 -9035760000.0 -9035760000.0 -9035760000.0 -9035760000.0 -9035760000.0 -9035760000.0 -9035750000.0 -9035750000.0 -9035750000.0 -9035750000.0 -9035750000.0 -9035810000.0 -9035750000.0 -9035750000.0 -9035750000.0 -9035750000.0 -9035750000.0 -9035760000.0 -9035760000.0 -9035760000.0 -9035760000.0 -9035760000.0 -9035760000.0 -9041870000.0 -9035770000.0 -9172470000.0 -9035770000.0 -9371200000.0 -9035790000.0 -9644090000.0 -9035810000.0 -10124200000.0 -9035850000.0 -10566500000.0 -9065200000.0 -10779100000.0 -9594850000.0 -11771000000.0 -11714100000.0 -14243300000.0 -13467100000.0 -15103000000.0 -14497100000.0 -13745900000.0 -11400500000.0 -11933000000.0 -13408200000.0 -13920800000.0 -13410100000.0 -12428300000.0 -12821800000.0 -12425100000.0 -11275800000.0 -10856300000.0 -12692900000.0 -13263500000.0 -13697800000.0 -12415300000.0 -13037600000.0 -11069800000.0 -11130800000.0 -9446880000.0 -10376000000.0 -9054880000.0 -10209800000.0 -9035820000.0 -9861870000.0 -9035790000.0 -9491320000.0 -9035780000.0 -9280760000.0 -9035770000.0 -9133080000.0 -9035760000.0 -9039700000.0 -9035760000.0 -9035760000.0 -9035760000.0 -9035760000.0 -9035760000.0 -9035750000.0 -9035750000.0 -9035750000.0 -9035750000.0 -9035750000.0 -9035750000.0 -9035790000.0 -9035750000.0 -9035750000.0 -9035750000.0 -9035750000.0 -9035750000.0 -9035750000.0 -9035760000.0 -9035760000.0 -9035760000.0 -9035760000.0 -9035760000.0 -9039700000.0 -9035760000.0 -9133080000.0 -9035770000.0 -9280760000.0 -9035780000.0 -9491320000.0 -9035790000.0 -9861870000.0 -9035820000.0 -10209800000.0 -9054880000.0 -10376000000.0 -9446880000.0 -11130800000.0 -11069800000.0 -13037600000.0 -12415300000.0 -13697800000.0 -13263500000.0 -12692900000.0 -10856300000.0 -11275800000.0 -12425100000.0 -12821800000.0 -12428300000.0 -11446200000.0 -11724400000.0 -11443000000.0 -10623700000.0 -10322100000.0 -11636300000.0 -12035300000.0 -12325300000.0 -11407000000.0 -11859800000.0 -10458300000.0 -10510500000.0 -9316170000.0 -9981870000.0 -9047510000.0 -9862920000.0 -9035800000.0 -9613210000.0 -9035780000.0 -9350920000.0 -9035770000.0 -9201950000.0 -9035760000.0 -9100440000.0 -9035760000.0 -9038170000.0 -9035760000.0 -9035760000.0 -9035760000.0 -9035760000.0 -9035750000.0 -9035750000.0 -9035750000.0 -9035750000.0 -9035750000.0 -9035750000.0 -9035750000.0 -9035780000.0 -9035750000.0 -9035750000.0 -9035750000.0 -9035750000.0 -9035750000.0 -9035750000.0 -9035750000.0 -9035760000.0 -9035760000.0 -9035760000.0 -9035760000.0 -9038170000.0 -9035760000.0 -9100440000.0 -9035760000.0 -9201950000.0 -9035770000.0 -9350920000.0 -9035780000.0 -9613210000.0 -9035800000.0 -9862920000.0 -9047510000.0 -9981870000.0 -9316170000.0 -10510500000.0 -10458300000.0 -11859800000.0 -11407000000.0 -12325300000.0 -12035300000.0 -11636300000.0 -10322100000.0 -10623700000.0 -11443000000.0 -11724400000.0 -11446200000.0 -10464000000.0 -10628200000.0 -10461700000.0 -9975200000.0 -9795180000.0 -10577400000.0 -10811300000.0 -10976000000.0 -10429200000.0 -10701600000.0 -9869880000.0 -9904240000.0 -9197430000.0 -9593970000.0 -9042040000.0 -9523130000.0 -9035780000.0 -9374230000.0 -9035770000.0 -9219210000.0 -9035760000.0 -9131210000.0 -9035760000.0 -9072390000.0 -9035760000.0 -9037040000.0 -9035760000.0 -9035760000.0 -9035750000.0 -9035750000.0 -9035750000.0 -9035750000.0 -9035750000.0 -9035750000.0 -9035750000.0 -9035750000.0 -9035750000.0 -9035770000.0 -9035750000.0 -9035750000.0 -9035750000.0 -9035750000.0 -9035750000.0 -9035750000.0 -9035750000.0 -9035750000.0 -9035750000.0 -9035760000.0 -9035760000.0 -9037040000.0 -9035760000.0 -9072390000.0 -9035760000.0 -9131210000.0 -9035760000.0 -9219210000.0 -9035770000.0 -9374230000.0 -9035780000.0 -9523130000.0 -9042040000.0 -9593970000.0 -9197430000.0 -9904240000.0 -9869880000.0 -10701600000.0 -10429200000.0 -10976000000.0 -10811300000.0 -10577400000.0 -9795180000.0 -9975200000.0 -10461700000.0 -10628200000.0 -10464000000.0 -9481570000.0 -9532760000.0 -9480820000.0 -9328820000.0 -9272470000.0 -9517070000.0 -9589770000.0 -9640340000.0 -9469310000.0 -9554850000.0 -9295060000.0 -9306200000.0 -9085670000.0 -9209710000.0 -9037630000.0 -9187560000.0 -9035760000.0 -9140960000.0 -9035760000.0 -9092620000.0 -9035760000.0 -9065180000.0 -9035760000.0 -9046980000.0 -9035750000.0 -9036140000.0 -9035750000.0 -9035750000.0 -9035750000.0 -9035750000.0 -9035750000.0 -9035750000.0 -9035750000.0 -9035750000.0 -9035750000.0 -9035750000.0 -9035750000.0 -9035760000.0 -9035750000.0 -9035750000.0 -9035750000.0 -9035750000.0 -9035750000.0 -9035750000.0 -9035750000.0 -9035750000.0 -9035750000.0 -9035750000.0 -9035750000.0 -9036140000.0 -9035750000.0 -9046980000.0 -9035760000.0 -9065180000.0 -9035760000.0 -9092620000.0 -9035760000.0 -9140960000.0 -9035760000.0 -9187560000.0 -9037630000.0 -9209710000.0 -9085670000.0 -9306200000.0 -9295060000.0 -9554850000.0 -9469310000.0 -9640340000.0 -9589770000.0 -9517070000.0 -9272470000.0 -9328820000.0 -9480820000.0 -9532760000.0 -9481570000.0 
SCALARS Shear_Stress float 1
LOOKUP_TABLE default
36314300000.0 2720020000.0 2720020000.0 36314300000.0 116945000000.0 202376000000.0 12301800000.0 36124400000.0 874528000.0 874528000.0 36124400000.0 12301800000.0 202376000000.0 116945000000.0 74362000000.0 58125900000.0 380476000000.0 327110000000.0 224381000000.0 16097300000.0 2126150000.0 51923300000.0 7320760000.0 32415400000.0 1622770000.0 3706530000.0 11845900000.0 15899200000.0 20065800000.0 22621900000.0 25398400000.0 26058100000.0 27181400000.0 26058100000.0 25398400000.0 22621900000.0 20065800000.0 15899200000.0 11845900000.0 3706530000.0 1622770000.0 32415400000.0 7320760000.0 51923300000.0 2126150000.0 16097300000.0 224381000000.0 327110000000.0 380476000000.0 58125900000.0 74362000000.0 213355000000.0 110152000000.0 22950200000.0 894331000000.0 77571100000.0 1559990000.0 2111160000.0 2904670000.0 23430300000.0 63614500000.0 40922900000.0 39364300000.0 41366600000.0 34125700000.0 44497300000.0 44370100000.0 46696000000.0 46829000000.0 49908100000.0 49114100000.0 51392300000.0 49114100000.0 49908100000.0 46829000000.0 46696000000.0 44370100000.0 44497300000.0 34125700000.0 41366600000.0 39364300000.0 40922900000.0 63614500000.0 23430300000.0 2904670000.0 2111160000.0 1559990000.0 77571100000.0 894331000000.0 22950200000.0 110152000000.0 213355000000.0 264666000000.0 113836000000.0 17031800000.0 1.10741e+12 236247000000.0 329516000000.0 148459000000.0 70757000000.0 70757100000.0 148459000000.0 329516000000.0 236247000000.0 1.10741e+12 17031800000.0 113836000000.0 264666000000.0 141453000000.0 194722000000.0 158844000000.0 4450710000.0 303025000000.0 179471000000.0 286650000000.0 91126300000.0 90393900000.0 9398550000.0 124197000000.0 9098290000.0 136314000000.0 124611000000.0 140833000000.0 139094000000.0 139785000000.0 136177000000.0 137598000000.0 133986000000.0 136557000000.0 133986000000.0 137598000000.0 136177000000.0 139785000000.0 139094000000.0 140833000000.0 124611000000.0 136314000000.0 9098300000.0 124197000000.0 9398550000.0 90393900000.0 91126300000.0 286650000000.0 179471000000.0 303025000000.0 4450710000.0 158844000000.0 194722000000.0 141453000000.0 31477600000.0 14060200000.0 163821000000.0 219643000000.0 264197000000.0 159080000000.0 851134000000.0 623173000000.0 489485000000.0 294203000000.0 49052000000.0 70482500000.0 131149000000.0 27759600000.0 183923000000.0 172990000000.0 194754000000.0 194528000000.0 197251000000.0 194950000000.0 197670000000.0 194222000000.0 197491000000.0 194222000000.0 197670000000.0 194950000000.0 197251000000.0 194528000000.0 194754000000.0 172990000000.0 183923000000.0 27759700000.0 131149000000.0 70482600000.0 49052000000.0 294203000000.0 489485000000.0 623173000000.0 851134000000.0 159080000000.0 264197000000.0 219643000000.0 163821000000.0 14060200000.0 31477600000.0 1687550000.0 388487000000.0 394067000000.0 347614000000.0 41289800000.0 233471000000.0 356460000000.0 429857000000.0 283649000000.0 245629000000.0 82459300000.0 82459300000.0 245629000000.0 283649000000.0 429857000000.0 356460000000.0 233471000000.0 41289800000.0 347614000000.0 394067000000.0 388487000000.0 1687550000.0 38342800000.0 341768000000.0 466237000000.0 444414000000.0 419350000000.0 543298000000.0 172555000000.0 125600000000.0 535630000000.0 229706000000.0 394352000000.0 428272000000.0 262240000000.0 218075000000.0 9906080000.0 46868200000.0 95808000000.0 90982200000.0 88123600000.0 124587000000.0 134455000000.0 146619000000.0 151070000000.0 158656000000.0 157847000000.0 162160000000.0 157847000000.0 158656000000.0 151070000000.0 146619000000.0 134455000000.0 124587000000.0 88123600000.0 90982200000.0 95808000000.0 46868200000.0 9906080000.0 218075000000.0 262240000000.0 428272000000.0 394352000000.0 229706000000.0 535630000000.0 125600000000.0 172555000000.0 543298000000.0 419350000000.0 444414000000.0 466237000000.0 341768000000.0 38342800000.0 132538000000.0 78677800000.0 234625000000.0 260010000000.0 273182000000.0 692862000000.0 720421000000.0 379540000000.0 271923000000.0 374420000000.0 315283000000.0 381469000000.0 444876000000.0 322850000000.0 193301000000.0 206211000000.0 175238000000.0 3670840000.0 207446000000.0 177562000000.0 200889000000.0 195245000000.0 191387000000.0 179990000000.0 178470000000.0 173637000000.0 177245000000.0 173637000000.0 178470000000.0 179990000000.0 191387000000.0 195245000000.0 200889000000.0 177562000000.0 207446000000.0 3670850000.0 175238000000.0 206211000000.0 193301000000.0 322850000000.0 444876000000.0 381469000000.0 315283000000.0 374420000000.0 271923000000.0 379540000000.0 720421000000.0 692862000000.0 273182000000.0 260010000000.0 234625000000.0 78677800000.0 132538000000.0 166232000000.0 191260000000.0 223160000000.0 383331000000.0 654241000000.0 487512000000.0 480945000000.0 298635000000.0 232419000000.0 352040000000.0 375712000000.0 204426000000.0 158579000000.0 158579000000.0 204426000000.0 375712000000.0 352040000000.0 232419000000.0 298635000000.0 480945000000.0 487512000000.0 654241000000.0 383331000000.0 223160000000.0 191260000000.0 166232000000.0 181945000000.0 103535000000.0 250260000000.0 241408000000.0 200702000000.0 404997000000.0 948699000000.0 525134000000.0 553893000000.0 638770000000.0 404701000000.0 204403000000.0 383483000000.0 214187000000.0 184829000000.0 206738000000.0 123304000000.0 106548000000.0 66247700000.0 152691000000.0 145434000000.0 191440000000.0 199710000000.0 211222000000.0 213503000000.0 220091000000.0 218391000000.0 222219000000.0 218391000000.0 220091000000.0 213503000000.0 211222000000.0 199710000000.0 191440000000.0 145435000000.0 152691000000.0 66247700000.0 106548000000.0 123304000000.0 206738000000.0 184829000000.0 214187000000.0 383483000000.0 204403000000.0 404701000000.0 638770000000.0 553893000000.0 525134000000.0 948699000000.0 404997000000.0 200702000000.0 241408000000.0 250260000000.0 103535000000.0 181945000000.0 184626000000.0 18533200000.0 46000800000.0 72123500000.0 223082000000.0 362844000000.0 190299000000.0 527037000000.0 593475000000.0 873832000000.0 430385000000.0 297091000000.0 687876000000.0 373823000000.0 247381000000.0 224381000000.0 198283000000.0 239414000000.0 159150000000.0 43777800000.0 168252000000.0 153690000000.0 195916000000.0 201457000000.0 211998000000.0 213575000000.0 219237000000.0 218050000000.0 221249000000.0 218050000000.0 219237000000.0 213575000000.0 211998000000.0 201457000000.0 195916000000.0 153690000000.0 168252000000.0 43777700000.0 159150000000.0 239414000000.0 198283000000.0 224381000000.0 247381000000.0 373823000000.0 687876000000.0 297091000000.0 430385000000.0 873832000000.0 593475000000.0 527037000000.0 190299000000.0 362844000000.0 223082000000.0 72123500000.0 46000800000.0 18533200000.0 184626000000.0 128425000000.0 157968000000.0 3337520000.0 326698000000.0 337222000000.0 62685300000.0 401297000000.0 409588000000.0 433934000000.0 129677000000.0 299239000000.0 189081000000.0 495262000000.0 293540000000.0 204932000000.0 200916000000.0 84833400000.0 84833400000.0 200916000000.0 204932000000.0 293540000000.0 495262000000.0 189081000000.0 299239000000.0 129677000000.0 433934000000.0 409588000000.0 401297000000.0 62685300000.0 337222000000.0 326698000000.0 3337510000.0 157968000000.0 128425000000.0 66088200000.0 109850000000.0 65621000000.0 15110800000.0 7718970000.0 33628200000.0 493947000000.0 624939000000.0 528445000000.0 757806000000.0 40361600000.0 597431000000.0 351029000000.0 364429000000.0 106960000000.0 461542000000.0 223447000000.0 261535000000.0 161841000000.0 38594100000.0 2538980000.0 186569000000.0 183085000000.0 225852000000.0 233495000000.0 245726000000.0 249377000000.0 255609000000.0 256355000000.0 258573000000.0 256355000000.0 255609000000.0 249377000000.0 245726000000.0 233495000000.0 225852000000.0 183085000000.0 186569000000.0 2538980000.0 38594100000.0 161841000000.0 261535000000.0 223447000000.0 461542000000.0 106960000000.0 364429000000.0 351029000000.0 597431000000.0 40361600000.0 757806000000.0 528445000000.0 624939000000.0 493947000000.0 33628200000.0 7718970000.0 15110800000.0 65621000000.0 109850000000.0 66088200000.0 50968500000.0 3094200000.0 191626000000.0 34765700000.0 35406900000.0 983876000000.0 385691000000.0 943679000000.0 318526000000.0 444941000000.0 40566700000.0 382434000000.0 225992000000.0 62343400000.0 264678000000.0 209989000000.0 223887000000.0 295394000000.0 208955000000.0 186930000000.0 60087700000.0 60087700000.0 186930000000.0 208955000000.0 295394000000.0 223887000000.0 209989000000.0 264678000000.0 62343400000.0 225992000000.0 382434000000.0 40566700000.0 444941000000.0 318526000000.0 943679000000.0 385691000000.0 983876000000.0 35406900000.0 34765700000.0 191626000000.0 3094200000.0 50968500000.0 83245100000.0 265877000000.0 156762000000.0 36584000000.0 50685100000.0 113972000000.0 357756000000.0 432676000000.0 345233000000.0 282315000000.0 634568000000.0 572040000000.0 120953000000.0 486818000000.0 125334000000.0 369175000000.0 31424400000.0 138964000000.0 182996000000.0 155428000000.0 20866600000.0 195382000000.0 212885000000.0 246342000000.0 251546000000.0 260399000000.0 263435000000.0 266530000000.0 267955000000.0 267964000000.0 267955000000.0 266530000000.0 263435000000.0 260399000000.0 251546000000.0 246342000000.0 212885000000.0 195382000000.0 20866600000.0 155428000000.0 182996000000.0 138964000000.0 31424400000.0 369175000000.0 125334000000.0 486818000000.0 120953000000.0 572040000000.0 634568000000.0 282315000000.0 345233000000.0 432676000000.0 357756000000.0 113972000000.0 50685100000.0 36584000000.0 156762000000.0 265877000000.0 83245100000.0 73213800000.0 314552000000.0 300054000000.0 237260000000.0 199094000000.0 83958000000.0 97803400000.0 162075000000.0 1.16362e+12 308661000000.0 810559000000.0 719013000000.0 48777900000.0 513601000000.0 105197000000.0 69450900000.0 29136300000.0 236219000000.0 195200000000.0 108593000000.0 111443000000.0 176571000000.0 221011000000.0 242775000000.0 250740000000.0 257828000000.0 262009000000.0 262970000000.0 266001000000.0 264024000000.0 266001000000.0 262970000000.0 262009000000.0 257828000000.0 250740000000.0 242775000000.0 221011000000.0 176571000000.0 111443000000.0 108593000000.0 195200000000.0 236219000000.0 29136300000.0 69450900000.0 105197000000.0 513601000000.0 48777900000.0 719013000000.0 810559000000.0 308661000000.0 1.16362e+12 162075000000.0 97803400000.0 83958000000.0 199094000000.0 237260000000.0 300054000000.0 314552000000.0 73213800000.0 8437370000.0 225026000000.0 301348000000.0 294469000000.0 276816000000.0 10902100000.0 242783000000.0 598372000000.0 36239400000.0 434524000000.0 38703900000.0 67273900000.0 195418000000.0 101736000000.0 6381050000.0 105928000000.0 134154000000.0 242739000000.0 153314000000.0 127002000000.0 82205100000.0 48688000000.0 173689000000.0 173689000000.0 48688000000.0 82205100000.0 127002000000.0 153314000000.0 242739000000.0 134154000000.0 105928000000.0 6381050000.0 101736000000.0 195418000000.0 67273900000.0 38703900000.0 434524000000.0 36239400000.0 598372000000.0 242783000000.0 10902100000.0 276816000000.0 294469000000.0 301348000000.0 225026000000.0 8437370000.0 111951000000.0 67647100000.0 194652000000.0 261934000000.0 335180000000.0 52103600000.0 402430000000.0 348847000000.0 441315000000.0 479439000000.0 109034000000.0 46343200000.0 261262000000.0 133976000000.0 241061000000.0 161963000000.0 306525000000.0 7230150000.0 177961000000.0 70810300000.0 153125000000.0 188623000000.0 149867000000.0 151461000000.0 222054000000.0 231932000000.0 245177000000.0 250338000000.0 255680000000.0 254946000000.0 259651000000.0 255922000000.0 259651000000.0 254946000000.0 255680000000.0 250338000000.0 245177000000.0 231932000000.0 222054000000.0 151461000000.0 149867000000.0 188623000000.0 153125000000.0 70810300000.0 177961000000.0 7230150000.0 306525000000.0 161963000000.0 241061000000.0 133976000000.0 261262000000.0 46343200000.0 109034000000.0 479439000000.0 441315000000.0 348847000000.0 402430000000.0 52103600000.0 335180000000.0 261934000000.0 194652000000.0 67647100000.0 111951000000.0 214505000000.0 143623000000.0 47405200000.0 156338000000.0 57307900000.0 190834000000.0 365169000000.0 347209000000.0 62052700000.0 231572000000.0 822872000000.0 373442000000.0 194190000000.0 49416500000.0 15765600000.0 107998000000.0 47488800000.0 185317000000.0 142644000000.0 153436000000.0 105059000000.0 261068000000.0 127116000000.0 92646500000.0 180935000000.0 185032000000.0 201893000000.0 205595000000.0 211388000000.0 209670000000.0 214946000000.0 210318000000.0 214946000000.0 209670000000.0 211388000000.0 205595000000.0 201893000000.0 185032000000.0 180935000000.0 92646500000.0 127116000000.0 261068000000.0 105059000000.0 153436000000.0 142644000000.0 185317000000.0 47488800000.0 107998000000.0 15765600000.0 49416500000.0 194190000000.0 373442000000.0 822872000000.0 231572000000.0 62052700000.0 347209000000.0 365169000000.0 190834000000.0 57307900000.0 156338000000.0 47405200000.0 143623000000.0 214505000000.0 62046600000.0 114028000000.0 150093000000.0 219003000000.0 280259000000.0 17739700000.0 24452400000.0 370503000000.0 451670000000.0 93721300000.0 190718000000.0 298301000000.0 560455000000.0 522978000000.0 411074000000.0 438470000000.0 256317000000.0 10693100000.0 133898000000.0 235104000000.0 115737000000.0 192846000000.0 6211430000.0 6211430000.0 192846000000.0 115737000000.0 235104000000.0 133898000000.0 10693100000.0 256317000000.0 438470000000.0 411074000000.0 522978000000.0 560455000000.0 298301000000.0 190718000000.0 93721300000.0 451670000000.0 370503000000.0 24452400000.0 17739700000.0 280259000000.0 219003000000.0 150093000000.0 114028000000.0 62046600000.0 25432000000.0 50879400000.0 12780800000.0 47465800000.0 293532000000.0 56041900000.0 405315000000.0 64452900000.0 448531000000.0 432853000000.0 501736000000.0 525687000000.0 455828000000.0 419108000000.0 213911000000.0 98626200000.0 76588500000.0 57268700000.0 202588000000.0 36416200000.0 88534600000.0 140566000000.0 89514300000.0 63375500000.0 92859300000.0 34871100000.0 242995000000.0 13989600000.0 29334200000.0 27493400000.0 23111400000.0 30289000000.0 29110200000.0 29480500000.0 25525600000.0 27860200000.0 23419100000.0 27860200000.0 25525600000.0 29480500000.0 29110200000.0 30289000000.0 23111400000.0 27493400000.0 29334200000.0 13989600000.0 242995000000.0 34871100000.0 92859300000.0 63375500000.0 89514300000.0 140566000000.0 88534600000.0 36416200000.0 202588000000.0 57268700000.0 76588500000.0 98626200000.0 213911000000.0 419108000000.0 455828000000.0 525687000000.0 501736000000.0 432853000000.0 448531000000.0 64452900000.0 405315000000.0 56041900000.0 293532000000.0 47465800000.0 12780800000.0 50879400000.0 25432000000.0 140904000000.0 117929000000.0 72586500000.0 199235000000.0 25999000000.0 445683000000.0 183310000000.0 407447000000.0 415479000000.0 445201000000.0 437074000000.0 372897000000.0 304074000000.0 279970000000.0 183870000000.0 86066000000.0 108949000000.0 70682400000.0 32116800000.0 72467100000.0 112708000000.0 212037000000.0 203667000000.0 254005000000.0 253034000000.0 254453000000.0 254482000000.0 254217000000.0 251465000000.0 252714000000.0 248902000000.0 252714000000.0 251465000000.0 254217000000.0 254482000000.0 254453000000.0 253034000000.0 254005000000.0 203667000000.0 212037000000.0 112708000000.0 72467100000.0 32116800000.0 70682400000.0 108949000000.0 86066000000.0 183870000000.0 279970000000.0 304074000000.0 372897000000.0 437074000000.0 445201000000.0 415479000000.0 407447000000.0 183310000000.0 445683000000.0 25999000000.0 199235000000.0 72586500000.0 117929000000.0 140904000000.0 1341150000.0 88280800000.0 212230000000.0 272775000000.0 97981000000.0 420777000000.0 185723000000.0 155825000000.0 410476000000.0 69744000000.0 91262200000.0 167640000000.0 230683000000.0 47451200000.0 281925000000.0 96809100000.0 204106000000.0 43559700000.0 43559700000.0 204106000000.0 96809100000.0 281925000000.0 47451200000.0 230683000000.0 167640000000.0 91262200000.0 69744000000.0 410476000000.0 155825000000.0 185723000000.0 420777000000.0 97981000000.0 272775000000.0 212230000000.0 88280800000.0 1341150000.0 196686000000.0 91258400000.0 100366000000.0 23003000000.0 56540100000.0 88547200000.0 342403000000.0 27546100000.0 280469000000.0 358172000000.0 343928000000.0 314729000000.0 236017000000.0 161853000000.0 154180000000.0 143725000000.0 94367200000.0 24098000000.0 143187000000.0 23791600000.0 132868000000.0 27960000000.0 14653100000.0 42847000000.0 177106000000.0 17163300000.0 35362000000.0 9032380000.0 9025560000.0 9018140000.0 9008350000.0 8989420000.0 10472800000.0 9128560000.0 12216800000.0 9128560000.0 10472800000.0 8989420000.0 9008350000.0 9018140000.0 9025560000.0 9032380000.0 35362000000.0 17163300000.0 177106000000.0 42847000000.0 14653100000.0 27960000000.0 132868000000.0 23791600000.0 143187000000.0 24098000000.0 94367200000.0 143725000000.0 154180000000.0 161853000000.0 236017000000.0 314729000000.0 343928000000.0 358172000000.0 280469000000.0 27546100000.0 342403000000.0 88547200000.0 56540100000.0 23003000000.0 100366000000.0 91258400000.0 196686000000.0 227104000000.0 152266000000.0 368668000000.0 51442600000.0 135913000000.0 117025000000.0 279728000000.0 174450000000.0 249134000000.0 264067000000.0 237325000000.0 178269000000.0 94870700000.0 65997200000.0 90279300000.0 394371000000.0 265971000000.0 1590960000.0 66014400000.0 35379800000.0 154787000000.0 42678700000.0 281713000000.0 279703000000.0 277308000000.0 269222000000.0 262022000000.0 256117000000.0 251819000000.0 248686000000.0 247721000000.0 244771000000.0 247721000000.0 248686000000.0 251819000000.0 256117000000.0 262022000000.0 269222000000.0 277308000000.0 279703000000.0 281713000000.0 42678700000.0 154787000000.0 35379800000.0 66014400000.0 1590960000.0 265971000000.0 394371000000.0 90279300000.0 65997200000.0 94870700000.0 178269000000.0 237325000000.0 264067000000.0 249134000000.0 174450000000.0 279728000000.0 117025000000.0 135913000000.0 51442600000.0 368668000000.0 152266000000.0 227104000000.0 111719000000.0 18840800000.0 3786950000.0 432090000000.0 5937730000.0 160664000000.0 37428600000.0 98075800000.0 152303000000.0 157093000000.0 121950000000.0 49546500000.0 21896400000.0 116087000000.0 262600000000.0 365497000000.0 364194000000.0 414939000000.0 203990000000.0 115465000000.0 115465000000.0 203990000000.0 414939000000.0 364194000000.0 365497000000.0 262600000000.0 116087000000.0 21896400000.0 49546500000.0 121950000000.0 157093000000.0 152303000000.0 98075800000.0 37428600000.0 160664000000.0 5937730000.0 432090000000.0 3786960000.0 18840800000.0 111719000000.0 78087700000.0 9530550000.0 60758400000.0 163094000000.0 77255200000.0 116161000000.0 304953000000.0 99486600000.0 37889000000.0 4717690000.0 979150000.0 23918700000.0 15466600000.0 138353000000.0 110035000000.0 205256000000.0 194029000000.0 140878000000.0 93963100000.0 114005000000.0 76132800000.0 50287200000.0 157509000000.0 9035750000.0 9035750000.0 9035750000.0 9035750000.0 9035750000.0 9035730000.0 9035590000.0 9035210000.0 9077430000.0 11285600000.0 9077430000.0 9035210000.0 9035590000.0 9035730000.0 9035750000.0 9035750000.0 9035750000.0 9035750000.0 9035750000.0 157509000000.0 50287200000.0 76132800000.0 114005000000.0 93963100000.0 140878000000.0 194029000000.0 205256000000.0 110035000000.0 138353000000.0 15466600000.0 23918700000.0 979150000.0 4717690000.0 37889000000.0 99486600000.0 304953000000.0 116161000000.0 77255200000.0 163094000000.0 60758400000.0 9530550000.0 78087700000.0 47181600000.0 241682000000.0 472619000000.0 421709000000.0 216605000000.0 172742000000.0 145401000000.0 72234600000.0 25500400000.0 14110700000.0 85473400000.0 42232500000.0 84306100000.0 116125000000.0 11049500000.0 171708000000.0 175675000000.0 177871000000.0 179279000000.0 179961000000.0 180116000000.0 179959000000.0 179692000000.0 179413000000.0 177524000000.0 179413000000.0 179692000000.0 179959000000.0 180116000000.0 179961000000.0 179279000000.0 177871000000.0 175675000000.0 171708000000.0 11049500000.0 116125000000.0 84306100000.0 42232500000.0 85473400000.0 14110700000.0 25500400000.0 72234600000.0 145401000000.0 172742000000.0 216605000000.0 421709000000.0 472619000000.0 241682000000.0 47181600000.0 17727300000.0 39092100000.0 93172000000.0 20598900000.0 1535610000.0 194297000000.0 103671000000.0 144704000000.0 204389000000.0 249619000000.0 293968000000.0 286127000000.0 238358000000.0 181681000000.0 151242000000.0 167464000000.0 87448300000.0 131591000000.0 98064300000.0 73737500000.0 73737500000.0 98064300000.0 131591000000.0 87448300000.0 167464000000.0 151242000000.0 181681000000.0 238358000000.0 286127000000.0 293968000000.0 249619000000.0 204389000000.0 144704000000.0 103671000000.0 194297000000.0 1535610000.0 20598900000.0 93172000000.0 39092100000.0 17727300000.0 49835800000.0 157142000000.0 10333100000.0 107611000000.0 22403900000.0 81870500000.0 54184800000.0 48872100000.0 183136000000.0 166992000000.0 149071000000.0 122243000000.0 84622100000.0 70696900000.0 66798400000.0 28728900000.0 85096400000.0 17058700000.0 31732600000.0 4263730000.0 17556900000.0 63646800000.0 4757400000.0 130338000000.0 6306890000.0 104340000000.0 9035750000.0 9035750000.0 9035750000.0 9035750000.0 9035750000.0 9035750000.0 9035750000.0 9035750000.0 9035750000.0 10559900000.0 9035750000.0 9035750000.0 9035750000.0 9035750000.0 9035750000.0 9035750000.0 9035750000.0 9035750000.0 9035750000.0 104340000000.0 6306890000.0 130338000000.0 4757400000.0 63646800000.0 17556900000.0 4263730000.0 31732600000.0 17058700000.0 85096400000.0 28728900000.0 66798400000.0 70696900000.0 84622100000.0 122243000000.0 149071000000.0 166992000000.0 183136000000.0 48872100000.0 54184800000.0 81870500000.0 22403900000.0 107611000000.0 10333100000.0 157142000000.0 49835800000.0 47080500000.0 236926000000.0 213005000000.0 286301000000.0 314627000000.0 263287000000.0 245276000000.0 224995000000.0 192232000000.0 56947900000.0 182054000000.0 98700200000.0 156094000000.0 138349000000.0 122531000000.0 108754000000.0 97042200000.0 87420200000.0 79916600000.0 74550700000.0 71332800000.0 69050300000.0 71332800000.0 74550700000.0 79916600000.0 87420200000.0 97042200000.0 108754000000.0 122531000000.0 138349000000.0 156094000000.0 98700200000.0 182054000000.0 56947900000.0 192232000000.0 224995000000.0 245276000000.0 263287000000.0 314627000000.0 286301000000.0 213005000000.0 236926000000.0 47080500000.0 112168000000.0 8643020000.0 2021690000.0 106071000000.0 21021100000.0 166058000000.0 113737000000.0 215477000000.0 217549000000.0 151170000000.0 107901000000.0 33638000000.0 79274500000.0 169357000000.0 257200000000.0 273110000000.0 214301000000.0 139041000000.0 139041000000.0 214301000000.0 273110000000.0 257200000000.0 169357000000.0 79274500000.0 33638000000.0 107901000000.0 151170000000.0 217549000000.0 215477000000.0 113737000000.0 166058000000.0 21021100000.0 106071000000.0 2021690000.0 8643020000.0 112168000000.0 89408200000.0 35435700000.0 93351700000.0 2624520000.0 126992000000.0 126354000000.0 9671700000.0 53871900000.0 15487200000.0 267338000000.0 205227000000.0 138683000000.0 106353000000.0 49522800000.0 48854500000.0 32339000000.0 33287100000.0 16823600000.0 3570940000.0 53364400000.0 5499110000.0 68934100000.0 5074490000.0 94869600000.0 4558690000.0 136103000000.0 8145060000.0 59154500000.0 9035750000.0 9035750000.0 9035750000.0 9035750000.0 9035750000.0 9035750000.0 9035750000.0 9035750000.0 9035930000.0 10009000000.0 9035930000.0 9035750000.0 9035750000.0 9035750000.0 9035750000.0 9035750000.0 9035750000.0 9035750000.0 9035750000.0 59154500000.0 8145060000.0 136103000000.0 4558690000.0 94869600000.0 5074490000.0 68934100000.0 5499110000.0 53364400000.0 3570940000.0 16823600000.0 33287100000.0 32339000000.0 48854500000.0 49522800000.0 106353000000.0 138683000000.0 205227000000.0 267338000000.0 15487200000.0 53871900000.0 9671700000.0 126354000000.0 126992000000.0 2624520000.0 93351700000.0 35435700000.0 89408200000.0 60818400000.0 4544750000.0 8779970000.0 104152000000.0 3303950000.0 5311670000.0 128850000000.0 106588000000.0 29701300000.0 260484000000.0 147154000000.0 49259900000.0 882639000.0 72025700000.0 96364400000.0 111490000000.0 93687600000.0 87694100000.0 81262400000.0 17736000000.0 55999900000.0 16918300000.0 37634600000.0 56964800000.0 25290600000.0 97250900000.0 17531700000.0 21690000000.0 9771350000.0 6543340000.0 3905310000.0 1768780000.0 57459500.0 1286150000.0 2301310000.0 3013000000.0 3435810000.0 4341230000.0 3435810000.0 3013000000.0 2301310000.0 1286150000.0 57459400.0 1768780000.0 3905310000.0 6543340000.0 9771350000.0 21690000000.0 17531700000.0 97250900000.0 25290600000.0 56964800000.0 37634600000.0 16918300000.0 55999900000.0 17736000000.0 81262400000.0 87694100000.0 93687600000.0 111490000000.0 96364400000.0 72025700000.0 882638000.0 49259900000.0 147154000000.0 260484000000.0 29701300000.0 106588000000.0 128850000000.0 5311670000.0 3303950000.0 104152000000.0 8779970000.0 4544750000.0 60818400000.0 41481200000.0 2487150000.0 9920140000.0 69969200000.0 32134000000.0 47002200000.0 89497900000.0 65707500000.0 2822450000.0 217562000000.0 204903000000.0 166079000000.0 142730000000.0 89729900000.0 58695300000.0 39771400000.0 33447600000.0 25003000000.0 8557370000.0 59507000000.0 8620120000.0 71000700000.0 8630600000.0 92527300000.0 8748650000.0 112288000000.0 8995110000.0 32537700000.0 9035760000.0 9035760000.0 9035760000.0 9035760000.0 9035760000.0 9035760000.0 9035750000.0 9035750000.0 9035750000.0 9637980000.0 9035750000.0 9035750000.0 9035750000.0 9035760000.0 9035760000.0 9035760000.0 9035760000.0 9035760000.0 9035760000.0 32537700000.0 8995110000.0 112288000000.0 8748650000.0 92527300000.0 8630600000.0 71000700000.0 8620120000.0 59507000000.0 8557370000.0 25003000000.0 33447600000.0 39771400000.0 58695300000.0 89729900000.0 142730000000.0 166079000000.0 204903000000.0 217562000000.0 2822450000.0 65707500000.0 89497900000.0 47002200000.0 32134000000.0 69969200000.0 9920140000.0 2487150000.0 41481200000.0 32747300000.0 21591400000.0 19023300000.0 92496100000.0 12259800000.0 11405300000.0 148727000000.0 116493000000.0 78321800000.0 231818000000.0 186545000000.0 134142000000.0 107555000000.0 61584000000.0 36774600000.0 29191600000.0 23896500000.0 18667600000.0 3110190000.0 52669700000.0 5845440000.0 66267600000.0 8481200000.0 85822500000.0 9035760000.0 97155500000.0 9035750000.0 24551100000.0 9035780000.0 9035770000.0 9035770000.0 9035770000.0 9035760000.0 9035760000.0 9035760000.0 9035760000.0 9035750000.0 9508920000.0 9035750000.0 9035760000.0 9035760000.0 9035760000.0 9035760000.0 9035770000.0 9035770000.0 9035770000.0 9035780000.0 24551100000.0 9035750000.0 97155500000.0 9035760000.0 85822500000.0 8481200000.0 66267600000.0 5845440000.0 52669700000.0 3110190000.0 18667600000.0 23896500000.0 29191600000.0 36774600000.0 61584000000.0 107555000000.0 134142000000.0 186545000000.0 231818000000.0 78321800000.0 116493000000.0 148727000000.0 11405300000.0 12259800000.0 92496100000.0 19023300000.0 21591400000.0 32747300000.0 27970200000.0 25201300000.0 21672600000.0 81699800000.0 13688500000.0 10806100000.0 131421000000.0 107369000000.0 90253400000.0 202825000000.0 174382000000.0 134098000000.0 113671000000.0 72356700000.0 47220800000.0 43023900000.0 33075000000.0 27791800000.0 9035760000.0 54174400000.0 9035760000.0 64593300000.0 9035760000.0 78488200000.0 9035760000.0 82909000000.0 9035760000.0 19056600000.0 9035790000.0 9035790000.0 9035780000.0 9035780000.0 9035770000.0 9035770000.0 9035760000.0 9035760000.0 9035750000.0 9407360000.0 9035750000.0 9035760000.0 9035760000.0 9035770000.0 9035770000.0 9035780000.0 9035780000.0 9035790000.0 9035790000.0 19056600000.0 9035760000.0 82909000000.0 9035760000.0 78488200000.0 9035760000.0 64593300000.0 9035760000.0 54174400000.0 9035760000.0 27791800000.0 33075000000.0 43023900000.0 47220800000.0 72356700000.0 113671000000.0 134098000000.0 174382000000.0 202825000000.0 90253400000.0 107369000000.0 131421000000.0 10806100000.0 13688500000.0 81699800000.0 21672600000.0 25201300000.0 27970200000.0 28891100000.0 29525700000.0 26373200000.0 74366500000.0 18658600000.0 16784400000.0 117907000000.0 105604000000.0 103852000000.0 179231000000.0 154022000000.0 117010000000.0 100352000000.0 64994700000.0 43374900000.0 41999800000.0 30714000000.0 28385200000.0 9035780000.0 50868000000.0 9035770000.0 60975900000.0 9035770000.0 71299200000.0 9035760000.0 70166400000.0 9035760000.0 15320200000.0 9035800000.0 9035800000.0 9035790000.0 9035780000.0 9035780000.0 9035770000.0 9035760000.0 9035760000.0 9035750000.0 9327380000.0 9035750000.0 9035760000.0 9035760000.0 9035770000.0 9035780000.0 9035780000.0 9035790000.0 9035800000.0 9035800000.0 15320200000.0 9035760000.0 70166400000.0 9035760000.0 71299200000.0 9035770000.0 60975900000.0 9035770000.0 50868000000.0 9035780000.0 28385200000.0 30714000000.0 41999800000.0 43374900000.0 64994700000.0 100352000000.0 117010000000.0 154022000000.0 179231000000.0 103852000000.0 105604000000.0 117907000000.0 16784400000.0 18658600000.0 74366500000.0 26373200000.0 29525700000.0 28891100000.0 30895400000.0 32225000000.0 29245200000.0 65985600000.0 20834100000.0 18905900000.0 99472000000.0 98486200000.0 109268000000.0 158038000000.0 137362000000.0 104409000000.0 89819200000.0 59984200000.0 42409700000.0 41091800000.0 28140200000.0 28659300000.0 9035790000.0 47676800000.0 9035780000.0 57150300000.0 9035770000.0 64453300000.0 9035770000.0 59044800000.0 9035760000.0 12826700000.0 9035810000.0 9035800000.0 9035790000.0 9035790000.0 9035780000.0 9035770000.0 9035760000.0 9035760000.0 9035750000.0 9264400000.0 9035750000.0 9035760000.0 9035760000.0 9035770000.0 9035780000.0 9035790000.0 9035790000.0 9035800000.0 9035810000.0 12826700000.0 9035760000.0 59044800000.0 9035770000.0 64453300000.0 9035770000.0 57150300000.0 9035780000.0 47676800000.0 9035790000.0 28659300000.0 28140200000.0 41091800000.0 42409700000.0 59984200000.0 89819200000.0 104409000000.0 137362000000.0 158038000000.0 109268000000.0 98486200000.0 99472000000.0 18905900000.0 20834100000.0 65985600000.0 29245200000.0 32225000000.0 30895400000.0 32611600000.0 34089500000.0 31543700000.0 58494600000.0 22628200000.0 20764100000.0 83489600000.0 92130900000.0 112564000000.0 140578000000.0 122320000000.0 93026900000.0 79364800000.0 54918800000.0 41242200000.0 39209900000.0 25089900000.0 28677800000.0 9035810000.0 44706200000.0 9035790000.0 53156600000.0 9035780000.0 58054400000.0 9035770000.0 49522800000.0 9035770000.0 11215200000.0 9035820000.0 9035800000.0 9035800000.0 9035790000.0 9035780000.0 9035770000.0 9035760000.0 9035760000.0 9035750000.0 9214810000.0 9035750000.0 9035760000.0 9035760000.0 9035770000.0 9035780000.0 9035790000.0 9035800000.0 9035800000.0 9035820000.0 11215200000.0 9035770000.0 49522800000.0 9035770000.0 58054400000.0 9035780000.0 53156600000.0 9035790000.0 44706200000.0 9035810000.0 28677800000.0 25089900000.0 39209900000.0 41242200000.0 54918800000.0 79364800000.0 93026900000.0 122320000000.0 140578000000.0 112564000000.0 92130900000.0 83489600000.0 20764100000.0 22628200000.0 58494600000.0 31543700000.0 34089500000.0 32611600000.0 33772800000.0 35237600000.0 33275000000.0 51989800000.0 24058900000.0 22385700000.0 70223200000.0 85908700000.0 112994000000.0 125968000000.0 109474000000.0 83380600000.0 70185300000.0 50803400000.0 39630800000.0 37105000000.0 22070700000.0 28494900000.0 9035820000.0 41921500000.0 9035800000.0 49101500000.0 9035790000.0 52148700000.0 9035780000.0 41499700000.0 9035770000.0 10219200000.0 9035820000.0 9035810000.0 9035790000.0 9035790000.0 9035780000.0 9035770000.0 9035760000.0 9035760000.0 9035750000.0 9175790000.0 9035750000.0 9035760000.0 9035760000.0 9035770000.0 9035780000.0 9035790000.0 9035790000.0 9035810000.0 9035820000.0 10219200000.0 9035770000.0 41499700000.0 9035780000.0 52148700000.0 9035790000.0 49101500000.0 9035800000.0 41921500000.0 9035820000.0 28494900000.0 22070700000.0 37105000000.0 39630800000.0 50803400000.0 70185300000.0 83380600000.0 109474000000.0 125968000000.0 112994000000.0 85908700000.0 70223200000.0 22385700000.0 24058900000.0 51989800000.0 33275000000.0 35237600000.0 33772800000.0 34465300000.0 35815600000.0 34470900000.0 46495700000.0 25150500000.0 23788700000.0 59842000000.0 80590200000.0 111386000000.0 113830000000.0 98418700000.0 75103200000.0 62354600000.0 47606400000.0 37434100000.0 34959400000.0 19302200000.0 28151100000.0 9035840000.0 39260600000.0 9035810000.0 45104000000.0 9035790000.0 46748600000.0 9035780000.0 34834700000.0 9035770000.0 9634530000.0 9035820000.0 9035800000.0 9035790000.0 9035780000.0 9035780000.0 9035770000.0 9035760000.0 9035760000.0 9035750000.0 9145130000.0 9035750000.0 9035760000.0 9035760000.0 9035770000.0 9035780000.0 9035780000.0 9035790000.0 9035800000.0 9035820000.0 9634530000.0 9035770000.0 34834700000.0 9035780000.0 46748600000.0 9035790000.0 45104000000.0 9035810000.0 39260600000.0 9035840000.0 28151100000.0 19302200000.0 34959400000.0 37434100000.0 47606400000.0 62354600000.0 75103200000.0 98418700000.0 113830000000.0 111386000000.0 80590200000.0 59842000000.0 23788700000.0 25150500000.0 46495700000.0 34470900000.0 35815600000.0 34465300000.0 34790100000.0 35968000000.0 35181000000.0 41972600000.0 25927100000.0 24985800000.0 52011200000.0 76199100000.0 108100000000.0 103573000000.0 88803400000.0 68010100000.0 55757000000.0 44938800000.0 34809000000.0 32887200000.0 16911300000.0 27671200000.0 9035850000.0 36691000000.0 9035820000.0 41262800000.0 9035800000.0 41847400000.0 9035780000.0 29369600000.0 9035770000.0 9311970000.0 9035810000.0 9035800000.0 9035790000.0 9035780000.0 9035770000.0 9035760000.0 9035760000.0 9035760000.0 9035750000.0 9121060000.0 9035750000.0 9035760000.0 9035760000.0 9035760000.0 9035770000.0 9035780000.0 9035790000.0 9035800000.0 9035810000.0 9311970000.0 9035770000.0 29369600000.0 9035780000.0 41847400000.0 9035800000.0 41262800000.0 9035820000.0 36691000000.0 9035850000.0 27671200000.0 16911300000.0 32887200000.0 34809000000.0 44938800000.0 55757000000.0 68010100000.0 88803400000.0 103573000000.0 108100000000.0 76199100000.0 52011200000.0 24985800000.0 25927100000.0 41972600000.0 35181000000.0 35968000000.0 34790100000.0 34822100000.0 35819900000.0 35467800000.0 38321600000.0 26414900000.0 25986400000.0 46287900000.0 72571300000.0 103505000000.0 94722700000.0 80401700000.0 61961500000.0 50197700000.0 42417300000.0 31965400000.0 30948900000.0 14941800000.0 27072100000.0 9035860000.0 34208100000.0 9035820000.0 37647600000.0 9035800000.0 37428300000.0 9035780000.0 24941400000.0 9035770000.0 9149090000.0 9035810000.0 9035790000.0 9035780000.0 9035780000.0 9035770000.0 9035760000.0 9035760000.0 9035760000.0 9035750000.0 9102190000.0 9035750000.0 9035760000.0 9035760000.0 9035760000.0 9035770000.0 9035780000.0 9035780000.0 9035790000.0 9035810000.0 9149090000.0 9035770000.0 24941400000.0 9035780000.0 37428300000.0 9035800000.0 37647600000.0 9035820000.0 34208100000.0 9035860000.0 27072100000.0 14941800000.0 30948900000.0 31965400000.0 42417300000.0 50197700000.0 61961500000.0 80401700000.0 94722700000.0 103505000000.0 72571300000.0 46287900000.0 25986400000.0 26414900000.0 38321600000.0 35467800000.0 35819900000.0 34822100000.0 34623400000.0 35468900000.0 35402000000.0 35407000000.0 26645600000.0 26798400000.0 42221800000.0 69486200000.0 97982600000.0 86953600000.0 73043500000.0 56795500000.0 45465800000.0 39873000000.0 29081100000.0 29167400000.0 13380000000.0 26369100000.0 9035870000.0 31822400000.0 9035830000.0 34300500000.0 9035800000.0 33469500000.0 9035790000.0 21392300000.0 9035780000.0 9076340000.0 9035800000.0 9035790000.0 9035780000.0 9035770000.0 9035760000.0 9035760000.0 9035760000.0 9035750000.0 9035750000.0 9087430000.0 9035750000.0 9035750000.0 9035760000.0 9035760000.0 9035760000.0 9035770000.0 9035780000.0 9035790000.0 9035800000.0 9076340000.0 9035780000.0 21392300000.0 9035790000.0 33469500000.0 9035800000.0 34300500000.0 9035830000.0 31822400000.0 9035870000.0 26369100000.0 13380000000.0 29167400000.0 29081100000.0 39873000000.0 45465800000.0 56795500000.0 73043500000.0 86953600000.0 97982600000.0 69486200000.0 42221800000.0 26798400000.0 26645600000.0 35407000000.0 35402000000.0 35468900000.0 34623400000.0 34244500000.0 34986300000.0 35056100000.0 33083100000.0 26652900000.0 27429700000.0 39403000000.0 66737400000.0 91889200000.0 80048800000.0 66572700000.0 52339200000.0 41365200000.0 37303900000.0 26286500000.0 27544300000.0 12179200000.0 25578800000.0 9035880000.0 29551200000.0 9035840000.0 31241600000.0 9035810000.0 29946100000.0 9035790000.0 18576200000.0 9035780000.0 9048340000.0 9035790000.0 9035780000.0 9035770000.0 9035770000.0 9035760000.0 9035760000.0 9035760000.0 9035750000.0 9035750000.0 9075890000.0 9035750000.0 9035750000.0 9035760000.0 9035760000.0 9035760000.0 9035770000.0 9035770000.0 9035780000.0 9035790000.0 9048340000.0 9035780000.0 18576200000.0 9035790000.0 29946100000.0 9035810000.0 31241600000.0 9035840000.0 29551200000.0 9035880000.0 25578800000.0 12179200000.0 27544300000.0 26286500000.0 37303900000.0 41365200000.0 52339200000.0 66572700000.0 80048800000.0 91889200000.0 66737400000.0 39403000000.0 27429700000.0 26652900000.0 33083100000.0 35056100000.0 34986300000.0 34244500000.0 26469200000.0 37736700000.0 34769400000.0 23670100000.0 26070200000.0 11279300000.0 24719000000.0 9035890000.0 27412400000.0 9035840000.0 28473500000.0 9035810000.0 26831200000.0 9035790000.0 16362000000.0 9035780000.0 9039140000.0 9035790000.0 9035780000.0 9035770000.0 9035770000.0 9035760000.0 9035760000.0 9035760000.0 9035750000.0 9035750000.0 9066880000.0 9035750000.0 9035750000.0 9035760000.0 9035760000.0 9035760000.0 9035770000.0 9035770000.0 9035780000.0 9035790000.0 9039140000.0 9035780000.0 16362000000.0 9035790000.0 26831200000.0 9035810000.0 28473500000.0 9035840000.0 27412400000.0 9035890000.0 24719000000.0 11279300000.0 26070200000.0 23670100000.0 34769400000.0 37736700000.0 26469200000.0 33723600000.0 34420800000.0 34497100000.0 31212400000.0 27888500000.0 37481000000.0 64160100000.0 85523800000.0 73851900000.0 60842800000.0 48434400000.0 48434400000.0 60842800000.0 73851900000.0 85523800000.0 64160100000.0 37481000000.0 27888500000.0 31212400000.0 34497100000.0 34420800000.0 33723600000.0 33089300000.0 33802700000.0 33783200000.0 29674000000.0 26123700000.0 28183500000.0 36168200000.0 61637300000.0 79120000000.0 68244900000.0 55724600000.0 44951000000.0 34464700000.0 32331900000.0 21287200000.0 24730900000.0 10618700000.0 23807400000.0 9035900000.0 25420600000.0 9035850000.0 25987400000.0 9035810000.0 24096900000.0 9035790000.0 14635100000.0 9035780000.0 9036560000.0 9035780000.0 9035770000.0 9035770000.0 9035760000.0 9035760000.0 9035760000.0 9035760000.0 9035750000.0 9035750000.0 9059850000.0 9035750000.0 9035750000.0 9035760000.0 9035760000.0 9035760000.0 9035760000.0 9035770000.0 9035770000.0 9035780000.0 9036560000.0 9035780000.0 14635100000.0 9035790000.0 24096900000.0 9035810000.0 25987400000.0 9035850000.0 25420600000.0 9035900000.0 23807400000.0 10618700000.0 24730900000.0 21287200000.0 32331900000.0 34464700000.0 44951000000.0 55724600000.0 68244900000.0 79120000000.0 61637300000.0 36168200000.0 28183500000.0 26123700000.0 29674000000.0 33783200000.0 33802700000.0 33089300000.0 32365600000.0 33147900000.0 32962100000.0 28367900000.0 25642600000.0 28324400000.0 35237500000.0 59096700000.0 72851200000.0 63138500000.0 51112400000.0 41791000000.0 31473700000.0 30037200000.0 19166800000.0 23510200000.0 10142000000.0 22861600000.0 9035900000.0 23584500000.0 9035850000.0 23767200000.0 9035810000.0 21713900000.0 9035790000.0 13297400000.0 9035780000.0 9035940000.0 9035780000.0 9035770000.0 9035770000.0 9035760000.0 9035760000.0 9035760000.0 9035760000.0 9035750000.0 9035750000.0 9054380000.0 9035750000.0 9035750000.0 9035760000.0 9035760000.0 9035760000.0 9035760000.0 9035770000.0 9035770000.0 9035780000.0 9035940000.0 9035780000.0 13297400000.0 9035790000.0 21713900000.0 9035810000.0 23767200000.0 9035850000.0 23584500000.0 9035900000.0 22861600000.0 10142000000.0 23510200000.0 19166800000.0 30037200000.0 31473700000.0 41791000000.0 51112400000.0 63138500000.0 72851200000.0 59096700000.0 35237500000.0 28324400000.0 25642600000.0 28367900000.0 32962100000.0 33147900000.0 32365600000.0 31573200000.0 32462600000.0 32070900000.0 27216900000.0 25050100000.0 28321200000.0 34517100000.0 56503200000.0 66840300000.0 58464900000.0 46925900000.0 38886600000.0 28722800000.0 27913200000.0 17317900000.0 22392100000.0 9802480000.0 21898400000.0 9035910000.0 21906900000.0 9035850000.0 21793600000.0 9035820000.0 19651900000.0 9035790000.0 12267400000.0 9035780000.0 9035810000.0 9035780000.0 9035770000.0 9035770000.0 9035760000.0 9035760000.0 9035760000.0 9035760000.0 9035750000.0 9035750000.0 9050120000.0 9035750000.0 9035750000.0 9035760000.0 9035760000.0 9035760000.0 9035760000.0 9035770000.0 9035770000.0 9035780000.0 9035810000.0 9035780000.0 12267400000.0 9035790000.0 19651900000.0 9035820000.0 21793600000.0 9035850000.0 21906900000.0 9035910000.0 21898400000.0 9802480000.0 22392100000.0 17317900000.0 27913200000.0 28722800000.0 38886600000.0 46925900000.0 58464900000.0 66840300000.0 56503200000.0 34517100000.0 28321200000.0 25050100000.0 27216900000.0 32070900000.0 32462600000.0 31573200000.0 30729500000.0 31747600000.0 31136600000.0 26166300000.0 24369300000.0 28184700000.0 33883400000.0 53849800000.0 61169200000.0 54172500000.0 43106600000.0 36195500000.0 26196400000.0 25973200000.0 15734300000.0 21362200000.0 9563120000.0 20933300000.0 9035910000.0 20385700000.0 9035850000.0 20045800000.0 9035820000.0 17880200000.0 9035790000.0 11478000000.0 9035780000.0 9035780000.0 9035770000.0 9035770000.0 9035760000.0 9035760000.0 9035760000.0 9035760000.0 9035760000.0 9035750000.0 9035750000.0 9046820000.0 9035750000.0 9035750000.0 9035760000.0 9035760000.0 9035760000.0 9035760000.0 9035760000.0 9035770000.0 9035770000.0 9035780000.0 9035780000.0 11478000000.0 9035790000.0 17880200000.0 9035820000.0 20045800000.0 9035850000.0 20385700000.0 9035910000.0 20933300000.0 9563120000.0 21362200000.0 15734300000.0 25973200000.0 26196400000.0 36195500000.0 43106600000.0 54172500000.0 61169200000.0 53849800000.0 33883400000.0 28184700000.0 24369300000.0 26166300000.0 31136600000.0 31747600000.0 30729500000.0 29847900000.0 31000600000.0 30177400000.0 25180200000.0 23622400000.0 27925800000.0 33252700000.0 51148900000.0 55886600000.0 50221800000.0 39612700000.0 33694200000.0 23893300000.0 24219000000.0 14399400000.0 20408000000.0 9395530000.0 19979800000.0 9035910000.0 19014800000.0 9035850000.0 18503800000.0 9035820000.0 16368000000.0 9035790000.0 10875300000.0 9035780000.0 9035780000.0 9035770000.0 9035770000.0 9035760000.0 9035760000.0 9035760000.0 9035760000.0 9035750000.0 9035750000.0 9035750000.0 9044260000.0 9035750000.0 9035750000.0 9035750000.0 9035760000.0 9035760000.0 9035760000.0 9035760000.0 9035770000.0 9035770000.0 9035780000.0 9035780000.0 10875300000.0 9035790000.0 16368000000.0 9035820000.0 18503800000.0 9035850000.0 19014800000.0 9035910000.0 19979800000.0 9395530000.0 20408000000.0 14399400000.0 24219000000.0 23893300000.0 33694200000.0 39612700000.0 50221800000.0 55886600000.0 51148900000.0 33252700000.0 27925800000.0 23622400000.0 25180200000.0 30177400000.0 31000600000.0 29847900000.0 28938700000.0 30218700000.0 29204800000.0 24236700000.0 22829800000.0 27555500000.0 32573700000.0 48423800000.0 51015300000.0 46582200000.0 36414600000.0 31371100000.0 21815600000.0 22644100000.0 13290200000.0 19519200000.0 9278810000.0 19049700000.0 9035910000.0 17785600000.0 9035850000.0 17147800000.0 9035820000.0 15085600000.0 9035790000.0 10416500000.0 9035780000.0 9035780000.0 9035770000.0 9035770000.0 9035760000.0 9035760000.0 9035760000.0 9035760000.0 9035750000.0 9035750000.0 9035750000.0 9042270000.0 9035750000.0 9035750000.0 9035750000.0 9035760000.0 9035760000.0 9035760000.0 9035760000.0 9035770000.0 9035770000.0 9035780000.0 9035780000.0 10416500000.0 9035790000.0 15085600000.0 9035820000.0 17147800000.0 9035850000.0 17785600000.0 9035910000.0 19049700000.0 9278810000.0 19519200000.0 13290200000.0 22644100000.0 21815600000.0 31371100000.0 36414600000.0 46582200000.0 51015300000.0 48423800000.0 32573700000.0 27555500000.0 22829800000.0 24236700000.0 29204800000.0 30218700000.0 28938700000.0 28009300000.0 29399200000.0 28225400000.0 23323500000.0 22009400000.0 27084500000.0 31818700000.0 45703200000.0 46559000000.0 43228700000.0 33490200000.0 29220900000.0 19962100000.0 21236800000.0 12380300000.0 18687700000.0 9197890000.0 18152500000.0 9035910000.0 16688000000.0 9035850000.0 15959700000.0 9035820000.0 14004400000.0 9035790000.0 10068400000.0 9035780000.0 9035780000.0 9035770000.0 9035770000.0 9035760000.0 9035760000.0 9035760000.0 9035760000.0 9035750000.0 9035750000.0 9035750000.0 9040740000.0 9035750000.0 9035750000.0 9035750000.0 9035760000.0 9035760000.0 9035760000.0 9035760000.0 9035770000.0 9035770000.0 9035780000.0 9035780000.0 10068400000.0 9035790000.0 14004400000.0 9035820000.0 15959700000.0 9035850000.0 16688000000.0 9035910000.0 18152500000.0 9197890000.0 18687700000.0 12380300000.0 21236800000.0 19962100000.0 29220900000.0 33490200000.0 43228700000.0 46559000000.0 45703200000.0 31818700000.0 27084500000.0 22009400000.0 23323500000.0 28225400000.0 29399200000.0 28009300000.0 27065000000.0 28540500000.0 27242700000.0 22434800000.0 21176300000.0 26523600000.0 30977400000.0 43016000000.0 42507300000.0 40139200000.0 30822200000.0 27239600000.0 18326400000.0 19981900000.0 11642600000.0 17907000000.0 9142130000.0 17295600000.0 9035910000.0 15711200000.0 9035850000.0 14922300000.0 9035820000.0 13098000000.0 9035790000.0 9804820000.0 9035780000.0 9035770000.0 9035770000.0 9035770000.0 9035760000.0 9035760000.0 9035760000.0 9035760000.0 9035750000.0 9035750000.0 9035750000.0 9039550000.0 9035750000.0 9035750000.0 9035750000.0 9035760000.0 9035760000.0 9035760000.0 9035760000.0 9035770000.0 9035770000.0 9035770000.0 9035780000.0 9804820000.0 9035790000.0 13098000000.0 9035820000.0 14922300000.0 9035850000.0 15711200000.0 9035910000.0 17295600000.0 9142130000.0 17907000000.0 11642600000.0 19981900000.0 18326400000.0 27239600000.0 30822200000.0 40139200000.0 42507300000.0 43016000000.0 30977400000.0 26523600000.0 21176300000.0 22434800000.0 27242700000.0 28540500000.0 27065000000.0 26109700000.0 27642800000.0 26258200000.0 21568100000.0 20342600000.0 25882800000.0 30050300000.0 40388000000.0 38839900000.0 37293000000.0 28395600000.0 25421700000.0 16896600000.0 18862800000.0 11050700000.0 17172300000.0 9104090000.0 16484300000.0 9035910000.0 14844300000.0 9035850000.0 14019800000.0 9035810000.0 12342000000.0 9035790000.0 9605920000.0 9035780000.0 9035770000.0 9035770000.0 9035770000.0 9035760000.0 9035760000.0 9035760000.0 9035760000.0 9035750000.0 9035750000.0 9035750000.0 9038640000.0 9035750000.0 9035750000.0 9035750000.0 9035760000.0 9035760000.0 9035760000.0 9035760000.0 9035770000.0 9035770000.0 9035770000.0 9035780000.0 9605920000.0 9035790000.0 12342000000.0 9035810000.0 14019800000.0 9035850000.0 14844300000.0 9035910000.0 16484300000.0 9104090000.0 17172300000.0 11050700000.0 18862800000.0 16896600000.0 25421700000.0 28395600000.0 37293000000.0 38839900000.0 40388000000.0 30050300000.0 25882800000.0 20342600000.0 21568100000.0 26258200000.0 27642800000.0 26109700000.0 25146600000.0 26707400000.0 25272300000.0 20722600000.0 19517700000.0 25171800000.0 29045000000.0 37840600000.0 35530600000.0 34670500000.0 26195700000.0 23759300000.0 15657200000.0 17862900000.0 10580400000.0 16479500000.0 9078530000.0 15722400000.0 9035910000.0 14076800000.0 9035850000.0 13237800000.0 9035810000.0 11714700000.0 9035790000.0 9456320000.0 9035780000.0 9035770000.0 9035770000.0 9035770000.0 9035760000.0 9035760000.0 9035760000.0 9035760000.0 9035750000.0 9035750000.0 9035750000.0 9037940000.0 9035750000.0 9035750000.0 9035750000.0 9035760000.0 9035760000.0 9035760000.0 9035760000.0 9035770000.0 9035770000.0 9035770000.0 9035780000.0 9456320000.0 9035790000.0 11714700000.0 9035810000.0 13237800000.0 9035850000.0 14076800000.0 9035910000.0 15722400000.0 9078530000.0 16479500000.0 10580400000.0 17862900000.0 15657200000.0 23759300000.0 26195700000.0 34670500000.0 35530600000.0 37840600000.0 29045000000.0 25171800000.0 19517700000.0 20722600000.0 25272300000.0 26707400000.0 25146600000.0 24177900000.0 25737300000.0 24285100000.0 19898000000.0 18708800000.0 24399600000.0 27972300000.0 35389300000.0 32549400000.0 32252200000.0 24207100000.0 22242000000.0 14590200000.0 16966200000.0 10210200000.0 15825600000.0 9061750000.0 15011600000.0 9035900000.0 13398600000.0 9035850000.0 12562700000.0 9035810000.0 11196600000.0 9035790000.0 9344260000.0 9035780000.0 9035770000.0 9035770000.0 9035760000.0 9035760000.0 9035760000.0 9035760000.0 9035760000.0 9035750000.0 9035750000.0 9035750000.0 9037410000.0 9035750000.0 9035750000.0 9035750000.0 9035760000.0 9035760000.0 9035760000.0 9035760000.0 9035760000.0 9035770000.0 9035770000.0 9035780000.0 9344260000.0 9035790000.0 11196600000.0 9035810000.0 12562700000.0 9035850000.0 13398600000.0 9035900000.0 15011600000.0 9061750000.0 15825600000.0 10210200000.0 16966200000.0 14590200000.0 22242000000.0 24207100000.0 32252200000.0 32549400000.0 35389300000.0 27972300000.0 24399600000.0 18708800000.0 19898000000.0 24285100000.0 25737300000.0 24177900000.0 23205200000.0 24736200000.0 23296600000.0 19093700000.0 17920800000.0 23574400000.0 26844200000.0 33044200000.0 29865400000.0 30018900000.0 22413600000.0 20858000000.0 13677100000.0 16158000000.0 9921170000.0 15207800000.0 9051050000.0 14352500000.0 9035900000.0 12800400000.0 9035840000.0 11982500000.0 9035810000.0 10770700000.0 9035790000.0 9260690000.0 9035780000.0 9035770000.0 9035770000.0 9035760000.0 9035760000.0 9035760000.0 9035760000.0 9035760000.0 9035750000.0 9035750000.0 9035750000.0 9037000000.0 9035750000.0 9035750000.0 9035750000.0 9035760000.0 9035760000.0 9035760000.0 9035760000.0 9035760000.0 9035770000.0 9035770000.0 9035780000.0 9260690000.0 9035790000.0 10770700000.0 9035810000.0 11982500000.0 9035840000.0 12800400000.0 9035900000.0 14352500000.0 9051050000.0 15207800000.0 9921170000.0 16158000000.0 13677100000.0 20858000000.0 22413600000.0 30018900000.0 29865400000.0 33044200000.0 26844200000.0 23574400000.0 17920800000.0 19093700000.0 23296600000.0 24736200000.0 23205200000.0 22229800000.0 23708300000.0 22307000000.0 18309100000.0 17157000000.0 22704000000.0 25672400000.0 30810400000.0 27447700000.0 27952100000.0 20798400000.0 19594500000.0 12899500000.0 15425200000.0 9697470000.0 14623900000.0 9044450000.0 13744300000.0 9035890000.0 12273500000.0 9035840000.0 11485900000.0 9035810000.0 10422200000.0 9035790000.0 9198700000.0 9035780000.0 9035770000.0 9035770000.0 9035760000.0 9035760000.0 9035760000.0 9035760000.0 9035760000.0 9035750000.0 9035750000.0 9035750000.0 9036680000.0 9035750000.0 9035750000.0 9035750000.0 9035760000.0 9035760000.0 9035760000.0 9035760000.0 9035760000.0 9035770000.0 9035770000.0 9035780000.0 9198700000.0 9035790000.0 10422200000.0 9035810000.0 11485900000.0 9035840000.0 12273500000.0 9035890000.0 13744300000.0 9044450000.0 14623900000.0 9697470000.0 15425200000.0 12899500000.0 19594500000.0 20798400000.0 27952100000.0 27447700000.0 30810400000.0 25672400000.0 22704000000.0 17157000000.0 18309100000.0 22307000000.0 23708300000.0 22229800000.0 21252600000.0 22658500000.0 21316500000.0 17543200000.0 16419400000.0 21795200000.0 24467700000.0 28689100000.0 25266800000.0 26033600000.0 19344600000.0 18438700000.0 12239800000.0 14756400000.0 9525780000.0 14071900000.0 9040540000.0 13185500000.0 9035880000.0 11810100000.0 9035830000.0 11062800000.0 9035800000.0 10138400000.0 9035790000.0 9152980000.0 9035770000.0 9035770000.0 9035770000.0 9035760000.0 9035760000.0 9035760000.0 9035760000.0 9035760000.0 9035750000.0 9035750000.0 9035750000.0 9036450000.0 9035750000.0 9035750000.0 9035750000.0 9035760000.0 9035760000.0 9035760000.0 9035760000.0 9035760000.0 9035770000.0 9035770000.0 9035770000.0 9152980000.0 9035790000.0 10138400000.0 9035800000.0 11062800000.0 9035830000.0 11810100000.0 9035880000.0 13185500000.0 9040540000.0 14071900000.0 9525780000.0 14756400000.0 12239800000.0 18438700000.0 19344600000.0 26033600000.0 25266800000.0 28689100000.0 24467700000.0 21795200000.0 16419400000.0 17543200000.0 21316500000.0 22658500000.0 21252600000.0 20274200000.0 21591000000.0 20325500000.0 16794700000.0 15708600000.0 20854300000.0 23239600000.0 26678000000.0 23294900000.0 24246400000.0 18035600000.0 17378400000.0 11682000000.0 14141700000.0 9395160000.0 13549900000.0 9038310000.0 12673700000.0 9035870000.0 11403000000.0 9035830000.0 10703800000.0 9035800000.0 9908150000.0 9035780000.0 9119470000.0 9035770000.0 9035770000.0 9035770000.0 9035760000.0 9035760000.0 9035760000.0 9035760000.0 9035760000.0 9035750000.0 9035750000.0 9035750000.0 9036270000.0 9035750000.0 9035750000.0 9035750000.0 9035760000.0 9035760000.0 9035760000.0 9035760000.0 9035760000.0 9035770000.0 9035770000.0 9035770000.0 9119470000.0 9035780000.0 9908150000.0 9035800000.0 10703800000.0 9035830000.0 11403000000.0 9035870000.0 12673700000.0 9038310000.0 13549900000.0 9395160000.0 14141700000.0 11682000000.0 17378400000.0 18035600000.0 24246400000.0 23294900000.0 26678000000.0 23239600000.0 20854300000.0 15708600000.0 16794700000.0 20325500000.0 21591000000.0 20274200000.0 19294900000.0 20510300000.0 19334400000.0 16062500000.0 15024500000.0 19886600000.0 21996100000.0 24772300000.0 21506800000.0 22574800000.0 16855400000.0 16401900000.0 11211600000.0 13572700000.0 9296680000.0 13055800000.0 9037100000.0 12205900000.0 9035870000.0 11045700000.0 9035820000.0 10400500000.0 9035800000.0 9722300000.0 9035780000.0 9095070000.0 9035770000.0 9035770000.0 9035760000.0 9035760000.0 9035760000.0 9035760000.0 9035760000.0 9035760000.0 9035750000.0 9035750000.0 9035750000.0 9036130000.0 9035750000.0 9035750000.0 9035750000.0 9035760000.0 9035760000.0 9035760000.0 9035760000.0 9035760000.0 9035760000.0 9035770000.0 9035770000.0 9095070000.0 9035780000.0 9722300000.0 9035800000.0 10400500000.0 9035820000.0 11045700000.0 9035870000.0 12205900000.0 9037100000.0 13055800000.0 9296680000.0 13572700000.0 11211600000.0 16401900000.0 16855400000.0 22574800000.0 21506800000.0 24772300000.0 21996100000.0 19886600000.0 15024500000.0 16062500000.0 19334400000.0 20510300000.0 19294900000.0 18315000000.0 19420100000.0 18343900000.0 15345000000.0 14366100000.0 18897000000.0 20744000000.0 22965200000.0 19879000000.0 21004200000.0 15789400000.0 15498700000.0 10815500000.0 13042100000.0 9223160000.0 12587900000.0 9036470000.0 11778900000.0 9035860000.0 10732200000.0 9035820000.0 10145400000.0 9035790000.0 9572900000.0 9035780000.0 9077440000.0 9035770000.0 9035770000.0 9035760000.0 9035760000.0 9035760000.0 9035760000.0 9035760000.0 9035760000.0 9035750000.0 9035750000.0 9035750000.0 9036030000.0 9035750000.0 9035750000.0 9035750000.0 9035760000.0 9035760000.0 9035760000.0 9035760000.0 9035760000.0 9035760000.0 9035770000.0 9035770000.0 9077440000.0 9035780000.0 9572900000.0 9035790000.0 10145400000.0 9035820000.0 10732200000.0 9035860000.0 11778900000.0 9036470000.0 12587900000.0 9223160000.0 13042100000.0 10815500000.0 15498700000.0 15789400000.0 21004200000.0 19879000000.0 22965200000.0 20744000000.0 18897000000.0 14366100000.0 15345000000.0 18343900000.0 19420100000.0 18315000000.0 17334700000.0 18323800000.0 17354200000.0 14641100000.0 13732300000.0 17889700000.0 19488500000.0 21248800000.0 18390500000.0 19521500000.0 14823400000.0 14659000000.0 10482400000.0 12543900000.0 9168820000.0 12144000000.0 9036150000.0 11389000000.0 9035850000.0 10457000000.0 9035810000.0 9931420000.0 9035790000.0 9453270000.0 9035780000.0 9064790000.0 9035770000.0 9035770000.0 9035760000.0 9035760000.0 9035760000.0 9035760000.0 9035760000.0 9035750000.0 9035750000.0 9035750000.0 9035750000.0 9035960000.0 9035750000.0 9035750000.0 9035750000.0 9035750000.0 9035760000.0 9035760000.0 9035760000.0 9035760000.0 9035760000.0 9035770000.0 9035770000.0 9064790000.0 9035780000.0 9453270000.0 9035790000.0 9931420000.0 9035810000.0 10457000000.0 9035850000.0 11389000000.0 9036150000.0 12144000000.0 9168820000.0 12543900000.0 10482400000.0 14659000000.0 14823400000.0 19521500000.0 18390500000.0 21248800000.0 19488500000.0 17889700000.0 13732300000.0 14641100000.0 17354200000.0 18323800000.0 17334700000.0 16354000000.0 17223800000.0 16365600000.0 13949300000.0 13121000000.0 16868200000.0 18233800000.0 19613900000.0 17022000000.0 18114600000.0 13944700000.0 13874100000.0 10202200000.0 12072800000.0 9129090000.0 11722200000.0 9035990000.0 11032500000.0 9035840000.0 10215200000.0 9035810000.0 9752370000.0 9035790000.0 9357790000.0 9035770000.0 9055790000.0 9035770000.0 9035760000.0 9035760000.0 9035760000.0 9035760000.0 9035760000.0 9035760000.0 9035750000.0 9035750000.0 9035750000.0 9035750000.0 9035900000.0 9035750000.0 9035750000.0 9035750000.0 9035750000.0 9035760000.0 9035760000.0 9035760000.0 9035760000.0 9035760000.0 9035760000.0 9035770000.0 9055790000.0 9035770000.0 9357790000.0 9035790000.0 9752370000.0 9035810000.0 10215200000.0 9035840000.0 11032500000.0 9035990000.0 11722200000.0 9129090000.0 12072800000.0 10202200000.0 13874100000.0 13944700000.0 18114600000.0 17022000000.0 19613900000.0 18233800000.0 16868200000.0 13121000000.0 13949300000.0 16365600000.0 17223800000.0 16354000000.0 15373000000.0 16122500000.0 15378400000.0 13268300000.0 12530300000.0 15835400000.0 16982600000.0 18051300000.0 15755900000.0 16772600000.0 13141000000.0 13136000000.0 9965890000.0 11624200000.0 9100360000.0 11320200000.0 9035920000.0 10705500000.0 9035830000.0 10002000000.0 9035800000.0 9602620000.0 9035780000.0 9281710000.0 9035770000.0 9049430000.0 9035760000.0 9035760000.0 9035760000.0 9035760000.0 9035760000.0 9035760000.0 9035760000.0 9035750000.0 9035750000.0 9035750000.0 9035750000.0 9035860000.0 9035750000.0 9035750000.0 9035750000.0 9035750000.0 9035760000.0 9035760000.0 9035760000.0 9035760000.0 9035760000.0 9035760000.0 9035760000.0 9049430000.0 9035770000.0 9281710000.0 9035780000.0 9602620000.0 9035800000.0 10002000000.0 9035830000.0 10705500000.0 9035920000.0 11320200000.0 9100360000.0 11624200000.0 9965890000.0 13136000000.0 13141000000.0 16772600000.0 15755900000.0 18051300000.0 16982600000.0 15835400000.0 12530300000.0 13268300000.0 15378400000.0 16122500000.0 15373000000.0 14391700000.0 15021100000.0 14392600000.0 12596700000.0 11957600000.0 14794000000.0 15736800000.0 16550900000.0 14575900000.0 15485300000.0 12401100000.0 12437200000.0 9765770000.0 11194100000.0 9079790000.0 10935800000.0 9035870000.0 10404000000.0 9035820000.0 9813000000.0 9035790000.0 9477090000.0 9035780000.0 9221060000.0 9035770000.0 9044970000.0 9035760000.0 9035760000.0 9035760000.0 9035760000.0 9035760000.0 9035760000.0 9035750000.0 9035750000.0 9035750000.0 9035750000.0 9035750000.0 9035830000.0 9035750000.0 9035750000.0 9035750000.0 9035750000.0 9035750000.0 9035760000.0 9035760000.0 9035760000.0 9035760000.0 9035760000.0 9035760000.0 9044970000.0 9035770000.0 9221060000.0 9035780000.0 9477090000.0 9035790000.0 9813000000.0 9035820000.0 10404000000.0 9035870000.0 10935800000.0 9079790000.0 11194100000.0 9765770000.0 12437200000.0 12401100000.0 15485300000.0 14575900000.0 16550900000.0 15736800000.0 14794000000.0 11957600000.0 12596700000.0 14392600000.0 15021100000.0 14391700000.0 13410100000.0 13920800000.0 13408200000.0 11933000000.0 11400500000.0 13745900000.0 14497100000.0 15103000000.0 13467100000.0 14243300000.0 11714100000.0 11771000000.0 9594850000.0 10779100000.0 9065200000.0 10566500000.0 9035850000.0 10124200000.0 9035810000.0 9644090000.0 9035790000.0 9371200000.0 9035770000.0 9172470000.0 9035770000.0 9041870000.0 9035760000.0 9035760000.0 9035760000.0 9035760000.0 9035760000.0 9035760000.0 9035750000.0 9035750000.0 9035750000.0 9035750000.0 9035750000.0 9035810000.0 9035750000.0 9035750000.0 9035750000.0 9035750000.0 9035750000.0 9035760000.0 9035760000.0 9035760000.0 9035760000.0 9035760000.0 9035760000.0 9041870000.0 9035770000.0 9172470000.0 9035770000.0 9371200000.0 9035790000.0 9644090000.0 9035810000.0 10124200000.0 9035850000.0 10566500000.0 9065200000.0 10779100000.0 9594850000.0 11771000000.0 11714100000.0 14243300000.0 13467100000.0 15103000000.0 14497100000.0 13745900000.0 11400500000.0 11933000000.0 13408200000.0 13920800000.0 13410100000.0 12428300000.0 12821800000.0 12425100000.0 11275800000.0 10856300000.0 12692900000.0 13263500000.0 13697800000.0 12415300000.0 13037600000.0 11069800000.0 11130800000.0 9446880000.0 10376000000.0 9054880000.0 10209800000.0 9035820000.0 9861870000.0 9035790000.0 9491320000.0 9035780000.0 9280760000.0 9035770000.0 9133080000.0 9035760000.0 9039700000.0 9035760000.0 9035760000.0 9035760000.0 9035760000.0 9035760000.0 9035750000.0 9035750000.0 9035750000.0 9035750000.0 9035750000.0 9035750000.0 9035790000.0 9035750000.0 9035750000.0 9035750000.0 9035750000.0 9035750000.0 9035750000.0 9035760000.0 9035760000.0 9035760000.0 9035760000.0 9035760000.0 9039700000.0 9035760000.0 9133080000.0 9035770000.0 9280760000.0 9035780000.0 9491320000.0 9035790000.0 9861870000.0 9035820000.0 10209800000.0 9054880000.0 10376000000.0 9446880000.0 11130800000.0 11069800000.0 13037600000.0 12415300000.0 13697800000.0 13263500000.0 12692900000.0 10856300000.0 11275800000.0 12425100000.0 12821800000.0 12428300000.0 11446200000.0 11724400000.0 11443000000.0 10623700000.0 10322100000.0 11636300000.0 12035300000.0 12325300000.0 11407000000.0 11859800000.0 10458300000.0 10510500000.0 9316170000.0 9981870000.0 9047510000.0 9862920000.0 9035800000.0 9613210000.0 9035780000.0 9350920000.0 9035770000.0 9201950000.0 9035760000.0 9100440000.0 9035760000.0 9038170000.0 9035760000.0 9035760000.0 9035760000.0 9035760000.0 9035750000.0 9035750000.0 9035750000.0 9035750000.0 9035750000.0 9035750000.0 9035750000.0 9035780000.0 9035750000.0 9035750000.0 9035750000.0 9035750000.0 9035750000.0 9035750000.0 9035750000.0 9035760000.0 9035760000.0 9035760000.0 9035760000.0 9038170000.0 9035760000.0 9100440000.0 9035760000.0 9201950000.0 9035770000.0 9350920000.0 9035780000.0 9613210000.0 9035800000.0 9862920000.0 9047510000.0 9981870000.0 9316170000.0 10510500000.0 10458300000.0 11859800000.0 11407000000.0 12325300000.0 12035300000.0 11636300000.0 10322100000.0 10623700000.0 11443000000.0 11724400000.0 11446200000.0 10464000000.0 10628200000.0 10461700000.0 9975200000.0 9795180000.0 10577400000.0 10811300000.0 10976000000.0 10429200000.0 10701600000.0 9869880000.0 9904240000.0 9197430000.0 9593970000.0 9042040000.0 9523130000.0 9035780000.0 9374230000.0 9035770000.0 9219210000.0 9035760000.0 9131210000.0 9035760000.0 9072390000.0 9035760000.0 9037040000.0 9035760000.0 9035760000.0 9035750000.0 9035750000.0 9035750000.0 9035750000.0 9035750000.0 9035750000.0 9035750000.0 9035750000.0 9035750000.0 9035770000.0 9035750000.0 9035750000.0 9035750000.0 9035750000.0 9035750000.0 9035750000.0 9035750000.0 9035750000.0 9035750000.0 9035760000.0 9035760000.0 9037040000.0 9035760000.0 9072390000.0 9035760000.0 9131210000.0 9035760000.0 9219210000.0 9035770000.0 9374230000.0 9035780000.0 9523130000.0 9042040000.0 9593970000.0 9197430000.0 9904240000.0 9869880000.0 10701600000.0 10429200000.0 10976000000.0 10811300000.0 10577400000.0 9795180000.0 9975200000.0 10461700000.0 10628200000.0 10464000000.0 9481570000.0 9532760000.0 9480820000.0 9328820000.0 9272470000.0 9517070000.0 9589770000.0 9640340000.0 9469310000.0 9554850000.0 9295060000.0 9306200000.0 9085670000.0 9209710000.0 9037630000.0 9187560000.0 9035760000.0 9140960000.0 9035760000.0 9092620000.0 9035760000.0 9065180000.0 9035760000.0 9046980000.0 9035750000.0 9036140000.0 9035750000.0 9035750000.0 9035750000.0 9035750000.0 9035750000.0 9035750000.0 9035750000.0 9035750000.0 9035750000.0 9035750000.0 9035750000.0 9035760000.0 9035750000.0 9035750000.0 9035750000.0 9035750000.0 9035750000.0 9035750000.0 9035750000.0 9035750000.0 9035750000.0 9035750000.0 9035750000.0 9036140000.0 9035750000.0 9046980000.0 9035760000.0 9065180000.0 9035760000.0 9092620000.0 9035760000.0 9140960000.0 9035760000.0 9187560000.0 9037630000.0 9209710000.0 9085670000.0 9306200000.0 9295060000.0 9554850000.0 9469310000.0 9640340000.0 9589770000.0 9517070000.0 9272470000.0 9328820000.0 9480820000.0 9532760000.0 9481570000.0 