# vtk DataFile Version 2.0
Time step 73
ASCII
DATASET UNSTRUCTURED_GRID
POINTS 4650 float
209022.0 335520.0 0
290632.0 336195.0 0
205637.0 337618.0 0
211869.0 338287.0 0
215256.0 336198.0 0
218736.0 338117.0 0
222688.0 337870.0 0
235975.0 337857.0 0
243006.0 337738.0 0
248123.0 336166.0 0
252110.0 336250.0 0
256965.0 338165.0 0
263543.0 338094.0 0
276636.0 338532.0 0
284002.0 336750.0 0
294168.0 338057.0 0
201998.0 339194.0 0
208506.0 340361.0 0
215329.0 340183.0 0
225952.0 340091.0 0
232530.0 340005.0 0
239500.0 339743.0 0
246453.0 339764.0 0
253426.0 339990.0 0
260287.0 340363.0 0
266865.0 340269.0 0
273256.0 340614.0 0
280595.0 338832.0 0
284077.0 340740.0 0
287496.0 338669.0 0
291006.0 340554.0 0
298000.0 339198.0 0
204901.0 341915.0 0
211952.0 342272.0 0
218776.0 342067.0 0
222673.0 342334.0 0
229224.0 342244.0 0
236079.0 341827.0 0
239566.0 343713.0 0
242982.0 341707.0 0
249887.0 341798.0 0
256768.0 342146.0 0
263598.0 342534.0 0
269936.0 342741.0 0
276741.0 342522.0 0
280677.0 342821.0 0
287544.0 342646.0 0
294706.0 342013.0 0
201992.0 344547.0 0
205329.0 346508.0 0
208579.0 344339.0 0
212046.0 346237.0 0
215401.0 344145.0 0
218871.0 345963.0 0
225931.0 344500.0 0
229439.0 346205.0 0
232737.0 343983.0 0
236212.0 345793.0 0
243001.0 345661.0 0
246418.0 343716.0 0
249787.0 345773.0 0
253244.0 343936.0 0
256548.0 346085.0 0
260088.0 344348.0 0
266709.0 344939.0 0
273370.0 344617.0 0
284137.0 344723.0 0
291003.0 344537.0 0
294564.0 346217.0 0
298002.0 344213.0 0
201992.0 348540.0 0
208731.0 348358.0 0
215527.0 348074.0 0
222677.0 346780.0 0
226195.0 348477.0 0
232914.0 347940.0 0
239639.0 347669.0 0
246384.0 347669.0 0
253099.0 347890.0 0
259748.0 348302.0 0
263267.0 346733.0 0
266281.0 349270.0 0
269759.0 347369.0 0
273446.0 348562.0 0
276837.0 346493.0 0
280745.0 346806.0 0
284185.0 348698.0 0
287590.0 346616.0 0
291035.0 348505.0 0
298003.0 348172.0 0
205378.0 350477.0 0
212184.0 350185.0 0
219061.0 349822.0 0
223000.0 350758.0 0
229686.0 350157.0 0
236333.0 349747.0 0
243022.0 349601.0 0
249713.0 349733.0 0
256342.0 350045.0 0
262447.0 351048.0 0
269377.0 351739.0 0
276848.0 350435.0 0
280782.0 350792.0 0
287634.0 350576.0 0
294572.0 350171.0 0
201994.0 352514.0 0
208816.0 352292.0 0
212309.0 354076.0 0
215692.0 351961.0 0
220161.0 353448.0 0
226607.0 352483.0 0
233092.0 351893.0 0
236443.0 353697.0 0
239703.0 351612.0 0
243047.0 353514.0 0
246367.0 351608.0 0
249668.0 353679.0 0
252990.0 351850.0 0
258804.0 353004.0 0
265651.0 353187.0 0
273257.0 352483.0 0
278384.0 353978.0 0
284249.0 352651.0 0
291053.0 352472.0 0
294584.0 354076.0 0
298005.0 352095.0 0
201999.0 356478.0 0
205410.0 354436.0 0
208907.0 356163.0 0
216917.0 355573.0 0
223727.0 355032.0 0
230481.0 354708.0 0
233966.0 356608.0 0
239767.0 355541.0 0
246371.0 355522.0 0
251783.0 356877.0 0
255275.0 354949.0 0
258570.0 356959.0 0
262103.0 355010.0 0
268597.0 355629.0 0
275021.0 355940.0 0
281809.0 355720.0 0
287666.0 354537.0 0
291036.0 356452.0 0
298007.0 355985.0 0
205549.0 358385.0 0
213604.0 357657.0 0
217347.0 359333.0 0
220532.0 357241.0 0
224043.0 358939.0 0
227239.0 356774.0 0
230701.0 358642.0 0
237422.0 358516.0 0
243096.0 357374.0 0
248291.0 358800.0 0
255074.0 358898.0 0
261607.0 359286.0 0
265077.0 357439.0 0
271673.0 357830.0 0
278343.0 357952.0 0
285214.0 357606.0 0
288596.0 359566.0 0
294596.0 357919.0 0
201995.0 360404.0 0
210210.0 359705.0 0
214221.0 361371.0 0
220856.0 361077.0 0
227484.0 360721.0 0
234136.0 360517.0 0
240874.0 360416.0 0
244817.0 360752.0 0
251583.0 360801.0 0
258163.0 361131.0 0
264748.0 361421.0 0
268211.0 359605.0 0
271387.0 361734.0 0
274895.0 359889.0 0
278114.0 361937.0 0
281797.0 359629.0 0
285133.0 361549.0 0
294665.0 361680.0 0
298011.0 359846.0 0
201993.0 364359.0 0
205386.0 362310.0 0
211134.0 363326.0 0
217692.0 363154.0 0
224292.0 362840.0 0
230894.0 362561.0 0
234288.0 364407.0 0
237554.0 362385.0 0
240965.0 364219.0 0
244708.0 364647.0 0
248120.0 362700.0 0
251308.0 364763.0 0
254725.0 362942.0 0
261285.0 363264.0 0
267899.0 363546.0 0
274561.0 363794.0 0
281582.0 363516.0 0
287641.0 364419.0 0
291010.0 362624.0 0
298012.0 363712.0 0
208001.0 365093.0 0
211369.0 367100.0 0
214546.0 365177.0 0
217942.0 366997.0 0
221113.0 364941.0 0
224498.0 366732.0 0
227689.0 364638.0 0
231071.0 366462.0 0
237665.0 366236.0 0
247937.0 366640.0 0
254347.0 366993.0 0
257814.0 365112.0 0
260962.0 367209.0 0
264426.0 365372.0 0
271052.0 365640.0 0
277681.0 365853.0 0
284207.0 366179.0 0
290921.0 366544.0 0
294595.0 365414.0 0
204867.0 366946.0 0
208199.0 368944.0 0
214760.0 368979.0 0
221313.0 368809.0 0
227868.0 368531.0 0
234450.0 368289.0 0
241019.0 368008.0 0
244635.0 368604.0 0
250910.0 368941.0 0
257514.0 369060.0 0
264098.0 369302.0 0
267566.0 367469.0 0
270696.0 369546.0 0
274175.0 367706.0 0
280741.0 367937.0 0
287399.0 368255.0 0
294220.0 369030.0 0
297997.0 367536.0 0
201969.0 369096.0 0
205130.0 370920.0 0
211572.0 370880.0 0
218123.0 370836.0 0
224669.0 370607.0 0
228032.0 372394.0 0
231239.0 370338.0 0
234620.0 372144.0 0
237835.0 370100.0 0
241284.0 371807.0 0
247532.0 370976.0 0
254101.0 370950.0 0
260656.0 371145.0 0
267225.0 371380.0 0
273816.0 371605.0 0
277273.0 369769.0 0
280388.0 371799.0 0
283869.0 370003.0 0
287014.0 372023.0 0
290551.0 370359.0 0
293532.0 372667.0 0
297362.0 371183.0 0
201979.0 372994.0 0
205332.0 374726.0 0
208430.0 372774.0 0
211704.0 374668.0 0
214919.0 372781.0 0
218255.0 374669.0 0
221469.0 372667.0 0
224822.0 374459.0 0
231409.0 374181.0 0
238017.0 373922.0 0
244595.0 373537.0 0
247812.0 375429.0 0
250737.0 372905.0 0
253888.0 374910.0 0
257250.0 373008.0 0
260370.0 375092.0 0
263775.0 373231.0 0
270354.0 373434.0 0
276949.0 373636.0 0
283539.0 373784.0 0
290008.0 374141.0 0
295399.0 375676.0 0
298047.0 374532.0 0
199392.0 377687.0 0
202466.0 376790.0 0
208487.0 376586.0 0
214992.0 376561.0 0
221602.0 376509.0 0
228202.0 376222.0 0
234789.0 375975.0 0
238120.0 377788.0 0
241341.0 375697.0 0
244566.0 377518.0 0
250965.0 377394.0 0
257006.0 376967.0 0
263471.0 377173.0 0
266891.0 375278.0 0
270054.0 377274.0 0
273517.0 375458.0 0
280134.0 375588.0 0
283338.0 377560.0 0
286622.0 375813.0 0
292464.0 376672.0 0
298199.0 378224.0 0
301168.0 378006.0 0
193220.0 381530.0 0
196307.0 379599.0 0
199381.0 380961.0 0
205470.0 378650.0 0
208479.0 380454.0 0
211598.0 378405.0 0
214608.0 380202.0 0
218331.0 378475.0 0
224999.0 378277.0 0
228415.0 380017.0 0
231589.0 377998.0 0
234929.0 379820.0 0
241368.0 379635.0 0
247719.0 379417.0 0
254059.0 379401.0 0
260108.0 379056.0 0
266606.0 379153.0 0
273310.0 379218.0 0
276748.0 377431.0 0
280149.0 379298.0 0
286332.0 379684.0 0
289426.0 378063.0 0
292105.0 380521.0 0
295138.0 379303.0 0
300995.0 381113.0 0
304179.0 379903.0 0
307162.0 381772.0 0
190155.0 383449.0 0
196259.0 382922.0 0
199385.0 384141.0 0
202547.0 380747.0 0
205473.0 382574.0 0
211473.0 382249.0 0
217403.0 381988.0 0
220150.0 383552.0 0
221792.0 380312.0 0
225293.0 382063.0 0
231779.0 381817.0 0
238182.0 381693.0 0
244543.0 381526.0 0
250817.0 381387.0 0
257102.0 381422.0 0
263226.0 381144.0 0
269857.0 381040.0 0
274091.0 382709.0 0
277092.0 381053.0 0
283263.0 381381.0 0
289095.0 381984.0 0
294744.0 383004.0 0
297846.0 381834.0 0
303996.0 383189.0 0
310155.0 383645.0 0
187094.0 385363.0 0
190156.0 386845.0 0
193216.0 384906.0 0
196343.0 386277.0 0
202514.0 384743.0 0
208475.0 384339.0 0
214394.0 384077.0 0
217317.0 385851.0 0
223015.0 384797.0 0
228702.0 383815.0 0
235025.0 383703.0 0
238176.0 385637.0 0
241354.0 383604.0 0
244466.0 385549.0 0
247657.0 383496.0 0
250712.0 385540.0 0
253874.0 383427.0 0
256907.0 385515.0 0
260120.0 383423.0 0
263331.0 385145.0 0
266495.0 382975.0 0
268235.0 386170.0 0
271128.0 384391.0 0
277328.0 384750.0 0
280291.0 383091.0 0
283259.0 385269.0 0
286136.0 383603.0 0
291661.0 384442.0 0
297627.0 385399.0 0
300765.0 384369.0 0
303823.0 386493.0 0
307019.0 385118.0 0
310045.0 387025.0 0
313154.0 385519.0 0
180980.0 389183.0 0
184036.0 387274.0 0
187095.0 388769.0 0
193259.0 388294.0 0
199538.0 387449.0 0
202547.0 388620.0 0
205495.0 386445.0 0
208510.0 388191.0 0
211479.0 386152.0 0
214541.0 387986.0 0
220294.0 387374.0 0
226012.0 386098.0 0
228977.0 387780.0 0
231920.0 385690.0 0
235018.0 387636.0 0
241271.0 387598.0 0
247517.0 387588.0 0
253737.0 387612.0 0
260112.0 387343.0 0
265455.0 388096.0 0
271483.0 388130.0 0
274370.0 386379.0 0
280400.0 386891.0 0
285447.0 388007.0 0
288565.0 386162.0 0
291513.0 388279.0 0
294559.0 386734.0 0
297564.0 388998.0 0
300657.0 387755.0 0
306904.0 388488.0 0
313066.0 388911.0 0
316149.0 387390.0 0
319154.0 389268.0 0
177918.0 391096.0 0
184041.0 390680.0 0
190174.0 390262.0 0
193273.0 391718.0 0
196399.0 389654.0 0
199484.0 390966.0 0
205526.0 390263.0 0
211578.0 389978.0 0
217742.0 389759.0 0
221095.0 391445.0 0
223243.0 388566.0 0
226021.0 389982.0 0
231910.0 389648.0 0
238063.0 389606.0 0
244315.0 389616.0 0
250558.0 389637.0 0
256890.0 389476.0 0
262608.0 389962.0 0
268683.0 390003.0 0
274752.0 390069.0 0
277552.0 388455.0 0
282252.0 389863.0 0
288457.0 389994.0 0
294511.0 390449.0 0
300647.0 391233.0 0
303765.0 389884.0 0
306864.0 391905.0 0
309969.0 390425.0 0
316084.0 390786.0 0
322182.0 391159.0 0
171744.0 394952.0 0
174841.0 393018.0 0
177910.0 394461.0 0
180984.0 392574.0 0
184052.0 394119.0 0
187107.0 392206.0 0
190179.0 393723.0 0
196358.0 393133.0 0
199413.0 394554.0 0
202498.0 392373.0 0
205526.0 393994.0 0
208571.0 391973.0 0
214739.0 391759.0 0
217975.0 393495.0 0
224425.0 393286.0 0
228750.0 391685.0 0
231559.0 393529.0 0
234854.0 391596.0 0
237826.0 393573.0 0
241087.0 391598.0 0
244133.0 393607.0 0
247360.0 391633.0 0
250457.0 393608.0 0
253680.0 391585.0 0
256640.0 393703.0 0
259663.0 391813.0 0
262834.0 393795.0 0
265806.0 391911.0 0
269115.0 393774.0 0
272006.0 391899.0 0
275719.0 393537.0 0
278983.0 391693.0 0
282171.0 393595.0 0
285342.0 391783.0 0
291466.0 392045.0 0
294517.0 394119.0 0
297573.0 392610.0 0
300672.0 394755.0 0
303761.0 393337.0 0
309933.0 393867.0 0
313010.0 392331.0 0
316040.0 394215.0 0
319112.0 392652.0 0
322165.0 394519.0 0
325237.0 393066.0 0
328317.0 394990.0 0
168629.0 396898.0 0
174811.0 396362.0 0
180990.0 395987.0 0
187114.0 395686.0 0
190171.0 397240.0 0
193248.0 395212.0 0
196308.0 396680.0 0
202450.0 396056.0 0
208609.0 395677.0 0
211687.0 393720.0 0
214848.0 395480.0 0
221178.0 395249.0 0
227684.0 395225.0 0
234468.0 395488.0 0
240864.0 395561.0 0
247227.0 395600.0 0
253528.0 395615.0 0
259798.0 395687.0 0
266129.0 395675.0 0
272600.0 395503.0 0
279003.0 395422.0 0
285281.0 395532.0 0
288391.0 393753.0 0
291450.0 395744.0 0
297603.0 396213.0 0
303773.0 396842.0 0
306852.0 395372.0 0
312975.0 395798.0 0
319083.0 396057.0 0
325250.0 396407.0 0
331419.0 396928.0 0
165501.0 398853.0 0
168552.0 400225.0 0
171689.0 398284.0 0
174772.0 399716.0 0
177898.0 397839.0 0
180997.0 399418.0 0
184064.0 397595.0 0
187123.0 399218.0 0
193226.0 398767.0 0
199360.0 398166.0 0
202415.0 399706.0 0
205512.0 397661.0 0
211729.0 397418.0 0
217985.0 397258.0 0
221056.0 399077.0 0
224319.0 397103.0 0
227410.0 399014.0 0
230879.0 397197.0 0
237507.0 397463.0 0
243961.0 397559.0 0
250355.0 397577.0 0
256702.0 397603.0 0
263083.0 397580.0 0
269530.0 397460.0 0
272875.0 399261.0 0
275916.0 397311.0 0
279133.0 399228.0 0
282178.0 397357.0 0
288365.0 397471.0 0
294537.0 397756.0 0
297635.0 399819.0 0
300701.0 398310.0 0
306848.0 398897.0 0
309913.0 397364.0 0
312946.0 399319.0 0
316006.0 397683.0 0
319060.0 399480.0 0
322162.0 397889.0 0
325279.0 399754.0 0
328361.0 398318.0 0
331488.0 400251.0 0
334537.0 398876.0 0
159220.0 402778.0 0
162364.0 400813.0 0
165409.0 402179.0 0
171625.0 401630.0 0
177883.0 401220.0 0
184085.0 401114.0 0
190176.0 400811.0 0
193239.0 402372.0 0
196284.0 400275.0 0
199347.0 401800.0 0
205486.0 401294.0 0
208607.0 399336.0 0
211695.0 401110.0 0
214829.0 399217.0 0
217861.0 401067.0 0
224068.0 400949.0 0
230442.0 400959.0 0
234003.0 399238.0 0
237169.0 401273.0 0
240622.0 399463.0 0
243814.0 401467.0 0
247119.0 399543.0 0
250356.0 401484.0 0
253560.0 399537.0 0
256866.0 401451.0 0
259992.0 399503.0 0
263374.0 401329.0 0
266460.0 399397.0 0
269837.0 401206.0 0
276142.0 401139.0 0
282282.0 401172.0 0
285293.0 399287.0 0
288392.0 401172.0 0
291461.0 399404.0 0
294569.0 401376.0 0
300705.0 401907.0 0
303779.0 400399.0 0
306823.0 402477.0 0
309891.0 400919.0 0
315972.0 401198.0 0
322168.0 401261.0 0
328418.0 401660.0 0
334625.0 402200.0 0
337667.0 400832.0 0
340804.0 402793.0 0
156068.0 404748.0 0
162267.0 404140.0 0
168473.0 403571.0 0
171558.0 404992.0 0
174727.0 403074.0 0
177864.0 404591.0 0
181013.0 402858.0 0
184121.0 404682.0 0
187146.0 402800.0 0
190214.0 404425.0 0
196320.0 403906.0 0
202407.0 403359.0 0
205469.0 404919.0 0
208567.0 402975.0 0
214717.0 402991.0 0
220812.0 402945.0 0
227041.0 402853.0 0
233411.0 402939.0 0
240419.0 403305.0 0
247084.0 403438.0 0
253696.0 403394.0 0
260268.0 403272.0 0
266788.0 403137.0 0
273160.0 403067.0 0
279346.0 403088.0 0
285384.0 403067.0 0
291500.0 403039.0 0
294583.0 404995.0 0
297640.0 403449.0 0
303732.0 404003.0 0
309847.0 404519.0 0
312914.0 402895.0 0
315930.0 404767.0 0
319036.0 402908.0 0
322185.0 404619.0 0
325320.0 403105.0 0
328486.0 405017.0 0
331565.0 403595.0 0
337760.0 404158.0 0
343949.0 404759.0 0
152901.0 406728.0 0
155975.0 408067.0 0
159126.0 406106.0 0
162201.0 407500.0 0
165328.0 405534.0 0
168402.0 406946.0 0
174673.0 406434.0 0
177838.0 407933.0 0
181035.0 406284.0 0
187192.0 406430.0 0
193319.0 406012.0 0
196467.0 407564.0 0
199412.0 405470.0 0
202484.0 407061.0 0
205543.0 408555.0 0
211604.0 404811.0 0
217621.0 404939.0 0
220448.0 406853.0 0
223726.0 404831.0 0
226654.0 406726.0 0
229986.0 404788.0 0
232901.0 406757.0 0
236304.0 404911.0 0
239167.0 406828.0 0
243751.0 405333.0 0
250454.0 405323.0 0
257140.0 405250.0 0
260698.0 406988.0 0
263739.0 405064.0 0
267151.0 406907.0 0
270157.0 404987.0 0
273471.0 406894.0 0
276432.0 404999.0 0
279685.0 406988.0 0
282496.0 405047.0 0
288472.0 404869.0 0
294487.0 408635.0 0
297552.0 407136.0 0
300630.0 405554.0 0
303577.0 407639.0 0
306734.0 406097.0 0
312869.0 406521.0 0
319014.0 406314.0 0
322227.0 407944.0 0
325380.0 406455.0 0
331631.0 406969.0 0
334700.0 405555.0 0
337820.0 407518.0 0
340893.0 406121.0 0
344037.0 408079.0 0
347111.0 406735.0 0
146476.0 410743.0 0
149708.0 408723.0 0
152798.0 410035.0 0
159073.0 409463.0 0
165288.0 408929.0 0
168382.0 410367.0 0
171487.0 408378.0 0
174584.0 409790.0 0
181064.0 409643.0 0
184171.0 408304.0 0
190299.0 408054.0 0
193500.0 409660.0 0
199638.0 409193.0 0
202773.0 410862.0 0
208526.0 406610.0 0
211474.0 408550.0 0
214495.0 406823.0 0
217154.0 408888.0 0
223364.0 408713.0 0
229573.0 408660.0 0
235816.0 408726.0 0
242042.0 408659.0 0
247179.0 407301.0 0
250715.0 409104.0 0
253929.0 407182.0 0
257730.0 408943.0 0
264156.0 408829.0 0
270499.0 408800.0 0
276750.0 408849.0 0
282973.0 409002.0 0
285588.0 406892.0 0
288575.0 408593.0 0
291531.0 406665.0 0
297242.0 410919.0 0
300397.0 409258.0 0
306546.0 409726.0 0
309754.0 408133.0 0
315889.0 408402.0 0
319009.0 409640.0 0
325464.0 409812.0 0
328554.0 408402.0 0
331642.0 410393.0 0
334734.0 408951.0 0
340940.0 409479.0 0
347210.0 410043.0 0
350301.0 408728.0 0
353528.0 410746.0 0
143214.0 412784.0 0
149579.0 412010.0 0
152728.0 413348.0 0
155922.0 411404.0 0
159071.0 412844.0 0
162189.0 410893.0 0
165318.0 412370.0 0
171478.0 411825.0 0
174578.0 413205.0 0
177712.0 411202.0 0
180873.0 412790.0 0
184157.0 412017.0 0
187241.0 410095.0 0
190464.0 411641.0 0
196756.0 411208.0 0
200090.0 412937.0 0
205913.0 412170.0 0
208624.0 410276.0 0
213819.0 410941.0 0
220079.0 410719.0 0
226281.0 410611.0 0
232501.0 410620.0 0
238766.0 410655.0 0
241812.0 412488.0 0
245007.0 410328.0 0
248196.0 411750.0 0
251893.0 412832.0 0
254776.0 410849.0 0
258245.0 412705.0 0
261195.0 410766.0 0
267529.0 410718.0 0
273802.0 410735.0 0
280028.0 410830.0 0
286317.0 411058.0 0
291387.0 410314.0 0
294058.0 412256.0 0
299956.0 412977.0 0
303288.0 411263.0 0
309576.0 411706.0 0
312807.0 410178.0 0
315877.0 412123.0 0
319174.0 412744.0 0
322347.0 411213.0 0
325443.0 413233.0 0
328546.0 411854.0 0
334695.0 412394.0 0
337824.0 410912.0 0
340937.0 412860.0 0
344086.0 411417.0 0
347276.0 413358.0 0
350426.0 412016.0 0
356788.0 412785.0 0
139939.0 414833.0 0
143043.0 416110.0 0
146319.0 414034.0 0
149487.0 415292.0 0
155910.0 414748.0 0
162239.0 414309.0 0
168457.0 413837.0 0
171608.0 415353.0 0
177731.0 414520.0 0
181098.0 415843.0 0
187407.0 413735.0 0
190735.0 415157.0 0
193762.0 413301.0 0
197065.0 414741.0 0
203513.0 414758.0 0
207274.0 415177.0 0
210497.0 413063.0 0
216797.0 412737.0 0
219716.0 414580.0 0
222999.0 412588.0 0
225928.0 414487.0 0
229209.0 412540.0 0
232162.0 414488.0 0
235460.0 412576.0 0
238479.0 414480.0 0
245060.0 414092.0 0
249212.0 415179.0 0
255336.0 414646.0 0
261625.0 414590.0 0
264573.0 412650.0 0
267893.0 414565.0 0
270846.0 412640.0 0
274137.0 414583.0 0
277086.0 412696.0 0
280365.0 414672.0 0
283305.0 412832.0 0
289651.0 413190.0 0
292852.0 415350.0 0
296553.0 414772.0 0
302967.0 414790.0 0
306271.0 413355.0 0
309284.0 415216.0 0
312612.0 413819.0 0
318886.0 415787.0 0
322275.0 414532.0 0
328398.0 415381.0 0
331555.0 413863.0 0
337768.0 414329.0 0
344094.0 414761.0 0
350515.0 415299.0 0
353683.0 414038.0 0
356956.0 416112.0 0
360061.0 414833.0 0
136672.0 416879.0 0
139780.0 418217.0 0
146211.0 417326.0 0
149445.0 418562.0 0
152700.0 416667.0 0
155935.0 418090.0 0
159114.0 416244.0 0
162335.0 417727.0 0
165425.0 415849.0 0
168633.0 417325.0 0
174779.0 416674.0 0
178123.0 417778.0 0
184460.0 415769.0 0
187789.0 417441.0 0
194058.0 417027.0 0
197356.0 418088.0 0
200514.0 416526.0 0
203761.0 418622.0 0
210419.0 416862.0 0
213559.0 414754.0 0
216466.0 416638.0 0
222648.0 416449.0 0
228874.0 416413.0 0
235147.0 416426.0 0
241605.0 416248.0 0
246512.0 417258.0 0
252557.0 416720.0 0
258690.0 416538.0 0
264945.0 416506.0 0
271181.0 416495.0 0
277420.0 416540.0 0
283609.0 416719.0 0
286540.0 414842.0 0
289657.0 416966.0 0
296254.0 418604.0 0
299528.0 416564.0 0
302666.0 418146.0 0
305952.0 417067.0 0
312202.0 417531.0 0
315534.0 415874.0 0
321849.0 417780.0 0
325211.0 416695.0 0
331367.0 417348.0 0
334579.0 415872.0 0
337666.0 417744.0 0
340890.0 416259.0 0
344066.0 418103.0 0
347302.0 416677.0 0
350555.0 418569.0 0
353788.0 417330.0 0
360218.0 418217.0 0
363325.0 416877.0 0
130198.0 420932.0 0
133426.0 418911.0 0
136548.0 420324.0 0
142938.0 419455.0 0
146162.0 420613.0 0
152716.0 420001.0 0
159178.0 419666.0 0
165582.0 419358.0 0
168870.0 420757.0 0
171887.0 418949.0 0
175181.0 420087.0 0
181718.0 418999.0 0
185010.0 419364.0 0
190995.0 418574.0 0
200503.0 420129.0 0
207281.0 418690.0 0
213312.0 418658.0 0
219355.0 418429.0 0
225604.0 418350.0 0
231827.0 418355.0 0
238189.0 418296.0 0
240681.0 420715.0 0
243669.0 419037.0 0
246789.0 420951.0 0
249764.0 418933.0 0
252949.0 420633.0 0
255818.0 418547.0 0
259068.0 420440.0 0
261994.0 418456.0 0
268236.0 418434.0 0
274451.0 418430.0 0
280712.0 418509.0 0
286746.0 418736.0 0
292749.0 418841.0 0
299489.0 420164.0 0
308989.0 418622.0 0
314985.0 419437.0 0
318258.0 418965.0 0
324798.0 420098.0 0
328104.0 418968.0 0
331125.0 420776.0 0
334416.0 419378.0 0
340821.0 419680.0 0
347282.0 420011.0 0
353836.0 420617.0 0
357059.0 419457.0 0
363448.0 420322.0 0
366570.0 418909.0 0
369796.0 420928.0 0
126966.0 422952.0 0
133355.0 422402.0 0
136528.0 423832.0 0
139701.0 421642.0 0
142900.0 422818.0 0
149459.0 421804.0 0
152780.0 423378.0 0
155987.0 421426.0 0
159240.0 423156.0 0
162421.0 421112.0 0
165659.0 422911.0 0
172271.0 422629.0 0
175827.0 423322.0 0
178768.0 420854.0 0
182662.0 422448.0 0
186348.0 422308.0 0
189746.0 421620.0 0
193557.0 420957.0 0
197029.0 421210.0 0
203196.0 422585.0 0
206798.0 422162.0 0
210317.0 420865.0 0
213008.0 423426.0 0
216071.0 420630.0 0
219257.0 422161.0 0
222368.0 420283.0 0
225168.0 422237.0 0
228514.0 420289.0 0
231494.0 422219.0 0
234814.0 420281.0 0
237564.0 422423.0 0
243688.0 422780.0 0
249954.0 422720.0 0
256134.0 422466.0 0
262319.0 422358.0 0
265273.0 420383.0 0
268546.0 422301.0 0
271532.0 420364.0 0
274871.0 422304.0 0
277686.0 420366.0 0
280796.0 422227.0 0
283993.0 420715.0 0
289699.0 420975.0 0
293208.0 422272.0 0
296803.0 422630.0 0
302953.0 421263.0 0
306428.0 420997.0 0
310248.0 421655.0 0
313647.0 422350.0 0
317355.0 422463.0 0
321202.0 420863.0 0
324167.0 423333.0 0
327719.0 422641.0 0
334336.0 422929.0 0
337576.0 421127.0 0
340757.0 423169.0 0
344011.0 421438.0 0
347217.0 423389.0 0
350538.0 421811.0 0
357096.0 422821.0 0
360295.0 421642.0 0
363467.0 423830.0 0
366639.0 422399.0 0
373028.0 422949.0 0
123686.0 425000.0 0
126919.0 426409.0 0
130171.0 424432.0 0
133404.0 425952.0 0
139725.0 425122.0 0
142956.0 426208.0 0
146160.0 423883.0 0
149494.0 424979.0 0
156075.0 424732.0 0
162459.0 424430.0 0
168960.0 423953.0 0
173686.0 426179.0 0
179364.0 423739.0 0
184791.0 425499.0 0
188488.0 425103.0 0
192087.0 424438.0 0
195682.0 424229.0 0
199539.0 423653.0 0
209421.0 424844.0 0
216522.0 424434.0 0
221813.0 424454.0 0
228198.0 424122.0 0
234367.0 424246.0 0
240515.0 424532.0 0
246824.0 424677.0 0
253123.0 424504.0 0
259348.0 424351.0 0
265583.0 424277.0 0
271834.0 424186.0 0
278218.0 424495.0 0
283496.0 424509.0 0
286997.0 423508.0 0
290583.0 424918.0 0
300453.0 423695.0 0
304314.0 424269.0 0
307908.0 424471.0 0
311508.0 425136.0 0
315213.0 425523.0 0
320644.0 423760.0 0
326312.0 426194.0 0
331030.0 423969.0 0
337537.0 424442.0 0
343921.0 424743.0 0
350502.0 424985.0 0
353835.0 423888.0 0
357040.0 426211.0 0
360270.0 425122.0 0
366591.0 425947.0 0
369824.0 424427.0 0
373075.0 426405.0 0
376307.0 424996.0 0
116940.0 429214.0 0
120327.0 427096.0 0
123503.0 428399.0 0
130207.0 427945.0 0
136681.0 427419.0 0
139996.0 428682.0 0
146226.0 427143.0 0
149529.0 428060.0 0
152748.0 426847.0 0
155995.0 427781.0 0
159383.0 426823.0 0
162973.0 427397.0 0
166408.0 426563.0 0
170224.0 426765.0 0
177411.0 426479.0 0
181321.0 426133.0 0
186911.0 428414.0 0
190627.0 427930.0 0
194276.0 427494.0 0
198065.0 426974.0 0
201886.0 426271.0 0
205576.0 425609.0 0
211552.0 427978.0 0
215235.0 427774.0 0
219109.0 427214.0 0
224885.0 425966.0 0
231119.0 426137.0 0
237305.0 426315.0 0
240374.0 428334.0 0
243616.0 426523.0 0
246793.0 428424.0 0
250001.0 426503.0 0
253199.0 428337.0 0
256316.0 426351.0 0
259550.0 428231.0 0
262599.0 426257.0 0
268870.0 426178.0 0
275152.0 426023.0 0
280903.0 427271.0 0
284778.0 427836.0 0
288456.0 428041.0 0
294437.0 425680.0 0
298118.0 426316.0 0
301934.0 427014.0 0
305723.0 427529.0 0
309371.0 427961.0 0
318681.0 426153.0 0
322591.0 426499.0 0
329771.0 426783.0 0
333584.0 426578.0 0
337019.0 427408.0 0
340611.0 426834.0 0
343998.0 427791.0 0
347248.0 426859.0 0
350470.0 428064.0 0
353771.0 427147.0 0
359998.0 428683.0 0
363314.0 427417.0 0
369788.0 427937.0 0
376489.0 428398.0 0
379663.0 427090.0 0
383045.0 429204.0 0
113534.0 431345.0 0
120109.0 430489.0 0
126669.0 429790.0 0
129755.0 431300.0 0
133610.0 429524.0 0
137115.0 431065.0 0
143370.0 429656.0 0
146815.0 430458.0 0
150434.0 430895.0 0
153798.0 430406.0 0
157627.0 430413.0 0
161058.0 430197.0 0
164839.0 430085.0 0
168352.0 429751.0 0
172091.0 429626.0 0
175659.0 429414.0 0
179484.0 429254.0 0
183259.0 428930.0 0
192743.0 430867.0 0
196512.0 430352.0 0
200314.0 429766.0 0
204083.0 429167.0 0
207839.0 428504.0 0
217405.0 430831.0 0
221015.0 430457.0 0
224372.0 429562.0 0
227820.0 427985.0 0
230714.0 430040.0 0
234051.0 428168.0 0
237103.0 430166.0 0
243538.0 430287.0 0
250003.0 430287.0 0
256428.0 430198.0 0
262838.0 430122.0 0
265898.0 428165.0 0
269265.0 430050.0 0
272189.0 428021.0 0
275640.0 429606.0 0
278995.0 430504.0 0
282603.0 430886.0 0
292169.0 428566.0 0
295926.0 429223.0 0
299689.0 429810.0 0
303489.0 430389.0 0
307257.0 430899.0 0
313089.0 428440.0 0
316741.0 428953.0 0
320515.0 429275.0 0
324339.0 429433.0 0
327904.0 429643.0 0
331642.0 429768.0 0
335154.0 430098.0 0
338933.0 430208.0 0
342363.0 430424.0 0
346190.0 430417.0 0
349554.0 430896.0 0
353177.0 430463.0 0
356624.0 429660.0 0
362881.0 431061.0 0
366387.0 429518.0 0
370226.0 431292.0 0
373320.0 429787.0 0
379880.0 430489.0 0
386455.0 431338.0 0
110012.0 433546.0 0
116699.0 432646.0 0
119876.0 433921.0 0
123271.0 431828.0 0
126419.0 433263.0 0
132763.0 432832.0 0
140734.0 432264.0 0
144409.0 433045.0 0
148158.0 433581.0 0
151967.0 433719.0 0
155578.0 433457.0 0
159261.0 433444.0 0
162914.0 433216.0 0
166615.0 433069.0 0
170265.0 432809.0 0
173975.0 432658.0 0
177698.0 432396.0 0
181491.0 432147.0 0
185273.0 431780.0 0
189005.0 431308.0 0
198667.0 433233.0 0
202453.0 432687.0 0
206224.0 432118.0 0
209952.0 431602.0 0
213655.0 431242.0 0
227228.0 431823.0 0
233771.0 432021.0 0
240256.0 432133.0 0
246752.0 432193.0 0
253239.0 432150.0 0
259700.0 432072.0 0
266193.0 432003.0 0
272768.0 431836.0 0
286351.0 431301.0 0
290053.0 431660.0 0
293780.0 432173.0 0
297550.0 432736.0 0
301334.0 433272.0 0
310993.0 431335.0 0
314724.0 431804.0 0
318506.0 432168.0 0
322297.0 432416.0 0
326019.0 432677.0 0
329727.0 432826.0 0
333378.0 433085.0 0
337078.0 433229.0 0
340730.0 433456.0 0
344412.0 433469.0 0
348023.0 433726.0 0
351831.0 433584.0 0
355582.0 433048.0 0
359260.0 432267.0 0
367215.0 432827.0 0
373562.0 433258.0 0
376716.0 431827.0 0
380111.0 433925.0 0
383284.0 432625.0 0
389924.0 433506.0 0
106630.0 435664.0 0
109833.0 437024.0 0
113201.0 434801.0 0
116399.0 436115.0 0
123028.0 435291.0 0
126215.0 436727.0 0
129587.0 434834.0 0
132842.0 436456.0 0
135747.0 434291.0 0
138898.0 435267.0 0
142330.0 435815.0 0
146002.0 436315.0 0
149799.0 436608.0 0
153588.0 436662.0 0
157272.0 436548.0 0
161006.0 436441.0 0
164712.0 436261.0 0
168444.0 436078.0 0
172161.0 435861.0 0
175925.0 435639.0 0
179699.0 435364.0 0
183505.0 435056.0 0
187304.0 434672.0 0
191079.0 434236.0 0
194871.0 433761.0 0
204546.0 435673.0 0
208317.0 435183.0 0
212081.0 434768.0 0
215887.0 434384.0 0
219706.0 433995.0 0
223592.0 433395.0 0
226774.0 435607.0 0
230332.0 433848.0 0
233574.0 435813.0 0
236939.0 433980.0 0
240154.0 435933.0 0
243467.0 434070.0 0
246717.0 435980.0 0
249996.0 434077.0 0
253267.0 435955.0 0
256508.0 434020.0 0
259818.0 435888.0 0
263025.0 433942.0 0
266403.0 435784.0 0
269647.0 433837.0 0
273210.0 435591.0 0
276411.0 433431.0 0
280297.0 434043.0 0
284114.0 434437.0 0
287919.0 434822.0 0
291683.0 435236.0 0
295453.0 435721.0 0
305128.0 433796.0 0
308918.0 434266.0 0
312691.0 434697.0 0
316489.0 435079.0 0
320294.0 435385.0 0
324066.0 435659.0 0
327830.0 435879.0 0
331547.0 436094.0 0
335278.0 436276.0 0
338984.0 436455.0 0
342717.0 436560.0 0
346401.0 436671.0 0
350190.0 436614.0 0
353985.0 436320.0 0
357656.0 435819.0 0
361085.0 435274.0 0
364231.0 434289.0 0
367139.0 436447.0 0
370392.0 434826.0 0
373754.0 436727.0 0
376943.0 435289.0 0
383537.0 436092.0 0
386741.0 434792.0 0
390154.0 436976.0 0
393385.0 435673.0 0
103091.0 437882.0 0
106377.0 439183.0 0
113072.0 438314.0 0
119640.0 437403.0 0
122887.0 438770.0 0
129402.0 438304.0 0
136346.0 437957.0 0
140109.0 438765.0 0
143862.0 439174.0 0
174082.0 438874.0 0
177882.0 438623.0 0
181693.0 438326.0 0
185515.0 437990.0 0
189333.0 437603.0 0
193144.0 437163.0 0
196956.0 436687.0 0
200756.0 436185.0 0
210399.0 438296.0 0
214226.0 437899.0 0
218110.0 437531.0 0
222061.0 436998.0 0
230187.0 437601.0 0
236809.0 437786.0 0
243411.0 437865.0 0
249992.0 437876.0 0
256568.0 437829.0 0
263170.0 437745.0 0
269802.0 437576.0 0
277936.0 437041.0 0
281886.0 437579.0 0
285769.0 437950.0 0
289595.0 438347.0 0
299242.0 436229.0 0
303040.0 436724.0 0
306849.0 437196.0 0
310659.0 437630.0 0
314475.0 438014.0 0
318297.0 438349.0 0
322106.0 438643.0 0
325906.0 438894.0 0
356125.0 439179.0 0
359877.0 438771.0 0
363641.0 437956.0 0
370568.0 438300.0 0
377066.0 438776.0 0
380310.0 437408.0 0
386910.0 438295.0 0
393552.0 439184.0 0
396800.0 437812.0 0
96291.6 442142.0 0
99654.3 440033.0 0
102935.0 441460.0 0
109658.0 440546.0 0
112982.0 441867.0 0
116318.0 439633.0 0
119588.0 440932.0 0
126164.0 440219.0 0
132501.0 439836.0 0
135433.0 441324.0 0
138574.0 441944.0 0
147646.0 439501.0 0
151457.0 439675.0 0
155246.0 439699.0 0
159004.0 439601.0 0
162770.0 439474.0 0
166531.0 439297.0 0
170303.0 439104.0 0
183682.0 441300.0 0
187520.0 440951.0 0
191355.0 440557.0 0
195183.0 440123.0 0
199001.0 439665.0 0
202807.0 439192.0 0
206603.0 438727.0 0
216207.0 441086.0 0
219932.0 440833.0 0
223541.0 440483.0 0
226926.0 439364.0 0
233433.0 439630.0 0
240087.0 439736.0 0
246691.0 439782.0 0
253293.0 439763.0 0
259895.0 439693.0 0
266558.0 439589.0 0
273083.0 439316.0 0
276443.0 440524.0 0
280054.0 440875.0 0
283778.0 441132.0 0
293390.0 438776.0 0
297184.0 439237.0 0
300989.0 439705.0 0
304806.0 440158.0 0
308632.0 440587.0 0
312466.0 440977.0 0
316303.0 441323.0 0
329686.0 439121.0 0
333457.0 439313.0 0
337219.0 439489.0 0
340985.0 439614.0 0
344742.0 439710.0 0
348531.0 439684.0 0
352341.0 439508.0 0
361401.0 441953.0 0
364536.0 441322.0 0
367464.0 439828.0 0
373794.0 440228.0 0
380363.0 440930.0 0
383640.0 439607.0 0
386940.0 441842.0 0
390251.0 440500.0 0
396904.0 441378.0 0
400183.0 439932.0 0
403559.0 442048.0 0
92941.7 444242.0 0
99620.7 443666.0 0
103002.0 445070.0 0
106310.0 442760.0 0
109695.0 444108.0 0
116301.0 443187.0 0
119618.0 444470.0 0
122895.0 442264.0 0
126266.0 443690.0 0
129425.0 441946.0 0
132640.0 443511.0 0
141982.0 442209.0 0
145607.0 442492.0 0
149354.0 442691.0 0
153153.0 442781.0 0
156962.0 442761.0 0
160763.0 442659.0 0
164571.0 442514.0 0
168379.0 442332.0 0
172195.0 442123.0 0
176016.0 441882.0 0
179847.0 441611.0 0
193363.0 443546.0 0
197197.0 443127.0 0
201020.0 442691.0 0
204829.0 442252.0 0
208629.0 441829.0 0
212425.0 441432.0 0
222148.0 444049.0 0
226280.0 443198.0 0
230040.0 441497.0 0
233452.0 443439.0 0
236756.0 441594.0 0
240035.0 443566.0 0
243369.0 441677.0 0
246675.0 443598.0 0
249993.0 441686.0 0
253317.0 443579.0 0
256616.0 441642.0 0
259955.0 443516.0 0
263235.0 441544.0 0
266557.0 443380.0 0
269969.0 441455.0 0
273616.0 443145.0 0
277834.0 444086.0 0
287561.0 441482.0 0
291356.0 441878.0 0
295155.0 442299.0 0
298964.0 442733.0 0
302785.0 443164.0 0
306618.0 443578.0 0
320138.0 441633.0 0
323969.0 441902.0 0
327791.0 442142.0 0
331607.0 442349.0 0
335417.0 442530.0 0
339225.0 442673.0 0
343026.0 442774.0 0
346835.0 442793.0 0
350633.0 442700.0 0
354378.0 442500.0 0
358001.0 442216.0 0
367324.0 443506.0 0
370536.0 441941.0 0
373686.0 443707.0 0
377054.0 442274.0 0
380320.0 444473.0 0
383632.0 443172.0 0
390207.0 444072.0 0
393569.0 442735.0 0
396878.0 444983.0 0
400245.0 443564.0 0
406924.0 444158.0 0
89599.1 446337.0 0
96302.1 445845.0 0
99713.5 447343.0 0
106434.0 446377.0 0
113086.0 445481.0 0
116453.0 446806.0 0
122948.0 445728.0 0
126321.0 446979.0 0
129639.0 445700.0 0
133184.0 446956.0 0
136179.0 444898.0 0
139814.0 445369.0 0
143487.0 445591.0 0
147234.0 445769.0 0
151037.0 445875.0 0
154871.0 445896.0 0
158715.0 445838.0 0
162560.0 445717.0 0
166410.0 445557.0 0
170260.0 445366.0 0
174110.0 445147.0 0
177962.0 444896.0 0
181815.0 444613.0 0
185668.0 444293.0 0
189519.0 443937.0 0
199198.0 446172.0 0
203023.0 445762.0 0
206838.0 445356.0 0
210644.0 444968.0 0
214448.0 444617.0 0
218264.0 444332.0 0
230240.0 445253.0 0
236694.0 445458.0 0
243341.0 445504.0 0
250000.0 445507.0 0
256656.0 445467.0 0
263301.0 445389.0 0
269790.0 445206.0 0
281717.0 444378.0 0
285532.0 444665.0 0
289333.0 445018.0 0
293139.0 445404.0 0
296952.0 445806.0 0
300777.0 446212.0 0
310462.0 443966.0 0
314312.0 444319.0 0
318165.0 444635.0 0
322019.0 444917.0 0
325871.0 445165.0 0
329723.0 445382.0 0
333574.0 445572.0 0
337426.0 445731.0 0
341272.0 445851.0 0
345116.0 445909.0 0
348951.0 445886.0 0
352754.0 445778.0 0
356501.0 445599.0 0
360171.0 445380.0 0
363795.0 444897.0 0
366774.0 446961.0 0
370312.0 445693.0 0
373609.0 447014.0 0
376990.0 445745.0 0
383472.0 446794.0 0
386835.0 445456.0 0
393470.0 446331.0 0
400171.0 447240.0 0
403572.0 445751.0 0
410273.0 446258.0 0
86256.6 448430.0 0
89683.0 450157.0 0
92991.8 448008.0 0
96431.5 449586.0 0
103175.0 448719.0 0
106678.0 450003.0 0
109896.0 447718.0 0
113372.0 449173.0 0
119829.0 448055.0 0
123241.0 449218.0 0
130389.0 449459.0 0
137447.0 448386.0 0
141263.0 448715.0 0
145070.0 448893.0 0
148901.0 449001.0 0
152759.0 449040.0 0
156633.0 449009.0 0
160515.0 448914.0 0
164406.0 448770.0 0
168292.0 448602.0 0
172171.0 448406.0 0
176046.0 448181.0 0
179918.0 447924.0 0
183787.0 447635.0 0
187652.0 447311.0 0
191511.0 446956.0 0
195360.0 446574.0 0
205020.0 448873.0 0
208835.0 448498.0 0
212637.0 448150.0 0
216416.0 447848.0 0
220154.0 447609.0 0
223772.0 447463.0 0
227153.0 446880.0 0
233348.0 447373.0 0
239997.0 447410.0 0
246670.0 447427.0 0
253338.0 447407.0 0
260009.0 447352.0 0
266647.0 447280.0 0
272903.0 446837.0 0
276242.0 447514.0 0
279840.0 447665.0 0
283563.0 447901.0 0
287335.0 448204.0 0
291133.0 448550.0 0
294947.0 448921.0 0
304615.0 446609.0 0
308464.0 446987.0 0
312323.0 447338.0 0
316188.0 447659.0 0
320058.0 447946.0 0
323931.0 448200.0 0
327808.0 448423.0 0
331689.0 448617.0 0
335577.0 448784.0 0
339470.0 448928.0 0
343354.0 449023.0 0
347228.0 449053.0 0
351088.0 449011.0 0
354921.0 448900.0 0
358730.0 448724.0 0
362550.0 448392.0 0
369583.0 449450.0 0
376697.0 449238.0 0
380104.0 448064.0 0
386547.0 449144.0 0
390022.0 447673.0 0
393242.0 449951.0 0
396728.0 448633.0 0
403440.0 449505.0 0
406880.0 447938.0 0
410175.0 450109.0 0
413612.0 448352.0 0
78842.6 453067.0 0
82908.0 450526.0 0
86364.5 452290.0 0
93165.1 451811.0 0
99906.6 451057.0 0
103409.0 452406.0 0
110225.0 451324.0 0
116838.0 450486.0 0
120400.0 451661.0 0
126788.0 450083.0 0
134217.0 450179.0 0
139048.0 451814.0 0
142893.0 452039.0 0
146752.0 452159.0 0
150638.0 452205.0 0
166301.0 451829.0 0
170208.0 451659.0 0
174106.0 451462.0 0
177997.0 451233.0 0
181882.0 450973.0 0
185761.0 450681.0 0
189633.0 450359.0 0
193497.0 450010.0 0
197350.0 449639.0 0
201191.0 449257.0 0
210842.0 451677.0 0
214657.0 451368.0 0
218472.0 451108.0 0
222306.0 450909.0 0
226221.0 450605.0 0
229969.0 449334.0 0
233239.0 451255.0 0
236636.0 449324.0 0
239985.0 451256.0 0
243332.0 449343.0 0
246676.0 451271.0 0
250011.0 449342.0 0
253361.0 451250.0 0
256688.0 449302.0 0
260048.0 451191.0 0
263378.0 449243.0 0
266795.0 451140.0 0
270038.0 449184.0 0
273738.0 450608.0 0
277664.0 450960.0 0
281495.0 451168.0 0
285304.0 451428.0 0
298775.0 449300.0 0
302617.0 449677.0 0
306470.0 450042.0 0
310335.0 450387.0 0
314209.0 450706.0 0
318089.0 450995.0 0
321976.0 451253.0 0
325868.0 451478.0 0
329767.0 451674.0 0
333677.0 451841.0 0
349349.0 452216.0 0
353237.0 452165.0 0
357100.0 452044.0 0
360950.0 451821.0 0
365778.0 450200.0 0
373157.0 450135.0 0
379543.0 451677.0 0
383094.0 450476.0 0
389689.0 451256.0 0
396460.0 452319.0 0
399964.0 450967.0 0
406687.0 451769.0 0
413482.0 452260.0 0
416955.0 450444.0 0
421496.0 453276.0 0
75453.0 455193.0 0
82456.4 454363.0 0
89888.8 454012.0 0
96689.5 453370.0 0
100256.0 454816.0 0
106963.0 453624.0 0
110559.0 454812.0 0
113839.0 452938.0 0
117514.0 454132.0 0
124102.0 452654.0 0
128088.0 452984.0 0
131792.0 452966.0 0
135662.0 453330.0 0
154538.0 452193.0 0
158448.0 452113.0 0
162380.0 451976.0 0
179958.0 454309.0 0
183852.0 454047.0 0
187738.0 453755.0 0
191616.0 453437.0 0
195484.0 453096.0 0
199340.0 452740.0 0
203185.0 452378.0 0
207019.0 452019.0 0
220565.0 454348.0 0
224490.0 454081.0 0
229201.0 453169.0 0
236629.0 453165.0 0
243336.0 453195.0 0
250029.0 453193.0 0
256717.0 453151.0 0
263423.0 453069.0 0
270626.0 453020.0 0
275460.0 454105.0 0
279386.0 454408.0 0
289116.0 451735.0 0
292937.0 452072.0 0
296771.0 452425.0 0
300618.0 452781.0 0
304476.0 453131.0 0
308346.0 453467.0 0
312226.0 453782.0 0
316114.0 454070.0 0
320009.0 454329.0 0
337601.0 451988.0 0
341538.0 452128.0 0
345448.0 452209.0 0
364342.0 453341.0 0
368231.0 452982.0 0
371943.0 453081.0 0
375862.0 452682.0 0
382428.0 454122.0 0
386084.0 452924.0 0
389375.0 454719.0 0
392935.0 453566.0 0
399593.0 454750.0 0
403159.0 453313.0 0
409940.0 453998.0 0
417823.0 454249.0 0
424849.0 455382.0 0
72018.6 457341.0 0
78902.4 456971.0 0
85870.9 456123.0 0
89299.4 457827.0 0
93472.1 455650.0 0
97121.9 457192.0 0
103860.0 456115.0 0
107488.0 457265.0 0
114693.0 456736.0 0
121295.0 455175.0 0
125636.0 455761.0 0
129540.0 456120.0 0
133337.0 456313.0 0
137206.0 456525.0 0
140731.0 455216.0 0
144600.0 455351.0 0
148513.0 455394.0 0
152437.0 455397.0 0
156372.0 455338.0 0
160352.0 455176.0 0
164303.0 455048.0 0
168234.0 454906.0 0
172151.0 454738.0 0
176058.0 454539.0 0
189719.0 456857.0 0
193601.0 456544.0 0
197474.0 456214.0 0
201335.0 455873.0 0
205186.0 455531.0 0
209028.0 455196.0 0
212864.0 454882.0 0
216704.0 454598.0 0
230039.0 456960.0 0
233272.0 455060.0 0
239988.0 455116.0 0
246694.0 455130.0 0
253383.0 455110.0 0
260082.0 455042.0 0
266805.0 454924.0 0
283246.0 454664.0 0
287082.0 454946.0 0
290917.0 455255.0 0
294760.0 455582.0 0
298613.0 455918.0 0
302478.0 456252.0 0
306353.0 456577.0 0
323911.0 454557.0 0
327820.0 454753.0 0
331739.0 454918.0 0
335672.0 455057.0 0
339626.0 455184.0 0
343613.0 455357.0 0
347551.0 455411.0 0
351476.0 455403.0 0
355389.0 455354.0 0
359260.0 455219.0 0
362786.0 456531.0 0
366663.0 456319.0 0
370482.0 456165.0 0
374441.0 455871.0 0
378633.0 455201.0 0
385237.0 456758.0 0
392434.0 457219.0 0
396019.0 456059.0 0
402688.0 457162.0 0
406344.0 455646.0 0
411086.0 457726.0 0
414477.0 456049.0 0
421377.0 457151.0 0
428227.0 457495.0 0
75515.5 459135.0 0
82548.9 458297.0 0
92733.7 459432.0 0
96195.4 460931.0 0
100825.0 458617.0 0
104568.0 459865.0 0
111171.0 458182.0 0
118504.0 457707.0 0
123048.0 458352.0 0
127084.0 458993.0 0
130998.0 459385.0 0
134886.0 459625.0 0
138761.0 459783.0 0
142445.0 458601.0 0
146390.0 458610.0 0
150328.0 458623.0 0
154268.0 458590.0 0
158366.0 458375.0 0
162323.0 458265.0 0
166262.0 458150.0 0
170190.0 458012.0 0
174109.0 457843.0 0
178022.0 457642.0 0
181928.0 457409.0 0
185827.0 457147.0 0
199470.0 459361.0 0
203337.0 459035.0 0
207195.0 458711.0 0
211045.0 458398.0 0
214891.0 458104.0 0
218737.0 457835.0 0
222582.0 457578.0 0
226370.0 457372.0 0
233274.0 458992.0 0
236631.0 457032.0 0
240032.0 458987.0 0
243359.0 457062.0 0
246714.0 459010.0 0
250052.0 457064.0 0
253414.0 458992.0 0
256739.0 457016.0 0
260088.0 458908.0 0
263457.0 456919.0 0
266822.0 458835.0 0
270037.0 456834.0 0
273639.0 457422.0 0
277384.0 457649.0 0
281206.0 457909.0 0
285042.0 458179.0 0
288886.0 458465.0 0
292738.0 458769.0 0
296600.0 459084.0 0
300472.0 459402.0 0
310239.0 456885.0 0
314133.0 457171.0 0
318035.0 457430.0 0
321943.0 457660.0 0
325857.0 457859.0 0
329778.0 458025.0 0
333707.0 458160.0 0
337646.0 458271.0 0
341600.0 458381.0 0
345728.0 458610.0 0
349667.0 458636.0 0
353603.0 458617.0 0
357544.0 458599.0 0
361219.0 459789.0 0
365094.0 459634.0 0
368974.0 459394.0 0
372903.0 459061.0 0
377079.0 458503.0 0
381448.0 457659.0 0
388801.0 458025.0 0
395262.0 459846.0 0
399003.0 458592.0 0
404202.0 460727.0 0
407677.0 459316.0 0
417689.0 458352.0 0
424723.0 459322.0 0
79026.0 460926.0 0
82736.0 462261.0 0
86030.7 460047.0 0
89544.8 461750.0 0
99705.4 462295.0 0
103301.0 463453.0 0
108334.0 460904.0 0
112084.0 461445.0 0
115920.0 460449.0 0
120393.0 460923.0 0
124498.0 461700.0 0
128523.0 462312.0 0
144341.0 461878.0 0
148238.0 461884.0 0
152153.0 461876.0 0
156417.0 461565.0 0
160366.0 461488.0 0
164301.0 461399.0 0
168230.0 461288.0 0
172155.0 461148.0 0
176077.0 460975.0 0
179993.0 460770.0 0
183905.0 460535.0 0
187809.0 460273.0 0
191706.0 459986.0 0
195593.0 459680.0 0
209214.0 461916.0 0
213072.0 461621.0 0
216929.0 461344.0 0
220790.0 461085.0 0
224664.0 460862.0 0
228599.0 460586.0 0
236743.0 460888.0 0
243371.0 460957.0 0
250081.0 460951.0 0
256780.0 460913.0 0
263403.0 460774.0 0
271302.0 460543.0 0
275260.0 460933.0 0
279130.0 461172.0 0
282981.0 461432.0 0
286838.0 461698.0 0
290703.0 461980.0 0
304354.0 459715.0 0
308246.0 460015.0 0
312146.0 460298.0 0
316054.0 460557.0 0
319968.0 460789.0 0
323886.0 460991.0 0
327809.0 461161.0 0
331736.0 461299.0 0
335665.0 461407.0 0
339598.0 461493.0 0
343546.0 461563.0 0
347851.0 461896.0 0
351765.0 461896.0 0
355664.0 461882.0 0
371401.0 462334.0 0
375469.0 461796.0 0
379892.0 460981.0 0
383930.0 460506.0 0
387695.0 461135.0 0
391480.0 460887.0 0
397109.0 463172.0 0
400704.0 462073.0 0
410677.0 461853.0 0
414202.0 460115.0 0
417474.0 462347.0 0
421198.0 461084.0 0
86286.3 463997.0 0
93103.0 463352.0 0
96749.8 464840.0 0
106987.0 464369.0 0
110784.0 465105.0 0
114409.0 463938.0 0
118052.0 463799.0 0
121887.0 464418.0 0
125892.0 465100.0 0
132511.0 462684.0 0
136442.0 462984.0 0
140676.0 462871.0 0
154489.0 464745.0 0
158423.0 464717.0 0
162348.0 464659.0 0
166272.0 464573.0 0
170198.0 464457.0 0
174125.0 464310.0 0
178050.0 464131.0 0
181972.0 463922.0 0
185889.0 463685.0 0
189799.0 463423.0 0
193700.0 463141.0 0
197593.0 462843.0 0
201476.0 462535.0 0
205349.0 462223.0 0
218962.0 464603.0 0
222798.0 464370.0 0
226589.0 464178.0 0
230263.0 464056.0 0
233556.0 462801.0 0
240031.0 462922.0 0
246732.0 462900.0 0
253457.0 462892.0 0
260145.0 462836.0 0
266654.0 462619.0 0
269862.0 464121.0 0
273422.0 464279.0 0
277118.0 464472.0 0
280919.0 464713.0 0
294575.0 462276.0 0
298455.0 462578.0 0
302345.0 462879.0 0
306244.0 463172.0 0
310151.0 463450.0 0
314065.0 463708.0 0
317986.0 463943.0 0
321910.0 464149.0 0
325837.0 464325.0 0
329766.0 464469.0 0
333693.0 464582.0 0
337618.0 464665.0 0
341543.0 464717.0 0
345476.0 464735.0 0
359327.0 462901.0 0
363532.0 462988.0 0
367458.0 462704.0 0
373962.0 465152.0 0
378251.0 464361.0 0
382153.0 463969.0 0
385862.0 463977.0 0
389652.0 464446.0 0
393439.0 464082.0 0
403378.0 464912.0 0
407054.0 463402.0 0
413924.0 464099.0 0
89878.0 465699.0 0
93582.4 467240.0 0
100503.0 466149.0 0
104363.0 467221.0 0
108258.0 468024.0 0
115470.0 467228.0 0
119345.0 467364.0 0
130029.0 465632.0 0
133954.0 466091.0 0
138538.0 466027.0 0
142439.0 466242.0 0
146131.0 465178.0 0
150023.0 465203.0 0
183959.0 467097.0 0
187882.0 466858.0 0
191798.0 466598.0 0
195706.0 466320.0 0
199604.0 466029.0 0
203493.0 465732.0 0
207373.0 465435.0 0
211244.0 465143.0 0
215108.0 464865.0 0
233064.0 466829.0 0
236684.0 464857.0 0
239995.0 466877.0 0
243366.0 464862.0 0
246749.0 466784.0 0
250118.0 464846.0 0
253515.0 466806.0 0
256840.0 464827.0 0
260228.0 466773.0 0
263533.0 464722.0 0
267026.0 466707.0 0
284776.0 464954.0 0
288652.0 465214.0 0
292536.0 465491.0 0
296426.0 465778.0 0
300324.0 466067.0 0
304231.0 466351.0 0
308146.0 466624.0 0
312068.0 466882.0 0
315996.0 467118.0 0
349987.0 465221.0 0
353878.0 465187.0 0
357564.0 466276.0 0
361470.0 466059.0 0
366008.0 466097.0 0
369945.0 465674.0 0
380652.0 467394.0 0
384523.0 467190.0 0
391760.0 467679.0 0
395702.0 467108.0 0
399563.0 466134.0 0
406495.0 467336.0 0
410195.0 465819.0 0
86553.9 467951.0 0
90412.6 469650.0 0
97487.5 468689.0 0
101587.0 469927.0 0
112019.0 468950.0 0
116885.0 470499.0 0
123277.0 467888.0 0
127428.0 468481.0 0
131350.0 469091.0 0
136226.0 469024.0 0
140152.0 469443.0 0
144092.0 469726.0 0
147829.0 468538.0 0
152573.0 467914.0 0
156483.0 467948.0 0
160394.0 467929.0 0
164312.0 467869.0 0
168237.0 467776.0 0
172167.0 467651.0 0
176100.0 467496.0 0
180031.0 467310.0 0
193810.0 469794.0 0
197724.0 469521.0 0
201629.0 469238.0 0
205525.0 468952.0 0
209411.0 468667.0 0
213291.0 468391.0 0
217163.0 468128.0 0
221030.0 467887.0 0
224896.0 467678.0 0
228782.0 467503.0 0
236552.0 468695.0 0
243353.0 468751.0 0
250160.0 468741.0 0
256928.0 468745.0 0
263656.0 468554.0 0
270851.0 467812.0 0
274814.0 467876.0 0
278750.0 468014.0 0
282667.0 468225.0 0
286575.0 468464.0 0
290479.0 468725.0 0
294382.0 469000.0 0
298291.0 469277.0 0
302206.0 469553.0 0
306129.0 469820.0 0
319927.0 467329.0 0
323861.0 467512.0 0
327796.0 467664.0 0
331729.0 467785.0 0
335656.0 467875.0 0
339576.0 467931.0 0
343488.0 467943.0 0
347397.0 467898.0 0
352184.0 468554.0 0
355914.0 469765.0 0
359853.0 469471.0 0
363782.0 469064.0 0
368586.0 469107.0 0
372517.0 468555.0 0
376732.0 467794.0 0
383124.0 470483.0 0
388008.0 468943.0 0
398303.0 469920.0 0
402411.0 468772.0 0
409616.0 469789.0 0
413498.0 468050.0 0
94373.4 471120.0 0
98626.6 472473.0 0
105787.0 470927.0 0
120797.0 470826.0 0
124789.0 471325.0 0
128718.0 472011.0 0
133752.0 471948.0 0
137620.0 472501.0 0
150637.0 471050.0 0
154527.0 471181.0 0
158425.0 471208.0 0
162338.0 471176.0 0
166264.0 471104.0 0
170199.0 470999.0 0
174139.0 470864.0 0
178081.0 470700.0 0
182022.0 470509.0 0
185958.0 470292.0 0
189887.0 470052.0 0
207572.0 472191.0 0
211467.0 471918.0 0
215355.0 471655.0 0
219240.0 471406.0 0
223125.0 471178.0 0
227022.0 470965.0 0
230953.0 470710.0 0
234599.0 471939.0 0
239845.0 470868.0 0
246791.0 470644.0 0
253546.0 470731.0 0
260410.0 470762.0 0
264423.0 472225.0 0
268027.0 470575.0 0
272670.0 471222.0 0
276623.0 471337.0 0
280559.0 471507.0 0
284490.0 471725.0 0
288411.0 471973.0 0
292327.0 472239.0 0
310059.0 470075.0 0
313996.0 470313.0 0
317936.0 470529.0 0
321879.0 470719.0 0
325824.0 470879.0 0
329767.0 471009.0 0
333705.0 471110.0 0
337634.0 471178.0 0
341550.0 471205.0 0
345450.0 471171.0 0
349339.0 471031.0 0
362374.0 472533.0 0
366244.0 472003.0 0
371181.0 472047.0 0
375265.0 471263.0 0
379202.0 470810.0 0
394131.0 470755.0 0
401156.0 472545.0 0
405496.0 471193.0 0
92636.6 474669.0 0
103041.0 473599.0 0
109591.0 472061.0 0
113550.0 472582.0 0
118290.0 473857.0 0
122222.0 474274.0 0
126106.0 474877.0 0
131248.0 474852.0 0
141414.0 473015.0 0
145137.0 473464.0 0
148753.0 474189.0 0
152553.0 474418.0 0
156427.0 474496.0 0
160339.0 474493.0 0
164270.0 474442.0 0
168214.0 474354.0 0
172165.0 474237.0 0
176121.0 474093.0 0
180075.0 473922.0 0
184025.0 473725.0 0
187969.0 473506.0 0
191906.0 473266.0 0
195836.0 473009.0 0
199757.0 472742.0 0
203669.0 472467.0 0
217436.0 474933.0 0
221332.0 474695.0 0
225229.0 474470.0 0
229128.0 474240.0 0
243407.0 472580.0 0
246737.0 474494.0 0
250191.0 472655.0 0
253605.0 474722.0 0
256936.0 472605.0 0
270559.0 474557.0 0
274525.0 474680.0 0
278468.0 474816.0 0
282408.0 474999.0 0
296245.0 472507.0 0
300167.0 472775.0 0
304098.0 473035.0 0
308037.0 473286.0 0
311983.0 473525.0 0
315934.0 473746.0 0
319888.0 473942.0 0
323844.0 474110.0 0
327802.0 474249.0 0
331757.0 474360.0 0
335704.0 474442.0 0
339639.0 474490.0 0
343553.0 474490.0 0
347427.0 474406.0 0
351225.0 474171.0 0
354848.0 473495.0 0
358577.0 473033.0 0
368731.0 474928.0 0
373899.0 474795.0 0
377789.0 474259.0 0
381712.0 473836.0 0
386434.0 472593.0 0
390391.0 472082.0 0
396790.0 473597.0 0
407401.0 474659.0 0
96533.9 475775.0 0
101109.0 476944.0 0
106931.0 475017.0 0
111165.0 475708.0 0
115154.0 476207.0 0
119693.0 477272.0 0
123582.0 477805.0 0
128653.0 477700.0 0
135128.0 475505.0 0
138989.0 476094.0 0
142808.0 476649.0 0
146564.0 477253.0 0
166205.0 477715.0 0
170173.0 477614.0 0
174145.0 477486.0 0
178116.0 477335.0 0
182084.0 477158.0 0
186044.0 476959.0 0
189997.0 476737.0 0
193942.0 476497.0 0
197879.0 476244.0 0
201806.0 475981.0 0
205725.0 475714.0 0
209636.0 475448.0 0
213539.0 475186.0 0
232790.0 475390.0 0
236670.0 475188.0 0
240472.0 474943.0 0
250086.0 476538.0 0
258639.0 475989.0 0
262507.0 475578.0 0
266698.0 475330.0 0
286342.0 475234.0 0
290262.0 475496.0 0
294189.0 475755.0 0
298117.0 476018.0 0
302054.0 476271.0 0
305999.0 476516.0 0
309954.0 476752.0 0
313916.0 476975.0 0
317883.0 477182.0 0
321851.0 477357.0 0
325826.0 477500.0 0
329801.0 477620.0 0
333773.0 477715.0 0
353421.0 477240.0 0
357185.0 476662.0 0
361003.0 476117.0 0
364855.0 475548.0 0
371436.0 477681.0 0
376396.0 477771.0 0
380304.0 477257.0 0
384812.0 476221.0 0
388822.0 475724.0 0
393045.0 475036.0 0
398893.0 476899.0 0
403462.0 475698.0 0
93672.4 478520.0 0
98087.9 479437.0 0
104826.0 478400.0 0
108788.0 478855.0 0
112780.0 479333.0 0
116791.0 479840.0 0
121088.0 480773.0 0
132612.0 478462.0 0
136532.0 479104.0 0
140414.0 479732.0 0
150434.0 477651.0 0
154348.0 477786.0 0
158290.0 477813.0 0
162243.0 477784.0 0
188081.0 480209.0 0
192043.0 479984.0 0
195996.0 479745.0 0
199939.0 479496.0 0
203873.0 479239.0 0
207798.0 478978.0 0
211717.0 478723.0 0
215625.0 478469.0 0
219530.0 478225.0 0
223434.0 477996.0 0
227334.0 477776.0 0
231032.0 478881.0 0
234919.0 478707.0 0
238803.0 478498.0 0
242706.0 478180.0 0
246603.0 478276.0 0
253268.0 478702.0 0
256991.0 479485.0 0
260879.0 479210.0 0
264752.0 478786.0 0
268651.0 478707.0 0
272489.0 478056.0 0
276410.0 478164.0 0
280342.0 478300.0 0
284276.0 478501.0 0
288189.0 478776.0 0
292125.0 479017.0 0
296056.0 479283.0 0
299998.0 479527.0 0
303948.0 479766.0 0
307907.0 479996.0 0
311877.0 480217.0 0
337737.0 477779.0 0
341693.0 477806.0 0
345635.0 477779.0 0
349547.0 477639.0 0
359570.0 479747.0 0
363450.0 479142.0 0
367363.0 478513.0 0
378878.0 480753.0 0
383187.0 479854.0 0
387198.0 479337.0 0
391227.0 478853.0 0
395189.0 478393.0 0
401962.0 479380.0 0
406272.0 478490.0 0
102490.0 481637.0 0
106460.0 482071.0 0
110426.0 482489.0 0
126067.0 480661.0 0
129970.0 481281.0 0
134070.0 482079.0 0
137988.0 482745.0 0
144258.0 480341.0 0
148176.0 480817.0 0
152189.0 481058.0 0
156188.0 481121.0 0
160180.0 481124.0 0
164168.0 481077.0 0
168158.0 480993.0 0
172151.0 480878.0 0
176145.0 480747.0 0
180135.0 480587.0 0
184112.0 480412.0 0
202018.0 482765.0 0
205957.0 482513.0 0
209887.0 482257.0 0
213815.0 482017.0 0
217722.0 481768.0 0
221633.0 481532.0 0
225537.0 481320.0 0
229266.0 482371.0 0
233153.0 482227.0 0
237033.0 482044.0 0
240901.0 481804.0 0
244743.0 481577.0 0
249779.0 480502.0 0
254464.0 482531.0 0
262684.0 482693.0 0
266602.0 482244.0 0
270533.0 482130.0 0
274391.0 481566.0 0
278309.0 481645.0 0
282235.0 481785.0 0
286134.0 482106.0 0
290064.0 482296.0 0
293993.0 482574.0 0
297936.0 482805.0 0
315856.0 480427.0 0
319843.0 480622.0 0
323833.0 480764.0 0
327829.0 480889.0 0
331824.0 480992.0 0
335817.0 481071.0 0
339805.0 481114.0 0
343795.0 481116.0 0
347794.0 481054.0 0
351800.0 480807.0 0
355720.0 480340.0 0
361987.0 482781.0 0
365908.0 482117.0 0
370074.0 481259.0 0
373977.0 480676.0 0
389576.0 482482.0 0
393546.0 482073.0 0
397516.0 481636.0 0
96714.4 483150.0 0
100257.0 484978.0 0
114425.0 482938.0 0
118391.0 483502.0 0
123528.0 483704.0 0
127440.0 484255.0 0
131371.0 484830.0 0
135572.0 485713.0 0
141853.0 483432.0 0
145799.0 483953.0 0
149937.0 484270.0 0
154072.0 484416.0 0
158091.0 484452.0 0
162110.0 484437.0 0
166124.0 484373.0 0
170142.0 484271.0 0
174150.0 484151.0 0
178178.0 484008.0 0
182171.0 483861.0 0
186159.0 483682.0 0
190139.0 483471.0 0
194109.0 483247.0 0
198068.0 483010.0 0
215933.0 485340.0 0
219827.0 485076.0 0
223728.0 484870.0 0
246968.0 484699.0 0
250876.0 484226.0 0
258735.0 482933.0 0
276373.0 485076.0 0
280255.0 485107.0 0
284113.0 485497.0 0
301887.0 483037.0 0
305847.0 483261.0 0
309818.0 483476.0 0
313801.0 483682.0 0
317793.0 483883.0 0
321837.0 484051.0 0
325834.0 484164.0 0
329854.0 484274.0 0
333869.0 484363.0 0
337883.0 484427.0 0
341887.0 484448.0 0
345905.0 484416.0 0
350045.0 484268.0 0
354174.0 483948.0 0
358120.0 483427.0 0
364425.0 485741.0 0
368655.0 484817.0 0
372580.0 484258.0 0
376493.0 483727.0 0
381572.0 483502.0 0
385566.0 482940.0 0
399740.0 484980.0 0
403269.0 483126.0 0
104207.0 485351.0 0
108146.0 485732.0 0
112086.0 486099.0 0
116022.0 486551.0 0
120858.0 486655.0 0
124973.0 487304.0 0
128918.0 487832.0 0
132851.0 488378.0 0
139425.0 486581.0 0
143367.0 487061.0 0
147621.0 487439.0 0
151853.0 487654.0 0
155981.0 487776.0 0
160022.0 487788.0 0
164076.0 487751.0 0
168121.0 487666.0 0
172145.0 487558.0 0
176193.0 487418.0 0
180201.0 487299.0 0
184220.0 487150.0 0
188233.0 486958.0 0
192220.0 486748.0 0
196196.0 486526.0 0
200160.0 486291.0 0
204115.0 486051.0 0
208056.0 485804.0 0
211988.0 485548.0 0
227482.0 485847.0 0
231378.0 485746.0 0
235270.0 485590.0 0
239171.0 485388.0 0
243043.0 485124.0 0
253096.0 487407.0 0
256897.0 486430.0 0
260847.0 486238.0 0
264771.0 486038.0 0
268645.0 485625.0 0
272550.0 485515.0 0
288032.0 485615.0 0
291947.0 485902.0 0
295876.0 486111.0 0
299819.0 486331.0 0
303775.0 486549.0 0
307746.0 486757.0 0
311729.0 486956.0 0
315721.0 487152.0 0
319778.0 487320.0 0
323858.0 487470.0 0
327859.0 487562.0 0
331893.0 487662.0 0
335921.0 487738.0 0
339957.0 487787.0 0
343988.0 487778.0 0
348123.0 487655.0 0
352370.0 487433.0 0
356624.0 487049.0 0
360567.0 486550.0 0
367169.0 488376.0 0
371097.0 487832.0 0
375038.0 487316.0 0
379150.0 486679.0 0
383964.0 486545.0 0
387907.0 486093.0 0
391848.0 485735.0 0
395790.0 485358.0 0
99872.9 488954.0 0
103860.0 489320.0 0
107845.0 489694.0 0
111832.0 490030.0 0
115928.0 490402.0 0
120014.0 490552.0 0
136669.0 489536.0 0
140995.0 490246.0 0
145200.0 490535.0 0
182230.0 490602.0 0
186297.0 490435.0 0
190326.0 490247.0 0
194319.0 490042.0 0
198303.0 489821.0 0
202272.0 489586.0 0
206230.0 489357.0 0
210169.0 489111.0 0
214086.0 488845.0 0
217996.0 489204.0 0
221855.0 488443.0 0
225658.0 489303.0 0
229549.0 489247.0 0
233476.0 489140.0 0
237412.0 488939.0 0
241374.0 489028.0 0
245273.0 488315.0 0
249186.0 487845.0 0
259049.0 489786.0 0
262963.0 489579.0 0
266844.0 489433.0 0
270701.0 489003.0 0
274561.0 488998.0 0
278394.0 488516.0 0
282171.0 489462.0 0
286023.0 488974.0 0
289904.0 489254.0 0
293809.0 489445.0 0
297738.0 489650.0 0
301689.0 489862.0 0
305662.0 490059.0 0
309649.0 490251.0 0
313643.0 490435.0 0
317703.0 490596.0 0
354807.0 490518.0 0
359019.0 490218.0 0
363330.0 489560.0 0
379986.0 490569.0 0
384068.0 490400.0 0
388172.0 490021.0 0
392160.0 489698.0 0
396144.0 489326.0 0
400130.0 488955.0 0
101552.0 492582.0 0
105534.0 492948.0 0
123981.0 491035.0 0
127924.0 491519.0 0
131835.0 491997.0 0
149575.0 490863.0 0
153776.0 491047.0 0
157915.0 491136.0 0
161996.0 491117.0 0
166083.0 491061.0 0
170134.0 490969.0 0
174200.0 490835.0 0
178198.0 490726.0 0
207823.0 492971.0 0
211727.0 492742.0 0
215638.0 492445.0 0
223390.0 492473.0 0
227331.0 492930.0 0
231306.0 492785.0 0
235257.0 492707.0 0
239207.0 492470.0 0
246871.0 491882.0 0
251313.0 491066.0 0
255228.0 490655.0 0
269191.0 492648.0 0
276948.0 492195.0 0
284612.0 492652.0 0
292419.0 493148.0 0
321800.0 490747.0 0
325896.0 490886.0 0
329894.0 490966.0 0
333938.0 491056.0 0
337978.0 491117.0 0
342051.0 491143.0 0
346193.0 491050.0 0
350415.0 490854.0 0
368162.0 492006.0 0
372074.0 491526.0 0
376019.0 491046.0 0
394471.0 492953.0 0
398454.0 492585.0 0
109566.0 493295.0 0
113618.0 493587.0 0
117762.0 493857.0 0
121703.0 494193.0 0
125663.0 494642.0 0
129613.0 495118.0 0
135166.0 493999.0 0
139105.0 493741.0 0
143070.0 493840.0 0
147145.0 493971.0 0
151524.0 494296.0 0
155725.0 494438.0 0
159903.0 494481.0 0
164005.0 494445.0 0
168107.0 494379.0 0
172201.0 494259.0 0
176199.0 494163.0 0
180193.0 494058.0 0
184170.0 493970.0 0
188131.0 493871.0 0
192078.0 493740.0 0
196018.0 493576.0 0
199954.0 493387.0 0
203887.0 493172.0 0
219493.0 492895.0 0
243104.0 493077.0 0
249627.0 494636.0 0
253571.0 494280.0 0
257492.0 493837.0 0
261353.0 493188.0 0
265291.0 493129.0 0
273119.0 493049.0 0
280753.0 493166.0 0
288518.0 492950.0 0
296344.0 493342.0 0
300266.0 493536.0 0
304198.0 493698.0 0
308135.0 493854.0 0
312074.0 493995.0 0
316020.0 494097.0 0
319977.0 494172.0 0
323949.0 494239.0 0
327936.0 494313.0 0
331932.0 494379.0 0
335989.0 494460.0 0
340056.0 494492.0 0
344241.0 494446.0 0
348463.0 494287.0 0
352864.0 493948.0 0
356921.0 493833.0 0
360889.0 493723.0 0
364828.0 494002.0 0
370388.0 495126.0 0
374338.0 494651.0 0
378300.0 494200.0 0
382243.0 493862.0 0
386389.0 493580.0 0
390425.0 493295.0 0
99589.3 496337.0 0
103574.0 496434.0 0
107535.0 496726.0 0
111499.0 496916.0 0
115484.0 497109.0 0
119455.0 497433.0 0
123407.0 497789.0 0
127822.0 498539.0 0
132936.0 497337.0 0
137073.0 497433.0 0
141035.0 497250.0 0
145026.0 497310.0 0
149093.0 497425.0 0
153496.0 497724.0 0
157736.0 497807.0 0
161911.0 497830.0 0
166038.0 497774.0 0
170185.0 497682.0 0
174205.0 497605.0 0
178201.0 497511.0 0
182189.0 497425.0 0
186173.0 497339.0 0
190157.0 497232.0 0
194135.0 497092.0 0
198104.0 496925.0 0
202066.0 496727.0 0
206018.0 496502.0 0
209985.0 496389.0 0
213937.0 496024.0 0
217866.0 496614.0 0
221808.0 496091.0 0
225750.0 496610.0 0
229722.0 496418.0 0
234100.0 496533.0 0
238086.0 496292.0 0
242026.0 496920.0 0
245908.0 496027.0 0
251267.0 498170.0 0
255196.0 497867.0 0
259094.0 497423.0 0
262979.0 496820.0 0
266903.0 496801.0 0
270793.0 496271.0 0
274645.0 496977.0 0
278511.0 496391.0 0
282429.0 496826.0 0
286333.0 496244.0 0
290272.0 496607.0 0
294227.0 496691.0 0
298173.0 496904.0 0
302129.0 497060.0 0
306089.0 497210.0 0
310055.0 497353.0 0
314030.0 497468.0 0
318007.0 497551.0 0
321987.0 497617.0 0
325971.0 497681.0 0
329965.0 497747.0 0
333968.0 497801.0 0
338067.0 497859.0 0
342225.0 497818.0 0
346489.0 497717.0 0
350916.0 497399.0 0
354959.0 497300.0 0
358949.0 497246.0 0
362909.0 497430.0 0
367061.0 497339.0 0
372174.0 498551.0 0
376596.0 497796.0 0
380549.0 497438.0 0
384520.0 497111.0 0
388502.0 496913.0 0
392466.0 496719.0 0
396428.0 496441.0 0
400412.0 496337.0 0
101411.0 500203.0 0
105395.0 500162.0 0
109360.0 500275.0 0
113313.0 500449.0 0
117240.0 500699.0 0
134974.0 500804.0 0
143000.0 500725.0 0
146987.0 500788.0 0
151074.0 500880.0 0
195333.0 500851.0 0
199280.0 500706.0 0
203206.0 500528.0 0
207123.0 500290.0 0
211024.0 500536.0 0
214877.0 499865.0 0
218710.0 500616.0 0
222564.0 499947.0 0
226417.0 500580.0 0
230326.0 500341.0 0
234246.0 500526.0 0
238174.0 500273.0 0
245921.0 500010.0 0
261458.0 500569.0 0
265418.0 500544.0 0
269333.0 499973.0 0
273224.0 500694.0 0
277125.0 500113.0 0
281038.0 500646.0 0
284908.0 499951.0 0
288786.0 500608.0 0
292695.0 500349.0 0
296618.0 500568.0 0
300540.0 500687.0 0
304484.0 500813.0 0
348935.0 500853.0 0
352995.0 500779.0 0
356981.0 500718.0 0
365007.0 500800.0 0
382765.0 500703.0 0
386693.0 500449.0 0
390645.0 500271.0 0
394610.0 500162.0 0
398593.0 500203.0 0
121176.0 501017.0 0
125127.0 501352.0 0
130990.0 500949.0 0
139023.0 500892.0 0
155533.0 501123.0 0
159592.0 501273.0 0
163585.0 501367.0 0
167571.0 501367.0 0
171547.0 501340.0 0
175520.0 501283.0 0
179490.0 501207.0 0
183459.0 501134.0 0
187423.0 501057.0 0
191383.0 500969.0 0
242068.0 500911.0 0
249512.0 501684.0 0
253495.0 501460.0 0
257506.0 501092.0 0
308431.0 500934.0 0
312387.0 501031.0 0
316350.0 501106.0 0
320324.0 501167.0 0
324304.0 501228.0 0
328287.0 501285.0 0
332274.0 501328.0 0
336268.0 501343.0 0
340265.0 501236.0 0
344453.0 501118.0 0
360957.0 500887.0 0
368991.0 500942.0 0
374878.0 501358.0 0
378829.0 501023.0 0
101193.0 504196.0 0
105182.0 504156.0 0
109160.0 504253.0 0
113129.0 504416.0 0
117090.0 504663.0 0
121048.0 504948.0 0
125015.0 505258.0 0
129264.0 504554.0 0
133257.0 504405.0 0
137253.0 504462.0 0
141290.0 504326.0 0
145289.0 504397.0 0
149287.0 504441.0 0
153336.0 504455.0 0
157412.0 504619.0 0
161471.0 504747.0 0
165538.0 504788.0 0
169537.0 504777.0 0
173532.0 504734.0 0
177520.0 504670.0 0
181501.0 504596.0 0
185479.0 504529.0 0
189459.0 504444.0 0
193446.0 504357.0 0
197432.0 504220.0 0
201787.0 504251.0 0
205779.0 504028.0 0
209801.0 504330.0 0
214009.0 503813.0 0
218050.0 504533.0 0
222054.0 503884.0 0
226466.0 504563.0 0
230557.0 504312.0 0
234545.0 504504.0 0
238526.0 504249.0 0
242464.0 504869.0 0
246364.0 504097.0 0
250938.0 505364.0 0
255028.0 505117.0 0
258991.0 504787.0 0
262922.0 504251.0 0
266871.0 504386.0 0
270780.0 503820.0 0
274708.0 504405.0 0
278631.0 503817.0 0
282573.0 504340.0 0
286523.0 503888.0 0
290491.0 504238.0 0
294461.0 503923.0 0
298432.0 504188.0 0
302410.0 504195.0 0
306381.0 504322.0 0
310358.0 504419.0 0
314338.0 504506.0 0
318321.0 504566.0 0
322305.0 504627.0 0
326295.0 504684.0 0
330290.0 504733.0 0
334298.0 504759.0 0
338394.0 504720.0 0
342477.0 504564.0 0
346634.0 504458.0 0
350665.0 504441.0 0
354663.0 504402.0 0
358661.0 504334.0 0
362718.0 504461.0 0
366715.0 504405.0 0
370707.0 504553.0 0
374978.0 505265.0 0
378946.0 504954.0 0
382903.0 504667.0 0
386865.0 504416.0 0
390833.0 504250.0 0
394811.0 504157.0 0
398801.0 504196.0 0
102002.0 508151.0 0
106002.0 508125.0 0
110043.0 508144.0 0
114257.0 508233.0 0
118574.0 508358.0 0
134415.0 508235.0 0
138382.0 508293.0 0
142355.0 508224.0 0
146335.0 508283.0 0
150322.0 508301.0 0
154315.0 508334.0 0
158447.0 508456.0 0
174462.0 508563.0 0
178428.0 508507.0 0
182385.0 508438.0 0
186333.0 508386.0 0
190276.0 508304.0 0
194213.0 508246.0 0
198149.0 508113.0 0
202084.0 508229.0 0
206018.0 508000.0 0
209951.0 508316.0 0
213867.0 507803.0 0
221660.0 507844.0 0
229530.0 508156.0 0
233500.0 508354.0 0
237471.0 508102.0 0
245323.0 507948.0 0
261757.0 508059.0 0
265837.0 508244.0 0
269829.0 507930.0 0
273811.0 508294.0 0
277810.0 507939.0 0
281791.0 508259.0 0
285768.0 507946.0 0
289745.0 508173.0 0
293714.0 507937.0 0
297676.0 508169.0 0
301634.0 508082.0 0
305592.0 508210.0 0
309551.0 508289.0 0
313514.0 508376.0 0
317481.0 508425.0 0
321455.0 508487.0 0
325433.0 508539.0 0
341563.0 508435.0 0
345679.0 508341.0 0
349672.0 508309.0 0
353660.0 508283.0 0
357640.0 508224.0 0
361612.0 508299.0 0
365579.0 508238.0 0
381422.0 508362.0 0
385743.0 508234.0 0
389959.0 508143.0 0
393998.0 508125.0 0
397998.0 508151.0 0
122565.0 508596.0 0
126538.0 508877.0 0
130457.0 508378.0 0
162504.0 508566.0 0
166500.0 508613.0 0
170486.0 508604.0 0
217757.0 508499.0 0
225574.0 508449.0 0
241405.0 508703.0 0
249188.0 508949.0 0
253173.0 508635.0 0
257413.0 508452.0 0
329418.0 508586.0 0
333409.0 508606.0 0
337407.0 508557.0 0
369537.0 508383.0 0
373456.0 508884.0 0
377429.0 508601.0 0
101860.0 512151.0 0
105855.0 512125.0 0
109846.0 512131.0 0
113832.0 512193.0 0
117816.0 512269.0 0
121794.0 512482.0 0
125775.0 512736.0 0
129922.0 512360.0 0
133918.0 512235.0 0
137914.0 512260.0 0
141909.0 512223.0 0
145901.0 512267.0 0
149891.0 512277.0 0
153877.0 512311.0 0
157859.0 512392.0 0
161840.0 512475.0 0
165824.0 512509.0 0
169812.0 512500.0 0
173804.0 512460.0 0
177800.0 512412.0 0
181797.0 512349.0 0
185862.0 512318.0 0
189886.0 512240.0 0
193961.0 512211.0 0
197985.0 512082.0 0
202001.0 512215.0 0
206001.0 511990.0 0
210043.0 512294.0 0
214028.0 511959.0 0
218179.0 512441.0 0
222147.0 511957.0 0
226245.0 512373.0 0
230233.0 512079.0 0
234225.0 512278.0 0
238214.0 512033.0 0
242486.0 512532.0 0
246436.0 511932.0 0
250384.0 512758.0 0
254368.0 512408.0 0
258350.0 512336.0 0
262320.0 512008.0 0
266299.0 512214.0 0
270274.0 511905.0 0
274247.0 512262.0 0
278221.0 511918.0 0
282200.0 512234.0 0
286182.0 511935.0 0
290171.0 512149.0 0
294163.0 511948.0 0
298157.0 512140.0 0
302159.0 512024.0 0
306160.0 512147.0 0
310219.0 512197.0 0
314218.0 512281.0 0
318217.0 512317.0 0
322214.0 512376.0 0
326208.0 512423.0 0
330199.0 512469.0 0
334187.0 512488.0 0
338169.0 512454.0 0
342149.0 512373.0 0
346131.0 512315.0 0
350116.0 512282.0 0
354105.0 512267.0 0
358097.0 512223.0 0
362091.0 512264.0 0
366086.0 512236.0 0
370082.0 512363.0 0
374228.0 512740.0 0
378208.0 512484.0 0
382186.0 512271.0 0
386170.0 512194.0 0
390156.0 512130.0 0
394146.0 512125.0 0
398141.0 512151.0 0
102000.0 516148.0 0
106000.0 516122.0 0
110003.0 516121.0 0
114017.0 516171.0 0
118036.0 516246.0 0
190012.0 516201.0 0
194003.0 516190.0 0
197993.0 516062.0 0
201982.0 516203.0 0
205967.0 515983.0 0
213927.0 515957.0 0
221861.0 515947.0 0
229817.0 516045.0 0
237792.0 516010.0 0
245713.0 515873.0 0
261960.0 515986.0 0
265955.0 516195.0 0
269953.0 515963.0 0
277974.0 515966.0 0
285990.0 515970.0 0
289985.0 516143.0 0
293980.0 515972.0 0
297973.0 516135.0 0
301967.0 516003.0 0
305961.0 516124.0 0
309956.0 516158.0 0
313952.0 516245.0 0
317948.0 516273.0 0
381963.0 516248.0 0
385983.0 516172.0 0
389997.0 516121.0 0
394000.0 516122.0 0
398000.0 516148.0 0
122064.0 516437.0 0
126056.0 516664.0 0
130038.0 516356.0 0
134032.0 516233.0 0
138028.0 516252.0 0
142025.0 516222.0 0
146022.0 516265.0 0
150021.0 516274.0 0
154020.0 516308.0 0
158039.0 516369.0 0
162045.0 516439.0 0
166044.0 516463.0 0
170042.0 516453.0 0
174039.0 516411.0 0
178035.0 516366.0 0
182028.0 516303.0 0
186021.0 516281.0 0
209948.0 516274.0 0
217894.0 516399.0 0
225835.0 516335.0 0
233806.0 516248.0 0
241760.0 516448.0 0
249623.0 516679.0 0
253597.0 516298.0 0
257815.0 516296.0 0
273943.0 516241.0 0
281965.0 516221.0 0
321945.0 516335.0 0
325943.0 516380.0 0
329941.0 516427.0 0
333941.0 516444.0 0
337943.0 516420.0 0
341967.0 516353.0 0
345980.0 516311.0 0
349979.0 516277.0 0
353977.0 516265.0 0
357975.0 516222.0 0
361972.0 516256.0 0
365968.0 516234.0 0
369961.0 516359.0 0
373943.0 516668.0 0
377935.0 516439.0 0
101995.0 520148.0 0
105994.0 520122.0 0
109994.0 520116.0 0
113993.0 520155.0 0
117991.0 520227.0 0
121986.0 520402.0 0
125979.0 520605.0 0
129993.0 520352.0 0
133994.0 520232.0 0
137994.0 520246.0 0
141993.0 520222.0 0
145993.0 520264.0 0
149992.0 520273.0 0
153991.0 520306.0 0
157990.0 520352.0 0
161989.0 520411.0 0
165988.0 520427.0 0
169987.0 520418.0 0
173987.0 520375.0 0
177987.0 520332.0 0
181986.0 520268.0 0
185992.0 520252.0 0
189995.0 520169.0 0
193998.0 520172.0 0
198000.0 520047.0 0
202001.0 520193.0 0
206000.0 519979.0 0
210012.0 520255.0 0
214002.0 519975.0 0
218042.0 520366.0 0
222022.0 519974.0 0
226060.0 520312.0 0
230049.0 520028.0 0
234043.0 520232.0 0
238036.0 520004.0 0
242134.0 520412.0 0
246107.0 519963.0 0
250161.0 520635.0 0
254140.0 520232.0 0
258134.0 520279.0 0
262116.0 519979.0 0
266106.0 520187.0 0
270094.0 519960.0 0
274081.0 520230.0 0
278068.0 519965.0 0
282056.0 520213.0 0
286046.0 519969.0 0
290039.0 520140.0 0
294033.0 519971.0 0
298028.0 520133.0 0
302024.0 519992.0 0
306021.0 520111.0 0
310020.0 520132.0 0
314018.0 520220.0 0
318017.0 520242.0 0
322016.0 520306.0 0
326015.0 520349.0 0
330014.0 520396.0 0
334013.0 520411.0 0
338011.0 520395.0 0
342010.0 520338.0 0
346008.0 520309.0 0
350007.0 520275.0 0
354007.0 520264.0 0
358006.0 520222.0 0
362006.0 520250.0 0
366005.0 520233.0 0
370007.0 520354.0 0
374021.0 520609.0 0
378015.0 520404.0 0
382010.0 520229.0 0
386008.0 520156.0 0
390006.0 520115.0 0
394006.0 520122.0 0
398005.0 520148.0 0
198000.0 524036.0 0
206000.0 523976.0 0
214000.0 523975.0 0
221982.0 523974.0 0
229959.0 524018.0 0
245903.0 523959.0 0
261993.0 523975.0 0
269993.0 523974.0 0
277999.0 523974.0 0
286000.0 523975.0 0
294000.0 523975.0 0
302000.0 523985.0 0
102000.0 524147.0 0
106000.0 524122.0 0
110000.0 524111.0 0
114000.0 524141.0 0
118001.0 524209.0 0
122003.0 524370.0 0
126009.0 524551.0 0
130003.0 524346.0 0
134001.0 524231.0 0
138001.0 524241.0 0
142001.0 524222.0 0
146001.0 524264.0 0
150000.0 524272.0 0
154001.0 524304.0 0
158002.0 524336.0 0
162004.0 524386.0 0
166005.0 524395.0 0
170005.0 524387.0 0
174004.0 524343.0 0
178004.0 524303.0 0
182003.0 524238.0 0
186003.0 524228.0 0
190002.0 524143.0 0
194002.0 524157.0 0
202000.0 524185.0 0
209998.0 524238.0 0
217986.0 524337.0 0
225969.0 524295.0 0
233953.0 524223.0 0
237946.0 524003.0 0
241926.0 524389.0 0
249848.0 524614.0 0
253829.0 524196.0 0
257948.0 524269.0 0
265988.0 524181.0 0
273986.0 524220.0 0
281992.0 524205.0 0
289998.0 524137.0 0
298000.0 524131.0 0
305998.0 524101.0 0
309998.0 524110.0 0
313997.0 524200.0 0
317997.0 524216.0 0
321996.0 524281.0 0
325996.0 524321.0 0
329996.0 524368.0 0
333996.0 524383.0 0
337997.0 524373.0 0
341998.0 524324.0 0
345999.0 524306.0 0
350000.0 524274.0 0
353999.0 524264.0 0
357999.0 524222.0 0
361999.0 524243.0 0
365999.0 524231.0 0
369997.0 524349.0 0
373991.0 524554.0 0
377997.0 524371.0 0
381999.0 524210.0 0
386000.0 524141.0 0
390000.0 524111.0 0
394000.0 524122.0 0
398000.0 524147.0 0
102000.0 528147.0 0
106000.0 528121.0 0
110000.0 528108.0 0
114000.0 528129.0 0
118000.0 528191.0 0
122000.0 528340.0 0
125997.0 528501.0 0
130000.0 528339.0 0
134000.0 528229.0 0
138000.0 528235.0 0
142000.0 528222.0 0
146000.0 528263.0 0
150000.0 528271.0 0
153999.0 528300.0 0
157999.0 528322.0 0
161999.0 528364.0 0
165999.0 528368.0 0
169999.0 528360.0 0
173999.0 528315.0 0
177999.0 528277.0 0
181999.0 528212.0 0
186000.0 528207.0 0
190000.0 528120.0 0
194000.0 528146.0 0
198000.0 528026.0 0
202000.0 528177.0 0
206000.0 527975.0 0
210000.0 528222.0 0
214000.0 527975.0 0
218002.0 528311.0 0
222000.0 527975.0 0
226005.0 528278.0 0
230002.0 528010.0 0
234007.0 528215.0 0
238002.0 528002.0 0
242031.0 528370.0 0
246011.0 527973.0 0
250078.0 528598.0 0
254054.0 528168.0 0
258051.0 528263.0 0
262039.0 527973.0 0
266032.0 528176.0 0
270026.0 527973.0 0
274018.0 528211.0 0
278010.0 527974.0 0
282004.0 528197.0 0
286000.0 527975.0 0
290000.0 528135.0 0
294000.0 527975.0 0
298000.0 528130.0 0
302000.0 527981.0 0
306000.0 528093.0 0
310000.0 528092.0 0
314000.0 528183.0 0
318000.0 528193.0 0
322001.0 528259.0 0
326001.0 528297.0 0
330001.0 528344.0 0
334001.0 528357.0 0
338001.0 528353.0 0
342000.0 528312.0 0
346000.0 528302.0 0
350000.0 528272.0 0
354000.0 528263.0 0
358000.0 528222.0 0
362000.0 528238.0 0
366000.0 528229.0 0
370000.0 528341.0 0
374003.0 528504.0 0
378000.0 528341.0 0
382000.0 528192.0 0
386000.0 528129.0 0
390000.0 528108.0 0
394000.0 528121.0 0
398000.0 528147.0 0
102000.0 532146.0 0
106000.0 532121.0 0
110000.0 532105.0 0
114000.0 532118.0 0
118000.0 532175.0 0
122000.0 532313.0 0
126001.0 532455.0 0
130000.0 532330.0 0
134000.0 532227.0 0
138000.0 532230.0 0
142000.0 532222.0 0
146000.0 532262.0 0
150000.0 532269.0 0
154000.0 532296.0 0
158000.0 532309.0 0
162000.0 532345.0 0
166000.0 532344.0 0
170000.0 532336.0 0
174000.0 532291.0 0
178000.0 532256.0 0
182000.0 532189.0 0
186000.0 532190.0 0
190000.0 532102.0 0
194000.0 532135.0 0
198000.0 532018.0 0
202000.0 532170.0 0
206000.0 531975.0 0
210000.0 532208.0 0
214000.0 531975.0 0
218000.0 532288.0 0
222000.0 531975.0 0
225999.0 532263.0 0
230000.0 532003.0 0
233999.0 532207.0 0
238000.0 532001.0 0
241989.0 532354.0 0
245973.0 531973.0 0
249925.0 532586.0 0
253974.0 532148.0 0
257992.0 532257.0 0
262000.0 531975.0 0
265998.0 532171.0 0
270000.0 531975.0 0
273999.0 532202.0 0
278000.0 531975.0 0
282000.0 532189.0 0
286000.0 531975.0 0
290000.0 532132.0 0
294000.0 531975.0 0
298000.0 532128.0 0
302000.0 531978.0 0
306000.0 532088.0 0
310000.0 532077.0 0
314000.0 532168.0 0
318000.0 532172.0 0
322000.0 532240.0 0
326000.0 532276.0 0
330000.0 532323.0 0
334000.0 532335.0 0
338000.0 532335.0 0
342000.0 532301.0 0
346000.0 532298.0 0
350000.0 532270.0 0
354000.0 532262.0 0
358000.0 532222.0 0
362000.0 532232.0 0
366000.0 532227.0 0
370000.0 532332.0 0
373999.0 532458.0 0
378000.0 532314.0 0
382000.0 532176.0 0
386000.0 532118.0 0
390000.0 532105.0 0
394000.0 532121.0 0
398000.0 532146.0 0
102000.0 536145.0 0
106000.0 536121.0 0
110000.0 536103.0 0
114000.0 536110.0 0
118000.0 536160.0 0
122000.0 536288.0 0
126000.0 536414.0 0
130000.0 536321.0 0
134000.0 536224.0 0
138000.0 536226.0 0
142000.0 536221.0 0
146000.0 536261.0 0
150000.0 536266.0 0
154000.0 536292.0 0
158000.0 536298.0 0
162000.0 536327.0 0
166000.0 536323.0 0
170000.0 536315.0 0
174000.0 536270.0 0
178000.0 536237.0 0
182000.0 536170.0 0
186000.0 536175.0 0
190000.0 536086.0 0
194000.0 536126.0 0
198000.0 536010.0 0
202000.0 536163.0 0
206000.0 535975.0 0
210000.0 536195.0 0
214000.0 535975.0 0
218000.0 536266.0 0
222000.0 535975.0 0
226000.0 536248.0 0
230000.0 535997.0 0
234000.0 536199.0 0
238000.0 536000.0 0
242002.0 536338.0 0
246000.0 535975.0 0
250034.0 536574.0 0
254009.0 536130.0 0
258007.0 536251.0 0
262000.0 535975.0 0
266000.0 536167.0 0
270000.0 535975.0 0
274000.0 536193.0 0
278000.0 535975.0 0
282000.0 536182.0 0
286000.0 535975.0 0
290000.0 536128.0 0
294000.0 535975.0 0
298000.0 536126.0 0
302000.0 535977.0 0
306000.0 536083.0 0
310000.0 536064.0 0
314000.0 536156.0 0
318000.0 536155.0 0
322000.0 536223.0 0
326000.0 536257.0 0
330000.0 536304.0 0
334000.0 536315.0 0
338000.0 536319.0 0
342000.0 536290.0 0
346000.0 536293.0 0
350000.0 536268.0 0
354000.0 536261.0 0
358000.0 536221.0 0
362000.0 536227.0 0
366000.0 536224.0 0
370000.0 536323.0 0
374000.0 536416.0 0
378000.0 536289.0 0
382000.0 536160.0 0
386000.0 536110.0 0
390000.0 536103.0 0
394000.0 536121.0 0
398000.0 536145.0 0
102000.0 540144.0 0
106000.0 540120.0 0
110000.0 540101.0 0
114000.0 540103.0 0
118000.0 540146.0 0
122000.0 540266.0 0
126000.0 540378.0 0
130000.0 540311.0 0
134000.0 540221.0 0
138000.0 540221.0 0
142000.0 540221.0 0
146000.0 540259.0 0
150000.0 540264.0 0
154000.0 540287.0 0
158000.0 540287.0 0
162000.0 540312.0 0
166000.0 540304.0 0
170000.0 540297.0 0
174000.0 540251.0 0
178000.0 540220.0 0
182000.0 540153.0 0
186000.0 540163.0 0
190000.0 540074.0 0
194000.0 540118.0 0
198000.0 540003.0 0
202000.0 540157.0 0
206000.0 539975.0 0
210000.0 540184.0 0
214000.0 539975.0 0
218000.0 540247.0 0
222000.0 539975.0 0
226000.0 540234.0 0
230000.0 539991.0 0
234000.0 540192.0 0
238000.0 539999.0 0
242000.0 540323.0 0
246000.0 539975.0 0
249986.0 540563.0 0
253999.0 540114.0 0
258000.0 540245.0 0
262000.0 539975.0 0
266000.0 540162.0 0
270000.0 539975.0 0
274000.0 540184.0 0
278000.0 539975.0 0
282000.0 540175.0 0
286000.0 539975.0 0
290000.0 540125.0 0
294000.0 539975.0 0
298000.0 540124.0 0
302000.0 539976.0 0
306000.0 540080.0 0
310000.0 540053.0 0
314000.0 540146.0 0
318000.0 540140.0 0
322000.0 540208.0 0
326000.0 540240.0 0
330000.0 540288.0 0
334000.0 540297.0 0
338000.0 540305.0 0
342000.0 540281.0 0
346000.0 540288.0 0
350000.0 540265.0 0
354000.0 540259.0 0
358000.0 540221.0 0
362000.0 540223.0 0
366000.0 540221.0 0
370000.0 540312.0 0
374000.0 540379.0 0
378000.0 540267.0 0
382000.0 540147.0 0
386000.0 540103.0 0
390000.0 540102.0 0
394000.0 540120.0 0
398000.0 540144.0 0
102000.0 544143.0 0
106000.0 544119.0 0
110000.0 544100.0 0
114000.0 544098.0 0
118000.0 544134.0 0
122000.0 544247.0 0
126000.0 544346.0 0
130000.0 544300.0 0
134000.0 544218.0 0
138000.0 544218.0 0
142000.0 544220.0 0
146000.0 544258.0 0
150000.0 544261.0 0
154000.0 544282.0 0
158000.0 544277.0 0
162000.0 544299.0 0
166000.0 544288.0 0
170000.0 544281.0 0
174000.0 544235.0 0
178000.0 544206.0 0
182000.0 544139.0 0
186000.0 544152.0 0
190000.0 544063.0 0
194000.0 544110.0 0
198000.0 543998.0 0
202000.0 544151.0 0
206000.0 543975.0 0
210000.0 544173.0 0
214000.0 543975.0 0
218000.0 544230.0 0
222000.0 543975.0 0
226000.0 544221.0 0
230000.0 543987.0 0
234000.0 544185.0 0
238000.0 543997.0 0
242000.0 544308.0 0
246000.0 543975.0 0
250003.0 544552.0 0
254000.0 544100.0 0
258000.0 544239.0 0
262000.0 543975.0 0
266000.0 544157.0 0
270000.0 543975.0 0
274000.0 544176.0 0
278000.0 543975.0 0
282000.0 544168.0 0
286000.0 543975.0 0
290000.0 544123.0 0
294000.0 543975.0 0
298000.0 544122.0 0
302000.0 543976.0 0
306000.0 544078.0 0
310000.0 544045.0 0
314000.0 544137.0 0
318000.0 544127.0 0
322000.0 544196.0 0
326000.0 544226.0 0
330000.0 544273.0 0
334000.0 544282.0 0
338000.0 544293.0 0
342000.0 544273.0 0
346000.0 544283.0 0
350000.0 544262.0 0
354000.0 544258.0 0
358000.0 544220.0 0
362000.0 544219.0 0
366000.0 544218.0 0
370000.0 544301.0 0
374000.0 544347.0 0
378000.0 544248.0 0
382000.0 544135.0 0
386000.0 544098.0 0
390000.0 544100.0 0
394000.0 544119.0 0
398000.0 544143.0 0
102000.0 548142.0 0
106000.0 548119.0 0
110000.0 548099.0 0
114000.0 548094.0 0
118000.0 548124.0 0
122000.0 548231.0 0
126000.0 548318.0 0
130000.0 548290.0 0
134000.0 548214.0 0
138000.0 548215.0 0
142000.0 548220.0 0
146000.0 548257.0 0
150000.0 548258.0 0
154000.0 548277.0 0
158000.0 548269.0 0
162000.0 548287.0 0
166000.0 548273.0 0
170000.0 548267.0 0
174000.0 548220.0 0
178000.0 548193.0 0
182000.0 548126.0 0
186000.0 548143.0 0
190000.0 548054.0 0
194000.0 548104.0 0
198000.0 547993.0 0
202000.0 548145.0 0
206000.0 547975.0 0
210000.0 548163.0 0
214000.0 547975.0 0
218000.0 548214.0 0
222000.0 547975.0 0
226000.0 548209.0 0
230000.0 547984.0 0
234000.0 548178.0 0
238000.0 547996.0 0
242000.0 548295.0 0
246000.0 547975.0 0
249999.0 548541.0 0
254000.0 548087.0 0
258000.0 548233.0 0
262000.0 547975.0 0
266000.0 548153.0 0
270000.0 547975.0 0
274000.0 548169.0 0
278000.0 547975.0 0
282000.0 548161.0 0
286000.0 547975.0 0
290000.0 548120.0 0
294000.0 547975.0 0
298000.0 548120.0 0
302000.0 547975.0 0
306000.0 548076.0 0
310000.0 548038.0 0
314000.0 548130.0 0
318000.0 548116.0 0
322000.0 548184.0 0
326000.0 548212.0 0
330000.0 548260.0 0
334000.0 548268.0 0
338000.0 548281.0 0
342000.0 548265.0 0
346000.0 548278.0 0
350000.0 548259.0 0
354000.0 548257.0 0
358000.0 548220.0 0
362000.0 548215.0 0
366000.0 548214.0 0
370000.0 548291.0 0
374000.0 548319.0 0
378000.0 548231.0 0
382000.0 548125.0 0
386000.0 548094.0 0
390000.0 548099.0 0
394000.0 548119.0 0
398000.0 548143.0 0
102000.0 552142.0 0
106000.0 552118.0 0
110000.0 552097.0 0
114000.0 552091.0 0
118000.0 552116.0 0
122000.0 552216.0 0
126000.0 552293.0 0
130000.0 552279.0 0
134000.0 552211.0 0
138000.0 552212.0 0
142000.0 552219.0 0
146000.0 552255.0 0
150000.0 552255.0 0
154000.0 552272.0 0
158000.0 552261.0 0
162000.0 552276.0 0
166000.0 552261.0 0
170000.0 552254.0 0
174000.0 552207.0 0
178000.0 552182.0 0
182000.0 552115.0 0
186000.0 552135.0 0
190000.0 552046.0 0
194000.0 552098.0 0
198000.0 551989.0 0
202000.0 552140.0 0
206000.0 551975.0 0
210000.0 552155.0 0
214000.0 551975.0 0
218000.0 552200.0 0
222000.0 551975.0 0
226000.0 552198.0 0
230000.0 551981.0 0
234000.0 552171.0 0
238000.0 551994.0 0
242000.0 552282.0 0
246000.0 551975.0 0
250000.0 552531.0 0
254000.0 552075.0 0
258000.0 552228.0 0
262000.0 551975.0 0
266000.0 552149.0 0
270000.0 551975.0 0
274000.0 552162.0 0
278000.0 551975.0 0
282000.0 552155.0 0
286000.0 551975.0 0
290000.0 552117.0 0
294000.0 551975.0 0
298000.0 552117.0 0
302000.0 551975.0 0
306000.0 552074.0 0
310000.0 552032.0 0
314000.0 552123.0 0
318000.0 552106.0 0
322000.0 552174.0 0
326000.0 552200.0 0
330000.0 552248.0 0
334000.0 552256.0 0
338000.0 552271.0 0
342000.0 552257.0 0
346000.0 552273.0 0
350000.0 552256.0 0
354000.0 552255.0 0
358000.0 552219.0 0
362000.0 552212.0 0
366000.0 552211.0 0
370000.0 552280.0 0
374000.0 552294.0 0
378000.0 552217.0 0
382000.0 552116.0 0
386000.0 552091.0 0
390000.0 552098.0 0
394000.0 552118.0 0
398000.0 552142.0 0
102000.0 556141.0 0
106000.0 556118.0 0
110000.0 556096.0 0
114000.0 556089.0 0
118000.0 556109.0 0
122000.0 556204.0 0
126000.0 556273.0 0
130000.0 556269.0 0
134000.0 556207.0 0
138000.0 556210.0 0
142000.0 556219.0 0
146000.0 556254.0 0
150000.0 556252.0 0
154000.0 556267.0 0
158000.0 556254.0 0
162000.0 556266.0 0
166000.0 556249.0 0
170000.0 556243.0 0
174000.0 556196.0 0
178000.0 556172.0 0
182000.0 556105.0 0
186000.0 556128.0 0
190000.0 556039.0 0
194000.0 556093.0 0
198000.0 555986.0 0
202000.0 556135.0 0
206000.0 555975.0 0
210000.0 556147.0 0
214000.0 555975.0 0
218000.0 556188.0 0
222000.0 555975.0 0
226000.0 556188.0 0
230000.0 555979.0 0
234000.0 556165.0 0
238000.0 555993.0 0
242000.0 556271.0 0
246000.0 555975.0 0
250000.0 556521.0 0
254000.0 556064.0 0
258000.0 556222.0 0
262000.0 555975.0 0
266000.0 556145.0 0
270000.0 555975.0 0
274000.0 556156.0 0
278000.0 555975.0 0
282000.0 556149.0 0
286000.0 555975.0 0
290000.0 556114.0 0
294000.0 555975.0 0
298000.0 556116.0 0
302000.0 555975.0 0
306000.0 556073.0 0
310000.0 556026.0 0
314000.0 556118.0 0
318000.0 556097.0 0
322000.0 556165.0 0
326000.0 556190.0 0
330000.0 556238.0 0
334000.0 556245.0 0
338000.0 556262.0 0
342000.0 556251.0 0
346000.0 556268.0 0
350000.0 556253.0 0
354000.0 556254.0 0
358000.0 556219.0 0
362000.0 556210.0 0
366000.0 556207.0 0
370000.0 556270.0 0
374000.0 556273.0 0
378000.0 556204.0 0
382000.0 556109.0 0
386000.0 556089.0 0
390000.0 556096.0 0
394000.0 556118.0 0
398000.0 556141.0 0
102000.0 560140.0 0
106000.0 560117.0 0
110000.0 560095.0 0
114000.0 560088.0 0
118000.0 560103.0 0
122000.0 560194.0 0
126000.0 560255.0 0
130000.0 560260.0 0
134000.0 560204.0 0
138000.0 560208.0 0
142000.0 560218.0 0
146000.0 560252.0 0
150000.0 560250.0 0
154000.0 560262.0 0
158000.0 560247.0 0
162000.0 560258.0 0
166000.0 560239.0 0
170000.0 560233.0 0
174000.0 560186.0 0
178000.0 560164.0 0
182000.0 560097.0 0
186000.0 560122.0 0
190000.0 560033.0 0
194000.0 560089.0 0
198000.0 559983.0 0
202000.0 560131.0 0
206000.0 559975.0 0
210000.0 560141.0 0
214000.0 559975.0 0
218000.0 560178.0 0
222000.0 559975.0 0
226000.0 560178.0 0
230000.0 559978.0 0
234000.0 560159.0 0
238000.0 559991.0 0
242000.0 560260.0 0
246000.0 559975.0 0
254000.0 560055.0 0
258000.0 560217.0 0
262000.0 559975.0 0
266000.0 560141.0 0
270000.0 559975.0 0
274000.0 560150.0 0
278000.0 559975.0 0
282000.0 560144.0 0
286000.0 559975.0 0
290000.0 560112.0 0
294000.0 559975.0 0
298000.0 560114.0 0
302000.0 559975.0 0
306000.0 560072.0 0
310000.0 560022.0 0
314000.0 560113.0 0
318000.0 560090.0 0
322000.0 560157.0 0
326000.0 560180.0 0
330000.0 560228.0 0
334000.0 560236.0 0
338000.0 560254.0 0
342000.0 560245.0 0
346000.0 560263.0 0
350000.0 560250.0 0
354000.0 560252.0 0
358000.0 560218.0 0
362000.0 560208.0 0
366000.0 560204.0 0
370000.0 560260.0 0
374000.0 560256.0 0
378000.0 560194.0 0
382000.0 560103.0 0
386000.0 560088.0 0
390000.0 560095.0 0
394000.0 560117.0 0
398000.0 560140.0 0
250000.0 560511.0 0
102000.0 564139.0 0
106000.0 564117.0 0
110000.0 564094.0 0
114000.0 564087.0 0
118000.0 564098.0 0
122000.0 564185.0 0
126000.0 564240.0 0
130000.0 564251.0 0
134000.0 564201.0 0
138000.0 564206.0 0
142000.0 564218.0 0
146000.0 564251.0 0
150000.0 564247.0 0
154000.0 564258.0 0
158000.0 564241.0 0
162000.0 564250.0 0
166000.0 564230.0 0
170000.0 564224.0 0
174000.0 564176.0 0
178000.0 564156.0 0
182000.0 564090.0 0
186000.0 564117.0 0
190000.0 564028.0 0
194000.0 564086.0 0
198000.0 563981.0 0
202000.0 564127.0 0
206000.0 563975.0 0
210000.0 564135.0 0
214000.0 563975.0 0
218000.0 564169.0 0
222000.0 563975.0 0
226000.0 564170.0 0
230000.0 563977.0 0
234000.0 564154.0 0
238000.0 563990.0 0
242000.0 564250.0 0
246000.0 563975.0 0
250000.0 564502.0 0
254000.0 564046.0 0
258000.0 564212.0 0
262000.0 563975.0 0
266000.0 564137.0 0
270000.0 563975.0 0
274000.0 564145.0 0
278000.0 563975.0 0
282000.0 564139.0 0
286000.0 563975.0 0
290000.0 564110.0 0
294000.0 563975.0 0
298000.0 564112.0 0
302000.0 563975.0 0
306000.0 564071.0 0
310000.0 564018.0 0
314000.0 564109.0 0
318000.0 564083.0 0
322000.0 564151.0 0
326000.0 564172.0 0
330000.0 564220.0 0
334000.0 564227.0 0
338000.0 564247.0 0
342000.0 564240.0 0
346000.0 564259.0 0
350000.0 564248.0 0
354000.0 564251.0 0
358000.0 564218.0 0
362000.0 564206.0 0
366000.0 564201.0 0
370000.0 564252.0 0
374000.0 564241.0 0
378000.0 564186.0 0
382000.0 564099.0 0
386000.0 564087.0 0
390000.0 564094.0 0
394000.0 564117.0 0
398000.0 564139.0 0
102000.0 568138.0 0
106000.0 568116.0 0
110000.0 568093.0 0
114000.0 568086.0 0
118000.0 568095.0 0
122000.0 568178.0 0
126000.0 568228.0 0
130000.0 568243.0 0
134000.0 568198.0 0
138000.0 568204.0 0
142000.0 568217.0 0
146000.0 568250.0 0
150000.0 568245.0 0
154000.0 568254.0 0
158000.0 568236.0 0
162000.0 568244.0 0
166000.0 568223.0 0
170000.0 568216.0 0
174000.0 568169.0 0
178000.0 568149.0 0
182000.0 568083.0 0
186000.0 568112.0 0
190000.0 568024.0 0
194000.0 568083.0 0
198000.0 567980.0 0
202000.0 568124.0 0
206000.0 567975.0 0
210000.0 568130.0 0
214000.0 567975.0 0
218000.0 568161.0 0
222000.0 567975.0 0
226000.0 568163.0 0
230000.0 567976.0 0
234000.0 568150.0 0
238000.0 567988.0 0
242000.0 568242.0 0
246000.0 567975.0 0
254000.0 568039.0 0
258000.0 568207.0 0
262000.0 567975.0 0
266000.0 568134.0 0
270000.0 567975.0 0
274000.0 568140.0 0
278000.0 567975.0 0
282000.0 568135.0 0
286000.0 567975.0 0
290000.0 568108.0 0
294000.0 567975.0 0
298000.0 568110.0 0
302000.0 567975.0 0
306000.0 568070.0 0
310000.0 568015.0 0
314000.0 568105.0 0
318000.0 568078.0 0
322000.0 568145.0 0
326000.0 568165.0 0
330000.0 568213.0 0
334000.0 568220.0 0
338000.0 568241.0 0
342000.0 568235.0 0
346000.0 568255.0 0
350000.0 568245.0 0
354000.0 568250.0 0
358000.0 568217.0 0
362000.0 568205.0 0
366000.0 568198.0 0
370000.0 568244.0 0
374000.0 568229.0 0
378000.0 568179.0 0
382000.0 568095.0 0
386000.0 568086.0 0
390000.0 568093.0 0
394000.0 568116.0 0
398000.0 568138.0 0
250000.0 568494.0 0
102000.0 572137.0 0
106000.0 572116.0 0
110000.0 572092.0 0
114000.0 572086.0 0
118000.0 572092.0 0
122000.0 572173.0 0
126000.0 572218.0 0
130000.0 572236.0 0
134000.0 572195.0 0
138000.0 572203.0 0
142000.0 572217.0 0
146000.0 572249.0 0
150000.0 572242.0 0
154000.0 572251.0 0
158000.0 572232.0 0
162000.0 572238.0 0
166000.0 572216.0 0
170000.0 572209.0 0
174000.0 572162.0 0
178000.0 572144.0 0
182000.0 572078.0 0
186000.0 572108.0 0
190000.0 572020.0 0
194000.0 572080.0 0
198000.0 571978.0 0
202000.0 572121.0 0
206000.0 571975.0 0
210000.0 572125.0 0
214000.0 571975.0 0
218000.0 572154.0 0
222000.0 571975.0 0
226000.0 572157.0 0
230000.0 571976.0 0
234000.0 572146.0 0
238000.0 571987.0 0
242000.0 572234.0 0
246000.0 571975.0 0
250000.0 572486.0 0
254000.0 572033.0 0
258000.0 572203.0 0
262000.0 571975.0 0
266000.0 572131.0 0
270000.0 571975.0 0
274000.0 572136.0 0
278000.0 571975.0 0
282000.0 572132.0 0
286000.0 571975.0 0
290000.0 572106.0 0
294000.0 571975.0 0
298000.0 572109.0 0
302000.0 571975.0 0
306000.0 572069.0 0
310000.0 572012.0 0
314000.0 572102.0 0
318000.0 572073.0 0
322000.0 572139.0 0
326000.0 572158.0 0
330000.0 572207.0 0
334000.0 572214.0 0
338000.0 572236.0 0
342000.0 572231.0 0
346000.0 572251.0 0
350000.0 572243.0 0
354000.0 572249.0 0
358000.0 572217.0 0
362000.0 572203.0 0
366000.0 572195.0 0
370000.0 572237.0 0
374000.0 572219.0 0
378000.0 572173.0 0
382000.0 572092.0 0
386000.0 572086.0 0
390000.0 572092.0 0
394000.0 572116.0 0
398000.0 572137.0 0
110000.0 576092.0 0
114000.0 576085.0 0
118000.0 576089.0 0
182000.0 576074.0 0
186000.0 576105.0 0
190000.0 576017.0 0
194000.0 576078.0 0
198000.0 575977.0 0
206000.0 575975.0 0
214000.0 575975.0 0
222000.0 575975.0 0
230000.0 575975.0 0
238000.0 575986.0 0
246000.0 575975.0 0
254000.0 576028.0 0
262000.0 575975.0 0
270000.0 575975.0 0
278000.0 575975.0 0
286000.0 575975.0 0
294000.0 575975.0 0
302000.0 575975.0 0
306000.0 576068.0 0
310000.0 576010.0 0
314000.0 576099.0 0
318000.0 576069.0 0
382000.0 576089.0 0
386000.0 576085.0 0
390000.0 576092.0 0
102000.0 576137.0 0
106000.0 576115.0 0
122000.0 576168.0 0
126000.0 576211.0 0
130000.0 576231.0 0
134000.0 576193.0 0
138000.0 576202.0 0
142000.0 576217.0 0
146000.0 576248.0 0
150000.0 576241.0 0
154000.0 576248.0 0
158000.0 576228.0 0
162000.0 576234.0 0
166000.0 576211.0 0
170000.0 576204.0 0
174000.0 576156.0 0
178000.0 576139.0 0
202000.0 576118.0 0
210000.0 576122.0 0
218000.0 576149.0 0
226000.0 576152.0 0
234000.0 576142.0 0
242000.0 576228.0 0
250000.0 576480.0 0
258000.0 576199.0 0
266000.0 576129.0 0
274000.0 576133.0 0
282000.0 576129.0 0
290000.0 576105.0 0
298000.0 576108.0 0
322000.0 576135.0 0
326000.0 576153.0 0
330000.0 576201.0 0
334000.0 576208.0 0
338000.0 576231.0 0
342000.0 576228.0 0
346000.0 576249.0 0
350000.0 576241.0 0
354000.0 576248.0 0
358000.0 576217.0 0
362000.0 576202.0 0
366000.0 576193.0 0
370000.0 576231.0 0
374000.0 576211.0 0
378000.0 576169.0 0
394000.0 576115.0 0
398000.0 576137.0 0
102000.0 580136.0 0
106000.0 580115.0 0
110000.0 580091.0 0
114000.0 580085.0 0
118000.0 580088.0 0
122000.0 580165.0 0
126000.0 580205.0 0
130000.0 580226.0 0
134000.0 580191.0 0
138000.0 580202.0 0
142000.0 580216.0 0
146000.0 580247.0 0
150000.0 580239.0 0
154000.0 580246.0 0
158000.0 580226.0 0
162000.0 580230.0 0
166000.0 580206.0 0
170000.0 580199.0 0
174000.0 580152.0 0
178000.0 580135.0 0
182000.0 580070.0 0
186000.0 580102.0 0
190000.0 580014.0 0
194000.0 580077.0 0
198000.0 579977.0 0
202000.0 580116.0 0
206000.0 579975.0 0
210000.0 580119.0 0
214000.0 579975.0 0
218000.0 580145.0 0
222000.0 579975.0 0
226000.0 580147.0 0
230000.0 579975.0 0
234000.0 580140.0 0
238000.0 579985.0 0
242000.0 580223.0 0
246000.0 579975.0 0
250000.0 580475.0 0
254000.0 580024.0 0
258000.0 580197.0 0
262000.0 579975.0 0
266000.0 580127.0 0
270000.0 579975.0 0
274000.0 580130.0 0
278000.0 579975.0 0
282000.0 580126.0 0
286000.0 579975.0 0
290000.0 580103.0 0
294000.0 579975.0 0
298000.0 580107.0 0
302000.0 579975.0 0
306000.0 580068.0 0
310000.0 580009.0 0
314000.0 580097.0 0
318000.0 580066.0 0
322000.0 580132.0 0
326000.0 580149.0 0
330000.0 580197.0 0
334000.0 580204.0 0
338000.0 580228.0 0
342000.0 580225.0 0
346000.0 580246.0 0
350000.0 580240.0 0
354000.0 580247.0 0
358000.0 580216.0 0
362000.0 580202.0 0
366000.0 580191.0 0
370000.0 580226.0 0
374000.0 580205.0 0
378000.0 580165.0 0
382000.0 580088.0 0
386000.0 580085.0 0
390000.0 580091.0 0
394000.0 580115.0 0
398000.0 580136.0 0
102000.0 584136.0 0
106000.0 584115.0 0
110000.0 584090.0 0
114000.0 584085.0 0
118000.0 584086.0 0
122000.0 584163.0 0
126000.0 584200.0 0
130000.0 584222.0 0
134000.0 584189.0 0
138000.0 584201.0 0
142000.0 584216.0 0
146000.0 584246.0 0
150000.0 584238.0 0
154000.0 584244.0 0
158000.0 584223.0 0
162000.0 584227.0 0
166000.0 584203.0 0
170000.0 584196.0 0
174000.0 584148.0 0
178000.0 584132.0 0
182000.0 584067.0 0
186000.0 584100.0 0
190000.0 584013.0 0
194000.0 584076.0 0
198000.0 583976.0 0
202000.0 584115.0 0
206000.0 583975.0 0
210000.0 584117.0 0
214000.0 583975.0 0
218000.0 584141.0 0
222000.0 583975.0 0
226000.0 584144.0 0
230000.0 583975.0 0
234000.0 584138.0 0
238000.0 583984.0 0
242000.0 584219.0 0
246000.0 583975.0 0
250000.0 584471.0 0
254000.0 584021.0 0
258000.0 584194.0 0
262000.0 583975.0 0
266000.0 584125.0 0
270000.0 583975.0 0
274000.0 584128.0 0
278000.0 583975.0 0
282000.0 584125.0 0
286000.0 583975.0 0
290000.0 584102.0 0
294000.0 583975.0 0
298000.0 584106.0 0
302000.0 583975.0 0
306000.0 584068.0 0
310000.0 584007.0 0
314000.0 584096.0 0
318000.0 584064.0 0
322000.0 584129.0 0
326000.0 584146.0 0
330000.0 584194.0 0
334000.0 584201.0 0
338000.0 584225.0 0
342000.0 584223.0 0
346000.0 584244.0 0
350000.0 584238.0 0
354000.0 584246.0 0
358000.0 584216.0 0
362000.0 584201.0 0
366000.0 584189.0 0
370000.0 584223.0 0
374000.0 584200.0 0
378000.0 584163.0 0
382000.0 584087.0 0
386000.0 584085.0 0
390000.0 584091.0 0
394000.0 584115.0 0
398000.0 584136.0 0
102000.0 588135.0 0
106000.0 588114.0 0
110000.0 588090.0 0
114000.0 588085.0 0
118000.0 588086.0 0
122000.0 588161.0 0
126000.0 588197.0 0
130000.0 588220.0 0
134000.0 588188.0 0
138000.0 588201.0 0
142000.0 588216.0 0
146000.0 588246.0 0
150000.0 588237.0 0
154000.0 588243.0 0
158000.0 588222.0 0
162000.0 588225.0 0
166000.0 588201.0 0
170000.0 588194.0 0
174000.0 588146.0 0
178000.0 588131.0 0
182000.0 588066.0 0
186000.0 588099.0 0
190000.0 588011.0 0
194000.0 588075.0 0
198000.0 587976.0 0
202000.0 588114.0 0
206000.0 587975.0 0
210000.0 588116.0 0
214000.0 587975.0 0
218000.0 588139.0 0
222000.0 587975.0 0
226000.0 588142.0 0
230000.0 587975.0 0
234000.0 588136.0 0
238000.0 587984.0 0
242000.0 588217.0 0
246000.0 587975.0 0
250000.0 588468.0 0
254000.0 588019.0 0
258000.0 588193.0 0
262000.0 587975.0 0
266000.0 588124.0 0
270000.0 587975.0 0
274000.0 588126.0 0
278000.0 587975.0 0
282000.0 588123.0 0
286000.0 587975.0 0
290000.0 588102.0 0
294000.0 587975.0 0
298000.0 588105.0 0
302000.0 587975.0 0
306000.0 588068.0 0
310000.0 588006.0 0
314000.0 588095.0 0
318000.0 588062.0 0
322000.0 588127.0 0
326000.0 588144.0 0
330000.0 588192.0 0
334000.0 588199.0 0
338000.0 588224.0 0
342000.0 588221.0 0
346000.0 588243.0 0
350000.0 588238.0 0
354000.0 588246.0 0
358000.0 588216.0 0
362000.0 588201.0 0
366000.0 588188.0 0
370000.0 588220.0 0
374000.0 588198.0 0
378000.0 588161.0 0
382000.0 588086.0 0
386000.0 588085.0 0
390000.0 588090.0 0
394000.0 588114.0 0
398000.0 588135.0 0
102000.0 592135.0 0
106000.0 592114.0 0
110000.0 592090.0 0
114000.0 592085.0 0
118000.0 592085.0 0
122000.0 592160.0 0
126000.0 592196.0 0
130000.0 592219.0 0
134000.0 592188.0 0
138000.0 592201.0 0
142000.0 592216.0 0
146000.0 592246.0 0
150000.0 592237.0 0
154000.0 592242.0 0
158000.0 592221.0 0
162000.0 592224.0 0
166000.0 592200.0 0
170000.0 592193.0 0
174000.0 592145.0 0
178000.0 592130.0 0
182000.0 592065.0 0
186000.0 592098.0 0
190000.0 592011.0 0
194000.0 592074.0 0
198000.0 591976.0 0
202000.0 592113.0 0
206000.0 591975.0 0
210000.0 592115.0 0
214000.0 591975.0 0
218000.0 592138.0 0
222000.0 591975.0 0
226000.0 592141.0 0
230000.0 591975.0 0
234000.0 592136.0 0
238000.0 591984.0 0
242000.0 592215.0 0
246000.0 591975.0 0
250000.0 592467.0 0
254000.0 592018.0 0
258000.0 592192.0 0
262000.0 591975.0 0
266000.0 592124.0 0
270000.0 591975.0 0
274000.0 592126.0 0
278000.0 591975.0 0
282000.0 592123.0 0
286000.0 591975.0 0
290000.0 592102.0 0
294000.0 591975.0 0
298000.0 592105.0 0
302000.0 591975.0 0
306000.0 592067.0 0
310000.0 592006.0 0
314000.0 592094.0 0
318000.0 592061.0 0
322000.0 592127.0 0
326000.0 592142.0 0
330000.0 592191.0 0
334000.0 592198.0 0
338000.0 592223.0 0
342000.0 592221.0 0
346000.0 592243.0 0
350000.0 592237.0 0
354000.0 592246.0 0
358000.0 592216.0 0
362000.0 592201.0 0
366000.0 592188.0 0
370000.0 592219.0 0
374000.0 592196.0 0
378000.0 592160.0 0
382000.0 592085.0 0
386000.0 592085.0 0
390000.0 592090.0 0
394000.0 592114.0 0
398000.0 592135.0 0
POINT_DATA 4650
SCALARS Radius float 1
LOOKUP_TABLE default
4000.0 4000.0 4000.0 4000.0 4000.0 4000.0 4000.0 4000.0 4000.0 4000.0 4000.0 4000.0 4000.0 4000.0 4000.0 4000.0 4000.0 4000.0 4000.0 4000.0 4000.0 4000.0 4000.0 4000.0 4000.0 4000.0 4000.0 4000.0 4000.0 4000.0 4000.0 4000.0 4000.0 4000.0 4000.0 4000.0 4000.0 4000.0 4000.0 4000.0 4000.0 4000.0 4000.0 4000.0 4000.0 4000.0 4000.0 4000.0 4000.0 4000.0 4000.0 4000.0 4000.0 4000.0 4000.0 4000.0 4000.0 4000.0 4000.0 4000.0 4000.0 4000.0 4000.0 4000.0 4000.0 4000.0 4000.0 4000.0 4000.0 4000.0 4000.0 4000.0 4000.0 4000.0 4000.0 4000.0 4000.0 4000.0 4000.0 4000.0 4000.0 4000.0 4000.0 4000.0 4000.0 4000.0 4000.0 4000.0 4000.0 4000.0 4000.0 4000.0 4000.0 4000.0 4000.0 4000.0 4000.0 4000.0 4000.0 4000.0 4000.0 4000.0 4000.0 4000.0 4000.0 4000.0 4000.0 4000.0 4000.0 4000.0 4000.0 4000.0 4000.0 4000.0 4000.0 4000.0 4000.0 4000.0 4000.0 4000.0 4000.0 4000.0 4000.0 4000.0 4000.0 4000.0 4000.0 4000.0 4000.0 4000.0 4000.0 4000.0 4000.0 4000.0 4000.0 4000.0 4000.0 4000.0 4000.0 4000.0 4000.0 4000.0 4000.0 4000.0 4000.0 4000.0 4000.0 4000.0 4000.0 4000.0 4000.0 4000.0 4000.0 4000.0 4000.0 4000.0 4000.0 4000.0 4000.0 4000.0 4000.0 4000.0 4000.0 4000.0 4000.0 4000.0 4000.0 4000.0 4000.0 4000.0 4000.0 4000.0 4000.0 4000.0 4000.0 4000.0 4000.0 4000.0 4000.0 4000.0 4000.0 4000.0 4000.0 4000.0 4000.0 4000.0 4000.0 4000.0 4000.0 4000.0 4000.0 4000.0 4000.0 4000.0 4000.0 4000.0 4000.0 4000.0 4000.0 4000.0 4000.0 4000.0 4000.0 4000.0 4000.0 4000.0 4000.0 4000.0 4000.0 4000.0 4000.0 4000.0 4000.0 4000.0 4000.0 4000.0 4000.0 4000.0 4000.0 4000.0 4000.0 4000.0 4000.0 4000.0 4000.0 4000.0 4000.0 4000.0 4000.0 4000.0 4000.0 4000.0 4000.0 4000.0 4000.0 4000.0 4000.0 4000.0 4000.0 4000.0 4000.0 4000.0 4000.0 4000.0 4000.0 4000.0 4000.0 4000.0 4000.0 4000.0 4000.0 4000.0 4000.0 4000.0 4000.0 4000.0 4000.0 4000.0 4000.0 4000.0 4000.0 4000.0 4000.0 4000.0 4000.0 4000.0 4000.0 4000.0 4000.0 4000.0 4000.0 4000.0 4000.0 4000.0 4000.0 4000.0 4000.0 4000.0 4000.0 4000.0 4000.0 4000.0 4000.0 4000.0 4000.0 4000.0 4000.0 4000.0 4000.0 4000.0 4000.0 4000.0 4000.0 4000.0 4000.0 4000.0 4000.0 4000.0 4000.0 4000.0 4000.0 4000.0 4000.0 4000.0 4000.0 4000.0 4000.0 4000.0 4000.0 4000.0 4000.0 4000.0 4000.0 4000.0 4000.0 4000.0 4000.0 4000.0 4000.0 4000.0 4000.0 4000.0 4000.0 4000.0 4000.0 4000.0 4000.0 4000.0 4000.0 4000.0 4000.0 4000.0 4000.0 4000.0 4000.0 4000.0 4000.0 4000.0 4000.0 4000.0 4000.0 4000.0 4000.0 4000.0 4000.0 4000.0 4000.0 4000.0 4000.0 4000.0 4000.0 4000.0 4000.0 4000.0 4000.0 4000.0 4000.0 4000.0 4000.0 4000.0 4000.0 4000.0 4000.0 4000.0 4000.0 4000.0 4000.0 4000.0 4000.0 4000.0 4000.0 4000.0 4000.0 4000.0 4000.0 4000.0 4000.0 4000.0 4000.0 4000.0 4000.0 4000.0 4000.0 4000.0 4000.0 4000.0 4000.0 4000.0 4000.0 4000.0 4000.0 4000.0 4000.0 4000.0 4000.0 4000.0 4000.0 4000.0 4000.0 4000.0 4000.0 4000.0 4000.0 4000.0 4000.0 4000.0 4000.0 4000.0 4000.0 4000.0 4000.0 4000.0 4000.0 4000.0 4000.0 4000.0 4000.0 4000.0 4000.0 4000.0 4000.0 4000.0 4000.0 4000.0 4000.0 4000.0 4000.0 4000.0 4000.0 4000.0 4000.0 4000.0 4000.0 4000.0 4000.0 4000.0 4000.0 4000.0 4000.0 4000.0 4000.0 4000.0 4000.0 4000.0 4000.0 4000.0 4000.0 4000.0 4000.0 4000.0 4000.0 4000.0 4000.0 4000.0 4000.0 4000.0 4000.0 4000.0 4000.0 4000.0 4000.0 4000.0 4000.0 4000.0 4000.0 4000.0 4000.0 4000.0 4000.0 4000.0 4000.0 4000.0 4000.0 4000.0 4000.0 4000.0 4000.0 4000.0 4000.0 4000.0 4000.0 4000.0 4000.0 4000.0 4000.0 4000.0 4000.0 4000.0 4000.0 4000.0 4000.0 4000.0 4000.0 4000.0 4000.0 4000.0 4000.0 4000.0 4000.0 4000.0 4000.0 4000.0 4000.0 4000.0 4000.0 4000.0 4000.0 4000.0 4000.0 4000.0 4000.0 4000.0 4000.0 4000.0 4000.0 4000.0 4000.0 4000.0 4000.0 4000.0 4000.0 4000.0 4000.0 4000.0 4000.0 4000.0 4000.0 4000.0 4000.0 4000.0 4000.0 4000.0 4000.0 4000.0 4000.0 4000.0 4000.0 4000.0 4000.0 4000.0 4000.0 4000.0 4000.0 4000.0 4000.0 4000.0 4000.0 4000.0 4000.0 4000.0 4000.0 4000.0 4000.0 4000.0 4000.0 4000.0 4000.0 4000.0 4000.0 4000.0 4000.0 4000.0 4000.0 4000.0 4000.0 4000.0 4000.0 4000.0 4000.0 4000.0 4000.0 4000.0 4000.0 4000.0 4000.0 4000.0 4000.0 4000.0 4000.0 4000.0 4000.0 4000.0 4000.0 4000.0 4000.0 4000.0 4000.0 4000.0 4000.0 4000.0 4000.0 4000.0 4000.0 4000.0 4000.0 4000.0 4000.0 4000.0 4000.0 4000.0 4000.0 4000.0 4000.0 4000.0 4000.0 4000.0 4000.0 4000.0 4000.0 4000.0 4000.0 4000.0 4000.0 4000.0 4000.0 4000.0 4000.0 4000.0 4000.0 4000.0 4000.0 4000.0 4000.0 4000.0 4000.0 4000.0 4000.0 4000.0 4000.0 4000.0 4000.0 4000.0 4000.0 4000.0 4000.0 4000.0 4000.0 4000.0 4000.0 4000.0 4000.0 4000.0 4000.0 4000.0 4000.0 4000.0 4000.0 4000.0 4000.0 4000.0 4000.0 4000.0 4000.0 4000.0 4000.0 4000.0 4000.0 4000.0 4000.0 4000.0 4000.0 4000.0 4000.0 4000.0 4000.0 4000.0 4000.0 4000.0 4000.0 4000.0 4000.0 4000.0 4000.0 4000.0 4000.0 4000.0 4000.0 4000.0 4000.0 4000.0 4000.0 4000.0 4000.0 4000.0 4000.0 4000.0 4000.0 4000.0 4000.0 4000.0 4000.0 4000.0 4000.0 4000.0 4000.0 4000.0 4000.0 4000.0 4000.0 4000.0 4000.0 4000.0 4000.0 4000.0 4000.0 4000.0 4000.0 4000.0 4000.0 4000.0 4000.0 4000.0 4000.0 4000.0 4000.0 4000.0 4000.0 4000.0 4000.0 4000.0 4000.0 4000.0 4000.0 4000.0 4000.0 4000.0 4000.0 4000.0 4000.0 4000.0 4000.0 4000.0 4000.0 4000.0 4000.0 4000.0 4000.0 4000.0 4000.0 4000.0 4000.0 4000.0 4000.0 4000.0 4000.0 4000.0 4000.0 4000.0 4000.0 4000.0 4000.0 4000.0 4000.0 4000.0 4000.0 4000.0 4000.0 4000.0 4000.0 4000.0 4000.0 4000.0 4000.0 4000.0 4000.0 4000.0 4000.0 4000.0 4000.0 4000.0 4000.0 4000.0 4000.0 4000.0 4000.0 4000.0 4000.0 4000.0 4000.0 4000.0 4000.0 4000.0 4000.0 4000.0 4000.0 4000.0 4000.0 4000.0 4000.0 4000.0 4000.0 4000.0 4000.0 4000.0 4000.0 4000.0 4000.0 4000.0 4000.0 4000.0 4000.0 4000.0 4000.0 4000.0 4000.0 4000.0 4000.0 4000.0 4000.0 4000.0 4000.0 4000.0 4000.0 4000.0 4000.0 4000.0 4000.0 4000.0 4000.0 4000.0 4000.0 4000.0 4000.0 4000.0 4000.0 4000.0 4000.0 4000.0 4000.0 4000.0 4000.0 4000.0 4000.0 4000.0 4000.0 4000.0 4000.0 4000.0 4000.0 4000.0 4000.0 4000.0 4000.0 4000.0 4000.0 4000.0 4000.0 4000.0 4000.0 4000.0 4000.0 4000.0 4000.0 4000.0 4000.0 4000.0 4000.0 4000.0 4000.0 4000.0 4000.0 4000.0 4000.0 4000.0 4000.0 4000.0 4000.0 4000.0 4000.0 4000.0 4000.0 4000.0 4000.0 4000.0 4000.0 4000.0 4000.0 4000.0 4000.0 4000.0 4000.0 4000.0 4000.0 4000.0 4000.0 4000.0 4000.0 4000.0 4000.0 4000.0 4000.0 4000.0 4000.0 4000.0 4000.0 4000.0 4000.0 4000.0 4000.0 4000.0 4000.0 4000.0 4000.0 4000.0 4000.0 4000.0 4000.0 4000.0 4000.0 4000.0 4000.0 4000.0 4000.0 4000.0 4000.0 4000.0 4000.0 4000.0 4000.0 4000.0 4000.0 4000.0 4000.0 4000.0 4000.0 4000.0 4000.0 4000.0 4000.0 4000.0 4000.0 4000.0 4000.0 4000.0 4000.0 4000.0 4000.0 4000.0 4000.0 4000.0 4000.0 4000.0 4000.0 4000.0 4000.0 4000.0 4000.0 4000.0 4000.0 4000.0 4000.0 4000.0 4000.0 4000.0 4000.0 4000.0 4000.0 4000.0 4000.0 4000.0 4000.0 4000.0 4000.0 4000.0 4000.0 4000.0 4000.0 4000.0 4000.0 4000.0 4000.0 4000.0 4000.0 4000.0 4000.0 4000.0 4000.0 4000.0 4000.0 4000.0 4000.0 4000.0 4000.0 4000.0 4000.0 4000.0 4000.0 4000.0 4000.0 4000.0 4000.0 4000.0 4000.0 4000.0 4000.0 4000.0 4000.0 4000.0 4000.0 4000.0 4000.0 4000.0 4000.0 4000.0 4000.0 4000.0 4000.0 4000.0 4000.0 4000.0 4000.0 4000.0 4000.0 4000.0 4000.0 4000.0 4000.0 4000.0 4000.0 4000.0 4000.0 4000.0 4000.0 4000.0 4000.0 4000.0 4000.0 4000.0 4000.0 4000.0 4000.0 4000.0 4000.0 4000.0 4000.0 4000.0 4000.0 4000.0 4000.0 4000.0 4000.0 4000.0 4000.0 4000.0 4000.0 4000.0 4000.0 4000.0 4000.0 4000.0 4000.0 4000.0 4000.0 4000.0 4000.0 4000.0 4000.0 4000.0 4000.0 4000.0 4000.0 4000.0 4000.0 4000.0 4000.0 4000.0 4000.0 4000.0 4000.0 4000.0 4000.0 4000.0 4000.0 4000.0 4000.0 4000.0 4000.0 4000.0 4000.0 4000.0 4000.0 4000.0 4000.0 4000.0 4000.0 4000.0 4000.0 4000.0 4000.0 4000.0 4000.0 4000.0 4000.0 4000.0 4000.0 4000.0 4000.0 4000.0 4000.0 4000.0 4000.0 4000.0 4000.0 4000.0 4000.0 4000.0 4000.0 4000.0 4000.0 4000.0 4000.0 4000.0 4000.0 4000.0 4000.0 4000.0 4000.0 4000.0 4000.0 4000.0 4000.0 4000.0 4000.0 4000.0 4000.0 4000.0 4000.0 4000.0 4000.0 4000.0 4000.0 4000.0 4000.0 4000.0 4000.0 4000.0 4000.0 4000.0 4000.0 4000.0 4000.0 4000.0 4000.0 4000.0 4000.0 4000.0 4000.0 4000.0 4000.0 4000.0 4000.0 4000.0 4000.0 4000.0 4000.0 4000.0 4000.0 4000.0 4000.0 4000.0 4000.0 4000.0 4000.0 4000.0 4000.0 4000.0 4000.0 4000.0 4000.0 4000.0 4000.0 4000.0 4000.0 4000.0 4000.0 4000.0 4000.0 4000.0 4000.0 4000.0 4000.0 4000.0 4000.0 4000.0 4000.0 4000.0 4000.0 4000.0 4000.0 4000.0 4000.0 4000.0 4000.0 4000.0 4000.0 4000.0 4000.0 4000.0 4000.0 4000.0 4000.0 4000.0 4000.0 4000.0 4000.0 4000.0 4000.0 4000.0 4000.0 4000.0 4000.0 4000.0 4000.0 4000.0 4000.0 4000.0 4000.0 4000.0 4000.0 4000.0 4000.0 4000.0 4000.0 4000.0 4000.0 4000.0 4000.0 4000.0 4000.0 4000.0 4000.0 4000.0 4000.0 4000.0 4000.0 4000.0 4000.0 4000.0 4000.0 4000.0 4000.0 4000.0 4000.0 4000.0 4000.0 4000.0 4000.0 4000.0 4000.0 4000.0 4000.0 4000.0 4000.0 4000.0 4000.0 4000.0 4000.0 4000.0 4000.0 4000.0 4000.0 4000.0 4000.0 4000.0 4000.0 4000.0 4000.0 4000.0 4000.0 4000.0 4000.0 4000.0 4000.0 4000.0 4000.0 4000.0 4000.0 4000.0 4000.0 4000.0 4000.0 4000.0 4000.0 4000.0 4000.0 4000.0 4000.0 4000.0 4000.0 4000.0 4000.0 4000.0 4000.0 4000.0 4000.0 4000.0 4000.0 4000.0 4000.0 4000.0 4000.0 4000.0 4000.0 4000.0 4000.0 4000.0 4000.0 4000.0 4000.0 4000.0 4000.0 4000.0 4000.0 4000.0 4000.0 4000.0 4000.0 4000.0 4000.0 4000.0 4000.0 4000.0 4000.0 4000.0 4000.0 4000.0 4000.0 4000.0 4000.0 4000.0 4000.0 4000.0 4000.0 4000.0 4000.0 4000.0 4000.0 4000.0 4000.0 4000.0 4000.0 4000.0 4000.0 4000.0 4000.0 4000.0 4000.0 4000.0 4000.0 4000.0 4000.0 4000.0 4000.0 4000.0 4000.0 4000.0 4000.0 4000.0 4000.0 4000.0 4000.0 4000.0 4000.0 4000.0 4000.0 4000.0 4000.0 4000.0 4000.0 4000.0 4000.0 4000.0 4000.0 4000.0 4000.0 4000.0 4000.0 4000.0 4000.0 4000.0 4000.0 4000.0 4000.0 4000.0 4000.0 4000.0 4000.0 4000.0 4000.0 4000.0 4000.0 4000.0 4000.0 4000.0 4000.0 4000.0 4000.0 4000.0 4000.0 4000.0 4000.0 4000.0 4000.0 4000.0 4000.0 4000.0 4000.0 4000.0 4000.0 4000.0 4000.0 4000.0 4000.0 4000.0 4000.0 4000.0 4000.0 4000.0 4000.0 4000.0 4000.0 4000.0 4000.0 4000.0 4000.0 4000.0 4000.0 4000.0 4000.0 4000.0 4000.0 4000.0 4000.0 4000.0 4000.0 4000.0 4000.0 4000.0 4000.0 4000.0 4000.0 4000.0 4000.0 4000.0 4000.0 4000.0 4000.0 4000.0 4000.0 4000.0 4000.0 4000.0 4000.0 4000.0 4000.0 4000.0 4000.0 4000.0 4000.0 4000.0 4000.0 4000.0 4000.0 4000.0 4000.0 4000.0 4000.0 4000.0 4000.0 4000.0 4000.0 4000.0 4000.0 4000.0 4000.0 4000.0 4000.0 4000.0 4000.0 4000.0 4000.0 4000.0 4000.0 4000.0 4000.0 4000.0 4000.0 4000.0 4000.0 4000.0 4000.0 4000.0 4000.0 4000.0 4000.0 4000.0 4000.0 4000.0 4000.0 4000.0 4000.0 4000.0 4000.0 4000.0 4000.0 4000.0 4000.0 4000.0 4000.0 4000.0 4000.0 4000.0 4000.0 4000.0 4000.0 4000.0 4000.0 4000.0 4000.0 4000.0 4000.0 4000.0 4000.0 4000.0 4000.0 4000.0 4000.0 4000.0 4000.0 4000.0 4000.0 4000.0 4000.0 4000.0 4000.0 4000.0 4000.0 4000.0 4000.0 4000.0 4000.0 4000.0 4000.0 4000.0 4000.0 4000.0 4000.0 4000.0 4000.0 4000.0 4000.0 4000.0 4000.0 4000.0 4000.0 4000.0 4000.0 4000.0 4000.0 4000.0 4000.0 4000.0 4000.0 4000.0 4000.0 4000.0 4000.0 4000.0 4000.0 4000.0 4000.0 4000.0 4000.0 4000.0 4000.0 4000.0 4000.0 4000.0 4000.0 4000.0 4000.0 4000.0 4000.0 4000.0 4000.0 4000.0 4000.0 4000.0 4000.0 4000.0 4000.0 4000.0 4000.0 4000.0 4000.0 4000.0 4000.0 4000.0 4000.0 4000.0 4000.0 4000.0 4000.0 4000.0 4000.0 4000.0 4000.0 4000.0 4000.0 4000.0 4000.0 4000.0 4000.0 4000.0 4000.0 4000.0 4000.0 4000.0 4000.0 4000.0 4000.0 4000.0 4000.0 4000.0 4000.0 4000.0 4000.0 4000.0 4000.0 4000.0 4000.0 4000.0 4000.0 4000.0 4000.0 4000.0 4000.0 4000.0 4000.0 4000.0 4000.0 4000.0 4000.0 4000.0 4000.0 4000.0 4000.0 4000.0 4000.0 4000.0 4000.0 4000.0 4000.0 4000.0 4000.0 4000.0 4000.0 4000.0 4000.0 4000.0 4000.0 4000.0 4000.0 4000.0 4000.0 4000.0 4000.0 4000.0 4000.0 4000.0 4000.0 4000.0 4000.0 4000.0 4000.0 4000.0 4000.0 4000.0 4000.0 4000.0 4000.0 4000.0 4000.0 4000.0 4000.0 4000.0 4000.0 4000.0 4000.0 4000.0 4000.0 4000.0 4000.0 4000.0 4000.0 4000.0 4000.0 4000.0 4000.0 4000.0 4000.0 4000.0 4000.0 4000.0 4000.0 4000.0 4000.0 4000.0 4000.0 4000.0 4000.0 4000.0 4000.0 4000.0 4000.0 4000.0 4000.0 4000.0 4000.0 4000.0 4000.0 4000.0 4000.0 4000.0 4000.0 4000.0 4000.0 4000.0 4000.0 4000.0 4000.0 4000.0 4000.0 4000.0 4000.0 4000.0 4000.0 4000.0 4000.0 4000.0 4000.0 4000.0 4000.0 4000.0 4000.0 4000.0 4000.0 4000.0 4000.0 4000.0 4000.0 4000.0 4000.0 4000.0 4000.0 4000.0 4000.0 4000.0 4000.0 4000.0 4000.0 4000.0 4000.0 4000.0 4000.0 4000.0 4000.0 4000.0 4000.0 4000.0 4000.0 4000.0 4000.0 4000.0 4000.0 4000.0 4000.0 4000.0 4000.0 4000.0 4000.0 4000.0 4000.0 4000.0 4000.0 4000.0 4000.0 4000.0 4000.0 4000.0 4000.0 4000.0 4000.0 4000.0 4000.0 4000.0 4000.0 4000.0 4000.0 4000.0 4000.0 4000.0 4000.0 4000.0 4000.0 4000.0 4000.0 4000.0 4000.0 4000.0 4000.0 4000.0 4000.0 4000.0 4000.0 4000.0 4000.0 4000.0 4000.0 4000.0 4000.0 4000.0 4000.0 4000.0 4000.0 4000.0 4000.0 4000.0 4000.0 4000.0 4000.0 4000.0 4000.0 4000.0 4000.0 4000.0 4000.0 4000.0 4000.0 4000.0 4000.0 4000.0 4000.0 4000.0 4000.0 4000.0 4000.0 4000.0 4000.0 4000.0 4000.0 4000.0 4000.0 4000.0 4000.0 4000.0 4000.0 4000.0 4000.0 4000.0 4000.0 4000.0 4000.0 4000.0 4000.0 4000.0 4000.0 4000.0 4000.0 4000.0 4000.0 4000.0 4000.0 4000.0 4000.0 4000.0 4000.0 4000.0 4000.0 4000.0 4000.0 4000.0 4000.0 4000.0 4000.0 4000.0 4000.0 4000.0 4000.0 4000.0 4000.0 4000.0 4000.0 4000.0 4000.0 4000.0 4000.0 4000.0 4000.0 4000.0 4000.0 4000.0 4000.0 4000.0 4000.0 4000.0 4000.0 4000.0 4000.0 4000.0 4000.0 4000.0 4000.0 4000.0 4000.0 4000.0 4000.0 4000.0 4000.0 4000.0 4000.0 4000.0 4000.0 4000.0 4000.0 4000.0 4000.0 4000.0 4000.0 4000.0 4000.0 4000.0 4000.0 4000.0 4000.0 4000.0 4000.0 4000.0 4000.0 4000.0 4000.0 4000.0 4000.0 4000.0 4000.0 4000.0 4000.0 4000.0 4000.0 4000.0 4000.0 4000.0 4000.0 4000.0 4000.0 4000.0 4000.0 4000.0 4000.0 4000.0 4000.0 4000.0 4000.0 4000.0 4000.0 4000.0 4000.0 4000.0 4000.0 4000.0 4000.0 4000.0 4000.0 4000.0 4000.0 4000.0 4000.0 4000.0 4000.0 4000.0 4000.0 4000.0 4000.0 4000.0 4000.0 4000.0 4000.0 4000.0 4000.0 4000.0 4000.0 4000.0 4000.0 4000.0 4000.0 4000.0 4000.0 4000.0 4000.0 4000.0 4000.0 4000.0 4000.0 4000.0 4000.0 4000.0 4000.0 4000.0 4000.0 4000.0 4000.0 4000.0 4000.0 4000.0 4000.0 4000.0 4000.0 4000.0 4000.0 4000.0 4000.0 4000.0 4000.0 4000.0 4000.0 4000.0 4000.0 4000.0 4000.0 4000.0 4000.0 4000.0 4000.0 4000.0 4000.0 4000.0 4000.0 4000.0 4000.0 4000.0 4000.0 4000.0 4000.0 4000.0 4000.0 4000.0 4000.0 4000.0 4000.0 4000.0 4000.0 4000.0 4000.0 4000.0 4000.0 4000.0 4000.0 4000.0 4000.0 4000.0 4000.0 4000.0 4000.0 4000.0 4000.0 4000.0 4000.0 4000.0 4000.0 4000.0 4000.0 4000.0 4000.0 4000.0 4000.0 4000.0 4000.0 4000.0 4000.0 4000.0 4000.0 4000.0 4000.0 4000.0 4000.0 4000.0 4000.0 4000.0 4000.0 4000.0 4000.0 4000.0 4000.0 4000.0 4000.0 4000.0 4000.0 4000.0 4000.0 4000.0 4000.0 4000.0 4000.0 4000.0 4000.0 4000.0 4000.0 4000.0 4000.0 4000.0 4000.0 4000.0 4000.0 4000.0 4000.0 4000.0 4000.0 4000.0 4000.0 4000.0 4000.0 4000.0 4000.0 4000.0 4000.0 4000.0 4000.0 4000.0 4000.0 4000.0 4000.0 4000.0 4000.0 4000.0 4000.0 4000.0 4000.0 4000.0 4000.0 4000.0 4000.0 4000.0 4000.0 4000.0 4000.0 4000.0 4000.0 4000.0 4000.0 4000.0 4000.0 4000.0 4000.0 4000.0 4000.0 4000.0 4000.0 4000.0 4000.0 4000.0 4000.0 4000.0 4000.0 4000.0 4000.0 4000.0 4000.0 4000.0 4000.0 4000.0 4000.0 4000.0 4000.0 4000.0 4000.0 4000.0 4000.0 4000.0 4000.0 4000.0 4000.0 4000.0 4000.0 4000.0 4000.0 4000.0 4000.0 4000.0 4000.0 4000.0 4000.0 4000.0 4000.0 4000.0 4000.0 4000.0 4000.0 4000.0 4000.0 4000.0 4000.0 4000.0 4000.0 4000.0 4000.0 4000.0 4000.0 4000.0 4000.0 4000.0 4000.0 4000.0 4000.0 4000.0 4000.0 4000.0 4000.0 4000.0 4000.0 4000.0 4000.0 4000.0 4000.0 4000.0 4000.0 4000.0 4000.0 4000.0 4000.0 4000.0 4000.0 4000.0 4000.0 4000.0 4000.0 4000.0 4000.0 4000.0 4000.0 4000.0 4000.0 4000.0 4000.0 4000.0 4000.0 4000.0 4000.0 4000.0 4000.0 4000.0 4000.0 4000.0 4000.0 4000.0 4000.0 4000.0 4000.0 4000.0 4000.0 4000.0 4000.0 4000.0 4000.0 4000.0 4000.0 4000.0 4000.0 4000.0 4000.0 4000.0 4000.0 4000.0 4000.0 4000.0 4000.0 4000.0 4000.0 4000.0 4000.0 4000.0 4000.0 4000.0 4000.0 4000.0 4000.0 4000.0 4000.0 4000.0 4000.0 4000.0 4000.0 4000.0 4000.0 4000.0 4000.0 4000.0 4000.0 4000.0 4000.0 4000.0 4000.0 4000.0 4000.0 4000.0 4000.0 4000.0 4000.0 4000.0 4000.0 4000.0 4000.0 4000.0 4000.0 4000.0 4000.0 4000.0 4000.0 4000.0 4000.0 4000.0 4000.0 4000.0 4000.0 4000.0 4000.0 4000.0 4000.0 4000.0 4000.0 4000.0 4000.0 4000.0 4000.0 4000.0 4000.0 4000.0 4000.0 4000.0 4000.0 4000.0 4000.0 4000.0 4000.0 4000.0 4000.0 4000.0 4000.0 4000.0 4000.0 4000.0 4000.0 4000.0 4000.0 4000.0 4000.0 4000.0 4000.0 4000.0 4000.0 4000.0 4000.0 4000.0 4000.0 4000.0 4000.0 4000.0 4000.0 4000.0 4000.0 4000.0 4000.0 4000.0 4000.0 4000.0 4000.0 4000.0 4000.0 4000.0 4000.0 4000.0 4000.0 4000.0 4000.0 4000.0 4000.0 4000.0 4000.0 4000.0 4000.0 4000.0 4000.0 4000.0 4000.0 4000.0 4000.0 4000.0 4000.0 4000.0 4000.0 4000.0 4000.0 4000.0 4000.0 4000.0 4000.0 4000.0 4000.0 4000.0 4000.0 4000.0 4000.0 4000.0 4000.0 4000.0 4000.0 4000.0 4000.0 4000.0 4000.0 4000.0 4000.0 4000.0 4000.0 4000.0 4000.0 4000.0 4000.0 4000.0 4000.0 4000.0 4000.0 4000.0 4000.0 4000.0 4000.0 4000.0 4000.0 4000.0 4000.0 4000.0 4000.0 4000.0 4000.0 4000.0 4000.0 4000.0 4000.0 4000.0 4000.0 4000.0 4000.0 4000.0 4000.0 4000.0 4000.0 4000.0 4000.0 4000.0 4000.0 4000.0 4000.0 4000.0 4000.0 4000.0 4000.0 4000.0 4000.0 4000.0 4000.0 4000.0 4000.0 4000.0 4000.0 4000.0 4000.0 4000.0 4000.0 4000.0 4000.0 4000.0 4000.0 4000.0 4000.0 4000.0 4000.0 4000.0 4000.0 4000.0 4000.0 4000.0 4000.0 4000.0 4000.0 4000.0 4000.0 4000.0 4000.0 4000.0 4000.0 4000.0 4000.0 4000.0 4000.0 4000.0 4000.0 4000.0 4000.0 4000.0 4000.0 4000.0 4000.0 4000.0 4000.0 4000.0 4000.0 4000.0 4000.0 4000.0 4000.0 4000.0 4000.0 4000.0 4000.0 4000.0 4000.0 4000.0 4000.0 4000.0 4000.0 4000.0 4000.0 4000.0 4000.0 4000.0 4000.0 4000.0 4000.0 4000.0 4000.0 4000.0 4000.0 4000.0 4000.0 4000.0 4000.0 4000.0 4000.0 4000.0 4000.0 4000.0 4000.0 4000.0 4000.0 4000.0 4000.0 4000.0 4000.0 4000.0 4000.0 4000.0 4000.0 4000.0 4000.0 4000.0 4000.0 4000.0 4000.0 4000.0 4000.0 4000.0 4000.0 4000.0 4000.0 4000.0 4000.0 4000.0 4000.0 4000.0 4000.0 4000.0 4000.0 4000.0 4000.0 4000.0 4000.0 4000.0 4000.0 4000.0 4000.0 4000.0 4000.0 4000.0 4000.0 4000.0 4000.0 4000.0 4000.0 4000.0 4000.0 4000.0 4000.0 4000.0 4000.0 4000.0 4000.0 4000.0 4000.0 4000.0 4000.0 4000.0 4000.0 4000.0 4000.0 4000.0 4000.0 4000.0 4000.0 4000.0 4000.0 4000.0 4000.0 4000.0 4000.0 4000.0 4000.0 4000.0 4000.0 4000.0 4000.0 4000.0 4000.0 4000.0 4000.0 4000.0 4000.0 4000.0 4000.0 4000.0 4000.0 4000.0 4000.0 4000.0 4000.0 4000.0 4000.0 4000.0 4000.0 4000.0 4000.0 4000.0 4000.0 4000.0 4000.0 4000.0 4000.0 4000.0 4000.0 4000.0 4000.0 4000.0 4000.0 4000.0 4000.0 4000.0 4000.0 4000.0 4000.0 4000.0 4000.0 4000.0 4000.0 4000.0 4000.0 4000.0 4000.0 4000.0 4000.0 4000.0 4000.0 4000.0 4000.0 4000.0 4000.0 4000.0 4000.0 4000.0 4000.0 4000.0 4000.0 4000.0 4000.0 4000.0 4000.0 4000.0 4000.0 4000.0 4000.0 4000.0 4000.0 4000.0 4000.0 4000.0 4000.0 4000.0 4000.0 4000.0 4000.0 4000.0 4000.0 4000.0 4000.0 4000.0 4000.0 4000.0 4000.0 4000.0 4000.0 4000.0 4000.0 4000.0 4000.0 4000.0 4000.0 4000.0 4000.0 4000.0 4000.0 4000.0 4000.0 4000.0 4000.0 4000.0 4000.0 4000.0 4000.0 4000.0 4000.0 4000.0 4000.0 4000.0 4000.0 4000.0 4000.0 4000.0 4000.0 4000.0 4000.0 4000.0 4000.0 4000.0 4000.0 4000.0 4000.0 4000.0 4000.0 4000.0 4000.0 4000.0 4000.0 4000.0 4000.0 4000.0 4000.0 4000.0 4000.0 4000.0 4000.0 4000.0 4000.0 4000.0 4000.0 4000.0 4000.0 4000.0 4000.0 4000.0 4000.0 4000.0 4000.0 4000.0 4000.0 4000.0 4000.0 4000.0 4000.0 4000.0 4000.0 4000.0 4000.0 4000.0 4000.0 4000.0 4000.0 4000.0 4000.0 4000.0 4000.0 4000.0 4000.0 4000.0 4000.0 4000.0 4000.0 4000.0 4000.0 4000.0 4000.0 4000.0 4000.0 4000.0 4000.0 4000.0 4000.0 4000.0 4000.0 4000.0 4000.0 4000.0 4000.0 4000.0 4000.0 4000.0 4000.0 4000.0 4000.0 4000.0 4000.0 4000.0 4000.0 4000.0 4000.0 4000.0 4000.0 4000.0 4000.0 4000.0 4000.0 4000.0 4000.0 4000.0 4000.0 4000.0 4000.0 4000.0 4000.0 4000.0 4000.0 4000.0 4000.0 4000.0 4000.0 4000.0 4000.0 4000.0 4000.0 4000.0 4000.0 4000.0 4000.0 4000.0 4000.0 4000.0 4000.0 4000.0 4000.0 4000.0 4000.0 4000.0 4000.0 4000.0 4000.0 4000.0 4000.0 4000.0 4000.0 4000.0 4000.0 4000.0 4000.0 4000.0 4000.0 4000.0 4000.0 4000.0 4000.0 4000.0 4000.0 4000.0 4000.0 4000.0 4000.0 4000.0 4000.0 4000.0 4000.0 4000.0 4000.0 4000.0 4000.0 4000.0 4000.0 4000.0 4000.0 4000.0 4000.0 4000.0 4000.0 4000.0 4000.0 4000.0 4000.0 4000.0 4000.0 4000.0 4000.0 4000.0 4000.0 4000.0 4000.0 4000.0 4000.0 4000.0 4000.0 4000.0 4000.0 4000.0 4000.0 4000.0 4000.0 4000.0 4000.0 4000.0 4000.0 4000.0 4000.0 4000.0 4000.0 4000.0 4000.0 4000.0 4000.0 4000.0 4000.0 4000.0 4000.0 4000.0 4000.0 4000.0 4000.0 4000.0 4000.0 4000.0 4000.0 4000.0 4000.0 4000.0 4000.0 4000.0 4000.0 4000.0 4000.0 4000.0 4000.0 4000.0 4000.0 4000.0 4000.0 4000.0 4000.0 4000.0 4000.0 4000.0 4000.0 4000.0 4000.0 4000.0 4000.0 4000.0 4000.0 4000.0 4000.0 4000.0 4000.0 4000.0 4000.0 4000.0 4000.0 4000.0 4000.0 4000.0 4000.0 4000.0 4000.0 4000.0 4000.0 4000.0 4000.0 4000.0 4000.0 4000.0 4000.0 4000.0 4000.0 4000.0 4000.0 4000.0 4000.0 4000.0 4000.0 4000.0 4000.0 4000.0 4000.0 4000.0 4000.0 4000.0 4000.0 4000.0 4000.0 4000.0 4000.0 4000.0 4000.0 4000.0 4000.0 4000.0 4000.0 4000.0 4000.0 4000.0 4000.0 4000.0 4000.0 4000.0 4000.0 4000.0 4000.0 4000.0 4000.0 4000.0 4000.0 4000.0 4000.0 4000.0 4000.0 4000.0 4000.0 4000.0 4000.0 4000.0 4000.0 4000.0 4000.0 4000.0 4000.0 4000.0 4000.0 4000.0 4000.0 4000.0 4000.0 4000.0 4000.0 4000.0 4000.0 4000.0 4000.0 4000.0 4000.0 4000.0 4000.0 4000.0 4000.0 4000.0 4000.0 4000.0 4000.0 4000.0 4000.0 4000.0 4000.0 4000.0 4000.0 4000.0 4000.0 4000.0 4000.0 4000.0 4000.0 4000.0 4000.0 4000.0 4000.0 4000.0 4000.0 4000.0 4000.0 4000.0 4000.0 4000.0 4000.0 4000.0 4000.0 4000.0 4000.0 4000.0 4000.0 4000.0 4000.0 4000.0 4000.0 4000.0 4000.0 4000.0 4000.0 4000.0 4000.0 4000.0 4000.0 4000.0 4000.0 4000.0 4000.0 4000.0 4000.0 4000.0 4000.0 4000.0 4000.0 4000.0 4000.0 4000.0 4000.0 4000.0 4000.0 4000.0 4000.0 4000.0 4000.0 4000.0 4000.0 4000.0 4000.0 4000.0 4000.0 4000.0 4000.0 4000.0 4000.0 4000.0 4000.0 4000.0 4000.0 4000.0 4000.0 4000.0 4000.0 4000.0 4000.0 4000.0 4000.0 4000.0 4000.0 4000.0 4000.0 4000.0 4000.0 4000.0 4000.0 4000.0 4000.0 4000.0 4000.0 4000.0 4000.0 4000.0 4000.0 4000.0 4000.0 4000.0 4000.0 4000.0 4000.0 4000.0 4000.0 4000.0 4000.0 4000.0 4000.0 4000.0 4000.0 4000.0 4000.0 4000.0 4000.0 4000.0 4000.0 4000.0 4000.0 4000.0 4000.0 4000.0 4000.0 4000.0 4000.0 4000.0 4000.0 4000.0 4000.0 4000.0 4000.0 4000.0 4000.0 4000.0 4000.0 4000.0 4000.0 4000.0 4000.0 4000.0 4000.0 4000.0 4000.0 4000.0 4000.0 4000.0 4000.0 4000.0 4000.0 4000.0 4000.0 4000.0 4000.0 4000.0 4000.0 4000.0 4000.0 4000.0 4000.0 4000.0 4000.0 4000.0 4000.0 4000.0 4000.0 4000.0 4000.0 4000.0 4000.0 4000.0 4000.0 4000.0 4000.0 4000.0 4000.0 4000.0 4000.0 4000.0 4000.0 4000.0 4000.0 4000.0 4000.0 4000.0 4000.0 4000.0 4000.0 4000.0 4000.0 4000.0 4000.0 4000.0 4000.0 4000.0 4000.0 4000.0 4000.0 4000.0 4000.0 4000.0 4000.0 4000.0 4000.0 4000.0 4000.0 4000.0 4000.0 4000.0 4000.0 4000.0 4000.0 4000.0 4000.0 4000.0 4000.0 4000.0 4000.0 4000.0 4000.0 4000.0 4000.0 4000.0 4000.0 4000.0 4000.0 4000.0 4000.0 4000.0 4000.0 4000.0 4000.0 4000.0 4000.0 4000.0 4000.0 4000.0 4000.0 4000.0 4000.0 4000.0 4000.0 4000.0 4000.0 4000.0 4000.0 4000.0 4000.0 4000.0 4000.0 4000.0 4000.0 4000.0 4000.0 4000.0 4000.0 4000.0 4000.0 4000.0 4000.0 4000.0 4000.0 4000.0 4000.0 4000.0 4000.0 4000.0 4000.0 4000.0 4000.0 4000.0 4000.0 4000.0 4000.0 4000.0 4000.0 4000.0 4000.0 4000.0 4000.0 4000.0 4000.0 4000.0 4000.0 4000.0 4000.0 4000.0 4000.0 4000.0 4000.0 4000.0 4000.0 4000.0 4000.0 4000.0 4000.0 4000.0 4000.0 4000.0 4000.0 4000.0 4000.0 4000.0 4000.0 4000.0 4000.0 4000.0 4000.0 4000.0 4000.0 4000.0 4000.0 4000.0 4000.0 4000.0 4000.0 4000.0 4000.0 4000.0 4000.0 4000.0 4000.0 4000.0 4000.0 4000.0 4000.0 4000.0 4000.0 4000.0 4000.0 4000.0 4000.0 4000.0 4000.0 4000.0 4000.0 4000.0 4000.0 4000.0 4000.0 4000.0 4000.0 4000.0 4000.0 4000.0 4000.0 4000.0 4000.0 4000.0 4000.0 4000.0 4000.0 4000.0 4000.0 4000.0 4000.0 4000.0 4000.0 4000.0 4000.0 4000.0 4000.0 4000.0 4000.0 4000.0 4000.0 4000.0 4000.0 4000.0 4000.0 4000.0 4000.0 4000.0 4000.0 4000.0 4000.0 4000.0 4000.0 4000.0 4000.0 4000.0 4000.0 4000.0 4000.0 4000.0 4000.0 4000.0 4000.0 4000.0 4000.0 4000.0 4000.0 4000.0 4000.0 4000.0 4000.0 4000.0 4000.0 4000.0 4000.0 4000.0 4000.0 4000.0 4000.0 4000.0 4000.0 4000.0 4000.0 4000.0 4000.0 4000.0 4000.0 4000.0 4000.0 4000.0 4000.0 4000.0 4000.0 4000.0 4000.0 4000.0 4000.0 4000.0 4000.0 4000.0 4000.0 4000.0 4000.0 4000.0 4000.0 4000.0 4000.0 4000.0 4000.0 4000.0 4000.0 4000.0 4000.0 4000.0 4000.0 4000.0 4000.0 4000.0 4000.0 4000.0 4000.0 4000.0 4000.0 4000.0 4000.0 4000.0 4000.0 4000.0 4000.0 4000.0 4000.0 4000.0 4000.0 4000.0 4000.0 4000.0 4000.0 4000.0 4000.0 4000.0 4000.0 4000.0 4000.0 4000.0 4000.0 4000.0 4000.0 4000.0 4000.0 4000.0 4000.0 4000.0 4000.0 4000.0 4000.0 4000.0 4000.0 4000.0 4000.0 4000.0 4000.0 4000.0 4000.0 4000.0 4000.0 4000.0 4000.0 4000.0 4000.0 4000.0 4000.0 4000.0 4000.0 4000.0 4000.0 4000.0 4000.0 4000.0 4000.0 4000.0 4000.0 4000.0 4000.0 4000.0 4000.0 4000.0 4000.0 4000.0 4000.0 4000.0 4000.0 4000.0 4000.0 4000.0 4000.0 4000.0 4000.0 4000.0 4000.0 4000.0 4000.0 4000.0 4000.0 4000.0 4000.0 4000.0 4000.0 4000.0 4000.0 4000.0 4000.0 4000.0 4000.0 4000.0 4000.0 4000.0 4000.0 4000.0 4000.0 4000.0 4000.0 4000.0 4000.0 4000.0 4000.0 4000.0 4000.0 4000.0 4000.0 4000.0 4000.0 4000.0 4000.0 4000.0 4000.0 4000.0 4000.0 4000.0 4000.0 4000.0 4000.0 4000.0 4000.0 4000.0 4000.0 4000.0 4000.0 4000.0 4000.0 4000.0 4000.0 4000.0 4000.0 4000.0 4000.0 4000.0 4000.0 4000.0 4000.0 4000.0 4000.0 4000.0 4000.0 4000.0 4000.0 4000.0 4000.0 4000.0 4000.0 4000.0 4000.0 4000.0 4000.0 4000.0 4000.0 4000.0 4000.0 4000.0 4000.0 4000.0 4000.0 4000.0 4000.0 4000.0 4000.0 4000.0 4000.0 4000.0 4000.0 4000.0 4000.0 4000.0 4000.0 4000.0 4000.0 4000.0 4000.0 4000.0 4000.0 4000.0 4000.0 4000.0 4000.0 4000.0 4000.0 4000.0 4000.0 4000.0 4000.0 4000.0 4000.0 4000.0 4000.0 4000.0 4000.0 4000.0 4000.0 4000.0 4000.0 4000.0 4000.0 4000.0 4000.0 4000.0 4000.0 4000.0 4000.0 4000.0 4000.0 4000.0 4000.0 4000.0 4000.0 4000.0 4000.0 4000.0 4000.0 4000.0 4000.0 4000.0 4000.0 4000.0 4000.0 4000.0 4000.0 4000.0 4000.0 4000.0 4000.0 4000.0 4000.0 4000.0 4000.0 4000.0 4000.0 4000.0 4000.0 4000.0 4000.0 4000.0 4000.0 4000.0 4000.0 4000.0 4000.0 4000.0 4000.0 4000.0 4000.0 4000.0 4000.0 4000.0 4000.0 4000.0 4000.0 4000.0 4000.0 4000.0 4000.0 4000.0 4000.0 4000.0 4000.0 4000.0 4000.0 4000.0 4000.0 4000.0 4000.0 4000.0 4000.0 4000.0 4000.0 4000.0 4000.0 4000.0 4000.0 4000.0 4000.0 4000.0 4000.0 4000.0 4000.0 4000.0 4000.0 4000.0 4000.0 4000.0 4000.0 4000.0 4000.0 4000.0 4000.0 4000.0 4000.0 4000.0 4000.0 4000.0 4000.0 4000.0 4000.0 4000.0 4000.0 4000.0 4000.0 4000.0 4000.0 4000.0 4000.0 4000.0 4000.0 4000.0 4000.0 4000.0 4000.0 4000.0 4000.0 4000.0 4000.0 4000.0 4000.0 4000.0 4000.0 4000.0 4000.0 4000.0 4000.0 4000.0 4000.0 4000.0 4000.0 4000.0 4000.0 4000.0 4000.0 4000.0 4000.0 4000.0 4000.0 4000.0 4000.0 4000.0 4000.0 4000.0 4000.0 4000.0 4000.0 4000.0 4000.0 4000.0 4000.0 4000.0 4000.0 4000.0 4000.0 4000.0 4000.0 4000.0 4000.0 4000.0 4000.0 4000.0 4000.0 4000.0 4000.0 4000.0 4000.0 4000.0 4000.0 4000.0 4000.0 4000.0 4000.0 4000.0 4000.0 4000.0 4000.0 4000.0 4000.0 4000.0 4000.0 4000.0 4000.0 4000.0 4000.0 4000.0 4000.0 4000.0 4000.0 4000.0 4000.0 4000.0 4000.0 4000.0 4000.0 4000.0 4000.0 4000.0 4000.0 4000.0 4000.0 4000.0 4000.0 4000.0 4000.0 4000.0 4000.0 4000.0 4000.0 4000.0 4000.0 4000.0 4000.0 4000.0 4000.0 4000.0 4000.0 4000.0 4000.0 4000.0 4000.0 4000.0 4000.0 4000.0 4000.0 4000.0 4000.0 4000.0 4000.0 4000.0 4000.0 4000.0 4000.0 4000.0 4000.0 4000.0 4000.0 4000.0 4000.0 4000.0 4000.0 4000.0 4000.0 4000.0 4000.0 4000.0 4000.0 4000.0 4000.0 4000.0 4000.0 4000.0 4000.0 4000.0 4000.0 4000.0 4000.0 4000.0 4000.0 4000.0 4000.0 4000.0 4000.0 4000.0 4000.0 4000.0 4000.0 4000.0 4000.0 4000.0 4000.0 4000.0 4000.0 4000.0 4000.0 4000.0 4000.0 4000.0 4000.0 4000.0 4000.0 4000.0 4000.0 4000.0 4000.0 4000.0 4000.0 4000.0 4000.0 4000.0 4000.0 4000.0 4000.0 4000.0 4000.0 4000.0 4000.0 4000.0 4000.0 4000.0 4000.0 4000.0 4000.0 4000.0 4000.0 4000.0 4000.0 4000.0 4000.0 4000.0 4000.0 4000.0 4000.0 4000.0 4000.0 4000.0 4000.0 4000.0 4000.0 4000.0 4000.0 4000.0 4000.0 4000.0 4000.0 4000.0 4000.0 4000.0 4000.0 4000.0 4000.0 4000.0 4000.0 4000.0 4000.0 4000.0 4000.0 4000.0 4000.0 4000.0 4000.0 4000.0 4000.0 4000.0 4000.0 4000.0 4000.0 4000.0 4000.0 4000.0 4000.0 4000.0 4000.0 4000.0 4000.0 4000.0 4000.0 4000.0 4000.0 4000.0 4000.0 4000.0 4000.0 4000.0 4000.0 4000.0 4000.0 4000.0 4000.0 4000.0 4000.0 4000.0 4000.0 4000.0 4000.0 4000.0 4000.0 4000.0 4000.0 4000.0 4000.0 4000.0 4000.0 4000.0 4000.0 4000.0 4000.0 4000.0 4000.0 4000.0 4000.0 4000.0 4000.0 4000.0 4000.0 4000.0 4000.0 4000.0 4000.0 4000.0 4000.0 4000.0 4000.0 4000.0 4000.0 4000.0 4000.0 4000.0 4000.0 4000.0 4000.0 4000.0 4000.0 4000.0 4000.0 4000.0 4000.0 4000.0 4000.0 4000.0 4000.0 4000.0 4000.0 4000.0 4000.0 4000.0 4000.0 4000.0 4000.0 4000.0 4000.0 4000.0 4000.0 4000.0 4000.0 4000.0 4000.0 4000.0 4000.0 4000.0 4000.0 4000.0 4000.0 4000.0 4000.0 4000.0 4000.0 4000.0 4000.0 4000.0 4000.0 4000.0 4000.0 4000.0 4000.0 4000.0 4000.0 4000.0 4000.0 4000.0 4000.0 4000.0 4000.0 4000.0 4000.0 4000.0 4000.0 4000.0 4000.0 4000.0 4000.0 4000.0 4000.0 4000.0 4000.0 4000.0 4000.0 4000.0 4000.0 4000.0 4000.0 4000.0 4000.0 4000.0 4000.0 4000.0 4000.0 4000.0 4000.0 4000.0 4000.0 4000.0 4000.0 4000.0 4000.0 4000.0 4000.0 4000.0 4000.0 4000.0 4000.0 4000.0 4000.0 4000.0 4000.0 4000.0 4000.0 4000.0 4000.0 4000.0 4000.0 4000.0 4000.0 4000.0 4000.0 4000.0 4000.0 4000.0 4000.0 4000.0 4000.0 4000.0 4000.0 4000.0 4000.0 4000.0 4000.0 4000.0 4000.0 4000.0 4000.0 4000.0 4000.0 4000.0 4000.0 4000.0 4000.0 4000.0 4000.0 4000.0 4000.0 4000.0 4000.0 4000.0 4000.0 4000.0 4000.0 4000.0 4000.0 4000.0 4000.0 4000.0 4000.0 4000.0 4000.0 4000.0 4000.0 4000.0 4000.0 4000.0 4000.0 4000.0 4000.0 4000.0 4000.0 4000.0 4000.0 4000.0 4000.0 4000.0 4000.0 4000.0 4000.0 4000.0 4000.0 4000.0 4000.0 4000.0 4000.0 4000.0 4000.0 4000.0 4000.0 4000.0 4000.0 4000.0 4000.0 4000.0 4000.0 4000.0 4000.0 4000.0 4000.0 4000.0 4000.0 4000.0 4000.0 4000.0 4000.0 4000.0 4000.0 4000.0 4000.0 4000.0 4000.0 4000.0 4000.0 4000.0 4000.0 4000.0 4000.0 4000.0 4000.0 4000.0 4000.0 4000.0 4000.0 4000.0 4000.0 4000.0 4000.0 4000.0 4000.0 4000.0 4000.0 4000.0 4000.0 4000.0 4000.0 4000.0 4000.0 4000.0 4000.0 4000.0 4000.0 4000.0 4000.0 4000.0 4000.0 4000.0 4000.0 4000.0 4000.0 4000.0 4000.0 4000.0 4000.0 4000.0 4000.0 4000.0 4000.0 4000.0 4000.0 4000.0 4000.0 4000.0 4000.0 4000.0 4000.0 4000.0 4000.0 4000.0 4000.0 4000.0 4000.0 4000.0 4000.0 4000.0 4000.0 4000.0 4000.0 4000.0 4000.0 4000.0 4000.0 4000.0 4000.0 4000.0 4000.0 4000.0 4000.0 4000.0 4000.0 4000.0 4000.0 4000.0 4000.0 4000.0 4000.0 4000.0 4000.0 4000.0 4000.0 4000.0 4000.0 4000.0 4000.0 4000.0 4000.0 4000.0 4000.0 4000.0 4000.0 4000.0 4000.0 4000.0 4000.0 4000.0 4000.0 4000.0 4000.0 4000.0 4000.0 4000.0 4000.0 4000.0 4000.0 4000.0 4000.0 4000.0 4000.0 4000.0 4000.0 4000.0 4000.0 4000.0 4000.0 4000.0 4000.0 4000.0 4000.0 4000.0 4000.0 4000.0 4000.0 4000.0 4000.0 4000.0 4000.0 4000.0 4000.0 4000.0 4000.0 4000.0 4000.0 4000.0 4000.0 4000.0 4000.0 4000.0 4000.0 4000.0 4000.0 4000.0 4000.0 4000.0 4000.0 4000.0 4000.0 4000.0 4000.0 4000.0 4000.0 4000.0 4000.0 4000.0 4000.0 4000.0 4000.0 4000.0 4000.0 4000.0 4000.0 4000.0 4000.0 4000.0 4000.0 4000.0 4000.0 4000.0 4000.0 4000.0 4000.0 4000.0 4000.0 4000.0 4000.0 4000.0 4000.0 4000.0 4000.0 4000.0 4000.0 4000.0 4000.0 4000.0 4000.0 4000.0 4000.0 4000.0 4000.0 4000.0 4000.0 4000.0 4000.0 4000.0 4000.0 4000.0 4000.0 4000.0 4000.0 4000.0 4000.0 4000.0 4000.0 4000.0 4000.0 4000.0 4000.0 4000.0 4000.0 4000.0 4000.0 4000.0 4000.0 4000.0 4000.0 4000.0 4000.0 4000.0 4000.0 4000.0 4000.0 4000.0 4000.0 4000.0 4000.0 4000.0 4000.0 4000.0 4000.0 4000.0 4000.0 4000.0 4000.0 4000.0 4000.0 4000.0 4000.0 4000.0 4000.0 4000.0 4000.0 4000.0 4000.0 4000.0 4000.0 4000.0 4000.0 4000.0 4000.0 4000.0 4000.0 4000.0 4000.0 4000.0 4000.0 4000.0 4000.0 4000.0 4000.0 4000.0 4000.0 4000.0 4000.0 4000.0 4000.0 4000.0 4000.0 4000.0 4000.0 4000.0 4000.0 4000.0 4000.0 4000.0 4000.0 4000.0 4000.0 4000.0 4000.0 4000.0 4000.0 4000.0 4000.0 4000.0 4000.0 4000.0 4000.0 4000.0 4000.0 4000.0 4000.0 4000.0 4000.0 4000.0 4000.0 4000.0 4000.0 4000.0 4000.0 4000.0 4000.0 4000.0 4000.0 4000.0 4000.0 4000.0 4000.0 4000.0 4000.0 4000.0 4000.0 4000.0 4000.0 4000.0 SCALARS Mass float 1
LOOKUP_TABLE default
11309700000.0 11309700000.0 11309700000.0 11309700000.0 11309700000.0 11309700000.0 11309700000.0 11309700000.0 11309700000.0 11309700000.0 11309700000.0 11309700000.0 11309700000.0 11309700000.0 11309700000.0 11309700000.0 11309700000.0 11309700000.0 11309700000.0 11309700000.0 11309700000.0 11309700000.0 11309700000.0 11309700000.0 11309700000.0 11309700000.0 11309700000.0 11309700000.0 11309700000.0 11309700000.0 11309700000.0 11309700000.0 11309700000.0 11309700000.0 11309700000.0 11309700000.0 11309700000.0 11309700000.0 11309700000.0 11309700000.0 11309700000.0 11309700000.0 11309700000.0 11309700000.0 11309700000.0 11309700000.0 11309700000.0 11309700000.0 11309700000.0 11309700000.0 11309700000.0 11309700000.0 11309700000.0 11309700000.0 11309700000.0 11309700000.0 11309700000.0 11309700000.0 11309700000.0 11309700000.0 11309700000.0 11309700000.0 11309700000.0 11309700000.0 11309700000.0 11309700000.0 11309700000.0 11309700000.0 11309700000.0 11309700000.0 11309700000.0 11309700000.0 11309700000.0 11309700000.0 11309700000.0 11309700000.0 11309700000.0 11309700000.0 11309700000.0 11309700000.0 11309700000.0 11309700000.0 11309700000.0 11309700000.0 11309700000.0 11309700000.0 11309700000.0 11309700000.0 11309700000.0 11309700000.0 11309700000.0 11309700000.0 11309700000.0 11309700000.0 11309700000.0 11309700000.0 11309700000.0 11309700000.0 11309700000.0 11309700000.0 11309700000.0 11309700000.0 11309700000.0 11309700000.0 11309700000.0 11309700000.0 11309700000.0 11309700000.0 11309700000.0 11309700000.0 11309700000.0 11309700000.0 11309700000.0 11309700000.0 11309700000.0 11309700000.0 11309700000.0 11309700000.0 11309700000.0 11309700000.0 11309700000.0 11309700000.0 11309700000.0 11309700000.0 11309700000.0 11309700000.0 11309700000.0 11309700000.0 11309700000.0 11309700000.0 11309700000.0 11309700000.0 11309700000.0 11309700000.0 11309700000.0 11309700000.0 11309700000.0 11309700000.0 11309700000.0 11309700000.0 11309700000.0 11309700000.0 11309700000.0 11309700000.0 11309700000.0 11309700000.0 11309700000.0 11309700000.0 11309700000.0 11309700000.0 11309700000.0 11309700000.0 11309700000.0 11309700000.0 11309700000.0 11309700000.0 11309700000.0 11309700000.0 11309700000.0 11309700000.0 11309700000.0 11309700000.0 11309700000.0 11309700000.0 11309700000.0 11309700000.0 11309700000.0 11309700000.0 11309700000.0 11309700000.0 11309700000.0 11309700000.0 11309700000.0 11309700000.0 11309700000.0 11309700000.0 11309700000.0 11309700000.0 11309700000.0 11309700000.0 11309700000.0 11309700000.0 11309700000.0 11309700000.0 11309700000.0 11309700000.0 11309700000.0 11309700000.0 11309700000.0 11309700000.0 11309700000.0 11309700000.0 11309700000.0 11309700000.0 11309700000.0 11309700000.0 11309700000.0 11309700000.0 11309700000.0 11309700000.0 11309700000.0 11309700000.0 11309700000.0 11309700000.0 11309700000.0 11309700000.0 11309700000.0 11309700000.0 11309700000.0 11309700000.0 11309700000.0 11309700000.0 11309700000.0 11309700000.0 11309700000.0 11309700000.0 11309700000.0 11309700000.0 11309700000.0 11309700000.0 11309700000.0 11309700000.0 11309700000.0 11309700000.0 11309700000.0 11309700000.0 11309700000.0 11309700000.0 11309700000.0 11309700000.0 11309700000.0 11309700000.0 11309700000.0 11309700000.0 11309700000.0 11309700000.0 11309700000.0 11309700000.0 11309700000.0 11309700000.0 11309700000.0 11309700000.0 11309700000.0 11309700000.0 11309700000.0 11309700000.0 11309700000.0 11309700000.0 11309700000.0 11309700000.0 11309700000.0 11309700000.0 11309700000.0 11309700000.0 11309700000.0 11309700000.0 11309700000.0 11309700000.0 11309700000.0 11309700000.0 11309700000.0 11309700000.0 11309700000.0 11309700000.0 11309700000.0 11309700000.0 11309700000.0 11309700000.0 11309700000.0 11309700000.0 11309700000.0 11309700000.0 11309700000.0 11309700000.0 11309700000.0 11309700000.0 11309700000.0 11309700000.0 11309700000.0 11309700000.0 11309700000.0 11309700000.0 11309700000.0 11309700000.0 11309700000.0 11309700000.0 11309700000.0 11309700000.0 11309700000.0 11309700000.0 11309700000.0 11309700000.0 11309700000.0 11309700000.0 11309700000.0 11309700000.0 11309700000.0 11309700000.0 11309700000.0 11309700000.0 11309700000.0 11309700000.0 11309700000.0 11309700000.0 11309700000.0 11309700000.0 11309700000.0 11309700000.0 11309700000.0 11309700000.0 11309700000.0 11309700000.0 11309700000.0 11309700000.0 11309700000.0 11309700000.0 11309700000.0 11309700000.0 11309700000.0 11309700000.0 11309700000.0 11309700000.0 11309700000.0 11309700000.0 11309700000.0 11309700000.0 11309700000.0 11309700000.0 11309700000.0 11309700000.0 11309700000.0 11309700000.0 11309700000.0 11309700000.0 11309700000.0 11309700000.0 11309700000.0 11309700000.0 11309700000.0 11309700000.0 11309700000.0 11309700000.0 11309700000.0 11309700000.0 11309700000.0 11309700000.0 11309700000.0 11309700000.0 11309700000.0 11309700000.0 11309700000.0 11309700000.0 11309700000.0 11309700000.0 11309700000.0 11309700000.0 11309700000.0 11309700000.0 11309700000.0 11309700000.0 11309700000.0 11309700000.0 11309700000.0 11309700000.0 11309700000.0 11309700000.0 11309700000.0 11309700000.0 11309700000.0 11309700000.0 11309700000.0 11309700000.0 11309700000.0 11309700000.0 11309700000.0 11309700000.0 11309700000.0 11309700000.0 11309700000.0 11309700000.0 11309700000.0 11309700000.0 11309700000.0 11309700000.0 11309700000.0 11309700000.0 11309700000.0 11309700000.0 11309700000.0 11309700000.0 11309700000.0 11309700000.0 11309700000.0 11309700000.0 11309700000.0 11309700000.0 11309700000.0 11309700000.0 11309700000.0 11309700000.0 11309700000.0 11309700000.0 11309700000.0 11309700000.0 11309700000.0 11309700000.0 11309700000.0 11309700000.0 11309700000.0 11309700000.0 11309700000.0 11309700000.0 11309700000.0 11309700000.0 11309700000.0 11309700000.0 11309700000.0 11309700000.0 11309700000.0 11309700000.0 11309700000.0 11309700000.0 11309700000.0 11309700000.0 11309700000.0 11309700000.0 11309700000.0 11309700000.0 11309700000.0 11309700000.0 11309700000.0 11309700000.0 11309700000.0 11309700000.0 11309700000.0 11309700000.0 11309700000.0 11309700000.0 11309700000.0 11309700000.0 11309700000.0 11309700000.0 11309700000.0 11309700000.0 11309700000.0 11309700000.0 11309700000.0 11309700000.0 11309700000.0 11309700000.0 11309700000.0 11309700000.0 11309700000.0 11309700000.0 11309700000.0 11309700000.0 11309700000.0 11309700000.0 11309700000.0 11309700000.0 11309700000.0 11309700000.0 11309700000.0 11309700000.0 11309700000.0 11309700000.0 11309700000.0 11309700000.0 11309700000.0 11309700000.0 11309700000.0 11309700000.0 11309700000.0 11309700000.0 11309700000.0 11309700000.0 11309700000.0 11309700000.0 11309700000.0 11309700000.0 11309700000.0 11309700000.0 11309700000.0 11309700000.0 11309700000.0 11309700000.0 11309700000.0 11309700000.0 11309700000.0 11309700000.0 11309700000.0 11309700000.0 11309700000.0 11309700000.0 11309700000.0 11309700000.0 11309700000.0 11309700000.0 11309700000.0 11309700000.0 11309700000.0 11309700000.0 11309700000.0 11309700000.0 11309700000.0 11309700000.0 11309700000.0 11309700000.0 11309700000.0 11309700000.0 11309700000.0 11309700000.0 11309700000.0 11309700000.0 11309700000.0 11309700000.0 11309700000.0 11309700000.0 11309700000.0 11309700000.0 11309700000.0 11309700000.0 11309700000.0 11309700000.0 11309700000.0 11309700000.0 11309700000.0 11309700000.0 11309700000.0 11309700000.0 11309700000.0 11309700000.0 11309700000.0 11309700000.0 11309700000.0 11309700000.0 11309700000.0 11309700000.0 11309700000.0 11309700000.0 11309700000.0 11309700000.0 11309700000.0 11309700000.0 11309700000.0 11309700000.0 11309700000.0 11309700000.0 11309700000.0 11309700000.0 11309700000.0 11309700000.0 11309700000.0 11309700000.0 11309700000.0 11309700000.0 11309700000.0 11309700000.0 11309700000.0 11309700000.0 11309700000.0 11309700000.0 11309700000.0 11309700000.0 11309700000.0 11309700000.0 11309700000.0 11309700000.0 11309700000.0 11309700000.0 11309700000.0 11309700000.0 11309700000.0 11309700000.0 11309700000.0 11309700000.0 11309700000.0 11309700000.0 11309700000.0 11309700000.0 11309700000.0 11309700000.0 11309700000.0 11309700000.0 11309700000.0 11309700000.0 11309700000.0 11309700000.0 11309700000.0 11309700000.0 11309700000.0 11309700000.0 11309700000.0 11309700000.0 11309700000.0 11309700000.0 11309700000.0 11309700000.0 11309700000.0 11309700000.0 11309700000.0 11309700000.0 11309700000.0 11309700000.0 11309700000.0 11309700000.0 11309700000.0 11309700000.0 11309700000.0 11309700000.0 11309700000.0 11309700000.0 11309700000.0 11309700000.0 11309700000.0 11309700000.0 11309700000.0 11309700000.0 11309700000.0 11309700000.0 11309700000.0 11309700000.0 11309700000.0 11309700000.0 11309700000.0 11309700000.0 11309700000.0 11309700000.0 11309700000.0 11309700000.0 11309700000.0 11309700000.0 11309700000.0 11309700000.0 11309700000.0 11309700000.0 11309700000.0 11309700000.0 11309700000.0 11309700000.0 11309700000.0 11309700000.0 11309700000.0 11309700000.0 11309700000.0 11309700000.0 11309700000.0 11309700000.0 11309700000.0 11309700000.0 11309700000.0 11309700000.0 11309700000.0 11309700000.0 11309700000.0 11309700000.0 11309700000.0 11309700000.0 11309700000.0 11309700000.0 11309700000.0 11309700000.0 11309700000.0 11309700000.0 11309700000.0 11309700000.0 11309700000.0 11309700000.0 11309700000.0 11309700000.0 11309700000.0 11309700000.0 11309700000.0 11309700000.0 11309700000.0 11309700000.0 11309700000.0 11309700000.0 11309700000.0 11309700000.0 11309700000.0 11309700000.0 11309700000.0 11309700000.0 11309700000.0 11309700000.0 11309700000.0 11309700000.0 11309700000.0 11309700000.0 11309700000.0 11309700000.0 11309700000.0 11309700000.0 11309700000.0 11309700000.0 11309700000.0 11309700000.0 11309700000.0 11309700000.0 11309700000.0 11309700000.0 11309700000.0 11309700000.0 11309700000.0 11309700000.0 11309700000.0 11309700000.0 11309700000.0 11309700000.0 11309700000.0 11309700000.0 11309700000.0 11309700000.0 11309700000.0 11309700000.0 11309700000.0 11309700000.0 11309700000.0 11309700000.0 11309700000.0 11309700000.0 11309700000.0 11309700000.0 11309700000.0 11309700000.0 11309700000.0 11309700000.0 11309700000.0 11309700000.0 11309700000.0 11309700000.0 11309700000.0 11309700000.0 11309700000.0 11309700000.0 11309700000.0 11309700000.0 11309700000.0 11309700000.0 11309700000.0 11309700000.0 11309700000.0 11309700000.0 11309700000.0 11309700000.0 11309700000.0 11309700000.0 11309700000.0 11309700000.0 11309700000.0 11309700000.0 11309700000.0 11309700000.0 11309700000.0 11309700000.0 11309700000.0 11309700000.0 11309700000.0 11309700000.0 11309700000.0 11309700000.0 11309700000.0 11309700000.0 11309700000.0 11309700000.0 11309700000.0 11309700000.0 11309700000.0 11309700000.0 11309700000.0 11309700000.0 11309700000.0 11309700000.0 11309700000.0 11309700000.0 11309700000.0 11309700000.0 11309700000.0 11309700000.0 11309700000.0 11309700000.0 11309700000.0 11309700000.0 11309700000.0 11309700000.0 11309700000.0 11309700000.0 11309700000.0 11309700000.0 11309700000.0 11309700000.0 11309700000.0 11309700000.0 11309700000.0 11309700000.0 11309700000.0 11309700000.0 11309700000.0 11309700000.0 11309700000.0 11309700000.0 11309700000.0 11309700000.0 11309700000.0 11309700000.0 11309700000.0 11309700000.0 11309700000.0 11309700000.0 11309700000.0 11309700000.0 11309700000.0 11309700000.0 11309700000.0 11309700000.0 11309700000.0 11309700000.0 11309700000.0 11309700000.0 11309700000.0 11309700000.0 11309700000.0 11309700000.0 11309700000.0 11309700000.0 11309700000.0 11309700000.0 11309700000.0 11309700000.0 11309700000.0 11309700000.0 11309700000.0 11309700000.0 11309700000.0 11309700000.0 11309700000.0 11309700000.0 11309700000.0 11309700000.0 11309700000.0 11309700000.0 11309700000.0 11309700000.0 11309700000.0 11309700000.0 11309700000.0 11309700000.0 11309700000.0 11309700000.0 11309700000.0 11309700000.0 11309700000.0 11309700000.0 11309700000.0 11309700000.0 11309700000.0 11309700000.0 11309700000.0 11309700000.0 11309700000.0 11309700000.0 11309700000.0 11309700000.0 11309700000.0 11309700000.0 11309700000.0 11309700000.0 11309700000.0 11309700000.0 11309700000.0 11309700000.0 11309700000.0 11309700000.0 11309700000.0 11309700000.0 11309700000.0 11309700000.0 11309700000.0 11309700000.0 11309700000.0 11309700000.0 11309700000.0 11309700000.0 11309700000.0 11309700000.0 11309700000.0 11309700000.0 11309700000.0 11309700000.0 11309700000.0 11309700000.0 11309700000.0 11309700000.0 11309700000.0 11309700000.0 11309700000.0 11309700000.0 11309700000.0 11309700000.0 11309700000.0 11309700000.0 11309700000.0 11309700000.0 11309700000.0 11309700000.0 11309700000.0 11309700000.0 11309700000.0 11309700000.0 11309700000.0 11309700000.0 11309700000.0 11309700000.0 11309700000.0 11309700000.0 11309700000.0 11309700000.0 11309700000.0 11309700000.0 11309700000.0 11309700000.0 11309700000.0 11309700000.0 11309700000.0 11309700000.0 11309700000.0 11309700000.0 11309700000.0 11309700000.0 11309700000.0 11309700000.0 11309700000.0 11309700000.0 11309700000.0 11309700000.0 11309700000.0 11309700000.0 11309700000.0 11309700000.0 11309700000.0 11309700000.0 11309700000.0 11309700000.0 11309700000.0 11309700000.0 11309700000.0 11309700000.0 11309700000.0 11309700000.0 11309700000.0 11309700000.0 11309700000.0 11309700000.0 11309700000.0 11309700000.0 11309700000.0 11309700000.0 11309700000.0 11309700000.0 11309700000.0 11309700000.0 11309700000.0 11309700000.0 11309700000.0 11309700000.0 11309700000.0 11309700000.0 11309700000.0 11309700000.0 11309700000.0 11309700000.0 11309700000.0 11309700000.0 11309700000.0 11309700000.0 11309700000.0 11309700000.0 11309700000.0 11309700000.0 11309700000.0 11309700000.0 11309700000.0 11309700000.0 11309700000.0 11309700000.0 11309700000.0 11309700000.0 11309700000.0 11309700000.0 11309700000.0 11309700000.0 11309700000.0 11309700000.0 11309700000.0 11309700000.0 11309700000.0 11309700000.0 11309700000.0 11309700000.0 11309700000.0 11309700000.0 11309700000.0 11309700000.0 11309700000.0 11309700000.0 11309700000.0 11309700000.0 11309700000.0 11309700000.0 11309700000.0 11309700000.0 11309700000.0 11309700000.0 11309700000.0 11309700000.0 11309700000.0 11309700000.0 11309700000.0 11309700000.0 11309700000.0 11309700000.0 11309700000.0 11309700000.0 11309700000.0 11309700000.0 11309700000.0 11309700000.0 11309700000.0 11309700000.0 11309700000.0 11309700000.0 11309700000.0 11309700000.0 11309700000.0 11309700000.0 11309700000.0 11309700000.0 11309700000.0 11309700000.0 11309700000.0 11309700000.0 11309700000.0 11309700000.0 11309700000.0 11309700000.0 11309700000.0 11309700000.0 11309700000.0 11309700000.0 11309700000.0 11309700000.0 11309700000.0 11309700000.0 11309700000.0 11309700000.0 11309700000.0 11309700000.0 11309700000.0 11309700000.0 11309700000.0 11309700000.0 11309700000.0 11309700000.0 11309700000.0 11309700000.0 11309700000.0 11309700000.0 11309700000.0 11309700000.0 11309700000.0 11309700000.0 11309700000.0 11309700000.0 11309700000.0 11309700000.0 11309700000.0 11309700000.0 11309700000.0 11309700000.0 11309700000.0 11309700000.0 11309700000.0 11309700000.0 11309700000.0 11309700000.0 11309700000.0 11309700000.0 11309700000.0 11309700000.0 11309700000.0 11309700000.0 11309700000.0 11309700000.0 11309700000.0 11309700000.0 11309700000.0 11309700000.0 11309700000.0 11309700000.0 11309700000.0 11309700000.0 11309700000.0 11309700000.0 11309700000.0 11309700000.0 11309700000.0 11309700000.0 11309700000.0 11309700000.0 11309700000.0 11309700000.0 11309700000.0 11309700000.0 11309700000.0 11309700000.0 11309700000.0 11309700000.0 11309700000.0 11309700000.0 11309700000.0 11309700000.0 11309700000.0 11309700000.0 11309700000.0 11309700000.0 11309700000.0 11309700000.0 11309700000.0 11309700000.0 11309700000.0 11309700000.0 11309700000.0 11309700000.0 11309700000.0 11309700000.0 11309700000.0 11309700000.0 11309700000.0 11309700000.0 11309700000.0 11309700000.0 11309700000.0 11309700000.0 11309700000.0 11309700000.0 11309700000.0 11309700000.0 11309700000.0 11309700000.0 11309700000.0 11309700000.0 11309700000.0 11309700000.0 11309700000.0 11309700000.0 11309700000.0 11309700000.0 11309700000.0 11309700000.0 11309700000.0 11309700000.0 11309700000.0 11309700000.0 11309700000.0 11309700000.0 11309700000.0 11309700000.0 11309700000.0 11309700000.0 11309700000.0 11309700000.0 11309700000.0 11309700000.0 11309700000.0 11309700000.0 11309700000.0 11309700000.0 11309700000.0 11309700000.0 11309700000.0 11309700000.0 11309700000.0 11309700000.0 11309700000.0 11309700000.0 11309700000.0 11309700000.0 11309700000.0 11309700000.0 11309700000.0 11309700000.0 11309700000.0 11309700000.0 11309700000.0 11309700000.0 11309700000.0 11309700000.0 11309700000.0 11309700000.0 11309700000.0 11309700000.0 11309700000.0 11309700000.0 11309700000.0 11309700000.0 11309700000.0 11309700000.0 11309700000.0 11309700000.0 11309700000.0 11309700000.0 11309700000.0 11309700000.0 11309700000.0 11309700000.0 11309700000.0 11309700000.0 11309700000.0 11309700000.0 11309700000.0 11309700000.0 11309700000.0 11309700000.0 11309700000.0 11309700000.0 11309700000.0 11309700000.0 11309700000.0 11309700000.0 11309700000.0 11309700000.0 11309700000.0 11309700000.0 11309700000.0 11309700000.0 11309700000.0 11309700000.0 11309700000.0 11309700000.0 11309700000.0 11309700000.0 11309700000.0 11309700000.0 11309700000.0 11309700000.0 11309700000.0 11309700000.0 11309700000.0 11309700000.0 11309700000.0 11309700000.0 11309700000.0 11309700000.0 11309700000.0 11309700000.0 11309700000.0 11309700000.0 11309700000.0 11309700000.0 11309700000.0 11309700000.0 11309700000.0 11309700000.0 11309700000.0 11309700000.0 11309700000.0 11309700000.0 11309700000.0 11309700000.0 11309700000.0 11309700000.0 11309700000.0 11309700000.0 11309700000.0 11309700000.0 11309700000.0 11309700000.0 11309700000.0 11309700000.0 11309700000.0 11309700000.0 11309700000.0 11309700000.0 11309700000.0 11309700000.0 11309700000.0 11309700000.0 11309700000.0 11309700000.0 11309700000.0 11309700000.0 11309700000.0 11309700000.0 11309700000.0 11309700000.0 11309700000.0 11309700000.0 11309700000.0 11309700000.0 11309700000.0 11309700000.0 11309700000.0 11309700000.0 11309700000.0 11309700000.0 11309700000.0 11309700000.0 11309700000.0 11309700000.0 11309700000.0 11309700000.0 11309700000.0 11309700000.0 11309700000.0 11309700000.0 11309700000.0 11309700000.0 11309700000.0 11309700000.0 11309700000.0 11309700000.0 11309700000.0 11309700000.0 11309700000.0 11309700000.0 11309700000.0 11309700000.0 11309700000.0 11309700000.0 11309700000.0 11309700000.0 11309700000.0 11309700000.0 11309700000.0 11309700000.0 11309700000.0 11309700000.0 11309700000.0 11309700000.0 11309700000.0 11309700000.0 11309700000.0 11309700000.0 11309700000.0 11309700000.0 11309700000.0 11309700000.0 11309700000.0 11309700000.0 11309700000.0 11309700000.0 11309700000.0 11309700000.0 11309700000.0 11309700000.0 11309700000.0 11309700000.0 11309700000.0 11309700000.0 11309700000.0 11309700000.0 11309700000.0 11309700000.0 11309700000.0 11309700000.0 11309700000.0 11309700000.0 11309700000.0 11309700000.0 11309700000.0 11309700000.0 11309700000.0 11309700000.0 11309700000.0 11309700000.0 11309700000.0 11309700000.0 11309700000.0 11309700000.0 11309700000.0 11309700000.0 11309700000.0 11309700000.0 11309700000.0 11309700000.0 11309700000.0 11309700000.0 11309700000.0 11309700000.0 11309700000.0 11309700000.0 11309700000.0 11309700000.0 11309700000.0 11309700000.0 11309700000.0 11309700000.0 11309700000.0 11309700000.0 11309700000.0 11309700000.0 11309700000.0 11309700000.0 11309700000.0 11309700000.0 11309700000.0 11309700000.0 11309700000.0 11309700000.0 11309700000.0 11309700000.0 11309700000.0 11309700000.0 11309700000.0 11309700000.0 11309700000.0 11309700000.0 11309700000.0 11309700000.0 11309700000.0 11309700000.0 11309700000.0 11309700000.0 11309700000.0 11309700000.0 11309700000.0 11309700000.0 11309700000.0 11309700000.0 11309700000.0 11309700000.0 11309700000.0 11309700000.0 11309700000.0 11309700000.0 11309700000.0 11309700000.0 11309700000.0 11309700000.0 11309700000.0 11309700000.0 11309700000.0 11309700000.0 11309700000.0 11309700000.0 11309700000.0 11309700000.0 11309700000.0 11309700000.0 11309700000.0 11309700000.0 11309700000.0 11309700000.0 11309700000.0 11309700000.0 11309700000.0 11309700000.0 11309700000.0 11309700000.0 11309700000.0 11309700000.0 11309700000.0 11309700000.0 11309700000.0 11309700000.0 11309700000.0 11309700000.0 11309700000.0 11309700000.0 11309700000.0 11309700000.0 11309700000.0 11309700000.0 11309700000.0 11309700000.0 11309700000.0 11309700000.0 11309700000.0 11309700000.0 11309700000.0 11309700000.0 11309700000.0 11309700000.0 11309700000.0 11309700000.0 11309700000.0 11309700000.0 11309700000.0 11309700000.0 11309700000.0 11309700000.0 11309700000.0 11309700000.0 11309700000.0 11309700000.0 11309700000.0 11309700000.0 11309700000.0 11309700000.0 11309700000.0 11309700000.0 11309700000.0 11309700000.0 11309700000.0 11309700000.0 11309700000.0 11309700000.0 11309700000.0 11309700000.0 11309700000.0 11309700000.0 11309700000.0 11309700000.0 11309700000.0 11309700000.0 11309700000.0 11309700000.0 11309700000.0 11309700000.0 11309700000.0 11309700000.0 11309700000.0 11309700000.0 11309700000.0 11309700000.0 11309700000.0 11309700000.0 11309700000.0 11309700000.0 11309700000.0 11309700000.0 11309700000.0 11309700000.0 11309700000.0 11309700000.0 11309700000.0 11309700000.0 11309700000.0 11309700000.0 11309700000.0 11309700000.0 11309700000.0 11309700000.0 11309700000.0 11309700000.0 11309700000.0 11309700000.0 11309700000.0 11309700000.0 11309700000.0 11309700000.0 11309700000.0 11309700000.0 11309700000.0 11309700000.0 11309700000.0 11309700000.0 11309700000.0 11309700000.0 11309700000.0 11309700000.0 11309700000.0 11309700000.0 11309700000.0 11309700000.0 11309700000.0 11309700000.0 11309700000.0 11309700000.0 11309700000.0 11309700000.0 11309700000.0 11309700000.0 11309700000.0 11309700000.0 11309700000.0 11309700000.0 11309700000.0 11309700000.0 11309700000.0 11309700000.0 11309700000.0 11309700000.0 11309700000.0 11309700000.0 11309700000.0 11309700000.0 11309700000.0 11309700000.0 11309700000.0 11309700000.0 11309700000.0 11309700000.0 11309700000.0 11309700000.0 11309700000.0 11309700000.0 11309700000.0 11309700000.0 11309700000.0 11309700000.0 11309700000.0 11309700000.0 11309700000.0 11309700000.0 11309700000.0 11309700000.0 11309700000.0 11309700000.0 11309700000.0 11309700000.0 11309700000.0 11309700000.0 11309700000.0 11309700000.0 11309700000.0 11309700000.0 11309700000.0 11309700000.0 11309700000.0 11309700000.0 11309700000.0 11309700000.0 11309700000.0 11309700000.0 11309700000.0 11309700000.0 11309700000.0 11309700000.0 11309700000.0 11309700000.0 11309700000.0 11309700000.0 11309700000.0 11309700000.0 11309700000.0 11309700000.0 11309700000.0 11309700000.0 11309700000.0 11309700000.0 11309700000.0 11309700000.0 11309700000.0 11309700000.0 11309700000.0 11309700000.0 11309700000.0 11309700000.0 11309700000.0 11309700000.0 11309700000.0 11309700000.0 11309700000.0 11309700000.0 11309700000.0 11309700000.0 11309700000.0 11309700000.0 11309700000.0 11309700000.0 11309700000.0 11309700000.0 11309700000.0 11309700000.0 11309700000.0 11309700000.0 11309700000.0 11309700000.0 11309700000.0 11309700000.0 11309700000.0 11309700000.0 11309700000.0 11309700000.0 11309700000.0 11309700000.0 11309700000.0 11309700000.0 11309700000.0 11309700000.0 11309700000.0 11309700000.0 11309700000.0 11309700000.0 11309700000.0 11309700000.0 11309700000.0 11309700000.0 11309700000.0 11309700000.0 11309700000.0 11309700000.0 11309700000.0 11309700000.0 11309700000.0 11309700000.0 11309700000.0 11309700000.0 11309700000.0 11309700000.0 11309700000.0 11309700000.0 11309700000.0 11309700000.0 11309700000.0 11309700000.0 11309700000.0 11309700000.0 11309700000.0 11309700000.0 11309700000.0 11309700000.0 11309700000.0 11309700000.0 11309700000.0 11309700000.0 11309700000.0 11309700000.0 11309700000.0 11309700000.0 11309700000.0 11309700000.0 11309700000.0 11309700000.0 11309700000.0 11309700000.0 11309700000.0 11309700000.0 11309700000.0 11309700000.0 11309700000.0 11309700000.0 11309700000.0 11309700000.0 11309700000.0 11309700000.0 11309700000.0 11309700000.0 11309700000.0 11309700000.0 11309700000.0 11309700000.0 11309700000.0 11309700000.0 11309700000.0 11309700000.0 11309700000.0 11309700000.0 11309700000.0 11309700000.0 11309700000.0 11309700000.0 11309700000.0 11309700000.0 11309700000.0 11309700000.0 11309700000.0 11309700000.0 11309700000.0 11309700000.0 11309700000.0 11309700000.0 11309700000.0 11309700000.0 11309700000.0 11309700000.0 11309700000.0 11309700000.0 11309700000.0 11309700000.0 11309700000.0 11309700000.0 11309700000.0 11309700000.0 11309700000.0 11309700000.0 11309700000.0 11309700000.0 11309700000.0 11309700000.0 11309700000.0 11309700000.0 11309700000.0 11309700000.0 11309700000.0 11309700000.0 11309700000.0 11309700000.0 11309700000.0 11309700000.0 11309700000.0 11309700000.0 11309700000.0 11309700000.0 11309700000.0 11309700000.0 11309700000.0 11309700000.0 11309700000.0 11309700000.0 11309700000.0 11309700000.0 11309700000.0 11309700000.0 11309700000.0 11309700000.0 11309700000.0 11309700000.0 11309700000.0 11309700000.0 11309700000.0 11309700000.0 11309700000.0 11309700000.0 11309700000.0 11309700000.0 11309700000.0 11309700000.0 11309700000.0 11309700000.0 11309700000.0 11309700000.0 11309700000.0 11309700000.0 11309700000.0 11309700000.0 11309700000.0 11309700000.0 11309700000.0 11309700000.0 11309700000.0 11309700000.0 11309700000.0 11309700000.0 11309700000.0 11309700000.0 11309700000.0 11309700000.0 11309700000.0 11309700000.0 11309700000.0 11309700000.0 11309700000.0 11309700000.0 11309700000.0 11309700000.0 11309700000.0 11309700000.0 11309700000.0 11309700000.0 11309700000.0 11309700000.0 11309700000.0 11309700000.0 11309700000.0 11309700000.0 11309700000.0 11309700000.0 11309700000.0 11309700000.0 11309700000.0 11309700000.0 11309700000.0 11309700000.0 11309700000.0 11309700000.0 11309700000.0 11309700000.0 11309700000.0 11309700000.0 11309700000.0 11309700000.0 11309700000.0 11309700000.0 11309700000.0 11309700000.0 11309700000.0 11309700000.0 11309700000.0 11309700000.0 11309700000.0 11309700000.0 11309700000.0 11309700000.0 11309700000.0 11309700000.0 11309700000.0 11309700000.0 11309700000.0 11309700000.0 11309700000.0 11309700000.0 11309700000.0 11309700000.0 11309700000.0 11309700000.0 11309700000.0 11309700000.0 11309700000.0 11309700000.0 11309700000.0 11309700000.0 11309700000.0 11309700000.0 11309700000.0 11309700000.0 11309700000.0 11309700000.0 11309700000.0 11309700000.0 11309700000.0 11309700000.0 11309700000.0 11309700000.0 11309700000.0 11309700000.0 11309700000.0 11309700000.0 11309700000.0 11309700000.0 11309700000.0 11309700000.0 11309700000.0 11309700000.0 11309700000.0 11309700000.0 11309700000.0 11309700000.0 11309700000.0 11309700000.0 11309700000.0 11309700000.0 11309700000.0 11309700000.0 11309700000.0 11309700000.0 11309700000.0 11309700000.0 11309700000.0 11309700000.0 11309700000.0 11309700000.0 11309700000.0 11309700000.0 11309700000.0 11309700000.0 11309700000.0 11309700000.0 11309700000.0 11309700000.0 11309700000.0 11309700000.0 11309700000.0 11309700000.0 11309700000.0 11309700000.0 11309700000.0 11309700000.0 11309700000.0 11309700000.0 11309700000.0 11309700000.0 11309700000.0 11309700000.0 11309700000.0 11309700000.0 11309700000.0 11309700000.0 11309700000.0 11309700000.0 11309700000.0 11309700000.0 11309700000.0 11309700000.0 11309700000.0 11309700000.0 11309700000.0 11309700000.0 11309700000.0 11309700000.0 11309700000.0 11309700000.0 11309700000.0 11309700000.0 11309700000.0 11309700000.0 11309700000.0 11309700000.0 11309700000.0 11309700000.0 11309700000.0 11309700000.0 11309700000.0 11309700000.0 11309700000.0 11309700000.0 11309700000.0 11309700000.0 11309700000.0 11309700000.0 11309700000.0 11309700000.0 11309700000.0 11309700000.0 11309700000.0 11309700000.0 11309700000.0 11309700000.0 11309700000.0 11309700000.0 11309700000.0 11309700000.0 11309700000.0 11309700000.0 11309700000.0 11309700000.0 11309700000.0 11309700000.0 11309700000.0 11309700000.0 11309700000.0 11309700000.0 11309700000.0 11309700000.0 11309700000.0 11309700000.0 11309700000.0 11309700000.0 11309700000.0 11309700000.0 11309700000.0 11309700000.0 11309700000.0 11309700000.0 11309700000.0 11309700000.0 11309700000.0 11309700000.0 11309700000.0 11309700000.0 11309700000.0 11309700000.0 11309700000.0 11309700000.0 11309700000.0 11309700000.0 11309700000.0 11309700000.0 11309700000.0 11309700000.0 11309700000.0 11309700000.0 11309700000.0 11309700000.0 11309700000.0 11309700000.0 11309700000.0 11309700000.0 11309700000.0 11309700000.0 11309700000.0 11309700000.0 11309700000.0 11309700000.0 11309700000.0 11309700000.0 11309700000.0 11309700000.0 11309700000.0 11309700000.0 11309700000.0 11309700000.0 11309700000.0 11309700000.0 11309700000.0 11309700000.0 11309700000.0 11309700000.0 11309700000.0 11309700000.0 11309700000.0 11309700000.0 11309700000.0 11309700000.0 11309700000.0 11309700000.0 11309700000.0 11309700000.0 11309700000.0 11309700000.0 11309700000.0 11309700000.0 11309700000.0 11309700000.0 11309700000.0 11309700000.0 11309700000.0 11309700000.0 11309700000.0 11309700000.0 11309700000.0 11309700000.0 11309700000.0 11309700000.0 11309700000.0 11309700000.0 11309700000.0 11309700000.0 11309700000.0 11309700000.0 11309700000.0 11309700000.0 11309700000.0 11309700000.0 11309700000.0 11309700000.0 11309700000.0 11309700000.0 11309700000.0 11309700000.0 11309700000.0 11309700000.0 11309700000.0 11309700000.0 11309700000.0 11309700000.0 11309700000.0 11309700000.0 11309700000.0 11309700000.0 11309700000.0 11309700000.0 11309700000.0 11309700000.0 11309700000.0 11309700000.0 11309700000.0 11309700000.0 11309700000.0 11309700000.0 11309700000.0 11309700000.0 11309700000.0 11309700000.0 11309700000.0 11309700000.0 11309700000.0 11309700000.0 11309700000.0 11309700000.0 11309700000.0 11309700000.0 11309700000.0 11309700000.0 11309700000.0 11309700000.0 11309700000.0 11309700000.0 11309700000.0 11309700000.0 11309700000.0 11309700000.0 11309700000.0 11309700000.0 11309700000.0 11309700000.0 11309700000.0 11309700000.0 11309700000.0 11309700000.0 11309700000.0 11309700000.0 11309700000.0 11309700000.0 11309700000.0 11309700000.0 11309700000.0 11309700000.0 11309700000.0 11309700000.0 11309700000.0 11309700000.0 11309700000.0 11309700000.0 11309700000.0 11309700000.0 11309700000.0 11309700000.0 11309700000.0 11309700000.0 11309700000.0 11309700000.0 11309700000.0 11309700000.0 11309700000.0 11309700000.0 11309700000.0 11309700000.0 11309700000.0 11309700000.0 11309700000.0 11309700000.0 11309700000.0 11309700000.0 11309700000.0 11309700000.0 11309700000.0 11309700000.0 11309700000.0 11309700000.0 11309700000.0 11309700000.0 11309700000.0 11309700000.0 11309700000.0 11309700000.0 11309700000.0 11309700000.0 11309700000.0 11309700000.0 11309700000.0 11309700000.0 11309700000.0 11309700000.0 11309700000.0 11309700000.0 11309700000.0 11309700000.0 11309700000.0 11309700000.0 11309700000.0 11309700000.0 11309700000.0 11309700000.0 11309700000.0 11309700000.0 11309700000.0 11309700000.0 11309700000.0 11309700000.0 11309700000.0 11309700000.0 11309700000.0 11309700000.0 11309700000.0 11309700000.0 11309700000.0 11309700000.0 11309700000.0 11309700000.0 11309700000.0 11309700000.0 11309700000.0 11309700000.0 11309700000.0 11309700000.0 11309700000.0 11309700000.0 11309700000.0 11309700000.0 11309700000.0 11309700000.0 11309700000.0 11309700000.0 11309700000.0 11309700000.0 11309700000.0 11309700000.0 11309700000.0 11309700000.0 11309700000.0 11309700000.0 11309700000.0 11309700000.0 11309700000.0 11309700000.0 11309700000.0 11309700000.0 11309700000.0 11309700000.0 11309700000.0 11309700000.0 11309700000.0 11309700000.0 11309700000.0 11309700000.0 11309700000.0 11309700000.0 11309700000.0 11309700000.0 11309700000.0 11309700000.0 11309700000.0 11309700000.0 11309700000.0 11309700000.0 11309700000.0 11309700000.0 11309700000.0 11309700000.0 11309700000.0 11309700000.0 11309700000.0 11309700000.0 11309700000.0 11309700000.0 11309700000.0 11309700000.0 11309700000.0 11309700000.0 11309700000.0 11309700000.0 11309700000.0 11309700000.0 11309700000.0 11309700000.0 11309700000.0 11309700000.0 11309700000.0 11309700000.0 11309700000.0 11309700000.0 11309700000.0 11309700000.0 11309700000.0 11309700000.0 11309700000.0 11309700000.0 11309700000.0 11309700000.0 11309700000.0 11309700000.0 11309700000.0 11309700000.0 11309700000.0 11309700000.0 11309700000.0 11309700000.0 11309700000.0 11309700000.0 11309700000.0 11309700000.0 11309700000.0 11309700000.0 11309700000.0 11309700000.0 11309700000.0 11309700000.0 11309700000.0 11309700000.0 11309700000.0 11309700000.0 11309700000.0 11309700000.0 11309700000.0 11309700000.0 11309700000.0 11309700000.0 11309700000.0 11309700000.0 11309700000.0 11309700000.0 11309700000.0 11309700000.0 11309700000.0 11309700000.0 11309700000.0 11309700000.0 11309700000.0 11309700000.0 11309700000.0 11309700000.0 11309700000.0 11309700000.0 11309700000.0 11309700000.0 11309700000.0 11309700000.0 11309700000.0 11309700000.0 11309700000.0 11309700000.0 11309700000.0 11309700000.0 11309700000.0 11309700000.0 11309700000.0 11309700000.0 11309700000.0 11309700000.0 11309700000.0 11309700000.0 11309700000.0 11309700000.0 11309700000.0 11309700000.0 11309700000.0 11309700000.0 11309700000.0 11309700000.0 11309700000.0 11309700000.0 11309700000.0 11309700000.0 11309700000.0 11309700000.0 11309700000.0 11309700000.0 11309700000.0 11309700000.0 11309700000.0 11309700000.0 11309700000.0 11309700000.0 11309700000.0 11309700000.0 11309700000.0 11309700000.0 11309700000.0 11309700000.0 11309700000.0 11309700000.0 11309700000.0 11309700000.0 11309700000.0 11309700000.0 11309700000.0 11309700000.0 11309700000.0 11309700000.0 11309700000.0 11309700000.0 11309700000.0 11309700000.0 11309700000.0 11309700000.0 11309700000.0 11309700000.0 11309700000.0 11309700000.0 11309700000.0 11309700000.0 11309700000.0 11309700000.0 11309700000.0 11309700000.0 11309700000.0 11309700000.0 11309700000.0 11309700000.0 11309700000.0 11309700000.0 11309700000.0 11309700000.0 11309700000.0 11309700000.0 11309700000.0 11309700000.0 11309700000.0 11309700000.0 11309700000.0 11309700000.0 11309700000.0 11309700000.0 11309700000.0 11309700000.0 11309700000.0 11309700000.0 11309700000.0 11309700000.0 11309700000.0 11309700000.0 11309700000.0 11309700000.0 11309700000.0 11309700000.0 11309700000.0 11309700000.0 11309700000.0 11309700000.0 11309700000.0 11309700000.0 11309700000.0 11309700000.0 11309700000.0 11309700000.0 11309700000.0 11309700000.0 11309700000.0 11309700000.0 11309700000.0 11309700000.0 11309700000.0 11309700000.0 11309700000.0 11309700000.0 11309700000.0 11309700000.0 11309700000.0 11309700000.0 11309700000.0 11309700000.0 11309700000.0 11309700000.0 11309700000.0 11309700000.0 11309700000.0 11309700000.0 11309700000.0 11309700000.0 11309700000.0 11309700000.0 11309700000.0 11309700000.0 11309700000.0 11309700000.0 11309700000.0 11309700000.0 11309700000.0 11309700000.0 11309700000.0 11309700000.0 11309700000.0 11309700000.0 11309700000.0 11309700000.0 11309700000.0 11309700000.0 11309700000.0 11309700000.0 11309700000.0 11309700000.0 11309700000.0 11309700000.0 11309700000.0 11309700000.0 11309700000.0 11309700000.0 11309700000.0 11309700000.0 11309700000.0 11309700000.0 11309700000.0 11309700000.0 11309700000.0 11309700000.0 11309700000.0 11309700000.0 11309700000.0 11309700000.0 11309700000.0 11309700000.0 11309700000.0 11309700000.0 11309700000.0 11309700000.0 11309700000.0 11309700000.0 11309700000.0 11309700000.0 11309700000.0 11309700000.0 11309700000.0 11309700000.0 11309700000.0 11309700000.0 11309700000.0 11309700000.0 11309700000.0 11309700000.0 11309700000.0 11309700000.0 11309700000.0 11309700000.0 11309700000.0 11309700000.0 11309700000.0 11309700000.0 11309700000.0 11309700000.0 11309700000.0 11309700000.0 11309700000.0 11309700000.0 11309700000.0 11309700000.0 11309700000.0 11309700000.0 11309700000.0 11309700000.0 11309700000.0 11309700000.0 11309700000.0 11309700000.0 11309700000.0 11309700000.0 11309700000.0 11309700000.0 11309700000.0 11309700000.0 11309700000.0 11309700000.0 11309700000.0 11309700000.0 11309700000.0 11309700000.0 11309700000.0 11309700000.0 11309700000.0 11309700000.0 11309700000.0 11309700000.0 11309700000.0 11309700000.0 11309700000.0 11309700000.0 11309700000.0 11309700000.0 11309700000.0 11309700000.0 11309700000.0 11309700000.0 11309700000.0 11309700000.0 11309700000.0 11309700000.0 11309700000.0 11309700000.0 11309700000.0 11309700000.0 11309700000.0 11309700000.0 11309700000.0 11309700000.0 11309700000.0 11309700000.0 11309700000.0 11309700000.0 11309700000.0 11309700000.0 11309700000.0 11309700000.0 11309700000.0 11309700000.0 11309700000.0 11309700000.0 11309700000.0 11309700000.0 11309700000.0 11309700000.0 11309700000.0 11309700000.0 11309700000.0 11309700000.0 11309700000.0 11309700000.0 11309700000.0 11309700000.0 11309700000.0 11309700000.0 11309700000.0 11309700000.0 11309700000.0 11309700000.0 11309700000.0 11309700000.0 11309700000.0 11309700000.0 11309700000.0 11309700000.0 11309700000.0 11309700000.0 11309700000.0 11309700000.0 11309700000.0 11309700000.0 11309700000.0 11309700000.0 11309700000.0 11309700000.0 11309700000.0 11309700000.0 11309700000.0 11309700000.0 11309700000.0 11309700000.0 11309700000.0 11309700000.0 11309700000.0 11309700000.0 11309700000.0 11309700000.0 11309700000.0 11309700000.0 11309700000.0 11309700000.0 11309700000.0 11309700000.0 11309700000.0 11309700000.0 11309700000.0 11309700000.0 11309700000.0 11309700000.0 11309700000.0 11309700000.0 11309700000.0 11309700000.0 11309700000.0 11309700000.0 11309700000.0 11309700000.0 11309700000.0 11309700000.0 11309700000.0 11309700000.0 11309700000.0 11309700000.0 11309700000.0 11309700000.0 11309700000.0 11309700000.0 11309700000.0 11309700000.0 11309700000.0 11309700000.0 11309700000.0 11309700000.0 11309700000.0 11309700000.0 11309700000.0 11309700000.0 11309700000.0 11309700000.0 11309700000.0 11309700000.0 11309700000.0 11309700000.0 11309700000.0 11309700000.0 11309700000.0 11309700000.0 11309700000.0 11309700000.0 11309700000.0 11309700000.0 11309700000.0 11309700000.0 11309700000.0 11309700000.0 11309700000.0 11309700000.0 11309700000.0 11309700000.0 11309700000.0 11309700000.0 11309700000.0 11309700000.0 11309700000.0 11309700000.0 11309700000.0 11309700000.0 11309700000.0 11309700000.0 11309700000.0 11309700000.0 11309700000.0 11309700000.0 11309700000.0 11309700000.0 11309700000.0 11309700000.0 11309700000.0 11309700000.0 11309700000.0 11309700000.0 11309700000.0 11309700000.0 11309700000.0 11309700000.0 11309700000.0 11309700000.0 11309700000.0 11309700000.0 11309700000.0 11309700000.0 11309700000.0 11309700000.0 11309700000.0 11309700000.0 11309700000.0 11309700000.0 11309700000.0 11309700000.0 11309700000.0 11309700000.0 11309700000.0 11309700000.0 11309700000.0 11309700000.0 11309700000.0 11309700000.0 11309700000.0 11309700000.0 11309700000.0 11309700000.0 11309700000.0 11309700000.0 11309700000.0 11309700000.0 11309700000.0 11309700000.0 11309700000.0 11309700000.0 11309700000.0 11309700000.0 11309700000.0 11309700000.0 11309700000.0 11309700000.0 11309700000.0 11309700000.0 11309700000.0 11309700000.0 11309700000.0 11309700000.0 11309700000.0 11309700000.0 11309700000.0 11309700000.0 11309700000.0 11309700000.0 11309700000.0 11309700000.0 11309700000.0 11309700000.0 11309700000.0 11309700000.0 11309700000.0 11309700000.0 11309700000.0 11309700000.0 11309700000.0 11309700000.0 11309700000.0 11309700000.0 11309700000.0 11309700000.0 11309700000.0 11309700000.0 11309700000.0 11309700000.0 11309700000.0 11309700000.0 11309700000.0 11309700000.0 11309700000.0 11309700000.0 11309700000.0 11309700000.0 11309700000.0 11309700000.0 11309700000.0 11309700000.0 11309700000.0 11309700000.0 11309700000.0 11309700000.0 11309700000.0 11309700000.0 11309700000.0 11309700000.0 11309700000.0 11309700000.0 11309700000.0 11309700000.0 11309700000.0 11309700000.0 11309700000.0 11309700000.0 11309700000.0 11309700000.0 11309700000.0 11309700000.0 11309700000.0 11309700000.0 11309700000.0 11309700000.0 11309700000.0 11309700000.0 11309700000.0 11309700000.0 11309700000.0 11309700000.0 11309700000.0 11309700000.0 11309700000.0 11309700000.0 11309700000.0 11309700000.0 11309700000.0 11309700000.0 11309700000.0 11309700000.0 11309700000.0 11309700000.0 11309700000.0 11309700000.0 11309700000.0 11309700000.0 11309700000.0 11309700000.0 11309700000.0 11309700000.0 11309700000.0 11309700000.0 11309700000.0 11309700000.0 11309700000.0 11309700000.0 11309700000.0 11309700000.0 11309700000.0 11309700000.0 11309700000.0 11309700000.0 11309700000.0 11309700000.0 11309700000.0 11309700000.0 11309700000.0 11309700000.0 11309700000.0 11309700000.0 11309700000.0 11309700000.0 11309700000.0 11309700000.0 11309700000.0 11309700000.0 11309700000.0 11309700000.0 11309700000.0 11309700000.0 11309700000.0 11309700000.0 11309700000.0 11309700000.0 11309700000.0 11309700000.0 11309700000.0 11309700000.0 11309700000.0 11309700000.0 11309700000.0 11309700000.0 11309700000.0 11309700000.0 11309700000.0 11309700000.0 11309700000.0 11309700000.0 11309700000.0 11309700000.0 11309700000.0 11309700000.0 11309700000.0 11309700000.0 11309700000.0 11309700000.0 11309700000.0 11309700000.0 11309700000.0 11309700000.0 11309700000.0 11309700000.0 11309700000.0 11309700000.0 11309700000.0 11309700000.0 11309700000.0 11309700000.0 11309700000.0 11309700000.0 11309700000.0 11309700000.0 11309700000.0 11309700000.0 11309700000.0 11309700000.0 11309700000.0 11309700000.0 11309700000.0 11309700000.0 11309700000.0 11309700000.0 11309700000.0 11309700000.0 11309700000.0 11309700000.0 11309700000.0 11309700000.0 11309700000.0 11309700000.0 11309700000.0 11309700000.0 11309700000.0 11309700000.0 11309700000.0 11309700000.0 11309700000.0 11309700000.0 11309700000.0 11309700000.0 11309700000.0 11309700000.0 11309700000.0 11309700000.0 11309700000.0 11309700000.0 11309700000.0 11309700000.0 11309700000.0 11309700000.0 11309700000.0 11309700000.0 11309700000.0 11309700000.0 11309700000.0 11309700000.0 11309700000.0 11309700000.0 11309700000.0 11309700000.0 11309700000.0 11309700000.0 11309700000.0 11309700000.0 11309700000.0 11309700000.0 11309700000.0 11309700000.0 11309700000.0 11309700000.0 11309700000.0 11309700000.0 11309700000.0 11309700000.0 11309700000.0 11309700000.0 11309700000.0 11309700000.0 11309700000.0 11309700000.0 11309700000.0 11309700000.0 11309700000.0 11309700000.0 11309700000.0 11309700000.0 11309700000.0 11309700000.0 11309700000.0 11309700000.0 11309700000.0 11309700000.0 11309700000.0 11309700000.0 11309700000.0 11309700000.0 11309700000.0 11309700000.0 11309700000.0 11309700000.0 11309700000.0 11309700000.0 11309700000.0 11309700000.0 11309700000.0 11309700000.0 11309700000.0 11309700000.0 11309700000.0 11309700000.0 11309700000.0 11309700000.0 11309700000.0 11309700000.0 11309700000.0 11309700000.0 11309700000.0 11309700000.0 11309700000.0 11309700000.0 11309700000.0 11309700000.0 11309700000.0 11309700000.0 11309700000.0 11309700000.0 11309700000.0 11309700000.0 11309700000.0 11309700000.0 11309700000.0 11309700000.0 11309700000.0 11309700000.0 11309700000.0 11309700000.0 11309700000.0 11309700000.0 11309700000.0 11309700000.0 11309700000.0 11309700000.0 11309700000.0 11309700000.0 11309700000.0 11309700000.0 11309700000.0 11309700000.0 11309700000.0 11309700000.0 11309700000.0 11309700000.0 11309700000.0 11309700000.0 11309700000.0 11309700000.0 11309700000.0 11309700000.0 11309700000.0 11309700000.0 11309700000.0 11309700000.0 11309700000.0 11309700000.0 11309700000.0 11309700000.0 11309700000.0 11309700000.0 11309700000.0 11309700000.0 11309700000.0 11309700000.0 11309700000.0 11309700000.0 11309700000.0 11309700000.0 11309700000.0 11309700000.0 11309700000.0 11309700000.0 11309700000.0 11309700000.0 11309700000.0 11309700000.0 11309700000.0 11309700000.0 11309700000.0 11309700000.0 11309700000.0 11309700000.0 11309700000.0 11309700000.0 11309700000.0 11309700000.0 11309700000.0 11309700000.0 11309700000.0 11309700000.0 11309700000.0 11309700000.0 11309700000.0 11309700000.0 11309700000.0 11309700000.0 11309700000.0 11309700000.0 11309700000.0 11309700000.0 11309700000.0 11309700000.0 11309700000.0 11309700000.0 11309700000.0 11309700000.0 11309700000.0 11309700000.0 11309700000.0 11309700000.0 11309700000.0 11309700000.0 11309700000.0 11309700000.0 11309700000.0 11309700000.0 11309700000.0 11309700000.0 11309700000.0 11309700000.0 11309700000.0 11309700000.0 11309700000.0 11309700000.0 11309700000.0 11309700000.0 11309700000.0 11309700000.0 11309700000.0 11309700000.0 11309700000.0 11309700000.0 11309700000.0 11309700000.0 11309700000.0 11309700000.0 11309700000.0 11309700000.0 11309700000.0 11309700000.0 11309700000.0 11309700000.0 11309700000.0 11309700000.0 11309700000.0 11309700000.0 11309700000.0 11309700000.0 11309700000.0 11309700000.0 11309700000.0 11309700000.0 11309700000.0 11309700000.0 11309700000.0 11309700000.0 11309700000.0 11309700000.0 11309700000.0 11309700000.0 11309700000.0 11309700000.0 11309700000.0 11309700000.0 11309700000.0 11309700000.0 11309700000.0 11309700000.0 11309700000.0 11309700000.0 11309700000.0 11309700000.0 11309700000.0 11309700000.0 11309700000.0 11309700000.0 11309700000.0 11309700000.0 11309700000.0 11309700000.0 11309700000.0 11309700000.0 11309700000.0 11309700000.0 11309700000.0 11309700000.0 11309700000.0 11309700000.0 11309700000.0 11309700000.0 11309700000.0 11309700000.0 11309700000.0 11309700000.0 11309700000.0 11309700000.0 11309700000.0 11309700000.0 11309700000.0 11309700000.0 11309700000.0 11309700000.0 11309700000.0 11309700000.0 11309700000.0 11309700000.0 11309700000.0 11309700000.0 11309700000.0 11309700000.0 11309700000.0 11309700000.0 11309700000.0 11309700000.0 11309700000.0 11309700000.0 11309700000.0 11309700000.0 11309700000.0 11309700000.0 11309700000.0 11309700000.0 11309700000.0 11309700000.0 11309700000.0 11309700000.0 11309700000.0 11309700000.0 11309700000.0 11309700000.0 11309700000.0 11309700000.0 11309700000.0 11309700000.0 11309700000.0 11309700000.0 11309700000.0 11309700000.0 11309700000.0 11309700000.0 11309700000.0 11309700000.0 11309700000.0 11309700000.0 11309700000.0 11309700000.0 11309700000.0 11309700000.0 11309700000.0 11309700000.0 11309700000.0 11309700000.0 11309700000.0 11309700000.0 11309700000.0 11309700000.0 11309700000.0 11309700000.0 11309700000.0 11309700000.0 11309700000.0 11309700000.0 11309700000.0 11309700000.0 11309700000.0 11309700000.0 11309700000.0 11309700000.0 11309700000.0 11309700000.0 11309700000.0 11309700000.0 11309700000.0 11309700000.0 11309700000.0 11309700000.0 11309700000.0 11309700000.0 11309700000.0 11309700000.0 11309700000.0 11309700000.0 11309700000.0 11309700000.0 11309700000.0 11309700000.0 11309700000.0 11309700000.0 11309700000.0 11309700000.0 11309700000.0 11309700000.0 11309700000.0 11309700000.0 11309700000.0 11309700000.0 11309700000.0 11309700000.0 11309700000.0 11309700000.0 11309700000.0 11309700000.0 11309700000.0 11309700000.0 11309700000.0 11309700000.0 11309700000.0 11309700000.0 11309700000.0 11309700000.0 11309700000.0 11309700000.0 11309700000.0 11309700000.0 11309700000.0 11309700000.0 11309700000.0 11309700000.0 11309700000.0 11309700000.0 11309700000.0 11309700000.0 11309700000.0 11309700000.0 11309700000.0 11309700000.0 11309700000.0 11309700000.0 11309700000.0 11309700000.0 11309700000.0 11309700000.0 11309700000.0 11309700000.0 11309700000.0 11309700000.0 11309700000.0 11309700000.0 11309700000.0 11309700000.0 11309700000.0 11309700000.0 11309700000.0 11309700000.0 11309700000.0 11309700000.0 11309700000.0 11309700000.0 11309700000.0 11309700000.0 11309700000.0 11309700000.0 11309700000.0 11309700000.0 11309700000.0 11309700000.0 11309700000.0 11309700000.0 11309700000.0 11309700000.0 11309700000.0 11309700000.0 11309700000.0 11309700000.0 11309700000.0 11309700000.0 11309700000.0 11309700000.0 11309700000.0 11309700000.0 11309700000.0 11309700000.0 11309700000.0 11309700000.0 11309700000.0 11309700000.0 11309700000.0 11309700000.0 11309700000.0 11309700000.0 11309700000.0 11309700000.0 11309700000.0 11309700000.0 11309700000.0 11309700000.0 11309700000.0 11309700000.0 11309700000.0 11309700000.0 11309700000.0 11309700000.0 11309700000.0 11309700000.0 11309700000.0 11309700000.0 11309700000.0 11309700000.0 11309700000.0 11309700000.0 11309700000.0 11309700000.0 11309700000.0 11309700000.0 11309700000.0 11309700000.0 11309700000.0 11309700000.0 11309700000.0 11309700000.0 11309700000.0 11309700000.0 11309700000.0 11309700000.0 11309700000.0 11309700000.0 11309700000.0 11309700000.0 11309700000.0 11309700000.0 11309700000.0 11309700000.0 11309700000.0 11309700000.0 11309700000.0 11309700000.0 11309700000.0 11309700000.0 11309700000.0 11309700000.0 11309700000.0 11309700000.0 11309700000.0 11309700000.0 11309700000.0 11309700000.0 11309700000.0 11309700000.0 11309700000.0 11309700000.0 11309700000.0 11309700000.0 11309700000.0 11309700000.0 11309700000.0 11309700000.0 11309700000.0 11309700000.0 11309700000.0 11309700000.0 11309700000.0 11309700000.0 11309700000.0 11309700000.0 11309700000.0 11309700000.0 11309700000.0 11309700000.0 11309700000.0 11309700000.0 11309700000.0 11309700000.0 11309700000.0 11309700000.0 11309700000.0 11309700000.0 11309700000.0 11309700000.0 11309700000.0 11309700000.0 11309700000.0 11309700000.0 11309700000.0 11309700000.0 11309700000.0 11309700000.0 11309700000.0 11309700000.0 11309700000.0 11309700000.0 11309700000.0 11309700000.0 11309700000.0 11309700000.0 11309700000.0 11309700000.0 11309700000.0 11309700000.0 11309700000.0 11309700000.0 11309700000.0 11309700000.0 11309700000.0 11309700000.0 11309700000.0 11309700000.0 11309700000.0 11309700000.0 11309700000.0 11309700000.0 11309700000.0 11309700000.0 11309700000.0 11309700000.0 11309700000.0 11309700000.0 11309700000.0 11309700000.0 11309700000.0 11309700000.0 11309700000.0 11309700000.0 11309700000.0 11309700000.0 11309700000.0 11309700000.0 11309700000.0 11309700000.0 11309700000.0 11309700000.0 11309700000.0 11309700000.0 11309700000.0 11309700000.0 11309700000.0 11309700000.0 11309700000.0 11309700000.0 11309700000.0 11309700000.0 11309700000.0 11309700000.0 11309700000.0 11309700000.0 11309700000.0 11309700000.0 11309700000.0 11309700000.0 11309700000.0 11309700000.0 11309700000.0 11309700000.0 11309700000.0 11309700000.0 11309700000.0 11309700000.0 11309700000.0 11309700000.0 11309700000.0 11309700000.0 11309700000.0 11309700000.0 11309700000.0 11309700000.0 11309700000.0 11309700000.0 11309700000.0 11309700000.0 11309700000.0 11309700000.0 11309700000.0 11309700000.0 11309700000.0 11309700000.0 11309700000.0 11309700000.0 11309700000.0 11309700000.0 11309700000.0 11309700000.0 11309700000.0 11309700000.0 11309700000.0 11309700000.0 11309700000.0 11309700000.0 11309700000.0 11309700000.0 11309700000.0 11309700000.0 11309700000.0 11309700000.0 11309700000.0 11309700000.0 11309700000.0 11309700000.0 11309700000.0 11309700000.0 11309700000.0 11309700000.0 11309700000.0 11309700000.0 11309700000.0 11309700000.0 11309700000.0 11309700000.0 11309700000.0 11309700000.0 11309700000.0 11309700000.0 11309700000.0 11309700000.0 11309700000.0 11309700000.0 11309700000.0 11309700000.0 11309700000.0 11309700000.0 11309700000.0 11309700000.0 11309700000.0 11309700000.0 11309700000.0 11309700000.0 11309700000.0 11309700000.0 11309700000.0 11309700000.0 11309700000.0 11309700000.0 11309700000.0 11309700000.0 11309700000.0 11309700000.0 11309700000.0 11309700000.0 11309700000.0 11309700000.0 11309700000.0 11309700000.0 11309700000.0 11309700000.0 11309700000.0 11309700000.0 11309700000.0 11309700000.0 11309700000.0 11309700000.0 11309700000.0 11309700000.0 11309700000.0 11309700000.0 11309700000.0 11309700000.0 11309700000.0 11309700000.0 11309700000.0 11309700000.0 11309700000.0 11309700000.0 11309700000.0 11309700000.0 11309700000.0 11309700000.0 11309700000.0 11309700000.0 11309700000.0 11309700000.0 11309700000.0 11309700000.0 11309700000.0 11309700000.0 11309700000.0 11309700000.0 11309700000.0 11309700000.0 11309700000.0 11309700000.0 11309700000.0 11309700000.0 11309700000.0 11309700000.0 11309700000.0 11309700000.0 11309700000.0 11309700000.0 11309700000.0 11309700000.0 11309700000.0 11309700000.0 11309700000.0 11309700000.0 11309700000.0 11309700000.0 11309700000.0 11309700000.0 11309700000.0 11309700000.0 11309700000.0 11309700000.0 11309700000.0 11309700000.0 11309700000.0 11309700000.0 11309700000.0 11309700000.0 11309700000.0 11309700000.0 11309700000.0 11309700000.0 11309700000.0 11309700000.0 11309700000.0 11309700000.0 11309700000.0 11309700000.0 11309700000.0 11309700000.0 11309700000.0 11309700000.0 11309700000.0 11309700000.0 11309700000.0 11309700000.0 11309700000.0 11309700000.0 11309700000.0 11309700000.0 11309700000.0 11309700000.0 11309700000.0 11309700000.0 11309700000.0 11309700000.0 11309700000.0 11309700000.0 11309700000.0 11309700000.0 11309700000.0 11309700000.0 11309700000.0 11309700000.0 11309700000.0 11309700000.0 11309700000.0 11309700000.0 11309700000.0 11309700000.0 11309700000.0 11309700000.0 11309700000.0 11309700000.0 11309700000.0 11309700000.0 11309700000.0 11309700000.0 11309700000.0 11309700000.0 11309700000.0 11309700000.0 11309700000.0 11309700000.0 11309700000.0 11309700000.0 11309700000.0 11309700000.0 11309700000.0 11309700000.0 11309700000.0 11309700000.0 11309700000.0 11309700000.0 11309700000.0 11309700000.0 11309700000.0 11309700000.0 11309700000.0 11309700000.0 11309700000.0 11309700000.0 11309700000.0 11309700000.0 11309700000.0 11309700000.0 11309700000.0 11309700000.0 11309700000.0 11309700000.0 11309700000.0 11309700000.0 11309700000.0 11309700000.0 11309700000.0 11309700000.0 11309700000.0 11309700000.0 11309700000.0 11309700000.0 11309700000.0 11309700000.0 11309700000.0 11309700000.0 11309700000.0 11309700000.0 11309700000.0 11309700000.0 11309700000.0 11309700000.0 11309700000.0 11309700000.0 11309700000.0 11309700000.0 11309700000.0 11309700000.0 11309700000.0 11309700000.0 11309700000.0 11309700000.0 11309700000.0 11309700000.0 11309700000.0 11309700000.0 11309700000.0 11309700000.0 11309700000.0 11309700000.0 11309700000.0 11309700000.0 11309700000.0 11309700000.0 11309700000.0 11309700000.0 11309700000.0 11309700000.0 11309700000.0 11309700000.0 11309700000.0 11309700000.0 11309700000.0 11309700000.0 11309700000.0 11309700000.0 11309700000.0 11309700000.0 11309700000.0 11309700000.0 11309700000.0 11309700000.0 11309700000.0 11309700000.0 11309700000.0 11309700000.0 11309700000.0 11309700000.0 11309700000.0 11309700000.0 11309700000.0 11309700000.0 11309700000.0 11309700000.0 11309700000.0 11309700000.0 11309700000.0 11309700000.0 11309700000.0 11309700000.0 11309700000.0 11309700000.0 11309700000.0 11309700000.0 11309700000.0 11309700000.0 11309700000.0 11309700000.0 11309700000.0 11309700000.0 11309700000.0 11309700000.0 11309700000.0 11309700000.0 11309700000.0 11309700000.0 11309700000.0 11309700000.0 11309700000.0 11309700000.0 11309700000.0 11309700000.0 11309700000.0 11309700000.0 11309700000.0 11309700000.0 11309700000.0 11309700000.0 11309700000.0 11309700000.0 11309700000.0 11309700000.0 11309700000.0 11309700000.0 11309700000.0 11309700000.0 11309700000.0 11309700000.0 11309700000.0 11309700000.0 11309700000.0 11309700000.0 11309700000.0 11309700000.0 11309700000.0 11309700000.0 11309700000.0 11309700000.0 11309700000.0 11309700000.0 11309700000.0 11309700000.0 11309700000.0 11309700000.0 11309700000.0 11309700000.0 11309700000.0 11309700000.0 11309700000.0 11309700000.0 11309700000.0 11309700000.0 11309700000.0 11309700000.0 11309700000.0 11309700000.0 11309700000.0 11309700000.0 11309700000.0 11309700000.0 11309700000.0 11309700000.0 11309700000.0 11309700000.0 11309700000.0 11309700000.0 11309700000.0 11309700000.0 11309700000.0 11309700000.0 11309700000.0 11309700000.0 11309700000.0 11309700000.0 11309700000.0 11309700000.0 11309700000.0 11309700000.0 11309700000.0 11309700000.0 11309700000.0 11309700000.0 11309700000.0 11309700000.0 11309700000.0 11309700000.0 11309700000.0 11309700000.0 11309700000.0 11309700000.0 11309700000.0 11309700000.0 11309700000.0 11309700000.0 11309700000.0 11309700000.0 11309700000.0 11309700000.0 11309700000.0 11309700000.0 11309700000.0 11309700000.0 11309700000.0 11309700000.0 11309700000.0 11309700000.0 11309700000.0 11309700000.0 11309700000.0 11309700000.0 11309700000.0 11309700000.0 11309700000.0 11309700000.0 11309700000.0 11309700000.0 11309700000.0 11309700000.0 11309700000.0 11309700000.0 11309700000.0 11309700000.0 11309700000.0 11309700000.0 11309700000.0 11309700000.0 11309700000.0 11309700000.0 11309700000.0 11309700000.0 11309700000.0 11309700000.0 11309700000.0 11309700000.0 11309700000.0 11309700000.0 11309700000.0 11309700000.0 11309700000.0 11309700000.0 11309700000.0 11309700000.0 11309700000.0 11309700000.0 11309700000.0 11309700000.0 11309700000.0 11309700000.0 11309700000.0 11309700000.0 11309700000.0 11309700000.0 11309700000.0 11309700000.0 11309700000.0 11309700000.0 11309700000.0 11309700000.0 11309700000.0 11309700000.0 11309700000.0 11309700000.0 11309700000.0 11309700000.0 11309700000.0 11309700000.0 11309700000.0 11309700000.0 11309700000.0 11309700000.0 11309700000.0 11309700000.0 11309700000.0 11309700000.0 11309700000.0 11309700000.0 11309700000.0 11309700000.0 11309700000.0 11309700000.0 11309700000.0 11309700000.0 11309700000.0 11309700000.0 11309700000.0 11309700000.0 11309700000.0 11309700000.0 11309700000.0 11309700000.0 11309700000.0 11309700000.0 11309700000.0 11309700000.0 11309700000.0 11309700000.0 11309700000.0 11309700000.0 11309700000.0 11309700000.0 11309700000.0 11309700000.0 11309700000.0 11309700000.0 11309700000.0 11309700000.0 11309700000.0 11309700000.0 11309700000.0 11309700000.0 11309700000.0 11309700000.0 11309700000.0 11309700000.0 11309700000.0 11309700000.0 11309700000.0 11309700000.0 11309700000.0 11309700000.0 11309700000.0 11309700000.0 11309700000.0 11309700000.0 11309700000.0 11309700000.0 11309700000.0 11309700000.0 11309700000.0 11309700000.0 11309700000.0 11309700000.0 11309700000.0 11309700000.0 11309700000.0 11309700000.0 11309700000.0 11309700000.0 11309700000.0 11309700000.0 11309700000.0 11309700000.0 11309700000.0 11309700000.0 11309700000.0 11309700000.0 11309700000.0 11309700000.0 11309700000.0 11309700000.0 11309700000.0 11309700000.0 11309700000.0 11309700000.0 11309700000.0 11309700000.0 11309700000.0 11309700000.0 11309700000.0 11309700000.0 11309700000.0 11309700000.0 11309700000.0 11309700000.0 11309700000.0 11309700000.0 11309700000.0 11309700000.0 11309700000.0 11309700000.0 11309700000.0 11309700000.0 11309700000.0 11309700000.0 11309700000.0 11309700000.0 11309700000.0 11309700000.0 11309700000.0 11309700000.0 11309700000.0 11309700000.0 11309700000.0 11309700000.0 11309700000.0 11309700000.0 11309700000.0 11309700000.0 11309700000.0 11309700000.0 11309700000.0 11309700000.0 11309700000.0 11309700000.0 11309700000.0 11309700000.0 11309700000.0 11309700000.0 11309700000.0 11309700000.0 11309700000.0 11309700000.0 11309700000.0 11309700000.0 11309700000.0 11309700000.0 11309700000.0 11309700000.0 11309700000.0 11309700000.0 11309700000.0 11309700000.0 11309700000.0 11309700000.0 11309700000.0 11309700000.0 11309700000.0 11309700000.0 11309700000.0 11309700000.0 11309700000.0 11309700000.0 11309700000.0 11309700000.0 11309700000.0 11309700000.0 11309700000.0 11309700000.0 11309700000.0 11309700000.0 11309700000.0 11309700000.0 11309700000.0 11309700000.0 11309700000.0 11309700000.0 11309700000.0 11309700000.0 11309700000.0 11309700000.0 11309700000.0 11309700000.0 11309700000.0 11309700000.0 11309700000.0 11309700000.0 11309700000.0 11309700000.0 11309700000.0 11309700000.0 11309700000.0 11309700000.0 11309700000.0 11309700000.0 11309700000.0 11309700000.0 11309700000.0 11309700000.0 11309700000.0 11309700000.0 11309700000.0 11309700000.0 11309700000.0 11309700000.0 11309700000.0 11309700000.0 11309700000.0 11309700000.0 11309700000.0 11309700000.0 11309700000.0 11309700000.0 11309700000.0 11309700000.0 11309700000.0 11309700000.0 11309700000.0 11309700000.0 11309700000.0 11309700000.0 11309700000.0 11309700000.0 11309700000.0 11309700000.0 11309700000.0 11309700000.0 11309700000.0 11309700000.0 11309700000.0 11309700000.0 11309700000.0 11309700000.0 11309700000.0 11309700000.0 11309700000.0 11309700000.0 11309700000.0 11309700000.0 11309700000.0 11309700000.0 11309700000.0 11309700000.0 11309700000.0 11309700000.0 11309700000.0 11309700000.0 11309700000.0 11309700000.0 11309700000.0 11309700000.0 11309700000.0 11309700000.0 11309700000.0 11309700000.0 11309700000.0 11309700000.0 11309700000.0 11309700000.0 11309700000.0 11309700000.0 11309700000.0 11309700000.0 11309700000.0 11309700000.0 11309700000.0 11309700000.0 11309700000.0 11309700000.0 11309700000.0 11309700000.0 11309700000.0 11309700000.0 11309700000.0 11309700000.0 11309700000.0 11309700000.0 11309700000.0 11309700000.0 11309700000.0 11309700000.0 11309700000.0 11309700000.0 11309700000.0 11309700000.0 11309700000.0 11309700000.0 11309700000.0 11309700000.0 11309700000.0 11309700000.0 11309700000.0 11309700000.0 11309700000.0 11309700000.0 11309700000.0 11309700000.0 11309700000.0 11309700000.0 11309700000.0 11309700000.0 11309700000.0 11309700000.0 11309700000.0 11309700000.0 11309700000.0 11309700000.0 11309700000.0 11309700000.0 11309700000.0 11309700000.0 11309700000.0 11309700000.0 11309700000.0 11309700000.0 11309700000.0 11309700000.0 11309700000.0 11309700000.0 11309700000.0 11309700000.0 11309700000.0 11309700000.0 11309700000.0 11309700000.0 11309700000.0 11309700000.0 11309700000.0 11309700000.0 11309700000.0 11309700000.0 11309700000.0 11309700000.0 11309700000.0 11309700000.0 11309700000.0 11309700000.0 11309700000.0 11309700000.0 11309700000.0 11309700000.0 11309700000.0 11309700000.0 11309700000.0 11309700000.0 11309700000.0 11309700000.0 11309700000.0 11309700000.0 11309700000.0 11309700000.0 11309700000.0 11309700000.0 11309700000.0 11309700000.0 11309700000.0 11309700000.0 11309700000.0 11309700000.0 11309700000.0 11309700000.0 11309700000.0 11309700000.0 11309700000.0 11309700000.0 11309700000.0 11309700000.0 11309700000.0 11309700000.0 11309700000.0 11309700000.0 11309700000.0 11309700000.0 11309700000.0 11309700000.0 11309700000.0 11309700000.0 11309700000.0 11309700000.0 11309700000.0 11309700000.0 11309700000.0 11309700000.0 11309700000.0 11309700000.0 11309700000.0 11309700000.0 11309700000.0 11309700000.0 11309700000.0 11309700000.0 11309700000.0 11309700000.0 11309700000.0 11309700000.0 11309700000.0 11309700000.0 11309700000.0 11309700000.0 11309700000.0 11309700000.0 11309700000.0 11309700000.0 11309700000.0 11309700000.0 11309700000.0 11309700000.0 11309700000.0 11309700000.0 11309700000.0 11309700000.0 11309700000.0 11309700000.0 11309700000.0 11309700000.0 11309700000.0 11309700000.0 11309700000.0 11309700000.0 11309700000.0 11309700000.0 11309700000.0 11309700000.0 11309700000.0 11309700000.0 11309700000.0 11309700000.0 11309700000.0 11309700000.0 11309700000.0 11309700000.0 11309700000.0 11309700000.0 11309700000.0 11309700000.0 11309700000.0 11309700000.0 11309700000.0 11309700000.0 11309700000.0 11309700000.0 11309700000.0 11309700000.0 11309700000.0 11309700000.0 11309700000.0 11309700000.0 11309700000.0 11309700000.0 11309700000.0 11309700000.0 11309700000.0 11309700000.0 11309700000.0 11309700000.0 11309700000.0 11309700000.0 11309700000.0 11309700000.0 11309700000.0 11309700000.0 11309700000.0 11309700000.0 11309700000.0 11309700000.0 11309700000.0 11309700000.0 11309700000.0 11309700000.0 11309700000.0 11309700000.0 11309700000.0 11309700000.0 11309700000.0 11309700000.0 11309700000.0 11309700000.0 11309700000.0 11309700000.0 11309700000.0 11309700000.0 11309700000.0 11309700000.0 11309700000.0 11309700000.0 11309700000.0 11309700000.0 11309700000.0 11309700000.0 11309700000.0 11309700000.0 11309700000.0 11309700000.0 11309700000.0 11309700000.0 11309700000.0 11309700000.0 11309700000.0 11309700000.0 11309700000.0 11309700000.0 11309700000.0 11309700000.0 11309700000.0 11309700000.0 11309700000.0 11309700000.0 11309700000.0 11309700000.0 11309700000.0 11309700000.0 11309700000.0 11309700000.0 11309700000.0 11309700000.0 11309700000.0 11309700000.0 11309700000.0 11309700000.0 11309700000.0 11309700000.0 11309700000.0 11309700000.0 11309700000.0 11309700000.0 11309700000.0 11309700000.0 11309700000.0 11309700000.0 11309700000.0 11309700000.0 11309700000.0 11309700000.0 11309700000.0 11309700000.0 11309700000.0 11309700000.0 11309700000.0 11309700000.0 11309700000.0 11309700000.0 
SCALARS Velocity float 1
LOOKUP_TABLE default
1.13816 0.94039 1.11332 1.17008 1.19833 1.22961 1.15568 1.1319 1.15315 1.14087 1.15686 1.14515 1.16802 1.12236 1.07213 0.954645 0.902319 1.14996 1.19579 1.14845 1.10937 1.1416 1.1564 1.15963 1.13594 1.16301 1.1201 1.04537 1.05983 1.07751 1.04965 0.890202 0.959221 1.16634 1.22927 1.11409 1.09802 1.12757 1.13851 1.15038 1.17216 1.15336 1.11695 1.12549 1.10866 1.04845 1.06338 0.939643 1.05852 1.08394 1.14373 1.16412 1.19331 1.23095 1.06307 1.09735 1.11226 1.12158 1.14746 1.16192 1.17431 1.16862 1.16587 1.1457 1.07958 1.09709 1.05721 1.03758 1.14212 1.1468 1.06531 1.12665 1.19266 1.00017 1.06571 1.10647 1.12618 1.16454 1.17631 1.16417 1.11655 0.897991 0.854091 1.09299 1.08804 1.05364 1.04936 1.04585 1.01677 1.13375 1.08703 1.16902 1.23088 0.994764 1.09664 1.10625 1.13667 1.18284 1.17308 0.911037 0.971948 1.05663 1.05699 1.02609 1.13214 1.08858 1.15247 1.1846 1.18968 1.16568 1.03225 1.09359 1.08672 1.10394 1.11471 1.16808 1.20044 1.1911 0.893523 0.918172 1.08776 1.01899 1.03795 0.996536 1.11155 1.11133 1.10055 1.08655 1.18009 1.09754 1.20275 1.21532 1.22545 1.07561 1.18064 0.968962 0.955703 0.896005 0.923934 0.999437 1.09988 0.976905 1.01048 0.984351 1.09334 1.09571 1.10855 1.12473 1.173 1.1809 1.18763 1.19017 1.25043 1.08886 0.944135 0.952215 1.1242 1.10936 1.12093 0.985173 0.967571 0.965225 1.08496 1.10624 1.09884 1.14254 1.1541 1.16811 1.19247 1.30382 0.835103 0.974678 1.11507 1.1081 1.09601 1.12366 1.13047 1.04455 0.957149 0.953972 1.10971 1.16028 1.10509 1.10223 1.16442 1.13757 1.15509 1.15995 1.15797 1.20837 1.27077 0.773501 0.889286 0.957946 1.10767 1.10525 1.11523 1.13745 0.941053 1.23574 1.14367 1.37977 1.19056 1.17455 1.15286 1.15167 1.14535 1.13779 1.14449 1.13372 1.17581 0.865682 1.03882 1.09504 1.07635 1.09242 1.16632 1.19912 1.36517 1.10612 1.25313 1.18907 1.18972 1.17772 1.14011 1.12387 1.13142 1.22361 0.759646 1.01325 1.04497 1.07005 1.11382 1.14617 1.19376 1.47007 1.25461 1.58702 1.67 1.23278 1.20585 1.19376 1.16281 1.12049 1.10741 1.11625 1.11582 1.14199 1.14888 0.986822 1.01349 1.02877 1.09729 1.28031 1.32226 1.49999 1.35017 1.11579 1.24307 1.19335 1.92954 1.24751 1.24732 1.20838 1.1966 1.20373 1.16766 1.1312 1.10219 1.10305 1.11568 1.02993 1.00088 0.999395 0.988203 0.999241 0.982685 1.03816 1.20585 1.47173 1.36019 1.19878 1.63802 2.18421 0.490793 1.38318 1.19726 1.23019 1.10596 1.09239 1.09877 1.07724 1.08096 1.02719 0.97609 0.965029 1.02625 1.12603 1.27011 1.37802 1.45729 1.34434 1.25308 1.54356 1.73603 1.16905 0.621287 0.626625 0.564721 1.2816 1.16982 1.14991 1.23862 1.14015 1.09505 1.08533 1.08945 1.07339 1.04172 0.991015 0.992362 0.95218 1.20694 1.42074 1.5649 1.32353 1.2784 1.16004 0.80014 1.01364 1.06861 0.995185 0.896501 0.650062 0.548783 0.326843 1.44667 1.19776 1.1937 1.11746 0.959456 1.10449 1.12027 1.07354 1.04334 1.00934 0.958436 1.01993 1.0688 1.46243 1.22147 1.55426 1.42163 1.19627 0.526889 0.652198 0.575065 0.869705 0.678084 0.663731 0.611025 0.546638 1.26706 1.16833 1.16442 1.0176 0.927782 1.07772 1.04633 1.0032 1.00357 0.961525 0.98544 0.979845 0.923862 1.13501 1.21912 1.56691 1.43091 0.693859 0.926875 1.31152 1.52153 1.55153 1.43885 0.929829 0.708319 0.624255 0.668645 0.701683 0.674654 0.70836 0.689032 0.691249 0.69463 0.652505 0.766186 1.13493 1.16123 1.12622 1.14478 1.06299 0.943438 0.961308 1.02849 1.05354 0.998824 0.975263 0.932645 1.05867 1.35654 0.774065 0.599084 0.904557 1.5026 1.25505 1.13567 1.10314 0.948217 0.933883 0.840463 0.786683 0.586833 0.559351 0.57031 0.682591 0.700964 0.70335 0.758724 0.762251 0.91728 1.09309 1.08006 0.977674 0.938948 0.942603 0.999837 0.97721 0.958827 0.924542 0.960611 1.2229 0.631128 0.604395 0.897032 1.24511 1.24527 1.14202 0.98217 0.896299 0.853418 0.731782 0.671165 0.591368 0.618605 0.649891 0.670317 0.667719 0.685806 0.713431 0.724463 0.757402 0.832454 0.907404 1.0357 1.0048 1.06134 1.02345 0.984727 0.985587 0.982226 0.899599 0.931201 0.920077 0.923382 0.9162 0.932701 0.977996 1.10701 0.7617 0.700629 0.67284 0.668856 0.715573 0.650708 0.91195 1.11029 1.03707 1.12745 1.06656 0.909149 0.9407 0.784328 0.768284 0.657874 0.629907 0.647976 0.621396 0.635091 0.632768 0.617041 0.63218 0.655039 0.675587 0.753553 0.794228 0.798111 0.838743 0.934528 1.00461 1.03803 1.02302 0.982595 0.9811 0.926338 0.902183 0.924683 0.853342 0.756713 0.713235 0.670973 0.90406 1.03555 1.06287 0.986824 0.833396 0.723644 0.685385 0.672509 0.637238 0.624053 0.598147 0.610894 0.626886 0.641923 0.643244 0.644898 0.656813 0.729454 0.791548 0.818025 0.857365 0.851672 0.928278 1.0309 1.00747 0.979531 0.976243 0.913299 0.853964 0.885958 0.883243 0.905506 0.827907 0.741049 0.701057 0.685397 0.748702 0.836343 0.955217 1.02682 0.862477 0.773671 0.745754 0.731635 0.701266 0.738062 0.680246 0.621166 0.618573 0.610968 0.611057 0.597076 0.585399 0.554929 0.588335 0.612751 0.63926 0.626687 0.765667 0.82349 0.817388 0.822827 0.803979 0.868882 0.971863 1.05784 1.04911 1.0116 0.934181 0.8582 0.865681 0.839229 0.857266 0.83505 0.869226 0.856278 0.868983 0.871552 0.834568 0.768665 0.71057 0.701579 0.738773 0.937451 1.02805 1.0524 0.952647 0.825643 0.7456 0.752977 0.768309 0.773365 0.732558 0.598535 0.603651 0.58426 0.561389 0.535542 0.515848 0.579432 0.632009 0.661178 0.639363 0.624845 0.632139 0.851203 0.847123 0.856743 0.792584 0.793108 0.832433 0.967737 1.09804 0.94363 0.885284 0.877117 0.811493 0.840137 0.874699 0.892281 0.71067 0.70944 0.813572 1.07815 0.949182 0.799108 0.75338 0.761143 0.823878 0.815555 0.817998 0.60764 0.593633 0.611322 0.628044 0.600086 0.558516 0.500627 0.480978 0.497483 0.541292 0.557057 0.596316 0.624378 0.694368 0.739667 0.621917 0.942397 0.784949 0.748312 0.765609 0.769652 0.833831 1.11905 0.988612 0.863123 0.886959 0.884856 0.874565 0.867849 0.864421 0.825028 0.82265 0.816031 0.925791 0.863567 0.763468 0.769473 0.734261 0.75133 0.732822 0.749838 0.916085 1.12565 0.829101 0.762481 0.735538 0.73006 0.757014 0.909371 0.580865 0.730898 0.665932 0.592588 0.576489 0.53916 0.519626 0.481774 0.468921 0.42853 0.451898 0.462008 0.516217 0.570881 0.590879 0.657515 0.687704 0.664459 1.06653 0.802633 0.712723 0.751884 0.80507 0.992344 1.26725 1.18655 0.826766 0.894822 0.874731 0.837423 0.821202 0.893921 0.853476 0.941939 0.946808 0.868705 0.788442 0.785425 0.742839 1.18447 1.30434 0.977269 0.811299 0.726516 0.669164 0.767405 1.05256 0.889536 0.653402 0.628842 0.563098 0.549784 0.499105 0.452643 0.444435 0.424081 0.411621 0.436534 0.448794 0.476825 0.49104 0.526566 0.538372 0.586819 0.554997 0.721458 0.662586 1.075 0.897946 0.718186 0.676722 0.675185 1.04334 1.19865 0.62812 0.900546 0.8935 0.850913 0.835377 0.890864 0.973476 1.22278 0.40067 0.84148 0.865028 0.92738 0.837645 0.810393 0.819473 0.543746 1.22031 1.03715 0.668844 0.656005 0.656805 0.846722 1.08508 0.558844 0.679653 0.522125 0.56047 0.515708 0.51148 0.473847 0.465578 0.440162 0.429604 0.409152 0.397944 0.403224 0.417305 0.42756 0.461173 0.498818 0.532137 0.501051 0.350952 0.3847 0.839036 0.634428 0.628708 0.616103 0.766146 0.368534 0.48219 0.863872 0.923709 0.924601 0.90917 0.870324 0.834557 0.828799 0.899164 1.18752 1.10645 0.54564 0.864901 0.882409 0.851425 0.837014 0.870848 0.85798 0.877791 0.803633 0.402133 0.215186 0.754165 0.603256 0.600977 0.606511 0.782144 0.278728 0.298128 0.474557 0.51329 0.480933 0.448914 0.421589 0.413661 0.401623 0.397322 0.385187 0.392478 0.411984 0.419354 0.43802 0.445834 0.468107 0.469161 0.49859 0.47594 0.39985 0.267769 1.1035 0.854391 0.523292 0.73064 0.722143 0.696564 0.638916 0.740203 0.868569 0.959349 0.865635 0.833348 1.01948 0.726953 0.727822 0.70875 0.837255 0.858148 0.925255 0.824848 0.673744 0.573282 0.680923 0.69172 0.717698 0.486971 0.848158 1.031 0.236177 0.372701 0.455844 0.484773 0.455275 0.451508 0.434728 0.430757 0.415139 0.407668 0.392647 0.384746 0.366401 0.373255 0.379231 0.402051 0.409666 0.43175 0.446201 0.461021 0.426618 0.395374 0.332413 0.251956 0.910761 0.536748 0.630729 0.605904 0.748816 0.938494 0.910886 0.8282 0.992185 0.336276 0.533684 0.327286 0.700549 0.653378 0.704295 0.722196 0.776634 0.828608 0.888276 0.915669 0.700625 0.543328 0.611171 0.518302 0.828549 0.0488527 0.300809 0.383613 0.419201 0.445791 0.433511 0.424817 0.405447 0.399298 0.380036 0.373698 0.366739 0.367844 0.368448 0.382476 0.393733 0.406787 0.412921 0.435989 0.436826 0.430388 0.43665 0.439785 0.325891 0.329687 0.378689 0.500885 0.748443 0.531446 0.540328 0.674891 0.60325 0.607494 0.614468 0.39453 0.844815 0.962778 0.991015 0.876279 0.856528 0.848722 0.834839 0.276073 0.202533 0.476677 0.658484 0.742813 0.790757 0.814501 0.838811 0.838239 0.973744 0.951397 0.804186 0.568274 0.56472 0.546614 0.635784 0.513415 0.520545 0.675505 0.505353 0.330014 0.377045 0.32638 0.428144 0.425168 0.422256 0.426834 0.428377 0.409792 0.402211 0.393486 0.383248 0.368624 0.368748 0.370462 0.375306 0.364645 0.3713 0.407269 0.420601 0.408873 0.405611 0.435825 0.416924 0.416341 0.425616 0.548793 0.556964 0.583437 0.538785 0.608041 0.613993 0.619548 0.865213 0.681351 0.86129 0.660739 0.227398 0.304593 0.565215 0.683436 0.771199 0.845491 0.743954 0.847976 0.410291 0.596746 0.600635 0.588003 0.518101 0.564938 0.561391 0.517774 0.441092 0.408806 0.407297 0.429029 0.40271 0.404519 0.413549 0.40415 0.372401 0.364515 0.374712 0.373754 0.337793 0.357626 0.363075 0.369107 0.401365 0.420091 0.424742 0.428051 0.462365 0.407454 0.412332 0.404401 0.431593 0.503335 0.508482 0.497654 0.555499 0.566405 0.585657 0.600301 0.585991 0.603376 0.658432 0.784516 0.654118 0.859906 0.781869 0.436404 0.385573 0.274039 0.38331 0.452608 0.547716 0.615176 0.660202 0.718011 0.807754 0.834684 0.657353 0.759927 0.654498 0.572608 0.562284 0.595 0.574382 0.551954 0.514066 0.499218 0.499304 0.425873 0.401429 0.407117 0.405632 0.453316 0.422577 0.418146 0.415329 0.401875 0.36761 0.360517 0.365786 0.353187 0.339992 0.36397 0.339442 0.256174 0.415352 0.424801 0.416821 0.390552 0.304502 0.40071 0.401459 0.412637 0.439122 0.48624 0.479219 0.497967 0.514454 0.545244 0.593521 0.599919 0.594259 0.603424 0.620884 0.679809 0.64225 0.831819 0.819479 0.760557 0.659958 0.544182 0.40538 0.488881 0.606311 0.706719 0.758921 0.801294 0.826289 0.815997 0.618059 0.659322 0.60399 0.593464 0.585796 0.586717 0.582794 0.552456 0.539733 0.515137 0.491719 0.476188 0.482899 0.433757 0.41028 0.400675 0.398212 0.307881 0.385095 0.40729 0.424668 0.418535 0.268232 0.33669 0.359541 0.312131 0.0415502 0.311471 0.347089 0.33045 0.275493 0.307151 0.421865 0.37439 0.337883 0.376974 0.41555 0.422717 0.443768 0.475717 0.493999 0.509764 0.52234 0.539383 0.554594 0.568392 0.610777 0.62523 0.635589 0.649841 0.703167 0.791996 0.674312 0.502611 0.470191 0.561939 0.655265 0.74346 0.812323 0.68756 0.639772 0.622849 0.61073 0.603274 0.557382 0.54414 0.533261 0.518033 0.505705 0.490451 0.473742 0.443704 0.423264 0.413792 0.375252 0.335969 0.365666 0.407736 0.327945 0.285712 0.323382 0.327493 0.310129 0.152106 0.0314722 0.0395112 0.232613 0.223899 0.274773 0.28165 0.279996 0.352439 0.380871 0.407266 0.348224 0.343621 0.370685 0.401299 0.432204 0.450454 0.475711 0.496971 0.519053 0.534053 0.545901 0.555563 0.568515 0.592036 0.606258 0.649029 0.653171 0.665709 0.668851 0.643991 0.766714 0.802307 0.74143 0.662584 0.59785 0.578843 0.509835 0.544061 0.537083 0.589704 0.615425 0.65715 0.685472 0.695253 0.776273 0.82548 0.750534 0.624575 0.656241 0.65927 0.640088 0.633705 0.594787 0.580317 0.558361 0.548713 0.541244 0.531329 0.515993 0.494894 0.475568 0.451657 0.431484 0.400317 0.367612 0.337907 0.339336 0.390484 0.389672 0.376096 0.298649 0.297185 0.284059 0.244939 0.252464 0.0865916 0.00204905 0.21374 0.164731 0.229296 0.285127 0.275956 0.326001 0.398106 0.363085 0.351359 0.543476 0.557922 0.566868 0.576053 0.590022 0.606608 0.623473 0.637337 0.661376 0.654958 0.673138 0.687159 0.751979 0.629187 0.581297 0.584791 0.632292 0.673149 0.767373 0.671987 0.661042 0.647826 0.654548 0.626098 0.614232 0.59465 0.580536 0.569513 0.563655 0.555842 0.541651 0.34357 0.349995 0.393341 0.339405 0.280643 0.268142 0.208637 0.180141 0.206573 0.250354 0.195307 0.0926838 0.171696 0.223246 0.265174 0.271145 0.301734 0.376863 0.395864 0.341766 0.368926 0.397683 0.427539 0.455757 0.478627 0.500747 0.523952 0.58961 0.598456 0.609133 0.623725 0.640907 0.652906 0.659524 0.599289 0.584903 0.499114 0.860554 0.677046 0.625105 0.600883 0.621338 0.662366 0.694865 0.885796 0.454714 0.573967 0.591629 0.645831 0.641197 0.629238 0.612081 0.598345 0.59035 0.585378 0.521767 0.500322 0.479628 0.45539 0.426367 0.39597 0.365393 0.345404 0.408161 0.41162 0.311192 0.259316 0.239339 0.224044 0.191378 0.184979 0.187811 0.163566 0.304066 0.138858 0.0396478 0.137441 0.149041 0.258137 0.259298 0.269763 0.301123 0.361399 0.41095 0.361627 0.373443 0.394735 0.42385 0.453573 0.481818 0.505744 0.529192 0.550858 0.567989 0.580429 0.626122 0.636738 0.647231 0.652944 0.652421 0.639891 0.536393 0.954995 0.731874 0.700702 0.664471 0.66164 0.630132 0.643147 0.62615 0.650692 0.651786 0.675526 0.684507 0.710991 0.747921 1.02108 0.508671 0.630759 0.641572 0.641787 0.634941 0.624311 0.61508 0.577446 0.566076 0.548644 0.528467 0.505928 0.48099 0.451643 0.42219 0.393035 0.369187 0.356885 0.423558 0.378774 0.323083 0.289259 0.274184 0.252598 0.16374 0.162634 0.15739 0.149018 0.154516 0.279486 0.258718 0.182339 0.159908 0.212183 0.238816 0.271889 0.29885 0.411975 0.391108 0.332382 0.336645 0.373634 0.392741 0.418426 0.449324 0.479435 0.508381 0.535065 0.557523 0.57617 0.589932 0.600997 0.609662 0.617501 0.641581 0.644776 0.642931 0.632453 0.604797 0.585567 0.701646 0.692762 0.665542 0.659376 0.671329 0.699177 0.726649 0.573581 0.594748 0.622071 0.632194 0.631668 0.628245 0.608435 0.602906 0.596103 0.586732 0.573486 0.55608 0.534855 0.506646 0.476137 0.446788 0.41837 0.391783 0.367923 0.344121 0.356995 0.404136 0.425974 0.331996 0.304781 0.275272 0.222334 0.134814 0.14015 0.149483 0.182721 0.215057 0.298067 0.271656 0.257186 0.0456235 0.175662 0.149783 0.249512 0.278708 0.276241 0.377645 0.330514 0.370482 0.396133 0.41557 0.444012 0.474754 0.506764 0.540722 0.565075 0.583272 0.597901 0.608651 0.617197 0.625143 0.631758 0.637113 0.63826 0.629935 0.613124 0.594835 0.581246 0.542875 0.66225 0.712326 0.689465 0.674312 0.675227 0.690655 0.717591 0.674307 0.525537 0.57246 0.583005 0.601085 0.618837 0.62526 0.625171 0.621139 0.617713 0.611478 0.603722 0.593616 0.581557 0.564648 0.539444 0.504099 0.470802 0.443019 0.417333 0.390694 0.360836 0.346155 0.417292 0.312264 0.285961 0.233097 0.176797 0.13809 0.128565 0.111974 0.155032 0.197992 0.178665 0.299904 0.242177 0.252532 0.316177 0.164975 0.176281 0.193762 0.229416 0.2667 0.228502 0.449469 0.380636 0.395575 0.411639 0.440927 0.573488 0.59176 0.604509 0.615045 0.623337 0.629843 0.636206 0.640321 0.641793 0.64107 0.619525 0.60433 0.59018 0.573379 0.603437 0.734729 0.712618 0.706028 0.706821 0.691853 0.696989 0.684437 0.694939 0.690425 0.703034 0.705952 0.710823 0.731184 0.602965 0.562944 0.579889 0.593608 0.62795 0.628491 0.628205 0.626983 0.623174 0.617734 0.610756 0.602558 0.59118 0.573274 0.439956 0.411 0.383877 0.363467 0.424037 0.289668 0.304743 0.272388 0.174533 0.101834 0.0904451 0.0926992 0.226089 0.1264 0.390189 0.337636 0.231109 0.410929 0.233142 0.201087 0.243951 0.134673 0.280552 0.25158 0.188645 0.449499 0.446651 0.496467 0.468958 0.50235 0.546138 0.628124 0.634428 0.638875 0.642666 0.644109 0.642792 0.639219 0.631804 0.591239 0.600659 0.737487 0.716176 0.709484 0.703028 0.704307 0.711098 0.741464 0.602387 0.578723 0.608396 0.619494 0.626244 0.630278 0.632261 0.632098 0.630624 0.627774 0.623103 0.544803 0.496958 0.463033 0.467907 0.431131 0.290083 0.287696 0.281623 0.248413 0.145446 0.144835 0.0914955 0.0574945 0.100092 0.186818 0.51401 0.339117 0.223006 0.26545 0.583299 0.237506 0.26703 0.273229 0.244282 0.394703 0.202034 0.525236 0.463931 0.488892 0.439543 0.388061 0.398969 0.438238 0.465867 0.489819 0.556934 0.583624 0.600398 0.612014 0.62059 0.644535 0.64667 0.64667 0.643461 0.636826 0.626379 0.613963 0.601947 0.686914 0.720515 0.718802 0.71188 0.708934 0.711896 0.715662 0.591234 0.603798 0.615382 0.623827 0.630513 0.634972 0.636569 0.618336 0.611265 0.599806 0.583832 0.555642 0.479821 0.457153 0.434878 0.396589 0.376053 0.442 0.48945 0.40402 0.268232 0.313914 0.248818 0.0497181 0.0956372 0.0638921 0.0668125 0.194659 0.238821 0.513623 0.459255 0.210541 0.196643 0.341141 0.411842 0.196934 0.3289 0.191257 0.221242 0.61727 0.403177 0.503305 0.395435 0.334397 0.368707 0.438924 0.460599 0.473213 0.581107 0.598151 0.608722 0.618 0.625813 0.631813 0.637389 0.641842 0.648024 0.643145 0.634838 0.623865 0.612484 0.603186 0.599287 0.596513 0.724968 0.724931 0.72569 0.720154 0.722383 0.715395 0.718747 0.714111 0.718104 0.71701 0.719536 0.698037 0.587009 0.577009 0.58975 0.602172 0.612939 0.622477 0.630365 0.636152 0.636564 0.634512 0.631649 0.62881 0.623558 0.616494 0.60945 0.60003 0.581279 0.45654 0.447943 0.430489 0.367762 0.359168 0.428899 0.497478 0.384862 0.295283 0.30913 0.113853 0.0310988 0.0776613 0.456526 0.339786 0.607651 0.534239 0.236664 0.367852 0.452664 0.411702 0.308079 0.329232 0.312773 0.766891 0.663639 0.640207 0.41764 0.546852 0.466371 0.465332 0.461855 0.612939 0.611569 0.616505 0.621563 0.627819 0.63441 0.639556 0.643627 0.64716 0.649185 0.649709 0.634497 0.624301 0.615248 0.608614 0.600624 0.650589 0.72354 0.728927 0.723736 0.720475 0.717474 0.661779 0.584902 0.591171 0.602334 0.611984 0.621803 0.639622 0.641237 0.64032 0.638367 0.635681 0.631222 0.626319 0.622115 0.618285 0.613849 0.616493 0.43975 0.446568 0.449357 0.517737 0.386421 0.309799 0.285737 0.175604 0.049589 0.582606 0.531238 0.689728 0.56764 0.58553 0.490931 0.368598 0.445533 0.458553 0.1444 0.770333 0.112777 0.645208 0.418257 0.566581 0.364366 0.32468 0.531432 0.646183 0.62815 0.622585 0.62458 0.628962 0.634628 0.640593 0.645621 0.649102 0.651545 0.652424 0.651412 0.648529 0.642818 0.6161 0.606491 0.589257 0.610975 0.736108 0.733665 0.730179 0.724487 0.722116 0.732772 0.637048 0.570726 0.590727 0.602108 0.630461 0.637014 0.641668 0.644028 0.6445 0.643792 0.641419 0.63755 0.633624 0.629519 0.625756 0.624258 0.631333 0.653639 0.51352 0.333748 0.380103 0.595384 0.395546 0.268736 0.343361 0.372139 0.552658 0.605174 0.632583 0.527103 0.417201 0.459388 0.372813 0.375876 0.456721 0.221223 0.451813 0.311538 0.326069 0.574017 0.480238 0.470436 0.448508 0.651031 0.653358 0.654229 0.654037 0.652402 0.649101 0.643632 0.635347 0.625243 0.695717 0.727821 0.747966 0.734933 0.736098 0.729882 0.727655 0.726155 0.731401 0.717148 0.646082 0.611265 0.620755 0.630023 0.637865 0.643325 0.646199 0.647444 0.647604 0.646281 0.424414 0.450036 0.473145 0.55216 0.315141 0.340739 0.400522 0.233516 0.81079 0.779124 0.795816 0.701198 0.753128 0.44904 0.781735 0.520433 0.48033 0.883939 0.37963 0.531385 0.370233 0.326005 0.612256 0.513998 0.400969 0.444797 0.683762 0.644846 0.628539 0.625623 0.629175 0.635005 0.641074 0.646753 0.655558 0.655317 0.653939 0.650165 0.643901 0.635134 0.624463 0.613085 0.600205 0.594142 0.727145 0.732848 0.735963 0.726292 0.713101 0.634992 0.592432 0.600021 0.610011 0.619365 0.628808 0.63764 0.644499 0.648291 0.649784 0.644061 0.640386 0.635272 0.630286 0.627185 0.631202 0.649695 0.693463 0.422349 0.405864 0.531352 0.585045 0.305257 0.363348 0.456357 0.366062 1.03798 0.751601 0.754635 0.796171 0.570883 0.709277 0.630584 0.449954 0.456072 0.293376 0.371682 0.653304 0.548966 0.726898 0.659485 0.63417 0.62598 0.627728 0.634267 0.641683 0.648442 0.653151 0.655414 0.6558 0.65039 0.642658 0.632494 0.620423 0.606123 0.595802 0.568104 0.744979 0.747966 0.742883 0.730277 0.730001 0.715269 0.642967 0.608794 0.602573 0.610634 0.619183 0.627042 0.636422 0.650425 0.650655 0.649913 0.647148 0.642122 0.635698 0.629823 0.6288 0.637912 0.665998 0.732885 0.556569 0.606945 0.353096 0.308657 0.372291 0.630723 0.724896 0.84828 0.685777 0.775528 0.836863 0.864638 0.36263 0.220685 0.165998 0.708821 0.498488 0.385622 0.775798 0.679089 0.641432 0.628913 0.628018 0.63322 0.641757 0.65102 0.656988 0.658718 0.658132 0.656499 0.656658 0.656994 0.655449 0.626842 0.611169 0.597241 0.577878 0.733639 0.750491 0.73919 0.725868 0.72688 0.593377 0.608598 0.612943 0.621087 0.645178 0.650546 0.651844 0.652737 0.653485 0.654546 0.653776 0.649919 0.643854 0.635959 0.631514 0.632498 0.645782 0.686256 0.758423 0.455968 0.572492 0.639078 0.14346 0.306529 0.339745 0.973577 0.87307 0.633022 0.69282 0.781002 0.442052 0.851189 0.857744 0.858 0.190671 0.129519 0.628894 0.580309 0.522387 0.551665 0.782784 0.636416 0.641808 0.653465 0.662974 0.66527 0.662452 0.65756 0.656713 0.657601 0.6583 0.656523 0.650021 0.639645 0.749376 0.738956 0.766998 0.740573 0.732413 0.690769 0.699451 0.626879 0.633118 0.645831 0.654384 0.653904 0.655029 0.655452 0.656385 0.659375 0.65923 0.651532 0.647089 0.640124 0.746837 0.54788 0.542436 0.553232 0.57026 0.203719 0.276956 0.906863 0.865048 0.83495 0.536009 0.843259 0.66846 0.758489 0.805058 0.820818 0.862669 0.860658 0.159246 0.63748 0.532881 0.574784 0.718338 0.660421 0.638138 0.634479 0.6592 0.656352 0.656895 0.658822 0.660856 0.657694 0.648923 0.633705 0.616535 0.599811 0.582775 0.739788 0.740478 0.754305 0.773911 0.765035 0.724716 0.743928 0.717613 0.669368 0.711146 0.598399 0.612927 0.623033 0.628571 0.632877 0.640184 0.662542 0.656681 0.657105 0.657839 0.658377 0.637207 0.641317 0.663611 0.726771 0.566045 0.526876 0.581702 0.23722 0.866337 0.82556 0.840592 0.81931 0.732452 0.700311 0.854889 0.855539 0.815978 0.611134 0.53046 0.586887 0.501317 0.666774 0.755118 0.687486 0.657162 0.647564 0.647924 0.645919 0.654557 0.66775 0.678399 0.671761 0.661269 0.664687 0.656212 0.642352 0.62457 0.603695 0.586406 0.726834 0.732509 0.745625 0.766881 0.777365 0.744335 0.704024 0.731266 0.671792 0.701409 0.601176 0.626036 0.631206 0.633571 0.642673 0.68908 0.66187 0.660044 0.666972 0.663501 0.653622 0.655554 0.64817 0.651133 0.658349 0.691453 0.757331 0.681147 0.523059 0.556217 0.507109 0.563733 0.817487 0.836555 0.85573 0.737491 0.947134 0.841927 0.843398 0.569877 0.548272 0.452668 0.537877 0.671163 0.746677 0.721881 0.680822 0.669278 0.661466 0.660561 0.657027 0.66867 0.687184 0.693817 0.663643 0.658835 0.657074 0.65765 0.63365 0.614391 0.588614 0.796062 0.759761 0.73904 0.629341 0.637684 0.629045 0.660219 0.660601 0.662927 0.664425 0.664213 0.674201 0.667856 0.654869 0.671044 0.662329 0.67085 0.681428 0.711445 0.71861 0.671666 0.538502 0.460834 0.531552 0.546014 0.811102 0.834649 0.941989 0.745888 0.91313 0.891849 0.790494 0.828993 0.87149 0.550235 0.467673 0.360751 0.77384 0.736667 0.740253 0.717554 0.692662 0.677715 0.678226 0.66512 0.668662 0.69511 0.707947 0.675126 0.665725 0.665399 0.657089 0.659184 0.66389 0.668688 0.647487 0.71643 0.720308 0.733706 0.750821 0.788779 0.751545 0.740125 0.730353 0.746951 0.681866 0.698578 0.643824 0.702724 0.661516 0.662521 0.663146 0.668358 0.67207 0.672384 0.667688 0.676972 0.675296 0.659142 0.685264 0.675522 0.692798 0.71207 0.700636 0.716062 0.740696 0.396468 0.474316 0.541434 0.839533 0.828743 0.784213 0.900741 0.914117 0.856121 0.808333 0.762043 0.655845 0.742558 0.777592 0.655127 0.775014 0.727514 0.674633 0.680126 0.674584 0.668737 0.657288 0.664417 0.662095 0.68516 0.635954 0.861263 0.649893 0.716801 0.706809 0.719253 0.735305 0.827281 0.810338 0.768669 0.73043 0.73443 0.771498 0.680067 0.816108 0.643877 0.803145 0.640608 0.731431 0.65903 0.665225 0.667527 0.672531 0.679944 0.681691 0.678283 0.691351 0.755858 0.61243 0.745043 0.745655 0.650298 0.76651 0.809458 0.853239 0.840396 0.783751 0.59637 0.506303 0.402229 0.743436 0.725332 0.696047 0.700791 0.672488 0.675549 0.703238 0.715967 0.72991 0.78929 0.717599 0.668879 0.812372 0.799708 0.816838 0.847277 0.948841 0.716026 0.719123 0.733963 0.728611 0.696186 0.671418 0.668955 0.681733 0.684628 0.666585 0.696388 0.692612 0.723038 0.733005 0.412404 0.50726 0.59174 0.782211 0.837521 0.725514 0.683377 0.765809 0.673854 0.575853 0.477796 0.897748 0.711114 0.701637 0.69953 0.756637 0.721824 0.716356 0.684594 0.686323 0.714852 0.723697 0.749889 0.771043 0.775808 0.759896 0.744809 0.733215 0.736219 0.946669 0.771878 0.702886 0.729068 0.707954 0.773162 0.827018 0.891609 0.858308 0.784413 0.699724 0.713967 0.70521 0.715851 0.716953 0.710911 0.69984 0.691992 0.68988 0.692694 0.673674 0.708232 0.722391 0.755175 0.693553 0.685757 0.719101 0.900417 0.477113 0.572586 0.681501 0.760345 0.651722 0.726034 0.917217 0.91395 0.878717 0.855566 0.791409 0.747394 0.679587 0.519101 0.867085 0.758175 0.720079 0.662916 0.707183 0.756691 0.736283 0.690791 0.702161 0.727694 0.732922 0.750074 0.769706 0.775259 0.780508 0.748649 0.74686 0.732639 0.73181 0.878347 0.740192 0.838911 0.747439 0.857197 0.867825 0.894701 0.926347 0.858849 0.986766 0.76855 0.781563 0.75219 0.807605 0.841267 0.782179 0.817306 0.768357 0.843324 0.740285 0.863285 0.684065 0.765748 0.696348 0.714981 0.72413 0.722058 0.712391 0.702008 0.69793 0.697815 0.698314 0.681161 0.727627 0.760273 0.707977 0.656343 0.708638 0.75851 0.866925 0.516552 0.683509 0.746106 0.820606 0.856285 0.880288 0.911892 0.917904 0.926752 0.935059 0.87985 0.856963 0.801079 0.740977 0.699206 0.695691 0.705399 0.787655 0.763885 0.75188 0.74986 0.821743 0.782106 0.847312 0.813902 0.875523 0.914014 0.902757 0.927814 0.977357 0.742875 0.83827 0.808763 0.83273 0.783701 0.86329 0.787039 0.859907 0.768817 0.814139 0.740314 0.770444 0.706046 0.707859 0.702392 0.74887 0.799035 0.856836 0.882543 0.935209 0.928562 0.739908 0.695027 0.804254 0.759686 0.768457 0.796379 0.75778 0.7589 0.749202 0.743607 0.748789 0.763448 0.775239 0.778577 0.85541 0.788564 0.76777 0.759746 0.771423 0.773549 0.7757 0.772826 0.773338 0.775961 0.778974 0.782331 0.821951 0.76289 0.759417 0.804073 0.694444 0.736346 0.895069 0.903643 0.846263 0.811421 0.753911 0.698687 0.661651 0.871337 0.811215 0.824405 0.785311 0.799794 0.808095 0.826946 0.817511 0.77407 0.76008 0.754536 0.747405 0.750737 0.761252 0.773053 0.790424 0.79063 0.785637 0.858735 0.851808 0.881723 0.956185 0.863016 0.818613 0.852138 0.871723 0.864099 0.886597 0.825878 0.835268 0.817104 0.769243 0.795687 0.785093 0.861826 0.76045 0.864166 0.808149 0.875478 0.809874 0.869572 0.778144 0.882965 0.75738 0.772104 0.774531 0.774583 0.773611 0.774374 0.774443 0.776613 0.780781 0.793748 0.848162 0.830858 0.804719 0.80175 0.786959 0.825285 0.829047 0.872832 0.662051 0.696652 0.750286 0.809591 0.848128 0.90384 0.894322 0.893832 0.893832 0.87609 0.885304 0.887954 0.916137 0.888336 0.905279 0.896554 0.861281 0.898245 0.859659 0.804858 0.804512 0.80887 0.818322 0.815696 0.828092 0.814288 0.869608 0.866613 0.880572 0.959107 0.819082 0.867534 0.867345 0.885431 0.839603 0.844562 0.876825 0.89986 0.879953 0.900688 0.895646 0.912259 0.887479 0.9267 0.884281 0.803839 0.818155 0.809917 0.81211 0.811686 0.813096 0.814361 0.859381 0.890978 0.873957 0.896999 0.906268 0.888886 0.894441 0.888289 0.884257 0.876698 0.893832 0.893832 0.843173 0.815262 0.939915 0.837085 0.816682 0.810991 0.854983 0.866938 0.831475 0.853598 0.793614 0.856085 0.816588 0.818293 0.841332 0.940503 0.816053 0.840285 0.89647 0.896266 0.882241 0.889773 0.910738 0.876932 0.858324 0.912822 0.898763 0.895912 0.895399 0.895414 0.897911 0.903851 0.879807 0.862298 0.847499 0.845389 0.841635 0.841998 0.844477 0.842148 0.833264 0.846431 0.830069 0.872855 0.869138 0.877788 0.900856 0.864027 0.900315 0.88022 0.877264 0.880435 0.896734 0.866156 0.901684 0.876874 0.824521 0.886248 0.865946 0.886563 0.907838 0.889111 0.908045 0.900842 0.901706 0.89659 0.896503 0.893961 0.832503 0.846813 0.852486 0.855283 0.854457 0.855996 0.856124 0.856029 0.854548 0.870378 0.880522 0.903157 0.886167 0.895483 0.895657 0.896012 0.898802 0.913467 0.859513 0.876811 0.91051 0.889021 0.882869 0.896344 0.896543 0.895482 0.89489 0.881321 0.881294 0.901758 0.840403 0.856321 0.851863 0.879122 0.872496 0.901648 0.904624 0.882441 0.903548 0.914663 0.876341 0.891312 0.896176 0.895989 0.89542 0.897666 0.895509 0.895593 0.849966 0.857099 0.853935 0.858077 0.85691 0.901643 0.880658 0.881803 0.89489 0.89549 0.877353 0.858789 0.913038 0.899484 0.894374 0.89474 0.896015 0.898598 0.903638 0.879031 0.863643 0.850466 0.848994 0.84544 0.845633 0.846872 0.84586 0.878401 0.868244 0.887599 0.88896 0.883314 0.893803 0.849399 0.893553 0.892953 0.898152 0.859403 0.859712 0.859629 0.858229 0.871379 0.881307 0.900866 0.890269 0.896062 0.894752 0.894346 0.89958 0.913694 0.859569 0.87765 0.895339 0.894871 0.882588 0.876007 0.893297 0.874708 0.855207 0.911249 0.899095 0.892139 0.894714 0.895864 0.898248 0.902578 0.879474 0.864686 0.853881 0.853031 0.850419 0.850946 0.851218 0.851697 0.846733 0.86502 0.872735 0.883265 0.879286 0.879278 0.893935 0.87037 0.894493 0.889569 0.884057 0.891546 0.897152 0.887797 0.895301 0.899237 0.860661 0.895488 0.882962 0.892962 0.896957 0.893823 0.896422 0.895122 0.895658 0.897035 0.895518 0.895602 0.862573 0.864548 0.85662 0.861017 0.85895 0.861819 0.861762 0.86145 0.859953 0.871416 0.882031 0.900919 0.896097 0.895886 0.894723 0.892191 0.899174 0.911779 0.855481 0.874823 0.89312 0.875615 0.883031 0.894872 0.895345 0.883016 0.883292 0.893832 0.894188 0.884273 0.895223 0.885643 0.894287 0.894047 0.893832 0.893832 0.871823 0.895153 0.894748 0.884811 0.873846 0.886452 0.87165 0.852198 0.908804 0.898604 0.890363 0.89464 0.895679 0.897771 0.901169 0.880752 0.867064 0.858102 0.85756 0.855917 0.85681 0.856125 0.858109 0.852108 0.87538 0.886254 0.880144 0.871658 0.889084 0.892403 0.89731 0.888562 0.899486 0.871089 0.895991 0.893681 0.893344 0.893619 0.895625 0.895363 0.871615 0.860329 0.864848 0.861885 0.864855 0.86462 0.864304 0.862726 0.872339 0.882741 0.900825 0.897609 0.895696 0.894643 0.890316 0.898669 0.909179 0.852088 0.871591 0.886186 0.87362 0.885132 0.894749 0.895157 0.894967 0.894608 0.88723 0.873803 0.881524 0.869253 0.850505 0.905961 0.898023 0.889413 0.894545 0.895472 0.897232 0.899595 0.882006 0.870133 0.862522 0.862297 0.861322 0.862451 0.861124 0.864364 0.858664 0.882273 0.885129 0.888428 0.889381 0.881062 0.893832 0.87275 0.893832 0.888046 0.884302 0.892746 0.896731 0.888242 0.894163 0.898926 0.875778 0.895982 0.888934 0.893859 0.894381 0.892115 0.894099 0.892929 0.893832 0.894293 0.893832 0.895094 0.879302 0.877317 0.865086 0.869059 0.865314 0.868239 0.867977 0.867733 0.866022 0.873964 0.883763 0.899721 0.897347 0.895486 0.894548 0.889163 0.898075 0.906178 0.850214 0.869132 0.881232 0.873659 0.887457 0.894608 0.89497 0.894771 0.894467 0.889326 0.875128 0.878522 0.868008 0.850138 0.902898 0.897376 0.889146 0.894444 0.895231 0.896647 0.89804 0.883172 0.873286 0.866805 0.866901 0.866288 0.867498 0.865878 0.869958 0.865535 0.884782 0.884785 0.889866 0.892823 0.881941 0.893832 0.873826 0.893832 0.887078 0.88433 0.892643 0.895955 0.887709 0.894276 0.898027 0.878326 0.895683 0.89388 0.893792 0.893832 0.890911 0.893832 0.892339 0.893832 0.893583 0.893832 0.894808 0.885362 0.881818 0.869944 0.873177 0.868929 0.871712 0.871409 0.87123 0.869425 0.876019 0.88492 0.898237 0.89676 0.895242 0.894447 0.88875 0.897416 0.902933 0.849781 0.867859 0.878249 0.875023 0.889528 0.894467 0.894773 0.894567 0.894328 0.890936 0.877245 0.877166 0.867876 0.850941 0.899737 0.896678 0.889218 0.894333 0.894962 0.896023 0.896584 0.884275 0.876176 0.870729 0.871075 0.870652 0.871866 0.870179 0.874684 0.871615 0.88524 0.884506 0.89062 0.893694 0.882752 0.893832 0.874869 0.893832 0.886322 0.884631 0.892153 0.895468 0.887164 0.893832 0.896892 0.879933 0.895154 0.893879 0.893612 0.893832 0.89001 0.893832 0.891698 0.893832 0.893289 0.893832 0.894509 0.88949 0.885486 0.874235 0.876987 0.872453 0.874982 0.874594 0.874468 0.872662 0.878142 0.885993 0.896748 0.896106 0.894971 0.894337 0.888764 0.896707 0.899616 0.850551 0.8677 0.876924 0.877162 0.891117 0.894328 0.894568 0.894357 0.894191 0.892068 0.879728 0.877055 0.868629 0.852677 0.896722 0.895941 0.88943 0.894215 0.894675 0.895376 0.895243 0.88524 0.878644 0.874133 0.874658 0.874341 0.875521 0.873904 0.878498 0.876507 0.885345 0.884728 0.890792 0.89382 0.883503 0.893832 0.875878 0.893832 0.885758 0.885268 0.891497 0.895152 0.886658 0.893832 0.895464 0.880991 0.894455 0.893875 0.893331 0.893832 0.889449 0.893832 0.891066 0.893832 0.893132 0.893832 0.894199 0.891685 0.888294 0.877948 0.880294 0.875655 0.877851 0.877353 0.87729 0.875566 0.880092 0.886851 0.895356 0.895428 0.894682 0.89422 0.888963 0.895961 0.896509 0.852271 0.868437 0.876841 0.87966 0.892214 0.894191 0.894358 0.894145 0.894057 0.892814 0.882278 0.877804 0.870026 0.855102 0.894044 0.89518 0.889707 0.894094 0.894376 0.894725 0.894033 0.886 0.880649 0.876952 0.877584 0.877322 0.878466 0.877012 0.881443 0.880215 0.885622 0.885337 0.89061 0.893831 0.884188 0.893832 0.876864 0.893832 0.885343 0.886174 0.890846 0.894818 0.886155 0.893832 0.893871 0.881784 0.893685 0.89387 0.892924 0.893832 0.889146 0.893832 0.890498 0.893832 0.892986 0.893832 0.893878 0.892639 0.890137 0.881149 0.882977 0.878416 0.880241 0.879612 0.879621 0.878041 0.881753 0.887462 0.894087 0.894747 0.894382 0.894099 0.889248 0.895192 0.893786 0.854707 0.869834 0.877617 0.882223 0.892923 0.894057 0.894146 0.893937 0.893924 0.893235 0.884689 0.879093 0.871845 0.857989 0.891744 0.894413 0.890015 0.893973 0.894071 0.894085 0.892968 0.886555 0.88221 0.879195 0.879854 0.879609 0.880743 0.879518 0.883628 0.882899 0.886097 0.886174 0.890306 0.893832 0.884795 0.893832 0.877834 0.893832 0.885035 0.887231 0.890264 0.894407 0.885647 0.893832 0.892232 0.882362 0.892893 0.893863 0.892437 0.893832 0.888966 0.893832 0.890014 0.893832 0.892807 0.893832 0.893553 0.89304 0.891153 0.883785 0.88503 0.880704 0.882143 0.881369 0.881439 0.880049 0.883087 0.887857 0.892956 0.89408 0.894076 0.893978 0.889584 0.894418 0.891474 0.857626 0.871664 0.878932 0.884643 0.893304 0.893924 0.893937 0.893735 0.893796 0.893378 0.886831 0.880668 0.87389 0.861131 0.889794 0.893654 0.890329 0.893855 0.893768 0.893472 0.89205 0.886939 0.883374 0.8809 0.881522 0.881277 0.882428 0.881471 0.885185 0.884761 0.88669 0.887111 0.890016 0.893832 0.88532 0.893832 0.878787 0.893832 0.884806 0.888322 0.889764 0.893957 0.885145 0.893832 0.890631 0.882709 0.892096 0.893855 0.891932 0.893832 0.888814 0.893832 0.889606 0.893832 0.892587 0.893832 0.893232 0.893256 0.891662 0.885816 0.886524 0.882529 0.883589 0.88266 0.882776 0.881599 0.884101 0.888079 0.891968 0.89344 0.893771 0.893858 0.889948 0.893654 0.889532 0.860813 0.873726 0.880533 0.886793 0.893411 0.893796 0.893735 0.893543 0.893672 0.893329 0.888639 0.882337 0.876 0.864347 0.888154 0.892921 0.890641 0.893741 0.893471 0.892896 0.891269 0.887184 0.884196 0.882129 0.882673 0.882423 0.883613 0.882938 0.886238 0.886005 0.887327 0.88806 0.889785 0.893832 0.885771 0.893832 0.879715 0.893832 0.884634 0.889363 0.889335 0.893515 0.884662 0.893832 0.889109 0.882909 0.891303 0.893846 0.89145 0.893832 0.888652 0.893832 0.889262 0.893832 0.892341 0.893832 0.892924 0.893413 0.891946 0.887284 0.887561 0.883929 0.88463 0.883546 0.883691 0.882732 0.884829 0.888171 0.891127 0.892842 0.893473 0.893743 0.890323 0.892916 0.887916 0.864076 0.875856 0.882226 0.888609 0.893339 0.893672 0.893542 0.893362 0.893556 0.893187 0.890096 0.883963 0.878058 0.867486 0.886791 0.892225 0.890946 0.893632 0.893188 0.892365 0.890609 0.887319 0.88474 0.882958 0.8834 0.883146 0.884395 0.883996 0.886911 0.88681 0.887952 0.888964 0.889619 0.893832 0.886154 0.893832 0.880603 0.893832 0.884508 0.890305 0.888963 0.893114 0.8842 0.893832 0.883086 0.89053 0.893837 0.891006 0.893832 0.888476 0.893832 0.888978 0.893832 0.892087 0.893832 0.892637 0.893539 0.892153 0.888288 0.888241 0.884961 0.885333 0.884098 0.884256 0.883508 0.885318 0.888171 0.890427 0.892293 0.893188 0.893633 0.890692 0.892216 0.886584 0.867257 0.877935 0.883873 0.890074 0.893184 0.893556 0.89336 0.887676 0.893194 0.893448 0.893021 0.89122 0.885457 0.879979 0.870431 0.88568 0.89158 0.891235 0.893529 0.892923 0.891886 0.890053 0.887373 0.885072 0.883471 0.883796 0.883542 0.884868 0.884724 0.88732 0.887316 0.888535 0.88979 0.889506 0.893832 0.886479 0.893832 0.881437 0.893832 0.884422 0.891123 0.888639 0.892767 0.883765 0.893832 0.886348 0.883309 0.889796 0.893827 0.890605 0.893832 0.888295 0.893832 0.888753 0.893832 0.891843 0.893832 0.892375 0.893638 0.892331 0.888942 0.888658 0.885687 0.885766 0.884388 0.884546 0.883994 0.885618 0.888103 0.889855 0.891799 0.892921 0.893529 0.891039 0.891568 0.885502 0.870239 0.879876 0.885385 0.891203 0.893012 0.893448 0.893192 0.893042 0.89335 0.892862 0.892048 0.886769 0.881704 0.873097 0.884793 0.890995 0.891501 0.893435 0.89268 0.89146 0.889588 0.887372 0.885254 0.883746 0.88395 0.883702 0.885117 0.885198 0.887559 0.887632 0.889055 0.890518 0.889433 0.893832 0.886752 0.893832 0.882196 0.893832 0.88437 0.891807 0.888358 0.892473 0.883364 0.893832 0.883586 0.889116 0.893818 0.89025 0.893832 0.888118 0.893832 0.888584 0.893832 0.89162 0.893832 0.892142 0.893711 0.892486 0.889349 0.888893 0.886169 0.885997 0.884485 0.884633 0.884257 0.88578 0.887993 0.889393 0.891362 0.892678 0.893435 0.891354 0.890981 0.884643 0.872936 0.881619 0.886713 0.892035 0.89285 0.893349 0.893039 0.885142 0.892907 0.893263 0.892723 0.892632 0.887878 0.883199 0.87543 0.884104 0.89048 0.891738 0.893351 0.892465 0.891092 0.889208 0.887336 0.885335 0.883856 0.883945 0.883708 0.885215 0.885488 0.887691 0.887841 0.889505 0.89114 0.889389 0.893832 0.886979 0.893832 0.882864 0.893832 0.884348 0.892359 0.888117 0.892233 0.883003 0.893832 0.884075 0.883895 0.888506 0.893809 0.889941 0.893832 0.887954 0.893832 0.888465 0.893832 0.891424 0.893832 0.891939 0.893761 0.892617 0.889591 0.889012 0.886468 0.886085 0.884453 0.884584 0.884361 0.885848 0.887865 0.889029 0.890986 0.892461 0.893351 0.891629 0.890464 0.883976 0.875295 0.883128 0.887833 0.892623 0.89271 0.893262 0.892904 0.892606 0.893027 0.888777 0.885651 0.887761 0.887995 0.889879 0.891652 0.893832 0.893832 0.893832 0.892787 0.892041 0.893832 0.884203 0.893802 0.893832 0.893832 0.893832 0.893832 0.893793 0.892722 0.88973 0.889064 0.886638 0.888741 0.89302 0.892593 0.892792 0.893188 0.884444 0.877396 0.883586 0.890041 0.891939 0.893279 0.89228 0.890783 0.888905 0.887285 0.885354 0.88386 0.883846 0.883626 0.885223 0.889365 0.887163 0.883428 0.884347 0.887915 0.882689 0.883163 0.887976 0.889681 0.887809 0.888389 0.89126 0.891769 0.886086 0.884348 0.884458 0.884364 0.885859 0.887739 0.888747 0.89067 0.892276 0.893278 0.891859 0.890023 0.883476 0.877281 0.884385 0.893188 0.892789 0.892697 0.893127 0.892514 0.893282 0.889474 0.885433 0.878977 0.883211 0.889685 0.892102 0.893219 0.892128 0.890535 0.888674 0.887232 0.88534 0.883809 0.883709 0.883507 0.885183 0.885733 0.887801 0.88812 0.890176 0.892055 0.889353 0.893832 0.887308 0.893832 0.883882 0.893832 0.88436 0.893106 0.887753 0.891894 0.882431 0.893832 0.88242 0.884482 0.887537 0.893795 0.889469 0.893832 0.887689 0.893832 0.888345 0.893832 0.891128 0.893832 0.891633 0.893813 0.892801 0.889808 0.889079 0.886723 0.88604 0.884214 0.884303 0.884311 0.885839 0.887629 0.888535 0.890418 0.892123 0.893218 0.892043 0.889665 0.883115 0.878877 0.885383 0.889443 0.893278 0.892499 0.893127 0.892694 0.892626 0.89308 0.892445 0.893438 0.88998 0.886168 0.880163 0.882955 0.889414 0.892225 0.893173 0.892013 0.890348 0.888507 0.887187 0.885314 0.88374 0.883573 0.883388 0.88513 0.885768 0.887827 0.888222 0.890396 0.892353 0.889349 0.893832 0.887415 0.893832 0.884221 0.893832 0.884378 0.89333 0.887631 0.891789 0.882233 0.893832 0.881854 0.884711 0.887199 0.89379 0.88931 0.893832 0.887598 0.893832 0.888323 0.893832 0.891029 0.893832 0.89153 0.893823 0.892858 0.889854 0.889079 0.886757 0.88598 0.884085 0.884155 0.884241 0.885809 0.887542 0.888385 0.890229 0.892007 0.893173 0.892181 0.889394 0.882868 0.880076 0.886124 0.889953 0.893435 0.89243 0.89308 0.892622 0.892577 0.893049 0.892399 0.893525 0.890308 0.886654 0.880954 0.882796 0.889232 0.892307 0.893142 0.891934 0.890223 0.8884 0.887154 0.885289 0.88368 0.883468 0.883295 0.885083 0.885779 0.887844 0.888295 0.890543 0.892549 0.889348 0.893832 0.887486 0.893832 0.884446 0.893832 0.884395 0.893471 0.887549 0.891722 0.882098 0.893832 0.881473 0.884872 0.88697 0.893786 0.889202 0.893832 0.887536 0.893832 0.888315 0.893832 0.890963 0.893832 0.891462 0.893829 0.892894 0.88988 0.889075 0.886766 0.885928 0.883986 0.884043 0.88418 0.885783 0.887483 0.88829 0.890103 0.891929 0.893142 0.892272 0.889211 0.882716 0.880874 0.886613 0.890284 0.893523 0.892384 0.893048 0.892574 0.892553 0.893033 0.892376 0.893564 0.890469 0.886895 0.881349 0.882721 0.88914 0.892348 0.893127 0.891895 0.890161 0.888347 0.887138 0.885275 0.883646 0.883411 0.883245 0.885056 0.88578 0.887853 0.888334 0.890615 0.892646 0.889349 0.893832 0.887521 0.893832 0.884558 0.893832 0.884404 0.893539 0.887508 0.891689 0.88203 0.893832 0.881281 0.884955 0.886854 0.893784 0.889148 0.893832 0.887506 0.893832 0.888312 0.893832 0.89093 0.893832 0.891427 0.893831 0.892912 0.889893 0.889072 0.886767 0.885899 0.883933 0.883982 0.884146 0.885767 0.887453 0.888243 0.89004 0.891889 0.893126 0.892317 0.88912 0.882644 0.881273 0.886857 0.890446 0.893562 0.892361 0.893033 0.892549 
SCALARS Axial_Stress float 1
LOOKUP_TABLE default
-107307000000.0 -28960200000.0 -178272000000.0 -348582000000.0 -139386000000.0 -278543000000.0 -198020000000.0 -73469500000.0 -80089100000.0 -106475000000.0 -110235000000.0 -110619000000.0 -137539000000.0 -151120000000.0 -75797000000.0 -36684600000.0 -118848000000.0 -477065000000.0 -457987000000.0 -334179000000.0 -83493500000.0 -82495500000.0 -242461000000.0 -316812000000.0 -319347000000.0 -236658000000.0 -241742000000.0 -164935000000.0 -242855000000.0 -134780000000.0 -123262000000.0 -11739600000.0 -348754000000.0 -519483000000.0 -712050000000.0 -422723000000.0 -430859000000.0 -271524000000.0 -510997000000.0 -332408000000.0 -243882000000.0 -429407000000.0 -374230000000.0 -595048000000.0 -306712000000.0 -292751000000.0 -338987000000.0 -142973000000.0 -426636000000.0 -933849000000.0 -418978000000.0 -617710000000.0 -695828000000.0 -940710000000.0 -475888000000.0 -703756000000.0 -535720000000.0 -741227000000.0 -750472000000.0 -551584000000.0 -751103000000.0 -615723000000.0 -835924000000.0 -387950000000.0 -758381000000.0 -467097000000.0 -378877000000.0 -353001000000.0 -355865000000.0 -209076000000.0 -452796000000.0 -764955000000.0 -783697000000.0 -473779000000.0 -692422000000.0 -951298000000.0 -945934000000.0 -958893000000.0 -1.00842e+12 -1.19026e+12 -697482000000.0 -345036000000.0 -517478000000.0 -790364000000.0 -507225000000.0 -408591000000.0 -469378000000.0 -439259000000.0 -491406000000.0 -390306000000.0 -733077000000.0 -783914000000.0 -811828000000.0 -353089000000.0 -1.11156e+12 -1.14545e+12 -1.16796e+12 -1.14821e+12 -1.28136e+12 -627551000000.0 -256188000000.0 -719209000000.0 -300637000000.0 -583281000000.0 -651509000000.0 -396093000000.0 -814962000000.0 -781613000000.0 -758001000000.0 -1.37784e+12 -585600000000.0 -1.33448e+12 -1.44811e+12 -1.32638e+12 -1.58117e+12 -1.34184e+12 -1.45731e+12 -1.3344e+12 -643800000000.0 -717209000000.0 -487907000000.0 -867044000000.0 -638080000000.0 -593932000000.0 -989331000000.0 -600528000000.0 -278194000000.0 -591265000000.0 -902284000000.0 -1.21781e+12 -1.04292e+12 -802497000000.0 -987192000000.0 -1.58666e+12 -1.65789e+12 -782064000000.0 -683080000000.0 -694274000000.0 -652700000000.0 -914197000000.0 -1.07534e+12 -854923000000.0 -725194000000.0 -663075000000.0 -808696000000.0 -250120000000.0 -1.06308e+12 -1.757e+12 -1.48315e+12 -1.36863e+12 -962305000000.0 -1.20265e+12 -1.18392e+12 -1.94384e+12 -921530000000.0 -778442000000.0 -1.06436e+12 -912204000000.0 -1.44251e+12 -705121000000.0 -706126000000.0 -495771000000.0 -1.3597e+12 -461825000000.0 -1.00351e+12 -2.1245e+12 -1.69607e+12 -1.38989e+12 -1.38378e+12 -1.30386e+12 -1.03782e+12 -1.01411e+12 -1.1988e+12 -1.18323e+12 -1.20517e+12 -1.29251e+12 -1.12217e+12 -861722000000.0 -1.05004e+12 -789978000000.0 -1.9008e+12 -1.04708e+12 -433345000000.0 -788130000000.0 -2.50757e+12 -1.97161e+12 -1.64332e+12 -1.52103e+12 -1.66905e+12 -1.57587e+12 -1.73165e+12 -1.26149e+12 -1.24894e+12 -1.40637e+12 -1.28514e+12 -1.2228e+12 -1.30333e+12 -1.27397e+12 -1.06584e+12 -1.47524e+12 -1.14773e+12 -1.13181e+12 -2.17418e+12 -2.37304e+12 -2.25477e+12 -2.1071e+12 -1.88511e+12 -1.84489e+12 -1.66611e+12 -1.74657e+12 -1.86259e+12 -1.53662e+12 -1.13629e+12 -1.18041e+12 -1.36526e+12 -1.3344e+12 -1.40358e+12 -1.36646e+12 -1.67476e+12 -1.13413e+12 -1.82549e+12 -1.88951e+12 -2.29368e+12 -2.29953e+12 -2.01737e+12 -1.86451e+12 -1.83961e+12 -2.15082e+12 -1.48663e+12 -1.16857e+12 -1.38496e+12 -1.46975e+12 -1.44204e+12 -1.57455e+12 -1.50419e+12 -1.65856e+12 -1.76737e+12 -1.79925e+12 -920289000000.0 -1.56214e+12 -2.52525e+12 -2.46954e+12 -2.17973e+12 -1.98417e+12 -2.01536e+12 -1.92239e+12 -1.97851e+12 -1.9279e+12 -1.58987e+12 -1.28669e+12 -1.4336e+12 -1.51404e+12 -1.5838e+12 -1.76381e+12 -1.73689e+12 -2.04586e+12 -1.96114e+12 -2.25718e+12 -1.87962e+12 -2.15947e+12 -1.95243e+12 -1.40439e+12 -3.01466e+12 -2.73423e+12 -2.6877e+12 -2.38987e+12 -2.19595e+12 -2.08352e+12 -2.06758e+12 -2.07595e+12 -1.90454e+12 -1.42762e+12 -1.59699e+12 -1.53154e+12 -1.649e+12 -1.57198e+12 -1.63133e+12 -1.58719e+12 -1.74651e+12 -2.04704e+12 -2.39283e+12 -2.63758e+12 -4.91283e+12 -3.22016e+12 -3.14018e+12 -3.36487e+12 -3.06719e+12 -2.42838e+12 -2.04795e+12 -2.15803e+12 -2.08897e+12 -2.05786e+12 -1.82382e+12 -1.77169e+12 -1.77413e+12 -1.68551e+12 -1.63838e+12 -1.72603e+12 -1.93382e+12 -1.98771e+12 -2.45104e+12 -3.01336e+12 -2.84918e+12 -4.08433e+12 -4.42575e+12 -3.70316e+12 -3.50321e+12 -3.52636e+12 -5.45875e+12 -3.35112e+12 -3.33593e+12 -3.14577e+12 -3.34881e+12 -1.8485e+12 -2.13959e+12 -2.37694e+12 -2.25282e+12 -2.27761e+12 -1.95968e+12 -1.917e+12 -1.93778e+12 -1.63039e+12 -1.86566e+12 -2.04268e+12 -2.22822e+12 -3.15854e+12 -3.47905e+12 -3.59029e+12 -4.00731e+12 -4.61929e+12 -5.49011e+12 -3.81951e+12 -3.69737e+12 -3.46238e+12 -5.6344e+12 -5.34953e+12 -3.09948e+12 -3.46388e+12 -3.45527e+12 -4.01947e+12 -4.34953e+12 -1.75915e+12 -2.17156e+12 -2.51729e+12 -2.1933e+12 -1.88113e+12 -1.97794e+12 -2.0454e+12 -1.42935e+12 -2.07444e+12 -3.68383e+12 -3.44348e+12 -3.56846e+12 -3.81717e+12 -4.32275e+12 -4.62497e+12 -5.58373e+12 -3.62887e+12 -3.44868e+12 -5.40738e+12 -5.47775e+12 -5.25679e+12 -3.14253e+12 -3.55707e+12 -3.73743e+12 -4.01105e+12 -4.25611e+12 -2.70234e+12 -2.44934e+12 -2.27375e+12 -2.03718e+12 -2.00038e+12 -1.95854e+12 -1.98271e+12 -1.94546e+12 -1.94679e+12 -2.11335e+12 -1.85166e+12 -2.04132e+12 -3.39908e+12 -3.62243e+12 -3.99032e+12 -3.77515e+12 -3.99656e+12 -3.85481e+12 -3.61054e+12 -4.51924e+12 -5.13108e+12 -5.215e+12 -5.48757e+12 -5.47536e+12 -3.62509e+12 -3.46689e+12 -3.45515e+12 -5.39667e+12 -5.20392e+12 -4.57176e+12 -3.86823e+12 -3.7429e+12 -3.79083e+12 -3.63554e+12 -3.63565e+12 -4.10459e+12 -3.81036e+12 -3.43314e+12 -2.75775e+12 -2.55782e+12 -2.06667e+12 -2.01344e+12 -2.10689e+12 -1.90489e+12 -3.52271e+12 -3.7177e+12 -3.99629e+12 -4.14367e+12 -3.26147e+12 -3.33464e+12 -3.85519e+12 -4.1368e+12 -4.40064e+12 -4.82173e+12 -5.2405e+12 -5.51915e+12 -3.63181e+12 -3.60594e+12 -3.46531e+12 -5.41959e+12 -5.20318e+12 -4.94405e+12 -4.8299e+12 -4.45029e+12 -4.00655e+12 -3.77084e+12 -3.305e+12 -2.44649e+12 -4.38195e+12 -4.05679e+12 -3.03465e+12 -2.31297e+12 -2.08968e+12 -2.13547e+12 -1.95674e+12 -3.40302e+12 -3.47571e+12 -4.0428e+12 -4.20888e+12 -3.08642e+12 -3.74903e+12 -4.18441e+12 -4.66615e+12 -4.97107e+12 -5.08991e+12 -5.3156e+12 -5.53857e+12 -3.56302e+12 -3.40966e+12 -3.44324e+12 -5.49234e+12 -5.46106e+12 -5.2689e+12 -5.22888e+12 -5.00972e+12 -4.66532e+12 -4.41094e+12 -4.14163e+12 -4.13111e+12 -3.95871e+12 -3.60619e+12 -3.22108e+12 -2.12065e+12 -3.52882e+12 -2.99747e+12 -2.62125e+12 -2.30694e+12 -2.15706e+12 -2.11011e+12 -2.1509e+12 -2.09232e+12 -1.98647e+12 -2.76713e+12 -3.09247e+12 -3.18627e+12 -3.40372e+12 -3.30097e+12 -3.45264e+12 -2.59605e+12 -2.81281e+12 -3.37045e+12 -3.60124e+12 -4.04996e+12 -4.27812e+12 -4.40531e+12 -4.60988e+12 -4.84326e+12 -5.15442e+12 -5.35409e+12 -5.3659e+12 -5.55292e+12 -5.56566e+12 -3.51644e+12 -3.46902e+12 -3.37657e+12 -5.50048e+12 -5.32367e+12 -5.05929e+12 -4.84497e+12 -4.77809e+12 -4.55826e+12 -4.23907e+12 -4.03637e+12 -3.8227e+12 -3.56938e+12 -2.80622e+12 -2.09203e+12 -2.45687e+12 -2.13405e+12 -2.07655e+12 -2.37945e+12 -2.89822e+12 -3.15843e+12 -2.94333e+12 -3.12273e+12 -3.67622e+12 -3.89377e+12 -4.14781e+12 -4.42002e+12 -4.72593e+12 -4.93831e+12 -5.16791e+12 -5.39901e+12 -5.56353e+12 -3.42518e+12 -3.34806e+12 -5.4865e+12 -5.49407e+12 -5.35411e+12 -5.35536e+12 -5.1848e+12 -5.10597e+12 -4.886e+12 -4.63646e+12 -4.3789e+12 -4.27315e+12 -4.1966e+12 -3.864e+12 -3.25593e+12 -2.95089e+12 -2.58394e+12 -2.47899e+12 -2.08854e+12 -2.17961e+12 -2.0214e+12 -2.16803e+12 -2.57217e+12 -2.94642e+12 -3.01071e+12 -3.01704e+12 -3.02603e+12 -3.2257e+12 -3.43119e+12 -3.97027e+12 -4.31831e+12 -4.40078e+12 -4.53751e+12 -4.76363e+12 -4.96416e+12 -4.96538e+12 -5.18052e+12 -5.24988e+12 -5.42057e+12 -5.41278e+12 -5.5498e+12 -5.53341e+12 -3.38738e+12 -3.29541e+12 -3.32473e+12 -5.47778e+12 -5.34194e+12 -5.22213e+12 -4.92207e+12 -4.67911e+12 -4.4891e+12 -4.46629e+12 -4.34478e+12 -4.27632e+12 -4.11516e+12 -3.97025e+12 -3.61829e+12 -3.3029e+12 -2.73844e+12 -2.4718e+12 -2.07322e+12 -1.79124e+12 -1.96473e+12 -1.83017e+12 -1.99426e+12 -2.04702e+12 -2.27585e+12 -2.38397e+12 -2.69006e+12 -2.75773e+12 -2.92464e+12 -2.95065e+12 -3.07435e+12 -3.47077e+12 -3.74359e+12 -4.08191e+12 -4.22297e+12 -4.3714e+12 -4.45345e+12 -4.58949e+12 -4.57868e+12 -4.76507e+12 -4.97329e+12 -5.28098e+12 -5.39291e+12 -5.51644e+12 -3.35735e+12 -3.32199e+12 -3.24741e+12 -5.46612e+12 -5.33838e+12 -5.1984e+12 -5.21388e+12 -5.10081e+12 -5.04661e+12 -4.68931e+12 -4.68748e+12 -4.49381e+12 -4.37223e+12 -4.28886e+12 -4.42758e+12 -4.2699e+12 -3.70027e+12 -2.98829e+12 -2.64165e+12 -2.62026e+12 -1.57261e+12 -1.76708e+12 -2.08585e+12 -2.53593e+12 -2.85035e+12 -2.98203e+12 -3.20559e+12 -3.83627e+12 -4.37087e+12 -4.49741e+12 -4.38527e+12 -4.45998e+12 -4.55222e+12 -4.74353e+12 -4.70863e+12 -5.10843e+12 -5.15898e+12 -5.26675e+12 -5.2496e+12 -5.3823e+12 -5.49602e+12 -3.26839e+12 -3.16598e+12 -5.37126e+12 -5.42932e+12 -5.31139e+12 -5.3345e+12 -5.21702e+12 -5.08457e+12 -5.00432e+12 -4.93143e+12 -4.45139e+12 -4.30666e+12 -4.25706e+12 -4.291e+12 -4.2528e+12 -4.67401e+12 -4.17623e+12 -3.25588e+12 -2.85278e+12 -2.77502e+12 -2.75455e+12 -2.67074e+12 -2.78615e+12 -2.86967e+12 -3.03852e+12 -1.35843e+12 -1.85751e+12 -2.13725e+12 -2.61003e+12 -2.72216e+12 -2.8246e+12 -2.91197e+12 -2.96002e+12 -3.00595e+12 -2.99102e+12 -3.3983e+12 -4.30399e+12 -4.69549e+12 -4.32779e+12 -4.37225e+12 -4.32674e+12 -4.37643e+12 -4.47746e+12 -4.98074e+12 -5.07792e+12 -5.14703e+12 -5.25833e+12 -5.36815e+12 -5.33578e+12 -5.45172e+12 -5.38654e+12 -3.18165e+12 -2.90399e+12 -3.0515e+12 -5.27818e+12 -5.25148e+12 -5.18893e+12 -5.10214e+12 -5.10669e+12 -5.07769e+12 -4.85459e+12 -4.35882e+12 -4.26839e+12 -4.08547e+12 -4.15023e+12 -3.99159e+12 -4.55803e+12 -4.44119e+12 -3.77522e+12 -2.73866e+12 -2.84773e+12 -2.77687e+12 -2.88453e+12 -3.14794e+12 -1.26932e+12 -1.75417e+12 -1.90882e+12 -2.69135e+12 -2.7325e+12 -2.89052e+12 -2.99773e+12 -2.76169e+12 -3.94066e+12 -4.58541e+12 -4.65801e+12 -4.04925e+12 -4.21278e+12 -4.15188e+12 -4.31878e+12 -4.30437e+12 -4.83133e+12 -5.14484e+12 -5.15645e+12 -5.13386e+12 -5.21658e+12 -5.26948e+12 -5.28847e+12 -3.06383e+12 -2.91439e+12 -2.76452e+12 -5.15699e+12 -5.07278e+12 -5.18181e+12 -5.05211e+12 -5.14219e+12 -5.00871e+12 -5.00696e+12 -5.07537e+12 -5.20157e+12 -5.39186e+12 -3.50189e+12 -4.08334e+12 -4.12877e+12 -4.09259e+12 -3.70374e+12 -4.82575e+12 -4.79496e+12 -2.62281e+12 -2.9179e+12 -2.83038e+12 -2.81267e+12 -2.89632e+12 -2.74433e+12 -3.14694e+12 -2.74671e+12 -2.43719e+12 -2.62128e+12 -2.75315e+12 -2.72992e+12 -2.8224e+12 -2.9431e+12 -3.01432e+12 -2.61283e+12 -4.87535e+12 -4.69198e+12 -3.81406e+12 -4.16604e+12 -4.1752e+12 -4.09118e+12 -3.31438e+12 -5.50591e+12 -5.29329e+12 -5.12122e+12 -5.04307e+12 -5.02903e+12 -5.1622e+12 -5.06717e+12 -5.1943e+12 -5.0817e+12 -5.16527e+12 -2.77373e+12 -2.6642e+12 -4.77934e+12 -4.97688e+12 -4.95924e+12 -4.98742e+12 -4.95123e+12 -4.94523e+12 -4.77362e+12 -5.37354e+12 -5.26251e+12 -3.74923e+12 -4.17259e+12 -3.84748e+12 -4.08923e+12 -2.7029e+12 -3.4695e+12 -2.73592e+12 -2.92514e+12 -2.96333e+12 -2.90022e+12 -2.88259e+12 -2.82356e+12 -2.7887e+12 -2.79588e+12 -2.6567e+12 -2.21114e+12 -3.53166e+12 -2.7516e+12 -2.76791e+12 -2.78796e+12 -2.83858e+12 -2.8859e+12 -2.94175e+12 -2.98393e+12 -3.02762e+12 -2.97878e+12 -2.69506e+12 -3.50891e+12 -2.96838e+12 -4.15941e+12 -3.91566e+12 -4.22875e+12 -3.7635e+12 -5.22394e+12 -5.39812e+12 -4.79139e+12 -4.96527e+12 -4.96562e+12 -4.99765e+12 -4.96687e+12 -4.98446e+12 -4.78672e+12 -2.67273e+12 -2.60412e+12 -4.59516e+12 -4.76384e+12 -4.80869e+12 -4.87584e+12 -4.8182e+12 -4.82563e+12 -4.7447e+12 -4.76012e+12 -4.72253e+12 -4.91684e+12 -5.04219e+12 -3.45158e+12 -3.60737e+12 -3.24851e+12 -4.66721e+12 -3.6505e+12 -2.09565e+12 -3.25101e+12 -3.09242e+12 -2.89542e+12 -2.95466e+12 -2.84683e+12 -2.65522e+12 -2.14114e+12 -4.17457e+12 -3.02238e+12 -2.77182e+12 -2.78673e+12 -2.90188e+12 -2.99179e+12 -2.94094e+12 -3.14016e+12 -3.31327e+12 -2.16953e+12 -3.7192e+12 -4.66378e+12 -3.35361e+12 -3.62104e+12 -3.52954e+12 -4.9974e+12 -4.91559e+12 -4.73143e+12 -4.77327e+12 -4.75462e+12 -4.83687e+12 -4.82535e+12 -4.8824e+12 -4.81455e+12 -4.77138e+12 -4.60238e+12 -2.61236e+12 -2.49979e+12 -2.56206e+12 -4.43193e+12 -4.54862e+12 -4.58917e+12 -4.69337e+12 -4.58016e+12 -4.38759e+12 -4.34485e+12 -4.26143e+12 -4.37993e+12 -4.44101e+12 -4.33729e+12 -5.02123e+12 -3.8608e+12 -3.73392e+12 -3.2195e+12 -3.00177e+12 -2.96921e+12 -2.71292e+12 -2.22325e+12 -3.67442e+12 -4.09065e+12 -3.80789e+12 -3.62367e+12 -3.12179e+12 -2.88661e+12 -2.78949e+12 -2.75736e+12 -2.80626e+12 -3.01225e+12 -3.03443e+12 -3.2959e+12 -3.88566e+12 -3.83348e+12 -5.08991e+12 -4.49761e+12 -4.36216e+12 -4.33318e+12 -4.25853e+12 -4.34531e+12 -4.39522e+12 -4.5874e+12 -4.69752e+12 -4.59538e+12 -4.55555e+12 -4.43944e+12 -2.56947e+12 -2.50594e+12 -2.3856e+12 -4.27753e+12 -4.15885e+12 -4.35551e+12 -4.36651e+12 -4.71624e+12 -4.44105e+12 -4.71602e+12 -4.24506e+12 -4.62776e+12 -3.8528e+12 -2.8442e+12 -4.52366e+12 -4.71567e+12 -3.06129e+12 -4.3843e+12 -3.51346e+12 -2.72395e+12 -4.93592e+12 -2.15583e+12 -3.10899e+12 -2.01746e+12 -1.43545e+12 -2.27941e+12 -3.75634e+12 -3.2289e+12 -2.68903e+12 -2.75644e+12 -2.68672e+12 -2.43307e+12 -3.14757e+12 -3.61543e+12 -3.35306e+12 -2.90164e+12 -2.72953e+12 -2.76609e+12 -2.80987e+12 -2.81949e+12 -2.73826e+12 -3.23574e+12 -3.82707e+12 -2.28343e+12 -2.09835e+12 -3.31119e+12 -2.16367e+12 -4.97682e+12 -2.73472e+12 -3.51054e+12 -4.40911e+12 -3.01146e+12 -4.62569e+12 -4.5018e+12 -2.84143e+12 -3.84944e+12 -4.63269e+12 -4.25043e+12 -4.72078e+12 -4.44223e+12 -4.72061e+12 -4.37179e+12 -4.36148e+12 -4.16591e+12 -4.28583e+12 -2.39023e+12 -2.19012e+12 -3.94184e+12 -4.1165e+12 -3.91472e+12 -4.14199e+12 -4.33347e+12 -4.5161e+12 -4.84219e+12 -4.47917e+12 -4.56427e+12 -5.04348e+12 -3.24549e+12 -5.62107e+12 -3.84724e+12 -3.95987e+12 -3.23817e+12 -3.71228e+12 -3.58305e+12 -1.32685e+12 -2.89027e+12 -2.22806e+12 -2.86993e+12 -2.77659e+12 -3.25315e+12 -3.33583e+12 -3.00685e+12 -2.75362e+12 -2.70414e+12 -2.9331e+12 -2.22879e+12 -2.98818e+12 -1.48903e+12 -1.39802e+12 -3.60696e+12 -3.73459e+12 -3.24879e+12 -3.9729e+12 -3.83211e+12 -5.64829e+12 -3.2374e+12 -5.03744e+12 -4.5741e+12 -4.47759e+12 -4.84391e+12 -4.52013e+12 -4.33807e+12 -4.14618e+12 -3.92453e+12 -4.12518e+12 -3.94845e+12 -2.19723e+12 -1.97075e+12 -2.08544e+12 -4.0145e+12 -3.49494e+12 -3.7466e+12 -3.81835e+12 -4.80291e+12 -5.57059e+12 -4.05036e+12 -5.72845e+12 -2.92848e+12 -5.1969e+12 -3.08653e+12 -4.45204e+12 -4.45696e+12 -4.24084e+12 -3.61823e+12 -3.44942e+12 -3.39955e+12 -3.15907e+12 -2.70684e+12 -2.42173e+12 -1.74823e+12 -2.32968e+12 -1.27025e+12 -3.32432e+12 -2.72166e+12 -2.88421e+12 -2.8773e+12 -3.13903e+12 -2.95249e+12 -3.04449e+12 -2.8071e+12 -2.80031e+12 -2.64427e+12 -2.64516e+12 -2.72666e+12 -3.34721e+12 -1.31003e+12 -2.37701e+12 -1.7933e+12 -2.49684e+12 -2.73726e+12 -3.17665e+12 -3.41426e+12 -3.46094e+12 -4.24049e+12 -4.46507e+12 -4.4636e+12 -3.09739e+12 -5.19447e+12 -2.9316e+12 -5.72949e+12 -4.03911e+12 -5.58239e+12 -4.80872e+12 -3.81811e+12 -3.75178e+12 -3.51511e+12 -4.0119e+12 -2.09586e+12 -1.99923e+12 -1.9068e+12 -3.98215e+12 -3.93754e+12 -4.13033e+12 -3.06469e+12 -2.6484e+12 -4.31486e+12 -5.06408e+12 -5.30088e+12 -4.1064e+12 -4.26512e+12 -4.19423e+12 -4.22632e+12 -3.83784e+12 -4.005e+12 -3.8168e+12 -3.88516e+12 -3.943e+12 -3.2455e+12 -3.00203e+12 -2.71171e+12 -2.52519e+12 -2.00186e+12 -2.01499e+12 -2.64736e+12 -2.80979e+12 -2.85198e+12 -2.43541e+12 -2.62422e+12 -2.62461e+12 -2.78179e+12 -2.75642e+12 -2.63379e+12 -2.51224e+12 -2.55202e+12 -2.43148e+12 -2.88526e+12 -2.85431e+12 -2.67456e+12 -2.0484e+12 -2.04566e+12 -2.56976e+12 -2.73352e+12 -3.01739e+12 -3.2585e+12 -3.61956e+12 -3.94805e+12 -3.88956e+12 -3.8211e+12 -4.00903e+12 -3.84548e+12 -4.23008e+12 -4.19446e+12 -4.27081e+12 -4.11949e+12 -5.2887e+12 -5.06302e+12 -4.313e+12 -2.65077e+12 -3.07292e+12 -4.11963e+12 -3.9367e+12 -3.96883e+12 -1.91322e+12 -1.90273e+12 -3.84185e+12 -3.83141e+12 -3.89232e+12 -3.92264e+12 -4.32421e+12 -3.03745e+12 -4.0809e+12 -4.4885e+12 -4.4955e+12 -3.97397e+12 -4.2023e+12 -3.8705e+12 -3.9365e+12 -3.68735e+12 -3.80159e+12 -3.59286e+12 -3.60978e+12 -3.53883e+12 -3.30849e+12 -2.66575e+12 -2.47941e+12 -2.20538e+12 -1.99053e+12 -2.0899e+12 -2.03275e+12 -2.3803e+12 -2.58447e+12 -2.64467e+12 -2.58439e+12 -2.48872e+12 -2.3563e+12 -2.07909e+12 -2.12774e+12 -2.02459e+12 -2.23692e+12 -2.5074e+12 -2.68346e+12 -3.31635e+12 -3.54555e+12 -3.61556e+12 -3.59755e+12 -3.80648e+12 -3.69118e+12 -3.93959e+12 -3.87146e+12 -4.20277e+12 -3.97735e+12 -4.49586e+12 -4.48078e+12 -4.07286e+12 -3.01711e+12 -4.3286e+12 -3.9249e+12 -3.88326e+12 -3.8006e+12 -3.85669e+12 -1.88321e+12 -1.75773e+12 -3.53594e+12 -3.68872e+12 -3.60517e+12 -3.78087e+12 -3.9195e+12 -3.92852e+12 -3.59399e+12 -4.36724e+12 -4.00945e+12 -3.73118e+12 -3.98179e+12 -4.03085e+12 -3.98933e+12 -3.82567e+12 -3.77543e+12 -3.65677e+12 -3.61155e+12 -3.52107e+12 -3.47147e+12 -3.36539e+12 -3.30581e+12 -3.19983e+12 -3.06203e+12 -2.89164e+12 -2.22868e+12 -2.04778e+12 -1.93022e+12 -1.69593e+12 -1.63199e+12 -976980000000.0 -1.21494e+12 -2.00453e+12 -2.17633e+12 -2.38792e+12 -2.32111e+12 -2.49356e+12 -2.38997e+12 -2.50305e+12 -2.36908e+12 -2.43678e+12 -2.29346e+12 -2.35409e+12 -2.19313e+12 -2.03961e+12 -1.36157e+12 -987398000000.0 -1.64336e+12 -1.72048e+12 -1.9566e+12 -2.07207e+12 -2.25109e+12 -2.90561e+12 -3.07169e+12 -3.20696e+12 -3.31077e+12 -3.36933e+12 -3.47458e+12 -3.5239e+12 -3.6129e+12 -3.65718e+12 -3.77556e+12 -3.82649e+12 -3.98884e+12 -4.02922e+12 -3.97747e+12 -3.72855e+12 -4.02963e+12 -4.37938e+12 -3.62639e+12 -3.93803e+12 -3.92968e+12 -3.79409e+12 -3.5953e+12 -3.70192e+12 -3.5168e+12 -1.75272e+12 -1.57191e+12 -3.20621e+12 -3.43414e+12 -3.46952e+12 -3.66791e+12 -3.92844e+12 -2.61462e+12 -2.8223e+12 -3.38062e+12 -3.262e+12 -3.19741e+12 -3.10523e+12 -3.02075e+12 -2.9188e+12 -2.76632e+12 -2.5971e+12 -2.42509e+12 -1.89109e+12 -1.62844e+12 -1.17247e+12 -952591000000.0 -1.9529e+12 -2.11857e+12 -2.25831e+12 -2.2763e+12 -2.24554e+12 -2.12632e+12 -2.00802e+12 -938871000000.0 -1.17947e+12 -1.64991e+12 -1.90909e+12 -2.44393e+12 -2.61161e+12 -2.77738e+12 -2.92563e+12 -3.02499e+12 -3.10797e+12 -3.19955e+12 -3.26338e+12 -3.37686e+12 -2.8185e+12 -2.63112e+12 -3.9435e+12 -3.69248e+12 -3.53599e+12 -3.37944e+12 -3.27904e+12 -1.6225e+12 -1.32395e+12 -1.48334e+12 -2.93808e+12 -3.16793e+12 -3.05345e+12 -3.35725e+12 -3.40825e+12 -3.84987e+12 -4.23214e+12 -4.7819e+12 -4.12794e+12 -3.57053e+12 -3.63003e+12 -3.63169e+12 -3.51593e+12 -3.47238e+12 -3.39093e+12 -3.34835e+12 -2.85027e+12 -2.76107e+12 -2.64652e+12 -2.50783e+12 -2.36424e+12 -2.20545e+12 -2.04692e+12 -1.76306e+12 -2.03804e+12 -2.4665e+12 -2.42126e+12 -1.85226e+12 -2.1199e+12 -2.16654e+12 -2.16571e+12 -2.12761e+12 -1.88968e+12 -2.49448e+12 -2.45858e+12 -2.03211e+12 -1.75398e+12 -2.06339e+12 -2.22031e+12 -2.3771e+12 -2.51827e+12 -2.65379e+12 -2.76537e+12 -2.85232e+12 -3.34882e+12 -3.39021e+12 -3.47155e+12 -3.51546e+12 -3.6303e+12 -3.62762e+12 -3.56723e+12 -4.16335e+12 -4.80324e+12 -4.22653e+12 -3.86082e+12 -3.4326e+12 -3.33807e+12 -3.15512e+12 -3.1572e+12 -2.96228e+12 -1.46051e+12 -1.28589e+12 -1.15776e+12 -2.59593e+12 -2.56331e+12 -2.78785e+12 -2.84847e+12 -3.15851e+12 -3.35382e+12 -3.58456e+12 -3.76588e+12 -3.64627e+12 -3.95624e+12 -3.45273e+12 -3.37035e+12 -3.34043e+12 -3.33157e+12 -3.29664e+12 -3.23254e+12 -3.18829e+12 -3.13714e+12 -3.08212e+12 -3.0102e+12 -2.93723e+12 -2.40831e+12 -2.29018e+12 -2.16503e+12 -2.04051e+12 -1.92577e+12 -1.81308e+12 -1.13868e+12 -912476000000.0 -1.46916e+12 -1.96829e+12 -1.99641e+12 -1.91156e+12 -2.04381e+12 -1.97251e+12 -2.07429e+12 -1.98165e+12 -2.05736e+12 -1.95066e+12 -2.02749e+12 -2.01104e+12 -1.49408e+12 -1.0026e+12 -1.14772e+12 -1.81969e+12 -1.93355e+12 -2.04888e+12 -2.17396e+12 -2.29764e+12 -2.41432e+12 -2.93856e+12 -3.01081e+12 -3.08189e+12 -3.13563e+12 -3.18584e+12 -3.23044e+12 -3.29435e+12 -3.32871e+12 -3.33821e+12 -3.37102e+12 -3.45898e+12 -3.98252e+12 -3.66571e+12 -3.76877e+12 -3.59724e+12 -3.38671e+12 -3.21852e+12 -2.96323e+12 -2.93088e+12 -2.60528e+12 -2.59186e+12 -1.09965e+12 -973629000000.0 -2.20752e+12 -2.19174e+12 -2.54292e+12 -2.86274e+12 -3.00496e+12 -3.72515e+12 -4.39907e+12 -2.68509e+12 -3.51649e+12 -3.20501e+12 -3.1382e+12 -3.00629e+12 -2.99575e+12 -3.00103e+12 -3.00402e+12 -2.98875e+12 -2.95542e+12 -2.93157e+12 -2.88924e+12 -2.83568e+12 -2.76803e+12 -2.69415e+12 -2.61082e+12 -2.51687e+12 -2.09916e+12 -1.99618e+12 -1.89552e+12 -1.79158e+12 -1.68589e+12 -1.55171e+12 -2.36601e+12 -1.77371e+12 -1.86112e+12 -1.89983e+12 -1.88768e+12 -1.85165e+12 -2.31962e+12 -1.5297e+12 -1.67914e+12 -1.79123e+12 -1.89628e+12 -1.9991e+12 -2.10254e+12 -2.52031e+12 -2.6125e+12 -2.6949e+12 -2.76816e+12 -2.8347e+12 -2.88724e+12 -2.92859e+12 -2.95099e+12 -2.98431e+12 -2.99905e+12 -2.99612e+12 -2.99346e+12 -3.00802e+12 -3.15311e+12 -3.26497e+12 -3.51585e+12 -2.75502e+12 -4.35e+12 -3.72178e+12 -3.06073e+12 -2.94715e+12 -2.65398e+12 -2.21693e+12 -2.18186e+12 -897712000000.0 -789186000000.0 -1.42025e+12 -1.8252e+12 -1.85081e+12 -2.21306e+12 -2.34495e+12 -2.659e+12 -2.50365e+12 -3.29762e+12 -3.8717e+12 -2.04418e+12 -2.15346e+12 -2.56389e+12 -2.61513e+12 -2.65374e+12 -2.68609e+12 -2.70565e+12 -2.70697e+12 -2.71672e+12 -2.69908e+12 -2.65976e+12 -2.6059e+12 -2.5406e+12 -2.46829e+12 -2.38679e+12 -2.29731e+12 -2.20118e+12 -1.85167e+12 -1.77914e+12 -1.73103e+12 -1.74969e+12 -1.9252e+12 -2.58845e+12 -3.0851e+12 -1.60519e+12 -1.74081e+12 -1.81035e+12 -1.82392e+12 -1.79184e+12 -1.77805e+12 -3.13298e+12 -2.69493e+12 -1.97556e+12 -1.75223e+12 -1.72728e+12 -1.77453e+12 -1.84794e+12 -2.20376e+12 -2.29896e+12 -2.38666e+12 -2.4675e+12 -2.53971e+12 -2.60447e+12 -2.65753e+12 -2.69612e+12 -2.7125e+12 -2.69864e+12 -2.69744e+12 -2.6775e+12 -2.64781e+12 -2.61063e+12 -2.55616e+12 -2.13106e+12 -2.10386e+12 -3.86799e+12 -3.31852e+12 -2.5606e+12 -2.75496e+12 -2.38772e+12 -2.27695e+12 -1.78313e+12 -1.72775e+12 -1.23713e+12 -671002000000.0 -496403000000.0 -594018000000.0 -1.02281e+12 -1.41463e+12 -1.9114e+12 -2.04036e+12 -2.42088e+12 -2.63242e+12 -2.95733e+12 -4.44934e+12 -3.30417e+12 -1.98653e+12 -2.25315e+12 -2.30742e+12 -2.36626e+12 -2.51111e+12 -2.48876e+12 -2.44625e+12 -2.39112e+12 -2.32749e+12 -2.25735e+12 -2.18091e+12 -2.10026e+12 -2.01667e+12 -1.93232e+12 -1.66084e+12 -1.62442e+12 -1.60785e+12 -1.62076e+12 -934762000000.0 -1.33384e+12 -1.38542e+12 -1.60307e+12 -1.62733e+12 -1.71772e+12 -1.67072e+12 -1.74939e+12 -1.6857e+12 -1.74973e+12 -1.68291e+12 -1.68897e+12 -1.48409e+12 -1.5043e+12 -816576000000.0 -1.62736e+12 -1.60172e+12 -1.61033e+12 -1.92983e+12 -2.01459e+12 -2.09833e+12 -2.1781e+12 -2.25391e+12 -2.3244e+12 -2.38835e+12 -2.44344e+12 -2.48603e+12 -2.50815e+12 -2.35711e+12 -2.30375e+12 -2.24819e+12 -1.96165e+12 -3.31386e+12 -4.45213e+12 -2.99209e+12 -2.68936e+12 -2.53058e+12 -2.02585e+12 -1.8599e+12 -1.2709e+12 -713363000000.0 -460695000000.0 -701773000000.0 -346640000000.0 -1.00493e+12 -916764000000.0 -1.44838e+12 -1.537e+12 -2.17836e+12 -2.81462e+12 -1.60986e+12 -2.18625e+12 -3.01174e+12 -3.34356e+12 -2.57649e+12 -2.89753e+12 -2.39626e+12 -2.4211e+12 -2.50179e+12 -2.18798e+12 -2.12616e+12 -2.06024e+12 -1.991e+12 -1.92012e+12 -1.84896e+12 -1.77967e+12 -1.71522e+12 -1.43238e+12 -1.07666e+12 -543689000000.0 -1.55296e+12 -1.58693e+12 -1.61995e+12 -1.62086e+12 -1.62221e+12 -633999000000.0 -1.04017e+12 -1.39111e+12 -1.64654e+12 -1.7034e+12 -1.77015e+12 -1.84091e+12 -1.91297e+12 -1.98424e+12 -2.05346e+12 -2.1201e+12 -2.18282e+12 -2.49694e+12 -2.40464e+12 -2.3811e+12 -2.87977e+12 -2.44645e+12 -3.42842e+12 -3.1731e+12 -2.24989e+12 -1.59332e+12 -3.04102e+12 -2.32158e+12 -1.48218e+12 -1.34516e+12 -704304000000.0 -952758000000.0 -430226000000.0 -137743000000.0 -735803000000.0 -1.09789e+12 -1.23099e+12 -874516000000.0 -852762000000.0 -1.71138e+12 -2.157e+12 -1.19578e+12 -2.36912e+12 -3.06236e+12 -2.89106e+12 -2.50822e+12 -2.4492e+12 -1.7825e+12 -1.93947e+12 -2.0557e+12 -2.08346e+12 -2.04431e+12 -2.29756e+12 -2.33657e+12 -2.32649e+12 -2.29222e+12 -2.24415e+12 -1.87507e+12 -1.81388e+12 -1.75284e+12 -1.69324e+12 -1.63648e+12 -1.58444e+12 -1.53887e+12 -1.49623e+12 -1.8064e+12 -1.46382e+12 -1.4931e+12 -1.55177e+12 -1.56248e+12 -1.54984e+12 -1.5242e+12 -1.47134e+12 -1.51345e+12 -1.56256e+12 -1.61856e+12 -1.67831e+12 -1.73985e+12 -1.80198e+12 -2.23987e+12 -2.28899e+12 -2.32443e+12 -2.33555e+12 -2.29461e+12 -2.00071e+12 -2.0666e+12 -2.04943e+12 -1.94531e+12 -1.78635e+12 -2.42922e+12 -2.47688e+12 -2.8037e+12 -2.7465e+12 -2.37355e+12 -1.1059e+12 -2.29755e+12 -1.74878e+12 -808561000000.0 -667796000000.0 -1.1983e+12 -1.04749e+12 -824332000000.0 -129951000000.0 -366775000000.0 -684349000000.0 -1.34774e+12 -1.40314e+12 -903277000000.0 -1.18776e+12 -2.91028e+12 -2.05025e+12 -2.50074e+12 -2.5333e+12 -2.35466e+12 -2.1168e+12 -1.95555e+12 -1.35526e+12 -1.76583e+12 -1.81829e+12 -1.73479e+12 -2.23779e+12 -2.21457e+12 -2.18745e+12 -2.1487e+12 -2.10164e+12 -2.04932e+12 -1.99356e+12 -1.9352e+12 -1.59666e+12 -1.54821e+12 -1.50379e+12 -1.46602e+12 -1.43974e+12 -1.43187e+12 -1.41432e+12 -1.75852e+12 -1.13892e+12 -1.37318e+12 -1.45743e+12 -1.49343e+12 -1.42461e+12 -1.48867e+12 -1.42468e+12 -1.51746e+12 -1.49959e+12 -1.45617e+12 -1.36928e+12 -1.94103e+12 -1.97322e+12 -1.46525e+12 -1.41913e+12 -1.40926e+12 -1.43545e+12 -1.47681e+12 -1.52512e+12 -1.57679e+12 -1.86386e+12 -1.92521e+12 -1.98517e+12 -2.04264e+12 -2.09697e+12 -2.14659e+12 -2.18972e+12 -2.22581e+12 -2.27264e+12 -1.71486e+12 -1.81023e+12 -1.76708e+12 -1.39193e+12 -1.95248e+12 -2.12192e+12 -2.4187e+12 -2.53537e+12 -2.23461e+12 -2.33083e+12 -3.32019e+12 -1.17022e+12 -831627000000.0 -1.363e+12 -1.24471e+12 -513988000000.0 -351426000000.0 -314247000000.0 -333811000000.0 -772242000000.0 -785039000000.0 -1.48097e+12 -1.56598e+12 -1.73515e+12 -2.74726e+12 -1.12514e+12 -1.98897e+12 -2.15525e+12 -1.98053e+12 -1.7297e+12 -1.67978e+12 -1.5056e+12 -2.2146e+12 -2.14192e+12 -2.07279e+12 -2.01711e+12 -1.96417e+12 -1.91165e+12 -1.8591e+12 -1.80627e+12 -1.75314e+12 -1.7001e+12 -1.64768e+12 -1.37817e+12 -1.34966e+12 -1.32347e+12 -1.26986e+12 -1.15854e+12 -772775000000.0 -1.60143e+12 -1.35795e+12 -1.35681e+12 -1.36877e+12 -1.65967e+12 -682821000000.0 -1.07306e+12 -1.22713e+12 -1.26561e+12 -1.30267e+12 -1.33921e+12 -1.63e+12 -1.68387e+12 -1.73858e+12 -1.79373e+12 -1.84891e+12 -1.90401e+12 -1.95932e+12 -2.01605e+12 -2.07793e+12 -2.15846e+12 -2.23796e+12 -1.49201e+12 -1.66846e+12 -1.71153e+12 -2.17415e+12 -2.08297e+12 -2.01223e+12 -1.09524e+12 -3.23624e+12 -1.56977e+12 -1.53893e+12 -1.36596e+12 -512679000000.0 -555953000000.0 -295595000000.0 -375176000000.0 -384438000000.0 -764679000000.0 -681018000000.0 -1.65801e+12 -1.12181e+12 -3.33394e+12 -1.86737e+12 -1.7427e+12 -1.79224e+12 -1.87115e+12 -1.36452e+12 -1.78635e+12 -2.19056e+12 -2.08223e+12 -1.97553e+12 -1.89519e+12 -1.83073e+12 -1.77429e+12 -1.72247e+12 -1.67325e+12 -1.62565e+12 -1.57938e+12 -1.5344e+12 -1.4911e+12 -1.44999e+12 -1.41202e+12 -1.25918e+12 -1.32152e+12 -1.55673e+12 -2.31104e+12 -2.19828e+12 -1.25722e+12 -1.30262e+12 -1.28434e+12 -1.29814e+12 -2.15492e+12 -2.52132e+12 -1.96069e+12 -1.38229e+12 -1.18752e+12 -1.37888e+12 -1.42169e+12 -1.46678e+12 -1.51283e+12 -1.55997e+12 -1.6086e+12 -1.65891e+12 -1.71107e+12 -1.76597e+12 -1.82598e+12 -1.89502e+12 -1.98146e+12 -2.09338e+12 -2.20218e+12 -1.74904e+12 -1.39302e+12 -1.92046e+12 -1.85194e+12 -1.73691e+12 -1.86748e+12 -2.88977e+12 -1.28588e+12 -1.74053e+12 -393319000000.0 -474574000000.0 -251535000000.0 -173080000000.0 -329228000000.0 -651337000000.0 -754534000000.0 -1.1724e+12 -2.23175e+12 -1.40364e+12 -1.84833e+12 -1.28216e+12 -1.93244e+12 -1.26808e+12 -1.59532e+12 -1.28172e+12 -1.49254e+12 -1.45207e+12 -1.41361e+12 -1.37728e+12 -1.34321e+12 -1.31192e+12 -1.28477e+12 -1.26384e+12 -1.25331e+12 -207319000000.0 -1.34984e+12 -988757000000.0 -1.23586e+12 -1.21474e+12 -1.22734e+12 -1.11947e+12 -1.23994e+12 -1.09899e+12 -1.31783e+12 -663597000000.0 -1.18652e+12 -1.2092e+12 -1.23942e+12 -1.27344e+12 -1.31114e+12 -1.34984e+12 -1.38959e+12 -1.43025e+12 -1.47362e+12 -1.27068e+12 -1.58104e+12 -1.25006e+12 -1.90191e+12 -1.31482e+12 -1.8091e+12 -1.72404e+12 -2.09514e+12 -679654000000.0 -878188000000.0 -585537000000.0 -253565000000.0 -117854000000.0 -74303700000.0 -67042600000.0 -466932000000.0 -664733000000.0 -750912000000.0 -1.74407e+12 -1.65692e+12 -1.55646e+12 -1.30196e+12 -1.85428e+12 -1.21349e+12 -762317000000.0 -1.05275e+12 -2.19439e+12 -2.02515e+12 -1.88052e+12 -1.77728e+12 -1.6987e+12 -1.63575e+12 -1.5827e+12 -1.5358e+12 -1.2555e+12 -1.22803e+12 -1.20296e+12 -1.18061e+12 -1.16259e+12 -1.14985e+12 -1.1434e+12 -1.14763e+12 -1.1658e+12 -1.19026e+12 -1.11861e+12 -1.13879e+12 -1.15304e+12 -1.03362e+12 -1.5037e+12 -814714000000.0 -708335000000.0 -809203000000.0 -982673000000.0 -1.0553e+12 -1.09674e+12 -1.12786e+12 -1.16151e+12 -1.19397e+12 -1.22758e+12 -1.52009e+12 -1.57049e+12 -1.6274e+12 -1.69479e+12 -1.77735e+12 -1.88334e+12 -2.02878e+12 -2.1916e+12 -1.03671e+12 -759835000000.0 -1.23638e+12 -1.83482e+12 -1.36619e+12 -1.64831e+12 -1.54544e+12 -1.77611e+12 -453026000000.0 -637241000000.0 -479495000000.0 -66013500000.0 -83102400000.0 -278184000000.0 -463104000000.0 -803240000000.0 -1.54231e+12 -1.29506e+12 -1.22561e+12 -1.68361e+12 -1.53548e+12 -2.09677e+12 -1.93559e+12 -1.76781e+12 -1.65001e+12 -1.56191e+12 -1.49324e+12 -1.43839e+12 -1.39302e+12 -1.35346e+12 -1.3183e+12 -1.28549e+12 -1.05425e+12 -1.04357e+12 -1.03636e+12 -1.0333e+12 -1.03567e+12 -1.03939e+12 -715916000000.0 -1.18703e+12 -220623000000.0 -1.25931e+12 -965830000000.0 -298715000000.0 -1.10399e+12 -183122000000.0 -658236000000.0 -728960000000.0 -835153000000.0 -920237000000.0 -966230000000.0 -987022000000.0 -1.26052e+12 -1.29399e+12 -1.33265e+12 -1.37592e+12 -1.42584e+12 -1.4864e+12 -1.55936e+12 -1.64969e+12 -1.76687e+12 -1.92979e+12 -2.07493e+12 -1.55955e+12 -1.69585e+12 -1.3153e+12 -1.35266e+12 -1.5772e+12 -559653000000.0 -475737000000.0 -281556000000.0 -127236000000.0 -693296000000.0 -288404000000.0 -474623000000.0 -1.60772e+12 -1.46756e+12 -1.41031e+12 -1.37792e+12 -1.56676e+12 -1.38419e+12 -2.30302e+12 -1.86333e+12 -1.63889e+12 -1.50431e+12 -1.41089e+12 -1.34196e+12 -1.2872e+12 -1.24423e+12 -1.20763e+12 -1.17818e+12 -1.15012e+12 -1.12599e+12 -1.10511e+12 -1.08624e+12 -1.06953e+12 -927248000000.0 -926498000000.0 -927108000000.0 -826396000000.0 -1.36757e+12 -1.3292e+12 -941405000000.0 -234860000000.0 -1.15955e+12 -304852000000.0 -620825000000.0 -738577000000.0 -827530000000.0 -1.01862e+12 -1.04456e+12 -1.07394e+12 -1.1008e+12 -1.12506e+12 -1.14906e+12 -1.18417e+12 -1.22486e+12 -1.2775e+12 -1.33788e+12 -1.41157e+12 -1.5046e+12 -1.63474e+12 -1.85105e+12 -2.2848e+12 -1.39688e+12 -1.56524e+12 -1.45602e+12 -1.42341e+12 -1.51153e+12 -1.63127e+12 -401061000000.0 -333142000000.0 -428963000000.0 -105875000000.0 -295753000000.0 -444984000000.0 -86568500000.0 -371501000000.0 -415108000000.0 -1.54629e+12 -1.4584e+12 -1.1527e+12 -1.35176e+12 -1.31663e+12 -1.21989e+12 -1.48775e+12 -1.17044e+12 -1.12641e+12 -1.08793e+12 -1.05472e+12 -1.03304e+12 -1.00733e+12 -988361000000.0 -974675000000.0 -962221000000.0 -951330000000.0 -942703000000.0 -931906000000.0 -928812000000.0 -1.03611e+12 -1.13315e+12 -1.08029e+12 -1.01154e+12 -1.03013e+12 -692547000000.0 -678652000000.0 -861560000000.0 -855452000000.0 -885202000000.0 -899654000000.0 -927925000000.0 -951258000000.0 -969373000000.0 -982009000000.0 -989727000000.0 -1.02476e+12 -1.07278e+12 -1.12108e+12 -1.17329e+12 -1.43578e+12 -1.2702e+12 -1.35134e+12 -1.4093e+12 -1.13525e+12 -1.40815e+12 -1.49793e+12 -422509000000.0 -380928000000.0 -98125700000.0 -288685000000.0 -315625000000.0 -99486700000.0 -294044000000.0 -95486400000.0 -227822000000.0 -411776000000.0 -486473000000.0 -1.34341e+12 -1.02002e+12 -1.09637e+12 -1.03044e+12 -1.47043e+12 -1.36367e+12 -1.29334e+12 -1.22583e+12 -840917000000.0 -836460000000.0 -831516000000.0 -826062000000.0 -823319000000.0 -823505000000.0 -811039000000.0 -820230000000.0 -820117000000.0 -813466000000.0 -737085000000.0 -918639000000.0 -906470000000.0 -888833000000.0 -577459000000.0 -1.4578e+12 -827302000000.0 -1.1834e+12 -747558000000.0 -790756000000.0 -786942000000.0 -501469000000.0 -655895000000.0 -784181000000.0 -854330000000.0 -703744000000.0 -783789000000.0 -748467000000.0 -787664000000.0 -810472000000.0 -826346000000.0 -834516000000.0 -1.23241e+12 -1.29432e+12 -1.35054e+12 -1.44838e+12 -1.0598e+12 -1.12834e+12 -1.10798e+12 -1.30468e+12 -503240000000.0 -432012000000.0 -224959000000.0 -93986600000.0 -223500000000.0 -95386100000.0 -37929600000.0 -145883000000.0 -308176000000.0 -1.00602e+12 -1.25125e+12 -932193000000.0 -937908000000.0 -974523000000.0 -867127000000.0 -922223000000.0 -1.02052e+12 -1.00334e+12 -975871000000.0 -947095000000.0 -932638000000.0 -887793000000.0 -890094000000.0 -857128000000.0 -696931000000.0 -703119000000.0 -715837000000.0 -682839000000.0 -721277000000.0 -725006000000.0 -638732000000.0 -857453000000.0 -809798000000.0 -783672000000.0 -841413000000.0 -1.22486e+12 -665163000000.0 -152213000000.0 -482690000000.0 -500590000000.0 -692981000000.0 -459530000000.0 -715786000000.0 -897476000000.0 -595932000000.0 -732296000000.0 -633278000000.0 -658859000000.0 -828357000000.0 -789266000000.0 -881476000000.0 -915281000000.0 -957402000000.0 -988895000000.0 -1.02332e+12 -1.01275e+12 -893727000000.0 -846232000000.0 -987683000000.0 -906726000000.0 -990308000000.0 -1.21269e+12 -1.05319e+12 -271251000000.0 -143678000000.0 -35777500000.0 -115382000000.0 -114399000000.0 -512182000000.0 -596497000000.0 -804939000000.0 -1.04011e+12 -1.22916e+12 -976236000000.0 -592605000000.0 -552008000000.0 -762182000000.0 -867449000000.0 -861792000000.0 -825393000000.0 -819098000000.0 -825666000000.0 -804073000000.0 -803770000000.0 -711733000000.0 -676018000000.0 -689991000000.0 -693601000000.0 -694979000000.0 -494070000000.0 -711796000000.0 -566743000000.0 -857652000000.0 -670425000000.0 -605979000000.0 -664537000000.0 -1.00783e+12 -565239000000.0 -680539000000.0 -693004000000.0 -705694000000.0 -707643000000.0 -685403000000.0 -690830000000.0 -804461000000.0 -830915000000.0 -848790000000.0 -839769000000.0 -849568000000.0 -842880000000.0 -737105000000.0 -559542000000.0 -685406000000.0 -1.02445e+12 -1.19052e+12 -1.05246e+12 -854620000000.0 -580514000000.0 -551110000000.0 -111959000000.0 -97981000000.0 -230022000000.0 -302170000000.0 -475121000000.0 -735569000000.0 -73018300000.0 -700890000000.0 -937085000000.0 -1.19533e+12 -235294000000.0 -500354000000.0 -534105000000.0 -691683000000.0 -738546000000.0 -726976000000.0 -721521000000.0 -720230000000.0 -723641000000.0 -737592000000.0 -646021000000.0 -552387000000.0 -546819000000.0 -554615000000.0 -554149000000.0 -567390000000.0 -575434000000.0 -587981000000.0 -636160000000.0 -845964000000.0 -682437000000.0 -616707000000.0 -597167000000.0 -776639000000.0 -742213000000.0 -365963000000.0 -536348000000.0 -554241000000.0 -634638000000.0 -701618000000.0 -707178000000.0 -606592000000.0 -592955000000.0 -571863000000.0 -566929000000.0 -578998000000.0 -596174000000.0 -603524000000.0 -606755000000.0 -642133000000.0 -725670000000.0 -733666000000.0 -742547000000.0 -714786000000.0 -714185000000.0 -668703000000.0 -548903000000.0 -527560000000.0 -270368000000.0 -1.16582e+12 -948157000000.0 -726602000000.0 -115990000000.0 -706361000000.0 -467756000000.0 -284782000000.0 -228448000000.0 -24641700000.0 -55502600000.0 -93097600000.0 -214157000000.0 -593491000000.0 -41812600000.0 -70483800000.0 -143196000000.0 -520725000000.0 -494796000000.0 -470802000000.0 -430496000000.0 -396679000000.0 -406717000000.0 -449047000000.0 -437806000000.0 -500378000000.0 -706044000000.0 -317739000000.0 -467815000000.0 -802997000000.0 -597622000000.0 -351390000000.0 -395579000000.0 -153071000000.0 -595463000000.0 -825563000000.0 -394661000000.0 -622467000000.0 -545659000000.0 -807073000000.0 -562842000000.0 -816040000000.0 -508628000000.0 -798835000000.0 -645604000000.0 -550688000000.0 -491989000000.0 -427452000000.0 -435165000000.0 -449040000000.0 -499817000000.0 -517126000000.0 -551523000000.0 -153016000000.0 -58381000000.0 -71824000000.0 -576416000000.0 -218899000000.0 -85766000000.0 -60503500000.0 -23019900000.0 -22843400000.0 -36527700000.0 -580627000000.0 -848082000000.0 -1.11804e+12 -456398000000.0 -575453000000.0 -616103000000.0 -637538000000.0 -611528000000.0 -628104000000.0 -648901000000.0 -595582000000.0 -465755000000.0 -514974000000.0 -618703000000.0 -528931000000.0 -127682000000.0 -317135000000.0 -220771000000.0 -315009000000.0 -488043000000.0 -643627000000.0 -725974000000.0 -468096000000.0 -414312000000.0 -528913000000.0 -461158000000.0 -531026000000.0 -582358000000.0 -628095000000.0 -618679000000.0 -623641000000.0 -593642000000.0 -551835000000.0 -457842000000.0 -1.10473e+12 -834298000000.0 -595286000000.0 -34869900000.0 -21450500000.0 -97794300000.0 -309000000000.0 -415707000000.0 -480588000000.0 -639168000000.0 -692813000000.0 -475024000000.0 -229940000000.0 -298401000000.0 -372589000000.0 -366838000000.0 -462856000000.0 -538051000000.0 -516723000000.0 -531734000000.0 -550329000000.0 -529641000000.0 -479166000000.0 -537487000000.0 -572540000000.0 -555876000000.0 -519520000000.0 -493814000000.0 -479573000000.0 -537662000000.0 -228839000000.0 -650552000000.0 -482147000000.0 -604732000000.0 -430728000000.0 -267738000000.0 -312891000000.0 -570245000000.0 -548963000000.0 -470076000000.0 -493423000000.0 -528112000000.0 -573932000000.0 -630729000000.0 -615493000000.0 -573701000000.0 -519800000000.0 -516068000000.0 -522874000000.0 -491867000000.0 -509249000000.0 -442913000000.0 -358361000000.0 -393184000000.0 -295049000000.0 -222615000000.0 -472961000000.0 -687716000000.0 -634587000000.0 -478244000000.0 -426246000000.0 -281959000000.0 -97766400000.0 -37721500000.0 -95057300000.0 -170199000000.0 -289357000000.0 -183161000000.0 -450428000000.0 -592160000000.0 -509317000000.0 -16952000000.0 -332598000000.0 -165624000000.0 -218955000000.0 -246032000000.0 -273103000000.0 -388850000000.0 -400877000000.0 -431196000000.0 -440164000000.0 -433116000000.0 -421220000000.0 -416968000000.0 -412241000000.0 -383676000000.0 -361081000000.0 -329968000000.0 -324156000000.0 -418160000000.0 -132490000000.0 -371558000000.0 -108126000000.0 -447909000000.0 -102758000000.0 -187804000000.0 -36430600000.0 -113416000000.0 -96424800000.0 -135814000000.0 -521069000000.0 -513698000000.0 -564335000000.0 -330124000000.0 -312664000000.0 -486140000000.0 -391760000000.0 -496017000000.0 -248281000000.0 -380434000000.0 -182509000000.0 -375897000000.0 -291290000000.0 -372209000000.0 -409474000000.0 -427491000000.0 -443445000000.0 -444729000000.0 -437650000000.0 -415004000000.0 -398936000000.0 -398387000000.0 -365986000000.0 -358571000000.0 -269149000000.0 -253247000000.0 -218388000000.0 -174938000000.0 -336893000000.0 -17042900000.0 -504998000000.0 -595576000000.0 -453624000000.0 -175019000000.0 -290369000000.0 -171405000000.0 -96041400000.0 -38119700000.0 -44148600000.0 -108332000000.0 -246531000000.0 -368598000000.0 -411695000000.0 -111942000000.0 -172623000000.0 -132285000000.0 -115382000000.0 -407723000000.0 -381776000000.0 -386923000000.0 -495605000000.0 -386840000000.0 -455989000000.0 -418177000000.0 -564348000000.0 -393134000000.0 -426150000000.0 -312760000000.0 -293726000000.0 -206208000000.0 -313251000000.0 -173463000000.0 -228292000000.0 -313287000000.0 -282353000000.0 -279936000000.0 -349304000000.0 -331804000000.0 -399955000000.0 -355892000000.0 -392705000000.0 -413663000000.0 -120547000000.0 -127067000000.0 -172081000000.0 -115311000000.0 -411927000000.0 -371129000000.0 -246881000000.0 -110429000000.0 -45063100000.0 -505417000000.0 -544345000000.0 -77141100000.0 -135062000000.0 -198014000000.0 -263913000000.0 -362164000000.0 -428599000000.0 -464906000000.0 -465262000000.0 -440357000000.0 -434766000000.0 -442263000000.0 -433046000000.0 -262632000000.0 -416781000000.0 -197151000000.0 -137778000000.0 -439354000000.0 -440850000000.0 -415891000000.0 -387192000000.0 -373968000000.0 -374388000000.0 -362173000000.0 -305304000000.0 -227192000000.0 -191380000000.0 -135594000000.0 -76002200000.0 -543062000000.0 -505474000000.0 -31959400000.0 -72809400000.0 -159621000000.0 -221204000000.0 -233825000000.0 -339181000000.0 -371607000000.0 -21514100000.0 -42734800000.0 -57059700000.0 -33751000000.0 -35293900000.0 -50771400000.0 -25216600000.0 -134353000000.0 -218187000000.0 -278769000000.0 -291782000000.0 -325331000000.0 -341418000000.0 -361318000000.0 -326251000000.0 -326327000000.0 -227373000000.0 -229625000000.0 -65797900000.0 -108214000000.0 -58639900000.0 -25013900000.0 -109557000000.0 -108275000000.0 -68320900000.0 -110140000000.0 -88160800000.0 -85785200000.0 -172129000000.0 -142683000000.0 -208463000000.0 -165894000000.0 -171791000000.0 -278280000000.0 -216055000000.0 -225986000000.0 -157985000000.0 -159526000000.0 -110484000000.0 -120202000000.0 -76426700000.0 -129307000000.0 -92355700000.0 -289820000000.0 -270155000000.0 -314037000000.0 -288368000000.0 -314775000000.0 -290702000000.0 -278408000000.0 -255684000000.0 -253363000000.0 -191391000000.0 -117020000000.0 -30949300000.0 -57691700000.0 -37257900000.0 -35003800000.0 -56757600000.0 -51640700000.0 -22371100000.0 -371079000000.0 -340525000000.0 -235663000000.0 -223472000000.0 -157872000000.0 -72714200000.0 -31859200000.0 -9035750000.0 -9035750000.0 -45490900000.0 -82526800000.0 -82188200000.0 -151424000000.0 -148512000000.0 -101884000000.0 -73113800000.0 -56673300000.0 -23790200000.0 -100269000000.0 -334394000000.0 -361197000000.0 -396387000000.0 -396012000000.0 -436822000000.0 -376383000000.0 -391005000000.0 -298291000000.0 -293741000000.0 -281163000000.0 -219887000000.0 -211517000000.0 -195257000000.0 -139785000000.0 -101762000000.0 -64248000000.0 -65737400000.0 -27076900000.0 -13036000000.0 -46299300000.0 -20770400000.0 -57180500000.0 -64094400000.0 -91803200000.0 -120258000000.0 -154378000000.0 -284245000000.0 -275718000000.0 -320203000000.0 -291712000000.0 -301744000000.0 -269505000000.0 -255533000000.0 -89201400000.0 -25600500000.0 -63545200000.0 -71898300000.0 -101654000000.0 -151110000000.0 -156852000000.0 -79701400000.0 -84036800000.0 -44154200000.0 -9035750000.0 -9035750000.0 -220171000000.0 -413904000000.0 -185650000000.0 -172783000000.0 -246580000000.0 -286076000000.0 -302352000000.0 -215327000000.0 -155073000000.0 -65477500000.0 -217137000000.0 -36084800000.0 -230743000000.0 -212898000000.0 -146642000000.0 -185530000000.0 -414410000000.0 -217925000000.0 -18445100000.0 -36698600000.0 -83445000000.0 -134346000000.0 -138733000000.0 -212364000000.0 -283606000000.0 -17179200000.0 -21279700000.0 -49429200000.0 -34418500000.0 -45047900000.0 -58294600000.0 -72333200000.0 -156620000000.0 -206270000000.0 -232463000000.0 -217442000000.0 -209496000000.0 -186786000000.0 -180603000000.0 -153762000000.0 -170190000000.0 -104658000000.0 -103761000000.0 -57585600000.0 -43131400000.0 -88700400000.0 -11528900000.0 -146661000000.0 -15586300000.0 -82419600000.0 -71598900000.0 -56224000000.0 -14878000000.0 -94736600000.0 -18102600000.0 -36652200000.0 -196630000000.0 -92985800000.0 -105583000000.0 -83085600000.0 -59631800000.0 -85360000000.0 -46686000000.0 -61249900000.0 -33672000000.0 -31498000000.0 -19228300000.0 -15526300000.0 -85412400000.0 -87586900000.0 -138481000000.0 -129208000000.0 -161666000000.0 -161743000000.0 -181855000000.0 -195836000000.0 -220107000000.0 -193268000000.0 -150972000000.0 -77023200000.0 -69797200000.0 -48415300000.0 -36797500000.0 -52762600000.0 -22354000000.0 -17689600000.0 -284747000000.0 -214234000000.0 -141126000000.0 -136649000000.0 -83375500000.0 -37251200000.0 -18627300000.0 -9755100000.0 -9278810000.0 -33433600000.0 -74629500000.0 -79741300000.0 -178338000000.0 -120964000000.0 -112620000000.0 -84377600000.0 -65175900000.0 -44826900000.0 -38255900000.0 -79068000000.0 -38797700000.0 -35360400000.0 -28759500000.0 -26529200000.0 -10481600000.0 -10083200000.0 -11166300000.0 -22004300000.0 -18227000000.0 -26620300000.0 -77730700000.0 -86903300000.0 -136283000000.0 -124554000000.0 -148197000000.0 -80794800000.0 -75396500000.0 -32600000000.0 -9278750000.0 -9755010000.0 -150813000000.0 -259067000000.0 -41856200000.0 -28759700000.0 -46012200000.0 -19689500000.0 -17439000000.0 -15442300000.0 -15307200000.0 -79626800000.0 -126161000000.0 -162041000000.0 -166634000000.0 -177371000000.0 -172726000000.0 -181424000000.0 -163023000000.0 -117169000000.0 -163244000000.0 -104614000000.0 -67778500000.0 -107504000000.0 -67318000000.0 -148424000000.0 -26233500000.0 -45291900000.0 -36198700000.0 -137282000000.0 -143074000000.0 -140334000000.0 -145263000000.0 -110590000000.0 -70335400000.0 -17589400000.0 -20631500000.0 -17471700000.0 -19972400000.0 -48123100000.0 -29006400000.0 -42629300000.0 -260509000000.0 -151564000000.0 -11103800000.0 -11718800000.0 -32065800000.0 -73840300000.0 -87093700000.0 -144470000000.0 -232247000000.0 -28087600000.0 -13906300000.0 -32974800000.0 -10569900000.0 -12900200000.0 -15714000000.0 -21250500000.0 -77526200000.0 -116772000000.0 -143435000000.0 -141496000000.0 -144442000000.0 -133526000000.0 -136340000000.0 -113854000000.0 -123644000000.0 -72587400000.0 -60073900000.0 -46296500000.0 -21512000000.0 -80174900000.0 -9291260000.0 -126969000000.0 -10473600000.0 -76432100000.0 -49864300000.0 -44715600000.0 -10555200000.0 -82560500000.0 -11650200000.0 -43767000000.0 -126943000000.0 -51494600000.0 -43599100000.0 -47276800000.0 -27980400000.0 -61841800000.0 -25206000000.0 -52387400000.0 -21931500000.0 -29423200000.0 -18016600000.0 -21706400000.0 -48974300000.0 -58913100000.0 -106385000000.0 -98556200000.0 -124023000000.0 -117620000000.0 -126565000000.0 -126990000000.0 -134450000000.0 -106760000000.0 -70358200000.0 -23572300000.0 -18084500000.0 -13324300000.0 -10849400000.0 -34882600000.0 -13915600000.0 -28708500000.0 -233757000000.0 -145348000000.0 -88213300000.0 -74484200000.0 -31509400000.0 -11771800000.0 -11125100000.0 -50202700000.0 -15913600000.0 -9035750000.0 -9963450000.0 -44904300000.0 -10995600000.0 -15396600000.0 -9414050000.0 -9225130000.0 -9035750000.0 -9035750000.0 -31298500000.0 -11048400000.0 -10114300000.0 -24410700000.0 -62106300000.0 -80776600000.0 -131152000000.0 -214808000000.0 -36170300000.0 -16731600000.0 -32122600000.0 -10179900000.0 -12254300000.0 -15105800000.0 -21309700000.0 -67848300000.0 -101681000000.0 -125028000000.0 -123941000000.0 -126953000000.0 -117076000000.0 -120293000000.0 -98182500000.0 -105978000000.0 -61272300000.0 -42039300000.0 -73898700000.0 -115935000000.0 -75530100000.0 -43789300000.0 -14331800000.0 -80589900000.0 -45683200000.0 -99345800000.0 -29321200000.0 -27621500000.0 -45978500000.0 -39864400000.0 -20295000000.0 -15627300000.0 -43723400000.0 -88892000000.0 -83152000000.0 -107657000000.0 -102130000000.0 -110645000000.0 -110333000000.0 -116299000000.0 -92394600000.0 -60356200000.0 -22014300000.0 -15599900000.0 -12253200000.0 -10184100000.0 -33853700000.0 -16745800000.0 -37019700000.0 -216397000000.0 -131947000000.0 -81679500000.0 -62464200000.0 -23939200000.0 -10114500000.0 -11054300000.0 -11576800000.0 -10480000000.0 -20931600000.0 -54142900000.0 -77300300000.0 -121667000000.0 -197035000000.0 -40670800000.0 -17698000000.0 -30071800000.0 -10129100000.0 -12756000000.0 -16650300000.0 -24315200000.0 -62680100000.0 -91228200000.0 -110958000000.0 -109490000000.0 -111601000000.0 -101867000000.0 -104663000000.0 -83455700000.0 -89377800000.0 -53016400000.0 -44932800000.0 -38902600000.0 -11831700000.0 -68206200000.0 -9035750000.0 -106707000000.0 -9035750000.0 -71663400000.0 -38767500000.0 -40702600000.0 -11810400000.0 -76445900000.0 -9651570000.0 -48195700000.0 -94986900000.0 -37946300000.0 -17659300000.0 -32594300000.0 -12876600000.0 -48098200000.0 -10749300000.0 -40090800000.0 -9035750000.0 -21008300000.0 -9035750000.0 -16225700000.0 -22741700000.0 -34849900000.0 -75446200000.0 -71383200000.0 -94615000000.0 -90324800000.0 -98833300000.0 -98538600000.0 -103979000000.0 -83919300000.0 -56014100000.0 -24762500000.0 -16917100000.0 -12697900000.0 -10083600000.0 -31711000000.0 -17693100000.0 -41600800000.0 -198566000000.0 -122438000000.0 -78100800000.0 -54405300000.0 -20596000000.0 -10480500000.0 -11584400000.0 -12022000000.0 -10786300000.0 -18348100000.0 -46212700000.0 -72040400000.0 -111419000000.0 -179395000000.0 -45208400000.0 -19341900000.0 -28201500000.0 -10349700000.0 -13304500000.0 -17841500000.0 -26329200000.0 -57618000000.0 -81518000000.0 -98330200000.0 -96874900000.0 -98655900000.0 -89394300000.0 -91667200000.0 -71793200000.0 -75653600000.0 -47761400000.0 -41062800000.0 -36564600000.0 -9735170000.0 -62881800000.0 -9035750000.0 -97929100000.0 -9035750000.0 -69022200000.0 -34779000000.0 -40048400000.0 -12992400000.0 -73376700000.0 -9744670000.0 -49720800000.0 -82064800000.0 -31678600000.0 -9046890000.0 -27814000000.0 -9035750000.0 -44667100000.0 -9035750000.0 -39043400000.0 -9035750000.0 -21212900000.0 -9035750000.0 -16702000000.0 -16947600000.0 -28348100000.0 -64098300000.0 -61595100000.0 -83258900000.0 -80120600000.0 -88480200000.0 -88050700000.0 -92748900000.0 -75766300000.0 -51738800000.0 -26844400000.0 -18193900000.0 -13302400000.0 -10340200000.0 -29754000000.0 -19368500000.0 -46204300000.0 -180815000000.0 -112139000000.0 -72726400000.0 -46415200000.0 -18106900000.0 -10787000000.0 -12030800000.0 -12380800000.0 -11031300000.0 -16558800000.0 -38830600000.0 -65704300000.0 -100797000000.0 -161727000000.0 -48479100000.0 -20706300000.0 -26244700000.0 -10587500000.0 -13842900000.0 -18911100000.0 -27867800000.0 -53205300000.0 -73201700000.0 -87490800000.0 -86097300000.0 -87618400000.0 -78839700000.0 -80485500000.0 -62252400000.0 -64436900000.0 -43780400000.0 -37287400000.0 -34760000000.0 -9144580000.0 -57913300000.0 -9035750000.0 -89592700000.0 -9035750000.0 -66006200000.0 -30888600000.0 -39345000000.0 -13859000000.0 -70612700000.0 -9035750000.0 -51229100000.0 -76516600000.0 -32806600000.0 -9066780000.0 -27697300000.0 -9035750000.0 -43338200000.0 -9035750000.0 -38245500000.0 -9035750000.0 -21095900000.0 -9035750000.0 -17050200000.0 -13413400000.0 -23564100000.0 -54620300000.0 -53380000000.0 -73289600000.0 -71226600000.0 -79434300000.0 -78952600000.0 -82931200000.0 -68539100000.0 -48040000000.0 -28448500000.0 -19304200000.0 -13845300000.0 -10579400000.0 -27632000000.0 -20748100000.0 -49477900000.0 -163008000000.0 -101454000000.0 -66281800000.0 -38990500000.0 -16394900000.0 -11032100000.0 -12390400000.0 -12650700000.0 -11215900000.0 -15382300000.0 -32294400000.0 -58904000000.0 -90200400000.0 -144449000000.0 -50472400000.0 -21761400000.0 -24316100000.0 -10776900000.0 -14262100000.0 -19710000000.0 -28805600000.0 -49208600000.0 -65984400000.0 -78139100000.0 -76898700000.0 -78242300000.0 -69960700000.0 -70953600000.0 -54520300000.0 -55505600000.0 -40148800000.0 -33471900000.0 -33251900000.0 -9046980000.0 -53271900000.0 -9035750000.0 -81688700000.0 -9035750000.0 -62689100000.0 -27173100000.0 -38458900000.0 -14484900000.0 -67610400000.0 -9035750000.0 -51673400000.0 -69513300000.0 -32706500000.0 -9085460000.0 -27478100000.0 -9035750000.0 -41652900000.0 -9035750000.0 -37192800000.0 -9035750000.0 -20824700000.0 -9035750000.0 -17265600000.0 -11517200000.0 -20155500000.0 -46820800000.0 -46615500000.0 -64674200000.0 -63588700000.0 -71603600000.0 -71085100000.0 -74347500000.0 -62114400000.0 -44736800000.0 -29437100000.0 -20132000000.0 -14268100000.0 -10770200000.0 -25515700000.0 -21814300000.0 -51417700000.0 -145582000000.0 -90787600000.0 -59384900000.0 -32421000000.0 -15286100000.0 -11216700000.0 -12661000000.0 -12830400000.0 -11341500000.0 -14633500000.0 -26739000000.0 -52106100000.0 -79954900000.0 -127901000000.0 -51248800000.0 -22495300000.0 -22478800000.0 -10915200000.0 -14555600000.0 -20232200000.0 -29194900000.0 -45577000000.0 -59713700000.0 -70086900000.0 -69058900000.0 -70265100000.0 -62479500000.0 -62853800000.0 -48254100000.0 -48445200000.0 -36621800000.0 -29771800000.0 -31832500000.0 -9036570000.0 -48930700000.0 -9035750000.0 -74205600000.0 -9035750000.0 -59144300000.0 -23740500000.0 -37317400000.0 -14948500000.0 -64386800000.0 -9035750000.0 -51986400000.0 -64040100000.0 -32780600000.0 -9102210000.0 -27127800000.0 -9035750000.0 -39727800000.0 -9035750000.0 -35886900000.0 -9035750000.0 -20467100000.0 -9035750000.0 -17345800000.0 -10566500000.0 -17824600000.0 -40455800000.0 -41114700000.0 -57292500000.0 -57050000000.0 -64820700000.0 -64288300000.0 -66871900000.0 -56433100000.0 -41757500000.0 -29855900000.0 -20670200000.0 -14564400000.0 -10910200000.0 -23489000000.0 -22555600000.0 -52105500000.0 -128881000000.0 -80466900000.0 -52502400000.0 -26838400000.0 -14592200000.0 -11342300000.0 -12841000000.0 -12919700000.0 -11409200000.0 -14163400000.0 -22184700000.0 -45633300000.0 -70295900000.0 -112331000000.0 -50939800000.0 -22901900000.0 -20760300000.0 -11001300000.0 -14719800000.0 -20478600000.0 -29091000000.0 -42235600000.0 -54211400000.0 -63109300000.0 -62328400000.0 -63419100000.0 -56125800000.0 -55950900000.0 -43125100000.0 -42819600000.0 -33226800000.0 -26330500000.0 -30362300000.0 -9035800000.0 -44863100000.0 -9035750000.0 -67132900000.0 -9035750000.0 -55431100000.0 -20682600000.0 -35914400000.0 -15262900000.0 -60948000000.0 -9035750000.0 -51625000000.0 -58871200000.0 -32521600000.0 -9116370000.0 -26606900000.0 -9035750000.0 -37659700000.0 -9035750000.0 -34351200000.0 -9035750000.0 -20035400000.0 -9035750000.0 -17289000000.0 -10055900000.0 -16240600000.0 -35314300000.0 -36646900000.0 -50976900000.0 -51427000000.0 -58895600000.0 -58374100000.0 -60338700000.0 -51385500000.0 -39008400000.0 -29758700000.0 -20920800000.0 -14730700000.0 -10998400000.0 -21588100000.0 -22966200000.0 -51692100000.0 -113162000000.0 -70732800000.0 -45955700000.0 -22261900000.0 -14163100000.0 -11409900000.0 -12930400000.0 -12920500000.0 -11420600000.0 -13853100000.0 -18574400000.0 -39686700000.0 -61377300000.0 -97905200000.0 -49700600000.0 -22981900000.0 -19172800000.0 -11035900000.0 -14753700000.0 -20456900000.0 -28552900000.0 -39106000000.0 -49307300000.0 -56985100000.0 -56457900000.0 -57441700000.0 -50644400000.0 -50014200000.0 -38843800000.0 -38242800000.0 -30030200000.0 -23234100000.0 -28784100000.0 -9035750000.0 -41038400000.0 -9035750000.0 -60461000000.0 -9035750000.0 -51593700000.0 -18052400000.0 -34273400000.0 -15409200000.0 -57293700000.0 -9035750000.0 -50575700000.0 -53939600000.0 -31921200000.0 -9127400000.0 -25886100000.0 -9035750000.0 -35503200000.0 -9035750000.0 -32619600000.0 -9035750000.0 -19522300000.0 -9035750000.0 -17095000000.0 -9733140000.0 -15096000000.0 -31183900000.0 -32974600000.0 -45544900000.0 -46532100000.0 -53635200000.0 -53146900000.0 -54569400000.0 -46847000000.0 -36406100000.0 -29204000000.0 -20891900000.0 -14766100000.0 -11034700000.0 -19831100000.0 -23047500000.0 -50344500000.0 -98597700000.0 -61743500000.0 -39945800000.0 -18633400000.0 -13879800000.0 -11421300000.0 -12931100000.0 -12836200000.0 -11377600000.0 -13601800000.0 -15801900000.0 -34372200000.0 -53280300000.0 -84715100000.0 -47677400000.0 -22742600000.0 -17718500000.0 -11020300000.0 -14659000000.0 -20179900000.0 -27640600000.0 -36121100000.0 -44849500000.0 -51509100000.0 -51217700000.0 -52095900000.0 -45808400000.0 -44831100000.0 -35170300000.0 -34401600000.0 -27075800000.0 -20520200000.0 -27095800000.0 -9035750000.0 -37424800000.0 -9035750000.0 -54179200000.0 -9035750000.0 -47664700000.0 -15860100000.0 -32425700000.0 -15374200000.0 -53427700000.0 -9035750000.0 -48857200000.0 -49172300000.0 -30981600000.0 -9134890000.0 -24957800000.0 -9035750000.0 -33275700000.0 -9035750000.0 -30724800000.0 -9035750000.0 -18915700000.0 -9035750000.0 -16767000000.0 -9504510000.0 -14182100000.0 -27840700000.0 -29884000000.0 -40817700000.0 -42189400000.0 -48861100000.0 -48422300000.0 -49388400000.0 -42695800000.0 -33883400000.0 -28251900000.0 -20597400000.0 -14672400000.0 -11020300000.0 -18226900000.0 -22807300000.0 -48216900000.0 -85284500000.0 -53582100000.0 -34577900000.0 -15846000000.0 -13642300000.0 -11378300000.0 -12846500000.0 -12671500000.0 -11283000000.0 -13336000000.0 -13736900000.0 -29722200000.0 -46024900000.0 -72783600000.0 -44999300000.0 -22197800000.0 -16394600000.0 -10956600000.0 -14440200000.0 -19664800000.0 -26410600000.0 -33227700000.0 -40707300000.0 -46499400000.0 -46410400000.0 -47182800000.0 -41426500000.0 -40214900000.0 -31912600000.0 -31058700000.0 -24378800000.0 -18191100000.0 -25317900000.0 -9035750000.0 -33992000000.0 -9035750000.0 -48272700000.0 -9035750000.0 -43668500000.0 -14083600000.0 -30400600000.0 -15161800000.0 -49358500000.0 -9035750000.0 -44511500000.0 -29709100000.0 -9138550000.0 -23830900000.0 -9035750000.0 -30977500000.0 -9035750000.0 -28694700000.0 -9035750000.0 -18207300000.0 -9035750000.0 -16311900000.0 -9339130000.0 -13394800000.0 -25073300000.0 -27199400000.0 -36631500000.0 -38243800000.0 -44418300000.0 -44038900000.0 -44636300000.0 -38823000000.0 -31390400000.0 -26961800000.0 -20055900000.0 -14454000000.0 -10957400000.0 -16777200000.0 -22259800000.0 -45443400000.0 -73246900000.0 -46269800000.0 -29883800000.0 -13769200000.0 -13380600000.0 -11283600000.0 -12681200000.0 -46506800000.0 -12431700000.0 -11140000000.0 -13016800000.0 -12243300000.0 -25716700000.0 -39585300000.0 -62076600000.0 -41780500000.0 -21366400000.0 -15195800000.0 -10847500000.0 -14104000000.0 -18932000000.0 -24913200000.0 -30384100000.0 -36774700000.0 -41804000000.0 -41875200000.0 -42541800000.0 -37345200000.0 -36008400000.0 -28924200000.0 -28043800000.0 -21933600000.0 -16226700000.0 -23474400000.0 -9035750000.0 -30712800000.0 -9035750000.0 -42721500000.0 -9035750000.0 -39623700000.0 -12682200000.0 -28222900000.0 -14788200000.0 -45097400000.0 -9035750000.0 -43568400000.0 -39938500000.0 -28116200000.0 -9138250000.0 -22521700000.0 -9035750000.0 -28605500000.0 -9035750000.0 -26554100000.0 -9035750000.0 -17395500000.0 -9035750000.0 -15738900000.0 -9223020000.0 -12694200000.0 -22704100000.0 -24783800000.0 -32844200000.0 -34565800000.0 -40179900000.0 -39863700000.0 -40177000000.0 -35137300000.0 -28892300000.0 -25390700000.0 -19289800000.0 -14117500000.0 -10848700000.0 -15477500000.0 -21424000000.0 -42141000000.0 -62449700000.0 -39781200000.0 -25842600000.0 -12266400000.0 -13060000000.0 -11140600000.0 -12440600000.0 -12123200000.0 -10952800000.0 -12632100000.0 -11191400000.0 -22301700000.0 -33903100000.0 -52514400000.0 -38122500000.0 -20272100000.0 -14114200000.0 -10696400000.0 -13659100000.0 -18004300000.0 -23192400000.0 -27559900000.0 -32970600000.0 -37302700000.0 -37487300000.0 -38049400000.0 -33446100000.0 -32085100000.0 -26102000000.0 -25240200000.0 -19721500000.0 -14593500000.0 -21585900000.0 -9035750000.0 -27562900000.0 -9035750000.0 -37499200000.0 -9035750000.0 -35545500000.0 -11605400000.0 -25912900000.0 -14275200000.0 -40657800000.0 -9035750000.0 -35461800000.0 -26223000000.0 -9134030000.0 -21049200000.0 -9035750000.0 -26159200000.0 -9035750000.0 -24326400000.0 -9035750000.0 -16485300000.0 -9035750000.0 -15059500000.0 -9145360000.0 -12064800000.0 -20597400000.0 -22534900000.0 -29338200000.0 -31053000000.0 -36047300000.0 -35793300000.0 -35900700000.0 -31566800000.0 -26365200000.0 -23590400000.0 -18323000000.0 -13671900000.0 -10697700000.0 -14317700000.0 -20324200000.0 -38410900000.0 -52811100000.0 -34057600000.0 -22398700000.0 -11207800000.0 -12671300000.0 -10953400000.0 -12131200000.0 -40091400000.0 -11753200000.0 -10725900000.0 -12184300000.0 -10466700000.0 -19403100000.0 -28896900000.0 -43983200000.0 -34114800000.0 -18942800000.0 -13139000000.0 -10507100000.0 -13116400000.0 -16905700000.0 -21286700000.0 -24734300000.0 -29237100000.0 -32905800000.0 -33156100000.0 -33616900000.0 -29643800000.0 -28347500000.0 -23378400000.0 -22571000000.0 -17716000000.0 -13250200000.0 -19668000000.0 -9035750000.0 -24521000000.0 -9035750000.0 -32573200000.0 -9035750000.0 -31446700000.0 -10799300000.0 -23489300000.0 -13645400000.0 -36055400000.0 -9035750000.0 -36132000000.0 -31095900000.0 -24055800000.0 -9126040000.0 -19433700000.0 -9035750000.0 -23641700000.0 -9035750000.0 -22033200000.0 -9035750000.0 -15485700000.0 -9035750000.0 -14286400000.0 -9096180000.0 -11496800000.0 -18656600000.0 -20381800000.0 -26020100000.0 -27628500000.0 -31948900000.0 -31752400000.0 -31723500000.0 -28058800000.0 -23794400000.0 -21606300000.0 -17181000000.0 -13128000000.0 -10508500000.0 -13283300000.0 -18988300000.0 -34341900000.0 -44215400000.0 -29016800000.0 -19477200000.0 -10478000000.0 -12218400000.0 -10726400000.0 -11760200000.0 -11681400000.0 -9973970000.0 -16938000000.0 -24724200000.0 -20710200000.0 -19989400000.0 -15887000000.0 -12152000000.0 -9035750000.0 -9035750000.0 -9035750000.0 -10210300000.0 -12920600000.0 -9035750000.0 -26848000000.0 -9114610000.0 -9035750000.0 -9035750000.0 -9035750000.0 -9035750000.0 -9066830000.0 -10980100000.0 -16815700000.0 -18278700000.0 -22819500000.0 -16993400000.0 -9981520000.0 -11709900000.0 -11329700000.0 -10464400000.0 -24471100000.0 -36346100000.0 -29836000000.0 -17409600000.0 -12256900000.0 -10284500000.0 -12488200000.0 -15661300000.0 -19231000000.0 -21894900000.0 -25535500000.0 -28551300000.0 -28822500000.0 -29186600000.0 -25880700000.0 -17732100000.0 -21567400000.0 -27904300000.0 -27337400000.0 -20969800000.0 -31308900000.0 -31752600000.0 -21647000000.0 -17695700000.0 -21059200000.0 -19693400000.0 -14408800000.0 -13433000000.0 -24239200000.0 -27837400000.0 -27691800000.0 -27586500000.0 -24577600000.0 -21173600000.0 -19477600000.0 -15889700000.0 -12498200000.0 -10285700000.0 -12356900000.0 -17447700000.0 -30010500000.0 -36523300000.0 -24561900000.0 -10464800000.0 -11335500000.0 -10861500000.0 -10174000000.0 -11133400000.0 -9638850000.0 -14820600000.0 -20521500000.0 -29450600000.0 -25353500000.0 -15706500000.0 -11452600000.0 -10033800000.0 -11788300000.0 -14296900000.0 -17057100000.0 -19036000000.0 -21842000000.0 -24200400000.0 -24453200000.0 -24726700000.0 -22122500000.0 -21165900000.0 -18071500000.0 -17469200000.0 -14202300000.0 -11252500000.0 -15785700000.0 -9035750000.0 -18684100000.0 -9035750000.0 -23449000000.0 -9035750000.0 -23225200000.0 -9788920000.0 -18371700000.0 -12121000000.0 -26439900000.0 -9035750000.0 -27021700000.0 -22714000000.0 -19033300000.0 -9100180000.0 -15856400000.0 -9035750000.0 -18420500000.0 -9035750000.0 -17322800000.0 -9035750000.0 -13268000000.0 -9035750000.0 -12513500000.0 -9050460000.0 -10504100000.0 -15032200000.0 -16198000000.0 -19686700000.0 -20852100000.0 -23687000000.0 -23584700000.0 -23452300000.0 -21101200000.0 -18504300000.0 -17238300000.0 -14476100000.0 -11796400000.0 -10034800000.0 -11519900000.0 -15736700000.0 -25482200000.0 -29580500000.0 -20587800000.0 -14860700000.0 -9643690000.0 -11155800000.0 -10174300000.0 -10866100000.0 -10357900000.0 -9860690000.0 -10550400000.0 -9405730000.0 -12966900000.0 -16941000000.0 -23135300000.0 -20724500000.0 -13869600000.0 -10709600000.0 -9760720000.0 -11031600000.0 -12839000000.0 -14794600000.0 -16157200000.0 -18144000000.0 -19833100000.0 -20035800000.0 -20224800000.0 -18351900000.0 -17641100000.0 -15448100000.0 -14994600000.0 -12629300000.0 -10505700000.0 -13833800000.0 -9035750000.0 -15854400000.0 -9035750000.0 -19160400000.0 -9035750000.0 -19114300000.0 -9490240000.0 -15712000000.0 -11265400000.0 -21472500000.0 -9035750000.0 -22012400000.0 -18679100000.0 -16256000000.0 -9083300000.0 -13937600000.0 -9035750000.0 -15736200000.0 -9035750000.0 -14933200000.0 -9035750000.0 -12077400000.0 -9035750000.0 -11542600000.0 -9042050000.0 -10058600000.0 -13280300000.0 -14124700000.0 -16589100000.0 -17450800000.0 -19489200000.0 -19422600000.0 -19301700000.0 -17618600000.0 -15793600000.0 -14917500000.0 -12967300000.0 -11037500000.0 -9761420000.0 -10752300000.0 -13891300000.0 -20812600000.0 -23223600000.0 -16985900000.0 -12994100000.0 -9408640000.0 -10566400000.0 -9860910000.0 -10361200000.0 -9828800000.0 -9530820000.0 -9942490000.0 -9234260000.0 -11296600000.0 -13621300000.0 -17233500000.0 -15997300000.0 -11936400000.0 -10010700000.0 -9471460000.0 -10233900000.0 -11314400000.0 -12470600000.0 -13261900000.0 -14437200000.0 -15444000000.0 -15573200000.0 -15683000000.0 -14564100000.0 -14131100000.0 -12832600000.0 -12553300000.0 -11135100000.0 -9866340000.0 -11879300000.0 -9035750000.0 -13061800000.0 -9035750000.0 -14990100000.0 -9035750000.0 -15006000000.0 -9274630000.0 -13008300000.0 -10371100000.0 -16432800000.0 -9035750000.0 -16801800000.0 -14719800000.0 -13359500000.0 -9064620000.0 -11961800000.0 -9035750000.0 -13018600000.0 -9035750000.0 -12533200000.0 -9035750000.0 -10851300000.0 -9035750000.0 -10534900000.0 -9038110000.0 -9634040000.0 -11545400000.0 -12051800000.0 -13507300000.0 -14030800000.0 -15248100000.0 -15211200000.0 -15129100000.0 -14126100000.0 -13051900000.0 -12541200000.0 -11390800000.0 -10237500000.0 -9471880000.0 -10034000000.0 -11949400000.0 -16048200000.0 -17284300000.0 -13647100000.0 -11312200000.0 -9235780000.0 -9952050000.0 -9530950000.0 -9830790000.0 -9284460000.0 -9191040000.0 -9319910000.0 -9095120000.0 -9733120000.0 -10455200000.0 -11576000000.0 -11213400000.0 -9945620000.0 -9338030000.0 -9172500000.0 -9411630000.0 -9750080000.0 -10110800000.0 -10355800000.0 -10722500000.0 -11037500000.0 -11078900000.0 -11112900000.0 -10762500000.0 -10625900000.0 -10220700000.0 -10132300000.0 -9687450000.0 -9290090000.0 -9923450000.0 -9035750000.0 -10290800000.0 -9035750000.0 -10889100000.0 -9035750000.0 -10899400000.0 -9106550000.0 -10277800000.0 -9454330000.0 -11348300000.0 -9035750000.0 -11469400000.0 -10806600000.0 -10390900000.0 -9044850000.0 -9951730000.0 -9035750000.0 -10280600000.0 -9035750000.0 -10127900000.0 -9035750000.0 -9604080000.0 -9035750000.0 -9505390000.0 -9036320000.0 -9221540000.0 -9818570000.0 -9977390000.0 -10431100000.0 -10596100000.0 -10977200000.0 -10966000000.0 -10939100000.0 -10625400000.0 -10290900000.0 -10132500000.0 -9773970000.0 -9412750000.0 -9172630000.0 -9345070000.0 -9949690000.0 -11229200000.0 -11591700000.0 -10463200000.0 -9737920000.0 -9095570000.0 -9322910000.0 -9191080000.0 -9285090000.0 
SCALARS Shear_Stress float 1
LOOKUP_TABLE default
2316940000.0 3029490000.0 50485400000.0 78373700000.0 1292730000.0 4415540000.0 101674000000.0 68470100000.0 75321100000.0 31804400000.0 43701700000.0 9732510000.0 30042600000.0 51907400000.0 10062200000.0 18975600000.0 39936400000.0 151472000000.0 54795900000.0 106679000000.0 28166900000.0 68888900000.0 118452000000.0 97107300000.0 97015100000.0 49816500000.0 89475900000.0 63389600000.0 28414400000.0 19078600000.0 4956620000.0 6637640000.0 107415000000.0 97594700000.0 24910100000.0 253546000000.0 91292100000.0 62239100000.0 15847300000.0 84705100000.0 31297500000.0 698162000.0 124759000000.0 216591000000.0 72240100000.0 107555000000.0 1195930000.0 35611800000.0 109687000000.0 335247000000.0 103731000000.0 35283600000.0 19547800000.0 158390000000.0 170111000000.0 142062000000.0 98616800000.0 124498000000.0 38059000000.0 30131400000.0 166593000000.0 12523200000.0 117886000000.0 55324700000.0 264426000000.0 61536800000.0 52038800000.0 33633200000.0 38095100000.0 47588000000.0 100932000000.0 178969000000.0 145178000000.0 295464000000.0 299854000000.0 213701000000.0 148702000000.0 130736000000.0 230002000000.0 375338000000.0 341308000000.0 8030680000.0 270798000000.0 75674900000.0 60455600000.0 179255000000.0 13753500000.0 1691380000.0 64382200000.0 173440000000.0 139432000000.0 76644600000.0 534569000000.0 32043100000.0 392689000000.0 266571000000.0 117600000000.0 268345000000.0 341027000000.0 50952900000.0 43100700000.0 89265700000.0 126178000000.0 45887200000.0 84848400000.0 8276550000.0 151704000000.0 397795000000.0 415013000000.0 466600000000.0 101803000000.0 367572000000.0 345959000000.0 252127000000.0 90833500000.0 205345000000.0 271112000000.0 315449000000.0 10921300000.0 117751000000.0 204346000000.0 28139600000.0 61595300000.0 163594000000.0 215925000000.0 267460000000.0 206224000000.0 32432000000.0 463223000000.0 500110000000.0 167053000000.0 2458470000.0 23673000000.0 283542000000.0 185452000000.0 124885000000.0 47982200000.0 131852000000.0 143907000000.0 161557000000.0 115476000000.0 66472600000.0 133854000000.0 255102000000.0 333552000000.0 249303000000.0 606597000000.0 275206000000.0 286854000000.0 130513000000.0 286869000000.0 144242000000.0 107133000000.0 215011000000.0 221400000000.0 162398000000.0 372321000000.0 292826000000.0 373263000000.0 262613000000.0 73812700000.0 20482000000.0 398832000000.0 136416000000.0 735147000000.0 191185000000.0 11597300000.0 276074000000.0 82256200000.0 247644000000.0 187301000000.0 144485000000.0 468574000000.0 374111000000.0 364653000000.0 79153400000.0 111821000000.0 241752000000.0 29725600000.0 13383800000.0 320420000000.0 273611000000.0 42781800000.0 31772400000.0 84615500000.0 21213900000.0 200386000000.0 206364000000.0 148799000000.0 37687900000.0 109253000000.0 382828000000.0 129489000000.0 502965000000.0 532097000000.0 353346000000.0 237736000000.0 94572100000.0 15285100000.0 65596100000.0 350926000000.0 331695000000.0 451328000000.0 81036000000.0 13257700000.0 116904000000.0 146588000000.0 219968000000.0 249792000000.0 193671000000.0 100678000000.0 458570000000.0 322933000000.0 336051000000.0 309556000000.0 296163000000.0 135978000000.0 179113000000.0 105971000000.0 57947200000.0 702143000000.0 602660000000.0 179185000000.0 2532970000.0 187176000000.0 196353000000.0 132952000000.0 169236000000.0 730818000000.0 326887000000.0 353465000000.0 297488000000.0 217650000000.0 171996000000.0 184597000000.0 347914000000.0 234625000000.0 907163000000.0 887779000000.0 307516000000.0 557517000000.0 21617500000.0 118180000000.0 178892000000.0 102332000000.0 127630000000.0 70685600000.0 46731300000.0 44797000000.0 389665000000.0 424886000000.0 375104000000.0 218737000000.0 143464000000.0 223855000000.0 1237450000.0 150839000000.0 123277000000.0 133773000000.0 541652000000.0 1.34384e+12 118861000000.0 555590000000.0 285146000000.0 24079900000.0 20701700000.0 43822400000.0 152497000000.0 76437500000.0 51285500000.0 51073700000.0 574036000000.0 592961000000.0 505234000000.0 514932000000.0 455829000000.0 493283000000.0 380915000000.0 76154100000.0 33226900000.0 88112000000.0 266452000000.0 1.25845e+12 410267000000.0 190439000000.0 1.28403e+12 477270000000.0 336151000000.0 5052620000.0 601038000.0 91863900000.0 308664000000.0 375026000000.0 744279000000.0 647075000000.0 515083000000.0 517905000000.0 184924000000.0 152648000000.0 116654000000.0 206725000000.0 283584000000.0 332802000000.0 1.57854e+12 1.26624e+12 476722000000.0 254308000000.0 183208000000.0 216779000000.0 925880000000.0 731421000000.0 308537000000.0 231292000000.0 560816000000.0 39006700000.0 23319100000.0 66023900000.0 291746000000.0 610413000000.0 783572000000.0 705070000000.0 522761000000.0 40297900000.0 705705000000.0 448730000000.0 149619000000.0 905517000000.0 1.2508e+12 1.28324e+12 712012000000.0 462048000000.0 307342000000.0 263094000000.0 239550000000.0 168158000000.0 260363000000.0 1.83751e+12 826635000000.0 751540000000.0 518058000000.0 1.00752e+12 420635000000.0 49881900000.0 298027000000.0 547585000000.0 793083000000.0 784014000000.0 747808000000.0 532205000000.0 551171000000.0 79932700000.0 90276400000.0 721918000000.0 1.27033e+12 635968000000.0 618836000000.0 407145000000.0 275414000000.0 241860000000.0 161483000000.0 198122000000.0 266039000000.0 1.62071e+12 752795000000.0 926941000000.0 1.05359e+12 1.20877e+12 399034000000.0 559612000000.0 727309000000.0 767187000000.0 810524000000.0 772886000000.0 743527000000.0 739661000000.0 686226000000.0 666740000000.0 313510000000.0 224771000000.0 392154000000.0 145757000000.0 320341000000.0 588094000000.0 900022000000.0 1.08444e+12 834286000000.0 356526000000.0 347545000000.0 385390000000.0 288580000000.0 209139000000.0 279831000000.0 211333000000.0 238000000000.0 127929000000.0 216390000000.0 183575000000.0 1.00603e+12 731169000000.0 625875000000.0 740020000000.0 609881000000.0 1.32194e+12 1.29707e+12 1.06676e+12 663699000000.0 769758000000.0 828489000000.0 783626000000.0 784686000000.0 258447000000.0 473214000000.0 446682000000.0 256739000000.0 633840000000.0 280451000000.0 608281000000.0 678549000000.0 562392000000.0 275827000000.0 175520000000.0 265842000000.0 148007000000.0 283116000000.0 249215000000.0 170738000000.0 124186000000.0 135609000000.0 143720000000.0 230987000000.0 89133800000.0 578910000000.0 491271000000.0 323523000000.0 86545000000.0 1.16976e+12 913925000000.0 829719000000.0 794084000000.0 826846000000.0 796363000000.0 542558000000.0 676777000000.0 524246000000.0 97041500000.0 333011000000.0 58311700000.0 567167000000.0 405479000000.0 56769300000.0 241343000000.0 166641000000.0 172883000000.0 123711000000.0 196545000000.0 119661000000.0 138481000000.0 252042000000.0 178163000000.0 81826900000.0 80972500000.0 51981400000.0 34491900000.0 179075000000.0 546203000000.0 337036000000.0 413253000000.0 296361000000.0 176410000000.0 162279000000.0 518327000000.0 244070000000.0 724658000000.0 614636000000.0 801677000000.0 749336000000.0 809821000000.0 708182000000.0 686449000000.0 857848000000.0 819409000000.0 409258000000.0 410650000000.0 155772000000.0 39779700000.0 334691000000.0 303972000000.0 214002000000.0 369347000000.0 447733000000.0 259059000000.0 216240000000.0 19065500000.0 109449000000.0 78599200000.0 94546200000.0 81239500000.0 175113000000.0 250979000000.0 157537000000.0 134506000000.0 109831000000.0 295015000000.0 189105000000.0 189848000.0 62692100000.0 5244820000.0 100709000000.0 323326000000.0 207397000000.0 271824000000.0 216562000000.0 318225000000.0 306388000000.0 179204000000.0 575936000000.0 647577000000.0 801574000000.0 456016000000.0 134175000000.0 152049000000.0 199560000000.0 346575000000.0 383780000000.0 253859000000.0 166927000000.0 10527800000.0 51058000000.0 8232400000.0 192120000000.0 292848000000.0 122388000000.0 106520000000.0 292948000000.0 301596000000.0 343232000000.0 301418000000.0 225238000000.0 23727600000.0 95714900000.0 131383000000.0 216471000000.0 261608000000.0 174141000000.0 181222000000.0 344385000000.0 515870000000.0 292651000000.0 167653000000.0 335231000000.0 205301000000.0 513958000000.0 608211000000.0 462531000000.0 142775000000.0 28227900000.0 238082000000.0 329926000000.0 529753000000.0 405862000000.0 279825000000.0 157603000000.0 189744000000.0 103240000000.0 71891100000.0 33986900000.0 89889600000.0 18858500000.0 237974000000.0 308739000000.0 345311000000.0 296978000000.0 287143000000.0 117762000000.0 92386200000.0 102733000000.0 272301000000.0 321536000000.0 386476000000.0 57907400000.0 153662000000.0 214758000000.0 194494000000.0 289477000000.0 117422000000.0 101134000000.0 210716000000.0 335467000000.0 596998000000.0 511658000000.0 92383900000.0 334169000000.0 332912000000.0 208920000000.0 224809000000.0 450330000000.0 238566000000.0 421709000000.0 161639000000.0 141685000000.0 38990000000.0 12919400000.0 133652000000.0 532625000000.0 660552000000.0 421730000000.0 257315000000.0 139220000000.0 128566000000.0 221652000000.0 118354000000.0 161560000000.0 126277000000.0 76993900000.0 400578000000.0 318009000000.0 262836000000.0 113738000000.0 102913000000.0 57185900000.0 269648000000.0 286514000000.0 317392000000.0 397516000000.0 513734000000.0 311706000000.0 179916000000.0 184110000000.0 168240000000.0 249433000000.0 368444000000.0 160683000000.0 94504000000.0 552213000000.0 711483000000.0 435818000000.0 3139520000.0 300310000000.0 163194000000.0 21505400000.0 128892000000.0 62284400000.0 373277000000.0 734047000000.0 587679000000.0 109225000000.0 196111000000.0 333458000000.0 188199000000.0 134384000000.0 183160000000.0 234642000000.0 344219000000.0 534728000000.0 400928000000.0 301682000000.0 275067000000.0 260983000000.0 65465800000.0 7599420000.0 359225000000.0 289116000000.0 259710000000.0 236378000000.0 225074000000.0 448011000000.0 710239000000.0 500358000000.0 243633000000.0 213625000000.0 187757000000.0 419877000000.0 673403000000.0 190480000000.0 350215000000.0 915568000000.0 631924000000.0 601407000000.0 586690000000.0 427601000000.0 429000000000.0 94794000000.0 270382000000.0 248846000000.0 143406000000.0 230209000000.0 62869500000.0 477980000.0 214757000000.0 271998000000.0 454438000000.0 548685000000.0 589304000000.0 980973000000.0 350219000000.0 239642000000.0 627072000000.0 369747000000.0 133725000000.0 163473000000.0 228976000000.0 561429000000.0 696113000000.0 427342000000.0 205746000000.0 225445000000.0 250505000000.0 281567000000.0 354065000000.0 13867900000.0 93225200000.0 63021900000.0 435765000000.0 312030000000.0 181138000000.0 140629000000.0 196800000000.0 310542000000.0 911649000000.0 447884000000.0 8940530000.0 131746000000.0 491481000000.0 1.13226e+12 215810000000.0 790995000000.0 994204000000.0 555538000000.0 629208000000.0 579196000000.0 431628000000.0 496150000000.0 193797000000.0 306580000000.0 281688000000.0 76469800000.0 192026000000.0 394906000000.0 543120000000.0 498680000000.0 1.01429e+12 739172000000.0 204384000000.0 973791000000.0 420149000000.0 100323000000.0 22071600000.0 516522000000.0 966579000000.0 267567000000.0 169306000000.0 128791000000.0 170486000000.0 306731000000.0 432263000000.0 58128800000.0 89589800000.0 77219000000.0 546564000000.0 542367000000.0 440203000000.0 355605000000.0 275250000000.0 143365000000.0 11288500000.0 104592000000.0 601482000000.0 914144000000.0 649222000000.0 124302000000.0 273792000000.0 191170000000.0 41633600000.0 359883000000.0 326070000000.0 182439000000.0 600894000000.0 618973000000.0 539043000000.0 417142000000.0 244769000000.0 607440000000.0 200461000000.0 527642000000.0 36730800000.0 230890000000.0 248344000000.0 382335000000.0 497237000000.0 535389000000.0 36655100000.0 203134000000.0 442560000000.0 31425500000.0 203387000000.0 289752000000.0 119873000000.0 669964000000.0 885547000000.0 538947000000.0 92058900000.0 25228700000.0 136227000000.0 269524000000.0 353475000000.0 436747000000.0 539241000000.0 544027000000.0 73911000000.0 27006700000.0 474066000000.0 557075000000.0 704599000000.0 556009000000.0 355883000000.0 142134000000.0 194508000000.0 479457000000.0 688941000000.0 122783000000.0 648119000000.0 286583000000.0 723114000000.0 592903000000.0 681205000000.0 161969000000.0 685558000000.0 563972000000.0 593860000000.0 582840000000.0 592071000000.0 540712000000.0 471114000000.0 308591000000.0 569272000000.0 266051000000.0 437689000000.0 436117000000.0 417552000000.0 516459000000.0 484179000000.0 502926000000.0 522159000000.0 514250000000.0 635324000000.0 319727000000.0 715598000000.0 582244000000.0 690149000000.0 263588000000.0 647113000000.0 153921000000.0 654736000000.0 474438000000.0 180967000000.0 142522000000.0 355490000000.0 554244000000.0 703125000000.0 555010000000.0 472314000000.0 24284600000.0 32855500000.0 339691000000.0 672899000000.0 886002000000.0 627373000000.0 685715000000.0 396811000000.0 543533000000.0 135601000000.0 365158000000.0 157563000000.0 956202000000.0 559031000000.0 1.0866e+12 1.07118e+12 930815000000.0 210260000000.0 1.18045e+12 978610000000.0 646203000000.0 986814000000.0 499497000000.0 597587000000.0 436576000000.0 314731000000.0 28512900000.0 843215000000.0 520271000000.0 527953000000.0 558444000000.0 459623000000.0 975318000000.0 574159000000.0 962716000000.0 1.12815e+12 199005000000.0 935253000000.0 1.0692e+12 1.13554e+12 530797000000.0 971823000000.0 189196000000.0 374758000000.0 138083000000.0 547179000000.0 396812000000.0 685050000000.0 625448000000.0 885457000000.0 671160000000.0 338151000000.0 34824100000.0 22867700000.0 64387800000.0 206350000000.0 502994000000.0 782186000000.0 617136000000.0 311351000000.0 115662000000.0 1.08774e+12 396455000000.0 597600000000.0 13391600000.0 38699800000.0 368955000000.0 5787600000.0 357370000000.0 962422000000.0 239275000000.0 666534000000.0 495752000000.0 137491000000.0 855580000000.0 520888000000.0 199815000000.0 434517000000.0 783980000000.0 755906000000.0 694364000000.0 585336000000.0 531866000000.0 615935000000.0 188548000000.0 950983000000.0 438086000000.0 13925500000.0 341580000000.0 106645000000.0 39155200000.0 640165000000.0 362624000000.0 1.0983e+12 121408000000.0 313623000000.0 614628000000.0 781480000000.0 501505000000.0 206364000000.0 65311400000.0 21852400000.0 130153000000.0 180790000000.0 54537100000.0 252670000000.0 452849000000.0 1.135e+12 439164000000.0 845497000000.0 176537000000.0 807609000000.0 404298000000.0 561520000000.0 332065000000.0 1.66231e+12 155217000000.0 108224000000.0 276657000000.0 751275000000.0 634314000000.0 816579000000.0 319574000000.0 694807000000.0 760772000000.0 560727000000.0 567877000000.0 922594000000.0 149632000000.0 437558000000.0 581110000000.0 500825000000.0 970869000000.0 266810000000.0 365697000000.0 718898000000.0 647793000000.0 600121000000.0 562990000000.0 419724000000.0 122941000000.0 921480000000.0 571813000000.0 558449000000.0 726229000000.0 378157000000.0 856364000000.0 650494000000.0 721900000000.0 296866000000.0 168359000000.0 164215000000.0 1.71199e+12 318428000000.0 548820000000.0 395062000000.0 815713000000.0 173966000000.0 844962000000.0 433166000000.0 1.13552e+12 452211000000.0 251922000000.0 55209000000.0 182318000000.0 128262000000.0 290252000000.0 744211000000.0 353741000000.0 221603000000.0 27601500000.0 179644000000.0 805149000000.0 1.34588e+12 1.42141e+12 1.29216e+12 911808000000.0 400153000000.0 699291000000.0 97260500000.0 156263000000.0 455588000000.0 585491000000.0 572052000000.0 166370000000.0 228436000000.0 696626000000.0 489774000000.0 903890000000.0 430639000000.0 134992000000.0 537728000000.0 630497000000.0 601825000000.0 435925000000.0 700862000000.0 233560000000.0 797445000000.0 147560000000.0 558055000000.0 593522000000.0 451901000000.0 175825000000.0 92786400000.0 687698000000.0 413297000000.0 923480000000.0 1.29129e+12 1.42435e+12 1.35016e+12 806027000000.0 176775000000.0 26645600000.0 224879000000.0 359036000000.0 739531000000.0 282559000000.0 229578000000.0 277399000000.0 583537000000.0 921519000000.0 53481900000.0 132075000000.0 391633000000.0 1.00784e+12 522824000000.0 634865000000.0 594116000000.0 834216000000.0 172904000000.0 556815000000.0 950802000000.0 165622000000.0 133070000000.0 15064500000.0 309724000000.0 510227000000.0 28734400000.0 310223000000.0 726238000000.0 224352000000.0 96519600000.0 40901300000.0 720067000000.0 576457000000.0 247211000000.0 136393000000.0 84406300000.0 237586000000.0 325995000000.0 515636000000.0 432571000000.0 531828000000.0 553674000000.0 88247400000.0 110277000000.0 243114000000.0 718554000000.0 353937000000.0 56813700000.0 501614000000.0 311817000000.0 10820100000.0 155989000000.0 950398000000.0 555004000000.0 177717000000.0 833869000000.0 589987000000.0 636894000000.0 526658000000.0 998697000000.0 385951000000.0 132789000000.0 47288100000.0 920206000000.0 581559000000.0 263432000000.0 243547000000.0 195846000000.0 555505000000.0 639041000000.0 482975000000.0 916756000000.0 589736000000.0 45376900000.0 316209000000.0 462278000000.0 57469900000.0 96184300000.0 79806800000.0 81941500000.0 124629000000.0 60113400000.0 191242000000.0 528921000000.0 338460000000.0 283388000000.0 326896000000.0 165002000000.0 59442000000.0 392029000000.0 681092000000.0 877819000000.0 391010000000.0 567916000000.0 321353000000.0 551320000000.0 294643000000.0 83383700000.0 137319000000.0 307888000000.0 296387000000.0 406858000000.0 198924000000.0 464000000000.0 354399000000.0 872008000000.0 672388000000.0 371802000000.0 74071200000.0 153945000000.0 323237000000.0 281961000000.0 135986000000.0 338063000000.0 525614000000.0 185821000000.0 52382800000.0 126019000000.0 78779100000.0 85579500000.0 90345100000.0 61390600000.0 457480000000.0 321085000000.0 46325500000.0 611154000000.0 929107000000.0 492844000000.0 641605000000.0 546495000000.0 203497000000.0 169686000000.0 425154000000.0 453148000000.0 531819000000.0 530126000000.0 46794500000.0 389438000000.0 591053000000.0 829623000000.0 637883000000.0 13616200000.0 308278000000.0 95348400000.0 186788000000.0 49055400000.0 292944000000.0 328047000000.0 469470000000.0 352027000000.0 173464000000.0 176631000000.0 56129600000.0 229161000000.0 497446000000.0 323042000000.0 53611500000.0 148932000000.0 124175000000.0 49249300000.0 170442000000.0 224921000000.0 77728100000.0 169599000000.0 309761000000.0 488122000000.0 217730000000.0 64184000000.0 171322000000.0 171252000000.0 350847000000.0 466366000000.0 324314000000.0 290003000000.0 46505200000.0 185028000000.0 91233300000.0 304266000000.0 14706900000.0 637326000000.0 828981000000.0 598401000000.0 398879000000.0 67757700000.0 525666000000.0 540275000000.0 475604000000.0 463849000000.0 200700000000.0 186754000000.0 448011000000.0 363534000000.0 407352000000.0 510646000000.0 518260000000.0 493852000000.0 741226000000.0 733155000000.0 969640000000.0 463005000000.0 376077000000.0 653941000000.0 484829000000.0 261577000000.0 291011000000.0 222874000000.0 230765000000.0 256853000000.0 352701000000.0 397324000000.0 435000000000.0 342769000000.0 301902000000.0 286382000000.0 67853300000.0 215991000000.0 152072000000.0 118245000000.0 191271000000.0 40468900000.0 638636000000.0 232262000000.0 6587140000.0 96841200000.0 19879100000.0 34752900000.0 16735200000.0 66041900000.0 66496800000.0 137819000000.0 52041100000.0 91634300000.0 55033200000.0 298842000000.0 728222000000.0 61549800000.0 198335000000.0 110194000000.0 141985000000.0 208121000000.0 62601800000.0 281146000000.0 298015000000.0 338709000000.0 431221000000.0 394826000000.0 350434000000.0 255365000000.0 229098000000.0 220475000000.0 287736000000.0 260092000000.0 482528000000.0 649207000000.0 369228000000.0 475174000000.0 966964000000.0 718727000000.0 735557000000.0 482653000000.0 489427000000.0 496367000000.0 435386000000.0 400345000000.0 463519000000.0 200129000000.0 147095000000.0 419469000000.0 358556000000.0 469812000000.0 567005000000.0 192736000000.0 789346000000.0 513286000000.0 406886000000.0 363940000000.0 408368000000.0 422866000000.0 411328000000.0 364620000000.0 299566000000.0 207486000000.0 95055700000.0 60440500000.0 52839900000.0 268530000000.0 457274000000.0 11487000000.0 42991900000.0 3428850000.0 12505300000.0 35803800000.0 70800600000.0 37013600000.0 445884000000.0 268442000000.0 55607900000.0 58696400000.0 95385200000.0 202009000000.0 294902000000.0 360487000000.0 407340000000.0 419568000000.0 406384000000.0 363511000000.0 403601000000.0 522544000000.0 803089000000.0 178649000000.0 531599000000.0 471700000000.0 432543000000.0 487463000000.0 181001000000.0 79177000000.0 123652000000.0 404081000000.0 498536000000.0 363345000000.0 399069000000.0 419145000000.0 639428000000.0 152388000000.0 712132000000.0 1.07032e+12 541728000000.0 577238000000.0 488846000000.0 363346000000.0 354739000000.0 320331000000.0 344149000000.0 422033000000.0 394719000000.0 333428000000.0 243370000000.0 140726000000.0 21524800000.0 76437600000.0 465663000000.0 707692000000.0 764634000000.0 410786000000.0 146401000000.0 7972910000.0 14134200000.0 1953680000.0 3517530000.0 207543000000.0 274228000000.0 751230000000.0 707807000000.0 470823000000.0 75571100000.0 19795800000.0 138576000000.0 239910000000.0 329266000000.0 391221000000.0 419389000000.0 344105000000.0 319898000000.0 353748000000.0 362380000000.0 486349000000.0 573198000000.0 537001000000.0 1.06972e+12 698920000000.0 153515000000.0 596115000000.0 434706000000.0 407279000000.0 345435000000.0 476203000000.0 457988000000.0 143025000000.0 85800900000.0 27636900000.0 377137000000.0 443723000000.0 458371000000.0 516577000000.0 293196000000.0 300470000000.0 662803000000.0 1.11243e+12 247284000000.0 343143000000.0 722783000000.0 51775000000.0 326007000000.0 478313000000.0 479189000000.0 437870000000.0 428889000000.0 421678000000.0 425973000000.0 429983000000.0 435606000000.0 274595000000.0 178914000000.0 69212900000.0 41579700000.0 129844000000.0 240029000000.0 368256000000.0 571728000000.0 289071000000.0 239189000000.0 56898700000.0 7952510000.0 17053700000.0 36924300000.0 25283900000.0 33062700000.0 13152200000.0 10489600000.0 2630400000.0 119045000000.0 336976000000.0 650221000000.0 382022000000.0 237623000000.0 130234000000.0 43341600000.0 66896100000.0 176458000000.0 272087000000.0 434664000000.0 430282000000.0 427904000000.0 424242000000.0 430750000000.0 438087000000.0 476912000000.0 473891000000.0 319935000000.0 61423700000.0 739581000000.0 302990000000.0 246091000000.0 1.06486e+12 642283000000.0 278462000000.0 248900000000.0 455431000000.0 502589000000.0 449214000000.0 374166000000.0 10991000000.0 6665710000.0 298804000000.0 374301000000.0 483643000000.0 181927000000.0 77182400000.0 497551000000.0 1.21311e+12 421998000000.0 1.05918e+12 36797600000.0 46127900000.0 20772300000.0 233666000000.0 422879000000.0 514960000000.0 530406000000.0 519970000000.0 514688000000.0 494895000000.0 477386000000.0 459031000000.0 437254000000.0 403960000000.0 352542000000.0 112913000000.0 10749900000.0 83440600000.0 162553000000.0 192348000000.0 10319600000.0 512186000000.0 78195800000.0 35630800000.0 41029500000.0 38677400000.0 40277400000.0 443799000000.0 22071200000.0 205098000000.0 170147000000.0 88702700000.0 6972520000.0 110820000000.0 350023000000.0 402513000000.0 436962000000.0 460705000000.0 481162000000.0 499962000000.0 519650000000.0 522526000000.0 529990000000.0 512790000000.0 422212000000.0 234512000000.0 25381800000.0 59123700000.0 51432600000.0 1.04605e+12 414815000000.0 1.20141e+12 498448000000.0 59483700000.0 162068000000.0 507362000000.0 323996000000.0 263379000000.0 52070100000.0 9922970000.0 158257000000.0 208829000000.0 252030000000.0 436637000000.0 591883000000.0 561565000000.0 19972700000.0 106310000000.0 261391000000.0 234387000000.0 133737000000.0 322447000000.0 307509000000.0 418234000000.0 517001000000.0 575341000000.0 602461000000.0 606590000000.0 571850000000.0 531237000000.0 493837000000.0 457007000000.0 416530000000.0 364361000000.0 295882000000.0 210534000000.0 49531900000.0 156102000000.0 278843000000.0 442652000000.0 756159000000.0 999798000000.0 850827000000.0 198081000000.0 30037400000.0 41097300000.0 39515300000.0 44394800000.0 146806000000.0 860785000000.0 1.00552e+12 810510000000.0 497784000000.0 310228000000.0 172690000000.0 57125200000.0 209235000000.0 295002000000.0 364309000000.0 417772000000.0 459920000000.0 498423000000.0 536921000000.0 578945000000.0 615056000000.0 605957000000.0 575466000000.0 518245000000.0 424769000000.0 319372000000.0 339736000000.0 147571000000.0 267515000000.0 263895000000.0 84271500000.0 21323100000.0 593923000000.0 606482000000.0 410593000000.0 180202000000.0 140957000000.0 74208500000.0 82408600000.0 52198000000.0 77259800000.0 245725000000.0 208286000000.0 270902000000.0 318964000000.0 1.02826e+12 161262000000.0 418655000000.0 978237000000.0 1.04136e+12 26489300000.0 311593000000.0 412501000000.0 518511000000.0 645501000000.0 583187000000.0 528533000000.0 479310000000.0 430489000000.0 376559000000.0 312098000000.0 235234000000.0 146667000000.0 50394200000.0 163489000000.0 206391000000.0 158796000000.0 202103000000.0 191246000000.0 249713000000.0 208237000000.0 54661100000.0 38940700000.0 37134600000.0 27742200000.0 33933900000.0 21779700000.0 39338200000.0 54539700000.0 83906700000.0 282610000000.0 205331000000.0 179020000000.0 252107000000.0 175913000000.0 235942000000.0 47762400000.0 146703000000.0 236732000000.0 314540000000.0 379981000000.0 434620000000.0 484019000000.0 533843000000.0 590136000000.0 655762000000.0 522014000000.0 422138000000.0 331193000000.0 10142600000.0 1.03372e+12 999476000000.0 356325000000.0 150203000000.0 1.0945e+12 244567000000.0 197296000000.0 89269900000.0 114963000000.0 33068900000.0 127909000000.0 22276700000.0 31498200000.0 316260000000.0 220059000000.0 195242000000.0 529638000000.0 1.20702e+12 38180900000.0 541977000000.0 932290000000.0 996382000000.0 74322200000.0 630226000000.0 579946000000.0 650130000000.0 704014000000.0 442567000000.0 387504000000.0 326414000000.0 256225000000.0 176604000000.0 89954100000.0 923531000.0 86281800000.0 133891000000.0 331163000000.0 352672000000.0 66081400000.0 27372500000.0 1821920000.0 21683900000.0 113340000000.0 455407000000.0 329117000000.0 127008000000.0 184503000000.0 96537300000.0 1657940000.0 91906200000.0 180666000000.0 261459000000.0 332212000000.0 393324000000.0 447961000000.0 719143000000.0 654032000000.0 578626000000.0 683405000000.0 95967200000.0 959387000000.0 816963000000.0 613980000000.0 93116300000.0 1.24731e+12 425489000000.0 30899100000.0 112077000000.0 198450000000.0 368796000000.0 53942400000.0 79991800000.0 42129100000.0 2684170000.0 91579300000.0 378231000000.0 404993000000.0 219430000000.0 314678000000.0 71075900000.0 736902000000.0 1.01954e+12 732230000000.0 334693000000.0 428752000000.0 11324100000.0 343672000000.0 518038000000.0 582620000000.0 660689000000.0 817474000000.0 705769000000.0 619284000000.0 552120000000.0 495591000000.0 273349000000.0 201924000000.0 124088000000.0 43696800000.0 33260200000.0 96543000000.0 125593000000.0 78967400000.0 580101000000.0 37064200000.0 40014200000.0 9140940000.0 24008400000.0 47609300000.0 123222000000.0 102753000000.0 149657000000.0 107798000000.0 33832200000.0 48812700000.0 131627000000.0 210467000000.0 500493000000.0 557598000000.0 626890000000.0 717886000000.0 843551000000.0 662152000000.0 586341000000.0 518633000000.0 351093000000.0 506086000.0 436489000000.0 376825000000.0 880232000000.0 1.09371e+12 779219000000.0 340809000000.0 38499000000.0 2489930000.0 237075000000.0 201555000000.0 414466000000.0 346788000000.0 42983700000.0 69974300000.0 34374800000.0 131018000000.0 198286000000.0 302837000000.0 377955000000.0 352755000000.0 1.19798e+12 571964000000.0 781728000000.0 972582000000.0 742097000000.0 456542000000.0 326173000000.0 197007000000.0 516264000000.0 524133000000.0 546511000000.0 833788000000.0 685850000000.0 609224000000.0 548727000000.0 495978000000.0 445868000000.0 393895000000.0 336979000000.0 78255900000.0 5347430000.0 60259400000.0 109377000000.0 133875000000.0 144743000000.0 322793000000.0 540072000000.0 176481000000.0 121466000000.0 147543000000.0 41860000000.0 27521500000.0 28684600000.0 63161400000.0 57466700000.0 139934000000.0 128495000000.0 207493000000.0 615387000000.0 620959000000.0 464324000000.0 237805000000.0 181816000000.0 124974000000.0 57738300000.0 15828200000.0 91611200000.0 281979000000.0 345027000000.0 400519000000.0 451016000000.0 500533000000.0 552205000000.0 609455000000.0 681073000000.0 835768000000.0 522149000000.0 513795000000.0 502712000000.0 191257000000.0 318474000000.0 428948000000.0 749669000000.0 969238000000.0 724290000000.0 717519000000.0 1.1343e+12 207081000000.0 177750000000.0 528584000000.0 505544000000.0 323699000000.0 20845300000.0 70899500000.0 103943000000.0 66652300000.0 96402400000.0 330924000000.0 256298000000.0 284832000000.0 681945000000.0 380825000000.0 598615000000.0 904464000000.0 971450000000.0 40415800000.0 285874000000.0 326037000000.0 767939000000.0 625162000000.0 552863000000.0 512283000000.0 475382000000.0 435823000000.0 391951000000.0 342278000000.0 285541000000.0 221773000000.0 151866000000.0 80615100000.0 115892000000.0 123482000000.0 105382000000.0 82349300000.0 280041000000.0 262977000000.0 77340000000.0 30738600000.0 110981000000.0 251443000000.0 338070000000.0 150931000000.0 151940000000.0 172206000000.0 122429000000.0 66122000000.0 165808000000.0 234757000000.0 296630000000.0 350845000000.0 398476000000.0 441098000000.0 479048000000.0 513628000000.0 551767000000.0 625686000000.0 762071000000.0 304146000000.0 283737000000.0 56436300000.0 937527000000.0 766901000000.0 742878000000.0 75367900000.0 750396000000.0 53827400000.0 491097000000.0 566185000000.0 210820000000.0 241087000000.0 179606000000.0 53300100000.0 35043200000.0 23645900000.0 79745800000.0 27861900000.0 313094000000.0 149203000000.0 417063000000.0 452900000000.0 817652000000.0 821628000000.0 484316000000.0 309846000000.0 672842000000.0 542457000000.0 477434000000.0 451390000000.0 434504000000.0 412247000000.0 380941000000.0 340813000000.0 292760000000.0 237147000000.0 174905000000.0 107979000000.0 39247600000.0 26082800000.0 233999000000.0 376182000000.0 669714000000.0 713742000000.0 715798000000.0 274211000000.0 19232000000.0 82473200000.0 225284000000.0 529251000000.0 822066000000.0 930034000000.0 659267000000.0 343990000000.0 4814390000.0 61239000000.0 129042000000.0 194242000000.0 253451000000.0 305073000000.0 349616000000.0 387313000000.0 417301000000.0 439276000000.0 456340000000.0 483095000000.0 544935000000.0 659347000000.0 319885000000.0 490022000000.0 728937000000.0 802588000000.0 467312000000.0 107683000000.0 220545000000.0 449408000000.0 360528000000.0 11712400000.0 94521900000.0 19304900000.0 58341000000.0 206811000000.0 166989000000.0 158071000000.0 32860400000.0 890253000000.0 366048000000.0 816166000000.0 444502000000.0 524999000000.0 5976950000.0 121576000000.0 111613000000.0 295949000000.0 248537000000.0 193903000000.0 133722000000.0 70005300000.0 5880920000.0 54179000000.0 107263000000.0 158225000000.0 43957300000.0 54792100000.0 341774000000.0 4339310000.0 140640000000.0 10074100000.0 74220300000.0 109783000000.0 338669000000.0 34827100000.0 208785000000.0 152236000000.0 68910700000.0 14296200000.0 40288400000.0 100004000000.0 160747000000.0 217850000000.0 266907000000.0 308434000000.0 93169500000.0 119986000000.0 3992240000.0 540903000000.0 491939000000.0 852758000000.0 427420000000.0 807305000000.0 107280000000.0 117999000000.0 19878400000.0 38760700000.0 19068300000.0 72265000000.0 16225400000.0 184715000000.0 155624000000.0 270398000000.0 794826000000.0 674091000000.0 682236000000.0 459087000000.0 539402000000.0 435169000000.0 150662000000.0 96848000000.0 548936000000.0 427291000000.0 388188000000.0 383119000000.0 384824000000.0 380214000000.0 363720000000.0 335022000000.0 156168000000.0 98473100000.0 38786800000.0 19930200000.0 73129300000.0 117546000000.0 153791000000.0 168323000000.0 93675800000.0 349163000000.0 292099000000.0 240328000000.0 11200300000.0 143772000000.0 384898000000.0 339847000000.0 140354000000.0 20643600000.0 8574880000.0 586417000.0 5689210000.0 32610500000.0 78549300000.0 132530000000.0 188448000000.0 343105000000.0 370080000000.0 387717000000.0 394728000000.0 394483000000.0 397945000000.0 429775000000.0 530436000000.0 83693300000.0 148587000000.0 446612000000.0 558016000000.0 494920000000.0 723543000000.0 525789000000.0 816901000000.0 104591000000.0 52313000000.0 18259500000.0 12996700000.0 41368000000.0 107602000000.0 125639000000.0 38926000000.0 610298000000.0 634753000000.0 405520000000.0 277648000000.0 125567000000.0 421841000000.0 317501000000.0 299592000000.0 320311000000.0 341076000000.0 352218000000.0 348721000000.0 330159000000.0 299010000000.0 258277000000.0 209730000000.0 38916300000.0 83466600000.0 114258000000.0 123269000000.0 85271400000.0 55398200000.0 225413000000.0 197195000000.0 84374400000.0 207299000000.0 234236000000.0 109078000000.0 611656000000.0 35800300000.0 208851000000.0 58783100000.0 42977000000.0 43978800000.0 23133500000.0 24528800000.0 237663000000.0 276759000000.0 309208000000.0 336621000000.0 357022000000.0 364673000000.0 356463000000.0 335945000000.0 310409000000.0 318938000000.0 403332000000.0 136926000000.0 307791000000.0 452175000000.0 558111000000.0 602150000000.0 64814800000.0 71495800000.0 35148200000.0 79096900000.0 189335000000.0 13816100000.0 100734000000.0 754897000000.0 489808000000.0 275235000000.0 202881000000.0 264510000000.0 755912000000.0 275023000000.0 3001500000.0 181636000000.0 270581000000.0 314923000000.0 339811000000.0 346831000000.0 335373000000.0 308257000000.0 270891000000.0 224885000000.0 176353000000.0 124072000000.0 68630100000.0 13704900000.0 111324000000.0 112141000000.0 98862600000.0 276908000000.0 73535200000.0 383515000000.0 116525000000.0 64973200000.0 267730000000.0 123342000000.0 56461400000.0 39034500000.0 56539000000.0 57971700000.0 103771000000.0 160503000000.0 213226000000.0 256629000000.0 285006000000.0 312358000000.0 341097000000.0 359752000000.0 356437000000.0 334321000000.0 285644000000.0 185247000000.0 8343310000.0 297452000000.0 745181000000.0 236726000000.0 219037000000.0 262921000000.0 482574000000.0 732035000000.0 27210700000.0 22863200000.0 119081000000.0 55452400000.0 100068000000.0 86636600000.0 26155800000.0 153229000000.0 70138100000.0 576611000000.0 296734000000.0 351682000000.0 235413000000.0 4396220000.0 326899000000.0 219153000000.0 357834000000.0 367912000000.0 360110000000.0 332447000000.0 293723000000.0 241795000000.0 195684000000.0 148214000000.0 95574600000.0 41986600000.0 7139570000.0 55347600000.0 92761000000.0 199998000000.0 320148000000.0 307963000000.0 71105200000.0 254079000000.0 16325400000.0 111321000000.0 16795400000.0 404883000.0 33545700000.0 67355300000.0 128086000000.0 185112000000.0 237751000000.0 278184000000.0 293984000000.0 330203000000.0 370464000000.0 383079000000.0 378026000000.0 222120000000.0 302806000000.0 10023100000.0 210942000000.0 334860000000.0 351822000000.0 593274000000.0 60998700000.0 165196000000.0 27178500000.0 39852800000.0 85702200000.0 17742600000.0 59251000000.0 8541490000.0 51315000000.0 170847000000.0 50742900000.0 425660000000.0 349677000000.0 223783000000.0 43614800000.0 172836000000.0 266804000000.0 327864000000.0 345257000000.0 215511000000.0 172224000000.0 121114000000.0 67571200000.0 16614300000.0 24257000000.0 74979600000.0 110229000000.0 120995000000.0 135536000000.0 265545000000.0 190454000000.0 174809000000.0 113443000000.0 269350000000.0 215605000000.0 515163000000.0 193722000000.0 221643000000.0 211102000000.0 193297000000.0 278441000000.0 92357100000.0 7607610000.0 4425760000.0 61697900000.0 16100700000.0 21694000000.0 88904700000.0 145571000000.0 205759000000.0 264526000000.0 363154000000.0 334850000000.0 258787000000.0 170937000000.0 20802300000.0 203106000000.0 367875000000.0 428837000000.0 72013900000.0 185139000000.0 48674200000.0 5112220000.0 62920200000.0 7607660000.0 268392000.0 3921030000.0 94489700000.0 215924000000.0 481479000000.0 248551000000.0 49500200000.0 28480200000.0 265169000000.0 454882000000.0 476459000000.0 429270000000.0 408231000000.0 405040000000.0 407757000000.0 377746000000.0 339627000000.0 264776000000.0 38473100000.0 12010500000.0 36938400000.0 110215000000.0 147545000000.0 149635000000.0 270590000000.0 189689000000.0 236158000000.0 296758000000.0 387223000000.0 146812000000.0 81400700000.0 18868500000.0 42319100000.0 105269000000.0 130541000000.0 294745000000.0 91609000000.0 31766600000.0 155188000000.0 26998300000.0 32651600000.0 29436000000.0 309320000000.0 315850000000.0 385562000000.0 413706000000.0 425479000000.0 421691000000.0 434650000000.0 465739000000.0 438798000000.0 252854000000.0 7701200000.0 36352400000.0 282384000000.0 416364000000.0 235281000000.0 86355400000.0 14228100000.0 2170090000.0 46669200000.0 60724700000.0 208761000000.0 78291000000.0 158590000000.0 312875000000.0 468240000000.0 107746000000.0 18696900000.0 203045000000.0 354921000000.0 411482000000.0 416923000000.0 395452000000.0 387064000000.0 386856000000.0 370559000000.0 360305000000.0 291413000000.0 241959000000.0 202804000000.0 146804000000.0 91696200000.0 183280000000.0 208697000000.0 313348000000.0 6669580000.0 126583000000.0 193724000000.0 438196000000.0 182302000000.0 298780000000.0 88040500000.0 151215000000.0 219976000000.0 277968000000.0 300266000000.0 313315000000.0 376618000000.0 390626000000.0 403754000000.0 404107000000.0 411727000000.0 398585000000.0 342554000000.0 210293000000.0 55111900000.0 105588000000.0 408386000000.0 299146000000.0 181459000000.0 86115300000.0 227281000000.0 58673700000.0 35638300000.0 93801600000.0 81766800000.0 38904800000.0 346468000000.0 34090200000.0 400028000000.0 434605000000.0 517105000000.0 106753000000.0 165695000000.0 216388000000.0 312387000000.0 352833000000.0 348272000000.0 339756000000.0 336408000000.0 333020000000.0 342702000000.0 301124000000.0 250022000000.0 226266000000.0 176976000000.0 112335000000.0 62349800000.0 3364650000.0 53850100000.0 26645300000.0 172775000000.0 247020000000.0 263549000000.0 308646000000.0 128251000000.0 80732800000.0 146340000000.0 84094600000.0 231326000000.0 257804000000.0 348956000000.0 108076000000.0 117267000000.0 64421800000.0 943507000.0 80250100000.0 159898000000.0 227867000000.0 263943000000.0 270117000000.0 297278000000.0 345246000000.0 345868000000.0 353584000000.0 343594000000.0 340594000000.0 299077000000.0 224893000000.0 199791000000.0 107179000000.0 497442000000.0 409606000000.0 402466000000.0 53093100000.0 350728000000.0 53011000000.0 83849700000.0 85164900000.0 22778800000.0 46323900000.0 74623200000.0 164903000000.0 427141000000.0 22751400000.0 24083700000.0 70187500000.0 227296000000.0 238909000000.0 235192000000.0 216952000000.0 171222000000.0 112134000000.0 60342600000.0 34609700000.0 114112000000.0 55854300000.0 231260000000.0 230598000000.0 210173000000.0 210544000000.0 199948000000.0 70728200000.0 132827000000.0 26592800000.0 20368400000.0 259250000000.0 244061000000.0 410901000000.0 315602000000.0 512741000000.0 233234000000.0 345654000000.0 221699000000.0 234248000000.0 166065000000.0 55917000000.0 41422000000.0 150210000000.0 219517000000.0 271382000000.0 272082000000.0 245095000000.0 77260100000.0 49189000000.0 40152900000.0 415537000000.0 168926000000.0 68847300000.0 49695700000.0 21610000000.0 12078700000.0 17376500000.0 267439000000.0 252967000000.0 276140000000.0 184177000000.0 266683000000.0 292474000000.0 299868000000.0 284325000000.0 288408000000.0 301172000000.0 282697000000.0 175931000000.0 219093000000.0 215089000000.0 80190700000.0 93513700000.0 23204700000.0 152026000000.0 107898000000.0 50662800000.0 104053000000.0 93130700000.0 88351400000.0 182272000000.0 246127000000.0 220733000000.0 264362000000.0 283749000000.0 299040000000.0 292997000000.0 296902000000.0 281681000000.0 253555000000.0 182347000000.0 273499000000.0 253244000000.0 278218000000.0 19515100000.0 13377400000.0 45709800000.0 130031000000.0 90253000000.0 17780900000.0 126508000000.0 247389000000.0 123859000000.0 137148000000.0 37121500000.0 157485000000.0 155217000000.0 215320000000.0 251621000000.0 240195000000.0 242639000000.0 253094000000.0 237996000000.0 155326000000.0 91051700000.0 33698900000.0 21404800000.0 66980100000.0 92091100000.0 95499900000.0 312000000000.0 161622000000.0 79989000000.0 27825100000.0 99756500000.0 181936000000.0 248537000000.0 211504000000.0 220500000000.0 218840000000.0 163810000000.0 130780000000.0 69091600000.0 28597400000.0 20380200000.0 53329600000.0 94886600000.0 143671000000.0 208237000000.0 239970000000.0 233698000000.0 240414000000.0 204416000000.0 149202000000.0 167354000000.0 46438800000.0 126322000000.0 122040000000.0 244430000000.0 131808000000.0 28374600000.0 98595500000.0 115711000000.0 45405000000.0 20252900000.0 74942800000.0 86901100000.0 17044400000.0 7087950000.0 74510500000.0 152778000000.0 153093000000.0 5014950000.0 70923600000.0 41453600000.0 79058000000.0 103996000000.0 119763000000.0 190958000000.0 218463000000.0 243095000000.0 257202000000.0 256004000000.0 213205000000.0 175660000000.0 162712000000.0 127526000000.0 73855600000.0 9570220000.0 41347800000.0 31477600000.0 114046000000.0 54096300000.0 88242900000.0 145115000000.0 84272600000.0 70270500000.0 8128220000.0 41460300000.0 8664440000.0 31038300000.0 125137000000.0 122995000000.0 135167000000.0 242043000000.0 278852000000.0 189407000000.0 283040000000.0 181680000000.0 199277000000.0 79820100000.0 164115000000.0 69140700000.0 110597000000.0 33100400000.0 18236200000.0 71195000000.0 109117000000.0 121514000000.0 137413000000.0 166964000000.0 204359000000.0 215544000000.0 193284000000.0 168888000000.0 115845000000.0 107720000000.0 73931600000.0 46295100000.0 68393600000.0 4937060000.0 150866000000.0 155198000000.0 76722000000.0 4888190000.0 10558900000.0 88914800000.0 75711200000.0 20642100000.0 22453800000.0 88218600000.0 85990700000.0 101788000000.0 112006000000.0 17331300000.0 5286650000.0 30461200000.0 53138700000.0 51992400000.0 129317000000.0 205202000000.0 187162000000.0 311123000000.0 245098000000.0 273708000000.0 148823000000.0 297134000000.0 197967000000.0 234474000000.0 164648000000.0 82804500000.0 9350600000.0 154047000000.0 120559000000.0 126865000000.0 151202000000.0 202013000000.0 196162000000.0 265533000000.0 227794000000.0 243805000000.0 167728000000.0 86391200000.0 55623900000.0 26138500000.0 7765230000.0 20389700000.0 108449000000.0 101104000000.0 90148900000.0 89959800000.0 23233100000.0 48715800000.0 176385000000.0 26456900000.0 16021700000.0 97411900000.0 128336000000.0 146763000000.0 139563000000.0 131109000000.0 116819000000.0 93152400000.0 68953600000.0 46780000000.0 43175900.0 107716000000.0 81691000000.0 85265900000.0 30676700000.0 35563100000.0 10479100000.0 48547500000.0 80918500000.0 100344000000.0 121954000000.0 148553000000.0 145442000000.0 116453000000.0 90487400000.0 16415700000.0 26628900000.0 178513000000.0 53556600000.0 10497300000.0 52986600000.0 37613700000.0 18745700000.0 25827300000.0 100245000000.0 244212000000.0 4263620000.0 4506830000.0 27661100000.0 22969600000.0 17866000000.0 28945300000.0 14449300000.0 91516200000.0 146800000000.0 183140000000.0 176424000000.0 162479000000.0 125943000000.0 106597000000.0 83377600000.0 116910000000.0 75820100000.0 119739000000.0 49124600000.0 86910000000.0 53297800000.0 24976000000.0 106004000000.0 105504000000.0 65642200000.0 76210700000.0 11558000000.0 14493400000.0 22149600000.0 35075200000.0 125107000000.0 35226900000.0 60460400000.0 69206600000.0 174132000000.0 128313000000.0 86620800000.0 86170200000.0 77155600000.0 62679800000.0 58385200000.0 42747700000.0 74415300000.0 33122400000.0 17476700000.0 74937400000.0 75054800000.0 104249000000.0 109583000000.0 136316000000.0 155467000000.0 169755000000.0 130639000000.0 79444000000.0 18170300000.0 33229400000.0 13707400000.0 20336600000.0 29312100000.0 10756800000.0 2645040000.0 245046000000.0 103470000000.0 23122000000.0 16722200000.0 39221900000.0 52468300000.0 10280000000.0 9035750000.0 9035750000.0 43358500000.0 75018600000.0 60890900000.0 132609000000.0 87331500000.0 83646400000.0 55268200000.0 23920000000.0 5891870000.0 90803300000.0 87349800000.0 40866000000.0 9579560000.0 39114200000.0 41119000000.0 119970000000.0 109186000000.0 182341000000.0 153129000000.0 131202000000.0 160532000000.0 104399000000.0 42658100000.0 47445500000.0 62600400000.0 6711230000.0 58479600000.0 25363600000.0 7348330000.0 38334500000.0 2464170000.0 8574040000.0 45032200000.0 69746500000.0 100469000000.0 133625000000.0 42425900000.0 49506500000.0 5923580000.0 8767170000.0 53746000000.0 67144900000.0 96814700000.0 82398000000.0 1443890000.0 13087300000.0 54056300000.0 83407100000.0 87656000000.0 129655000000.0 65826900000.0 76419200000.0 42142900000.0 9035750000.0 9035750000.0 109645000000.0 101814000000.0 162827000000.0 137567000000.0 153243000000.0 117935000000.0 45161700000.0 73782600000.0 25820500000.0 16210200000.0 126391000000.0 28987600000.0 119218000000.0 150883000000.0 123167000000.0 162672000000.0 101539000000.0 114776000000.0 91963900.0 18678100000.0 6225840000.0 19769900000.0 10373200000.0 94750900000.0 226075000000.0 9725690000.0 1400960000.0 13312700000.0 16311600000.0 26404100000.0 37217100000.0 51237400000.0 13445400000.0 66974800000.0 116840000000.0 133230000000.0 154754000000.0 156951000000.0 168309000000.0 151095000000.0 168139000000.0 104194000000.0 103568000000.0 57560900000.0 43128500000.0 86953900000.0 9868700000.0 132835000000.0 3989980000.0 71740400000.0 49713100000.0 31762100000.0 3736530000.0 68645700000.0 551007000.0 30392200000.0 104205000000.0 41392400000.0 20957100000.0 32540400000.0 38311200000.0 551240000.0 27546100000.0 332993000.0 15088400000.0 2694840000.0 1025440000.0 8895110000.0 83591100000.0 85471200000.0 132190000000.0 119496000000.0 140239000000.0 122706000000.0 119072000000.0 104298000000.0 94941300000.0 43471500000.0 344249000.0 51967900000.0 32307400000.0 29838900000.0 18685600000.0 13242100000.0 2547550000.0 9490960000.0 226130000000.0 94467600000.0 10214700000.0 19560500000.0 8231340000.0 19233600000.0 279193000.0 9746680000.0 9270790000.0 33391500000.0 74475900000.0 79512600000.0 111436000000.0 51872500000.0 44465000000.0 17143600000.0 2204280000.0 22768500000.0 18003900000.0 27425300000.0 19426700000.0 14780900000.0 28540200000.0 26367900000.0 8597310000.0 8959550000.0 7485080000.0 11224700000.0 61608200.0 249980000.0 44723700000.0 50762300000.0 101223000000.0 94285700000.0 123279000000.0 80556000000.0 75237000000.0 32558500000.0 9270770000.0 9746620000.0 143795000000.0 228760000000.0 208107000.0 5456200000.0 18450800000.0 1419660000.0 2815770000.0 7002090000.0 12658300000.0 79459200000.0 124015000000.0 153141000000.0 147662000000.0 147114000000.0 130942000000.0 128013000000.0 101308000000.0 50654900000.0 101874000000.0 46733600000.0 16791300000.0 51414300000.0 4146010000.0 108956000000.0 25807900000.0 43160000000.0 34973900000.0 118778000000.0 130004000000.0 132490000000.0 142208000000.0 110188000000.0 70188700000.0 14828500000.0 12100500000.0 2690960000.0 1716300000.0 19876200000.0 5834690000.0 216812000.0 229604000000.0 144390000000.0 9768540000.0 7690880000.0 25340100000.0 64802700000.0 76577300000.0 134850000000.0 228086000000.0 28085600000.0 13387800000.0 31595300000.0 8222240000.0 9241330000.0 10608400000.0 14533800000.0 69846800000.0 109592000000.0 137923000000.0 137951000000.0 142641000000.0 133035000000.0 136321000000.0 113847000000.0 123641000000.0 72587200000.0 60073700000.0 46295500000.0 21510900000.0 79650400000.0 8786710000.0 123951000000.0 7648710000.0 74734700000.0 44657500000.0 39281700000.0 8863470000.0 76616300000.0 6534060000.0 38433000000.0 95302600000.0 3506820000.0 1261470000.0 6188650000.0 8738420000.0 28004400000.0 6021450000.0 24308400000.0 3203000000.0 7946980000.0 152347000.0 7616290000.0 38199000000.0 50889900000.0 99876500000.0 92682400000.0 118281000000.0 111428000000.0 119669000000.0 118967000000.0 124890000000.0 96006600000.0 59989400000.0 15010000000.0 11669000000.0 8768140000.0 7914230000.0 33163100000.0 13282600000.0 28706200000.0 229483000000.0 135471000000.0 77414100000.0 65201400000.0 24605400000.0 7637830000.0 9753950000.0 50202700000.0 15913600000.0 9035750000.0 8132730000.0 41005100000.0 7220320000.0 15077500000.0 8835600000.0 8938020000.0 9035750000.0 9035750000.0 31297500000.0 11048400000.0 10114300000.0 24410700000.0 62106100000.0 80776100000.0 131149000000.0 213458000000.0 33692100000.0 14836500000.0 30856300000.0 9308160000.0 11567400000.0 14777500000.0 21309700000.0 67847700000.0 101679000000.0 124869000000.0 123456000000.0 126099000000.0 115891000000.0 118844000000.0 96746500000.0 104919000000.0 60860900000.0 42039300000.0 73897900000.0 115909000000.0 72023300000.0 38786900000.0 7169410000.0 75039500000.0 42470400000.0 98418400000.0 29264000000.0 27292400000.0 45376700000.0 39569000000.0 20293900000.0 15627000000.0 43421500000.0 88248600000.0 82414300000.0 106949000000.0 101540000000.0 110186000000.0 110055000000.0 116200000000.0 92393200000.0 60355800000.0 22014300000.0 15261400000.0 11540100000.0 9276800000.0 32543300000.0 14786000000.0 34456100000.0 215001000000.0 131944000000.0 81679000000.0 62464000000.0 23939100000.0 10114500000.0 11054300000.0 11576800000.0 10480000000.0 20931600000.0 54142900000.0 77300300000.0 121667000000.0 197032000000.0 40670800000.0 17675700000.0 30003600000.0 10004600000.0 12557900000.0 16376500000.0 23975800000.0 62284700000.0 90826800000.0 110641000000.0 109295000000.0 111531000000.0 101867000000.0 104663000000.0 83455600000.0 89377700000.0 53016400000.0 44932800000.0 38902600000.0 11831700000.0 68206100000.0 9035750000.0 106705000000.0 9035750000.0 71657600000.0 38763600000.0 40696400000.0 11810000000.0 75204300000.0 8464930000.0 45351900000.0 84353000000.0 23155200000.0 4987450000.0 22670700000.0 5396260000.0 42697900000.0 7425560000.0 39040800000.0 9035750000.0 21008300000.0 9035750000.0 16225700000.0 22741700000.0 34849900000.0 75446100000.0 71383100000.0 94614900000.0 90324700000.0 98787900000.0 98412100000.0 103758000000.0 83616500000.0 55708500000.0 24518000000.0 16753700000.0 12600600000.0 10027200000.0 31690300000.0 17693100000.0 41600800000.0 198564000000.0 122438000000.0 78100800000.0 54405300000.0 20596000000.0 10480500000.0 11584400000.0 12022000000.0 10786300000.0 18348100000.0 46212700000.0 72040400000.0 111419000000.0 179395000000.0 45208400000.0 19341900000.0 28201500000.0 10349700000.0 13304500000.0 17841500000.0 26329200000.0 57618000000.0 81518000000.0 98330200000.0 96874900000.0 98644000000.0 89382400000.0 91664100000.0 71790000000.0 75653600000.0 47761400000.0 41062800000.0 36564600000.0 9735170000.0 62881800000.0 9035750000.0 97929000000.0 9035750000.0 69022100000.0 34779000000.0 40048300000.0 12992400000.0 73368300000.0 8396670000.0 48285100000.0 82026600000.0 31673400000.0 9046890000.0 27812600000.0 9035750000.0 44666300000.0 9035750000.0 39043400000.0 9035750000.0 21212900000.0 9035750000.0 16702000000.0 16947600000.0 28348100000.0 64098300000.0 61593500000.0 83257200000.0 80107100000.0 88466600000.0 88050700000.0 92748900000.0 75766300000.0 51738700000.0 26844400000.0 18193900000.0 13302400000.0 10340200000.0 29754000000.0 19368500000.0 46204300000.0 180815000000.0 112139000000.0 72726400000.0 46415200000.0 18106900000.0 10787000000.0 12030800000.0 12380800000.0 11031300000.0 16558800000.0 38830600000.0 65704300000.0 100797000000.0 161727000000.0 48479100000.0 20706300000.0 26244700000.0 10587500000.0 13842900000.0 18911100000.0 27867800000.0 53205300000.0 73198800000.0 87486300000.0 86095700000.0 87618400000.0 78839700000.0 80485500000.0 62252400000.0 64436900000.0 43780400000.0 37287400000.0 34760000000.0 9144580000.0 57913300000.0 9035750000.0 89592700000.0 9035750000.0 66006200000.0 30888600000.0 39345000000.0 13859000000.0 70612000000.0 9035750000.0 50102400000.0 74438400000.0 31823600000.0 9066780000.0 27697300000.0 9035750000.0 43338200000.0 9035750000.0 38245500000.0 9035750000.0 21095900000.0 9035750000.0 17050200000.0 13413400000.0 23564100000.0 54620300000.0 53380000000.0 73289600000.0 71226600000.0 79434300000.0 78952600000.0 82929200000.0 68537200000.0 48037600000.0 28446000000.0 19304200000.0 13845300000.0 10579400000.0 27632000000.0 20748100000.0 49477900000.0 163008000000.0 101454000000.0 66281800000.0 38990500000.0 16394900000.0 11032100000.0 12390400000.0 12650700000.0 11215900000.0 15382300000.0 32294400000.0 58904000000.0 90200400000.0 144449000000.0 50472400000.0 21761400000.0 24316100000.0 10776900000.0 14262100000.0 19710000000.0 28805600000.0 49208600000.0 65984400000.0 78139100000.0 76898700000.0 78242300000.0 69960700000.0 70953600000.0 54520300000.0 55505600000.0 40148800000.0 33471900000.0 33251900000.0 9046980000.0 53271900000.0 9035750000.0 81688700000.0 9035750000.0 62689100000.0 27173100000.0 38458900000.0 14484900000.0 67610400000.0 9035750000.0 51666300000.0 69512800000.0 32706400000.0 9085460000.0 27478100000.0 9035750000.0 41652900000.0 9035750000.0 37192800000.0 9035750000.0 20824700000.0 9035750000.0 17265600000.0 11517200000.0 20155500000.0 46820800000.0 46615500000.0 64674200000.0 63588700000.0 71603600000.0 71085100000.0 74347500000.0 62114400000.0 44736800000.0 29437100000.0 20132000000.0 14268100000.0 10770200000.0 25515700000.0 21814300000.0 51417700000.0 145582000000.0 90787600000.0 59384900000.0 32421000000.0 15286100000.0 11216700000.0 12661000000.0 12830400000.0 11341500000.0 14633500000.0 26739000000.0 52106100000.0 79954900000.0 127901000000.0 51248800000.0 22495300000.0 22478800000.0 10915200000.0 14555600000.0 20232200000.0 29194900000.0 45577000000.0 59713700000.0 70086900000.0 69058900000.0 70265100000.0 62479500000.0 62853800000.0 48254100000.0 48445200000.0 36621800000.0 29771800000.0 31832500000.0 9036570000.0 48930700000.0 9035750000.0 74205600000.0 9035750000.0 59144300000.0 23740500000.0 37317400000.0 14948500000.0 64386800000.0 9035750000.0 51985600000.0 64040100000.0 32780600000.0 9102210000.0 27127800000.0 9035750000.0 39727800000.0 9035750000.0 35886900000.0 9035750000.0 20467100000.0 9035750000.0 17345800000.0 10566500000.0 17824600000.0 40455800000.0 41114700000.0 57292500000.0 57050000000.0 64820700000.0 64288300000.0 66871900000.0 56433100000.0 41757500000.0 29855900000.0 20670200000.0 14564400000.0 10910200000.0 23489000000.0 22555600000.0 52105500000.0 128881000000.0 80466900000.0 52502400000.0 26838400000.0 14592200000.0 11342300000.0 12841000000.0 12919700000.0 11409200000.0 14163400000.0 22184700000.0 45633300000.0 70295900000.0 112331000000.0 50939800000.0 22901900000.0 20760300000.0 11001300000.0 14719800000.0 20478600000.0 29091000000.0 42235600000.0 54211400000.0 63109300000.0 62328400000.0 63419100000.0 56125800000.0 55950900000.0 43125100000.0 42819600000.0 33226800000.0 26330500000.0 30362300000.0 9035800000.0 44863100000.0 9035750000.0 67132900000.0 9035750000.0 55431100000.0 20682600000.0 35914400000.0 15262900000.0 60948000000.0 9035750000.0 51625000000.0 58871200000.0 32521600000.0 9116370000.0 26606900000.0 9035750000.0 37659700000.0 9035750000.0 34351200000.0 9035750000.0 20035400000.0 9035750000.0 17289000000.0 10055900000.0 16240600000.0 35314300000.0 36646900000.0 50976900000.0 51427000000.0 58895600000.0 58374100000.0 60338700000.0 51385500000.0 39008400000.0 29758700000.0 20920800000.0 14730700000.0 10998400000.0 21588100000.0 22966200000.0 51692100000.0 113162000000.0 70732800000.0 45955700000.0 22261900000.0 14163100000.0 11409900000.0 12930400000.0 12920500000.0 11420600000.0 13853100000.0 18574400000.0 39686700000.0 61377300000.0 97905200000.0 49700600000.0 22981900000.0 19172800000.0 11035900000.0 14753700000.0 20456900000.0 28552900000.0 39106000000.0 49307300000.0 56985100000.0 56457900000.0 57441700000.0 50644400000.0 50014200000.0 38843800000.0 38242800000.0 30030200000.0 23234100000.0 28784100000.0 9035750000.0 41038400000.0 9035750000.0 60461000000.0 9035750000.0 51593700000.0 18052400000.0 34273400000.0 15409200000.0 57293700000.0 9035750000.0 50575700000.0 53939600000.0 31921200000.0 9127400000.0 25886100000.0 9035750000.0 35503200000.0 9035750000.0 32619600000.0 9035750000.0 19522300000.0 9035750000.0 17095000000.0 9733140000.0 15096000000.0 31183900000.0 32974600000.0 45544900000.0 46532100000.0 53635200000.0 53146900000.0 54569400000.0 46847000000.0 36406100000.0 29204000000.0 20891900000.0 14766100000.0 11034700000.0 19831100000.0 23047500000.0 50344500000.0 98597700000.0 61743500000.0 39945800000.0 18633400000.0 13879800000.0 11421300000.0 12931100000.0 12836200000.0 11377600000.0 13601800000.0 15801900000.0 34372200000.0 53280300000.0 84715100000.0 47677400000.0 22742600000.0 17718500000.0 11020300000.0 14659000000.0 20179900000.0 27640600000.0 36121100000.0 44849500000.0 51509100000.0 51217700000.0 52095900000.0 45808400000.0 44831100000.0 35170300000.0 34401600000.0 27075800000.0 20520200000.0 27095800000.0 9035750000.0 37424800000.0 9035750000.0 54179200000.0 9035750000.0 47664700000.0 15860100000.0 32425700000.0 15374200000.0 53427700000.0 9035750000.0 48857200000.0 49172300000.0 30981600000.0 9134890000.0 24957800000.0 9035750000.0 33275700000.0 9035750000.0 30724800000.0 9035750000.0 18915700000.0 9035750000.0 16767000000.0 9504510000.0 14182100000.0 27840700000.0 29884000000.0 40817700000.0 42189400000.0 48861100000.0 48422300000.0 49388400000.0 42695800000.0 33883400000.0 28251900000.0 20597400000.0 14672400000.0 11020300000.0 18226900000.0 22807300000.0 48216900000.0 85284500000.0 53582100000.0 34577900000.0 15846000000.0 13642300000.0 11378300000.0 12846500000.0 12671500000.0 11283000000.0 13336000000.0 13736900000.0 29722200000.0 46024900000.0 72783600000.0 44999300000.0 22197800000.0 16394600000.0 10956600000.0 14440200000.0 19664800000.0 26410600000.0 33227700000.0 40707300000.0 46499400000.0 46410400000.0 47182800000.0 41426500000.0 40214900000.0 31912600000.0 31058700000.0 24378800000.0 18191100000.0 25317900000.0 9035750000.0 33992000000.0 9035750000.0 48272700000.0 9035750000.0 43668500000.0 14083600000.0 30400600000.0 15161800000.0 49358500000.0 9035750000.0 44511500000.0 29709100000.0 9138550000.0 23830900000.0 9035750000.0 30977500000.0 9035750000.0 28694700000.0 9035750000.0 18207300000.0 9035750000.0 16311900000.0 9339130000.0 13394800000.0 25073300000.0 27199400000.0 36631500000.0 38243800000.0 44418300000.0 44038900000.0 44636300000.0 38823000000.0 31390400000.0 26961800000.0 20055900000.0 14454000000.0 10957400000.0 16777200000.0 22259800000.0 45443400000.0 73246900000.0 46269800000.0 29883800000.0 13769200000.0 13380600000.0 11283600000.0 12681200000.0 46506800000.0 12431700000.0 11140000000.0 13016800000.0 12243300000.0 25716700000.0 39585300000.0 62076600000.0 41780500000.0 21366400000.0 15195800000.0 10847500000.0 14104000000.0 18932000000.0 24913200000.0 30384100000.0 36774700000.0 41804000000.0 41875200000.0 42541800000.0 37345200000.0 36008400000.0 28924200000.0 28043800000.0 21933600000.0 16226700000.0 23474400000.0 9035750000.0 30712800000.0 9035750000.0 42721500000.0 9035750000.0 39623700000.0 12682200000.0 28222900000.0 14788200000.0 45097400000.0 9035750000.0 43568400000.0 39938500000.0 28116200000.0 9138250000.0 22521700000.0 9035750000.0 28605500000.0 9035750000.0 26554100000.0 9035750000.0 17395500000.0 9035750000.0 15738900000.0 9223020000.0 12694200000.0 22704100000.0 24783800000.0 32844200000.0 34565800000.0 40179900000.0 39863700000.0 40177000000.0 35137300000.0 28892300000.0 25390700000.0 19289800000.0 14117500000.0 10848700000.0 15477500000.0 21424000000.0 42141000000.0 62449700000.0 39781200000.0 25842600000.0 12266400000.0 13060000000.0 11140600000.0 12440600000.0 12123200000.0 10952800000.0 12632100000.0 11191400000.0 22301700000.0 33903100000.0 52514400000.0 38122500000.0 20272100000.0 14114200000.0 10696400000.0 13659100000.0 18004300000.0 23192400000.0 27559900000.0 32970600000.0 37302700000.0 37487300000.0 38049400000.0 33446100000.0 32085100000.0 26102000000.0 25240200000.0 19721500000.0 14593500000.0 21585900000.0 9035750000.0 27562900000.0 9035750000.0 37499200000.0 9035750000.0 35545500000.0 11605400000.0 25912900000.0 14275200000.0 40657800000.0 9035750000.0 35461800000.0 26223000000.0 9134030000.0 21049200000.0 9035750000.0 26159200000.0 9035750000.0 24326400000.0 9035750000.0 16485300000.0 9035750000.0 15059500000.0 9145360000.0 12064800000.0 20597400000.0 22534900000.0 29338200000.0 31053000000.0 36047300000.0 35793300000.0 35900700000.0 31566800000.0 26365200000.0 23590400000.0 18323000000.0 13671900000.0 10697700000.0 14317700000.0 20324200000.0 38410900000.0 52811100000.0 34057600000.0 22398700000.0 11207800000.0 12671300000.0 10953400000.0 12131200000.0 40091400000.0 11753200000.0 10725900000.0 12184300000.0 10466700000.0 19403100000.0 28896900000.0 43983200000.0 34114800000.0 18942800000.0 13139000000.0 10507100000.0 13116400000.0 16905700000.0 21286700000.0 24734300000.0 29237100000.0 32905800000.0 33156100000.0 33616900000.0 29643800000.0 28347500000.0 23378400000.0 22571000000.0 17716000000.0 13250200000.0 19668000000.0 9035750000.0 24521000000.0 9035750000.0 32573200000.0 9035750000.0 31446700000.0 10799300000.0 23489300000.0 13645400000.0 36055400000.0 9035750000.0 36132000000.0 31095900000.0 24055800000.0 9126040000.0 19433700000.0 9035750000.0 23641700000.0 9035750000.0 22033200000.0 9035750000.0 15485700000.0 9035750000.0 14286400000.0 9096180000.0 11496800000.0 18656600000.0 20381800000.0 26020100000.0 27628500000.0 31948900000.0 31752400000.0 31723500000.0 28058800000.0 23794400000.0 21606300000.0 17181000000.0 13128000000.0 10508500000.0 13283300000.0 18988300000.0 34341900000.0 44215400000.0 29016800000.0 19477200000.0 10478000000.0 12218400000.0 10726400000.0 11760200000.0 11681400000.0 9973970000.0 16938000000.0 24724200000.0 20710200000.0 19989400000.0 15887000000.0 12152000000.0 9035750000.0 9035750000.0 9035750000.0 10210300000.0 12920600000.0 9035750000.0 26848000000.0 9114610000.0 9035750000.0 9035750000.0 9035750000.0 9035750000.0 9066830000.0 10980100000.0 16815700000.0 18278700000.0 22819500000.0 16993400000.0 9981520000.0 11709900000.0 11329700000.0 10464400000.0 24471100000.0 36346100000.0 29836000000.0 17409600000.0 12256900000.0 10284500000.0 12488200000.0 15661300000.0 19231000000.0 21894900000.0 25535500000.0 28551300000.0 28822500000.0 29186600000.0 25880700000.0 17732100000.0 21567400000.0 27904300000.0 27337400000.0 20969800000.0 31308900000.0 31752600000.0 21647000000.0 17695700000.0 21059200000.0 19693400000.0 14408800000.0 13433000000.0 24239200000.0 27837400000.0 27691800000.0 27586500000.0 24577600000.0 21173600000.0 19477600000.0 15889700000.0 12498200000.0 10285700000.0 12356900000.0 17447700000.0 30010500000.0 36523300000.0 24561900000.0 10464800000.0 11335500000.0 10861500000.0 10174000000.0 11133400000.0 9638850000.0 14820600000.0 20521500000.0 29450600000.0 25353500000.0 15706500000.0 11452600000.0 10033800000.0 11788300000.0 14296900000.0 17057100000.0 19036000000.0 21842000000.0 24200400000.0 24453200000.0 24726700000.0 22122500000.0 21165900000.0 18071500000.0 17469200000.0 14202300000.0 11252500000.0 15785700000.0 9035750000.0 18684100000.0 9035750000.0 23449000000.0 9035750000.0 23225200000.0 9788920000.0 18371700000.0 12121000000.0 26439900000.0 9035750000.0 27021700000.0 22714000000.0 19033300000.0 9100180000.0 15856400000.0 9035750000.0 18420500000.0 9035750000.0 17322800000.0 9035750000.0 13268000000.0 9035750000.0 12513500000.0 9050460000.0 10504100000.0 15032200000.0 16198000000.0 19686700000.0 20852100000.0 23687000000.0 23584700000.0 23452300000.0 21101200000.0 18504300000.0 17238300000.0 14476100000.0 11796400000.0 10034800000.0 11519900000.0 15736700000.0 25482200000.0 29580500000.0 20587800000.0 14860700000.0 9643690000.0 11155800000.0 10174300000.0 10866100000.0 10357900000.0 9860690000.0 10550400000.0 9405730000.0 12966900000.0 16941000000.0 23135300000.0 20724500000.0 13869600000.0 10709600000.0 9760720000.0 11031600000.0 12839000000.0 14794600000.0 16157200000.0 18144000000.0 19833100000.0 20035800000.0 20224800000.0 18351900000.0 17641100000.0 15448100000.0 14994600000.0 12629300000.0 10505700000.0 13833800000.0 9035750000.0 15854400000.0 9035750000.0 19160400000.0 9035750000.0 19114300000.0 9490240000.0 15712000000.0 11265400000.0 21472500000.0 9035750000.0 22012400000.0 18679100000.0 16256000000.0 9083300000.0 13937600000.0 9035750000.0 15736200000.0 9035750000.0 14933200000.0 9035750000.0 12077400000.0 9035750000.0 11542600000.0 9042050000.0 10058600000.0 13280300000.0 14124700000.0 16589100000.0 17450800000.0 19489200000.0 19422600000.0 19301700000.0 17618600000.0 15793600000.0 14917500000.0 12967300000.0 11037500000.0 9761420000.0 10752300000.0 13891300000.0 20812600000.0 23223600000.0 16985900000.0 12994100000.0 9408640000.0 10566400000.0 9860910000.0 10361200000.0 9828800000.0 9530820000.0 9942490000.0 9234260000.0 11296600000.0 13621300000.0 17233500000.0 15997300000.0 11936400000.0 10010700000.0 9471460000.0 10233900000.0 11314400000.0 12470600000.0 13261900000.0 14437200000.0 15444000000.0 15573200000.0 15683000000.0 14564100000.0 14131100000.0 12832600000.0 12553300000.0 11135100000.0 9866340000.0 11879300000.0 9035750000.0 13061800000.0 9035750000.0 14990100000.0 9035750000.0 15006000000.0 9274630000.0 13008300000.0 10371100000.0 16432800000.0 9035750000.0 16801800000.0 14719800000.0 13359500000.0 9064620000.0 11961800000.0 9035750000.0 13018600000.0 9035750000.0 12533200000.0 9035750000.0 10851300000.0 9035750000.0 10534900000.0 9038110000.0 9634040000.0 11545400000.0 12051800000.0 13507300000.0 14030800000.0 15248100000.0 15211200000.0 15129100000.0 14126100000.0 13051900000.0 12541200000.0 11390800000.0 10237500000.0 9471880000.0 10034000000.0 11949400000.0 16048200000.0 17284300000.0 13647100000.0 11312200000.0 9235780000.0 9952050000.0 9530950000.0 9830790000.0 9284460000.0 9191040000.0 9319910000.0 9095120000.0 9733120000.0 10455200000.0 11576000000.0 11213400000.0 9945620000.0 9338030000.0 9172500000.0 9411630000.0 9750080000.0 10110800000.0 10355800000.0 10722500000.0 11037500000.0 11078900000.0 11112900000.0 10762500000.0 10625900000.0 10220700000.0 10132300000.0 9687450000.0 9290090000.0 9923450000.0 9035750000.0 10290800000.0 9035750000.0 10889100000.0 9035750000.0 10899400000.0 9106550000.0 10277800000.0 9454330000.0 11348300000.0 9035750000.0 11469400000.0 10806600000.0 10390900000.0 9044850000.0 9951730000.0 9035750000.0 10280600000.0 9035750000.0 10127900000.0 9035750000.0 9604080000.0 9035750000.0 9505390000.0 9036320000.0 9221540000.0 9818570000.0 9977390000.0 10431100000.0 10596100000.0 10977200000.0 10966000000.0 10939100000.0 10625400000.0 10290900000.0 10132500000.0 9773970000.0 9412750000.0 9172630000.0 9345070000.0 9949690000.0 11229200000.0 11591700000.0 10463200000.0 9737920000.0 9095570000.0 9322910000.0 9191080000.0 9285090000.0 