# vtk DataFile Version 2.0
Time step 72
ASCII
DATASET UNSTRUCTURED_GRID
POINTS 5000 float
198517.0 206437.0 0
204091.0 205314.0 0
210987.0 205088.0 0
220593.0 203348.0 0
229114.0 203225.0 0
234095.0 202214.0 0
232866.0 205368.0 0
237562.0 205046.0 0
243368.0 205001.0 0
256176.0 205510.0 0
272854.0 203595.0 0
278896.0 201653.0 0
288291.0 205314.0 0
299624.0 206002.0 0
197186.0 211487.0 0
202094.0 209320.0 0
204372.0 211349.0 0
207278.0 209185.0 0
216200.0 207525.0 0
221666.0 208731.0 0
225877.0 206325.0 0
229733.0 207941.0 0
234338.0 209658.0 0
239574.0 210088.0 0
244780.0 210452.0 0
249881.0 206392.0 0
259262.0 209153.0 0
262777.0 206573.0 0
265065.0 210184.0 0
267822.0 206128.0 0
272403.0 208113.0 0
276909.0 207464.0 0
282598.0 206563.0 0
283969.0 210504.0 0
287169.0 209995.0 0
290975.0 210466.0 0
294292.0 206982.0 0
301496.0 211027.0 0
195871.0 216764.0 0
201578.0 213735.0 0
206818.0 214328.0 0
212022.0 211102.0 0
216782.0 212482.0 0
221660.0 214519.0 0
226415.0 211230.0 0
230935.0 213232.0 0
235393.0 214656.0 0
240725.0 215452.0 0
248186.0 214323.0 0
251379.0 211572.0 0
255382.0 211336.0 0
252922.0 215429.0 0
257717.0 215608.0 0
261647.0 212796.0 0
269586.0 210982.0 0
266361.0 214960.0 0
274352.0 212132.0 0
270990.0 214928.0 0
280380.0 210943.0 0
278296.0 214498.0 0
283506.0 214374.0 0
288483.0 213997.0 0
296132.0 212638.0 0
292503.0 215373.0 0
300485.0 216157.0 0
306001.0 216182.0 0
192909.0 220718.0 0
201129.0 218805.0 0
206955.0 220288.0 0
211810.0 216486.0 0
216889.0 217036.0 0
220972.0 220212.0 0
227078.0 216380.0 0
225258.0 220051.0 0
231852.0 217421.0 0
233465.0 220866.0 0
236930.0 218996.0 0
250173.0 219476.0 0
245319.0 218319.0 0
254996.0 219791.0 0
261964.0 217112.0 0
265572.0 220995.0 0
270275.0 218694.0 0
274649.0 217300.0 0
272786.0 220772.0 0
280561.0 218974.0 0
286565.0 218787.0 0
291528.0 219117.0 0
296101.0 218085.0 0
297597.0 222155.0 0
196273.0 223990.0 0
201994.0 224202.0 0
209262.0 225647.0 0
214256.0 222101.0 0
219437.0 225379.0 0
225002.0 224301.0 0
229178.0 221015.0 0
232053.0 225197.0 0
236582.0 223251.0 0
241255.0 221609.0 0
246703.0 223210.0 0
251640.0 224174.0 0
259686.0 221057.0 0
256262.0 223752.0 0
270494.0 223061.0 0
276133.0 221626.0 0
274131.0 225384.0 0
280308.0 225331.0 0
285307.0 223265.0 0
289756.0 223220.0 0
294002.0 222304.0 0
298347.0 225716.0 0
303019.0 222663.0 0
193828.0 228440.0 0
197867.0 229105.0 0
203021.0 230091.0 0
209258.0 231134.0 0
214105.0 228047.0 0
218648.0 229919.0 0
228165.0 227977.0 0
223641.0 229686.0 0
231496.0 229451.0 0
237013.0 228559.0 0
244048.0 225992.0 0
241037.0 225999.0 0
242959.0 229964.0 0
246851.0 227558.0 0
254846.0 227566.0 0
250564.0 228666.0 0
260357.0 226380.0 0
257761.0 230876.0 0
266902.0 227363.0 0
272230.0 229414.0 0
276648.0 229349.0 0
280259.0 230170.0 0
285549.0 226977.0 0
283192.0 229287.0 0
286897.0 231047.0 0
289868.0 227536.0 0
294267.0 226604.0 0
292562.0 230926.0 0
301205.0 227929.0 0
297772.0 231028.0 0
305688.0 228326.0 0
302829.0 231859.0 0
195607.0 232857.0 0
195442.0 237132.0 0
199902.0 234801.0 0
205688.0 234419.0 0
209637.0 236669.0 0
214981.0 233961.0 0
220701.0 233160.0 0
228741.0 231855.0 0
224921.0 234875.0 0
233505.0 233047.0 0
229755.0 235904.0 0
239221.0 234370.0 0
247464.0 231203.0 0
244853.0 234896.0 0
249448.0 234452.0 0
253326.0 232352.0 0
258478.0 235981.0 0
262552.0 231801.0 0
267267.0 232934.0 0
270821.0 232696.0 0
274865.0 233613.0 0
278643.0 232398.0 0
282509.0 232519.0 0
285332.0 235995.0 0
289982.0 234595.0 0
294615.0 235443.0 0
300451.0 235065.0 0
304807.0 235126.0 0
194579.0 240662.0 0
198761.0 239015.0 0
203601.0 238552.0 0
210027.0 240871.0 0
214935.0 240042.0 0
220034.0 237327.0 0
224500.0 239743.0 0
234884.0 237931.0 0
239298.0 239562.0 0
243710.0 239638.0 0
248143.0 238622.0 0
253059.0 237557.0 0
264514.0 236897.0 0
261084.0 239789.0 0
270339.0 236946.0 0
265012.0 241419.0 0
275351.0 238060.0 0
279843.0 236215.0 0
278541.0 241011.0 0
282977.0 239892.0 0
289676.0 239492.0 0
298229.0 238756.0 0
302784.0 239897.0 0
305928.0 238083.0 0
196541.0 244183.0 0
200634.0 242335.0 0
206178.0 243268.0 0
212107.0 243393.0 0
215842.0 245605.0 0
220188.0 242394.0 0
225112.0 244507.0 0
230226.0 241169.0 0
233195.0 245432.0 0
236119.0 242728.0 0
241313.0 244174.0 0
246485.0 242104.0 0
246189.0 245704.0 0
251171.0 243193.0 0
256700.0 241449.0 0
261265.0 243994.0 0
269414.0 241935.0 0
266545.0 246237.0 0
274077.0 241996.0 0
276965.0 245810.0 0
286062.0 242519.0 0
281894.0 244320.0 0
294559.0 242447.0 0
289536.0 244004.0 0
299746.0 243040.0 0
303782.0 245024.0 0
200831.0 246769.0 0
201750.0 250735.0 0
205597.0 247787.0 0
204922.0 251222.0 0
208494.0 250902.0 0
210368.0 246905.0 0
213754.0 248698.0 0
216978.0 251089.0 0
221136.0 247597.0 0
226517.0 249836.0 0
229254.0 246272.0 0
231867.0 249455.0 0
237019.0 248153.0 0
242037.0 249275.0 0
246172.0 249840.0 0
250307.0 248650.0 0
256357.0 248024.0 0
262243.0 248632.0 0
269875.0 249921.0 0
272105.0 246169.0 0
274920.0 250884.0 0
280722.0 249389.0 0
286083.0 247209.0 0
292403.0 248004.0 0
299228.0 247663.0 0
202585.0 254647.0 0
206634.0 254214.0 0
212314.0 251253.0 0
210458.0 254574.0 0
214494.0 255055.0 0
218594.0 256124.0 0
222337.0 252829.0 0
226730.0 254732.0 0
229880.0 252746.0 0
234503.0 253119.0 0
239020.0 253112.0 0
244070.0 254093.0 0
248934.0 253341.0 0
252932.0 252401.0 0
257046.0 255108.0 0
260788.0 252151.0 0
265550.0 251935.0 0
262439.0 255873.0 0
270560.0 254193.0 0
266438.0 256270.0 0
278835.0 254121.0 0
283187.0 252714.0 0
285413.0 255463.0 0
282330.0 256139.0 0
287702.0 251823.0 0
291790.0 253356.0 0
296454.0 252778.0 0
202989.0 259405.0 0
207872.0 258273.0 0
212520.0 258759.0 0
216182.0 258776.0 0
222920.0 257670.0 0
219483.0 260534.0 0
227242.0 259338.0 0
231216.0 256499.0 0
231686.0 261431.0 0
236476.0 258290.0 0
240654.0 256787.0 0
243824.0 258808.0 0
240810.0 259919.0 0
247661.0 257664.0 0
246477.0 261051.0 0
251980.0 257041.0 0
250120.0 261456.0 0
260043.0 259329.0 0
255367.0 261405.0 0
264665.0 260836.0 0
269661.0 258793.0 0
274563.0 257075.0 0
279582.0 259487.0 0
285136.0 260223.0 0
289369.0 256811.0 0
293475.0 257656.0 0
297442.0 257854.0 0
202603.0 264673.0 0
206263.0 262923.0 0
210468.0 263065.0 0
215577.0 263445.0 0
223331.0 262333.0 0
220139.0 265319.0 0
224281.0 266360.0 0
227575.0 264177.0 0
231455.0 266625.0 0
235694.0 263859.0 0
239707.0 263020.0 0
243301.0 262419.0 0
242250.0 266475.0 0
246751.0 265202.0 0
251915.0 266456.0 0
260263.0 263548.0 0
263430.0 265394.0 0
268629.0 262365.0 0
266917.0 265457.0 0
272412.0 261807.0 0
270813.0 265638.0 0
275068.0 265883.0 0
275902.0 261738.0 0
278215.0 263860.0 0
281941.0 264254.0 0
290572.0 261900.0 0
286593.0 266055.0 0
292049.0 266720.0 0
296276.0 262927.0 0
202759.0 269046.0 0
207292.0 267458.0 0
211977.0 267406.0 0
209605.0 270521.0 0
212947.0 270914.0 0
216731.0 268866.0 0
221928.0 269907.0 0
227622.0 269436.0 0
232866.0 271820.0 0
235281.0 268151.0 0
238693.0 267349.0 0
237110.0 270999.0 0
244617.0 269773.0 0
240629.0 271063.0 0
248403.0 269598.0 0
254800.0 270349.0 0
257036.0 266797.0 0
257990.0 271293.0 0
260934.0 268338.0 0
265249.0 269486.0 0
268813.0 268767.0 0
272355.0 269360.0 0
279084.0 267480.0 0
276241.0 270288.0 0
280334.0 271416.0 0
282629.0 268229.0 0
284507.0 271433.0 0
288731.0 269929.0 0
292603.0 271165.0 0
297030.0 268430.0 0
201526.0 272555.0 0
201983.0 275451.0 0
205925.0 272590.0 0
204957.0 276383.0 0
207884.0 276254.0 0
210773.0 274382.0 0
218950.0 272914.0 0
215415.0 273704.0 0
222141.0 275200.0 0
225142.0 273102.0 0
229284.0 274442.0 0
233442.0 276457.0 0
237291.0 274887.0 0
243493.0 273515.0 0
240988.0 274976.0 0
246896.0 273336.0 0
248853.0 276642.0 0
251379.0 272544.0 0
252900.0 276704.0 0
255448.0 274035.0 0
258728.0 275082.0 0
261389.0 272398.0 0
264929.0 273678.0 0
262107.0 276759.0 0
269302.0 273034.0 0
273669.0 272482.0 0
273051.0 275553.0 0
277067.0 274765.0 0
281272.0 275326.0 0
284508.0 275228.0 0
288571.0 274307.0 0
292595.0 275974.0 0
296726.0 273738.0 0
202703.0 279622.0 0
206833.0 279377.0 0
210729.0 279400.0 0
213812.0 281646.0 0
214349.0 277476.0 0
218720.0 277355.0 0
216742.0 280747.0 0
222580.0 279406.0 0
219985.0 282000.0 0
225784.0 277177.0 0
226682.0 281523.0 0
229898.0 278719.0 0
233035.0 280423.0 0
236408.0 279471.0 0
244404.0 277118.0 0
240297.0 278442.0 0
243029.0 281435.0 0
247091.0 280597.0 0
251053.0 279955.0 0
254287.0 279998.0 0
256325.0 277848.0 0
259340.0 279112.0 0
263013.0 281507.0 0
266222.0 277421.0 0
270210.0 278165.0 0
267377.0 281068.0 0
274422.0 279247.0 0
278441.0 279029.0 0
282804.0 279505.0 0
286487.0 278046.0 0
290208.0 279634.0 0
286746.0 281983.0 0
293483.0 279116.0 0
296928.0 278947.0 0
202118.0 284080.0 0
205246.0 282800.0 0
208705.0 283318.0 0
205488.0 286118.0 0
209115.0 286896.0 0
212048.0 284048.0 0
216573.0 285232.0 0
223399.0 283829.0 0
220567.0 285500.0 0
227535.0 286101.0 0
230577.0 282962.0 0
234468.0 283786.0 0
231192.0 285853.0 0
238895.0 283208.0 0
242471.0 284990.0 0
249868.0 283488.0 0
245957.0 284761.0 0
249248.0 286878.0 0
253022.0 282821.0 0
253575.0 287015.0 0
257345.0 282955.0 0
261168.0 285749.0 0
264783.0 286978.0 0
266547.0 284211.0 0
268818.0 287362.0 0
271006.0 282810.0 0
273458.0 286680.0 0
275775.0 283010.0 0
280035.0 283745.0 0
277375.0 287162.0 0
284114.0 283419.0 0
283467.0 287057.0 0
290085.0 283993.0 0
286874.0 285787.0 0
293833.0 282444.0 0
293681.0 286681.0 0
297691.0 283529.0 0
297750.0 287110.0 0
197272.0 291227.0 0
202269.0 287879.0 0
203091.0 292181.0 0
206311.0 289314.0 0
212776.0 287665.0 0
209829.0 290177.0 0
212737.0 291166.0 0
216632.0 290413.0 0
223551.0 287405.0 0
220154.0 288807.0 0
222518.0 291191.0 0
226121.0 290492.0 0
233454.0 287397.0 0
230527.0 290091.0 0
234633.0 291117.0 0
236793.0 287358.0 0
238335.0 291209.0 0
240454.0 287593.0 0
243979.0 287986.0 0
242109.0 291335.0 0
246756.0 288516.0 0
245820.0 291489.0 0
250098.0 291297.0 0
254667.0 292106.0 0
257717.0 288551.0 0
261809.0 290159.0 0
265578.0 290595.0 0
268695.0 291357.0 0
271842.0 290553.0 0
280339.0 288224.0 0
275805.0 290460.0 0
279303.0 291504.0 0
282792.0 290148.0 0
289831.0 287919.0 0
286456.0 290128.0 0
294994.0 290559.0 0
291078.0 291503.0 0
298393.0 290021.0 0
202008.0 296033.0 0
207747.0 293189.0 0
205877.0 296690.0 0
211594.0 294296.0 0
215726.0 294919.0 0
220196.0 294216.0 0
224502.0 294651.0 0
228492.0 294385.0 0
226476.0 297291.0 0
232280.0 294480.0 0
236126.0 294945.0 0
244093.0 294725.0 0
240126.0 295500.0 0
247462.0 295346.0 0
251596.0 295567.0 0
254747.0 296558.0 0
258736.0 292503.0 0
256666.0 294882.0 0
259019.0 296449.0 0
262611.0 294509.0 0
266815.0 294620.0 0
274053.0 293526.0 0
270642.0 294404.0 0
273664.0 297259.0 0
276821.0 294391.0 0
279911.0 295902.0 0
277015.0 297007.0 0
283079.0 293543.0 0
287021.0 294576.0 0
294811.0 294184.0 0
291379.0 296200.0 0
297906.0 292903.0 0
297988.0 295920.0 0
202886.0 299825.0 0
207429.0 300975.0 0
210239.0 298000.0 0
214426.0 298659.0 0
218529.0 298031.0 0
216793.0 301775.0 0
222759.0 298206.0 0
220330.0 300679.0 0
222511.0 302447.0 0
226695.0 301630.0 0
230140.0 298096.0 0
234202.0 298396.0 0
232019.0 301716.0 0
238050.0 298939.0 0
235707.0 302251.0 0
239352.0 302122.0 0
243543.0 299622.0 0
248863.0 299329.0 0
252680.0 298876.0 0
256667.0 300283.0 0
261580.0 298887.0 0
260829.0 302425.0 0
263883.0 301700.0 0
265246.0 298396.0 0
269492.0 298206.0 0
267583.0 301919.0 0
272562.0 302405.0 0
279232.0 299178.0 0
276375.0 299676.0 0
283417.0 298327.0 0
281087.0 301861.0 0
287563.0 299445.0 0
295163.0 297845.0 0
292488.0 300735.0 0
297918.0 299150.0 0
296896.0 302697.0 0
202251.0 303539.0 0
203079.0 307435.0 0
205442.0 303735.0 0
208516.0 306223.0 0
212106.0 302898.0 0
212638.0 306894.0 0
215987.0 305984.0 0
219753.0 304308.0 0
223299.0 305547.0 0
226772.0 307154.0 0
230588.0 305039.0 0
234499.0 306187.0 0
238348.0 305471.0 0
242585.0 304891.0 0
246949.0 303389.0 0
245649.0 306758.0 0
248812.0 306547.0 0
251749.0 302897.0 0
252380.0 307568.0 0
256724.0 305820.0 0
261409.0 306271.0 0
264965.0 305269.0 0
269434.0 306619.0 0
274968.0 307287.0 0
277308.0 302952.0 0
280058.0 306833.0 0
284707.0 303373.0 0
284439.0 307546.0 0
288880.0 302833.0 0
288146.0 306897.0 0
292189.0 304838.0 0
294991.0 306601.0 0
298160.0 306399.0 0
302750.0 304960.0 0
202948.0 311693.0 0
207040.0 310389.0 0
214144.0 309115.0 0
211092.0 309764.0 0
212160.0 312888.0 0
217091.0 309268.0 0
215794.0 312175.0 0
220323.0 308202.0 0
224052.0 309718.0 0
220444.0 312941.0 0
228075.0 311382.0 0
230780.0 308929.0 0
233670.0 310789.0 0
237181.0 309193.0 0
236848.0 312641.0 0
240159.0 308421.0 0
243277.0 309195.0 0
240436.0 312467.0 0
246667.0 309842.0 0
249786.0 310839.0 0
253981.0 311242.0 0
257827.0 310760.0 0
261882.0 310056.0 0
265752.0 309711.0 0
269520.0 311385.0 0
271849.0 309189.0 0
273709.0 312220.0 0
277561.0 311191.0 0
282236.0 311431.0 0
287554.0 312242.0 0
292169.0 309192.0 0
296746.0 310244.0 0
304194.0 310730.0 0
201536.0 314797.0 0
202484.0 317565.0 0
208290.0 313657.0 0
204856.0 314573.0 0
206451.0 317856.0 0
210398.0 316574.0 0
213797.0 316080.0 0
216999.0 316111.0 0
220042.0 317339.0 0
223295.0 317710.0 0
225074.0 313877.0 0
228122.0 315179.0 0
231089.0 313741.0 0
230354.0 317386.0 0
234643.0 315567.0 0
238649.0 316484.0 0
244516.0 313148.0 0
242222.0 316441.0 0
248415.0 314348.0 0
245878.0 317498.0 0
249787.0 317749.0 0
252247.0 314742.0 0
259173.0 314373.0 0
255768.0 314736.0 0
257417.0 317884.0 0
262333.0 313441.0 0
262007.0 317523.0 0
266312.0 314713.0 0
270725.0 315693.0 0
273536.0 316764.0 0
275635.0 315131.0 0
279649.0 315549.0 0
284300.0 316251.0 0
288194.0 317709.0 0
292838.0 314086.0 0
297781.0 313966.0 0
297324.0 317213.0 0
197681.0 322891.0 0
202381.0 320877.0 0
205377.0 320882.0 0
207694.0 322093.0 0
212861.0 319406.0 0
209241.0 320046.0 0
210861.0 322428.0 0
216512.0 319239.0 0
219242.0 319862.0 0
215004.0 322694.0 0
218512.0 322495.0 0
222476.0 321541.0 0
227021.0 318358.0 0
226485.0 322053.0 0
233179.0 318625.0 0
230318.0 321070.0 0
234202.0 321959.0 0
236027.0 318808.0 0
238614.0 320529.0 0
241116.0 318930.0 0
243770.0 320793.0 0
241183.0 323394.0 0
248557.0 320939.0 0
253212.0 318433.0 0
251888.0 321900.0 0
255634.0 321797.0 0
260146.0 321583.0 0
264827.0 318967.0 0
263985.0 321117.0 0
267004.0 318624.0 0
269514.0 318892.0 0
266646.0 321437.0 0
269675.0 322113.0 0
272669.0 319744.0 0
276123.0 319197.0 0
279829.0 319924.0 0
277038.0 323130.0 0
283278.0 319578.0 0
286337.0 321937.0 0
289895.0 321352.0 0
292807.0 318607.0 0
294734.0 321971.0 0
291925.0 322928.0 0
297948.0 320290.0 0
202287.0 324103.0 0
202327.0 327204.0 0
205471.0 323921.0 0
208758.0 324278.0 0
206227.0 326980.0 0
211930.0 325059.0 0
209903.0 327662.0 0
214416.0 326695.0 0
217284.0 325784.0 0
220248.0 324802.0 0
223911.0 325381.0 0
220934.0 327479.0 0
229319.0 324196.0 0
227312.0 326647.0 0
232263.0 325171.0 0
237241.0 324156.0 0
235272.0 326917.0 0
239486.0 327260.0 0
243639.0 326720.0 0
245463.0 323781.0 0
248377.0 324523.0 0
247827.0 328367.0 0
251118.0 324607.0 0
254629.0 325892.0 0
251212.0 327943.0 0
257850.0 324439.0 0
257939.0 327606.0 0
263942.0 324722.0 0
260354.0 325755.0 0
261337.0 328338.0 0
267327.0 324441.0 0
270253.0 325272.0 0
267804.0 327255.0 0
273194.0 323421.0 0
273173.0 327132.0 0
276637.0 327048.0 0
279750.0 327561.0 0
281601.0 323971.0 0
285796.0 326500.0 0
290030.0 325712.0 0
294141.0 325772.0 0
297985.0 323476.0 0
297540.0 326354.0 0
202666.0 330464.0 0
206158.0 330413.0 0
213772.0 329824.0 0
209926.0 332094.0 0
218190.0 328722.0 0
216296.0 333202.0 0
223770.0 329846.0 0
220418.0 331623.0 0
227797.0 330786.0 0
230947.0 329009.0 0
231948.0 333093.0 0
234626.0 332189.0 0
234403.0 329747.0 0
237035.0 329560.0 0
238111.0 333505.0 0
240324.0 330080.0 0
243220.0 330478.0 0
241997.0 333171.0 0
246456.0 332261.0 0
253578.0 330688.0 0
250557.0 332799.0 0
256525.0 329454.0 0
259494.0 330224.0 0
257169.0 333184.0 0
264530.0 328968.0 0
262476.0 332850.0 0
266998.0 331145.0 0
270532.0 329557.0 0
273345.0 332248.0 0
279803.0 331038.0 0
276088.0 330533.0 0
282946.0 328943.0 0
284489.0 331607.0 0
281891.0 333607.0 0
287294.0 329943.0 0
287355.0 333493.0 0
290867.0 332897.0 0
290856.0 329521.0 0
294316.0 329059.0 0
294526.0 331768.0 0
297654.0 329304.0 0
297577.0 332243.0 0
196515.0 336524.0 0
202486.0 333673.0 0
201774.0 336489.0 0
206121.0 333874.0 0
204781.0 336234.0 0
208511.0 336290.0 0
212569.0 335836.0 0
218667.0 336870.0 0
221600.0 334711.0 0
223335.0 337607.0 0
225117.0 334251.0 0
228987.0 334268.0 0
226859.0 338497.0 0
233626.0 336789.0 0
230325.0 337331.0 0
237599.0 338328.0 0
243967.0 335167.0 0
241486.0 337548.0 0
247448.0 336053.0 0
250881.0 337673.0 0
254191.0 335616.0 0
259967.0 336797.0 0
256430.0 338546.0 0
263478.0 338151.0 0
265774.0 334760.0 0
269439.0 333718.0 0
275082.0 335224.0 0
271513.0 337058.0 0
277586.0 333774.0 0
279775.0 336249.0 0
276725.0 337469.0 0
284239.0 335296.0 0
283395.0 338342.0 0
287603.0 337121.0 0
294010.0 333911.0 0
291036.0 336023.0 0
293792.0 336316.0 0
297403.0 335264.0 0
297427.0 338468.0 0
303051.0 335855.0 0
195692.0 341442.0 0
202917.0 339477.0 0
202223.0 342485.0 0
206582.0 338515.0 0
207426.0 340655.0 0
205374.0 341971.0 0
210512.0 339085.0 0
209501.0 342643.0 0
213221.0 341518.0 0
215228.0 339039.0 0
217537.0 341377.0 0
221073.0 340290.0 0
220768.0 343984.0 0
224820.0 341345.0 0
229828.0 341095.0 0
232865.0 340523.0 0
233146.0 343813.0 0
235256.0 340882.0 0
238901.0 341757.0 0
236146.0 342866.0 0
241984.0 341145.0 0
244118.0 343681.0 0
245224.0 339355.0 0
248426.0 341266.0 0
253537.0 340455.0 0
251649.0 342994.0 0
257244.0 342574.0 0
260167.0 340916.0 0
262717.0 341459.0 0
267522.0 339243.0 0
266227.0 343366.0 0
273987.0 339249.0 0
270830.0 341679.0 0
273183.0 342254.0 0
280242.0 339985.0 0
276991.0 341041.0 0
281199.0 343082.0 0
284044.0 341815.0 0
286676.0 340285.0 0
289482.0 342769.0 0
290803.0 339392.0 0
293971.0 339373.0 0
294817.0 342457.0 0
298341.0 341117.0 0
297933.0 343666.0 0
202862.0 345385.0 0
206640.0 344810.0 0
206245.0 348000.0 0
213053.0 345767.0 0
209783.0 346970.0 0
216871.0 344117.0 0
217374.0 347805.0 0
220370.0 347260.0 0
224574.0 345001.0 0
228193.0 344157.0 0
227602.0 348226.0 0
230947.0 346725.0 0
234219.0 348838.0 0
236349.0 345883.0 0
238420.0 348075.0 0
240126.0 344988.0 0
243044.0 347830.0 0
247546.0 344793.0 0
246291.0 347644.0 0
248651.0 347897.0 0
250744.0 346083.0 0
254500.0 344084.0 0
253657.0 346562.0 0
259739.0 345463.0 0
256715.0 347769.0 0
262731.0 344957.0 0
263955.0 348303.0 0
269640.0 344368.0 0
266495.0 346644.0 0
273708.0 345296.0 0
270695.0 347087.0 0
277449.0 344919.0 0
279943.0 347331.0 0
282345.0 345459.0 0
284247.0 348057.0 0
285891.0 344854.0 0
289168.0 347642.0 0
293110.0 345461.0 0
293924.0 349056.0 0
297766.0 346297.0 0
202881.0 349002.0 0
201934.0 352156.0 0
208444.0 350141.0 0
205393.0 351819.0 0
208929.0 353431.0 0
211247.0 350573.0 0
213773.0 349421.0 0
211629.0 353060.0 0
217643.0 350696.0 0
214949.0 352689.0 0
220424.0 351427.0 0
223937.0 349323.0 0
225782.0 353443.0 0
229363.0 350640.0 0
232097.0 351942.0 0
235134.0 353114.0 0
237608.0 351216.0 0
240170.0 348755.0 0
244320.0 351907.0 0
240892.0 351165.0 0
241696.0 353745.0 0
247326.0 350587.0 0
249137.0 353520.0 0
250840.0 349719.0 0
254464.0 351123.0 0
258094.0 353203.0 0
260487.0 349730.0 0
263941.0 351480.0 0
261731.0 354143.0 0
268115.0 349219.0 0
267161.0 352766.0 0
273255.0 349252.0 0
271523.0 351737.0 0
274058.0 352917.0 0
276196.0 349196.0 0
277876.0 352761.0 0
281448.0 350113.0 0
283969.0 352660.0 0
286364.0 349655.0 0
287800.0 352371.0 0
291059.0 350934.0 0
294346.0 352712.0 0
291352.0 353947.0 0
297089.0 349351.0 0
297691.0 352302.0 0
202008.0 354573.0 0
202164.0 357020.0 0
205576.0 354491.0 0
209208.0 356511.0 0
205655.0 357591.0 0
211651.0 355648.0 0
214431.0 355867.0 0
210195.0 359636.0 0
213642.0 359039.0 0
218477.0 354002.0 0
217568.0 356347.0 0
221653.0 354700.0 0
221069.0 358337.0 0
224682.0 358373.0 0
229260.0 354632.0 0
227910.0 358554.0 0
232225.0 355414.0 0
231395.0 359223.0 0
238851.0 354904.0 0
235886.0 356036.0 0
243002.0 356219.0 0
240354.0 358036.0 0
243584.0 359103.0 0
246239.0 355533.0 0
247443.0 359521.0 0
252547.0 355101.0 0
251118.0 358226.0 0
255823.0 356737.0 0
259464.0 357546.0 0
264369.0 355620.0 0
262439.0 357659.0 0
268943.0 356028.0 0
266290.0 358407.0 0
271346.0 354599.0 0
273335.0 355977.0 0
271561.0 358768.0 0
276443.0 356680.0 0
278603.0 358448.0 0
281271.0 354965.0 0
285239.0 355161.0 0
281842.0 357849.0 0
285191.0 357611.0 0
288116.0 354825.0 0
288835.0 357583.0 0
292012.0 356636.0 0
294998.0 355251.0 0
298157.0 354623.0 0
297999.0 356847.0 0
196497.0 361388.0 0
202755.0 362075.0 0
202051.0 359429.0 0
206496.0 361015.0 0
211067.0 363005.0 0
214233.0 362608.0 0
217083.0 359236.0 0
217360.0 362327.0 0
220949.0 362378.0 0
224649.0 362656.0 0
227526.0 362772.0 0
235185.0 359231.0 0
231493.0 363369.0 0
238102.0 360363.0 0
235212.0 363297.0 0
237843.0 364631.0 0
240201.0 362918.0 0
242457.0 361549.0 0
245328.0 363202.0 0
253122.0 360621.0 0
249973.0 362541.0 0
252681.0 363512.0 0
255754.0 359926.0 0
255265.0 364473.0 0
257713.0 362909.0 0
260382.0 360883.0 0
263654.0 360080.0 0
261938.0 364185.0 0
264264.0 362853.0 0
268688.0 360945.0 0
267376.0 364223.0 0
274671.0 360051.0 0
271627.0 362084.0 0
273139.0 363970.0 0
278284.0 361101.0 0
276294.0 362928.0 0
281313.0 361072.0 0
284014.0 362580.0 0
279976.0 363481.0 0
285527.0 360452.0 0
288625.0 360548.0 0
287928.0 363395.0 0
293698.0 359782.0 0
291413.0 361496.0 0
291297.0 364449.0 0
294611.0 363702.0 0
296835.0 359635.0 0
297972.0 362495.0 0
303399.0 361758.0 0
201802.0 367396.0 0
202489.0 364833.0 0
207551.0 364247.0 0
205401.0 366476.0 0
208469.0 368900.0 0
214800.0 366076.0 0
211047.0 366774.0 0
217463.0 365630.0 0
218859.0 369053.0 0
220462.0 366139.0 0
224254.0 365947.0 0
223304.0 368881.0 0
228988.0 366316.0 0
226481.0 366442.0 0
226053.0 368887.0 0
228896.0 369552.0 0
232581.0 367248.0 0
231857.0 370318.0 0
235492.0 366910.0 0
237873.0 369648.0 0
240623.0 366238.0 0
243830.0 365998.0 0
244627.0 369602.0 0
248532.0 365095.0 0
247622.0 368079.0 0
251689.0 366575.0 0
254688.0 368024.0 0
257524.0 368049.0 0
258958.0 365801.0 0
262179.0 367431.0 0
265712.0 367516.0 0
270428.0 365629.0 0
274346.0 367435.0 0
270768.0 369001.0 0
277794.0 366396.0 0
282679.0 364995.0 0
281151.0 367938.0 0
284701.0 369052.0 0
286345.0 365755.0 0
289972.0 367498.0 0
293896.0 366825.0 0
297732.0 364960.0 0
297825.0 370446.0 0
297146.0 367670.0 0
197728.0 378827.0 0
201974.0 372691.0 0
199177.0 377785.0 0
200554.0 375656.0 0
203126.0 376222.0 0
202506.0 369785.0 0
205915.0 370525.0 0
204813.0 373660.0 0
205914.0 376041.0 0
208728.0 373478.0 0
211123.0 372107.0 0
213227.0 374496.0 0
212998.0 370034.0 0
216202.0 373608.0 0
216096.0 369629.0 0
219306.0 373387.0 0
221162.0 371014.0 0
224549.0 371761.0 0
224087.0 374375.0 0
226491.0 371306.0 0
228377.0 372998.0 0
234819.0 371665.0 0
230930.0 373867.0 0
239007.0 373407.0 0
241559.0 370310.0 0
245710.0 372849.0 0
242175.0 373705.0 0
250292.0 370558.0 0
247213.0 375185.0 0
251824.0 374360.0 0
255033.0 371088.0 0
258112.0 372457.0 0
255906.0 374763.0 0
260892.0 370663.0 0
263854.0 373068.0 0
267067.0 370476.0 0
266987.0 374944.0 0
272201.0 372072.0 0
269466.0 373373.0 0
275172.0 370598.0 0
277139.0 371077.0 0
278946.0 374892.0 0
280181.0 371714.0 0
283299.0 372718.0 0
287845.0 370417.0 0
286012.0 373560.0 0
294231.0 369985.0 0
291957.0 369638.0 0
291660.0 371347.0 0
291612.0 374374.0 0
289735.0 372720.0 0
298012.0 373110.0 0
294584.0 372991.0 0
295396.0 376025.0 0
299332.0 375920.0 0
300362.0 378566.0 0
302981.0 379499.0 0
188610.0 384617.0 0
191027.0 383926.0 0
194435.0 380668.0 0
196078.0 379465.0 0
199473.0 380709.0 0
197086.0 382077.0 0
192968.0 382367.0 0
201062.0 378723.0 0
202202.0 381568.0 0
203665.0 379329.0 0
205801.0 382137.0 0
206026.0 378693.0 0
208054.0 380884.0 0
209085.0 376894.0 0
211938.0 377372.0 0
214413.0 378841.0 0
216525.0 377191.0 0
218799.0 377960.0 0
221413.0 376090.0 0
222835.0 378855.0 0
225419.0 378932.0 0
226866.0 375781.0 0
229276.0 377577.0 0
232320.0 378961.0 0
234189.0 375388.0 0
237585.0 375644.0 0
236306.0 379294.0 0
239616.0 378258.0 0
242374.0 376383.0 0
244303.0 378022.0 0
243693.0 380490.0 0
250078.0 378017.0 0
246886.0 378026.0 0
248435.0 380643.0 0
251413.0 380834.0 0
253996.0 379068.0 0
257265.0 378372.0 0
259417.0 375767.0 0
262145.0 376376.0 0
264068.0 378440.0 0
259845.0 380449.0 0
267481.0 378053.0 0
270365.0 375517.0 0
270469.0 378924.0 0
273747.0 374446.0 0
272720.0 377227.0 0
276360.0 374790.0 0
275443.0 378453.0 0
277816.0 379087.0 0
283055.0 375443.0 0
280603.0 377626.0 0
282912.0 380385.0 0
285150.0 377001.0 0
288062.0 375484.0 0
286925.0 378258.0 0
290927.0 376603.0 0
289323.0 378987.0 0
292606.0 378687.0 0
293350.0 381599.0 0
296620.0 379196.0 0
300241.0 381415.0 0
297660.0 382490.0 0
304858.0 381177.0 0
303544.0 383870.0 0
307317.0 382627.0 0
309226.0 384284.0 0
312096.0 384650.0 0
182211.0 388823.0 0
184269.0 387674.0 0
186506.0 386466.0 0
186462.0 389789.0 0
188696.0 387910.0 0
191341.0 388869.0 0
196989.0 385155.0 0
193937.0 386644.0 0
200313.0 384391.0 0
198874.0 388240.0 0
201764.0 388004.0 0
203950.0 385135.0 0
208692.0 383669.0 0
206706.0 386329.0 0
210943.0 380779.0 0
211717.0 385812.0 0
212167.0 383101.0 0
214938.0 381808.0 0
217469.0 381615.0 0
217418.0 385763.0 0
215431.0 384763.0 0
218779.0 383716.0 0
219288.0 380377.0 0
221203.0 384771.0 0
221767.0 381465.0 0
223984.0 382416.0 0
225750.0 384885.0 0
227197.0 381611.0 0
230048.0 382731.0 0
232521.0 383435.0 0
234392.0 381564.0 0
234502.0 384119.0 0
236671.0 384508.0 0
237137.0 381818.0 0
238932.0 385638.0 0
240603.0 381770.0 0
245590.0 381551.0 0
242882.0 384451.0 0
245647.0 384858.0 0
249003.0 384526.0 0
251969.0 383790.0 0
253215.0 385920.0 0
257466.0 383151.0 0
254734.0 382778.0 0
263140.0 382177.0 0
261214.0 385320.0 0
266603.0 381395.0 0
268462.0 383531.0 0
271435.0 382305.0 0
273288.0 385559.0 0
274363.0 380956.0 0
276052.0 383491.0 0
277313.0 385625.0 0
278155.0 381895.0 0
280991.0 383595.0 0
285994.0 384612.0 0
285780.0 381522.0 0
283496.0 385441.0 0
288604.0 381639.0 0
291217.0 383156.0 0
288802.0 386334.0 0
295774.0 384011.0 0
291849.0 387260.0 0
294361.0 386276.0 0
297770.0 386410.0 0
296542.0 389118.0 0
300245.0 386183.0 0
300769.0 383751.0 0
301595.0 388685.0 0
304988.0 386034.0 0
309098.0 387039.0 0
310913.0 388612.0 0
313706.0 386996.0 0
315463.0 388635.0 0
318628.0 388688.0 0
320394.0 390043.0 0
177508.0 392281.0 0
175346.0 394340.0 0
172413.0 395459.0 0
180146.0 390903.0 0
179370.0 394741.0 0
182666.0 392958.0 0
185803.0 391931.0 0
187369.0 394046.0 0
189652.0 391137.0 0
190821.0 392944.0 0
189523.0 394993.0 0
194636.0 390706.0 0
193117.0 392905.0 0
197464.0 390725.0 0
195905.0 393698.0 0
199737.0 392330.0 0
202524.0 390944.0 0
205076.0 389814.0 0
209439.0 388586.0 0
207222.0 391582.0 0
211147.0 391151.0 0
214228.0 387619.0 0
215803.0 389947.0 0
219416.0 388043.0 0
218414.0 392765.0 0
221288.0 390696.0 0
223429.0 386193.0 0
223978.0 388740.0 0
227402.0 386829.0 0
226535.0 389769.0 0
230327.0 386541.0 0
229845.0 391429.0 0
233163.0 386958.0 0
233271.0 390735.0 0
235508.0 387236.0 0
235958.0 390373.0 0
237463.0 388353.0 0
239631.0 390119.0 0
241583.0 387586.0 0
243350.0 391409.0 0
245403.0 388396.0 0
249234.0 388224.0 0
252156.0 388114.0 0
253861.0 390230.0 0
255130.0 386552.0 0
258334.0 387040.0 0
256635.0 390700.0 0
263693.0 389446.0 0
260935.0 389280.0 0
264455.0 386344.0 0
267793.0 386787.0 0
266299.0 392659.0 0
267565.0 390190.0 0
270887.0 387544.0 0
270009.0 391381.0 0
272501.0 390329.0 0
275259.0 388257.0 0
278001.0 389794.0 0
279618.0 386483.0 0
281359.0 389051.0 0
285829.0 388123.0 0
283296.0 391536.0 0
283464.0 387881.0 0
286096.0 391362.0 0
288881.0 390975.0 0
291578.0 391864.0 0
294128.0 391104.0 0
296314.0 394177.0 0
299190.0 391535.0 0
301434.0 393962.0 0
305349.0 389076.0 0
303641.0 392025.0 0
307731.0 391116.0 0
310809.0 391877.0 0
313425.0 391863.0 0
315461.0 394738.0 0
316995.0 391515.0 0
321886.0 391859.0 0
318781.0 393418.0 0
324057.0 393366.0 0
326383.0 395122.0 0
329560.0 395553.0 0
165813.0 398805.0 0
164099.0 400618.0 0
170076.0 396630.0 0
167950.0 397850.0 0
172690.0 399399.0 0
175981.0 398041.0 0
179222.0 397379.0 0
182516.0 395882.0 0
181594.0 399202.0 0
185629.0 396592.0 0
187065.0 399228.0 0
192459.0 394897.0 0
189940.0 397495.0 0
193616.0 398214.0 0
196320.0 396283.0 0
199393.0 395489.0 0
198835.0 398862.0 0
201980.0 396102.0 0
203640.0 393601.0 0
206505.0 393924.0 0
203744.0 397915.0 0
206904.0 396819.0 0
209701.0 393274.0 0
209959.0 395556.0 0
213642.0 392858.0 0
212622.0 396271.0 0
216407.0 394751.0 0
217432.0 397453.0 0
219945.0 395648.0 0
221141.0 398440.0 0
222710.0 394473.0 0
224122.0 397900.0 0
224963.0 392761.0 0
227199.0 394108.0 0
228971.0 396541.0 0
231474.0 395568.0 0
234936.0 395044.0 0
237829.0 393008.0 0
240735.0 394487.0 0
243201.0 396566.0 0
245303.0 394416.0 0
248485.0 391958.0 0
247845.0 396526.0 0
251897.0 392513.0 0
250709.0 397076.0 0
253546.0 395560.0 0
257220.0 395100.0 0
259912.0 392134.0 0
263252.0 392781.0 0
262297.0 396581.0 0
267761.0 394358.0 0
269604.0 396702.0 0
266069.0 397186.0 0
270457.0 394161.0 0
272907.0 394959.0 0
275013.0 393852.0 0
274365.0 391781.0 0
277168.0 396226.0 0
278431.0 392997.0 0
280547.0 397585.0 0
281962.0 394681.0 0
285214.0 396684.0 0
287559.0 394733.0 0
290012.0 395843.0 0
290552.0 398793.0 0
291954.0 394688.0 0
294089.0 395981.0 0
297480.0 396573.0 0
300404.0 396520.0 0
304112.0 395489.0 0
304908.0 398530.0 0
306730.0 394279.0 0
310959.0 395052.0 0
308679.0 396355.0 0
309668.0 398978.0 0
313891.0 396500.0 0
319397.0 395987.0 0
322110.0 396386.0 0
318302.0 398436.0 0
323547.0 399555.0 0
326331.0 398153.0 0
331277.0 397787.0 0
329031.0 399770.0 0
333495.0 399088.0 0
335756.0 400331.0 0
155252.0 405025.0 0
157400.0 404252.0 0
161452.0 400994.0 0
159528.0 403443.0 0
161673.0 403705.0 0
165085.0 403268.0 0
169734.0 400795.0 0
168588.0 403541.0 0
172899.0 402354.0 0
176802.0 401030.0 0
174972.0 403478.0 0
177152.0 405435.0 0
179516.0 401573.0 0
179643.0 403743.0 0
183917.0 401099.0 0
183703.0 403966.0 0
192165.0 401244.0 0
188777.0 401954.0 0
196240.0 400483.0 0
193932.0 404010.0 0
197094.0 403688.0 0
200174.0 401021.0 0
202937.0 401098.0 0
205882.0 402257.0 0
207959.0 399881.0 0
210558.0 399242.0 0
209048.0 403940.0 0
209610.0 402466.0 0
212412.0 401963.0 0
214443.0 399226.0 0
216639.0 401845.0 0
219209.0 400494.0 0
221216.0 403255.0 0
224185.0 401458.0 0
226552.0 396742.0 0
228601.0 400390.0 0
232025.0 400217.0 0
235963.0 399242.0 0
239033.0 397827.0 0
241612.0 399738.0 0
245216.0 397868.0 0
244756.0 401066.0 0
247658.0 401499.0 0
250822.0 400814.0 0
253723.0 400403.0 0
256072.0 399107.0 0
259644.0 398701.0 0
258190.0 401245.0 0
260750.0 401849.0 0
262952.0 400399.0 0
267339.0 400358.0 0
270824.0 399545.0 0
273388.0 397954.0 0
276531.0 399492.0 0
280324.0 401571.0 0
287796.0 399266.0 0
283846.0 399519.0 0
286492.0 401677.0 0
290462.0 401759.0 0
288895.0 403684.0 0
291192.0 405209.0 0
293744.0 399016.0 0
292738.0 402046.0 0
296558.0 400642.0 0
296724.0 404270.0 0
299292.0 399342.0 0
302213.0 400253.0 0
299975.0 402511.0 0
299526.0 404073.0 0
303049.0 403073.0 0
307416.0 400902.0 0
305696.0 403148.0 0
312796.0 399573.0 0
312177.0 402581.0 0
309593.0 403307.0 0
316134.0 399953.0 0
317039.0 403070.0 0
320808.0 400324.0 0
319948.0 403251.0 0
325200.0 403058.0 0
332237.0 402805.0 0
329049.0 402836.0 0
337911.0 401318.0 0
334786.0 403257.0 0
340502.0 402005.0 0
341934.0 403540.0 0
338667.0 403804.0 0
343361.0 405322.0 0
148956.0 409112.0 0
153366.0 407051.0 0
151834.0 408832.0 0
155958.0 407261.0 0
155000.0 410833.0 0
159541.0 406623.0 0
157810.0 408161.0 0
161727.0 407661.0 0
161635.0 410125.0 0
163796.0 405913.0 0
165383.0 407907.0 0
164167.0 410472.0 0
170912.0 405515.0 0
167796.0 406965.0 0
168720.0 410093.0 0
171252.0 408782.0 0
173137.0 405766.0 0
173632.0 408498.0 0
177036.0 408191.0 0
181010.0 408166.0 0
181158.0 405740.0 0
180423.0 410315.0 0
185515.0 406666.0 0
184436.0 409573.0 0
188413.0 405049.0 0
191499.0 406347.0 0
188417.0 408343.0 0
190789.0 409165.0 0
194327.0 408024.0 0
196515.0 407875.0 0
199852.0 405373.0 0
199239.0 409056.0 0
202436.0 405247.0 0
205398.0 405491.0 0
205069.0 408600.0 0
208263.0 406025.0 0
210652.0 408499.0 0
216182.0 404458.0 0
212862.0 404809.0 0
219296.0 405909.0 0
223607.0 406141.0 0
226940.0 404329.0 0
230379.0 405997.0 0
233799.0 407426.0 0
233412.0 404053.0 0
239970.0 402752.0 0
237026.0 403763.0 0
241218.0 406981.0 0
242998.0 404330.0 0
245569.0 405638.0 0
248732.0 405139.0 0
251401.0 404727.0 0
253496.0 403200.0 0
253298.0 407131.0 0
256364.0 404009.0 0
258725.0 406756.0 0
261941.0 404828.0 0
263149.0 407746.0 0
265152.0 403372.0 0
267798.0 406428.0 0
272169.0 402537.0 0
269628.0 403632.0 0
271283.0 406763.0 0
273237.0 405260.0 0
275009.0 402257.0 0
275645.0 406226.0 0
277005.0 403826.0 0
278154.0 407060.0 0
279876.0 405464.0 0
282181.0 407141.0 0
283971.0 403917.0 0
284729.0 410686.0 0
284689.0 408074.0 0
287081.0 406588.0 0
290732.0 407890.0 0
293759.0 404384.0 0
293630.0 407297.0 0
297562.0 407530.0 0
302085.0 405577.0 0
300466.0 407548.0 0
304989.0 407113.0 0
307108.0 405813.0 0
307521.0 409525.0 0
309866.0 406555.0 0
314749.0 404944.0 0
312582.0 407042.0 0
317403.0 407611.0 0
316510.0 410009.0 0
319462.0 406589.0 0
320156.0 409590.0 0
322410.0 408749.0 0
323241.0 405597.0 0
326999.0 407826.0 0
325676.0 409964.0 0
328922.0 405895.0 0
332412.0 405840.0 0
329626.0 410268.0 0
332178.0 408250.0 0
335044.0 405801.0 0
337761.0 406124.0 0
334834.0 409978.0 0
338040.0 409392.0 0
340887.0 406793.0 0
342477.0 407963.0 0
343093.0 409764.0 0
345679.0 406258.0 0
347856.0 408505.0 0
345602.0 410342.0 0
350875.0 409752.0 0
138073.0 416241.0 0
140394.0 414924.0 0
142507.0 413303.0 0
145039.0 412632.0 0
144463.0 415981.0 0
147179.0 411359.0 0
150040.0 412947.0 0
147414.0 415961.0 0
150075.0 416331.0 0
152573.0 412396.0 0
154290.0 414713.0 0
157531.0 410915.0 0
159591.0 413186.0 0
162641.0 413913.0 0
166320.0 412534.0 0
168108.0 414946.0 0
170668.0 412718.0 0
171115.0 414745.0 0
172322.0 411517.0 0
173500.0 413577.0 0
174034.0 411535.0 0
175113.0 414807.0 0
176887.0 411014.0 0
177783.0 413735.0 0
180716.0 412493.0 0
183959.0 413045.0 0
187652.0 410139.0 0
190242.0 412480.0 0
187512.0 414753.0 0
193487.0 410428.0 0
195354.0 411163.0 0
193114.0 413788.0 0
195709.0 414615.0 0
202505.0 408893.0 0
197553.0 411993.0 0
199558.0 413460.0 0
202170.0 411795.0 0
211094.0 412406.0 0
206979.0 410641.0 0
208960.0 413191.0 0
214160.0 409165.0 0
215107.0 412561.0 0
216852.0 408127.0 0
221415.0 408749.0 0
218647.0 411887.0 0
221592.0 412999.0 0
224053.0 410567.0 0
226066.0 408525.0 0
229500.0 409880.0 0
226886.0 412645.0 0
230013.0 413211.0 0
232657.0 410577.0 0
235488.0 409944.0 0
237948.0 407766.0 0
239788.0 412182.0 0
243957.0 407643.0 0
241937.0 409729.0 0
244911.0 410545.0 0
247878.0 408596.0 0
247512.0 412677.0 0
250725.0 409667.0 0
253158.0 410856.0 0
256215.0 409933.0 0
259184.0 412160.0 0
260945.0 409814.0 0
262965.0 411124.0 0
261660.0 413267.0 0
265372.0 409113.0 0
267023.0 412297.0 0
269787.0 410112.0 0
272573.0 408845.0 0
271919.0 411533.0 0
274756.0 412296.0 0
274973.0 409484.0 0
277531.0 410638.0 0
278946.0 409244.0 0
281599.0 410113.0 0
280789.0 412987.0 0
283141.0 415344.0 0
284940.0 413073.0 0
288130.0 410303.0 0
287624.0 413670.0 0
291959.0 411508.0 0
295051.0 409535.0 0
297206.0 412276.0 0
295040.0 413815.0 0
298953.0 410453.0 0
301723.0 410631.0 0
301948.0 413651.0 0
304173.0 409646.0 0
306573.0 411799.0 0
304905.0 413022.0 0
309471.0 409306.0 0
309327.0 414201.0 0
311049.0 411655.0 0
312730.0 414509.0 0
313265.0 410082.0 0
313301.0 413252.0 0
315246.0 412838.0 0
317517.0 413944.0 0
319135.0 411676.0 0
321234.0 412925.0 0
323614.0 411428.0 0
327204.0 411722.0 0
325577.0 414094.0 0
327806.0 415227.0 0
330670.0 413248.0 0
333745.0 412652.0 0
335632.0 414690.0 0
337999.0 413823.0 0
340359.0 411578.0 0
342224.0 413724.0 0
339449.0 415954.0 0
345113.0 412816.0 0
348479.0 411916.0 0
346627.0 415725.0 0
353073.0 412110.0 0
348573.0 413967.0 0
351471.0 414668.0 0
355961.0 412890.0 0
358368.0 414159.0 0
133369.0 418648.0 0
131621.0 420781.0 0
136347.0 418186.0 0
139975.0 418973.0 0
136713.0 421089.0 0
141923.0 417347.0 0
143818.0 419752.0 0
146325.0 418936.0 0
150172.0 419722.0 0
148052.0 420614.0 0
152577.0 417567.0 0
154208.0 419587.0 0
156935.0 415474.0 0
160371.0 416621.0 0
156953.0 418079.0 0
158678.0 419540.0 0
164260.0 416018.0 0
166078.0 417186.0 0
161952.0 418970.0 0
164718.0 420389.0 0
168194.0 417491.0 0
171477.0 417414.0 0
174545.0 417123.0 0
176589.0 418644.0 0
179094.0 416362.0 0
182045.0 415929.0 0
180323.0 419340.0 0
178465.0 420439.0 0
183433.0 418299.0 0
186176.0 417889.0 0
189892.0 417230.0 0
190288.0 419746.0 0
192112.0 416300.0 0
193476.0 418163.0 0
196941.0 417747.0 0
200521.0 416229.0 0
201808.0 419133.0 0
204545.0 414169.0 0
204553.0 418006.0 0
208050.0 415515.0 0
212974.0 414986.0 0
207362.0 418953.0 0
210733.0 417833.0 0
215450.0 417504.0 0
218283.0 415713.0 0
221256.0 416469.0 0
224263.0 414554.0 0
226134.0 417745.0 0
228733.0 415402.0 0
231989.0 417485.0 0
233045.0 414006.0 0
235372.0 418063.0 0
236432.0 413617.0 0
238480.0 416810.0 0
241237.0 416929.0 0
242838.0 414074.0 0
244149.0 417956.0 0
245710.0 414774.0 0
247550.0 417599.0 0
250796.0 414422.0 0
253369.0 417379.0 0
254806.0 413516.0 0
257334.0 415109.0 0
260542.0 415685.0 0
263765.0 416367.0 0
264191.0 413660.0 0
266857.0 418203.0 0
268918.0 415279.0 0
272622.0 418281.0 0
272183.0 414851.0 0
275048.0 416348.0 0
277691.0 413833.0 0
278734.0 416862.0 0
281638.0 418959.0 0
286561.0 416710.0 0
285067.0 419766.0 0
291019.0 414860.0 0
290036.0 418413.0 0
293621.0 418983.0 0
294819.0 416389.0 0
299014.0 414739.0 0
298322.0 418050.0 0
302199.0 419436.0 0
303861.0 416235.0 0
306972.0 416461.0 0
309402.0 419416.0 0
311547.0 417238.0 0
314509.0 414962.0 0
314604.0 417971.0 0
318416.0 416327.0 0
322400.0 415994.0 0
319444.0 419327.0 0
323716.0 419104.0 0
326422.0 418149.0 0
331778.0 416154.0 0
329573.0 418288.0 0
332342.0 420593.0 0
334966.0 417907.0 0
340863.0 416348.0 0
338345.0 417720.0 0
342822.0 419229.0 0
340424.0 420586.0 0
343620.0 416152.0 0
345886.0 418755.0 0
347752.0 419567.0 0
348982.0 417783.0 0
351814.0 417944.0 0
350740.0 421054.0 0
354850.0 416212.0 0
356968.0 417390.0 0
354048.0 419906.0 0
356834.0 420649.0 0
360376.0 416509.0 0
362608.0 418098.0 0
359461.0 421038.0 0
365774.0 418759.0 0
368020.0 421032.0 0
124806.0 425090.0 0
129065.0 421825.0 0
127212.0 423550.0 0
133635.0 423136.0 0
131203.0 425330.0 0
135426.0 425912.0 0
139517.0 422721.0 0
138459.0 425776.0 0
142600.0 422440.0 0
144864.0 424374.0 0
147508.0 422814.0 0
151243.0 421470.0 0
149367.0 424551.0 0
151822.0 423622.0 0
155135.0 422363.0 0
155826.0 425863.0 0
157960.0 422082.0 0
158976.0 425512.0 0
160830.0 422773.0 0
163697.0 423536.0 0
167532.0 420834.0 0
171391.0 420574.0 0
167552.0 423562.0 0
171273.0 423572.0 0
174644.0 420873.0 0
173685.0 425435.0 0
175660.0 423128.0 0
178486.0 423074.0 0
181011.0 422597.0 0
182705.0 420777.0 0
187281.0 420509.0 0
182463.0 424364.0 0
185259.0 422630.0 0
189922.0 422970.0 0
190323.0 425934.0 0
192919.0 421019.0 0
194497.0 422641.0 0
197923.0 420998.0 0
199589.0 424281.0 0
202646.0 421726.0 0
205426.0 421754.0 0
205687.0 424757.0 0
208562.0 421839.0 0
211612.0 420771.0 0
215645.0 421175.0 0
218706.0 419147.0 0
219078.0 422442.0 0
222052.0 420175.0 0
225535.0 422504.0 0
229550.0 420589.0 0
232494.0 422819.0 0
235909.0 421701.0 0
239502.0 420357.0 0
240164.0 423341.0 0
242766.0 420406.0 0
245677.0 420341.0 0
247321.0 422971.0 0
250187.0 420336.0 0
253446.0 420604.0 0
256697.0 418630.0 0
260767.0 419444.0 0
260096.0 424002.0 0
264095.0 422807.0 0
264336.0 420432.0 0
267833.0 422063.0 0
270562.0 419781.0 0
271585.0 423490.0 0
276306.0 418911.0 0
274108.0 420624.0 0
275719.0 422722.0 0
279112.0 422033.0 0
283856.0 423670.0 0
287138.0 420669.0 0
287665.0 423391.0 0
290998.0 422537.0 0
294215.0 422361.0 0
296905.0 420882.0 0
298552.0 423663.0 0
301272.0 422468.0 0
306270.0 420083.0 0
304889.0 423229.0 0
307746.0 423674.0 0
312441.0 420318.0 0
310581.0 422423.0 0
316359.0 421351.0 0
313872.0 423326.0 0
321643.0 421796.0 0
318882.0 423921.0 0
324014.0 424342.0 0
326365.0 422585.0 0
328291.0 420818.0 0
330438.0 422534.0 0
329620.0 425782.0 0
337536.0 421874.0 0
334621.0 422996.0 0
339208.0 425244.0 0
341984.0 424809.0 0
345010.0 421530.0 0
347207.0 421511.0 0
344682.0 424195.0 0
349237.0 422555.0 0
352846.0 422232.0 0
350613.0 425918.0 0
353595.0 425232.0 0
356198.0 423746.0 0
362927.0 421622.0 0
360976.0 423724.0 0
358745.0 425185.0 0
362490.0 425959.0 0
365449.0 422938.0 0
365310.0 425317.0 0
368497.0 425261.0 0
370630.0 422987.0 0
373069.0 424310.0 0
375976.0 425314.0 0
114432.0 430882.0 0
117302.0 430020.0 0
120129.0 428633.0 0
122719.0 426854.0 0
124897.0 429747.0 0
122477.0 431663.0 0
128765.0 426781.0 0
127446.0 429360.0 0
130300.0 431418.0 0
131904.0 428960.0 0
134476.0 428822.0 0
137164.0 429672.0 0
139631.0 428235.0 0
141967.0 426482.0 0
145807.0 427258.0 0
143833.0 429240.0 0
148498.0 427214.0 0
146471.0 430761.0 0
150969.0 428891.0 0
152735.0 426359.0 0
154133.0 430425.0 0
155829.0 428777.0 0
160691.0 427764.0 0
157930.0 429542.0 0
163991.0 426256.0 0
165034.0 429855.0 0
167281.0 426061.0 0
169884.0 425604.0 0
168531.0 429096.0 0
171370.0 428035.0 0
173428.0 429989.0 0
176053.0 427616.0 0
178798.0 426087.0 0
177450.0 430212.0 0
181832.0 427451.0 0
186075.0 425234.0 0
184400.0 430517.0 0
185534.0 428098.0 0
189633.0 429846.0 0
194692.0 425918.0 0
195851.0 429070.0 0
199474.0 427940.0 0
202934.0 425476.0 0
201318.0 430823.0 0
203310.0 427940.0 0
208816.0 424843.0 0
206486.0 428350.0 0
209357.0 428962.0 0
212445.0 424841.0 0
216568.0 424788.0 0
212798.0 428547.0 0
215567.0 427116.0 0
219501.0 425634.0 0
221168.0 429397.0 0
222707.0 424882.0 0
224803.0 428364.0 0
227760.0 425032.0 0
228269.0 429138.0 0
230886.0 426495.0 0
234471.0 426397.0 0
237657.0 425362.0 0
241036.0 426966.0 0
243697.0 424223.0 0
245647.0 428199.0 0
249214.0 426896.0 0
251910.0 424378.0 0
254719.0 427227.0 0
255964.0 423219.0 0
258330.0 427765.0 0
261544.0 429024.0 0
263468.0 425995.0 0
266377.0 424735.0 0
265314.0 428926.0 0
269398.0 426888.0 0
272239.0 428121.0 0
274729.0 425866.0 0
278218.0 425651.0 0
278762.0 428686.0 0
281108.0 425696.0 0
281828.0 428728.0 0
285063.0 427536.0 0
288473.0 426838.0 0
291716.0 426639.0 0
295712.0 426424.0 0
299302.0 429183.0 0
300970.0 425933.0 0
302969.0 429466.0 0
303702.0 426013.0 0
305913.0 427422.0 0
311267.0 426650.0 0
308529.0 426996.0 0
311353.0 429904.0 0
314250.0 426612.0 0
317451.0 426939.0 0
314101.0 430332.0 0
321930.0 426892.0 0
326400.0 426711.0 0
325066.0 428810.0 0
326810.0 430741.0 0
329350.0 429187.0 0
333695.0 426384.0 0
337521.0 427496.0 0
333709.0 429938.0 0
336475.0 430285.0 0
342408.0 428321.0 0
340139.0 430380.0 0
347352.0 426210.0 0
345630.0 428790.0 0
348215.0 430134.0 0
350816.0 429540.0 0
353797.0 431420.0 0
355438.0 428333.0 0
358390.0 427902.0 0
361917.0 428501.0 0
359945.0 431200.0 0
366454.0 427707.0 0
369095.0 427822.0 0
364638.0 429403.0 0
371164.0 428822.0 0
373259.0 427564.0 0
374917.0 428844.0 0
378078.0 427103.0 0
374742.0 431145.0 0
377810.0 429808.0 0
380956.0 428166.0 0
382845.0 429835.0 0
385241.0 430542.0 0
106842.0 434842.0 0
110022.0 434755.0 0
112465.0 433243.0 0
115242.0 434875.0 0
117689.0 433280.0 0
120830.0 434477.0 0
124904.0 432562.0 0
123682.0 436373.0 0
127446.0 432702.0 0
127131.0 435666.0 0
130230.0 435495.0 0
131912.0 432931.0 0
134507.0 431796.0 0
133036.0 435080.0 0
138024.0 431775.0 0
136361.0 433462.0 0
140874.0 434288.0 0
141431.0 431269.0 0
144809.0 432680.0 0
145943.0 435130.0 0
148606.0 431192.0 0
149292.0 434292.0 0
152651.0 432600.0 0
155846.0 432083.0 0
154383.0 435333.0 0
158114.0 432158.0 0
161789.0 431534.0 0
166235.0 432451.0 0
164377.0 433614.0 0
165651.0 435013.0 0
169030.0 432263.0 0
171860.0 432180.0 0
172706.0 435676.0 0
175493.0 432623.0 0
180395.0 430918.0 0
178366.0 434157.0 0
182915.0 433232.0 0
185991.0 434320.0 0
186427.0 431425.0 0
189832.0 434484.0 0
193176.0 430855.0 0
194022.0 434288.0 0
197394.0 432391.0 0
201331.0 434358.0 0
204382.0 435149.0 0
205037.0 431690.0 0
207598.0 432757.0 0
210298.0 432245.0 0
214182.0 431819.0 0
217628.0 429028.0 0
218421.0 432234.0 0
220964.0 432923.0 0
224024.0 432972.0 0
227563.0 432820.0 0
234584.0 429790.0 0
231209.0 430870.0 0
234431.0 433744.0 0
238132.0 429889.0 0
237203.0 433528.0 0
242766.0 429253.0 0
241200.0 432420.0 0
245256.0 432760.0 0
248875.0 431782.0 0
252233.0 429639.0 0
254094.0 432776.0 0
256867.0 430569.0 0
260234.0 432612.0 0
264266.0 432394.0 0
266369.0 434159.0 0
268708.0 431241.0 0
272545.0 431791.0 0
275688.0 429572.0 0
277265.0 432342.0 0
279218.0 431560.0 0
282402.0 432861.0 0
286196.0 431522.0 0
288903.0 430011.0 0
289779.0 433814.0 0
291756.0 431048.0 0
292692.0 434407.0 0
294642.0 430335.0 0
294698.0 434152.0 0
297428.0 432644.0 0
300493.0 434603.0 0
301855.0 432198.0 0
303043.0 435079.0 0
305621.0 430654.0 0
304416.0 433236.0 0
306753.0 435190.0 0
308763.0 431230.0 0
310049.0 434834.0 0
317920.0 430550.0 0
313440.0 433960.0 0
317489.0 434664.0 0
321628.0 430949.0 0
321328.0 435474.0 0
324537.0 432298.0 0
325189.0 435322.0 0
331472.0 431711.0 0
328548.0 433534.0 0
335729.0 432717.0 0
333893.0 435133.0 0
343243.0 432398.0 0
339030.0 433583.0 0
342666.0 434560.0 0
345742.0 431667.0 0
345238.0 436206.0 0
347858.0 434304.0 0
349230.0 431640.0 0
351790.0 434141.0 0
357452.0 433429.0 0
355962.0 436393.0 0
362734.0 432827.0 0
362641.0 435577.0 0
364933.0 431907.0 0
368028.0 431105.0 0
365446.0 435333.0 0
368322.0 434080.0 0
371996.0 431993.0 0
371090.0 436290.0 0
373798.0 435389.0 0
378827.0 432192.0 0
376380.0 434144.0 0
378268.0 436459.0 0
381862.0 433030.0 0
381445.0 436294.0 0
384675.0 436523.0 0
384883.0 433872.0 0
387328.0 431538.0 0
389574.0 432802.0 0
387013.0 433663.0 0
388348.0 435882.0 0
391100.0 435080.0 0
393509.0 435782.0 0
103020.0 439204.0 0
100324.0 440478.0 0
105228.0 437138.0 0
108460.0 437646.0 0
105193.0 441160.0 0
109035.0 440995.0 0
112677.0 437151.0 0
112375.0 439594.0 0
116153.0 437128.0 0
115726.0 439882.0 0
118957.0 437178.0 0
119948.0 439145.0 0
122857.0 439407.0 0
121590.0 441971.0 0
128125.0 439345.0 0
125576.0 441334.0 0
133949.0 437742.0 0
131116.0 439556.0 0
135239.0 440705.0 0
137784.0 436126.0 0
139169.0 438868.0 0
143235.0 436285.0 0
142320.0 439109.0 0
145467.0 440096.0 0
147107.0 438488.0 0
151307.0 438259.0 0
154721.0 440120.0 0
157590.0 435715.0 0
157845.0 439474.0 0
161156.0 439378.0 0
161365.0 435396.0 0
164003.0 437587.0 0
168679.0 436110.0 0
168847.0 439704.0 0
176013.0 437252.0 0
172633.0 440208.0 0
181470.0 436112.0 0
179084.0 438102.0 0
183242.0 439302.0 0
185435.0 437114.0 0
188600.0 438730.0 0
192335.0 436987.0 0
192510.0 439388.0 0
195786.0 437392.0 0
198356.0 435372.0 0
200159.0 437412.0 0
203111.0 437845.0 0
205623.0 439752.0 0
207385.0 436095.0 0
210250.0 435319.0 0
208896.0 439386.0 0
211089.0 437906.0 0
212985.0 435471.0 0
214895.0 439324.0 0
216713.0 435039.0 0
219945.0 436932.0 0
223995.0 436879.0 0
227587.0 436981.0 0
231035.0 434556.0 0
229169.0 440102.0 0
231975.0 437511.0 0
235531.0 437449.0 0
239330.0 436467.0 0
243625.0 437004.0 0
247755.0 437194.0 0
251396.0 434906.0 0
251606.0 439436.0 0
254164.0 437381.0 0
256959.0 435276.0 0
256730.0 439051.0 0
263212.0 435704.0 0
260329.0 437791.0 0
266473.0 438119.0 0
268914.0 434934.0 0
270377.0 439198.0 0
271358.0 435677.0 0
275413.0 434981.0 0
273678.0 438166.0 0
277555.0 439358.0 0
279481.0 435636.0 0
281635.0 439434.0 0
287172.0 434938.0 0
284049.0 436725.0 0
288060.0 438449.0 0
291348.0 437095.0 0
294813.0 437393.0 0
297577.0 436400.0 0
300808.0 438475.0 0
304204.0 436915.0 0
307524.0 438094.0 0
310598.0 438561.0 0
313688.0 437679.0 0
316758.0 437896.0 0
321223.0 438974.0 0
327543.0 437622.0 0
324515.0 438213.0 0
327030.0 440090.0 0
330723.0 436595.0 0
331769.0 439946.0 0
338482.0 437206.0 0
335143.0 438955.0 0
342055.0 437092.0 0
343096.0 439948.0 0
345750.0 439326.0 0
348178.0 439114.0 0
349559.0 437094.0 0
353281.0 436655.0 0
350102.0 441281.0 0
352190.0 439164.0 0
357122.0 439097.0 0
354907.0 440615.0 0
360196.0 436855.0 0
361487.0 439832.0 0
359176.0 441454.0 0
364731.0 437596.0 0
367626.0 437468.0 0
364831.0 440264.0 0
367914.0 440834.0 0
370692.0 438748.0 0
373283.0 440583.0 0
374593.0 438108.0 0
377212.0 438758.0 0
379026.0 441291.0 0
381671.0 439216.0 0
384287.0 440563.0 0
386743.0 438409.0 0
389187.0 440046.0 0
391236.0 438199.0 0
393488.0 439019.0 0
391441.0 441881.0 0
393631.0 441545.0 0
395561.0 437501.0 0
397886.0 439023.0 0
396544.0 441616.0 0
400592.0 440356.0 0
94413.9 443333.0 0
91972.8 445954.0 0
97435.3 442174.0 0
94853.2 446338.0 0
98192.0 445307.0 0
101551.0 443661.0 0
104273.0 443817.0 0
102597.0 446416.0 0
108561.0 445396.0 0
113204.0 442162.0 0
112626.0 444106.0 0
115092.0 444705.0 0
117918.0 442521.0 0
119768.0 445851.0 0
123818.0 444568.0 0
127167.0 445120.0 0
129059.0 443529.0 0
132242.0 443136.0 0
134554.0 444351.0 0
137761.0 441953.0 0
139600.0 444833.0 0
142084.0 441991.0 0
145046.0 442952.0 0
143030.0 445767.0 0
148110.0 444338.0 0
148988.0 441438.0 0
151948.0 442411.0 0
154627.0 443523.0 0
158240.0 442872.0 0
165297.0 440396.0 0
161964.0 442140.0 0
165955.0 443343.0 0
168812.0 443066.0 0
168685.0 445619.0 0
176434.0 441359.0 0
171722.0 443772.0 0
174941.0 444161.0 0
179963.0 441436.0 0
177779.0 443634.0 0
181577.0 444647.0 0
185737.0 441941.0 0
188326.0 444102.0 0
190361.0 442294.0 0
194381.0 441378.0 0
193045.0 442935.0 0
195732.0 444815.0 0
198223.0 440846.0 0
200181.0 444921.0 0
202141.0 440855.0 0
203661.0 443630.0 0
207370.0 443504.0 0
211242.0 441830.0 0
211376.0 445547.0 0
218898.0 441371.0 0
215228.0 443765.0 0
219816.0 444513.0 0
222255.0 440467.0 0
222542.0 443318.0 0
225604.0 441214.0 0
228786.0 443277.0 0
232335.0 440910.0 0
232815.0 444692.0 0
239584.0 440518.0 0
236073.0 441390.0 0
243231.0 440744.0 0
240945.0 443479.0 0
247354.0 442432.0 0
251958.0 443279.0 0
258940.0 440971.0 0
255234.0 441576.0 0
258032.0 444285.0 0
263006.0 440037.0 0
261715.0 442886.0 0
266337.0 442596.0 0
269301.0 442189.0 0
271312.0 442977.0 0
273704.0 441489.0 0
277039.0 443883.0 0
280359.0 442665.0 0
283274.0 443675.0 0
285288.0 440941.0 0
288806.0 442583.0 0
290956.0 440716.0 0
291143.0 443831.0 0
297604.0 440225.0 0
293915.0 441432.0 0
298010.0 444203.0 0
301629.0 443263.0 0
305272.0 441010.0 0
305990.0 444842.0 0
309631.0 441420.0 0
308782.0 444028.0 0
312146.0 443022.0 0
313746.0 440806.0 0
317834.0 441653.0 0
315642.0 445284.0 0
321521.0 443999.0 0
324235.0 441425.0 0
326453.0 444309.0 0
329300.0 441196.0 0
329216.0 443557.0 0
332992.0 443351.0 0
336269.0 442719.0 0
336707.0 446340.0 0
340220.0 441787.0 0
340056.0 445614.0 0
342756.0 446293.0 0
345101.0 442217.0 0
347431.0 442067.0 0
344062.0 444286.0 0
347530.0 444288.0 0
351407.0 443911.0 0
354690.0 443556.0 0
358394.0 444028.0 0
354878.0 446612.0 0
363288.0 443070.0 0
366507.0 443721.0 0
366515.0 446261.0 0
369038.0 445518.0 0
370403.0 443088.0 0
373402.0 445439.0 0
375692.0 442678.0 0
377420.0 445043.0 0
380878.0 443588.0 0
379991.0 446427.0 0
384745.0 444121.0 0
387966.0 443316.0 0
390431.0 444318.0 0
392558.0 446058.0 0
395109.0 444643.0 0
398964.0 442697.0 0
398094.0 446355.0 0
400934.0 444593.0 0
402802.0 442179.0 0
405329.0 443739.0 0
402956.0 445967.0 0
407583.0 445865.0 0
410560.0 446522.0 0
84165.7 449780.0 0
82190.3 452093.0 0
86645.8 448778.0 0
89181.7 447341.0 0
87359.4 452313.0 0
92692.3 449457.0 0
90435.1 450962.0 0
94584.9 450473.0 0
95289.5 448290.0 0
96873.5 450166.0 0
99083.0 448029.0 0
101193.0 450315.0 0
105138.0 449163.0 0
108001.0 451276.0 0
111359.0 448592.0 0
114765.0 447497.0 0
112299.0 451875.0 0
117581.0 449062.0 0
115520.0 451870.0 0
119524.0 451623.0 0
121675.0 448535.0 0
124559.0 448160.0 0
121934.0 451009.0 0
125065.0 451498.0 0
127804.0 447867.0 0
128451.0 451362.0 0
130953.0 450072.0 0
130889.0 446811.0 0
133441.0 447511.0 0
133789.0 450947.0 0
136049.0 446601.0 0
139495.0 448542.0 0
136747.0 449706.0 0
142127.0 448147.0 0
140959.0 450485.0 0
143614.0 449850.0 0
145645.0 447693.0 0
148343.0 450384.0 0
151118.0 446583.0 0
155737.0 446593.0 0
153483.0 449419.0 0
159168.0 446614.0 0
162973.0 445677.0 0
163770.0 449849.0 0
166690.0 446591.0 0
167443.0 449680.0 0
170622.0 450889.0 0
170965.0 447095.0 0
174086.0 447383.0 0
173236.0 450091.0 0
177496.0 445927.0 0
176378.0 449697.0 0
179907.0 448940.0 0
185296.0 446129.0 0
183918.0 449544.0 0
188592.0 447241.0 0
187284.0 451527.0 0
191898.0 445494.0 0
197912.0 446891.0 0
191721.0 449375.0 0
194832.0 448019.0 0
197870.0 449680.0 0
203958.0 446706.0 0
201187.0 448271.0 0
204097.0 450628.0 0
207241.0 447678.0 0
210806.0 449677.0 0
214197.0 447563.0 0
217185.0 446355.0 0
217457.0 449723.0 0
221064.0 448239.0 0
224967.0 446203.0 0
229167.0 446814.0 0
231338.0 449098.0 0
238006.0 445111.0 0
235188.0 447825.0 0
243411.0 444862.0 0
241179.0 447033.0 0
245747.0 447564.0 0
249862.0 446852.0 0
254390.0 446429.0 0
257817.0 448241.0 0
261269.0 447368.0 0
264599.0 445663.0 0
266769.0 447977.0 0
273431.0 445547.0 0
269583.0 446048.0 0
273376.0 449883.0 0
276783.0 447543.0 0
283685.0 447067.0 0
280334.0 446683.0 0
282734.0 449958.0 0
286949.0 445401.0 0
286550.0 449795.0 0
290533.0 447404.0 0
294175.0 445661.0 0
297344.0 448716.0 0
300109.0 447120.0 0
303392.0 446991.0 0
307955.0 447474.0 0
311759.0 446552.0 0
315509.0 450408.0 0
319301.0 447151.0 0
320030.0 450711.0 0
323120.0 450003.0 0
323620.0 446955.0 0
327997.0 448108.0 0
331512.0 446315.0 0
334324.0 449554.0 0
338884.0 448803.0 0
341053.0 448093.0 0
341547.0 450966.0 0
347243.0 447721.0 0
344095.0 449024.0 0
350742.0 446962.0 0
353286.0 449296.0 0
357871.0 447364.0 0
357477.0 451463.0 0
362509.0 446276.0 0
361347.0 450094.0 0
365354.0 449407.0 0
368331.0 449462.0 0
372111.0 449017.0 0
376737.0 447160.0 0
379474.0 448862.0 0
376222.0 450491.0 0
383189.0 447716.0 0
381917.0 450476.0 0
387896.0 447054.0 0
385819.0 448833.0 0
386329.0 451095.0 0
388975.0 451490.0 0
390372.0 448623.0 0
395007.0 448785.0 0
393210.0 450749.0 0
399684.0 449178.0 0
396975.0 450864.0 0
402060.0 447889.0 0
404447.0 447878.0 0
401518.0 451899.0 0
404900.0 450813.0 0
408054.0 449486.0 0
412772.0 448445.0 0
410882.0 451275.0 0
415635.0 450151.0 0
418242.0 451559.0 0
77069.4 455026.0 0
74163.2 456483.0 0
79336.4 452962.0 0
80480.6 456884.0 0
84325.9 454641.0 0
89080.8 454978.0 0
94116.4 452656.0 0
91980.6 453878.0 0
97568.2 452367.0 0
96035.3 453811.0 0
95944.5 456561.0 0
99527.4 455956.0 0
100330.0 453218.0 0
104296.0 453071.0 0
103050.0 455876.0 0
106360.0 454270.0 0
108967.0 453497.0 0
109620.0 456419.0 0
112811.0 455104.0 0
116319.0 454385.0 0
119671.0 454365.0 0
123020.0 454006.0 0
126809.0 455068.0 0
130241.0 454007.0 0
128959.0 457103.0 0
133370.0 454401.0 0
136995.0 452255.0 0
138986.0 452004.0 0
137165.0 454854.0 0
141952.0 452819.0 0
144875.0 452216.0 0
140710.0 455874.0 0
145161.0 455290.0 0
148461.0 453957.0 0
148701.0 456682.0 0
151730.0 451747.0 0
151338.0 454451.0 0
154015.0 452892.0 0
154415.0 455431.0 0
156616.0 450872.0 0
160343.0 450406.0 0
157692.0 454452.0 0
160832.0 453297.0 0
160974.0 455357.0 0
163876.0 453490.0 0
166997.0 452750.0 0
170198.0 454054.0 0
174428.0 453286.0 0
178210.0 453242.0 0
181748.0 452844.0 0
184433.0 455507.0 0
194561.0 451549.0 0
191104.0 452912.0 0
197032.0 453407.0 0
200420.0 452544.0 0
203472.0 455063.0 0
207758.0 452608.0 0
213970.0 450538.0 0
212086.0 453451.0 0
215374.0 452917.0 0
219036.0 453321.0 0
222859.0 451397.0 0
224748.0 454800.0 0
227076.0 450578.0 0
228578.0 454775.0 0
234169.0 451534.0 0
230486.0 451999.0 0
232296.0 454771.0 0
238584.0 450303.0 0
236552.0 454609.0 0
243006.0 450148.0 0
241102.0 454797.0 0
248399.0 450787.0 0
245400.0 453082.0 0
248359.0 454679.0 0
252651.0 450369.0 0
251222.0 453917.0 0
256046.0 450441.0 0
255723.0 454461.0 0
259867.0 451887.0 0
264420.0 451102.0 0
269201.0 450726.0 0
271877.0 453741.0 0
278716.0 451390.0 0
275540.0 454844.0 0
283369.0 454105.0 0
287418.0 453522.0 0
290454.0 451398.0 0
293489.0 453463.0 0
290471.0 455631.0 0
293928.0 450014.0 0
296409.0 455872.0 0
296984.0 452464.0 0
301360.0 451571.0 0
299774.0 455226.0 0
306020.0 450438.0 0
304866.0 454003.0 0
307747.0 453404.0 0
310710.0 451192.0 0
310976.0 455189.0 0
314254.0 454943.0 0
318907.0 454925.0 0
322814.0 453588.0 0
326368.0 451872.0 0
326202.0 455839.0 0
328860.0 454754.0 0
330621.0 451808.0 0
338323.0 451918.0 0
334602.0 453584.0 0
337013.0 454529.0 0
341106.0 454127.0 0
347719.0 451524.0 0
344813.0 453036.0 0
346839.0 456416.0 0
351022.0 452005.0 0
349487.0 454899.0 0
354448.0 454600.0 0
358783.0 455262.0 0
361185.0 453990.0 0
363997.0 452388.0 0
364320.0 455530.0 0
367765.0 453465.0 0
371544.0 453317.0 0
374367.0 455992.0 0
374631.0 453515.0 0
379028.0 452908.0 0
377329.0 455754.0 0
384278.0 452770.0 0
381949.0 455345.0 0
387697.0 455541.0 0
392389.0 452884.0 0
390732.0 454443.0 0
394478.0 454859.0 0
392718.0 456910.0 0
396455.0 453208.0 0
399119.0 453832.0 0
396796.0 456827.0 0
399732.0 456242.0 0
403193.0 456121.0 0
406093.0 454026.0 0
409355.0 454285.0 0
414172.0 453086.0 0
413830.0 455922.0 0
417508.0 454258.0 0
420864.0 453164.0 0
423487.0 454634.0 0
421029.0 456187.0 0
425592.0 456592.0 0
68486.4 460232.0 0
65508.6 462149.0 0
71256.1 458233.0 0
72697.2 460905.0 0
75656.8 459466.0 0
78383.0 459356.0 0
75536.1 462528.0 0
82748.5 458973.0 0
79750.9 462002.0 0
82765.9 461961.0 0
85942.5 457640.0 0
89502.1 458429.0 0
85991.0 460811.0 0
92771.7 457290.0 0
90300.1 461589.0 0
93573.9 460646.0 0
96767.8 459552.0 0
97612.5 462295.0 0
100101.0 458613.0 0
103067.0 458846.0 0
100200.0 460924.0 0
102834.0 461716.0 0
106067.0 457365.0 0
106803.0 459999.0 0
110457.0 459152.0 0
113865.0 457034.0 0
113438.0 459852.0 0
116416.0 456884.0 0
116047.0 459060.0 0
119693.0 457488.0 0
117883.0 460457.0 0
123896.0 457714.0 0
121261.0 461328.0 0
126800.0 460269.0 0
130365.0 462112.0 0
131641.0 458249.0 0
134192.0 461985.0 0
135333.0 458670.0 0
139091.0 460139.0 0
143011.0 458274.0 0
145779.0 458702.0 0
146406.0 461812.0 0
149051.0 459897.0 0
151480.0 457345.0 0
152672.0 460752.0 0
155025.0 458340.0 0
158955.0 458091.0 0
162986.0 457268.0 0
167003.0 456248.0 0
165415.0 460565.0 0
169551.0 458439.0 0
172050.0 456800.0 0
172992.0 460677.0 0
175573.0 457057.0 0
179646.0 457279.0 0
176689.0 460307.0 0
182043.0 460305.0 0
188925.0 455912.0 0
186212.0 459235.0 0
193684.0 455962.0 0
190516.0 459126.0 0
194424.0 460452.0 0
198774.0 457570.0 0
203268.0 459840.0 0
206739.0 456953.0 0
209898.0 455740.0 0
206916.0 460616.0 0
209780.0 459260.0 0
215138.0 456078.0 0
212223.0 457065.0 0
218035.0 458382.0 0
221372.0 455899.0 0
222498.0 459060.0 0
225904.0 458945.0 0
229960.0 458653.0 0
233955.0 458442.0 0
238036.0 458849.0 0
249847.0 457623.0 0
245684.0 457771.0 0
252933.0 457332.0 0
257991.0 458354.0 0
263136.0 455680.0 0
259772.0 455899.0 0
261428.0 459204.0 0
267916.0 455716.0 0
272558.0 458195.0 0
276675.0 459751.0 0
279691.0 456624.0 0
283267.0 458543.0 0
286776.0 457800.0 0
293235.0 457250.0 0
290467.0 460353.0 0
295215.0 460235.0 0
299618.0 459473.0 0
303483.0 457235.0 0
307626.0 456843.0 0
307275.0 460807.0 0
311880.0 459611.0 0
316673.0 459114.0 0
322840.0 457667.0 0
320351.0 460185.0 0
328848.0 457820.0 0
326687.0 459552.0 0
332199.0 456021.0 0
331625.0 460892.0 0
335281.0 456819.0 0
335646.0 460000.0 0
339294.0 457557.0 0
343450.0 456810.0 0
342878.0 460340.0 0
346431.0 460250.0 0
352018.0 457183.0 0
349921.0 459262.0 0
354197.0 459241.0 0
353297.0 461556.0 0
356791.0 457410.0 0
356706.0 461167.0 0
361528.0 456903.0 0
359828.0 459449.0 0
363645.0 461111.0 0
365129.0 458344.0 0
368408.0 456921.0 0
368613.0 460431.0 0
371683.0 456995.0 0
372663.0 460764.0 0
379871.0 457957.0 0
376151.0 459336.0 0
384846.0 457825.0 0
383017.0 461342.0 0
387759.0 461109.0 0
390149.0 458809.0 0
395104.0 459100.0 0
392559.0 461247.0 0
399296.0 458785.0 0
397950.0 461824.0 0
402285.0 459007.0 0
404964.0 460912.0 0
401859.0 461358.0 0
406497.0 458203.0 0
408100.0 461302.0 0
410812.0 457822.0 0
411210.0 461682.0 0
415018.0 460824.0 0
417570.0 457911.0 0
420610.0 460350.0 0
422821.0 458357.0 0
425580.0 460188.0 0
423607.0 461792.0 0
428334.0 457683.0 0
428268.0 462167.0 0
430581.0 459629.0 0
433290.0 461064.0 0
56201.0 466826.0 0
59560.0 465839.0 0
62082.3 463580.0 0
61903.3 467863.0 0
64373.8 465503.0 0
67726.0 464826.0 0
68158.7 467631.0 0
69486.0 462778.0 0
70672.5 465669.0 0
71880.1 463489.0 0
72066.1 467367.0 0
73853.2 464641.0 0
77743.8 464259.0 0
75329.1 467298.0 0
80568.3 465975.0 0
84154.0 465214.0 0
87446.9 463153.0 0
91769.2 464946.0 0
94752.2 463834.0 0
96262.9 466650.0 0
99876.7 464407.0 0
103219.0 465005.0 0
99136.6 467541.0 0
105372.0 461765.0 0
109265.0 462184.0 0
107046.0 465179.0 0
112459.0 463480.0 0
111286.0 466873.0 0
115926.0 462917.0 0
118792.0 464215.0 0
120792.0 466046.0 0
124315.0 464059.0 0
132760.0 465285.0 0
137247.0 464151.0 0
140912.0 465230.0 0
142772.0 461797.0 0
145139.0 465150.0 0
149411.0 464045.0 0
154113.0 464157.0 0
155124.0 467117.0 0
156702.0 461641.0 0
157938.0 465034.0 0
161052.0 461917.0 0
161554.0 466096.0 0
164209.0 464042.0 0
165008.0 466522.0 0
169122.0 461597.0 0
167035.0 464291.0 0
170663.0 464994.0 0
175090.0 464123.0 0
178760.0 462453.0 0
181084.0 463838.0 0
184232.0 462991.0 0
186161.0 465824.0 0
188245.0 462708.0 0
191626.0 462687.0 0
193873.0 464893.0 0
196780.0 462468.0 0
199568.0 461999.0 0
202191.0 464398.0 0
205529.0 463240.0 0
209330.0 463782.0 0
213358.0 460829.0 0
216664.0 463042.0 0
220569.0 461708.0 0
224212.0 463397.0 0
228160.0 462824.0 0
231745.0 462446.0 0
235157.0 462385.0 0
238830.0 463326.0 0
242076.0 460231.0 0
242102.0 464648.0 0
245230.0 463234.0 0
248702.0 461633.0 0
251905.0 460555.0 0
252362.0 464358.0 0
255113.0 460128.0 0
256125.0 463708.0 0
259088.0 461697.0 0
262369.0 463101.0 0
265013.0 459973.0 0
269209.0 461271.0 0
266108.0 464618.0 0
273323.0 462822.0 0
277617.0 464487.0 0
280869.0 461048.0 0
281906.0 464350.0 0
285663.0 462534.0 0
289541.0 464231.0 0
294089.0 464559.0 0
299416.0 464730.0 0
303539.0 461693.0 0
303738.0 465579.0 0
306202.0 464008.0 0
308546.0 464105.0 0
310996.0 463532.0 0
315847.0 464045.0 0
323837.0 461850.0 0
320091.0 463500.0 0
324247.0 465652.0 0
327922.0 462907.0 0
332435.0 465902.0 0
339060.0 461935.0 0
335920.0 463526.0 0
338981.0 464853.0 0
342485.0 464029.0 0
347078.0 464514.0 0
350681.0 462112.0 0
351542.0 465488.0 0
355375.0 464860.0 0
360256.0 463423.0 0
363651.0 465098.0 0
366395.0 462867.0 0
367260.0 466468.0 0
370058.0 464031.0 0
373248.0 465515.0 0
375936.0 463900.0 0
378933.0 462079.0 0
379507.0 466272.0 0
383322.0 465672.0 0
387255.0 464485.0 0
390860.0 464961.0 0
390120.0 462466.0 0
394762.0 464117.0 0
397266.0 466333.0 0
400889.0 465395.0 0
404506.0 463904.0 0
407903.0 463871.0 0
406383.0 466705.0 0
411157.0 465046.0 0
415805.0 465352.0 0
419645.0 463348.0 0
423001.0 465287.0 0
426872.0 465296.0 0
430690.0 465888.0 0
431722.0 463852.0 0
435815.0 463343.0 0
435033.0 466814.0 0
439152.0 465048.0 0
439581.0 467786.0 0
442246.0 466051.0 0
50438.1 470830.0 0
53902.8 469400.0 0
57786.4 468988.0 0
54650.4 472584.0 0
57873.0 472044.0 0
61040.2 470807.0 0
65221.9 468560.0 0
65464.6 472043.0 0
70202.2 470443.0 0
74231.4 471077.0 0
78724.9 468773.0 0
77811.0 471812.0 0
82479.7 468925.0 0
86001.6 468841.0 0
88701.5 466627.0 0
84935.7 472174.0 0
88256.4 470984.0 0
90726.1 469688.0 0
93090.4 468036.0 0
95310.0 470116.0 0
98226.8 470436.0 0
102329.0 468077.0 0
101467.0 471367.0 0
105374.0 468632.0 0
105182.0 472451.0 0
109122.0 469999.0 0
112820.0 470284.0 0
115710.0 467420.0 0
116142.0 471530.0 0
119457.0 468355.0 0
122793.0 468061.0 0
120084.0 471367.0 0
127760.0 466636.0 0
128944.0 472285.0 0
131409.0 468855.0 0
135497.0 468225.0 0
139556.0 468659.0 0
143535.0 468808.0 0
148510.0 468861.0 0
152220.0 466643.0 0
149600.0 472839.0 0
152923.0 469618.0 0
158409.0 469732.0 0
163532.0 469183.0 0
167482.0 467526.0 0
169981.0 469031.0 0
166735.0 470971.0 0
173292.0 468051.0 0
178248.0 467383.0 0
175122.0 471289.0 0
182593.0 466458.0 0
182033.0 470076.0 0
185649.0 469254.0 0
189932.0 466804.0 0
193604.0 469834.0 0
197842.0 466471.0 0
201850.0 469148.0 0
205501.0 466658.0 0
208549.0 468806.0 0
213053.0 466884.0 0
216891.0 466708.0 0
217148.0 469928.0 0
220479.0 466181.0 0
220542.0 470661.0 0
224129.0 468479.0 0
226693.0 466309.0 0
229966.0 466458.0 0
227884.0 470486.0 0
232945.0 465383.0 0
232815.0 469735.0 0
236147.0 466591.0 0
240130.0 467517.0 0
244035.0 467363.0 0
248347.0 466792.0 0
252212.0 468488.0 0
255723.0 467750.0 0
259428.0 465985.0 0
262876.0 467951.0 0
267031.0 469331.0 0
270265.0 466029.0 0
273964.0 466818.0 0
276770.0 469210.0 0
284056.0 466352.0 0
280694.0 467749.0 0
284316.0 470218.0 0
287618.0 467551.0 0
291432.0 467353.0 0
291078.0 470755.0 0
296909.0 467687.0 0
294848.0 469452.0 0
298775.0 469830.0 0
302332.0 469245.0 0
307793.0 468319.0 0
312298.0 466742.0 0
311902.0 471172.0 0
316298.0 469511.0 0
320603.0 467702.0 0
327916.0 466608.0 0
325294.0 470987.0 0
330149.0 470072.0 0
336815.0 467470.0 0
339755.0 470841.0 0
341144.0 467520.0 0
344278.0 467382.0 0
344589.0 470986.0 0
348052.0 468777.0 0
351658.0 468824.0 0
359584.0 467284.0 0
355903.0 469391.0 0
359970.0 471677.0 0
363354.0 468498.0 0
366324.0 469306.0 0
368686.0 471460.0 0
370591.0 468251.0 0
373873.0 469110.0 0
376357.0 467657.0 0
376465.0 471608.0 0
379977.0 470227.0 0
383349.0 469320.0 0
386382.0 468083.0 0
389420.0 467702.0 0
387240.0 471257.0 0
393530.0 467592.0 0
391478.0 470695.0 0
396612.0 469080.0 0
400196.0 469683.0 0
395511.0 472138.0 0
403973.0 468424.0 0
403151.0 472236.0 0
409548.0 468764.0 0
406244.0 471112.0 0
409622.0 472834.0 0
413473.0 469789.0 0
419462.0 468242.0 0
416658.0 470954.0 0
419686.0 471523.0 0
423160.0 469277.0 0
421909.0 472349.0 0
427611.0 469051.0 0
430090.0 471879.0 0
431977.0 468693.0 0
434088.0 471990.0 0
437018.0 469893.0 0
441508.0 471255.0 0
444349.0 468608.0 0
447591.0 470464.0 0
450874.0 472273.0 0
39577.4 477735.0 0
43409.4 476446.0 0
47605.7 474221.0 0
51623.8 473350.0 0
51388.7 476486.0 0
54951.6 476069.0 0
58618.2 474902.0 0
61686.7 473978.0 0
59248.4 477913.0 0
65286.7 475631.0 0
62612.3 477085.0 0
69781.9 474433.0 0
73742.6 475213.0 0
77653.8 475052.0 0
81422.4 471995.0 0
81226.2 474941.0 0
84435.1 475265.0 0
88594.1 474369.0 0
92579.4 473028.0 0
91136.5 477713.0 0
96191.4 473175.0 0
98676.2 473940.0 0
95227.6 476555.0 0
98668.8 477053.0 0
101860.0 475172.0 0
108917.0 473523.0 0
106372.0 476947.0 0
111290.0 472405.0 0
113311.0 472885.0 0
110942.0 475280.0 0
118111.0 474821.0 0
114601.0 476050.0 0
121815.0 475709.0 0
124636.0 471370.0 0
126168.0 476076.0 0
133345.0 472689.0 0
130071.0 476312.0 0
137430.0 472583.0 0
134547.0 476422.0 0
138507.0 476179.0 0
141257.0 472495.0 0
142558.0 475960.0 0
145451.0 472560.0 0
147044.0 476231.0 0
153792.0 473308.0 0
157845.0 474812.0 0
162541.0 473067.0 0
166605.0 475881.0 0
170869.0 472690.0 0
174490.0 475499.0 0
179190.0 473258.0 0
184408.0 473823.0 0
188767.0 471398.0 0
187657.0 475488.0 0
191341.0 474695.0 0
195096.0 474362.0 0
197951.0 471625.0 0
197499.0 475951.0 0
205181.0 471551.0 0
201196.0 474544.0 0
205365.0 475894.0 0
208445.0 473449.0 0
210954.0 471333.0 0
211098.0 474410.0 0
214149.0 472224.0 0
218292.0 474641.0 0
223387.0 473845.0 0
227639.0 475178.0 0
230754.0 473362.0 0
234764.0 474537.0 0
237341.0 470567.0 0
238844.0 474108.0 0
242033.0 471401.0 0
245993.0 470511.0 0
245528.0 474386.0 0
249925.0 472116.0 0
254971.0 471643.0 0
259122.0 470322.0 0
263104.0 472332.0 0
266904.0 473173.0 0
269532.0 476208.0 0
271728.0 471191.0 0
276225.0 473612.0 0
280414.0 472171.0 0
284303.0 474925.0 0
287801.0 472642.0 0
291653.0 474953.0 0
294036.0 472675.0 0
297161.0 472946.0 0
294908.0 475675.0 0
301146.0 473834.0 0
305287.0 472421.0 0
309548.0 474745.0 0
318605.0 475642.0 0
315298.0 474553.0 0
320223.0 472742.0 0
323624.0 475003.0 0
326715.0 475966.0 0
334718.0 471735.0 0
330344.0 474752.0 0
338553.0 475130.0 0
342310.0 474018.0 0
349168.0 473013.0 0
346123.0 475945.0 0
353274.0 472275.0 0
352371.0 475527.0 0
356861.0 474700.0 0
364544.0 472907.0 0
361555.0 475912.0 0
365777.0 476668.0 0
369866.0 475836.0 0
372678.0 472121.0 0
374481.0 475471.0 0
378095.0 474669.0 0
381490.0 473865.0 0
384347.0 472239.0 0
385781.0 476316.0 0
389382.0 474351.0 0
393460.0 475330.0 0
399025.0 473518.0 0
397260.0 476616.0 0
399735.0 476771.0 0
402279.0 475923.0 0
406732.0 475442.0 0
412750.0 473477.0 0
416175.0 474202.0 0
410947.0 477265.0 0
414891.0 477443.0 0
419565.0 475075.0 0
422992.0 476559.0 0
425627.0 473117.0 0
428331.0 476090.0 0
431256.0 474507.0 0
435963.0 474926.0 0
438839.0 473967.0 0
440779.0 477433.0 0
443869.0 475241.0 0
446414.0 473215.0 0
449262.0 475270.0 0
451909.0 476072.0 0
453868.0 473891.0 0
456681.0 476530.0 0
453372.0 477232.0 0
33212.0 481655.0 0
36787.6 479977.0 0
40268.1 481034.0 0
42474.8 479993.0 0
47227.9 479355.0 0
43902.9 482333.0 0
51516.1 479526.0 0
49477.8 482605.0 0
55531.6 479796.0 0
60179.9 481273.0 0
64133.9 480815.0 0
68163.0 478222.0 0
72243.1 478577.0 0
70645.3 481093.0 0
76256.3 479206.0 0
73628.1 482463.0 0
77489.3 483060.0 0
79740.5 478148.0 0
82804.7 478259.0 0
80246.4 481418.0 0
86646.2 477824.0 0
84448.2 481043.0 0
88524.7 480334.0 0
93793.2 480375.0 0
91132.1 482339.0 0
97589.8 480993.0 0
101836.0 478791.0 0
104517.0 481177.0 0
107711.0 481094.0 0
110858.0 478758.0 0
114313.0 479927.0 0
118271.0 478865.0 0
123587.0 479480.0 0
127588.0 479893.0 0
131787.0 479989.0 0
136191.0 479833.0 0
140218.0 479813.0 0
144575.0 480018.0 0
148821.0 480682.0 0
151112.0 476834.0 0
154665.0 477227.0 0
153305.0 480714.0 0
156654.0 478445.0 0
157465.0 481623.0 0
160984.0 477922.0 0
164504.0 480420.0 0
168965.0 481377.0 0
171147.0 477159.0 0
174204.0 479877.0 0
177630.0 477470.0 0
179119.0 480808.0 0
181855.0 477542.0 0
185706.0 478279.0 0
189036.0 478353.0 0
193686.0 479361.0 0
198708.0 479134.0 0
202228.0 478501.0 0
205410.0 480445.0 0
209102.0 477582.0 0
213905.0 476898.0 0
211560.0 480067.0 0
217292.0 478857.0 0
220675.0 478445.0 0
224425.0 478567.0 0
228284.0 479057.0 0
231389.0 477389.0 0
234696.0 479953.0 0
238010.0 477828.0 0
241802.0 476264.0 0
244708.0 478808.0 0
248613.0 476783.0 0
253225.0 475969.0 0
251273.0 479564.0 0
258816.0 475493.0 0
264486.0 477291.0 0
268200.0 480878.0 0
273156.0 475800.0 0
272774.0 479968.0 0
275848.0 477456.0 0
280243.0 477220.0 0
284412.0 479362.0 0
288483.0 477661.0 0
293617.0 480127.0 0
297967.0 477138.0 0
298837.0 481101.0 0
301694.0 478359.0 0
305231.0 476560.0 0
305152.0 480196.0 0
308459.0 479730.0 0
312902.0 478831.0 0
317916.0 479336.0 0
321347.0 477279.0 0
321468.0 480775.0 0
324919.0 479372.0 0
328704.0 479031.0 0
334899.0 476893.0 0
332072.0 478626.0 0
331278.0 481566.0 0
338654.0 479348.0 0
342439.0 477691.0 0
341869.0 480861.0 0
349965.0 478067.0 0
346371.0 481639.0 0
354256.0 478729.0 0
358746.0 479353.0 0
363735.0 480098.0 0
368888.0 480358.0 0
373154.0 478901.0 0
377229.0 478185.0 0
376193.0 481985.0 0
381035.0 477773.0 0
384294.0 480288.0 0
387955.0 481500.0 0
390529.0 478388.0 0
395002.0 479923.0 0
400190.0 480389.0 0
404522.0 479126.0 0
407737.0 479399.0 0
410412.0 482078.0 0
413434.0 480375.0 0
416429.0 481537.0 0
418339.0 478512.0 0
419824.0 482694.0 0
421359.0 479680.0 0
425755.0 478981.0 0
424242.0 482499.0 0
430051.0 479320.0 0
428608.0 482490.0 0
433109.0 476926.0 0
436424.0 482324.0 0
433597.0 480769.0 0
437026.0 478470.0 0
439352.0 481637.0 0
443233.0 481304.0 0
447014.0 478681.0 0
451291.0 479384.0 0
450040.0 483092.0 0
454391.0 479723.0 0
453520.0 483113.0 0
457529.0 481749.0 0
460419.0 478478.0 0
462320.0 482272.0 0
464143.0 479421.0 0
466608.0 482258.0 0
470007.0 483554.0 0
22770.8 487348.0 0
26452.7 487518.0 0
30091.2 484165.0 0
31020.6 487710.0 0
33230.3 484768.0 0
33814.5 487111.0 0
37301.3 484113.0 0
36413.0 488406.0 0
41484.6 483846.0 0
40373.2 488023.0 0
46400.9 484183.0 0
43549.8 486257.0 0
46624.2 488312.0 0
49558.0 486200.0 0
52389.9 487522.0 0
53143.8 483642.0 0
55579.9 487071.0 0
57681.8 484141.0 0
61367.7 484903.0 0
62887.1 488027.0 0
64771.4 484878.0 0
67441.4 487631.0 0
68195.5 483190.0 0
71029.4 485536.0 0
75171.9 486461.0 0
78696.1 485680.0 0
82222.9 484542.0 0
87081.9 483729.0 0
85014.3 487488.0 0
90698.7 487094.0 0
94477.4 484275.0 0
97903.6 485695.0 0
101461.0 483072.0 0
101595.0 486995.0 0
105909.0 485094.0 0
111117.0 483434.0 0
113377.0 487187.0 0
115743.0 482953.0 0
117478.0 486509.0 0
120333.0 482677.0 0
122524.0 486741.0 0
125315.0 483439.0 0
129045.0 483624.0 0
133841.0 483759.0 0
138308.0 483551.0 0
142100.0 483244.0 0
145953.0 484631.0 0
150244.0 484401.0 0
154247.0 484895.0 0
158931.0 486329.0 0
161100.0 482305.0 0
164092.0 484685.0 0
172499.0 484406.0 0
176325.0 483291.0 0
180051.0 485233.0 0
183619.0 481789.0 0
188615.0 482543.0 0
192953.0 484218.0 0
196785.0 483351.0 0
199492.0 486221.0 0
201083.0 482236.0 0
204201.0 484897.0 0
209373.0 483588.0 0
214605.0 481720.0 0
213614.0 485197.0 0
216595.0 485058.0 0
218764.0 482260.0 0
222462.0 482438.0 0
224691.0 485852.0 0
226675.0 482548.0 0
228845.0 485716.0 0
230971.0 482034.0 0
232359.0 485520.0 0
236711.0 484155.0 0
240583.0 481007.0 0
240930.0 485283.0 0
244197.0 483660.0 0
247961.0 481513.0 0
251541.0 483656.0 0
254614.0 485416.0 0
255482.0 480991.0 0
257817.0 485448.0 0
260575.0 481380.0 0
264553.0 482386.0 0
266725.0 485426.0 0
270802.0 484488.0 0
277535.0 480723.0 0
275133.0 484205.0 0
278685.0 483979.0 0
281476.0 482090.0 0
284421.0 485084.0 0
284637.0 482309.0 0
288099.0 482703.0 0
291961.0 485640.0 0
296847.0 484937.0 0
302791.0 482270.0 0
300715.0 484981.0 0
304254.0 486125.0 0
306678.0 483394.0 0
311201.0 484108.0 0
315738.0 482957.0 0
323639.0 483086.0 0
319938.0 484332.0 0
327875.0 483535.0 0
332568.0 485269.0 0
335490.0 481790.0 0
336280.0 486048.0 0
340408.0 484505.0 0
349925.0 485230.0 0
352081.0 482282.0 0
352862.0 486069.0 0
356008.0 482288.0 0
355695.0 485254.0 0
360383.0 484593.0 0
366266.0 484457.0 0
370262.0 484573.0 0
372254.0 482364.0 0
374328.0 486472.0 0
380717.0 482419.0 0
378418.0 485908.0 0
384924.0 484645.0 0
381897.0 487222.0 0
389059.0 485887.0 0
392230.0 482964.0 0
393654.0 486792.0 0
396769.0 483858.0 0
401397.0 485186.0 0
405463.0 482985.0 0
405323.0 487655.0 0
408787.0 485764.0 0
413869.0 483532.0 0
412587.0 486698.0 0
417171.0 486053.0 0
421912.0 486083.0 0
427126.0 486762.0 0
432155.0 484565.0 0
436217.0 485143.0 0
435209.0 487817.0 0
439419.0 484568.0 0
438993.0 487895.0 0
442751.0 485623.0 0
446767.0 483390.0 0
446516.0 486474.0 0
449688.0 485965.0 0
456688.0 485498.0 0
453325.0 487456.0 0
460128.0 485502.0 0
461446.0 488399.0 0
458034.0 488679.0 0
464098.0 485838.0 0
467971.0 486773.0 0
472696.0 486048.0 0
476165.0 487139.0 0
18295.3 491280.0 0
21133.3 489163.0 0
22646.2 491826.0 0
26116.4 492211.0 0
29579.1 491437.0 0
33246.0 490598.0 0
37034.5 492222.0 0
40903.1 491906.0 0
43778.2 490353.0 0
46615.4 492269.0 0
50270.6 490744.0 0
54577.4 489943.0 0
57220.9 491778.0 0
58863.5 488271.0 0
61089.5 491139.0 0
64957.0 491043.0 0
69074.4 491413.0 0
71940.3 488903.0 0
72653.2 492504.0 0
77457.5 488584.0 0
75182.0 490310.0 0
77877.2 490980.0 0
80554.1 488859.0 0
83202.0 490968.0 0
87470.5 491032.0 0
91813.0 492208.0 0
95213.5 488800.0 0
99248.4 489881.0 0
109077.0 488277.0 0
104331.0 490097.0 0
108166.0 492015.0 0
112068.0 491494.0 0
115669.0 490485.0 0
118332.0 492780.0 0
119438.0 489575.0 0
123348.0 492126.0 0
126658.0 487708.0 0
128380.0 492402.0 0
131082.0 487790.0 0
133726.0 492205.0 0
136306.0 487769.0 0
138736.0 491823.0 0
141347.0 487545.0 0
143082.0 491938.0 0
145456.0 488772.0 0
148300.0 487455.0 0
148151.0 492012.0 0
151372.0 488004.0 0
153074.0 491289.0 0
155069.0 488452.0 0
162803.0 489575.0 0
167932.0 487133.0 0
172143.0 488118.0 0
170061.0 490865.0 0
176036.0 487292.0 0
179842.0 490489.0 0
184631.0 486924.0 0
190217.0 487537.0 0
187008.0 489831.0 0
195100.0 488120.0 0
198655.0 490955.0 0
202423.0 488985.0 0
207195.0 489404.0 0
211474.0 488010.0 0
215475.0 488989.0 0
220323.0 487113.0 0
224008.0 489382.0 0
226991.0 488736.0 0
230840.0 490113.0 0
234601.0 488436.0 0
238857.0 489390.0 0
244108.0 488517.0 0
247990.0 485998.0 0
248371.0 490192.0 0
251689.0 487377.0 0
255779.0 488732.0 0
259341.0 491046.0 0
262054.0 486820.0 0
265755.0 489379.0 0
269464.0 488721.0 0
273443.0 488139.0 0
277309.0 487832.0 0
275917.0 491066.0 0
280627.0 486392.0 0
280080.0 491014.0 0
283463.0 488956.0 0
287614.0 488537.0 0
291326.0 490353.0 0
295552.0 489768.0 0
300578.0 489700.0 0
308129.0 487486.0 0
305199.0 489983.0 0
312160.0 489237.0 0
315726.0 486967.0 0
316010.0 491529.0 0
319818.0 488906.0 0
324592.0 487347.0 0
323198.0 491404.0 0
329625.0 488360.0 0
334171.0 489012.0 0
337893.0 489025.0 0
341709.0 488937.0 0
346197.0 487312.0 0
351080.0 488682.0 0
354694.0 488664.0 0
357326.0 487858.0 0
359960.0 489137.0 0
357405.0 491065.0 0
364360.0 488883.0 0
369853.0 488983.0 0
374417.0 490371.0 0
378314.0 489660.0 0
382772.0 490980.0 0
385993.0 488556.0 0
390420.0 489778.0 0
394979.0 491053.0 0
398020.0 487883.0 0
398989.0 491848.0 0
402147.0 489740.0 0
405330.0 491233.0 0
408721.0 489352.0 0
412482.0 490121.0 0
407314.0 491802.0 0
410263.0 492700.0 0
415836.0 489884.0 0
420101.0 489608.0 0
424062.0 489380.0 0
431624.0 488961.0 0
427829.0 491389.0 0
436357.0 491106.0 0
440458.0 490737.0 0
442585.0 489040.0 0
445545.0 489665.0 0
443491.0 492211.0 0
449355.0 488952.0 0
452261.0 491468.0 0
448257.0 493069.0 0
456186.0 491796.0 0
460825.0 492228.0 0
464722.0 489690.0 0
465257.0 493451.0 0
468223.0 491185.0 0
470922.0 489160.0 0
471440.0 492186.0 0
475135.0 490615.0 0
478960.0 489468.0 0
481850.0 491721.0 0
478730.0 493761.0 0
6222.77 498196.0 0
8916.95 496830.0 0
11702.0 495066.0 0
15033.3 493404.0 0
14728.0 497148.0 0
19028.7 495340.0 0
23629.2 495992.0 0
27958.9 495898.0 0
32563.2 495289.0 0
36334.3 496389.0 0
39566.9 495079.0 0
39112.6 498882.0 0
43788.4 495499.0 0
49138.2 495051.0 0
52387.5 496395.0 0
53375.4 493353.0 0
56314.4 496282.0 0
59547.7 494093.0 0
60217.5 497813.0 0
63175.2 494622.0 0
66829.3 494291.0 0
63157.2 497988.0 0
65998.5 497852.0 0
70572.5 496234.0 0
75947.8 494308.0 0
79979.5 493252.0 0
81393.2 495856.0 0
79060.1 498116.0 0
84221.4 494193.0 0
88184.5 495176.0 0
92146.5 496296.0 0
96103.0 493244.0 0
98681.0 496133.0 0
101004.0 493258.0 0
101765.0 497272.0 0
105228.0 494464.0 0
110325.0 495821.0 0
114988.0 494564.0 0
119741.0 496628.0 0
125483.0 497204.0 0
130911.0 496988.0 0
136361.0 496330.0 0
140527.0 494793.0 0
144138.0 495813.0 0
148089.0 497128.0 0
153122.0 495967.0 0
157852.0 492016.0 0
162181.0 494731.0 0
166298.0 492453.0 0
169998.0 495071.0 0
174221.0 491846.0 0
177200.0 494657.0 0
184566.0 492867.0 0
180617.0 496240.0 0
188778.0 491689.0 0
188902.0 495911.0 0
192218.0 492124.0 0
195460.0 492903.0 0
198425.0 496310.0 0
202837.0 493676.0 0
207273.0 494875.0 0
211845.0 492728.0 0
218377.0 491920.0 0
215682.0 493761.0 0
222155.0 492373.0 0
223831.0 496008.0 0
226727.0 492947.0 0
230830.0 495356.0 0
235044.0 492983.0 0
238634.0 495640.0 0
241879.0 493025.0 0
245598.0 492921.0 0
249661.0 495643.0 0
252333.0 491126.0 0
255595.0 493938.0 0
263320.0 491913.0 0
264501.0 494915.0 0
267815.0 493412.0 0
272006.0 492259.0 0
274709.0 494681.0 0
277638.0 494009.0 0
280894.0 495977.0 0
284768.0 493157.0 0
289174.0 493889.0 0
292881.0 493141.0 0
296248.0 494157.0 0
299918.0 494886.0 0
304103.0 494114.0 0
308979.0 492461.0 0
310160.0 496066.0 0
313331.0 495134.0 0
317182.0 495521.0 0
320059.0 493421.0 0
324115.0 495402.0 0
327236.0 491905.0 0
328832.0 496771.0 0
332187.0 492875.0 0
336440.0 492463.0 0
340396.0 492500.0 0
344654.0 492043.0 0
343562.0 495608.0 0
348870.0 491978.0 0
346931.0 495238.0 0
353537.0 492469.0 0
350592.0 496420.0 0
354399.0 497010.0 0
357595.0 494911.0 0
361706.0 493302.0 0
360579.0 497283.0 0
366533.0 493290.0 0
369659.0 493095.0 0
370118.0 496381.0 0
372591.0 492986.0 0
374057.0 496280.0 0
376312.0 493395.0 0
380031.0 493579.0 0
383580.0 495822.0 0
387154.0 492761.0 0
392176.0 494619.0 0
397293.0 495737.0 0
402441.0 494194.0 0
406661.0 494958.0 0
411311.0 496332.0 0
414103.0 493136.0 0
415858.0 497102.0 0
418360.0 493183.0 0
420661.0 497787.0 0
423706.0 493669.0 0
428566.0 495504.0 0
431973.0 493160.0 0
435464.0 494657.0 0
432778.0 497052.0 0
439876.0 494282.0 0
436975.0 497856.0 0
444553.0 495838.0 0
448843.0 497782.0 0
453465.0 495967.0 0
458244.0 495670.0 0
460270.0 498801.0 0
462364.0 496051.0 0
466022.0 497115.0 0
469750.0 495527.0 0
474713.0 495171.0 0
477918.0 498431.0 0
481511.0 496838.0 0
485180.0 494453.0 0
489236.0 496670.0 0
492920.0 498262.0 0
2696.5 500049.0 0
11144.5 500028.0 0
6931.76 502043.0 0
15321.6 500909.0 0
17581.7 499099.0 0
21160.9 499866.0 0
18195.6 503241.0 0
25812.7 500185.0 0
23205.4 503844.0 0
30212.0 500189.0 0
27584.9 504239.0 0
32228.5 503954.0 0
34414.8 499828.0 0
37039.9 502947.0 0
43081.0 501628.0 0
47030.2 498568.0 0
50603.3 499357.0 0
48345.4 502901.0 0
52797.4 503067.0 0
54099.8 499514.0 0
57779.5 501740.0 0
62774.5 501368.0 0
67692.6 501451.0 0
71379.5 500083.0 0
74800.0 498342.0 0
73533.9 501139.0 0
76571.6 502524.0 0
81039.4 502022.0 0
83845.3 498291.0 0
88536.6 499271.0 0
85092.6 502085.0 0
92358.7 500733.0 0
95529.3 497804.0 0
98807.7 498994.0 0
96475.5 501807.0 0
101257.0 501892.0 0
105814.0 498887.0 0
110327.0 500768.0 0
114539.0 498489.0 0
118363.0 501262.0 0
122269.0 499951.0 0
124842.0 501495.0 0
128839.0 501454.0 0
134294.0 501879.0 0
140420.0 499561.0 0
145136.0 500480.0 0
150449.0 501765.0 0
158239.0 497417.0 0
155276.0 500451.0 0
158519.0 502040.0 0
162081.0 499699.0 0
165912.0 497368.0 0
165825.0 502112.0 0
169685.0 499778.0 0
173924.0 497257.0 0
177397.0 499699.0 0
181105.0 501177.0 0
184743.0 498321.0 0
188672.0 501262.0 0
193360.0 497074.0 0
196238.0 500439.0 0
202276.0 497799.0 0
205701.0 500270.0 0
214134.0 496550.0 0
210540.0 497935.0 0
214083.0 501096.0 0
219033.0 497737.0 0
223823.0 499595.0 0
227113.0 497843.0 0
230496.0 500620.0 0
234689.0 497921.0 0
238881.0 500270.0 0
243636.0 497779.0 0
247568.0 499657.0 0
253790.0 498809.0 0
257065.0 497255.0 0
257769.0 500813.0 0
260907.0 496318.0 0
266338.0 498773.0 0
271568.0 497448.0 0
276693.0 497834.0 0
280280.0 500752.0 0
285110.0 498603.0 0
289639.0 498129.0 0
293163.0 496606.0 0
297102.0 498176.0 0
302128.0 500142.0 0
307037.0 497535.0 0
311125.0 499463.0 0
315866.0 499706.0 0
320495.0 497616.0 0
320406.0 501819.0 0
325125.0 500752.0 0
333528.0 497639.0 0
338684.0 497066.0 0
336213.0 502010.0 0
343196.0 498635.0 0
347279.0 499718.0 0
352795.0 501397.0 0
357517.0 499180.0 0
365096.0 497677.0 0
361671.0 500829.0 0
369034.0 500246.0 0
373793.0 500417.0 0
378309.0 497824.0 0
377666.0 501688.0 0
381704.0 498944.0 0
381077.0 501716.0 0
385043.0 500435.0 0
388620.0 497721.0 0
389461.0 502456.0 0
393899.0 499821.0 0
398421.0 499774.0 0
400881.0 497870.0 0
404149.0 498418.0 0
401552.0 500982.0 0
405184.0 501816.0 0
408165.0 499052.0 0
412929.0 500584.0 0
417575.0 501430.0 0
425543.0 498489.0 0
422417.0 502020.0 0
429869.0 499495.0 0
427120.0 502959.0 0
434112.0 501122.0 0
441456.0 498548.0 0
438675.0 502541.0 0
445445.0 499759.0 0
443137.0 501997.0 0
446100.0 503509.0 0
448467.0 501584.0 0
452373.0 501105.0 0
456640.0 499733.0 0
459954.0 502897.0 0
464312.0 500547.0 0
467981.0 503890.0 0
468935.0 500022.0 0
473024.0 499361.0 0
471751.0 503070.0 0
476380.0 502420.0 0
481711.0 502397.0 0
485390.0 499705.0 0
487334.0 504322.0 0
489398.0 500945.0 0
493079.0 502018.0 0
497287.0 499983.0 0
497421.0 503919.0 0
2505.26 503963.0 0
2087.18 507352.0 0
10151.8 504258.0 0
6786.19 506764.0 0
13606.1 504044.0 0
16190.0 506952.0 0
11626.7 507102.0 0
20413.3 506474.0 0
24490.6 507693.0 0
29479.3 508651.0 0
35209.9 507347.0 0
40446.1 506226.0 0
45598.7 506432.0 0
50601.3 506886.0 0
55875.9 506391.0 0
60618.3 505555.0 0
64488.7 504653.0 0
68152.0 506167.0 0
63803.8 508237.0 0
71725.7 503504.0 0
73841.0 508262.0 0
79204.8 505971.0 0
88787.2 503777.0 0
83848.4 506170.0 0
92978.9 504946.0 0
97782.7 505981.0 0
102476.0 506282.0 0
106003.0 503535.0 0
113920.0 503159.0 0
109902.0 505407.0 0
117448.0 506122.0 0
121984.0 504584.0 0
126588.0 505328.0 0
130960.0 506445.0 0
138835.0 504165.0 0
142767.0 503844.0 0
140793.0 507063.0 0
146416.0 504332.0 0
154884.0 504888.0 0
161749.0 504058.0 0
162163.0 507079.0 0
165704.0 506760.0 0
169740.0 504311.0 0
173617.0 502108.0 0
173830.0 506279.0 0
177672.0 504223.0 0
184543.0 502561.0 0
181745.0 505180.0 0
185703.0 505979.0 0
192872.0 501830.0 0
190608.0 506526.0 0
196353.0 505317.0 0
200515.0 501642.0 0
201076.0 506284.0 0
203745.0 504416.0 0
209902.0 502355.0 0
207187.0 505565.0 0
212134.0 506292.0 0
217970.0 504685.0 0
221978.0 502016.0 0
223280.0 505727.0 0
226216.0 502166.0 0
226773.0 505153.0 0
230638.0 506227.0 0
234834.0 503068.0 0
239110.0 505433.0 0
242138.0 502653.0 0
245974.0 502933.0 0
248827.0 504970.0 0
250463.0 501773.0 0
254305.0 503361.0 0
251694.0 506477.0 0
258039.0 505729.0 0
262117.0 502166.0 0
266438.0 504484.0 0
269949.0 501897.0 0
274674.0 502258.0 0
270676.0 506371.0 0
279166.0 505430.0 0
284525.0 504505.0 0
288529.0 501834.0 0
293615.0 501748.0 0
289986.0 506022.0 0
298359.0 504329.0 0
303092.0 506377.0 0
307418.0 502180.0 0
307870.0 506517.0 0
312245.0 504290.0 0
317481.0 504695.0 0
322959.0 506353.0 0
327228.0 505033.0 0
330763.0 502193.0 0
333888.0 505872.0 0
338376.0 507031.0 0
342228.0 502692.0 0
347835.0 504994.0 0
352237.0 505750.0 0
357861.0 503158.0 0
355477.0 505823.0 0
361858.0 504581.0 0
364241.0 507529.0 0
365869.0 503214.0 0
370408.0 503520.0 0
369080.0 507464.0 0
374202.0 505255.0 0
379264.0 505198.0 0
385017.0 505292.0 0
390027.0 506647.0 0
393149.0 504462.0 0
397821.0 503732.0 0
402609.0 504746.0 0
409323.0 503129.0 0
406361.0 506008.0 0
410427.0 507111.0 0
414583.0 504860.0 0
419612.0 505576.0 0
424532.0 506494.0 0
431447.0 503737.0 0
429701.0 507790.0 0
435045.0 506231.0 0
439576.0 506509.0 0
442826.0 505241.0 0
446383.0 507183.0 0
450132.0 505013.0 0
455467.0 503612.0 0
453562.0 507571.0 0
458108.0 507142.0 0
462082.0 506503.0 0
464071.0 504407.0 0
466309.0 508444.0 0
470755.0 507182.0 0
474119.0 505835.0 0
474149.0 509658.0 0
478737.0 507143.0 0
484206.0 507503.0 0
492244.0 506267.0 0
497380.0 507644.0 0
3354.72 511410.0 0
9421.02 511029.0 0
14116.4 509921.0 0
19876.3 511457.0 0
25499.0 511602.0 0
33615.1 512069.0 0
38726.0 510600.0 0
42956.2 509976.0 0
47447.3 510782.0 0
53574.8 511563.0 0
59177.1 509607.0 0
62800.6 512571.0 0
67885.0 510338.0 0
71234.3 512759.0 0
79883.4 510776.0 0
84479.0 510378.0 0
86886.3 512696.0 0
88976.8 508533.0 0
94139.2 509423.0 0
98213.0 510771.0 0
100446.0 508625.0 0
102770.0 511310.0 0
106248.0 508302.0 0
109913.0 509753.0 0
113492.0 508040.0 0
116847.0 510833.0 0
120224.0 508571.0 0
123902.0 508836.0 0
120932.0 512328.0 0
127694.0 509186.0 0
131153.0 512027.0 0
135968.0 508379.0 0
144458.0 507587.0 0
140694.0 510775.0 0
149778.0 507856.0 0
145733.0 511853.0 0
154442.0 509381.0 0
158727.0 507541.0 0
162259.0 510314.0 0
170278.0 508575.0 0
166521.0 511432.0 0
174588.0 510113.0 0
178120.0 508116.0 0
182566.0 509571.0 0
186959.0 509347.0 0
194362.0 509842.0 0
198878.0 510288.0 0
204384.0 509773.0 0
208775.0 508971.0 0
211937.0 511196.0 0
215549.0 509215.0 0
220092.0 510366.0 0
223983.0 509497.0 0
226590.0 508163.0 0
228851.0 510779.0 0
235523.0 508066.0 0
232589.0 511087.0 0
243458.0 506701.0 0
240471.0 510032.0 0
244577.0 510947.0 0
247591.0 508017.0 0
250859.0 511761.0 0
254947.0 508935.0 0
258976.0 510380.0 0
262507.0 507383.0 0
262668.0 511724.0 0
266695.0 509798.0 0
275040.0 507895.0 0
281723.0 509357.0 0
286715.0 510588.0 0
291763.0 510257.0 0
294613.0 507142.0 0
295359.0 511453.0 0
298753.0 509007.0 0
302137.0 511154.0 0
306191.0 510692.0 0
311268.0 510332.0 0
314994.0 508200.0 0
318838.0 508924.0 0
326509.0 510300.0 0
330265.0 507692.0 0
334526.0 510374.0 0
343556.0 508300.0 0
347425.0 509726.0 0
350547.0 508762.0 0
354588.0 509955.0 0
359345.0 507767.0 0
358852.0 512527.0 0
362479.0 510841.0 0
366342.0 511683.0 0
373108.0 509165.0 0
370778.0 512405.0 0
374664.0 512160.0 0
377076.0 509044.0 0
382081.0 509530.0 0
387343.0 510413.0 0
389917.0 512472.0 0
391214.0 509571.0 0
395220.0 508316.0 0
400250.0 508443.0 0
404049.0 508277.0 0
403513.0 512101.0 0
407413.0 510019.0 0
413526.0 508391.0 0
411815.0 510986.0 0
417196.0 510343.0 0
421923.0 509100.0 0
425599.0 510556.0 0
421884.0 512929.0 0
429595.0 512919.0 0
434062.0 510989.0 0
438519.0 509780.0 0
438216.0 513773.0 0
442737.0 509006.0 0
446017.0 511237.0 0
442202.0 512762.0 0
449611.0 509494.0 0
452923.0 511584.0 0
456785.0 511680.0 0
461718.0 510906.0 0
470166.0 511753.0 0
465763.0 513981.0 0
477491.0 511540.0 0
481360.0 511359.0 0
484958.0 511644.0 0
488995.0 510008.0 0
494233.0 510963.0 0
498295.0 510869.0 0
497875.0 513767.0 0
3665.58 517099.0 0
9133.05 515724.0 0
14108.7 513884.0 0
18656.2 517240.0 0
24275.4 515172.0 0
23078.2 518362.0 0
28907.2 514627.0 0
33629.9 516772.0 0
37759.5 514402.0 0
38686.0 518772.0 0
42886.9 514579.0 0
48687.4 515746.0 0
54386.6 517430.0 0
58285.3 514168.0 0
58035.6 517183.0 0
61642.8 517631.0 0
67164.5 515141.0 0
71795.6 516293.0 0
75630.1 513815.0 0
75433.4 518347.0 0
80257.1 516478.0 0
83465.3 513614.0 0
86293.1 517190.0 0
91337.0 513976.0 0
95788.9 513463.0 0
95690.5 517542.0 0
99387.2 514751.0 0
103364.0 515466.0 0
107461.0 513283.0 0
112593.0 513090.0 0
111909.0 517595.0 0
116810.0 515314.0 0
122045.0 517296.0 0
125664.0 512722.0 0
127978.0 516699.0 0
132325.0 516520.0 0
136619.0 514265.0 0
141555.0 514669.0 0
145805.0 517512.0 0
151636.0 514023.0 0
157738.0 512601.0 0
162271.0 514644.0 0
166776.0 516388.0 0
171076.0 513307.0 0
175390.0 514893.0 0
178445.0 512089.0 0
181356.0 515712.0 0
186179.0 513502.0 0
190767.0 511803.0 0
190345.0 516212.0 0
195113.0 514490.0 0
199856.0 514515.0 0
203990.0 515180.0 0
208135.0 513137.0 0
207727.0 517291.0 0
211966.0 516038.0 0
215914.0 513377.0 0
218688.0 516996.0 0
223009.0 514975.0 0
225672.0 511867.0 0
228335.0 514968.0 0
233000.0 515564.0 0
236833.0 512563.0 0
237396.0 517402.0 0
241922.0 514821.0 0
246600.0 514242.0 0
251005.0 516590.0 0
255623.0 512925.0 0
259346.0 514837.0 0
263796.0 515838.0 0
268190.0 516539.0 0
271705.0 512512.0 0
277666.0 512307.0 0
275324.0 516166.0 0
278721.0 516895.0 0
282475.0 514484.0 0
290334.0 513914.0 0
293956.0 515732.0 0
298892.0 514419.0 0
304194.0 515615.0 0
308805.0 514382.0 0
312900.0 515865.0 0
316072.0 512415.0 0
317874.0 517170.0 0
321774.0 512942.0 0
326725.0 515104.0 0
330553.0 512831.0 0
334790.0 515451.0 0
339822.0 512695.0 0
343135.0 516600.0 0
345173.0 512839.0 0
347256.0 516213.0 0
350170.0 513041.0 0
354769.0 515186.0 0
359067.0 516650.0 0
363033.0 515168.0 0
368068.0 516781.0 0
374103.0 516948.0 0
378947.0 513598.0 0
384119.0 513944.0 0
381704.0 516285.0 0
388927.0 516477.0 0
393202.0 512968.0 0
395342.0 517460.0 0
398495.0 513156.0 0
400695.0 518138.0 0
404381.0 516095.0 0
409129.0 515027.0 0
414174.0 513971.0 0
414138.0 517881.0 0
418193.0 515749.0 0
425789.0 514318.0 0
423008.0 517634.0 0
428405.0 517183.0 0
433784.0 516491.0 0
438164.0 516865.0 0
441972.0 517307.0 0
445594.0 514987.0 0
449708.0 513960.0 0
451046.0 518584.0 0
454496.0 515285.0 0
460182.0 516110.0 0
464984.0 517792.0 0
474284.0 514012.0 0
470022.0 517017.0 0
479238.0 515446.0 0
479250.0 519721.0 0
475167.0 518478.0 0
483381.0 514470.0 0
483343.0 518547.0 0
487775.0 514988.0 0
493076.0 515017.0 0
497519.0 517432.0 0
3213.07 522968.0 0
8257.06 520522.0 0
13368.7 519000.0 0
17626.9 523033.0 0
20497.7 520290.0 0
22682.8 521969.0 0
26385.5 517971.0 0
30069.1 519328.0 0
26720.6 521900.0 0
34163.5 521150.0 0
40928.6 522194.0 0
44624.7 519862.0 0
50115.5 520776.0 0
53706.3 522809.0 0
57675.7 521449.0 0
62588.7 522810.0 0
66270.0 519718.0 0
70964.2 520429.0 0
74675.7 522353.0 0
78768.0 521483.0 0
83000.0 520930.0 0
91264.2 518857.0 0
94275.3 521987.0 0
100714.0 519578.0 0
106799.0 518304.0 0
104886.0 522572.0 0
110260.0 522904.0 0
116386.0 520751.0 0
121361.0 522221.0 0
125742.0 521333.0 0
130626.0 520725.0 0
135168.0 519199.0 0
140078.0 519252.0 0
154590.0 517836.0 0
150969.0 520718.0 0
158558.0 517777.0 0
155641.0 520780.0 0
162898.0 518724.0 0
162415.0 521867.0 0
166512.0 521774.0 0
172007.0 519150.0 0
177564.0 518615.0 0
180728.0 521839.0 0
185702.0 519527.0 0
190038.0 519659.0 0
193605.0 519690.0 0
198579.0 518805.0 0
204062.0 521092.0 0
210416.0 521545.0 0
215144.0 519589.0 0
222219.0 519529.0 0
225785.0 518288.0 0
225344.0 522039.0 0
230204.0 520188.0 0
235530.0 522164.0 0
241274.0 521377.0 0
246961.0 519222.0 0
252106.0 521253.0 0
255272.0 517393.0 0
260180.0 520287.0 0
265785.0 520433.0 0
272123.0 518008.0 0
276178.0 520385.0 0
281827.0 519185.0 0
284825.0 521967.0 0
287122.0 517487.0 0
291877.0 520463.0 0
296146.0 519258.0 0
300502.0 519642.0 0
304275.0 522622.0 0
308709.0 519668.0 0
314242.0 520617.0 0
318881.0 521868.0 0
323238.0 519003.0 0
330366.0 518207.0 0
339014.0 517899.0 0
335083.0 520518.0 0
345898.0 521147.0 0
351098.0 518625.0 0
356492.0 520788.0 0
361608.0 519439.0 0
365626.0 521431.0 0
371061.0 522145.0 0
379393.0 518433.0 0
376639.0 521922.0 0
383773.0 518371.0 0
381445.0 522166.0 0
386729.0 522505.0 0
392205.0 521497.0 0
397490.0 522175.0 0
406362.0 519512.0 0
410276.0 519721.0 0
413676.0 522666.0 0
418482.0 520583.0 0
422494.0 522095.0 0
426707.0 521222.0 0
431434.0 520586.0 0
438188.0 520455.0 0
443346.0 521764.0 0
446367.0 519012.0 0
453400.0 522456.0 0
456128.0 519250.0 0
462307.0 520643.0 0
467304.0 521700.0 0
472230.0 521506.0 0
476713.0 523099.0 0
481430.0 522630.0 0
487055.0 518868.0 0
487134.0 523678.0 0
490559.0 518946.0 0
494244.0 518785.0 0
493549.0 522633.0 0
497996.0 521368.0 0
2014.11 527370.0 0
7866.76 524400.0 0
5802.76 527798.0 0
12119.4 523736.0 0
10159.0 527818.0 0
14907.4 527514.0 0
21871.6 525750.0 0
26148.6 526110.0 0
31080.4 525044.0 0
35180.0 526521.0 0
37462.4 524079.0 0
42545.4 526051.0 0
46982.8 523964.0 0
50867.4 525412.0 0
47348.6 528110.0 0
55336.7 526589.0 0
59447.7 525613.0 0
58891.0 528903.0 0
67594.7 524497.0 0
63401.1 528388.0 0
72443.7 525778.0 0
77272.2 525942.0 0
81578.5 524896.0 0
88218.6 523505.0 0
84292.5 527817.0 0
93561.6 526950.0 0
98225.1 524420.0 0
101641.0 523388.0 0
103106.0 526618.0 0
119008.0 525447.0 0
114605.0 526211.0 0
123820.0 526181.0 0
128441.0 524757.0 0
134279.0 523797.0 0
131495.0 527002.0 0
138798.0 524158.0 0
144827.0 524374.0 0
150436.0 525771.0 0
154760.0 525078.0 0
158985.0 522772.0 0
162116.0 524678.0 0
165431.0 527379.0 0
170913.0 525244.0 0
176100.0 523346.0 0
179933.0 526367.0 0
184065.0 524776.0 0
190082.0 523211.0 0
193798.0 526160.0 0
196529.0 522926.0 0
200060.0 525594.0 0
218825.0 522870.0 0
270687.0 522892.0 0
280317.0 523950.0 0
288489.0 523779.0 0
284965.0 525975.0 0
296566.0 524682.0 0
302239.0 526653.0 0
307625.0 526164.0 0
311482.0 523880.0 0
315535.0 525309.0 0
320187.0 526012.0 0
325804.0 524827.0 0
331144.0 522985.0 0
330700.0 527160.0 0
335150.0 526024.0 0
340051.0 523077.0 0
344442.0 526772.0 0
351295.0 524496.0 0
356677.0 526497.0 0
361261.0 524066.0 0
365802.0 526223.0 0
374722.0 525626.0 0
379227.0 526327.0 0
384343.0 527606.0 0
389688.0 527372.0 0
394157.0 525926.0 0
398799.0 527287.0 0
403225.0 523486.0 0
408739.0 523511.0 0
406948.0 527603.0 0
412143.0 527915.0 0
417258.0 525848.0 0
420747.0 524784.0 0
424766.0 525732.0 0
429907.0 525091.0 0
434983.0 524202.0 0
440228.0 524839.0 0
437550.0 528391.0 0
444510.0 526600.0 0
448566.0 523459.0 0
453457.0 526715.0 0
458472.0 523954.0 0
463387.0 524136.0 0
462188.0 527707.0 0
466424.0 526412.0 0
468841.0 528865.0 0
471049.0 525632.0 0
475324.0 527076.0 0
480228.0 527076.0 0
492179.0 526915.0 0
497560.0 525420.0 0
2728.68 531561.0 0
7845.25 532301.0 0
12505.7 531233.0 0
19027.4 529074.0 0
20877.4 532879.0 0
23654.8 529757.0 0
28802.5 530520.0 0
33992.3 529856.0 0
38072.9 528390.0 0
43319.2 531724.0 0
51583.5 529685.0 0
48077.6 532017.0 0
56024.9 531803.0 0
60831.7 532790.0 0
65700.3 533467.0 0
69227.0 529699.0 0
74414.7 530221.0 0
79894.5 530348.0 0
84632.9 532337.0 0
88758.1 529606.0 0
93027.1 532234.0 0
98592.6 530222.0 0
104073.0 531046.0 0
107936.0 528164.0 0
112519.0 530772.0 0
117987.0 530244.0 0
123338.0 531759.0 0
127925.0 529267.0 0
131925.0 530656.0 0
135455.0 528482.0 0
137506.0 532111.0 0
140105.0 528658.0 0
141265.0 532922.0 0
144126.0 530170.0 0
148601.0 529708.0 0
153619.0 529969.0 0
159363.0 528010.0 0
162789.0 531703.0 0
170000.0 530753.0 0
175325.0 528404.0 0
187832.0 527641.0 0
317419.0 529877.0 0
322765.0 530528.0 0
328032.0 530372.0 0
333005.0 530374.0 0
339733.0 528825.0 0
343816.0 531538.0 0
348696.0 530003.0 0
353158.0 529105.0 0
356161.0 530883.0 0
361491.0 530282.0 0
367217.0 531864.0 0
370674.0 527963.0 0
375667.0 529928.0 0
380682.0 531421.0 0
387115.0 530242.0 0
389986.0 532138.0 0
394805.0 531002.0 0
400546.0 531843.0 0
403043.0 528506.0 0
405321.0 532138.0 0
410013.0 532986.0 0
414230.0 532470.0 0
416807.0 529834.0 0
421245.0 529201.0 0
424801.0 533669.0 0
427947.0 529658.0 0
431032.0 534036.0 0
433115.0 529268.0 0
441184.0 528806.0 0
444142.0 532375.0 0
448875.0 528948.0 0
457696.0 529400.0 0
453328.0 531722.0 0
461444.0 532084.0 0
465682.0 530606.0 0
472272.0 530085.0 0
469070.0 533196.0 0
477051.0 531359.0 0
481990.0 532189.0 0
485082.0 528877.0 0
489263.0 529768.0 0
486699.0 532954.0 0
493824.0 530936.0 0
490409.0 533092.0 0
497911.0 529435.0 0
497786.0 533451.0 0
2905.67 536762.0 0
8079.53 537342.0 0
11631.8 535012.0 0
14564.6 538074.0 0
16484.7 533331.0 0
20308.9 537967.0 0
24975.6 534493.0 0
28443.2 536476.0 0
32621.8 535036.0 0
37887.7 533138.0 0
46589.7 535913.0 0
41687.2 536949.0 0
51500.3 534647.0 0
49715.2 539135.0 0
58091.2 536301.0 0
62736.2 537623.0 0
71389.5 534278.0 0
68073.9 538334.0 0
76569.4 534820.0 0
81172.9 534985.0 0
88735.3 534551.0 0
84752.3 536755.0 0
91341.1 538216.0 0
96779.4 536729.0 0
101932.0 534672.0 0
108014.0 533347.0 0
105457.0 537716.0 0
111904.0 536958.0 0
115529.0 534158.0 0
119598.0 535419.0 0
128653.0 533928.0 0
125059.0 536196.0 0
133679.0 534768.0 0
146094.0 534843.0 0
352766.0 533228.0 0
357643.0 534219.0 0
364279.0 534664.0 0
367890.0 536860.0 0
371962.0 533196.0 0
372922.0 538191.0 0
376714.0 534836.0 0
381316.0 536550.0 0
385512.0 533792.0 0
388035.0 538059.0 0
392686.0 536232.0 0
397701.0 535421.0 0
402456.0 536081.0 0
407121.0 536736.0 0
413404.0 537012.0 0
418838.0 534552.0 0
422732.0 538254.0 0
427739.0 538505.0 0
432768.0 538634.0 0
437436.0 533798.0 0
449224.0 533528.0 0
452411.0 536511.0 0
447767.0 537541.0 0
457506.0 535182.0 0
464813.0 535342.0 0
473355.0 534573.0 0
469510.0 538635.0 0
479075.0 535751.0 0
483889.0 536927.0 0
489057.0 536759.0 0
493561.0 535455.0 0
497578.0 537819.0 0
1224.61 540477.0 0
5290.06 541759.0 0
10808.0 541552.0 0
25730.8 539159.0 0
30370.0 540055.0 0
34744.0 543004.0 0
36860.6 538179.0 0
40213.0 542122.0 0
45313.2 540671.0 0
52105.0 542380.0 0
54179.9 538756.0 0
58749.9 542026.0 0
64683.3 542344.0 0
73410.7 539022.0 0
79487.0 539324.0 0
87277.6 540322.0 0
94012.8 540856.0 0
101326.0 540075.0 0
399482.0 540490.0 0
409778.0 540933.0 0
415059.0 541865.0 0
418817.0 539653.0 0
423255.0 543189.0 0
429103.0 543675.0 0
436988.0 539292.0 0
434250.0 543015.0 0
439356.0 543425.0 0
442242.0 538424.0 0
446388.0 541880.0 0
451264.0 541398.0 0
456097.0 540166.0 0
461358.0 539676.0 0
472766.0 543664.0 0
475546.0 538997.0 0
477819.0 543468.0 0
480127.0 539718.0 0
482117.0 543154.0 0
486930.0 541781.0 0
492948.0 540680.0 0
497914.0 542232.0 0
1348.58 543031.0 0
8247.63 545783.0 0
12086.2 545668.0 0
16598.2 543493.0 0
23111.7 543784.0 0
465797.0 543608.0 0
490680.0 545530.0 0
495247.0 545195.0 0
POINT_DATA 5000
SCALARS Radius float 1
LOOKUP_TABLE default
5415.48 5120.0 6182.6 5258.36 5061.3 3163.97 3642.12 5812.43 5906.14 5254.28 5580.89 6810.52 6110.27 5073.35 4834.9 3863.18 2356.98 4998.37 5492.18 5867.73 3951.75 4499.64 5542.27 5122.66 5484.19 7513.1 4402.52 4436.4 4182.53 5733.48 3588.44 5645.7 5553.16 2938.66 3672.51 4008.92 5840.26 5670.04 6044.04 5085.53 5484.83 5351.6 4715.55 6059.59 5013.56 4375.68 5054.98 6030.06 5170.02 3557.27 4688.68 4927.31 5185.34 4517.56 4672.91 5903.42 5176.86 3761.32 4366.19 4118.05 5065.13 4940.78 5561.06 3615.22 4380.59 6716.79 3850.77 5325.36 6759.9 5538.89 4730.36 5926.61 5701.86 2720.68 4238.81 3563.63 4468.59 5200.76 5325.02 4862.64 4432.58 6684.56 3955.56 5292.64 2635.86 6166.5 5936.02 4231.61 5305.17 3379.84 5546.39 5945.65 5418.62 7021.47 5416.38 6051.14 4955.55 5836.15 4345.55 5885.03 5246.2 5017.13 5205.43 3673.74 3968.64 4385.06 4688.67 7184.19 4290.3 4861.08 3942.53 3607.45 7613.27 4133.88 4094.62 6483.19 6230.49 5493.32 4601.27 4195.44 5740.68 3261.21 6704.06 2837.58 3653.41 5600.93 3871.88 4827.23 4390.66 6116.18 4911.47 7447.37 4924.6 4733.32 2899.43 3867.67 2924.37 5399.73 4003.05 4827.82 4805.87 3589.27 5759.91 4951.03 4333.2 4665.12 3936.02 4927.02 4174.52 5109.54 7054.71 3641.64 4277.89 5747.75 5539.32 4796.33 6496.85 3856.01 5541.59 4124.71 5279.39 6337.56 5803.39 4381.97 3255.82 5242.73 2812.98 4065.69 5390.22 4712.33 5227.21 3997.1 3260.67 3383.4 3856.1 5980.74 3829.13 6458.82 5489.43 5054.25 5360.19 4874.39 4839.34 5083.08 5728.85 5863.59 3998.5 6257.19 4024.3 4737.14 5603.15 4695.45 4660.72 6038.78 5123.52 4295.38 3038.33 4780.03 4044.71 5816.2 3091.3 5789.98 5527.54 5573.7 7325.81 4055.8 4794.96 6186.19 2980.99 4840.01 6834.49 5525.39 5938.34 5555.28 6394.38 4686.65 5834.74 3888.21 5556.96 5697.78 3921.18 4667.36 4392.68 5495.39 3554.9 4487.31 3996.0 4002.16 5693.81 2540.31 6029.66 6138.47 5697.4 4727.62 5206.78 6425.26 5143.58 4484.76 5611.2 7933.0 5173.87 5118.27 5169.36 5932.23 5788.23 6052.7 6902.81 5529.52 5252.48 4015.92 4138.16 4778.34 4684.5 5120.49 6302.8 4270.95 4005.44 5280.17 5028.96 6362.12 5152.36 4220.65 6820.42 4455.12 5380.13 4894.16 5711.87 4896.52 5581.75 3798.62 4254.17 3666.57 5891.05 4091.31 7199.21 6124.89 5708.81 5043.05 3486.22 5409.61 4414.54 6038.2 5555.88 5713.22 6732.43 3866.16 4524.28 3183.98 4511.82 3778.1 5826.64 4727.24 4816.2 6959.81 6321.41 4941.22 5791.61 6392.01 6644.76 5615.42 4523.7 5255.32 5337.48 5542.21 5924.89 6894.71 5262.61 5201.36 4306.53 5094.81 5972.06 5861.71 5017.78 3794.63 5015.69 6175.81 6677.09 4829.35 4089.76 3372.79 4751.02 5282.64 5184.56 4715.72 4479.66 3369.13 5308.1 6372.62 6730.19 4937.02 7565.34 5637.59 5481.78 4937.14 3307.12 4467.94 5551.36 6038.14 6135.57 5998.38 4312.67 4359.04 4270.24 4947.52 4989.15 4520.1 4305.57 5813.4 3791.79 5201.67 5526.55 3192.41 4987.87 5367.2 4669.66 4808.52 3043.85 5461.13 4907.89 5629.19 6037.08 3103.0 4049.23 6084.86 3586.91 3115.91 5478.92 4850.81 4933.21 4723.12 5024.9 5659.17 4562.29 5423.8 4164.13 3417.33 4642.34 5153.74 5874.89 4165.81 4293.03 4424.7 4754.05 4951.47 4925.44 6084.93 3315.57 4764.96 5607.24 4726.76 3599.45 5655.21 5091.39 6756.95 5601.05 4948.92 5810.84 3748.24 5094.44 5375.47 4655.49 4809.42 4566.18 4717.05 5856.11 5287.2 4234.94 5013.13 4926.42 5080.66 5110.45 5248.77 4528.09 3556.85 4389.21 4128.98 6246.22 5246.61 5215.15 4307.28 5046.33 5053.92 5839.13 5090.24 5923.5 4073.93 2240.39 6324.23 4382.74 4516.43 4749.8 4384.42 4493.48 4230.54 6163.38 4964.09 3459.9 5543.27 4109.88 4980.85 3327.49 5714.58 3329.99 4083.97 5208.32 4607.02 3895.51 6673.96 6291.51 5882.89 4188.32 4100.38 5538.93 5804.71 5727.3 5020.12 6352.26 4242.52 3735.44 4907.06 4645.41 4786.6 5096.78 5740.84 4727.24 4612.68 4929.8 4651.28 6355.42 4362.19 5082.6 3693.63 3937.74 6061.47 4093.08 4997.27 4449.22 5628.24 3960.8 5992.26 5070.39 4923.9 4613.31 4973.78 3947.47 5091.68 3296.27 4713.25 6243.0 5441.96 5174.89 5370.52 4739.42 3697.96 4899.11 3847.38 4745.45 5356.51 3057.03 4433.59 5163.9 4973.83 5530.87 3320.52 4151.94 5690.56 5244.78 5478.47 6142.37 5806.08 4853.39 5365.89 3130.65 4511.54 5196.0 4204.84 6119.09 5069.25 5048.89 3991.03 4288.3 3435.9 4652.29 5774.81 5344.77 4278.07 4723.48 5281.28 3818.59 4863.72 2631.9 5495.68 6043.3 3912.37 6445.94 4310.18 4129.43 5927.43 5492.26 5762.84 5119.37 3982.23 5351.39 5243.29 4336.42 3402.32 7589.94 5004.67 5409.33 4466.03 4178.15 4898.94 4733.04 7531.29 5935.03 3161.47 6826.57 4495.87 4788.87 3746.31 5027.98 5097.87 5346.27 7267.18 4087.15 4143.08 5489.34 5002.48 5952.75 4281.49 5537.72 4320.28 6342.25 4685.34 6327.9 4220.88 6519.71 6640.13 3092.35 5210.03 4583.31 4306.11 5903.66 5419.37 5985.29 4247.23 5788.66 4755.47 3903.75 4485.99 6390.78 5475.8 7435.25 5543.46 5498.32 6475.1 6255.18 4758.21 7500.97 5708.14 3920.42 4262.82 6332.36 5542.14 4218.06 3843.58 5293.9 6082.81 5449.18 3629.96 4714.54 5030.91 3320.11 5507.24 6022.17 4503.89 6851.54 5313.66 4528.49 5275.32 4268.65 4649.22 4694.83 4354.08 5509.42 4520.62 5475.7 5314.69 6050.81 6022.72 5527.33 4969.21 2691.29 6256.02 4277.88 6623.85 8332.24 4931.53 6691.39 6142.94 3191.99 5110.37 5367.52 4048.37 5664.98 4659.59 4322.15 5101.59 3813.22 5570.3 5935.47 2651.49 5512.23 4711.62 5349.31 5394.55 5936.36 4256.43 5229.48 5415.19 4016.18 5127.16 4249.46 4244.99 5560.26 4643.31 5965.81 6917.52 5402.21 2845.98 4668.71 7228.46 5102.36 5787.31 7134.64 4602.25 5480.13 4329.05 4931.38 3485.26 3240.09 5025.39 4548.16 3688.8 4377.07 3848.93 5893.5 3695.36 6020.48 5234.29 5200.05 4114.24 4645.58 5670.2 2976.22 5094.52 2682.24 5928.32 4946.74 5526.75 5435.74 4275.57 5327.45 6185.89 2330.66 3702.37 4177.19 3691.0 3990.25 4752.51 4880.14 5320.92 3948.23 6362.14 5228.18 5978.82 4342.9 6122.55 5978.9 2739.94 4270.53 4736.58 4792.73 4556.36 3369.23 5264.06 4515.71 5358.59 3817.13 4547.19 3963.86 5076.35 3844.9 4091.8 5273.35 5181.4 5166.79 4662.56 5417.15 5996.33 3950.63 4612.62 6631.19 3619.07 6385.23 4467.04 2983.99 3997.96 5660.85 4750.17 3460.94 3758.07 3587.05 4373.45 4989.09 4982.31 5269.18 4406.1 6719.88 6155.31 6308.71 4790.08 4194.5 5082.47 5513.6 4901.41 6202.55 6387.01 5023.15 7111.16 6375.99 4871.44 4853.02 6259.23 4998.21 3931.07 3457.48 3405.98 7440.72 3688.16 4681.72 3949.6 5661.62 5817.25 5626.61 2614.4 4439.35 6363.92 6184.4 6205.93 3828.81 6229.37 5289.52 5034.59 5314.85 5065.11 4553.56 4942.77 4223.33 5069.84 5329.64 5911.67 4187.56 3629.62 4840.84 4997.27 4501.51 5138.31 3708.04 4551.24 3610.4 4621.75 6338.89 6480.17 4564.34 3838.56 6248.81 5088.44 5872.05 6079.11 4256.67 6430.39 4945.39 5376.71 4867.08 6648.68 5407.78 6632.99 5061.98 4923.24 5830.72 5309.98 4307.48 6718.19 4305.43 5450.44 3848.54 3927.99 5266.5 5868.82 3323.28 4051.44 4301.06 5344.25 5344.0 5191.63 5379.87 6013.14 4602.86 4581.13 3856.59 2765.2 4219.07 5413.79 5372.61 5584.06 3686.21 6445.22 5013.42 4962.77 5323.3 4427.28 4635.6 3082.32 4765.02 3658.37 4448.13 5070.29 5703.6 6326.18 4713.74 4266.03 6179.96 4537.6 4419.61 7177.44 6260.79 4407.87 4082.57 4236.14 5080.18 5941.4 4263.33 4454.63 4050.9 6695.82 4716.19 5135.69 5514.76 3456.98 4290.14 5925.6 5572.95 3979.82 6723.16 4746.52 5402.24 4948.5 5210.48 5651.07 6101.92 3627.55 6239.84 5865.39 5370.85 3178.54 5629.39 6157.04 4807.28 4768.61 2261.36 5075.55 4084.49 4220.03 5703.07 5449.46 5147.36 4662.43 4563.46 3963.76 5282.91 5169.9 6510.17 4871.96 4066.38 4523.88 6049.55 5709.62 6405.76 4877.67 4593.7 5987.17 4043.57 5586.81 5006.58 3824.16 3868.18 5130.91 3689.45 4527.02 5383.07 4519.22 7552.94 7644.38 4409.63 5521.25 3661.9 5949.46 2684.03 5246.47 3776.94 4010.57 4522.21 5506.19 5280.69 6923.84 6166.29 6113.54 4043.66 5294.77 5733.62 6553.94 4425.84 5282.51 3797.33 5331.02 7256.35 5742.65 5592.32 4241.89 5054.74 5835.78 4020.32 3498.2 6045.46 4763.45 4138.42 4481.53 5011.31 5077.33 5330.45 3948.17 4959.34 5045.38 5350.88 4531.14 4247.15 4602.85 6552.22 5379.09 4051.34 6004.68 5278.36 6799.4 5136.08 5107.23 4187.31 5558.68 3240.51 6191.29 7422.36 6719.94 5161.01 4950.67 5453.6 4709.05 3077.84 5255.18 5528.53 3004.16 4460.92 5460.65 5945.89 4105.55 4800.69 3279.1 5912.61 4978.31 4099.77 4981.9 5941.72 4245.72 3815.26 4150.99 4478.15 5681.38 4292.06 6318.18 5125.78 5452.83 4790.78 4591.87 6422.84 5534.94 5180.76 5222.16 6218.95 5533.42 5533.72 3678.08 4802.32 4599.38 5730.33 4628.4 4527.99 4376.7 5227.59 4298.15 6051.83 5409.63 4630.82 4263.16 4813.08 5726.66 6799.88 4767.78 3062.43 5426.78 4042.28 4863.23 4402.67 5381.16 3555.86 4403.98 4948.98 4414.48 5794.24 4537.32 5163.02 4127.74 6562.18 4216.92 5445.87 3771.48 5147.67 5577.04 4986.77 5423.0 5178.99 6034.41 4027.09 4135.62 5801.99 4502.18 4860.33 4993.35 3312.06 3361.26 4983.39 4690.55 5366.52 5146.37 7132.12 5518.57 5463.48 5680.94 4543.1 5545.46 5190.61 5832.37 4642.93 3973.12 6024.75 5860.67 4540.86 5235.17 5990.52 6566.1 4560.84 6386.78 5565.13 5227.52 6086.96 4541.21 4704.72 4571.7 5908.1 4271.69 4107.03 3970.25 4850.01 4138.46 5198.77 5643.58 5215.05 3975.31 5137.34 5344.43 4373.47 5197.52 6169.11 5615.35 5172.53 5266.22 3685.13 5226.97 3418.99 4480.95 5417.8 4558.15 4232.16 4836.16 5581.55 5151.11 6550.44 5193.01 8325.01 3764.06 5941.9 4440.81 6642.76 6109.49 5987.42 5567.93 5652.0 3764.1 4340.76 4435.36 5254.49 6065.22 4996.99 6193.35 4470.61 4302.5 3066.13 2476.04 4156.38 4656.78 4177.94 6048.7 6009.88 4344.58 5896.46 4742.68 4502.5 5922.5 3929.19 3633.87 3821.72 4810.12 5347.48 2775.04 6035.6 5198.29 3627.82 4044.45 5262.19 6070.58 5490.43 5022.28 4896.11 4318.48 6132.95 5008.63 4270.74 5754.18 5132.68 6595.03 6552.21 5227.02 4350.12 5670.0 5300.96 4344.51 3834.43 3474.5 4707.06 5491.37 3860.83 6348.03 5732.27 4523.39 5829.22 4497.78 5434.47 5811.18 2967.38 5332.65 5463.41 4835.83 4421.12 4779.5 4929.75 4221.28 6045.22 6649.96 4456.39 4631.83 3701.27 4092.24 4729.43 5105.16 5991.09 6006.16 4164.68 4678.38 5634.83 5316.75 5495.84 6268.1 3784.5 4862.21 5113.21 5499.11 4011.77 4374.35 6396.74 6898.19 7099.43 5526.14 4516.28 5315.4 6449.45 4244.9 6048.86 4285.32 5311.03 4986.51 5339.38 4285.66 4238.4 3872.61 3930.79 4004.35 5293.51 4763.96 3450.93 5097.45 6293.89 5737.75 2761.07 3778.02 4367.78 4095.75 3603.51 5222.51 6609.84 3781.77 5135.96 5658.37 6074.94 4250.88 3783.54 5278.56 4792.39 6917.62 5146.37 4243.79 5433.65 6451.33 5604.35 4159.35 5225.33 3091.67 4237.98 6439.37 4384.88 4896.39 4614.3 5233.78 4562.74 6887.27 5126.91 6008.49 4806.34 3942.07 5776.57 5448.61 5050.65 5133.97 4827.33 5022.8 3937.08 6133.92 7055.53 3719.84 4178.4 5782.6 7034.11 5820.48 6261.42 2586.12 6125.34 5965.78 5252.34 4527.08 2965.79 4410.55 5776.37 4287.63 5486.68 4190.31 5100.25 5678.96 4470.4 6894.26 4611.53 5094.48 5255.12 6408.83 5365.24 4586.19 6625.18 4446.06 4047.87 4185.61 5099.21 5742.47 6969.28 4917.99 5636.4 3319.67 4298.45 4076.59 4428.14 5164.1 6464.15 4972.17 5699.53 4222.77 5268.38 3475.67 7038.89 5527.23 4814.12 3863.67 5631.14 6137.8 4013.38 5067.56 4442.22 4343.78 4887.76 5413.31 6477.91 4332.87 4081.97 3633.79 5401.99 4303.19 5514.84 6081.14 5421.53 5480.83 5653.9 7144.24 5683.26 7443.72 3600.43 6600.94 5371.02 5513.57 5260.34 5013.67 5669.65 5729.23 5934.22 6586.45 3780.23 4359.62 5690.26 5253.55 5011.84 5062.71 6946.21 5433.8 5975.63 5564.02 4274.61 6314.07 3921.08 5083.41 7055.42 5683.61 5805.86 4558.46 5346.68 4049.02 5296.29 5020.71 5997.88 2681.29 4360.23 5576.92 6234.32 4585.31 5010.04 4570.98 4275.07 5323.91 5825.38 4573.72 4163.74 3665.95 5698.96 6471.42 5283.8 6016.19 4124.49 4479.11 6685.4 5714.25 4850.06 5325.96 6332.01 7044.29 4805.33 5980.95 7085.01 3352.35 2735.53 6193.08 5263.3 4909.65 4008.15 3012.99 4669.06 6316.56 4811.32 6420.81 6400.08 5134.39 4256.57 5580.92 3914.2 4607.85 4220.46 4287.53 5598.74 6070.3 4906.82 4788.58 5131.24 5046.21 6155.1 5206.48 4709.35 5196.67 6496.67 5876.71 5826.04 5474.8 5624.49 5339.78 3745.84 4730.41 3471.03 5696.88 4004.04 5607.14 6057.22 6915.83 4156.2 4289.17 6072.45 5511.88 4497.59 4470.98 6444.77 5759.46 5443.58 6248.6 3836.45 5687.85 6401.43 5731.57 5662.55 5737.92 5839.71 3755.95 2685.81 3056.7 5591.76 5889.35 4394.56 5388.78 6101.13 5599.7 4296.69 6238.32 6804.79 6372.13 5369.5 5535.91 3230.13 5955.86 6176.67 5412.24 5016.02 4581.37 4234.18 4920.21 4049.16 3936.95 6069.3 5887.01 5116.6 6523.86 7693.4 4715.58 4286.49 4743.59 3317.83 5208.14 4450.7 5784.3 3532.3 5769.98 5973.33 6088.68 5937.08 2221.99 3583.21 4643.56 5612.21 4135.08 5894.61 4929.14 5128.57 5687.83 5945.08 5004.23 5139.5 6442.69 5226.0 6320.71 4750.78 4373.3 3095.48 4166.08 5029.78 5762.59 3979.26 5188.81 6608.73 3923.03 3999.48 4203.26 4643.85 5082.74 4735.33 5411.85 3999.94 4413.85 4027.46 4844.57 6171.13 5092.37 3901.8 4864.22 5941.61 4933.65 4512.11 4031.78 6098.1 5950.04 5708.99 6333.29 2435.33 4074.48 4477.04 4558.47 5703.74 5831.96 4747.55 5464.68 4475.83 4510.8 7509.24 4587.67 5896.26 5951.81 3924.14 6918.35 6348.54 4066.57 5642.35 5404.01 6357.47 4891.38 4793.65 4532.89 4533.37 4848.46 2779.99 5742.09 5887.38 6942.34 5851.61 3658.05 6153.94 6836.82 5168.35 3862.77 3858.17 4631.99 3747.03 5388.39 2783.85 4356.49 4326.48 4437.07 6184.88 4526.81 3449.37 5829.32 4396.25 5151.52 3763.05 5092.24 5442.32 4347.74 5291.9 5067.46 4009.62 4863.01 6000.7 5620.74 5604.21 5233.29 3979.54 3169.67 4968.03 7493.3 5304.13 3361.92 4814.55 4648.04 5944.09 5833.06 3527.05 6262.72 5698.77 6607.87 3664.11 3365.82 4163.5 4861.06 6481.79 5374.51 5320.28 4569.12 4796.58 4298.67 5873.69 4472.17 5960.66 4962.09 6222.42 5470.77 5654.31 4831.47 6062.05 6939.12 4406.4 6853.85 3493.47 4020.4 4596.75 2395.5 3374.08 3497.9 4188.87 5782.48 5564.23 3735.24 6574.95 4231.83 6853.04 6817.57 3614.96 3886.68 4745.43 4912.04 4539.07 4691.91 4255.34 5064.79 4146.81 5480.3 3427.63 5756.75 4840.44 5093.82 5212.43 6639.64 3687.65 5454.12 4834.3 6318.23 3851.85 4058.87 4206.98 5156.76 6101.57 5948.71 2949.12 3856.53 5460.89 6040.74 4054.22 5260.85 2884.65 5807.46 4648.21 4393.16 3311.29 3110.13 5478.11 5526.31 5030.15 3477.1 3644.78 4078.93 4740.98 3185.39 3728.18 5335.47 5128.77 5633.61 3994.07 5491.9 4219.94 6405.0 5551.95 4659.16 4264.91 3918.87 5369.08 5549.49 4518.04 4766.06 3101.75 3580.58 6605.86 4874.18 2511.46 5356.79 2081.58 4011.37 4778.82 4312.56 4612.06 5204.04 3306.14 5467.84 5029.47 5490.58 4863.79 5395.14 4702.06 6515.84 5117.47 3464.83 4143.78 4123.6 5724.64 7092.87 4538.95 4970.88 5224.12 4850.14 3637.61 5463.38 6098.14 3493.7 5945.21 5750.71 4938.74 4200.03 3474.39 5313.22 5516.95 5328.22 5563.79 3905.51 4151.76 4216.17 4721.02 3546.71 6484.17 4938.72 4254.37 5768.57 4498.25 5108.06 5151.21 5398.64 3573.73 4000.43 4693.52 4568.41 3624.7 5262.35 3420.08 4320.42 7165.9 5344.83 4701.5 7046.11 4449.98 4863.97 6342.48 4771.65 5589.37 5439.49 5216.26 4887.52 5478.95 6571.31 4392.65 6103.11 5174.75 5048.55 5932.07 4984.46 4024.31 5844.72 4147.31 3992.97 5989.05 7228.94 4441.22 5393.65 4961.99 4595.12 4386.8 4549.69 6484.43 6423.81 3485.54 6192.77 4312.15 5934.82 4501.78 7122.87 5048.19 4243.26 5907.46 6799.23 4153.84 4888.27 5399.29 6740.71 6487.56 5789.55 5423.42 4633.05 4901.2 2775.69 6505.78 5657.36 6124.08 5012.5 6519.43 3619.79 4750.58 5876.64 5053.95 6710.88 2477.07 3967.48 6213.04 6667.68 4923.41 2990.77 3163.78 4925.63 5965.15 4305.16 4763.66 4666.81 4888.6 5882.65 6739.08 7042.12 5078.86 4797.52 6326.39 5501.93 4471.58 5462.21 6313.06 5374.98 5226.56 6345.13 5274.19 6470.3 5599.49 4719.7 3436.15 4097.57 5005.85 5711.11 5325.44 4575.94 5102.75 5021.88 4597.29 5956.65 5931.77 4200.09 5097.95 4222.4 5313.12 4914.45 4698.87 3984.88 4661.03 5160.59 3344.57 5318.53 4732.09 6945.98 4281.98 5138.2 5783.48 7001.83 4504.35 5012.97 4349.13 4036.91 5110.11 6379.14 3634.5 4027.63 6631.28 5420.67 6413.15 5416.45 6459.51 4955.16 3288.01 4904.51 2202.77 5751.15 5950.88 4149.55 5853.89 6551.93 7554.58 3380.69 4140.4 4725.01 4625.67 5966.75 4583.52 4458.64 3657.69 6418.11 6015.02 3572.94 4922.49 5797.36 5001.58 5119.86 4820.17 4592.15 4854.11 5084.17 4901.44 2275.45 5971.22 6522.59 4909.31 4785.25 5711.62 5435.19 5461.55 4270.15 3298.2 7093.13 5926.11 6306.21 5253.37 5235.11 4497.31 3830.46 5211.38 4721.32 3293.56 6031.67 6413.11 5092.28 4780.2 4918.77 4739.14 4636.5 5163.55 4819.73 3382.7 6817.32 6471.55 5085.71 4319.79 5960.56 6643.85 6343.14 4020.95 5774.97 6049.79 5862.86 4890.5 4390.41 6113.95 3981.07 4901.07 4050.08 5452.42 5186.3 5017.5 3991.42 5966.61 4893.49 4514.79 4834.87 5760.22 3672.21 5938.17 5269.38 4795.43 2928.82 5607.3 4811.76 4638.18 5498.42 5351.56 4196.37 6448.66 5220.76 3556.79 4453.97 7317.04 6412.67 6204.65 4482.9 4593.7 6550.4 3766.69 4891.67 5513.8 5188.53 6818.91 3503.65 4521.75 3429.57 5569.2 4642.74 5350.88 6735.97 5305.59 3636.15 6114.89 4330.58 5754.6 4355.83 6870.97 5351.86 6056.87 5474.01 5307.35 6201.86 4342.18 5166.89 3639.44 5446.4 5491.63 5725.37 3868.62 5510.9 4883.63 4505.28 3492.83 4971.29 6280.13 5244.22 5585.14 7039.98 6456.58 4729.42 4159.81 5089.26 3886.72 4998.22 5415.45 3776.8 5533.19 5417.21 5096.43 6602.43 3562.79 4383.56 4798.17 4990.79 6865.76 5424.46 4953.1 2895.63 5266.01 6449.64 6515.8 5767.9 2040.66 5384.76 7016.27 5529.42 5274.14 5257.12 6138.12 4903.82 5100.1 4434.19 4940.42 3954.91 3703.1 5923.4 4371.99 4946.42 4623.61 5409.66 4082.47 2965.01 6235.57 6263.44 4863.27 5122.63 6766.43 2315.64 5916.16 4703.08 6934.37 3423.15 4488.85 3731.84 5010.2 3554.48 4579.69 4997.83 6496.52 3718.69 5578.94 4388.63 6192.0 4940.28 2216.82 5885.28 4509.89 6752.75 3022.6 3004.34 3804.5 5375.1 4172.6 6083.28 5211.6 5806.31 4745.79 5456.71 4908.75 3503.41 6556.26 3971.08 5684.25 5438.92 4244.49 4775.04 5036.98 4120.07 4882.66 6746.66 5410.33 3908.56 4844.83 5244.78 5652.87 5135.63 5483.7 5018.69 6384.7 3152.86 3896.27 5952.38 5807.52 5963.36 5230.02 5087.14 5169.48 6016.08 4731.21 3124.7 6064.71 6102.98 5138.33 3743.76 3425.69 6711.21 5510.45 3684.15 4730.14 5832.29 2606.51 4438.76 3994.39 6006.89 4618.73 3814.65 2955.36 5244.98 3965.3 4960.64 5792.98 4983.3 6156.21 6592.93 6350.71 6104.26 6436.74 3568.28 5583.61 5166.79 5425.98 4516.53 5996.66 3940.49 5818.95 4093.99 4857.84 5079.22 6464.8 2978.76 4908.49 6622.11 4962.21 4689.15 5089.62 4428.78 4965.89 3685.65 6790.73 5746.28 4590.55 5243.43 5187.7 5659.95 4741.26 6090.91 5920.32 3701.16 4186.6 3561.29 3295.83 4537.14 4152.85 5551.9 4219.78 6413.02 5644.82 5203.08 5412.31 4440.57 6736.03 3492.19 5374.07 4584.5 5548.29 4118.84 3623.87 5163.77 3766.55 6027.62 5469.13 6098.95 5765.42 4817.16 6123.03 5453.98 5148.08 5653.03 4157.29 4777.03 7610.49 4286.17 6579.31 6028.09 4609.02 5323.55 5452.36 6486.37 5561.74 6100.73 5975.23 5470.04 4198.94 5212.37 4211.82 6003.78 2628.22 5058.51 4901.29 4124.76 4050.03 4813.33 4802.98 4952.52 3840.21 4833.55 3646.95 4081.34 7224.99 4954.76 6334.53 5377.37 5869.67 4311.48 4387.39 4899.73 5457.66 6394.19 5973.89 6193.73 5518.11 5254.24 4192.21 5712.35 3742.11 4743.9 5701.52 6776.22 3719.11 5321.17 4467.13 6060.17 3877.8 6273.6 5153.18 4763.4 4236.86 5902.67 5454.11 5393.76 4941.02 3864.92 6119.99 3668.93 4128.1 5372.82 4385.81 4034.05 5690.96 4653.83 2460.79 4456.11 6063.64 5096.24 6479.39 4986.71 4122.92 4405.42 4997.91 3604.14 4452.54 4684.44 4599.81 5381.54 4749.59 4406.05 5884.9 4858.44 4680.94 3468.42 3685.13 5828.35 5799.69 4673.35 5571.72 3876.21 4655.16 5869.4 4916.22 5297.19 6022.7 5251.4 3867.19 4188.3 4345.67 4453.64 4963.34 5081.78 5019.93 4459.28 4260.92 6116.33 5499.39 4479.94 6250.23 4407.9 4718.54 4435.51 8659.64 3087.09 4055.54 4588.7 7480.41 5683.95 6107.89 4233.8 4976.12 5530.49 4304.41 5660.55 6789.23 3989.7 5107.0 5069.89 6212.15 4246.61 3684.56 5327.75 4946.23 4896.65 4852.58 4532.7 4504.86 3217.67 4788.08 4473.29 5079.64 6163.54 996.652 6500.49 5965.58 3352.34 4607.18 3899.7 2403.72 5134.33 7200.89 5419.57 4147.49 5162.67 5760.98 4705.68 5469.35 4749.96 5384.86 4869.48 4658.24 3623.19 4906.11 4745.16 4564.1 5825.55 4848.14 5509.51 5366.22 3199.4 7261.51 4968.14 3597.43 4914.03 5086.29 4158.91 5144.56 5311.55 3360.86 3034.16 4869.25 5545.21 4333.87 5136.87 5024.32 4708.17 3779.45 2741.2 4983.1 5806.61 5784.37 6010.59 7123.04 3682.35 4009.24 3756.96 4446.58 4402.17 7778.01 5401.4 5127.82 5798.38 5124.17 4125.9 3862.91 5366.11 6171.71 5039.12 7382.3 3908.98 3628.89 2995.67 3598.08 4668.88 4022.56 5522.21 5698.23 5810.77 3772.3 5089.1 2711.19 4714.83 4028.32 5876.72 5236.43 5689.26 3809.69 4992.42 4771.13 7051.9 4940.84 4255.85 5097.69 5511.6 3885.86 6261.75 4517.73 5235.29 5177.64 3757.34 6415.61 4338.08 4255.31 6134.99 5191.08 5453.3 5424.88 3838.47 5148.58 4062.5 2588.37 4199.45 5887.15 5415.85 7234.66 4207.54 6599.66 4886.12 5625.65 6419.12 4936.96 4481.76 4301.61 5206.33 3184.64 5375.12 4446.84 5452.78 4356.36 5065.26 3746.36 5473.72 4892.44 4215.2 4741.28 2205.51 4553.68 3703.49 5361.87 6502.97 6813.72 4783.07 4757.2 6200.63 6816.66 5241.75 3844.54 5849.53 4651.99 5034.69 4509.46 3538.53 4680.69 4420.11 6127.39 4972.18 5640.12 5329.76 6638.25 5078.59 2646.13 4759.99 4365.58 5214.4 3629.49 4636.53 5399.43 5766.05 5117.64 3835.81 4019.34 5429.3 5510.96 6653.07 4697.91 4584.81 5719.79 5071.98 4316.5 4371.08 5148.1 5224.64 5949.73 4312.48 5527.13 5139.18 4278.57 5049.99 5551.43 6318.25 4201.03 3667.93 5001.87 4493.79 5638.7 5684.05 5813.79 5790.42 5293.13 3142.09 5591.77 5182.13 5906.57 7541.76 5053.15 4775.49 4681.29 5910.86 6239.68 5805.1 7320.78 4064.58 3419.87 4234.88 6589.82 4824.81 5027.43 6328.42 4855.01 7307.21 7300.58 5522.75 3608.06 5474.15 7519.2 4099.92 3208.96 6633.61 5285.07 4884.59 4680.14 3858.06 4478.6 4608.41 5895.77 4765.72 4732.09 5857.79 3988.3 2908.7 4039.91 5750.07 6136.49 4642.66 5276.7 6543.13 5149.72 4752.14 5660.16 5037.06 4541.8 5842.56 6200.54 4652.01 3583.49 4928.27 3548.39 3673.28 5775.31 5052.84 5421.64 4858.51 4366.74 3375.28 4603.5 5354.66 4647.67 4214.44 5378.23 4787.97 4981.43 4061.6 4508.18 6214.73 2603.64 2856.55 5175.89 3894.64 4268.19 6618.21 5232.85 4374.74 3717.47 3758.22 4062.56 3205.68 4583.94 5969.37 4928.35 5046.31 4337.32 1937.5 4731.53 3763.9 4788.7 5863.0 5084.5 4918.64 6562.03 4368.12 4815.47 3889.98 5193.58 5490.64 5695.44 3916.42 4507.46 3422.21 5603.68 4944.51 5610.95 5532.72 5042.75 5179.17 3220.8 4598.92 5579.39 5241.22 5270.51 6647.08 5490.75 4979.52 3422.29 5214.63 4407.79 3495.68 6548.29 5783.94 6370.33 5081.08 4202.77 6864.06 5836.14 6008.81 4932.56 4279.44 4899.19 5192.49 4644.88 5058.34 4028.22 7350.26 3918.94 5167.53 3768.46 3852.82 6110.48 4507.36 5003.3 6245.52 4932.29 5499.59 4990.23 3220.29 5749.6 4834.44 3845.9 4141.21 4439.71 4384.28 5782.43 5667.51 5769.14 4456.26 5944.3 3563.14 3381.82 5867.64 3619.72 6208.9 4923.57 4438.58 3340.09 6059.93 4565.93 5217.95 5602.53 6355.68 4184.23 4083.79 4144.57 4511.7 4833.46 4351.38 4304.63 4187.94 5980.59 5550.75 5933.7 4809.67 5021.77 4757.74 4687.64 4378.3 4356.25 5469.47 5411.02 5512.16 4950.97 4989.56 5175.29 4863.96 3645.12 4094.73 5199.44 5580.34 5713.03 5849.65 3852.6 5134.67 5131.15 4110.59 4847.14 4706.5 4165.21 4215.0 3332.49 4811.22 5297.16 3950.27 5116.66 3566.79 5003.78 3629.44 3299.24 5374.67 4208.41 6246.56 5730.61 5826.78 6358.93 5064.67 4383.68 5836.26 6666.67 2617.39 5144.44 2904.46 4826.52 4051.18 5120.92 4685.4 6240.42 5146.0 5721.14 6006.16 4288.45 4577.73 5407.96 4987.28 6206.98 4071.75 5131.77 4410.82 5549.71 6443.99 4967.51 5173.82 7212.97 5698.53 5034.34 3769.2 3856.73 4450.49 5036.14 3468.45 5635.32 4526.34 4316.45 5409.08 5481.64 5673.75 5360.67 4501.05 6263.3 4537.03 4114.2 5352.24 3990.96 4326.06 7362.42 5793.12 5469.17 5473.05 4373.2 5537.34 3487.31 5884.99 5726.42 6643.4 5575.11 5487.63 5461.72 6599.28 7145.73 5800.81 4168.52 3784.94 3954.77 6016.87 6793.1 3125.13 5166.05 6715.73 4174.44 5515.73 5209.55 5113.6 4708.31 3873.92 4027.33 4810.98 4198.9 5135.5 5431.29 5026.76 5091.22 5347.9 5023.41 4646.51 6282.38 4504.52 5640.72 6061.63 7107.63 5073.02 5484.36 4829.35 4867.7 3953.55 6545.43 4063.9 4277.24 4075.28 5263.27 4469.54 6834.41 4314.56 6300.92 7248.4 5161.1 3796.15 5036.58 3928.53 4419.71 5776.96 5329.59 4888.12 3498.16 5439.9 4244.21 4752.9 4588.99 4617.55 4321.21 3197.63 3875.05 4287.16 3540.11 3456.47 5471.74 5950.45 4344.34 5966.42 5009.83 5210.38 5717.8 4489.99 5210.75 4474.83 4548.45 3683.86 4918.76 6555.44 5293.75 5658.14 5114.07 4385.49 4263.18 7124.45 4559.74 6015.22 4454.74 6063.44 5512.44 6449.06 4924.07 3200.6 4629.02 4927.73 5914.5 4602.57 3565.32 3763.85 4608.62 3419.07 5710.33 5344.44 4626.72 3186.07 4369.86 4082.4 5482.76 3745.02 4887.73 3720.7 4211.36 5378.24 3604.31 5817.74 5887.71 5661.6 4827.61 5285.75 5385.03 4169.15 4778.37 5134.17 5968.54 4074.16 4904.35 5592.54 3247.97 5390.33 5124.34 4904.37 4358.81 4651.64 5034.46 5757.29 5729.92 5016.46 6224.13 5061.75 3769.24 6022.78 4087.32 6647.85 7025.09 4674.9 4433.12 3392.26 2549.95 4361.24 6224.85 5403.97 4556.19 5368.66 5106.46 6562.92 4506.66 4068.31 3671.06 5077.29 7035.54 4564.41 4850.5 6331.74 5951.86 4252.18 4833.67 5357.39 4659.88 5325.91 4546.44 5851.63 5657.55 5727.79 5212.92 4831.93 2279.05 5788.97 3472.91 6760.92 4989.2 4023.93 4928.85 5868.89 8137.11 5291.05 6650.77 6045.67 4216.95 4209.49 6119.63 5742.74 5464.25 3946.28 3821.94 4209.31 5486.48 4409.27 5718.28 4247.69 5301.47 4947.24 6242.79 6506.86 5391.48 5088.57 4803.57 4923.43 4568.64 5666.95 4929.6 3919.62 4642.2 4127.53 4945.0 4212.15 4658.11 5260.52 4551.26 6102.49 5678.58 3185.09 6570.35 5114.23 4242.63 3269.54 5495.0 7142.95 5846.95 5064.23 6061.85 5268.15 5819.0 6347.72 3460.93 4488.39 5124.86 7168.2 4571.74 4096.86 3622.48 4796.12 5001.51 6432.8 5385.86 5115.42 4209.0 4930.72 5728.58 6424.77 6297.99 5918.95 4538.89 5689.56 6556.86 3242.31 4898.29 6099.28 4431.06 5372.25 3234.26 4830.13 5730.2 3494.16 5620.88 5370.9 4529.77 4325.13 6172.27 3783.79 5078.73 5278.54 5729.0 5192.92 5275.57 4179.87 4786.66 3661.67 4761.84 5370.1 5517.65 4009.68 5114.51 2569.12 4622.73 4161.32 5161.74 7336.37 5138.93 5099.9 6945.69 6406.8 4795.08 7086.69 5648.78 5501.73 5226.42 4697.24 3612.44 6081.3 4983.43 5233.76 5763.05 5426.4 5866.91 5129.68 2820.07 5679.74 5076.84 3791.41 4092.07 5247.01 5853.12 4213.05 4224.3 4184.21 5157.38 4700.07 6203.03 5188.82 5615.84 5235.87 4464.73 5043.14 6440.38 4717.73 4732.37 5556.0 5484.32 4711.04 3904.07 5007.21 3274.85 6226.14 4173.54 5466.33 5599.29 5280.12 7216.98 5984.81 5721.05 5271.02 4350.15 6329.53 7013.17 3805.67 4590.01 5367.73 4514.39 4640.06 5078.31 4227.41 4807.35 5993.0 6047.14 5467.63 4728.55 4554.68 4368.28 5750.35 5984.8 5463.06 3127.83 4585.04 5236.24 3986.41 4241.68 3469.18 6949.65 2945.34 3372.95 4095.83 4489.29 5695.25 5676.61 7407.91 4301.93 5716.42 5796.26 5701.63 4603.04 4870.94 4620.95 5293.37 5368.93 5271.88 6121.56 5879.24 5740.78 6824.53 5997.91 4742.82 6791.86 6031.22 5485.84 3618.64 5703.84 4335.79 5453.69 3530.82 5432.04 5797.32 4886.99 3921.27 3702.45 3161.1 5265.63 5684.88 6523.78 4645.86 4045.67 6005.95 4941.52 4308.49 5900.0 4262.74 4581.1 6241.77 5317.19 4248.14 5279.19 4016.6 5821.49 7050.08 5580.44 5891.25 5095.52 5129.4 4746.15 3303.49 4655.37 3720.38 5585.25 5256.75 6351.89 2960.5 5932.28 5118.86 4298.7 4183.4 6875.73 6170.9 5833.78 4436.48 5615.35 5758.98 5117.52 3967.76 6311.89 6405.69 4683.28 4217.36 6549.8 4825.73 4851.18 4165.36 5288.33 4208.37 6296.54 4841.7 5702.4 5273.37 5069.9 952.938 5473.89 6089.45 4985.3 5072.5 5810.17 4966.07 5713.36 5748.9 7144.05 5545.59 4619.2 5606.51 4801.8 5740.65 6038.68 4444.97 5046.12 3000.29 4807.4 6349.67 2596.96 4264.54 5261.19 3516.27 4139.3 6541.45 4263.65 4601.74 4263.78 6101.86 5228.75 6545.99 6761.81 3903.91 2918.64 5630.9 6139.64 3990.94 4140.92 4512.07 4756.8 4692.32 4896.43 4176.32 4639.8 4462.35 6069.78 5532.75 3587.93 4517.29 4975.85 4495.75 5323.95 6171.01 4468.26 5578.18 5106.33 5198.94 5933.54 5464.05 5559.79 2980.31 5453.2 3148.79 5264.83 6348.93 5136.51 6815.51 4332.64 5232.16 4422.23 5189.91 4820.68 3989.26 4171.02 7012.36 5028.06 4002.99 5587.3 5159.67 5764.52 3572.73 3770.22 4390.64 5150.84 4608.01 5087.97 5339.82 4519.03 4930.17 5110.27 4745.44 5762.82 4085.96 7360.12 6223.98 5462.6 3035.06 5617.29 4262.19 5998.13 4878.93 6275.25 6892.33 4758.84 4505.3 4731.37 5023.61 3976.0 4672.86 6530.78 5560.23 4975.32 3043.77 5237.55 3902.48 4733.79 4304.64 3909.94 4905.53 4823.06 3799.01 5254.49 7392.65 5288.64 6213.24 6734.39 5942.45 4150.76 5005.72 6123.46 5368.52 4871.77 5811.26 5797.21 5685.74 6740.35 4678.7 3673.6 6028.63 3306.84 5265.21 4657.24 4550.92 4400.14 4749.18 6215.87 5553.94 5191.26 4506.18 4067.96 5494.28 5166.41 4824.12 6542.5 7104.73 5067.56 5206.47 3834.47 4834.39 6162.3 5701.75 5971.21 3272.75 5493.89 4057.17 2781.96 7066.96 5262.47 4467.0 3512.94 3104.96 7043.44 4587.7 3831.52 5601.55 4750.49 4258.98 5196.92 4643.9 3787.08 6106.43 4013.86 5644.81 4177.47 5218.42 4218.16 5345.73 5334.36 4933.49 4841.23 4357.11 5477.8 5486.89 5589.53 7208.19 4549.51 5025.42 5196.08 4965.24 6379.38 6257.79 5438.55 4849.5 5353.23 6229.83 5977.66 4523.81 5065.74 5791.25 4873.23 4028.35 5410.6 4733.41 4969.68 6636.43 3901.53 5431.14 5313.86 4457.05 5151.19 5777.26 6119.0 3792.06 5128.59 4993.49 4293.3 5310.33 6583.37 4864.38 3688.83 3402.44 4848.98 4491.96 4397.06 5184.98 4053.12 4467.51 4479.5 6261.67 5460.57 3435.13 5065.78 5703.34 4612.68 3207.84 6668.98 3977.98 6649.52 4232.33 4939.56 4747.68 4597.88 5770.92 3093.38 4845.91 4461.67 2002.78 5631.32 6322.0 5793.14 4452.36 4491.26 4511.34 4068.41 6463.71 5059.37 4139.39 5783.38 6264.03 5088.64 6030.39 3562.8 6589.8 3729.16 5319.1 3783.36 3757.23 4181.93 6828.8 5987.88 3579.59 4228.53 6161.94 6142.88 4065.28 5155.28 5057.59 5111.26 5388.73 5285.6 5062.77 6019.35 6075.99 4884.93 4600.71 3450.07 5262.79 5927.2 5146.1 6485.77 5866.42 4704.92 3669.32 3663.0 4762.1 5610.53 4099.26 4954.81 2970.9 4383.47 6304.49 4608.34 3926.11 4580.06 4835.97 5695.79 5464.83 3622.8 4770.51 4184.47 5414.58 4431.23 4991.35 4994.65 5740.98 4346.07 4462.87 4012.92 5759.79 4598.54 4711.15 4816.51 3825.48 4658.59 5188.22 4770.63 3810.68 2804.54 4196.62 2809.19 5005.6 4104.04 5593.79 5104.39 5234.2 4612.13 5327.05 5846.6 4109.44 4903.84 4290.49 4557.1 4434.65 6688.53 5209.5 5927.1 6175.27 6500.45 5876.51 4907.55 6731.89 4103.76 4286.61 2932.52 6605.11 4603.66 4757.87 3557.46 5971.95 6298.8 3689.24 3979.46 5178.07 6412.84 6509.54 6079.55 2589.19 5485.61 4937.36 5308.4 6581.13 4569.32 5537.61 6084.88 3543.98 4199.44 5878.55 4014.44 6604.72 6002.77 4431.46 4610.55 4521.42 4614.49 5400.69 6043.34 4128.93 4959.72 4712.17 3808.04 4023.88 4723.71 5348.11 4405.61 6126.5 4034.88 6007.1 6345.2 4832.21 4609.65 5009.21 4742.35 5410.73 5394.79 5645.54 4574.03 5264.08 4526.87 4151.74 5192.82 6920.92 4174.22 3573.84 3038.91 3922.28 4067.89 6570.43 6883.86 3350.99 4979.5 4745.37 4461.14 5418.98 5575.11 5205.38 4574.54 4949.55 3132.34 4764.83 3957.38 1969.87 4841.28 4494.15 5035.71 4419.79 6060.06 4710.88 5544.27 3484.81 3742.31 4316.0 3987.69 4546.96 4287.25 6502.99 5424.55 5755.15 5134.72 4921.1 4271.07 4191.01 3814.16 6419.64 4589.06 5340.05 4420.6 3626.86 4215.05 4140.04 4920.88 4668.8 5995.4 5577.41 5917.34 6511.37 4216.44 3999.5 5735.08 6710.14 5034.05 3953.26 4426.02 5467.51 4474.39 4625.53 5459.92 4096.47 2347.41 4542.16 6478.35 5453.77 4916.7 2638.82 5353.66 5030.33 5157.73 4541.22 5847.91 3539.68 4934.66 4696.03 4984.01 6217.33 4605.39 6270.59 6045.26 6263.87 5743.8 4094.63 5084.76 5581.01 6834.92 6379.33 5130.57 5652.73 5402.45 6321.97 3985.93 6071.59 5945.25 3856.4 5985.75 4696.06 4137.16 6189.29 5984.55 5672.46 5803.3 4721.98 3228.27 5252.82 4142.1 5056.26 5333.04 5445.91 4521.99 4812.59 3794.47 7115.67 4967.02 5675.45 4462.5 2807.46 5573.31 5004.68 4179.8 3488.34 5658.35 5428.24 5108.84 3511.5 4520.14 5067.92 5488.96 5704.61 3188.21 5128.03 3720.92 4379.91 4942.63 5290.37 6139.74 5850.38 4227.66 4691.01 4594.89 4730.97 5245.95 3677.85 5821.42 5214.71 4677.84 4515.02 6294.09 3463.53 4571.57 3445.92 5131.07 3820.19 4121.07 5236.69 4586.82 6026.04 5939.29 6200.05 5859.17 5615.06 5490.54 5203.54 4047.95 6189.67 5507.38 6142.94 6889.5 5001.69 5407.69 3869.39 4416.87 5960.5 5300.17 5308.33 5393.43 6896.55 4666.12 4638.09 4392.75 4685.65 6219.34 6023.07 5674.63 5287.25 6506.63 5939.22 4725.11 5418.12 6371.96 5934.05 4271.93 3495.3 5890.25 5125.17 5322.11 5322.07 5700.79 4859.01 5076.11 4697.49 5524.45 7133.44 4726.2 4750.81 5600.21 4656.01 4282.11 6589.13 5602.62 5714.51 3543.37 5114.67 2030.03 5628.97 4484.78 5527.27 5765.14 4621.33 4767.54 4946.08 2927.84 5121.08 5688.77 6177.68 5466.13 4698.7 6229.64 2848.44 4220.43 4975.56 7282.36 6666.34 4645.91 6959.88 5749.53 4125.75 3746.62 5247.73 5090.48 4876.37 5034.02 5582.28 4649.5 4810.74 5181.31 5784.38 5475.83 4329.8 3074.49 6571.26 3956.24 5202.33 5580.95 7558.99 3393.59 5043.14 5246.81 5089.1 5394.78 6842.54 2853.68 4998.37 3361.11 5329.84 6038.56 6559.82 5599.16 4577.98 5043.34 5886.81 4487.51 4582.12 4295.25 7394.47 5357.14 4850.95 5919.27 5087.3 4793.06 6637.38 4975.57 7066.26 6111.23 3057.3 6150.31 5873.62 4811.11 6126.03 4924.52 4866.8 6044.69 5524.28 2970.24 3133.28 4197.87 5105.54 5731.43 5462.1 6353.81 3414.67 4052.49 4034.41 3518.14 4150.44 5061.74 5326.03 4420.35 4948.96 5717.45 5117.83 5772.57 5256.82 5152.78 6581.56 4117.9 4052.43 3980.46 4057.4 5534.23 4753.76 5383.9 6025.77 5158.44 4441.91 5377.01 4466.22 5330.26 6470.23 5828.25 5339.6 4475.38 5917.08 5483.37 5259.21 5092.93 4256.08 2803.01 5881.93 4604.1 4714.66 4460.89 4399.52 4444.0 6771.18 5770.07 5990.75 5101.6 5327.39 5781.62 4037.86 4138.59 4970.55 5141.03 4938.33 8123.59 4819.83 4801.16 6286.27 5071.38 5616.66 4802.36 5368.28 5257.38 4880.78 5075.23 5625.02 5212.05 5479.86 4829.77 3826.01 3928.99 4444.92 5971.9 4532.67 2513.38 5316.05 4769.62 5260.13 3995.08 5019.84 3900.93 4028.13 4457.73 4149.17 6476.35 6260.58 5728.27 4067.24 3053.19 4313.38 4720.22 5827.3 6598.99 3549.92 5250.56 4032.06 2468.16 6294.14 5888.95 5203.75 3463.34 5122.38 2459.88 5262.85 4210.24 4512.6 5470.67 5901.71 5225.11 3879.83 6565.95 5342.9 5733.12 6436.29 4246.24 6805.02 5402.81 5354.48 5640.63 4729.45 4900.26 6261.13 5374.09 6271.22 3421.81 6188.33 3920.64 6186.24 6916.18 5786.06 4137.41 4996.91 3868.69 3920.44 4450.51 5379.52 3768.62 6033.72 5314.67 5658.05 6593.1 4066.36 4000.51 6032.45 5444.36 5522.34 4026.03 5044.68 5771.98 5899.78 5000.74 4813.81 6153.26 5268.27 4013.86 4061.87 5165.31 4896.67 4585.37 5448.64 5901.8 3798.09 3934.11 6417.61 4288.5 4781.9 4496.51 6815.96 6153.71 6561.94 5317.83 6738.9 5992.06 4157.1 8052.53 4554.24 6182.19 4984.17 4867.12 5910.66 7415.84 4981.81 5734.07 4840.44 3997.68 6033.28 4188.16 3717.22 6327.54 5507.07 4654.92 2943.17 5286.55 5327.71 4322.56 5509.09 4850.49 3873.72 4592.49 4981.55 3625.98 6188.62 6474.5 4763.04 4702.32 5944.52 5908.57 4413.56 5050.2 4821.41 4908.32 4924.53 4499.52 3874.12 5759.19 3113.64 4304.75 5480.86 6139.9 2832.83 4474.96 4084.87 6036.99 3010.1 3633.58 3825.98 4339.97 4589.22 5169.09 4667.84 3906.41 4691.15 6224.64 4260.38 4636.45 4932.27 3799.55 5638.51 5252.22 4962.35 6786.37 4333.23 4600.81 4328.76 4919.13 4124.33 5168.97 5783.88 4167.55 4720.34 5244.47 5378.75 5510.89 5822.7 3780.07 4159.89 5466.49 5447.74 5178.55 4038.17 5007.41 3851.47 4907.48 3692.99 4966.74 5563.47 5651.46 1635.31 3162.27 6033.93 5011.37 2827.92 5516.37 5092.44 2649.69 4441.44 6908.32 3467.11 4817.75 5336.61 5563.09 5637.53 5244.95 4848.15 4645.93 3882.37 4439.09 4634.25 4095.4 5188.57 6351.48 5715.51 5395.12 3886.56 4511.05 3456.3 6074.39 5350.9 3483.61 4262.52 7430.48 5640.67 5545.68 6080.69 3939.96 3751.73 5555.89 4970.12 4967.93 6369.66 6044.01 6520.19 5973.57 4637.3 1458.87 5922.62 6241.48 4414.09 5125.45 5191.29 5957.82 3784.68 6305.9 6649.21 3470.69 5093.28 4859.95 4132.08 5522.18 5223.1 4699.77 5093.41 6842.35 5144.23 5464.34 3621.63 6153.07 4414.06 6833.5 7296.47 5742.39 4780.16 5738.37 5616.11 4433.23 4813.24 5312.2 5847.27 4490.2 4706.59 5734.84 3982.31 4950.07 4582.24 3916.15 5367.05 4758.76 4790.63 5259.29 3584.05 4916.75 4818.53 5087.03 5097.85 5584.64 4123.08 3795.63 4221.03 4576.71 5082.66 4550.77 6793.49 6060.19 3563.33 3550.88 5536.0 3860.8 5145.13 5561.63 5940.5 4358.06 5093.51 5002.38 5647.93 6705.93 4865.11 4731.16 5502.14 6470.87 4465.56 4495.33 4131.08 5282.67 5747.9 3864.19 5146.69 6203.24 6818.23 6213.74 4959.94 2329.93 6938.87 5639.4 5412.07 6185.73 5512.57 4083.24 6520.96 4232.44 5432.2 4612.4 3312.3 6178.19 4746.19 6381.58 3282.57 5212.2 4798.13 5523.81 5648.59 4718.61 6697.45 3873.79 5357.33 5717.67 5783.69 3721.69 5515.59 3830.7 5252.37 6210.0 5432.4 5037.58 6457.89 4844.2 6572.17 6118.13 2181.29 4420.3 3374.62 4766.47 4926.62 4871.1 3917.09 6009.93 5678.08 3482.73 5872.45 5270.1 5130.56 4957.99 4063.26 4947.64 4997.89 4542.62 4881.51 6131.52 6009.88 4311.92 6729.99 6664.54 3922.98 5161.73 5259.48 4777.96 5801.89 2613.78 6608.94 5417.07 3796.73 3834.01 3082.16 5656.84 6789.66 4739.41 4694.27 6760.64 2515.5 5177.88 5551.79 6981.47 6189.81 4449.73 4088.72 3743.85 3945.62 6236.46 5342.17 6379.3 6189.04 5015.67 5189.4 6538.04 4894.15 4337.93 5201.3 4345.51 4048.73 6223.33 5438.6 3747.96 5611.29 4521.88 6568.45 5004.22 4280.92 6201.49 5449.09 4605.61 5154.74 6898.8 5386.95 6540.57 4287.93 5315.71 6158.93 4488.41 5081.65 4369.87 4823.14 6679.12 5652.19 5806.74 4806.99 3771.91 5856.43 5217.62 3839.0 5349.85 4616.81 5715.25 4362.94 4611.21 4469.82 5108.42 4630.5 6296.36 4432.32 5237.27 4451.76 3224.81 7885.41 4499.54 3775.38 5782.25 4046.22 4104.97 4081.77 4575.72 5114.61 4948.21 4987.01 4706.31 4202.12 6332.64 2694.25 4735.99 6492.44 4083.1 4613.32 4739.56 5145.39 3996.93 3352.46 6351.95 6225.05 5195.09 5345.05 3997.52 7679.2 4444.54 5779.9 4909.74 2626.41 5310.33 4565.36 5036.84 5813.68 4025.08 5254.93 4008.67 4803.4 8013.28 3846.55 5283.65 4644.68 2892.36 5981.54 5911.29 5416.41 4542.25 4414.23 4849.21 4785.55 3793.83 5245.4 5647.11 6157.59 5848.41 4246.83 4090.28 7370.52 4726.5 5467.05 3724.23 5103.3 4601.54 7263.57 4696.92 3832.09 5705.96 6437.99 5267.65 6632.04 5360.88 5332.11 4893.72 4072.4 5373.78 5345.65 5438.5 4621.32 5699.4 6578.62 4813.55 4698.94 6284.12 4796.04 3465.03 5229.56 6011.4 5799.86 5172.1 4672.34 5056.32 6052.22 5376.41 6545.78 3354.94 4870.14 4404.87 2932.2 5105.72 4082.01 5767.65 4750.76 4907.03 5497.27 5617.91 4444.95 4721.2 3943.77 5161.02 6265.48 5003.81 4203.68 6262.18 4701.03 3818.37 5663.36 4276.59 5579.04 5434.04 5200.1 5994.21 4884.93 5403.81 5082.25 6964.78 4374.05 5299.03 5504.65 5669.41 5732.11 5040.9 3618.53 4770.21 3783.35 4868.66 4037.16 4004.39 5159.9 4987.48 5943.61 4248.58 5479.17 5020.37 5233.88 4963.88 5888.94 4727.98 4122.2 5175.88 4516.26 5739.69 3509.34 3647.26 7360.62 4977.64 6004.72 4983.56 5699.51 2489.44 4489.18 5863.36 4632.75 3878.8 5237.76 4994.98 4286.84 3948.21 5669.15 6058.13 5296.05 5894.69 5263.86 3330.85 6635.51 5533.52 5003.63 5410.33 4747.24 4695.7 4944.08 4380.86 5576.16 5269.39 5003.49 3964.03 4305.35 5210.22 3308.75 4216.33 4439.17 5832.72 4929.35 3903.9 5051.39 5606.22 6673.92 5242.38 3124.49 6081.35 5459.52 4609.98 5362.15 5566.5 4455.61 4752.31 5240.97 5125.53 5569.85 5405.6 3929.35 4759.38 4223.53 4535.94 6960.97 4287.15 5282.51 5126.08 5604.0 3760.4 4951.02 4602.7 3919.47 5596.68 6395.63 4790.16 3731.58 3166.37 5369.42 4985.45 5207.08 5205.53 4714.52 5499.37 4587.19 5543.05 4883.13 4836.76 4752.94 5551.09 6423.96 4501.1 5581.47 4384.91 6988.4 4060.17 4713.56 4987.01 6051.35 5302.53 4909.13 6779.82 4287.61 5648.02 4867.13 4604.34 4863.27 2451.27 5677.42 5442.79 4633.59 5151.68 5733.59 4884.94 5575.8 5268.93 3695.72 4738.72 6874.6 5106.9 5306.31 5523.96 4733.37 3037.72 4523.9 6028.89 5333.16 4888.17 3950.53 5755.98 5392.85 4274.05 5077.2 5275.27 6550.61 4277.54 5529.09 4531.46 6094.34 5448.68 5543.67 4739.5 3999.81 4072.95 6210.48 6377.45 4182.05 2701.42 4502.12 3255.93 6853.07 6327.61 5925.82 4491.62 3865.5 
SCALARS Velocity float 1
LOOKUP_TABLE default
1.30706 1.38751 1.41538 1.45655 1.41184 1.42358 1.43637 1.40773 1.40604 1.36101 1.39439 1.4278 1.40139 1.26858 1.25929 1.38605 1.39615 1.39655 1.50081 1.45274 1.39355 1.41978 1.44075 1.38872 1.39478 1.41431 1.48849 1.50338 1.45648 1.41565 1.3936 1.39663 1.47452 1.50772 1.38751 1.46309 1.42476 1.17677 1.26425 1.37341 1.39414 1.39759 1.50952 1.44538 1.46409 1.45511 1.45936 1.38185 1.50038 1.46413 1.41793 1.44023 1.38121 1.43521 1.41569 1.46127 1.42242 1.38915 1.43627 1.47047 1.5078 1.4233 1.26573 1.3276 1.32265 1.26613 1.18203 1.35745 1.3902 1.39564 1.52047 1.45974 1.46383 1.54512 1.46574 1.43999 1.45597 1.47391 1.49974 1.405 1.44067 1.45313 1.36199 1.44014 1.4043 1.52282 1.44098 1.37274 1.20885 1.21702 1.18396 1.3233 1.43915 1.43688 1.41639 1.53031 1.47029 1.43703 1.46561 1.54412 1.48782 1.46863 1.45058 1.42757 1.45711 1.49516 1.53181 1.49865 1.41343 1.36116 1.49776 1.14984 1.26611 1.22777 1.23857 1.26207 1.37966 1.44027 1.49366 1.47394 1.56602 1.46631 1.47797 1.50712 1.51929 1.50166 1.48982 1.4634 1.47737 1.44874 1.46108 1.45223 1.55554 1.53443 1.44484 1.39429 1.41754 1.41379 1.36486 1.51026 1.46791 1.25873 1.35742 1.46774 1.54266 1.50678 1.56324 1.55792 1.20499 1.32126 1.49314 1.53341 1.48742 1.54452 1.48068 1.5181 1.49241 1.49395 1.48852 1.51164 1.49649 1.45315 1.44993 1.45737 1.54877 1.55621 1.48107 1.40622 1.36643 1.55492 1.33867 1.53339 1.1954 1.42722 1.60732 1.53704 1.35681 1.51935 1.53327 1.5349 1.47802 1.49616 1.47069 1.5223 1.51357 1.45226 1.44787 1.51955 1.44526 1.57101 1.50969 1.50655 1.50931 1.66618 1.54861 1.56383 1.51671 1.40321 1.57588 1.54579 1.45847 1.52776 1.53972 1.53621 1.53376 1.54162 1.49769 1.48591 1.52858 1.54423 1.51214 1.48587 1.43613 1.52717 1.48675 1.56184 1.5315 1.78697 1.58271 1.53185 1.62304 1.4732 1.13677 1.48635 1.48134 1.53555 1.36757 1.52538 1.57221 1.58739 1.56921 1.55005 1.53829 1.5362 1.53827 1.51469 1.4943 1.53613 1.51086 1.47273 1.46319 1.53375 1.56476 1.56043 1.59107 1.71876 1.58889 1.58185 1.41617 1.40487 1.56626 1.51197 1.53909 1.56202 1.56745 1.54351 1.53408 1.5286 1.51247 1.51358 1.51885 1.49456 1.48775 1.47837 1.49278 1.49383 1.52229 1.50182 1.56738 1.46756 1.52918 1.50115 1.61329 1.60938 1.55469 1.41845 1.42618 1.49644 1.53127 1.55398 1.56004 1.52334 1.53213 1.51763 1.5224 1.52533 1.50108 1.53827 1.51261 1.5109 1.50628 1.50651 1.49605 1.49915 1.50122 1.50894 1.50313 1.52063 1.52018 1.56573 1.49638 1.51284 1.43109 1.42186 1.45623 1.506 1.52914 1.49166 1.5139 1.51146 1.50725 1.51184 1.52064 1.49337 1.50133 1.50035 1.49778 1.50156 1.50099 1.50432 1.49806 1.49649 1.49301 1.48861 1.49413 1.4993 1.50754 1.50898 1.49026 1.48222 1.48119 1.44023 1.44066 1.46934 1.45534 1.46642 1.48781 1.49308 1.49879 1.4961 1.50275 1.50943 1.50102 1.49782 1.49771 1.49526 1.49587 1.49888 1.50145 1.50454 1.49628 1.49024 1.48533 1.48999 1.47954 1.47429 1.48781 1.47552 1.47491 1.47017 1.47049 1.44408 1.44725 1.44834 1.44962 1.45163 1.45905 1.48424 1.47273 1.48219 1.48633 1.48835 1.48689 1.49209 1.49393 1.49001 1.4904 1.48226 1.48952 1.4789 1.49248 1.50721 1.51127 1.49664 1.53428 1.48327 1.47469 1.46433 1.46454 1.46855 1.46799 1.46589 1.46178 1.46317 1.44776 1.45064 1.45322 1.4574 1.46397 1.47255 1.46496 1.47307 1.46649 1.48031 1.47425 1.48111 1.47965 1.48366 1.48646 1.48509 1.4817 1.48022 1.47531 1.46377 1.48556 1.52035 1.5869 1.49179 1.45541 1.43642 1.4538 1.46312 1.46379 1.46272 1.45992 1.4593 1.45806 1.45599 1.44392 1.44889 1.45007 1.44644 1.44603 1.45021 1.45783 1.46718 1.46595 1.46706 1.47478 1.47598 1.47112 1.47936 1.47823 1.47611 1.47696 1.46682 1.47483 1.48002 1.46188 1.52023 1.26204 1.44359 1.45978 1.44485 1.46283 1.46419 1.46247 1.45784 1.45989 1.45945 1.45609 1.45745 1.45563 1.45163 1.45108 1.44778 1.19178 1.44049 1.43522 1.44221 1.44381 1.4407 1.4389 1.44792 1.4601 1.46594 1.45361 1.45912 1.46927 1.46524 1.46643 1.47343 1.47071 1.47509 1.4748 1.46943 1.47332 1.46713 1.45563 1.54606 1.52951 1.44264 1.32289 1.45023 1.45653 1.45649 1.45236 1.45227 1.45512 1.45415 1.45394 1.44769 1.45029 1.44561 1.43034 1.43669 1.42979 1.43396 1.44183 1.4414 1.45308 1.45883 1.45112 1.46084 1.46383 1.46616 1.47164 1.46305 1.46016 1.42175 1.51677 1.77919 1.42754 1.38982 1.40155 1.44846 1.44882 1.44738 1.44988 1.44914 1.44699 1.4507 1.44893 1.44561 1.44586 1.44411 1.44242 1.42521 1.42174 1.42888 1.43396 1.43635 1.42844 1.44342 1.43655 1.43488 1.44489 1.4545 1.45857 1.45052 1.46927 1.46059 1.47592 1.47694 1.48339 1.4827 1.30522 1.46085 1.4199 1.45496 1.42564 1.4314 1.43192 1.43605 1.44567 1.4451 1.44818 1.44641 1.44646 1.44209 1.44408 1.43958 1.43702 1.42166 1.41747 1.42046 1.41569 1.42326 1.41254 1.41666 1.43152 1.43026 1.44107 1.44233 1.44925 1.4695 1.47697 1.47509 1.48115 1.45324 1.45156 1.43179 1.38457 1.41701 1.43001 1.43295 1.43202 1.44292 1.44556 1.44535 1.44356 1.447 1.45012 1.43973 1.42918 1.43192 1.19178 1.41238 1.40972 1.4085 1.40588 1.40224 1.40552 1.40231 1.42576 1.42206 1.41525 1.42936 1.43538 1.44912 1.46509 1.46889 1.47676 1.46757 1.47616 1.48101 1.40083 1.41889 1.39639 1.41705 1.42686 1.42587 1.43138 1.42976 1.43058 1.43954 1.45212 1.43708 1.42542 1.19178 1.40713 1.40279 1.40371 1.40728 1.40424 1.4054 1.39517 1.40981 1.40489 1.39479 1.39166 1.41348 1.45618 1.44337 1.45472 1.47707 1.4806 1.51062 1.40757 1.40538 1.41578 1.39788 1.40759 1.40755 1.41314 1.41575 1.41119 1.41768 1.42047 1.42562 1.43548 1.41422 1.44633 1.44546 1.43535 1.42128 1.41943 1.19178 1.39958 1.40125 1.40175 1.39111 1.408 1.39175 1.40698 1.40519 1.39923 1.40619 1.3941 1.39095 1.38119 1.45185 1.44042 1.43249 1.41787 1.50944 1.55703 1.39146 1.35688 1.40205 1.38898 1.37022 1.4127 1.4088 1.42165 1.41706 1.41617 1.42214 1.4192 1.42543 1.42358 1.42137 1.41748 1.41934 1.43092 1.4095 1.48807 1.4243 1.38498 1.42556 1.41129 1.39723 1.39374 1.40069 1.39235 1.39469 1.38971 1.39268 1.39809 1.38763 1.39519 1.37999 1.37443 1.48648 1.48905 1.35388 1.54435 1.46611 1.36591 1.37243 1.3895 1.39494 1.37666 1.37742 1.40381 1.39006 1.40604 1.41339 1.41045 1.41013 1.40774 1.42897 1.41584 1.41672 1.4147 1.41588 1.41371 1.41235 1.42207 1.3746 1.45961 1.40559 1.39618 1.38799 1.38527 1.38867 1.40407 1.37455 1.37487 1.40036 1.40232 1.38568 1.42324 1.43064 1.44778 1.50037 1.49073 1.37757 1.35502 1.34868 1.3562 1.3384 1.37068 1.40881 1.37961 1.41444 1.40745 1.41821 1.3952 1.39772 1.40995 1.43151 1.41585 1.38139 1.41189 1.35626 1.36204 1.36473 1.406 1.41413 1.43068 1.4573 1.39143 1.41199 1.37855 1.36894 1.19178 1.40071 1.3786 1.39166 1.45889 1.3214 1.40543 1.38228 1.40582 1.37098 1.36083 1.41467 1.39559 1.45877 1.41973 1.3333 1.37601 1.34997 1.36595 1.36258 1.39664 1.41953 1.42508 1.38062 1.40022 1.42674 1.40345 1.41931 1.3871 1.37027 1.38044 1.37981 1.37578 1.40741 1.39045 1.41722 1.39632 1.35058 1.3496 1.19178 1.19178 1.37597 1.39679 1.44922 1.52216 1.42009 1.38514 1.35446 1.41002 1.38496 1.35544 1.34327 1.37424 1.38297 1.39835 1.46002 1.41071 1.40533 1.35167 1.38324 1.33245 1.33337 1.35951 1.35695 1.36566 1.36125 1.42721 1.41603 1.4007 1.41878 1.47653 1.40296 1.39622 1.41011 1.36178 1.37547 1.35002 1.36012 1.3888 1.39394 1.40154 1.40493 1.37549 1.35485 1.37 1.40708 1.42355 1.38316 1.43505 1.2766 1.34394 1.27726 1.40239 1.3415 1.40186 1.36172 1.39198 1.3838 1.38456 1.40207 1.37573 1.3454 1.34774 1.33366 1.34648 1.37171 1.31796 1.32377 1.40557 1.36838 1.39922 1.4371 1.39066 1.49048 1.39132 1.333 1.37064 1.35894 1.35307 1.36183 1.37832 1.38165 1.33705 1.31466 1.37428 1.4358 1.34952 1.228 1.40202 1.21895 1.3047 1.37931 1.29129 1.29788 1.46101 1.41826 1.38357 1.34633 1.36561 1.36614 1.37872 1.39166 1.39022 1.33101 1.37567 1.35709 1.34381 1.33812 1.33091 1.33827 1.38082 1.39778 1.39422 1.35677 1.42451 1.41715 1.37616 1.39411 1.3782 1.37423 1.35811 1.3485 1.33558 1.37671 1.36503 1.37343 1.36434 1.38477 1.38445 1.37876 1.36087 1.41305 1.35805 1.20135 1.48682 1.24437 1.50383 1.10345 1.37527 1.37634 1.40571 1.34732 1.32014 1.30503 1.35787 1.34475 1.36573 1.35757 1.39714 1.36827 1.3391 1.35277 1.34937 1.34203 1.35905 1.32512 1.33252 1.33171 1.35844 1.42322 1.43587 1.39612 1.41752 1.39656 1.39259 1.4066 1.35355 1.31703 1.34149 1.31989 1.34642 1.29834 1.34756 1.34992 1.37724 1.36596 1.37863 1.37837 1.19178 1.40291 1.47111 1.44004 1.25832 1.34855 1.38538 1.33134 1.30902 1.31565 1.32968 1.37288 1.33147 1.32367 1.35788 1.32379 1.34859 1.35344 1.3518 1.31937 1.37247 1.33927 1.27241 1.28331 1.19278 1.4793 1.43872 1.4194 1.45304 1.4061 1.41627 1.39658 1.44809 1.41034 1.32828 1.39748 1.41713 1.31071 1.40591 1.24303 1.35164 1.26265 1.36289 1.32624 1.21098 1.42488 1.37902 1.364 1.19178 1.22625 1.26918 1.52529 1.41252 1.44613 1.29794 1.3066 1.28128 1.22141 1.29462 1.33361 1.36266 1.29174 1.3243 1.28414 1.28746 1.32185 1.3284 1.33038 1.30905 1.35201 1.33482 1.43488 1.40978 1.39409 1.37935 1.30756 1.17045 1.12037 1.42608 1.47289 1.47891 1.37713 1.4807 1.35843 1.41773 1.31073 1.4373 1.50476 1.25739 1.62544 1.35506 1.16916 1.29746 0.145286 1.24362 0.690009 5.59401 0.424937 1.19146 1.49955 2.17583 1.64269 1.43869 1.25636 1.45479 1.34768 1.41934 1.25055 1.3255 1.36479 1.20784 1.20212 1.29108 1.32785 1.35683 1.28445 1.27482 1.24443 1.47659 1.24099 1.2196 1.2983 1.21469 1.2132 1.45157 1.2904 1.26313 1.27533 1.40007 1.04677 1.45121 1.60203 1.39488 1.35278 1.33471 1.29981 1.2318 1.57435 1.3639 1.3423 1.7902 1.809 2.08171 1.97701 1.67213 1.20288 0.570581 5.97495 1.98787 1.37608 0.754905 0.763382 0.122366 0.611269 1.313 1.23207 0.799745 1.06974 1.10258 1.4933 1.27906 1.81768 1.18913 1.40025 1.61343 1.49881 1.43262 1.35187 1.31327 1.27055 1.28138 1.2909 1.25704 1.26237 1.37516 1.30806 1.26984 1.24662 1.23645 1.17777 1.26174 1.29335 1.22513 1.12039 1.30205 1.28353 1.24019 1.359 1.26825 1.27288 1.28965 1.22196 1.45255 1.03208 1.46292 1.51749 1.39039 1.47528 1.47007 1.26263 1.37143 1.34598 1.18329 1.63414 1.34513 2.32976 1.17572 2.15601 1.22351 1.83196 1.11341 0.932273 1.26592 1.06403 1.08715 1.04875 0.901379 0.713844 0.7492 0.709094 0.808956 0.820485 1.10701 1.06468 1.19638 0.764339 0.903361 1.20861 1.41105 1.26145 1.1966 1.62887 1.2337 1.2116 1.5424 1.41136 1.44051 1.41597 1.49447 1.41499 1.08965 1.24718 1.2652 1.32136 1.30213 1.25615 1.20685 1.09304 1.07738 1.0205 1.12077 1.06101 1.21481 1.17918 1.32138 1.14381 1.05583 1.34722 1.07727 1.25931 1.25033 1.21553 1.28901 1.48344 1.19079 1.10088 1.24714 1.27834 1.18266 1.10843 1.57512 1.40483 1.25677 1.32453 1.32419 1.03454 1.30523 1.20348 1.03838 1.46118 1.18221 0.90928 1.19805 0.959638 1.03166 1.0238 1.03167 0.964826 0.950908 0.893852 0.85113 0.799714 0.814067 0.831509 0.835209 0.842929 0.787944 0.82747 0.792066 0.661476 0.807633 0.799157 0.854149 0.820283 0.906278 0.86201 1.00177 0.943732 1.03552 1.17637 1.21707 1.13429 1.10877 1.04044 1.09435 1.14172 1.30051 1.13421 1.14199 1.2898 1.29155 1.24443 1.25434 1.21591 1.11276 1.15368 1.13413 1.09366 1.13489 0.87193 1.20857 1.20769 0.981142 1.16993 0.936143 0.981826 1.12135 1.32723 1.35974 1.32995 1.0135 1.35959 1.03847 1.0319 0.88301 0.94282 1.15779 1.07076 1.31028 1.20131 1.16816 1.18767 1.06057 1.21246 1.12228 1.37439 1.50544 0.946979 1.22807 1.13636 1.00733 1.00405 0.958341 0.970874 1.02722 0.933209 0.989007 0.889198 0.709834 0.890172 0.793028 0.849586 0.787127 0.784016 0.781086 0.837662 0.828461 0.841908 0.840827 0.843787 0.850589 0.830869 0.785536 0.827965 0.798166 0.838904 0.861849 0.860629 0.91212 0.913804 1.09315 1.06079 1.08438 1.11703 1.1078 1.01327 1.04759 1.08221 1.02377 1.08929 1.04508 1.10608 1.09582 1.04835 1.03087 0.911341 1.112 1.19501 1.30342 1.01676 1.13458 1.18339 1.46218 0.979011 0.959038 0.897968 1.00867 1.06495 1.01478 1.1009 1.14447 1.32247 1.50693 1.05186 0.921352 0.955994 0.946599 0.911013 1.07591 1.14649 1.30428 1.34111 1.05221 1.1733 1.07863 1.03523 1.14982 1.04518 0.912839 0.987302 1.08522 1.13246 0.981369 0.986586 1.04736 0.901983 0.988141 0.923805 0.936941 0.798576 1.01318 0.838059 0.835336 0.862208 0.829788 0.786265 0.771576 0.788212 0.764976 0.762919 0.685432 0.678343 0.819532 0.747712 0.79493 0.806162 0.822976 0.834243 0.855603 0.854179 0.862634 0.894771 0.845601 0.872739 0.856415 0.849897 0.895996 0.898164 0.895017 1.02413 1.06949 1.01355 0.959214 1.05279 1.01674 1.00912 0.99911 1.05199 1.04569 1.04671 1.03622 1.05515 0.945102 0.866489 1.45595 0.950314 1.3195 1.0441 1.21368 0.99025 0.986935 0.92181 1.11306 1.06553 0.942685 1.25605 0.877288 0.963771 0.948167 0.930724 0.896211 0.905183 1.23476 0.922069 0.9542 1.02863 1.06167 1.037 0.991238 1.00319 0.9934 0.960312 0.986203 0.906915 0.938639 0.844822 0.854483 0.884254 0.907852 0.884036 0.814956 0.859868 0.823387 0.828433 0.85197 0.836053 0.783022 0.829572 0.808542 0.802277 0.772042 0.790936 0.767167 0.739234 0.691498 0.665915 0.719026 0.686172 0.540623 0.670476 0.635689 0.589269 0.97473 0.805567 0.827547 0.845242 0.825679 0.814963 0.833268 0.864103 0.848872 0.820249 0.84509 0.820042 0.879265 0.832747 0.812535 0.945094 0.837301 0.812978 0.979839 0.864713 0.919112 1.04632 1.1308 1.19007 1.00219 0.848027 0.835646 0.840686 1.06224 1.06374 1.06004 1.03634 0.811844 0.987496 0.981126 0.988458 0.985039 1.09361 0.818188 0.983764 1.35899 1.09497 0.800716 1.01278 1.00247 0.985203 1.15569 0.97367 0.972301 1.02201 1.08328 0.972305 0.954622 0.943264 0.877843 0.825977 0.954357 0.948841 1.03917 1.02551 1.00781 0.80457 0.982685 0.919661 1.09448 0.918286 0.881988 0.866223 0.852964 0.941295 0.976109 0.960723 0.956591 0.931823 0.920821 0.911209 0.947158 0.831508 0.823764 0.921237 0.826837 0.862715 0.796446 0.862636 0.793954 0.805919 0.792842 0.798592 0.769745 0.783971 0.770322 0.764703 0.766789 0.750454 0.741699 0.746591 0.754125 0.743417 0.7215 0.707488 0.706775 0.686801 0.69141 0.697711 0.702892 0.595967 0.614886 0.654892 0.67753 0.483738 0.667735 0.612221 0.200262 0.483022 1.35291 0.791956 0.976253 0.816647 0.962981 0.837552 0.699193 0.753437 0.736227 0.76769 0.753346 0.772989 0.789282 0.734844 0.822763 0.912159 0.577443 0.872816 0.816564 0.716073 0.861882 0.41489 0.266052 0.653111 1.20776 0.640966 0.939246 0.964735 0.80207 0.893341 0.79777 0.90879 0.935051 0.94284 0.967688 0.980569 0.96303 0.937092 0.965911 0.863576 0.851024 0.880875 0.854755 0.767846 1.07269 1.00394 0.969532 1.03639 0.985673 1.05636 0.964617 0.999431 1.05145 0.926441 0.929489 0.968165 0.957536 0.9229 0.90875 0.920177 0.805446 1.14434 0.844441 0.835538 0.956372 0.997932 0.925252 0.872191 0.938075 0.887499 0.864232 0.85813 0.849274 0.885874 0.933496 0.899008 0.866492 0.892892 0.89339 0.892381 0.877272 0.887412 0.880785 0.808869 0.836094 0.782837 0.807628 0.894186 0.814805 0.798028 0.772522 0.820642 0.775735 0.797223 0.783042 0.77561 0.76562 0.775201 0.760337 0.772753 0.753574 0.74661 0.74305 0.772403 0.706025 0.700125 0.701908 0.707731 0.698975 0.709349 0.721125 0.728178 0.61573 0.614789 0.588517 0.588867 0.653637 0.499797 0.497054 0.384145 0.841445 0.808451 1.01524 0.773974 0.878823 0.724964 0.9124 0.881428 0.626107 0.761644 0.705903 0.657063 0.724483 0.773262 0.805546 0.830645 0.861287 0.734805 0.755672 0.836824 0.721272 0.833058 1.16274 0.369824 0.752524 1.00174 1.16916 0.981697 0.907586 0.957765 0.826414 0.736884 0.894914 0.527069 1.0269 0.884951 0.980291 0.843628 0.802802 0.82289 0.877806 0.880957 0.845143 0.895922 0.838146 0.837116 1.0087 0.995234 0.839781 0.87809 1.00724 1.04513 0.935742 0.961625 0.904907 0.948031 0.893787 0.918997 0.89695 0.960739 0.882113 0.831401 0.86722 0.941338 0.951858 0.965761 0.844577 0.844822 0.848125 0.858141 0.850929 0.84053 0.868214 0.845988 0.864708 0.887096 0.876792 0.843587 0.837068 0.808846 0.827319 0.798153 0.752929 0.81832 0.767001 0.757324 0.777463 0.758207 0.751821 0.773347 0.805621 0.780886 0.791292 0.7889 0.764567 0.760144 0.715847 0.62101 0.691669 0.693427 0.730091 0.740374 0.739793 0.74885 0.740858 0.743056 0.764379 0.730409 0.687868 0.601533 0.613061 0.605536 0.62822 0.608163 0.606814 0.627421 0.600703 0.612918 0.857992 0.782251 0.79331 0.851546 0.76489 0.765451 1.02403 0.873474 1.0809 0.795235 0.565861 0.743607 0.791981 0.803158 0.823239 0.81794 0.76794 0.814354 0.994988 0.859703 0.767811 0.803074 0.850493 0.976665 0.834443 0.590408 0.527051 1.16138 0.865022 0.864839 0.815818 0.590952 0.698803 0.811284 1.07132 0.943609 0.880905 0.864346 0.805108 0.889532 0.943284 0.68281 0.849546 0.889104 0.896709 0.890742 0.890841 0.746436 0.85887 0.928179 0.951759 0.924961 0.980612 0.843957 0.82242 0.791392 0.865549 0.835765 0.919538 0.847838 0.868586 0.879023 0.831246 0.861155 0.83411 0.828749 0.83491 0.81526 0.810399 0.814557 0.861479 0.800169 0.767758 0.835527 0.833372 0.819916 0.835208 0.80112 0.808713 0.760452 0.760783 0.759471 0.756789 0.763085 0.745635 0.748738 0.745509 0.747643 0.798197 0.829313 0.82475 0.750738 0.72495 0.543384 0.665574 0.724967 0.766007 0.772675 0.75326 0.789947 0.782365 0.792544 0.886129 0.612231 0.653512 0.654114 0.618307 0.612734 0.6051 0.601984 0.606052 0.604784 0.609703 0.610059 0.609149 0.60859 0.600428 0.578617 0.542049 0.696571 0.824607 0.795207 0.83163 0.447334 0.625369 0.700319 1.30863 0.977867 1.04346 1.47934 0.846981 0.819758 0.831928 0.814362 0.799137 0.780413 0.772834 0.763231 0.805401 0.762222 0.681529 0.800767 0.599986 0.662304 0.533609 0.924722 0.931926 0.71009 0.705248 0.53336 0.565458 0.898363 0.521741 0.935447 1.17571 0.889954 0.949707 0.803016 0.84926 0.836779 0.865805 0.750437 0.78487 0.735379 0.80617 0.547655 0.916471 0.992338 0.863432 0.773704 0.714175 0.806641 0.846897 0.952401 0.945464 0.857759 0.849808 0.77195 0.76428 0.811759 0.826786 0.877639 0.856384 0.831007 0.804531 0.801122 0.810943 0.812315 0.808899 0.805687 0.812556 0.8192 0.819735 0.82762 0.825365 0.774425 0.774096 0.753024 0.822204 0.853474 0.778308 0.817535 0.755603 0.767884 0.735007 0.756611 0.745489 0.728412 0.755825 0.742504 0.691609 0.742295 0.794565 0.720239 0.732148 0.627882 0.578511 0.560401 0.644171 0.810224 0.581192 0.70359 0.70093 1.02825 0.700526 0.777524 0.783168 0.692091 0.60429 0.687682 0.697157 0.691804 0.692265 0.631278 0.629642 0.621288 0.616014 0.612461 0.604572 0.60536 0.602786 0.609268 0.616214 0.633923 0.624588 0.609629 0.605088 0.636817 0.630565 0.659541 0.646386 0.670469 0.499603 0.616647 0.6211 0.811094 0.262884 0.629562 0.987445 0.787664 0.804946 1.05579 0.599348 0.727995 0.800827 0.880835 0.762882 0.693296 0.60801 0.57055 0.61946 0.584389 0.808877 1.0015 0.92795 0.56743 0.814272 0.878939 0.708967 0.849738 0.912603 0.928248 0.777172 0.845287 0.954331 0.893151 0.836747 0.684213 1.11005 0.81881 0.94723 0.91585 0.834245 0.661885 0.774118 0.758391 0.764459 0.748982 0.868462 0.859867 0.777176 0.795586 0.781497 0.812551 0.861756 0.850727 0.807619 0.809746 0.814922 0.800525 0.779258 0.801813 0.792273 0.788105 0.754791 0.793739 0.775273 0.782833 0.755433 0.844693 0.793017 0.782974 0.817477 0.793788 0.797563 0.729024 0.737593 0.745138 0.761775 0.733144 0.73805 0.728586 0.731601 0.724452 0.716291 0.704409 0.725133 0.737947 0.687939 0.714416 0.719609 0.675774 0.64479 0.487747 0.641658 0.528935 0.434244 0.85152 1.21318 0.792915 0.540514 0.622113 0.434244 0.500492 0.622518 0.628622 0.594584 0.6344 0.612502 0.624234 0.625552 0.721645 0.655814 0.621149 0.624937 0.619079 0.619899 0.629369 0.625915 0.630683 0.62937 0.634983 0.638261 0.61555 0.627344 0.61245 0.626026 0.608988 0.624007 0.626514 0.629445 0.675092 0.646485 0.635477 0.632208 0.657519 0.639683 0.676152 0.634404 0.615663 0.719192 0.694566 0.674867 0.745396 0.715363 0.80761 0.761258 0.801471 0.689603 0.893731 0.789923 0.641786 0.683037 0.660942 0.734356 0.761251 0.738618 0.830126 0.945172 0.880484 1.04588 0.988148 0.728682 0.773508 0.803488 0.867559 0.875005 0.815692 0.841917 0.954604 0.934886 0.950669 0.917534 0.825047 0.942044 1.09931 0.491218 0.583327 0.876562 0.755523 0.702433 0.764838 0.764844 0.744523 0.762479 0.764072 0.679987 0.820858 0.782386 0.823684 0.772097 0.776909 0.763772 0.813684 0.777018 0.77838 0.802596 0.778854 0.825673 0.812165 0.822682 0.797478 0.786574 0.770514 0.748406 0.734991 0.771173 0.764488 0.757049 0.759485 0.66471 0.754849 0.734647 0.794148 0.71272 0.746027 0.721575 0.727555 0.721367 0.726824 0.70299 0.707188 0.702595 0.658423 0.697635 0.663863 0.662714 0.663612 0.516755 0.563907 0.74846 0.630235 0.701575 0.557317 0.583877 0.536153 0.46698 0.506516 0.561103 0.643177 0.605546 0.627877 0.623857 0.615936 0.616497 0.618348 0.606666 0.616238 0.616934 0.616411 0.617815 0.613747 0.589952 0.537232 0.614349 0.590692 0.617999 0.626644 0.64072 0.621839 0.62111 0.624402 0.61815 0.61185 0.616428 0.597879 0.575316 0.545398 0.560225 0.568417 0.667552 0.696996 0.63199 0.671891 0.658299 0.606353 0.603098 0.675138 0.728099 0.776521 0.778459 0.871576 0.825254 0.829014 0.716065 0.686915 0.782384 0.652812 0.759089 0.750372 0.71735 0.751446 0.808342 0.77251 0.82895 0.937126 0.890713 0.714045 0.64709 0.781567 0.70062 0.993211 0.775433 0.804208 0.613641 0.733552 0.722946 0.683241 0.705006 0.685531 0.753189 0.494897 0.679829 0.663544 0.796989 0.875869 0.722234 0.766055 0.856211 0.721599 0.714326 0.650937 0.711177 0.829211 0.686189 0.902866 0.691238 0.658556 0.753268 0.755682 0.742321 0.590131 0.815089 0.887098 0.770209 0.810303 0.775457 0.713062 0.7272 0.756886 0.749091 0.74642 0.759913 0.741303 0.722838 0.703811 0.734182 0.698451 0.709714 0.572657 0.677972 0.796628 0.764779 0.770955 0.740494 0.752625 0.731933 0.731899 0.724225 0.713059 0.695082 0.728971 0.704158 0.676239 0.681295 0.671939 0.681585 0.71002 0.645561 0.720534 0.659076 0.580788 0.607812 0.543901 0.563821 0.618249 0.620485 0.622532 0.632682 0.614837 0.599665 0.605214 0.615054 0.599171 0.601516 0.605024 0.590113 0.590831 0.584778 0.584601 0.481718 0.492919 0.493162 0.517697 0.491438 0.565915 0.55822 0.622053 0.608725 0.591133 0.589765 0.61822 0.605562 0.590226 0.602273 0.604151 0.586916 0.592872 0.5771 0.55657 0.562965 0.547318 0.558919 0.572874 0.580483 0.631955 0.636314 0.632253 0.637457 0.618909 0.627037 0.619212 0.628766 0.612956 0.596689 0.59299 0.622666 0.609263 0.742251 0.699993 0.593388 0.885175 0.876114 0.732009 0.721381 0.693013 0.505149 0.697179 0.879033 0.718682 0.760467 0.505553 0.523436 0.869801 0.715642 0.62137 0.592471 0.743776 0.818061 0.710231 0.705817 0.776773 0.855881 0.687559 0.683166 0.647005 0.620014 0.625985 0.614074 0.637116 0.723137 0.692094 0.512752 0.652667 0.799803 0.666559 0.875093 0.618846 1.20149 0.725683 0.729456 0.773593 0.75835 0.803126 0.510611 0.693048 0.689764 0.704739 0.725205 0.626017 0.699759 0.698378 0.693947 0.66254 0.685771 0.752619 0.742095 0.735962 0.763676 0.758553 0.724206 0.764699 0.702633 0.720472 0.675205 0.679013 0.693728 0.726161 0.717091 0.74238 0.669469 0.69351 0.719279 0.685378 0.660853 0.673212 0.717363 0.62883 0.769734 0.762321 0.676996 0.643787 0.603533 0.596353 0.611238 0.585454 0.612222 0.616347 0.604661 0.605646 0.613267 0.600925 0.589736 0.587788 0.589074 0.600898 0.585582 0.599576 0.587096 0.592692 0.585109 0.581254 0.586456 0.58173 0.589548 0.589134 0.523115 0.521007 0.508494 0.506954 0.491184 0.575779 0.601897 0.652143 0.607511 0.598876 0.621702 0.610572 0.614812 0.582089 0.578771 0.588239 0.586708 0.573054 0.569616 0.557584 0.546366 0.545377 0.615449 0.614495 0.613789 0.603693 0.601721 0.595427 0.643398 0.574994 0.565997 0.639114 0.619042 0.610056 0.661757 0.625403 0.654451 0.681317 0.727563 0.711037 0.80245 0.765025 0.781589 0.972302 0.653221 0.585342 0.503027 0.595562 0.537204 0.70894 0.639485 0.682544 0.701829 0.690281 0.635025 0.623613 0.611498 0.665298 0.643257 0.656896 0.623009 0.68365 0.67862 0.651646 0.683671 0.696727 0.706076 0.726519 0.749782 0.706258 0.872106 0.737452 0.956212 0.154866 0.677734 0.812984 0.866706 0.869321 0.871301 0.803749 0.668458 0.666607 0.676959 0.683117 0.651001 0.676607 0.650368 0.648718 0.639071 0.638625 0.675608 0.630693 0.662978 0.732089 0.606267 0.776455 0.737071 0.782106 0.780487 0.789333 0.661306 0.728647 0.61887 0.663466 0.641594 0.676276 0.683121 0.744019 0.678825 0.712249 0.713932 0.682554 0.670902 0.71178 0.608855 0.634687 0.626743 0.65757 0.670376 0.80819 0.658213 0.697219 0.6443 0.574596 0.626077 0.608517 0.563822 0.610416 0.597602 0.588965 0.595567 0.571973 0.588277 0.576866 0.579641 0.572671 0.580696 0.583149 0.568806 0.581648 0.585456 0.587183 0.580697 0.591939 0.586779 0.569633 0.568495 0.555777 0.500217 0.502909 0.500957 0.528853 0.518912 0.490702 0.533705 0.491998 0.491816 0.478157 0.522609 0.69815 0.566673 0.722386 0.694006 0.625992 0.576003 0.514162 0.568931 0.556899 0.530701 0.549211 0.588054 0.563186 0.561711 0.561145 0.549271 0.547218 0.543514 0.534216 0.521055 0.59909 0.622924 0.593143 0.601942 0.606756 0.629212 0.629525 0.63283 0.629981 0.668369 0.64728 0.660222 0.694557 0.697998 0.750793 0.837059 0.689315 0.612717 0.583711 0.519462 0.540162 0.554574 0.57103 0.601326 0.603612 0.630386 0.655686 0.69257 0.6688 0.670626 0.634319 0.60723 0.596726 0.606137 0.620709 0.594316 0.611646 0.650262 0.617252 0.606188 0.583592 0.620312 0.688456 0.697595 0.725676 0.698709 0.713582 0.540218 0.837662 0.890177 0.743304 0.838662 0.822851 0.714575 0.669749 0.652231 0.657486 0.656553 0.654001 0.647053 0.649607 0.64405 0.605334 0.611936 0.672335 0.624697 0.681131 0.599898 0.66035 0.380654 0.621576 0.6326 0.698522 0.630878 0.688287 0.619317 0.757532 0.710723 0.808669 0.756275 0.60765 0.764012 0.726026 0.471943 0.635288 0.646815 0.644448 0.694752 0.657708 0.66043 0.609044 0.641749 0.628182 0.606555 0.569621 0.572646 0.580319 0.646097 0.60677 0.581607 0.586268 0.584112 0.579584 0.58187 0.594441 0.578516 0.556801 0.559413 0.543905 0.573991 0.549854 0.559692 0.569737 0.546256 0.544741 0.513382 0.534013 0.530947 0.473234 0.534077 0.572077 0.46042 0.489462 0.498996 0.487472 0.504483 0.517015 0.510086 0.526209 0.513542 0.542554 0.56077 0.521118 0.493549 0.576714 0.477365 0.60771 0.710929 0.591328 0.537705 0.469766 0.498228 0.607497 0.347191 0.58166 0.544367 0.532824 0.486974 0.490112 0.451705 0.563121 0.539111 0.533909 0.652059 0.63064 0.626234 0.638533 0.624984 0.636393 0.700084 0.646168 0.749116 0.648991 0.647269 0.629005 0.597381 0.588382 0.540944 0.573913 0.561684 0.597169 0.610564 0.638144 0.669733 0.6658 0.683173 0.645125 0.602249 0.583751 0.588246 0.594339 0.58446 0.601661 0.612382 0.597611 0.626587 0.657981 0.692564 0.708774 0.72596 0.70397 0.711934 0.701863 0.644183 0.666657 0.758689 0.724723 0.799468 0.799777 0.846473 0.814081 0.783766 0.721713 0.768455 0.675515 0.665129 0.653846 0.670225 0.653086 0.65119 0.639806 0.611767 0.609331 0.613109 0.609647 0.61238 0.634021 0.621774 0.543464 0.429281 0.536467 0.585285 0.58577 0.64114 0.581092 0.581087 0.65227 0.772984 0.843105 0.954516 0.499664 0.794787 0.707795 0.666606 0.714577 0.632551 0.634245 0.645076 0.608383 0.575527 0.60293 0.581271 0.581328 0.609351 0.555277 0.541181 0.55748 0.492429 0.48623 0.494229 0.524785 0.563378 0.555362 0.559841 0.57286 0.455009 0.509514 0.615679 0.44553 0.576476 0.446858 0.490846 0.454059 0.450841 0.494288 0.470817 0.583205 0.535372 0.520744 0.511635 0.544883 0.486028 0.590952 0.314057 0.91951 0.903379 0.677049 0.436156 0.415854 0.486348 0.489751 0.365776 0.303768 0.57655 0.526146 0.501021 0.464878 0.466485 0.496246 0.508323 0.53506 0.552161 0.572149 0.528211 0.655774 0.543927 0.594079 0.569796 0.573986 0.584556 0.597062 0.658603 0.554495 0.620427 0.621032 0.591582 0.575643 0.56843 0.570884 0.584298 0.611315 0.57664 0.654795 0.631397 0.646635 0.634982 0.593329 0.582169 0.601963 0.598566 0.595663 0.601835 0.612057 0.627935 0.641288 0.644829 0.65675 0.666385 0.693533 0.655715 0.720072 0.721952 0.736723 0.715509 0.687612 0.673178 0.710902 0.754667 0.823376 0.791523 0.742361 0.704644 0.669456 0.67083 0.667466 0.683298 0.685075 0.661476 0.646728 0.655929 0.622049 0.639591 0.619805 0.612089 0.61306 0.626833 0.606185 0.630095 0.483105 0.56753 0.543 0.564405 0.55419 0.590587 0.592621 0.60108 0.582597 0.578505 0.363886 0.470712 0.214834 0.386902 0.36709 0.453799 0.387587 0.733464 0.696476 0.607658 0.617944 0.538719 0.587662 0.538407 0.56896 0.498841 0.566445 0.560556 0.552098 0.548375 0.572893 0.558484 0.544237 0.458351 0.510395 0.485306 0.438218 0.623421 0.408289 0.426921 0.559754 0.393197 0.583548 0.614636 0.338735 0.335748 0.404251 0.424183 0.419682 0.388971 0.343452 0.382393 0.414456 0.438342 0.466641 0.423351 0.367111 0.467444 0.434678 0.406212 0.41518 0.37542 0.46568 0.388181 0.422571 0.487942 0.469655 0.474649 0.390096 0.460821 0.462961 0.407342 0.488491 0.459362 0.491844 0.527092 0.458087 0.500958 0.475183 0.538534 0.505156 0.488074 0.496743 0.608258 0.683056 0.560513 0.523893 0.504771 0.522681 0.497683 0.499633 0.539486 0.516966 0.5433 0.52967 0.59192 0.60134 0.58017 0.554041 0.554841 0.573227 0.608159 0.621087 0.616417 0.605182 0.603324 0.59626 0.596332 0.606891 0.606038 0.615461 0.611513 0.587318 0.589394 0.593844 0.629268 0.65179 0.651349 0.631978 0.66372 0.783797 0.77159 0.846542 0.735372 0.679662 0.680395 0.672722 0.735973 0.750063 0.737165 0.664727 0.593326 0.674758 0.679322 0.697487 0.702254 0.67032 0.662978 0.649345 0.631333 0.639445 0.616733 0.605784 0.600293 0.566297 0.604298 0.558079 0.570993 0.560387 0.570932 0.57043 0.60313 0.612936 0.568658 0.574093 0.364964 0.507767 0.389203 0.476273 0.447397 0.484021 0.425239 0.521002 0.521654 0.560067 0.492271 0.599248 0.536704 0.474498 0.496167 0.57391 0.510102 0.49729 0.565945 0.536934 0.463264 0.431141 0.503775 0.474126 0.427791 0.363343 0.517526 0.490031 0.641072 0.311003 0.361626 0.348033 0.398629 0.39322 0.370292 0.337104 0.318462 0.291418 0.270586 0.323451 0.359569 0.348323 0.368216 0.382219 0.376003 0.369553 0.350824 0.356298 0.39485 0.411431 0.427192 0.358257 0.379603 0.378807 0.390539 0.36849 0.425569 0.449165 0.388088 0.40588 0.406474 0.456167 0.432529 0.43206 0.475579 0.504593 0.495284 0.487144 0.497493 0.522588 0.531817 0.521032 0.512315 0.490043 0.486403 0.496661 0.515358 0.555447 0.572117 0.589784 0.571519 0.583251 0.572183 0.571545 0.552164 0.546936 0.552165 0.566051 0.595255 0.583645 0.602855 0.599956 0.606493 0.607054 0.608604 0.620206 0.618619 0.575674 0.657625 0.668514 0.666832 0.669874 0.66296 0.648218 0.668616 0.851427 0.930965 0.731141 0.651833 0.661888 0.702747 0.694511 0.732253 0.6724 0.596055 0.643219 0.533242 0.727409 0.711761 0.704525 0.663601 0.643775 0.62933 0.628164 0.6168 0.60688 0.606287 0.604061 0.600287 0.583337 0.569548 0.578898 0.573932 0.575119 0.589678 0.576413 0.585539 0.609303 0.618862 0.619984 0.581909 0.588419 0.535011 0.469072 0.493 0.484565 0.479619 0.528815 0.500562 0.533498 0.535982 0.524106 0.513385 0.508904 0.501249 0.574448 0.571801 0.520728 0.497438 0.459898 0.447319 0.433662 0.438972 0.401003 0.492526 0.482261 0.539574 0.626055 0.365901 0.51191 0.333982 0.287749 0.410858 0.407431 0.346693 0.367076 0.333628 0.283956 0.352011 0.311608 0.332495 0.283861 0.266004 0.247885 0.233353 0.252481 0.290117 0.280273 0.307979 0.294757 0.32569 0.313895 0.359776 0.333745 0.351978 0.345115 0.356625 0.358474 0.374334 0.364625 0.378637 0.379085 0.401005 0.381649 0.393556 0.385212 0.402534 0.384519 0.372461 0.372427 0.38939 0.429801 0.437554 0.476817 0.460453 0.497866 0.50108 0.510697 0.492154 0.499934 0.490542 0.506584 0.486839 0.492929 0.480276 0.500533 0.495997 0.484033 0.489599 0.504539 0.537591 0.555753 0.565287 0.561862 0.562159 0.550757 0.556871 0.566304 0.577144 0.591891 0.608594 0.614563 0.613452 0.627073 0.614879 0.637738 0.690818 0.668512 0.673448 0.667218 0.673638 0.680752 0.666345 0.687336 0.622234 0.69678 0.466241 0.586673 0.707497 0.706181 0.71378 0.690107 0.720283 0.741929 0.730739 0.730797 0.687353 0.616845 0.603478 0.575572 0.790423 0.468386 0.981717 0.74681 0.679849 0.659454 0.649741 0.660428 0.653726 0.60882 0.603532 0.606468 0.606728 0.608812 0.591942 0.580678 0.58465 0.579644 0.586728 0.584608 0.584651 0.596435 0.570252 0.573208 0.571176 0.541216 0.535681 0.511975 0.506055 0.503197 0.498295 0.512462 0.512001 0.50975 0.522815 0.513526 0.510995 0.511924 0.494519 0.51257 0.536654 0.513126 0.537511 0.455224 0.493015 0.494388 0.438419 0.415049 0.51903 0.528643 0.504152 0.494284 0.262216 0.537331 0.0657269 0.553035 0.538408 0.284368 0.28726 0.209855 0.367304 0.314361 0.229045 0.281548 0.247964 0.220304 0.139253 0.222113 0.232648 0.236019 0.250552 0.277847 0.305741 0.337037 0.347178 0.352465 0.366508 0.373333 0.381514 0.382952 0.378757 0.381081 0.382776 0.376378 0.371596 0.388591 0.370894 0.377621 0.391848 0.399173 0.446999 0.478119 0.503865 0.491775 0.498234 0.494254 0.490708 0.492672 0.486215 0.480574 0.475926 0.474622 0.494295 0.497848 0.494485 0.492332 0.503708 0.49613 0.520572 0.516632 0.540047 0.543774 0.55114 0.556634 0.560823 0.565829 0.564074 0.553592 0.548475 0.556609 0.558036 0.563774 0.575235 0.598684 0.622398 0.619842 0.623457 0.633443 0.642365 0.662569 0.675023 0.672591 0.662163 0.646437 0.621731 0.532573 0.531705 0.66161 0.719628 0.717443 0.70965 0.724786 0.768879 0.626221 0.622883 0.592642 0.566741 0.524069 0.367191 0.445445 0.759706 0.547135 0.726794 0.669839 0.667042 0.698301 0.611654 0.609285 0.61185 0.617631 0.595661 0.599981 0.58897 0.583235 0.588657 0.579716 0.588802 0.586049 0.592641 0.585638 0.57456 0.555915 0.53242 0.523892 0.542892 0.514309 0.514957 0.518081 0.514975 0.516442 0.514539 0.501392 0.487588 0.483668 0.474998 0.498249 0.467642 0.492598 0.516361 0.482513 0.468469 0.465394 0.40064 0.411692 0.527683 0.475704 0.500616 0.556651 0.710054 0.823819 0.421263 0.381017 0.334219 0.561325 0.330926 0.349542 0.227678 0.320479 0.181818 0.264583 0.246898 0.209267 0.0364869 0.0288885 0.15032 0.0840958 0.0824189 0.128177 0.18674 0.195777 0.223355 0.253986 0.289341 0.313562 0.342097 0.350573 0.348502 0.364442 0.377213 0.389573 0.384159 0.387642 0.38368 0.392102 0.391034 0.383512 0.393267 0.391747 0.402804 0.411454 0.430633 0.451808 0.446889 0.466732 0.493599 0.507989 0.498524 0.498127 0.494879 0.496711 0.490335 0.487962 0.483788 0.510141 0.494471 0.510571 0.531412 0.540343 0.552769 0.560757 0.56831 0.564299 0.55879 0.554615 0.558072 0.561109 0.547625 0.619917 0.62281 0.63587 0.64786 0.634062 0.625599 0.64224 0.654993 0.649199 0.661078 0.652193 0.6373 0.642738 0.63169 0.599392 0.555326 0.582754 0.648989 0.684522 0.721633 0.700985 0.727022 0.617947 0.607239 0.60053 0.568042 0.5058 0.439148 0.515722 0.560819 0.64469 0.640546 0.6632 0.695998 0.588228 0.606237 0.604983 0.60806 0.587142 0.593904 0.595457 0.594259 0.583428 0.592607 0.571431 0.599129 0.561608 0.5874 0.531886 0.599631 0.622057 0.565358 0.595112 0.573448 0.550852 0.532646 0.548839 0.524043 0.526242 0.5315 0.522482 0.528204 0.520481 0.516819 0.518795 0.514846 0.50646 0.504325 0.484513 0.436708 0.443148 0.490273 0.442024 0.421533 0.38338 0.397427 0.4393 0.472573 0.432187 0.453602 0.389962 0.44677 0.405494 0.387418 0.393519 0.402201 0.350632 0.365957 0.360672 0.269771 0.278342 0.269846 0.0698674 0.082807 0.0640131 0.0739982 2.29637 0.176287 0.142297 0.213047 0.217144 0.248602 0.241245 0.290072 0.274903 0.31427 0.299164 0.33427 0.340524 0.346592 0.373643 0.379239 0.394126 0.397337 0.400616 0.395082 0.401361 0.402404 0.415956 0.423457 0.427129 0.430201 0.453319 0.475827 0.477177 0.504321 0.492806 0.508326 0.50057 0.501344 0.505647 0.50233 0.490165 0.478618 0.465661 0.493909 0.452972 0.551236 0.527434 0.548293 0.552 0.562002 0.574807 0.570068 0.574387 0.57876 0.563998 0.556283 0.56043 0.558314 0.564374 0.633269 0.626477 0.625388 0.675886 0.627983 0.648128 0.656907 0.641485 0.638975 0.639898 0.629827 0.637404 0.633685 0.604776 0.545898 0.585503 0.676232 0.694457 0.685004 0.629686 0.5985 0.602644 0.607784 0.583554 0.522102 0.505151 0.552911 0.619876 0.637279 0.668125 0.676144 0.608945 0.608294 0.601616 0.590809 0.592057 0.585827 0.593429 0.583052 0.61687 0.584208 0.62543 0.676489 0.630799 0.565415 0.540294 0.559574 0.540801 0.536252 0.521751 0.527497 0.521448 0.523121 0.5206 0.519587 0.518381 0.523065 0.519996 0.515568 0.484371 0.53474 0.544998 0.438258 0.435225 0.428061 0.395142 0.386665 0.41633 0.398834 0.4309 0.445951 0.432732 0.429428 0.458768 0.46801 0.420428 0.311614 0.420954 0.357442 0.35598 0.368395 0.337802 0.267358 0.375477 0.318635 0.316854 0.0847084 0.248827 0.262743 0.266032 0.831541 0.00836567 0.0589291 0.105655 0.163774 0.164117 0.197292 0.247604 0.19913 0.277187 0.293482 0.348838 0.356722 0.370049 0.404906 0.411185 0.416923 0.417377 0.422458 0.427174 0.427231 0.430263 0.45689 0.47374 0.505695 0.490648 0.509668 0.510019 0.509886 0.492302 0.48186 0.487066 0.537216 0.562529 0.520852 0.548118 0.55527 0.563786 0.56275 0.576019 0.583217 0.565808 0.579336 0.576852 0.58163 0.607442 0.615524 0.632896 0.634199 0.630392 0.606785 0.641224 0.647229 0.647175 0.646008 0.64278 0.653465 0.621661 0.608541 0.626154 0.633696 0.62662 0.632712 0.619896 0.648682 0.551076 0.586759 0.724041 0.698167 0.681165 0.624695 0.636217 0.620685 0.604626 0.577655 0.570288 0.583378 0.602341 0.555899 0.598096 0.572875 0.608116 0.638818 0.639534 0.651376 0.595034 0.611249 0.612019 0.624489 0.601227 0.590483 0.578716 0.598895 0.587416 0.586995 0.584143 0.586229 0.62636 0.59491 0.585662 0.473743 0.569789 0.554815 0.553148 0.545035 0.549956 0.53973 0.528113 0.522152 0.51873 0.523536 0.508798 0.497989 0.481744 0.443139 0.465695 0.455766 0.435847 0.408277 0.407663 0.423196 0.42324 0.418597 0.448006 0.460613 0.50049 0.348642 0.521166 0.359785 0.343188 0.392739 0.341071 0.299266 0.362816 0.302765 0.362177 0.504044 0.246402 0.0184331 0.177102 0.221493 0.248594 0.278171 0.352675 0.367429 0.394903 0.435708 0.426097 0.434172 0.427935 0.438769 0.432163 0.456339 0.484969 0.494594 0.505404 0.506279 0.513122 0.51614 0.512026 0.52383 0.50051 0.503 0.515255 0.565467 0.564208 0.546403 0.549611 0.54523 0.559061 0.555574 0.582472 0.56447 0.585819 0.585016 0.584092 0.572081 0.590582 0.578794 0.590818 0.641839 0.641889 0.621995 0.618938 0.64075 0.648178 0.581683 0.620218 0.611731 0.640746 0.624253 0.662601 0.623362 0.541744 0.576198 0.596141 0.672532 0.738644 0.650801 0.615741 0.590852 0.548559 0.566112 0.57481 0.574034 0.583404 0.555939 0.597542 0.633788 0.673847 0.620794 0.588744 0.604097 0.622894 0.629147 0.629268 0.602252 0.592125 0.560921 0.599011 0.590661 0.596665 0.620427 0.632235 0.536116 0.539198 0.551356 0.547035 0.553465 0.547142 0.551679 0.547901 0.540261 0.53273 0.529382 0.52797 0.52952 0.527068 0.529846 0.500298 0.525605 0.47069 0.454923 0.469371 0.443923 0.423551 0.408506 0.426258 0.415478 0.463193 0.420412 0.517109 0.410978 0.406179 0.362912 0.412487 0.467648 0.430233 0.335373 0.29825 0.303211 0.250203 0.233374 0.262717 0.636434 0.244703 0.0734482 0.155059 0.210008 0.249764 0.273973 0.258627 0.408175 0.423136 0.37648 0.315168 0.354946 0.45295 0.430208 0.446148 0.438325 0.436084 0.433598 0.428206 0.436892 0.477347 0.477158 0.468591 0.486201 0.4939 0.506097 0.513829 0.515957 0.523655 0.517907 0.536667 0.509485 0.543825 0.487945 0.61579 0.572579 0.558241 0.571595 0.561781 0.562073 0.577202 0.596378 0.592455 0.586511 0.609992 0.613204 0.623168 0.577425 0.630214 0.609153 0.607363 0.633656 0.632208 0.6492 0.67875 0.56361 0.563564 0.573026 0.600952 0.659551 0.660581 0.593057 0.637736 0.524236 0.574123 0.464515 0.405303 0.729243 0.619924 0.596573 0.55228 0.566874 0.578688 0.536649 0.548997 0.558368 0.550652 0.554117 0.593339 0.668578 0.546257 0.588947 0.643906 0.628305 0.619703 0.612551 0.621238 0.593573 0.57633 0.547546 0.573944 0.591311 0.608055 0.59684 0.59008 0.619564 0.54783 0.556179 0.553481 0.557377 0.553498 0.543479 0.538004 0.543709 0.536794 0.533475 0.532994 0.533228 0.525658 0.516306 0.476007 0.462681 0.465748 0.444687 0.419868 0.424081 0.42019 0.426165 0.403995 0.158035 0.395352 0.408551 0.398542 0.436302 0.38229 0.305435 0.246307 0.269353 0.186479 0.202317 0.23298 0.21723 0.25972 0.367889 0.124866 0.150635 0.235941 0.244043 0.318395 0.23548 0.284638 0.40955 0.461128 0.21335 0.513197 0.435471 0.567613 0.506613 0.42173 0.386868 0.420261 0.40265 0.404967 0.451041 0.462291 0.478483 0.490821 0.522742 0.523003 0.5456 0.425421 0.470087 0.542772 0.586016 0.569981 0.573512 0.579944 0.566886 0.584161 0.613145 0.593691 0.602533 0.599179 0.619154 0.607928 0.587868 0.582786 0.541623 0.515784 0.618474 0.636974 0.650016 0.690397 0.560608 0.585381 0.571632 0.572515 0.478145 0.481529 0.556806 0.375592 0.44577 0.609045 0.538459 0.543648 0.56166 0.529739 0.547281 0.551076 0.586466 0.596153 0.626404 0.502391 0.551404 0.567355 0.493258 0.643295 0.632006 0.640919 0.608148 0.590785 0.572618 0.592219 0.623668 0.559282 0.56106 0.561214 0.563049 0.563894 0.548176 0.557621 0.543988 0.549476 0.545377 0.541861 0.535452 0.519622 0.49848 0.497392 0.443573 0.409272 0.415051 0.440043 0.565812 0.139335 0.367278 0.406701 0.390695 0.384949 0.309934 0.257077 0.241123 0.22939 0.342308 0.289566 0.216585 0.0756872 0.146555 0.182207 0.207925 0.241112 0.231071 0.339811 0.259784 0.264898 0.391385 0.479119 0.585348 0.667623 0.580564 0.319264 0.353739 0.367547 0.371415 0.348786 0.379397 0.375635 0.430746 0.419568 0.457124 0.473828 0.479704 0.522485 0.516589 0.512643 0.514304 0.530357 0.4185 0.580629 0.618234 0.581649 0.579373 0.545365 0.545838 0.573216 0.5891 0.597044 0.594099 0.592593 0.614894 0.570583 0.557861 0.520552 0.710755 0.708344 0.64423 0.698413 0.696731 0.553984 0.477433 0.541245 0.590434 0.4268 0.644808 0.537486 0.430101 0.485282 0.643514 0.637274 0.631413 0.608915 0.588818 0.603346 0.570032 0.587063 0.59869 0.587273 0.580717 0.568451 0.569577 0.566445 0.563092 0.562921 0.549957 0.548734 0.541897 0.5266 0.517542 0.52348 0.510125 0.500402 0.433426 0.38721 0.402985 0.446725 0.568682 0.455689 0.581471 0.394436 0.418124 0.355592 0.361161 0.330795 0.32167 0.293535 0.306098 0.304507 0.279033 0.260486 0.226992 0.232189 0.25445 0.24019 0.385918 0.416955 0.431514 0.540514 0.648305 0.519585 0.389115 0.346325 0.357999 0.343438 0.410745 0.439686 0.454895 0.47723 0.496042 0.525039 0.512373 0.485362 0.447503 0.466459 0.51002 0.623335 0.538227 0.562322 0.551096 0.542226 0.547622 0.589051 0.582398 0.599205 0.597244 0.60336 0.596672 0.610742 0.572806 0.556532 0.504334 0.688991 0.640617 0.632419 0.614784 0.604314 0.575928 0.652618 0.579619 0.585062 0.584435 0.581005 0.584515 0.573988 0.571578 0.567877 0.562545 0.561716 0.557975 0.546669 0.535078 0.537837 0.532182 0.517533 0.515784 0.512755 0.541353 0.360032 0.397039 0.348778 0.579923 0.593825 0.489484 0.363467 0.484279 0.308084 0.317965 0.292493 0.292372 0.26799 0.275096 0.327694 0.324949 0.286882 0.275085 0.30816 0.253941 0.276302 0.259503 0.274788 0.253031 0.375646 0.357754 0.428434 0.474568 0.566825 0.635607 0.584852 0.366127 0.470116 0.33671 0.34052 0.404587 0.44503 0.483889 0.476241 0.493526 0.522287 0.49491 0.573301 0.427867 0.440528 0.449539 0.582244 0.589039 0.481067 0.532067 0.603704 0.604337 0.622226 0.593838 0.61079 0.582151 0.586215 0.583243 0.585418 0.579416 0.580651 0.577492 0.574163 0.564523 0.568652 0.566622 0.561274 0.55121 0.543497 0.53955 0.516214 0.518644 0.55009 0.400368 0.520619 0.526441 0.519556 0.53391 0.497941 0.25755 0.309548 0.242498 0.238355 0.248874 0.296839 0.297767 0.299486 0.215212 0.24198 0.386897 0.511743 0.627453 0.54179 0.540519 0.528231 0.56828 0.385731 0.382395 0.439493 0.469487 0.478875 0.541522 0.416408 0.44119 0.604757 0.572556 0.55441 0.539203 0.508606 0.42007 0.470984 0.482934 0.29289 0.442325 0.585298 0.578049 0.548184 0.518463 0.509088 0.247093 0.308 0.336449 0.22548 0.217537 0.27033 0.31281 0.313733 0.241623 0.356301 0.432601 0.404077 0.494154 0.514255 0.294951 0.318282 
SCALARS Stress float 1
LOOKUP_TABLE default
-67179200000.0 -90798000000.0 -225634000000.0 -121007000000.0 -105991000000.0 -44978600000.0 -172421000000.0 -255724000000.0 -267589000000.0 -124293000000.0 -113080000000.0 -202371000000.0 -115291000000.0 -75111400000.0 -47159300000.0 -164702000000.0 -219758000000.0 -386838000000.0 -395279000000.0 -662819000000.0 -164224000000.0 -341202000000.0 -660927000000.0 -407747000000.0 -438804000000.0 -336194000000.0 -368742000000.0 -147173000000.0 -289969000000.0 -192110000000.0 -251632000000.0 -468204000000.0 -213118000000.0 -284539000000.0 -268621000000.0 -326340000000.0 -203280000000.0 -44572200000.0 -87205300000.0 -289430000000.0 -536594000000.0 -264822000000.0 -582292000000.0 -996647000000.0 -431806000000.0 -184353000000.0 -860347000000.0 -772195000000.0 -1.02774e+12 -573711000000.0 -356482000000.0 -972123000000.0 -816493000000.0 -397968000000.0 -450199000000.0 -1.26552e+12 -399868000000.0 -594047000000.0 -436492000000.0 -479402000000.0 -609132000000.0 -688387000000.0 -84876900000.0 -149395000000.0 -124641000000.0 -113242000000.0 -27623500000.0 -504478000000.0 -728410000000.0 -464150000000.0 -687551000000.0 -1.36449e+12 -1.0504e+12 -312120000000.0 -539266000000.0 -382395000000.0 -654886000000.0 -1.20005e+12 -1.8703e+12 -706646000000.0 -1.49547e+12 -1.78497e+12 -218137000000.0 -762235000000.0 -170858000000.0 -1.10034e+12 -1.29544e+12 -438944000000.0 -177925000000.0 -144911000000.0 -48894000000.0 -684018000000.0 -1.0674e+12 -1.23648e+12 -1.08644e+12 -1.66311e+12 -1.11545e+12 -1.76543e+12 -861023000000.0 -1.28075e+12 -980679000000.0 -771622000000.0 -1.10614e+12 -443866000000.0 -228245000000.0 -1.09872e+12 -739553000000.0 -2.43901e+12 -1.47145e+12 -430575000000.0 -275821000000.0 -97458700000.0 -257998000000.0 -34588100000.0 -89000000000.0 -865102000000.0 -1.7063e+12 -1.31772e+12 -1.63999e+12 -1.17947e+12 -1.56473e+12 -766007000000.0 -2.45623e+12 -605182000000.0 -1.33848e+12 -1.45275e+12 -950026000000.0 -1.25362e+12 -954972000000.0 -1.30183e+12 -2.62235e+12 -3.12631e+12 -2.16568e+12 -1.84914e+12 -626118000000.0 -846429000000.0 -511487000000.0 -1.37258e+12 -339020000000.0 -345555000000.0 -765805000000.0 -116573000000.0 -297042000000.0 -164060000000.0 -304831000000.0 -138887000000.0 -145488000000.0 -469834000000.0 -1.37947e+12 -694749000000.0 -2.84901e+12 -977100000000.0 -986090000000.0 -2.13157e+12 -2.14727e+12 -2.36493e+12 -2.82573e+12 -732583000000.0 -2.16775e+12 -1.22035e+12 -1.5183e+12 -2.41402e+12 -2.54861e+12 -1.70217e+12 -1.33234e+12 -1.52563e+12 -474056000000.0 -1.0792e+12 -1.53388e+12 -1.86255e+12 -811780000000.0 -506077000000.0 -12626100000.0 -93360300000.0 -327948000000.0 -1.80312e+12 -970063000000.0 -2.99737e+12 -1.98381e+12 -2.22533e+12 -2.5269e+12 -2.65102e+12 -2.0336e+12 -2.46508e+12 -2.51833e+12 -2.17793e+12 -2.04227e+12 -2.91497e+12 -1.55117e+12 -2.44256e+12 -1.51357e+12 -1.65917e+12 -1.89017e+12 -1.84217e+12 -1.31007e+12 -193049000000.0 -53788000000.0 -229865000000.0 -767944000000.0 -2.01689e+12 -1.17486e+12 -2.59495e+12 -2.53029e+12 -3.3494e+12 -4.67046e+12 -2.53099e+12 -1.2918e+12 -3.10678e+12 -759329000000.0 -1.91505e+12 -3.69414e+12 -2.21635e+12 -4.48437e+12 -3.47842e+12 -4.36711e+12 -2.21759e+12 -3.70321e+12 -1.2034e+12 -3.57136e+12 -1.02462e+12 -1.59726e+12 -1.09603e+12 -48949300000.0 -1.15339e+12 -1.33964e+12 -1.78167e+12 -2.46624e+12 -1.52935e+12 -2.15785e+12 -1.27009e+12 -4.02218e+12 -4.37234e+12 -2.90523e+12 -3.87835e+12 -3.65433e+12 -3.87478e+12 -3.10812e+12 -3.24016e+12 -4.03008e+12 -5.094e+12 -4.64922e+12 -4.09977e+12 -2.82233e+12 -2.50427e+12 -3.06386e+12 -3.27829e+12 -3.20236e+12 -1.33416e+12 -2.57923e+12 -2.46202e+12 -1.86525e+12 -3.19953e+12 -2.92545e+12 -3.72625e+12 -5.71429e+12 -1.85441e+12 -2.3874e+12 -3.44966e+12 -2.79634e+12 -5.39928e+12 -3.8495e+12 -2.79575e+12 -5.46801e+12 -3.01532e+12 -2.63066e+12 -3.13302e+12 -4.29677e+12 -4.19886e+12 -3.7709e+12 -1.71949e+12 -3.52031e+12 -2.43107e+12 -4.30309e+12 -2.63534e+12 -4.73604e+12 -4.06903e+12 -4.82074e+12 -3.7524e+12 -1.97957e+12 -4.54152e+12 -2.59125e+12 -5.94529e+12 -4.52827e+12 -5.44893e+12 -4.85186e+12 -2.94762e+12 -3.36585e+12 -1.88779e+12 -2.86554e+12 -2.78066e+12 -5.07864e+12 -3.07531e+12 -4.01198e+12 -6.45157e+12 -4.5322e+12 -3.61283e+12 -3.4075e+12 -5.8177e+12 -6.55857e+12 -4.99133e+12 -2.56739e+12 -3.86556e+12 -3.23e+12 -6.12977e+12 -5.96641e+12 -6.78413e+12 -4.55566e+12 -4.27046e+12 -3.6923e+12 -4.38831e+12 -6.43214e+12 -6.13387e+12 -4.01388e+12 -2.30197e+12 -4.13727e+12 -5.97156e+12 -6.59263e+12 -3.70338e+12 -3.25991e+12 -2.3498e+12 -3.84677e+12 -4.49418e+12 -4.76116e+12 -3.00531e+12 -3.79482e+12 -2.41578e+12 -4.88857e+12 -6.20124e+12 -6.3592e+12 -3.6118e+12 -5.94457e+12 -4.06613e+12 -4.08659e+12 -3.85245e+12 -2.05637e+12 -3.99559e+12 -4.23879e+12 -5.56394e+12 -5.87835e+12 -5.67961e+12 -4.24221e+12 -3.38342e+12 -3.90418e+12 -4.54642e+12 -3.68099e+12 -4.33523e+12 -3.86985e+12 -5.86506e+12 -2.34427e+12 -4.62839e+12 -4.91916e+12 -2.08509e+12 -4.40658e+12 -5.04353e+12 -3.73442e+12 -3.90508e+12 -1.60323e+12 -4.24042e+12 -4.91094e+12 -5.92202e+12 -4.29632e+12 -1.31003e+12 -1.90345e+12 -5.07296e+12 -3.06346e+12 -2.36841e+12 -4.85976e+12 -4.71351e+12 -4.32354e+12 -4.26754e+12 -5.38443e+12 -6.09811e+12 -3.92357e+12 -4.42932e+12 -3.6777e+12 -2.37489e+12 -4.12784e+12 -4.93104e+12 -5.48332e+12 -3.21643e+12 -3.34122e+12 -3.55023e+12 -4.17858e+12 -5.2664e+12 -4.80964e+12 -5.40868e+12 -2.60034e+12 -4.91682e+12 -4.89417e+12 -3.73291e+12 -2.85425e+12 -5.46482e+12 -5.3951e+12 -6.24494e+12 -4.02352e+12 -5.33226e+12 -5.98153e+12 -3.27748e+12 -5.14153e+12 -5.04796e+12 -4.81185e+12 -4.4134e+12 -4.18593e+12 -4.66276e+12 -6.65747e+12 -5.57566e+12 -3.90823e+12 -4.5597e+12 -3.90716e+12 -4.70811e+12 -5.09245e+12 -5.31418e+12 -4.15621e+12 -2.88054e+12 -3.45127e+12 -3.67952e+12 -6.5848e+12 -5.32949e+12 -5.37722e+12 -4.43212e+12 -4.64895e+12 -4.62844e+12 -6.06426e+12 -5.55737e+12 -6.59435e+12 -3.57329e+12 -1.9691e+12 -5.29921e+12 -2.59833e+12 -4.7606e+12 -4.65576e+12 -4.05355e+12 -4.16074e+12 -3.69255e+12 -6.85806e+12 -4.96097e+12 -2.95569e+12 -5.81852e+12 -3.50326e+12 -4.43844e+12 -2.57735e+12 -5.65502e+12 -2.72713e+12 -3.4946e+12 -5.15732e+12 -4.94924e+12 -3.71106e+12 -8.26643e+12 -6.38121e+12 -6.95422e+12 -3.87009e+12 -3.53987e+12 -5.80656e+12 -5.82823e+12 -6.67411e+12 -4.90604e+12 -7.43217e+12 -3.82334e+12 -3.49889e+12 -5.0409e+12 -4.64342e+12 -4.78413e+12 -5.54434e+12 -5.89997e+12 -3.09166e+12 -3.25549e+12 -12549700000.0 -2.93958e+12 -5.79306e+12 -4.22851e+12 -5.51791e+12 -3.13566e+12 -3.93359e+12 -7.51494e+12 -3.72083e+12 -4.97447e+12 -4.67438e+12 -6.71383e+12 -3.82637e+12 -7.01173e+12 -5.51856e+12 -4.98697e+12 -4.80985e+12 -5.10798e+12 -3.40592e+12 -5.6093e+12 -2.85068e+12 -4.92224e+12 -7.75674e+12 -5.9296e+12 -5.42267e+12 -6.14572e+12 -4.66741e+12 -3.5523e+12 -5.40127e+12 -3.53638e+12 -4.88226e+12 -5.49197e+12 -2.50972e+12 -4.44537e+12 -5.19339e+12 -5.15197e+12 -5.76611e+12 -2.01207e+12 -3.14665e+12 -6.87342e+12 -6.28906e+12 -6.34917e+12 -7.95354e+12 -6.62314e+12 -5.39214e+12 -6.16011e+12 -2.96458e+12 -4.61825e+12 -5.88327e+12 -4.77866e+12 -7.86849e+12 -5.8129e+12 -5.47903e+12 -3.75124e+12 -4.206e+12 -3.05973e+12 -4.90612e+12 -6.56387e+12 -6.13574e+12 -4.36019e+12 -5.16389e+12 -5.94978e+12 -3.29307e+12 -5.1729e+12 -2.05586e+12 -6.38489e+12 -7.82141e+12 -3.48023e+12 -8.88496e+12 -3.05941e+12 -2.76303e+12 -5.61043e+12 -7.09141e+12 -7.2725e+12 -6.04779e+12 -3.8338e+12 -6.45209e+12 -5.55935e+12 -4.45401e+12 -3.23497e+12 -1.10157e+13 -5.54727e+12 -6.05151e+12 -4.81579e+12 -4.12293e+12 -5.30367e+12 -5.42421e+12 -1.0811e+13 -7.66489e+12 -3.08302e+12 -9.17568e+12 -4.71267e+12 -5.59125e+12 -3.68315e+12 -5.55531e+12 -5.99242e+12 -6.86495e+12 -1.08452e+13 -3.83956e+12 -4.40093e+12 -6.22513e+12 -5.96384e+12 -7.73974e+12 -4.46918e+12 -6.92155e+12 -3.28899e+12 -6.25063e+12 -3.98851e+12 -6.93738e+12 -5.10046e+12 -9.27827e+12 -9.3365e+12 -3.08611e+12 -5.98632e+12 -5.12606e+12 -4.75049e+12 -7.93792e+12 -7.06153e+12 -7.31632e+12 -4.50309e+12 -7.31619e+12 -5.51689e+12 -4.0116e+12 -4.96604e+12 -8.81152e+12 -7.45665e+12 -1.17614e+13 -6.99865e+12 -6.70126e+12 -9.37712e+12 -8.79879e+12 -5.86006e+12 -1.15858e+13 -7.11566e+12 -4.96551e+12 -5.13796e+12 -9.22956e+12 -7.32908e+12 -5.15097e+12 -3.0509e+12 -12549700000.0 -6.15366e+12 -7.20839e+12 -3.41517e+12 -5.315e+12 -5.82624e+12 -3.29477e+12 -6.92643e+12 -7.77783e+12 -5.4337e+12 -1.03193e+13 -6.46501e+12 -5.37355e+12 -6.43096e+12 -4.61254e+12 -5.44487e+12 -5.11434e+12 -5.00562e+12 -6.75213e+12 -4.94374e+12 -6.9535e+12 -6.97967e+12 -8.08472e+12 -7.64943e+12 -7.10501e+12 -6.57488e+12 -3.01734e+12 -8.18035e+12 -5.17034e+12 -1.04738e+13 -1.4818e+13 -7.03028e+12 -7.63803e+12 -12549700000.0 -2.20395e+12 -4.45637e+12 -6.6299e+12 -4.53939e+12 -7.44862e+12 -5.90961e+12 -4.93417e+12 -6.28801e+12 -4.09645e+12 -7.2087e+12 -7.95117e+12 -2.56422e+12 -6.59401e+12 -5.41601e+12 -6.63659e+12 -6.71922e+12 -7.85837e+12 -4.83269e+12 -6.53906e+12 -7.2763e+12 -4.57519e+12 -6.46185e+12 -4.85221e+12 -4.92427e+12 -7.53983e+12 -5.684e+12 -8.50692e+12 -1.00562e+13 -6.80722e+12 -2.6532e+12 -5.53169e+12 -1.1228e+13 -7.36044e+12 -8.64898e+12 -1.18338e+13 -4.32686e+12 -5.66451e+12 -12549700000.0 -4.36768e+12 -3.31729e+12 -2.88721e+12 -6.23949e+12 -5.09138e+12 -3.86618e+12 -4.90822e+12 -3.85799e+12 -8.03165e+12 -4.07073e+12 -8.11012e+12 -6.40221e+12 -6.5577e+12 -4.47851e+12 -5.67207e+12 -7.14995e+12 -3.0131e+12 -6.29137e+12 -2.56271e+12 -7.68384e+12 -6.36949e+12 -7.01246e+12 -6.81506e+12 -4.76419e+12 -7.25455e+12 -9.14205e+12 -1.98421e+12 -3.99296e+12 -4.09862e+12 -3.56315e+12 -3.96358e+12 -5.43724e+12 -5.78414e+12 -6.98687e+12 -5.09772e+12 -9.13435e+12 -7.05177e+12 -8.93081e+12 -5.72255e+12 -8.5057e+12 -8.73344e+12 -2.81509e+12 -3.57156e+12 -3.91375e+12 -4.08629e+12 -5.17432e+12 -3.42835e+12 -6.60897e+12 -5.30687e+12 -7.1968e+12 -4.20192e+12 -5.16161e+12 -4.22467e+12 -6.78694e+12 -4.29183e+12 -4.39268e+12 -7.10405e+12 -6.34158e+12 -6.65553e+12 -5.82676e+12 -7.14799e+12 -8.1124e+12 -4.47346e+12 -5.21681e+12 -9.96432e+12 -3.79742e+12 -9.26564e+12 -5.52923e+12 -3.47774e+12 -4.33391e+12 -7.64262e+12 -5.72481e+12 -3.63213e+12 -3.87279e+12 -3.99783e+12 -5.13307e+12 -6.02233e+12 -6.08431e+12 -6.64847e+12 -5.47065e+12 -1.08738e+13 -9.07104e+12 -9.37729e+12 -5.85835e+12 -3.47077e+12 -4.91327e+12 -5.47033e+12 -6.28673e+12 -9.34382e+12 -1.02445e+13 -6.48067e+12 -1.24274e+13 -9.41679e+12 -6.46648e+12 -6.91282e+12 -8.95254e+12 -6.11097e+12 -4.48897e+12 -3.59236e+12 -3.73884e+12 -1.28609e+13 -4.23012e+12 -5.93377e+12 -4.76133e+12 -8.04445e+12 -8.26327e+12 -8.26208e+12 -2.88973e+12 -5.21851e+12 -9.9588e+12 -8.70913e+12 -9.42304e+12 -4.77219e+12 -8.99802e+12 -7.2983e+12 -6.23836e+12 -6.80729e+12 -6.80907e+12 -5.35543e+12 -6.03417e+12 -5.23607e+12 -6.47286e+12 -6.92517e+12 -8.18265e+12 -4.63724e+12 -3.85152e+12 -4.18333e+12 -4.29954e+12 -12549700000.0 -4.85214e+12 -2.93169e+12 -5.6925e+12 -4.46003e+12 -6.0672e+12 -9.95624e+12 -1.03297e+13 -5.87841e+12 -5.32974e+12 -9.75803e+12 -6.9062e+12 -8.69351e+12 -9.15744e+12 -5.25289e+12 -1.03825e+13 -6.5235e+12 -7.97123e+12 -6.90247e+12 -1.04197e+13 -7.74233e+12 -1.00267e+13 -7.26091e+12 -6.93522e+12 -8.49618e+12 -7.98032e+12 -4.91221e+12 -1.03589e+13 -5.39258e+12 -7.09876e+12 -4.41101e+12 -4.74589e+12 -7.26792e+12 -8.78191e+12 -3.28442e+12 -4.58024e+12 -5.32254e+12 -4.97226e+12 -5.75999e+12 -12549700000.0 -12549700000.0 -6.6771e+12 -3.94833e+12 -5.07043e+12 -4.2531e+12 -2.66792e+12 -5.46748e+12 -7.87684e+12 -7.70575e+12 -7.9164e+12 -4.54449e+12 -9.54724e+12 -6.53985e+12 -6.94016e+12 -6.87504e+12 -5.15e+12 -6.19566e+12 -3.1743e+12 -5.95111e+12 -3.99787e+12 -5.9159e+12 -7.46353e+12 -8.63307e+12 -9.97162e+12 -6.58576e+12 -4.91409e+12 -8.90564e+12 -5.98624e+12 -5.70275e+12 -1.25839e+13 -9.25716e+12 -5.45024e+12 -5.15969e+12 -5.13392e+12 -6.72251e+12 -8.83379e+12 -5.24072e+12 -5.47973e+12 -5.28651e+12 -1.16245e+13 -5.97548e+12 -6.42636e+12 -8.00476e+12 -2.64421e+12 -3.60351e+12 -6.60496e+12 -7.77599e+12 -5.79581e+12 -1.0971e+13 -6.87986e+12 -8.11385e+12 -6.58907e+12 -8.14044e+12 -8.62494e+12 -9.23668e+12 -4.79991e+12 -9.5801e+12 -8.40459e+12 -7.5693e+12 -3.61748e+12 -8.26401e+12 -9.09048e+12 -5.89512e+12 -6.06938e+12 -2.46478e+12 -6.80778e+12 -4.89602e+12 -5.33342e+12 -8.09844e+12 -8.32623e+12 -6.92129e+12 -5.97287e+12 -6.07254e+12 -5.03983e+12 -7.65252e+12 -6.87466e+12 -1.01684e+13 -6.56523e+12 -5.16817e+12 -6.08753e+12 -9.40232e+12 -9.46088e+12 -1.05203e+13 -6.41211e+12 -4.0944e+12 -6.83317e+12 -3.5743e+12 -7.49318e+12 -7.00384e+12 -4.7025e+12 -4.49863e+12 -7.15555e+12 -4.3795e+12 -6.12559e+12 -7.60491e+12 -6.40491e+12 -1.31819e+13 -1.40819e+13 -5.8887e+12 -8.02997e+12 -4.8666e+12 -9.03946e+12 -3.06431e+12 -7.51219e+12 -4.64844e+12 -4.82557e+12 -6.00929e+12 -8.47401e+12 -7.74491e+12 -1.18496e+13 -1.03567e+13 -1.03535e+13 -5.14382e+12 -7.99717e+12 -8.01618e+12 -1.04746e+13 -5.29659e+12 -7.71044e+12 -4.90043e+12 -7.70363e+12 -1.23387e+13 -8.34606e+12 -8.59914e+12 -5.38751e+12 -6.93127e+12 -8.45568e+12 -5.33728e+12 -3.78305e+12 -7.0199e+12 -4.32674e+12 -3.29091e+12 -4.08739e+12 -6.65706e+12 -6.97394e+12 -7.49926e+12 -4.77716e+12 -6.736e+12 -6.88881e+12 -7.56212e+12 -6.33027e+12 -5.3001e+12 -6.35232e+12 -1.12705e+13 -8.14068e+12 -5.70197e+12 -9.934e+12 -7.99443e+12 -1.20457e+13 -6.7758e+12 -7.7487e+12 -5.3272e+12 -8.03669e+12 -3.9977e+12 -9.31472e+12 -1.38813e+13 -1.15585e+13 -7.20725e+12 -6.76963e+12 -8.16158e+12 -6.22197e+12 -3.8279e+12 -8.08152e+12 -8.34702e+12 -3.12528e+12 -6.13078e+12 -7.78937e+12 -9.30138e+12 -4.65258e+12 -6.4124e+12 -3.47384e+12 -9.25764e+12 -6.84761e+12 -5.05681e+12 -6.19461e+12 -9.67096e+12 -5.4659e+12 -2.79012e+12 -3.43764e+12 -12549700000.0 -6.39433e+12 -4.21383e+12 -1.05497e+13 -8.20924e+12 -8.44425e+12 -7.61933e+12 -6.19517e+12 -1.1145e+13 -8.40654e+12 -7.88879e+12 -7.62438e+12 -1.0142e+13 -8.17265e+12 -9.0414e+12 -5.08653e+12 -6.57889e+12 -6.6807e+12 -8.35043e+12 -5.79487e+12 -6.60836e+12 -5.15513e+12 -7.49305e+12 -5.42946e+12 -8.66378e+12 -8.11853e+12 -5.69512e+12 -5.48271e+12 -7.40593e+12 -8.83152e+12 -1.17093e+13 -6.53733e+12 -3.37907e+12 -8.48522e+12 -4.72007e+12 -6.41514e+12 -5.64744e+12 -7.83487e+12 -4.75034e+12 -5.83908e+12 -7.03337e+12 -6.56111e+12 -8.08346e+12 -5.83135e+12 -7.45112e+12 -5.9686e+12 -8.67516e+12 -3.56035e+12 -12549700000.0 -3.07056e+12 -5.37145e+12 -8.71445e+12 -7.4266e+12 -8.88763e+12 -7.80679e+12 -9.9213e+12 -5.43262e+12 -4.82916e+12 -9.22103e+12 -6.34135e+12 -6.25258e+12 -6.97674e+12 -3.43187e+12 -3.88147e+12 -6.70299e+12 -6.67384e+12 -8.10157e+12 -7.81141e+12 -1.22057e+13 -8.40395e+12 -8.25444e+12 -8.97351e+12 -5.92333e+12 -8.87377e+12 -8.29316e+12 -8.524e+12 -6.7541e+12 -4.85501e+12 -9.75362e+12 -9.26607e+12 -5.98468e+12 -8.01741e+12 -1.01108e+13 -1.16134e+13 -6.7053e+12 -1.03963e+13 -9.3058e+12 -8.40037e+12 -1.02037e+13 -6.69537e+12 -4.58279e+12 -4.8141e+12 -6.79888e+12 -4.7732e+12 -4.29789e+12 -4.04173e+12 -5.1895e+12 -5.35913e+12 -6.01983e+12 -8.44359e+12 -8.35094e+12 -5.84148e+12 -8.17508e+12 -7.98977e+12 -6.09666e+12 -8.3296e+12 -1.02329e+13 -8.31021e+12 -7.39166e+12 -8.1927e+12 -4.12883e+12 -7.66503e+12 -3.82926e+12 -5.97283e+12 -8.42162e+12 -6.70375e+12 -5.78865e+12 -7.42291e+12 -9.20053e+12 -7.42387e+12 -1.14194e+13 -7.53693e+12 -1.77305e+13 -5.29712e+12 -9.82043e+12 -7.0072e+12 -1.08259e+13 -9.51483e+12 -1.00503e+13 -9.03938e+12 -8.26671e+12 -4.79797e+12 -5.96753e+12 -5.94591e+12 -7.96131e+12 -1.03773e+13 -7.43219e+12 -1.06986e+13 -6.76484e+12 -6.12377e+12 -3.65505e+12 -3.00086e+12 -5.82795e+12 -6.7805e+12 -4.65583e+12 -9.85827e+12 -1.07149e+13 -5.03318e+12 -9.25487e+12 -5.20182e+12 -4.85441e+12 -9.70517e+12 -4.13965e+12 -3.44981e+12 -6.09837e+12 -9.36192e+12 -8.08441e+12 -3.93919e+12 -1.09269e+13 -7.81534e+12 -5.88005e+12 -5.74804e+12 -8.21358e+12 -1.0826e+13 -8.02662e+12 -6.86544e+12 -7.3217e+12 -5.5589e+12 -1.08387e+13 -7.91207e+12 -5.4966e+12 -8.84987e+12 -7.78726e+12 -1.1233e+13 -1.1088e+13 -7.77472e+12 -7.16899e+12 -8.3211e+12 -7.72874e+12 -5.38156e+12 -4.53819e+12 -5.27961e+12 -6.54785e+12 -8.02227e+12 -5.11629e+12 -1.09853e+13 -9.0291e+12 -6.2511e+12 -9.99688e+12 -6.27954e+12 -7.83242e+12 -8.74855e+12 -4.21316e+12 -7.59518e+12 -7.94342e+12 -6.6575e+12 -5.49169e+12 -6.21731e+12 -7.47764e+12 -6.41199e+12 -9.82815e+12 -1.25231e+13 -6.4975e+12 -7.23894e+12 -5.09771e+12 -5.4039e+12 -7.19476e+12 -8.39253e+12 -1.12255e+13 -1.21185e+13 -6.85326e+12 -8.20051e+12 -8.40638e+12 -1.06353e+13 -7.15269e+12 -1.05531e+13 -3.86456e+12 -6.08757e+12 -6.68271e+12 -8.08203e+12 -6.3564e+12 -7.80889e+12 -1.3359e+13 -1.44292e+13 -1.60264e+13 -1.09891e+13 -8.21722e+12 -1.02139e+13 -1.19084e+13 -7.15316e+12 -1.00551e+13 -6.7651e+12 -8.42776e+12 -7.20454e+12 -7.84733e+12 -5.22924e+12 -6.38728e+12 -5.43946e+12 -5.41395e+12 -5.08114e+12 -7.96301e+12 -6.13621e+12 -4.60056e+12 -8.26455e+12 -1.07522e+13 -9.10257e+12 -3.15557e+12 -4.88639e+12 -5.79519e+12 -5.06008e+12 -4.66997e+12 -8.13732e+12 -1.17213e+13 -5.24287e+12 -7.85225e+12 -9.21961e+12 -9.94343e+12 -4.90227e+12 -4.54694e+12 -8.50795e+12 -6.61472e+12 -1.3081e+13 -8.14143e+12 -5.8245e+12 -8.58183e+12 -1.19784e+13 -8.85743e+12 -6.02713e+12 -8.88853e+12 -4.09397e+12 -5.58294e+12 -1.17663e+13 -6.62865e+12 -7.34947e+12 -6.91779e+12 -9.07873e+12 -6.86065e+12 -1.35088e+13 -8.52229e+12 -1.17307e+13 -7.51688e+12 -5.97312e+12 -1.12747e+13 -1.07781e+13 -7.96613e+12 -8.44415e+12 -8.68961e+12 -1.00468e+13 -7.47327e+12 -9.12994e+12 -1.25486e+13 -3.79029e+12 -5.20093e+12 -7.56423e+12 -1.27121e+13 -8.59657e+12 -1.01326e+13 -4.42311e+12 -1.20553e+13 -1.21399e+13 -9.85717e+12 -8.01113e+12 -3.99141e+12 -7.16245e+12 -1.07548e+13 -6.9675e+12 -1.03019e+13 -7.87056e+12 -8.82239e+12 -9.93532e+12 -8.11785e+12 -1.35086e+13 -6.8804e+12 -8.08151e+12 -8.47789e+12 -1.22373e+13 -8.17991e+12 -6.68578e+12 -1.25593e+13 -5.64404e+12 -4.83175e+12 -5.13458e+12 -7.61884e+12 -9.78238e+12 -1.30058e+13 -6.72611e+12 -9.29716e+12 -4.18759e+12 -5.9222e+12 -4.75843e+12 -6.79395e+12 -8.25164e+12 -1.11611e+13 -8.11127e+12 -9.16449e+12 -5.01253e+12 -8.29764e+12 -4.02197e+12 -1.30827e+13 -8.25243e+12 -6.89279e+12 -5.49232e+12 -9.25352e+12 -9.70594e+12 -4.94752e+12 -7.49314e+12 -6.4063e+12 -5.06674e+12 -6.85689e+12 -8.34731e+12 -1.03866e+13 -6.00535e+12 -5.28858e+12 -5.52289e+12 -8.87238e+12 -5.97792e+12 -9.50964e+12 -1.14803e+13 -8.10871e+12 -1.03137e+13 -1.02112e+13 -1.62701e+13 -9.26357e+12 -1.79957e+13 -6.83395e+12 -1.36617e+13 -9.23652e+12 -1.2154e+13 -9.55861e+12 -9.2784e+12 -8.52755e+12 -1.16974e+13 -8.0667e+12 -1.20519e+13 -4.09713e+12 -4.59941e+12 -8.83565e+12 -7.02607e+12 -6.39391e+12 -1.01297e+13 -1.57634e+13 -1.05486e+13 -1.27511e+13 -9.82417e+12 -6.92223e+12 -1.23442e+13 -6.30328e+12 -9.78602e+12 -1.5353e+13 -9.37179e+12 -1.05037e+13 -7.89209e+12 -9.2079e+12 -5.98565e+12 -8.35324e+12 -8.65073e+12 -1.05109e+13 -3.19642e+12 -6.32303e+12 -8.98744e+12 -1.13101e+13 -7.50758e+12 -7.77153e+12 -6.98568e+12 -6.49711e+12 -8.26317e+12 -8.68986e+12 -6.58324e+12 -5.70622e+12 -4.73918e+12 -9.51635e+12 -1.25836e+13 -7.63902e+12 -1.0281e+13 -5.62622e+12 -6.84443e+12 -1.25182e+13 -9.1344e+12 -6.44622e+12 -7.83954e+12 -1.05921e+13 -1.27007e+13 -8.16083e+12 -1.00424e+13 -1.27934e+13 -3.3122e+12 -2.87082e+12 -1.09639e+13 -7.66601e+12 -6.01018e+12 -4.96335e+12 -3.6818e+12 -7.34859e+12 -1.08356e+13 -8.90257e+12 -1.1177e+13 -1.20422e+13 -8.21075e+12 -6.12462e+12 -9.17848e+12 -5.39572e+12 -6.65197e+12 -7.05155e+12 -7.5612e+12 -1.0167e+13 -1.18292e+13 -8.82746e+12 -9.28865e+12 -9.66715e+12 -9.25813e+12 -1.2447e+13 -9.0555e+12 -1.00794e+13 -9.66163e+12 -1.46506e+13 -1.25922e+13 -9.26266e+12 -1.14957e+13 -7.76466e+12 -7.1801e+12 -3.58289e+12 -5.50271e+12 -3.38793e+12 -8.13449e+12 -6.57498e+12 -1.00567e+13 -1.16755e+13 -1.41341e+13 -6.72487e+12 -6.59209e+12 -1.28707e+13 -9.67614e+12 -8.10894e+12 -6.98737e+12 -1.31883e+13 -1.09955e+13 -1.02544e+13 -1.39553e+13 -6.57006e+12 -1.00893e+13 -1.1981e+13 -9.9449e+12 -9.80717e+12 -9.81527e+12 -1.00473e+13 -5.60309e+12 -2.9377e+12 -3.75829e+12 -9.22168e+12 -9.77617e+12 -6.56693e+12 -8.26147e+12 -9.93344e+12 -9.10581e+12 -5.26664e+12 -1.11328e+13 -1.29146e+13 -1.12021e+13 -8.27904e+12 -8.45727e+12 -4.02995e+12 -9.21032e+12 -9.51067e+12 -7.54763e+12 -7.24023e+12 -6.78376e+12 -6.2871e+12 -6.75954e+12 -5.15828e+12 -5.80762e+12 -9.868e+12 -9.8459e+12 -7.29984e+12 -1.1585e+13 -1.458e+13 -6.94844e+12 -6.9865e+12 -6.84198e+12 -3.88524e+12 -8.2603e+12 -6.33464e+12 -9.07978e+12 -5.01581e+12 -9.18029e+12 -9.82383e+12 -1.04723e+13 -1.08938e+13 -2.7936e+12 -4.53861e+12 -6.61971e+12 -9.85455e+12 -6.74368e+12 -1.08684e+13 -8.60532e+12 -9.28124e+12 -1.12864e+13 -1.15183e+13 -9.57978e+12 -9.43176e+12 -1.40512e+13 -9.97791e+12 -1.29415e+13 -5.86247e+12 -8.06986e+12 -2.6546e+12 -4.22117e+12 -8.57572e+12 -8.49271e+12 -3.73079e+12 -5.49552e+12 -1.17434e+13 -6.69794e+12 -6.47675e+12 -7.2174e+12 -7.99241e+12 -9.0495e+12 -8.62303e+12 -1.07833e+13 -6.51676e+12 -7.4944e+12 -6.29379e+12 -8.88617e+12 -1.09571e+13 -8.1793e+12 -6.44963e+12 -8.57412e+12 -1.08825e+13 -8.25742e+12 -7.05615e+12 -6.72726e+12 -1.19931e+13 -9.93807e+12 -9.13239e+12 -1.28222e+13 -3.3806e+12 -5.95888e+12 -6.8308e+12 -7.24347e+12 -9.74997e+12 -1.03802e+13 -7.37406e+12 -8.64882e+12 -6.28806e+12 -6.41438e+12 -1.43463e+13 -6.35284e+12 -1.00091e+13 -9.30186e+12 -5.53251e+12 -1.29713e+13 -1.09832e+13 -6.15504e+12 -8.52772e+12 -8.61686e+12 -1.0031e+13 -6.51798e+12 -6.44258e+12 -6.31541e+12 -5.83601e+12 -6.5537e+12 -3.35342e+12 -9.42348e+12 -9.21516e+12 -1.25518e+13 -9.01881e+12 -4.87536e+12 -9.45895e+12 -1.22216e+13 -7.94389e+12 -5.67714e+12 -4.92388e+12 -5.76287e+12 -4.82305e+12 -7.56812e+12 -3.26028e+12 -5.27488e+12 -6.21901e+12 -6.09863e+12 -1.15012e+13 -6.15634e+12 -4.68707e+12 -1.00524e+13 -6.75509e+12 -7.46729e+12 -5.70342e+12 -7.55288e+12 -8.86296e+12 -5.85442e+12 -8.3886e+12 -7.42944e+12 -5.93196e+12 -7.44176e+12 -1.06823e+13 -1.00063e+13 -1.09116e+13 -8.4806e+12 -6.19116e+12 -4.50627e+12 -7.83627e+12 -1.74883e+13 -1.01286e+13 -4.94698e+12 -9.28415e+12 -7.84287e+12 -1.11024e+13 -1.05277e+13 -5.51931e+12 -1.25381e+13 -1.13232e+13 -1.28447e+13 -6.2665e+12 -4.92973e+12 -6.8662e+12 -5.41518e+12 -1.02339e+13 -9.59182e+12 -6.21159e+12 -5.14399e+12 -5.38152e+12 -4.8066e+12 -8.20329e+12 -7.80097e+12 -8.97227e+12 -9.48527e+12 -1.38332e+13 -9.5097e+12 -1.04335e+13 -7.98566e+12 -1.23675e+13 -1.42781e+13 -7.16745e+12 -1.43086e+13 -4.52715e+12 -6.18534e+12 -6.52997e+12 -2.74363e+12 -4.34786e+12 -4.69077e+12 -6.6138e+12 -1.02186e+13 -9.11904e+12 -5.51273e+12 -1.21228e+13 -7.6599e+12 -1.28486e+13 -1.31564e+13 -5.11388e+12 -5.54108e+12 -6.7876e+12 -7.06474e+12 -6.9294e+12 -6.14953e+12 -6.71923e+12 -8.05084e+12 -5.9375e+12 -8.63855e+12 -4.82814e+12 -9.61076e+12 -7.19097e+12 -7.889e+12 -7.81787e+12 -1.21482e+13 -4.80066e+12 -8.26118e+12 -7.21676e+12 -1.05097e+13 -4.88424e+12 -5.20203e+12 -5.51883e+12 -7.43953e+12 -9.42539e+12 -9.14026e+12 -3.60477e+12 -5.06401e+12 -7.82917e+12 -9.21996e+12 -5.30176e+12 -6.81052e+12 -4.02307e+12 -8.72917e+12 -6.38381e+12 -5.77557e+12 -3.43789e+12 -3.04271e+12 -8.33026e+12 -7.80015e+12 -8.00357e+12 -4.00107e+12 -4.4499e+12 -5.03452e+12 -6.07562e+12 -3.39339e+12 -4.00289e+12 -7.36725e+12 -7.003e+12 -8.24215e+12 -5.17744e+12 -8.85408e+12 -5.84206e+12 -1.08309e+13 -8.75342e+12 -6.15853e+12 -6.52405e+12 -5.66063e+12 -8.22921e+12 -8.93212e+12 -6.40263e+12 -6.88234e+12 -3.98684e+12 -4.88494e+12 -1.17704e+13 -6.75445e+12 -3.27122e+12 -9.15409e+12 -2.21541e+12 -5.25836e+12 -7.39994e+12 -6.18891e+12 -7.46416e+12 -9.23396e+12 -5.05198e+12 -9.20685e+12 -7.84414e+12 -9.73191e+12 -8.72143e+12 -9.47875e+12 -8.44713e+12 -1.2976e+13 -8.91489e+12 -4.83814e+12 -7.21119e+12 -8.1208e+12 -1.11988e+13 -1.29568e+13 -7.41321e+12 -8.95514e+12 -6.35329e+12 -6.15303e+12 -3.84973e+12 -7.52294e+12 -9.44286e+12 -5.85768e+12 -1.11537e+13 -1.14382e+13 -8.73242e+12 -6.39142e+12 -4.47302e+12 -9.80471e+12 -9.3795e+12 -8.59135e+12 -1.03268e+13 -6.14935e+12 -5.66824e+12 -6.57269e+12 -7.60296e+12 -5.07788e+12 -1.28321e+13 -7.11994e+12 -6.51571e+12 -9.68586e+12 -6.65312e+12 -7.70983e+12 -7.4819e+12 -9.10929e+12 -4.95579e+12 -5.18998e+12 -6.969e+12 -6.48221e+12 -4.75565e+12 -8.18517e+12 -4.71338e+12 -5.99225e+12 -1.39438e+13 -8.38805e+12 -7.12552e+12 -1.2975e+13 -6.34269e+12 -7.32965e+12 -9.93047e+12 -6.94736e+12 -8.10335e+12 -8.06319e+12 -7.51334e+12 -7.56809e+12 -7.83838e+12 -1.14401e+13 -5.738e+12 -9.8995e+12 -7.60111e+12 -7.03691e+12 -8.67109e+12 -6.77257e+12 -4.62704e+12 -8.34564e+12 -5.01931e+12 -5.26709e+12 -8.66834e+12 -1.26927e+13 -6.05927e+12 -7.93646e+12 -6.25515e+12 -6.40158e+12 -5.43763e+12 -6.00549e+12 -1.00412e+13 -1.00351e+13 -4.11006e+12 -9.55756e+12 -5.52024e+12 -8.92684e+12 -6.64233e+12 -1.2712e+13 -8.25909e+12 -5.71719e+12 -9.79611e+12 -1.19708e+13 -6.24426e+12 -7.33666e+12 -9.11747e+12 -1.18616e+13 -1.13638e+13 -9.92391e+12 -8.48592e+12 -6.57897e+12 -6.96238e+12 -3.07713e+12 -1.23193e+13 -9.71379e+12 -1.10987e+13 -9.55648e+12 -1.25649e+13 -5.16633e+12 -8.27277e+12 -1.09277e+13 -8.24226e+12 -1.51937e+13 -3.16144e+12 -6.56342e+12 -1.08751e+13 -1.35795e+13 -7.6937e+12 -4.55682e+12 -4.17029e+12 -8.12993e+12 -1.09156e+13 -6.95096e+12 -9.63018e+12 -8.2347e+12 -8.49127e+12 -1.13145e+13 -1.02757e+13 -1.13958e+13 -1.0112e+13 -5.65254e+12 -9.83462e+12 -6.89495e+12 -5.03413e+12 -7.29907e+12 -1.25033e+13 -1.06025e+13 -9.30531e+12 -1.26949e+13 -9.63443e+12 -1.25648e+13 -1.04008e+13 -7.07141e+12 -4.67896e+12 -6.24288e+12 -7.97495e+12 -9.81445e+12 -8.57933e+12 -7.29187e+12 -7.89424e+12 -8.56142e+12 -6.659e+12 -1.09627e+13 -9.99157e+12 -5.85644e+12 -8.24584e+12 -5.7571e+12 -7.821e+12 -8.21683e+12 -5.41452e+12 -5.33963e+12 -5.97743e+12 -7.81565e+12 -4.22037e+12 -7.20049e+12 -6.97766e+12 -1.1812e+13 -5.57219e+12 -8.55286e+12 -8.66334e+12 -1.25561e+13 -6.05213e+12 -7.05556e+12 -5.06102e+12 -5.2997e+12 -7.17803e+12 -9.86664e+12 -5.2555e+12 -5.23312e+12 -1.06714e+13 -8.49808e+12 -1.0042e+13 -7.43781e+12 -9.87325e+12 -6.42753e+12 -3.79248e+12 -5.89607e+12 -2.23378e+12 -8.50186e+12 -8.75925e+12 -5.61758e+12 -9.18191e+12 -1.09104e+13 -1.3482e+13 -3.96065e+12 -5.16022e+12 -6.48401e+12 -6.87288e+12 -9.05319e+12 -6.03324e+12 -5.44817e+12 -4.6649e+12 -1.0504e+13 -9.67619e+12 -4.47163e+12 -7.18264e+12 -9.36478e+12 -7.17368e+12 -7.24675e+12 -6.7136e+12 -6.55344e+12 -7.96694e+12 -7.14668e+12 -7.01897e+12 -2.98586e+12 -1.02758e+13 -1.1943e+13 -7.16631e+12 -7.81297e+12 -9.77288e+12 -9.0263e+12 -8.68309e+12 -6.26576e+12 -4.51534e+12 -1.44454e+13 -1.07085e+13 -1.2679e+13 -9.78662e+12 -8.21298e+12 -7.40971e+12 -5.36917e+12 -8.78776e+12 -7.54222e+12 -4.92801e+12 -1.00947e+13 -1.31638e+13 -8.99119e+12 -8.47331e+12 -7.85957e+12 -8.16342e+12 -7.60751e+12 -9.5651e+12 -7.89683e+12 -5.46178e+12 -9.46812e+12 -9.75636e+12 -5.87886e+12 -4.52482e+12 -8.12166e+12 -1.02682e+13 -9.41265e+12 -5.88417e+12 -1.18686e+13 -1.08049e+13 -1.03177e+13 -8.41465e+12 -6.98184e+12 -1.18e+13 -6.12787e+12 -7.78017e+12 -7.65096e+12 -8.76654e+12 -8.2431e+12 -8.022e+12 -5.99278e+12 -1.06082e+13 -8.27932e+12 -6.0865e+12 -7.34472e+12 -9.54372e+12 -4.93022e+12 -1.08117e+13 -9.07814e+12 -7.13892e+12 -3.64412e+12 -8.60868e+12 -7.12525e+12 -6.28267e+12 -8.58025e+12 -8.51624e+12 -5.61491e+12 -1.06125e+13 -8.43619e+12 -4.70387e+12 -6.52286e+12 -1.41072e+13 -1.06404e+13 -1.08496e+13 -6.14734e+12 -6.17285e+12 -1.04843e+13 -4.51494e+12 -6.74653e+12 -7.90489e+12 -7.38982e+12 -1.18584e+13 -4.30821e+12 -5.94427e+12 -4.15117e+12 -7.59686e+12 -6.21955e+12 -7.79616e+12 -1.04396e+13 -7.52513e+12 -4.69541e+12 -9.05321e+12 -5.79762e+12 -7.86555e+12 -5.32384e+12 -1.07917e+13 -7.2068e+12 -9.11254e+12 -8.30132e+12 -7.4062e+12 -9.7663e+12 -5.51413e+12 -7.47113e+12 -4.63609e+12 -7.47786e+12 -7.92053e+12 -8.2971e+12 -4.93351e+12 -7.44748e+12 -6.49085e+12 -5.15838e+12 -4.53382e+12 -6.4583e+12 -1.0523e+13 -7.32139e+12 -8.21816e+12 -1.28205e+13 -1.05641e+13 -6.86255e+12 -5.34963e+12 -7.26029e+12 -4.53347e+12 -7.46234e+12 -8.54164e+12 -4.99811e+12 -8.62671e+12 -8.4206e+12 -7.74778e+12 -1.27043e+13 -5.16038e+12 -6.64641e+12 -6.69843e+12 -8.42559e+12 -1.27062e+13 -8.95139e+12 -7.57589e+12 -3.64042e+12 -9.06501e+12 -1.1236e+13 -1.2398e+13 -9.78719e+12 -2.46309e+12 -1.05502e+13 -1.4238e+13 -1.05867e+13 -9.50263e+12 -9.1196e+12 -1.12044e+13 -7.79695e+12 -8.64236e+12 -6.83952e+12 -7.59521e+12 -5.79719e+12 -5.85328e+12 -8.06931e+12 -6.82238e+12 -8.28198e+12 -5.27182e+12 -6.46752e+12 -4.51899e+12 -2.79824e+12 -8.55025e+12 -8.09827e+12 -7.2234e+12 -9.43882e+12 -1.38886e+13 -2.73606e+12 -1.00718e+13 -6.63675e+12 -1.40023e+13 -4.75092e+12 -5.95886e+12 -4.88146e+12 -8.00398e+12 -4.89091e+12 -6.47195e+12 -7.12827e+12 -1.15697e+13 -5.09585e+12 -8.59046e+12 -5.8403e+12 -1.16657e+13 -7.60064e+12 -2.47039e+12 -1.01886e+13 -6.70173e+12 -1.30431e+13 -3.90956e+12 -3.59369e+12 -4.62685e+12 -8.48548e+12 -5.9316e+12 -1.03658e+13 -8.45293e+12 -9.41662e+12 -7.03063e+12 -7.75728e+12 -6.97183e+12 -4.8081e+12 -1.10532e+13 -5.14337e+12 -8.64891e+12 -7.56423e+12 -5.42706e+12 -5.94303e+12 -6.2225e+12 -4.97078e+12 -6.11973e+12 -1.07572e+13 -7.1772e+12 -4.90031e+12 -5.58324e+12 -6.9526e+12 -8.1466e+12 -6.68143e+12 -7.70723e+12 -6.52105e+12 -9.51056e+12 -3.37053e+12 -4.80765e+12 -8.59274e+12 -8.27622e+12 -8.76038e+12 -6.87004e+12 -6.23028e+12 -7.27631e+12 -8.45462e+12 -6.20787e+12 -3.47161e+12 -8.75705e+12 -8.67481e+12 -7.0364e+12 -4.06967e+12 -3.72966e+12 -1.07146e+13 -7.70468e+12 -4.52128e+12 -5.9868e+12 -8.23912e+12 -2.65531e+12 -6.28023e+12 -4.6871e+12 -8.55182e+12 -5.59029e+12 -4.91233e+12 -2.98294e+12 -7.40708e+12 -4.18084e+12 -6.45553e+12 -8.73896e+12 -6.7239e+12 -1.15296e+13 -1.1866e+13 -1.10308e+13 -1.06084e+13 -1.00802e+13 -4.70155e+12 -8.35599e+12 -8.05636e+12 -8.82607e+12 -6.47409e+12 -1.00019e+13 -5.61967e+12 -9.08796e+12 -5.53302e+12 -6.74485e+12 -7.5356e+12 -1.07966e+13 -3.81945e+12 -7.47848e+12 -1.208e+13 -8.06908e+12 -7.3448e+12 -7.96027e+12 -7.14771e+12 -9.06322e+12 -4.92828e+12 -1.24426e+13 -1.13536e+13 -6.59783e+12 -8.50431e+12 -9.17978e+12 -1.03083e+13 -7.74211e+12 -1.12352e+13 -1.11162e+13 -5.33609e+12 -6.30499e+12 -2.86343e+12 -2.86542e+12 -6.77463e+12 -5.58575e+12 -7.14334e+12 -4.16001e+12 -8.81805e+12 -6.56581e+12 -6.70969e+12 -8.64456e+12 -7.41207e+12 -1.29178e+13 -5.09718e+12 -9.02912e+12 -6.82094e+12 -8.66059e+12 -6.01844e+12 -4.92305e+12 -8.94349e+12 -5.62654e+12 -9.98341e+12 -9.10197e+12 -1.0107e+13 -1.03709e+13 -7.81562e+12 -1.06525e+13 -8.95267e+12 -7.92545e+12 -9.36229e+12 -4.92755e+12 -7.6253e+12 -1.5497e+13 -5.85947e+12 -1.14694e+13 -1.01249e+13 -6.77017e+12 -8.4281e+12 -7.93572e+12 -1.11213e+13 -8.05292e+12 -1.03792e+13 -1.05286e+13 -8.3084e+12 -5.58688e+12 -7.37946e+12 -5.50063e+12 -9.04785e+12 -3.03024e+12 -6.66404e+12 -6.13592e+12 -4.80955e+12 -4.62754e+12 -6.07908e+12 -6.04817e+12 -5.99327e+12 -3.95105e+12 -5.73017e+12 -4.17933e+12 -5.42408e+12 -1.16759e+13 -7.09235e+12 -9.61793e+12 -6.96331e+12 -8.00424e+12 -5.30563e+12 -5.1472e+12 -6.10732e+12 -6.72371e+12 -8.85941e+12 -8.48488e+12 -9.00486e+12 -7.14936e+12 -7.06467e+12 -4.49419e+12 -7.91945e+12 -4.0232e+12 -5.96916e+12 -7.40846e+12 -9.70822e+12 -3.98032e+12 -6.47631e+12 -5.54296e+12 -9.0336e+12 -4.77061e+12 -9.55893e+12 -7.35583e+12 -5.98787e+12 -5.26676e+12 -8.78083e+12 -7.58762e+12 -7.14171e+12 -5.97618e+12 -4.81939e+12 -9.22491e+12 -4.34e+12 -5.1314e+12 -7.83012e+12 -6.03534e+12 -5.01895e+12 -8.8179e+12 -6.41642e+12 -2.98075e+12 -5.11921e+12 -9.83201e+12 -6.90066e+12 -1.10709e+13 -7.82457e+12 -6.07938e+12 -5.57539e+12 -6.83915e+12 -4.35569e+12 -6.80435e+12 -6.89481e+12 -5.59132e+12 -8.52317e+12 -6.56738e+12 -5.54368e+12 -1.03727e+13 -7.3583e+12 -6.21886e+12 -4.07821e+12 -5.61418e+12 -8.80712e+12 -8.74007e+12 -7.53644e+12 -9.14788e+12 -5.06704e+12 -7.51937e+12 -9.53932e+12 -7.51113e+12 -8.99298e+12 -1.08231e+13 -8.06194e+12 -5.32147e+12 -6.33248e+12 -6.37574e+12 -5.78278e+12 -5.46151e+12 -5.328e+12 -8.43267e+12 -4.47098e+12 -4.84238e+12 -7.32604e+12 -6.07343e+12 -6.47121e+12 -1.09104e+13 -6.84924e+12 -8.04476e+12 -7.91672e+12 -1.94648e+13 -4.72369e+12 -6.71245e+12 -6.83545e+12 -1.57338e+13 -8.94836e+12 -1.08672e+13 -5.95365e+12 -8.07678e+12 -8.22311e+12 -6.0295e+12 -8.62444e+12 -1.11527e+13 -5.87158e+12 -7.82858e+12 -7.35234e+12 -9.83255e+12 -6.06759e+12 -5.4593e+12 -8.22475e+12 -7.19345e+12 -6.6798e+12 -7.15237e+12 -6.26493e+12 -5.71249e+12 -3.37248e+12 -6.40366e+12 -5.42639e+12 -6.57884e+12 -9.49368e+12 -957303000000.0 -1.03795e+13 -9.02241e+12 -3.71995e+12 -5.83415e+12 -4.46527e+12 -2.27323e+12 -6.84842e+12 -1.17897e+13 -7.22469e+12 -5.12734e+12 -6.16978e+12 -7.81048e+12 -6.14445e+12 -7.11073e+12 -5.93242e+12 -7.15461e+12 -5.49917e+12 -5.56224e+12 -3.71975e+12 -5.88179e+12 -5.67724e+12 -5.39317e+12 -7.57332e+12 -5.63464e+12 -6.86641e+12 -6.75242e+12 -3.04789e+12 -1.10448e+13 -6.50337e+12 -3.66205e+12 -5.50813e+12 -6.04698e+12 -4.62828e+12 -6.15078e+12 -6.38605e+12 -3.2001e+12 -2.90932e+12 -6.06989e+12 -7.36786e+12 -5.15476e+12 -6.2617e+12 -6.58566e+12 -5.31563e+12 -4.1628e+12 -2.61737e+12 -6.71833e+12 -8.08009e+12 -8.08161e+12 -8.92433e+12 -1.18418e+13 -4.31182e+12 -4.45511e+12 -4.55898e+12 -5.44607e+12 -5.26187e+12 -1.39765e+13 -7.80955e+12 -7.49796e+12 -8.63277e+12 -7.29256e+12 -5.03316e+12 -4.56631e+12 -7.52904e+12 -9.59397e+12 -7.38174e+12 -1.38502e+13 -4.88691e+12 -4.19406e+12 -3.32598e+12 -3.95032e+12 -5.74115e+12 -5.06859e+12 -8.3279e+12 -8.49139e+12 -9.17055e+12 -4.78769e+12 -7.77776e+12 -3.36088e+12 -6.63794e+12 -5.31885e+12 -1.02211e+13 -8.31692e+12 -9.10485e+12 -5.17119e+12 -7.7475e+12 -7.19498e+12 -1.34095e+13 -7.88558e+12 -5.92522e+12 -7.15583e+12 -8.84063e+12 -6.08075e+12 -1.09703e+13 -6.52876e+12 -5.80991e+12 -5.5536e+12 -5.17641e+12 -8.72341e+12 -4.54822e+12 -4.23066e+12 -7.84279e+12 -5.68365e+12 -5.99326e+12 -8.73007e+12 -4.7818e+12 -8.52212e+12 -4.75259e+12 -3.17977e+12 -5.40186e+12 -9.51305e+12 -8.75284e+12 -1.45953e+13 -6.46892e+12 -1.23612e+13 -7.35145e+12 -8.26824e+12 -1.11124e+13 -7.68607e+12 -5.97877e+12 -6.55141e+12 -7.62195e+12 -3.72528e+12 -7.69468e+12 -6.11368e+12 -7.56683e+12 -5.68062e+12 -7.38003e+12 -4.62462e+12 -7.60154e+12 -6.94265e+12 -5.12333e+12 -5.95803e+12 -2.50968e+12 -5.25899e+12 -4.40409e+12 -8.19418e+12 -1.04939e+13 -1.17046e+13 -7.16666e+12 -6.54179e+12 -9.78013e+12 -1.14154e+13 -7.0287e+12 -4.60241e+12 -8.20558e+12 -5.69888e+12 -6.5636e+12 -5.34331e+12 -4.0152e+12 -6.4479e+12 -5.57781e+12 -9.25169e+12 -6.56107e+12 -8.24903e+12 -6.99637e+12 -9.77735e+12 -6.55325e+12 -2.49903e+12 -6.09569e+12 -5.06904e+12 -6.12931e+12 -3.82064e+12 -5.182e+12 -6.86159e+12 -7.66983e+12 -6.12434e+12 -4.11409e+12 -4.3672e+12 -6.49741e+12 -6.67579e+12 -8.90543e+12 -5.70055e+12 -4.96334e+12 -6.91848e+12 -6.14047e+12 -4.74e+12 -4.51208e+12 -5.95442e+12 -6.74221e+12 -7.64887e+12 -4.82853e+12 -6.96591e+12 -6.20908e+12 -4.81248e+12 -6.36466e+12 -6.62411e+12 -8.3992e+12 -5.16603e+12 -4.06294e+12 -6.1558e+12 -5.31829e+12 -7.4959e+12 -7.46469e+12 -7.56522e+12 -7.99848e+12 -6.95299e+12 -3.659e+12 -7.70574e+12 -6.90412e+12 -8.84961e+12 -1.29909e+13 -7.53422e+12 -6.54242e+12 -5.70702e+12 -8.71733e+12 -1.00619e+13 -8.14928e+12 -1.20468e+13 -5.24899e+12 -3.56136e+12 -5.35143e+12 -1.08099e+13 -6.15852e+12 -6.85242e+12 -1.0661e+13 -8.19617e+12 -1.21279e+13 -1.31533e+13 -8.60746e+12 -5.06725e+12 -8.39585e+12 -1.45109e+13 -6.13507e+12 -4.19427e+12 -1.08537e+13 -7.86919e+12 -6.75617e+12 -6.92261e+12 -5.04943e+12 -6.03028e+12 -6.29778e+12 -9.64438e+12 -7.92326e+12 -6.24118e+12 -9.83506e+12 -5.50079e+12 -3.7249e+12 -5.3169e+12 -8.91084e+12 -1.12748e+13 -6.99174e+12 -5.54292e+12 -1.22909e+13 -6.10735e+12 -4.58193e+12 -6.79753e+12 -4.95547e+12 -4.58884e+12 -1.00734e+13 -1.01741e+13 -7.50559e+12 -3.92221e+12 -6.96985e+12 -4.05249e+12 -4.07263e+12 -8.50293e+12 -6.68536e+12 -7.92668e+12 -7.43277e+12 -5.9053e+12 -3.87226e+12 -5.91883e+12 -7.12411e+12 -6.15463e+12 -4.9724e+12 -7.7849e+12 -6.88387e+12 -7.38383e+12 -4.84744e+12 -5.64689e+12 -9.40452e+12 -2.62006e+12 -2.92556e+12 -7.1747e+12 -4.59365e+12 -5.14793e+12 -9.97484e+12 -6.91362e+12 -5.07515e+12 -4.26849e+12 -3.96047e+12 -4.56463e+12 -3.47041e+12 -5.34741e+12 -9.07661e+12 -6.79433e+12 -6.26793e+12 -5.14335e+12 -1.75411e+12 -5.57873e+12 -4.26936e+12 -5.81612e+12 -8.23721e+12 -6.69909e+12 -6.68383e+12 -9.4895e+12 -5.19564e+12 -6.0542e+12 -4.59619e+12 -6.62447e+12 -7.00673e+12 -7.11613e+12 -3.93274e+12 -4.61846e+12 -3.34529e+12 -6.13089e+12 -5.14813e+12 -6.51165e+12 -6.46592e+12 -5.5458e+12 -6.02775e+12 -2.89014e+12 -4.99716e+12 -6.60576e+12 -6.21384e+12 -6.0052e+12 -8.98683e+12 -6.27357e+12 -5.80535e+12 -3.28059e+12 -6.08803e+12 -4.61856e+12 -3.56123e+12 -8.33511e+12 -7.40374e+12 -8.78353e+12 -6.30193e+12 -4.97744e+12 -9.94889e+12 -7.54103e+12 -7.79392e+12 -5.90368e+12 -4.74384e+12 -5.46842e+12 -6.05669e+12 -5.36708e+12 -5.90637e+12 -4.3625e+12 -1.10405e+13 -4.25727e+12 -6.99477e+12 -4.37484e+12 -4.26561e+12 -9.11782e+12 -5.32068e+12 -6.94391e+12 -9.4343e+12 -6.92279e+12 -7.67665e+12 -6.14054e+12 -3.58715e+12 -8.73492e+12 -6.12118e+12 -4.65828e+12 -4.49692e+12 -5.57864e+12 -5.39232e+12 -8.38174e+12 -7.44471e+12 -8.28303e+12 -5.40946e+12 -9.43026e+12 -4.38227e+12 -4.11945e+12 -9.07378e+12 -4.37252e+12 -1.00494e+13 -7.40564e+12 -5.53737e+12 -4.05289e+12 -9.21637e+12 -6.24453e+12 -7.81554e+12 -8.67098e+12 -1.03725e+13 -5.01571e+12 -5.08817e+12 -4.84713e+12 -5.92287e+12 -6.25754e+12 -5.93791e+12 -5.89831e+12 -5.12536e+12 -9.62077e+12 -9.20035e+12 -1.00876e+13 -7.19865e+12 -8.46236e+12 -7.57533e+12 -4.87345e+12 -3.97258e+12 -6.48096e+12 -5.92259e+12 -5.86765e+12 -5.83142e+12 -4.89931e+12 -7.17327e+12 -7.61671e+12 -6.17859e+12 -4.08113e+12 -5.45149e+12 -7.47286e+12 -8.00285e+12 -8.567e+12 -8.73756e+12 -4.70523e+12 -7.16168e+12 -6.74982e+12 -4.97634e+12 -6.86371e+12 -5.30071e+12 -4.92263e+12 -4.90516e+12 -3.78715e+12 -6.02663e+12 -7.41495e+12 -4.27254e+12 -7.03615e+12 -3.84566e+12 -6.49805e+12 -3.91521e+12 -3.54081e+12 -7.94634e+12 -5.06882e+12 -1.01971e+13 -8.53019e+12 -8.46429e+12 -9.70534e+12 -6.74496e+12 -5.63999e+12 -8.67096e+12 -1.04166e+13 -3.10302e+12 -6.51781e+12 -3.38431e+12 -6.14825e+12 -4.61073e+12 -6.67271e+12 -5.72714e+12 -8.98292e+12 -6.91464e+12 -7.79232e+12 -8.22193e+12 -4.92652e+12 -5.44941e+12 -6.73276e+12 -6.3532e+12 -8.37227e+12 -4.46275e+12 -6.02479e+12 -5.45289e+12 -7.13374e+12 -9.25299e+12 -5.99536e+12 -6.13361e+12 -1.04015e+13 -7.00134e+12 -5.83277e+12 -3.6724e+12 -3.89143e+12 -4.64082e+12 -5.15355e+12 -3.16214e+12 -6.28442e+12 -4.58237e+12 -4.05576e+12 -5.99674e+12 -6.41541e+12 -6.6437e+12 -6.40346e+12 -4.58915e+12 -7.78751e+12 -4.84063e+12 -3.99051e+12 -6.50263e+12 -4.2251e+12 -4.13713e+12 -1.06247e+13 -7.3666e+12 -6.33691e+12 -6.73097e+12 -4.65726e+12 -6.79571e+12 -3.46065e+12 -7.02629e+12 -7.33924e+12 -9.45828e+12 -6.60896e+12 -7.04158e+12 -6.23424e+12 -9.28761e+12 -1.07798e+13 -7.82447e+12 -4.78198e+12 -4.22641e+12 -4.19872e+12 -8.25528e+12 -9.63223e+12 -3.41656e+12 -6.65629e+12 -1.02622e+13 -5.50666e+12 -7.45837e+12 -6.74228e+12 -6.16146e+12 -5.46906e+12 -3.97438e+12 -4.27848e+12 -6.04097e+12 -5.32505e+12 -6.92151e+12 -7.15637e+12 -6.50208e+12 -6.69044e+12 -7.06348e+12 -6.65253e+12 -5.74955e+12 -9.26716e+12 -6.47875e+12 -8.1257e+12 -9.74575e+12 -1.23017e+13 -7.05396e+12 -7.81729e+12 -6.38131e+12 -6.63859e+12 -4.91566e+12 -1.06738e+13 -4.92e+12 -5.03544e+12 -5.62452e+12 -8.61042e+12 -6.3229e+12 -1.21737e+13 -6.16411e+12 -1.11639e+13 -1.31066e+13 -7.51852e+12 -4.94865e+12 -7.19148e+12 -4.91075e+12 -4.51088e+12 -8.67951e+12 -5.42346e+12 -4.6814e+12 -2.6005e+12 -5.28394e+12 -3.60894e+12 -5.9316e+12 -6.10402e+12 -6.10729e+12 -5.04775e+12 -3.6687e+12 -4.51597e+12 -4.45596e+12 -3.74648e+12 -4.05859e+12 -7.78929e+12 -8.28146e+12 -5.98603e+12 -9.12235e+12 -7.13522e+12 -6.6373e+12 -8.27478e+12 -5.22822e+12 -7.30367e+12 -5.53583e+12 -5.22977e+12 -4.03216e+12 -6.50519e+12 -1.0142e+13 -7.84651e+12 -7.94468e+12 -6.87709e+12 -5.56044e+12 -4.98194e+12 -1.17337e+13 -6.14711e+12 -8.33738e+12 -5.54298e+12 -8.43895e+12 -7.64814e+12 -9.54537e+12 -5.98556e+12 -3.2399e+12 -6.05463e+12 -6.15704e+12 -8.19352e+12 -5.40758e+12 -3.67396e+12 -3.4355e+12 -5.28575e+12 -3.28357e+12 -6.85802e+12 -6.50587e+12 -4.66345e+12 -2.85123e+12 -4.76116e+12 -4.42355e+12 -6.77054e+12 -3.65282e+12 -5.33753e+12 -3.47769e+12 -4.54658e+12 -6.19e+12 -3.38956e+12 -6.37503e+12 -6.19845e+12 -6.88212e+12 -5.46808e+12 -5.1828e+12 -6.00008e+12 -3.67223e+12 -4.92942e+12 -5.62063e+12 -7.52962e+12 -3.96407e+12 -4.88638e+12 -6.39557e+12 -2.81366e+12 -5.36049e+12 -5.12617e+12 -5.44467e+12 -4.25898e+12 -4.50753e+12 -5.47127e+12 -6.9421e+12 -6.51993e+12 -5.2414e+12 -7.15493e+12 -5.39499e+12 -3.50508e+12 -6.17089e+12 -4.08136e+12 -8.53015e+12 -9.25503e+12 -5.24833e+12 -4.89705e+12 -3.30966e+12 -2.08597e+12 -4.15524e+12 -7.84176e+12 -6.7188e+12 -5.01562e+12 -6.65378e+12 -6.24544e+12 -8.94779e+12 -5.45575e+12 -4.47927e+12 -3.65349e+12 -6.20219e+12 -1.04103e+13 -5.28953e+12 -6.01179e+12 -8.99507e+12 -8.52063e+12 -5.24315e+12 -6.06896e+12 -6.94133e+12 -6.31076e+12 -6.96288e+12 -5.87946e+12 -8.48297e+12 -7.79252e+12 -8.04617e+12 -7.25187e+12 -6.0359e+12 -2.26533e+12 -8.20773e+12 -4.1864e+12 -1.10314e+13 -6.73152e+12 -4.61153e+12 -6.61033e+12 -9.53673e+12 -1.54425e+13 -8.57103e+12 -1.1469e+13 -8.75515e+12 -5.79054e+12 -5.47103e+12 -6.8903e+12 -8.82689e+12 -5.74839e+12 -4.9564e+12 -3.35807e+12 -3.65792e+12 -5.06954e+12 -5.76243e+12 -7.86976e+12 -4.89357e+12 -7.34941e+12 -6.84377e+12 -9.26921e+12 -1.067e+13 -7.38477e+12 -7.15446e+12 -5.80832e+12 -6.78978e+12 -5.6968e+12 -8.19115e+12 -6.37348e+12 -4.58959e+12 -5.28459e+12 -4.88818e+12 -5.87509e+12 -4.4546e+12 -5.57264e+12 -6.82331e+12 -5.84938e+12 -8.84467e+12 -7.94962e+12 -3.37955e+12 -1.00391e+13 -6.28952e+12 -4.49937e+12 -3.61554e+12 -7.28093e+12 -1.13158e+13 -8.45509e+12 -6.86166e+12 -8.65722e+12 -6.91145e+12 -7.79788e+12 -9.00816e+12 -3.776e+12 -4.96607e+12 -5.8977e+12 -1.02283e+13 -4.76214e+12 -3.65052e+12 -3.40542e+12 -4.96414e+12 -5.61443e+12 -7.82849e+12 -6.49925e+12 -5.91667e+12 -4.57688e+12 -5.33338e+12 -6.70383e+12 -7.96561e+12 -7.86275e+12 -6.92237e+12 -4.26748e+12 -6.20767e+12 -7.17178e+12 -3.35915e+12 -4.88932e+12 -7.44572e+12 -4.50025e+12 -5.47821e+12 -2.4817e+12 -4.40152e+12 -5.36734e+12 -2.78291e+12 -5.37781e+12 -5.73898e+12 -4.1787e+12 -3.77774e+12 -6.73708e+12 -3.1825e+12 -5.00597e+12 -5.59346e+12 -6.19256e+12 -5.13373e+12 -5.47209e+12 -3.99455e+12 -4.46433e+12 -3.22194e+12 -4.60219e+12 -5.71337e+12 -5.40576e+12 -3.97276e+12 -5.16817e+12 -2.28414e+12 -4.07559e+12 -3.39609e+12 -5.45511e+12 -9.28152e+12 -6.40807e+12 -6.24068e+12 -9.71646e+12 -8.27946e+12 -5.84808e+12 -8.92948e+12 -7.64222e+12 -6.90373e+12 -6.37676e+12 -5.19179e+12 -4.02394e+12 -7.56905e+12 -6.03715e+12 -6.34425e+12 -8.25275e+12 -7.18031e+12 -8.09743e+12 -6.54379e+12 -2.95449e+12 -7.63219e+12 -6.36847e+12 -4.17628e+12 -4.69337e+12 -6.2168e+12 -7.67134e+12 -4.6016e+12 -4.7955e+12 -5.04509e+12 -6.56151e+12 -5.7971e+12 -9.01958e+12 -6.93643e+12 -7.78029e+12 -6.72687e+12 -5.71159e+12 -6.74373e+12 -9.39309e+12 -6.28005e+12 -6.27212e+12 -8.20814e+12 -8.46002e+12 -6.4252e+12 -4.34812e+12 -7.328e+12 -3.73529e+12 -1.05223e+13 -5.89752e+12 -7.6343e+12 -7.85611e+12 -7.63158e+12 -1.24588e+13 -6.29987e+12 -6.06863e+12 -5.0607e+12 -3.40782e+12 -6.99284e+12 -8.56691e+12 -4.70385e+12 -5.58477e+12 -7.02587e+12 -5.43126e+12 -5.88869e+12 -6.63062e+12 -5.27022e+12 -5.76752e+12 -8.88638e+12 -8.70372e+12 -7.43999e+12 -5.87689e+12 -5.2245e+12 -5.00615e+12 -7.75738e+12 -8.07851e+12 -6.94847e+12 -3.15422e+12 -5.04937e+12 -6.3556e+12 -4.27913e+12 -5.11531e+12 -3.92497e+12 -1.01495e+13 -2.56222e+12 -3.11171e+12 -4.30191e+12 -5.29743e+12 -7.08798e+12 -7.45422e+12 -1.12453e+13 -4.70381e+12 -7.77721e+12 -7.20055e+12 -7.26467e+12 -4.87455e+12 -5.15243e+12 -5.19648e+12 -6.1151e+12 -6.654e+12 -6.13056e+12 -7.97549e+12 -7.59229e+12 -7.2161e+12 -8.60839e+12 -6.84083e+12 -4.71545e+12 -8.54581e+12 -6.66399e+12 -6.25672e+12 -3.1568e+12 -6.58715e+12 -4.22263e+12 -6.07874e+12 -2.56192e+12 -5.55344e+12 -5.57047e+12 -4.50125e+12 -2.81755e+12 -2.98828e+12 -2.26769e+12 -5.05303e+12 -5.14959e+12 -6.58031e+12 -4.01056e+12 -3.58294e+12 -6.00008e+12 -4.85856e+12 -4.25063e+12 -5.83584e+12 -4.05641e+12 -3.56179e+12 -6.19127e+12 -5.21104e+12 -3.1033e+12 -4.76407e+12 -3.20511e+12 -5.93989e+12 -7.49873e+12 -5.87596e+12 -6.57543e+12 -4.96669e+12 -4.91361e+12 -4.38053e+12 -2.70028e+12 -4.0247e+12 -3.1273e+12 -5.05362e+12 -6.07117e+12 -6.79277e+12 -2.52942e+12 -6.33258e+12 -5.12742e+12 -4.29531e+12 -3.8827e+12 -9.33533e+12 -6.96042e+12 -7.21445e+12 -5.11261e+12 -6.66119e+12 -7.08665e+12 -6.3674e+12 -4.19615e+12 -8.244e+12 -8.77944e+12 -5.48183e+12 -4.56424e+12 -8.93997e+12 -6.03948e+12 -5.52491e+12 -4.52266e+12 -6.31033e+12 -4.58564e+12 -8.40367e+12 -6.35707e+12 -7.88024e+12 -6.74344e+12 -6.53957e+12 -871224000000.0 -7.40398e+12 -8.53331e+12 -6.1296e+12 -5.96223e+12 -7.72214e+12 -6.02122e+12 -7.42533e+12 -7.72882e+12 -1.16596e+13 -7.69931e+12 -5.69618e+12 -7.59825e+12 -6.20845e+12 -8.35402e+12 -8.9446e+12 -5.92005e+12 -6.73835e+12 -2.77252e+12 -4.1808e+12 -6.91324e+12 -2.61229e+12 -3.22056e+12 -4.65223e+12 -3.57456e+12 -4.46966e+12 -1.01291e+13 -4.33434e+12 -5.73677e+12 -5.10553e+12 -8.7166e+12 -6.92185e+12 -9.3586e+12 -9.99941e+12 -4.57494e+12 -3.06351e+12 -7.72347e+12 -8.0217e+12 -4.07949e+12 -4.76178e+12 -5.11554e+12 -5.15646e+12 -5.47861e+12 -5.54096e+12 -4.36897e+12 -5.19652e+12 -4.89289e+12 -7.65312e+12 -7.06707e+12 -3.8832e+12 -5.45668e+12 -6.00545e+12 -4.85945e+12 -6.05218e+12 -7.67627e+12 -4.39523e+12 -6.57317e+12 -5.65218e+12 -5.86761e+12 -7.23156e+12 -6.23776e+12 -6.65718e+12 -2.46872e+12 -5.49164e+12 -2.5311e+12 -5.51113e+12 -7.657e+12 -6.0597e+12 -7.65187e+12 -4.226e+12 -4.43666e+12 -4.20753e+12 -4.86773e+12 -4.48606e+12 -2.68571e+12 -3.83488e+12 -7.30378e+12 -4.33547e+12 -3.27526e+12 -5.16153e+12 -4.02891e+12 -5.45628e+12 -3.10189e+12 -2.78226e+12 -2.75477e+12 -4.60156e+12 -4.35544e+12 -4.6843e+12 -4.41559e+12 -3.85642e+12 -4.27688e+12 -4.30667e+12 -3.85692e+12 -6.03488e+12 -3.70434e+12 -8.20385e+12 -5.70665e+12 -4.97552e+12 -2.01753e+12 -4.75008e+12 -3.86851e+12 -5.83234e+12 -4.34244e+12 -6.75318e+12 -5.96121e+12 -3.97657e+12 -3.21734e+12 -4.01453e+12 -4.75051e+12 -3.30461e+12 -3.74697e+12 -7.94395e+12 -5.38647e+12 -4.91271e+12 -2.14427e+12 -4.76062e+12 -3.05631e+12 -4.53058e+12 -4.06153e+12 -3.57203e+12 -4.93631e+12 -5.28298e+12 -4.0089e+12 -5.88391e+12 -9.00354e+12 -6.17851e+12 -8.25082e+12 -9.28401e+12 -7.15243e+12 -4.20433e+12 -5.38415e+12 -7.70655e+12 -6.58887e+12 -5.96258e+12 -7.3244e+12 -7.75379e+12 -7.51721e+12 -9.44723e+12 -5.82302e+12 -4.11454e+12 -7.54901e+12 -3.33655e+12 -6.16761e+12 -5.20429e+12 -5.24707e+12 -4.90134e+12 -5.93475e+12 -8.44499e+12 -7.25714e+12 -6.64899e+12 -5.62863e+12 -4.4279e+12 -6.94137e+12 -6.88108e+12 -5.83843e+12 -9.61249e+12 -1.13191e+13 -6.52034e+12 -6.24453e+12 -4.4448e+12 -6.03407e+12 -9.32194e+12 -5.92869e+12 -8.55556e+12 -2.2551e+12 -5.07372e+12 -3.05493e+12 -1.77658e+12 -7.30081e+12 -4.31655e+12 -5.13638e+12 -3.57253e+12 -2.89192e+12 -1.04859e+13 -5.52368e+12 -3.75101e+12 -6.77207e+12 -5.53144e+12 -4.26635e+12 -6.00341e+12 -5.45583e+12 -4.02449e+12 -8.56759e+12 -4.31326e+12 -7.47905e+12 -4.50466e+12 -5.83746e+12 -4.76755e+12 -6.13953e+12 -7.06706e+12 -5.75581e+12 -5.13494e+12 -4.22467e+12 -6.40561e+12 -6.90334e+12 -6.85755e+12 -9.93429e+12 -4.86393e+12 -5.32019e+12 -6.22391e+12 -5.63027e+12 -8.08785e+12 -7.66979e+12 -5.90743e+12 -5.06808e+12 -6.04448e+12 -7.86719e+12 -7.19569e+12 -4.26491e+12 -5.00798e+12 -6.88027e+12 -5.02624e+12 -3.97818e+12 -5.19705e+12 -4.16839e+12 -4.67754e+12 -7.38565e+12 -3.84763e+12 -5.36638e+12 -5.20972e+12 -4.18479e+12 -4.57366e+12 -5.58271e+12 -5.04152e+12 -2.37023e+12 -4.04139e+12 -3.66545e+12 -2.67438e+12 -4.49442e+12 -5.41188e+12 -3.34618e+12 -2.63735e+12 -2.09058e+12 -3.51921e+12 -2.71651e+12 -3.04123e+12 -4.54471e+12 -2.17113e+12 -2.57149e+12 -3.19424e+12 -5.39982e+12 -4.13315e+12 -1.94082e+12 -3.96981e+12 -5.61478e+12 -3.73543e+12 -1.77841e+12 -6.84213e+12 -2.21268e+12 -7.27085e+12 -3.28784e+12 -3.9243e+12 -3.44107e+12 -3.92894e+12 -5.42972e+12 -2.25728e+12 -3.55887e+12 -3.24209e+12 -1.16761e+12 -4.16615e+12 -6.73412e+12 -5.46189e+12 -3.23842e+12 -3.8901e+12 -3.23224e+12 -2.43478e+12 -6.14192e+12 -5.40102e+12 -3.69099e+12 -4.80606e+12 -6.3553e+12 -4.79002e+12 -6.04647e+12 -2.52043e+12 -6.23125e+12 -3.38724e+12 -4.87803e+12 -3.00725e+12 -3.29578e+12 -3.19827e+12 -7.86174e+12 -7.27306e+12 -3.16061e+12 -4.27257e+12 -6.90709e+12 -7.44022e+12 -4.14941e+12 -5.71953e+12 -4.95288e+12 -5.46809e+12 -6.53797e+12 -5.80593e+12 -5.89332e+12 -7.63719e+12 -7.80989e+12 -5.09973e+12 -5.1518e+12 -3.34273e+12 -5.37646e+12 -6.98698e+12 -5.99488e+12 -8.81043e+12 -7.56405e+12 -4.90329e+12 -3.71625e+12 -3.65427e+12 -5.04027e+12 -6.55719e+12 -4.82642e+12 -5.33637e+12 -2.72873e+12 -5.22148e+12 -7.8484e+12 -5.54719e+12 -4.03491e+12 -5.03607e+12 -5.98885e+12 -7.14325e+12 -4.88849e+12 -2.5152e+12 -3.82925e+12 -2.87468e+12 -6.19756e+12 -5.13634e+12 -6.10713e+12 -5.99294e+12 -6.83269e+12 -4.77803e+12 -4.55491e+12 -4.1236e+12 -6.67083e+12 -4.68532e+12 -4.43333e+12 -4.72942e+12 -3.43603e+12 -4.82296e+12 -5.71796e+12 -4.92548e+12 -3.58331e+12 -2.19094e+12 -3.76548e+12 -2.02094e+12 -4.98447e+12 -4.07164e+12 -6.73627e+12 -5.02411e+12 -5.43617e+12 -4.0598e+12 -5.55974e+12 -5.99983e+12 -3.69306e+12 -4.50509e+12 -3.74224e+12 -4.54904e+12 -4.65784e+12 -7.36015e+12 -5.05696e+12 -6.06312e+12 -7.40974e+12 -7.55715e+12 -6.92831e+12 -4.01661e+12 -7.66648e+12 -2.42679e+12 -3.92352e+12 -1.77011e+12 -5.64591e+12 -3.76945e+12 -4.58281e+12 -2.75648e+12 -5.86792e+12 -6.02416e+12 -3.01937e+12 -3.43453e+12 -4.83914e+12 -5.42659e+12 -5.87512e+12 -5.31255e+12 -1.97785e+12 -3.09948e+12 -3.47917e+12 -5.49437e+12 -5.74898e+12 -4.07102e+12 -4.1999e+12 -3.71488e+12 -2.26678e+12 -3.11045e+12 -4.20049e+12 -3.03218e+12 -6.11133e+12 -4.62155e+12 -2.80019e+12 -2.79686e+12 -3.02164e+12 -2.4805e+12 -3.81999e+12 -3.97999e+12 -2.91882e+12 -3.77341e+12 -3.52553e+12 -2.2764e+12 -2.41431e+12 -3.39275e+12 -3.70814e+12 -3.7752e+12 -4.6977e+12 -3.20255e+12 -5.72813e+12 -4.6693e+12 -3.63206e+12 -3.955e+12 -3.69616e+12 -3.47263e+12 -4.06916e+12 -4.53512e+12 -4.15117e+12 -3.95071e+12 -4.08754e+12 -3.21928e+12 -2.62458e+12 -5.56364e+12 -7.8058e+12 -3.05223e+12 -2.20249e+12 -1.99356e+12 -3.56093e+12 -2.77714e+12 -8.07646e+12 -7.82048e+12 -2.41625e+12 -3.97321e+12 -3.98167e+12 -3.87509e+12 -5.76599e+12 -6.26604e+12 -5.74707e+12 -4.74581e+12 -4.9828e+12 -1.76644e+12 -4.32151e+12 -3.58801e+12 -1.29407e+12 -4.83464e+12 -4.21487e+12 -5.41568e+12 -4.79132e+12 -7.70328e+12 -4.99396e+12 -6.13796e+12 -3.0805e+12 -3.36673e+12 -4.31897e+12 -3.64574e+12 -5.18348e+12 -4.89929e+12 -8.16205e+12 -6.29572e+12 -6.48747e+12 -6.0334e+12 -5.33049e+12 -4.31113e+12 -4.58795e+12 -4.12225e+12 -8.46406e+12 -3.34626e+12 -4.24316e+12 -4.18738e+12 -2.0665e+12 -2.76599e+12 -2.47688e+12 -3.78514e+12 -4.65733e+12 -7.26261e+12 -6.86477e+12 -7.43802e+12 -8.23126e+12 -4.41817e+12 -4.3476e+12 -6.47162e+12 -7.84175e+12 -4.68656e+12 -3.69177e+12 -4.10133e+12 -5.57106e+12 -4.71911e+12 -4.71836e+12 -5.83109e+12 -4.24681e+12 -1.76714e+12 -4.09967e+12 -6.74765e+12 -5.03157e+12 -4.31224e+12 -2.20846e+12 -4.3834e+12 -5.25152e+12 -4.92668e+12 -3.49659e+12 -5.60185e+12 -2.84785e+12 -4.311e+12 -3.99625e+12 -4.48512e+12 -5.74791e+12 -3.35077e+12 -5.37769e+12 -4.47614e+12 -6.0527e+12 -5.23222e+12 -3.20123e+12 -3.92225e+12 -5.92605e+12 -6.66744e+12 -5.72818e+12 -3.78957e+12 -5.25405e+12 -4.73584e+12 -6.14484e+12 -3.17179e+12 -5.1066e+12 -5.01808e+12 -3.13808e+12 -5.03058e+12 -2.67394e+12 -2.55659e+12 -4.67032e+12 -4.9878e+12 -4.96611e+12 -3.87867e+12 -3.44641e+12 -1.69567e+12 -3.6736e+12 -3.00631e+12 -2.74879e+12 -3.15554e+12 -3.58437e+12 -2.08705e+12 -3.66453e+12 -1.93444e+12 -5.02215e+12 -4.38634e+12 -3.43509e+12 -2.51819e+12 -1.81837e+12 -3.39605e+12 -3.67843e+12 -3.12009e+12 -2.27941e+12 -4.4793e+12 -3.4201e+12 -2.49721e+12 -2.39203e+12 -3.24791e+12 -3.83711e+12 -4.06423e+12 -3.66313e+12 -2.46667e+12 -3.05725e+12 -2.34494e+12 -2.73405e+12 -3.40737e+12 -4.13954e+12 -5.44537e+12 -4.54827e+12 -2.67442e+12 -3.64657e+12 -3.84043e+12 -3.53992e+12 -4.60635e+12 -2.58565e+12 -5.06902e+12 -4.23014e+12 -4.12465e+12 -3.35922e+12 -6.24543e+12 -2.16413e+12 -3.60592e+12 -3.08586e+12 -3.64924e+12 -2.7947e+12 -3.2481e+12 -4.97695e+12 -4.19307e+12 -5.84162e+12 -6.34474e+12 -6.94166e+12 -5.5432e+12 -5.10929e+12 -5.2125e+12 -5.26244e+12 -3.40533e+12 -7.21842e+12 -6.10293e+12 -7.16041e+12 -8.31623e+12 -4.71307e+12 -5.82948e+12 -3.71213e+12 -3.81062e+12 -6.79259e+12 -5.72766e+12 -5.77019e+12 -6.06514e+12 -8.68663e+12 -4.52882e+12 -4.61454e+12 -4.12333e+12 -5.02661e+12 -7.36755e+12 -7.67229e+12 -6.14086e+12 -5.48371e+12 -6.45102e+12 -5.37229e+12 -3.46368e+12 -3.05715e+12 -6.78418e+12 -6.42467e+12 -4.16571e+12 -3.05257e+12 -6.93785e+12 -4.22014e+12 -5.83452e+12 -5.00537e+12 -6.07516e+12 -3.64601e+12 -3.965e+12 -4.22193e+12 -5.23701e+12 -8.39457e+12 -5.07239e+12 -4.48804e+12 -5.77365e+12 -3.84932e+12 -4.19418e+12 -6.97624e+12 -5.13453e+12 -5.01534e+12 -3.13931e+12 -5.24217e+12 -1.40658e+12 -4.73744e+12 -2.92018e+12 -5.01938e+12 -5.86968e+12 -4.3385e+12 -3.56755e+12 -4.40903e+12 -1.81808e+12 -4.32012e+12 -4.32077e+12 -6.52925e+12 -4.69257e+12 -2.8223e+12 -6.24053e+12 -1.46621e+12 -3.14755e+12 -3.17701e+12 -6.24339e+12 -6.0677e+12 -2.93698e+12 -6.35711e+12 -4.99905e+12 -3.00025e+12 -1.27515e+12 -3.68929e+12 -3.52814e+12 -2.56895e+12 -3.29047e+12 -4.54348e+12 -3.21084e+12 -3.03167e+12 -3.70627e+12 -3.47704e+12 -2.93652e+12 -2.91694e+12 -1.72341e+12 -4.4298e+12 -2.65422e+12 -3.74005e+12 -3.80566e+12 -4.71748e+12 -1.55948e+12 -3.1886e+12 -2.14734e+12 -2.53671e+12 -3.3639e+12 -4.40482e+12 -1.79492e+12 -3.36952e+12 -2.70128e+12 -4.02264e+12 -2.70894e+12 -4.4657e+12 -2.40404e+12 -2.38342e+12 -1.89959e+12 -3.00214e+12 -2.80577e+12 -2.68936e+12 -2.20265e+12 -4.58582e+12 -4.11908e+12 -2.9774e+12 -3.48935e+12 -3.53087e+12 -3.70918e+12 -5.05038e+12 -3.46033e+12 -6.38229e+12 -5.15121e+12 -2.239e+12 -4.27234e+12 -2.14067e+12 -3.32214e+12 -4.82333e+12 -3.47886e+12 -4.28166e+12 -4.52931e+12 -3.55945e+12 -1.3543e+12 -2.53784e+12 -2.42438e+12 -4.57321e+12 -5.49801e+12 -4.5524e+12 -5.50321e+12 -2.1753e+12 -3.22424e+12 -2.51827e+12 -1.51087e+12 -2.54276e+12 -4.40392e+12 -4.82477e+12 -3.01904e+12 -4.63151e+12 -5.59891e+12 -4.84121e+12 -5.75738e+12 -5.0074e+12 -5.51759e+12 -7.37524e+12 -3.41588e+12 -3.58338e+12 -2.80167e+12 -3.5758e+12 -5.47157e+12 -4.29388e+12 -4.81635e+12 -6.32645e+12 -4.69456e+12 -3.93231e+12 -5.66545e+12 -3.52964e+12 -5.28866e+12 -6.16781e+12 -6.82456e+12 -3.97732e+12 -4.43427e+12 -7.04482e+12 -3.09733e+12 -4.1936e+12 -3.69066e+12 -2.79466e+12 -1.42024e+12 -4.73913e+12 -3.69632e+12 -3.39624e+12 -2.89454e+12 -3.83301e+12 -2.6053e+12 -5.72929e+12 -5.2959e+12 -6.05567e+12 -4.21068e+12 -4.15026e+12 -4.9104e+12 -1.69043e+12 -3.13347e+12 -3.63944e+12 -3.48221e+12 -4.6725e+12 -7.64302e+12 -3.96708e+12 -3.30703e+12 -4.96594e+12 -3.54257e+12 -4.17519e+12 -3.5188e+12 -4.54281e+12 -4.31873e+12 -3.6212e+12 -4.14481e+12 -4.49463e+12 -3.98154e+12 -3.44315e+12 -4.1635e+12 -1.6532e+12 -2.27461e+12 -3.17607e+12 -4.18088e+12 -1.82717e+12 -1.30501e+12 -2.21253e+12 -2.37535e+12 -3.61104e+12 -1.20509e+12 -2.40388e+12 -2.11719e+12 -1.53935e+12 -1.95761e+12 -1.82844e+12 -3.20764e+12 -3.44213e+12 -3.23785e+12 -1.5142e+12 -886462000000.0 -2.79013e+12 -1.5993e+12 -2.26904e+12 -3.04774e+12 -1.56944e+12 -2.11592e+12 -606708000000.0 -844794000000.0 -2.84078e+12 -4.05429e+12 -2.47919e+12 -1.19193e+12 -2.79678e+12 -932737000000.0 -2.70998e+12 -1.90143e+12 -1.11651e+12 -2.76517e+12 -3.73283e+12 -2.41152e+12 -1.41326e+12 -3.52638e+12 -2.2482e+12 -4.07159e+12 -2.69291e+12 -2.53857e+12 -4.21812e+12 -2.76526e+12 -3.26504e+12 -1.75377e+12 -2.02409e+12 -2.80691e+12 -3.49631e+12 -3.60342e+12 -3.04173e+12 -1.40907e+12 -3.68438e+12 -2.12969e+12 -5.06362e+12 -5.50409e+12 -2.83462e+12 -2.45001e+12 -3.01776e+12 -2.20856e+12 -2.3045e+12 -1.8207e+12 -2.79236e+12 -2.22838e+12 -3.46084e+12 -3.04794e+12 -4.05243e+12 -4.90618e+12 -1.59441e+12 -2.37601e+12 -4.46231e+12 -4.46842e+12 -4.77461e+12 -2.3545e+12 -4.31776e+12 -4.53368e+12 -5.50289e+12 -3.74676e+12 -4.60617e+12 -4.63845e+12 -3.18551e+12 -3.17394e+12 -3.00415e+12 -4.37447e+12 -3.58205e+12 -3.80457e+12 -4.46637e+12 -6.3456e+12 -3.21575e+12 -3.32246e+12 -6.41643e+12 -2.92973e+12 -4.68488e+12 -3.17931e+12 -7.39845e+12 -5.93853e+12 -6.88106e+12 -4.03131e+12 -4.50883e+12 -4.40283e+12 -2.64885e+12 -6.84573e+12 -3.31266e+12 -5.76619e+12 -3.70934e+12 -4.27581e+12 -4.84573e+12 -6.4908e+12 -2.77548e+12 -4.36379e+12 -2.62281e+12 -2.50274e+12 -3.51963e+12 -3.11791e+12 -2.3027e+12 -4.94809e+12 -4.31027e+12 -3.25273e+12 -2.13908e+12 -3.00303e+12 -4.1123e+12 -3.28913e+12 -4.53845e+12 -2.87959e+12 -2.5275e+12 -2.71832e+12 -2.84676e+12 -1.79976e+12 -2.40015e+12 -3.45871e+12 -2.57629e+12 -1.79541e+12 -1.97377e+12 -3.17684e+12 -2.30829e+12 -2.35462e+12 -2.29566e+12 -1.98931e+12 -2.07887e+12 -1.33027e+12 -1.17087e+12 -2.2617e+12 -695426000000.0 -1.98046e+12 -1.86815e+12 -1.81768e+12 -81810200000.0 -930707000000.0 -1.64406e+12 -1.96785e+12 -1.39076e+12 -1.42993e+12 -1.32366e+12 -876026000000.0 -1.58733e+12 -2.80809e+12 -1.39947e+12 -549153000000.0 -1.82956e+12 -1.88343e+12 -1.49076e+12 -1.39095e+12 -1.74896e+12 -782623000000.0 -2.03164e+12 -3.11341e+12 -2.56496e+12 -3.57065e+12 -1.89261e+12 -1.53793e+12 -1.72089e+12 -2.00919e+12 -1.53196e+12 -2.39136e+12 -2.12414e+12 -2.53861e+12 -3.34181e+12 -2.74765e+12 -2.69669e+12 -3.03183e+12 -3.96621e+12 -1.84364e+12 -2.64992e+12 -2.3035e+12 -2.82079e+12 -3.06262e+12 -2.27404e+12 -2.41445e+12 -2.31466e+12 -2.48117e+12 -2.13322e+12 -3.37968e+12 -3.87705e+12 -2.73232e+12 -717283000000.0 -1.68245e+12 -4.10708e+12 -3.1092e+12 -1.03555e+12 -3.37808e+12 -3.4615e+12 -1.88668e+12 -2.89584e+12 -5.57439e+12 -2.10053e+12 -3.25176e+12 -3.99663e+12 -4.30129e+12 -4.21849e+12 -4.20644e+12 -3.18695e+12 -3.4124e+12 -1.74298e+12 -2.31464e+12 -3.30907e+12 -3.11265e+12 -4.0488e+12 -6.91038e+12 -4.73064e+12 -3.5083e+12 -2.72432e+12 -3.22002e+12 -2.24466e+12 -4.91451e+12 -4.32011e+12 -1.93004e+12 -1.8246e+12 -5.38529e+12 -4.40774e+12 -3.87276e+12 -4.21404e+12 -1.39519e+12 -1.38777e+12 -2.36528e+12 -2.78393e+12 -4.07924e+12 -4.16576e+12 -3.11821e+12 -5.09369e+12 -3.42214e+12 -2.37937e+12 -123029000000.0 -3.01486e+12 -4.36941e+12 -2.6051e+12 -2.87092e+12 -3.18128e+12 -2.51618e+12 -2.2467e+12 -3.63736e+12 -5.04971e+12 -1.71949e+12 -1.81747e+12 -2.73191e+12 -2.19315e+12 -2.86568e+12 -2.33152e+12 -1.21202e+12 -2.11764e+12 -3.5211e+12 -2.55926e+12 -2.4245e+12 -846822000000.0 -1.92802e+12 -2.1422e+12 -4.44643e+12 -2.761e+12 -2.33067e+12 -1.86744e+12 -2.70942e+12 -2.77977e+12 -1.52292e+12 -2.23685e+12 -1.51427e+12 -2.36582e+12 -1.11123e+12 -1.1427e+12 -909451000000.0 -1.18511e+12 -859927000000.0 -1.13475e+12 -726182000000.0 -1.15917e+12 -1.27476e+12 -905006000000.0 -1.15981e+12 -1.07847e+12 -717368000000.0 -932133000000.0 -1.28964e+12 -1.06401e+12 -551039000000.0 -816780000000.0 -585503000000.0 -1.29441e+12 -831940000000.0 -1.01528e+12 -1.2716e+12 -2.45204e+12 -3.1185e+12 -777879000000.0 -430046000000.0 -2.15788e+12 -1.41397e+12 -1.50303e+12 -1.57046e+12 -2.06147e+12 -1.75503e+12 -1.50455e+12 -1.83051e+12 -2.16721e+12 -3.32182e+12 -2.04233e+12 -1.34108e+12 -1.93899e+12 -2.89202e+12 -1.5417e+12 -1.43436e+12 -1.70324e+12 -1.69472e+12 -3.16288e+12 -1.68441e+12 -1.88896e+12 -2.78063e+12 -3.92468e+12 -4.73553e+12 -2.82462e+12 -1.14865e+12 -3.26537e+12 -4.24115e+12 -2.4857e+12 -4.01713e+12 -2.09686e+12 -2.36396e+12 -3.46619e+12 -2.72889e+12 -3.33445e+12 -1.6595e+12 -1.45312e+12 -3.68839e+12 -2.07883e+12 -3.64419e+12 -2.44498e+12 -2.51025e+12 -3.45959e+12 -3.72622e+12 -3.36998e+12 -2.46953e+12 -4.17101e+12 -1.9233e+12 -4.14687e+12 -2.69295e+12 -4.05787e+12 -1.80892e+12 -3.87858e+12 -2.47576e+12 -2.43107e+12 -4.60459e+12 -3.15252e+12 -2.45264e+12 -2.97925e+12 -2.14691e+12 -5.56798e+12 -2.29733e+12 -1.05992e+12 -2.23901e+12 -965150000000.0 -2.09634e+12 -2.18423e+12 -2.81538e+12 -3.17147e+12 -2.98305e+12 -3.52364e+12 -1.36737e+12 -3.06026e+12 -2.81407e+12 -3.55847e+12 -1.86153e+12 -2.10117e+12 -2.53272e+12 -2.9672e+12 -2.51264e+12 -1.53038e+12 -1.83292e+12 -3.27594e+12 -1.39857e+12 -2.57347e+12 -2.00735e+12 -1.22364e+12 -1.98734e+12 -1.92729e+12 -1.83271e+12 -1.61307e+12 -270997000000.0 -2.69974e+12 -1.45231e+12 -1.6113e+12 -925637000000.0 -895926000000.0 -1.32533e+12 -2.23676e+12 -1.23379e+12 -934157000000.0 -1.70012e+12 -824471000000.0 -1.09074e+12 -1.43892e+12 -1.26644e+12 -716448000000.0 -829952000000.0 -432011000000.0 -758519000000.0 -75300800000.0 -586564000000.0 -381319000000.0 -657812000000.0 -815521000000.0 -238519000000.0 -879566000000.0 -564402000000.0 -379130000000.0 -852888000000.0 -316150000000.0 -552903000000.0 -390523000000.0 -1.20643e+12 -922437000000.0 -981549000000.0 -1.39367e+12 -869182000000.0 -1.42685e+12 -1.10568e+12 -334362000000.0 -1.72282e+12 -1.13927e+12 -1.3045e+12 -1.18807e+12 -3.35736e+12 -1.87562e+12 -2.08206e+12 -1.24634e+12 -2.03149e+12 -1.61439e+12 -1.87542e+12 -1.69103e+12 -1.55526e+12 -1.81048e+12 -3.68203e+12 -2.71473e+12 -3.07215e+12 -2.35356e+12 -1.65348e+12 -3.62581e+12 -1.40755e+12 -1.7764e+12 -3.38201e+12 -2.16007e+12 -3.42242e+12 -978770000000.0 -2.23118e+12 -2.60769e+12 -3.35164e+12 -2.58022e+12 -3.68729e+12 -2.02786e+12 -1.82737e+12 -2.03699e+12 -2.44756e+12 -4.46614e+12 -2.68025e+12 -2.67771e+12 -3.62405e+12 -1.31853e+12 -1.9078e+12 -2.11815e+12 -1.74938e+12 -2.55107e+12 -2.54486e+12 -1.88806e+12 -2.28915e+12 -1.19453e+12 -2.19183e+12 -762668000000.0 -1.61338e+12 -3.58307e+12 -1.77196e+12 -1.845e+12 -1.68868e+12 -1.13691e+12 -1.89672e+12 -1.01301e+12 -4.52559e+12 -2.24309e+12 -2.75273e+12 -2.48162e+12 -857462000000.0 -3.79404e+12 -1.04201e+12 -1.90033e+12 -813633000000.0 -1.10658e+12 -1.97646e+12 -1.59531e+12 -1.54418e+12 -1.71033e+12 -638893000000.0 -2.16341e+12 -1.236e+12 -1.59959e+12 -2.36823e+12 -783005000000.0 -1.15527e+12 -956125000000.0 -486669000000.0 -558670000000.0 -995242000000.0 -1.18545e+12 -205383000000.0 -411550000000.0 -455608000000.0 -150553000000.0 -385393000000.0 -241738000000.0 -271961000000.0 -258234000000.0 -239537000000.0 -201113000000.0 -80229600000.0 -533807000000.0 -188681000000.0 -274463000000.0 -481934000000.0 -643476000000.0 -651147000000.0 -1.71833e+12 -1.36305e+12 -574767000000.0 -1.10145e+12 -2.13979e+12 -989367000000.0 -1.81632e+12 -1.43398e+12 -1.21206e+12 -1.14382e+12 -1.25662e+12 -1.36902e+12 -1.10763e+12 -1.2973e+12 -1.54805e+12 -2.6725e+12 -2.52317e+12 -1.37479e+12 -1.28453e+12 -1.85882e+12 -1.50732e+12 -1.15933e+12 -2.41651e+12 -4.36803e+12 -3.01228e+12 -2.69208e+12 -2.31712e+12 -1.81299e+12 -2.33171e+12 -2.19962e+12 -3.02018e+12 -998679000000.0 -1.96889e+12 -1.55768e+12 -752193000000.0 -1.62e+12 -1.07649e+12 -1.73648e+12 -2.3248e+12 -1.50709e+12 -1.90091e+12 -1.69655e+12 -2.07171e+12 -1.5352e+12 -1.34496e+12 -2.60497e+12 -2.56155e+12 -1.57932e+12 -897659000000.0 -2.35302e+12 -1.23755e+12 -1.13294e+12 -1.71066e+12 -356897000000.0 -1.52262e+12 -1.76422e+12 -1.28146e+12 -1.7854e+12 -1.17274e+12 -1.61992e+12 -902386000000.0 -2.03067e+12 -977639000000.0 -1.00764e+12 -1.00433e+12 -811310000000.0 -877496000000.0 -1.13258e+12 -431609000000.0 -749677000000.0 -218169000000.0 -667789000000.0 -178287000000.0 -712298000000.0 -509157000000.0 -206350000000.0 -449860000000.0 -136145000000.0 -228852000000.0 -183343000000.0 -202928000000.0 -207605000000.0 -357933000000.0 -194426000000.0 -103375000000.0 -278709000000.0 -119924000000.0 -558007000000.0 -356397000000.0 -496864000000.0 -1.54267e+12 -953465000000.0 -1.82942e+12 -748470000000.0 -1.40163e+12 -335264000000.0 -952833000000.0 -1.09007e+12 -938202000000.0 -1.33697e+12 -1.33963e+12 -1.20213e+12 -1.88871e+12 -1.28325e+12 -1.64144e+12 -1.82379e+12 -2.3009e+12 -1.40076e+12 -1.78767e+12 -1.09593e+12 -1.42179e+12 -2.16406e+12 -1.38482e+12 -2.02443e+12 -1.86159e+12 -1.54776e+12 -1.9522e+12 -932382000000.0 -2.14288e+12 -2.02943e+12 -2.66954e+12 -659684000000.0 -707527000000.0 -1.89218e+12 -609639000000.0 -1.23951e+12 -771336000000.0 -1.19559e+12 -1.00922e+12 -839144000000.0 -1.09379e+12 -1.7111e+12 -1.20341e+12 -1.52927e+12 -529033000000.0 -1.50829e+12 -939785000000.0 -295758000000.0 -957925000000.0 -1.52463e+12 -678011000000.0 -810333000000.0 -883374000000.0 -698386000000.0 -579734000000.0 -871063000000.0 -476010000000.0 -581257000000.0 -353234000000.0 -421366000000.0 -1.03362e+12 -377088000000.0 -1.06903e+12 -320707000000.0 -298295000000.0 -443671000000.0 -247205000000.0 -144088000000.0 -95510200000.0 -199030000000.0 -284451000000.0 -200645000000.0 -94122300000.0 -152138000000.0 -323526000000.0 -363350000000.0 -304605000000.0 -709967000000.0 -223045000000.0 -875774000000.0 -195543000000.0 -479481000000.0 -687526000000.0 -624144000000.0 -430875000000.0 -650596000000.0 -1.29254e+12 -747483000000.0 -712299000000.0 -462906000000.0 -955427000000.0 -992269000000.0 -647221000000.0 -787017000000.0 -1.43118e+12 -1.36071e+12 -1.65165e+12 -1.54351e+12 -518437000000.0 -1.16535e+12 -717635000000.0 -889891000000.0 -739215000000.0 -78104800000.0 -627945000000.0 -569124000000.0 -872434000000.0 -655258000000.0 -435829000000.0 -611564000000.0 -512242000000.0 -564853000000.0 -90437100000.0 -888038000000.0 -586125000000.0 -275996000000.0 -286649000000.0 -217668000000.0 -185153000000.0 -68136400000.0 -221734000000.0 -266389000000.0 -233218000000.0 -185038000000.0 -246810000000.0 -206652000000.0 -248045000000.0 -420443000000.0 -315556000000.0 -284577000000.0 -1.1511e+12 -120562000000.0 -255349000000.0 -238962000000.0 -604560000000.0 -318547000000.0 -1.07761e+12 -309564000000.0 -425283000000.0 -341627000000.0 -908222000000.0 -1.22787e+12 -245374000000.0 -62237900000.0 -191722000000.0 -139361000000.0 -652723000000.0 -407687000000.0 -350264000000.0 -172436000000.0 -108423000000.0 