# vtk DataFile Version 2.0
Time step 32
ASCII
DATASET UNSTRUCTURED_GRID
POINTS 5000 float
197522.0 379548.0 0
303399.0 380032.0 0
182970.0 388043.0 0
189208.0 384516.0 0
190787.0 388504.0 0
193373.0 382474.0 0
197871.0 383804.0 0
206785.0 382768.0 0
295832.0 383798.0 0
300822.0 383665.0 0
306365.0 383933.0 0
311155.0 385841.0 0
179648.0 390368.0 0
182795.0 391658.0 0
186195.0 386963.0 0
186648.0 391522.0 0
191319.0 393275.0 0
195349.0 387162.0 0
200638.0 385082.0 0
199737.0 388801.0 0
204332.0 387444.0 0
212152.0 384898.0 0
217338.0 386027.0 0
222435.0 385763.0 0
224271.0 389642.0 0
226760.0 387414.0 0
231196.0 387781.0 0
236087.0 390100.0 0
240749.0 387320.0 0
245972.0 389332.0 0
252309.0 388557.0 0
258525.0 388053.0 0
263213.0 388224.0 0
267975.0 387239.0 0
272866.0 387976.0 0
277203.0 385698.0 0
282298.0 387122.0 0
286629.0 389409.0 0
290588.0 385676.0 0
298881.0 387852.0 0
303241.0 388308.0 0
307259.0 388664.0 0
310368.0 390522.0 0
316142.0 389477.0 0
320979.0 390936.0 0
172931.0 394633.0 0
169420.0 397258.0 0
173651.0 397874.0 0
175968.0 395430.0 0
176058.0 392215.0 0
178213.0 398534.0 0
179255.0 394020.0 0
183304.0 396210.0 0
195727.0 392291.0 0
188362.0 396831.0 0
200217.0 393910.0 0
203876.0 396418.0 0
204827.0 392022.0 0
209471.0 389814.0 0
213351.0 393514.0 0
216184.0 390361.0 0
220286.0 390007.0 0
223114.0 393385.0 0
227914.0 392327.0 0
232864.0 393964.0 0
238189.0 395241.0 0
243540.0 394000.0 0
248445.0 393059.0 0
252278.0 394760.0 0
256752.0 392931.0 0
261197.0 392046.0 0
265970.0 392353.0 0
270239.0 391735.0 0
275157.0 392547.0 0
279493.0 390740.0 0
282832.0 392219.0 0
279236.0 395033.0 0
286541.0 393544.0 0
290654.0 391522.0 0
295123.0 389848.0 0
293250.0 395204.0 0
296615.0 393544.0 0
299917.0 391997.0 0
306540.0 395642.0 0
304219.0 392466.0 0
309743.0 394729.0 0
307429.0 392107.0 0
312857.0 393219.0 0
313224.0 397112.0 0
316174.0 394462.0 0
317102.0 397291.0 0
320158.0 394880.0 0
323833.0 395804.0 0
324358.0 392719.0 0
327507.0 395339.0 0
325777.0 398492.0 0
331331.0 398700.0 0
161166.0 402747.0 0
165282.0 399667.0 0
168631.0 400958.0 0
165815.0 403653.0 0
169573.0 404016.0 0
171479.0 400682.0 0
172962.0 403888.0 0
174713.0 400754.0 0
177432.0 403706.0 0
181836.0 401406.0 0
185466.0 400351.0 0
193941.0 398195.0 0
199671.0 399968.0 0
205709.0 400588.0 0
208659.0 395708.0 0
212596.0 397189.0 0
215726.0 399050.0 0
218376.0 394668.0 0
225828.0 396596.0 0
222131.0 397162.0 0
229869.0 397603.0 0
234403.0 399747.0 0
238645.0 399645.0 0
242586.0 399173.0 0
247434.0 397277.0 0
251769.0 399700.0 0
256135.0 397646.0 0
260948.0 396699.0 0
265586.0 396767.0 0
270909.0 397157.0 0
276017.0 397281.0 0
279485.0 399383.0 0
282633.0 400412.0 0
283354.0 396663.0 0
288640.0 397838.0 0
302500.0 396279.0 0
297949.0 397433.0 0
301280.0 400762.0 0
305606.0 399822.0 0
309288.0 398390.0 0
312067.0 400990.0 0
316156.0 400612.0 0
319985.0 399330.0 0
319464.0 403626.0 0
322617.0 398098.0 0
323567.0 401692.0 0
327645.0 401332.0 0
331316.0 403827.0 0
335953.0 400447.0 0
339891.0 403390.0 0
335230.0 403542.0 0
148982.0 409354.0 0
153674.0 406241.0 0
157152.0 404816.0 0
155867.0 408519.0 0
158956.0 408015.0 0
162486.0 406843.0 0
166792.0 407842.0 0
170858.0 407517.0 0
174559.0 406978.0 0
181457.0 405998.0 0
185221.0 404005.0 0
185403.0 407060.0 0
189389.0 402252.0 0
194016.0 404124.0 0
198109.0 405335.0 0
202752.0 404773.0 0
211019.0 401101.0 0
207771.0 405485.0 0
215697.0 404469.0 0
220308.0 401263.0 0
225009.0 400624.0 0
223737.0 404202.0 0
229400.0 403423.0 0
236175.0 404082.0 0
239737.0 402798.0 0
242995.0 404867.0 0
246684.0 402398.0 0
250966.0 404231.0 0
255500.0 403151.0 0
259114.0 400585.0 0
263634.0 401094.0 0
260153.0 404530.0 0
268518.0 403681.0 0
274937.0 402864.0 0
281514.0 403922.0 0
285456.0 401736.0 0
289009.0 403828.0 0
293743.0 401279.0 0
297056.0 404455.0 0
294683.0 405922.0 0
300037.0 404451.0 0
304124.0 404160.0 0
308885.0 403431.0 0
310711.0 407165.0 0
314390.0 405214.0 0
319075.0 408932.0 0
323375.0 405803.0 0
327027.0 404350.0 0
327043.0 407297.0 0
330741.0 408516.0 0
336091.0 407883.0 0
340497.0 408554.0 0
344094.0 406370.0 0
348723.0 409043.0 0
140114.0 414881.0 0
146125.0 411035.0 0
143260.0 413114.0 0
152251.0 409220.0 0
149491.0 412687.0 0
152950.0 413229.0 0
156031.0 411615.0 0
158982.0 411002.0 0
158899.0 414220.0 0
162550.0 411091.0 0
162026.0 414576.0 0
165910.0 411393.0 0
169091.0 411642.0 0
173563.0 411215.0 0
177381.0 412105.0 0
177475.0 408196.0 0
180049.0 410017.0 0
183219.0 409724.0 0
186337.0 411946.0 0
189529.0 407798.0 0
194867.0 410071.0 0
200550.0 409201.0 0
204719.0 408733.0 0
211925.0 407360.0 0
208571.0 410868.0 0
213652.0 411324.0 0
220503.0 406038.0 0
217715.0 409249.0 0
224438.0 408503.0 0
228667.0 411548.0 0
233427.0 408321.0 0
239198.0 407487.0 0
243365.0 410324.0 0
247650.0 407763.0 0
252375.0 408088.0 0
257056.0 408542.0 0
264122.0 406732.0 0
268344.0 409578.0 0
274046.0 409378.0 0
278516.0 407228.0 0
283189.0 409226.0 0
285602.0 405447.0 0
291931.0 405919.0 0
288813.0 408482.0 0
293371.0 408875.0 0
297877.0 408375.0 0
302675.0 408475.0 0
306884.0 407663.0 0
309642.0 410294.0 0
313835.0 410580.0 0
320854.0 414481.0 0
324483.0 410537.0 0
329283.0 412879.0 0
334026.0 412674.0 0
341445.0 411411.0 0
338531.0 413072.0 0
344385.0 410695.0 0
342932.0 413972.0 0
350591.0 413307.0 0
347177.0 413415.0 0
352726.0 410638.0 0
355806.0 411765.0 0
358109.0 413484.0 0
137349.0 416960.0 0
134198.0 418803.0 0
142598.0 417627.0 0
139514.0 419878.0 0
146545.0 415254.0 0
150944.0 417091.0 0
155405.0 415578.0 0
154949.0 419746.0 0
158141.0 417678.0 0
161382.0 417568.0 0
165638.0 415341.0 0
170906.0 415430.0 0
175648.0 416239.0 0
181220.0 414757.0 0
185765.0 416317.0 0
190506.0 414383.0 0
195196.0 417166.0 0
198960.0 413860.0 0
203862.0 413129.0 0
210902.0 415112.0 0
215645.0 415014.0 0
221033.0 413889.0 0
226388.0 416238.0 0
231955.0 416257.0 0
236397.0 412965.0 0
241250.0 415227.0 0
246373.0 414043.0 0
250614.0 412148.0 0
255781.0 414582.0 0
261951.0 411795.0 0
266809.0 414947.0 0
271188.0 413296.0 0
278611.0 411224.0 0
275676.0 414942.0 0
281683.0 415292.0 0
286993.0 413342.0 0
291608.0 412386.0 0
290926.0 416818.0 0
295845.0 412856.0 0
300702.0 412672.0 0
305987.0 412513.0 0
310441.0 413556.0 0
308865.0 417427.0 0
314209.0 416106.0 0
317329.0 413256.0 0
323704.0 418553.0 0
325272.0 415014.0 0
328585.0 417766.0 0
332457.0 416068.0 0
336594.0 417346.0 0
341206.0 417290.0 0
345621.0 416971.0 0
347713.0 419996.0 0
349312.0 416433.0 0
353946.0 415051.0 0
361075.0 415532.0 0
357882.0 416295.0 0
360737.0 418672.0 0
364139.0 418010.0 0
367701.0 420341.0 0
122246.0 425874.0 0
125588.0 424542.0 0
131129.0 420752.0 0
128300.0 422384.0 0
136417.0 420643.0 0
133795.0 422590.0 0
137142.0 422900.0 0
140266.0 423806.0 0
142905.0 421549.0 0
146587.0 420304.0 0
147815.0 424325.0 0
151004.0 421877.0 0
154862.0 424329.0 0
159101.0 421641.0 0
162193.0 423899.0 0
163581.0 420200.0 0
165984.0 423543.0 0
167890.0 419194.0 0
172632.0 419625.0 0
169846.0 422602.0 0
175890.0 421896.0 0
178719.0 419241.0 0
182733.0 419785.0 0
187650.0 419981.0 0
191229.0 418147.0 0
192227.0 421394.0 0
200969.0 418710.0 0
196870.0 422188.0 0
206536.0 417351.0 0
209897.0 421504.0 0
213398.0 418273.0 0
214536.0 422041.0 0
217700.0 418954.0 0
222455.0 420296.0 0
228002.0 421752.0 0
236979.0 418475.0 0
246110.0 418545.0 0
250283.0 420208.0 0
251245.0 416432.0 0
255252.0 420744.0 0
261500.0 418792.0 0
267221.0 420015.0 0
271137.0 417717.0 0
278185.0 419681.0 0
282710.0 421489.0 0
286408.0 418320.0 0
289787.0 421725.0 0
294486.0 420299.0 0
298340.0 417139.0 0
301314.0 420915.0 0
303718.0 417116.0 0
305862.0 421807.0 0
309659.0 421056.0 0
313467.0 421116.0 0
319015.0 419403.0 0
323327.0 423002.0 0
326421.0 421047.0 0
329831.0 421658.0 0
327680.0 424654.0 0
332794.0 419929.0 0
336028.0 421575.0 0
340492.0 421751.0 0
344391.0 420435.0 0
351756.0 419220.0 0
349260.0 423003.0 0
356622.0 420159.0 0
360461.0 422205.0 0
363747.0 421550.0 0
366297.0 424002.0 0
370972.0 422374.0 0
374319.0 424045.0 0
116492.0 430403.0 0
119736.0 427696.0 0
120057.0 430507.0 0
124274.0 428762.0 0
127799.0 426251.0 0
129069.0 429426.0 0
131048.0 425245.0 0
135511.0 425462.0 0
133634.0 428733.0 0
138234.0 427660.0 0
141658.0 427134.0 0
144439.0 424560.0 0
144190.0 428260.0 0
147836.0 428040.0 0
151047.0 425631.0 0
153039.0 429332.0 0
158650.0 427083.0 0
163999.0 427448.0 0
172767.0 423694.0 0
169492.0 426901.0 0
175261.0 426892.0 0
179567.0 423462.0 0
184090.0 424052.0 0
185641.0 428042.0 0
188713.0 424634.0 0
190027.0 428617.0 0
193377.0 425610.0 0
200832.0 423959.0 0
197839.0 427016.0 0
204785.0 422392.0 0
207377.0 426321.0 0
212510.0 426394.0 0
218454.0 424222.0 0
223590.0 425906.0 0
233379.0 421742.0 0
231398.0 425204.0 0
235106.0 425888.0 0
237251.0 422908.0 0
239210.0 426372.0 0
241715.0 421360.0 0
243155.0 426119.0 0
246665.0 423502.0 0
250952.0 424838.0 0
255537.0 426330.0 0
259837.0 424408.0 0
265072.0 425159.0 0
270102.0 423387.0 0
274045.0 421364.0 0
279407.0 425255.0 0
286365.0 423321.0 0
283924.0 426374.0 0
288679.0 426558.0 0
293240.0 425364.0 0
298183.0 424147.0 0
302487.0 424326.0 0
305404.0 426540.0 0
309988.0 424857.0 0
314958.0 425483.0 0
317206.0 423079.0 0
320127.0 425940.0 0
324968.0 427924.0 0
330154.0 428621.0 0
332852.0 424854.0 0
337666.0 425759.0 0
342299.0 425905.0 0
345710.0 424193.0 0
349521.0 426929.0 0
353585.0 424401.0 0
354282.0 428849.0 0
358520.0 425546.0 0
358765.0 429963.0 0
362137.0 427938.0 0
362779.0 425187.0 0
365724.0 427667.0 0
372965.0 427399.0 0
369442.0 425252.0 0
369245.0 428794.0 0
377452.0 426098.0 0
376048.0 429086.0 0
380800.0 427821.0 0
379064.0 430124.0 0
383686.0 429668.0 0
109713.0 433738.0 0
106923.0 435375.0 0
112550.0 431765.0 0
111847.0 435093.0 0
114909.0 433836.0 0
119011.0 434277.0 0
122895.0 432663.0 0
126581.0 432280.0 0
131495.0 431580.0 0
129532.0 434013.0 0
133795.0 432540.0 0
136448.0 434616.0 0
140870.0 430049.0 0
137206.0 430927.0 0
139950.0 433216.0 0
144014.0 431836.0 0
148241.0 431666.0 0
150816.0 434294.0 0
154729.0 433122.0 0
157331.0 430959.0 0
161409.0 431305.0 0
157991.0 434213.0 0
164218.0 433919.0 0
166524.0 430977.0 0
171493.0 430993.0 0
175624.0 431189.0 0
180500.0 428299.0 0
187463.0 431218.0 0
183676.0 432049.0 0
190849.0 432554.0 0
194339.0 430020.0 0
198651.0 431512.0 0
202665.0 428404.0 0
207427.0 431474.0 0
216573.0 428613.0 0
220474.0 430331.0 0
228238.0 427196.0 0
228617.0 431760.0 0
232295.0 429030.0 0
236716.0 430207.0 0
241941.0 430904.0 0
246551.0 428347.0 0
251393.0 430670.0 0
260470.0 429898.0 0
265953.0 430794.0 0
270531.0 430471.0 0
274284.0 426609.0 0
278283.0 429491.0 0
282480.0 430982.0 0
286281.0 429493.0 0
291992.0 430103.0 0
296567.0 428789.0 0
295368.0 432400.0 0
301119.0 427941.0 0
299712.0 432625.0 0
304386.0 430939.0 0
308526.0 429664.0 0
312857.0 432654.0 0
312506.0 428740.0 0
317117.0 430091.0 0
321582.0 430343.0 0
322533.0 434796.0 0
324417.0 431974.0 0
328058.0 432288.0 0
332102.0 432841.0 0
335352.0 429956.0 0
340490.0 429416.0 0
339160.0 432865.0 0
342821.0 432806.0 0
345565.0 429446.0 0
350539.0 431292.0 0
354530.0 431992.0 0
356910.0 433392.0 0
361302.0 434071.0 0
363564.0 430911.0 0
367238.0 431799.0 0
370927.0 431224.0 0
373631.0 431280.0 0
376593.0 432431.0 0
374408.0 434790.0 0
382138.0 431898.0 0
379310.0 434037.0 0
386565.0 431446.0 0
385129.0 433579.0 0
387609.0 435419.0 0
389546.0 433629.0 0
392493.0 435993.0 0
100959.0 439774.0 0
104156.0 437436.0 0
104914.0 440806.0 0
108555.0 438040.0 0
110973.0 440577.0 0
116147.0 437370.0 0
112434.0 437644.0 0
113944.0 440648.0 0
120064.0 438806.0 0
122502.0 436302.0 0
126185.0 435944.0 0
124641.0 440134.0 0
129075.0 438258.0 0
132426.0 436342.0 0
135344.0 438119.0 0
138362.0 437041.0 0
140918.0 438934.0 0
141751.0 435454.0 0
145723.0 435954.0 0
149590.0 439011.0 0
154331.0 437016.0 0
161225.0 435051.0 0
158634.0 438662.0 0
163572.0 437479.0 0
168379.0 435303.0 0
173457.0 434537.0 0
176116.0 437345.0 0
178954.0 433668.0 0
187260.0 434811.0 0
183161.0 436692.0 0
191013.0 436475.0 0
194915.0 434552.0 0
198931.0 437416.0 0
202656.0 433778.0 0
206300.0 436403.0 0
209983.0 435575.0 0
213146.0 432023.0 0
217720.0 434484.0 0
224388.0 432078.0 0
222267.0 436176.0 0
226287.0 435139.0 0
230163.0 436207.0 0
233573.0 433397.0 0
238153.0 434638.0 0
242376.0 436167.0 0
246480.0 433677.0 0
250686.0 436752.0 0
256121.0 433021.0 0
255504.0 437033.0 0
260199.0 436021.0 0
264978.0 435087.0 0
268795.0 434366.0 0
272827.0 435728.0 0
274845.0 431750.0 0
278502.0 433836.0 0
282632.0 435975.0 0
287293.0 433748.0 0
292203.0 434846.0 0
296316.0 436261.0 0
304081.0 435319.0 0
308458.0 434346.0 0
312615.0 436723.0 0
316914.0 435025.0 0
320402.0 437651.0 0
320148.0 433120.0 0
324398.0 438573.0 0
326045.0 435273.0 0
330385.0 438000.0 0
336111.0 435760.0 0
341544.0 436399.0 0
347186.0 436045.0 0
351921.0 439275.0 0
353501.0 435630.0 0
358381.0 437063.0 0
362088.0 438059.0 0
365594.0 436049.0 0
370717.0 435189.0 0
369642.0 439601.0 0
377241.0 437341.0 0
373502.0 438560.0 0
376109.0 440723.0 0
382618.0 436078.0 0
380954.0 439207.0 0
385989.0 438613.0 0
390139.0 438803.0 0
395978.0 438072.0 0
393293.0 440461.0 0
399821.0 440925.0 0
93003.7 445839.0 0
97361.8 442382.0 0
101302.0 443205.0 0
104569.0 444621.0 0
108321.0 442681.0 0
110769.0 445732.0 0
111779.0 442995.0 0
114305.0 444066.0 0
117425.0 441881.0 0
121026.0 443215.0 0
117563.0 445258.0 0
124703.0 444612.0 0
128829.0 441900.0 0
132451.0 440172.0 0
132810.0 443752.0 0
136283.0 440968.0 0
139588.0 442961.0 0
144705.0 441284.0 0
148359.0 444280.0 0
153574.0 442201.0 0
158125.0 442824.0 0
161985.0 441544.0 0
166507.0 440407.0 0
171821.0 439591.0 0
177070.0 442047.0 0
173172.0 443924.0 0
179554.0 438401.0 0
182067.0 441225.0 0
187535.0 440587.0 0
191704.0 443209.0 0
194047.0 439921.0 0
197370.0 443607.0 0
201531.0 441712.0 0
203274.0 437975.0 0
210389.0 439261.0 0
206456.0 441335.0 0
213817.0 437098.0 0
213539.0 441907.0 0
217621.0 439266.0 0
221961.0 441440.0 0
226335.0 439180.0 0
230791.0 441057.0 0
234710.0 437922.0 0
239059.0 438826.0 0
241980.0 441708.0 0
245962.0 439207.0 0
249753.0 441497.0 0
253738.0 440831.0 0
258016.0 440295.0 0
269012.0 438166.0 0
264378.0 440206.0 0
272961.0 440921.0 0
278353.0 439029.0 0
281517.0 442912.0 0
285132.0 440023.0 0
289436.0 438350.0 0
289047.0 442271.0 0
293304.0 438980.0 0
297038.0 440826.0 0
300534.0 437964.0 0
304977.0 439889.0 0
308976.0 439324.0 0
312327.0 440137.0 0
316432.0 440202.0 0
321404.0 441712.0 0
326935.0 443215.0 0
335290.0 440408.0 0
339318.0 439726.0 0
343951.0 441173.0 0
349086.0 441669.0 0
355926.0 439756.0 0
353643.0 442696.0 0
357264.0 443333.0 0
360541.0 441374.0 0
365207.0 440945.0 0
368915.0 444312.0 0
373307.0 442313.0 0
377268.0 444223.0 0
379126.0 441589.0 0
382217.0 444236.0 0
383243.0 440962.0 0
387088.0 442987.0 0
391251.0 443156.0 0
396033.0 441929.0 0
395356.0 445744.0 0
403541.0 441848.0 0
400065.0 445143.0 0
403339.0 444478.0 0
406255.0 443758.0 0
409174.0 446571.0 0
84187.6 450330.0 0
88425.2 448008.0 0
92201.6 450889.0 0
95697.4 449324.0 0
97501.8 446205.0 0
99488.2 449662.0 0
101762.0 446318.0 0
104214.0 449229.0 0
107156.0 446295.0 0
109045.0 449972.0 0
114441.0 448234.0 0
120501.0 447601.0 0
124812.0 448629.0 0
128680.0 445840.0 0
128443.0 449403.0 0
135925.0 444814.0 0
132335.0 447995.0 0
135651.0 447999.0 0
138513.0 446592.0 0
143056.0 446545.0 0
147247.0 448912.0 0
151054.0 446940.0 0
155378.0 447153.0 0
160340.0 445434.0 0
164627.0 444427.0 0
163151.0 447701.0 0
166242.0 447768.0 0
168897.0 444321.0 0
169229.0 448276.0 0
171922.0 446914.0 0
175936.0 447467.0 0
180812.0 445621.0 0
184954.0 444928.0 0
189020.0 446599.0 0
193798.0 445881.0 0
197550.0 448675.0 0
201246.0 446158.0 0
209931.0 444825.0 0
205740.0 446913.0 0
213899.0 446915.0 0
217699.0 444130.0 0
225076.0 444312.0 0
221666.0 446542.0 0
228487.0 444551.0 0
234558.0 442110.0 0
232664.0 445824.0 0
237849.0 443676.0 0
241349.0 445944.0 0
246193.0 444898.0 0
252281.0 446122.0 0
256383.0 443634.0 0
260509.0 444231.0 0
264699.0 445270.0 0
268564.0 443808.0 0
272718.0 445809.0 0
277136.0 444487.0 0
280988.0 447266.0 0
285602.0 445318.0 0
290003.0 446058.0 0
293258.0 443247.0 0
297806.0 445464.0 0
301486.0 442758.0 0
302414.0 447504.0 0
305797.0 444176.0 0
311361.0 444391.0 0
317614.0 445272.0 0
314414.0 447748.0 0
322539.0 446248.0 0
326819.0 448684.0 0
331304.0 448406.0 0
332863.0 444091.0 0
338656.0 444369.0 0
335831.0 448676.0 0
347439.0 444433.0 0
343715.0 446123.0 0
348215.0 448208.0 0
351940.0 446136.0 0
355475.0 449377.0 0
356366.0 446268.0 0
359382.0 449166.0 0
360144.0 445706.0 0
362818.0 448809.0 0
363921.0 445049.0 0
366843.0 447906.0 0
373300.0 446020.0 0
371123.0 448214.0 0
375858.0 446506.0 0
375932.0 449720.0 0
379149.0 447621.0 0
383058.0 448049.0 0
386841.0 446767.0 0
389639.0 449707.0 0
390537.0 446651.0 0
393328.0 449893.0 0
397646.0 449643.0 0
401590.0 448818.0 0
405291.0 447489.0 0
406627.0 451414.0 0
413002.0 447747.0 0
410138.0 450330.0 0
413085.0 450420.0 0
415834.0 450120.0 0
73919.0 456030.0 0
80729.0 451495.0 0
78379.4 454742.0 0
82811.4 453465.0 0
85247.8 454864.0 0
86936.8 451625.0 0
89013.8 454601.0 0
93303.0 455636.0 0
96436.5 452668.0 0
97064.5 456244.0 0
101144.0 453492.0 0
105424.0 453394.0 0
108557.0 453934.0 0
112616.0 453663.0 0
117658.0 451286.0 0
117931.0 455344.0 0
122271.0 452781.0 0
126492.0 452129.0 0
130689.0 452111.0 0
134733.0 451550.0 0
138716.0 450104.0 0
137937.0 454629.0 0
142628.0 451514.0 0
146697.0 453242.0 0
151205.0 451042.0 0
155126.0 451966.0 0
159528.0 450484.0 0
164115.0 451157.0 0
167944.0 451610.0 0
172265.0 451044.0 0
179523.0 451424.0 0
184361.0 448995.0 0
188189.0 451605.0 0
192890.0 450344.0 0
194418.0 453698.0 0
198111.0 453782.0 0
202282.0 450753.0 0
209930.0 449516.0 0
214441.0 451386.0 0
217956.0 449144.0 0
221886.0 451267.0 0
226341.0 448709.0 0
231071.0 451449.0 0
237282.0 449892.0 0
243422.0 449857.0 0
248188.0 450129.0 0
253031.0 452179.0 0
257128.0 446855.0 0
257435.0 450355.0 0
262362.0 449498.0 0
268918.0 449940.0 0
275743.0 450300.0 0
280931.0 451786.0 0
284603.0 449954.0 0
289312.0 450762.0 0
293873.0 448237.0 0
298448.0 450528.0 0
294056.0 453041.0 0
307492.0 449065.0 0
312294.0 450445.0 0
316650.0 450363.0 0
319711.0 448808.0 0
322458.0 451015.0 0
318988.0 453767.0 0
326046.0 453584.0 0
329572.0 451897.0 0
333403.0 452527.0 0
338386.0 453682.0 0
340484.0 449442.0 0
342869.0 453462.0 0
344926.0 450833.0 0
348751.0 452266.0 0
352062.0 450548.0 0
354888.0 452410.0 0
358384.0 452629.0 0
362448.0 453487.0 0
365178.0 451271.0 0
366945.0 454859.0 0
368980.0 451532.0 0
372664.0 451736.0 0
371086.0 454939.0 0
375081.0 454406.0 0
378674.0 453101.0 0
380928.0 450975.0 0
382773.0 454905.0 0
385952.0 451833.0 0
390846.0 453507.0 0
395000.0 453476.0 0
398812.0 453013.0 0
403086.0 452983.0 0
408067.0 455225.0 0
411384.0 453985.0 0
414482.0 452939.0 0
418951.0 453007.0 0
415390.0 456394.0 0
423088.0 454918.0 0
67257.3 460364.0 0
71123.5 458915.0 0
74453.0 460273.0 0
75867.3 457780.0 0
78720.8 458884.0 0
82052.3 457013.0 0
81627.9 460807.0 0
85604.2 458621.0 0
89726.7 458543.0 0
93946.6 458889.0 0
96979.6 459536.0 0
100836.0 457340.0 0
104476.0 456905.0 0
108086.0 456692.0 0
111142.0 459399.0 0
114616.0 457333.0 0
116965.0 460016.0 0
124180.0 456152.0 0
121020.0 457639.0 0
124879.0 459850.0 0
127632.0 455510.0 0
129051.0 458891.0 0
132774.0 456060.0 0
139635.0 458776.0 0
142930.0 455907.0 0
146849.0 458056.0 0
149953.0 455468.0 0
153474.0 455367.0 0
155624.0 458431.0 0
157569.0 455076.0 0
159423.0 458715.0 0
161602.0 454929.0 0
165464.0 454594.0 0
169402.0 455969.0 0
175024.0 454859.0 0
172360.0 459018.0 0
180138.0 457341.0 0
183954.0 453965.0 0
187540.0 455909.0 0
191256.0 454789.0 0
194663.0 457457.0 0
206773.0 453666.0 0
211409.0 453729.0 0
214570.0 456121.0 0
218059.0 453735.0 0
222416.0 456079.0 0
226503.0 453663.0 0
228725.0 457052.0 0
233631.0 456358.0 0
238584.0 455618.0 0
242384.0 454050.0 0
246586.0 454722.0 0
250665.0 456695.0 0
255276.0 456951.0 0
259650.0 454518.0 0
264878.0 454656.0 0
270207.0 456334.0 0
275824.0 456355.0 0
280461.0 455752.0 0
285302.0 455054.0 0
290012.0 455229.0 0
293405.0 458001.0 0
296155.0 455612.0 0
298895.0 454800.0 0
303799.0 453617.0 0
309614.0 454501.0 0
314480.0 454643.0 0
318254.0 458843.0 0
322522.0 455894.0 0
325943.0 457662.0 0
330031.0 456755.0 0
334715.0 457171.0 0
338459.0 459050.0 0
342592.0 457605.0 0
346911.0 455932.0 0
350486.0 459531.0 0
352086.0 455243.0 0
356327.0 455545.0 0
359884.0 456810.0 0
364510.0 458412.0 0
369553.0 458344.0 0
374078.0 458154.0 0
379236.0 457945.0 0
383783.0 458594.0 0
387762.0 457130.0 0
392770.0 457115.0 0
397034.0 457442.0 0
400909.0 456545.0 0
404947.0 457613.0 0
408920.0 459045.0 0
411711.0 457862.0 0
414144.0 460613.0 0
417064.0 459685.0 0
419457.0 457214.0 0
419492.0 461048.0 0
423446.0 459523.0 0
426884.0 457236.0 0
427673.0 461515.0 0
430266.0 459165.0 0
57313.7 466684.0 0
64319.0 462511.0 0
60813.7 464551.0 0
64368.5 466244.0 0
68828.9 463103.0 0
72918.3 464037.0 0
77650.4 462152.0 0
78127.9 465655.0 0
81805.5 464314.0 0
84621.3 462239.0 0
87554.1 462317.0 0
85536.0 466205.0 0
91313.6 461980.0 0
89784.0 465568.0 0
95279.2 463674.0 0
99544.2 465297.0 0
100661.0 461212.0 0
103085.0 464510.0 0
105656.0 460808.0 0
109415.0 463881.0 0
113613.0 462779.0 0
121036.0 461284.0 0
117784.0 464882.0 0
123329.0 464734.0 0
128138.0 463357.0 0
135621.0 459791.0 0
131801.0 460762.0 0
138796.0 462973.0 0
143230.0 460697.0 0
147431.0 462452.0 0
151361.0 459825.0 0
151810.0 465035.0 0
155427.0 462101.0 0
160267.0 463491.0 0
164320.0 459051.0 0
168786.0 461373.0 0
173119.0 463437.0 0
176204.0 459858.0 0
179299.0 464273.0 0
184673.0 458820.0 0
189950.0 459910.0 0
194807.0 462311.0 0
199138.0 459235.0 0
202389.0 455701.0 0
203058.0 461974.0 0
205528.0 458510.0 0
210101.0 458174.0 0
214438.0 460255.0 0
211389.0 462155.0 0
219171.0 460163.0 0
224270.0 460753.0 0
228995.0 461436.0 0
232629.0 460428.0 0
237350.0 460735.0 0
242248.0 458494.0 0
247056.0 459844.0 0
251457.0 461128.0 0
256001.0 461864.0 0
260957.0 459758.0 0
265660.0 459180.0 0
269488.0 461723.0 0
274626.0 461621.0 0
280002.0 460452.0 0
284759.0 459970.0 0
288696.0 459088.0 0
292110.0 462001.0 0
297812.0 458297.0 0
296761.0 462775.0 0
301189.0 457783.0 0
301273.0 461249.0 0
304779.0 459211.0 0
308245.0 458371.0 0
308371.0 462211.0 0
312477.0 459614.0 0
316066.0 463270.0 0
323285.0 460343.0 0
327710.0 461197.0 0
325048.0 463934.0 0
332835.0 462306.0 0
338203.0 462950.0 0
342192.0 462042.0 0
344987.0 464312.0 0
346189.0 460635.0 0
353589.0 462855.0 0
349430.0 464445.0 0
355618.0 459398.0 0
356976.0 464587.0 0
360176.0 461327.0 0
364957.0 464224.0 0
368285.0 461349.0 0
372719.0 461901.0 0
377199.0 462459.0 0
382308.0 462333.0 0
386442.0 461254.0 0
391343.0 460505.0 0
389562.0 463842.0 0
393809.0 464710.0 0
395483.0 461063.0 0
398555.0 464667.0 0
401106.0 460844.0 0
406229.0 461796.0 0
408224.0 466070.0 0
410721.0 462953.0 0
417162.0 462864.0 0
414473.0 464175.0 0
420821.0 463660.0 0
424425.0 463541.0 0
427025.0 466409.0 0
433346.0 462134.0 0
429962.0 463905.0 0
435426.0 465600.0 0
438674.0 464363.0 0
441725.0 467149.0 0
53964.6 469856.0 0
58151.7 470259.0 0
60237.7 467226.0 0
62262.0 470013.0 0
68116.9 466409.0 0
66796.2 470492.0 0
71036.9 468251.0 0
75079.5 467561.0 0
77659.4 469415.0 0
79175.8 471470.0 0
81071.8 468128.0 0
84196.7 471201.0 0
88784.6 469552.0 0
92873.7 468026.0 0
91609.9 472030.0 0
97243.3 468313.0 0
105641.0 465908.0 0
101864.0 468270.0 0
104956.0 469396.0 0
108727.0 468587.0 0
112753.0 466653.0 0
115835.0 469985.0 0
120389.0 468268.0 0
124117.0 469171.0 0
128428.0 467651.0 0
133671.0 465222.0 0
138720.0 467318.0 0
142876.0 464954.0 0
142948.0 469747.0 0
147132.0 467196.0 0
150697.0 470007.0 0
156181.0 465735.0 0
158962.0 468166.0 0
164978.0 463997.0 0
163400.0 468510.0 0
168547.0 466378.0 0
173741.0 469010.0 0
183469.0 467817.0 0
185595.0 463657.0 0
187286.0 467897.0 0
190769.0 465278.0 0
195226.0 467002.0 0
199101.0 464303.0 0
200102.0 468360.0 0
203461.0 465881.0 0
207531.0 462601.0 0
207670.0 466974.0 0
210734.0 465190.0 0
214961.0 464968.0 0
219319.0 464505.0 0
223231.0 465323.0 0
227882.0 466191.0 0
233074.0 464651.0 0
237860.0 465569.0 0
242103.0 463715.0 0
248713.0 464442.0 0
252662.0 464751.0 0
259699.0 464573.0 0
256102.0 466754.0 0
264661.0 464334.0 0
271981.0 464722.0 0
273993.0 466280.0 0
278285.0 466199.0 0
283984.0 464946.0 0
288719.0 463487.0 0
292705.0 466400.0 0
300956.0 464797.0 0
304579.0 463456.0 0
307679.0 466189.0 0
312037.0 465514.0 0
316908.0 467564.0 0
320585.0 464228.0 0
320556.0 468102.0 0
324005.0 467416.0 0
328749.0 466553.0 0
333084.0 467844.0 0
336238.0 466041.0 0
341107.0 467215.0 0
346455.0 468544.0 0
350715.0 469352.0 0
353896.0 467172.0 0
357776.0 469236.0 0
360389.0 466092.0 0
363118.0 469614.0 0
367926.0 469028.0 0
370435.0 464971.0 0
372016.0 468852.0 0
375479.0 466487.0 0
380241.0 466064.0 0
382971.0 469015.0 0
385649.0 465986.0 0
390868.0 467682.0 0
396346.0 469606.0 0
401337.0 468539.0 0
404015.0 465391.0 0
405712.0 470148.0 0
409136.0 468948.0 0
413035.0 468032.0 0
417855.0 466878.0 0
417666.0 471310.0 0
422517.0 467059.0 0
420687.0 469908.0 0
424401.0 470404.0 0
428393.0 470031.0 0
431351.0 467331.0 0
432432.0 470868.0 0
438932.0 469474.0 0
435343.0 469505.0 0
442196.0 471911.0 0
445752.0 469936.0 0
42608.9 476912.0 0
45743.1 473841.0 0
47673.1 476970.0 0
50072.1 472458.0 0
52373.6 475678.0 0
55307.6 473260.0 0
59253.7 473822.0 0
63728.9 474185.0 0
68845.3 475124.0 0
70379.5 471833.0 0
74173.4 472010.0 0
76837.1 474653.0 0
80555.5 474834.0 0
88166.3 473469.0 0
84632.8 476179.0 0
91021.0 475496.0 0
95019.3 471145.0 0
99409.5 472055.0 0
103207.0 471373.0 0
102939.0 473890.0 0
106758.0 473070.0 0
111612.0 471122.0 0
110974.0 474637.0 0
115354.0 475100.0 0
119814.0 472203.0 0
123418.0 473523.0 0
127750.0 472480.0 0
131574.0 469685.0 0
132451.0 473523.0 0
135389.0 470101.0 0
136534.0 474392.0 0
139394.0 471537.0 0
139924.0 474671.0 0
143110.0 474560.0 0
146634.0 471867.0 0
149890.0 473765.0 0
154785.0 469275.0 0
153569.0 473427.0 0
158458.0 472751.0 0
163459.0 473697.0 0
167637.0 471066.0 0
170766.0 473355.0 0
173990.0 473790.0 0
179651.0 470789.0 0
185301.0 472426.0 0
191194.0 470666.0 0
196809.0 471729.0 0
204429.0 470431.0 0
208121.0 472521.0 0
211891.0 469832.0 0
218793.0 469889.0 0
224312.0 469292.0 0
228397.0 471418.0 0
233907.0 470445.0 0
239587.0 469911.0 0
245256.0 468661.0 0
251518.0 469677.0 0
256795.0 471147.0 0
261301.0 469135.0 0
269360.0 467937.0 0
265734.0 472046.0 0
271058.0 472350.0 0
274411.0 469943.0 0
279495.0 472401.0 0
284394.0 470323.0 0
288186.0 468085.0 0
289137.0 472767.0 0
293167.0 471205.0 0
298163.0 469253.0 0
303812.0 467925.0 0
302833.0 472387.0 0
308084.0 471438.0 0
313352.0 470694.0 0
318091.0 472484.0 0
322276.0 471131.0 0
326757.0 471208.0 0
331404.0 471537.0 0
335561.0 472752.0 0
336652.0 469435.0 0
339564.0 472232.0 0
343671.0 472161.0 0
348954.0 473975.0 0
353856.0 471497.0 0
357473.0 474096.0 0
360373.0 472221.0 0
362925.0 474273.0 0
366842.0 473439.0 0
371181.0 472443.0 0
378801.0 470549.0 0
374805.0 470807.0 0
379692.0 475122.0 0
383610.0 473181.0 0
387683.0 470754.0 0
390772.0 473948.0 0
391722.0 471216.0 0
394283.0 473826.0 0
397886.0 475586.0 0
401422.0 472655.0 0
406020.0 474398.0 0
409500.0 476272.0 0
410365.0 472430.0 0
414453.0 471871.0 0
413641.0 473832.0 0
416512.0 475040.0 0
421466.0 471878.0 0
420226.0 474580.0 0
423833.0 474041.0 0
426612.0 472847.0 0
430274.0 473888.0 0
434072.0 475304.0 0
436195.0 472878.0 0
439422.0 473498.0 0
440793.0 477050.0 0
443497.0 475211.0 0
445754.0 473546.0 0
447564.0 475259.0 0
450106.0 472476.0 0
454173.0 474222.0 0
452938.0 477382.0 0
457400.0 475240.0 0
38172.0 477795.0 0
35482.0 481036.0 0
39864.6 480468.0 0
45041.4 480301.0 0
48723.1 480762.0 0
51679.3 479505.0 0
56195.3 477073.0 0
55433.8 481629.0 0
60304.1 478284.0 0
64837.4 478313.0 0
68931.4 479592.0 0
72923.9 476775.0 0
76991.6 478522.0 0
81363.5 478341.0 0
84404.5 480831.0 0
88111.1 477754.0 0
95242.5 475512.0 0
91840.9 479114.0 0
100421.0 476156.0 0
98519.0 478126.0 0
100760.0 480418.0 0
103740.0 477129.0 0
104401.0 480778.0 0
107999.0 477934.0 0
112065.0 478387.0 0
119947.0 477067.0 0
124661.0 477307.0 0
129484.0 477433.0 0
134403.0 478171.0 0
139521.0 478472.0 0
145087.0 479532.0 0
146816.0 475564.0 0
150342.0 477938.0 0
155564.0 477830.0 0
160490.0 476897.0 0
163864.0 478441.0 0
167494.0 475837.0 0
172326.0 477478.0 0
177266.0 475544.0 0
181255.0 475064.0 0
184048.0 477623.0 0
180250.0 478187.0 0
189108.0 476320.0 0
193324.0 475263.0 0
197397.0 477126.0 0
201078.0 474113.0 0
205414.0 475983.0 0
201599.0 478011.0 0
210802.0 475787.0 0
214996.0 473650.0 0
215072.0 476872.0 0
219175.0 475850.0 0
223676.0 473844.0 0
227948.0 476358.0 0
232622.0 475973.0 0
237296.0 474520.0 0
239590.0 477155.0 0
241952.0 474502.0 0
246332.0 473861.0 0
250624.0 475472.0 0
255161.0 475086.0 0
260612.0 475368.0 0
269018.0 476070.0 0
274631.0 476225.0 0
284751.0 475564.0 0
289556.0 477479.0 0
294541.0 476091.0 0
299265.0 474522.0 0
303192.0 476942.0 0
308785.0 477780.0 0
314216.0 475858.0 0
323707.0 475540.0 0
319180.0 477547.0 0
328643.0 475695.0 0
333372.0 475998.0 0
338278.0 476288.0 0
343356.0 476826.0 0
347676.0 478816.0 0
353591.0 475473.0 0
351821.0 479085.0 0
356757.0 479099.0 0
360791.0 476976.0 0
365432.0 478282.0 0
370577.0 476913.0 0
374660.0 479215.0 0
375405.0 475036.0 0
378967.0 479653.0 0
383307.0 477782.0 0
387925.0 475846.0 0
386506.0 479882.0 0
390122.0 479584.0 0
393015.0 477225.0 0
396275.0 478932.0 0
399444.0 478945.0 0
402609.0 476985.0 0
407003.0 478967.0 0
413046.0 476629.0 0
411112.0 479807.0 0
416039.0 479770.0 0
419253.0 477715.0 0
423441.0 478338.0 0
427230.0 476295.0 0
428308.0 480367.0 0
431597.0 478134.0 0
437462.0 476667.0 0
435699.0 479323.0 0
439777.0 480907.0 0
445827.0 477433.0 0
443645.0 479407.0 0
449691.0 477482.0 0
448002.0 480747.0 0
451488.0 481287.0 0
454277.0 480810.0 0
456850.0 478259.0 0
460091.0 477912.0 0
457408.0 481990.0 0
460720.0 481120.0 0
463842.0 479913.0 0
466978.0 482323.0 0
28202.4 484779.0 0
31783.2 483239.0 0
29246.3 487492.0 0
33296.9 486434.0 0
37071.7 484582.0 0
43202.9 482540.0 0
40253.5 484399.0 0
47107.8 483403.0 0
44361.9 485932.0 0
51116.0 484137.0 0
54113.7 486120.0 0
59112.3 481933.0 0
58052.5 485441.0 0
61749.4 481757.0 0
63174.4 485648.0 0
65624.2 481817.0 0
68330.2 484086.0 0
72550.4 481473.0 0
71268.3 485547.0 0
76235.9 482441.0 0
74349.3 485457.0 0
78028.8 485440.0 0
80105.7 481686.0 0
82402.3 485072.0 0
88477.0 481883.0 0
85868.2 484415.0 0
91925.8 482998.0 0
95771.6 481170.0 0
98628.7 484572.0 0
102290.0 483630.0 0
107659.0 481365.0 0
106272.0 484681.0 0
111111.0 482624.0 0
113235.0 485987.0 0
115622.0 480470.0 0
119749.0 481199.0 0
117518.0 485653.0 0
122588.0 480384.0 0
122021.0 483505.0 0
126327.0 482277.0 0
131410.0 481471.0 0
135691.0 482719.0 0
140987.0 483090.0 0
145862.0 484882.0 0
149576.0 482005.0 0
159552.0 481044.0 0
163838.0 482966.0 0
167731.0 480290.0 0
171890.0 482097.0 0
176669.0 480440.0 0
181961.0 482566.0 0
187352.0 480671.0 0
192824.0 480571.0 0
198294.0 481985.0 0
203185.0 481794.0 0
207919.0 480508.0 0
213052.0 480700.0 0
217143.0 479340.0 0
219902.0 481381.0 0
223889.0 479163.0 0
227912.0 479875.0 0
231911.0 481561.0 0
236480.0 478999.0 0
244970.0 478271.0 0
240787.0 480283.0 0
249469.0 480574.0 0
255384.0 480395.0 0
260927.0 481400.0 0
265179.0 479073.0 0
270485.0 481345.0 0
276050.0 481811.0 0
280074.0 478474.0 0
286190.0 480925.0 0
291338.0 481575.0 0
295938.0 481455.0 0
298812.0 478383.0 0
301642.0 481409.0 0
306274.0 483193.0 0
312954.0 479783.0 0
311413.0 483016.0 0
316526.0 481948.0 0
321694.0 483053.0 0
322627.0 479537.0 0
325959.0 479651.0 0
326615.0 484364.0 0
330822.0 480718.0 0
335653.0 479570.0 0
334865.0 482771.0 0
340013.0 481479.0 0
344868.0 481324.0 0
349154.0 483201.0 0
353955.0 483586.0 0
357837.0 483219.0 0
361596.0 481433.0 0
367439.0 483397.0 0
368700.0 480158.0 0
371555.0 481361.0 0
375646.0 482995.0 0
379806.0 484454.0 0
383411.0 482087.0 0
388503.0 483786.0 0
393579.0 482014.0 0
398013.0 481862.0 0
400284.0 485394.0 0
403148.0 481908.0 0
408655.0 483909.0 0
413334.0 482960.0 0
417507.0 484893.0 0
420616.0 482074.0 0
425293.0 483159.0 0
429993.0 484885.0 0
432943.0 482058.0 0
434027.0 486312.0 0
436672.0 483498.0 0
444320.0 482840.0 0
441206.0 485211.0 0
451225.0 484307.0 0
448219.0 484424.0 0
454451.0 483824.0 0
460296.0 484776.0 0
457163.0 486043.0 0
463858.0 483293.0 0
464029.0 487239.0 0
470635.0 484557.0 0
467138.0 485877.0 0
474198.0 486318.0 0
18228.5 491860.0 0
21169.2 489186.0 0
22444.9 492276.0 0
24966.1 487854.0 0
26634.1 491416.0 0
31291.9 490631.0 0
36502.5 488327.0 0
34694.7 491019.0 0
37707.3 491127.0 0
40515.6 488756.0 0
45052.3 490581.0 0
48475.7 487657.0 0
51728.8 487953.0 0
49765.8 491631.0 0
55010.7 490663.0 0
60070.1 489346.0 0
66470.1 487382.0 0
64423.1 491056.0 0
68835.7 488258.0 0
72412.9 488763.0 0
75718.7 488321.0 0
79758.7 489533.0 0
85017.9 488135.0 0
89353.3 486496.0 0
94222.5 485865.0 0
92272.4 489798.0 0
97024.6 488728.0 0
101842.0 487847.0 0
106172.0 488603.0 0
110079.0 487133.0 0
113695.0 490021.0 0
118481.0 490771.0 0
123267.0 488019.0 0
127369.0 486264.0 0
130636.0 485015.0 0
133486.0 486930.0 0
137595.0 487215.0 0
141924.0 487529.0 0
148194.0 488168.0 0
150133.0 485478.0 0
154549.0 483699.0 0
152124.0 488952.0 0
159655.0 485513.0 0
156703.0 488410.0 0
163965.0 488561.0 0
168034.0 484664.0 0
169256.0 489060.0 0
171658.0 485788.0 0
175263.0 484656.0 0
173886.0 488983.0 0
178923.0 487805.0 0
184302.0 488910.0 0
186701.0 484895.0 0
188271.0 488069.0 0
191021.0 485728.0 0
195678.0 486147.0 0
200535.0 486289.0 0
205411.0 486270.0 0
210502.0 485213.0 0
216634.0 484158.0 0
219358.0 487258.0 0
222201.0 484558.0 0
226771.0 483644.0 0
230336.0 486427.0 0
237403.0 484316.0 0
244653.0 484694.0 0
240460.0 487829.0 0
251773.0 485173.0 0
256356.0 485715.0 0
260710.0 486060.0 0
265445.0 484335.0 0
270478.0 487251.0 0
275659.0 486593.0 0
281481.0 483805.0 0
283262.0 488149.0 0
285993.0 485432.0 0
289473.0 484913.0 0
293697.0 486223.0 0
299215.0 485665.0 0
304065.0 488343.0 0
309480.0 487719.0 0
314533.0 486813.0 0
318723.0 486031.0 0
322762.0 488443.0 0
332111.0 486410.0 0
336732.0 485490.0 0
340982.0 487201.0 0
345146.0 485097.0 0
348172.0 487137.0 0
351396.0 487572.0 0
355769.0 488063.0 0
360206.0 486631.0 0
363971.0 484687.0 0
364764.0 487987.0 0
368893.0 488269.0 0
371978.0 485376.0 0
373102.0 489400.0 0
375535.0 486729.0 0
376074.0 489423.0 0
378526.0 487918.0 0
381377.0 488725.0 0
384239.0 486526.0 0
388986.0 489168.0 0
392306.0 485934.0 0
394409.0 489755.0 0
396162.0 485697.0 0
399650.0 489825.0 0
404592.0 487486.0 0
409483.0 488924.0 0
413586.0 487264.0 0
418814.0 489597.0 0
422758.0 487182.0 0
427080.0 487418.0 0
426472.0 490519.0 0
431205.0 490362.0 0
435293.0 490028.0 0
438017.0 487306.0 0
438907.0 491102.0 0
445650.0 486900.0 0
442660.0 489838.0 0
449523.0 487699.0 0
446992.0 490664.0 0
450886.0 491261.0 0
453544.0 487680.0 0
454404.0 491383.0 0
457265.0 489649.0 0
460299.0 488946.0 0
464178.0 490787.0 0
466746.0 489964.0 0
470381.0 488677.0 0
469276.0 492487.0 0
474530.0 489640.0 0
473334.0 493030.0 0
477537.0 488428.0 0
477550.0 492062.0 0
480666.0 490433.0 0
483779.0 492637.0 0
11625.5 495577.0 0
14809.9 493594.0 0
16001.9 496568.0 0
20354.0 495726.0 0
25014.4 495784.0 0
29244.2 494015.0 0
29978.4 497071.0 0
32746.2 494086.0 0
36907.3 494042.0 0
40991.8 493004.0 0
39556.0 497334.0 0
45461.0 495805.0 0
51907.4 495224.0 0
56658.6 495511.0 0
59834.9 492568.0 0
61323.7 495638.0 0
65986.7 495292.0 0
69429.2 491842.0 0
70846.1 496065.0 0
74700.1 492443.0 0
83559.8 492517.0 0
79031.1 494443.0 0
88028.0 491189.0 0
86543.5 495385.0 0
90633.0 494325.0 0
95080.4 492648.0 0
99811.8 491974.0 0
104150.0 491871.0 0
108904.0 491467.0 0
111839.0 494804.0 0
116023.0 494400.0 0
121899.0 492698.0 0
125379.0 492837.0 0
129493.0 490171.0 0
131945.0 493867.0 0
134646.0 490826.0 0
139653.0 492017.0 0
135573.0 494882.0 0
144854.0 490416.0 0
148656.0 490838.0 0
150685.0 493530.0 0
155101.0 493223.0 0
159667.0 491661.0 0
167371.0 493170.0 0
171613.0 492979.0 0
176418.0 493245.0 0
180936.0 492301.0 0
184482.0 493558.0 0
188859.0 492053.0 0
193015.0 489808.0 0
198067.0 491257.0 0
203874.0 491291.0 0
208810.0 490196.0 0
214678.0 489666.0 0
220232.0 491262.0 0
224664.0 488716.0 0
229323.0 490910.0 0
234197.0 489019.0 0
238797.0 491889.0 0
244351.0 491164.0 0
248794.0 488883.0 0
253439.0 489553.0 0
250627.0 492913.0 0
258115.0 490005.0 0
264618.0 491189.0 0
274140.0 490802.0 0
270429.0 492078.0 0
279079.0 490371.0 0
284060.0 492716.0 0
288990.0 489818.0 0
294784.0 492025.0 0
299641.0 490649.0 0
303174.0 492945.0 0
307891.0 493001.0 0
313177.0 491867.0 0
317801.0 490113.0 0
321021.0 493416.0 0
328109.0 489592.0 0
325425.0 493264.0 0
331897.0 490986.0 0
336342.0 490799.0 0
341585.0 492085.0 0
345594.0 489818.0 0
349454.0 491710.0 0
353108.0 491010.0 0
357002.0 492577.0 0
361773.0 491288.0 0
364255.0 494540.0 0
366339.0 491766.0 0
370694.0 492566.0 0
374663.0 494146.0 0
375208.0 491168.0 0
379164.0 492361.0 0
384058.0 491126.0 0
387521.0 494058.0 0
391916.0 493148.0 0
396696.0 495032.0 0
402084.0 493776.0 0
406023.0 491939.0 0
408803.0 495184.0 0
409944.0 492151.0 0
411194.0 494144.0 0
414437.0 492468.0 0
419771.0 494612.0 0
423713.0 492438.0 0
428236.0 493619.0 0
426178.0 495793.0 0
432127.0 494808.0 0
436157.0 494301.0 0
441017.0 494248.0 0
444771.0 493186.0 0
448641.0 494796.0 0
453322.0 494573.0 0
457241.0 493357.0 0
461532.0 492644.0 0
459996.0 496050.0 0
465794.0 493115.0 0
464444.0 497036.0 0
469187.0 496489.0 0
473358.0 496984.0 0
477035.0 495688.0 0
480943.0 494770.0 0
484050.0 497798.0 0
486876.0 495294.0 0
490461.0 497174.0 0
8428.69 497827.0 0
5116.7 499218.0 0
7581.97 501814.0 0
12181.7 499932.0 0
15603.9 499482.0 0
10803.3 504017.0 0
18690.4 499089.0 0
22538.7 499665.0 0
15886.1 502311.0 0
19426.8 501784.0 0
26699.7 499658.0 0
31041.6 501518.0 0
34394.0 497669.0 0
36216.8 501137.0 0
40076.3 500723.0 0
49883.8 499580.0 0
54222.6 498465.0 0
58542.5 500452.0 0
63264.4 498907.0 0
67364.0 499473.0 0
71709.5 500601.0 0
75313.0 497522.0 0
82650.5 496526.0 0
79464.2 498665.0 0
84742.0 498760.0 0
88688.8 498255.0 0
93375.0 496344.0 0
91679.9 498348.0 0
97529.3 495971.0 0
94553.3 499643.0 0
102580.0 495809.0 0
107200.0 495771.0 0
105082.0 500060.0 0
110168.0 499333.0 0
113956.0 497831.0 0
117463.0 498514.0 0
120248.0 495564.0 0
121838.0 499567.0 0
124017.0 496244.0 0
126202.0 499486.0 0
128469.0 495729.0 0
132045.0 496950.0 0
135384.0 499331.0 0
139416.0 497025.0 0
143272.0 495130.0 0
142834.0 499296.0 0
147084.0 493951.0 0
146957.0 498046.0 0
152202.0 497908.0 0
158970.0 497774.0 0
163245.0 493885.0 0
165877.0 497868.0 0
171306.0 497588.0 0
176794.0 498656.0 0
181505.0 496443.0 0
186818.0 497067.0 0
193278.0 494140.0 0
197240.0 497100.0 0
201617.0 495324.0 0
205432.0 497059.0 0
209668.0 495160.0 0
214935.0 495816.0 0
219825.0 495679.0 0
224211.0 494047.0 0
228552.0 495492.0 0
233298.0 494426.0 0
237371.0 496391.0 0
241905.0 496428.0 0
247036.0 495966.0 0
251147.0 496946.0 0
255614.0 495035.0 0
260608.0 495560.0 0
264686.0 498428.0 0
270424.0 496670.0 0
275164.0 495054.0 0
279852.0 495810.0 0
284609.0 497779.0 0
290160.0 496300.0 0
299303.0 495513.0 0
295202.0 497382.0 0
304700.0 496831.0 0
309246.0 498042.0 0
313945.0 497072.0 0
316947.0 494069.0 0
319323.0 498476.0 0
326165.0 499021.0 0
329979.0 494208.0 0
334279.0 495331.0 0
331620.0 498328.0 0
339277.0 496244.0 0
345589.0 494938.0 0
349053.0 499275.0 0
352584.0 495215.0 0
356590.0 496824.0 0
360725.0 495880.0 0
364102.0 499089.0 0
367782.0 496007.0 0
372806.0 498575.0 0
378166.0 497572.0 0
382988.0 495853.0 0
383255.0 499531.0 0
387972.0 499499.0 0
391042.0 495983.0 0
393239.0 498632.0 0
401415.0 498854.0 0
405398.0 496806.0 0
409212.0 499992.0 0
412870.0 496985.0 0
414238.0 500857.0 0
416947.0 497753.0 0
421265.0 499092.0 0
423442.0 496333.0 0
426060.0 499787.0 0
429884.0 497319.0 0
434746.0 498520.0 0
439635.0 498050.0 0
444082.0 496868.0 0
447888.0 498979.0 0
456493.0 497136.0 0
452354.0 498517.0 0
460591.0 499676.0 0
456607.0 501012.0 0
465039.0 502154.0 0
468585.0 500574.0 0
476056.0 499529.0 0
472505.0 500830.0 0
479899.0 499384.0 0
480806.0 503287.0 0
483744.0 501438.0 0
487853.0 500878.0 0
491910.0 500952.0 0
493714.0 498269.0 0
497011.0 500070.0 0
2655.19 501494.0 0
1715.36 505058.0 0
5772.89 505376.0 0
10243.2 508182.0 0
6168.15 509107.0 0
14655.3 505544.0 0
18885.1 504527.0 0
21945.6 503131.0 0
22125.1 505913.0 0
25675.6 503511.0 0
29682.9 505384.0 0
34098.1 504757.0 0
36098.7 507391.0 0
38962.6 504602.0 0
42474.7 506987.0 0
44249.2 502183.0 0
46183.6 506253.0 0
49430.6 503998.0 0
52123.4 505666.0 0
53597.3 502279.0 0
56062.9 505607.0 0
60009.6 504990.0 0
63708.8 503010.0 0
68129.5 503151.0 0
71489.5 504987.0 0
76111.9 502380.0 0
79120.9 505584.0 0
81588.3 502178.0 0
86354.8 502601.0 0
90980.2 501697.0 0
94752.4 504367.0 0
99454.3 500653.0 0
102833.0 503099.0 0
105466.0 505312.0 0
107750.0 502372.0 0
110614.0 504575.0 0
114192.0 501588.0 0
118531.0 502820.0 0
123314.0 504102.0 0
127261.0 503204.0 0
130659.0 500663.0 0
134517.0 503567.0 0
139287.0 501367.0 0
143762.0 504530.0 0
149053.0 502045.0 0
154623.0 503352.0 0
159510.0 503030.0 0
162807.0 501475.0 0
167265.0 503487.0 0
172773.0 502852.0 0
177471.0 503507.0 0
181933.0 501285.0 0
186752.0 501552.0 0
191918.0 499868.0 0
197045.0 501588.0 0
201593.0 500266.0 0
206263.0 501093.0 0
209681.0 499518.0 0
213447.0 500445.0 0
218166.0 499982.0 0
224009.0 499943.0 0
229847.0 499827.0 0
234210.0 499054.0 0
238537.0 500850.0 0
243793.0 501113.0 0
249104.0 501170.0 0
254817.0 500816.0 0
259424.0 499374.0 0
261720.0 502624.0 0
268903.0 500828.0 0
274869.0 499678.0 0
280389.0 501776.0 0
285890.0 502014.0 0
290218.0 502067.0 0
296006.0 501666.0 0
301450.0 500743.0 0
305946.0 500453.0 0
307564.0 502864.0 0
315281.0 501212.0 0
311296.0 502536.0 0
318083.0 502854.0 0
322008.0 502788.0 0
332441.0 502251.0 0
335479.0 499448.0 0
336276.0 503441.0 0
339030.0 500774.0 0
343431.0 499988.0 0
340837.0 504718.0 0
351825.0 503421.0 0
354267.0 499976.0 0
359274.0 500602.0 0
356115.0 504495.0 0
362813.0 502020.0 0
365758.0 503676.0 0
368215.0 500434.0 0
376415.0 502643.0 0
380483.0 501154.0 0
384334.0 503255.0 0
388826.0 505124.0 0
392421.0 502678.0 0
395431.0 504159.0 0
397158.0 501130.0 0
401391.0 503555.0 0
404926.0 501683.0 0
408071.0 503777.0 0
411883.0 504140.0 0
415561.0 504537.0 0
418362.0 501849.0 0
422788.0 503628.0 0
431080.0 501456.0 0
427884.0 504654.0 0
434994.0 502576.0 0
433155.0 506013.0 0
438541.0 501753.0 0
436865.0 504921.0 0
440672.0 505621.0 0
443996.0 501942.0 0
449508.0 502360.0 0
453298.0 502456.0 0
452102.0 505376.0 0
456192.0 504802.0 0
460319.0 504044.0 0
464707.0 507156.0 0
470611.0 505357.0 0
476462.0 503598.0 0
480806.0 507083.0 0
484804.0 504935.0 0
493596.0 503307.0 0
497220.0 504424.0 0
2082.84 508141.0 0
8520.38 512181.0 0
14559.8 509036.0 0
12565.4 511999.0 0
18465.2 507499.0 0
17903.1 511984.0 0
21782.2 509105.0 0
26124.2 508091.0 0
31944.5 508750.0 0
36773.7 511243.0 0
39346.7 508120.0 0
41687.1 510796.0 0
45754.6 509937.0 0
49552.7 507941.0 0
53216.0 509423.0 0
59039.6 508947.0 0
62886.6 510219.0 0
62564.8 507053.0 0
66548.8 507174.0 0
70836.0 509526.0 0
75224.6 507223.0 0
78814.5 509506.0 0
83341.3 507185.0 0
89479.7 507523.0 0
95110.0 509066.0 0
99688.4 506319.0 0
103145.0 510122.0 0
108244.0 509238.0 0
112185.0 508226.0 0
115101.0 505824.0 0
119539.0 507316.0 0
126554.0 506673.0 0
123962.0 509040.0 0
130496.0 505651.0 0
134520.0 508268.0 0
138233.0 505274.0 0
145683.0 509962.0 0
149707.0 507098.0 0
158199.0 507356.0 0
162344.0 505637.0 0
165810.0 508641.0 0
170551.0 507743.0 0
175355.0 507749.0 0
180687.0 506892.0 0
184776.0 504877.0 0
189641.0 506258.0 0
194687.0 504667.0 0
199559.0 505763.0 0
203970.0 503933.0 0
205071.0 508715.0 0
210049.0 504542.0 0
215794.0 504516.0 0
219163.0 508404.0 0
220431.0 503903.0 0
223638.0 506565.0 0
227778.0 504412.0 0
233517.0 504152.0 0
237501.0 507714.0 0
241344.0 505185.0 0
246730.0 507025.0 0
252645.0 505832.0 0
257456.0 504799.0 0
261735.0 507719.0 0
266013.0 503958.0 0
271364.0 504442.0 0
276228.0 505653.0 0
281262.0 508627.0 0
287397.0 506627.0 0
293366.0 506487.0 0
299283.0 506082.0 0
305080.0 506188.0 0
310313.0 507396.0 0
315274.0 505743.0 0
319666.0 505627.0 0
323982.0 506869.0 0
328855.0 504300.0 0
328717.0 509180.0 0
333229.0 506619.0 0
343470.0 508928.0 0
346918.0 504967.0 0
352252.0 508531.0 0
357697.0 509012.0 0
361406.0 505669.0 0
366405.0 508457.0 0
371110.0 504739.0 0
376270.0 508380.0 0
380517.0 505435.0 0
381068.0 509342.0 0
384768.0 507735.0 0
393765.0 507637.0 0
398277.0 505673.0 0
398171.0 509796.0 0
401685.0 507897.0 0
405068.0 505579.0 0
405812.0 509855.0 0
409546.0 507393.0 0
414601.0 508787.0 0
419124.0 506388.0 0
419148.0 510652.0 0
421821.0 508605.0 0
424506.0 507637.0 0
429201.0 510021.0 0
434447.0 510087.0 0
437558.0 508335.0 0
442564.0 510333.0 0
444774.0 506663.0 0
447405.0 509574.0 0
448179.0 505746.0 0
450774.0 512053.0 0
451144.0 508585.0 0
454753.0 507704.0 0
454560.0 510852.0 0
459202.0 508603.0 0
458243.0 512779.0 0
463668.0 512505.0 0
468453.0 510408.0 0
472370.0 509785.0 0
476162.0 508319.0 0
475252.0 512387.0 0
484835.0 509211.0 0
489707.0 506017.0 0
494150.0 506660.0 0
493713.0 510115.0 0
497429.0 508586.0 0
3433.61 512683.0 0
10650.5 515928.0 0
6886.36 515744.0 0
14748.7 515347.0 0
18740.7 517215.0 0
23370.6 513319.0 0
28243.8 511934.0 0
27916.2 516811.0 0
32290.9 513577.0 0
36061.2 515283.0 0
40346.8 514888.0 0
45281.7 514301.0 0
49431.8 511789.0 0
52675.6 513786.0 0
49347.9 515066.0 0
56147.8 511990.0 0
59752.6 513209.0 0
63056.6 514213.0 0
66658.3 511838.0 0
70377.1 514052.0 0
74665.0 511419.0 0
74339.6 515635.0 0
77725.1 513135.0 0
82695.3 512741.0 0
87825.6 512506.0 0
92120.0 512137.0 0
95806.6 513142.0 0
98493.2 510756.0 0
100364.0 515255.0 0
106107.0 514018.0 0
110699.0 512999.0 0
115478.0 511060.0 0
120598.0 511519.0 0
124208.0 513726.0 0
128904.0 510805.0 0
135234.0 512676.0 0
139955.0 510157.0 0
154225.0 509148.0 0
150388.0 513010.0 0
157515.0 513748.0 0
161465.0 509883.0 0
163674.0 513585.0 0
168751.0 512484.0 0
174031.0 512760.0 0
179884.0 512711.0 0
185033.0 509947.0 0
194534.0 509349.0 0
189653.0 512262.0 0
199395.0 511986.0 0
204125.0 513954.0 0
208843.0 513326.0 0
213565.0 509844.0 0
223435.0 511400.0 0
228784.0 509832.0 0
233701.0 509410.0 0
237334.0 511549.0 0
241639.0 510446.0 0
246640.0 513397.0 0
251893.0 511256.0 0
256500.0 509262.0 0
263149.0 513204.0 0
267989.0 509652.0 0
273499.0 509057.0 0
272507.0 513446.0 0
276655.0 511712.0 0
286017.0 511330.0 0
290943.0 511964.0 0
297335.0 511944.0 0
302183.0 510012.0 0
302729.0 513804.0 0
306083.0 511313.0 0
310480.0 512179.0 0
313723.0 509620.0 0
315360.0 513703.0 0
318761.0 509656.0 0
323772.0 512917.0 0
333020.0 511139.0 0
337998.0 510122.0 0
342883.0 513287.0 0
347507.0 510949.0 0
351299.0 513857.0 0
355782.0 512906.0 0
359701.0 513839.0 0
362055.0 510584.0 0
371075.0 510151.0 0
374583.0 514199.0 0
379467.0 513123.0 0
384495.0 512893.0 0
389303.0 510351.0 0
394683.0 514021.0 0
399469.0 512873.0 0
401828.0 514851.0 0
402421.0 511620.0 0
406066.0 514258.0 0
410435.0 511855.0 0
415677.0 514833.0 0
420375.0 514210.0 0
423736.0 511959.0 0
427533.0 515146.0 0
433346.0 514576.0 0
438163.0 512747.0 0
442305.0 515154.0 0
446769.0 513891.0 0
450653.0 515707.0 0
453946.0 514310.0 0
456929.0 516346.0 0
460985.0 515945.0 0
468304.0 514843.0 0
471613.0 512665.0 0
472915.0 515777.0 0
477379.0 515802.0 0
480329.0 511713.0 0
481522.0 516506.0 0
485086.0 513617.0 0
489392.0 511363.0 0
489730.0 515800.0 0
493547.0 513810.0 0
497620.0 512702.0 0
3135.52 518161.0 0
8179.04 519517.0 0
13615.9 520357.0 0
20568.2 521125.0 0
23260.3 517844.0 0
25089.7 521197.0 0
29780.9 521499.0 0
32846.9 517841.0 0
34110.4 521798.0 0
37819.5 518920.0 0
43199.6 518204.0 0
47474.9 518370.0 0
51837.2 517578.0 0
54690.8 519994.0 0
56484.8 516370.0 0
58940.0 520576.0 0
60746.6 516955.0 0
66027.8 516660.0 0
70275.1 518479.0 0
74429.5 520837.0 0
78516.4 516613.0 0
78910.6 520422.0 0
82165.7 517922.0 0
84822.4 519493.0 0
86253.3 516372.0 0
89469.7 519369.0 0
90401.7 515416.0 0
94633.6 517921.0 0
104642.0 518547.0 0
113723.0 516194.0 0
109261.0 517305.0 0
112585.0 520512.0 0
118661.0 515946.0 0
123042.0 519027.0 0
128263.0 516765.0 0
131917.0 514366.0 0
134984.0 517259.0 0
138734.0 515101.0 0
144050.0 515419.0 0
139556.0 519199.0 0
148363.0 518596.0 0
153066.0 518431.0 0
158007.0 519312.0 0
162072.0 517883.0 0
166712.0 516623.0 0
171126.0 517100.0 0
176617.0 518061.0 0
184789.0 514246.0 0
182384.0 517846.0 0
187981.0 516993.0 0
194283.0 514767.0 0
197665.0 517816.0 0
202526.0 518740.0 0
207651.0 517967.0 0
213050.0 516384.0 0
218241.0 514123.0 0
223698.0 516964.0 0
228827.0 515247.0 0
233859.0 514161.0 0
235802.0 517838.0 0
239732.0 515859.0 0
244386.0 518226.0 0
248865.0 518129.0 0
253107.0 516162.0 0
258030.0 514080.0 0
260691.0 517174.0 0
264606.0 519003.0 0
268182.0 515311.0 0
276878.0 517264.0 0
282662.0 514786.0 0
287878.0 516705.0 0
294038.0 516900.0 0
299952.0 517176.0 0
304662.0 517009.0 0
307679.0 515151.0 0
311308.0 516381.0 0
319415.0 516438.0 0
323044.0 518891.0 0
326589.0 517228.0 0
329930.0 514639.0 0
334912.0 515933.0 0
339185.0 515469.0 0
338846.0 519824.0 0
342934.0 517946.0 0
346964.0 515640.0 0
350486.0 517994.0 0
354893.0 517632.0 0
360441.0 518637.0 0
364002.0 514685.0 0
368968.0 514893.0 0
372763.0 519593.0 0
376859.0 517675.0 0
380379.0 517594.0 0
385482.0 518289.0 0
389295.0 515224.0 0
390221.0 519049.0 0
394879.0 520665.0 0
399081.0 517373.0 0
403795.0 518410.0 0
407632.0 518341.0 0
410508.0 516395.0 0
412980.0 520261.0 0
418533.0 520088.0 0
423135.0 517422.0 0
430241.0 517377.0 0
427761.0 520443.0 0
433295.0 519951.0 0
438257.0 517872.0 0
442324.0 518232.0 0
445767.0 518222.0 0
450012.0 518880.0 0
453735.0 518147.0 0
453191.0 522078.0 0
459317.0 520986.0 0
464824.0 517912.0 0
470091.0 519683.0 0
475052.0 519095.0 0
479275.0 520388.0 0
485734.0 519269.0 0
493005.0 516458.0 0
491960.0 520208.0 0
496871.0 517280.0 0
2132.93 522190.0 0
2126.04 525453.0 0
5764.87 522466.0 0
9352.38 522954.0 0
6837.83 526462.0 0
17445.2 523580.0 0
22149.8 524657.0 0
26971.3 525257.0 0
32398.7 526322.0 0
41297.6 521694.0 0
37497.8 524195.0 0
42082.0 526276.0 0
45548.2 522372.0 0
50544.0 522129.0 0
55047.8 523578.0 0
62865.4 519573.0 0
58687.8 524400.0 0
66505.4 521217.0 0
62743.7 523764.0 0
67489.6 525523.0 0
70296.0 522657.0 0
72480.8 525626.0 0
77468.7 525066.0 0
82345.8 522411.0 0
86125.8 521394.0 0
87949.4 522371.0 0
90759.7 523205.0 0
94938.6 523479.0 0
99780.1 521215.0 0
104209.0 522559.0 0
107981.0 521506.0 0
106364.0 525581.0 0
110560.0 523835.0 0
113980.0 524573.0 0
117618.0 521324.0 0
122218.0 524532.0 0
127190.0 521895.0 0
131369.0 520455.0 0
130749.0 524698.0 0
135606.0 522362.0 0
139838.0 523661.0 0
144507.0 521865.0 0
150145.0 523535.0 0
155526.0 523500.0 0
161352.0 523394.0 0
165610.0 520345.0 0
166279.0 524156.0 0
169805.0 521781.0 0
174892.0 524217.0 0
182305.0 521988.0 0
179716.0 523923.0 0
187154.0 522512.0 0
193377.0 520657.0 0
198583.0 522183.0 0
206509.0 521883.0 0
211043.0 521096.0 0
216774.0 520336.0 0
221883.0 522018.0 0
227324.0 521687.0 0
231921.0 518941.0 0
235617.0 521141.0 0
240641.0 521450.0 0
246239.0 523374.0 0
252092.0 521619.0 0
257142.0 519532.0 0
260969.0 521353.0 0
270584.0 519800.0 0
274847.0 522651.0 0
279234.0 522350.0 0
281804.0 519364.0 0
282714.0 523674.0 0
285503.0 521030.0 0
290873.0 521729.0 0
297076.0 521895.0 0
303027.0 520620.0 0
309529.0 521080.0 0
315432.0 519571.0 0
320174.0 522751.0 0
327434.0 521425.0 0
333497.0 521714.0 0
342883.0 522170.0 0
347046.0 520669.0 0
352184.0 522220.0 0
356993.0 522528.0 0
362517.0 522999.0 0
366613.0 520245.0 0
375401.0 523843.0 0
377726.0 520905.0 0
381948.0 521946.0 0
386637.0 523187.0 0
390473.0 522515.0 0
400816.0 522062.0 0
407527.0 523195.0 0
412567.0 524365.0 0
415759.0 523336.0 0
419432.0 524836.0 0
423047.0 522419.0 0
426736.0 524788.0 0
431879.0 525347.0 0
437083.0 522890.0 0
442186.0 522157.0 0
445050.0 526102.0 0
448043.0 522984.0 0
456050.0 526090.0 0
461225.0 526257.0 0
465362.0 522839.0 0
470926.0 525338.0 0
475376.0 522485.0 0
478624.0 523918.0 0
476380.0 526089.0 0
482950.0 524406.0 0
488274.0 523346.0 0
492732.0 525306.0 0
497177.0 522466.0 0
498389.0 526224.0 0
2616.08 529194.0 0
9378.31 529533.0 0
6680.61 530625.0 0
12805.5 526269.0 0
18789.7 527199.0 0
16050.6 529756.0 0
19567.7 531168.0 0
23500.3 529037.0 0
28615.0 529325.0 0
37109.0 528689.0 0
41280.3 530732.0 0
45368.0 529041.0 0
47810.0 526145.0 0
51898.8 526510.0 0
49816.4 530631.0 0
55963.1 527796.0 0
60283.6 527397.0 0
64203.4 529891.0 0
69902.6 529808.0 0
75106.7 529802.0 0
81646.1 526887.0 0
86312.9 525837.0 0
91233.6 527382.0 0
95268.0 527770.0 0
102143.0 525796.0 0
98431.7 525981.0 0
104338.0 529616.0 0
109918.0 527044.0 0
113884.0 529565.0 0
117760.0 526264.0 0
126804.0 526161.0 0
124009.0 528488.0 0
129857.0 529210.0 0
134839.0 527696.0 0
140327.0 528029.0 0
145740.0 527648.0 0
149961.0 527603.0 0
158087.0 527452.0 0
153652.0 528277.0 0
164543.0 528084.0 0
169695.0 526952.0 0
179229.0 527776.0 0
182931.0 525721.0 0
186691.0 528522.0 0
191575.0 526272.0 0
196797.0 526648.0 0
202574.0 525825.0 0
208750.0 526302.0 0
214091.0 525096.0 0
219368.0 527025.0 0
224367.0 525678.0 0
228111.0 527961.0 0
232347.0 524678.0 0
237222.0 524628.0 0
236715.0 528575.0 0
241515.0 527076.0 0
250546.0 525988.0 0
256437.0 525953.0 0
262597.0 525090.0 0
267568.0 524176.0 0
272173.0 527462.0 0
277624.0 526485.0 0
281893.0 526724.0 0
286664.0 526413.0 0
292168.0 526984.0 0
297380.0 526721.0 0
301068.0 525265.0 0
305382.0 524328.0 0
304269.0 528137.0 0
310601.0 525813.0 0
315373.0 525550.0 0
320006.0 527152.0 0
324505.0 526133.0 0
329516.0 525741.0 0
333885.0 528217.0 0
339066.0 525342.0 0
344096.0 525963.0 0
342326.0 529289.0 0
348292.0 525508.0 0
353697.0 527075.0 0
359727.0 527735.0 0
365953.0 526017.0 0
371072.0 524973.0 0
375663.0 528380.0 0
379003.0 525117.0 0
383312.0 526531.0 0
388366.0 526690.0 0
390257.0 529778.0 0
392321.0 526040.0 0
394464.0 530070.0 0
397205.0 526204.0 0
402764.0 527010.0 0
406968.0 528454.0 0
410997.0 528010.0 0
415592.0 527278.0 0
423383.0 527362.0 0
427885.0 528998.0 0
434100.0 530479.0 0
437099.0 527263.0 0
441596.0 527621.0 0
447894.0 528584.0 0
451524.0 526118.0 0
452702.0 530685.0 0
458406.0 530423.0 0
462256.0 529541.0 0
465612.0 527514.0 0
469416.0 530625.0 0
474527.0 529904.0 0
479660.0 528883.0 0
484174.0 529089.0 0
487908.0 527048.0 0
487943.0 531237.0 0
491461.0 529382.0 0
496053.0 529194.0 0
3527.43 534277.0 0
9156.51 535082.0 0
12277.6 531878.0 0
16557.6 533410.0 0
22764.7 534286.0 0
26507.9 532349.0 0
27727.2 536169.0 0
32629.1 532648.0 0
36593.8 536805.0 0
37719.3 532741.0 0
40979.0 534981.0 0
45053.6 532835.0 0
48423.6 535156.0 0
54642.2 531742.0 0
52450.6 534986.0 0
58903.9 531358.0 0
61680.8 534478.0 0
67132.8 534078.0 0
71824.6 534366.0 0
76251.5 534431.0 0
80960.0 531879.0 0
87436.4 531429.0 0
93006.3 531546.0 0
98775.2 530946.0 0
102793.0 532900.0 0
108438.0 530369.0 0
106265.0 534295.0 0
110561.0 533232.0 0
114989.0 534988.0 0
120045.0 531191.0 0
125879.0 531878.0 0
132598.0 530516.0 0
131462.0 533405.0 0
137556.0 531967.0 0
142850.0 533078.0 0
149642.0 531831.0 0
154977.0 532239.0 0
159584.0 531526.0 0
168004.0 531495.0 0
163874.0 532432.0 0
171860.0 533400.0 0
175007.0 530118.0 0
179489.0 532320.0 0
183523.0 531653.0 0
192889.0 531345.0 0
197848.0 531469.0 0
203399.0 532345.0 0
209359.0 531854.0 0
214542.0 530489.0 0
219319.0 532271.0 0
224298.0 531687.0 0
228798.0 532006.0 0
232504.0 530045.0 0
240915.0 531127.0 0
246279.0 530372.0 0
252044.0 530744.0 0
257018.0 531607.0 0
260891.0 529646.0 0
266036.0 529515.0 0
272745.0 532275.0 0
276200.0 530963.0 0
280286.0 530048.0 0
284726.0 531931.0 0
289691.0 531076.0 0
294944.0 531365.0 0
300328.0 530121.0 0
304859.0 532143.0 0
308293.0 529152.0 0
312901.0 530329.0 0
317868.0 531090.0 0
322829.0 531091.0 0
326175.0 529951.0 0
329319.0 529827.0 0
329670.0 533577.0 0
334487.0 534135.0 0
338486.0 530680.0 0
345493.0 531503.0 0
342058.0 533307.0 0
349929.0 530176.0 0
354706.0 531614.0 0
359054.0 533797.0 0
365560.0 531023.0 0
370562.0 530099.0 0
374864.0 533872.0 0
381171.0 531885.0 0
386332.0 529674.0 0
386852.0 533771.0 0
391795.0 534140.0 0
396569.0 533839.0 0
399579.0 530884.0 0
401812.0 534683.0 0
404359.0 531555.0 0
408947.0 532118.0 0
414408.0 532543.0 0
419508.0 530321.0 0
419595.0 534839.0 0
424511.0 532643.0 0
430029.0 533098.0 0
435199.0 535081.0 0
439042.0 531989.0 0
442669.0 535263.0 0
444310.0 531280.0 0
448036.0 533206.0 0
455867.0 534209.0 0
460302.0 535054.0 0
464723.0 532365.0 0
468397.0 534607.0 0
472447.0 534377.0 0
477868.0 533954.0 0
483165.0 533437.0 0
487633.0 535053.0 0
492833.0 533837.0 0
497991.0 532797.0 0
1357.75 537784.0 0
2674.69 540904.0 0
6529.98 538475.0 0
13723.5 536367.0 0
10857.9 539998.0 0
18802.6 537426.0 0
23523.1 538736.0 0
27010.8 540569.0 0
32133.2 539705.0 0
40644.5 539843.0 0
44616.9 537182.0 0
48272.2 539063.0 0
57108.2 535612.0 0
52881.7 539709.0 0
60919.8 537990.0 0
64425.3 537490.0 0
68835.5 538569.0 0
74585.6 539305.0 0
79416.6 537125.0 0
84965.9 537301.0 0
90293.2 535566.0 0
91584.7 539638.0 0
95125.5 535882.0 0
100940.0 536833.0 0
106066.0 539743.0 0
110506.0 537319.0 0
115975.0 540052.0 0
119649.0 536866.0 0
119843.0 540071.0 0
123384.0 535277.0 0
127784.0 536779.0 0
132679.0 538104.0 0
134926.0 534885.0 0
138449.0 536212.0 0
141890.0 539621.0 0
147208.0 537187.0 0
152582.0 536233.0 0
157213.0 535512.0 0
161508.0 535505.0 0
160079.0 538999.0 0
166845.0 537179.0 0
173369.0 537452.0 0
178189.0 536906.0 0
182522.0 535434.0 0
187719.0 534468.0 0
184916.0 538970.0 0
193156.0 536418.0 0
198945.0 535531.0 0
202288.0 538303.0 0
207095.0 537007.0 0
211253.0 535782.0 0
215969.0 536140.0 0
221529.0 536371.0 0
227117.0 537349.0 0
231630.0 534548.0 0
237170.0 533985.0 0
243170.0 534938.0 0
248796.0 535761.0 0
254625.0 535778.0 0
261872.0 534794.0 0
268620.0 535679.0 0
275351.0 535564.0 0
279419.0 533938.0 0
282812.0 536957.0 0
288330.0 536108.0 0
293071.0 535780.0 0
297525.0 536276.0 0
301562.0 534515.0 0
305022.0 536011.0 0
301967.0 538870.0 0
309925.0 535052.0 0
315385.0 535243.0 0
320622.0 535697.0 0
325626.0 534954.0 0
329564.0 537906.0 0
338924.0 534252.0 0
340867.0 538667.0 0
345200.0 535459.0 0
349223.0 534707.0 0
354243.0 537671.0 0
360301.0 538522.0 0
363797.0 535457.0 0
366283.0 539373.0 0
369102.0 535144.0 0
372736.0 537656.0 0
378892.0 536544.0 0
380974.0 539591.0 0
383992.0 536979.0 0
388744.0 538612.0 0
395037.0 537827.0 0
399096.0 537034.0 0
405969.0 535852.0 0
402833.0 539685.0 0
410837.0 536392.0 0
407957.0 540031.0 0
416057.0 537206.0 0
419703.0 538758.0 0
423254.0 537125.0 0
427147.0 536624.0 0
431672.0 537560.0 0
438606.0 538503.0 0
443232.0 539421.0 0
447364.0 537680.0 0
451852.0 535897.0 0
456123.0 538708.0 0
461061.0 539689.0 0
465196.0 537402.0 0
469826.0 537609.0 0
471996.0 540641.0 0
474921.0 537846.0 0
479615.0 539099.0 0
484559.0 538288.0 0
489917.0 538706.0 0
497284.0 536925.0 0
498221.0 540740.0 0
2372.23 545635.0 0
6714.9 543325.0 0
11466.6 545821.0 0
15952.4 541946.0 0
20003.6 545635.0 0
20679.7 541719.0 0
24481.0 544517.0 0
29179.3 543586.0 0
36574.2 542326.0 0
39788.3 543559.0 0
45042.4 541295.0 0
49010.4 543334.0 0
54578.1 544652.0 0
57919.9 540428.0 0
59550.5 544641.0 0
62616.4 541351.0 0
66900.6 543372.0 0
70896.4 542230.0 0
76505.8 544507.0 0
79440.9 541161.0 0
82808.0 541722.0 0
87454.4 543703.0 0
96488.1 541119.0 0
101464.0 542123.0 0
107458.0 543595.0 0
110997.0 541824.0 0
114916.0 544666.0 0
119570.0 542981.0 0
123400.0 540014.0 0
127944.0 541863.0 0
132091.0 542148.0 0
136700.0 540377.0 0
145211.0 543680.0 0
150554.0 541630.0 0
155727.0 540159.0 0
162817.0 540542.0 0
159821.0 543307.0 0
166444.0 543190.0 0
170871.0 541098.0 0
176168.0 541250.0 0
180951.0 540883.0 0
184750.0 542767.0 0
190060.0 541620.0 0
197107.0 540271.0 0
201166.0 543972.0 0
205832.0 542112.0 0
211393.0 540374.0 0
216759.0 541806.0 0
221974.0 541381.0 0
227369.0 542084.0 0
232853.0 539534.0 0
237735.0 539272.0 0
242389.0 540450.0 0
248088.0 541716.0 0
253594.0 541005.0 0
258569.0 539410.0 0
263329.0 540063.0 0
267699.0 541894.0 0
273154.0 540694.0 0
278350.0 539425.0 0
281846.0 541070.0 0
286278.0 541811.0 0
292122.0 540573.0 0
297807.0 542346.0 0
306771.0 539676.0 0
311997.0 540943.0 0
317505.0 540010.0 0
320921.0 543033.0 0
324728.0 540205.0 0
329664.0 543234.0 0
334535.0 540070.0 0
338161.0 543147.0 0
344396.0 542555.0 0
347936.0 539516.0 0
358050.0 542482.0 0
362855.0 542568.0 0
367121.0 543308.0 0
370920.0 541202.0 0
376253.0 540241.0 0
375141.0 544358.0 0
380550.0 544661.0 0
384624.0 541162.0 0
388079.0 543440.0 0
393351.0 542553.0 0
398193.0 540838.0 0
400903.0 544870.0 0
405549.0 543580.0 0
409783.0 544133.0 0
413075.0 540581.0 0
413925.0 544744.0 0
418013.0 542902.0 0
423180.0 541643.0 0
428652.0 541201.0 0
434341.0 541427.0 0
440728.0 543579.0 0
446498.0 542919.0 0
451230.0 540520.0 0
450892.0 545309.0 0
454818.0 543512.0 0
458629.0 542856.0 0
464061.0 542111.0 0
467852.0 541077.0 0
466597.0 545274.0 0
470474.0 544107.0 0
475764.0 541686.0 0
478938.0 543888.0 0
482930.0 542711.0 0
486794.0 541820.0 0
486161.0 545601.0 0
490230.0 543315.0 0
494237.0 541042.0 0
493665.0 545680.0 0
497721.0 544270.0 0
2443.48 550089.0 0
6217.21 547885.0 0
14212.8 549794.0 0
16407.1 546559.0 0
24762.9 549817.0 0
28441.8 547375.0 0
33230.1 545486.0 0
36083.5 551062.0 0
31502.0 550072.0 0
38020.9 546613.0 0
40983.7 550280.0 0
43492.7 545703.0 0
45205.8 550178.0 0
48475.3 547689.0 0
52939.8 549630.0 0
57536.9 548334.0 0
63284.7 546013.0 0
66636.6 547951.0 0
71454.1 546576.0 0
75761.8 548441.0 0
81522.9 545700.0 0
78772.5 548677.0 0
85336.4 549204.0 0
89664.2 548748.0 0
93167.0 545245.0 0
98514.9 546380.0 0
104128.0 546032.0 0
109785.0 547236.0 0
114750.0 549383.0 0
118983.0 547264.0 0
124098.0 545616.0 0
130174.0 546126.0 0
135443.0 545342.0 0
140506.0 544682.0 0
149096.0 546530.0 0
143506.0 548396.0 0
154737.0 545926.0 0
163135.0 546719.0 0
166810.0 547057.0 0
170948.0 545806.0 0
176137.0 546096.0 0
181489.0 546110.0 0
186618.0 546458.0 0
191427.0 547815.0 0
196462.0 546005.0 0
200513.0 548270.0 0
204789.0 547005.0 0
209929.0 545913.0 0
214991.0 546327.0 0
219834.0 545938.0 0
224959.0 545631.0 0
230833.0 545346.0 0
236839.0 544073.0 0
241826.0 546692.0 0
247459.0 547743.0 0
253074.0 546328.0 0
257994.0 544527.0 0
259990.0 548456.0 0
263310.0 545091.0 0
268562.0 547185.0 0
273577.0 546031.0 0
279173.0 545115.0 0
284762.0 547277.0 0
289618.0 545363.0 0
293690.0 545560.0 0
297569.0 547222.0 0
302496.0 546296.0 0
307775.0 544369.0 0
306890.0 548552.0 0
312340.0 546392.0 0
316961.0 545031.0 0
320439.0 546203.0 0
324666.0 545983.0 0
334459.0 544625.0 0
337678.0 547561.0 0
342871.0 546554.0 0
348346.0 545340.0 0
354243.0 546076.0 0
360028.0 546393.0 0
365176.0 547822.0 0
371328.0 546715.0 0
376285.0 547886.0 0
385548.0 547455.0 0
390698.0 547351.0 0
396095.0 547808.0 0
400912.0 550197.0 0
405768.0 548229.0 0
411848.0 548148.0 0
416936.0 548048.0 0
421342.0 546444.0 0
426167.0 545897.0 0
423994.0 549975.0 0
431361.0 545821.0 0
436192.0 546105.0 0
433532.0 547905.0 0
440227.0 548843.0 0
447268.0 547389.0 0
443993.0 546823.0 0
443856.0 550163.0 0
450881.0 550321.0 0
456156.0 548164.0 0
461783.0 546094.0 0
466333.0 550051.0 0
469849.0 547572.0 0
474561.0 546557.0 0
477558.0 550630.0 0
481813.0 547970.0 0
489644.0 547066.0 0
492472.0 550324.0 0
497352.0 548675.0 0
4658.18 554567.0 0
9475.4 551440.0 0
14310.7 554236.0 0
19362.1 550802.0 0
23744.1 554463.0 0
28058.4 553065.0 0
32385.4 554367.0 0
39410.8 554716.0 0
44359.2 554177.0 0
48780.5 552074.0 0
47949.5 555376.0 0
52571.5 554638.0 0
56847.1 552319.0 0
61926.0 550768.0 0
67330.4 552486.0 0
73262.5 552653.0 0
81557.4 549980.0 0
78551.7 552092.0 0
82824.3 554150.0 0
88419.6 553374.0 0
94216.1 550372.0 0
99539.3 551585.0 0
105034.0 551465.0 0
110806.0 553286.0 0
115673.0 553200.0 0
118280.0 550993.0 0
122117.0 550640.0 0
119528.0 554732.0 0
127301.0 550663.0 0
132980.0 552087.0 0
137470.0 549700.0 0
140669.0 553088.0 0
148373.0 551780.0 0
154708.0 552273.0 0
160012.0 550299.0 0
164604.0 550891.0 0
168798.0 550098.0 0
173520.0 550468.0 0
178495.0 550333.0 0
182598.0 550657.0 0
187174.0 551632.0 0
192425.0 552960.0 0
197299.0 550517.0 0
203412.0 551541.0 0
207764.0 550176.0 0
212858.0 550384.0 0
217460.0 549885.0 0
221800.0 550954.0 0
226986.0 550849.0 0
232625.0 550991.0 0
237525.0 549417.0 0
244202.0 551823.0 0
240487.0 552095.0 0
251737.0 551529.0 0
256309.0 549929.0 0
257993.0 554142.0 0
263267.0 550102.0 0
267412.0 552389.0 0
272369.0 550294.0 0
277071.0 550751.0 0
281935.0 550566.0 0
284254.0 553275.0 0
289214.0 549627.0 0
294290.0 550460.0 0
299636.0 550744.0 0
304358.0 552362.0 0
310432.0 551448.0 0
315997.0 550311.0 0
321112.0 549761.0 0
325723.0 551385.0 0
321597.0 554018.0 0
331633.0 549447.0 0
336977.0 552076.0 0
341343.0 551387.0 0
346261.0 550284.0 0
350778.0 549899.0 0
355361.0 551777.0 0
360454.0 550878.0 0
365077.0 553053.0 0
369483.0 551810.0 0
375389.0 552344.0 0
380398.0 550653.0 0
385273.0 552286.0 0
390596.0 552463.0 0
396464.0 553708.0 0
400840.0 554188.0 0
404838.0 553604.0 0
409300.0 551819.0 0
414242.0 552416.0 0
419741.0 552871.0 0
425382.0 554700.0 0
429218.0 550553.0 0
435298.0 551640.0 0
441214.0 554006.0 0
446340.0 552883.0 0
455567.0 554050.0 0
460762.0 551307.0 0
464954.0 555181.0 0
471560.0 551409.0 0
470122.0 556342.0 0
475848.0 555605.0 0
481203.0 553308.0 0
486785.0 550993.0 0
490865.0 555609.0 0
496774.0 554098.0 0
2057.48 558633.0 0
9677.34 556940.0 0
5815.16 558952.0 0
14190.0 559024.0 0
19133.3 556762.0 0
29166.1 557458.0 0
35507.6 556763.0 0
38524.0 559358.0 0
42332.7 557747.0 0
46160.1 558244.0 0
49692.0 557474.0 0
52985.1 559372.0 0
57271.3 556845.0 0
63364.9 557095.0 0
69577.9 556924.0 0
74113.8 557605.0 0
78156.7 556576.0 0
86092.6 558226.0 0
91495.1 559452.0 0
95837.6 555601.0 0
101376.0 556392.0 0
106369.0 556416.0 0
110499.0 558927.0 0
114827.0 556898.0 0
124347.0 555031.0 0
129001.0 555596.0 0
132758.0 556972.0 0
136618.0 555899.0 0
144686.0 555212.0 0
148513.0 557033.0 0
153210.0 557737.0 0
158440.0 556952.0 0
162778.0 554730.0 0
163079.0 559351.0 0
168130.0 555412.0 0
173244.0 554944.0 0
177759.0 555146.0 0
183049.0 555371.0 0
188969.0 557064.0 0
194064.0 556892.0 0
196674.0 554325.0 0
200956.0 556049.0 0
206388.0 555705.0 0
212415.0 556094.0 0
217810.0 554396.0 0
222342.0 555563.0 0
226923.0 556022.0 0
231712.0 556175.0 0
236860.0 554658.0 0
241787.0 555636.0 0
247506.0 556549.0 0
253572.0 556278.0 0
262919.0 554755.0 0
262783.0 559440.0 0
267350.0 557668.0 0
271881.0 554893.0 0
280360.0 555059.0 0
275943.0 557201.0 0
284975.0 559139.0 0
288115.0 554436.0 0
292685.0 554962.0 0
297264.0 554742.0 0
301605.0 556547.0 0
307895.0 555849.0 0
312452.0 556252.0 0
317335.0 555543.0 0
321072.0 557934.0 0
325518.0 556728.0 0
330835.0 555784.0 0
335357.0 555386.0 0
339427.0 555761.0 0
345182.0 556063.0 0
351081.0 554988.0 0
355678.0 556963.0 0
361249.0 556538.0 0
367854.0 556808.0 0
372131.0 555155.0 0
375460.0 556524.0 0
372302.0 559200.0 0
381450.0 556735.0 0
387480.0 556686.0 0
392360.0 557186.0 0
396604.0 558934.0 0
401895.0 558713.0 0
407482.0 558022.0 0
411135.0 555646.0 0
412245.0 559965.0 0
416213.0 556945.0 0
421301.0 558527.0 0
426885.0 559675.0 0
430874.0 556011.0 0
436437.0 557605.0 0
441053.0 560049.0 0
445696.0 557880.0 0
450189.0 555529.0 0
453003.0 558844.0 0
457505.0 559425.0 0
460258.0 555987.0 0
462486.0 559754.0 0
466942.0 559630.0 0
472864.0 560435.0 0
480737.0 557898.0 0
485149.0 556195.0 0
488349.0 560224.0 0
497046.0 559787.0 0
3883.21 562420.0 0
8691.29 561954.0 0
13256.3 563371.0 0
18158.2 562072.0 0
24211.3 560311.0 0
29689.9 561682.0 0
33645.3 560399.0 0
37114.5 563935.0 0
42871.5 562544.0 0
48768.6 562081.0 0
53185.9 563660.0 0
57661.2 562227.0 0
63011.8 563240.0 0
67713.1 561222.0 0
72604.2 561462.0 0
77385.5 561233.0 0
81594.2 559913.0 0
86709.3 563070.0 0
97211.8 561007.0 0
102203.0 561179.0 0
106665.0 561991.0 0
113951.0 562680.0 0
118923.0 560074.0 0
120957.0 565272.0 0
125497.0 560854.0 0
130890.0 560083.0 0
130305.0 564172.0 0
134476.0 559992.0 0
134576.0 564165.0 0
139009.0 560413.0 0
142509.0 564474.0 0
144467.0 559815.0 0
149805.0 562272.0 0
156085.0 560557.0 0
155103.0 564490.0 0
159398.0 562173.0 0
167753.0 561173.0 0
163658.0 564518.0 0
173826.0 560409.0 0
180085.0 559920.0 0
185202.0 560819.0 0
193261.0 560761.0 0
189379.0 562160.0 0
198010.0 560370.0 0
203338.0 560986.0 0
208572.0 560402.0 0
213569.0 562081.0 0
218477.0 559473.0 0
222849.0 559483.0 0
221887.0 563497.0 0
226807.0 560875.0 0
232150.0 561451.0 0
237394.0 560122.0 0
242585.0 560313.0 0
247218.0 562905.0 0
252291.0 561203.0 0
257698.0 559806.0 0
266174.0 563155.0 0
272236.0 561024.0 0
279414.0 560287.0 0
282472.0 563753.0 0
291453.0 560267.0 0
297849.0 560179.0 0
303262.0 560892.0 0
308241.0 561289.0 0
312425.0 560389.0 0
317311.0 561465.0 0
323648.0 561477.0 0
328719.0 561122.0 0
334631.0 560472.0 0
340923.0 560863.0 0
346548.0 561661.0 0
351242.0 560311.0 0
356402.0 561998.0 0
362527.0 562977.0 0
368342.0 562044.0 0
376885.0 560401.0 0
373355.0 564411.0 0
380908.0 563100.0 0
386318.0 562020.0 0
392661.0 562586.0 0
398741.0 563925.0 0
403727.0 563680.0 0
408107.0 562766.0 0
417083.0 561723.0 0
423502.0 563483.0 0
432459.0 561113.0 0
428723.0 564270.0 0
437095.0 562841.0 0
441061.0 564375.0 0
444958.0 562883.0 0
449477.0 561723.0 0
454229.0 563070.0 0
459732.0 563971.0 0
464369.0 563646.0 0
469095.0 563639.0 0
477451.0 561078.0 0
483818.0 560898.0 0
480956.0 565461.0 0
486892.0 564872.0 0
492721.0 563138.0 0
497643.0 564872.0 0
2104.14 566272.0 0
1811.42 570023.0 0
6441.46 565966.0 0
11084.2 567283.0 0
16335.1 566992.0 0
21764.3 566267.0 0
27323.1 565716.0 0
32596.8 566677.0 0
38021.1 568761.0 0
42128.0 567638.0 0
46560.7 566665.0 0
48586.2 570127.0 0
52364.3 568046.0 0
55921.1 566244.0 0
59648.3 567106.0 0
65378.1 567893.0 0
69879.3 565678.0 0
75463.3 566279.0 0
81659.3 565287.0 0
88248.9 567761.0 0
93224.5 565280.0 0
98402.4 565972.0 0
103294.0 565906.0 0
109767.0 565879.0 0
115591.0 567842.0 0
126216.0 567301.0 0
132366.0 568880.0 0
137587.0 569112.0 0
138286.0 564998.0 0
148063.0 567717.0 0
159271.0 566377.0 0
168107.0 565591.0 0
163771.0 569670.0 0
171806.0 565454.0 0
176887.0 565320.0 0
174210.0 568987.0 0
181833.0 565216.0 0
186458.0 564915.0 0
192720.0 565202.0 0
189196.0 567392.0 0
197121.0 564528.0 0
198595.0 568967.0 0
203797.0 566558.0 0
208631.0 565086.0 0
207982.0 569693.0 0
212620.0 566918.0 0
217404.0 566165.0 0
222183.0 568749.0 0
226161.0 565698.0 0
230948.0 566694.0 0
236875.0 566347.0 0
242598.0 565363.0 0
247455.0 567341.0 0
251108.0 565958.0 0
255819.0 565044.0 0
262001.0 565181.0 0
270516.0 566626.0 0
265719.0 567978.0 0
276950.0 565986.0 0
282920.0 568712.0 0
287325.0 565006.0 0
292825.0 566259.0 0
300489.0 565266.0 0
297029.0 568771.0 0
306691.0 566604.0 0
312253.0 564964.0 0
318165.0 568177.0 0
323411.0 566010.0 0
330135.0 564866.0 0
327186.0 565200.0 0
333468.0 565760.0 0
338188.0 565647.0 0
343899.0 566332.0 0
351490.0 566522.0 0
358021.0 567537.0 0
364228.0 569037.0 0
368752.0 566806.0 0
378159.0 567580.0 0
383918.0 566420.0 0
388827.0 567643.0 0
394850.0 568330.0 0
402237.0 567529.0 0
399246.0 569991.0 0
407348.0 568073.0 0
413017.0 565461.0 0
416764.0 570197.0 0
419147.0 566198.0 0
425541.0 567837.0 0
430123.0 568981.0 0
433544.0 565720.0 0
435794.0 568159.0 0
434000.0 569905.0 0
439132.0 568069.0 0
444287.0 567672.0 0
450656.0 567422.0 0
456177.0 567056.0 0
461559.0 567955.0 0
465879.0 567608.0 0
470203.0 568007.0 0
474491.0 565513.0 0
477578.0 569632.0 0
485406.0 570078.0 0
491161.0 568405.0 0
496653.0 569678.0 0
2699.86 574307.0 0
7414.41 571061.0 0
13733.1 571422.0 0
19276.7 571352.0 0
24653.2 570923.0 0
29206.1 570159.0 0
28538.2 574546.0 0
34006.5 572445.0 0
40958.4 570566.0 0
44686.3 571061.0 0
41010.8 574461.0 0
47611.7 572547.0 0
51546.5 573361.0 0
56657.2 571255.0 0
61927.0 571604.0 0
68247.0 571719.0 0
73342.2 571957.0 0
78739.1 570919.0 0
83957.3 570682.0 0
88496.0 572543.0 0
93515.1 571271.0 0
98694.1 570433.0 0
106048.0 570155.0 0
102311.0 573563.0 0
111036.0 570875.0 0
116226.0 572763.0 0
120432.0 570576.0 0
124516.0 571320.0 0
126621.0 574878.0 0
128573.0 571106.0 0
142901.0 569872.0 0
138908.0 574752.0 0
144471.0 574765.0 0
148446.0 572646.0 0
153611.0 570172.0 0
157354.0 574545.0 0
159284.0 570492.0 0
169060.0 570199.0 0
179463.0 570823.0 0
185168.0 569636.0 0
188618.0 573196.0 0
192953.0 570378.0 0
203387.0 572174.0 0
212614.0 571675.0 0
217920.0 572069.0 0
227346.0 570821.0 0
232793.0 571623.0 0
238315.0 572808.0 0
244065.0 570776.0 0
249781.0 570540.0 0
254090.0 571887.0 0
259225.0 569819.0 0
264201.0 571701.0 0
268521.0 571033.0 0
273301.0 570999.0 0
278520.0 572341.0 0
288140.0 570739.0 0
293299.0 571611.0 0
297436.0 573121.0 0
301762.0 570848.0 0
306720.0 571668.0 0
312022.0 571095.0 0
316357.0 572560.0 0
319499.0 573674.0 0
323424.0 571207.0 0
329503.0 569976.0 0
335663.0 569933.0 0
341175.0 572318.0 0
347247.0 570906.0 0
351539.0 572510.0 0
355688.0 572105.0 0
360263.0 572393.0 0
367709.0 573059.0 0
372572.0 570131.0 0
377817.0 572901.0 0
382585.0 570701.0 0
387706.0 573903.0 0
394508.0 574557.0 0
403313.0 572543.0 0
412149.0 570734.0 0
408335.0 573035.0 0
421590.0 570650.0 0
418367.0 574788.0 0
426550.0 572667.0 0
432017.0 573720.0 0
437189.0 572530.0 0
441716.0 571641.0 0
447117.0 572546.0 0
452612.0 573008.0 0
458272.0 571934.0 0
463486.0 571298.0 0
462473.0 575055.0 0
467988.0 572028.0 0
473158.0 571179.0 0
471090.0 575053.0 0
476862.0 573561.0 0
480857.0 572598.0 0
484536.0 575131.0 0
490138.0 574204.0 0
497371.0 574836.0 0
2561.64 579396.0 0
7541.81 577073.0 0
12676.9 576260.0 0
11066.4 579649.0 0
18217.8 577224.0 0
23912.4 575869.0 0
27081.1 579906.0 0
32244.6 578204.0 0
36897.4 576818.0 0
42601.8 578985.0 0
46508.5 576074.0 0
55723.8 576063.0 0
51573.2 578460.0 0
60570.4 576465.0 0
57457.9 580131.0 0
66039.7 576342.0 0
71371.6 576949.0 0
75585.6 579519.0 0
77017.5 575263.0 0
81497.0 575132.0 0
85968.2 576034.0 0
91409.1 577200.0 0
97470.2 575135.0 0
103034.0 579166.0 0
107447.0 575224.0 0
112700.0 575474.0 0
116703.0 579438.0 0
121353.0 575739.0 0
123335.0 580306.0 0
132423.0 575363.0 0
128254.0 579890.0 0
152990.0 575974.0 0
148450.0 577523.0 0
162733.0 575007.0 0
159183.0 578503.0 0
168418.0 575744.0 0
165322.0 579063.0 0
174242.0 574624.0 0
178975.0 578169.0 0
183769.0 575130.0 0
188030.0 578856.0 0
192820.0 576106.0 0
198908.0 576280.0 0
203849.0 576762.0 0
208307.0 575371.0 0
219149.0 576199.0 0
214856.0 576469.0 0
222663.0 575036.0 0
229339.0 575647.0 0
226933.0 579005.0 0
234189.0 576650.0 0
238626.0 577815.0 0
242801.0 576210.0 0
247943.0 575238.0 0
252333.0 575356.0 0
251681.0 579625.0 0
256421.0 576119.0 0
261313.0 575144.0 0
265908.0 575555.0 0
270373.0 575106.0 0
275198.0 576943.0 0
283187.0 575090.0 0
282955.0 579682.0 0
288612.0 576562.0 0
294108.0 576441.0 0
299872.0 575918.0 0
304455.0 575895.0 0
309163.0 575534.0 0
315039.0 575847.0 0
311785.0 578043.0 0
322007.0 577633.0 0
327650.0 576494.0 0
334870.0 575271.0 0
339041.0 576721.0 0
346665.0 575536.0 0
342774.0 578026.0 0
350665.0 576428.0 0
352527.0 579848.0 0
357473.0 576871.0 0
363191.0 576143.0 0
367253.0 577573.0 0
372717.0 576565.0 0
382239.0 575091.0 0
378862.0 578015.0 0
384487.0 578265.0 0
390597.0 579885.0 0
399517.0 575298.0 0
398012.0 578520.0 0
402690.0 577964.0 0
407648.0 577301.0 0
412859.0 575947.0 0
416969.0 580324.0 0
423302.0 577108.0 0
428369.0 576924.0 0
432316.0 578891.0 0
437227.0 577665.0 0
442775.0 576603.0 0
448206.0 577788.0 0
455704.0 577026.0 0
460059.0 578137.0 0
466517.0 577002.0 0
474562.0 576754.0 0
470831.0 579082.0 0
479430.0 577452.0 0
483704.0 579006.0 0
487146.0 578062.0 0
491803.0 580040.0 0
497347.0 580001.0 0
2121.19 583895.0 0
6974.18 582796.0 0
14871.9 581550.0 0
11763.9 584520.0 0
17472.4 585204.0 0
21940.6 582248.0 0
33198.8 584604.0 0
38240.8 581050.0 0
42594.5 583535.0 0
47506.3 581219.0 0
53108.3 584671.0 0
59977.2 584542.0 0
63151.8 580569.0 0
68065.9 581319.0 0
72220.6 582105.0 0
81078.1 580556.0 0
76853.7 584149.0 0
86677.7 580367.0 0
91932.2 583594.0 0
97211.4 580638.0 0
109916.0 580363.0 0
113523.0 583710.0 0
120280.0 582558.0 0
117533.0 584846.0 0
123110.0 584924.0 0
132711.0 580471.0 0
127843.0 584936.0 0
137148.0 580402.0 0
139527.0 585061.0 0
143083.0 580131.0 0
149572.0 582589.0 0
154835.0 580012.0 0
158819.0 583025.0 0
164240.0 583617.0 0
169495.0 581218.0 0
174401.0 580163.0 0
177872.0 582514.0 0
183267.0 581779.0 0
188278.0 583997.0 0
192937.0 580908.0 0
196867.0 580983.0 0
196955.0 584410.0 0
202573.0 580896.0 0
207641.0 580816.0 0
212288.0 580618.0 0
217775.0 581160.0 0
222958.0 580209.0 0
226540.0 584010.0 0
230983.0 580793.0 0
235917.0 581148.0 0
240757.0 581422.0 0
245963.0 580767.0 0
252390.0 584154.0 0
257709.0 581046.0 0
262779.0 580010.0 0
260966.0 584407.0 0
268273.0 579988.0 0
265703.0 584851.0 0
273320.0 582014.0 0
278507.0 581322.0 0
286908.0 581796.0 0
292231.0 581417.0 0
297784.0 579916.0 0
299713.0 584774.0 0
303057.0 580980.0 0
308047.0 579942.0 0
308615.0 584312.0 0
312505.0 581926.0 0
317361.0 580352.0 0
322074.0 582768.0 0
326844.0 581939.0 0
332331.0 580852.0 0
338339.0 580865.0 0
343954.0 581815.0 0
346334.0 584460.0 0
347967.0 580096.0 0
351463.0 584868.0 0
356361.0 582177.0 0
362361.0 581800.0 0
369043.0 582604.0 0
374272.0 581862.0 0
381958.0 580778.0 0
377932.0 582382.0 0
381338.0 584233.0 0
385840.0 581983.0 0
390756.0 585374.0 0
395452.0 581087.0 0
400253.0 582377.0 0
405788.0 581521.0 0
411033.0 581462.0 0
408062.0 584845.0 0
422403.0 582691.0 0
426715.0 580486.0 0
430223.0 583631.0 0
435753.0 582965.0 0
440465.0 581231.0 0
445388.0 582192.0 0
452264.0 580545.0 0
457225.0 582053.0 0
462171.0 581758.0 0
467081.0 582209.0 0
475367.0 581898.0 0
481097.0 582697.0 0
486588.0 582515.0 0
494019.0 585150.0 0
498263.0 584214.0 0
3366.72 589082.0 0
8669.69 587591.0 0
12792.7 588636.0 0
22066.7 587141.0 0
26755.2 585817.0 0
38827.6 586534.0 0
43005.8 589521.0 0
46824.3 585976.0 0
49461.4 589380.0 0
57635.8 589262.0 0
65162.3 585192.0 0
62417.4 589096.0 0
70011.3 585956.0 0
73951.2 586582.0 0
81659.4 586624.0 0
76746.8 589828.0 0
86000.0 589821.0 0
86717.7 584930.0 0
93492.9 587832.0 0
97704.9 586556.0 0
103844.0 585430.0 0
109511.0 585682.0 0
113500.0 587723.0 0
117714.0 589473.0 0
129131.0 589584.0 0
133563.0 585649.0 0
145199.0 586343.0 0
150141.0 587035.0 0
154114.0 585111.0 0
158259.0 588138.0 0
168543.0 586053.0 0
174115.0 586200.0 0
180114.0 586154.0 0
184604.0 586486.0 0
188527.0 589222.0 0
193001.0 585692.0 0
197229.0 589860.0 0
201046.0 586183.0 0
206761.0 586022.0 0
212862.0 586049.0 0
218438.0 586286.0 0
222724.0 586961.0 0
227865.0 589667.0 0
231936.0 585855.0 0
237349.0 586145.0 0
243015.0 585066.0 0
241571.0 589237.0 0
248029.0 586616.0 0
256500.0 586094.0 0
270304.0 585457.0 0
276253.0 586629.0 0
282631.0 585883.0 0
288853.0 586825.0 0
294619.0 586855.0 0
304610.0 585660.0 0
312179.0 586588.0 0
316769.0 585438.0 0
317995.0 589827.0 0
325237.0 586026.0 0
321396.0 587214.0 0
330415.0 586946.0 0
336043.0 585645.0 0
341531.0 585486.0 0
347410.0 589197.0 0
358950.0 585513.0 0
361637.0 588165.0 0
357430.0 589210.0 0
366227.0 587856.0 0
371075.0 589699.0 0
373750.0 585766.0 0
377984.0 585998.0 0
385634.0 586988.0 0
394843.0 587846.0 0
399306.0 586886.0 0
398114.0 590195.0 0
401665.0 590280.0 0
404029.0 586161.0 0
407360.0 590275.0 0
411781.0 587182.0 0
417720.0 586504.0 0
422558.0 587344.0 0
426098.0 585968.0 0
431266.0 588725.0 0
434667.0 586984.0 0
440443.0 586291.0 0
445628.0 587476.0 0
450442.0 585419.0 0
455450.0 586945.0 0
460367.0 586250.0 0
465252.0 586824.0 0
471032.0 586163.0 0
477883.0 587597.0 0
482908.0 586873.0 0
487741.0 588059.0 0
492943.0 590318.0 0
497869.0 588008.0 0
9506.78 592674.0 0
18121.4 591467.0 0
24523.2 590694.0 0
29585.4 592565.0 0
35634.2 591049.0 0
39469.0 590034.0 0
40570.0 594799.0 0
47137.8 593805.0 0
53305.9 592478.0 0
61441.5 594499.0 0
66460.2 591765.0 0
71713.0 592254.0 0
77349.0 595027.0 0
81652.0 592342.0 0
86356.7 594982.0 0
91108.0 591626.0 0
96294.3 591473.0 0
101504.0 591362.0 0
107397.0 590504.0 0
113045.0 593010.0 0
118553.0 594234.0 0
123441.0 590443.0 0
128046.0 595251.0 0
133122.0 590703.0 0
138316.0 590574.0 0
143891.0 592161.0 0
148338.0 590391.0 0
149014.0 595016.0 0
153409.0 591149.0 0
158534.0 594922.0 0
163436.0 590713.0 0
169707.0 591044.0 0
174588.0 591837.0 0
183650.0 590519.0 0
178976.0 591086.0 0
188596.0 594661.0 0
193021.0 590056.0 0
194531.0 594900.0 0
202872.0 590585.0 0
208440.0 590764.0 0
213078.0 591869.0 0
217846.0 590861.0 0
222643.0 591523.0 0
232969.0 590360.0 0
231980.0 594660.0 0
237425.0 591550.0 0
241576.0 594369.0 0
245609.0 591546.0 0
250010.0 591381.0 0
254921.0 591391.0 0
261358.0 590196.0 0
268134.0 590068.0 0
273749.0 591673.0 0
279418.0 591365.0 0
283696.0 590806.0 0
287192.0 591798.0 0
291555.0 591148.0 0
296202.0 592058.0 0
301442.0 590160.0 0
307996.0 590615.0 0
313681.0 590944.0 0
316841.0 594142.0 0
326079.0 590478.0 0
321770.0 592170.0 0
330502.0 592639.0 0
334804.0 590386.0 0
339819.0 590739.0 0
337646.0 595111.0 0
342127.0 595091.0 0
347001.0 594606.0 0
352713.0 590476.0 0
356677.0 593483.0 0
360999.0 592490.0 0
366101.0 592686.0 0
376531.0 590388.0 0
373015.0 594553.0 0
381637.0 590579.0 0
385400.0 591775.0 0
390250.0 591072.0 0
395603.0 593891.0 0
401288.0 595086.0 0
412141.0 592665.0 0
417827.0 592654.0 0
422065.0 590735.0 0
426433.0 590688.0 0
427376.0 594701.0 0
423465.0 594974.0 0
430420.0 593133.0 0
436611.0 591319.0 0
441848.0 590744.0 0
445703.0 592246.0 0
451214.0 591201.0 0
457148.0 591874.0 0
461710.0 590519.0 0
462848.0 594997.0 0
465649.0 591112.0 0
467926.0 594838.0 0
471558.0 591587.0 0
475972.0 592275.0 0
482239.0 591391.0 0
487029.0 593497.0 0
491587.0 595013.0 0
497487.0 592596.0 0
3711.69 596006.0 0
9105.11 599557.0 0
13724.9 596540.0 0
19192.9 598401.0 0
23835.4 595505.0 0
28158.8 597871.0 0
33757.0 597142.0 0
38851.8 600347.0 0
44527.2 599188.0 0
50701.5 598198.0 0
56213.0 597659.0 0
61341.0 599699.0 0
67041.8 597397.0 0
72935.9 597655.0 0
77348.2 600169.0 0
81672.8 597651.0 0
86141.2 600132.0 0
91300.7 597331.0 0
96308.8 596102.0 0
101247.0 596946.0 0
107354.0 596988.0 0
114892.0 597866.0 0
122350.0 597618.0 0
118172.0 599852.0 0
132190.0 600074.0 0
134576.0 595427.0 0
140240.0 596092.0 0
144859.0 598189.0 0
153523.0 596297.0 0
164471.0 596903.0 0
168445.0 595205.0 0
172611.0 596375.0 0
169057.0 599845.0 0
178377.0 596347.0 0
183474.0 595157.0 0
182126.0 599948.0 0
187236.0 599783.0 0
198122.0 599156.0 0
199653.0 595265.0 0
203156.0 595807.0 0
207239.0 595221.0 0
212245.0 596604.0 0
216990.0 595673.0 0
218423.0 600137.0 0
222034.0 596257.0 0
227091.0 595287.0 0
232145.0 600202.0 0
236835.0 596699.0 0
242044.0 599433.0 0
246654.0 596661.0 0
251651.0 595407.0 0
252109.0 599944.0 0
257006.0 597241.0 0
263648.0 596814.0 0
268849.0 595229.0 0
273140.0 596831.0 0
277953.0 596322.0 0
283567.0 595254.0 0
288031.0 595378.0 0
292819.0 595683.0 0
296233.0 595529.0 0
300023.0 595914.0 0
296098.0 599062.0 0
305907.0 596876.0 0
311838.0 595723.0 0
321128.0 596653.0 0
316532.0 599548.0 0
326169.0 595733.0 0
332632.0 597361.0 0
341769.0 599785.0 0
352358.0 596007.0 0
358121.0 598921.0 0
363445.0 596473.0 0
368785.0 595787.0 0
373128.0 600057.0 0
377934.0 595438.0 0
382342.0 597179.0 0
386923.0 595577.0 0
391429.0 597360.0 0
395861.0 599802.0 0
407283.0 596107.0 0
410900.0 600097.0 0
413587.0 597128.0 0
418342.0 598625.0 0
432950.0 596431.0 0
428662.0 598436.0 0
437196.0 596816.0 0
441621.0 595153.0 0
442843.0 599275.0 0
448629.0 596406.0 0
453786.0 595979.0 0
458278.0 596778.0 0
456721.0 600288.0 0
465948.0 599558.0 0
473028.0 597325.0 0
479035.0 595881.0 0
484210.0 597909.0 0
488530.0 597340.0 0
494227.0 598077.0 0
497979.0 597022.0 0
3228.67 602846.0 0
8552.29 604700.0 0
14429.9 602530.0 0
19575.6 603250.0 0
24166.4 601403.0 0
29345.4 602562.0 0
34138.3 602690.0 0
43189.8 604840.0 0
48524.5 602442.0 0
53315.8 602623.0 0
58179.9 602076.0 0
64664.8 601789.0 0
69033.9 604534.0 0
74313.8 602522.0 0
81898.7 602916.0 0
90341.8 601995.0 0
86729.0 605296.0 0
95185.6 601259.0 0
100666.0 602185.0 0
105997.0 603063.0 0
111907.0 600963.0 0
116369.0 604723.0 0
121363.0 602519.0 0
127025.0 602036.0 0
137433.0 600746.0 0
133386.0 604960.0 0
142517.0 602785.0 0
148975.0 601087.0 0
154269.0 601017.0 0
160019.0 600919.0 0
165366.0 602453.0 0
173368.0 601689.0 0
177744.0 601115.0 0
192979.0 601293.0 0
198534.0 604325.0 0
203020.0 600355.0 0
208816.0 600616.0 0
205473.0 604860.0 0
214155.0 600612.0 0
212315.0 605068.0 0
216706.0 605025.0 0
222530.0 600485.0 0
220991.0 604769.0 0
226780.0 600186.0 0
231354.0 605275.0 0
238082.0 600961.0 0
242874.0 604902.0 0
247105.0 601706.0 0
251677.0 604483.0 0
257596.0 602142.0 0
261129.0 601492.0 0
268913.0 600352.0 0
265958.0 605242.0 0
273906.0 601293.0 0
270885.0 605215.0 0
278442.0 601141.0 0
283219.0 600478.0 0
281985.0 605174.0 0
287461.0 600660.0 0
286497.0 605087.0 0
291698.0 600323.0 0
295686.0 603475.0 0
291175.0 605319.0 0
300655.0 601747.0 0
305714.0 602044.0 0
310696.0 601501.0 0
307746.0 605215.0 0
315743.0 605175.0 0
323216.0 601240.0 0
325593.0 604868.0 0
328483.0 600607.0 0
332700.0 601914.0 0
335407.0 605199.0 0
336838.0 600474.0 0
347251.0 600288.0 0
352661.0 601379.0 0
367156.0 600384.0 0
362631.0 601215.0 0
374224.0 604772.0 0
378533.0 600251.0 0
387310.0 600653.0 0
382770.0 601575.0 0
391748.0 601712.0 0
393502.0 605086.0 0
397826.0 604549.0 0
401208.0 600607.0 0
406521.0 602135.0 0
411362.0 604924.0 0
414398.0 600970.0 0
417222.0 604688.0 0
422301.0 604978.0 0
423782.0 600426.0 0
427565.0 605084.0 0
433179.0 601327.0 0
436977.0 605048.0 0
439186.0 600708.0 0
442658.0 604902.0 0
446442.0 600997.0 0
448232.0 605262.0 0
452000.0 601260.0 0
457701.0 604405.0 0
460864.0 600569.0 0
466122.0 604865.0 0
470231.0 602284.0 0
475531.0 603298.0 0
480228.0 600804.0 0
484251.0 602793.0 0
490368.0 602462.0 0
497113.0 601788.0 0
2049.82 607934.0 0
6273.74 608768.0 0
12286.7 607938.0 0
17884.9 607851.0 0
22116.3 605720.0 0
23281.6 609853.0 0
26213.8 606225.0 0
32660.6 606799.0 0
37615.8 606818.0 0
41823.5 609572.0 0
48181.3 607268.0 0
52953.0 609289.0 0
56883.7 606198.0 0
62484.7 606272.0 0
71227.9 609673.0 0
66516.2 610205.0 0
73675.5 606524.0 0
75969.0 610424.0 0
77757.8 605793.0 0
82480.6 607578.0 0
92753.0 606103.0 0
96932.6 609792.0 0
97250.1 605461.0 0
102158.0 607059.0 0
106242.0 607465.0 0
110512.0 605900.0 0
121516.0 607062.0 0
126175.0 607811.0 0
130873.0 610335.0 0
135975.0 609457.0 0
138203.0 605594.0 0
142212.0 607661.0 0
146544.0 605826.0 0
151334.0 605364.0 0
152786.0 609968.0 0
156255.0 606252.0 0
161194.0 606076.0 0
165490.0 608018.0 0
170569.0 606223.0 0
176284.0 605844.0 0
177815.0 610403.0 0
182101.0 605504.0 0
188180.0 605344.0 0
193635.0 607381.0 0
198440.0 609910.0 0
202146.0 607034.0 0
208720.0 610359.0 0
215970.0 608796.0 0
220387.0 610050.0 0
226416.0 605401.0 0
230802.0 609972.0 0
236635.0 605759.0 0
247688.0 605777.0 0
256214.0 605988.0 0
260991.0 605785.0 0
268969.0 610099.0 0
273415.0 609824.0 0
275868.0 605723.0 0
283265.0 609584.0 0
287019.0 608814.0 0
296628.0 608300.0 0
301788.0 607240.0 0
306306.0 608977.0 0
311326.0 607031.0 0
321066.0 606215.0 0
330027.0 605896.0 0
326507.0 609948.0 0
341295.0 605517.0 0
342249.0 610439.0 0
347636.0 606425.0 0
353766.0 606762.0 0
360214.0 605575.0 0
366519.0 606258.0 0
371310.0 607476.0 0
368751.0 610474.0 0
375165.0 610320.0 0
378647.0 606137.0 0
383537.0 605681.0 0
384441.0 610321.0 0
388720.0 606133.0 0
392790.0 608790.0 0
397567.0 610092.0 0
402638.0 605721.0 0
401830.0 609268.0 0
407786.0 605528.0 0
407079.0 609735.0 0
413241.0 610086.0 0
418673.0 610379.0 0
423670.0 609191.0 0
432601.0 605871.0 0
433491.0 610571.0 0
438394.0 609315.0 0
448327.0 610434.0 0
453019.0 607150.0 0
457616.0 609185.0 0
461810.0 607064.0 0
471564.0 606043.0 0
472384.0 610277.0 0
476630.0 608512.0 0
480636.0 605904.0 0
485870.0 607592.0 0
492928.0 608162.0 0
497550.0 607019.0 0
3010.63 612595.0 0
7961.1 612712.0 0
12459.0 612928.0 0
20287.6 611231.0 0
17409.7 613362.0 0
24032.3 614093.0 0
29484.2 610786.0 0
27407.0 614769.0 0
36389.3 612927.0 0
41928.3 613865.0 0
46150.6 611143.0 0
50343.7 613003.0 0
46512.1 615451.0 0
57690.9 611059.0 0
62172.8 611443.0 0
65748.9 615308.0 0
81157.6 612526.0 0
87023.8 611031.0 0
92357.4 611079.0 0
101406.0 611777.0 0
97197.8 614755.0 0
106453.0 611837.0 0
112094.0 611490.0 0
118236.0 611358.0 0
123506.0 611530.0 0
127283.0 615036.0 0
140015.0 611914.0 0
147740.0 610773.0 0
143651.0 610876.0 0
144930.0 614986.0 0
157176.0 610784.0 0
154658.0 614875.0 0
161670.0 611105.0 0
159681.0 615426.0 0
168156.0 611453.0 0
167795.0 615397.0 0
172993.0 611580.0 0
182037.0 610757.0 0
187521.0 611159.0 0
192307.0 611547.0 0
192192.0 614608.0 0
202971.0 610529.0 0
203508.0 615266.0 0
213951.0 611977.0 0
213880.0 615447.0 0
217626.0 614872.0 0
222255.0 615167.0 0
225500.0 610930.0 0
235626.0 611224.0 0
240267.0 610758.0 0
242979.0 615151.0 0
246090.0 610845.0 0
253061.0 611136.0 0
259443.0 610691.0 0
264175.0 610823.0 0
265852.0 614850.0 0
278492.0 610638.0 0
276899.0 615099.0 0
282102.0 615521.0 0
287570.0 614473.0 0
291133.0 610810.0 0
300734.0 611915.0 0
295967.0 613948.0 0
305685.0 614620.0 0
310107.0 611266.0 0
315949.0 611382.0 0
321998.0 611527.0 0
331433.0 611349.0 0
327311.0 615437.0 0
337175.0 610457.0 0
341757.0 614733.0 0
346338.0 612051.0 0
350810.0 610802.0 0
352036.0 615352.0 0
357555.0 611551.0 0
363529.0 611185.0 0
367693.0 614857.0 0
372368.0 614230.0 0
376901.0 615341.0 0
379918.0 610706.0 0
382029.0 614787.0 0
389424.0 611509.0 0
393801.0 615375.0 0
402210.0 612591.0 0
411459.0 615295.0 0
423268.0 614866.0 0
428184.0 610773.0 0
437523.0 612837.0 0
442770.0 610661.0 0
440837.0 615584.0 0
454115.0 612419.0 0
461321.0 611567.0 0
466725.0 610600.0 0
474033.0 614756.0 0
477724.0 611990.0 0
481603.0 610951.0 0
483176.0 615238.0 0
489490.0 611536.0 0
493909.0 612383.0 0
497893.0 611507.0 0
2916.24 618227.0 0
8583.89 617491.0 0
14537.6 617258.0 0
20639.3 616968.0 0
25931.8 618978.0 0
30856.8 616138.0 0
34887.3 618054.0 0
39335.4 617703.0 0
50165.8 617598.0 0
46165.4 620349.0 0
54673.5 615821.0 0
60492.3 615749.0 0
58192.7 620536.0 0
63475.2 620055.0 0
68052.1 619732.0 0
72247.0 615683.0 0
78320.1 617230.0 0
85389.5 615913.0 0
82045.4 616813.0 0
91630.7 616743.0 0
86904.6 620470.0 0
103006.0 617453.0 0
109065.0 616451.0 0
113595.0 616153.0 0
116892.0 618746.0 0
121577.0 616303.0 0
133766.0 616265.0 0
140189.0 617304.0 0
144645.0 620083.0 0
149603.0 616363.0 0
153320.0 620383.0 0
158357.0 619691.0 0
162974.0 619930.0 0
163857.0 615665.0 0
168249.0 620267.0 0
171869.0 616574.0 0
177336.0 615900.0 0
174114.0 619618.0 0
183701.0 615777.0 0
188862.0 615867.0 0
192387.0 619553.0 0
197449.0 615711.0 0
201781.0 619900.0 0
209205.0 617418.0 0
214638.0 619781.0 0
219043.0 620351.0 0
222500.0 620390.0 0
227383.0 615789.0 0
232868.0 615631.0 0
238567.0 615573.0 0
242323.0 619800.0 0
247814.0 616570.0 0
251751.0 615945.0 0
252500.0 620393.0 0
255734.0 616717.0 0
260789.0 615855.0 0
267182.0 620533.0 0
271726.0 615756.0 0
277572.0 619659.0 0
286732.0 619556.0 0
291560.0 617172.0 0
300439.0 616312.0 0
296681.0 620095.0 0
307551.0 620002.0 0
311589.0 616016.0 0
316768.0 617842.0 0
321811.0 616334.0 0
332491.0 615996.0 0
331730.0 620514.0 0
336928.0 615936.0 0
342975.0 619631.0 0
347197.0 617026.0 0
357772.0 617838.0 0
363027.0 616296.0 0
366490.0 619392.0 0
362408.0 620714.0 0
371999.0 619168.0 0
376754.0 619853.0 0
380970.0 619775.0 0
387386.0 616647.0 0
396904.0 620433.0 0
399460.0 616060.0 0
405545.0 616971.0 0
412785.0 620241.0 0
417157.0 615828.0 0
422300.0 620002.0 0
429564.0 616138.0 0
432711.0 620164.0 0
435093.0 616161.0 0
442919.0 620395.0 0
446418.0 615980.0 0
451694.0 616663.0 0
452299.0 620587.0 0
458437.0 615947.0 0
464130.0 615919.0 0
469304.0 615756.0 0
467346.0 620577.0 0
472671.0 619277.0 0
478724.0 615780.0 0
477274.0 620191.0 0
482245.0 619966.0 0
487691.0 616287.0 0
492465.0 616239.0 0
493011.0 620000.0 0
497214.0 616126.0 0
497698.0 620901.0 0
1224.94 621986.0 0
2838.6 625698.0 0
6350.03 621691.0 0
12062.3 621094.0 0
17763.9 620970.0 0
18100.4 625494.0 0
21882.5 621338.0 0
27249.5 624996.0 0
31340.1 620981.0 0
37210.7 622742.0 0
41970.1 621071.0 0
47713.8 625284.0 0
52502.2 621771.0 0
62051.8 625010.0 0
67602.3 625289.0 0
71625.7 621968.0 0
76720.2 622306.0 0
81803.5 620662.0 0
91572.2 622970.0 0
97088.4 620684.0 0
101969.0 622732.0 0
107180.0 621760.0 0
112286.0 620728.0 0
112970.0 625307.0 0
118128.0 623604.0 0
122864.0 621444.0 0
128743.0 621229.0 0
135266.0 623041.0 0
139590.0 621438.0 0
143533.0 625057.0 0
148685.0 621551.0 0
151104.0 625629.0 0
157312.0 625204.0 0
163053.0 624705.0 0
173001.0 623957.0 0
177480.0 621380.0 0
181824.0 620710.0 0
183313.0 625502.0 0
186715.0 620812.0 0
188167.0 625314.0 0
192627.0 625091.0 0
197507.0 621357.0 0
202483.0 625273.0 0
205987.0 622730.0 0
212720.0 625089.0 0
217500.0 625222.0 0
222500.0 625091.0 0
226772.0 621447.0 0
232032.0 620673.0 0
232918.0 625300.0 0
237215.0 620699.0 0
237786.0 625602.0 0
242755.0 624373.0 0
246984.0 621404.0 0
247951.0 625702.0 0
252130.0 624620.0 0
256689.0 621355.0 0
256410.0 625580.0 0
261519.0 621037.0 0
272647.0 621571.0 0
277005.0 625706.0 0
282071.0 622453.0 0
286945.0 625446.0 0
291384.0 622180.0 0
302589.0 620629.0 0
304066.0 625266.0 0
308307.0 624399.0 0
312177.0 621112.0 0
320930.0 621290.0 0
316405.0 622704.0 0
326408.0 621380.0 0
323332.0 625403.0 0
337541.0 621605.0 0
342728.0 625436.0 0
347493.0 622104.0 0
352889.0 621265.0 0
358024.0 623356.0 0
368477.0 623705.0 0
378371.0 624151.0 0
385238.0 621973.0 0
391365.0 621373.0 0
401770.0 621294.0 0
398031.0 625532.0 0
407912.0 622544.0 0
412744.0 625472.0 0
417773.0 621545.0 0
422304.0 624605.0 0
426525.0 620706.0 0
430134.0 623371.0 0
437469.0 620813.0 0
440897.0 625676.0 0
448089.0 621354.0 0
452367.0 625725.0 0
456435.0 621108.0 0
461708.0 620772.0 0
464273.0 624813.0 0
474430.0 624090.0 0
479484.0 624808.0 0
484216.0 624483.0 0
488580.0 621621.0 0
493088.0 624037.0 0
497569.0 625538.0 0
1387.58 630293.0 0
8106.28 626228.0 0
5429.85 630781.0 0
13357.1 625923.0 0
10667.1 630510.0 0
17175.9 630716.0 0
22202.2 627525.0 0
28267.0 630450.0 0
32787.4 626551.0 0
37555.5 628167.0 0
42149.5 625980.0 0
47045.6 630443.0 0
52143.3 627522.0 0
56769.8 625846.0 0
62401.5 630260.0 0
67067.1 630221.0 0
73077.1 626871.0 0
78470.2 627443.0 0
84324.5 626035.0 0
89808.1 627467.0 0
94507.0 627221.0 0
99128.3 625920.0 0
104213.0 627049.0 0
109011.0 625969.0 0
116064.0 627529.0 0
122283.0 626404.0 0
119383.0 630720.0 0
128273.0 628631.0 0
134932.0 628252.0 0
139157.0 626491.0 0
147097.0 627371.0 0
143461.0 630086.0 0
162834.0 629878.0 0
167868.0 626139.0 0
173390.0 630248.0 0
178045.0 625943.0 0
181737.0 630724.0 0
187123.0 630032.0 0
197305.0 626003.0 0
198769.0 629991.0 0
202963.0 629893.0 0
208122.0 627202.0 0
212269.0 630484.0 0
217524.0 629991.0 0
222452.0 630114.0 0
227995.0 626749.0 0
231386.0 630009.0 0
236422.0 630321.0 0
241631.0 628991.0 0
253406.0 629875.0 0
258691.0 630274.0 0
260834.0 626044.0 0
262697.0 630096.0 0
265607.0 625731.0 0
267113.0 630562.0 0
270807.0 626679.0 0
282344.0 626852.0 0
281760.0 630360.0 0
286925.0 630647.0 0
292532.0 627299.0 0
298628.0 626411.0 0
301807.0 630679.0 0
306157.0 629518.0 0
310528.0 630326.0 0
312868.0 626303.0 0
318535.0 627256.0 0
327898.0 626606.0 0
333228.0 626013.0 0
337942.0 627563.0 0
351145.0 626292.0 0
346954.0 628875.0 0
356566.0 628670.0 0
362933.0 626348.0 0
373290.0 627215.0 0
382904.0 626504.0 0
388394.0 626668.0 0
393448.0 626675.0 0
400090.0 630704.0 0
403357.0 626116.0 0
408036.0 627615.0 0
404113.0 629956.0 0
413081.0 630830.0 0
417841.0 626708.0 0
422619.0 629693.0 0
426950.0 626741.0 0
431683.0 630387.0 0
434689.0 626173.0 0
446371.0 628057.0 0
459139.0 626274.0 0
469140.0 626119.0 0
473605.0 630714.0 0
484145.0 628625.0 0
479735.0 630377.0 0
488168.0 626829.0 0
493071.0 629527.0 0
2251.05 634705.0 0
23664.8 632503.0 0
33174.0 631935.0 0
38025.1 632675.0 0
42351.6 631126.0 0
51700.2 632256.0 0
57037.0 631409.0 0
63543.5 635602.0 0
71171.6 631821.0 0
68413.4 635444.0 0
75989.7 631690.0 0
81789.8 632518.0 0
87174.7 630901.0 0
87361.1 635302.0 0
92031.7 631750.0 0
97785.4 631346.0 0
103205.0 632700.0 0
108588.0 630827.0 0
113953.0 631308.0 0
112250.0 635451.0 0
117317.0 635382.0 0
123900.0 633358.0 0
128148.0 634636.0 0
133572.0 632540.0 0
138581.0 630993.0 0
147035.0 631280.0 0
142940.0 635355.0 0
151469.0 631433.0 0
148034.0 635222.0 0
157414.0 631551.0 0
162931.0 634968.0 0
167733.0 631140.0 0
167352.0 635678.0 0
177923.0 631225.0 0
177548.0 635012.0 0
182509.0 635645.0 0
186766.0 635112.0 0
193325.0 631015.0 0
197790.0 635855.0 0
203475.0 634820.0 0
207343.0 631553.0 0
213251.0 635610.0 0
218085.0 635043.0 0
222102.0 635017.0 0
226541.0 631274.0 0
225908.0 635558.0 0
230898.0 635514.0 0
236687.0 635540.0 0
242516.0 634934.0 0
247257.0 630810.0 0
256702.0 634538.0 0
273317.0 631111.0 0
272405.0 635744.0 0
277760.0 631218.0 0
283208.0 634488.0 0
290954.0 631821.0 0
296059.0 632386.0 0
301122.0 635278.0 0
307517.0 635625.0 0
314969.0 631795.0 0
320026.0 632265.0 0
325559.0 631942.0 0
331260.0 630959.0 0
336023.0 631567.0 0
332172.0 635857.0 0
341930.0 632116.0 0
351316.0 631716.0 0
347141.0 634015.0 0
356238.0 634510.0 0
361339.0 632452.0 0
367872.0 630956.0 0
373039.0 633990.0 0
378841.0 631390.0 0
382441.0 635229.0 0
384990.0 630972.0 0
389869.0 631958.0 0
394761.0 631014.0 0
397571.0 635773.0 0
402510.0 635314.0 0
407163.0 632530.0 0
411591.0 635823.0 0
418151.0 631430.0 0
422672.0 634978.0 0
427223.0 632004.0 0
432568.0 635155.0 0
436344.0 631378.0 0
441384.0 631467.0 0
446059.0 633184.0 0
451470.0 632420.0 0
457319.0 631953.0 0
462092.0 631096.0 0
467363.0 632227.0 0
477795.0 635513.0 0
482888.0 635415.0 0
487504.0 632468.0 0
492474.0 635576.0 0
497910.0 631579.0 0
497389.0 635565.0 0
5509.65 636809.0 0
10551.5 636455.0 0
17098.3 637209.0 0
22578.1 637270.0 0
27819.9 636012.0 0
33300.7 637396.0 0
38720.9 637487.0 0
42824.4 639287.0 0
47149.7 636252.0 0
53065.0 637245.0 0
58243.6 636709.0 0
72798.1 636352.0 0
77431.0 636264.0 0
82587.3 637453.0 0
92602.6 636922.0 0
98306.6 636875.0 0
102958.0 637408.0 0
107348.0 636021.0 0
121409.0 636893.0 0
125469.0 637635.0 0
132022.0 638104.0 0
137311.0 635969.0 0
153306.0 636859.0 0
158555.0 636896.0 0
172156.0 636116.0 0
191008.0 636671.0 0
208223.0 636072.0 0
248074.0 636352.0 0
252468.0 636039.0 0
261167.0 636516.0 0
266722.0 636359.0 0
277884.0 636464.0 0
288489.0 636110.0 0
293411.0 636811.0 0
297315.0 638271.0 0
313461.0 636738.0 0
318548.0 637033.0 0
323109.0 636466.0 0
327406.0 637477.0 0
337484.0 636958.0 0
342739.0 638056.0 0
351731.0 637140.0 0
347162.0 637992.0 0
359364.0 638272.0 0
363861.0 637070.0 0
367876.0 636025.0 0
377169.0 636679.0 0
372504.0 638461.0 0
386630.0 636045.0 0
392401.0 636378.0 0
406593.0 637541.0 0
417292.0 636793.0 0
427657.0 637204.0 0
438073.0 636021.0 0
443221.0 636966.0 0
448245.0 636920.0 0
452855.0 638163.0 0
457361.0 636584.0 0
462248.0 636206.0 0
467098.0 637532.0 0
472289.0 636927.0 0
487941.0 637591.0 0
POINT_DATA 5000
SCALARS Radius float 1
LOOKUP_TABLE default
5120.0 5073.35 4133.88 4834.9 6044.04 5415.48 3863.18 6182.6 5840.26 6110.27 5670.04 6716.79 4665.12 4094.62 3850.77 5546.39 5325.36 5085.53 2356.98 5351.6 4998.37 5492.18 5258.36 5061.3 3642.12 3163.97 5812.43 5122.66 5906.14 5484.19 7513.1 5254.28 4436.4 5733.48 4672.91 5580.89 5645.7 5176.86 6810.52 3672.51 5561.06 3615.22 4380.59 7613.27 4951.03 4780.03 5495.39 3856.1 3383.4 3936.02 5980.74 4927.02 6483.19 5484.83 5945.65 5538.89 4730.36 4715.55 5867.73 5013.56 3951.75 4499.64 4375.68 5542.27 5054.98 6030.06 5170.02 3557.27 4927.31 4688.68 4402.52 4517.56 4182.53 5903.42 3588.44 3761.32 3955.56 4118.05 4366.19 5553.16 5065.13 2938.66 4940.78 4231.61 4008.92 3942.53 3379.84 4827.82 4805.87 3607.45 3589.27 5759.91 3038.33 4333.2 5529.52 4295.38 7199.21 6124.89 5252.48 3554.9 5708.81 4015.92 3996.0 4487.31 4044.71 5816.2 5109.54 4174.52 6759.9 7021.47 5416.38 6059.59 2720.68 4955.55 5701.86 4238.81 3563.63 4468.59 5885.03 2837.58 5325.02 5200.76 5017.13 4862.64 5185.34 4432.58 6684.56 3968.64 4688.67 2635.86 5292.64 6166.5 5305.17 5936.02 4290.3 4861.08 4003.05 4712.33 5227.21 3997.1 5697.78 3260.67 5123.52 4392.68 5615.42 5255.32 6037.08 4523.7 4382.74 4049.23 5337.48 3586.91 4929.8 5481.78 5542.21 5043.05 4002.16 5693.81 3829.13 3091.3 6230.49 5418.62 4601.27 5493.32 5926.61 5740.68 6051.14 5836.15 4345.55 3261.21 6704.06 3653.41 3871.88 3856.01 5246.2 4390.66 5279.39 3673.74 5205.43 4827.23 6116.18 7447.37 4924.6 4385.06 4733.32 7184.19 2924.37 2899.43 3867.67 5399.73 5390.22 3888.21 6038.78 6902.81 4667.36 4091.31 4254.17 6372.62 7565.34 5091.39 6756.95 6324.23 4329.05 4151.94 4685.34 5601.05 4651.28 4384.42 4516.43 3103.0 4948.92 5637.59 3115.91 3307.12 4937.14 5924.89 4778.34 4138.16 3486.22 4684.5 5789.98 6458.82 7054.71 5489.43 3641.64 4277.89 5747.75 5054.25 4195.44 4796.33 5539.32 5360.19 6496.85 5600.93 4874.39 5541.59 4124.71 5728.85 4911.47 5803.39 5863.59 4381.97 6257.19 3255.82 2812.98 5242.73 4065.69 5603.15 4695.45 4660.72 3921.18 5891.05 5308.1 6644.76 5629.19 5090.24 2240.39 5923.5 5096.78 4612.68 4129.43 5293.9 4727.24 3320.52 3843.58 4931.38 4736.58 6082.81 5110.37 5927.43 6355.42 4362.19 5690.56 3693.63 4493.48 6084.86 5478.92 5551.36 6894.71 4414.54 6138.47 6029.66 5527.54 5573.7 4727.62 4055.8 7325.81 5280.17 6425.26 4794.96 6186.19 4839.34 5083.08 6834.49 6337.56 5525.39 3998.5 4024.3 5938.34 6394.38 5555.28 4737.14 5169.36 4686.65 5556.96 6052.7 3798.62 5581.75 6392.01 3666.57 4907.89 4937.02 5655.21 4786.6 5740.84 5530.87 4973.83 4281.49 3912.37 6142.94 4194.5 4602.25 4270.53 5191.63 5344.25 4043.57 5379.87 4792.73 4501.51 3485.26 4556.36 3240.09 5664.98 3191.99 6327.9 4048.37 5492.26 5244.78 5762.84 3937.74 4749.8 5082.6 5810.84 5094.44 4230.54 4655.49 4467.94 4850.81 6038.14 2540.31 5120.49 6302.8 5262.61 5697.4 6038.2 4270.95 4005.44 5206.78 5555.88 6732.43 5143.58 4484.76 4840.01 2980.99 5611.2 7933.0 4455.12 5173.87 5380.13 5711.87 5118.27 4941.22 5932.23 5834.74 4479.66 5788.23 5367.2 3043.85 5461.13 6730.19 4907.06 3735.44 4073.93 5163.9 4645.41 4433.59 6445.94 4310.18 6342.25 4218.06 6691.39 4790.08 5082.47 4840.84 5344.0 4593.7 5681.38 4478.15 4138.42 5925.6 3708.04 6013.14 5513.6 4901.41 5138.31 5264.06 3688.8 4659.59 4548.16 5449.18 4220.88 6519.71 6640.13 5478.47 3748.24 6142.37 6061.47 4933.21 5375.47 4566.18 4723.12 4964.09 5201.36 4306.53 5024.9 5409.61 5094.81 5972.06 5713.22 5861.71 5028.96 3183.98 3794.63 3866.16 4524.28 6362.12 3778.1 5152.36 4511.82 5826.64 4220.65 6820.42 4816.2 4894.16 4896.52 3372.79 4751.02 5184.56 5282.64 5791.61 3369.13 4808.52 5607.24 4726.76 3599.45 5839.13 5495.68 5489.34 6043.3 5952.75 4320.28 5542.14 4931.53 7134.64 5480.13 5978.9 6308.71 3629.62 4187.56 4997.27 6045.46 5135.69 4301.06 4763.45 3815.26 4150.99 5445.87 4216.92 4107.03 3929.19 3771.48 4271.69 5198.77 5147.67 5987.17 3979.82 2765.2 5006.58 4602.86 4581.13 3369.23 4621.75 4551.24 5358.59 4515.71 5367.52 4322.15 3092.35 5210.03 4714.54 3320.11 5351.39 5119.37 3982.23 6163.38 3459.9 4997.27 4093.08 4809.42 4717.05 5659.17 6135.57 4312.67 5423.8 4359.04 4989.15 5017.78 5015.69 6175.81 4727.24 6677.09 6959.81 4829.35 5201.67 6321.41 4089.76 5526.55 3192.41 4987.87 4715.72 3315.57 4669.66 5804.71 4764.96 5046.33 4242.52 5053.92 6352.26 3847.38 4087.15 3818.59 4863.72 5002.48 5708.14 5537.72 4262.82 3920.42 6332.36 6122.55 2739.94 4223.33 5911.67 4716.19 5514.76 3456.98 4290.14 4020.32 4877.67 4704.72 4245.72 4177.94 4571.7 4344.58 4742.68 5634.83 5113.21 4502.5 5499.11 5922.5 3633.87 5643.58 3970.25 4850.01 5577.04 4292.06 5011.31 6318.18 4481.53 5586.81 3856.59 4219.07 5413.79 3610.4 6387.01 6202.55 5025.39 3629.96 5893.5 5030.91 6022.17 4583.31 4503.89 5806.08 4853.39 5243.29 4449.22 5543.27 5856.11 5287.2 4109.88 4234.94 5998.38 5013.13 4270.24 5080.66 3417.33 4926.42 4164.13 4642.34 4520.1 4947.52 5874.89 4305.57 4293.03 5813.4 4389.21 3791.79 4925.44 4424.7 4754.05 4951.47 6084.93 5215.15 4739.42 5020.12 5727.3 5281.28 5356.51 4277.88 3057.03 4758.21 4143.08 7500.97 6623.85 5102.36 8332.24 4342.9 6155.31 5329.64 3323.28 6695.82 6405.76 5835.78 6562.18 3498.2 3066.13 5908.1 4541.21 6048.7 5896.46 5495.84 4164.68 6268.1 7034.11 5782.6 4862.21 4527.08 5347.48 4810.12 2775.04 4138.46 5215.05 4986.77 3821.72 5137.34 5330.45 3948.17 5077.33 4746.52 5572.95 6338.89 5584.06 7111.16 3817.13 4547.19 5507.24 6851.54 5570.3 3813.22 4336.42 4306.11 7589.94 3130.65 5628.24 5004.67 5365.89 3327.49 3960.8 5992.26 4562.29 5070.39 4980.85 5714.58 5110.45 5208.32 5248.77 4083.97 4607.02 5153.74 3895.51 4528.09 4165.81 4128.98 6291.51 5882.89 6246.22 4188.32 5246.61 4307.28 4100.38 3697.96 4723.48 5538.93 4899.11 4745.45 2631.9 6255.18 4668.71 7228.46 3948.23 5228.18 5787.31 5065.11 4553.56 5069.84 4051.44 6049.55 5709.62 5941.72 5794.24 5105.16 4302.5 6006.16 4156.38 6009.88 5316.75 5022.8 7055.53 3784.5 6133.92 3719.84 4178.4 5934.22 5253.55 5820.48 6946.21 2586.12 6261.42 6125.34 4011.77 5965.78 4374.35 6396.74 6898.19 6035.6 5198.29 5423.0 3975.31 3689.45 5125.78 3824.16 3868.18 6723.16 5372.61 3686.21 6480.17 5023.15 4377.07 3844.9 3695.36 5101.59 3963.86 3848.93 6020.48 5935.47 3402.32 5903.66 4528.49 5419.37 4466.03 4511.54 5409.33 5196.0 4923.9 3329.99 4973.78 3947.47 3296.27 5091.68 4713.25 4204.84 6243.0 6673.96 3556.85 5441.96 3435.9 5174.89 4288.3 5370.52 4652.29 5774.81 3746.31 5344.77 5027.98 5097.87 5346.27 4278.07 7267.18 6256.02 2691.29 5320.92 5269.18 4406.1 6362.14 6719.88 5034.59 3927.99 5978.82 5266.5 5868.82 4066.38 4050.9 4978.31 4241.89 4099.77 5054.74 4981.9 4127.74 4537.32 2476.04 5991.09 4678.38 5448.61 5050.65 3937.08 4827.33 5513.57 5013.67 5729.23 5669.65 5826.04 3780.23 5624.49 3095.48 4861.06 3979.26 3471.03 6608.73 4359.62 3745.84 5011.84 6057.22 5062.71 5433.8 4497.59 5975.63 5252.34 2965.79 7099.43 5526.14 5315.4 6449.45 4044.45 5344.43 4373.47 5045.38 6034.41 5350.88 5130.91 5402.24 4519.22 6445.22 4564.34 4871.44 5076.35 6375.99 5200.05 5234.29 5313.66 2651.49 5512.23 5275.32 4898.94 4178.15 4613.31 4733.04 6119.09 5788.66 7531.29 5069.25 5048.89 5935.03 3161.47 3991.03 6390.78 7435.25 6826.57 4788.87 4495.87 6022.72 5498.32 5527.33 4643.31 6475.1 4969.21 4880.14 2845.98 5289.52 4982.31 5314.85 4305.43 5450.44 6510.17 4942.77 4263.33 5080.18 4454.63 4523.88 3279.1 4948.98 5227.52 4414.48 4729.43 5163.02 4656.78 4092.24 4562.74 5126.91 3942.07 5133.97 7443.72 5371.02 5260.34 5206.48 6586.45 5226.0 5339.78 4166.08 6481.79 5762.59 5320.28 4298.67 5960.66 4962.09 3999.48 4203.26 5188.81 4730.41 5696.88 5690.26 4156.2 4289.17 5564.02 4274.61 4410.55 6314.07 4287.63 5776.37 3627.82 4516.28 5678.96 5262.19 4244.9 6070.58 5022.28 5452.83 4959.34 4948.5 4527.02 4591.87 4531.14 4247.15 5013.42 3838.56 5651.07 6248.81 4602.85 5872.05 5273.35 4091.8 4645.58 5181.4 5985.29 4247.23 4268.65 4694.83 5509.42 4354.08 4256.43 5936.36 4520.62 3903.75 4755.47 4485.99 5127.16 5475.8 5314.69 6050.81 5543.46 4249.46 5965.81 3702.37 5660.85 2330.66 4177.19 6917.52 5402.21 4989.09 6718.19 4307.48 3848.54 5941.4 5331.02 4871.96 5742.65 5592.32 5381.16 5912.61 4403.98 4560.84 6086.96 5233.78 5776.57 7144.24 3600.43 6600.94 4788.58 6155.1 4709.35 5876.71 4373.3 4750.78 5029.78 3365.82 5374.51 4123.6 7092.87 5224.12 4970.88 4850.14 4471.58 4796.58 4569.12 6098.14 5873.69 6222.42 5654.31 5470.77 4643.85 3923.03 4004.04 6062.05 5607.14 5082.74 6915.83 5092.37 6072.45 4027.46 6444.77 5759.46 3921.08 4190.31 7055.42 5486.68 6048.86 5490.43 4285.32 4986.51 5197.52 5178.99 5383.07 5615.35 4790.78 6422.84 6552.22 5379.09 5210.48 4962.77 7552.94 4853.02 6259.23 5088.44 5670.2 4711.62 4662.56 4114.24 5349.31 4649.22 2976.22 5394.55 5094.52 4946.74 2682.24 5928.32 5229.48 5475.7 4016.18 5526.75 5435.74 4244.99 5327.45 5560.26 6185.89 3997.96 4750.17 3460.94 3990.25 6184.4 3691.0 3758.07 4752.51 3587.05 4236.14 6229.37 4407.87 5282.91 4425.84 3797.33 7256.35 4800.69 4863.23 3555.86 4402.67 4470.61 6386.78 5565.13 4631.83 6193.35 6887.27 3701.27 4806.34 5683.26 5598.74 4906.82 5131.24 5687.83 5004.23 5196.67 6442.69 6496.67 5474.8 4648.04 6262.72 4163.5 3664.11 4143.78 4538.95 5965.15 6739.08 4763.66 7042.12 4797.52 6326.39 6343.14 5501.93 3637.61 5463.38 4472.17 5945.21 5750.71 4938.74 3474.39 4200.03 4831.47 6939.12 4735.33 5411.85 4413.85 4844.57 4470.98 4864.22 3901.8 5511.88 5083.41 6248.6 3836.45 5683.61 5100.25 6894.26 5311.03 5339.38 5255.12 6169.11 4896.11 4027.09 4135.62 4502.18 5801.99 5534.94 7644.38 4051.34 6101.92 3627.55 5323.3 4635.6 4998.21 4256.67 3457.48 5166.79 3931.07 3405.98 5417.15 3688.16 4681.72 4945.39 5996.33 3950.63 5415.19 4612.62 3619.07 4275.57 4467.04 6385.23 2983.99 2614.4 6363.92 6205.93 4439.35 5830.72 3828.81 4373.45 4082.57 5733.62 5169.9 5282.51 3004.16 4460.92 5945.89 4042.28 4105.55 6566.1 6065.22 4221.28 4996.99 4896.39 4384.88 6081.14 5480.83 6008.49 4220.46 5653.9 5046.21 4929.14 5894.61 5139.5 7493.3 4814.55 6320.71 5833.06 3527.05 6607.87 6515.84 5117.47 5724.64 2990.77 4925.63 4888.6 4666.81 5078.86 5163.55 4780.2 4819.73 6817.32 6263.44 4319.79 5960.56 6643.85 5774.97 4020.95 5462.21 6313.06 6345.13 3493.7 6470.3 4719.7 5516.95 4406.4 5313.22 3905.51 3999.94 6171.13 2395.5 3497.9 5941.61 4512.11 4933.65 6098.1 5443.58 4558.46 5805.86 4049.02 5346.68 4470.4 5296.29 4611.53 2681.29 5094.48 4285.66 4238.4 5172.53 4318.48 6132.95 5266.22 4860.33 3685.13 3312.06 6004.68 6799.4 6239.84 5865.39 6079.11 3082.32 6430.39 7440.72 3949.6 5703.6 6326.18 5661.62 6631.19 6648.68 4713.74 5626.61 5817.25 5407.78 4084.49 5061.98 6632.99 4537.6 4923.24 5147.36 4419.61 7177.44 5309.98 4563.46 6553.94 5255.18 5460.65 4767.78 5235.17 4779.5 4421.12 4340.76 4435.36 5254.49 6649.96 4456.39 5514.84 3633.79 3914.2 5421.53 4607.85 5612.21 4287.53 5128.57 6000.7 5945.08 3169.67 3979.54 4968.03 5304.13 5944.09 4863.79 4702.06 5698.77 3464.83 2477.07 4497.31 3163.78 4721.32 4305.16 3293.56 5882.65 4739.14 4918.77 4636.5 5100.1 4940.42 3382.7 3954.91 6471.55 5085.71 5923.4 3295.83 2965.01 5644.82 6413.02 4863.27 4118.84 5122.63 5862.86 6766.43 6049.79 5374.98 5226.56 5274.19 5599.49 4097.57 5017.5 5563.79 6853.85 4151.76 4020.4 3493.47 4721.02 4596.75 4254.37 5782.48 4031.78 5708.99 5687.85 6401.43 5020.71 5997.88 5839.71 3872.61 5576.92 6408.83 3930.79 4004.35 5226.97 5754.18 5180.76 3361.26 4480.95 3418.99 5278.36 4409.63 5521.25 4427.28 5370.85 3661.9 5949.46 3658.37 3178.54 4765.02 5376.71 4448.13 5070.29 4807.28 2261.36 4867.08 4266.03 5280.69 4220.03 6923.84 5449.46 6179.96 6113.54 4662.43 6260.79 3963.76 5528.53 6799.88 5726.66 5652.0 5426.78 5463.41 5225.33 4929.75 6045.22 4614.3 4303.19 5134.39 5784.3 4256.57 6088.68 5937.08 4135.08 6070.3 5620.74 5233.29 5604.21 4312.56 4612.06 5204.04 3361.92 3306.14 5490.58 5395.14 4923.41 3967.48 6213.04 3830.46 6413.11 5092.28 5529.42 5274.14 4434.19 4903.82 5746.28 3703.1 4371.99 4946.42 6090.91 3561.29 4219.78 4963.34 5081.78 4188.3 5019.93 4459.28 5235.29 4260.92 5499.39 4479.94 6250.23 4407.9 3492.19 4440.57 4584.5 6235.57 5548.29 3623.87 2315.64 5916.16 4703.08 6934.37 4390.41 4890.5 6113.95 3731.84 4050.08 3981.07 4901.07 5452.42 5186.3 5328.22 3436.15 4216.17 6484.17 4938.72 3546.71 3374.08 5768.57 5564.23 3735.24 5950.04 4231.83 6574.95 2435.33 4074.48 6333.29 4558.47 5731.57 5662.55 5737.92 4360.23 5365.24 5293.51 4763.96 5008.63 5132.68 6595.03 4993.35 6218.95 5222.16 5107.23 5136.08 5558.68 3776.94 4010.57 5629.39 2684.03 6157.04 4768.61 5075.55 4522.21 5506.19 6719.94 4950.67 5227.59 6166.29 5453.6 5703.07 5294.77 4709.05 4630.82 4043.66 4813.08 5860.67 3062.43 4540.86 5990.52 4835.83 2967.38 4159.35 5604.35 6477.91 4237.98 3091.67 6439.37 4081.97 5401.99 5580.92 3532.3 5769.98 5442.32 2221.99 4643.56 4863.01 5356.79 4778.82 6124.08 5467.84 4750.58 5053.95 6710.88 6667.68 5235.11 5211.38 6031.67 5384.76 6138.12 5257.12 4428.78 4965.89 5187.7 5659.95 4082.47 4152.85 4623.61 5511.6 4453.64 3885.86 6261.75 5177.64 4517.73 4338.08 5660.16 4255.31 4541.8 6116.33 6134.99 5453.3 4718.54 3838.47 2588.37 6736.03 5203.08 5412.31 3087.09 5374.07 7480.41 5163.77 3423.15 6027.62 4488.85 4579.69 3554.48 6496.52 5005.85 5711.11 4575.94 5325.44 5021.88 5956.65 4498.25 4188.87 5151.21 5398.64 6817.57 3614.96 4477.04 3886.68 5703.74 4747.55 3056.7 3755.95 6234.32 5591.76 4586.19 4585.31 6625.18 4446.06 5323.91 3450.93 4270.74 5097.45 6293.89 5737.75 4558.15 2761.07 4983.39 5366.52 4690.55 5533.72 5533.42 4802.32 3678.08 4599.38 5246.47 4187.31 6191.29 7422.36 3240.51 5161.01 4298.15 4628.4 5832.37 6051.83 4642.93 5409.63 3973.12 4263.16 3077.84 6024.75 6109.49 5567.93 5987.42 5332.65 3764.1 6451.33 6316.56 4332.87 6420.81 4715.58 3317.83 4450.7 5151.52 5973.33 3583.21 4347.74 5291.9 5067.46 4009.62 3580.58 2511.46 4011.37 2775.69 5657.36 6519.43 3619.79 5876.64 5029.47 6306.21 5926.11 5253.37 5767.9 6515.8 6622.11 4689.15 3685.13 6790.73 4655.16 5243.43 4741.26 5409.66 5920.32 4537.14 4186.6 5251.4 5551.9 3867.19 4345.67 4765.72 2908.7 3757.34 6415.61 4642.66 4752.14 5276.7 4378.3 4687.64 4419.71 4888.12 4950.97 5037.06 4989.56 5175.29 5842.56 4094.73 5191.08 4062.5 5887.15 4435.51 5415.85 8659.64 4588.7 5683.95 3766.55 5469.13 5765.42 5010.2 6098.95 6123.03 5966.61 4997.83 4893.49 4388.63 4834.87 5102.75 4597.29 4200.09 5931.77 5097.95 5108.06 3573.73 4693.52 6853.04 3420.08 4745.43 5831.96 4912.04 5464.68 2685.81 4510.8 5889.35 5010.04 4570.98 4275.07 5825.38 4185.61 4047.87 5742.47 3778.02 6552.21 5417.8 5146.37 7132.12 4836.16 5518.57 5151.11 5463.48 5730.33 5545.46 4527.99 4376.7 4543.1 5190.61 8325.01 4440.81 3764.06 5941.9 5434.47 6642.76 5829.22 4497.78 4243.79 5811.18 5433.65 4442.22 4887.76 5413.31 4669.06 3012.99 6400.08 4743.59 5208.14 4396.25 3763.05 5092.24 5369.08 3101.75 4518.04 4766.06 4874.18 2081.58 6505.78 4785.25 5461.55 4270.15 6865.76 5424.46 5266.01 4908.49 2978.76 2040.66 7016.27 5884.9 5089.62 4590.55 3685.65 3876.21 5869.4 4916.22 3701.16 6022.7 4255.85 5097.69 5857.79 3988.3 4039.91 6136.49 6543.13 5149.72 5036.58 5469.47 5329.59 6119.63 5464.25 5411.02 4244.21 4752.9 5512.16 3197.63 5301.47 4287.16 4863.96 4617.55 3645.12 5199.44 6200.54 5424.88 5148.58 4199.45 6599.66 4055.54 6419.12 4233.8 4976.12 4817.16 5453.98 3991.42 5148.08 3718.69 4514.79 3672.21 2216.82 5760.22 4509.89 5938.17 4795.43 5269.38 5607.3 2928.82 4914.45 4222.4 4698.87 4000.43 4661.03 4568.41 3624.7 5262.35 4691.91 4539.07 4255.34 4475.83 5064.79 5480.3 7509.24 4394.56 5896.26 5388.78 6101.13 4573.72 5099.21 4917.99 5636.4 4367.78 4350.12 5227.02 5670.0 4232.16 5300.96 4344.51 5680.94 3781.77 5581.55 5193.01 3474.5 6550.44 3860.83 6348.03 5732.27 4523.39 5278.56 5146.37 6917.62 5631.14 4013.38 4343.78 5263.3 4909.65 4008.15 6523.86 7693.4 4811.32 4286.49 4326.48 6184.88 5829.32 6405.0 5551.95 3918.87 5549.49 4633.05 5423.42 6605.86 5012.5 5435.19 3562.79 7093.13 3298.2 4953.1 6449.64 4857.84 6464.8 4962.21 4684.44 4749.59 4858.44 3468.42 5799.69 4673.35 5689.26 4992.42 5297.19 4940.84 4732.09 5895.77 5750.07 4833.46 5933.7 4809.67 4356.25 4757.74 5776.96 4216.95 4209.49 5742.74 3946.28 3821.94 5984.81 5439.9 3498.16 5486.48 5367.73 4409.27 4947.24 3875.05 3456.47 3540.11 5471.74 4344.34 4652.01 3548.39 5421.64 3673.28 7234.66 4858.51 4207.54 3375.28 4886.12 5625.65 4301.61 6107.89 4446.84 5530.49 5660.55 4304.41 5653.03 6192.0 4940.28 5885.28 6752.75 3004.34 5323.55 3022.6 5375.1 4811.76 5313.12 5351.56 3984.88 5160.59 4732.09 4320.42 7165.9 5344.83 7046.11 3427.63 4146.81 6342.48 5756.75 4587.67 5599.7 4163.74 6969.28 3665.95 5698.96 4095.75 3603.51 4298.45 5222.51 6609.84 5135.96 3834.43 5658.37 4707.06 6074.94 5491.37 4250.88 3783.54 3475.67 4792.39 7038.89 3863.67 4814.12 5067.56 6137.8 3352.35 2735.53 3747.03 5116.6 2783.85 4356.49 3994.07 4437.07 4219.94 3449.37 5491.9 5907.46 4264.91 4659.16 5789.55 5399.29 2275.45 4909.31 4901.2 5711.62 4383.56 4990.79 5166.79 4516.53 2895.63 5818.95 4093.99 3940.49 3604.14 4452.54 4406.05 4680.94 5828.35 5571.72 5876.72 3809.69 5236.43 4771.13 3208.96 5285.07 7051.9 4608.41 4184.23 4144.57 4351.38 5550.75 6834.41 7248.4 6045.67 5466.33 5280.12 4444.97 5721.05 4209.31 4247.69 4640.06 4514.39 4588.99 6242.79 4321.21 5950.45 5713.03 5849.65 3583.49 4928.27 5052.84 4366.74 5297.16 4936.96 4481.76 3184.64 5206.33 5452.78 5065.26 4892.44 5578.94 7610.49 4286.17 6579.31 6028.09 5452.36 3804.5 4172.6 5498.42 3344.57 4196.37 5318.53 5220.76 4281.98 5138.2 5783.48 4449.98 4863.97 4771.65 4840.44 5093.82 5951.81 3924.14 6918.35 4296.69 6238.32 3319.67 6804.79 6471.42 5283.8 5369.5 4076.59 4428.14 5164.1 6464.15 4479.11 4972.17 6685.4 5699.53 4222.77 6332.01 5268.38 5527.23 4805.33 7085.01 5980.95 6193.08 6069.3 5887.01 5168.35 5388.39 3728.18 5335.47 4526.81 5633.61 5048.19 4888.27 6740.71 6487.56 4854.11 5971.22 5533.19 6522.59 6602.43 4798.17 3568.28 5425.98 6479.39 4122.92 4405.42 4997.91 5079.22 4599.81 5381.54 5810.77 5089.1 4714.83 2711.19 4028.32 7519.2 4099.92 4884.59 6355.68 3858.06 4478.6 4680.14 4511.7 4083.79 4187.94 4304.63 5980.59 5263.27 6300.92 5021.77 3796.15 6226.14 4173.54 4801.8 7216.98 3000.29 5046.12 5271.02 7013.17 5718.28 3805.67 4601.74 6101.86 6506.86 5088.57 5993.0 5580.34 3852.6 5134.67 5775.31 4165.21 4215.0 3332.49 4603.5 4647.67 4214.44 5375.12 4787.97 4356.36 4981.43 3746.36 6789.23 3989.7 4777.03 4246.61 3684.56 6813.72 5327.75 4609.02 6486.37 4638.18 5211.6 6448.66 4453.97 6945.98 4701.5 6412.67 7001.83 4504.35 5012.97 5589.37 5439.49 6639.64 5212.43 4834.3 5454.12 6348.54 4066.57 5642.35 6372.13 5404.01 6016.19 4124.49 3230.13 5714.25 6176.67 5325.96 4850.06 5016.02 7044.29 4234.18 4920.21 4049.16 3936.95 6153.94 6836.82 3862.77 3858.17 4631.99 4740.98 3185.39 5934.82 5128.77 7122.87 4243.26 6799.23 5119.86 4592.15 5084.17 4901.44 3776.8 4998.22 5417.21 6104.26 5583.61 6063.64 5996.66 7382.3 2995.67 4022.56 3598.08 5522.21 5698.23 7300.58 3608.06 5474.15 4923.57 6633.61 5217.95 4867.7 5484.36 3953.55 4063.9 4469.54 4314.56 5161.1 3928.53 4619.2 5606.51 5599.29 5166.41 5740.65 6038.68 5067.56 3834.47 4807.4 6329.53 4590.01 6541.45 4750.49 4227.41 5078.31 5391.48 4803.57 4923.43 5966.42 4110.59 4847.14 4706.5 3950.27 5354.66 5116.66 3566.79 5378.23 5374.67 6246.56 4741.28 4061.6 4215.2 2603.64 5069.89 5107.0 4157.29 6212.15 4783.07 4896.65 4946.23 4852.58 6083.28 6100.73 5806.31 3556.79 5456.71 3503.41 7317.04 4908.75 3971.08 6204.65 4482.9 4593.7 4036.91 5110.11 6379.14 3687.65 5216.26 4887.52 5478.95 3851.85 6318.23 4206.98 5156.76 6357.47 6101.57 4891.38 5535.91 2949.12 5955.86 4532.89 4533.37 4848.46 5412.24 2779.99 5887.38 4581.37 6942.34 5851.61 5478.11 5526.31 5030.15 3644.78 3477.1 4078.93 4501.78 4922.49 3572.94 5797.36 5001.58 4153.84 4820.17 4729.42 5089.26 3886.72 5415.45 6592.93 5096.43 6156.21 6436.74 2460.79 4653.83 6171.71 4986.71 3628.89 6589.82 4668.88 5027.43 3772.3 4855.01 5522.75 5867.64 6208.9 3340.09 6059.93 5602.53 6061.63 2279.05 4829.35 4075.28 4277.24 4989.2 8137.11 5291.05 6650.77 4067.96 4824.12 7104.73 2596.96 6162.3 6349.67 4350.15 4264.54 4139.3 3516.27 5261.19 4263.78 4643.9 5228.75 6047.14 5131.15 5009.83 5666.95 5210.38 5717.8 4811.22 3629.44 3683.86 5003.78 4918.76 5293.75 3299.24 4208.41 5826.78 5473.72 2856.55 2205.51 4553.68 5361.87 6502.97 3758.22 4757.2 4374.74 3205.68 4532.7 5561.74 5975.23 4788.08 4745.79 4198.94 5470.04 4211.82 6556.26 5684.25 5438.92 6550.4 4349.13 3766.69 4891.67 6818.91 3634.5 3503.65 6631.28 6571.31 4392.65 4058.87 5174.75 5932.07 4984.46 5948.71 4793.65 3856.53 5460.89 6040.74 5260.85 5742.09 2884.65 5807.46 4648.21 4393.16 3658.05 3311.29 4549.69 6423.81 6192.77 4312.15 6418.11 6015.02 5244.22 5585.14 7039.98 4159.81 5244.98 5792.98 4385.81 4034.05 6350.71 3862.91 4456.11 5096.24 5039.12 3908.98 6328.42 7307.21 3381.82 3619.72 4646.51 4438.58 4565.93 7107.63 5073.02 6545.43 3472.91 6760.92 5868.89 4711.04 5484.32 7144.05 4506.18 2970.9 4099.26 6542.5 4383.47 5971.21 5701.75 3272.75 5262.47 3104.96 3512.94 7043.44 4263.65 3831.52 4258.98 6106.43 4807.35 5467.63 4568.64 3919.62 4642.2 4127.53 5750.35 5210.75 4474.83 6555.44 5658.14 5730.61 4508.18 6214.73 5175.89 3894.64 4268.19 3703.49 5232.85 4062.56 6200.63 4504.86 4473.29 3217.67 5079.64 6163.54 5212.37 6003.78 2628.22 4244.49 5058.51 5036.98 5513.8 4521.75 4027.63 5569.2 5350.88 5420.67 6413.15 6103.11 5048.55 6459.51 4024.31 4955.16 5844.72 3992.97 4147.31 5989.05 4054.22 7228.94 5393.65 4961.99 6551.93 4595.12 3110.13 6484.43 4625.67 3485.54 4458.64 4583.52 3657.69 3492.83 6280.13 3684.15 5832.29 4438.76 6006.89 6456.58 3965.3 3814.65 4960.64 4983.3 7778.01 5690.96 5798.38 5805.1 4125.9 5366.11 3419.87 4234.88 4824.81 4384.28 5769.14 5944.3 3563.14 5135.5 5347.9 5851.63 4504.52 5212.92 4831.93 5788.97 4928.85 4023.93 6440.38 5556.0 3274.85 5007.21 5494.28 5610.53 5206.47 4580.06 4834.39 4835.97 3926.11 5493.89 7066.96 4467.0 4991.35 4587.7 5196.92 3787.08 5644.81 6761.81 5334.36 3903.91 4728.55 4929.6 4368.28 4489.99 4692.32 4548.45 4658.11 4551.26 5114.07 4385.49 7124.45 6358.93 5064.67 6618.21 2617.39 3717.47 5144.44 4051.18 5969.37 6816.66 5034.69 996.652 4509.46 4680.69 6500.49 5965.58 3352.34 4901.29 4775.04 4050.03 4120.07 5188.53 4882.66 3429.57 5410.33 4642.74 6735.97 5305.59 5416.45 4330.58 5754.6 3288.01 4904.51 2202.77 5751.15 5950.88 4149.55 4441.22 5853.89 3380.69 4140.4 4386.8 5446.4 4725.01 5966.75 5510.9 4505.28 4883.63 4971.29 5510.45 4730.14 2606.51 3994.39 3864.92 6119.99 4618.73 4128.1 3668.93 5372.82 4402.17 5401.4 5127.82 5124.17 6239.68 7320.78 4064.58 4834.44 5782.43 4456.26 5113.6 3873.92 4810.98 5091.22 6282.38 5640.72 4546.44 5657.55 5727.79 5188.82 5615.84 5043.14 4464.73 4717.73 3904.07 5748.9 5545.59 3663.0 4954.81 6304.49 5755.15 4608.34 6419.64 4057.17 2781.96 5414.58 4431.23 4994.65 5917.34 5601.55 4462.87 4013.86 6545.99 5630.9 4554.68 4512.07 4945.0 5984.8 3127.83 4212.15 5678.58 6570.35 4263.18 7142.95 4383.68 4559.74 5836.26 6666.67 6063.44 4583.94 5046.31 4928.35 1937.5 3844.54 5849.53 4651.99 3538.53 4420.11 5863.0 6127.39 4972.18 4607.18 4124.76 3899.7 7200.89 4813.33 4952.52 3840.21 6746.66 4081.34 4954.76 3908.56 4844.83 5244.78 3636.15 6114.89 5135.63 6384.7 4355.83 6870.97 5351.86 6056.87 5474.01 6201.86 7554.58 5166.89 3639.44 5491.63 5725.37 3868.62 5138.33 3743.76 3425.69 5153.18 6711.21 4236.86 5393.76 4941.02 4983.1 2955.36 7123.04 4009.24 4446.58 7541.76 4775.49 5053.15 4681.29 5910.86 3220.29 3845.9 4141.21 4439.71 5667.51 4708.31 4027.33 5026.76 5431.29 5023.41 4833.67 4092.07 4213.05 4224.3 4184.21 4700.07 5273.37 4732.37 4985.3 5072.5 5713.36 4749.18 5553.94 3742.31 4316.0 4546.96 5424.55 5134.72 5695.79 5464.83 3622.8 4770.51 5577.41 6511.37 5740.98 4012.92 4346.07 5759.79 4177.47 4218.16 2918.64 4140.92 4896.43 5463.06 5236.24 4639.8 4585.04 5260.52 3185.09 5114.23 4242.63 3269.54 7407.91 6015.22 4454.74 2904.46 4826.52 5120.92 4337.32 5241.75 4731.53 3763.9 4788.7 5084.5 5640.12 5329.76 2403.72 5078.59 5134.33 4147.49 4802.98 4833.55 3646.95 7224.99 6334.53 4749.96 5377.37 5652.87 5483.7 5018.69 3152.86 5952.38 3896.27 5807.52 5963.36 5230.02 5307.35 4342.18 5169.48 6016.08 4731.21 3124.7 6064.71 6102.98 6060.17 4763.4 5902.67 5454.11 3779.45 5806.61 5784.37 6010.59 3682.35 3756.96 5906.57 4932.29 4990.23 3784.94 5499.59 5749.6 3125.13 6715.73 4174.44 4564.41 6331.74 4198.9 5951.86 4252.18 4659.88 5325.91 3791.41 5853.12 5157.38 6203.03 5235.87 6089.45 5810.17 4966.07 5265.21 4657.24 4400.14 3669.32 4704.92 4762.1 3987.69 4287.25 4392.75 4921.1 3814.16 4271.07 4420.6 5287.25 4475.38 4589.06 4920.88 4184.47 4216.44 3999.5 5034.05 4598.54 5218.42 5345.73 4816.51 4933.49 4770.63 6139.64 3990.94 4756.8 5477.8 4462.35 3986.41 4241.68 6102.49 3469.18 5495.0 2945.34 4489.29 4301.93 5064.23 6061.85 5512.44 6449.06 4924.07 4685.4 6240.42 5146.0 5721.14 4577.73 4918.64 4987.28 6638.25 4759.99 2646.13 5419.57 5162.67 5760.98 4705.68 5469.35 5384.86 4019.34 4658.24 5869.67 4311.48 4899.73 5457.66 6394.19 5973.89 5366.22 6193.73 5518.11 5087.14 3742.11 5712.35 5701.52 4743.9 6776.22 5321.17 3719.11 4467.13 3877.8 6273.6 5136.87 3667.93 5024.32 4708.17 2741.2 5790.42 3142.09 5591.77 5182.13 6110.48 6245.52 3954.77 6793.1 6016.87 4506.66 5209.55 5426.4 5763.05 5129.68 5357.39 5076.84 5247.01 4208.37 5702.4 4841.7 5069.9 5473.89 952.938 4678.7 3306.84 3673.6 3450.07 6215.87 5191.26 5866.42 5544.27 3484.81 6502.99 4666.12 6219.34 4191.01 5674.63 5340.05 5995.4 5890.25 5700.79 6710.14 4726.2 4426.02 4711.15 5188.22 4841.23 4357.11 2804.54 5005.6 4176.32 6069.78 5532.75 6949.65 3372.95 4095.83 5695.25 5676.61 5846.95 5268.15 5819.0 6347.72 3460.93 3200.6 4629.02 5124.86 5914.5 6006.16 4288.45 5407.96 6206.98 6562.03 4815.47 4368.12 4365.58 5214.4 4636.53 3629.49 5766.05 5117.64 3835.81 4869.48 3623.19 4906.11 4387.39 4564.1 5825.55 5509.51 4848.14 4316.5 3199.4 5254.24 4192.21 4914.03 3597.43 5144.56 4158.91 5311.55 3360.86 3034.16 4869.25 5545.21 4333.87 5684.05 5638.7 5813.79 4644.88 5293.13 4028.22 7350.26 3768.46 5167.53 5003.3 4168.52 5800.81 5106.46 4068.31 5166.05 5077.29 5515.73 4850.5 5866.91 6405.69 2820.07 5679.74 4825.73 5288.33 6296.54 5797.21 5685.74 6740.35 6028.63 4550.92 6485.77 6060.06 5960.5 5308.33 5393.43 6896.55 4685.65 6023.07 6470.23 6506.63 4140.04 5322.11 3495.3 4697.49 5735.08 4750.81 3825.48 4658.59 3810.68 4196.62 2809.19 4916.7 5486.89 7208.19 4549.51 3587.93 4975.85 5323.95 6171.01 5716.42 5701.63 4620.95 5368.93 4488.39 4927.73 4602.57 3565.32 4608.62 4071.75 4626.72 5131.77 5549.71 4410.82 4967.51 6443.99 3889.98 5193.58 5399.43 5695.44 3422.21 3916.42 5429.3 5510.96 6653.07 4745.16 4697.91 4584.81 5071.98 5719.79 4371.08 7261.51 4968.14 5086.29 4312.48 5527.13 5139.18 5551.43 4278.57 6318.25 5049.99 4201.03 5001.87 4493.79 4279.44 4899.19 5058.34 3918.94 5575.11 5487.63 3852.82 4507.36 7145.73 5403.97 4795.08 6562.92 5501.73 3671.06 3612.44 4697.24 7035.54 5233.76 4683.28 4217.36 6549.8 4851.18 4165.36 5368.52 4871.77 5811.26 5062.77 6019.35 6075.99 5262.79 5927.2 5146.1 4419.79 5407.69 3869.39 5152.78 4117.9 4753.76 4638.09 5377.01 5330.26 5939.22 4668.8 5125.17 4859.01 5524.45 7133.44 3953.26 4474.39 5459.92 6478.35 5453.77 4104.04 5589.53 5593.79 5025.42 5196.08 4517.29 4495.75 4849.5 5796.26 4603.04 4870.94 5271.88 6121.56 5559.79 7168.2 3763.85 4571.74 3419.07 4096.86 5710.33 5001.51 5344.44 6432.8 3186.07 5115.42 4369.86 5173.82 5482.76 7212.97 5490.64 5034.34 4507.46 3769.2 5036.14 5603.68 4944.51 5610.95 5532.72 3220.8 5042.75 5179.17 5579.39 5270.51 5148.1 5490.75 5224.64 5949.73 5783.94 6370.33 5081.08 4202.77 6864.06 6008.81 4932.56 5192.49 3487.31 6643.4 4674.9 5461.72 6599.28 6224.85 4556.19 5368.66 5648.78 6875.73 5226.42 4983.43 6081.3 5117.52 6311.89 6734.39 5942.45 4150.76 5005.72 5155.28 5388.73 4884.93 5205.38 4600.71 3957.38 4494.15 5035.71 4710.88 5300.17 4057.4 5534.23 4781.9 4441.91 6815.96 5339.6 5828.25 4725.11 4215.05 3626.86 4271.93 4604.1 5076.11 5990.75 5600.21 5467.51 4625.53 4096.47 5114.67 3543.37 5353.66 2638.82 5030.33 5234.2 4965.24 6379.38 6257.79 5353.23 6229.83 4468.26 5578.18 5293.37 5933.54 5879.24 5740.78 4796.12 3622.48 5385.86 4082.4 3745.02 4930.72 3720.7 4211.36 4887.73 5698.53 3604.31 4450.49 3856.73 3468.45 5887.71 5635.32 4526.34 4827.61 4316.45 5409.08 5481.64 4598.92 5241.22 6647.08 4979.52 3422.29 4407.79 5214.63 3495.68 5352.24 3990.96 7362.42 5793.12 5836.14 5473.05 5537.34 4373.2 5884.99 5726.42 7025.09 4433.12 2549.95 3392.26 4361.24 5138.93 6406.8 7086.69 6170.9 5833.78 4436.48 5615.35 3967.76 6213.24 5987.88 4228.53 3579.59 6123.46 6142.88 4461.14 5111.26 4574.54 4949.55 4764.83 1969.87 3132.34 4841.28 5507.38 6889.5 4416.87 4052.43 4896.67 3934.11 6025.77 4466.22 6153.71 5917.08 5483.37 5418.12 6371.96 5322.07 5770.07 5101.6 4282.11 4656.01 6589.13 2347.41 4542.16 5602.62 2030.03 5628.97 5527.27 5104.39 4612.13 5846.6 5327.05 5438.55 4434.65 5977.66 4523.81 5106.33 5065.74 5198.94 4028.35 5464.05 2980.31 5453.2 3148.79 5997.91 6824.53 4332.64 4742.82 6791.86 4820.68 4209.0 5728.58 6297.99 5378.24 4538.89 5817.74 5661.6 5285.75 5385.03 5673.75 5360.67 5968.54 6263.3 4501.05 4537.03 6548.29 4114.2 4326.06 5034.46 5757.29 5469.17 5061.75 3769.24 6022.78 4087.32 6647.85 2569.12 4161.32 5161.74 7336.37 5099.9 6945.69 5118.86 4183.4 4304.64 4733.79 4823.06 5758.98 5254.49 5288.64 6828.8 6883.86 6161.94 5057.59 4065.28 5285.6 5418.98 5615.06 5490.54 5203.54 4047.95 6142.94 5001.69 6581.56 3980.46 4061.87 5383.9 5158.44 3798.09 3886.56 4496.51 4511.05 6561.94 5259.21 5092.93 5934.05 4714.66 2803.01 6771.18 4984.17 5327.39 5781.62 4037.86 4138.59 5714.51 4484.78 4938.33 5157.73 4621.33 5847.91 4934.66 4984.01 4109.44 4903.84 4290.49 6688.53 5209.5 6175.27 5791.25 4873.23 6731.89 5410.6 4733.41 6348.93 5264.83 4422.23 5232.16 6031.22 3989.26 5485.84 3618.64 6424.77 5453.69 5918.95 5432.04 5689.56 6556.86 3242.31 6099.28 3234.26 5372.25 4169.15 4778.37 3494.16 5134.17 4074.16 4904.35 5592.54 3247.97 5390.33 5124.34 4904.37 4358.81 4651.64 5729.92 5016.46 4179.87 6224.13 4761.84 3661.67 5517.65 4009.68 4622.73 3303.49 5256.75 6351.89 5932.28 2960.5 4298.7 4975.32 3902.48 3909.94 6030.39 4905.53 3799.01 7392.65 3757.23 5319.1 4181.93 6570.43 3350.99 3820.19 4979.5 4745.37 5939.29 6200.05 5575.11 4052.49 5061.74 5326.03 6189.67 4948.96 5256.82 4013.86 5165.31 4288.5 4585.37 5715.51 3721.69 3456.3 6074.39 5317.83 4256.08 5881.93 4444.0 4399.52 4554.24 6182.19 7415.84 4981.81 5141.03 4970.55 8123.59 5765.14 4541.22 4946.08 3539.68 6217.33 4696.03 4557.1 6270.59 5927.1 5876.51 4103.76 2932.52 4286.61 4603.66 3901.53 4969.68 5136.51 5431.14 6815.51 5313.86 4457.05 5189.91 5777.26 5703.84 4335.79 3530.82 5797.32 4886.99 3921.27 3702.45 3161.1 5265.63 4898.29 4431.06 5730.2 4830.13 5620.88 5370.9 4529.77 4325.13 6172.27 3783.79 5078.73 5278.54 4248.14 5729.0 5279.19 5192.92 5275.57 4786.66 5891.25 5370.1 5095.52 5129.4 5114.51 3720.38 4655.37 5585.25 5023.61 4672.86 6530.78 5560.23 3043.77 4139.39 5237.55 6264.03 5088.64 6589.8 6920.92 3729.16 3038.91 3783.36 4067.89 3922.28 4571.57 3445.92 5236.69 4586.82 6026.04 3133.28 5859.17 4034.41 5522.34 5771.98 4420.35 5717.45 5117.83 5268.27 4645.93 5448.64 6417.61 5395.12 5783.69 5350.9 3483.61 6738.9 4460.89 4157.1 3939.96 5910.66 4637.3 5734.07 4840.44 3997.68 4819.83 4767.54 4801.16 5121.08 2927.84 6177.68 5688.77 4698.7 4605.39 2848.44 6045.26 6500.45 4907.55 4094.63 5084.76 4757.87 6636.43 6298.8 3689.24 5178.07 5151.19 4171.02 7012.36 5028.06 4002.99 5587.3 5159.67 4864.38 5764.52 5684.88 6523.78 4645.86 4045.67 6005.95 4941.52 5900.0 4262.74 4581.1 6241.77 5317.19 4016.6 5821.49 7050.08 5580.44 5998.13 4746.15 4758.84 4731.37 4452.36 4068.41 3976.0 6463.71 5059.37 5783.38 5645.54 3562.8 4151.74 4526.87 5192.82 5245.95 4174.22 3573.84 6294.09 5131.07 4121.07 2970.24 4197.87 5524.28 5105.54 5731.43 6353.81 3518.14 4150.44 5044.68 2649.69 5899.78 5000.74 5772.57 4813.81 5244.95 4634.25 5901.8 6351.48 3830.7 6210.0 5432.4 4262.52 5992.06 8052.53 4867.12 6044.01 6520.19 1458.87 5973.57 6241.48 6033.28 6286.27 5071.38 5616.66 4802.36 5368.28 5466.13 6229.64 4220.43 6263.87 5743.8 6666.34 4645.91 6605.11 6834.92 3557.46 5971.95 5652.73 3979.46 5402.45 6321.97 6412.84 6509.54 6119.0 3792.06 4293.3 5128.59 5310.33 3572.73 6583.37 3770.22 4390.64 5150.84 4608.01 5087.97 4308.49 4519.03 4930.17 5110.27 4745.44 4085.96 5762.82 7360.12 6223.98 5462.6 5617.29 3035.06 4262.19 4597.88 4878.93 6275.25 6892.33 4505.3 4491.26 4832.21 4511.34 5009.21 4742.35 5394.79 4379.91 4574.03 5290.37 5264.08 4227.66 4691.01 4594.89 5821.42 5214.71 4515.02 3463.53 6126.03 6044.69 5658.05 5462.1 6032.45 3414.67 5444.36 2827.92 5011.37 4026.03 6908.32 3467.11 4817.75 6153.26 5637.53 3882.37 5523.81 4095.4 4718.61 5188.57 3873.79 5357.33 5252.37 4499.54 5037.58 7430.48 5640.67 5545.68 6080.69 4970.12 4967.93 6369.66 5678.08 5922.62 5125.45 5957.82 4188.16 6327.54 5507.07 2943.17 5327.71 4880.78 5257.38 5075.23 4975.56 7282.36 3826.01 5581.01 3928.99 4125.75 6379.33 5130.57 5090.48 3985.93 6071.59 2589.19 6079.55 3856.4 5485.61 4993.49 4937.36 5308.4 4569.32 3688.83 3402.44 4848.98 4491.96 5184.98 4199.44 4467.51 5339.82 6261.67 5460.57 5065.78 5703.34 4612.68 4521.42 6668.98 6649.52 4232.33 4939.56 4747.68 5770.92 3093.38 4845.91 2002.78 5631.32 4461.67 6322.0 5793.14 4609.65 6345.2 5704.61 5410.73 4942.63 5850.38 7066.26 4730.97 3677.85 5873.62 4677.84 4811.11 4924.52 4866.8 5314.67 6593.1 4066.36 4000.51 6033.93 4441.44 5092.44 4232.44 5336.61 3312.3 5563.09 4848.15 4439.09 3282.57 5648.59 6697.45 5717.67 5515.59 3224.81 3775.38 4046.22 6457.89 4844.2 6572.17 3751.73 5555.89 4766.47 4871.1 5872.45 4414.09 5191.29 3784.68 3717.22 6649.21 4654.92 5286.55 4322.56 5522.18 5509.09 5625.02 5212.05 4829.77 6474.5 4444.92 6959.88 5749.53 5971.9 5247.73 5034.02 5582.28 5945.25 5181.31 4696.06 4137.16 6581.13 5803.3 5537.61 6084.88 4721.98 4397.06 5252.82 3543.98 4053.12 5056.26 4479.5 4014.44 3435.13 6002.77 4431.46 4610.55 3207.84 3977.98 6043.34 5400.69 4128.93 4462.5 4959.72 4712.17 5004.68 3808.04 4023.88 4723.71 4405.61 5348.11 6126.5 4034.88 6007.1 3511.5 5067.92 5488.96 3188.21 5128.03 3720.92 4793.06 5087.3 6139.74 4975.57 6150.31 3057.3 3868.69 4996.91 5379.52 3920.44 3768.62 3851.47 4966.74 5563.47 5651.46 5639.4 3162.27 6185.73 4083.24 5516.37 6520.96 5432.2 5217.62 4612.4 6178.19 4746.19 4616.81 6381.58 5212.2 4798.13 5108.42 4630.5 6296.36 4432.32 4451.76 7885.41 5782.25 4104.97 4575.72 5114.61 6118.13 3374.62 4420.3 4926.62 3917.09 6009.93 4083.1 5270.1 5130.56 4947.64 6305.9 4542.62 4997.89 3470.69 5093.28 4859.95 4132.08 5223.1 4850.49 3873.72 4592.49 3625.98 5479.86 4702.32 4763.04 5944.52 4413.56 3746.62 4532.67 4876.37 4769.62 4908.32 5260.13 4649.5 4810.74 5985.75 5475.83 4149.17 6189.29 5984.55 5672.46 5202.33 3228.27 7558.99 4142.1 5043.14 5878.55 5445.91 6604.72 3794.47 4967.02 4614.49 6038.56 2807.46 5573.31 4179.8 3488.34 5428.24 5108.84 4582.12 4520.14 5357.14 5919.27 4850.95 6637.38 3421.81 6188.33 6111.23 6916.18 5786.06 4137.41 3780.07 5466.49 5447.74 4450.51 5007.41 6033.72 3692.99 6213.74 4959.94 2329.93 1635.31 6938.87 5412.07 5512.57 4806.99 3771.91 5856.43 3839.0 5799.86 5715.25 4362.94 4611.21 3354.94 4870.14 4404.87 5237.27 5767.65 4750.76 4907.03 5497.27 4081.77 4948.21 2181.29 4987.01 4202.12 6332.64 2694.25 6492.44 4613.32 3482.73 3996.93 5145.39 4957.99 4063.26 5345.05 6131.52 6009.88 4699.77 4981.55 5093.41 5144.23 6188.62 6153.07 4414.06 5908.57 5050.2 5316.05 2513.38 4821.41 3995.08 5616.11 5019.84 4499.52 3900.93 4028.13 5784.38 4329.8 5728.27 3074.49 3053.19 3956.24 5580.95 3393.59 3549.92 4032.06 5246.81 5333.04 4521.99 4812.59 3463.34 6842.54 7115.67 5675.45 3361.11 5329.84 5599.16 3879.83 6565.95 4577.98 5658.35 4487.51 5886.81 6805.02 4295.25 7394.47 4729.45 5374.09 6261.13 6271.22 5244.47 5378.75 3920.64 5510.89 6186.24 5822.7 5282.67 4159.89 5178.55 4038.17 5146.69 4907.48 6818.23 4369.87 5652.19 6578.62 4813.55 3465.03 5349.85 5229.56 5172.1 4469.82 6545.78 4695.7 2932.2 5105.72 4082.01 5003.49 3964.03 4216.33 5832.72 5617.91 4721.2 4706.31 6265.48 4735.99 4203.68 4739.56 3352.46 4701.03 6351.95 5195.09 5434.04 5200.1 3997.52 7679.2 4881.51 4311.92 2626.41 6729.99 5310.33 6842.35 5464.34 3621.63 4777.96 5801.89 7296.47 5742.39 4780.16 4924.53 5738.37 4433.23 4813.24 3874.12 5759.19 4457.73 6476.35 3113.64 6260.58 4067.24 6139.9 6571.26 4313.38 6598.99 5250.56 3633.58 2468.16 5089.1 5888.95 5394.78 5169.09 5122.38 2853.68 2459.88 5262.85 4998.37 5901.71 6559.82 5342.9 5733.12 5043.34 4246.24 6436.29 4600.81 5354.48 5640.63 4900.26 4167.55 5002.38 4720.34 4865.11 4731.16 6470.87 4495.33 4131.08 4465.56 5747.9 3864.19 4287.93 6203.24 5081.65 4488.41 6679.12 4621.32 5806.74 3878.8 6284.12 3948.21 4796.04 5296.05 6011.4 4672.34 3330.85 6052.22 5376.41 5003.63 5410.33 4747.24 4944.08 4380.86 5576.16 5269.39 4305.35 3308.75 5210.22 4439.17 2451.27 5677.42 3903.9 4444.95 5161.02 3943.77 3124.49 6081.35 5003.81 6262.18 3818.37 5663.36 6225.05 5125.53 5994.21 4444.54 5779.9 4909.74 5299.03 6664.54 3922.98 5161.73 5259.48 4008.67 5254.93 4803.4 6833.5 6608.94 2613.78 5417.07 3834.01 5656.84 6789.66 4739.41 5847.27 4490.2 4304.75 5734.84 5480.86 3982.31 4950.07 4720.22 2832.83 5827.3 6036.99 3010.1 3825.98 6294.14 4339.97 5087.03 5203.75 4667.84 3906.41 4691.15 4123.08 4512.6 4210.24 4260.38 5470.67 5225.11 6793.49 5252.22 6060.19 4962.35 5402.81 4333.23 4328.76 4919.13 5168.97 4124.33 5783.88 4358.06 6705.93 6201.49 5449.09 5502.14 4605.61 5386.95 5332.11 5315.71 6158.93 4823.14 5373.78 5438.5 5863.36 5699.4 5237.76 4698.94 4286.84 5669.15 6058.13 5263.86 6988.4 5056.32 5533.52 4060.17 5302.53 4909.13 4287.61 5648.02 4604.34 4863.27 2701.42 4929.35 5442.79 5606.22 5051.39 6673.92 5242.38 4884.94 5459.52 4609.98 5566.5 4752.31 4276.59 5579.04 5405.6 3929.35 5403.81 5082.25 6964.78 4374.05 5036.84 4565.36 5813.68 4025.08 3618.53 4770.21 5596.68 8013.28 3846.55 3796.73 3082.16 4644.68 5416.41 5312.2 6760.64 4706.59 5177.88 5551.79 4582.24 3916.15 4474.96 4084.87 4790.63 5259.29 3584.05 4589.22 4818.53 5097.85 5584.64 6224.64 4221.03 4636.45 3799.55 4932.27 5082.66 5638.51 3563.33 3550.88 4345.51 5536.0 6786.37 3860.8 5145.13 3747.96 5561.63 5940.5 5093.51 5647.93 4280.92 5154.74 4696.92 6437.99 6898.8 6540.57 4893.72 6004.72 4072.4 5699.51 5345.65 4489.18 2489.44 4883.13 4632.75 4752.94 4994.98 3950.53 6423.96 5894.69 6635.51 6051.35 6779.82 3999.81 5543.67 4867.13 6377.45 4502.12 5151.68 5362.15 4455.61 4738.72 5240.97 5569.85 5523.96 4884.93 4223.53 4759.38 6960.97 4287.15 4523.9 5282.51 5504.65 5669.41 5732.11 5040.9 3919.47 4602.7 4868.66 4004.39 5159.9 5283.65 2892.36 5943.61 5981.54 4248.58 5911.29 4542.25 4694.27 4414.23 2515.5 4849.21 4785.55 3793.83 6981.47 6189.81 5367.05 4758.76 5647.11 4088.72 3945.62 4916.75 3743.85 6236.46 5342.17 6379.3 6189.04 5189.4 4550.77 4894.15 4337.93 5201.3 4048.73 6223.33 5438.6 7370.52 5611.29 4521.88 6568.45 5004.22 4601.54 4963.88 7263.57 5705.96 3832.09 5267.65 5739.69 6632.04 5360.88 7360.62 3166.37 4977.64 4985.45 4983.56 5205.53 4714.52 5499.37 5543.05 4836.76 5333.16 5551.09 5755.98 4501.1 5581.47 4384.91 6550.61 4987.01 4713.56 6094.34 5448.68 4739.5 6210.48 4491.62 4182.05 3865.5 3255.93 6853.07 6327.61 4633.59 5733.59 5575.8 5268.93 3695.72 6874.6 5106.9 5306.31 4733.37 4535.94 3037.72 5126.08 5604.0 3760.4 4951.02 3783.35 4037.16 6395.63 4987.48 5479.17 5020.37 5233.88 5245.4 4449.73 5015.67 3795.63 4576.71 6538.04 6157.59 5848.41 4090.28 4246.83 4726.5 5467.05 3724.23 5103.3 5888.94 4727.98 5175.88 4122.2 4516.26 4790.16 3509.34 3731.58 3647.26 5369.42 5207.08 4587.19 6028.89 4888.17 5392.85 5077.2 4274.05 5275.27 4277.54 5529.09 4531.46 5925.82 4072.95 
SCALARS Velocity float 1
LOOKUP_TABLE default
1.93763 2.15796 1.23375 1.66581 1.32486 2.04672 1.66988 1.88537 1.95318 1.21165 1.83182 1.25445 1.11299 0.993015 1.67294 1.4334 1.13854 1.9444 1.6347 1.60986 1.77729 1.40882 1.54649 1.50316 1.48702 1.6148 1.42349 1.18094 1.42228 1.3537 1.23288 1.33759 1.38234 1.4496 1.26923 1.78742 1.76159 1.38703 1.70325 1.10457 1.35718 1.35374 1.14875 1.36631 1.35111 1.07609 1.11843 1.09841 1.03959 1.06599 1.14942 1.00873 1.20945 1.88917 1.37103 1.12211 1.31761 1.25066 1.38305 1.49947 1.54723 1.52027 1.48761 1.41112 1.11982 1.20093 1.30654 1.35705 1.24874 1.27966 1.35739 1.40431 1.30069 1.31022 1.20377 1.49972 1.30914 1.07803 1.40779 1.77375 1.43472 1.89269 1.47274 1.45632 1.57032 1.69004 1.70688 0.97206 1.30836 1.06325 1.24239 1.11259 1.17712 1.21099 1.14092 1.1935 0.973206 1.38317 1.20361 1.12597 1.16137 1.13356 1.11375 1.14695 1.13402 1.19342 1.27466 1.27739 1.63283 1.28588 1.35954 1.40016 1.49503 1.48278 1.5321 1.44572 1.478 1.11177 1.20143 1.19901 1.3179 1.32848 1.28824 1.27835 1.38163 1.38161 1.2914 1.28952 1.3047 1.42481 1.45262 1.05174 1.36818 1.78866 1.55079 1.43085 1.50792 1.29861 1.2733 1.24893 1.2026 1.19598 1.33241 1.31421 1.40958 0.993944 1.21762 1.5886 0.284085 2.07814 1.59626 0.855444 0.84518 1.01192 1.01335 1.0853 1.14104 1.26661 1.3855 0.986188 1.66705 1.51 1.34737 1.34251 1.47759 1.39426 1.46021 1.43754 1.45412 1.41582 1.15079 1.14904 1.20406 1.2013 1.32675 1.34265 1.28957 1.2932 1.38223 1.26273 1.35031 1.27474 1.17018 1.46439 1.40228 1.23474 1.1976 1.29486 1.40613 1.47732 1.44864 1.39724 1.164 1.05361 1.22183 1.74896 1.55119 1.13617 1.30406 1.21654 1.19135 1.1482 0.975765 0.344867 0.730941 1.90909 1.08615 1.49497 0.921507 0.769771 0.976637 1.00341 0.973884 1.03009 1.07338 1.14192 1.23299 1.20561 1.21537 1.05825 1.32834 1.4845 1.38517 1.29736 1.33981 1.24855 1.28609 1.18132 1.45161 1.45447 1.30406 1.11151 1.09163 1.20921 1.23943 1.34471 1.40398 1.20952 1.21159 1.31646 1.2816 1.32756 1.20058 1.66131 1.43305 1.36593 1.37894 1.27619 1.35046 1.39791 1.3756 1.26998 1.1351 0.952492 0.879703 1.01333 1.13873 1.14546 1.16086 1.1311 1.09903 1.12479 1.1391 1.10864 1.07163 1.09906 1.31808 0.976397 0.920355 1.00382 1.16295 1.02116 1.06727 1.0414 1.01771 1.03141 1.09046 1.18799 1.17254 1.2483 1.30026 1.09565 1.23317 1.29463 1.20273 1.0549 1.29432 1.08191 1.20725 1.1708 1.23488 1.29838 1.40543 1.18724 1.21568 1.3061 1.30868 1.29949 1.31598 1.24064 1.20017 1.37093 1.20241 1.25973 1.29433 1.31713 1.26015 1.28894 1.11133 1.2499 1.02667 1.16263 1.01726 0.947174 1.03079 1.08383 1.09807 1.06002 1.09822 1.08954 1.03167 1.05961 1.00528 0.977943 0.97564 0.384398 0.153458 1.17457 1.17892 1.20102 1.41651 0.988579 1.02773 0.982418 1.0435 0.999067 1.04706 1.02283 1.0693 1.07115 1.0784 1.09308 1.1048 1.1651 1.13077 1.07462 1.09964 1.13582 1.06487 1.10886 1.11463 1.18071 1.10324 1.23187 1.16805 1.1022 1.14817 1.18221 1.22823 1.17524 1.28168 1.30562 1.26432 1.30095 1.17614 1.23339 1.19265 1.30258 1.29702 1.2507 1.20419 1.19697 1.03331 1.31082 1.289 1.27795 1.28486 1.26871 1.16552 0.924612 0.85988 0.973301 0.972081 0.931844 1.00792 1.02499 1.02924 1.04561 1.0731 1.04851 1.03712 1.05404 0.973405 0.977815 0.936107 0.905672 0.62887 0.0410218 1.10657 1.02809 1.46548 0.959434 1.295 0.716579 0.794006 1.01345 0.893474 0.996569 0.997405 0.990134 1.01766 1.00844 1.04774 1.07008 1.098 1.0899 1.05483 1.12801 1.09593 1.09141 1.08985 1.08435 1.09807 1.13915 1.09371 1.23079 1.17097 1.16061 1.2125 1.16306 1.2484 1.21404 1.30311 1.26662 1.25394 1.26158 1.27459 1.31788 1.22622 1.19426 1.27316 1.20921 1.16468 1.24633 1.23268 1.21254 1.2271 1.21047 1.09791 1.06798 1.24396 1.28996 1.24874 1.15743 1.18357 1.26927 0.800022 0.947484 0.987663 1.01168 1.0149 1.03811 1.07754 1.09184 1.24348 1.02545 1.14086 1.12328 1.05326 1.14359 0.974029 1.002 1.23701 0.918393 0.956242 0.932393 0.905798 0.903126 0.832737 0.860386 0.763858 0.863871 0.822016 0.891959 0.953348 0.95755 0.677769 0.965483 1.17372 1.0941 0.929891 1.10875 1.04195 0.970809 0.964733 1.01392 1.01214 1.03381 1.05123 1.04261 1.05461 1.06855 1.05527 1.02457 1.10853 1.0839 1.08704 1.0794 1.08291 1.07171 1.07349 1.20617 1.25782 1.18258 1.20746 1.21148 1.2005 1.23255 1.29445 1.34399 1.05821 1.26368 1.19382 1.433 1.25049 1.20807 1.20602 1.22421 1.12023 1.09002 1.09713 1.15271 1.08266 1.2042 1.36628 0.857784 1.1619 1.21522 1.53537 0.952316 1.31383 1.38635 1.14824 0.988667 1.01844 1.0032 1.01962 0.982464 0.903013 0.929017 0.633529 0.909383 1.06567 1.01785 1.14509 0.90272 0.894622 0.85462 0.954711 0.904421 0.886496 0.854944 0.848571 0.874212 0.840508 0.890952 0.883351 0.886626 0.883298 0.887713 0.898977 0.864548 0.912562 0.908706 0.865741 0.880233 0.947063 1.08149 1.17575 1.07258 1.06465 1.08722 1.06562 1.00219 1.02157 1.01754 1.04425 1.03733 1.0481 1.05368 1.04979 1.10822 1.10709 1.0796 1.0784 1.07802 1.07944 1.08122 1.10435 1.17341 1.27529 1.23585 1.17546 1.21845 1.21851 1.21519 1.22692 1.21629 1.26278 1.32126 1.02715 1.07739 1.07377 1.1034 1.25266 1.13082 1.27841 1.12274 1.27312 1.20131 1.21624 1.2459 1.05823 1.06396 1.0791 1.12956 1.01248 0.914097 0.635487 1.40387 0.765196 1.03814 1.08001 1.09291 1.03426 1.03247 1.06811 1.07733 0.821783 0.921117 0.943351 1.02878 1.01969 0.991613 1.11839 0.523521 0.958119 1.21601 0.972761 0.944226 0.855863 0.900127 0.818802 0.843772 0.86222 0.858627 0.861269 0.88948 0.913049 0.906879 0.910776 0.899467 0.914691 0.9031 0.974225 1.05261 1.07401 1.02351 1.08355 1.10476 1.03891 1.01324 1.01961 1.04344 1.05252 1.06175 1.07683 1.1224 1.10103 1.10466 1.05615 1.07776 1.081 1.09026 1.05151 1.04314 1.11795 1.26628 1.1726 1.1984 1.16987 1.16457 1.22428 1.20751 1.25872 1.23681 1.30311 1.08226 1.06857 1.0806 1.10413 1.17372 1.28564 1.19314 1.18108 1.16039 1.0965 1.16054 1.19923 1.17001 1.09429 1.09958 1.0871 1.08309 1.18745 1.13975 0.990054 0.773051 0.822054 1.06916 1.06977 1.02067 1.03581 1.07197 1.0707 1.07397 0.952673 0.948281 0.973865 0.995872 0.84957 0.737687 0.879412 1.19413 1.06805 1.04049 0.928865 1.03069 0.828127 0.858068 0.84917 0.763195 0.750509 0.867339 0.869718 0.889532 0.86147 0.790175 0.875746 0.83381 0.877601 0.892056 0.942874 0.9181 0.923468 0.976607 1.02916 1.06541 1.1779 0.9421 1.08398 1.04801 1.00983 0.980974 1.00848 1.03484 1.06035 1.06384 1.08381 1.07143 1.06928 1.07068 1.09459 1.13229 1.05465 1.07881 1.05584 1.03383 1.05357 1.03803 1.1338 1.16716 1.17897 1.19229 1.27886 1.22993 1.31355 1.24862 1.24213 1.02406 1.11851 1.07661 1.09271 1.15773 1.13501 1.03139 1.16883 1.17368 1.18288 1.08615 1.13047 1.15407 1.09674 1.10164 1.10408 1.09326 1.11601 1.13256 0.976868 1.10417 0.892781 0.937776 1.07093 1.00709 1.015 1.01812 0.99798 0.977726 0.985597 1.03116 1.04959 1.08509 1.13097 1.02385 0.980879 0.951149 0.99559 0.981996 1.01122 0.922447 1.03934 0.826191 0.885453 0.83665 0.806286 0.921378 0.856541 0.928379 0.805854 0.813162 0.784936 0.747866 0.774313 0.778991 0.722735 0.873663 0.858053 0.866967 0.90613 0.920943 0.884979 0.948888 0.944145 0.832711 1.00253 0.764421 1.04856 0.914279 0.950833 0.997477 0.940068 0.996138 1.16088 0.957395 1.02521 0.987261 0.966019 0.963948 0.955022 0.982738 1.05459 1.08656 1.08599 1.08554 1.15355 1.00708 1.04634 1.05578 1.03481 1.00391 1.08948 1.12941 1.16717 1.21811 1.21937 1.22737 1.32844 1.1405 1.13297 1.17248 1.07348 1.0786 1.15648 1.17036 1.11978 1.17409 1.18207 1.04809 1.11231 1.16315 1.10174 1.10709 1.07594 1.1329 1.09058 1.06382 0.940946 0.921187 1.06628 0.957461 0.993149 1.06928 0.987239 1.02835 0.8829 1.00242 1.00618 1.02025 1.02418 0.992465 0.899241 0.985686 0.942631 1.00165 0.996169 0.961836 0.953499 1.01495 0.778582 0.892546 0.854865 0.854995 0.902425 0.936105 0.880217 0.809123 0.797128 0.819451 0.741978 0.813675 0.747429 0.850809 0.911413 0.857118 0.835316 0.927153 0.947757 1.00623 0.91369 0.914545 0.813362 0.857726 1.07598 1.35688 1.02373 0.834442 0.877581 0.882443 0.649911 0.799467 0.899953 0.928847 1.05567 0.975238 0.958842 0.950247 0.927428 0.951365 1.02501 1.04446 1.06694 1.04443 1.05391 1.06163 1.00081 0.964329 0.978695 1.01722 1.05097 1.05755 1.03225 1.04871 1.18552 1.21916 1.24015 1.23283 1.19775 1.34663 1.05901 1.04888 1.08263 1.27388 1.15335 1.18288 1.06252 1.14776 1.12983 1.21057 1.18244 0.981013 1.0917 1.11463 1.03601 1.06099 1.10076 1.17644 1.13397 1.07934 1.06113 1.05862 0.986522 1.01109 1.13437 1.0169 0.976955 0.943341 0.964771 1.02989 1.05762 0.985757 0.943192 0.969364 0.981631 0.979666 0.921265 0.896829 0.899976 0.929888 0.9204 0.894845 0.826501 0.797251 0.833278 0.836627 0.804949 0.833632 0.860163 0.755344 0.841048 0.74878 0.756104 0.889904 0.850343 0.814849 1.01279 0.845019 1.04653 0.509571 0.685007 0.751644 0.786424 0.739907 0.733141 0.730062 0.70892 0.746239 0.428332 0.922833 0.848874 0.870714 0.85579 0.923056 1.00621 0.982332 1.09309 0.983584 1.03076 0.939211 0.91736 0.935885 0.983367 1.01661 1.0787 1.09973 1.04879 1.03236 0.944539 0.975205 0.999823 1.07392 1.0584 1.08087 1.1334 1.16138 1.10392 1.17301 1.21338 1.19016 1.13931 1.30752 1.03569 1.08573 1.03863 1.18978 1.26993 1.0787 1.12512 1.09894 1.1623 1.16708 1.23676 1.22438 1.06261 1.12012 1.10339 1.05614 1.03923 1.068 1.13533 1.15826 1.15164 1.10454 1.12661 1.08815 1.10455 1.05234 0.964513 1.0924 1.04098 0.891822 0.966785 0.966129 0.964809 0.925947 0.969812 1.05565 0.851126 0.967136 0.932811 0.964434 0.985656 0.971095 0.94955 0.913063 0.906751 0.913823 0.905571 0.906025 0.900221 0.906089 0.887355 0.862999 0.84233 0.829622 0.837982 0.793522 0.79872 0.781835 0.713688 0.809061 0.965883 0.272699 0.357401 0.737198 0.751833 0.779848 0.797544 0.898615 0.773109 0.577383 0.370463 0.726581 0.74733 0.756016 0.745474 0.752167 0.782766 0.79902 0.827504 0.980595 0.95191 1.003 0.953078 0.880053 1.09779 0.970435 0.830168 0.950056 0.968413 0.945836 0.92078 0.924446 0.935538 0.973107 1.1171 1.12808 1.06976 1.10161 1.07528 0.966025 1.06784 1.07981 1.07265 1.07074 1.09216 1.11216 1.0498 1.02225 1.24469 1.24023 1.15184 1.19082 1.28404 1.06171 1.10332 1.0841 1.22398 1.27148 1.11544 1.10915 1.13438 1.11277 1.16179 1.25154 1.07047 1.12081 1.13659 1.12224 1.0591 1.13927 1.15394 1.11507 1.12671 1.14411 1.0576 1.02386 1.05801 1.19745 1.11617 0.997021 0.964325 0.994187 0.996426 0.951778 0.881908 0.888064 0.899017 0.943972 0.966951 0.975588 0.95847 0.949998 0.933757 0.921031 0.909096 0.892868 0.875297 0.891685 0.855152 0.834981 0.813983 0.794256 0.784279 0.761025 0.786315 0.791338 0.806471 0.82825 0.917804 0.966027 1.0298 0.746515 0.436379 0.711765 0.739309 0.664343 0.736989 0.65625 0.699978 0.70033 0.744042 0.645898 0.722264 0.640478 0.77546 0.763516 0.773005 0.740883 0.849236 0.856321 0.935361 0.942604 0.91113 0.889067 0.952561 0.620743 0.920948 0.848834 0.87183 0.958138 0.975843 0.984952 0.959891 0.967639 0.94977 0.964349 0.923847 0.931258 0.941812 1.1284 1.18897 1.1652 1.08962 1.04747 0.975802 0.876805 1.0707 1.0172 1.0653 1.0373 1.17585 1.01256 1.14668 1.25637 1.12133 1.101 1.10061 1.18542 1.17499 1.10789 1.13449 1.15113 1.19796 1.18891 1.16961 1.09023 1.11662 1.27532 1.14272 1.14831 1.00076 1.13643 1.14677 1.19088 1.08851 1.14992 1.1891 1.00424 1.06855 0.997234 0.959515 1.04831 1.02709 0.983797 1.00876 0.993254 0.993018 0.804202 0.839234 0.896139 0.954328 0.953972 0.976888 0.961376 0.926984 0.915123 0.898615 0.90199 0.883896 0.871139 0.863015 0.834892 0.815359 0.824698 0.801109 0.818999 0.799045 0.775576 0.796048 0.783705 0.764068 0.799584 0.856578 0.999937 0.984025 1.03578 0.856211 0.779281 0.832506 0.658882 0.859231 0.216409 0.805458 0.733221 0.708883 0.671476 0.632793 0.7104 0.662253 0.688736 0.690618 0.723676 0.71255 0.677302 0.675048 0.683268 0.690157 0.748766 0.82186 0.903676 0.858488 0.895892 0.890515 0.87232 0.860099 0.829175 0.727996 0.829178 0.843711 0.909106 0.962141 0.967796 0.941055 0.864422 0.915695 0.851428 1.17994 1.09925 1.02085 0.991524 0.943599 1.07171 1.00524 0.995341 1.03266 0.970481 1.00995 1.11188 1.16607 1.20836 1.19653 1.13392 1.19254 1.17444 1.25068 1.13822 1.13197 1.11035 1.14981 1.20428 1.2481 1.21588 1.09433 1.14433 1.15652 1.08536 0.989045 1.24332 1.15427 0.990395 1.15157 1.21918 1.02924 1.17285 1.04277 1.20491 1.03469 1.01185 0.99476 0.979207 0.996618 1.00462 1.03174 0.986493 1.03091 0.852962 0.960084 1.0205 0.981615 0.984198 0.926318 0.909816 0.920617 0.915969 0.897426 0.878787 0.858172 0.838577 0.824864 0.80797 0.813916 0.802733 0.798469 0.804159 0.777749 0.811673 0.774466 0.976737 0.758049 0.764456 0.660538 0.854425 0.805421 0.921148 0.760037 0.515282 0.55792 0.626184 0.685757 0.496037 0.501663 0.482708 0.989144 0.900119 0.612147 0.3495 0.541093 0.595653 0.435445 0.698999 0.811499 0.658913 0.694939 0.702018 0.696955 0.678278 0.69691 0.700546 0.680564 0.677504 0.689279 0.706015 0.69675 0.710595 0.709908 0.738013 0.807743 0.775953 0.875912 0.883645 0.854271 0.827968 0.806782 0.808985 0.863563 0.815112 0.913323 0.804274 0.792675 0.896166 0.885081 0.92275 0.969965 0.943025 0.905285 0.667489 0.819836 1.06676 1.03732 0.982482 0.953995 1.03114 1.03406 0.952476 1.18229 1.04252 1.121 1.13834 1.13532 1.12661 1.11382 1.16273 1.14654 1.15204 1.15585 1.23781 1.18839 1.11823 1.15655 1.07582 1.05774 1.11319 1.01873 1.0881 1.25489 1.18101 1.13501 1.13442 1.17838 1.01832 1.08461 1.08218 1.05915 1.03045 1.13233 1.03576 1.00196 1.02844 1.03147 1.01025 1.01256 0.988566 1.00424 1.0741 0.895947 1.13427 0.756137 0.909912 0.962558 1.07697 1.04484 0.941821 0.935353 0.91688 0.877226 0.854049 0.817737 0.821301 0.82369 0.810794 0.801903 0.80948 0.811983 0.794025 0.79154 0.778856 0.769465 0.771104 0.768689 0.864301 0.614948 0.720339 0.776193 0.43454 0.941279 0.743714 0.590817 0.647036 0.93188 0.952753 0.693666 0.890577 0.490367 0.387184 0.997843 0.766483 0.691367 0.765099 0.745808 0.636636 0.680152 0.748101 0.710654 0.699407 0.673196 0.694376 0.706808 0.706811 0.715128 0.752005 0.796746 0.840941 0.864491 0.864603 0.866539 0.811503 0.773907 0.829287 0.877084 0.787701 0.897758 0.961273 1.00411 0.954971 0.912462 0.831044 0.98374 0.984897 1.1266 1.07477 1.09335 1.12667 1.08304 0.943629 0.92827 0.958061 1.01062 1.00097 1.04608 0.984036 0.934945 1.0265 1.26331 1.0563 1.03411 1.09158 1.16782 1.11673 1.07633 1.09891 1.16181 1.16386 1.17183 1.11188 1.0777 1.14678 1.16065 1.09827 1.08875 1.11049 1.05241 1.08899 1.08264 1.18858 1.17735 1.17434 1.14085 1.01803 1.05598 1.07837 1.04916 1.03306 1.01343 0.982063 0.989192 0.972047 0.992301 0.950729 1.10493 0.850803 1.22506 1.11007 0.818592 0.842418 0.903386 0.909299 0.872118 0.659183 0.576929 0.966899 0.943631 0.941701 0.953602 0.927132 0.928323 0.777843 0.804131 0.80731 0.806464 0.797041 0.794247 0.781775 0.790904 0.781144 0.79616 0.801627 0.795074 0.795705 0.825486 0.797859 0.778793 0.774366 0.683862 1.00181 0.924804 0.277369 0.817238 0.384487 0.591609 0.452923 0.533272 0.683138 0.573362 0.754348 0.804151 1.09025 1.15561 0.673494 0.614552 0.535093 0.404914 0.711381 0.639815 0.617903 0.577701 0.718931 0.850417 0.718715 0.693271 0.699871 0.68852 0.704306 0.715347 0.74109 0.733838 0.806131 0.779254 0.840291 0.829148 0.85081 0.86839 0.8418 0.775582 0.892657 0.746898 0.754889 1.05596 1.13275 1.0262 0.971695 0.944013 0.929336 0.949626 1.06086 1.03004 1.04488 1.09524 1.075 0.915776 0.978685 1.0392 1.0611 0.961227 0.927854 1.09294 1.08708 1.09041 1.14725 1.15249 1.06918 1.10617 1.16618 1.20097 1.09129 1.11439 1.14164 1.14425 1.14051 1.14477 1.10436 1.08201 1.12034 1.07752 1.07452 1.20221 1.18958 1.1295 1.0567 1.07205 1.06516 1.0527 1.08138 1.00808 1.0116 1.02489 0.986783 0.987445 0.967779 1.00745 0.975389 1.06284 0.952967 0.940528 0.988666 0.916545 0.893631 0.875768 0.747179 0.739718 0.791037 0.952139 0.91453 0.903257 0.688794 0.741828 0.749067 0.754739 0.791391 0.793654 0.794568 0.780115 0.787268 0.787574 0.793564 0.80577 0.790585 0.779716 0.697423 0.706421 0.542271 0.678824 0.417814 0.61176 0.502493 0.497992 0.552708 0.65719 0.806345 0.720703 0.343125 1.27543 1.32463 0.693514 0.628913 0.678961 0.428471 0.649418 0.623694 0.772357 0.670647 0.636833 0.510081 0.727314 0.358661 0.222277 0.678094 0.665642 0.657966 0.698846 0.72645 0.772104 0.763832 0.803069 0.795967 0.820227 0.833087 0.84677 0.851391 0.827816 0.830644 0.763505 0.859473 0.822971 0.809858 0.766668 0.858028 1.03195 1.00443 1.07694 1.06454 0.966157 1.00401 0.911199 0.962444 1.0239 1.03227 1.07752 1.13514 1.08539 1.04938 1.1069 0.946243 0.909621 0.997713 1.03177 0.935697 1.12091 1.10384 1.09763 1.12053 1.15364 1.15481 1.08392 1.1272 1.17051 1.19778 1.0808 1.13693 1.09599 1.09409 1.15867 1.12457 1.11202 1.13555 1.08968 1.0852 1.0877 1.19524 1.14665 1.08937 1.07353 1.07065 0.947968 1.03098 1.0689 1.00688 1.01257 0.996798 0.995446 0.981766 0.986765 1.01395 1.01051 1.03841 1.03684 1.05511 0.992767 0.979014 0.828901 0.781039 0.754588 0.820917 0.81976 0.78443 0.976414 0.734395 0.753666 0.768994 0.76829 0.774194 0.777511 0.790186 0.779846 0.783303 0.787184 0.794614 0.802442 0.81385 0.741119 0.777403 0.695998 0.781537 0.660169 0.536112 0.546954 0.532976 0.654829 0.581783 0.742855 1.00656 1.0527 0.049568 0.560562 1.6093 1.30392 0.986822 0.605857 0.866277 0.672265 0.46923 0.560314 0.436452 0.511089 0.434889 0.442875 0.449496 0.44664 0.662307 0.784992 1.19044 0.867341 0.686403 0.704662 0.505749 0.743786 0.755281 0.736371 0.841952 0.791949 0.797861 0.810164 0.826004 0.839309 0.835388 0.811716 0.83472 0.833638 0.814058 0.852434 0.833223 0.920953 1.02973 1.04323 1.01215 0.93064 1.02314 0.970292 1.08878 1.01698 0.986312 0.920532 1.00699 0.938162 1.06868 1.06882 1.00291 1.13734 1.12981 1.09967 1.12863 1.15413 1.15297 1.11744 1.14242 1.16016 1.17326 1.11144 1.14262 1.10541 1.15795 1.09439 1.01494 1.14042 1.09513 1.08164 1.11377 1.16282 1.11275 1.15372 1.05943 1.12747 1.0069 1.12376 1.0079 1.06628 0.983688 1.02343 1.05929 0.979966 0.988257 0.978691 1.01285 1.01773 1.01226 1.01904 1.00228 0.945668 1.00645 1.03374 0.901233 0.808712 0.832074 0.798918 0.823324 0.847111 0.918888 0.982811 0.855817 0.753282 0.802199 0.776308 0.766827 0.777774 0.782973 0.779386 0.772199 0.776573 0.762413 0.761179 0.792058 0.833148 0.80354 0.870851 0.812028 0.75058 0.818924 0.549858 0.511251 0.420631 0.598123 0.607319 0.152657 1.01035 0.683932 0.593701 0.582291 0.484186 0.476294 0.503323 0.439564 0.490625 0.415213 0.521542 0.226225 1.10266 0.702059 0.679435 0.905164 0.776316 0.840054 0.774499 0.846224 0.764662 0.783655 0.815926 0.83823 0.859581 0.849354 0.870721 0.864151 0.896944 0.895972 0.957901 1.0162 0.996595 0.998013 0.959408 1.02929 0.944144 1.05487 0.933464 0.945922 0.996448 1.01959 1.07364 1.06533 1.0021 1.13932 1.16058 1.09801 1.10541 1.10105 1.14981 1.13592 1.12886 1.12392 1.11235 1.15699 1.16536 1.16968 1.12166 1.09746 1.15854 1.17451 1.09171 1.12626 1.16839 1.06999 1.08282 1.13971 1.13263 1.11956 1.19685 1.1832 1.03797 0.982461 1.11039 1.02676 1.01042 0.971707 1.02208 1.01869 1.01002 1.03567 1.0044 0.966218 1.00044 1.04755 0.962422 1.00336 0.851539 0.807259 0.856961 0.83451 0.917175 0.949476 0.928464 0.878108 0.87311 0.781069 0.791336 0.792547 0.771801 0.787603 0.763486 0.74996 0.757974 0.768013 0.745973 0.783721 0.733056 0.742743 0.958309 0.768478 0.827222 0.57018 0.781385 0.696288 0.621712 0.391811 0.660672 0.64453 0.900719 0.516003 0.737605 0.386937 0.8274 0.649639 0.691898 0.552953 0.452483 0.512491 0.528569 0.546765 0.494919 0.499512 0.297487 0.760686 0.807631 0.837748 0.859427 1.03662 0.83077 0.719879 0.792788 0.922306 0.697695 0.730026 0.810496 0.84553 0.852171 0.830728 0.922914 0.889425 0.898665 0.875699 0.872888 0.917687 0.969588 1.02026 1.01746 0.993092 0.99353 1.05036 1.05996 1.06176 0.963962 1.03542 1.03439 1.0659 1.09508 1.20638 1.11604 1.14569 1.10888 1.09297 1.087 1.14341 1.11258 1.1612 1.17349 1.17536 1.12315 1.13188 1.18553 1.1223 1.09827 1.14696 1.03884 1.06225 1.02942 1.123 1.12187 1.07965 1.15294 1.15667 1.19598 1.20611 1.09254 1.09741 1.03433 1.09695 0.985624 0.901703 1.01536 0.960548 0.988559 1.01799 0.923574 0.994246 1.02938 1.05077 1.03995 0.844141 0.886519 0.81967 0.852929 0.895595 0.927131 0.936883 0.890049 0.921578 0.757601 0.787641 0.777761 0.754247 0.736553 0.745632 0.78204 0.783735 0.75798 0.630085 0.659935 0.814529 0.438182 0.61693 0.75762 0.389398 0.383562 0.633518 0.906511 0.895315 0.819843 0.628012 0.729849 0.662032 0.630449 0.526587 0.530822 0.578304 0.549413 0.533422 0.494688 0.484156 0.708095 0.856222 0.847925 0.859867 0.938232 0.907162 0.835765 0.920116 0.803384 0.667081 0.886986 0.801121 0.827754 0.852484 0.824556 0.913633 0.863145 0.960373 0.880182 0.900784 0.874145 0.913008 0.97067 1.04603 1.00419 1.04252 0.996587 0.996501 0.956784 0.998201 0.797717 1.06556 1.06689 1.0758 1.04785 1.06588 1.10337 1.22772 1.19486 1.13043 1.19158 1.09829 1.11801 1.10439 1.05977 1.13149 1.11299 1.16178 1.18174 1.15005 1.15559 1.20296 1.1137 1.18877 1.15074 1.11284 1.04798 1.16056 1.11379 1.09231 1.10819 1.11541 1.10565 1.17255 1.11232 1.22134 1.13524 1.1132 1.07625 0.998081 1.08152 1.00896 1.04386 1.04758 0.941441 0.973094 1.00563 0.918133 0.98731 1.0382 1.03732 1.17021 1.0239 0.786051 0.953663 0.952516 0.737455 0.848551 0.904846 0.96046 0.875845 0.891306 0.942423 0.805783 0.729677 0.794463 0.707301 0.709741 0.757079 0.751439 0.698259 0.80788 0.733415 0.655879 0.722259 0.79445 0.614998 0.730902 0.845228 0.800926 0.781999 0.753148 0.728127 0.717776 0.648147 0.65364 0.652522 0.714722 0.634383 0.571273 0.530076 0.738156 0.579522 0.750051 0.842168 0.802794 0.859834 0.983997 0.908338 0.877177 0.964588 0.833298 0.741907 0.764306 0.762634 0.864306 0.951926 0.962173 0.899027 0.970032 0.919975 0.885923 0.854768 0.863163 0.930301 0.981015 0.984678 1.08003 0.940976 0.971055 0.973745 1.01505 0.976663 0.919208 1.05602 1.08265 1.0727 1.06724 1.07268 1.07592 1.11081 1.10433 1.06738 1.12624 1.20864 1.16524 1.10703 1.08719 1.07961 1.11566 1.12579 1.17338 1.15293 1.16629 1.23061 1.10392 1.17654 1.12752 1.25964 1.11099 1.10885 1.10247 1.16276 1.1341 1.09205 1.14126 1.14079 1.20852 1.11737 1.06869 1.07872 1.09727 1.10089 0.964217 1.00365 0.834932 0.955233 1.01595 1.09917 1.1406 1.03087 0.837875 0.968492 0.837931 0.916799 0.914661 0.930145 0.941809 0.887259 0.886528 0.76361 0.636519 0.753255 0.582781 0.697484 0.663473 0.700157 0.613669 0.74882 0.633405 0.394525 0.669946 0.888593 0.726598 0.774771 0.74612 0.754923 0.718117 0.647184 0.683105 0.662628 0.751775 0.764209 0.738501 0.676167 0.534495 0.608051 0.714104 0.844584 0.859918 0.834336 0.882152 0.907607 0.919609 0.794648 0.905092 0.766204 0.89852 0.988608 0.900406 0.944363 0.90436 0.930158 0.903073 0.936018 0.994023 1.00052 0.89626 0.994406 0.979792 1.05155 1.02178 0.994063 1.03589 1.09886 1.0953 1.08987 1.06974 1.07757 1.09103 1.12094 1.18918 1.12355 1.24258 1.1287 1.10721 1.14049 1.11474 1.11803 1.12684 1.17736 1.18491 1.17192 1.11534 1.1659 1.18442 1.28666 1.1367 1.12978 1.18301 1.12645 1.09494 1.14357 1.11182 1.07975 1.1298 1.21228 1.14163 1.08182 1.03109 1.0996 1.06403 1.07349 1.11814 1.08316 0.95152 1.08086 0.881077 1.02223 0.918098 1.07662 1.19611 1.03349 0.948781 0.916131 0.944164 0.903445 0.772593 0.852095 0.89086 0.916517 0.940129 0.930818 0.952321 0.662833 0.708549 1.05308 0.81485 0.763811 0.737805 0.666468 0.7282 0.6204 0.680415 0.733432 0.836403 0.825642 0.786244 0.832659 0.819046 0.825935 0.746956 0.706494 0.690119 0.774157 0.719833 0.692024 0.786379 0.553249 0.606944 0.609584 0.724675 0.832044 0.896984 0.92656 0.965616 0.880565 0.820887 0.891054 0.975022 0.841758 0.864757 0.971672 0.919941 0.943038 0.931797 0.969891 0.94477 1.02265 0.966196 0.956272 1.09201 1.0816 0.86265 1.02744 1.03387 1.01056 1.06695 1.11912 1.07959 1.10899 1.14458 1.11852 1.06899 1.17697 1.15001 1.09191 1.22857 1.12755 1.19368 1.14889 1.16114 1.10875 1.13371 1.181 1.13542 1.14894 1.16907 1.18365 1.20481 1.14154 1.18966 1.16574 1.12175 1.12876 1.10549 1.11935 1.13399 1.18905 1.16269 1.07948 1.03292 1.0248 1.12635 1.12488 1.02711 1.12489 1.27684 1.33916 1.02387 1.05419 0.990561 1.05325 0.846334 1.12168 0.985152 1.12925 1.12198 0.896001 0.90679 0.814439 0.8267 0.859079 0.897016 0.926385 0.964927 0.935175 0.930052 1.05796 0.727581 0.556671 1.1438 1.23221 0.884948 0.723353 0.574071 0.625928 0.707203 0.712142 0.82059 0.784091 0.807391 0.84024 0.907625 0.759395 0.768262 0.77272 0.712735 0.892802 0.827047 0.727232 0.845587 0.892089 0.796231 0.837062 0.951165 0.889348 1.10789 0.864129 0.861833 0.948834 0.916648 0.825897 1.0164 1.05528 0.988945 0.96327 0.966095 0.9497 1.00068 0.959914 0.942223 0.935968 1.06061 1.00389 1.10697 1.01497 1.05308 0.900041 0.980668 0.943427 1.13325 1.13664 1.11433 1.09232 1.11944 1.10081 1.10542 1.08908 1.15463 1.15276 1.12377 1.0868 1.21487 1.1321 1.16109 1.15437 1.1696 1.14593 1.18449 1.14051 1.15557 1.16057 1.17329 1.17571 1.14705 1.164 1.12667 1.12132 1.11382 1.10847 1.12812 1.1336 1.13313 1.11543 0.996531 1.1711 1.14483 1.12185 1.16321 1.19522 1.28135 1.07305 0.902155 1.01877 1.16391 1.08198 0.899872 1.00674 1.10035 1.15248 1.09648 1.08696 0.922309 0.88545 0.877881 0.921312 0.909079 0.908762 0.950511 0.941861 0.884036 0.9249 1.15009 1.13927 0.875975 0.912804 0.84424 0.744644 0.523836 0.577781 0.829284 0.95961 0.822371 0.781619 0.753688 0.82933 0.936449 0.940358 0.798597 0.780809 0.903344 0.964047 0.863662 0.822858 0.92768 0.861816 1.0443 0.804837 0.927917 1.06557 0.920656 0.937906 0.860844 0.814903 0.992139 0.882666 0.826112 0.736716 1.10678 0.952217 0.995132 0.984214 0.976174 0.98881 0.955653 0.954889 0.970473 1.01791 1.09327 1.13126 1.00691 1.12468 1.11805 1.12686 1.13799 1.09883 1.09496 1.11483 1.08218 1.14486 1.17933 1.13976 1.13671 1.20529 1.13352 1.15781 1.14961 1.16676 1.14999 1.18373 1.14296 1.15855 1.1693 1.11919 1.21684 1.16466 1.16992 1.11972 1.13152 1.17096 1.12077 1.13111 1.13116 1.13762 1.19203 1.16851 1.15742 1.12912 1.03241 1.12867 1.09776 1.18047 0.999028 1.00187 1.07477 1.06733 1.02503 0.998235 1.09342 1.18088 1.09483 1.08088 0.879743 0.932411 0.947957 0.92294 0.938047 0.950763 0.956057 0.92467 0.920052 1.30678 0.944808 0.860234 0.942366 0.986239 0.958221 0.634182 1.12205 0.878304 1.00932 0.908619 0.7525 0.79136 0.73466 0.723177 0.65784 0.895424 0.942906 0.924809 0.939816 0.831062 0.796287 0.952756 0.966703 0.951023 0.86788 1.061 0.863134 1.02555 0.895286 0.956951 0.950511 0.948775 0.942724 0.962657 0.902257 1.18234 0.963984 0.765394 0.818009 1.1516 1.1446 0.960588 0.930309 1.03637 1.01635 1.00119 0.965451 0.946991 0.977602 1.02453 1.06877 1.13568 1.23736 1.12076 1.06926 1.1308 1.01962 1.09469 1.11282 1.12244 1.09533 1.15872 1.18437 1.14466 1.13562 1.2169 1.13946 1.1679 1.17427 1.16178 1.17018 1.19063 1.19172 1.16407 1.17341 1.12839 1.16049 1.21623 1.16192 1.17378 1.11998 1.15737 1.18459 1.1278 1.13429 1.15277 1.14673 1.15295 1.14347 1.19535 1.16438 1.16174 1.05157 1.14926 1.08144 1.15504 1.12604 1.0335 1.02834 1.03582 1.02613 0.990818 1.06891 1.08857 0.990631 0.996643 0.959165 0.968173 0.967007 0.960054 0.973939 1.00302 1.19519 1.00381 1.07454 0.801619 0.789468 0.988114 0.989064 0.968907 1.10968 1.04769 0.880106 0.720249 0.771677 0.75177 0.937028 0.915988 0.93402 0.958187 0.908918 0.954744 0.936318 0.980569 1.03162 0.966426 0.955572 0.952945 0.942225 0.922818 0.961916 0.965717 1.16058 1.01654 0.793041 1.1701 1.12548 1.25643 0.920691 1.05317 1.04205 1.00082 0.95088 0.921047 1.00804 1.01819 1.03905 1.0951 1.11114 1.11504 1.18988 1.11157 1.09813 1.10423 1.03077 1.12475 1.12192 1.11008 1.0899 1.1575 1.18653 1.14355 1.17246 1.19178 1.15696 1.18358 1.18204 1.16076 1.1746 1.18942 1.16065 1.19375 1.17019 1.21405 1.20419 1.18046 1.16237 1.17116 1.11651 1.16445 1.27054 1.18035 1.13675 1.14005 1.14808 1.1725 1.16752 1.16202 1.16291 1.16779 1.1405 1.16643 1.10263 1.10744 1.07706 1.13532 1.04307 1.02657 1.04777 1.0581 1.06448 0.995498 1.04118 1.05917 1.06142 1.02635 1.02946 0.982591 1.00628 1.00111 0.985487 1.01572 0.925536 1.13522 0.965193 1.0658 1.01885 0.839974 0.812274 0.921286 0.867227 0.944941 0.889173 0.945529 1.06875 0.883464 0.957641 1.00633 0.984055 0.996333 1.04206 0.96458 0.958795 0.967363 0.717127 0.984936 1.03776 1.08589 0.91074 0.936294 1.1487 1.00938 1.17217 1.07571 1.04728 0.987343 0.942736 0.904711 1.12574 1.08943 1.16419 1.17297 1.08931 1.10542 1.10463 1.0857 1.11727 1.13703 1.13977 1.12954 1.12008 1.20267 1.16712 1.17212 1.1452 1.18103 1.15188 1.15481 1.1887 1.18831 1.16121 1.17449 1.18642 1.1957 1.17856 1.17891 1.1615 1.16151 1.1679 1.16984 1.16615 1.20842 1.1724 1.18513 1.1482 1.14017 1.15342 1.13817 1.17086 1.16937 1.1708 1.16477 1.15168 1.1499 1.10545 1.10645 1.18783 1.13211 1.05535 1.05204 1.08228 1.08166 1.08487 1.04076 1.0275 1.03642 1.07387 1.07078 1.05249 1.04689 1.0756 1.01798 1.01456 1.02736 1.018 1.01563 1.01569 1.07851 1.01582 1.04306 0.980429 1.0212 0.990152 0.956078 0.946021 1.06385 0.973849 0.931861 0.973531 1.05853 0.876827 1.04682 1.01222 1.01403 1.008 1.01464 0.961608 0.974078 1.05363 0.972716 1.07295 1.06698 0.934045 1.03893 1.16107 1.16122 1.03964 1.08257 1.03873 0.991721 1.15359 1.08708 1.00061 1.09874 1.25728 1.24286 1.0592 1.27154 1.10521 1.11774 1.10419 1.10924 1.09739 1.10536 1.14867 1.14108 1.14878 1.14409 1.1614 1.16668 1.17046 1.12304 1.18323 1.17715 1.154 1.15717 1.18825 1.18906 1.18816 1.16245 1.17759 1.18756 1.19102 1.18237 1.18005 1.17552 1.16837 1.20503 1.17343 1.17202 1.15092 1.14332 1.16073 1.17769 1.17185 1.16575 1.16628 1.16364 1.1543 1.11825 1.12723 1.1815 1.13601 1.07178 1.05839 1.09409 1.09237 1.13347 1.06042 1.04422 1.04173 1.09251 1.07998 1.02775 1.0363 1.0243 1.04244 1.01437 1.02461 1.03928 1.14522 1.03924 0.955482 0.980269 1.03166 1.00477 1.03486 0.934512 0.95827 1.02034 0.994413 1.04444 1.06791 0.997268 1.05448 1.05311 1.04584 1.04078 1.09186 1.02152 0.997208 1.03228 1.04291 1.02013 1.34278 1.07942 1.10123 0.97151 1.10825 1.1595 1.03612 1.15084 1.08561 1.03643 1.18482 1.0668 1.13533 1.22475 1.12091 1.11041 1.12577 1.14554 1.14403 1.15324 1.17131 1.23354 1.19109 1.13287 1.13486 1.17368 1.18604 1.19046 1.19458 1.17486 1.15579 1.15903 1.16286 1.20929 1.18545 1.16375 1.18001 1.19067 1.18842 1.18032 1.18231 1.17821 1.18936 1.20102 1.17159 1.17354 1.17084 1.15787 1.15259 1.15424 1.1633 1.18019 1.17235 1.17198 1.16209 1.17849 1.14922 1.14334 1.1036 1.15691 1.17581 1.11847 1.08099 1.06204 1.11337 1.10921 1.06556 1.05933 1.07744 1.09312 1.09416 1.08862 1.05787 1.04984 1.04898 1.05576 1.02772 1.03657 1.06616 1.03709 1.01964 1.16204 1.00305 1.03768 1.01863 1.02465 1.03931 1.0321 0.972246 1.02649 1.01366 1.09135 1.03423 1.07069 1.06926 1.08378 1.05892 1.08166 1.11698 1.10201 0.952442 1.14915 0.991704 1.0076 0.989901 1.1146 1.13513 1.10643 1.10379 1.11541 1.0527 1.14463 1.11181 1.12989 1.18422 1.10525 1.05396 1.01426 1.1671 1.13725 1.09516 1.12538 1.13003 1.12883 1.1334 1.11908 1.14182 1.14389 1.15576 1.19495 1.19196 1.18595 1.17771 1.17714 1.1655 1.17629 1.19367 1.17769 1.17936 1.18571 1.18326 1.194 1.1897 1.16944 1.20208 1.16902 1.17384 1.18561 1.17257 1.1657 1.15547 1.17834 1.17444 1.17592 1.16123 1.15996 1.14978 1.13405 1.16612 1.14813 1.16981 1.08872 1.1315 1.15789 1.10165 1.11551 1.10913 1.07207 1.07079 1.09772 1.07931 1.10258 1.05608 1.06485 1.05901 1.06805 1.06132 1.02138 1.02399 1.23848 1.06925 1.01079 0.998118 1.03796 0.956262 0.971646 1.02421 1.11609 1.03781 1.03677 1.03256 1.10263 1.04993 1.10024 1.08271 1.10532 1.11094 1.14652 1.138 1.07055 1.13877 1.06493 1.01783 1.03527 1.1108 1.07681 1.16311 1.13139 1.12857 1.10308 1.11878 1.09415 1.10714 1.17791 1.15888 1.10439 1.07936 1.11058 1.04099 1.06881 1.18082 1.14321 1.19745 1.14103 1.15842 1.14974 1.16438 1.16249 1.19545 1.19044 1.18978 1.18457 1.17805 1.17724 1.19051 1.17821 1.17853 1.17217 1.19335 1.19537 1.19591 1.18145 1.1798 1.18561 1.18638 1.20135 1.20112 1.18239 1.18191 1.16355 1.18375 1.17694 1.19246 1.19289 1.18752 1.17803 1.18697 1.16918 1.16798 1.17664 1.16745 1.17373 1.14681 1.14092 1.16363 1.14292 1.17004 1.15909 1.16553 1.10122 1.17811 1.16564 1.11563 1.12635 1.11633 1.12081 1.0695 1.12514 1.11377 1.10872 1.11209 1.08777 1.07494 1.07884 1.07114 1.08039 1.06659 1.02255 1.03796 1.17196 1.10885 1.05311 1.03245 0.957058 1.0753 1.03496 1.10643 1.06006 1.04709 1.10364 1.06874 1.12132 1.0888 1.1365 1.13175 1.13726 1.07772 1.14058 1.07631 1.05348 1.11818 1.13202 1.18061 1.06837 1.13494 1.14731 1.11537 1.09671 1.19103 1.14549 1.10938 1.12507 1.1158 1.0859 1.18279 1.14206 1.13978 1.14237 1.13158 1.14719 1.19061 1.15528 1.1709 1.16817 1.19368 1.18914 1.18442 1.18698 1.17783 1.18831 1.1891 1.1823 1.17821 1.18175 1.17134 1.19856 1.19103 1.1849 1.18158 1.17912 1.18539 1.20121 1.18518 1.18579 1.19212 1.17196 1.18028 1.1735 1.19045 1.19021 1.18225 1.18001 1.17419 1.17442 1.17036 1.17267 1.16961 1.17966 1.17423 1.14761 1.14886 1.16861 1.16638 1.16835 1.14838 1.1641 1.11253 1.18464 1.15612 1.10671 1.11341 1.12951 1.12817 1.12318 1.06813 1.13798 1.10085 1.12621 1.10512 1.08571 1.09167 1.08404 1.09143 1.07544 1.05077 1.09435 1.04535 1.19183 1.13379 1.06402 1.05101 1.05582 1.08407 1.0792 1.06011 1.11287 1.08731 1.09377 1.13463 1.14731 1.1824 1.13659 1.0808 1.08152 1.09808 1.18013 1.1561 1.17361 1.15927 1.14903 1.16561 1.14658 1.12464 1.11815 1.19444 1.16831 1.14852 1.11751 1.11364 1.14759 1.17683 1.15973 1.148 1.14099 1.15491 1.17456 1.20444 1.18118 1.18751 1.18828 1.18928 1.18198 1.18254 1.17833 1.18312 1.172 1.1802 1.19209 1.18503 1.18287 1.18205 1.1834 1.18721 1.18805 1.18841 1.17548 1.1888 1.1805 1.18138 1.17876 1.17115 1.17967 1.1812 1.17757 1.17352 1.16034 1.16825 1.16439 1.16767 1.14555 1.11846 1.16893 1.16084 1.17327 1.10398 1.13525 1.1304 1.06795 1.09611 1.08706 1.11248 1.12532 1.13462 1.11329 1.08254 1.08973 1.11104 1.09292 1.05875 1.05665 1.10203 1.11897 1.13045 1.14456 1.11026 1.12665 1.05493 1.06419 1.09503 1.09145 1.06941 1.10004 1.13582 1.13977 1.16091 1.15911 1.25012 1.13117 1.12387 1.12876 1.16687 1.15897 1.15141 1.16389 1.15632 1.163 1.15409 1.19759 1.17652 1.15782 1.12613 1.11108 1.09756 1.14719 1.17454 1.15215 1.16203 1.15466 1.15929 1.17526 1.19195 1.17841 1.18529 1.16814 1.18512 1.1787 1.18954 1.18948 1.18711 1.18298 1.17675 1.18371 1.17318 1.18065 1.18543 1.18534 1.18384 1.18894 1.18849 1.18609 1.18517 1.19291 1.18459 1.17774 1.17945 1.18992 1.18555 1.17972 1.18306 1.17842 1.17353 1.17301 1.17829 1.16489 1.16643 1.16389 1.16805 1.1651 1.16501 1.17202 1.16828 1.1642 1.16974 1.12493 1.16437 1.15572 1.16994 1.13217 1.13625 1.12155 1.12504 1.12469 1.11663 1.09083 1.08941 1.11751 1.11316 1.14182 1.09692 1.03699 1.0806 1.11408 1.13413 1.16798 1.17041 1.15693 1.13417 1.14057 1.136 1.07163 1.06681 1.10522 1.09712 1.0767 1.1194 1.15036 1.13474 1.13609 1.14097 1.16287 1.16017 1.133 1.12533 1.17302 1.12303 1.17014 1.16148 1.15069 1.19178 1.16353 1.16536 1.15777 1.19561 1.17909 1.15988 1.14016 1.15301 1.164 1.17706 1.1633 1.17033 1.18538 1.17638 1.17621 1.19214 1.17494 1.18814 1.18179 1.18628 1.18772 1.18923 1.19045 1.19243 1.18893 1.17677 1.18509 1.17443 1.17488 1.18295 1.19228 1.18698 1.18396 1.18923 1.18812 1.18582 1.18606 1.18513 1.1932 1.18624 1.17805 1.1815 1.18096 1.1875 1.18036 1.21862 1.18257 1.18568 1.17765 1.18055 1.16827 1.17926 1.16618 1.17567 1.17374 1.16127 1.17483 1.14533 1.16595 1.17315 1.16139 1.19181 1.15669 1.08801 1.17497 1.13934 1.17748 1.13817 1.0976 1.16185 1.14761 1.03912 1.21167 1.24821 1.13373 1.13472 1.1652 1.16945 1.15261 1.13839 1.0862 1.12365 1.10742 1.088 1.08608 1.12526 1.15479 1.1388 1.14059 1.18521 1.16237 1.1596 1.13397 1.16866 1.17932 1.13361 1.16322 1.1893 1.16381 1.16894 1.15769 1.16669 1.18805 1.17652 1.15715 1.17405 1.17194 1.15497 1.15323 1.16739 1.18135 1.18337 1.1861 1.17277 1.18655 1.17459 1.17874 1.18102 1.18595 1.19012 1.18619 1.18483 1.18543 1.18591 1.18579 1.19295 1.18453 1.18548 1.19215 1.18729 1.18358 1.18966 1.18827 1.1865 1.18587 1.19031 1.18707 1.18573 1.17773 1.18866 1.18167 1.18216 1.18375 1.17815 1.19283 1.1828 1.18609 1.1843 1.18281 1.1782 1.18182 1.18051 1.17907 1.17669 1.17615 1.177 1.17658 1.1751 1.17444 1.17075 1.16379 1.15637 1.18618 1.17447 1.1839 1.15912 1.188 1.19507 1.18134 1.1598 1.12793 1.13073 1.18118 1.15504 1.1945 1.19542 1.19004 1.18011 1.15573 1.1598 1.10179 1.15567 1.13764 1.13872 1.13802 1.16933 1.1636 1.15631 1.15303 1.14845 1.09364 1.13048 1.11187 1.09397 1.12873 1.15914 1.14487 1.15318 1.12214 1.19311 1.1683 1.16546 1.15641 1.14497 1.16906 1.15026 1.15098 1.17366 1.18067 1.18273 1.16814 1.15728 1.14824 1.17006 1.1544 1.1828 1.18331 1.17914 1.16088 1.17093 1.15637 1.15604 1.18059 1.18533 1.19147 1.18419 1.17588 1.1864 1.18798 1.19087 1.18679 1.18081 1.18601 1.17505 1.17796 1.18831 1.18927 1.18573 1.1894 1.18963 1.18561 1.19318 1.19175 1.19045 1.18739 1.18446 1.1877 1.18825 1.19054 1.18778 1.19178 1.17991 1.18929 1.19906 1.18824 1.18536 1.17936 1.18595 1.18044 1.17818 1.18381 1.17561 1.17462 1.17267 1.1689 1.17988 1.16174 1.16981 1.1661 1.18007 1.18715 1.18814 1.19139 1.15818 1.17717 1.16317 1.15118 1.17024 1.14735 1.15483 1.17453 1.18087 1.19306 1.15207 1.15096 1.16641 1.14228 1.14568 1.17002 1.15448 1.14691 1.17487 1.15243 1.15555 1.1263 1.11984 1.10203 1.13802 1.15711 1.14696 1.15757 1.1554 1.19671 1.17082 1.1815 1.16016 1.15118 1.18342 1.16877 1.17466 1.15362 1.17449 1.18533 1.16994 1.17115 1.18282 1.17981 1.18222 1.16317 1.17227 1.16564 1.16485 1.18467 1.18432 1.17749 1.18443 1.18599 1.18876 1.18533 1.1894 1.18696 1.1836 1.1842 1.18943 1.18873 1.18999 1.18773 1.18735 1.19089 1.1911 1.19043 1.19055 1.19361 1.19225 1.19078 1.18496 1.19347 1.19178 1.18782 1.1883 1.19023 1.19178 1.18846 1.18609 1.18884 1.18092 1.18561 1.18514 1.18427 1.19004 1.18014 1.18389 1.18035 1.1865 1.17906 1.18418 1.18343 1.17517 1.17581 1.17455 1.17898 1.17619 1.16213 1.1665 1.18314 1.17947 1.18938 1.19545 1.16179 1.16695 1.17466 1.17829 1.19581 1.18634 1.16951 1.15654 1.16321 1.15359 1.15149 1.15911 1.18198 1.1445 1.15334 1.16915 1.13658 1.12293 1.10674 1.14001 1.15865 1.1532 1.17322 1.18689 1.16946 1.15748 1.16167 1.1728 1.17643 1.16896 1.182 1.18022 1.18441 1.17867 1.1809 1.17848 1.18018 1.16733 1.18311 1.1866 1.18066 1.16929 1.17525 1.18707 1.17861 1.18045 1.18445 1.19003 1.18883 1.18619 1.18761 1.19354 1.18825 1.18417 1.19008 1.1869 1.18976 1.1869 1.1914 1.19017 1.18937 1.1918 1.18574 1.19133 1.1916 1.19178 1.19052 1.1859 1.19178 1.19251 1.18815 1.18816 1.19178 1.18873 1.19033 1.19238 1.18771 1.18916 1.18522 1.18751 1.18927 1.1886 1.18113 1.17991 1.18074 1.18672 1.17854 1.17718 1.18434 1.17732 1.1793 1.17748 1.16355 1.17156 1.16678 1.18505 1.17986 1.1943 1.1642 1.16864 1.18306 1.17421 1.17765 1.18348 1.19761 1.18533 1.18859 1.17981 1.16075 1.15429 1.17231 1.16989 1.14097 1.1507 1.16867 1.17913 1.17793 1.15646 1.15964 1.16966 1.14247 1.13038 1.13551 1.11251 1.11942 1.14126 1.14229 1.16988 1.15926 1.17111 1.17076 1.13825 1.19103 1.16934 1.16109 1.17023 1.18219 1.18181 1.18461 1.1895 1.18687 1.17698 1.18497 1.1856 1.18954 1.18212 1.18925 1.18091 1.18139 1.18706 1.17814 1.18435 1.1816 1.18469 1.19047 1.18497 1.18571 1.18743 1.19359 1.19074 1.18705 1.18763 1.18774 1.18648 1.18644 1.1904 1.18934 1.19022 1.18743 1.19164 1.19178 1.19178 1.1907 1.18624 1.18762 1.19187 1.19242 1.19178 1.18835 1.18962 1.19268 1.18921 1.18918 1.19067 1.18823 1.18797 1.1885 1.18527 1.18524 1.19039 1.19125 1.18187 1.18066 1.18556 1.18099 1.18383 1.18538 1.18568 1.18605 1.1793 1.18174 1.1776 1.17498 1.18596 1.16966 1.16962 1.17608 1.16984 1.17832 1.17764 1.18326 1.1977 1.1885 1.193 1.18019 1.16448 1.1549 1.16901 1.15566 1.16909 1.17542 1.1588 1.19121 1.17815 1.14948 1.18037 1.12048 1.19285 1.18934 1.19104 1.16332 1.177 1.16973 1.17832 1.19178 1.16531 1.19018 1.18157 1.18336 1.18306 1.18146 1.18481 1.18992 1.19153 1.17881 1.18633 1.18416 1.1899 1.19195 1.18781 1.18706 1.18654 1.18885 1.18803 1.18506 1.18258 1.18545 1.18755 1.19058 1.19178 1.18968 1.19066 1.18688 1.18896 1.19178 1.18937 1.18891 1.19179 1.18988 1.19179 1.19178 1.19178 1.19161 1.18941 1.19178 1.19101 1.19063 1.19257 1.19049 1.19224 1.19219 1.19037 1.18789 1.18861 1.18913 1.18533 1.18578 1.18975 1.18929 1.19096 1.18359 1.18131 1.18289 1.18371 1.18539 1.18464 1.18248 1.18566 1.17879 1.16953 1.18684 1.1618 1.17697 1.19112 1.19093 1.17935 1.18622 1.18193 1.17736 1.18366 1.19488 1.18526 1.17738 1.18469 1.18319 1.16309 1.18675 1.18589 1.17865 1.17856 1.15252 1.18026 1.19252 1.17741 1.16713 1.18998 1.18166 1.18372 1.18194 1.18534 1.19088 1.1899 1.18312 1.18832 1.18676 1.18692 1.1876 1.18971 1.18809 1.18725 1.18883 1.18974 1.19065 1.1846 1.18521 1.18306 1.1862 1.19004 1.19096 1.18579 1.18879 1.18754 1.19214 1.18983 1.18982 1.18975 1.19178 1.18919 1.19197 1.19023 1.19063 1.19108 1.1903 1.19172 1.19187 1.19197 1.19155 1.19155 1.18928 1.19166 1.19103 1.18989 1.19146 1.18997 1.19065 1.18882 1.19058 1.18629 1.18996 1.18932 1.19119 1.18565 1.18187 1.18532 1.18654 1.18566 1.18709 1.18649 1.18249 1.18519 1.17919 1.17165 1.18045 1.18214 1.18928 1.18711 1.16655 1.1826 1.19344 1.19202 1.19196 1.18652 1.18057 1.18302 1.18519 1.18532 1.17863 1.1882 1.16575 1.1825 1.16923 1.19186 1.16264 1.17849 1.17503 1.19179 1.19076 1.19178 1.16056 1.162 1.19014 1.17691 1.17034 1.17829 1.18504 1.16811 1.19096 1.18267 1.18379 1.18433 1.18257 1.19083 1.18767 1.18872 1.18692 1.1898 1.18814 1.18744 1.18911 1.19018 1.18323 1.1862 1.18624 1.18781 1.19053 1.19045 1.19015 1.18981 1.19155 1.19161 1.19022 1.18879 1.18688 1.19071 1.19049 1.18555 1.18153 1.1845 1.18624 1.18515 1.18613 1.18205 1.18508 1.18905 1.17941 1.18047 1.19089 1.18348 1.1915 1.18143 1.18663 1.18369 1.18577 1.19184 1.18228 1.18618 1.1696 1.19187 1.16324 1.17842 1.18445 1.19053 
SCALARS Stress float 1
LOOKUP_TABLE default
-512600000000.0 -1.88572e+12 -1.31383e+12 -2.26929e+12 -4.25917e+12 -1.0513e+12 -597110000000.0 -531537000000.0 -2.31313e+12 -4.08307e+12 -2.73954e+12 -4.26221e+12 -2.48918e+12 -3.30186e+12 -1.23524e+12 -3.10403e+12 -4.45342e+12 -2.3005e+12 -96615200000.0 -1.67388e+12 -1.1873e+12 -311688000000.0 -317440000000.0 -182772000000.0 -370661000000.0 -115863000000.0 -231193000000.0 -305092000000.0 -271989000000.0 -473752000000.0 -452611000000.0 -454995000000.0 -573132000000.0 -606256000000.0 -836269000000.0 -736040000000.0 -1.12826e+12 -2.18052e+12 -1.85799e+12 -1.00184e+12 -2.84077e+12 -1.38703e+12 -2.80182e+12 -5.61461e+12 -3.69077e+12 -2.80477e+12 -3.41759e+12 -2.84508e+12 -2.65052e+12 -1.7309e+12 -5.86182e+12 -4.74655e+12 -6.07851e+12 -2.23557e+12 -5.07736e+12 -2.55308e+12 -2.82382e+12 -1.0253e+12 -447574000000.0 -1.21436e+12 -524769000000.0 -343746000000.0 -531769000000.0 -522136000000.0 -341365000000.0 -395181000000.0 -368583000000.0 -165921000000.0 -193123000000.0 -54006400000.0 -323169000000.0 -105657000000.0 -127848000000.0 -741495000000.0 -134724000000.0 -100758000000.0 -448179000000.0 -1.2498e+12 -734095000000.0 -921439000000.0 -1.33225e+12 -1.12779e+12 -989722000000.0 -2.17814e+12 -1.78439e+12 -2.02398e+12 -1.18603e+12 -4.6944e+12 -3.12099e+12 -2.76751e+12 -2.59866e+12 -4.68549e+12 -2.21096e+12 -2.46835e+12 -4.20766e+12 -3.82268e+12 -6.55838e+12 -5.10503e+12 -3.61647e+12 -3.28169e+12 -7.17773e+12 -3.19818e+12 -3.16865e+12 -3.99698e+12 -3.7494e+12 -5.62963e+12 -4.17404e+12 -3.39783e+12 -3.73308e+12 -3.48647e+12 -2.10888e+12 -1.67251e+12 -612787000000.0 -1.36302e+12 -927060000000.0 -826913000000.0 -614336000000.0 -467501000000.0 -680935000000.0 -271418000000.0 -292814000000.0 -495775000000.0 -538535000000.0 -503486000000.0 -716784000000.0 -644436000000.0 -767292000000.0 -784633000000.0 -1.3792e+12 -842231000000.0 -1.44352e+12 -2.38252e+12 -3.05921e+12 -3.54128e+12 -1.47701e+12 -2.30852e+12 -1.78119e+12 -3.86025e+12 -4.79108e+12 -2.67532e+12 -5.4994e+12 -2.27678e+12 -4.28472e+12 -4.45482e+12 -5.9938e+12 -3.85472e+12 -5.05575e+12 -5.01633e+12 -3.16234e+12 -2.69289e+12 -4.14638e+12 -3.51542e+12 -5.13313e+12 -6.73937e+12 -5.85133e+12 -4.92013e+12 -3.39738e+12 -4.94803e+12 -1.95833e+12 -1.61994e+12 -5.05695e+12 -2.63543e+12 -2.21722e+12 -3.18677e+12 -1.96932e+12 -2.76448e+12 -1.79586e+12 -1.83786e+12 -1.03609e+12 -115100000000.0 -968299000000.0 -224765000000.0 -51117000000.0 -273776000000.0 -480882000000.0 -826536000000.0 -593077000000.0 -468984000000.0 -497503000000.0 -1.22554e+12 -1.00966e+12 -1.69134e+12 -518228000000.0 -1.34464e+12 -2.00434e+12 -3.78403e+12 -1.1985e+12 -960365000000.0 -1.34398e+12 -3.5511e+12 -2.96696e+12 -2.54856e+12 -4.61404e+12 -6.63497e+12 -4.12936e+12 -3.10723e+12 -4.16435e+12 -7.20621e+12 -1.07764e+13 -6.3133e+12 -6.74392e+12 -6.18461e+12 -3.22281e+12 -3.02738e+12 -3.89003e+12 -5.89713e+12 -5.59989e+12 -4.6305e+12 -4.19958e+12 -2.73706e+12 -4.88486e+12 -6.15849e+12 -2.86349e+12 -3.11022e+12 -4.88545e+12 -5.57958e+12 -4.71255e+12 -2.86335e+12 -2.61051e+12 -4.06454e+12 -5.40097e+12 -4.48988e+12 -4.33071e+12 -3.59691e+12 -1.29051e+12 -1.58155e+12 -2.37034e+12 -1.80299e+12 -914832000000.0 -1.50574e+12 -727500000000.0 -930196000000.0 -1.20837e+12 -814407000000.0 -873486000000.0 -575230000000.0 -748669000000.0 -938908000000.0 -1.10333e+12 -995742000000.0 -804160000000.0 -1.31861e+12 -1.4914e+12 -638132000000.0 -397552000000.0 -1.09799e+12 -1.2402e+12 -2.38523e+12 -2.18454e+12 -2.8572e+12 -2.8879e+12 -4.69005e+12 -3.87089e+12 -7.23795e+12 -5.91656e+12 -5.10418e+12 -1.94552e+12 -7.02104e+12 -6.59365e+12 -5.09932e+12 -4.47062e+12 -6.51263e+12 -3.77642e+12 -2.03219e+12 -2.48689e+12 -4.03656e+12 -3.80488e+12 -8.30686e+12 -5.90753e+12 -8.17527e+12 -8.60487e+12 -4.25299e+12 -6.77355e+12 -3.39793e+12 -3.98661e+12 -6.04942e+12 -5.32971e+12 -4.34984e+12 -6.19431e+12 -3.16817e+12 -3.64245e+12 -3.31514e+12 -4.30266e+12 -2.76805e+12 -1.5884e+12 -1.05617e+12 -1.85018e+12 -1.58617e+12 -1.22613e+12 -491348000000.0 -1.37398e+12 -976529000000.0 -961039000000.0 -1.10476e+12 -822769000000.0 -983082000000.0 -874187000000.0 -859621000000.0 -1.61574e+12 -1.53761e+12 -2.22199e+12 -2.22099e+12 -1.87812e+12 -1.46267e+12 -3.36398e+12 -3.76712e+12 -2.36289e+12 -2.83978e+12 -5.13792e+12 -2.70832e+12 -3.94834e+12 -5.0977e+12 -5.45431e+12 -4.80096e+12 -5.52245e+12 -6.42157e+12 -5.33547e+12 -4.12965e+12 -3.7931e+12 -8.0405e+12 -2.88804e+12 -5.47646e+12 -5.23998e+12 -4.32558e+12 -4.82235e+12 -3.18627e+12 -4.86515e+12 -4.06996e+12 -3.65084e+12 -3.37419e+12 -5.36327e+12 -3.12916e+12 -6.66392e+12 -3.19057e+12 -8.48918e+12 -4.14325e+12 -6.74456e+12 -5.46538e+12 -5.7813e+12 -3.39288e+12 -4.02185e+12 -4.91244e+12 -6.32876e+12 -4.42899e+12 -3.97804e+12 -3.31153e+12 -3.18345e+12 -2.87727e+12 -4.13629e+12 -1.33571e+12 -3.45227e+12 -2.90833e+12 -2.76245e+12 -2.56299e+12 -3.10018e+12 -1.76967e+12 -1.47309e+12 -1.87752e+12 -1.18446e+12 -2.28221e+12 -1.44702e+12 -644091000000.0 -628673000000.0 -39752900000.0 -902267000000.0 -2.35211e+12 -1.13626e+12 -1.52395e+12 -2.36627e+12 -2.57926e+12 -2.01982e+12 -1.57005e+12 -3.69895e+12 -3.32901e+12 -2.48932e+12 -3.95537e+12 -2.44893e+12 -1.80358e+12 -3.36597e+12 -5.13357e+12 -2.96565e+12 -2.93215e+12 -3.56631e+12 -4.37172e+12 -4.14331e+12 -4.3505e+12 -7.25445e+12 -4.42456e+12 -8.85239e+12 -4.56931e+12 -1.03121e+13 -5.86538e+12 -6.46674e+12 -5.81443e+12 -4.77344e+12 -3.56893e+12 -5.16866e+12 -3.47759e+12 -4.83918e+12 -8.38081e+12 -4.23212e+12 -8.13909e+12 -7.18536e+12 -5.64706e+12 -5.9993e+12 -6.01598e+12 -3.53037e+12 -4.56064e+12 -4.40714e+12 -5.33002e+12 -4.36705e+12 -6.11869e+12 -6.76717e+12 -5.03311e+12 -2.86016e+12 -5.27943e+12 -3.48554e+12 -2.72544e+12 -3.28476e+12 -2.14883e+12 -2.33954e+12 -3.14238e+12 -3.24515e+12 -1.83294e+12 -2.30256e+12 -3.01613e+12 -2.22857e+12 -2.43664e+12 -1.45617e+12 -1.54628e+12 -1.57498e+12 -473030000000.0 -389260000000.0 -1.31233e+12 -753312000000.0 -1.82883e+12 -672231000000.0 -1.22371e+12 -815659000000.0 -1.8172e+12 -1.09985e+12 -1.83555e+12 -1.73287e+12 -2.12878e+12 -1.112e+12 -1.28403e+12 -1.29315e+12 -1.96288e+12 -2.37506e+12 -3.22415e+12 -1.29775e+12 -2.32654e+12 -3.28685e+12 -3.00544e+12 -2.79252e+12 -3.94916e+12 -3.19307e+12 -4.43339e+12 -5.50741e+12 -6.85326e+12 -4.20016e+12 -5.25042e+12 -5.14305e+12 -1.06283e+13 -6.33213e+12 -8.00981e+12 -8.04318e+12 -3.6673e+12 -4.59112e+12 -5.95054e+12 -8.40394e+12 -6.26968e+12 -4.9765e+12 -4.03498e+12 -4.30772e+12 -2.83541e+12 -6.99069e+12 -2.98214e+12 -2.73052e+12 -2.70706e+12 -2.58562e+12 -4.60855e+12 -6.50866e+12 -6.91279e+12 -8.18444e+12 -4.78423e+12 -2.61676e+12 -5.96923e+12 -4.98302e+12 -4.8643e+12 -2.67976e+12 -4.72941e+12 -4.04145e+12 -5.20303e+12 -3.97141e+12 -5.27766e+12 -4.04827e+12 -1.86532e+12 -3.76221e+12 -3.85559e+12 -2.01645e+12 -4.30683e+12 -3.17217e+12 -2.26828e+12 -3.65399e+12 -1.81016e+12 -3.01553e+12 -1.70756e+12 -2.38896e+12 -1.5627e+12 -1.51428e+12 -2.45662e+12 -1.92286e+12 -1.86312e+12 -894295000000.0 -1.41348e+12 -1.68003e+12 -1.49282e+12 -1.33759e+12 -1.00591e+12 -1.42089e+12 -2.27359e+12 -1.37364e+12 -1.61412e+12 -2.38405e+12 -1.09394e+12 -2.0193e+12 -1.02407e+12 -1.18117e+12 -1.44736e+12 -827056000000.0 -1.74979e+12 -2.52014e+12 -2.19768e+12 -3.3911e+12 -2.25365e+12 -4.42465e+12 -5.59551e+12 -2.2064e+12 -2.24134e+12 -2.43734e+12 -3.3533e+12 -4.83711e+12 -4.21527e+12 -5.70154e+12 -3.4957e+12 -3.49502e+12 -6.70601e+12 -7.48953e+12 -2.27368e+12 -4.47276e+12 -7.56484e+12 -5.32452e+12 -7.18692e+12 -3.59204e+12 -4.89305e+12 -4.55665e+12 -5.79681e+12 -5.70948e+12 -5.13273e+12 -2.71918e+12 -5.52211e+12 -5.07398e+12 -3.71276e+12 -5.28938e+12 -4.53436e+12 -3.699e+12 -7.42961e+12 -8.23042e+12 -3.85027e+12 -7.59018e+12 -4.38034e+12 -5.75243e+12 -7.22983e+12 -5.19348e+12 -6.03509e+12 -8.38797e+12 -4.79094e+12 -6.4661e+12 -3.58565e+12 -3.4479e+12 -5.42707e+12 -3.10139e+12 -7.1744e+12 -7.23163e+12 -4.55884e+12 -2.70888e+12 -4.82489e+12 -3.76453e+12 -4.09323e+12 -2.52051e+12 -3.29116e+12 -3.24464e+12 -3.01532e+12 -3.33335e+12 -2.98072e+12 -3.25682e+12 -2.75145e+12 -1.93041e+12 -1.11178e+12 -1.88744e+12 -2.35657e+12 -1.30802e+12 -1.31465e+12 -634306000000.0 -810594000000.0 -1.3018e+12 -372127000000.0 -740070000000.0 -418761000000.0 -669739000000.0 -1.26682e+12 -905607000000.0 -1.21434e+12 -1.42592e+12 -961464000000.0 -717702000000.0 -632087000000.0 -1.41319e+12 -1.41892e+12 -1.86235e+12 -2.0408e+12 -2.67755e+12 -2.0751e+12 -3.2156e+12 -3.29843e+12 -4.20645e+12 -3.7672e+12 -2.42615e+12 -1.62666e+12 -2.86857e+12 -3.20195e+12 -6.28691e+12 -6.49082e+12 -4.45943e+12 -1.03752e+13 -4.32323e+12 -7.16822e+12 -5.8547e+12 -3.24041e+12 -9.39706e+12 -8.85616e+12 -7.7436e+12 -9.25048e+12 -3.52794e+12 -2.88362e+12 -8.40205e+12 -5.47411e+12 -8.80241e+12 -8.47297e+12 -5.30839e+12 -5.13768e+12 -6.39096e+12 -8.1597e+12 -5.70484e+12 -6.45074e+12 -5.49003e+12 -6.99827e+12 -5.93569e+12 -2.5582e+12 -4.63236e+12 -6.47218e+12 -5.85999e+12 -4.02685e+12 -5.75429e+12 -5.90898e+12 -3.42241e+12 -4.74362e+12 -3.58972e+12 -6.23403e+12 -7.68218e+12 -5.36334e+12 -7.66339e+12 -2.70325e+12 -3.03335e+12 -4.50671e+12 -6.00653e+12 -2.99922e+12 -2.43765e+12 -3.0138e+12 -1.88805e+12 -4.98734e+12 -1.47001e+12 -1.95878e+12 -2.00111e+12 -3.10666e+12 -844030000000.0 -1.58932e+12 -2.20599e+12 -1.24745e+12 -1.27148e+12 -1.60433e+12 -2.33247e+12 -1.48837e+12 -1.66645e+12 -1.15914e+12 -650883000000.0 -883131000000.0 -742928000000.0 -545705000000.0 -927233000000.0 -698259000000.0 -577513000000.0 -1.33063e+12 -1.78879e+12 -1.92154e+12 -843003000000.0 -1.14362e+12 -1.02108e+12 -1.29026e+12 -765867000000.0 -1.76803e+12 -3.66681e+12 -2.39661e+12 -2.47426e+12 -1.6612e+12 -4.58282e+12 -2.08705e+12 -6.49997e+12 -2.54488e+12 -5.03964e+12 -4.14481e+12 -4.11833e+12 -4.2691e+12 -4.78085e+12 -3.60157e+12 -6.63522e+12 -6.78073e+12 -6.79007e+12 -6.82448e+12 -5.48003e+12 -4.77433e+12 -7.62368e+12 -4.83176e+12 -8.45432e+12 -7.21731e+12 -7.13434e+12 -1.09747e+13 -2.63896e+12 -9.14407e+12 -3.82139e+12 -3.3123e+12 -6.08188e+12 -4.2826e+12 -5.9926e+12 -1.13029e+13 -3.11249e+12 -9.25628e+12 -8.86863e+12 -4.9261e+12 -8.35242e+12 -5.27397e+12 -9.25026e+12 -9.85658e+12 -7.11509e+12 -5.81323e+12 -6.05374e+12 -3.81014e+12 -2.74388e+12 -4.7615e+12 -3.00314e+12 -3.59937e+12 -7.44762e+12 -4.6554e+12 -2.37967e+12 -6.19442e+12 -3.97452e+12 -2.70319e+12 -2.95606e+12 -1.70778e+12 -3.18934e+12 -3.02336e+12 -2.87281e+12 -4.42072e+12 -4.00907e+12 -1.5449e+12 -3.1619e+12 -2.16922e+12 -2.22856e+12 -1.78267e+12 -1.34396e+12 -1.37967e+12 -1.8609e+12 -1.56902e+12 -753260000000.0 -1.69489e+12 -1.19494e+12 -786973000000.0 -485605000000.0 -734791000000.0 -1.29151e+12 -1.16366e+12 -1.46708e+12 -1.09688e+12 -1.539e+12 -419717000000.0 -1.22632e+12 -1.17951e+12 -1.38846e+12 -919677000000.0 -1.99925e+12 -979588000000.0 -2.24461e+12 -1.89076e+12 -2.35518e+12 -2.09856e+12 -1.05154e+12 -4.23351e+12 -4.76987e+12 -1.58354e+12 -3.94337e+12 -3.3269e+12 -2.31908e+12 -4.92778e+12 -5.73145e+12 -2.79847e+12 -2.84028e+12 -5.96418e+12 -5.18099e+12 -4.94752e+12 -2.70609e+12 -2.75659e+12 -4.06228e+12 -3.37552e+12 -2.81774e+12 -4.81356e+12 -5.04901e+12 -3.84487e+12 -4.21407e+12 -2.11278e+12 -6.48343e+12 -4.99084e+12 -7.12953e+12 -6.25734e+12 -4.54434e+12 -6.16377e+12 -7.42875e+12 -6.61314e+12 -7.71153e+12 -7.82957e+12 -8.23961e+12 -2.76352e+12 -7.33765e+12 -3.19977e+12 -4.01624e+12 -2.8254e+12 -2.44236e+12 -7.14966e+12 -5.05099e+12 -4.09411e+12 -6.53236e+12 -8.70278e+12 -6.53914e+12 -7.26617e+12 -4.76526e+12 -8.09307e+12 -6.25798e+12 -3.03911e+12 -9.9493e+12 -7.07618e+12 -6.18259e+12 -7.42019e+12 -3.81249e+12 -5.43973e+12 -3.41113e+12 -4.55018e+12 -5.04067e+12 -4.57e+12 -4.33435e+12 -3.81412e+12 -4.00506e+12 -6.58815e+12 -3.29147e+12 -3.57716e+12 -3.10115e+12 -4.07316e+12 -2.9334e+12 -3.21155e+12 -2.29885e+12 -1.03561e+12 -2.0406e+12 -1.39181e+12 -1.07697e+12 -952214000000.0 -1.16687e+12 -1.28225e+12 -2.49134e+12 -1.53935e+12 -1.41815e+12 -1.01023e+12 -959517000000.0 -1.34084e+12 -153429000000.0 -559931000000.0 -1.86307e+12 -2.29672e+12 -1.64275e+12 -1.86766e+12 -1.79012e+12 -2.10852e+12 -2.78404e+12 -1.99666e+12 -776130000000.0 -4.56621e+12 -2.56377e+12 -2.78626e+12 -1.56431e+12 -3.30404e+12 -3.5341e+12 -4.10492e+12 -3.1888e+12 -4.29145e+12 -5.56966e+12 -3.47451e+12 -3.23675e+12 -4.06009e+12 -3.94202e+12 -3.69296e+12 -2.37936e+12 -4.23363e+12 -3.60635e+12 -4.26691e+12 -4.07408e+12 -5.50731e+12 -4.90754e+12 -3.39052e+12 -4.59423e+12 -5.67457e+12 -3.55261e+12 -5.80568e+12 -1.1372e+13 -7.10777e+12 -6.72674e+12 -6.96122e+12 -9.91744e+12 -6.79092e+12 -6.9743e+12 -5.04017e+12 -7.27665e+12 -8.41423e+12 -5.41644e+12 -3.38835e+12 -6.0638e+12 -6.18984e+12 -4.44828e+12 -5.18108e+12 -6.77763e+12 -5.6322e+12 -7.2863e+12 -7.41049e+12 -4.46058e+12 -4.73516e+12 -6.6078e+12 -4.5771e+12 -4.41528e+12 -7.49164e+12 -5.07141e+12 -6.18234e+12 -3.2947e+12 -4.01702e+12 -5.45046e+12 -4.69333e+12 -3.74743e+12 -5.62946e+12 -5.11432e+12 -5.05166e+12 -3.79586e+12 -4.41534e+12 -3.10515e+12 -3.5141e+12 -3.34493e+12 -2.37858e+12 -3.91666e+12 -2.7544e+12 -2.95693e+12 -4.10689e+12 -3.61164e+12 -2.99067e+12 -3.14406e+12 -2.42058e+12 -2.45266e+12 -2.7873e+12 -2.0101e+12 -1.53788e+12 -907181000000.0 -859848000000.0 -1.41252e+12 -836869000000.0 -671686000000.0 -1.30654e+12 -870329000000.0 -512597000000.0 -239152000000.0 -702871000000.0 -1.3848e+12 -1.01922e+12 -998147000000.0 -1.1011e+12 -941634000000.0 -1.64087e+12 -860732000000.0 -1.01951e+12 -2.24863e+12 -757329000000.0 -2.07341e+12 -3.04545e+12 -1.76337e+12 -1.94271e+12 -4.54005e+12 -2.13266e+12 -2.40969e+12 -4.02224e+12 -4.959e+12 -3.42047e+12 -5.02487e+12 -3.88129e+12 -4.20624e+12 -5.29959e+12 -4.01228e+12 -3.33394e+12 -5.20994e+12 -4.73423e+12 -6.48612e+12 -9.54016e+12 -3.37934e+12 -8.49116e+12 -5.38601e+12 -8.27294e+12 -6.42885e+12 -8.15464e+12 -5.11181e+12 -5.65671e+12 -6.11472e+12 -3.6121e+12 -7.9473e+12 -4.76305e+12 -1.14645e+13 -4.94097e+12 -6.68329e+12 -4.04309e+12 -3.36419e+12 -3.96358e+12 -3.38436e+12 -8.76258e+12 -8.26474e+12 -9.0899e+12 -7.35192e+12 -6.79636e+12 -5.43916e+12 -4.21661e+12 -4.27799e+12 -7.53874e+12 -7.08415e+12 -5.75363e+12 -9.38391e+12 -6.174e+12 -7.85281e+12 -4.11334e+12 -7.55208e+12 -6.65551e+12 -3.55454e+12 -3.93235e+12 -8.58998e+12 -4.56758e+12 -5.97862e+12 -4.96431e+12 -3.84599e+12 -3.81742e+12 -4.28418e+12 -3.66206e+12 -3.16848e+12 -3.2653e+12 -3.44211e+12 -4.35144e+12 -5.13181e+12 -3.56651e+12 -2.87898e+12 -3.91114e+12 -3.60074e+12 -2.20993e+12 -3.05023e+12 -1.57504e+12 -2.15709e+12 -1.86265e+12 -1.46477e+12 -690305000000.0 -866292000000.0 -1.45887e+12 -458181000000.0 -1.02123e+12 -1.02663e+12 -1.0112e+12 -271635000000.0 -965046000000.0 -1.23955e+12 -1.06337e+12 -401753000000.0 -1.44885e+12 -372681000000.0 -654499000000.0 -1.72155e+12 -1.46817e+12 -2.19834e+12 -853064000000.0 -1.28306e+12 -969960000000.0 -1.77514e+12 -2.33871e+12 -1.58134e+12 -981730000000.0 -1.65262e+12 -1.56406e+12 -1.03022e+12 -2.63594e+12 -2.27428e+12 -3.64207e+12 -1.86194e+12 -1.73848e+12 -5.33606e+12 -3.91043e+12 -3.34323e+12 -1.88041e+12 -2.25036e+12 -3.68656e+12 -5.61454e+12 -4.13232e+12 -3.2594e+12 -6.23023e+12 -7.29662e+12 -2.78689e+12 -3.95358e+12 -6.04422e+12 -5.78793e+12 -5.11771e+12 -5.2283e+12 -6.76102e+12 -5.53252e+12 -5.6734e+12 -8.93879e+12 -9.05724e+12 -7.0761e+12 -5.08329e+12 -8.14945e+12 -4.49449e+12 -4.26056e+12 -4.93563e+12 -5.75981e+12 -8.20616e+12 -6.75052e+12 -5.86158e+12 -1.0278e+13 -3.60199e+12 -6.70897e+12 -6.27408e+12 -7.52164e+12 -4.17513e+12 -7.60666e+12 -5.37566e+12 -8.75372e+12 -8.22751e+12 -6.3575e+12 -3.43143e+12 -4.14873e+12 -5.55633e+12 -9.28477e+12 -4.99767e+12 -5.98341e+12 -4.08054e+12 -5.29189e+12 -4.05051e+12 -4.38393e+12 -3.47291e+12 -5.868e+12 -5.1129e+12 -7.02832e+12 -3.0956e+12 -5.24737e+12 -4.10898e+12 -5.44348e+12 -4.22853e+12 -4.25283e+12 -4.0337e+12 -5.93265e+12 -3.24434e+12 -2.86388e+12 -2.42141e+12 -3.12997e+12 -2.37934e+12 -3.10667e+12 -5.17324e+12 -1.76159e+12 -3.31901e+12 -1.00585e+12 -2.01631e+12 -872028000000.0 -1.56867e+12 -1.33588e+12 -274895000000.0 -1.28315e+12 -734375000000.0 -710438000000.0 -1.28043e+12 -811787000000.0 -739311000000.0 -353743000000.0 -1.35491e+12 -448589000000.0 -524347000000.0 -596471000000.0 -497296000000.0 -1.13957e+12 -699480000000.0 -1.56829e+12 -887508000000.0 -521707000000.0 -2.16159e+12 -1.913e+12 -1.21737e+12 -2.81543e+12 -1.52807e+12 -1.42389e+12 -1.33745e+12 -1.66975e+12 -2.26204e+12 -2.0063e+12 -1.17858e+12 -2.05811e+12 -3.09907e+12 -1.72708e+12 -3.02338e+12 -4.42558e+12 -5.65035e+12 -3.01607e+12 -3.61184e+12 -2.29731e+12 -3.64695e+12 -5.26633e+12 -5.25544e+12 -6.34103e+12 -3.92324e+12 -4.78311e+12 -4.36398e+12 -5.1194e+12 -5.65992e+12 -5.17222e+12 -9.56096e+12 -5.92671e+12 -8.42273e+12 -6.62561e+12 -3.68001e+12 -8.39116e+12 -9.00725e+12 -5.20881e+12 -7.6284e+12 -2.76405e+12 -5.47992e+12 -5.87742e+12 -5.7648e+12 -5.9943e+12 -6.84253e+12 -5.98113e+12 -6.24956e+12 -7.39995e+12 -5.94874e+12 -3.40618e+12 -8.68284e+12 -6.98716e+12 -7.81493e+12 -4.89201e+12 -7.38021e+12 -9.05445e+12 -8.34e+12 -4.04579e+12 -8.25831e+12 -5.39028e+12 -6.65223e+12 -4.27142e+12 -5.98094e+12 -3.63251e+12 -4.0465e+12 -6.76563e+12 -1.45612e+12 -2.8242e+12 -5.27602e+12 -3.47502e+12 -4.89373e+12 -5.64901e+12 -5.11238e+12 -4.0679e+12 -4.82784e+12 -2.83031e+12 -4.6839e+12 -2.91355e+12 -4.75496e+12 -3.3668e+12 -1.93202e+12 -2.44487e+12 -2.41404e+12 -2.89234e+12 -3.52498e+12 -2.16143e+12 -3.60175e+12 -2.42277e+12 -1.84996e+12 -1.81813e+12 -2.01988e+12 -2.92217e+12 -3.7538e+12 -2.06997e+12 -2.12316e+12 -1.72993e+12 -819155000000.0 -1.08684e+12 -1.44353e+12 -751422000000.0 -1.39965e+12 -1.84598e+12 -1.31684e+12 -1.61881e+12 -1.16826e+12 -1.13795e+12 -946925000000.0 -989195000000.0 -875841000000.0 -1.2913e+12 -1.33715e+12 -1.73803e+12 -821107000000.0 -1.82805e+12 -1.58153e+12 -1.78601e+12 -2.77238e+12 -2.81267e+12 -1.73163e+12 -2.1824e+12 -2.25708e+12 -2.42069e+12 -2.92395e+12 -2.63442e+12 -1.38242e+12 -2.60184e+12 -2.69815e+12 -2.30301e+12 -4.13939e+12 -3.44251e+12 -2.19048e+12 -4.08408e+12 -2.70181e+12 -2.34325e+12 -4.51564e+12 -3.4923e+12 -4.68313e+12 -3.77013e+12 -5.22526e+12 -6.6182e+12 -6.0786e+12 -2.15546e+12 -4.02732e+12 -5.49396e+12 -4.52512e+12 -6.78921e+12 -4.68455e+12 -4.88094e+12 -6.10723e+12 -2.92215e+12 -1.81518e+12 -4.07039e+12 -2.56776e+12 -4.70722e+12 -4.4247e+12 -3.2421e+12 -7.65592e+12 -5.33701e+12 -5.91699e+12 -5.48659e+12 -6.02446e+12 -5.93512e+12 -3.71454e+12 -4.27125e+12 -6.99733e+12 -4.19661e+12 -7.69015e+12 -1.87806e+12 -1.41091e+12 -4.53324e+12 -8.66452e+12 -5.8678e+12 -4.63923e+12 -6.60662e+12 -8.34357e+12 -9.28241e+12 -8.18419e+12 -6.68544e+12 -6.04133e+12 -6.0452e+12 -6.17311e+12 -4.06909e+12 -4.55965e+12 -6.07062e+12 -8.02009e+12 -3.54877e+12 -3.06086e+12 -3.36636e+12 -3.23802e+12 -3.43729e+12 -3.39469e+12 -5.37497e+12 -3.27701e+12 -4.6833e+12 -5.12432e+12 -6.67461e+12 -3.62528e+12 -3.81488e+12 -2.34514e+12 -2.48952e+12 -3.41703e+12 -3.99924e+12 -1.59955e+12 -659469000000.0 -2.72349e+12 -2.65885e+12 -1.92483e+12 -915366000000.0 -1.13893e+12 -925199000000.0 -2.02202e+12 -1.63814e+12 -2.23054e+12 -1.24608e+12 -1.02205e+12 -943748000000.0 -1.66314e+12 -711278000000.0 -593952000000.0 -617658000000.0 -1.00797e+12 -407917000000.0 -198544000000.0 -1.04647e+12 -94998500000.0 -691871000000.0 -631154000000.0 -810993000000.0 -814075000000.0 -735928000000.0 -2.17215e+12 -781069000000.0 -2.07469e+12 -1.3057e+12 -1.25237e+12 -809149000000.0 -2.1566e+12 -2.81921e+12 -2.37148e+12 -2.79016e+12 -2.46786e+12 -2.95616e+12 -3.1466e+12 -2.08103e+12 -3.53144e+12 -3.21108e+12 -2.92853e+12 -3.06669e+12 -3.70006e+12 -2.60024e+12 -4.49994e+12 -5.14387e+12 -3.07929e+12 -5.15656e+12 -3.89571e+12 -4.9473e+12 -4.87537e+12 -4.01921e+12 -4.53285e+12 -4.13523e+12 -2.14843e+12 -2.27229e+12 -5.72461e+12 -5.59067e+12 -4.99298e+12 -3.18645e+12 -6.80656e+12 -3.64611e+12 -8.06841e+12 -6.04463e+12 -6.67114e+12 -6.41131e+12 -4.9735e+12 -5.4816e+12 -7.03725e+12 -3.79398e+12 -5.08341e+12 -5.88637e+12 -7.74015e+12 -3.33629e+12 -4.68688e+12 -5.7605e+12 -3.82416e+12 -4.4005e+12 -5.91424e+12 -3.27115e+12 -4.12326e+12 -2.83784e+12 -4.44199e+12 -5.26556e+12 -8.001e+12 -4.77453e+12 -3.54025e+12 -5.24408e+12 -5.11089e+12 -8.52508e+12 -6.48456e+12 -3.59761e+12 -2.10474e+12 -7.20523e+12 -5.07651e+12 -9.49884e+12 -4.88031e+12 -4.66178e+12 -6.79704e+12 -3.20133e+12 -4.10902e+12 -3.34929e+12 -5.11989e+12 -6.22032e+12 -5.07912e+12 -5.47315e+12 -2.62728e+12 -3.8375e+12 -7.29611e+12 -3.80101e+12 -2.36475e+12 -3.00578e+12 -4.98007e+12 -3.73794e+12 -2.49323e+12 -5.13841e+12 -3.35734e+12 -4.74209e+12 -882451000000.0 -2.93927e+12 -4.63625e+12 -3.46302e+12 -3.34927e+12 -4.02623e+12 -3.02077e+12 -1.80981e+12 -2.91074e+12 -2.20068e+12 -1.71105e+12 -2.31355e+12 -1.10986e+12 -1.92339e+12 -1.63332e+12 -834586000000.0 -1.56264e+12 -1.29791e+12 -666466000000.0 -1.90578e+12 -1.23246e+12 -1.20359e+12 -894994000000.0 -243069000000.0 -729411000000.0 -874604000000.0 -732178000000.0 -676784000000.0 -1.25657e+12 -928969000000.0 -738677000000.0 -1.49932e+12 -1.28316e+12 -1.15901e+12 -1.25864e+12 -722827000000.0 -604368000000.0 -352943000000.0 -1.12926e+12 -1.98283e+12 -1.76716e+12 -1.20583e+12 -594298000000.0 -2.14291e+12 -884359000000.0 -833964000000.0 -1.06326e+12 -1.80056e+12 -4.01307e+12 -2.41224e+12 -1.09693e+12 -3.38515e+12 -2.08093e+12 -2.79864e+12 -3.42959e+12 -2.20466e+12 -4.12395e+12 -2.69099e+12 -1.25093e+12 -3.41234e+12 -3.47133e+12 -4.01315e+12 -3.35801e+12 -5.40456e+12 -4.40391e+12 -4.1141e+12 -5.41568e+12 -7.52876e+12 -7.02459e+12 -5.74058e+12 -5.23668e+12 -7.17553e+12 -6.33831e+12 -7.58814e+12 -6.1503e+12 -4.56451e+12 -5.58762e+12 -6.32686e+12 -7.00064e+12 -3.89871e+12 -4.45672e+12 -4.96599e+12 -7.05915e+12 -4.62797e+12 -4.2819e+12 -8.05633e+12 -4.52965e+12 -5.2328e+12 -3.19135e+12 -4.61374e+12 -3.03637e+12 -4.98912e+12 -5.52025e+12 -8.12405e+12 -6.60498e+12 -5.38982e+12 -3.67449e+12 -2.44017e+12 -8.93678e+12 -6.30758e+12 -6.28249e+12 -2.66365e+12 -5.71671e+12 -9.1933e+12 -6.23659e+12 -3.16062e+12 -5.47044e+12 -3.7359e+12 -4.15684e+12 -3.06015e+12 -6.87724e+12 -4.43933e+12 -5.03914e+12 -3.28092e+12 -4.46609e+12 -3.7988e+12 -5.02758e+12 -4.01201e+12 -2.17891e+12 -1.93434e+12 -3.85709e+12 -4.85962e+12 -3.08347e+12 -2.82732e+12 -1.96096e+12 -4.50587e+12 -3.66267e+12 -1.11653e+12 -1.97611e+12 -1.56526e+12 -2.91995e+12 -1.52361e+12 -1.97144e+12 -2.69719e+12 -1.26112e+12 -2.99716e+12 -1.42633e+12 -1.51418e+12 -2.6154e+12 -3.03416e+12 -2.25726e+12 -1.99777e+12 -771091000000.0 -1.42892e+12 -1.76589e+12 -732518000000.0 -1.61996e+12 -1.36702e+12 -682557000000.0 -689445000000.0 -1.17816e+12 -928403000000.0 -593260000000.0 -550487000000.0 -629114000000.0 -312120000000.0 -587840000000.0 -509602000000.0 -768467000000.0 -1.28939e+12 -1.16593e+12 -796461000000.0 -118419000000.0 -606415000000.0 -938275000000.0 -354726000000.0 -1.80071e+12 -2.25852e+12 -1.3321e+12 -2.62604e+12 -2.02952e+12 -1.16695e+12 -2.78427e+12 -3.30592e+12 -2.30385e+12 -5.1643e+12 -2.93119e+12 -1.66927e+12 -1.56522e+12 -3.14821e+12 -4.32324e+12 -2.47558e+12 -2.47858e+12 -3.44688e+12 -3.72976e+12 -1.69235e+12 -1.78944e+12 -1.13291e+12 -2.84198e+12 -1.44182e+12 -4.74378e+12 -5.81037e+12 -2.36479e+12 -5.49794e+12 -4.40411e+12 -6.02981e+12 -5.42951e+12 -4.48127e+12 -5.97809e+12 -7.64748e+12 -7.4237e+12 -5.08637e+12 -2.98397e+12 -7.46168e+12 -5.18886e+12 -5.89845e+12 -5.43466e+12 -6.46463e+12 -6.82533e+12 -4.7347e+12 -3.95528e+12 -5.94518e+12 -6.60386e+12 -3.88838e+12 -4.19931e+12 -5.32411e+12 -2.73141e+12 -3.83093e+12 -8.90548e+12 -5.29998e+12 -5.5896e+12 -6.26113e+12 -2.93117e+12 -5.16167e+12 -3.00291e+12 -3.70539e+12 -3.88428e+12 -4.0787e+12 -4.79721e+12 -5.15072e+12 -6.6268e+12 -4.25154e+12 -5.54409e+12 -3.94222e+12 -6.68952e+12 -4.60265e+12 -5.13875e+12 -1.21059e+13 -3.53453e+12 -5.81857e+12 -3.10335e+12 -5.0265e+12 -6.13772e+12 -4.33321e+12 -6.60839e+12 -5.66402e+12 -6.25092e+12 -4.30201e+12 -3.86232e+12 -2.8324e+12 -2.83383e+12 -3.97987e+12 -2.80243e+12 -2.29627e+12 -4.9548e+12 -3.31559e+12 -3.1487e+12 -2.00639e+12 -3.33905e+12 -4.80572e+12 -1.56461e+12 -2.5976e+12 -2.79114e+12 -2.89101e+12 -2.64898e+12 -819358000000.0 -2.56625e+12 -3.84872e+12 -2.56666e+12 -1.35963e+12 -1.08761e+12 -2.20785e+12 -1.60661e+12 -1.47839e+12 -1.41821e+12 -113906000000.0 -1.39213e+12 -1.1619e+12 -1.14367e+12 -1.76423e+12 -919719000000.0 -686250000000.0 -702184000000.0 -876362000000.0 -659752000000.0 -126028000000.0 -412647000000.0 -296250000000.0 -573257000000.0 -1.05826e+12 -1.4889e+12 -853824000000.0 -707772000000.0 -1.22295e+12 -1.22332e+12 -1.6394e+12 -400671000000.0 -984273000000.0 -1.26064e+12 -1.72616e+12 -1.10176e+12 -810372000000.0 -1.83191e+12 -2.60351e+12 -1.70213e+12 -721777000000.0 -2.39371e+12 -2.77901e+12 -2.93047e+12 -1.304e+12 -1.76802e+12 -2.03531e+12 -3.17847e+12 -1.39212e+12 -2.46428e+12 -2.33065e+12 -3.13907e+12 -888003000000.0 -5.11422e+12 -3.08196e+12 -4.40671e+12 -3.05828e+12 -5.576e+12 -5.13555e+12 -4.187e+12 -4.63883e+12 -2.11245e+12 -1.63098e+12 -7.40659e+12 -6.07192e+12 -3.65465e+12 -3.73556e+12 -2.56378e+12 -2.9334e+12 -5.49585e+12 -4.87581e+12 -3.14509e+12 -6.53366e+12 -3.82071e+12 -5.33326e+12 -6.47032e+12 -4.08716e+12 -3.95569e+12 -7.04179e+12 -8.33647e+12 -6.10594e+12 -5.77155e+12 -6.35124e+12 -6.03453e+12 -5.43205e+12 -4.68629e+12 -4.63868e+12 -3.19551e+12 -4.47071e+12 -5.26867e+12 -2.87824e+12 -4.72317e+12 -3.96881e+12 -4.30003e+12 -3.80398e+12 -2.94743e+12 -5.83976e+12 -6.41959e+12 -5.67922e+12 -4.71485e+12 -4.16557e+12 -8.03493e+12 -3.44605e+12 -4.92422e+12 -3.54288e+12 -4.29649e+12 -3.60313e+12 -4.93285e+12 -2.67535e+12 -4.48875e+12 -1.83205e+12 -2.64866e+12 -2.34406e+12 -796830000000.0 -5.58299e+12 -3.1322e+12 -5.0529e+12 -2.91744e+12 -2.93545e+12 -3.28592e+12 -920121000000.0 -3.06476e+12 -1.76157e+12 -1.96864e+12 -1.68689e+12 -1.80393e+12 -1.11236e+12 -1.60573e+12 -2.97818e+12 -2.04517e+12 -1.73435e+12 -1.696e+12 -2.90971e+12 -2.0128e+12 -1.43614e+12 -2.77651e+12 -1.7125e+12 -1.92282e+12 -896568000000.0 -1.95725e+12 -835313000000.0 -871141000000.0 -1.25696e+12 -2.05384e+12 -1.0244e+12 -490779000000.0 -619406000000.0 -1.0283e+12 -427123000000.0 -814125000000.0 -838401000000.0 -748236000000.0 -581297000000.0 -896982000000.0 -657265000000.0 -408638000000.0 -1.22772e+12 -691918000000.0 -637508000000.0 -592739000000.0 -489309000000.0 -860477000000.0 -1.25328e+12 -1.40425e+12 -1.29372e+12 -962445000000.0 -579279000000.0 -1.4208e+12 -799270000000.0 -1.45963e+12 -2.35152e+12 -2.70865e+12 -866503000000.0 -1.1551e+12 -1.67947e+12 -2.30048e+12 -2.08916e+12 -3.53845e+12 -2.3314e+12 -1.85811e+12 -3.76577e+12 -1.6575e+12 -3.23604e+12 -4.38817e+12 -1.74189e+12 -3.06709e+12 -2.47205e+12 -5.66009e+12 -2.18491e+12 -4.13857e+12 -6.27738e+12 -4.14951e+12 -6.06743e+12 -4.78502e+12 -3.58247e+12 -3.28909e+12 -3.68348e+12 -2.44652e+12 -4.76675e+12 -3.40576e+12 -4.59981e+12 -3.72544e+12 -5.46456e+12 -5.50259e+12 -4.50801e+12 -6.13673e+12 -6.58802e+12 -4.59547e+12 -6.35995e+12 -5.00572e+12 -4.73891e+12 -4.86486e+12 -6.64615e+12 -3.93518e+12 -4.21601e+12 -5.98124e+12 -3.02218e+12 -2.64222e+12 -3.30802e+12 -2.79277e+12 -1.74785e+12 -3.99457e+12 -3.83945e+12 -3.79112e+12 -3.90767e+12 -2.56313e+12 -2.48416e+12 -1.76551e+12 -4.47889e+12 -3.52695e+12 -3.46229e+12 -2.39647e+12 -4.35272e+12 -1.85909e+12 -8.12756e+12 -4.7305e+12 -2.84177e+12 -2.24444e+12 -4.01609e+12 -4.84467e+12 -3.66776e+12 -5.6274e+12 -3.76107e+12 -4.42484e+12 -3.68084e+12 -3.08375e+12 -4.20458e+12 -5.82216e+12 -3.68469e+12 -4.5572e+12 -6.2756e+12 -2.03106e+12 -2.55332e+12 -1.91638e+12 -2.52133e+12 -2.51333e+12 -3.40747e+12 -2.21146e+12 -2.14241e+12 -1.95515e+12 -2.19056e+12 -1.41689e+12 -2.70271e+12 -2.94075e+12 -2.88539e+12 -1.08139e+12 -1.90147e+12 -2.49235e+12 -1.53507e+12 -2.02054e+12 -852861000000.0 -615522000000.0 -1.44368e+12 -386178000000.0 -1.02815e+12 -642302000000.0 -226606000000.0 -443220000000.0 -814763000000.0 -318255000000.0 -698398000000.0 -198169000000.0 -570538000000.0 -339217000000.0 -492234000000.0 -690852000000.0 -164147000000.0 -80271200000.0 -540080000000.0 -54752200000.0 -1.28877e+12 -195560000000.0 -318667000000.0 -600249000000.0 -1.40861e+12 -624164000000.0 -449295000000.0 -620142000000.0 -1.14142e+12 -249056000000.0 -1.73753e+12 -563572000000.0 -1.3683e+12 -1.00606e+12 -841212000000.0 -1.45061e+12 -2.45457e+12 -1.92794e+12 -1.45964e+12 -3.04574e+12 -2.63436e+12 -809340000000.0 -2.65355e+12 -3.79962e+12 -3.31653e+12 -2.5149e+12 -3.38967e+12 -2.82294e+12 -2.61569e+12 -2.09095e+12 -4.21338e+12 -1.73313e+12 -2.08146e+12 -2.57448e+12 -2.96511e+12 -3.4964e+12 -3.19874e+12 -4.68857e+12 -4.99122e+12 -5.32291e+12 -2.91551e+12 -3.18632e+12 -3.54385e+12 -1.9494e+12 -4.83228e+12 -6.6478e+12 -3.83339e+12 -3.69393e+12 -2.98904e+12 -3.38691e+12 -5.85661e+12 -7.90029e+12 -7.34279e+12 -6.062e+12 -5.13216e+12 -5.31827e+12 -4.33585e+12 -4.77117e+12 -2.01398e+12 -2.76966e+12 -4.23574e+12 -3.19513e+12 -3.68098e+12 -5.85434e+12 -3.61406e+12 -4.71934e+12 -4.0869e+12 -4.58164e+12 -2.60376e+12 -3.64835e+12 -4.11294e+12 -3.23272e+12 -3.84256e+12 -3.29964e+12 -2.7348e+12 -1.6358e+12 -2.89936e+12 -4.04592e+12 -3.70921e+12 -3.1796e+12 -3.15179e+12 -5.62053e+12 -1.3232e+12 -5.33599e+12 -4.68052e+12 -3.049e+12 -2.25594e+12 -1.00743e+12 -3.24732e+12 -1.00017e+12 -718789000000.0 -2.97272e+12 -1.78353e+12 -1.46138e+12 -2.65486e+12 -2.18e+12 -1.30275e+12 -1.76909e+12 -1.0903e+12 -676433000000.0 -598605000000.0 -2.33259e+12 -1.27841e+12 -1.82875e+12 -1.00125e+12 -1.13749e+12 -410276000000.0 -1.43883e+12 -818621000000.0 -797440000000.0 -826899000000.0 -303404000000.0 -414769000000.0 -580180000000.0 -592884000000.0 -659816000000.0 -747996000000.0 -737570000000.0 -722498000000.0 -282047000000.0 -711708000000.0 -712726000000.0 -499674000000.0 -852669000000.0 -880146000000.0 -516781000000.0 -1.04752e+12 -1.68295e+12 -791498000000.0 -823378000000.0 -674510000000.0 -927537000000.0 -963757000000.0 -660410000000.0 -1.43261e+12 -699198000000.0 -2.54559e+12 -2.696e+12 -2.32141e+12 -2.14364e+12 -3.10303e+12 -1.71719e+12 -3.09497e+12 -3.61737e+12 -2.51003e+12 -1.42794e+12 -3.54586e+12 -4.88608e+12 -2.01294e+12 -2.38412e+12 -3.12735e+12 -3.73168e+12 -2.51409e+12 -4.14109e+12 -3.52489e+12 -3.52463e+12 -2.94455e+12 -1.24373e+12 -2.55837e+12 -7.62987e+12 -2.95015e+12 -3.38327e+12 -5.24749e+12 -2.94277e+12 -2.93682e+12 -3.28332e+12 -3.03465e+12 -2.52405e+12 -3.27603e+12 -2.63809e+12 -5.02969e+12 -4.32038e+12 -4.98669e+12 -4.3953e+12 -3.06285e+12 -6.37248e+12 -2.70233e+12 -3.23379e+12 -7.54991e+12 -2.29386e+12 -4.33783e+12 -3.79354e+12 -5.60772e+12 -5.46902e+12 -2.84658e+12 -4.15438e+12 -4.93444e+12 -5.55348e+12 -4.65594e+12 -4.10573e+12 -4.89757e+12 -2.67737e+12 -3.29913e+12 -4.09408e+12 -2.1045e+12 -2.20787e+12 -1.71255e+12 -3.54964e+12 -3.13445e+12 -2.90357e+12 -4.3025e+12 -2.87015e+12 -2.19038e+12 -2.71048e+12 -2.10279e+12 -4.06014e+12 -1.68565e+12 -2.88212e+12 -2.15324e+12 -1.79854e+12 -4.0879e+12 -2.78217e+12 -2.08544e+12 -3.6953e+12 -2.96736e+12 -2.04081e+12 -1.94602e+12 -1.57259e+12 -3.34562e+12 -1.11898e+12 -1.15953e+12 -1.05182e+12 -1.67478e+12 -1.1228e+12 -1.47729e+12 -776595000000.0 -1.74072e+12 -1.1007e+12 -224206000000.0 -957725000000.0 -489871000000.0 -565156000000.0 -1.14212e+12 -561314000000.0 -791268000000.0 -526230000000.0 -458991000000.0 -97144000000.0 -751626000000.0 -616990000000.0 -301309000000.0 -522547000000.0 -89693800000.0 -1.06766e+12 -419828000000.0 -452553000000.0 -58297600000.0 -329337000000.0 -811149000000.0 -1.23582e+12 -543369000000.0 -200498000000.0 -500332000000.0 -895169000000.0 -411244000000.0 -1.53998e+12 -885407000000.0 -1.44064e+12 -1.36361e+12 -1.49931e+12 -2.01826e+12 -758533000000.0 -1.85841e+12 -1.90033e+12 -1.15109e+12 -2.46293e+12 -3.42572e+12 -3.67302e+12 -3.70634e+12 -3.67476e+12 -4.23976e+12 -4.13367e+12 -1.03947e+12 -2.33804e+12 -1.32122e+12 -3.3597e+12 -4.34682e+12 -5.32834e+12 -2.44224e+12 -3.29935e+12 -2.98372e+12 -5.75445e+12 -3.69216e+12 -3.23069e+12 -3.77309e+12 -2.1928e+12 -2.38782e+12 -3.99246e+12 -3.72998e+12 -3.86989e+12 -2.93909e+12 -3.36708e+12 -4.67738e+12 -3.76017e+12 -4.74078e+12 -5.28614e+12 -5.98143e+12 -4.03786e+12 -1.78427e+12 -2.42855e+12 -4.08825e+12 -2.38911e+12 -3.95857e+12 -3.23454e+12 -3.10205e+12 -3.40714e+12 -3.76321e+12 -3.1439e+12 -4.13789e+12 -4.57237e+12 -1.70691e+12 -2.84796e+12 -2.76859e+12 -2.33493e+12 -2.88373e+12 -2.00941e+12 -1.16784e+12 -3.3496e+12 -3.89062e+12 -3.95203e+12 -2.45131e+12 -2.21566e+12 -1.94817e+12 -1.04987e+12 -3.23454e+12 -2.85367e+12 -2.18317e+12 -2.10232e+12 -1.71409e+12 -2.25907e+12 -2.23801e+12 -1.60137e+12 -3.43974e+12 -2.84242e+12 -2.1009e+12 -1.31187e+12 -1.91623e+12 -482930000000.0 -3.30011e+12 -1.07555e+12 -1.10352e+12 -1.8531e+12 -1.31255e+12 -698677000000.0 -934481000000.0 -836359000000.0 -1.00835e+12 -412890000000.0 -785459000000.0 -533725000000.0 -640117000000.0 -393479000000.0 -772065000000.0 -416447000000.0 -614875000000.0 -434232000000.0 -840461000000.0 -296581000000.0 -322944000000.0 -235690000000.0 -299285000000.0 -204891000000.0 -424535000000.0 -122344000000.0 -223367000000.0 -40360500000.0 -205220000000.0 -526721000000.0 -503334000000.0 -770285000000.0 -647609000000.0 -681408000000.0 -395343000000.0 -50521200000.0 -52650400000.0 -613553000000.0 -1.31123e+12 -1.26914e+12 -1.39405e+12 -1.50675e+12 -738687000000.0 -806287000000.0 -975618000000.0 -1.23946e+12 -1.8275e+12 -1.364e+12 -1.61614e+12 -2.73224e+12 -2.15614e+12 -3.24901e+12 -2.801e+12 -272399000000.0 -1.63305e+12 -3.58908e+12 -3.13838e+12 -970762000000.0 -2.54742e+12 -2.30432e+12 -2.9669e+12 -2.40875e+12 -3.49594e+12 -2.54518e+12 -3.17205e+12 -4.16063e+12 -2.61466e+12 -3.6367e+12 -4.20254e+12 -3.9627e+12 -1.04645e+12 -2.48638e+12 -2.17575e+12 -2.17162e+12 -2.83416e+12 -7.15344e+12 -3.33214e+12 -5.21142e+12 -2.44471e+12 -1.78689e+12 -6.576e+12 -1.7521e+12 -4.66212e+12 -3.80144e+12 -2.63794e+12 -1.79029e+12 -2.08813e+12 -1.28774e+12 -1.65573e+12 -1.81234e+12 -2.42259e+12 -3.10742e+12 -2.7347e+12 -4.26719e+12 -2.9197e+12 -2.80218e+12 -3.03277e+12 -3.2799e+12 -2.80811e+12 -1.15412e+12 -1.91557e+12 -3.02432e+12 -1.23239e+12 -2.46934e+12 -906495000000.0 -210283000000.0 -2.65635e+12 -3.08806e+12 -906618000000.0 -1.18217e+12 -2.90935e+12 -2.51033e+12 -3.3728e+12 -1.65506e+12 -1.94211e+12 -1.32171e+12 -1.20156e+12 -1.82504e+12 -1.16424e+12 -2.14925e+12 -1.3441e+12 -2.00437e+12 -526768000000.0 -2.1582e+12 -1.39257e+12 -2.56402e+12 -785506000000.0 -1.1829e+12 -1.50269e+12 -1.15306e+12 -855195000000.0 -808843000000.0 -1.70512e+12 -931454000000.0 -879096000000.0 -1.16279e+12 -543182000000.0 -364275000000.0 -385383000000.0 -276010000000.0 -309043000000.0 -626985000000.0 -258109000000.0 -97965500000.0 -238568000000.0 -255455000000.0 -45609100000.0 -424450000000.0 -309001000000.0 -215422000000.0 -366522000000.0 -460204000000.0 -501251000000.0 -256262000000.0 -366076000000.0 -351698000000.0 -1.10625e+12 -446097000000.0 -148969000000.0 -914233000000.0 -849005000000.0 -746687000000.0 -1.4223e+12 -1.13919e+12 -1.05916e+12 -1.11998e+12 -1.97578e+12 -1.00464e+12 -1.80119e+12 -1.69929e+12 -1.47471e+12 -1.69198e+12 -2.56591e+12 -2.4438e+12 -1.77458e+12 -4.1842e+12 -2.98878e+12 -1.14993e+12 -1.77282e+12 -2.06118e+12 -1.25945e+12 -3.16583e+12 -4.61448e+12 -3.14701e+12 -4.70013e+12 -2.23622e+12 -5.63879e+12 -4.30226e+12 -2.23908e+12 -2.83918e+12 -5.31769e+12 -2.42268e+12 -1.2057e+12 -2.03311e+12 -3.66241e+12 -2.90485e+12 -4.16255e+12 -2.70712e+12 -1.10801e+12 -2.60925e+12 -1.19224e+12 -1.17098e+12 -4.23176e+12 -1.30954e+12 -1.90048e+12 -2.18128e+12 -3.97774e+12 -3.15332e+12 -2.75847e+12 -2.13551e+12 -1.72778e+12 -2.07747e+12 -1.66322e+12 -1.73771e+12 -2.85557e+12 -2.81579e+12 -3.34776e+12 -2.49895e+12 -2.01272e+12 -2.8941e+12 -3.75348e+12 -2.85871e+12 -1.7015e+12 -1.20159e+12 -1.07602e+12 -1.75716e+12 -1.39947e+12 -2.51523e+12 -1.70513e+12 -1.63623e+12 -982771000000.0 -1.75377e+12 -1.98234e+12 -1.32285e+12 -1.43065e+12 -341738000000.0 -823769000000.0 -640701000000.0 -512428000000.0 -1.09031e+12 -467062000000.0 -334497000000.0 -596897000000.0 -871290000000.0 -563090000000.0 -235481000000.0 -570250000000.0 -476657000000.0 -646835000000.0 -322809000000.0 -313973000000.0 -240864000000.0 -366881000000.0 -333371000000.0 -300147000000.0 -70151900000.0 -587358000000.0 -466852000000.0 -404196000000.0 -492680000000.0 -171543000000.0 -124954000000.0 -664541000000.0 -334872000000.0 -22184900000.0 -356627000000.0 -645794000000.0 -509646000000.0 -397007000000.0 -1.10255e+12 -470720000000.0 -715954000000.0 -902140000000.0 -1.21613e+12 -1.64934e+12 -644146000000.0 -384515000000.0 -1.02645e+12 -1.28633e+12 -2.53553e+12 -2.25853e+12 -2.27986e+12 -1.62714e+12 -1.07084e+12 -2.57961e+12 -742223000000.0 -1.23175e+12 -1.33211e+12 -926262000000.0 -2.51576e+12 -3.8904e+12 -1.14892e+12 -2.35616e+12 -3.13407e+12 -3.94212e+12 -1.9025e+12 -3.1214e+12 -2.9405e+12 -4.10556e+12 -1.88717e+12 -2.16422e+12 -3.77375e+12 -2.97435e+12 -1.77393e+12 -2.533e+12 -3.66025e+12 -3.56715e+12 -1.97826e+12 -2.97039e+12 -2.57791e+12 -2.51293e+12 -1.99745e+12 -2.63292e+12 -3.5565e+12 -575714000000.0 -1.82061e+12 -2.67136e+12 -1.99701e+12 -2.09742e+12 -2.31798e+12 -2.0686e+12 -2.55342e+12 -1.84573e+12 -2.15565e+12 -2.41429e+12 -2.14392e+12 -1.99868e+12 -2.18725e+12 -1.56466e+12 -1.68048e+12 -1.15109e+12 -1.63312e+12 -1.84014e+12 -3.23334e+12 -2.7818e+12 -1.77483e+12 -2.09603e+12 -894165000000.0 -841559000000.0 -709642000000.0 -1.23468e+12 -2.44132e+12 -1.31994e+12 -1.12898e+12 -12205900000.0 -824550000000.0 -1.27644e+12 -1.27187e+12 -1.12581e+12 -54109500000.0 -599505000000.0 -1.04381e+12 -696140000000.0 -445385000000.0 -367319000000.0 -498947000000.0 -175133000000.0 -465499000000.0 -381370000000.0 -237069000000.0 -359861000000.0 -14971200000.0 -466211000000.0 -95333500000.0 -56606000000.0 -223591000000.0 -12800500000.0 -268530000000.0 -404720000000.0 -24939600000.0 -255866000000.0 -76682400000.0 -457645000000.0 -165518000000.0 -332172000000.0 -573712000000.0 -263489000000.0 -712177000000.0 -713834000000.0 -416127000000.0 -632317000000.0 -1.17919e+12 -765314000000.0 -465473000000.0 -302602000000.0 -607524000000.0 -579933000000.0 -769253000000.0 -774084000000.0 -376038000000.0 -94983300000.0 -1.15492e+12 -103800000000.0 -1.75586e+12 -1.04293e+12 -914094000000.0 -1.87726e+12 -2.01828e+12 -1.17692e+12 -1.34784e+12 -2.38605e+12 -1.62113e+12 -1.76075e+12 -877887000000.0 -2.05024e+12 -2.22877e+12 -2.29207e+12 -3.12057e+12 -1.24899e+12 -1.53614e+12 -2.55678e+12 -2.30743e+12 -2.39875e+12 -1.75989e+12 -1.79767e+12 -1.65225e+12 -1.5528e+12 -2.98039e+12 -3.24753e+12 -1.76e+12 -2.15437e+12 -3.89407e+12 -2.79148e+12 -2.97051e+12 -2.64684e+12 -1.30658e+12 -1.43273e+12 -2.36735e+12 -2.20559e+12 -2.14602e+12 -3.25326e+12 -2.08921e+12 -1.26732e+12 -1.40956e+12 -2.45258e+12 -2.20208e+12 -2.01504e+12 -2.44518e+12 -802463000000.0 -2.90393e+12 -781838000000.0 -1.11995e+12 -2.24478e+12 -2.20071e+12 -1.07277e+12 -2.7635e+12 -1.2044e+12 -754097000000.0 -2.49422e+12 -2.71715e+12 -1.86654e+12 -1.05878e+12 -1.08603e+12 -1.69421e+12 -371675000000.0 -878140000000.0 -1.33398e+12 -645512000000.0 -797069000000.0 -978465000000.0 -989518000000.0 -1.52031e+12 -637447000000.0 -467077000000.0 -714211000000.0 -553400000000.0 -709099000000.0 -378616000000.0 -394783000000.0 -35546200000.0 -562329000000.0 -280022000000.0 -480645000000.0 -168107000000.0 -195174000000.0 -340553000000.0 -477300000000.0 -515381000000.0 -371669000000.0 -291733000000.0 -243240000000.0 -326479000000.0 -148073000000.0 -98642800000.0 -163520000000.0 -352860000000.0 -495859000000.0 -205973000000.0 -90003800000.0 -298103000000.0 -293734000000.0 -356347000000.0 -85575100000.0 -270257000000.0 -337477000000.0 -563445000000.0 -769870000000.0 -65092700000.0 -398732000000.0 -479287000000.0 -392854000000.0 -582181000000.0 -1.11085e+12 -598156000000.0 -1.00652e+12 -1.17243e+12 -1.08375e+12 -1.44349e+12 -1.06456e+12 -1.38693e+12 -1.10041e+12 -1.34855e+12 -1.4206e+12 -873351000000.0 -922705000000.0 -1.72058e+12 -1.10645e+12 -1.71323e+12 -889623000000.0 -1.97858e+12 -1.25087e+12 -792513000000.0 -1.76113e+12 -1.18664e+12 -1.36623e+12 -2.40873e+12 -1.18975e+12 -2.74738e+12 -1.36945e+12 -2.05366e+12 -1.87145e+12 -2.32498e+12 -2.50173e+12 -1.04299e+12 -1.7657e+12 -2.21456e+12 -1.75306e+12 -2.033e+12 -3.1116e+12 -2.24752e+12 -1.55333e+12 -1.19787e+12 -3.24936e+12 -3.06273e+12 -1.891e+12 -996614000000.0 -1.60046e+12 -1.6392e+12 -1.92443e+12 -788031000000.0 -1.17182e+12 -1.52643e+12 -1.13758e+12 -1.34033e+12 -1.85283e+12 -1.4049e+12 -734393000000.0 -1.18521e+12 -804700000000.0 -1.3527e+12 -1.0395e+12 -1.2296e+12 -2.67378e+12 -2.25385e+12 -1.03902e+12 -873969000000.0 -614515000000.0 -1.09839e+12 -497605000000.0 -633624000000.0 -767330000000.0 -403289000000.0 -505044000000.0 -582321000000.0 -1.03004e+12 -785020000000.0 -18420400000.0 -643432000000.0 -452539000000.0 -243202000000.0 -411880000000.0 -214534000000.0 -156548000000.0 -117129000000.0 -494889000000.0 -169888000000.0 -201481000000.0 -135371000000.0 -273983000000.0 -153928000000.0 -80019300000.0 -157599000000.0 -267668000000.0 -159981000000.0 -192830000000.0 -198811000000.0 -304588000000.0 -59265300000.0 -281779000000.0 -147707000000.0 -202369000000.0 -399093000000.0 -339795000000.0 -641926000000.0 -667051000000.0 -528190000000.0 -354386000000.0 -380177000000.0 -199057000000.0 -224757000000.0 -420977000000.0 -697449000000.0 -559343000000.0 -777082000000.0 -1.03217e+12 -1.22136e+12 -763263000000.0 -1.06758e+12 -1.43666e+12 -1.21245e+12 -392062000000.0 -1.52491e+12 -706601000000.0 -1.18717e+12 -1.66204e+12 -774734000000.0 -1.42754e+12 -1.1039e+12 -1.11464e+12 -1.43538e+12 -1.25659e+12 -2.03286e+12 -1.20333e+12 -2.83643e+12 -882831000000.0 -2.34987e+12 -1.83586e+12 -1.44523e+12 -2.77747e+12 -1.86407e+12 -2.17126e+12 -974366000000.0 -2.25142e+12 -1.99729e+12 -1.78555e+12 -2.0509e+12 -1.87188e+12 -2.16351e+12 -1.63847e+12 -1.27738e+12 -1.91743e+12 -2.25637e+12 -1.40417e+12 -1.57019e+12 -1.21845e+12 -826928000000.0 -1.7509e+12 -1.30924e+12 -1.3585e+12 -1.95999e+12 -728440000000.0 -1.42178e+12 -1.73654e+12 -1.11579e+12 -1.0833e+12 -1.56817e+12 -1.23828e+12 -1.35511e+12 -1.33165e+12 -1.47192e+12 -845739000000.0 -978443000000.0 -1.25983e+12 -925167000000.0 -1.04932e+12 -471816000000.0 -205315000000.0 -1.06225e+12 -1.22473e+12 -1.64376e+12 -1.12477e+12 -1.64779e+12 -1.38243e+12 -707991000000.0 -676645000000.0 -564009000000.0 -748129000000.0 -103820000000.0 -943791000000.0 -46717100000.0 -1.16871e+12 -547388000000.0 -27933300000.0 -420573000000.0 -626874000000.0 -417326000000.0 -366847000000.0 -302650000000.0 -338094000000.0 -208166000000.0 -72598400000.0 -190790000000.0 -126945000000.0 -165482000000.0 -273689000000.0 -239631000000.0 -227427000000.0 -156432000000.0 -266996000000.0 -263769000000.0 -237365000000.0 -25089000000.0 -173915000000.0 -426305000000.0 -295086000000.0 -396237000000.0 -206288000000.0 -60431400000.0 -243299000000.0 -338447000000.0 -324545000000.0 -669394000000.0 -390767000000.0 -263867000000.0 -160898000000.0 -204695000000.0 -307035000000.0 -45104600000.0 -823581000000.0 -595131000000.0 -1.04176e+12 -1.1945e+12 -145152000000.0 -1.84169e+12 -1.11718e+12 -1.02149e+12 -960798000000.0 -2.03165e+12 -1.08891e+12 -802037000000.0 -345727000000.0 -1.83936e+12 -1.02929e+12 -501472000000.0 -2.45849e+12 -1.9225e+12 -1.3961e+12 -2.65569e+12 -12025200000.0 -764899000000.0 -408908000000.0 -768388000000.0 -766865000000.0 -2.37767e+12 -184663000000.0 -2.30028e+12 -1.42871e+12 -979899000000.0 -2.62481e+12 -2.06413e+12 -2.09957e+12 -1.97455e+12 -2.9283e+12 -1.89477e+12 -1.5504e+12 -1.39241e+12 -2.08297e+12 -1.80064e+12 -407310000000.0 -363780000000.0 -1.19124e+12 -1.42535e+12 -731894000000.0 -696151000000.0 -349213000000.0 -722135000000.0 -709484000000.0 -853653000000.0 -1.51649e+12 -1.86852e+12 -560405000000.0 -642766000000.0 -910137000000.0 -457468000000.0 -1.27393e+12 -1.1636e+12 -456036000000.0 -1.00963e+12 -634801000000.0 -604268000000.0 -328984000000.0 -990105000000.0 -891751000000.0 -294419000000.0 -548133000000.0 -551241000000.0 -748654000000.0 -864603000000.0 -96011100000.0 -416924000000.0 -355489000000.0 -269877000000.0 -174130000000.0 -67609000000.0 -145775000000.0 -241394000000.0 -58097700000.0 -233257000000.0 -12549700000.0 -193054000000.0 -150267000000.0 -30217700000.0 -161891000000.0 -187637000000.0 -137867000000.0 -120129000000.0 -106817000000.0 -75555300000.0 -51335000000.0 -114148000000.0 -15198900000.0 -284006000000.0 -95457900000.0 -82789100000.0 -16052000000.0 -34473200000.0 -214504000000.0 -488129000000.0 -98729100000.0 -266483000000.0 -242393000000.0 -311918000000.0 -380179000000.0 -437546000000.0 -150362000000.0 -521369000000.0 -307476000000.0 -597175000000.0 -736389000000.0 -170843000000.0 -1.19452e+12 -1.02939e+12 -628059000000.0 -713062000000.0 -548441000000.0 -484637000000.0 -598896000000.0 -1.63242e+12 -1.17765e+12 -498429000000.0 -1.58541e+12 -1.52008e+12 -1.46168e+12 -1.91109e+12 -1.76535e+12 -833577000000.0 -1.60774e+12 -485118000000.0 -1.0389e+12 -1.95107e+12 -2.39282e+12 -2.37803e+12 -959492000000.0 -1.70793e+12 -2.28375e+12 -516212000000.0 -1.39296e+12 -2.59067e+12 -2.51864e+12 -555635000000.0 -746057000000.0 -619328000000.0 -1.05118e+12 -1.55021e+12 -796288000000.0 -775021000000.0 -1.16967e+12 -1.16408e+12 -543500000000.0 -117699000000.0 -1.04789e+12 -1.25756e+12 -1.63557e+12 -362814000000.0 -688429000000.0 -294677000000.0 -1.20447e+12 -774244000000.0 -1.08403e+12 -1.17313e+12 -605565000000.0 -1.21817e+12 -531695000000.0 -702874000000.0 -237972000000.0 -222549000000.0 -303767000000.0 -593547000000.0 -768416000000.0 -781275000000.0 -427342000000.0 -400145000000.0 -262827000000.0 -213509000000.0 -228198000000.0 -137510000000.0 -58220200000.0 -142070000000.0 -43804200000.0 -163431000000.0 -187531000000.0 -267135000000.0 -303378000000.0 -193242000000.0 -109989000000.0 -173360000000.0 -171446000000.0 -126410000000.0 -105285000000.0 -179459000000.0 -191669000000.0 -125673000000.0 -116934000000.0 -238098000000.0 -134049000000.0 -48362900000.0 -104450000000.0 -124899000000.0 -125631000000.0 -289848000000.0 -237744000000.0 -273832000000.0 -47146200000.0 -217458000000.0 -191629000000.0 -411451000000.0 -648899000000.0 -405218000000.0 -484424000000.0 -336678000000.0 -1.52697e+12 -968273000000.0 -563966000000.0 -742095000000.0 -446452000000.0 -425575000000.0 -409443000000.0 -550236000000.0 -664644000000.0 -1.20331e+12 -997415000000.0 -373418000000.0 -902727000000.0 -595293000000.0 -1.05757e+12 -1.1896e+12 -820576000000.0 -1.08844e+12 -878314000000.0 -1.53454e+12 -1.90142e+12 -1.67299e+12 -1.8507e+12 -2.17289e+12 -1.3104e+12 -1.94628e+12 -1.02581e+12 -1.7238e+12 -930146000000.0 -877427000000.0 -1.3049e+12 -1.39766e+12 -2.46395e+12 -1.59539e+12 -729951000000.0 -757255000000.0 -1.32809e+12 -1.02883e+12 -1.2332e+12 -284194000000.0 -149705000000.0 -815343000000.0 -1.32174e+12 -870041000000.0 -816353000000.0 -628792000000.0 -1.32681e+12 -869799000000.0 -950788000000.0 -297577000000.0 -248026000000.0 -514083000000.0 -883612000000.0 -1.14258e+12 -707658000000.0 -684455000000.0 -1.01848e+12 -775736000000.0 -390638000000.0 -114200000000.0 -282005000000.0 -42830500000.0 -136411000000.0 -169940000000.0 -340305000000.0 -437162000000.0 -688718000000.0 -392124000000.0 -296016000000.0 -230292000000.0 -325710000000.0 -310144000000.0 -358120000000.0 -304066000000.0 -214803000000.0 -51034300000.0 -40490300000.0 -24508200000.0 -109415000000.0 -188844000000.0 -134987000000.0 -77442100000.0 -31891500000.0 -64711600000.0 -85827000000.0 -124934000000.0 -58439900000.0 -93604900000.0 -81913900000.0 -39302100000.0 -122503000000.0 -161919000000.0 -83671000000.0 -131372000000.0 -83409900000.0 -354652000000.0 -235075000000.0 -257582000000.0 -188450000000.0 -244520000000.0 -416229000000.0 -55542100000.0 -326030000000.0 -524505000000.0 -1.05262e+12 -385034000000.0 -315803000000.0 -585485000000.0 -869565000000.0 -707685000000.0 -1.03445e+12 -951673000000.0 -747696000000.0 -1.27911e+12 -1.50722e+12 -698788000000.0 -334440000000.0 -809491000000.0 -1.0264e+12 -801310000000.0 -687008000000.0 -779878000000.0 -350962000000.0 -779578000000.0 -639144000000.0 -656876000000.0 -765121000000.0 -1.15048e+12 -682090000000.0 -1.14062e+12 -875367000000.0 -970022000000.0 -1.24619e+12 -1.31217e+12 -1.59783e+12 -597774000000.0 -369719000000.0 -319767000000.0 -403936000000.0 -648991000000.0 -705609000000.0 -1.29149e+12 -993584000000.0 -630692000000.0 -530828000000.0 -478130000000.0 -1.0798e+12 -843431000000.0 -721106000000.0 -33630900000.0 -554549000000.0 -665200000000.0 -317926000000.0 -807942000000.0 -137112000000.0 -925721000000.0 -1.08619e+12 -397152000000.0 -887665000000.0 -286765000000.0 -607911000000.0 -401592000000.0 -141192000000.0 -169511000000.0 -192755000000.0 -604847000000.0 -112010000000.0 -149350000000.0 -168522000000.0 -117319000000.0 -32512900000.0 -146045000000.0 -65383500000.0 -104136000000.0 -22242200000.0 -106172000000.0 -13373700000.0 -120097000000.0 -155884000000.0 -168802000000.0 -96043700000.0 -165520000000.0 -66271000000.0 -126397000000.0 -126479000000.0 -153477000000.0 -31965200000.0 -60326400000.0 -63308100000.0 -41648000000.0 -80330300000.0 -13236700000.0 -40645000000.0 -110461000000.0 -117567000000.0 -289876000000.0 -227915000000.0 -96086300000.0 -260278000000.0 -152773000000.0 -25048400000.0 -211759000000.0 -364392000000.0 -153313000000.0 -21674100000.0 -214430000000.0 -245623000000.0 -491156000000.0 -628834000000.0 -65595500000.0 -701559000000.0 -348038000000.0 -319496000000.0 -474928000000.0 -440948000000.0 -728216000000.0 -935804000000.0 -317159000000.0 -222552000000.0 -695030000000.0 -811659000000.0 -418009000000.0 -717976000000.0 -691184000000.0 -807179000000.0 -440785000000.0 -135446000000.0 -147064000000.0 -542362000000.0 -675924000000.0 -1.11507e+12 -748179000000.0 -836944000000.0 -971895000000.0 -676964000000.0 -430767000000.0 -903333000000.0 -1.18732e+12 -1.31998e+12 -551493000000.0 -765228000000.0 -929728000000.0 -234387000000.0 -1.04807e+12 -296744000000.0 -446821000000.0 -70697600000.0 -858170000000.0 -176417000000.0 -234541000000.0 -355331000000.0 -292443000000.0 -789619000000.0 -574475000000.0 -323281000000.0 -481558000000.0 -452222000000.0 -743561000000.0 -632845000000.0 -362266000000.0 -366740000000.0 -67506300000.0 -793017000000.0 -164261000000.0 -577910000000.0 -43750800000.0 -779130000000.0 -243395000000.0 -509209000000.0 -162421000000.0 -507053000000.0 -455142000000.0 -147479000000.0 -389201000000.0 -290511000000.0 -231149000000.0 -81905000000.0 -126161000000.0 -94265300000.0 -39438800000.0 -39688800000.0 -155492000000.0 -146477000000.0 -181419000000.0 -95703600000.0 -53709500000.0 -140909000000.0 -69285900000.0 -108070000000.0 -26558600000.0 -30363700000.0 -69976300000.0 -99527200000.0 -45195000000.0 -33931500000.0 -243373000000.0 -106465000000.0 -121016000000.0 -42231400000.0 -248443000000.0 -104851000000.0 -308346000000.0 -189602000000.0 -93714100000.0 -149735000000.0 -452502000000.0 -485156000000.0 -322568000000.0 -276883000000.0 -198446000000.0 -327883000000.0 -480193000000.0 -24757000000.0 -489989000000.0 -332210000000.0 -408508000000.0 -542508000000.0 -706902000000.0 -679306000000.0 -1.05518e+12 -350666000000.0 -560121000000.0 -517902000000.0 -893133000000.0 -350565000000.0 -473981000000.0 -177105000000.0 -1.39476e+12 -252898000000.0 -969338000000.0 -507568000000.0 -511608000000.0 -959674000000.0 -656412000000.0 -710054000000.0 -718524000000.0 -423711000000.0 -524109000000.0 -1.18301e+12 -382011000000.0 -419617000000.0 -775009000000.0 -428446000000.0 -19781900000.0 -1.2065e+12 -138253000000.0 -351918000000.0 -705295000000.0 -342050000000.0 -270004000000.0 -373187000000.0 -389028000000.0 -507071000000.0 -260610000000.0 -529886000000.0 -354473000000.0 -105885000000.0 -185864000000.0 -198344000000.0 -454554000000.0 -144498000000.0 -273604000000.0 -253150000000.0 -212588000000.0 -685798000000.0 -525456000000.0 -717788000000.0 -696507000000.0 -290808000000.0 -258372000000.0 -372709000000.0 -82865800000.0 -376887000000.0 -194358000000.0 -154958000000.0 -159856000000.0 -63598300000.0 -115701000000.0 -100619000000.0 -86164700000.0 -137999000000.0 -154739000000.0 -142854000000.0 -12913000000.0 -74745400000.0 -15456200000.0 -148631000000.0 -13317500000.0 -28871000000.0 -32293200000.0 -111047000000.0 -73828100000.0 -57266100000.0 -105149000000.0 -78102800000.0 -17224200000.0 -85082100000.0 -104645000000.0 -99991500000.0 -85060200000.0 -235073000000.0 -12744500000.0 -13543500000.0 -23119900000.0 -50070900000.0 -32271300000.0 -214874000000.0 -169116000000.0 -150589000000.0 -121677000000.0 -164523000000.0 -280575000000.0 -359693000000.0 -193171000000.0 -113683000000.0 -137812000000.0 -74009900000.0 -46765200000.0 -437697000000.0 -180547000000.0 -142261000000.0 -637227000000.0 -299623000000.0 -372302000000.0 -337197000000.0 -476872000000.0 -204555000000.0 -202125000000.0 -349842000000.0 -194154000000.0 -744477000000.0 -586600000000.0 -290484000000.0 -523014000000.0 -724042000000.0 -630542000000.0 -740380000000.0 -575036000000.0 -894982000000.0 -434213000000.0 -458690000000.0 -667631000000.0 -691101000000.0 -666750000000.0 -656971000000.0 -390587000000.0 -1.02404e+12 -476467000000.0 -517804000000.0 -524472000000.0 -349214000000.0 -321922000000.0 -53239500000.0 -808959000000.0 -687871000000.0 -194808000000.0 -394231000000.0 -312211000000.0 -780871000000.0 -602847000000.0 -196039000000.0 -83905400000.0 -44379400000.0 -345914000000.0 -124740000000.0 -68324600000.0 -309330000000.0 -306006000000.0 -363392000000.0 -372576000000.0 -252314000000.0 -186315000000.0 -303434000000.0 -241826000000.0 -248414000000.0 -314404000000.0 -362834000000.0 -275367000000.0 -269988000000.0 -12742000000.0 -195644000000.0 -110510000000.0 -48239600000.0 -14547000000.0 -38881200000.0 -108160000000.0 -50937100000.0 -14569200000.0 -19807300000.0 -23456400000.0 -72150500000.0 -78993900000.0 -78005700000.0 -87574700000.0 -38762600000.0 -45094800000.0 -62568600000.0 -62759600000.0 -32095400000.0 -39622800000.0 -28052700000.0 -38004700000.0 -50974800000.0 -43520900000.0 -86221600000.0 -33640200000.0 -200982000000.0 -52950700000.0 -22129800000.0 -37964900000.0 -35188900000.0 -191936000000.0 -186510000000.0 -97335700000.0 -42745300000.0 -108080000000.0 -188701000000.0 -46851300000.0 -43463800000.0 -481357000000.0 -218847000000.0 -98593800000.0 -251497000000.0 -101943000000.0 -271728000000.0 -444605000000.0 -142711000000.0 -439226000000.0 -191246000000.0 -119248000000.0 -265757000000.0 -224407000000.0 -291203000000.0 -292521000000.0 -25666900000.0 -297981000000.0 -348167000000.0 -722140000000.0 -232959000000.0 -596653000000.0 -333037000000.0 -562485000000.0 -567147000000.0 -536535000000.0 -306419000000.0 -817703000000.0 -57173200000.0 -429364000000.0 -624749000000.0 -1.01744e+12 -519187000000.0 -1.22705e+12 -449980000000.0 -239549000000.0 -618248000000.0 -478222000000.0 -214444000000.0 -577544000000.0 -364575000000.0 -346071000000.0 -307909000000.0 -585390000000.0 -536678000000.0 -155808000000.0 -142147000000.0 -392037000000.0 -96368500000.0 -95952900000.0 -527319000000.0 -267257000000.0 -147575000000.0 -182175000000.0 -175372000000.0 -249662000000.0 -149798000000.0 -275731000000.0 -247781000000.0 -220237000000.0 -112011000000.0 -187127000000.0 -192022000000.0 -83466600000.0 -186844000000.0 -196998000000.0 -110758000000.0 -106612000000.0 -111401000000.0 -61849700000.0 -58422700000.0 -26132000000.0 -48614700000.0 -64347700000.0 -52859000000.0 -63717000000.0 -65139600000.0 -35780500000.0 -32231900000.0 -23425100000.0 -56334000000.0 -40331600000.0 -52616000000.0 -35206500000.0 -55589700000.0 -83367600000.0 -136391000000.0 -101262000000.0 -81100000000.0 -147578000000.0 -39372600000.0 -134561000000.0 -116536000000.0 -125013000000.0 -28878100000.0 -16104200000.0 -370836000000.0 -21505000000.0 -255661000000.0 -151359000000.0 -287017000000.0 -229655000000.0 -119351000000.0 -358830000000.0 -106693000000.0 -23975500000.0 -180781000000.0 -536050000000.0 -215984000000.0 -268032000000.0 -132229000000.0 -328677000000.0 -480168000000.0 -95621600000.0 -481238000000.0 -385263000000.0 -148752000000.0 -317314000000.0 -286306000000.0 -117768000000.0 -581204000000.0 -641738000000.0 -788644000000.0 -182574000000.0 -359608000000.0 -195577000000.0 -379838000000.0 -477693000000.0 -183054000000.0 -1.08912e+12 -663027000000.0 -132870000000.0 -218639000000.0 -586918000000.0 -305759000000.0 -201051000000.0 -493285000000.0 -56587900000.0 -227805000000.0 -402125000000.0 -233492000000.0 -154464000000.0 -266141000000.0 -225703000000.0 -77209200000.0 -220511000000.0 -118241000000.0 -280980000000.0 -144980000000.0 -220128000000.0 -250605000000.0 -314494000000.0 -102614000000.0 -271820000000.0 -399064000000.0 -87966800000.0 -189189000000.0 -125696000000.0 -143534000000.0 -75703300000.0 -105533000000.0 -23716700000.0 -159501000000.0 -181471000000.0 -34647000000.0 -22123400000.0 -62160800000.0 -56427900000.0 -38071700000.0 -58429600000.0 -13849000000.0 -29309400000.0 -58716000000.0 -52172500000.0 -37088400000.0 -33991600000.0 -14069100000.0 -62478700000.0 -27713700000.0 -53614100000.0 -49092500000.0 -88993800000.0 -67032900000.0 -96153900000.0 -42101000000.0 -85299500000.0 -45416900000.0 -56695800000.0 -84367900000.0 -20978300000.0 -131344000000.0 -81948800000.0 -108344000000.0 -24098400000.0 -155120000000.0 -140714000000.0 -178673000000.0 -125679000000.0 -229448000000.0 -18383700000.0 -185043000000.0 -196826000000.0 -75412500000.0 -156635000000.0 -135407000000.0 -165855000000.0 -321884000000.0 -205774000000.0 -167771000000.0 -255633000000.0 -160206000000.0 -209041000000.0 -391033000000.0 -394900000000.0 -304829000000.0 -194715000000.0 -293699000000.0 -37085900000.0 -29846800000.0 -213974000000.0 -283947000000.0 -31982900000.0 -397343000000.0 -370227000000.0 -37273000000.0 -212291000000.0 -376814000000.0 -147050000000.0 -334543000000.0 -338790000000.0 -232734000000.0 -279162000000.0 -840605000000.0 -307978000000.0 -354142000000.0 -594213000000.0 -343443000000.0 -421679000000.0 -337716000000.0 -206756000000.0 -145085000000.0 -266816000000.0 -71047600000.0 -375860000000.0 -79134100000.0 -160971000000.0 -116406000000.0 -128215000000.0 -122693000000.0 -12549700000.0 -129580000000.0 -61314000000.0 -107867000000.0 -85099400000.0 -144382000000.0 -198782000000.0 -147557000000.0 -145398000000.0 -114585000000.0 -97140300000.0 -393148000000.0 -177390000000.0 -134281000000.0 -37629200000.0 -70368100000.0 -35531200000.0 -114393000000.0 -13379700000.0 -78002700000.0 -29268300000.0 -55646400000.0 -56090000000.0 -46188700000.0 -14805400000.0 -14481000000.0 -17330200000.0 -50995800000.0 -30057100000.0 -25307400000.0 -21027300000.0 -13549500000.0 -35194900000.0 -51236400000.0 -30968400000.0 -34765400000.0 -41497100000.0 -29763800000.0 -31974800000.0 -30989200000.0 -65050700000.0 -41094600000.0 -47036900000.0 -40201600000.0 -12813600000.0 -48483200000.0 -26552100000.0 -117418000000.0 -58852900000.0 -76780600000.0 -106235000000.0 -163701000000.0 -169088000000.0 -142670000000.0 -86774500000.0 -223111000000.0 -170196000000.0 -180513000000.0 -219998000000.0 -136764000000.0 -184573000000.0 -28733100000.0 -49296000000.0 -269203000000.0 -148622000000.0 -106376000000.0 -283458000000.0 -89965700000.0 -127357000000.0 -184615000000.0 -253591000000.0 -105511000000.0 -270007000000.0 -190422000000.0 -113812000000.0 -434816000000.0 -301351000000.0 -259728000000.0 -62238600000.0 -417482000000.0 -164335000000.0 -254198000000.0 -485116000000.0 -315437000000.0 -208634000000.0 -207360000000.0 -256590000000.0 -221521000000.0 -140986000000.0 -133420000000.0 -29063300000.0 -107910000000.0 -224748000000.0 -274861000000.0 -45190900000.0 -70191400000.0 -134726000000.0 -137077000000.0 -69199000000.0 -63218500000.0 -152365000000.0 -120677000000.0 -118267000000.0 -76281500000.0 -120384000000.0 -97733600000.0 -90940000000.0 -29176100000.0 -119831000000.0 -160959000000.0 -113922000000.0 -103369000000.0 -81359100000.0 -87217800000.0 -54864900000.0 -62186000000.0 -18275100000.0 -71656500000.0 -20065600000.0 -45019900000.0 -14496100000.0 -40706200000.0 -51639600000.0 -15849500000.0 -26550200000.0 -48239300000.0 -29006100000.0 -29920400000.0 -32529300000.0 -27038600000.0 -34765900000.0 -35257000000.0 -33052300000.0 -16082300000.0 -38959500000.0 -16687300000.0 -14968900000.0 -62046700000.0 -51358700000.0 -41076100000.0 -42405100000.0 -60899600000.0 -54771000000.0 -17111800000.0 -43548800000.0 -16895000000.0 -76007100000.0 -26782200000.0 -52497400000.0 -72772700000.0 -55206200000.0 -93257100000.0 -58959500000.0 -83260800000.0 -36025200000.0 -15995300000.0 -75620300000.0 -90401700000.0 -16753600000.0 -107748000000.0 -176105000000.0 -225271000000.0 -261302000000.0 -19424200000.0 -110618000000.0 -82362600000.0 -190863000000.0 -64236900000.0 -40240400000.0 -133952000000.0 -234867000000.0 -378560000000.0 -354025000000.0 -223360000000.0 -36473300000.0 -147692000000.0 -154708000000.0 -164087000000.0 -156832000000.0 -89267500000.0 -182184000000.0 -155486000000.0 -72941000000.0 -236793000000.0 -152158000000.0 -284284000000.0 -148890000000.0 -138862000000.0 -233639000000.0 -206124000000.0 -277038000000.0 -145884000000.0 -344973000000.0 -440547000000.0 -405915000000.0 -175819000000.0 -156327000000.0 -167873000000.0 -121641000000.0 -62036700000.0 -32073200000.0 -105925000000.0 -86632400000.0 -173898000000.0 -157242000000.0 -70855300000.0 -111497000000.0 -198730000000.0 -113112000000.0 -120433000000.0 -103614000000.0 -72203100000.0 -67311000000.0 -93426800000.0 -43281800000.0 -29977900000.0 -89222700000.0 -71839500000.0 -42987200000.0 -42210500000.0 -108116000000.0 -90699400000.0 -103927000000.0 -133470000000.0 -24445200000.0 -12910700000.0 -24848900000.0 -54762300000.0 -77679600000.0 -42674000000.0 -50269200000.0 -56606900000.0 -58959600000.0 -56903900000.0 -40529100000.0 -23070200000.0 -49561500000.0 -48082900000.0 -37252100000.0 -31810200000.0 -14507000000.0 -42515400000.0 -14242900000.0 -13875600000.0 -30394400000.0 -15974600000.0 -48451300000.0 -37135400000.0 -42783800000.0 -40636300000.0 -37965300000.0 -12549700000.0 -65362300000.0 -15816000000.0 -15382200000.0 -14916100000.0 -40221300000.0 -61975800000.0 -18474700000.0 -16691000000.0 -106777000000.0 -62476900000.0 -132565000000.0 -49162800000.0 -76438900000.0 -169453000000.0 -71353500000.0 -211638000000.0 -93309200000.0 -69988300000.0 -64956700000.0 -111704000000.0 -121799000000.0 -15592400000.0 -257952000000.0 -18627300000.0 -141846000000.0 -57279100000.0 -23262900000.0 -63734700000.0 -52965100000.0 -129172000000.0 -79035000000.0 -103204000000.0 -182035000000.0 -122155000000.0 -87788900000.0 -179175000000.0 -334917000000.0 -49554600000.0 -69271400000.0 -17182800000.0 -125052000000.0 -155462000000.0 -246619000000.0 -129695000000.0 -297965000000.0 -285149000000.0 -116847000000.0 -104276000000.0 -111075000000.0 -21184600000.0 -67424000000.0 -31514600000.0 -108442000000.0 -67339000000.0 -56400400000.0 -155579000000.0 -13495400000.0 -78701500000.0 -102237000000.0 -80457700000.0 -55133100000.0 -44738500000.0 -89043900000.0 -115808000000.0 -73302400000.0 -90947700000.0 -15391600000.0 -64610400000.0 -138592000000.0 -114092000000.0 -48001200000.0 -73244600000.0 -26920800000.0 -29645800000.0 -12986900000.0 -25586400000.0 -20133400000.0 -49138000000.0 -21336200000.0 -26784500000.0 -29918600000.0 -26440000000.0 -37929200000.0 -32407700000.0 -24511300000.0 -13792000000.0 -13074700000.0 -30793000000.0 -16449700000.0 -14508100000.0 -16032400000.0 -15367000000.0 -16412800000.0 -15637800000.0 -33637100000.0 -21158800000.0 -12549700000.0 -31380200000.0 -25536400000.0 -14848100000.0 -12549700000.0 -21726500000.0 -53786300000.0 -28830200000.0 -50701800000.0 -33905600000.0 -53964800000.0 -31570300000.0 -48645300000.0 -89770300000.0 -17451500000.0 -92141800000.0 -48860000000.0 -75323000000.0 -74778200000.0 -79231900000.0 -46913700000.0 -51756400000.0 -35564900000.0 -16764900000.0 -181573000000.0 -132362000000.0 -69404500000.0 -29723900000.0 -41906000000.0 -12889000000.0 -26906000000.0 -149622000000.0 -138326000000.0 -84119700000.0 -107616000000.0 -43017900000.0 -90030600000.0 -133971000000.0 -54761000000.0 -120005000000.0 -186873000000.0 -83876700000.0 -256027000000.0 -65287700000.0 -54190300000.0 -96468700000.0 -134828000000.0 -198374000000.0 -66371000000.0 -142949000000.0 -91948600000.0 -96188600000.0 -114904000000.0 -33734800000.0 -63634800000.0 -38753700000.0 -43905800000.0 -127006000000.0 -40304200000.0 -43741000000.0 -70363200000.0 -25926400000.0 -71847400000.0 -63344000000.0 -41994300000.0 -72690700000.0 -74153300000.0 -44756400000.0 -23002900000.0 -21090900000.0 -50712500000.0 -84019100000.0 -66390200000.0 -27542400000.0 -37218800000.0 -53687400000.0 -105049000000.0 -58096200000.0 -36964100000.0 -15418700000.0 -44739700000.0 -16406100000.0 -13869400000.0 -20401900000.0 -15423800000.0 -21103800000.0 -23402700000.0 -18960100000.0 -38209100000.0 -22860200000.0 -24423600000.0 -17280000000.0 -17423800000.0 -24853100000.0 -13909600000.0 -12731000000.0 -12549700000.0 -19222100000.0 -28101000000.0 -12549700000.0 -13373800000.0 -21148200000.0 -16555300000.0 -12549700000.0 -20577700000.0 -20306700000.0 -14431900000.0 -37779700000.0 -18037300000.0 -53773300000.0 -23539500000.0 -54528500000.0 -36919800000.0 -29437600000.0 -67612700000.0 -48344000000.0 -39649900000.0 -34528000000.0 -17161200000.0 -58074500000.0 -36836300000.0 -25592000000.0 -151294000000.0 -80925500000.0 -49762400000.0 -93730500000.0 -17245800000.0 -29819600000.0 -13717200000.0 -85323500000.0 -59713500000.0 -14654000000.0 -91601400000.0 -53767800000.0 -40908000000.0 -29420100000.0 -66566200000.0 -32181200000.0 -53406300000.0 -149088000000.0 -176990000000.0 -116198000000.0 -115516000000.0 -135461000000.0 -164378000000.0 -71956300000.0 -17034500000.0 -16977500000.0 -106409000000.0 -56726600000.0 -32628600000.0 -215252000000.0 -58421600000.0 -16897400000.0 -102077000000.0 -55553700000.0 -48611600000.0 -40343800000.0 -16188000000.0 -93968500000.0 -74170200000.0 -70565800000.0 -29075200000.0 -81759800000.0 -20116100000.0 -104894000000.0 -18237400000.0 -58923200000.0 -39640600000.0 -36155200000.0 -20538800000.0 -29894300000.0 -41125300000.0 -32567100000.0 -51221600000.0 -49397400000.0 -21242200000.0 -24529500000.0 -33445600000.0 -23823800000.0 -22113700000.0 -16178300000.0 -44256400000.0 -44927000000.0 -13180900000.0 -18411400000.0 -33255900000.0 -27449900000.0 -27396500000.0 -18821400000.0 -19378400000.0 -21466900000.0 -23704600000.0 -18394000000.0 -18135400000.0 -15135700000.0 -18375400000.0 -17859100000.0 -12729500000.0 -18637100000.0 -13434400000.0 -12549700000.0 -12549700000.0 -14325800000.0 -20535600000.0 -17628900000.0 -12886600000.0 -13728500000.0 -12549700000.0 -17603000000.0 -16646200000.0 -13339800000.0 -15285700000.0 -14881300000.0 -14610800000.0 -29172300000.0 -22103300000.0 -25779700000.0 -19867200000.0 -36608900000.0 -17302000000.0 -21318200000.0 -22084500000.0 -32748100000.0 -14989200000.0 -33122100000.0 -45093700000.0 -35431800000.0 -57795700000.0 -51888900000.0 -61313800000.0 -73922300000.0 -53191300000.0 -36121400000.0 -32146300000.0 -51570500000.0 -60271700000.0 -52142900000.0 -23060800000.0 -20294500000.0 -43655800000.0 -35421100000.0 -20485600000.0 -32356100000.0 -39681300000.0 -66817400000.0 -86003700000.0 -89706600000.0 -123511000000.0 -101290000000.0 -102359000000.0 -58968900000.0 -47697300000.0 -13687700000.0 -17889700000.0 -137837000000.0 -37798600000.0 -35450400000.0 -13159600000.0 -36351900000.0 -16857300000.0 -102111000000.0 -40789100000.0 -56065000000.0 -71779200000.0 -12549700000.0 -90474200000.0 -14108400000.0 -38778300000.0 -28162600000.0 -34503200000.0 -48162500000.0 -24668300000.0 -17624700000.0 -12881200000.0 -25192300000.0 -31061900000.0 -28385000000.0 -18016800000.0 -12693000000.0 -18890700000.0 -23311000000.0 -23435100000.0 -16904800000.0 -19596500000.0 -35085900000.0 -26616900000.0 -19294400000.0 -13269500000.0 -15024800000.0 -12549700000.0 -18397700000.0 -14833000000.0 -13599300000.0 -15332900000.0 -12549700000.0 -14359700000.0 -13029000000.0 -12634400000.0 -15280900000.0 -12562800000.0 -12549700000.0 -12553100000.0 -12972400000.0 -15579200000.0 -12549700000.0 -12959700000.0 -13175500000.0 -13037100000.0 -13771400000.0 -13361100000.0 -13527200000.0 -15557700000.0 -19168800000.0 -14816100000.0 -13778300000.0 -14062100000.0 -22608500000.0 -25417100000.0 -15934400000.0 -17642500000.0 -17227900000.0 -27869600000.0 -47504200000.0 -40728800000.0 -44573700000.0 -22019700000.0 -30171600000.0 -18938900000.0 -37247500000.0 -85860300000.0 -40416900000.0 -34802300000.0 -42021600000.0 -12996500000.0 -18860900000.0 -32821300000.0 -24222600000.0 -22297700000.0 -21184600000.0 -25884500000.0 -14504500000.0 -24828000000.0 -40179100000.0 -69650000000.0 -40432700000.0 -125281000000.0 -63763000000.0 -86676500000.0 -77287300000.0 -85746700000.0 -122342000000.0 -80436700000.0 -12813500000.0 -32316600000.0 -40145000000.0 -17538900000.0 -20015800000.0 -26099200000.0 -26981900000.0 -17752200000.0 -18052500000.0 -15759200000.0 -19955400000.0 -22543900000.0 -19037500000.0 -13454500000.0 -17033700000.0 -16969000000.0 -17283900000.0 -17974600000.0 -14616000000.0 -12857200000.0 -12830800000.0 -19036500000.0 -17703900000.0 -24376500000.0 -17138400000.0 -13385100000.0 -13247300000.0 -22334700000.0 -13725700000.0 -17688200000.0 -12824200000.0 -13903600000.0 -13084100000.0 -13254000000.0 -12549700000.0 -13225600000.0 -12672000000.0 -15853900000.0 -13736400000.0 -13421800000.0 -14252500000.0 -12811300000.0 -12869600000.0 -12895100000.0 -12609600000.0 -12997700000.0 -14318900000.0 -13275200000.0 -13681800000.0 -15715900000.0 -12934800000.0 -13813400000.0 -12998700000.0 -15953700000.0 -13947700000.0 -17707900000.0 -15025000000.0 -14859700000.0 -15390100000.0 -20058900000.0 -25428000000.0 -28637800000.0 -22148500000.0 -15659600000.0 -16904800000.0 -32514500000.0 -25103200000.0 -17933200000.0 -28188400000.0 -36568400000.0 -41545800000.0 -25262100000.0 -34780700000.0 -13763700000.0 -35578200000.0 -29222800000.0 -19861100000.0 -14183400000.0 -13280500000.0 -23903800000.0 -22822500000.0 -17819300000.0 -24478100000.0 -34367200000.0 -20623200000.0 -14482800000.0 -28373900000.0 -28353300000.0 -48948000000.0 -14602700000.0 -71371400000.0 -54022700000.0 -23090500000.0 -12692400000.0 -13685400000.0 -12549700000.0 -46369600000.0 -16040400000.0 -13131600000.0 -22611400000.0 -25819300000.0 -16209300000.0 -20123600000.0 -25044500000.0 -16408800000.0 -15196800000.0 -20926800000.0 -15252600000.0 -17150800000.0 -14553000000.0 -15261400000.0 -12824600000.0 -13977300000.0 -13340800000.0 -13059000000.0 -13888400000.0 -12959200000.0 -12838900000.0 -17485700000.0 -14391100000.0 -14998900000.0 -14093800000.0 -13072500000.0 -13104700000.0 -12950100000.0 -13230700000.0 -12756100000.0 -12747700000.0 -13612000000.0 -14037600000.0 -15073400000.0 -12871500000.0 -12962100000.0 -16372100000.0 -17260300000.0 -14184900000.0 -14974400000.0 -18203600000.0 -15343800000.0 -20213100000.0 -16394000000.0 -13293000000.0 -16510700000.0 -14564800000.0 -12708700000.0 -13537000000.0 -12954500000.0 -17026200000.0 -13722700000.0 -22824300000.0 -14613800000.0 -16531900000.0 -17097300000.0 -13719500000.0 -21503800000.0 -16465700000.0 -28603200000.0 -20944700000.0 -22328100000.0 -12764400000.0 