# vtk DataFile Version 2.0
Time step 56
ASCII
DATASET UNSTRUCTURED_GRID
POINTS 5000 float
207644.0 270939.0 0
297464.0 271134.0 0
202706.0 272851.0 0
206626.0 275251.0 0
213607.0 272235.0 0
209517.0 274131.0 0
216815.0 277053.0 0
221675.0 274758.0 0
228827.0 274819.0 0
232413.0 272823.0 0
232891.0 276157.0 0
237425.0 274883.0 0
271233.0 274091.0 0
278089.0 272640.0 0
285705.0 275537.0 0
291186.0 273198.0 0
297167.0 276410.0 0
202414.0 277891.0 0
207024.0 279570.0 0
211358.0 277249.0 0
213926.0 281515.0 0
221421.0 280214.0 0
225409.0 277581.0 0
230356.0 279326.0 0
235190.0 279990.0 0
242863.0 276907.0 0
240035.0 281589.0 0
249523.0 277492.0 0
255814.0 276737.0 0
257587.0 281106.0 0
260954.0 278337.0 0
264121.0 281173.0 0
266369.0 276907.0 0
268402.0 281862.0 0
270672.0 278592.0 0
275137.0 278041.0 0
280581.0 278179.0 0
284190.0 280721.0 0
287729.0 280049.0 0
292088.0 278716.0 0
203018.0 283156.0 0
209385.0 284074.0 0
218024.0 283967.0 0
222911.0 285816.0 0
226537.0 281866.0 0
228366.0 286770.0 0
231976.0 283582.0 0
236396.0 284987.0 0
245077.0 282026.0 0
249455.0 283013.0 0
247093.0 286555.0 0
253376.0 282079.0 0
251940.0 286459.0 0
256732.0 286106.0 0
260834.0 283751.0 0
265333.0 285964.0 0
269938.0 285717.0 0
273133.0 282899.0 0
277795.0 282210.0 0
276291.0 286070.0 0
280486.0 285982.0 0
281401.0 282263.0 0
285080.0 284778.0 0
288951.0 283456.0 0
292341.0 285014.0 0
296673.0 282401.0 0
201898.0 287616.0 0
202761.0 291854.0 0
206086.0 287869.0 0
213944.0 286831.0 0
210453.0 291393.0 0
218513.0 288412.0 0
222498.0 291520.0 0
226524.0 290489.0 0
233047.0 288056.0 0
230104.0 291426.0 0
234086.0 291783.0 0
237058.0 289449.0 0
241543.0 286835.0 0
245144.0 290979.0 0
249838.0 290744.0 0
254549.0 290567.0 0
259023.0 291970.0 0
260938.0 288024.0 0
264569.0 292075.0 0
268664.0 289236.0 0
272988.0 288813.0 0
270587.0 291624.0 0
278040.0 290886.0 0
283811.0 289929.0 0
288958.0 287862.0 0
287913.0 291992.0 0
291446.0 291410.0 0
296212.0 289309.0 0
202040.0 296203.0 0
206584.0 295687.0 0
216548.0 293482.0 0
221497.0 296801.0 0
226657.0 295279.0 0
232324.0 296012.0 0
236659.0 294544.0 0
240685.0 292619.0 0
243601.0 295813.0 0
240767.0 296935.0 0
247396.0 295300.0 0
252059.0 294782.0 0
255958.0 294602.0 0
269334.0 294287.0 0
273392.0 293479.0 0
277476.0 297157.0 0
281912.0 294339.0 0
285984.0 295566.0 0
290227.0 294730.0 0
293629.0 294125.0 0
297549.0 295077.0 0
202035.0 299777.0 0
206904.0 301230.0 0
211784.0 297132.0 0
216749.0 299208.0 0
220851.0 301193.0 0
229326.0 299196.0 0
225324.0 300821.0 0
232407.0 300554.0 0
236923.0 299761.0 0
242636.0 300761.0 0
246493.0 299278.0 0
248266.0 302285.0 0
254562.0 298444.0 0
250343.0 299007.0 0
259787.0 297255.0 0
257119.0 301665.0 0
265960.0 298435.0 0
270151.0 301850.0 0
271821.0 297620.0 0
274314.0 301515.0 0
280317.0 300984.0 0
277764.0 301944.0 0
282685.0 298317.0 0
286349.0 299407.0 0
290499.0 298507.0 0
294382.0 297573.0 0
294039.0 302053.0 0
297851.0 299362.0 0
202301.0 303608.0 0
205556.0 306422.0 0
212604.0 302403.0 0
209425.0 305587.0 0
217883.0 305245.0 0
222795.0 304479.0 0
226706.0 306129.0 0
229698.0 302957.0 0
233746.0 304573.0 0
239380.0 305354.0 0
244946.0 305353.0 0
249253.0 305669.0 0
252695.0 303113.0 0
257306.0 306600.0 0
261653.0 302741.0 0
266111.0 304090.0 0
269314.0 305073.0 0
272939.0 305931.0 0
276443.0 304364.0 0
279669.0 304402.0 0
283671.0 302709.0 0
288862.0 302470.0 0
286526.0 305983.0 0
291212.0 306272.0 0
295388.0 306367.0 0
298375.0 302903.0 0
298501.0 305782.0 0
201937.0 307415.0 0
201649.0 310350.0 0
204635.0 310499.0 0
208694.0 310089.0 0
213130.0 307730.0 0
212880.0 311683.0 0
217316.0 311327.0 0
222389.0 308749.0 0
226807.0 311115.0 0
230736.0 308504.0 0
235278.0 309218.0 0
239672.0 310264.0 0
243680.0 309952.0 0
247785.0 309592.0 0
252497.0 308519.0 0
255884.0 312322.0 0
259657.0 310398.0 0
262964.0 307878.0 0
264767.0 312202.0 0
268112.0 308812.0 0
272662.0 310466.0 0
277256.0 308277.0 0
279864.0 312317.0 0
282326.0 307862.0 0
283716.0 312024.0 0
288011.0 310189.0 0
293491.0 310318.0 0
297873.0 309154.0 0
202339.0 313629.0 0
205866.0 314228.0 0
209923.0 314661.0 0
213933.0 314618.0 0
217081.0 316736.0 0
222134.0 313480.0 0
226372.0 315791.0 0
232029.0 314052.0 0
237190.0 313534.0 0
241988.0 314707.0 0
246014.0 312997.0 0
246185.0 316757.0 0
250650.0 314078.0 0
260661.0 314330.0 0
269178.0 313765.0 0
265377.0 317005.0 0
272958.0 316129.0 0
275739.0 312644.0 0
277497.0 316683.0 0
282434.0 316602.0 0
286102.0 314653.0 0
290053.0 314413.0 0
294379.0 314392.0 0
297841.0 312941.0 0
297302.0 317550.0 0
202727.0 317736.0 0
201741.0 321239.0 0
207150.0 318204.0 0
205243.0 321402.0 0
208928.0 321736.0 0
211930.0 318490.0 0
212864.0 322424.0 0
214888.0 319909.0 0
217504.0 322132.0 0
221752.0 318455.0 0
226279.0 320905.0 0
229820.0 318616.0 0
233218.0 319482.0 0
237457.0 318378.0 0
242347.0 319787.0 0
246281.0 320764.0 0
250173.0 319555.0 0
255827.0 318694.0 0
261217.0 319118.0 0
264461.0 322293.0 0
269530.0 319004.0 0
273828.0 321214.0 0
278878.0 320975.0 0
283638.0 321479.0 0
286901.0 317980.0 0
288305.0 322247.0 0
292042.0 319078.0 0
202586.0 324628.0 0
206606.0 324720.0 0
210502.0 325288.0 0
214708.0 325850.0 0
218714.0 327026.0 0
222273.0 323751.0 0
226505.0 325301.0 0
230522.0 322902.0 0
229406.0 326732.0 0
232892.0 326930.0 0
235273.0 323154.0 0
239500.0 323472.0 0
244294.0 324751.0 0
241100.0 327264.0 0
248998.0 324227.0 0
252757.0 323212.0 0
260012.0 322789.0 0
256573.0 325869.0 0
261694.0 326460.0 0
265475.0 326542.0 0
269024.0 323605.0 0
272507.0 326692.0 0
280487.0 324674.0 0
276656.0 325571.0 0
282856.0 326176.0 0
285716.0 325536.0 0
289406.0 327220.0 0
292095.0 324260.0 0
293526.0 327917.0 0
296480.0 323051.0 0
297449.0 327909.0 0
203009.0 328983.0 0
207883.0 328790.0 0
212588.0 329205.0 0
216259.0 329398.0 0
223052.0 328372.0 0
219661.0 331105.0 0
223522.0 332819.0 0
227358.0 329970.0 0
231915.0 331421.0 0
237229.0 328637.0 0
241239.0 330483.0 0
244072.0 329436.0 0
247721.0 328436.0 0
246580.0 331761.0 0
251858.0 327922.0 0
250076.0 332253.0 0
255107.0 332246.0 0
259482.0 330018.0 0
263939.0 331277.0 0
268484.0 328767.0 0
267988.0 332327.0 0
271797.0 331474.0 0
275461.0 330351.0 0
279844.0 329337.0 0
277615.0 332980.0 0
285214.0 330262.0 0
290601.0 332007.0 0
296284.0 332815.0 0
202572.0 333565.0 0
202774.0 337710.0 0
206227.0 333319.0 0
207771.0 337355.0 0
210628.0 333214.0 0
212298.0 337427.0 0
215750.0 333736.0 0
220404.0 335583.0 0
227906.0 334419.0 0
224681.0 336551.0 0
231763.0 336570.0 0
235891.0 333868.0 0
235465.0 338145.0 0
238779.0 337516.0 0
239966.0 333470.0 0
243509.0 333012.0 0
242365.0 336917.0 0
246828.0 335863.0 0
251849.0 337221.0 0
259827.0 334262.0 0
256828.0 337614.0 0
262902.0 335887.0 0
266355.0 335553.0 0
270245.0 335264.0 0
274564.0 334885.0 0
278549.0 336527.0 0
281630.0 333902.0 0
282237.0 337550.0 0
286397.0 335734.0 0
291979.0 336449.0 0
297032.0 337904.0 0
201518.0 341155.0 0
205775.0 341472.0 0
209849.0 340335.0 0
213243.0 340720.0 0
217062.0 338791.0 0
215705.0 343261.0 0
219315.0 342548.0 0
222357.0 339846.0 0
228042.0 339469.0 0
225623.0 342954.0 0
233092.0 341762.0 0
237210.0 341064.0 0
240644.0 341227.0 0
244658.0 340202.0 0
248403.0 340248.0 0
254715.0 341116.0 0
257798.0 342123.0 0
260588.0 339052.0 0
264786.0 339708.0 0
261074.0 343053.0 0
268320.0 338512.0 0
268867.0 342593.0 0
271860.0 338640.0 0
273186.0 341499.0 0
275722.0 339156.0 0
279913.0 340327.0 0
276652.0 343410.0 0
284188.0 340640.0 0
288590.0 339406.0 0
288210.0 343516.0 0
292463.0 340587.0 0
296718.0 342753.0 0
197272.0 347537.0 0
201968.0 344021.0 0
202704.0 348045.0 0
204838.0 345127.0 0
207739.0 344555.0 0
207230.0 347530.0 0
210859.0 343831.0 0
214664.0 346618.0 0
219175.0 346638.0 0
222628.0 344849.0 0
229678.0 344406.0 0
226251.0 346945.0 0
233680.0 346405.0 0
237333.0 344909.0 0
240258.0 348455.0 0
240892.0 345047.0 0
243403.0 343728.0 0
244198.0 347225.0 0
246817.0 343772.0 0
248729.0 346971.0 0
251341.0 343158.0 0
252775.0 347227.0 0
255357.0 344771.0 0
258541.0 345973.0 0
264573.0 343885.0 0
261850.0 347298.0 0
266005.0 347313.0 0
269875.0 347458.0 0
272655.0 344474.0 0
274029.0 347802.0 0
277957.0 347493.0 0
280858.0 344114.0 0
284093.0 344260.0 0
282113.0 348291.0 0
285907.0 347033.0 0
292293.0 345035.0 0
293120.0 347804.0 0
296920.0 347422.0 0
202116.0 352180.0 0
205400.0 350739.0 0
208674.0 351694.0 0
210987.0 348322.0 0
212109.0 352551.0 0
214128.0 350522.0 0
217112.0 349629.0 0
216804.0 353794.0 0
223060.0 348812.0 0
220374.0 351030.0 0
223678.0 353068.0 0
227054.0 351221.0 0
230266.0 348625.0 0
233282.0 350370.0 0
230854.0 352806.0 0
236512.0 349445.0 0
238815.0 353177.0 0
242746.0 351561.0 0
246555.0 350543.0 0
248992.0 353316.0 0
250650.0 350260.0 0
253611.0 350520.0 0
256135.0 348570.0 0
259231.0 350105.0 0
263267.0 351661.0 0
267361.0 350846.0 0
270984.0 351846.0 0
275208.0 351221.0 0
279147.0 352267.0 0
283061.0 352327.0 0
289582.0 348653.0 0
285696.0 350757.0 0
287473.0 353420.0 0
290578.0 352448.0 0
293900.0 350645.0 0
297705.0 351654.0 0
202256.0 355805.0 0
205362.0 354032.0 0
206200.0 357042.0 0
209042.0 355007.0 0
209774.0 357936.0 0
212829.0 355756.0 0
216633.0 358414.0 0
220776.0 354355.0 0
223871.0 356367.0 0
220395.0 357379.0 0
227787.0 355631.0 0
234565.0 353733.0 0
231348.0 355696.0 0
233587.0 357233.0 0
237003.0 357173.0 0
242200.0 355099.0 0
240423.0 357709.0 0
243957.0 357999.0 0
245583.0 354864.0 0
247000.0 358221.0 0
249434.0 356553.0 0
252052.0 353525.0 0
253538.0 357626.0 0
256268.0 353342.0 0
260100.0 354943.0 0
263887.0 356264.0 0
266840.0 354137.0 0
266703.0 357866.0 0
270108.0 356229.0 0
274477.0 355356.0 0
278184.0 356331.0 0
284611.0 355039.0 0
281417.0 355657.0 0
283340.0 357837.0 0
286983.0 358115.0 0
290027.0 356126.0 0
293919.0 354822.0 0
295117.0 358533.0 0
297760.0 355015.0 0
298398.0 357772.0 0
202009.0 363611.0 0
203079.0 359901.0 0
207645.0 360639.0 0
212534.0 359047.0 0
211042.0 362092.0 0
215308.0 362459.0 0
219965.0 362283.0 0
222789.0 359797.0 0
224213.0 363360.0 0
226371.0 359706.0 0
228211.0 363827.0 0
230623.0 359750.0 0
235176.0 360618.0 0
238497.0 361383.0 0
242123.0 361277.0 0
244310.0 364143.0 0
245960.0 361088.0 0
250121.0 361248.0 0
257480.0 358838.0 0
258558.0 362670.0 0
254657.0 362595.0 0
261256.0 359386.0 0
261641.0 363744.0 0
264706.0 361056.0 0
268907.0 360321.0 0
267241.0 363828.0 0
272303.0 359461.0 0
271048.0 363005.0 0
274430.0 362667.0 0
275972.0 359290.0 0
280162.0 359413.0 0
277667.0 362095.0 0
283769.0 361143.0 0
280467.0 363824.0 0
287989.0 362441.0 0
291529.0 359485.0 0
295105.0 362131.0 0
297995.0 363590.0 0
297922.0 360588.0 0
302750.0 361270.0 0
202860.0 367229.0 0
206780.0 368176.0 0
206033.0 364037.0 0
210276.0 365633.0 0
215155.0 369165.0 0
218050.0 365596.0 0
214260.0 366044.0 0
218362.0 368364.0 0
225362.0 366231.0 0
221883.0 366446.0 0
228116.0 367950.0 0
231763.0 366355.0 0
232522.0 363114.0 0
234452.0 368965.0 0
236018.0 364882.0 0
237685.0 368436.0 0
240292.0 365532.0 0
244287.0 368832.0 0
247781.0 365011.0 0
249154.0 369467.0 0
251617.0 365791.0 0
254713.0 366675.0 0
256374.0 368650.0 0
257086.0 365344.0 0
259960.0 367883.0 0
264407.0 365941.0 0
266561.0 368403.0 0
269144.0 366717.0 0
272868.0 366437.0 0
276686.0 365585.0 0
278746.0 367118.0 0
281080.0 367060.0 0
284488.0 365268.0 0
288185.0 367468.0 0
292030.0 364158.0 0
297933.0 366576.0 0
295191.0 365923.0 0
304194.0 367040.0 0
198678.0 378236.0 0
200851.0 376297.0 0
202238.0 371097.0 0
204572.0 374777.0 0
205652.0 371047.0 0
210754.0 370236.0 0
208934.0 373986.0 0
214378.0 372939.0 0
216951.0 375940.0 0
218079.0 371963.0 0
220690.0 369711.0 0
220813.0 372820.0 0
224886.0 370846.0 0
228904.0 373105.0 0
230830.0 370161.0 0
233390.0 373373.0 0
240079.0 370630.0 0
236828.0 371868.0 0
239224.0 374394.0 0
243159.0 373817.0 0
246942.0 373275.0 0
250194.0 373932.0 0
253211.0 370773.0 0
257690.0 373229.0 0
263743.0 369717.0 0
262166.0 373152.0 0
266702.0 372407.0 0
270131.0 370166.0 0
271567.0 374209.0 0
275234.0 370560.0 0
277952.0 374597.0 0
279054.0 369602.0 0
283584.0 369096.0 0
281108.0 371346.0 0
286105.0 371499.0 0
289493.0 371634.0 0
292341.0 368753.0 0
290460.0 376229.0 0
296916.0 370134.0 0
292742.0 372670.0 0
298157.0 373692.0 0
295275.0 374222.0 0
298673.0 377930.0 0
191365.0 383048.0 0
196477.0 379980.0 0
194031.0 381369.0 0
198354.0 382162.0 0
196304.0 383920.0 0
200445.0 379838.0 0
200772.0 383719.0 0
202917.0 381705.0 0
202664.0 378694.0 0
206078.0 378580.0 0
205804.0 382109.0 0
209011.0 378501.0 0
211494.0 377342.0 0
212485.0 374955.0 0
213897.0 376952.0 0
217289.0 380487.0 0
220367.0 375931.0 0
221442.0 379728.0 0
224166.0 375618.0 0
225158.0 379814.0 0
227644.0 376457.0 0
231235.0 377023.0 0
234366.0 378194.0 0
236390.0 375706.0 0
238530.0 378963.0 0
241428.0 377325.0 0
244806.0 377353.0 0
247421.0 376347.0 0
246683.0 380546.0 0
250154.0 378190.0 0
253416.0 375834.0 0
255577.0 378756.0 0
259537.0 377940.0 0
262496.0 380342.0 0
264106.0 376628.0 0
268170.0 376575.0 0
265913.0 380485.0 0
274903.0 375350.0 0
273070.0 377866.0 0
276662.0 379132.0 0
280431.0 378685.0 0
282897.0 375228.0 0
285761.0 378718.0 0
287584.0 374629.0 0
288279.0 381582.0 0
295275.0 376962.0 0
292452.0 380495.0 0
299330.0 381259.0 0
302731.0 379254.0 0
301913.0 383362.0 0
304893.0 380445.0 0
305530.0 383013.0 0
307763.0 382169.0 0
310034.0 384145.0 0
186473.0 385957.0 0
184290.0 387817.0 0
186696.0 388808.0 0
189021.0 384934.0 0
193881.0 384289.0 0
190365.0 387290.0 0
193227.0 386980.0 0
197043.0 385698.0 0
195976.0 387132.0 0
199039.0 386066.0 0
202786.0 386118.0 0
199290.0 388399.0 0
208678.0 383084.0 0
205439.0 385526.0 0
207638.0 387344.0 0
210526.0 381290.0 0
210346.0 385934.0 0
213581.0 380333.0 0
212853.0 384428.0 0
215554.0 384295.0 0
219378.0 384295.0 0
222882.0 383982.0 0
225506.0 382661.0 0
228745.0 380374.0 0
227823.0 383899.0 0
230569.0 384710.0 0
232172.0 381647.0 0
235897.0 381792.0 0
233469.0 384730.0 0
239450.0 383056.0 0
236347.0 385378.0 0
242733.0 381283.0 0
242686.0 385874.0 0
249462.0 382257.0 0
246405.0 384866.0 0
252651.0 381004.0 0
250698.0 385398.0 0
254579.0 384351.0 0
256861.0 381890.0 0
259774.0 382939.0 0
264026.0 384022.0 0
267331.0 383298.0 0
266898.0 385758.0 0
270004.0 380694.0 0
269638.0 384919.0 0
272111.0 385411.0 0
273706.0 382498.0 0
276122.0 384564.0 0
278545.0 382463.0 0
282454.0 382297.0 0
278771.0 385504.0 0
285809.0 383852.0 0
288475.0 385659.0 0
291766.0 385304.0 0
294803.0 387200.0 0
296233.0 383496.0 0
299783.0 385425.0 0
298051.0 387594.0 0
303580.0 386118.0 0
308325.0 385968.0 0
306489.0 387176.0 0
310605.0 388419.0 0
312680.0 385907.0 0
315140.0 387453.0 0
317776.0 388676.0 0
172823.0 394496.0 0
176517.0 391919.0 0
174725.0 393136.0 0
179374.0 391225.0 0
182018.0 389620.0 0
182624.0 393922.0 0
188954.0 389844.0 0
184278.0 391797.0 0
185500.0 394119.0 0
186766.0 391876.0 0
188143.0 393898.0 0
193496.0 389844.0 0
191137.0 391317.0 0
190501.0 393844.0 0
196714.0 389805.0 0
193682.0 392680.0 0
197157.0 393006.0 0
202169.0 389487.0 0
201082.0 393466.0 0
204991.0 389790.0 0
206641.0 392445.0 0
208592.0 390242.0 0
210613.0 391022.0 0
211799.0 388558.0 0
213015.0 391475.0 0
213802.0 387597.0 0
215237.0 391076.0 0
217094.0 387659.0 0
219112.0 391598.0 0
221155.0 388116.0 0
223809.0 388452.0 0
225450.0 386075.0 0
228439.0 388338.0 0
230410.0 391444.0 0
232232.0 387665.0 0
235618.0 389020.0 0
239293.0 385846.0 0
239077.0 388841.0 0
242616.0 390311.0 0
245782.0 389060.0 0
248493.0 388398.0 0
253721.0 387958.0 0
251370.0 389298.0 0
257646.0 386595.0 0
256188.0 390880.0 0
259379.0 390210.0 0
261558.0 387621.0 0
265117.0 388708.0 0
268799.0 388828.0 0
271608.0 388363.0 0
274508.0 387428.0 0
277565.0 388457.0 0
273361.0 390564.0 0
275880.0 390958.0 0
281346.0 386542.0 0
279940.0 390398.0 0
282987.0 391269.0 0
284923.0 387906.0 0
288662.0 390429.0 0
294405.0 391520.0 0
292075.0 389474.0 0
297126.0 390601.0 0
300589.0 391751.0 0
301955.0 388975.0 0
304928.0 391493.0 0
306802.0 389502.0 0
309517.0 390586.0 0
308564.0 393080.0 0
314152.0 390073.0 0
312260.0 391941.0 0
315744.0 391655.0 0
312743.0 394570.0 0
319645.0 390651.0 0
318207.0 392835.0 0
321786.0 394496.0 0
322265.0 391599.0 0
324458.0 392602.0 0
326253.0 394499.0 0
166491.0 398840.0 0
163872.0 399863.0 0
171082.0 396264.0 0
168350.0 396857.0 0
171267.0 399097.0 0
174753.0 397249.0 0
176565.0 395809.0 0
179386.0 394570.0 0
180935.0 397582.0 0
187369.0 396412.0 0
184214.0 396428.0 0
184785.0 399218.0 0
192235.0 395847.0 0
189277.0 398181.0 0
195413.0 396489.0 0
199408.0 397567.0 0
202480.0 398550.0 0
204215.0 395059.0 0
206475.0 398158.0 0
208807.0 394667.0 0
211307.0 393976.0 0
213359.0 396796.0 0
216508.0 394898.0 0
219573.0 396499.0 0
222315.0 392983.0 0
225767.0 390847.0 0
225433.0 395255.0 0
227752.0 393111.0 0
229742.0 394758.0 0
233386.0 391159.0 0
234008.0 395144.0 0
236751.0 392090.0 0
239541.0 392827.0 0
238033.0 395624.0 0
241791.0 395609.0 0
244570.0 393540.0 0
248660.0 392840.0 0
252573.0 391955.0 0
253375.0 395502.0 0
257645.0 395185.0 0
259711.0 392525.0 0
262111.0 395637.0 0
261872.0 391463.0 0
264626.0 391930.0 0
267276.0 391829.0 0
266703.0 395748.0 0
270703.0 393144.0 0
274255.0 393837.0 0
277966.0 393949.0 0
281841.0 394745.0 0
286021.0 392902.0 0
285122.0 395762.0 0
287877.0 396768.0 0
289706.0 394367.0 0
292197.0 397893.0 0
296009.0 394220.0 0
292637.0 394310.0 0
295755.0 397081.0 0
298834.0 393621.0 0
299029.0 397243.0 0
304143.0 394055.0 0
301742.0 395003.0 0
302333.0 398506.0 0
305257.0 396947.0 0
310316.0 396884.0 0
307098.0 395258.0 0
313011.0 399683.0 0
316288.0 398311.0 0
316142.0 395204.0 0
319885.0 395611.0 0
320607.0 397955.0 0
323827.0 395883.0 0
322978.0 397962.0 0
328665.0 395270.0 0
330554.0 396668.0 0
326707.0 397973.0 0
329500.0 399850.0 0
332624.0 397707.0 0
334355.0 398908.0 0
336248.0 400280.0 0
156661.0 405454.0 0
160248.0 402250.0 0
158181.0 403328.0 0
160813.0 404649.0 0
162585.0 403683.0 0
161854.0 401067.0 0
165475.0 404612.0 0
164733.0 402423.0 0
168253.0 400833.0 0
169207.0 403328.0 0
172131.0 403398.0 0
173726.0 400569.0 0
176871.0 401356.0 0
176341.0 404690.0 0
178152.0 398680.0 0
180245.0 402311.0 0
186541.0 400160.0 0
182231.0 400489.0 0
184327.0 402390.0 0
191294.0 400562.0 0
187300.0 402049.0 0
187647.0 404510.0 0
191273.0 403683.0 0
195103.0 400242.0 0
195280.0 403502.0 0
198822.0 400639.0 0
198665.0 403640.0 0
202222.0 401344.0 0
201545.0 404305.0 0
205025.0 401742.0 0
210113.0 397879.0 0
209230.0 401483.0 0
212924.0 400604.0 0
216954.0 400028.0 0
220422.0 401005.0 0
222446.0 397763.0 0
223627.0 402406.0 0
224750.0 399566.0 0
227004.0 402089.0 0
227896.0 397853.0 0
231514.0 399330.0 0
229498.0 402031.0 0
235992.0 399676.0 0
239419.0 398939.0 0
243811.0 399478.0 0
246388.0 397056.0 0
247357.0 401451.0 0
250160.0 398293.0 0
253126.0 401701.0 0
255494.0 399166.0 0
259368.0 399289.0 0
263887.0 400307.0 0
267948.0 399931.0 0
271094.0 397705.0 0
269622.0 402587.0 0
274231.0 396504.0 0
276457.0 398601.0 0
273464.0 401699.0 0
279444.0 402195.0 0
280233.0 398692.0 0
283043.0 402043.0 0
286303.0 399844.0 0
284082.0 398758.0 0
289594.0 399933.0 0
292350.0 403449.0 0
295034.0 401093.0 0
298449.0 400427.0 0
301167.0 401561.0 0
305012.0 400397.0 0
304406.0 402754.0 0
307978.0 399488.0 0
307246.0 402898.0 0
310184.0 402132.0 0
313878.0 402449.0 0
316714.0 403075.0 0
318658.0 400431.0 0
321398.0 402263.0 0
324386.0 400771.0 0
327216.0 402200.0 0
324101.0 404653.0 0
326127.0 404998.0 0
331910.0 401721.0 0
328166.0 404584.0 0
330728.0 404376.0 0
335069.0 403419.0 0
338357.0 402128.0 0
340702.0 403541.0 0
342957.0 405341.0 0
149734.0 409262.0 0
147203.0 410687.0 0
154125.0 406177.0 0
152039.0 408038.0 0
154214.0 409807.0 0
156958.0 409356.0 0
159497.0 407214.0 0
163290.0 405842.0 0
162435.0 408877.0 0
166018.0 408942.0 0
168048.0 406365.0 0
170681.0 407947.0 0
173313.0 405791.0 0
174745.0 408130.0 0
172167.0 409842.0 0
181071.0 405187.0 0
178283.0 406802.0 0
181773.0 409075.0 0
184138.0 405024.0 0
184549.0 408408.0 0
188364.0 407564.0 0
191796.0 406709.0 0
195180.0 406387.0 0
198284.0 406601.0 0
200475.0 408814.0 0
203623.0 405940.0 0
206317.0 404871.0 0
211367.0 405408.0 0
215772.0 404183.0 0
216005.0 407739.0 0
219674.0 405098.0 0
223884.0 406076.0 0
227391.0 405461.0 0
230394.0 404185.0 0
231300.0 406337.0 0
233153.0 402880.0 0
234501.0 406101.0 0
237022.0 402986.0 0
240496.0 402963.0 0
244231.0 403552.0 0
242244.0 406771.0 0
244854.0 406500.0 0
247344.0 405487.0 0
250658.0 406680.0 0
250179.0 402963.0 0
254700.0 405647.0 0
257198.0 402413.0 0
258720.0 406802.0 0
260911.0 403625.0 0
266187.0 403703.0 0
264107.0 406409.0 0
269162.0 405907.0 0
273343.0 406318.0 0
277464.0 405794.0 0
277050.0 402894.0 0
281257.0 405296.0 0
285958.0 402979.0 0
285059.0 406270.0 0
288603.0 407121.0 0
289089.0 403880.0 0
291629.0 406764.0 0
297259.0 403983.0 0
295380.0 407520.0 0
300482.0 404543.0 0
299547.0 407971.0 0
303946.0 405772.0 0
310435.0 405034.0 0
307597.0 406066.0 0
308807.0 409489.0 0
311935.0 408345.0 0
313193.0 404976.0 0
317401.0 405415.0 0
314788.0 407169.0 0
320479.0 404891.0 0
318343.0 408636.0 0
321126.0 407786.0 0
326160.0 407014.0 0
323828.0 407177.0 0
324813.0 409722.0 0
328664.0 407694.0 0
331960.0 407424.0 0
335160.0 406330.0 0
336608.0 409204.0 0
338667.0 406061.0 0
339773.0 408655.0 0
342790.0 408346.0 0
345944.0 405810.0 0
347791.0 408311.0 0
350604.0 408685.0 0
352753.0 410266.0 0
144615.0 412855.0 0
142332.0 415014.0 0
150907.0 411794.0 0
148256.0 413898.0 0
153262.0 412214.0 0
154152.0 414869.0 0
157733.0 412586.0 0
161442.0 412650.0 0
165154.0 413553.0 0
168089.0 411971.0 0
171102.0 412124.0 0
175106.0 410917.0 0
173178.0 413280.0 0
176383.0 414023.0 0
178563.0 409871.0 0
179538.0 413174.0 0
182507.0 412844.0 0
185623.0 411487.0 0
189241.0 410732.0 0
189815.0 413886.0 0
192330.0 410005.0 0
195297.0 409378.0 0
193223.0 412812.0 0
197295.0 411816.0 0
200828.0 413208.0 0
204188.0 409693.0 0
208312.0 409364.0 0
211648.0 412070.0 0
213836.0 408857.0 0
216041.0 412590.0 0
218209.0 408958.0 0
221726.0 409510.0 0
219922.0 413001.0 0
225512.0 409531.0 0
223923.0 412763.0 0
227141.0 413111.0 0
228896.0 408877.0 0
230885.0 412601.0 0
232612.0 409081.0 0
234088.0 411814.0 0
235190.0 409299.0 0
238511.0 407058.0 0
237546.0 411212.0 0
245143.0 409092.0 0
241600.0 411327.0 0
248455.0 410212.0 0
252916.0 411087.0 0
256977.0 410443.0 0
261593.0 409723.0 0
267175.0 409391.0 0
264479.0 412659.0 0
271111.0 409671.0 0
274471.0 410608.0 0
276612.0 408742.0 0
277335.0 412687.0 0
280483.0 409544.0 0
284291.0 409683.0 0
287138.0 409711.0 0
288640.0 412610.0 0
290448.0 409921.0 0
293832.0 410988.0 0
296735.0 412911.0 0
302375.0 409134.0 0
298557.0 410929.0 0
301809.0 412971.0 0
305543.0 409442.0 0
305300.0 411699.0 0
309629.0 412839.0 0
315794.0 410552.0 0
313332.0 411523.0 0
318987.0 412420.0 0
321532.0 414898.0 0
322347.0 411137.0 0
323968.0 413840.0 0
326631.0 413370.0 0
327615.0 410512.0 0
332571.0 410381.0 0
330484.0 412192.0 0
331091.0 415126.0 0
335597.0 411769.0 0
333975.0 413846.0 0
340265.0 411367.0 0
339028.0 414540.0 0
345614.0 410712.0 0
343094.0 412530.0 0
347051.0 413859.0 0
350296.0 411614.0 0
352526.0 414159.0 0
349437.0 415413.0 0
355047.0 412554.0 0
357711.0 414379.0 0
360803.0 415106.0 0
136832.0 417437.0 0
132413.0 419698.0 0
134587.0 418688.0 0
139330.0 416160.0 0
138108.0 421036.0 0
146408.0 416135.0 0
143911.0 418871.0 0
146704.0 419197.0 0
150341.0 415917.0 0
150108.0 419156.0 0
155083.0 417308.0 0
153019.0 419722.0 0
156899.0 419305.0 0
157867.0 415834.0 0
161747.0 416494.0 0
159248.0 417539.0 0
165612.0 416500.0 0
162679.0 419267.0 0
165915.0 419337.0 0
169253.0 415804.0 0
172238.0 416506.0 0
168953.0 419731.0 0
175750.0 417578.0 0
179897.0 416485.0 0
178898.0 420004.0 0
185992.0 415092.0 0
182919.0 417072.0 0
185071.0 419766.0 0
187670.0 418201.0 0
191049.0 416793.0 0
193896.0 415526.0 0
196738.0 415740.0 0
200024.0 416495.0 0
203773.0 413455.0 0
202983.0 416516.0 0
205442.0 417250.0 0
206816.0 414116.0 0
209543.0 414660.0 0
207572.0 417421.0 0
210369.0 417100.0 0
213235.0 416095.0 0
217430.0 417462.0 0
221526.0 416325.0 0
224918.0 417158.0 0
228730.0 416984.0 0
232409.0 415734.0 0
235676.0 414667.0 0
238769.0 414844.0 0
241382.0 415469.0 0
245501.0 414327.0 0
250030.0 414794.0 0
253137.0 415881.0 0
259632.0 413416.0 0
256062.0 414492.0 0
258276.0 417964.0 0
262440.0 416526.0 0
266609.0 416527.0 0
268949.0 413488.0 0
271951.0 415826.0 0
272387.0 412918.0 0
270196.0 417492.0 0
274991.0 414920.0 0
278159.0 417245.0 0
281389.0 414692.0 0
285137.0 413361.0 0
285427.0 417567.0 0
287567.0 415962.0 0
290215.0 417106.0 0
291986.0 414049.0 0
293507.0 418782.0 0
295155.0 415733.0 0
299157.0 414841.0 0
298359.0 417483.0 0
301244.0 418437.0 0
306539.0 414693.0 0
302904.0 416583.0 0
306012.0 418462.0 0
311655.0 415932.0 0
309261.0 417842.0 0
314465.0 414480.0 0
313194.0 418325.0 0
315794.0 418339.0 0
317514.0 415537.0 0
321089.0 418574.0 0
325039.0 417641.0 0
328154.0 416172.0 0
330027.0 420130.0 0
336056.0 416569.0 0
333215.0 418595.0 0
342031.0 416493.0 0
338314.0 418654.0 0
342244.0 419975.0 0
345049.0 416369.0 0
346683.0 418917.0 0
350044.0 418595.0 0
353466.0 417394.0 0
357144.0 417513.0 0
354815.0 420291.0 0
362459.0 417309.0 0
359489.0 419712.0 0
364851.0 418696.0 0
367917.0 419132.0 0
369511.0 420783.0 0
121771.0 426078.0 0
125062.0 425558.0 0
130213.0 420551.0 0
127056.0 423512.0 0
128638.0 421689.0 0
132777.0 422820.0 0
130289.0 424271.0 0
136153.0 422811.0 0
140879.0 423406.0 0
140794.0 420214.0 0
143820.0 422559.0 0
146800.0 423133.0 0
149462.0 422557.0 0
154872.0 422302.0 0
151890.0 424728.0 0
159196.0 420293.0 0
157323.0 423830.0 0
161303.0 422757.0 0
164979.0 423117.0 0
168301.0 423590.0 0
171253.0 423986.0 0
171691.0 420490.0 0
174459.0 420936.0 0
174401.0 424166.0 0
181898.0 420981.0 0
177586.0 422721.0 0
180363.0 424613.0 0
183994.0 423021.0 0
186563.0 422384.0 0
188981.0 420778.0 0
190277.0 423148.0 0
192652.0 419759.0 0
196194.0 419524.0 0
193409.0 423094.0 0
196300.0 423270.0 0
199722.0 419941.0 0
199414.0 423337.0 0
203319.0 419992.0 0
206480.0 421010.0 0
210140.0 420867.0 0
214068.0 419746.0 0
217066.0 422353.0 0
220523.0 420020.0 0
223824.0 420843.0 0
228211.0 421866.0 0
235373.0 418463.0 0
231763.0 419065.0 0
232950.0 422092.0 0
236687.0 422432.0 0
239114.0 418444.0 0
243159.0 418854.0 0
247819.0 418360.0 0
245900.0 421582.0 0
249182.0 422435.0 0
250850.0 418936.0 0
254572.0 418912.0 0
261494.0 420407.0 0
264640.0 420370.0 0
267782.0 419850.0 0
271379.0 421791.0 0
274483.0 418788.0 0
278467.0 421593.0 0
282213.0 419339.0 0
284801.0 422575.0 0
288047.0 420379.0 0
290893.0 423645.0 0
291165.0 421015.0 0
293752.0 422805.0 0
296959.0 420601.0 0
297422.0 424245.0 0
300326.0 421844.0 0
303814.0 421001.0 0
303400.0 424189.0 0
307795.0 422192.0 0
311371.0 421410.0 0
315395.0 421982.0 0
318017.0 420608.0 0
318962.0 423137.0 0
326924.0 420504.0 0
322505.0 422316.0 0
326096.0 423665.0 0
330582.0 423254.0 0
328882.0 425035.0 0
332953.0 423659.0 0
335452.0 421623.0 0
338935.0 420938.0 0
340212.0 423802.0 0
345367.0 421358.0 0
343251.0 424230.0 0
350568.0 421431.0 0
348153.0 423533.0 0
350959.0 425594.0 0
354136.0 422974.0 0
362216.0 421697.0 0
358460.0 422914.0 0
363062.0 423628.0 0
366274.0 421258.0 0
366575.0 423799.0 0
371210.0 422748.0 0
373896.0 423906.0 0
369412.0 424994.0 0
375929.0 426094.0 0
114218.0 431266.0 0
119662.0 428556.0 0
116443.0 429587.0 0
123091.0 428875.0 0
124609.0 430958.0 0
127126.0 427630.0 0
129888.0 426584.0 0
129967.0 429209.0 0
127837.0 431171.0 0
132618.0 427194.0 0
133854.0 425780.0 0
132939.0 429935.0 0
135949.0 429265.0 0
137145.0 426145.0 0
139353.0 429967.0 0
141020.0 426497.0 0
145046.0 425941.0 0
142898.0 429508.0 0
148558.0 426641.0 0
145695.0 429166.0 0
149274.0 429339.0 0
153593.0 427545.0 0
160904.0 426547.0 0
157294.0 427574.0 0
164959.0 426249.0 0
163041.0 428767.0 0
167785.0 427156.0 0
166538.0 430559.0 0
171015.0 427739.0 0
174587.0 427958.0 0
177249.0 425260.0 0
178289.0 428127.0 0
181306.0 428897.0 0
183549.0 426075.0 0
184985.0 430234.0 0
187828.0 425883.0 0
188918.0 429491.0 0
192272.0 426126.0 0
195847.0 426786.0 0
199089.0 426709.0 0
201741.0 426181.0 0
202667.0 423462.0 0
205948.0 425273.0 0
203229.0 428692.0 0
206864.0 429217.0 0
209942.0 425468.0 0
213434.0 423537.0 0
212878.0 427115.0 0
214604.0 425773.0 0
217723.0 427378.0 0
220713.0 423970.0 0
221906.0 427970.0 0
224355.0 425107.0 0
227614.0 427265.0 0
231044.0 425282.0 0
234544.0 425990.0 0
238185.0 426209.0 0
240534.0 422784.0 0
241031.0 427280.0 0
243738.0 424674.0 0
247539.0 426276.0 0
253022.0 423133.0 0
250882.0 425861.0 0
254005.0 427454.0 0
258108.0 423805.0 0
261530.0 427892.0 0
263140.0 423629.0 0
264975.0 426923.0 0
267293.0 423952.0 0
271158.0 426657.0 0
275247.0 424152.0 0
278635.0 426646.0 0
281413.0 424577.0 0
281124.0 428688.0 0
284868.0 427521.0 0
288205.0 425292.0 0
291445.0 428077.0 0
294637.0 426131.0 0
297199.0 428945.0 0
300424.0 426512.0 0
303713.0 427594.0 0
306701.0 425818.0 0
312235.0 424908.0 0
310129.0 426426.0 0
315546.0 424762.0 0
313725.0 428159.0 0
316891.0 428951.0 0
318475.0 426015.0 0
322009.0 425356.0 0
321774.0 428668.0 0
324958.0 426495.0 0
327491.0 428817.0 0
331123.0 428169.0 0
337224.0 425351.0 0
333943.0 426685.0 0
335835.0 429525.0 0
341680.0 427717.0 0
339040.0 428175.0 0
346462.0 426665.0 0
344435.0 429547.0 0
349828.0 428368.0 0
354827.0 426540.0 0
354346.0 430200.0 0
358679.0 429536.0 0
359139.0 426028.0 0
362000.0 426473.0 0
362463.0 429119.0 0
361035.0 431494.0 0
365360.0 426840.0 0
366867.0 429879.0 0
369562.0 427545.0 0
372037.0 426421.0 0
371582.0 428885.0 0
374507.0 428902.0 0
378992.0 427346.0 0
376890.0 430573.0 0
381129.0 429692.0 0
384234.0 430582.0 0
106942.0 435181.0 0
110022.0 434695.0 0
111914.0 432623.0 0
114771.0 435371.0 0
116215.0 433086.0 0
119227.0 431658.0 0
120288.0 434584.0 0
123342.0 433717.0 0
125494.0 435578.0 0
129282.0 434672.0 0
132360.0 432642.0 0
136420.0 432050.0 0
134626.0 433860.0 0
139355.0 433727.0 0
142487.0 432190.0 0
145439.0 432202.0 0
143180.0 434719.0 0
145095.0 435138.0 0
148686.0 432601.0 0
152938.0 430182.0 0
151938.0 433329.0 0
155322.0 433119.0 0
157904.0 430822.0 0
157906.0 434458.0 0
159974.0 434985.0 0
161409.0 432091.0 0
166213.0 433790.0 0
170338.0 431412.0 0
174125.0 431772.0 0
173607.0 435134.0 0
177817.0 432432.0 0
181035.0 431645.0 0
180210.0 434435.0 0
183276.0 434210.0 0
187926.0 433517.0 0
191543.0 432625.0 0
191999.0 429252.0 0
195867.0 430931.0 0
199878.0 430096.0 0
201365.0 433603.0 0
204502.0 431619.0 0
210236.0 429597.0 0
214282.0 429827.0 0
216658.0 433022.0 0
219642.0 430925.0 0
222535.0 431470.0 0
224541.0 429108.0 0
223591.0 434158.0 0
226598.0 431823.0 0
231297.0 429813.0 0
235819.0 429855.0 0
239049.0 429473.0 0
241673.0 431782.0 0
244070.0 428603.0 0
246909.0 431380.0 0
250812.0 429164.0 0
253700.0 431384.0 0
257357.0 429928.0 0
260886.0 431793.0 0
264269.0 430920.0 0
267980.0 428959.0 0
271629.0 431318.0 0
275390.0 429044.0 0
279161.0 431721.0 0
283795.0 432085.0 0
288029.0 430359.0 0
291168.0 432720.0 0
294421.0 431244.0 0
298337.0 431732.0 0
301966.0 431179.0 0
305493.0 429883.0 0
306716.0 434017.0 0
309472.0 430244.0 0
311135.0 434502.0 0
313230.0 431634.0 0
316041.0 432192.0 0
319111.0 431682.0 0
321854.0 433014.0 0
324504.0 430989.0 0
326073.0 434373.0 0
330641.0 431038.0 0
328708.0 432140.0 0
331474.0 433778.0 0
333667.0 431376.0 0
338674.0 431355.0 0
336442.0 433387.0 0
341589.0 432380.0 0
341029.0 435689.0 0
346562.0 432149.0 0
345093.0 434800.0 0
349029.0 430782.0 0
349141.0 434122.0 0
351422.0 432812.0 0
356162.0 433489.0 0
359381.0 434322.0 0
364260.0 435150.0 0
364589.0 432444.0 0
368131.0 434709.0 0
370287.0 432247.0 0
372552.0 435412.0 0
373675.0 431816.0 0
375610.0 435254.0 0
376805.0 433044.0 0
379874.0 432758.0 0
381061.0 435697.0 0
383789.0 433930.0 0
386738.0 431914.0 0
388848.0 434323.0 0
391434.0 436132.0 0
394707.0 436858.0 0
100384.0 440349.0 0
102416.0 438473.0 0
105117.0 437355.0 0
110193.0 437813.0 0
106883.0 439843.0 0
113693.0 437472.0 0
112105.0 440795.0 0
117763.0 436934.0 0
119986.0 438902.0 0
116174.0 440430.0 0
120469.0 441166.0 0
121904.0 437462.0 0
124490.0 438440.0 0
123655.0 441274.0 0
128221.0 438732.0 0
131109.0 439524.0 0
132245.0 436709.0 0
133411.0 440026.0 0
135957.0 437004.0 0
136892.0 440629.0 0
139477.0 437918.0 0
140115.0 440027.0 0
141259.0 436310.0 0
143307.0 437551.0 0
145803.0 437886.0 0
146366.0 440340.0 0
148250.0 436192.0 0
149664.0 439494.0 0
151800.0 436385.0 0
152496.0 439769.0 0
155021.0 437220.0 0
158351.0 437033.0 0
160489.0 440231.0 0
163867.0 435138.0 0
161909.0 436732.0 0
164856.0 439862.0 0
166905.0 436773.0 0
169917.0 435307.0 0
168990.0 439559.0 0
172611.0 438954.0 0
176745.0 436507.0 0
179673.0 436132.0 0
179140.0 439280.0 0
181789.0 437629.0 0
186560.0 438084.0 0
191163.0 436250.0 0
194196.0 435000.0 0
195605.0 437962.0 0
197770.0 434491.0 0
200173.0 437997.0 0
204619.0 435360.0 0
204236.0 438923.0 0
207537.0 433174.0 0
207814.0 437048.0 0
211938.0 434289.0 0
210605.0 438581.0 0
213766.0 438068.0 0
220176.0 434001.0 0
217008.0 437187.0 0
221407.0 437566.0 0
226515.0 436494.0 0
229398.0 433749.0 0
230529.0 436667.0 0
233305.0 433867.0 0
234095.0 438521.0 0
237566.0 434047.0 0
238050.0 438343.0 0
244260.0 434804.0 0
241045.0 436546.0 0
247623.0 437539.0 0
250547.0 433944.0 0
253882.0 435275.0 0
252179.0 438545.0 0
256126.0 433828.0 0
259086.0 435040.0 0
262963.0 434909.0 0
267965.0 433944.0 0
265599.0 437986.0 0
272181.0 435267.0 0
278220.0 435383.0 0
275124.0 433694.0 0
279491.0 439640.0 0
275240.0 438095.0 0
281682.0 435709.0 0
287579.0 434086.0 0
285150.0 435821.0 0
287148.0 437199.0 0
290264.0 436366.0 0
296751.0 433558.0 0
293995.0 435372.0 0
297703.0 438034.0 0
299849.0 434747.0 0
303069.0 435592.0 0
306469.0 437989.0 0
310422.0 438135.0 0
314966.0 434995.0 0
314457.0 438502.0 0
318008.0 438352.0 0
318401.0 435164.0 0
321969.0 435729.0 0
320898.0 438168.0 0
325235.0 437922.0 0
329349.0 435886.0 0
328959.0 438967.0 0
332418.0 438425.0 0
334065.0 435906.0 0
336575.0 437680.0 0
338221.0 435295.0 0
339359.0 438744.0 0
342290.0 438351.0 0
341859.0 439771.0 0
343752.0 439941.0 0
347960.0 436428.0 0
344210.0 437581.0 0
346697.0 439112.0 0
350424.0 437183.0 0
352899.0 435742.0 0
357556.0 437089.0 0
354108.0 439545.0 0
355728.0 436830.0 0
361625.0 436997.0 0
359145.0 439207.0 0
366775.0 437492.0 0
364172.0 440235.0 0
368510.0 439967.0 0
370015.0 436839.0 0
370214.0 438819.0 0
372693.0 438764.0 0
375157.0 438273.0 0
378467.0 437185.0 0
376579.0 439354.0 0
383246.0 437977.0 0
379485.0 439832.0 0
381579.0 440052.0 0
385852.0 436023.0 0
385568.0 440352.0 0
387974.0 438967.0 0
391779.0 439747.0 0
394372.0 441142.0 0
397004.0 439172.0 0
399593.0 441085.0 0
95160.4 444283.0 0
92074.8 445782.0 0
97937.0 442339.0 0
100048.0 444435.0 0
103597.0 442002.0 0
103476.0 444718.0 0
105353.0 446521.0 0
108049.0 442769.0 0
108672.0 445287.0 0
112425.0 444149.0 0
116386.0 443902.0 0
119906.0 443543.0 0
123402.0 443670.0 0
121073.0 445780.0 0
127286.0 442140.0 0
130566.0 442263.0 0
126825.0 445301.0 0
130681.0 444961.0 0
134450.0 443421.0 0
138941.0 442481.0 0
137941.0 445179.0 0
142940.0 440900.0 0
141841.0 444431.0 0
146454.0 443031.0 0
149782.0 443015.0 0
153133.0 443394.0 0
155218.0 445935.0 0
156298.0 441358.0 0
157826.0 444986.0 0
160945.0 443964.0 0
164061.0 443631.0 0
166933.0 443013.0 0
169751.0 442720.0 0
175747.0 440475.0 0
172902.0 443124.0 0
175879.0 444184.0 0
178690.0 442637.0 0
182851.0 441356.0 0
185779.0 442848.0 0
188533.0 442115.0 0
191680.0 439716.0 0
193625.0 442925.0 0
196929.0 441228.0 0
200423.0 442839.0 0
204093.0 442508.0 0
208121.0 442086.0 0
213661.0 441826.0 0
218462.0 442235.0 0
224459.0 440963.0 0
229171.0 440135.0 0
232273.0 442915.0 0
236964.0 442351.0 0
240073.0 440176.0 0
243492.0 439643.0 0
246116.0 443599.0 0
249869.0 441768.0 0
253717.0 443106.0 0
256392.0 438792.0 0
257843.0 443463.0 0
261418.0 440138.0 0
265766.0 441567.0 0
270110.0 439424.0 0
273995.0 441615.0 0
276985.0 443828.0 0
284309.0 439549.0 0
281973.0 444483.0 0
286026.0 443238.0 0
289017.0 440482.0 0
293171.0 439405.0 0
292692.0 443652.0 0
295757.0 441651.0 0
298346.0 441907.0 0
302615.0 440118.0 0
300399.0 443928.0 0
305932.0 443231.0 0
308098.0 441164.0 0
309795.0 443827.0 0
311593.0 441782.0 0
314984.0 442258.0 0
323030.0 440771.0 0
319167.0 442148.0 0
321918.0 445113.0 0
324811.0 444025.0 0
326623.0 441409.0 0
331678.0 441076.0 0
329325.0 443383.0 0
333589.0 443673.0 0
335065.0 440426.0 0
338564.0 442336.0 0
342724.0 443283.0 0
346665.0 442251.0 0
350679.0 440801.0 0
351845.0 444908.0 0
356771.0 440675.0 0
354546.0 443159.0 0
357910.0 444126.0 0
361098.0 442057.0 0
362269.0 445898.0 0
365898.0 444126.0 0
369431.0 443063.0 0
372925.0 441941.0 0
374045.0 445773.0 0
376001.0 441694.0 0
378792.0 442249.0 0
376682.0 444655.0 0
383507.0 442566.0 0
381421.0 444557.0 0
386771.0 445689.0 0
387550.0 443501.0 0
390019.0 441876.0 0
391354.0 444225.0 0
394404.0 443613.0 0
397606.0 443594.0 0
395352.0 446091.0 0
398216.0 446486.0 0
402332.0 442606.0 0
400429.0 445524.0 0
405523.0 443785.0 0
404402.0 446609.0 0
408316.0 446014.0 0
79894.5 451721.0 0
88780.1 446903.0 0
86305.8 449564.0 0
89638.3 450205.0 0
92241.9 448913.0 0
95435.7 450586.0 0
97236.6 447723.0 0
99372.6 450463.0 0
100609.0 447456.0 0
105503.0 449341.0 0
102410.0 449703.0 0
109202.0 448390.0 0
112605.0 446704.0 0
111695.0 450224.0 0
114384.0 448729.0 0
116830.0 446546.0 0
119152.0 448801.0 0
123734.0 446798.0 0
121751.0 450714.0 0
124963.0 450054.0 0
128036.0 448707.0 0
131207.0 447752.0 0
134559.0 447364.0 0
131896.0 450708.0 0
135026.0 450782.0 0
138426.0 448075.0 0
141447.0 447787.0 0
145284.0 446086.0 0
142371.0 450668.0 0
145404.0 449470.0 0
149146.0 446416.0 0
148939.0 449699.0 0
152197.0 446769.0 0
152278.0 449956.0 0
155147.0 448306.0 0
156452.0 450525.0 0
158644.0 447877.0 0
166116.0 446272.0 0
162247.0 446769.0 0
165143.0 449874.0 0
169293.0 445715.0 0
168606.0 449404.0 0
172654.0 447816.0 0
177380.0 447403.0 0
181581.0 445840.0 0
183598.0 449526.0 0
189791.0 445458.0 0
185743.0 445722.0 0
187010.0 449258.0 0
193597.0 447190.0 0
197036.0 445507.0 0
199913.0 448672.0 0
203618.0 445857.0 0
207152.0 447226.0 0
210972.0 445573.0 0
214893.0 447016.0 0
218890.0 447074.0 0
222187.0 445077.0 0
224374.0 448166.0 0
227638.0 444860.0 0
231252.0 448019.0 0
234836.0 446057.0 0
238046.0 446990.0 0
241263.0 444042.0 0
243928.0 447717.0 0
240840.0 447966.0 0
247425.0 447939.0 0
250459.0 446007.0 0
253734.0 448489.0 0
255813.0 445813.0 0
258471.0 448430.0 0
261102.0 445288.0 0
264371.0 444843.0 0
268131.0 443675.0 0
267660.0 448213.0 0
271866.0 444864.0 0
275201.0 448122.0 0
279240.0 448688.0 0
283463.0 449374.0 0
288984.0 444618.0 0
285820.0 446519.0 0
288390.0 447708.0 0
291613.0 447532.0 0
294460.0 447228.0 0
296726.0 445019.0 0
297351.0 449383.0 0
299877.0 447010.0 0
303456.0 446178.0 0
307188.0 446187.0 0
313104.0 444953.0 0
310356.0 447353.0 0
314526.0 449166.0 0
317720.0 446290.0 0
322257.0 449059.0 0
326336.0 446816.0 0
330427.0 447237.0 0
334117.0 447298.0 0
337263.0 445842.0 0
337139.0 448436.0 0
340982.0 447805.0 0
348165.0 445324.0 0
345091.0 446737.0 0
347964.0 449249.0 0
351652.0 448728.0 0
355506.0 446540.0 0
358667.0 447223.0 0
360192.0 450693.0 0
367444.0 447878.0 0
364251.0 449250.0 0
368751.0 451146.0 0
370784.0 446876.0 0
372349.0 450333.0 0
378977.0 447116.0 0
375978.0 449487.0 0
384315.0 447509.0 0
381805.0 449868.0 0
389076.0 448512.0 0
387012.0 450993.0 0
390902.0 446349.0 0
393756.0 448104.0 0
391699.0 450221.0 0
396053.0 450724.0 0
398649.0 449672.0 0
402222.0 447125.0 0
401571.0 449292.0 0
403900.0 451188.0 0
406559.0 449221.0 0
408986.0 451202.0 0
410831.0 446877.0 0
412898.0 447866.0 0
411219.0 449883.0 0
413415.0 451287.0 0
414823.0 448605.0 0
418808.0 451610.0 0
78200.6 454728.0 0
74862.3 456367.0 0
83272.1 451466.0 0
82033.6 454751.0 0
87393.6 452799.0 0
90267.0 452999.0 0
85914.2 454957.0 0
89636.9 456040.0 0
92726.4 452722.0 0
93869.3 454764.0 0
97472.4 453432.0 0
97010.4 456861.0 0
101561.0 453395.0 0
104579.0 455492.0 0
105621.0 452193.0 0
108567.0 451429.0 0
110193.0 453454.0 0
107205.0 454708.0 0
112793.0 452506.0 0
116118.0 451859.0 0
115535.0 455334.0 0
119004.0 455581.0 0
119290.0 453213.0 0
122488.0 453954.0 0
125393.0 455711.0 0
129099.0 451836.0 0
126027.0 452886.0 0
128227.0 454353.0 0
131212.0 453965.0 0
134775.0 454851.0 0
138903.0 451578.0 0
139792.0 454970.0 0
143692.0 454063.0 0
146156.0 452227.0 0
149031.0 452996.0 0
153974.0 452688.0 0
161734.0 450408.0 0
158885.0 451266.0 0
157982.0 454807.0 0
162133.0 453851.0 0
166767.0 453701.0 0
171011.0 452574.0 0
175496.0 451640.0 0
179734.0 450485.0 0
182486.0 452722.0 0
186064.0 452882.0 0
189180.0 453813.0 0
190645.0 450380.0 0
195376.0 450228.0 0
193003.0 453971.0 0
197754.0 454025.0 0
204133.0 449546.0 0
202350.0 452764.0 0
206579.0 451818.0 0
210430.0 449814.0 0
213235.0 451574.0 0
217078.0 451516.0 0
220105.0 453564.0 0
220889.0 449637.0 0
223579.0 452390.0 0
227689.0 450649.0 0
231016.0 453249.0 0
234964.0 450968.0 0
238560.0 450404.0 0
241716.0 451240.0 0
246047.0 452187.0 0
250245.0 450841.0 0
256176.0 451260.0 0
259123.0 453293.0 0
262904.0 449644.0 0
266896.0 452820.0 0
270656.0 452092.0 0
271823.0 449012.0 0
273596.0 451478.0 0
276572.0 452265.0 0
281057.0 453352.0 0
286199.0 453758.0 0
286673.0 449795.0 0
289653.0 450575.0 0
290451.0 453639.0 0
293933.0 451278.0 0
298120.0 453589.0 0
301918.0 451002.0 0
306558.0 450121.0 0
305190.0 454092.0 0
308736.0 454358.0 0
310438.0 450917.0 0
313056.0 453705.0 0
316488.0 453229.0 0
318867.0 450905.0 0
320241.0 454437.0 0
323403.0 453706.0 0
326907.0 451248.0 0
331207.0 450876.0 0
330230.0 454518.0 0
333664.0 454516.0 0
335009.0 450762.0 0
339031.0 450842.0 0
337631.0 454682.0 0
341462.0 453736.0 0
344205.0 450908.0 0
348800.0 452402.0 0
351277.0 451972.0 0
353208.0 454157.0 0
355676.0 450451.0 0
359369.0 454576.0 0
362148.0 454207.0 0
365456.0 453139.0 0
368295.0 455380.0 0
373851.0 453311.0 0
370901.0 454057.0 0
375269.0 453030.0 0
379080.0 452850.0 0
376872.0 455591.0 0
384381.0 453298.0 0
388492.0 455924.0 0
389871.0 453366.0 0
393691.0 453314.0 0
392628.0 456387.0 0
398192.0 454483.0 0
400686.0 453030.0 0
403004.0 455408.0 0
406052.0 454404.0 0
409570.0 454268.0 0
412225.0 453487.0 0
413905.0 455614.0 0
416342.0 450881.0 0
416131.0 453916.0 0
418311.0 457006.0 0
418793.0 454849.0 0
420901.0 453341.0 0
423407.0 454965.0 0
426386.0 456484.0 0
68670.4 459446.0 0
66079.2 462123.0 0
69283.6 462411.0 0
71652.6 458299.0 0
72767.0 461787.0 0
75627.9 459163.0 0
79202.9 457856.0 0
77840.9 460482.0 0
82520.8 459158.0 0
88007.7 459106.0 0
85707.5 458131.0 0
92714.6 458073.0 0
89601.2 460929.0 0
97291.5 459791.0 0
94493.0 461561.0 0
100964.0 457606.0 0
104421.0 458776.0 0
99919.8 461172.0 0
108258.0 458157.0 0
109557.0 461230.0 0
112021.0 456444.0 0
113366.0 459745.0 0
117000.0 458400.0 0
121536.0 457655.0 0
129162.0 457141.0 0
125624.0 460490.0 0
132896.0 458978.0 0
137320.0 457282.0 0
136887.0 460224.0 0
139531.0 458028.0 0
140255.0 460501.0 0
142862.0 457987.0 0
146729.0 455865.0 0
145950.0 459418.0 0
149154.0 458331.0 0
151401.0 455526.0 0
152523.0 459963.0 0
154487.0 456794.0 0
156938.0 459611.0 0
160482.0 457583.0 0
163472.0 457146.0 0
164747.0 459708.0 0
168630.0 458318.0 0
173201.0 456230.0 0
178525.0 455258.0 0
179908.0 459461.0 0
182996.0 456212.0 0
186406.0 456536.0 0
187360.0 459743.0 0
189962.0 457097.0 0
194327.0 458640.0 0
198429.0 458143.0 0
200944.0 456403.0 0
200887.0 459525.0 0
205010.0 456656.0 0
210014.0 454993.0 0
214227.0 454972.0 0
217497.0 457520.0 0
222497.0 456834.0 0
226937.0 455207.0 0
230496.0 458130.0 0
234149.0 455201.0 0
235163.0 458765.0 0
238300.0 454930.0 0
242539.0 454802.0 0
241881.0 457882.0 0
245908.0 457384.0 0
249262.0 455100.0 0
253697.0 454630.0 0
257488.0 457431.0 0
263291.0 453898.0 0
261396.0 457864.0 0
266576.0 457664.0 0
270270.0 455412.0 0
273509.0 454135.0 0
272944.0 457487.0 0
276838.0 456864.0 0
280874.0 458058.0 0
283723.0 456938.0 0
286373.0 458548.0 0
289663.0 457032.0 0
294190.0 456123.0 0
298632.0 457896.0 0
302255.0 455757.0 0
306445.0 458048.0 0
312157.0 458343.0 0
316532.0 456433.0 0
320326.0 458017.0 0
323810.0 457826.0 0
326842.0 455794.0 0
327698.0 459091.0 0
330974.0 458349.0 0
334459.0 457474.0 0
337881.0 458198.0 0
342123.0 457959.0 0
346229.0 454975.0 0
346615.0 459467.0 0
350462.0 455778.0 0
349921.0 458412.0 0
353734.0 458554.0 0
356425.0 455560.0 0
358003.0 459699.0 0
360662.0 457366.0 0
364058.0 457087.0 0
367106.0 458141.0 0
366624.0 460847.0 0
373786.0 456924.0 0
370243.0 458230.0 0
373484.0 460802.0 0
379058.0 458474.0 0
376459.0 459887.0 0
381384.0 456417.0 0
382691.0 459943.0 0
385406.0 457460.0 0
389322.0 459257.0 0
387169.0 460654.0 0
390864.0 457387.0 0
392257.0 460870.0 0
396327.0 456634.0 0
394633.0 458756.0 0
398654.0 458573.0 0
397552.0 461215.0 0
400674.0 457453.0 0
403428.0 459388.0 0
400954.0 462271.0 0
406777.0 457697.0 0
409827.0 456490.0 0
408583.0 460345.0 0
411891.0 458667.0 0
415443.0 459954.0 0
416138.0 457683.0 0
418548.0 461422.0 0
420479.0 459380.0 0
422172.0 457282.0 0
424799.0 458635.0 0
424080.0 461951.0 0
428764.0 458409.0 0
427151.0 460790.0 0
431527.0 460107.0 0
57190.8 466800.0 0
59740.9 465040.0 0
62774.3 463820.0 0
63347.9 466854.0 0
66483.3 465107.0 0
69153.2 464916.0 0
72121.0 465521.0 0
67751.5 466788.0 0
75863.9 462964.0 0
78440.3 465774.0 0
82063.8 463543.0 0
86642.7 461924.0 0
87899.7 464881.0 0
91205.5 464200.0 0
94360.0 465911.0 0
97406.4 464216.0 0
102195.0 463029.0 0
103525.0 465727.0 0
100194.0 466245.0 0
104840.0 461701.0 0
106986.0 463770.0 0
109414.0 465481.0 0
112500.0 463708.0 0
116364.0 462595.0 0
119965.0 461346.0 0
116778.0 465844.0 0
119734.0 465084.0 0
122843.0 463929.0 0
129917.0 461622.0 0
127150.0 464243.0 0
130425.0 464322.0 0
133982.0 463679.0 0
138446.0 463856.0 0
143297.0 462768.0 0
148538.0 462484.0 0
153522.0 463842.0 0
157848.0 463199.0 0
161308.0 460935.0 0
161087.0 465429.0 0
164890.0 462801.0 0
169237.0 463774.0 0
172351.0 460976.0 0
174173.0 464895.0 0
175981.0 460318.0 0
178937.0 463873.0 0
183463.0 460493.0 0
182626.0 464650.0 0
186568.0 463790.0 0
190374.0 461525.0 0
193933.0 464116.0 0
197539.0 461605.0 0
200403.0 462656.0 0
204044.0 461490.0 0
208643.0 460096.0 0
212859.0 459241.0 0
211237.0 463610.0 0
215877.0 463270.0 0
220745.0 461276.0 0
224121.0 464430.0 0
225589.0 459777.0 0
228385.0 462407.0 0
232556.0 462897.0 0
236548.0 461985.0 0
239048.0 459610.0 0
242377.0 460455.0 0
240717.0 464227.0 0
245554.0 462029.0 0
250389.0 459651.0 0
254624.0 459586.0 0
253782.0 463639.0 0
258383.0 462171.0 0
264054.0 462979.0 0
268462.0 461760.0 0
270665.0 459636.0 0
271126.0 462945.0 0
274595.0 461619.0 0
278836.0 461555.0 0
283225.0 461459.0 0
287153.0 463173.0 0
289184.0 460378.0 0
290725.0 463938.0 0
292376.0 460314.0 0
294446.0 464033.0 0
295627.0 460422.0 0
298693.0 463163.0 0
302547.0 460074.0 0
302651.0 463962.0 0
306150.0 462830.0 0
309514.0 461553.0 0
313295.0 463900.0 0
317318.0 460831.0 0
320591.0 463969.0 0
322035.0 461345.0 0
323954.0 464533.0 0
325824.0 461694.0 0
330223.0 462802.0 0
334802.0 461570.0 0
337544.0 465127.0 0
340066.0 462202.0 0
344556.0 463305.0 0
348243.0 462733.0 0
348527.0 465400.0 0
351107.0 461701.0 0
351785.0 465621.0 0
355280.0 463242.0 0
362869.0 461465.0 0
359389.0 463918.0 0
367816.0 463450.0 0
370316.0 461244.0 0
371345.0 464025.0 0
374104.0 463476.0 0
377459.0 462881.0 0
380404.0 461849.0 0
382368.0 465074.0 0
384738.0 462465.0 0
386850.0 465352.0 0
389779.0 463561.0 0
391930.0 465943.0 0
394958.0 463732.0 0
398525.0 465625.0 0
402228.0 465121.0 0
405023.0 465159.0 0
405389.0 462205.0 0
409737.0 464305.0 0
412931.0 462483.0 0
414887.0 466638.0 0
416096.0 463683.0 0
419123.0 465927.0 0
421146.0 463799.0 0
423100.0 466383.0 0
429372.0 462337.0 0
428051.0 463825.0 0
425893.0 465464.0 0
430277.0 467059.0 0
431034.0 464278.0 0
434035.0 462385.0 0
434582.0 465706.0 0
437271.0 463243.0 0
439241.0 464977.0 0
442498.0 466722.0 0
51651.2 470564.0 0
54645.0 469029.0 0
56890.2 471543.0 0
60146.0 468863.0 0
62807.6 472240.0 0
65350.8 469148.0 0
68014.4 470716.0 0
69995.4 468136.0 0
74644.8 467239.0 0
71866.2 469730.0 0
70217.2 472017.0 0
75143.7 470599.0 0
78818.0 469745.0 0
81885.4 469364.0 0
82137.1 471806.0 0
85061.8 467197.0 0
87994.8 469874.0 0
90663.7 468107.0 0
93727.2 468661.0 0
96572.5 467790.0 0
98318.6 469830.0 0
102008.0 469721.0 0
105688.0 467870.0 0
104818.0 471583.0 0
108877.0 468560.0 0
113381.0 467852.0 0
117333.0 469553.0 0
119226.0 471762.0 0
120261.0 468056.0 0
124308.0 467259.0 0
129050.0 467989.0 0
133366.0 467455.0 0
137138.0 467357.0 0
139200.0 470432.0 0
140994.0 466757.0 0
143057.0 469440.0 0
145543.0 466366.0 0
146574.0 470176.0 0
149866.0 466904.0 0
153751.0 468433.0 0
156839.0 466295.0 0
158189.0 469733.0 0
165134.0 466191.0 0
162942.0 469106.0 0
168274.0 468651.0 0
171569.0 467074.0 0
173008.0 469860.0 0
176842.0 467957.0 0
180615.0 467666.0 0
184083.0 467336.0 0
187350.0 467598.0 0
190207.0 465339.0 0
191753.0 468494.0 0
197788.0 465458.0 0
195303.0 467796.0 0
202073.0 466516.0 0
207062.0 464364.0 0
206013.0 468630.0 0
209526.0 467093.0 0
212748.0 467677.0 0
216694.0 468387.0 0
219708.0 465070.0 0
220823.0 468547.0 0
225268.0 469132.0 0
228746.0 466212.0 0
232872.0 468353.0 0
236085.0 465042.0 0
237745.0 469052.0 0
245088.0 467065.0 0
241740.0 469057.0 0
249403.0 464987.0 0
252900.0 468454.0 0
257064.0 467093.0 0
260895.0 466448.0 0
268555.0 465641.0 0
264942.0 469046.0 0
273068.0 466355.0 0
277625.0 465672.0 0
281366.0 464936.0 0
281563.0 469468.0 0
284946.0 466521.0 0
288823.0 467118.0 0
292117.0 466843.0 0
296290.0 468680.0 0
301052.0 467411.0 0
304977.0 466953.0 0
307643.0 466381.0 0
309705.0 465288.0 0
308744.0 469345.0 0
311874.0 467846.0 0
317359.0 465080.0 0
315775.0 468900.0 0
319497.0 466837.0 0
322156.0 466574.0 0
327441.0 465908.0 0
324931.0 468203.0 0
334146.0 465652.0 0
331382.0 467198.0 0
337146.0 469793.0 0
341360.0 467048.0 0
345571.0 468135.0 0
349342.0 468731.0 0
352603.0 468462.0 0
355967.0 467188.0 0
359917.0 467896.0 0
365754.0 470291.0 0
364552.0 466120.0 0
369075.0 465654.0 0
371384.0 466633.0 0
368706.0 468637.0 0
372706.0 469875.0 0
374859.0 466877.0 0
378785.0 466563.0 0
376726.0 469892.0 0
380869.0 469522.0 0
385286.0 469370.0 0
394130.0 466757.0 0
389945.0 467848.0 0
392745.0 469894.0 0
397549.0 469644.0 0
401759.0 467799.0 0
404073.0 467889.0 0
407585.0 467794.0 0
405231.0 470551.0 0
410480.0 469336.0 0
412325.0 467070.0 0
413339.0 470415.0 0
417403.0 468242.0 0
415750.0 470299.0 0
417573.0 472310.0 0
419663.0 470211.0 0
421502.0 468294.0 0
423828.0 470018.0 0
426881.0 469057.0 0
435775.0 468520.0 0
432382.0 470207.0 0
439278.0 467886.0 0
437317.0 471830.0 0
440556.0 470986.0 0
443075.0 470036.0 0
445347.0 468287.0 0
450438.0 471510.0 0
447708.0 470411.0 0
40171.5 477271.0 0
45969.2 474329.0 0
48810.7 472268.0 0
47088.0 477060.0 0
50103.6 475030.0 0
53276.2 473684.0 0
52420.2 477056.0 0
55978.8 475478.0 0
59477.4 473311.0 0
59103.6 476353.0 0
62746.8 476330.0 0
66436.2 473572.0 0
66216.8 477440.0 0
69466.2 475045.0 0
72525.8 472357.0 0
72984.8 475528.0 0
76303.9 473837.0 0
79161.8 472624.0 0
77640.5 476536.0 0
84794.1 471729.0 0
81209.4 474819.0 0
88094.5 473576.0 0
84683.8 475203.0 0
88957.6 476203.0 0
91247.2 471778.0 0
94568.0 471458.0 0
91324.8 474399.0 0
98385.0 473126.0 0
94621.3 475019.0 0
101718.0 473654.0 0
107321.0 471428.0 0
105159.0 474701.0 0
108398.0 474611.0 0
110738.0 471617.0 0
114168.0 471945.0 0
112248.0 473845.0 0
114259.0 474817.0 0
116917.0 473257.0 0
119520.0 474490.0 0
122018.0 471416.0 0
122324.0 474696.0 0
126290.0 472222.0 0
129744.0 474199.0 0
131395.0 471390.0 0
133269.0 474374.0 0
135274.0 470829.0 0
137380.0 474697.0 0
142699.0 473635.0 0
150122.0 470759.0 0
146315.0 475625.0 0
147052.0 472846.0 0
149886.0 474309.0 0
153706.0 472151.0 0
156451.0 472294.0 0
156538.0 474718.0 0
160822.0 473690.0 0
165665.0 472381.0 0
168512.0 474923.0 0
170151.0 471933.0 0
172581.0 474761.0 0
176067.0 472155.0 0
179090.0 470757.0 0
179081.0 473511.0 0
183351.0 471959.0 0
188208.0 470841.0 0
187291.0 474463.0 0
191113.0 472924.0 0
194840.0 471301.0 0
197759.0 473043.0 0
198364.0 469562.0 0
202485.0 472542.0 0
209050.0 471577.0 0
213796.0 472161.0 0
218354.0 473211.0 0
222508.0 472268.0 0
225893.0 473907.0 0
228813.0 470954.0 0
231529.0 472407.0 0
234919.0 473932.0 0
239916.0 473406.0 0
244413.0 472183.0 0
248689.0 470361.0 0
252150.0 473506.0 0
256059.0 471563.0 0
260551.0 470391.0 0
267606.0 473020.0 0
269634.0 469572.0 0
272742.0 470054.0 0
272022.0 474334.0 0
276485.0 470444.0 0
280049.0 473195.0 0
283430.0 474188.0 0
286693.0 471124.0 0
291278.0 470171.0 0
294382.0 473150.0 0
298347.0 474199.0 0
300716.0 471160.0 0
304716.0 470924.0 0
308389.0 473941.0 0
312380.0 471789.0 0
316849.0 474111.0 0
320860.0 470755.0 0
323666.0 474277.0 0
328610.0 470313.0 0
325366.0 471636.0 0
327668.0 475277.0 0
332587.0 470696.0 0
331308.0 473847.0 0
335222.0 474407.0 0
339842.0 474698.0 0
342476.0 471573.0 0
346766.0 471985.0 0
351290.0 472059.0 0
355481.0 471164.0 0
358963.0 471863.0 0
359598.0 475204.0 0
362812.0 470651.0 0
361897.0 473265.0 0
365090.0 473565.0 0
369213.0 472846.0 0
374331.0 473532.0 0
379309.0 473290.0 0
383845.0 473677.0 0
389149.0 471034.0 0
388142.0 474533.0 0
392275.0 473844.0 0
396315.0 473453.0 0
398870.0 474831.0 0
401726.0 472010.0 0
402633.0 476281.0 0
408814.0 471908.0 0
406465.0 474672.0 0
412200.0 473765.0 0
415480.0 474855.0 0
420051.0 473865.0 0
421079.0 476610.0 0
422121.0 472361.0 0
425958.0 473515.0 0
423396.0 475506.0 0
429506.0 472377.0 0
434285.0 473596.0 0
431678.0 476178.0 0
438533.0 475604.0 0
442202.0 474072.0 0
444910.0 472644.0 0
443717.0 476558.0 0
450190.0 474845.0 0
447047.0 475110.0 0
453202.0 473489.0 0
455743.0 475806.0 0
452278.0 477373.0 0
458934.0 477417.0 0
32034.2 483062.0 0
34062.6 480671.0 0
37356.4 479693.0 0
36291.1 482555.0 0
40281.4 480453.0 0
43096.2 476193.0 0
45582.1 479141.0 0
43023.7 480145.0 0
49433.9 477916.0 0
51338.6 479809.0 0
48414.6 480428.0 0
54714.9 478722.0 0
57857.2 479515.0 0
53842.4 482485.0 0
57607.8 482855.0 0
61342.4 480192.0 0
64366.6 480540.0 0
67855.8 481343.0 0
70345.8 478794.0 0
72374.8 481011.0 0
74760.3 478309.0 0
78272.9 479345.0 0
76081.0 481076.0 0
80619.3 477677.0 0
80826.2 481077.0 0
83227.0 478725.0 0
86712.9 478096.0 0
84958.1 480821.0 0
89089.6 480359.0 0
91593.2 477768.0 0
98445.7 477114.0 0
94498.0 478418.0 0
96015.1 480465.0 0
102965.0 477745.0 0
99766.1 481446.0 0
106796.0 478255.0 0
111337.0 477043.0 0
113918.0 480023.0 0
116434.0 477081.0 0
124439.0 476333.0 0
120470.0 478685.0 0
127535.0 476551.0 0
124986.0 480002.0 0
128694.0 479269.0 0
130958.0 477054.0 0
133886.0 477351.0 0
131985.0 480008.0 0
136252.0 479795.0 0
140209.0 477854.0 0
143943.0 478680.0 0
148687.0 478539.0 0
152912.0 476196.0 0
152559.0 479845.0 0
155672.0 477949.0 0
159002.0 477765.0 0
164040.0 477465.0 0
168814.0 478691.0 0
173635.0 479920.0 0
176764.0 475971.0 0
178600.0 479781.0 0
180914.0 476412.0 0
181895.0 479959.0 0
184905.0 477804.0 0
189701.0 477123.0 0
194231.0 475838.0 0
195593.0 479345.0 0
198458.0 476470.0 0
202345.0 478010.0 0
206685.0 475880.0 0
211058.0 475947.0 0
215037.0 476518.0 0
218751.0 478082.0 0
222203.0 475844.0 0
225720.0 477930.0 0
229891.0 475796.0 0
233638.0 479065.0 0
238018.0 477870.0 0
242784.0 477148.0 0
247648.0 476112.0 0
252090.0 478269.0 0
258446.0 478268.0 0
255499.0 476109.0 0
259276.0 474511.0 0
261406.0 477948.0 0
263894.0 474470.0 0
264443.0 479458.0 0
267790.0 477172.0 0
271469.0 479424.0 0
274838.0 478257.0 0
276870.0 475216.0 0
277538.0 478857.0 0
280638.0 476979.0 0
284410.0 479057.0 0
286575.0 475813.0 0
288721.0 479272.0 0
290576.0 475102.0 0
292085.0 479182.0 0
295229.0 477707.0 0
299759.0 478611.0 0
303041.0 474958.0 0
303469.0 479275.0 0
306296.0 476925.0 0
306408.0 479527.0 0
309847.0 479239.0 0
312851.0 476355.0 0
316175.0 477945.0 0
319507.0 479110.0 0
320661.0 475416.0 0
323603.0 477785.0 0
332423.0 479059.0 0
337367.0 477881.0 0
344307.0 475995.0 0
340849.0 478931.0 0
349188.0 475917.0 0
347537.0 479264.0 0
351379.0 479961.0 0
355158.0 476273.0 0
357600.0 480661.0 0
363001.0 476184.0 0
360098.0 478502.0 0
364276.0 479799.0 0
366891.0 476865.0 0
368501.0 480340.0 0
371083.0 477203.0 0
372882.0 480882.0 0
376105.0 477868.0 0
379928.0 477410.0 0
380299.0 480317.0 0
382420.0 477013.0 0
384011.0 479959.0 0
385321.0 476994.0 0
388457.0 478886.0 0
391949.0 477759.0 0
395419.0 480121.0 0
395703.0 476610.0 0
398958.0 477852.0 0
401864.0 480309.0 0
410151.0 477129.0 0
406277.0 479976.0 0
414073.0 478628.0 0
411134.0 481222.0 0
413879.0 481642.0 0
418097.0 476752.0 0
417739.0 480505.0 0
424558.0 478191.0 0
421683.0 479092.0 0
425259.0 481176.0 0
427659.0 476963.0 0
428241.0 480276.0 0
435778.0 478685.0 0
431321.0 479889.0 0
439625.0 481437.0 0
441344.0 478484.0 0
443776.0 480225.0 0
446757.0 478977.0 0
450069.0 478820.0 0
454850.0 479906.0 0
451467.0 481791.0 0
461871.0 478327.0 0
458857.0 480216.0 0
464011.0 480901.0 0
467278.0 482760.0 0
25800.8 487853.0 0
28606.9 484481.0 0
29977.7 486847.0 0
33201.8 485818.0 0
36606.8 485327.0 0
39926.6 483857.0 0
43496.4 483406.0 0
40477.9 487029.0 0
46491.5 482417.0 0
44414.7 487024.0 0
50254.6 482300.0 0
48550.0 485520.0 0
52516.0 485935.0 0
56771.7 486249.0 0
61236.2 484342.0 0
64956.0 483672.0 0
66786.3 486593.0 0
69932.4 483847.0 0
70810.3 487522.0 0
73940.0 484424.0 0
78397.2 483497.0 0
73962.0 488222.0 0
83144.4 483143.0 0
80985.6 485614.0 0
87458.9 483921.0 0
92630.7 481813.0 0
91439.8 485662.0 0
96117.8 484039.0 0
104328.0 482735.0 0
99821.5 485309.0 0
108370.0 486839.0 0
109461.0 481604.0 0
113027.0 483850.0 0
116914.0 482241.0 0
121407.0 483951.0 0
125614.0 482760.0 0
128900.0 482477.0 0
130222.0 485799.0 0
133249.0 483161.0 0
137369.0 483936.0 0
140447.0 481474.0 0
142948.0 481786.0 0
142231.0 485488.0 0
145694.0 482083.0 0
149346.0 482265.0 0
147370.0 485469.0 0
152575.0 483964.0 0
156263.0 481143.0 0
157653.0 484598.0 0
160725.0 481264.0 0
165176.0 482097.0 0
169309.0 482794.0 0
176869.0 483556.0 0
180572.0 483049.0 0
184029.0 482277.0 0
186448.0 485058.0 0
187890.0 481190.0 0
190439.0 484689.0 0
192126.0 480324.0 0
194830.0 483453.0 0
198922.0 481108.0 0
202932.0 483071.0 0
205468.0 479668.0 0
206573.0 482302.0 0
208858.0 479413.0 0
209827.0 483705.0 0
212510.0 479845.0 0
214351.0 483901.0 0
216148.0 480327.0 0
219511.0 483743.0 0
222232.0 479707.0 0
224842.0 482371.0 0
229068.0 480647.0 0
232375.0 483921.0 0
236876.0 482768.0 0
240288.0 480191.0 0
243564.0 481020.0 0
240823.0 483329.0 0
248061.0 482165.0 0
252910.0 482751.0 0
256055.0 480453.0 0
260289.0 481839.0 0
264267.0 484326.0 0
268000.0 481808.0 0
271582.0 483725.0 0
275577.0 482250.0 0
280102.0 481202.0 0
283289.0 483342.0 0
287266.0 482899.0 0
292176.0 482933.0 0
297181.0 482087.0 0
302175.0 483399.0 0
306389.0 482454.0 0
310283.0 483841.0 0
315007.0 482306.0 0
319712.0 483285.0 0
323145.0 482299.0 0
327148.0 480468.0 0
329411.0 484011.0 0
333863.0 484749.0 0
337435.0 481826.0 0
344698.0 480657.0 0
341255.0 483082.0 0
344830.0 484530.0 0
348786.0 483474.0 0
352799.0 483711.0 0
354678.0 481373.0 0
356899.0 485205.0 0
360881.0 482313.0 0
361693.0 485516.0 0
365377.0 483837.0 0
369549.0 483650.0 0
372631.0 484202.0 0
376814.0 481450.0 0
375702.0 484204.0 0
379763.0 484069.0 0
383424.0 483860.0 0
387138.0 482643.0 0
389517.0 485766.0 0
391900.0 482412.0 0
398928.0 482303.0 0
395699.0 484638.0 0
400042.0 486483.0 0
403607.0 484264.0 0
408196.0 484236.0 0
412080.0 484638.0 0
415742.0 484171.0 0
419027.0 485160.0 0
421893.0 483200.0 0
425514.0 486634.0 0
426626.0 483943.0 0
429949.0 483755.0 0
434763.0 483489.0 0
438986.0 485719.0 0
443304.0 483950.0 0
447697.0 483193.0 0
450162.0 486161.0 0
453264.0 484972.0 0
456434.0 483195.0 0
458068.0 486700.0 0
461001.0 483367.0 0
466154.0 485430.0 0
463349.0 487062.0 0
470794.0 484711.0 0
469037.0 487394.0 0
471862.0 488356.0 0
474049.0 486493.0 0
14784.4 493163.0 0
17799.9 491326.0 0
21724.0 490012.0 0
19966.6 493409.0 0
26384.4 492827.0 0
30020.3 489683.0 0
30680.1 492443.0 0
33731.8 489030.0 0
37512.2 487972.0 0
33729.1 492351.0 0
37697.7 491579.0 0
41363.1 490444.0 0
45269.6 490574.0 0
49119.4 489861.0 0
54225.6 489426.0 0
57386.2 491764.0 0
59339.3 488341.0 0
62999.6 487770.0 0
61555.3 491455.0 0
65165.0 490635.0 0
68577.4 489959.0 0
71941.0 491719.0 0
77117.4 486920.0 0
76517.4 491199.0 0
84183.6 486830.0 0
80192.9 488827.0 0
83586.6 489885.0 0
87478.0 488299.0 0
90993.7 490101.0 0
95513.1 488138.0 0
103060.0 487026.0 0
99782.7 488448.0 0
101908.0 491350.0 0
104747.0 489300.0 0
112979.0 486909.0 0
116946.0 486954.0 0
121158.0 488776.0 0
125333.0 486065.0 0
125046.0 490540.0 0
127890.0 488121.0 0
134055.0 487063.0 0
130433.0 490485.0 0
137963.0 487600.0 0
135627.0 491002.0 0
140253.0 490082.0 0
144954.0 489702.0 0
150371.0 488396.0 0
154260.0 490070.0 0
154933.0 486800.0 0
158531.0 488846.0 0
161844.0 485440.0 0
162687.0 489035.0 0
166604.0 486683.0 0
169625.0 490179.0 0
172601.0 485874.0 0
177585.0 487217.0 0
182450.0 487192.0 0
188182.0 489841.0 0
193735.0 488012.0 0
198827.0 486106.0 0
203314.0 487240.0 0
206264.0 485442.0 0
207015.0 489063.0 0
211436.0 488052.0 0
216085.0 487925.0 0
219836.0 489793.0 0
223768.0 486663.0 0
228014.0 485085.0 0
227121.0 488609.0 0
230811.0 488211.0 0
235381.0 487793.0 0
239764.0 487348.0 0
243933.0 485595.0 0
247502.0 488118.0 0
251716.0 486919.0 0
256575.0 485525.0 0
258815.0 489459.0 0
260527.0 486155.0 0
263139.0 489416.0 0
268557.0 487301.0 0
274100.0 486905.0 0
279283.0 486167.0 0
284915.0 487867.0 0
289495.0 486309.0 0
292958.0 488158.0 0
295659.0 485780.0 0
299437.0 486698.0 0
303514.0 488280.0 0
306365.0 485968.0 0
309746.0 486986.0 0
313672.0 488033.0 0
318484.0 486986.0 0
322146.0 485912.0 0
325728.0 485633.0 0
329574.0 489107.0 0
334610.0 488981.0 0
338610.0 486662.0 0
342723.0 486729.0 0
342435.0 490383.0 0
347242.0 488529.0 0
352109.0 487192.0 0
355316.0 489680.0 0
360137.0 489090.0 0
364701.0 488206.0 0
368563.0 487041.0 0
372924.0 487978.0 0
377950.0 487795.0 0
382336.0 487676.0 0
385551.0 490948.0 0
385887.0 486909.0 0
389349.0 489359.0 0
393205.0 487608.0 0
392619.0 491223.0 0
396911.0 487958.0 0
396498.0 491637.0 0
400115.0 490343.0 0
406278.0 487149.0 0
403401.0 488749.0 0
410168.0 487801.0 0
407445.0 490955.0 0
414211.0 488230.0 0
412348.0 491473.0 0
418315.0 488295.0 0
421545.0 490937.0 0
422100.0 487369.0 0
425180.0 490104.0 0
429660.0 487963.0 0
428523.0 491829.0 0
434286.0 488404.0 0
432545.0 491760.0 0
437751.0 489021.0 0
440140.0 491069.0 0
441983.0 488236.0 0
446530.0 488592.0 0
442904.0 491303.0 0
451354.0 489232.0 0
454923.0 488230.0 0
453633.0 492233.0 0
457045.0 491455.0 0
460333.0 489563.0 0
462820.0 493109.0 0
466564.0 490674.0 0
470879.0 491262.0 0
473664.0 489416.0 0
473752.0 491804.0 0
477240.0 489354.0 0
481399.0 491606.0 0
484754.0 492324.0 0
12079.3 495433.0 0
17160.9 495178.0 0
14653.1 496989.0 0
20272.6 497980.0 0
22639.0 494180.0 0
24512.5 496729.0 0
27454.0 497187.0 0
30324.4 495407.0 0
34017.4 495239.0 0
38498.4 495387.0 0
42794.9 493593.0 0
46580.8 493676.0 0
42875.4 497343.0 0
51713.8 493435.0 0
55958.4 494799.0 0
56827.4 497227.0 0
60112.9 495300.0 0
64227.3 494307.0 0
67802.8 493141.0 0
63601.0 497662.0 0
67216.1 496630.0 0
70605.4 495472.0 0
74637.6 495671.0 0
80683.2 491673.0 0
78937.4 494525.0 0
83038.4 493391.0 0
82087.1 496475.0 0
86578.1 491977.0 0
85588.3 496031.0 0
93816.3 492250.0 0
89933.3 494562.0 0
97467.0 491913.0 0
94244.1 494657.0 0
96706.3 494673.0 0
99479.8 494757.0 0
102818.0 494796.0 0
107696.0 492653.0 0
112657.0 490363.0 0
109906.0 497136.0 0
113116.0 494687.0 0
117242.0 491509.0 0
121523.0 493123.0 0
126462.0 494711.0 0
131905.0 494654.0 0
135785.0 494645.0 0
138347.0 492981.0 0
141832.0 493497.0 0
145887.0 494174.0 0
149428.0 494375.0 0
148516.0 491699.0 0
151771.0 492469.0 0
155942.0 493486.0 0
160808.0 492634.0 0
165356.0 491434.0 0
167929.0 493557.0 0
174418.0 490489.0 0
171380.0 493710.0 0
178905.0 491064.0 0
175844.0 494957.0 0
179967.0 494694.0 0
183161.0 492313.0 0
186069.0 494696.0 0
189321.0 494858.0 0
193324.0 493013.0 0
197424.0 490549.0 0
197523.0 494291.0 0
201076.0 489732.0 0
200955.0 493212.0 0
203981.0 491090.0 0
209746.0 492807.0 0
214184.0 491607.0 0
217237.0 493735.0 0
224364.0 491196.0 0
221113.0 494684.0 0
228615.0 491869.0 0
233256.0 492196.0 0
238638.0 492668.0 0
243379.0 490293.0 0
246943.0 492050.0 0
250546.0 491309.0 0
254810.0 490282.0 0
252991.0 494532.0 0
258080.0 494166.0 0
262627.0 493648.0 0
266833.0 492456.0 0
272375.0 492146.0 0
276990.0 490153.0 0
281204.0 491601.0 0
285735.0 493812.0 0
289469.0 491079.0 0
293763.0 493223.0 0
296892.0 490012.0 0
298707.0 494674.0 0
300531.0 490604.0 0
303814.0 493081.0 0
308427.0 490661.0 0
313081.0 492627.0 0
316073.0 494658.0 0
317725.0 491269.0 0
318478.0 494765.0 0
321227.0 494258.0 0
323400.0 490260.0 0
327871.0 494298.0 0
333441.0 492554.0 0
337975.0 491135.0 0
337290.0 495219.0 0
341483.0 494366.0 0
346743.0 493900.0 0
351309.0 491213.0 0
351627.0 495413.0 0
354416.0 492775.0 0
358390.0 492543.0 0
356224.0 495939.0 0
359969.0 495579.0 0
364179.0 493087.0 0
368484.0 490793.0 0
369677.0 495165.0 0
372452.0 492164.0 0
374857.0 495986.0 0
377081.0 492097.0 0
381327.0 491269.0 0
383492.0 493762.0 0
386250.0 495826.0 0
389667.0 493021.0 0
394178.0 494944.0 0
399553.0 494215.0 0
402982.0 492600.0 0
406194.0 495121.0 0
410332.0 495122.0 0
414854.0 495048.0 0
416965.0 491967.0 0
417601.0 494779.0 0
420554.0 494566.0 0
425031.0 494388.0 0
429971.0 495530.0 0
434152.0 495126.0 0
436795.0 492629.0 0
437353.0 496992.0 0
440793.0 494611.0 0
445250.0 493640.0 0
449648.0 492571.0 0
448461.0 496685.0 0
455938.0 495412.0 0
452809.0 495878.0 0
458976.0 494348.0 0
458248.0 498530.0 0
464271.0 497100.0 0
467013.0 495469.0 0
461591.0 496892.0 0
470530.0 494550.0 0
470437.0 497949.0 0
473651.0 494999.0 0
473818.0 497955.0 0
476979.0 497458.0 0
477123.0 493700.0 0
480750.0 496074.0 0
484621.0 495742.0 0
487214.0 494288.0 0
489562.0 496599.0 0
492310.0 497269.0 0
5036.4 498437.0 0
2347.4 500030.0 0
9027.65 498393.0 0
13360.9 499739.0 0
9328.81 502599.0 0
16285.6 498949.0 0
17019.3 502033.0 0
12919.8 502698.0 0
21137.8 502209.0 0
24531.9 500048.0 0
28197.8 500791.0 0
31270.0 498259.0 0
32176.2 501431.0 0
35052.6 498484.0 0
36560.3 502085.0 0
38986.9 499023.0 0
40969.0 501008.0 0
44574.1 500509.0 0
47836.5 497370.0 0
50983.6 500182.0 0
53161.6 497362.0 0
55283.1 500272.0 0
59613.2 499768.0 0
66834.9 499899.0 0
63430.6 500938.0 0
71082.2 498970.0 0
78585.3 498166.0 0
75173.4 499227.0 0
78252.3 501692.0 0
82754.7 500109.0 0
87291.1 499419.0 0
92258.9 498622.0 0
96798.0 497112.0 0
96410.1 500877.0 0
100564.0 498435.0 0
105471.0 497666.0 0
108631.0 501128.0 0
117465.0 496410.0 0
113655.0 499789.0 0
118366.0 500741.0 0
121835.0 497482.0 0
125573.0 498975.0 0
129689.0 498627.0 0
134322.0 498310.0 0
138382.0 496627.0 0
143088.0 498403.0 0
148354.0 497559.0 0
152185.0 495857.0 0
151805.0 499736.0 0
154982.0 497516.0 0
158819.0 496790.0 0
164117.0 496167.0 0
161314.0 500198.0 0
168528.0 497101.0 0
170533.0 500323.0 0
172358.0 497013.0 0
174435.0 499962.0 0
178748.0 498773.0 0
182971.0 497059.0 0
187167.0 499295.0 0
192203.0 497812.0 0
195880.0 496803.0 0
195911.0 500482.0 0
200173.0 497831.0 0
204956.0 495237.0 0
209355.0 497576.0 0
213758.0 495856.0 0
217880.0 498407.0 0
222616.0 499385.0 0
225680.0 495594.0 0
227241.0 499670.0 0
230272.0 496040.0 0
235005.0 496789.0 0
239807.0 498545.0 0
244027.0 495369.0 0
248929.0 495084.0 0
247400.0 499536.0 0
251154.0 497837.0 0
254864.0 498496.0 0
261451.0 497363.0 0
264976.0 496357.0 0
269215.0 496645.0 0
273875.0 498069.0 0
277580.0 494845.0 0
282146.0 496907.0 0
286716.0 498495.0 0
290040.0 495847.0 0
290455.0 499667.0 0
294362.0 498257.0 0
298715.0 499334.0 0
303127.0 498213.0 0
308954.0 496528.0 0
306760.0 500194.0 0
313802.0 496741.0 0
318533.0 499161.0 0
323840.0 497160.0 0
332861.0 497126.0 0
343518.0 498115.0 0
348631.0 499947.0 0
354082.0 499417.0 0
359174.0 499726.0 0
363074.0 497456.0 0
367231.0 498047.0 0
372227.0 499978.0 0
380557.0 496302.0 0
377057.0 499562.0 0
380424.0 501042.0 0
384802.0 500329.0 0
389515.0 499834.0 0
390713.0 496620.0 0
393769.0 499002.0 0
397708.0 497539.0 0
400733.0 501275.0 0
402735.0 497612.0 0
407847.0 499240.0 0
412955.0 498841.0 0
418427.0 498309.0 0
423260.0 498358.0 0
426867.0 497831.0 0
426664.0 501564.0 0
430629.0 501397.0 0
429746.0 499000.0 0
433513.0 498876.0 0
440822.0 498450.0 0
437961.0 501482.0 0
444257.0 497673.0 0
442782.0 501739.0 0
451605.0 499476.0 0
447187.0 500845.0 0
450452.0 502323.0 0
454892.0 499099.0 0
454004.0 502658.0 0
462441.0 500053.0 0
457003.0 501789.0 0
460119.0 502607.0 0
466900.0 499983.0 0
464159.0 503351.0 0
471916.0 501783.0 0
476294.0 500889.0 0
479751.0 500179.0 0
483707.0 499890.0 0
488076.0 499985.0 0
489621.0 504112.0 0
492367.0 501557.0 0
494200.0 499007.0 0
497383.0 500038.0 0
2389.92 503685.0 0
5508.12 501505.0 0
10464.4 506588.0 0
6099.16 505898.0 0
15085.0 505806.0 0
12414.2 510258.0 0
20032.7 506352.0 0
24812.0 504402.0 0
26791.4 507315.0 0
23413.6 508928.0 0
29164.9 504345.0 0
31110.6 508287.0 0
32739.8 504255.0 0
35707.0 506225.0 0
39709.7 504364.0 0
43418.6 503602.0 0
46004.9 505577.0 0
47810.4 502307.0 0
52537.8 503308.0 0
49534.3 505837.0 0
56904.6 503703.0 0
53956.6 507089.0 0
57947.8 506693.0 0
61035.3 503964.0 0
65169.7 503611.0 0
63666.7 506049.0 0
67269.3 506908.0 0
69291.6 502936.0 0
73807.4 502511.0 0
77188.5 506421.0 0
81521.1 504067.0 0
85679.0 504128.0 0
89231.7 502561.0 0
92664.5 503035.0 0
90217.5 506781.0 0
96012.3 505728.0 0
99590.6 502618.0 0
101216.0 505868.0 0
103657.0 502012.0 0
106518.0 505897.0 0
111294.0 504231.0 0
115296.0 504224.0 0
122576.0 501903.0 0
119556.0 504838.0 0
127200.0 502623.0 0
132062.0 502201.0 0
137464.0 501411.0 0
134692.0 505643.0 0
138669.0 505486.0 0
142102.0 503585.0 0
147347.0 501910.0 0
151856.0 504837.0 0
156486.0 501326.0 0
160742.0 504218.0 0
166088.0 502222.0 0
171703.0 504444.0 0
176940.0 503619.0 0
182261.0 502579.0 0
187141.0 504752.0 0
191589.0 502635.0 0
199687.0 502889.0 0
204934.0 501222.0 0
209278.0 501275.0 0
209791.0 504525.0 0
213517.0 500891.0 0
217909.0 503746.0 0
221494.0 503037.0 0
225073.0 503280.0 0
228683.0 502899.0 0
231466.0 500241.0 0
235767.0 501456.0 0
239631.0 503343.0 0
243371.0 501927.0 0
251716.0 501982.0 0
258634.0 500380.0 0
255968.0 504342.0 0
262857.0 500838.0 0
260931.0 504466.0 0
266344.0 499868.0 0
266080.0 504617.0 0
270320.0 501577.0 0
274875.0 503092.0 0
278477.0 499839.0 0
278949.0 503948.0 0
283300.0 502182.0 0
288445.0 502814.0 0
292393.0 502626.0 0
296583.0 502963.0 0
300982.0 502516.0 0
304973.0 502860.0 0
308883.0 502128.0 0
312773.0 500732.0 0
316068.0 503934.0 0
323224.0 501855.0 0
328199.0 500270.0 0
330307.0 504438.0 0
333230.0 502169.0 0
338504.0 500224.0 0
336361.0 504714.0 0
339972.0 505218.0 0
343936.0 503289.0 0
348578.0 505567.0 0
352650.0 503812.0 0
356847.0 502954.0 0
364055.0 501516.0 0
361050.0 505074.0 0
368340.0 501703.0 0
366550.0 505102.0 0
371404.0 505213.0 0
376912.0 504280.0 0
382685.0 504946.0 0
386685.0 506500.0 0
388264.0 503413.0 0
392534.0 502610.0 0
396847.0 501940.0 0
396175.0 506547.0 0
405082.0 502830.0 0
400744.0 505382.0 0
410913.0 502463.0 0
408984.0 505859.0 0
416128.0 502469.0 0
413741.0 505928.0 0
418575.0 506132.0 0
421706.0 502588.0 0
426078.0 505797.0 0
430726.0 505277.0 0
433750.0 502503.0 0
435783.0 505704.0 0
440869.0 506140.0 0
446087.0 505205.0 0
450610.0 505541.0 0
454465.0 505984.0 0
457305.0 504864.0 0
461353.0 506787.0 0
465905.0 506407.0 0
468689.0 504227.0 0
472620.0 506268.0 0
475395.0 504351.0 0
477570.0 507836.0 0
479229.0 503873.0 0
482221.0 503134.0 0
482641.0 506953.0 0
485592.0 503534.0 0
487350.0 506845.0 0
493031.0 505598.0 0
496823.0 503918.0 0
2014.76 507286.0 0
2059.4 510668.0 0
5172.72 509696.0 0
8476.92 510001.0 0
16555.6 509950.0 0
19952.6 511705.0 0
26579.5 511209.0 0
31590.9 513688.0 0
35559.3 510212.0 0
36757.8 513890.0 0
38977.7 507888.0 0
42505.3 507280.0 0
39205.3 510894.0 0
46223.9 508652.0 0
43124.7 511191.0 0
49946.2 509545.0 0
52906.1 511057.0 0
57105.8 510882.0 0
60958.8 507499.0 0
62214.1 510865.0 0
64226.7 508150.0 0
66491.9 510898.0 0
71735.4 506757.0 0
69938.4 510290.0 0
74241.5 510812.0 0
82128.6 507959.0 0
79075.4 511406.0 0
83539.7 512049.0 0
85894.0 508476.0 0
88517.9 512148.0 0
93470.4 510302.0 0
98257.8 509718.0 0
102767.0 509507.0 0
107638.0 510748.0 0
111212.0 507875.0 0
115236.0 508565.0 0
124099.0 506024.0 0
120193.0 509166.0 0
129223.0 506721.0 0
125124.0 510165.0 0
133062.0 509854.0 0
138076.0 509162.0 0
141371.0 507394.0 0
145826.0 506981.0 0
149881.0 509505.0 0
154837.0 510430.0 0
156795.0 505749.0 0
159922.0 508454.0 0
163951.0 506765.0 0
163527.0 510684.0 0
167916.0 507431.0 0
171706.0 509116.0 0
174847.0 507270.0 0
179165.0 507887.0 0
183610.0 507194.0 0
186794.0 508958.0 0
191110.0 508057.0 0
195611.0 505329.0 0
199436.0 507532.0 0
195940.0 509857.0 0
202511.0 505595.0 0
202547.0 508701.0 0
206146.0 506738.0 0
213741.0 505651.0 0
210713.0 509382.0 0
216685.0 509434.0 0
222128.0 507181.0 0
227747.0 507212.0 0
232149.0 504699.0 0
233530.0 508893.0 0
236592.0 505675.0 0
238611.0 509701.0 0
242233.0 506291.0 0
244740.0 509480.0 0
247249.0 505157.0 0
251968.0 506169.0 0
254878.0 509221.0 0
258858.0 507869.0 0
263385.0 508825.0 0
267664.0 508955.0 0
271073.0 506385.0 0
276416.0 508533.0 0
281483.0 507009.0 0
286206.0 507030.0 0
291137.0 506826.0 0
295645.0 507350.0 0
300188.0 506493.0 0
303659.0 505894.0 0
303600.0 509038.0 0
307172.0 506471.0 0
311587.0 505605.0 0
311581.0 510178.0 0
315765.0 508429.0 0
320629.0 506126.0 0
326542.0 505703.0 0
329735.0 510033.0 0
332934.0 506815.0 0
337423.0 508705.0 0
341707.0 508265.0 0
345309.0 507509.0 0
348799.0 510811.0 0
352425.0 508266.0 0
356697.0 506684.0 0
355691.0 509939.0 0
364650.0 508415.0 0
368817.0 508724.0 0
374564.0 509762.0 0
380092.0 509161.0 0
384443.0 508982.0 0
388588.0 510862.0 0
391224.0 506812.0 0
393591.0 510738.0 0
397646.0 510749.0 0
401343.0 509584.0 0
404774.0 507498.0 0
408596.0 510153.0 0
412225.0 509367.0 0
416601.0 509288.0 0
420821.0 510195.0 0
422368.0 506886.0 0
424986.0 509446.0 0
428915.0 509042.0 0
433367.0 509116.0 0
437556.0 509109.0 0
441020.0 511148.0 0
444868.0 509502.0 0
448592.0 508944.0 0
452685.0 509625.0 0
456576.0 512754.0 0
457023.0 508808.0 0
460513.0 511715.0 0
465594.0 510701.0 0
469642.0 508144.0 0
470375.0 511836.0 0
473537.0 509855.0 0
476829.0 511974.0 0
481163.0 511233.0 0
485927.0 510811.0 0
491260.0 509115.0 0
497062.0 508406.0 0
1779.74 513493.0 0
2656.68 516888.0 0
6418.05 513850.0 0
10597.8 513255.0 0
11228.1 516494.0 0
23010.4 513750.0 0
15145.6 514095.0 0
19203.6 516095.0 0
26638.8 515814.0 0
34892.6 517684.0 0
40256.8 514046.0 0
47261.2 512597.0 0
44081.2 516236.0 0
50430.6 513031.0 0
49158.7 516504.0 0
53202.5 514237.0 0
56311.7 515557.0 0
59926.9 514482.0 0
58391.6 516965.0 0
64477.4 514799.0 0
67892.0 513797.0 0
71051.4 513969.0 0
75737.5 514918.0 0
80487.0 515789.0 0
85420.7 515762.0 0
89493.8 517145.0 0
92247.7 514146.0 0
96281.6 513862.0 0
100156.0 513369.0 0
104007.0 513117.0 0
102440.0 516269.0 0
107496.0 516440.0 0
111785.0 512359.0 0
116378.0 513058.0 0
121609.0 513881.0 0
129010.0 511070.0 0
126737.0 515224.0 0
131866.0 514394.0 0
136183.0 512976.0 0
139753.0 514958.0 0
142355.0 511101.0 0
146562.0 511501.0 0
150318.0 513994.0 0
159453.0 513047.0 0
163675.0 515006.0 0
167577.0 511852.0 0
172092.0 513520.0 0
175469.0 510558.0 0
177499.0 514789.0 0
182903.0 512195.0 0
188458.0 512543.0 0
192505.0 512193.0 0
195950.0 514653.0 0
200217.0 511850.0 0
202812.0 514917.0 0
205527.0 511550.0 0
209418.0 513579.0 0
213256.0 513457.0 0
217427.0 514884.0 0
221235.0 511911.0 0
225148.0 510797.0 0
229862.0 512230.0 0
234678.0 512863.0 0
238290.0 514891.0 0
242122.0 512574.0 0
249628.0 510393.0 0
245952.0 514047.0 0
253840.0 514271.0 0
259701.0 513114.0 0
266306.0 513629.0 0
271507.0 511495.0 0
279382.0 511983.0 0
276242.0 514577.0 0
283227.0 511340.0 0
288463.0 512100.0 0
293501.0 511291.0 0
298742.0 510546.0 0
302902.0 513965.0 0
307286.0 510663.0 0
311918.0 514195.0 0
315217.0 512415.0 0
317761.0 514976.0 0
319236.0 511250.0 0
324308.0 510565.0 0
327771.0 514618.0 0
333814.0 510388.0 0
332607.0 514423.0 0
336288.0 512593.0 0
340742.0 512933.0 0
344397.0 510732.0 0
345608.0 514604.0 0
349451.0 515362.0 0
353905.0 513716.0 0
360318.0 511143.0 0
363965.0 515111.0 0
366495.0 512276.0 0
370574.0 511694.0 0
369833.0 514540.0 0
373182.0 514575.0 0
378086.0 514438.0 0
383740.0 513605.0 0
387986.0 515154.0 0
391848.0 514322.0 0
395929.0 514429.0 0
400887.0 514390.0 0
405032.0 512249.0 0
409911.0 514451.0 0
414378.0 512873.0 0
418428.0 512361.0 0
420667.0 513445.0 0
418146.0 515877.0 0
423800.0 512842.0 0
422683.0 516400.0 0
427309.0 512049.0 0
431324.0 512756.0 0
427800.0 516373.0 0
436684.0 513514.0 0
441461.0 515547.0 0
444475.0 513304.0 0
446151.0 516918.0 0
448573.0 512819.0 0
452960.0 513641.0 0
450989.0 517727.0 0
455650.0 516340.0 0
459197.0 515360.0 0
463706.0 515223.0 0
468333.0 514990.0 0
470383.0 517774.0 0
473580.0 514760.0 0
478885.0 514935.0 0
483914.0 515460.0 0
489129.0 513879.0 0
493724.0 512793.0 0
497713.0 512258.0 0
497328.0 516155.0 0
2506.88 520876.0 0
7259.76 518950.0 0
15344.4 518304.0 0
11650.3 520462.0 0
19625.7 521393.0 0
23123.1 518013.0 0
25321.0 522135.0 0
29489.1 519074.0 0
29856.4 523839.0 0
33298.8 521403.0 0
39260.9 517572.0 0
37959.5 521637.0 0
42430.3 521149.0 0
46685.0 519981.0 0
49789.4 521257.0 0
53091.3 518396.0 0
57101.5 519457.0 0
61676.1 518469.0 0
67781.9 517580.0 0
64808.7 520803.0 0
72298.9 517967.0 0
68704.4 521900.0 0
76535.0 519003.0 0
80380.6 520350.0 0
83546.6 518800.0 0
83785.3 521796.0 0
86752.9 520244.0 0
94169.2 518195.0 0
98811.8 517498.0 0
97281.6 521588.0 0
102984.0 520527.0 0
112468.0 517390.0 0
117696.0 518092.0 0
122582.0 518674.0 0
126381.0 519990.0 0
129722.0 519280.0 0
132471.0 517785.0 0
135780.0 517011.0 0
138706.0 519926.0 0
141514.0 518138.0 0
145140.0 515719.0 0
149684.0 519105.0 0
154999.0 516461.0 0
158010.0 520071.0 0
159680.0 516881.0 0
162673.0 520104.0 0
167949.0 516686.0 0
172915.0 518917.0 0
181856.0 517056.0 0
186143.0 516709.0 0
189483.0 519724.0 0
191324.0 515879.0 0
194287.0 519474.0 0
199844.0 518419.0 0
204500.0 519870.0 0
206402.0 516378.0 0
207879.0 519886.0 0
210928.0 517229.0 0
215023.0 518711.0 0
219492.0 519554.0 0
221695.0 515965.0 0
224257.0 519404.0 0
225681.0 515005.0 0
229679.0 517607.0 0
234240.0 516976.0 0
238087.0 519794.0 0
242397.0 517075.0 0
249624.0 515341.0 0
247085.0 519116.0 0
251781.0 518834.0 0
256993.0 519224.0 0
262946.0 518637.0 0
267809.0 518541.0 0
271614.0 516487.0 0
275652.0 519549.0 0
280769.0 515050.0 0
280706.0 519471.0 0
284776.0 519626.0 0
284852.0 515857.0 0
288278.0 518484.0 0
291874.0 515752.0 0
291370.0 519050.0 0
294834.0 519752.0 0
297052.0 515087.0 0
308105.0 514799.0 0
305957.0 518978.0 0
310764.0 518212.0 0
314700.0 517078.0 0
318521.0 519211.0 0
322326.0 515796.0 0
326315.0 518664.0 0
330808.0 518960.0 0
337316.0 517047.0 0
342444.0 518066.0 0
347056.0 518581.0 0
350955.0 518521.0 0
354906.0 518502.0 0
359744.0 517033.0 0
364764.0 518699.0 0
367332.0 516184.0 0
368218.0 519235.0 0
370926.0 517386.0 0
375228.0 519091.0 0
379996.0 519154.0 0
382966.0 517928.0 0
383686.0 521736.0 0
386049.0 518072.0 0
389942.0 518218.0 0
394025.0 518309.0 0
395565.0 521741.0 0
398394.0 518687.0 0
405681.0 517309.0 0
410980.0 519390.0 0
413968.0 516774.0 0
416139.0 519604.0 0
420291.0 519919.0 0
425248.0 520314.0 0
429947.0 520970.0 0
433076.0 517471.0 0
434937.0 521813.0 0
438295.0 518485.0 0
442950.0 519625.0 0
447614.0 521581.0 0
451642.0 522237.0 0
454912.0 520081.0 0
457916.0 518573.0 0
461560.0 518583.0 0
458886.0 522263.0 0
466504.0 519039.0 0
463439.0 521755.0 0
473602.0 519660.0 0
470014.0 521166.0 0
476917.0 517884.0 0
477399.0 521668.0 0
480483.0 518866.0 0
480862.0 522315.0 0
484180.0 520518.0 0
488265.0 518668.0 0
492944.0 517462.0 0
492442.0 522556.0 0
497404.0 520232.0 0
2072.0 524635.0 0
9472.53 522484.0 0
6267.12 523876.0 0
14809.0 522578.0 0
11599.7 524819.0 0
22290.3 525698.0 0
26506.0 527488.0 0
35100.0 525274.0 0
40954.1 526912.0 0
46069.4 523847.0 0
50057.6 525349.0 0
53823.9 522719.0 0
54356.1 526803.0 0
59721.9 524235.0 0
65448.5 524547.0 0
72884.8 522274.0 0
77276.3 523233.0 0
74234.7 526367.0 0
81429.1 524480.0 0
86245.4 525090.0 0
91053.1 522429.0 0
95047.9 525855.0 0
100414.0 525035.0 0
108444.0 522201.0 0
104659.0 524366.0 0
106794.0 526607.0 0
113883.0 522637.0 0
119555.0 522818.0 0
124096.0 522382.0 0
128334.0 523729.0 0
133735.0 521790.0 0
138791.0 525116.0 0
144164.0 521567.0 0
149042.0 524046.0 0
154092.0 522025.0 0
158955.0 524355.0 0
163571.0 524768.0 0
167807.0 522021.0 0
172414.0 525178.0 0
175125.0 522253.0 0
178614.0 520229.0 0
176860.0 524434.0 0
183728.0 521134.0 0
180543.0 525039.0 0
187503.0 523712.0 0
191928.0 523973.0 0
197278.0 524337.0 0
202078.0 522945.0 0
206352.0 523927.0 0
211543.0 522333.0 0
216435.0 522846.0 0
220373.0 523733.0 0
224083.0 523467.0 0
227799.0 521806.0 0
232937.0 522060.0 0
239549.0 523625.0 0
242869.0 521736.0 0
246819.0 524012.0 0
253201.0 522880.0 0
256931.0 523846.0 0
260592.0 523072.0 0
266377.0 523325.0 0
271282.0 521161.0 0
274861.0 524247.0 0
279298.0 523978.0 0
283136.0 524597.0 0
286668.0 522849.0 0
290856.0 522149.0 0
295214.0 524909.0 0
300399.0 520006.0 0
304421.0 524261.0 0
309818.0 523099.0 0
314621.0 521291.0 0
318823.0 524102.0 0
322784.0 521338.0 0
327475.0 522966.0 0
331893.0 523413.0 0
334978.0 520851.0 0
336011.0 525197.0 0
339474.0 521774.0 0
344735.0 522858.0 0
349226.0 522027.0 0
353290.0 522251.0 0
356247.0 525571.0 0
357737.0 521848.0 0
359910.0 525103.0 0
362222.0 521962.0 0
366996.0 523107.0 0
371223.0 521408.0 0
371259.0 525657.0 0
374326.0 523497.0 0
378702.0 523804.0 0
387615.0 521459.0 0
387615.0 525980.0 0
391635.0 526336.0 0
391877.0 522540.0 0
394871.0 525766.0 0
398570.0 523959.0 0
402418.0 521171.0 0
402972.0 526247.0 0
407161.0 522965.0 0
411662.0 523502.0 0
414338.0 522100.0 0
414886.0 526060.0 0
417797.0 523110.0 0
422129.0 523876.0 0
426140.0 528237.0 0
427122.0 524710.0 0
432050.0 525399.0 0
439794.0 523008.0 0
436985.0 526438.0 0
444178.0 523767.0 0
452020.0 526238.0 0
455130.0 523690.0 0
457530.0 526778.0 0
462054.0 525437.0 0
467291.0 524241.0 0
473378.0 524392.0 0
478799.0 525982.0 0
484106.0 524874.0 0
487524.0 522547.0 0
489009.0 526449.0 0
497379.0 524317.0 0
3338.02 528950.0 0
8406.74 527307.0 0
8575.31 531702.0 0
11906.0 528654.0 0
17049.7 527476.0 0
22288.8 529707.0 0
25697.5 532103.0 0
31261.0 527678.0 0
35408.2 530125.0 0
39897.3 533213.0 0
46138.1 528061.0 0
47335.1 530365.0 0
50466.7 530020.0 0
55495.2 531275.0 0
59612.0 529292.0 0
64215.2 529080.0 0
69518.3 527041.0 0
68820.9 531956.0 0
73708.3 531177.0 0
78026.8 527712.0 0
82584.8 528868.0 0
86421.6 530505.0 0
90371.3 527779.0 0
94009.7 530714.0 0
98427.1 529582.0 0
103314.0 528962.0 0
107606.0 531100.0 0
110919.0 527099.0 0
116658.0 527960.0 0
123326.0 526783.0 0
121045.0 531207.0 0
125151.0 531324.0 0
127960.0 528374.0 0
132393.0 526791.0 0
136053.0 531055.0 0
141071.0 529520.0 0
144508.0 526814.0 0
148833.0 528866.0 0
153061.0 526600.0 0
156965.0 528844.0 0
161822.0 528838.0 0
167317.0 527747.0 0
171966.0 530419.0 0
176991.0 528830.0 0
184167.0 525932.0 0
182327.0 530143.0 0
187984.0 528826.0 0
193519.0 529010.0 0
201991.0 527847.0 0
209680.0 527266.0 0
206130.0 528127.0 0
214233.0 526854.0 0
218328.0 526661.0 0
217039.0 530103.0 0
222313.0 527675.0 0
227427.0 526721.0 0
231827.0 526913.0 0
236593.0 526997.0 0
242664.0 526967.0 0
247208.0 528103.0 0
250490.0 526116.0 0
254824.0 527135.0 0
259172.0 526832.0 0
263543.0 527832.0 0
268121.0 528224.0 0
270694.0 525180.0 0
272811.0 529025.0 0
277746.0 528182.0 0
281938.0 528242.0 0
286261.0 527742.0 0
290433.0 526287.0 0
293376.0 529949.0 0
298317.0 529256.0 0
299850.0 525022.0 0
302042.0 527929.0 0
305681.0 529071.0 0
309971.0 528557.0 0
314168.0 526071.0 0
316915.0 529976.0 0
320269.0 527849.0 0
323755.0 526246.0 0
328027.0 526993.0 0
332042.0 527631.0 0
336773.0 530787.0 0
340913.0 526842.0 0
345722.0 527984.0 0
351037.0 526979.0 0
355416.0 528767.0 0
359698.0 529620.0 0
363685.0 526677.0 0
367872.0 528010.0 0
371517.0 530384.0 0
375661.0 531216.0 0
375226.0 527355.0 0
379607.0 529452.0 0
382837.0 526036.0 0
387763.0 531094.0 0
392761.0 529954.0 0
398376.0 529382.0 0
402921.0 530648.0 0
406072.0 529281.0 0
409980.0 527364.0 0
413736.0 530647.0 0
419056.0 526895.0 0
416964.0 529278.0 0
419902.0 531198.0 0
423077.0 528058.0 0
429461.0 530387.0 0
434252.0 529069.0 0
438028.0 530532.0 0
442232.0 528043.0 0
446489.0 531380.0 0
447549.0 526742.0 0
450620.0 530434.0 0
454312.0 529312.0 0
457737.0 531333.0 0
460923.0 529135.0 0
464998.0 528923.0 0
470137.0 528604.0 0
475345.0 529400.0 0
482337.0 528383.0 0
480042.0 531108.0 0
485363.0 529187.0 0
489216.0 531475.0 0
494073.0 527752.0 0
494022.0 532259.0 0
498285.0 527635.0 0
497895.0 530605.0 0
3681.33 534974.0 0
13704.2 532726.0 0
9797.87 536641.0 0
19302.8 533293.0 0
15299.4 537734.0 0
20077.7 537748.0 0
23904.8 535956.0 0
30186.1 531575.0 0
28778.9 535735.0 0
33959.4 535164.0 0
42620.4 537652.0 0
45827.4 533211.0 0
51552.6 535179.0 0
56340.1 536059.0 0
59955.1 533116.0 0
64607.9 534014.0 0
68282.3 535834.0 0
71332.7 535042.0 0
75793.1 536880.0 0
79010.0 532291.0 0
81297.2 536023.0 0
83132.7 532833.0 0
86001.2 535472.0 0
89970.7 532807.0 0
93105.8 536117.0 0
96979.5 533685.0 0
101550.0 533395.0 0
105563.0 535087.0 0
109583.0 535492.0 0
112500.0 531857.0 0
113461.0 535990.0 0
117234.0 533915.0 0
122884.0 535768.0 0
127780.0 533609.0 0
130766.0 531186.0 0
131878.0 535174.0 0
141482.0 533881.0 0
145217.0 531279.0 0
148597.0 533335.0 0
152713.0 531248.0 0
156558.0 533272.0 0
161031.0 534028.0 0
165282.0 532114.0 0
169192.0 534089.0 0
173420.0 534528.0 0
177998.0 534107.0 0
182575.0 534840.0 0
186062.0 533123.0 0
190859.0 534008.0 0
197993.0 531629.0 0
195110.0 534689.0 0
202737.0 533088.0 0
206629.0 531426.0 0
211893.0 532611.0 0
216938.0 533693.0 0
220656.0 532276.0 0
225465.0 531653.0 0
230631.0 531343.0 0
239744.0 531352.0 0
235366.0 532125.0 0
244998.0 532678.0 0
251534.0 531789.0 0
257628.0 531515.0 0
261800.0 531579.0 0
266068.0 532788.0 0
270326.0 532159.0 0
276180.0 532892.0 0
280810.0 532086.0 0
284429.0 531588.0 0
288807.0 532459.0 0
298541.0 533779.0 0
302373.0 531734.0 0
306759.0 533163.0 0
312390.0 533911.0 0
318195.0 534566.0 0
321475.0 531296.0 0
326372.0 531030.0 0
328780.0 535771.0 0
331418.0 531944.0 0
339074.0 535363.0 0
342791.0 532521.0 0
348701.0 532340.0 0
354945.0 533101.0 0
360813.0 535081.0 0
365085.0 531823.0 0
369104.0 533965.0 0
373471.0 534841.0 0
378062.0 534187.0 0
382838.0 533765.0 0
384072.0 529460.0 0
387057.0 535180.0 0
391078.0 534496.0 0
396010.0 534330.0 0
401292.0 534706.0 0
405107.0 533080.0 0
409255.0 532674.0 0
416405.0 534234.0 0
421646.0 536454.0 0
424207.0 531924.0 0
426607.0 534565.0 0
430690.0 535620.0 0
434320.0 532967.0 0
442111.0 533227.0 0
438301.0 534205.0 0
446398.0 536637.0 0
449940.0 533913.0 0
453762.0 533440.0 0
458280.0 536022.0 0
462202.0 532885.0 0
467353.0 533532.0 0
472295.0 532528.0 0
472281.0 537130.0 0
476359.0 534213.0 0
480807.0 536077.0 0
484540.0 533274.0 0
487828.0 535741.0 0
491480.0 535599.0 0
494634.0 537688.0 0
497520.0 534672.0 0
3209.62 540662.0 0
8518.33 541107.0 0
13463.3 542654.0 0
19107.9 542166.0 0
22821.7 539711.0 0
26904.8 539712.0 0
31489.3 539632.0 0
37282.5 539397.0 0
47711.1 538509.0 0
41441.5 541686.0 0
52372.8 540546.0 0
57036.3 540314.0 0
60716.2 537462.0 0
61700.5 541865.0 0
65285.0 538785.0 0
70446.0 539901.0 0
76101.5 542127.0 0
79639.3 539432.0 0
83668.1 539593.0 0
89197.4 538743.0 0
93499.3 541360.0 0
97780.3 537907.0 0
102393.0 537914.0 0
106796.0 539088.0 0
111550.0 539710.0 0
116971.0 539220.0 0
122443.0 541448.0 0
127926.0 537501.0 0
127556.0 541642.0 0
132226.0 540280.0 0
136694.0 536903.0 0
141379.0 538615.0 0
145561.0 536896.0 0
149023.0 536471.0 0
149269.0 539791.0 0
152601.0 536054.0 0
153823.0 540781.0 0
157270.0 537635.0 0
161266.0 538457.0 0
164251.0 540929.0 0
165259.0 536613.0 0
168142.0 539772.0 0
171241.0 537640.0 0
175267.0 538244.0 0
180453.0 539475.0 0
186510.0 538043.0 0
191335.0 538790.0 0
194480.0 537564.0 0
199150.0 537470.0 0
203751.0 540163.0 0
206609.0 536270.0 0
211477.0 539440.0 0
215434.0 536676.0 0
219006.0 536495.0 0
223280.0 536376.0 0
220724.0 539192.0 0
228053.0 535912.0 0
233012.0 536433.0 0
238317.0 536036.0 0
242338.0 536739.0 0
248594.0 535623.0 0
246003.0 538451.0 0
249027.0 540499.0 0
251719.0 537880.0 0
256511.0 536512.0 0
261475.0 535774.0 0
270478.0 536720.0 0
275186.0 537036.0 0
280018.0 537342.0 0
285021.0 535510.0 0
289205.0 537776.0 0
293761.0 535208.0 0
297867.0 537883.0 0
303025.0 537052.0 0
308533.0 538568.0 0
313686.0 540112.0 0
318701.0 539056.0 0
323259.0 536225.0 0
326721.0 539783.0 0
334427.0 536233.0 0
330960.0 539942.0 0
338032.0 540127.0 0
342473.0 538112.0 0
346306.0 536158.0 0
347203.0 540554.0 0
351315.0 537499.0 0
357005.0 538935.0 0
365495.0 536630.0 0
362499.0 539190.0 0
369893.0 538403.0 0
374568.0 539004.0 0
379940.0 538257.0 0
384764.0 538575.0 0
388844.0 538001.0 0
393310.0 539079.0 0
398487.0 538782.0 0
396330.0 541596.0 0
406335.0 537131.0 0
402840.0 537779.0 0
403064.0 541873.0 0
412053.0 537333.0 0
416920.0 538432.0 0
419493.0 541561.0 0
426876.0 538524.0 0
423556.0 540990.0 0
431441.0 540006.0 0
436053.0 537704.0 0
441245.0 537829.0 0
439195.0 542031.0 0
443907.0 541508.0 0
452059.0 537502.0 0
448778.0 541421.0 0
453214.0 541900.0 0
456313.0 539846.0 0
463088.0 537327.0 0
460395.0 541004.0 0
467525.0 538198.0 0
470059.0 540834.0 0
473875.0 541697.0 0
477087.0 539017.0 0
481398.0 540681.0 0
485040.0 537960.0 0
490108.0 540694.0 0
498014.0 538330.0 0
497119.0 542266.0 0
2015.5 545026.0 0
5893.74 545079.0 0
9700.95 544863.0 0
12662.3 547339.0 0
16748.8 546412.0 0
24122.6 542881.0 0
21807.4 545049.0 0
24489.0 546570.0 0
29114.7 544517.0 0
33913.3 542910.0 0
38365.0 545168.0 0
44913.2 541507.0 0
43773.4 544968.0 0
48448.8 543802.0 0
50363.4 547604.0 0
52724.5 544987.0 0
57636.4 545410.0 0
63105.6 546249.0 0
66010.4 542712.0 0
68081.2 546392.0 0
72361.1 544609.0 0
80555.1 543144.0 0
86966.5 543258.0 0
91297.8 545532.0 0
98616.1 542356.0 0
103114.0 542337.0 0
108219.0 544489.0 0
114034.0 544128.0 0
118239.0 543655.0 0
120888.0 546417.0 0
125818.0 545963.0 0
131962.0 546414.0 0
138049.0 542943.0 0
142187.0 545517.0 0
144610.0 542131.0 0
149340.0 544215.0 0
154165.0 545742.0 0
158753.0 542510.0 0
163063.0 544849.0 0
167437.0 543958.0 0
172181.0 542198.0 0
176462.0 541807.0 0
180874.0 544747.0 0
184594.0 542686.0 0
189354.0 543083.0 0
194986.0 542096.0 0
200249.0 542912.0 0
203306.0 545002.0 0
207290.0 543643.0 0
213804.0 545068.0 0
217166.0 540627.0 0
218824.0 544331.0 0
221250.0 542134.0 0
223179.0 545258.0 0
226017.0 541146.0 0
231201.0 541038.0 0
233516.0 544998.0 0
236172.0 540758.0 0
238681.0 544901.0 0
241266.0 540728.0 0
242921.0 544818.0 0
246691.0 543105.0 0
251542.0 542734.0 0
255272.0 540797.0 0
259903.0 540770.0 0
255314.0 544915.0 0
265331.0 539809.0 0
270208.0 542437.0 0
275282.0 541213.0 0
280081.0 543203.0 0
284829.0 540596.0 0
289134.0 543345.0 0
294031.0 541139.0 0
299908.0 542121.0 0
304870.0 542291.0 0
309432.0 543369.0 0
313486.0 544857.0 0
317667.0 543705.0 0
322788.0 542367.0 0
328447.0 543785.0 0
334041.0 544268.0 0
339400.0 544701.0 0
343344.0 543055.0 0
347627.0 545709.0 0
352823.0 543219.0 0
358065.0 543707.0 0
362667.0 543486.0 0
366062.0 540638.0 0
367654.0 545224.0 0
372348.0 542891.0 0
375551.0 546263.0 0
377275.0 542265.0 0
382433.0 543175.0 0
388524.0 542884.0 0
393861.0 544067.0 0
398102.0 544023.0 0
406677.0 546512.0 0
409113.0 541862.0 0
414509.0 542147.0 0
417850.0 546860.0 0
422679.0 544760.0 0
427661.0 543544.0 0
432186.0 543973.0 0
435006.0 542184.0 0
435820.0 546276.0 0
441197.0 546685.0 0
446459.0 545998.0 0
451644.0 545833.0 0
457135.0 544937.0 0
462336.0 546435.0 0
465469.0 542347.0 0
470572.0 544309.0 0
474264.0 545206.0 0
477852.0 543601.0 0
480998.0 546806.0 0
484794.0 544060.0 0
489156.0 546710.0 0
493518.0 545272.0 0
497560.0 547249.0 0
2736.11 549102.0 0
8143.39 549345.0 0
12710.2 551411.0 0
17155.0 551075.0 0
20750.5 548149.0 0
30670.0 548603.0 0
26991.4 550460.0 0
33679.6 547072.0 0
32823.5 551649.0 0
36908.6 550006.0 0
41922.6 548942.0 0
46540.6 548198.0 0
54305.2 550203.0 0
60113.7 550443.0 0
65304.7 550607.0 0
69836.4 550320.0 0
76891.2 548141.0 0
82937.6 546905.0 0
86389.2 549710.0 0
88588.7 547122.0 0
91100.4 550140.0 0
96200.8 547068.0 0
102567.0 547864.0 0
107412.0 549636.0 0
111837.0 548882.0 0
116746.0 548553.0 0
122926.0 550626.0 0
127751.0 550315.0 0
137856.0 549330.0 0
142577.0 550681.0 0
145638.0 547438.0 0
150174.0 548275.0 0
153971.0 551216.0 0
159458.0 548651.0 0
165816.0 548335.0 0
170757.0 547498.0 0
176076.0 546194.0 0
180271.0 549166.0 0
185132.0 547462.0 0
191583.0 547164.0 0
195989.0 547401.0 0
200663.0 547484.0 0
205097.0 548175.0 0
209669.0 547901.0 0
213729.0 550377.0 0
218290.0 548352.0 0
222591.0 548844.0 0
228785.0 545626.0 0
226640.0 549808.0 0
231429.0 549421.0 0
236282.0 549119.0 0
241481.0 549174.0 0
249418.0 546327.0 0
247064.0 550753.0 0
253211.0 549621.0 0
259627.0 545691.0 0
258380.0 549868.0 0
264317.0 545063.0 0
262278.0 548916.0 0
268920.0 547549.0 0
275006.0 546965.0 0
280104.0 547569.0 0
284712.0 546375.0 0
282242.0 550393.0 0
290548.0 548267.0 0
296518.0 547012.0 0
301951.0 546463.0 0
306152.0 546477.0 0
310555.0 548418.0 0
316203.0 549002.0 0
320801.0 547049.0 0
325256.0 547129.0 0
330199.0 548772.0 0
337440.0 549529.0 0
342997.0 548125.0 0
347504.0 550867.0 0
351689.0 548427.0 0
356035.0 547541.0 0
360298.0 547238.0 0
364390.0 549579.0 0
371822.0 547293.0 0
375576.0 550825.0 0
379910.0 547959.0 0
385576.0 548354.0 0
391163.0 547869.0 0
395893.0 547985.0 0
401252.0 548150.0 0
411961.0 546671.0 0
408979.0 550702.0 0
418338.0 551678.0 0
425731.0 548764.0 0
431009.0 547497.0 0
429772.0 551405.0 0
434364.0 551288.0 0
439559.0 551584.0 0
444738.0 550991.0 0
449488.0 550008.0 0
454470.0 549558.0 0
459283.0 550298.0 0
467367.0 547460.0 0
464389.0 551203.0 0
472110.0 548250.0 0
469282.0 551722.0 0
476782.0 548069.0 0
474402.0 551718.0 0
480416.0 551494.0 0
484994.0 549225.0 0
489339.0 551120.0 0
492795.0 549023.0 0
497907.0 551412.0 0
4850.77 553745.0 0
1214.73 555214.0 0
9519.45 553735.0 0
8018.75 557714.0 0
13586.8 555921.0 0
18222.3 555174.0 0
21798.6 552591.0 0
25216.9 554636.0 0
29484.4 555698.0 0
35019.0 556319.0 0
40052.7 553832.0 0
44582.7 551850.0 0
45224.8 556261.0 0
49064.4 552377.0 0
52843.0 555138.0 0
57536.6 555027.0 0
62775.7 554917.0 0
68326.9 554976.0 0
72975.4 552679.0 0
77282.6 554544.0 0
81986.1 552029.0 0
87276.5 555300.0 0
95302.7 552704.0 0
92708.9 556504.0 0
100148.0 552961.0 0
104811.0 552913.0 0
109788.0 553710.0 0
114546.0 552576.0 0
118746.0 552549.0 0
121844.0 554679.0 0
125975.0 554583.0 0
132463.0 553862.0 0
138177.0 554321.0 0
142414.0 555151.0 0
146267.0 552304.0 0
149247.0 554401.0 0
149833.0 551568.0 0
158396.0 554804.0 0
163702.0 552864.0 0
168665.0 551968.0 0
170479.0 556055.0 0
174411.0 552177.0 0
178987.0 552401.0 0
183621.0 552675.0 0
189113.0 551194.0 0
187148.0 555366.0 0
194914.0 553169.0 0
200058.0 551618.0 0
204436.0 552968.0 0
209382.0 552247.0 0
213377.0 555538.0 0
217440.0 552902.0 0
221406.0 552381.0 0
224974.0 553781.0 0
229880.0 554651.0 0
236619.0 554261.0 0
242433.0 554996.0 0
252003.0 554442.0 0
256487.0 554216.0 0
261217.0 553174.0 0
265733.0 551662.0 0
271925.0 551632.0 0
278457.0 551134.0 0
281542.0 554683.0 0
286011.0 551352.0 0
289809.0 552935.0 0
294827.0 553097.0 0
299686.0 551190.0 0
304101.0 550668.0 0
308206.0 552231.0 0
312682.0 553504.0 0
317683.0 553963.0 0
322818.0 552105.0 0
328393.0 553645.0 0
333297.0 552523.0 0
337943.0 555946.0 0
343118.0 553068.0 0
347199.0 556192.0 0
352563.0 553638.0 0
358906.0 552285.0 0
364610.0 555547.0 0
369868.0 551915.0 0
380238.0 552868.0 0
385383.0 554206.0 0
389509.0 551798.0 0
390487.0 556120.0 0
394082.0 552524.0 0
399278.0 553492.0 0
401554.0 556563.0 0
404593.0 552850.0 0
409396.0 555632.0 0
413809.0 551940.0 0
422260.0 552539.0 0
418852.0 555950.0 0
426505.0 553668.0 0
423750.0 557036.0 0
430958.0 556163.0 0
436949.0 556421.0 0
442640.0 555934.0 0
452253.0 552584.0 0
448713.0 555671.0 0
456183.0 555125.0 0
461395.0 554562.0 0
466498.0 556226.0 0
472026.0 555616.0 0
476963.0 555200.0 0
481256.0 556182.0 0
485720.0 554423.0 0
493770.0 552971.0 0
490098.0 554668.0 0
493679.0 557506.0 0
497783.0 555532.0 0
2835.44 558875.0 0
1347.19 562679.0 0
6871.55 562615.0 0
11724.6 560726.0 0
17454.8 560332.0 0
22532.2 557598.0 0
26857.7 560345.0 0
31861.2 560380.0 0
36807.4 561346.0 0
41092.0 559004.0 0
45421.4 561249.0 0
49745.2 558256.0 0
54492.8 559448.0 0
59739.4 559960.0 0
65039.2 559541.0 0
69561.9 559674.0 0
73112.2 557285.0 0
81604.0 557283.0 0
77268.2 559538.0 0
85199.1 561906.0 0
90286.4 559891.0 0
97405.3 557332.0 0
102667.0 557416.0 0
107825.0 558969.0 0
113310.0 558021.0 0
118365.0 556982.0 0
123233.0 558924.0 0
128369.0 558707.0 0
132646.0 559732.0 0
137046.0 558525.0 0
141817.0 560181.0 0
147030.0 558140.0 0
152822.0 556792.0 0
150845.0 561471.0 0
156994.0 560576.0 0
161910.0 558901.0 0
166229.0 557062.0 0
174687.0 558220.0 0
179121.0 555973.0 0
183574.0 557653.0 0
190929.0 557744.0 0
200269.0 556891.0 0
207773.0 556539.0 0
247990.0 556223.0 0
264879.0 557339.0 0
270433.0 556060.0 0
275930.0 555647.0 0
286649.0 556650.0 0
291584.0 557059.0 0
299877.0 555794.0 0
295704.0 558227.0 0
306010.0 557182.0 0
311821.0 558557.0 0
316833.0 558851.0 0
320807.0 556737.0 0
325115.0 557412.0 0
329118.0 560366.0 0
332087.0 556689.0 0
334420.0 561376.0 0
342946.0 558146.0 0
349189.0 561194.0 0
353934.0 559210.0 0
359290.0 558463.0 0
366014.0 560395.0 0
369813.0 558222.0 0
375841.0 556960.0 0
379083.0 561070.0 0
381760.0 558026.0 0
386790.0 559422.0 0
391755.0 560963.0 0
395953.0 557667.0 0
400776.0 560441.0 0
404794.0 557661.0 0
411194.0 560540.0 0
414261.0 556990.0 0
415918.0 561333.0 0
420486.0 560473.0 0
425320.0 561905.0 0
429823.0 560995.0 0
433960.0 560616.0 0
440429.0 561020.0 0
445338.0 560177.0 0
455913.0 560611.0 0
460555.0 558729.0 0
465361.0 561962.0 0
471741.0 561306.0 0
477781.0 560121.0 0
482544.0 559902.0 0
489076.0 558385.0 0
497573.0 560022.0 0
3071.12 565758.0 0
6770.4 566917.0 0
12306.8 566460.0 0
18896.1 566512.0 0
22584.7 562503.0 0
26812.3 565658.0 0
32457.0 565449.0 0
37742.1 566529.0 0
41417.8 563427.0 0
44972.5 565400.0 0
50512.0 563939.0 0
56494.0 564157.0 0
62642.8 564466.0 0
68023.4 564064.0 0
72916.2 561819.0 0
75573.2 565343.0 0
79727.1 563383.0 0
87383.1 566372.0 0
90474.1 564211.0 0
94540.8 561610.0 0
99815.2 562139.0 0
104441.0 562153.0 0
111248.0 562931.0 0
115587.0 562196.0 0
119769.0 562556.0 0
126228.0 562457.0 0
130097.0 562787.0 0
135476.0 564005.0 0
340222.0 561431.0 0
344614.0 561722.0 0
356996.0 562998.0 0
362523.0 562555.0 0
369400.0 562686.0 0
372919.0 561621.0 0
382890.0 562971.0 0
387938.0 564364.0 0
396321.0 562833.0 0
402274.0 565227.0 0
406374.0 562311.0 0
412765.0 565686.0 0
421123.0 565354.0 0
425945.0 567002.0 0
431041.0 565555.0 0
436497.0 564741.0 0
441462.0 566196.0 0
445714.0 564432.0 0
450463.0 562002.0 0
455206.0 565105.0 0
459913.0 563757.0 0
463680.0 566969.0 0
468858.0 566819.0 0
476229.0 565340.0 0
481082.0 563953.0 0
486424.0 563035.0 0
492659.0 562674.0 0
489727.0 567185.0 0
497910.0 564439.0 0
495000.0 567176.0 0
451280.0 567784.0 0
483777.0 567392.0 0
POINT_DATA 5000
SCALARS Radius float 1
LOOKUP_TABLE default
5120.0 5073.35 5415.48 3863.18 6182.6 2356.98 5492.18 5258.36 5061.3 3163.97 3642.12 5812.43 5580.89 6810.52 6110.27 5840.26 5670.04 4834.9 5085.53 4998.37 5351.6 5867.73 3951.75 4499.64 5542.27 5906.14 5122.66 7513.1 5254.28 4402.52 4436.4 4182.53 5733.48 4672.91 3588.44 5645.7 5553.16 3672.51 4008.92 5561.06 6044.04 5484.83 4715.55 6059.59 5013.56 5701.86 4375.68 5054.98 5484.19 3557.27 5170.02 4688.68 4927.31 5185.34 4517.56 5903.42 3761.32 5176.86 4366.19 4118.05 5065.13 2938.66 4940.78 3615.22 4380.59 6716.79 3850.77 5546.39 5325.36 5538.89 6759.9 4730.36 5926.61 2720.68 4238.81 4955.55 3563.63 4468.59 6030.06 5325.02 5200.76 4862.64 5205.43 4432.58 6684.56 3955.56 5292.64 2635.86 6166.5 5936.02 5305.17 4231.61 3379.84 7613.27 4133.88 5945.65 7021.47 5416.38 6051.14 5836.15 4345.55 5885.03 2837.58 3653.41 5246.2 5017.13 3673.74 3968.64 4385.06 7184.19 4290.3 4861.08 3942.53 3607.45 4951.03 4094.62 6483.19 5418.62 5493.32 4601.27 4195.44 5740.68 3261.21 6704.06 5600.93 3871.88 3856.01 4827.23 4390.66 6116.18 4911.47 7447.37 4924.6 4688.67 4733.32 2924.37 2899.43 3867.67 4003.05 4827.82 3589.27 5759.91 4333.2 4665.12 4927.02 6230.49 4174.52 7054.71 3641.64 5747.75 4277.89 5539.32 6496.85 5541.59 4124.71 5279.39 6337.56 5803.39 4381.97 3255.82 5242.73 2812.98 4065.69 5399.73 4805.87 4712.33 5227.21 3997.1 3260.67 3038.33 3936.02 3383.4 3856.1 5980.74 5109.54 3829.13 6458.82 5489.43 5054.25 4796.33 5360.19 4874.39 4839.34 5083.08 5728.85 5525.39 3998.5 5863.59 4024.3 6257.19 4737.14 5603.15 4695.45 5390.22 4660.72 6038.78 5123.52 4295.38 4780.03 4044.71 5816.2 3091.3 5789.98 5527.54 5573.7 7325.81 4794.96 6186.19 2980.99 4840.01 6834.49 5938.34 5555.28 6394.38 5169.36 4686.65 5834.74 5556.96 3888.21 5697.78 4667.36 4392.68 5529.52 5495.39 3554.9 4487.31 3996.0 4002.16 5693.81 4138.16 2540.31 6029.66 6138.47 5697.4 4727.62 4055.8 6425.26 5143.58 4484.76 5611.2 7933.0 5173.87 5380.13 5118.27 5932.23 5788.23 6052.7 3921.18 5891.05 6902.81 5252.48 4015.92 4778.34 4684.5 5120.49 6302.8 4270.95 5206.78 4005.44 5555.88 5280.17 5028.96 6362.12 3866.16 5152.36 4220.65 4455.12 6820.42 4894.16 4896.52 5711.87 5791.61 3798.62 5581.75 3666.57 4254.17 5615.42 4091.31 4523.7 7199.21 5255.32 6124.89 5708.81 5043.05 3486.22 5409.61 4414.54 5262.61 6038.2 5713.22 6732.43 3183.98 4524.28 4511.82 3778.1 5826.64 4727.24 6959.81 4816.2 6321.41 4941.22 3372.79 5282.64 4479.66 6392.01 3369.13 6644.76 6372.62 7565.34 5337.48 5637.59 5542.21 5481.78 5924.89 4937.14 6894.71 5201.36 5094.81 4306.53 5972.06 5861.71 4312.67 4359.04 5017.78 3794.63 5015.69 6175.81 6677.09 4829.35 5813.4 4089.76 4751.02 5184.56 4715.72 5367.2 5308.1 3043.85 6730.19 4937.02 6037.08 3103.0 6084.86 3307.12 4467.94 5551.36 4933.21 4850.81 6038.14 6135.57 5024.9 5998.38 4270.24 4989.15 4947.52 4520.1 4305.57 3791.79 5201.67 5526.55 4754.05 3192.41 6084.93 4987.87 3315.57 4669.66 4808.52 5607.24 5461.13 4907.89 5655.21 5629.19 6756.95 4929.8 4049.23 5601.05 3586.91 3115.91 4948.92 5478.92 5094.44 5375.47 4723.12 5659.17 4717.05 4562.29 5423.8 5080.66 3417.33 4164.13 4926.42 4642.34 5153.74 5874.89 4165.81 4293.03 4424.7 4951.47 4925.44 5246.61 5215.15 4764.96 5046.33 5053.92 4726.76 3599.45 5839.13 5090.24 5091.39 2240.39 6324.23 4382.74 4516.43 4749.8 5810.84 4230.54 3748.24 4655.49 6163.38 4809.42 4566.18 4964.09 5856.11 5287.2 4234.94 4109.88 5013.13 5714.58 5110.45 5248.77 4083.97 4528.09 3556.85 4389.21 4128.98 6246.22 4307.28 5804.71 5020.12 6352.26 3735.44 5923.5 4073.93 4786.6 4645.41 5096.78 4727.24 4651.28 4384.42 4362.19 4493.48 3693.63 5082.6 6061.47 3459.9 4093.08 4997.27 5543.27 4980.85 3327.49 3960.8 4923.9 3329.99 4973.78 3947.47 5208.32 3296.27 4607.02 3895.51 6673.96 6291.51 5882.89 4188.32 4100.38 4739.42 5538.93 5727.3 4242.52 4907.06 3847.38 3057.03 5163.9 4433.59 5740.84 4973.83 4612.68 3320.52 4151.94 6355.42 5690.56 3937.74 5478.47 6142.37 5806.08 4449.22 4853.39 5628.24 5365.89 5992.26 5070.39 4613.31 5091.68 4204.84 4713.25 6243.0 5174.89 4288.3 5441.96 5370.52 4652.29 5774.81 3697.96 5344.77 4899.11 4723.48 4278.07 4745.45 5356.51 3818.59 5495.68 4863.72 6043.3 5530.87 3912.37 4129.43 4310.18 5293.9 5927.43 5492.26 5244.78 5762.84 5351.39 3982.23 5119.37 4336.42 3130.65 5243.29 5004.67 5409.33 4511.54 4898.94 5196.0 4178.15 6119.09 7531.29 5069.25 5935.03 5048.89 3991.03 3161.47 3435.9 6826.57 4495.87 3746.31 5027.98 5097.87 5281.28 2631.9 4087.15 5489.34 5952.75 6445.94 4320.28 4281.49 6142.94 4329.05 6082.81 4685.34 6327.9 4220.88 6640.13 6519.71 5210.03 6022.17 4583.31 3402.32 4306.11 7589.94 5419.37 4466.03 5985.29 4733.04 4247.23 4694.83 5788.66 4755.47 4485.99 6390.78 7435.25 4788.87 5543.46 5498.32 5346.27 6475.1 7267.18 6255.18 4143.08 5002.48 4758.21 5708.14 4262.82 5537.72 6332.36 6342.25 5542.14 3843.58 4218.06 6691.39 4792.73 4931.38 4736.58 5110.37 3485.26 3191.99 5664.98 4659.59 4048.37 5449.18 5367.52 4714.54 3629.96 3092.35 3320.11 6851.54 4503.89 5935.47 5903.66 5313.66 4528.49 5275.32 4649.22 4268.65 5509.42 4354.08 4520.62 3903.75 5229.48 5475.7 5475.8 5314.69 6050.81 4249.46 6022.72 5527.33 4643.31 2691.29 4969.21 6256.02 4277.88 7500.97 6623.85 3920.42 5102.36 4931.53 8332.24 7134.64 4602.25 5480.13 4270.53 4790.08 4194.5 5191.63 4501.51 5379.87 3708.04 5513.6 4556.36 4901.41 5264.06 3240.09 3369.23 3688.8 4548.16 4515.71 4322.15 5025.39 5893.5 5030.91 4377.07 5507.24 5101.59 3813.22 5570.3 5234.29 2651.49 5512.23 4711.62 4114.24 5349.31 5394.55 2976.22 4256.43 5094.52 5936.36 5928.32 4016.18 5415.19 5127.16 5526.75 5435.74 4244.99 5560.26 5965.81 2330.66 3702.37 6917.52 4177.19 3691.0 5402.21 4880.14 4668.71 7228.46 2845.98 3948.23 5228.18 5787.31 4342.9 6122.55 2739.94 6155.31 5978.9 5082.47 4187.56 4840.84 5344.25 5344.0 4593.7 4478.15 4043.57 4138.42 5925.6 6013.14 3979.82 5138.31 4602.86 2765.2 4581.13 3856.59 4551.24 4621.75 4219.07 5358.59 3610.4 6387.01 6202.55 7111.16 3817.13 5023.15 4547.19 3844.9 3695.36 3963.86 3848.93 5076.35 6020.48 5273.35 5200.05 4091.8 4645.58 5670.2 4662.56 5166.79 5417.15 2682.24 4946.74 5996.33 3950.63 4612.62 4275.57 3619.07 5327.45 6385.23 2983.99 6185.89 4750.17 5660.85 3990.25 4752.51 4989.09 3758.07 3587.05 5320.92 4982.31 5269.18 6362.14 6719.88 5065.11 5978.82 4553.56 4223.33 6308.71 5911.67 3629.62 4997.27 4716.19 5135.69 4301.06 3456.98 5514.76 6045.46 4290.14 4020.32 4763.45 4150.99 5445.87 5198.77 4107.03 5681.38 3771.48 5147.67 4292.06 5011.31 5987.17 5006.58 4746.52 5586.81 3948.17 5413.79 5572.95 6338.89 5584.06 3686.21 6480.17 6445.22 4564.34 4871.44 6248.81 6375.99 4853.02 6259.23 5181.4 4998.21 3457.48 3931.07 3405.98 7440.72 3688.16 4681.72 3949.6 4945.39 5661.62 6631.19 4467.04 5626.61 5817.25 2614.4 6363.92 3997.96 4439.35 3460.94 6205.93 6184.4 4373.45 6229.37 5289.52 4406.1 5314.85 4305.43 5034.59 5450.44 3927.99 4942.77 5080.18 5069.84 5266.5 5329.64 4051.44 5868.82 4050.9 6695.82 3323.28 5709.62 5835.78 6405.76 4877.67 3498.2 3815.26 4245.72 4216.92 4571.7 4704.72 5908.1 4177.94 4344.58 4742.68 5922.5 4271.69 3929.19 3633.87 2775.04 3970.25 4138.46 4850.01 5643.58 5215.05 4986.77 5577.04 6318.18 5423.0 4481.53 5330.45 3689.45 5077.33 3824.16 6723.16 3868.18 5350.88 5130.91 5372.61 4948.5 5402.24 4527.02 4519.22 4531.14 5013.42 3838.56 5651.07 4962.77 5872.05 5323.3 5088.44 4635.6 4256.67 4427.28 6079.11 6430.39 3082.32 5376.71 5703.6 6326.18 4867.08 4266.03 6648.68 4713.74 5407.78 5061.98 6632.99 4923.24 5830.72 4419.61 3828.81 5309.98 7177.44 4236.14 6718.19 4407.87 3848.54 4307.48 5941.4 5331.02 6510.17 4263.33 4454.63 4066.38 4523.88 6049.55 3279.1 4241.89 5054.74 4981.9 5941.72 5794.24 6562.18 4541.21 4127.74 3066.13 6048.7 4302.5 4156.38 5896.46 5634.83 5495.84 6268.1 5113.21 4862.21 4502.5 5499.11 4374.35 5347.48 4810.12 3821.72 6898.19 5526.14 6035.6 5198.29 5137.34 3975.31 4044.45 5125.78 5344.43 4373.47 5045.38 6034.41 5452.83 4959.34 5383.07 4247.15 6552.22 4602.85 5210.48 7552.94 6101.92 3627.55 6239.84 5865.39 5370.85 3658.37 3178.54 4765.02 5629.39 4448.13 5070.29 4807.28 4768.61 2261.36 5075.55 5280.69 4220.03 6923.84 4084.49 5449.46 6179.96 4537.6 5703.07 5147.36 6260.79 4563.46 4082.57 5733.62 5282.91 5169.9 5282.51 4425.84 3797.33 4871.96 7256.35 5742.65 4800.69 5592.32 4978.31 5912.61 5381.16 4403.98 4099.77 4414.48 4948.98 4537.32 5227.52 5163.02 2476.04 4656.78 4092.24 5105.16 6006.16 6009.88 5050.65 4164.68 5316.75 5022.8 3784.5 6133.92 3719.84 4178.4 5782.6 7034.11 4011.77 6261.42 4527.08 5965.78 6396.74 7099.43 5315.4 6449.45 3627.82 5262.19 4244.9 4285.32 6070.58 5490.43 5022.28 5197.52 5178.99 5615.35 4790.78 4591.87 4027.09 6422.84 4502.18 5379.09 7644.38 6004.68 4051.34 6799.4 4409.63 5521.25 5278.36 3661.9 5107.23 5136.08 5949.46 5558.68 3776.94 4010.57 2684.03 6157.04 5246.47 4522.21 6191.29 5506.19 6719.94 4950.67 6166.29 6113.54 5453.6 4662.43 4043.66 3963.76 5528.53 6553.94 5255.18 3004.16 5460.65 4460.92 5945.89 4042.28 4863.23 4105.55 6566.1 4402.67 3555.86 6386.78 4560.84 5565.13 6086.96 3701.27 4729.43 5233.78 4562.74 5991.09 4678.38 5126.91 5776.57 5448.61 3942.07 4827.33 7443.72 7055.53 3937.08 5513.57 5013.67 5729.23 5260.34 5669.65 5934.22 3780.23 5253.55 4359.62 5011.84 5820.48 6057.22 2586.12 6946.21 5433.8 6125.34 5975.63 5252.34 4274.61 4410.55 2965.79 5776.37 4287.63 4516.28 4190.31 5486.68 5678.96 6048.86 5100.25 6894.26 4986.51 5311.03 6169.11 5339.38 4285.66 4896.11 5172.53 4135.62 5801.99 4860.33 5534.94 3685.13 3312.06 5180.76 3361.26 3418.99 4480.95 4993.35 6218.95 5222.16 5533.72 5533.42 4802.32 4599.38 4187.31 3240.51 7422.36 5161.01 4298.15 5227.59 4628.4 5832.37 6051.83 5409.63 5294.77 3077.84 4709.05 4263.16 4630.82 4813.08 6799.88 5726.66 4540.86 3062.43 5426.78 4767.78 5652.0 5235.17 4340.76 4779.5 4421.12 6065.22 4435.36 5254.49 4996.99 4221.28 4470.61 4456.39 4631.83 6193.35 6887.27 6008.49 4806.34 5653.9 5133.97 7144.24 6600.94 3600.43 4906.82 5371.02 4788.58 6155.1 5206.48 6586.45 4709.35 5826.04 5876.71 5624.49 3095.48 4166.08 3979.26 6608.73 3471.03 5188.81 3745.84 5696.88 4730.41 5690.26 4156.2 5062.71 4289.17 4497.59 5564.02 6314.07 6444.77 3921.08 5083.41 7055.42 5683.61 5805.86 5346.68 4049.02 4470.4 5296.29 5255.12 4611.53 5094.48 3872.61 4238.4 4318.48 3930.79 6132.95 5266.22 4004.35 4763.96 5226.97 5008.63 5754.18 5132.68 6595.03 4983.39 5366.52 4690.55 5146.37 7132.12 5518.57 3678.08 4836.16 5151.11 5463.48 5730.33 4527.99 5545.46 4543.1 4376.7 5190.61 3764.06 4642.93 3973.12 6642.76 6024.75 6109.49 5860.67 5987.42 5990.52 3764.1 2967.38 4835.83 5463.41 4159.35 5225.33 4929.75 4237.98 6045.22 6649.96 4896.39 4384.88 3633.79 5480.83 6081.14 5421.53 4220.46 4607.85 4287.53 5683.26 5598.74 5046.21 5131.24 5894.61 5196.67 5687.83 5004.23 6496.67 5226.0 5474.8 4373.3 5339.78 4750.78 5762.59 4861.06 5029.78 6481.79 4796.58 5960.66 4298.67 4962.09 5654.31 3999.48 4203.26 4643.85 6062.05 3923.03 4004.04 5082.74 5411.85 5607.14 4844.57 6915.83 6072.45 4027.46 4470.98 3901.8 5511.88 5759.46 5443.58 6248.6 3836.45 5687.85 4558.46 6401.43 5020.71 5997.88 2681.29 5839.71 4360.23 5576.92 6234.32 6408.83 4585.31 5365.24 5293.51 4446.06 3450.93 4270.74 6293.89 5097.45 4185.61 5737.75 4558.15 2761.07 3778.02 6552.21 5417.8 4350.12 5227.02 5670.0 4232.16 5300.96 4344.51 5680.94 3781.77 5581.55 5193.01 6550.44 3474.5 3860.83 8325.01 5732.27 4440.81 4523.39 5941.9 5434.47 5829.22 4497.78 5567.93 4243.79 5811.18 5332.65 6451.33 5604.35 5413.31 6477.91 3091.67 6439.37 4614.3 4081.97 4303.19 5401.99 5134.39 5514.84 4256.57 5784.3 3914.2 6088.68 5937.08 5612.21 6070.3 4135.08 4929.14 5128.57 5945.08 6000.7 5139.5 6442.69 7493.3 4814.55 6320.71 4648.04 3527.05 5833.06 6262.72 6607.87 3664.11 3365.82 4163.5 5374.51 5320.28 4123.6 7092.87 5224.12 3637.61 6098.14 4569.12 5750.71 4472.17 5873.69 6222.42 5470.77 4831.47 6939.12 4735.33 3999.94 4413.85 6171.13 5092.37 4864.22 2395.5 3497.9 5941.61 4512.11 4933.65 6098.1 5708.99 2435.33 4074.48 6333.29 4558.47 5731.57 5662.55 4747.55 5737.92 3755.95 3056.7 5591.76 5889.35 5010.04 4586.19 6625.18 5323.91 5825.38 4047.87 5742.47 4917.99 5636.4 4367.78 4095.75 3603.51 4298.45 5222.51 6609.84 5135.96 3834.43 5658.37 4707.06 6074.94 5491.37 4250.88 6348.03 3475.67 4792.39 5278.56 5146.37 6917.62 5631.14 6137.8 5433.65 4442.22 4887.76 3012.99 6316.56 4332.87 6400.08 6420.81 4743.59 4715.58 3317.83 5580.92 3532.3 5769.98 5973.33 2221.99 3583.21 5442.32 4643.56 4863.01 5067.46 5620.74 5356.79 5604.21 5233.29 3979.54 3169.67 4968.03 5304.13 5944.09 4863.79 5698.77 4702.06 6515.84 5117.47 4143.78 5724.64 4538.95 4970.88 5965.15 4763.66 4850.14 6739.08 7042.12 4797.52 5501.93 4471.58 5463.38 5945.21 6313.06 3493.7 6345.13 4938.74 4200.03 6470.3 4719.7 3474.39 5516.95 5313.22 5563.79 4151.76 4406.4 3905.51 6853.85 4721.02 3493.47 4254.37 4020.4 4596.75 3374.08 4188.87 5782.48 5564.23 4031.78 3735.24 5950.04 4231.83 6817.57 4477.04 3614.96 6853.04 3886.68 5703.74 4745.43 5831.96 5464.68 2685.81 4475.83 4510.8 7509.24 4394.56 4570.98 5388.78 4275.07 6101.13 4573.72 5599.7 5099.21 4163.74 6969.28 4296.69 3665.95 3319.67 5698.96 6471.42 5283.8 4076.59 4428.14 5164.1 6016.19 6464.15 4124.49 4972.17 4479.11 6685.4 5699.53 4222.77 4850.06 3783.54 5268.38 5527.23 7038.89 4805.33 3863.67 4013.38 4814.12 6193.08 5980.95 5067.56 4343.78 3352.35 2735.53 5263.3 4008.15 4909.65 6523.86 4669.06 4811.32 4286.49 6184.88 5208.14 5829.32 4396.25 4450.7 5151.52 3763.05 5092.24 4347.74 5369.08 4518.04 5291.9 4009.62 3580.58 4874.18 2081.58 2511.46 2775.69 4312.56 4011.37 4778.82 4612.06 5204.04 3306.14 5467.84 3361.92 5490.58 4750.58 5395.14 6710.88 3967.48 3464.83 2477.07 4923.41 2990.77 4925.63 3163.78 4888.6 4305.16 3293.56 4666.81 5882.65 5078.86 4780.2 5163.55 6326.39 6817.32 6643.85 5960.56 6343.14 4020.95 5462.21 6049.79 4390.41 5374.98 5226.56 5274.19 5599.49 4097.57 3436.15 5017.5 5328.22 4216.17 5711.11 4575.94 6484.17 3546.71 4938.72 5768.57 5956.65 4498.25 5151.21 5398.64 3573.73 6574.95 4693.52 4568.41 3624.7 3420.08 4912.04 4539.07 4691.91 4255.34 5064.79 5480.3 3427.63 4146.81 5896.26 5756.75 4587.67 5951.81 3924.14 6918.35 6238.32 6804.79 6372.13 5369.5 5404.01 5535.91 3230.13 5714.25 6176.67 5325.96 5412.24 6332.01 5016.02 7044.29 4234.18 7085.01 3936.95 6153.94 6069.3 6836.82 3862.77 5887.01 5116.6 5168.35 3747.03 2783.85 7693.4 4356.49 4326.48 4437.07 3994.07 3449.37 5491.9 5551.95 6405.0 4264.91 4659.16 3918.87 3101.75 5549.49 5423.42 4766.06 6605.86 6505.78 5657.36 6124.08 6519.43 5029.47 3619.79 5876.64 5053.95 6306.21 5926.11 6667.68 6213.04 5211.38 4497.31 4721.32 3830.46 5092.28 6413.11 5274.14 4739.14 4918.77 4636.5 4819.73 3382.7 5100.1 4940.42 6471.55 3954.91 5085.71 4946.42 5923.4 2965.01 4319.79 6263.44 4863.27 5122.63 6766.43 5774.97 2315.64 5862.86 4890.5 4703.08 6113.95 4050.08 3981.07 4901.07 5452.42 5186.3 5005.85 5966.61 4893.49 5325.44 5102.75 5021.88 3672.21 5760.22 4597.29 4200.09 5931.77 4795.43 5097.95 5108.06 4914.45 4222.4 4698.87 4000.43 3984.88 4661.03 5262.35 5160.59 4732.09 4320.42 4281.98 7165.9 5344.83 7046.11 4449.98 6342.48 4863.97 4771.65 4840.44 5093.82 6639.64 5212.43 5454.12 4834.3 6348.54 4066.57 5642.35 5156.76 6357.47 6101.57 4891.38 4793.65 5955.86 4532.89 2949.12 4533.37 4848.46 5742.09 2779.99 5887.38 4581.37 4920.21 4049.16 6942.34 5851.61 5478.11 5526.31 5030.15 4631.99 3858.17 3477.1 4740.98 3185.39 5388.39 5128.77 3728.18 5335.47 4526.81 4219.94 5048.19 6799.23 5907.46 6740.71 5399.29 5789.55 4633.05 4901.2 2275.45 6522.59 4785.25 5012.5 5435.19 5461.55 4270.15 3298.2 6865.76 5253.37 5424.46 5266.01 5235.11 5767.9 6031.67 6515.8 5529.42 5384.76 5257.12 6138.12 4434.19 4903.82 4428.78 4965.89 5746.28 3703.1 4371.99 5187.7 6090.91 5409.66 4623.61 4082.47 3561.29 4152.85 3295.83 4219.78 6413.02 5644.82 6235.57 5203.08 3492.19 4584.5 5412.31 5548.29 4118.84 3623.87 5916.16 5163.77 6934.37 3423.15 4488.85 3731.84 4579.69 5010.2 3554.48 6496.52 4997.83 3718.69 3991.42 4388.63 4940.28 4834.87 4514.79 2216.82 4509.89 6752.75 5938.17 5269.38 5607.3 2928.82 5313.12 5351.56 5318.53 3344.57 6448.66 5220.76 6945.98 5138.2 5783.48 4701.5 4504.35 5012.97 4036.91 5589.37 5439.49 5110.11 6379.14 3687.65 5216.26 4887.52 5478.95 3851.85 6318.23 4058.87 4206.98 5174.75 5932.07 4984.46 5948.71 3856.53 5460.89 6040.74 5260.85 2884.65 5393.65 5807.46 4648.21 4393.16 3658.05 3311.29 4549.69 6423.81 6192.77 3644.78 4078.93 4312.15 5934.82 4501.78 7122.87 5633.61 3572.94 5797.36 4243.26 5001.58 4153.84 4888.27 5119.86 4592.15 6487.56 4854.11 4901.44 4998.22 5971.22 4909.31 5533.19 5417.21 5711.62 4383.56 3562.79 4990.79 7093.13 4953.1 2895.63 6449.64 3940.49 2978.76 4857.84 2040.66 7016.27 4908.49 6622.11 5089.62 4689.15 6790.73 3685.13 5243.43 5659.95 4741.26 5920.32 4186.6 4537.14 5251.4 5551.9 3867.19 4453.64 4188.3 4963.34 5081.78 4459.28 4260.92 6116.33 4479.94 5499.39 6250.23 4407.9 4440.57 4718.54 6736.03 3087.09 5374.07 7480.41 4588.7 3766.55 5683.95 6027.62 5765.42 5469.13 6098.95 4817.16 6123.03 5453.98 5148.08 6192.0 5885.28 7610.49 6579.31 3004.34 5323.55 3022.6 3804.5 5375.1 4811.76 4172.6 4638.18 5498.42 5211.6 4196.37 5806.31 3556.79 4453.97 3503.41 7317.04 6412.67 7001.83 4482.9 4593.7 4349.13 3766.69 4891.67 6818.91 3503.65 3634.5 4027.63 6631.28 6571.31 4392.65 6413.15 6103.11 5048.55 6459.51 4024.31 4955.16 5844.72 3992.97 4147.31 5989.05 4054.22 7228.94 4441.22 4961.99 5853.89 6551.93 4595.12 3110.13 4386.8 6484.43 4625.67 3485.54 4458.64 4583.52 6418.11 6015.02 4922.49 5585.14 7039.98 4820.17 4729.42 5089.26 5084.17 3886.72 5415.45 3776.8 5096.43 6156.21 6602.43 6104.26 4798.17 3568.28 5425.98 5166.79 5996.66 4516.53 5818.95 4093.99 4122.92 6464.8 5079.22 3604.14 4684.44 4452.54 4962.21 4749.59 5884.9 3468.42 4858.44 3685.65 5799.69 4590.55 4673.35 3876.21 5571.72 4655.16 5869.4 5689.26 4916.22 3701.16 5297.19 6022.7 4255.85 4345.67 5097.69 5511.6 5019.93 3885.86 6261.75 5235.29 4517.73 5177.64 4541.8 4255.31 5453.3 5191.08 3838.47 2588.37 5887.15 4062.5 4435.51 7234.66 8659.64 4055.54 4886.12 6419.12 4301.61 6107.89 4233.8 4446.84 5206.33 4976.12 5530.49 4304.41 5660.55 5653.03 5578.94 3989.7 4157.29 4777.03 4286.17 4246.61 3684.56 6028.09 5452.36 6486.37 6083.28 6100.73 4745.79 5456.71 5470.04 4908.75 6556.26 3971.08 5684.25 6204.65 5438.92 6550.4 4244.49 5036.98 5513.8 5188.53 4521.75 3429.57 5569.2 5350.88 5420.67 4642.74 6735.97 5305.59 6114.89 5416.45 4330.58 5754.6 3288.01 4904.51 2202.77 6870.97 5751.15 5950.88 4149.55 5474.01 6201.86 7554.58 3380.69 4140.4 3639.44 5446.4 4725.01 5966.75 5510.9 3657.69 4505.28 4883.63 4971.29 3492.83 6280.13 5244.22 3684.15 5832.29 4438.76 6006.89 6456.58 3814.65 4159.81 3965.3 5244.98 5792.98 6592.93 4034.05 6350.71 6436.74 2460.79 4456.11 5583.61 4653.83 6063.64 6479.39 4986.71 4405.42 4997.91 3598.08 4599.81 5381.54 4406.05 5810.77 4680.94 5089.1 5828.35 2711.19 5876.72 5236.43 3809.69 4771.13 4992.42 7051.9 4940.84 4608.41 5895.77 4732.09 4765.72 3988.3 3757.34 2908.7 5857.79 6136.49 4039.91 6415.61 4642.66 4338.08 5276.7 4752.14 5037.06 5660.16 5842.56 6134.99 6200.54 5424.88 5148.58 4199.45 5415.85 3548.39 3583.49 5421.64 4858.51 4207.54 3375.28 6599.66 5625.65 4936.96 4481.76 3184.64 5375.12 5452.78 5065.26 4356.36 4892.44 6789.23 5069.89 2205.51 5107.0 6212.15 6813.72 5327.75 4609.02 4852.58 4896.65 4532.7 5561.74 4504.86 5975.23 4788.08 4198.94 6163.54 4211.82 5212.37 6003.78 2628.22 5058.51 4901.29 4124.76 4050.03 4775.04 4120.07 4952.52 4882.66 3840.21 6746.66 5410.33 4954.76 3908.56 4844.83 5244.78 3636.15 5652.87 5483.7 5135.63 6384.7 4355.83 5952.38 5351.86 3896.27 6056.87 5230.02 5307.35 4342.18 5166.89 6016.08 5491.63 5725.37 3868.62 6102.98 5138.33 3743.76 3425.69 6711.21 5510.45 4730.14 2606.51 3994.39 4941.02 3864.92 4618.73 6119.99 2955.36 3668.93 4960.64 4128.1 4385.81 4983.3 7778.01 5690.96 5798.38 3862.91 4125.9 5096.24 6171.71 3628.89 7382.3 2995.67 4022.56 4668.88 5027.43 5522.21 5698.23 3772.3 4855.01 7300.58 4028.32 4714.83 5474.15 7519.2 4099.92 3208.96 5285.07 4884.59 3858.06 4680.14 4478.6 4184.23 4083.79 4511.7 4144.57 4833.46 4351.38 5750.07 6543.13 5933.7 5149.72 4809.67 4757.74 4687.64 4378.3 4419.71 5469.47 4244.21 5411.02 4950.97 3197.63 4989.56 5175.29 3645.12 4863.96 4094.73 5199.44 5713.03 4652.01 5849.65 4928.27 3673.28 5775.31 5052.84 4366.74 4165.21 4603.5 5297.16 4647.67 5354.66 3566.79 4214.44 5378.23 3629.44 4787.97 5374.67 4981.43 3746.36 4061.6 5473.72 4741.28 4215.2 2603.64 2856.55 4553.68 3894.64 5361.87 3703.49 6502.97 3758.22 4783.07 4757.2 4946.23 6200.63 6816.66 4473.29 3844.54 3217.67 5034.69 5079.64 996.652 4680.69 6500.49 5965.58 4972.18 3352.34 5329.76 4607.18 3899.7 2403.72 7200.89 4813.33 4147.49 4802.98 4833.55 3646.95 4081.34 7224.99 6334.53 5377.37 5869.67 4311.48 4899.73 5018.69 3152.86 6394.19 5973.89 5807.52 5963.36 5518.11 5087.14 5169.48 4743.9 4731.21 3124.7 6776.22 6064.71 3719.11 4467.13 6060.17 5153.18 4763.4 5902.67 4236.86 5393.76 5806.61 4983.1 6010.59 7123.04 3756.96 5372.82 4009.24 5906.57 4402.17 4446.58 5401.4 5053.15 5127.82 5124.17 5805.1 5366.11 5039.12 4064.58 3908.98 3419.87 4824.81 6589.82 6328.42 7307.21 5522.75 3608.06 5867.64 6208.9 4923.57 3340.09 6633.61 6059.93 5217.95 5602.53 6355.68 5484.36 4304.63 3953.55 4187.94 5980.59 4063.9 5550.75 5021.77 6834.41 7248.4 4356.25 5036.58 3796.15 5329.59 5776.96 4888.12 6119.63 4209.49 5464.25 5486.48 3498.16 5439.9 4409.27 4752.9 5512.16 4617.55 4588.99 4287.16 3456.47 3875.05 5471.74 4344.34 5950.45 5088.57 5580.34 3852.6 5131.15 5134.67 4110.59 4847.14 3332.49 4706.5 4215.0 4811.22 3950.27 5116.66 3683.86 4918.76 5003.78 6246.56 3299.24 4208.41 5826.78 5730.61 4508.18 6214.73 5064.67 5175.89 4268.19 6618.21 4374.74 5232.85 3717.47 4062.56 3205.68 4051.18 5969.37 4928.35 5241.75 5849.53 4509.46 4651.99 3538.53 4420.11 6127.39 5640.12 6638.25 5078.59 4759.99 5134.33 2646.13 5419.57 5162.67 5760.98 3629.49 4705.68 5469.35 5384.86 4749.96 4658.24 4906.11 4387.39 4564.1 5457.66 5509.51 4848.14 5366.22 6193.73 5254.24 3742.11 4192.21 5712.35 3597.43 5701.52 5144.56 4158.91 5311.55 3360.86 5321.17 3034.16 4869.25 5545.21 3877.8 4333.87 6273.6 3667.93 5136.87 5024.32 5454.11 4708.17 3779.45 2741.2 5790.42 5784.37 3142.09 5591.77 3682.35 5182.13 7541.76 4775.49 5910.86 4681.29 6239.68 3220.29 5749.6 7320.78 4141.21 4234.88 4834.44 5782.43 4384.28 4456.26 5769.14 5113.6 5944.3 3563.14 4810.98 3381.82 5135.5 3619.72 5347.9 4646.51 5640.72 4438.58 4565.93 4504.52 6061.63 7107.63 4867.7 5073.02 2279.05 4829.35 6545.43 4277.24 4075.28 4989.2 5263.27 4469.54 6300.92 4314.56 5291.05 5161.1 3928.53 6045.67 4216.95 5742.74 5466.33 3821.94 3946.28 5984.81 5721.05 7013.17 4209.31 3805.67 5718.28 4247.69 5301.47 4947.24 4640.06 4321.21 6242.79 3540.11 6506.86 5391.48 4803.57 5966.42 5009.83 5666.95 5210.38 4642.2 5717.8 5210.75 4127.53 4474.83 4548.45 6555.44 5293.75 5658.14 5114.07 7124.45 4385.49 7142.95 6358.93 4383.68 5836.26 6666.67 2617.39 5144.44 4826.52 4583.94 5046.31 4337.32 1937.5 6240.42 4731.53 3763.9 5146.0 5721.14 4788.7 4577.73 5863.0 5084.5 4918.64 4815.47 4368.12 4365.58 3889.98 5214.4 5193.58 4636.53 5399.43 5766.05 5117.64 3835.81 3916.42 4019.34 5429.3 4869.48 5510.96 3623.19 6653.07 4745.16 4697.91 5825.55 5071.98 5719.79 3199.4 4316.5 4371.08 7261.51 4968.14 4914.03 5086.29 5527.13 5139.18 4278.57 5551.43 5049.99 4201.03 5001.87 5684.05 5638.7 5813.79 4644.88 5293.13 7350.26 3768.46 5167.53 6110.48 5003.3 6245.52 4932.29 5499.59 4990.23 3784.94 6016.87 3125.13 3845.9 6715.73 4439.71 4174.44 5667.51 4708.31 4027.33 3873.92 4198.9 5431.29 5026.76 5091.22 5023.41 6282.38 5851.63 4546.44 5657.55 5727.79 5212.92 4831.93 5788.97 3472.91 6760.92 4928.85 4023.93 5868.89 8137.11 5484.32 6650.77 6226.14 4173.54 5599.29 5280.12 4801.8 7216.98 4444.97 6038.68 5271.02 5046.12 3000.29 4807.4 4264.54 4350.15 6329.53 3516.27 6541.45 4590.01 4263.78 5367.73 4514.39 4601.74 6101.86 5078.31 4227.41 5993.0 6047.14 5467.63 4923.43 4568.64 4728.55 4929.6 3919.62 5750.35 4489.99 5984.8 4658.11 4945.0 4212.15 4551.26 5678.58 6570.35 4263.18 4242.63 5495.0 3269.54 4559.74 6015.22 4454.74 6063.44 5512.44 2904.46 5120.92 6449.06 4685.4 4924.07 4629.02 5914.5 6006.16 4608.62 4288.45 5407.96 4987.28 4071.75 6206.98 5131.77 6562.03 4410.82 6443.99 7212.97 5490.64 5695.44 4507.46 3422.21 5036.14 5603.68 4944.51 5610.95 5532.72 4584.81 3220.8 5179.17 5579.39 5270.51 5148.1 5490.75 5224.64 5949.73 3495.68 4312.48 5783.94 6370.33 5081.08 6318.25 6864.06 4493.79 4932.56 4279.44 4899.19 5058.34 4028.22 3918.94 5575.11 5487.63 3852.82 4507.36 7145.73 4168.52 5800.81 3954.77 5106.46 6793.1 5166.05 4506.66 5515.73 5209.55 4564.41 6331.74 5951.86 4252.18 5357.39 4833.67 4659.88 5325.91 3791.41 4092.07 5853.12 4213.05 4184.21 4224.3 4700.07 6203.03 5188.82 5235.87 5615.84 5043.14 4464.73 4717.73 6440.38 4732.37 5556.0 4985.3 4711.04 3904.07 5007.21 7144.05 3274.85 4619.2 5606.51 4506.18 5166.41 5740.65 6542.5 7104.73 5067.56 2596.96 3834.47 6349.67 5701.75 3272.75 5262.47 5261.19 3512.94 7043.44 4139.3 3831.52 4263.65 4750.49 4643.9 6106.43 5228.75 4807.35 5644.81 6761.81 3903.91 2918.64 5630.9 4554.68 4368.28 4140.92 4512.07 4692.32 5463.06 3127.83 5236.24 4585.04 3986.41 5260.52 4241.68 3185.09 6102.49 5114.23 3469.18 2945.34 3372.95 4489.29 7407.91 5064.23 4301.93 5846.95 6061.85 5268.15 5819.0 6347.72 3460.93 3200.6 4927.73 4602.57 3763.85 3565.32 3419.07 5710.33 5344.44 4626.72 3186.07 5549.71 4369.86 4967.51 5482.76 3745.02 5173.82 3720.7 4211.36 5698.53 5034.34 3856.73 3769.2 4450.49 3468.45 5635.32 4526.34 4316.45 5042.75 5409.08 4598.92 5241.22 6647.08 4979.52 3422.29 4407.79 5214.63 4537.03 6548.29 3990.96 5352.24 7362.42 4202.77 5836.14 5473.05 6008.81 5537.34 5192.49 5884.99 3487.31 5726.42 6643.4 4674.9 3392.26 5461.72 2549.95 4361.24 6599.28 6224.85 4556.19 5403.97 5368.66 4795.08 6562.92 4068.31 5501.73 3671.06 5077.29 4697.24 3612.44 7035.54 4850.5 5233.76 5426.4 5866.91 5763.05 5129.68 2820.07 5679.74 5076.84 5247.01 4208.37 5157.38 4841.7 5702.4 5069.9 5273.37 952.938 5473.89 6089.45 5810.17 4966.07 5072.5 4657.24 5713.36 5748.9 5545.59 5553.94 4067.96 5494.28 4824.12 5610.53 2970.9 5206.47 4099.26 4834.39 4580.06 4383.47 4608.34 3926.11 6162.3 5971.21 5493.89 4057.17 5464.83 3622.8 2781.96 4770.51 7066.96 4467.0 5414.58 3104.96 4991.35 4431.23 4994.65 4587.7 5601.55 4258.98 4462.87 5196.92 5759.79 3787.08 4013.86 4177.47 6545.99 4218.16 5334.36 4933.49 6139.64 4756.8 3990.94 4896.43 4639.8 4176.32 4462.35 6069.78 5532.75 6949.65 4095.83 4975.85 5695.25 5676.61 6171.01 5716.42 5796.26 4603.04 5701.63 4620.95 5368.93 4488.39 5124.86 7168.2 4571.74 4096.86 4796.12 3622.48 5001.51 6432.8 5385.86 5115.42 4209.0 4082.4 4930.72 5728.58 4887.73 6297.99 5378.24 3604.31 4538.89 5817.74 5887.71 5661.6 4827.61 5285.75 5385.03 5481.64 4169.15 5673.75 5360.67 5968.54 6263.3 4501.05 5592.54 3247.97 5124.34 4114.2 4326.06 5034.46 5757.29 5793.12 5469.17 5061.75 4373.2 3769.24 6022.78 4087.32 6647.85 7025.09 2569.12 4433.12 7336.37 5138.93 6406.8 5648.78 6875.73 5226.42 6081.3 4983.43 5117.52 6311.89 6405.69 4683.28 4217.36 6549.8 4851.18 4825.73 4165.36 5288.33 4871.77 6296.54 5797.21 5685.74 6740.35 4678.7 3673.6 6028.63 3450.07 3306.84 5265.21 4400.14 6215.87 4749.18 5191.26 4704.92 5866.42 3669.32 3663.0 4762.1 4954.81 3742.31 4316.0 6304.49 4546.96 5755.15 5134.72 4835.97 5695.79 6419.64 4420.6 5287.25 4589.06 5340.05 4920.88 4184.47 5577.41 5995.4 5917.34 5890.25 6511.37 5740.98 3999.5 4216.44 4346.07 6710.14 4012.92 5034.05 4598.54 4816.51 3825.48 5218.42 5345.73 4658.59 4770.63 5188.22 3810.68 4841.23 4357.11 2804.54 5005.6 5477.8 5486.89 7208.19 4549.51 5196.08 3587.93 4517.29 6379.38 6257.79 4495.75 4849.5 5323.95 6229.83 4468.26 5578.18 4870.94 5106.33 5293.37 5271.88 6121.56 5559.79 2980.31 5879.24 5740.78 6824.53 5997.91 4742.82 6791.86 6031.22 5485.84 6424.77 5453.69 5918.95 5689.56 6556.86 3242.31 4898.29 6099.28 5372.25 3234.26 4830.13 3494.16 4778.37 5134.17 4074.16 4904.35 5390.33 4904.37 5078.73 4358.81 5278.54 4651.64 5729.0 5729.92 5275.57 5016.46 4179.87 6224.13 4761.84 3661.67 5517.65 4009.68 4622.73 4161.32 5161.74 5256.75 5099.9 6945.69 2960.5 5118.86 7086.69 4298.7 4183.4 6170.9 4733.79 5833.78 4436.48 5615.35 5758.98 3967.76 5288.64 6213.24 6734.39 5942.45 4228.53 4150.76 5005.72 5368.52 6142.88 5811.26 5155.28 5062.77 5388.73 6019.35 5205.38 4884.93 6075.99 5262.79 5927.2 4550.92 5146.1 6485.77 6060.06 5544.27 3484.81 3987.69 6502.99 4287.25 5424.55 4392.75 4921.1 6219.34 4271.07 3814.16 6023.07 4191.01 5674.63 4475.38 6506.63 4140.04 4215.05 4668.8 3495.3 5322.11 5700.79 5735.08 7133.44 4726.2 4750.81 4426.02 4711.15 3953.26 4474.39 5467.51 5459.92 4096.47 6478.35 4196.62 5453.77 2809.19 4916.7 5589.53 4104.04 5593.79 5025.42 5234.2 4612.13 4965.24 5846.6 5327.05 5438.55 5353.23 5977.66 4523.81 5065.74 5198.94 5791.25 5933.54 4873.23 5464.05 5453.2 3148.79 6348.93 5136.51 6815.51 4332.64 5232.16 4422.23 4457.05 4820.68 3989.26 3618.64 5703.84 4335.79 3530.82 5797.32 5432.04 3921.27 4886.99 3702.45 3161.1 5265.63 4431.06 5684.88 6523.78 5730.2 5620.88 5370.9 4941.52 4529.77 5900.0 4325.13 4262.74 6172.27 3783.79 5317.19 4248.14 5279.19 4016.6 5192.92 7050.08 4786.66 5891.25 5370.1 5129.4 5114.51 3303.49 3720.38 4655.37 5585.25 4731.37 5023.61 6351.89 5932.28 5560.23 4975.32 5237.55 3902.48 4304.64 6030.39 4905.53 4823.06 3799.01 5254.49 3757.23 6828.8 5987.88 3579.59 6161.94 6123.46 4065.28 5057.59 4461.14 5111.26 5285.6 4574.54 4949.55 4764.83 4600.71 3957.38 4494.15 5035.71 4419.79 4710.88 5407.69 3869.39 5960.5 4117.9 5308.33 5393.43 6896.55 4666.12 4638.09 4685.65 4441.91 5377.01 5330.26 6470.23 5939.22 3626.86 5418.12 6371.96 4271.93 4604.1 4697.49 5125.17 4859.01 5524.45 5600.21 4282.11 4625.53 6589.13 2347.41 5602.62 4542.16 3543.37 5114.67 2030.03 5353.66 2638.82 5030.33 5104.39 5847.91 4934.66 4984.01 4109.44 4903.84 4290.49 4434.65 4557.1 6688.53 5209.5 6175.27 5876.51 4028.35 6731.89 5410.6 4733.41 4969.68 5264.83 3901.53 5431.14 5313.86 5178.07 5189.91 5777.26 4171.02 6119.0 7012.36 5028.06 4002.99 5587.3 5159.67 3572.73 5764.52 3770.22 4390.64 5150.84 4645.86 4045.67 6005.95 4308.49 4930.17 4581.1 6241.77 4745.44 5762.82 7360.12 6223.98 5821.49 3035.06 5617.29 5580.44 5998.13 5095.52 4746.15 6892.33 4758.84 4452.36 3976.0 4068.41 4672.86 6530.78 5059.37 3043.77 5783.38 4139.39 6264.03 3909.94 5088.64 3562.8 6589.8 7392.65 3729.16 5319.1 4181.93 3038.91 3922.28 6570.43 6883.86 3350.99 4979.5 4745.37 5939.29 5418.98 5575.11 5615.06 3132.34 1969.87 5490.54 4841.28 5203.54 4047.95 5507.38 6189.67 6889.5 5001.69 4416.87 5256.82 5300.17 5152.78 6581.56 4052.43 4057.4 5534.23 4753.76 3934.11 6025.77 4781.9 6815.96 5339.6 5828.25 4725.11 5483.37 5092.93 5934.05 5322.07 4714.66 6771.18 5076.11 5770.07 5990.75 4984.17 5101.6 4656.01 5327.39 5781.62 4037.86 4138.59 5714.51 4938.33 5628.97 5527.27 4484.78 5157.73 4621.33 4541.22 4946.08 3539.68 2927.84 4696.03 6217.33 4605.39 4698.7 6270.59 5927.1 6500.45 4907.55 4103.76 4286.61 2932.52 4603.66 4757.87 3557.46 6636.43 5971.95 6298.8 3979.46 3689.24 6321.97 5151.19 6509.54 3792.06 5128.59 4993.49 4293.3 5310.33 6583.37 3688.83 4864.38 3402.44 4848.98 4491.96 5184.98 4608.01 4467.51 5087.97 5339.82 4519.03 5460.57 5110.27 4085.96 5703.34 4612.68 6668.98 6649.52 4232.33 5462.6 4747.68 4262.19 5770.92 3093.38 4597.88 4845.91 4878.93 2002.78 5631.32 6275.25 4505.3 5793.14 4491.26 4511.34 4832.21 6463.71 4742.35 5394.79 5645.54 5264.08 4526.87 4151.74 5192.82 6920.92 4174.22 3783.36 3573.84 4067.89 6294.09 4571.57 3445.92 5131.07 3820.19 5236.69 4586.82 3133.28 6026.04 6200.05 5859.17 4052.49 4034.41 5061.74 5326.03 4420.35 6142.94 5717.45 4948.96 5117.83 5268.27 4013.86 4061.87 3980.46 4896.67 5165.31 5383.9 4585.37 5158.44 3798.09 4466.22 4288.5 4496.51 3886.56 4511.05 6153.71 5917.08 6561.94 5259.21 4256.08 2803.01 5881.93 4444.0 4399.52 4554.24 6182.19 5910.66 7415.84 4981.81 5141.03 4970.55 4840.44 8123.59 4819.83 5765.14 4767.54 4801.16 5121.08 5688.77 6177.68 5466.13 6229.64 6045.26 2848.44 4220.43 6263.87 5743.8 4094.63 5084.76 6605.11 6834.92 6379.33 5130.57 5652.73 5402.45 3985.93 6412.84 6071.59 2589.19 6079.55 3856.4 5485.61 4696.06 4937.36 5308.4 6581.13 4569.32 5537.61 6084.88 4397.06 4199.44 4053.12 4479.5 6261.67 3435.13 5065.78 4431.46 4521.42 3207.84 3977.98 6043.34 4939.56 4959.72 4712.17 3808.04 4723.71 4461.67 6126.5 6322.0 6007.1 6345.2 4609.65 5704.61 5009.21 5410.73 4379.91 4574.03 4942.63 5290.37 5850.38 4227.66 4691.01 4730.97 4594.89 3677.85 5245.95 5821.42 4515.02 4811.11 3463.53 6126.03 4121.07 6044.69 2970.24 5524.28 4197.87 5105.54 5731.43 5462.1 6353.81 3414.67 3518.14 5444.36 4150.44 5522.34 2649.69 5771.98 5899.78 5772.57 5000.74 4813.81 5244.95 4645.93 4634.25 5448.64 5901.8 6417.61 5715.51 5783.69 3456.3 6074.39 5317.83 6738.9 4460.89 5992.06 4157.1 8052.53 3939.96 4970.12 4867.12 6044.01 6520.19 4637.3 1458.87 5734.07 6241.48 3997.68 6033.28 6286.27 4188.16 6327.54 5071.38 5616.66 4802.36 5368.28 4880.78 5257.38 5075.23 5625.02 4975.56 7282.36 6666.34 4829.77 3826.01 4645.91 5581.01 6959.88 4125.75 5749.53 5247.73 5090.48 5034.02 5582.28 5945.25 5181.31 5985.75 4137.16 5475.83 6189.29 5984.55 5803.3 4721.98 3228.27 5252.82 3543.98 4142.1 5056.26 5878.55 4014.44 6604.72 6002.77 3794.47 4610.55 4967.02 4614.49 5400.69 4462.5 4128.93 5573.31 5004.68 4023.88 5348.11 4405.61 5428.24 5108.84 4034.88 3511.5 4520.14 5067.92 5488.96 5357.14 3188.21 5128.03 3720.92 5087.3 6637.38 6139.74 4975.57 7066.26 3057.3 6150.31 5214.71 4677.84 4996.91 3920.44 4924.52 5379.52 4866.8 5314.67 5658.05 6593.1 4066.36 4000.51 6032.45 5011.37 4026.03 2827.92 5092.44 5044.68 6908.32 3467.11 4817.75 6153.26 4848.15 5637.53 4439.09 3882.37 5523.81 4095.4 5188.57 6351.48 5395.12 3721.69 5357.33 3830.7 6210.0 5350.9 5432.4 3483.61 4262.52 7430.48 5545.68 5640.67 6080.69 6572.17 3751.73 5555.89 4967.93 4766.47 6369.66 5678.08 5973.57 5922.62 4414.09 5125.45 5957.82 3784.68 3717.22 6649.21 5507.07 4654.92 2943.17 5286.55 5327.71 5522.18 4322.56 5509.09 3873.72 4592.49 5212.05 3625.98 5479.86 6474.5 3928.99 4444.92 4763.04 5971.9 3746.62 4532.67 4876.37 4769.62 5260.13 4649.5 4810.74 3900.93 5784.38 4149.17 4329.8 5728.27 5672.46 3074.49 5202.33 3956.24 7558.99 3393.59 5043.14 5333.04 5445.91 4812.59 4521.99 6842.54 7115.67 5675.45 3361.11 6038.56 2807.46 5599.16 4179.8 3488.34 5658.35 4487.51 4582.12 4295.25 7394.47 4729.45 4850.95 5919.27 5374.09 4793.06 3421.81 6188.33 6111.23 6916.18 5786.06 5873.62 3868.69 5447.74 4450.51 6033.72 3768.62 3851.47 4966.74 5563.47 5651.46 3162.27 6033.93 5516.37 6520.96 4441.44 4232.44 4612.4 5336.61 5563.09 3312.3 6381.58 3282.57 4798.13 5648.59 4718.61 6697.45 3873.79 6296.36 5717.67 5515.59 5252.37 3224.81 4499.54 3775.38 5037.58 6457.89 4844.2 5114.61 6118.13 3374.62 4926.62 4871.1 6009.93 5872.45 4083.1 5270.1 5130.56 5191.29 4957.99 4947.64 6305.9 4542.62 3470.69 4859.95 4132.08 6009.88 5223.1 4850.49 4981.55 5144.23 6188.62 6153.07 4702.32 4414.06 5908.57 5944.52 4413.56 5050.2 2513.38 4821.41 5316.05 4924.53 4908.32 3995.08 4499.52 5019.84 3874.12 4028.13 4457.73 6476.35 6260.58 4067.24 3053.19 6571.26 4313.38 5580.95 6598.99 3549.92 4032.06 5246.81 2468.16 5089.1 5888.95 5394.78 3463.34 2853.68 5122.38 2459.88 5262.85 4998.37 5329.84 6559.82 3879.83 6565.95 4577.98 5043.34 5886.81 4246.24 6805.02 5354.48 5640.63 4900.26 6261.13 4167.55 6271.22 4720.34 5244.47 5378.75 3920.64 5510.89 6186.24 5822.7 4137.41 3780.07 5466.49 4038.17 5007.41 4907.48 3692.99 6213.74 4959.94 2329.93 5639.4 1635.31 6938.87 6185.73 4083.24 4806.99 5432.2 3771.91 5217.62 6178.19 4746.19 5349.85 4616.81 5212.2 5715.25 4362.94 4611.21 5108.42 4469.82 4630.5 3354.94 4404.87 4432.32 5237.27 4451.76 7885.41 4046.22 5782.25 4104.97 4575.72 4081.77 4948.21 4987.01 4420.3 2181.29 4202.12 6332.64 3917.09 6492.44 3482.73 4613.32 5145.39 3352.46 3996.93 6351.95 5195.09 4063.26 5345.05 4997.89 5093.28 6131.52 4311.92 4699.77 5093.41 6842.35 5464.34 3621.63 4777.96 5801.89 6833.5 7296.47 2613.78 5742.39 4780.16 5738.37 5616.11 4433.23 4813.24 5759.19 3113.64 4490.2 4304.75 5480.86 6139.9 4720.22 2832.83 5827.3 6036.99 5250.56 3010.1 3633.58 3825.98 6294.14 4339.97 5087.03 5203.75 4667.84 5169.09 3906.41 4691.15 4512.6 4210.24 5470.67 4260.38 5901.71 5225.11 5342.9 5252.22 5733.12 4962.35 6436.29 5402.81 4600.81 4919.13 4124.33 5168.97 5783.88 5002.38 6705.93 4865.11 4731.16 5502.14 6470.87 4495.33 5282.67 4159.89 5747.9 5178.55 4287.93 5146.69 6203.24 6818.23 4488.41 4369.87 5652.19 5412.07 5512.57 6578.62 4813.55 5856.43 3465.03 3839.0 5229.56 6011.4 5799.86 5172.1 6052.22 5376.41 6545.78 4870.14 2932.2 5105.72 4082.01 5767.65 5003.49 4750.76 4907.03 5497.27 5617.91 4444.95 4721.2 4706.31 2694.25 6265.48 4735.99 5003.81 4203.68 4739.56 4701.03 6225.05 5434.04 5200.1 3997.52 7679.2 4881.51 4909.74 2626.41 5310.33 6729.99 6664.54 3922.98 5161.73 5259.48 5254.93 4803.4 6608.94 3796.73 5417.07 3834.01 5656.84 6789.66 4739.41 5312.2 5847.27 4706.59 5734.84 3982.31 4950.07 4582.24 4474.96 4084.87 4790.63 5259.29 3584.05 4589.22 4916.75 4818.53 5097.85 5584.64 4123.08 6189.04 6224.64 4636.45 4221.03 4932.27 3799.55 5638.51 6793.49 3563.33 6060.19 3550.88 5536.0 6786.37 4333.23 4328.76 5561.63 5940.5 4358.06 5093.51 5647.93 6201.49 5449.09 5154.74 4605.61 4465.56 4131.08 5386.95 3864.19 5332.11 5315.71 6158.93 5081.65 4823.14 6679.12 5806.74 4621.32 3878.8 6284.12 4796.04 3948.21 5669.15 5296.05 5263.86 4672.34 5056.32 5533.52 5003.63 5410.33 4695.7 4747.24 4944.08 4380.86 5576.16 5269.39 4305.35 3964.03 4216.33 5832.72 2451.27 3903.9 4929.35 5606.22 3943.77 5161.02 3124.49 6081.35 5459.52 6262.18 3818.37 5566.5 5663.36 4276.59 5579.04 5125.53 5994.21 4444.54 5403.81 5779.9 6964.78 5299.03 4374.05 5036.84 4565.36 5813.68 4025.08 4008.67 3618.53 4770.21 8013.28 3846.55 5283.65 4644.68 2892.36 3082.16 5911.29 5416.41 4694.27 4414.23 6760.64 2515.5 5177.88 5551.79 3793.83 6981.47 3916.15 5367.05 4758.76 5647.11 4088.72 3945.62 3743.85 6236.46 5342.17 6379.3 3795.63 5189.4 4576.71 5082.66 4550.77 4337.93 5201.3 4345.51 4048.73 6223.33 3860.8 5145.13 3747.96 5611.29 4521.88 6568.45 5004.22 4280.92 7263.57 4696.92 5705.96 6437.99 6898.8 6632.04 6540.57 4893.72 6004.72 4072.4 4983.56 5373.78 5345.65 2489.44 5438.5 5863.36 5699.4 4698.94 5237.76 4286.84 4994.98 6423.96 6058.13 5894.69 3330.85 6988.4 6635.51 4060.17 6051.35 5302.53 4909.13 4287.61 5648.02 5210.22 3308.75 4604.34 4439.17 5677.42 2701.42 5442.79 5051.39 6673.92 5242.38 5151.68 4884.94 5362.15 4609.98 4738.72 4752.31 5240.97 5569.85 5405.6 3929.35 4884.93 5082.25 4759.38 6960.97 4287.15 5282.51 5504.65 5669.41 5732.11 5040.9 5596.68 4868.66 4004.39 5159.9 4987.48 5943.61 5981.54 4248.58 5479.17 5020.37 4542.25 5233.88 4849.21 4785.55 5245.4 6189.81 4449.73 5015.67 6538.04 4894.15 6157.59 5848.41 4090.28 5438.6 4246.83 7370.52 4726.5 5467.05 3724.23 5103.3 4963.88 4601.54 5888.94 3832.09 5175.88 5267.65 5739.69 3509.34 5360.88 7360.62 3166.37 4977.64 4985.45 5205.53 5699.51 5499.37 4489.18 4883.13 4632.75 4836.76 4752.94 5551.09 3950.53 4501.1 5581.47 4384.91 4987.01 4713.56 6094.34 6779.82 5543.67 3999.81 4867.13 4863.27 4502.12 3255.93 6853.07 6327.61 4633.59 5733.59 5575.8 5268.93 4455.61 3695.72 6874.6 5106.9 5306.31 5523.96 4223.53 4733.37 4535.94 3037.72 4523.9 5126.08 5604.0 3760.4 4951.02 3919.47 4602.7 3783.35 4037.16 6395.63 4727.98 4122.2 4516.26 4790.16 3647.26 3731.58 5369.42 5207.08 4714.52 4587.19 5543.05 6028.89 5333.16 4888.17 5755.98 5392.85 5077.2 4274.05 6550.61 4277.54 5529.09 4531.46 5925.82 5448.68 4739.5 6210.48 6377.45 4491.62 4182.05 3865.5 5275.27 4072.95 
SCALARS Velocity float 1
LOOKUP_TABLE default
1.53224 1.52127 1.52129 1.5233 1.51991 1.54657 1.5166 1.54438 1.59428 1.56772 1.56421 1.53232 1.53117 1.53138 1.52439 1.51778 1.52091 1.52315 1.52152 1.54324 1.5443 1.54399 1.51374 1.58699 1.54184 1.54605 1.55492 1.5305 1.57524 1.57618 1.56802 1.52328 1.53518 1.52219 1.53402 1.52492 1.53581 1.53955 1.52646 1.51914 1.52667 1.52258 1.56285 1.54041 1.50606 1.49353 1.53162 1.5404 1.5435 1.53992 1.55085 1.52065 1.52339 1.50836 1.52383 1.52431 1.52143 1.51964 1.52957 1.5249 1.53339 1.53668 1.53747 1.52892 1.52061 1.52123 1.52862 1.53082 1.53036 1.54726 1.55247 1.55404 1.54384 1.47842 1.5061 1.50944 1.49855 1.53456 1.55562 1.57032 1.52892 1.51068 1.52435 1.52198 1.52389 1.5226 1.52317 1.52275 1.52581 1.53398 1.52768 1.52463 1.52545 1.52044 1.53164 1.54605 1.55334 1.5435 1.53781 1.51113 1.46701 1.53267 1.40351 1.54025 1.5379 1.52378 1.53558 1.52272 1.52229 1.5221 1.52644 1.51715 1.52539 1.52154 1.51906 1.53267 1.54085 1.55457 1.54803 1.53985 1.53065 1.53301 1.5016 1.46075 1.54901 1.52356 1.53196 1.53236 1.53623 1.52798 1.53026 1.52612 1.52557 1.52293 1.52234 1.515 1.5167 1.52285 1.515 1.52268 1.51879 1.516 1.517 1.53249 1.53633 1.54952 1.54241 1.54268 1.53182 1.51972 1.52119 1.48585 1.49321 1.54541 1.52968 1.53258 1.52996 1.52982 1.52747 1.5263 1.52475 1.51545 1.5124 1.5191 1.52042 1.52513 1.51295 1.51148 1.51424 1.5116 1.53071 1.52947 1.5325 1.53637 1.54344 1.53664 1.53889 1.52623 1.51282 1.49699 1.49707 1.49135 1.53742 1.53242 1.52978 1.52919 1.53083 1.53097 1.53397 1.52696 1.5303 1.51035 1.50087 1.51418 1.50336 1.51441 1.51188 1.50906 1.52859 1.5301 1.53112 1.53196 1.53058 1.51506 1.51464 1.5091 1.48573 1.51441 1.53151 1.52579 1.53011 1.53104 1.5224 1.54437 1.49658 1.50672 1.50696 1.50104 1.50731 1.51097 1.5089 1.50622 1.50358 1.52581 1.52266 1.5256 1.52155 1.52016 1.52689 1.5196 1.52923 1.51534 1.50843 1.51536 1.52134 1.51488 1.48481 1.51415 1.52435 1.52919 1.52767 1.52593 1.53522 1.50453 1.50703 1.5053 1.49641 1.50276 1.49458 1.50471 1.51917 1.51676 1.51283 1.50643 1.49422 1.50823 1.53865 1.54464 1.68636 1.41951 1.4612 1.50707 1.52005 1.51397 1.52843 1.52803 1.52997 1.53353 1.53278 1.52051 1.49851 1.50061 1.49969 1.50856 1.49272 1.49042 1.48731 1.49465 1.48792 1.4964 1.48812 1.514 1.51076 1.50508 1.49776 1.48755 1.49654 1.51615 1.53091 1.40272 1.50828 1.5207 1.52207 1.52865 1.52851 1.53285 1.53266 1.53707 1.5342 1.52167 1.50364 1.50594 1.49787 1.50686 1.49653 1.49383 1.48474 1.48016 1.47897 1.51197 1.50733 1.50763 1.5009 1.50448 1.49723 1.49663 1.50413 1.48418 1.48792 1.44787 1.46974 1.47969 1.48559 1.51325 1.52359 1.51275 1.52737 1.53575 1.53199 1.53599 1.52204 1.51214 1.50024 1.48706 1.48705 1.48799 1.48098 1.47697 1.47171 1.46732 1.5041 1.50002 1.48739 1.49455 1.49004 1.48123 1.47267 1.48312 1.48378 1.48727 1.4742 1.48456 1.49161 1.5117 1.53106 1.53608 1.5323 1.5287 1.51373 1.52519 1.50471 1.50054 1.49381 1.48954 1.48469 1.48146 1.48173 1.47377 1.47069 1.46547 1.46375 1.45439 1.19178 1.50019 1.49391 1.48918 1.50469 1.48973 1.47592 1.45984 1.46473 1.48151 1.50074 1.50499 1.49383 1.48761 1.47646 1.48332 1.49212 1.48713 1.51746 1.50785 1.5298 1.52182 1.53194 1.52989 1.50945 1.52004 1.50321 1.49775 1.48786 1.4815 1.4795 1.47952 1.47417 1.48188 1.47664 1.45027 1.42838 1.43616 1.47249 1.4969 1.47404 1.45769 1.43877 1.43998 1.43289 1.40786 1.47702 1.44699 1.45706 1.53937 1.53125 1.5194 1.59847 1.5054 1.46275 1.46797 1.47001 1.45545 1.49557 1.52083 1.52979 1.52338 1.51461 1.49836 1.49564 1.47518 1.47761 1.46777 1.44978 1.48693 1.51988 1.40632 1.41038 1.41081 1.4536 1.48328 1.47862 1.45055 1.43545 1.41434 1.35624 1.42499 1.39786 1.42923 1.58842 1.546 1.74646 1.54336 1.4273 1.45119 1.44808 1.43188 1.44581 1.40213 1.43944 1.49669 1.50293 1.52397 1.51767 1.51185 1.50156 1.4848 1.50409 1.48433 1.51799 1.49129 1.45344 1.47021 1.53347 1.46325 1.34263 1.35609 1.39386 1.38786 1.23734 1.40787 1.45106 1.44021 1.46694 1.36609 1.34555 1.3909 1.44362 1.3702 1.4148 1.92378 1.35654 1.48856 1.4449 1.39009 1.38357 1.41025 1.52771 1.55669 1.50135 1.51272 1.41501 1.47972 1.51704 1.58186 1.49972 1.48253 1.4975 1.47629 1.52229 1.44944 1.50652 1.41531 1.73731 1.47785 1.51973 1.35448 1.30682 1.19178 1.24389 1.47649 1.41134 1.5194 1.39152 1.50274 1.3037 1.51915 1.46278 1.47985 1.60696 1.26492 1.74872 1.06109 1.50592 1.53924 1.53125 1.43262 1.38534 1.42094 1.4135 1.57539 1.35182 1.63432 1.4291 1.41138 1.2746 1.52252 1.48072 1.48487 1.44715 1.53583 1.3745 1.30665 1.61109 1.06942 1.9764 1.19178 1.31404 3.92404 0.311136 2.24864 1.21118 1.42445 1.34556 1.38618 1.37619 1.34399 1.31253 1.30076 1.55946 1.4365 1.33812 1.28307 1.35863 1.23863 1.19495 1.34386 1.42902 1.44703 1.5388 1.40495 1.39034 1.37927 1.3142 1.45539 1.36378 1.44355 1.4631 1.4885 1.58578 1.53864 1.57342 1.78273 1.61573 1.45634 1.22348 1.52521 0.867252 1.96235 1.18833 0.690165 1.04854 0.686578 1.32271 1.07849 1.19419 1.18034 1.51802 2.10077 1.46589 1.59518 1.51715 1.59048 1.42634 1.37989 1.36407 1.28417 1.31078 1.41785 1.39338 1.32715 1.40395 1.27364 1.3232 1.30767 1.23073 1.30954 1.44368 1.32216 1.39963 1.47985 1.37907 1.40296 1.34702 1.32969 1.3165 1.30546 1.42582 1.39518 1.44283 1.50467 1.52065 1.45744 1.58997 1.39642 1.86789 1.45928 1.3522 1.17503 1.28234 1.19611 1.11903 1.03387 1.01406 1.03963 1.05905 1.09946 0.966733 1.03873 1.06599 0.96228 1.26901 0.751041 1.12269 1.16873 1.07856 1.41966 1.69967 1.36641 1.67878 1.67054 1.368 1.45633 1.39141 1.26837 1.30667 1.36788 1.34273 1.38486 1.31301 1.3631 1.25243 1.30251 1.24353 1.20973 1.25241 1.24864 1.25225 1.24317 1.36035 1.21202 1.47175 1.39496 1.27207 1.27307 1.23913 1.10886 1.34872 1.2911 1.36913 1.36962 1.40189 1.3922 1.46352 1.26001 1.33273 1.38556 1.62203 1.12656 1.09638 1.17314 1.10612 1.23355 1.06458 1.15521 1.0794 1.022 1.02603 1.02114 1.00427 1.05509 1.02845 1.05418 1.05637 1.01679 1.11063 1.08042 1.04069 1.12681 1.04566 1.08274 1.09886 1.0151 0.914815 1.02313 1.05707 1.13384 1.16228 1.47005 1.233 1.0833 1.25152 1.4164 1.5064 1.43551 1.47928 1.26025 1.38828 1.25096 1.30418 1.34 1.37741 1.16745 1.2075 1.20222 1.18822 1.19632 1.20809 1.32965 1.14404 1.37289 1.22479 1.33619 1.21494 1.33418 1.27922 1.15791 1.14239 1.37398 1.3583 1.31601 1.33881 1.32029 1.36287 1.40428 1.09249 1.13973 1.26644 1.13278 1.37542 1.19317 1.21894 1.20439 1.18609 1.16067 1.12554 1.12312 1.06943 1.10234 1.0342 1.1284 1.04003 0.953535 0.990774 0.987779 0.944483 0.945835 1.03692 1.04502 1.01942 1.03393 1.00138 0.982987 0.997622 0.997539 0.948309 1.00451 0.991391 0.941669 0.994122 0.890259 1.09569 1.15088 1.01752 1.22698 1.08112 1.28227 1.32359 1.1034 1.5507 1.26683 1.28287 1.33624 1.05864 1.04723 1.18649 1.1957 1.20355 1.18988 1.19622 1.15412 1.16435 1.21406 1.20825 1.26994 1.21161 1.18231 1.20896 1.20693 1.25992 1.17339 1.23946 1.23783 1.1979 1.26132 1.29662 1.11158 1.15888 1.02903 1.14456 1.46816 1.13064 0.881514 1.06018 0.958417 1.13361 0.963171 1.26608 1.14047 1.01259 1.18149 0.952583 1.12785 0.915872 0.974068 1.1566 1.03048 0.879681 1.04328 0.888085 0.930854 0.917543 0.953193 0.901613 0.900787 0.89935 0.887354 0.854443 0.888179 0.862873 0.922696 0.938762 0.944149 0.931499 0.942936 0.988148 0.904819 0.88134 0.896248 0.916196 0.893325 0.93503 0.908116 0.960857 0.935924 0.939461 1.04466 0.929948 0.946494 0.973624 1.05089 0.926951 1.10095 0.923444 0.948362 0.791379 1.13373 1.27037 1.26609 1.09325 1.41289 1.0791 1.02488 1.08777 1.15524 1.07468 1.14208 1.14836 1.07362 1.15293 1.14189 1.07857 1.21387 0.993066 1.0059 0.978831 1.18313 1.15731 1.23834 1.27461 1.20837 1.19675 1.21617 1.18417 1.18368 1.0886 1.14543 1.08745 1.07961 1.07014 1.16762 0.958984 1.12248 1.01934 1.03235 1.14061 0.990364 1.1531 1.06272 1.00724 0.867067 0.867415 0.97193 0.96396 0.8555 0.872157 0.867404 0.853267 0.880881 0.862827 0.871714 0.882347 0.87203 0.870831 0.873069 0.795144 0.804714 0.863087 0.828396 0.807148 0.826595 0.882894 0.919086 0.894265 0.894759 0.88918 0.875927 0.888534 0.863611 0.879012 0.913501 0.895594 0.898179 0.924517 0.909798 0.951704 0.93729 0.878328 0.869027 0.956468 1.10534 1.05024 0.937345 1.25377 1.32932 1.08292 1.00958 1.03136 1.13025 1.00633 1.0724 0.944877 1.0663 1.12901 0.996585 1.04317 1.00625 1.06846 0.957801 0.976039 0.92561 1.10365 1.10969 1.14512 1.30495 1.17903 1.13796 1.14542 1.10904 1.10435 1.03296 1.07675 1.05758 1.09888 1.13081 1.03445 0.982683 1.02397 0.796789 0.947125 0.867421 1.03097 0.98822 0.973581 0.98405 1.01275 0.907188 0.986495 0.87607 0.950148 0.910659 0.853461 0.849526 0.869623 0.854358 0.863205 0.863933 0.854371 0.875826 0.870849 0.851484 0.878655 0.875606 0.866278 0.824121 0.859835 0.925781 0.8119 0.808001 0.81502 0.855982 0.87711 0.878068 0.888166 0.851633 0.849976 0.857484 0.891 0.931624 0.883646 0.947904 0.927168 0.974301 0.910332 0.865586 0.892194 0.880465 0.897055 0.926451 1.02509 1.03835 1.05377 1.06807 1.18168 1.32455 1.04636 0.950466 1.07449 0.985921 0.947907 1.10655 0.992304 1.06072 0.972226 0.94654 0.945818 1.06144 1.05879 1.08096 1.11604 0.978175 0.935764 0.997695 1.13141 0.947232 0.916594 1.07562 1.07753 1.11631 1.06307 1.04937 1.02741 0.998965 0.944443 0.984983 1.02082 1.10318 0.876909 0.951617 0.967624 0.874643 0.902409 0.93018 0.974063 0.949544 0.950582 0.910103 0.909735 0.89701 0.875932 0.855376 0.856515 0.866125 0.840362 0.854443 0.842577 0.848781 0.844496 0.834477 0.827399 0.8222 0.834311 0.808928 0.829724 0.810387 0.802079 0.81439 0.955437 1.01184 0.972867 0.948872 0.69845 0.816912 0.738251 0.749115 0.84059 0.802588 0.835205 0.835105 0.874072 0.868911 0.866082 0.860565 0.871859 0.854695 0.848093 0.854452 0.971497 0.862456 0.930034 0.913543 0.827361 0.860657 0.817433 0.869489 0.887795 0.907155 0.935688 0.958818 0.972439 0.99424 0.900564 1.044 1.08565 0.950004 0.875715 0.848763 1.08276 1.06999 0.720066 1.07702 1.00522 1.01014 0.88169 1.20346 1.05859 1.01452 0.910284 0.952521 0.955965 0.998239 0.898701 0.808659 0.914689 0.976014 1.03407 1.09255 0.942228 1.03745 1.03504 1.05085 1.05351 1.06879 0.970987 0.887325 0.908466 0.871227 0.841244 1.05447 0.709192 0.800392 0.928 1.13153 1.08999 0.92239 0.955314 0.958844 0.926571 0.943662 0.958965 0.884985 0.887958 0.905123 0.860843 0.843972 0.838694 0.838732 0.840124 0.832447 0.825464 0.809078 0.849375 0.829729 0.832953 0.759741 0.804216 0.759046 0.782849 0.695644 0.689282 0.792254 0.753752 0.876642 0.805351 0.833475 0.719722 0.56977 0.697246 0.667273 0.740298 0.690679 0.854162 0.869702 0.861022 0.810056 0.864101 0.862891 0.852708 0.868392 0.875698 0.888729 0.92285 0.871523 0.870616 0.820603 0.83176 0.818463 0.816289 0.86171 0.900594 0.861231 0.933682 0.955318 0.91452 0.978648 1.01079 1.0161 1.02284 1.05327 0.891006 1.20689 0.935222 0.868018 1.04886 0.968323 0.815573 0.926083 0.873931 0.934349 1.08679 1.06676 0.809902 0.90267 0.661308 0.990924 1.05394 0.817121 0.851877 0.916044 0.917065 1.00013 1.06206 1.05169 1.06297 1.03071 1.01949 0.968016 0.952831 0.91246 0.924855 0.795609 0.886826 0.879406 1.00297 0.8638 0.858582 0.944246 0.876731 0.929357 0.923552 1.10735 0.976717 1.00038 0.97689 0.829214 0.847584 0.885857 0.973924 0.856894 0.800707 0.968497 0.905823 0.901182 0.698057 0.839368 0.761012 0.781841 0.717007 0.691912 0.706364 0.755176 0.713191 0.721784 0.813944 0.720379 0.810431 0.818462 0.895971 0.789851 0.65229 0.747793 0.738079 0.65966 0.747449 0.766047 0.598538 0.790896 0.657125 0.884903 0.997316 0.804244 0.832132 0.765495 0.862135 0.852119 0.856341 0.84245 0.797118 0.870337 0.884318 0.873362 0.85406 0.830676 0.841657 0.814658 0.836088 0.822694 0.898685 0.890883 0.921105 1.02011 0.993367 0.986384 1.0009 0.929913 0.906184 0.843518 0.840394 1.10559 0.805962 0.797288 0.968374 0.970923 1.04968 1.09612 0.967624 0.919015 0.883642 0.977619 1.01225 0.899648 0.728213 0.994844 1.28349 0.849329 0.867961 0.856707 0.86384 0.853508 0.867943 0.890484 0.917908 0.973168 1.01772 1.04631 0.956291 1.05398 1.06038 1.02646 0.984545 0.978795 0.823731 0.856918 0.948556 0.95129 1.02867 0.909797 1.07905 1.0767 0.756145 0.88991 0.815822 0.845422 0.882857 0.887547 0.978153 0.98469 0.838014 0.844393 1.00462 0.865151 0.849516 0.890684 0.894892 0.836024 0.873241 0.919375 0.902551 0.869082 0.861948 0.948006 0.919089 0.872583 0.734257 0.820208 0.749174 0.7177 0.734675 0.715557 0.723064 0.757134 0.749173 0.728233 0.785549 0.719755 0.792806 0.805972 0.762956 0.71476 0.70336 0.722186 0.7755 0.7165 0.667185 0.746607 0.745312 0.782121 0.792219 0.797268 0.844305 0.889651 0.816528 0.794756 0.789945 0.784143 0.788739 0.863759 0.856665 0.838157 0.822335 0.825294 0.809435 0.797013 0.81192 0.845575 0.912051 0.896711 1.00741 0.962219 0.73261 0.803583 0.862741 0.78125 0.888683 0.974194 1.13005 1.13721 0.940021 0.934852 0.854023 0.890309 0.953743 0.935447 0.910399 0.77863 0.613461 0.932034 1.00204 0.933075 0.878876 0.892591 0.910497 0.915557 0.798088 0.895518 1.04167 0.987502 0.95063 0.976019 0.835958 0.842654 0.782003 0.875462 0.799928 0.835023 0.769772 1.26928 1.19609 0.769971 0.819046 0.918385 0.797949 0.777327 0.997482 0.653054 1.11048 0.639025 0.861387 0.796815 0.765448 0.883856 0.860926 0.879386 0.840806 0.807045 0.8294 0.857372 0.830559 0.835706 0.841432 0.796518 0.810176 0.747628 0.743227 0.772103 0.749066 0.727332 0.728551 0.732229 0.734694 0.76303 0.749297 0.753047 0.777197 0.755003 0.792276 0.74656 0.782964 0.681515 0.715763 0.721955 0.740748 0.702907 0.762244 0.711757 0.705561 0.699962 0.661148 0.69536 0.738082 0.732492 0.796388 0.768726 0.821472 0.859394 0.881016 0.854739 0.876032 0.85354 0.834053 0.810157 0.792549 0.752317 0.86001 0.811167 0.795597 0.826171 0.834283 0.788806 0.783688 0.81783 0.810799 0.840167 0.819247 0.834576 0.90369 0.955124 0.881909 0.870102 0.726107 0.860651 0.912574 0.869583 0.868084 0.856076 0.853726 0.872758 0.929909 0.866898 0.717033 0.942968 0.930263 0.948642 0.869167 0.908843 0.900568 0.889109 0.848602 0.866968 0.835137 0.690394 0.901895 0.840694 0.963784 0.926775 0.904315 0.901418 0.903657 0.892337 0.83721 0.894192 0.819404 0.889742 0.791152 0.910999 0.849606 0.845869 0.871154 0.926399 0.925528 0.898659 0.928307 0.858129 0.783162 0.766297 0.744617 0.846626 0.866218 0.957882 0.750079 0.899161 0.544855 0.772976 0.728249 0.767791 0.862319 0.945194 1.04051 0.824534 0.71192 0.839283 0.733146 0.79272 0.815466 0.759871 0.858411 0.939551 0.733707 0.905515 0.892217 0.770374 0.73854 0.831496 0.756043 0.774788 0.727547 0.797843 0.858255 0.860214 0.752094 0.816723 0.744435 0.678166 0.725794 0.753923 0.716472 0.72792 0.734627 0.736681 0.736724 0.74019 0.825704 0.879046 0.774751 0.778112 0.7541 0.75343 0.699256 0.735031 0.763962 0.751048 0.762648 0.75691 0.758329 0.721946 0.731456 0.711564 0.759849 0.778813 0.745126 0.8615 0.897567 0.856378 0.826746 0.890371 0.858372 0.773313 0.792603 0.78181 0.777786 0.78486 0.794238 0.795855 0.800897 0.852053 0.82241 0.888672 0.86583 0.796648 0.958136 1.03611 0.974241 0.675875 0.707185 0.815037 0.940163 0.851455 0.858714 0.775266 0.819479 0.939343 0.895289 0.883202 0.878527 0.844155 0.862704 0.874584 0.877059 0.892407 0.882973 0.899823 0.89325 0.877704 0.883102 0.83632 0.805757 0.811336 0.796447 0.817241 0.845285 0.806518 0.82969 0.835098 0.897035 0.80423 0.92067 0.81003 0.880295 0.845884 0.919919 0.888292 0.867494 0.810448 1.08763 0.638085 0.783207 0.806361 0.852096 0.875956 0.915771 0.880298 0.693035 0.769249 0.785558 0.829893 0.796321 0.700216 0.757106 0.661031 0.716433 0.606487 0.760855 0.701383 0.839235 0.787222 0.754924 0.784955 0.699988 0.693434 0.794781 0.728474 0.742999 0.739127 0.737848 0.746047 0.739498 0.743096 0.731329 0.766654 0.725082 0.78627 0.744258 0.88676 0.945644 0.939379 0.835553 0.695019 0.760367 0.686093 0.717562 0.666699 0.657395 0.720395 0.782353 0.824787 0.778339 0.763581 0.729085 0.768214 0.722236 0.739115 0.761377 0.767571 0.737312 0.7125 0.617799 0.833488 0.814712 0.921401 0.720742 0.853162 0.800218 0.708784 0.736287 0.640899 0.751578 0.771365 0.778021 0.792799 0.76946 0.845754 0.806764 0.836375 0.859825 0.82751 0.802125 0.772041 0.644291 0.835556 0.766042 0.763645 0.821243 0.856182 0.906496 0.86349 0.873741 0.827725 0.812297 0.869485 0.903168 0.859513 0.83449 0.884015 0.84693 0.865281 0.893948 0.880339 0.901773 0.891902 0.879845 0.880043 0.878459 0.89121 0.891887 0.888321 0.89164 0.894186 0.859793 0.828164 0.815617 0.797972 0.799774 0.797113 0.793398 0.792143 0.811138 0.791886 0.801475 0.812267 0.91659 0.896048 0.896387 0.929025 0.917168 0.58157 1.00205 0.728075 0.801242 0.795837 0.798001 0.738439 0.6552 0.788033 0.78358 0.753197 0.814505 0.76061 0.827898 0.686571 0.68926 0.668294 0.684463 0.715063 0.715405 0.73597 0.716564 0.71026 0.688243 0.697314 0.752243 0.734422 0.710751 0.733902 0.745016 0.733611 0.736022 0.736143 0.719072 0.742978 0.777942 0.777863 0.679471 0.698229 0.779685 0.745046 0.636279 0.579367 0.812115 0.591435 0.993722 0.801863 0.891606 0.62241 0.745503 0.701025 0.737621 0.756711 0.662847 0.7521 0.709404 0.789283 0.876953 0.86817 0.798424 0.73456 0.69041 0.660965 0.676462 0.717438 0.7875 0.742771 0.769582 0.747156 0.689308 0.681339 0.908055 0.857953 0.697722 0.769529 0.594363 0.767618 0.858573 0.889133 0.853989 0.796004 0.773877 0.831619 0.795539 0.772202 0.772615 0.776808 0.783472 0.754651 0.775327 0.799705 0.826552 0.884705 0.861358 0.861939 0.860443 0.848174 0.85068 0.873557 0.858685 0.866906 0.85206 0.838352 0.826171 0.843026 0.908621 0.941471 0.90252 0.878907 0.879748 0.887458 0.889388 0.888866 0.889307 0.871902 0.850687 0.830806 0.813795 0.798967 0.800023 0.799784 0.782802 0.781358 0.785276 0.84478 0.808049 0.777138 0.826585 0.81134 0.759031 1.16793 0.976058 0.515458 0.84843 0.711611 0.784937 0.767484 0.771463 0.739007 0.768506 0.753958 0.728847 0.802633 0.843752 0.891346 0.857783 0.852777 0.885477 0.655246 0.638783 0.779743 0.729726 0.834728 0.806938 0.826036 0.774375 0.696586 0.696761 0.719834 0.688263 0.741542 0.737649 0.730539 0.73016 0.745248 0.707059 0.67913 0.748975 0.691005 0.660309 0.731104 0.753502 0.747421 0.731158 0.586859 0.601206 0.583766 0.575745 0.655656 0.632028 0.60449 0.669936 0.985761 0.481439 1.06191 0.636118 0.710639 0.727521 0.687937 0.794114 0.963723 0.646222 0.844809 0.66298 0.721622 0.667851 0.721737 0.817334 0.712997 0.785246 0.709919 0.735131 0.75642 0.901863 0.870869 0.771782 0.753043 0.829696 0.92317 0.935102 0.828142 0.804867 0.815044 0.796491 0.762843 0.765673 0.756152 0.780694 0.763944 0.759612 0.764971 0.785397 0.804746 0.81046 0.820836 0.831591 0.839253 0.847771 0.862083 0.868908 0.865606 0.876708 0.859788 0.845017 0.859718 0.854565 0.85104 0.844642 0.891047 0.730472 1.02656 0.9435 0.858786 0.862411 0.889506 0.886221 0.887828 0.888414 0.870853 0.875335 0.852676 0.832831 0.825239 0.822669 0.8085 0.791445 0.794569 0.781183 0.790763 0.804699 0.788912 0.98243 0.692314 0.689886 0.714996 0.721327 0.749181 0.746142 0.744309 0.719744 0.622266 0.836547 0.808408 0.853116 0.890641 0.852393 0.89667 0.867891 0.821794 0.749684 0.786464 0.762124 0.760772 0.819252 0.825839 0.793976 0.805567 0.767572 0.696387 0.755856 0.666511 0.638283 0.718137 0.70656 0.740449 0.702764 0.698255 0.694434 0.745745 0.728154 0.759549 0.67929 0.747208 0.620529 0.685963 0.68535 0.68888 0.721381 0.726076 0.717083 0.73048 0.733118 0.743525 0.656185 0.64358 0.59688 0.583966 0.5184 0.530393 0.534017 0.605053 0.596356 0.57581 0.799216 0.609704 0.64308 0.588676 0.647427 0.656191 0.665331 0.654804 0.659711 0.572755 0.723039 0.738502 0.630186 0.636565 0.814877 0.582514 0.866959 0.83015 0.734788 0.72853 0.756559 0.777391 0.86245 0.823742 0.84532 0.800134 0.784318 0.788214 0.76707 0.734731 0.755682 0.760083 0.778159 0.790305 0.779361 0.778292 0.78718 0.804941 0.823046 0.831679 0.834048 0.856638 0.869165 0.870053 0.886271 0.881201 0.90375 0.855571 0.86858 0.86194 0.866518 0.874538 0.785335 0.888473 0.72267 0.706242 0.995144 0.857916 0.86937 0.87246 0.881913 0.890167 0.881446 0.875081 0.87311 0.866965 0.846716 0.829596 0.826054 0.820121 0.816029 0.800711 0.80317 0.798522 0.80509 0.79619 0.806504 0.802837 0.837915 0.842182 0.815288 0.787451 0.837471 0.794231 0.734151 0.736257 0.783284 0.847194 0.793182 0.868687 0.581513 0.596455 0.868897 0.831315 1.05013 0.845194 0.902827 0.755666 0.715809 0.690163 0.592857 0.762346 0.815071 0.797699 0.831351 0.837507 0.753825 0.727536 0.620508 0.632586 0.691942 0.809414 0.731463 0.751904 0.590136 0.638109 0.522145 0.619534 0.668876 0.675931 0.765569 0.745868 0.704591 0.68141 0.832372 0.778805 0.883326 0.76876 0.796702 0.628646 0.6801 0.665949 0.632974 0.605761 0.580934 0.565242 0.563244 0.550695 0.578994 0.573163 0.524432 0.589844 0.555597 0.696981 0.797658 0.638303 0.727241 0.64685 0.638407 0.655278 0.677306 0.686875 0.761246 0.673522 0.821386 0.687035 0.575259 0.515671 0.824399 0.736062 0.681578 0.680177 0.790128 0.777972 0.768806 0.762609 0.793277 0.777943 0.802681 0.776753 0.774866 0.769714 0.738872 0.764166 0.77504 0.779208 0.783248 0.782394 0.791958 0.791731 0.819737 0.826902 0.825239 0.844273 0.839413 0.867523 0.873062 0.879919 0.88415 0.899924 0.929123 0.833467 0.864655 0.876855 0.880749 0.841297 0.793624 0.744118 0.893 0.739274 0.975744 0.939027 0.891562 0.887989 0.879205 0.885654 0.872932 0.858636 0.839871 0.851028 0.834395 0.825927 0.820733 0.809901 0.815096 0.817508 0.809922 0.837189 0.830315 0.855257 0.838795 0.860909 0.833873 0.79446 0.73138 0.742842 0.757899 0.738897 0.725814 0.905042 0.94268 0.678058 0.735157 1.1127 0.886381 0.790874 0.888314 0.787084 0.74525 0.812582 0.713449 0.666923 0.799784 0.673934 0.746538 0.701129 0.661075 0.755886 0.760928 0.688961 0.707638 0.684632 0.823662 0.744906 0.762548 0.931517 0.648616 0.726174 0.386473 0.94644 0.497094 0.742949 0.690595 0.6541 0.679748 0.671709 0.284839 0.755511 0.530223 0.452122 0.63285 0.546586 0.560467 0.492567 0.643648 0.690301 0.442873 0.641194 0.670016 0.680085 0.624953 0.611236 0.580766 0.645309 0.558229 0.480395 0.524117 0.528349 0.615978 0.614611 0.678958 0.68414 0.729038 0.783968 0.689664 0.66308 0.691685 0.639039 0.655419 0.667134 0.681844 0.687008 0.643599 0.76139 0.641523 0.668732 0.632468 0.591363 0.633688 0.512175 0.476992 0.6705 0.849626 0.86794 0.769812 0.750735 0.739006 0.787779 0.786292 0.761968 0.744599 0.777446 0.751165 0.749904 0.771511 0.772286 0.777433 0.769014 0.768654 0.78913 0.795337 0.787131 0.788819 0.786156 0.787275 0.792447 0.801022 0.819296 0.818321 0.834533 0.840555 0.85496 0.854516 0.874894 0.897606 0.921688 0.89974 0.868582 0.857355 0.848521 0.84474 0.812203 0.782686 0.845666 0.921805 0.9095 0.915506 0.891229 0.885308 0.879005 0.874294 0.874394 0.866427 0.858829 0.856141 0.844848 0.826598 0.807026 0.809091 0.814993 0.828193 0.843343 0.865586 0.895045 0.852115 0.832129 0.696914 0.687564 0.57014 0.75821 0.796228 0.75082 0.77883 0.777185 0.794242 0.542024 0.811249 0.46955 0.530192 0.833001 0.692587 0.788317 0.712543 0.654662 0.695948 0.722015 0.722265 0.701966 0.708044 0.784508 0.749985 0.737305 0.70778 0.965034 0.668468 1.04271 0.962695 0.976264 0.69682 0.347311 0.508285 0.582677 0.536816 0.648589 0.53602 0.570716 0.45878 0.500648 0.498052 0.527881 0.494117 0.501524 0.491913 0.536168 0.473401 0.452905 0.443313 0.481706 0.490746 0.478916 0.55935 0.419245 0.412145 0.78403 0.617728 0.754607 0.576046 0.500768 0.648795 0.354924 0.522593 0.262017 0.548798 0.632051 0.595488 0.640849 0.6104 0.536605 0.7126 0.67206 0.627027 0.688243 0.746393 0.711918 0.684677 0.666448 0.682817 0.656642 0.644684 0.63592 0.652135 0.613969 0.655517 0.637942 0.80647 0.811314 0.766807 0.825747 0.798568 0.78667 0.77515 0.758435 0.742699 0.739201 0.752609 0.76192 0.771891 0.776939 0.775023 0.778011 0.792587 0.797086 0.800776 0.794556 0.807699 0.805563 0.81707 0.817392 0.833586 0.847145 0.856973 0.865063 0.87352 0.896148 0.916677 0.917786 0.89233 0.871524 0.858102 0.84553 0.842423 0.834104 0.829222 0.89437 0.893773 0.898743 0.901975 0.902024 0.895693 0.887543 0.885636 0.882588 0.879029 0.87062 0.867595 0.867245 0.860212 0.860109 0.860914 0.8727 0.852801 0.874483 0.799168 0.827477 0.822155 0.825818 0.810136 0.809258 0.821783 0.887891 0.918826 1.02507 0.876598 0.832108 0.790189 0.776377 0.848652 0.775342 0.759307 0.676037 0.782022 0.703427 0.673042 0.713563 0.616918 0.750889 0.751179 0.741796 0.724551 0.677193 0.677497 0.704075 0.633483 0.717871 0.65438 0.744786 0.712181 0.615765 0.563248 0.663231 0.641059 0.602645 0.706167 0.666807 0.641773 0.720313 0.635567 0.523157 0.838684 0.518741 0.577899 0.535177 0.526105 0.53316 0.609036 0.561328 0.570348 0.538397 0.510041 0.502004 0.503575 0.517722 0.501463 0.459623 0.502581 0.431167 0.455968 0.539715 0.496935 0.507968 0.544811 0.53493 0.457102 0.496643 0.583836 0.590839 0.678409 0.769417 0.832345 0.692619 0.41311 0.682525 0.575649 0.58046 0.592437 0.568625 0.575511 0.639245 0.619674 0.787347 0.782371 0.709697 0.665636 0.643348 0.64016 0.621841 0.631163 0.66766 0.620559 0.722084 0.781182 0.804876 0.764233 0.742012 0.719027 0.72503 0.728036 0.743936 0.752535 0.744838 0.754826 0.759062 0.760335 0.784764 0.778832 0.794471 0.794871 0.797496 0.803087 0.81122 0.823109 0.825277 0.834888 0.833995 0.845955 0.84576 0.860261 0.871489 0.870444 0.883942 0.869398 0.909962 0.945739 0.932522 0.912264 0.904748 0.881074 0.868495 0.86095 0.85539 0.857033 0.854971 0.8544 0.834732 0.850651 0.90376 0.89885 0.896375 0.894305 0.88105 0.880774 0.877178 0.872922 0.86313 0.867936 0.865693 0.869703 0.818207 0.812578 0.803909 0.80022 0.846301 0.92074 1.20794 0.55437 0.696761 0.69184 0.780928 0.806561 0.733953 0.771016 0.754932 0.749789 0.703309 0.683554 0.674576 0.70675 0.765562 0.777114 0.766654 0.640873 0.714297 0.636242 0.640658 0.675056 0.651634 0.650882 0.567814 0.601837 0.592574 0.62574 0.627524 0.580893 0.709214 0.69578 0.717215 0.713736 0.60628 0.548327 0.610835 0.558789 0.571509 0.482245 0.341528 0.518391 0.471295 0.518346 0.49529 0.433959 0.60296 0.461175 0.38534 0.351061 0.443473 0.677502 0.712319 0.603897 0.708733 0.499413 0.51502 0.538726 0.511384 0.535149 0.542841 0.545254 0.599377 0.448383 0.653091 0.48591 0.664303 0.673247 0.597482 0.593769 0.564205 0.537296 0.601313 0.663803 0.651834 0.751649 0.716912 0.700801 0.682557 0.635598 0.624516 0.632221 0.626598 0.63729 0.657016 0.745263 0.795666 0.784944 0.755502 0.743469 0.716208 0.720389 0.725369 0.732964 0.730636 0.746559 0.770048 0.796535 0.809578 0.80356 0.803324 0.79927 0.805949 0.806736 0.820029 0.816004 0.818715 0.830979 0.84878 0.86134 0.875892 0.886293 0.856949 0.79764 0.905894 0.919229 0.864846 0.861032 0.860614 0.870514 0.871016 0.870531 0.863694 0.865787 0.893887 0.904683 0.904943 0.915892 0.897281 0.87663 0.87847 0.880285 0.875382 0.879957 0.881097 0.87568 0.84864 0.825716 0.820755 0.781619 0.771564 0.787062 0.815547 0.897813 1.3123 0.921781 0.735126 0.674332 0.688206 0.660368 0.739963 0.75205 0.726756 0.738578 0.756611 0.737512 0.686105 0.642511 0.618543 0.655634 0.660397 0.648738 0.623086 0.629789 0.584241 0.555691 0.582358 0.622335 0.618688 0.629674 0.612365 0.65943 0.671552 0.634282 0.638258 0.674086 0.639612 0.635504 0.588349 0.676255 0.610101 0.62892 0.632004 0.557005 0.579396 0.54651 0.295901 0.511238 0.135666 0.507867 0.605909 0.680029 0.620347 0.610991 0.399359 0.661424 0.447747 0.6026 0.815938 0.730935 0.671225 0.271575 0.712492 0.655383 0.660326 0.443313 0.483374 0.413437 0.38609 0.383918 0.538513 0.476905 0.535958 0.657816 0.657141 0.586697 0.562523 0.555186 0.569813 0.578837 0.603563 0.641447 0.694907 0.668656 0.683713 0.692912 0.665894 0.671943 0.625203 0.637915 0.631406 0.62164 0.639083 0.636244 0.636208 0.653183 0.729883 0.677278 0.726989 0.780848 0.778705 0.762022 0.731707 0.734772 0.736246 0.770366 0.800105 0.814473 0.804948 0.809552 0.814384 0.810117 0.809936 0.819854 0.825785 0.827335 0.835959 0.842778 0.850311 0.847682 0.854523 0.853156 0.860136 0.871391 0.865573 0.880149 0.864885 0.859819 0.886184 0.916613 0.848877 0.875499 0.871966 0.883356 0.885286 0.881413 0.877584 0.891794 0.897203 0.910141 0.905185 0.932132 0.872851 0.879973 0.888271 0.883296 0.88304 0.889866 0.889247 0.887273 0.85924 0.87724 0.841856 0.84606 0.788587 0.799329 0.830928 0.8128 0.840495 0.898521 1.007 0.868924 0.852828 0.75749 0.878789 0.672165 0.743951 0.742311 0.746695 0.728531 0.778247 0.755279 0.79252 0.785793 0.738863 0.750061 0.70635 0.694289 0.655248 0.650719 0.652357 0.681109 0.656559 0.639038 0.573965 0.58713 0.568201 0.632125 0.680155 0.66205 0.664657 0.667429 0.646928 0.615817 0.608544 0.613948 0.609033 0.648538 0.547731 0.703012 0.530581 0.995007 1.07478 0.778942 0.451056 0.370643 0.587678 0.484789 0.444827 0.335629 0.52782 0.465901 0.264446 0.631682 0.683584 0.54012 1.19936 1.24562 0.65755 0.299425 2.45044 0.896504 0.658393 0.500239 0.967736 0.399521 0.515304 0.259588 0.318085 0.380122 0.420574 0.339395 0.392125 0.487256 0.479876 0.516962 0.649306 0.584215 0.68754 0.652528 0.658277 0.596218 0.568946 0.569922 0.608307 0.678383 0.669515 0.664002 0.655935 0.60441 0.607268 0.611387 0.61081 0.630993 0.64776 0.67573 0.78582 0.740368 0.822841 0.802762 0.788794 0.754011 0.737599 0.736752 0.814335 0.823334 0.820737 0.834081 0.822025 0.816215 0.813734 0.814474 0.826671 0.850967 0.84153 0.851284 0.857058 0.861788 0.857139 0.860175 0.862709 0.864514 0.87205 0.887753 0.892296 0.88361 0.853116 0.884324 0.887235 0.895533 0.897256 0.897795 0.8942 0.88849 0.892627 0.892545 0.897487 0.923469 0.887533 0.869237 0.892309 0.89719 0.88806 0.881891 0.897736 0.90449 0.926924 0.913578 0.920545 0.893771 0.801566 0.800744 0.826344 0.875941 0.834521 0.78817 0.704648 0.729812 0.755605 0.775752 0.809225 0.763614 0.7384 0.677025 0.714151 0.694679 0.704124 0.643641 0.660341 0.638874 0.644586 0.666512 0.607158 0.540839 0.654485 0.660353 0.671542 0.657589 0.67042 0.649366 0.638772 0.619576 0.617539 0.618052 0.718373 0.586181 0.199454 0.852144 0.986388 1.08631 0.810646 0.270287 0.749116 0.335092 0.392367 0.357311 0.316108 0.228478 0.40734 0.498486 0.676484 1.11821 0.115009 0.415067 2.52976 0.33473 0.621797 0.327477 0.559418 0.463852 0.483438 0.306039 0.248877 0.367769 0.315923 0.3098 0.553606 0.52479 0.683245 0.510266 0.756603 0.777528 0.68519 0.66625 0.648919 0.619179 0.641217 0.650684 0.571458 0.542603 0.523684 0.568024 0.59838 0.686961 0.687154 0.662381 0.554268 0.575351 0.602935 0.607642 0.621995 0.634799 0.667857 0.661052 0.701255 0.728333 0.820482 0.823796 0.864662 0.783681 0.749457 0.734172 0.758281 0.727359 0.862673 0.846825 0.840358 0.824861 0.818793 0.822835 0.863498 0.839437 0.875655 0.851282 0.857142 0.873806 0.877986 0.902399 0.898633 0.887497 0.903846 0.895437 0.888878 0.905627 0.911348 0.911001 0.898265 0.893628 0.90172 0.862375 0.870765 0.900521 0.883491 0.885628 0.896031 0.900284 0.904322 0.8886 0.890761 0.86937 0.898025 0.971657 0.8882 1.02627 0.896896 0.757438 0.832734 0.870857 0.848581 0.843116 0.846952 0.82733 0.859873 0.860113 0.854596 0.753504 0.771001 0.749396 0.765331 0.791815 0.768562 0.771183 0.786994 0.755692 0.751925 0.719648 0.662282 0.670192 0.628813 0.631587 0.571676 0.702603 0.634683 0.579127 0.757649 0.599242 0.576382 0.660753 0.675546 0.669739 0.655064 0.629348 0.614322 0.572829 0.547769 0.230097 0.547992 0.628595 0.531955 0.476617 0.421601 0.424775 0.246106 0.401059 0.432051 0.524415 0.580186 0.489529 1.0937 0.926773 0.911429 0.605617 0.581758 0.788436 0.0856785 0.495322 0.343089 0.544877 0.410869 0.436006 0.261694 0.815278 0.99515 0.107667 0.573464 0.677691 0.584688 0.628034 0.627322 0.564567 0.589293 0.55522 0.567449 0.772429 0.872802 0.708329 0.736702 0.719845 0.624909 0.601569 0.605346 0.601284 0.667281 0.71061 0.67937 0.675573 0.757956 0.799908 0.817186 0.784686 0.802059 0.750322 0.635659 0.866103 0.864937 0.8559 0.829157 0.831919 0.817734 0.793306 0.778801 0.843468 0.853549 0.837698 0.799258 0.858797 0.864209 0.86249 0.866237 0.872799 0.869433 0.877219 0.876525 0.877775 0.898002 0.902714 0.905904 0.903323 0.903225 0.931126 0.924855 0.908295 0.921223 0.900378 0.901067 0.898217 0.894282 0.883699 0.880302 0.884845 0.901621 0.910673 0.91744 0.881857 0.833023 0.971706 0.723249 1.07424 0.625287 0.819523 1.02857 0.81856 0.816812 0.843736 0.845034 0.854322 0.866036 0.847324 0.849183 0.850405 0.7789 0.793084 0.770439 0.761224 0.770687 0.789989 0.803983 0.79141 0.791337 0.739537 0.666298 0.637703 0.58663 0.491799 0.539319 0.74692 0.931888 0.61258 0.699258 0.684214 0.69121 0.682569 0.661491 0.656635 0.603981 0.614572 0.595573 0.528622 0.450687 0.502834 0.552446 0.54157 0.507798 0.459833 0.465253 0.45341 0.414996 0.398952 0.289231 0.724639 0.745016 0.594419 0.615874 0.535034 0.51285 0.548596 0.750063 0.464767 0.547841 0.171175 0.462096 0.390462 0.573587 0.604212 0.578734 0.598278 0.613245 0.603409 0.562388 0.582951 0.305205 0.247014 0.760424 0.753433 0.630465 0.569301 0.630537 0.610219 0.662581 0.742159 0.715762 0.754299 0.707478 0.732102 0.810414 0.816863 0.76151 0.794107 0.673389 0.678604 1.11962 0.976566 0.865093 0.830915 0.796861 0.794804 0.814365 0.849321 0.838737 0.887281 0.862484 0.874503 0.867524 0.872672 0.872617 0.880015 0.888509 0.906067 0.90997 0.905488 0.896448 0.935598 0.877711 0.936649 0.923607 0.917402 0.900185 0.919667 0.890906 0.885298 0.88716 0.925461 0.912352 0.934129 0.872488 0.786067 0.936918 0.980936 0.777086 1.02384 0.80018 0.870844 0.83975 0.841413 0.856122 0.871559 0.852832 0.865267 0.848783 0.849608 0.825441 0.834581 0.825106 0.774108 0.777024 0.792632 0.797278 0.840297 0.835281 0.845116 0.83802 0.825322 0.741914 0.626341 0.590056 0.408539 0.641699 0.85463 0.637133 0.646551 0.586522 0.660356 0.677086 0.555903 0.66791 0.644979 0.594988 0.640231 0.648716 0.598997 0.603833 0.53825 0.504105 0.546862 0.502539 0.513867 0.5188 0.506067 0.509578 0.47172 0.434752 0.340333 0.476941 0.930805 1.01182 0.925781 0.702946 0.63259 0.495534 0.570859 0.475286 0.63877 0.744018 0.611625 0.508761 0.431389 0.457433 0.438657 0.501178 0.554229 0.550568 0.576739 0.555773 0.431882 0.662292 0.708094 0.924616 0.317039 0.657356 0.570062 0.556861 0.549569 0.568209 0.591619 0.813912 0.967472 0.70505 0.806169 0.814855 0.802121 0.826573 0.901619 0.860716 0.828198 0.697234 1.04942 0.855071 0.806127 0.803217 0.810306 0.797234 0.809044 0.8149 0.867655 0.888259 0.879468 0.877337 0.869607 0.873664 0.885955 0.90807 0.902852 0.910474 0.912263 0.908982 0.894685 0.887265 0.933409 0.949241 0.889961 0.944635 0.942788 0.925099 0.906366 0.919836 0.90008 0.891936 0.890252 0.890515 0.923911 0.938021 0.905746 0.885879 0.784926 0.824505 0.939181 0.90179 0.941914 0.966995 1.03101 0.960879 0.890312 0.861271 0.776022 0.820477 0.843088 0.856275 0.823303 0.84195 0.841852 0.832162 0.839498 0.778418 0.783851 0.794121 0.811752 0.812168 0.848313 0.891212 0.918274 0.98869 1.01676 0.836935 0.760225 0.65609 0.572744 0.733554 0.673002 0.694855 0.773458 0.778464 0.861327 0.424765 0.604459 0.676409 0.676018 0.715835 0.705758 0.650769 0.586983 0.506681 0.535705 0.530136 0.551787 0.527681 0.546346 0.502561 0.526144 0.475299 0.488737 0.461235 0.483 0.438007 0.462946 0.697361 0.60896 0.769673 0.7003 0.606313 0.669859 0.496793 0.58251 0.614987 0.645957 0.427547 0.389033 0.521302 0.517734 0.541023 0.537369 0.566915 0.552724 0.704694 0.605123 0.664359 0.569845 0.538295 0.647447 0.899395 0.696682 0.725006 0.749596 0.721301 0.806333 0.802155 0.812239 0.844182 0.817343 0.668548 0.874847 0.836795 0.813904 0.82439 0.811794 0.808527 0.862089 0.884763 0.910111 0.912984 0.904825 0.932551 0.890595 0.881862 0.871237 0.902052 0.912263 0.916838 0.90464 0.895662 0.933728 0.880637 0.936267 0.93882 0.927801 0.92718 0.904147 0.899718 0.888711 0.905023 0.915487 0.928383 0.85652 0.968138 0.854726 0.972236 0.954509 0.933739 0.949551 0.849036 0.805281 0.820611 0.842021 0.861817 0.810076 0.7972 0.810277 0.82891 0.832572 0.846619 0.813317 0.791264 0.778964 0.775829 0.78064 0.785223 0.834597 0.80223 0.859583 0.926998 0.805883 0.72999 0.710049 0.806497 0.858142 0.634199 0.919847 0.766354 0.74406 0.669188 0.643285 0.595282 0.840171 1.17296 1.57542 0.740784 0.645957 0.740312 0.690687 0.739779 0.69508 0.480977 0.560524 0.558314 0.544594 0.527992 0.506465 0.47867 0.458901 0.497256 0.687464 0.655396 0.634503 0.622187 0.611211 0.540483 0.594716 0.629038 0.544721 0.449813 0.3441 0.575091 0.506462 0.450083 0.601263 0.632369 0.560402 0.522568 0.579221 0.63339 0.622569 0.570867 0.909918 0.799944 0.841938 0.751543 0.662332 0.802912 0.78518 0.805837 0.803549 0.809919 0.798727 0.841341 0.828598 0.745606 0.766657 0.876588 0.81864 0.820155 0.831137 0.831373 0.797233 0.870776 0.926654 0.909932 0.921223 0.893438 0.883624 0.914295 0.92357 0.917772 0.907976 0.909941 0.907282 0.895115 0.905795 0.945354 0.929461 0.936968 0.922858 0.909286 0.907984 0.895755 0.940137 0.902165 0.921949 0.942606 0.876367 0.998893 0.877702 0.99863 0.983131 0.946207 0.943982 0.951991 0.973047 0.851535 0.82551 0.864099 0.839468 0.844078 0.865953 0.80568 0.811749 0.824381 0.830154 0.846995 0.804342 0.781505 0.770771 0.769372 0.805107 0.844374 0.819728 0.866097 1.02581 0.694802 0.714779 0.745106 0.754876 0.682388 0.702146 0.603054 0.790694 0.468138 0.812194 1.32297 0.454303 0.524837 0.555648 0.717637 0.68622 0.688949 0.64237 0.718226 0.62554 0.554788 0.557874 0.554247 0.563935 0.438535 0.5571 0.582202 0.445849 0.623816 0.639052 0.592097 0.517644 0.612528 0.589101 0.596724 0.574566 0.581861 0.580584 0.614473 0.607264 0.619596 0.544221 0.595903 0.598544 0.538805 0.749331 0.745964 0.645751 0.591267 0.615836 0.64517 0.624191 0.710758 0.659643 0.830418 0.806551 0.720287 0.730771 0.719061 0.828419 0.798258 0.80492 0.801722 0.800613 0.785705 0.782807 0.825297 0.765252 0.745701 0.850208 0.807697 0.81906 0.829443 0.828197 0.818016 0.908958 0.816332 0.875331 0.919539 0.895292 0.89049 0.969027 0.949787 0.884308 0.906257 0.909027 0.907529 0.901752 0.911437 0.937392 0.939908 0.933695 0.927904 0.911674 0.905883 0.975353 0.917247 1.02843 0.890052 1.00935 0.883411 0.905959 0.952462 0.95985 0.978762 0.878628 0.869285 0.851026 0.851339 0.842348 0.810036 0.79984 0.814145 0.832047 0.793759 0.76623 0.774661 0.810312 0.849547 0.839849 0.930116 0.98783 0.797243 0.740331 0.700052 0.681929 0.735709 0.70758 0.781033 0.792453 1.22793 0.615629 0.367954 0.391737 0.659063 0.435824 0.661874 0.627144 0.695293 0.638039 0.578041 0.570944 0.559043 0.572515 0.56509 0.60789 0.592445 0.53256 0.519474 0.379015 0.487108 0.573517 0.570199 0.530225 0.559474 0.592611 0.623783 0.634317 0.76008 0.631302 0.6417 0.428567 0.740963 0.70083 0.682302 0.636467 0.606854 0.63 0.767733 0.763613 0.744467 0.727951 0.724368 0.812635 0.823301 0.795865 0.786487 0.776217 0.724017 0.726418 0.77126 0.753479 0.75185 0.763327 0.80791 0.797871 0.821656 0.828198 0.834597 0.84485 0.811959 0.829643 0.807507 0.846639 0.843858 0.909271 0.915867 0.900456 0.954894 0.94578 0.953302 0.895031 0.908461 0.908718 0.907501 0.910153 0.913242 0.932575 0.938507 0.938692 0.933117 0.920939 0.91317 0.91594 0.913485 0.933153 0.990647 1.02657 0.853291 0.963804 0.893415 0.896629 0.973764 0.960364 0.963918 0.904258 0.882137 0.87681 0.857151 0.854942 0.81152 0.846259 0.816672 0.809542 0.797008 0.792601 0.826373 0.819855 0.774159 0.746768 0.81494 0.885345 0.883264 0.834444 0.808336 0.79599 0.644459 0.71486 0.694438 0.710617 0.720793 0.774843 0.763839 0.737354 0.477131 0.684222 0.41987 0.467365 0.666316 0.592442 0.685508 0.658971 0.684127 0.669166 0.619549 0.601002 0.593653 0.603739 0.618705 0.590996 0.568858 0.581212 0.67718 0.565359 0.510101 0.544244 0.559735 0.542229 0.562241 0.556583 0.485631 0.600132 0.57354 0.610722 0.649846 0.758547 0.717162 0.599108 0.633095 0.552664 0.542083 0.394175 0.738875 0.6753 0.639574 0.669887 0.536483 0.75031 0.743633 0.725226 0.696024 0.831955 0.810454 0.782165 0.790107 0.764893 0.737476 0.765822 0.751004 0.763372 0.769189 0.799403 0.832667 0.836174 0.806762 0.813871 0.844438 0.861626 0.910601 0.924171 0.910474 0.94716 0.944184 0.957088 0.977053 0.904639 0.906134 0.91785 0.922906 0.929689 0.930639 0.922304 0.914793 0.94027 0.934672 0.941764 0.953827 0.909177 0.91479 0.92351 0.949363 0.928583 1.07284 1.02585 0.885473 0.944276 0.915406 0.915433 0.982046 0.96306 0.958831 0.913173 0.884775 0.880673 0.872431 0.859178 0.855294 0.811647 0.805115 0.804294 0.817992 0.834388 0.716457 0.776424 0.789595 0.839691 0.879406 0.950715 0.801447 0.800974 0.831929 0.812686 0.735674 0.750119 0.759024 0.711076 0.646775 0.517706 0.478686 0.455826 0.50369 0.6171 0.692032 0.696076 0.64456 0.648573 0.618291 0.628197 0.609556 0.587361 0.557402 0.500538 0.547506 0.600105 0.580537 0.545654 0.535839 0.562264 0.496244 0.553485 0.688649 0.643734 0.725293 0.713686 0.69267 0.660899 0.650879 0.772003 0.713711 0.674865 0.689803 0.725527 0.762837 0.72031 0.727326 0.723604 0.700014 0.833177 0.808899 0.786446 0.754166 0.74767 0.750494 0.747113 0.805221 0.783131 0.810427 0.822273 0.815726 0.808368 0.834966 0.867361 0.907162 0.943129 0.939884 0.962256 0.949652 0.964922 0.984382 0.898435 0.92148 0.933923 0.926296 0.927447 0.921587 0.907736 0.954758 0.898925 0.88745 0.914856 0.950884 0.940138 1.06184 1.00423 1.02095 0.902723 0.933294 0.927432 0.919977 0.913189 0.977804 0.958969 0.94845 0.910757 0.883929 0.877737 0.870596 0.864828 0.840569 0.797057 0.807567 0.823023 0.838657 0.83616 0.911584 0.852369 0.843715 0.731671 0.759372 0.809914 0.860247 0.76292 0.77308 0.751373 0.660429 0.599063 0.548595 0.593479 0.578039 0.647302 0.658883 0.721366 0.689332 0.654799 0.641148 0.653512 0.61816 0.65972 0.614674 0.627037 0.593724 0.524736 0.572961 0.590033 0.584872 0.532125 0.510546 0.526863 0.542545 0.59631 0.523115 0.587359 0.615615 0.661792 0.736006 0.649244 0.683832 0.738532 0.756763 0.785242 0.771077 0.675255 0.703788 0.762358 0.742669 0.731151 0.703851 0.704978 0.687476 0.823048 0.818969 0.793296 0.762427 0.740993 0.746309 0.752223 0.751046 0.747957 0.795725 0.772203 0.808135 0.806649 0.821515 0.80742 0.828952 0.857451 0.872559 0.902735 0.934133 0.946496 0.933218 0.963923 0.954594 0.963688 0.993417 0.892856 0.955596 0.99359 0.997911 0.974094 0.906291 0.95076 0.91575 0.919094 0.952878 0.95775 0.973718 0.931012 0.920531 0.933657 0.900753 0.948797 0.959761 0.956314 0.924748 0.90672 0.881102 0.876324 0.873025 0.83887 0.845307 0.782468 0.801138 0.831244 0.839771 0.916252 0.959552 0.752604 0.728056 0.819996 0.816055 0.886961 0.764023 0.854199 0.763745 0.766349 0.779251 0.60421 0.623478 0.596323 0.609316 0.601395 0.61902 0.674637 0.716986 0.755159 0.688799 0.655469 0.66517 0.683003 0.614725 0.612098 0.521253 0.599133 0.602187 0.600355 0.587198 0.51039 0.506189 0.544403 0.610151 0.528779 0.592329 0.641045 0.68479 0.794347 0.67981 0.739832 0.795184 0.789855 0.807579 0.686936 0.724674 0.786292 0.726535 0.744049 0.701543 0.69457 0.774295 0.822387 0.801796 0.779948 0.739782 0.752999 0.753597 0.753148 0.75108 0.798043 0.810837 0.815335 0.815346 0.849934 0.859742 0.841293 0.863278 0.905484 0.932229 0.920146 0.958379 0.984443 0.884318 0.975962 0.973964 0.994801 0.941923 0.98398 0.94984 0.947236 0.875308 0.880508 0.852976 0.873119 0.872749 0.823247 0.833343 0.835245 0.923699 0.813571 0.839131 0.834547 0.918058 0.954453 0.825775 0.796755 0.787168 0.73428 0.806717 0.883722 0.938808 0.736926 0.765067 0.789615 0.791614 0.609893 0.626561 0.612808 0.608742 0.667694 0.692516 0.650712 0.671797 0.628388 0.674683 0.641585 0.642262 0.596789 0.584669 0.53886 0.545226 0.636374 0.566459 0.603892 0.642483 0.661143 0.779239 0.657409 0.74689 0.802531 0.806971 0.918366 0.742732 1.22221 0.766911 0.715807 0.735826 0.715949 0.773939 0.797911 0.7676 0.782012 0.754147 0.805832 0.753659 0.754023 0.752755 0.861151 0.949434 0.838019 0.850663 0.994303 0.896576 0.790494 0.708258 0.863806 0.939712 0.738604 0.7636 0.603111 0.622439 0.643626 0.647244 0.695172 0.701443 0.798391 0.66196 0.601423 0.623219 0.662048 0.658307 0.638513 0.628769 0.592451 0.61492 0.584893 0.584961 0.794451 0.634459 
SCALARS Stress float 1
LOOKUP_TABLE default
-123397000000.0 -135889000000.0 -167224000000.0 -294873000000.0 -223878000000.0 -115401000000.0 -365296000000.0 -159726000000.0 -257465000000.0 -60420200000.0 -299744000000.0 -267489000000.0 -209872000000.0 -296945000000.0 -280992000000.0 -197521000000.0 -460447000000.0 -368562000000.0 -895693000000.0 -601713000000.0 -1.15378e+12 -1.064e+12 -357053000000.0 -426691000000.0 -1.13788e+12 -368086000000.0 -981631000000.0 -556472000000.0 -230746000000.0 -749070000000.0 -149754000000.0 -651578000000.0 -282230000000.0 -649363000000.0 -404123000000.0 -839285000000.0 -866433000000.0 -708324000000.0 -808636000000.0 -861534000000.0 -945821000000.0 -1.26176e+12 -1.28983e+12 -1.94439e+12 -754689000000.0 -1.5736e+12 -545491000000.0 -953651000000.0 -1.22275e+12 -282601000000.0 -1.61715e+12 -748217000000.0 -1.17574e+12 -752473000000.0 -1.09036e+12 -1.74877e+12 -871927000000.0 -808787000000.0 -479637000000.0 -1.19704e+12 -1.62037e+12 -405516000000.0 -1.05754e+12 -696384000000.0 -1.66444e+12 -1.71015e+12 -1.23706e+12 -1.66954e+12 -1.91558e+12 -1.5589e+12 -3.0474e+12 -1.97545e+12 -2.19744e+12 -383951000000.0 -562642000000.0 -1.80647e+12 -842951000000.0 -1.15172e+12 -835811000000.0 -2.95739e+12 -2.27364e+12 -958580000000.0 -2.28508e+12 -1.46689e+12 -2.36057e+12 -1.33044e+12 -1.75924e+12 -832349000000.0 -1.54103e+12 -1.9712e+12 -1.40696e+12 -2.27196e+12 -726113000000.0 -1.85788e+12 -1.51333e+12 -3.13721e+12 -3.13676e+12 -2.12898e+12 -2.52389e+12 -2.66352e+12 -1.89957e+12 -2.88375e+12 -410575000000.0 -1.53907e+12 -1.90191e+12 -2.30253e+12 -1.2984e+12 -1.08066e+12 -883307000000.0 -3.68317e+12 -1.45056e+12 -1.56679e+12 -1.50771e+12 -812805000000.0 -1.41419e+12 -1.28644e+12 -3.32425e+12 -1.77885e+12 -2.63509e+12 -3.27817e+12 -2.61367e+12 -2.60321e+12 -1.09492e+12 -3.62829e+12 -2.69145e+12 -1.72201e+12 -1.262e+12 -2.06261e+12 -1.27747e+12 -2.36047e+12 -3.43475e+12 -4.64342e+12 -2.89571e+12 -1.3059e+12 -2.48236e+12 -871368000000.0 -1.09458e+12 -629807000000.0 -1.77665e+12 -1.9035e+12 -795689000000.0 -2.17255e+12 -1.08632e+12 -2.03334e+12 -3.20951e+12 -4.46436e+12 -2.74645e+12 -5.431e+12 -1.8234e+12 -3.49395e+12 -2.06972e+12 -2.72651e+12 -3.81663e+12 -2.73068e+12 -2.5224e+12 -1.36901e+12 -3.66171e+12 -3.47445e+12 -1.81197e+12 -2.34786e+12 -2.59811e+12 -845103000000.0 -1.62209e+12 -2.30355e+12 -2.32463e+12 -3.22607e+12 -3.28025e+12 -1.73714e+12 -508765000000.0 -694056000000.0 -1.63603e+12 -1.62848e+12 -2.01569e+12 -4.7318e+12 -3.32029e+12 -2.69684e+12 -4.52378e+12 -3.48208e+12 -2.20113e+12 -2.30043e+12 -3.52355e+12 -3.88053e+12 -2.888e+12 -3.3151e+12 -3.90725e+12 -3.50188e+12 -3.08888e+12 -3.59603e+12 -1.75959e+12 -4.65142e+12 -2.73023e+12 -2.80081e+12 -2.32135e+12 -2.24931e+12 -3.36429e+12 -4.20855e+12 -2.00852e+12 -1.33543e+12 -2.84721e+12 -1.82203e+12 -5.64845e+12 -1.44741e+12 -4.20306e+12 -3.87271e+12 -4.53921e+12 -4.90757e+12 -3.92279e+12 -4.57293e+12 -820349000000.0 -3.1743e+12 -5.16497e+12 -4.65373e+12 -3.97558e+12 -6.02372e+12 -3.86829e+12 -3.54874e+12 -4.87752e+12 -3.23821e+12 -2.6253e+12 -4.8539e+12 -4.00558e+12 -1.64716e+12 -3.37579e+12 -2.88144e+12 -1.85882e+12 -2.58048e+12 -2.18992e+12 -1.83577e+12 -4.41445e+12 -2.77048e+12 -1.82485e+12 -5.50013e+12 -5.83828e+12 -5.59596e+12 -4.5084e+12 -2.70669e+12 -4.57566e+12 -3.59111e+12 -3.97586e+12 -5.11443e+12 -6.74017e+12 -5.51794e+12 -4.00843e+12 -3.95216e+12 -4.11888e+12 -5.41895e+12 -5.35625e+12 -1.47783e+12 -6.30687e+12 -7.38363e+12 -3.33424e+12 -2.31651e+12 -3.64823e+12 -3.718e+12 -4.69841e+12 -7.2808e+12 -3.07818e+12 -3.98344e+12 -3.63554e+12 -5.95583e+12 -4.17409e+12 -3.40594e+12 -6.24111e+12 -3.36897e+12 -4.57307e+12 -3.40768e+12 -3.74981e+12 -6.44738e+12 -3.87698e+12 -4.60387e+12 -4.74664e+12 -5.41719e+12 -3.12835e+12 -5.15366e+12 -2.78135e+12 -4.09988e+12 -6.07531e+12 -3.65291e+12 -3.63466e+12 -5.82993e+12 -4.26867e+12 -4.60846e+12 -5.40899e+12 -4.49623e+12 -2.56217e+12 -5.33524e+12 -3.4329e+12 -5.24152e+12 -6.50719e+12 -5.54803e+12 -6.16981e+12 -2.26413e+12 -3.81452e+12 -3.44903e+12 -3.11778e+12 -5.83684e+12 -3.81327e+12 -7.47295e+12 -4.55765e+12 -5.50798e+12 -4.21464e+12 -2.56936e+12 -5.01088e+12 -3.16306e+12 -6.82319e+12 -2.38535e+12 -7.88199e+12 -7.29452e+12 -7.1025e+12 -4.33301e+12 -4.00767e+12 -5.95872e+12 -5.68596e+12 -6.9076e+12 -4.6558e+12 -7.96222e+12 -5.09489e+12 -5.08202e+12 -4.09379e+12 -6.89549e+12 -6.50826e+12 -4.45889e+12 -3.78035e+12 -4.63685e+12 -2.72911e+12 -4.73017e+12 -6.71691e+12 -7.4598e+12 -4.20764e+12 -6.26624e+12 -3.55957e+12 -4.20305e+12 -5.07163e+12 -3.09673e+12 -5.29498e+12 -5.42737e+12 -2.04025e+12 -7.31383e+12 -4.2868e+12 -5.02671e+12 -1.50131e+12 -6.17452e+12 -2.59751e+12 -4.35915e+12 -5.42713e+12 -4.92333e+12 -5.2361e+12 -6.36418e+12 -6.76387e+12 -5.72265e+12 -6.37682e+12 -4.18448e+12 -4.3275e+12 -5.05067e+12 -4.70032e+12 -4.13321e+12 -2.57364e+12 -4.92275e+12 -5.44323e+12 -4.28717e+12 -2.39178e+12 -6.02778e+12 -4.43523e+12 -2.8134e+12 -4.08212e+12 -4.33771e+12 -5.61594e+12 -5.05819e+12 -5.2716e+12 -6.01272e+12 -6.44633e+12 -6.93813e+12 -12549700000.0 -2.3877e+12 -4.51493e+12 -3.51298e+12 -2.81758e+12 -5.31457e+12 -5.27079e+12 -5.6811e+12 -5.82992e+12 -4.88524e+12 -6.65969e+12 -5.11223e+12 -4.40537e+12 -5.11611e+12 -5.16801e+12 -2.70934e+12 -3.95588e+12 -4.59653e+12 -4.57715e+12 -5.37366e+12 -6.12312e+12 -3.57518e+12 -3.63706e+12 -3.56504e+12 -5.3235e+12 -4.97233e+12 -5.50963e+12 -5.79969e+12 -5.24282e+12 -5.301e+12 -5.43554e+12 -4.40443e+12 -3.16498e+12 -6.76419e+12 -5.8594e+12 -5.64144e+12 -1.95621e+12 -6.03772e+12 -3.05596e+12 -4.93704e+12 -5.20085e+12 -7.03978e+12 -4.33701e+12 -3.82106e+12 -5.31402e+12 -7.93354e+12 -4.95344e+12 -4.85762e+12 -5.3397e+12 -7.07434e+12 -5.99118e+12 -4.14426e+12 -3.99639e+12 -4.98786e+12 -6.30997e+12 -5.54252e+12 -5.9274e+12 -4.07149e+12 -4.50305e+12 -3.13822e+12 -3.82767e+12 -3.4125e+12 -7.30654e+12 -4.62803e+12 -6.64012e+12 -5.86262e+12 -7.96486e+12 -3.43871e+12 -6.71928e+12 -3.82147e+12 -4.78799e+12 -5.45769e+12 -6.1642e+12 -3.75955e+12 -3.43589e+12 -4.51467e+12 -4.8172e+12 -4.63994e+12 -3.7051e+12 -6.03021e+12 -8.30814e+12 -3.17758e+12 -4.10021e+12 -5.69788e+12 -6.51666e+12 -4.99162e+12 -2.93316e+12 -4.07057e+12 -5.38581e+12 -2.94406e+12 -5.28167e+12 -3.71262e+12 -5.586e+12 -2.93185e+12 -4.91475e+12 -3.77716e+12 -9.21628e+12 -7.47272e+12 -7.05006e+12 -4.02134e+12 -3.91507e+12 -5.1027e+12 -6.53107e+12 -7.15028e+12 -4.68732e+12 -5.04716e+12 -3.69049e+12 -2.90178e+12 -5.92359e+12 -4.87189e+12 -7.02884e+12 -5.72664e+12 -3.63208e+12 -2.16181e+12 -3.24649e+12 -6.46491e+12 -7.29103e+12 -4.34608e+12 -6.84793e+12 -8.56289e+12 -7.61486e+12 -5.11641e+12 -5.82392e+12 -7.23552e+12 -6.65576e+12 -7.75849e+12 -5.97213e+12 -4.97472e+12 -5.99951e+12 -5.11101e+12 -5.19754e+12 -8.19436e+12 -5.85715e+12 -4.14025e+12 -6.49351e+12 -6.28907e+12 -5.19768e+12 -6.88825e+12 -3.64218e+12 -6.16226e+12 -5.53051e+12 -5.45101e+12 -4.66172e+12 -5.35921e+12 -6.21676e+12 -4.01601e+12 -7.08715e+12 -5.53631e+12 -8.84353e+12 -7.04964e+12 -4.10726e+12 -2.99795e+12 -3.34873e+12 -12549700000.0 -5.92214e+12 -7.48841e+12 -6.73721e+12 -7.71913e+12 -6.94997e+12 -4.3867e+12 -6.38019e+12 -4.60804e+12 -3.31304e+12 -6.4939e+12 -6.20938e+12 -6.92915e+12 -5.30963e+12 -5.72639e+12 -6.28087e+12 -4.59702e+12 -8.27174e+12 -1.22337e+13 -6.48489e+12 -8.19568e+12 -5.95737e+12 -3.96965e+12 -3.43152e+12 -3.26627e+12 -9.4088e+12 -4.90816e+12 -3.79314e+12 -5.92715e+12 -6.51262e+12 -6.47503e+12 -2.13092e+12 -4.46395e+12 -7.493e+12 -8.70941e+12 -9.5518e+12 -3.48751e+12 -5.21678e+12 -12549700000.0 -4.73056e+12 -6.59871e+12 -3.50201e+12 -9.79383e+12 -5.42791e+12 -1.02871e+13 -1.01996e+13 -7.27445e+12 -8.46968e+12 -5.54594e+12 -3.8406e+12 -5.37828e+12 -1.18601e+13 -7.3593e+12 -5.39147e+12 -8.05294e+12 -5.81276e+12 -4.78235e+12 -5.35739e+12 -7.91291e+12 -5.76147e+12 -5.38918e+12 -9.08072e+12 -1.17521e+13 -5.83257e+12 -7.56764e+12 -7.43771e+12 -7.32138e+12 -9.63606e+12 -1.12743e+13 -9.33793e+12 -4.38011e+12 -6.16014e+12 -6.14258e+12 -8.00783e+12 -5.50714e+12 -7.85704e+12 -9.67617e+12 -7.27855e+12 -7.70213e+12 -3.1575e+12 -5.08967e+12 -9.89958e+12 -5.46886e+12 -4.60442e+12 -5.12861e+12 -7.74749e+12 -4.00552e+12 -4.54422e+12 -8.11535e+12 -6.36259e+12 -5.59543e+12 -7.81016e+12 -7.33817e+12 -5.65764e+12 -4.15043e+12 -2.97851e+12 -3.60268e+12 -1.05049e+13 -5.41182e+12 -8.86343e+12 -8.94994e+12 -7.16857e+12 -5.62354e+12 -6.86827e+12 -5.77161e+12 -4.68814e+12 -7.12641e+12 -5.17965e+12 -5.11572e+12 -3.90213e+12 -6.39321e+12 -6.69705e+12 -7.25109e+12 -6.54275e+12 -8.51314e+12 -5.46409e+12 -8.31475e+12 -7.69387e+12 -5.96916e+12 -3.08313e+12 -6.71576e+12 -8.72354e+12 -5.83672e+12 -1.2844e+13 -1.11001e+13 -5.23715e+12 -7.52605e+12 -7.14222e+12 -1.77666e+13 -1.30017e+13 -5.49593e+12 -9.04552e+12 -4.06178e+12 -6.98137e+12 -4.03907e+12 -5.77465e+12 -4.78461e+12 -6.28309e+12 -5.06323e+12 -6.47451e+12 -6.06636e+12 -7.78215e+12 -8.59975e+12 -3.84686e+12 -4.24629e+12 -4.65041e+12 -5.83307e+12 -6.59437e+12 -5.38466e+12 -6.91401e+12 -8.68169e+12 -6.3774e+12 -4.91523e+12 -7.6626e+12 -6.69189e+12 -4.70493e+12 -8.44957e+12 -6.58515e+12 -2.56117e+12 -7.0762e+12 -5.49115e+12 -4.60258e+12 -6.74915e+12 -6.99012e+12 -3.0296e+12 -5.10849e+12 -6.33937e+12 -8.094e+12 -8.07612e+12 -4.6221e+12 -6.88238e+12 -6.36171e+12 -7.31496e+12 -6.824e+12 -4.72197e+12 -7.51575e+12 -8.35243e+12 -2.38898e+12 -3.98353e+12 -1.00616e+13 -4.46722e+12 -3.77914e+12 -7.20873e+12 -5.98084e+12 -5.93038e+12 -1.23782e+13 -2.96805e+12 -5.08339e+12 -8.04437e+12 -9.82339e+12 -6.37616e+12 -1.11324e+13 -4.05819e+12 -1.01866e+13 -1.02768e+13 -8.67293e+12 -5.31217e+12 -7.87554e+12 -6.77578e+12 -5.91655e+12 -4.87849e+12 -4.40506e+12 -4.25736e+12 -3.75229e+12 -7.22527e+12 -7.40986e+12 -6.1163e+12 -7.80831e+12 -7.03774e+12 -3.80393e+12 -6.15964e+12 -4.76501e+12 -7.06523e+12 -6.55932e+12 -5.54694e+12 -8.86716e+12 -5.58298e+12 -1.15796e+13 -1.04462e+13 -1.31138e+13 -4.47595e+12 -7.20045e+12 -5.31901e+12 -4.24935e+12 -4.1199e+12 -4.11118e+12 -4.20716e+12 -6.75582e+12 -9.07625e+12 -7.67839e+12 -7.26622e+12 -4.4785e+12 -5.48293e+12 -7.63201e+12 -5.84485e+12 -6.59572e+12 -6.65331e+12 -2.54261e+12 -6.37438e+12 -8.05258e+12 -4.24626e+12 -5.37716e+12 -5.18399e+12 -3.85503e+12 -6.87565e+12 -8.85358e+12 -3.09787e+12 -8.5638e+12 -5.87648e+12 -7.13503e+12 -4.19728e+12 -5.69089e+12 -6.27851e+12 -3.98642e+12 -3.9516e+12 -7.38943e+12 -6.47707e+12 -7.3283e+12 -1.0326e+13 -1.10298e+13 -6.75504e+12 -8.99128e+12 -6.29377e+12 -6.04042e+12 -1.06548e+13 -1.02251e+13 -4.55381e+12 -7.11779e+12 -7.42809e+12 -8.80148e+12 -6.3109e+12 -5.077e+12 -9.23385e+12 -8.32605e+12 -6.05744e+12 -5.59598e+12 -4.83315e+12 -3.86897e+12 -6.3883e+12 -6.06971e+12 -3.93215e+12 -7.40172e+12 -4.00402e+12 -8.54698e+12 -6.91794e+12 -7.5178e+12 -1.08984e+13 -7.91226e+12 -6.61293e+12 -9.76943e+12 -5.1182e+12 -8.87032e+12 -8.35021e+12 -1.14535e+13 -9.90146e+12 -5.05323e+12 -1.09987e+13 -1.02352e+13 -6.52225e+12 -6.24803e+12 -9.28806e+12 -1.00783e+13 -6.35176e+12 -9.3853e+12 -6.67171e+12 -6.59294e+12 -3.30888e+12 -4.74586e+12 -3.82236e+12 -1.19202e+13 -3.9223e+12 -5.33201e+12 -4.534e+12 -6.25837e+12 -7.22907e+12 -9.82545e+12 -5.4407e+12 -7.96883e+12 -8.16413e+12 -2.68085e+12 -9.56357e+12 -4.40122e+12 -5.07956e+12 -4.09525e+12 -9.76302e+12 -8.93291e+12 -5.20793e+12 -9.46e+12 -7.75083e+12 -5.84963e+12 -7.34257e+12 -5.09992e+12 -6.91139e+12 -8.17387e+12 -5.07748e+12 -7.22993e+12 -7.75218e+12 -6.99471e+12 -7.86354e+12 -7.96983e+12 -5.61919e+12 -9.98036e+12 -5.53706e+12 -1.18002e+13 -4.53025e+12 -1.02784e+13 -1.02015e+13 -1.27359e+13 -8.51603e+12 -4.31891e+12 -5.0703e+12 -6.20002e+12 -4.07514e+12 -4.95142e+12 -8.06493e+12 -1.09165e+13 -4.59538e+12 -4.70655e+12 -5.57611e+12 -8.26172e+12 -3.97859e+12 -3.43782e+12 -5.25871e+12 -3.31438e+12 -3.5504e+12 -5.88322e+12 -8.20858e+12 -9.84902e+12 -8.21586e+12 -8.84757e+12 -9.12132e+12 -1.06462e+13 -9.76236e+12 -7.34604e+12 -9.10227e+12 -4.59514e+12 -7.70176e+12 -5.3448e+12 -1.29094e+13 -4.82286e+12 -8.97531e+12 -7.6475e+12 -8.06658e+12 -7.73766e+12 -8.34893e+12 -5.82482e+12 -5.64151e+12 -6.04231e+12 -7.00513e+12 -5.11415e+12 -8.91154e+12 -7.60839e+12 -9.21913e+12 -7.06156e+12 -6.49318e+12 -5.83718e+12 -5.13075e+12 -5.20133e+12 -8.19243e+12 -9.82608e+12 -3.05114e+12 -7.42976e+12 -7.63432e+12 -8.86611e+12 -6.22997e+12 -4.84161e+12 -9.57465e+12 -5.65467e+12 -7.12932e+12 -7.04814e+12 -1.02395e+13 -6.69255e+12 -8.314e+12 -5.15414e+12 -4.42529e+12 -7.13023e+12 -1.13888e+13 -5.0577e+12 -1.07949e+13 -5.68814e+12 -4.51832e+12 -5.14865e+12 -9.13387e+12 -7.53946e+12 -1.13178e+13 -6.38368e+12 -5.42247e+12 -5.07551e+12 -7.00971e+12 -1.00939e+13 -4.07148e+12 -6.04147e+12 -7.83104e+12 -8.26126e+12 -1.04173e+13 -8.94279e+12 -1.24237e+13 -6.94089e+12 -6.24901e+12 -3.79679e+12 -1.16799e+13 -6.01108e+12 -6.41102e+12 -1.10946e+13 -7.72039e+12 -5.77466e+12 -1.02104e+13 -6.02691e+12 -5.55639e+12 -4.6888e+12 -7.31029e+12 -6.80988e+12 -9.93051e+12 -7.03526e+12 -5.52275e+12 -1.40628e+13 -9.79919e+12 -1.07945e+13 -8.31171e+12 -7.68609e+12 -6.31595e+12 -5.71674e+12 -8.19345e+12 -8.1847e+12 -6.2075e+12 -7.25747e+12 -1.03699e+13 -8.83558e+12 -7.35815e+12 -8.02413e+12 -5.24495e+12 -1.10966e+13 -6.15677e+12 -7.62509e+12 -1.37552e+13 -8.94959e+12 -4.39763e+12 -9.88801e+12 -8.06351e+12 -6.63572e+12 -3.41616e+12 -3.1822e+12 -5.80034e+12 -7.19981e+12 -5.61063e+12 -6.53666e+12 -5.84746e+12 -5.79353e+12 -2.15587e+12 -5.88251e+12 -6.99734e+12 -4.90446e+12 -1.00822e+13 -4.79319e+12 -7.29704e+12 -8.4426e+12 -5.53062e+12 -7.632e+12 -6.8315e+12 -8.87113e+12 -5.92453e+12 -4.61504e+12 -7.8965e+12 -7.37329e+12 -6.64977e+12 -6.87182e+12 -5.49863e+12 -4.79294e+12 -6.91712e+12 -1.32538e+13 -9.23821e+12 -6.74087e+12 -8.08998e+12 -6.96618e+12 -9.35863e+12 -8.12006e+12 -6.19023e+12 -4.93588e+12 -5.53347e+12 -7.58376e+12 -7.03544e+12 -8.11887e+12 -7.6892e+12 -2.81906e+12 -6.46804e+12 -5.48014e+12 -7.62414e+12 -1.17649e+13 -1.08963e+13 -8.64663e+12 -7.34458e+12 -9.33823e+12 -8.15959e+12 -3.94166e+12 -8.91219e+12 -3.3918e+12 -4.50905e+12 -7.21264e+12 -1.09718e+13 -7.06206e+12 -1.24377e+13 -7.29237e+12 -9.60834e+12 -1.26937e+13 -1.3503e+13 -9.78648e+12 -1.19354e+13 -4.69088e+12 -7.7242e+12 -6.20725e+12 -6.45717e+12 -1.02028e+13 -8.32112e+12 -8.59642e+12 -8.2436e+12 -7.53849e+12 -8.94628e+12 -7.25026e+12 -6.14428e+12 -5.06352e+12 -1.01573e+13 -6.09515e+12 -7.53278e+12 -1.37689e+13 -9.11971e+12 -5.2485e+12 -1.07682e+13 -5.3898e+12 -7.72381e+12 -7.47809e+12 -4.04486e+12 -6.64041e+12 -6.60568e+12 -7.92869e+12 -7.35298e+12 -4.19828e+12 -4.23974e+12 -2.68118e+12 -8.83989e+12 -6.74028e+12 -5.49433e+12 -8.79361e+12 -7.29167e+12 -9.94392e+12 -6.58543e+12 -8.79486e+12 -8.58598e+12 -7.49324e+12 -6.02968e+12 -4.47253e+12 -4.84314e+12 -7.79773e+12 -1.0341e+13 -7.06501e+12 -3.20353e+12 -7.30647e+12 -5.86994e+12 -8.70866e+12 -4.65759e+12 -6.71331e+12 -5.5015e+12 -1.05142e+13 -6.19939e+12 -4.69847e+12 -1.01902e+13 -6.11114e+12 -8.72517e+12 -1.02145e+13 -5.57017e+12 -6.64558e+12 -8.71748e+12 -6.74342e+12 -1.02186e+13 -7.51824e+12 -8.29969e+12 -9.37759e+12 -8.75194e+12 -6.47978e+12 -8.31557e+12 -1.55229e+13 -1.40193e+13 -6.62686e+12 -9.40428e+12 -1.00937e+13 -1.10658e+13 -9.36556e+12 -7.51866e+12 -7.99184e+12 -3.67813e+12 -5.98575e+12 -3.97318e+12 -6.44712e+12 -8.33872e+12 -1.18005e+13 -4.25459e+12 -1.39197e+13 -9.60602e+12 -1.14508e+13 -1.07478e+13 -8.9079e+12 -6.50046e+12 -6.02651e+12 -4.11096e+12 -1.03627e+13 -6.08494e+12 -6.61937e+12 -6.16134e+12 -9.50438e+12 -9.66199e+12 -9.6662e+12 -7.875e+12 -1.23779e+13 -7.53793e+12 -7.90863e+12 -1.02687e+13 -8.01303e+12 -5.84617e+12 -6.90883e+12 -6.95751e+12 -5.34916e+12 -8.53878e+12 -6.67526e+12 -7.97341e+12 -3.9371e+12 -3.4945e+12 -6.89945e+12 -3.33592e+12 -3.48764e+12 -5.12692e+12 -6.99526e+12 -9.63104e+12 -6.81182e+12 -7.32177e+12 -7.50322e+12 -5.82859e+12 -5.11241e+12 -4.40887e+12 -3.62304e+12 -1.15844e+13 -6.47885e+12 -4.69851e+12 -6.79278e+12 -5.41607e+12 -7.9597e+12 -8.28381e+12 -7.04557e+12 -6.73419e+12 -3.00869e+12 -5.4033e+12 -4.90052e+12 -5.3492e+12 -6.66174e+12 -1.09016e+13 -7.80789e+12 -5.86751e+12 -3.23089e+12 -7.27719e+12 -6.11615e+12 -7.85668e+12 -7.35064e+12 -5.35421e+12 -5.62862e+12 -4.97448e+12 -9.63876e+12 -5.58742e+12 -7.16396e+12 -7.127e+12 -6.08815e+12 -6.49034e+12 -5.83681e+12 -6.54822e+12 -9.57622e+12 -1.20258e+13 -1.03588e+13 -7.43084e+12 -8.85206e+12 -8.19866e+12 -1.34339e+13 -1.18663e+13 -5.58146e+12 -7.81717e+12 -9.18939e+12 -7.39082e+12 -1.15583e+13 -9.44655e+12 -1.35894e+13 -7.64862e+12 -8.37237e+12 -9.68389e+12 -6.72825e+12 -2.77649e+12 -4.1885e+12 -4.10168e+12 -9.62357e+12 -3.08233e+12 -5.81088e+12 -3.41602e+12 -1.01665e+13 -6.95656e+12 -8.88175e+12 -6.14534e+12 -8.62536e+12 -7.34739e+12 -6.80705e+12 -9.42083e+12 -1.24014e+13 -1.11626e+13 -5.41272e+12 -7.99527e+12 -1.32997e+13 -8.69918e+12 -9.34716e+12 -7.95403e+12 -5.42477e+12 -6.39846e+12 -7.23204e+12 -7.18904e+12 -6.26961e+12 -7.38599e+12 -4.89904e+12 -5.07632e+12 -5.27899e+12 -5.15214e+12 -9.5281e+12 -6.87206e+12 -4.69006e+12 -6.07235e+12 -6.95394e+12 -6.34211e+12 -7.8725e+12 -6.30528e+12 -1.01085e+13 -6.7735e+12 -7.18285e+12 -5.80335e+12 -6.639e+12 -1.10415e+13 -6.926e+12 -4.25174e+12 -6.00895e+12 -6.43269e+12 -6.76171e+12 -7.47218e+12 -5.26099e+12 -6.66613e+12 -4.72918e+12 -4.5624e+12 -6.69489e+12 -4.44924e+12 -5.29975e+12 -4.65792e+12 -9.82042e+12 -8.52973e+12 -8.37666e+12 -8.35594e+12 -8.56766e+12 -7.97176e+12 -4.08992e+12 -3.15521e+12 -6.10971e+12 -7.29645e+12 -5.30621e+12 -7.40777e+12 -6.52182e+12 -5.55176e+12 -9.18503e+12 -1.05582e+13 -6.82584e+12 -5.75436e+12 -4.31745e+12 -8.11265e+12 -1.03621e+13 -8.05193e+12 -5.41154e+12 -5.90245e+12 -6.2563e+12 -9.29566e+12 -9.50834e+12 -7.55935e+12 -7.04893e+12 -1.02842e+13 -8.00032e+12 -9.94996e+12 -9.30336e+12 -1.2155e+13 -9.51979e+12 -1.00436e+13 -6.84638e+12 -9.00733e+12 -6.77634e+12 -7.44667e+12 -5.01432e+12 -8.33542e+12 -9.5872e+12 -5.48113e+12 -7.43643e+12 -4.88245e+12 -8.24197e+12 -9.87398e+12 -6.19029e+12 -5.8478e+12 -6.92811e+12 -1.08528e+13 -5.75769e+12 -6.08194e+12 -7.61871e+12 -8.77402e+12 -9.61295e+12 -8.52804e+12 -1.27986e+13 -1.05076e+13 -6.15479e+12 -6.38063e+12 -5.13575e+12 -9.23158e+12 -8.8525e+12 -8.8816e+12 -1.10034e+13 -5.73041e+12 -8.09501e+12 -6.17529e+12 -1.07226e+13 -7.56828e+12 -9.61597e+12 -3.42226e+12 -8.30412e+12 -5.50469e+12 -7.93027e+12 -1.02619e+13 -1.01722e+13 -6.32221e+12 -7.13435e+12 -7.08897e+12 -5.22873e+12 -3.7254e+12 -4.96304e+12 -8.98641e+12 -6.35123e+12 -4.82879e+12 -7.60916e+12 -5.63631e+12 -2.54409e+12 -3.85221e+12 -9.07095e+12 -7.27896e+12 -4.988e+12 -6.71879e+12 -7.51949e+12 -5.19749e+12 -6.50868e+12 -4.47432e+12 -6.87599e+12 -3.48468e+12 -6.82554e+12 -5.84344e+12 -9.19147e+12 -3.45058e+12 -3.87625e+12 -1.39385e+13 -7.72758e+12 -5.3391e+12 -5.20443e+12 -8.01656e+12 -7.29228e+12 -8.35546e+12 -5.30089e+12 -7.57128e+12 -4.96349e+12 -8.10953e+12 -7.13795e+12 -9.00733e+12 -7.30499e+12 -6.98967e+12 -9.81187e+12 -3.78458e+12 -9.83824e+12 -5.84761e+12 -5.31126e+12 -5.2442e+12 -7.7092e+12 -7.13855e+12 -7.83875e+12 -5.54199e+12 -8.85304e+12 -4.90122e+12 -9.61776e+12 -8.69185e+12 -9.20226e+12 -9.69318e+12 -5.85527e+12 -7.59314e+12 -7.29217e+12 -1.00848e+13 -9.25636e+12 -8.20217e+12 -1.21513e+13 -1.48608e+13 -8.06687e+12 -1.20876e+13 -6.33689e+12 -5.49278e+12 -9.11275e+12 -1.14023e+13 -1.16827e+13 -5.13812e+12 -5.51684e+12 -6.14976e+12 -8.78237e+12 -6.10559e+12 -7.00267e+12 -1.15572e+13 -5.63136e+12 -3.58575e+12 -7.56358e+12 -4.51744e+12 -1.09233e+13 -7.12327e+12 -1.02819e+13 -1.11545e+13 -9.65215e+12 -7.88146e+12 -1.27588e+13 -7.20811e+12 -5.88206e+12 -6.58539e+12 -1.04973e+13 -7.3497e+12 -7.08466e+12 -2.67503e+12 -4.40266e+12 -8.81839e+12 -6.36337e+12 -7.73069e+12 -9.61471e+12 -8.398e+12 -2.8212e+12 -4.98426e+12 -1.04477e+13 -5.96425e+12 -8.78507e+12 -8.15858e+12 -6.37274e+12 -8.01852e+12 -4.74226e+12 -3.23214e+12 -8.14082e+12 -9.04965e+12 -6.94684e+12 -5.8594e+12 -9.85409e+12 -6.44475e+12 -7.50793e+12 -4.39701e+12 -7.61371e+12 -6.20955e+12 -7.07424e+12 -4.78611e+12 -3.88565e+12 -3.59829e+12 -4.52877e+12 -6.04253e+12 -9.20781e+12 -6.0539e+12 -3.7454e+12 -6.55417e+12 -5.37475e+12 -7.47623e+12 -6.53745e+12 -4.33505e+12 -8.22157e+12 -3.44858e+12 -5.62876e+12 -6.55422e+12 -6.55707e+12 -1.02176e+13 -7.09502e+12 -8.54766e+12 -7.194e+12 -5.23683e+12 -5.71531e+12 -2.88448e+12 -9.40541e+12 -5.79902e+12 -9.58655e+12 -1.04384e+13 -6.27675e+12 -6.35255e+12 -3.63414e+12 -7.73957e+12 -4.05639e+12 -8.28126e+12 -9.09254e+12 -2.51423e+12 -4.35084e+12 -7.39882e+12 -6.55493e+12 -6.19968e+12 -6.81832e+12 -8.85932e+12 -7.3571e+12 -8.81844e+12 -7.69195e+12 -4.85061e+12 -3.48852e+12 -7.36452e+12 -8.16919e+12 -9.84773e+12 -7.67405e+12 -9.42156e+12 -7.53293e+12 -1.16741e+13 -7.5633e+12 -6.65092e+12 -9.27121e+12 -6.24222e+12 -8.07647e+12 -1.04375e+13 -9.06767e+12 -5.32636e+12 -9.29213e+12 -1.0389e+13 -5.46145e+12 -6.65567e+12 -5.03501e+12 -6.6326e+12 -1.04294e+13 -1.1624e+13 -4.95387e+12 -1.18488e+13 -7.2084e+12 -6.31027e+12 -1.25062e+13 -6.45681e+12 -4.26898e+12 -9.13258e+12 -7.70623e+12 -9.5093e+12 -5.18307e+12 -6.85173e+12 -5.51112e+12 -1.21017e+13 -6.82731e+12 -4.40509e+12 -5.84506e+12 -4.57121e+12 -5.7787e+12 -4.07328e+12 -5.58606e+12 -9.30531e+12 -7.9415e+12 -5.43828e+12 -4.891e+12 -9.04754e+12 -5.87823e+12 -1.12642e+13 -5.84623e+12 -4.80874e+12 -1.09513e+13 -5.00414e+12 -8.45543e+12 -6.22592e+12 -8.59938e+12 -7.30975e+12 -2.41341e+12 -5.34462e+12 -5.70265e+12 -1.28506e+13 -5.74459e+12 -5.5352e+12 -6.6981e+12 -5.16778e+12 -8.22633e+12 -5.25736e+12 -6.9999e+12 -6.18846e+12 -4.47134e+12 -1.01995e+13 -5.05339e+12 -4.03747e+12 -2.95125e+12 -6.92197e+12 -8.78043e+12 -6.10687e+12 -4.40381e+12 -4.87154e+12 -6.25406e+12 -7.14086e+12 -8.24508e+12 -4.2133e+12 -5.76842e+12 -4.50494e+12 -8.55604e+12 -7.01306e+12 -4.27608e+12 -5.49582e+12 -3.55905e+12 -5.84443e+12 -6.97752e+12 -1.04542e+13 -6.29488e+12 -4.25067e+12 -4.40625e+12 -5.74273e+12 -8.398e+12 -7.52241e+12 -6.12977e+12 -4.71538e+12 -3.28165e+12 -2.48148e+12 -6.37694e+12 -4.30383e+12 -5.93529e+12 -9.1709e+12 -5.66745e+12 -6.29828e+12 -5.48714e+12 -8.53403e+12 -6.74927e+12 -7.55482e+12 -4.98321e+12 -4.82843e+12 -6.79481e+12 -4.24059e+12 -6.70296e+12 -5.06512e+12 -7.1695e+12 -5.29388e+12 -7.1287e+12 -4.55625e+12 -4.1403e+12 -6.30355e+12 -1.91122e+12 -2.57499e+12 -3.10997e+12 -5.18945e+12 -4.60863e+12 -6.64113e+12 -6.33091e+12 -7.69738e+12 -4.07298e+12 -8.04054e+12 -3.90085e+12 -8.37163e+12 -6.8384e+12 -7.94287e+12 -1.30589e+13 -5.28731e+12 -4.70862e+12 -2.57454e+12 -7.64394e+12 -3.60327e+12 -6.70368e+12 -3.72237e+12 -7.59513e+12 -5.97085e+12 -4.31031e+12 -8.21636e+12 -9.86254e+12 -9.07071e+12 -7.49234e+12 -8.89182e+12 -8.60734e+12 -9.45197e+12 -9.02593e+12 -7.47697e+12 -8.37612e+12 -6.76432e+12 -9.454e+12 -1.06323e+13 -6.13275e+12 -8.85146e+12 -7.43051e+12 -8.84922e+12 -8.45399e+12 -5.26387e+12 -4.29258e+12 -7.2539e+12 -8.10125e+12 -5.92091e+12 -8.61411e+12 -6.56861e+12 -1.09374e+13 -4.71061e+12 -6.92742e+12 -8.53305e+12 -9.32238e+12 -6.31657e+12 -6.87846e+12 -7.41507e+12 -3.9848e+12 -1.09806e+13 -5.78643e+12 -5.5244e+12 -4.49689e+12 -3.80498e+12 -6.04975e+12 -5.63146e+12 -5.68795e+12 -4.99014e+12 -6.59304e+12 -7.60446e+12 -3.54595e+12 -4.72796e+12 -7.78726e+12 -7.6094e+12 -5.49243e+12 -7.63358e+12 -4.60594e+12 -9.49832e+12 -8.21257e+12 -9.0254e+12 -8.45762e+12 -6.37137e+12 -6.18749e+12 -6.11796e+12 -2.73168e+12 -6.90812e+12 -7.23398e+12 -6.40534e+12 -5.50575e+12 -7.85796e+12 -5.64031e+12 -9.33488e+12 -4.72448e+12 -1.00325e+13 -4.53456e+12 -7.78998e+12 -7.8452e+12 -9.43503e+12 -4.18981e+12 -7.39505e+12 -6.33806e+12 -5.7108e+12 -4.01687e+12 -2.86158e+12 -1.16973e+13 -4.99424e+12 -4.87376e+12 -5.03715e+12 -3.80464e+12 -3.46863e+12 -6.82131e+12 -7.58876e+12 -9.48856e+12 -5.28124e+12 -5.41367e+12 -4.81064e+12 -3.52013e+12 -7.78644e+12 -7.82106e+12 -6.26549e+12 -1.06158e+13 -1.00219e+13 -8.49501e+12 -9.71319e+12 -1.00578e+13 -6.88655e+12 -5.00166e+12 -8.92912e+12 -7.71656e+12 -1.11539e+13 -9.03788e+12 -1.22166e+13 -9.91572e+12 -8.76739e+12 -6.05686e+12 -6.69539e+12 -5.47912e+12 -7.33916e+12 -1.09524e+13 -7.75443e+12 -6.62273e+12 -7.54451e+12 -6.6308e+12 -6.71183e+12 -4.86075e+12 -7.41467e+12 -7.01428e+12 -8.56214e+12 -5.73414e+12 -5.32889e+12 -8.90654e+12 -7.72294e+12 -2.44814e+12 -4.68198e+12 -7.81342e+12 -7.31272e+12 -8.30687e+12 -1.21299e+13 -9.75641e+12 -3.47462e+12 -9.87023e+12 -7.14255e+12 -6.38987e+12 -1.00285e+13 -5.28629e+12 -5.37302e+12 -6.74093e+12 -8.47288e+12 -7.23925e+12 -7.18488e+12 -9.56276e+12 -6.47103e+12 -7.68961e+12 -7.55906e+12 -7.05673e+12 -4.29137e+12 -8.80207e+12 -6.03717e+12 -5.66968e+12 -8.65251e+12 -5.5295e+12 -6.74741e+12 -7.05145e+12 -6.15563e+12 -5.09283e+12 -5.51895e+12 -4.22637e+12 -4.42327e+12 -5.57924e+12 -6.24714e+12 -6.79665e+12 -5.92204e+12 -5.07143e+12 -5.49718e+12 -1.12396e+13 -7.33483e+12 -1.03571e+13 -5.0695e+12 -8.65129e+12 -5.66605e+12 -5.39956e+12 -6.03953e+12 -6.25596e+12 -8.69443e+12 -6.21342e+12 -6.44311e+12 -6.05717e+12 -7.69938e+12 -4.07389e+12 -6.79626e+12 -6.06088e+12 -8.13585e+12 -7.55841e+12 -5.43655e+12 -4.69548e+12 -6.83075e+12 -4.30337e+12 -2.42364e+12 -4.60126e+12 -4.8511e+12 -5.96311e+12 -2.49924e+12 -6.58022e+12 -4.76984e+12 -5.11194e+12 -4.42092e+12 -9.00798e+12 -7.25878e+12 -6.25801e+12 -6.49197e+12 -5.52723e+12 -4.96562e+12 -3.65918e+12 -3.10772e+12 -4.92646e+12 -2.85147e+12 -6.12521e+12 -5.98711e+12 -4.17367e+12 -6.52345e+12 -5.03896e+12 -4.50494e+12 -6.22776e+12 -9.95641e+12 -8.36928e+12 -9.69741e+12 -7.46148e+12 -8.30167e+12 -5.66241e+12 -6.23143e+12 -2.49343e+12 -1.03576e+13 -6.45825e+12 -7.75234e+12 -7.46523e+12 -7.87925e+12 -5.84797e+12 -4.58958e+12 -1.17902e+13 -7.90482e+12 -8.37835e+12 -8.00536e+12 -7.78635e+12 -8.53601e+12 -1.07484e+13 -1.04723e+13 -9.00985e+12 -9.00159e+12 -7.5101e+12 -1.00051e+13 -5.88184e+12 -7.53521e+12 -6.67393e+12 -7.14037e+12 -9.45132e+12 -4.46285e+12 -6.60208e+12 -8.04891e+12 -1.01806e+13 -8.62321e+12 -4.68749e+12 -3.72982e+12 -4.06301e+12 -5.45266e+12 -2.52485e+12 -3.99769e+12 -8.27661e+12 -6.24933e+12 -7.96258e+12 -8.28634e+12 -5.08059e+12 -6.37432e+12 -9.24596e+12 -8.85564e+12 -6.23771e+12 -5.26301e+12 -9.34917e+12 -7.90557e+12 -1.27605e+13 -4.71204e+12 -6.08186e+12 -4.95084e+12 -5.99843e+12 -7.47667e+12 -4.36778e+12 -1.12991e+13 -6.78851e+12 -4.53378e+12 -4.99406e+12 -5.69397e+12 -7.27403e+12 -6.29924e+12 -5.7955e+12 -2.48059e+12 -5.84429e+12 -1.12847e+13 -9.34762e+12 -7.10556e+12 -7.8262e+12 -2.92545e+12 -6.60211e+12 -6.95642e+12 -6.69245e+12 -3.51461e+12 -9.25669e+12 -6.51229e+12 -1.03095e+13 -6.58887e+12 -8.27379e+12 -5.81362e+12 -5.05646e+12 -5.10383e+12 -3.97924e+12 -6.63905e+12 -6.70902e+12 -6.01236e+12 -8.12747e+12 -3.83296e+12 -6.0493e+12 -5.20604e+12 -6.25941e+12 -3.7428e+12 -7.31747e+12 -4.04014e+12 -3.81031e+12 -5.85227e+12 -7.25788e+12 -5.05165e+12 -6.41789e+12 -3.45994e+12 -5.93068e+12 -6.70629e+12 -5.6059e+12 -2.6685e+12 -5.07253e+12 -5.99631e+12 -4.41931e+12 -4.02224e+12 -3.64132e+12 -2.63383e+12 -4.28412e+12 -7.78777e+12 -6.75882e+12 -3.3127e+12 -3.88345e+12 -4.66896e+12 -6.92222e+12 -4.46675e+12 -9.8914e+12 -6.91739e+12 -3.56843e+12 -7.39723e+12 -5.02796e+12 -6.27995e+12 -4.76271e+12 -6.17141e+12 -5.64487e+12 -5.25526e+12 -1.00403e+13 -6.26772e+12 -6.02124e+12 -6.29934e+12 -8.16037e+12 -6.38002e+12 -7.60557e+12 -7.40194e+12 -8.38756e+12 -5.30807e+12 -4.22208e+12 -6.36765e+12 -1.20552e+13 -6.50402e+12 -3.66313e+12 -1.0084e+13 -4.90495e+12 -3.47882e+12 -6.9583e+12 -2.10371e+12 -1.29195e+13 -6.46112e+12 -1.18858e+13 -7.32458e+12 -6.13447e+12 -1.22573e+13 -4.30161e+12 -8.17542e+12 -9.21894e+12 -7.08351e+12 -1.01396e+13 -5.22799e+12 -5.88536e+12 -7.30349e+12 -6.2448e+12 -4.96851e+12 -6.15183e+12 -5.20156e+12 -5.31395e+12 -4.88096e+12 -4.17464e+12 -4.36181e+12 -7.07467e+12 -6.5302e+12 -6.27439e+12 -1.01389e+13 -6.66542e+12 -6.81715e+12 -7.88406e+12 -1.24994e+13 -3.58007e+12 -8.42673e+12 -1.47148e+13 -6.56666e+12 -5.64792e+12 -8.90106e+12 -9.84512e+12 -8.80425e+12 -7.99853e+12 -9.5445e+12 -6.21969e+12 -9.5258e+12 -8.37805e+12 -7.7326e+12 -9.78182e+12 -9.06914e+12 -1.32781e+13 -1.00575e+13 -3.18386e+12 -7.48781e+12 -3.12439e+12 -4.48357e+12 -7.4598e+12 -6.10814e+12 -5.06173e+12 -5.61769e+12 -7.24215e+12 -6.85935e+12 -5.32529e+12 -7.8588e+12 -3.76729e+12 -5.23116e+12 -3.74596e+12 -1.07364e+13 -9.05575e+12 -1.02989e+13 -5.03563e+12 -4.9405e+12 -4.2796e+12 -3.63932e+12 -5.37194e+12 -8.73955e+12 -3.3199e+12 -3.56216e+12 -3.38747e+12 -8.18019e+12 -8.02869e+12 -4.61577e+12 -7.15652e+12 -7.4986e+12 -5.2471e+12 -7.07548e+12 -3.67218e+12 -4.5194e+12 -5.32027e+12 -3.92334e+12 -3.53131e+12 -6.46622e+12 -3.75271e+12 -8.21407e+12 -4.28197e+12 -5.25499e+12 -6.66559e+12 -7.68117e+12 -4.10047e+12 -1.95295e+12 -4.11624e+12 -7.37243e+12 -4.97973e+12 -3.00266e+12 -4.06106e+12 -4.55183e+12 -7.96252e+12 -7.30617e+12 -5.00528e+12 -5.96521e+12 -9.60632e+12 -5.7445e+12 -5.30841e+12 -5.46484e+12 -6.18024e+12 -3.89977e+12 -6.78539e+12 -4.29796e+12 -6.65079e+12 -9.21592e+12 -1.01992e+13 -8.77965e+12 -5.97128e+12 -3.84162e+12 -7.54453e+12 -6.97465e+12 -8.7435e+12 -5.74311e+12 -8.47032e+12 -4.33072e+12 -4.90284e+12 -9.60761e+12 -6.61088e+12 -3.8623e+12 -6.03972e+12 -5.43292e+12 -7.52241e+12 -6.19164e+12 -8.95899e+12 -4.27245e+12 -6.31868e+12 -4.15164e+12 -8.56677e+12 -6.25027e+12 -6.08903e+12 -4.58794e+12 -8.51369e+12 -6.736e+12 -8.89004e+12 -8.55409e+12 -6.86012e+12 -4.77301e+12 -8.02079e+12 -1.00932e+13 -6.06235e+12 -5.89842e+12 -7.1567e+12 -7.95115e+12 -7.84898e+12 -5.82295e+12 -1.0434e+13 -5.50525e+12 -6.38968e+12 -5.58872e+12 -4.54797e+12 -4.29601e+12 -5.80482e+12 -7.64126e+12 -5.07032e+12 -2.75826e+12 -9.59282e+12 -5.25391e+12 -7.05477e+12 -1.33256e+13 -1.83903e+13 -5.61865e+12 -7.51624e+12 -1.05532e+13 -5.84921e+12 -9.07642e+12 -5.08395e+12 -5.77027e+12 -7.23907e+12 -6.48223e+12 -6.9979e+12 -5.5497e+12 -8.04472e+12 -8.3441e+12 -8.40556e+12 -4.69155e+12 -4.90955e+12 -6.1724e+12 -5.70691e+12 -5.63512e+12 -4.07165e+12 -8.67239e+12 -7.34128e+12 -9.51197e+12 -8.75738e+12 -8.24712e+12 -5.75501e+12 -6.77191e+12 -6.25878e+12 -5.48521e+12 -8.8043e+12 -4.63996e+12 -6.23166e+12 -8.28779e+12 -5.55148e+12 -8.01499e+12 -4.19423e+12 -5.11147e+12 -6.33399e+12 -4.74902e+12 -4.16968e+12 -3.03979e+12 -6.28892e+12 -5.71973e+12 -5.72204e+12 -3.98691e+12 -7.00173e+12 -5.38176e+12 -6.19764e+12 -5.58385e+12 -4.09543e+12 -5.3682e+12 -2.51331e+12 -4.56977e+12 -1.28104e+12 -7.21816e+12 -5.65112e+12 -5.32643e+12 -3.7186e+12 -5.2056e+12 -6.4109e+12 -9.707e+12 -2.893e+12 -3.36481e+12 -2.92836e+12 -4.83004e+12 -4.31177e+12 -6.2444e+12 -5.80645e+12 -3.25439e+12 -4.08146e+12 -4.79351e+12 -5.02885e+12 -3.2653e+12 -7.30645e+12 -5.94467e+12 -3.66357e+12 -6.67604e+12 -4.74982e+12 -7.25814e+12 -8.49092e+12 -3.29819e+12 -3.92101e+12 -3.40932e+12 -5.63028e+12 -6.96822e+12 -9.41686e+12 -4.94014e+12 -9.28545e+12 -9.36505e+12 -2.51512e+12 -4.95824e+12 -7.41145e+12 -5.20466e+12 -8.46976e+12 -9.78373e+12 -6.89972e+12 -5.18393e+12 -6.12208e+12 -3.45151e+12 -5.4031e+12 -7.24021e+12 -4.95892e+12 -8.66888e+12 -5.80239e+12 -7.25345e+12 -8.36058e+12 -2.68772e+12 -8.86908e+12 -7.81819e+12 -4.15459e+12 -6.39824e+12 -7.3083e+12 -1.27356e+13 -7.04121e+12 -5.91366e+12 -8.96478e+12 -6.43544e+12 -7.05417e+12 -5.30529e+12 -4.89068e+12 -3.38374e+12 -9.38263e+12 -1.09662e+13 -5.21233e+12 -8.17329e+12 -6.65353e+12 -3.90435e+12 -5.84413e+12 -4.81882e+12 -4.94805e+12 -6.35967e+12 -9.07922e+12 -1.06471e+13 -9.72526e+12 -8.20809e+12 -7.25307e+12 -4.64334e+12 -7.74272e+12 -4.53635e+12 -3.59374e+12 -8.02723e+12 -6.4176e+12 -5.90933e+12 -3.5814e+12 -1.05446e+13 -7.84386e+12 -6.61512e+12 -5.46559e+12 -3.57855e+12 -7.09239e+12 -7.60421e+12 -6.57638e+12 -5.10294e+12 -6.06658e+12 -1.08113e+13 -6.39399e+12 -1.85708e+12 -6.17971e+12 -9.22582e+12 -1.03846e+13 -6.94128e+12 -5.51882e+12 -5.73303e+12 -6.03785e+12 -5.29154e+12 -7.47001e+12 -4.7911e+12 -7.9563e+12 -5.39083e+12 -4.65909e+12 -7.39684e+12 -4.56361e+12 -6.08416e+12 -6.96407e+12 -2.36776e+12 -4.34024e+12 -4.60331e+12 -3.60143e+12 -3.63238e+12 -4.38877e+12 -3.92639e+12 -4.1172e+12 -4.80687e+12 -3.18273e+12 -8.08904e+12 -5.80623e+12 -5.56598e+12 -3.45872e+12 -3.78142e+12 -4.69258e+12 -2.91446e+12 -5.84719e+12 -5.72069e+12 -4.76566e+12 -6.78795e+12 -4.35132e+12 -6.49367e+12 -5.09561e+12 -3.2125e+12 -6.20036e+12 -4.69544e+12 -4.70927e+12 -4.01426e+12 -5.03393e+12 -5.32552e+12 -4.89805e+12 -5.58445e+12 -3.07021e+12 -5.66562e+12 -4.78805e+12 -2.43374e+12 -2.65326e+12 -6.92055e+12 -6.15383e+12 -4.75787e+12 -2.04869e+12 -3.557e+12 -4.45314e+12 -3.48394e+12 -5.18216e+12 -7.06116e+12 -2.6047e+12 -3.37568e+12 -5.11929e+12 -3.81337e+12 -4.8007e+12 -5.08228e+12 -1.08933e+13 -7.83723e+12 -7.46774e+12 -3.78664e+12 -4.44281e+12 -6.17483e+12 -8.41106e+12 -4.12351e+12 -1.17772e+13 -3.07275e+12 -4.42139e+12 -5.69539e+12 -6.51403e+12 -7.43799e+12 -7.44882e+12 -4.43724e+12 -6.38942e+12 -1.17148e+13 -4.77284e+12 -6.17716e+12 -7.41351e+12 -1.28499e+13 -5.29932e+12 -3.41214e+12 -7.64934e+12 -6.2699e+12 -4.91885e+12 -5.95193e+12 -5.22393e+12 -5.10722e+12 -4.50568e+12 -5.08331e+12 -4.75363e+12 -6.15651e+12 -5.44361e+12 -8.97453e+12 -1.14312e+13 -9.37291e+12 -7.60025e+12 -7.19888e+12 -6.77543e+12 -6.54813e+12 -4.01308e+12 -4.00985e+12 -6.30712e+12 -3.84043e+12 -5.49302e+12 -4.7701e+12 -3.33001e+12 -6.88385e+12 -7.67395e+12 -4.44692e+12 -6.58363e+12 -5.66885e+12 -7.49627e+12 -8.56566e+12 -6.62077e+12 -8.50864e+12 -6.95628e+12 -4.22757e+12 -8.14271e+12 -6.5388e+12 -5.02927e+12 -4.66215e+12 -6.38046e+12 -6.73776e+12 -5.79371e+12 -6.60591e+12 -3.52752e+12 -5.18231e+12 -6.83623e+12 -3.88097e+12 -6.3273e+12 -7.13278e+12 -6.53884e+12 -4.06806e+12 -4.39552e+12 -6.85068e+12 -5.97199e+12 -4.92616e+12 -2.43099e+12 -2.71571e+12 -4.88613e+12 -4.07346e+12 -6.91355e+12 -3.93644e+12 -9.4051e+12 -3.92153e+12 -5.90463e+12 -5.42223e+12 -5.99951e+12 -8.07026e+12 -9.08965e+12 -4.55138e+12 -3.99854e+12 -2.7824e+12 -5.3788e+12 -5.34102e+12 -830203000000.0 -4.71896e+12 -8.51998e+12 -7.27064e+12 -5.2856e+12 -2.83216e+12 -4.60976e+12 -4.02574e+12 -3.50477e+12 -1.33338e+12 -7.71151e+12 -4.95683e+12 -3.89265e+12 -4.38339e+12 -4.28861e+12 -2.64688e+12 -3.00245e+12 -7.22751e+12 -6.05283e+12 -4.64877e+12 -5.05184e+12 -4.03583e+12 -4.13255e+12 -4.68111e+12 -2.80343e+12 -6.25403e+12 -6.2946e+12 -5.80774e+12 -5.9022e+12 -4.8578e+12 -4.30216e+12 -4.46478e+12 -4.32332e+12 -4.06403e+12 -2.61846e+12 -6.63076e+12 -6.04232e+12 -2.99386e+12 -2.97414e+12 -5.31617e+12 -4.88001e+12 -4.73212e+12 -6.08297e+12 -3.97575e+12 -5.44122e+12 -5.50237e+12 -4.77302e+12 -6.51595e+12 -9.44852e+12 -3.62267e+12 -5.47739e+12 -3.97289e+12 -6.34627e+12 -4.75992e+12 -4.47217e+12 -6.48344e+12 -5.2859e+12 -5.79957e+12 -5.93054e+12 -7.4842e+12 -6.80381e+12 -5.75758e+12 -4.28617e+12 -4.28733e+12 -3.25658e+12 -5.47245e+12 -9.69959e+12 -9.49813e+12 -1.14565e+13 -7.38811e+12 -4.50121e+12 -8.01232e+12 -8.75458e+12 -6.27391e+12 -3.58564e+12 -1.03429e+13 -8.91468e+12 -7.24598e+12 -8.49473e+12 -9.40859e+12 -6.82031e+12 -5.17854e+12 -4.22144e+12 -4.91839e+12 -9.17885e+12 -4.60153e+12 -8.95536e+12 -8.10511e+12 -1.12969e+13 -1.27938e+13 -5.68341e+12 -6.80266e+12 -4.83278e+12 -7.63132e+12 -8.2852e+12 -4.89073e+12 -6.99797e+12 -5.73449e+12 -5.57022e+12 -5.14622e+12 -2.70833e+12 -5.51677e+12 -5.64739e+12 -5.94993e+12 -5.67941e+12 -5.77382e+12 -5.71933e+12 -4.83078e+12 -4.0398e+12 -4.07708e+12 -7.48241e+12 -5.27811e+12 -8.35292e+12 -6.78433e+12 -8.21227e+12 -4.50753e+12 -6.51937e+12 -7.05885e+12 -4.70518e+12 -5.97358e+12 -3.40443e+12 -5.41418e+12 -4.65471e+12 -5.40176e+12 -4.42928e+12 -6.17148e+12 -3.91841e+12 -5.89498e+12 -6.1745e+12 -9.2229e+12 -3.49044e+12 -4.93658e+12 -8.03703e+12 -8.01247e+12 -5.54084e+12 -8.54071e+12 -6.43283e+12 -6.25211e+12 -4.73859e+12 -9.18866e+12 -4.69404e+12 -5.86351e+12 -3.4499e+12 -3.86633e+12 -2.87803e+12 -3.66626e+12 -6.9639e+12 -5.86634e+12 -5.62207e+12 -6.46062e+12 -4.3141e+12 -4.51027e+12 -2.95252e+12 -4.0484e+12 -6.81453e+12 -5.78541e+12 -6.98844e+12 -4.90745e+12 -4.22887e+12 -4.83545e+12 -1.24097e+12 -4.3418e+12 -4.70918e+12 -5.23167e+12 -2.70013e+12 -3.83096e+12 -5.26508e+12 -5.11079e+12 -3.75493e+12 -3.46829e+12 -3.6782e+12 -3.35083e+12 -3.28782e+12 -4.35534e+12 -4.4441e+12 -3.47066e+12 -4.17424e+12 -5.33409e+12 -4.59018e+12 -2.93514e+12 -2.76851e+12 -5.94763e+12 -2.66684e+12 -4.30267e+12 -3.8464e+12 -2.08302e+12 -4.48563e+12 -2.30843e+12 -5.2191e+12 -1.90127e+12 -4.14979e+12 -4.14625e+12 -2.74771e+12 -2.83644e+12 -6.13454e+12 -2.89063e+12 -3.88808e+12 -4.09929e+12 -4.92927e+12 -4.34188e+12 -3.35358e+12 -2.26824e+12 -5.89451e+12 -6.12114e+12 -2.95465e+12 -5.3421e+12 -3.45814e+12 -5.60681e+12 -9.44949e+12 -5.17615e+12 -6.3264e+12 -4.40401e+12 -8.21036e+12 -2.69879e+12 -7.00257e+12 -9.80311e+12 -4.13653e+12 -4.32556e+12 -5.311e+12 -6.74835e+12 -4.74988e+12 -4.36168e+12 -7.47672e+12 -5.52472e+12 -8.03661e+12 -3.71498e+12 -4.99539e+12 -3.31342e+12 -5.75327e+12 -3.90277e+12 -6.42056e+12 -5.5677e+12 -7.43708e+12 -5.2557e+12 -5.39203e+12 -5.73943e+12 -9.02333e+12 -1.16784e+13 -6.54809e+12 -6.66703e+12 -2.18991e+12 -6.21237e+12 -9.56703e+12 -4.91881e+12 -5.01079e+12 -6.31651e+12 -7.3774e+12 -5.57227e+12 -1.04417e+13 -6.20574e+12 -8.34351e+12 -6.88299e+12 -4.7074e+12 -9.33066e+12 -5.2707e+12 -8.81791e+12 -7.83687e+12 -3.31789e+12 -4.88542e+12 -6.16453e+12 -5.90241e+12 -8.51225e+12 -3.484e+12 -4.82843e+12 -7.70737e+12 -4.91616e+12 -7.41976e+12 -6.49648e+12 -5.57867e+12 -5.33865e+12 -9.60402e+12 -3.89297e+12 -9.67341e+12 -7.29924e+12 -6.18548e+12 -8.00917e+12 -6.28817e+12 -7.1675e+12 -6.54864e+12 -5.66186e+12 -7.78835e+12 -6.34174e+12 -4.78777e+12 -5.08525e+12 -5.10294e+12 -9.17523e+12 -6.69554e+12 -7.2761e+12 -6.25092e+12 -1.0612e+13 -4.6493e+12 -9.87962e+12 -9.11733e+12 -4.60063e+12 -7.65081e+12 -8.89376e+12 -2.40496e+12 -5.2048e+12 -5.15892e+12 -4.36754e+12 -5.06412e+12 -4.09775e+12 -1.35652e+12 -6.16081e+12 -4.66562e+12 -3.34642e+12 -4.73438e+12 -5.2201e+12 -4.37323e+12 -3.78759e+12 -6.41842e+12 -4.77912e+12 -5.16494e+12 -4.34341e+12 -3.34529e+12 -2.89792e+12 -2.69558e+12 -4.54808e+12 -4.18926e+12 -3.51148e+12 -4.91544e+12 -5.73463e+12 -3.56007e+12 -3.04597e+12 -3.14281e+12 -2.64141e+12 -4.43768e+12 -3.8767e+12 -5.18906e+12 -2.39777e+12 -4.7927e+12 -4.29251e+12 -3.3315e+12 -5.30639e+12 -3.65951e+12 -3.94783e+12 -1.97451e+12 -3.38316e+12 -3.78926e+12 -6.84486e+12 -4.9753e+12 -3.76077e+12 -3.20311e+12 -4.54342e+12 -3.93675e+12 -3.27433e+12 -4.04847e+12 -4.16756e+12 -3.16181e+12 -3.74895e+12 -3.56344e+12 -4.40939e+12 -4.43314e+12 -4.1106e+12 -5.02605e+12 -7.67391e+12 -3.15028e+12 -4.92003e+12 -7.01849e+12 -5.35131e+12 -6.90899e+12 -4.55801e+12 -5.88974e+12 -4.82587e+12 -3.43542e+12 -6.50917e+12 -2.48893e+12 -3.72773e+12 -7.4302e+12 -4.23315e+12 -4.07183e+12 -6.15519e+12 -4.63943e+12 -4.12474e+12 -3.77914e+12 -4.25199e+12 -6.21725e+12 -5.56674e+12 -6.16245e+12 -5.96855e+12 -8.27962e+12 -7.62235e+12 -5.13918e+12 -6.73007e+12 -7.62809e+12 -6.78168e+12 -5.74831e+12 -7.653e+12 -3.92013e+12 -1.01536e+13 -6.02261e+12 -4.79156e+12 -8.53992e+12 -1.47658e+13 -8.04656e+12 -1.08288e+13 -9.50595e+12 -5.20534e+12 -7.65548e+12 -7.65271e+12 -6.28544e+12 -1.2063e+13 -5.81617e+12 -8.69592e+12 -4.79358e+12 -6.81531e+12 -2.94867e+12 -3.91516e+12 -3.11746e+12 -3.509e+12 -7.05076e+12 -4.1685e+12 -1.00624e+13 -5.7469e+12 -4.8754e+12 -7.26163e+12 -5.55272e+12 -5.15585e+12 -8.4358e+12 -6.53794e+12 -5.11695e+12 -8.97858e+12 -8.41894e+12 -6.61816e+12 -5.9123e+12 -5.47603e+12 -5.46657e+12 -5.757e+12 -4.26317e+12 -7.23811e+12 -5.36399e+12 -7.73018e+12 -5.36982e+12 -5.49756e+12 -4.09897e+12 -4.99956e+12 -7.06101e+12 -8.6344e+12 -4.21151e+12 -4.41318e+12 -5.601e+12 -3.31724e+12 -4.98969e+12 -6.79416e+12 -3.85913e+12 -7.13741e+12 -5.97549e+12 -2.95268e+12 -5.18785e+12 -7.24014e+12 -4.63523e+12 -3.84709e+12 -3.69461e+12 -5.41046e+12 -6.02487e+12 -4.46416e+12 -4.07574e+12 -4.59512e+12 -4.24702e+12 -3.3738e+12 -5.81658e+12 -4.29838e+12 -6.33011e+12 -3.0493e+12 -4.93301e+12 -5.37952e+12 -4.22003e+12 -4.28279e+12 -3.057e+12 -1.98535e+12 -3.41691e+12 -4.62391e+12 -3.94216e+12 -3.49875e+12 -4.55953e+12 -3.14439e+12 -1.80921e+12 -4.01446e+12 -4.0932e+12 -3.95412e+12 -4.37882e+12 -4.451e+12 -3.99611e+12 -4.46673e+12 -1.3208e+12 -3.41112e+12 -3.81659e+12 -4.29895e+12 -3.30107e+12 -4.85812e+12 -6.41992e+12 -3.89571e+12 -3.67752e+12 -3.46303e+12 -3.71475e+12 -3.64071e+12 -2.42237e+12 -3.56351e+12 -3.71884e+12 -4.56114e+12 -3.0613e+12 -3.25044e+12 -7.22033e+12 -3.53602e+12 -5.28333e+12 -3.36177e+12 -4.06396e+12 -7.43937e+12 -4.76302e+12 -3.32455e+12 -5.50293e+12 -5.48322e+12 -4.51223e+12 -7.02616e+12 -7.13107e+12 -3.87969e+12 -5.24851e+12 -5.05545e+12 -4.90925e+12 -5.75505e+12 -3.4907e+12 -4.17158e+12 -6.28181e+12 -4.09754e+12 -4.51436e+12 -4.20912e+12 -5.35748e+12 -7.71156e+12 -6.40737e+12 -6.02169e+12 -7.24583e+12 -6.07842e+12 -5.36337e+12 -5.59344e+12 -9.61822e+12 -5.77711e+12 -7.39504e+12 -6.23958e+12 -5.61655e+12 -4.21414e+12 -6.79856e+12 -1.17513e+13 -3.64537e+12 -5.95885e+12 -7.3299e+12 -5.37256e+12 -6.20653e+12 -8.00511e+12 -9.74676e+12 -1.16651e+13 -6.42805e+12 -2.63317e+12 -4.42684e+12 -6.68026e+12 -5.79237e+12 -2.14248e+12 -4.80209e+12 -6.63536e+12 -3.3024e+12 -1.04121e+13 -5.01352e+12 -4.24311e+12 -4.56878e+12 -5.3606e+12 -5.18512e+12 -7.97937e+12 -6.44873e+12 -5.65079e+12 -6.71646e+12 -9.75779e+12 -4.02441e+12 -2.55619e+12 -6.54942e+12 -4.69694e+12 -4.64528e+12 -3.90456e+12 -4.26947e+12 -5.12249e+12 -6.04208e+12 -2.82346e+12 -5.95293e+12 -4.73618e+12 -3.85763e+12 -6.05369e+12 -3.7499e+12 -2.38869e+12 -6.91385e+12 -5.15594e+12 -2.64696e+12 -2.22302e+12 -2.50624e+12 -4.61346e+12 -9.44523e+12 -5.26883e+12 -4.3242e+12 -6.61928e+12 -6.67769e+12 -4.94462e+12 -5.3081e+12 -7.22762e+12 -2.57276e+12 -2.13689e+12 -4.40675e+12 -3.90555e+12 -2.89714e+12 -2.76202e+12 -2.06382e+12 -4.75851e+12 -4.69824e+12 -3.37232e+12 -1.8383e+12 -4.88556e+12 -3.0279e+12 -3.65344e+12 -3.87434e+12 -2.50324e+12 -3.82555e+12 -2.18874e+12 -3.00474e+12 -3.92512e+12 -4.03292e+12 -2.59638e+12 -2.65842e+12 -2.94436e+12 -1.6559e+12 -3.89782e+12 -2.90329e+12 -2.42046e+12 -3.72501e+12 -3.99854e+12 -2.90939e+12 -3.50538e+12 -4.30677e+12 -3.15652e+12 -1.70473e+12 -2.38475e+12 -3.44687e+12 -2.31722e+12 -4.08331e+12 -2.45894e+12 -3.98099e+12 -6.82119e+12 -2.98431e+12 -4.80003e+12 -3.95506e+12 -5.75388e+12 -4.37385e+12 -4.30962e+12 -3.94718e+12 -1.97199e+12 -4.69014e+12 -5.93517e+12 -2.63573e+12 -2.28196e+12 -3.67945e+12 -1.79246e+12 -3.06139e+12 -4.44145e+12 -4.90772e+12 -3.0486e+12 -4.80438e+12 -5.15586e+12 -3.6784e+12 -5.50852e+12 -2.18139e+12 -4.85525e+12 -2.64469e+12 -4.40505e+12 -3.88031e+12 -2.95835e+12 -6.95087e+12 -4.71668e+12 -4.39486e+12 -6.4116e+12 -6.48337e+12 -6.58286e+12 -5.43545e+12 -2.48724e+12 -5.53166e+12 -5.14659e+12 -5.08827e+12 -3.76867e+12 -5.50954e+12 -5.75649e+12 -7.05794e+12 -5.85072e+12 -5.99303e+12 -730223000000.0 -6.52519e+12 -7.83643e+12 -7.20422e+12 -5.94225e+12 -5.87009e+12 -5.06641e+12 -6.9406e+12 -7.70561e+12 -7.61689e+12 -7.28488e+12 -4.11348e+12 -6.71977e+12 -6.13017e+12 -6.55457e+12 -2.9709e+12 -6.97314e+12 -4.72884e+12 -5.57281e+12 -5.44719e+12 -4.69833e+12 -4.9781e+12 -4.39954e+12 -9.09982e+12 -8.56227e+12 -7.10248e+12 -2.96765e+12 -5.09228e+12 -2.38284e+12 -1.73522e+12 -2.51246e+12 -7.59023e+12 -4.64593e+12 -6.80565e+12 -3.0585e+12 -5.61018e+12 -4.64517e+12 -6.24263e+12 -5.2753e+12 -6.45629e+12 -4.50966e+12 -4.57441e+12 -6.14672e+12 -6.5647e+12 -3.81433e+12 -3.70459e+12 -4.45576e+12 -8.85693e+12 -4.59206e+12 -6.43533e+12 -5.474e+12 -7.32766e+12 -4.54083e+12 -3.76484e+12 -4.41311e+12 -4.53932e+12 -3.80111e+12 -4.03798e+12 -6.34863e+12 -5.63632e+12 -8.70785e+12 -3.51839e+12 -5.17621e+12 -5.74351e+12 -6.45764e+12 -6.98777e+12 -5.87521e+12 -5.01416e+12 -3.30963e+12 -5.59006e+12 -4.52682e+12 -5.21479e+12 -3.35981e+12 -4.51434e+12 -7.76964e+12 -3.35263e+12 -2.61606e+12 -3.32656e+12 -2.49335e+12 -4.16556e+12 -5.82489e+12 -5.35735e+12 -4.23469e+12 -3.51438e+12 -3.31633e+12 -3.58699e+12 -5.02522e+12 -3.18593e+12 -4.53765e+12 -4.26735e+12 -1.98081e+12 -2.3641e+12 -3.43247e+12 -3.64507e+12 -4.62171e+12 -2.58859e+12 -2.32131e+12 -3.07365e+12 -4.34498e+12 -1.69141e+12 -4.59993e+12 -3.52575e+12 -3.90524e+12 -4.20371e+12 -2.37311e+12 -3.15849e+12 -1.25411e+12 -2.98719e+12 -2.31453e+12 -2.72555e+12 -3.49842e+12 -4.39448e+12 -4.78741e+12 -3.76834e+12 -3.16154e+12 -2.14768e+12 -2.13881e+12 -3.87828e+12 -2.7183e+12 -6.1722e+12 -5.30584e+12 -1.71694e+12 -3.55863e+12 -5.57666e+12 -3.92042e+12 -5.99741e+12 -5.40794e+12 -5.9939e+12 -4.60801e+12 -5.70048e+12 -5.52257e+12 -4.53548e+12 -5.75869e+12 -6.01657e+12 -4.70883e+12 -3.91561e+12 -7.05732e+12 -4.18354e+12 -4.89875e+12 -3.26615e+12 -4.66185e+12 -4.72884e+12 -6.80314e+12 -6.3502e+12 -6.79311e+12 -8.78031e+12 -4.93329e+12 -3.62947e+12 -6.63326e+12 -3.15324e+12 -2.915e+12 -5.69683e+12 -4.93172e+12 -7.44976e+12 -5.43695e+12 -6.09272e+12 -5.3016e+12 -7.189e+12 -3.61969e+12 -3.26905e+12 -4.53432e+12 -5.65256e+12 -3.414e+12 -4.1773e+12 -8.37179e+12 -4.89439e+12 -7.34536e+12 -6.10871e+12 -5.52567e+12 -7.69942e+12 -8.2239e+12 -4.64492e+12 -6.0689e+12 -3.75437e+12 -3.46891e+12 -3.85369e+12 -4.51094e+12 -6.83644e+12 -6.93398e+12 -7.65258e+12 -7.13212e+12 -8.32516e+12 -6.40063e+12 -3.85242e+12 -3.43708e+12 -4.30025e+12 -8.63343e+12 -4.01801e+12 -5.45254e+12 -4.66294e+12 -4.9123e+12 -3.41793e+12 -5.72301e+12 -5.77943e+12 -4.52892e+12 -4.68443e+12 -5.05612e+12 -3.2174e+12 -4.34243e+12 -3.79321e+12 -1.76642e+12 -4.43089e+12 -5.94776e+12 -6.01758e+12 -9.04873e+12 -4.42733e+12 -4.0341e+12 -2.8843e+12 -4.67344e+12 -6.27001e+12 -6.1106e+12 -4.3878e+12 -3.79569e+12 -5.30301e+12 -5.64258e+12 -3.5551e+12 -4.86214e+12 -3.88589e+12 -4.28027e+12 -4.59531e+12 -3.87931e+12 -5.08507e+12 -4.58314e+12 -1.56887e+12 -5.66359e+12 -5.08458e+12 -5.91843e+12 -4.68834e+12 -2.94743e+12 -4.55029e+12 -4.12752e+12 -4.05994e+12 -4.17928e+12 -3.83788e+12 -4.74088e+12 -4.33369e+12 -3.39285e+12 -2.38918e+12 -2.90465e+12 -4.19802e+12 -1.95484e+12 -1.77121e+12 -2.80999e+12 -1.701e+12 -2.78179e+12 -3.25425e+12 -1.80291e+12 -2.5377e+12 -2.74241e+12 -2.38235e+12 -1.38578e+12 -2.49851e+12 -3.05159e+12 -3.50565e+12 -2.88664e+12 -4.52586e+12 -3.27383e+12 -2.80822e+12 -2.66578e+12 -3.74676e+12 -2.40535e+12 -1.03331e+12 -3.43403e+12 -1.97593e+12 -2.81176e+12 -1.83247e+12 -3.40952e+12 -4.37532e+12 -4.06297e+12 -6.64512e+12 -1.49906e+12 -3.90541e+12 -5.89363e+12 -3.40107e+12 -2.84889e+12 -4.74399e+12 -2.56827e+12 -5.46146e+12 -3.86989e+12 -5.72376e+12 -4.24756e+12 -3.43517e+12 -4.71901e+12 -6.15109e+12 -6.26926e+12 -5.39654e+12 -3.18167e+12 -3.09306e+12 -4.30197e+12 -4.91382e+12 -5.62504e+12 -5.05447e+12 -3.94305e+12 -4.81208e+12 -4.93026e+12 -6.89356e+12 -4.91287e+12 -4.46572e+12 -6.5602e+12 -5.28248e+12 -6.29937e+12 -5.03508e+12 -5.46066e+12 -7.42152e+12 -7.31396e+12 -6.03127e+12 -3.01941e+12 -3.55801e+12 -8.03015e+12 -4.65476e+12 -6.15977e+12 -4.03237e+12 -5.68603e+12 -7.22547e+12 -4.40979e+12 -3.80688e+12 -7.02889e+12 -4.45073e+12 -6.89989e+12 -4.75584e+12 -6.38275e+12 -2.74078e+12 -2.40562e+12 -4.70415e+12 -2.57385e+12 -6.53545e+12 -5.57713e+12 -6.38639e+12 -9.00069e+12 -4.69107e+12 -4.47583e+12 -4.02879e+12 -4.54565e+12 -3.3639e+12 -4.22581e+12 -5.57928e+12 -5.60293e+12 -3.84552e+12 -6.7362e+12 -3.41101e+12 -5.8677e+12 -1.90319e+12 -4.30419e+12 -6.15926e+12 -3.28366e+12 -5.67131e+12 -4.33199e+12 -4.39501e+12 -2.98021e+12 -4.67672e+12 -4.35462e+12 -4.42584e+12 -4.91436e+12 -4.91199e+12 -6.09699e+12 -3.02085e+12 -3.49137e+12 -3.92271e+12 -4.55437e+12 -3.97245e+12 -2.71928e+12 -4.72579e+12 -3.91788e+12 -1.81212e+12 -5.30508e+12 -4.99122e+12 -5.68238e+12 -3.14186e+12 -4.0765e+12 -2.83514e+12 -2.51875e+12 -2.63077e+12 -1.37566e+12 -1.93027e+12 -3.22218e+12 -2.98028e+12 -1.42994e+12 -2.99807e+12 -3.59004e+12 -1.20184e+12 -2.35871e+12 -1.99307e+12 -1.14664e+12 -3.07663e+12 -2.66278e+12 -1.996e+12 -2.77292e+12 -2.02437e+12 -2.29376e+12 -3.45256e+12 -2.65328e+12 -2.61374e+12 -2.48572e+12 -937146000000.0 -1.2429e+12 -2.65222e+12 -1.21226e+12 -2.46809e+12 -2.32083e+12 -2.66059e+12 -1.72059e+12 -2.57428e+12 -4.57188e+12 -3.1182e+12 -4.02296e+12 -2.33046e+12 -3.57228e+12 -2.89199e+12 -1.81315e+12 -1.08834e+12 -2.05391e+12 -3.43347e+12 -2.17534e+12 -2.75054e+12 -3.82923e+12 -4.0969e+12 -3.30934e+12 -2.87792e+12 -2.96634e+12 -1.76064e+12 -3.03476e+12 -4.00616e+12 -3.42934e+12 -3.69256e+12 -3.43677e+12 -5.08448e+12 -2.05504e+12 -6.65184e+12 -5.56966e+12 -2.34748e+12 -5.36134e+12 -6.33059e+12 -2.03396e+12 -4.26244e+12 -3.12269e+12 -4.4217e+12 -5.1871e+12 -3.87217e+12 -4.39364e+12 -3.36563e+12 -4.46176e+12 -2.9111e+12 -3.68424e+12 -4.59419e+12 -4.44533e+12 -4.24691e+12 -5.61329e+12 -3.56995e+12 -6.31157e+12 -3.05715e+12 -5.59541e+12 -5.73094e+12 -8.76145e+12 -4.75242e+12 -4.7125e+12 -4.34256e+12 -4.31254e+12 -5.75311e+12 -5.51187e+12 -7.25826e+12 -4.73622e+12 -2.06614e+12 -4.23435e+12 -6.02478e+12 -3.56908e+12 -3.14731e+12 -4.30219e+12 -3.91633e+12 -3.83569e+12 -6.16432e+12 -5.56305e+12 -4.25762e+12 -4.21963e+12 -7.43757e+12 -1.18937e+12 -4.9807e+12 -3.76228e+12 -2.20255e+12 -5.35306e+12 -1.32396e+12 -5.17602e+12 -1.65179e+12 -3.94224e+12 -3.89366e+12 -4.4238e+12 -3.42061e+12 -3.40059e+12 -3.19845e+12 -3.72125e+12 -2.91369e+12 -4.21533e+12 -4.17492e+12 -5.50987e+12 -3.56174e+12 -5.84582e+12 -5.00168e+12 -2.82572e+12 -5.81566e+12 -3.95889e+12 -3.65423e+12 -2.75076e+12 -3.37593e+12 -2.72283e+12 -3.84172e+12 -3.57099e+12 -2.83543e+12 -2.68655e+12 -3.67319e+12 -2.01882e+12 -2.97644e+12 -4.7303e+12 -2.34619e+12 -2.21771e+12 -3.00783e+12 -1.65489e+12 -1.61957e+12 -2.78754e+12 -1.58543e+12 -1.35391e+12 -1.89615e+12 -1.90074e+12 -1.41204e+12 -2.6897e+12 -1.73468e+12 -2.06685e+12 -2.44459e+12 -2.83743e+12 -1.83229e+12 -3.13476e+12 -4.48579e+12 -2.06663e+12 -3.33199e+12 -1.4619e+12 -2.12591e+12 -3.18729e+12 -2.4438e+12 -2.42236e+12 -2.61616e+12 -3.76838e+12 -2.11769e+12 -2.38547e+12 -1.53128e+12 -2.16467e+12 -1.92095e+12 -5.46635e+12 -2.64158e+12 -1.12322e+12 -3.65841e+12 -2.94429e+12 -4.55339e+12 -2.82358e+12 -3.46527e+12 -1.36956e+12 -3.66841e+12 -6.07368e+12 -2.17167e+12 -3.5547e+12 -2.94492e+12 -1.4528e+12 -1.69388e+12 -5.94181e+12 -6.34582e+12 -2.02162e+12 -3.62603e+12 -3.11248e+12 -4.77118e+12 -4.58693e+12 -4.26612e+12 -5.22316e+12 -2.02888e+12 -514225000000.0 -4.56438e+12 -3.91883e+12 -4.46865e+12 -3.49669e+12 -5.5684e+12 -5.41455e+12 -7.50107e+12 -4.14365e+12 -4.04581e+12 -4.51103e+12 -4.58048e+12 -5.50706e+12 -6.67518e+12 -2.90407e+12 -2.81833e+12 -5.4655e+12 -4.05411e+12 -3.15072e+12 -5.22333e+12 -4.1468e+12 -7.60826e+12 -5.35673e+12 -6.9457e+12 -3.8239e+12 -4.67224e+12 -3.41643e+12 -5.37491e+12 -4.73077e+12 -3.7934e+12 -6.61728e+12 -4.68876e+12 -4.44251e+12 -5.94771e+12 -4.01361e+12 -5.35746e+12 -3.92109e+12 -4.78942e+12 -5.49487e+12 -3.1962e+12 -2.18254e+12 -5.66337e+12 -4.52236e+12 -5.34448e+12 -4.31732e+12 -3.38934e+12 -4.2326e+12 -3.15638e+12 -2.72825e+12 -3.96869e+12 -2.36191e+12 -1.38841e+12 -2.9382e+12 -5.68671e+12 -2.71563e+12 -2.56145e+12 -4.57151e+12 -4.6576e+12 -6.3076e+12 -3.38026e+12 -2.97205e+12 -2.51604e+12 -1.91993e+12 -2.74167e+12 -2.5437e+12 -2.76213e+12 -5.51248e+12 -3.51559e+12 -3.45991e+12 -2.11212e+12 -1.88632e+12 -3.96204e+12 -2.50028e+12 -3.63032e+12 -1.38916e+12 -2.23159e+12 -2.33019e+12 -1.3218e+12 -2.06948e+12 -3.07927e+12 -1.14371e+12 -1.94639e+12 -1.07472e+12 -1.70286e+12 -1.43915e+12 -1.99474e+12 -2.84475e+12 -926252000000.0 -2.48994e+12 -2.04971e+12 -1.31008e+12 -1.68368e+12 -2.20663e+12 -2.04948e+12 -2.07046e+12 -1.85854e+12 -3.48954e+12 -4.43972e+12 -1.82857e+12 -2.70214e+12 -856626000000.0 -2.14842e+12 -1.90228e+12 -867167000000.0 -1.25392e+12 -1.6682e+12 -2.13204e+12 -636305000000.0 -3.56907e+12 -4.38428e+12 -2.32393e+12 -3.27933e+12 -1.79376e+12 -2.12129e+12 -2.14244e+12 -4.13624e+12 -3.32336e+12 -2.56864e+12 -2.98236e+12 -2.60113e+12 -2.07554e+12 -1.75851e+12 -4.64429e+12 -5.79645e+12 -1.94033e+12 -1.94265e+12 -2.13792e+12 -2.21675e+12 -4.79913e+12 -3.07321e+12 -2.31842e+12 -2.59211e+12 -1.87352e+12 -4.35123e+12 -2.96458e+12 -1.41159e+12 -5.02383e+12 -4.80653e+12 -4.33505e+12 -2.99571e+12 -2.13663e+12 -3.99399e+12 -4.09807e+12 -1.94305e+12 -6.02505e+12 -4.85093e+12 -3.63821e+12 -3.93033e+12 -3.59409e+12 -2.67168e+12 -2.51958e+12 -3.15106e+12 -4.16886e+12 -3.73364e+12 -4.27838e+12 -4.04392e+12 -4.87577e+12 -2.74384e+12 -3.97909e+12 -2.86281e+12 -3.45985e+12 -2.87715e+12 -3.50388e+12 -6.70983e+12 -6.48672e+12 -6.14328e+12 -3.58748e+12 -2.8302e+12 -1.88563e+12 -5.32834e+12 -3.82047e+12 -2.11445e+12 -3.53438e+12 -4.77302e+12 -5.70263e+12 -5.05974e+12 -3.40962e+12 -3.47528e+12 -3.75447e+12 -3.49052e+12 -7.52502e+12 -4.20602e+12 -4.76172e+12 -3.45796e+12 -4.23221e+12 -3.97329e+12 -3.12284e+12 -3.92673e+12 -2.75907e+12 -5.0583e+12 -2.99422e+12 -1.08702e+12 -2.18476e+12 -4.49676e+12 -4.35891e+12 -2.74217e+12 -1.31296e+12 -4.81735e+12 -3.79289e+12 -3.46881e+12 -2.12702e+12 -2.63713e+12 -1.4994e+12 -1.35209e+12 -4.26842e+12 -2.95931e+12 -1.50359e+12 -3.67434e+12 -2.37661e+12 -2.07466e+12 -1.67449e+12 -3.15322e+12 -2.6279e+12 -2.95065e+12 -2.68624e+12 -2.26497e+12 -2.75228e+12 -1.37332e+12 -1.62465e+12 -1.13214e+12 -1.36789e+12 -1.84848e+12 -1.54799e+12 -2.15395e+12 -886436000000.0 -1.33058e+12 -726936000000.0 -723521000000.0 -2.19592e+12 -2.00282e+12 -1.31856e+12 -1.83853e+12 -926377000000.0 -1.16414e+12 -1.56778e+12 -2.89645e+12 -2.39549e+12 -3.14796e+12 -3.68903e+12 -1.57082e+12 -2.38952e+12 -1.95387e+12 -2.65012e+12 -2.06283e+12 -2.3765e+12 -1.93308e+12 -2.53325e+12 -2.43542e+12 -2.0194e+12 -2.63479e+12 -2.75383e+12 -2.8294e+12 -2.05112e+12 -3.54414e+12 -3.74386e+12 -2.84776e+12 -2.67741e+12 -1.70796e+12 -3.59344e+12 -2.69556e+12 -3.0665e+12 -1.64473e+12 -3.47775e+12 -2.04161e+12 -3.06209e+12 -5.16689e+12 -3.28329e+12 -5.45357e+12 -2.08696e+12 -1.97026e+12 -3.72105e+12 -2.24171e+12 -4.63204e+12 -1.93643e+12 -4.23165e+12 -4.82223e+12 -5.10182e+12 -3.21957e+12 -4.3694e+12 -3.76912e+12 -3.72423e+12 -2.31466e+12 -4.51661e+12 -4.16616e+12 -5.19581e+12 -3.85273e+12 -4.70163e+12 -2.14774e+12 -5.5641e+12 -3.65127e+12 -4.40216e+12 -3.3275e+12 -5.05489e+12 -3.1118e+12 -7.51252e+12 -1.7261e+12 -3.05751e+12 -4.39828e+12 -5.15897e+12 -3.99637e+12 -2.72598e+12 -1.04606e+12 -4.14016e+12 -5.08962e+12 -3.06209e+12 -4.07956e+12 -4.09596e+12 -1.2444e+12 -3.96574e+12 -3.51318e+12 -4.33408e+12 -2.39115e+12 -2.97008e+12 -2.41985e+12 -3.30412e+12 -2.99565e+12 -2.44756e+12 -1.55869e+12 -5.07354e+12 -4.70447e+12 -3.47167e+12 -1.37331e+12 -2.38482e+12 -3.28325e+12 -3.80439e+12 -2.38772e+12 -3.45165e+12 -2.95093e+12 -2.67143e+12 -2.15429e+12 -2.04159e+12 -2.34271e+12 -1.82571e+12 -2.45021e+12 -1.86529e+12 -884227000000.0 -2.4948e+12 -2.78746e+12 -1.79778e+12 -1.95147e+12 -1.08183e+12 -2.34565e+12 -929000000000.0 -1.32862e+12 -1.14866e+12 -2.05544e+12 -1.61312e+12 -2.88383e+12 -1.89984e+12 -914853000000.0 -1.53859e+12 -1.88985e+12 -1.77292e+12 -1.98666e+12 -1.38987e+12 -2.05098e+12 -2.04275e+12 -1.66507e+12 -880634000000.0 -1.54994e+12 -1.41891e+12 -2.10465e+12 -1.57039e+12 -1.33626e+12 -1.31361e+12 -1.58312e+12 -1.8661e+12 -3.10566e+12 -2.4036e+12 -1.38086e+12 -1.02407e+12 -1.45433e+12 -2.19227e+12 -2.75745e+12 -3.71812e+12 -2.44021e+12 -4.31875e+12 -1.82941e+12 -3.54081e+12 -3.30924e+12 -2.76891e+12 -1.74341e+12 -1.9511e+12 -2.60905e+12 -1.81135e+12 -3.54367e+12 -2.71349e+12 -2.70756e+12 -3.97005e+12 -2.45251e+12 -2.09211e+12 -4.93865e+12 -3.25118e+12 -1.87925e+12 -1.25472e+12 -2.85414e+12 -3.64523e+12 -4.78751e+12 -1.7079e+12 -2.97987e+12 -3.87291e+12 -2.1444e+12 -3.69792e+12 -2.04594e+12 -2.06591e+12 -4.45697e+12 -3.04049e+12 -3.78916e+12 -6.14917e+12 -3.9e+12 -2.65865e+12 -3.46253e+12 -2.30147e+12 -5.08892e+12 -3.26154e+12 -4.68144e+12 -1.70074e+12 -1.9509e+12 -4.87777e+12 -3.44858e+12 -2.71647e+12 -3.5886e+12 -4.24262e+12 -1.98496e+12 -3.60883e+12 -2.73962e+12 -2.03891e+12 -4.3804e+12 -3.56953e+12 -2.27291e+12 -3.10303e+12 -1.80219e+12 -3.63455e+12 -4.74094e+12 -2.00851e+12 -1.54793e+12 -3.32027e+12 -3.65139e+12 -2.03833e+12 -672037000000.0 -1.75382e+12 -3.51927e+12 -2.65656e+12 -2.19785e+12 -2.60753e+12 -1.24252e+12 -1.5458e+12 -2.16975e+12 -1.02827e+12 -2.40643e+12 -2.37785e+12 -1.08658e+12 -2.31357e+12 -1.23426e+12 -3.13136e+12 -958415000000.0 -1.27166e+12 -2.01704e+12 -2.28472e+12 -1.55639e+12 -2.10273e+12 -1.56748e+12 -785786000000.0 -1.90091e+12 -1.30441e+12 -1.77091e+12 -821068000000.0 -2.17962e+12 -378082000000.0 -2.032e+12 -1.07636e+12 -2.75289e+12 -1.12199e+12 -1.58993e+12 -1.63674e+12 -817321000000.0 -1.69352e+12 -1.29661e+12 -2.65912e+12 -2.04345e+12 -1.51541e+12 -1.06357e+12 -1.81467e+12 -465654000000.0 -2.04701e+12 -569108000000.0 -527560000000.0 -1.23975e+12 -1.11592e+12 -1.3156e+12 -642428000000.0 -2.43777e+12 -1.40135e+12 -1.95068e+12 -1.9708e+12 -2.25181e+12 -2.14591e+12 -324596000000.0 -1.51204e+12 -3.24382e+12 -3.72193e+12 -2.35289e+12 -2.41069e+12 -898721000000.0 -2.48989e+12 -1.52981e+12 -2.7026e+12 -1.73047e+12 -1.99411e+12 -2.58821e+12 -2.65028e+12 -1.98365e+12 -1.18196e+12 -4.11901e+12 -3.41806e+12 -2.46329e+12 -2.49119e+12 -2.49835e+12 -2.06381e+12 -3.65597e+12 -3.50619e+12 -1.62066e+12 -3.00096e+12 -955956000000.0 -2.09539e+12 -2.6371e+12 -2.34173e+12 -5.23565e+12 -2.3006e+12 -4.55033e+12 -4.55495e+12 -3.84486e+12 -2.8143e+12 -967803000000.0 -3.30684e+12 -1.52357e+12 -2.65387e+12 -3.50476e+12 -1.644e+12 -1.44226e+12 -2.82925e+12 -1.50754e+12 -2.38006e+12 -1.65948e+12 -2.44102e+12 -3.67626e+12 -2.40604e+12 -1.80121e+12 -2.65058e+12 -3.1477e+12 -2.09272e+12 -2.544e+12 -2.29387e+12 -1.11958e+12 -1.3485e+12 -2.04141e+12 -464743000000.0 -1.67226e+12 -2.11589e+12 -2.24519e+12 -1.87069e+12 -1.63522e+12 -2.0457e+12 -2.46414e+12 -1.57756e+12 -1.51862e+12 -2.0134e+12 -2.92485e+12 -1.92289e+12 -1.55878e+12 -1.10813e+12 -1.38985e+12 -1.5792e+12 -1.34178e+12 -1.57674e+12 -1.12399e+12 -1.52288e+12 -1.55965e+12 -724023000000.0 -1.12374e+12 -740139000000.0 -1.67943e+12 -1.71973e+12 -889849000000.0 -458133000000.0 -1.22179e+12 -503481000000.0 -1.26278e+12 -2.04807e+12 -921730000000.0 -971426000000.0 -1.71629e+12 -169285000000.0 -1.49821e+12 -1.95476e+12 -1.26338e+12 -1.16705e+12 -767333000000.0 -948864000000.0 -402337000000.0 -830170000000.0 -812696000000.0 -879136000000.0 -1.89826e+12 -2.02131e+12 -1.73858e+12 -855140000000.0 -640037000000.0 -1.75946e+12 -1.3518e+12 -2.1548e+12 -1.49339e+12 -855202000000.0 -1.24903e+12 -1.67593e+12 -1.39029e+12 -2.65979e+12 -1.9966e+12 -1.79195e+12 -1.40514e+12 -1.20879e+12 -2.3872e+12 -3.48408e+12 -1.58176e+12 -452552000000.0 -771398000000.0 -1.50258e+12 -1.04699e+12 -1.10937e+12 -1.72479e+12 -1.58836e+12 -3.51284e+12 -1.85597e+12 -686468000000.0 -2.09118e+12 -444424000000.0 -3.13208e+12 -3.19467e+12 -1.82607e+12 -1.47566e+12 -3.45544e+12 -1.36273e+12 -2.98846e+12 -3.58578e+12 -1.86354e+12 -2.48213e+12 -904340000000.0 -1.6395e+12 -3.44271e+12 -2.50792e+12 -2.21788e+12 -2.24102e+12 -1.11807e+12 -3.69155e+12 -1.52681e+12 -1.82357e+12 -1.43621e+12 -2.95865e+12 -1.74851e+12 -4.73285e+12 -2.07853e+12 -1.99128e+12 -1.99134e+12 -1.7213e+12 -2.02423e+12 -2.8348e+12 -2.4659e+12 -1.9696e+12 -524401000000.0 -2.01414e+12 -1.74035e+12 -956185000000.0 -3.39734e+12 -1.43939e+12 -1.70996e+12 -844725000000.0 -367058000000.0 -782593000000.0 -2.83117e+12 -1.90039e+12 -1.21284e+12 -2.17768e+12 -2.51529e+12 -1.91822e+12 -1.51991e+12 -1.90974e+12 -1.6853e+12 -2.20451e+12 -2.72396e+12 -1.58573e+12 -1.19295e+12 -1.93252e+12 -2.37176e+12 -1.05508e+12 -2.63027e+12 -184846000000.0 -927379000000.0 -1.1938e+12 -1.50406e+12 -595282000000.0 -1.35823e+12 -1.24198e+12 -1.33754e+12 -464845000000.0 -847548000000.0 -1.07969e+12 -548464000000.0 -940565000000.0 -488066000000.0 -287306000000.0 -924655000000.0 -778946000000.0 -693660000000.0 -199928000000.0 -361089000000.0 -205799000000.0 -1.08429e+12 -529343000000.0 -646791000000.0 -815194000000.0 -240038000000.0 -465689000000.0 -539139000000.0 -670841000000.0 -494710000000.0 -858483000000.0 -857011000000.0 -345426000000.0 -760397000000.0 -577451000000.0 -1.12177e+12 -418456000000.0 -1.40215e+12 -1.12153e+12 -1.54455e+12 -719753000000.0 -440970000000.0 -826280000000.0 -1.08137e+12 -1.25434e+12 -776630000000.0 -1.44253e+12 -2.42535e+12 -2.10798e+12 -1.32123e+12 -1.61077e+12 -1.85799e+12 -1.24426e+12 -1.50759e+12 -1.08752e+12 -1.07306e+12 -1.14558e+12 -1.12712e+12 -1.9111e+12 -2.50908e+12 -3.01743e+12 -1.2879e+12 -1.29616e+12 -2.70484e+12 -1.26763e+12 -2.26633e+12 -2.07076e+12 -2.22415e+12 -2.47055e+12 -1.13654e+12 -1.89755e+12 -1.09746e+12 -2.59979e+12 -2.64189e+12 -2.03737e+12 -1.52547e+12 -2.44515e+12 -3.78301e+12 -2.48704e+12 -507659000000.0 -1.88719e+12 -651416000000.0 -2.78909e+12 -2.00831e+12 -2.75686e+12 -1.20229e+12 -1.6014e+12 -1.59585e+12 -1.52106e+12 -607160000000.0 -1.5837e+12 -925615000000.0 -1.93703e+12 -1.92064e+12 -1.06302e+12 -1.0639e+12 -1.61286e+12 -1.27994e+12 -1.42262e+12 -1.21744e+12 -1.48601e+12 -880081000000.0 -2.20749e+12 -1.51946e+12 -2.11739e+12 -815821000000.0 -1.29081e+12 -2.12671e+12 -1.7827e+12 -707206000000.0 -1.29738e+12 -1.25331e+12 -1.00562e+12 -1.93719e+12 -2.25364e+12 -795729000000.0 -870505000000.0 -379891000000.0 -1.0878e+12 -1.46711e+12 -527054000000.0 -717559000000.0 -1.05919e+12 -648746000000.0 -726041000000.0 -210178000000.0 -517495000000.0 -379398000000.0 -309880000000.0 -237506000000.0 -298949000000.0 -405572000000.0 -296706000000.0 -471069000000.0 -261821000000.0 -466494000000.0 -591378000000.0 -640936000000.0 -721751000000.0 -391046000000.0 -511338000000.0 -416965000000.0 -191704000000.0 -238610000000.0 -91672500000.0 -682602000000.0 -985258000000.0 -209404000000.0 -680461000000.0 -299062000000.0 -342763000000.0 -1.22857e+12 -383286000000.0 -601915000000.0 -924224000000.0 -636317000000.0 -733734000000.0 -1.5115e+12 -937748000000.0 -1.50051e+12 -911660000000.0 -493674000000.0 -956752000000.0 -600015000000.0 -890893000000.0 -341425000000.0 -712749000000.0 -981965000000.0 -1.10067e+12 -1.05019e+12 -1.19844e+12 -1.38358e+12 -2.9887e+12 -2.15682e+12 -1.44056e+12 -1.30697e+12 -2.71777e+12 -1.2851e+12 -1.3662e+12 -1.44398e+12 -1.68678e+12 -933749000000.0 -1.04893e+12 -1.77474e+12 -2.11671e+12 -1.80444e+12 -1.98876e+12 -1.55335e+12 -1.1567e+12 -1.57432e+12 -1.39656e+12 -1.2868e+12 -1.52489e+12 -674522000000.0 -1.32333e+12 -939611000000.0 -2.20604e+12 -279304000000.0 -977385000000.0 -1.00978e+12 -1.3775e+12 -476458000000.0 -1.12756e+12 -752209000000.0 -2.11283e+12 -859644000000.0 -1.6601e+12 -1.09466e+12 -1.39085e+12 -1.56116e+12 -1.0484e+12 -1.17915e+12 -615556000000.0 -960626000000.0 -776570000000.0 -1.2864e+12 -1.92889e+12 -1.0547e+12 -1.82991e+12 -666192000000.0 -1.04062e+12 -601438000000.0 -1.19305e+12 -119491000000.0 -359918000000.0 -695864000000.0 -404433000000.0 -1.94276e+12 -1.00088e+12 -801265000000.0 -871776000000.0 -411666000000.0 -623315000000.0 -449602000000.0 -421947000000.0 -312606000000.0 -416882000000.0 -453413000000.0 -281472000000.0 -216211000000.0 -592826000000.0 -242265000000.0 -640540000000.0 -253473000000.0 -363159000000.0 -270600000000.0 -131900000000.0 -107065000000.0 -69747700000.0 -53205300000.0 -117302000000.0 -93581500000.0 -146007000000.0 -76193900000.0 -148613000000.0 -199292000000.0 -424402000000.0 -209754000000.0 -500019000000.0 -189877000000.0 -225239000000.0 -401030000000.0 -690382000000.0 -224606000000.0 -233863000000.0 -488082000000.0 -337702000000.0 -289621000000.0 -752313000000.0 -273564000000.0 -407508000000.0 -978241000000.0 -353304000000.0 -590285000000.0 -1.01671e+12 -1.42096e+12 -1.12006e+12 -746412000000.0 -620260000000.0 -1.30684e+12 -867106000000.0 -434173000000.0 -677514000000.0 -945293000000.0 -194685000000.0 -975129000000.0 -1.17383e+12 -907547000000.0 -1.16044e+12 -1.0707e+12 -1.28986e+12 -931182000000.0 -1.58512e+12 -1.40482e+12 -1.97471e+12 -1.52811e+12 -1.67309e+12 -1.47903e+12 -596899000000.0 -1.01602e+12 -1.46837e+12 -1.27506e+12 -826446000000.0 -764834000000.0 -1.56954e+12 -709250000000.0 -889626000000.0 -467110000000.0 -584651000000.0 -173676000000.0 -425026000000.0 -979648000000.0 -1.33478e+12 -776825000000.0 -784926000000.0 -630561000000.0 -402970000000.0 -608592000000.0 -365272000000.0 -643688000000.0 -686633000000.0 -788988000000.0 -709988000000.0 -610414000000.0 -697111000000.0 -686761000000.0 -361937000000.0 -668301000000.0 -795831000000.0 -674060000000.0 -754848000000.0 -819017000000.0 -877582000000.0 -645451000000.0 -614251000000.0 -413692000000.0 -407692000000.0 -409948000000.0 -124264000000.0 -305113000000.0 -582372000000.0 -91701900000.0 -215856000000.0 -273671000000.0 -326178000000.0 -203135000000.0 -260790000000.0 -131602000000.0 -135345000000.0 -192156000000.0 -58287200000.0 -109993000000.0 -149214000000.0 -109390000000.0 -125410000000.0 -186855000000.0 -75874700000.0 -404460000000.0 -62498800000.0 -498441000000.0 -273984000000.0 -249448000000.0 -292466000000.0 -290200000000.0 -184859000000.0 -260319000000.0 -224178000000.0 -267327000000.0 -234619000000.0 -428203000000.0 -640175000000.0 -146053000000.0 -620675000000.0 -1.14698e+12 -76053200000.0 -683556000000.0 -191086000000.0 -421684000000.0 -580606000000.0 -327008000000.0 -686977000000.0 -558993000000.0 -823304000000.0 -437708000000.0 -842625000000.0 -644413000000.0 -693315000000.0 -492789000000.0 -515957000000.0 -326834000000.0 -951966000000.0 -227698000000.0 -557430000000.0 -864708000000.0 -490024000000.0 -427319000000.0 -664819000000.0 -446091000000.0 -120038000000.0 -54094800000.0 -277295000000.0 -293287000000.0 -329855000000.0 -183878000000.0 -211207000000.0 -171182000000.0 -231292000000.0 -59769000000.0 -281003000000.0 -129173000000.0 -137184000000.0 -179517000000.0 -197637000000.0 -124709000000.0 -261977000000.0 -48849700000.0 -101002000000.0 -297907000000.0 -297124000000.0 -149596000000.0 -163018000000.0 -193707000000.0 -173514000000.0 -106370000000.0 -97597400000.0 -212959000000.0 -127650000000.0 -113444000000.0 -90019200000.0 -117268000000.0 -43891100000.0 -80814200000.0 -214794000000.0 -220172000000.0 -138008000000.0 -85622100000.0 -275586000000.0 -183546000000.0 -183436000000.0 -163949000000.0 -273492000000.0 -388986000000.0 -233077000000.0 -254117000000.0 -786665000000.0 -134394000000.0 -501258000000.0 -207061000000.0 -308741000000.0 -252565000000.0 -350965000000.0 -666296000000.0 -603384000000.0 -139356000000.0 -134207000000.0 -92659200000.0 -140535000000.0 -99648100000.0 