# vtk DataFile Version 2.0
Time step 90
ASCII
DATASET UNSTRUCTURED_GRID
POINTS 4650 float
247425.0 291897.0 0
294575.0 291400.0 0
205458.0 294421.0 0
208926.0 292451.0 0
212363.0 294475.0 0
215693.0 292310.0 0
219389.0 293769.0 0
237054.0 294188.0 0
244005.0 293963.0 0
250936.0 293805.0 0
257884.0 293712.0 0
264645.0 293426.0 0
276909.0 293562.0 0
284261.0 293414.0 0
291132.0 293394.0 0
298003.0 293419.0 0
201999.0 296400.0 0
208908.0 296439.0 0
215821.0 296464.0 0
223153.0 295045.0 0
226772.0 296687.0 0
233670.0 296317.0 0
240596.0 296043.0 0
247516.0 295873.0 0
254433.0 295729.0 0
261359.0 295685.0 0
266663.0 296862.0 0
273335.0 295671.0 0
280832.0 295445.0 0
287716.0 295401.0 0
294574.0 295400.0 0
205449.0 298401.0 0
212367.0 298449.0 0
219585.0 297741.0 0
223347.0 299019.0 0
230316.0 298483.0 0
237215.0 298161.0 0
244113.0 297938.0 0
251011.0 297782.0 0
254481.0 299708.0 0
257904.0 297688.0 0
261349.0 299651.0 0
270158.0 298768.0 0
274048.0 299585.0 0
277431.0 297506.0 0
280931.0 299429.0 0
284311.0 297407.0 0
287764.0 299387.0 0
291161.0 297390.0 0
294591.0 299387.0 0
298003.0 297407.0 0
201998.0 300376.0 0
205437.0 302358.0 0
208898.0 300401.0 0
212341.0 302402.0 0
215827.0 300451.0 0
219620.0 301694.0 0
226964.0 300659.0 0
233857.0 300292.0 0
237396.0 302121.0 0
240739.0 300019.0 0
244232.0 301903.0 0
247607.0 299838.0 0
251075.0 301746.0 0
257933.0 301656.0 0
265180.0 300552.0 0
268632.0 302441.0 0
277581.0 301467.0 0
284389.0 301391.0 0
291196.0 301373.0 0
298005.0 301386.0 0
201996.0 304331.0 0
208863.0 304346.0 0
215760.0 304419.0 0
223398.0 302976.0 0
227035.0 304609.0 0
230512.0 302450.0 0
234087.0 304234.0 0
240891.0 303983.0 0
247696.0 303797.0 0
254517.0 303666.0 0
261385.0 303607.0 0
265225.0 304528.0 0
274277.0 303515.0 0
281042.0 303408.0 0
287821.0 303367.0 0
294609.0 303364.0 0
205414.0 306302.0 0
212261.0 306343.0 0
219537.0 305625.0 0
223284.0 306909.0 0
230839.0 306363.0 0
237587.0 306080.0 0
244350.0 305863.0 0
251134.0 305700.0 0
257936.0 305595.0 0
261307.0 307539.0 0
267753.0 307532.0 0
271018.0 305544.0 0
274437.0 307476.0 0
277727.0 305439.0 0
281144.0 307386.0 0
284470.0 305371.0 0
287876.0 307342.0 0
291232.0 305349.0 0
294627.0 307334.0 0
298006.0 305358.0 0
201994.0 308275.0 0
205383.0 310241.0 0
208803.0 308285.0 0
212149.0 310287.0 0
215615.0 308359.0 0
219325.0 309530.0 0
227650.0 308480.0 0
234332.0 308191.0 0
237771.0 310046.0 0
241040.0 307945.0 0
244462.0 309818.0 0
247782.0 307750.0 0
251190.0 309645.0 0
254546.0 307612.0 0
257922.0 309543.0 0
264547.0 309569.0 0
271152.0 309493.0 0
277838.0 309411.0 0
284540.0 309345.0 0
291266.0 309317.0 0
298008.0 309321.0 0
201992.0 312211.0 0
208736.0 312230.0 0
215453.0 312281.0 0
221493.0 312681.0 0
224537.0 310594.0 0
227970.0 312434.0 0
231126.0 310313.0 0
234544.0 312163.0 0
241177.0 311907.0 0
247863.0 311695.0 0
254573.0 311555.0 0
261243.0 311518.0 0
267890.0 311504.0 0
274541.0 311432.0 0
281222.0 311356.0 0
287922.0 311309.0 0
294643.0 311294.0 0
205349.0 314177.0 0
212046.0 314249.0 0
218411.0 314630.0 0
224850.0 314547.0 0
231356.0 314288.0 0
237928.0 314017.0 0
244563.0 313767.0 0
251245.0 313580.0 0
257927.0 313493.0 0
264593.0 313494.0 0
267954.0 315434.0 0
271252.0 313444.0 0
274614.0 315380.0 0
277915.0 313371.0 0
281277.0 315314.0 0
284594.0 313309.0 0
287957.0 315265.0 0
291293.0 313276.0 0
294655.0 315244.0 0
298009.0 313273.0 0
201990.0 316139.0 0
208667.0 316174.0 0
215188.0 316431.0 0
221699.0 316598.0 0
228195.0 316408.0 0
234715.0 316141.0 0
238056.0 317984.0 0
241294.0 315864.0 0
244650.0 317700.0 0
247937.0 315626.0 0
251303.0 317495.0 0
254612.0 315484.0 0
257974.0 317408.0 0
261283.0 315447.0 0
264645.0 317401.0 0
271310.0 317374.0 0
277967.0 317319.0 0
284631.0 317260.0 0
291313.0 317221.0 0
298010.0 317213.0 0
201988.0 320055.0 0
205319.0 318109.0 0
208612.0 320124.0 0
211910.0 318244.0 0
215197.0 320342.0 0
218468.0 318516.0 0
221801.0 320488.0 0
225023.0 318491.0 0
228344.0 320371.0 0
231527.0 318268.0 0
234847.0 320117.0 0
241389.0 319808.0 0
248005.0 319533.0 0
254666.0 319382.0 0
261335.0 319346.0 0
268002.0 319345.0 0
274658.0 319314.0 0
281312.0 319258.0 0
287979.0 319206.0 0
294663.0 319178.0 0
205302.0 322028.0 0
211914.0 322168.0 0
218537.0 322382.0 0
225137.0 322415.0 0
231655.0 322240.0 0
238158.0 321943.0 0
244723.0 321611.0 0
251362.0 321377.0 0
258026.0 321292.0 0
264690.0 321293.0 0
268032.0 323244.0 0
271347.0 321291.0 0
274680.0 323234.0 0
277996.0 321252.0 0
281330.0 323187.0 0
284653.0 321196.0 0
287991.0 323131.0 0
291324.0 321151.0 0
294668.0 323096.0 0
298011.0 321136.0 0
201987.0 323951.0 0
208617.0 324028.0 0
215252.0 324214.0 0
221895.0 324368.0 0
228460.0 324322.0 0
234955.0 324086.0 0
241468.0 323736.0 0
244787.0 325490.0 0
248067.0 323407.0 0
251415.0 325223.0 0
254718.0 323247.0 0
258063.0 325149.0 0
261377.0 323223.0 0
264713.0 325170.0 0
271360.0 325196.0 0
278007.0 325171.0 0
284662.0 325115.0 0
291330.0 325063.0 0
298011.0 325041.0 0
201986.0 327812.0 0
205307.0 325911.0 0
208641.0 327886.0 0
211953.0 326040.0 0
215316.0 328052.0 0
218618.0 326233.0 0
221993.0 328235.0 0
225244.0 326331.0 0
228576.0 328269.0 0
231767.0 326206.0 0
235064.0 328052.0 0
238248.0 325893.0 0
241543.0 327644.0 0
248122.0 327239.0 0
254754.0 327081.0 0
261389.0 327079.0 0
268034.0 327130.0 0
274680.0 327141.0 0
281334.0 327098.0 0
287996.0 327038.0 0
294671.0 326993.0 0
205317.0 329753.0 0
211994.0 329868.0 0
218698.0 330058.0 0
225358.0 330244.0 0
231895.0 330171.0 0
238353.0 329839.0 0
244851.0 329331.0 0
251454.0 329033.0 0
254749.0 330894.0 0
258063.0 328983.0 0
261340.0 330915.0 0
264695.0 329031.0 0
267990.0 331002.0 0
271344.0 329088.0 0
274659.0 331031.0 0
278002.0 329073.0 0
281333.0 330991.0 0
284665.0 329016.0 0
288000.0 330925.0 0
291333.0 328955.0 0
294672.0 330871.0 0
298012.0 328926.0 0
201986.0 331639.0 0
205325.0 333558.0 0
208662.0 331702.0 0
212022.0 333656.0 0
215368.0 331852.0 0
222090.0 332076.0 0
228707.0 332213.0 0
235213.0 332022.0 0
241640.0 331540.0 0
244938.0 333126.0 0
248175.0 331025.0 0
251469.0 332819.0 0
257980.0 332805.0 0
264602.0 332864.0 0
271292.0 332962.0 0
277994.0 332953.0 0
284671.0 332898.0 0
291338.0 332828.0 0
298013.0 332789.0 0
201986.0 335432.0 0
208673.0 335482.0 0
215395.0 335613.0 0
218756.0 333843.0 0
222150.0 335867.0 0
225470.0 334157.0 0
228849.0 336138.0 0
232068.0 334130.0 0
235466.0 335995.0 0
238528.0 333797.0 0
241830.0 335445.0 0
248233.0 334769.0 0
254664.0 334714.0 0
261161.0 334724.0 0
267875.0 334847.0 0
274635.0 334892.0 0
281342.0 334863.0 0
288011.0 334795.0 0
294676.0 334727.0 0
205326.0 337331.0 0
212030.0 337408.0 0
218778.0 337583.0 0
225591.0 338076.0 0
232263.0 338047.0 0
238929.0 337802.0 0
245107.0 336874.0 0
251383.0 336620.0 0
254450.0 338548.0 0
257791.0 336635.0 0
260885.0 338545.0 0
264301.0 336630.0 0
267327.0 338555.0 0
271235.0 336791.0 0
274644.0 338717.0 0
278004.0 336808.0 0
281383.0 338717.0 0
284693.0 336764.0 0
288038.0 338654.0 0
291348.0 336682.0 0
294683.0 338564.0 0
298013.0 336632.0 0
201985.0 339200.0 0
205317.0 341081.0 0
208668.0 339232.0 0
212012.0 341131.0 0
215395.0 339337.0 0
218771.0 341277.0 0
222169.0 339588.0 0
228999.0 340038.0 0
235730.0 339895.0 0
242694.0 339516.0 0
247203.0 342015.0 0
248111.0 338530.0 0
251072.0 340411.0 0
257517.0 340469.0 0
263928.0 340456.0 0
270299.0 340403.0 0
278070.0 340638.0 0
284750.0 340622.0 0
291371.0 340525.0 0
298014.0 340454.0 0
201984.0 342948.0 0
208641.0 342961.0 0
215361.0 343026.0 0
222171.0 343241.0 0
225723.0 342000.0 0
229143.0 343914.0 0
232449.0 341916.0 0
236740.0 343581.0 0
239733.0 341574.0 0
243611.0 343314.0 0
250575.0 344031.0 0
254123.0 342345.0 0
260579.0 342384.0 0
266939.0 342357.0 0
269957.0 344181.0 0
273261.0 342160.0 0
276244.0 343845.0 0
281483.0 342563.0 0
288093.0 342515.0 0
294697.0 342384.0 0
298016.0 344258.0 0
201983.0 346686.0 0
205301.0 344819.0 0
208605.0 346685.0 0
211955.0 344829.0 0
215254.0 346674.0 0
218729.0 344919.0 0
225843.0 345923.0 0
233669.0 345512.0 0
240388.0 345337.0 0
247174.0 345701.0 0
253816.0 346067.0 0
257225.0 344278.0 0
260316.0 346219.0 0
263622.0 344298.0 0
266661.0 346179.0 0
273011.0 345924.0 0
279261.0 345495.0 0
284860.0 344491.0 0
288190.0 346401.0 0
291412.0 344366.0 0
294722.0 346191.0 0
205288.0 348554.0 0
211893.0 348533.0 0
218516.0 348484.0 0
222133.0 346833.0 0
230576.0 347433.0 0
237198.0 347325.0 0
240629.0 349176.0 0
243824.0 347251.0 0
247151.0 349455.0 0
250464.0 347785.0 0
256998.0 348071.0 0
263390.0 348143.0 0
269732.0 347950.0 0
276107.0 347618.0 0
279228.0 349305.0 0
282312.0 347145.0 0
285385.0 348815.0 0
291485.0 348217.0 0
298018.0 348044.0 0
201982.0 350412.0 0
208582.0 350413.0 0
215165.0 350354.0 0
221642.0 350283.0 0
227517.0 349398.0 0
230978.0 351231.0 0
234056.0 349276.0 0
237477.0 351120.0 0
243952.0 351158.0 0
250441.0 351571.0 0
253705.0 349853.0 0
256893.0 351900.0 0
260133.0 350056.0 0
263235.0 352001.0 0
266460.0 350009.0 0
269577.0 351675.0 0
272864.0 349647.0 0
276040.0 351340.0 0
282347.0 351009.0 0
288484.0 350486.0 0
291623.0 352113.0 0
294765.0 349991.0 0
298022.0 351821.0 0
201983.0 354121.0 0
205287.0 352287.0 0
208594.0 354139.0 0
211872.0 352247.0 0
215173.0 354049.0 0
218407.0 352167.0 0
221724.0 353899.0 0
224802.0 351719.0 0
228069.0 353320.0 0
234377.0 353070.0 0
240815.0 353025.0 0
247238.0 353275.0 0
253674.0 353673.0 0
260035.0 353923.0 0
266323.0 353867.0 0
272787.0 353308.0 0
279211.0 353071.0 0
285447.0 352727.0 0
288523.0 354431.0 0
294819.0 353793.0 0
205310.0 356014.0 0
211926.0 355949.0 0
218541.0 355808.0 0
225072.0 355473.0 0
231373.0 355079.0 0
234665.0 356894.0 0
237712.0 354936.0 0
240992.0 356858.0 0
244096.0 355022.0 0
247341.0 357107.0 0
250490.0 355395.0 0
256851.0 355762.0 0
263142.0 355894.0 0
269502.0 355312.0 0
272776.0 356909.0 0
276008.0 355021.0 0
279157.0 356820.0 0
282338.0 354841.0 0
285422.0 356623.0 0
291642.0 355931.0 0
298026.0 355588.0 0
201985.0 357802.0 0
205353.0 359733.0 0
208659.0 357848.0 0
212087.0 359601.0 0
215331.0 357686.0 0
218860.0 359384.0 0
221979.0 357508.0 0
225367.0 359183.0 0
228383.0 357138.0 0
231659.0 358899.0 0
237924.0 358754.0 0
244229.0 358854.0 0
250543.0 359234.0 0
253689.0 357526.0 0
256830.0 359661.0 0
259974.0 357825.0 0
263052.0 359826.0 0
266220.0 357797.0 0
269527.0 358793.0 0
275942.0 358699.0 0
282231.0 358664.0 0
288503.0 358369.0 0
291727.0 359612.0 0
294870.0 357545.0 0
298032.0 359352.0 0
201990.0 361437.0 0
208764.0 361513.0 0
215758.0 361207.0 0
222332.0 361128.0 0
228676.0 360919.0 0
234897.0 360708.0 0
241149.0 360669.0 0
247424.0 360931.0 0
253676.0 361399.0 0
259922.0 361779.0 0
266039.0 361825.0 0
269433.0 362144.0 0
272720.0 360500.0 0
275705.0 362405.0 0
278988.0 360580.0 0
281991.0 362479.0 0
285284.0 360486.0 0
294983.0 361290.0 0
201989.0 364946.0 0
205435.0 363462.0 0
209751.0 364928.0 0
212737.0 363067.0 0
216325.0 364741.0 0
219307.0 362954.0 0
222758.0 364777.0 0
225710.0 362901.0 0
228985.0 364712.0 0
231917.0 362708.0 0
235111.0 364516.0 0
238105.0 362555.0 0
241291.0 364453.0 0
244337.0 362659.0 0
247467.0 364743.0 0
250552.0 363079.0 0
256720.0 363579.0 0
262973.0 363902.0 0
272349.0 364115.0 0
278656.0 364332.0 0
285025.0 364291.0 0
288361.0 362270.0 0
291952.0 363159.0 0
294927.0 365130.0 0
298032.0 363159.0 0
201963.0 368326.0 0
206863.0 366894.0 0
213388.0 366550.0 0
219818.0 366541.0 0
226093.0 366654.0 0
232182.0 366533.0 0
238291.0 366336.0 0
244442.0 366440.0 0
250468.0 366943.0 0
253558.0 365304.0 0
256393.0 367547.0 0
259685.0 365726.0 0
265520.0 366584.0 0
268804.0 365467.0 0
275252.0 366074.0 0
281593.0 366266.0 0
286707.0 367252.0 0
289676.0 365680.0 0
298040.0 366946.0 0
204856.0 369670.0 0
210557.0 368418.0 0
216898.0 368281.0 0
223211.0 368458.0 0
229313.0 368544.0 0
235354.0 368324.0 0
241476.0 368207.0 0
247499.0 368568.0 0
253092.0 369372.0 0
259194.0 369809.0 0
262360.0 368166.0 0
265185.0 370492.0 0
268407.0 369086.0 0
271785.0 367656.0 0
274686.0 369726.0 0
278115.0 368037.0 0
280651.0 370240.0 0
283788.0 368824.0 0
289402.0 369455.0 0
292421.0 367707.0 0
200813.0 376271.0 0
201968.0 372086.0 0
205631.0 373102.0 0
208139.0 370625.0 0
211512.0 372088.0 0
214072.0 370094.0 0
217454.0 371853.0 0
220312.0 370132.0 0
223621.0 372154.0 0
226477.0 370458.0 0
229625.0 372423.0 0
232478.0 370382.0 0
235711.0 372104.0 0
238569.0 370085.0 0
241880.0 371903.0 0
244641.0 370205.0 0
246533.0 373213.0 0
249808.0 371276.0 0
256006.0 371508.0 0
262020.0 372091.0 0
268040.0 372838.0 0
271318.0 371316.0 0
277413.0 371847.0 0
283274.0 372577.0 0
286432.0 371096.0 0
292125.0 371461.0 0
295300.0 369014.0 0
298048.0 370946.0 0
198585.0 378161.0 0
203596.0 375516.0 0
209101.0 374269.0 0
214800.0 373764.0 0
220745.0 373717.0 0
226748.0 374322.0 0
232823.0 374205.0 0
239182.0 373712.0 0
243294.0 375165.0 0
249645.0 375143.0 0
252822.0 373296.0 0
255731.0 375455.0 0
258866.0 373744.0 0
264852.0 374375.0 0
270881.0 375074.0 0
274136.0 373477.0 0
276880.0 375654.0 0
280085.0 374064.0 0
286007.0 374811.0 0
289178.0 373295.0 0
291936.0 375444.0 0
294967.0 372583.0 0
295106.0 375762.0 0
298048.0 374475.0 0
193296.0 381478.0 0
196073.0 379732.0 0
199450.0 381018.0 0
201880.0 378492.0 0
206872.0 376663.0 0
212363.0 375838.0 0
215584.0 377516.0 0
218031.0 375505.0 0
221217.0 377326.0 0
223880.0 375864.0 0
226395.0 378309.0 0
229731.0 376311.0 0
231191.0 379483.0 0
233799.0 377602.0 0
236501.0 375664.0 0
240162.0 377143.0 0
246493.0 377029.0 0
252612.0 377227.0 0
258589.0 377675.0 0
261707.0 376000.0 0
264532.0 378257.0 0
267680.0 376654.0 0
273672.0 377270.0 0
279604.0 377855.0 0
282798.0 376309.0 0
288733.0 377010.0 0
294129.0 378734.0 0
297470.0 378129.0 0
300366.0 377499.0 0
303233.0 379306.0 0
306059.0 381074.0 0
190551.0 383191.0 0
193749.0 384658.0 0
196551.0 382606.0 0
202515.0 381778.0 0
204842.0 379191.0 0
207866.0 380413.0 0
210080.0 378052.0 0
213228.0 379624.0 0
218876.0 379203.0 0
223034.0 380347.0 0
228493.0 381107.0 0
234426.0 381232.0 0
237250.0 379212.0 0
240440.0 380945.0 0
243405.0 378950.0 0
246455.0 380919.0 0
249514.0 379050.0 0
255495.0 379399.0 0
261420.0 379911.0 0
267342.0 380503.0 0
270488.0 378884.0 0
276427.0 379459.0 0
282330.0 380055.0 0
285525.0 378512.0 0
288113.0 380785.0 0
291150.0 379359.0 0
296792.0 381318.0 0
300094.0 380628.0 0
302886.0 382485.0 0
305739.0 384230.0 0
308917.0 382857.0 0
184788.0 386785.0 0
187658.0 384987.0 0
190593.0 386258.0 0
196990.0 385488.0 0
199861.0 384123.0 0
205453.0 382838.0 0
210885.0 381844.0 0
216453.0 381227.0 0
219996.0 382550.0 0
225684.0 382640.0 0
231555.0 383129.0 0
237532.0 382988.0 0
243464.0 382851.0 0
249382.0 382992.0 0
252424.0 381171.0 0
255273.0 383346.0 0
258335.0 381608.0 0
264232.0 382146.0 0
270135.0 382721.0 0
273267.0 381085.0 0
276023.0 383272.0 0
279163.0 381646.0 0
284992.0 382276.0 0
290648.0 383156.0 0
293637.0 382106.0 0
299554.0 383678.0 0
302499.0 385594.0 0
308712.0 385963.0 0
311854.0 384688.0 0
314901.0 386602.0 0
181830.0 388632.0 0
187808.0 388130.0 0
193287.0 387722.0 0
196025.0 387932.0 0
199784.0 387491.0 0
202750.0 385244.0 0
205753.0 386329.0 0
208432.0 384105.0 0
211436.0 385511.0 0
213972.0 383338.0 0
214515.0 386957.0 0
217216.0 384776.0 0
220177.0 386451.0 0
222894.0 384408.0 0
225757.0 386517.0 0
228626.0 384829.0 0
231624.0 386840.0 0
234601.0 384974.0 0
237563.0 386828.0 0
240518.0 384836.0 0
246380.0 384869.0 0
252236.0 385128.0 0
258091.0 385543.0 0
261151.0 383827.0 0
263951.0 386042.0 0
267030.0 384370.0 0
272908.0 384916.0 0
278755.0 385452.0 0
281867.0 383841.0 0
284551.0 386053.0 0
287619.0 384553.0 0
293343.0 385619.0 0
296389.0 384596.0 0
299315.0 386871.0 0
302345.0 388777.0 0
305527.0 387364.0 0
308639.0 389030.0 0
311829.0 387732.0 0
317865.0 388455.0 0
178828.0 390509.0 0
181789.0 391745.0 0
184826.0 389888.0 0
187881.0 391242.0 0
190818.0 389628.0 0
194091.0 390979.0 0
197526.0 390134.0 0
202896.0 388557.0 0
205946.0 389740.0 0
208756.0 387655.0 0
211782.0 389085.0 0
217468.0 388572.0 0
222998.0 388376.0 0
228672.0 388611.0 0
234574.0 388763.0 0
240444.0 388752.0 0
243411.0 386797.0 0
246243.0 388839.0 0
249227.0 386960.0 0
255052.0 387298.0 0
260892.0 387744.0 0
266743.0 388246.0 0
269816.0 386574.0 0
272590.0 388758.0 0
275664.0 387096.0 0
281474.0 387631.0 0
287284.0 388269.0 0
290328.0 386851.0 0
293191.0 389146.0 0
296234.0 387966.0 0
299250.0 390173.0 0
305398.0 390512.0 0
311811.0 390715.0 0
314861.0 389948.0 0
317793.0 391768.0 0
320854.0 390320.0 0
172805.0 394277.0 0
175811.0 392396.0 0
178730.0 393659.0 0
184820.0 392966.0 0
187938.0 394272.0 0
191051.0 392727.0 0
194049.0 394265.0 0
197066.0 392993.0 0
200323.0 390984.0 0
203166.0 391956.0 0
206120.0 393163.0 0
208973.0 391140.0 0
214727.0 390667.0 0
220279.0 390381.0 0
225812.0 390418.0 0
231583.0 390628.0 0
237455.0 390696.0 0
243267.0 390753.0 0
249040.0 390935.0 0
252036.0 389094.0 0
254827.0 391251.0 0
257851.0 389479.0 0
263686.0 389940.0 0
269530.0 390432.0 0
275360.0 390923.0 0
278410.0 389262.0 0
281172.0 391405.0 0
284219.0 389793.0 0
290131.0 390458.0 0
296208.0 391372.0 0
302327.0 392051.0 0
305444.0 393782.0 0
308445.0 392066.0 0
311526.0 393474.0 0
314759.0 393378.0 0
320961.0 393519.0 0
323955.0 392251.0 0
327126.0 394228.0 0
169831.0 396137.0 0
175691.0 395605.0 0
178628.0 396819.0 0
181714.0 394842.0 0
184770.0 396002.0 0
190978.0 395941.0 0
197153.0 396167.0 0
200092.0 394328.0 0
203026.0 395153.0 0
209108.0 394648.0 0
211935.0 392696.0 0
214743.0 394428.0 0
217535.0 392420.0 0
220245.0 394307.0 0
223024.0 392330.0 0
225767.0 394344.0 0
228642.0 392466.0 0
231466.0 394485.0 0
234452.0 392605.0 0
237273.0 394590.0 0
240278.0 392676.0 0
243063.0 394706.0 0
246054.0 392810.0 0
251821.0 393061.0 0
257613.0 393414.0 0
260642.0 391661.0 0
263435.0 393834.0 0
266478.0 392123.0 0
272317.0 392599.0 0
278141.0 393062.0 0
283977.0 393503.0 0
287032.0 391914.0 0
289928.0 393967.0 0
293126.0 392610.0 0
296273.0 394734.0 0
299314.0 393562.0 0
302491.0 395379.0 0
305904.0 397050.0 0
308688.0 395242.0 0
312203.0 396234.0 0
315340.0 396812.0 0
318034.0 394995.0 0
321316.0 396721.0 0
324186.0 395380.0 0
330354.0 396241.0 0
163976.0 399801.0 0
166896.0 397975.0 0
169802.0 399452.0 0
172700.0 397551.0 0
175582.0 398850.0 0
181627.0 397934.0 0
184677.0 399045.0 0
187852.0 397310.0 0
190873.0 399198.0 0
194015.0 397448.0 0
200166.0 397912.0 0
206181.0 396471.0 0
211910.0 396374.0 0
217434.0 396287.0 0
222924.0 396274.0 0
228520.0 396369.0 0
234266.0 396490.0 0
240059.0 396606.0 0
245830.0 396774.0 0
248825.0 394905.0 0
251592.0 397021.0 0
254597.0 395201.0 0
260400.0 395573.0 0
266236.0 395993.0 0
269276.0 394287.0 0
272087.0 396429.0 0
275116.0 394740.0 0
277940.0 396844.0 0
280953.0 395160.0 0
286837.0 395536.0 0
292872.0 395938.0 0
295747.0 397826.0 0
299519.0 396999.0 0
303148.0 398563.0 0
309324.0 398309.0 0
315820.0 400066.0 0
318577.0 398304.0 0
324605.0 398538.0 0
327454.0 397300.0 0
330729.0 399278.0 0
333614.0 398278.0 0
161042.0 401632.0 0
166929.0 401300.0 0
172705.0 400915.0 0
175626.0 402186.0 0
178503.0 399991.0 0
181463.0 401021.0 0
184461.0 402039.0 0
187788.0 400314.0 0
193804.0 400581.0 0
197013.0 399389.0 0
199704.0 401520.0 0
203229.0 398170.0 0
206037.0 399913.0 0
209005.0 398210.0 0
211655.0 400091.0 0
214579.0 398229.0 0
217184.0 400159.0 0
220071.0 398224.0 0
225607.0 398279.0 0
231275.0 398386.0 0
237045.0 398504.0 0
242826.0 398655.0 0
248591.0 398868.0 0
254364.0 399146.0 0
257377.0 397344.0 0
263198.0 397721.0 0
269053.0 398130.0 0
274923.0 398538.0 0
280800.0 398898.0 0
283807.0 397199.0 0
286701.0 399171.0 0
289735.0 397497.0 0
292618.0 399409.0 0
298103.0 399813.0 0
300985.0 400660.0 0
306661.0 400365.0 0
309845.0 401634.0 0
312572.0 399309.0 0
319162.0 401582.0 0
321852.0 399981.0 0
325066.0 401790.0 0
327865.0 400432.0 0
333977.0 401311.0 0
336879.0 400320.0 0
340149.0 402364.0 0
158034.0 403507.0 0
160993.0 404845.0 0
164025.0 403104.0 0
167002.0 404654.0 0
169885.0 402830.0 0
172859.0 404369.0 0
178629.0 403261.0 0
181783.0 404236.0 0
187445.0 403152.0 0
190664.0 402628.0 0
193633.0 403614.0 0
196673.0 402722.0 0
202737.0 401117.0 0
208642.0 401829.0 0
214242.0 402035.0 0
219770.0 402130.0 0
222699.0 400207.0 0
225337.0 402212.0 0
228302.0 400292.0 0
231014.0 402301.0 0
234029.0 400400.0 0
236785.0 402424.0 0
239811.0 400539.0 0
242573.0 402599.0 0
245587.0 400730.0 0
251358.0 400975.0 0
257147.0 401268.0 0
260168.0 399479.0 0
262976.0 401599.0 0
266014.0 399851.0 0
268856.0 401956.0 0
271896.0 400240.0 0
277793.0 400605.0 0
283700.0 400889.0 0
289625.0 401084.0 0
295309.0 401435.0 0
298361.0 403124.0 0
304171.0 401960.0 0
307414.0 404090.0 0
310728.0 404938.0 0
313169.0 402447.0 0
316474.0 403209.0 0
319776.0 404938.0 0
322363.0 403329.0 0
328150.0 403691.0 0
331056.0 402395.0 0
334308.0 404381.0 0
337248.0 403362.0 0
343402.0 404399.0 0
151901.0 407339.0 0
154986.0 405411.0 0
157952.0 406683.0 0
163899.0 406390.0 0
170029.0 406222.0 0
175887.0 405561.0 0
179186.0 406480.0 0
185045.0 405256.0 0
188773.0 405749.0 0
192042.0 406199.0 0
195603.0 406175.0 0
198884.0 405145.0 0
202063.0 404338.0 0
205398.0 403269.0 0
208016.0 405352.0 0
211215.0 403803.0 0
216800.0 404022.0 0
222361.0 404126.0 0
227996.0 404213.0 0
233747.0 404312.0 0
239544.0 404470.0 0
245338.0 404679.0 0
248351.0 402823.0 0
251126.0 404923.0 0
254135.0 403086.0 0
256929.0 405189.0 0
259947.0 403379.0 0
262770.0 405469.0 0
265810.0 403696.0 0
271732.0 404029.0 0
274773.0 402314.0 0
277692.0 404343.0 0
280702.0 402618.0 0
283654.0 404565.0 0
286643.0 402810.0 0
289630.0 404685.0 0
292521.0 403035.0 0
295642.0 404945.0 0
298880.0 406535.0 0
301413.0 404114.0 0
304496.0 405128.0 0
308837.0 407634.0 0
314005.0 405626.0 0
317202.0 406304.0 0
322447.0 406947.0 0
325282.0 405217.0 0
328435.0 406966.0 0
331356.0 405549.0 0
334548.0 407506.0 0
337541.0 406444.0 0
340498.0 405440.0 0
343725.0 407520.0 0
346623.0 406415.0 0
148783.0 409288.0 0
154869.0 408566.0 0
157856.0 409880.0 0
160908.0 408104.0 0
166724.0 407912.0 0
169460.0 409341.0 0
173134.0 407870.0 0
176623.0 408756.0 0
182592.0 407382.0 0
186309.0 408034.0 0
190016.0 408709.0 0
193911.0 409136.0 0
197748.0 408549.0 0
201243.0 407669.0 0
204665.0 406626.0 0
210634.0 407454.0 0
213774.0 405827.0 0
216308.0 407878.0 0
219355.0 406018.0 0
221929.0 408026.0 0
224970.0 406134.0 0
230692.0 406207.0 0
236498.0 406339.0 0
242311.0 406537.0 0
248112.0 406771.0 0
253917.0 407021.0 0
259744.0 407276.0 0
265622.0 407529.0 0
268676.0 405762.0 0
274652.0 406061.0 0
280657.0 406315.0 0
286654.0 406427.0 0
289781.0 408149.0 0
292814.0 406499.0 0
296180.0 408414.0 0
302107.0 407570.0 0
305679.0 407884.0 0
312198.0 408273.0 0
315657.0 408823.0 0
319481.0 408664.0 0
325598.0 408595.0 0
331540.0 408768.0 0
337771.0 409557.0 0
340768.0 408548.0 0
346893.0 409603.0 0
349788.0 408397.0 0
145635.0 411255.0 0
148568.0 412438.0 0
151742.0 410489.0 0
154728.0 411731.0 0
157746.0 413061.0 0
160855.0 411386.0 0
163789.0 409817.0 0
166548.0 411410.0 0
171824.0 410886.0 0
174711.0 411344.0 0
180078.0 409618.0 0
183666.0 410287.0 0
187252.0 410915.0 0
190848.0 411504.0 0
194014.0 412279.0 0
197043.0 411656.0 0
200497.0 410899.0 0
203954.0 409956.0 0
207356.0 408829.0 0
210014.0 411085.0 0
213213.0 409603.0 0
218857.0 409881.0 0
224514.0 410044.0 0
227612.0 408114.0 0
230316.0 410080.0 0
233427.0 408208.0 0
236192.0 410236.0 0
239265.0 408390.0 0
242042.0 410465.0 0
245086.0 408620.0 0
250903.0 408865.0 0
256729.0 409108.0 0
262586.0 409338.0 0
268507.0 409552.0 0
271429.0 411527.0 0
271584.0 407790.0 0
274544.0 409772.0 0
277625.0 408047.0 0
280661.0 409974.0 0
283672.0 408221.0 0
286761.0 409994.0 0
293059.0 409768.0 0
296291.0 411795.0 0
299670.0 409993.0 0
303476.0 410606.0 0
307136.0 410847.0 0
310451.0 411031.0 0
313829.0 411490.0 0
317321.0 411587.0 0
320435.0 411882.0 0
322872.0 410327.0 0
325625.0 412166.0 0
328559.0 410350.0 0
331738.0 411974.0 0
334751.0 410649.0 0
337896.0 412728.0 0
340926.0 411707.0 0
343932.0 410684.0 0
347012.0 412839.0 0
349980.0 411667.0 0
352875.0 410332.0 0
355871.0 412211.0 0
139367.0 415178.0 0
142496.0 413219.0 0
145443.0 414437.0 0
151521.0 413639.0 0
154479.0 414871.0 0
160809.0 414593.0 0
163751.0 413407.0 0
169185.0 413005.0 0
172297.0 414141.0 0
177847.0 412102.0 0
181204.0 412735.0 0
184675.0 413298.0 0
188255.0 413855.0 0
191861.0 414690.0 0
195754.0 415086.0 0
199456.0 414139.0 0
203084.0 413270.0 0
206607.0 412267.0 0
212690.0 413398.0 0
215765.0 411746.0 0
221420.0 411913.0 0
227152.0 411971.0 0
233081.0 412070.0 0
238972.0 412297.0 0
244834.0 412553.0 0
247878.0 410712.0 0
250692.0 412801.0 0
253715.0 410953.0 0
256554.0 413026.0 0
259568.0 411174.0 0
262435.0 413211.0 0
265458.0 411365.0 0
268362.0 413348.0 0
274393.0 413438.0 0
277573.0 411700.0 0
283766.0 411847.0 0
286929.0 413559.0 0
289943.0 411547.0 0
293229.0 412968.0 0
299201.0 413174.0 0
302304.0 413507.0 0
305615.0 413737.0 0
308991.0 414045.0 0
312326.0 414328.0 0
315788.0 414536.0 0
319215.0 414782.0 0
322795.0 414253.0 0
328817.0 413677.0 0
334851.0 413842.0 0
340951.0 414933.0 0
343991.0 413909.0 0
349988.0 414993.0 0
352969.0 413699.0 0
361596.0 415792.0 0
136243.0 417132.0 0
142339.0 416435.0 0
145364.0 417663.0 0
148428.0 415642.0 0
151441.0 416876.0 0
154485.0 418144.0 0
157425.0 416147.0 0
160372.0 417474.0 0
163608.0 417181.0 0
166454.0 415100.0 0
169602.0 416407.0 0
175441.0 414738.0 0
178700.0 415352.0 0
182060.0 415853.0 0
185514.0 416293.0 0
189028.0 416810.0 0
192657.0 417611.0 0
198800.0 417316.0 0
205786.0 415640.0 0
209291.0 414614.0 0
215421.0 415755.0 0
218325.0 413729.0 0
220765.0 415818.0 0
223949.0 413957.0 0
226649.0 415728.0 0
229910.0 413892.0 0
232718.0 415893.0 0
235867.0 414110.0 0
241763.0 414381.0 0
247651.0 414643.0 0
253534.0 414880.0 0
259424.0 415075.0 0
265335.0 415211.0 0
271296.0 415278.0 0
277398.0 415260.0 0
280706.0 413563.0 0
283979.0 415440.0 0
290185.0 414920.0 0
293604.0 415927.0 0
296874.0 415575.0 0
300417.0 416400.0 0
303903.0 416707.0 0
323962.0 417586.0 0
326147.0 415543.0 0
328961.0 417258.0 0
331814.0 415254.0 0
334866.0 417060.0 0
337907.0 415960.0 0
340705.0 418257.0 0
343825.0 417217.0 0
346924.0 416137.0 0
352896.0 417118.0 0
355867.0 415682.0 0
358779.0 414036.0 0
361478.0 419119.0 0
364528.0 417619.0 0
133116.0 419088.0 0
136143.0 420397.0 0
139243.0 418422.0 0
142298.0 419681.0 0
148435.0 418894.0 0
151556.0 420158.0 0
157605.0 419429.0 0
161110.0 420281.0 0
166862.0 418543.0 0
170205.0 419774.0 0
172875.0 417409.0 0
176146.0 418043.0 0
179476.0 418555.0 0
182890.0 418939.0 0
186390.0 419287.0 0
190021.0 419699.0 0
195649.0 418289.0 0
202251.0 416521.0 0
204765.0 419003.0 0
208376.0 418075.0 0
211949.0 417015.0 0
218082.0 418287.0 0
223318.0 417859.0 0
229514.0 417629.0 0
235495.0 417966.0 0
238654.0 416188.0 0
241474.0 418276.0 0
244582.0 416471.0 0
247433.0 418561.0 0
250497.0 416728.0 0
256407.0 416941.0 0
262327.0 417092.0 0
268265.0 417165.0 0
271219.0 419069.0 0
274260.0 417133.0 0
277253.0 418885.0 0
280415.0 416961.0 0
283283.0 418647.0 0
287483.0 417130.0 0
291203.0 418205.0 0
295026.0 418780.0 0
298459.0 419013.0 0
302040.0 419558.0 0
307325.0 416985.0 0
310737.0 417285.0 0
314155.0 417492.0 0
317561.0 417704.0 0
320997.0 417646.0 0
326628.0 419449.0 0
331875.0 418540.0 0
334308.0 420392.0 0
337549.0 419302.0 0
346625.0 419484.0 0
349793.0 418344.0 0
355731.0 419241.0 0
358625.0 417640.0 0
364577.0 420875.0 0
367547.0 419503.0 0
126812.0 423032.0 0
129974.0 421054.0 0
133027.0 422358.0 0
139224.0 421690.0 0
142359.0 422946.0 0
145408.0 420915.0 0
148577.0 422155.0 0
151820.0 423418.0 0
154759.0 421418.0 0
158171.0 422496.0 0
164275.0 420791.0 0
167569.0 421994.0 0
173558.0 420725.0 0
176895.0 421327.0 0
180293.0 421714.0 0
183737.0 421988.0 0
187175.0 422226.0 0
190553.0 422489.0 0
193700.0 421076.0 0
197591.0 420737.0 0
201161.0 419855.0 0
207213.0 421492.0 0
210900.0 420548.0 0
214549.0 419480.0 0
220848.0 420684.0 0
226230.0 419291.0 0
232270.0 419699.0 0
238314.0 420051.0 0
244332.0 420370.0 0
250319.0 420645.0 0
253375.0 418800.0 0
256289.0 420850.0 0
259316.0 418975.0 0
262265.0 420974.0 0
265267.0 419070.0 0
268244.0 421006.0 0
274189.0 420880.0 0
280242.0 420575.0 0
286141.0 420072.0 0
289327.0 420749.0 0
292928.0 421381.0 0
296583.0 421917.0 0
305558.0 419912.0 0
309037.0 420218.0 0
312520.0 420473.0 0
316010.0 420665.0 0
319588.0 420715.0 0
323217.0 420846.0 0
326836.0 422693.0 0
329989.0 420959.0 0
333074.0 423178.0 0
336796.0 422597.0 0
340165.0 421609.0 0
343423.0 420572.0 0
349416.0 421705.0 0
352636.0 420538.0 0
355455.0 422762.0 0
358507.0 421339.0 0
361520.0 422281.0 0
367603.0 422815.0 0
370556.0 421386.0 0
373521.0 423245.0 0
123637.0 425019.0 0
129883.0 424331.0 0
133026.0 425632.0 0
136138.0 423679.0 0
139295.0 424977.0 0
145553.0 424171.0 0
148818.0 425395.0 0
155170.0 424588.0 0
158527.0 425661.0 0
161535.0 423436.0 0
164830.0 424259.0 0
170976.0 423207.0 0
174389.0 424110.0 0
177872.0 424567.0 0
181435.0 424819.0 0
185020.0 425019.0 0
188666.0 425156.0 0
192565.0 424614.0 0
196027.0 423718.0 0
199832.0 423151.0 0
203524.0 422348.0 0
209587.0 424018.0 0
213370.0 423061.0 0
217153.0 422028.0 0
222139.0 424042.0 0
225314.0 422637.0 0
228938.0 421351.0 0
231763.0 423438.0 0
235086.0 421781.0 0
241179.0 422144.0 0
247227.0 422463.0 0
253240.0 422713.0 0
259243.0 422869.0 0
265262.0 422931.0 0
271247.0 422912.0 0
277169.0 422577.0 0
280246.0 424093.0 0
283433.0 422160.0 0
287017.0 423451.0 0
290796.0 424022.0 0
294529.0 424581.0 0
300118.0 422304.0 0
303685.0 422769.0 0
307218.0 423134.0 0
310726.0 423431.0 0
314212.0 423663.0 0
317668.0 423783.0 0
321015.0 423850.0 0
324177.0 424088.0 0
329752.0 424283.0 0
332890.0 426432.0 0
336078.0 425663.0 0
339509.0 424898.0 0
342853.0 423924.0 0
346151.0 422849.0 0
348877.0 425070.0 0
352198.0 423932.0 0
358256.0 425032.0 0
361429.0 425228.0 0
364589.0 424126.0 0
367415.0 426185.0 0
370506.0 424772.0 0
376486.0 425101.0 0
120463.0 427007.0 0
123549.0 428366.0 0
126719.0 426334.0 0
129884.0 427607.0 0
136221.0 426982.0 0
139445.0 428283.0 0
142503.0 426221.0 0
145772.0 427417.0 0
149112.0 428614.0 0
152157.0 426645.0 0
155504.0 427811.0 0
161864.0 426678.0 0
165138.0 427607.0 0
168244.0 425380.0 0
171800.0 426689.0 0
194502.0 427036.0 0
198200.0 426280.0 0
202031.0 425634.0 0
205822.0 424874.0 0
211833.0 426607.0 0
215494.0 425820.0 0
218927.0 425118.0 0
228281.0 424921.0 0
234664.0 425542.0 0
237962.0 423875.0 0
240884.0 425979.0 0
244086.0 424245.0 0
247034.0 426346.0 0
250160.0 424549.0 0
253132.0 426617.0 0
256200.0 424753.0 0
262246.0 424846.0 0
265312.0 426767.0 0
268316.0 424850.0 0
271410.0 426803.0 0
274260.0 424701.0 0
277349.0 426292.0 0
283426.0 425368.0 0
286378.0 426557.0 0
289500.0 426958.0 0
298186.0 425126.0 0
301762.0 425578.0 0
305333.0 426014.0 0
308888.0 426370.0 0
312432.0 426654.0 0
315969.0 426855.0 0
319470.0 426990.0 0
322936.0 427108.0 0
326567.0 426572.0 0
329749.0 427333.0 0
335420.0 429020.0 0
338755.0 428180.0 0
342152.0 427285.0 0
345519.0 426230.0 0
348216.0 428421.0 0
351625.0 427308.0 0
354972.0 426208.0 0
360802.0 428195.0 0
364207.0 427405.0 0
370269.0 428174.0 0
373415.0 426651.0 0
379473.0 426970.0 0
382499.0 428859.0 0
114184.0 430943.0 0
117308.0 428984.0 0
120395.0 430414.0 0
126723.0 429636.0 0
129976.0 430877.0 0
133117.0 428909.0 0
136388.0 430316.0 0
142710.0 429503.0 0
146035.0 430653.0 0
152487.0 429918.0 0
158854.0 428892.0 0
162182.0 430026.0 0
165429.0 431022.0 0
168387.0 428614.0 0
171353.0 430046.0 0
175529.0 427428.0 0
179270.0 427663.0 0
182975.0 427825.0 0
186734.0 427872.0 0
190657.0 427555.0 0
196471.0 429501.0 0
200294.0 428818.0 0
204175.0 428174.0 0
208038.0 427473.0 0
214213.0 429314.0 0
217927.0 428696.0 0
221513.0 427820.0 0
224915.0 426434.0 0
227872.0 428613.0 0
231268.0 427103.0 0
237610.0 427661.0 0
243849.0 428093.0 0
250022.0 428438.0 0
256148.0 428651.0 0
259204.0 426756.0 0
262256.0 428700.0 0
268472.0 428641.0 0
274527.0 428544.0 0
280565.0 427651.0 0
283842.0 428892.0 0
287344.0 429799.0 0
292823.0 427359.0 0
296312.0 427898.0 0
299860.0 428421.0 0
303413.0 428878.0 0
306980.0 429284.0 0
310559.0 429611.0 0
314153.0 429860.0 0
317749.0 430052.0 0
321324.0 430174.0 0
324929.0 429963.0 0
328304.0 430069.0 0
332030.0 429795.0 0
337947.0 431574.0 0
341347.0 430680.0 0
344761.0 429637.0 0
347483.0 431728.0 0
350967.0 430656.0 0
354350.0 429649.0 0
357626.0 428633.0 0
363690.0 430614.0 0
367035.0 429535.0 0
373176.0 430050.0 0
376360.0 428514.0 0
382422.0 432216.0 0
385597.0 430795.0 0
111118.0 432868.0 0
117271.0 432469.0 0
123569.0 431719.0 0
126826.0 432938.0 0
133295.0 432181.0 0
139656.0 431622.0 0
142952.0 432799.0 0
146317.0 433877.0 0
149428.0 431826.0 0
152851.0 433269.0 0
155838.0 431090.0 0
159193.0 432177.0 0
162550.0 433505.0 0
165734.0 434508.0 0
168643.0 432090.0 0
174306.0 430640.0 0
177566.0 430646.0 0
181112.0 430721.0 0
184828.0 430697.0 0
188698.0 430453.0 0
192594.0 430060.0 0
198422.0 432009.0 0
202318.0 431378.0 0
206279.0 430768.0 0
210392.0 430025.0 0
217670.0 432212.0 0
221167.0 431522.0 0
224470.0 430211.0 0
230880.0 430805.0 0
234264.0 429267.0 0
237288.0 431422.0 0
240597.0 429781.0 0
246851.0 430208.0 0
253058.0 430511.0 0
259210.0 430643.0 0
265374.0 430551.0 0
271698.0 430733.0 0
277785.0 429978.0 0
281247.0 431185.0 0
284862.0 432209.0 0
290841.0 430263.0 0
294335.0 430719.0 0
297879.0 431252.0 0
301443.0 431757.0 0
305013.0 432197.0 0
308601.0 432563.0 0
312219.0 432838.0 0
315875.0 433044.0 0
319575.0 433214.0 0
323295.0 433201.0 0
326934.0 433125.0 0
343938.0 433103.0 0
350328.0 433937.0 0
353769.0 433022.0 0
357115.0 432111.0 0
360376.0 431426.0 0
366604.0 432878.0 0
369912.0 431574.0 0
376148.0 431914.0 0
379349.0 430381.0 0
385592.0 434117.0 0
388774.0 432780.0 0
392008.0 434803.0 0
105199.0 436564.0 0
108127.0 434761.0 0
114211.0 434536.0 0
117376.0 435997.0 0
120443.0 433840.0 0
123695.0 435080.0 0
127008.0 436240.0 0
130154.0 434137.0 0
133552.0 435429.0 0
136629.0 433712.0 0
139898.0 435014.0 0
143217.0 436104.0 0
149768.0 434998.0 0
156193.0 434428.0 0
159635.0 435452.0 0
169108.0 435236.0 0
172116.0 433644.0 0
175627.0 433887.0 0
179197.0 433778.0 0
182903.0 433657.0 0
186730.0 433413.0 0
190615.0 433058.0 0
194523.0 432588.0 0
200168.0 434646.0 0
203836.0 434170.0 0
207339.0 433821.0 0
210732.0 433338.0 0
214163.0 432750.0 0
223947.0 434229.0 0
227423.0 432274.0 0
233962.0 432999.0 0
240308.0 433562.0 0
243614.0 431916.0 0
246675.0 434046.0 0
249901.0 432304.0 0
253004.0 434385.0 0
256150.0 432542.0 0
259311.0 434544.0 0
262312.0 432558.0 0
265452.0 434314.0 0
268610.0 432266.0 0
274981.0 432365.0 0
278625.0 433503.0 0
282352.0 434557.0 0
288539.0 432983.0 0
292152.0 433527.0 0
295746.0 434042.0 0
299377.0 434607.0 0
302980.0 435116.0 0
306568.0 435533.0 0
310184.0 435833.0 0
330675.0 432796.0 0
334423.0 432317.0 0
340526.0 434143.0 0
346773.0 434939.0 0
356618.0 435505.0 0
359955.0 434751.0 0
363286.0 433926.0 0
369518.0 435017.0 0
372859.0 433422.0 0
375899.0 435289.0 0
379186.0 433782.0 0
382319.0 435527.0 0
388826.0 436112.0 0
395268.0 436846.0 0
98937.0 440463.0 0
102127.0 438473.0 0
105372.0 439999.0 0
111240.0 436578.0 0
120635.0 437287.0 0
123945.0 438466.0 0
130370.0 437375.0 0
133788.0 438585.0 0
136932.0 437233.0 0
140245.0 438462.0 0
146607.0 437073.0 0
150035.0 438068.0 0
153196.0 436756.0 0
156545.0 437752.0 0
159948.0 438530.0 0
163111.0 437203.0 0
170255.0 438035.0 0
173579.0 437040.0 0
177264.0 436954.0 0
180974.0 436736.0 0
184767.0 436457.0 0
188620.0 436103.0 0
192500.0 435677.0 0
196367.0 435183.0 0
201878.0 437458.0 0
205537.0 437094.0 0
209187.0 436709.0 0
212811.0 436196.0 0
216440.0 435649.0 0
220164.0 435089.0 0
227428.0 435706.0 0
230660.0 434478.0 0
233544.0 436806.0 0
236942.0 435206.0 0
243389.0 435714.0 0
249784.0 436142.0 0
256178.0 436392.0 0
262559.0 436472.0 0
268702.0 435632.0 0
272326.0 435027.0 0
276085.0 435923.0 0
279881.0 436902.0 0
286099.0 435468.0 0
289801.0 436216.0 0
293447.0 436800.0 0
297133.0 437324.0 0
300868.0 437985.0 0
313846.0 436034.0 0
317578.0 436164.0 0
321428.0 436282.0 0
325376.0 436202.0 0
329331.0 435843.0 0
333187.0 435398.0 0
336946.0 434874.0 0
343177.0 436709.0 0
346375.0 437962.0 0
349812.0 437147.0 0
353231.0 436336.0 0
359435.0 438107.0 0
362846.0 437297.0 0
366210.0 436305.0 0
372535.0 436761.0 0
379001.0 437192.0 0
382174.0 438777.0 0
385543.0 437397.0 0
388798.0 439425.0 0
392079.0 438187.0 0
398521.0 438888.0 0
95758.9 442457.0 0
102068.0 441816.0 0
108386.0 438590.0 0
111454.0 440407.0 0
114385.0 438191.0 0
117675.0 439554.0 0
121020.0 440777.0 0
127285.0 439568.0 0
130638.0 440618.0 0
134047.0 441570.0 0
137427.0 440907.0 0
143666.0 439423.0 0
147098.0 440301.0 0
150605.0 440973.0 0
153957.0 440390.0 0
157511.0 441081.0 0
161211.0 441325.0 0
166602.0 437874.0 0
175427.0 440185.0 0
179095.0 439929.0 0
182836.0 439596.0 0
186646.0 439216.0 0
190493.0 438800.0 0
194342.0 438354.0 0
198149.0 437892.0 0
207393.0 439966.0 0
211100.0 439556.0 0
214769.0 439084.0 0
218409.0 438592.0 0
221996.0 438195.0 0
225465.0 438219.0 0
230077.0 438305.0 0
236572.0 438979.0 0
240022.0 437301.0 0
246509.0 437871.0 0
252936.0 438239.0 0
259462.0 438399.0 0
265978.0 438150.0 0
270280.0 438465.0 0
273858.0 438651.0 0
277561.0 439385.0 0
283686.0 437893.0 0
287403.0 438795.0 0
291039.0 439533.0 0
294742.0 440042.0 0
304484.0 438519.0 0
308090.0 438876.0 0
311706.0 439093.0 0
315334.0 439210.0 0
318899.0 439285.0 0
322250.0 439502.0 0
325461.0 439457.0 0
328708.0 438979.0 0
332192.0 438497.0 0
335854.0 438046.0 0
339554.0 437500.0 0
345361.0 440773.0 0
349029.0 440381.0 0
352534.0 439649.0 0
356001.0 438872.0 0
362243.0 440681.0 0
365745.0 439782.0 0
369139.0 438576.0 0
372322.0 439999.0 0
375711.0 438653.0 0
382068.0 441922.0 0
385458.0 440636.0 0
391977.0 441583.0 0
395297.0 440318.0 0
398444.0 442486.0 0
401741.0 440916.0 0
92581.4 444450.0 0
98938.6 443892.0 0
102237.0 445196.0 0
105264.0 443147.0 0
108631.0 442723.0 0
114767.0 441848.0 0
118160.0 443124.0 0
124404.0 441906.0 0
127832.0 442956.0 0
131337.0 443898.0 0
140965.0 441894.0 0
144538.0 442768.0 0
148184.0 443496.0 0
151963.0 443783.0 0
155416.0 443850.0 0
159089.0 444210.0 0
164553.0 440784.0 0
168219.0 440992.0 0
171959.0 440733.0 0
180934.0 442842.0 0
184705.0 442407.0 0
188519.0 441969.0 0
192350.0 441530.0 0
196169.0 441099.0 0
199946.0 440695.0 0
203677.0 440328.0 0
209267.0 442851.0 0
212977.0 442465.0 0
216650.0 442051.0 0
220289.0 441676.0 0
223921.0 441468.0 0
227733.0 441128.0 0
233054.0 440581.0 0
239794.0 440946.0 0
243189.0 439486.0 0
246323.0 441713.0 0
249665.0 439955.0 0
252854.0 442131.0 0
256157.0 440156.0 0
259457.0 442163.0 0
262890.0 440322.0 0
267923.0 441290.0 0
271757.0 441740.0 0
275415.0 442135.0 0
281339.0 440272.0 0
285075.0 441332.0 0
288597.0 442286.0 0
298509.0 440548.0 0
302363.0 441466.0 0
306022.0 441952.0 0
309656.0 442218.0 0
313307.0 442340.0 0
316914.0 442446.0 0
320440.0 442599.0 0
323995.0 442640.0 0
327566.0 442319.0 0
331084.0 441791.0 0
334658.0 441294.0 0
338302.0 440801.0 0
341957.0 440275.0 0
347821.0 443454.0 0
351539.0 442926.0 0
355147.0 442216.0 0
358705.0 441466.0 0
365016.0 443241.0 0
368606.0 442254.0 0
372060.0 443050.0 0
375534.0 442026.0 0
378837.0 440699.0 0
385277.0 443892.0 0
388628.0 442762.0 0
395028.0 443816.0 0
401500.0 444696.0 0
404911.0 442907.0 0
409850.0 445956.0 0
89392.8 446450.0 0
95825.4 445964.0 0
99206.4 447323.0 0
105766.0 446223.0 0
111951.0 444204.0 0
115376.0 445516.0 0
121602.0 444290.0 0
125099.0 445358.0 0
128678.0 446310.0 0
135034.0 444452.0 0
138486.0 444509.0 0
142081.0 445305.0 0
145773.0 446034.0 0
149567.0 446554.0 0
162803.0 444259.0 0
166314.0 444081.0 0
169992.0 443991.0 0
173641.0 443682.0 0
177232.0 443230.0 0
186590.0 445198.0 0
190395.0 444732.0 0
194218.0 444293.0 0
198021.0 443902.0 0
201789.0 443549.0 0
205535.0 443207.0 0
218480.0 445105.0 0
222138.0 444821.0 0
225845.0 444520.0 0
229526.0 444247.0 0
233093.0 444232.0 0
236355.0 442725.0 0
239588.0 444456.0 0
243003.0 443265.0 0
249479.0 443702.0 0
256181.0 443840.0 0
262549.0 444073.0 0
266133.0 444367.0 0
269804.0 444712.0 0
279108.0 442777.0 0
282804.0 443689.0 0
286142.0 445112.0 0
292290.0 442821.0 0
296004.0 443246.0 0
299727.0 443686.0 0
304045.0 445029.0 0
307719.0 445390.0 0
311422.0 445495.0 0
315093.0 445595.0 0
318727.0 445701.0 0
322384.0 445718.0 0
326084.0 445523.0 0
329742.0 445119.0 0
333347.0 444622.0 0
336958.0 444137.0 0
340564.0 443684.0 0
344067.0 443653.0 0
350316.0 446090.0 0
354059.0 445504.0 0
357734.0 444808.0 0
361378.0 444055.0 0
367618.0 445913.0 0
374874.0 445378.0 0
378444.0 444373.0 0
381871.0 444910.0 0
388130.0 446175.0 0
391586.0 445034.0 0
394427.0 447361.0 0
397954.0 446100.0 0
403667.0 447616.0 0
406618.0 446126.0 0
413011.0 447946.0 0
86197.2 448454.0 0
89517.3 450091.0 0
92681.5 448021.0 0
96097.4 449445.0 0
102754.0 448491.0 0
106391.0 449456.0 0
109209.0 446664.0 0
112637.0 447965.0 0
118847.0 446716.0 0
122380.0 447801.0 0
125996.0 448768.0 0
132384.0 447049.0 0
136088.0 447560.0 0
139664.0 447967.0 0
143354.0 448633.0 0
147141.0 449226.0 0
153289.0 446913.0 0
156946.0 447110.0 0
160691.0 447323.0 0
164402.0 447388.0 0
168043.0 447270.0 0
171707.0 447060.0 0
175377.0 446669.0 0
179064.0 446189.0 0
182816.0 445682.0 0
192299.0 447494.0 0
196109.0 447096.0 0
199891.0 446758.0 0
203648.0 446443.0 0
207388.0 446126.0 0
211110.0 445795.0 0
214810.0 445447.0 0
227663.0 447680.0 0
231320.0 447547.0 0
235056.0 447327.0 0
238634.0 447631.0 0
242436.0 447065.0 0
246042.0 445659.0 0
249499.0 447236.0 0
253097.0 446113.0 0
256816.0 447315.0 0
260525.0 447161.0 0
264283.0 447538.0 0
273495.0 445120.0 0
277144.0 445540.0 0
280824.0 446134.0 0
289888.0 445657.0 0
293625.0 446087.0 0
297317.0 446445.0 0
301000.0 446660.0 0
306074.0 448700.0 0
309719.0 448706.0 0
313395.0 448756.0 0
317073.0 448826.0 0
320774.0 448824.0 0
324512.0 448677.0 0
328247.0 448377.0 0
331937.0 447956.0 0
335588.0 447485.0 0
339225.0 447043.0 0
342831.0 446788.0 0
346534.0 446504.0 0
352822.0 448733.0 0
356577.0 448119.0 0
360286.0 447425.0 0
363966.0 446681.0 0
371152.0 446002.0 0
377400.0 447953.0 0
380885.0 447813.0 0
384606.0 447199.0 0
387299.0 449569.0 0
390893.0 448524.0 0
400446.0 448680.0 0
406479.0 450101.0 0
409778.0 449358.0 0
416137.0 449915.0 0
79785.1 452473.0 0
82991.8 450464.0 0
92944.2 451577.0 0
99640.9 450693.0 0
103276.0 451787.0 0
106918.0 452846.0 0
109888.0 450460.0 0
116110.0 449191.0 0
119660.0 450294.0 0
123295.0 451273.0 0
129707.0 449582.0 0
133459.0 450248.0 0
137187.0 450800.0 0
140898.0 451311.0 0
150939.0 449720.0 0
154726.0 450075.0 0
158492.0 450307.0 0
162275.0 450498.0 0
166048.0 450575.0 0
169764.0 450467.0 0
173468.0 450110.0 0
177208.0 449607.0 0
181025.0 449034.0 0
184744.0 448511.0 0
188490.0 447983.0 0
194219.0 450289.0 0
197991.0 449963.0 0
201743.0 449677.0 0
205480.0 449395.0 0
209204.0 449105.0 0
212915.0 448803.0 0
216609.0 448498.0 0
220290.0 448210.0 0
223981.0 447928.0 0
267996.0 447813.0 0
271698.0 448141.0 0
275406.0 448492.0 0
279143.0 448825.0 0
283857.0 448186.0 0
287639.0 448568.0 0
291425.0 448990.0 0
295183.0 449350.0 0
298924.0 449590.0 0
302675.0 449455.0 0
330449.0 451251.0 0
334167.0 450822.0 0
337860.0 450377.0 0
341540.0 450010.0 0
345263.0 449657.0 0
349033.0 449241.0 0
359075.0 450783.0 0
362778.0 450112.0 0
366424.0 449441.0 0
369985.0 449099.0 0
373723.0 448646.0 0
379872.0 450961.0 0
383583.0 450387.0 0
393569.0 450963.0 0
397064.0 449829.0 0
399733.0 452431.0 0
403145.0 451358.0 0
409369.0 452884.0 0
412816.0 451580.0 0
415898.0 453667.0 0
419276.0 451885.0 0
73249.0 456561.0 0
76539.1 454503.0 0
79980.8 456272.0 0
86346.9 452177.0 0
89782.3 453746.0 0
96472.2 452903.0 0
100080.0 454064.0 0
103717.0 455127.0 0
113359.0 451712.0 0
116917.0 452836.0 0
120572.0 453825.0 0
127016.0 452124.0 0
130789.0 452858.0 0
134580.0 453494.0 0
138373.0 454057.0 0
144684.0 451893.0 0
148514.0 452446.0 0
152357.0 452911.0 0
156190.0 453264.0 0
160011.0 453519.0 0
163852.0 453706.0 0
167722.0 453820.0 0
171599.0 453630.0 0
175360.0 453071.0 0
179326.0 452315.0 0
183093.0 451957.0 0
186680.0 451346.0 0
190429.0 450723.0 0
199818.0 452911.0 0
203544.0 452662.0 0
207264.0 452406.0 0
210980.0 452139.0 0
214687.0 451865.0 0
218387.0 451594.0 0
222084.0 451330.0 0
225774.0 451091.0 0
229454.0 450913.0 0
233153.0 450746.0 0
236802.0 450756.0 0
240617.0 450587.0 0
244278.0 450324.0 0
247861.0 450422.0 0
251629.0 450293.0 0
255210.0 450524.0 0
258912.0 450568.0 0
262560.0 450721.0 0
266263.0 450962.0 0
269985.0 451230.0 0
273738.0 451510.0 0
277555.0 451725.0 0
281764.0 451412.0 0
285574.0 451617.0 0
289376.0 451952.0 0
293181.0 452295.0 0
296991.0 452556.0 0
300823.0 452605.0 0
308151.0 452021.0 0
311796.0 451983.0 0
315470.0 451997.0 0
319185.0 451974.0 0
322937.0 451849.0 0
326700.0 451604.0 0
343961.0 452865.0 0
347744.0 452438.0 0
351538.0 451955.0 0
355324.0 451404.0 0
361557.0 453518.0 0
365246.0 452904.0 0
368879.0 452416.0 0
372557.0 451920.0 0
376259.0 451363.0 0
382547.0 453646.0 0
386283.0 452908.0 0
389976.0 452007.0 0
396241.0 453502.0 0
402504.0 455067.0 0
405975.0 453926.0 0
412420.0 455254.0 0
419025.0 455703.0 0
422444.0 453869.0 0
425663.0 455879.0 0
69934.6 458635.0 0
76690.6 458312.0 0
83183.7 454272.0 0
86625.3 455937.0 0
93305.8 455142.0 0
96902.2 456376.0 0
100536.0 457479.0 0
107365.0 456208.0 0
110532.0 454228.0 0
114130.0 455415.0 0
117819.0 456423.0 0
124309.0 454695.0 0
128103.0 455464.0 0
131927.0 456146.0 0
142179.0 454588.0 0
146028.0 455142.0 0
149907.0 455681.0 0
153774.0 456142.0 0
157616.0 456503.0 0
177805.0 455463.0 0
181512.0 455271.0 0
185213.0 455025.0 0
188646.0 454032.0 0
192353.0 453497.0 0
196087.0 453171.0 0
205283.0 455704.0 0
209004.0 455466.0 0
212722.0 455218.0 0
216438.0 454967.0 0
220150.0 454720.0 0
223856.0 454490.0 0
227556.0 454297.0 0
231260.0 454135.0 0
234953.0 454053.0 0
238699.0 453936.0 0
242424.0 453805.0 0
246071.0 453748.0 0
249779.0 453702.0 0
253430.0 453783.0 0
257137.0 453876.0 0
260828.0 453989.0 0
264530.0 454152.0 0
268265.0 454366.0 0
272040.0 454587.0 0
275882.0 454756.0 0
279832.0 454669.0 0
283652.0 454770.0 0
287452.0 455005.0 0
291264.0 455292.0 0
304600.0 452344.0 0
310206.0 455287.0 0
313889.0 455225.0 0
317614.0 455171.0 0
321375.0 455053.0 0
325154.0 454842.0 0
328930.0 454531.0 0
332696.0 454137.0 0
336451.0 453696.0 0
340200.0 453268.0 0
346431.0 455666.0 0
350239.0 455200.0 0
354039.0 454687.0 0
357817.0 454123.0 0
364040.0 456327.0 0
367735.0 455795.0 0
371431.0 455271.0 0
375135.0 454726.0 0
378825.0 454233.0 0
385244.0 456271.0 0
388978.0 455456.0 0
392655.0 454527.0 0
398967.0 456112.0 0
405363.0 457671.0 0
408906.0 456564.0 0
411933.0 459019.0 0
415519.0 457445.0 0
422229.0 457703.0 0
430644.0 458995.0 0
66598.2 460724.0 0
73388.3 460411.0 0
80182.4 460035.0 0
83472.5 458131.0 0
90158.0 457421.0 0
93770.3 458727.0 0
97434.4 459890.0 0
104177.0 458497.0 0
107849.0 459458.0 0
111317.0 458017.0 0
121585.0 457303.0 0
125406.0 458089.0 0
129258.0 458798.0 0
135767.0 456755.0 0
139618.0 457311.0 0
143483.0 457844.0 0
147380.0 458388.0 0
151294.0 458957.0 0
161438.0 456768.0 0
165229.0 456979.0 0
168927.0 457250.0 0
172600.0 457212.0 0
187161.0 458302.0 0
190408.0 456724.0 0
194123.0 456379.0 0
197842.0 456143.0 0
201562.0 455927.0 0
214448.0 458330.0 0
218177.0 458098.0 0
221904.0 457877.0 0
225626.0 457681.0 0
229347.0 457516.0 0
233064.0 457398.0 0
236799.0 457290.0 0
240529.0 457192.0 0
244234.0 457129.0 0
247936.0 457079.0 0
251625.0 457106.0 0
255332.0 457169.0 0
259049.0 457266.0 0
262773.0 457390.0 0
266514.0 457548.0 0
270291.0 457721.0 0
274115.0 457865.0 0
277993.0 457901.0 0
281811.0 457976.0 0
285609.0 458138.0 0
295098.0 455547.0 0
298957.0 455678.0 0
302800.0 455620.0 0
306544.0 455449.0 0
312299.0 458502.0 0
316042.0 458412.0 0
319816.0 458291.0 0
323609.0 458102.0 0
327407.0 457826.0 0
331200.0 457454.0 0
334998.0 457010.0 0
338814.0 456536.0 0
342623.0 456101.0 0
348921.0 458463.0 0
352736.0 457979.0 0
356534.0 457456.0 0
360305.0 456899.0 0
370277.0 458656.0 0
374009.0 458107.0 0
377739.0 457565.0 0
381488.0 456970.0 0
387948.0 458902.0 0
391685.0 458050.0 0
395363.0 457114.0 0
398111.0 459746.0 0
401760.0 458743.0 0
408274.0 460283.0 0
415063.0 461257.0 0
418707.0 459527.0 0
423609.0 461162.0 0
426930.0 459370.0 0
433955.0 461066.0 0
63240.9 462826.0 0
70076.4 462525.0 0
73601.1 464291.0 0
76881.3 462134.0 0
80435.9 463752.0 0
87031.9 459732.0 0
90674.3 461118.0 0
94389.1 462335.0 0
101120.0 460940.0 0
104823.0 461888.0 0
108593.0 462625.0 0
115051.0 459068.0 0
118856.0 459954.0 0
122710.0 460746.0 0
126589.0 461470.0 0
133127.0 459440.0 0
137004.0 460025.0 0
140890.0 460569.0 0
144791.0 461097.0 0
148716.0 461644.0 0
155161.0 459436.0 0
158997.0 459806.0 0
162789.0 460101.0 0
166519.0 460385.0 0
170186.0 460690.0 0
175950.0 458296.0 0
179707.0 458509.0 0
183438.0 458395.0 0
191978.0 459524.0 0
195753.0 459345.0 0
199502.0 459176.0 0
203243.0 458991.0 0
206980.0 458785.0 0
210715.0 458562.0 0
231144.0 460758.0 0
234886.0 460649.0 0
238625.0 460560.0 0
242354.0 460496.0 0
246078.0 460452.0 0
249791.0 460448.0 0
253511.0 460485.0 0
289417.0 458360.0 0
293251.0 458585.0 0
297114.0 458744.0 0
300984.0 458788.0 0
304810.0 458730.0 0
308571.0 458612.0 0
314445.0 461686.0 0
318240.0 461560.0 0
322050.0 461386.0 0
325871.0 461139.0 0
329695.0 460801.0 0
333519.0 460349.0 0
337400.0 459801.0 0
341256.0 459347.0 0
345094.0 458913.0 0
355232.0 460791.0 0
359028.0 460270.0 0
362800.0 459729.0 0
366544.0 459193.0 0
372851.0 461508.0 0
376617.0 460944.0 0
380392.0 460340.0 0
384175.0 459664.0 0
390662.0 461558.0 0
394411.0 460688.0 0
400893.0 462401.0 0
404596.0 461378.0 0
407440.0 464031.0 0
411200.0 462826.0 0
420338.0 462900.0 0
426847.0 463232.0 0
430580.0 462913.0 0
437298.0 463160.0 0
59866.0 464938.0 0
63382.5 466788.0 0
66739.2 464650.0 0
70278.7 466438.0 0
77180.8 465993.0 0
83926.8 462062.0 0
87612.2 463559.0 0
91389.1 464823.0 0
98137.0 463437.0 0
101910.0 464426.0 0
105732.0 465266.0 0
112325.0 461798.0 0
116151.0 462669.0 0
120035.0 463446.0 0
123937.0 464174.0 0
130479.0 462136.0 0
134374.0 462747.0 0
138271.0 463311.0 0
142169.0 463842.0 0
152665.0 462313.0 0
156540.0 462798.0 0
160368.0 463184.0 0
164142.0 463523.0 0
167879.0 463851.0 0
173755.0 461097.0 0
177571.0 461552.0 0
181412.0 461653.0 0
185209.0 461617.0 0
188999.0 461645.0 0
193494.0 462433.0 0
197331.0 462369.0 0
201124.0 462247.0 0
204900.0 462085.0 0
208664.0 461894.0 0
212419.0 461684.0 0
216170.0 461466.0 0
219918.0 461254.0 0
223663.0 461059.0 0
227405.0 460891.0 0
257240.0 460554.0 0
260981.0 460652.0 0
264735.0 460772.0 0
268513.0 460907.0 0
272324.0 461032.0 0
276165.0 461111.0 0
279991.0 461197.0 0
283798.0 461321.0 0
287608.0 461491.0 0
291438.0 461678.0 0
295296.0 461836.0 0
299172.0 461926.0 0
303037.0 461938.0 0
306869.0 461884.0 0
310663.0 461792.0 0
320456.0 464690.0 0
324299.0 464469.0 0
328151.0 464166.0 0
332019.0 463753.0 0
335997.0 463057.0 0
339886.0 462594.0 0
343744.0 462170.0 0
347586.0 461739.0 0
351416.0 461281.0 0
357727.0 463639.0 0
361528.0 463124.0 0
365312.0 462597.0 0
369084.0 462059.0 0
379255.0 463749.0 0
383066.0 463086.0 0
386873.0 462356.0 0
393391.0 464242.0 0
397162.0 463355.0 0
403687.0 465082.0 0
413643.0 465754.0 0
417051.0 464470.0 0
423489.0 465073.0 0
430568.0 466908.0 0
433890.0 464981.0 0
437161.0 467144.0 0
440646.0 465258.0 0
66933.3 468606.0 0
73860.8 468194.0 0
77762.5 469843.0 0
80904.6 467442.0 0
84645.8 466130.0 0
95192.4 465962.0 0
99012.4 466996.0 0
109668.0 465730.0 0
113516.0 465506.0 0
117407.0 466214.0 0
127843.0 464856.0 0
131750.0 465490.0 0
135655.0 466077.0 0
139554.0 466623.0 0
146071.0 464362.0 0
149978.0 464914.0 0
154100.0 465748.0 0
157961.0 466230.0 0
161781.0 466631.0 0
165573.0 466986.0 0
171591.0 464208.0 0
175362.0 464529.0 0
179237.0 464775.0 0
183105.0 464853.0 0
186947.0 464882.0 0
190802.0 464972.0 0
195032.0 465441.0 0
198917.0 465441.0 0
202756.0 465347.0 0
206568.0 465205.0 0
210357.0 465027.0 0
214132.0 464827.0 0
217902.0 464622.0 0
221671.0 464429.0 0
225437.0 464259.0 0
229198.0 464119.0 0
232955.0 464009.0 0
236707.0 463922.0 0
240453.0 463858.0 0
244194.0 463815.0 0
247930.0 463800.0 0
251666.0 463814.0 0
255408.0 463860.0 0
259161.0 463932.0 0
262926.0 464026.0 0
266709.0 464132.0 0
270515.0 464239.0 0
274341.0 464330.0 0
278168.0 464421.0 0
281988.0 464530.0 0
285807.0 464666.0 0
289639.0 464820.0 0
293494.0 464964.0 0
297369.0 465068.0 0
301250.0 465119.0 0
305120.0 465114.0 0
308968.0 465061.0 0
312798.0 464971.0 0
316623.0 464851.0 0
334687.0 466288.0 0
338552.0 465843.0 0
342401.0 465438.0 0
346243.0 465029.0 0
350080.0 464595.0 0
353909.0 464132.0 0
364036.0 466007.0 0
367844.0 465475.0 0
371646.0 464926.0 0
375448.0 464356.0 0
381908.0 466534.0 0
385752.0 465824.0 0
389583.0 465062.0 0
396130.0 466954.0 0
399921.0 466054.0 0
406413.0 467829.0 0
410083.0 466815.0 0
416578.0 468355.0 0
420100.0 466829.0 0
423326.0 469021.0 0
426744.0 467123.0 0
70516.9 470378.0 0
74493.1 472100.0 0
81848.2 471120.0 0
88458.1 467382.0 0
92303.7 468543.0 0
96140.2 469611.0 0
102864.0 467906.0 0
107018.0 468532.0 0
111037.0 468864.0 0
114868.0 469104.0 0
121320.0 466922.0 0
125236.0 467610.0 0
129149.0 468262.0 0
133058.0 468870.0 0
143446.0 467142.0 0
147332.0 467653.0 0
151230.0 468171.0 0
155587.0 469255.0 0
169355.0 467322.0 0
173165.0 467622.0 0
177021.0 467856.0 0
180916.0 468015.0 0
184803.0 468092.0 0
188683.0 468156.0 0
192585.0 468267.0 0
196630.0 468533.0 0
200553.0 468547.0 0
204428.0 468473.0 0
208267.0 468350.0 0
212072.0 468181.0 0
215864.0 467988.0 0
219653.0 467793.0 0
223444.0 467618.0 0
227228.0 467476.0 0
231004.0 467366.0 0
234771.0 467281.0 0
238532.0 467218.0 0
242289.0 467175.0 0
246042.0 467153.0 0
249795.0 467155.0 0
253552.0 467181.0 0
257317.0 467232.0 0
261093.0 467302.0 0
264883.0 467387.0 0
268689.0 467478.0 0
272510.0 467565.0 0
276339.0 467655.0 0
280168.0 467754.0 0
283999.0 467871.0 0
287839.0 467999.0 0
291695.0 468126.0 0
295570.0 468231.0 0
299457.0 468299.0 0
314956.0 468149.0 0
318812.0 468009.0 0
322672.0 467817.0 0
326536.0 467554.0 0
330404.0 467196.0 0
341051.0 468725.0 0
344887.0 468336.0 0
348724.0 467925.0 0
352562.0 467484.0 0
356395.0 467015.0 0
360221.0 466520.0 0
366555.0 468903.0 0
370390.0 468359.0 0
374225.0 467791.0 0
378066.0 467188.0 0
384580.0 469306.0 0
388452.0 468572.0 0
392304.0 467791.0 0
398871.0 469704.0 0
402667.0 468800.0 0
409200.0 470632.0 0
412923.0 469583.0 0
419725.0 470740.0 0
427222.0 470992.0 0
78795.2 473642.0 0
82888.9 474857.0 0
85650.1 470094.0 0
89484.7 471202.0 0
93312.7 472293.0 0
99999.8 470566.0 0
104265.0 471251.0 0
108465.0 471761.0 0
112378.0 472192.0 0
118755.0 469733.0 0
122667.0 470407.0 0
126579.0 471069.0 0
130489.0 471694.0 0
136961.0 469436.0 0
140854.0 469967.0 0
144736.0 470473.0 0
148613.0 470957.0 0
152500.0 471413.0 0
159438.0 469720.0 0
163270.0 470110.0 0
167097.0 470449.0 0
190420.0 471427.0 0
217619.0 471159.0 0
221432.0 470972.0 0
225241.0 470824.0 0
229036.0 470717.0 0
232818.0 470637.0 0
236593.0 470577.0 0
240364.0 470534.0 0
244132.0 470508.0 0
247901.0 470501.0 0
251673.0 470515.0 0
255450.0 470548.0 0
259236.0 470600.0 0
263034.0 470666.0 0
266844.0 470742.0 0
270667.0 470820.0 0
274499.0 470903.0 0
278335.0 470994.0 0
282176.0 471095.0 0
286025.0 471206.0 0
303346.0 468325.0 0
307227.0 468307.0 0
311096.0 468248.0 0
320995.0 471177.0 0
324867.0 470961.0 0
328732.0 470666.0 0
333346.0 469453.0 0
337214.0 469102.0 0
347341.0 471272.0 0
351185.0 470851.0 0
355032.0 470401.0 0
358877.0 469925.0 0
362718.0 469425.0 0
372946.0 471247.0 0
376817.0 470651.0 0
380697.0 470009.0 0
387271.0 472088.0 0
391162.0 471341.0 0
395032.0 470548.0 0
405431.0 471599.0 0
412073.0 473395.0 0
415923.0 472217.0 0
423051.0 472917.0 0
79914.9 477453.0 0
86709.0 473936.0 0
90513.2 475056.0 0
97176.3 473277.0 0
101499.0 473981.0 0
105816.0 474564.0 0
116227.0 472637.0 0
120118.0 473243.0 0
124037.0 473912.0 0
134397.0 472278.0 0
138297.0 472826.0 0
142187.0 473342.0 0
146065.0 473827.0 0
157133.0 472813.0 0
160986.0 473239.0 0
170938.0 470743.0 0
174809.0 470980.0 0
178704.0 471154.0 0
182613.0 471273.0 0
186516.0 471350.0 0
194343.0 471535.0 0
198319.0 471676.0 0
202257.0 471686.0 0
206152.0 471631.0 0
210006.0 471527.0 0
213815.0 471357.0 0
289887.0 471317.0 0
293764.0 471416.0 0
297655.0 471491.0 0
301554.0 471535.0 0
305454.0 471542.0 0
309350.0 471511.0 0
313238.0 471442.0 0
317119.0 471333.0 0
323155.0 474374.0 0
327021.0 474146.0 0
331944.0 472576.0 0
335816.0 472341.0 0
339663.0 472024.0 0
343500.0 471663.0 0
353630.0 473801.0 0
357493.0 473340.0 0
361356.0 472854.0 0
365219.0 472343.0 0
369081.0 471809.0 0
375505.0 474135.0 0
379415.0 473502.0 0
383362.0 472798.0 0
389976.0 474896.0 0
393879.0 474141.0 0
397762.0 473344.0 0
401616.0 472500.0 0
408228.0 474429.0 0
415023.0 476074.0 0
419094.0 474645.0 0
422446.0 476822.0 0
426517.0 474883.0 0
85609.0 477754.0 0
94383.3 476043.0 0
98758.9 476767.0 0
103123.0 477372.0 0
109763.0 475130.0 0
113670.0 475626.0 0
117559.0 476144.0 0
121471.0 476745.0 0
127949.0 474553.0 0
131863.0 475152.0 0
135774.0 475713.0 0
139678.0 476243.0 0
143572.0 476741.0 0
149940.0 474268.0 0
153823.0 474636.0 0
158736.0 476396.0 0
164839.0 473592.0 0
168705.0 473888.0 0
172590.0 474128.0 0
176495.0 474313.0 0
180412.0 474449.0 0
184333.0 474545.0 0
188251.0 474619.0 0
192172.0 474694.0 0
196111.0 474779.0 0
200075.0 474853.0 0
204017.0 474860.0 0
207926.0 474825.0 0
211790.0 474746.0 0
215586.0 474546.0 0
219409.0 474324.0 0
223240.0 474162.0 0
227053.0 474058.0 0
230848.0 473989.0 0
234635.0 473934.0 0
238419.0 473893.0 0
242201.0 473866.0 0
245984.0 473853.0 0
249769.0 473857.0 0
253560.0 473878.0 0
257357.0 473914.0 0
261164.0 473965.0 0
264981.0 474026.0 0
268809.0 474094.0 0
272645.0 474168.0 0
276488.0 474249.0 0
280338.0 474339.0 0
284196.0 474435.0 0
288064.0 474533.0 0
291946.0 474624.0 0
295840.0 474700.0 0
299746.0 474753.0 0
303657.0 474777.0 0
307569.0 474769.0 0
311478.0 474729.0 0
315381.0 474653.0 0
319274.0 474538.0 0
325280.0 477621.0 0
330464.0 475678.0 0
334340.0 475560.0 0
338205.0 475318.0 0
342060.0 475001.0 0
345913.0 474636.0 0
349769.0 474234.0 0
359949.0 476295.0 0
363834.0 475797.0 0
367720.0 475274.0 0
371609.0 474722.0 0
378044.0 477030.0 0
382070.0 476264.0 0
386062.0 475612.0 0
396596.0 476980.0 0
400494.0 476184.0 0
404372.0 475339.0 0
411066.0 477212.0 0
91610.8 478872.0 0
96025.3 479597.0 0
107124.0 478011.0 0
111061.0 478572.0 0
114979.0 479098.0 0
125430.0 477444.0 0
129357.0 478056.0 0
133281.0 478629.0 0
137201.0 479170.0 0
147457.0 477196.0 0
151339.0 477580.0 0
155224.0 477846.0 0
162599.0 476763.0 0
166478.0 477061.0 0
170377.0 477302.0 0
174292.0 477493.0 0
178218.0 477638.0 0
182150.0 477746.0 0
186082.0 477826.0 0
190014.0 477892.0 0
193953.0 477955.0 0
197905.0 478012.0 0
201869.0 478055.0 0
205822.0 478066.0 0
209751.0 478059.0 0
213634.0 478021.0 0
217402.0 477700.0 0
221235.0 477489.0 0
225060.0 477387.0 0
228860.0 477335.0 0
232657.0 477289.0 0
236452.0 477253.0 0
240247.0 477226.0 0
244044.0 477211.0 0
247843.0 477208.0 0
251647.0 477219.0 0
255456.0 477243.0 0
259273.0 477281.0 0
263098.0 477329.0 0
266933.0 477386.0 0
270775.0 477450.0 0
274626.0 477521.0 0
278483.0 477600.0 0
282348.0 477684.0 0
286224.0 477771.0 0
290111.0 477854.0 0
294009.0 477927.0 0
297919.0 477983.0 0
301836.0 478018.0 0
305759.0 478028.0 0
309682.0 478011.0 0
313601.0 477966.0 0
317511.0 477892.0 0
321406.0 477781.0 0
328899.0 478777.0 0
332783.0 478761.0 0
336671.0 478600.0 0
340551.0 478339.0 0
344427.0 478009.0 0
348303.0 477630.0 0
352182.0 477213.0 0
356065.0 476767.0 0
362401.0 479263.0 0
366308.0 478755.0 0
370216.0 478218.0 0
374127.0 477647.0 0
384687.0 479086.0 0
388760.0 478462.0 0
392680.0 477737.0 0
399304.0 479865.0 0
403218.0 479070.0 0
407109.0 478228.0 0
93296.4 482473.0 0
100439.0 480237.0 0
104498.0 480897.0 0
108449.0 481503.0 0
112388.0 482057.0 0
118888.0 479642.0 0
122807.0 480235.0 0
126887.0 480998.0 0
130820.0 481577.0 0
141115.0 479681.0 0
145024.0 480156.0 0
148926.0 480572.0 0
152825.0 480888.0 0
156721.0 481052.0 0
160394.0 479979.0 0
164275.0 480272.0 0
168180.0 480508.0 0
172102.0 480698.0 0
176037.0 480847.0 0
179978.0 480961.0 0
183921.0 481047.0 0
187863.0 481113.0 0
191807.0 481166.0 0
195758.0 481211.0 0
199721.0 481248.0 0
203690.0 481276.0 0
207658.0 481301.0 0
211613.0 481342.0 0
215511.0 481401.0 0
219221.0 480815.0 0
223049.0 480696.0 0
226844.0 480677.0 0
230651.0 480641.0 0
234460.0 480611.0 0
238270.0 480588.0 0
242081.0 480572.0 0
245895.0 480565.0 0
249712.0 480569.0 0
253534.0 480584.0 0
257362.0 480611.0 0
261196.0 480648.0 0
265039.0 480694.0 0
268889.0 480748.0 0
272746.0 480809.0 0
276611.0 480877.0 0
280483.0 480951.0 0
284365.0 481028.0 0
288257.0 481103.0 0
292160.0 481172.0 0
296073.0 481229.0 0
299995.0 481270.0 0
303923.0 481292.0 0
307854.0 481292.0 0
311784.0 481273.0 0
315709.0 481233.0 0
319619.0 481172.0 0
323507.0 481080.0 0
338970.0 481669.0 0
342875.0 481383.0 0
346778.0 481033.0 0
350682.0 480636.0 0
354587.0 480205.0 0
358493.0 479747.0 0
368773.0 481732.0 0
372697.0 481183.0 0
376622.0 480592.0 0
380755.0 479747.0 0
387278.0 481946.0 0
391444.0 481348.0 0
395370.0 480615.0 0
409947.0 481021.0 0
97747.1 483131.0 0
105864.0 484457.0 0
116315.0 482592.0 0
120238.0 483139.0 0
124168.0 483709.0 0
128396.0 484568.0 0
134751.0 482125.0 0
138683.0 482644.0 0
142615.0 483132.0 0
146548.0 483580.0 0
150477.0 483952.0 0
154401.0 484190.0 0
162110.0 483540.0 0
220946.0 483939.0 0
224759.0 484008.0 0
228599.0 483983.0 0
232434.0 483965.0 0
236264.0 483949.0 0
240093.0 483935.0 0
243923.0 483927.0 0
247755.0 483927.0 0
251590.0 483935.0 0
255430.0 483953.0 0
259275.0 483981.0 0
263127.0 484017.0 0
266985.0 484061.0 0
270850.0 484113.0 0
327252.0 481889.0 0
331148.0 481953.0 0
335059.0 481868.0 0
345194.0 484439.0 0
349128.0 484065.0 0
353059.0 483652.0 0
356989.0 483209.0 0
360919.0 482740.0 0
364847.0 482248.0 0
375154.0 484178.0 0
379421.0 483241.0 0
383352.0 482610.0 0
389848.0 484840.0 0
394102.0 484268.0 0
398031.0 483535.0 0
402003.0 482796.0 0
95038.9 486045.0 0
101898.0 483829.0 0
109813.0 485029.0 0
113755.0 485568.0 0
117692.0 486098.0 0
121625.0 486636.0 0
132331.0 485114.0 0
136271.0 485633.0 0
140217.0 486125.0 0
144172.0 486586.0 0
158324.0 484257.0 0
166011.0 483758.0 0
169935.0 483936.0 0
173875.0 484080.0 0
177823.0 484196.0 0
181773.0 484286.0 0
185722.0 484353.0 0
189672.0 484404.0 0
193624.0 484442.0 0
197582.0 484470.0 0
201548.0 484492.0 0
205523.0 484517.0 0
209507.0 484564.0 0
213505.0 484688.0 0
274722.0 484172.0 0
278601.0 484236.0 0
282489.0 484303.0 0
286386.0 484371.0 0
290292.0 484435.0 0
294208.0 484491.0 0
298133.0 484535.0 0
302064.0 484565.0 0
305999.0 484578.0 0
309935.0 484577.0 0
313869.0 484562.0 0
317793.0 484541.0 0
321695.0 484510.0 0
325518.0 485016.0 0
329438.0 485143.0 0
333374.0 485127.0 0
337316.0 484987.0 0
341258.0 484753.0 0
355440.0 486678.0 0
359392.0 486225.0 0
363340.0 485751.0 0
367283.0 485257.0 0
371221.0 484736.0 0
378060.0 486737.0 0
381995.0 486149.0 0
385923.0 485516.0 0
392402.0 487768.0 0
396732.0 487224.0 0
400663.0 486505.0 0
99280.1 486771.0 0
103326.0 487458.0 0
107273.0 488040.0 0
111218.0 488578.0 0
115171.0 489092.0 0
119114.0 489614.0 0
125563.0 487174.0 0
129946.0 488150.0 0
133883.0 488663.0 0
137830.0 489150.0 0
141790.0 489610.0 0
148140.0 487011.0 0
152108.0 487334.0 0
156085.0 487469.0 0
160029.0 487481.0 0
163881.0 487068.0 0
167798.0 487217.0 0
171738.0 487345.0 0
175689.0 487454.0 0
179643.0 487544.0 0
183598.0 487614.0 0
187552.0 487665.0 0
191505.0 487701.0 0
195459.0 487723.0 0
199414.0 487737.0 0
203373.0 487751.0 0
207332.0 487781.0 0
211283.0 487868.0 0
215195.0 488148.0 0
218660.0 486875.0 0
222554.0 487302.0 0
226487.0 487295.0 0
230370.0 487304.0 0
234229.0 487304.0 0
238080.0 487298.0 0
241929.0 487292.0 0
245777.0 487290.0 0
249627.0 487294.0 0
253479.0 487306.0 0
257336.0 487326.0 0
261197.0 487354.0 0
265064.0 487390.0 0
268936.0 487433.0 0
272816.0 487482.0 0
276702.0 487537.0 0
280595.0 487596.0 0
284497.0 487657.0 0
288408.0 487716.0 0
292326.0 487770.0 0
296253.0 487815.0 0
300185.0 487850.0 0
304122.0 487873.0 0
308061.0 487883.0 0
311998.0 487886.0 0
315929.0 487888.0 0
319846.0 487906.0 0
323709.0 488180.0 0
327644.0 488320.0 0
331624.0 488380.0 0
335597.0 488300.0 0
339569.0 488112.0 0
343551.0 487843.0 0
347522.0 487497.0 0
351485.0 487103.0 0
361793.0 489259.0 0
365751.0 488791.0 0
369701.0 488300.0 0
373643.0 487780.0 0
384543.0 489102.0 0
388474.0 488459.0 0
399327.0 490231.0 0
404648.0 486610.0 0
96623.4 489707.0 0
100765.0 490453.0 0
104787.0 491107.0 0
108716.0 491643.0 0
112681.0 492123.0 0
123053.0 490135.0 0
126993.0 490639.0 0
131527.0 491742.0 0
135468.0 492220.0 0
145761.0 490042.0 0
149779.0 490449.0 0
153883.0 490666.0 0
157864.0 490757.0 0
161810.0 490748.0 0
165697.0 490557.0 0
169630.0 490650.0 0
173580.0 490742.0 0
177536.0 490826.0 0
181494.0 490895.0 0
185451.0 490948.0 0
189406.0 490985.0 0
193357.0 491007.0 0
197306.0 491017.0 0
201252.0 491021.0 0
205196.0 491032.0 0
209137.0 491081.0 0
213073.0 491227.0 0
220177.0 490476.0 0
224377.0 490556.0 0
228290.0 490618.0 0
232172.0 490650.0 0
236044.0 490658.0 0
239912.0 490658.0 0
243778.0 490658.0 0
247644.0 490660.0 0
251510.0 490668.0 0
255379.0 490682.0 0
259250.0 490704.0 0
263126.0 490732.0 0
267007.0 490767.0 0
270894.0 490808.0 0
274786.0 490855.0 0
278686.0 490906.0 0
282593.0 490960.0 0
286507.0 491013.0 0
290429.0 491064.0 0
294357.0 491110.0 0
298291.0 491148.0 0
302229.0 491177.0 0
306169.0 491197.0 0
310106.0 491212.0 0
314038.0 491227.0 0
317958.0 491259.0 0
321848.0 491397.0 0
325788.0 491526.0 0
329761.0 491587.0 0
333830.0 491610.0 0
337822.0 491477.0 0
341829.0 491227.0 0
345871.0 490928.0 0
349874.0 490555.0 0
353852.0 490154.0 0
357825.0 489718.0 0
368141.0 491871.0 0
372090.0 491389.0 0
376662.0 490235.0 0
380605.0 489694.0 0
391010.0 491431.0 0
394947.0 490730.0 0
403313.0 490383.0 0
94985.9 493337.0 0
116632.0 492631.0 0
120575.0 493142.0 0
124516.0 493640.0 0
128458.0 494108.0 0
139422.0 492671.0 0
143392.0 493099.0 0
147374.0 493505.0 0
151623.0 493808.0 0
155711.0 494007.0 0
159685.0 494078.0 0
163638.0 494063.0 0
167553.0 494004.0 0
171498.0 494063.0 0
175453.0 494134.0 0
179412.0 494199.0 0
183371.0 494252.0 0
187328.0 494291.0 0
191280.0 494315.0 0
195227.0 494325.0 0
199168.0 494326.0 0
203103.0 494323.0 0
207033.0 494333.0 0
210966.0 494396.0 0
214919.0 494521.0 0
218614.0 494108.0 0
222334.0 493773.0 0
226217.0 493914.0 0
230101.0 493987.0 0
233989.0 494014.0 0
237877.0 494024.0 0
241762.0 494028.0 0
245644.0 494031.0 0
249525.0 494038.0 0
253406.0 494048.0 0
257288.0 494065.0 0
261174.0 494087.0 0
265063.0 494115.0 0
268956.0 494149.0 0
272856.0 494188.0 0
276761.0 494232.0 0
280673.0 494278.0 0
284591.0 494327.0 0
288516.0 494374.0 0
292447.0 494419.0 0
296383.0 494459.0 0
340095.0 494625.0 0
344121.0 494333.0 0
348214.0 494006.0 0
352221.0 493631.0 0
356222.0 493217.0 0
360217.0 492770.0 0
364183.0 492329.0 0
375218.0 493731.0 0
379171.0 493243.0 0
383119.0 492692.0 0
387070.0 492093.0 0
393544.0 494427.0 0
397471.0 493740.0 0
98926.1 493951.0 0
102864.0 494525.0 0
106450.0 496221.0 0
110244.0 495206.0 0
114182.0 495688.0 0
118125.0 496186.0 0
122068.0 496681.0 0
133136.0 495343.0 0
137080.0 495782.0 0
141040.0 496192.0 0
145015.0 496593.0 0
149241.0 496869.0 0
300322.0 494493.0 0
304263.0 494520.0 0
308203.0 494543.0 0
312138.0 494566.0 0
316065.0 494601.0 0
319980.0 494680.0 0
323919.0 494772.0 0
327888.0 494834.0 0
331876.0 494834.0 0
336035.0 494845.0 0
350541.0 497107.0 0
354571.0 496719.0 0
358608.0 496281.0 0
362579.0 495871.0 0
366542.0 495446.0 0
370496.0 495002.0 0
377684.0 496790.0 0
381647.0 496292.0 0
385604.0 495719.0 0
389597.0 495108.0 0
396075.0 497467.0 0
401004.0 495499.0 0
404737.0 494121.0 0
96482.1 497089.0 0
100438.0 497647.0 0
111739.0 498784.0 0
115689.0 499263.0 0
126010.0 497154.0 0
129953.0 497583.0 0
134774.0 498950.0 0
138722.0 499342.0 0
142688.0 499709.0 0
153471.0 497182.0 0
157546.0 497383.0 0
161528.0 497428.0 0
165496.0 497419.0 0
169439.0 497420.0 0
173392.0 497470.0 0
177350.0 497526.0 0
181311.0 497577.0 0
185270.0 497617.0 0
189226.0 497644.0 0
193176.0 497657.0 0
197119.0 497658.0 0
201053.0 497649.0 0
204979.0 497636.0 0
208907.0 497633.0 0
212865.0 497678.0 0
218179.0 498067.0 0
224067.0 497177.0 0
227989.0 497317.0 0
231909.0 497366.0 0
235822.0 497387.0 0
239728.0 497398.0 0
243628.0 497406.0 0
247524.0 497413.0 0
251418.0 497423.0 0
255312.0 497436.0 0
259207.0 497454.0 0
263104.0 497476.0 0
267006.0 497503.0 0
270911.0 497536.0 0
274822.0 497572.0 0
278739.0 497613.0 0
282661.0 497656.0 0
286590.0 497699.0 0
290524.0 497742.0 0
294462.0 497783.0 0
298404.0 497819.0 0
302347.0 497852.0 0
306290.0 497880.0 0
310230.0 497909.0 0
314166.0 497944.0 0
318098.0 497998.0 0
322041.0 498062.0 0
326007.0 498112.0 0
329994.0 498126.0 0
333991.0 498085.0 0
338319.0 498023.0 0
342389.0 497769.0 0
346450.0 497430.0 0
356959.0 499790.0 0
360935.0 499414.0 0
364903.0 499022.0 0
368863.0 498615.0 0
373724.0 497229.0 0
384116.0 499355.0 0
388087.0 498762.0 0
392141.0 498131.0 0
399625.0 499239.0 0
403559.0 498547.0 0
98037.3 500813.0 0
104038.0 499359.0 0
107966.0 499950.0 0
119639.0 499752.0 0
123590.0 500230.0 0
127536.0 500676.0 0
131480.0 501059.0 0
136456.0 502557.0 0
146903.0 499975.0 0
151088.0 500268.0 0
155277.0 500593.0 0
159406.0 500777.0 0
163405.0 500792.0 0
167382.0 500804.0 0
171342.0 500831.0 0
175304.0 500876.0 0
179266.0 500923.0 0
183229.0 500962.0 0
187190.0 500990.0 0
191147.0 501006.0 0
195096.0 501011.0 0
199038.0 501002.0 0
202970.0 500981.0 0
206896.0 500947.0 0
210832.0 500895.0 0
214967.0 500821.0 0
218566.0 502067.0 0
221970.0 500396.0 0
225869.0 500646.0 0
229816.0 500712.0 0
233756.0 500747.0 0
237684.0 500769.0 0
241602.0 500783.0 0
245513.0 500795.0 0
249420.0 500805.0 0
253324.0 500817.0 0
257229.0 500832.0 0
261134.0 500850.0 0
265043.0 500872.0 0
268955.0 500898.0 0
272871.0 500928.0 0
276792.0 500962.0 0
280719.0 500999.0 0
284651.0 501039.0 0
288588.0 501079.0 0
292529.0 501119.0 0
296473.0 501157.0 0
300419.0 501193.0 0
304366.0 501226.0 0
308311.0 501258.0 0
312255.0 501293.0 0
316198.0 501336.0 0
320149.0 501382.0 0
324114.0 501421.0 0
328096.0 501438.0 0
332091.0 501421.0 0
336234.0 501269.0 0
340602.0 501199.0 0
344725.0 500893.0 0
348765.0 500555.0 0
352868.0 500220.0 0
363222.0 502596.0 0
367188.0 502226.0 0
372179.0 500729.0 0
376142.0 500338.0 0
380108.0 499886.0 0
394650.0 501218.0 0
101655.0 502520.0 0
106770.0 503744.0 0
113254.0 502362.0 0
117216.0 502848.0 0
121182.0 503323.0 0
125144.0 503792.0 0
129101.0 504205.0 0
133054.0 504526.0 0
140419.0 502885.0 0
144588.0 503107.0 0
148749.0 503400.0 0
152877.0 503717.0 0
157102.0 504014.0 0
161322.0 504156.0 0
165316.0 504176.0 0
169295.0 504207.0 0
173264.0 504245.0 0
177231.0 504287.0 0
181200.0 504324.0 0
185168.0 504352.0 0
189133.0 504371.0 0
193093.0 504378.0 0
197047.0 504373.0 0
200993.0 504353.0 0
204932.0 504312.0 0
208870.0 504237.0 0
212827.0 504075.0 0
223691.0 503990.0 0
227722.0 504059.0 0
231694.0 504103.0 0
235640.0 504138.0 0
239572.0 504164.0 0
243495.0 504181.0 0
247413.0 504195.0 0
251327.0 504208.0 0
255240.0 504221.0 0
259154.0 504236.0 0
263069.0 504254.0 0
266987.0 504274.0 0
270909.0 504298.0 0
274835.0 504326.0 0
278766.0 504358.0 0
282701.0 504392.0 0
286641.0 504429.0 0
290585.0 504467.0 0
294532.0 504506.0 0
298481.0 504543.0 0
302432.0 504579.0 0
306382.0 504615.0 0
310332.0 504650.0 0
314283.0 504687.0 0
318240.0 504725.0 0
322207.0 504756.0 0
326187.0 504773.0 0
330176.0 504764.0 0
334321.0 504635.0 0
338486.0 504464.0 0
342927.0 504343.0 0
347037.0 504045.0 0
351077.0 503702.0 0
355262.0 503296.0 0
359246.0 502953.0 0
370583.0 504227.0 0
374551.0 503888.0 0
378519.0 503481.0 0
382547.0 502977.0 0
386587.0 502431.0 0
390608.0 501796.0 0
400079.0 503184.0 0
404013.0 502511.0 0
98871.4 505359.0 0
103521.0 506046.0 0
110487.0 505185.0 0
114785.0 505957.0 0
118783.0 506432.0 0
122751.0 506907.0 0
138210.0 506136.0 0
142351.0 506308.0 0
146430.0 506561.0 0
150518.0 506885.0 0
154687.0 507176.0 0
159038.0 507395.0 0
210862.0 507509.0 0
214747.0 507282.0 0
218367.0 505930.0 0
225721.0 507435.0 0
229678.0 507466.0 0
345224.0 507510.0 0
349326.0 507224.0 0
353490.0 506789.0 0
357513.0 506487.0 0
361495.0 506163.0 0
365468.0 505830.0 0
376882.0 507081.0 0
380940.0 506593.0 0
384998.0 506076.0 0
388981.0 505580.0 0
392933.0 504995.0 0
396870.0 505522.0 0
402578.0 506293.0 0
98562.3 509332.0 0
108185.0 508431.0 0
112158.0 508922.0 0
116375.0 509545.0 0
126744.0 507362.0 0
130736.0 507731.0 0
134714.0 507966.0 0
140205.0 509581.0 0
163254.0 507545.0 0
167245.0 507582.0 0
171224.0 507627.0 0
175200.0 507666.0 0
179176.0 507701.0 0
183151.0 507729.0 0
187126.0 507749.0 0
191098.0 507758.0 0
195066.0 507756.0 0
199029.0 507740.0 0
202985.0 507704.0 0
206930.0 507637.0 0
216790.0 510437.0 0
221806.0 507685.0 0
233616.0 507515.0 0
237549.0 507550.0 0
241477.0 507575.0 0
245403.0 507593.0 0
249325.0 507608.0 0
253245.0 507621.0 0
257166.0 507634.0 0
261087.0 507648.0 0
265011.0 507664.0 0
268938.0 507683.0 0
272869.0 507705.0 0
276804.0 507731.0 0
280742.0 507760.0 0
284685.0 507792.0 0
288632.0 507828.0 0
292582.0 507865.0 0
296534.0 507904.0 0
300487.0 507942.0 0
304442.0 507979.0 0
308397.0 508016.0 0
312355.0 508051.0 0
316316.0 508084.0 0
320286.0 508111.0 0
324267.0 508126.0 0
328258.0 508126.0 0
332386.0 508007.0 0
336550.0 507859.0 0
340803.0 507628.0 0
359724.0 509721.0 0
363703.0 509425.0 0
368932.0 507719.0 0
372905.0 507431.0 0
391450.0 508704.0 0
395470.0 509257.0 0
399471.0 509030.0 0
102948.0 509986.0 0
120353.0 510037.0 0
124339.0 510494.0 0
128412.0 510918.0 0
132494.0 511230.0 0
136658.0 511288.0 0
144199.0 509799.0 0
148185.0 510082.0 0
152312.0 510375.0 0
156652.0 510570.0 0
160990.0 510787.0 0
165186.0 510954.0 0
169178.0 511013.0 0
173166.0 511057.0 0
177151.0 511092.0 0
181136.0 511119.0 0
185120.0 511139.0 0
189104.0 511149.0 0
193086.0 511149.0 0
197066.0 511136.0 0
201043.0 511106.0 0
205017.0 511053.0 0
208982.0 510958.0 0
212921.0 510806.0 0
220228.0 511876.0 0
223931.0 510974.0 0
227742.0 510869.0 0
231623.0 510916.0 0
235537.0 510952.0 0
239463.0 510979.0 0
243392.0 511001.0 0
247319.0 511019.0 0
251246.0 511033.0 0
255172.0 511045.0 0
259100.0 511056.0 0
263029.0 511068.0 0
266962.0 511082.0 0
270897.0 511098.0 0
274835.0 511118.0 0
278776.0 511142.0 0
282722.0 511169.0 0
286670.0 511201.0 0
290622.0 511236.0 0
294577.0 511274.0 0
298533.0 511313.0 0
302491.0 511352.0 0
306450.0 511390.0 0
310413.0 511426.0 0
314379.0 511458.0 0
318351.0 511483.0 0
322332.0 511496.0 0
326321.0 511497.0 0
330455.0 511400.0 0
334595.0 511262.0 0
338855.0 511039.0 0
343102.0 510819.0 0
347471.0 510716.0 0
351745.0 510319.0 0
355734.0 510018.0 0
367224.0 511207.0 0
371194.0 510967.0 0
375178.0 510667.0 0
379304.0 510211.0 0
383371.0 509713.0 0
387380.0 509242.0 0
100266.0 512942.0 0
105951.0 512605.0 0
109906.0 512195.0 0
113866.0 512596.0 0
117934.0 513166.0 0
121950.0 513649.0 0
126020.0 514057.0 0
130195.0 514436.0 0
134522.0 514597.0 0
138493.0 514725.0 0
142032.0 513085.0 0
145950.0 513365.0 0
149881.0 513648.0 0
153791.0 514021.0 0
157699.0 514356.0 0
161603.0 514647.0 0
165501.0 514849.0 0
169410.0 514934.0 0
173339.0 514982.0 0
177278.0 515015.0 0
181227.0 515038.0 0
185180.0 515051.0 0
189136.0 515055.0 0
193093.0 515049.0 0
197051.0 515028.0 0
201010.0 514991.0 0
204972.0 514931.0 0
208940.0 514837.0 0
212918.0 514703.0 0
216901.0 514393.0 0
225663.0 514510.0 0
229583.0 514340.0 0
233508.0 514374.0 0
237441.0 514398.0 0
241376.0 514420.0 0
245311.0 514441.0 0
249244.0 514457.0 0
253175.0 514469.0 0
257108.0 514477.0 0
261044.0 514485.0 0
264981.0 514494.0 0
268920.0 514506.0 0
272861.0 514520.0 0
276805.0 514538.0 0
280752.0 514560.0 0
284703.0 514587.0 0
288656.0 514619.0 0
292612.0 514656.0 0
296570.0 514695.0 0
300530.0 514735.0 0
304493.0 514774.0 0
308459.0 514811.0 0
312428.0 514843.0 0
316404.0 514868.0 0
320386.0 514884.0 0
324375.0 514884.0 0
328494.0 514792.0 0
332648.0 514685.0 0
336895.0 514463.0 0
341143.0 514243.0 0
345336.0 514067.0 0
349882.0 513811.0 0
353958.0 513571.0 0
357941.0 513285.0 0
361910.0 512998.0 0
365466.0 514688.0 0
369428.0 514504.0 0
373415.0 514234.0 0
377590.0 513807.0 0
381729.0 513353.0 0
385745.0 512890.0 0
389717.0 512460.0 0
393686.0 512827.0 0
397671.0 512604.0 0
101654.0 516686.0 0
105650.0 516584.0 0
109626.0 516171.0 0
113606.0 516559.0 0
117569.0 517086.0 0
142475.0 517035.0 0
221826.0 515362.0 0
231459.0 517808.0 0
235410.0 517826.0 0
239358.0 517850.0 0
347326.0 517476.0 0
351307.0 517460.0 0
355273.0 517282.0 0
359240.0 517030.0 0
383537.0 516898.0 0
387490.0 516472.0 0
391456.0 516180.0 0
395436.0 516420.0 0
399427.0 516319.0 0
121534.0 517568.0 0
125508.0 517944.0 0
129482.0 518292.0 0
133472.0 518358.0 0
137990.0 518572.0 0
146743.0 517258.0 0
151268.0 517378.0 0
155416.0 517628.0 0
159385.0 517936.0 0
163354.0 518194.0 0
167329.0 518340.0 0
171297.0 518401.0 0
175261.0 518440.0 0
179225.0 518463.0 0
183191.0 518477.0 0
187160.0 518481.0 0
191130.0 518476.0 0
195102.0 518459.0 0
199076.0 518425.0 0
203053.0 518371.0 0
207037.0 518293.0 0
211024.0 518183.0 0
215008.0 518058.0 0
218969.0 518051.0 0
223612.0 518801.0 0
227503.0 518014.0 0
243297.0 517872.0 0
247239.0 517892.0 0
251176.0 517907.0 0
255115.0 517912.0 0
259057.0 517915.0 0
263000.0 517921.0 0
266943.0 517927.0 0
270888.0 517937.0 0
274833.0 517949.0 0
278781.0 517966.0 0
282732.0 517988.0 0
286685.0 518015.0 0
290641.0 518049.0 0
294600.0 518087.0 0
298561.0 518127.0 0
302525.0 518167.0 0
306493.0 518205.0 0
310466.0 518239.0 0
314444.0 518265.0 0
318429.0 518283.0 0
322422.0 518289.0 0
326530.0 518200.0 0
330666.0 518099.0 0
334945.0 517912.0 0
339182.0 517684.0 0
343335.0 517522.0 0
363122.0 517831.0 0
367574.0 518032.0 0
371616.0 517792.0 0
375599.0 517531.0 0
379572.0 517242.0 0
100825.0 520597.0 0
104818.0 520494.0 0
108796.0 520184.0 0
112770.0 520457.0 0
116718.0 520954.0 0
120677.0 521436.0 0
124680.0 521791.0 0
128668.0 522143.0 0
132659.0 522197.0 0
136642.0 522236.0 0
141252.0 520838.0 0
145228.0 520952.0 0
149202.0 520799.0 0
153175.0 520914.0 0
157147.0 521221.0 0
161136.0 521503.0 0
165197.0 521708.0 0
169240.0 521813.0 0
173230.0 521863.0 0
177214.0 521893.0 0
181197.0 521910.0 0
185179.0 521916.0 0
189163.0 521912.0 0
193148.0 521898.0 0
197135.0 521870.0 0
201124.0 521823.0 0
205115.0 521753.0 0
209109.0 521664.0 0
213097.0 521560.0 0
217078.0 521524.0 0
221053.0 521837.0 0
225545.0 522188.0 0
229441.0 521481.0 0
233389.0 521272.0 0
237335.0 521281.0 0
241283.0 521321.0 0
245226.0 521330.0 0
249176.0 521357.0 0
253121.0 521361.0 0
257071.0 521359.0 0
261020.0 521360.0 0
264969.0 521362.0 0
268916.0 521367.0 0
272864.0 521376.0 0
276812.0 521388.0 0
280762.0 521403.0 0
284713.0 521425.0 0
288667.0 521454.0 0
292624.0 521491.0 0
296584.0 521530.0 0
300547.0 521571.0 0
304516.0 521610.0 0
308491.0 521645.0 0
312471.0 521673.0 0
316458.0 521693.0 0
320452.0 521702.0 0
324576.0 521626.0 0
328691.0 521526.0 0
332942.0 521350.0 0
337233.0 521152.0 0
341350.0 520996.0 0
345336.0 520941.0 0
349317.0 520907.0 0
353304.0 520867.0 0
357275.0 520692.0 0
361190.0 521280.0 0
365188.0 521233.0 0
369779.0 521323.0 0
373810.0 521096.0 0
377818.0 520826.0 0
381842.0 520512.0 0
385950.0 520281.0 0
390000.0 520212.0 0
394000.0 520220.0 0
398000.0 520243.0 0
102120.0 524384.0 0
106119.0 524285.0 0
110118.0 524206.0 0
114116.0 524330.0 0
118249.0 524627.0 0
142920.0 524465.0 0
146905.0 524697.0 0
150897.0 524536.0 0
154893.0 524585.0 0
158898.0 524803.0 0
199187.0 525283.0 0
203186.0 525227.0 0
207182.0 525142.0 0
211163.0 525070.0 0
215134.0 524982.0 0
231207.0 525056.0 0
235199.0 524824.0 0
239198.0 524780.0 0
243178.0 524829.0 0
247158.0 524797.0 0
255090.0 524812.0 0
259046.0 524813.0 0
263000.0 524810.0 0
266950.0 524813.0 0
270900.0 524816.0 0
274848.0 524827.0 0
278796.0 524834.0 0
282744.0 524853.0 0
286694.0 524874.0 0
290645.0 524908.0 0
294601.0 524946.0 0
298562.0 524987.0 0
338730.0 524830.0 0
342710.0 524733.0 0
346690.0 524678.0 0
350669.0 524637.0 0
354643.0 524603.0 0
358610.0 524446.0 0
378398.0 524757.0 0
382357.0 524462.0 0
386327.0 524269.0 0
390308.0 524208.0 0
394295.0 524223.0 0
398289.0 524247.0 0
122388.0 525027.0 0
126392.0 525379.0 0
130653.0 525598.0 0
134659.0 525642.0 0
139038.0 525403.0 0
163000.0 525028.0 0
167132.0 525193.0 0
171196.0 525286.0 0
175200.0 525326.0 0
179197.0 525348.0 0
183195.0 525357.0 0
187191.0 525357.0 0
191189.0 525346.0 0
195187.0 525324.0 0
219091.0 525307.0 0
223075.0 525295.0 0
227091.0 525799.0 0
251125.0 524835.0 0
302530.0 525025.0 0
306504.0 525060.0 0
310486.0 525091.0 0
314475.0 525114.0 0
318471.0 525124.0 0
322596.0 525051.0 0
326730.0 524974.0 0
330748.0 524928.0 0
334743.0 524892.0 0
362544.0 525005.0 0
366510.0 524996.0 0
370474.0 525223.0 0
374438.0 525016.0 0
101638.0 528357.0 0
105629.0 528276.0 0
109614.0 528198.0 0
113589.0 528316.0 0
117551.0 528555.0 0
121500.0 528890.0 0
125452.0 529221.0 0
129424.0 529357.0 0
133409.0 529386.0 0
137429.0 529058.0 0
141665.0 528391.0 0
145649.0 528565.0 0
149634.0 528495.0 0
153619.0 528543.0 0
157599.0 528623.0 0
161572.0 528756.0 0
165540.0 528849.0 0
169508.0 528897.0 0
173473.0 528915.0 0
177439.0 528921.0 0
181406.0 528911.0 0
185376.0 528895.0 0
189349.0 528870.0 0
193327.0 528837.0 0
197311.0 528786.0 0
201301.0 528733.0 0
205293.0 528640.0 0
209293.0 528603.0 0
213282.0 528500.0 0
217227.0 529149.0 0
221206.0 528821.0 0
225172.0 529289.0 0
229703.0 528752.0 0
233679.0 528583.0 0
237660.0 528445.0 0
241730.0 528601.0 0
245718.0 528509.0 0
249701.0 528701.0 0
253674.0 528531.0 0
257650.0 528540.0 0
261625.0 528537.0 0
265600.0 528548.0 0
269575.0 528554.0 0
273553.0 528576.0 0
277531.0 528584.0 0
281515.0 528616.0 0
285502.0 528643.0 0
289495.0 528694.0 0
293492.0 528744.0 0
297509.0 528804.0 0
301532.0 528856.0 0
305577.0 528909.0 0
309614.0 528952.0 0
313641.0 528984.0 0
317641.0 528993.0 0
321692.0 528903.0 0
325781.0 528828.0 0
329814.0 528804.0 0
333832.0 528770.0 0
337835.0 528709.0 0
341839.0 528621.0 0
345838.0 528569.0 0
349837.0 528527.0 0
353847.0 528502.0 0
357858.0 528417.0 0
361824.0 528908.0 0
365851.0 528937.0 0
369843.0 529140.0 0
373837.0 528945.0 0
377934.0 528709.0 0
381987.0 528436.0 0
385997.0 528275.0 0
390000.0 528212.0 0
394000.0 528220.0 0
398000.0 528243.0 0
102016.0 532339.0 0
106016.0 532262.0 0
110015.0 532210.0 0
114014.0 532328.0 0
118016.0 532521.0 0
142100.0 532359.0 0
150080.0 532493.0 0
206169.0 532529.0 0
214357.0 532339.0 0
230373.0 532644.0 0
238329.0 532370.0 0
246281.0 532458.0 0
254238.0 532480.0 0
258227.0 532485.0 0
262219.0 532474.0 0
266211.0 532482.0 0
270206.0 532479.0 0
274200.0 532499.0 0
278195.0 532496.0 0
282189.0 532528.0 0
286183.0 532548.0 0
290174.0 532603.0 0
346039.0 532550.0 0
350037.0 532503.0 0
354035.0 532480.0 0
358033.0 532429.0 0
382022.0 532431.0 0
386017.0 532275.0 0
390016.0 532212.0 0
394015.0 532220.0 0
398014.0 532243.0 0
122069.0 532824.0 0
126201.0 533113.0 0
130193.0 533248.0 0
134185.0 533270.0 0
138160.0 532985.0 0
146087.0 532547.0 0
154077.0 532541.0 0
158075.0 532622.0 0
162076.0 532721.0 0
166087.0 532805.0 0
170096.0 532845.0 0
174103.0 532854.0 0
178109.0 532854.0 0
182123.0 532833.0 0
186137.0 532808.0 0
190179.0 532767.0 0
194178.0 532730.0 0
198176.0 532675.0 0
202173.0 532627.0 0
210166.0 532522.0 0
218292.0 533041.0 0
222275.0 532671.0 0
226401.0 533084.0 0
234352.0 532584.0 0
242301.0 532613.0 0
250257.0 532702.0 0
294164.0 532654.0 0
298153.0 532721.0 0
302141.0 532778.0 0
306129.0 532839.0 0
310117.0 532888.0 0
314106.0 532925.0 0
318095.0 532933.0 0
322082.0 532853.0 0
326071.0 532797.0 0
330062.0 532785.0 0
334054.0 532749.0 0
338048.0 532687.0 0
342043.0 532603.0 0
362053.0 532873.0 0
366051.0 532929.0 0
370047.0 533108.0 0
374041.0 532920.0 0
378032.0 532691.0 0
101997.0 536338.0 0
106000.0 536262.0 0
110000.0 536211.0 0
113997.0 536328.0 0
117992.0 536516.0 0
121980.0 536804.0 0
125968.0 537076.0 0
129964.0 537214.0 0
133964.0 537231.0 0
137960.0 536972.0 0
141982.0 536378.0 0
145978.0 536545.0 0
149977.0 536493.0 0
153975.0 536540.0 0
157973.0 536621.0 0
161969.0 536717.0 0
165965.0 536799.0 0
169962.0 536837.0 0
173958.0 536844.0 0
177953.0 536843.0 0
181948.0 536820.0 0
185942.0 536792.0 0
189935.0 536748.0 0
193928.0 536710.0 0
197921.0 536653.0 0
201913.0 536611.0 0
205903.0 536510.0 0
209894.0 536523.0 0
213877.0 536299.0 0
217800.0 537025.0 0
221769.0 536635.0 0
225738.0 537019.0 0
229698.0 536539.0 0
233943.0 536563.0 0
237936.0 536339.0 0
241972.0 536598.0 0
245969.0 536437.0 0
249989.0 536692.0 0
253982.0 536465.0 0
257980.0 536469.0 0
261979.0 536452.0 0
265977.0 536459.0 0
269976.0 536452.0 0
273974.0 536473.0 0
277973.0 536464.0 0
281972.0 536496.0 0
285971.0 536512.0 0
289970.0 536570.0 0
293971.0 536621.0 0
297977.0 536690.0 0
301979.0 536748.0 0
305983.0 536810.0 0
309985.0 536860.0 0
313988.0 536898.0 0
317988.0 536904.0 0
321992.0 536827.0 0
325994.0 536782.0 0
329995.0 536773.0 0
333996.0 536737.0 0
337997.0 536674.0 0
341997.0 536591.0 0
345997.0 536538.0 0
349996.0 536487.0 0
353996.0 536466.0 0
357996.0 536429.0 0
361974.0 536847.0 0
365980.0 536927.0 0
369976.0 537084.0 0
373988.0 536902.0 0
377997.0 536676.0 0
382000.0 536429.0 0
386000.0 536275.0 0
390000.0 536213.0 0
394000.0 536220.0 0
398000.0 536243.0 0
102000.0 540336.0 0
106000.0 540262.0 0
110000.0 540211.0 0
214031.0 540288.0 0
230083.0 540481.0 0
238064.0 540327.0 0
386000.0 540275.0 0
390000.0 540213.0 0
394000.0 540220.0 0
398000.0 540243.0 0
114000.0 540328.0 0
118000.0 540512.0 0
122000.0 540790.0 0
125996.0 541051.0 0
129993.0 541192.0 0
133993.0 541205.0 0
138028.0 540963.0 0
142000.0 540378.0 0
146001.0 540545.0 0
150000.0 540494.0 0
154000.0 540541.0 0
158000.0 540621.0 0
162001.0 540713.0 0
166002.0 540796.0 0
170003.0 540833.0 0
174003.0 540839.0 0
178003.0 540836.0 0
182004.0 540811.0 0
186005.0 540783.0 0
190006.0 540738.0 0
194007.0 540700.0 0
198009.0 540642.0 0
202009.0 540604.0 0
206007.0 540501.0 0
210007.0 540521.0 0
218029.0 541016.0 0
222051.0 540642.0 0
226117.0 540990.0 0
234076.0 540560.0 0
242049.0 540597.0 0
246041.0 540429.0 0
250028.0 540691.0 0
254018.0 540460.0 0
258015.0 540462.0 0
262012.0 540441.0 0
266010.0 540447.0 0
270008.0 540436.0 0
274007.0 540458.0 0
278006.0 540441.0 0
282005.0 540474.0 0
286005.0 540486.0 0
290004.0 540546.0 0
294003.0 540598.0 0
298002.0 540669.0 0
302002.0 540726.0 0
306002.0 540789.0 0
310001.0 540839.0 0
314001.0 540877.0 0
318001.0 540882.0 0
322001.0 540809.0 0
326000.0 540773.0 0
330000.0 540764.0 0
334000.0 540726.0 0
338000.0 540663.0 0
342000.0 540581.0 0
346000.0 540527.0 0
350000.0 540475.0 0
354000.0 540456.0 0
358000.0 540430.0 0
362007.0 540826.0 0
366006.0 540925.0 0
370008.0 541065.0 0
374004.0 540889.0 0
378000.0 540666.0 0
382000.0 540429.0 0
102000.0 544335.0 0
106000.0 544262.0 0
110000.0 544211.0 0
114000.0 544328.0 0
118000.0 544509.0 0
122000.0 544781.0 0
126002.0 545031.0 0
130002.0 545174.0 0
134002.0 545185.0 0
137995.0 544955.0 0
142000.0 544378.0 0
146000.0 544545.0 0
150000.0 544494.0 0
154000.0 544541.0 0
158000.0 544621.0 0
162000.0 544711.0 0
166000.0 544793.0 0
170000.0 544830.0 0
174000.0 544835.0 0
178000.0 544832.0 0
182000.0 544806.0 0
186000.0 544777.0 0
190000.0 544731.0 0
194000.0 544693.0 0
197999.0 544634.0 0
202000.0 544599.0 0
205999.0 544495.0 0
210000.0 544521.0 0
213996.0 544282.0 0
217983.0 545014.0 0
221966.0 544641.0 0
225951.0 544978.0 0
229952.0 544447.0 0
233999.0 544559.0 0
237995.0 544321.0 0
242000.0 544595.0 0
245998.0 544423.0 0
250000.0 544690.0 0
254000.0 544456.0 0
258000.0 544457.0 0
262000.0 544432.0 0
266000.0 544438.0 0
270000.0 544423.0 0
274000.0 544445.0 0
278000.0 544424.0 0
282000.0 544457.0 0
286000.0 544465.0 0
290000.0 544528.0 0
294000.0 544579.0 0
298000.0 544651.0 0
302000.0 544709.0 0
306000.0 544772.0 0
310000.0 544823.0 0
314000.0 544862.0 0
318000.0 544866.0 0
322000.0 544795.0 0
326000.0 544766.0 0
330000.0 544756.0 0
334000.0 544718.0 0
338000.0 544655.0 0
342000.0 544573.0 0
346000.0 544519.0 0
350000.0 544465.0 0
354000.0 544448.0 0
358000.0 544430.0 0
361999.0 544810.0 0
365999.0 544925.0 0
369998.0 545051.0 0
374000.0 544878.0 0
378000.0 544658.0 0
382000.0 544429.0 0
386000.0 544275.0 0
390000.0 544213.0 0
394000.0 544220.0 0
398000.0 544243.0 0
102000.0 548333.0 0
106000.0 548262.0 0
110000.0 548211.0 0
114000.0 548328.0 0
118000.0 548507.0 0
122000.0 548774.0 0
126000.0 549016.0 0
129999.0 549161.0 0
133999.0 549170.0 0
138001.0 548948.0 0
142000.0 548378.0 0
146000.0 548545.0 0
150000.0 548494.0 0
154000.0 548541.0 0
158000.0 548621.0 0
162000.0 548709.0 0
166000.0 548790.0 0
170000.0 548828.0 0
174000.0 548833.0 0
178000.0 548830.0 0
182000.0 548802.0 0
186000.0 548772.0 0
190000.0 548726.0 0
194000.0 548688.0 0
198000.0 548629.0 0
202000.0 548596.0 0
206000.0 548491.0 0
210000.0 548520.0 0
214000.0 548277.0 0
218000.0 549012.0 0
222001.0 548642.0 0
226016.0 548971.0 0
230005.0 548422.0 0
234002.0 548558.0 0
238000.0 548316.0 0
242000.0 548594.0 0
246000.0 548419.0 0
250000.0 548689.0 0
254000.0 548453.0 0
258000.0 548454.0 0
262000.0 548426.0 0
266000.0 548432.0 0
270000.0 548414.0 0
274000.0 548436.0 0
278000.0 548411.0 0
282000.0 548445.0 0
286000.0 548450.0 0
290000.0 548514.0 0
294000.0 548566.0 0
298000.0 548638.0 0
302000.0 548696.0 0
306000.0 548760.0 0
310000.0 548812.0 0
314000.0 548851.0 0
318000.0 548854.0 0
322000.0 548786.0 0
326000.0 548760.0 0
330000.0 548750.0 0
334000.0 548712.0 0
338000.0 548649.0 0
342000.0 548567.0 0
346000.0 548513.0 0
350000.0 548457.0 0
354000.0 548443.0 0
358000.0 548430.0 0
362000.0 548797.0 0
366000.0 548924.0 0
370000.0 549040.0 0
374000.0 548870.0 0
378000.0 548653.0 0
382000.0 548429.0 0
386000.0 548275.0 0
390000.0 548213.0 0
394000.0 548220.0 0
398000.0 548243.0 0
102000.0 552332.0 0
106000.0 552262.0 0
110000.0 552211.0 0
114000.0 552328.0 0
118000.0 552506.0 0
122000.0 552771.0 0
126000.0 553007.0 0
130000.0 553153.0 0
134000.0 553161.0 0
138000.0 552943.0 0
142000.0 552378.0 0
146000.0 552545.0 0
150000.0 552494.0 0
154000.0 552541.0 0
158000.0 552621.0 0
162000.0 552707.0 0
166000.0 552789.0 0
170000.0 552827.0 0
174000.0 552832.0 0
178000.0 552828.0 0
182000.0 552800.0 0
186000.0 552769.0 0
190000.0 552722.0 0
194000.0 552685.0 0
198000.0 552625.0 0
202000.0 552594.0 0
206000.0 552488.0 0
210000.0 552520.0 0
214000.0 552274.0 0
218000.0 553011.0 0
222000.0 552642.0 0
225998.0 552966.0 0
230000.0 552405.0 0
234000.0 552558.0 0
238000.0 552313.0 0
242000.0 552593.0 0
246000.0 552416.0 0
250000.0 552688.0 0
254000.0 552451.0 0
258000.0 552453.0 0
262000.0 552423.0 0
266000.0 552428.0 0
270000.0 552408.0 0
274000.0 552431.0 0
278000.0 552402.0 0
282000.0 552437.0 0
286000.0 552440.0 0
290000.0 552505.0 0
294000.0 552556.0 0
298000.0 552630.0 0
302000.0 552688.0 0
306000.0 552753.0 0
310000.0 552804.0 0
314000.0 552844.0 0
318000.0 552846.0 0
322000.0 552781.0 0
326000.0 552756.0 0
330000.0 552747.0 0
334000.0 552708.0 0
338000.0 552645.0 0
342000.0 552563.0 0
346000.0 552509.0 0
350000.0 552452.0 0
354000.0 552439.0 0
358000.0 552430.0 0
362000.0 552789.0 0
366000.0 552924.0 0
370000.0 553034.0 0
374000.0 552865.0 0
378000.0 552649.0 0
382000.0 552429.0 0
386000.0 552275.0 0
390000.0 552213.0 0
394000.0 552220.0 0
398000.0 552243.0 0
102000.0 556331.0 0
106000.0 556262.0 0
110000.0 556211.0 0
114000.0 556328.0 0
118000.0 556505.0 0
122000.0 556769.0 0
126000.0 557002.0 0
130000.0 557149.0 0
134000.0 557156.0 0
138000.0 556941.0 0
142000.0 556378.0 0
146000.0 556545.0 0
150000.0 556494.0 0
154000.0 556541.0 0
158000.0 556621.0 0
162000.0 556707.0 0
166000.0 556788.0 0
170000.0 556826.0 0
174000.0 556831.0 0
178000.0 556827.0 0
182000.0 556799.0 0
186000.0 556768.0 0
190000.0 556721.0 0
194000.0 556683.0 0
198000.0 556623.0 0
202000.0 556593.0 0
206000.0 556486.0 0
210000.0 556520.0 0
214000.0 556272.0 0
218000.0 557011.0 0
222000.0 556642.0 0
226000.0 556964.0 0
230000.0 556396.0 0
234000.0 556558.0 0
238000.0 556312.0 0
242000.0 556593.0 0
246000.0 556414.0 0
250000.0 556688.0 0
254000.0 556450.0 0
258000.0 556452.0 0
262000.0 556421.0 0
266000.0 556426.0 0
270000.0 556405.0 0
274000.0 556428.0 0
278000.0 556398.0 0
282000.0 556432.0 0
286000.0 556435.0 0
290000.0 556500.0 0
294000.0 556552.0 0
298000.0 556626.0 0
302000.0 556684.0 0
306000.0 556749.0 0
310000.0 556801.0 0
314000.0 556841.0 0
318000.0 556843.0 0
322000.0 556778.0 0
326000.0 556754.0 0
330000.0 556745.0 0
334000.0 556706.0 0
338000.0 556643.0 0
342000.0 556562.0 0
346000.0 556507.0 0
350000.0 556450.0 0
354000.0 556437.0 0
358000.0 556430.0 0
362000.0 556784.0 0
366000.0 556924.0 0
370000.0 557030.0 0
374000.0 556862.0 0
378000.0 556648.0 0
382000.0 556429.0 0
386000.0 556275.0 0
390000.0 556213.0 0
394000.0 556220.0 0
398000.0 556243.0 0
POINT_DATA 4650
SCALARS Radius float 1
LOOKUP_TABLE default
4000.0 4000.0 4000.0 4000.0 4000.0 4000.0 4000.0 4000.0 4000.0 4000.0 4000.0 4000.0 4000.0 4000.0 4000.0 4000.0 4000.0 4000.0 4000.0 4000.0 4000.0 4000.0 4000.0 4000.0 4000.0 4000.0 4000.0 4000.0 4000.0 4000.0 4000.0 4000.0 4000.0 4000.0 4000.0 4000.0 4000.0 4000.0 4000.0 4000.0 4000.0 4000.0 4000.0 4000.0 4000.0 4000.0 4000.0 4000.0 4000.0 4000.0 4000.0 4000.0 4000.0 4000.0 4000.0 4000.0 4000.0 4000.0 4000.0 4000.0 4000.0 4000.0 4000.0 4000.0 4000.0 4000.0 4000.0 4000.0 4000.0 4000.0 4000.0 4000.0 4000.0 4000.0 4000.0 4000.0 4000.0 4000.0 4000.0 4000.0 4000.0 4000.0 4000.0 4000.0 4000.0 4000.0 4000.0 4000.0 4000.0 4000.0 4000.0 4000.0 4000.0 4000.0 4000.0 4000.0 4000.0 4000.0 4000.0 4000.0 4000.0 4000.0 4000.0 4000.0 4000.0 4000.0 4000.0 4000.0 4000.0 4000.0 4000.0 4000.0 4000.0 4000.0 4000.0 4000.0 4000.0 4000.0 4000.0 4000.0 4000.0 4000.0 4000.0 4000.0 4000.0 4000.0 4000.0 4000.0 4000.0 4000.0 4000.0 4000.0 4000.0 4000.0 4000.0 4000.0 4000.0 4000.0 4000.0 4000.0 4000.0 4000.0 4000.0 4000.0 4000.0 4000.0 4000.0 4000.0 4000.0 4000.0 4000.0 4000.0 4000.0 4000.0 4000.0 4000.0 4000.0 4000.0 4000.0 4000.0 4000.0 4000.0 4000.0 4000.0 4000.0 4000.0 4000.0 4000.0 4000.0 4000.0 4000.0 4000.0 4000.0 4000.0 4000.0 4000.0 4000.0 4000.0 4000.0 4000.0 4000.0 4000.0 4000.0 4000.0 4000.0 4000.0 4000.0 4000.0 4000.0 4000.0 4000.0 4000.0 4000.0 4000.0 4000.0 4000.0 4000.0 4000.0 4000.0 4000.0 4000.0 4000.0 4000.0 4000.0 4000.0 4000.0 4000.0 4000.0 4000.0 4000.0 4000.0 4000.0 4000.0 4000.0 4000.0 4000.0 4000.0 4000.0 4000.0 4000.0 4000.0 4000.0 4000.0 4000.0 4000.0 4000.0 4000.0 4000.0 4000.0 4000.0 4000.0 4000.0 4000.0 4000.0 4000.0 4000.0 4000.0 4000.0 4000.0 4000.0 4000.0 4000.0 4000.0 4000.0 4000.0 4000.0 4000.0 4000.0 4000.0 4000.0 4000.0 4000.0 4000.0 4000.0 4000.0 4000.0 4000.0 4000.0 4000.0 4000.0 4000.0 4000.0 4000.0 4000.0 4000.0 4000.0 4000.0 4000.0 4000.0 4000.0 4000.0 4000.0 4000.0 4000.0 4000.0 4000.0 4000.0 4000.0 4000.0 4000.0 4000.0 4000.0 4000.0 4000.0 4000.0 4000.0 4000.0 4000.0 4000.0 4000.0 4000.0 4000.0 4000.0 4000.0 4000.0 4000.0 4000.0 4000.0 4000.0 4000.0 4000.0 4000.0 4000.0 4000.0 4000.0 4000.0 4000.0 4000.0 4000.0 4000.0 4000.0 4000.0 4000.0 4000.0 4000.0 4000.0 4000.0 4000.0 4000.0 4000.0 4000.0 4000.0 4000.0 4000.0 4000.0 4000.0 4000.0 4000.0 4000.0 4000.0 4000.0 4000.0 4000.0 4000.0 4000.0 4000.0 4000.0 4000.0 4000.0 4000.0 4000.0 4000.0 4000.0 4000.0 4000.0 4000.0 4000.0 4000.0 4000.0 4000.0 4000.0 4000.0 4000.0 4000.0 4000.0 4000.0 4000.0 4000.0 4000.0 4000.0 4000.0 4000.0 4000.0 4000.0 4000.0 4000.0 4000.0 4000.0 4000.0 4000.0 4000.0 4000.0 4000.0 4000.0 4000.0 4000.0 4000.0 4000.0 4000.0 4000.0 4000.0 4000.0 4000.0 4000.0 4000.0 4000.0 4000.0 4000.0 4000.0 4000.0 4000.0 4000.0 4000.0 4000.0 4000.0 4000.0 4000.0 4000.0 4000.0 4000.0 4000.0 4000.0 4000.0 4000.0 4000.0 4000.0 4000.0 4000.0 4000.0 4000.0 4000.0 4000.0 4000.0 4000.0 4000.0 4000.0 4000.0 4000.0 4000.0 4000.0 4000.0 4000.0 4000.0 4000.0 4000.0 4000.0 4000.0 4000.0 4000.0 4000.0 4000.0 4000.0 4000.0 4000.0 4000.0 4000.0 4000.0 4000.0 4000.0 4000.0 4000.0 4000.0 4000.0 4000.0 4000.0 4000.0 4000.0 4000.0 4000.0 4000.0 4000.0 4000.0 4000.0 4000.0 4000.0 4000.0 4000.0 4000.0 4000.0 4000.0 4000.0 4000.0 4000.0 4000.0 4000.0 4000.0 4000.0 4000.0 4000.0 4000.0 4000.0 4000.0 4000.0 4000.0 4000.0 4000.0 4000.0 4000.0 4000.0 4000.0 4000.0 4000.0 4000.0 4000.0 4000.0 4000.0 4000.0 4000.0 4000.0 4000.0 4000.0 4000.0 4000.0 4000.0 4000.0 4000.0 4000.0 4000.0 4000.0 4000.0 4000.0 4000.0 4000.0 4000.0 4000.0 4000.0 4000.0 4000.0 4000.0 4000.0 4000.0 4000.0 4000.0 4000.0 4000.0 4000.0 4000.0 4000.0 4000.0 4000.0 4000.0 4000.0 4000.0 4000.0 4000.0 4000.0 4000.0 4000.0 4000.0 4000.0 4000.0 4000.0 4000.0 4000.0 4000.0 4000.0 4000.0 4000.0 4000.0 4000.0 4000.0 4000.0 4000.0 4000.0 4000.0 4000.0 4000.0 4000.0 4000.0 4000.0 4000.0 4000.0 4000.0 4000.0 4000.0 4000.0 4000.0 4000.0 4000.0 4000.0 4000.0 4000.0 4000.0 4000.0 4000.0 4000.0 4000.0 4000.0 4000.0 4000.0 4000.0 4000.0 4000.0 4000.0 4000.0 4000.0 4000.0 4000.0 4000.0 4000.0 4000.0 4000.0 4000.0 4000.0 4000.0 4000.0 4000.0 4000.0 4000.0 4000.0 4000.0 4000.0 4000.0 4000.0 4000.0 4000.0 4000.0 4000.0 4000.0 4000.0 4000.0 4000.0 4000.0 4000.0 4000.0 4000.0 4000.0 4000.0 4000.0 4000.0 4000.0 4000.0 4000.0 4000.0 4000.0 4000.0 4000.0 4000.0 4000.0 4000.0 4000.0 4000.0 4000.0 4000.0 4000.0 4000.0 4000.0 4000.0 4000.0 4000.0 4000.0 4000.0 4000.0 4000.0 4000.0 4000.0 4000.0 4000.0 4000.0 4000.0 4000.0 4000.0 4000.0 4000.0 4000.0 4000.0 4000.0 4000.0 4000.0 4000.0 4000.0 4000.0 4000.0 4000.0 4000.0 4000.0 4000.0 4000.0 4000.0 4000.0 4000.0 4000.0 4000.0 4000.0 4000.0 4000.0 4000.0 4000.0 4000.0 4000.0 4000.0 4000.0 4000.0 4000.0 4000.0 4000.0 4000.0 4000.0 4000.0 4000.0 4000.0 4000.0 4000.0 4000.0 4000.0 4000.0 4000.0 4000.0 4000.0 4000.0 4000.0 4000.0 4000.0 4000.0 4000.0 4000.0 4000.0 4000.0 4000.0 4000.0 4000.0 4000.0 4000.0 4000.0 4000.0 4000.0 4000.0 4000.0 4000.0 4000.0 4000.0 4000.0 4000.0 4000.0 4000.0 4000.0 4000.0 4000.0 4000.0 4000.0 4000.0 4000.0 4000.0 4000.0 4000.0 4000.0 4000.0 4000.0 4000.0 4000.0 4000.0 4000.0 4000.0 4000.0 4000.0 4000.0 4000.0 4000.0 4000.0 4000.0 4000.0 4000.0 4000.0 4000.0 4000.0 4000.0 4000.0 4000.0 4000.0 4000.0 4000.0 4000.0 4000.0 4000.0 4000.0 4000.0 4000.0 4000.0 4000.0 4000.0 4000.0 4000.0 4000.0 4000.0 4000.0 4000.0 4000.0 4000.0 4000.0 4000.0 4000.0 4000.0 4000.0 4000.0 4000.0 4000.0 4000.0 4000.0 4000.0 4000.0 4000.0 4000.0 4000.0 4000.0 4000.0 4000.0 4000.0 4000.0 4000.0 4000.0 4000.0 4000.0 4000.0 4000.0 4000.0 4000.0 4000.0 4000.0 4000.0 4000.0 4000.0 4000.0 4000.0 4000.0 4000.0 4000.0 4000.0 4000.0 4000.0 4000.0 4000.0 4000.0 4000.0 4000.0 4000.0 4000.0 4000.0 4000.0 4000.0 4000.0 4000.0 4000.0 4000.0 4000.0 4000.0 4000.0 4000.0 4000.0 4000.0 4000.0 4000.0 4000.0 4000.0 4000.0 4000.0 4000.0 4000.0 4000.0 4000.0 4000.0 4000.0 4000.0 4000.0 4000.0 4000.0 4000.0 4000.0 4000.0 4000.0 4000.0 4000.0 4000.0 4000.0 4000.0 4000.0 4000.0 4000.0 4000.0 4000.0 4000.0 4000.0 4000.0 4000.0 4000.0 4000.0 4000.0 4000.0 4000.0 4000.0 4000.0 4000.0 4000.0 4000.0 4000.0 4000.0 4000.0 4000.0 4000.0 4000.0 4000.0 4000.0 4000.0 4000.0 4000.0 4000.0 4000.0 4000.0 4000.0 4000.0 4000.0 4000.0 4000.0 4000.0 4000.0 4000.0 4000.0 4000.0 4000.0 4000.0 4000.0 4000.0 4000.0 4000.0 4000.0 4000.0 4000.0 4000.0 4000.0 4000.0 4000.0 4000.0 4000.0 4000.0 4000.0 4000.0 4000.0 4000.0 4000.0 4000.0 4000.0 4000.0 4000.0 4000.0 4000.0 4000.0 4000.0 4000.0 4000.0 4000.0 4000.0 4000.0 4000.0 4000.0 4000.0 4000.0 4000.0 4000.0 4000.0 4000.0 4000.0 4000.0 4000.0 4000.0 4000.0 4000.0 4000.0 4000.0 4000.0 4000.0 4000.0 4000.0 4000.0 4000.0 4000.0 4000.0 4000.0 4000.0 4000.0 4000.0 4000.0 4000.0 4000.0 4000.0 4000.0 4000.0 4000.0 4000.0 4000.0 4000.0 4000.0 4000.0 4000.0 4000.0 4000.0 4000.0 4000.0 4000.0 4000.0 4000.0 4000.0 4000.0 4000.0 4000.0 4000.0 4000.0 4000.0 4000.0 4000.0 4000.0 4000.0 4000.0 4000.0 4000.0 4000.0 4000.0 4000.0 4000.0 4000.0 4000.0 4000.0 4000.0 4000.0 4000.0 4000.0 4000.0 4000.0 4000.0 4000.0 4000.0 4000.0 4000.0 4000.0 4000.0 4000.0 4000.0 4000.0 4000.0 4000.0 4000.0 4000.0 4000.0 4000.0 4000.0 4000.0 4000.0 4000.0 4000.0 4000.0 4000.0 4000.0 4000.0 4000.0 4000.0 4000.0 4000.0 4000.0 4000.0 4000.0 4000.0 4000.0 4000.0 4000.0 4000.0 4000.0 4000.0 4000.0 4000.0 4000.0 4000.0 4000.0 4000.0 4000.0 4000.0 4000.0 4000.0 4000.0 4000.0 4000.0 4000.0 4000.0 4000.0 4000.0 4000.0 4000.0 4000.0 4000.0 4000.0 4000.0 4000.0 4000.0 4000.0 4000.0 4000.0 4000.0 4000.0 4000.0 4000.0 4000.0 4000.0 4000.0 4000.0 4000.0 4000.0 4000.0 4000.0 4000.0 4000.0 4000.0 4000.0 4000.0 4000.0 4000.0 4000.0 4000.0 4000.0 4000.0 4000.0 4000.0 4000.0 4000.0 4000.0 4000.0 4000.0 4000.0 4000.0 4000.0 4000.0 4000.0 4000.0 4000.0 4000.0 4000.0 4000.0 4000.0 4000.0 4000.0 4000.0 4000.0 4000.0 4000.0 4000.0 4000.0 4000.0 4000.0 4000.0 4000.0 4000.0 4000.0 4000.0 4000.0 4000.0 4000.0 4000.0 4000.0 4000.0 4000.0 4000.0 4000.0 4000.0 4000.0 4000.0 4000.0 4000.0 4000.0 4000.0 4000.0 4000.0 4000.0 4000.0 4000.0 4000.0 4000.0 4000.0 4000.0 4000.0 4000.0 4000.0 4000.0 4000.0 4000.0 4000.0 4000.0 4000.0 4000.0 4000.0 4000.0 4000.0 4000.0 4000.0 4000.0 4000.0 4000.0 4000.0 4000.0 4000.0 4000.0 4000.0 4000.0 4000.0 4000.0 4000.0 4000.0 4000.0 4000.0 4000.0 4000.0 4000.0 4000.0 4000.0 4000.0 4000.0 4000.0 4000.0 4000.0 4000.0 4000.0 4000.0 4000.0 4000.0 4000.0 4000.0 4000.0 4000.0 4000.0 4000.0 4000.0 4000.0 4000.0 4000.0 4000.0 4000.0 4000.0 4000.0 4000.0 4000.0 4000.0 4000.0 4000.0 4000.0 4000.0 4000.0 4000.0 4000.0 4000.0 4000.0 4000.0 4000.0 4000.0 4000.0 4000.0 4000.0 4000.0 4000.0 4000.0 4000.0 4000.0 4000.0 4000.0 4000.0 4000.0 4000.0 4000.0 4000.0 4000.0 4000.0 4000.0 4000.0 4000.0 4000.0 4000.0 4000.0 4000.0 4000.0 4000.0 4000.0 4000.0 4000.0 4000.0 4000.0 4000.0 4000.0 4000.0 4000.0 4000.0 4000.0 4000.0 4000.0 4000.0 4000.0 4000.0 4000.0 4000.0 4000.0 4000.0 4000.0 4000.0 4000.0 4000.0 4000.0 4000.0 4000.0 4000.0 4000.0 4000.0 4000.0 4000.0 4000.0 4000.0 4000.0 4000.0 4000.0 4000.0 4000.0 4000.0 4000.0 4000.0 4000.0 4000.0 4000.0 4000.0 4000.0 4000.0 4000.0 4000.0 4000.0 4000.0 4000.0 4000.0 4000.0 4000.0 4000.0 4000.0 4000.0 4000.0 4000.0 4000.0 4000.0 4000.0 4000.0 4000.0 4000.0 4000.0 4000.0 4000.0 4000.0 4000.0 4000.0 4000.0 4000.0 4000.0 4000.0 4000.0 4000.0 4000.0 4000.0 4000.0 4000.0 4000.0 4000.0 4000.0 4000.0 4000.0 4000.0 4000.0 4000.0 4000.0 4000.0 4000.0 4000.0 4000.0 4000.0 4000.0 4000.0 4000.0 4000.0 4000.0 4000.0 4000.0 4000.0 4000.0 4000.0 4000.0 4000.0 4000.0 4000.0 4000.0 4000.0 4000.0 4000.0 4000.0 4000.0 4000.0 4000.0 4000.0 4000.0 4000.0 4000.0 4000.0 4000.0 4000.0 4000.0 4000.0 4000.0 4000.0 4000.0 4000.0 4000.0 4000.0 4000.0 4000.0 4000.0 4000.0 4000.0 4000.0 4000.0 4000.0 4000.0 4000.0 4000.0 4000.0 4000.0 4000.0 4000.0 4000.0 4000.0 4000.0 4000.0 4000.0 4000.0 4000.0 4000.0 4000.0 4000.0 4000.0 4000.0 4000.0 4000.0 4000.0 4000.0 4000.0 4000.0 4000.0 4000.0 4000.0 4000.0 4000.0 4000.0 4000.0 4000.0 4000.0 4000.0 4000.0 4000.0 4000.0 4000.0 4000.0 4000.0 4000.0 4000.0 4000.0 4000.0 4000.0 4000.0 4000.0 4000.0 4000.0 4000.0 4000.0 4000.0 4000.0 4000.0 4000.0 4000.0 4000.0 4000.0 4000.0 4000.0 4000.0 4000.0 4000.0 4000.0 4000.0 4000.0 4000.0 4000.0 4000.0 4000.0 4000.0 4000.0 4000.0 4000.0 4000.0 4000.0 4000.0 4000.0 4000.0 4000.0 4000.0 4000.0 4000.0 4000.0 4000.0 4000.0 4000.0 4000.0 4000.0 4000.0 4000.0 4000.0 4000.0 4000.0 4000.0 4000.0 4000.0 4000.0 4000.0 4000.0 4000.0 4000.0 4000.0 4000.0 4000.0 4000.0 4000.0 4000.0 4000.0 4000.0 4000.0 4000.0 4000.0 4000.0 4000.0 4000.0 4000.0 4000.0 4000.0 4000.0 4000.0 4000.0 4000.0 4000.0 4000.0 4000.0 4000.0 4000.0 4000.0 4000.0 4000.0 4000.0 4000.0 4000.0 4000.0 4000.0 4000.0 4000.0 4000.0 4000.0 4000.0 4000.0 4000.0 4000.0 4000.0 4000.0 4000.0 4000.0 4000.0 4000.0 4000.0 4000.0 4000.0 4000.0 4000.0 4000.0 4000.0 4000.0 4000.0 4000.0 4000.0 4000.0 4000.0 4000.0 4000.0 4000.0 4000.0 4000.0 4000.0 4000.0 4000.0 4000.0 4000.0 4000.0 4000.0 4000.0 4000.0 4000.0 4000.0 4000.0 4000.0 4000.0 4000.0 4000.0 4000.0 4000.0 4000.0 4000.0 4000.0 4000.0 4000.0 4000.0 4000.0 4000.0 4000.0 4000.0 4000.0 4000.0 4000.0 4000.0 4000.0 4000.0 4000.0 4000.0 4000.0 4000.0 4000.0 4000.0 4000.0 4000.0 4000.0 4000.0 4000.0 4000.0 4000.0 4000.0 4000.0 4000.0 4000.0 4000.0 4000.0 4000.0 4000.0 4000.0 4000.0 4000.0 4000.0 4000.0 4000.0 4000.0 4000.0 4000.0 4000.0 4000.0 4000.0 4000.0 4000.0 4000.0 4000.0 4000.0 4000.0 4000.0 4000.0 4000.0 4000.0 4000.0 4000.0 4000.0 4000.0 4000.0 4000.0 4000.0 4000.0 4000.0 4000.0 4000.0 4000.0 4000.0 4000.0 4000.0 4000.0 4000.0 4000.0 4000.0 4000.0 4000.0 4000.0 4000.0 4000.0 4000.0 4000.0 4000.0 4000.0 4000.0 4000.0 4000.0 4000.0 4000.0 4000.0 4000.0 4000.0 4000.0 4000.0 4000.0 4000.0 4000.0 4000.0 4000.0 4000.0 4000.0 4000.0 4000.0 4000.0 4000.0 4000.0 4000.0 4000.0 4000.0 4000.0 4000.0 4000.0 4000.0 4000.0 4000.0 4000.0 4000.0 4000.0 4000.0 4000.0 4000.0 4000.0 4000.0 4000.0 4000.0 4000.0 4000.0 4000.0 4000.0 4000.0 4000.0 4000.0 4000.0 4000.0 4000.0 4000.0 4000.0 4000.0 4000.0 4000.0 4000.0 4000.0 4000.0 4000.0 4000.0 4000.0 4000.0 4000.0 4000.0 4000.0 4000.0 4000.0 4000.0 4000.0 4000.0 4000.0 4000.0 4000.0 4000.0 4000.0 4000.0 4000.0 4000.0 4000.0 4000.0 4000.0 4000.0 4000.0 4000.0 4000.0 4000.0 4000.0 4000.0 4000.0 4000.0 4000.0 4000.0 4000.0 4000.0 4000.0 4000.0 4000.0 4000.0 4000.0 4000.0 4000.0 4000.0 4000.0 4000.0 4000.0 4000.0 4000.0 4000.0 4000.0 4000.0 4000.0 4000.0 4000.0 4000.0 4000.0 4000.0 4000.0 4000.0 4000.0 4000.0 4000.0 4000.0 4000.0 4000.0 4000.0 4000.0 4000.0 4000.0 4000.0 4000.0 4000.0 4000.0 4000.0 4000.0 4000.0 4000.0 4000.0 4000.0 4000.0 4000.0 4000.0 4000.0 4000.0 4000.0 4000.0 4000.0 4000.0 4000.0 4000.0 4000.0 4000.0 4000.0 4000.0 4000.0 4000.0 4000.0 4000.0 4000.0 4000.0 4000.0 4000.0 4000.0 4000.0 4000.0 4000.0 4000.0 4000.0 4000.0 4000.0 4000.0 4000.0 4000.0 4000.0 4000.0 4000.0 4000.0 4000.0 4000.0 4000.0 4000.0 4000.0 4000.0 4000.0 4000.0 4000.0 4000.0 4000.0 4000.0 4000.0 4000.0 4000.0 4000.0 4000.0 4000.0 4000.0 4000.0 4000.0 4000.0 4000.0 4000.0 4000.0 4000.0 4000.0 4000.0 4000.0 4000.0 4000.0 4000.0 4000.0 4000.0 4000.0 4000.0 4000.0 4000.0 4000.0 4000.0 4000.0 4000.0 4000.0 4000.0 4000.0 4000.0 4000.0 4000.0 4000.0 4000.0 4000.0 4000.0 4000.0 4000.0 4000.0 4000.0 4000.0 4000.0 4000.0 4000.0 4000.0 4000.0 4000.0 4000.0 4000.0 4000.0 4000.0 4000.0 4000.0 4000.0 4000.0 4000.0 4000.0 4000.0 4000.0 4000.0 4000.0 4000.0 4000.0 4000.0 4000.0 4000.0 4000.0 4000.0 4000.0 4000.0 4000.0 4000.0 4000.0 4000.0 4000.0 4000.0 4000.0 4000.0 4000.0 4000.0 4000.0 4000.0 4000.0 4000.0 4000.0 4000.0 4000.0 4000.0 4000.0 4000.0 4000.0 4000.0 4000.0 4000.0 4000.0 4000.0 4000.0 4000.0 4000.0 4000.0 4000.0 4000.0 4000.0 4000.0 4000.0 4000.0 4000.0 4000.0 4000.0 4000.0 4000.0 4000.0 4000.0 4000.0 4000.0 4000.0 4000.0 4000.0 4000.0 4000.0 4000.0 4000.0 4000.0 4000.0 4000.0 4000.0 4000.0 4000.0 4000.0 4000.0 4000.0 4000.0 4000.0 4000.0 4000.0 4000.0 4000.0 4000.0 4000.0 4000.0 4000.0 4000.0 4000.0 4000.0 4000.0 4000.0 4000.0 4000.0 4000.0 4000.0 4000.0 4000.0 4000.0 4000.0 4000.0 4000.0 4000.0 4000.0 4000.0 4000.0 4000.0 4000.0 4000.0 4000.0 4000.0 4000.0 4000.0 4000.0 4000.0 4000.0 4000.0 4000.0 4000.0 4000.0 4000.0 4000.0 4000.0 4000.0 4000.0 4000.0 4000.0 4000.0 4000.0 4000.0 4000.0 4000.0 4000.0 4000.0 4000.0 4000.0 4000.0 4000.0 4000.0 4000.0 4000.0 4000.0 4000.0 4000.0 4000.0 4000.0 4000.0 4000.0 4000.0 4000.0 4000.0 4000.0 4000.0 4000.0 4000.0 4000.0 4000.0 4000.0 4000.0 4000.0 4000.0 4000.0 4000.0 4000.0 4000.0 4000.0 4000.0 4000.0 4000.0 4000.0 4000.0 4000.0 4000.0 4000.0 4000.0 4000.0 4000.0 4000.0 4000.0 4000.0 4000.0 4000.0 4000.0 4000.0 4000.0 4000.0 4000.0 4000.0 4000.0 4000.0 4000.0 4000.0 4000.0 4000.0 4000.0 4000.0 4000.0 4000.0 4000.0 4000.0 4000.0 4000.0 4000.0 4000.0 4000.0 4000.0 4000.0 4000.0 4000.0 4000.0 4000.0 4000.0 4000.0 4000.0 4000.0 4000.0 4000.0 4000.0 4000.0 4000.0 4000.0 4000.0 4000.0 4000.0 4000.0 4000.0 4000.0 4000.0 4000.0 4000.0 4000.0 4000.0 4000.0 4000.0 4000.0 4000.0 4000.0 4000.0 4000.0 4000.0 4000.0 4000.0 4000.0 4000.0 4000.0 4000.0 4000.0 4000.0 4000.0 4000.0 4000.0 4000.0 4000.0 4000.0 4000.0 4000.0 4000.0 4000.0 4000.0 4000.0 4000.0 4000.0 4000.0 4000.0 4000.0 4000.0 4000.0 4000.0 4000.0 4000.0 4000.0 4000.0 4000.0 4000.0 4000.0 4000.0 4000.0 4000.0 4000.0 4000.0 4000.0 4000.0 4000.0 4000.0 4000.0 4000.0 4000.0 4000.0 4000.0 4000.0 4000.0 4000.0 4000.0 4000.0 4000.0 4000.0 4000.0 4000.0 4000.0 4000.0 4000.0 4000.0 4000.0 4000.0 4000.0 4000.0 4000.0 4000.0 4000.0 4000.0 4000.0 4000.0 4000.0 4000.0 4000.0 4000.0 4000.0 4000.0 4000.0 4000.0 4000.0 4000.0 4000.0 4000.0 4000.0 4000.0 4000.0 4000.0 4000.0 4000.0 4000.0 4000.0 4000.0 4000.0 4000.0 4000.0 4000.0 4000.0 4000.0 4000.0 4000.0 4000.0 4000.0 4000.0 4000.0 4000.0 4000.0 4000.0 4000.0 4000.0 4000.0 4000.0 4000.0 4000.0 4000.0 4000.0 4000.0 4000.0 4000.0 4000.0 4000.0 4000.0 4000.0 4000.0 4000.0 4000.0 4000.0 4000.0 4000.0 4000.0 4000.0 4000.0 4000.0 4000.0 4000.0 4000.0 4000.0 4000.0 4000.0 4000.0 4000.0 4000.0 4000.0 4000.0 4000.0 4000.0 4000.0 4000.0 4000.0 4000.0 4000.0 4000.0 4000.0 4000.0 4000.0 4000.0 4000.0 4000.0 4000.0 4000.0 4000.0 4000.0 4000.0 4000.0 4000.0 4000.0 4000.0 4000.0 4000.0 4000.0 4000.0 4000.0 4000.0 4000.0 4000.0 4000.0 4000.0 4000.0 4000.0 4000.0 4000.0 4000.0 4000.0 4000.0 4000.0 4000.0 4000.0 4000.0 4000.0 4000.0 4000.0 4000.0 4000.0 4000.0 4000.0 4000.0 4000.0 4000.0 4000.0 4000.0 4000.0 4000.0 4000.0 4000.0 4000.0 4000.0 4000.0 4000.0 4000.0 4000.0 4000.0 4000.0 4000.0 4000.0 4000.0 4000.0 4000.0 4000.0 4000.0 4000.0 4000.0 4000.0 4000.0 4000.0 4000.0 4000.0 4000.0 4000.0 4000.0 4000.0 4000.0 4000.0 4000.0 4000.0 4000.0 4000.0 4000.0 4000.0 4000.0 4000.0 4000.0 4000.0 4000.0 4000.0 4000.0 4000.0 4000.0 4000.0 4000.0 4000.0 4000.0 4000.0 4000.0 4000.0 4000.0 4000.0 4000.0 4000.0 4000.0 4000.0 4000.0 4000.0 4000.0 4000.0 4000.0 4000.0 4000.0 4000.0 4000.0 4000.0 4000.0 4000.0 4000.0 4000.0 4000.0 4000.0 4000.0 4000.0 4000.0 4000.0 4000.0 4000.0 4000.0 4000.0 4000.0 4000.0 4000.0 4000.0 4000.0 4000.0 4000.0 4000.0 4000.0 4000.0 4000.0 4000.0 4000.0 4000.0 4000.0 4000.0 4000.0 4000.0 4000.0 4000.0 4000.0 4000.0 4000.0 4000.0 4000.0 4000.0 4000.0 4000.0 4000.0 4000.0 4000.0 4000.0 4000.0 4000.0 4000.0 4000.0 4000.0 4000.0 4000.0 4000.0 4000.0 4000.0 4000.0 4000.0 4000.0 4000.0 4000.0 4000.0 4000.0 4000.0 4000.0 4000.0 4000.0 4000.0 4000.0 4000.0 4000.0 4000.0 4000.0 4000.0 4000.0 4000.0 4000.0 4000.0 4000.0 4000.0 4000.0 4000.0 4000.0 4000.0 4000.0 4000.0 4000.0 4000.0 4000.0 4000.0 4000.0 4000.0 4000.0 4000.0 4000.0 4000.0 4000.0 4000.0 4000.0 4000.0 4000.0 4000.0 4000.0 4000.0 4000.0 4000.0 4000.0 4000.0 4000.0 4000.0 4000.0 4000.0 4000.0 4000.0 4000.0 4000.0 4000.0 4000.0 4000.0 4000.0 4000.0 4000.0 4000.0 4000.0 4000.0 4000.0 4000.0 4000.0 4000.0 4000.0 4000.0 4000.0 4000.0 4000.0 4000.0 4000.0 4000.0 4000.0 4000.0 4000.0 4000.0 4000.0 4000.0 4000.0 4000.0 4000.0 4000.0 4000.0 4000.0 4000.0 4000.0 4000.0 4000.0 4000.0 4000.0 4000.0 4000.0 4000.0 4000.0 4000.0 4000.0 4000.0 4000.0 4000.0 4000.0 4000.0 4000.0 4000.0 4000.0 4000.0 4000.0 4000.0 4000.0 4000.0 4000.0 4000.0 4000.0 4000.0 4000.0 4000.0 4000.0 4000.0 4000.0 4000.0 4000.0 4000.0 4000.0 4000.0 4000.0 4000.0 4000.0 4000.0 4000.0 4000.0 4000.0 4000.0 4000.0 4000.0 4000.0 4000.0 4000.0 4000.0 4000.0 4000.0 4000.0 4000.0 4000.0 4000.0 4000.0 4000.0 4000.0 4000.0 4000.0 4000.0 4000.0 4000.0 4000.0 4000.0 4000.0 4000.0 4000.0 4000.0 4000.0 4000.0 4000.0 4000.0 4000.0 4000.0 4000.0 4000.0 4000.0 4000.0 4000.0 4000.0 4000.0 4000.0 4000.0 4000.0 4000.0 4000.0 4000.0 4000.0 4000.0 4000.0 4000.0 4000.0 4000.0 4000.0 4000.0 4000.0 4000.0 4000.0 4000.0 4000.0 4000.0 4000.0 4000.0 4000.0 4000.0 4000.0 4000.0 4000.0 4000.0 4000.0 4000.0 4000.0 4000.0 4000.0 4000.0 4000.0 4000.0 4000.0 4000.0 4000.0 4000.0 4000.0 4000.0 4000.0 4000.0 4000.0 4000.0 4000.0 4000.0 4000.0 4000.0 4000.0 4000.0 4000.0 4000.0 4000.0 4000.0 4000.0 4000.0 4000.0 4000.0 4000.0 4000.0 4000.0 4000.0 4000.0 4000.0 4000.0 4000.0 4000.0 4000.0 4000.0 4000.0 4000.0 4000.0 4000.0 4000.0 4000.0 4000.0 4000.0 4000.0 4000.0 4000.0 4000.0 4000.0 4000.0 4000.0 4000.0 4000.0 4000.0 4000.0 4000.0 4000.0 4000.0 4000.0 4000.0 4000.0 4000.0 4000.0 4000.0 4000.0 4000.0 4000.0 4000.0 4000.0 4000.0 4000.0 4000.0 4000.0 4000.0 4000.0 4000.0 4000.0 4000.0 4000.0 4000.0 4000.0 4000.0 4000.0 4000.0 4000.0 4000.0 4000.0 4000.0 4000.0 4000.0 4000.0 4000.0 4000.0 4000.0 4000.0 4000.0 4000.0 4000.0 4000.0 4000.0 4000.0 4000.0 4000.0 4000.0 4000.0 4000.0 4000.0 4000.0 4000.0 4000.0 4000.0 4000.0 4000.0 4000.0 4000.0 4000.0 4000.0 4000.0 4000.0 4000.0 4000.0 4000.0 4000.0 4000.0 4000.0 4000.0 4000.0 4000.0 4000.0 4000.0 4000.0 4000.0 4000.0 4000.0 4000.0 4000.0 4000.0 4000.0 4000.0 4000.0 4000.0 4000.0 4000.0 4000.0 4000.0 4000.0 4000.0 4000.0 4000.0 4000.0 4000.0 4000.0 4000.0 4000.0 4000.0 4000.0 4000.0 4000.0 4000.0 4000.0 4000.0 4000.0 4000.0 4000.0 4000.0 4000.0 4000.0 4000.0 4000.0 4000.0 4000.0 4000.0 4000.0 4000.0 4000.0 4000.0 4000.0 4000.0 4000.0 4000.0 4000.0 4000.0 4000.0 4000.0 4000.0 4000.0 4000.0 4000.0 4000.0 4000.0 4000.0 4000.0 4000.0 4000.0 4000.0 4000.0 4000.0 4000.0 4000.0 4000.0 4000.0 4000.0 4000.0 4000.0 4000.0 4000.0 4000.0 4000.0 4000.0 4000.0 4000.0 4000.0 4000.0 4000.0 4000.0 4000.0 4000.0 4000.0 4000.0 4000.0 4000.0 4000.0 4000.0 4000.0 4000.0 4000.0 4000.0 4000.0 4000.0 4000.0 4000.0 4000.0 4000.0 4000.0 4000.0 4000.0 4000.0 4000.0 4000.0 4000.0 4000.0 4000.0 4000.0 4000.0 4000.0 4000.0 4000.0 4000.0 4000.0 4000.0 4000.0 4000.0 4000.0 4000.0 4000.0 4000.0 4000.0 4000.0 4000.0 4000.0 4000.0 4000.0 4000.0 4000.0 4000.0 4000.0 4000.0 4000.0 4000.0 4000.0 4000.0 4000.0 4000.0 4000.0 4000.0 4000.0 4000.0 4000.0 4000.0 4000.0 4000.0 4000.0 4000.0 4000.0 4000.0 4000.0 4000.0 4000.0 4000.0 4000.0 4000.0 4000.0 4000.0 4000.0 4000.0 4000.0 4000.0 4000.0 4000.0 4000.0 4000.0 4000.0 4000.0 4000.0 4000.0 4000.0 4000.0 4000.0 4000.0 4000.0 4000.0 4000.0 4000.0 4000.0 4000.0 4000.0 4000.0 4000.0 4000.0 4000.0 4000.0 4000.0 4000.0 4000.0 4000.0 4000.0 4000.0 4000.0 4000.0 4000.0 4000.0 4000.0 4000.0 4000.0 4000.0 4000.0 4000.0 4000.0 4000.0 4000.0 4000.0 4000.0 4000.0 4000.0 4000.0 4000.0 4000.0 4000.0 4000.0 4000.0 4000.0 4000.0 4000.0 4000.0 4000.0 4000.0 4000.0 4000.0 4000.0 4000.0 4000.0 4000.0 4000.0 4000.0 4000.0 4000.0 4000.0 4000.0 4000.0 4000.0 4000.0 4000.0 4000.0 4000.0 4000.0 4000.0 4000.0 4000.0 4000.0 4000.0 4000.0 4000.0 4000.0 4000.0 4000.0 4000.0 4000.0 4000.0 4000.0 4000.0 4000.0 4000.0 4000.0 4000.0 4000.0 4000.0 4000.0 4000.0 4000.0 4000.0 4000.0 4000.0 4000.0 4000.0 4000.0 4000.0 4000.0 4000.0 4000.0 4000.0 4000.0 4000.0 4000.0 4000.0 4000.0 4000.0 4000.0 4000.0 4000.0 4000.0 4000.0 4000.0 4000.0 4000.0 4000.0 4000.0 4000.0 4000.0 4000.0 4000.0 4000.0 4000.0 4000.0 4000.0 4000.0 4000.0 4000.0 4000.0 4000.0 4000.0 4000.0 4000.0 4000.0 4000.0 4000.0 4000.0 4000.0 4000.0 4000.0 4000.0 4000.0 4000.0 4000.0 4000.0 4000.0 4000.0 4000.0 4000.0 4000.0 4000.0 4000.0 4000.0 4000.0 4000.0 4000.0 4000.0 4000.0 4000.0 4000.0 4000.0 4000.0 4000.0 4000.0 4000.0 4000.0 4000.0 4000.0 4000.0 4000.0 4000.0 4000.0 4000.0 4000.0 4000.0 4000.0 4000.0 4000.0 4000.0 4000.0 4000.0 4000.0 4000.0 4000.0 4000.0 4000.0 4000.0 4000.0 4000.0 4000.0 4000.0 4000.0 4000.0 4000.0 4000.0 4000.0 4000.0 4000.0 4000.0 4000.0 4000.0 4000.0 4000.0 4000.0 4000.0 4000.0 4000.0 4000.0 4000.0 4000.0 4000.0 4000.0 4000.0 4000.0 4000.0 4000.0 4000.0 4000.0 4000.0 4000.0 4000.0 4000.0 4000.0 4000.0 4000.0 4000.0 4000.0 4000.0 4000.0 4000.0 4000.0 4000.0 4000.0 4000.0 4000.0 4000.0 4000.0 4000.0 4000.0 4000.0 4000.0 4000.0 4000.0 4000.0 4000.0 4000.0 4000.0 4000.0 4000.0 4000.0 4000.0 4000.0 4000.0 4000.0 4000.0 4000.0 4000.0 4000.0 4000.0 4000.0 4000.0 4000.0 4000.0 4000.0 4000.0 4000.0 4000.0 4000.0 4000.0 4000.0 4000.0 4000.0 4000.0 4000.0 4000.0 4000.0 4000.0 4000.0 4000.0 4000.0 4000.0 4000.0 4000.0 4000.0 4000.0 4000.0 4000.0 4000.0 4000.0 4000.0 4000.0 4000.0 4000.0 4000.0 4000.0 4000.0 4000.0 4000.0 4000.0 4000.0 4000.0 4000.0 4000.0 4000.0 4000.0 4000.0 4000.0 4000.0 4000.0 4000.0 4000.0 4000.0 4000.0 4000.0 4000.0 4000.0 4000.0 4000.0 4000.0 4000.0 4000.0 4000.0 4000.0 4000.0 4000.0 4000.0 4000.0 4000.0 4000.0 4000.0 4000.0 4000.0 4000.0 4000.0 4000.0 4000.0 4000.0 4000.0 4000.0 4000.0 4000.0 4000.0 4000.0 4000.0 4000.0 4000.0 4000.0 4000.0 4000.0 4000.0 4000.0 4000.0 4000.0 4000.0 4000.0 4000.0 4000.0 4000.0 4000.0 4000.0 4000.0 4000.0 4000.0 4000.0 4000.0 4000.0 4000.0 4000.0 4000.0 4000.0 4000.0 4000.0 4000.0 4000.0 4000.0 4000.0 4000.0 4000.0 4000.0 4000.0 4000.0 4000.0 4000.0 4000.0 4000.0 4000.0 4000.0 4000.0 4000.0 4000.0 4000.0 4000.0 4000.0 4000.0 4000.0 4000.0 4000.0 4000.0 4000.0 4000.0 4000.0 4000.0 4000.0 4000.0 4000.0 4000.0 4000.0 4000.0 4000.0 4000.0 4000.0 4000.0 4000.0 4000.0 4000.0 4000.0 4000.0 4000.0 4000.0 4000.0 4000.0 4000.0 4000.0 4000.0 4000.0 4000.0 4000.0 4000.0 4000.0 4000.0 4000.0 4000.0 4000.0 4000.0 4000.0 4000.0 4000.0 4000.0 4000.0 4000.0 4000.0 4000.0 4000.0 4000.0 4000.0 4000.0 4000.0 4000.0 4000.0 4000.0 4000.0 4000.0 4000.0 4000.0 4000.0 4000.0 4000.0 4000.0 4000.0 4000.0 4000.0 4000.0 4000.0 4000.0 4000.0 4000.0 4000.0 4000.0 4000.0 4000.0 4000.0 4000.0 4000.0 4000.0 4000.0 4000.0 4000.0 4000.0 4000.0 4000.0 4000.0 4000.0 4000.0 4000.0 4000.0 4000.0 4000.0 4000.0 4000.0 4000.0 4000.0 4000.0 4000.0 4000.0 4000.0 4000.0 4000.0 4000.0 4000.0 4000.0 4000.0 4000.0 4000.0 4000.0 4000.0 4000.0 4000.0 4000.0 4000.0 4000.0 4000.0 4000.0 4000.0 4000.0 4000.0 4000.0 4000.0 4000.0 4000.0 4000.0 4000.0 4000.0 4000.0 4000.0 4000.0 4000.0 4000.0 4000.0 4000.0 4000.0 4000.0 4000.0 4000.0 4000.0 4000.0 4000.0 4000.0 4000.0 4000.0 4000.0 4000.0 4000.0 4000.0 4000.0 4000.0 4000.0 4000.0 4000.0 4000.0 4000.0 4000.0 4000.0 4000.0 4000.0 4000.0 4000.0 4000.0 4000.0 4000.0 4000.0 4000.0 4000.0 4000.0 4000.0 4000.0 4000.0 4000.0 4000.0 4000.0 4000.0 4000.0 4000.0 4000.0 4000.0 4000.0 4000.0 4000.0 4000.0 4000.0 4000.0 4000.0 4000.0 4000.0 4000.0 4000.0 4000.0 4000.0 4000.0 4000.0 4000.0 4000.0 4000.0 4000.0 4000.0 4000.0 4000.0 4000.0 4000.0 4000.0 4000.0 4000.0 4000.0 4000.0 4000.0 4000.0 4000.0 4000.0 4000.0 4000.0 4000.0 4000.0 4000.0 4000.0 4000.0 4000.0 4000.0 4000.0 4000.0 4000.0 4000.0 4000.0 4000.0 4000.0 4000.0 4000.0 4000.0 4000.0 4000.0 4000.0 4000.0 4000.0 4000.0 4000.0 4000.0 4000.0 4000.0 4000.0 4000.0 4000.0 4000.0 4000.0 4000.0 4000.0 4000.0 4000.0 4000.0 4000.0 4000.0 4000.0 4000.0 4000.0 4000.0 4000.0 4000.0 4000.0 4000.0 4000.0 4000.0 4000.0 4000.0 4000.0 4000.0 4000.0 4000.0 4000.0 4000.0 4000.0 4000.0 4000.0 4000.0 4000.0 4000.0 4000.0 4000.0 4000.0 4000.0 4000.0 4000.0 4000.0 4000.0 4000.0 4000.0 4000.0 4000.0 4000.0 4000.0 4000.0 4000.0 4000.0 4000.0 4000.0 4000.0 4000.0 4000.0 4000.0 4000.0 4000.0 4000.0 4000.0 4000.0 4000.0 4000.0 4000.0 4000.0 4000.0 4000.0 4000.0 4000.0 4000.0 4000.0 4000.0 4000.0 4000.0 4000.0 4000.0 4000.0 4000.0 4000.0 4000.0 4000.0 4000.0 4000.0 4000.0 4000.0 4000.0 4000.0 4000.0 4000.0 4000.0 4000.0 4000.0 4000.0 4000.0 4000.0 4000.0 4000.0 4000.0 4000.0 4000.0 4000.0 4000.0 4000.0 4000.0 4000.0 4000.0 4000.0 4000.0 4000.0 4000.0 4000.0 4000.0 4000.0 4000.0 4000.0 4000.0 4000.0 4000.0 4000.0 4000.0 4000.0 4000.0 4000.0 4000.0 4000.0 4000.0 4000.0 4000.0 4000.0 4000.0 4000.0 4000.0 4000.0 4000.0 4000.0 4000.0 4000.0 4000.0 4000.0 4000.0 4000.0 4000.0 4000.0 4000.0 4000.0 4000.0 4000.0 4000.0 4000.0 4000.0 4000.0 4000.0 4000.0 4000.0 4000.0 4000.0 4000.0 4000.0 4000.0 4000.0 4000.0 4000.0 4000.0 4000.0 4000.0 4000.0 4000.0 4000.0 4000.0 4000.0 4000.0 4000.0 4000.0 4000.0 4000.0 4000.0 4000.0 4000.0 4000.0 4000.0 4000.0 4000.0 4000.0 4000.0 4000.0 4000.0 4000.0 4000.0 4000.0 4000.0 4000.0 4000.0 4000.0 4000.0 4000.0 4000.0 4000.0 4000.0 4000.0 4000.0 4000.0 4000.0 4000.0 4000.0 4000.0 4000.0 4000.0 4000.0 4000.0 4000.0 4000.0 4000.0 4000.0 4000.0 4000.0 4000.0 4000.0 4000.0 4000.0 4000.0 4000.0 4000.0 4000.0 4000.0 4000.0 4000.0 4000.0 4000.0 4000.0 4000.0 4000.0 4000.0 4000.0 4000.0 4000.0 4000.0 4000.0 4000.0 4000.0 4000.0 4000.0 4000.0 4000.0 4000.0 4000.0 4000.0 4000.0 4000.0 4000.0 4000.0 4000.0 4000.0 4000.0 4000.0 4000.0 4000.0 4000.0 4000.0 4000.0 4000.0 4000.0 4000.0 4000.0 4000.0 4000.0 4000.0 4000.0 4000.0 4000.0 4000.0 4000.0 4000.0 4000.0 4000.0 4000.0 4000.0 4000.0 4000.0 4000.0 4000.0 4000.0 4000.0 4000.0 4000.0 4000.0 4000.0 4000.0 4000.0 4000.0 4000.0 4000.0 4000.0 4000.0 4000.0 4000.0 4000.0 4000.0 4000.0 4000.0 4000.0 4000.0 4000.0 4000.0 4000.0 4000.0 4000.0 4000.0 4000.0 4000.0 4000.0 4000.0 4000.0 4000.0 4000.0 4000.0 4000.0 4000.0 4000.0 4000.0 4000.0 4000.0 4000.0 4000.0 4000.0 4000.0 4000.0 4000.0 4000.0 4000.0 4000.0 4000.0 4000.0 4000.0 4000.0 4000.0 4000.0 4000.0 4000.0 4000.0 4000.0 4000.0 4000.0 4000.0 4000.0 4000.0 4000.0 4000.0 4000.0 4000.0 4000.0 4000.0 4000.0 4000.0 4000.0 4000.0 4000.0 4000.0 4000.0 4000.0 4000.0 4000.0 4000.0 4000.0 4000.0 4000.0 4000.0 4000.0 4000.0 4000.0 4000.0 4000.0 4000.0 4000.0 4000.0 4000.0 4000.0 4000.0 4000.0 4000.0 4000.0 4000.0 4000.0 4000.0 4000.0 4000.0 4000.0 4000.0 4000.0 4000.0 4000.0 4000.0 4000.0 4000.0 4000.0 4000.0 4000.0 4000.0 4000.0 4000.0 4000.0 4000.0 4000.0 4000.0 4000.0 4000.0 4000.0 4000.0 4000.0 4000.0 4000.0 4000.0 4000.0 4000.0 4000.0 4000.0 4000.0 4000.0 4000.0 4000.0 4000.0 4000.0 4000.0 4000.0 4000.0 4000.0 4000.0 4000.0 4000.0 4000.0 4000.0 4000.0 4000.0 4000.0 4000.0 4000.0 4000.0 4000.0 4000.0 4000.0 4000.0 4000.0 4000.0 4000.0 4000.0 4000.0 4000.0 4000.0 4000.0 4000.0 4000.0 4000.0 4000.0 4000.0 4000.0 4000.0 4000.0 4000.0 4000.0 4000.0 4000.0 4000.0 4000.0 4000.0 4000.0 4000.0 4000.0 4000.0 4000.0 4000.0 4000.0 4000.0 4000.0 4000.0 4000.0 4000.0 4000.0 4000.0 4000.0 4000.0 4000.0 4000.0 4000.0 4000.0 4000.0 4000.0 4000.0 4000.0 4000.0 4000.0 4000.0 4000.0 4000.0 4000.0 4000.0 4000.0 4000.0 4000.0 4000.0 4000.0 4000.0 4000.0 4000.0 4000.0 4000.0 4000.0 4000.0 4000.0 4000.0 4000.0 4000.0 4000.0 4000.0 4000.0 4000.0 4000.0 4000.0 4000.0 4000.0 4000.0 4000.0 4000.0 4000.0 4000.0 4000.0 4000.0 4000.0 4000.0 4000.0 4000.0 4000.0 4000.0 4000.0 4000.0 4000.0 4000.0 4000.0 4000.0 4000.0 4000.0 4000.0 4000.0 4000.0 4000.0 4000.0 4000.0 4000.0 4000.0 4000.0 4000.0 4000.0 4000.0 4000.0 4000.0 4000.0 4000.0 4000.0 4000.0 4000.0 4000.0 4000.0 4000.0 4000.0 4000.0 4000.0 4000.0 4000.0 4000.0 4000.0 4000.0 4000.0 4000.0 4000.0 4000.0 4000.0 4000.0 4000.0 4000.0 4000.0 4000.0 4000.0 4000.0 4000.0 4000.0 4000.0 4000.0 4000.0 4000.0 4000.0 4000.0 4000.0 4000.0 4000.0 4000.0 4000.0 4000.0 4000.0 4000.0 4000.0 4000.0 4000.0 4000.0 4000.0 4000.0 4000.0 4000.0 4000.0 4000.0 4000.0 4000.0 4000.0 4000.0 4000.0 4000.0 4000.0 4000.0 4000.0 4000.0 4000.0 4000.0 4000.0 4000.0 4000.0 4000.0 4000.0 4000.0 4000.0 4000.0 4000.0 4000.0 4000.0 4000.0 4000.0 4000.0 4000.0 4000.0 4000.0 4000.0 4000.0 4000.0 4000.0 4000.0 4000.0 4000.0 4000.0 4000.0 4000.0 4000.0 4000.0 4000.0 4000.0 4000.0 4000.0 4000.0 4000.0 4000.0 4000.0 4000.0 4000.0 4000.0 4000.0 4000.0 4000.0 4000.0 4000.0 4000.0 4000.0 4000.0 4000.0 4000.0 4000.0 4000.0 4000.0 4000.0 4000.0 4000.0 4000.0 4000.0 4000.0 4000.0 4000.0 4000.0 4000.0 4000.0 4000.0 4000.0 4000.0 4000.0 4000.0 4000.0 4000.0 4000.0 4000.0 4000.0 4000.0 4000.0 4000.0 4000.0 4000.0 4000.0 4000.0 4000.0 4000.0 4000.0 4000.0 4000.0 4000.0 4000.0 4000.0 4000.0 4000.0 4000.0 4000.0 4000.0 4000.0 4000.0 4000.0 4000.0 4000.0 4000.0 4000.0 4000.0 4000.0 4000.0 4000.0 4000.0 4000.0 4000.0 4000.0 4000.0 4000.0 4000.0 4000.0 4000.0 4000.0 4000.0 4000.0 4000.0 4000.0 4000.0 4000.0 4000.0 4000.0 4000.0 4000.0 4000.0 4000.0 4000.0 4000.0 4000.0 4000.0 4000.0 4000.0 4000.0 4000.0 4000.0 4000.0 4000.0 4000.0 4000.0 4000.0 4000.0 4000.0 4000.0 4000.0 4000.0 4000.0 4000.0 4000.0 4000.0 4000.0 4000.0 4000.0 4000.0 4000.0 4000.0 4000.0 4000.0 4000.0 4000.0 4000.0 4000.0 4000.0 4000.0 4000.0 4000.0 4000.0 4000.0 4000.0 4000.0 4000.0 4000.0 4000.0 4000.0 4000.0 4000.0 4000.0 4000.0 4000.0 4000.0 4000.0 4000.0 4000.0 4000.0 4000.0 4000.0 4000.0 4000.0 4000.0 4000.0 4000.0 4000.0 4000.0 4000.0 4000.0 4000.0 4000.0 4000.0 4000.0 4000.0 4000.0 4000.0 4000.0 4000.0 4000.0 4000.0 4000.0 4000.0 4000.0 4000.0 4000.0 4000.0 4000.0 4000.0 4000.0 4000.0 4000.0 4000.0 4000.0 4000.0 4000.0 4000.0 4000.0 4000.0 4000.0 4000.0 4000.0 4000.0 4000.0 4000.0 4000.0 4000.0 4000.0 4000.0 4000.0 4000.0 4000.0 4000.0 4000.0 4000.0 4000.0 4000.0 4000.0 4000.0 4000.0 4000.0 4000.0 4000.0 4000.0 4000.0 4000.0 4000.0 4000.0 4000.0 4000.0 4000.0 4000.0 4000.0 4000.0 4000.0 4000.0 4000.0 4000.0 4000.0 4000.0 4000.0 4000.0 4000.0 4000.0 4000.0 4000.0 4000.0 4000.0 4000.0 4000.0 4000.0 4000.0 4000.0 4000.0 4000.0 4000.0 4000.0 4000.0 4000.0 4000.0 4000.0 4000.0 4000.0 4000.0 4000.0 4000.0 4000.0 4000.0 4000.0 4000.0 4000.0 4000.0 4000.0 4000.0 4000.0 4000.0 4000.0 4000.0 4000.0 4000.0 4000.0 4000.0 4000.0 4000.0 4000.0 4000.0 4000.0 4000.0 4000.0 4000.0 4000.0 4000.0 4000.0 4000.0 4000.0 4000.0 4000.0 4000.0 4000.0 4000.0 4000.0 4000.0 4000.0 4000.0 4000.0 4000.0 4000.0 4000.0 4000.0 4000.0 4000.0 4000.0 4000.0 4000.0 4000.0 4000.0 4000.0 4000.0 4000.0 4000.0 4000.0 4000.0 4000.0 4000.0 4000.0 4000.0 4000.0 4000.0 4000.0 4000.0 4000.0 4000.0 4000.0 4000.0 4000.0 4000.0 4000.0 4000.0 4000.0 4000.0 4000.0 4000.0 4000.0 4000.0 4000.0 4000.0 4000.0 4000.0 4000.0 4000.0 4000.0 4000.0 4000.0 4000.0 4000.0 4000.0 4000.0 4000.0 4000.0 4000.0 4000.0 SCALARS Mass float 1
LOOKUP_TABLE default
11309700000.0 11309700000.0 11309700000.0 11309700000.0 11309700000.0 11309700000.0 11309700000.0 11309700000.0 11309700000.0 11309700000.0 11309700000.0 11309700000.0 11309700000.0 11309700000.0 11309700000.0 11309700000.0 11309700000.0 11309700000.0 11309700000.0 11309700000.0 11309700000.0 11309700000.0 11309700000.0 11309700000.0 11309700000.0 11309700000.0 11309700000.0 11309700000.0 11309700000.0 11309700000.0 11309700000.0 11309700000.0 11309700000.0 11309700000.0 11309700000.0 11309700000.0 11309700000.0 11309700000.0 11309700000.0 11309700000.0 11309700000.0 11309700000.0 11309700000.0 11309700000.0 11309700000.0 11309700000.0 11309700000.0 11309700000.0 11309700000.0 11309700000.0 11309700000.0 11309700000.0 11309700000.0 11309700000.0 11309700000.0 11309700000.0 11309700000.0 11309700000.0 11309700000.0 11309700000.0 11309700000.0 11309700000.0 11309700000.0 11309700000.0 11309700000.0 11309700000.0 11309700000.0 11309700000.0 11309700000.0 11309700000.0 11309700000.0 11309700000.0 11309700000.0 11309700000.0 11309700000.0 11309700000.0 11309700000.0 11309700000.0 11309700000.0 11309700000.0 11309700000.0 11309700000.0 11309700000.0 11309700000.0 11309700000.0 11309700000.0 11309700000.0 11309700000.0 11309700000.0 11309700000.0 11309700000.0 11309700000.0 11309700000.0 11309700000.0 11309700000.0 11309700000.0 11309700000.0 11309700000.0 11309700000.0 11309700000.0 11309700000.0 11309700000.0 11309700000.0 11309700000.0 11309700000.0 11309700000.0 11309700000.0 11309700000.0 11309700000.0 11309700000.0 11309700000.0 11309700000.0 11309700000.0 11309700000.0 11309700000.0 11309700000.0 11309700000.0 11309700000.0 11309700000.0 11309700000.0 11309700000.0 11309700000.0 11309700000.0 11309700000.0 11309700000.0 11309700000.0 11309700000.0 11309700000.0 11309700000.0 11309700000.0 11309700000.0 11309700000.0 11309700000.0 11309700000.0 11309700000.0 11309700000.0 11309700000.0 11309700000.0 11309700000.0 11309700000.0 11309700000.0 11309700000.0 11309700000.0 11309700000.0 11309700000.0 11309700000.0 11309700000.0 11309700000.0 11309700000.0 11309700000.0 11309700000.0 11309700000.0 11309700000.0 11309700000.0 11309700000.0 11309700000.0 11309700000.0 11309700000.0 11309700000.0 11309700000.0 11309700000.0 11309700000.0 11309700000.0 11309700000.0 11309700000.0 11309700000.0 11309700000.0 11309700000.0 11309700000.0 11309700000.0 11309700000.0 11309700000.0 11309700000.0 11309700000.0 11309700000.0 11309700000.0 11309700000.0 11309700000.0 11309700000.0 11309700000.0 11309700000.0 11309700000.0 11309700000.0 11309700000.0 11309700000.0 11309700000.0 11309700000.0 11309700000.0 11309700000.0 11309700000.0 11309700000.0 11309700000.0 11309700000.0 11309700000.0 11309700000.0 11309700000.0 11309700000.0 11309700000.0 11309700000.0 11309700000.0 11309700000.0 11309700000.0 11309700000.0 11309700000.0 11309700000.0 11309700000.0 11309700000.0 11309700000.0 11309700000.0 11309700000.0 11309700000.0 11309700000.0 11309700000.0 11309700000.0 11309700000.0 11309700000.0 11309700000.0 11309700000.0 11309700000.0 11309700000.0 11309700000.0 11309700000.0 11309700000.0 11309700000.0 11309700000.0 11309700000.0 11309700000.0 11309700000.0 11309700000.0 11309700000.0 11309700000.0 11309700000.0 11309700000.0 11309700000.0 11309700000.0 11309700000.0 11309700000.0 11309700000.0 11309700000.0 11309700000.0 11309700000.0 11309700000.0 11309700000.0 11309700000.0 11309700000.0 11309700000.0 11309700000.0 11309700000.0 11309700000.0 11309700000.0 11309700000.0 11309700000.0 11309700000.0 11309700000.0 11309700000.0 11309700000.0 11309700000.0 11309700000.0 11309700000.0 11309700000.0 11309700000.0 11309700000.0 11309700000.0 11309700000.0 11309700000.0 11309700000.0 11309700000.0 11309700000.0 11309700000.0 11309700000.0 11309700000.0 11309700000.0 11309700000.0 11309700000.0 11309700000.0 11309700000.0 11309700000.0 11309700000.0 11309700000.0 11309700000.0 11309700000.0 11309700000.0 11309700000.0 11309700000.0 11309700000.0 11309700000.0 11309700000.0 11309700000.0 11309700000.0 11309700000.0 11309700000.0 11309700000.0 11309700000.0 11309700000.0 11309700000.0 11309700000.0 11309700000.0 11309700000.0 11309700000.0 11309700000.0 11309700000.0 11309700000.0 11309700000.0 11309700000.0 11309700000.0 11309700000.0 11309700000.0 11309700000.0 11309700000.0 11309700000.0 11309700000.0 11309700000.0 11309700000.0 11309700000.0 11309700000.0 11309700000.0 11309700000.0 11309700000.0 11309700000.0 11309700000.0 11309700000.0 11309700000.0 11309700000.0 11309700000.0 11309700000.0 11309700000.0 11309700000.0 11309700000.0 11309700000.0 11309700000.0 11309700000.0 11309700000.0 11309700000.0 11309700000.0 11309700000.0 11309700000.0 11309700000.0 11309700000.0 11309700000.0 11309700000.0 11309700000.0 11309700000.0 11309700000.0 11309700000.0 11309700000.0 11309700000.0 11309700000.0 11309700000.0 11309700000.0 11309700000.0 11309700000.0 11309700000.0 11309700000.0 11309700000.0 11309700000.0 11309700000.0 11309700000.0 11309700000.0 11309700000.0 11309700000.0 11309700000.0 11309700000.0 11309700000.0 11309700000.0 11309700000.0 11309700000.0 11309700000.0 11309700000.0 11309700000.0 11309700000.0 11309700000.0 11309700000.0 11309700000.0 11309700000.0 11309700000.0 11309700000.0 11309700000.0 11309700000.0 11309700000.0 11309700000.0 11309700000.0 11309700000.0 11309700000.0 11309700000.0 11309700000.0 11309700000.0 11309700000.0 11309700000.0 11309700000.0 11309700000.0 11309700000.0 11309700000.0 11309700000.0 11309700000.0 11309700000.0 11309700000.0 11309700000.0 11309700000.0 11309700000.0 11309700000.0 11309700000.0 11309700000.0 11309700000.0 11309700000.0 11309700000.0 11309700000.0 11309700000.0 11309700000.0 11309700000.0 11309700000.0 11309700000.0 11309700000.0 11309700000.0 11309700000.0 11309700000.0 11309700000.0 11309700000.0 11309700000.0 11309700000.0 11309700000.0 11309700000.0 11309700000.0 11309700000.0 11309700000.0 11309700000.0 11309700000.0 11309700000.0 11309700000.0 11309700000.0 11309700000.0 11309700000.0 11309700000.0 11309700000.0 11309700000.0 11309700000.0 11309700000.0 11309700000.0 11309700000.0 11309700000.0 11309700000.0 11309700000.0 11309700000.0 11309700000.0 11309700000.0 11309700000.0 11309700000.0 11309700000.0 11309700000.0 11309700000.0 11309700000.0 11309700000.0 11309700000.0 11309700000.0 11309700000.0 11309700000.0 11309700000.0 11309700000.0 11309700000.0 11309700000.0 11309700000.0 11309700000.0 11309700000.0 11309700000.0 11309700000.0 11309700000.0 11309700000.0 11309700000.0 11309700000.0 11309700000.0 11309700000.0 11309700000.0 11309700000.0 11309700000.0 11309700000.0 11309700000.0 11309700000.0 11309700000.0 11309700000.0 11309700000.0 11309700000.0 11309700000.0 11309700000.0 11309700000.0 11309700000.0 11309700000.0 11309700000.0 11309700000.0 11309700000.0 11309700000.0 11309700000.0 11309700000.0 11309700000.0 11309700000.0 11309700000.0 11309700000.0 11309700000.0 11309700000.0 11309700000.0 11309700000.0 11309700000.0 11309700000.0 11309700000.0 11309700000.0 11309700000.0 11309700000.0 11309700000.0 11309700000.0 11309700000.0 11309700000.0 11309700000.0 11309700000.0 11309700000.0 11309700000.0 11309700000.0 11309700000.0 11309700000.0 11309700000.0 11309700000.0 11309700000.0 11309700000.0 11309700000.0 11309700000.0 11309700000.0 11309700000.0 11309700000.0 11309700000.0 11309700000.0 11309700000.0 11309700000.0 11309700000.0 11309700000.0 11309700000.0 11309700000.0 11309700000.0 11309700000.0 11309700000.0 11309700000.0 11309700000.0 11309700000.0 11309700000.0 11309700000.0 11309700000.0 11309700000.0 11309700000.0 11309700000.0 11309700000.0 11309700000.0 11309700000.0 11309700000.0 11309700000.0 11309700000.0 11309700000.0 11309700000.0 11309700000.0 11309700000.0 11309700000.0 11309700000.0 11309700000.0 11309700000.0 11309700000.0 11309700000.0 11309700000.0 11309700000.0 11309700000.0 11309700000.0 11309700000.0 11309700000.0 11309700000.0 11309700000.0 11309700000.0 11309700000.0 11309700000.0 11309700000.0 11309700000.0 11309700000.0 11309700000.0 11309700000.0 11309700000.0 11309700000.0 11309700000.0 11309700000.0 11309700000.0 11309700000.0 11309700000.0 11309700000.0 11309700000.0 11309700000.0 11309700000.0 11309700000.0 11309700000.0 11309700000.0 11309700000.0 11309700000.0 11309700000.0 11309700000.0 11309700000.0 11309700000.0 11309700000.0 11309700000.0 11309700000.0 11309700000.0 11309700000.0 11309700000.0 11309700000.0 11309700000.0 11309700000.0 11309700000.0 11309700000.0 11309700000.0 11309700000.0 11309700000.0 11309700000.0 11309700000.0 11309700000.0 11309700000.0 11309700000.0 11309700000.0 11309700000.0 11309700000.0 11309700000.0 11309700000.0 11309700000.0 11309700000.0 11309700000.0 11309700000.0 11309700000.0 11309700000.0 11309700000.0 11309700000.0 11309700000.0 11309700000.0 11309700000.0 11309700000.0 11309700000.0 11309700000.0 11309700000.0 11309700000.0 11309700000.0 11309700000.0 11309700000.0 11309700000.0 11309700000.0 11309700000.0 11309700000.0 11309700000.0 11309700000.0 11309700000.0 11309700000.0 11309700000.0 11309700000.0 11309700000.0 11309700000.0 11309700000.0 11309700000.0 11309700000.0 11309700000.0 11309700000.0 11309700000.0 11309700000.0 11309700000.0 11309700000.0 11309700000.0 11309700000.0 11309700000.0 11309700000.0 11309700000.0 11309700000.0 11309700000.0 11309700000.0 11309700000.0 11309700000.0 11309700000.0 11309700000.0 11309700000.0 11309700000.0 11309700000.0 11309700000.0 11309700000.0 11309700000.0 11309700000.0 11309700000.0 11309700000.0 11309700000.0 11309700000.0 11309700000.0 11309700000.0 11309700000.0 11309700000.0 11309700000.0 11309700000.0 11309700000.0 11309700000.0 11309700000.0 11309700000.0 11309700000.0 11309700000.0 11309700000.0 11309700000.0 11309700000.0 11309700000.0 11309700000.0 11309700000.0 11309700000.0 11309700000.0 11309700000.0 11309700000.0 11309700000.0 11309700000.0 11309700000.0 11309700000.0 11309700000.0 11309700000.0 11309700000.0 11309700000.0 11309700000.0 11309700000.0 11309700000.0 11309700000.0 11309700000.0 11309700000.0 11309700000.0 11309700000.0 11309700000.0 11309700000.0 11309700000.0 11309700000.0 11309700000.0 11309700000.0 11309700000.0 11309700000.0 11309700000.0 11309700000.0 11309700000.0 11309700000.0 11309700000.0 11309700000.0 11309700000.0 11309700000.0 11309700000.0 11309700000.0 11309700000.0 11309700000.0 11309700000.0 11309700000.0 11309700000.0 11309700000.0 11309700000.0 11309700000.0 11309700000.0 11309700000.0 11309700000.0 11309700000.0 11309700000.0 11309700000.0 11309700000.0 11309700000.0 11309700000.0 11309700000.0 11309700000.0 11309700000.0 11309700000.0 11309700000.0 11309700000.0 11309700000.0 11309700000.0 11309700000.0 11309700000.0 11309700000.0 11309700000.0 11309700000.0 11309700000.0 11309700000.0 11309700000.0 11309700000.0 11309700000.0 11309700000.0 11309700000.0 11309700000.0 11309700000.0 11309700000.0 11309700000.0 11309700000.0 11309700000.0 11309700000.0 11309700000.0 11309700000.0 11309700000.0 11309700000.0 11309700000.0 11309700000.0 11309700000.0 11309700000.0 11309700000.0 11309700000.0 11309700000.0 11309700000.0 11309700000.0 11309700000.0 11309700000.0 11309700000.0 11309700000.0 11309700000.0 11309700000.0 11309700000.0 11309700000.0 11309700000.0 11309700000.0 11309700000.0 11309700000.0 11309700000.0 11309700000.0 11309700000.0 11309700000.0 11309700000.0 11309700000.0 11309700000.0 11309700000.0 11309700000.0 11309700000.0 11309700000.0 11309700000.0 11309700000.0 11309700000.0 11309700000.0 11309700000.0 11309700000.0 11309700000.0 11309700000.0 11309700000.0 11309700000.0 11309700000.0 11309700000.0 11309700000.0 11309700000.0 11309700000.0 11309700000.0 11309700000.0 11309700000.0 11309700000.0 11309700000.0 11309700000.0 11309700000.0 11309700000.0 11309700000.0 11309700000.0 11309700000.0 11309700000.0 11309700000.0 11309700000.0 11309700000.0 11309700000.0 11309700000.0 11309700000.0 11309700000.0 11309700000.0 11309700000.0 11309700000.0 11309700000.0 11309700000.0 11309700000.0 11309700000.0 11309700000.0 11309700000.0 11309700000.0 11309700000.0 11309700000.0 11309700000.0 11309700000.0 11309700000.0 11309700000.0 11309700000.0 11309700000.0 11309700000.0 11309700000.0 11309700000.0 11309700000.0 11309700000.0 11309700000.0 11309700000.0 11309700000.0 11309700000.0 11309700000.0 11309700000.0 11309700000.0 11309700000.0 11309700000.0 11309700000.0 11309700000.0 11309700000.0 11309700000.0 11309700000.0 11309700000.0 11309700000.0 11309700000.0 11309700000.0 11309700000.0 11309700000.0 11309700000.0 11309700000.0 11309700000.0 11309700000.0 11309700000.0 11309700000.0 11309700000.0 11309700000.0 11309700000.0 11309700000.0 11309700000.0 11309700000.0 11309700000.0 11309700000.0 11309700000.0 11309700000.0 11309700000.0 11309700000.0 11309700000.0 11309700000.0 11309700000.0 11309700000.0 11309700000.0 11309700000.0 11309700000.0 11309700000.0 11309700000.0 11309700000.0 11309700000.0 11309700000.0 11309700000.0 11309700000.0 11309700000.0 11309700000.0 11309700000.0 11309700000.0 11309700000.0 11309700000.0 11309700000.0 11309700000.0 11309700000.0 11309700000.0 11309700000.0 11309700000.0 11309700000.0 11309700000.0 11309700000.0 11309700000.0 11309700000.0 11309700000.0 11309700000.0 11309700000.0 11309700000.0 11309700000.0 11309700000.0 11309700000.0 11309700000.0 11309700000.0 11309700000.0 11309700000.0 11309700000.0 11309700000.0 11309700000.0 11309700000.0 11309700000.0 11309700000.0 11309700000.0 11309700000.0 11309700000.0 11309700000.0 11309700000.0 11309700000.0 11309700000.0 11309700000.0 11309700000.0 11309700000.0 11309700000.0 11309700000.0 11309700000.0 11309700000.0 11309700000.0 11309700000.0 11309700000.0 11309700000.0 11309700000.0 11309700000.0 11309700000.0 11309700000.0 11309700000.0 11309700000.0 11309700000.0 11309700000.0 11309700000.0 11309700000.0 11309700000.0 11309700000.0 11309700000.0 11309700000.0 11309700000.0 11309700000.0 11309700000.0 11309700000.0 11309700000.0 11309700000.0 11309700000.0 11309700000.0 11309700000.0 11309700000.0 11309700000.0 11309700000.0 11309700000.0 11309700000.0 11309700000.0 11309700000.0 11309700000.0 11309700000.0 11309700000.0 11309700000.0 11309700000.0 11309700000.0 11309700000.0 11309700000.0 11309700000.0 11309700000.0 11309700000.0 11309700000.0 11309700000.0 11309700000.0 11309700000.0 11309700000.0 11309700000.0 11309700000.0 11309700000.0 11309700000.0 11309700000.0 11309700000.0 11309700000.0 11309700000.0 11309700000.0 11309700000.0 11309700000.0 11309700000.0 11309700000.0 11309700000.0 11309700000.0 11309700000.0 11309700000.0 11309700000.0 11309700000.0 11309700000.0 11309700000.0 11309700000.0 11309700000.0 11309700000.0 11309700000.0 11309700000.0 11309700000.0 11309700000.0 11309700000.0 11309700000.0 11309700000.0 11309700000.0 11309700000.0 11309700000.0 11309700000.0 11309700000.0 11309700000.0 11309700000.0 11309700000.0 11309700000.0 11309700000.0 11309700000.0 11309700000.0 11309700000.0 11309700000.0 11309700000.0 11309700000.0 11309700000.0 11309700000.0 11309700000.0 11309700000.0 11309700000.0 11309700000.0 11309700000.0 11309700000.0 11309700000.0 11309700000.0 11309700000.0 11309700000.0 11309700000.0 11309700000.0 11309700000.0 11309700000.0 11309700000.0 11309700000.0 11309700000.0 11309700000.0 11309700000.0 11309700000.0 11309700000.0 11309700000.0 11309700000.0 11309700000.0 11309700000.0 11309700000.0 11309700000.0 11309700000.0 11309700000.0 11309700000.0 11309700000.0 11309700000.0 11309700000.0 11309700000.0 11309700000.0 11309700000.0 11309700000.0 11309700000.0 11309700000.0 11309700000.0 11309700000.0 11309700000.0 11309700000.0 11309700000.0 11309700000.0 11309700000.0 11309700000.0 11309700000.0 11309700000.0 11309700000.0 11309700000.0 11309700000.0 11309700000.0 11309700000.0 11309700000.0 11309700000.0 11309700000.0 11309700000.0 11309700000.0 11309700000.0 11309700000.0 11309700000.0 11309700000.0 11309700000.0 11309700000.0 11309700000.0 11309700000.0 11309700000.0 11309700000.0 11309700000.0 11309700000.0 11309700000.0 11309700000.0 11309700000.0 11309700000.0 11309700000.0 11309700000.0 11309700000.0 11309700000.0 11309700000.0 11309700000.0 11309700000.0 11309700000.0 11309700000.0 11309700000.0 11309700000.0 11309700000.0 11309700000.0 11309700000.0 11309700000.0 11309700000.0 11309700000.0 11309700000.0 11309700000.0 11309700000.0 11309700000.0 11309700000.0 11309700000.0 11309700000.0 11309700000.0 11309700000.0 11309700000.0 11309700000.0 11309700000.0 11309700000.0 11309700000.0 11309700000.0 11309700000.0 11309700000.0 11309700000.0 11309700000.0 11309700000.0 11309700000.0 11309700000.0 11309700000.0 11309700000.0 11309700000.0 11309700000.0 11309700000.0 11309700000.0 11309700000.0 11309700000.0 11309700000.0 11309700000.0 11309700000.0 11309700000.0 11309700000.0 11309700000.0 11309700000.0 11309700000.0 11309700000.0 11309700000.0 11309700000.0 11309700000.0 11309700000.0 11309700000.0 11309700000.0 11309700000.0 11309700000.0 11309700000.0 11309700000.0 11309700000.0 11309700000.0 11309700000.0 11309700000.0 11309700000.0 11309700000.0 11309700000.0 11309700000.0 11309700000.0 11309700000.0 11309700000.0 11309700000.0 11309700000.0 11309700000.0 11309700000.0 11309700000.0 11309700000.0 11309700000.0 11309700000.0 11309700000.0 11309700000.0 11309700000.0 11309700000.0 11309700000.0 11309700000.0 11309700000.0 11309700000.0 11309700000.0 11309700000.0 11309700000.0 11309700000.0 11309700000.0 11309700000.0 11309700000.0 11309700000.0 11309700000.0 11309700000.0 11309700000.0 11309700000.0 11309700000.0 11309700000.0 11309700000.0 11309700000.0 11309700000.0 11309700000.0 11309700000.0 11309700000.0 11309700000.0 11309700000.0 11309700000.0 11309700000.0 11309700000.0 11309700000.0 11309700000.0 11309700000.0 11309700000.0 11309700000.0 11309700000.0 11309700000.0 11309700000.0 11309700000.0 11309700000.0 11309700000.0 11309700000.0 11309700000.0 11309700000.0 11309700000.0 11309700000.0 11309700000.0 11309700000.0 11309700000.0 11309700000.0 11309700000.0 11309700000.0 11309700000.0 11309700000.0 11309700000.0 11309700000.0 11309700000.0 11309700000.0 11309700000.0 11309700000.0 11309700000.0 11309700000.0 11309700000.0 11309700000.0 11309700000.0 11309700000.0 11309700000.0 11309700000.0 11309700000.0 11309700000.0 11309700000.0 11309700000.0 11309700000.0 11309700000.0 11309700000.0 11309700000.0 11309700000.0 11309700000.0 11309700000.0 11309700000.0 11309700000.0 11309700000.0 11309700000.0 11309700000.0 11309700000.0 11309700000.0 11309700000.0 11309700000.0 11309700000.0 11309700000.0 11309700000.0 11309700000.0 11309700000.0 11309700000.0 11309700000.0 11309700000.0 11309700000.0 11309700000.0 11309700000.0 11309700000.0 11309700000.0 11309700000.0 11309700000.0 11309700000.0 11309700000.0 11309700000.0 11309700000.0 11309700000.0 11309700000.0 11309700000.0 11309700000.0 11309700000.0 11309700000.0 11309700000.0 11309700000.0 11309700000.0 11309700000.0 11309700000.0 11309700000.0 11309700000.0 11309700000.0 11309700000.0 11309700000.0 11309700000.0 11309700000.0 11309700000.0 11309700000.0 11309700000.0 11309700000.0 11309700000.0 11309700000.0 11309700000.0 11309700000.0 11309700000.0 11309700000.0 11309700000.0 11309700000.0 11309700000.0 11309700000.0 11309700000.0 11309700000.0 11309700000.0 11309700000.0 11309700000.0 11309700000.0 11309700000.0 11309700000.0 11309700000.0 11309700000.0 11309700000.0 11309700000.0 11309700000.0 11309700000.0 11309700000.0 11309700000.0 11309700000.0 11309700000.0 11309700000.0 11309700000.0 11309700000.0 11309700000.0 11309700000.0 11309700000.0 11309700000.0 11309700000.0 11309700000.0 11309700000.0 11309700000.0 11309700000.0 11309700000.0 11309700000.0 11309700000.0 11309700000.0 11309700000.0 11309700000.0 11309700000.0 11309700000.0 11309700000.0 11309700000.0 11309700000.0 11309700000.0 11309700000.0 11309700000.0 11309700000.0 11309700000.0 11309700000.0 11309700000.0 11309700000.0 11309700000.0 11309700000.0 11309700000.0 11309700000.0 11309700000.0 11309700000.0 11309700000.0 11309700000.0 11309700000.0 11309700000.0 11309700000.0 11309700000.0 11309700000.0 11309700000.0 11309700000.0 11309700000.0 11309700000.0 11309700000.0 11309700000.0 11309700000.0 11309700000.0 11309700000.0 11309700000.0 11309700000.0 11309700000.0 11309700000.0 11309700000.0 11309700000.0 11309700000.0 11309700000.0 11309700000.0 11309700000.0 11309700000.0 11309700000.0 11309700000.0 11309700000.0 11309700000.0 11309700000.0 11309700000.0 11309700000.0 11309700000.0 11309700000.0 11309700000.0 11309700000.0 11309700000.0 11309700000.0 11309700000.0 11309700000.0 11309700000.0 11309700000.0 11309700000.0 11309700000.0 11309700000.0 11309700000.0 11309700000.0 11309700000.0 11309700000.0 11309700000.0 11309700000.0 11309700000.0 11309700000.0 11309700000.0 11309700000.0 11309700000.0 11309700000.0 11309700000.0 11309700000.0 11309700000.0 11309700000.0 11309700000.0 11309700000.0 11309700000.0 11309700000.0 11309700000.0 11309700000.0 11309700000.0 11309700000.0 11309700000.0 11309700000.0 11309700000.0 11309700000.0 11309700000.0 11309700000.0 11309700000.0 11309700000.0 11309700000.0 11309700000.0 11309700000.0 11309700000.0 11309700000.0 11309700000.0 11309700000.0 11309700000.0 11309700000.0 11309700000.0 11309700000.0 11309700000.0 11309700000.0 11309700000.0 11309700000.0 11309700000.0 11309700000.0 11309700000.0 11309700000.0 11309700000.0 11309700000.0 11309700000.0 11309700000.0 11309700000.0 11309700000.0 11309700000.0 11309700000.0 11309700000.0 11309700000.0 11309700000.0 11309700000.0 11309700000.0 11309700000.0 11309700000.0 11309700000.0 11309700000.0 11309700000.0 11309700000.0 11309700000.0 11309700000.0 11309700000.0 11309700000.0 11309700000.0 11309700000.0 11309700000.0 11309700000.0 11309700000.0 11309700000.0 11309700000.0 11309700000.0 11309700000.0 11309700000.0 11309700000.0 11309700000.0 11309700000.0 11309700000.0 11309700000.0 11309700000.0 11309700000.0 11309700000.0 11309700000.0 11309700000.0 11309700000.0 11309700000.0 11309700000.0 11309700000.0 11309700000.0 11309700000.0 11309700000.0 11309700000.0 11309700000.0 11309700000.0 11309700000.0 11309700000.0 11309700000.0 11309700000.0 11309700000.0 11309700000.0 11309700000.0 11309700000.0 11309700000.0 11309700000.0 11309700000.0 11309700000.0 11309700000.0 11309700000.0 11309700000.0 11309700000.0 11309700000.0 11309700000.0 11309700000.0 11309700000.0 11309700000.0 11309700000.0 11309700000.0 11309700000.0 11309700000.0 11309700000.0 11309700000.0 11309700000.0 11309700000.0 11309700000.0 11309700000.0 11309700000.0 11309700000.0 11309700000.0 11309700000.0 11309700000.0 11309700000.0 11309700000.0 11309700000.0 11309700000.0 11309700000.0 11309700000.0 11309700000.0 11309700000.0 11309700000.0 11309700000.0 11309700000.0 11309700000.0 11309700000.0 11309700000.0 11309700000.0 11309700000.0 11309700000.0 11309700000.0 11309700000.0 11309700000.0 11309700000.0 11309700000.0 11309700000.0 11309700000.0 11309700000.0 11309700000.0 11309700000.0 11309700000.0 11309700000.0 11309700000.0 11309700000.0 11309700000.0 11309700000.0 11309700000.0 11309700000.0 11309700000.0 11309700000.0 11309700000.0 11309700000.0 11309700000.0 11309700000.0 11309700000.0 11309700000.0 11309700000.0 11309700000.0 11309700000.0 11309700000.0 11309700000.0 11309700000.0 11309700000.0 11309700000.0 11309700000.0 11309700000.0 11309700000.0 11309700000.0 11309700000.0 11309700000.0 11309700000.0 11309700000.0 11309700000.0 11309700000.0 11309700000.0 11309700000.0 11309700000.0 11309700000.0 11309700000.0 11309700000.0 11309700000.0 11309700000.0 11309700000.0 11309700000.0 11309700000.0 11309700000.0 11309700000.0 11309700000.0 11309700000.0 11309700000.0 11309700000.0 11309700000.0 11309700000.0 11309700000.0 11309700000.0 11309700000.0 11309700000.0 11309700000.0 11309700000.0 11309700000.0 11309700000.0 11309700000.0 11309700000.0 11309700000.0 11309700000.0 11309700000.0 11309700000.0 11309700000.0 11309700000.0 11309700000.0 11309700000.0 11309700000.0 11309700000.0 11309700000.0 11309700000.0 11309700000.0 11309700000.0 11309700000.0 11309700000.0 11309700000.0 11309700000.0 11309700000.0 11309700000.0 11309700000.0 11309700000.0 11309700000.0 11309700000.0 11309700000.0 11309700000.0 11309700000.0 11309700000.0 11309700000.0 11309700000.0 11309700000.0 11309700000.0 11309700000.0 11309700000.0 11309700000.0 11309700000.0 11309700000.0 11309700000.0 11309700000.0 11309700000.0 11309700000.0 11309700000.0 11309700000.0 11309700000.0 11309700000.0 11309700000.0 11309700000.0 11309700000.0 11309700000.0 11309700000.0 11309700000.0 11309700000.0 11309700000.0 11309700000.0 11309700000.0 11309700000.0 11309700000.0 11309700000.0 11309700000.0 11309700000.0 11309700000.0 11309700000.0 11309700000.0 11309700000.0 11309700000.0 11309700000.0 11309700000.0 11309700000.0 11309700000.0 11309700000.0 11309700000.0 11309700000.0 11309700000.0 11309700000.0 11309700000.0 11309700000.0 11309700000.0 11309700000.0 11309700000.0 11309700000.0 11309700000.0 11309700000.0 11309700000.0 11309700000.0 11309700000.0 11309700000.0 11309700000.0 11309700000.0 11309700000.0 11309700000.0 11309700000.0 11309700000.0 11309700000.0 11309700000.0 11309700000.0 11309700000.0 11309700000.0 11309700000.0 11309700000.0 11309700000.0 11309700000.0 11309700000.0 11309700000.0 11309700000.0 11309700000.0 11309700000.0 11309700000.0 11309700000.0 11309700000.0 11309700000.0 11309700000.0 11309700000.0 11309700000.0 11309700000.0 11309700000.0 11309700000.0 11309700000.0 11309700000.0 11309700000.0 11309700000.0 11309700000.0 11309700000.0 11309700000.0 11309700000.0 11309700000.0 11309700000.0 11309700000.0 11309700000.0 11309700000.0 11309700000.0 11309700000.0 11309700000.0 11309700000.0 11309700000.0 11309700000.0 11309700000.0 11309700000.0 11309700000.0 11309700000.0 11309700000.0 11309700000.0 11309700000.0 11309700000.0 11309700000.0 11309700000.0 11309700000.0 11309700000.0 11309700000.0 11309700000.0 11309700000.0 11309700000.0 11309700000.0 11309700000.0 11309700000.0 11309700000.0 11309700000.0 11309700000.0 11309700000.0 11309700000.0 11309700000.0 11309700000.0 11309700000.0 11309700000.0 11309700000.0 11309700000.0 11309700000.0 11309700000.0 11309700000.0 11309700000.0 11309700000.0 11309700000.0 11309700000.0 11309700000.0 11309700000.0 11309700000.0 11309700000.0 11309700000.0 11309700000.0 11309700000.0 11309700000.0 11309700000.0 11309700000.0 11309700000.0 11309700000.0 11309700000.0 11309700000.0 11309700000.0 11309700000.0 11309700000.0 11309700000.0 11309700000.0 11309700000.0 11309700000.0 11309700000.0 11309700000.0 11309700000.0 11309700000.0 11309700000.0 11309700000.0 11309700000.0 11309700000.0 11309700000.0 11309700000.0 11309700000.0 11309700000.0 11309700000.0 11309700000.0 11309700000.0 11309700000.0 11309700000.0 11309700000.0 11309700000.0 11309700000.0 11309700000.0 11309700000.0 11309700000.0 11309700000.0 11309700000.0 11309700000.0 11309700000.0 11309700000.0 11309700000.0 11309700000.0 11309700000.0 11309700000.0 11309700000.0 11309700000.0 11309700000.0 11309700000.0 11309700000.0 11309700000.0 11309700000.0 11309700000.0 11309700000.0 11309700000.0 11309700000.0 11309700000.0 11309700000.0 11309700000.0 11309700000.0 11309700000.0 11309700000.0 11309700000.0 11309700000.0 11309700000.0 11309700000.0 11309700000.0 11309700000.0 11309700000.0 11309700000.0 11309700000.0 11309700000.0 11309700000.0 11309700000.0 11309700000.0 11309700000.0 11309700000.0 11309700000.0 11309700000.0 11309700000.0 11309700000.0 11309700000.0 11309700000.0 11309700000.0 11309700000.0 11309700000.0 11309700000.0 11309700000.0 11309700000.0 11309700000.0 11309700000.0 11309700000.0 11309700000.0 11309700000.0 11309700000.0 11309700000.0 11309700000.0 11309700000.0 11309700000.0 11309700000.0 11309700000.0 11309700000.0 11309700000.0 11309700000.0 11309700000.0 11309700000.0 11309700000.0 11309700000.0 11309700000.0 11309700000.0 11309700000.0 11309700000.0 11309700000.0 11309700000.0 11309700000.0 11309700000.0 11309700000.0 11309700000.0 11309700000.0 11309700000.0 11309700000.0 11309700000.0 11309700000.0 11309700000.0 11309700000.0 11309700000.0 11309700000.0 11309700000.0 11309700000.0 11309700000.0 11309700000.0 11309700000.0 11309700000.0 11309700000.0 11309700000.0 11309700000.0 11309700000.0 11309700000.0 11309700000.0 11309700000.0 11309700000.0 11309700000.0 11309700000.0 11309700000.0 11309700000.0 11309700000.0 11309700000.0 11309700000.0 11309700000.0 11309700000.0 11309700000.0 11309700000.0 11309700000.0 11309700000.0 11309700000.0 11309700000.0 11309700000.0 11309700000.0 11309700000.0 11309700000.0 11309700000.0 11309700000.0 11309700000.0 11309700000.0 11309700000.0 11309700000.0 11309700000.0 11309700000.0 11309700000.0 11309700000.0 11309700000.0 11309700000.0 11309700000.0 11309700000.0 11309700000.0 11309700000.0 11309700000.0 11309700000.0 11309700000.0 11309700000.0 11309700000.0 11309700000.0 11309700000.0 11309700000.0 11309700000.0 11309700000.0 11309700000.0 11309700000.0 11309700000.0 11309700000.0 11309700000.0 11309700000.0 11309700000.0 11309700000.0 11309700000.0 11309700000.0 11309700000.0 11309700000.0 11309700000.0 11309700000.0 11309700000.0 11309700000.0 11309700000.0 11309700000.0 11309700000.0 11309700000.0 11309700000.0 11309700000.0 11309700000.0 11309700000.0 11309700000.0 11309700000.0 11309700000.0 11309700000.0 11309700000.0 11309700000.0 11309700000.0 11309700000.0 11309700000.0 11309700000.0 11309700000.0 11309700000.0 11309700000.0 11309700000.0 11309700000.0 11309700000.0 11309700000.0 11309700000.0 11309700000.0 11309700000.0 11309700000.0 11309700000.0 11309700000.0 11309700000.0 11309700000.0 11309700000.0 11309700000.0 11309700000.0 11309700000.0 11309700000.0 11309700000.0 11309700000.0 11309700000.0 11309700000.0 11309700000.0 11309700000.0 11309700000.0 11309700000.0 11309700000.0 11309700000.0 11309700000.0 11309700000.0 11309700000.0 11309700000.0 11309700000.0 11309700000.0 11309700000.0 11309700000.0 11309700000.0 11309700000.0 11309700000.0 11309700000.0 11309700000.0 11309700000.0 11309700000.0 11309700000.0 11309700000.0 11309700000.0 11309700000.0 11309700000.0 11309700000.0 11309700000.0 11309700000.0 11309700000.0 11309700000.0 11309700000.0 11309700000.0 11309700000.0 11309700000.0 11309700000.0 11309700000.0 11309700000.0 11309700000.0 11309700000.0 11309700000.0 11309700000.0 11309700000.0 11309700000.0 11309700000.0 11309700000.0 11309700000.0 11309700000.0 11309700000.0 11309700000.0 11309700000.0 11309700000.0 11309700000.0 11309700000.0 11309700000.0 11309700000.0 11309700000.0 11309700000.0 11309700000.0 11309700000.0 11309700000.0 11309700000.0 11309700000.0 11309700000.0 11309700000.0 11309700000.0 11309700000.0 11309700000.0 11309700000.0 11309700000.0 11309700000.0 11309700000.0 11309700000.0 11309700000.0 11309700000.0 11309700000.0 11309700000.0 11309700000.0 11309700000.0 11309700000.0 11309700000.0 11309700000.0 11309700000.0 11309700000.0 11309700000.0 11309700000.0 11309700000.0 11309700000.0 11309700000.0 11309700000.0 11309700000.0 11309700000.0 11309700000.0 11309700000.0 11309700000.0 11309700000.0 11309700000.0 11309700000.0 11309700000.0 11309700000.0 11309700000.0 11309700000.0 11309700000.0 11309700000.0 11309700000.0 11309700000.0 11309700000.0 11309700000.0 11309700000.0 11309700000.0 11309700000.0 11309700000.0 11309700000.0 11309700000.0 11309700000.0 11309700000.0 11309700000.0 11309700000.0 11309700000.0 11309700000.0 11309700000.0 11309700000.0 11309700000.0 11309700000.0 11309700000.0 11309700000.0 11309700000.0 11309700000.0 11309700000.0 11309700000.0 11309700000.0 11309700000.0 11309700000.0 11309700000.0 11309700000.0 11309700000.0 11309700000.0 11309700000.0 11309700000.0 11309700000.0 11309700000.0 11309700000.0 11309700000.0 11309700000.0 11309700000.0 11309700000.0 11309700000.0 11309700000.0 11309700000.0 11309700000.0 11309700000.0 11309700000.0 11309700000.0 11309700000.0 11309700000.0 11309700000.0 11309700000.0 11309700000.0 11309700000.0 11309700000.0 11309700000.0 11309700000.0 11309700000.0 11309700000.0 11309700000.0 11309700000.0 11309700000.0 11309700000.0 11309700000.0 11309700000.0 11309700000.0 11309700000.0 11309700000.0 11309700000.0 11309700000.0 11309700000.0 11309700000.0 11309700000.0 11309700000.0 11309700000.0 11309700000.0 11309700000.0 11309700000.0 11309700000.0 11309700000.0 11309700000.0 11309700000.0 11309700000.0 11309700000.0 11309700000.0 11309700000.0 11309700000.0 11309700000.0 11309700000.0 11309700000.0 11309700000.0 11309700000.0 11309700000.0 11309700000.0 11309700000.0 11309700000.0 11309700000.0 11309700000.0 11309700000.0 11309700000.0 11309700000.0 11309700000.0 11309700000.0 11309700000.0 11309700000.0 11309700000.0 11309700000.0 11309700000.0 11309700000.0 11309700000.0 11309700000.0 11309700000.0 11309700000.0 11309700000.0 11309700000.0 11309700000.0 11309700000.0 11309700000.0 11309700000.0 11309700000.0 11309700000.0 11309700000.0 11309700000.0 11309700000.0 11309700000.0 11309700000.0 11309700000.0 11309700000.0 11309700000.0 11309700000.0 11309700000.0 11309700000.0 11309700000.0 11309700000.0 11309700000.0 11309700000.0 11309700000.0 11309700000.0 11309700000.0 11309700000.0 11309700000.0 11309700000.0 11309700000.0 11309700000.0 11309700000.0 11309700000.0 11309700000.0 11309700000.0 11309700000.0 11309700000.0 11309700000.0 11309700000.0 11309700000.0 11309700000.0 11309700000.0 11309700000.0 11309700000.0 11309700000.0 11309700000.0 11309700000.0 11309700000.0 11309700000.0 11309700000.0 11309700000.0 11309700000.0 11309700000.0 11309700000.0 11309700000.0 11309700000.0 11309700000.0 11309700000.0 11309700000.0 11309700000.0 11309700000.0 11309700000.0 11309700000.0 11309700000.0 11309700000.0 11309700000.0 11309700000.0 11309700000.0 11309700000.0 11309700000.0 11309700000.0 11309700000.0 11309700000.0 11309700000.0 11309700000.0 11309700000.0 11309700000.0 11309700000.0 11309700000.0 11309700000.0 11309700000.0 11309700000.0 11309700000.0 11309700000.0 11309700000.0 11309700000.0 11309700000.0 11309700000.0 11309700000.0 11309700000.0 11309700000.0 11309700000.0 11309700000.0 11309700000.0 11309700000.0 11309700000.0 11309700000.0 11309700000.0 11309700000.0 11309700000.0 11309700000.0 11309700000.0 11309700000.0 11309700000.0 11309700000.0 11309700000.0 11309700000.0 11309700000.0 11309700000.0 11309700000.0 11309700000.0 11309700000.0 11309700000.0 11309700000.0 11309700000.0 11309700000.0 11309700000.0 11309700000.0 11309700000.0 11309700000.0 11309700000.0 11309700000.0 11309700000.0 11309700000.0 11309700000.0 11309700000.0 11309700000.0 11309700000.0 11309700000.0 11309700000.0 11309700000.0 11309700000.0 11309700000.0 11309700000.0 11309700000.0 11309700000.0 11309700000.0 11309700000.0 11309700000.0 11309700000.0 11309700000.0 11309700000.0 11309700000.0 11309700000.0 11309700000.0 11309700000.0 11309700000.0 11309700000.0 11309700000.0 11309700000.0 11309700000.0 11309700000.0 11309700000.0 11309700000.0 11309700000.0 11309700000.0 11309700000.0 11309700000.0 11309700000.0 11309700000.0 11309700000.0 11309700000.0 11309700000.0 11309700000.0 11309700000.0 11309700000.0 11309700000.0 11309700000.0 11309700000.0 11309700000.0 11309700000.0 11309700000.0 11309700000.0 11309700000.0 11309700000.0 11309700000.0 11309700000.0 11309700000.0 11309700000.0 11309700000.0 11309700000.0 11309700000.0 11309700000.0 11309700000.0 11309700000.0 11309700000.0 11309700000.0 11309700000.0 11309700000.0 11309700000.0 11309700000.0 11309700000.0 11309700000.0 11309700000.0 11309700000.0 11309700000.0 11309700000.0 11309700000.0 11309700000.0 11309700000.0 11309700000.0 11309700000.0 11309700000.0 11309700000.0 11309700000.0 11309700000.0 11309700000.0 11309700000.0 11309700000.0 11309700000.0 11309700000.0 11309700000.0 11309700000.0 11309700000.0 11309700000.0 11309700000.0 11309700000.0 11309700000.0 11309700000.0 11309700000.0 11309700000.0 11309700000.0 11309700000.0 11309700000.0 11309700000.0 11309700000.0 11309700000.0 11309700000.0 11309700000.0 11309700000.0 11309700000.0 11309700000.0 11309700000.0 11309700000.0 11309700000.0 11309700000.0 11309700000.0 11309700000.0 11309700000.0 11309700000.0 11309700000.0 11309700000.0 11309700000.0 11309700000.0 11309700000.0 11309700000.0 11309700000.0 11309700000.0 11309700000.0 11309700000.0 11309700000.0 11309700000.0 11309700000.0 11309700000.0 11309700000.0 11309700000.0 11309700000.0 11309700000.0 11309700000.0 11309700000.0 11309700000.0 11309700000.0 11309700000.0 11309700000.0 11309700000.0 11309700000.0 11309700000.0 11309700000.0 11309700000.0 11309700000.0 11309700000.0 11309700000.0 11309700000.0 11309700000.0 11309700000.0 11309700000.0 11309700000.0 11309700000.0 11309700000.0 11309700000.0 11309700000.0 11309700000.0 11309700000.0 11309700000.0 11309700000.0 11309700000.0 11309700000.0 11309700000.0 11309700000.0 11309700000.0 11309700000.0 11309700000.0 11309700000.0 11309700000.0 11309700000.0 11309700000.0 11309700000.0 11309700000.0 11309700000.0 11309700000.0 11309700000.0 11309700000.0 11309700000.0 11309700000.0 11309700000.0 11309700000.0 11309700000.0 11309700000.0 11309700000.0 11309700000.0 11309700000.0 11309700000.0 11309700000.0 11309700000.0 11309700000.0 11309700000.0 11309700000.0 11309700000.0 11309700000.0 11309700000.0 11309700000.0 11309700000.0 11309700000.0 11309700000.0 11309700000.0 11309700000.0 11309700000.0 11309700000.0 11309700000.0 11309700000.0 11309700000.0 11309700000.0 11309700000.0 11309700000.0 11309700000.0 11309700000.0 11309700000.0 11309700000.0 11309700000.0 11309700000.0 11309700000.0 11309700000.0 11309700000.0 11309700000.0 11309700000.0 11309700000.0 11309700000.0 11309700000.0 11309700000.0 11309700000.0 11309700000.0 11309700000.0 11309700000.0 11309700000.0 11309700000.0 11309700000.0 11309700000.0 11309700000.0 11309700000.0 11309700000.0 11309700000.0 11309700000.0 11309700000.0 11309700000.0 11309700000.0 11309700000.0 11309700000.0 11309700000.0 11309700000.0 11309700000.0 11309700000.0 11309700000.0 11309700000.0 11309700000.0 11309700000.0 11309700000.0 11309700000.0 11309700000.0 11309700000.0 11309700000.0 11309700000.0 11309700000.0 11309700000.0 11309700000.0 11309700000.0 11309700000.0 11309700000.0 11309700000.0 11309700000.0 11309700000.0 11309700000.0 11309700000.0 11309700000.0 11309700000.0 11309700000.0 11309700000.0 11309700000.0 11309700000.0 11309700000.0 11309700000.0 11309700000.0 11309700000.0 11309700000.0 11309700000.0 11309700000.0 11309700000.0 11309700000.0 11309700000.0 11309700000.0 11309700000.0 11309700000.0 11309700000.0 11309700000.0 11309700000.0 11309700000.0 11309700000.0 11309700000.0 11309700000.0 11309700000.0 11309700000.0 11309700000.0 11309700000.0 11309700000.0 11309700000.0 11309700000.0 11309700000.0 11309700000.0 11309700000.0 11309700000.0 11309700000.0 11309700000.0 11309700000.0 11309700000.0 11309700000.0 11309700000.0 11309700000.0 11309700000.0 11309700000.0 11309700000.0 11309700000.0 11309700000.0 11309700000.0 11309700000.0 11309700000.0 11309700000.0 11309700000.0 11309700000.0 11309700000.0 11309700000.0 11309700000.0 11309700000.0 11309700000.0 11309700000.0 11309700000.0 11309700000.0 11309700000.0 11309700000.0 11309700000.0 11309700000.0 11309700000.0 11309700000.0 11309700000.0 11309700000.0 11309700000.0 11309700000.0 11309700000.0 11309700000.0 11309700000.0 11309700000.0 11309700000.0 11309700000.0 11309700000.0 11309700000.0 11309700000.0 11309700000.0 11309700000.0 11309700000.0 11309700000.0 11309700000.0 11309700000.0 11309700000.0 11309700000.0 11309700000.0 11309700000.0 11309700000.0 11309700000.0 11309700000.0 11309700000.0 11309700000.0 11309700000.0 11309700000.0 11309700000.0 11309700000.0 11309700000.0 11309700000.0 11309700000.0 11309700000.0 11309700000.0 11309700000.0 11309700000.0 11309700000.0 11309700000.0 11309700000.0 11309700000.0 11309700000.0 11309700000.0 11309700000.0 11309700000.0 11309700000.0 11309700000.0 11309700000.0 11309700000.0 11309700000.0 11309700000.0 11309700000.0 11309700000.0 11309700000.0 11309700000.0 11309700000.0 11309700000.0 11309700000.0 11309700000.0 11309700000.0 11309700000.0 11309700000.0 11309700000.0 11309700000.0 11309700000.0 11309700000.0 11309700000.0 11309700000.0 11309700000.0 11309700000.0 11309700000.0 11309700000.0 11309700000.0 11309700000.0 11309700000.0 11309700000.0 11309700000.0 11309700000.0 11309700000.0 11309700000.0 11309700000.0 11309700000.0 11309700000.0 11309700000.0 11309700000.0 11309700000.0 11309700000.0 11309700000.0 11309700000.0 11309700000.0 11309700000.0 11309700000.0 11309700000.0 11309700000.0 11309700000.0 11309700000.0 11309700000.0 11309700000.0 11309700000.0 11309700000.0 11309700000.0 11309700000.0 11309700000.0 11309700000.0 11309700000.0 11309700000.0 11309700000.0 11309700000.0 11309700000.0 11309700000.0 11309700000.0 11309700000.0 11309700000.0 11309700000.0 11309700000.0 11309700000.0 11309700000.0 11309700000.0 11309700000.0 11309700000.0 11309700000.0 11309700000.0 11309700000.0 11309700000.0 11309700000.0 11309700000.0 11309700000.0 11309700000.0 11309700000.0 11309700000.0 11309700000.0 11309700000.0 11309700000.0 11309700000.0 11309700000.0 11309700000.0 11309700000.0 11309700000.0 11309700000.0 11309700000.0 11309700000.0 11309700000.0 11309700000.0 11309700000.0 11309700000.0 11309700000.0 11309700000.0 11309700000.0 11309700000.0 11309700000.0 11309700000.0 11309700000.0 11309700000.0 11309700000.0 11309700000.0 11309700000.0 11309700000.0 11309700000.0 11309700000.0 11309700000.0 11309700000.0 11309700000.0 11309700000.0 11309700000.0 11309700000.0 11309700000.0 11309700000.0 11309700000.0 11309700000.0 11309700000.0 11309700000.0 11309700000.0 11309700000.0 11309700000.0 11309700000.0 11309700000.0 11309700000.0 11309700000.0 11309700000.0 11309700000.0 11309700000.0 11309700000.0 11309700000.0 11309700000.0 11309700000.0 11309700000.0 11309700000.0 11309700000.0 11309700000.0 11309700000.0 11309700000.0 11309700000.0 11309700000.0 11309700000.0 11309700000.0 11309700000.0 11309700000.0 11309700000.0 11309700000.0 11309700000.0 11309700000.0 11309700000.0 11309700000.0 11309700000.0 11309700000.0 11309700000.0 11309700000.0 11309700000.0 11309700000.0 11309700000.0 11309700000.0 11309700000.0 11309700000.0 11309700000.0 11309700000.0 11309700000.0 11309700000.0 11309700000.0 11309700000.0 11309700000.0 11309700000.0 11309700000.0 11309700000.0 11309700000.0 11309700000.0 11309700000.0 11309700000.0 11309700000.0 11309700000.0 11309700000.0 11309700000.0 11309700000.0 11309700000.0 11309700000.0 11309700000.0 11309700000.0 11309700000.0 11309700000.0 11309700000.0 11309700000.0 11309700000.0 11309700000.0 11309700000.0 11309700000.0 11309700000.0 11309700000.0 11309700000.0 11309700000.0 11309700000.0 11309700000.0 11309700000.0 11309700000.0 11309700000.0 11309700000.0 11309700000.0 11309700000.0 11309700000.0 11309700000.0 11309700000.0 11309700000.0 11309700000.0 11309700000.0 11309700000.0 11309700000.0 11309700000.0 11309700000.0 11309700000.0 11309700000.0 11309700000.0 11309700000.0 11309700000.0 11309700000.0 11309700000.0 11309700000.0 11309700000.0 11309700000.0 11309700000.0 11309700000.0 11309700000.0 11309700000.0 11309700000.0 11309700000.0 11309700000.0 11309700000.0 11309700000.0 11309700000.0 11309700000.0 11309700000.0 11309700000.0 11309700000.0 11309700000.0 11309700000.0 11309700000.0 11309700000.0 11309700000.0 11309700000.0 11309700000.0 11309700000.0 11309700000.0 11309700000.0 11309700000.0 11309700000.0 11309700000.0 11309700000.0 11309700000.0 11309700000.0 11309700000.0 11309700000.0 11309700000.0 11309700000.0 11309700000.0 11309700000.0 11309700000.0 11309700000.0 11309700000.0 11309700000.0 11309700000.0 11309700000.0 11309700000.0 11309700000.0 11309700000.0 11309700000.0 11309700000.0 11309700000.0 11309700000.0 11309700000.0 11309700000.0 11309700000.0 11309700000.0 11309700000.0 11309700000.0 11309700000.0 11309700000.0 11309700000.0 11309700000.0 11309700000.0 11309700000.0 11309700000.0 11309700000.0 11309700000.0 11309700000.0 11309700000.0 11309700000.0 11309700000.0 11309700000.0 11309700000.0 11309700000.0 11309700000.0 11309700000.0 11309700000.0 11309700000.0 11309700000.0 11309700000.0 11309700000.0 11309700000.0 11309700000.0 11309700000.0 11309700000.0 11309700000.0 11309700000.0 11309700000.0 11309700000.0 11309700000.0 11309700000.0 11309700000.0 11309700000.0 11309700000.0 11309700000.0 11309700000.0 11309700000.0 11309700000.0 11309700000.0 11309700000.0 11309700000.0 11309700000.0 11309700000.0 11309700000.0 11309700000.0 11309700000.0 11309700000.0 11309700000.0 11309700000.0 11309700000.0 11309700000.0 11309700000.0 11309700000.0 11309700000.0 11309700000.0 11309700000.0 11309700000.0 11309700000.0 11309700000.0 11309700000.0 11309700000.0 11309700000.0 11309700000.0 11309700000.0 11309700000.0 11309700000.0 11309700000.0 11309700000.0 11309700000.0 11309700000.0 11309700000.0 11309700000.0 11309700000.0 11309700000.0 11309700000.0 11309700000.0 11309700000.0 11309700000.0 11309700000.0 11309700000.0 11309700000.0 11309700000.0 11309700000.0 11309700000.0 11309700000.0 11309700000.0 11309700000.0 11309700000.0 11309700000.0 11309700000.0 11309700000.0 11309700000.0 11309700000.0 11309700000.0 11309700000.0 11309700000.0 11309700000.0 11309700000.0 11309700000.0 11309700000.0 11309700000.0 11309700000.0 11309700000.0 11309700000.0 11309700000.0 11309700000.0 11309700000.0 11309700000.0 11309700000.0 11309700000.0 11309700000.0 11309700000.0 11309700000.0 11309700000.0 11309700000.0 11309700000.0 11309700000.0 11309700000.0 11309700000.0 11309700000.0 11309700000.0 11309700000.0 11309700000.0 11309700000.0 11309700000.0 11309700000.0 11309700000.0 11309700000.0 11309700000.0 11309700000.0 11309700000.0 11309700000.0 11309700000.0 11309700000.0 11309700000.0 11309700000.0 11309700000.0 11309700000.0 11309700000.0 11309700000.0 11309700000.0 11309700000.0 11309700000.0 11309700000.0 11309700000.0 11309700000.0 11309700000.0 11309700000.0 11309700000.0 11309700000.0 11309700000.0 11309700000.0 11309700000.0 11309700000.0 11309700000.0 11309700000.0 11309700000.0 11309700000.0 11309700000.0 11309700000.0 11309700000.0 11309700000.0 11309700000.0 11309700000.0 11309700000.0 11309700000.0 11309700000.0 11309700000.0 11309700000.0 11309700000.0 11309700000.0 11309700000.0 11309700000.0 11309700000.0 11309700000.0 11309700000.0 11309700000.0 11309700000.0 11309700000.0 11309700000.0 11309700000.0 11309700000.0 11309700000.0 11309700000.0 11309700000.0 11309700000.0 11309700000.0 11309700000.0 11309700000.0 11309700000.0 11309700000.0 11309700000.0 11309700000.0 11309700000.0 11309700000.0 11309700000.0 11309700000.0 11309700000.0 11309700000.0 11309700000.0 11309700000.0 11309700000.0 11309700000.0 11309700000.0 11309700000.0 11309700000.0 11309700000.0 11309700000.0 11309700000.0 11309700000.0 11309700000.0 11309700000.0 11309700000.0 11309700000.0 11309700000.0 11309700000.0 11309700000.0 11309700000.0 11309700000.0 11309700000.0 11309700000.0 11309700000.0 11309700000.0 11309700000.0 11309700000.0 11309700000.0 11309700000.0 11309700000.0 11309700000.0 11309700000.0 11309700000.0 11309700000.0 11309700000.0 11309700000.0 11309700000.0 11309700000.0 11309700000.0 11309700000.0 11309700000.0 11309700000.0 11309700000.0 11309700000.0 11309700000.0 11309700000.0 11309700000.0 11309700000.0 11309700000.0 11309700000.0 11309700000.0 11309700000.0 11309700000.0 11309700000.0 11309700000.0 11309700000.0 11309700000.0 11309700000.0 11309700000.0 11309700000.0 11309700000.0 11309700000.0 11309700000.0 11309700000.0 11309700000.0 11309700000.0 11309700000.0 11309700000.0 11309700000.0 11309700000.0 11309700000.0 11309700000.0 11309700000.0 11309700000.0 11309700000.0 11309700000.0 11309700000.0 11309700000.0 11309700000.0 11309700000.0 11309700000.0 11309700000.0 11309700000.0 11309700000.0 11309700000.0 11309700000.0 11309700000.0 11309700000.0 11309700000.0 11309700000.0 11309700000.0 11309700000.0 11309700000.0 11309700000.0 11309700000.0 11309700000.0 11309700000.0 11309700000.0 11309700000.0 11309700000.0 11309700000.0 11309700000.0 11309700000.0 11309700000.0 11309700000.0 11309700000.0 11309700000.0 11309700000.0 11309700000.0 11309700000.0 11309700000.0 11309700000.0 11309700000.0 11309700000.0 11309700000.0 11309700000.0 11309700000.0 11309700000.0 11309700000.0 11309700000.0 11309700000.0 11309700000.0 11309700000.0 11309700000.0 11309700000.0 11309700000.0 11309700000.0 11309700000.0 11309700000.0 11309700000.0 11309700000.0 11309700000.0 11309700000.0 11309700000.0 11309700000.0 11309700000.0 11309700000.0 11309700000.0 11309700000.0 11309700000.0 11309700000.0 11309700000.0 11309700000.0 11309700000.0 11309700000.0 11309700000.0 11309700000.0 11309700000.0 11309700000.0 11309700000.0 11309700000.0 11309700000.0 11309700000.0 11309700000.0 11309700000.0 11309700000.0 11309700000.0 11309700000.0 11309700000.0 11309700000.0 11309700000.0 11309700000.0 11309700000.0 11309700000.0 11309700000.0 11309700000.0 11309700000.0 11309700000.0 11309700000.0 11309700000.0 11309700000.0 11309700000.0 11309700000.0 11309700000.0 11309700000.0 11309700000.0 11309700000.0 11309700000.0 11309700000.0 11309700000.0 11309700000.0 11309700000.0 11309700000.0 11309700000.0 11309700000.0 11309700000.0 11309700000.0 11309700000.0 11309700000.0 11309700000.0 11309700000.0 11309700000.0 11309700000.0 11309700000.0 11309700000.0 11309700000.0 11309700000.0 11309700000.0 11309700000.0 11309700000.0 11309700000.0 11309700000.0 11309700000.0 11309700000.0 11309700000.0 11309700000.0 11309700000.0 11309700000.0 11309700000.0 11309700000.0 11309700000.0 11309700000.0 11309700000.0 11309700000.0 11309700000.0 11309700000.0 11309700000.0 11309700000.0 11309700000.0 11309700000.0 11309700000.0 11309700000.0 11309700000.0 11309700000.0 11309700000.0 11309700000.0 11309700000.0 11309700000.0 11309700000.0 11309700000.0 11309700000.0 11309700000.0 11309700000.0 11309700000.0 11309700000.0 11309700000.0 11309700000.0 11309700000.0 11309700000.0 11309700000.0 11309700000.0 11309700000.0 11309700000.0 11309700000.0 11309700000.0 11309700000.0 11309700000.0 11309700000.0 11309700000.0 11309700000.0 11309700000.0 11309700000.0 11309700000.0 11309700000.0 11309700000.0 11309700000.0 11309700000.0 11309700000.0 11309700000.0 11309700000.0 11309700000.0 11309700000.0 11309700000.0 11309700000.0 11309700000.0 11309700000.0 11309700000.0 11309700000.0 11309700000.0 11309700000.0 11309700000.0 11309700000.0 11309700000.0 11309700000.0 11309700000.0 11309700000.0 11309700000.0 11309700000.0 11309700000.0 11309700000.0 11309700000.0 11309700000.0 11309700000.0 11309700000.0 11309700000.0 11309700000.0 11309700000.0 11309700000.0 11309700000.0 11309700000.0 11309700000.0 11309700000.0 11309700000.0 11309700000.0 11309700000.0 11309700000.0 11309700000.0 11309700000.0 11309700000.0 11309700000.0 11309700000.0 11309700000.0 11309700000.0 11309700000.0 11309700000.0 11309700000.0 11309700000.0 11309700000.0 11309700000.0 11309700000.0 11309700000.0 11309700000.0 11309700000.0 11309700000.0 11309700000.0 11309700000.0 11309700000.0 11309700000.0 11309700000.0 11309700000.0 11309700000.0 11309700000.0 11309700000.0 11309700000.0 11309700000.0 11309700000.0 11309700000.0 11309700000.0 11309700000.0 11309700000.0 11309700000.0 11309700000.0 11309700000.0 11309700000.0 11309700000.0 11309700000.0 11309700000.0 11309700000.0 11309700000.0 11309700000.0 11309700000.0 11309700000.0 11309700000.0 11309700000.0 11309700000.0 11309700000.0 11309700000.0 11309700000.0 11309700000.0 11309700000.0 11309700000.0 11309700000.0 11309700000.0 11309700000.0 11309700000.0 11309700000.0 11309700000.0 11309700000.0 11309700000.0 11309700000.0 11309700000.0 11309700000.0 11309700000.0 11309700000.0 11309700000.0 11309700000.0 11309700000.0 11309700000.0 11309700000.0 11309700000.0 11309700000.0 11309700000.0 11309700000.0 11309700000.0 11309700000.0 11309700000.0 11309700000.0 11309700000.0 11309700000.0 11309700000.0 11309700000.0 11309700000.0 11309700000.0 11309700000.0 11309700000.0 11309700000.0 11309700000.0 11309700000.0 11309700000.0 11309700000.0 11309700000.0 11309700000.0 11309700000.0 11309700000.0 11309700000.0 11309700000.0 11309700000.0 11309700000.0 11309700000.0 11309700000.0 11309700000.0 11309700000.0 11309700000.0 11309700000.0 11309700000.0 11309700000.0 11309700000.0 11309700000.0 11309700000.0 11309700000.0 11309700000.0 11309700000.0 11309700000.0 11309700000.0 11309700000.0 11309700000.0 11309700000.0 11309700000.0 11309700000.0 11309700000.0 11309700000.0 11309700000.0 11309700000.0 11309700000.0 11309700000.0 11309700000.0 11309700000.0 11309700000.0 11309700000.0 11309700000.0 11309700000.0 11309700000.0 11309700000.0 11309700000.0 11309700000.0 11309700000.0 11309700000.0 11309700000.0 11309700000.0 11309700000.0 11309700000.0 11309700000.0 11309700000.0 11309700000.0 11309700000.0 11309700000.0 11309700000.0 11309700000.0 11309700000.0 11309700000.0 11309700000.0 11309700000.0 11309700000.0 11309700000.0 11309700000.0 11309700000.0 11309700000.0 11309700000.0 11309700000.0 11309700000.0 11309700000.0 11309700000.0 11309700000.0 11309700000.0 11309700000.0 11309700000.0 11309700000.0 11309700000.0 11309700000.0 11309700000.0 11309700000.0 11309700000.0 11309700000.0 11309700000.0 11309700000.0 11309700000.0 11309700000.0 11309700000.0 11309700000.0 11309700000.0 11309700000.0 11309700000.0 11309700000.0 11309700000.0 11309700000.0 11309700000.0 11309700000.0 11309700000.0 11309700000.0 11309700000.0 11309700000.0 11309700000.0 11309700000.0 11309700000.0 11309700000.0 11309700000.0 11309700000.0 11309700000.0 11309700000.0 11309700000.0 11309700000.0 11309700000.0 11309700000.0 11309700000.0 11309700000.0 11309700000.0 11309700000.0 11309700000.0 11309700000.0 11309700000.0 11309700000.0 11309700000.0 11309700000.0 11309700000.0 11309700000.0 11309700000.0 11309700000.0 11309700000.0 11309700000.0 11309700000.0 11309700000.0 11309700000.0 11309700000.0 11309700000.0 11309700000.0 11309700000.0 11309700000.0 11309700000.0 11309700000.0 11309700000.0 11309700000.0 11309700000.0 11309700000.0 11309700000.0 11309700000.0 11309700000.0 11309700000.0 11309700000.0 11309700000.0 11309700000.0 11309700000.0 11309700000.0 11309700000.0 11309700000.0 11309700000.0 11309700000.0 11309700000.0 11309700000.0 11309700000.0 11309700000.0 11309700000.0 11309700000.0 11309700000.0 11309700000.0 11309700000.0 11309700000.0 11309700000.0 11309700000.0 11309700000.0 11309700000.0 11309700000.0 11309700000.0 11309700000.0 11309700000.0 11309700000.0 11309700000.0 11309700000.0 11309700000.0 11309700000.0 11309700000.0 11309700000.0 11309700000.0 11309700000.0 11309700000.0 11309700000.0 11309700000.0 11309700000.0 11309700000.0 11309700000.0 11309700000.0 11309700000.0 11309700000.0 11309700000.0 11309700000.0 11309700000.0 11309700000.0 11309700000.0 11309700000.0 11309700000.0 11309700000.0 11309700000.0 11309700000.0 11309700000.0 11309700000.0 11309700000.0 11309700000.0 11309700000.0 11309700000.0 11309700000.0 11309700000.0 11309700000.0 11309700000.0 11309700000.0 11309700000.0 11309700000.0 11309700000.0 11309700000.0 11309700000.0 11309700000.0 11309700000.0 11309700000.0 11309700000.0 11309700000.0 11309700000.0 11309700000.0 11309700000.0 11309700000.0 11309700000.0 11309700000.0 11309700000.0 11309700000.0 11309700000.0 11309700000.0 11309700000.0 11309700000.0 11309700000.0 11309700000.0 11309700000.0 11309700000.0 11309700000.0 11309700000.0 11309700000.0 11309700000.0 11309700000.0 11309700000.0 11309700000.0 11309700000.0 11309700000.0 11309700000.0 11309700000.0 11309700000.0 11309700000.0 11309700000.0 11309700000.0 11309700000.0 11309700000.0 11309700000.0 11309700000.0 11309700000.0 11309700000.0 11309700000.0 11309700000.0 11309700000.0 11309700000.0 11309700000.0 11309700000.0 11309700000.0 11309700000.0 11309700000.0 11309700000.0 11309700000.0 11309700000.0 11309700000.0 11309700000.0 11309700000.0 11309700000.0 11309700000.0 11309700000.0 11309700000.0 11309700000.0 11309700000.0 11309700000.0 11309700000.0 11309700000.0 11309700000.0 11309700000.0 11309700000.0 11309700000.0 11309700000.0 11309700000.0 11309700000.0 11309700000.0 11309700000.0 11309700000.0 11309700000.0 11309700000.0 11309700000.0 11309700000.0 11309700000.0 11309700000.0 11309700000.0 11309700000.0 11309700000.0 11309700000.0 11309700000.0 11309700000.0 11309700000.0 11309700000.0 11309700000.0 11309700000.0 11309700000.0 11309700000.0 11309700000.0 11309700000.0 11309700000.0 11309700000.0 11309700000.0 11309700000.0 11309700000.0 11309700000.0 11309700000.0 11309700000.0 11309700000.0 11309700000.0 11309700000.0 11309700000.0 11309700000.0 11309700000.0 11309700000.0 11309700000.0 11309700000.0 11309700000.0 11309700000.0 11309700000.0 11309700000.0 11309700000.0 11309700000.0 11309700000.0 11309700000.0 11309700000.0 11309700000.0 11309700000.0 11309700000.0 11309700000.0 11309700000.0 11309700000.0 11309700000.0 11309700000.0 11309700000.0 11309700000.0 11309700000.0 11309700000.0 11309700000.0 11309700000.0 11309700000.0 11309700000.0 11309700000.0 11309700000.0 11309700000.0 11309700000.0 11309700000.0 11309700000.0 11309700000.0 11309700000.0 11309700000.0 11309700000.0 11309700000.0 11309700000.0 11309700000.0 11309700000.0 11309700000.0 11309700000.0 11309700000.0 11309700000.0 11309700000.0 11309700000.0 11309700000.0 11309700000.0 11309700000.0 11309700000.0 11309700000.0 11309700000.0 11309700000.0 11309700000.0 11309700000.0 11309700000.0 11309700000.0 11309700000.0 11309700000.0 11309700000.0 11309700000.0 11309700000.0 11309700000.0 11309700000.0 11309700000.0 11309700000.0 11309700000.0 11309700000.0 11309700000.0 11309700000.0 11309700000.0 11309700000.0 11309700000.0 11309700000.0 11309700000.0 11309700000.0 11309700000.0 11309700000.0 11309700000.0 11309700000.0 11309700000.0 11309700000.0 11309700000.0 11309700000.0 11309700000.0 11309700000.0 11309700000.0 11309700000.0 11309700000.0 11309700000.0 11309700000.0 11309700000.0 11309700000.0 11309700000.0 11309700000.0 11309700000.0 11309700000.0 11309700000.0 11309700000.0 11309700000.0 11309700000.0 11309700000.0 11309700000.0 11309700000.0 11309700000.0 11309700000.0 11309700000.0 11309700000.0 11309700000.0 11309700000.0 11309700000.0 11309700000.0 11309700000.0 11309700000.0 11309700000.0 11309700000.0 11309700000.0 11309700000.0 11309700000.0 11309700000.0 11309700000.0 11309700000.0 11309700000.0 11309700000.0 11309700000.0 11309700000.0 11309700000.0 11309700000.0 11309700000.0 11309700000.0 11309700000.0 11309700000.0 11309700000.0 11309700000.0 11309700000.0 11309700000.0 11309700000.0 11309700000.0 11309700000.0 11309700000.0 11309700000.0 11309700000.0 11309700000.0 11309700000.0 11309700000.0 11309700000.0 11309700000.0 11309700000.0 11309700000.0 11309700000.0 11309700000.0 11309700000.0 11309700000.0 11309700000.0 11309700000.0 11309700000.0 11309700000.0 11309700000.0 11309700000.0 11309700000.0 11309700000.0 11309700000.0 11309700000.0 11309700000.0 11309700000.0 11309700000.0 11309700000.0 11309700000.0 11309700000.0 11309700000.0 11309700000.0 11309700000.0 11309700000.0 11309700000.0 11309700000.0 11309700000.0 11309700000.0 11309700000.0 11309700000.0 11309700000.0 11309700000.0 11309700000.0 11309700000.0 11309700000.0 11309700000.0 11309700000.0 11309700000.0 11309700000.0 11309700000.0 11309700000.0 11309700000.0 11309700000.0 11309700000.0 11309700000.0 11309700000.0 11309700000.0 11309700000.0 11309700000.0 11309700000.0 11309700000.0 11309700000.0 11309700000.0 11309700000.0 11309700000.0 11309700000.0 11309700000.0 11309700000.0 11309700000.0 11309700000.0 11309700000.0 11309700000.0 11309700000.0 11309700000.0 11309700000.0 11309700000.0 11309700000.0 11309700000.0 11309700000.0 11309700000.0 11309700000.0 11309700000.0 11309700000.0 11309700000.0 11309700000.0 11309700000.0 11309700000.0 11309700000.0 11309700000.0 11309700000.0 11309700000.0 11309700000.0 11309700000.0 11309700000.0 11309700000.0 11309700000.0 11309700000.0 11309700000.0 11309700000.0 11309700000.0 11309700000.0 11309700000.0 11309700000.0 11309700000.0 11309700000.0 11309700000.0 11309700000.0 11309700000.0 11309700000.0 11309700000.0 11309700000.0 11309700000.0 11309700000.0 11309700000.0 11309700000.0 11309700000.0 11309700000.0 11309700000.0 11309700000.0 11309700000.0 11309700000.0 11309700000.0 11309700000.0 11309700000.0 11309700000.0 11309700000.0 11309700000.0 11309700000.0 11309700000.0 11309700000.0 11309700000.0 11309700000.0 11309700000.0 11309700000.0 11309700000.0 11309700000.0 11309700000.0 11309700000.0 11309700000.0 11309700000.0 11309700000.0 11309700000.0 11309700000.0 11309700000.0 11309700000.0 11309700000.0 11309700000.0 11309700000.0 11309700000.0 11309700000.0 11309700000.0 11309700000.0 11309700000.0 11309700000.0 11309700000.0 11309700000.0 11309700000.0 11309700000.0 11309700000.0 11309700000.0 11309700000.0 11309700000.0 11309700000.0 11309700000.0 11309700000.0 11309700000.0 11309700000.0 11309700000.0 11309700000.0 11309700000.0 11309700000.0 11309700000.0 11309700000.0 11309700000.0 11309700000.0 11309700000.0 11309700000.0 11309700000.0 11309700000.0 11309700000.0 11309700000.0 11309700000.0 11309700000.0 11309700000.0 11309700000.0 11309700000.0 11309700000.0 11309700000.0 11309700000.0 11309700000.0 11309700000.0 11309700000.0 11309700000.0 11309700000.0 11309700000.0 11309700000.0 11309700000.0 11309700000.0 11309700000.0 11309700000.0 11309700000.0 11309700000.0 11309700000.0 11309700000.0 11309700000.0 11309700000.0 11309700000.0 11309700000.0 11309700000.0 11309700000.0 11309700000.0 11309700000.0 11309700000.0 11309700000.0 11309700000.0 11309700000.0 11309700000.0 11309700000.0 11309700000.0 11309700000.0 11309700000.0 11309700000.0 11309700000.0 11309700000.0 11309700000.0 11309700000.0 11309700000.0 11309700000.0 11309700000.0 11309700000.0 11309700000.0 11309700000.0 11309700000.0 11309700000.0 11309700000.0 11309700000.0 11309700000.0 11309700000.0 11309700000.0 11309700000.0 11309700000.0 11309700000.0 11309700000.0 11309700000.0 11309700000.0 11309700000.0 11309700000.0 11309700000.0 11309700000.0 11309700000.0 11309700000.0 11309700000.0 11309700000.0 11309700000.0 11309700000.0 11309700000.0 11309700000.0 11309700000.0 11309700000.0 11309700000.0 11309700000.0 11309700000.0 11309700000.0 11309700000.0 11309700000.0 11309700000.0 11309700000.0 11309700000.0 11309700000.0 11309700000.0 11309700000.0 11309700000.0 11309700000.0 11309700000.0 11309700000.0 11309700000.0 11309700000.0 11309700000.0 11309700000.0 11309700000.0 11309700000.0 11309700000.0 11309700000.0 11309700000.0 11309700000.0 11309700000.0 11309700000.0 11309700000.0 11309700000.0 11309700000.0 11309700000.0 11309700000.0 11309700000.0 11309700000.0 11309700000.0 11309700000.0 11309700000.0 11309700000.0 11309700000.0 11309700000.0 11309700000.0 11309700000.0 11309700000.0 11309700000.0 11309700000.0 11309700000.0 11309700000.0 11309700000.0 11309700000.0 11309700000.0 11309700000.0 11309700000.0 11309700000.0 11309700000.0 11309700000.0 11309700000.0 11309700000.0 11309700000.0 11309700000.0 11309700000.0 11309700000.0 11309700000.0 11309700000.0 11309700000.0 11309700000.0 11309700000.0 11309700000.0 11309700000.0 11309700000.0 11309700000.0 11309700000.0 11309700000.0 11309700000.0 11309700000.0 11309700000.0 11309700000.0 11309700000.0 11309700000.0 11309700000.0 11309700000.0 11309700000.0 11309700000.0 11309700000.0 11309700000.0 11309700000.0 11309700000.0 11309700000.0 11309700000.0 11309700000.0 11309700000.0 11309700000.0 11309700000.0 11309700000.0 11309700000.0 11309700000.0 11309700000.0 11309700000.0 11309700000.0 11309700000.0 11309700000.0 11309700000.0 11309700000.0 11309700000.0 11309700000.0 11309700000.0 11309700000.0 11309700000.0 11309700000.0 11309700000.0 11309700000.0 11309700000.0 11309700000.0 11309700000.0 11309700000.0 11309700000.0 11309700000.0 11309700000.0 11309700000.0 11309700000.0 11309700000.0 11309700000.0 11309700000.0 11309700000.0 11309700000.0 11309700000.0 11309700000.0 11309700000.0 11309700000.0 11309700000.0 11309700000.0 11309700000.0 11309700000.0 11309700000.0 11309700000.0 11309700000.0 11309700000.0 11309700000.0 11309700000.0 11309700000.0 11309700000.0 11309700000.0 11309700000.0 11309700000.0 11309700000.0 11309700000.0 11309700000.0 11309700000.0 11309700000.0 11309700000.0 11309700000.0 11309700000.0 11309700000.0 11309700000.0 11309700000.0 11309700000.0 11309700000.0 11309700000.0 11309700000.0 11309700000.0 11309700000.0 11309700000.0 11309700000.0 11309700000.0 11309700000.0 11309700000.0 11309700000.0 11309700000.0 11309700000.0 11309700000.0 11309700000.0 11309700000.0 11309700000.0 11309700000.0 11309700000.0 11309700000.0 11309700000.0 11309700000.0 11309700000.0 11309700000.0 11309700000.0 11309700000.0 11309700000.0 11309700000.0 11309700000.0 11309700000.0 
SCALARS Velocity float 1
LOOKUP_TABLE default
1.1117 1.07792 1.08602 1.08642 1.08673 1.09974 1.08142 1.10357 1.10917 1.11434 1.12015 1.06171 1.07304 1.07841 1.07735 1.07655 1.08589 1.08619 1.08761 1.09467 1.09333 1.10103 1.10688 1.11182 1.11668 1.12378 1.04054 1.06973 1.07836 1.07645 1.07679 1.08607 1.08641 1.08229 1.09529 1.09869 1.10405 1.10957 1.11419 1.11618 1.11955 1.12278 1.04255 1.07967 1.07842 1.07749 1.07727 1.0756 1.0761 1.07524 1.07574 1.08616 1.08644 1.08633 1.08679 1.08718 1.08308 1.09418 1.1015 1.10459 1.10727 1.11035 1.11214 1.11415 1.11794 1.0495 1.05209 1.07771 1.07568 1.07448 1.07424 1.08654 1.08688 1.08694 1.09565 1.09561 1.09893 1.10161 1.10831 1.11302 1.11516 1.11982 1.04963 1.07892 1.0756 1.07386 1.07335 1.08686 1.08734 1.08405 1.0962 1.0993 1.10576 1.11186 1.11473 1.11472 1.11311 1.08439 1.08091 1.07674 1.07579 1.07311 1.07343 1.07153 1.0724 1.07112 1.07229 1.08682 1.08704 1.08719 1.08733 1.08737 1.08564 1.09508 1.10312 1.10776 1.11015 1.11422 1.11467 1.11599 1.11496 1.11355 1.09777 1.07898 1.07322 1.0708 1.06997 1.07001 1.08682 1.08715 1.0878 1.08781 1.0923 1.09616 1.09997 1.10462 1.11285 1.11708 1.11515 1.10707 1.08534 1.07435 1.07033 1.06891 1.06866 1.08686 1.08725 1.08734 1.09232 1.10079 1.11023 1.11754 1.11754 1.11068 1.09469 1.08351 1.07776 1.07204 1.07051 1.06752 1.06802 1.06621 1.06737 1.06606 1.06751 1.08637 1.08684 1.08689 1.089 1.09649 1.10637 1.11349 1.11649 1.12201 1.12017 1.11888 1.11443 1.1074 1.10205 1.0906 1.0752 1.06779 1.06528 1.06472 1.06485 1.08532 1.0862 1.08594 1.08665 1.08661 1.08759 1.0894 1.09259 1.09689 1.10167 1.10869 1.12154 1.12397 1.11309 1.09726 1.07984 1.06908 1.06479 1.06357 1.06337 1.08488 1.08569 1.0873 1.09277 1.10291 1.11811 1.1282 1.11983 1.10365 1.08575 1.07512 1.07147 1.06568 1.06491 1.0622 1.0627 1.06103 1.06207 1.06055 1.06201 1.08347 1.08445 1.0857 1.08917 1.09735 1.11181 1.12859 1.13679 1.12869 1.11975 1.11079 1.0994 1.09231 1.08079 1.06725 1.06208 1.06028 1.05935 1.05891 1.08064 1.08276 1.08223 1.08415 1.08411 1.08638 1.0885 1.09306 1.09792 1.10426 1.1151 1.12416 1.13765 1.13437 1.10699 1.08796 1.07023 1.06237 1.05983 1.05849 1.05747 1.07971 1.08194 1.08469 1.09397 1.10487 1.13091 1.14913 1.11769 1.101 1.09536 1.0866 1.07738 1.06641 1.0634 1.05994 1.05968 1.05769 1.05794 1.05564 1.05634 1.05382 1.05538 1.07661 1.07547 1.07923 1.07933 1.0819 1.08694 1.09801 1.1166 1.14868 1.16906 1.1409 1.11145 1.09318 1.07871 1.061 1.05785 1.05523 1.05266 1.05115 1.0708 1.07526 1.07999 1.0821 1.08262 1.09703 1.09822 1.10273 1.11406 1.13665 1.16023 1.14626 1.0914 1.0924 1.06464 1.05876 1.05503 1.05199 1.04919 1.06938 1.07625 1.08106 1.10253 1.10203 1.12753 1.20461 1.096 1.08633 1.09266 1.09678 1.091 1.07961 1.06119 1.05585 1.05519 1.05065 1.05139 1.04688 1.04775 1.04279 1.04577 1.06182 1.06006 1.06954 1.07187 1.07834 1.08034 1.07954 1.10013 1.11474 0.953286 1.11455 1.15342 1.08138 1.0929 1.09016 1.0863 1.0499 1.0454 1.04078 1.03832 1.04824 1.061 1.07582 1.07951 1.10649 1.103 1.10196 1.1451 1.15677 1.00261 1.04243 1.09139 1.09148 1.07904 1.08344 1.09855 1.11001 1.0432 1.03955 1.03291 1.02626 1.03292 1.0469 1.05067 1.06539 1.07235 1.07988 1.10717 1.13723 1.15056 1.09261 1.05604 1.08434 1.07783 1.08129 1.07305 1.09402 1.11568 1.03622 1.02997 1.03034 1.01489 1.03199 1.05962 1.07884 1.08343 1.14147 1.15236 1.12486 1.05348 1.0827 1.06327 1.06612 1.06651 1.08198 1.103 1.10685 1.11451 1.11168 1.01495 1.00274 1.01914 1.04222 1.07231 1.08804 1.13973 1.14195 1.14511 1.14903 1.09921 1.07204 1.06011 1.05745 1.0628 1.05198 1.06162 1.0827 1.09315 1.09768 1.1098 1.13332 0.976278 0.976108 0.961385 0.980571 1.01213 1.02924 1.06049 1.08321 1.08167 1.1004 1.13463 1.13591 1.14651 1.13515 1.09979 1.06746 1.04895 1.04539 1.09204 1.09709 1.1284 1.22863 0.90709 0.971897 1.06132 1.09331 1.12119 1.13881 1.13917 1.14716 1.14856 1.12468 1.13378 1.09615 1.05524 1.04228 1.09395 1.08014 1.08369 1.0728 1.10432 1.1582 0.837579 0.907664 0.889831 0.933747 0.995847 1.05303 1.09966 1.09549 1.10104 1.11319 1.12667 1.1279 1.14433 1.15986 1.13168 1.08428 1.05291 1.03979 1.03304 1.03246 1.11206 1.05357 1.07358 1.41794 0.532415 0.839775 0.835865 0.903814 0.988654 1.07467 1.10765 1.11948 1.12513 1.16261 1.18034 1.11371 1.02583 0.894133 1.12722 1.06686 1.03836 1.02754 1.07925 1.22519 0.827316 1.13204 1.00119 0.97726 1.01879 1.11552 1.11697 1.14245 1.1219 1.12012 1.11484 1.10049 1.13299 1.16915 1.19708 1.23764 1.18818 1.03741 0.979385 1.07544 1.03303 1.35263 1.70158 0.214218 1.01051 0.682957 0.994837 0.942124 1.05612 1.14697 1.14653 1.10526 1.10686 1.23866 1.25255 1.16462 1.00091 0.987478 1.01143 1.11445 1.06393 1.21902 0.968597 1.86504 0.218715 0.630686 0.910899 1.11073 1.19679 1.13513 1.06907 1.17428 1.32851 0.9312 1.01611 0.999883 1.02494 1.07452 1.09485 1.10173 1.10015 0.812687 0.751742 1.0607 2.08264 0.87792 0.218587 0.969202 0.538089 1.05396 1.07422 1.10611 1.20541 1.26855 1.18459 1.1605 1.1124 1.05893 1.08276 1.25121 1.33234 0.942382 0.931494 1.00864 1.0199 1.06213 1.08649 1.03466 0.765657 0.917247 1.25299 1.73019 2.59826 1.90118 2.63673 0.771438 1.04579 1.24726 1.22383 1.14265 1.06775 0.939479 0.967724 0.984145 1.02062 1.0237 1.03656 1.06809 1.06803 1.02355 0.911331 0.94929 1.29936 1.30212 1.07724 1.54704 1.77491 0.896776 0.474039 0.504258 2.99054 0.895442 1.04573 1.1136 1.11171 1.29342 1.36705 1.19422 1.15924 0.948535 1.01825 0.989125 0.761436 0.943941 1.00056 1.02904 1.03066 1.04003 1.05395 1.05185 0.989024 0.88951 1.19769 1.02158 1.88342 1.52991 1.30101 1.0118 0.560426 0.65148 0.67986 1.12546 1.18085 1.10742 1.20599 1.07436 1.13708 1.09178 0.892235 0.923651 0.84164 0.836542 0.883202 0.931925 0.972415 1.01928 1.0329 1.04668 1.05502 1.0376 0.959527 0.894516 0.892508 1.34417 0.784981 1.29246 0.414432 0.356933 0.720163 0.511687 0.35478 0.5014 1.28561 0.9772 1.00483 1.10916 1.11518 0.925801 0.777054 0.899005 0.840117 0.883299 0.95911 0.994451 1.00508 1.02342 1.03581 1.04649 1.04958 1.04774 1.02964 0.951581 0.99555 0.57543 0.62133 0.550432 0.43008 0.528385 0.371434 0.560788 0.533199 0.216607 0.935264 0.80403 1.19643 0.852742 1.11741 0.966537 1.04681 0.958446 0.961472 0.848547 0.742015 0.77445 0.834154 0.842147 0.871281 0.839282 0.851532 0.915356 0.975034 1.00675 1.024 1.02363 1.03698 1.04721 1.05131 1.03215 1.0355 0.960125 0.877613 0.596574 0.726917 0.67645 0.592761 0.538183 0.412889 0.409581 0.548018 0.546516 0.554533 0.515639 0.299375 0.578202 0.857089 0.902948 0.896513 0.962076 0.93478 0.898793 0.77338 0.801376 0.834701 0.850035 0.877605 0.898977 0.936878 0.981389 1.0056 1.02316 1.03755 1.04085 1.05173 1.05244 1.02845 1.01319 1.04234 0.88282 0.813879 0.727493 0.543163 0.457302 0.534654 0.535555 0.552736 0.540244 0.556392 0.557669 0.627645 0.643232 0.712573 0.766164 0.585285 0.80749 0.942541 0.911077 0.915379 0.815063 0.774422 0.813728 0.831039 0.86693 0.912519 0.948255 0.951693 0.981534 1.00392 1.02475 1.04438 1.05439 1.04983 1.04277 1.02715 1.03193 0.770363 0.698479 0.967461 1.24295 0.593532 0.543328 0.537508 0.52189 0.533882 0.559536 0.568039 0.560074 0.588893 0.638558 0.749387 0.681576 0.884052 0.926781 0.925209 0.834296 0.833322 0.775108 0.771337 0.774774 0.79073 0.801782 0.817466 0.822103 0.842141 0.85246 0.879845 0.918764 0.950257 0.979325 0.977275 1.00376 1.02725 1.04445 1.02429 1.01264 0.994747 1.04402 0.951451 0.900478 0.812103 0.655329 0.649977 0.603199 0.203868 0.503839 0.462232 0.520059 0.522928 0.501093 0.514796 0.519419 0.551916 0.55073 0.577881 0.572744 0.585756 0.580933 0.667394 0.734343 0.982223 0.828856 0.775256 0.764033 0.788655 0.80929 0.830576 0.858636 0.88687 0.888329 0.919073 0.947076 0.977077 1.00527 1.00615 1.02848 1.02581 1.03199 0.980542 0.983122 0.837593 0.825614 0.740701 0.628106 0.408541 0.275598 0.463894 0.532665 0.516336 0.535335 0.487004 0.502579 0.533202 0.539869 0.560894 0.560196 0.54695 0.558474 0.60133 0.688389 0.491239 1.15149 0.773169 0.809137 0.760949 0.771493 0.750141 0.75582 0.775715 0.796766 0.814961 0.836341 0.860641 0.885296 0.915725 0.944616 0.977863 1.00805 1.01545 1.00176 0.966791 0.950537 0.885882 0.814028 0.754543 0.682217 0.722513 0.638651 0.397123 0.356935 0.430171 0.518542 0.539367 0.568307 0.606123 0.485671 0.48125 0.490802 0.501202 0.522299 0.541732 0.555402 0.557103 0.523575 0.541097 0.520597 0.536193 0.993317 0.752154 0.741234 0.753055 0.764027 0.776362 0.785785 0.793127 0.802458 0.80584 0.81879 0.819592 0.837878 0.858399 0.879555 0.910796 0.906329 0.943982 0.942543 0.980046 1.0112 0.989625 0.92186 0.760172 0.749699 0.73815 0.66208 0.631618 0.723928 0.471814 0.437443 0.398001 0.484458 0.52194 0.547639 0.574167 0.656126 0.474826 0.47856 0.471748 0.48686 0.513463 0.555306 0.570398 0.57169 0.608096 0.578889 0.58257 0.683981 0.830455 0.82393 0.761981 0.735624 0.740963 0.766353 0.785642 0.797218 0.806305 0.817338 0.835578 0.830532 0.852908 0.845026 0.872437 0.864148 0.901526 0.946201 0.988029 1.00211 1.01047 0.983575 0.950973 0.899419 0.851358 0.75475 0.693455 0.81015 0.941057 0.544054 0.565806 0.410404 0.424794 0.433778 0.489773 0.525724 0.557161 0.591554 0.618316 0.668497 0.709813 0.457027 0.467945 0.448974 0.470234 0.49718 0.497685 0.521769 0.548856 0.59686 0.635323 0.644018 0.644288 0.84723 0.799482 0.779257 0.722078 0.727356 0.741397 0.754784 0.770754 0.779007 0.791403 0.796939 0.803705 0.812452 0.823224 0.836337 0.849833 0.89562 0.961207 1.02455 0.919329 0.869273 0.844359 0.732865 0.710832 0.853135 0.562254 0.509985 0.423046 0.421887 0.538533 0.5789 0.620766 0.712523 0.767793 0.44664 0.448949 0.456822 0.439884 0.4397 0.456373 0.471949 0.481269 0.503028 0.528483 0.571559 0.591192 0.569417 0.515187 0.189268 0.793007 0.633566 0.677629 0.706747 0.69502 0.720154 0.759026 0.784946 0.787629 0.788892 0.791229 0.78715 0.79367 0.788368 0.798652 0.805672 0.814623 0.8242 0.830818 0.804565 0.896383 0.912128 0.994546 1.05151 0.985413 0.894871 0.854019 0.741788 0.696806 0.74884 0.7361 0.609998 0.582166 0.488932 0.431779 0.408924 0.434968 0.468808 0.533813 0.545646 0.511937 0.571078 0.642857 0.666735 0.739139 0.806835 0.781597 0.440753 0.44066 0.443113 0.439136 0.431615 0.444253 0.461535 0.477946 0.497934 0.555268 0.559868 0.539055 0.486999 0.358369 0.577933 0.706616 0.65878 0.671939 0.704753 0.749104 0.776312 0.789751 0.783685 0.781318 0.781962 0.792109 0.784279 0.797477 0.789375 0.805732 0.793484 0.806588 0.786057 0.770932 0.968242 1.02111 0.838608 0.908528 1.06628 0.716604 0.76191 0.713375 0.684239 0.59351 0.546942 0.461733 0.398123 0.480583 0.533821 0.514937 0.561302 0.69899 0.737097 0.489413 0.440312 0.440062 0.435426 0.439023 0.427714 0.427398 0.432636 0.442 0.457571 0.46853 0.475393 0.526327 0.533883 0.514012 0.498943 0.442217 0.524164 0.659664 0.669248 0.678862 0.71872 0.762848 0.789652 0.79783 0.790111 0.783498 0.774002 0.776373 0.774366 0.774173 0.776004 0.780752 0.781842 0.761703 0.784981 1.02978 1.09042 0.835428 0.90148 0.603601 0.668785 0.695213 0.362792 0.437913 0.460491 0.568162 0.552204 0.479726 0.505681 0.484127 0.560829 0.72719 0.677764 0.700746 0.378917 0.387252 0.445311 0.43844 0.441168 0.432936 0.426045 0.425618 0.419868 0.428423 0.458375 0.461718 0.496718 0.514858 0.515915 0.511549 0.497948 0.527255 0.593279 0.685815 0.674571 0.672167 0.692311 0.764835 0.819642 0.774414 0.766297 0.768983 0.760682 0.766567 0.757941 0.765872 0.76828 0.773866 0.773953 0.782057 0.756932 0.774553 0.686683 0.893062 0.940155 0.872994 0.810687 0.651031 0.658627 0.684928 0.648148 0.596726 0.508387 0.474964 0.382404 0.645762 0.66118 0.559109 0.459737 0.533368 0.860432 0.680491 0.68556 0.48449 0.479792 0.460256 0.44116 0.435763 0.422744 0.424712 0.417606 0.410973 0.415797 0.419385 0.443913 0.454815 0.482079 0.506344 0.519409 0.515134 0.539355 0.547779 0.573253 0.636345 0.660191 0.662057 0.684192 0.725344 0.819982 0.775191 0.767507 0.756544 0.752171 0.749567 0.757715 0.750526 0.761619 0.760041 0.7722 0.781688 0.82771 0.833855 0.31565 0.389341 0.702504 0.669361 0.667375 0.659114 0.651255 0.610403 0.596485 0.632315 0.345784 0.160019 0.299109 0.466659 0.476329 0.510819 0.42655 0.517561 0.448737 1.15083 1.2222 0.429415 0.367269 0.235935 0.50797 0.450579 0.424226 0.432543 0.424203 0.416464 0.405278 0.407631 0.406822 0.426491 0.442897 0.440499 0.4788 0.529056 0.5325 0.544797 0.559425 0.581007 0.622741 0.651922 0.658249 0.67807 0.740315 0.786571 0.836018 0.779314 0.774371 0.756765 0.75499 0.747662 0.743863 0.741876 0.746942 0.767369 0.817034 0.852613 0.727494 0.373208 0.252929 0.565104 0.554577 0.613433 0.624213 0.642133 0.664593 0.676946 0.641265 0.539448 0.428311 0.537682 0.388679 0.234189 0.360348 0.469089 0.436299 0.386436 0.41281 0.968422 0.639998 0.438924 0.421691 0.218047 0.190737 0.544116 0.525033 0.474809 0.419784 0.417766 0.413702 0.415699 0.40143 0.387765 0.398144 0.398823 0.41041 0.415253 0.43031 0.428157 0.618847 0.641987 0.654288 0.654169 0.80096 0.801924 0.814726 0.763716 0.739041 0.74315 0.736531 0.739636 0.73365 0.735907 0.73047 0.736335 0.748166 0.759234 0.790466 0.815797 0.82794 0.76733 0.507527 0.556565 0.838951 0.572229 0.5686 0.590774 0.627394 0.65664 0.65841 0.631797 0.597445 0.459457 0.382404 0.315253 0.273658 0.441963 0.448481 0.465879 0.491515 0.602102 0.261177 0.401693 0.277062 0.0900077 0.152365 0.129868 0.491033 0.538147 0.576053 0.439026 0.382107 0.392012 0.402385 0.404408 0.38306 0.389863 0.393278 0.393803 0.396493 0.407767 0.399601 0.549089 0.536308 0.546392 0.562961 0.58882 0.643667 0.656735 0.677394 0.711674 0.999114 0.905965 0.91496 0.760485 0.720728 0.734717 0.731879 0.730951 0.728467 0.724983 0.733343 0.734328 0.777884 0.772143 0.643724 0.486513 0.514593 0.568118 0.544529 0.534894 0.531349 0.54566 0.598258 0.651966 0.66174 0.638196 0.505965 0.370225 0.381254 0.372682 0.396201 0.458239 0.507114 0.53038 0.604617 0.70975 0.215944 0.311469 0.133953 0.0467336 0.131833 0.144213 0.484306 0.571889 0.485833 0.390235 0.352042 0.404045 0.392351 0.359934 0.365885 0.386424 0.390885 0.388264 0.394154 0.407909 0.383474 0.570418 0.520164 0.533683 0.558777 0.58774 0.617521 0.676478 0.673595 0.81083 1.07392 0.771396 0.940816 0.601105 0.734973 0.727276 0.71944 0.728019 0.730249 0.723282 0.719398 0.739226 0.80561 0.690755 0.592379 0.528208 0.673028 0.559576 0.507552 0.473746 0.469437 0.509254 0.605285 0.708104 0.723678 0.631069 0.500688 0.461358 0.586294 0.585226 0.56499 0.286189 0.227677 0.206649 0.0825178 0.070964 0.168473 0.136343 0.13388 0.0776122 0.35077 0.646454 0.485687 0.52043 0.422317 0.356124 0.333873 0.297341 0.397901 0.415335 0.366791 0.336654 0.390931 0.368635 0.443216 0.535201 0.538811 0.519346 0.548231 0.581198 0.614858 0.64935 0.559433 0.327282 0.441133 0.633601 0.739078 1.04346 0.781814 0.707952 0.720595 0.727637 0.722803 0.723516 0.716454 0.713558 0.709427 0.719673 0.729263 0.74845 0.709764 0.658233 0.608404 0.554323 0.603706 0.538142 0.447613 0.403886 0.402962 0.471221 0.434023 0.432931 0.469661 0.559593 0.52818 0.345467 0.243067 0.199243 0.112113 0.0763328 0.124427 0.135128 0.142177 0.159687 0.076784 0.206558 0.859619 0.707192 0.425369 0.364628 0.320586 0.331807 0.451312 0.35934 0.35059 0.345542 0.417705 0.34947 0.347389 0.392553 0.305273 0.524411 0.501971 0.531774 0.570019 0.601973 0.624121 0.624744 0.42458 0.335097 0.410628 0.558278 0.672814 0.791455 0.8498 0.71538 0.709736 0.718091 0.718586 0.716206 0.712287 0.704195 0.753157 0.651489 0.668029 0.658014 0.574426 0.574596 0.581242 0.533349 0.360303 0.607777 0.810514 0.880939 0.886722 0.636443 0.548747 0.478301 0.506953 0.593003 0.587817 0.565938 0.414834 0.303873 0.249142 0.108735 0.13655 0.109418 0.136982 0.14538 0.142303 0.190452 0.0240772 0.38722 0.773889 0.568257 0.489084 0.350953 0.328428 0.318756 0.277157 0.0920272 0.428653 0.319936 0.299273 0.177112 0.337331 0.326876 0.281417 0.375789 0.481777 0.518767 0.560452 0.595437 0.613547 0.607228 0.558646 0.448154 0.521007 0.618848 0.724661 0.802682 0.57026 0.78538 0.726755 0.716248 0.716914 0.720214 0.706116 0.713437 0.684276 0.662852 0.671571 0.626788 0.600853 0.593257 0.606457 0.313106 0.332642 0.417181 0.522614 0.701809 0.93923 0.741139 0.463572 0.379718 0.485468 0.514609 0.568094 0.556079 0.553485 0.515067 0.35903 0.306229 0.2723 0.19189 0.158004 0.204096 0.177501 0.138217 0.148174 0.169132 0.21076 0.0484411 0.159088 0.440952 0.417615 0.9803 0.366678 0.338883 0.330524 0.319095 0.262438 0.333226 0.304611 0.249088 0.279918 0.335209 0.319827 0.328959 0.289516 0.292382 0.561082 0.601923 0.619291 0.615099 0.582493 0.511569 0.447811 0.528197 0.589347 0.665305 0.728275 0.662973 0.566798 0.7172 0.71905 0.714954 0.714001 0.713863 0.725264 0.705434 0.710733 0.69842 0.630163 0.661736 0.657391 0.67684 0.638617 0.608024 0.58422 0.26146 0.317084 0.427146 0.503681 0.744479 0.797625 0.529624 0.220047 0.325063 0.465399 0.519431 0.521365 0.536682 0.529622 0.512115 0.437956 0.335432 0.331955 0.105053 0.164411 0.239232 0.13676 0.146088 0.153197 0.168211 0.281958 0.655098 0.0789048 0.0960959 0.315002 0.615572 0.635571 0.527159 0.382164 0.387508 0.342447 0.18854 0.401274 0.348307 0.301462 0.291472 0.313286 0.296858 0.297839 0.382083 0.490985 0.641382 0.637118 0.616475 0.570482 0.527998 0.508157 0.666413 0.663832 0.624954 0.570866 0.67585 0.755316 0.702446 0.712168 0.700319 0.689982 0.688724 0.589562 0.624921 0.673718 0.701918 0.618555 0.624553 0.679733 0.788012 0.101639 0.573639 0.426459 0.662667 0.704867 0.577613 0.364087 0.290826 0.374904 0.485598 0.52102 0.539045 0.528427 0.507487 0.451557 0.397397 0.344941 0.187452 0.217606 0.048775 0.132647 0.120765 0.128871 0.19403 0.613878 0.753346 0.603959 0.12958 0.148168 0.149826 0.240493 0.403649 0.281324 0.823746 0.681656 0.488136 0.468181 0.416973 0.286527 0.287628 0.375934 0.345138 0.320362 0.319582 0.348717 0.359733 0.335882 0.306342 0.319999 0.408876 0.544273 0.621869 0.652656 0.61808 0.580295 0.553116 0.550373 0.574577 0.621044 0.614453 0.628951 0.659367 0.677343 0.703274 0.722744 0.682799 0.741595 0.667388 0.74173 0.636038 0.637702 0.644376 0.675377 0.6084 0.620027 0.669419 0.867538 0.619387 0.438972 0.603077 0.652405 0.584489 0.464728 0.394342 0.378007 0.441231 0.49126 0.511583 0.523446 0.494025 0.463558 0.416223 0.380143 0.153902 0.211003 0.120641 0.139072 0.168025 0.135795 0.538076 0.592768 0.60165 0.531684 0.235613 0.215421 0.200764 0.273881 0.22806 0.253095 0.595473 0.602901 0.545902 0.485229 0.366827 0.33464 0.34236 0.374023 0.322629 0.359164 0.386798 0.389288 0.344541 0.287425 0.291784 0.507734 0.64056 0.659344 0.664286 0.654917 0.615146 0.584171 0.570038 0.575 0.59581 0.625296 0.641384 0.636375 0.613683 0.623636 0.62587 0.646504 0.579073 0.590563 0.579453 0.579864 0.679362 0.919849 0.41491 0.429885 0.465469 0.498822 0.51265 0.516222 0.438985 0.408405 0.369414 0.273117 0.214257 0.196933 0.180401 0.236548 0.327816 0.490508 0.536267 0.269791 0.494633 0.445522 0.459615 0.218647 0.21992 0.234332 0.176568 0.219182 0.181214 0.137914 0.0922079 0.626403 0.580698 0.528468 0.426301 0.387153 0.369808 0.374146 0.359352 0.343252 0.356221 0.386474 0.430124 0.448478 0.387276 0.368428 0.490621 0.718993 0.671816 0.680107 0.693076 0.602013 0.583814 0.578704 0.586156 0.601987 0.618486 0.627984 0.627124 0.629805 0.639996 0.660917 0.677451 0.69209 0.670297 0.682097 0.642398 0.6826 0.617946 0.628816 0.623805 0.626044 0.620777 0.571815 0.577448 0.581642 0.592062 0.666215 0.82868 0.620454 0.526366 0.639261 0.567276 0.495691 0.441753 0.50342 0.50061 0.486289 0.463366 0.424483 0.393407 0.326803 0.277944 0.248792 0.233519 0.226031 0.21984 0.386436 0.448565 0.394969 0.26584 0.398915 0.394891 0.337344 0.215586 0.206845 0.207742 0.22965 0.186945 0.146385 0.10907 0.184112 0.576331 0.578957 0.545387 0.475906 0.435422 0.407134 0.388902 0.373718 0.358851 0.370365 0.419844 0.841999 0.698098 0.657068 0.73703 0.685963 0.636722 0.582817 0.584093 0.591984 0.603371 0.614914 0.623234 0.629372 0.636206 0.648589 0.663678 0.676492 0.676845 0.672063 0.660918 0.65882 0.645366 0.625092 0.628471 0.62734 0.623177 0.574704 0.580219 0.589173 0.60684 0.737856 0.558126 0.558428 0.53959 0.492902 0.460054 0.435814 0.429766 0.444927 0.482831 0.49809 0.487573 0.471003 0.452864 0.416426 0.373219 0.330665 0.297616 0.264786 0.270333 0.278587 0.308087 0.445816 0.321719 0.203696 0.167769 0.325139 0.352879 0.850159 0.213204 0.20109 0.323564 0.232038 0.222878 0.200388 0.212624 0.140572 0.128707 0.60803 0.503521 0.468567 0.442362 0.396159 0.40089 0.405321 0.391715 0.363088 0.475806 0.583723 0.624059 1.14587 0.590718 0.713516 0.65138 0.612932 0.590883 0.596357 0.605978 0.616137 0.625522 0.632912 0.641998 0.654216 0.664976 0.668567 0.669473 0.661879 0.657367 0.646494 0.636748 0.62841 0.627406 0.621422 0.599682 0.588859 0.597735 0.656317 0.74994 0.727927 0.597422 0.510201 0.53098 0.507846 0.478176 0.45294 0.431908 0.43814 0.477723 0.493648 0.497955 0.483533 0.462955 0.443128 0.366729 0.339121 0.317228 0.293119 0.323373 0.352641 0.396478 0.416105 0.396692 0.262557 0.268723 0.319006 0.74572 0.719028 0.812361 0.220709 0.195079 0.210655 0.257368 0.32279 0.215368 0.236816 0.267547 0.186139 0.209916 0.209255 0.569811 0.530523 0.49852 0.472857 0.427775 0.421358 0.423585 0.425728 0.426114 0.371856 0.424709 0.430342 0.527329 0.547241 1.05999 0.668005 0.624304 0.683333 0.626801 0.599291 0.586863 0.58467 0.588676 0.637847 0.646304 0.654833 0.660744 0.663816 0.660839 0.656094 0.615061 0.64929 0.701692 0.709166 0.664481 0.573102 0.547685 0.536035 0.506443 0.475515 0.448829 0.429724 0.493565 0.501834 0.49989 0.475696 0.45618 0.436889 0.406738 0.372232 0.351858 0.337389 0.328254 0.364151 0.394189 0.368552 0.316044 0.320939 0.171578 0.73119 0.671185 0.817901 0.785334 0.223341 0.225989 0.203209 0.192487 0.244858 0.291174 0.320332 0.338504 0.283225 0.289419 0.315957 0.601542 0.55498 0.519392 0.49671 0.452401 0.442262 0.440661 0.449242 0.341991 0.402865 0.448879 0.552459 0.59689 0.801735 0.826413 0.656794 0.603646 0.570986 0.653884 0.613035 0.594756 0.588195 0.588863 0.593745 0.60182 0.611379 0.621597 0.630415 0.64897 0.640347 0.634051 0.628689 0.623872 0.611903 0.6045 0.605559 0.619162 0.643864 0.677082 0.69487 0.683023 0.654904 0.604467 0.533065 0.500205 0.467082 0.43973 0.522625 0.515706 0.510944 0.505601 0.492068 0.471934 0.456118 0.433265 0.400511 0.379861 0.362427 0.360724 0.397701 0.393768 0.393227 0.603368 0.665198 0.642304 0.777308 0.791926 0.783016 0.776912 0.191191 0.244757 0.524953 0.483715 0.608055 0.354914 0.359503 0.30049 0.566888 0.539889 0.477558 0.462241 0.455351 0.456503 0.458767 0.480932 0.357582 0.45025 0.534194 0.590242 0.665374 0.742883 0.722692 0.641597 0.598146 0.567526 0.631583 0.604608 0.595339 0.591946 0.593658 0.6 0.609008 0.618916 0.628343 0.636151 0.642476 0.64791 0.653467 0.657553 0.657873 0.655343 0.649683 0.643815 0.637869 0.632933 0.627791 0.620684 0.614965 0.614532 0.622578 0.639168 0.662344 0.679327 0.682765 0.672882 0.647631 0.607971 0.565104 0.565079 0.525259 0.518128 0.511709 0.501916 0.487771 0.455867 0.429608 0.402333 0.386239 0.399602 0.394335 0.39196 0.388218 0.394502 0.462532 0.584208 0.472819 0.565386 0.533186 0.603406 0.224458 0.560437 0.598338 0.460577 0.449468 0.462367 0.385019 0.374619 0.326054 0.509604 0.510935 0.490981 0.475852 0.466207 0.463156 0.4865 0.551463 0.409024 0.64068 0.684167 0.704441 0.680595 0.628089 0.594604 0.575109 0.611196 0.604181 0.597364 0.594991 0.598467 0.607081 0.617549 0.627379 0.635032 0.640892 0.645193 0.649038 0.652181 0.653838 0.653377 0.650727 0.646229 0.641563 0.637069 0.632209 0.627344 0.623406 0.621964 0.626553 0.637419 0.653029 0.667275 0.674368 0.598064 0.560399 0.523674 0.486895 0.449479 0.526664 0.518566 0.510364 0.501048 0.490902 0.475545 0.452345 0.431455 0.415103 0.407462 0.433356 0.42433 0.406702 0.389736 0.400559 0.518504 0.505668 0.447223 0.567976 0.631451 0.69226 0.664327 0.589826 0.565453 0.464343 0.396175 0.352933 0.404958 0.515253 0.49398 0.479317 0.472712 0.46235 0.464458 0.480022 0.52231 0.606158 0.494689 0.564744 0.620951 0.598779 0.615887 0.627957 0.635239 0.64037 0.644025 0.647052 0.649356 0.650949 0.651521 0.650593 0.648324 0.644862 0.640935 0.636694 0.632268 0.629369 0.628781 0.63124 0.638132 0.671958 0.657393 0.631653 0.550038 0.511267 0.466956 0.60037 0.551109 0.519825 0.51306 0.505356 0.493299 0.474931 0.435925 0.427122 0.419809 0.460207 0.447032 0.419176 0.46849 0.50555 0.267621 0.358732 0.727547 0.71058 0.65673 0.562325 0.438339 0.391612 0.495199 0.503373 0.474365 0.468979 0.469995 0.479447 0.508339 0.452954 0.530144 0.662486 0.683587 0.682288 0.654502 0.621328 0.580774 0.607432 0.602469 0.59734 0.595638 0.603294 0.648874 0.659842 0.667355 0.668259 0.659862 0.64239 0.617142 0.585683 0.537663 0.493445 0.632662 0.575404 0.545026 0.527826 0.51666 0.50555 0.493282 0.475955 0.454132 0.439056 0.418958 0.473512 0.479206 0.464126 0.425987 0.417338 0.530382 0.254652 0.173368 0.0544349 0.349955 0.403862 0.647864 0.497005 0.432147 0.401287 0.45269 0.500047 0.51196 0.470879 0.46869 0.473917 0.485377 0.505249 0.562836 0.64126 0.500507 0.596953 0.64789 0.669669 0.678679 0.668313 0.644641 0.619295 0.599566 0.596108 0.603126 0.599521 0.594704 0.594049 0.610764 0.629805 0.637131 0.641435 0.644018 0.646263 0.648174 0.649698 0.650643 0.650637 0.649427 0.647094 0.644033 0.640635 0.637156 0.634033 0.633194 0.635289 0.640183 0.648019 0.656584 0.663665 0.665896 0.66175 0.650189 0.631074 0.605178 0.573959 0.523469 0.656773 0.602762 0.566985 0.544667 0.531421 0.524196 0.507008 0.493847 0.476211 0.455822 0.421675 0.51458 0.494982 0.48068 0.457186 0.481714 0.422683 0.679995 0.57485 0.427967 0.450359 0.485377 0.455682 0.460351 0.469151 0.485119 0.544221 0.601018 0.667148 0.567953 0.625173 0.653253 0.673153 0.673978 0.658221 0.63791 0.618623 0.606787 0.603159 0.601668 0.595868 0.591032 0.590775 0.632221 0.640335 0.644235 0.645229 0.646456 0.647972 0.649407 0.650507 0.650951 0.650438 0.648872 0.646391 0.643515 0.640861 0.638667 0.637577 0.638528 0.642118 0.647939 0.655192 0.661372 0.664859 0.663858 0.656826 0.643455 0.623151 0.596142 0.562864 0.6728 0.628652 0.592369 0.565952 0.54837 0.53707 0.527782 0.51743 0.509782 0.492994 0.472348 0.449142 0.522976 0.504703 0.494637 0.47995 0.481924 0.512258 0.675812 0.48061 0.453868 0.470149 0.486058 0.513992 0.535407 0.442213 0.45812 0.507557 0.537351 0.579267 0.630932 0.679559 0.539998 0.603989 0.643845 0.664257 0.673679 0.666854 0.65379 0.637151 0.622149 0.612589 0.605886 0.599388 0.59156 0.584176 0.576004 0.644923 0.649296 0.647764 0.647542 0.648518 0.649805 0.650896 0.651526 0.651449 0.650445 0.648589 0.646221 0.643784 0.642115 0.641601 0.642264 0.644932 0.649239 0.654517 0.659892 0.664093 0.665044 0.661502 0.653683 0.639857 0.618011 0.589188 0.551756 0.590154 0.567975 0.552223 0.541306 0.532271 0.522285 0.485868 0.460023 0.431884 0.55002 0.531943 0.516357 0.494532 0.399612 0.541674 0.483623 0.509974 0.536926 0.560872 0.438445 0.477237 0.503116 0.535046 0.565989 0.608227 0.654942 0.589545 0.659145 0.652329 0.649704 0.649881 0.650875 0.651826 0.65244 0.652557 0.651957 0.650611 0.648763 0.646774 0.64521 0.644665 0.683039 0.649779 0.617248 0.567423 0.557063 0.550222 0.538838 0.524728 0.508842 0.442824 0.584546 0.550254 0.539486 0.508527 0.487604 0.487686 0.666725 0.498903 0.494113 0.51038 0.533797 0.562671 0.463879 0.49528 0.529286 0.56315 0.691257 0.637583 0.657677 0.672434 0.674122 0.665036 0.651514 0.637748 0.625723 0.615803 0.606434 0.597105 0.585226 0.570377 0.645528 0.64783 0.651443 0.655909 0.66036 0.664046 0.666065 0.665194 0.660659 0.652739 0.639626 0.615558 0.580982 0.694193 0.665324 0.638881 0.614529 0.589657 0.558986 0.539295 0.52396 0.502092 0.473754 0.61818 0.584592 0.559914 0.529467 0.504935 0.492854 0.554149 0.517028 0.506621 0.510726 0.527718 0.558348 0.594119 0.448688 0.481222 0.520443 0.558983 0.588348 0.641474 0.677389 0.690441 0.627252 0.656 0.671213 0.677644 0.671619 0.662178 0.65093 0.639529 0.628392 0.618214 0.606305 0.592199 0.572631 0.549697 0.694309 0.663281 0.654389 0.652705 0.652937 0.653519 0.653869 0.653855 0.653389 0.65246 0.651108 0.64963 0.64835 0.647661 0.648239 0.650286 0.65357 0.657641 0.662044 0.665914 0.668111 0.668504 0.666467 0.66207 0.654432 0.642038 0.612176 0.699711 0.686358 0.652777 0.637836 0.613594 0.582098 0.569996 0.570988 0.543635 0.519407 0.492002 0.456707 0.581967 0.554822 0.499028 0.905727 0.75846 0.574262 0.52874 0.515999 0.523337 0.588318 0.629053 0.47202 0.508226 0.59116 0.61659 0.676958 0.680628 0.682256 0.659191 0.670217 0.677204 0.676187 0.66942 0.661414 0.652001 0.642109 0.631267 0.618869 0.601863 0.581806 0.552538 0.688656 0.663401 0.658358 0.656857 0.656502 0.656159 0.6557 0.654928 0.65404 0.653016 0.652024 0.651171 0.6508 0.651345 0.653058 0.655822 0.65949 0.663743 0.667788 0.670965 0.672484 0.671732 0.669087 0.664487 0.657171 0.649725 0.697174 0.696189 0.686535 0.648727 0.641799 0.594048 0.581775 0.589278 0.585767 0.552796 0.511613 0.47719 0.651947 0.610013 0.546429 0.517171 0.901762 0.810002 0.55168 0.581244 0.618176 0.661434 0.549264 0.589755 0.622815 0.656138 0.674363 0.680514 0.678736 0.674586 0.67575 0.677522 0.675529 0.670346 0.663046 0.654753 0.644607 0.63171 0.614944 0.593808 0.568129 0.521165 0.713037 0.673771 0.66758 0.664537 0.662772 0.659811 0.65839 0.657182 0.655817 0.654585 0.653723 0.653361 0.653668 0.654741 0.656569 0.659055 0.662172 0.665907 0.669837 0.673484 0.675948 0.618128 0.58966 0.600515 0.611184 0.570096 0.567059 0.54012 0.682278 0.636613 0.604293 0.579737 0.530983 0.506832 0.78496 0.771067 0.915718 0.524485 0.547473 0.576637 0.605884 0.49978 0.541201 0.585097 0.625991 0.670387 0.67679 0.675626 0.672597 0.668241 0.664911 0.679925 0.69555 0.694813 0.694091 0.651996 0.620744 0.586582 0.595924 0.562628 0.530047 0.502174 0.667754 0.628264 0.615161 0.586088 0.503359 0.913539 0.984621 0.786164 0.777722 0.536889 0.581055 0.643342 0.689844 0.529314 0.5846 0.626019 0.637237 0.679457 0.681818 0.682794 0.679166 0.678246 0.6792 0.677408 0.67285 0.66605 0.6566 0.644373 0.63201 0.610219 0.583696 0.557286 0.715764 0.675238 0.676179 0.676344 0.666618 0.662173 0.660073 0.658263 0.656575 0.655459 0.655302 0.6562 0.657936 0.660112 0.662832 0.665914 0.669235 0.672765 0.676135 0.679046 0.681005 0.681579 0.680547 0.67858 0.676993 0.682454 0.690351 0.695394 0.696198 0.709981 0.618837 0.614062 0.609014 0.627152 0.591172 0.551966 0.522103 0.707986 0.640975 0.643898 0.541887 0.915348 0.876895 0.736868 0.892774 0.932717 0.606244 0.629524 0.663044 0.713965 0.605558 0.675428 0.653687 0.643572 0.682176 0.687096 0.683452 0.682799 0.683376 0.682813 0.680175 0.674928 0.666952 0.657356 0.647559 0.635438 0.609702 0.568122 0.539304 0.685782 0.667299 0.678665 0.693424 0.677112 0.668365 0.663977 0.660849 0.658977 0.657757 0.657606 0.658956 0.661163 0.663922 0.666814 0.669881 0.673153 0.67657 0.679621 0.682568 0.685206 0.687017 0.687589 0.687319 0.687081 0.689407 0.693202 0.696855 0.698832 0.70402 0.689456 0.611195 0.633675 0.63188 0.575367 0.582696 0.538217 0.727011 0.692642 0.65471 0.75536 0.849713 0.831916 0.560261 0.605822 0.629385 0.645468 0.682172 0.747394 0.637897 0.658571 0.668457 0.658425 0.648259 0.69271 0.68623 0.683225 0.686845 0.690125 0.687531 0.680989 0.675436 0.668375 0.661129 0.65695 0.639067 0.594223 0.540525 0.671377 0.702798 0.682724 0.672544 0.6683 0.664629 0.661372 0.659691 0.660039 0.661646 0.665034 0.668534 0.671612 0.674536 0.677151 0.680317 0.683491 0.686679 0.689574 0.692145 0.693936 0.695071 0.695964 0.697127 0.699291 0.702035 0.704873 0.708708 0.672918 0.679274 0.639348 0.653738 0.575389 0.625273 0.624873 0.748136 0.711041 0.676468 0.666573 0.698917 0.554836 0.865145 0.819389 0.897861 0.882885 0.683534 0.590648 0.626823 0.65057 0.65144 0.656732 0.657657 0.675105 0.66632 0.66883 0.58654 0.49706 0.679938 0.746875 0.688503 0.667928 0.592216 0.635009 0.618423 0.616216 0.557576 0.69438 0.687626 0.727257 0.77882 0.671582 0.817216 0.816586 0.825429 0.753933 0.826316 0.609093 0.659496 0.721899 0.767297 0.677374 0.687796 0.679903 0.688958 0.695775 0.693782 0.687625 0.682799 0.676366 0.671632 0.669796 0.660217 0.634156 0.421192 0.923828 0.669912 0.668545 0.667076 0.663817 0.661918 0.661669 0.664568 0.668433 0.673199 0.677001 0.680066 0.682109 0.684281 0.686844 0.690241 0.693341 0.696454 0.699498 0.702153 0.7039 0.705535 0.706764 0.708549 0.711537 0.714979 0.686216 0.651163 0.69948 0.611327 0.659455 0.773374 0.731729 0.682214 0.873054 0.893832 0.888202 0.648304 0.670225 0.700562 0.754757 0.737311 0.663478 0.656085 0.689209 0.688986 0.661564 0.672376 0.685535 0.702059 0.698253 0.694164 0.688922 0.682688 0.678226 0.674348 0.668481 0.662662 0.639835 0.576486 0.897924 0.829991 0.701201 0.682673 0.670066 0.668348 0.667371 0.663978 0.664228 0.66704 0.673439 0.679643 0.68144 0.685373 0.687608 0.689071 0.690458 0.692753 0.696156 0.699632 0.703487 0.707264 0.710537 0.713085 0.714939 0.71467 0.717898 0.723182 0.698533 0.668998 0.674373 0.715589 0.617098 0.658012 0.628424 0.771032 0.756862 0.742492 0.700765 0.753452 0.766233 0.823091 0.867977 0.84927 0.781742 0.63285 0.665495 0.718565 0.732709 0.711154 0.728953 0.664757 0.666758 0.654992 0.693466 0.673147 0.650969 0.665522 0.693905 0.718704 0.711086 0.707477 0.700322 0.695217 0.68828 0.681426 0.673409 0.666519 0.648254 0.588853 0.428504 0.839058 0.698141 0.678386 0.67256 0.67049 0.673178 0.667376 0.670915 0.677322 0.687325 0.690178 0.690463 0.692053 0.693418 0.694496 0.695219 0.69782 0.701316 0.705536 0.709998 0.714691 0.718966 0.722147 0.723642 0.718409 0.725956 0.706465 0.697412 0.681972 0.694579 0.666217 0.683728 0.665451 0.6122 0.638044 0.759106 0.759541 0.797448 0.732351 0.790374 0.742481 0.743579 0.827728 0.89777 0.849521 0.83417 0.806507 0.74909 0.645803 0.714959 0.87274 0.686049 0.676834 0.674953 0.764152 0.731005 0.711735 0.630566 0.788603 0.775786 0.922229 0.861244 0.901969 0.673731 0.736967 0.743623 0.719397 0.754659 0.724102 0.750719 0.692636 0.66981 0.655407 0.695198 0.720741 0.731487 0.719373 0.707139 0.701492 0.694307 0.689154 0.680706 0.670153 0.672533 0.620678 0.523792 0.784941 0.829031 0.820569 0.671798 0.683167 0.681831 0.674316 0.688866 0.696585 0.697909 0.697009 0.695947 0.697206 0.697321 0.698528 0.701131 0.705372 0.710525 0.716195 0.722299 0.727609 0.730888 0.731512 0.716783 0.702195 0.720193 0.686474 0.697929 0.761129 0.775106 0.761578 0.791386 0.847662 0.844964 0.876691 0.864525 0.914417 0.787805 0.692901 0.722131 0.771879 0.761528 0.747908 0.749296 0.788928 0.809944 0.881489 0.722357 0.688785 0.695435 0.73887 0.719894 0.738174 0.727898 0.719357 0.706376 0.698604 0.693606 0.688419 0.679717 0.666628 0.665029 0.592174 0.811608 0.782013 0.837735 0.803278 0.67847 0.684777 0.675278 0.670328 0.734922 0.664516 0.69899 0.70335 0.699038 0.702713 0.699294 0.698157 0.697589 0.697986 0.699619 0.703436 0.708364 0.714541 0.722118 0.729668 0.734796 0.737567 0.737155 0.706494 0.729645 0.689227 0.699593 0.766538 0.762608 0.744215 0.734947 0.734126 0.774532 0.78708 0.807681 0.840921 0.848528 0.8202 0.893832 0.893832 0.893832 0.893832 0.893603 0.893833 0.893851 0.893822 0.828094 0.843194 0.886553 0.897842 0.89494 0.74275 0.68757 0.679839 0.657989 0.729153 0.706876 0.875932 0.79143 0.81955 0.789122 0.726003 0.702608 0.711672 0.702365 0.702131 0.700509 0.699349 0.696208 0.69598 0.696201 0.699756 0.704166 0.709542 0.822456 0.84129 0.839976 0.830159 0.819787 0.811568 0.845399 0.843738 0.906054 0.900539 0.897191 0.896757 0.757051 0.76985 0.751664 0.741081 0.848535 0.725177 0.738182 0.737678 0.72667 0.724987 0.714566 0.706458 0.695257 0.692289 0.751422 0.770001 0.808428 0.79313 0.717848 0.727558 0.735111 0.740295 0.741006 0.729204 0.747873 0.837011 0.831945 0.842542 0.857781 0.822475 0.838101 0.901125 0.897757 0.907629 0.90996 0.876261 0.809705 0.804887 0.801923 0.789 0.894614 0.841055 0.887237 0.897195 0.896727 0.900922 0.882 0.857199 0.858238 0.850349 0.848264 0.844095 0.840765 0.834652 0.833803 0.832349 0.835746 0.825201 0.881079 0.835927 0.885268 0.865094 0.850737 0.877203 0.897746 0.858734 0.900172 0.865947 0.890663 0.838158 0.840004 0.837541 0.838888 0.834986 0.835203 0.830905 0.831423 0.829473 0.832091 0.83401 0.841133 0.838247 0.83251 0.828832 0.827088 0.827221 0.818229 0.81138 0.884644 0.875015 0.86891 0.879508 0.875743 0.865241 0.860053 0.899053 0.862495 0.883138 0.848246 0.859107 0.859799 0.853614 0.893984 0.893893 0.893832 0.893832 0.902638 0.893938 0.893846 0.893967 0.880607 0.84457 0.895088 0.864143 0.87843 0.845061 0.858813 0.885005 0.869336 0.863722 0.860057 0.858809 0.855871 0.85754 0.852103 0.853022 0.84933 0.851993 0.875148 0.865459 0.861903 0.894154 0.872281 0.894054 0.893942 0.893849 0.893829 0.836437 0.842351 0.841752 0.8267 0.910714 0.892176 0.893878 0.893752 0.896112 0.882177 0.870984 0.869244 0.868163 0.868132 0.867814 0.868165 0.865937 0.86465 0.87157 0.894535 0.890013 0.880336 0.875551 0.889549 0.888492 0.889879 0.852369 0.853844 0.85087 0.845687 0.841678 0.838889 0.835883 0.828952 0.843036 0.88463 0.877167 0.870152 0.878289 0.858591 0.886341 0.850601 0.861054 0.860854 0.899151 0.893921 0.89396 0.893911 0.881283 0.845541 0.845203 0.84541 0.83281 0.898009 0.894019 0.893173 0.894095 0.894034 0.894017 0.891735 0.891352 0.877802 0.874025 0.874623 0.871293 0.870404 0.871038 0.87106 0.870005 0.877823 0.879153 0.892551 0.88388 0.887391 0.884201 0.878522 0.838544 0.893043 0.868854 0.891208 0.884294 0.8918 0.882872 0.870373 0.863253 0.861944 0.857502 0.858183 0.850384 0.85125 0.845839 0.848992 0.849286 0.850564 0.84878 0.846058 0.843786 0.842423 0.83922 0.838321 0.868988 0.879692 0.875277 0.869736 0.876119 0.874027 0.86586 0.864524 0.894088 0.856622 0.888556 0.852663 0.86313 0.863129 0.889959 0.893832 0.893832 0.893832 0.893831 0.89522 0.893883 0.893832 0.882344 0.82896 0.874355 0.893832 0.893832 0.893832 0.893831 0.893834 0.883014 0.855712 0.845686 0.848488 0.837585 0.887627 0.893832 0.893586 0.893832 0.893832 0.893832 0.888789 0.890856 0.885303 0.878546 0.878198 0.874267 0.873065 0.872364 0.872813 0.871783 0.880562 0.882935 0.892948 0.88895 0.893943 0.876931 0.893269 0.891176 0.882209 0.891345 0.886476 0.877009 0.866468 0.86575 0.859123 0.859842 0.850081 0.851035 0.844297 0.84811 0.848266 0.850176 0.849428 0.848857 0.848255 0.848058 0.844607 0.8479 0.877041 0.877523 0.874219 0.870917 0.875428 0.873994 0.867249 0.868497 0.893832 0.85575 0.889795 0.855332 0.865332 0.867429 0.893599 0.89185 0.893835 0.893832 0.893834 0.88501 0.865136 0.846385 0.851084 0.842992 0.880185 0.893832 0.893685 0.893832 0.893832 0.893832 0.887691 0.888499 0.888668 0.883585 0.881079 0.877777 0.876267 0.874643 0.874992 0.87351 0.882531 0.881596 0.892958 0.880901 0.889258 0.894001 0.875011 0.821808 0.892919 0.877677 0.890973 0.881237 0.891008 0.886054 0.882381 0.870554 0.869584 0.861701 0.862627 0.851163 0.852286 0.844427 0.848888 0.848938 0.851496 0.851418 0.852372 0.852972 0.85392 0.850299 0.856712 0.877333 0.876415 0.874045 0.872842 0.875425 0.874431 0.86903 0.872466 0.893832 0.855122 0.891059 0.85813 0.867418 0.872164 0.893826 0.893832 0.893832 0.893832 0.893832 0.889281 0.893785 0.893832 0.893833 0.887088 0.872675 0.847332 0.8533 0.847513 0.874399 0.893832 0.893679 0.893832 0.893832 0.893832 0.887488 0.88676 0.888673 0.886979 0.884513 0.880793 0.879116 0.877094 0.877399 0.875395 0.884118 0.879961 0.892974 0.879554 0.889508 0.893832 0.873647 0.816046 0.892545 0.879572 0.890833 0.880591 0.89086 0.885134 0.884841 0.874649 0.873049 0.864627 0.865483 0.852855 0.854092 0.845362 0.850282 0.850286 0.853374 0.853728 0.855726 0.857084 0.858951 0.855475 0.863566 0.876803 0.875903 0.874468 0.874733 0.87571 0.87502 0.87076 0.875981 0.893832 0.854725 0.892367 0.860577 0.869212 0.876197 0.893832 0.893832 0.893832 0.893832 0.893832 0.887561 0.893745 0.893832 0.89383 0.888834 0.877813 0.848158 0.855072 0.850574 0.870508 0.893832 0.893657 0.893832 0.893832 0.893832 0.887545 0.885672 0.887839 0.888187 0.8871 0.88359 0.881458 0.878983 0.879302 0.877136 0.88501 0.879017 0.892998 0.878389 0.889705 0.893832 0.872153 0.812427 0.892359 0.881153 0.890769 0.880109 0.890789 0.8845 0.885514 0.877974 0.875771 0.866905 0.867805 0.854399 0.855703 0.846386 0.851613 0.851559 0.855036 0.85565 0.858303 0.86013 0.862547 0.859369 0.868431 0.876441 0.875787 0.875 0.876133 0.87603 0.87555 0.872094 0.878618 0.893832 0.854497 0.893099 0.862379 0.870536 0.879068 0.893832 0.893832 0.893832 0.893832 0.893832 0.886699 0.893723 0.893832 0.893829 0.889808 0.880392 0.848576 0.85609 0.852138 0.868578 0.893832 0.893644 0.893832 0.893832 0.893832 0.887593 0.885133 0.887302 0.888341 0.888196 0.885451 0.882971 0.880071 0.880406 0.87831 0.885271 0.878602 0.893023 0.877764 0.889785 0.893832 0.871087 0.810742 0.892251 0.882197 0.890744 0.879854 0.890755 0.884202 0.885623 0.879772 0.877347 0.868106 0.86914 0.855271 0.856633 0.847014 0.852404 0.852306 0.855986 0.856724 0.859692 0.861746 0.864404 0.861436 0.871262 0.876205 0.875815 0.875327 0.876864 0.876223 0.875863 0.872816 0.880014 0.893832 0.854373 0.893325 0.863333 0.871242 0.880543 0.893832 0.893832 0.893832 0.893832 0.893832 
SCALARS Axial_Stress float 1
LOOKUP_TABLE default
-74891700000.0 -99225200000.0 -111042000000.0 -82734300000.0 -218563000000.0 -121563000000.0 -163666000000.0 -68529100000.0 -86564800000.0 -92384400000.0 -76569800000.0 -66906100000.0 -55801900000.0 -86312400000.0 -175476000000.0 -160477000000.0 -114050000000.0 -215502000000.0 -142850000000.0 -160040000000.0 -164865000000.0 -81166900000.0 -105970000000.0 -212240000000.0 -127365000000.0 -125949000000.0 -125543000000.0 -55089300000.0 -130710000000.0 -283241000000.0 -302502000000.0 -279336000000.0 -234703000000.0 -254854000000.0 -250361000000.0 -189922000000.0 -240965000000.0 -290853000000.0 -292476000000.0 -386411000000.0 -287326000000.0 -441876000000.0 -146053000000.0 -289503000000.0 -245375000000.0 -417797000000.0 -323463000000.0 -449957000000.0 -376085000000.0 -468947000000.0 -237486000000.0 -256006000000.0 -460327000000.0 -345323000000.0 -360223000000.0 -135127000000.0 -275672000000.0 -272879000000.0 -319268000000.0 -518520000000.0 -389192000000.0 -530550000000.0 -419532000000.0 -529257000000.0 -489985000000.0 -360062000000.0 -361000000000.0 -571546000000.0 -535065000000.0 -545513000000.0 -332787000000.0 -387309000000.0 -534772000000.0 -331924000000.0 -273128000000.0 -294054000000.0 -309753000000.0 -649644000000.0 -647916000000.0 -652288000000.0 -640293000000.0 -442822000000.0 -313975000000.0 -835067000000.0 -651640000000.0 -630955000000.0 -633530000000.0 -668019000000.0 -599503000000.0 -468798000000.0 -429259000000.0 -903141000000.0 -781373000000.0 -768576000000.0 -766223000000.0 -740459000000.0 -866719000000.0 -1.07716e+12 -1.06873e+12 -1.01561e+12 -816743000000.0 -853421000000.0 -729888000000.0 -804620000000.0 -714992000000.0 -795955000000.0 -430271000000.0 -516157000000.0 -891484000000.0 -764979000000.0 -870869000000.0 -720979000000.0 -737558000000.0 -1.15088e+12 -952517000000.0 -1.02715e+12 -889290000000.0 -997718000000.0 -883465000000.0 -996796000000.0 -877203000000.0 -1.00512e+12 -1.46077e+12 -1.14099e+12 -998329000000.0 -906333000000.0 -877737000000.0 -528910000000.0 -649064000000.0 -990881000000.0 -982003000000.0 -2.02303e+12 -1.51295e+12 -1.40466e+12 -1.162e+12 -1.18226e+12 -1.11494e+12 -1.11001e+12 -1.11819e+12 -1.25856e+12 -1.30251e+12 -1.13382e+12 -1.02091e+12 -966200000000.0 -952156000000.0 -1.12934e+12 -1.00625e+12 -2.18963e+12 -1.70901e+12 -1.36046e+12 -1.23753e+12 -1.21881e+12 -1.22817e+12 -1.27736e+12 -1.37628e+12 -1.36699e+12 -1.27187e+12 -1.25946e+12 -1.13854e+12 -1.16163e+12 -1.06183e+12 -1.11345e+12 -1.03081e+12 -1.09987e+12 -628189000000.0 -785775000000.0 -1.23513e+12 -1.78738e+12 -1.93975e+12 -1.55767e+12 -1.36737e+12 -1.41994e+12 -1.3219e+12 -1.43456e+12 -1.33599e+12 -1.45918e+12 -1.35667e+12 -1.46225e+12 -1.38862e+12 -1.45408e+12 -1.36474e+12 -1.26433e+12 -1.19867e+12 -1.17297e+12 -728011000000.0 -929529000000.0 -1.36057e+12 -1.52776e+12 -1.51796e+12 -1.73068e+12 -1.89053e+12 -1.8104e+12 -1.73179e+12 -1.62776e+12 -1.50411e+12 -1.51294e+12 -1.51479e+12 -1.56482e+12 -1.56719e+12 -1.53424e+12 -1.4626e+12 -1.36319e+12 -1.28525e+12 -1.24706e+12 -1.23861e+12 -1.59009e+12 -1.66333e+12 -1.79505e+12 -1.71032e+12 -1.59407e+12 -1.57667e+12 -1.65201e+12 -1.68785e+12 -1.64622e+12 -1.56926e+12 -1.56376e+12 -1.45948e+12 -1.45453e+12 -1.37047e+12 -1.39161e+12 -1.32058e+12 -1.36915e+12 -1.30497e+12 -1.36973e+12 -828404000000.0 -1.08242e+12 -1.69622e+12 -1.76381e+12 -1.7624e+12 -1.65115e+12 -1.61887e+12 -1.69825e+12 -1.88588e+12 -1.80586e+12 -1.93581e+12 -1.78294e+12 -1.83962e+12 -1.68997e+12 -1.69358e+12 -1.54321e+12 -1.45934e+12 -1.4289e+12 -1.42906e+12 -929566000000.0 -1.22333e+12 -1.76047e+12 -1.83664e+12 -1.77962e+12 -1.83434e+12 -1.79385e+12 -1.75647e+12 -1.68533e+12 -1.63879e+12 -1.6388e+12 -1.68211e+12 -1.7079e+12 -1.87934e+12 -2.08573e+12 -2.01939e+12 -1.85113e+12 -1.65117e+12 -1.52558e+12 -1.48225e+12 -1.48218e+12 -1.49618e+12 -1.90407e+12 -1.89801e+12 -1.84074e+12 -1.63041e+12 -1.62927e+12 -1.80939e+12 -2.16964e+12 -2.22862e+12 -2.29245e+12 -2.04669e+12 -2.00764e+12 -1.81021e+12 -1.69602e+12 -1.59748e+12 -1.56181e+12 -1.52732e+12 -1.56008e+12 -1.52676e+12 -1.5897e+12 -1.54855e+12 -1.62238e+12 -1.03198e+12 -1.35329e+12 -2.03973e+12 -1.9701e+12 -2.02761e+12 -1.93882e+12 -1.77961e+12 -1.56615e+12 -1.6784e+12 -2.06858e+12 -2.58502e+12 -2.44962e+12 -2.58778e+12 -2.27195e+12 -1.89389e+12 -1.58158e+12 -1.57745e+12 -1.61801e+12 -1.66796e+12 -1.13665e+12 -1.47323e+12 -2.1058e+12 -2.07579e+12 -1.94898e+12 -1.92838e+12 -1.4813e+12 -1.46873e+12 -1.52821e+12 -1.4614e+12 -1.84674e+12 -2.25134e+12 -3.01112e+12 -2.52329e+12 -2.23956e+12 -1.54104e+12 -1.56927e+12 -1.62976e+12 -1.69563e+12 -1.75427e+12 -2.17765e+12 -2.16837e+12 -2.11926e+12 -1.32773e+12 -1.43649e+12 -1.3023e+12 -3.40896e+12 -2.87078e+12 -2.61783e+12 -2.43093e+12 -2.41562e+12 -2.25125e+12 -2.64604e+12 -1.44092e+12 -1.45425e+12 -1.61651e+12 -1.69781e+12 -1.70704e+12 -1.80224e+12 -1.79259e+12 -1.89929e+12 -1.24553e+12 -1.5839e+12 -2.32305e+12 -2.24764e+12 -2.31808e+12 -2.23077e+12 -2.29266e+12 -2.1569e+12 -1.3978e+12 -1.29366e+12 -1.65485e+12 -1.79767e+12 -3.41838e+12 -2.85535e+12 -2.52038e+12 -2.57139e+12 -2.95983e+12 -1.53583e+12 -1.79514e+12 -1.92719e+12 -1.36208e+12 -1.68184e+12 -2.40572e+12 -2.38585e+12 -2.29758e+12 -1.25419e+12 -1.31768e+12 -1.3329e+12 -2.1756e+12 -2.06193e+12 -1.01803e+12 -2.11545e+12 -2.57701e+12 -2.57655e+12 -2.81165e+12 -3.04352e+12 -3.16821e+12 -3.25614e+12 -1.65178e+12 -1.90191e+12 -2.06729e+12 -1.49302e+12 -1.76555e+12 -2.45948e+12 -2.54599e+12 -2.51301e+12 -2.67225e+12 -2.41611e+12 -1.04412e+12 -2.20249e+12 -1.60996e+12 -2.22779e+12 -2.42131e+12 -2.58209e+12 -2.65261e+12 -2.70687e+12 -2.85328e+12 -3.21674e+12 -3.22829e+12 -1.77834e+12 -1.90306e+12 -2.07399e+12 -2.27888e+12 -2.56486e+12 -2.6715e+12 -2.93057e+12 -2.22067e+12 -2.1792e+12 -2.08964e+12 -2.09674e+12 -1.52568e+12 -2.22574e+12 -2.35825e+12 -2.56397e+12 -2.7482e+12 -3.0714e+12 -3.294e+12 -3.26485e+12 -3.10987e+12 -2.93368e+12 -2.24243e+12 -1.64517e+12 -1.83594e+12 -2.64316e+12 -2.86657e+12 -3.70996e+12 -1.95818e+12 -2.43261e+12 -2.33555e+12 -2.41222e+12 -2.20101e+12 -2.45314e+12 -2.50979e+12 -2.59874e+12 -2.65493e+12 -2.70775e+12 -2.80873e+12 -3.1346e+12 -3.24334e+12 -3.32632e+12 -3.13501e+12 -2.66108e+12 -2.72558e+12 -2.55695e+12 -1.81375e+12 -1.88417e+12 -2.61166e+12 -2.67323e+12 -2.77306e+12 -2.99172e+12 -3.21931e+12 -3.40192e+12 -3.22929e+12 -2.87687e+12 -2.61607e+12 -2.50296e+12 -2.48584e+12 -2.57479e+12 -2.63128e+12 -2.59173e+12 -3.38096e+12 -3.28548e+12 -2.92233e+12 -2.66628e+12 -2.92272e+12 -2.55394e+12 -2.79321e+12 -3.15387e+12 -3.19915e+12 -2.89814e+12 -2.97496e+12 -2.74278e+12 -2.85322e+12 -2.60754e+12 -2.75909e+12 -2.61988e+12 -2.61326e+12 -2.59832e+12 -3.40777e+12 -3.71546e+12 -3.46076e+12 -3.33679e+12 -3.1075e+12 -2.85444e+12 -2.95739e+12 -2.01882e+12 -1.9129e+12 -2.35896e+12 -2.58287e+12 -2.524e+12 -2.93778e+12 -3.23701e+12 -3.30336e+12 -3.2969e+12 -3.11936e+12 -3.16324e+12 -3.0808e+12 -2.96355e+12 -2.8356e+12 -2.66377e+12 -2.59616e+12 -2.56866e+12 -2.49785e+12 -2.22995e+12 -4.09067e+12 -3.63124e+12 -3.06347e+12 -2.42016e+12 -3.38837e+12 -3.28325e+12 -2.17068e+12 -1.97415e+12 -2.29848e+12 -3.18339e+12 -3.38405e+12 -3.30937e+12 -3.25423e+12 -3.20409e+12 -3.07526e+12 -2.80717e+12 -2.36556e+12 -2.29542e+12 -4.59463e+12 -4.07583e+12 -3.6548e+12 -3.33981e+12 -2.97885e+12 -2.78475e+12 -3.6457e+12 -2.38842e+12 -1.78603e+12 -3.31942e+12 -3.38452e+12 -3.58686e+12 -3.43129e+12 -3.53306e+12 -3.42555e+12 -3.4488e+12 -3.36964e+12 -3.48213e+12 -3.38807e+12 -3.5573e+12 -3.33867e+12 -3.46969e+12 -3.12123e+12 -2.62159e+12 -2.09671e+12 -3.9699e+12 -3.30772e+12 -2.48669e+12 -2.38824e+12 -3.92616e+12 -3.31565e+12 -2.1267e+12 -2.80334e+12 -2.5251e+12 -3.71109e+12 -3.71851e+12 -3.52872e+12 -3.50139e+12 -3.66977e+12 -3.7544e+12 -3.47594e+12 -2.97396e+12 -2.37874e+12 -2.30755e+12 -2.80782e+12 -3.58328e+12 -3.62493e+12 -2.56134e+12 -4.41802e+12 -4.18023e+12 -2.09113e+12 -4.56207e+12 -3.58799e+12 -3.94606e+12 -3.72015e+12 -3.50048e+12 -3.63844e+12 -3.92011e+12 -3.85952e+12 -2.41653e+12 -2.97111e+12 -3.03506e+12 -3.20713e+12 -3.51393e+12 -3.63392e+12 -3.54565e+12 -3.25862e+12 -3.85665e+12 -4.46233e+12 -4.58353e+12 -4.44007e+12 -5.08582e+12 -1.65656e+12 -4.45591e+12 -4.16296e+12 -4.31111e+12 -4.06997e+12 -4.34021e+12 -4.06187e+12 -3.98663e+12 -3.57612e+12 -3.41301e+12 -3.5165e+12 -3.63613e+12 -3.90161e+12 -4.20377e+12 -4.12111e+12 -2.55755e+12 -2.47643e+12 -2.84401e+12 -3.19804e+12 -3.53722e+12 -3.61362e+12 -3.73074e+12 -4.2827e+12 -4.44614e+12 -3.88726e+12 -4.34498e+12 -2.87539e+12 -5.80638e+12 -5.52514e+12 -4.34099e+12 -4.46711e+12 -4.57525e+12 -3.53819e+12 -3.10317e+12 -4.06341e+12 -2.71451e+12 -2.93419e+12 -2.85736e+12 -3.0735e+12 -3.12308e+12 -3.37466e+12 -3.68683e+12 -3.71951e+12 -3.86227e+12 -3.97067e+12 -4.36394e+12 -4.29655e+12 -3.10035e+12 -5.08956e+12 -6.35145e+12 -3.74758e+12 -4.64875e+12 -5.00098e+12 -6.91969e+12 -7.52051e+12 -4.89629e+12 -4.47602e+12 -4.56179e+12 -4.71371e+12 -5.07881e+12 -4.45934e+12 -2.11233e+12 -2.56316e+12 -4.70625e+12 -4.16628e+12 -3.77718e+12 -3.08215e+12 -3.04921e+12 -3.08926e+12 -3.2696e+12 -3.32017e+12 -3.49245e+12 -3.59998e+12 -3.81235e+12 -4.0293e+12 -4.20171e+12 -4.35043e+12 -5.4955e+12 -6.14134e+12 -4.30738e+12 -4.45816e+12 -4.41346e+12 -4.53141e+12 -6.36585e+12 -6.84211e+12 -6.43799e+12 -5.60113e+12 -5.27168e+12 -4.70383e+12 -4.77766e+12 -4.62093e+12 -2.31769e+12 -4.62684e+12 -4.30875e+12 -3.80649e+12 -3.56243e+12 -3.23064e+12 -3.25985e+12 -3.15303e+12 -3.24528e+12 -3.43547e+12 -3.67197e+12 -3.75425e+12 -3.94785e+12 -4.19365e+12 -4.31964e+12 -4.61469e+12 -4.50354e+12 -5.84284e+12 -6.60036e+12 -6.5547e+12 -6.50289e+12 -4.31448e+12 -4.47225e+12 -4.67679e+12 -7.09598e+12 -6.7679e+12 -6.59842e+12 -5.72299e+12 -5.22945e+12 -4.71392e+12 -3.64311e+12 -4.15331e+12 -4.54789e+12 -3.95274e+12 -3.44959e+12 -3.3145e+12 -3.26094e+12 -3.37981e+12 -3.39597e+12 -3.5905e+12 -3.82186e+12 -3.8893e+12 -4.02815e+12 -4.09289e+12 -4.41414e+12 -4.85826e+12 -5.46601e+12 -6.1802e+12 -6.20468e+12 -6.45674e+12 -4.14561e+12 -3.89001e+12 -4.31347e+12 -6.9576e+12 -7.0068e+12 -6.45076e+12 -5.86338e+12 -5.95693e+12 -5.92349e+12 -5.6605e+12 -5.51515e+12 -5.12981e+12 -5.09204e+12 -4.57167e+12 -4.32854e+12 -3.9875e+12 -4.19922e+12 -4.40399e+12 -4.30545e+12 -4.21555e+12 -3.93672e+12 -3.69397e+12 -3.4205e+12 -3.39329e+12 -3.50235e+12 -3.53734e+12 -3.6753e+12 -3.74485e+12 -3.9623e+12 -4.19876e+12 -4.28727e+12 -4.53655e+12 -4.70415e+12 -5.30073e+12 -5.71701e+12 -5.90257e+12 -6.02893e+12 -6.19116e+12 -6.18697e+12 -6.3247e+12 -3.94152e+12 -4.20838e+12 -6.73869e+12 -6.85002e+12 -6.76824e+12 -6.78401e+12 -6.19422e+12 -6.68969e+12 -6.01042e+12 -5.95521e+12 -5.79481e+12 -5.4665e+12 -4.75038e+12 -4.23648e+12 -4.25005e+12 -4.08864e+12 -3.74308e+12 -3.5733e+12 -3.53246e+12 -3.44412e+12 -3.48773e+12 -3.62483e+12 -3.81363e+12 -3.88848e+12 -4.03565e+12 -4.11761e+12 -4.41747e+12 -4.79284e+12 -4.94157e+12 -5.16474e+12 -5.47776e+12 -5.61665e+12 -6.13375e+12 -6.02861e+12 -5.90587e+12 -6.02241e+12 -3.79678e+12 -4.16621e+12 -4.1614e+12 -6.64742e+12 -6.65957e+12 -6.51825e+12 -6.3658e+12 -6.26102e+12 -6.31321e+12 -6.13275e+12 -6.09678e+12 -6.00355e+12 -5.74316e+12 -5.12281e+12 -4.49752e+12 -4.22793e+12 -4.15098e+12 -3.8905e+12 -3.64357e+12 -3.54121e+12 -3.49978e+12 -3.57426e+12 -3.59034e+12 -3.74854e+12 -3.95311e+12 -4.19914e+12 -4.30368e+12 -4.51547e+12 -4.66242e+12 -4.97717e+12 -5.26399e+12 -5.82534e+12 -5.9329e+12 -6.40958e+12 -6.73564e+12 -5.0967e+12 -6.14117e+12 -3.69958e+12 -3.60209e+12 -4.21472e+12 -6.58226e+12 -6.45994e+12 -6.55389e+12 -6.4851e+12 -6.30953e+12 -6.07998e+12 -5.58435e+12 -5.85322e+12 -5.84118e+12 -5.46422e+12 -5.109e+12 -4.80682e+12 -4.55362e+12 -4.34185e+12 -4.22521e+12 -4.16772e+12 -4.051e+12 -3.98909e+12 -3.84559e+12 -3.75305e+12 -3.67785e+12 -3.60534e+12 -3.58004e+12 -3.66021e+12 -3.69763e+12 -3.8096e+12 -3.87609e+12 -4.10093e+12 -4.38007e+12 -4.73349e+12 -4.90379e+12 -5.13303e+12 -5.04715e+12 -4.82089e+12 -5.27197e+12 -5.45828e+12 -5.68164e+12 -6.31111e+12 -6.09518e+12 -5.86466e+12 -5.90016e+12 -6.04363e+12 -6.21226e+12 -3.52442e+12 -4.18624e+12 -4.21821e+12 -6.53399e+12 -6.5633e+12 -6.44737e+12 -6.37206e+12 -6.37594e+12 -6.52272e+12 -6.09593e+12 -6.21419e+12 -4.69048e+12 -6.20147e+12 -5.43094e+12 -4.78774e+12 -4.35704e+12 -4.10678e+12 -3.9189e+12 -3.74708e+12 -3.64525e+12 -3.60621e+12 -3.63213e+12 -3.63803e+12 -3.7543e+12 -3.92761e+12 -4.00948e+12 -4.14947e+12 -4.25919e+12 -4.4227e+12 -4.56846e+12 -4.94826e+12 -5.37264e+12 -5.53666e+12 -3.90573e+12 -5.05659e+12 -5.97169e+12 -6.12241e+12 -6.08076e+12 -6.13752e+12 -6.26512e+12 -6.30743e+12 -3.47976e+12 -4.12904e+12 -6.45574e+12 -6.34406e+12 -6.26897e+12 -6.39118e+12 -6.45621e+12 -6.71526e+12 -6.42876e+12 -6.25759e+12 -5.97006e+12 -5.401e+12 -6.58734e+12 -6.1918e+12 -5.75575e+12 -5.29591e+12 -5.03751e+12 -4.71482e+12 -4.53036e+12 -4.19305e+12 -3.98408e+12 -3.81088e+12 -3.6894e+12 -3.64045e+12 -3.67603e+12 -3.70949e+12 -3.85563e+12 -4.0512e+12 -4.29288e+12 -4.58491e+12 -4.75329e+12 -4.94586e+12 -5.17926e+12 -5.42922e+12 -6.62762e+12 -5.68778e+12 -5.09854e+12 -5.7236e+12 -6.07481e+12 -6.08007e+12 -6.10144e+12 -6.17355e+12 -6.22185e+12 -6.25604e+12 -3.43122e+12 -3.42317e+12 -4.07035e+12 -6.53593e+12 -6.39836e+12 -6.16174e+12 -6.29816e+12 -5.98559e+12 -6.2909e+12 -6.51818e+12 -7.00564e+12 -5.55087e+12 -6.85208e+12 -6.24144e+12 -5.9731e+12 -5.59381e+12 -4.91652e+12 -4.46546e+12 -4.31998e+12 -4.13936e+12 -4.0551e+12 -3.93896e+12 -3.87347e+12 -3.78788e+12 -3.73609e+12 -3.68627e+12 -3.65907e+12 -3.65519e+12 -3.73414e+12 -3.79133e+12 -3.88201e+12 -3.96349e+12 -4.07456e+12 -4.17723e+12 -4.43635e+12 -4.74694e+12 -5.1707e+12 -5.96498e+12 -6.15519e+12 -5.71838e+12 -4.29169e+12 -5.78394e+12 -6.15867e+12 -6.40242e+12 -6.13747e+12 -6.12019e+12 -6.11745e+12 -6.19311e+12 -6.13905e+12 -6.19199e+12 -3.46231e+12 -3.85533e+12 -3.96889e+12 -6.51381e+12 -6.33106e+12 -5.78443e+12 -5.9108e+12 -6.18457e+12 -6.60373e+12 -6.17112e+12 -5.88625e+12 -5.97364e+12 -5.5362e+12 -5.72792e+12 -5.72876e+12 -5.28569e+12 -5.14408e+12 -4.59713e+12 -4.25768e+12 -4.00621e+12 -3.84663e+12 -3.72339e+12 -3.65188e+12 -3.64718e+12 -3.65033e+12 -3.68591e+12 -3.7304e+12 -3.80391e+12 -3.88362e+12 -3.9791e+12 -4.18486e+12 -4.30279e+12 -4.42738e+12 -4.5812e+12 -4.72655e+12 -4.92659e+12 -5.16948e+12 -5.48297e+12 -5.47009e+12 -5.539e+12 -5.98681e+12 -6.42843e+12 -4.93474e+12 -6.39898e+12 -6.80748e+12 -5.69917e+12 -5.97436e+12 -6.07749e+12 -6.13073e+12 -6.03412e+12 -6.05312e+12 -6.14174e+12 -6.13066e+12 -3.55699e+12 -3.74942e+12 -6.42267e+12 -6.36012e+12 -6.43552e+12 -6.1578e+12 -5.83511e+12 -4.77313e+12 -5.70418e+12 -6.18264e+12 -5.77293e+12 -5.51718e+12 -3.8964e+12 -4.96095e+12 -5.33429e+12 -5.32393e+12 -4.9175e+12 -4.76602e+12 -4.42195e+12 -4.37797e+12 -4.18111e+12 -4.06292e+12 -3.90889e+12 -3.77314e+12 -3.67053e+12 -3.62939e+12 -3.66762e+12 -3.7865e+12 -3.97099e+12 -4.07767e+12 -4.29186e+12 -4.55448e+12 -4.9225e+12 -5.10772e+12 -5.15626e+12 -4.66697e+12 -5.70073e+12 -5.59418e+12 -5.69517e+12 -5.95868e+12 -5.15089e+12 -5.98448e+12 -6.03174e+12 -5.9664e+12 -6.01787e+12 -6.13832e+12 -3.69315e+12 -3.70478e+12 -6.27372e+12 -6.31054e+12 -6.21976e+12 -6.15883e+12 -6.30567e+12 -6.09465e+12 -5.88752e+12 -6.61723e+12 -5.91666e+12 -5.93565e+12 -5.83656e+12 -5.84239e+12 -5.66108e+12 -6.34953e+12 -5.07331e+12 -5.27703e+12 -5.14271e+12 -5.00716e+12 -4.56488e+12 -4.51509e+12 -4.29685e+12 -3.93749e+12 -3.95897e+12 -3.89377e+12 -3.83403e+12 -3.76182e+12 -3.70625e+12 -3.63898e+12 -3.6248e+12 -3.61976e+12 -3.6976e+12 -3.85223e+12 -4.06285e+12 -4.15573e+12 -4.17191e+12 -4.25464e+12 -4.39371e+12 -4.49287e+12 -4.67147e+12 -4.80195e+12 -5.20466e+12 -4.50237e+12 -3.96774e+12 -4.63789e+12 -5.31912e+12 -5.27307e+12 -5.79587e+12 -5.8201e+12 -6.48879e+12 -5.56521e+12 -5.5295e+12 -5.8784e+12 -6.0987e+12 -6.01349e+12 -5.93875e+12 -5.94136e+12 -6.01532e+12 -6.01164e+12 -6.12784e+12 -3.83394e+12 -3.92225e+12 -3.62172e+12 -3.67057e+12 -6.20279e+12 -6.21523e+12 -6.22262e+12 -6.02555e+12 -5.55984e+12 -6.13689e+12 -6.12729e+12 -5.97363e+12 -5.82854e+12 -5.71924e+12 -5.55342e+12 -5.35249e+12 -3.989e+12 -4.62268e+12 -4.77825e+12 -4.71861e+12 -4.01713e+12 -4.12844e+12 -4.0877e+12 -3.91306e+12 -3.83633e+12 -3.67561e+12 -3.57635e+12 -3.58882e+12 -3.56614e+12 -3.62312e+12 -3.6375e+12 -3.73817e+12 -3.78762e+12 -3.92625e+12 -4.00652e+12 -4.2593e+12 -4.30156e+12 -4.51649e+12 -4.59257e+12 -5.05788e+12 -5.43091e+12 -5.94383e+12 -5.57066e+12 -5.34825e+12 -5.41814e+12 -5.38745e+12 -5.42761e+12 -5.6705e+12 -4.64849e+12 -5.97456e+12 -6.06115e+12 -5.94134e+12 -5.94616e+12 -5.9353e+12 -6.04233e+12 -4.06758e+12 -3.5562e+12 -6.08966e+12 -6.01974e+12 -6.14223e+12 -6.12232e+12 -6.16348e+12 -6.38094e+12 -6.67501e+12 -4.3144e+12 -5.59521e+12 -5.72805e+12 -5.69976e+12 -5.61844e+12 -5.57033e+12 -5.57596e+12 -5.71988e+12 -5.20214e+12 -5.22466e+12 -4.58139e+12 -4.33762e+12 -3.02591e+12 -4.28127e+12 -3.76797e+12 -3.66684e+12 -3.92856e+12 -3.91714e+12 -3.85237e+12 -3.74153e+12 -3.5831e+12 -3.52741e+12 -3.55459e+12 -3.66127e+12 -3.84686e+12 -4.08415e+12 -4.3952e+12 -4.21601e+12 -3.67314e+12 -5.20876e+12 -5.90978e+12 -4.2277e+12 -5.43231e+12 -5.31174e+12 -6.18305e+12 -5.73642e+12 -5.68792e+12 -6.183e+12 -6.34009e+12 -6.03297e+12 -5.889e+12 -5.85798e+12 -5.87486e+12 -5.76729e+12 -5.85766e+12 -3.91258e+12 -6.04776e+12 -3.96157e+12 -3.4726e+12 -5.81849e+12 -5.95655e+12 -5.87539e+12 -5.97098e+12 -5.93011e+12 -6.26489e+12 -5.50137e+12 -5.27426e+12 -5.24321e+12 -5.59434e+12 -5.33671e+12 -5.28948e+12 -5.31621e+12 -5.40821e+12 -5.30681e+12 -6.2518e+12 -4.83967e+12 -4.39904e+12 -4.09303e+12 -3.72354e+12 -2.65989e+12 -3.07626e+12 -4.05977e+12 -3.65433e+12 -3.60896e+12 -3.50606e+12 -3.5078e+12 -3.44375e+12 -3.49015e+12 -3.5531e+12 -3.69376e+12 -3.91558e+12 -3.97336e+12 -4.18303e+12 -4.32261e+12 -4.54548e+12 -5.16622e+12 -3.29811e+12 -4.64696e+12 -5.05202e+12 -4.77407e+12 -5.11278e+12 -5.23581e+12 -5.30947e+12 -5.2923e+12 -5.49311e+12 -5.12373e+12 -5.00223e+12 -6.45346e+12 -6.06307e+12 -6.01313e+12 -5.69697e+12 -5.72111e+12 -5.55879e+12 -5.59735e+12 -6.20328e+12 -3.91789e+12 -3.24241e+12 -3.36284e+12 -5.67975e+12 -5.72628e+12 -5.64149e+12 -5.80828e+12 -5.74889e+12 -5.64546e+12 -5.88338e+12 -5.52707e+12 -4.94665e+12 -5.0906e+12 -5.12765e+12 -5.01257e+12 -5.14356e+12 -5.4327e+12 -5.82532e+12 -6.40456e+12 -4.35806e+12 -5.05415e+12 -4.69979e+12 -3.9247e+12 -3.53186e+12 -3.05024e+12 -1.95045e+12 -4.49844e+12 -3.72181e+12 -3.51694e+12 -3.4162e+12 -3.38935e+12 -3.46244e+12 -3.446e+12 -3.56065e+12 -3.57878e+12 -3.7381e+12 -3.79364e+12 -4.09272e+12 -4.62702e+12 -5.6184e+12 -4.69764e+12 -4.77772e+12 -4.98005e+12 -5.09151e+12 -5.07659e+12 -5.06325e+12 -5.04437e+12 -4.79746e+12 -4.11482e+12 -4.78417e+12 -4.53129e+12 -4.54919e+12 -5.59679e+12 -5.65936e+12 -5.67202e+12 -5.52358e+12 -5.5034e+12 -5.17983e+12 -4.96197e+12 -6.04059e+12 -6.1506e+12 -3.89595e+12 -3.81139e+12 -3.13714e+12 -5.50997e+12 -5.44809e+12 -5.57991e+12 -5.4793e+12 -5.57161e+12 -5.48881e+12 -5.42409e+12 -5.27366e+12 -5.26889e+12 -4.80942e+12 -4.76658e+12 -4.55547e+12 -4.73082e+12 -5.10085e+12 -5.41386e+12 -5.62534e+12 -5.24807e+12 -4.67938e+12 -4.63545e+12 -4.26975e+12 -3.31356e+12 -2.78664e+12 -2.00382e+12 -3.62568e+12 -2.96889e+12 -3.8126e+12 -3.53243e+12 -3.53412e+12 -3.40382e+12 -3.33345e+12 -3.3439e+12 -3.44018e+12 -3.61336e+12 -3.78427e+12 -4.37858e+12 -4.74606e+12 -4.76585e+12 -3.69845e+12 -3.99308e+12 -4.46009e+12 -4.79248e+12 -4.89789e+12 -4.90518e+12 -4.90965e+12 -4.96226e+12 -4.99887e+12 -5.16724e+12 -6.01511e+12 -5.09122e+12 -5.56889e+12 -5.16038e+12 -5.4701e+12 -5.45925e+12 -5.48968e+12 -5.32114e+12 -5.28534e+12 -4.10132e+12 -6.2495e+12 -6.26915e+12 -5.90133e+12 -5.91847e+12 -3.68019e+12 -3.06306e+12 -5.12403e+12 -5.31763e+12 -5.2731e+12 -5.32625e+12 -5.22121e+12 -5.39319e+12 -5.32001e+12 -5.22792e+12 -5.29703e+12 -5.1717e+12 -5.01078e+12 -4.77439e+12 -4.54087e+12 -3.36279e+12 -4.78512e+12 -4.35684e+12 -4.12296e+12 -3.73175e+12 -3.18984e+12 -3.21371e+12 -3.70778e+12 -3.22373e+12 -3.36187e+12 -3.3918e+12 -3.27073e+12 -3.29652e+12 -3.19195e+12 -3.25892e+12 -3.19022e+12 -3.31462e+12 -3.45086e+12 -3.48896e+12 -3.66192e+12 -3.46154e+12 -3.94287e+12 -4.22454e+12 -4.98149e+12 -5.95683e+12 -5.25653e+12 -4.66541e+12 -4.63274e+12 -4.6779e+12 -4.68183e+12 -4.68485e+12 -4.67231e+12 -4.69929e+12 -4.97415e+12 -3.7482e+12 -6.31887e+12 -5.2426e+12 -5.09403e+12 -5.19151e+12 -5.23421e+12 -5.11929e+12 -5.11459e+12 -4.98878e+12 -5.26791e+12 -5.87612e+12 -5.58574e+12 -5.69297e+12 -3.52586e+12 -3.3622e+12 -2.95393e+12 -3.00617e+12 -4.92488e+12 -5.07631e+12 -5.05647e+12 -5.22506e+12 -5.0529e+12 -5.13605e+12 -5.07104e+12 -5.0216e+12 -5.06227e+12 -4.7558e+12 -4.65426e+12 -4.82867e+12 -5.31094e+12 -3.60403e+12 -4.53807e+12 -4.91638e+12 -5.04681e+12 -4.80138e+12 -4.30006e+12 -3.96027e+12 -3.63072e+12 -3.17628e+12 -2.87494e+12 -2.82708e+12 -2.88965e+12 -3.11377e+12 -3.20944e+12 -3.21747e+12 -3.22036e+12 -3.14846e+12 -3.09272e+12 -3.1469e+12 -3.30051e+12 -3.32109e+12 -3.55187e+12 -3.59565e+12 -4.54647e+12 -5.16625e+12 -5.29795e+12 -4.75016e+12 -4.61699e+12 -4.55369e+12 -4.48174e+12 -4.46732e+12 -4.45428e+12 -4.44015e+12 -4.42394e+12 -4.5377e+12 -4.25587e+12 -4.9203e+12 -5.47407e+12 -4.79914e+12 -4.81602e+12 -4.88564e+12 -4.92518e+12 -4.99861e+12 -4.96115e+12 -4.62102e+12 -5.19193e+12 -5.48578e+12 -5.38501e+12 -5.48019e+12 -5.16541e+12 -3.14085e+12 -2.89349e+12 -4.68354e+12 -4.87982e+12 -4.85967e+12 -5.03167e+12 -4.95418e+12 -4.87199e+12 -4.86468e+12 -5.02787e+12 -4.66375e+12 -4.93423e+12 -4.89186e+12 -4.41648e+12 -4.69977e+12 -5.05108e+12 -5.05733e+12 -4.59722e+12 -4.73334e+12 -4.7347e+12 -4.54077e+12 -4.44557e+12 -3.82513e+12 -3.33893e+12 -2.84596e+12 -2.80639e+12 -3.42575e+12 -2.88303e+12 -2.71591e+12 -3.02298e+12 -3.1157e+12 -3.04759e+12 -3.11859e+12 -3.01433e+12 -2.98592e+12 -3.11274e+12 -3.43058e+12 -2.74486e+12 -3.88023e+12 -4.39962e+12 -4.63183e+12 -4.92738e+12 -4.61785e+12 -4.419e+12 -4.31791e+12 -4.24584e+12 -4.21352e+12 -4.19799e+12 -4.18029e+12 -4.09966e+12 -3.9102e+12 -4.31925e+12 -4.3623e+12 -4.82646e+12 -4.80284e+12 -4.6566e+12 -4.88305e+12 -4.9716e+12 -5.16833e+12 -5.17861e+12 -5.28429e+12 -4.97194e+12 -2.88957e+12 -2.65228e+12 -3.04462e+12 -2.80573e+12 -4.38651e+12 -4.37286e+12 -4.66652e+12 -4.68288e+12 -4.72233e+12 -4.86975e+12 -4.85922e+12 -4.72209e+12 -4.65617e+12 -4.68822e+12 -4.90243e+12 -4.5899e+12 -4.64839e+12 -5.39988e+12 -3.91295e+12 -4.26544e+12 -4.32062e+12 -4.39168e+12 -4.29478e+12 -4.19449e+12 -4.05574e+12 -3.87408e+12 -4.08512e+12 -4.54284e+12 -4.3679e+12 -3.80863e+12 -917508000000.0 -2.91743e+12 -3.03859e+12 -2.92054e+12 -2.95922e+12 -2.80236e+12 -2.89887e+12 -2.73503e+12 -2.90799e+12 -2.756e+12 -3.14482e+12 -3.43519e+12 -3.76122e+12 -2.80676e+12 -3.70075e+12 -4.03958e+12 -4.70788e+12 -4.55309e+12 -4.34642e+12 -4.10862e+12 -4.01006e+12 -3.93936e+12 -3.92801e+12 -4.55139e+12 -4.86619e+12 -4.302e+12 -4.69966e+12 -4.58749e+12 -4.60058e+12 -4.7554e+12 -4.62346e+12 -5.03902e+12 -4.82919e+12 -4.95017e+12 -4.91594e+12 -4.70386e+12 -2.4517e+12 -2.90136e+12 -2.98484e+12 -4.60493e+12 -3.9913e+12 -4.46049e+12 -4.56247e+12 -4.82953e+12 -4.9638e+12 -4.05157e+12 -4.30372e+12 -4.93248e+12 -5.28444e+12 -3.94989e+12 -4.64719e+12 -5.53281e+12 -3.18463e+12 -5.05087e+12 -3.15461e+12 -3.95455e+12 -4.06828e+12 -4.06935e+12 -4.02423e+12 -3.95955e+12 -3.90222e+12 -4.0265e+12 -4.23006e+12 -4.24965e+12 -3.92785e+12 -3.42201e+12 -2.46556e+12 -4.1636e+12 -3.1817e+12 -2.63054e+12 -2.76784e+12 -2.74101e+12 -2.70069e+12 -2.64569e+12 -2.55704e+12 -4.30023e+12 -1.44783e+12 -3.08606e+12 -3.6125e+12 -4.25341e+12 -4.33271e+12 -4.20451e+12 -4.08412e+12 -3.67085e+12 -3.91193e+12 -3.80295e+12 -3.12515e+12 -2.96302e+12 -3.56213e+12 -4.11339e+12 -4.34476e+12 -3.10453e+12 -5.49568e+12 -5.03634e+12 -4.77062e+12 -4.38679e+12 -4.34925e+12 -4.45487e+12 -4.65499e+12 -4.57431e+12 -4.73089e+12 -4.72857e+12 -4.51658e+12 -4.40914e+12 -2.23184e+12 -2.68817e+12 -4.96833e+12 -3.52111e+12 -3.35558e+12 -3.96233e+12 -4.1019e+12 -4.2561e+12 -4.72681e+12 -5.0712e+12 -5.49171e+12 -3.06625e+12 -4.69755e+12 -5.19768e+12 -5.57473e+12 -3.38756e+12 -4.77046e+12 -4.86627e+12 -4.63098e+12 -3.58155e+12 -3.84068e+12 -3.87196e+12 -3.87732e+12 -3.8591e+12 -3.85718e+12 -3.89945e+12 -3.97355e+12 -3.83815e+12 -3.58293e+12 -3.21828e+12 -2.96766e+12 -3.51542e+12 -2.29408e+12 -2.37313e+12 -2.74651e+12 -2.54998e+12 -2.43713e+12 -2.27294e+12 -2.14675e+12 -3.30111e+12 -2.99553e+12 -3.52849e+12 -3.83512e+12 -4.01397e+12 -3.93265e+12 -3.9518e+12 -3.60332e+12 -3.64657e+12 -3.75572e+12 -3.94537e+12 -4.16639e+12 -4.95333e+12 -5.32487e+12 -4.72965e+12 -4.24427e+12 -4.11014e+12 -3.89939e+12 -5.04014e+12 -5.09413e+12 -4.75144e+12 -4.51264e+12 -4.03435e+12 -3.8595e+12 -3.72633e+12 -4.58389e+12 -4.53251e+12 -4.91046e+12 -4.68607e+12 -4.24667e+12 -4.01985e+12 -3.38532e+12 -1.88783e+12 -2.42775e+12 -4.58329e+12 -4.73517e+12 -5.30712e+12 -2.3713e+12 -3.64878e+12 -3.84774e+12 -4.40754e+12 -4.61979e+12 -4.87269e+12 -4.13084e+12 -4.56011e+12 -4.81179e+12 -4.47817e+12 -4.11467e+12 -4.30526e+12 -3.40187e+12 -4.2391e+12 -4.01866e+12 -3.63798e+12 -3.72785e+12 -3.75646e+12 -3.77987e+12 -3.83709e+12 -3.91639e+12 -3.9896e+12 -3.71074e+12 -3.55571e+12 -3.32692e+12 -3.11019e+12 -3.19325e+12 -2.46727e+12 -1.8687e+12 -2.80886e+12 -2.55774e+12 -2.22507e+12 -2.49337e+12 -1.7991e+12 -2.53963e+12 -2.16839e+12 -1.47143e+12 -2.40036e+12 -3.25604e+12 -3.45342e+12 -3.7716e+12 -3.7015e+12 -3.49132e+12 -3.87874e+12 -2.79015e+12 -3.15826e+12 -3.38913e+12 -3.66875e+12 -3.93244e+12 -4.40563e+12 -4.8372e+12 -4.79016e+12 -4.41211e+12 -4.12381e+12 -3.91149e+12 -3.19267e+12 -4.53789e+12 -4.54512e+12 -4.37076e+12 -4.20782e+12 -3.50235e+12 -2.66098e+12 -4.97218e+12 -4.38849e+12 -3.9285e+12 -4.94475e+12 -4.52148e+12 -3.78616e+12 -2.13644e+12 -1.41767e+12 -2.74975e+12 -2.17078e+12 -4.09507e+12 -4.12428e+12 -4.49265e+12 -3.12637e+12 -3.41337e+12 -3.99651e+12 -4.14621e+12 -4.2764e+12 -4.60396e+12 -3.57392e+12 -4.1029e+12 -4.24694e+12 -4.1649e+12 -4.07295e+12 -3.62365e+12 -3.68491e+12 -3.63177e+12 -3.50452e+12 -3.66141e+12 -3.70422e+12 -3.77274e+12 -3.82847e+12 -3.85052e+12 -3.81155e+12 -3.18644e+12 -3.13203e+12 -2.9027e+12 -2.71172e+12 -3.21183e+12 -2.1868e+12 -3.56107e+12 -2.36129e+12 -2.40015e+12 -2.81249e+12 -2.64788e+12 -2.85571e+12 -2.98637e+12 -3.90212e+12 -4.1062e+12 -2.4708e+12 -3.74577e+12 -3.99093e+12 -4.3507e+12 -2.25617e+12 -2.77309e+12 -3.2881e+12 -3.60048e+12 -3.93092e+12 -4.21287e+12 -4.33697e+12 -4.27283e+12 -4.09506e+12 -3.94011e+12 -3.73221e+12 -4.18583e+12 -4.14605e+12 -4.13849e+12 -4.02322e+12 -3.8344e+12 -2.79958e+12 -4.23725e+12 -3.01878e+12 -5.42113e+12 -4.40694e+12 -4.10025e+12 -3.57797e+12 -3.06863e+12 -3.72791e+12 -3.08453e+12 -2.55219e+12 -1.90297e+12 -3.11382e+12 -3.60882e+12 -3.61832e+12 -3.94693e+12 -3.5241e+12 -2.49523e+12 -3.02165e+12 -3.57571e+12 -3.70839e+12 -3.80564e+12 -4.20753e+12 -4.06179e+12 -3.77703e+12 -3.8757e+12 -3.81992e+12 -4.16803e+12 -3.86056e+12 -3.74223e+12 -3.56221e+12 -3.22417e+12 -3.23206e+12 -3.27793e+12 -3.31132e+12 -3.57113e+12 -3.75237e+12 -3.79128e+12 -3.77678e+12 -3.71612e+12 -3.61848e+12 -3.49522e+12 -3.34341e+12 -2.78678e+12 -2.88855e+12 -2.29788e+12 -3.64222e+12 -1.67618e+12 -1.06695e+12 -2.90311e+12 -965864000000.0 -2.53527e+12 -1.96467e+12 -2.56455e+12 -3.40527e+12 -3.77281e+12 -4.22235e+12 -3.28458e+12 -3.71522e+12 -4.21031e+12 -4.70354e+12 -2.41346e+12 -2.99814e+12 -3.29723e+12 -3.55661e+12 -3.76942e+12 -3.89162e+12 -3.9419e+12 -3.91235e+12 -3.82931e+12 -3.75058e+12 -3.95947e+12 -4.04525e+12 -3.84547e+12 -3.82268e+12 -3.71187e+12 -3.49558e+12 -4.37539e+12 -3.52355e+12 -4.40632e+12 -4.69562e+12 -4.05237e+12 -3.87086e+12 -3.2643e+12 -2.61048e+12 -4.14168e+12 -2.09444e+12 -1.40632e+12 -1.61398e+12 -3.13758e+12 -3.50736e+12 -3.31087e+12 -3.15679e+12 -2.74753e+12 -3.15736e+12 -3.28189e+12 -3.3807e+12 -3.80314e+12 -3.77314e+12 -3.74356e+12 -3.59294e+12 -3.79736e+12 -3.68871e+12 -3.43935e+12 -3.2553e+12 -2.93551e+12 -2.63884e+12 -2.79832e+12 -2.95867e+12 -3.37023e+12 -3.57024e+12 -3.64431e+12 -3.83732e+12 -3.767e+12 -3.66594e+12 -3.55084e+12 -3.42966e+12 -3.30327e+12 -3.17674e+12 -3.07564e+12 -2.91947e+12 -2.76482e+12 -3.00515e+12 -3.38701e+12 -3.81152e+12 -1.9338e+12 -2.73301e+12 -3.24753e+12 -3.67714e+12 -4.09219e+12 -4.13172e+12 -3.63082e+12 -3.63337e+12 -3.62375e+12 -3.73064e+12 -3.79289e+12 -3.81441e+12 -3.56447e+12 -3.47417e+12 -3.27408e+12 -3.63036e+12 -3.86614e+12 -3.84325e+12 -3.98478e+12 -3.48848e+12 -3.33637e+12 -3.03687e+12 -3.11967e+12 -2.98082e+12 -3.29379e+12 -2.54181e+12 -1.7144e+12 -959514000000.0 -1.17054e+12 -1.82082e+12 -2.58448e+12 -2.6196e+12 -3.11689e+12 -3.06036e+12 -3.07671e+12 -2.74908e+12 -2.8385e+12 -2.95426e+12 -3.41973e+12 -3.43635e+12 -3.44665e+12 -3.4143e+12 -3.53953e+12 -3.47185e+12 -3.38258e+12 -3.22508e+12 -2.9783e+12 -2.6384e+12 -1.92368e+12 -1.78634e+12 -2.36958e+12 -3.41998e+12 -3.27115e+12 -3.55658e+12 -3.82679e+12 -3.6539e+12 -3.49856e+12 -3.36197e+12 -3.23856e+12 -3.12484e+12 -3.02222e+12 -2.90432e+12 -2.80236e+12 -2.78675e+12 -2.61248e+12 -2.93472e+12 -2.65341e+12 -2.20444e+12 -2.73302e+12 -2.06388e+12 -2.82266e+12 -2.49656e+12 -2.5103e+12 -2.62952e+12 -2.75172e+12 -2.92795e+12 -3.1692e+12 -1.92468e+12 -2.41444e+12 -2.80643e+12 -3.16709e+12 -3.46214e+12 -3.58189e+12 -2.87594e+12 -3.08421e+12 -3.27431e+12 -3.42152e+12 -3.52125e+12 -3.5911e+12 -3.56092e+12 -3.58276e+12 -3.58903e+12 -3.59583e+12 -3.32889e+12 -3.26184e+12 -3.40379e+12 -3.45852e+12 -3.48893e+12 -3.53173e+12 -3.58183e+12 -3.59268e+12 -3.11356e+12 -2.71507e+12 -2.54934e+12 -2.4089e+12 -1.96777e+12 -1.41902e+12 -1.13998e+12 -738679000000.0 -1.58441e+12 -2.05631e+12 -2.04986e+12 -2.67392e+12 -2.73066e+12 -2.84099e+12 -3.22083e+12 -2.15131e+12 -2.29544e+12 -2.47557e+12 -3.03499e+12 -3.08951e+12 -3.12893e+12 -3.30882e+12 -3.23039e+12 -3.10793e+12 -2.9931e+12 -2.83125e+12 -4.18548e+12 -3.42521e+12 -2.60955e+12 -4.0752e+12 -4.02456e+12 -3.83132e+12 -3.28343e+12 -3.1551e+12 -3.04694e+12 -2.95177e+12 -2.85709e+12 -2.7721e+12 -2.7206e+12 -2.63723e+12 -2.715e+12 -2.58272e+12 -2.47538e+12 -2.51118e+12 -2.33653e+12 -2.49371e+12 -2.50089e+12 -2.49594e+12 -2.50426e+12 -2.58521e+12 -2.66512e+12 -2.7052e+12 -2.16819e+12 -2.32836e+12 -2.54162e+12 -2.79131e+12 -3.34309e+12 -2.94253e+12 -3.04706e+12 -3.1295e+12 -3.19648e+12 -3.25786e+12 -3.31745e+12 -3.36759e+12 -3.41373e+12 -3.50834e+12 -3.36656e+12 -3.37319e+12 -3.37264e+12 -3.36349e+12 -3.11777e+12 -3.17286e+12 -3.20633e+12 -3.22555e+12 -3.42852e+12 -3.18936e+12 -3.20448e+12 -3.18929e+12 -2.74862e+12 -2.21551e+12 -2.28497e+12 -1.53366e+12 -1.7814e+12 -1.52702e+12 -850704000000.0 -507455000000.0 -1.24631e+12 -1.70696e+12 -1.29706e+12 -2.13068e+12 -2.2592e+12 -2.43367e+12 -3.08236e+12 -3.46689e+12 -1.44286e+12 -2.6243e+12 -2.73273e+12 -2.80951e+12 -3.14027e+12 -3.10933e+12 -3.03526e+12 -2.93809e+12 -2.73577e+12 -2.63648e+12 -2.45576e+12 -2.51993e+12 -1.98112e+12 -2.22694e+12 -4.17467e+12 -3.91866e+12 -3.64872e+12 -3.44322e+12 -2.86096e+12 -2.78357e+12 -2.71338e+12 -2.65717e+12 -2.59882e+12 -2.59289e+12 -2.52433e+12 -2.45732e+12 -2.45755e+12 -2.35315e+12 -2.39156e+12 -2.3902e+12 -2.41775e+12 -2.43035e+12 -2.46e+12 -2.51082e+12 -2.5311e+12 -2.35723e+12 -2.33575e+12 -2.41056e+12 -3.02228e+12 -3.16532e+12 -3.16457e+12 -3.10356e+12 -2.85689e+12 -2.87785e+12 -2.90685e+12 -2.94263e+12 -2.98614e+12 -3.05382e+12 -3.13159e+12 -3.28072e+12 -3.3431e+12 -3.16882e+12 -3.16576e+12 -3.15658e+12 -3.13944e+12 -2.96477e+12 -2.97964e+12 -3.06806e+12 -3.14961e+12 -2.8419e+12 -2.83635e+12 -2.80684e+12 -2.42221e+12 -2.34317e+12 -1.71226e+12 -1.02043e+12 -1.22251e+12 -1.96787e+12 -1.72632e+12 -759764000000.0 -292639000000.0 -871437000000.0 -811628000000.0 -1.28779e+12 -1.54809e+12 -1.43767e+12 -1.6425e+12 -1.89654e+12 -2.66428e+12 -2.96257e+12 -3.2413e+12 -1.90061e+12 -2.1733e+12 -2.36263e+12 -2.48933e+12 -2.85686e+12 -2.8719e+12 -2.85185e+12 -2.7937e+12 -2.69464e+12 -2.60817e+12 -2.50348e+12 -2.40616e+12 -2.46364e+12 -2.5149e+12 -3.78574e+12 -3.50737e+12 -2.89361e+12 -3.86514e+12 -3.60405e+12 -3.35915e+12 -3.18042e+12 -3.04864e+12 -2.94607e+12 -2.50765e+12 -2.45781e+12 -2.40741e+12 -2.38018e+12 -2.33148e+12 -2.31412e+12 -2.3099e+12 -2.55004e+12 -2.70565e+12 -2.82761e+12 -2.89241e+12 -2.9226e+12 -2.89841e+12 -2.65867e+12 -2.65111e+12 -2.65433e+12 -2.66089e+12 -2.67746e+12 -2.74891e+12 -3.05155e+12 -3.13637e+12 -3.16388e+12 -2.95693e+12 -2.94056e+12 -2.92788e+12 -2.94838e+12 -2.73214e+12 -2.76859e+12 -2.8092e+12 -2.8367e+12 -2.49832e+12 -2.47302e+12 -2.0043e+12 -1.84195e+12 -1.26349e+12 -935282000000.0 -2.1373e+12 -1.5818e+12 -1.13366e+12 -501487000000.0 -90370800000.0 -185876000000.0 -521040000000.0 -469020000000.0 -665844000000.0 -595417000000.0 -806728000000.0 -1.25857e+12 -2.13397e+12 -2.33964e+12 -2.38733e+12 -1.14222e+12 -1.69083e+12 -1.99421e+12 -2.17635e+12 -2.57401e+12 -2.62702e+12 -2.65487e+12 -2.66357e+12 -2.23017e+12 -2.25357e+12 -2.23847e+12 -2.24515e+12 -2.30123e+12 -2.62561e+12 -3.01293e+12 -2.81996e+12 -2.50221e+12 -2.1122e+12 -3.43609e+12 -3.23017e+12 -3.04523e+12 -2.91543e+12 -2.82156e+12 -2.74884e+12 -2.68767e+12 -2.63316e+12 -2.58488e+12 -2.53831e+12 -2.31737e+12 -2.33571e+12 -2.35512e+12 -2.37826e+12 -2.38852e+12 -2.32339e+12 -2.30738e+12 -2.32558e+12 -2.39207e+12 -2.48469e+12 -2.57043e+12 -2.63063e+12 -2.6758e+12 -2.69364e+12 -2.68036e+12 -2.40077e+12 -2.36715e+12 -2.3146e+12 -2.15769e+12 -2.88801e+12 -2.96589e+12 -2.98532e+12 -2.98177e+12 -2.97119e+12 -2.74527e+12 -2.72764e+12 -2.7266e+12 -2.72896e+12 -2.50486e+12 -2.51448e+12 -2.51199e+12 -2.15609e+12 -2.105e+12 -1.55157e+12 -1.89689e+12 -2.1761e+12 -1.57406e+12 -648810000000.0 -1.08532e+12 -260954000000.0 -175998000000.0 -131673000000.0 -327441000000.0 -479742000000.0 -1.07757e+12 -221047000000.0 -1.58562e+12 -1.80038e+12 -2.79785e+12 -1.12622e+12 -1.66842e+12 -2.29491e+12 -2.37654e+12 -2.43731e+12 -2.48747e+12 -2.66854e+12 -2.72038e+12 -1.87964e+12 -1.97577e+12 -2.02149e+12 -2.07896e+12 -2.48965e+12 -2.50101e+12 -2.56241e+12 -2.44203e+12 -2.27904e+12 -2.05493e+12 -2.98737e+12 -2.85831e+12 -2.7525e+12 -2.67186e+12 -2.61441e+12 -2.57078e+12 -2.53422e+12 -2.5009e+12 -2.46777e+12 -2.43434e+12 -2.39046e+12 -2.34468e+12 -2.30848e+12 -2.27074e+12 -2.24693e+12 -2.23014e+12 -2.22766e+12 -2.23431e+12 -2.24783e+12 -2.26084e+12 -2.26407e+12 -2.23824e+12 -2.22707e+12 -2.23769e+12 -2.26868e+12 -2.31978e+12 -2.3737e+12 -2.417e+12 -2.45133e+12 -2.47375e+12 -2.47685e+12 -2.45745e+12 -2.42799e+12 -3.07907e+12 -2.9346e+12 -2.86928e+12 -2.82837e+12 -2.79614e+12 -2.7689e+12 -2.51289e+12 -2.50126e+12 -2.49032e+12 -2.49209e+12 -2.21116e+12 -2.20703e+12 -2.18496e+12 -1.81e+12 -1.71541e+12 -1.29868e+12 -1.43785e+12 -1.17752e+12 -1.40404e+12 -672687000000.0 -1.20581e+12 -123277000000.0 -143872000000.0 -825001000000.0 -654913000000.0 -1.07391e+12 -1.30642e+12 -1.84454e+12 -2.20753e+12 -2.28689e+12 -1.50207e+12 -1.89388e+12 -2.03165e+12 -2.12734e+12 -2.2038e+12 -2.5401e+12 -2.6248e+12 -2.72756e+12 -1.57205e+12 -2.18899e+12 -2.2626e+12 -2.26201e+12 -2.26528e+12 -2.20515e+12 -2.12402e+12 -2.01522e+12 -2.55199e+12 -2.54105e+12 -2.49946e+12 -2.45186e+12 -2.42936e+12 -2.41575e+12 -2.40402e+12 -2.39188e+12 -2.36664e+12 -2.32551e+12 -2.2785e+12 -2.23693e+12 -2.19958e+12 -2.17124e+12 -2.15065e+12 -2.13887e+12 -2.13692e+12 -2.14133e+12 -2.14801e+12 -2.14944e+12 -2.13774e+12 -2.13029e+12 -2.13529e+12 -2.15346e+12 -2.18142e+12 -2.21332e+12 -2.24058e+12 -2.2619e+12 -2.23136e+12 -2.18495e+12 -2.12868e+12 -2.05307e+12 -1.8499e+12 -2.79605e+12 -2.70523e+12 -2.64314e+12 -2.59592e+12 -2.55882e+12 -2.53046e+12 -2.28313e+12 -2.25825e+12 -2.23438e+12 -2.21636e+12 -1.92144e+12 -1.89679e+12 -1.86211e+12 -1.47021e+12 -1.37452e+12 -910606000000.0 -1.00638e+12 -397543000000.0 -292116000000.0 -263073000000.0 -533897000000.0 -360880000000.0 -613867000000.0 -821472000000.0 -1.44927e+12 -1.77733e+12 -2.16693e+12 -1.9145e+12 -1.72168e+12 -1.80591e+12 -1.88812e+12 -1.96312e+12 -2.27742e+12 -2.35599e+12 -2.45407e+12 -2.58521e+12 -2.72983e+12 -1.73448e+12 -1.82016e+12 -1.91414e+12 -2.02374e+12 -2.28932e+12 -2.31536e+12 -2.30772e+12 -2.26747e+12 -2.21347e+12 -2.16546e+12 -2.12417e+12 -2.09131e+12 -2.06651e+12 -2.04968e+12 -2.04061e+12 -2.0382e+12 -2.03894e+12 -2.03842e+12 -2.0325e+12 -2.02726e+12 -2.02848e+12 -2.03831e+12 -2.05449e+12 -2.27629e+12 -2.27967e+12 -2.2652e+12 -1.92568e+12 -1.83577e+12 -1.61999e+12 -3.10345e+12 -2.94964e+12 -2.50169e+12 -2.43432e+12 -2.38263e+12 -2.34163e+12 -2.30912e+12 -1.99469e+12 -1.94846e+12 -1.90016e+12 -1.62977e+12 -1.58818e+12 -1.5355e+12 -965778000000.0 -383713000000.0 -270891000000.0 -359668000000.0 -164323000000.0 -498920000000.0 -296829000000.0 -1.0174e+12 -1.35798e+12 -1.71836e+12 -1.66045e+12 -1.68638e+12 -1.6473e+12 -2.0442e+12 -2.13329e+12 -2.2361e+12 -2.36063e+12 -1.3149e+12 -1.51828e+12 -1.99458e+12 -2.03691e+12 -2.0485e+12 -2.05731e+12 -2.04068e+12 -2.04009e+12 -2.27593e+12 -2.30168e+12 -2.27985e+12 -2.24107e+12 -2.26653e+12 -2.0726e+12 -2.08806e+12 -2.09873e+12 -2.10368e+12 -2.10056e+12 -2.08442e+12 -2.05014e+12 -1.99659e+12 -1.65108e+12 -1.44043e+12 -3.01768e+12 -2.8842e+12 -2.72052e+12 -2.59217e+12 -2.21158e+12 -2.15993e+12 -2.11459e+12 -2.07461e+12 -2.03669e+12 -1.70229e+12 -1.60297e+12 -1.64237e+12 -1.35181e+12 -1.27786e+12 -1.19641e+12 -1.09298e+12 -441833000000.0 -110499000000.0 -107915000000.0 -101566000000.0 -123501000000.0 -109127000000.0 -591458000000.0 -913657000000.0 -1.22284e+12 -1.7554e+12 -1.67852e+12 -1.5945e+12 -1.60735e+12 -1.70947e+12 -1.79587e+12 -1.88793e+12 -1.98865e+12 -2.10133e+12 -2.52037e+12 -2.67142e+12 -1.10506e+12 -1.63307e+12 -1.73079e+12 -1.80122e+12 -1.84583e+12 -1.87467e+12 -1.89869e+12 -1.91321e+12 -1.94094e+12 -1.99005e+12 -2.08504e+12 -2.09665e+12 -2.06511e+12 -2.00187e+12 -2.13418e+12 -2.24772e+12 -2.27145e+12 -2.22653e+12 -2.15317e+12 -2.09481e+12 -2.04658e+12 -2.00831e+12 -1.97911e+12 -1.95804e+12 -1.94424e+12 -1.93656e+12 -1.93289e+12 -1.93001e+12 -1.92551e+12 -1.92136e+12 -1.92048e+12 -1.92463e+12 -1.93321e+12 -1.94302e+12 -1.95068e+12 -1.95393e+12 -1.95159e+12 -1.9418e+12 -1.92132e+12 -1.88508e+12 -1.82886e+12 -1.75098e+12 -1.29475e+12 -2.83564e+12 -2.73972e+12 -2.59057e+12 -2.46161e+12 -2.3561e+12 -2.2747e+12 -1.92741e+12 -1.87675e+12 -1.82638e+12 -1.77017e+12 -1.39061e+12 -1.68998e+12 -1.39173e+12 -952263000000.0 -825987000000.0 -668285000000.0 -214385000000.0 -189001000000.0 -505277000000.0 -1.49214e+12 -1.50983e+12 -1.5113e+12 -1.38659e+12 -1.52174e+12 -1.6296e+12 -1.72978e+12 -2.23382e+12 -2.39445e+12 -2.52347e+12 -1.33022e+12 -1.45863e+12 -1.55892e+12 -1.63272e+12 -1.68659e+12 -1.72953e+12 -1.76593e+12 -1.79993e+12 -1.83624e+12 -1.87084e+12 -1.90838e+12 -1.8926e+12 -1.81296e+12 -1.60338e+12 -2.23087e+12 -2.29946e+12 -2.22701e+12 -2.10109e+12 -2.02528e+12 -1.96668e+12 -1.92187e+12 -1.88829e+12 -1.86368e+12 -1.8464e+12 -1.83507e+12 -1.82804e+12 -1.82316e+12 -1.81849e+12 -1.8143e+12 -1.81209e+12 -1.81279e+12 -1.81619e+12 -1.82051e+12 -1.82308e+12 -1.82184e+12 -1.81512e+12 -1.80126e+12 -1.77753e+12 -1.73985e+12 -1.68245e+12 -1.60147e+12 -1.49342e+12 -2.5825e+12 -2.525e+12 -2.40449e+12 -2.29002e+12 -2.18938e+12 -2.1051e+12 -2.03749e+12 -1.98048e+12 -1.68744e+12 -1.62953e+12 -1.56569e+12 -1.49111e+12 -1.52129e+12 -1.13567e+12 -1.0719e+12 -610819000000.0 -458887000000.0 -194249000000.0 -174885000000.0 -760450000000.0 -1.12497e+12 -1.25292e+12 -1.32654e+12 -1.5309e+12 -1.63149e+12 -1.21203e+12 -1.36271e+12 -1.83023e+12 -1.93337e+12 -2.05037e+12 -2.1885e+12 -2.28681e+12 -935980000000.0 -1.1699e+12 -1.30887e+12 -1.41257e+12 -1.49089e+12 -1.55294e+12 -1.60412e+12 -1.64799e+12 -1.68636e+12 -1.7176e+12 -1.74008e+12 -1.74376e+12 -1.69058e+12 -1.52566e+12 -1.20547e+12 -2.48465e+12 -2.3187e+12 -2.05105e+12 -1.95257e+12 -1.88119e+12 -1.82955e+12 -1.79234e+12 -1.7654e+12 -1.746e+12 -1.73239e+12 -1.72311e+12 -1.71662e+12 -1.71146e+12 -1.70706e+12 -1.70383e+12 -1.70243e+12 -1.70258e+12 -1.70322e+12 -1.70247e+12 -1.69851e+12 -1.68975e+12 -1.67453e+12 -1.65054e+12 -1.61421e+12 -1.56004e+12 -1.47903e+12 -1.36659e+12 -1.17269e+12 -2.07547e+12 -1.98832e+12 -1.9141e+12 -1.8519e+12 -1.79736e+12 -1.74308e+12 -1.37271e+12 -1.28978e+12 -1.17259e+12 -1.6013e+12 -1.31205e+12 -892503000000.0 -804764000000.0 -99559200000.0 -374616000000.0 -952126000000.0 -1.3907e+12 -1.48367e+12 -1.60372e+12 -1.06602e+12 -1.47089e+12 -1.56549e+12 -1.64999e+12 -1.71513e+12 -1.78778e+12 -1.89418e+12 -822646000000.0 -2.41916e+12 -1.91802e+12 -1.85008e+12 -1.77861e+12 -1.72567e+12 -1.68817e+12 -1.66124e+12 -1.64164e+12 -1.62734e+12 -1.61705e+12 -1.60962e+12 -1.60399e+12 -1.59949e+12 -1.59588e+12 -2.28931e+12 -2.25835e+12 -2.17122e+12 -1.69025e+12 -1.64659e+12 -1.60545e+12 -1.55728e+12 -1.50433e+12 -1.44436e+12 -975036000000.0 -1.50316e+12 -1.40307e+12 -1.06836e+12 -665800000000.0 -566362000000.0 -303869000000.0 -119105000000.0 -716896000000.0 -1.08346e+12 -1.19116e+12 -1.30551e+12 -1.42212e+12 -1.21379e+12 -1.31334e+12 -1.39221e+12 -1.44349e+12 -1.99256e+12 -1.05015e+12 -1.1887e+12 -1.29273e+12 -1.37381e+12 -1.43857e+12 -1.4916e+12 -1.53693e+12 -1.57529e+12 -1.60501e+12 -1.61941e+12 -1.59763e+12 -1.48796e+12 -1.11375e+12 -1.59326e+12 -1.59154e+12 -1.58994e+12 -1.58714e+12 -1.58164e+12 -1.57219e+12 -1.55734e+12 -1.53531e+12 -1.5034e+12 -1.45735e+12 -1.38871e+12 -1.27862e+12 -1.09965e+12 -1.98118e+12 -1.95201e+12 -1.89559e+12 -1.82984e+12 -1.74754e+12 -1.36623e+12 -1.3245e+12 -1.27207e+12 -1.19614e+12 -1.1046e+12 -1.39246e+12 -1.27276e+12 -1.16588e+12 -806361000000.0 -457519000000.0 -295558000000.0 -363897000000.0 -608162000000.0 -802541000000.0 -944848000000.0 -1.10685e+12 -1.22677e+12 -1.53952e+12 -932012000000.0 -1.07068e+12 -1.16139e+12 -1.22898e+12 -1.41061e+12 -1.39349e+12 -1.61842e+12 -1.66494e+12 -768978000000.0 -969093000000.0 -1.09951e+12 -1.19752e+12 -1.27355e+12 -1.33484e+12 -1.38738e+12 -1.43498e+12 -1.47836e+12 -1.51705e+12 -1.54835e+12 -1.56767e+12 -1.58572e+12 -1.50273e+12 -1.43519e+12 -1.44859e+12 -1.67878e+12 -1.6477e+12 -1.60556e+12 -1.57348e+12 -1.54975e+12 -1.53208e+12 -1.51887e+12 -1.50895e+12 -1.50155e+12 -1.4959e+12 -1.49144e+12 -1.48787e+12 -1.48493e+12 -1.48237e+12 -1.47962e+12 -1.47576e+12 -1.46968e+12 -1.46027e+12 -1.44658e+12 -1.42744e+12 -1.40131e+12 -1.36562e+12 -1.3158e+12 -1.23932e+12 -1.07671e+12 -1.66792e+12 -1.70453e+12 -1.5574e+12 -1.54694e+12 -1.49383e+12 -1.4151e+12 -1.40804e+12 -1.40233e+12 -1.11727e+12 -1.03934e+12 -940710000000.0 -798691000000.0 -1.00144e+12 -899521000000.0 -224991000000.0 -35749700000.0 -142575000000.0 -276460000000.0 -463230000000.0 -638175000000.0 -909833000000.0 -1.34401e+12 -1.44853e+12 -800211000000.0 -931682000000.0 -1.27078e+12 -1.12112e+12 -1.31198e+12 -1.38136e+12 -1.34544e+12 -751281000000.0 -921081000000.0 -1.03206e+12 -1.11394e+12 -1.18022e+12 -1.23771e+12 -1.29178e+12 -1.3448e+12 -1.39839e+12 -1.45578e+12 -1.52171e+12 -1.60101e+12 -1.77281e+12 -463702000000.0 -1.59241e+12 -1.53326e+12 -1.48148e+12 -1.45157e+12 -1.43164e+12 -1.41715e+12 -1.40634e+12 -1.39812e+12 -1.39177e+12 -1.38686e+12 -1.38292e+12 -1.3797e+12 -1.37701e+12 -1.37445e+12 -1.37147e+12 -1.36735e+12 -1.36133e+12 -1.35253e+12 -1.34026e+12 -1.32391e+12 -1.30295e+12 -1.27672e+12 -1.24442e+12 -1.20496e+12 -1.1488e+12 -1.35471e+12 -1.47662e+12 -1.52253e+12 -1.25567e+12 -1.23199e+12 -1.30452e+12 -1.22228e+12 -1.22279e+12 -1.17378e+12 -1.14103e+12 -802416000000.0 -651632000000.0 -1.26957e+12 -1.14123e+12 -624945000000.0 -553555000000.0 -32160300000.0 -67580500000.0 -1.03393e+12 -1.14047e+12 -1.24887e+12 -1.34105e+12 -1.02139e+12 -1.08782e+12 -1.07747e+12 -1.10806e+12 -1.14343e+12 -1.11093e+12 -1.04315e+12 -771102000000.0 -889476000000.0 -966910000000.0 -1.03158e+12 -1.08981e+12 -1.14616e+12 -1.20347e+12 -1.26377e+12 -1.33245e+12 -1.41918e+12 -1.54041e+12 -1.70474e+12 -1.47829e+12 -1.15195e+12 -1.54543e+12 -1.47961e+12 -1.3557e+12 -1.32129e+12 -1.30596e+12 -1.29629e+12 -1.28933e+12 -1.28404e+12 -1.27981e+12 -1.27638e+12 -1.27361e+12 -1.2713e+12 -1.26935e+12 -1.26742e+12 -1.26492e+12 -1.26124e+12 -1.25581e+12 -1.24796e+12 -1.23711e+12 -1.22307e+12 -1.11234e+12 -1.13633e+12 -1.11038e+12 -1.06339e+12 -1.01332e+12 -1.01448e+12 -911996000000.0 -1.14233e+12 -998593000000.0 -855822000000.0 -691751000000.0 -436097000000.0 -376243000000.0 -225178000000.0 -357201000000.0 -299666000000.0 -823482000000.0 -880678000000.0 -957258000000.0 -1.03893e+12 -662279000000.0 -803297000000.0 -914553000000.0 -981149000000.0 -1.0086e+12 -1.20575e+12 -1.18539e+12 -1.16282e+12 -1.14016e+12 -1.124e+12 -1.19377e+12 -1.26215e+12 -1.31762e+12 -1.33391e+12 -1.02138e+12 -967601000000.0 -906847000000.0 -941248000000.0 -812606000000.0 -686690000000.0 -530649000000.0 -871970000000.0 -682864000000.0 -624904000000.0 -440441000000.0 -217079000000.0 -227446000000.0 -52987800000.0 -61272800000.0 -202880000000.0 -715342000000.0 -784423000000.0 -1.13826e+12 -1.22611e+12 -517293000000.0 -703852000000.0 -874573000000.0 -988696000000.0 -852716000000.0 -851949000000.0 -829419000000.0 -786637000000.0 -839826000000.0 -893129000000.0 -946229000000.0 -1.00019e+12 -1.05679e+12 -1.11707e+12 -1.18587e+12 -1.27317e+12 -1.39379e+12 -1.57191e+12 -1.70389e+12 -40742100000.0 -1.15877e+12 -1.11908e+12 -1.15006e+12 -1.16335e+12 -1.16664e+12 -1.167e+12 -1.1664e+12 -1.16541e+12 -1.16423e+12 -1.16317e+12 -1.16236e+12 -1.16174e+12 -1.16104e+12 -1.15972e+12 -1.1571e+12 -1.15274e+12 -1.14611e+12 -1.13673e+12 -1.12451e+12 -1.10968e+12 -1.0926e+12 -1.07457e+12 -1.05815e+12 -1.04936e+12 -1.07573e+12 -1.10747e+12 -1.13577e+12 -1.14331e+12 -1.0847e+12 -939936000000.0 -956682000000.0 -1.00035e+12 -863045000000.0 -728976000000.0 -589071000000.0 -424753000000.0 -1.0177e+12 -485918000000.0 -420299000000.0 -298113000000.0 -168258000000.0 -84550700000.0 -58912300000.0 -254883000000.0 -209795000000.0 -842029000000.0 -915390000000.0 -1.0039e+12 -1.11441e+12 -388510000000.0 -885297000000.0 -856523000000.0 -767658000000.0 -605338000000.0 -705230000000.0 -728301000000.0 -730682000000.0 -765655000000.0 -808639000000.0 -856283000000.0 -908028000000.0 -963823000000.0 -1.02666e+12 -1.10505e+12 -1.2101e+12 -1.36158e+12 -1.60247e+12 -986496000000.0 -1.01945e+12 -913690000000.0 -818873000000.0 -954952000000.0 -1.01146e+12 -1.03182e+12 -1.04094e+12 -1.04594e+12 -1.04892e+12 -1.0506e+12 -1.05164e+12 -1.05271e+12 -1.05394e+12 -1.05504e+12 -1.05551e+12 -1.05463e+12 -1.05188e+12 -1.04685e+12 -1.03906e+12 -1.02836e+12 -1.0152e+12 -1.00015e+12 -984205000000.0 -969743000000.0 -960936000000.0 -968055000000.0 -981350000000.0 -991529000000.0 -995431000000.0 -966312000000.0 -911636000000.0 -819773000000.0 -842144000000.0 -847808000000.0 -797622000000.0 -507250000000.0 -334057000000.0 -904936000000.0 -762414000000.0 -590077000000.0 -51470800000.0 -158939000000.0 -115982000000.0 -631273000000.0 -644679000000.0 -722588000000.0 -745204000000.0 -832174000000.0 -1.00846e+12 -652905000000.0 -767274000000.0 -728799000000.0 -633340000000.0 -541513000000.0 -593886000000.0 -635016000000.0 -642465000000.0 -649865000000.0 -678587000000.0 -716638000000.0 -760222000000.0 -808975000000.0 -862740000000.0 -927603000000.0 -1.00977e+12 -1.11597e+12 -1.25111e+12 -1.32424e+12 -55809200000.0 -678411000000.0 -843927000000.0 -894969000000.0 -914647000000.0 -924785000000.0 -931178000000.0 -935773000000.0 -939301000000.0 -942322000000.0 -945761000000.0 -949194000000.0 -952080000000.0 -953589000000.0 -952923000000.0 -949906000000.0 -944061000000.0 -935048000000.0 -923109000000.0 -909229000000.0 -894187000000.0 -879723000000.0 -868849000000.0 -865888000000.0 -867993000000.0 -869225000000.0 -863807000000.0 -860045000000.0 -801849000000.0 -728046000000.0 -736970000000.0 -724772000000.0 -645973000000.0 -759952000000.0 -650687000000.0 -807075000000.0 -648479000000.0 -484405000000.0 -413061000000.0 -320432000000.0 -257059000000.0 -163984000000.0 -47567200000.0 -86900900000.0 -102112000000.0 -168437000000.0 -514202000000.0 -586618000000.0 -586824000000.0 -315575000000.0 -594563000000.0 -593704000000.0 -518195000000.0 -419348000000.0 -507457000000.0 -1.11814e+12 -1.48313e+12 -791124000000.0 -493531000000.0 -751292000000.0 -653791000000.0 -528359000000.0 -583956000000.0 -578630000000.0 -441676000000.0 -273042000000.0 -343364000000.0 -349060000000.0 -255939000000.0 -146340000000.0 -170981000000.0 -145075000000.0 -30388400000.0 -54341300000.0 -48117200000.0 -140088000000.0 -490341000000.0 -538273000000.0 -620253000000.0 -883216000000.0 -431015000000.0 -566749000000.0 -551317000000.0 -540028000000.0 -553876000000.0 -582742000000.0 -617544000000.0 -657280000000.0 -701294000000.0 -753016000000.0 -817751000000.0 -894759000000.0 -996996000000.0 -1.26912e+12 -594463000000.0 -783824000000.0 -800051000000.0 -808570000000.0 -814679000000.0 -820274000000.0 -825811000000.0 -831023000000.0 -836805000000.0 -843032000000.0 -848847000000.0 -853624000000.0 -855889000000.0 -855223000000.0 -851594000000.0 -844832000000.0 -834274000000.0 -820907000000.0 -806013000000.0 -790821000000.0 -777327000000.0 -767997000000.0 -762226000000.0 -757619000000.0 -748667000000.0 -720032000000.0 -690717000000.0 -631989000000.0 -605206000000.0 -388074000000.0 -254685000000.0 -720342000000.0 -549791000000.0 -52638900000.0 -50504200000.0 -9035750000.0 -96254800000.0 -439138000000.0 -460122000000.0 -472111000000.0 -520149000000.0 -746637000000.0 -425627000000.0 -384694000000.0 -314491000000.0 -355042000000.0 -443209000000.0 -458837000000.0 -393949000000.0 -403240000000.0 -425891000000.0 -453887000000.0 -483649000000.0 -515537000000.0 -550824000000.0 -593096000000.0 -639408000000.0 -687172000000.0 -749846000000.0 -822401000000.0 -1.19336e+12 -1.08211e+12 -931760000000.0 -746826000000.0 -704182000000.0 -700359000000.0 -701334000000.0 -704622000000.0 -711373000000.0 -718281000000.0 -727432000000.0 -736862000000.0 -745216000000.0 -753684000000.0 -759971000000.0 -762897000000.0 -761873000000.0 -757396000000.0 -748832000000.0 -736159000000.0 -720840000000.0 -704506000000.0 -688478000000.0 -674541000000.0 -663083000000.0 -652982000000.0 -646383000000.0 -635395000000.0 -565403000000.0 -520147000000.0 -519995000000.0 -498714000000.0 -464778000000.0 -483928000000.0 -398934000000.0 -646334000000.0 -475469000000.0 -286482000000.0 -243898000000.0 -206431000000.0 -139121000000.0 -55879500000.0 -105757000000.0 -177169000000.0 -202202000000.0 -333053000000.0 -307447000000.0 -385532000000.0 -377948000000.0 -502400000000.0 -690218000000.0 -611906000000.0 -425947000000.0 -404742000000.0 -516570000000.0 -573022000000.0 -692746000000.0 -716647000000.0 -582629000000.0 -528462000000.0 -503509000000.0 -499640000000.0 -510823000000.0 -528988000000.0 -550513000000.0 -574562000000.0 -598035000000.0 -605043000000.0 -561374000000.0 -421460000000.0 -96820200000.0 -501072000000.0 -582574000000.0 -566999000000.0 -576567000000.0 -586955000000.0 -586784000000.0 -594034000000.0 -601982000000.0 -615227000000.0 -630205000000.0 -642888000000.0 -653687000000.0 -663907000000.0 -671494000000.0 -674757000000.0 -673194000000.0 -666659000000.0 -655340000000.0 -639578000000.0 -621693000000.0 -603149000000.0 -585406000000.0 -569090000000.0 -553677000000.0 -537604000000.0 -534461000000.0 -488325000000.0 -408801000000.0 -399832000000.0 -424950000000.0 -289843000000.0 -399829000000.0 -326253000000.0 -274537000000.0 -295549000000.0 -638420000000.0 -369241000000.0 -271278000000.0 -187786000000.0 -124641000000.0 -119108000000.0 -90034900000.0 -78454300000.0 -26154500000.0 -30156700000.0 -42611500000.0 -43127200000.0 -95984500000.0 -222989000000.0 -67041000000.0 -854958000000.0 -364075000000.0 -449994000000.0 -463699000000.0 -238951000000.0 -405323000000.0 -328987000000.0 -198789000000.0 -152510000000.0 -132721000000.0 -81222600000.0 -56228100000.0 -24401500000.0 -223108000000.0 -327056000000.0 -327807000000.0 -361012000000.0 -481801000000.0 -74423800000.0 -54598500000.0 -220135000000.0 -342630000000.0 -329050000000.0 -343823000000.0 -379236000000.0 -389180000000.0 -393296000000.0 -402407000000.0 -418052000000.0 -433491000000.0 -448490000000.0 -461530000000.0 -466565000000.0 -442834000000.0 -371384000000.0 -222475000000.0 -325550000000.0 -565141000000.0 -285376000000.0 -473487000000.0 -474406000000.0 -480616000000.0 -495657000000.0 -519213000000.0 -538341000000.0 -555706000000.0 -567623000000.0 -580111000000.0 -587813000000.0 -592483000000.0 -588389000000.0 -579111000000.0 -562487000000.0 -543007000000.0 -521591000000.0 -500495000000.0 -479627000000.0 -459757000000.0 -438077000000.0 -403663000000.0 -402055000000.0 -347174000000.0 -266344000000.0 -307241000000.0 -223397000000.0 -366143000000.0 -219291000000.0 -256054000000.0 -224464000000.0 -206965000000.0 -23004800000.0 -46360400000.0 -64333400000.0 -109053000000.0 -186809000000.0 -148151000000.0 -250996000000.0 -268176000000.0 -342394000000.0 -400312000000.0 -133701000000.0 -114225000000.0 -113293000000.0 -130303000000.0 -138843000000.0 -143477000000.0 -162180000000.0 -189796000000.0 -233552000000.0 -256247000000.0 -267342000000.0 -279915000000.0 -290880000000.0 -298957000000.0 -304255000000.0 -304821000000.0 -303574000000.0 -267126000000.0 -192298000000.0 -224986000000.0 -117030000000.0 -484644000000.0 -259682000000.0 -310784000000.0 -406715000000.0 -318108000000.0 -390713000000.0 -346816000000.0 -366157000000.0 -406291000000.0 -430395000000.0 -454799000000.0 -473185000000.0 -487051000000.0 -500338000000.0 -511801000000.0 -514134000000.0 -508568000000.0 -490591000000.0 -468597000000.0 -443707000000.0 -419858000000.0 -395351000000.0 -370601000000.0 -349120000000.0 -326963000000.0 -296121000000.0 -276732000000.0 -162742000000.0 -172990000000.0 -162012000000.0 -205766000000.0 -238179000000.0 -243090000000.0 -261346000000.0 -257082000000.0 -88328000000.0 -198360000000.0 -157338000000.0 -135500000000.0 -95148100000.0 -9035750000.0 -9035750000.0 -9035750000.0 -9035750000.0 -9031120000.0 -9035780000.0 -9036130000.0 -9035540000.0 -68463900000.0 -52612300000.0 -34825800000.0 -27089700000.0 -15737100000.0 -58295900000.0 -161053000000.0 -142356000000.0 -202077000000.0 -147911000000.0 -269869000000.0 -55634600000.0 -38594500000.0 -170201000000.0 -111385000000.0 -231460000000.0 -293319000000.0 -312206000000.0 -353162000000.0 -366183000000.0 -396396000000.0 -393687000000.0 -430987000000.0 -424004000000.0 -441632000000.0 -413660000000.0 -392829000000.0 -357994000000.0 -164597000000.0 -162208000000.0 -172287000000.0 -207752000000.0 -222077000000.0 -151644000000.0 -224222000000.0 -168767000000.0 -97882000000.0 -71244600000.0 -45949000000.0 -21312700000.0 -190914000000.0 -230109000000.0 -229383000000.0 -261055000000.0 -132985000000.0 -84091600000.0 -91473600000.0 -99376300000.0 -117994000000.0 -129018000000.0 -145361000000.0 -153614000000.0 -158416000000.0 -154457000000.0 -123337000000.0 -117469000000.0 -294234000000.0 -166603000000.0 -332588000000.0 -304304000000.0 -274984000000.0 -245019000000.0 -233006000000.0 -223691000000.0 -171324000000.0 -93739800000.0 -126522000000.0 -262133000000.0 -165279000000.0 -266844000000.0 -241513000000.0 -24204600000.0 -53354500000.0 -83785500000.0 -115524000000.0 -177324000000.0 -269130000000.0 -288485000000.0 -244822000000.0 -218828000000.0 -32417300000.0 -90467100000.0 -62120300000.0 -67988800000.0 -76525100000.0 -95846800000.0 -141516000000.0 -170172000000.0 -185169000000.0 -198395000000.0 -198887000000.0 -201637000000.0 -194528000000.0 -182452000000.0 -161356000000.0 -143277000000.0 -99970400000.0 -100338000000.0 -32691000000.0 -106312000000.0 -28372500000.0 -65270600000.0 -77348200000.0 -283549000000.0 -84219000000.0 -128616000000.0 -30090400000.0 -114348000000.0 -80409100000.0 -165596000000.0 -171642000000.0 -198597000000.0 -200741000000.0 -218955000000.0 -209086000000.0 -229976000000.0 -208354000000.0 -210369000000.0 -177929000000.0 -164013000000.0 -149231000000.0 -151334000000.0 -152064000000.0 -153016000000.0 -152185000000.0 -160480000000.0 -154241000000.0 -109665000000.0 -58124100000.0 -70016800000.0 -77617800000.0 -66407500000.0 -73295100000.0 -91994200000.0 -84005300000.0 -16516700000.0 -134154000000.0 -28110200000.0 -133732000000.0 -98981300000.0 -84071400000.0 -35884300000.0 -9073800000.0 -9050850000.0 -9035750000.0 -9035750000.0 -11556500000.0 -9147540000.0 -9115100000.0 -9090080000.0 -33149800000.0 -63510000000.0 -27280600000.0 -67777100000.0 -64585800000.0 -249299000000.0 -145090000000.0 -115187000000.0 -91574400000.0 -89721200000.0 -104752000000.0 -103398000000.0 -119463000000.0 -114512000000.0 -144584000000.0 -144944000000.0 -170248000000.0 -164839000000.0 -73160200000.0 -86096100000.0 -76155900000.0 -11897300000.0 -28497600000.0 -14264100000.0 -12638200000.0 -11139600000.0 -9728210000.0 -96214700000.0 -150847000000.0 -155711000000.0 -194047000000.0 -86067200000.0 -38956000000.0 -16997400000.0 -11016800000.0 -20938400000.0 -29607500000.0 -37286600000.0 -43636200000.0 -46299800000.0 -54197400000.0 -58144000000.0 -63716400000.0 -66197100000.0 -75047600000.0 -55648800000.0 -15290800000.0 -15012600000.0 -23487700000.0 -58299300000.0 -84171000000.0 -86035700000.0 -69972800000.0 -169129000000.0 -165103000000.0 -168192000000.0 -168704000000.0 -168718000000.0 -166219000000.0 -174370000000.0 -163863000000.0 -117532000000.0 -85716300000.0 -86379800000.0 -86117200000.0 -73554100000.0 -116019000000.0 -21414000000.0 -112027000000.0 -90557300000.0 -78542100000.0 -14332200000.0 -9085550000.0 -10869000000.0 -12784500000.0 -33085600000.0 -81528800000.0 -124752000000.0 -111283000000.0 -125599000000.0 -41381700000.0 -9911650000.0 -12284900000.0 -13395300000.0 -15182800000.0 -17094600000.0 -31315900000.0 -35772400000.0 -43571800000.0 -51635000000.0 -56275500000.0 -66081200000.0 -71910000000.0 -77537500000.0 -78685300000.0 -84099500000.0 -67387100000.0 -77859300000.0 -49446900000.0 -88585500000.0 -58693100000.0 -63764700000.0 -95673600000.0 -199299000000.0 -11176000000.0 -52577100000.0 -14210900000.0 -40821300000.0 -14907500000.0 -36297200000.0 -45463700000.0 -65835900000.0 -69430000000.0 -86469100000.0 -83825400000.0 -109409000000.0 -105649000000.0 -121978000000.0 -110366000000.0 -109786000000.0 -103720000000.0 -104148000000.0 -102283000000.0 -101247000000.0 -98842800000.0 -106227000000.0 -93025400000.0 -54468300000.0 -48682700000.0 -53717200000.0 -56434900000.0 -51316400000.0 -53857600000.0 -65808000000.0 -57117000000.0 -9739530000.0 -99192300000.0 -15345300000.0 -90964500000.0 -69903400000.0 -57385800000.0 -11941900000.0 -9035750000.0 -9035750000.0 -9035750000.0 -9037230000.0 -15911600000.0 -9107400000.0 -9035750000.0 -35972300000.0 -163293000000.0 -60891800000.0 -9035750000.0 -9035750000.0 -9035750000.0 -9036920000.0 -9036070000.0 -22853100000.0 -54920400000.0 -97175300000.0 -87131300000.0 -99623200000.0 -41932500000.0 -9035750000.0 -9420950000.0 -9035750000.0 -9035750000.0 -9035750000.0 -20449800000.0 -21386800000.0 -21980700000.0 -26501100000.0 -28661600000.0 -35148400000.0 -38573000000.0 -42183100000.0 -41529900000.0 -44994900000.0 -29632900000.0 -35500100000.0 -10930400000.0 -17539400000.0 -9060740000.0 -49673100000.0 -32922200000.0 -33726500000.0 -53172700000.0 -29710700000.0 -39897600000.0 -41900000000.0 -56912000000.0 -58079500000.0 -72020100000.0 -68942300000.0 -90355800000.0 -87182400000.0 -102041000000.0 -93019800000.0 -92576900000.0 -86567300000.0 -85916700000.0 -83155000000.0 -81320700000.0 -78573100000.0 -84706200000.0 -71361000000.0 -42391400000.0 -42638500000.0 -45903000000.0 -46710300000.0 -43749100000.0 -45307200000.0 -54121300000.0 -45361100000.0 -9035750000.0 -83252500000.0 -13208300000.0 -73932700000.0 -57383700000.0 -45488000000.0 -9291630000.0 -16030400000.0 -9115150000.0 -9035750000.0 -9036550000.0 -18631200000.0 -40058900000.0 -77121600000.0 -68425200000.0 -76901800000.0 -38265000000.0 -9035750000.0 -9288480000.0 -9035750000.0 -9035750000.0 -9035750000.0 -18408100000.0 -19686100000.0 -17752100000.0 -20230900000.0 -22461000000.0 -27445300000.0 -30324200000.0 -33595600000.0 -33091400000.0 -35851600000.0 -23686700000.0 -29737600000.0 -10314300000.0 -30736800000.0 -15676500000.0 -9725370000.0 -40193900000.0 -120731000000.0 -10923600000.0 -29884400000.0 -13534300000.0 -28953500000.0 -13496100000.0 -22205500000.0 -23451800000.0 -36765500000.0 -39409200000.0 -51981000000.0 -50620300000.0 -68981600000.0 -67187800000.0 -79704900000.0 -72671800000.0 -72692300000.0 -68216600000.0 -67718400000.0 -64845900000.0 -62895000000.0 -60217700000.0 -65041000000.0 -53150400000.0 -34588200000.0 -35619800000.0 -37662600000.0 -37332800000.0 -35971900000.0 -36964700000.0 -43154000000.0 -35255800000.0 -9035750000.0 -66659500000.0 -11291600000.0 -58008700000.0 -45470900000.0 -35017100000.0 -9045360000.0 -9035750000.0 -9035750000.0 -9035750000.0 -9036630000.0 -14896900000.0 -9106830000.0 -9035750000.0 -9036980000.0 -15113500000.0 -28553100000.0 -57216600000.0 -50615600000.0 -55881500000.0 -31781300000.0 -9035750000.0 -9213660000.0 -9035750000.0 -9035750000.0 -9035750000.0 -15824600000.0 -17219700000.0 -15101100000.0 -15682600000.0 -17263100000.0 -21013000000.0 -23228500000.0 -25765900000.0 -25397800000.0 -27483000000.0 -18800300000.0 -24265100000.0 -9938380000.0 -24928000000.0 -13560200000.0 -9035750000.0 -31309300000.0 -91194000000.0 -11265300000.0 -23109100000.0 -12286300000.0 -23426200000.0 -12266300000.0 -18698800000.0 -18321300000.0 -27260900000.0 -29535900000.0 -38688400000.0 -37710600000.0 -51200800000.0 -49901700000.0 -59116600000.0 -53953700000.0 -53982200000.0 -50617500000.0 -50106000000.0 -47693000000.0 -46030300000.0 -43817600000.0 -47226500000.0 -38099900000.0 -27356900000.0 -28155800000.0 -29283400000.0 -28554700000.0 -28132100000.0 -28728300000.0 -32752900000.0 -26528200000.0 -9035750000.0 -50163800000.0 -10149100000.0 -43083200000.0 -34363400000.0 -26164700000.0 -9035960000.0 -9035750000.0 -9035750000.0 -9035750000.0 -9036360000.0 -12854000000.0 -9084020000.0 -9035750000.0 -9036990000.0 -12285600000.0 -19624700000.0 -37484900000.0 -33426600000.0 -36269700000.0 -23291400000.0 -9035750000.0 -9144250000.0 -9035750000.0 -9035750000.0 -9035750000.0 -13076000000.0 -14114700000.0 -12740700000.0 -12542100000.0 -13245400000.0 -15623100000.0 -17080000000.0 -18685100000.0 -18445900000.0 -19703700000.0 -14535900000.0 -18250500000.0 -9566980000.0 -18678500000.0 -11688600000.0 -9035750000.0 -22436200000.0 -58049800000.0 -9952580000.0 -17069700000.0 -10978800000.0 -17661200000.0 -10968900000.0 -14897400000.0 -14307200000.0 -19132300000.0 -20766000000.0 -26228200000.0 -25658700000.0 -33817400000.0 -33037900000.0 -38629300000.0 -35505700000.0 -35528800000.0 -33454800000.0 -33092300000.0 -31521000000.0 -30433300000.0 -29010000000.0 -30994300000.0 -25405300000.0 -19960800000.0 -20435700000.0 -20961800000.0 -20358500000.0 -20325200000.0 -20635100000.0 -22868400000.0 -18934800000.0 -9035750000.0 -33478100000.0 -9485160000.0 -28907000000.0 -23816900000.0 -18648700000.0 -9035770000.0 -9035750000.0 -9035750000.0 -9035750000.0 -9036110000.0 -10269300000.0 -9051420000.0 -9035750000.0 -9036230000.0 -9999450000.0 -12231200000.0 -17907300000.0 -16627200000.0 -17483700000.0 -13580100000.0 -9035750000.0 -9070100000.0 -9035750000.0 -9035750000.0 -9035750000.0 -10299000000.0 -10649400000.0 -10213300000.0 -10076500000.0 -10241200000.0 -11017000000.0 -11511300000.0 -12033100000.0 -11951700000.0 -12338500000.0 -10705800000.0 -11930800000.0 -9201040000.0 -12078000000.0 -9862200000.0 -9035750000.0 -13243400000.0 -24445000000.0 -9323120000.0 -11498300000.0 -9644340000.0 -11741800000.0 -9641730000.0 -10882800000.0 -10660400000.0 -12081000000.0 -12659800000.0 -14360100000.0 -14185400000.0 -16752100000.0 -16508800000.0 -18271500000.0 -17288700000.0 -17296900000.0 -16638200000.0 -16517000000.0 -16008300000.0 -15655400000.0 -15199700000.0 -15813100000.0 -14057300000.0 -12453400000.0 -12604600000.0 -12749700000.0 -12543700000.0 -12559600000.0 -12650500000.0 -13329700000.0 -12074200000.0 -9035750000.0 -16677000000.0 -9145990000.0 -15205700000.0 -13624800000.0 -11973500000.0 -9035760000.0 -9035750000.0 -9035750000.0 -9035750000.0 -9035860000.0 
SCALARS Shear_Stress float 1
LOOKUP_TABLE default
50540500000.0 27947000000.0 24140900000.0 13331200000.0 6235200000.0 46958100000.0 17818900000.0 56154700000.0 48730900000.0 42067900000.0 54370400000.0 18923200000.0 54287300000.0 1289630000.0 53221200000.0 22204100000.0 35370900000.0 58188800000.0 29122300000.0 18697000000.0 6972670000.0 42228700000.0 34279600000.0 82971900000.0 18820100000.0 61873100000.0 39976700000.0 52306400000.0 842523000.0 79164200000.0 90418000000.0 65833500000.0 118511000000.0 70170300000.0 61933500000.0 1817290000.0 78458500000.0 46973900000.0 48064500000.0 14904500000.0 43745200000.0 19087000000.0 22505400000.0 104303000000.0 72044300000.0 79618900000.0 71029500000.0 103001000000.0 102781000000.0 106822000000.0 199367000.0 95443200000.0 81364800000.0 123132000000.0 151833000000.0 79647900000.0 208610000000.0 85105200000.0 73719900000.0 10991200000.0 5803960000.0 28105600000.0 31482600000.0 2462470000.0 51185400000.0 89521300000.0 16102800000.0 66608500000.0 136658000000.0 127253000000.0 545340000.0 124340000000.0 94189800000.0 95304700000.0 192375000000.0 242736000000.0 159901000000.0 21680400000.0 91901400000.0 47953800000.0 17177100000.0 88210000000.0 8674400000.0 77756700000.0 174157000000.0 156859000000.0 134971000000.0 32260100000.0 58410200000.0 202780000000.0 247165000000.0 50221700000.0 152395000000.0 115630000000.0 66424400000.0 15088500000.0 129434000000.0 303339000000.0 214325000000.0 233933000000.0 214215000000.0 242447000000.0 199968000000.0 200132000000.0 164329000000.0 162895000000.0 1820170000.0 119888000000.0 52297500000.0 19206800000.0 135023000000.0 16362200000.0 132882000000.0 143811000000.0 247803000000.0 299844000000.0 198476000000.0 190993000000.0 118884000000.0 122191000000.0 89028600000.0 167153000000.0 433948000000.0 236415000000.0 262898000000.0 238088000000.0 191345000000.0 11075600000.0 100140000000.0 137590000000.0 125360000000.0 358312000000.0 234339000000.0 444250000000.0 330871000000.0 405335000000.0 287581000000.0 163485000000.0 150907000000.0 317904000000.0 325343000000.0 247064000000.0 262386000000.0 221458000000.0 178139000000.0 143144000000.0 308209000000.0 586595000000.0 496648000000.0 493916000000.0 397089000000.0 234160000000.0 143044000000.0 205699000000.0 158058000000.0 183366000000.0 248082000000.0 242652000000.0 260058000000.0 253244000000.0 245411000000.0 218888000000.0 199475000000.0 175091000000.0 31959900000.0 90339200000.0 256375000000.0 572906000000.0 349021000000.0 531478000000.0 496888000000.0 450159000000.0 336444000000.0 234489000000.0 166135000000.0 109301000000.0 139659000000.0 113800000000.0 158399000000.0 108268000000.0 197234000000.0 243866000000.0 230371000000.0 186958000000.0 66498200000.0 115295000000.0 202966000000.0 296303000000.0 489398000000.0 214612000000.0 187985000000.0 194042000000.0 422029000000.0 497015000000.0 547394000000.0 536752000000.0 350465000000.0 120864000000.0 67321300000.0 84999800000.0 140855000000.0 213846000000.0 229691000000.0 196455000000.0 153132000000.0 182501000000.0 217575000000.0 62181900000.0 334064000000.0 547742000000.0 477758000000.0 195678000000.0 36010300000.0 45002600000.0 83599500000.0 122572000000.0 172100000000.0 185528000000.0 213750000000.0 191966000000.0 199584000000.0 158776000000.0 156394000000.0 115212000000.0 114069000000.0 190580000000.0 134137000000.0 39930700000.0 117307000000.0 459505000000.0 560057000000.0 348858000000.0 132531000000.0 40678600000.0 34502800000.0 2031310000.0 7048890000.0 43531100000.0 59451200000.0 148140000000.0 171779000000.0 155133000000.0 112771000000.0 171861000000.0 307048000000.0 61820300000.0 28669700000.0 16785200000.0 112848000000.0 38273600000.0 26101400000.0 296530000000.0 433919000000.0 546517000000.0 595094000000.0 512047000000.0 368782000000.0 45601300000.0 20079200000.0 16242200000.0 95499300000.0 138882000000.0 138823000000.0 111535000000.0 66951200000.0 71371300000.0 145124000000.0 178364000000.0 275038000000.0 523234000000.0 592433000000.0 67672100000.0 47337300000.0 70509100000.0 16015700000.0 23871600000.0 2915380000.0 12385700000.0 90537500000.0 35867500000.0 102491000000.0 70925200000.0 102173000000.0 65671000000.0 63996500000.0 16522800000.0 235383000000.0 423043000000.0 181294000000.0 165944000000.0 273547000000.0 258402000000.0 144690000000.0 344327000000.0 617036000000.0 481778000000.0 53206600000.0 92520800000.0 91378400000.0 114670000000.0 176700000000.0 83918000000.0 652556000.0 53519600000.0 22513800000.0 299048000000.0 517117000000.0 266642000000.0 381657000000.0 335928000000.0 355288000000.0 257178000000.0 185918000000.0 344363000000.0 299675000000.0 734668000000.0 836844000000.0 82742800000.0 226650000000.0 54787800000.0 383094000000.0 131542000000.0 3246800000.0 40702200000.0 25745600000.0 251014000000.0 367584000000.0 476136000000.0 269924000000.0 69900300000.0 73055000000.0 654148000000.0 235853000000.0 217717000000.0 215158000000.0 203512000000.0 38369000000.0 9449580000.0 467990000000.0 441695000000.0 110748000000.0 29535500000.0 35290900000.0 67408500000.0 5636270000.0 49468600000.0 357228000000.0 577404000000.0 265828000000.0 323620000000.0 428129000000.0 486381000000.0 631041000000.0 548239000000.0 24537000000.0 144050000000.0 10441800000.0 887721000000.0 2282600000.0 178056000000.0 203328000000.0 308386000000.0 118991000000.0 309683000000.0 85474700000.0 33068000000.0 405365000000.0 605957000000.0 309248000000.0 592517000000.0 755613000000.0 290141000000.0 192922000000.0 235325000000.0 161377000000.0 73303600000.0 143277000000.0 534641000000.0 66315900000.0 306458000000.0 315749000000.0 242791000000.0 252279000000.0 426101000000.0 92425000000.0 186228000000.0 46740200000.0 436149000000.0 623344000000.0 235827000000.0 244082000000.0 377206000000.0 467624000000.0 866169000000.0 92763000000.0 101230000000.0 202021000000.0 352612000000.0 144192000000.0 138233000000.0 326664000000.0 395797000000.0 394287000000.0 181799000000.0 630819000000.0 161718000000.0 402071000000.0 119439000000.0 2341840000.0 197934000000.0 265121000000.0 535781000000.0 1.17733e+12 8262030000.0 203302000000.0 123304000000.0 375950000000.0 37164500000.0 85446800000.0 170594000000.0 439820000000.0 129421000000.0 222497000000.0 376468000000.0 833105000000.0 987287000000.0 294008000000.0 436451000000.0 661543000000.0 193944000000.0 276076000000.0 369805000000.0 225127000000.0 146657000000.0 65084900000.0 72765700000.0 428845000000.0 132723000000.0 122463000000.0 346046000000.0 392991000000.0 524215000000.0 488050000000.0 121154000000.0 47181000000.0 12505400000.0 590140000000.0 1.06107e+12 536478000000.0 101818000000.0 411641000000.0 748996000000.0 192365000000.0 223686000000.0 223122000000.0 308174000000.0 213323000000.0 363705000000.0 812896000000.0 684003000000.0 166916000000.0 282472000000.0 252178000000.0 318227000000.0 530126000000.0 735026000000.0 261152000000.0 230296000000.0 783216000000.0 983616000000.0 185347000000.0 242813000000.0 350178000000.0 467912000000.0 114591000000.0 431598000000.0 364383000000.0 252622000000.0 332848000000.0 394219000000.0 367575000000.0 331046000000.0 518689000000.0 637197000000.0 456655000000.0 259910000000.0 36158400000.0 232606000000.0 471222000000.0 627983000000.0 201621000000.0 342940000000.0 910458000000.0 306423000000.0 410785000000.0 876955000000.0 675539000000.0 544174000000.0 375283000000.0 55609600000.0 368803000000.0 424695000000.0 352198000000.0 384415000000.0 466734000000.0 484761000000.0 649272000000.0 708643000000.0 819050000000.0 1.13467e+12 604804000000.0 96437000000.0 421215000000.0 907576000000.0 141655000000.0 223353000000.0 192059000000.0 1.27394e+12 829923000000.0 742321000000.0 228387000000.0 365519000000.0 428630000000.0 355291000000.0 439853000000.0 667513000000.0 723467000000.0 1.46283e+12 406925000000.0 17911000000.0 96998700000.0 243525000000.0 345000000000.0 385689000000.0 563450000000.0 1.60347e+12 427110000000.0 632255000000.0 758195000000.0 446023000000.0 397590000000.0 9396840000.0 202836000000.0 514647000000.0 501594000000.0 491231000000.0 383797000000.0 358205000000.0 403947000000.0 576905000000.0 627291000000.0 842229000000.0 587210000000.0 180584000000.0 151049000000.0 366413000000.0 288733000000.0 253068000000.0 377724000000.0 179167000000.0 677461000000.0 446513000000.0 461303000000.0 193344000000.0 434272000000.0 620821000000.0 374359000000.0 470025000000.0 991369000000.0 985553000000.0 692886000000.0 632119000000.0 1.08468e+12 436258000000.0 2525640000.0 46256200000.0 616291000000.0 70353800000.0 214059000000.0 672285000000.0 375599000000.0 221433000000.0 193070000000.0 704353000000.0 488459000000.0 336636000000.0 849669000000.0 551336000000.0 1.01691e+12 992903000000.0 926911000000.0 133716000000.0 192981000000.0 87542000000.0 99744600000.0 1.05068e+12 846048000000.0 775169000000.0 1.12758e+12 456715000000.0 292780000000.0 510571000000.0 891116000000.0 540132000000.0 28369800000.0 103830000000.0 56059000000.0 378220000000.0 704655000000.0 777691000000.0 612712000000.0 114640000000.0 214099000000.0 177549000000.0 556279000000.0 53520800000.0 248063000000.0 957640000000.0 922975000000.0 478279000000.0 177394000000.0 671780000000.0 553143000000.0 679392000000.0 1.2935e+12 595294000000.0 44698400000.0 812312000000.0 948753000000.0 417966000000.0 499840000000.0 144246000000.0 1.20164e+12 213798000000.0 194775000000.0 247913000000.0 649311000000.0 816708000000.0 968121000000.0 947721000000.0 848306000000.0 503312000000.0 472331000000.0 662079000000.0 739520000000.0 441878000000.0 562728000000.0 1.89052e+12 160300000000.0 244992000000.0 301500000000.0 595666000000.0 208253000000.0 289915000000.0 322878000000.0 426765000000.0 575306000000.0 485379000000.0 481724000000.0 375072000000.0 1.07857e+12 72420100000.0 239309000000.0 161999000000.0 265518000000.0 371252000000.0 172665000000.0 530131000000.0 923037000000.0 969161000000.0 912714000000.0 864603000000.0 677146000000.0 620688000000.0 647897000000.0 506281000000.0 419401000000.0 222657000000.0 750849000000.0 432339000000.0 396649000000.0 284754000000.0 118119000000.0 282493000000.0 937004000000.0 301678000000.0 1.07944e+12 790304000000.0 680421000000.0 570336000000.0 138299000000.0 74498600000.0 790999000000.0 362544000000.0 121705000000.0 677327000000.0 531528000000.0 864236000000.0 870062000000.0 1.00409e+12 940598000000.0 786143000000.0 672817000000.0 672700000000.0 565928000000.0 471481000000.0 776826000000.0 1.67322e+12 64237800000.0 515080000000.0 408205000000.0 416473000000.0 150085000000.0 222627000000.0 443847000000.0 76309100000.0 722035000000.0 6524980000.0 589477000000.0 712977000000.0 231840000000.0 171253000000.0 1.23936e+12 345267000000.0 637190000000.0 925409000000.0 1.02513e+12 1.01257e+12 1.04064e+12 997673000000.0 898002000000.0 765651000000.0 703934000000.0 712421000000.0 659668000000.0 675714000000.0 1.01252e+12 310341000000.0 518476000000.0 535621000000.0 589544000000.0 11510900000.0 513174000000.0 226337000000.0 442010000000.0 536159000000.0 189801000000.0 218678000000.0 195543000000.0 265198000000.0 594887000000.0 514382000000.0 533579000000.0 517735000000.0 435698000000.0 1.07413e+12 1.34267e+12 997744000000.0 569808000000.0 486345000000.0 541861000000.0 785867000000.0 918677000000.0 1.057e+12 1.07515e+12 1.01762e+12 964427000000.0 919721000000.0 845883000000.0 760721000000.0 718509000000.0 678240000000.0 679346000000.0 720060000000.0 375792000000.0 4463610000.0 325768000000.0 428310000000.0 569141000000.0 808620000000.0 858235000000.0 274017000000.0 260036000000.0 352963000000.0 405495000000.0 522301000000.0 258970000000.0 420182000000.0 283981000000.0 108205000000.0 59565600000.0 306845000000.0 380149000000.0 843187000000.0 1.21841e+12 721686000000.0 670832000000.0 980109000000.0 1.05523e+12 1.11696e+12 1.10787e+12 1.06425e+12 975086000000.0 871148000000.0 814435000000.0 792649000000.0 756787000000.0 696902000000.0 521726000000.0 580845000000.0 165356000000.0 1425990000.0 160574000000.0 414276000000.0 1.09181e+12 330777000000.0 364902000000.0 32382600000.0 397691000000.0 326204000000.0 235222000000.0 525442000000.0 761259000000.0 463868000000.0 250210000000.0 803445000000.0 825320000000.0 66463500000.0 1167650000.0 161232000000.0 668582000000.0 1.11597e+12 1.04055e+12 698654000000.0 863818000000.0 1.0775e+12 1.12758e+12 1.10491e+12 1.07101e+12 1.02492e+12 924068000000.0 829501000000.0 762513000000.0 733514000000.0 652831000000.0 584704000000.0 218742000000.0 136906000000.0 345034000000.0 302267000000.0 495029000000.0 714763000000.0 312654000000.0 323101000000.0 6381430000.0 17352100000.0 430999000000.0 98436800000.0 237400000000.0 405748000000.0 619849000000.0 190524000000.0 661065000000.0 653060000000.0 557471000000.0 318063000000.0 482893000000.0 769890000000.0 940986000000.0 1.08648e+12 1.1573e+12 1.07609e+12 896977000000.0 870474000000.0 811656000000.0 929355000000.0 999168000000.0 1.06853e+12 1.11551e+12 1.10545e+12 1.02035e+12 972337000000.0 911781000000.0 869020000000.0 786126000000.0 699865000000.0 507337000000.0 366862000000.0 82352500000.0 251120000000.0 734459000000.0 14186800000.0 522370000000.0 121134000000.0 521000000000.0 850854000000.0 251970000000.0 396476000000.0 256443000000.0 316948000000.0 20676700000.0 354567000000.0 416437000000.0 36275600000.0 87209400000.0 46970500000.0 438949000000.0 660342000000.0 798508000000.0 246792000000.0 577830000000.0 1.05024e+12 35840600000.0 608802000000.0 959144000000.0 1.11166e+12 995231000000.0 914825000000.0 1.01008e+12 1.09476e+12 1.11516e+12 1.09031e+12 1.06335e+12 958722000000.0 843105000000.0 810995000000.0 743670000000.0 726217000000.0 639445000000.0 594370000000.0 322561000000.0 227559000000.0 547897000000.0 930117000000.0 894701000000.0 402559000000.0 302310000000.0 63193000000.0 184429000000.0 283794000000.0 274839000000.0 8317370000.0 185706000000.0 30508900000.0 236346000000.0 124001000000.0 57876100000.0 148346000000.0 117679000000.0 1.00665e+12 854759000000.0 449473000000.0 1.27046e+12 475971000000.0 150211000000.0 399942000000.0 605026000000.0 809005000000.0 943817000000.0 1.04458e+12 1.07764e+12 958344000000.0 967521000000.0 1.05348e+12 1.09255e+12 1.04853e+12 1.00764e+12 886425000000.0 764401000000.0 659953000000.0 531591000000.0 460702000000.0 320957000000.0 147234000000.0 108855000000.0 199219000000.0 1.07979e+12 416286000000.0 177625000000.0 547620000000.0 36563400000.0 242399000.0 76986000000.0 158046000000.0 342649000000.0 11496800000.0 22111200000.0 178012000000.0 194609000000.0 130245000000.0 212912000000.0 7848290000.0 350540000000.0 71040100000.0 194440000000.0 216877000000.0 1.04543e+12 229366000000.0 450843000000.0 259549000000.0 318055000000.0 776431000000.0 990959000000.0 1.06424e+12 1.05347e+12 1.01845e+12 963149000000.0 954985000000.0 966133000000.0 1.00753e+12 1.03352e+12 1.07101e+12 1.07028e+12 992715000000.0 939466000000.0 856412000000.0 800600000000.0 699959000000.0 673191000000.0 562339000000.0 416442000000.0 212757000000.0 554601000000.0 19374100000.0 306504000000.0 1.43833e+12 157725000000.0 345165000000.0 465760000000.0 701788000000.0 392237000000.0 195531000000.0 327043000000.0 375729000000.0 318013000000.0 71788400000.0 118447000000.0 143991000000.0 299156000000.0 102590000000.0 464473000000.0 102234000000.0 321464000000.0 472546000000.0 477030000000.0 346037000000.0 40321900000.0 592105000000.0 177578000000.0 115603000000.0 54773500000.0 498641000000.0 916515000000.0 1.00565e+12 979747000000.0 928263000000.0 985291000000.0 1.04597e+12 1.06863e+12 1.0487e+12 1.03186e+12 979226000000.0 922792000000.0 836619000000.0 755576000000.0 582669000000.0 568639000000.0 457733000000.0 459195000000.0 359544000000.0 276785000000.0 68399200000.0 246196000000.0 199248000000.0 92562100000.0 615388000000.0 256130000000.0 918719000000.0 209849000000.0 71216100000.0 92777000000.0 28468400000.0 88251000000.0 333777000000.0 445282000000.0 377931000000.0 295648000000.0 232991000000.0 161864000000.0 101469000000.0 337672000000.0 388710000000.0 234155000000.0 131218000000.0 37268800000.0 578749000000.0 587720000000.0 700151000000.0 1.09817e+12 1.72649e+12 1.79255e+12 935158000000.0 559912000000.0 327679000000.0 368975000000.0 730254000000.0 923607000000.0 910279000000.0 949328000000.0 1.02596e+12 889515000000.0 924114000000.0 1.00541e+12 1.04228e+12 1.01356e+12 912708000000.0 733786000000.0 634034000000.0 447312000000.0 342440000000.0 199607000000.0 256555000000.0 448931000000.0 418877000000.0 45178000000.0 108621000000.0 84167500000.0 989350000000.0 548305000000.0 264331000000.0 441749000000.0 361782000000.0 299393000000.0 154167000000.0 279719000000.0 144786000000.0 245725000000.0 341228000000.0 422637000000.0 569827000000.0 439403000000.0 433489000000.0 434862000000.0 469765000000.0 1.0855e+12 604791000000.0 745617000000.0 804063000000.0 386823000000.0 365699000000.0 367576000000.0 277816000000.0 291550000000.0 55887200000.0 150290000000.0 702939000000.0 815827000000.0 1.04131e+12 870809000000.0 722725000000.0 839954000000.0 856752000000.0 945533000000.0 965756000000.0 1.01447e+12 1.02241e+12 965528000000.0 833140000000.0 611054000000.0 466856000000.0 484279000000.0 288406000000.0 295286000000.0 126944000000.0 280694000000.0 104018000000.0 833133000000.0 650194000000.0 1.26412e+12 1.17826e+12 309677000000.0 418925000000.0 7537570000.0 545729000000.0 166785000000.0 776467000000.0 78110600000.0 202939000000.0 363110000000.0 424892000000.0 279175000000.0 240015000000.0 205453000000.0 105916000000.0 54355400000.0 421477000000.0 566967000000.0 153035000000.0 155606000000.0 246720000000.0 246392000000.0 225202000000.0 881045000000.0 954307000000.0 457757000000.0 58892300000.0 318918000000.0 230116000000.0 688031000000.0 1.05448e+12 1.41374e+12 1.65194e+12 1.14025e+12 664699000000.0 286472000000.0 418610000000.0 1.13717e+12 980450000000.0 597096000000.0 718750000000.0 894158000000.0 965388000000.0 1.00646e+12 986570000000.0 989874000000.0 945673000000.0 905918000000.0 837524000000.0 741605000000.0 639989000000.0 279419000000.0 1966710000.0 140680000000.0 177546000000.0 396546000000.0 1.05113e+12 177242000000.0 643233000000.0 480044000000.0 277199000000.0 169746000000.0 33953700000.0 594288000000.0 490538000000.0 211310000000.0 399866000000.0 54226700000.0 85894600000.0 52374400000.0 52484900000.0 188630000000.0 135190000000.0 261346000000.0 295009000000.0 238891000000.0 208621000000.0 205375000000.0 210679000000.0 528917000000.0 1.07308e+12 311183000000.0 16942200000.0 361066000000.0 6035330000.0 333507000000.0 638186000000.0 883477000000.0 169930000000.0 93324300000.0 274733000000.0 57193600000.0 544605000000.0 921314000000.0 713355000000.0 1.04335e+12 49240600000.0 487306000000.0 662757000000.0 795349000000.0 897067000000.0 955267000000.0 956211000000.0 891639000000.0 762671000000.0 542808000000.0 28411000000.0 455971000000.0 910571000000.0 127758000000.0 399339000000.0 835804000000.0 446657000000.0 59227500000.0 418903000000.0 521107000000.0 791151000000.0 367461000000.0 83708400000.0 11298200000.0 19844400000.0 6866150000.0 53292500000.0 14309100000.0 241901000000.0 780749000000.0 531623000000.0 174000000000.0 92991200000.0 303471000000.0 275850000000.0 327004000000.0 308279000000.0 316845000000.0 407246000000.0 647577000000.0 132252000000.0 82685700000.0 96432300000.0 82840500000.0 176128000000.0 496820000000.0 936560000000.0 1.66147e+12 312810000000.0 239065000000.0 365377000000.0 280304000000.0 35890200000.0 321901000000.0 891580000000.0 472015000000.0 659542000000.0 798347000000.0 792594000000.0 892085000000.0 885264000000.0 937459000000.0 913704000000.0 827875000000.0 694448000000.0 688910000000.0 400645000000.0 214808000000.0 236263000000.0 296048000000.0 954049000000.0 1.05244e+12 620367000000.0 273666000000.0 201683000000.0 232497000000.0 183395000000.0 257854000000.0 178024000000.0 1.10295e+12 32555100000.0 413101000000.0 655187000000.0 30656800000.0 66612300000.0 98259600000.0 249105000000.0 808104000000.0 249293000000.0 330492000000.0 53252600000.0 60231200000.0 383362000000.0 344365000000.0 409598000000.0 385449000000.0 452316000000.0 505078000000.0 473909000000.0 795490000000.0 640819000000.0 136789000000.0 7619190000.0 27660200000.0 132745000000.0 209269000000.0 151072000000.0 362242000000.0 545040000000.0 823704000000.0 372053000000.0 391903000000.0 248176000000.0 120503000000.0 413310000000.0 151147000000.0 448692000000.0 653112000000.0 791853000000.0 873226000000.0 910581000000.0 867615000000.0 857903000000.0 781927000000.0 757287000000.0 700927000000.0 616991000000.0 16127800000.0 545137000000.0 688838000000.0 154094000000.0 322208000000.0 10096300000.0 78037400000.0 46207200000.0 164761000000.0 444482000000.0 1.00985e+12 423932000000.0 818460000000.0 898102000000.0 740348000000.0 209723000000.0 78774400000.0 147972000000.0 51269200000.0 34609200000.0 1.07547e+12 716614000000.0 21349200000.0 425091000000.0 378236000000.0 81070100000.0 436432000000.0 512226000000.0 377982000000.0 408026000000.0 513538000000.0 635762000000.0 686112000000.0 721359000000.0 618308000000.0 159819000000.0 47194100000.0 23297200000.0 153640000000.0 333277000000.0 461216000000.0 947041000000.0 392027000000.0 359135000000.0 611342000000.0 454092000000.0 461506000000.0 474809000000.0 392970000000.0 683487000000.0 168700000000.0 18400900000.0 128401000000.0 450990000000.0 653455000000.0 793901000000.0 853915000000.0 803714000000.0 675215000000.0 842140000000.0 465887000000.0 111768000000.0 881836000000.0 1.50017e+12 921012000000.0 573962000000.0 26194900000.0 87198900000.0 26398000000.0 128883000000.0 226248000000.0 498799000000.0 874183000000.0 381465000000.0 1.05241e+12 182200000000.0 221387000000.0 220711000000.0 111398000000.0 94474600000.0 244272000000.0 175447000000.0 985973000000.0 539091000000.0 62681400000.0 101619000000.0 37338500000.0 326691000000.0 142305000000.0 371363000000.0 433560000000.0 581022000000.0 425041000000.0 442756000000.0 498259000000.0 655771000000.0 812681000000.0 613897000000.0 643348000000.0 418350000000.0 139094000000.0 902126000000.0 941460000000.0 728448000000.0 619672000000.0 707777000000.0 564455000000.0 162532000000.0 531674000000.0 756006000000.0 196262000000.0 231780000000.0 474654000000.0 488472000000.0 665036000000.0 678830000000.0 789118000000.0 779538000000.0 812480000000.0 697011000000.0 486719000000.0 542659000000.0 987861000000.0 774063000000.0 436530000000.0 263176000000.0 236390000000.0 737473000000.0 319830000000.0 65094500000.0 50312000000.0 12235700000.0 54454300000.0 139442000000.0 214941000000.0 389214000000.0 1.05252e+12 244962000000.0 69258300000.0 97774100000.0 94078800000.0 90009600000.0 432483000000.0 312848000000.0 121890000000.0 412445000000.0 334108000000.0 120282000000.0 120250000000.0 259177000000.0 85344100000.0 400679000000.0 237451000000.0 263711000000.0 553253000000.0 727076000000.0 657681000000.0 391291000000.0 568957000000.0 798144000000.0 529083000000.0 665690000000.0 134889000000.0 21752300000.0 400185000000.0 831763000000.0 853065000000.0 725631000000.0 712538000000.0 1.02043e+12 919383000000.0 872581000000.0 804296000000.0 777472000000.0 449609000000.0 828548000000.0 430015000000.0 160425000000.0 368724000000.0 102297000000.0 30296300000.0 300610000000.0 524040000000.0 665710000000.0 742080000000.0 757442000000.0 649021000000.0 39737500000.0 703976000000.0 103802000000.0 90906700000.0 415133000000.0 522463000000.0 166602000000.0 42886400000.0 50690100000.0 6289540000.0 27755500000.0 40082900000.0 13718400000.0 80234000000.0 558894000000.0 186217000000.0 399270000000.0 195115000000.0 40507900000.0 45490100000.0 762967000000.0 453873000000.0 84209100000.0 681064000000.0 431220000000.0 262879000000.0 288199000000.0 182874000000.0 536566000000.0 36032700000.0 583340000000.0 91867700000.0 453722000000.0 650724000000.0 835780000000.0 410417000000.0 615497000000.0 937573000000.0 1.02228e+12 276193000000.0 566846000000.0 731213000000.0 484391000000.0 169363000000.0 697901000000.0 1.07131e+12 685724000000.0 178600000000.0 751052000000.0 934665000000.0 975748000000.0 1.0729e+12 1.23097e+12 1.47811e+12 1.33166e+12 105144000000.0 311479000000.0 824931000000.0 140182000000.0 88071800000.0 272688000000.0 337925000000.0 536317000000.0 659202000000.0 743719000000.0 354711000000.0 1.13375e+12 87741000000.0 228765000000.0 535090000000.0 5631270000.0 126846000000.0 102182000000.0 78854900000.0 65915900000.0 8559490000.0 123950000000.0 264802000000.0 322971000000.0 62837700000.0 467866000000.0 173732000000.0 755213000000.0 325918000000.0 140184000000.0 266239000000.0 282202000000.0 164352000000.0 355975000000.0 235388000000.0 674320000000.0 85342300000.0 73600700000.0 39624700000.0 827835000000.0 167821000000.0 52557000000.0 288508000000.0 460100000000.0 635542000000.0 881308000000.0 1.15447e+12 154559000000.0 302437000000.0 546186000000.0 1.35177e+12 646553000000.0 1.32837e+12 899395000000.0 568517000000.0 86879600000.0 168817000000.0 628113000000.0 873441000000.0 1.0046e+12 1.0452e+12 439763000000.0 19781700000.0 122515000000.0 96044500000.0 105523000000.0 505324000000.0 902341000000.0 327828000000.0 114663000000.0 357766000000.0 395393000000.0 496442000000.0 501439000000.0 554938000000.0 540502000000.0 768569000000.0 691898000000.0 639697000000.0 36838800000.0 486261000000.0 607266000000.0 569616000000.0 279350000000.0 177850000000.0 3813810000.0 88196800000.0 87654500000.0 59926900000.0 785928000000.0 609383000000.0 205703000000.0 1.40957e+12 94705000000.0 221355000000.0 321589000000.0 48672900000.0 541157000000.0 579188000000.0 357061000000.0 850866000000.0 665448000000.0 415163000.0 110780000000.0 117661000000.0 864384000000.0 534869000000.0 214820000000.0 316180000000.0 883485000000.0 1.38707e+12 303344000000.0 238932000000.0 772152000000.0 1.31874e+12 358390000000.0 245236000000.0 870716000000.0 875108000000.0 475602000000.0 461674000000.0 315735000000.0 515382000000.0 744772000000.0 886792000000.0 909600000000.0 784483000000.0 322830000000.0 267204000000.0 224742000000.0 69237100000.0 157578000000.0 331655000000.0 296992000000.0 507101000000.0 177328000000.0 162432000000.0 172084000000.0 306782000000.0 166075000000.0 492874000000.0 488401000000.0 704804000000.0 490356000000.0 697239000000.0 620059000000.0 528736000000.0 442914000000.0 526057000000.0 7041920000.0 317496000000.0 780545000000.0 1.30395e+12 1.83306e+12 1.72448e+12 1.22346e+12 702379000000.0 345044000000.0 1.04912e+12 465613000000.0 299275000000.0 261078000000.0 306953000000.0 218331000000.0 992131000000.0 265051000000.0 1.23673e+12 935327000000.0 722353000000.0 539274000000.0 131538000000.0 133580000000.0 378861000000.0 1.25805e+12 505952000000.0 155165000000.0 39848000000.0 138948000000.0 385510000000.0 480081000000.0 931059000000.0 557199000000.0 330542000000.0 375908000000.0 644653000000.0 710267000000.0 412029000000.0 248554000000.0 229410000000.0 345843000000.0 244741000000.0 524026000000.0 725653000000.0 794625000000.0 735370000000.0 544777000000.0 350044000000.0 209056000000.0 20328300000.0 398280000000.0 926088000000.0 8364200000.0 65521800000.0 135300000000.0 282281000000.0 334714000000.0 465000000000.0 34873000000.0 86368200000.0 497077000000.0 458204000000.0 329695000000.0 525680000000.0 366557000000.0 437823000000.0 667274000000.0 185787000000.0 180719000000.0 98698100000.0 118925000000.0 469830000000.0 593933000000.0 386342000000.0 8543800000.0 390037000000.0 609472000000.0 503559000000.0 623610000000.0 535672000000.0 309841000000.0 212692000000.0 406605000000.0 308815000000.0 206651000000.0 1.39967e+12 685146000000.0 1.41685e+12 957059000000.0 461662000000.0 386909000000.0 233753000000.0 370828000000.0 117050000000.0 386154000000.0 578851000000.0 755497000000.0 1.52167e+12 142077000000.0 35418500000.0 226176000000.0 354497000000.0 658263000000.0 332865000000.0 474034000000.0 755419000000.0 376611000000.0 296825000000.0 367144000000.0 726474000000.0 427008000000.0 32798100000.0 311422000000.0 565111000000.0 680092000000.0 695860000000.0 619769000000.0 487305000000.0 404858000000.0 280056000000.0 110680000000.0 139668000000.0 347148000000.0 190135000000.0 414472000000.0 652033000000.0 730706000000.0 108928000000.0 562302000000.0 795046000.0 613499000000.0 276654000000.0 426935000000.0 369971000000.0 585859000000.0 364237000000.0 29257400000.0 518770000000.0 106205000000.0 82364500000.0 1.07483e+12 216022000000.0 233871000000.0 186729000000.0 140361000000.0 270004000000.0 145653000000.0 196016000000.0 143782000000.0 73638500000.0 208612000000.0 245303000000.0 602109000000.0 846394000000.0 620972000000.0 413969000000.0 387909000000.0 433801000000.0 378611000000.0 1.15865e+12 557222000000.0 207541000000.0 518529000000.0 468897000000.0 337919000000.0 33346400000.0 7747320000.0 430052000000.0 139452000000.0 417067000000.0 722164000000.0 871374000000.0 431825000000.0 152031000000.0 178812000000.0 356283000000.0 634012000000.0 658352000000.0 492289000000.0 330591000000.0 672482000000.0 726582000000.0 36324200000.0 320979000000.0 22481600000.0 97485300000.0 71158900000.0 539483000000.0 627653000000.0 647935000000.0 567351000000.0 470863000000.0 386925000000.0 170309000000.0 101755000000.0 201969000000.0 619471000000.0 91933900000.0 537424000000.0 893603000000.0 318825000000.0 698029000000.0 636153000000.0 205545000000.0 509005000000.0 219430000000.0 285565000000.0 103217000000.0 269742000000.0 427320000000.0 575897000000.0 1.10692e+12 744888000000.0 213125000000.0 39047600000.0 53005500000.0 75766800000.0 329302000000.0 373078000000.0 195135000000.0 83193300000.0 19637800000.0 353503000000.0 419590000000.0 821092000000.0 655024000000.0 530402000000.0 503944000000.0 494563000000.0 676180000000.0 464889000000.0 953243000000.0 407822000000.0 346603000000.0 227117000000.0 175208000000.0 971388000000.0 1.49948e+12 371255000000.0 192896000000.0 262893000000.0 383157000000.0 718525000000.0 1.08231e+12 1.00401e+12 1.11591e+12 384525000000.0 61199800000.0 301997000000.0 582206000000.0 849484000000.0 613926000000.0 80161500000.0 552778000000.0 742770000000.0 506386000000.0 238930000000.0 336887000000.0 77216200000.0 219711000000.0 108584000000.0 19003400000.0 126863000000.0 427188000000.0 631000000000.0 588835000000.0 485670000000.0 385224000000.0 284162000000.0 161589000000.0 5122550000.0 356264000000.0 148570000000.0 674866000000.0 572642000000.0 89585200000.0 447536000000.0 835140000000.0 569026000000.0 646735000000.0 438265000000.0 53808200000.0 17431700000.0 95443900000.0 401911000000.0 330422000000.0 338760000000.0 349979000000.0 579770000000.0 952511000000.0 265499000000.0 50021600000.0 124465000000.0 333421000000.0 430024000000.0 356878000000.0 207584000000.0 96490000000.0 22208500000.0 393637000000.0 758781000000.0 765742000000.0 628125000000.0 488628000000.0 320202000000.0 814075000000.0 281048000000.0 745821000000.0 709660000000.0 621585000000.0 352975000000.0 1.08652e+12 1.27715e+12 144941000000.0 351229000000.0 119374000000.0 259212000000.0 579080000000.0 1.08577e+12 1.31463e+12 1.28276e+12 545413000000.0 99077900000.0 209436000000.0 513949000000.0 814619000000.0 848584000000.0 695238000000.0 545941000000.0 746754000000.0 626897000000.0 453387000000.0 398781000000.0 86193900000.0 207729000000.0 56975700000.0 172562000000.0 425743000000.0 303157000000.0 463358000000.0 551673000000.0 449909000000.0 348562000000.0 257599000000.0 164286000000.0 54528400000.0 62916700000.0 114926000000.0 204230000000.0 138762000000.0 31528300000.0 239292000000.0 868991000000.0 195176000000.0 164229000000.0 324406000000.0 359293000000.0 469780000000.0 38437000000.0 341116000000.0 250622000000.0 202804000000.0 427199000000.0 676742000000.0 800821000000.0 492486000000.0 245927000000.0 227382000000.0 442300000000.0 602492000000.0 677938000000.0 859564000000.0 24589000000.0 464285000000.0 437623000000.0 418938000000.0 139993000000.0 124764000000.0 11886300000.0 317649000000.0 52363100000.0 34004900000.0 312646000000.0 97598100000.0 374555000000.0 914933000000.0 1.15855e+12 1.28859e+12 234673000000.0 119852000000.0 454936000000.0 762100000000.0 887665000000.0 896668000000.0 845378000000.0 755020000000.0 824272000000.0 799718000000.0 699474000000.0 619180000000.0 642136000000.0 477448000000.0 184107000000.0 59547600000.0 879061000000.0 3631140000.0 35480100000.0 527167000000.0 283133000000.0 213665000000.0 146258000000.0 72530900000.0 8422450000.0 78411600000.0 165001000000.0 266476000000.0 253950000000.0 441189000000.0 2298410000.0 164996000000.0 880238000000.0 317675000000.0 771340000000.0 419120000000.0 464429000000.0 427969000000.0 174828000000.0 16013300000.0 328954000000.0 1.00123e+12 108237000000.0 103170000000.0 257983000000.0 415894000000.0 571204000000.0 548646000000.0 568750000000.0 216258000000.0 36605800000.0 273217000000.0 403100000000.0 411940000000.0 667573000000.0 759620000000.0 761072000000.0 666390000000.0 347451000000.0 85536000000.0 298566000000.0 449541000000.0 188525000000.0 774490000000.0 694824000000.0 402957000000.0 132944000000.0 182699000000.0 580240000000.0 152416000000.0 21652900000.0 208982000000.0 114624000000.0 53844000000.0 220075000000.0 112279000000.0 122919000000.0 669849000000.0 900690000000.0 1.00153e+12 1.54259e+12 218629000000.0 101153000000.0 431674000000.0 717898000000.0 880971000000.0 957786000000.0 822395000000.0 918197000000.0 876334000000.0 768998000000.0 623216000000.0 735060000000.0 48824500000.0 565248000000.0 5651470000.0 392925000000.0 356760000000.0 142038000000.0 85320900000.0 26044900000.0 34291900000.0 105770000000.0 184751000000.0 225404000000.0 301990000000.0 157510000000.0 172885000000.0 445127000000.0 457584000000.0 563808000000.0 457735000000.0 361012000000.0 354273000000.0 229485000000.0 854643000.0 297027000000.0 731279000000.0 289990000000.0 91344700000.0 168105000000.0 349792000000.0 173646000000.0 229748000000.0 19042200000.0 204172000000.0 350249000000.0 399252000000.0 391179000000.0 372897000000.0 383067000000.0 524295000000.0 755743000000.0 743816000000.0 675067000000.0 543538000000.0 281340000000.0 312658000000.0 387392000000.0 363930000000.0 618080000000.0 690960000000.0 523473000000.0 226993000000.0 73507200000.0 118895000000.0 81231700000.0 150231000000.0 188433000000.0 332340000000.0 412929000000.0 42974400000.0 115512000000.0 554355000000.0 138434000000.0 438778000000.0 690111000000.0 805977000000.0 1.08432e+12 1.4968e+12 167744000000.0 694118000000.0 864447000000.0 960090000000.0 977727000000.0 974779000000.0 998233000000.0 1.05184e+12 833768000000.0 448555000000.0 146017000000.0 126338000000.0 835565000000.0 442104000000.0 446640000000.0 375420000000.0 273895000000.0 201449000000.0 14217300000.0 44053400000.0 106695000000.0 158507000000.0 212509000000.0 187922000000.0 201598000000.0 305016000000.0 364591000000.0 465376000000.0 425572000000.0 359457000000.0 294407000000.0 217900000000.0 64581300000.0 160546000000.0 395810000000.0 259238000000.0 86710200000.0 105241000000.0 534248000000.0 590678000000.0 328612000000.0 56024100000.0 27703600000.0 163788000000.0 297023000000.0 367703000000.0 385837000000.0 412661000000.0 496166000000.0 671004000000.0 725856000000.0 742914000000.0 678935000000.0 580020000000.0 442420000000.0 399383000000.0 427867000000.0 582142000000.0 705492000000.0 601594000000.0 413883000000.0 158072000000.0 195687000000.0 70360900000.0 176069000000.0 393147000000.0 416831000000.0 129637000000.0 55304300000.0 124673000000.0 41747200000.0 110440000000.0 184412000000.0 199203000000.0 710534000000.0 175825000000.0 503090000000.0 691917000000.0 853279000000.0 973865000000.0 1.4024e+12 377043000000.0 667585000000.0 839317000000.0 928846000000.0 1.00561e+12 1.0258e+12 1.05072e+12 1.10981e+12 1.20707e+12 645947000000.0 440389000000.0 158784000000.0 134385000000.0 478723000000.0 113261000000.0 262539000000.0 70773300000.0 855670000000.0 496627000000.0 311767000000.0 206026000000.0 131619000000.0 69923000000.0 157004000000.0 187797000000.0 246813000000.0 298830000000.0 364647000000.0 380036000000.0 341293000000.0 253780000000.0 439647000000.0 555808000000.0 483085000000.0 260071000000.0 55312800000.0 190350000000.0 270497000000.0 340511000000.0 380527000000.0 405383000000.0 520127000000.0 865526000000.0 824432000000.0 785043000000.0 600799000000.0 504559000000.0 399186000000.0 372459000000.0 467733000000.0 560576000000.0 656868000000.0 681730000000.0 538521000000.0 369337000000.0 229224000000.0 132828000000.0 139882000000.0 170252000000.0 419321000000.0 300825000000.0 541971000000.0 212298000000.0 46391800000.0 9997680000.0 61930300000.0 161584000000.0 346753000000.0 159641000000.0 272270000000.0 540930000000.0 788486000000.0 905318000000.0 1.12952e+12 123035000000.0 531823000000.0 769316000000.0 862842000000.0 975342000000.0 998202000000.0 1.01066e+12 1.02675e+12 705669000000.0 494015000000.0 238464000000.0 884738000.0 159602000000.0 417639000000.0 535112000000.0 383759000000.0 102425000000.0 50500000000.0 1.05141e+12 609106000000.0 380004000000.0 243546000000.0 146803000000.0 75671700000.0 19337800000.0 32375100000.0 81640400000.0 132184000000.0 282783000000.0 205213000000.0 98030000000.0 53703100000.0 207299000000.0 195433000000.0 113210000000.0 94357800000.0 187493000000.0 341371000000.0 474726000000.0 504088000000.0 418085000000.0 272543000000.0 174171000000.0 324504000000.0 365150000000.0 416849000000.0 461297000000.0 1.13061e+12 917793000000.0 809951000000.0 741754000000.0 677967000000.0 534742000000.0 466851000000.0 434024000000.0 439240000000.0 627417000000.0 667380000000.0 645554000000.0 505019000000.0 357492000000.0 188061000000.0 700764000000.0 624309000000.0 359657000000.0 467669000000.0 279178000000.0 77062400000.0 84833700000.0 50562100000.0 221596000000.0 260722000000.0 758114000000.0 76765500000.0 672367000000.0 815456000000.0 1.26058e+12 49800200000.0 607546000000.0 905460000000.0 925373000000.0 930241000000.0 926301000000.0 1.06443e+12 1.20058e+12 394585000000.0 272881000000.0 108265000000.0 10599900000.0 67330500000.0 234531000000.0 538033000000.0 406342000000.0 281918000000.0 305381000000.0 1.07655e+12 670992000000.0 438986000000.0 272537000000.0 155395000000.0 82989300000.0 36800700000.0 3245390000.0 50472400000.0 98845300000.0 148796000000.0 202201000000.0 249456000000.0 296214000000.0 320932000000.0 311533000000.0 269495000000.0 205531000000.0 119245000000.0 12379000000.0 94533700000.0 129662000000.0 111148000000.0 105815000000.0 158947000000.0 271139000000.0 393260000000.0 465668000000.0 462276000000.0 397467000000.0 316104000000.0 270936000000.0 283086000000.0 1.12406e+12 841473000000.0 750773000000.0 698657000000.0 652999000000.0 599997000000.0 476126000000.0 475392000000.0 498261000000.0 557564000000.0 659884000000.0 677961000000.0 619118000000.0 453924000000.0 312054000000.0 243007000000.0 596565000000.0 162674000000.0 297623000000.0 97607400000.0 146087000000.0 96366300000.0 59863200000.0 419169000000.0 190101000000.0 410839000000.0 581947000000.0 977070000000.0 1.1831e+12 928772000000.0 157648000000.0 745461000000.0 794739000000.0 818799000000.0 828660000000.0 927196000000.0 980764000000.0 1.14194e+12 105871000000.0 56055700000.0 233040000000.0 418443000000.0 509453000000.0 440412000000.0 427803000000.0 558897000000.0 1.00058e+12 692449000000.0 458828000000.0 262345000000.0 138837000000.0 88157200000.0 67078900000.0 34019100000.0 25655000000.0 95637000000.0 159180000000.0 208415000000.0 247784000000.0 271919000000.0 274151000000.0 250706000000.0 202739000000.0 135209000000.0 53442600000.0 27460200000.0 75979300000.0 92862600000.0 107154000000.0 149034000000.0 229339000000.0 330020000000.0 413145000000.0 452233000000.0 320935000000.0 310972000000.0 309920000000.0 304082000000.0 181702000000.0 657465000000.0 619578000000.0 597752000000.0 571813000000.0 537462000000.0 499768000000.0 498089000000.0 517440000000.0 561700000000.0 615246000000.0 726846000000.0 676129000000.0 582632000000.0 344652000000.0 104362000000.0 119139000000.0 87483200000.0 158744000000.0 273302000000.0 135032000000.0 68451300000.0 102979000000.0 28429400000.0 290887000000.0 748750000000.0 868953000000.0 989436000000.0 661135000000.0 552347000000.0 647378000000.0 686052000000.0 711808000000.0 822835000000.0 806278000000.0 808063000000.0 877523000000.0 1.02539e+12 117601000000.0 77492800000.0 115788000000.0 492867000000.0 104199000000.0 114565000000.0 55534100000.0 36057100000.0 116978000000.0 172374000000.0 210858000000.0 233947000000.0 240146000000.0 227223000000.0 194316000000.0 143247000000.0 79568700000.0 13910000000.0 36991900000.0 70031600000.0 98136600000.0 139079000000.0 203040000000.0 443283000000.0 401719000000.0 353225000000.0 263443000000.0 197963000000.0 24180600000.0 1.02998e+12 784111000000.0 535360000000.0 530243000000.0 519879000000.0 505353000000.0 495944000000.0 558251000000.0 613235000000.0 665267000000.0 730580000000.0 641400000000.0 519200000000.0 41982200000.0 223145000000.0 219084000000.0 235835000000.0 27543300000.0 114543000000.0 3414430000.0 488072000000.0 623616000000.0 834699000000.0 358917000000.0 577125000000.0 572232000000.0 721215000000.0 709339000000.0 691172000000.0 698635000000.0 119674000000.0 33455100000.0 234622000000.0 372073000000.0 466204000000.0 492801000000.0 465938000000.0 642833000000.0 838078000000.0 644458000000.0 424565000000.0 195276000000.0 93789200000.0 284512000000.0 363861000000.0 420239000000.0 443696000000.0 435604000000.0 404151000000.0 361083000000.0 314311000000.0 127676000000.0 148953000000.0 872846000000.0 739109000000.0 604513000000.0 548139000000.0 497248000000.0 498353000000.0 499569000000.0 505293000000.0 521582000000.0 587557000000.0 662360000000.0 829936000000.0 657678000000.0 566269000000.0 434997000000.0 257947000000.0 106647000000.0 67293200000.0 78709000000.0 88880200000.0 68077200000.0 48142800000.0 259964000000.0 392488000000.0 604654000000.0 858171000000.0 635420000000.0 540552000000.0 691276000000.0 598011000000.0 626487000000.0 631762000000.0 619364000000.0 604177000000.0 773076000000.0 870651000000.0 254118000000.0 104128000000.0 212624000000.0 331238000000.0 424085000000.0 471980000000.0 482214000000.0 484493000000.0 536435000000.0 648288000000.0 714607000000.0 582256000000.0 366925000000.0 58887300000.0 35028900000.0 165609000000.0 136581000000.0 20994700000.0 82426500000.0 141565000000.0 180271000000.0 203081000000.0 211065000000.0 203885000000.0 180997000000.0 143188000000.0 93896000000.0 40087500000.0 8666630000.0 48434800000.0 84369000000.0 126244000000.0 181557000000.0 249658000000.0 320653000000.0 381136000000.0 420963000000.0 435051000000.0 423107000000.0 386855000000.0 327333000000.0 242654000000.0 193694000000.0 704815000000.0 694207000000.0 585196000000.0 516807000000.0 493088000000.0 493545000000.0 495783000000.0 501273000000.0 511458000000.0 536942000000.0 503364000000.0 844777000000.0 743648000000.0 484007000000.0 358764000000.0 220323000000.0 141411000000.0 78542900000.0 199396000000.0 794599000000.0 721065000000.0 614690000000.0 517130000000.0 545646000000.0 562018000000.0 568267000000.0 614805000000.0 680430000000.0 706105000000.0 4565500000.0 149263000000.0 278397000000.0 376376000000.0 437989000000.0 468061000000.0 481092000000.0 505471000000.0 565850000000.0 639269000000.0 658984000000.0 560215000000.0 340652000000.0 142716000000.0 33640400000.0 186388000000.0 63506600000.0 66872900000.0 116835000000.0 152206000000.0 174344000000.0 183708000000.0 180591000000.0 164901000000.0 137037000000.0 99003200000.0 55136900000.0 11248300000.0 29385100000.0 68362500000.0 110760000000.0 161205000000.0 220262000000.0 283065000000.0 341377000000.0 386863000000.0 413505000000.0 417457000000.0 395052000000.0 340076000000.0 244964000000.0 100971000000.0 557426000000.0 647230000000.0 585392000000.0 520947000000.0 484713000000.0 477392000000.0 484043000000.0 490963000000.0 496219000000.0 493729000000.0 493101000000.0 500465000000.0 713846000000.0 620654000000.0 564716000000.0 378886000000.0 239688000000.0 35503500000.0 65955000000.0 362561000000.0 600962000000.0 668126000000.0 625781000000.0 593340000000.0 718938000000.0 391873000000.0 467495000000.0 566443000000.0 557811000000.0 563758000000.0 606503000000.0 559701000000.0 287575000000.0 19109900000.0 188751000000.0 312050000000.0 392551000000.0 435974000000.0 457432000000.0 478039000000.0 515354000000.0 571351000000.0 626254000000.0 642836000000.0 576214000000.0 307831000000.0 361675000000.0 101548000000.0 104055000000.0 71280200000.0 84910600000.0 116122000000.0 140241000000.0 152885000000.0 154463000000.0 145325000000.0 125875000000.0 97323900000.0 62233600000.0 24198500000.0 14107400000.0 52635700000.0 93747200000.0 140144000000.0 192651000000.0 248655000000.0 302562000000.0 348088000000.0 379984000000.0 393751000000.0 384732000000.0 345549000000.0 259790000000.0 112194000000.0 172923000000.0 547385000000.0 506436000000.0 489489000000.0 489426000000.0 493656000000.0 496121000000.0 455178000000.0 427927000000.0 373332000000.0 754741000000.0 565980000000.0 485758000000.0 459093000000.0 52137900000.0 164990000000.0 500832000000.0 585162000000.0 604834000000.0 706061000000.0 283575000000.0 503873000000.0 534407000000.0 559235000000.0 551427000000.0 540843000000.0 569361000000.0 259094000000.0 611709000000.0 25363700000.0 28237700000.0 40105000000.0 86692000000.0 111545000000.0 121705000000.0 120569000000.0 109565000000.0 89865500000.0 63172000000.0 31740900000.0 2399550000.0 38460300000.0 444033000000.0 597670000000.0 592015000000.0 527510000000.0 519499000000.0 514669000000.0 505765000000.0 497473000000.0 481227000000.0 266824000000.0 684789000000.0 608864000000.0 418510000000.0 348797000000.0 323057000000.0 217502000000.0 50583000000.0 349013000000.0 542682000000.0 551934000000.0 554062000000.0 587634000000.0 395127000000.0 464107000000.0 532499000000.0 599657000000.0 458298000000.0 49636000000.0 219275000000.0 327039000000.0 386436000000.0 417730000000.0 439111000000.0 464406000000.0 501693000000.0 550844000000.0 603163000000.0 646284000000.0 671663000000.0 546770000000.0 77039300000.0 119392000000.0 166059000000.0 215553000000.0 264258000000.0 307375000000.0 340054000000.0 358203000000.0 358021000000.0 333697000000.0 272632000000.0 140238000000.0 123675000000.0 372747000000.0 568364000000.0 597372000000.0 587313000000.0 552670000000.0 524949000000.0 506122000000.0 478272000000.0 426455000000.0 367150000000.0 622702000000.0 542854000000.0 471003000000.0 289004000000.0 224666000000.0 124811000000.0 137053000000.0 265552000000.0 367818000000.0 458616000000.0 500879000000.0 505189000000.0 657493000000.0 193409000000.0 332976000000.0 431800000000.0 522269000000.0 587045000000.0 576819000000.0 597917000000.0 356281000000.0 200362000000.0 85028500000.0 237706000000.0 321270000000.0 365081000000.0 389275000000.0 407252000000.0 427562000000.0 454317000000.0 486211000000.0 513413000000.0 505975000000.0 401016000000.0 232589000000.0 332920000000.0 345165000000.0 324937000000.0 101174000000.0 7470860000.0 57124200000.0 80711300000.0 89794800000.0 88108100000.0 77362900000.0 59057300000.0 34815900000.0 6181220000.0 25831700000.0 60964500000.0 99447300000.0 141135000000.0 184749000000.0 227727000000.0 266651000000.0 297662000000.0 316732000000.0 320216000000.0 304066000000.0 261508000000.0 174443000000.0 57338000000.0 283838000000.0 589450000000.0 623460000000.0 617230000000.0 616788000000.0 602694000000.0 578679000000.0 557609000000.0 484923000000.0 403759000000.0 318415000000.0 185099000000.0 413407000000.0 344958000000.0 86333600000.0 18309900000.0 48865800000.0 118519000000.0 135914000000.0 272741000000.0 421627000000.0 542781000000.0 587537000000.0 118031000000.0 279486000000.0 588947000000.0 517925000000.0 563903000000.0 479655000000.0 228685000000.0 121513000000.0 124735000000.0 241980000000.0 300754000000.0 331633000000.0 347867000000.0 357824000000.0 367104000000.0 378541000000.0 393325000000.0 411053000000.0 426671000000.0 625958000000.0 260799000000.0 520228000000.0 182229000000.0 49109700000.0 6236590000.0 36693700000.0 54689900000.0 62514700000.0 60999500000.0 51219400000.0 34509200000.0 12199300000.0 14728600000.0 45688400000.0 80219700000.0 117543000000.0 156300000000.0 194383000000.0 228970000000.0 256843000000.0 274776000000.0 279380000000.0 266684000000.0 231678000000.0 165415000000.0 32435300000.0 196647000000.0 471784000000.0 638991000000.0 576048000000.0 572013000000.0 608338000000.0 566096000000.0 573697000000.0 540858000000.0 515892000000.0 269984000000.0 120206000000.0 559717000000.0 494238000000.0 251417000000.0 195867000000.0 13442600000.0 4564330000.0 422288000000.0 439238000000.0 481661000000.0 514132000000.0 402217000000.0 497223000000.0 488860000000.0 474118000000.0 469063000000.0 351651000000.0 155052000000.0 13065700000.0 154139000000.0 227907000000.0 267869000000.0 287974000000.0 295944000000.0 296491000000.0 293259000000.0 291228000000.0 301867000000.0 352248000000.0 473814000000.0 197392000000.0 896312000000.0 301938000000.0 75389400000.0 38394200000.0 29125400000.0 7099660000.0 16440200000.0 33593100000.0 41875800000.0 41183800000.0 32388100000.0 16645500000.0 4944430000.0 31385900000.0 61735000000.0 94984600000.0 129707000000.0 163822000000.0 194859000000.0 220111000000.0 236715000000.0 528325000000.0 515603000000.0 508863000000.0 495254000000.0 468402000000.0 462093000000.0 367274000000.0 499551000000.0 447088000000.0 379976000000.0 313961000000.0 142214000000.0 175835000.0 15221200000.0 23729300000.0 135376000000.0 178805000000.0 292115000000.0 340090000000.0 372178000000.0 50553500000.0 227726000000.0 371246000000.0 427256000000.0 417612000000.0 241868000000.0 233045000000.0 207841000000.0 164071000000.0 104153000000.0 178345000000.0 359075000000.0 512841000000.0 575941000000.0 459241000000.0 437199000000.0 404758000000.0 423437000000.0 322862000000.0 219868000000.0 65659900000.0 405899000000.0 321513000000.0 285068000000.0 195865000000.0 9691150000.0 60339400000.0 22365700000.0 4772820000.0 23648100000.0 225748000000.0 287909000000.0 413054000000.0 447156000000.0 9567670000.0 190403000000.0 345755000000.0 439262000000.0 366667000000.0 293385000000.0 163891000000.0 89327100000.0 158697000000.0 203528000000.0 230492000000.0 242761000000.0 242883000000.0 233978000000.0 221851000000.0 218977000000.0 255706000000.0 416801000000.0 613818000000.0 39864800000.0 355886000000.0 126055000000.0 105238000000.0 68285800000.0 28859400000.0 1666820000.0 21149300000.0 30139400000.0 29570200000.0 20605800000.0 4510290000.0 17403500000.0 43760900000.0 73298700000.0 104448000000.0 135284000000.0 163570000000.0 186823000000.0 202608000000.0 208968000000.0 204589000000.0 188889000000.0 163558000000.0 138954000000.0 177927000000.0 288195000000.0 416828000000.0 502332000000.0 462038000000.0 409329000000.0 444041000000.0 452297000000.0 384596000000.0 290306000000.0 179546000000.0 21689600000.0 433676000000.0 226412000000.0 169721000000.0 105118000000.0 34308000000.0 24498900000.0 17868700000.0 17827000000.0 90331600000.0 313103000000.0 322989000000.0 340921000000.0 392123000000.0 22783300000.0 370495000000.0 371983000000.0 365015000000.0 299652000000.0 285338000000.0 184496000000.0 135772000000.0 156513000000.0 181631000000.0 198833000000.0 203657000000.0 197374000000.0 184411000000.0 172156000000.0 180795000000.0 258261000000.0 548516000000.0 43860800000.0 267196000000.0 273392000000.0 1298320000.0 156623000000.0 127823000000.0 71942100000.0 27080100000.0 3583610000.0 21383200000.0 28211400000.0 25493400000.0 14601200000.0 2909920000.0 25608800000.0 51897900000.0 80073600000.0 108269000000.0 134289000000.0 156033000000.0 171647000000.0 179598000000.0 179074000000.0 170588000000.0 157250000000.0 148582000000.0 173487000000.0 242670000000.0 333964000000.0 416171000000.0 435754000000.0 375225000000.0 343578000000.0 387213000000.0 384707000000.0 339960000000.0 158791000000.0 10330300000.0 363259000000.0 331789000000.0 261685000000.0 13799400000.0 41944400000.0 11807600000.0 297210000000.0 292868000000.0 312171000000.0 280196000000.0 283139000000.0 355076000000.0 227827000000.0 329396000000.0 324355000000.0 299041000000.0 268576000000.0 270768000000.0 238456000000.0 166225000000.0 135173000000.0 148736000000.0 166756000000.0 176507000000.0 177781000000.0 171549000000.0 161641000000.0 159295000000.0 187313000000.0 305237000000.0 482891000000.0 32438100000.0 258863000000.0 181095000000.0 93678600000.0 39118600000.0 3192980000.0 20218000000.0 32393500000.0 34208300000.0 27210400000.0 12831900000.0 6848430000.0 30213800000.0 55812100000.0 81829200000.0 106325000000.0 127238000000.0 142917000000.0 152116000000.0 154538000000.0 151270000000.0 145541000000.0 144378000000.0 162570000000.0 209137000000.0 275121000000.0 334050000000.0 375680000000.0 358112000000.0 288962000000.0 302341000000.0 333840000000.0 273268000000.0 334130000000.0 272037000000.0 305486000000.0 263101000000.0 192746000000.0 183866000000.0 135685000000.0 89654600000.0 32469300000.0 10005200000.0 37325500000.0 43957700000.0 435261000.0 262934000000.0 272791000000.0 280427000000.0 30942000000.0 262036000000.0 271512000000.0 252426000000.0 208290000000.0 233161000000.0 29781900000.0 48140700000.0 95194200000.0 100681000000.0 69571500000.0 271365000000.0 218666000000.0 260647000000.0 245003000000.0 142374000000.0 27892600000.0 136951000000.0 149070000000.0 101787000000.0 33089600000.0 23847900000.0 47861700000.0 11976500000.0 47578300000.0 19037600000.0 35537300000.0 232307000000.0 269880000000.0 277744000000.0 310456000000.0 66870600000.0 244920000000.0 187738000000.0 137917000000.0 132134000000.0 144806000000.0 158343000000.0 167328000000.0 169957000000.0 167632000000.0 161176000000.0 150642000000.0 135833000000.0 302634000000.0 229224000000.0 16135100000.0 3333220000.0 18380200000.0 34273400000.0 45656400000.0 49082000000.0 43724100000.0 31087600000.0 13414900000.0 7716900000.0 30860300000.0 54901300000.0 78264100000.0 98719700000.0 114631000000.0 124937000000.0 129787000000.0 130313000000.0 129360000000.0 131943000000.0 146561000000.0 179565000000.0 230003000000.0 287226000000.0 320816000000.0 313861000000.0 270561000000.0 236028000000.0 138668000000.0 30786100000.0 251028000000.0 220465000000.0 21172100000.0 37399800000.0 9035750000.0 41087600000.0 214870000000.0 230973000000.0 222522000000.0 241535000000.0 233210000000.0 182440000000.0 185061000000.0 193351000000.0 217793000000.0 290424000000.0 295526000000.0 210744000000.0 195045000000.0 197976000000.0 213113000000.0 230676000000.0 247440000000.0 262263000000.0 273952000000.0 285185000000.0 282487000000.0 218388000000.0 5981440000.0 458881000000.0 483869000000.0 403368000000.0 217624000000.0 111601000000.0 70121200000.0 64369500000.0 69967600000.0 71558300000.0 65585400000.0 51588100000.0 34628600000.0 16033300000.0 4853190000.0 26555000000.0 48509800000.0 68778900000.0 85194000000.0 96627800000.0 103452000000.0 106757000000.0 109030000000.0 113896000000.0 126485000000.0 150560000000.0 185773000000.0 231423000000.0 275372000000.0 262048000000.0 226489000000.0 215830000000.0 200951000000.0 170635000000.0 207445000000.0 180438000000.0 179438000000.0 159607000000.0 109571000000.0 102022000000.0 76240400000.0 48879700000.0 30182400000.0 23771600000.0 30025000000.0 41424500000.0 228360000000.0 209916000000.0 260165000000.0 248866000000.0 225543000000.0 165833000000.0 106989000000.0 146508000000.0 154195000000.0 135027000000.0 127093000000.0 100883000000.0 93274200000.0 104550000000.0 49828900000.0 3265670000.0 40002700000.0 73109200000.0 99853700000.0 124361000000.0 149541000000.0 179620000000.0 214683000000.0 246581000000.0 237699000000.0 74858500000.0 141613000000.0 137828000000.0 122533000000.0 91045500000.0 84081600000.0 91205300000.0 97342100000.0 92318000000.0 74467800000.0 57049000000.0 39989500000.0 22267400000.0 3834460000.0 15733500000.0 35376100000.0 52819000000.0 65508300000.0 73640900000.0 78805600000.0 83837400000.0 90993300000.0 103218000000.0 123278000000.0 151463000000.0 181467000000.0 225924000000.0 227019000000.0 182859000000.0 166990000000.0 181918000000.0 125595000000.0 206588000000.0 169163000000.0 66574800000.0 66572400000.0 62472700000.0 69210900000.0 111751000000.0 81923300000.0 55280300000.0 39361100000.0 17545500000.0 23481800000.0 7885690000.0 16817000000.0 21603500000.0 27326300000.0 79536600000.0 183668000000.0 63836800000.0 222145000000.0 68024400000.0 66512700000.0 95757100000.0 40522300000.0 96806100000.0 35771600000.0 54657200000.0 45238000000.0 66055800000.0 61798500000.0 29823600000.0 6473090000.0 161246000000.0 236355000000.0 224008000000.0 281628000000.0 354495000000.0 65148600000.0 40147500000.0 62789000000.0 50641900000.0 38739900000.0 23799800000.0 3653540000.0 15330300000.0 6308910000.0 10433600000.0 29322500000.0 46393800000.0 65598200000.0 89780600000.0 121483000000.0 140314000000.0 107310000000.0 50339500000.0 31204500000.0 199946000000.0 47499500000.0 107773000000.0 113048000000.0 117793000000.0 98128000000.0 78608300000.0 64817200000.0 49433900000.0 36557700000.0 20975200000.0 3701300000.0 14346400000.0 28164300000.0 38045700000.0 44283400000.0 52004000000.0 62379500000.0 76881100000.0 95983300000.0 121682000000.0 153555000000.0 177337000000.0 190480000000.0 157304000000.0 112127000000.0 132957000000.0 75961400000.0 51216100000.0 95875900000.0 93409700000.0 26218700000.0 5691410000.0 934341000.0 17682300000.0 45132600000.0 42602000000.0 41765300000.0 79981700000.0 175579000000.0 148060000000.0 156455000000.0 187939000000.0 37716400000.0 72968700000.0 85271400000.0 59786000000.0 20015000000.0 70068100000.0 83055600000.0 69440900000.0 45728700000.0 31534200000.0 32153400000.0 42159600000.0 54019300000.0 67741500000.0 84002200000.0 100394000000.0 113985000000.0 86340700000.0 5312090000.0 27086700000.0 5577590000.0 143605000000.0 114712000000.0 136328000000.0 100511000000.0 156196000000.0 115850000000.0 133335000000.0 122725000000.0 91280500000.0 85285100000.0 77352000000.0 68940000000.0 61048200000.0 48612200000.0 32844500000.0 18963400000.0 6161480000.0 527831000.0 11023100000.0 24897200000.0 44394800000.0 65871800000.0 89360900000.0 117557000000.0 142759000000.0 143657000000.0 134278000000.0 78312900000.0 91761700000.0 49788500000.0 22209000000.0 43991900000.0 28582300000.0 53318400000.0 28345500000.0 44704900000.0 129572000000.0 104294000000.0 90999200000.0 62890800000.0 9035750000.0 9035750000.0 9035750000.0 9035750000.0 9031120000.0 9035770000.0 9036090000.0 9035480000.0 54707100000.0 6798370000.0 16967400000.0 8919700000.0 2246050000.0 31592300000.0 84269600000.0 64422100000.0 42091000000.0 63133900000.0 31517600000.0 33129500000.0 17288000000.0 41613500000.0 58158300000.0 26814300000.0 75566200000.0 97987800000.0 88246400000.0 94966100000.0 83787600000.0 86853600000.0 62764800000.0 62733700000.0 39479400000.0 36333200000.0 17407000000.0 393049000.0 21352500000.0 7447760000.0 6674310000.0 3903860000.0 17809700000.0 78490600000.0 21056400000.0 53095300000.0 79360100000.0 53148600000.0 27979300000.0 3346450000.0 121013000000.0 145188000000.0 143778000000.0 163901000000.0 26264700000.0 46332800000.0 51584200000.0 56141300000.0 59378200000.0 56670400000.0 61136700000.0 65117000000.0 73120700000.0 78870400000.0 69306400000.0 201174000.0 136247000000.0 113285000000.0 28011300000.0 57430700000.0 87830700000.0 114423000000.0 141648000000.0 144189000000.0 109538000000.0 44737000000.0 35068400000.0 2330790000.0 91527800000.0 21532300000.0 10760000000.0 5569650000.0 35452600000.0 65441700000.0 96707200000.0 91753900000.0 20228900000.0 35336600000.0 60000200000.0 131940000000.0 27435700000.0 4383560000.0 44209000000.0 49778500000.0 58397300000.0 77562600000.0 84128400000.0 88938900000.0 91924300000.0 87771500000.0 83134300000.0 69420600000.0 53684300000.0 33355000000.0 11596000000.0 16157200000.0 14803500000.0 44016200000.0 7885620000.0 37645300000.0 10474700000.0 1889840000.0 30825200000.0 90391000000.0 65876100000.0 44458600000.0 12241100000.0 10519400000.0 62809900000.0 34393500000.0 36400100000.0 14621600000.0 10921200000.0 12231700000.0 15946000000.0 56243900000.0 71073800000.0 110863000000.0 119636000000.0 133325000000.0 132852000000.0 136417000000.0 139279000000.0 141798000000.0 140887000000.0 148837000000.0 143165000000.0 101950000000.0 54938600000.0 66199800000.0 73425000000.0 60696800000.0 63474500000.0 83813300000.0 80328600000.0 1898950000.0 115046000000.0 16034100000.0 116134000000.0 94009500000.0 82843500000.0 35576600000.0 9073800000.0 9050850000.0 9035750000.0 9035750000.0 11457500000.0 8962020000.0 8957020000.0 9024040000.0 32780500000.0 14298100000.0 9178750000.0 41529900000.0 48145200000.0 143344000000.0 8389320000.0 20740300000.0 3511630000.0 12172000000.0 40636200000.0 49415500000.0 71520900000.0 70720000000.0 98214400000.0 91515000000.0 105517000000.0 88342400000.0 49779200000.0 68135300000.0 62379600000.0 6176510000.0 14158400000.0 3895500000.0 5465700000.0 6931880000.0 8344130000.0 94017000000.0 123608000000.0 97242700000.0 99221900000.0 14634300000.0 20100600000.0 1071970000.0 7050420000.0 20744900000.0 29107200000.0 36526800000.0 42567300000.0 44997400000.0 52407700000.0 55948100000.0 57167100000.0 54890400000.0 54965300000.0 30547100000.0 2764240000.0 3232660000.0 22050100000.0 36449700000.0 65417200000.0 62820800000.0 47025300000.0 83858300000.0 74423300000.0 74693600000.0 74145100000.0 74945800000.0 74338300000.0 82419400000.0 72749700000.0 35791800000.0 20131800000.0 35605700000.0 46014800000.0 42330300000.0 110561000000.0 14200400000.0 103348000000.0 75599000000.0 61667600000.0 14332100000.0 9085550000.0 7210350000.0 5337610000.0 22707500000.0 65523200000.0 109385000000.0 102179000000.0 122023000000.0 41291400000.0 8169020000.0 7068530000.0 4686700000.0 2898910000.0 990909000.0 11219900000.0 11180200000.0 13856600000.0 16684700000.0 16220400000.0 21636300000.0 23389800000.0 24844800000.0 22448000000.0 25046200000.0 3688050000.0 7786710000.0 29448800000.0 3750550000.0 29381600000.0 32721700000.0 794220000.0 148849000000.0 8057620000.0 48959100000.0 12786700000.0 39221000000.0 11909100000.0 28111500000.0 34084400000.0 53303500000.0 56736100000.0 74609700000.0 73050800000.0 99846600000.0 98289600000.0 117626000000.0 109115000000.0 109503000000.0 103504000000.0 103961000000.0 102134000000.0 101126000000.0 98748600000.0 106143000000.0 92972600000.0 54447900000.0 48670600000.0 53706600000.0 56425900000.0 51083600000.0 53322400000.0 65290300000.0 56594000000.0 8354010000.0 98070700000.0 14505900000.0 90094100000.0 69890100000.0 57381400000.0 11941700000.0 9035750000.0 9035750000.0 9035750000.0 9037230000.0 15911600000.0 9107400000.0 9035750000.0 35925800000.0 133071000000.0 17940700000.0 9035750000.0 9035750000.0 9035750000.0 9036920000.0 9036070000.0 22853000000.0 54919000000.0 97127900000.0 87083900000.0 99616900000.0 41919700000.0 9035750000.0 9420940000.0 9035750000.0 9035750000.0 9035750000.0 20449000000.0 21385700000.0 21979100000.0 26498300000.0 28657900000.0 35142200000.0 38564400000.0 42170800000.0 41515100000.0 44682500000.0 28930500000.0 34606000000.0 10451200000.0 17506400000.0 9060710000.0 44015400000.0 12172500000.0 6453090000.0 16906300000.0 2409830000.0 12636500000.0 19282900000.0 38424800000.0 43138100000.0 59999000000.0 59693100000.0 83527600000.0 82248900000.0 98236000000.0 89911300000.0 90298600000.0 85573600000.0 85781000000.0 83020500000.0 81287400000.0 78540400000.0 84705200000.0 71330500000.0 42335000000.0 42585700000.0 45876500000.0 46710300000.0 43749100000.0 45307100000.0 54120700000.0 45360600000.0 9035750000.0 82525300000.0 12487100000.0 73745500000.0 57200500000.0 45488000000.0 9291630000.0 16030400000.0 9115150000.0 9035750000.0 9036550000.0 18631200000.0 40058900000.0 77121400000.0 68424800000.0 76901400000.0 38262600000.0 9035750000.0 9288480000.0 9035750000.0 9035750000.0 9035750000.0 18408100000.0 19686100000.0 17749400000.0 20225400000.0 22458300000.0 27445300000.0 30324100000.0 33595600000.0 33091300000.0 35851400000.0 23686600000.0 29737500000.0 10314200000.0 30734900000.0 15307700000.0 8408260000.0 39176900000.0 120558000000.0 10922800000.0 29876900000.0 13533500000.0 28950800000.0 13495800000.0 22205100000.0 23451600000.0 36765100000.0 39380600000.0 51952400000.0 50579800000.0 68941100000.0 67183800000.0 79700900000.0 72671700000.0 72692300000.0 68216600000.0 67718400000.0 64845900000.0 62895000000.0 60216500000.0 65039700000.0 53150400000.0 34588200000.0 35619800000.0 37662600000.0 37332800000.0 35971900000.0 36964700000.0 43154000000.0 35255800000.0 9035750000.0 66659200000.0 11291600000.0 58008300000.0 45470800000.0 35017100000.0 9045360000.0 9035750000.0 9035750000.0 9035750000.0 9036630000.0 14896900000.0 9106830000.0 9035750000.0 9036980000.0 15113500000.0 28553100000.0 57216500000.0 50615600000.0 55881400000.0 31781200000.0 9035750000.0 9213660000.0 9035750000.0 9035750000.0 9035750000.0 15824600000.0 17219700000.0 15101100000.0 15682600000.0 17263100000.0 21013000000.0 23228500000.0 25765900000.0 25397800000.0 27483000000.0 18800300000.0 24265100000.0 9938380000.0 24928000000.0 13560100000.0 9035750000.0 31301800000.0 89646300000.0 9735250000.0 23109000000.0 12286300000.0 23426200000.0 12266300000.0 18698800000.0 18321300000.0 27260900000.0 29535900000.0 38688400000.0 37710600000.0 51200800000.0 49901700000.0 59116600000.0 53953700000.0 53982200000.0 50617500000.0 50106000000.0 47693000000.0 46030300000.0 43817600000.0 47226500000.0 38099900000.0 27356900000.0 28155800000.0 29283400000.0 28554700000.0 28132100000.0 28728300000.0 32752900000.0 26528200000.0 9035750000.0 50163800000.0 10149100000.0 43083200000.0 34363400000.0 26164700000.0 9035960000.0 9035750000.0 9035750000.0 9035750000.0 9036360000.0 12854000000.0 9084020000.0 9035750000.0 9036990000.0 12285600000.0 19624700000.0 37484900000.0 33426600000.0 36269700000.0 23291400000.0 9035750000.0 9144250000.0 9035750000.0 9035750000.0 9035750000.0 13076000000.0 14114700000.0 12740700000.0 12542100000.0 13245400000.0 15623100000.0 17080000000.0 18685100000.0 18445900000.0 19703700000.0 14535900000.0 18250500000.0 9566980000.0 18678500000.0 11688600000.0 9035750000.0 22435800000.0 58049600000.0 9952580000.0 17069700000.0 10978800000.0 17661200000.0 10968900000.0 14897400000.0 14307200000.0 19132300000.0 20766000000.0 26228200000.0 25658700000.0 33817400000.0 33037900000.0 38629300000.0 35505700000.0 35528800000.0 33454800000.0 33092300000.0 31521000000.0 30433300000.0 29010000000.0 30994300000.0 25405300000.0 19960800000.0 20435700000.0 20961800000.0 20358500000.0 20325200000.0 20635100000.0 22868400000.0 18934800000.0 9035750000.0 33478100000.0 9485160000.0 28907000000.0 23816900000.0 18648700000.0 9035770000.0 9035750000.0 9035750000.0 9035750000.0 9036110000.0 10269300000.0 9051420000.0 9035750000.0 9036230000.0 9999450000.0 12231200000.0 17907300000.0 16627200000.0 17483700000.0 13580100000.0 9035750000.0 9070100000.0 9035750000.0 9035750000.0 9035750000.0 10299000000.0 10649400000.0 10213300000.0 10076500000.0 10241200000.0 11017000000.0 11511300000.0 12033100000.0 11951700000.0 12338500000.0 10705800000.0 11930800000.0 9201040000.0 12078000000.0 9862200000.0 9035750000.0 13243400000.0 24445000000.0 9323120000.0 11498300000.0 9644340000.0 11741800000.0 9641730000.0 10882800000.0 10660400000.0 12081000000.0 12659800000.0 14360100000.0 14185400000.0 16752100000.0 16508800000.0 18271500000.0 17288700000.0 17296900000.0 16638200000.0 16517000000.0 16008300000.0 15655400000.0 15199700000.0 15813100000.0 14057300000.0 12453400000.0 12604600000.0 12749700000.0 12543700000.0 12559600000.0 12650500000.0 13329700000.0 12074200000.0 9035750000.0 16677000000.0 9145990000.0 15205700000.0 13624800000.0 11973500000.0 9035760000.0 9035750000.0 9035750000.0 9035750000.0 9035860000.0 