# vtk DataFile Version 2.0
Time step 14
ASCII
DATASET UNSTRUCTURED_GRID
POINTS 5000 float
79079.5 453666.0 0
83003.7 450904.0 0
87165.4 451523.0 0
89234.5 447290.0 0
91092.8 451285.0 0
94686.9 450135.0 0
171815.0 451515.0 0
177733.0 451587.0 0
182936.0 450764.0 0
278879.0 451718.0 0
297322.0 451692.0 0
361041.0 451689.0 0
371324.0 449406.0 0
376169.0 451689.0 0
392467.0 449754.0 0
400851.0 448355.0 0
405263.0 445830.0 0
405794.0 449365.0 0
409325.0 448116.0 0
410918.0 451947.0 0
414000.0 449244.0 0
415440.0 453633.0 0
418978.0 452012.0 0
66665.1 460678.0 0
71470.7 457895.0 0
74842.4 455591.0 0
78777.7 458288.0 0
83184.1 455237.0 0
86343.7 458269.0 0
89667.4 455031.0 0
94570.8 455305.0 0
98616.4 451536.0 0
102657.0 452156.0 0
99683.5 455770.0 0
107356.0 451921.0 0
113060.0 452202.0 0
109784.0 456547.0 0
118754.0 453635.0 0
124199.0 453586.0 0
129131.0 452817.0 0
134245.0 452764.0 0
138899.0 453631.0 0
142815.0 453438.0 0
147500.0 453370.0 0
152501.0 453339.0 0
157634.0 452842.0 0
156856.0 456878.0 0
162625.0 453002.0 0
167009.0 452687.0 0
173010.0 457071.0 0
178412.0 456994.0 0
183565.0 455826.0 0
187389.0 452619.0 0
188636.0 457054.0 0
192500.0 453788.0 0
196095.0 452967.0 0
201745.0 452307.0 0
207652.0 453075.0 0
212988.0 452427.0 0
213699.0 456976.0 0
218130.0 453496.0 0
222481.0 453508.0 0
225805.0 452779.0 0
226819.0 457012.0 0
230432.0 452634.0 0
235810.0 453614.0 0
241170.0 452320.0 0
246500.0 454326.0 0
252674.0 452298.0 0
259040.0 452791.0 0
263766.0 453859.0 0
268737.0 452790.0 0
273933.0 453067.0 0
271635.0 456961.0 0
282030.0 455048.0 0
286327.0 453357.0 0
291718.0 453818.0 0
298230.0 457206.0 0
303660.0 452488.0 0
307693.0 455022.0 0
312092.0 452884.0 0
317891.0 453529.0 0
323203.0 453352.0 0
327530.0 453712.0 0
332150.0 453282.0 0
337157.0 452901.0 0
340830.0 454434.0 0
345535.0 452347.0 0
343372.0 457248.0 0
350117.0 454686.0 0
354640.0 453525.0 0
364615.0 456436.0 0
367221.0 452622.0 0
372001.0 456302.0 0
381668.0 452714.0 0
377847.0 456272.0 0
381813.0 456951.0 0
387030.0 451726.0 0
397218.0 452005.0 0
399796.0 456186.0 0
403727.0 452796.0 0
407649.0 454370.0 0
411886.0 456213.0 0
416282.0 457885.0 0
422297.0 453838.0 0
420869.0 457715.0 0
425438.0 455844.0 0
428887.0 457969.0 0
432411.0 460477.0 0
58983.3 466438.0 0
63290.3 463396.0 0
67394.2 463850.0 0
69838.6 461249.0 0
71038.7 464798.0 0
73970.8 461123.0 0
77523.1 462439.0 0
82564.6 460450.0 0
89472.8 460835.0 0
93445.3 460622.0 0
97262.4 459021.0 0
101111.0 459908.0 0
104636.0 456580.0 0
110330.0 461213.0 0
113507.0 458627.0 0
117500.0 458550.0 0
122500.0 458473.0 0
126851.0 461600.0 0
128135.0 457076.0 0
132724.0 458397.0 0
137738.0 458382.0 0
143003.0 457534.0 0
141253.0 461656.0 0
146964.0 457988.0 0
151972.0 458100.0 0
156406.0 461451.0 0
161290.0 457693.0 0
166516.0 457359.0 0
170069.0 461873.0 0
182233.0 460966.0 0
193598.0 457937.0 0
198278.0 457306.0 0
203939.0 457918.0 0
200014.0 462406.0 0
209374.0 458153.0 0
213309.0 461787.0 0
217614.0 458566.0 0
222046.0 458356.0 0
226880.0 462015.0 0
232222.0 458041.0 0
237703.0 458859.0 0
243301.0 458721.0 0
248448.0 458405.0 0
252665.0 458869.0 0
257252.0 457429.0 0
257716.0 462181.0 0
262324.0 458036.0 0
267096.0 457645.0 0
267467.0 462104.0 0
273024.0 462213.0 0
277024.0 457356.0 0
279861.0 461392.0 0
282821.0 458736.0 0
287500.0 458447.0 0
292891.0 458315.0 0
296701.0 462245.0 0
303102.0 458156.0 0
307434.0 458316.0 0
312501.0 458641.0 0
317498.0 458409.0 0
322405.0 457819.0 0
322409.0 461819.0 0
327500.0 458427.0 0
332500.0 458499.0 0
337579.0 457738.0 0
341137.0 461282.0 0
346540.0 461908.0 0
347769.0 457602.0 0
352318.0 458441.0 0
355563.0 461689.0 0
361058.0 457378.0 0
357377.0 457857.0 0
360737.0 462072.0 0
365761.0 460532.0 0
376465.0 462096.0 0
383060.0 461029.0 0
386166.0 456683.0 0
388970.0 460756.0 0
391187.0 456334.0 0
395252.0 457840.0 0
392593.0 463798.0 0
397790.0 462032.0 0
403875.0 460701.0 0
408483.0 458775.0 0
412744.0 460969.0 0
417737.0 462420.0 0
422013.0 461913.0 0
425187.0 459599.0 0
428949.0 461854.0 0
431947.0 464569.0 0
436111.0 463308.0 0
440303.0 465853.0 0
54126.6 470187.0 0
59955.7 471167.0 0
63440.3 467552.0 0
67356.4 467208.0 0
71011.5 469443.0 0
75360.8 466207.0 0
80646.8 464696.0 0
85867.6 463663.0 0
83565.0 468082.0 0
90650.4 464539.0 0
86761.2 467711.0 0
94434.0 467134.0 0
97867.0 463345.0 0
105431.0 462432.0 0
109493.0 467033.0 0
114363.0 462716.0 0
118219.0 463111.0 0
122183.0 463033.0 0
125030.0 466780.0 0
131621.0 464283.0 0
136845.0 463909.0 0
146513.0 462892.0 0
152008.0 464562.0 0
156917.0 466711.0 0
161869.0 463359.0 0
166623.0 465324.0 0
176354.0 462759.0 0
182282.0 466443.0 0
188095.0 463215.0 0
194305.0 462961.0 0
204290.0 463399.0 0
208112.0 463053.0 0
217709.0 463501.0 0
214380.0 467453.0 0
222570.0 462631.0 0
222080.0 466894.0 0
232452.0 463506.0 0
237441.0 463284.0 0
237826.0 466616.0 0
241806.0 463936.0 0
246865.0 462487.0 0
251810.0 463767.0 0
255885.0 466910.0 0
262700.0 462815.0 0
260349.0 466569.0 0
266358.0 466792.0 0
278350.0 466896.0 0
283536.0 463675.0 0
287195.0 463760.0 0
288750.0 466906.0 0
290988.0 462618.0 0
302194.0 463384.0 0
307646.0 462747.0 0
313141.0 463864.0 0
318124.0 462911.0 0
320995.0 467159.0 0
326616.0 463879.0 0
329716.0 467319.0 0
336253.0 462367.0 0
331642.0 463480.0 0
339528.0 466676.0 0
351510.0 463266.0 0
356863.0 465659.0 0
365548.0 465519.0 0
370066.0 462749.0 0
381175.0 466344.0 0
386722.0 464570.0 0
401661.0 465258.0 0
408775.0 463448.0 0
405804.0 466857.0 0
412997.0 465837.0 0
417321.0 466782.0 0
421165.0 465770.0 0
425585.0 464286.0 0
424481.0 468381.0 0
429418.0 468197.0 0
435305.0 468092.0 0
440072.0 470029.0 0
444819.0 469062.0 0
450632.0 471920.0 0
44178.2 475394.0 0
48630.3 472938.0 0
52483.8 476167.0 0
56210.5 473352.0 0
57892.5 475873.0 0
65499.2 471573.0 0
62202.6 474674.0 0
68972.6 473297.0 0
72817.3 474044.0 0
75220.9 470433.0 0
79341.5 469468.0 0
77415.7 474091.0 0
81895.4 473169.0 0
85908.1 471401.0 0
90096.9 469341.0 0
93870.8 472035.0 0
97796.6 470054.0 0
102126.0 467280.0 0
105763.0 470590.0 0
113414.0 471545.0 0
114830.0 466966.0 0
119765.0 467514.0 0
123396.0 471864.0 0
128157.0 472132.0 0
128597.0 468642.0 0
133625.0 468892.0 0
137542.0 472425.0 0
138175.0 467790.0 0
142778.0 468042.0 0
147766.0 471833.0 0
148161.0 467493.0 0
153599.0 469204.0 0
160472.0 468125.0 0
164460.0 468980.0 0
167356.0 471567.0 0
170907.0 467943.0 0
177094.0 469322.0 0
186675.0 468844.0 0
191689.0 468349.0 0
193743.0 472428.0 0
197259.0 467693.0 0
203083.0 467551.0 0
208770.0 469404.0 0
218745.0 468717.0 0
216348.0 472066.0 0
221205.0 472363.0 0
227562.0 467557.0 0
234292.0 467906.0 0
232003.0 472434.0 0
237952.0 471351.0 0
241804.0 468536.0 0
246272.0 467675.0 0
251530.0 469025.0 0
257731.0 472093.0 0
262636.0 470151.0 0
271758.0 468483.0 0
284347.0 468412.0 0
288807.0 472225.0 0
292967.0 468636.0 0
298924.0 468554.0 0
303979.0 468767.0 0
307500.0 468591.0 0
312164.0 468413.0 0
316172.0 467570.0 0
316801.0 472009.0 0
325731.0 468833.0 0
334184.0 469261.0 0
341302.0 472264.0 0
345788.0 468160.0 0
352462.0 468816.0 0
361018.0 468316.0 0
357277.0 472517.0 0
365906.0 470420.0 0
370651.0 468347.0 0
376446.0 469816.0 0
385232.0 468574.0 0
386040.0 472616.0 0
390651.0 469416.0 0
396830.0 467926.0 0
401445.0 468732.0 0
399753.0 472259.0 0
404593.0 471650.0 0
409755.0 469107.0 0
408549.0 472932.0 0
412343.0 472708.0 0
415035.0 469726.0 0
416005.0 473143.0 0
420066.0 470784.0 0
424895.0 471873.0 0
428501.0 473381.0 0
432539.0 471511.0 0
437074.0 473347.0 0
443632.0 472545.0 0
441174.0 473923.0 0
447426.0 472461.0 0
449700.0 475452.0 0
454481.0 475258.0 0
37343.2 478941.0 0
40256.9 476803.0 0
42035.6 480084.0 0
47396.2 477845.0 0
50504.6 481739.0 0
55586.1 480062.0 0
65288.8 476299.0 0
60961.8 479066.0 0
69354.2 477186.0 0
73766.0 478599.0 0
80700.6 477767.0 0
77024.4 477793.0 0
85384.7 476236.0 0
89875.4 474287.0 0
94138.5 477054.0 0
97383.3 473995.0 0
101224.0 472633.0 0
99989.3 476965.0 0
104611.0 474094.0 0
108789.0 473943.0 0
104316.0 477931.0 0
112839.0 476391.0 0
118221.0 473537.0 0
132271.0 473278.0 0
128464.0 477431.0 0
134222.0 477764.0 0
143093.0 473803.0 0
152454.0 473899.0 0
158546.0 472921.0 0
162017.0 477396.0 0
164154.0 473511.0 0
166860.0 477258.0 0
171095.0 473947.0 0
176819.0 475604.0 0
182995.0 473348.0 0
189260.0 473273.0 0
198286.0 473597.0 0
203206.0 472650.0 0
202640.0 477213.0 0
207352.0 474787.0 0
212141.0 473647.0 0
226341.0 474175.0 0
236059.0 476349.0 0
242861.0 473172.0 0
248052.0 472764.0 0
252900.0 473056.0 0
250937.0 477220.0 0
262845.0 475727.0 0
267590.0 472710.0 0
272684.0 474364.0 0
278457.0 473549.0 0
283547.0 472994.0 0
282066.0 476926.0 0
293462.0 473183.0 0
293010.0 477617.0 0
297468.0 474586.0 0
302639.0 473072.0 0
301830.0 476984.0 0
306967.0 473437.0 0
311792.0 473172.0 0
316751.0 477124.0 0
322109.0 472773.0 0
330698.0 472692.0 0
326955.0 473569.0 0
333632.0 476917.0 0
336932.0 473154.0 0
345992.0 474255.0 0
350893.0 474380.0 0
354764.0 476627.0 0
362278.0 473287.0 0
369101.0 473713.0 0
373395.0 474192.0 0
381310.0 473147.0 0
377133.0 477749.0 0
381322.0 477234.0 0
384938.0 476988.0 0
389623.0 475618.0 0
394967.0 474329.0 0
400088.0 477726.0 0
406084.0 477114.0 0
410606.0 476042.0 0
414662.0 476993.0 0
418598.0 475303.0 0
423356.0 476026.0 0
428018.0 478670.0 0
433063.0 476479.0 0
440729.0 477661.0 0
445500.0 475998.0 0
445356.0 480582.0 0
448669.0 478505.0 0
451654.0 478433.0 0
459538.0 477748.0 0
456154.0 479930.0 0
463674.0 481152.0 0
29794.2 483829.0 0
26611.3 486118.0 0
33834.4 482277.0 0
37783.4 482151.0 0
36079.2 486223.0 0
39576.5 484650.0 0
43215.3 484838.0 0
46148.6 481617.0 0
47035.4 484863.0 0
54109.4 484785.0 0
57952.7 482968.0 0
61279.1 483455.0 0
65743.6 481213.0 0
70416.6 481260.0 0
74009.9 484325.0 0
77307.4 480868.0 0
80560.6 482048.0 0
84262.4 481035.0 0
89361.0 480173.0 0
93933.3 482176.0 0
97427.0 480170.0 0
101367.0 481299.0 0
108963.0 479112.0 0
113577.0 482637.0 0
116689.0 478222.0 0
122093.0 477824.0 0
119273.0 482887.0 0
131779.0 482269.0 0
139554.0 478170.0 0
144501.0 478432.0 0
149079.0 477955.0 0
153430.0 478676.0 0
157626.0 478675.0 0
162206.0 482071.0 0
167320.0 482342.0 0
172360.0 479718.0 0
177110.0 479928.0 0
181393.0 480005.0 0
186913.0 478263.0 0
192441.0 477794.0 0
197865.0 479303.0 0
202669.0 482664.0 0
206652.0 479396.0 0
210634.0 478181.0 0
212151.0 482559.0 0
216398.0 477955.0 0
222698.0 478047.0 0
228338.0 479718.0 0
234006.0 480871.0 0
240974.0 478779.0 0
246451.0 479321.0 0
252344.0 481536.0 0
256787.0 478300.0 0
268267.0 478121.0 0
272888.0 479252.0 0
277843.0 479561.0 0
282783.0 482321.0 0
287084.0 478311.0 0
297847.0 479927.0 0
306113.0 478918.0 0
311357.0 478878.0 0
322177.0 478686.0 0
325567.0 481934.0 0
327809.0 478171.0 0
336937.0 480609.0 0
341528.0 478268.0 0
347251.0 479120.0 0
351516.0 478732.0 0
355195.0 481201.0 0
359624.0 477895.0 0
365500.0 477403.0 0
371214.0 479223.0 0
382132.0 481567.0 0
387731.0 480600.0 0
392746.0 480166.0 0
396930.0 481374.0 0
406045.0 483388.0 0
410675.0 480415.0 0
415410.0 481659.0 0
419391.0 479497.0 0
423952.0 481435.0 0
428286.0 483590.0 0
432544.0 481929.0 0
436997.0 479932.0 0
437039.0 484599.0 0
441414.0 482694.0 0
446021.0 485566.0 0
449665.0 482566.0 0
453153.0 481426.0 0
459481.0 482749.0 0
468451.0 483027.0 0
465245.0 486639.0 0
472045.0 486185.0 0
19268.5 490542.0 0
22826.7 488331.0 0
26665.9 490420.0 0
31392.0 487419.0 0
30532.7 491821.0 0
35291.2 491057.0 0
40137.0 488938.0 0
44830.4 488337.0 0
49703.8 487513.0 0
58324.0 487495.0 0
63662.4 486571.0 0
68721.0 485362.0 0
66812.7 489947.0 0
71474.4 488820.0 0
75157.4 488630.0 0
79611.5 486771.0 0
85638.1 485924.0 0
90788.0 485591.0 0
97821.5 484628.0 0
94430.0 488974.0 0
102179.0 485929.0 0
105110.0 483290.0 0
107748.0 487372.0 0
108852.0 483326.0 0
127586.0 482753.0 0
124003.0 483623.0 0
129069.0 486356.0 0
135708.0 484172.0 0
140184.0 483747.0 0
138328.0 487682.0 0
145484.0 483101.0 0
151157.0 483140.0 0
157120.0 484056.0 0
162050.0 487609.0 0
167382.0 487300.0 0
171577.0 485035.0 0
176293.0 483664.0 0
181060.0 485611.0 0
185859.0 483548.0 0
191636.0 483675.0 0
197374.0 484835.0 0
207630.0 483417.0 0
217227.0 484340.0 0
223358.0 484014.0 0
228983.0 485719.0 0
233411.0 485334.0 0
238458.0 484523.0 0
243838.0 483848.0 0
248943.0 483464.0 0
246536.0 487841.0 0
251472.0 487392.0 0
255549.0 484396.0 0
262544.0 482912.0 0
268730.0 483088.0 0
273486.0 483789.0 0
278377.0 484950.0 0
287947.0 484334.0 0
293176.0 482948.0 0
293238.0 487438.0 0
297665.0 485203.0 0
302559.0 482855.0 0
308331.0 483834.0 0
313173.0 483421.0 0
311921.0 487627.0 0
317333.0 482867.0 0
316649.0 487459.0 0
322060.0 484245.0 0
326259.0 487798.0 0
329556.0 483387.0 0
334572.0 484030.0 0
339806.0 484307.0 0
345327.0 485119.0 0
350396.0 483251.0 0
355452.0 486796.0 0
359879.0 483807.0 0
365373.0 483097.0 0
369823.0 484389.0 0
375836.0 484826.0 0
385118.0 485848.0 0
389848.0 484865.0 0
395359.0 485686.0 0
400616.0 483585.0 0
410460.0 485345.0 0
412766.0 483496.0 0
414420.0 485784.0 0
413438.0 489785.0 0
419696.0 485453.0 0
424943.0 485627.0 0
428466.0 488190.0 0
432679.0 486739.0 0
437323.0 489797.0 0
441712.0 487426.0 0
448540.0 488831.0 0
445373.0 490030.0 0
450468.0 486822.0 0
452809.0 490357.0 0
455042.0 485701.0 0
461777.0 490404.0 0
460149.0 486769.0 0
468720.0 489873.0 0
472413.0 491268.0 0
477050.0 489552.0 0
482340.0 492688.0 0
11375.2 495369.0 0
8639.39 496308.0 0
15741.2 494027.0 0
22755.6 491612.0 0
21371.3 495149.0 0
26741.4 495150.0 0
31791.1 495429.0 0
37026.7 495773.0 0
41740.6 493125.0 0
46613.8 491860.0 0
44977.2 495489.0 0
51384.2 491832.0 0
48991.3 495569.0 0
53894.0 488863.0 0
54141.5 495732.0 0
55967.3 491374.0 0
58787.7 494118.0 0
61389.4 490678.0 0
69836.0 493654.0 0
74020.2 491879.0 0
78845.5 493058.0 0
84416.7 491202.0 0
89568.6 490596.0 0
99297.3 489225.0 0
101097.0 492994.0 0
103759.0 489923.0 0
107793.0 492792.0 0
113063.0 489395.0 0
119139.0 488555.0 0
122750.0 493109.0 0
124672.0 488226.0 0
128954.0 492684.0 0
133856.0 488521.0 0
138064.0 491577.0 0
142374.0 488572.0 0
147868.0 488275.0 0
153426.0 488269.0 0
157605.0 490035.0 0
170960.0 489066.0 0
173524.0 492301.0 0
168620.0 492585.0 0
176885.0 488665.0 0
182411.0 490423.0 0
186961.0 488568.0 0
191606.0 488976.0 0
196411.0 490284.0 0
201670.0 488137.0 0
207197.0 488386.0 0
213032.0 488098.0 0
219830.0 489422.0 0
224939.0 489328.0 0
228679.0 489814.0 0
232693.0 489093.0 0
237008.0 489767.0 0
242077.0 488071.0 0
241292.0 492985.0 0
246734.0 492773.0 0
252430.0 492899.0 0
257770.0 489663.0 0
262739.0 488979.0 0
268247.0 488703.0 0
274059.0 488740.0 0
279347.0 490467.0 0
284566.0 488416.0 0
283959.0 492865.0 0
289623.0 489289.0 0
292595.0 492717.0 0
296556.0 490137.0 0
302339.0 488592.0 0
307427.0 489093.0 0
312198.0 492853.0 0
321186.0 489355.0 0
317455.0 492504.0 0
327895.0 492424.0 0
331624.0 488291.0 0
337141.0 489758.0 0
342604.0 489632.0 0
346433.0 489594.0 0
350674.0 488402.0 0
349006.0 492579.0 0
354779.0 493005.0 0
361031.0 489827.0 0
366044.0 487918.0 0
370546.0 488821.0 0
381026.0 488250.0 0
377444.0 491295.0 0
384989.0 490544.0 0
389323.0 489461.0 0
393306.0 490229.0 0
397824.0 490650.0 0
402675.0 488617.0 0
408186.0 489509.0 0
411843.0 494361.0 0
418582.0 491768.0 0
423182.0 494586.0 0
423886.0 489875.0 0
428232.0 493263.0 0
432555.0 491410.0 0
436385.0 494848.0 0
441797.0 492008.0 0
445819.0 494199.0 0
449289.0 491858.0 0
455519.0 494148.0 0
457551.0 490393.0 0
460855.0 494757.0 0
465201.0 492319.0 0
468907.0 494139.0 0
472668.0 495470.0 0
475432.0 493402.0 0
476334.0 496280.0 0
478576.0 494231.0 0
487079.0 494843.0 0
490747.0 497129.0 0
2737.45 500060.0 0
3567.85 504072.0 0
7139.24 499351.0 0
12715.8 499396.0 0
18295.6 499365.0 0
24146.5 499690.0 0
28718.8 498760.0 0
33088.3 499690.0 0
37518.2 501525.0 0
41465.5 497902.0 0
42053.5 502306.0 0
46138.4 499981.0 0
50851.5 499104.0 0
59544.3 498523.0 0
64025.3 495014.0 0
68427.4 498596.0 0
73959.8 497308.0 0
83201.9 495936.0 0
79401.5 499334.0 0
87517.8 495354.0 0
92999.9 495293.0 0
97382.4 493089.0 0
99646.7 496958.0 0
103909.0 495195.0 0
111811.0 494771.0 0
108423.0 497681.0 0
116928.0 494609.0 0
128264.0 498012.0 0
134331.0 493342.0 0
142494.0 493830.0 0
139062.0 497777.0 0
148515.0 494896.0 0
153891.0 493078.0 0
158250.0 494220.0 0
163303.0 493432.0 0
167037.0 497455.0 0
177903.0 493071.0 0
181686.0 494988.0 0
186532.0 493831.0 0
191641.0 493483.0 0
195961.0 495986.0 0
201194.0 493729.0 0
207206.0 494450.0 0
212151.0 493028.0 0
212790.0 497649.0 0
216861.0 494220.0 0
221627.0 495065.0 0
226085.0 493857.0 0
231032.0 493171.0 0
232479.0 497941.0 0
235885.0 494402.0 0
246774.0 497607.0 0
257587.0 494879.0 0
263728.0 494475.0 0
269620.0 494360.0 0
274589.0 493710.0 0
271752.0 498106.0 0
279885.0 495810.0 0
284231.0 497274.0 0
288538.0 494310.0 0
293529.0 497260.0 0
298645.0 494893.0 0
303558.0 493577.0 0
307695.0 493480.0 0
306612.0 497357.0 0
316728.0 497330.0 0
323280.0 494297.0 0
328490.0 497136.0 0
332582.0 493406.0 0
337363.0 495063.0 0
341401.0 493580.0 0
344953.0 493238.0 0
343683.0 497449.0 0
360115.0 494991.0 0
366170.0 492779.0 0
368498.0 497861.0 0
372614.0 493748.0 0
376923.0 495756.0 0
381598.0 494796.0 0
386402.0 494709.0 0
390580.0 493775.0 0
394944.0 494037.0 0
395548.0 498160.0 0
399132.0 495525.0 0
403100.0 493594.0 0
407217.0 494519.0 0
415759.0 495384.0 0
414980.0 499150.0 0
419511.0 497389.0 0
426489.0 497789.0 0
432019.0 498063.0 0
437494.0 499939.0 0
441631.0 496789.0 0
446128.0 498227.0 0
450601.0 496348.0 0
454534.0 497775.0 0
457847.0 498531.0 0
465538.0 496591.0 0
462230.0 499666.0 0
466529.0 500885.0 0
469842.0 498609.0 0
474732.0 499959.0 0
479579.0 498162.0 0
482212.0 501796.0 0
483997.0 497917.0 0
486619.0 502130.0 0
487945.0 498879.0 0
491128.0 501462.0 0
494330.0 499033.0 0
2106.21 507912.0 0
9383.52 504019.0 0
15374.2 504320.0 0
20783.7 503422.0 0
24998.9 503887.0 0
29563.3 503059.0 0
39892.0 505962.0 0
49968.4 503167.0 0
55151.9 501617.0 0
60058.2 502978.0 0
63838.5 500508.0 0
67658.6 503296.0 0
71438.6 501462.0 0
75249.9 502567.0 0
84896.7 500469.0 0
89642.4 499522.0 0
92996.9 501186.0 0
96022.4 499356.0 0
99416.8 502239.0 0
103974.0 499595.0 0
112946.0 498977.0 0
108426.0 502863.0 0
118757.0 500311.0 0
123762.0 498400.0 0
129175.0 502438.0 0
133379.0 498359.0 0
143676.0 498638.0 0
144204.0 502710.0 0
152160.0 498765.0 0
148246.0 500853.0 0
152675.0 503063.0 0
156819.0 499027.0 0
161718.0 498326.0 0
162914.0 502477.0 0
168206.0 502897.0 0
173350.0 498505.0 0
178706.0 498699.0 0
183727.0 499566.0 0
189504.0 498692.0 0
193961.0 499790.0 0
199771.0 498733.0 0
203904.0 499300.0 0
208403.0 499588.0 0
212103.0 502597.0 0
219078.0 498979.0 0
223351.0 498522.0 0
222498.0 502756.0 0
227642.0 498564.0 0
232489.0 502647.0 0
237852.0 498806.0 0
237130.0 503105.0 0
242393.0 499385.0 0
246133.0 502616.0 0
251955.0 499148.0 0
257389.0 499174.0 0
262214.0 500673.0 0
267685.0 498540.0 0
272439.0 502005.0 0
276088.0 498534.0 0
283042.0 502640.0 0
288513.0 499548.0 0
292589.0 502839.0 0
298728.0 499649.0 0
302540.0 498442.0 0
306763.0 502081.0 0
311602.0 498551.0 0
315987.0 502230.0 0
321190.0 499282.0 0
324700.0 498204.0 0
326044.0 502944.0 0
333906.0 499045.0 0
339329.0 499138.0 0
343152.0 502426.0 0
349585.0 498201.0 0
356123.0 499787.0 0
362554.0 499670.0 0
373862.0 499117.0 0
378593.0 499592.0 0
382457.0 501007.0 0
386213.0 499016.0 0
385737.0 503604.0 0
391049.0 498792.0 0
395596.0 502603.0 0
399230.0 500050.0 0
403439.0 498393.0 0
409305.0 499739.0 0
413794.0 504041.0 0
418776.0 502513.0 0
423157.0 500753.0 0
428294.0 502710.0 0
433981.0 504042.0 0
438863.0 504294.0 0
443663.0 502419.0 0
449058.0 501128.0 0
448353.0 505379.0 0
451694.0 503973.0 0
453862.0 501020.0 0
454603.0 504726.0 0
458632.0 503248.0 0
463665.0 504034.0 0
471332.0 502935.0 0
468041.0 504567.0 0
478543.0 501836.0 0
475493.0 504827.0 0
480093.0 504963.0 0
489550.0 504915.0 0
484374.0 505123.0 0
493757.0 505275.0 0
497445.0 501320.0 0
497851.0 505490.0 0
2120.99 511231.0 0
6355.36 507891.0 0
11518.0 508645.0 0
16101.2 509090.0 0
19132.2 506912.0 0
20103.2 510430.0 0
22878.2 507234.0 0
27488.2 507282.0 0
34223.1 506275.0 0
34941.1 510325.0 0
38099.0 509810.0 0
45169.8 505817.0 0
50032.8 507476.0 0
54928.6 507223.0 0
59771.6 507502.0 0
63698.8 505002.0 0
64054.9 508626.0 0
67751.0 507540.0 0
71540.3 505527.0 0
75353.2 506665.0 0
79638.9 504880.0 0
83549.1 508015.0 0
86367.2 504743.0 0
90189.4 503748.0 0
94861.4 505195.0 0
100016.0 507812.0 0
103572.0 504235.0 0
105158.0 508016.0 0
114089.0 504324.0 0
119494.0 505647.0 0
124176.0 503554.0 0
128948.0 507577.0 0
133776.0 504074.0 0
139158.0 503487.0 0
147106.0 505089.0 0
143429.0 506920.0 0
150860.0 507088.0 0
158423.0 503431.0 0
155811.0 507038.0 0
161337.0 507393.0 0
172682.0 504199.0 0
177322.0 503935.0 0
182495.0 504483.0 0
187171.0 503593.0 0
192340.0 503813.0 0
189362.0 508307.0 0
198004.0 503465.0 0
194296.0 508313.0 0
202975.0 503291.0 0
203834.0 507506.0 0
207376.0 504290.0 0
213171.0 507873.0 0
217244.0 504047.0 0
227473.0 504116.0 0
231651.0 506834.0 0
235635.0 507238.0 0
241411.0 503839.0 0
241067.0 508228.0 0
250365.0 504210.0 0
254536.0 503649.0 0
258819.0 504321.0 0
257760.0 508043.0 0
262588.0 507281.0 0
267352.0 503864.0 0
272353.0 506655.0 0
277102.0 503827.0 0
288047.0 504089.0 0
293300.0 508297.0 0
297203.0 503559.0 0
297966.0 507400.0 0
301924.0 503468.0 0
306668.0 506950.0 0
311300.0 503959.0 0
320330.0 503702.0 0
317113.0 507996.0 0
322829.0 508147.0 0
326645.0 507867.0 0
332433.0 505104.0 0
338135.0 504109.0 0
344953.0 506846.0 0
347983.0 503752.0 0
349529.0 508412.0 0
352801.0 504371.0 0
357678.0 505323.0 0
362239.0 505097.0 0
366670.0 503838.0 0
371275.0 503139.0 0
371894.0 507982.0 0
376220.0 504411.0 0
380674.0 504030.0 0
382383.0 508305.0 0
391168.0 503594.0 0
388424.0 507992.0 0
395506.0 507558.0 0
400204.0 504795.0 0
404797.0 503070.0 0
404904.0 508896.0 0
408895.0 505967.0 0
417799.0 507488.0 0
423587.0 506862.0 0
430308.0 507533.0 0
436625.0 507994.0 0
441028.0 508175.0 0
445052.0 506920.0 0
444373.0 509571.0 0
448218.0 510503.0 0
452211.0 507378.0 0
461217.0 507726.0 0
456670.0 507987.0 0
466181.0 507910.0 0
471496.0 507867.0 0
477827.0 508178.0 0
482329.0 508689.0 0
487810.0 508791.0 0
492597.0 509520.0 0
489523.0 513622.0 0
497272.0 509759.0 0
2790.14 515253.0 0
7380.97 512330.0 0
10408.5 516337.0 0
12424.3 512816.0 0
16418.1 513057.0 0
21115.7 515457.0 0
24945.9 511392.0 0
30857.6 511370.0 0
36482.6 514109.0 0
46789.7 511247.0 0
42332.1 510103.0 0
49105.9 516174.0 0
52270.1 511694.0 0
57025.7 511377.0 0
54081.9 515637.0 0
61463.4 511925.0 0
66691.8 512007.0 0
72179.8 510673.0 0
78072.3 510121.0 0
75551.7 512934.0 0
82297.6 512345.0 0
89256.5 509165.0 0
95117.9 510607.0 0
103307.0 512177.0 0
109914.0 508365.0 0
114840.0 509748.0 0
119680.0 510870.0 0
124140.0 508556.0 0
129076.0 512725.0 0
133540.0 508561.0 0
133968.0 513067.0 0
138025.0 508842.0 0
141977.0 511457.0 0
146939.0 509225.0 0
150914.0 512783.0 0
156965.0 512266.0 0
162788.0 513344.0 0
167317.0 508967.0 0
173078.0 508480.0 0
171137.0 513341.0 0
178205.0 509423.0 0
183254.0 513138.0 0
183837.0 509207.0 0
187307.0 513357.0 0
192675.0 512899.0 0
199153.0 509120.0 0
202976.0 512567.0 0
208327.0 509333.0 0
211064.0 513400.0 0
217896.0 509342.0 0
222500.0 508508.0 0
227501.0 508694.0 0
231687.0 511025.0 0
237673.0 513009.0 0
246282.0 508489.0 0
252723.0 508938.0 0
257365.0 511382.0 0
260307.0 513414.0 0
268510.0 508586.0 0
265467.0 512437.0 0
272349.0 512970.0 0
276525.0 508864.0 0
282741.0 508438.0 0
285618.0 512622.0 0
287903.0 508499.0 0
290254.0 512418.0 0
297271.0 512666.0 0
302071.0 509497.0 0
306794.0 512315.0 0
311335.0 509195.0 0
323351.0 513096.0 0
331452.0 509548.0 0
327964.0 511394.0 0
335497.0 509964.0 0
340629.0 508830.0 0
340561.0 513401.0 0
345251.0 512099.0 0
355084.0 510437.0 0
361076.0 509886.0 0
366620.0 509155.0 0
376857.0 510095.0 0
372695.0 512829.0 0
392330.0 510646.0 0
395919.0 512621.0 0
400172.0 510318.0 0
408719.0 511947.0 0
413230.0 509563.0 0
417875.0 511858.0 0
422391.0 512888.0 0
427879.0 511667.0 0
433635.0 511395.0 0
438605.0 512334.0 0
443283.0 512577.0 0
450411.0 515254.0 0
453854.0 511710.0 0
458985.0 512502.0 0
463538.0 511367.0 0
464489.0 515444.0 0
468490.0 512184.0 0
475209.0 510733.0 0
472998.0 514509.0 0
476841.0 514100.0 0
479231.0 511784.0 0
479802.0 515345.0 0
484344.0 513455.0 0
493852.0 513395.0 0
497819.0 514153.0 0
2501.19 519991.0 0
6496.26 517537.0 0
14282.0 516657.0 0
12075.5 520547.0 0
17039.2 516391.0 0
17328.7 520308.0 0
22882.5 520893.0 0
27011.2 516585.0 0
31224.8 520046.0 0
31529.8 515845.0 0
33966.5 517255.0 0
42645.8 515579.0 0
46069.2 520342.0 0
53129.9 519202.0 0
58471.3 515832.0 0
63606.8 516220.0 0
69315.5 517193.0 0
73803.5 515144.0 0
78348.4 515740.0 0
83909.3 516862.0 0
89408.3 515534.0 0
94211.3 515036.0 0
98760.4 514628.0 0
103391.0 517864.0 0
108660.0 514379.0 0
114495.0 514704.0 0
119396.0 516057.0 0
123966.0 513596.0 0
126874.0 518378.0 0
132712.0 518004.0 0
138294.0 514647.0 0
142454.0 518304.0 0
145717.0 514104.0 0
147876.0 517882.0 0
152748.0 518447.0 0
157601.0 517349.0 0
167296.0 517360.0 0
172564.0 518340.0 0
175503.0 514983.0 0
179761.0 514100.0 0
183609.0 517232.0 0
190507.0 517919.0 0
197991.0 514743.0 0
203390.0 517895.0 0
206908.0 514820.0 0
212593.0 517976.0 0
215723.0 513675.0 0
217691.0 518396.0 0
221215.0 513779.0 0
227157.0 514027.0 0
232861.0 518297.0 0
243933.0 513690.0 0
242346.0 517886.0 0
248983.0 513445.0 0
246673.0 517764.0 0
254232.0 515052.0 0
262661.0 517645.0 0
268060.0 517683.0 0
279446.0 513568.0 0
283916.0 516798.0 0
288968.0 517475.0 0
293424.0 515624.0 0
298777.0 518383.0 0
302247.0 514582.0 0
302757.0 518035.0 0
307343.0 517822.0 0
312257.0 515254.0 0
318228.0 513823.0 0
316301.0 518601.0 0
327468.0 517241.0 0
332204.0 513850.0 0
336740.0 514758.0 0
340407.0 517525.0 0
350565.0 514197.0 0
358936.0 514726.0 0
363857.0 514323.0 0
362106.0 518116.0 0
368423.0 513797.0 0
376383.0 515424.0 0
372461.0 518039.0 0
380328.0 513541.0 0
385762.0 513793.0 0
391703.0 515425.0 0
396203.0 517659.0 0
399536.0 515151.0 0
404218.0 514179.0 0
413025.0 515157.0 0
418275.0 516151.0 0
422129.0 517011.0 0
426383.0 516509.0 0
431534.0 516081.0 0
436453.0 516389.0 0
440884.0 515654.0 0
445455.0 517112.0 0
451084.0 519580.0 0
455687.0 516888.0 0
460591.0 517619.0 0
465134.0 520001.0 0
468872.0 517029.0 0
472570.0 519044.0 0
476787.0 517813.0 0
482508.0 517939.0 0
487189.0 517820.0 0
491980.0 517632.0 0
497573.0 518225.0 0
2473.97 524534.0 0
7084.18 522010.0 0
10558.3 524241.0 0
14498.0 524627.0 0
19761.3 525109.0 0
27300.7 523041.0 0
32018.9 524897.0 0
37426.5 520477.0 0
41618.7 524804.0 0
42407.3 520689.0 0
46375.5 524847.0 0
50037.2 520913.0 0
57142.5 520518.0 0
54701.8 523894.0 0
59424.8 525389.0 0
62926.1 520993.0 0
67434.3 521912.0 0
71650.4 521705.0 0
74484.2 518815.0 0
80439.9 519780.0 0
79742.9 523642.0 0
83947.5 521747.0 0
88569.4 520975.0 0
93475.8 519494.0 0
98440.9 519639.0 0
101871.0 523391.0 0
107595.0 520388.0 0
111858.0 518923.0 0
112328.0 523729.0 0
116454.0 520420.0 0
121705.0 520761.0 0
127735.0 523483.0 0
132316.0 523275.0 0
137341.0 519230.0 0
146479.0 522827.0 0
156298.0 522334.0 0
162111.0 518902.0 0
178292.0 519339.0 0
186295.0 521608.0 0
191162.0 523194.0 0
195461.0 519454.0 0
199827.0 520080.0 0
208197.0 518838.0 0
204991.0 522418.0 0
211804.0 522581.0 0
223437.0 518555.0 0
221882.0 523018.0 0
227814.0 519004.0 0
226878.0 523508.0 0
232143.0 522560.0 0
238099.0 519012.0 0
241606.0 522391.0 0
246925.0 522867.0 0
251506.0 519492.0 0
257658.0 519383.0 0
261531.0 522969.0 0
266293.0 522120.0 0
273576.0 519598.0 0
279379.0 519747.0 0
284825.0 521914.0 0
290182.0 522293.0 0
293786.0 519832.0 0
297412.0 522791.0 0
302693.0 521194.0 0
307372.0 521754.0 0
312747.0 521061.0 0
321200.0 518819.0 0
316868.0 522840.0 0
326001.0 522587.0 0
333243.0 518845.0 0
337481.0 520399.0 0
341449.0 523186.0 0
346133.0 518617.0 0
350172.0 523020.0 0
352104.0 519014.0 0
357587.0 520273.0 0
362903.0 523607.0 0
366961.0 518971.0 0
372099.0 522735.0 0
376890.0 520134.0 0
380616.0 523671.0 0
382214.0 519112.0 0
387941.0 519567.0 0
392875.0 520483.0 0
396896.0 523876.0 0
400357.0 519632.0 0
405765.0 519680.0 0
411284.0 520396.0 0
415416.0 518953.0 0
415786.0 523029.0 0
418922.0 520197.0 0
423711.0 521545.0 0
429554.0 520641.0 0
433984.0 519723.0 0
436197.0 523591.0 0
440319.0 520205.0 0
445805.0 523116.0 0
450533.0 523194.0 0
455509.0 522986.0 0
460881.0 521949.0 0
465116.0 524813.0 0
469342.0 521081.0 0
470225.0 525159.0 0
475505.0 522695.0 0
479844.0 520882.0 0
484414.0 521787.0 0
489388.0 522032.0 0
494713.0 522146.0 0
2698.55 529347.0 0
6804.28 526689.0 0
11135.2 527674.0 0
16569.7 528867.0 0
23661.2 527460.0 0
27866.9 527451.0 0
36594.4 526133.0 0
39706.2 529783.0 0
44134.7 528219.0 0
50843.2 524740.0 0
54119.0 528139.0 0
65071.0 525342.0 0
69481.9 525136.0 0
74701.5 525630.0 0
79548.3 528429.0 0
83518.7 525885.0 0
87130.0 524798.0 0
91046.4 524689.0 0
96097.4 524379.0 0
107123.0 525444.0 0
118703.0 525182.0 0
123660.0 525251.0 0
124691.0 528738.0 0
128501.0 528066.0 0
137318.0 523818.0 0
132948.0 527612.0 0
136896.0 528497.0 0
141820.0 524992.0 0
146551.0 528754.0 0
151672.0 525029.0 0
156649.0 528394.0 0
162014.0 525194.0 0
169447.0 523693.0 0
172470.0 528628.0 0
176115.0 525108.0 0
181740.0 524127.0 0
179416.0 528666.0 0
189443.0 527675.0 0
193766.0 528696.0 0
195895.0 524119.0 0
197610.0 528426.0 0
200642.0 525364.0 0
208553.0 524570.0 0
206411.0 526934.0 0
212427.0 528332.0 0
216688.0 523742.0 0
216976.0 528259.0 0
221136.0 527848.0 0
225897.0 528518.0 0
231131.0 526947.0 0
236239.0 523889.0 0
240534.0 527600.0 0
248605.0 527617.0 0
251579.0 523743.0 0
252715.0 527395.0 0
256275.0 524519.0 0
260083.0 527589.0 0
265471.0 527369.0 0
270506.0 524384.0 0
272732.0 527886.0 0
275463.0 528468.0 0
276604.0 524549.0 0
281916.0 527459.0 0
288303.0 527017.0 0
293819.0 524429.0 0
298808.0 527221.0 0
304661.0 525878.0 0
310047.0 524343.0 0
309172.0 528031.0 0
313814.0 525872.0 0
317573.0 527803.0 0
321446.0 524792.0 0
327598.0 527085.0 0
331652.0 523853.0 0
336451.0 524517.0 0
332500.0 528572.0 0
346311.0 524280.0 0
341922.0 528719.0 0
351452.0 527907.0 0
346924.0 528642.0 0
354130.0 524458.0 0
357545.0 527811.0 0
368013.0 524149.0 0
368326.0 528377.0 0
376371.0 525258.0 0
382129.0 527624.0 0
385089.0 524067.0 0
391062.0 525346.0 0
395043.0 528550.0 0
399877.0 528836.0 0
402566.0 524229.0 0
407278.0 524594.0 0
405048.0 528540.0 0
411607.0 525346.0 0
415609.0 528355.0 0
419856.0 525332.0 0
425303.0 527410.0 0
431182.0 526130.0 0
436534.0 528933.0 0
440828.0 525799.0 0
446904.0 528630.0 0
451243.0 526752.0 0
455322.0 528528.0 0
460222.0 526919.0 0
467302.0 528607.0 0
471374.0 529917.0 0
474155.0 526900.0 0
480621.0 525930.0 0
484067.0 529908.0 0
486459.0 526047.0 0
491731.0 526860.0 0
497293.0 526677.0 0
2735.35 534432.0 0
7992.1 531285.0 0
12826.5 531512.0 0
11415.0 535096.0 0
20613.1 531825.0 0
25824.2 531662.0 0
32791.6 531451.0 0
44198.3 532649.0 0
48772.5 529429.0 0
52881.9 533381.0 0
58656.0 531289.0 0
64614.1 530544.0 0
70394.1 529931.0 0
75510.0 530883.0 0
78612.0 534399.0 0
83532.6 529494.0 0
84006.2 533910.0 0
88105.2 529215.0 0
93696.2 529570.0 0
99535.7 529162.0 0
97757.3 533587.0 0
104514.0 529658.0 0
107759.0 529438.0 0
112095.0 529514.0 0
107661.0 532683.0 0
116841.0 532108.0 0
121003.0 529777.0 0
125916.0 532952.0 0
131784.0 532406.0 0
137372.0 533374.0 0
141119.0 529161.0 0
152008.0 530401.0 0
148512.0 533368.0 0
157433.0 533375.0 0
161042.0 530769.0 0
166871.0 529949.0 0
163547.0 533206.0 0
171054.0 532039.0 0
176083.0 532663.0 0
184286.0 529365.0 0
189192.0 532908.0 0
194307.0 533444.0 0
203026.0 529232.0 0
199515.0 532795.0 0
207566.0 531715.0 0
216299.0 533766.0 0
221764.0 532118.0 0
226608.0 533792.0 0
232556.0 532936.0 0
235809.0 528808.0 0
238542.0 532762.0 0
244850.0 531798.0 0
251456.0 532465.0 0
256160.0 529511.0 0
261885.0 532179.0 0
270063.0 531378.0 0
277852.0 531461.0 0
283187.0 533827.0 0
288733.0 532337.0 0
293462.0 529096.0 0
297081.0 532043.0 0
302867.0 532303.0 0
308673.0 533126.0 0
312922.0 530628.0 0
318312.0 533069.0 0
323293.0 529959.0 0
328622.0 532279.0 0
336578.0 529122.0 0
339374.0 533400.0 0
344711.0 533121.0 0
349742.0 532592.0 0
354237.0 531339.0 0
363100.0 529900.0 0
368046.0 533086.0 0
373119.0 529819.0 0
378577.0 529571.0 0
382170.0 532802.0 0
386760.0 529486.0 0
391704.0 531280.0 0
405460.0 533716.0 0
410164.0 530319.0 0
413976.0 534272.0 0
420609.0 529835.0 0
424764.0 532864.0 0
429859.0 531693.0 0
442014.0 531418.0 0
446818.0 532940.0 0
451303.0 531666.0 0
458348.0 531087.0 0
463601.0 530334.0 0
467400.0 533409.0 0
472816.0 534734.0 0
476850.0 530667.0 0
481369.0 533277.0 0
488234.0 530047.0 0
486286.0 534503.0 0
490837.0 533059.0 0
495108.0 531343.0 0
498105.0 534557.0 0
2120.18 539069.0 0
7434.66 536173.0 0
11053.1 538690.0 0
16247.4 535537.0 0
23313.3 536213.0 0
28086.3 535768.0 0
32712.2 539043.0 0
38889.3 535728.0 0
44316.2 537066.0 0
48256.8 535220.0 0
57391.3 536977.0 0
62627.5 535469.0 0
67696.0 534912.0 0
68821.0 539175.0 0
72759.6 534841.0 0
72958.7 539555.0 0
77655.1 539324.0 0
82451.4 538848.0 0
86746.3 537948.0 0
89213.6 534198.0 0
91633.9 538793.0 0
93910.2 534363.0 0
97047.6 537922.0 0
102762.0 534757.0 0
111839.0 535831.0 0
116543.0 538454.0 0
120667.0 535470.0 0
132109.0 538695.0 0
137927.0 539000.0 0
143289.0 534086.0 0
147721.0 537924.0 0
153080.0 534900.0 0
157655.0 538362.0 0
162854.0 537679.0 0
168344.0 535317.0 0
172671.0 537451.0 0
178343.0 537809.0 0
182093.0 534688.0 0
186646.0 537357.0 0
192331.0 538008.0 0
196913.0 538480.0 0
203721.0 534609.0 0
201420.0 538189.0 0
207076.0 538138.0 0
211008.0 535398.0 0
212749.0 538548.0 0
221948.0 536777.0 0
226892.0 538875.0 0
231640.0 538556.0 0
236540.0 537941.0 0
241323.0 537223.0 0
245887.0 537142.0 0
250502.0 538344.0 0
256911.0 534035.0 0
255246.0 538180.0 0
260812.0 538341.0 0
266274.0 535508.0 0
274164.0 534140.0 0
271166.0 537830.0 0
277985.0 537561.0 0
288293.0 537613.0 0
293026.0 534566.0 0
298309.0 537236.0 0
303373.0 537840.0 0
308096.0 538133.0 0
314243.0 538330.0 0
319144.0 537802.0 0
323991.0 535395.0 0
329474.0 537646.0 0
333871.0 534057.0 0
333605.0 538352.0 0
337155.0 538155.0 0
342454.0 538492.0 0
347771.0 537917.0 0
353048.0 537203.0 0
358551.0 534283.0 0
363739.0 535449.0 0
372174.0 534366.0 0
367711.0 538590.0 0
376816.0 534222.0 0
373443.0 538934.0 0
382587.0 537985.0 0
378327.0 538850.0 0
387497.0 534184.0 0
387461.0 538718.0 0
390914.0 535296.0 0
390700.0 539076.0 0
395064.0 534538.0 0
393969.0 538188.0 0
400111.0 534199.0 0
397730.0 538522.0 0
409789.0 535125.0 0
419470.0 534999.0 0
427034.0 538837.0 0
428062.0 535215.0 0
430534.0 535275.0 0
435006.0 534885.0 0
440844.0 537310.0 0
445470.0 536346.0 0
450105.0 536990.0 0
455770.0 534348.0 0
455765.0 539118.0 0
461159.0 534671.0 0
465130.0 538027.0 0
469756.0 538775.0 0
477719.0 535832.0 0
482250.0 539398.0 0
489053.0 539154.0 0
493468.0 535882.0 0
497018.0 539058.0 0
2710.16 543748.0 0
7211.39 541068.0 0
14407.2 540064.0 0
11715.7 543087.0 0
17809.6 539952.0 0
18113.5 544306.0 0
21658.0 540730.0 0
23057.5 544520.0 0
26591.6 540253.0 0
33849.2 544709.0 0
37517.5 542058.0 0
41731.9 540485.0 0
47327.3 541094.0 0
52746.2 539728.0 0
59256.9 541833.0 0
64265.9 540308.0 0
67827.5 544179.0 0
72730.7 544038.0 0
81558.7 543871.0 0
87313.0 542858.0 0
92540.1 543983.0 0
101526.0 540606.0 0
97467.6 543911.0 0
107586.0 540797.0 0
113122.0 540635.0 0
121374.0 540197.0 0
117606.0 544002.0 0
126014.0 539007.0 0
123445.0 543967.0 0
133985.0 543549.0 0
137950.0 543552.0 0
141686.0 543480.0 0
142954.0 539458.0 0
146679.0 543599.0 0
152783.0 539530.0 0
159690.0 542490.0 0
167531.0 540308.0 0
163621.0 542838.0 0
172388.0 541718.0 0
178013.0 543324.0 0
182635.0 539792.0 0
188401.0 542367.0 0
194069.0 543089.0 0
199224.0 542940.0 0
204338.0 542946.0 0
214167.0 542080.0 0
209667.0 543275.0 0
217699.0 539695.0 0
222202.0 542266.0 0
226339.0 542666.0 0
235816.0 542673.0 0
240134.0 540583.0 0
243995.0 541407.0 0
250379.0 543727.0 0
256477.0 543584.0 0
262633.0 543969.0 0
266721.0 540939.0 0
272594.0 543443.0 0
278390.0 543359.0 0
283211.0 540589.0 0
289544.0 543150.0 0
293335.0 539454.0 0
294469.0 543979.0 0
298920.0 542647.0 0
303155.0 541825.0 0
307327.0 543237.0 0
317486.0 542978.0 0
322345.0 540998.0 0
327562.0 542397.0 0
332774.0 542549.0 0
338640.0 543592.0 0
346316.0 541278.0 0
350655.0 543161.0 0
357864.0 539278.0 0
358205.0 543638.0 0
362488.0 540270.0 0
368096.0 543928.0 0
377923.0 543074.0 0
382732.0 543107.0 0
387331.0 543340.0 0
390315.0 543605.0 0
394519.0 543030.0 0
400505.0 542770.0 0
405655.0 539770.0 0
411806.0 539327.0 0
417290.0 540181.0 0
422343.0 539589.0 0
431816.0 539801.0 0
428574.0 543260.0 0
433119.0 544447.0 0
436624.0 540531.0 0
440767.0 541792.0 0
446354.0 540489.0 0
448474.0 544367.0 0
451779.0 541700.0 0
460685.0 540189.0 0
466153.0 542278.0 0
470773.0 543705.0 0
474946.0 540043.0 0
488581.0 544413.0 0
492853.0 541924.0 0
497142.0 544644.0 0
1746.5 548045.0 0
7060.85 545824.0 0
9428.18 549420.0 0
13362.2 547312.0 0
17343.6 549049.0 0
21545.8 548128.0 0
26640.4 544686.0 0
29852.0 547474.0 0
25491.6 548053.0 0
34852.7 549347.0 0
37671.0 546156.0 0
39457.1 549594.0 0
42091.2 545472.0 0
46917.0 546368.0 0
48909.2 549472.0 0
51968.1 545192.0 0
57134.3 545861.0 0
62684.2 545567.0 0
69964.3 548053.0 0
74638.4 548194.0 0
76920.4 544573.0 0
77922.8 547612.0 0
80987.0 548927.0 0
86596.7 549071.0 0
93136.1 548895.0 0
98552.2 549151.0 0
102648.0 545718.0 0
106972.0 545946.0 0
111875.0 544607.0 0
109416.0 548967.0 0
113513.0 548625.0 0
122346.0 548404.0 0
126468.0 549008.0 0
128726.0 544094.0 0
131743.0 548304.0 0
136722.0 547855.0 0
143582.0 548615.0 0
152137.0 544412.0 0
149539.0 548175.0 0
156939.0 547290.0 0
162897.0 547475.0 0
166906.0 544864.0 0
173025.0 547395.0 0
183449.0 544486.0 0
183194.0 548917.0 0
186891.0 547754.0 0
192039.0 547975.0 0
197005.0 547302.0 0
202082.0 547768.0 0
207568.0 548400.0 0
213791.0 546449.0 0
217504.0 544077.0 0
220555.0 547106.0 0
225446.0 546608.0 0
229430.0 549101.0 0
230536.0 544054.0 0
236427.0 548131.0 0
240164.0 544295.0 0
245175.0 547533.0 0
252522.0 548610.0 0
257231.0 549024.0 0
262088.0 548709.0 0
267413.0 546444.0 0
277691.0 548342.0 0
283057.0 546149.0 0
289346.0 547898.0 0
292985.0 547547.0 0
297440.0 548445.0 0
303296.0 546898.0 0
308939.0 548889.0 0
312502.0 544400.0 0
319942.0 547257.0 0
324139.0 545523.0 0
328634.0 547925.0 0
334549.0 547757.0 0
343935.0 544114.0 0
348504.0 548368.0 0
354777.0 547221.0 0
359003.0 547549.0 0
363451.0 545073.0 0
362217.0 548956.0 0
366628.0 548830.0 0
373299.0 544540.0 0
376856.0 546777.0 0
380579.0 547445.0 0
385753.0 547434.0 0
390543.0 547065.0 0
396369.0 548658.0 0
400429.0 547112.0 0
404056.0 546085.0 0
409533.0 545216.0 0
416168.0 545807.0 0
423354.0 545029.0 0
429701.0 547679.0 0
438240.0 545521.0 0
443882.0 544927.0 0
447589.0 548797.0 0
451759.0 545475.0 0
452779.0 549376.0 0
456964.0 544947.0 0
462568.0 544438.0 0
461552.0 548591.0 0
466744.0 546325.0 0
470840.0 549246.0 0
476485.0 546004.0 0
482948.0 545793.0 0
492929.0 545492.0 0
5098.56 549893.0 0
2104.68 553011.0 0
7712.48 554128.0 0
13531.9 552785.0 0
19536.7 553546.0 0
25183.6 552630.0 0
30855.9 552883.0 0
40735.7 553598.0 0
36166.7 554162.0 0
44201.1 550390.0 0
48201.3 553441.0 0
52873.6 550763.0 0
59605.1 550120.0 0
65794.4 550169.0 0
71783.2 552657.0 0
77390.0 551981.0 0
82436.8 553875.0 0
92495.8 552911.0 0
97500.0 553568.0 0
103171.0 549698.0 0
102067.0 553405.0 0
106891.0 552774.0 0
111899.0 552661.0 0
117659.0 549693.0 0
122429.0 551925.0 0
117571.0 554289.0 0
127161.0 554047.0 0
132003.0 552906.0 0
137213.0 552800.0 0
139878.0 550427.0 0
142193.0 553470.0 0
147363.0 552922.0 0
152965.0 551520.0 0
160723.0 551912.0 0
167716.0 549441.0 0
165073.0 553284.0 0
171566.0 553274.0 0
176514.0 553948.0 0
178679.0 549446.0 0
180617.0 553929.0 0
185377.0 552873.0 0
190223.0 552215.0 0
195338.0 552927.0 0
201318.0 553178.0 0
206573.0 553643.0 0
212554.0 552286.0 0
217051.0 549298.0 0
218398.0 553536.0 0
223129.0 551458.0 0
232709.0 552614.0 0
238075.0 554153.0 0
240616.0 550297.0 0
243692.0 553821.0 0
248547.0 552487.0 0
254992.0 552734.0 0
259765.0 553016.0 0
266487.0 553452.0 0
272495.0 549541.0 0
276306.0 553142.0 0
281378.0 552112.0 0
285808.0 549949.0 0
292461.0 552354.0 0
303088.0 552184.0 0
307249.0 553507.0 0
314888.0 549791.0 0
318654.0 554057.0 0
323745.0 550325.0 0
327606.0 553486.0 0
332194.0 552190.0 0
338335.0 549584.0 0
337179.0 553316.0 0
343028.0 549395.0 0
347443.0 553861.0 0
353286.0 552512.0 0
358955.0 551392.0 0
363721.0 553323.0 0
371852.0 549759.0 0
368420.0 552968.0 0
372227.0 553649.0 0
377160.0 551017.0 0
383008.0 552400.0 0
392173.0 551706.0 0
388178.0 554142.0 0
396455.0 553797.0 0
401520.0 552162.0 0
407304.0 550668.0 0
412639.0 550710.0 0
417563.0 550836.0 0
418315.0 554579.0 0
421379.0 549747.0 0
423053.0 553528.0 0
425746.0 549891.0 0
429760.0 552478.0 0
434462.0 549799.0 0
437875.0 553297.0 0
433366.0 553899.0 0
441635.0 550141.0 0
445596.0 552995.0 0
449935.0 553450.0 0
457504.0 550711.0 0
454220.0 553586.0 0
461591.0 552883.0 0
465601.0 550190.0 0
465990.0 554777.0 0
471733.0 555134.0 0
476192.0 551760.0 0
480114.0 549833.0 0
481641.0 554210.0 0
485272.0 550558.0 0
491195.0 550120.0 0
497368.0 549917.0 0
3503.66 558785.0 0
12808.1 558146.0 0
18367.2 559551.0 0
23876.1 557849.0 0
29164.9 558286.0 0
33850.8 557965.0 0
38611.7 558965.0 0
44256.6 555742.0 0
47870.2 558174.0 0
52316.5 555582.0 0
57183.7 554936.0 0
62426.4 554566.0 0
61656.3 559198.0 0
67085.7 554908.0 0
66241.2 559362.0 0
71401.8 558507.0 0
77978.3 558932.0 0
83915.1 558719.0 0
88452.7 555411.0 0
94267.4 556625.0 0
99231.7 558508.0 0
103900.0 559323.0 0
108326.0 557680.0 0
113629.0 557370.0 0
122096.0 556304.0 0
118123.0 558563.0 0
126264.0 558962.0 0
130734.0 557828.0 0
134777.0 556407.0 0
139439.0 557390.0 0
144683.0 557922.0 0
152049.0 557695.0 0
156971.0 554357.0 0
161687.0 557051.0 0
167702.0 557334.0 0
174262.0 558569.0 0
179568.0 558098.0 0
184394.0 558197.0 0
189265.0 556492.0 0
198647.0 557260.0 0
193938.0 558908.0 0
202568.0 559137.0 0
207333.0 558766.0 0
212771.0 558674.0 0
217672.0 558005.0 0
222278.0 556797.0 0
227661.0 554254.0 0
226593.0 558938.0 0
231519.0 558042.0 0
236422.0 558699.0 0
241270.0 558814.0 0
247296.0 557782.0 0
251706.0 555739.0 0
256757.0 558019.0 0
261960.0 557993.0 0
272435.0 554462.0 0
272402.0 559204.0 0
277604.0 558305.0 0
282453.0 557594.0 0
286839.0 554536.0 0
293446.0 559027.0 0
298381.0 554292.0 0
298900.0 559176.0 0
303295.0 557234.0 0
308169.0 558202.0 0
312059.0 554952.0 0
315535.0 559250.0 0
320592.0 558838.0 0
323326.0 554668.0 0
326285.0 559021.0 0
333340.0 558245.0 0
341560.0 554532.0 0
339316.0 558817.0 0
343668.0 558348.0 0
347593.0 558663.0 0
352005.0 558013.0 0
357785.0 556642.0 0
363032.0 558346.0 0
368207.0 557796.0 0
373689.0 556775.0 0
378516.0 555960.0 0
383181.0 558534.0 0
392089.0 556674.0 0
396905.0 558215.0 0
402673.0 558820.0 0
407338.0 558890.0 0
408232.0 555304.0 0
412533.0 555603.0 0
416187.0 558345.0 0
421383.0 558130.0 0
426820.0 556946.0 0
435481.0 557361.0 0
441911.0 557385.0 0
448656.0 558837.0 0
457944.0 555171.0 0
454238.0 557709.0 0
458355.0 559296.0 0
461782.0 557025.0 0
465200.0 559497.0 0
469425.0 559724.0 0
476789.0 556192.0 0
480156.0 559544.0 0
487353.0 555406.0 0
492836.0 555936.0 0
490150.0 559445.0 0
497599.0 554761.0 0
8853.28 559557.0 0
8297.74 563711.0 0
13587.0 563508.0 0
23271.7 563380.0 0
28656.2 563413.0 0
34003.8 562843.0 0
38956.4 563863.0 0
43687.1 560165.0 0
42671.0 564049.0 0
47558.1 563369.0 0
51995.1 560115.0 0
53310.9 564320.0 0
56952.3 560285.0 0
63000.8 563627.0 0
68060.1 563220.0 0
73162.4 564421.0 0
82696.6 563373.0 0
87509.9 560397.0 0
87562.8 564307.0 0
92134.7 561858.0 0
97523.0 563836.0 0
102052.0 562884.0 0
107158.0 563518.0 0
113315.0 562842.0 0
121271.0 561954.0 0
117539.0 564151.0 0
129609.0 561977.0 0
135322.0 562076.0 0
141548.0 562326.0 0
147620.0 563448.0 0
152837.0 563092.0 0
157483.0 559769.0 0
156818.0 564214.0 0
162308.0 563127.0 0
168501.0 562844.0 0
173576.0 563847.0 0
178596.0 563080.0 0
183380.0 563998.0 0
188705.0 562404.0 0
193868.0 563804.0 0
198478.0 562280.0 0
203568.0 563235.0 0
207413.0 563171.0 0
211354.0 563451.0 0
216543.0 562586.0 0
223137.0 563183.0 0
229006.0 563014.0 0
233440.0 562369.0 0
238055.0 563409.0 0
243245.0 563558.0 0
248622.0 563246.0 0
251882.0 559744.0 0
254391.0 563517.0 0
259237.0 563050.0 0
266247.0 560757.0 0
270414.0 563354.0 0
276272.0 562767.0 0
282111.0 563715.0 0
287463.0 559789.0 0
297461.0 563463.0 0
305408.0 562723.0 0
309534.0 564365.0 0
311367.0 560316.0 0
313443.0 563994.0 0
318514.0 562624.0 0
322500.0 563629.0 0
328321.0 564044.0 0
332737.0 564312.0 0
336770.0 562964.0 0
340859.0 562799.0 0
345904.0 563010.0 0
357105.0 561908.0 0
352110.0 564116.0 0
361734.0 563163.0 0
372204.0 561307.0 0
367372.0 563800.0 0
377890.0 561590.0 0
388287.0 559749.0 0
388787.0 564348.0 0
392980.0 561766.0 0
398381.0 563595.0 0
406684.0 562476.0 0
411133.0 559892.0 0
410947.0 564162.0 0
414810.0 562950.0 0
419880.0 563441.0 0
426336.0 563403.0 0
431147.0 559897.0 0
432568.0 563795.0 0
437621.0 563009.0 0
443507.0 563484.0 0
448410.0 564414.0 0
453210.0 562558.0 0
457968.0 563306.0 0
461848.0 561984.0 0
467074.0 563890.0 0
472217.0 563348.0 0
474959.0 559765.0 0
477034.0 563499.0 0
481747.0 564632.0 0
485562.0 560854.0 0
489875.0 563863.0 0
496632.0 560086.0 0
3162.22 565403.0 0
6287.2 569587.0 0
11614.1 569459.0 0
18466.4 565454.0 0
22059.0 568774.0 0
28521.5 568481.0 0
33666.6 568258.0 0
38679.9 568450.0 0
43656.7 568406.0 0
48043.2 568414.0 0
52537.1 568908.0 0
58255.9 565449.0 0
56801.6 569656.0 0
62426.3 568811.0 0
67422.9 567498.0 0
78523.8 564695.0 0
76490.0 568812.0 0
81110.5 568387.0 0
85691.7 568030.0 0
91438.6 568220.0 0
97937.2 569210.0 0
102540.0 567332.0 0
106799.0 569440.0 0
111107.0 567411.0 0
115507.0 567474.0 0
120803.0 567813.0 0
125737.0 564715.0 0
131039.0 567659.0 0
137621.0 568207.0 0
143082.0 568231.0 0
153017.0 567016.0 0
148977.0 569136.0 0
157074.0 568877.0 0
165852.0 567432.0 0
170782.0 567761.0 0
176212.0 568724.0 0
180912.0 567234.0 0
186081.0 568830.0 0
191466.0 567296.0 0
196676.0 567966.0 0
201058.0 565956.0 0
208576.0 568062.0 0
214389.0 567371.0 0
218979.0 566529.0 0
222463.0 568929.0 0
227100.0 567791.0 0
232888.0 567470.0 0
240981.0 567829.0 0
246609.0 569291.0 0
252762.0 568835.0 0
257470.0 567271.0 0
262944.0 564596.0 0
267058.0 566479.0 0
272359.0 567411.0 0
277514.0 567399.0 0
287481.0 564502.0 0
288945.0 569199.0 0
291796.0 564626.0 0
295452.0 568703.0 0
301432.0 567352.0 0
307315.0 568419.0 0
312793.0 569083.0 0
317669.0 567101.0 0
325891.0 568214.0 0
321551.0 569453.0 0
331285.0 569174.0 0
336328.0 567457.0 0
342191.0 568144.0 0
348011.0 568186.0 0
357729.0 567580.0 0
363376.0 567970.0 0
368059.0 569366.0 0
372438.0 566503.0 0
377777.0 567518.0 0
383674.0 564656.0 0
387559.0 569315.0 0
393060.0 567472.0 0
403477.0 567909.0 0
408179.0 565842.0 0
409153.0 569186.0 0
413715.0 567872.0 0
418233.0 568856.0 0
422441.0 568033.0 0
432831.0 568044.0 0
436960.0 567945.0 0
442800.0 569027.0 0
447155.0 567940.0 0
451683.0 567931.0 0
455930.0 566858.0 0
461882.0 568056.0 0
468618.0 568982.0 0
474652.0 568558.0 0
479949.0 568800.0 0
486255.0 568726.0 0
493160.0 565530.0 0
497156.0 565901.0 0
2174.59 570619.0 0
2131.68 574902.0 0
6173.53 573463.0 0
17260.0 569823.0 0
16095.3 574199.0 0
25359.0 572727.0 0
20493.0 573515.0 0
32144.3 573510.0 0
37667.9 573400.0 0
42833.1 573482.0 0
48297.0 573298.0 0
52981.3 573524.0 0
58197.6 573688.0 0
62318.8 573238.0 0
67083.6 573074.0 0
71606.2 569960.0 0
72863.7 574166.0 0
77187.3 572701.0 0
81024.3 573464.0 0
86669.2 573094.0 0
92817.2 574706.0 0
98448.3 574505.0 0
102670.0 572107.0 0
111169.0 572763.0 0
116761.0 572008.0 0
121625.0 574589.0 0
125818.0 569918.0 0
126249.0 573891.0 0
130717.0 574438.0 0
134276.0 571731.0 0
139009.0 574301.0 0
145819.0 573678.0 0
152508.0 573784.0 0
161631.0 569690.0 0
158468.0 573407.0 0
165885.0 572644.0 0
171389.0 572961.0 0
182938.0 574017.0 0
188237.0 574613.0 0
192491.0 571735.0 0
202548.0 570772.0 0
212574.0 573080.0 0
218111.0 571169.0 0
222780.0 573819.0 0
228444.0 573213.0 0
233474.0 572722.0 0
237264.0 570726.0 0
241744.0 573111.0 0
252653.0 574325.0 0
257084.0 571836.0 0
262197.0 569613.0 0
268517.0 572441.0 0
275290.0 571304.0 0
278240.0 574206.0 0
282603.0 570754.0 0
287467.0 573925.0 0
292504.0 574112.0 0
298994.0 574135.0 0
303751.0 571730.0 0
307229.0 574135.0 0
311883.0 573933.0 0
316791.0 571963.0 0
321343.0 573861.0 0
327433.0 574239.0 0
333868.0 574529.0 0
338044.0 571765.0 0
342644.0 573593.0 0
347238.0 573101.0 0
352557.0 569887.0 0
356937.0 573303.0 0
361862.0 572571.0 0
366128.0 573296.0 0
370536.0 573736.0 0
376114.0 573052.0 0
382002.0 571350.0 0
386448.0 574287.0 0
391748.0 573433.0 0
397796.0 570257.0 0
396517.0 574344.0 0
401589.0 574627.0 0
406899.0 572864.0 0
411729.0 572903.0 0
416967.0 573318.0 0
422637.0 573373.0 0
427606.0 569961.0 0
432403.0 573695.0 0
438016.0 572284.0 0
442816.0 574593.0 0
448141.0 572304.0 0
455674.0 572235.0 0
461076.0 574512.0 0
465718.0 573159.0 0
471440.0 574579.0 0
477123.0 573444.0 0
481723.0 572803.0 0
492772.0 569841.0 0
498368.0 570056.0 0
497017.0 574317.0 0
5007.78 578673.0 0
10726.9 576160.0 0
17552.3 578220.0 0
22731.0 578427.0 0
27992.1 576989.0 0
32654.5 579237.0 0
38248.2 578696.0 0
43395.2 578427.0 0
48114.3 578690.0 0
52388.8 578458.0 0
56688.2 578402.0 0
61711.0 577496.0 0
66398.6 578233.0 0
71567.0 578930.0 0
76872.7 576733.0 0
82500.0 578609.0 0
87551.1 578383.0 0
97407.3 578646.0 0
106348.0 575338.0 0
102263.0 577865.0 0
106169.0 579463.0 0
110453.0 578534.0 0
116524.0 577658.0 0
126360.0 578033.0 0
136288.0 579761.0 0
143161.0 578121.0 0
148799.0 579230.0 0
154140.0 579286.0 0
162189.0 575913.0 0
158541.0 578208.0 0
166222.0 577980.0 0
171852.0 578822.0 0
177087.0 574953.0 0
180915.0 578409.0 0
185178.0 578764.0 0
192444.0 578086.0 0
197247.0 574655.0 0
202219.0 576163.0 0
206956.0 575166.0 0
211727.0 578779.0 0
217299.0 577336.0 0
223120.0 579536.0 0
228526.0 578657.0 0
233607.0 577533.0 0
237309.0 574801.0 0
240482.0 578787.0 0
247079.0 575703.0 0
253438.0 579328.0 0
257944.0 576884.0 0
263102.0 575213.0 0
260904.0 579702.0 0
269715.0 578109.0 0
273693.0 575562.0 0
277928.0 579689.0 0
283765.0 577113.0 0
289148.0 578844.0 0
295427.0 579167.0 0
300731.0 579791.0 0
303756.0 576548.0 0
308101.0 578091.0 0
311866.0 578338.0 0
316523.0 576514.0 0
322501.0 578535.0 0
331831.0 578744.0 0
338965.0 576284.0 0
342673.0 579500.0 0
347200.0 578003.0 0
352065.0 574721.0 0
355779.0 577629.0 0
360420.0 577494.0 0
366861.0 578420.0 0
373324.0 578707.0 0
379681.0 578234.0 0
383126.0 575471.0 0
388426.0 578686.0 0
397506.0 577950.0 0
393376.0 579615.0 0
406896.0 578344.0 0
413679.0 578814.0 0
421926.0 578055.0 0
427414.0 575247.0 0
425810.0 579456.0 0
430392.0 578607.0 0
436827.0 578516.0 0
442680.0 579536.0 0
447840.0 578418.0 0
451866.0 575634.0 0
452657.0 579283.0 0
457526.0 578581.0 0
462151.0 578462.0 0
466246.0 577968.0 0
476165.0 577618.0 0
479644.0 576084.0 0
482136.0 579212.0 0
486641.0 575523.0 0
491983.0 574991.0 0
490977.0 579430.0 0
497256.0 579929.0 0
2630.98 583362.0 0
8616.95 580762.0 0
7007.11 583647.0 0
14137.0 580387.0 0
11308.1 583769.0 0
16435.2 583909.0 0
20804.7 583236.0 0
27652.3 582752.0 0
33976.3 583725.0 0
38207.4 583808.0 0
42413.4 583279.0 0
46431.5 583310.0 0
55923.7 583028.0 0
51095.0 583300.0 0
61419.1 583444.0 0
67506.1 583016.0 0
73216.3 583824.0 0
78584.7 582315.0 0
83247.2 582551.0 0
87460.9 583229.0 0
92002.1 580563.0 0
97805.8 582753.0 0
102113.0 582425.0 0
107500.0 583378.0 0
112806.0 582971.0 0
121969.0 579873.0 0
118009.0 583508.0 0
127032.0 582453.0 0
123155.0 584371.0 0
131115.0 579883.0 0
135855.0 584297.0 0
141053.0 582927.0 0
146862.0 584827.0 0
152326.0 583896.0 0
162311.0 580606.0 0
158294.0 584264.0 0
167518.0 582805.0 0
163525.0 584478.0 0
177216.0 580873.0 0
180907.0 583221.0 0
185820.0 584474.0 0
192364.0 584097.0 0
196654.0 580259.0 0
201635.0 581280.0 0
207231.0 580080.0 0
206004.0 584023.0 0
210599.0 583817.0 0
216120.0 583363.0 0
221381.0 584764.0 0
226842.0 584652.0 0
231674.0 582319.0 0
236459.0 580651.0 0
235671.0 583939.0 0
244633.0 581961.0 0
240341.0 584504.0 0
248969.0 580702.0 0
252325.0 584252.0 0
257675.0 582472.0 0
265134.0 580592.0 0
261854.0 583481.0 0
270345.0 583243.0 0
275308.0 584841.0 0
282624.0 582144.0 0
286600.0 583154.0 0
292008.0 584050.0 0
298248.0 584806.0 0
305124.0 580036.0 0
303398.0 583613.0 0
311468.0 583563.0 0
317546.0 582370.0 0
323033.0 583494.0 0
326902.0 580220.0 0
331163.0 583270.0 0
337327.0 582052.0 0
351818.0 579875.0 0
347848.0 582380.0 0
357386.0 582192.0 0
362584.0 581872.0 0
366365.0 583702.0 0
371172.0 584308.0 0
376861.0 583642.0 0
381648.0 584275.0 0
384310.0 581090.0 0
388348.0 583881.0 0
392712.0 584381.0 0
396697.0 583237.0 0
401386.0 580787.0 0
408170.0 584339.0 0
417044.0 584042.0 0
418915.0 579829.0 0
422116.0 582787.0 0
427470.0 584415.0 0
432340.0 582686.0 0
436768.0 584645.0 0
442145.0 584717.0 0
450363.0 583104.0 0
455770.0 584697.0 0
461384.0 582773.0 0
466611.0 584425.0 0
470671.0 580754.0 0
475925.0 582451.0 0
481183.0 584526.0 0
486614.0 581096.0 0
493658.0 582840.0 0
497972.0 584600.0 0
3534.25 589456.0 0
9100.42 587950.0 0
13831.1 588067.0 0
18897.8 588567.0 0
22949.1 586636.0 0
27069.5 588917.0 0
32493.4 588092.0 0
37525.2 588403.0 0
42348.6 588636.0 0
47660.1 588092.0 0
52778.4 588039.0 0
57240.7 587337.0 0
64957.0 587725.0 0
70084.8 588067.0 0
76475.9 588638.0 0
82961.1 586824.0 0
91750.1 585172.0 0
88493.1 588231.0 0
95457.4 585969.0 0
99312.2 588219.0 0
103575.0 586377.0 0
106192.0 589246.0 0
110986.0 587994.0 0
117265.0 589853.0 0
121919.0 588007.0 0
126016.0 588603.0 0
130922.0 585873.0 0
137156.0 588824.0 0
142762.0 588953.0 0
147074.0 588970.0 0
152849.0 589116.0 0
157471.0 589591.0 0
162021.0 588691.0 0
167244.0 587998.0 0
172796.0 585333.0 0
177940.0 585169.0 0
177442.0 589135.0 0
181238.0 587184.0 0
189374.0 589253.0 0
197743.0 584900.0 0
195458.0 589227.0 0
201376.0 588859.0 0
207619.0 588818.0 0
213149.0 588240.0 0
218674.0 589779.0 0
223758.0 588568.0 0
231933.0 587623.0 0
236832.0 587661.0 0
246178.0 587002.0 0
250914.0 588685.0 0
256537.0 588844.0 0
262673.0 587525.0 0
267796.0 587961.0 0
273149.0 589988.0 0
279811.0 585022.0 0
278679.0 589361.0 0
283590.0 585667.0 0
287484.0 588615.0 0
293574.0 589354.0 0
298232.0 589642.0 0
302555.0 587906.0 0
306816.0 586450.0 0
312917.0 588301.0 0
317799.0 588490.0 0
322736.0 589149.0 0
327089.0 587233.0 0
332631.0 588302.0 0
338113.0 588515.0 0
343325.0 585110.0 0
346736.0 589107.0 0
351582.0 584963.0 0
355915.0 587361.0 0
362265.0 587934.0 0
368618.0 589053.0 0
374231.0 588760.0 0
379690.0 588687.0 0
384502.0 587107.0 0
388498.0 588558.0 0
392724.0 588208.0 0
402897.0 585972.0 0
398416.0 587489.0 0
406279.0 589558.0 0
412847.0 585125.0 0
411180.0 589110.0 0
416805.0 589743.0 0
422551.0 588249.0 0
433373.0 588888.0 0
438799.0 589423.0 0
446916.0 586223.0 0
443881.0 589860.0 0
458599.0 589023.0 0
463422.0 589076.0 0
468408.0 588625.0 0
471645.0 585830.0 0
476596.0 588365.0 0
482400.0 589789.0 0
486284.0 585776.0 0
491598.0 587488.0 0
497255.0 589263.0 0
1390.84 593885.0 0
6479.75 594391.0 0
11452.3 592973.0 0
17166.9 593679.0 0
22319.3 593084.0 0
27934.4 594938.0 0
33927.1 593376.0 0
39013.2 593539.0 0
43469.0 593402.0 0
47995.0 593300.0 0
52782.2 592756.0 0
60970.9 590026.0 0
57500.0 593545.0 0
62826.3 594049.0 0
67415.9 592777.0 0
72304.2 592598.0 0
76141.0 594584.0 0
81725.4 593456.0 0
87992.4 592908.0 0
94042.1 590930.0 0
98518.2 592060.0 0
102331.0 592779.0 0
106920.0 593056.0 0
112345.0 593915.0 0
122839.0 592806.0 0
132448.0 591342.0 0
127767.0 593062.0 0
134675.0 593102.0 0
140073.0 594556.0 0
148830.0 592883.0 0
154519.0 593216.0 0
163060.0 593111.0 0
158679.0 593994.0 0
167465.0 593132.0 0
173112.0 591311.0 0
177474.0 593822.0 0
181548.0 594645.0 0
184165.0 590985.0 0
192383.0 593671.0 0
197384.0 593866.0 0
208822.0 594370.0 0
214112.0 593563.0 0
223843.0 594603.0 0
227609.0 590825.0 0
228348.0 594982.0 0
231988.0 593036.0 0
236277.0 591676.0 0
241101.0 590195.0 0
240947.0 594288.0 0
246179.0 593070.0 0
251981.0 593563.0 0
256896.0 594711.0 0
260761.0 592848.0 0
265894.0 593009.0 0
272902.0 594938.0 0
276729.0 593927.0 0
282887.0 590045.0 0
280915.0 593243.0 0
285692.0 594276.0 0
290976.0 593341.0 0
296285.0 593946.0 0
301907.0 592822.0 0
306506.0 590548.0 0
310609.0 591795.0 0
306614.0 594617.0 0
315800.0 593731.0 0
321020.0 593411.0 0
326020.0 592380.0 0
329324.0 590798.0 0
331960.0 592763.0 0
336733.0 594402.0 0
343010.0 590221.0 0
346448.0 593167.0 0
342089.0 594320.0 0
351411.0 590115.0 0
350465.0 594922.0 0
357523.0 591745.0 0
361584.0 594472.0 0
366732.0 593761.0 0
372185.0 593878.0 0
378201.0 594512.0 0
384762.0 592827.0 0
390812.0 592329.0 0
396094.0 591986.0 0
401589.0 590564.0 0
400793.0 594721.0 0
404534.0 593507.0 0
408980.0 593662.0 0
413910.0 594596.0 0
418462.0 594650.0 0
423480.0 593282.0 0
427845.0 590141.0 0
427605.0 595055.0 0
431482.0 593449.0 0
435919.0 593432.0 0
441023.0 594300.0 0
448759.0 590396.0 0
446023.0 594240.0 0
453632.0 590005.0 0
451367.0 594464.0 0
457537.0 593709.0 0
462720.0 594377.0 0
467711.0 593128.0 0
471853.0 590320.0 0
473418.0 594157.0 0
478888.0 593695.0 0
483975.0 594552.0 0
487157.0 590713.0 0
488326.0 594742.0 0
492856.0 593343.0 0
498190.0 593673.0 0
2849.12 597711.0 0
8208.72 599114.0 0
13808.9 598303.0 0
18850.1 598355.0 0
23180.4 597232.0 0
32337.4 598028.0 0
37312.3 598604.0 0
40815.7 598174.0 0
45104.5 598742.0 0
50312.9 598103.0 0
55892.4 598629.0 0
60746.5 597924.0 0
65873.3 597939.0 0
71986.3 598055.0 0
78658.3 598837.0 0
86330.4 597044.0 0
82391.9 599245.0 0
91503.9 596610.0 0
97752.0 596636.0 0
103435.0 599493.0 0
108211.0 597169.0 0
113906.0 599188.0 0
117484.0 595718.0 0
121646.0 597081.0 0
118250.0 599273.0 0
126388.0 598051.0 0
131158.0 595225.0 0
131472.0 599316.0 0
135758.0 597872.0 0
145457.0 597893.0 0
152550.0 596882.0 0
157071.0 598459.0 0
161400.0 597957.0 0
166914.0 599212.0 0
171199.0 595530.0 0
172910.0 599634.0 0
177795.0 598712.0 0
182182.0 598659.0 0
186989.0 596456.0 0
192418.0 598821.0 0
198351.0 598029.0 0
202880.0 595239.0 0
206608.0 599892.0 0
210745.0 598379.0 0
218840.0 595150.0 0
215513.0 599150.0 0
221108.0 599296.0 0
231236.0 597585.0 0
236824.0 597143.0 0
242914.0 597553.0 0
248539.0 598472.0 0
254293.0 598757.0 0
262312.0 597928.0 0
269113.0 598871.0 0
275432.0 598374.0 0
279859.0 597259.0 0
283877.0 599427.0 0
289471.0 598344.0 0
294262.0 598421.0 0
298704.0 599131.0 0
302766.0 597344.0 0
306136.0 598545.0 0
311399.0 597537.0 0
317550.0 597988.0 0
322314.0 598689.0 0
327199.0 597045.0 0
332292.0 596674.0 0
340570.0 597789.0 0
344364.0 597761.0 0
348128.0 598432.0 0
355887.0 597468.0 0
364906.0 598310.0 0
369624.0 598509.0 0
374499.0 597813.0 0
382075.0 597707.0 0
387043.0 598232.0 0
392009.0 597419.0 0
397160.0 597102.0 0
401244.0 598856.0 0
405953.0 597915.0 0
411131.0 598665.0 0
416540.0 599051.0 0
421672.0 597270.0 0
425847.0 599378.0 0
431448.0 598627.0 0
437126.0 598239.0 0
442542.0 599780.0 0
448393.0 598935.0 0
454635.0 598188.0 0
463552.0 598504.0 0
459536.0 598339.0 0
467713.0 598214.0 0
472163.0 598795.0 0
476312.0 597765.0 0
480621.0 598245.0 0
486537.0 598358.0 0
490856.0 597973.0 0
496205.0 597624.0 0
2385.21 602777.0 0
6750.28 603772.0 0
12082.2 604179.0 0
17318.0 602864.0 0
22305.0 602036.0 0
27851.0 600288.0 0
27377.4 604640.0 0
31874.6 602712.0 0
36866.4 603568.0 0
42385.6 603321.0 0
47882.0 602964.0 0
53009.3 603649.0 0
58022.9 603081.0 0
62936.5 602540.0 0
67142.1 602182.0 0
74814.7 603149.0 0
79922.7 604505.0 0
86180.8 603005.0 0
94185.8 601879.0 0
99339.6 602777.0 0
105293.0 603571.0 0
108739.0 601834.0 0
113105.0 604200.0 0
117414.0 602297.0 0
122132.0 601595.0 0
126782.0 603348.0 0
131012.0 603492.0 0
135143.0 602426.0 0
140172.0 600716.0 0
148180.0 603105.0 0
153534.0 601932.0 0
158400.0 602795.0 0
162500.0 603766.0 0
170638.0 603489.0 0
176054.0 603249.0 0
180864.0 603216.0 0
184963.0 601474.0 0
189843.0 604314.0 0
196428.0 602772.0 0
201679.0 600900.0 0
205809.0 605114.0 0
211076.0 603009.0 0
216925.0 604746.0 0
222148.0 604252.0 0
226725.0 600467.0 0
227600.0 605143.0 0
232521.0 602566.0 0
237434.0 602476.0 0
242235.0 603089.0 0
247951.0 604439.0 0
253523.0 604042.0 0
258438.0 602169.0 0
262974.0 603761.0 0
267546.0 605011.0 0
273625.0 603938.0 0
278843.0 601917.0 0
282426.0 603476.0 0
286891.0 604461.0 0
292816.0 603186.0 0
298585.0 604990.0 0
303126.0 601757.0 0
308039.0 602157.0 0
313124.0 603705.0 0
318687.0 602694.0 0
325703.0 603134.0 0
330501.0 600712.0 0
335956.0 600398.0 0
337278.0 605055.0 0
342094.0 602642.0 0
351245.0 602266.0 0
347089.0 604691.0 0
359249.0 602720.0 0
364294.0 603135.0 0
368680.0 603066.0 0
373314.0 602007.0 0
378890.0 601291.0 0
383970.0 601193.0 0
387406.0 603528.0 0
391645.0 602505.0 0
397537.0 602584.0 0
403474.0 604089.0 0
408187.0 602176.0 0
412463.0 603327.0 0
416638.0 603708.0 0
421215.0 602279.0 0
428781.0 603941.0 0
434861.0 603104.0 0
439826.0 604864.0 0
447790.0 603471.0 0
444403.0 604313.0 0
452328.0 602777.0 0
457228.0 602218.0 0
462132.0 604035.0 0
467292.0 602894.0 0
471643.0 602906.0 0
476864.0 603106.0 0
483529.0 602637.0 0
488794.0 602507.0 0
493225.0 601712.0 0
497708.0 602254.0 0
2460.42 607617.0 0
7828.03 608692.0 0
13657.1 609306.0 0
16952.3 606854.0 0
23394.6 607311.0 0
28881.9 609096.0 0
33743.9 607646.0 0
38782.8 608024.0 0
43092.9 608782.0 0
47337.3 607756.0 0
52277.3 609069.0 0
56990.5 607509.0 0
61301.6 606857.0 0
65237.7 608050.0 0
69932.8 605889.0 0
73918.9 608629.0 0
77500.0 608586.0 0
82765.0 608597.0 0
91260.4 606581.0 0
87145.8 608781.0 0
96736.5 607337.0 0
102452.0 606668.0 0
108350.0 607455.0 0
117176.0 606915.0 0
113454.0 609940.0 0
122608.0 607336.0 0
128240.0 608060.0 0
133618.0 607441.0 0
138757.0 607616.0 0
143022.0 605365.0 0
147070.0 608262.0 0
152815.0 607858.0 0
158632.0 607276.0 0
163128.0 609237.0 0
166142.0 605323.0 0
166785.0 609777.0 0
170518.0 608265.0 0
175800.0 608193.0 0
181214.0 608699.0 0
184518.0 605359.0 0
186407.0 609165.0 0
196407.0 608625.0 0
200853.0 606084.0 0
205054.0 610060.0 0
210130.0 608687.0 0
215174.0 609303.0 0
219897.0 608986.0 0
225045.0 608600.0 0
230957.0 608525.0 0
237022.0 607380.0 0
242020.0 610036.0 0
253500.0 609404.0 0
258378.0 607355.0 0
263584.0 608750.0 0
269096.0 610189.0 0
274218.0 609282.0 0
279699.0 607593.0 0
285262.0 609909.0 0
289606.0 608527.0 0
293696.0 608384.0 0
297806.0 609878.0 0
303342.0 608890.0 0
308730.0 607029.0 0
313299.0 609229.0 0
317914.0 607711.0 0
321321.0 609192.0 0
321883.0 606002.0 0
325665.0 608926.0 0
330693.0 606074.0 0
334918.0 607496.0 0
339303.0 609284.0 0
344618.0 608412.0 0
350520.0 608192.0 0
356650.0 607667.0 0
361635.0 606715.0 0
366682.0 608512.0 0
377351.0 605453.0 0
373009.0 607748.0 0
378011.0 609272.0 0
382827.0 606462.0 0
388543.0 608092.0 0
393733.0 607026.0 0
399139.0 608413.0 0
404456.0 609535.0 0
408968.0 606901.0 0
414063.0 607981.0 0
419185.0 607426.0 0
423835.0 606577.0 0
427608.0 609074.0 0
432775.0 608059.0 0
436015.0 606990.0 0
443554.0 608401.0 0
447365.0 606992.0 0
451963.0 608477.0 0
457497.0 607122.0 0
462331.0 609981.0 0
467770.0 608000.0 0
472063.0 606614.0 0
475796.0 608928.0 0
480500.0 607301.0 0
485720.0 608308.0 0
491658.0 606523.0 0
497330.0 607138.0 0
2996.9 613043.0 0
8369.59 614760.0 0
13835.4 614261.0 0
19424.5 611603.0 0
25088.8 611721.0 0
29586.7 613805.0 0
34981.7 612759.0 0
40647.6 612453.0 0
43675.5 614785.0 0
46405.7 612469.0 0
50795.2 614092.0 0
55362.1 613633.0 0
60119.8 611737.0 0
65801.8 612902.0 0
72015.7 613478.0 0
81141.8 612167.0 0
77515.1 613035.0 0
85472.2 613471.0 0
91048.3 612028.0 0
97758.1 612879.0 0
103294.0 612599.0 0
109316.0 613763.0 0
115319.0 613683.0 0
117712.0 611366.0 0
121414.0 612637.0 0
126636.0 613342.0 0
132465.0 614575.0 0
136558.0 611461.0 0
142441.0 610665.0 0
139686.0 615130.0 0
147094.0 613807.0 0
154261.0 614281.0 0
159804.0 613046.0 0
164350.0 613623.0 0
168610.0 612767.0 0
173378.0 612742.0 0
178224.0 613562.0 0
182335.0 613254.0 0
186887.0 614364.0 0
191314.0 610481.0 0
197453.0 613730.0 0
200729.0 610456.0 0
202923.0 614303.0 0
207648.0 613455.0 0
212889.0 613298.0 0
217515.0 612955.0 0
221913.0 613754.0 0
227101.0 613837.0 0
232745.0 614181.0 0
237698.0 612739.0 0
244558.0 614648.0 0
240853.0 615210.0 0
247765.0 610500.0 0
251579.0 614753.0 0
259613.0 611591.0 0
256124.0 613474.0 0
262837.0 613342.0 0
267674.0 615391.0 0
272757.0 613478.0 0
277479.0 613208.0 0
282443.0 613606.0 0
289419.0 612815.0 0
294583.0 613297.0 0
299737.0 613490.0 0
304581.0 614737.0 0
307692.0 611279.0 0
311309.0 614172.0 0
316947.0 613230.0 0
322142.0 612767.0 0
326842.0 614331.0 0
332798.0 612277.0 0
338052.0 614018.0 0
342492.0 614133.0 0
347344.0 612711.0 0
351900.0 613104.0 0
356834.0 613682.0 0
362081.0 612256.0 0
366760.0 613939.0 0
371304.0 613124.0 0
376766.0 613876.0 0
381848.0 612482.0 0
386988.0 612867.0 0
392309.0 612460.0 0
402479.0 612968.0 0
398117.0 614409.0 0
406403.0 614568.0 0
410752.0 611657.0 0
415629.0 612920.0 0
421394.0 612729.0 0
427179.0 614370.0 0
433056.0 614277.0 0
438365.0 610776.0 0
443385.0 614702.0 0
447278.0 611123.0 0
451126.0 614068.0 0
456804.0 612915.0 0
461465.0 615148.0 0
466324.0 614451.0 0
471442.0 612025.0 0
476819.0 614954.0 0
481674.0 611811.0 0
490329.0 612436.0 0
496748.0 612971.0 0
2069.58 618917.0 0
5836.53 618357.0 0
11546.6 618930.0 0
18375.2 617722.0 0
23274.2 615909.0 0
28865.3 618479.0 0
32750.3 616670.0 0
38134.1 615963.0 0
37346.1 620112.0 0
42267.6 617989.0 0
46721.0 618577.0 0
50555.7 619042.0 0
55721.2 618451.0 0
62054.9 618077.0 0
67898.3 617483.0 0
71753.2 618774.0 0
76021.4 619071.0 0
80782.1 616679.0 0
85796.0 618954.0 0
94078.8 616947.0 0
99687.7 617985.0 0
104833.0 617587.0 0
109402.0 619603.0 0
113768.0 617337.0 0
118504.0 616548.0 0
123390.0 617674.0 0
128096.0 618388.0 0
132057.0 619341.0 0
136066.0 618581.0 0
143675.0 617639.0 0
147721.0 619173.0 0
152535.0 619848.0 0
157825.0 619213.0 0
162522.0 617593.0 0
167919.0 618127.0 0
173005.0 617247.0 0
177393.0 618404.0 0
182674.0 618023.0 0
188644.0 619807.0 0
192150.0 615697.0 0
193189.0 620085.0 0
196094.0 617857.0 0
200627.0 618893.0 0
206066.0 618416.0 0
212105.0 619005.0 0
217583.0 617499.0 0
222091.0 618845.0 0
226714.0 619015.0 0
231519.0 619307.0 0
236769.0 618086.0 0
241741.0 618877.0 0
247498.0 619626.0 0
253594.0 619440.0 0
258136.0 617544.0 0
263111.0 617672.0 0
272063.0 618059.0 0
280060.0 617981.0 0
284344.0 617848.0 0
288375.0 617650.0 0
292983.0 617896.0 0
297566.0 617614.0 0
302046.0 619126.0 0
307770.0 618562.0 0
313065.0 619121.0 0
318004.0 618560.0 0
322294.0 617079.0 0
326296.0 619715.0 0
336172.0 617325.0 0
331685.0 618582.0 0
340207.0 618388.0 0
346594.0 618718.0 0
352777.0 617774.0 0
357719.0 618894.0 0
363285.0 617958.0 0
369277.0 618185.0 0
373639.0 616873.0 0
376905.0 618654.0 0
382323.0 618727.0 0
388617.0 617626.0 0
393569.0 617559.0 0
397919.0 619712.0 0
403297.0 619821.0 0
412633.0 616566.0 0
408956.0 619162.0 0
417357.0 617718.0 0
422617.0 618644.0 0
427943.0 619733.0 0
437373.0 618485.0 0
442688.0 620399.0 0
447944.0 618551.0 0
453114.0 618417.0 0
457982.0 619071.0 0
463254.0 619283.0 0
467886.0 619226.0 0
472278.0 618601.0 0
481096.0 618799.0 0
484954.0 615607.0 0
489600.0 618247.0 0
485290.0 620503.0 0
497032.0 619128.0 0
2364.79 623309.0 0
7835.28 622167.0 0
12615.4 623587.0 0
17792.9 623298.0 0
23938.1 621791.0 0
29317.5 623114.0 0
32840.8 620817.0 0
35827.3 624928.0 0
41890.9 623316.0 0
47848.3 623457.0 0
52604.2 623058.0 0
57396.6 623729.0 0
62939.0 624406.0 0
67788.8 622263.0 0
72835.6 623029.0 0
77652.7 623591.0 0
81722.4 621682.0 0
85716.9 624093.0 0
90746.0 621852.0 0
96772.9 623229.0 0
101932.0 622590.0 0
106501.0 623799.0 0
111542.0 624465.0 0
116587.0 621828.0 0
125120.0 623460.0 0
130552.0 624012.0 0
133748.0 622389.0 0
138218.0 623266.0 0
143659.0 622339.0 0
149125.0 624502.0 0
154764.0 623342.0 0
162114.0 622251.0 0
158229.0 624824.0 0
166889.0 623932.0 0
172956.0 622768.0 0
179266.0 623402.0 0
184518.0 623225.0 0
188844.0 624529.0 0
192949.0 624037.0 0
197639.0 623184.0 0
202909.0 623895.0 0
208131.0 623209.0 0
213321.0 625000.0 0
218329.0 622573.0 0
222699.0 622752.0 0
226739.0 623886.0 0
232066.0 624583.0 0
237375.0 623545.0 0
242569.0 623551.0 0
252362.0 624373.0 0
257759.0 622961.0 0
262847.0 622406.0 0
267450.0 620702.0 0
272120.0 624360.0 0
275954.0 620673.0 0
279720.0 623417.0 0
285312.0 622422.0 0
291830.0 623302.0 0
298243.0 623057.0 0
303681.0 623521.0 0
308662.0 624231.0 0
312877.0 623294.0 0
317793.0 624417.0 0
321765.0 621002.0 0
324578.0 624691.0 0
329610.0 624091.0 0
335552.0 623202.0 0
341921.0 623462.0 0
351876.0 623060.0 0
347180.0 624531.0 0
357255.0 624070.0 0
363420.0 625013.0 0
369251.0 623543.0 0
373499.0 621033.0 0
377956.0 622843.0 0
382111.0 625665.0 0
387244.0 623222.0 0
393738.0 623238.0 0
399813.0 624990.0 0
404853.0 625191.0 0
409291.0 624069.0 0
413628.0 621226.0 0
418721.0 622541.0 0
423753.0 624116.0 0
432667.0 621285.0 0
429002.0 624746.0 0
437504.0 623815.0 0
441639.0 624874.0 0
446475.0 623536.0 0
451201.0 622935.0 0
455998.0 623724.0 0
460974.0 624170.0 0
465554.0 623265.0 0
470337.0 623365.0 0
476832.0 620821.0 0
481362.0 624515.0 0
487409.0 624904.0 0
492595.0 622904.0 0
497638.0 624408.0 0
2107.4 627742.0 0
6179.25 626557.0 0
10534.8 627833.0 0
15370.9 627996.0 0
21351.8 627807.0 0
27109.6 627343.0 0
32335.0 629116.0 0
37638.1 629633.0 0
41874.0 628601.0 0
46478.0 628554.0 0
52460.0 627784.0 0
60005.4 628831.0 0
56190.9 629213.0 0
65110.1 629353.0 0
69580.9 626923.0 0
75056.2 628373.0 0
81352.8 627655.0 0
87119.2 628991.0 0
92752.2 627699.0 0
97999.5 628646.0 0
102888.0 627565.0 0
108222.0 628566.0 0
114491.0 629222.0 0
119690.0 626769.0 0
124472.0 629941.0 0
129315.0 627988.0 0
133707.0 627805.0 0
137566.0 627884.0 0
141863.0 627185.0 0
147698.0 630212.0 0
154087.0 627429.0 0
162871.0 627414.0 0
158383.0 629038.0 0
168397.0 628413.0 0
173493.0 628182.0 0
177395.0 628884.0 0
182284.0 628103.0 0
186908.0 627658.0 0
192298.0 628462.0 0
197331.0 627485.0 0
203595.0 629458.0 0
208426.0 627919.0 0
212386.0 629857.0 0
217234.0 629612.0 0
221586.0 626727.0 0
225975.0 628703.0 0
230753.0 629807.0 0
236693.0 629659.0 0
242410.0 628610.0 0
247274.0 625990.0 0
247376.0 630422.0 0
251151.0 629095.0 0
255881.0 628214.0 0
262152.0 628489.0 0
266182.0 626190.0 0
270323.0 629936.0 0
277114.0 629052.0 0
282690.0 626979.0 0
287614.0 628041.0 0
293109.0 629332.0 0
301097.0 628054.0 0
307168.0 629667.0 0
312695.0 627892.0 0
323945.0 629200.0 0
330624.0 627951.0 0
327664.0 628050.0 0
334027.0 628456.0 0
338763.0 628172.0 0
344432.0 629239.0 0
352213.0 629276.0 0
358919.0 629709.0 0
368980.0 628365.0 0
373952.0 626658.0 0
378818.0 629878.0 0
384526.0 629496.0 0
389582.0 629027.0 0
395664.0 629273.0 0
402912.0 629005.0 0
408056.0 629488.0 0
413833.0 627296.0 0
419803.0 627556.0 0
425364.0 628827.0 0
433669.0 626482.0 0
430042.0 629703.0 0
436372.0 628628.0 0
434485.0 630344.0 0
439770.0 628850.0 0
444911.0 628273.0 0
451907.0 628843.0 0
457496.0 628031.0 0
461656.0 628790.0 0
465997.0 627716.0 0
470541.0 628094.0 0
475245.0 626371.0 0
479546.0 629854.0 0
485875.0 630428.0 0
491626.0 628640.0 0
497259.0 629479.0 0
1812.48 631648.0 0
6789.13 631839.0 0
12587.2 632371.0 0
18108.0 632674.0 0
23480.5 633497.0 0
28147.4 633017.0 0
34373.0 634770.0 0
39011.3 633427.0 0
43715.0 632507.0 0
49786.7 631338.0 0
47500.0 633983.0 0
52105.7 635288.0 0
57346.1 633388.0 0
62636.6 633877.0 0
67489.1 633656.0 0
72696.3 634086.0 0
78220.0 633283.0 0
83592.9 633056.0 0
88247.2 634694.0 0
93366.5 633758.0 0
98572.2 633099.0 0
104673.0 632573.0 0
110613.0 633212.0 0
115072.0 634375.0 0
119307.0 632257.0 0
123090.0 634148.0 0
127584.0 633197.0 0
131950.0 632417.0 0
137197.0 632073.0 0
142555.0 632633.0 0
147731.0 635258.0 0
153139.0 633294.0 0
163170.0 632599.0 0
158641.0 633159.0 0
168444.0 633320.0 0
173676.0 632458.0 0
179065.0 633934.0 0
184828.0 633016.0 0
188880.0 630817.0 0
192854.0 633560.0 0
198498.0 632099.0 0
203326.0 635258.0 0
207803.0 632547.0 0
212387.0 634637.0 0
217696.0 635039.0 0
222144.0 631955.0 0
227307.0 634036.0 0
232778.0 634678.0 0
238301.0 635878.0 0
244098.0 633969.0 0
249653.0 633644.0 0
253866.0 635240.0 0
259004.0 633184.0 0
264099.0 634707.0 0
265774.0 631036.0 0
268300.0 634328.0 0
273417.0 634107.0 0
278718.0 635394.0 0
283312.0 631931.0 0
288586.0 633879.0 0
293799.0 634552.0 0
297525.0 631484.0 0
302217.0 633697.0 0
307118.0 634873.0 0
312404.0 634052.0 0
318591.0 631181.0 0
316745.0 635594.0 0
323929.0 634115.0 0
330045.0 632847.0 0
336246.0 632618.0 0
341633.0 635265.0 0
347973.0 633764.0 0
356284.0 634207.0 0
352267.0 635517.0 0
360824.0 634796.0 0
364723.0 631234.0 0
371955.0 632571.0 0
367644.0 635690.0 0
382677.0 633724.0 0
377625.0 635160.0 0
388467.0 635449.0 0
395307.0 635685.0 0
399889.0 631469.0 0
403972.0 634085.0 0
412561.0 632783.0 0
408875.0 635441.0 0
417122.0 631502.0 0
421912.0 632343.0 0
427074.0 634061.0 0
432623.0 634231.0 0
437915.0 633512.0 0
442409.0 632432.0 0
447382.0 633523.0 0
452809.0 634716.0 0
458448.0 633444.0 0
463596.0 632295.0 0
468264.0 632324.0 0
473477.0 631657.0 0
471439.0 635635.0 0
477573.0 633537.0 0
481746.0 633759.0 0
485776.0 635758.0 0
491227.0 634820.0 0
497370.0 634833.0 0
2708.23 636078.0 0
7544.12 639026.0 0
12582.3 637376.0 0
18091.8 638915.0 0
23953.1 638518.0 0
28652.6 637456.0 0
32717.6 640724.0 0
37363.6 639142.0 0
41755.5 637179.0 0
47298.4 638284.0 0
56025.0 638471.0 0
60834.0 638669.0 0
66407.5 638769.0 0
71960.9 639426.0 0
81038.2 637538.0 0
76559.7 638035.0 0
85474.9 638742.0 0
90899.8 639581.0 0
96795.6 638168.0 0
101718.0 636709.0 0
107095.0 637428.0 0
112380.0 637908.0 0
120601.0 637525.0 0
126009.0 637190.0 0
131763.0 638459.0 0
138306.0 637775.0 0
143873.0 637615.0 0
152947.0 639164.0 0
148255.0 640206.0 0
157204.0 637421.0 0
162579.0 638037.0 0
168248.0 638922.0 0
174120.0 638075.0 0
188605.0 636489.0 0
183828.0 638567.0 0
192869.0 639307.0 0
198971.0 639529.0 0
203835.0 640095.0 0
208224.0 638509.0 0
218925.0 639169.0 0
214631.0 639444.0 0
222546.0 638401.0 0
228895.0 639013.0 0
234217.0 639703.0 0
238652.0 640882.0 0
242879.0 639415.0 0
248016.0 638409.0 0
252397.0 638842.0 0
256546.0 639251.0 0
261460.0 638354.0 0
266076.0 638436.0 0
270560.0 638194.0 0
275390.0 640035.0 0
283191.0 638383.0 0
288644.0 639724.0 0
294128.0 639451.0 0
297937.0 636061.0 0
299998.0 639144.0 0
304576.0 638938.0 0
309293.0 638365.0 0
315296.0 638871.0 0
311908.0 640909.0 0
319955.0 636598.0 0
322222.0 640715.0 0
327826.0 639298.0 0
335117.0 638006.0 0
339262.0 639608.0 0
346764.0 638306.0 0
350749.0 639252.0 0
357686.0 639162.0 0
363145.0 638999.0 0
367274.0 640320.0 0
372721.0 639102.0 0
379062.0 640245.0 0
383123.0 638222.0 0
386349.0 640529.0 0
400235.0 637011.0 0
398371.0 640073.0 0
402969.0 640139.0 0
407805.0 639707.0 0
412985.0 638264.0 0
418302.0 636293.0 0
422886.0 639310.0 0
427670.0 638850.0 0
432173.0 639482.0 0
437303.0 638739.0 0
442976.0 637823.0 0
448425.0 638956.0 0
455901.0 638797.0 0
462958.0 636256.0 0
460482.0 639429.0 0
467380.0 637520.0 0
474109.0 638661.0 0
479069.0 638094.0 0
483638.0 639274.0 0
487274.0 639448.0 0
497342.0 640108.0 0
2545.99 641325.0 0
2127.49 645971.0 0
7075.44 644906.0 0
11109.9 642574.0 0
15165.4 643693.0 0
21633.7 644292.0 0
27405.8 642346.0 0
38005.8 643587.0 0
43613.2 641891.0 0
47836.7 643595.0 0
52066.6 641020.0 0
57485.0 642780.0 0
62963.6 643013.0 0
67586.4 644031.0 0
71823.6 643948.0 0
75834.8 642521.0 0
81405.2 643066.0 0
86778.4 643399.0 0
91909.4 645974.0 0
97545.5 643679.0 0
103365.0 642075.0 0
109346.0 642807.0 0
116481.0 641960.0 0
122273.0 642311.0 0
119905.0 645319.0 0
127269.0 642393.0 0
131693.0 643581.0 0
136207.0 643375.0 0
142999.0 643100.0 0
149262.0 645379.0 0
154680.0 643247.0 0
158930.0 641454.0 0
158633.0 646009.0 0
165064.0 642169.0 0
169333.0 644406.0 0
174261.0 643452.0 0
177549.0 645699.0 0
178964.0 641461.0 0
183303.0 645027.0 0
188157.0 642230.0 0
192931.0 644132.0 0
197045.0 644282.0 0
202618.0 644170.0 0
207689.0 643978.0 0
212340.0 643759.0 0
217618.0 644102.0 0
222880.0 643764.0 0
226875.0 642619.0 0
231107.0 643917.0 0
236039.0 644291.0 0
240838.0 644457.0 0
246061.0 643947.0 0
251836.0 643123.0 0
257710.0 644208.0 0
262797.0 643261.0 0
268286.0 642954.0 0
273307.0 645061.0 0
278510.0 644547.0 0
282966.0 642973.0 0
286975.0 644972.0 0
292294.0 644556.0 0
297710.0 643029.0 0
303207.0 644059.0 0
308174.0 642843.0 0
312635.0 644814.0 0
317553.0 643424.0 0
322265.0 645854.0 0
327006.0 644842.0 0
332532.0 643665.0 0
338559.0 643805.0 0
343020.0 641027.0 0
344333.0 644780.0 0
348014.0 642905.0 0
352577.0 642695.0 0
356641.0 644600.0 0
362483.0 644699.0 0
369206.0 645312.0 0
374505.0 644798.0 0
382500.0 643564.0 0
378260.0 644724.0 0
387435.0 644429.0 0
391665.0 641330.0 0
395790.0 644168.0 0
400124.0 644376.0 0
405773.0 644011.0 0
411119.0 643942.0 0
417104.0 642709.0 0
422665.0 645020.0 0
427103.0 642848.0 0
431494.0 644722.0 0
437121.0 644338.0 0
442045.0 643042.0 0
447001.0 644089.0 0
452129.0 642346.0 0
456774.0 644654.0 0
461612.0 643598.0 0
466592.0 644365.0 0
470507.0 641244.0 0
475324.0 643870.0 0
481168.0 643225.0 0
486664.0 644048.0 0
491753.0 641074.0 0
498259.0 644405.0 0
8747.31 649793.0 0
11899.7 646667.0 0
12919.6 650817.0 0
17367.1 647616.0 0
21767.2 649336.0 0
26464.3 647886.0 0
33067.1 647305.0 0
38619.3 649597.0 0
42241.9 646323.0 0
46766.8 648378.0 0
53159.7 647457.0 0
60081.3 647272.0 0
65231.4 648316.0 0
70161.8 648345.0 0
73830.0 649951.0 0
76563.3 647302.0 0
81638.2 649240.0 0
86867.7 647976.0 0
92920.5 650413.0 0
97296.3 649652.0 0
103433.0 648391.0 0
109121.0 648282.0 0
113058.0 646138.0 0
117023.0 647476.0 0
113590.0 650201.0 0
122933.0 647496.0 0
127691.0 647487.0 0
133361.0 648576.0 0
139331.0 647953.0 0
145017.0 649338.0 0
149950.0 650038.0 0
153861.0 647992.0 0
157969.0 651120.0 0
164049.0 646750.0 0
168337.0 649238.0 0
173913.0 649490.0 0
179926.0 649247.0 0
188131.0 647383.0 0
184403.0 649797.0 0
192890.0 648984.0 0
196848.0 647707.0 0
200965.0 649425.0 0
206680.0 649169.0 0
212781.0 649204.0 0
218361.0 649224.0 0
222661.0 649799.0 0
226774.0 647279.0 0
231965.0 648997.0 0
237381.0 649325.0 0
242993.0 648161.0 0
247962.0 649851.0 0
252467.0 647663.0 0
256709.0 649298.0 0
261229.0 647755.0 0
265984.0 647948.0 0
270562.0 648740.0 0
276288.0 649672.0 0
282689.0 649052.0 0
288927.0 649916.0 0
294700.0 649991.0 0
299785.0 647826.0 0
304662.0 648772.0 0
308607.0 647238.0 0
312197.0 649490.0 0
316828.0 648504.0 0
325532.0 649010.0 0
321627.0 650308.0 0
330723.0 649882.0 0
336347.0 648630.0 0
341859.0 648406.0 0
346741.0 647415.0 0
351922.0 647739.0 0
358888.0 648268.0 0
361922.0 650628.0 0
366573.0 650743.0 0
377478.0 648417.0 0
373620.0 648660.0 0
381276.0 648075.0 0
386278.0 649399.0 0
391074.0 646861.0 0
394747.0 650020.0 0
399250.0 648970.0 0
408190.0 647460.0 0
404067.0 648769.0 0
411985.0 649746.0 0
417971.0 648923.0 0
427736.0 647758.0 0
424284.0 649414.0 0
431750.0 649996.0 0
436884.0 648543.0 0
441159.0 648547.0 0
446535.0 649422.0 0
451653.0 647761.0 0
456576.0 649688.0 0
461465.0 648534.0 0
466322.0 649394.0 0
471536.0 648706.0 0
478163.0 649597.0 0
482842.0 647593.0 0
487251.0 649994.0 0
494233.0 646191.0 0
497869.0 649323.0 0
3369.04 651313.0 0
9511.14 654991.0 0
18082.4 654044.0 0
24411.9 652852.0 0
29092.3 655620.0 0
35135.4 653949.0 0
39092.1 653438.0 0
43100.5 652169.0 0
49209.6 652051.0 0
52999.7 655328.0 0
57474.1 652275.0 0
62269.0 652067.0 0
66349.7 654814.0 0
71673.2 654772.0 0
76973.2 652870.0 0
85946.6 652533.0 0
81847.2 655440.0 0
91014.5 654523.0 0
96209.0 654659.0 0
101420.0 654426.0 0
107294.0 653273.0 0
113048.0 655555.0 0
117772.0 652090.0 0
123521.0 653048.0 0
129166.0 652430.0 0
133136.0 653660.0 0
138153.0 653506.0 0
143712.0 655167.0 0
148177.0 653424.0 0
153233.0 654325.0 0
163131.0 653800.0 0
169415.0 654258.0 0
174330.0 654872.0 0
183429.0 653826.0 0
178731.0 654170.0 0
188279.0 652613.0 0
192798.0 653347.0 0
197000.0 652954.0 0
202786.0 653830.0 0
208443.0 653886.0 0
213075.0 655021.0 0
217796.0 653806.0 0
222608.0 654362.0 0
227972.0 652965.0 0
233098.0 653478.0 0
237537.0 654734.0 0
241649.0 652364.0 0
245608.0 654813.0 0
250009.0 654587.0 0
254924.0 654529.0 0
261405.0 653556.0 0
268182.0 653260.0 0
273831.0 654746.0 0
279402.0 654458.0 0
283700.0 653988.0 0
287206.0 654984.0 0
291573.0 654262.0 0
296232.0 655207.0 0
301448.0 653245.0 0
308015.0 653524.0 0
313700.0 653870.0 0
318067.0 652900.0 0
326369.0 653456.0 0
321990.0 655032.0 0
330785.0 655613.0 0
335097.0 653367.0 0
340134.0 653695.0 0
347822.0 652167.0 0
353136.0 653367.0 0
357871.0 652162.0 0
361483.0 655024.0 0
366493.0 655622.0 0
371363.0 652788.0 0
376875.0 653241.0 0
382035.0 653060.0 0
385838.0 654248.0 0
390955.0 654177.0 0
397851.0 652617.0 0
401424.0 652843.0 0
407423.0 652896.0 0
413025.0 655234.0 0
422715.0 652496.0 0
418763.0 655064.0 0
427107.0 653035.0 0
431472.0 654862.0 0
436713.0 653319.0 0
441853.0 653979.0 0
445978.0 654293.0 0
451431.0 653713.0 0
457443.0 654834.0 0
461865.0 653077.0 0
465799.0 653722.0 0
471573.0 654240.0 0
476100.0 654272.0 0
482442.0 653652.0 0
487457.0 655702.0 0
492899.0 651392.0 0
492286.0 656300.0 0
497465.0 653952.0 0
3714.47 658373.0 0
13729.5 659230.0 0
19206.1 661176.0 0
23481.4 657679.0 0
27321.9 660825.0 0
33339.4 660135.0 0
40365.9 657338.0 0
47021.3 656675.0 0
50528.1 661138.0 0
56025.0 660496.0 0
61372.2 657532.0 0
66949.6 660475.0 0
72859.3 660348.0 0
77480.3 658081.0 0
86492.6 658203.0 0
81753.8 660781.0 0
91565.1 660239.0 0
96640.7 659276.0 0
101606.0 660023.0 0
107727.0 660044.0 0
114609.0 660561.0 0
118414.0 657314.0 0
122264.0 660664.0 0
127906.0 658105.0 0
134473.0 658435.0 0
140153.0 659192.0 0
148747.0 658086.0 0
153230.0 659477.0 0
158333.0 658123.0 0
168340.0 658472.0 0
164290.0 659980.0 0
172551.0 659471.0 0
178322.0 659451.0 0
183466.0 658466.0 0
188598.0 658044.0 0
194539.0 658116.0 0
199649.0 658622.0 0
203160.0 659106.0 0
207213.0 658337.0 0
212364.0 659776.0 0
217290.0 658671.0 0
222161.0 659116.0 0
227125.0 658574.0 0
232057.0 657835.0 0
236810.0 659868.0 0
241633.0 657717.0 0
246724.0 659913.0 0
251704.0 658588.0 0
257059.0 660361.0 0
263712.0 660169.0 0
268862.0 658431.0 0
273198.0 659906.0 0
278015.0 659439.0 0
283521.0 658386.0 0
287949.0 658585.0 0
292937.0 658777.0 0
296420.0 659009.0 0
300256.0 659061.0 0
306226.0 659876.0 0
312189.0 658791.0 0
317094.0 657250.0 0
321366.0 659537.0 0
326452.0 658745.0 0
332653.0 660468.0 0
337801.0 658414.0 0
342328.0 658139.0 0
347214.0 657586.0 0
357004.0 656432.0 0
352615.0 658890.0 0
363571.0 659244.0 0
369181.0 658756.0 0
373457.0 657570.0 0
378223.0 658849.0 0
387179.0 658210.0 0
382755.0 660215.0 0
391796.0 659794.0 0
396404.0 656884.0 0
402194.0 657707.0 0
408207.0 658844.0 0
413526.0 659933.0 0
418407.0 661081.0 0
423573.0 658242.0 0
427474.0 657863.0 0
432694.0 658913.0 0
437031.0 658879.0 0
442014.0 658378.0 0
448533.0 658803.0 0
453735.0 658702.0 0
458241.0 659802.0 0
462754.0 657694.0 0
467923.0 657577.0 0
473116.0 659975.0 0
479023.0 658070.0 0
484283.0 660032.0 0
488645.0 659766.0 0
493686.0 660172.0 0
497977.0 658464.0 0
3250.86 665298.0 0
9003.0 662177.0 0
14364.3 665248.0 0
19419.9 666279.0 0
23808.8 664739.0 0
28930.8 665411.0 0
33732.4 665734.0 0
38433.6 663346.0 0
44067.0 661976.0 0
48076.5 665223.0 0
52804.7 666044.0 0
58045.4 664920.0 0
61389.5 662763.0 0
64676.5 664945.0 0
73991.1 665300.0 0
77348.2 663518.0 0
86156.1 663349.0 0
81882.7 666079.0 0
90469.5 664905.0 0
95336.2 664393.0 0
100820.0 665245.0 0
106156.0 666082.0 0
112184.0 664144.0 0
117915.0 662584.0 0
121362.0 665584.0 0
127015.0 664933.0 0
132257.0 663173.0 0
137284.0 663801.0 0
142313.0 666005.0 0
144722.0 661437.0 0
148865.0 664319.0 0
154163.0 664169.0 0
159919.0 664092.0 0
165235.0 665727.0 0
168991.0 663215.0 0
173148.0 664808.0 0
177517.0 664194.0 0
181938.0 663189.0 0
187051.0 663114.0 0
192833.0 664471.0 0
198029.0 662458.0 0
202952.0 663575.0 0
208759.0 663634.0 0
214154.0 663835.0 0
218403.0 663226.0 0
222503.0 663618.0 0
226759.0 663470.0 0
232122.0 663372.0 0
238136.0 664108.0 0
242168.0 662776.0 0
247113.0 664964.0 0
252194.0 663121.0 0
257515.0 665276.0 0
261073.0 664780.0 0
269089.0 663556.0 0
274110.0 664343.0 0
278651.0 664241.0 0
283438.0 663623.0 0
287688.0 663687.0 0
291938.0 663450.0 0
296365.0 662266.0 0
300959.0 664887.0 0
306029.0 665047.0 0
311021.0 664584.0 0
316878.0 662651.0 0
323215.0 664232.0 0
328500.0 663754.0 0
332733.0 665028.0 0
341830.0 662844.0 0
336881.0 663573.0 0
347343.0 663290.0 0
352799.0 664288.0 0
358320.0 661909.0 0
367233.0 663258.0 0
362760.0 664332.0 0
373238.0 663104.0 0
378641.0 663668.0 0
387490.0 663350.0 0
383005.0 664568.0 0
391770.0 664954.0 0
395814.0 662901.0 0
401228.0 663230.0 0
406611.0 664751.0 0
411222.0 663237.0 0
414773.0 663895.0 0
423485.0 663818.0 0
428357.0 661723.0 0
433181.0 663824.0 0
438181.0 663148.0 0
442118.0 662701.0 0
446096.0 663341.0 0
451632.0 663905.0 0
456426.0 663301.0 0
460922.0 663550.0 0
465997.0 662377.0 0
470428.0 664958.0 0
475795.0 665892.0 0
480292.0 662984.0 0
484289.0 665010.0 0
490454.0 665014.0 0
497110.0 663482.0 0
2051.75 670438.0 0
8506.95 667373.0 0
6248.23 671486.0 0
12219.8 670677.0 0
17825.9 670948.0 0
22083.7 668856.0 0
26196.5 669404.0 0
32491.7 669945.0 0
37446.8 669697.0 0
43064.8 667771.0 0
48141.5 670056.0 0
56840.2 669105.0 0
62449.4 669426.0 0
68948.7 667867.0 0
73602.2 669837.0 0
77630.5 668820.0 0
82804.0 670691.0 0
87079.9 668461.0 0
92947.9 669240.0 0
97446.3 668576.0 0
102196.0 670153.0 0
106283.0 670525.0 0
110583.0 669044.0 0
116430.0 667890.0 0
121537.0 670149.0 0
126227.0 670730.0 0
133316.0 668094.0 0
138102.0 668935.0 0
142162.0 670890.0 0
146437.0 668931.0 0
151241.0 668594.0 0
156143.0 669603.0 0
161076.0 669255.0 0
165413.0 671112.0 0
170534.0 669450.0 0
176228.0 668847.0 0
182052.0 668743.0 0
188131.0 668648.0 0
193633.0 670542.0 0
198693.0 667601.0 0
202321.0 670288.0 0
205564.0 667990.0 0
212450.0 668339.0 0
216842.0 668491.0 0
221128.0 668200.0 0
226569.0 668691.0 0
231505.0 668469.0 0
236788.0 668938.0 0
243047.0 668238.0 0
247878.0 669004.0 0
251851.0 667667.0 0
256378.0 669200.0 0
261155.0 669075.0 0
266108.0 668433.0 0
271031.0 668434.0 0
276026.0 668795.0 0
282274.0 668339.0 0
286786.0 668441.0 0
291470.0 668456.0 0
296034.0 666742.0 0
296769.0 671604.0 0
301902.0 670415.0 0
307896.0 668320.0 0
315951.0 668264.0 0
311511.0 670063.0 0
321284.0 669297.0 0
325654.0 667994.0 0
330085.0 669044.0 0
335454.0 668302.0 0
341236.0 668581.0 0
347584.0 669443.0 0
353720.0 669737.0 0
360220.0 668622.0 0
366539.0 669175.0 0
371302.0 670538.0 0
374266.0 667859.0 0
378729.0 669171.0 0
383648.0 668697.0 0
388879.0 668905.0 0
393801.0 668324.0 0
398129.0 667486.0 0
402963.0 668602.0 0
407519.0 668279.0 0
411151.0 668087.0 0
417056.0 667971.0 0
422157.0 668480.0 0
427449.0 668340.0 0
432578.0 668528.0 0
437018.0 667921.0 0
442695.0 667611.0 0
448062.0 668085.0 0
452922.0 669811.0 0
457846.0 667479.0 0
462102.0 669919.0 0
466437.0 667736.0 0
472209.0 669121.0 0
476897.0 671127.0 0
480931.0 668495.0 0
486125.0 670283.0 0
493127.0 670736.0 0
497547.0 668802.0 0
3091.96 675408.0 0
8038.0 675408.0 0
12538.5 675688.0 0
20267.8 674302.0 0
17437.6 676493.0 0
23332.0 673088.0 0
29403.3 674028.0 0
36636.3 675894.0 0
41621.0 672520.0 0
46914.3 674251.0 0
50495.3 676082.0 0
52873.9 672196.0 0
57583.3 673998.0 0
62049.0 674595.0 0
66422.1 673435.0 0
71160.4 673005.0 0
75944.8 673499.0 0
81162.7 675545.0 0
87075.7 674217.0 0
92417.9 674254.0 0
96983.3 672902.0 0
101471.0 674876.0 0
106527.0 674902.0 0
112180.0 674643.0 0
118336.0 674524.0 0
123612.0 674494.0 0
130810.0 673475.0 0
135912.0 672588.0 0
139909.0 675113.0 0
143575.0 674183.0 0
147513.0 673911.0 0
152579.0 673237.0 0
157281.0 674086.0 0
161774.0 674405.0 0
168015.0 674601.0 0
172850.0 674854.0 0
177612.0 673453.0 0
181814.0 673990.0 0
187547.0 674472.0 0
192336.0 674884.0 0
198382.0 673168.0 0
202903.0 673832.0 0
208641.0 673476.0 0
213812.0 675273.0 0
216063.0 672253.0 0
220509.0 673397.0 0
225628.0 674231.0 0
230908.0 673159.0 0
235734.0 674394.0 0
240390.0 674156.0 0
246212.0 674049.0 0
253182.0 674321.0 0
259567.0 673967.0 0
264214.0 674216.0 0
268957.0 673390.0 0
273384.0 673174.0 0
278432.0 673820.0 0
283218.0 672833.0 0
287031.0 672462.0 0
291353.0 673951.0 0
300796.0 675076.0 0
306442.0 672095.0 0
310211.0 674431.0 0
316050.0 674479.0 0
322096.0 674728.0 0
326604.0 673142.0 0
331527.0 674500.0 0
337278.0 673658.0 0
342410.0 673465.0 0
346486.0 675116.0 0
350983.0 673939.0 0
357499.0 674566.0 0
363482.0 674102.0 0
368644.0 673466.0 0
375054.0 673526.0 0
379796.0 673792.0 0
384296.0 673379.0 0
392683.0 671927.0 0
389150.0 674371.0 0
397502.0 673039.0 0
402502.0 672221.0 0
402129.0 675592.0 0
407090.0 672885.0 0
413255.0 673187.0 0
418694.0 673585.0 0
423755.0 672627.0 0
428356.0 674004.0 0
433628.0 673224.0 0
438371.0 672241.0 0
437507.0 675803.0 0
442782.0 673505.0 0
448348.0 673294.0 0
453870.0 675165.0 0
457649.0 672261.0 0
461504.0 674414.0 0
467078.0 673525.0 0
472775.0 673244.0 0
478009.0 674622.0 0
481929.0 673739.0 0
489754.0 674252.0 0
494166.0 675020.0 0
497892.0 673346.0 0
2916.09 681087.0 0
8568.41 680214.0 0
14290.1 680184.0 0
24113.4 677325.0 0
20649.7 680121.0 0
27470.2 678100.0 0
30971.3 679335.0 0
35106.1 681025.0 0
39563.8 680727.0 0
42110.2 676823.0 0
46659.1 678553.0 0
50309.7 680714.0 0
54815.4 678924.0 0
60585.5 678985.0 0
65836.4 678568.0 0
72329.9 678997.0 0
78456.1 680329.0 0
82170.4 679806.0 0
85572.8 679146.0 0
91580.3 679904.0 0
97131.1 677871.0 0
103007.0 680571.0 0
109066.0 679559.0 0
113600.0 679333.0 0
121545.0 679562.0 0
127222.0 678175.0 0
133703.0 679413.0 0
140120.0 680499.0 0
144897.0 678251.0 0
149575.0 679612.0 0
154618.0 678083.0 0
159640.0 678653.0 0
163816.0 678932.0 0
167747.0 678555.0 0
171783.0 679858.0 0
177225.0 679144.0 0
183589.0 678972.0 0
188745.0 679218.0 0
192066.0 677936.0 0
197353.0 678960.0 0
203415.0 678571.0 0
209179.0 680531.0 0
213924.0 678741.0 0
217687.0 678297.0 0
222318.0 678534.0 0
227450.0 679113.0 0
232925.0 678769.0 0
238567.0 678923.0 0
242979.0 678499.0 0
247857.0 679797.0 0
251800.0 679211.0 0
255793.0 679930.0 0
260861.0 679144.0 0
265937.0 678205.0 0
271826.0 678995.0 0
276999.0 678332.0 0
282215.0 678573.0 0
287682.0 677512.0 0
291586.0 680321.0 0
296090.0 677237.0 0
300565.0 679606.0 0
305763.0 677747.0 0
311679.0 679110.0 0
316860.0 680938.0 0
321938.0 679537.0 0
327441.0 678634.0 0
332630.0 679140.0 0
337072.0 679139.0 0
341859.0 677759.0 0
351941.0 678556.0 0
347069.0 680132.0 0
357721.0 680867.0 0
362951.0 679231.0 0
367648.0 677880.0 0
372353.0 677508.0 0
376911.0 678511.0 0
382068.0 678302.0 0
387567.0 679694.0 0
393970.0 678514.0 0
399565.0 679339.0 0
405512.0 679952.0 0
411479.0 678419.0 0
417174.0 679035.0 0
423323.0 678302.0 0
429660.0 679394.0 0
435220.0 679268.0 0
440942.0 678464.0 0
446543.0 678912.0 0
451832.0 679639.0 0
458310.0 678592.0 0
464023.0 678640.0 0
469202.0 678933.0 0
473934.0 677883.0 0
478663.0 678798.0 0
483129.0 678173.0 0
487733.0 678967.0 0
492517.0 678810.0 0
497284.0 678389.0 0
1225.6 684867.0 0
6751.72 684614.0 0
11820.3 684038.0 0
17509.9 683924.0 0
21648.1 684060.0 0
26009.7 682329.0 0
31728.8 684152.0 0
37354.1 685752.0 0
42131.3 684149.0 0
46332.5 683457.0 0
52515.5 684959.0 0
58208.9 683738.0 0
63498.0 683288.0 0
68078.0 682989.0 0
71628.1 685262.0 0
76731.3 685367.0 0
81850.2 683847.0 0
86950.6 683750.0 0
91647.6 686192.0 0
97198.0 683992.0 0
107114.0 684942.0 0
102142.0 685881.0 0
112216.0 683892.0 0
116851.0 681981.0 0
118046.0 686848.0 0
122822.0 684708.0 0
128673.0 684369.0 0
135201.0 686194.0 0
139542.0 684637.0 0
144513.0 683372.0 0
148584.0 684747.0 0
153217.0 683578.0 0
158253.0 682894.0 0
162852.0 683341.0 0
168136.0 683433.0 0
174012.0 682914.0 0
177405.0 684623.0 0
181742.0 683916.0 0
186633.0 683990.0 0
192328.0 682847.0 0
197464.0 684605.0 0
201766.0 683234.0 0
206072.0 685909.0 0
214517.0 683100.0 0
218919.0 683692.0 0
222500.0 683738.0 0
226815.0 684769.0 0
232301.0 683842.0 0
237229.0 684050.0 0
242407.0 683165.0 0
247110.0 684645.0 0
252500.0 683742.0 0
256716.0 684574.0 0
261550.0 684332.0 0
267219.0 683904.0 0
272706.0 684819.0 0
277626.0 682896.0 0
282137.0 685667.0 0
286760.0 682707.0 0
291420.0 685321.0 0
296767.0 683359.0 0
302656.0 683952.0 0
307590.0 683147.0 0
312227.0 684213.0 0
320948.0 684471.0 0
316458.0 685799.0 0
326423.0 684567.0 0
331735.0 683636.0 0
337572.0 684819.0 0
342964.0 682689.0 0
347467.0 685203.0 0
352871.0 684361.0 0
357996.0 686385.0 0
366521.0 682444.0 0
362407.0 683676.0 0
372149.0 682522.0 0
368513.0 686762.0 0
376928.0 683030.0 0
381055.0 683144.0 0
385460.0 685054.0 0
391352.0 684578.0 0
396899.0 683692.0 0
401806.0 684346.0 0
407775.0 685571.0 0
412907.0 683348.0 0
417874.0 684744.0 0
422487.0 683463.0 0
426736.0 684041.0 0
432783.0 683444.0 0
430323.0 686744.0 0
437558.0 683993.0 0
442995.0 683308.0 0
448169.0 684351.0 0
452398.0 683596.0 0
456581.0 683869.0 0
461869.0 683646.0 0
467422.0 683826.0 0
472612.0 682417.0 0
477313.0 683260.0 0
482286.0 683042.0 0
488495.0 684368.0 0
493000.0 683309.0 0
497500.0 683385.0 0
2838.54 688597.0 0
8061.28 689495.0 0
13283.5 688832.0 0
18036.8 688441.0 0
22074.5 690615.0 0
27261.6 688369.0 0
32900.4 689547.0 0
37571.7 691419.0 0
42150.9 689206.0 0
47708.8 688446.0 0
52130.3 690707.0 0
56767.2 689050.0 0
62053.7 688241.0 0
67600.6 688576.0 0
73058.1 690217.0 0
78379.0 690538.0 0
84265.0 689268.0 0
89763.2 690639.0 0
94465.7 690520.0 0
99100.5 689274.0 0
104187.0 690296.0 0
108967.0 689144.0 0
112924.0 688468.0 0
115964.0 690763.0 0
122178.0 689681.0 0
128217.0 691771.0 0
134940.0 691411.0 0
139026.0 689718.0 0
143424.0 688350.0 0
147015.0 690621.0 0
150998.0 688826.0 0
157205.0 688404.0 0
162960.0 688116.0 0
167815.0 689403.0 0
172968.0 687270.0 0
178016.0 689180.0 0
183232.0 688706.0 0
188088.0 688619.0 0
192547.0 688384.0 0
197234.0 689249.0 0
202500.0 688615.0 0
208015.0 690467.0 0
212644.0 688423.0 0
217500.0 688571.0 0
222500.0 688439.0 0
227998.0 690080.0 0
232820.0 688525.0 0
237719.0 688962.0 0
242755.0 687722.0 0
247890.0 688980.0 0
252095.0 687998.0 0
256407.0 688797.0 0
260823.0 689332.0 0
265601.0 689091.0 0
270822.0 689911.0 0
277081.0 688937.0 0
282274.0 690071.0 0
286914.0 688696.0 0
292481.0 690458.0 0
298596.0 689711.0 0
304046.0 688615.0 0
308247.0 687563.0 0
312846.0 689414.0 0
318514.0 690385.0 0
323336.0 688589.0 0
327898.0 689802.0 0
333230.0 689203.0 0
337958.0 690711.0 0
342768.0 688634.0 0
351184.0 689413.0 0
347018.0 692040.0 0
356603.0 691718.0 0
362933.0 689329.0 0
373212.0 690428.0 0
378322.0 687409.0 0
382977.0 689522.0 0
388411.0 689899.0 0
393448.0 689998.0 0
398015.0 688799.0 0
403359.0 689185.0 0
407979.0 690866.0 0
412620.0 688580.0 0
417697.0 689905.0 0
422255.0 688015.0 0
426984.0 689964.0 0
434945.0 689446.0 0
441135.0 688669.0 0
446532.0 691233.0 0
452473.0 688750.0 0
459272.0 689144.0 0
464422.0 687705.0 0
469187.0 689392.0 0
474388.0 687117.0 0
479389.0 688146.0 0
483963.0 687680.0 0
484233.0 691814.0 0
488142.0 689612.0 0
492730.0 687256.0 0
497500.0 688358.0 0
1638.91 693657.0 0
5685.11 694113.0 0
10905.5 693595.0 0
16992.2 693717.0 0
23572.3 695589.0 0
28277.9 693848.0 0
33282.8 694939.0 0
38090.5 695921.0 0
42409.0 694351.0 0
47093.9 693612.0 0
51738.4 695448.0 0
57076.6 694615.0 0
62444.7 693489.0 0
67109.2 693511.0 0
71205.8 695128.0 0
76016.6 694852.0 0
81800.5 695779.0 0
87164.8 694099.0 0
91872.1 694980.0 0
97750.9 694639.0 0
103181.0 695947.0 0
108561.0 694061.0 0
113922.0 694579.0 0
119268.0 693970.0 0
123846.0 696499.0 0
133515.0 695680.0 0
138531.0 694230.0 0
143420.0 693379.0 0
146997.0 694562.0 0
151433.0 694625.0 0
157378.0 694749.0 0
162833.0 693226.0 0
167754.0 694405.0 0
173418.0 693557.0 0
177960.0 694493.0 0
181769.0 693961.0 0
187123.0 693380.0 0
193333.0 694295.0 0
198731.0 693225.0 0
202927.0 693242.0 0
207307.0 694831.0 0
212277.0 693824.0 0
217524.0 693339.0 0
222456.0 693464.0 0
226549.0 694607.0 0
231444.0 693281.0 0
236422.0 693669.0 0
241592.0 692323.0 0
247234.0 694093.0 0
253438.0 693201.0 0
258777.0 693649.0 0
262782.0 693459.0 0
267205.0 693866.0 0
273223.0 694404.0 0
277667.0 694471.0 0
281935.0 693611.0 0
286955.0 693899.0 0
291001.0 695014.0 0
296089.0 695713.0 0
301842.0 693930.0 0
306208.0 692831.0 0
310604.0 693492.0 0
315035.0 694993.0 0
320108.0 695364.0 0
325648.0 695179.0 0
331346.0 694182.0 0
336114.0 694750.0 0
342019.0 695321.0 0
351399.0 694839.0 0
361405.0 695458.0 0
367737.0 694087.0 0
378726.0 694655.0 0
384867.0 694091.0 0
389713.0 695238.0 0
394621.0 694371.0 0
399953.0 694077.0 0
403993.0 693410.0 0
407195.0 695797.0 0
412928.0 693943.0 0
418121.0 694620.0 0
422664.0 693086.0 0
427352.0 695223.0 0
431808.0 693576.0 0
436441.0 694699.0 0
441477.0 694478.0 0
446094.0 696353.0 0
451485.0 695445.0 0
457330.0 695308.0 0
462134.0 694042.0 0
467368.0 695383.0 0
473654.0 693996.0 0
479801.0 693582.0 0
487459.0 695770.0 0
492976.0 692741.0 0
497909.0 694621.0 0
2251.05 698069.0 0
5542.62 700121.0 0
10562.7 699534.0 0
17117.9 700214.0 0
22595.7 700382.0 0
27762.2 699317.0 0
33311.8 700405.0 0
38723.6 700740.0 0
47166.8 699421.0 0
53069.0 700447.0 0
58248.7 699924.0 0
63553.2 698839.0 0
68424.8 698733.0 0
72805.1 699663.0 0
77436.9 699520.0 0
82561.6 700720.0 0
87348.7 698499.0 0
92569.0 700136.0 0
98300.4 700165.0 0
102957.0 700656.0 0
107332.0 699259.0 0
112290.0 698751.0 0
117348.0 698694.0 0
121529.0 700152.0 0
125583.0 700916.0 0
128094.0 697776.0 0
131966.0 701245.0 0
137281.0 699210.0 0
142962.0 698653.0 0
148109.0 698514.0 0
153237.0 700063.0 0
162926.0 698324.0 0
158486.0 700100.0 0
167361.0 698941.0 0
172161.0 699420.0 0
177548.0 698361.0 0
182499.0 698888.0 0
186768.0 698470.0 0
191035.0 699959.0 0
197784.0 699148.0 0
203472.0 698136.0 0
208230.0 699341.0 0
213263.0 698949.0 0
218099.0 698396.0 0
222115.0 698374.0 0
225925.0 698893.0 0
230913.0 698782.0 0
236701.0 698884.0 0
242528.0 698255.0 0
248079.0 699630.0 0
252477.0 699380.0 0
256710.0 697876.0 0
261173.0 699859.0 0
266726.0 699656.0 0
272411.0 699056.0 0
277897.0 699713.0 0
283240.0 697787.0 0
288550.0 699312.0 0
293449.0 700143.0 0
297357.0 701592.0 0
301158.0 698592.0 0
307553.0 698941.0 0
313518.0 699933.0 0
318610.0 700127.0 0
323185.0 699697.0 0
327471.0 700750.0 0
332221.0 699087.0 0
337544.0 700138.0 0
342812.0 701263.0 0
347245.0 697177.0 0
351799.0 700264.0 0
347236.0 701154.0 0
356263.0 697557.0 0
359197.0 701470.0 0
363675.0 700207.0 0
367737.0 699360.0 0
372882.0 697163.0 0
377190.0 699992.0 0
372534.0 701653.0 0
382420.0 698530.0 0
386600.0 699391.0 0
392342.0 699603.0 0
397526.0 699124.0 0
402462.0 698639.0 0
406579.0 700802.0 0
411684.0 699012.0 0
417384.0 700002.0 0
422821.0 698255.0 0
427686.0 700431.0 0
432605.0 698363.0 0
438089.0 699364.0 0
443265.0 700145.0 0
448198.0 700136.0 0
452853.0 701197.0 0
457463.0 699945.0 0
462302.0 699159.0 0
467074.0 700751.0 0
472273.0 700201.0 0
477762.0 698713.0 0
482856.0 698734.0 0
487932.0 700890.0 0
492474.0 698925.0 0
497460.0 698619.0 0
42855.2 702477.0 0
POINT_DATA 5000
SCALARS Radius float 1
LOOKUP_TABLE default
5379.87 4792.73 4736.58 4931.38 3485.26 4329.05 6044.04 5415.48 5120.0 5580.89 6810.52 7613.27 5529.52 5255.32 6756.95 6324.23 3843.58 3320.52 4194.5 4270.53 5191.63 5344.25 4593.7 4107.03 4478.15 4043.57 5925.6 4501.51 5513.6 4556.36 6082.81 4151.94 4049.23 4685.34 5337.48 6124.89 4929.8 5708.81 5252.48 4780.03 5495.39 3996.0 3856.1 4665.12 3383.4 4133.88 4094.62 4834.9 3850.77 5325.36 5484.83 5085.53 3863.18 5351.6 2356.98 4998.37 6182.6 5492.18 5258.36 3951.75 5061.3 3642.12 3163.97 5542.27 5812.43 5122.66 5906.14 5484.19 7513.1 5254.28 4436.4 5733.48 4672.91 4182.53 3588.44 5645.7 5176.86 4366.19 5840.26 3672.51 6110.27 5561.06 5073.35 3615.22 5670.04 4380.59 3589.27 6716.79 3997.1 3607.45 5759.91 4333.2 4951.03 7199.21 6037.08 4523.7 2240.39 5096.78 4129.43 6142.94 4727.24 4602.25 5082.47 4763.45 4150.99 5445.87 4216.92 4177.94 4742.68 5782.6 5113.21 3929.19 3771.48 4271.69 5681.38 4138.42 3708.04 3240.09 5110.37 3191.99 4382.74 5601.05 4651.28 3586.91 3103.0 3554.9 5481.78 4015.92 5542.21 4487.31 3936.02 5043.05 4044.71 5980.74 5109.54 4927.02 5546.39 5945.65 5538.89 4730.36 4715.55 5867.73 6059.59 5013.56 5701.86 4499.64 4375.68 4468.59 5054.98 6030.06 5170.02 3557.27 4927.31 4688.68 4862.64 4402.52 4517.56 4432.58 6684.56 5903.42 3968.64 3955.56 3761.32 4118.05 6166.5 5553.16 2938.66 4940.78 4231.61 4008.92 4003.05 3942.53 3379.84 4827.82 5227.21 5697.78 3260.67 5123.52 4091.31 3038.33 4392.68 6372.62 4295.38 7565.34 5923.5 5091.39 4612.68 5293.9 3912.37 4973.83 6342.25 6691.39 4790.08 5344.0 6045.46 3815.26 4704.72 4571.7 4344.58 5634.83 5495.84 7034.11 6261.42 4862.21 4502.5 5922.5 5198.77 5987.17 6013.14 3979.82 4901.41 2765.2 5264.06 5664.98 5927.43 6355.42 4384.42 3693.63 4516.43 4948.92 5637.59 4937.14 5816.2 5693.81 4174.52 6483.19 3829.13 6759.9 5418.62 7021.47 5416.38 2720.68 4955.55 3563.63 5836.15 4238.81 4345.55 5885.03 2837.58 3871.88 5325.02 5200.76 5017.13 5279.39 5185.34 3673.74 5205.43 7447.37 4688.67 2635.86 4385.06 5292.64 5065.13 5936.02 5305.17 4861.08 5399.73 5390.22 3888.21 4805.87 4712.33 6038.78 4667.36 4254.17 5090.24 5615.42 5530.87 4281.49 4187.56 4840.84 4997.27 5135.69 4020.32 4245.72 5908.1 4541.21 6048.7 5896.46 5022.8 6268.1 4861.06 5253.55 5820.48 6946.21 2586.12 5433.8 5499.11 4011.77 3633.87 4850.01 3970.25 5147.67 5643.58 4292.06 5011.31 5138.31 4602.86 4659.59 6327.9 4048.37 5492.26 4362.19 5690.56 5762.84 3937.74 3115.91 4493.48 6084.86 3307.12 5924.89 4778.34 4002.16 4138.16 3486.22 4684.5 3091.3 6230.49 6458.82 4601.27 5493.32 3641.64 5740.68 5926.61 6051.14 3261.21 4195.44 5539.32 6704.06 3653.41 6496.85 5600.93 3856.01 5246.2 4390.66 5728.85 4827.23 6116.18 4924.6 6257.19 4733.32 7184.19 2899.43 2924.37 3867.67 4290.3 4695.45 4660.72 5891.05 5308.1 6902.81 6644.76 5629.19 5655.21 4786.6 5740.84 6445.94 4310.18 4218.06 7134.64 5978.9 3629.62 4716.19 5514.76 4301.06 3456.98 4877.67 4290.14 3066.13 6562.18 4156.38 5316.75 4164.68 6133.92 4178.4 3719.84 3784.5 3780.23 6481.79 3979.26 3471.03 6608.73 5011.84 6057.22 5062.71 4527.08 6125.34 5347.48 4810.12 5215.05 2775.04 5577.04 5006.58 5586.81 3688.8 4548.16 4621.75 3369.23 5449.18 4551.24 4220.88 5244.78 4749.8 6640.13 5082.6 5478.92 5551.36 6894.71 4467.94 4414.54 4850.81 5789.98 6138.47 7054.71 5489.43 5747.75 4277.89 4727.62 5054.25 4796.33 5360.19 4794.96 4874.39 5541.59 4124.71 5083.08 6337.56 4911.47 5803.39 5863.59 4381.97 4024.3 3255.82 5555.28 5242.73 2812.98 4737.14 4065.69 5603.15 5556.96 6052.7 3921.18 3798.62 6392.01 3666.57 4907.89 4937.02 4073.93 4645.41 4433.59 4320.28 5542.14 6122.55 2739.94 4931.53 5480.13 6308.71 6695.82 6405.76 3498.2 5105.16 4302.5 6006.16 6009.88 7055.53 5669.65 5934.22 5624.49 3095.48 4166.08 5320.28 5374.51 6739.08 4298.67 4796.58 5960.66 3999.48 4962.09 4203.26 5188.81 4359.62 3745.84 5690.26 4156.2 4497.59 5965.78 4374.35 6396.74 4138.46 3821.72 4986.77 6318.18 4481.53 3948.17 4581.13 5358.59 6387.01 4515.71 6519.71 5367.52 5210.03 5810.84 4230.54 5094.44 3748.24 4655.49 4933.21 5375.47 6038.14 2540.31 6029.66 5527.54 5573.7 5697.4 6038.2 4270.95 4055.8 5206.78 7325.81 5280.17 6425.26 5143.58 6186.19 4839.34 2980.99 6834.49 5525.39 3998.5 5938.34 5380.13 6394.38 5169.36 4686.65 5834.74 5788.23 3043.85 5581.75 3599.45 6730.19 4907.06 3735.44 5163.9 6043.3 5952.75 6332.36 6155.31 4223.33 5911.67 3323.28 5835.78 5794.24 4678.38 5448.61 5050.65 4827.33 5513.57 5013.67 5729.23 5826.04 5339.78 5762.59 4123.6 5224.12 4797.52 7042.12 6326.39 4471.58 4569.12 6098.14 5873.69 4472.17 6222.42 5654.31 4730.41 5696.88 5607.14 5975.63 5252.34 5564.02 4274.61 2965.79 6898.19 6035.6 5137.34 5330.45 5423.0 3856.59 4219.07 5413.79 3610.4 3092.35 4322.15 4714.54 3629.96 5478.47 3320.11 5351.39 6142.37 6061.47 6163.38 4566.18 4723.12 5120.49 5201.36 5262.61 6302.8 5409.61 4005.44 5555.88 6732.43 5028.96 3866.16 6362.12 4484.76 4840.01 5152.36 4511.82 5611.2 7933.0 4455.12 5173.87 4894.16 5711.87 5118.27 3372.79 4941.22 5932.23 5791.61 3369.13 4669.66 4479.66 4808.52 5367.2 5607.24 5461.13 4726.76 5839.13 5495.68 5489.34 5002.48 5708.14 5537.72 3920.42 8332.24 4553.56 5329.64 6049.55 5709.62 4127.74 2476.04 3942.07 5133.97 7443.72 3937.08 5260.34 5206.48 6586.45 5226.0 3365.82 4750.78 4143.78 4538.95 7092.87 4763.66 4850.14 5163.55 4819.73 6817.32 6471.55 4319.79 2965.01 6643.85 3637.61 6343.14 5501.93 5463.38 5945.21 4938.74 5470.77 3474.39 4643.85 4831.47 3923.03 6062.05 4004.04 5082.74 4289.17 6072.45 4410.55 7099.43 5526.14 5198.29 5077.33 3689.45 4746.52 5572.95 6338.89 6202.55 5584.06 5025.39 7111.16 5893.5 4547.19 5030.91 6022.17 5119.37 3982.23 3459.9 4853.39 4997.27 4964.09 4809.42 5024.9 4306.53 5659.17 5094.81 5972.06 5713.22 5861.71 4359.04 3183.98 3794.63 4524.28 3778.1 6175.81 4727.24 6677.09 5826.64 4220.65 6820.42 4816.2 6321.41 4896.52 4089.76 4751.02 3192.41 5184.56 5282.64 4715.72 5804.71 5046.33 4764.96 4242.52 5053.92 6352.26 3847.38 3818.59 4863.72 4143.08 7500.97 6623.85 4262.82 5102.36 4342.9 5065.11 5069.84 4051.44 4241.89 5054.74 5941.72 5991.09 5126.91 6600.94 4788.58 5371.02 6155.1 4709.35 5876.71 4373.3 5029.78 4163.5 5724.64 4970.88 5965.15 4666.81 4636.5 4940.42 3382.7 3703.1 3954.91 5085.71 5081.78 5499.39 6116.33 5644.82 6263.44 5960.56 5774.97 4020.95 5462.21 6313.06 5750.71 3493.7 6470.3 4200.03 4735.33 6915.83 5092.37 6444.77 4287.63 6314.07 5315.4 6449.45 3975.31 5125.78 3824.16 3868.18 4373.47 6723.16 3686.21 3817.13 5507.24 5023.15 6851.54 4583.31 4503.89 5806.08 5243.29 4093.08 4449.22 5543.27 4717.05 5287.2 6135.57 5998.38 4312.67 5013.13 5423.8 4270.24 4989.15 5017.78 4164.13 5015.69 4947.52 4305.57 6959.81 4829.35 5201.67 3791.79 4424.7 4754.05 5526.55 6084.93 5215.15 4987.87 3315.57 4739.42 5020.12 5727.3 5281.28 5356.51 4277.88 3057.03 4087.15 4758.21 3948.23 5228.18 5978.82 5787.31 3927.99 5868.82 4050.9 4978.31 4099.77 4414.48 4981.9 4537.32 4656.78 3600.43 4906.82 5131.24 5196.67 6496.67 5474.8 6262.72 3664.11 6515.84 2990.77 4888.6 4780.2 5078.86 4918.77 5100.1 6090.91 4946.42 4219.78 5923.4 4963.34 3295.83 5019.93 4459.28 4260.92 6250.23 6413.02 4863.27 4118.84 5862.86 5374.98 4719.7 6939.12 4406.4 5411.85 4844.57 4027.46 4470.98 5776.37 4516.28 3627.82 4044.45 5262.19 5344.43 5045.38 6070.58 5350.88 5372.61 5402.24 6480.17 4377.07 3844.9 3813.22 5101.59 3963.86 5570.3 4336.42 4306.11 5935.47 7589.94 3130.65 5628.24 5856.11 3327.49 4109.88 4234.94 4562.29 4980.85 5080.66 3417.33 5110.45 4926.42 5248.77 4642.34 4083.97 4520.1 5153.74 5874.89 4293.03 5813.4 4389.21 4128.98 4925.44 6246.22 4951.47 5246.61 4307.28 3697.96 4723.48 5538.93 4899.11 4745.45 2631.9 7267.18 6255.18 4668.71 5269.18 7228.46 6362.14 6719.88 5266.5 4523.88 4066.38 4948.98 4403.98 5227.52 4729.43 4092.24 5163.02 7144.24 5598.74 5687.83 5004.23 6442.69 6320.71 4648.04 6607.87 5117.47 4721.32 3163.78 4925.63 3293.56 5882.65 4739.14 4371.99 4434.19 3561.29 5187.7 4623.61 3885.86 4188.3 5235.29 5177.64 4378.3 4255.31 4479.94 5453.3 4407.9 3492.19 4440.57 4584.5 5122.63 6049.79 2315.64 4703.08 6345.13 5274.19 5516.95 5313.22 4413.85 3905.51 3999.94 4864.22 3901.8 5759.46 5083.41 3921.08 4190.31 5678.96 6048.86 4244.9 4285.32 6034.41 5452.83 5130.91 4948.5 4519.22 6445.22 3695.36 4564.34 4871.44 3848.93 5076.35 6020.48 3402.32 5903.66 4528.49 5004.67 5365.89 5419.37 5992.26 4466.03 3960.8 4511.54 5070.39 4923.9 5714.58 5208.32 3296.27 4713.25 4607.02 4204.84 3895.51 4528.09 4165.81 3556.85 5441.96 6291.51 5174.89 5882.89 4188.32 5774.81 4100.38 3746.31 5344.77 5027.98 5097.87 4278.07 6475.1 4969.21 2691.29 6256.02 5320.92 4305.43 4406.1 5450.44 5034.59 4942.77 4263.33 5080.18 4454.63 5381.16 5912.61 3279.1 6193.35 4560.84 6086.96 5233.78 5776.57 4562.74 5046.21 5683.26 5139.5 7493.3 4814.55 3527.05 5698.77 3464.83 2477.07 6413.11 4305.16 5274.14 5092.28 4903.82 5746.28 4082.47 5511.6 6261.75 4338.08 4517.73 5469.47 5660.16 6134.99 4989.56 4094.73 4718.54 6736.03 5548.29 6766.43 5916.16 5226.56 4390.41 6113.95 5599.49 4097.57 4050.08 5017.5 5563.79 6171.13 5511.88 2395.5 4512.11 7055.42 5486.68 5100.25 5490.43 5022.28 5197.52 4959.34 5383.07 4527.02 4591.87 4531.14 5013.42 3838.56 6552.22 5651.07 6248.81 6375.99 5200.05 5273.35 5234.29 2651.49 5313.66 5512.23 5275.32 5409.33 4898.94 5196.0 4613.31 4973.78 3329.99 3947.47 5091.68 7531.29 6243.0 6673.96 3161.47 3991.03 3435.9 6390.78 7435.25 4288.3 5370.52 4788.87 4652.29 4495.87 6022.72 5498.32 5527.33 5346.27 4989.09 2845.98 4880.14 5289.52 5314.85 3848.54 5941.4 6510.17 5742.65 5592.32 5565.13 4470.61 3701.27 4806.34 5653.9 4929.14 5894.61 3979.54 5304.13 5944.09 5833.06 4923.41 4497.31 5384.76 5529.42 5257.12 4965.89 5243.43 5659.95 4152.85 5551.9 2908.7 4453.64 3757.34 6415.61 4687.64 4419.71 5037.06 4541.8 3838.47 5175.29 2588.37 5842.56 5887.15 6235.57 5412.31 3623.87 3087.09 6934.37 4890.5 3981.07 5452.42 5328.22 6853.85 3497.9 5941.61 5782.48 6248.6 3836.45 5683.61 5805.86 6894.26 4986.51 5339.38 5178.99 6169.11 5615.35 4790.78 6422.84 4247.15 4502.18 5379.09 4602.85 5872.05 4853.02 4091.8 4645.58 5181.4 5670.2 5985.29 4247.23 4178.15 4694.83 4733.04 5509.42 6119.09 5788.66 5936.36 5069.25 3903.75 5048.89 4755.47 5935.03 5475.8 5314.69 6826.57 4249.46 5965.81 3702.37 5660.85 4643.31 2330.66 4177.19 6917.52 5402.21 3587.05 6718.19 4982.31 4307.48 4425.84 5331.02 4871.96 4863.23 3555.86 4402.67 4631.83 4996.99 4384.88 6887.27 6008.49 4220.46 4287.53 5612.21 5945.08 4968.03 3306.14 5490.58 4863.79 4702.06 3830.46 6031.67 4689.15 6138.12 4428.78 5409.66 4537.14 4345.67 4765.72 4642.66 4752.14 5329.59 4888.12 4950.97 5512.16 3197.63 4863.96 5191.08 5203.08 5374.07 7480.41 5163.77 3423.15 4488.85 3731.84 4901.07 3554.48 6496.52 5186.3 3436.15 4151.76 4020.4 3493.47 4721.02 4596.75 4933.65 5443.58 4558.46 5708.99 4049.02 4470.4 5346.68 5311.03 5255.12 4285.66 4896.11 4027.09 5801.99 5210.48 4962.77 6259.23 5088.44 4998.21 4711.62 4114.24 4268.65 5349.31 4649.22 4354.08 5094.52 4256.43 4946.74 2682.24 4520.62 5229.48 5475.7 4485.99 5127.16 5435.74 4244.99 6050.81 5543.46 6185.89 3997.96 4750.17 3460.94 3990.25 3691.0 4752.51 6229.37 4236.14 4407.87 5282.91 3797.33 5945.89 7256.35 4105.55 4800.69 6566.1 6065.22 6386.78 4456.39 4896.39 3633.79 6081.14 5480.83 4607.85 6070.3 5128.57 6000.7 5604.21 3169.67 5204.04 3361.92 6710.88 5395.14 3967.48 5235.11 6213.04 6622.11 3685.13 6790.73 4655.16 5251.4 3867.19 5097.69 5857.79 4039.91 5276.7 5036.58 6119.63 5411.02 4752.9 4287.16 5199.44 4062.5 4435.51 4588.7 5683.95 3766.55 4579.69 5010.2 5005.85 4216.17 6484.17 4938.72 4254.37 3374.08 4031.78 6098.1 5687.85 5296.29 4611.53 2681.29 5094.48 5172.53 3872.61 4238.4 4135.62 6132.95 5534.94 4860.33 7644.38 7552.94 4051.34 6101.92 5323.3 3627.55 4635.6 4256.67 4662.56 3457.48 5166.79 2976.22 3405.98 5417.15 5394.55 3688.16 4681.72 4945.39 5996.33 5928.32 5415.19 4612.62 4016.18 3619.07 5526.75 4275.57 6385.23 5327.45 2983.99 2614.4 5560.26 6363.92 6205.93 4439.35 5830.72 6184.4 3758.07 3828.81 4373.45 4082.57 5733.62 5169.9 5282.51 4460.92 3004.16 4042.28 5235.17 4421.12 4779.5 4340.76 5254.49 4221.28 4303.19 5514.84 3914.2 5421.53 5937.08 4135.08 5620.74 5233.29 4312.56 4778.82 4612.06 5467.84 4750.58 5926.11 6667.68 5767.9 5211.38 5089.62 4590.55 4741.26 5920.32 4255.85 4732.09 3988.3 6543.13 4356.25 5149.72 5776.96 5464.25 5486.48 5301.47 4617.55 3645.12 5424.88 5415.85 8659.64 5469.13 6027.62 5765.42 6123.03 5966.61 5711.11 4575.94 5021.88 3546.71 5956.65 5768.57 5564.23 5950.04 3735.24 4231.83 2435.33 6401.43 4074.48 4558.47 5020.71 5997.88 5839.71 5576.92 4318.48 5266.22 3930.79 5226.97 3685.13 6004.68 3312.06 3361.26 6799.4 6239.84 5865.39 4427.28 3931.07 6079.11 6430.39 7440.72 3949.6 5703.6 6326.18 3950.63 5661.62 6631.19 6648.68 4467.04 5626.61 5817.25 5061.98 6632.99 4537.6 4923.24 4419.61 7177.44 4563.46 5309.98 6553.94 5255.18 5460.65 4767.78 5463.41 5225.33 4929.75 4435.36 6649.96 5134.39 5784.3 4256.57 5442.32 6088.68 4643.56 5657.36 6124.08 5029.47 5053.95 5266.01 5253.37 6515.8 3685.65 5869.4 3701.16 4186.6 5895.77 5750.07 6136.49 4757.74 4216.95 6045.67 4209.49 5742.74 3821.94 4244.21 4947.24 3875.05 6200.54 5148.58 4199.45 7234.66 6599.66 4055.54 4233.8 6098.95 4997.83 4893.49 3991.42 5325.44 4388.63 5102.75 4597.29 4200.09 4498.25 5931.77 4188.87 5151.21 6574.95 6333.29 4477.04 5731.57 5662.55 5737.92 6408.83 5365.24 4004.35 4763.96 5754.18 5180.76 3418.99 4480.95 5278.36 4409.63 5521.25 3661.9 3082.32 5370.85 5949.46 3658.37 3178.54 5376.71 4448.13 5070.29 4807.28 4867.08 4266.03 5280.69 4713.74 4220.03 6923.84 5407.78 4084.49 5449.46 6179.96 6113.54 5147.36 6260.79 3963.76 5528.53 6799.88 3062.43 5726.66 5426.78 5652.0 2967.38 4159.35 6477.91 4237.98 6439.37 6045.22 4614.3 3532.3 5580.92 5769.98 5973.33 5067.46 3583.21 2221.99 2511.46 3580.58 4011.37 4863.01 2775.69 5356.79 4785.25 3619.79 6306.21 4908.49 2978.76 2040.66 7016.27 5884.9 3876.21 5689.26 4916.22 4992.42 6022.7 4940.84 4833.46 4809.67 7248.4 5280.12 3946.28 5984.81 5439.9 5367.73 3540.11 4640.06 3456.47 5471.74 4652.01 3548.39 5421.64 4858.51 4207.54 4886.12 6419.12 4976.12 4817.16 5453.98 5148.08 4834.87 5760.22 5938.17 4795.43 5398.64 5097.95 6817.57 3614.96 3886.68 6853.04 5703.74 4745.43 4747.55 3056.7 3755.95 4360.23 6234.32 5293.51 4446.06 5008.63 3450.93 5132.68 6595.03 4993.35 6218.95 5222.16 5107.23 5136.08 3776.94 5558.68 4765.02 5629.39 2684.03 4768.61 2261.36 5075.55 5506.19 6719.94 4950.67 5227.59 6166.29 5453.6 5703.07 5294.77 4662.43 4709.05 4630.82 4043.66 4813.08 4540.86 5990.52 4835.83 5604.35 6316.56 3091.67 6420.81 4081.97 4715.58 5401.99 5151.52 4347.74 5291.9 4009.62 2081.58 6505.78 5461.55 6519.43 5876.64 5424.46 4857.84 4962.21 4684.44 4749.59 4858.44 3468.42 4673.35 3809.69 4771.13 5297.19 4351.38 5550.75 5933.7 5466.33 4444.97 5721.05 3498.16 4409.27 4514.39 4588.99 4321.21 4344.34 3673.28 4928.27 3583.49 5052.84 3375.28 4366.74 5625.65 4301.61 3184.64 6107.89 4446.84 5660.55 3718.69 4514.79 3672.21 2216.82 4509.89 6752.75 5269.38 5607.3 5108.06 3573.73 4693.52 4222.4 4000.43 3420.08 4912.04 5831.96 4539.07 5464.68 5591.76 4586.19 4585.31 6625.18 5323.91 4270.74 6293.89 4558.15 2761.07 4983.39 5366.52 4690.55 5533.72 5533.42 4802.32 4010.57 4599.38 5246.47 4187.31 6157.04 6191.29 4522.21 7422.36 5161.01 4298.15 4628.4 5832.37 4642.93 5409.63 4263.16 3077.84 6024.75 6109.49 5567.93 5860.67 5332.65 3764.1 6451.33 5413.31 4332.87 4743.59 5208.14 3317.83 4450.7 3763.05 5092.24 5369.08 3101.75 4518.04 4766.06 4874.18 5435.19 3298.2 4270.15 6865.76 6449.64 6464.8 4680.94 5799.69 5571.72 5236.43 3208.96 5285.07 7051.9 4184.23 4608.41 4144.57 5980.59 6834.41 6226.14 3000.29 4247.69 4209.31 5718.28 6242.79 5950.45 5713.03 5849.65 4165.21 5134.67 5297.16 4936.96 5206.33 5530.49 5653.03 6192.0 4940.28 5885.28 3004.34 3022.6 2928.82 4811.76 4914.45 4698.87 4568.41 3624.7 4661.03 5262.35 4691.91 4475.83 2685.81 4510.8 5889.35 5010.04 4570.98 5097.45 4275.07 5825.38 4185.61 5737.75 4047.87 5742.47 3778.02 6552.21 5417.8 5146.37 7132.12 3678.08 4836.16 5518.57 5463.48 5730.33 3240.51 5545.46 4527.99 4376.7 5190.61 8325.01 6051.83 4440.81 5941.9 3973.12 6642.76 4497.78 4243.79 5987.42 5433.65 4442.22 4887.76 4669.06 3012.99 4811.32 6400.08 6184.88 5829.32 4396.25 5551.95 5549.49 3918.87 2275.45 5423.42 6605.86 5012.5 4383.56 3562.79 7093.13 4953.1 5818.95 4093.99 3604.14 3940.49 4452.54 4406.05 5089.1 5828.35 4028.32 2711.19 5876.72 4099.92 4884.59 4680.14 3858.06 4083.79 4187.94 5263.27 6300.92 5021.77 3796.15 5599.29 4801.8 7216.98 5271.02 7013.17 4601.74 6506.86 5088.57 5580.34 3852.6 5775.31 4215.0 4603.5 4481.76 5452.78 5065.26 4356.36 4304.41 4892.44 5578.94 7610.49 4286.17 6579.31 5323.55 5375.1 4172.6 5313.12 5351.56 5160.59 3984.88 4732.09 4320.42 4255.34 5064.79 5480.3 7509.24 4394.56 5896.26 5388.78 6101.13 4573.72 5099.21 4917.99 4367.78 5636.4 4350.12 5227.02 5670.0 4232.16 5300.96 5151.11 4344.51 5680.94 3781.77 5581.55 5193.01 4543.1 6550.44 3860.83 3764.06 5732.27 4523.39 5278.56 5434.47 6917.62 5829.22 4013.38 5631.14 4343.78 5811.18 5263.3 4909.65 4008.15 6523.86 7693.4 4286.49 4326.48 4437.07 3449.37 5491.9 6405.0 4659.16 5789.55 4633.05 4901.2 5711.62 4990.79 5166.79 6479.39 2895.63 4516.53 4122.92 5079.22 5381.54 5810.77 5474.15 7519.2 6355.68 4511.7 4478.6 3953.55 4304.63 4469.54 4314.56 4173.54 5606.51 6038.68 5046.12 3834.47 4807.4 3805.67 4590.01 6101.86 5993.0 4803.57 5966.42 4110.59 4706.5 3332.49 5354.66 4647.67 4214.44 5375.12 4787.97 3746.36 6789.23 4777.03 3684.56 4246.61 6028.09 5452.36 3804.5 6486.37 5498.42 5318.53 3344.57 4281.98 7165.9 5344.83 7046.11 3427.63 4146.81 4863.97 6342.48 5756.75 4587.67 5599.7 4163.74 6969.28 3665.95 5698.96 4095.75 3603.51 4298.45 5222.51 6609.84 5135.96 3834.43 5658.37 4707.06 6074.94 3474.5 5491.37 4250.88 6348.03 3475.67 4792.39 7038.89 5146.37 5067.56 6137.8 2735.53 3352.35 5116.6 3747.03 2783.85 4356.49 4526.81 3994.07 4219.94 5907.46 4264.91 6740.71 5399.29 4909.31 5971.22 6522.59 4798.17 3568.28 5425.98 5996.66 4405.42 4997.91 3598.08 4599.81 5698.23 7300.58 4714.83 3608.06 6633.61 5217.95 4867.7 5484.36 4277.24 4063.9 5291.05 5161.1 3928.53 4619.2 5166.41 5740.65 5067.56 6349.67 6329.53 4139.3 6541.45 4227.41 5078.31 5391.48 4923.43 5131.15 4847.14 3950.27 5116.66 5378.23 3566.79 5374.67 4981.43 3989.7 4215.2 5069.89 4157.29 6813.72 5327.75 4609.02 4896.65 4638.18 4196.37 6448.66 5220.76 6945.98 5138.2 5783.48 4449.98 4701.5 4504.35 4840.44 5093.82 5951.81 3924.14 6918.35 4296.69 6238.32 3319.67 6471.42 5283.8 4076.59 4428.14 5164.1 6464.15 4972.17 6685.4 5699.53 4222.77 3783.54 5268.38 5527.23 4805.33 3863.67 5980.95 4814.12 6193.08 6069.3 5887.01 5168.35 5388.39 5335.47 3728.18 5633.61 5048.19 6799.23 4888.27 6487.56 4854.11 4998.22 5533.19 5417.21 6602.43 5583.61 6063.64 7382.3 2995.67 4022.56 5522.21 3772.3 4855.01 4923.57 3340.09 6061.63 2279.05 4829.35 4075.28 8137.11 5484.32 6650.77 4067.96 7104.73 2596.96 5701.75 4350.15 4264.54 3516.27 4750.49 4263.78 5228.75 4643.9 6047.14 5009.83 5210.38 5717.8 3629.44 5003.78 3299.24 6246.56 4741.28 4061.6 2603.64 5107.0 6212.15 6502.97 4783.07 4946.23 6083.28 5211.6 5806.31 4453.97 3556.79 5456.71 3503.41 7317.04 6412.67 7001.83 4771.65 5012.97 5589.37 5439.49 5212.43 5454.12 4834.3 6804.79 6372.13 5369.5 5404.01 6016.19 4124.49 4479.11 5714.25 5325.96 4850.06 6332.01 7044.29 4234.18 4049.16 7085.01 3936.95 6153.94 6836.82 3862.77 4631.99 4740.98 3185.39 5128.77 7122.87 5797.36 4243.26 4153.84 5119.86 4592.15 5084.17 4901.44 3776.8 5096.43 6156.21 6104.26 4653.83 6171.71 4986.71 3628.89 6589.82 4668.88 5027.43 5522.75 5867.64 6208.9 6059.93 5602.53 5073.02 6545.43 6760.92 4989.2 4711.04 7144.05 4506.18 4824.12 6162.3 3272.75 5971.21 5261.19 7043.44 4263.65 6106.43 4807.35 5467.63 5666.95 4642.2 4811.22 3683.86 4918.76 5293.75 4208.41 5826.78 5473.72 2856.55 4553.68 3758.22 4852.58 4757.2 3205.68 5561.74 6100.73 4745.79 4908.75 3971.08 6204.65 4482.9 4036.91 4593.7 5110.11 6379.14 6639.64 3687.65 4887.52 5478.95 6348.54 4066.57 5642.35 5156.76 6357.47 6101.57 4891.38 5535.91 3230.13 5955.86 6176.67 4848.46 5412.24 5016.02 2779.99 4581.37 4920.21 6942.34 5851.61 5478.11 5526.31 5030.15 3858.17 3477.1 4078.93 5934.82 4501.78 3572.94 5001.58 4820.17 4729.42 5089.26 3886.72 5415.45 6592.93 6350.71 6436.74 2460.79 5096.24 3908.98 5039.12 6328.42 7307.21 3619.72 4438.58 4646.51 4565.93 7107.63 4831.93 5788.97 3472.91 4023.93 5868.89 3274.85 5007.21 4099.26 2970.9 5206.47 6542.5 4383.47 4834.39 5493.89 5262.47 3104.96 3512.94 3831.52 4991.35 4587.7 4258.98 6761.81 3903.91 4568.64 3919.62 4127.53 4474.83 5210.75 6555.44 5658.14 4508.18 6214.73 2205.51 5175.89 5361.87 4268.19 4374.74 4532.7 4504.86 4788.08 5975.23 4198.94 4473.29 5470.04 4211.82 6556.26 5684.25 5438.92 4349.13 6550.4 4891.67 3766.69 5216.26 3634.5 6631.28 6571.31 3851.85 6318.23 4206.98 4058.87 5174.75 5932.07 4984.46 5948.71 4793.65 2949.12 3856.53 4532.89 5460.89 4533.37 5260.85 5742.09 5887.38 2884.65 5807.46 4648.21 3658.05 4549.69 6423.81 6192.77 3644.78 4312.15 6418.11 6015.02 5244.22 4922.49 5585.14 7039.98 5244.98 4159.81 5792.98 4385.81 4034.05 5690.96 5798.38 3862.91 4456.11 5366.11 3419.87 4824.81 5769.14 5944.3 5135.5 3381.82 5347.9 5851.63 4504.52 5212.92 5615.84 4928.85 6440.38 5556.0 5545.59 5494.28 5610.53 5755.15 4580.06 3926.11 4057.17 7066.96 4467.0 4994.65 5196.92 3787.08 5644.81 5334.36 4728.55 4929.6 5750.35 4489.99 4548.45 4551.26 5730.61 7124.45 6358.93 3894.64 5064.67 3703.49 5232.85 4062.56 3717.47 6200.63 6816.66 3217.67 5079.64 6163.54 5212.37 6003.78 2628.22 5058.51 4244.49 5036.98 5513.8 6818.91 3503.65 4521.75 4027.63 5350.88 4392.65 5420.67 6413.15 6103.11 5048.55 6459.51 4024.31 5844.72 3992.97 6040.74 4054.22 7228.94 5393.65 4961.99 6551.93 4393.16 4595.12 3311.29 6484.43 4625.67 3485.54 4458.64 4583.52 3492.83 6280.13 3684.15 5832.29 4438.76 6006.89 6456.58 3965.3 4960.64 4983.3 7778.01 5127.82 5124.17 5805.1 4125.9 4064.58 4234.88 5113.6 4384.28 4810.98 3563.14 5091.22 6282.38 5640.72 5727.79 5188.82 4464.73 5043.14 3904.07 5748.9 3663.0 4954.81 6304.49 5134.72 4835.97 6419.64 5464.83 2781.96 4431.23 5917.34 5601.55 4462.87 6545.99 5630.9 4554.68 4368.28 4692.32 4945.0 4658.11 3127.83 4212.15 5114.07 4385.49 4263.18 7142.95 4383.68 6618.21 2617.39 5144.44 4051.18 5969.37 5034.69 996.652 4509.46 4680.69 6500.49 5965.58 3352.34 4050.03 4901.29 4775.04 5188.53 4882.66 3429.57 5569.2 5410.33 4642.74 5305.59 5416.45 5754.6 4955.16 3288.01 4904.51 4147.31 5989.05 2202.77 5751.15 5950.88 4149.55 4441.22 5853.89 3380.69 4140.4 3110.13 4386.8 5446.4 4725.01 5966.75 5510.9 3657.69 4883.63 4505.28 4971.29 5510.45 4730.14 2606.51 3994.39 6119.99 3814.65 4128.1 4618.73 5372.82 4446.58 4402.17 5401.4 5053.15 5910.86 6239.68 7320.78 4834.44 5782.43 4456.26 4027.33 3873.92 5026.76 5023.41 4092.07 4546.44 5657.55 4224.3 4184.21 4700.07 5273.37 4717.73 4732.37 5072.5 4985.3 5713.36 4749.18 5553.94 3742.31 4546.96 5424.55 4921.1 4608.34 3814.16 5695.79 3622.8 5414.58 5577.41 5740.98 4346.07 4013.86 4218.16 2918.64 4140.92 4512.07 5984.8 5236.24 4585.04 5678.58 6570.35 4242.63 4559.74 3269.54 5836.26 6666.67 6063.44 4583.94 5046.31 4928.35 3844.54 1937.5 5849.53 3538.53 4651.99 4420.11 6127.39 4972.18 4607.18 4124.76 7200.89 4120.07 4813.33 4952.52 3840.21 6746.66 4954.76 3908.56 6735.97 5244.78 3636.15 4330.58 6114.89 5135.63 4355.83 6870.97 5351.86 6056.87 5474.01 6201.86 7554.58 5166.89 3639.44 5491.63 5725.37 3868.62 5138.33 3743.76 3425.69 6711.21 4236.86 5393.76 4941.02 3864.92 2955.36 3668.93 4009.24 7541.76 4775.49 4681.29 3220.29 3845.9 4439.71 5667.51 4708.31 4198.9 5431.29 4833.67 5325.91 4213.05 5157.38 6203.03 5235.87 6089.45 5810.17 4966.07 3669.32 4400.14 4704.92 4316.0 4287.25 4392.75 4271.07 4420.6 5287.25 4770.51 4184.47 6511.37 4012.92 5759.79 4177.47 4598.54 5218.42 4933.49 6139.64 4896.43 5463.06 4639.8 5260.52 3185.09 5114.23 5495.0 7407.91 6015.22 4454.74 2904.46 4826.52 5120.92 4337.32 5241.75 4731.53 3763.9 4788.7 5863.0 5640.12 5329.76 3899.7 2403.72 4147.49 4802.98 4833.55 4081.34 7224.99 6334.53 4844.83 5377.37 5652.87 5483.7 5018.69 6384.7 3152.86 5952.38 3896.27 5807.52 5963.36 5230.02 5307.35 4342.18 5169.48 6016.08 4731.21 3124.7 6064.71 6102.98 6060.17 5153.18 4763.4 5902.67 5454.11 5806.61 4983.1 6010.59 3682.35 7123.04 5906.57 3756.96 4932.29 4990.23 3784.94 5499.59 5749.6 4141.21 4174.44 4564.41 6331.74 5951.86 4252.18 4659.88 3791.41 5853.12 5702.4 5069.9 5473.89 3306.84 3673.6 5265.21 4657.24 5866.42 4762.1 3987.69 6502.99 6219.34 4191.01 4475.38 4589.06 4920.88 5890.25 4216.44 3999.5 5034.05 4816.51 5345.73 4770.63 3990.94 4756.8 5477.8 4462.35 3986.41 4241.68 6102.49 3469.18 2945.34 4489.29 5064.23 4301.93 6061.85 5512.44 6449.06 4685.4 4924.07 6240.42 5146.0 5721.14 4577.73 5084.5 4918.64 6638.25 5078.59 4759.99 5134.33 2646.13 5419.57 5162.67 5760.98 3646.95 4705.68 5384.86 4749.96 4658.24 5869.67 4311.48 4899.73 5457.66 6394.19 5973.89 5366.22 5518.11 5087.14 5712.35 5701.52 4743.9 6776.22 5321.17 3719.11 4467.13 3877.8 6273.6 5136.87 5024.32 4708.17 2741.2 3779.45 5790.42 5784.37 3142.09 5591.77 5182.13 6110.48 6245.52 3954.77 6793.1 3125.13 6016.87 4506.66 6715.73 5209.55 5426.4 5763.05 5129.68 5357.39 5076.84 5247.01 4208.37 4841.7 5685.74 952.938 4678.7 3450.07 6215.87 5191.26 6060.06 5544.27 3484.81 5308.33 4666.12 6023.07 5674.63 5340.05 5995.4 5322.11 5700.79 6710.14 4426.02 4711.15 5188.22 4841.23 2804.54 4357.11 5005.6 4176.32 6069.78 5532.75 6949.65 3372.95 4095.83 5676.61 5846.95 5268.15 5819.0 6347.72 3460.93 3200.6 4629.02 5914.5 6006.16 4288.45 4987.28 5407.96 6206.98 6562.03 4815.47 4368.12 4365.58 5214.4 4636.53 3629.49 5766.05 5469.35 3835.81 4019.34 4869.48 3623.19 4906.11 4387.39 4564.1 5825.55 5509.51 4848.14 4316.5 3199.4 6193.73 5254.24 3742.11 4192.21 3597.43 5144.56 4158.91 5311.55 3360.86 4869.25 5545.21 4333.87 5684.05 3667.93 5638.7 5813.79 4644.88 5293.13 7350.26 3768.46 5167.53 5003.3 4168.52 5800.81 5106.46 4068.31 5166.05 5077.29 5515.73 4850.5 5866.91 2820.07 6405.69 5679.74 4825.73 5288.33 6296.54 5797.21 6019.35 6740.35 6028.63 4550.92 5146.1 6485.77 3869.39 5960.5 5393.43 6896.55 4685.65 6470.23 6506.63 4140.04 3495.3 4697.49 5735.08 4726.2 4750.81 3825.48 3810.68 4658.59 4196.62 2809.19 4916.7 5486.89 7208.19 4549.51 3587.93 4975.85 5695.25 5323.95 5716.42 5701.63 4620.95 5368.93 4488.39 5124.86 4927.73 4602.57 3565.32 4608.62 4071.75 4626.72 5131.77 5549.71 4410.82 6443.99 3889.98 5193.58 5399.43 5695.44 5117.64 3422.21 3916.42 5429.3 5510.96 6653.07 4745.16 4697.91 4584.81 5071.98 5719.79 4371.08 7261.51 4968.14 4914.03 5086.29 5139.18 5551.43 3034.16 5049.99 4201.03 5001.87 4493.79 4279.44 4899.19 5058.34 4028.22 5575.11 3852.82 5487.63 4507.36 7145.73 5403.97 4795.08 6562.92 5501.73 3671.06 3612.44 7035.54 5233.76 4683.28 4217.36 6549.8 4165.36 4851.18 4871.77 5811.26 5062.77 6075.99 5262.79 5927.2 4419.79 5407.69 5152.78 4117.9 4753.76 4638.09 5377.01 5330.26 4441.91 5939.22 4668.8 5125.17 4859.01 5524.45 7133.44 3953.26 4474.39 5459.92 6478.35 5453.77 4104.04 5589.53 5593.79 5025.42 5196.08 4517.29 4495.75 4849.5 6171.01 5796.26 4603.04 4870.94 5271.88 6121.56 7168.2 3763.85 3419.07 5710.33 5344.44 6432.8 3186.07 4967.51 4369.86 5173.82 7212.97 5490.64 5034.34 3769.2 4507.46 5036.14 5603.68 4944.51 5610.95 5532.72 3220.8 5179.17 5579.39 5270.51 5148.1 5224.64 5949.73 4312.48 5527.13 6370.33 4278.57 5081.08 6318.25 6864.06 6008.81 4932.56 5192.49 3487.31 6643.4 3918.94 4674.9 5461.72 6599.28 6224.85 5368.66 4556.19 5648.78 6875.73 5226.42 4697.24 4983.43 5117.52 6311.89 6734.39 5942.45 4150.76 5005.72 5368.52 5155.28 5388.73 4884.93 5205.38 4600.71 3957.38 4494.15 5035.71 4710.88 5300.17 4057.4 5534.23 4781.9 6815.96 5339.6 5828.25 4725.11 4215.05 4271.93 4604.1 5076.11 5990.75 5600.21 5467.51 4625.53 4096.47 5114.67 5353.66 5030.33 2638.82 5234.2 4965.24 6379.38 6257.79 5353.23 6229.83 4468.26 5578.18 5293.37 5933.54 5559.79 5879.24 4571.74 4096.86 3622.48 5001.51 5385.86 5115.42 5482.76 4082.4 3745.02 3720.7 4211.36 5698.53 3604.31 4450.49 3468.45 5635.32 4526.34 4316.45 5409.08 5042.75 4598.92 5241.22 6647.08 4979.52 5490.75 3422.29 4407.79 5214.63 3495.68 5783.94 5352.24 7362.42 4202.77 5836.14 5473.05 5537.34 5884.99 5726.42 4433.12 2549.95 3392.26 4361.24 5138.93 6406.8 7086.69 6170.9 4436.48 6081.3 5615.35 3967.76 6213.24 5987.88 4228.53 6123.46 6142.88 5111.26 4574.54 4764.83 4949.55 1969.87 3132.34 4841.28 5507.38 6889.5 4416.87 4052.43 4896.67 3934.11 6025.77 4466.22 6153.71 5917.08 5483.37 3626.86 6371.96 5322.07 5770.07 5101.6 4282.11 6589.13 2347.41 4542.16 3543.37 2030.03 5628.97 5527.27 5104.39 4612.13 5846.6 5327.05 5438.55 4434.65 5977.66 4523.81 5106.33 5198.94 4028.35 5464.05 2980.31 3148.79 5740.78 4796.12 5997.91 4742.82 6791.86 4930.72 4209.0 5728.58 4887.73 6297.99 5378.24 3856.73 5817.74 5887.71 5661.6 4827.61 5285.75 5385.03 5481.64 5673.75 5360.67 5968.54 6263.3 4501.05 4537.03 6548.29 4114.2 3990.96 4326.06 5034.46 5757.29 5793.12 5469.17 5061.75 4373.2 6022.78 4087.32 6647.85 7025.09 2569.12 5161.74 7336.37 5099.9 6945.69 5118.86 4304.64 4183.4 4733.79 5833.78 5758.98 4823.06 5288.64 5254.49 6828.8 6883.86 3579.59 6161.94 5057.59 4065.28 4461.14 5285.6 5615.06 5490.54 5203.54 4047.95 6142.94 5001.69 6581.56 3980.46 5383.9 5158.44 3798.09 3886.56 4496.51 4511.05 6561.94 5259.21 5418.12 5934.05 4714.66 6771.18 4984.17 4656.01 5781.62 4037.86 5602.62 5714.51 4484.78 5157.73 5847.91 4934.66 4903.84 4109.44 4290.49 6688.53 5209.5 5065.74 5791.25 4873.23 5410.6 5453.2 6348.93 6824.53 4332.64 4422.23 5232.16 4820.68 6031.22 5485.84 6424.77 4538.89 5918.95 5689.56 6556.86 3242.31 6099.28 3234.26 5372.25 4169.15 4778.37 5134.17 4074.16 4904.35 5592.54 3247.97 5124.34 4904.37 4358.81 4651.64 5729.92 5016.46 6224.13 4761.84 3769.24 3661.67 5517.65 4009.68 4622.73 3303.49 4161.32 5256.75 6351.89 5932.28 2960.5 4298.7 3902.48 6030.39 4905.53 3799.01 7392.65 5319.1 3757.23 4181.93 3350.99 3820.19 4979.5 4745.37 5939.29 5418.98 5575.11 4052.49 5061.74 5326.03 6189.67 4948.96 5256.82 4061.87 4013.86 5165.31 4288.5 5715.51 3721.69 3456.3 5317.83 5092.93 4256.08 5881.93 2803.01 4444.0 6182.19 5327.39 4981.81 4138.59 4970.55 4938.33 4621.33 4541.22 4946.08 3539.68 4984.01 6217.33 4557.1 6270.59 5927.1 6175.27 5876.51 6731.89 4733.41 2932.52 5264.83 3901.53 5136.51 6815.51 5313.86 4457.05 3989.26 5189.91 3618.64 5703.84 4335.79 3530.82 5453.69 5797.32 5432.04 3921.27 3702.45 5265.63 4898.29 4431.06 5730.2 4830.13 3494.16 5370.9 4529.77 4325.13 6172.27 5390.33 5078.73 5278.54 5729.0 5192.92 5275.57 4179.87 4786.66 5891.25 5370.1 5129.4 5114.51 4655.37 5585.25 5023.61 4672.86 6530.78 5560.23 4975.32 3043.77 5237.55 3909.94 5088.64 6589.8 6920.92 3729.16 3038.91 3783.36 3922.28 6570.43 3445.92 5236.69 4586.82 6026.04 6200.05 5859.17 4034.41 5522.34 5771.98 4420.35 5717.45 5117.83 5268.27 4645.93 5448.64 4585.37 6417.61 5395.12 5783.69 6074.39 3483.61 4460.89 4399.52 4157.1 4554.24 3939.96 5910.66 7415.84 4637.3 5141.03 4840.44 8123.59 5765.14 4767.54 5121.08 2927.84 4696.03 6177.68 4605.39 2848.44 6045.26 6500.45 4907.55 4103.76 4286.61 4094.63 4603.66 4969.68 6636.43 5431.14 6298.8 3689.24 5178.07 5151.19 5777.26 4171.02 7012.36 5028.06 4886.99 4002.99 5159.67 3161.1 5764.52 5684.88 6523.78 4645.86 4045.67 5620.88 4941.52 5900.0 4262.74 6241.77 3783.79 5317.19 4248.14 5279.19 4016.6 5821.49 7050.08 5580.44 5998.13 5095.52 4746.15 3720.38 4758.84 4731.37 4068.41 3976.0 6463.71 5059.37 5783.38 4139.39 6264.03 3562.8 4151.74 5192.82 3573.84 4174.22 4067.89 6294.09 4571.57 5131.07 4121.07 3133.28 5524.28 5731.43 6353.81 4150.44 3518.14 5044.68 2649.69 5899.78 5000.74 5772.57 4813.81 5244.95 4634.25 5901.8 6351.48 3830.7 6210.0 5350.9 4262.52 6738.9 5992.06 8052.53 4867.12 6044.01 6520.19 1458.87 5734.07 3997.68 6033.28 4819.83 4801.16 5071.38 5616.66 5688.77 4698.7 5368.28 6229.64 4220.43 6263.87 5743.8 6666.34 5084.76 6605.11 4757.87 3557.46 5971.95 5652.73 3979.46 6321.97 6509.54 6119.0 3792.06 4293.3 5128.59 5587.3 3572.73 4864.38 3770.22 4390.64 5150.84 4608.01 5087.97 6005.95 4308.49 4930.17 4581.1 4745.44 4085.96 5762.82 7360.12 6223.98 5462.6 5617.29 3035.06 4262.19 4597.88 4878.93 6275.25 6892.33 4505.3 4452.36 4832.21 4511.34 5009.21 4742.35 5394.79 5645.54 5264.08 4526.87 4691.01 4594.89 5245.95 5821.42 4515.02 3463.53 6126.03 2970.24 4197.87 5105.54 5462.1 3414.67 6032.45 5444.36 4026.03 6908.32 3467.11 4817.75 6153.26 5637.53 3882.37 4095.4 5188.57 3873.79 5357.33 5252.37 5432.4 4499.54 5037.58 7430.48 5545.68 6080.69 4970.12 4967.93 6369.66 5973.57 6241.48 5125.45 5957.82 6286.27 6327.54 5507.07 4802.36 5466.13 5327.71 5257.38 5075.23 4975.56 7282.36 3826.01 4645.91 5581.01 6834.92 6379.33 5130.57 5402.45 3985.93 6412.84 2589.19 6071.59 6079.55 5485.61 4993.49 5310.33 6583.37 3688.83 3402.44 4848.98 4491.96 5184.98 4467.51 5339.82 4519.03 5460.57 5110.27 5703.34 4612.68 6668.98 6649.52 4232.33 4939.56 4747.68 5770.92 3093.38 4845.91 2002.78 5631.32 6322.0 5793.14 4491.26 4609.65 5704.61 5410.73 4379.91 4574.03 5290.37 4227.66 5850.38 4730.97 3677.85 5214.71 4677.84 4924.52 4811.11 4866.8 6044.69 5658.05 6593.1 4000.51 6033.93 5011.37 2827.92 4441.44 4232.44 5336.61 5563.09 4848.15 4439.09 5523.81 4718.61 6697.45 5717.67 5515.59 3224.81 3775.38 4046.22 6457.89 5640.67 6572.17 3751.73 5555.89 4766.47 4871.1 5678.08 5922.62 4414.09 5191.29 3784.68 4188.16 3717.22 4654.92 2943.17 4880.78 5286.55 4322.56 5509.09 5625.02 5212.05 4829.77 3928.99 4444.92 6959.88 4125.75 5749.53 5247.73 5090.48 5034.02 5582.28 5945.25 5181.31 3856.4 4696.06 4137.16 4937.36 5308.4 6581.13 4569.32 5537.61 6084.88 4397.06 4199.44 4053.12 4479.5 6261.67 3435.13 5065.78 4431.46 4521.42 3207.84 3977.98 6043.34 4128.93 4959.72 4712.17 3808.04 4723.71 4461.67 6126.5 4034.88 6007.1 6345.2 5488.96 5128.03 3720.92 4942.63 5087.3 6139.74 4975.57 7066.26 6150.31 3057.3 5873.62 4996.91 5379.52 3920.44 3768.62 5314.67 5563.47 5651.46 4066.36 3162.27 5516.37 5092.44 5432.2 4612.4 3312.3 4746.19 6381.58 3282.57 4798.13 5648.59 4630.5 6296.36 4432.32 4451.76 7885.41 5782.25 4104.97 4844.2 4575.72 5114.61 6118.13 3374.62 4926.62 3917.09 6009.93 5872.45 5270.1 4947.64 6305.9 6649.21 3470.69 4859.95 4132.08 5522.18 5223.1 3873.72 4592.49 3625.98 5479.86 6474.5 4702.32 4763.04 5971.9 3746.62 4532.67 4876.37 4769.62 5260.13 4649.5 4810.74 5985.75 5475.83 6189.29 5984.55 5672.46 5803.3 3228.27 4721.98 5252.82 3543.98 5056.26 5878.55 4014.44 6604.72 6002.77 3794.47 4610.55 4967.02 4614.49 5400.69 4462.5 5573.31 5004.68 4023.88 5348.11 4405.61 5428.24 5108.84 3511.5 5067.92 4520.14 5357.14 3188.21 5919.27 4793.06 6637.38 6188.33 6111.23 6916.18 5786.06 4137.41 3868.69 5447.74 4450.51 6033.72 3851.47 4966.74 4959.94 1635.31 5639.4 6185.73 4083.24 6520.96 3771.91 5217.62 6178.19 4616.81 5715.25 5212.2 4611.21 5108.42 3354.94 4404.87 5237.27 5767.65 4750.76 4907.03 5497.27 4081.77 4948.21 2181.29 4987.01 4420.3 6332.64 6492.44 4083.1 3482.73 3996.93 5130.56 4957.99 4063.26 4997.89 4542.62 5093.28 6131.52 6009.88 4699.77 4850.49 4981.55 5144.23 6188.62 6153.07 4414.06 5944.52 4413.56 5050.2 2513.38 5316.05 4908.32 3995.08 5019.84 3900.93 5784.38 4149.17 4329.8 5728.27 3074.49 5202.33 3956.24 7558.99 3393.59 4142.1 5043.14 5333.04 5445.91 4521.99 4812.59 6842.54 7115.67 5675.45 3361.11 6038.56 2807.46 5599.16 4179.8 3488.34 5658.35 4487.51 4582.12 4295.25 7394.47 4729.45 4850.95 5374.09 6271.22 3421.81 5378.75 3920.64 6186.24 5822.7 3780.07 5466.49 4038.17 5007.41 3692.99 4907.48 6213.74 2329.93 4369.87 6938.87 5412.07 5512.57 4806.99 4813.55 5856.43 3839.0 3465.03 5349.85 5799.86 5172.1 4362.94 4469.82 6545.78 4870.14 2932.2 5105.72 5003.49 3964.03 4216.33 5832.72 5617.91 4721.2 4202.12 4706.31 2694.25 4735.99 4203.68 4739.56 4613.32 5145.39 3352.46 6351.95 5195.09 5345.05 7679.2 4881.51 2626.41 4311.92 6729.99 5093.41 6842.35 5464.34 3621.63 5801.89 5908.57 7296.47 5742.39 4821.41 4924.53 5616.11 4499.52 3874.12 4028.13 4457.73 6476.35 6260.58 4067.24 3053.19 6571.26 5580.95 6598.99 3549.92 4032.06 5246.81 5089.1 5888.95 5394.78 3463.34 5122.38 2853.68 5262.85 4998.37 5329.84 6559.82 3879.83 6565.95 4577.98 5043.34 5886.81 4246.24 6805.02 5354.48 5640.63 4900.26 6261.13 4167.55 4720.34 5244.47 5510.89 4731.16 6470.87 4495.33 5282.67 4159.89 5178.55 5146.69 6203.24 6818.23 4488.41 6679.12 5652.19 5806.74 6578.62 6284.12 4796.04 5229.56 6011.4 4672.34 6052.22 5376.41 5003.63 4695.7 4944.08 4082.01 5269.39 4305.35 5210.22 2451.27 3903.9 4444.95 5161.02 3124.49 6265.48 5003.81 6262.18 3818.37 4701.03 6225.05 5434.04 5200.1 3997.52 4444.54 5779.9 4909.74 5310.33 5299.03 6664.54 5161.73 3922.98 5259.48 4777.96 5254.93 4803.4 6833.5 6608.94 2613.78 4780.16 3834.01 5738.37 4433.23 4813.24 5759.19 3113.64 4490.2 4304.75 5480.86 6139.9 4720.22 4313.38 5827.3 5250.56 3633.58 2468.16 6294.14 4339.97 5203.75 5169.09 4691.15 2459.88 4210.24 5470.67 5901.71 5225.11 5342.9 5252.22 5733.12 4962.35 6436.29 5402.81 4600.81 4919.13 5168.97 4124.33 5783.88 5002.38 6705.93 4865.11 5449.09 5502.14 4605.61 4131.08 4465.56 5747.9 5386.95 3864.19 4287.93 5315.71 6158.93 5081.65 4823.14 5438.5 4621.32 5699.4 3878.8 4698.94 3948.21 4286.84 5669.15 5296.05 5263.86 3330.85 5056.32 5533.52 5410.33 4747.24 4380.86 5576.16 5648.02 3308.75 4439.17 5677.42 4929.35 5606.22 3943.77 5242.38 6081.35 5459.52 4609.98 5566.5 5663.36 4276.59 5579.04 5125.53 5994.21 5403.81 5082.25 6964.78 4374.05 5036.84 4565.36 5813.68 4025.08 4008.67 3618.53 4770.21 8013.28 3846.55 3796.73 5417.07 3082.16 5656.84 6789.66 4739.41 5312.2 5847.27 4706.59 5734.84 3982.31 4950.07 4582.24 2832.83 4084.87 6036.99 3010.1 3825.98 4589.22 5087.03 4667.84 3906.41 4123.08 4512.6 4260.38 4636.45 4932.27 5638.51 6793.49 3563.33 6060.19 5536.0 6786.37 4333.23 4328.76 5561.63 5940.5 4358.06 5093.51 5647.93 4280.92 6201.49 5154.74 4696.92 6437.99 6898.8 6540.57 5332.11 4893.72 6004.72 4072.4 5373.78 5345.65 4489.18 5863.36 4632.75 5237.76 4994.98 6423.96 6058.13 5894.69 6988.4 6635.51 4060.17 6051.35 5302.53 4909.13 4287.61 3999.81 4867.13 4604.34 4863.27 2701.42 5442.79 5051.39 6673.92 5151.68 4884.94 5362.15 4455.61 4738.72 4752.31 5240.97 5569.85 5405.6 3929.35 4884.93 4759.38 6960.97 4287.15 5282.51 5504.65 5669.41 5732.11 5040.9 5596.68 4868.66 5159.9 5283.65 4644.68 2892.36 5981.54 5911.29 5416.41 4694.27 6760.64 2515.5 5177.88 5551.79 6981.47 3916.15 4474.96 4758.76 4790.63 5259.29 3584.05 4916.75 4818.53 5097.85 5584.64 6189.04 6224.64 4221.03 3799.55 5082.66 4550.77 4337.93 3550.88 4345.51 4048.73 6223.33 3860.8 5145.13 3747.96 5611.29 4521.88 6568.45 5004.22 4601.54 7263.57 5705.96 5739.69 6632.04 7360.62 4977.64 4985.45 4983.56 5699.51 2489.44 5499.37 4883.13 4836.76 4752.94 5551.09 3950.53 4501.1 5581.47 4384.91 6550.61 4987.01 4713.56 6094.34 6779.82 5543.67 6210.48 6377.45 4182.05 4502.12 3255.93 6853.07 6327.61 4633.59 5733.59 5575.8 5268.93 6874.6 5106.9 5306.31 5523.96 4223.53 4733.37 4535.94 3037.72 4523.9 5126.08 5604.0 3760.4 4951.02 3919.47 4602.7 3783.35 4037.16 4004.39 6395.63 4987.48 5943.61 4248.58 5479.17 4542.25 5020.37 4414.23 5233.88 4849.21 4785.55 3793.83 5245.4 6189.81 5367.05 4449.73 5647.11 4088.72 3945.62 3743.85 6236.46 5342.17 6379.3 5015.67 3795.63 5189.4 4576.71 6538.04 4894.15 6157.59 5201.3 5848.41 4090.28 4246.83 5438.6 7370.52 4726.5 5467.05 3724.23 5103.3 4963.88 5888.94 4727.98 3832.09 5175.88 4122.2 5267.65 4516.26 4790.16 3509.34 5360.88 3731.58 3647.26 3166.37 5369.42 5207.08 5205.53 4714.52 4587.19 5543.05 6028.89 5333.16 4888.17 5755.98 5392.85 5077.2 4274.05 5275.27 4277.54 5529.09 4531.46 5925.82 5448.68 4739.5 4072.95 4491.62 3865.5 3695.72 
SCALARS Velocity float 1
LOOKUP_TABLE default
1.07674 0.983029 1.63782 1.63447 1.24948 1.70607 1.1975 1.19337 1.197 1.19189 1.19207 1.2614 1.30364 1.23335 1.47479 1.76216 1.27769 1.24518 1.66613 1.87471 1.95792 1.87166 0.847316 0.829585 1.2464 1.16833 0.957803 1.06086 1.34549 1.37976 1.6916 1.38141 1.19938 1.66902 1.42395 1.40008 1.33856 1.1531 1.17835 1.31771 1.20214 1.1763 1.19548 1.19178 1.19178 1.21506 1.21735 1.20903 1.19466 1.19946 1.19476 1.19799 1.19521 1.19733 1.19178 1.19209 1.19325 1.19176 1.19417 1.19438 1.19178 1.19172 1.19491 1.19494 1.19419 1.19252 1.19248 1.1928 1.19185 1.19326 1.19185 1.19392 1.19617 1.19579 1.19166 1.19181 1.19224 1.19223 1.19621 1.1991 1.19284 1.19307 1.20597 1.18766 1.19174 1.20375 1.1604 1.21742 1.19013 1.18357 1.19336 1.28457 1.2965 1.23655 1.22401 1.24262 1.19178 1.32599 1.52149 1.29812 1.72018 1.28591 1.37556 1.49378 0.991863 0.863012 1.05842 1.10865 1.0348 0.904978 0.902634 1.03823 1.07425 1.05489 0.929101 0.833645 1.41359 1.18183 1.64687 1.47765 1.44591 1.29269 1.34121 1.33697 1.19178 1.19178 1.31092 1.32747 1.18893 1.19183 1.26393 1.25075 1.23077 1.1896 1.2152 1.21302 1.1948 1.20044 1.19868 1.19159 1.1943 1.1941 1.19344 1.19395 1.19434 1.19085 1.19462 1.19487 1.19264 1.19204 1.19471 1.19331 1.19255 1.19267 1.19268 1.19183 1.19454 1.1949 1.19685 1.19774 1.19354 1.19168 1.19178 1.19278 1.19573 1.1961 1.19903 1.19178 1.19498 1.20719 1.20839 1.19178 1.19178 1.21834 1.21479 1.21735 1.20415 1.19232 1.2017 1.18162 1.19803 1.18205 1.28532 1.2521 1.07899 1.47698 1.43981 1.6107 1.47668 1.30555 1.47927 1.18269 1.01017 1.27429 1.40887 0.941785 1.04106 1.0854 1.12893 1.13719 1.19151 0.912277 0.924792 0.902588 0.930471 1.03705 1.03305 1.36019 1.21227 1.07963 1.51693 1.02599 1.11338 1.26234 1.43574 1.27247 1.40908 1.23704 1.19981 1.18704 1.16116 1.20952 1.22928 1.20185 1.22162 1.21684 1.19463 1.19552 1.19938 1.19764 1.19123 1.19662 1.19191 1.19178 1.19456 1.19465 1.1949 1.19264 1.19209 1.19308 1.19166 1.19441 1.19308 1.19379 1.19203 1.194 1.19592 1.19237 1.1906 1.19092 1.19384 1.19815 1.19843 1.19889 1.20123 1.19428 1.20255 1.1913 1.19823 1.22124 1.19978 1.21872 1.19787 1.19988 1.25697 1.2299 1.17683 1.18621 1.45892 1.07721 1.41161 1.16955 1.17548 1.29513 0.830522 1.45264 0.980552 1.07934 1.07945 1.27121 0.538729 0.885601 0.91137 0.921932 0.924504 0.92794 0.95627 0.930083 1.09529 1.00754 0.942159 1.17365 1.16725 1.18084 1.13193 1.25304 1.24681 1.20673 1.32946 1.05117 1.38954 1.39094 1.21424 1.20718 1.2428 1.24414 1.20956 1.19454 1.19969 1.19102 1.22458 1.22379 1.19782 1.22418 1.2027 1.24964 1.19197 1.19666 1.1965 1.19756 1.19808 1.19373 1.19571 1.19071 1.18829 1.19364 1.18783 1.19449 1.19536 1.19754 1.19294 1.19131 1.19482 1.19353 1.19369 1.19417 1.19749 1.1917 1.19383 1.19157 1.19415 1.19178 1.19178 1.19178 1.20897 1.20642 1.17681 1.20209 1.20735 1.21912 1.20728 1.17869 1.17671 1.26312 1.23879 1.18919 1.28247 1.27999 1.21359 1.12889 0.999591 1.10523 0.906848 1.31742 0.728772 1.23108 1.14472 1.08811 1.16658 1.32061 0.963779 0.97601 0.940085 0.914665 0.991896 1.16377 0.916408 0.789255 0.849514 0.865964 0.879473 0.928255 0.935197 0.943917 0.941707 0.913103 1.01401 0.951777 1.09896 1.07661 1.14036 1.21481 1.23988 1.23034 1.28993 1.23079 1.02102 1.22937 1.05318 1.35427 1.18294 1.21688 1.24988 1.19064 1.18315 1.18542 1.20067 1.20053 1.20076 1.18735 1.19173 1.19764 1.19624 1.19699 1.19148 1.19559 1.1927 1.18985 1.18922 1.19322 1.1935 1.18868 1.19656 1.19354 1.19451 1.19411 1.19653 1.19676 1.19241 1.19236 1.19244 1.19884 1.19473 1.19513 1.19178 1.19251 1.19118 1.18737 1.20685 1.19681 1.21192 1.21386 1.2143 1.20475 1.17186 1.21378 1.17674 1.20507 1.2867 1.17879 1.15517 1.1873 1.1619 1.27468 1.25883 1.31074 1.21328 0.984992 1.21556 1.21701 1.05082 1.12255 0.865122 0.972459 0.915056 0.992364 1.01198 0.911986 0.939595 0.74693 1.38133 0.479219 0.873855 0.933186 0.859704 0.854125 0.893382 0.905667 0.967652 0.961399 1.00143 0.941577 0.846848 0.861698 1.00999 1.00776 1.04787 1.09661 1.08075 1.12276 1.23167 1.41291 1.25373 1.10113 1.27024 1.12127 1.14934 1.21539 1.17487 1.20884 1.22247 1.16103 1.20388 1.17951 1.19264 1.19761 1.18485 1.19294 1.19857 1.19171 1.19646 1.19675 1.19158 1.19248 1.18986 1.19298 1.19234 1.19119 1.19151 1.19273 1.19189 1.19326 1.19142 1.19692 1.19377 1.19565 1.19652 1.1906 1.19175 1.19361 1.19158 1.18812 1.18755 1.19609 1.25056 1.21569 1.17825 1.20493 1.18192 1.16224 1.18284 1.2109 1.25413 1.14015 1.17957 1.23118 1.26698 1.14424 0.904399 1.14212 1.19867 1.06508 1.08388 0.981392 0.908496 1.02421 1.0534 0.987066 1.03329 0.946881 0.990909 1.44928 0.354165 0.358958 0.448225 1.08329 0.928452 1.14835 0.9793 0.994527 0.932118 1.00325 1.02354 0.860375 0.781366 1.13711 1.05498 0.98266 0.980319 1.12608 1.15876 1.26747 1.39575 1.14007 0.646924 1.21194 1.20535 1.27135 1.2496 1.33166 1.26565 1.20049 1.21788 1.22285 1.22275 1.15387 1.19493 1.18186 1.19753 1.18674 1.19085 1.19789 1.19052 1.19658 1.19666 1.19091 1.18838 1.19081 1.19132 1.19064 1.1917 1.19126 1.19522 1.19527 1.19618 1.19238 1.19302 1.19532 1.19578 1.19639 1.19068 1.19404 1.19491 1.2032 1.18541 1.18799 1.18813 1.19178 1.18095 1.201 1.20416 1.19557 1.19264 1.21163 1.16387 1.19334 1.20037 1.19502 1.19035 1.18329 1.26553 1.19941 1.17333 1.11394 1.24188 1.12102 1.22566 1.10303 1.18016 1.23453 1.08669 1.09112 1.10906 1.09264 0.942017 1.11091 0.984408 1.30657 1.07206 0.774731 0.75232 0.89096 1.06569 1.2239 0.471959 0.584007 0.586519 0.66578 1.43983 1.48395 1.02063 1.1345 0.659421 0.690162 0.656403 0.508337 0.631788 0.789044 0.87231 0.898449 0.917782 0.966386 0.860558 0.632262 1.40602 1.38009 0.93317 0.890765 0.912457 1.10137 1.27617 1.19937 1.13688 1.1486 1.30456 1.04038 1.13787 1.18873 1.19256 1.18362 1.21142 1.23086 1.19883 1.19666 1.20932 1.17894 1.18909 1.18559 1.19213 1.19546 1.18952 1.19582 1.19689 1.19169 1.19489 1.1889 1.19883 1.19437 1.19069 1.19078 1.19045 1.19178 1.1925 1.19271 1.19606 1.1923 1.19336 1.1951 1.1956 1.19618 1.19082 1.19465 1.19428 1.19419 1.19419 1.18839 1.20579 1.19178 1.18202 1.19945 1.18239 1.19372 1.19626 1.16138 1.19215 1.20806 1.19521 1.19837 1.18639 1.18882 1.27203 1.20221 1.19279 1.19015 1.0959 1.18294 1.07525 1.14771 1.30971 0.844896 1.19072 0.92073 0.961028 1.05877 1.06209 0.694455 0.835029 0.989678 0.911344 1.12723 0.862386 1.01903 0.910468 0.775349 0.64846 0.661706 0.696796 0.647232 0.71506 0.740385 0.789554 0.858279 0.522495 1.30282 0.661483 0.520938 0.561534 0.708379 0.409777 0.913661 0.870609 0.895329 0.910193 0.834007 1.11371 0.938598 0.955226 0.932709 1.0805 1.00523 1.23981 1.38935 1.23544 1.14079 1.22767 1.08654 1.21866 1.11857 1.19104 1.21548 1.19943 1.20707 1.19159 1.20974 1.17937 1.19832 1.19118 1.20459 1.18835 1.19548 1.19735 1.19018 1.19455 1.19275 1.19746 1.19646 1.19332 1.19428 1.19138 1.19263 1.19809 1.19084 1.1959 1.19194 1.19391 1.19439 1.19518 1.19461 1.1908 1.19436 1.19386 1.19415 1.19611 1.20621 1.19828 1.20027 1.18619 1.19737 1.19478 1.19153 1.16173 1.18955 1.21855 1.22349 1.19195 1.243 1.21482 1.21767 1.21551 1.12082 1.10574 1.17251 1.10882 1.10744 1.08493 1.35766 0.987999 0.964215 0.91835 0.942042 0.989995 1.07491 1.00699 0.599793 0.775496 1.00258 0.967647 0.904094 0.811831 0.967235 1.08919 0.669452 0.581805 0.664628 0.610958 0.599483 0.473461 0.716023 0.789305 0.752995 0.614628 0.891858 0.60699 0.507695 0.424956 0.479737 0.774043 0.782152 0.770175 1.18868 1.03062 0.991701 0.952031 1.00604 1.20433 1.34223 1.06799 1.23516 1.14711 1.14976 1.07965 1.23042 1.06595 1.16268 1.21019 1.22582 1.21143 1.20954 1.18917 1.19298 1.20417 1.18301 1.2023 1.19049 1.1898 1.18664 1.19152 1.18662 1.19044 1.19193 1.19066 1.19322 1.192 1.19611 1.19377 1.19178 1.19428 1.19068 1.19808 1.18631 1.18529 1.19322 1.19528 1.19269 1.19208 1.19332 1.19412 1.19509 1.19479 1.19474 1.19378 1.19476 1.19642 1.19178 1.20035 1.17653 1.18425 1.18453 1.19719 1.2016 1.19077 1.10734 1.2164 1.19987 1.18462 1.18692 1.2056 1.24777 1.13557 1.13045 1.14461 1.20196 1.13768 1.1066 1.31338 1.06012 1.01827 0.930347 0.950379 1.03851 0.989522 1.06455 0.673533 0.860214 0.763671 0.85012 0.929873 0.914043 0.844975 0.858016 0.670867 1.03966 0.622544 0.542465 0.612372 0.385833 0.580629 1.06059 1.25139 1.10319 0.63581 0.552862 0.737677 0.559266 0.558164 0.565446 0.523885 0.579199 0.925142 0.878622 0.818851 0.817224 0.552932 0.680756 1.11828 1.03073 1.01417 0.984577 0.945296 0.999009 0.992859 0.922398 0.998596 1.1957 1.04627 1.17361 1.17675 1.08797 1.11989 1.09863 1.1839 1.20893 1.17206 1.20786 1.19879 1.19765 1.19353 1.1905 1.20405 1.18436 1.19433 1.18374 1.18693 1.18876 1.19137 1.18998 1.19081 1.19268 1.19341 1.19117 1.19091 1.19328 1.1934 1.18934 1.20065 1.18977 1.19194 1.19169 1.18922 1.1937 1.19455 1.19178 1.19528 1.19386 1.19506 1.19471 1.19394 1.1943 1.19313 1.1924 1.19137 1.20028 1.18647 1.18226 1.18743 1.19959 1.20365 1.18598 1.18854 1.21578 1.17409 1.15726 1.22008 1.17088 1.2018 1.15466 1.21695 1.21394 1.23383 1.11082 1.12763 1.23441 1.17729 1.15315 1.12991 1.25437 0.919294 1.15548 1.00993 0.912341 1.08559 1.02838 1.16879 0.68446 0.852481 0.712171 0.824672 0.700688 0.936675 0.839353 0.959136 0.605056 0.593727 0.608167 1.094 0.62439 0.991416 0.673419 0.546048 0.60877 0.68653 0.573719 0.575117 0.574852 0.884665 0.879557 0.68113 0.831299 0.685612 0.687028 1.00509 0.232211 1.05428 1.00615 0.966514 1.00031 1.03568 0.947606 1.21207 1.11446 1.06744 1.1927 1.0962 1.09447 1.18178 1.21631 1.17777 1.19071 1.2102 1.2057 1.17971 1.19533 1.20234 1.18648 1.18762 1.1954 1.19366 1.18562 1.19103 1.1903 1.18821 1.19134 1.18814 1.19231 1.19087 1.18866 1.19358 1.19178 1.18934 1.20062 1.1937 1.19502 1.1916 1.19178 1.19178 1.19418 1.19542 1.19428 1.19411 1.19497 1.19819 1.19365 1.18877 1.19552 1.20041 1.20535 1.18153 1.19731 1.18655 1.20187 1.18663 1.18673 1.19062 1.18197 1.17742 1.18604 1.15185 1.22826 1.20299 1.11381 1.23401 1.17385 0.921526 1.12564 1.04142 0.899858 0.895355 1.13443 1.20331 1.11452 0.709505 0.818707 0.995842 0.664798 0.697774 0.741083 1.02551 0.733307 0.552645 0.709843 0.610855 0.735264 1.03749 0.962746 0.699128 0.651972 0.637165 0.673077 0.6129 0.62824 0.553607 0.693535 0.906556 0.893185 0.933292 0.877147 0.915944 0.132711 1.06715 1.00889 1.05824 0.993192 0.999552 0.922439 1.15435 1.11848 1.00717 1.08935 1.19836 1.107 1.10875 1.19007 1.16243 1.19869 1.17658 1.15842 1.17555 1.18278 1.20428 1.20558 1.19517 1.18944 1.19139 1.18586 1.19409 1.19045 1.18856 1.19537 1.18209 1.19365 1.1946 1.19557 1.19487 1.18822 1.19196 1.1982 1.19988 1.19354 1.19545 1.19086 1.19312 1.1958 1.19299 1.19719 1.18886 1.19365 1.19618 1.19988 1.21156 1.20033 1.18086 1.18734 1.1736 1.19294 1.20048 1.12482 1.18881 1.21334 1.16899 1.19188 1.20367 1.16162 1.18518 1.19618 1.24369 1.14406 1.08117 1.03316 1.17682 1.16765 1.07304 1.07087 0.851326 0.924283 1.08177 1.04053 1.08367 1.16668 0.772691 0.839043 1.02352 0.743697 0.751037 0.704701 0.673871 0.734417 0.889687 0.867023 0.93859 0.730648 0.825819 0.751853 0.640003 0.584955 0.970895 0.955665 0.882652 0.9674 0.951452 1.00967 0.739448 1.10794 1.17986 0.797052 1.04362 1.10588 1.0768 1.01694 0.963436 0.96221 0.936006 1.14321 1.12339 1.05034 1.08596 1.12718 1.15717 1.16473 1.15439 1.07367 1.16102 1.20048 1.17701 1.17661 1.20796 1.18537 1.18767 1.19395 1.18999 1.18722 1.18652 1.18697 1.19543 1.19814 1.19178 1.19534 1.18749 1.18977 1.19204 1.19257 1.19996 1.19531 1.19007 1.19436 1.19308 1.19714 1.19563 1.19273 1.19538 1.19029 1.19405 1.20195 1.2114 1.20015 1.18103 1.18627 1.20277 1.19048 1.20296 1.17166 1.17378 1.18548 1.21066 1.22219 1.18166 1.17168 1.17569 1.19149 1.17885 1.13945 1.14813 1.13746 1.0798 1.11356 1.14922 1.20376 1.08411 1.10799 1.15208 1.08333 0.85833 1.00738 1.10121 1.05764 0.968095 1.06917 0.817625 0.835395 1.04177 0.771815 0.8037 0.865904 0.748995 0.813408 0.85644 0.906284 0.853647 0.724402 0.886874 0.782838 0.594398 1.01733 0.980056 0.92635 0.968114 1.01872 0.964897 1.12555 1.13032 1.1376 0.991169 0.951825 0.980644 1.15796 1.07698 1.08437 1.15269 1.1283 1.05894 1.06588 1.17434 1.17789 1.20667 1.1776 1.19066 1.17694 1.18309 1.19707 1.18517 1.19344 1.1901 1.18838 1.19121 1.19637 1.18891 1.18468 1.18637 1.19632 1.19688 1.1804 1.18799 1.19607 1.19798 1.19766 1.19476 1.19141 1.1922 1.18817 1.1991 1.19596 1.18997 1.19404 1.19534 1.19402 1.19713 1.20141 1.19995 1.18968 1.18937 1.19382 1.19495 1.19266 1.1996 1.20308 1.1811 1.18045 1.20285 1.18819 1.18694 1.19227 1.20488 1.17189 1.19178 1.19404 1.17804 1.17331 1.19343 1.17041 1.20668 1.1792 1.18274 1.174 1.11298 1.13735 1.03419 1.06461 1.14694 1.16544 1.22085 1.18306 1.09638 1.16095 0.978009 0.90217 1.02834 1.05899 1.03259 1.03448 0.864813 0.811207 0.979658 0.859246 0.878683 0.871316 0.860331 0.936429 0.909846 0.914625 0.802759 0.723183 0.927749 0.781586 0.584781 1.1299 1.00083 0.984087 1.05528 1.06873 1.11703 0.823067 1.08667 1.10215 0.977406 0.980186 1.0206 1.06383 1.15671 1.09708 1.09682 1.12928 1.15541 1.15387 1.17545 1.15571 1.14365 1.13465 1.19063 1.15536 1.17686 1.18722 1.18197 1.17639 1.19463 1.18893 1.1907 1.2014 1.1862 1.19792 1.18428 1.18851 1.19133 1.19434 1.1942 1.18938 1.19612 1.19538 1.19291 1.19441 1.18823 1.19521 1.19725 1.1951 1.19481 1.19697 1.19698 1.19175 1.19466 1.19486 1.19369 1.19896 1.20153 1.19942 1.20121 1.18944 1.18986 1.19359 1.17238 1.1803 1.18236 1.20993 1.20359 1.17872 1.18147 1.14255 1.17064 1.19085 1.14547 1.11172 1.17566 1.09492 1.04026 0.975381 0.933964 1.02309 1.06917 1.04846 0.923728 0.974823 1.01025 0.906312 0.945291 0.959221 1.02405 0.914232 0.954344 0.859981 0.874249 1.03526 0.739698 0.877586 0.606574 1.14625 1.01012 1.01665 1.0232 0.99887 1.00862 0.978912 0.861714 1.09696 1.00728 1.02341 1.06636 1.07213 0.987908 1.09417 1.07199 1.14697 1.11585 1.10037 1.13489 1.17072 1.17862 1.18039 1.14195 1.19582 1.17529 1.18068 1.17768 1.17945 1.19541 1.2025 1.18879 1.19243 1.1885 1.19326 1.19523 1.19515 1.19169 1.1909 1.19143 1.20063 1.19138 1.19178 1.19548 1.19173 1.19515 1.19943 1.19108 1.19806 1.1943 1.19446 1.19265 1.1978 1.19549 1.19331 1.19107 1.19662 1.19423 1.19543 1.19955 1.20116 1.19905 1.18458 1.19097 1.19064 1.19412 1.19038 1.19005 1.19806 1.18196 1.2048 1.2012 1.1889 1.18029 1.1447 1.18143 1.14845 1.15043 1.19838 1.19178 1.19178 1.196 1.11338 1.10858 1.10206 1.09115 1.15101 1.128 1.11672 1.01233 1.04014 1.00858 1.02481 1.05978 1.06487 0.984589 0.906094 1.0764 1.098 1.01617 0.940944 0.964098 0.988842 0.981538 1.07537 0.870592 1.04906 0.746323 0.899259 1.17015 1.26491 1.12065 1.07877 0.967705 0.976953 1.04363 1.03739 0.941366 0.966922 0.959892 1.09483 0.976287 1.09627 1.16963 1.07304 1.10215 1.09383 1.12809 1.17049 1.15911 1.17677 1.17406 1.14405 1.17752 1.2047 1.1284 1.20087 1.19178 1.19193 1.18173 1.1835 1.17971 1.19575 1.19097 1.19853 1.19254 1.18879 1.19366 1.19568 1.19517 1.19117 1.19955 1.19504 1.20144 1.19508 1.19508 1.19209 1.19895 1.19097 1.1949 1.1942 1.19873 1.19836 1.19361 1.19053 1.19663 1.19205 1.19258 1.19557 1.19435 1.19909 1.20073 1.1991 1.18345 1.18953 1.19217 1.18802 1.17952 1.19698 1.19292 1.19307 1.19756 1.18156 1.18329 1.20529 1.19838 1.21253 1.17185 1.13593 1.14092 1.15801 1.17148 0.996171 1.0465 1.08669 1.07253 1.10135 1.06265 1.06572 0.997232 1.1817 0.94209 1.0753 0.978896 0.980102 1.01661 1.07948 1.05366 1.06206 0.755685 0.907156 1.05599 1.24672 1.06199 1.03273 1.06783 0.945716 1.12735 1.08456 1.0394 1.01757 0.993686 0.940912 1.10105 1.0544 1.06529 1.04483 1.21076 1.1197 1.13313 1.53437 1.11758 1.11021 1.13172 1.15617 1.16768 1.17924 1.15943 1.18103 1.16757 1.19701 1.19441 1.19765 1.19483 1.19782 1.18602 1.18408 1.18473 1.20074 1.19628 1.19011 1.19216 1.19368 1.19178 1.19509 1.19398 1.18934 1.19705 1.19961 1.19491 1.19493 1.19496 1.19476 1.19382 1.19416 1.19701 1.20039 1.19269 1.18906 1.19642 1.19832 1.19306 1.19699 1.19264 1.19211 1.19403 1.19458 1.20039 1.19178 1.18607 1.18328 1.18934 1.1919 1.18579 1.1978 1.19178 1.19329 1.20131 1.18438 1.18327 1.1816 1.15824 1.18457 1.18335 1.23311 1.17283 1.15295 1.13681 1.16222 1.16268 0.994323 1.0557 1.10777 1.0815 1.0433 1.13199 0.99088 1.03748 1.09404 1.12491 1.13627 0.984373 0.992375 1.08979 1.01785 1.0652 1.07367 1.19178 1.05405 1.12369 1.08401 1.13369 1.11855 1.022 1.10749 0.999827 1.10193 1.11373 1.11432 1.11904 1.15986 1.03477 1.13934 1.14299 1.19178 1.16826 1.17997 1.20188 1.17496 1.17936 1.19728 1.18073 1.19243 1.19413 1.19518 1.17892 1.18577 1.18712 1.19719 1.19586 1.18862 1.19124 1.19118 1.19562 1.18849 1.1913 1.19498 1.19197 1.19176 1.19722 1.2005 1.19501 1.19377 1.19832 1.19501 1.19595 1.18824 1.18738 1.18992 1.20101 1.19147 1.20078 1.19366 1.19002 1.18626 1.19368 1.19047 1.19317 1.19964 1.19225 1.1862 1.18414 1.1852 1.1928 1.1885 1.19278 1.19153 1.19784 1.19308 1.19451 1.20364 1.17877 1.16272 1.18855 1.16268 1.18486 1.18421 1.18536 1.1513 1.18009 1.12661 1.20306 1.10797 0.95815 1.06061 1.11353 1.16474 1.06522 1.12938 1.13153 1.14674 1.13952 1.06944 1.13549 1.07096 1.10299 1.04787 1.14258 1.03132 1.05334 1.01333 1.12187 1.05459 1.08501 1.05531 1.08212 1.0795 1.14345 1.14396 1.08582 1.1533 1.13763 1.15558 1.13044 1.14345 1.10212 1.07741 1.1036 1.14535 1.16189 1.07949 1.10782 1.1568 1.20378 1.11469 1.12543 1.15771 1.16091 1.19751 1.208 1.1772 1.19806 1.18186 1.19088 1.20001 1.19212 1.19267 1.18989 1.1975 1.19285 1.19384 1.19382 1.19344 1.19015 1.19462 1.19238 1.19424 1.19418 1.18587 1.20016 1.19428 1.1989 1.19552 1.2 1.19934 1.19627 1.19178 1.18915 1.18138 1.19142 1.19807 1.20633 1.186 1.18566 1.19548 1.1936 1.19111 1.19131 1.19533 1.19523 1.19904 1.18701 1.18852 1.19511 1.18737 1.18474 1.19009 1.19083 1.19672 1.19759 1.19621 1.19324 1.19304 1.19919 1.17706 1.18882 1.18813 1.18463 1.18494 1.18457 1.19569 1.13731 1.20343 1.20943 1.11471 1.17818 1.16586 1.14309 1.16165 1.17764 1.09929 1.11211 1.05879 1.12034 1.14677 1.07929 1.10934 1.14434 1.10339 1.07362 1.09291 1.08973 1.09473 1.22291 1.23215 1.15873 1.16074 1.12922 1.16883 1.14355 1.14623 1.14357 1.17808 1.07755 1.1236 1.11013 1.19252 1.16064 1.1777 1.20099 1.13829 1.14272 1.17558 1.19154 1.19282 1.18411 1.19182 1.18318 1.19123 1.19471 1.19376 1.18199 1.19739 1.19687 1.18672 1.18662 1.19401 1.1934 1.19376 1.19119 1.19492 1.19205 1.19178 1.19396 1.19015 1.2004 1.18917 1.19757 1.19443 1.20257 1.19784 1.18978 1.18992 1.18446 1.19175 1.19081 1.19646 1.1929 1.18952 1.19393 1.19247 1.1907 1.19398 1.20238 1.19169 1.19721 1.1958 1.19077 1.19178 1.18709 1.19085 1.18882 1.19607 1.19444 1.2001 1.19302 1.17929 1.19697 1.19861 1.18416 1.18021 1.19178 1.18794 1.1987 1.19646 1.11831 1.11615 1.16975 1.16079 1.15636 1.15806 1.15198 1.17761 1.18087 1.10953 1.08974 1.13421 1.16375 1.11197 1.16262 1.14922 1.12948 1.10497 1.08685 1.10043 1.10358 1.136 1.13218 1.14893 1.19178 1.17827 1.13172 1.17672 1.15475 1.19236 1.20081 1.13871 1.1266 1.14588 1.13287 1.17241 1.21246 1.19053 1.15891 1.16736 1.17186 1.1915 1.20025 1.19754 1.189 1.19677 1.18445 1.18403 1.18826 1.19178 1.19571 1.1962 1.19605 1.18651 1.19322 1.19399 1.19812 1.19104 1.19362 1.19082 1.19404 1.19775 1.19678 1.19764 1.19707 1.19456 1.20426 1.19768 1.19087 1.18716 1.19032 1.18884 1.18302 1.19428 1.19613 1.19313 1.18831 1.18791 1.18762 1.18995 1.20095 1.20072 1.19604 1.19126 1.18572 1.19285 1.19049 1.18937 1.19559 1.19456 1.19679 1.18467 1.18813 1.19809 1.18447 1.18563 1.18658 1.18876 1.1808 1.17905 1.18274 1.16838 1.18669 1.16102 1.15385 1.17522 1.17592 1.19178 1.17554 1.12488 1.15932 1.13262 1.14729 1.10647 1.12265 1.13396 1.11488 1.13917 1.14411 1.19178 1.18969 1.18915 1.16397 1.18892 1.18731 1.16541 1.19178 1.19178 1.19178 1.16246 1.19677 1.17541 1.18358 1.17861 1.19178 1.15964 1.17807 1.16793 1.17828 1.20036 1.18952 1.19329 1.1927 1.18878 1.18761 1.18539 1.18174 1.18815 1.19444 1.19596 1.19079 1.1877 1.19318 1.19336 1.19261 1.19391 1.19135 1.1953 1.19672 1.19703 1.19353 1.20377 1.19749 1.19594 1.19026 1.18935 1.18684 1.18592 1.19477 1.19339 1.19341 1.19201 1.18653 1.19038 1.18768 1.1979 1.19214 1.19562 1.2021 1.19285 1.18642 1.18583 1.19046 1.19607 1.19382 1.19178 1.19729 1.18661 1.1898 1.18682 1.18245 1.19091 1.18676 1.18851 1.1752 1.17347 1.18084 1.18442 1.18969 1.18636 1.16462 1.16942 1.18464 1.17897 1.1751 1.17608 1.13756 1.161 1.15152 1.14515 1.15368 1.1088 1.13726 1.12523 1.13531 1.17423 1.15454 1.20056 1.19556 1.18534 1.18986 1.17263 1.19201 1.1917 1.19175 1.17982 1.19711 1.18221 1.18222 1.187 1.19178 1.1822 1.18184 1.19354 1.20194 1.19042 1.19036 1.1929 1.18768 1.18799 1.19119 1.19455 1.19635 1.18931 1.18751 1.19318 1.19309 1.19854 1.20331 1.19273 1.19468 1.19322 1.19443 1.19447 1.19662 1.19663 1.19242 1.20349 1.19725 1.19178 1.19255 1.18985 1.18705 1.18499 1.18518 1.19216 1.19348 1.1928 1.19302 1.19175 1.19309 1.18928 1.18519 1.1817 1.19379 1.19544 1.20222 1.19155 1.19612 1.19073 1.18823 1.19338 1.18993 1.19741 1.18807 1.1903 1.1882 1.18367 1.19044 1.18946 1.17814 1.19127 1.18634 1.1828 1.16386 1.17545 1.17458 1.18228 1.18284 1.17556 1.17847 1.1618 1.16954 1.16825 1.16732 1.15496 1.15561 1.13076 1.16052 1.1317 1.13825 1.15038 1.14224 1.18981 1.14795 1.15244 1.18278 1.17847 1.17152 1.19878 1.1875 1.19176 1.17589 1.19648 1.19868 1.17877 1.19038 1.19076 1.18716 1.18699 1.19094 1.19178 1.1842 1.1685 1.20789 1.20129 1.19178 1.19409 1.1929 1.19315 1.18741 1.18996 1.18579 1.18792 1.1904 1.1925 1.19485 1.19005 1.18879 1.19122 1.18757 1.19878 1.18583 1.19283 1.19422 1.19203 1.19417 1.19408 1.19424 1.19702 1.19725 1.19206 1.19521 1.19938 1.18784 1.18788 1.19746 1.19611 1.18917 1.1873 1.19435 1.18169 1.18354 1.19467 1.1886 1.19887 1.19326 1.19228 1.18435 1.18423 1.18753 1.1958 1.20096 1.18993 1.18669 1.19304 1.19147 1.19003 1.19249 1.19382 1.18988 1.19065 1.18949 1.18589 1.19108 1.18671 1.18901 1.19171 1.19315 1.18246 1.18547 1.18464 1.1875 1.19101 1.17176 1.17823 1.18599 1.17538 1.1771 1.19369 1.17153 1.17327 1.14962 1.15966 1.16252 1.13251 1.16793 1.14521 1.19247 1.18866 1.17722 1.19142 1.20437 1.18906 1.19454 1.17805 1.19142 1.19884 1.19118 1.18124 1.19636 1.18886 1.19182 1.19086 1.16954 1.18411 1.19572 1.18697 1.20259 1.19064 1.19548 1.19217 1.18823 1.18797 1.19012 1.18854 1.19003 1.19231 1.19397 1.18991 1.18132 1.1914 1.19107 1.19666 1.19548 1.19402 1.1935 1.18821 1.19077 1.18778 1.19459 1.19936 1.18963 1.193 1.19879 1.19132 1.19878 1.18504 1.19449 1.18354 1.19643 1.18929 1.19499 1.19552 1.18784 1.18774 1.19178 1.18426 1.18748 1.18727 1.19541 1.20023 1.19967 1.19515 1.19178 1.19096 1.18938 1.19436 1.19019 1.18971 1.19014 1.18874 1.19361 1.18931 1.19178 1.18861 1.1917 1.18287 1.19129 1.19868 1.20255 1.1982 1.18443 1.1922 1.18665 1.18964 1.17048 1.17373 1.20137 1.16997 1.16882 1.14716 1.16455 1.16658 1.1323 1.16799 1.14885 1.19352 1.19104 1.18869 1.19523 1.20159 1.19165 1.19819 1.19051 1.19201 1.19943 1.19119 1.19355 1.19178 1.19143 1.19678 1.18987 1.18621 1.19119 1.18775 1.19928 1.18989 1.19125 1.19261 1.19582 1.19683 1.19215 1.19372 1.1908 1.18992 1.18945 1.19852 1.18109 1.18923 1.19135 1.19118 1.19551 1.19053 1.19328 1.18935 1.19141 1.19236 1.19235 1.18442 1.19351 1.19143 1.19141 1.19321 1.19168 1.1917 1.18712 1.18616 1.18435 1.19565 1.19804 1.18891 1.18453 1.19178 1.19271 1.18969 1.19478 1.19922 1.18915 1.18876 1.19609 1.18888 1.1998 1.19953 1.19533 1.19417 1.1923 1.19164 1.18814 1.19178 1.19308 1.18969 1.19161 1.18904 1.19004 1.18694 1.19347 1.18926 1.19116 1.18605 1.18732 1.1854 1.18117 1.2012 1.19809 1.18555 1.18388 1.19409 1.17426 1.17449 1.18335 1.18932 1.19174 1.16791 1.17057 1.19447 1.1818 1.20285 1.18082 1.16836 1.19178 1.19178 1.16973 1.16713 1.17128 1.17119 1.17111 1.15204 1.19219 1.19231 1.1908 1.19417 1.20208 1.19717 1.19164 1.19208 1.19509 1.19598 1.19571 1.19126 1.19218 1.18996 1.19201 1.18306 1.19672 1.20128 1.19124 1.19252 1.19133 1.19353 1.19131 1.19941 1.19696 1.199 1.1788 1.18856 1.20023 1.19169 1.19928 1.18461 1.20887 1.19352 1.19426 1.19053 1.1949 1.19268 1.19201 1.18857 1.19048 1.1864 1.186 1.19121 1.1895 1.1931 1.18734 1.1905 1.19522 1.18683 1.1861 1.18466 1.19432 1.19604 1.18414 1.19178 1.18955 1.19016 1.19221 1.1867 1.19081 1.18838 1.19647 1.20112 1.1996 1.19617 1.19226 1.19112 1.1922 1.19649 1.1879 1.18814 1.19547 1.20138 1.19044 1.19168 1.18625 1.18853 1.18549 1.20063 1.18976 1.18697 1.19085 1.17593 1.18421 1.19102 1.19441 1.1833 1.18738 1.17748 1.19862 1.17164 1.18211 1.18677 1.16212 1.17013 1.17222 1.16322 1.19208 1.19105 1.1909 1.19422 1.20097 1.19203 1.19171 1.19694 1.19578 1.18921 1.19032 1.19117 1.2012 1.18268 1.1959 1.17789 1.19109 1.18388 1.19636 1.1983 1.19392 1.19183 1.19071 1.19966 1.1993 1.19164 1.18853 1.1998 1.18861 1.19083 1.19575 1.21046 1.19178 1.18888 1.1958 1.19621 1.19213 1.18676 1.19091 1.18648 1.18635 1.19122 1.19136 1.18678 1.19022 1.1892 1.19032 1.19662 1.18671 1.18464 1.18419 1.18472 1.1941 1.19254 1.2004 1.18974 1.18867 1.18606 1.19132 1.18872 1.19088 1.1918 1.18053 1.20028 1.19456 1.19188 1.19096 1.19104 1.19039 1.19412 1.18584 1.19304 1.18631 1.19189 1.20378 1.18622 1.19051 1.19063 1.18568 1.18852 1.18434 1.19715 1.20293 1.18405 1.19245 1.18065 1.18394 1.19295 1.19211 1.1991 1.18611 1.18217 1.18009 1.17091 1.17788 1.19043 1.17685 1.19216 1.1774 1.17216 1.19198 1.19113 1.19131 1.19445 1.19971 1.19166 1.19661 1.19498 1.20575 1.19003 1.19077 1.20147 1.1972 1.19268 1.17273 1.19521 1.19178 1.19585 1.19483 1.1949 1.19707 1.19941 1.19175 1.19544 1.19758 1.1964 1.19447 1.19529 1.18619 1.19118 1.18857 1.19356 1.21039 1.19557 1.19339 1.18532 1.18855 1.19498 1.18915 1.19191 1.18441 1.19058 1.18683 1.18521 1.19166 1.19083 1.19121 1.18816 1.19075 1.19814 1.19766 1.18408 1.18422 1.19303 1.19036 1.19998 1.18916 1.18589 1.18979 1.19205 1.18708 1.17843 1.18997 1.18828 1.20138 1.19377 1.19418 1.19473 1.192 1.19442 1.191 1.19039 1.19155 1.19523 1.18917 1.18358 1.19017 1.20377 1.19478 1.18991 1.18734 1.18465 1.19044 1.1857 1.19807 1.19351 1.18882 1.19422 1.1842 1.18627 1.19178 1.19965 1.19773 1.18702 1.18221 1.17942 1.1719 1.17636 1.18637 1.18347 1.18257 1.18311 1.17448 1.19174 1.19325 1.19151 1.19646 1.19955 1.19169 1.19551 1.19953 1.18476 1.19787 1.19587 1.19109 1.191 1.19494 1.19827 1.19235 1.19097 1.19242 1.19503 1.19795 1.19307 1.19208 1.19647 1.19756 1.19724 1.19531 1.18854 1.18966 1.18988 1.18997 1.18756 1.19245 1.20725 1.19571 1.18692 1.1918 1.19239 1.18997 1.18386 1.18744 1.19178 1.18629 1.18646 1.19178 1.1908 1.19056 1.18645 1.18798 1.18962 1.19835 1.18698 1.19122 1.18352 1.19469 1.18901 1.19354 1.19004 1.19129 1.19662 1.18785 1.19178 1.18988 1.19165 1.18537 1.18017 1.18823 1.18634 1.19051 1.19384 1.19541 1.19273 1.18419 1.19684 1.1948 1.18853 1.19482 1.18967 1.18356 1.19565 1.19568 1.19071 1.18898 1.18566 1.18655 1.19122 1.18468 1.19659 1.19192 1.18727 1.1838 1.20024 1.19325 1.18772 1.19224 1.18788 1.18245 1.19458 1.18613 1.18125 1.18323 1.18341 1.18052 1.1765 1.19418 1.19315 1.19278 1.1948 1.1967 1.19155 1.1928 1.20309 1.20308 1.1882 1.19203 1.19537 1.19127 1.19129 1.19565 1.19362 1.19314 1.19178 1.19194 1.19921 1.1958 1.19214 1.19113 1.19587 1.19592 1.19355 1.19562 1.18805 1.18871 1.19212 1.18585 1.19196 1.18847 1.19466 1.18695 1.19134 1.19274 1.18493 1.18456 1.18732 1.19613 1.1952 1.18379 1.18938 1.18939 1.1897 1.19342 1.18792 1.18704 1.19427 1.1933 1.19124 1.18846 1.1872 1.18811 1.19678 1.18628 1.19872 1.19001 1.19348 1.18813 1.18157 1.18437 1.18582 1.18988 1.19277 1.19521 1.18262 1.19283 1.19415 1.19442 1.18722 1.19428 1.18936 1.1877 1.19256 1.19277 1.19065 1.19086 1.1868 1.19077 1.186 1.18588 1.18372 1.19532 1.1881 1.1835 1.20059 1.18708 1.18372 1.19019 1.19694 1.19317 1.18509 1.19032 1.18232 1.18203 1.1806 1.18176 1.1781 1.19429 1.19404 1.19366 1.1936 1.19598 1.19701 1.19267 1.19618 1.18722 1.19519 1.19526 1.19107 1.19069 1.19509 1.19343 1.19313 1.19167 1.19878 1.19801 1.19397 1.19242 1.19247 1.19084 1.19538 1.19382 1.19167 1.19044 1.1916 1.1917 1.18678 1.19701 1.19398 1.1913 1.19983 1.19059 1.1974 1.17413 1.18411 1.19611 1.18302 1.18413 1.18915 1.1878 1.18832 1.19243 1.18832 1.18534 1.19361 1.19207 1.18847 1.1871 1.19261 1.19009 1.19022 1.19519 1.18917 1.19643 1.19639 1.18642 1.17601 1.18883 1.18639 1.1873 1.19166 1.19446 1.19503 1.19256 1.19203 1.18577 1.19391 1.19301 1.19219 1.18778 1.19187 1.18921 1.18745 1.19121 1.1865 1.18447 1.18934 1.18381 1.18647 1.20029 1.19075 1.19396 1.18535 1.20061 1.18766 1.18373 1.18251 1.19698 1.20426 1.19505 1.1881 1.19178 1.18249 1.18151 1.17976 1.17907 1.19438 1.19489 1.19401 1.19366 1.19404 1.19466 1.20652 1.18263 1.18712 1.19606 1.19508 1.19092 1.18495 1.18958 1.19419 1.19303 1.19338 1.19642 1.19446 1.1893 1.19147 1.19236 1.1912 1.19536 1.19299 1.19034 1.19179 1.19197 1.19194 1.18453 1.19612 1.19484 1.19135 1.19178 1.18817 1.18609 1.18389 1.19167 1.19488 1.19178 1.18413 1.18863 1.18608 1.19234 1.19096 1.18799 1.1832 1.19135 1.19173 1.19092 1.18992 1.1915 1.18742 1.19081 1.19001 1.19071 1.18606 1.19332 1.19619 1.19662 1.18045 1.19054 1.18715 1.19423 1.19463 1.19427 1.19178 1.19106 1.19202 1.18587 1.19195 1.18774 1.18779 1.18615 1.18676 1.19159 1.18551 1.18063 1.18488 1.18813 1.19904 1.19125 1.18026 1.1838 1.20399 1.18043 1.18873 1.18543 1.183 1.19773 1.20402 1.19489 1.18811 1.18243 1.18379 1.18149 1.17982 1.17962 1.19429 1.19465 1.19327 1.19376 1.19205 1.19828 1.19691 1.19178 1.19051 1.19931 1.19178 1.19875 1.18951 1.1872 1.19061 1.19045 1.19338 1.1928 1.19143 1.19357 1.18907 1.19184 1.19243 1.19565 1.19416 1.19262 1.19194 1.18911 1.19133 1.19192 1.18356 1.19612 1.19452 1.19072 1.18969 1.18852 1.18719 1.19313 1.20058 1.19387 1.18852 1.19244 1.18794 1.1849 1.18425 1.19026 1.1846 1.18161 1.18643 1.19097 1.18928 1.19139 1.19155 1.1866 1.18852 1.18953 1.19093 1.18607 1.19329 1.18894 1.19662 1.1761 1.18134 1.1955 1.1864 1.18767 1.18918 1.18459 1.19394 1.19101 1.19047 1.19271 1.1939 1.1922 1.19092 1.19137 1.19316 1.19085 1.18613 1.18539 1.19147 1.18507 1.17935 1.18106 1.19022 1.18916 1.19507 1.19375 1.18483 1.18294 1.18189 1.20412 1.18827 1.18168 1.1969 1.19868 1.18995 1.18358 1.18626 1.1828 1.18506 1.18179 1.18035 1.17987 1.19424 1.19336 1.19278 1.1918 1.19188 1.19815 1.1948 1.19873 1.18978 1.18886 1.19601 1.18796 1.19269 1.19108 1.19179 1.20501 1.19193 1.19201 1.19575 1.1918 1.19041 1.19341 1.19303 1.1919 1.18897 1.19107 1.19176 1.19111 1.18237 1.19202 1.1947 1.18971 1.18775 1.19049 1.19404 1.19338 1.19196 1.1823 1.18876 1.18434 1.18398 1.19225 1.19102 1.18092 1.1862 1.19057 1.18995 1.19328 1.18752 1.18912 1.18385 1.18712 1.18686 1.1912 1.18916 1.19705 1.17951 1.1889 1.18792 1.18009 1.18868 1.18248 1.18702 1.18969 1.18955 1.18919 1.18695 1.19118 1.19002 1.19341 1.18781 1.18424 1.19268 1.18314 1.18515 1.1935 1.1788 1.18129 1.17865 1.18935 1.19014 1.1948 1.18362 1.1842 1.18317 1.18246 1.18682 1.18804 1.18956 1.19831 1.18655 1.19078 1.19125 1.18337 1.18031 1.18435 1.17992 1.19388 1.19343 1.19271 1.19178 1.18936 1.18773 1.18899 1.1983 1.19922 1.18818 1.19793 1.19862 1.1946 1.19767 1.17925 1.20371 1.19028 1.18634 1.19135 1.19504 1.19064 1.18928 1.19052 1.19543 1.19567 1.19336 1.18855 1.18952 1.19181 1.18374 1.19323 1.1922 1.19108 1.19269 1.19011 1.18785 1.18527 1.18652 1.18715 1.19518 1.19178 1.19486 1.18461 1.18924 1.18944 1.18239 1.18508 1.20177 1.18338 1.18921 1.18539 1.18947 1.19403 1.1875 1.18934 1.18424 1.18587 1.18802 1.19126 1.18955 1.18619 1.19111 1.18653 1.18885 1.18175 1.18825 1.18961 1.19207 1.18775 1.18587 1.19076 1.18918 1.19084 1.18932 1.19137 1.18667 1.18672 1.19225 1.19178 1.18166 1.19238 1.18842 1.18285 1.18417 1.18977 1.19055 1.18886 1.18345 1.18341 1.18219 1.19668 1.18573 1.18595 1.19159 1.1896 1.18574 1.18237 1.19536 1.18928 1.1804 1.18769 1.18072 1.18004 1.19234 1.19366 1.1936 1.18836 1.18688 1.18724 1.19527 1.19663 1.19819 1.18669 1.1993 1.19861 1.19734 1.1917 1.20061 1.20372 1.18819 1.18615 1.19022 1.19485 1.18952 1.19122 1.18979 1.19986 1.18845 1.18409 1.19271 1.18602 1.18815 1.19296 1.19365 1.19355 1.19082 1.1911 1.18977 1.18566 1.18505 1.19485 1.18753 1.19304 1.19463 1.1837 1.18873 1.18928 1.18067 1.17849 1.19075 1.18414 1.18992 1.18691 1.18976 1.19482 1.18787 1.19086 1.18654 1.19014 1.18602 1.18743 1.18894 1.18743 1.19136 1.18515 1.18897 1.1819 1.18821 1.18101 1.19012 1.18909 1.18953 1.18559 1.19021 1.18904 1.18878 1.18333 1.18836 1.19036 1.19047 1.20799 1.19114 1.18784 1.18604 1.18284 1.19308 1.19583 1.18954 1.18774 1.19116 1.18197 1.18152 1.19419 1.18682 1.18705 1.19197 1.18996 1.18602 1.18295 1.18905 1.19724 1.19642 1.18715 1.18156 1.1826 1.19284 1.19182 1.18721 1.18624 1.19113 1.19572 1.19215 1.18628 1.19117 1.18877 1.19971 1.19728 1.19252 1.16677 1.18773 1.18635 1.18842 1.1875 1.19302 1.18633 1.18829 1.1868 1.19818 1.18307 1.19329 1.18609 1.18762 1.19237 1.19286 1.18814 1.18768 1.1884 1.18562 1.18862 1.18568 1.19485 1.19291 1.19856 1.1867 1.1885 1.18897 1.17995 1.1784 1.19201 1.18275 1.18956 1.18767 1.19041 1.1884 1.18639 1.19092 1.18818 1.18732 1.18647 1.18748 1.18826 1.18837 1.18616 1.18981 1.18008 1.1827 1.18771 1.18876 1.18299 1.18875 1.18916 1.18718 1.18775 1.18696 1.18938 1.18388 1.18754 1.19361 1.19583 1.20044 1.1911 1.19129 1.19115 1.19285 1.19178 1.18878 1.18069 1.18726 1.19562 1.18756 1.19398 1.19135 1.18607 1.19056 1.1898 1.18593 1.1826 1.18849 1.19316 1.19178 1.18627 1.18259 1.18249 1.18302 1.19198 1.18668 1.18809 1.18637 1.19128 1.19429 1.18607 1.19127 1.18516 1.18462 1.19755 1.19154 1.18422 1.18654 1.1897 1.18822 1.18741 1.19231 1.18526 1.19117 1.18606 1.21054 1.19066 1.18582 1.18794 1.19124 1.19211 1.188 1.18648 1.18861 1.18774 1.1863 1.18547 1.18864 1.19368 1.18906 1.19189 1.18956 1.18663 1.1888 1.18081 1.17853 1.19141 1.19178 1.18854 1.19172 1.18961 1.18736 1.18564 1.19055 1.18805 1.18728 1.18706 1.18731 1.1885 1.18699 1.19178 1.18866 1.18225 1.18632 1.18969 1.18259 1.18818 1.1895 1.19178 1.18786 1.18663 1.18706 1.18613 1.1889 1.18779 1.1942 1.19315 1.19037 1.18239 1.19244 1.19403 1.19129 1.18938 1.18884 1.18701 1.19177 1.19246 1.1872 1.19383 1.19134 1.18807 1.1914 1.19196 1.18875 1.19195 1.1863 1.18747 1.18251 1.18689 1.18397 1.18347 1.19173 1.18533 1.18654 1.1889 1.1921 1.19051 1.19333 1.18864 1.19058 1.1836 1.19893 1.18557 1.19719 1.19038 1.18606 1.19178 1.18943 1.18747 1.18507 1.1924 1.18471 1.19105 1.189 1.18233 1.18948 1.18556 1.18656 1.18956 1.18999 1.18999 1.19119 1.18891 1.18649 1.19004 1.19292 1.18598 1.18492 1.18776 1.19209 1.18824 1.19047 1.18876 1.18023 1.19043 1.18351 1.18542 1.19128 1.18697 1.18744 1.19147 1.18933 1.18692 1.18577 1.18981 1.18798 1.18671 1.18644 1.18737 1.18656 1.18685 1.19687 1.18712 1.18171 1.1854 1.18889 1.18387 1.18932 1.18928 1.18689 1.18982 1.18642 1.18568 1.18643 1.18866 1.18641 1.19406 1.19297 1.19029 1.18209 1.19068 1.19061 1.19107 1.18904 1.18993 1.18901 1.19521 1.19379 1.18738 1.19463 1.19144 1.18713 1.18962 1.19213 1.19053 1.1931 1.18839 1.18419 1.18622 1.18241 1.18532 1.18289 1.19188 1.18371 1.18232 1.18709 1.18932 1.19261 1.19134 1.1946 1.18805 1.19111 1.18264 1.1875 1.18869 1.19261 1.19449 1.18489 1.18585 1.18837 1.19111 1.18911 1.18484 1.18607 1.18886 1.18725 1.18915 1.1853 1.18656 1.19141 1.19002 1.18786 1.18848 1.19187 1.18564 1.1846 1.18762 1.18304 1.18764 1.19105 1.18764 1.1895 1.18824 1.18497 1.19205 1.19718 1.19485 1.18962 1.18765 1.18796 1.19107 1.1884 1.18685 1.18718 1.18975 1.18887 1.18755 1.18632 1.18934 1.19171 1.18746 1.19018 1.19131 1.18822 1.18814 1.18689 1.17879 1.18546 1.19184 1.18901 1.18972 1.1859 1.18637 1.18513 1.18608 1.18791 1.19052 1.19378 1.18397 1.18177 1.18906 1.19411 1.19092 1.18907 1.18933 1.18978 1.18975 1.19227 1.19144 1.18987 1.19513 1.18912 1.1923 1.18819 1.19063 1.18728 1.19248 1.18956 1.18371 1.18192 1.18365 1.18511 1.18288 1.18716 1.18168 1.18645 1.18889 1.18961 1.19023 1.19174 1.18858 1.18956 1.18749 1.18619 1.18547 1.18757 1.18848 1.18998 1.19322 1.1854 1.1836 1.18798 1.18716 1.18751 1.18448 1.18604 1.18893 1.18821 1.18469 1.18635 1.18484 1.18777 1.19198 1.1886 1.18889 1.19049 1.19028 1.18613 1.18837 1.18395 1.18751 1.19114 1.19242 1.18958 1.1897 1.18444 1.18986 1.19661 1.19164 1.19015 1.18738 1.1874 1.19291 1.18733 1.18656 1.18963 1.19409 1.19145 1.19178 1.18754 1.19144 1.20244 1.18712 1.18834 1.18968 1.18902 1.186 1.1875 1.18914 1.18845 1.18856 1.18423 1.18722 1.18844 1.18506 1.18689 1.18902 1.19006 1.18514 1.18235 1.19273 1.18854 1.19046 1.19178 1.18709 1.1899 1.1893 1.18974 1.19199 1.19113 1.18968 1.19456 1.19284 1.18811 1.18998 1.18807 1.19054 1.18714 1.19201 1.19009 1.18288 1.19207 1.18329 1.18143 1.18285 1.19144 1.18101 1.18717 1.18905 1.18684 1.19331 1.19016 1.18676 1.18595 1.18785 1.18562 1.18745 1.1882 1.18887 1.19008 1.19242 1.18405 1.18303 1.18863 1.18636 1.18751 1.18481 1.18733 1.18934 1.18737 1.18509 1.18557 1.18751 1.19043 1.18952 1.1874 1.18768 1.18956 1.18631 1.18872 1.18845 1.18704 1.19236 1.19201 1.18944 1.18974 1.18422 1.18953 1.19464 1.19248 1.19115 1.18537 1.19167 1.19178 1.18829 1.19669 1.18715 1.18992 1.19388 1.18928 1.18852 1.18387 1.18445 1.1865 1.18941 1.19064 1.18954 1.18597 1.18544 1.18752 1.18878 1.18819 1.18823 1.18384 1.1892 1.18757 1.1842 1.18682 1.18973 1.19177 1.18879 1.1944 1.19017 1.19259 1.19178 1.18644 1.18882 1.18962 1.19199 1.19093 1.19178 1.18791 1.18955 1.18913 1.18563 1.1881 1.19018 1.19153 1.19059 1.19387 1.18381 1.18209 1.19178 1.19138 1.18435 1.18455 1.18428 1.18076 1.19346 1.18891 1.18565 1.18541 1.18483 1.18755 1.1888 1.18926 1.18926 1.18928 1.18188 1.18694 1.18977 1.18698 1.19111 1.18266 1.18589 1.18537 1.18577 1.18631 1.18796 1.18474 1.18541 1.18756 1.18986 1.18621 1.1864 1.18658 1.19344 1.18654 1.1899 1.18832 1.18755 1.18591 1.18978 1.1892 1.19126 1.18703 1.19015 1.19151 1.19178 1.19106 1.18609 1.19167 1.19221 1.18889 1.19178 1.18728 1.19005 1.19236 1.18953 1.18848 1.18703 1.18571 1.18646 1.1895 1.19115 1.18985 1.18579 1.18712 1.18502 1.18802 1.1877 1.18812 1.18389 1.18735 1.18533 1.18361 1.18909 1.18636 1.19191 1.18763 1.18869 1.19183 1.19044 1.1906 1.19308 1.18708 1.18753 1.18812 1.1894 1.19226 1.19196 1.19036 1.19137 1.18988 1.18838 1.18965 1.18906 1.18563 1.18792 1.19074 1.19098 1.19051 1.19223 1.18393 1.19217 1.19178 1.19131 1.18874 1.18169 1.18397 1.18415 1.19354 1.18294 1.18727 1.18913 1.18503 1.18595 1.18866 1.18851 1.1886 1.19171 1.18252 1.1883 1.1854 1.18887 1.19233 1.18844 1.18354 1.18554 1.18633 1.1879 1.18419 1.18529 1.18763 1.18976 1.18806 1.18629 1.18638 1.19341 1.18897 1.19043 1.18807 1.18734 1.19158 1.18948 1.18921 1.19178 1.18968 1.19113 1.19178 1.19178 1.1912 1.18742 1.19169 1.19178 1.18968 1.19272 1.18722 1.1899 1.19203 1.18908 1.18846 1.18711 1.19158 1.18693 1.19036 1.19183 1.19026 1.18584 1.18542 1.18744 1.18803 1.18758 1.18737 1.18785 1.1857 1.18663 1.18321 1.18582 1.1888 1.18984 1.18902 1.19034 1.19094 1.1931 1.18711 1.18934 1.18779 1.18927 1.19211 1.18905 1.19078 1.18888 1.18983 1.18882 1.18823 1.18735 1.19057 1.19059 1.19164 1.19225 1.19228 1.18398 1.19176 1.19178 1.19215 1.19129 1.18475 1.18236 1.18408 1.19439 1.18258 1.187 1.18902 1.18472 1.18599 1.18866 1.18823 1.18859 1.1895 1.18427 1.18892 1.1851 1.18697 1.18911 1.18815 1.18986 1.18677 1.18785 1.18451 1.18415 1.18776 1.18969 1.18787 1.18606 1.18613 1.19178 1.18899 1.19029 1.1891 1.18815 1.19178 1.18885 1.18875 1.19177 1.19006 1.1912 1.19178 1.19179 1.19126 1.1894 1.19172 1.19178 1.18962 1.19178 1.19246 1.19211 1.19069 1.19045 1.18894 1.18795 1.19156 1.18816 1.19159 1.18804 1.19006 1.18699 1.18687 1.18457 1.18858 1.18819 1.18818 1.18787 1.1856 1.18556 1.18697 1.18954 1.18903 1.19079 1.19141 1.19225 1.19412 1.1896 1.18767 1.18911 1.19223 1.18886 1.19059 1.19114 1.18888 1.18971 1.18862 1.19178 1.18926 1.19083 1.19143 1.19156 1.19132 1.19145 1.1913 1.19229 1.19055 1.18421 1.18207 1.18451 1.19178 1.18244 1.18712 1.18447 1.18636 1.18908 1.18848 1.18871 1.18992 1.18907 1.18899 1.185 1.18645 1.18882 1.18824 1.1895 1.18838 1.19014 1.18869 1.18932 1.18409 1.18403 1.18883 1.18986 1.19178 1.1864 1.19207 1.18627 1.18894 1.19018 1.19178 1.18828 1.19211 1.18915 1.18939 1.19143 1.1899 1.19122 1.19206 1.19222 1.19122 1.1892 1.19156 1.19078 1.18941 1.19152 1.19158 1.19158 1.19053 1.19086 1.1888 1.1896 1.18787 1.19126 1.19094 1.19152 1.19007 1.18674 1.1844 1.18861 1.19023 1.18829 1.18717 1.18777 1.18656 1.18553 1.18653 1.18313 1.18692 1.18683 1.19216 1.18731 1.19178 1.18757 1.19178 1.19178 1.18971 1.19181 1.19127 1.18946 1.19144 1.18924 1.19178 1.18894 1.19083 1.19131 1.18982 1.19025 1.18868 1.19189 1.18916 1.19092 1.19165 1.19206 1.19105 1.19132 1.19178 1.19131 1.18587 
SCALARS Stress float 1
LOOKUP_TABLE default
-2.2045e+12 -1.27609e+12 -1.29083e+12 -167040000000.0 -326363000000.0 -267991000000.0 -15570600000.0 -13211700000.0 -14297900000.0 -12640200000.0 -12751400000.0 -155362000000.0 -98793600000.0 -163559000000.0 -471122000000.0 -439646000000.0 -23622000000.0 -50871500000.0 -122390000000.0 -1.46861e+12 -1.42994e+12 -3.51009e+12 -1.6084e+12 -1.50414e+12 -1.5799e+12 -514919000000.0 -3.00716e+12 -1.63428e+12 -2.23727e+12 -1.35347e+12 -1.16966e+12 -158512000000.0 -25507200000.0 -730220000000.0 -146607000000.0 -228712000000.0 -391524000000.0 -126545000000.0 -91400000000.0 -102948000000.0 -55393000000.0 -31215000000.0 -18049700000.0 -12549700000.0 -12549700000.0 -16906800000.0 -30697000000.0 -17648100000.0 -13314400000.0 -24481200000.0 -20770000000.0 -21119700000.0 -13178200000.0 -19832300000.0 -12549700000.0 -12649300000.0 -13409600000.0 -12589500000.0 -13336900000.0 -14952600000.0 -12569800000.0 -12593000000.0 -12951200000.0 -16763200000.0 -14486100000.0 -14300500000.0 -13634700000.0 -13901500000.0 -12760800000.0 -13232500000.0 -13217100000.0 -14470300000.0 -14999400000.0 -13528600000.0 -12615400000.0 -12625000000.0 -12780700000.0 -13004500000.0 -14621200000.0 -14338600000.0 -14843900000.0 -17150200000.0 -21433400000.0 -18733600000.0 -20719800000.0 -22241600000.0 -24713900000.0 -43407900000.0 -13502300000.0 -64966400000.0 -80325100000.0 -157415000000.0 -191256000000.0 -241894000000.0 -319849000000.0 -213875000000.0 -12549700000.0 -457031000000.0 -638763000000.0 -1.44041e+12 -1.1355e+12 -1.34617e+12 -2.94437e+12 -2.83469e+12 -1.67639e+12 -2.15022e+12 -1.24077e+12 -1.18265e+12 -2.07788e+12 -2.9337e+12 -1.80488e+12 -2.32213e+12 -2.07594e+12 -1.64689e+12 -3.55746e+12 -3.33941e+12 -1.29543e+12 -772160000000.0 -939128000000.0 -156518000000.0 -906270000000.0 -597566000000.0 -683183000000.0 -39459000000.0 -12549700000.0 -12549700000.0 -330166000000.0 -99673800000.0 -17282400000.0 -13926200000.0 -29947200000.0 -110711000000.0 -28981300000.0 -20105000000.0 -55563500000.0 -34588800000.0 -16494500000.0 -41997000000.0 -27779400000.0 -14866500000.0 -14081300000.0 -17268500000.0 -23142300000.0 -15625400000.0 -17838200000.0 -13411400000.0 -14214300000.0 -18126300000.0 -12999200000.0 -14499800000.0 -14565400000.0 -14243300000.0 -13711100000.0 -13884100000.0 -13994500000.0 -12816100000.0 -14549100000.0 -16220700000.0 -21916800000.0 -18953300000.0 -19211000000.0 -12560800000.0 -12549700000.0 -13068800000.0 -28104100000.0 -18120500000.0 -15598000000.0 -12549700000.0 -14783900000.0 -21906500000.0 -43917300000.0 -12549700000.0 -12549700000.0 -22419100000.0 -75492800000.0 -90261400000.0 -14151500000.0 -55690800000.0 -122807000000.0 -21229200000.0 -18274600000.0 -217847000000.0 -320862000000.0 -915329000000.0 -472683000000.0 -519183000000.0 -121879000000.0 -522338000000.0 -819558000000.0 -485169000000.0 -1.63977e+12 -2.57946e+12 -2.38462e+12 -2.79729e+12 -3.36499e+12 -2.0047e+12 -2.8088e+12 -3.17795e+12 -2.72689e+12 -3.24374e+12 -2.7241e+12 -4.13628e+12 -5.68127e+12 -3.87174e+12 -2.76517e+12 -3.39438e+12 -1.53244e+12 -3.77455e+12 -2.72093e+12 -1.29711e+12 -1.94753e+12 -704169000000.0 -2.00131e+12 -1.42198e+12 -900397000000.0 -111295000000.0 -511552000000.0 -339639000000.0 -339392000000.0 -78815400000.0 -246709000000.0 -146923000000.0 -99956100000.0 -74838400000.0 -22849000000.0 -78017100000.0 -60664000000.0 -35583700000.0 -28457800000.0 -32699700000.0 -21602400000.0 -13779700000.0 -12872100000.0 -12549700000.0 -27363000000.0 -14669400000.0 -19904700000.0 -13396900000.0 -13506600000.0 -14016500000.0 -12690500000.0 -18111100000.0 -15952300000.0 -18422100000.0 -13050300000.0 -13761400000.0 -21481300000.0 -17662000000.0 -18443800000.0 -18112600000.0 -20263400000.0 -23883500000.0 -52934400000.0 -49380600000.0 -54829800000.0 -40754700000.0 -34262000000.0 -49039800000.0 -62696700000.0 -63718100000.0 -49077100000.0 -133881000000.0 -124262000000.0 -113397000000.0 -162571000000.0 -545208000000.0 -977382000000.0 -70146600000.0 -1.31667e+12 -1.47299e+12 -1.13755e+12 -1.27674e+12 -1.98097e+12 -1.68629e+12 -4.67188e+12 -3.07212e+12 -3.29679e+12 -3.60694e+12 -4.33852e+12 -3.67157e+12 -2.21659e+12 -2.88523e+12 -3.16849e+12 -7.07185e+12 -1.92333e+12 -5.03881e+12 -2.77008e+12 -2.81488e+12 -2.02139e+12 -2.39827e+12 -2.0584e+12 -2.02878e+12 -3.33884e+12 -1.34555e+12 -1.96411e+12 -1.76383e+12 -1.00323e+12 -1.8346e+12 -1.48125e+12 -685154000000.0 -732923000000.0 -386466000000.0 -222543000000.0 -366790000000.0 -197050000000.0 -29590200000.0 -118425000000.0 -246389000000.0 -62336700000.0 -20281100000.0 -174034000000.0 -89281400000.0 -44378800000.0 -76983400000.0 -43646500000.0 -34188300000.0 -37406500000.0 -53156000000.0 -54922100000.0 -38188600000.0 -21266800000.0 -35639800000.0 -40627100000.0 -37061500000.0 -22500100000.0 -17343300000.0 -22039300000.0 -27370000000.0 -15045300000.0 -44202100000.0 -17973900000.0 -12918500000.0 -18570200000.0 -12930200000.0 -23798600000.0 -22541400000.0 -32794900000.0 -17925200000.0 -27864900000.0 -16953200000.0 -39867600000.0 -12549700000.0 -12549700000.0 -12549700000.0 -40966300000.0 -60936500000.0 -40217700000.0 -111364000000.0 -115378000000.0 -232229000000.0 -335897000000.0 -106953000000.0 -323117000000.0 -286053000000.0 -366864000000.0 -573725000000.0 -850488000000.0 -673258000000.0 -1.24218e+12 -909240000000.0 -1.07624e+12 -1.41511e+12 -1.74487e+12 -434405000000.0 -786583000000.0 -1.9117e+12 -1.81236e+12 -792597000000.0 -3.5178e+12 -2.78439e+12 -3.08437e+12 -2.74014e+12 -5.29107e+12 -3.77337e+12 -2.85875e+12 -2.71649e+12 -2.25091e+12 -3.86459e+12 -1.43069e+12 -1.53096e+12 -6.18111e+12 -3.78805e+12 -4.4754e+12 -3.63068e+12 -2.45894e+12 -4.81391e+12 -3.41681e+12 -1.71489e+12 -2.16587e+12 -1.40678e+12 -2.86045e+12 -1.29731e+12 -1.19246e+12 -791976000000.0 -749048000000.0 -722699000000.0 -622659000000.0 -1.27688e+12 -579622000000.0 -314050000000.0 -468035000000.0 -345699000000.0 -635597000000.0 -336343000000.0 -226626000000.0 -223340000000.0 -172762000000.0 -72179600000.0 -72285200000.0 -35155000000.0 -44885800000.0 -111042000000.0 -83713800000.0 -33724900000.0 -21398300000.0 -19884600000.0 -13175900000.0 -19406900000.0 -29935100000.0 -30337400000.0 -38491100000.0 -16470400000.0 -23616400000.0 -14431900000.0 -42486900000.0 -31413900000.0 -16205300000.0 -39503800000.0 -23253400000.0 -24191500000.0 -25427400000.0 -22964800000.0 -44467700000.0 -55874400000.0 -12549700000.0 -43060500000.0 -15157100000.0 -23282200000.0 -95816400000.0 -66146100000.0 -63052900000.0 -57157600000.0 -154794000000.0 -90303800000.0 -53712400000.0 -84235400000.0 -208750000000.0 -374808000000.0 -148603000000.0 -217135000000.0 -355655000000.0 -567907000000.0 -525626000000.0 -922527000000.0 -1.43877e+12 -1.79376e+12 -2.35755e+12 -2.29484e+12 -1.20878e+12 -1.2118e+12 -2.5886e+12 -2.88234e+12 -4.37919e+12 -7.19207e+12 -4.33179e+12 -5.44246e+12 -5.15419e+12 -1.83918e+12 -3.12682e+12 -2.94911e+12 -5.29531e+12 -5.08425e+12 -2.62499e+12 -2.65312e+12 -3.41135e+12 -3.17287e+12 -3.91563e+12 -3.40936e+12 -4.70818e+12 -3.87831e+12 -2.50793e+12 -4.81367e+12 -2.98696e+12 -3.46117e+12 -3.61834e+12 -2.80938e+12 -3.25859e+12 -1.70424e+12 -1.90826e+12 -2.48386e+12 -2.16573e+12 -1.26374e+12 -1.00946e+12 -624226000000.0 -949937000000.0 -691238000000.0 -325412000000.0 -891994000000.0 -710490000000.0 -259342000000.0 -307239000000.0 -206564000000.0 -199539000000.0 -30320400000.0 -19083300000.0 -143379000000.0 -130433000000.0 -108140000000.0 -26699700000.0 -14119600000.0 -34636700000.0 -34346900000.0 -29698500000.0 -33746200000.0 -16744500000.0 -13125500000.0 -23163800000.0 -29325500000.0 -25734500000.0 -16597800000.0 -20177400000.0 -41628400000.0 -40072600000.0 -13412800000.0 -57520500000.0 -26787100000.0 -45105400000.0 -24307500000.0 -36292600000.0 -41505400000.0 -20872100000.0 -57938700000.0 -77562800000.0 -126533000000.0 -26249800000.0 -139088000000.0 -127477000000.0 -99219200000.0 -109947000000.0 -107567000000.0 -410052000000.0 -349015000000.0 -593675000000.0 -551074000000.0 -737831000000.0 -86251800000.0 -727255000000.0 -866212000000.0 -1.08206e+12 -2.45776e+12 -2.07249e+12 -2.94875e+12 -2.14385e+12 -2.38407e+12 -3.70018e+12 -3.68332e+12 -4.54858e+12 -4.87175e+12 -3.43861e+12 -4.9649e+12 -4.10598e+12 -5.14134e+12 -3.06297e+12 -6.94594e+12 -3.32093e+12 -1.90553e+12 -2.40809e+12 -6.10488e+12 -4.90444e+12 -3.71585e+12 -4.97478e+12 -3.8744e+12 -3.21825e+12 -3.38006e+12 -2.79201e+12 -4.50708e+12 -3.11756e+12 -3.93333e+12 -1.21119e+12 -601512000000.0 -3.24325e+12 -2.18484e+12 -1.34062e+12 -1.16902e+12 -1.08451e+12 -261176000000.0 -437039000000.0 -1.12469e+12 -1.05894e+12 -41228700000.0 -128232000000.0 -266969000000.0 -178534000000.0 -277799000000.0 -193667000000.0 -240579000000.0 -298551000000.0 -222073000000.0 -163030000000.0 -82545200000.0 -61738500000.0 -63929700000.0 -47192200000.0 -42265700000.0 -31250700000.0 -19674000000.0 -23200300000.0 -29368700000.0 -32096500000.0 -20646400000.0 -24774600000.0 -26304200000.0 -14150300000.0 -25687600000.0 -20093500000.0 -26520200000.0 -23633300000.0 -45246000000.0 -34428300000.0 -54619300000.0 -40003000000.0 -29473700000.0 -32405200000.0 -15026300000.0 -38452600000.0 -47389600000.0 -44014800000.0 -12549700000.0 -36881000000.0 -15176900000.0 -35912500000.0 -72394300000.0 -98862600000.0 -133551000000.0 -117232000000.0 -284946000000.0 -311704000000.0 -307246000000.0 -41352200000.0 -304072000000.0 -352027000000.0 -293579000000.0 -1.0037e+12 -454163000000.0 -541309000000.0 -810121000000.0 -2.01752e+12 -906789000000.0 -1.21157e+12 -1.37642e+12 -1.67256e+12 -4.36276e+12 -1.81349e+12 -2.97749e+12 -3.07655e+12 -5.65011e+12 -3.60046e+12 -1.99945e+12 -3.10132e+12 -2.67184e+12 -2.01929e+12 -6.88307e+12 -4.30708e+12 -4.3827e+12 -4.95549e+12 -4.02364e+12 -4.19431e+12 -3.6511e+12 -2.71527e+12 -1.33548e+12 -3.89283e+12 -2.9857e+12 -5.59005e+12 -3.74685e+12 -3.93731e+12 -3.83857e+12 -2.04462e+12 -3.34301e+12 -1.59451e+12 -2.37672e+12 -2.72079e+12 -2.30484e+12 -3.52643e+12 -1.84462e+12 -3.22392e+12 -2.18842e+12 -4.51252e+12 -2.34917e+12 -4.42246e+12 -1.70963e+12 -608158000000.0 -1.91531e+12 -854664000000.0 -1.28915e+12 -848286000000.0 -554337000000.0 -632586000000.0 -743569000000.0 -322202000000.0 -426909000000.0 -337812000000.0 -193653000000.0 -93506900000.0 -64550600000.0 -103070000000.0 -47947700000.0 -81539000000.0 -111388000000.0 -53882200000.0 -27845900000.0 -34228100000.0 -29683600000.0 -30315600000.0 -21364600000.0 -22122100000.0 -15319700000.0 -23953700000.0 -14603600000.0 -18533500000.0 -14996900000.0 -18468600000.0 -17176400000.0 -16425400000.0 -29913800000.0 -35664200000.0 -53084700000.0 -37705500000.0 -49612000000.0 -36306500000.0 -54666100000.0 -49379400000.0 -22362300000.0 -39443700000.0 -16047100000.0 -12882100000.0 -27725600000.0 -17590700000.0 -12549700000.0 -54568500000.0 -135749000000.0 -76961100000.0 -68662200000.0 -14025600000.0 -83410200000.0 -15986300000.0 -129470000000.0 -66167100000.0 -164927000000.0 -286961000000.0 -315918000000.0 -265313000000.0 -421387000000.0 -347347000000.0 -134925000000.0 -614876000000.0 -308299000000.0 -609474000000.0 -611961000000.0 -1.69803e+12 -1.59738e+12 -1.26301e+12 -3.20681e+12 -1.9592e+12 -2.54785e+12 -3.66687e+12 -2.15606e+12 -3.90877e+12 -2.13107e+12 -3.20192e+12 -2.3685e+12 -4.31999e+12 -3.30112e+12 -3.77409e+12 -3.12854e+12 -3.14346e+12 -4.20281e+12 -2.69126e+12 -2.96031e+12 -3.08076e+12 -2.89051e+12 -3.04542e+12 -3.00007e+12 -4.07146e+12 -3.55071e+12 -4.6659e+12 -3.94443e+12 -2.88268e+12 -2.09863e+12 -3.90723e+12 -4.68077e+12 -4.56503e+12 -1.34654e+12 -4.65964e+12 -2.71772e+12 -1.81939e+12 -4.60862e+12 -2.18168e+12 -2.99187e+12 -1.62789e+12 -3.19398e+12 -1.73265e+12 -1.29564e+12 -803900000000.0 -756623000000.0 -531130000000.0 -614379000000.0 -142591000000.0 -616724000000.0 -88266900000.0 -199167000000.0 -241801000000.0 -156468000000.0 -211503000000.0 -138847000000.0 -143827000000.0 -179514000000.0 -121510000000.0 -83189300000.0 -102819000000.0 -50427800000.0 -42358400000.0 -53326000000.0 -56696300000.0 -50480700000.0 -42845700000.0 -14010000000.0 -37431600000.0 -39475000000.0 -39220100000.0 -40996600000.0 -13858900000.0 -42157200000.0 -32283600000.0 -12582600000.0 -37012300000.0 -30824600000.0 -50203500000.0 -16223900000.0 -22999800000.0 -32196300000.0 -33572400000.0 -60404400000.0 -62962300000.0 -55707500000.0 -45497700000.0 -40312300000.0 -61433700000.0 -68595200000.0 -83135100000.0 -67894300000.0 -18510200000.0 -15234700000.0 -70543000000.0 -166424000000.0 -186120000000.0 -33562000000.0 -493899000000.0 -398006000000.0 -394924000000.0 -436035000000.0 -828324000000.0 -703654000000.0 -567490000000.0 -959662000000.0 -790389000000.0 -1.14896e+12 -1.38432e+12 -1.42752e+12 -1.61026e+12 -1.38764e+12 -3.35766e+12 -3.03408e+12 -3.00883e+12 -4.02351e+12 -1.49788e+12 -4.37898e+12 -2.16115e+12 -3.10173e+12 -2.64637e+12 -2.9933e+12 -3.38695e+12 -3.25262e+12 -5.0123e+12 -3.03481e+12 -2.17469e+12 -5.3571e+12 -2.99115e+12 -1.95816e+12 -3.24367e+12 -2.37462e+12 -2.02014e+12 -4.34702e+12 -3.72916e+12 -2.3412e+12 -2.20493e+12 -3.3267e+12 -2.97577e+12 -2.46046e+12 -4.32727e+12 -1.9185e+12 -3.06419e+12 -1.9245e+12 -1.79471e+12 -797860000000.0 -1.59761e+12 -1.18185e+12 -941526000000.0 -993197000000.0 -571505000000.0 -906277000000.0 -222800000000.0 -876699000000.0 -109359000000.0 -256486000000.0 -484015000000.0 -246042000000.0 -25955900000.0 -113301000000.0 -86657300000.0 -95999800000.0 -14964000000.0 -102162000000.0 -19526300000.0 -14981300000.0 -84889500000.0 -96228000000.0 -13660200000.0 -80031200000.0 -19565100000.0 -34410800000.0 -15285200000.0 -13538600000.0 -25512500000.0 -31464700000.0 -32216300000.0 -12549700000.0 -18178800000.0 -12844600000.0 -20526000000.0 -28160900000.0 -24995100000.0 -26407100000.0 -19500300000.0 -51509600000.0 -12920300000.0 -35776200000.0 -27233400000.0 -15613000000.0 -52408200000.0 -39930500000.0 -30774900000.0 -45656700000.0 -28931800000.0 -21008300000.0 -26746500000.0 -36272000000.0 -22926300000.0 -52863100000.0 -98787100000.0 -108795000000.0 -150389000000.0 -112790000000.0 -44939400000.0 -329831000000.0 -385304000000.0 -612102000000.0 -508699000000.0 -410282000000.0 -667517000000.0 -859191000000.0 -267788000000.0 -815869000000.0 -500567000000.0 -368855000000.0 -383547000000.0 -2.19644e+12 -1.96785e+12 -2.50375e+12 -2.09494e+12 -4.24295e+12 -3.21501e+12 -2.72639e+12 -2.60608e+12 -2.88778e+12 -2.27436e+12 -1.31594e+12 -1.92437e+12 -1.33009e+12 -3.00548e+12 -2.31641e+12 -2.05533e+12 -2.74936e+12 -1.87238e+12 -2.69842e+12 -2.78709e+12 -2.24363e+12 -2.15766e+12 -2.09053e+12 -1.55091e+12 -2.01496e+12 -1.68003e+12 -2.21333e+12 -2.43596e+12 -2.08274e+12 -1.50477e+12 -1.5244e+12 -2.12422e+12 -3.10545e+12 -1.75739e+12 -700215000000.0 -2.41299e+12 -3.15638e+12 -3.34447e+12 -2.80104e+12 -2.01644e+12 -1.78871e+12 -1.53596e+12 -664532000000.0 -1.80082e+12 -1.05767e+12 -1.83167e+12 -1.40676e+12 -956023000000.0 -545624000000.0 -717509000000.0 -689053000000.0 -780785000000.0 -506863000000.0 -729145000000.0 -618736000000.0 -565660000000.0 -179930000000.0 -232078000000.0 -243296000000.0 -98393400000.0 -102583000000.0 -99099900000.0 -69507400000.0 -78899100000.0 -86194300000.0 -29866100000.0 -83839600000.0 -63939300000.0 -79838600000.0 -56271200000.0 -61935400000.0 -22177700000.0 -60208200000.0 -18517800000.0 -34713100000.0 -34411000000.0 -14026300000.0 -45703900000.0 -17435000000.0 -17993800000.0 -19513700000.0 -25743500000.0 -26430100000.0 -19353700000.0 -58610700000.0 -46528900000.0 -12549800000.0 -48844100000.0 -44421000000.0 -43754700000.0 -65653100000.0 -43361500000.0 -47331500000.0 -31773500000.0 -44604700000.0 -13209500000.0 -41232900000.0 -16814200000.0 -52829900000.0 -54626100000.0 -29218700000.0 -60260000000.0 -113844000000.0 -16883200000.0 -170632000000.0 -119793000000.0 -308339000000.0 -147916000000.0 -78597500000.0 -296753000000.0 -301457000000.0 -376120000000.0 -343332000000.0 -331173000000.0 -446807000000.0 -557165000000.0 -426046000000.0 -829085000000.0 -190280000000.0 -975426000000.0 -816126000000.0 -1.15493e+12 -1.64043e+12 -2.10956e+12 -3.01144e+12 -2.15931e+12 -609242000000.0 -2.64236e+12 -1.5334e+12 -1.30129e+12 -2.91609e+12 -1.56194e+12 -2.90254e+12 -2.60493e+12 -2.35768e+12 -1.99267e+12 -2.08505e+12 -4.08376e+12 -3.34323e+12 -1.69829e+12 -1.2599e+12 -1.61282e+12 -3.04871e+12 -2.64436e+12 -3.0023e+12 -1.5028e+12 -1.96433e+12 -4.25432e+12 -2.7356e+12 -2.95621e+12 -2.02924e+12 -1.18953e+12 -1.19335e+12 -1.55009e+12 -2.3918e+12 -488933000000.0 -1.31623e+12 -1.80835e+12 -1.96748e+12 -1.06902e+12 -1.16738e+12 -698718000000.0 -1.06355e+12 -1.62125e+12 -1.14429e+12 -910879000000.0 -523860000000.0 -483017000000.0 -615128000000.0 -223171000000.0 -262977000000.0 -172064000000.0 -264397000000.0 -111548000000.0 -174490000000.0 -15517500000.0 -148097000000.0 -117050000000.0 -133808000000.0 -122601000000.0 -31687900000.0 -79939200000.0 -46136400000.0 -66587200000.0 -37972400000.0 -93432400000.0 -40674700000.0 -48689500000.0 -31522300000.0 -22616300000.0 -27458500000.0 -40547900000.0 -12549700000.0 -12895800000.0 -31802500000.0 -48867900000.0 -20167000000.0 -47487600000.0 -12549700000.0 -12549700000.0 -27241600000.0 -79948900000.0 -62289300000.0 -79461600000.0 -20337700000.0 -35836000000.0 -34283400000.0 -49706000000.0 -37903500000.0 -69161000000.0 -66329000000.0 -41018200000.0 -82520700000.0 -13980500000.0 -91814600000.0 -167199000000.0 -148650000000.0 -92986100000.0 -148902000000.0 -338736000000.0 -481032000000.0 -276434000000.0 -401376000000.0 -186192000000.0 -458895000000.0 -1.2329e+12 -1.46257e+12 -927720000000.0 -1.97728e+12 -402648000000.0 -601737000000.0 -2.15756e+12 -1.33147e+12 -1.656e+12 -1.15004e+12 -3.1139e+12 -2.75353e+12 -1.1784e+12 -3.32547e+12 -2.8563e+12 -2.81293e+12 -1.40694e+12 -2.42402e+12 -861816000000.0 -2.02074e+12 -1.53418e+12 -3.75665e+12 -1.81082e+12 -1.68559e+12 -1.68299e+12 -2.28071e+12 -1.06043e+12 -1.70336e+12 -1.31716e+12 -1.74315e+12 -2.54843e+12 -2.23676e+12 -2.56761e+12 -1.86922e+12 -1.85154e+12 -816081000000.0 -1.46122e+12 -830151000000.0 -1.57795e+12 -2.01884e+12 -1.96546e+12 -670056000000.0 -1.04699e+12 -1.69378e+12 -1.58318e+12 -785718000000.0 -997077000000.0 -261994000000.0 -758236000000.0 -296917000000.0 -453420000000.0 -506261000000.0 -277814000000.0 -125032000000.0 -241800000000.0 -285893000000.0 -164562000000.0 -132492000000.0 -133354000000.0 -52202400000.0 -122367000000.0 -43759100000.0 -70659800000.0 -86683300000.0 -14643000000.0 -76260800000.0 -23569900000.0 -13754400000.0 -28279100000.0 -14691600000.0 -34811100000.0 -48352900000.0 -39622500000.0 -32697300000.0 -13086600000.0 -24324500000.0 -15525300000.0 -33837000000.0 -29019300000.0 -40893200000.0 -63087200000.0 -22050000000.0 -98715300000.0 -98754200000.0 -76003900000.0 -37622800000.0 -36191600000.0 -26144600000.0 -13790300000.0 -18556000000.0 -95561700000.0 -82909200000.0 -22093800000.0 -120051000000.0 -202739000000.0 -55843800000.0 -50921600000.0 -139830000000.0 -46980100000.0 -225550000000.0 -164696000000.0 -161884000000.0 -358943000000.0 -367152000000.0 -534648000000.0 -1.20536e+12 -1.40429e+12 -351168000000.0 -735440000000.0 -712333000000.0 -1.13084e+12 -657492000000.0 -742046000000.0 -1.84854e+12 -518953000000.0 -491721000000.0 -1.27805e+12 -1.67863e+12 -1.53713e+12 -2.15835e+12 -1.0475e+12 -2.43108e+12 -1.41939e+12 -1.63931e+12 -1.22969e+12 -2.35783e+12 -1.18622e+12 -1.68565e+12 -1.38416e+12 -972225000000.0 -1.86173e+12 -730146000000.0 -1.05685e+12 -978757000000.0 -1.93452e+12 -1.88305e+12 -3.01214e+12 -1.00412e+12 -1.21807e+12 -552945000000.0 -944663000000.0 -1.1075e+12 -280494000000.0 -1.51759e+12 -1.14536e+12 -157220000000.0 -1.14289e+12 -150778000000.0 -521666000000.0 -642564000000.0 -827076000000.0 -393896000000.0 -827847000000.0 -295232000000.0 -261645000000.0 -40436800000.0 -352318000000.0 -333450000000.0 -292548000000.0 -186538000000.0 -140361000000.0 -23681000000.0 -102382000000.0 -214229000000.0 -137221000000.0 -65705200000.0 -56538100000.0 -14291100000.0 -67311400000.0 -24477700000.0 -15794600000.0 -22503300000.0 -25715100000.0 -16760800000.0 -12549700000.0 -14937600000.0 -18032500000.0 -18936400000.0 -12616300000.0 -37909400000.0 -51469400000.0 -57351600000.0 -13257400000.0 -46431400000.0 -64856900000.0 -27814100000.0 -24480400000.0 -34670100000.0 -104701000000.0 -64513800000.0 -37538300000.0 -14393400000.0 -28728300000.0 -20125700000.0 -35215300000.0 -42537900000.0 -30639400000.0 -70846500000.0 -128387000000.0 -80184100000.0 -240250000000.0 -277622000000.0 -44660700000.0 -178192000000.0 -272789000000.0 -278623000000.0 -422582000000.0 -78675400000.0 -264323000000.0 -132534000000.0 -363135000000.0 -487924000000.0 -459208000000.0 -461028000000.0 -754605000000.0 -782532000000.0 -1.13102e+12 -263829000000.0 -931915000000.0 -216222000000.0 -1.91658e+12 -1.33371e+12 -571661000000.0 -1.4733e+12 -1.70814e+12 -2.00363e+12 -1.77762e+12 -2.08358e+12 -1.33098e+12 -1.45194e+12 -1.04944e+12 -864185000000.0 -1.89964e+12 -975920000000.0 -2.13773e+12 -1.03807e+12 -2.99229e+12 -1.13676e+12 -1.19913e+12 -641218000000.0 -1.44939e+12 -153276000000.0 -1.1146e+12 -1.29713e+12 -1.21783e+12 -691777000000.0 -751324000000.0 -186442000000.0 -1.07699e+12 -602083000000.0 -1.29066e+12 -374786000000.0 -693481000000.0 -177023000000.0 -36153700000.0 -806972000000.0 -168604000000.0 -85235800000.0 -69932900000.0 -57143300000.0 -155708000000.0 -39998500000.0 -38441500000.0 -43917800000.0 -14579200000.0 -127438000000.0 -101835000000.0 -32502200000.0 -179761000000.0 -159161000000.0 -70483000000.0 -82554700000.0 -17726600000.0 -55255800000.0 -68572300000.0 -20081100000.0 -32427200000.0 -20773500000.0 -37774700000.0 -15209100000.0 -12894400000.0 -18265300000.0 -49484200000.0 -59764500000.0 -26047100000.0 -31241600000.0 -43919100000.0 -42750000000.0 -28787500000.0 -33096700000.0 -38793300000.0 -13430100000.0 -56227800000.0 -69561100000.0 -43400400000.0 -31120600000.0 -30208300000.0 -31462600000.0 -28211500000.0 -54808800000.0 -116318000000.0 -15835300000.0 -22245400000.0 -53397900000.0 -22518900000.0 -34662000000.0 -19345700000.0 -18130900000.0 -53207100000.0 -159501000000.0 -136801000000.0 -95305100000.0 -12549700000.0 -44843800000.0 -123606000000.0 -51257600000.0 -52506500000.0 -89933700000.0 -63269700000.0 -85117800000.0 -130473000000.0 -279389000000.0 -105417000000.0 -416073000000.0 -178732000000.0 -229763000000.0 -451470000000.0 -411537000000.0 -177901000000.0 -172408000000.0 -710899000000.0 -134818000000.0 -1.18654e+12 -1.22632e+12 -1.94527e+12 -1.27334e+12 -1.03745e+12 -975167000000.0 -1.23108e+12 -1.29626e+12 -1.82621e+12 -1.29343e+12 -824998000000.0 -1.59105e+12 -1.56235e+12 -999432000000.0 -1.49461e+12 -1.34778e+12 -1.41664e+12 -943811000000.0 -744536000000.0 -1.22909e+12 -669391000000.0 -950202000000.0 -948815000000.0 -2.46428e+12 -1.20095e+12 -994945000000.0 -556338000000.0 -1.0757e+12 -794303000000.0 -260117000000.0 -619287000000.0 -293450000000.0 -826235000000.0 -841170000000.0 -280113000000.0 -353366000000.0 -405078000000.0 -211768000000.0 -208795000000.0 -190273000000.0 -389673000000.0 -24541600000.0 -197028000000.0 -78572500000.0 -137388000000.0 -136147000000.0 -130124000000.0 -16970700000.0 -72064000000.0 -77636700000.0 -27230500000.0 -28313700000.0 -130931000000.0 -28329100000.0 -67164700000.0 -79789800000.0 -49556200000.0 -48931100000.0 -24863000000.0 -29930900000.0 -31836800000.0 -27688700000.0 -80756400000.0 -13218400000.0 -32822700000.0 -42959200000.0 -14157400000.0 -38566000000.0 -25802000000.0 -46381600000.0 -31184800000.0 -90587500000.0 -45759600000.0 -67357600000.0 -69419800000.0 -107205000000.0 -22463800000.0 -46211600000.0 -68112400000.0 -39276800000.0 -57721700000.0 -133764000000.0 -131324000000.0 -90850600000.0 -27713000000.0 -95441100000.0 -107361000000.0 -72653400000.0 -74365800000.0 -306812000000.0 -38688900000.0 -183946000000.0 -167664000000.0 -342739000000.0 -492377000000.0 -338675000000.0 -502952000000.0 -621482000000.0 -355500000000.0 -1.26742e+12 -413972000000.0 -677151000000.0 -983199000000.0 -411033000000.0 -1.6492e+12 -1.0467e+12 -794318000000.0 -1.24899e+12 -1.70624e+12 -1.85264e+12 -1.35596e+12 -1.33696e+12 -2.12367e+12 -1.2999e+12 -1.67235e+12 -751623000000.0 -372575000000.0 -1.01374e+12 -332418000000.0 -551202000000.0 -507073000000.0 -387346000000.0 -1.3469e+12 -838307000000.0 -848651000000.0 -92965600000.0 -1.31371e+12 -523396000000.0 -216553000000.0 -116302000000.0 -481408000000.0 -398991000000.0 -152579000000.0 -286840000000.0 -551782000000.0 -91853100000.0 -478666000000.0 -241770000000.0 -216205000000.0 -66100000000.0 -173520000000.0 -79887600000.0 -192949000000.0 -14280600000.0 -19659100000.0 -132374000000.0 -143462000000.0 -38212600000.0 -63232900000.0 -61974200000.0 -115276000000.0 -12638500000.0 -70525900000.0 -20134200000.0 -46189600000.0 -16770100000.0 -12731000000.0 -12757700000.0 -31894600000.0 -46913500000.0 -48010300000.0 -12549700000.0 -45301800000.0 -12697400000.0 -28260100000.0 -17013900000.0 -33141100000.0 -31851300000.0 -47227900000.0 -36435000000.0 -21930200000.0 -145006000000.0 -72481900000.0 -57403300000.0 -70681600000.0 -28637600000.0 -177366000000.0 -38740800000.0 -60692800000.0 -72925800000.0 -70823100000.0 -108472000000.0 -20693800000.0 -74765700000.0 -45363100000.0 -60647700000.0 -40961400000.0 -31520900000.0 -176700000000.0 -46500900000.0 -103117000000.0 -147424000000.0 -169115000000.0 -62839000000.0 -130127000000.0 -314924000000.0 -276275000000.0 -155269000000.0 -12549700000.0 -12549700000.0 -14411800000.0 -43046100000.0 -27854700000.0 -209546000000.0 -29584800000.0 -588387000000.0 -435270000000.0 -328642000000.0 -1.38089e+12 -536571000000.0 -433359000000.0 -77757400000.0 -1.03967e+12 -988324000000.0 -460904000000.0 -923639000000.0 -722272000000.0 -631206000000.0 -1.14862e+12 -1.47774e+12 -781605000000.0 -1.79888e+12 -1.35599e+12 -660900000000.0 -481013000000.0 -1.13914e+12 -566566000000.0 -892748000000.0 -209877000000.0 -230965000000.0 -496399000000.0 -262446000000.0 -435628000000.0 -124011000000.0 -579432000000.0 -724794000000.0 -139126000000.0 -893815000000.0 -661679000000.0 -382487000000.0 -647095000000.0 -338236000000.0 -284004000000.0 -402515000000.0 -207795000000.0 -348647000000.0 -290309000000.0 -206696000000.0 -54896600000.0 -183184000000.0 -14909900000.0 -89534700000.0 -98021800000.0 -23274600000.0 -35336100000.0 -21845600000.0 -12549700000.0 -13443400000.0 -15007500000.0 -101883000000.0 -89729300000.0 -21880900000.0 -147343000000.0 -16272600000.0 -51200000000.0 -99465600000.0 -52254500000.0 -42829800000.0 -37443600000.0 -45072500000.0 -62528000000.0 -40409000000.0 -48595900000.0 -55745200000.0 -64256700000.0 -12755100000.0 -28195800000.0 -12567500000.0 -44321900000.0 -74436900000.0 -87881200000.0 -80279700000.0 -13553400000.0 -88592900000.0 -86920800000.0 -66087700000.0 -92508900000.0 -93169100000.0 -105580000000.0 -66419000000.0 -79171200000.0 -115603000000.0 -68703700000.0 -94664200000.0 -65960500000.0 -40224800000.0 -107099000000.0 -81702200000.0 -100042000000.0 -105541000000.0 -69451800000.0 -102268000000.0 -88352000000.0 -35044100000.0 -224762000000.0 -104010000000.0 -112267000000.0 -322363000000.0 -169931000000.0 -165667000000.0 -393414000000.0 -844991000000.0 -638126000000.0 -460680000000.0 -489456000000.0 -138443000000.0 -354666000000.0 -484214000000.0 -169701000000.0 -176622000000.0 -702845000000.0 -845322000000.0 -695057000000.0 -1.02692e+12 -1.26893e+12 -314777000000.0 -555667000000.0 -741575000000.0 -120621000000.0 -456428000000.0 -532674000000.0 -324463000000.0 -439208000000.0 -92971400000.0 -272596000000.0 -99575000000.0 -160806000000.0 -655841000000.0 -71409200000.0 -342855000000.0 -702034000000.0 -243224000000.0 -118657000000.0 -284937000000.0 -268766000000.0 -696770000000.0 -40867700000.0 -280159000000.0 -72186700000.0 -70135800000.0 -183076000000.0 -280625000000.0 -208790000000.0 -52886200000.0 -71879900000.0 -49750800000.0 -62969500000.0 -35347900000.0 -27480400000.0 -13191500000.0 -13347600000.0 -35778100000.0 -29806000000.0 -26410500000.0 -68740200000.0 -56819800000.0 -75831500000.0 -66974000000.0 -65286400000.0 -118514000000.0 -36861400000.0 -83278400000.0 -12549700000.0 -111643000000.0 -79477300000.0 -57543500000.0 -77162000000.0 -60352800000.0 -13789600000.0 -24483400000.0 -39044400000.0 -85130000000.0 -64083000000.0 -43370000000.0 -20346300000.0 -30877700000.0 -103451000000.0 -16514900000.0 -62960100000.0 -67134900000.0 -59556500000.0 -78016100000.0 -12904100000.0 -108318000000.0 -91367200000.0 -52625300000.0 -69595200000.0 -12549700000.0 -147379000000.0 -35187800000.0 -47419600000.0 -94878600000.0 -118555000000.0 -37480300000.0 -12549800000.0 -113056000000.0 -105056000000.0 -99835700000.0 -143589000000.0 -55322800000.0 -231520000000.0 -85754700000.0 -206719000000.0 -50141900000.0 -105832000000.0 -205631000000.0 -127008000000.0 -66416800000.0 -224068000000.0 -505624000000.0 -410063000000.0 -336039000000.0 -642454000000.0 -393246000000.0 -151420000000.0 -465391000000.0 -759797000000.0 -544205000000.0 -334206000000.0 -333227000000.0 -397434000000.0 -635864000000.0 -809585000000.0 -1.04578e+12 -419673000000.0 -89452900000.0 -12549700000.0 -300895000000.0 -200826000000.0 -571898000000.0 -414716000000.0 -427710000000.0 -209168000000.0 -366016000000.0 -301002000000.0 -270481000000.0 -57122800000.0 -406702000000.0 -246916000000.0 -177035000000.0 -101264000000.0 -168502000000.0 -178593000000.0 -12549700000.0 -18873300000.0 -14791700000.0 -15842900000.0 -36716600000.0 -63441800000.0 -14631900000.0 -51895400000.0 -17922100000.0 -29767800000.0 -39328500000.0 -43193600000.0 -14928200000.0 -81799500000.0 -70926600000.0 -31789100000.0 -134988000000.0 -68974000000.0 -104406000000.0 -44378100000.0 -37715700000.0 -73505000000.0 -102889000000.0 -12785600000.0 -37021500000.0 -55907000000.0 -45132400000.0 -74844700000.0 -27006700000.0 -46722200000.0 -56865200000.0 -83149100000.0 -54421100000.0 -13532400000.0 -106055000000.0 -16743300000.0 -27871400000.0 -138092000000.0 -184235000000.0 -88359300000.0 -49480700000.0 -124048000000.0 -78861700000.0 -153364000000.0 -55464900000.0 -24884400000.0 -111690000000.0 -67395400000.0 -15286300000.0 -76800200000.0 -87430400000.0 -39252000000.0 -27390700000.0 -57256000000.0 -62485800000.0 -91093200000.0 -64824800000.0 -129447000000.0 -179220000000.0 -107246000000.0 -19217600000.0 -155943000000.0 -215703000000.0 -155110000000.0 -120575000000.0 -19121000000.0 -231554000000.0 -191543000000.0 -401943000000.0 -193358000000.0 -57782700000.0 -235021000000.0 -159820000000.0 -47570900000.0 -338190000000.0 -362223000000.0 -197469000000.0 -99048100000.0 -409303000000.0 -417851000000.0 -500419000000.0 -424479000000.0 -420887000000.0 -119091000000.0 -335135000000.0 -304131000000.0 -733680000000.0 -527910000000.0 -271233000000.0 -238999000000.0 -651649000000.0 -811510000000.0 -632249000000.0 -229500000000.0 -33189500000.0 -421969000000.0 -123075000000.0 -198379000000.0 -114944000000.0 -173008000000.0 -151322000000.0 -200728000000.0 -184685000000.0 -302265000000.0 -91208800000.0 -117308000000.0 -233381000000.0 -190281000000.0 -79998500000.0 -58816800000.0 -67457400000.0 -282206000000.0 -168065000000.0 -105939000000.0 -104371000000.0 -68181800000.0 -74716700000.0 -20705700000.0 -80279600000.0 -22143200000.0 -18110900000.0 -58343000000.0 -15124900000.0 -49326300000.0 -132647000000.0 -24557100000.0 -82370600000.0 -27167900000.0 -91874800000.0 -64864700000.0 -49484700000.0 -67259000000.0 -84628800000.0 -83145100000.0 -40507900000.0 -58171400000.0 -64845300000.0 -42549700000.0 -30573500000.0 -37987500000.0 -35403200000.0 -81636300000.0 -12549700000.0 -62043000000.0 -56190700000.0 -37976100000.0 -124735000000.0 -21012600000.0 -50013800000.0 -24510800000.0 -14263100000.0 -101336000000.0 -39746400000.0 -141026000000.0 -53929600000.0 -78222900000.0 -77675200000.0 -59413500000.0 -63515500000.0 -59038900000.0 -84710000000.0 -36246900000.0 -115620000000.0 -113275000000.0 -18190700000.0 -30077200000.0 -28660100000.0 -62250000000.0 -74352900000.0 -123821000000.0 -155683000000.0 -104366000000.0 -18061100000.0 -156747000000.0 -88873900000.0 -170185000000.0 -84015500000.0 -140801000000.0 -73927700000.0 -39771400000.0 -205690000000.0 -145166000000.0 -149367000000.0 -412542000000.0 -309311000000.0 -444164000000.0 -289147000000.0 -527576000000.0 -90341200000.0 -207947000000.0 -428997000000.0 -677462000000.0 -610639000000.0 -446280000000.0 -589124000000.0 -651509000000.0 -344348000000.0 -90689300000.0 -491011000000.0 -31439200000.0 -161197000000.0 -315944000000.0 -82567900000.0 -125572000000.0 -83918700000.0 -84246700000.0 -85182200000.0 -18477300000.0 -19543700000.0 -200232000000.0 -54570900000.0 -267918000000.0 -13117600000.0 -145370000000.0 -111781000000.0 -19435100000.0 -163769000000.0 -133228000000.0 -88486300000.0 -13164400000.0 -13292900000.0 -60191800000.0 -12591200000.0 -74872700000.0 -12620900000.0 -44500800000.0 -119651000000.0 -92040400000.0 -132609000000.0 -62260400000.0 -60413000000.0 -62089300000.0 -62846000000.0 -28137600000.0 -100132000000.0 -66805000000.0 -44631500000.0 -90182700000.0 -12549700000.0 -69008500000.0 -26690400000.0 -40423100000.0 -18464700000.0 -64912900000.0 -26801500000.0 -31211000000.0 -87837100000.0 -67646500000.0 -34146600000.0 -59881100000.0 -12551600000.0 -128720000000.0 -16826900000.0 -112149000000.0 -19989000000.0 -21105300000.0 -145235000000.0 -13679500000.0 -86732100000.0 -28580300000.0 -12554800000.0 -45880000000.0 -56068400000.0 -41273000000.0 -12549700000.0 -82795300000.0 -85617100000.0 -56823900000.0 -50585800000.0 -111427000000.0 -145795000000.0 -197401000000.0 -180790000000.0 -116485000000.0 -47040100000.0 -210247000000.0 -31363200000.0 -12549700000.0 -139017000000.0 -51105700000.0 -54804900000.0 -132634000000.0 -135157000000.0 -216372000000.0 -203900000000.0 -459059000000.0 -231632000000.0 -42703200000.0 -88299900000.0 -281808000000.0 -209768000000.0 -214576000000.0 -412998000000.0 -224451000000.0 -413942000000.0 -612977000000.0 -87171100000.0 -306545000000.0 -412205000000.0 -692090000000.0 -401743000000.0 -613683000000.0 -213405000000.0 -48088100000.0 -165273000000.0 -12549700000.0 -29243400000.0 -76318500000.0 -85103900000.0 -91687400000.0 -41040900000.0 -40374100000.0 -54057100000.0 -129428000000.0 -67409700000.0 -53042800000.0 -116954000000.0 -89051600000.0 -15585100000.0 -74414400000.0 -104636000000.0 -121686000000.0 -12623800000.0 -14723900000.0 -27775000000.0 -71498100000.0 -52510200000.0 -78745700000.0 -89165800000.0 -120324000000.0 -12914200000.0 -15036400000.0 -54306400000.0 -121545000000.0 -76664000000.0 -92416300000.0 -140981000000.0 -41877000000.0 -45656900000.0 -74391200000.0 -75918300000.0 -58995000000.0 -64906600000.0 -119221000000.0 -84250700000.0 -80818400000.0 -85537300000.0 -77357900000.0 -96238100000.0 -84733500000.0 -107189000000.0 -141859000000.0 -17306000000.0 -16924300000.0 -127553000000.0 -59983200000.0 -106258000000.0 -70774700000.0 -41496500000.0 -127538000000.0 -146736000000.0 -45760000000.0 -47869600000.0 -85241100000.0 -75520100000.0 -79593000000.0 -72679200000.0 -70939800000.0 -95160100000.0 -139904000000.0 -136723000000.0 -60139600000.0 -175864000000.0 -144248000000.0 -152484000000.0 -221521000000.0 -103259000000.0 -121238000000.0 -163503000000.0 -177155000000.0 -166610000000.0 -102272000000.0 -90847800000.0 -77585600000.0 -155520000000.0 -23036200000.0 -28517000000.0 -208798000000.0 -12549700000.0 -228943000000.0 -272880000000.0 -456556000000.0 -234427000000.0 -664880000000.0 -248520000000.0 -179752000000.0 -340171000000.0 -649629000000.0 -83921200000.0 -60599700000.0 -12549700000.0 -15045500000.0 -16044700000.0 -56652700000.0 -24652300000.0 -65919700000.0 -54184100000.0 -12549700000.0 -12549700000.0 -12549700000.0 -50992500000.0 -24944600000.0 -91871700000.0 -55532300000.0 -41267300000.0 -12549700000.0 -37319600000.0 -81786800000.0 -101772000000.0 -36263300000.0 -37945700000.0 -45129300000.0 -32647000000.0 -26036700000.0 -54931700000.0 -40906900000.0 -34501100000.0 -84911900000.0 -112299000000.0 -155661000000.0 -145915000000.0 -61641000000.0 -147471000000.0 -23898600000.0 -105900000000.0 -14697000000.0 -79665100000.0 -47529500000.0 -166903000000.0 -76168700000.0 -77109700000.0 -113154000000.0 -71526200000.0 -84749700000.0 -98232900000.0 -121569000000.0 -91840000000.0 -72383000000.0 -62294600000.0 -68474700000.0 -87983900000.0 -26600500000.0 -38498400000.0 -37607000000.0 -72797600000.0 -155264000000.0 -85589800000.0 -84445600000.0 -113489000000.0 -13851300000.0 -106617000000.0 -145751000000.0 -75667900000.0 -73027000000.0 -66017700000.0 -110718000000.0 -12549700000.0 -66004600000.0 -119695000000.0 -52905700000.0 -94230400000.0 -44342300000.0 -174223000000.0 -258793000000.0 -154965000000.0 -141866000000.0 -160285000000.0 -138565000000.0 -148292000000.0 -64939500000.0 -102957000000.0 -123216000000.0 -308582000000.0 -265172000000.0 -178378000000.0 -56805300000.0 -259782000000.0 -92885500000.0 -219413000000.0 -182919000000.0 -453888000000.0 -322358000000.0 -210302000000.0 -239360000000.0 -353023000000.0 -467833000000.0 -56935900000.0 -92010300000.0 -18309700000.0 -22249000000.0 -57928500000.0 -33827100000.0 -34599300000.0 -13703500000.0 -12908700000.0 -14228700000.0 -40966800000.0 -22546800000.0 -78287000000.0 -23917200000.0 -37392200000.0 -12549700000.0 -65034000000.0 -13747400000.0 -28995500000.0 -18751900000.0 -13196800000.0 -44431000000.0 -20437500000.0 -36465400000.0 -70947300000.0 -54852100000.0 -86065000000.0 -38772600000.0 -109208000000.0 -31781800000.0 -166271000000.0 -241970000000.0 -44404400000.0 -39165700000.0 -60887400000.0 -63349000000.0 -67855600000.0 -147700000000.0 -54786000000.0 -23781400000.0 -39106700000.0 -132284000000.0 -79811900000.0 -69890800000.0 -12549700000.0 -86872600000.0 -64828600000.0 -99175700000.0 -40468800000.0 -14558200000.0 -39972200000.0 -133226000000.0 -104819000000.0 -112555000000.0 -72684600000.0 -73260300000.0 -55944100000.0 -82441600000.0 -55967100000.0 -24998200000.0 -41275200000.0 -144270000000.0 -13072600000.0 -21380300000.0 -98586100000.0 -32083500000.0 -75043800000.0 -54341700000.0 -47793800000.0 -96983800000.0 -38046000000.0 -117323000000.0 -125868000000.0 -86329800000.0 -172967000000.0 -102540000000.0 -96616500000.0 -112121000000.0 -81808900000.0 -31288300000.0 -173251000000.0 -113406000000.0 -50304600000.0 -185933000000.0 -124831000000.0 -188274000000.0 -58659200000.0 -96108700000.0 -105481000000.0 -108074000000.0 -83029700000.0 -57974100000.0 -193559000000.0 -329272000000.0 -328981000000.0 -410176000000.0 -167347000000.0 -326174000000.0 -28673800000.0 -57755700000.0 -18374800000.0 -31446100000.0 -39828500000.0 -19099700000.0 -21683100000.0 -47109000000.0 -33745900000.0 -32477200000.0 -23390700000.0 -26068900000.0 -42016600000.0 -26828200000.0 -25687300000.0 -81352100000.0 -19992300000.0 -32654500000.0 -12549700000.0 -66435600000.0 -60713000000.0 -18512900000.0 -23715300000.0 -12549700000.0 -51967100000.0 -30912500000.0 -58045800000.0 -39922800000.0 -38093800000.0 -56735200000.0 -41316300000.0 -98277300000.0 -129150000000.0 -74978200000.0 -62130300000.0 -77977700000.0 -27427700000.0 -13447800000.0 -168285000000.0 -166077000000.0 -246807000000.0 -178009000000.0 -12773500000.0 -158800000000.0 -21270400000.0 -101578000000.0 -63367000000.0 -55319600000.0 -136919000000.0 -32023400000.0 -65684400000.0 -70075000000.0 -69994600000.0 -86957900000.0 -30836500000.0 -79570900000.0 -62483100000.0 -81828700000.0 -73983300000.0 -57423700000.0 -92229000000.0 -93153900000.0 -17113000000.0 -39429500000.0 -135103000000.0 -97788800000.0 -28511800000.0 -49003000000.0 -94936900000.0 -167870000000.0 -102593000000.0 -78632400000.0 -116039000000.0 -152704000000.0 -62828500000.0 -99456000000.0 -51383800000.0 -60500400000.0 -74800900000.0 -123951000000.0 -97533300000.0 -32301400000.0 -46028200000.0 -105375000000.0 -12753900000.0 -63400600000.0 -173262000000.0 -49104800000.0 -61379500000.0 -40115900000.0 -96771000000.0 -77802000000.0 -62276300000.0 -191806000000.0 -127978000000.0 -206796000000.0 -227835000000.0 -261493000000.0 -253360000000.0 -368586000000.0 -126297000000.0 -354998000000.0 -116417000000.0 -266570000000.0 -121476000000.0 -26952300000.0 -14562400000.0 -34429100000.0 -25735600000.0 -27860200000.0 -60259600000.0 -35104300000.0 -15877400000.0 -13638000000.0 -21277400000.0 -17247400000.0 -27027700000.0 -17642900000.0 -93509300000.0 -71930400000.0 -53978900000.0 -45529300000.0 -70224700000.0 -31123700000.0 -24555000000.0 -28545600000.0 -29758300000.0 -45905300000.0 -62327400000.0 -39396400000.0 -36551100000.0 -37861500000.0 -17859300000.0 -139025000000.0 -32794500000.0 -27817100000.0 -38247400000.0 -36313400000.0 -44852100000.0 -106326000000.0 -68902800000.0 -63409900000.0 -28807000000.0 -113556000000.0 -179991000000.0 -61768500000.0 -107587000000.0 -117605000000.0 -69440500000.0 -137559000000.0 -85893100000.0 -77635500000.0 -120443000000.0 -84092100000.0 -79032100000.0 -204783000000.0 -128035000000.0 -154316000000.0 -140582000000.0 -74337400000.0 -47335500000.0 -56704100000.0 -114435000000.0 -12549700000.0 -18775000000.0 -101581000000.0 -86213500000.0 -15063400000.0 -92291400000.0 -19558200000.0 -125690000000.0 -12549700000.0 -70484400000.0 -101866000000.0 -13840000000.0 -86487000000.0 -90245800000.0 -98199000000.0 -67265700000.0 -35468600000.0 -96046500000.0 -12549700000.0 -110635000000.0 -12560400000.0 -153691000000.0 -85081300000.0 -123118000000.0 -49914000000.0 -97746800000.0 -103671000000.0 -107108000000.0 -134035000000.0 -61340100000.0 -168866000000.0 -65820100000.0 -26192300000.0 -27193500000.0 -147135000000.0 -243777000000.0 -277984000000.0 -151016000000.0 -149694000000.0 -346426000000.0 -122681000000.0 -20856100000.0 -22964700000.0 -26943200000.0 -21824400000.0 -14682700000.0 -52548100000.0 -38899100000.0 -21756400000.0 -20209400000.0 -28293500000.0 -13547300000.0 -26077000000.0 -12549700000.0 -24193400000.0 -36782500000.0 -54158600000.0 -29325700000.0 -63475200000.0 -61381000000.0 -25541000000.0 -20407400000.0 -14432300000.0 -26050000000.0 -85321000000.0 -14001900000.0 -12557600000.0 -23906100000.0 -16448100000.0 -130792000000.0 -45742900000.0 -13502800000.0 -30452200000.0 -37888800000.0 -38519700000.0 -77201200000.0 -53711700000.0 -12913000000.0 -14937600000.0 -155968000000.0 -87346900000.0 -109099000000.0 -50119100000.0 -70916500000.0 -127272000000.0 -13014200000.0 -94264700000.0 -107523000000.0 -150113000000.0 -12548100000.0 -124774000000.0 -171187000000.0 -22311300000.0 -66971500000.0 -73400700000.0 -41970700000.0 -92170900000.0 -12549700000.0 -83605400000.0 -145415000000.0 -15563900000.0 -34891700000.0 -82423700000.0 -34599800000.0 -15983200000.0 -35469400000.0 -86544200000.0 -93600000000.0 -96087100000.0 -38933800000.0 -40667800000.0 -102239000000.0 -49666000000.0 -12549700000.0 -65044700000.0 -41071900000.0 -44039000000.0 -91798100000.0 -162809000000.0 -128108000000.0 -103034000000.0 -106108000000.0 -126451000000.0 -98860200000.0 -86217400000.0 -38487400000.0 -65545100000.0 -86100500000.0 -45171700000.0 -33389000000.0 -38899400000.0 -13129800000.0 -140348000000.0 -75155900000.0 -75165800000.0 -48652500000.0 -15688200000.0 -85105700000.0 -53690200000.0 -118938000000.0 -134244000000.0 -59895100000.0 -27414700000.0 -134972000000.0 -12549700000.0 -12549700000.0 -252156000000.0 -67599500000.0 -94711400000.0 -81962800000.0 -226900000000.0 -89496500000.0 -27185200000.0 -13707100000.0 -19980000000.0 -25689500000.0 -21202300000.0 -41178100000.0 -12629400000.0 -12942900000.0 -15321400000.0 -37884200000.0 -31363100000.0 -26840500000.0 -70573100000.0 -71015000000.0 -12879200000.0 -88538600000.0 -13959800000.0 -64895600000.0 -28727500000.0 -50783400000.0 -68312200000.0 -43139400000.0 -32683300000.0 -32598200000.0 -12803900000.0 -49398900000.0 -15095500000.0 -49886900000.0 -64107700000.0 -32977400000.0 -33795600000.0 -48099000000.0 -32636900000.0 -54665200000.0 -86866300000.0 -63144400000.0 -65061100000.0 -33504600000.0 -38474100000.0 -111616000000.0 -23523200000.0 -153109000000.0 -150398000000.0 -137140000000.0 -88007900000.0 -184443000000.0 -127182000000.0 -82910300000.0 -77625200000.0 -41767000000.0 -73059900000.0 -102687000000.0 -61073000000.0 -145848000000.0 -117091000000.0 -12549700000.0 -30881000000.0 -109928000000.0 -40428000000.0 -24852200000.0 -73609200000.0 -39865800000.0 -87522200000.0 -20194900000.0 -97041700000.0 -91475200000.0 -28573600000.0 -12588400000.0 -65324800000.0 -60259700000.0 -187142000000.0 -74384800000.0 -31872500000.0 -15221800000.0 -85778900000.0 -84327100000.0 -124504000000.0 -142370000000.0 -48304100000.0 -102157000000.0 -13146200000.0 -14319700000.0 -36221200000.0 -151801000000.0 -132252000000.0 -110254000000.0 -138289000000.0 -176725000000.0 -64867900000.0 -44935600000.0 -61784700000.0 -151493000000.0 -74003200000.0 -126460000000.0 -116058000000.0 -59347300000.0 -78752100000.0 -211563000000.0 -26928100000.0 -14197500000.0 -15737100000.0 -12958200000.0 -38013500000.0 -38996700000.0 -73358800000.0 -66842400000.0 -48297300000.0 -43851400000.0 -47634900000.0 -30392600000.0 -36730300000.0 -45755300000.0 -22195600000.0 -74670900000.0 -77087200000.0 -107756000000.0 -62027800000.0 -40885100000.0 -27302800000.0 -45219000000.0 -99361200000.0 -63322400000.0 -71190500000.0 -57689800000.0 -58818400000.0 -68822000000.0 -99016200000.0 -28110400000.0 -63254400000.0 -15853400000.0 -12549700000.0 -30247500000.0 -106256000000.0 -31330700000.0 -33248000000.0 -139299000000.0 -118314000000.0 -55978000000.0 -108012000000.0 -29684800000.0 -95848100000.0 -52785200000.0 -89470200000.0 -43598300000.0 -64227100000.0 -78159800000.0 -48994300000.0 -88270900000.0 -68608700000.0 -103647000000.0 -55669900000.0 -113534000000.0 -17367400000.0 -89452800000.0 -81221300000.0 -86162900000.0 -172086000000.0 -160436000000.0 -119006000000.0 -154523000000.0 -82855500000.0 -105895000000.0 -87960100000.0 -150291000000.0 -144122000000.0 -54939500000.0 -158307000000.0 -195075000000.0 -134234000000.0 -15526100000.0 -64852300000.0 -13344100000.0 -40248100000.0 -21019600000.0 -115621000000.0 -35349500000.0 -63542000000.0 -130454000000.0 -67736600000.0 -118416000000.0 -89379700000.0 -94696900000.0 -128437000000.0 -38649700000.0 -29775000000.0 -69699700000.0 -12678000000.0 -13825200000.0 -141784000000.0 -146827000000.0 -115097000000.0 -149320000000.0 -77304100000.0 -120469000000.0 -145027000000.0 -12653400000.0 -75240500000.0 -197361000000.0 -26840400000.0 -12796500000.0 -14705400000.0 -14108300000.0 -95720400000.0 -39791400000.0 -48100300000.0 -26730500000.0 -31734600000.0 -31936400000.0 -33962200000.0 -31599200000.0 -30559600000.0 -21145700000.0 -35542100000.0 -13140200000.0 -12549700000.0 -46995700000.0 -125675000000.0 -56100900000.0 -179740000000.0 -112821000000.0 -136808000000.0 -55432400000.0 -51372600000.0 -55691100000.0 -83175000000.0 -109445000000.0 -36864200000.0 -81382300000.0 -97779600000.0 -106241000000.0 -52188300000.0 -57497900000.0 -38483300000.0 -26419600000.0 -51345300000.0 -141011000000.0 -82149300000.0 -37013800000.0 -96471800000.0 -41334800000.0 -63241200000.0 -56011100000.0 -81096800000.0 -64459800000.0 -68601700000.0 -100155000000.0 -108951000000.0 -74554700000.0 -62941700000.0 -83091300000.0 -57514800000.0 -46501300000.0 -147509000000.0 -89469100000.0 -125698000000.0 -85203800000.0 -18235200000.0 -48739700000.0 -62055600000.0 -57067200000.0 -111775000000.0 -45632900000.0 -37609000000.0 -60717700000.0 -73653800000.0 -56663300000.0 -86555100000.0 -54102700000.0 -14427300000.0 -19983800000.0 -241963000000.0 -92679200000.0 -81494300000.0 -129093000000.0 -12690700000.0 -119960000000.0 -141430000000.0 -173447000000.0 -77232400000.0 -163416000000.0 -54602000000.0 -88360800000.0 -94155000000.0 -42178000000.0 -102979000000.0 -13796200000.0 -29989100000.0 -14796500000.0 -12549700000.0 -22320800000.0 -14945200000.0 -106535000000.0 -57063400000.0 -115676000000.0 -94122300000.0 -24739800000.0 -39558900000.0 -127199000000.0 -207440000000.0 -50138800000.0 -182344000000.0 -45810600000.0 -80351500000.0 -83733900000.0 -98576300000.0 -42575100000.0 -17363000000.0 -30908200000.0 -29866300000.0 -14503200000.0 -15037400000.0 -28193800000.0 -16309800000.0 -49711700000.0 -22016600000.0 -29508300000.0 -37310900000.0 -26203700000.0 -45961300000.0 -27242300000.0 -102315000000.0 -14063000000.0 -68403000000.0 -38156600000.0 -13636500000.0 -19906800000.0 -51665300000.0 -24840600000.0 -84660000000.0 -13320300000.0 -85222200000.0 -60526900000.0 -79389200000.0 -37432000000.0 -80619800000.0 -68550700000.0 -137400000000.0 -39996800000.0 -42921000000.0 -83895600000.0 -57742500000.0 -12549700000.0 -50981900000.0 -88295300000.0 -12549700000.0 -76479100000.0 -82212700000.0 -27499700000.0 -77421600000.0 -123786000000.0 -79518500000.0 -48876100000.0 -50213800000.0 -114893000000.0 -41776200000.0 -18466400000.0 -46153400000.0 -19606200000.0 -104628000000.0 -58208300000.0 -35228800000.0 -12549700000.0 -87180400000.0 -110566000000.0 -40755900000.0 -81322000000.0 -106320000000.0 -78950800000.0 -54440800000.0 -103848000000.0 -110155000000.0 -153963000000.0 -81865800000.0 -95388800000.0 -143457000000.0 -137543000000.0 -77787700000.0 -70265500000.0 -19871800000.0 -14744300000.0 -121785000000.0 -140539000000.0 -104978000000.0 -127818000000.0 -60691400000.0 -75325100000.0 -94458200000.0 -81012200000.0 -81590900000.0 -156328000000.0 -132677000000.0 -119536000000.0 -95895900000.0 -51529100000.0 -24031000000.0 -141317000000.0 -87596900000.0 -38775900000.0 -82724500000.0 -101652000000.0 -82263100000.0 -62844400000.0 -261669000000.0 -268606000000.0 -23412800000.0 -40446900000.0 -12811700000.0 -89929000000.0 -50185000000.0 -25794800000.0 -23091800000.0 -39591000000.0 -54308200000.0 -13018800000.0 -12698400000.0 -32942900000.0 -21059400000.0 -58928600000.0 -42884000000.0 -20823000000.0 -32901500000.0 -48613200000.0 -54322700000.0 -57142900000.0 -95329800000.0 -15296500000.0 -85377600000.0 -38222800000.0 -54067700000.0 -58690300000.0 -43430500000.0 -37180400000.0 -33164800000.0 -83345400000.0 -103559000000.0 -111566000000.0 -47046900000.0 -69652400000.0 -26271000000.0 -101296000000.0 -27604100000.0 -18907200000.0 -58487600000.0 -72044700000.0 -31725500000.0 -68985600000.0 -104630000000.0 -77738900000.0 -130908000000.0 -96890100000.0 -54786200000.0 -77046400000.0 -93273400000.0 -47994000000.0 -68397600000.0 -76981900000.0 -95045300000.0 -83623100000.0 -81824200000.0 -85089300000.0 -33329900000.0 -27033500000.0 -66329000000.0 -47475300000.0 -117034000000.0 -88903600000.0 -14388000000.0 -61026700000.0 -36058400000.0 -68851600000.0 -172424000000.0 -38647900000.0 -112710000000.0 -42983500000.0 -137427000000.0 -156778000000.0 -151384000000.0 -128692000000.0 -117094000000.0 -118876000000.0 -12782100000.0 -60163300000.0 -51300600000.0 -104289000000.0 -33095300000.0 -62901300000.0 -31569400000.0 -53196900000.0 -14414200000.0 -51678800000.0 -46617500000.0 -86558800000.0 -89409600000.0 -163263000000.0 -18310000000.0 -22407600000.0 -34939500000.0 -55003600000.0 -13256400000.0 -57290100000.0 -46911800000.0 -174473000000.0 -82916200000.0 -209891000000.0 -17035800000.0 -34925500000.0 -31114800000.0 -94889600000.0 -65716400000.0 -33459900000.0 -31246600000.0 -40509700000.0 -36664100000.0 -47396200000.0 -32332700000.0 -33191000000.0 -70989600000.0 -41011900000.0 -45892600000.0 -43444000000.0 -48447600000.0 -35694900000.0 -83955500000.0 -16064900000.0 -96627800000.0 -74469400000.0 -45214000000.0 -39437200000.0 -66624500000.0 -30732300000.0 -35223100000.0 -48634900000.0 -53870200000.0 -124779000000.0 -45000800000.0 -62027600000.0 -41960600000.0 -61997100000.0 -130625000000.0 -55398600000.0 -31942500000.0 -30534100000.0 -35088300000.0 -25570100000.0 -70573900000.0 -72768500000.0 -65291900000.0 -50506700000.0 -28834600000.0 -53994800000.0 -102458000000.0 -56854700000.0 -78199600000.0 -77908300000.0 -56599900000.0 -48646000000.0 -150731000000.0 -71929400000.0 -74151500000.0 -89721400000.0 -97975500000.0 -90117400000.0 -114269000000.0 -119388000000.0 -93208000000.0 -87972300000.0 -159161000000.0 -132762000000.0 -14209100000.0 -119441000000.0 -148372000000.0 -205482000000.0 -148653000000.0 -148605000000.0 -176870000000.0 -137548000000.0 -133208000000.0 -114682000000.0 -99275200000.0 -131983000000.0 -140164000000.0 -173807000000.0 -78812600000.0 -16028500000.0 -40332700000.0 -20908100000.0 -19780600000.0 -61925900000.0 -26573400000.0 -67993800000.0 -47008200000.0 -62699500000.0 -45881900000.0 -72013000000.0 -46246300000.0 -43830000000.0 -51178000000.0 -82006300000.0 -12549700000.0 -113080000000.0 -103333000000.0 -289794000000.0 -78463400000.0 -21617600000.0 -30161400000.0 -22886300000.0 -54796600000.0 -128122000000.0 -69341000000.0 -76664600000.0 -15764300000.0 -20258200000.0 -35070300000.0 -16102300000.0 -22462200000.0 -14273600000.0 -68595300000.0 -49973400000.0 -52764500000.0 -13486600000.0 -58697300000.0 -104056000000.0 -62841400000.0 -118213000000.0 -77943100000.0 -31680900000.0 -44686300000.0 -61458600000.0 -24493100000.0 -12643500000.0 -19994300000.0 -34076000000.0 -81283000000.0 -72320900000.0 -65414300000.0 -63961800000.0 -12549700000.0 -76213200000.0 -18688100000.0 -43679600000.0 -32222500000.0 -30236400000.0 -12549700000.0 -91436300000.0 -67901600000.0 -83175600000.0 -34874300000.0 -48513900000.0 -74824500000.0 -103626000000.0 -16571200000.0 -21473800000.0 -103871000000.0 -70433800000.0 -12857300000.0 -48094500000.0 -12779600000.0 -78645600000.0 -22341800000.0 -86877600000.0 -30217200000.0 -66706300000.0 -49141800000.0 -104622000000.0 -14387400000.0 -92634500000.0 -62012900000.0 -62575200000.0 -67063100000.0 -62055600000.0 -54889800000.0 -164126000000.0 -16627900000.0 -148502000000.0 -19379400000.0 -57181400000.0 -89912800000.0 -59327600000.0 -59756300000.0 -128008000000.0 -52094300000.0 -47825600000.0 -15498900000.0 -51176200000.0 -21223300000.0 -42287900000.0 -61406500000.0 -13643800000.0 -15220500000.0 -26946800000.0 -79020600000.0 -53978900000.0 -35094900000.0 -39433700000.0 -25726600000.0 -13087200000.0 -117730000000.0 -14544200000.0 -78614800000.0 -193415000000.0 -67003800000.0 -43330700000.0 -100900000000.0 -105415000000.0 -132464000000.0 -14083900000.0 -14255300000.0 -71202200000.0 -12549700000.0 -28895300000.0 -26476400000.0 -12549700000.0 -44878800000.0 -25298600000.0 -48530500000.0 -31605900000.0 -26241600000.0 -58399700000.0 -58368100000.0 -20151600000.0 -65288900000.0 -32336200000.0 -82019700000.0 -78144900000.0 -40657700000.0 -81166000000.0 -15070100000.0 -42751200000.0 -41231900000.0 -44944100000.0 -61785700000.0 -88945700000.0 -69674300000.0 -60278400000.0 -56336500000.0 -31753300000.0 -84128700000.0 -23080500000.0 -44634800000.0 -39601500000.0 -95991100000.0 -81856500000.0 -51584700000.0 -72661400000.0 -117853000000.0 -72627500000.0 -87885700000.0 -45402900000.0 -101778000000.0 -56351900000.0 -65880600000.0 -54059200000.0 -50196200000.0 -63614600000.0 -74877500000.0 -69560100000.0 -40209200000.0 -12847400000.0 -131182000000.0 -87098300000.0 -39207700000.0 -40990900000.0 -43172500000.0 -123279000000.0 -64726300000.0 -134442000000.0 -138955000000.0 -44629800000.0 -20308300000.0 -102874000000.0 -107857000000.0 -152988000000.0 -62558100000.0 -87469800000.0 -59833500000.0 -72254400000.0 -19948800000.0 -13270300000.0 -12846700000.0 -88020900000.0 -118788000000.0 -73854900000.0 -91124200000.0 -68108900000.0 -90804100000.0 -71988400000.0 -94970200000.0 -76379600000.0 -43132200000.0 -50635100000.0 -43589300000.0 -33963600000.0 -22851500000.0 -117258000000.0 -67441900000.0 -51256400000.0 -57752500000.0 -64260600000.0 -85455600000.0 -40766300000.0 -49290300000.0 -72136500000.0 -29076600000.0 -157583000000.0 -52382500000.0 -56464900000.0 -90194300000.0 -91563800000.0 -163317000000.0 -20598000000.0 -20452900000.0 -41526600000.0 -69771000000.0 -41214700000.0 -37133000000.0 -40250200000.0 -50505800000.0 -24262200000.0 -14474200000.0 -72023400000.0 -16006700000.0 -12906900000.0 -47575800000.0 -36978100000.0 -44430400000.0 -129204000000.0 -132566000000.0 -79503100000.0 -61914500000.0 -44189400000.0 -42056800000.0 -88008800000.0 -66516800000.0 -92898200000.0 -117496000000.0 -97767300000.0 -88700200000.0 -120097000000.0 -65430100000.0 -94362600000.0 -75267000000.0 -71313700000.0 -21759300000.0 -35019300000.0 -13931600000.0 -105998000000.0 -12887100000.0 -18741000000.0 -76367000000.0 -69724900000.0 -52047300000.0 -83829200000.0 -54908000000.0 -75666200000.0 -71486400000.0 -80472500000.0 -70204600000.0 -138846000000.0 -30808700000.0 -27788100000.0 -21361000000.0 -39525100000.0 -34086900000.0 -116011000000.0 -48664900000.0 -83342900000.0 -40628400000.0 -34984300000.0 -90243500000.0 -119573000000.0 -46021000000.0 -25900000000.0 -39609200000.0 -43626900000.0 -81327500000.0 -75337600000.0 -60958400000.0 -119242000000.0 -19630800000.0 -20590400000.0 -21686100000.0 -54479600000.0 -14181700000.0 -40562800000.0 -41006900000.0 -69124300000.0 -46040800000.0 -38838800000.0 -49149700000.0 -56048200000.0 -44583200000.0 -54002600000.0 -60899300000.0 -47582500000.0 -60281900000.0 -49733800000.0 -56590900000.0 -42999500000.0 -60573200000.0 -14539500000.0 -13895200000.0 -71042900000.0 -48071400000.0 -52671500000.0 -50859200000.0 -12549700000.0 -25331100000.0 -131106000000.0 -14323300000.0 -82520800000.0 -14284700000.0 -27096800000.0 -22549600000.0 -25007900000.0 -51243700000.0 -47585600000.0 -22215400000.0 -30375000000.0 -81428300000.0 -27036900000.0 -69536700000.0 -76073900000.0 -116179000000.0 -20659100000.0 -158843000000.0 -22530400000.0 -104172000000.0 -33240700000.0 -23243600000.0 -14577500000.0 -137293000000.0 -18076000000.0 -21289100000.0 -74858100000.0 -108002000000.0 -28906700000.0 -23702100000.0 -14272600000.0 -74378600000.0 -132227000000.0 -59108500000.0 -67756000000.0 -12549700000.0 -14324300000.0 -44439800000.0 -41539200000.0 -61586400000.0 -63038800000.0 -28788600000.0 -28561000000.0 -66513000000.0 -32020200000.0 -31940400000.0 -40520000000.0 -18395600000.0 -43509000000.0 -36902200000.0 -68066000000.0 -108004000000.0 -73801700000.0 -21682800000.0 -22412000000.0 -27124300000.0 -38731000000.0 -89305700000.0 -47123000000.0 -54777200000.0 -122603000000.0 -22203400000.0 -12893000000.0 -124478000000.0 -75988800000.0 -122746000000.0 -101633000000.0 -42255000000.0 -40811000000.0 -95205700000.0 -48538200000.0 -111248000000.0 -13973300000.0 -12549700000.0 -14314800000.0 -26291600000.0 -54520900000.0 -16505800000.0 -22038600000.0 -17394400000.0 -53446000000.0 -45708900000.0 -43897800000.0 -29815300000.0 -48300700000.0 -32566400000.0 -26794000000.0 -34824600000.0 -61710300000.0 -30940800000.0 -50080800000.0 -42227400000.0 -67462700000.0 -102729000000.0 -111895000000.0 -142055000000.0 -201965000000.0 -33657200000.0 -50232100000.0 -30017400000.0 -56933700000.0 -13306300000.0 -73956800000.0 -140905000000.0 -156902000000.0 -79708500000.0 -70637400000.0 -107074000000.0 -100870000000.0 -98264700000.0 -50047400000.0 -61493200000.0 -58948900000.0 -29304800000.0 -119158000000.0 -52895500000.0 -35819100000.0 -53863600000.0 -113217000000.0 -73148400000.0 -75803900000.0 -46126900000.0 -14299900000.0 -111746000000.0 -96848700000.0 -118343000000.0 -173135000000.0 -52831700000.0 -60531900000.0 -60087400000.0 -81910000000.0 -62553000000.0 -66157400000.0 -78308500000.0 -58161700000.0 -33672500000.0 -35816700000.0 -18864800000.0 -17406900000.0 -37669400000.0 -30812200000.0 -61299900000.0 -54521100000.0 -36487300000.0 -42407600000.0 -21654900000.0 -25851900000.0 -43070900000.0 -38366600000.0 -25745200000.0 -55866800000.0 -32153100000.0 -32518500000.0 -47091300000.0 -62196900000.0 -92775300000.0 -66063000000.0 -75663900000.0 -102715000000.0 -27763900000.0 -16230800000.0 -62257900000.0 -87134300000.0 -19012200000.0 -12783300000.0 -96084700000.0 -17797100000.0 -88736800000.0 -71202600000.0 -49968000000.0 -85566200000.0 -60793000000.0 -98685700000.0 -26943800000.0 -36201900000.0 -28945400000.0 -49708900000.0 -41231100000.0 -28615700000.0 -19388900000.0 -20687800000.0 -25457900000.0 -46035100000.0 -21859500000.0 -27266300000.0 -31970900000.0 -23334400000.0 -13095400000.0 -22414700000.0 -40408100000.0 -51498300000.0 -41816600000.0 -41009300000.0 -45082000000.0 -64465700000.0 -16882500000.0 -14463900000.0 -77349900000.0 -102985000000.0 -24943400000.0 -74052900000.0 -12598800000.0 -147491000000.0 -96841900000.0 -78502600000.0 -82210000000.0 -12609600000.0 -85424200000.0 -35952100000.0 -57326800000.0 -46749900000.0 -77113700000.0 -80873200000.0 -69325800000.0 -134215000000.0 -73743400000.0 -72220800000.0 -113559000000.0 -108080000000.0 -133593000000.0 -77407700000.0 -98897000000.0 -75989700000.0 -114990000000.0 -19682700000.0 -36976700000.0 -100533000000.0 -84757000000.0 -71723800000.0 -84434300000.0 -64019200000.0 -97827500000.0 -29728400000.0 -20516400000.0 -46618000000.0 -37666000000.0 -18566700000.0 -28700900000.0 -13288800000.0 -18581000000.0 -55353800000.0 -40877100000.0 -30620700000.0 -28833400000.0 -30473100000.0 -48980300000.0 -45188000000.0 -45052400000.0 -44155800000.0 -72766300000.0 -41514000000.0 -65192400000.0 -24754300000.0 -58258000000.0 -25844800000.0 -21975900000.0 -31677700000.0 -27134800000.0 -85904500000.0 -73910300000.0 -27250100000.0 -80624600000.0 -62138700000.0 -66252000000.0 -68960900000.0 -71765200000.0 -110288000000.0 -65440100000.0 -55063200000.0 -76187400000.0 -20787000000.0 -49118800000.0 -51596800000.0 -26823700000.0 -23700500000.0 -41793500000.0 -15617400000.0 -22387600000.0 -25829700000.0 -12549700000.0 -55922700000.0 -35646700000.0 -45075000000.0 -22431300000.0 -23795400000.0 -31102000000.0 -26234700000.0 -37806800000.0 -32631800000.0 -32193600000.0 -21894600000.0 -27298800000.0 -49379400000.0 -23805300000.0 -12549700000.0 -77616000000.0 -70849000000.0 -69304200000.0 -17582900000.0 -81950200000.0 -106518000000.0 -16889800000.0 -28465800000.0 -40590800000.0 -44472800000.0 -65348900000.0 -85079200000.0 -39675500000.0 -55686200000.0 -54341300000.0 -42078900000.0 -32692000000.0 -47333400000.0 -78963200000.0 -55793400000.0 -14110600000.0 -45148500000.0 -82066800000.0 -59636400000.0 -18138300000.0 -38580100000.0 -60273200000.0 -147915000000.0 -187297000000.0 -113216000000.0 -35897000000.0 -15574900000.0 -39322600000.0 -34777800000.0 -41238900000.0 -88539600000.0 -60131600000.0 -24859900000.0 -47665300000.0 -43715200000.0 -14460700000.0 -13886100000.0 -14588600000.0 -48302700000.0 -22828800000.0 -15140300000.0 -13237600000.0 -12549700000.0 -50004500000.0 -25740100000.0 -30258700000.0 -40865100000.0 -33349300000.0 -27246300000.0 -52361200000.0 -33808500000.0 -44392200000.0 -23911100000.0 -12905700000.0 -30968100000.0 -12549700000.0 -59498600000.0 -31012000000.0 -15990200000.0 -47552500000.0 -64651200000.0 -44857300000.0 -32583700000.0 -12549700000.0 -97790300000.0 -84488000000.0 -65268600000.0 -78605300000.0 -50293100000.0 -41292700000.0 -61139500000.0 -39722100000.0 -59837900000.0 -45415300000.0 -52076200000.0 -28107700000.0 -36374100000.0 -38891900000.0 -29234700000.0 -36778100000.0 -12556100000.0 -12620000000.0 -16262100000.0 -16504900000.0 -12965700000.0 -36265400000.0 -34196200000.0 -40404400000.0 -14359700000.0 -43465200000.0 -25257900000.0 -21043700000.0 -55422900000.0 -23010400000.0 -64922500000.0 -13790500000.0 -24411300000.0 -109456000000.0 -36235700000.0 -19488200000.0 -21676600000.0 -38321400000.0 -50426100000.0 -22318300000.0 -94023700000.0 -45703600000.0 -22312800000.0 -40196300000.0 -35620100000.0 -48141000000.0 -13882100000.0 -12549700000.0 -86994800000.0 -63717900000.0 -69963000000.0 -85854300000.0 -109715000000.0 -74405200000.0 -14330200000.0 -15424000000.0 -70935400000.0 -83741500000.0 -77734600000.0 -68983700000.0 -41906600000.0 -75257600000.0 -56018000000.0 -34329300000.0 -49461200000.0 -14094200000.0 -12884400000.0 -66238600000.0 -21890300000.0 -56760500000.0 -54764400000.0 -33302900000.0 -32111600000.0 -26616000000.0 -31394700000.0 -40021100000.0 -30693400000.0 -27608700000.0 -29886000000.0 -39453900000.0 -29865600000.0 -25984900000.0 -16001200000.0 -31613000000.0 -17981900000.0 -15658800000.0 -37077400000.0 -29497500000.0 -52634500000.0 -39235600000.0 -32982300000.0 -50850300000.0 -38313600000.0 -64071200000.0 -41211600000.0 -34473600000.0 -89458300000.0 -22485200000.0 -27335100000.0 -43259900000.0 -106750000000.0 -42242600000.0 -66092300000.0 -81176100000.0 -97396800000.0 -60030100000.0 -22389700000.0 -41540900000.0 -20521700000.0 -21940100000.0 -31363700000.0 -29891000000.0 -59436800000.0 -56921300000.0 -62591900000.0 -33128900000.0 -21030900000.0 -31160500000.0 -14389400000.0 -14165300000.0 -17628000000.0 -13490600000.0 -21971100000.0 -30504200000.0 -12890600000.0 -62508500000.0 -64093200000.0 -60352100000.0 -63208600000.0 -36319900000.0 -30948500000.0 -59998000000.0 -48747800000.0 -33633800000.0 -74459800000.0 -69933300000.0 -49881300000.0 -23037700000.0 -18052600000.0 -34653700000.0 -26452700000.0 -41607300000.0 -63335300000.0 -42475300000.0 -59716300000.0 -45248200000.0 -33373700000.0 -39041600000.0 -45761900000.0 -34944100000.0 -53493300000.0 -13856300000.0 -43574800000.0 -42824600000.0 -24404600000.0 -87965300000.0 -65110200000.0 -41399700000.0 -59835400000.0 -91679900000.0 -12876700000.0 -26185600000.0 -33821200000.0 -54273700000.0 -40562700000.0 -46454800000.0 -58647600000.0 -66670400000.0 -41380300000.0 -55396500000.0 -54368900000.0 -45963500000.0 -14980700000.0 -14960200000.0 -16458400000.0 -44269000000.0 -22273800000.0 -23667900000.0 -25893600000.0 -34048100000.0 -45212500000.0 -33997400000.0 -40463000000.0 -43064700000.0 -48193900000.0 -45968600000.0 -51752100000.0 -37357700000.0 -64400700000.0 -14917000000.0 -15101900000.0 -35924000000.0 -19500000000.0 -13039800000.0 -41885200000.0 -21548500000.0 -65525500000.0 -18770400000.0 -14801500000.0 -12576300000.0 -42679100000.0 -13067600000.0 -90925900000.0 -50714900000.0 -74393100000.0 -74286700000.0 -64014800000.0 -40410500000.0 -35846800000.0 -29288800000.0 -39893700000.0 -34713900000.0 -13185300000.0 -23799700000.0 -19792200000.0 -12568900000.0 -57462300000.0 -36500900000.0 -34340600000.0 -55405500000.0 -48363500000.0 -50159500000.0 -47671800000.0 -40536700000.0 -70853700000.0 -61304000000.0 -33293400000.0 -35666700000.0 -12912100000.0 -24947700000.0 -50289800000.0 -49069000000.0 -27406500000.0 -32309000000.0 -14500200000.0 -54685000000.0 -46525900000.0 -22553100000.0 -25176800000.0 -27416700000.0 -30162800000.0 -15770000000.0 -59004800000.0 -23454000000.0 -34852300000.0 -46157400000.0 -32769800000.0 -27617700000.0 -52284700000.0 -55964100000.0 -37288100000.0 -63097800000.0 -68993000000.0 -49962100000.0 -58483300000.0 -68513400000.0 -34167300000.0 -78256800000.0 -58415200000.0 -35818100000.0 -107917000000.0 -22935600000.0 -30017600000.0 -12598700000.0 -17974800000.0 -28637500000.0 -22298300000.0 -31005200000.0 -19981300000.0 -37791000000.0 -22149500000.0 -33434400000.0 -23470500000.0 -12603900000.0 -42751700000.0 -40113400000.0 -50678300000.0 -18018300000.0 -16729400000.0 -15887900000.0 -17582200000.0 -20476500000.0 -37317000000.0 -26159400000.0 -38018000000.0 -30139900000.0 -16805100000.0 -12877600000.0 -20840700000.0 -12549700000.0 -55389800000.0 -18822800000.0 -18568000000.0 -40380000000.0 -43249800000.0 -25741000000.0 -29510400000.0 -83660700000.0 -45848800000.0 -45094100000.0 -47801300000.0 -69797300000.0 -27124100000.0 -29614700000.0 -16569800000.0 -101881000000.0 -29532700000.0 -28594000000.0 -27882800000.0 -20735200000.0 -23737000000.0 -32946900000.0 -23839300000.0 -35434100000.0 -12549700000.0 -34922900000.0 -27184300000.0 -50040000000.0 -39463200000.0 -41520000000.0 -32740300000.0 -31251800000.0 -25508400000.0 -18350900000.0 -26046500000.0 -38396700000.0 -33547600000.0 -17484300000.0 -26597800000.0 -26985000000.0 -23463600000.0 -13320500000.0 -15478500000.0 -40453200000.0 -25092500000.0 -22479400000.0 -22121400000.0 -54183200000.0 -42120800000.0 -21652300000.0 -19613700000.0 -30693700000.0 -19366600000.0 -21485600000.0 -50976500000.0 -65362800000.0 -59055300000.0 -30526500000.0 -36968800000.0 -24873300000.0 -35676500000.0 -54721000000.0 -62912800000.0 -18590700000.0 -31657300000.0 -19264600000.0 -14069900000.0 -77565000000.0 -50902100000.0 -28999600000.0 -48811900000.0 -76378900000.0 -83869900000.0 -57110200000.0 -17730300000.0 -14727200000.0 -36970700000.0 -29604500000.0 -16299700000.0 -18150100000.0 -25111200000.0 -20029900000.0 -37319600000.0 -24404300000.0 -12783900000.0 -25094400000.0 -21776800000.0 -28729500000.0 -20821700000.0 -17930300000.0 -19063300000.0 -21372500000.0 -29355600000.0 -12737800000.0 -12549700000.0 -21287800000.0 -14880700000.0 -21412700000.0 -20573700000.0 -20102800000.0 -29666700000.0 -33051800000.0 -41056000000.0 -22576100000.0 -28544400000.0 -49745800000.0 -28543400000.0 -49290600000.0 -46567600000.0 -43235200000.0 -28572800000.0 -30812900000.0 -18687600000.0 -45639300000.0 -20596500000.0 -13434700000.0 -23897000000.0 -91350100000.0 -24703300000.0 -30973800000.0 -16998600000.0 -23156400000.0 -18610400000.0 -23275600000.0 -13972300000.0 -12549700000.0 -34293800000.0 -37826900000.0 -20334000000.0 -16088800000.0 -21192200000.0 -12549700000.0 -19643300000.0 -31183900000.0 -27978500000.0 -22147500000.0 -35175600000.0 -20751500000.0 -21603300000.0 -21181800000.0 -21462200000.0 -31292700000.0 -14931400000.0 -12549700000.0 -14355900000.0 -13709000000.0 -50468600000.0 -31142700000.0 -17520100000.0 -29690400000.0 -13594800000.0 -48905500000.0 -17113500000.0 -33919700000.0 -38853600000.0 -42278500000.0 -47696700000.0 -37448700000.0 -33639200000.0 -41991900000.0 -43257300000.0 -48710900000.0 -55567700000.0 -51873000000.0 -23221100000.0 -21551900000.0 -32606700000.0 -44385200000.0 -25208000000.0 -13555900000.0 -47491200000.0 -33855700000.0 -12851200000.0 -43336800000.0 -39429200000.0 -40153100000.0 -28310300000.0 -18316500000.0 -17567100000.0 -19652500000.0 -23800000000.0 -27916100000.0 -18102000000.0 -31250300000.0 -17745400000.0 -17117400000.0 -18667700000.0 -15407100000.0 -12816500000.0 -12549700000.0 -13822100000.0 -19476100000.0 -12662400000.0 -12993400000.0 -18031500000.0 -12549700000.0 -15417900000.0 -15315800000.0 -14649900000.0 -23104100000.0 -26530300000.0 -25123200000.0 -38795900000.0 -28045100000.0 -28274400000.0 -21771800000.0 -20872000000.0 -27926300000.0 -22389000000.0 -30579700000.0 -18131400000.0 -13700800000.0 -49415500000.0 -15845300000.0 -37841000000.0 -37856700000.0 -50565200000.0 -27733800000.0 -32209700000.0 -13016900000.0 -24928500000.0 -17678800000.0 -12578800000.0 -13067800000.0 -22612300000.0 -19882500000.0 -22430100000.0 -14322600000.0 -24962300000.0 -21278500000.0 -16842700000.0 -16356600000.0 -20523500000.0 -20280400000.0 -19393000000.0 -30000100000.0 -15934600000.0 -26390100000.0 -18363900000.0 -28255300000.0 -12910600000.0 -12849400000.0 -14607000000.0 -12896900000.0 -21541200000.0 -12596500000.0 -12549700000.0 -18616500000.0 -23094900000.0 -57123400000.0 -32463500000.0 -43038200000.0 -47677000000.0 -51159900000.0 -19764700000.0 -29392800000.0 -49587800000.0 -23872000000.0 -29046700000.0 -30929900000.0 -23531700000.0 -12627600000.0 -23880400000.0 -26736500000.0 -32649000000.0 -23814600000.0 -18175600000.0 -25320000000.0 -19560900000.0 -23272900000.0 -25132000000.0 -18695300000.0 -38789500000.0 -21306300000.0 -18148400000.0 -19980800000.0 -13171700000.0 -27624400000.0 -33863000000.0 -21090200000.0 -21111500000.0 -22581000000.0 -13333100000.0 -19999200000.0 -14835300000.0 -22502200000.0 -14472400000.0 -12549700000.0 -15453400000.0 -14455000000.0 -12549700000.0 -12549700000.0 -13310300000.0 -16937300000.0 -12603300000.0 -12549700000.0 -17361700000.0 -13486400000.0 -14014900000.0 -13614300000.0 -13237900000.0 -17568000000.0 -19783300000.0 -15420500000.0 -12925500000.0 -19628700000.0 -18159700000.0 -18064500000.0 -12992500000.0 -17708500000.0 -34073600000.0 -28000600000.0 -29058200000.0 -36120700000.0 -18273200000.0 -48417900000.0 -17372800000.0 -21199400000.0 -40605600000.0 -36155100000.0 -24754700000.0 -18769100000.0 -16658200000.0 -21797200000.0 -15847500000.0 -15578400000.0 -18472900000.0 -18513000000.0 -22204600000.0 -18394500000.0 -17229100000.0 -18208100000.0 -19887100000.0 -24334600000.0 -19352900000.0 -28520200000.0 -24265900000.0 -15662400000.0 -15369700000.0 -14634100000.0 -12749000000.0 -12964400000.0 -13352900000.0 -14587200000.0 -14163400000.0 -12549700000.0 -12772100000.0 -14192100000.0 -26109800000.0 -34073400000.0 -19296400000.0 -15211500000.0 -26844500000.0 -20452500000.0 -19400100000.0 -30328100000.0 -23876600000.0 -22404400000.0 -24686200000.0 -21450600000.0 -21405500000.0 -23070200000.0 -22781600000.0 -21859700000.0 -17508600000.0 -18252400000.0 -17577000000.0 -15797700000.0 -16007600000.0 -20198400000.0 -19569900000.0 -21929600000.0 -18015700000.0 -17489100000.0 -14356600000.0 -21046100000.0 -19469900000.0 -12549700000.0 -14493700000.0 -15527000000.0 -13448600000.0 -16179500000.0 -12549700000.0 -19082200000.0 -13065500000.0 -12644300000.0 -14324400000.0 -13073200000.0 -12549700000.0 -12557400000.0 -12684300000.0 -15668500000.0 -12565900000.0 -12549700000.0 -16461500000.0 -12549700000.0 -12944900000.0 -13173600000.0 -14895100000.0 -13550200000.0 -15820900000.0 -14398100000.0 -12676900000.0 -16473300000.0 -14234200000.0 -13600100000.0 -18181200000.0 -15949700000.0 -18292500000.0 -21668100000.0 -20922100000.0 -21145600000.0 -15335900000.0 -27239200000.0 -26214000000.0 -19501500000.0 -22857100000.0 -23396100000.0 -20873700000.0 -16602700000.0 -14840300000.0 -13859100000.0 -12969700000.0 -14760700000.0 -13658100000.0 -15365500000.0 -12871900000.0 -15557400000.0 -14369800000.0 -13198400000.0 -14364800000.0 -15540000000.0 -17483300000.0 -12549700000.0 -17403300000.0 -14505800000.0 -14597100000.0 -13506000000.0 -13930500000.0 -14317700000.0 -13121900000.0 -12732100000.0 -12950500000.0 -17621400000.0 -18521400000.0 -14478600000.0 -12549700000.0 -16281200000.0 -15182700000.0 -19619000000.0 -15101300000.0 -15120300000.0 -16231000000.0 -15262000000.0 -14169600000.0 -14373700000.0 -12783200000.0 -13790000000.0 -14103700000.0 -13707800000.0 -13051200000.0 -13449700000.0 -13045100000.0 -12947900000.0 -12996100000.0 -12964600000.0 -19011200000.0 -17350800000.0 -13752700000.0 -13325200000.0 -12549700000.0 -14835600000.0 -12799700000.0 -14445700000.0 -13258100000.0 -13210400000.0 -12549700000.0 -13474200000.0 -12771400000.0 -13631800000.0 -14984200000.0 -14272600000.0 -13572500000.0 -13642900000.0 -13472700000.0 -13413600000.0 -13546900000.0 -14977700000.0 -13829900000.0 -14186200000.0 -13359800000.0 -12775900000.0 -12935200000.0 -12786200000.0 -13495800000.0 -13038000000.0 -14136300000.0 -14413100000.0 -14863100000.0 -12874500000.0 -12828100000.0 -14440700000.0 -16968400000.0 -16767800000.0 -17034700000.0 -14716600000.0 -14009000000.0 -16323500000.0 -16649100000.0 -14035300000.0 -17476900000.0 -15733600000.0 -14079200000.0 -19979300000.0 -13974100000.0 -14419900000.0 -12772700000.0 -18575000000.0 -12549700000.0 -13031600000.0 -12549700000.0 -12549700000.0 -13461300000.0 -12853200000.0 -12882900000.0 -13093400000.0 -12963000000.0 -13776700000.0 -12549700000.0 -13292000000.0 -13096200000.0 -13218700000.0 -13445300000.0 -12997600000.0 -13977200000.0 -13249200000.0 -14520500000.0 -13461100000.0 -13401500000.0 -13290800000.0 -13223100000.0 -12629200000.0 -12549700000.0 -12604200000.0 -14229800000.0 