# vtk DataFile Version 2.0
Time step 50
ASCII
DATASET UNSTRUCTURED_GRID
POINTS 5000 float
202705.0 300168.0 0
207626.0 298335.0 0
213156.0 299464.0 0
209445.0 301552.0 0
221897.0 301567.0 0
231888.0 300510.0 0
271936.0 301298.0 0
279274.0 300204.0 0
291164.0 299855.0 0
297464.0 298039.0 0
202414.0 305204.0 0
206558.0 302645.0 0
206995.0 306952.0 0
211309.0 304648.0 0
217044.0 303724.0 0
228399.0 302671.0 0
224711.0 305091.0 0
232534.0 303815.0 0
230125.0 307091.0 0
237253.0 302395.0 0
242626.0 304593.0 0
249268.0 305142.0 0
255565.0 304393.0 0
260628.0 306074.0 0
266999.0 303960.0 0
271272.0 305798.0 0
275772.0 305286.0 0
281211.0 305915.0 0
286322.0 303305.0 0
292206.0 305373.0 0
297176.0 303325.0 0
203009.0 310465.0 0
210060.0 311006.0 0
214575.0 308392.0 0
217616.0 311924.0 0
220778.0 307896.0 0
225982.0 309236.0 0
231922.0 311068.0 0
235071.0 307500.0 0
244872.0 309711.0 0
239890.0 309298.0 0
249204.0 310669.0 0
253095.0 309667.0 0
257250.0 308796.0 0
264388.0 308044.0 0
261001.0 310588.0 0
268672.0 308844.0 0
273406.0 310013.0 0
278127.0 309590.0 0
284924.0 308279.0 0
282214.0 309943.0 0
288440.0 307720.0 0
289025.0 311119.0 0
292497.0 312227.0 0
296667.0 309415.0 0
201914.0 315024.0 0
206472.0 314655.0 0
213593.0 314942.0 0
218261.0 316201.0 0
222604.0 313480.0 0
228115.0 313903.0 0
225762.0 317261.0 0
232710.0 315222.0 0
236276.0 312532.0 0
236674.0 317002.0 0
241303.0 314644.0 0
246862.0 314245.0 0
251771.0 313993.0 0
256628.0 313501.0 0
261017.0 314892.0 0
265459.0 312868.0 0
270074.0 312704.0 0
268745.0 316201.0 0
273098.0 315785.0 0
276494.0 313281.0 0
280690.0 313417.0 0
285270.0 312422.0 0
283950.0 317466.0 0
289308.0 315362.0 0
296213.0 316577.0 0
203762.0 318973.0 0
209828.0 319364.0 0
216112.0 321139.0 0
222124.0 319265.0 0
229217.0 318711.0 0
233199.0 318785.0 0
235936.0 321124.0 0
240311.0 320457.0 0
244974.0 318732.0 0
249791.0 318238.0 0
254489.0 317947.0 0
252315.0 322248.0 0
259055.0 318904.0 0
256168.0 321799.0 0
264595.0 318975.0 0
269407.0 321121.0 0
270717.0 318537.0 0
273476.0 320452.0 0
278089.0 318104.0 0
281801.0 321642.0 0
285865.0 322644.0 0
288111.0 319343.0 0
290197.0 322211.0 0
291602.0 318949.0 0
293673.0 321551.0 0
297552.0 322399.0 0
202023.0 322907.0 0
202046.0 326619.0 0
206267.0 323884.0 0
211609.0 325097.0 0
216656.0 326792.0 0
221171.0 324565.0 0
226274.0 322888.0 0
229187.0 326584.0 0
231929.0 323119.0 0
232636.0 327366.0 0
237288.0 326109.0 0
244111.0 322533.0 0
241944.0 324484.0 0
245532.0 325609.0 0
247916.0 322739.0 0
250486.0 326581.0 0
254859.0 325697.0 0
260020.0 324242.0 0
266175.0 325303.0 0
271901.0 324509.0 0
277447.0 324329.0 0
282732.0 325517.0 0
286527.0 326462.0 0
290673.0 325919.0 0
294468.0 324952.0 0
297857.0 326731.0 0
202315.0 330524.0 0
207401.0 329033.0 0
213284.0 330440.0 0
220507.0 329243.0 0
223067.0 332242.0 0
225087.0 328327.0 0
230132.0 330057.0 0
234254.0 331107.0 0
239437.0 331967.0 0
242838.0 328419.0 0
247349.0 328929.0 0
245048.0 332895.0 0
249498.0 332061.0 0
253303.0 330250.0 0
257626.0 328838.0 0
262132.0 329668.0 0
266589.0 331005.0 0
270417.0 328750.0 0
274461.0 328752.0 0
269720.0 332059.0 0
280502.0 328009.0 0
277905.0 329005.0 0
276625.0 331477.0 0
279778.0 331338.0 0
283915.0 329782.0 0
288896.0 329795.0 0
294121.0 329418.0 0
298378.0 330308.0 0
201930.0 334350.0 0
201649.0 337355.0 0
205521.0 333767.0 0
204560.0 337756.0 0
208533.0 337576.0 0
209616.0 333264.0 0
213150.0 335522.0 0
218526.0 334039.0 0
223821.0 336553.0 0
227271.0 333155.0 0
231638.0 335010.0 0
236097.0 335892.0 0
240907.0 336595.0 0
244825.0 337469.0 0
248694.0 336268.0 0
253152.0 335282.0 0
258151.0 333836.0 0
263653.0 334734.0 0
260823.0 337727.0 0
268571.0 335911.0 0
273203.0 333186.0 0
277406.0 335355.0 0
282289.0 334608.0 0
286631.0 333414.0 0
288775.0 337382.0 0
291428.0 333512.0 0
295493.0 333736.0 0
293862.0 337780.0 0
298506.0 333197.0 0
297889.0 336588.0 0
202328.0 340769.0 0
205692.0 341528.0 0
212281.0 339518.0 0
209492.0 342425.0 0
213249.0 342651.0 0
216408.0 339505.0 0
221084.0 340044.0 0
228330.0 337975.0 0
225788.0 341718.0 0
233004.0 340635.0 0
238236.0 339875.0 0
242668.0 341560.0 0
247139.0 339931.0 0
246891.0 343463.0 0
251550.0 340883.0 0
256697.0 339263.0 0
261095.0 341780.0 0
264982.0 339312.0 0
269292.0 340815.0 0
273126.0 337926.0 0
273483.0 342774.0 0
280381.0 339014.0 0
276620.0 339937.0 0
284367.0 338282.0 0
282843.0 342748.0 0
286442.0 341375.0 0
290312.0 341746.0 0
294532.0 341977.0 0
297845.0 340458.0 0
202708.0 344967.0 0
206825.0 345666.0 0
211486.0 346489.0 0
216546.0 344486.0 0
214732.0 347546.0 0
221536.0 344975.0 0
229612.0 344326.0 0
226286.0 346972.0 0
230465.0 348888.0 0
233245.0 345810.0 0
237916.0 344826.0 0
242808.0 346449.0 0
246706.0 347411.0 0
250648.0 346359.0 0
256252.0 345785.0 0
261596.0 346550.0 0
265707.0 344388.0 0
269989.0 345722.0 0
273849.0 347888.0 0
278181.0 344242.0 0
282817.0 347582.0 0
286860.0 344850.0 0
291874.0 346440.0 0
297300.0 345201.0 0
201731.0 348531.0 0
202573.0 352000.0 0
204985.0 348778.0 0
208409.0 349179.0 0
206438.0 352085.0 0
210550.0 352173.0 0
213309.0 350008.0 0
215009.0 353020.0 0
217864.0 349303.0 0
222695.0 350273.0 0
226825.0 351690.0 0
229619.0 353106.0 0
233142.0 352503.0 0
235541.0 349202.0 0
239816.0 349902.0 0
244604.0 351370.0 0
241366.0 353732.0 0
249252.0 350992.0 0
253002.0 350150.0 0
256616.0 352985.0 0
260111.0 350072.0 0
264562.0 349756.0 0
269082.0 350338.0 0
273099.0 353099.0 0
278163.0 349146.0 0
281268.0 351718.0 0
283998.0 352488.0 0
287233.0 349191.0 0
287121.0 352988.0 0
291438.0 350796.0 0
296450.0 350669.0 0
203000.0 356274.0 0
207987.0 355710.0 0
212581.0 355999.0 0
216469.0 356153.0 0
219193.0 353829.0 0
219775.0 357667.0 0
223504.0 354952.0 0
227676.0 356675.0 0
232224.0 356981.0 0
237421.0 354785.0 0
241317.0 356916.0 0
244202.0 356054.0 0
247812.0 355232.0 0
246543.0 358584.0 0
251871.0 354841.0 0
259313.0 357142.0 0
261748.0 353681.0 0
263810.0 358289.0 0
265701.0 353923.0 0
267949.0 358610.0 0
269013.0 355242.0 0
272017.0 357892.0 0
277320.0 353421.0 0
275780.0 357328.0 0
280779.0 356178.0 0
285721.0 357096.0 0
290605.0 354166.0 0
293903.0 355553.0 0
297469.0 355471.0 0
202584.0 361003.0 0
206289.0 359989.0 0
210644.0 360118.0 0
215624.0 360271.0 0
223350.0 359409.0 0
220118.0 361993.0 0
223947.0 363695.0 0
227014.0 361022.0 0
231322.0 361874.0 0
234861.0 364301.0 0
235790.0 360016.0 0
239862.0 359770.0 0
238248.0 363701.0 0
243466.0 359564.0 0
242110.0 363275.0 0
249927.0 359191.0 0
246579.0 362783.0 0
254857.0 359301.0 0
259596.0 361287.0 0
262738.0 362777.0 0
266281.0 362115.0 0
270091.0 361529.0 0
274398.0 361505.0 0
277792.0 359570.0 0
278035.0 363138.0 0
281500.0 360701.0 0
290531.0 359062.0 0
285720.0 362651.0 0
290929.0 363070.0 0
296259.0 360316.0 0
197272.0 368653.0 0
202749.0 364980.0 0
207479.0 364033.0 0
209842.0 366941.0 0
211955.0 364274.0 0
213271.0 367915.0 0
216232.0 365064.0 0
220652.0 366388.0 0
224510.0 368086.0 0
227967.0 365438.0 0
232394.0 367546.0 0
236805.0 367450.0 0
240203.0 367062.0 0
244318.0 366983.0 0
247784.0 367523.0 0
251371.0 364295.0 0
254227.0 368091.0 0
256418.0 364560.0 0
257472.0 368884.0 0
260302.0 365939.0 0
264551.0 366384.0 0
268076.0 364889.0 0
268567.0 368926.0 0
271513.0 365100.0 0
272256.0 368595.0 0
274945.0 365905.0 0
278717.0 366948.0 0
281450.0 364319.0 0
282843.0 367383.0 0
287492.0 366328.0 0
292147.0 366269.0 0
297044.0 364562.0 0
296710.0 368597.0 0
198960.0 378175.0 0
201968.0 371167.0 0
200589.0 374941.0 0
204621.0 371445.0 0
201518.0 368415.0 0
204332.0 374396.0 0
207159.0 371895.0 0
205787.0 368221.0 0
210179.0 370433.0 0
214263.0 371672.0 0
217213.0 369166.0 0
218049.0 373175.0 0
221197.0 370684.0 0
224752.0 372176.0 0
228497.0 370213.0 0
228562.0 374449.0 0
232042.0 372498.0 0
235529.0 371120.0 0
239051.0 370510.0 0
238019.0 374357.0 0
242343.0 369984.0 0
241750.0 373137.0 0
245793.0 371164.0 0
248514.0 373958.0 0
250703.0 370152.0 0
254952.0 371559.0 0
258451.0 372445.0 0
260946.0 369890.0 0
262229.0 374298.0 0
264311.0 370671.0 0
266737.0 373559.0 0
271312.0 372561.0 0
274924.0 369772.0 0
275040.0 373832.0 0
278663.0 370674.0 0
282108.0 371906.0 0
285026.0 369742.0 0
288390.0 369779.0 0
285187.0 373747.0 0
292393.0 370437.0 0
289561.0 373499.0 0
296926.0 372736.0 0
293339.0 373011.0 0
295389.0 376647.0 0
298943.0 376598.0 0
301537.0 377826.0 0
191708.0 382493.0 0
196859.0 379591.0 0
201247.0 379800.0 0
194741.0 381908.0 0
203216.0 377641.0 0
199751.0 381960.0 0
202089.0 383545.0 0
204019.0 381198.0 0
206476.0 378137.0 0
208493.0 374998.0 0
212066.0 374644.0 0
209936.0 378824.0 0
212242.0 377960.0 0
215321.0 375965.0 0
218568.0 377188.0 0
221728.0 378778.0 0
221723.0 374691.0 0
225481.0 376617.0 0
228939.0 379023.0 0
231154.0 376508.0 0
234493.0 375746.0 0
236858.0 379465.0 0
240431.0 377347.0 0
244536.0 375680.0 0
245961.0 379993.0 0
247346.0 377663.0 0
248781.0 381082.0 0
252372.0 374189.0 0
250566.0 377542.0 0
253376.0 377515.0 0
255679.0 375138.0 0
258896.0 375906.0 0
260964.0 379213.0 0
265226.0 378142.0 0
269241.0 376043.0 0
272540.0 377640.0 0
276678.0 377751.0 0
279017.0 374723.0 0
281981.0 377353.0 0
285518.0 378350.0 0
289623.0 378386.0 0
287380.0 376506.0 0
287860.0 380956.0 0
292141.0 375845.0 0
292383.0 380373.0 0
295396.0 380337.0 0
299023.0 379536.0 0
298718.0 382981.0 0
303265.0 380026.0 0
305979.0 381041.0 0
302016.0 382208.0 0
304928.0 384044.0 0
307959.0 383459.0 0
181293.0 389457.0 0
186664.0 385940.0 0
183701.0 387585.0 0
186456.0 389294.0 0
189583.0 384853.0 0
192891.0 386148.0 0
197623.0 384201.0 0
195456.0 387386.0 0
200669.0 386503.0 0
204018.0 387319.0 0
204819.0 384125.0 0
207378.0 381618.0 0
208233.0 386057.0 0
211270.0 382695.0 0
215029.0 380288.0 0
214217.0 385544.0 0
217727.0 383782.0 0
218703.0 380399.0 0
220950.0 382271.0 0
225196.0 380908.0 0
223642.0 384550.0 0
228342.0 381959.0 0
230855.0 382487.0 0
232648.0 379790.0 0
232017.0 385798.0 0
234847.0 383254.0 0
239758.0 381287.0 0
238439.0 384470.0 0
241832.0 383469.0 0
243026.0 380005.0 0
245358.0 383507.0 0
249407.0 385178.0 0
252029.0 380826.0 0
254291.0 384482.0 0
256333.0 379792.0 0
259160.0 383750.0 0
263271.0 383140.0 0
266781.0 382445.0 0
268941.0 379644.0 0
268846.0 385744.0 0
270770.0 382286.0 0
274368.0 381842.0 0
278594.0 381065.0 0
282086.0 381801.0 0
286806.0 383477.0 0
284732.0 381134.0 0
284051.0 384925.0 0
290815.0 383056.0 0
288670.0 386019.0 0
295181.0 383761.0 0
293348.0 386241.0 0
299320.0 386546.0 0
302761.0 385285.0 0
304196.0 387551.0 0
310615.0 385202.0 0
306653.0 387010.0 0
310666.0 388184.0 0
313761.0 385761.0 0
315717.0 388577.0 0
319136.0 389530.0 0
176169.0 392587.0 0
173637.0 394545.0 0
178762.0 390910.0 0
180228.0 393024.0 0
178319.0 394618.0 0
183305.0 391599.0 0
187020.0 392089.0 0
183836.0 394263.0 0
187114.0 394379.0 0
190215.0 389394.0 0
189827.0 392876.0 0
193152.0 390403.0 0
198241.0 389677.0 0
195503.0 392909.0 0
199238.0 393915.0 0
201070.0 391660.0 0
204132.0 390512.0 0
205635.0 393888.0 0
208047.0 389942.0 0
211352.0 387687.0 0
211255.0 391139.0 0
214354.0 389839.0 0
217627.0 388126.0 0
220275.0 386153.0 0
220277.0 389568.0 0
223366.0 388656.0 0
227643.0 385660.0 0
229900.0 389091.0 0
233056.0 390130.0 0
235560.0 387364.0 0
239018.0 389271.0 0
242417.0 386822.0 0
245759.0 387396.0 0
248200.0 390053.0 0
252317.0 388763.0 0
254781.0 391046.0 0
257203.0 387940.0 0
257434.0 391633.0 0
259731.0 390235.0 0
261247.0 387015.0 0
265063.0 386540.0 0
267684.0 389875.0 0
272811.0 385498.0 0
271375.0 389103.0 0
274989.0 388510.0 0
276386.0 385216.0 0
279972.0 384925.0 0
278496.0 388432.0 0
281925.0 388309.0 0
284749.0 389589.0 0
285897.0 387833.0 0
285773.0 391766.0 0
288300.0 390163.0 0
291617.0 389502.0 0
295420.0 391873.0 0
296670.0 388545.0 0
299484.0 391445.0 0
302100.0 389798.0 0
302461.0 393598.0 0
305432.0 392066.0 0
307845.0 389730.0 0
310411.0 392423.0 0
313525.0 391013.0 0
314916.0 394507.0 0
321616.0 390864.0 0
317993.0 392242.0 0
319669.0 393780.0 0
324022.0 392890.0 0
326944.0 394810.0 0
170714.0 395815.0 0
168196.0 397844.0 0
171485.0 398213.0 0
174891.0 396977.0 0
173567.0 399626.0 0
177816.0 397216.0 0
181256.0 395234.0 0
180851.0 397158.0 0
178357.0 399744.0 0
182180.0 399394.0 0
184045.0 396962.0 0
187889.0 396672.0 0
186031.0 398716.0 0
192100.0 394461.0 0
190575.0 397367.0 0
193915.0 397770.0 0
196520.0 396453.0 0
199299.0 395783.0 0
202122.0 394432.0 0
201352.0 397636.0 0
205488.0 397914.0 0
209329.0 393664.0 0
209389.0 396957.0 0
212254.0 395165.0 0
213534.0 393234.0 0
217829.0 393381.0 0
222277.0 392480.0 0
225502.0 393755.0 0
226574.0 390388.0 0
229630.0 393079.0 0
227330.0 396947.0 0
232922.0 394001.0 0
235865.0 392225.0 0
238858.0 394434.0 0
243757.0 392313.0 0
247598.0 395385.0 0
250830.0 393084.0 0
254801.0 395267.0 0
259707.0 395255.0 0
263610.0 391015.0 0
267538.0 393867.0 0
270217.0 392577.0 0
271941.0 396023.0 0
273741.0 392371.0 0
277529.0 391800.0 0
276274.0 395648.0 0
279993.0 396974.0 0
281808.0 392847.0 0
286694.0 395737.0 0
289107.0 393185.0 0
290852.0 396644.0 0
292097.0 393338.0 0
295442.0 397207.0 0
299209.0 395075.0 0
303291.0 396807.0 0
311947.0 396893.0 0
307789.0 396284.0 0
315267.0 397927.0 0
317868.0 396800.0 0
321367.0 397600.0 0
322297.0 394982.0 0
325388.0 397044.0 0
324271.0 399153.0 0
329792.0 396595.0 0
329147.0 399059.0 0
332687.0 398008.0 0
334529.0 399980.0 0
157334.0 404866.0 0
161442.0 401348.0 0
159393.0 402885.0 0
161120.0 404969.0 0
164538.0 400466.0 0
164086.0 404038.0 0
167365.0 403857.0 0
168183.0 400569.0 0
171011.0 401732.0 0
169588.0 404052.0 0
175472.0 401330.0 0
172774.0 403695.0 0
176990.0 403182.0 0
179347.0 402134.0 0
182687.0 402776.0 0
187006.0 401675.0 0
190343.0 400518.0 0
197723.0 399494.0 0
194083.0 401059.0 0
195672.0 403834.0 0
198529.0 402556.0 0
201533.0 401305.0 0
204290.0 402083.0 0
207927.0 401535.0 0
211476.0 399694.0 0
215022.0 397637.0 0
217033.0 401707.0 0
218993.0 397973.0 0
220885.0 401094.0 0
222556.0 396679.0 0
224739.0 400457.0 0
231031.0 396756.0 0
228796.0 400666.0 0
231986.0 399509.0 0
234831.0 396693.0 0
234887.0 401359.0 0
237775.0 398236.0 0
239633.0 401455.0 0
241610.0 397342.0 0
243758.0 400829.0 0
244896.0 397232.0 0
247754.0 400113.0 0
250616.0 397618.0 0
253784.0 399714.0 0
257352.0 400196.0 0
261447.0 400615.0 0
264337.0 396332.0 0
265565.0 399994.0 0
268772.0 398087.0 0
271860.0 400986.0 0
274784.0 399393.0 0
278488.0 401532.0 0
283172.0 400012.0 0
283690.0 396997.0 0
286817.0 400016.0 0
290331.0 399509.0 0
289768.0 403260.0 0
293983.0 401624.0 0
298459.0 403347.0 0
298984.0 399716.0 0
301973.0 399428.0 0
306415.0 400672.0 0
309997.0 401143.0 0
310080.0 404128.0 0
313495.0 400496.0 0
316535.0 404102.0 0
313429.0 403890.0 0
317753.0 401006.0 0
320682.0 399894.0 0
321352.0 403886.0 0
323196.0 401524.0 0
326763.0 403264.0 0
327138.0 400552.0 0
330599.0 401013.0 0
330506.0 404344.0 0
333339.0 402386.0 0
336922.0 403614.0 0
337474.0 401071.0 0
340344.0 402517.0 0
339192.0 405173.0 0
342946.0 404152.0 0
150248.0 408392.0 0
148079.0 409840.0 0
154618.0 405470.0 0
152864.0 407393.0 0
155262.0 409724.0 0
157768.0 408017.0 0
160829.0 407372.0 0
167392.0 406931.0 0
164174.0 407481.0 0
167285.0 410251.0 0
170635.0 406587.0 0
170000.0 409557.0 0
174583.0 405120.0 0
177759.0 405759.0 0
173366.0 407981.0 0
176224.0 408932.0 0
181181.0 406293.0 0
184551.0 408123.0 0
187533.0 405458.0 0
191366.0 403698.0 0
190309.0 408547.0 0
193224.0 406056.0 0
197131.0 406210.0 0
195523.0 408565.0 0
199536.0 404921.0 0
199591.0 407601.0 0
201971.0 404571.0 0
202463.0 407965.0 0
205665.0 405420.0 0
210266.0 404580.0 0
213355.0 406286.0 0
213679.0 402697.0 0
216452.0 405833.0 0
219121.0 404292.0 0
219796.0 407778.0 0
222232.0 404315.0 0
223482.0 407320.0 0
226195.0 404162.0 0
228526.0 406108.0 0
230886.0 403718.0 0
233685.0 406104.0 0
236980.0 404578.0 0
238449.0 406630.0 0
241612.0 405505.0 0
245497.0 404654.0 0
248708.0 404250.0 0
251417.0 402302.0 0
251508.0 406853.0 0
255326.0 404541.0 0
258798.0 404068.0 0
261591.0 406096.0 0
264570.0 403604.0 0
268742.0 403212.0 0
272660.0 404475.0 0
274384.0 402723.0 0
275879.0 404897.0 0
279124.0 405444.0 0
282736.0 403798.0 0
286241.0 404096.0 0
288295.0 406230.0 0
288844.0 409441.0 0
291416.0 406404.0 0
295090.0 406272.0 0
299042.0 407090.0 0
302835.0 403417.0 0
302287.0 407396.0 0
305668.0 408424.0 0
306953.0 405155.0 0
309661.0 407807.0 0
312417.0 407190.0 0
315644.0 406706.0 0
319145.0 406179.0 0
321765.0 407967.0 0
318566.0 408964.0 0
324911.0 406386.0 0
328972.0 407708.0 0
332055.0 408571.0 0
333781.0 406462.0 0
335198.0 404676.0 0
341630.0 406613.0 0
337627.0 407424.0 0
340828.0 409834.0 0
344310.0 407300.0 0
345796.0 405915.0 0
346048.0 409844.0 0
348193.0 407764.0 0
350501.0 409726.0 0
141791.0 413895.0 0
144376.0 413145.0 0
145961.0 410965.0 0
144864.0 416934.0 0
147490.0 413710.0 0
149108.0 412088.0 0
150029.0 414068.0 0
152575.0 413233.0 0
151678.0 410978.0 0
155805.0 412611.0 0
160187.0 410700.0 0
159298.0 413456.0 0
163751.0 410871.0 0
164404.0 414011.0 0
171681.0 411571.0 0
168491.0 413191.0 0
174467.0 411418.0 0
172620.0 413951.0 0
175720.0 413282.0 0
179308.0 410966.0 0
187264.0 410368.0 0
183154.0 411269.0 0
186498.0 413162.0 0
189698.0 413215.0 0
193096.0 411637.0 0
196549.0 412560.0 0
198258.0 410195.0 0
201208.0 412310.0 0
205669.0 410670.0 0
209044.0 408027.0 0
209278.0 412476.0 0
212662.0 409640.0 0
216524.0 410001.0 0
219516.0 411905.0 0
222310.0 410950.0 0
226118.0 408827.0 0
230073.0 408763.0 0
227140.0 411833.0 0
233096.0 409900.0 0
235348.0 412163.0 0
236421.0 408776.0 0
240236.0 410005.0 0
244220.0 408895.0 0
247556.0 408005.0 0
250050.0 410358.0 0
252836.0 411203.0 0
254866.0 408709.0 0
258581.0 409122.0 0
261754.0 411418.0 0
262741.0 409571.0 0
266050.0 407908.0 0
268729.0 410708.0 0
270298.0 407038.0 0
271686.0 410485.0 0
274406.0 408159.0 0
273742.0 412524.0 0
278139.0 407895.0 0
277299.0 411913.0 0
280469.0 410196.0 0
281820.0 407257.0 0
281733.0 413334.0 0
283170.0 410313.0 0
285943.0 412582.0 0
285464.0 407759.0 0
290702.0 414019.0 0
292841.0 410197.0 0
295067.0 413447.0 0
296624.0 409729.0 0
297901.0 412798.0 0
300254.0 410352.0 0
303738.0 411494.0 0
306981.0 413797.0 0
308666.0 410385.0 0
310610.0 414369.0 0
315438.0 410080.0 0
312132.0 411329.0 0
313862.0 414647.0 0
316394.0 413613.0 0
321639.0 411021.0 0
318777.0 412247.0 0
319978.0 414562.0 0
325326.0 410545.0 0
322587.0 414380.0 0
325695.0 414070.0 0
329657.0 411164.0 0
328830.0 414282.0 0
333359.0 412396.0 0
335513.0 409796.0 0
337280.0 414026.0 0
335515.0 414804.0 0
338370.0 411669.0 0
341854.0 413994.0 0
339546.0 414556.0 0
343489.0 411405.0 0
346633.0 414805.0 0
348434.0 412478.0 0
351235.0 414136.0 0
353157.0 411307.0 0
355370.0 413107.0 0
358514.0 413686.0 0
134786.0 418468.0 0
132282.0 420579.0 0
137352.0 417018.0 0
139722.0 415763.0 0
138501.0 419735.0 0
140781.0 420043.0 0
141948.0 417605.0 0
145344.0 420510.0 0
148113.0 416235.0 0
150449.0 418299.0 0
152197.0 415183.0 0
156103.0 415875.0 0
153899.0 418719.0 0
161193.0 415703.0 0
158641.0 418248.0 0
160573.0 420110.0 0
162818.0 417988.0 0
165881.0 416997.0 0
169239.0 416033.0 0
169631.0 419411.0 0
172699.0 416449.0 0
176208.0 416042.0 0
179462.0 414873.0 0
179998.0 418451.0 0
182925.0 414776.0 0
183499.0 417741.0 0
186928.0 416334.0 0
190322.0 416267.0 0
187487.0 418968.0 0
193630.0 415460.0 0
193903.0 418500.0 0
197626.0 415631.0 0
201515.0 416422.0 0
205396.0 415224.0 0
206369.0 419354.0 0
209831.0 416078.0 0
213271.0 413622.0 0
213825.0 417141.0 0
216893.0 413977.0 0
221018.0 415710.0 0
217116.0 417563.0 0
224572.0 412666.0 0
225452.0 416384.0 0
230453.0 414088.0 0
234724.0 415455.0 0
238331.0 413980.0 0
241380.0 417514.0 0
242824.0 413336.0 0
245735.0 417526.0 0
246785.0 412680.0 0
250774.0 415224.0 0
255956.0 413458.0 0
260148.0 414428.0 0
263463.0 417053.0 0
265304.0 413055.0 0
270427.0 414687.0 0
275438.0 416142.0 0
279500.0 415283.0 0
283690.0 416733.0 0
287376.0 416558.0 0
293867.0 416706.0 0
297431.0 416645.0 0
300962.0 414409.0 0
300889.0 418663.0 0
303999.0 416729.0 0
307989.0 417826.0 0
311338.0 417891.0 0
315229.0 418151.0 0
318418.0 416929.0 0
322468.0 417434.0 0
325553.0 416925.0 0
332141.0 415544.0 0
329124.0 417036.0 0
333346.0 418340.0 0
336160.0 417476.0 0
338131.0 416510.0 0
340708.0 417686.0 0
339965.0 420385.0 0
344049.0 416632.0 0
344955.0 419523.0 0
351781.0 416697.0 0
348215.0 420303.0 0
348915.0 417513.0 0
355171.0 416036.0 0
353041.0 419449.0 0
357483.0 418744.0 0
360329.0 416185.0 0
362493.0 419716.0 0
363191.0 416563.0 0
365159.0 418054.0 0
367288.0 420232.0 0
123599.0 425693.0 0
126305.0 424310.0 0
129812.0 422834.0 0
136202.0 421945.0 0
133810.0 423784.0 0
138073.0 424384.0 0
142169.0 422581.0 0
143078.0 425484.0 0
145817.0 424681.0 0
148605.0 422367.0 0
156031.0 421734.0 0
152388.0 423029.0 0
159456.0 422404.0 0
163401.0 421192.0 0
166616.0 420719.0 0
162348.0 423618.0 0
165040.0 425085.0 0
168320.0 423621.0 0
172632.0 420152.0 0
176499.0 419572.0 0
171669.0 423747.0 0
175276.0 423657.0 0
178844.0 422561.0 0
181997.0 421582.0 0
185124.0 420853.0 0
187029.0 423954.0 0
190552.0 420580.0 0
194035.0 422739.0 0
197079.0 419643.0 0
201558.0 420592.0 0
205445.0 423319.0 0
208234.0 423295.0 0
210876.0 420441.0 0
215099.0 421321.0 0
219341.0 419903.0 0
222466.0 419727.0 0
224278.0 423849.0 0
225088.0 420270.0 0
228699.0 419212.0 0
227476.0 421998.0 0
232564.0 418923.0 0
234903.0 422331.0 0
236814.0 418322.0 0
238916.0 421840.0 0
243084.0 421362.0 0
248759.0 419117.0 0
246399.0 422151.0 0
250171.0 422949.0 0
252136.0 419760.0 0
254621.0 417491.0 0
257947.0 418441.0 0
261000.0 419248.0 0
263903.0 422110.0 0
267599.0 418629.0 0
270416.0 422265.0 0
272346.0 418973.0 0
273953.0 423123.0 0
275958.0 420294.0 0
280215.0 419355.0 0
284263.0 421618.0 0
286362.0 419539.0 0
288484.0 423636.0 0
290328.0 419215.0 0
292797.0 423674.0 0
294212.0 420185.0 0
297731.0 420664.0 0
296032.0 423434.0 0
300937.0 421836.0 0
305202.0 421321.0 0
308153.0 424681.0 0
309711.0 421647.0 0
313315.0 421553.0 0
316886.0 421400.0 0
316190.0 423715.0 0
320069.0 420564.0 0
323764.0 420383.0 0
326885.0 419449.0 0
324397.0 423475.0 0
327557.0 422665.0 0
330592.0 419973.0 0
331834.0 423212.0 0
337010.0 420298.0 0
335009.0 421889.0 0
336863.0 424870.0 0
339226.0 423640.0 0
342697.0 425042.0 0
343339.0 421882.0 0
346351.0 422904.0 0
348729.0 425184.0 0
351610.0 422765.0 0
355606.0 421935.0 0
357386.0 424692.0 0
359579.0 421762.0 0
361671.0 424089.0 0
364726.0 422347.0 0
366039.0 425263.0 0
370035.0 422088.0 0
373245.0 422877.0 0
369784.0 425223.0 0
374915.0 425117.0 0
118423.0 427920.0 0
120515.0 427110.0 0
116533.0 430069.0 0
119192.0 430305.0 0
122539.0 428667.0 0
127057.0 428302.0 0
130992.0 426663.0 0
131423.0 430003.0 0
134606.0 426616.0 0
135908.0 429045.0 0
139613.0 427436.0 0
144736.0 427906.0 0
141675.0 429369.0 0
147065.0 427044.0 0
149734.0 427078.0 0
152937.0 426038.0 0
156608.0 425557.0 0
151525.0 429626.0 0
154935.0 429049.0 0
160095.0 426102.0 0
158697.0 429820.0 0
163458.0 428583.0 0
168332.0 427013.0 0
171890.0 427414.0 0
175939.0 427233.0 0
179827.0 425973.0 0
181180.0 429253.0 0
183023.0 424375.0 0
183924.0 427214.0 0
190769.0 425363.0 0
187328.0 428359.0 0
193722.0 427294.0 0
198015.0 425227.0 0
202771.0 426166.0 0
207336.0 427532.0 0
211190.0 424595.0 0
214463.0 425887.0 0
217611.0 423510.0 0
218380.0 427094.0 0
220697.0 423202.0 0
222039.0 427896.0 0
226194.0 428495.0 0
227785.0 425006.0 0
230085.0 427037.0 0
230964.0 423110.0 0
233175.0 425369.0 0
236825.0 426070.0 0
241235.0 424876.0 0
244302.0 424484.0 0
243409.0 427417.0 0
247042.0 426801.0 0
251518.0 427300.0 0
255428.0 422952.0 0
259167.0 427625.0 0
259894.0 423312.0 0
263226.0 427590.0 0
267327.0 424425.0 0
271411.0 427007.0 0
275493.0 426869.0 0
278610.0 424351.0 0
281470.0 427893.0 0
282189.0 424058.0 0
284627.0 426315.0 0
292452.0 427928.0 0
296210.0 426872.0 0
298996.0 424449.0 0
299911.0 428388.0 0
302874.0 425382.0 0
306287.0 426692.0 0
312480.0 425412.0 0
309700.0 427816.0 0
313754.0 429370.0 0
317161.0 427023.0 0
320517.0 424478.0 0
319928.0 429620.0 0
322462.0 427841.0 0
325528.0 426403.0 0
327415.0 429222.0 0
329517.0 426214.0 0
332991.0 429312.0 0
334152.0 425792.0 0
337360.0 429020.0 0
340255.0 427486.0 0
342494.0 430167.0 0
345947.0 427398.0 0
349561.0 430149.0 0
350937.0 427740.0 0
353864.0 430085.0 0
354091.0 426310.0 0
357326.0 429770.0 0
362171.0 427294.0 0
358907.0 427556.0 0
366058.0 428295.0 0
370415.0 428154.0 0
377767.0 426757.0 0
373843.0 428415.0 0
377966.0 429623.0 0
380595.0 427093.0 0
382218.0 428699.0 0
381114.0 431192.0 0
384720.0 430678.0 0
105910.0 436206.0 0
109186.0 435093.0 0
111272.0 432695.0 0
114424.0 432229.0 0
114351.0 435207.0 0
120140.0 432754.0 0
117754.0 433776.0 0
120953.0 435664.0 0
122863.0 431495.0 0
123419.0 434652.0 0
126636.0 431307.0 0
130128.0 432135.0 0
126768.0 434676.0 0
130710.0 435713.0 0
133780.0 431184.0 0
134784.0 434043.0 0
137971.0 431392.0 0
137720.0 435893.0 0
140804.0 433413.0 0
144618.0 431360.0 0
146303.0 434440.0 0
147907.0 430335.0 0
150461.0 433326.0 0
154495.0 432876.0 0
158076.0 433254.0 0
161555.0 432356.0 0
164472.0 432621.0 0
167532.0 430181.0 0
167847.0 433741.0 0
171017.0 431169.0 0
174432.0 430751.0 0
173495.0 433673.0 0
178032.0 430684.0 0
176450.0 433628.0 0
180185.0 433258.0 0
184180.0 431790.0 0
187965.0 433044.0 0
190616.0 429582.0 0
191750.0 433395.0 0
193947.0 430752.0 0
195999.0 433818.0 0
196418.0 429892.0 0
199463.0 430109.0 0
199820.0 434264.0 0
202908.0 429501.0 0
202267.0 432169.0 0
205119.0 431439.0 0
208248.0 432639.0 0
211312.0 428976.0 0
212297.0 433464.0 0
215362.0 430269.0 0
219016.0 431609.0 0
222959.0 432303.0 0
226739.0 432686.0 0
229841.0 430787.0 0
233121.0 428726.0 0
235879.0 430891.0 0
239752.0 429733.0 0
244943.0 432163.0 0
249782.0 431407.0 0
253623.0 431787.0 0
255540.0 428023.0 0
257259.0 431320.0 0
260933.0 432700.0 0
267699.0 428933.0 0
265486.0 432511.0 0
270501.0 432437.0 0
274257.0 430658.0 0
277275.0 432164.0 0
278320.0 429142.0 0
280834.0 431731.0 0
284140.0 430954.0 0
288341.0 429170.0 0
291515.0 432703.0 0
293838.0 430965.0 0
297013.0 431113.0 0
303599.0 429607.0 0
300994.0 432852.0 0
307371.0 429995.0 0
305523.0 433478.0 0
311244.0 430680.0 0
309509.0 433572.0 0
313764.0 433596.0 0
316784.0 431415.0 0
321837.0 433082.0 0
324576.0 430266.0 0
326638.0 433175.0 0
329553.0 431313.0 0
330626.0 433668.0 0
334078.0 433700.0 0
337897.0 432680.0 0
341010.0 432655.0 0
343538.0 434642.0 0
345893.0 432277.0 0
348258.0 435236.0 0
350867.0 433026.0 0
354465.0 433626.0 0
358687.0 432630.0 0
362039.0 430751.0 0
361822.0 434392.0 0
365969.0 431405.0 0
365650.0 435090.0 0
369818.0 431442.0 0
373244.0 431578.0 0
370149.0 435466.0 0
373199.0 434560.0 0
376100.0 431587.0 0
376708.0 435182.0 0
379703.0 433748.0 0
382956.0 433760.0 0
381197.0 435858.0 0
386871.0 432942.0 0
385299.0 435624.0 0
390031.0 434239.0 0
393534.0 436350.0 0
96088.6 441990.0 0
101085.0 439385.0 0
103544.0 437947.0 0
104822.0 440353.0 0
107865.0 439045.0 0
111324.0 436760.0 0
113909.0 438320.0 0
117825.0 436187.0 0
117470.0 439034.0 0
121585.0 438317.0 0
124980.0 437763.0 0
128395.0 438823.0 0
134010.0 437654.0 0
132074.0 440334.0 0
136108.0 438519.0 0
139554.0 438837.0 0
142598.0 436534.0 0
143185.0 440382.0 0
146483.0 438525.0 0
150303.0 437117.0 0
154494.0 436152.0 0
153116.0 439061.0 0
161103.0 436000.0 0
157469.0 436805.0 0
164576.0 435782.0 0
161284.0 439529.0 0
165244.0 439535.0 0
170565.0 435522.0 0
167627.0 436679.0 0
169438.0 439609.0 0
173980.0 437229.0 0
178404.0 437023.0 0
182463.0 435359.0 0
182091.0 438949.0 0
185209.0 436056.0 0
188533.0 436731.0 0
191966.0 437022.0 0
195140.0 437667.0 0
198995.0 438518.0 0
204168.0 436009.0 0
208752.0 436797.0 0
212842.0 437830.0 0
216341.0 434864.0 0
220242.0 436093.0 0
225069.0 437391.0 0
229219.0 434593.0 0
230130.0 437747.0 0
232786.0 433682.0 0
234104.0 438045.0 0
237209.0 434619.0 0
240498.0 433376.0 0
241621.0 436779.0 0
248783.0 435311.0 0
245638.0 437997.0 0
252194.0 435228.0 0
256262.0 435016.0 0
264135.0 436069.0 0
268026.0 436077.0 0
271826.0 436055.0 0
274630.0 434330.0 0
278879.0 435361.0 0
283555.0 435859.0 0
287693.0 434144.0 0
287588.0 439032.0 0
291472.0 437512.0 0
298453.0 434921.0 0
295045.0 434950.0 0
297663.0 437872.0 0
300718.0 437332.0 0
303708.0 436248.0 0
307991.0 438012.0 0
311572.0 439672.0 0
311810.0 436488.0 0
315198.0 438447.0 0
318104.0 435401.0 0
319590.0 439421.0 0
322071.0 437541.0 0
324895.0 436141.0 0
326284.0 439320.0 0
328881.0 436184.0 0
332456.0 436781.0 0
334452.0 438538.0 0
337170.0 436893.0 0
340554.0 435995.0 0
342166.0 439178.0 0
345485.0 437817.0 0
349868.0 438922.0 0
352382.0 436712.0 0
355174.0 439272.0 0
357454.0 436545.0 0
359738.0 440403.0 0
360806.0 437596.0 0
364937.0 439333.0 0
368918.0 439037.0 0
372626.0 439546.0 0
374279.0 437452.0 0
378473.0 438777.0 0
383193.0 437198.0 0
382033.0 440436.0 0
385438.0 440163.0 0
386833.0 438186.0 0
390375.0 437921.0 0
393140.0 440419.0 0
396111.0 437797.0 0
398381.0 440265.0 0
94267.7 444156.0 0
91613.4 445234.0 0
99105.1 441528.0 0
99448.4 445024.0 0
103538.0 442802.0 0
103157.0 445460.0 0
109223.0 441725.0 0
106779.0 444294.0 0
109222.0 446401.0 0
110814.0 444559.0 0
112526.0 441132.0 0
114362.0 443237.0 0
118074.0 442850.0 0
120874.0 445297.0 0
121814.0 441257.0 0
125007.0 440839.0 0
123381.0 443688.0 0
128417.0 442264.0 0
126062.0 445643.0 0
132571.0 443184.0 0
135078.0 441455.0 0
130945.0 444430.0 0
134449.0 444392.0 0
138425.0 442212.0 0
137401.0 445916.0 0
141020.0 446034.0 0
141815.0 443166.0 0
145560.0 443947.0 0
149119.0 441654.0 0
148942.0 444735.0 0
153010.0 443429.0 0
157210.0 440275.0 0
157399.0 444239.0 0
161033.0 443527.0 0
164989.0 443189.0 0
169037.0 443888.0 0
172952.0 440746.0 0
172274.0 443290.0 0
176841.0 441405.0 0
180547.0 442435.0 0
183948.0 442655.0 0
186156.0 439752.0 0
189691.0 440534.0 0
192747.0 440183.0 0
191886.0 443842.0 0
195605.0 441616.0 0
198551.0 443433.0 0
202187.0 441162.0 0
206158.0 439938.0 0
207653.0 442215.0 0
209680.0 440380.0 0
213336.0 442551.0 0
216991.0 439110.0 0
217960.0 443398.0 0
220848.0 440694.0 0
224367.0 442937.0 0
228009.0 441143.0 0
231700.0 441780.0 0
235441.0 442342.0 0
238138.0 439374.0 0
238893.0 443338.0 0
242328.0 441791.0 0
249751.0 438864.0 0
246868.0 442178.0 0
253951.0 439617.0 0
250204.0 442406.0 0
260094.0 439000.0 0
256501.0 443305.0 0
263868.0 443327.0 0
265797.0 439203.0 0
267652.0 442666.0 0
270436.0 439849.0 0
274136.0 443205.0 0
275623.0 438955.0 0
280642.0 440144.0 0
284298.0 440702.0 0
287236.0 443128.0 0
291163.0 442799.0 0
295138.0 440174.0 0
299908.0 441925.0 0
304343.0 440142.0 0
304949.0 443927.0 0
309556.0 442995.0 0
313424.0 442323.0 0
317792.0 442825.0 0
321644.0 444235.0 0
323147.0 441141.0 0
324833.0 444511.0 0
327692.0 443285.0 0
330583.0 440204.0 0
331648.0 443735.0 0
338502.0 440785.0 0
334683.0 441990.0 0
338103.0 444492.0 0
341818.0 442179.0 0
341417.0 444805.0 0
344634.0 442600.0 0
347334.0 441083.0 0
349113.0 443605.0 0
352120.0 441670.0 0
354668.0 444670.0 0
357409.0 442202.0 0
362381.0 442254.0 0
360290.0 443819.0 0
364108.0 445506.0 0
366925.0 443235.0 0
368171.0 445873.0 0
370542.0 442721.0 0
376011.0 441339.0 0
380015.0 442914.0 0
373821.0 444303.0 0
378060.0 444239.0 0
380874.0 444609.0 0
383764.0 444217.0 0
389194.0 441313.0 0
386914.0 443102.0 0
386033.0 446305.0 0
392297.0 443868.0 0
389805.0 445541.0 0
395615.0 442190.0 0
394565.0 446201.0 0
397428.0 444721.0 0
401278.0 442262.0 0
401662.0 445647.0 0
404745.0 443139.0 0
407016.0 445450.0 0
84120.3 451176.0 0
87103.1 449132.0 0
89594.6 447119.0 0
89273.1 451321.0 0
92675.8 448959.0 0
96097.6 446778.0 0
97373.6 450159.0 0
105379.0 448244.0 0
101210.0 448689.0 0
109103.0 449087.0 0
113089.0 446404.0 0
112300.0 449762.0 0
116688.0 446977.0 0
115973.0 450442.0 0
119809.0 447955.0 0
119329.0 450554.0 0
122729.0 447726.0 0
129539.0 446847.0 0
126302.0 449356.0 0
129556.0 449360.0 0
132702.0 446620.0 0
135226.0 448103.0 0
139068.0 449469.0 0
143649.0 447947.0 0
147671.0 447367.0 0
150421.0 446274.0 0
152928.0 447560.0 0
155659.0 446862.0 0
158818.0 447325.0 0
162391.0 447439.0 0
166238.0 446981.0 0
169113.0 449079.0 0
171224.0 446456.0 0
172489.0 448496.0 0
174428.0 445502.0 0
175240.0 449430.0 0
178542.0 446197.0 0
182691.0 446083.0 0
184488.0 448990.0 0
187577.0 444916.0 0
187746.0 449207.0 0
191396.0 448032.0 0
195319.0 446266.0 0
198412.0 448289.0 0
200735.0 445352.0 0
202074.0 448701.0 0
204769.0 444483.0 0
209388.0 444526.0 0
211758.0 448197.0 0
215202.0 446095.0 0
218110.0 447123.0 0
220929.0 444936.0 0
220749.0 448465.0 0
224204.0 447441.0 0
228604.0 445962.0 0
233249.0 445973.0 0
236814.0 445573.0 0
240487.0 447074.0 0
244218.0 445531.0 0
248301.0 446817.0 0
252791.0 444696.0 0
255754.0 447194.0 0
259805.0 445765.0 0
263419.0 447579.0 0
266800.0 446700.0 0
270739.0 445106.0 0
274937.0 447656.0 0
278847.0 444719.0 0
281645.0 448661.0 0
283783.0 444913.0 0
288621.0 447353.0 0
292637.0 447540.0 0
295271.0 444500.0 0
296243.0 449067.0 0
298833.0 445927.0 0
300087.0 448990.0 0
302562.0 446618.0 0
306323.0 448297.0 0
307830.0 446022.0 0
310324.0 448007.0 0
314429.0 446545.0 0
319391.0 447143.0 0
323464.0 447611.0 0
326934.0 447335.0 0
330591.0 446533.0 0
329387.0 449772.0 0
333024.0 449854.0 0
335123.0 446297.0 0
339215.0 447703.0 0
343564.0 447649.0 0
346380.0 445411.0 0
346485.0 449319.0 0
348760.0 447691.0 0
351207.0 449025.0 0
351361.0 446345.0 0
354071.0 448279.0 0
358061.0 445925.0 0
357078.0 448615.0 0
361095.0 446542.0 0
360995.0 450083.0 0
366736.0 447412.0 0
364637.0 449805.0 0
369010.0 449326.0 0
371192.0 446991.0 0
376333.0 446668.0 0
374277.0 449841.0 0
379007.0 448050.0 0
381473.0 446891.0 0
382680.0 450781.0 0
384857.0 448360.0 0
387848.0 447045.0 0
387736.0 449738.0 0
390672.0 448556.0 0
392773.0 448015.0 0
396697.0 449018.0 0
394504.0 450982.0 0
399270.0 447393.0 0
401687.0 449779.0 0
404150.0 447540.0 0
406269.0 450107.0 0
408954.0 450974.0 0
409898.0 447537.0 0
412987.0 449268.0 0
416043.0 450394.0 0
77358.8 454045.0 0
80826.4 452828.0 0
81165.4 455933.0 0
86256.1 454338.0 0
90097.0 454370.0 0
93171.8 451869.0 0
92068.0 456874.0 0
95024.3 453999.0 0
98383.0 453226.0 0
101905.0 452408.0 0
102246.0 455427.0 0
105518.0 452198.0 0
108977.0 451902.0 0
106190.0 455348.0 0
110111.0 454479.0 0
112415.0 452526.0 0
112971.0 456073.0 0
115786.0 453774.0 0
119512.0 453554.0 0
123118.0 451488.0 0
123366.0 455978.0 0
128093.0 451743.0 0
126235.0 453943.0 0
130686.0 454178.0 0
132390.0 450390.0 0
134489.0 454082.0 0
135872.0 450921.0 0
138276.0 453588.0 0
141591.0 451319.0 0
142237.0 454457.0 0
145586.0 455510.0 0
145931.0 451511.0 0
150681.0 450777.0 0
148772.0 455051.0 0
155878.0 451049.0 0
152515.0 454744.0 0
155629.0 455127.0 0
160135.0 450673.0 0
158455.0 454158.0 0
164777.0 451180.0 0
161414.0 453916.0 0
168329.0 453110.0 0
171976.0 451505.0 0
175353.0 453491.0 0
180010.0 451043.0 0
185115.0 453234.0 0
189912.0 451973.0 0
194637.0 451324.0 0
199150.0 452562.0 0
203173.0 452285.0 0
206805.0 448925.0 0
209671.0 452163.0 0
206558.0 453519.0 0
213175.0 452714.0 0
215413.0 449222.0 0
218012.0 452132.0 0
223115.0 451730.0 0
226993.0 450599.0 0
229158.0 453512.0 0
231192.0 450190.0 0
236017.0 449979.0 0
244289.0 449804.0 0
240518.0 451617.0 0
248227.0 452869.0 0
252090.0 449567.0 0
255501.0 451094.0 0
258123.0 449796.0 0
261324.0 450983.0 0
265447.0 450888.0 0
270701.0 450121.0 0
275084.0 451553.0 0
278589.0 450061.0 0
282685.0 453408.0 0
285037.0 449438.0 0
287879.0 453243.0 0
291019.0 450680.0 0
293416.0 450845.0 0
296082.0 453338.0 0
299599.0 452326.0 0
303792.0 451641.0 0
308997.0 453229.0 0
313265.0 450661.0 0
315440.0 453226.0 0
318109.0 450654.0 0
322696.0 451232.0 0
326621.0 450977.0 0
330611.0 453263.0 0
337234.0 450568.0 0
334596.0 453041.0 0
338013.0 455090.0 0
341634.0 450376.0 0
340041.0 452517.0 0
342700.0 454669.0 0
345073.0 451978.0 0
349339.0 450961.0 0
352302.0 450230.0 0
352820.0 454017.0 0
357056.0 452454.0 0
354330.0 450607.0 0
361221.0 454659.0 0
364403.0 453366.0 0
367639.0 452263.0 0
371288.0 452398.0 0
378742.0 451919.0 0
375344.0 454624.0 0
383902.0 454213.0 0
380688.0 455822.0 0
386514.0 452118.0 0
389038.0 454599.0 0
391491.0 452189.0 0
394466.0 455731.0 0
397046.0 453809.0 0
399715.0 456371.0 0
399265.0 451801.0 0
401703.0 454099.0 0
403515.0 451902.0 0
404624.0 455975.0 0
406255.0 453545.0 0
409359.0 453637.0 0
411782.0 452337.0 0
412991.0 456177.0 0
413392.0 453732.0 0
415792.0 453964.0 0
418966.0 452672.0 0
421254.0 456500.0 0
421845.0 453750.0 0
424392.0 455031.0 0
426671.0 456012.0 0
68777.9 460625.0 0
70679.4 457463.0 0
74274.9 457082.0 0
72619.8 460558.0 0
77725.4 456884.0 0
78483.5 459596.0 0
76097.1 460617.0 0
84687.5 457456.0 0
81170.6 459257.0 0
83613.2 461066.0 0
88916.7 456979.0 0
87644.1 459614.0 0
91332.0 460608.0 0
95200.6 456828.0 0
98956.9 456737.0 0
97829.0 459761.0 0
95163.2 460129.0 0
103936.0 457950.0 0
101286.0 459269.0 0
102567.0 461708.0 0
108576.0 458066.0 0
111728.0 459583.0 0
115019.0 460100.0 0
116975.0 457497.0 0
120170.0 456565.0 0
121039.0 459447.0 0
124465.0 459562.0 0
127637.0 456886.0 0
129074.0 460273.0 0
131695.0 457398.0 0
135492.0 457482.0 0
139538.0 457369.0 0
141265.0 460610.0 0
143524.0 457927.0 0
146721.0 458095.0 0
150418.0 458011.0 0
154061.0 458373.0 0
158097.0 457557.0 0
165002.0 455399.0 0
161691.0 457261.0 0
167905.0 456901.0 0
170063.0 459922.0 0
171274.0 455369.0 0
174820.0 458540.0 0
178377.0 455580.0 0
179410.0 458900.0 0
181488.0 455527.0 0
183896.0 458856.0 0
188189.0 456478.0 0
191504.0 459536.0 0
192061.0 455209.0 0
195523.0 456826.0 0
199268.0 456199.0 0
203390.0 456873.0 0
209488.0 456663.0 0
214895.0 457585.0 0
220777.0 456323.0 0
225694.0 455076.0 0
229367.0 457963.0 0
233199.0 454958.0 0
237520.0 453915.0 0
236840.0 457944.0 0
239984.0 455377.0 0
243548.0 454638.0 0
246318.0 458924.0 0
250579.0 457379.0 0
253242.0 454280.0 0
257929.0 454737.0 0
254678.0 459011.0 0
263370.0 456244.0 0
268014.0 454175.0 0
267951.0 457731.0 0
272754.0 455953.0 0
277913.0 454504.0 0
280867.0 458613.0 0
285891.0 458686.0 0
289853.0 457633.0 0
292482.0 454710.0 0
292931.0 459305.0 0
296742.0 457843.0 0
302103.0 455090.0 0
299406.0 455579.0 0
301519.0 458577.0 0
305001.0 456446.0 0
308574.0 458885.0 0
313039.0 454882.0 0
312372.0 458109.0 0
318217.0 454846.0 0
315967.0 456780.0 0
319236.0 458129.0 0
321560.0 455096.0 0
323715.0 459336.0 0
326477.0 455377.0 0
330534.0 457233.0 0
333992.0 456175.0 0
337527.0 459375.0 0
341239.0 458151.0 0
343559.0 460087.0 0
348202.0 455117.0 0
345145.0 457999.0 0
353176.0 457993.0 0
356976.0 456407.0 0
356685.0 460210.0 0
360560.0 458951.0 0
364348.0 457228.0 0
367286.0 455835.0 0
367801.0 459186.0 0
371263.0 456515.0 0
377838.0 457610.0 0
374630.0 459364.0 0
379397.0 460854.0 0
382818.0 459199.0 0
386269.0 457329.0 0
391904.0 457637.0 0
389456.0 460812.0 0
394637.0 461584.0 0
397258.0 458864.0 0
402308.0 458045.0 0
400152.0 461076.0 0
404099.0 461349.0 0
409832.0 456695.0 0
406828.0 458130.0 0
414800.0 458613.0 0
411295.0 460132.0 0
417955.0 456824.0 0
419681.0 459837.0 0
423587.0 457329.0 0
422813.0 459926.0 0
428835.0 457881.0 0
426357.0 459279.0 0
429331.0 461752.0 0
431107.0 459722.0 0
433771.0 461448.0 0
58524.3 465776.0 0
61856.6 464412.0 0
65166.4 462418.0 0
69220.8 463971.0 0
66111.5 465158.0 0
73548.7 463853.0 0
70778.2 466814.0 0
77342.6 463439.0 0
79200.4 466102.0 0
80815.6 462690.0 0
83141.7 466125.0 0
86007.2 463041.0 0
89645.8 464549.0 0
87317.8 466866.0 0
93764.8 463370.0 0
99397.5 461965.0 0
96565.8 463398.0 0
101634.0 465154.0 0
105961.0 461170.0 0
109365.0 462437.0 0
105798.0 465061.0 0
108985.0 465014.0 0
112359.0 463560.0 0
118618.0 461144.0 0
115426.0 463197.0 0
118402.0 463799.0 0
121403.0 462887.0 0
125399.0 464066.0 0
130281.0 464185.0 0
133148.0 460828.0 0
134550.0 464350.0 0
137416.0 461217.0 0
137985.0 464376.0 0
144887.0 461314.0 0
141057.0 464195.0 0
145049.0 465050.0 0
148331.0 460548.0 0
148020.0 463085.0 0
151785.0 462010.0 0
154275.0 465347.0 0
159978.0 460641.0 0
156123.0 461509.0 0
159345.0 464918.0 0
164624.0 460571.0 0
168591.0 464079.0 0
173161.0 463057.0 0
177354.0 462577.0 0
180996.0 462560.0 0
184667.0 464357.0 0
187643.0 460974.0 0
189659.0 464255.0 0
194683.0 462843.0 0
198805.0 460053.0 0
199047.0 464005.0 0
202477.0 462175.0 0
206564.0 460416.0 0
210770.0 462125.0 0
215124.0 462549.0 0
218848.0 460773.0 0
221358.0 463797.0 0
224598.0 460125.0 0
229259.0 462950.0 0
233202.0 460388.0 0
237012.0 462372.0 0
241199.0 459357.0 0
243575.0 463207.0 0
240184.0 463103.0 0
247275.0 463479.0 0
250773.0 461717.0 0
256931.0 461856.0 0
259179.0 459501.0 0
262659.0 461415.0 0
266354.0 461162.0 0
270185.0 460103.0 0
274030.0 461599.0 0
276769.0 458744.0 0
278250.0 462961.0 0
282723.0 463395.0 0
287093.0 464079.0 0
289876.0 461368.0 0
292808.0 462800.0 0
296134.0 461866.0 0
299232.0 461133.0 0
302762.0 462808.0 0
305190.0 460054.0 0
307625.0 464441.0 0
312083.0 462403.0 0
315885.0 460243.0 0
315864.0 464146.0 0
320219.0 462617.0 0
325167.0 464041.0 0
328530.0 461114.0 0
333550.0 460056.0 0
332969.0 464388.0 0
337351.0 463468.0 0
341543.0 462570.0 0
345865.0 462209.0 0
349415.0 465048.0 0
349492.0 459976.0 0
353320.0 462673.0 0
357294.0 464067.0 0
359881.0 462384.0 0
361513.0 465152.0 0
364571.0 461530.0 0
367716.0 464768.0 0
370854.0 461759.0 0
376301.0 463329.0 0
384703.0 462192.0 0
379719.0 465338.0 0
381959.0 463434.0 0
385773.0 461001.0 0
387313.0 463935.0 0
391672.0 464770.0 0
398743.0 463842.0 0
395685.0 466165.0 0
402331.0 464388.0 0
400567.0 466148.0 0
408387.0 461773.0 0
406248.0 464889.0 0
409989.0 464778.0 0
413024.0 462896.0 0
416362.0 462049.0 0
416371.0 465830.0 0
419183.0 464625.0 0
420567.0 462709.0 0
423414.0 463621.0 0
425806.0 462084.0 0
428064.0 463894.0 0
426342.0 465772.0 0
432274.0 463854.0 0
430878.0 466246.0 0
435021.0 465195.0 0
436632.0 462903.0 0
439012.0 464826.0 0
437320.0 467285.0 0
441744.0 466504.0 0
48027.5 472529.0 0
50818.1 470594.0 0
55533.1 468713.0 0
59110.9 468260.0 0
53417.4 471190.0 0
57686.7 471473.0 0
62845.2 467645.0 0
59785.5 470496.0 0
62997.6 471166.0 0
67078.4 467850.0 0
66691.8 470428.0 0
72924.4 470658.0 0
76165.3 466936.0 0
77423.1 470957.0 0
79287.2 468963.0 0
82207.8 471581.0 0
85948.6 470111.0 0
90210.9 469027.0 0
93312.9 466597.0 0
92202.3 471677.0 0
97988.1 466936.0 0
94969.4 469899.0 0
99663.0 470073.0 0
103524.0 468680.0 0
107741.0 468469.0 0
111924.0 467235.0 0
116232.0 465956.0 0
115906.0 470629.0 0
120233.0 466578.0 0
124185.0 469017.0 0
127844.0 466979.0 0
128865.0 470214.0 0
130147.0 467249.0 0
133210.0 468035.0 0
137693.0 467402.0 0
135901.0 470487.0 0
141726.0 468275.0 0
145776.0 468704.0 0
149734.0 466518.0 0
152676.0 469152.0 0
156027.0 468623.0 0
163965.0 465352.0 0
166549.0 468948.0 0
172019.0 467860.0 0
176157.0 465720.0 0
176769.0 469490.0 0
179964.0 466396.0 0
183177.0 468216.0 0
187108.0 468231.0 0
192198.0 468310.0 0
197187.0 467311.0 0
201699.0 466687.0 0
206012.0 464818.0 0
209126.0 466745.0 0
213316.0 466923.0 0
216889.0 469033.0 0
217550.0 465219.0 0
220728.0 467957.0 0
225224.0 465759.0 0
228951.0 468198.0 0
233356.0 465729.0 0
237218.0 466042.0 0
240722.0 466597.0 0
245394.0 467807.0 0
250130.0 466515.0 0
254378.0 464371.0 0
256878.0 467271.0 0
259634.0 464612.0 0
264590.0 465756.0 0
270048.0 464841.0 0
272713.0 468617.0 0
275134.0 465804.0 0
278978.0 467046.0 0
276083.0 468754.0 0
283544.0 468327.0 0
288876.0 468689.0 0
290914.0 464826.0 0
293087.0 467743.0 0
294998.0 465364.0 0
299273.0 465326.0 0
303308.0 467206.0 0
309822.0 468398.0 0
313338.0 467356.0 0
318234.0 467231.0 0
322202.0 466493.0 0
325743.0 468086.0 0
329016.0 466378.0 0
332830.0 468784.0 0
336973.0 467309.0 0
340207.0 469686.0 0
340941.0 466525.0 0
344095.0 469954.0 0
345345.0 466248.0 0
349254.0 469930.0 0
353880.0 467360.0 0
358611.0 467228.0 0
357673.0 470039.0 0
361903.0 469783.0 0
364919.0 466949.0 0
369211.0 468195.0 0
370668.0 465749.0 0
373625.0 466717.0 0
377722.0 467554.0 0
375942.0 470003.0 0
379424.0 471085.0 0
384543.0 466378.0 0
381424.0 468523.0 0
384082.0 470744.0 0
389332.0 467100.0 0
387014.0 469468.0 0
390244.0 470869.0 0
392677.0 468605.0 0
398921.0 467903.0 0
396868.0 469931.0 0
404239.0 466803.0 0
402036.0 469503.0 0
408329.0 467065.0 0
406493.0 469909.0 0
413021.0 466678.0 0
410687.0 469803.0 0
414687.0 470307.0 0
418076.0 468543.0 0
421577.0 467125.0 0
424754.0 467752.0 0
422386.0 470975.0 0
428842.0 468436.0 0
426291.0 470803.0 0
434271.0 468783.0 0
431394.0 470941.0 0
439720.0 468859.0 0
436318.0 472154.0 0
438427.0 470229.0 0
444290.0 468813.0 0
441606.0 470870.0 0
447605.0 469688.0 0
452361.0 472910.0 0
42094.0 476527.0 0
45282.2 474887.0 0
47798.4 477526.0 0
50692.6 474697.0 0
53419.3 476216.0 0
56254.1 474149.0 0
59943.5 473112.0 0
64316.9 474492.0 0
60838.3 475375.0 0
68721.5 473449.0 0
71521.8 476755.0 0
78945.1 473611.0 0
75035.3 475185.0 0
80973.3 476546.0 0
84118.3 474528.0 0
88226.0 473085.0 0
86382.0 475944.0 0
90380.2 475981.0 0
93281.4 474154.0 0
96944.4 472618.0 0
99456.2 475048.0 0
102232.0 472716.0 0
106455.0 472267.0 0
107907.0 475451.0 0
110736.0 471874.0 0
110717.0 475555.0 0
114145.0 474935.0 0
118322.0 474403.0 0
120326.0 470853.0 0
121504.0 473286.0 0
125278.0 473506.0 0
132463.0 471405.0 0
129975.0 474207.0 0
135150.0 474578.0 0
139204.0 471293.0 0
140483.0 475072.0 0
143835.0 471953.0 0
148783.0 471393.0 0
150445.0 475218.0 0
153546.0 472626.0 0
156912.0 471403.0 0
157499.0 474642.0 0
161180.0 470351.0 0
165440.0 473400.0 0
169476.0 473067.0 0
173560.0 472278.0 0
177009.0 474311.0 0
180294.0 470585.0 0
181278.0 474097.0 0
184071.0 471843.0 0
188570.0 473115.0 0
193058.0 472552.0 0
195678.0 470920.0 0
195836.0 474269.0 0
200057.0 471560.0 0
205513.0 470051.0 0
208704.0 474490.0 0
210093.0 470298.0 0
213898.0 472868.0 0
219459.0 472492.0 0
224425.0 470381.0 0
228398.0 473198.0 0
232377.0 470062.0 0
233179.0 473805.0 0
236898.0 470349.0 0
241453.0 470457.0 0
245024.0 473064.0 0
248878.0 470787.0 0
253801.0 470461.0 0
259738.0 469596.0 0
257747.0 473543.0 0
264120.0 470118.0 0
268318.0 469310.0 0
271448.0 472149.0 0
274741.0 471274.0 0
278887.0 472218.0 0
283293.0 473147.0 0
286412.0 472069.0 0
289549.0 473471.0 0
292931.0 471498.0 0
297458.0 469898.0 0
299427.0 474350.0 0
302440.0 471601.0 0
306746.0 469763.0 0
306813.0 474072.0 0
311266.0 472039.0 0
316949.0 471950.0 0
321694.0 469963.0 0
322392.0 474600.0 0
325621.0 471789.0 0
327494.0 474916.0 0
329455.0 470973.0 0
333307.0 472447.0 0
336754.0 471304.0 0
341106.0 473865.0 0
346451.0 474090.0 0
351247.0 475433.0 0
354460.0 472179.0 0
357137.0 474919.0 0
359608.0 473042.0 0
363978.0 474782.0 0
366445.0 470956.0 0
368884.0 474442.0 0
372047.0 471387.0 0
376497.0 473285.0 0
379516.0 474427.0 0
382561.0 473144.0 0
387067.0 473083.0 0
394322.0 471596.0 0
391911.0 474342.0 0
399432.0 472448.0 0
396473.0 474773.0 0
400180.0 475343.0 0
402344.0 476535.0 0
403968.0 473588.0 0
408232.0 473602.0 0
414137.0 473670.0 0
411478.0 473088.0 0
411185.0 476179.0 0
413712.0 476871.0 0
418911.0 472616.0 0
416922.0 476261.0 0
424490.0 474004.0 0
421833.0 475522.0 0
429272.0 473055.0 0
427697.0 475215.0 0
433353.0 473453.0 0
431877.0 475531.0 0
440351.0 473638.0 0
436584.0 476207.0 0
445407.0 472238.0 0
444176.0 475224.0 0
449644.0 471547.0 0
448302.0 475129.0 0
454907.0 474284.0 0
451462.0 475866.0 0
457403.0 475867.0 0
459724.0 477595.0 0
32194.3 482254.0 0
38963.3 478430.0 0
35836.7 480645.0 0
38299.1 482216.0 0
43902.6 479437.0 0
40807.0 480834.0 0
47086.5 481306.0 0
50886.7 479229.0 0
50106.0 482291.0 0
54817.6 479545.0 0
58147.6 477142.0 0
58130.9 481228.0 0
61663.9 477866.0 0
64637.8 477988.0 0
60609.9 479851.0 0
63205.4 480868.0 0
68152.1 477664.0 0
66853.5 481300.0 0
73174.1 478954.0 0
70485.9 480165.0 0
77431.6 478084.0 0
75293.1 480650.0 0
83854.2 478012.0 0
79690.6 480465.0 0
82643.0 480647.0 0
87422.6 478738.0 0
92438.9 478809.0 0
95614.3 476579.0 0
95699.2 480531.0 0
98844.4 478293.0 0
103807.0 477023.0 0
101432.0 480720.0 0
105152.0 481380.0 0
108131.0 479058.0 0
110000.0 481457.0 0
111888.0 478763.0 0
116346.0 478390.0 0
121408.0 477612.0 0
126402.0 477585.0 0
127817.0 481079.0 0
130553.0 477656.0 0
134054.0 478712.0 0
137887.0 479188.0 0
142409.0 479508.0 0
145935.0 475922.0 0
149620.0 478537.0 0
153993.0 477598.0 0
158230.0 478217.0 0
162258.0 475941.0 0
164731.0 479255.0 0
167597.0 477577.0 0
172355.0 476938.0 0
175568.0 478981.0 0
179776.0 477878.0 0
184179.0 476758.0 0
188530.0 478365.0 0
192387.0 476009.0 0
195317.0 477682.0 0
199169.0 476644.0 0
204047.0 475225.0 0
202537.0 479648.0 0
207038.0 478892.0 0
212098.0 478641.0 0
217351.0 476866.0 0
223249.0 474914.0 0
226086.0 477660.0 0
230496.0 478234.0 0
234357.0 477171.0 0
237145.0 475222.0 0
240458.0 473774.0 0
242230.0 475918.0 0
245212.0 477979.0 0
250015.0 475413.0 0
254583.0 475550.0 0
258560.0 478333.0 0
261978.0 474389.0 0
267148.0 474169.0 0
269115.0 478163.0 0
271409.0 476113.0 0
274612.0 474633.0 0
273545.0 478521.0 0
277446.0 477585.0 0
281688.0 476936.0 0
286239.0 476569.0 0
290555.0 478085.0 0
292685.0 475049.0 0
294414.0 478521.0 0
296039.0 474561.0 0
298303.0 478291.0 0
302751.0 477218.0 0
306961.0 478128.0 0
310682.0 476953.0 0
314369.0 475670.0 0
314436.0 479540.0 0
318242.0 477923.0 0
322509.0 479014.0 0
325870.0 477778.0 0
329405.0 478263.0 0
331412.0 475230.0 0
333303.0 479363.0 0
336239.0 475965.0 0
340436.0 478179.0 0
344106.0 477515.0 0
348210.0 479253.0 0
353054.0 480560.0 0
355526.0 476879.0 0
357060.0 479747.0 0
359696.0 477045.0 0
360317.0 480416.0 0
363778.0 478988.0 0
368316.0 478445.0 0
373882.0 476772.0 0
371907.0 480477.0 0
378028.0 476394.0 0
378852.0 479400.0 0
381059.0 476792.0 0
384632.0 476406.0 0
382834.0 480223.0 0
389012.0 477065.0 0
386324.0 479840.0 0
389876.0 480814.0 0
394384.0 479116.0 0
398960.0 477837.0 0
398730.0 481086.0 0
402469.0 480031.0 0
407077.0 478213.0 0
412211.0 480590.0 0
416147.0 479534.0 0
420601.0 480838.0 0
419722.0 477592.0 0
423499.0 478392.0 0
425728.0 476978.0 0
429651.0 477398.0 0
427388.0 479391.0 0
429241.0 481994.0 0
433754.0 478041.0 0
431220.0 479807.0 0
440575.0 478279.0 0
437356.0 480459.0 0
445042.0 478815.0 0
442330.0 481548.0 0
448212.0 478638.0 0
451270.0 479273.0 0
454688.0 477943.0 0
454233.0 482459.0 0
457551.0 480389.0 0
461304.0 482986.0 0
462338.0 479916.0 0
465762.0 481684.0 0
26149.1 485627.0 0
29464.1 484658.0 0
32148.1 486438.0 0
34787.4 484272.0 0
38487.0 484839.0 0
41448.8 483807.0 0
43973.8 482767.0 0
42904.6 486032.0 0
40326.0 487109.0 0
46013.3 485100.0 0
49261.5 485459.0 0
53584.4 483116.0 0
57314.6 484970.0 0
61157.2 483319.0 0
60808.3 487183.0 0
64732.7 484498.0 0
69120.3 483572.0 0
72663.8 482916.0 0
71074.3 485847.0 0
74060.1 486299.0 0
77130.5 483671.0 0
80694.3 483276.0 0
80176.6 486655.0 0
82938.2 484345.0 0
85489.1 482352.0 0
88328.7 485019.0 0
89757.8 481516.0 0
92930.8 483120.0 0
98262.4 481881.0 0
96063.2 484159.0 0
102925.0 483018.0 0
100131.0 484855.0 0
107631.0 482359.0 0
104987.0 485806.0 0
113365.0 482439.0 0
109537.0 484110.0 0
114895.0 485658.0 0
118546.0 482848.0 0
123620.0 481306.0 0
122382.0 484443.0 0
126067.0 484437.0 0
131581.0 481385.0 0
130598.0 485325.0 0
135127.0 482739.0 0
138953.0 483122.0 0
142937.0 483342.0 0
146636.0 480752.0 0
147055.0 484594.0 0
149747.0 484829.0 0
151556.0 482160.0 0
156597.0 481566.0 0
161705.0 481073.0 0
166488.0 482205.0 0
170884.0 481308.0 0
174566.0 482479.0 0
177948.0 481355.0 0
181734.0 481311.0 0
185356.0 480822.0 0
183998.0 484631.0 0
188448.0 483097.0 0
192275.0 480033.0 0
192435.0 483404.0 0
197211.0 481825.0 0
201752.0 483986.0 0
205441.0 482437.0 0
209055.0 483117.0 0
213477.0 483921.0 0
216287.0 480591.0 0
218122.0 483947.0 0
221484.0 479649.0 0
226515.0 481599.0 0
231235.0 483656.0 0
234764.0 480200.0 0
239849.0 479544.0 0
244353.0 482984.0 0
249042.0 481103.0 0
253524.0 479581.0 0
256722.0 483182.0 0
260452.0 482849.0 0
264677.0 480055.0 0
270661.0 481372.0 0
275501.0 482204.0 0
280496.0 481480.0 0
284351.0 480310.0 0
288206.0 481655.0 0
292427.0 481978.0 0
295939.0 481475.0 0
300336.0 483116.0 0
305322.0 481719.0 0
309442.0 481239.0 0
312217.0 480589.0 0
313337.0 483737.0 0
316723.0 482128.0 0
320860.0 483073.0 0
324700.0 480858.0 0
327472.0 480499.0 0
330523.0 481906.0 0
334539.0 483770.0 0
337622.0 480493.0 0
338944.0 484068.0 0
343647.0 482377.0 0
349289.0 483879.0 0
353674.0 484836.0 0
357929.0 483653.0 0
363102.0 483135.0 0
367055.0 482456.0 0
369536.0 485170.0 0
370820.0 482696.0 0
373172.0 485624.0 0
375836.0 482423.0 0
380908.0 484031.0 0
386573.0 484316.0 0
392066.0 484128.0 0
396384.0 484105.0 0
401487.0 484164.0 0
405621.0 483242.0 0
408652.0 482311.0 0
409800.0 485661.0 0
413905.0 485094.0 0
417117.0 483085.0 0
425161.0 482124.0 0
421556.0 484606.0 0
424765.0 486055.0 0
428024.0 484802.0 0
427796.0 487790.0 0
433956.0 482193.0 0
431179.0 484431.0 0
434964.0 486047.0 0
439275.0 484403.0 0
443659.0 486532.0 0
446600.0 483198.0 0
450299.0 482267.0 0
449265.0 486700.0 0
451803.0 484801.0 0
456309.0 486025.0 0
458665.0 483224.0 0
460382.0 486837.0 0
464068.0 485151.0 0
467413.0 485204.0 0
469048.0 482810.0 0
471507.0 485572.0 0
474948.0 487566.0 0
20460.8 489585.0 0
22173.1 491833.0 0
23878.7 488167.0 0
27977.5 488034.0 0
25629.8 491269.0 0
28886.9 492171.0 0
30740.6 489718.0 0
34268.9 489578.0 0
36395.8 487479.0 0
36440.5 492800.0 0
38706.7 489371.0 0
42246.1 488799.0 0
41361.0 492508.0 0
45661.5 489073.0 0
45675.0 493156.0 0
49256.9 489045.0 0
52731.6 486797.0 0
49525.2 492571.0 0
56298.2 488239.0 0
53430.2 490895.0 0
58616.9 490199.0 0
64393.1 488128.0 0
67917.5 486787.0 0
62624.6 491081.0 0
71147.4 488823.0 0
67282.6 490822.0 0
76914.2 487463.0 0
74629.1 490008.0 0
78253.4 490154.0 0
84666.2 487061.0 0
81894.1 489768.0 0
87634.6 488370.0 0
89283.1 490444.0 0
91966.5 487060.0 0
96525.7 487837.0 0
100811.0 488514.0 0
103933.0 491016.0 0
108638.0 487943.0 0
112059.0 486299.0 0
113255.0 490421.0 0
116956.0 487494.0 0
118229.0 491133.0 0
120245.0 487184.0 0
123779.0 487248.0 0
121883.0 489994.0 0
125174.0 490147.0 0
126928.0 487562.0 0
129789.0 490066.0 0
135465.0 487324.0 0
139691.0 488676.0 0
140002.0 485796.0 0
143315.0 486846.0 0
146967.0 488678.0 0
150672.0 487137.0 0
153417.0 490454.0 0
155195.0 486185.0 0
160295.0 485187.0 0
162957.0 488223.0 0
169317.0 485321.0 0
164959.0 485319.0 0
167102.0 488876.0 0
173026.0 485408.0 0
174467.0 487689.0 0
178517.0 486034.0 0
182760.0 488539.0 0
186735.0 487546.0 0
190753.0 486708.0 0
194656.0 485813.0 0
193690.0 488998.0 0
198792.0 488356.0 0
205404.0 487101.0 0
210575.0 487770.0 0
215630.0 488784.0 0
220024.0 487808.0 0
222884.0 484569.0 0
223780.0 489362.0 0
226910.0 486357.0 0
229931.0 487766.0 0
236438.0 484367.0 0
238768.0 488949.0 0
240705.0 484659.0 0
243635.0 488103.0 0
248202.0 486594.0 0
252624.0 484697.0 0
256393.0 487677.0 0
262669.0 486057.0 0
267402.0 485382.0 0
272070.0 485597.0 0
275388.0 485962.0 0
279283.0 486372.0 0
283000.0 489012.0 0
284714.0 485028.0 0
290232.0 486288.0 0
295034.0 485041.0 0
298266.0 487796.0 0
302517.0 488798.0 0
305002.0 485697.0 0
307394.0 489783.0 0
309107.0 485418.0 0
312889.0 488668.0 0
317175.0 486216.0 0
321942.0 488471.0 0
326277.0 484877.0 0
329270.0 488391.0 0
331008.0 485398.0 0
333414.0 488946.0 0
337363.0 487102.0 0
341847.0 487552.0 0
346456.0 487392.0 0
351285.0 488533.0 0
356803.0 488762.0 0
362227.0 487697.0 0
366679.0 486181.0 0
367194.0 489991.0 0
370207.0 488048.0 0
374008.0 488958.0 0
377915.0 487624.0 0
383505.0 488617.0 0
387916.0 488510.0 0
390517.0 487115.0 0
393886.0 487381.0 0
391448.0 490234.0 0
396174.0 490083.0 0
398566.0 487325.0 0
400678.0 490992.0 0
402652.0 487877.0 0
405843.0 486965.0 0
409100.0 489413.0 0
413962.0 490060.0 0
418453.0 487119.0 0
419023.0 490996.0 0
421805.0 487504.0 0
423812.0 490205.0 0
428891.0 491747.0 0
430919.0 487210.0 0
433059.0 489762.0 0
439329.0 488351.0 0
436522.0 489205.0 0
447182.0 489404.0 0
452881.0 487286.0 0
451651.0 491176.0 0
456074.0 490361.0 0
460151.0 490425.0 0
464593.0 488724.0 0
463793.0 491995.0 0
468923.0 489063.0 0
473460.0 490188.0 0
476172.0 492561.0 0
478226.0 489382.0 0
479058.0 492757.0 0
481543.0 491170.0 0
13573.8 495087.0 0
9496.81 496521.0 0
17697.9 492928.0 0
15894.7 497756.0 0
21892.8 494702.0 0
25184.7 495075.0 0
28789.7 495041.0 0
32453.4 493368.0 0
31727.8 497308.0 0
35670.6 496774.0 0
39284.4 496192.0 0
43060.7 497279.0 0
52338.7 495250.0 0
48095.3 496699.0 0
56256.7 493293.0 0
55632.1 496724.0 0
59962.9 494489.0 0
64443.6 494225.0 0
67971.4 494527.0 0
71505.2 492650.0 0
76176.9 493056.0 0
73862.3 495435.0 0
80493.6 493831.0 0
85491.7 491484.0 0
84905.6 495804.0 0
93124.9 491635.0 0
89231.1 494092.0 0
93108.5 495555.0 0
97974.6 492724.0 0
108383.0 491576.0 0
106101.0 495064.0 0
110071.0 495272.0 0
115131.0 495714.0 0
118966.0 494132.0 0
122299.0 493523.0 0
126258.0 493191.0 0
129477.0 494892.0 0
133408.0 492121.0 0
135439.0 494432.0 0
137655.0 492089.0 0
140500.0 494632.0 0
142853.0 491036.0 0
144241.0 494808.0 0
147111.0 492542.0 0
150016.0 490508.0 0
150866.0 493999.0 0
158456.0 490477.0 0
155209.0 494461.0 0
163309.0 492364.0 0
168498.0 493971.0 0
171583.0 489408.0 0
173429.0 493765.0 0
176017.0 490707.0 0
176995.0 494261.0 0
180237.0 492162.0 0
185087.0 491853.0 0
189840.0 491247.0 0
194452.0 492360.0 0
198604.0 493984.0 0
203203.0 491799.0 0
207809.0 491659.0 0
212156.0 492214.0 0
216298.0 493767.0 0
219935.0 491490.0 0
223884.0 493449.0 0
228246.0 491251.0 0
233533.0 489436.0 0
237026.0 493598.0 0
241884.0 492876.0 0
247255.0 492408.0 0
252142.0 489757.0 0
259206.0 494084.0 0
256034.0 492155.0 0
260238.0 490050.0 0
262337.0 493778.0 0
265381.0 490579.0 0
269323.0 493504.0 0
269792.0 489474.0 0
274553.0 490304.0 0
277009.0 494295.0 0
279688.0 491353.0 0
283745.0 492869.0 0
286663.0 489682.0 0
287855.0 494500.0 0
290102.0 491022.0 0
294357.0 490382.0 0
299248.0 492342.0 0
303811.0 493522.0 0
307812.0 494353.0 0
310765.0 492021.0 0
310807.0 494891.0 0
314296.0 494432.0 0
317552.0 490986.0 0
321223.0 492382.0 0
324827.0 493481.0 0
326146.0 489673.0 0
329320.0 492119.0 0
333559.0 494243.0 0
338711.0 492025.0 0
344146.0 491460.0 0
342588.0 495546.0 0
347897.0 491365.0 0
346749.0 495422.0 0
351413.0 493715.0 0
354175.0 491626.0 0
357402.0 494006.0 0
360546.0 491942.0 0
364101.0 492163.0 0
367306.0 493955.0 0
371542.0 492116.0 0
375197.0 495584.0 0
376203.0 491878.0 0
380343.0 491548.0 0
378712.0 494713.0 0
382220.0 495423.0 0
384086.0 492803.0 0
387421.0 491652.0 0
390643.0 494554.0 0
394348.0 493361.0 0
398784.0 494997.0 0
405460.0 491345.0 0
403128.0 494720.0 0
409732.0 493446.0 0
413712.0 494935.0 0
417371.0 494500.0 0
421721.0 494341.0 0
425607.0 494239.0 0
431480.0 495426.0 0
433684.0 492838.0 0
437450.0 492748.0 0
442578.0 491833.0 0
444748.0 496404.0 0
447872.0 493710.0 0
457023.0 493784.0 0
453263.0 496076.0 0
460693.0 494649.0 0
457990.0 497207.0 0
464701.0 496025.0 0
467414.0 493301.0 0
471885.0 493510.0 0
469487.0 497781.0 0
474769.0 497362.0 0
478716.0 495940.0 0
480863.0 493869.0 0
481918.0 496196.0 0
484640.0 494000.0 0
488473.0 496027.0 0
491819.0 496728.0 0
6345.39 498445.0 0
2620.15 500026.0 0
12207.2 498329.0 0
9404.5 500221.0 0
10315.1 502966.0 0
6318.51 501518.0 0
14515.9 501574.0 0
19645.4 498051.0 0
22051.4 501765.0 0
18599.2 501928.0 0
23623.9 498428.0 0
27239.7 498368.0 0
25381.8 501502.0 0
29531.3 500884.0 0
34278.2 501287.0 0
38576.8 499797.0 0
41748.4 501581.0 0
46333.0 501210.0 0
51668.9 499420.0 0
55506.9 500143.0 0
59042.7 498494.0 0
62454.8 497209.0 0
62155.0 500589.0 0
65981.0 498148.0 0
70357.5 496646.0 0
69499.4 500754.0 0
73564.6 499099.0 0
77184.8 497089.0 0
75944.8 500780.0 0
81283.9 498308.0 0
78596.8 500133.0 0
84452.2 500793.0 0
88919.9 498685.0 0
93245.0 498955.0 0
96395.9 497179.0 0
98330.0 499370.0 0
101782.0 496515.0 0
106423.0 498884.0 0
111055.0 499647.0 0
115794.0 500750.0 0
119809.0 497664.0 0
122810.0 499451.0 0
125026.0 496966.0 0
128792.0 498985.0 0
132975.0 495927.0 0
132642.0 499570.0 0
137089.0 497690.0 0
142333.0 498083.0 0
147416.0 497108.0 0
152159.0 498054.0 0
159673.0 495584.0 0
156332.0 498994.0 0
163994.0 496578.0 0
171756.0 497822.0 0
175541.0 497233.0 0
179163.0 496827.0 0
183181.0 496039.0 0
187602.0 495624.0 0
190448.0 499212.0 0
191332.0 495017.0 0
194829.0 497039.0 0
199079.0 499146.0 0
201906.0 495712.0 0
203164.0 498348.0 0
205549.0 495340.0 0
209484.0 495681.0 0
206682.0 499685.0 0
213392.0 496043.0 0
217090.0 499456.0 0
220189.0 495494.0 0
223433.0 497840.0 0
227748.0 496215.0 0
232449.0 494735.0 0
236111.0 498602.0 0
243349.0 496788.0 0
239690.0 496133.0 0
240465.0 499373.0 0
248098.0 498679.0 0
252249.0 494515.0 0
253276.0 499043.0 0
256617.0 496568.0 0
261092.0 497846.0 0
265550.0 495632.0 0
269453.0 498069.0 0
273285.0 495530.0 0
277603.0 498337.0 0
279814.0 494988.0 0
282545.0 497088.0 0
286117.0 498742.0 0
292481.0 494824.0 0
290335.0 498554.0 0
296254.0 494708.0 0
295383.0 498723.0 0
300526.0 497096.0 0
305808.0 498429.0 0
310507.0 497977.0 0
314825.0 499272.0 0
319916.0 496834.0 0
324917.0 497708.0 0
328837.0 496712.0 0
333144.0 498543.0 0
338100.0 498142.0 0
343360.0 499960.0 0
347517.0 499329.0 0
350156.0 497410.0 0
354599.0 497439.0 0
358704.0 498150.0 0
362553.0 496366.0 0
367115.0 497527.0 0
370067.0 500650.0 0
371116.0 496507.0 0
374447.0 499690.0 0
378989.0 498987.0 0
383877.0 499461.0 0
386747.0 495966.0 0
388037.0 500089.0 0
391065.0 498599.0 0
394673.0 497257.0 0
394842.0 501060.0 0
398824.0 499533.0 0
402592.0 498164.0 0
405618.0 500277.0 0
406778.0 496509.0 0
409042.0 500053.0 0
411252.0 497586.0 0
415512.0 498352.0 0
419598.0 498167.0 0
424239.0 497850.0 0
428001.0 496576.0 0
427417.0 500650.0 0
431030.0 499172.0 0
435592.0 497000.0 0
434445.0 501007.0 0
440406.0 496795.0 0
438577.0 500735.0 0
442859.0 500178.0 0
446107.0 499318.0 0
448539.0 500706.0 0
448999.0 497409.0 0
451648.0 501447.0 0
455716.0 500645.0 0
459843.0 499840.0 0
462209.0 498303.0 0
463236.0 502435.0 0
465864.0 499679.0 0
467190.0 502973.0 0
469231.0 501436.0 0
472702.0 501663.0 0
476572.0 501592.0 0
479460.0 499695.0 0
480077.0 503262.0 0
482278.0 498760.0 0
485826.0 499102.0 0
483007.0 501921.0 0
487882.0 502810.0 0
490858.0 499963.0 0
494077.0 498617.0 0
497282.0 500053.0 0
3446.8 504426.0 0
8001.22 504563.0 0
12085.3 505426.0 0
19967.5 504640.0 0
16523.0 505613.0 0
23532.9 505785.0 0
27210.6 504025.0 0
30682.7 504321.0 0
27260.7 507389.0 0
34140.6 505284.0 0
35671.2 507781.0 0
37992.3 504410.0 0
42341.5 505997.0 0
47310.9 505521.0 0
50392.6 502939.0 0
50845.7 505706.0 0
54169.5 503775.0 0
57726.6 505744.0 0
58547.4 502337.0 0
61553.0 504195.0 0
65234.9 502511.0 0
64836.8 506456.0 0
68788.2 505141.0 0
73156.7 503492.0 0
77053.5 503788.0 0
80643.2 503056.0 0
83763.5 505907.0 0
87331.5 503093.0 0
88276.0 505623.0 0
91093.8 502619.0 0
90950.3 505580.0 0
93668.5 505400.0 0
95694.3 501777.0 0
97204.3 505226.0 0
101781.0 502353.0 0
107153.0 502933.0 0
112110.0 504042.0 0
116693.0 505281.0 0
120027.0 502327.0 0
125235.0 502261.0 0
130526.0 503279.0 0
133374.0 505601.0 0
134986.0 502473.0 0
139603.0 502164.0 0
144804.0 501739.0 0
149389.0 500684.0 0
148510.0 504266.0 0
153028.0 502710.0 0
157198.0 502763.0 0
161220.0 500463.0 0
160082.0 505237.0 0
164128.0 504659.0 0
167220.0 500093.0 0
168801.0 505003.0 0
172151.0 501720.0 0
177197.0 501773.0 0
181514.0 499972.0 0
185660.0 499929.0 0
188671.0 503707.0 0
194800.0 502116.0 0
199548.0 503887.0 0
202177.0 501293.0 0
204180.0 504158.0 0
208919.0 503987.0 0
211666.0 499800.0 0
213807.0 504093.0 0
222199.0 502070.0 0
226755.0 500788.0 0
225787.0 504328.0 0
229699.0 504140.0 0
231325.0 499726.0 0
234529.0 503803.0 0
239259.0 503600.0 0
243647.0 501980.0 0
252035.0 503406.0 0
257133.0 501858.0 0
261336.0 502345.0 0
265306.0 500510.0 0
269853.0 503599.0 0
273292.0 499981.0 0
276105.0 503088.0 0
281550.0 502137.0 0
287494.0 503540.0 0
292408.0 502164.0 0
299159.0 501222.0 0
296157.0 503934.0 0
303122.0 502033.0 0
307493.0 503476.0 0
311253.0 501726.0 0
314796.0 503209.0 0
318735.0 502652.0 0
323498.0 501735.0 0
327028.0 500463.0 0
330193.0 501128.0 0
334671.0 503517.0 0
339528.0 502616.0 0
342807.0 504940.0 0
347135.0 503344.0 0
351824.0 501842.0 0
355562.0 504968.0 0
357241.0 501547.0 0
359227.0 505131.0 0
361059.0 501154.0 0
363182.0 504943.0 0
365452.0 501174.0 0
373331.0 503507.0 0
377480.0 503535.0 0
382236.0 503950.0 0
386633.0 503684.0 0
391144.0 503149.0 0
395314.0 505003.0 0
398326.0 503149.0 0
402601.0 502589.0 0
404749.0 506061.0 0
407907.0 503735.0 0
412982.0 501753.0 0
411858.0 505844.0 0
416413.0 505822.0 0
418133.0 501963.0 0
421242.0 505556.0 0
422661.0 501681.0 0
423785.0 506180.0 0
426148.0 504503.0 0
431204.0 503774.0 0
436439.0 504659.0 0
441363.0 503628.0 0
446376.0 503324.0 0
444155.0 506466.0 0
450456.0 505257.0 0
454881.0 505308.0 0
459005.0 503544.0 0
462304.0 505928.0 0
459039.0 507263.0 0
465941.0 506243.0 0
470788.0 505271.0 0
476139.0 505322.0 0
480854.0 506717.0 0
484311.0 504647.0 0
489046.0 506503.0 0
493663.0 503438.0 0
493666.0 507861.0 0
498240.0 503114.0 0
497748.0 505999.0 0
1342.92 507539.0 0
2340.54 510138.0 0
9700.76 507988.0 0
6146.47 508484.0 0
10203.0 511942.0 0
5900.26 512038.0 0
14084.6 509064.0 0
19465.0 508853.0 0
21180.0 512079.0 0
23923.1 509767.0 0
31310.5 508321.0 0
27407.7 510578.0 0
30523.7 512450.0 0
34588.4 510925.0 0
38577.2 508962.0 0
41930.0 511093.0 0
37605.5 512751.0 0
45329.6 508996.0 0
49317.5 508880.0 0
53680.0 508344.0 0
57533.9 509181.0 0
60806.9 507766.0 0
59702.1 511651.0 0
63896.2 510497.0 0
68032.6 509052.0 0
71946.0 507655.0 0
71094.1 511241.0 0
75507.8 506735.0 0
75649.8 510695.0 0
79119.3 507155.0 0
80885.2 510840.0 0
86437.9 509807.0 0
91041.4 508046.0 0
95133.0 509093.0 0
100160.0 508025.0 0
104229.0 506508.0 0
108053.0 507475.0 0
112858.0 508849.0 0
117224.0 510008.0 0
121627.0 506967.0 0
127006.0 506899.0 0
131005.0 507258.0 0
133803.0 509505.0 0
136933.0 506216.0 0
141245.0 506278.0 0
143846.0 508792.0 0
144732.0 505624.0 0
146927.0 507382.0 0
151113.0 507614.0 0
155950.0 506759.0 0
160343.0 510055.0 0
165599.0 507925.0 0
168928.0 509049.0 0
173315.0 505677.0 0
177424.0 507086.0 0
182904.0 505122.0 0
180527.0 509607.0 0
187904.0 508837.0 0
192336.0 506471.0 0
195205.0 509233.0 0
196377.0 505950.0 0
198917.0 508514.0 0
202299.0 507442.0 0
206525.0 508615.0 0
211240.0 507687.0 0
215085.0 508856.0 0
218235.0 505232.0 0
222941.0 506828.0 0
227357.0 507838.0 0
232213.0 508366.0 0
237934.0 509026.0 0
243019.0 506765.0 0
247476.0 504713.0 0
246744.0 508678.0 0
250801.0 507885.0 0
255358.0 506862.0 0
259588.0 505861.0 0
264202.0 505703.0 0
268136.0 508915.0 0
274009.0 508480.0 0
278953.0 506316.0 0
283419.0 507549.0 0
288184.0 509578.0 0
292333.0 506937.0 0
296938.0 509098.0 0
300304.0 505488.0 0
304247.0 505883.0 0
307279.0 508820.0 0
312134.0 506543.0 0
317291.0 507234.0 0
322187.0 506356.0 0
328014.0 505553.0 0
333203.0 508846.0 0
338797.0 506870.0 0
342837.0 509698.0 0
346568.0 507482.0 0
351406.0 507556.0 0
356713.0 508742.0 0
361100.0 508722.0 0
364758.0 508367.0 0
368952.0 505756.0 0
367957.0 510339.0 0
372256.0 510667.0 0
375024.0 507552.0 0
380045.0 508019.0 0
385860.0 508705.0 0
388981.0 506074.0 0
391787.0 508201.0 0
400180.0 506596.0 0
396522.0 508582.0 0
399458.0 510980.0 0
403495.0 509610.0 0
408684.0 508842.0 0
414020.0 509991.0 0
419407.0 509565.0 0
425265.0 509402.0 0
429587.0 507520.0 0
431325.0 511359.0 0
433442.0 507566.0 0
435160.0 510350.0 0
436565.0 508354.0 0
440113.0 507387.0 0
438958.0 510985.0 0
443848.0 510685.0 0
447788.0 507542.0 0
456367.0 509263.0 0
452538.0 509256.0 0
459852.0 510760.0 0
462636.0 508694.0 0
465632.0 509708.0 0
463262.0 512132.0 0
469290.0 509083.0 0
471814.0 512122.0 0
473771.0 508992.0 0
475397.0 512872.0 0
478037.0 509424.0 0
484926.0 507601.0 0
482481.0 509941.0 0
486416.0 510082.0 0
490212.0 509941.0 0
493147.0 511976.0 0
497388.0 509707.0 0
2413.25 513907.0 0
6788.73 515915.0 0
11844.9 516215.0 0
16125.9 512964.0 0
20330.3 514980.0 0
25274.1 514440.0 0
29983.1 516036.0 0
33952.3 514716.0 0
37016.5 517126.0 0
40229.9 514524.0 0
46755.8 512351.0 0
43884.2 514907.0 0
51085.2 512466.0 0
48378.3 516355.0 0
52559.5 515278.0 0
55496.3 512490.0 0
55883.2 516032.0 0
58516.8 514262.0 0
59233.5 516317.0 0
62368.3 514587.0 0
67277.7 513171.0 0
72121.7 516092.0 0
77213.4 514394.0 0
80803.4 515598.0 0
83954.0 513720.0 0
87514.7 514282.0 0
91043.4 511895.0 0
94482.4 513408.0 0
98706.3 512561.0 0
103899.0 511363.0 0
105953.0 515601.0 0
109136.0 512205.0 0
113776.0 513423.0 0
117966.0 514715.0 0
120964.0 511624.0 0
122585.0 515550.0 0
124992.0 511213.0 0
127387.0 515100.0 0
129567.0 510923.0 0
132735.0 514382.0 0
138969.0 511201.0 0
143942.0 512223.0 0
147317.0 510359.0 0
147289.0 514358.0 0
150386.0 511767.0 0
154369.0 511022.0 0
157116.0 514317.0 0
165225.0 511615.0 0
169346.0 512547.0 0
173254.0 510392.0 0
177380.0 511027.0 0
180312.0 513569.0 0
183839.0 510770.0 0
189605.0 513644.0 0
192147.0 510560.0 0
196860.0 513185.0 0
202164.0 511904.0 0
207200.0 513734.0 0
211620.0 511709.0 0
219404.0 510183.0 0
215953.0 513538.0 0
224163.0 511476.0 0
220851.0 515194.0 0
228948.0 512317.0 0
233978.0 513145.0 0
243627.0 511984.0 0
248932.0 511697.0 0
253324.0 511235.0 0
258717.0 510976.0 0
263670.0 510093.0 0
262673.0 513798.0 0
266347.0 512909.0 0
270772.0 513227.0 0
279500.0 511032.0 0
275682.0 514643.0 0
284343.0 512878.0 0
289109.0 514365.0 0
292807.0 511760.0 0
297054.0 514408.0 0
302190.0 510023.0 0
301463.0 514345.0 0
306177.0 514566.0 0
312216.0 512495.0 0
317248.0 511722.0 0
319908.0 509773.0 0
322306.0 510007.0 0
325162.0 509751.0 0
322210.0 514503.0 0
328761.0 511293.0 0
333062.0 514871.0 0
338145.0 511764.0 0
343352.0 515284.0 0
347825.0 511877.0 0
353417.0 513363.0 0
359021.0 512828.0 0
364067.0 512802.0 0
369061.0 514517.0 0
373343.0 514560.0 0
377347.0 512537.0 0
382167.0 512013.0 0
385593.0 513609.0 0
390235.0 513032.0 0
394169.0 515832.0 0
395141.0 512028.0 0
398357.0 514871.0 0
402723.0 513896.0 0
406822.0 512783.0 0
411277.0 514093.0 0
416924.0 513467.0 0
422194.0 513541.0 0
427418.0 514455.0 0
431874.0 516245.0 0
436281.0 514100.0 0
441430.0 514485.0 0
446806.0 515474.0 0
448498.0 511040.0 0
456466.0 513223.0 0
452031.0 514174.0 0
460503.0 513986.0 0
459132.0 517664.0 0
463716.0 516010.0 0
467862.0 513435.0 0
472749.0 515725.0 0
476862.0 516764.0 0
479616.0 513365.0 0
484301.0 513860.0 0
488831.0 513474.0 0
491733.0 516848.0 0
496813.0 514010.0 0
2047.96 517445.0 0
2075.12 520882.0 0
5489.7 519632.0 0
9230.23 519688.0 0
10566.3 522839.0 0
13501.2 520332.0 0
17022.6 517685.0 0
18185.3 521837.0 0
21874.0 518696.0 0
27396.1 520175.0 0
32866.8 518536.0 0
35818.6 520728.0 0
40739.7 517554.0 0
39787.9 521348.0 0
44474.4 518948.0 0
52119.2 519450.0 0
47907.6 520873.0 0
57380.8 519435.0 0
61704.7 518694.0 0
64396.2 521262.0 0
66173.6 517360.0 0
69036.9 520940.0 0
76846.3 518554.0 0
80713.2 519853.0 0
85268.1 518210.0 0
91042.8 516991.0 0
92871.1 521212.0 0
96217.6 516663.0 0
97502.7 520489.0 0
101436.0 516680.0 0
106356.0 519557.0 0
110253.0 516743.0 0
114721.0 517710.0 0
119366.0 519110.0 0
124518.0 520028.0 0
129871.0 518949.0 0
133755.0 518645.0 0
137367.0 516673.0 0
136045.0 520396.0 0
142450.0 516392.0 0
147011.0 519427.0 0
151982.0 515672.0 0
151964.0 520261.0 0
155998.0 518552.0 0
162018.0 516264.0 0
166935.0 515505.0 0
168326.0 519893.0 0
171185.0 515835.0 0
173690.0 519954.0 0
175678.0 514991.0 0
179377.0 519029.0 0
184611.0 515681.0 0
189122.0 518900.0 0
193279.0 516456.0 0
197494.0 518558.0 0
202956.0 517633.0 0
207451.0 517920.0 0
211715.0 516833.0 0
216802.0 518565.0 0
220558.0 519070.0 0
225570.0 515877.0 0
227481.0 519035.0 0
230443.0 516648.0 0
234771.0 518088.0 0
238956.0 515076.0 0
242827.0 518466.0 0
247279.0 516205.0 0
251283.0 514580.0 0
251698.0 518852.0 0
255193.0 515409.0 0
259581.0 516655.0 0
263957.0 517444.0 0
267822.0 516606.0 0
272067.0 518325.0 0
280476.0 516082.0 0
285389.0 518236.0 0
292981.0 515715.0 0
290710.0 518758.0 0
296187.0 519026.0 0
300712.0 518551.0 0
305091.0 519391.0 0
309989.0 516287.0 0
309024.0 519369.0 0
312663.0 517703.0 0
316664.0 516284.0 0
327725.0 515940.0 0
330879.0 520248.0 0
334896.0 519286.0 0
338053.0 517137.0 0
341419.0 519900.0 0
345360.0 520303.0 0
349082.0 517261.0 0
353205.0 520049.0 0
357278.0 517477.0 0
361761.0 516395.0 0
361546.0 520215.0 0
366098.0 518520.0 0
371574.0 518322.0 0
376455.0 518054.0 0
381940.0 517081.0 0
387727.0 517696.0 0
392168.0 518868.0 0
397069.0 519421.0 0
402288.0 518508.0 0
406912.0 516863.0 0
410626.0 519238.0 0
414863.0 517268.0 0
419818.0 517005.0 0
417958.0 520325.0 0
424619.0 517938.0 0
422060.0 520891.0 0
428848.0 519183.0 0
435393.0 518221.0 0
432689.0 520440.0 0
439473.0 518065.0 0
443483.0 518268.0 0
447192.0 520235.0 0
451341.0 518740.0 0
455076.0 517349.0 0
459888.0 521724.0 0
463712.0 520378.0 0
468705.0 518537.0 0
471332.0 522246.0 0
474144.0 519506.0 0
478254.0 520462.0 0
481510.0 517938.0 0
486592.0 517905.0 0
489004.0 521884.0 0
493560.0 521220.0 0
497111.0 518530.0 0
1779.63 523856.0 0
6377.76 523920.0 0
14552.3 524385.0 0
10806.2 526714.0 0
18658.2 525928.0 0
22746.6 523159.0 0
22660.9 527199.0 0
27620.5 525990.0 0
32075.8 522895.0 0
32528.6 527298.0 0
36271.0 524297.0 0
44280.0 522939.0 0
47277.1 523618.0 0
50255.8 524155.0 0
54981.2 523139.0 0
53053.2 526050.0 0
60080.6 523012.0 0
63169.1 523988.0 0
66281.1 524614.0 0
70497.3 525521.0 0
73658.4 521724.0 0
78055.8 522949.0 0
83157.6 523599.0 0
86887.5 525987.0 0
88287.8 522020.0 0
91011.4 525880.0 0
94843.8 524478.0 0
98555.7 524377.0 0
102377.0 521874.0 0
106468.0 524318.0 0
110414.0 521175.0 0
115362.0 522267.0 0
120170.0 523634.0 0
124134.0 524605.0 0
128395.0 523556.0 0
133294.0 522686.0 0
140093.0 521608.0 0
144472.0 524059.0 0
149781.0 525087.0 0
155094.0 522944.0 0
159283.0 520979.0 0
158736.0 525127.0 0
163367.0 521325.0 0
166442.0 523681.0 0
171170.0 523697.0 0
176283.0 524225.0 0
180936.0 523761.0 0
184520.0 521244.0 0
188727.0 524477.0 0
193415.0 521537.0 0
197297.0 523798.0 0
200378.0 521823.0 0
204454.0 523045.0 0
200593.0 524985.0 0
208939.0 521317.0 0
213306.0 521503.0 0
219797.0 523161.0 0
223909.0 519996.0 0
226365.0 524298.0 0
230850.0 521403.0 0
238829.0 520007.0 0
235514.0 522426.0 0
241727.0 522912.0 0
246870.0 521882.0 0
251592.0 523118.0 0
256531.0 520506.0 0
258957.0 524424.0 0
261633.0 521094.0 0
267044.0 521357.0 0
271958.0 523228.0 0
276489.0 521117.0 0
280756.0 520318.0 0
283643.0 523184.0 0
288393.0 523090.0 0
293621.0 522593.0 0
298422.0 522781.0 0
303185.0 523087.0 0
306996.0 522448.0 0
310594.0 523408.0 0
315009.0 521322.0 0
319818.0 520041.0 0
318740.0 524788.0 0
324999.0 520464.0 0
328380.0 525298.0 0
333938.0 524884.0 0
337604.0 521800.0 0
338139.0 525522.0 0
341982.0 524005.0 0
346145.0 523819.0 0
349501.0 522063.0 0
353404.0 525258.0 0
357186.0 522156.0 0
360670.0 523511.0 0
365319.0 524815.0 0
369931.0 522002.0 0
374150.0 522031.0 0
375403.0 525456.0 0
379381.0 523055.0 0
384999.0 522157.0 0
389638.0 521503.0 0
393838.0 523419.0 0
398718.0 523681.0 0
406653.0 521219.0 0
402588.0 522938.0 0
406183.0 526048.0 0
410365.0 524135.0 0
414403.0 522018.0 0
419090.0 524426.0 0
425063.0 525045.0 0
423055.0 524162.0 0
426153.0 522231.0 0
427708.0 526779.0 0
430251.0 523292.0 0
434100.0 523836.0 0
437162.0 521848.0 0
442387.0 522852.0 0
447394.0 523848.0 0
451325.0 522980.0 0
455684.0 521423.0 0
462634.0 524238.0 0
458699.0 524675.0 0
464854.0 527637.0 0
467157.0 523858.0 0
471427.0 525713.0 0
479895.0 524077.0 0
475425.0 524154.0 0
484044.0 522387.0 0
487505.0 527200.0 0
492595.0 525373.0 0
497683.0 522962.0 0
2659.99 527377.0 0
2510.68 531640.0 0
7108.29 529481.0 0
14947.5 528721.0 0
11585.9 531002.0 0
19325.0 531288.0 0
25092.4 530653.0 0
29905.7 530833.0 0
36489.8 528088.0 0
40967.5 526351.0 0
46346.2 527064.0 0
43807.4 530467.0 0
50463.2 529126.0 0
57333.8 526847.0 0
53994.0 528056.0 0
54790.2 530864.0 0
62428.8 527566.0 0
59232.6 530574.0 0
67043.2 528802.0 0
71430.1 529947.0 0
74897.6 526519.0 0
75983.5 531065.0 0
79445.9 527009.0 0
79962.1 530728.0 0
83481.5 528481.0 0
88186.2 530397.0 0
92930.2 529798.0 0
96463.9 527739.0 0
101765.0 527776.0 0
106916.0 529679.0 0
111165.0 525907.0 0
116361.0 527298.0 0
121612.0 528926.0 0
126963.0 528072.0 0
131727.0 527043.0 0
136783.0 526115.0 0
141114.0 526385.0 0
145082.0 528753.0 0
154685.0 527677.0 0
159220.0 529567.0 0
162944.0 526029.0 0
168188.0 527306.0 0
172790.0 527173.0 0
180157.0 528829.0 0
184265.0 525594.0 0
185950.0 529333.0 0
190190.0 528710.0 0
193682.0 526247.0 0
198111.0 528150.0 0
203468.0 528134.0 0
208754.0 526237.0 0
214669.0 526269.0 0
219735.0 528068.0 0
223926.0 528298.0 0
228779.0 529397.0 0
232527.0 525840.0 0
237735.0 526643.0 0
244282.0 526250.0 0
241584.0 529518.0 0
249310.0 527368.0 0
254807.0 525996.0 0
264000.0 525609.0 0
268537.0 525911.0 0
273368.0 527987.0 0
279343.0 526399.0 0
285467.0 527834.0 0
291232.0 527656.0 0
296224.0 526981.0 0
300904.0 526927.0 0
306441.0 525777.0 0
309937.0 527797.0 0
314172.0 526045.0 0
317269.0 528723.0 0
323168.0 525518.0 0
320871.0 529077.0 0
331528.0 529598.0 0
336524.0 529501.0 0
340604.0 527880.0 0
345321.0 528503.0 0
349060.0 525854.0 0
350654.0 529783.0 0
354777.0 529780.0 0
358904.0 527392.0 0
368505.0 529152.0 0
371326.0 526220.0 0
372010.0 530223.0 0
374684.0 528480.0 0
378126.0 528268.0 0
383193.0 527926.0 0
388929.0 526206.0 0
387665.0 530620.0 0
391155.0 530558.0 0
393295.0 527880.0 0
397090.0 527297.0 0
399786.0 530852.0 0
401428.0 527051.0 0
404730.0 530989.0 0
410342.0 529911.0 0
414608.0 526693.0 0
418896.0 528315.0 0
420636.0 531433.0 0
423137.0 527922.0 0
429188.0 531150.0 0
432857.0 527814.0 0
438139.0 526875.0 0
442290.0 529606.0 0
445209.0 526996.0 0
446943.0 531002.0 0
449769.0 527446.0 0
454810.0 526864.0 0
460939.0 527189.0 0
458670.0 529554.0 0
462500.0 531063.0 0
469156.0 528423.0 0
474022.0 529083.0 0
478407.0 527664.0 0
477613.0 531221.0 0
482721.0 527245.0 0
481052.0 530255.0 0
484601.0 531160.0 0
488244.0 531844.0 0
492502.0 530206.0 0
497294.0 526959.0 0
497414.0 531248.0 0
2078.22 535541.0 0
6338.19 534796.0 0
9341.74 532937.0 0
11381.0 535461.0 0
14795.8 533449.0 0
22543.1 534801.0 0
27099.5 535070.0 0
34426.2 531875.0 0
39549.4 531526.0 0
47116.1 532084.0 0
43358.3 534599.0 0
47543.3 536311.0 0
51383.3 533901.0 0
57478.9 535658.0 0
62854.1 532281.0 0
67484.4 533188.0 0
72346.9 534004.0 0
76757.3 535478.0 0
79853.9 533641.0 0
83252.8 532692.0 0
87016.7 535615.0 0
92046.3 534127.0 0
97272.1 532228.0 0
102887.0 533463.0 0
99556.7 535768.0 0
111999.0 531373.0 0
116970.0 532212.0 0
120644.0 533786.0 0
124064.0 533451.0 0
126798.0 531896.0 0
130146.0 531210.0 0
132679.0 534378.0 0
134609.0 530386.0 0
136322.0 534208.0 0
139852.0 531031.0 0
144807.0 534112.0 0
150098.0 531154.0 0
153364.0 534739.0 0
154945.0 531582.0 0
158177.0 534843.0 0
163898.0 530610.0 0
168865.0 532693.0 0
174641.0 531684.0 0
178844.0 533864.0 0
183269.0 533536.0 0
189215.0 532483.0 0
193877.0 531217.0 0
200584.0 531493.0 0
204240.0 533241.0 0
207356.0 530483.0 0
208891.0 534235.0 0
211310.0 530439.0 0
215735.0 531647.0 0
220325.0 532362.0 0
224732.0 532687.0 0
233755.0 530013.0 0
233716.0 534277.0 0
237681.0 531948.0 0
241927.0 534205.0 0
245554.0 531129.0 0
249393.0 532403.0 0
253739.0 531214.0 0
259810.0 529880.0 0
266841.0 530496.0 0
272069.0 532994.0 0
277315.0 532026.0 0
281421.0 530922.0 0
284605.0 532470.0 0
288641.0 531711.0 0
293270.0 532516.0 0
298727.0 531670.0 0
304958.0 530725.0 0
310128.0 532076.0 0
313739.0 530339.0 0
313480.0 534697.0 0
317343.0 532713.0 0
321513.0 533984.0 0
325569.0 530502.0 0
329606.0 533726.0 0
334171.0 534083.0 0
341107.0 532385.0 0
346039.0 533704.0 0
350313.0 534127.0 0
354166.0 533393.0 0
358351.0 532545.0 0
363962.0 531131.0 0
369202.0 532767.0 0
372896.0 533289.0 0
375753.0 531396.0 0
375933.0 535623.0 0
380205.0 532906.0 0
385085.0 532979.0 0
389543.0 534259.0 0
395150.0 531355.0 0
393797.0 535249.0 0
398309.0 535097.0 0
401977.0 533860.0 0
407635.0 535351.0 0
416094.0 531364.0 0
412926.0 535152.0 0
421496.0 534703.0 0
417823.0 535254.0 0
424893.0 532252.0 0
430626.0 535621.0 0
433824.0 532266.0 0
435971.0 536505.0 0
438498.0 532230.0 0
443547.0 534289.0 0
448546.0 535077.0 0
451721.0 531733.0 0
455823.0 531466.0 0
454940.0 535344.0 0
459208.0 533552.0 0
463826.0 535549.0 0
466726.0 531837.0 0
470985.0 531853.0 0
469205.0 535676.0 0
474758.0 534660.0 0
480759.0 534391.0 0
486107.0 535613.0 0
491650.0 535150.0 0
497347.0 535366.0 0
3357.01 540020.0 0
8531.21 538455.0 0
12363.0 539280.0 0
17992.9 538206.0 0
23824.2 538391.0 0
28038.1 539684.0 0
31902.6 536104.0 0
37801.5 536873.0 0
42992.2 539087.0 0
47485.4 541035.0 0
51925.8 538470.0 0
55658.3 540807.0 0
60496.9 540913.0 0
63616.7 536538.0 0
66033.6 541005.0 0
68966.7 537280.0 0
72967.0 538445.0 0
77196.8 540285.0 0
81631.7 537377.0 0
85833.9 540617.0 0
90790.7 539051.0 0
95912.5 537621.0 0
101675.0 538098.0 0
107864.0 535868.0 0
113603.0 536403.0 0
118176.0 536161.0 0
117320.0 540721.0 0
122374.0 537793.0 0
127868.0 536368.0 0
133479.0 539440.0 0
139682.0 537349.0 0
144926.0 539404.0 0
149458.0 536804.0 0
154434.0 539038.0 0
159903.0 539392.0 0
163820.0 536034.0 0
169232.0 538633.0 0
171993.0 535330.0 0
175149.0 537600.0 0
180550.0 537862.0 0
187078.0 536273.0 0
192087.0 536220.0 0
197747.0 535315.0 0
202511.0 536923.0 0
199957.0 539905.0 0
205938.0 536919.0 0
213167.0 535547.0 0
209841.0 539441.0 0
217753.0 536175.0 0
214932.0 539820.0 0
222421.0 536648.0 0
229074.0 534957.0 0
227139.0 539324.0 0
232471.0 539461.0 0
237672.0 537039.0 0
242452.0 539124.0 0
246723.0 536217.0 0
251642.0 535937.0 0
257005.0 536217.0 0
263232.0 535589.0 0
268284.0 535458.0 0
271922.0 537942.0 0
276435.0 536884.0 0
281377.0 535822.0 0
285706.0 535964.0 0
289566.0 535955.0 0
292821.0 535884.0 0
292476.0 539373.0 0
296400.0 536592.0 0
302189.0 536794.0 0
307934.0 536152.0 0
312484.0 539778.0 0
317196.0 537114.0 0
321799.0 539059.0 0
325835.0 536157.0 0
330424.0 538431.0 0
335018.0 538653.0 0
338351.0 536175.0 0
342835.0 537390.0 0
348192.0 538608.0 0
352777.0 537223.0 0
356875.0 536822.0 0
359853.0 539945.0 0
361441.0 535931.0 0
363678.0 539192.0 0
366270.0 536032.0 0
371400.0 537123.0 0
367683.0 540603.0 0
376506.0 540183.0 0
379246.0 537255.0 0
381242.0 540363.0 0
385666.0 537896.0 0
391504.0 539169.0 0
395675.0 538156.0 0
399006.0 539120.0 0
403041.0 537435.0 0
407086.0 540575.0 0
412434.0 540428.0 0
416314.0 538182.0 0
420399.0 538562.0 0
425515.0 537007.0 0
423629.0 540895.0 0
428913.0 538818.0 0
432868.0 541151.0 0
437762.0 540601.0 0
440660.0 537875.0 0
445845.0 539379.0 0
451406.0 538711.0 0
455822.0 539267.0 0
459254.0 537417.0 0
462598.0 539433.0 0
466925.0 539811.0 0
472517.0 540224.0 0
478030.0 538825.0 0
482335.0 538141.0 0
481737.0 542223.0 0
485154.0 539995.0 0
489504.0 540264.0 0
494536.0 539255.0 0
498300.0 538984.0 0
3684.12 546192.0 0
8903.05 542880.0 0
14130.9 543378.0 0
19450.6 544511.0 0
24027.0 542206.0 0
28456.0 543931.0 0
33055.1 541378.0 0
38911.5 542816.0 0
44028.9 541694.0 0
44204.6 545173.0 0
52142.7 543721.0 0
57075.3 544970.0 0
62138.2 546045.0 0
66897.4 545277.0 0
71637.3 543506.0 0
77140.2 545130.0 0
81385.5 542518.0 0
81132.9 546358.0 0
85100.3 545365.0 0
89598.9 543869.0 0
94282.9 542614.0 0
99258.8 541663.0 0
102831.0 545162.0 0
104990.0 540593.0 0
110614.0 541694.0 0
114830.0 545460.0 0
119075.0 545032.0 0
122400.0 542442.0 0
127202.0 541958.0 0
136427.0 543338.0 0
140932.0 542922.0 0
145810.0 544262.0 0
149919.0 541644.0 0
154155.0 543871.0 0
159125.0 543902.0 0
164165.0 541717.0 0
168796.0 544083.0 0
172663.0 541816.0 0
176726.0 542465.0 0
180871.0 542478.0 0
184656.0 540336.0 0
189386.0 540587.0 0
194934.0 541399.0 0
204478.0 541037.0 0
200054.0 544728.0 0
208029.0 544436.0 0
212796.0 544082.0 0
219262.0 540322.0 0
216921.0 543160.0 0
223183.0 540679.0 0
220863.0 544589.0 0
226198.0 544346.0 0
230854.0 544203.0 0
238887.0 541120.0 0
242066.0 544493.0 0
246697.0 541168.0 0
246773.0 545206.0 0
253174.0 540126.0 0
250445.0 543625.0 0
257113.0 541011.0 0
255020.0 544422.0 0
259560.0 543962.0 0
260645.0 540011.0 0
264145.0 545137.0 0
267017.0 540338.0 0
268925.0 545144.0 0
271584.0 542137.0 0
275835.0 541478.0 0
280485.0 540737.0 0
284374.0 542069.0 0
288061.0 540257.0 0
292092.0 543594.0 0
297005.0 542043.0 0
301936.0 541912.0 0
304008.0 545027.0 0
306810.0 541570.0 0
317589.0 542048.0 0
322685.0 543392.0 0
326374.0 541494.0 0
330553.0 542846.0 0
334824.0 543036.0 0
339073.0 540705.0 0
344060.0 542558.0 0
349141.0 543712.0 0
354591.0 542168.0 0
359164.0 543345.0 0
363431.0 543818.0 0
368935.0 545523.0 0
372268.0 541828.0 0
375392.0 544931.0 0
379394.0 543983.0 0
383911.0 544386.0 0
388135.0 542489.0 0
396020.0 542337.0 0
392089.0 545492.0 0
401976.0 542902.0 0
406541.0 545205.0 0
409898.0 544184.0 0
414365.0 545676.0 0
417461.0 542024.0 0
421004.0 542784.0 0
427555.0 541817.0 0
424175.0 544832.0 0
428572.0 546118.0 0
432698.0 546013.0 0
437422.0 544775.0 0
441337.0 542268.0 0
441304.0 546437.0 0
445278.0 544640.0 0
449865.0 543169.0 0
453028.0 545944.0 0
454226.0 542606.0 0
456816.0 546087.0 0
459051.0 542088.0 0
463775.0 543022.0 0
468361.0 545188.0 0
473052.0 544746.0 0
477125.0 543885.0 0
482263.0 547183.0 0
486256.0 544234.0 0
493490.0 543891.0 0
497886.0 542275.0 0
497511.0 546272.0 0
3221.13 552227.0 0
9540.4 548214.0 0
15165.2 548831.0 0
20222.4 548921.0 0
24384.7 547078.0 0
22792.5 551052.0 0
29235.9 548027.0 0
26678.7 551533.0 0
34238.0 546988.0 0
39797.4 548286.0 0
44409.0 550831.0 0
48948.2 547912.0 0
53604.8 549323.0 0
58192.4 549661.0 0
65662.6 548597.0 0
62644.0 551364.0 0
69175.1 547784.0 0
73465.2 549493.0 0
78847.9 549367.0 0
83508.4 549705.0 0
88700.3 549147.0 0
92755.9 546864.0 0
97473.7 546360.0 0
94853.5 550815.0 0
100618.0 549124.0 0
107741.0 546709.0 0
104364.0 549905.0 0
112099.0 549437.0 0
117997.0 549685.0 0
122269.0 546467.0 0
123426.0 550237.0 0
126230.0 546701.0 0
131718.0 545840.0 0
137882.0 547769.0 0
142552.0 547296.0 0
146232.0 548799.0 0
150122.0 546445.0 0
154307.0 548417.0 0
159071.0 549106.0 0
163340.0 546718.0 0
167551.0 548777.0 0
173467.0 546481.0 0
179102.0 546810.0 0
184700.0 545630.0 0
190572.0 545799.0 0
195668.0 548108.0 0
204327.0 545311.0 0
200678.0 549991.0 0
204905.0 548694.0 0
210354.0 549912.0 0
216397.0 546840.0 0
219960.0 549480.0 0
225012.0 549618.0 0
230269.0 548834.0 0
235871.0 544830.0 0
239459.0 549147.0 0
245068.0 550075.0 0
251831.0 549333.0 0
258115.0 548750.0 0
262568.0 549198.0 0
267188.0 549837.0 0
273726.0 546260.0 0
271606.0 549860.0 0
278897.0 545174.0 0
277489.0 550043.0 0
283224.0 545734.0 0
282231.0 549615.0 0
287709.0 545145.0 0
285894.0 549031.0 0
290315.0 549906.0 0
295084.0 547298.0 0
300153.0 546456.0 0
304257.0 548889.0 0
308902.0 546238.0 0
313486.0 545214.0 0
318306.0 547029.0 0
322978.0 548111.0 0
327862.0 546658.0 0
332986.0 547273.0 0
339468.0 546398.0 0
345989.0 548127.0 0
352094.0 548096.0 0
358563.0 547843.0 0
364633.0 549298.0 0
369253.0 550090.0 0
372642.0 548234.0 0
376758.0 549705.0 0
380745.0 547730.0 0
385195.0 549769.0 0
387976.0 546388.0 0
389967.0 549550.0 0
394145.0 549950.0 0
398132.0 547167.0 0
403448.0 548349.0 0
410502.0 547466.0 0
408247.0 550717.0 0
413919.0 551012.0 0
419677.0 546677.0 0
424712.0 549854.0 0
430932.0 550145.0 0
435522.0 548779.0 0
444286.0 549096.0 0
449388.0 548418.0 0
454684.0 549846.0 0
461498.0 546821.0 0
459211.0 551084.0 0
463903.0 550839.0 0
468388.0 550340.0 0
473287.0 549232.0 0
477938.0 548425.0 0
484755.0 551042.0 0
486821.0 548198.0 0
490101.0 546619.0 0
493948.0 548274.0 0
497987.0 550096.0 0
2024.13 556747.0 0
8657.75 552969.0 0
6013.82 556787.0 0
13450.1 554206.0 0
18858.4 553350.0 0
23610.9 554702.0 0
28521.9 556441.0 0
31481.8 551856.0 0
33305.2 555701.0 0
36611.5 552383.0 0
45467.4 554920.0 0
41172.8 554257.0 0
49394.3 553075.0 0
55411.4 553607.0 0
60125.6 555260.0 0
67927.0 552411.0 0
76817.8 552822.0 0
73469.7 554811.0 0
80675.5 553334.0 0
85961.5 553387.0 0
90690.9 554354.0 0
95728.6 555479.0 0
99332.3 552848.0 0
103782.0 554395.0 0
108052.0 550962.0 0
108713.0 555004.0 0
114288.0 554566.0 0
120346.0 555086.0 0
125298.0 553944.0 0
128392.0 550611.0 0
133612.0 551593.0 0
138596.0 552650.0 0
143061.0 552250.0 0
146660.0 551970.0 0
146952.0 555299.0 0
150341.0 551377.0 0
155086.0 552882.0 0
159265.0 553577.0 0
163526.0 551396.0 0
166449.0 554651.0 0
171304.0 550797.0 0
170283.0 554501.0 0
176058.0 551385.0 0
180987.0 551119.0 0
185102.0 550554.0 0
189990.0 551426.0 0
194303.0 552131.0 0
193835.0 555053.0 0
204811.0 553410.0 0
214135.0 553767.0 0
215714.0 550441.0 0
217811.0 553369.0 0
222247.0 554034.0 0
227274.0 554173.0 0
232534.0 554543.0 0
235005.0 550159.0 0
238088.0 553996.0 0
242431.0 554360.0 0
249831.0 553843.0 0
258561.0 553980.0 0
263681.0 554115.0 0
270888.0 554694.0 0
275919.0 554227.0 0
281071.0 554782.0 0
286294.0 552977.0 0
295268.0 552730.0 0
300150.0 551111.0 0
304643.0 554416.0 0
308320.0 550471.0 0
313936.0 551271.0 0
319852.0 551709.0 0
325004.0 553133.0 0
330478.0 551566.0 0
336177.0 551537.0 0
341013.0 551153.0 0
344726.0 553494.0 0
349106.0 552032.0 0
355360.0 552976.0 0
361173.0 553560.0 0
367250.0 553191.0 0
372658.0 552833.0 0
376851.0 554234.0 0
380914.0 552572.0 0
391493.0 553152.0 0
387541.0 554184.0 0
396007.0 554911.0 0
400161.0 551785.0 0
400211.0 555145.0 0
404790.0 551489.0 0
404736.0 555554.0 0
410890.0 555424.0 0
417061.0 555533.0 0
418816.0 551108.0 0
421720.0 554084.0 0
425815.0 556129.0 0
428074.0 553042.0 0
435049.0 553173.0 0
438568.0 555649.0 0
439956.0 550986.0 0
446540.0 552835.0 0
451462.0 553657.0 0
456252.0 554166.0 0
461591.0 554809.0 0
466941.0 555255.0 0
471145.0 553110.0 0
475556.0 553781.0 0
480334.0 552068.0 0
484340.0 555774.0 0
490406.0 552390.0 0
497078.0 554268.0 0
2740.15 560952.0 0
10001.0 556908.0 0
8205.25 561233.0 0
13401.9 559224.0 0
17872.9 558248.0 0
21128.4 556821.0 0
24121.3 558689.0 0
21065.5 561359.0 0
29197.4 560778.0 0
32569.5 559811.0 0
37734.8 558051.0 0
43206.6 558013.0 0
48039.7 557974.0 0
51572.6 559906.0 0
52135.8 556421.0 0
56256.3 559112.0 0
61743.4 559952.0 0
64523.6 556278.0 0
66716.3 560523.0 0
69632.7 556973.0 0
73310.2 561525.0 0
77550.7 556878.0 0
79452.7 561116.0 0
83219.2 557535.0 0
85249.3 561100.0 0
88016.3 558647.0 0
93085.9 560140.0 0
99949.5 557632.0 0
105319.0 559831.0 0
111349.0 559370.0 0
115854.0 559065.0 0
119790.0 560240.0 0
124839.0 558876.0 0
129738.0 555702.0 0
135909.0 557535.0 0
142306.0 557552.0 0
147442.0 559863.0 0
151637.0 556193.0 0
156774.0 557690.0 0
162525.0 555873.0 0
161148.0 559952.0 0
165593.0 559099.0 0
170624.0 559316.0 0
174191.0 555960.0 0
175930.0 559303.0 0
179520.0 556139.0 0
183141.0 559977.0 0
185678.0 555540.0 0
190568.0 556175.0 0
194083.0 559596.0 0
198563.0 555235.0 0
203151.0 558031.0 0
210191.0 556896.0 0
216156.0 557576.0 0
221576.0 557739.0 0
219745.0 560074.0 0
225536.0 559512.0 0
230829.0 559324.0 0
235903.0 558787.0 0
241038.0 558358.0 0
246434.0 555808.0 0
253617.0 555185.0 0
250622.0 557612.0 0
256140.0 559101.0 0
260870.0 558621.0 0
266464.0 558972.0 0
276588.0 558572.0 0
286070.0 558071.0 0
290532.0 555229.0 0
295566.0 558785.0 0
299427.0 555350.0 0
301604.0 559593.0 0
310231.0 556137.0 0
306745.0 559661.0 0
315527.0 557492.0 0
320610.0 556383.0 0
325253.0 559169.0 0
329050.0 556047.0 0
330838.0 560117.0 0
333321.0 555976.0 0
339978.0 555509.0 0
342302.0 559815.0 0
346519.0 558044.0 0
351000.0 556270.0 0
356379.0 558875.0 0
361565.0 558443.0 0
366020.0 557264.0 0
370441.0 556648.0 0
374737.0 558234.0 0
379786.0 557294.0 0
384889.0 558761.0 0
391067.0 558555.0 0
396244.0 560139.0 0
399908.0 558210.0 0
408892.0 560125.0 0
414529.0 560266.0 0
421561.0 559435.0 0
431048.0 556268.0 0
427904.0 561022.0 0
435479.0 557239.0 0
433653.0 560659.0 0
442854.0 555784.0 0
438592.0 560047.0 0
447941.0 557624.0 0
453111.0 558501.0 0
458315.0 558586.0 0
463606.0 559560.0 0
468717.0 560367.0 0
472145.0 556806.0 0
475567.0 558150.0 0
479094.0 556611.0 0
477860.0 561199.0 0
481933.0 559906.0 0
488820.0 558334.0 0
493313.0 557533.0 0
494048.0 561469.0 0
497569.0 559261.0 0
4777.71 565734.0 0
9311.2 565781.0 0
12521.5 563577.0 0
16765.9 562837.0 0
20495.7 565916.0 0
25916.6 563461.0 0
35532.8 562717.0 0
31383.6 564496.0 0
41086.5 561992.0 0
45643.0 561934.0 0
43237.6 565365.0 0
52931.3 564245.0 0
58734.4 564260.0 0
63914.5 564630.0 0
68443.2 564668.0 0
78137.1 565904.0 0
83126.3 564096.0 0
88173.8 563418.0 0
92674.5 565936.0 0
98771.0 563272.0 0
103760.0 564770.0 0
109302.0 564115.0 0
114735.0 563282.0 0
119633.0 564992.0 0
125021.0 564094.0 0
130347.0 561764.0 0
136569.0 564096.0 0
139986.0 561012.0 0
143500.0 562953.0 0
152435.0 561265.0 0
148502.0 563944.0 0
157827.0 564262.0 0
163954.0 563506.0 0
168857.0 564494.0 0
174408.0 563508.0 0
179062.0 561460.0 0
188385.0 560683.0 0
184099.0 564712.0 0
190330.0 564975.0 0
199346.0 560765.0 0
194975.0 564886.0 0
202379.0 562943.0 0
206473.0 561771.0 0
213407.0 562360.0 0
217887.0 562768.0 0
221937.0 563027.0 0
228255.0 564170.0 0
233391.0 563251.0 0
238304.0 562990.0 0
242693.0 562528.0 0
246503.0 560623.0 0
249295.0 563958.0 0
252139.0 560747.0 0
255969.0 563279.0 0
260376.0 563576.0 0
265092.0 564178.0 0
271766.0 560458.0 0
276236.0 564476.0 0
281345.0 560687.0 0
281320.0 565044.0 0
290445.0 560852.0 0
285960.0 563938.0 0
298351.0 564660.0 0
303809.0 563881.0 0
308079.0 563886.0 0
311507.0 560890.0 0
315719.0 562301.0 0
320180.0 561282.0 0
323018.0 564986.0 0
327540.0 564076.0 0
332707.0 564974.0 0
336676.0 560409.0 0
341049.0 565060.0 0
346286.0 563007.0 0
351397.0 561629.0 0
356144.0 564331.0 0
360275.0 562552.0 0
364395.0 561519.0 0
366593.0 565506.0 0
370006.0 561339.0 0
374492.0 562732.0 0
378203.0 561390.0 0
377741.0 565964.0 0
382354.0 563644.0 0
387961.0 564069.0 0
393485.0 563858.0 0
398290.0 564127.0 0
403387.0 562018.0 0
411346.0 564277.0 0
416025.0 565721.0 0
420010.0 563918.0 0
424061.0 564575.0 0
431704.0 564291.0 0
428163.0 566141.0 0
436423.0 564905.0 0
441650.0 565929.0 0
443868.0 561177.0 0
446913.0 565763.0 0
450160.0 562207.0 0
452007.0 565634.0 0
455159.0 563043.0 0
460334.0 563715.0 0
465563.0 564287.0 0
473287.0 561166.0 0
470478.0 564792.0 0
475464.0 564925.0 0
481336.0 564839.0 0
485718.0 561969.0 0
490235.0 562663.0 0
493754.0 565633.0 0
497897.0 563638.0 0
1213.61 567328.0 0
2833.08 570961.0 0
7968.12 569891.0 0
13031.6 568436.0 0
17547.6 569109.0 0
24098.5 567616.0 0
21705.2 570856.0 0
28283.6 569046.0 0
33841.3 569920.0 0
38466.1 566578.0 0
43184.0 569895.0 0
47593.6 566540.0 0
51476.1 569198.0 0
56176.8 568979.0 0
61338.5 568831.0 0
66857.7 569340.0 0
71592.9 567241.0 0
75158.5 570388.0 0
80333.5 570575.0 0
86082.9 569074.0 0
91459.6 570496.0 0
96679.1 568943.0 0
101348.0 568136.0 0
106433.0 568687.0 0
111811.0 567792.0 0
115731.0 567670.0 0
119063.0 569243.0 0
123119.0 568455.0 0
129373.0 568884.0 0
135202.0 568914.0 0
140903.0 566654.0 0
147975.0 567295.0 0
144458.0 568668.0 0
147832.0 570258.0 0
152251.0 566834.0 0
162352.0 568254.0 0
167274.0 569207.0 0
172962.0 569551.0 0
179038.0 565964.0 0
177573.0 569224.0 0
182133.0 569745.0 0
187453.0 569129.0 0
193490.0 570528.0 0
199659.0 565386.0 0
203989.0 566670.0 0
199713.0 569604.0 0
208240.0 569640.0 0
209571.0 565523.0 0
213382.0 567750.0 0
218303.0 566850.0 0
222692.0 566613.0 0
226427.0 568557.0 0
231199.0 567787.0 0
236093.0 567541.0 0
241341.0 567026.0 0
246938.0 568517.0 0
252987.0 567526.0 0
258159.0 567379.0 0
262134.0 567378.0 0
270162.0 565560.0 0
266190.0 569066.0 0
273506.0 569378.0 0
278919.0 569317.0 0
282699.0 568258.0 0
286517.0 569088.0 0
290552.0 570074.0 0
292312.0 565661.0 0
305973.0 568080.0 0
301576.0 568825.0 0
310053.0 569752.0 0
312547.0 565908.0 0
318206.0 566595.0 0
324747.0 570103.0 0
330430.0 569675.0 0
336702.0 567634.0 0
345490.0 568163.0 0
350075.0 566596.0 0
354858.0 569637.0 0
361165.0 567960.0 0
372111.0 567300.0 0
382087.0 568613.0 0
387293.0 569990.0 0
391746.0 567886.0 0
396385.0 568705.0 0
401827.0 567644.0 0
407037.0 566523.0 0
407194.0 571352.0 0
403788.0 570982.0 0
411800.0 569373.0 0
416766.0 570735.0 0
420847.0 568179.0 0
425595.0 569814.0 0
432383.0 569250.0 0
438418.0 570346.0 0
444361.0 570599.0 0
450698.0 570477.0 0
457084.0 568515.0 0
462583.0 567888.0 0
467567.0 569335.0 0
473057.0 568883.0 0
477961.0 568648.0 0
482263.0 569654.0 0
486333.0 567143.0 0
490468.0 567989.0 0
493530.0 570277.0 0
497789.0 567905.0 0
1348.03 574779.0 0
6450.74 575047.0 0
11340.8 573345.0 0
16990.7 574276.0 0
25254.3 574417.0 0
30173.5 574089.0 0
35061.8 575159.0 0
38532.6 571778.0 0
39862.5 575999.0 0
44216.7 574789.0 0
47883.9 571797.0 0
52483.6 573693.0 0
57794.7 574125.0 0
63129.5 573614.0 0
67625.1 574230.0 0
71905.6 574143.0 0
77685.1 574683.0 0
83465.0 575481.0 0
88863.5 573932.0 0
94841.0 573779.0 0
100071.0 572878.0 0
105357.0 574278.0 0
110662.0 572443.0 0
115935.0 572152.0 0
113626.0 576175.0 0
121092.0 573201.0 0
126064.0 574327.0 0
130401.0 574758.0 0
134652.0 573228.0 0
139280.0 570823.0 0
143943.0 573884.0 0
151608.0 572514.0 0
157191.0 570534.0 0
163716.0 572998.0 0
168125.0 573665.0 0
172571.0 575504.0 0
177718.0 572878.0 0
182181.0 574685.0 0
186335.0 573644.0 0
198651.0 574535.0 0
203747.0 571883.0 0
208304.0 574210.0 0
213211.0 572943.0 0
217978.0 571635.0 0
221994.0 571539.0 0
225625.0 572804.0 0
230611.0 573265.0 0
236507.0 572733.0 0
242407.0 572870.0 0
247987.0 573999.0 0
252210.0 572766.0 0
256607.0 571884.0 0
261103.0 573694.0 0
266507.0 574836.0 0
272095.0 573840.0 0
277568.0 574370.0 0
282934.0 572593.0 0
288136.0 574358.0 0
295629.0 570490.0 0
293051.0 574930.0 0
300659.0 573348.0 0
306942.0 574285.0 0
314508.0 571072.0 0
319479.0 571611.0 0
322111.0 574730.0 0
331217.0 574571.0 0
334818.0 571517.0 0
340726.0 571696.0 0
345401.0 574602.0 0
349245.0 571861.0 0
355042.0 575416.0 0
360352.0 574093.0 0
366958.0 571373.0 0
371615.0 575051.0 0
377121.0 572096.0 0
383095.0 573403.0 0
388754.0 575214.0 0
392670.0 572225.0 0
400142.0 572751.0 0
405008.0 575662.0 0
412688.0 574548.0 0
417430.0 575295.0 0
421533.0 572956.0 0
426175.0 574962.0 0
430673.0 573950.0 0
434835.0 574103.0 0
441263.0 575304.0 0
446198.0 575278.0 0
456173.0 574140.0 0
461484.0 572081.0 0
466041.0 574998.0 0
472364.0 574631.0 0
478385.0 573710.0 0
483093.0 573587.0 0
488868.0 571671.0 0
492927.0 575523.0 0
497576.0 572462.0 0
497914.0 576924.0 0
2512.61 578114.0 0
6161.01 579366.0 0
11193.7 579165.0 0
17605.8 580650.0 0
22640.8 578518.0 0
28112.5 578969.0 0
33563.3 580342.0 0
38959.9 580701.0 0
43631.9 579907.0 0
48681.3 578320.0 0
54642.2 578365.0 0
59799.7 579101.0 0
65177.2 578599.0 0
70006.5 578230.0 0
74478.8 578156.0 0
79012.2 579094.0 0
84908.6 580244.0 0
88239.9 578465.0 0
92972.5 578589.0 0
98246.1 578044.0 0
102900.0 578266.0 0
109444.0 577616.0 0
117764.0 576992.0 0
123059.0 577426.0 0
128278.0 578158.0 0
133553.0 578843.0 0
138898.0 575929.0 0
148339.0 576403.0 0
154719.0 577274.0 0
159614.0 575420.0 0
190336.0 575729.0 0
296933.0 576409.0 0
312744.0 575906.0 0
317807.0 576290.0 0
326368.0 575704.0 0
336272.0 576505.0 0
341447.0 577612.0 0
345751.0 578543.0 0
350171.0 577188.0 0
358511.0 578846.0 0
363695.0 578104.0 0
367433.0 576392.0 0
371490.0 579529.0 0
375520.0 577375.0 0
380258.0 576304.0 0
384640.0 578294.0 0
391840.0 579227.0 0
395921.0 576071.0 0
400489.0 577920.0 0
404966.0 580659.0 0
409619.0 578686.0 0
415208.0 580164.0 0
421688.0 577965.0 0
426297.0 580129.0 0
431388.0 578652.0 0
436923.0 578546.0 0
441892.0 580536.0 0
446454.0 579567.0 0
451252.0 577101.0 0
456314.0 578745.0 0
460853.0 577255.0 0
465049.0 580167.0 0
470259.0 580531.0 0
476662.0 578901.0 0
481572.0 577676.0 0
486907.0 576798.0 0
490788.0 580461.0 0
495355.0 579997.0 0
453487.0 582536.0 0
486761.0 581900.0 0
POINT_DATA 5000
SCALARS Radius float 1
LOOKUP_TABLE default
5415.48 5120.0 6182.6 2356.98 5258.36 3163.97 5580.89 6810.52 5840.26 5073.35 4834.9 3863.18 5085.53 4998.37 5492.18 5061.3 3951.75 3642.12 4499.64 5812.43 5906.14 7513.1 5254.28 4436.4 5733.48 3588.44 5645.7 5553.16 6110.27 5561.06 5670.04 6044.04 5484.83 5351.6 4715.55 5867.73 5013.56 4375.68 5542.27 5484.19 5122.66 3557.27 4688.68 4402.52 4182.53 4517.56 4672.91 5176.86 4366.19 3672.51 2938.66 4008.92 3615.22 4380.59 6716.79 3850.77 5325.36 5538.89 4730.36 6059.59 5701.86 2720.68 4238.81 5054.98 4468.59 6030.06 5170.02 4927.31 5185.34 4432.58 5903.42 3761.32 3955.56 5292.64 4118.05 5065.13 4940.78 5936.02 5305.17 7613.27 5546.39 6759.9 7021.47 5926.61 4955.55 3563.63 4345.55 5885.03 5325.02 5200.76 4862.64 5017.13 5205.43 3673.74 6684.56 3968.64 2635.86 4385.06 6166.5 4290.3 4861.08 4231.61 3942.53 3379.84 3607.45 4951.03 4133.88 4094.62 5945.65 5418.62 5493.32 5416.38 6051.14 4195.44 5836.15 3261.21 6704.06 2837.58 3653.41 3871.88 5246.2 4390.66 4827.23 6116.18 7447.37 4688.67 7184.19 3867.67 4003.05 4827.82 3589.27 4333.2 4665.12 6483.19 6230.49 4601.27 3641.64 5740.68 4277.89 5539.32 6496.85 5600.93 3856.01 5541.59 4124.71 5279.39 4911.47 5803.39 4381.97 4924.6 4733.32 3255.82 2924.37 2899.43 2812.98 4065.69 5399.73 4805.87 5759.91 3260.67 3936.02 3383.4 4927.02 3856.1 5980.74 4174.52 5109.54 7054.71 5489.43 5747.75 4796.33 5360.19 4874.39 4839.34 5083.08 5728.85 6337.56 5863.59 3998.5 6257.19 5242.73 5603.15 5390.22 4712.33 6038.78 5227.21 3997.1 5123.52 3038.33 4295.38 4780.03 4044.71 3829.13 5816.2 3091.3 6458.82 5527.54 5054.25 5573.7 7325.81 4794.96 6186.19 2980.99 4840.01 6834.49 5525.39 5938.34 4024.3 5555.28 4737.14 5169.36 4695.45 4686.65 4660.72 5556.96 3888.21 5697.78 4667.36 4392.68 5495.39 4487.31 5693.81 5789.98 2540.31 6138.47 4727.62 5697.4 5206.78 4055.8 6425.26 5143.58 4484.76 5611.2 7933.0 5173.87 6394.38 5118.27 5932.23 5834.74 6052.7 3921.18 6902.81 5529.52 3554.9 5252.48 3996.0 4002.16 4015.92 4778.34 4138.16 4684.5 6029.66 6302.8 4270.95 4005.44 5555.88 5280.17 5028.96 6362.12 3866.16 5152.36 4220.65 6820.42 4455.12 5380.13 5711.87 5791.61 5788.23 3798.62 3666.57 5891.05 4254.17 4091.31 7199.21 6124.89 5708.81 5043.05 3486.22 5120.49 4414.54 5409.61 6038.2 5713.22 6732.43 3183.98 4524.28 4511.82 3778.1 5826.64 4816.2 4894.16 6321.41 4896.52 3372.79 4941.22 5282.64 5581.75 4479.66 6392.01 6644.76 5615.42 4523.7 5255.32 5337.48 5542.21 5924.89 6894.71 5262.61 5201.36 4306.53 5094.81 5972.06 4312.67 5861.71 5017.78 4359.04 3794.63 5015.69 4727.24 6175.81 6959.81 4829.35 4089.76 4751.02 5184.56 4715.72 3369.13 5367.2 5308.1 6372.62 6730.19 4937.02 7565.34 4929.8 5637.59 5481.78 3307.12 4937.14 4467.94 5551.36 6038.14 5024.9 6135.57 5998.38 4270.24 4989.15 4947.52 4520.1 6677.09 4305.57 5813.4 3791.79 5201.67 5526.55 3192.41 6084.93 4987.87 3315.57 4669.66 4808.52 3043.85 5461.13 4907.89 5629.19 6037.08 6756.95 4382.74 4049.23 5601.05 3586.91 3103.0 4948.92 3115.91 6084.86 5478.92 4933.21 4850.81 5375.47 4723.12 4717.05 5659.17 5287.2 4562.29 5423.8 3417.33 5080.66 4164.13 4926.42 4642.34 5153.74 5874.89 4293.03 4424.7 4754.05 4925.44 4951.47 5246.61 5215.15 4764.96 5046.33 5607.24 4726.76 3599.45 5655.21 5839.13 5091.39 5090.24 6324.23 2240.39 5096.78 4727.24 3320.52 4151.94 4651.28 4384.42 6355.42 4516.43 4362.19 3693.63 4493.48 4749.8 5810.84 5094.44 4230.54 3748.24 4655.49 4566.18 4964.09 4809.42 5856.11 4109.88 4234.94 5013.13 5714.58 5110.45 5248.77 3296.27 4083.97 4607.02 4165.81 4528.09 3556.85 4389.21 4128.98 5882.89 6246.22 4307.28 5804.71 5020.12 5053.92 6352.26 3735.44 4786.6 4073.93 4907.06 5923.5 4645.41 5740.84 4612.68 5530.87 5293.9 4129.43 4973.83 3912.37 6142.94 4931.38 4685.34 4329.05 6082.81 5927.43 5492.26 5690.56 5244.78 5762.84 5478.47 3937.74 5082.6 6142.37 6061.47 6163.38 5806.08 4997.27 3459.9 4093.08 5543.27 5628.24 3327.49 3960.8 4980.85 5070.39 4923.9 3329.99 4973.78 3947.47 5208.32 4713.25 6243.0 3895.51 6673.96 6291.51 5174.89 5370.52 4188.32 4100.38 5774.81 4739.42 5538.93 5727.3 4242.52 3057.03 3847.38 5356.51 5163.9 5495.68 4433.59 6043.3 6445.94 4310.18 4320.28 6342.25 4281.49 4218.06 3843.58 6691.39 4602.25 4792.73 5513.6 4736.58 3485.26 4556.36 5110.37 3191.99 5664.98 4659.59 6327.9 4048.37 4220.88 6640.13 6519.71 3092.35 5210.03 5351.39 6022.17 5119.37 3982.23 4336.42 5243.29 4853.39 4449.22 3130.65 5365.89 5992.26 4511.54 5196.0 4613.31 6119.09 5091.68 4204.84 5069.25 5048.89 3991.03 5441.96 3161.47 3435.9 4288.3 4652.29 4495.87 3697.96 5344.77 4723.48 4899.11 4745.45 4278.07 5281.28 2631.9 3818.59 4087.15 4863.72 5489.34 5708.14 5952.75 4262.82 5537.72 3920.42 6332.36 5542.14 4931.53 7134.64 5480.13 4194.5 4270.53 4790.08 5191.63 5344.25 4501.51 5379.87 3708.04 4901.41 5138.31 5264.06 3240.09 3369.23 4551.24 5358.59 3688.8 4548.16 4515.71 5449.18 5367.52 4322.15 4714.54 3629.96 3320.11 5507.24 6851.54 4583.31 4503.89 4306.11 3402.32 7589.94 5004.67 4466.03 5409.33 4898.94 5985.29 4178.15 4733.04 5788.66 7531.29 4755.47 5935.03 6390.78 7435.25 6826.57 4788.87 3746.31 5498.32 5027.98 5097.87 5346.27 6475.1 7267.18 6255.18 4143.08 4758.21 5002.48 7500.97 6623.85 5102.36 6122.55 8332.24 2739.94 5978.9 4187.56 5082.47 4840.84 4997.27 5344.0 5135.69 4593.7 6045.46 5681.38 4043.57 4478.15 4138.42 5925.6 5987.17 3979.82 6013.14 4602.86 2765.2 4621.75 4581.13 4219.07 3610.4 6387.01 6202.55 5025.39 5030.91 5893.5 4547.19 4377.07 5101.59 3813.22 5570.3 5935.47 5903.66 5313.66 4528.49 5512.23 5419.37 5275.32 4247.23 4649.22 4268.65 4694.83 5509.42 4354.08 5936.36 4520.62 5229.48 3903.75 5475.7 4485.99 5475.8 5314.69 6050.81 5543.46 4249.46 6022.72 4643.31 5527.33 6917.52 4969.21 2691.29 6256.02 4277.88 4668.71 7228.46 6362.14 3948.23 5228.18 5787.31 4342.9 5065.11 6155.31 4223.33 4553.56 6308.71 3629.62 5911.67 4716.19 5514.76 4301.06 3456.98 6405.76 4290.14 3815.26 4763.45 4150.99 5445.87 4216.92 4107.03 4271.69 3771.48 5198.77 5643.58 5147.67 4292.06 5006.58 5011.31 4481.53 5586.81 3948.17 3856.59 5413.79 4746.52 5572.95 6338.89 5584.06 7111.16 3817.13 6480.17 5023.15 3844.9 4564.34 3695.36 3963.86 3848.93 5076.35 6020.48 5200.05 4091.8 5234.29 4645.58 2651.49 5670.2 4711.62 4114.24 5349.31 2976.22 5394.55 5094.52 4256.43 2682.24 5928.32 5415.19 4016.18 5127.16 5526.75 5435.74 4244.99 5327.45 5560.26 5965.81 3702.37 2330.66 4177.19 3691.0 5402.21 4880.14 2845.98 4982.31 5320.92 5269.18 4406.1 6719.88 5034.59 4942.77 5978.82 3927.99 5069.84 4051.44 5329.64 3323.28 4050.9 6695.82 5835.78 3498.2 4877.67 4020.32 4704.72 4245.72 5908.1 4571.7 4177.94 4344.58 4742.68 5634.83 4502.5 5922.5 3929.19 5347.48 3633.87 3970.25 2775.04 4138.46 4850.01 5215.05 5577.04 4986.77 6318.18 5423.0 5077.33 5330.45 3689.45 3824.16 3868.18 6723.16 3686.21 5372.61 5402.24 4519.22 6445.22 3838.56 4871.44 6248.81 6375.99 5273.35 4853.02 6259.23 5181.4 3457.48 4662.56 5166.79 5417.15 3405.98 3688.16 4681.72 4946.74 5996.33 3950.63 4612.62 3619.07 4467.04 4275.57 6385.23 2614.4 2983.99 6185.89 3997.96 4750.17 4439.35 5660.85 3460.94 3990.25 6184.4 3758.07 4752.51 4373.45 3587.05 6229.37 4989.09 6718.19 5289.52 4307.48 5314.85 3848.54 4305.43 5450.44 6510.17 5080.18 4263.33 5868.82 5266.5 4454.63 4523.88 6049.55 4066.38 3279.1 5709.62 4241.89 5054.74 5941.72 4981.9 5794.24 6562.18 3066.13 4127.74 4541.21 4156.38 4302.5 6048.7 6009.88 5896.46 4164.68 5495.84 6268.1 3784.5 4862.21 5782.6 5113.21 5499.11 4011.77 4527.08 4374.35 6396.74 4810.12 6898.19 3821.72 6035.6 5526.14 5137.34 5198.29 4044.45 3975.31 5344.43 5125.78 4373.47 5045.38 5350.88 5130.91 4959.34 4948.5 5383.07 4527.02 4531.14 4247.15 5013.42 4602.85 5651.07 4962.77 5872.05 6101.92 5323.3 5088.44 4635.6 4998.21 6079.11 4256.67 3931.07 6430.39 7440.72 3949.6 4945.39 6326.18 5661.62 4867.08 6631.19 6648.68 5626.61 5817.25 5061.98 6363.92 6205.93 5830.72 3828.81 5309.98 4236.14 4407.87 5282.91 5941.4 4425.84 5331.02 4871.96 5742.65 5592.32 5912.61 4978.31 4099.77 4537.32 4414.48 5163.02 4656.78 2476.04 5105.16 5991.09 6006.16 4678.38 5316.75 5448.61 5050.65 5022.8 4827.33 7055.53 6133.92 5013.67 3719.84 4178.4 5669.65 5253.55 5820.48 7034.11 6261.42 2586.12 6125.34 5965.78 5252.34 2965.79 7099.43 6449.45 5315.4 3627.82 5262.19 6070.58 4244.9 4285.32 5490.43 6034.41 5452.83 5022.28 5197.52 5178.99 4790.78 4591.87 6422.84 6552.22 5379.09 5210.48 7552.94 4051.34 3627.55 6239.84 5865.39 4427.28 3082.32 5949.46 3658.37 4765.02 3178.54 5376.71 4448.13 5703.6 5070.29 4807.28 4266.03 5075.55 5280.69 4220.03 4713.74 5407.78 4084.49 6179.96 6632.99 4537.6 4923.24 5147.36 4419.61 7177.44 4563.46 4082.57 6553.94 5733.62 5255.18 5169.9 5282.51 3004.16 3797.33 7256.35 4105.55 4800.69 4863.23 4402.67 3555.86 5381.16 4403.98 4948.98 5565.13 4560.84 5227.52 6086.96 4092.24 4729.43 5233.78 4562.74 5776.57 5126.91 3942.07 5133.97 7443.72 3937.08 5371.02 5513.57 5260.34 5729.23 5206.48 5934.22 3780.23 6586.45 5826.04 3471.03 4359.62 5188.81 3745.84 5011.84 6057.22 6946.21 5062.71 5433.8 4497.59 5975.63 4410.55 4274.61 4287.63 5776.37 4516.28 5678.96 4190.31 5486.68 6048.86 5100.25 6894.26 4986.51 5339.38 6169.11 5615.35 5172.53 4027.09 4135.62 4502.18 5801.99 5534.94 7644.38 6004.68 6799.4 4409.63 5521.25 3661.9 5107.23 5370.85 5136.08 5558.68 3776.94 4010.57 5629.39 2684.03 6157.04 4768.61 2261.36 4522.21 5506.19 6719.94 6923.84 5227.59 5449.46 6166.29 5703.07 6113.54 4662.43 6260.79 4043.66 3963.76 5528.53 5726.66 5460.65 4460.92 4767.78 5945.89 4042.28 6566.1 4340.76 4435.36 6065.22 6386.78 4221.28 4996.99 4470.61 4631.83 6193.35 6887.27 3701.27 6008.49 4806.34 5653.9 7144.24 5598.74 3600.43 4906.82 6600.94 5131.24 6155.1 4788.58 4709.35 5876.71 5624.49 5226.0 5339.78 3095.48 4166.08 5762.59 4861.06 4298.67 5960.66 3979.26 6608.73 3999.48 4730.41 4203.26 3923.03 5696.88 4004.04 5690.26 4156.2 5607.14 6915.83 4289.17 6072.45 5564.02 4470.98 6444.77 6314.07 5083.41 3921.08 7055.42 5683.61 5805.86 4049.02 4470.4 5311.03 4611.53 5255.12 4285.66 3872.61 4896.11 4238.4 4318.48 6132.95 5266.22 4860.33 5226.97 3685.13 5754.18 3312.06 5180.76 5132.68 3361.26 3418.99 4480.95 4993.35 5278.36 6218.95 5222.16 5533.72 5533.42 4802.32 4599.38 5246.47 4187.31 6191.29 7422.36 5161.01 4298.15 4950.67 4628.4 5832.37 5453.6 6051.83 5409.63 5294.77 3077.84 4709.05 4630.82 4813.08 6799.88 4540.86 3062.43 5426.78 5235.17 5652.0 4779.5 5463.41 4421.12 5225.33 4929.75 5254.49 6649.96 4456.39 4896.39 4384.88 3633.79 6081.14 5480.83 4220.46 4287.53 5683.26 5612.21 5046.21 5894.61 5687.83 5196.67 5004.23 6496.67 6442.69 5474.8 4373.3 6320.71 4648.04 4750.78 6262.72 5029.78 3365.82 3664.11 6481.79 5374.51 5320.28 5224.12 3637.61 4569.12 4796.58 4472.17 5873.69 4962.09 5654.31 4643.85 6062.05 5082.74 5411.85 4844.57 4027.46 5092.37 3901.8 5511.88 5759.46 4512.11 6248.6 5443.58 3836.45 5687.85 5346.68 4558.46 5296.29 5020.71 5997.88 5094.48 2681.29 5839.71 5576.92 6408.83 3930.79 5365.24 4004.35 4763.96 5008.63 4270.74 6293.89 6595.03 4983.39 5366.52 4690.55 5146.37 7132.12 3678.08 4836.16 5518.57 5151.11 5463.48 3240.51 5730.33 4527.99 5545.46 4376.7 5190.61 3764.06 4642.93 3973.12 4263.16 6024.75 6109.49 5860.67 5567.93 5987.42 2967.38 5990.52 3764.1 4835.83 4159.35 6477.91 3091.67 4237.98 6439.37 6045.22 4081.97 4614.3 4303.19 5134.39 5514.84 4256.57 3914.2 5421.53 4607.85 5937.08 6070.3 5128.57 4929.14 6000.7 5945.08 3979.54 5139.5 7493.3 4814.55 5833.06 3527.05 6607.87 4163.5 6515.84 4143.78 4123.6 7092.87 4970.88 4850.14 6739.08 5463.38 4471.58 6098.14 5945.21 5750.71 3493.7 6222.42 4938.74 4200.03 3474.39 5470.77 4831.47 6939.12 4406.4 4735.33 3999.94 4413.85 6171.13 6853.85 2395.5 4864.22 4020.4 3497.9 5941.61 5782.48 4031.78 4933.65 6098.1 5708.99 2435.33 6333.29 6401.43 4558.47 5731.57 5662.55 5737.92 4360.23 3755.95 6234.32 4585.31 4586.19 5293.51 4446.06 3450.93 5323.91 5097.45 4185.61 5737.75 4558.15 2761.07 3778.02 6552.21 5417.8 4350.12 5227.02 5670.0 4232.16 5300.96 4344.51 5680.94 3781.77 5581.55 4543.1 5193.01 6550.44 3474.5 8325.01 3860.83 5732.27 4440.81 4523.39 5941.9 5434.47 6642.76 5829.22 4497.78 4243.79 5811.18 5332.65 6451.33 5604.35 5413.31 6316.56 4332.87 6420.81 4715.58 5401.99 3317.83 5580.92 5784.3 3532.3 6088.68 5769.98 3583.21 2221.99 5442.32 4643.56 4135.08 4863.01 5620.74 5233.29 5604.21 4968.03 3169.67 5204.04 5304.13 3306.14 5944.09 5698.77 3464.83 4863.79 4702.06 2477.07 5117.47 4538.95 5724.64 2990.77 5965.15 4925.63 4763.66 4888.6 4666.81 7042.12 4780.2 4797.52 6326.39 6643.85 6343.14 5501.93 4020.95 5462.21 6313.06 5374.98 6470.3 6345.13 4719.7 5516.95 5313.22 5563.79 5328.22 4151.76 4216.17 3905.51 3493.47 4721.02 4254.37 4596.75 3374.08 5564.23 5950.04 4231.83 4074.48 3614.96 4477.04 3886.68 5703.74 4747.55 5464.68 3056.7 2685.81 5591.76 4510.8 5889.35 5010.04 4394.56 6625.18 4570.98 4275.07 5825.38 4573.72 4047.87 5099.21 5742.47 4917.99 5636.4 4367.78 4095.75 3603.51 4298.45 5222.51 6609.84 5135.96 3834.43 5658.37 4707.06 6074.94 5491.37 4250.88 6348.03 3475.67 4792.39 5278.56 5146.37 6917.62 4013.38 5631.14 6137.8 4343.78 5433.65 5263.3 4442.22 4008.15 4887.76 4669.06 3012.99 4811.32 6400.08 4743.59 5208.14 4450.7 5151.52 3763.05 5092.24 5973.33 4347.74 5291.9 5067.46 4009.62 3580.58 2081.58 5356.79 4011.37 4312.56 4778.82 4612.06 6124.08 3361.92 5467.84 4750.58 5490.58 5395.14 6710.88 3967.48 4923.41 6213.04 4497.31 3163.78 4721.32 4305.16 3293.56 5882.65 5092.28 5078.86 4918.77 5163.55 4819.73 3382.7 6817.32 6471.55 5085.71 4319.79 5960.56 5122.63 5774.97 5862.86 6049.79 4703.08 4390.41 5226.56 5274.19 4050.08 5599.49 4097.57 5452.42 5017.5 3436.15 5005.85 5711.11 4575.94 6484.17 5021.88 3546.71 4938.72 5956.65 5768.57 4498.25 4188.87 5151.21 3735.24 5398.64 3573.73 6574.95 6817.57 4693.52 6853.04 4568.41 3624.7 4745.43 3420.08 5831.96 4912.04 4539.07 4475.83 5480.3 7509.24 5896.26 5388.78 6101.13 5599.7 4163.74 6969.28 3665.95 4296.69 5698.96 3319.67 6471.42 5283.8 4076.59 4428.14 5164.1 6464.15 4972.17 4479.11 6685.4 5699.53 4222.77 3783.54 5268.38 5527.23 7038.89 3863.67 4814.12 6193.08 5067.56 6069.3 3352.35 2735.53 5116.6 4909.65 6523.86 7693.4 4286.49 4437.07 6184.88 5829.32 4396.25 5551.95 5369.08 3918.87 5549.49 4518.04 3101.75 5423.42 4766.06 4874.18 2511.46 6505.78 5657.36 2775.69 6519.43 3619.79 5029.47 5053.95 6667.68 5926.11 5211.38 5235.11 3830.46 6031.67 6413.11 5529.42 5274.14 5257.12 4739.14 4434.19 4636.5 4903.82 5100.1 4940.42 3954.91 4371.99 3703.1 4946.42 5923.4 3561.29 4623.61 4082.47 3295.83 6413.02 2965.01 6263.44 6235.57 4863.27 4584.5 3492.19 6766.43 4118.84 3623.87 2315.64 5916.16 6934.37 4890.5 6113.95 3731.84 4488.85 4901.07 3981.07 3554.48 5186.3 5966.61 4893.49 5325.44 5102.75 3672.21 5760.22 4597.29 5938.17 4200.09 5931.77 5108.06 4914.45 4222.4 4000.43 4661.03 5160.59 5262.35 4691.91 4320.42 4255.34 5344.83 5064.79 7046.11 3427.63 4863.97 4146.81 6342.48 5756.75 5093.82 4587.67 5951.81 3924.14 6918.35 6238.32 6804.79 6372.13 5369.5 5404.01 6016.19 4124.49 5535.91 3230.13 5714.25 6176.67 5325.96 4850.06 6332.01 5412.24 7044.29 4805.33 4234.18 7085.01 5980.95 6153.94 6836.82 3862.77 5887.01 4631.99 5168.35 2783.85 3747.03 5388.39 4356.49 5335.47 4326.48 4526.81 3449.37 3994.07 4219.94 5491.9 5907.46 6405.0 4264.91 4659.16 5789.55 4633.05 2275.45 6605.86 4901.2 5012.5 4785.25 5435.19 5461.55 4270.15 5876.64 3298.2 6306.21 5253.37 5424.46 5266.01 5767.9 6515.8 5384.76 7016.27 6622.11 6138.12 4428.78 4689.15 6790.73 5746.28 4965.89 5187.7 5659.95 6090.91 5409.66 4152.85 4537.14 4219.78 5551.9 4188.3 4963.34 5081.78 4260.92 5499.39 5644.82 4440.57 4407.9 5203.08 6736.03 5412.31 3087.09 5548.29 7480.41 5163.77 6027.62 3766.55 3423.15 4579.69 5010.2 6123.03 6496.52 3991.42 4997.83 3718.69 4388.63 4834.87 4514.79 2216.82 4509.89 6752.75 5269.38 4795.43 5607.3 5097.95 2928.82 4698.87 5313.12 5351.56 3984.88 3344.57 5318.53 5220.76 4281.98 4732.09 6945.98 7165.9 5783.48 4701.5 4449.98 4771.65 5589.37 4840.44 5439.49 6639.64 5212.43 3687.65 5454.12 4834.3 6348.54 4066.57 5642.35 5156.76 6357.47 6101.57 4891.38 4793.65 5955.86 4532.89 2949.12 4533.37 4848.46 2779.99 5016.02 4581.37 4920.21 4049.16 5851.61 3936.95 5478.11 5526.31 5030.15 3858.17 3477.1 4740.98 3185.39 5128.77 3728.18 7122.87 5633.61 5048.19 4243.26 6799.23 4888.27 6740.71 5399.29 6487.56 4854.11 5971.22 4909.31 5417.21 6522.59 5711.62 4383.56 3562.79 4990.79 7093.13 4953.1 6865.76 6449.64 2978.76 3940.49 4857.84 2040.66 4908.49 4962.21 5089.62 5884.9 3685.13 3685.65 5243.43 4590.55 4655.16 4741.26 5920.32 4916.22 3701.16 4186.6 5251.4 3867.19 4453.64 4345.67 5019.93 5511.6 3885.86 4459.28 5235.29 4517.73 5177.64 4541.8 4255.31 6116.33 4479.94 5453.3 3838.47 6250.23 2588.37 5887.15 4718.54 4435.51 8659.64 5374.07 4055.54 4588.7 6419.12 5683.95 5469.13 5765.42 4233.8 6098.95 4976.12 4817.16 5453.98 5148.08 6192.0 4940.28 7610.49 5885.28 6579.31 3004.34 5323.55 3022.6 5375.1 4811.76 4172.6 5498.42 4196.37 6448.66 3556.79 4453.97 5138.2 6412.67 7001.83 4504.35 4593.7 5012.97 4036.91 5110.11 6379.14 5216.26 4887.52 5478.95 3851.85 6318.23 4058.87 4206.98 5174.75 5932.07 4984.46 5948.71 3856.53 5460.89 6040.74 5260.85 5742.09 2884.65 5887.38 5807.46 6942.34 4393.16 3658.05 4549.69 3311.29 6423.81 6192.77 3644.78 4312.15 4078.93 5934.82 4501.78 3572.94 5797.36 5001.58 4153.84 5119.86 4592.15 5084.17 4901.44 3776.8 4998.22 5096.43 5533.19 6156.21 6602.43 4798.17 3568.28 5425.98 5166.79 4516.53 2895.63 5818.95 4093.99 4122.92 4997.91 6464.8 5079.22 3604.14 4684.44 4452.54 4406.05 4749.59 3468.42 4858.44 4673.35 5799.69 3876.21 5571.72 5869.4 5689.26 4992.42 5297.19 6022.7 4255.85 4940.84 5097.69 5895.77 6261.75 4765.72 3757.34 5857.79 2908.7 6415.61 4039.91 4338.08 4752.14 5037.06 5660.16 5842.56 6134.99 5191.08 5424.88 4062.5 5415.85 4199.45 7234.66 4207.54 4886.12 6599.66 4936.96 4301.61 6107.89 3184.64 5206.33 4446.84 5530.49 4304.41 5660.55 5653.03 3989.7 5578.94 4157.29 4777.03 4246.61 4286.17 3684.56 6028.09 3804.5 5452.36 6486.37 4638.18 6083.28 5211.6 5806.31 4745.79 5456.71 3503.41 4908.75 7317.04 3971.08 6204.65 4482.9 6550.4 4349.13 3766.69 4891.67 6818.91 3503.65 3634.5 4027.63 6631.28 6571.31 5420.67 4392.65 6413.15 6103.11 5048.55 6459.51 4024.31 4955.16 5844.72 3992.97 5989.05 4054.22 7228.94 5393.65 4441.22 4961.99 4648.21 4595.12 3110.13 6484.43 4625.67 3485.54 4458.64 4583.52 6418.11 3492.83 6015.02 4922.49 5244.22 5585.14 7039.98 4820.17 6456.58 4729.42 4159.81 5089.26 3886.72 5415.45 6592.93 6350.71 6436.74 6104.26 2460.79 5583.61 6063.64 5996.66 4986.71 6479.39 4405.42 3598.08 4599.81 5381.54 4680.94 5810.77 5828.35 5089.1 2711.19 4028.32 5876.72 5236.43 4771.13 3809.69 4099.92 3208.96 7051.9 5285.07 4608.41 4680.14 4732.09 4184.23 3988.3 4833.46 6136.49 5750.07 4642.66 6543.13 5276.7 5149.72 4378.3 4687.64 4419.71 4888.12 4244.21 4950.97 5411.02 3197.63 5175.29 4989.56 4863.96 4094.73 5199.44 6200.54 5148.58 4652.01 3548.39 5421.64 3583.49 3673.28 4858.51 5052.84 3375.28 4366.74 5625.65 4603.5 4481.76 4647.67 4214.44 5375.12 5452.78 5065.26 4356.36 4892.44 6789.23 4741.28 4215.2 5069.89 2205.51 5107.0 6212.15 6813.72 5327.75 4946.23 4609.02 4896.65 5561.74 5975.23 6100.73 4198.94 5470.04 4211.82 6556.26 2628.22 5684.25 5438.92 4244.49 5036.98 5513.8 5188.53 4521.75 3429.57 5569.2 5350.88 5410.33 4642.74 6735.97 5305.59 5416.45 4330.58 5754.6 3288.01 4904.51 4147.31 2202.77 5751.15 5950.88 4149.55 6201.86 5853.89 6551.93 3380.69 4140.4 4386.8 3639.44 5446.4 4725.01 5966.75 5510.9 3657.69 4505.28 4883.63 4971.29 6280.13 3684.15 5832.29 4438.76 3994.39 6006.89 4618.73 3814.65 3965.3 5244.98 4960.64 5792.98 4385.81 4034.05 5690.96 5798.38 4456.11 3862.91 4653.83 4125.9 5096.24 6171.71 7382.3 3628.89 2995.67 4668.88 4022.56 5522.21 5027.43 5698.23 3772.3 4855.01 7300.58 4714.83 3608.06 5474.15 7519.2 6633.61 4884.59 6355.68 3858.06 4478.6 4083.79 4144.57 4511.7 4304.63 4351.38 4187.94 5933.7 5550.75 4809.67 5021.77 4757.74 5036.58 5469.47 5776.96 5329.59 4209.49 6119.63 5464.25 3498.16 5439.9 4752.9 5512.16 4617.55 4287.16 3645.12 3456.47 3875.05 5471.74 4344.34 5713.03 5849.65 4928.27 5134.67 5775.31 4165.21 5297.16 3332.49 4215.0 5354.66 3566.79 5116.66 3629.44 5378.23 5374.67 4787.97 4981.43 3746.36 4061.6 2603.64 5473.72 2856.55 6214.73 5361.87 4553.68 3703.49 6502.97 4783.07 3758.22 4757.2 4852.58 6200.63 4532.7 4504.86 4473.29 4788.08 5079.64 996.652 6163.54 5212.37 6003.78 5058.51 4901.29 4124.76 4050.03 4775.04 4120.07 4813.33 4952.52 4882.66 3840.21 6746.66 4954.76 3908.56 4844.83 5244.78 3636.15 5652.87 6114.89 5135.63 6384.7 4355.83 6870.97 5351.86 6056.87 5474.01 5307.35 4342.18 7554.58 5166.89 5491.63 5725.37 3868.62 5138.33 3743.76 3425.69 6711.21 5510.45 4730.14 2606.51 4941.02 3864.92 6119.99 2955.36 3668.93 4128.1 5372.82 4983.3 4402.17 7778.01 5127.82 5124.17 5805.1 5366.11 5039.12 3419.87 3908.98 4824.81 6589.82 6328.42 7307.21 5522.75 5867.64 6208.9 4923.57 3340.09 6059.93 5602.53 5217.95 5484.36 4867.7 4829.35 3953.55 4075.28 5980.59 4063.9 5263.27 6834.41 6300.92 7248.4 4356.25 5161.1 3796.15 6045.67 4216.95 5466.33 5742.74 3946.28 3821.94 5984.81 5721.05 4209.31 3805.67 5486.48 4409.27 5718.28 4247.69 5301.47 4947.24 4588.99 6242.79 4321.21 3540.11 6506.86 5950.45 5391.48 5088.57 5580.34 4803.57 3852.6 5966.42 5131.15 4110.59 4847.14 5210.38 4706.5 5717.8 3950.27 4811.22 3683.86 5003.78 4918.76 3299.24 4208.41 6246.56 5826.78 4508.18 6358.93 5175.89 3894.64 6618.21 4268.19 5232.85 4374.74 4062.56 3717.47 4051.18 3205.68 5969.37 6816.66 3844.54 3217.67 5034.69 4509.46 4680.69 4420.11 6500.49 5965.58 4972.18 4607.18 3352.34 5329.76 3899.7 2403.72 7200.89 4147.49 4802.98 4833.55 4081.34 3646.95 7224.99 6334.53 5377.37 5869.67 4311.48 5483.7 4899.73 5018.69 3152.86 5952.38 5973.89 3896.27 5807.52 5963.36 5230.02 5087.14 5169.48 6016.08 4731.21 3124.7 6064.71 3719.11 6102.98 6060.17 5153.18 4763.4 5902.67 4236.86 5454.11 5393.76 5806.61 4983.1 6010.59 7123.04 3756.96 4009.24 5906.57 4446.58 5401.4 5053.15 5910.86 6239.68 7320.78 4064.58 4834.44 4234.88 4384.28 5769.14 5944.3 3563.14 3381.82 3619.72 5135.5 5347.9 4646.51 5640.72 4438.58 4565.93 4504.52 7107.63 6061.63 5073.02 2279.05 6545.43 6760.92 4277.24 4989.2 4314.56 4469.54 5291.05 3928.53 6650.77 6226.14 5599.29 5280.12 4801.8 7216.98 4444.97 5046.12 5271.02 3000.29 4807.4 6329.53 4350.15 7013.17 4139.3 4590.01 5367.73 4514.39 4640.06 6101.86 5078.31 4227.41 5993.0 4923.43 6047.14 5009.83 4568.64 5666.95 4642.2 4127.53 5210.75 4474.83 4548.45 6555.44 5293.75 5658.14 5730.61 5114.07 4385.49 7124.45 5064.67 4383.68 5836.26 6666.67 2617.39 5144.44 4583.94 5046.31 4928.35 1937.5 5241.75 4731.53 5849.53 3763.9 4651.99 3538.53 4788.7 6127.39 5863.0 5640.12 6638.25 5078.59 4759.99 5134.33 2646.13 5419.57 5162.67 5760.98 4705.68 5469.35 5384.86 4749.96 4658.24 4906.11 4387.39 4564.1 5457.66 6394.19 4848.14 5366.22 6193.73 5518.11 3742.11 4192.21 5712.35 3597.43 5701.52 4158.91 4743.9 6776.22 3360.86 5321.17 4869.25 4467.13 5545.21 3877.8 6273.6 5136.87 5024.32 4708.17 3779.45 2741.2 5790.42 5784.37 3142.09 5591.77 3682.35 5182.13 6110.48 7541.76 4775.49 4932.29 4681.29 4990.23 5499.59 3220.29 5749.6 3845.9 4141.21 4439.71 5782.43 4708.31 4456.26 5113.6 4027.33 4198.9 3873.92 4810.98 5026.76 5091.22 6282.38 5851.63 4546.44 5727.79 5212.92 4831.93 5788.97 3472.91 4928.85 4023.93 5868.89 8137.11 4711.04 5484.32 4173.54 7144.05 5606.51 4619.2 5166.41 5740.65 6038.68 6542.5 7104.73 5067.56 2596.96 3834.47 6349.67 5701.75 3272.75 4264.54 5262.47 3516.27 5261.19 3104.96 3512.94 7043.44 6541.45 4263.65 3831.52 4263.78 4601.74 4750.49 4643.9 6106.43 5228.75 4807.35 6761.81 5467.63 4728.55 4929.6 3919.62 4368.28 5750.35 4489.99 5984.8 4945.0 4658.11 3127.83 4551.26 4212.15 5678.58 6570.35 4242.63 4263.18 3269.54 7142.95 4559.74 6015.22 4454.74 6063.44 2904.46 4826.52 5120.92 4337.32 4685.4 6240.42 5146.0 5721.14 4577.73 5084.5 4987.28 4918.64 4815.47 4368.12 4365.58 5214.4 4636.53 5399.43 3629.49 5766.05 5117.64 3835.81 3916.42 4019.34 4869.48 5429.3 3623.19 6653.07 4745.16 4697.91 5825.55 5509.51 5719.79 4316.5 3199.4 4371.08 7261.51 5254.24 4968.14 4914.03 5086.29 5144.56 5139.18 5311.55 5551.43 3034.16 5049.99 4201.03 4333.87 5001.87 3667.93 5684.05 5638.7 5813.79 4644.88 5293.13 7350.26 3768.46 5167.53 5003.3 6245.52 5800.81 3954.77 3784.94 6016.87 3125.13 6715.73 4174.44 5209.55 5667.51 4564.41 6331.74 5951.86 5431.29 4252.18 4833.67 5023.41 4659.88 5325.91 4092.07 4213.05 5657.55 4224.3 4184.21 4700.07 5188.82 5615.84 4464.73 5043.14 4717.73 6440.38 4732.37 5556.0 4985.3 5072.5 3904.07 3274.85 5007.21 5748.9 5545.59 4506.18 4067.96 5610.53 4824.12 4099.26 2970.9 5206.47 4580.06 4834.39 4608.34 4383.47 6162.3 3926.11 5971.21 5493.89 4057.17 5464.83 7066.96 4467.0 4991.35 4587.7 4994.65 5601.55 4258.98 5196.92 4462.87 3787.08 4013.86 5644.81 6545.99 5334.36 3903.91 2918.64 5630.9 4140.92 4554.68 4512.07 4692.32 4896.43 5463.06 5236.24 4585.04 5260.52 6102.49 3185.09 3469.18 5114.23 2945.34 3372.95 5495.0 4489.29 7407.91 5064.23 6061.85 5268.15 5512.44 6449.06 4924.07 3200.6 4629.02 5914.5 6006.16 4288.45 4608.62 5407.96 4071.75 6206.98 4626.72 5131.77 6562.03 5549.71 4410.82 6443.99 3889.98 5193.58 5490.64 5695.44 4507.46 3422.21 5036.14 5603.68 5510.96 4944.51 5532.72 4584.81 3220.8 5179.17 5071.98 5579.39 5270.51 5148.1 5224.64 5949.73 4312.48 5527.13 6370.33 4278.57 5081.08 6318.25 6864.06 4493.79 4279.44 4932.56 4899.19 5058.34 4028.22 3918.94 5575.11 5487.63 3852.82 4507.36 7145.73 4168.52 5403.97 5106.46 6793.1 4068.31 5166.05 3671.06 4506.66 5077.29 5515.73 4850.5 5426.4 5763.05 5129.68 5357.39 5076.84 3791.41 5853.12 4208.37 5157.38 6203.03 4841.7 5702.4 5235.87 5069.9 5273.37 952.938 5473.89 6089.45 5810.17 4966.07 5713.36 4657.24 4749.18 5553.94 5494.28 3663.0 4704.92 4954.81 6304.49 5755.15 5134.72 4835.97 5695.79 6419.64 5287.25 3622.8 4589.06 2781.96 4770.51 4431.23 5414.58 5577.41 4184.47 5917.34 5740.98 3999.5 4346.07 5759.79 4012.92 5034.05 4598.54 4177.47 5218.42 4816.51 4218.16 4933.49 6139.64 3990.94 4756.8 4357.11 5477.8 4176.32 4639.8 4462.35 3986.41 6069.78 4241.68 5532.75 6949.65 4095.83 5695.25 5676.61 4301.93 5846.95 5716.42 5701.63 5819.0 6347.72 3460.93 5124.86 4927.73 4602.57 3763.85 3565.32 3419.07 5710.33 5344.44 6432.8 3186.07 4369.86 4967.51 5173.82 7212.97 3720.7 5698.53 5034.34 3856.73 3769.2 4450.49 3468.45 5635.32 4526.34 4316.45 5610.95 5042.75 4598.92 5241.22 6647.08 4979.52 5490.75 3422.29 4407.79 5214.63 3495.68 5783.94 5352.24 7362.42 4202.77 5836.14 5473.05 6008.81 5537.34 5192.49 3487.31 5726.42 6643.4 4674.9 5461.72 6599.28 6224.85 4556.19 5368.66 4795.08 6562.92 5501.73 4697.24 3612.44 7035.54 4983.43 5117.52 5233.76 5866.91 6405.69 2820.07 5679.74 5247.01 4825.73 4165.36 5288.33 6296.54 5797.21 5685.74 6740.35 4678.7 6028.63 3673.6 3450.07 3306.84 5265.21 4550.92 6215.87 4400.14 3669.32 5866.42 4762.1 3742.31 4316.0 3987.69 4546.96 4287.25 5424.55 4392.75 4921.1 3814.16 4271.07 4191.01 4420.6 4475.38 5340.05 4920.88 5995.4 5890.25 6511.37 4216.44 6710.14 4726.2 4426.02 4711.15 3825.48 5345.73 4658.59 4770.63 5188.22 3810.68 4841.23 4196.62 2804.54 2809.19 5005.6 5486.89 7208.19 4549.51 5196.08 3587.93 4517.29 4975.85 4495.75 5323.95 6171.01 4468.26 5796.26 4603.04 4870.94 4620.95 5293.37 5368.93 5271.88 4488.39 6121.56 7168.2 4571.74 4096.86 4796.12 3622.48 5001.51 5385.86 5115.42 4082.4 5482.76 3745.02 4887.73 4211.36 5378.24 3604.31 5817.74 5887.71 5661.6 4827.61 5409.08 5285.75 5481.64 5385.03 5673.75 5360.67 6263.3 4501.05 4537.03 6548.29 3990.96 4114.2 4326.06 5034.46 5793.12 5757.29 5469.17 5061.75 4373.2 6022.78 5884.99 4087.32 6647.85 7025.09 4433.12 3392.26 2549.95 4361.24 7336.37 5138.93 6945.69 6406.8 7086.69 5648.78 6875.73 5226.42 6081.3 5615.35 3967.76 6311.89 4683.28 4217.36 6549.8 4150.76 4851.18 5005.72 5368.52 4871.77 5811.26 5062.77 6019.35 6075.99 5262.79 5927.2 5146.1 6485.77 5191.26 5544.27 6060.06 3484.81 5960.5 5308.33 6502.99 4666.12 4685.65 6219.34 6023.07 5674.63 6470.23 6506.63 4140.04 4215.05 4668.8 3495.3 4271.93 5322.11 5700.79 4697.49 5735.08 7133.44 4750.81 3953.26 4474.39 5467.51 5459.92 6478.35 4096.47 5453.77 4916.7 4104.04 5589.53 5593.79 5025.42 4965.24 6379.38 6257.79 5438.55 4849.5 5353.23 6229.83 4523.81 5578.18 5106.33 5198.94 5933.54 5559.79 2980.31 5879.24 3148.79 5740.78 6824.53 5997.91 4332.64 4742.82 6791.86 4209.0 6031.22 4930.72 5485.84 5728.58 6424.77 6297.99 5918.95 4538.89 5689.56 6556.86 3242.31 6099.28 5372.25 3234.26 4169.15 3494.16 4778.37 5134.17 5968.54 4904.35 5592.54 3247.97 5390.33 5124.34 4904.37 4358.81 4651.64 5729.92 5016.46 6224.13 3769.24 4761.84 3661.67 5517.65 4009.68 2569.12 4622.73 4161.32 5161.74 5099.9 5932.28 2960.5 5118.86 4298.7 4183.4 6170.9 4733.79 5833.78 4436.48 4823.06 5758.98 5288.64 6213.24 6734.39 5942.45 4228.53 6123.46 6142.88 5155.28 5111.26 5388.73 5205.38 4574.54 4884.93 4949.55 4600.71 4494.15 3957.38 5035.71 4419.79 4710.88 5407.69 3869.39 4117.9 5393.43 6896.55 4753.76 4638.09 4441.91 5377.01 5330.26 5339.6 5828.25 5939.22 3626.86 6371.96 5125.17 4604.1 4859.01 5524.45 5076.11 5990.75 5600.21 5101.6 4282.11 4625.53 2347.41 4542.16 5114.67 3543.37 5353.66 2638.82 5030.33 5104.39 5234.2 4612.13 5846.6 4109.44 5327.05 4903.84 4290.49 4434.65 5977.66 5209.5 5065.74 5791.25 4873.23 4028.35 5464.05 5453.2 6348.93 5136.51 6815.51 5232.16 4422.23 4457.05 4820.68 3989.26 3618.64 5703.84 4335.79 5453.69 5797.32 5432.04 3921.27 3702.45 5265.63 3161.1 4898.29 4431.06 5730.2 4830.13 5620.88 5370.9 4074.16 4529.77 4325.13 6172.27 3783.79 5078.73 4248.14 5278.54 5729.0 5192.92 5275.57 4179.87 4786.66 5891.25 5370.1 5129.4 5114.51 3303.49 4655.37 5585.25 5256.75 5023.61 6351.89 6530.78 5560.23 4975.32 3043.77 5237.55 3902.48 4304.64 6030.39 4905.53 3799.01 7392.65 5254.49 3757.23 4181.93 6828.8 5987.88 3579.59 6161.94 4065.28 4461.14 5057.59 5939.29 5418.98 5285.6 5615.06 1969.87 3132.34 4764.83 5203.54 4841.28 4047.95 5507.38 6889.5 4416.87 5300.17 5152.78 4057.4 4052.43 4896.67 5534.23 3934.11 4781.9 6025.77 6815.96 6153.71 5917.08 4725.11 5418.12 5092.93 5934.05 5322.07 4714.66 6771.18 5770.07 4984.17 4656.01 6589.13 5602.62 4037.86 5714.51 5628.97 2030.03 4938.33 5527.27 4484.78 5157.73 4541.22 5847.91 4946.08 4934.66 3539.68 4984.01 6217.33 4605.39 4557.1 6688.53 5927.1 6175.27 5876.51 6731.89 5410.6 4733.41 5264.83 3901.53 5431.14 5313.86 5178.07 5189.91 5777.26 4171.02 7012.36 3530.82 5028.06 4002.99 4886.99 5159.67 5764.52 5684.88 6523.78 4645.86 4045.67 6005.95 4941.52 5900.0 4262.74 4581.1 6241.77 5317.19 5279.19 4016.6 5821.49 7050.08 5580.44 5998.13 5095.52 4746.15 3720.38 4758.84 4731.37 3976.0 4672.86 4068.41 5059.37 5783.38 4139.39 6264.03 3909.94 5088.64 3562.8 6589.8 3729.16 5319.1 3783.36 3038.91 3922.28 6570.43 6883.86 3445.92 3820.19 3350.99 4979.5 4586.82 4745.37 6026.04 6200.05 5575.11 4052.49 4034.41 5490.54 5326.03 6189.67 6142.94 4948.96 5001.69 5117.83 5256.82 6581.56 3980.46 4061.87 5165.31 5383.9 5158.44 4466.22 4288.5 4496.51 3886.56 4511.05 3456.3 6561.94 5483.37 5259.21 4256.08 5881.93 2803.01 4399.52 4444.0 4554.24 6182.19 5327.39 5781.62 4138.59 4981.81 5141.03 4970.55 8123.59 4621.33 5765.14 4767.54 5121.08 2927.84 4696.03 6177.68 4698.7 6270.59 6045.26 2848.44 6500.45 4907.55 4103.76 4286.61 2932.52 4603.66 4757.87 4969.68 3557.46 6636.43 5971.95 6298.8 3979.46 3689.24 6321.97 5151.19 6509.54 6119.0 3792.06 5128.59 4293.3 5587.3 3572.73 4864.38 3770.22 4848.98 4390.64 5150.84 4608.01 5087.97 4308.49 4519.03 4930.17 5110.27 4745.44 4085.96 5762.82 7360.12 6223.98 5462.6 5617.29 3035.06 4262.19 4597.88 4878.93 6275.25 6892.33 4505.3 4452.36 4491.26 4511.34 4832.21 6463.71 4742.35 5394.79 5645.54 5264.08 4526.87 4151.74 5192.82 6920.92 4174.22 3573.84 4067.89 4515.02 6294.09 4571.57 5131.07 5236.69 4121.07 5524.28 3133.28 5731.43 5859.17 6353.81 4150.44 3518.14 5061.74 5771.98 4420.35 5899.78 5717.45 5772.57 4813.81 5268.27 4013.86 5244.95 4645.93 5448.64 4585.37 3798.09 5901.8 6417.61 5715.51 5783.69 6074.39 5317.83 6738.9 4460.89 4157.1 8052.53 3939.96 4867.12 5910.66 7415.84 4637.3 5734.07 4840.44 3997.68 6033.28 4819.83 6286.27 4801.16 5071.38 5616.66 5688.77 5368.28 5466.13 6229.64 4220.43 6263.87 5743.8 4094.63 6666.34 5084.76 6605.11 6834.92 6379.33 5130.57 5652.73 5402.45 3985.93 6412.84 6071.59 2589.19 6079.55 5485.61 4993.49 5310.33 6583.37 3688.83 4569.32 3402.44 4491.96 6084.88 5184.98 4397.06 4467.51 5339.82 4479.5 6261.67 5460.57 5065.78 5703.34 4612.68 6668.98 6649.52 4232.33 4939.56 4747.68 5770.92 3093.38 4845.91 2002.78 4461.67 5631.32 6322.0 5793.14 6345.2 4609.65 5704.61 5009.21 5410.73 4379.91 4574.03 5290.37 5850.38 4227.66 4691.01 4730.97 4594.89 3677.85 5245.95 5821.42 5214.71 4811.11 3463.53 4924.52 6126.03 6044.69 2970.24 4197.87 5105.54 5462.1 6032.45 3414.67 5444.36 5522.34 4026.03 2649.69 6908.32 3467.11 5000.74 6153.26 5637.53 3882.37 4634.25 4095.4 5188.57 6351.48 5395.12 3721.69 5357.33 3830.7 6210.0 5350.9 3483.61 7430.48 5992.06 5545.68 6080.69 4970.12 4967.93 6044.01 6520.19 1458.87 5973.57 6241.48 5125.45 5957.82 4188.16 6327.54 5507.07 4802.36 2943.17 5327.71 4880.78 5257.38 5075.23 5625.02 4975.56 7282.36 4829.77 3826.01 4645.91 5581.01 4125.75 5749.53 5247.73 5090.48 5034.02 5582.28 5945.25 5181.31 3856.4 4696.06 4137.16 4937.36 5308.4 6581.13 5537.61 5803.3 4721.98 5252.82 4199.44 3543.98 4053.12 5056.26 5878.55 4014.44 3435.13 6002.77 4431.46 3794.47 4521.42 4610.55 3207.84 4967.02 4614.49 3977.98 5400.69 6043.34 4462.5 4128.93 4959.72 4712.17 3808.04 4723.71 4405.61 6126.5 4034.88 3511.5 6007.1 5488.96 3188.21 5128.03 3720.92 5087.3 4942.63 6139.74 4975.57 7066.26 3057.3 6150.31 5873.62 4677.84 4996.91 3920.44 5379.52 4866.8 5658.05 5314.67 6593.1 4066.36 4000.51 6033.93 5011.37 2827.92 5044.68 5092.44 4441.44 4232.44 5336.61 4817.75 3312.3 5563.09 4848.15 3282.57 4439.09 4798.13 5523.81 4718.61 6697.45 3873.79 5717.67 5515.59 5252.37 5432.4 4262.52 5037.58 6457.89 5640.67 6572.17 3751.73 5555.89 3374.62 4766.47 4926.62 6369.66 5678.08 5872.45 5922.62 4414.09 5191.29 3784.68 4947.64 3717.22 6649.21 4654.92 5286.55 5522.18 4322.56 5509.09 5223.1 3873.72 5212.05 4592.49 5479.86 6474.5 3928.99 4702.32 4444.92 6959.88 5971.9 3746.62 4532.67 4876.37 4769.62 5260.13 4649.5 4810.74 5985.75 5475.83 6189.29 5984.55 5672.46 3228.27 5202.33 3956.24 7558.99 4142.1 5043.14 5333.04 5445.91 6604.72 4812.59 6842.54 7115.67 5675.45 3361.11 6038.56 5573.31 2807.46 5004.68 5599.16 4023.88 4179.8 5348.11 3488.34 5658.35 5428.24 5108.84 4582.12 4520.14 5067.92 5357.14 4850.95 5919.27 4793.06 6637.38 6188.33 6111.23 6916.18 5786.06 4137.41 3868.69 5447.74 4450.51 6033.72 3768.62 3851.47 4966.74 5563.47 5651.46 3162.27 5639.4 6185.73 5516.37 6520.96 5432.2 4612.4 4746.19 6381.58 5212.2 5648.59 4611.21 5108.42 4630.5 6296.36 4432.32 4451.76 3224.81 4499.54 3775.38 4046.22 4104.97 4844.2 4575.72 5114.61 6118.13 4420.3 6332.64 4871.1 3917.09 6009.93 3482.73 4083.1 5270.1 5130.56 4957.99 6305.9 3470.69 4542.62 4859.95 4132.08 6009.88 4699.77 4850.49 4981.55 3625.98 5144.23 6188.62 6153.07 4414.06 4763.04 5944.52 4413.56 5050.2 2513.38 4821.41 5316.05 4908.32 3995.08 5019.84 3874.12 3900.93 4028.13 5784.38 4149.17 4329.8 5728.27 3074.49 3053.19 5580.95 3549.92 3393.59 4032.06 5246.81 5089.1 5888.95 4521.99 5394.78 3463.34 2853.68 4998.37 5329.84 6559.82 3879.83 6565.95 4577.98 5886.81 4487.51 6805.02 4295.25 7394.47 4729.45 6261.13 5374.09 6271.22 3421.81 5378.75 3920.64 6186.24 5822.7 3780.07 5466.49 4038.17 5007.41 3692.99 4907.48 6213.74 4959.94 2329.93 1635.31 6938.87 5412.07 5512.57 4083.24 4806.99 4813.55 3771.91 5217.62 3839.0 6178.19 4616.81 5715.25 4362.94 4469.82 6545.78 3354.94 4404.87 5237.27 5767.65 7885.41 5782.25 5497.27 4081.77 5617.91 4948.21 4987.01 2181.29 4202.12 4706.31 2694.25 4735.99 6492.44 4613.32 5145.39 3352.46 3996.93 6351.95 5195.09 4063.26 5345.05 4997.89 7679.2 5093.28 4881.51 6131.52 2626.41 4311.92 6729.99 5093.41 6842.35 5464.34 3621.63 4777.96 5801.89 5908.57 7296.47 5742.39 4780.16 4924.53 5616.11 4499.52 4433.23 4813.24 5759.19 4457.73 3113.64 6476.35 4304.75 6260.58 4067.24 6139.9 6571.26 4313.38 6598.99 5250.56 2468.16 3633.58 6294.14 4339.97 5203.75 5169.09 5122.38 5262.85 2459.88 4210.24 5470.67 5901.71 5342.9 5733.12 5043.34 6436.29 4246.24 5402.81 5354.48 4600.81 5640.63 4900.26 5783.88 4167.55 5002.38 4720.34 5244.47 4865.11 4731.16 5510.89 6470.87 4495.33 5282.67 4159.89 5178.55 5146.69 6203.24 6818.23 4488.41 4369.87 5652.19 5806.74 6578.62 5856.43 6284.12 3465.03 4796.04 5349.85 5229.56 5799.86 5172.1 6052.22 5376.41 5003.63 4870.14 2932.2 5105.72 4944.08 4082.01 5003.49 4750.76 3964.03 4907.03 5832.72 3903.9 4444.95 4721.2 5161.02 6265.48 4203.68 5003.81 4739.56 4701.03 3818.37 6225.05 5434.04 5200.1 3997.52 5779.9 4909.74 5310.33 5299.03 6664.54 3922.98 5161.73 5259.48 5254.93 4803.4 6833.5 6608.94 2613.78 5417.07 5738.37 3834.01 6789.66 4739.41 5312.2 5847.27 4490.2 5480.86 5734.84 3982.31 4720.22 4950.07 2832.83 5827.3 6036.99 3010.1 3825.98 4589.22 5087.03 4667.84 3906.41 4691.15 4123.08 4512.6 4260.38 4636.45 4932.27 5225.11 6793.49 5252.22 3563.33 4962.35 6060.19 6786.37 4333.23 4328.76 4919.13 4124.33 5168.97 4358.06 5093.51 5647.93 6705.93 6201.49 5449.09 5502.14 4605.61 4465.56 4131.08 5386.95 5747.9 3864.19 4287.93 5332.11 5315.71 6158.93 5081.65 4823.14 6679.12 4621.32 5699.4 3878.8 4698.94 3948.21 4286.84 5669.15 5296.05 6011.4 5263.86 4672.34 3330.85 5056.32 5533.52 5410.33 4695.7 4747.24 4380.86 5576.16 5269.39 4305.35 5210.22 4216.33 2451.27 5677.42 4929.35 5606.22 3943.77 3124.49 5242.38 6081.35 5459.52 6262.18 5566.5 5663.36 4276.59 5579.04 5125.53 5994.21 4444.54 5403.81 5082.25 6964.78 4374.05 5036.84 4565.36 5813.68 4025.08 4008.67 3618.53 4770.21 8013.28 3846.55 3796.73 3082.16 4644.68 2892.36 5656.84 5416.41 4694.27 6760.64 4706.59 2515.5 5177.88 5551.79 6981.47 4582.24 4474.96 3916.15 4758.76 4084.87 4790.63 5259.29 3584.05 4916.75 4818.53 5097.85 5584.64 6189.04 6224.64 4221.03 3799.55 5638.51 5082.66 4550.77 4337.93 3550.88 4345.51 4048.73 5536.0 5145.13 3860.8 3747.96 5561.63 5940.5 6568.45 5004.22 4280.92 4696.92 5154.74 6437.99 6898.8 6540.57 4893.72 6004.72 4072.4 5373.78 5345.65 5438.5 4489.18 2489.44 5863.36 4632.75 5237.76 4994.98 6423.96 6058.13 5894.69 6988.4 6635.51 4060.17 6051.35 5302.53 4909.13 4287.61 5648.02 3308.75 4604.34 4439.17 2701.42 5442.79 5051.39 6673.92 5151.68 4884.94 5362.15 4609.98 4455.61 4738.72 4752.31 5240.97 5569.85 5405.6 3929.35 4884.93 4759.38 6960.97 4287.15 5282.51 5504.65 5669.41 5732.11 5040.9 3919.47 5596.68 4868.66 4004.39 5159.9 5283.65 5943.61 5981.54 5911.29 4542.25 4414.23 5233.88 4849.21 4785.55 3793.83 6189.81 5367.05 4449.73 5647.11 4088.72 3945.62 3743.85 6236.46 5342.17 6379.3 5015.67 3795.63 5189.4 4576.71 6538.04 4894.15 6157.59 5201.3 5848.41 6223.33 4090.28 5438.6 7370.52 5611.29 4521.88 3724.23 4963.88 4601.54 7263.57 3832.09 5705.96 5267.65 5739.69 6632.04 5360.88 7360.62 4977.64 4985.45 4983.56 5699.51 5499.37 4883.13 4836.76 4752.94 5551.09 3950.53 4501.1 5581.47 4384.91 4987.01 4713.56 6094.34 6779.82 5543.67 3999.81 4867.13 6377.45 4863.27 4182.05 4502.12 3255.93 6853.07 6327.61 4633.59 5733.59 5575.8 5268.93 3695.72 6874.6 5106.9 5306.31 5523.96 4223.53 4733.37 4535.94 3037.72 4523.9 5126.08 5604.0 3760.4 4951.02 4602.7 3783.35 4037.16 6395.63 4987.48 4248.58 5479.17 5020.37 5245.4 4246.83 4726.5 5467.05 5103.3 5888.94 4727.98 4122.2 5175.88 4516.26 4790.16 3509.34 3647.26 3731.58 3166.37 5369.42 5207.08 5205.53 4714.52 4587.19 5543.05 6028.89 5333.16 4888.17 5755.98 5392.85 5077.2 4274.05 6550.61 4277.54 5529.09 4531.46 5925.82 5448.68 4739.5 6210.48 4491.62 3865.5 5275.27 4072.95 
SCALARS Velocity float 1
LOOKUP_TABLE default
1.54014 1.53955 1.54106 1.53917 1.54385 1.5622 1.54948 1.58093 1.4857 1.48833 1.54048 1.53965 1.53939 1.53958 1.5389 1.55671 1.55411 1.56245 1.55841 1.57558 1.57862 1.60463 1.5777 1.58245 1.52447 1.54618 1.5566 1.59082 1.62347 1.47365 1.48462 1.54177 1.53826 1.53716 1.54912 1.55128 1.55457 1.55821 1.56402 1.59047 1.56284 1.60216 1.62731 1.59206 1.50748 1.49992 1.52649 1.54954 1.55454 1.58977 1.5828 1.61177 1.60254 1.5504 1.47484 1.54168 1.54508 1.54815 1.54935 1.5535 1.55281 1.54213 1.55538 1.56007 1.55293 1.56018 1.59986 1.6166 1.59283 1.50603 1.51522 1.52209 1.52415 1.48196 1.53665 1.55208 1.61207 1.59283 1.58041 1.60722 1.54547 1.55331 1.55171 1.55491 1.55292 1.55434 1.5579 1.53087 1.59918 1.62688 1.60195 1.61953 1.5297 1.57621 1.49849 1.44088 1.48008 1.48408 1.53537 1.55987 1.4851 1.53396 1.58657 1.62148 1.62112 1.58904 1.54691 1.54748 1.55333 1.55691 1.54807 1.56779 1.55443 1.53367 1.54683 1.55671 1.56923 1.60238 1.53775 1.47851 1.64646 1.65347 1.59503 1.53394 1.46948 1.42592 1.56327 1.52874 1.4825 1.56369 1.59661 1.59194 1.54768 1.553 1.56766 1.5801 1.5592 1.57168 1.52541 1.56946 1.54416 1.55608 1.4657 1.56107 1.38911 1.59618 1.58061 1.49476 1.47912 1.40783 1.63073 1.46936 1.53003 1.55172 1.57532 1.53406 1.50609 1.52966 1.58908 1.5926 1.55218 1.55435 1.54069 1.53303 1.54751 1.55307 1.56992 1.61272 1.53323 1.57778 1.58497 1.5399 1.49155 1.6306 1.33933 1.5093 1.59523 1.46236 1.62091 1.51266 1.61092 1.56184 1.51143 1.5278 1.54754 1.55957 1.58928 1.58092 1.59119 1.59148 1.55363 1.53087 1.57129 1.57327 1.58226 1.61524 1.43282 1.60767 1.53336 1.52015 1.47408 1.55175 1.39154 1.30782 1.47497 1.54681 1.6229 1.50001 1.54295 1.57562 1.53071 1.50375 1.56621 1.50376 1.47005 1.51513 1.56346 1.59612 1.59498 1.55951 1.59238 1.58896 1.59576 1.59849 1.48895 1.43897 1.49346 1.45296 1.4892 1.48755 1.52877 1.33537 1.45079 1.56054 1.64835 1.53548 1.60109 1.43503 1.55065 1.39304 1.48302 1.58992 1.60612 1.57335 1.58248 1.57686 1.5869 1.56868 1.55818 1.58189 1.56304 1.55602 1.49237 1.50043 1.45965 1.39781 1.45172 1.50181 1.45689 1.48814 1.42385 1.49137 1.50132 1.58825 1.64794 1.64736 1.48336 1.67593 1.49572 1.79016 1.42936 1.57439 1.47411 1.62597 1.56524 1.53851 1.55698 1.54406 1.53068 1.50054 1.49237 1.53301 1.36769 1.45204 1.48832 1.49302 1.4877 1.5302 1.46761 1.48559 1.5451 1.5931 1.79227 1.27951 1.46732 1.49333 1.73145 1.55117 1.62708 1.5136 1.69806 1.83638 1.58851 1.54611 1.52101 1.54735 1.55538 1.44621 1.49663 1.4797 1.49631 1.32595 1.40356 1.44633 1.46581 1.45964 1.50899 1.48435 1.51072 1.55919 1.49555 1.5196 1.53947 1.40628 1.32558 1.49254 1.56407 1.58147 1.54331 1.58872 1.5458 1.52102 1.66135 1.19178 1.44508 1.49137 1.51301 1.55875 1.5426 1.55062 1.49226 1.41849 1.41013 1.40268 1.44064 1.47275 1.51805 1.57078 1.52007 1.49383 1.49386 1.48259 1.49716 1.45745 1.39307 1.409 1.35768 1.42567 1.49581 1.63385 1.58823 1.58485 1.53601 1.413 1.49524 1.30403 2.22844 2.24214 19.2456 1.67094 1.06044 1.43533 1.41028 1.60096 1.60772 1.58235 1.55474 1.54589 1.45531 1.38449 1.40599 1.42686 1.48559 1.46105 1.48103 1.48967 1.5092 1.50839 1.52732 1.28191 1.42502 1.45733 1.4507 1.46974 1.41538 1.46112 1.44284 1.4562 1.53978 1.55478 1.72691 1.65013 1.49314 1.51161 1.48687 1.37219 1.59557 1.20946 1.42018 1.30249 4.49509 0.784283 1.00607 1.09152 2.35096 0.96087 2.41709 1.74428 1.49752 1.59085 1.35878 1.45966 1.6406 1.52852 1.65115 1.62363 1.46201 1.32853 1.39201 1.35832 1.52373 1.61158 1.51217 1.41 1.4325 1.58299 0.762096 1.13548 1.18161 1.39172 1.37157 1.43466 1.44231 1.42725 1.30759 1.39858 1.46194 1.5123 1.57391 1.76392 1.55506 1.42497 1.53279 1.45797 1.43915 1.72028 1.68918 1.72496 1.65287 1.20304 1.13123 1.12624 1.49229 1.22021 0.992266 0.915118 0.967757 0.910422 0.985057 0.990962 1.1799 1.21648 1.1017 1.15078 1.26483 1.34161 1.47418 1.52844 1.57848 1.57769 1.40685 1.47796 1.42591 1.37328 1.35305 1.31276 1.56568 1.42533 1.54994 1.22222 1.43791 1.42437 1.3703 1.51056 1.6054 1.13391 1.21383 1.5038 1.61266 1.47642 1.25273 1.31637 1.46275 1.44889 1.427 1.41524 1.63495 1.39931 1.64343 1.40742 1.38312 1.48122 1.4065 1.3758 1.53726 1.26393 0.977293 1.20049 1.15122 0.9725 1.12724 1.0179 0.966848 0.995382 1.00708 0.983694 1.01803 0.940401 0.961899 0.994867 0.972996 1.06381 1.00136 1.03234 1.12453 1.0694 1.13663 1.08137 1.11521 1.1344 1.17011 1.10403 1.1343 1.33105 1.35557 1.23947 1.29539 1.37182 1.36306 1.28047 1.39377 1.41486 1.20826 1.32414 1.49781 1.11087 1.2844 1.29544 1.65347 1.21203 0.67305 1.18719 1.14892 1.26987 1.27998 1.30967 1.35355 1.549 1.56473 1.40406 1.51032 1.40526 1.47964 1.249 1.19999 1.44411 1.21713 1.46456 1.16915 1.07797 1.43038 1.18884 1.22815 1.12249 1.26639 1.11975 1.12507 0.992607 1.05315 0.997309 1.02687 1.01644 0.976306 0.966382 1.07266 1.145 1.0195 1.02061 0.957944 0.993512 0.990322 1.00353 1.00118 1.02384 1.0364 1.10294 1.05952 1.11958 1.13717 1.09674 1.09368 1.03634 1.07495 1.09981 1.17607 1.24115 1.21342 1.18702 1.20217 1.28878 1.35451 1.33063 1.46147 1.29399 1.13879 1.20481 0.925983 1.1852 1.32215 0.861981 1.28542 0.947538 1.14753 1.18359 1.15611 1.60952 1.4863 1.40702 1.36463 1.46847 1.12357 1.16829 1.13471 1.36104 1.17345 1.27028 1.17414 0.950767 0.976393 0.98428 1.10429 0.977943 1.02256 0.979436 0.974769 0.944761 0.900579 1.01782 0.839896 0.937817 0.87556 0.797182 0.889688 0.824978 0.903738 0.993037 0.974285 0.912477 0.968982 0.913408 0.936766 0.974614 0.907771 0.928103 0.968969 1.01469 1.19558 1.09578 1.0486 1.04888 0.883141 0.967011 0.978263 1.20248 1.16545 1.19464 1.23141 1.23428 1.29709 1.22164 1.32281 1.15047 1.2883 1.05099 1.1925 1.12243 1.14538 1.12202 1.11607 1.17833 1.10887 1.11962 1.08725 1.12139 0.984706 1.0586 1.13669 1.13971 1.09722 0.903543 1.08073 1.65183 1.25986 1.04982 1.09284 1.12259 1.12543 1.07639 1.09147 1.13582 1.08159 0.954947 0.994317 0.978016 0.953877 1.0093 1.01394 0.993223 0.988222 1.02615 1.03186 1.01689 0.922605 0.924989 0.873752 0.906952 0.955969 0.944321 0.902452 0.909015 0.897493 0.893687 0.691792 0.634135 0.993203 0.801388 0.857711 0.908953 1.07944 0.982645 1.11452 0.904711 0.923414 0.922244 0.961376 0.964893 0.944906 0.898366 0.885504 0.838737 0.904449 0.995457 0.940146 0.917307 0.994586 0.993234 0.96909 1.01144 1.00822 0.996219 1.0941 1.03268 0.984067 0.999015 1.14213 1.15598 1.0744 1.11738 1.13728 1.08951 1.10066 1.15269 1.12207 1.22446 1.15891 0.984328 1.14635 1.15526 1.08348 1.12506 1.03271 1.08502 1.02531 1.05059 1.00749 1.10198 1.27568 1.09446 1.15172 1.18448 1.22383 1.11971 0.970248 1.01305 1.08751 1.15976 1.06129 1.12295 1.06275 1.10809 1.03201 0.90252 0.936588 1.00956 0.993454 0.937888 1.1103 1.04044 0.879116 1.10149 0.905817 0.927739 1.00116 0.928652 0.974869 0.872017 0.904866 0.892614 0.878833 0.591953 0.667419 0.610468 0.602239 0.762938 0.87448 0.770481 1.27357 0.574257 1.26451 1.09459 1.01812 1.00218 0.918717 0.850733 0.855004 0.879823 0.872521 0.888012 0.848911 0.866516 0.862821 0.82481 1.02754 0.981352 1.02376 1.01518 0.969232 1.06564 1.05339 1.06974 1.00333 1.09335 1.03599 1.06067 1.06021 1.10987 1.06547 0.834813 1.42388 1.48649 0.901323 1.09998 1.21414 1.19551 1.02796 1.04827 1.05326 1.01365 0.994852 0.990571 0.981471 1.00303 0.985562 1.01503 0.972604 1.04781 1.04098 1.04598 1.04071 1.05321 1.00094 0.966824 1.04767 0.930119 0.902519 0.903464 0.991673 1.00844 1.03293 1.02055 1.02155 1.04541 1.02936 0.874446 1.00115 0.97144 0.95555 0.97974 0.867486 0.938538 0.988724 0.998544 0.991361 0.77185 1.01464 0.71757 0.938516 0.775467 0.793364 0.904853 0.88145 0.790457 0.893541 0.879366 0.894203 0.888373 0.869782 0.870572 0.872777 0.696733 0.812972 0.618969 0.591969 0.735534 0.775266 0.679316 0.807905 0.463454 1.0369 0.824133 0.851109 0.831283 0.996181 0.937765 1.00993 0.897484 0.889119 0.858014 0.864792 0.836696 0.921142 0.835232 1.10846 0.986395 1.22607 1.11373 1.02155 0.782106 1.09961 0.890787 1.04217 1.17314 1.09978 0.909956 0.956 0.980287 0.936086 1.04858 0.993437 1.02172 1.02112 1.05208 1.14275 1.14976 0.580836 0.88743 1.06127 1.07093 1.27734 1.06657 1.09054 1.01458 0.996089 0.988758 0.985974 0.970072 0.926148 1.00268 0.947862 0.924918 0.919419 1.02873 0.937095 1.01833 1.0337 1.00993 0.965901 0.950342 0.957665 1.00858 0.86626 0.949456 0.85057 0.883921 0.767595 0.790851 0.856261 0.838274 0.825141 0.875046 0.855463 0.857181 0.855794 0.867179 0.829695 0.857475 0.824008 0.850871 0.828073 0.806444 0.808469 0.832972 0.839292 0.805212 0.82748 0.837296 0.917875 0.932172 1.07691 1.1123 0.936864 0.965298 0.968299 0.938813 0.982966 0.895035 0.7465 0.629447 1.01319 1.23104 0.879094 0.892506 0.822319 0.868097 0.751237 0.796947 0.84691 0.861798 0.864549 0.847871 0.932424 0.91649 0.900437 0.961064 0.966067 0.985018 0.980927 1.01402 1.11922 1.03245 1.13011 0.798641 0.804824 0.9432 0.93916 0.917916 0.976967 0.919951 1.04602 1.14143 1.03863 0.986353 0.987477 0.976451 0.966669 0.970211 0.940325 0.971694 0.827739 0.844709 1.00767 0.900523 0.944442 0.851088 0.931465 0.918106 0.830392 0.920387 0.920312 0.89298 0.919195 0.912302 0.935253 0.79153 0.936529 0.95581 1.01283 0.951002 0.970075 0.920412 0.96158 0.852136 0.911088 0.973358 0.816177 0.848496 0.857797 0.852236 0.84986 0.856684 0.870222 0.840546 0.80179 0.788046 0.801412 0.800367 0.788955 0.78435 0.807432 0.786044 0.737058 0.738503 0.733988 0.769007 0.82142 0.84199 0.831027 0.808486 0.785286 0.801554 0.831128 0.824249 0.803461 0.766684 1.0368 0.922682 0.935204 0.85537 0.819701 0.888522 0.811048 0.753929 0.821336 0.920201 0.890301 0.834143 0.75748 0.799682 0.760994 0.860157 0.790613 0.918474 0.91502 0.924534 0.920389 0.945423 0.976673 0.968011 0.985877 0.987491 0.996251 1.09009 1.00843 1.31369 1.27683 0.746722 0.997961 0.972623 0.960286 0.97709 0.953929 0.887421 1.05253 0.98606 0.978769 0.955357 0.962502 0.955699 0.897608 0.893553 0.849711 0.785178 0.789044 0.875668 0.800519 0.853986 0.838841 0.858204 0.844759 0.852907 0.874105 0.854293 0.76511 0.873033 0.716367 0.892277 0.889552 0.888 0.900019 0.913972 0.98973 1.02346 0.77416 0.806162 0.825165 0.813834 0.865479 0.92433 0.876353 0.836595 0.832743 0.865225 0.802391 0.784365 0.78079 0.779884 0.796446 0.791914 0.78748 0.76756 0.760991 0.687614 0.735908 0.735923 0.746662 0.764056 0.847281 0.793673 0.850257 0.868243 0.852852 0.826894 0.803786 0.830623 0.820682 0.80303 0.746774 0.799731 0.722377 0.735584 0.686312 0.825244 0.785316 0.903714 0.826271 0.838513 0.797626 0.811185 0.848473 0.858417 0.864934 0.871764 0.88436 0.838159 0.842914 0.796764 0.797477 0.870088 0.917622 0.900792 0.885352 0.87877 0.869798 0.9114 0.947084 0.899575 0.914919 0.926966 0.918431 0.958903 0.959939 0.982779 0.973374 1.02076 0.973103 1.04077 0.709636 0.857741 1.03629 0.951732 0.894252 0.963832 1.08552 1.03652 0.947856 0.935574 0.941103 0.933775 0.915852 0.900099 0.889664 0.873428 0.822505 0.836998 0.848182 0.891509 0.818123 0.838824 0.825318 0.832022 0.818157 0.863587 0.810236 0.860138 0.828731 0.763961 0.989484 0.847177 0.854597 0.849624 0.875091 0.977574 0.868118 0.846533 0.828189 0.853215 0.816868 0.884961 0.728971 0.794501 0.70874 0.794737 0.790812 0.78868 0.758347 0.805801 0.798395 0.717671 0.736853 0.744917 0.74182 0.741371 0.75686 0.735543 0.735544 0.685966 0.807627 0.736337 0.680461 0.705652 0.704843 0.721722 0.815615 0.841896 0.842682 0.859354 0.852863 0.853733 0.718988 0.795732 0.728601 0.756378 0.73903 0.842978 0.898501 0.93232 0.866084 0.842264 0.821946 0.839564 0.812668 0.818423 0.814088 0.851974 0.847363 0.82015 0.822743 0.756169 0.811022 0.869646 0.857679 0.837763 0.893007 0.885731 0.969601 0.911871 0.922035 0.934946 0.959715 0.96979 0.94856 0.976397 0.919309 0.849197 0.900999 0.89015 1.0154 0.97289 0.917399 0.930062 0.937377 0.955483 0.932724 0.925486 0.935541 0.913218 0.903814 0.857403 0.845346 0.865092 0.849376 0.820205 0.858718 0.84855 0.831481 0.813872 0.80397 0.824181 0.821308 0.81794 0.864145 0.825703 0.836869 0.720936 0.728769 0.825771 0.832937 0.839709 0.898139 0.864544 0.820789 0.832391 0.854826 0.844944 0.845785 0.897385 0.780037 0.815923 0.766558 0.784868 0.796263 0.821487 0.772118 0.733017 0.72968 0.738943 0.733913 0.729559 0.731552 0.702129 0.726147 0.851586 0.940665 0.788998 0.855763 0.771887 0.869545 0.823803 0.898317 0.557878 0.694641 0.772887 0.846223 0.850857 0.797434 0.861414 0.890155 0.822246 0.807703 0.737575 0.838061 0.722331 0.781574 0.678874 0.769896 0.887028 0.837167 0.838742 0.829182 0.843321 0.861597 0.866696 0.830781 0.82673 0.826227 0.8161 0.817365 0.821782 0.813698 0.79284 0.900806 0.839627 0.84501 0.849859 0.882533 0.873719 0.925564 1.09579 0.896859 0.90049 0.842008 0.891291 0.930699 0.950572 0.933082 0.93804 0.926279 0.916128 0.926776 0.931756 0.925073 0.929531 0.948382 0.938043 0.928861 0.934044 0.946163 0.901753 0.903219 0.89352 0.909575 0.908414 0.925183 0.920536 0.922137 0.901673 0.861707 0.870728 0.865171 0.853836 0.846737 0.828983 0.842489 0.817874 0.807883 0.819844 0.874664 0.84587 0.846641 0.759731 0.811947 0.801497 0.868478 0.858617 0.8515 0.832003 0.817938 0.799087 0.858768 0.850207 0.864376 0.855623 0.865118 0.771366 0.823588 0.831468 0.748653 0.772165 0.783968 0.822043 0.748879 0.809832 0.887525 0.939213 0.802589 0.76055 0.773187 0.901497 0.79174 0.824234 0.767809 0.821518 0.805684 0.769147 0.80008 0.774199 0.786444 0.595798 0.602087 0.692993 0.635428 0.669911 0.774869 0.829701 0.841464 0.915192 0.878655 0.813649 0.894703 0.824311 0.80898 0.83246 0.841649 0.774525 0.714638 0.727558 0.689977 0.675055 1.03533 0.698911 0.809721 0.819053 0.862535 0.793609 0.79782 0.803942 0.79905 0.808073 0.83079 0.826059 0.820307 0.819067 0.838913 0.874871 0.883447 0.887241 0.883953 0.924026 0.938111 1.01365 0.674586 0.781543 0.896472 0.841001 0.904567 0.910961 0.92544 0.926905 0.920524 0.906188 0.917385 0.921399 0.940457 0.941845 0.939704 0.947708 0.927745 0.924659 0.901654 0.891367 0.887929 0.906361 0.924793 0.924074 0.907591 0.886336 0.873327 0.870589 0.86364 0.860043 0.861948 0.851414 0.851894 0.852199 0.846363 0.827805 0.830697 0.811285 0.839966 0.864212 0.81081 0.781407 0.801071 0.812933 0.827753 0.806257 0.868717 0.803533 0.812964 0.834355 0.847453 0.832718 0.839232 0.841776 0.787924 0.79296 0.820307 0.880437 0.81256 0.839199 0.760166 0.743827 0.797969 0.816236 0.650481 0.833626 0.598812 0.873328 0.76347 0.828955 0.817949 0.815424 0.79083 0.813194 0.828798 0.801952 0.823383 0.785459 0.816906 0.799109 0.753324 0.745436 0.6928 0.719664 0.750027 0.819543 0.775666 0.786297 0.952777 0.86592 0.737768 0.706147 0.722563 0.637087 0.691115 0.754977 0.766771 0.852364 0.778786 0.820906 0.732991 0.779541 0.694754 0.718309 0.837857 0.779473 0.868028 0.972377 0.774663 0.848995 0.739053 0.72206 0.774931 0.816292 0.745407 0.828296 0.783026 0.817522 0.818328 0.791903 0.832015 0.843383 0.836101 0.83245 0.840912 0.867971 0.906557 0.901779 0.85693 0.802826 0.896132 0.911591 0.887741 0.899464 0.902862 0.921796 0.906378 0.913264 0.924979 0.930558 0.931163 0.945545 0.943191 0.948453 0.932175 0.915422 0.897475 0.901018 0.886825 0.900357 0.930505 0.930604 0.918625 0.88945 0.875261 0.86802 0.878507 0.875176 0.875861 0.860674 0.850964 0.84438 0.821148 0.839348 0.825392 0.828584 0.821541 0.817726 0.812261 0.815712 0.824909 0.861033 0.876673 0.853092 0.84151 0.852598 0.86648 0.859685 0.897948 0.914571 0.850635 0.895386 0.784735 0.891048 0.825968 0.758295 0.877345 0.77156 0.648415 0.630174 0.732908 0.674624 0.751056 0.684403 0.82282 0.770913 0.884701 0.714448 0.91352 0.87153 0.960877 0.739506 1.0289 0.857668 0.807762 0.741462 0.776155 0.754545 0.739326 0.680058 0.719593 0.748244 0.719784 0.718302 0.726745 0.720276 0.78911 0.768311 0.706705 0.696083 0.711731 0.710941 0.788562 0.749104 0.782007 0.746415 0.654005 0.681067 0.898181 0.856656 0.837515 0.793694 0.853997 0.971329 0.786846 0.762905 0.830157 0.737773 0.79983 0.780651 0.790986 0.778912 0.76344 0.770551 0.760723 0.800028 0.784942 0.826812 0.828863 0.844274 0.831238 0.839522 0.840113 0.868682 0.880979 0.890858 0.90334 0.895688 0.885026 0.881509 0.858019 0.811252 0.873054 0.886008 0.888516 0.906484 0.917249 0.925108 0.937763 0.949557 0.945066 0.953305 0.947641 0.945186 0.925753 0.912969 0.896907 0.913768 0.897703 0.917102 0.91137 0.945497 0.934631 0.910244 0.864407 0.882197 0.887888 0.912934 0.896552 0.856848 0.867702 0.868254 0.853841 0.855242 0.827906 0.836152 0.843603 0.845699 0.844818 0.822225 0.827168 0.817657 0.820317 0.819084 0.82388 0.796251 0.791463 0.861411 0.836209 0.810512 0.838564 0.775343 0.85263 0.9102 0.775114 0.810028 0.845325 0.698013 0.792918 0.777461 0.701171 0.978435 0.635338 0.818298 0.687613 0.666805 0.691956 0.674829 0.725103 0.647227 0.771163 0.67854 0.689726 0.717021 0.711179 0.736143 0.734372 0.708478 0.725726 0.708042 0.701642 0.699114 0.733666 0.710183 0.689214 0.704774 0.687168 0.704406 0.714682 0.641451 0.684843 0.670435 0.673825 0.648999 0.650548 0.602312 0.674249 0.901566 0.866167 0.648835 0.94936 0.795239 0.857976 0.683118 0.768537 0.782432 0.764836 0.75136 0.846825 0.77811 0.745599 0.767382 0.801635 0.78254 0.807784 0.776529 0.800836 0.79188 0.770725 0.787315 0.782152 0.780456 0.80318 0.788797 0.796194 0.843341 0.832876 0.842293 0.870638 0.903819 0.914854 0.901883 0.897617 0.875706 0.852369 0.870898 0.879118 0.871909 0.878889 0.879961 0.892694 0.891245 0.924992 0.917425 0.930239 0.943483 0.963133 0.964737 0.985829 0.945949 0.926546 0.9202 0.906788 0.903354 0.894121 0.933198 0.95704 0.968877 0.991392 0.862156 0.881688 0.883385 0.93325 0.916428 0.905853 0.875053 0.866209 0.874648 0.855636 0.853785 0.866832 0.857019 0.836286 0.821906 0.8271 0.830839 0.823746 0.805427 0.80769 0.809351 0.84426 0.810569 0.754867 0.799943 0.775434 0.933699 0.994342 0.955757 0.890809 0.709365 0.948099 0.704049 0.89734 0.744488 0.780367 0.711845 0.656291 0.70402 0.74918 0.7677 0.727386 0.753518 0.71022 0.679933 0.700864 0.656777 0.710371 0.721286 0.72991 0.722214 0.713263 0.699739 0.719517 0.713908 0.689745 0.700067 0.716099 0.696375 0.4993 0.387331 0.75831 0.699134 0.949781 0.582689 0.675898 0.655737 0.712852 0.708417 0.726811 0.715289 0.689843 0.708064 0.700863 0.71519 0.644329 0.673629 0.687431 0.789094 0.73279 0.740516 0.77484 0.786311 0.778904 0.765242 0.737855 0.792523 0.812924 0.766776 0.761621 0.734529 0.717279 0.792642 0.804325 0.785841 0.803226 0.794411 0.794292 0.797296 0.777608 0.833278 0.842229 0.851548 0.870659 0.904315 0.908236 0.940436 0.92617 0.900631 0.884365 0.88303 0.876984 0.881736 0.878641 0.873222 0.870224 0.879254 0.955948 0.877169 0.919604 0.96914 1.00375 0.959857 0.927314 0.913911 0.913338 0.927876 0.892059 0.922162 0.960846 0.94966 0.991628 0.972137 0.862908 0.88099 0.866705 0.84251 0.926843 0.943607 0.887854 0.886341 0.877677 0.872095 0.861372 0.850187 0.830566 0.831758 0.826313 0.811582 0.809975 0.810114 0.81627 0.81326 0.782943 0.736454 0.814358 0.726372 0.783803 0.974867 1.15165 0.696233 0.854539 0.682124 0.723854 0.739579 1.09245 0.980684 0.745777 0.784031 0.748068 0.781646 0.666037 0.659543 0.73258 0.714187 0.737805 0.724154 0.720434 0.751687 0.73949 0.705264 0.671615 0.708615 0.703959 0.728953 0.738999 0.712804 0.711625 0.710338 0.693441 0.680888 0.714269 0.707643 0.692683 0.657987 0.65665 0.597864 0.484131 0.602536 0.997188 0.738859 0.76744 0.750363 0.68271 0.728082 0.754938 0.754866 0.760319 0.560571 0.592688 0.73854 0.83813 0.833878 0.790571 0.808366 0.827377 0.845382 0.812879 0.766793 0.83736 0.83535 0.801027 0.774391 0.781845 0.760076 0.748124 0.785065 0.755947 0.790281 0.813824 0.824624 0.81039 0.81226 0.841462 0.814204 0.744463 0.757397 0.789826 0.842687 0.884707 0.884951 0.966963 0.953642 0.980435 0.957463 0.932098 0.908203 0.895016 0.899817 0.891308 0.886221 0.894005 0.885274 0.893243 0.892248 0.960279 0.887211 0.908823 0.891521 0.987836 1.01791 0.951873 0.938471 0.922828 0.941765 0.948808 0.893659 0.927061 0.977667 0.983738 0.95602 0.885085 0.874576 0.885414 0.870794 0.895214 0.877638 0.843991 0.891751 0.87698 0.88987 0.888642 0.870114 0.889007 0.859989 0.871407 0.845671 0.840262 0.828339 0.814387 0.805902 0.796992 0.812047 0.802767 0.83075 0.859987 0.809601 0.756222 0.690115 0.752858 0.784185 0.869321 0.874189 0.801985 0.746157 0.667097 0.769295 0.780261 0.889383 0.743529 0.754437 0.764585 0.777231 0.781026 0.750785 0.749848 0.776982 0.715827 0.816874 0.698882 0.783066 0.617874 0.754037 0.696778 0.633049 0.728587 0.657131 0.686136 0.667214 0.553288 0.592904 0.5971 0.580779 0.62333 0.663183 0.666753 0.631045 0.605525 0.633449 0.689498 0.78617 0.815551 0.743174 0.731282 0.668216 0.823431 0.742289 0.778398 0.673962 0.735081 0.614867 0.660487 0.654579 0.615451 0.520988 0.869398 0.334096 0.601198 0.862784 0.77547 0.785589 0.805981 0.80728 0.781891 0.789494 0.75231 0.765578 0.777848 0.803756 0.775888 0.749423 0.754802 0.756605 0.747767 0.789703 0.816884 0.843368 0.839873 0.871935 0.851723 0.845261 0.779341 0.877378 0.936147 0.926354 1.02486 1.00558 0.977414 0.927215 0.911984 0.90477 0.898295 0.892665 0.897308 0.89512 0.899188 0.905406 0.947123 0.905502 0.920875 0.911722 1.04135 1.05015 0.953265 0.955043 0.93454 0.936757 0.95198 0.928278 0.913558 0.928712 0.996524 0.989349 0.92642 0.954515 0.930411 0.891004 0.890637 0.881478 0.890877 0.892403 0.888646 0.871379 0.881107 0.884769 0.893083 0.889528 0.904596 0.898406 0.885294 0.878379 0.860014 0.865323 0.83666 0.81314 0.812761 0.795108 0.785572 0.787795 0.787084 0.808497 0.803102 0.83835 0.764703 0.76404 0.793399 0.811331 0.833023 0.842866 0.88806 0.895187 0.869465 0.937038 0.93958 0.706039 0.731972 0.798234 0.910285 0.80356 0.80427 0.696501 0.612058 0.776514 0.857254 0.587445 0.730201 0.629996 0.587554 0.782978 0.724184 0.585304 0.61466 0.603301 0.623389 0.664855 0.673774 0.542133 0.510284 0.509983 0.467005 0.533384 0.54555 0.622881 0.633969 0.644089 0.69285 0.639202 0.672746 0.645772 0.590692 0.695158 0.564877 0.747664 0.705915 0.61927 0.718585 0.729514 0.666648 0.678742 0.601839 0.645062 0.587772 0.502735 0.587681 0.68551 0.803232 0.784139 0.739102 0.716714 0.757504 0.805246 0.783879 0.754762 0.750165 0.749375 0.738474 0.781431 0.758245 0.770904 0.761908 0.753525 0.753705 0.749358 0.759685 0.753124 0.804279 0.824529 0.827891 0.844868 0.809726 0.839351 0.812303 0.841018 0.802093 1.10323 1.00361 1.06711 0.999971 0.908623 0.95019 0.930197 0.922491 0.910888 0.911209 0.903711 0.896516 0.894918 0.900618 0.915591 0.919763 0.940389 0.949189 0.918342 0.883538 0.831947 0.927106 0.948948 0.957559 0.93946 0.943583 0.984686 0.942667 0.893607 0.946835 0.947221 0.915782 0.895616 0.892835 0.896463 0.894599 0.884415 0.883954 0.885441 0.889634 0.899167 0.907763 0.910494 0.893846 0.883084 0.868927 0.847736 0.853254 0.816178 0.784502 0.782714 0.782517 0.812765 0.762534 0.73818 0.740954 0.741092 0.800631 0.862119 0.934615 0.932458 0.648237 0.841994 0.793716 0.798285 0.740149 0.751555 0.727488 0.8015 0.674381 0.789626 0.692228 0.68933 0.809797 0.667863 0.783278 0.664035 0.693572 0.663248 0.651743 0.696944 0.694973 0.554783 0.463726 0.524461 0.548098 0.583962 0.565088 0.591268 0.645754 0.576734 0.613746 0.616764 0.646117 0.647814 0.645673 0.648384 0.582537 0.622733 0.685669 0.741597 0.63113 0.542321 0.657065 0.476316 0.750824 0.597676 0.508697 0.441057 0.465261 0.689188 0.690778 0.703634 0.678291 0.608874 0.653366 0.591412 0.579814 0.668307 0.727328 0.588458 0.735323 0.769519 0.761943 0.743947 0.728544 0.74392 0.761774 0.773822 0.753703 0.752796 0.757871 0.753742 0.750466 0.75771 0.746176 0.74715 0.749195 0.804772 0.811122 0.809748 0.807193 0.756406 0.710676 0.709911 0.709547 0.655513 0.841613 0.927621 1.41465 1.18736 1.07214 1.00008 0.866113 0.965326 0.932313 0.915275 0.911071 0.905694 0.898405 0.898859 0.911325 0.934738 0.94334 0.936177 0.915667 0.8945 0.876804 0.892151 0.900026 0.926593 0.92892 0.971287 0.957859 0.960162 0.941626 0.928045 0.929791 0.941563 0.966158 0.968314 0.928719 0.887859 0.90792 0.907256 0.906286 0.896039 0.903224 0.889917 0.893466 0.902318 0.919574 0.91893 0.921523 0.895518 0.898163 0.860184 0.837445 0.812473 0.767891 0.771984 0.79698 0.763723 0.767141 0.737507 0.746059 0.77445 0.820763 0.873315 0.918676 1.01126 0.768086 1.03496 0.568897 0.677914 0.681526 0.724173 0.715305 0.739217 0.714727 0.702928 0.654459 0.684938 0.611104 0.796241 0.786146 0.631877 0.752284 0.734593 0.742113 0.807199 0.793233 0.52305 0.586445 0.567069 0.589179 0.568984 0.569391 0.634946 0.608637 0.649722 0.504934 0.326577 0.542164 0.375522 0.641935 0.649252 0.599766 0.541572 0.299553 0.472525 0.447757 0.473438 0.509939 0.500224 0.670412 0.637354 0.639774 0.633273 0.623586 0.622762 0.788459 0.808285 0.554933 0.709628 0.53255 0.744943 0.715065 0.793456 0.755469 0.751204 0.739635 0.753967 0.753094 0.757604 0.761256 0.757286 0.745409 0.814705 0.832915 0.809436 0.775394 0.784211 0.770743 0.763655 0.738143 0.743762 0.714048 0.740558 0.917346 1.03113 0.962517 0.96546 0.95269 1.004 1.0379 0.93248 0.912487 0.907935 0.902838 0.898658 0.905365 0.921637 0.932611 0.947197 0.919374 0.902361 0.948942 0.9542 0.863795 0.987029 0.976726 0.91726 0.956156 0.899586 0.896073 0.923487 0.940735 0.948285 0.934944 0.941993 1.00359 0.998456 0.908163 0.896881 0.846867 0.930712 0.914465 0.92301 0.909836 0.897311 0.894997 0.911991 0.909718 0.921013 0.9311 0.926632 0.925567 0.90344 0.867202 0.83834 0.869432 0.834906 0.823883 0.851848 0.696713 0.757861 0.776516 0.772009 0.766135 0.749933 0.752956 0.759189 0.768431 0.766238 0.767179 0.7842 0.751464 0.692132 0.83386 0.812416 0.686908 0.686445 0.70903 0.718827 0.70509 0.671179 0.663175 0.635088 0.729696 0.669195 0.635499 0.632828 0.632426 0.421002 0.613791 0.177225 0.533572 0.367261 0.582281 0.59966 0.457764 0.550101 0.542207 0.58754 0.56377 0.575902 0.438781 0.304646 0.167213 2.99148 0.457251 0.379104 0.28633 0.238017 0.315583 0.511242 0.463956 0.518675 0.485336 0.4255 0.375663 0.323524 0.399369 0.433886 0.491092 0.509821 0.535573 0.637814 0.635397 0.608668 0.626287 0.631214 0.677879 0.640181 0.801686 0.761171 0.521096 0.310876 1.08576 1.07134 0.881164 0.788196 0.763613 0.736029 0.741083 0.741318 0.752971 0.762476 0.763777 0.777626 0.769358 0.72884 0.863914 0.831527 0.783895 0.781188 0.773301 0.782516 0.833001 0.812983 0.92834 0.992062 1.00097 1.02092 0.986394 0.932291 0.932401 0.915935 0.915456 0.90558 0.899084 0.896059 0.904254 0.91857 0.924824 0.921396 0.923899 0.959037 0.888774 0.889973 0.988369 1.03791 0.751009 0.934591 0.914152 1.02144 0.979713 0.974909 0.962668 0.903138 0.926268 0.941899 0.928268 0.955134 0.98444 0.962904 0.817893 0.965791 0.930006 0.962662 0.963415 0.934098 0.934799 0.898873 0.919294 0.918547 0.931458 0.943323 0.91256 0.8602 0.865 0.824622 0.822543 0.888426 0.799093 0.752139 0.770187 0.781601 0.762805 0.764569 0.765359 0.78045 0.768336 0.783946 0.73762 0.767054 0.749958 0.758287 0.728067 0.715153 0.702663 0.707823 0.71022 0.706028 0.677936 0.657748 0.625742 0.652769 0.648378 0.637256 0.642629 0.614632 0.620621 0.595925 0.651638 0.667065 0.645581 0.621316 0.580786 0.531945 0.272706 0.404235 0.322191 0.359618 0.382041 0.426363 0.521709 0.560731 0.504217 0.561045 0.579998 0.512245 0.522629 0.450298 0.247061 1.54455 0.270898 0.350157 0.381446 0.498122 0.437468 0.39609 0.339015 0.421958 0.392994 0.413278 0.400605 0.44584 0.550548 0.55876 0.567539 0.603507 0.609953 0.640485 0.641628 0.640058 0.625412 0.650968 0.643735 0.60307 0.655363 1.34093 0.795387 0.761686 0.664425 0.760933 0.715526 0.713006 0.73257 0.720584 0.737544 0.743906 0.757693 0.777916 0.774278 0.75771 0.794482 0.803215 0.810518 0.795654 0.792713 0.800752 0.833337 0.836149 0.852861 0.885462 0.868834 0.968385 0.970051 0.927454 0.980599 1.01056 0.997616 0.966311 0.955147 0.924061 0.898956 0.904348 0.942943 0.926876 0.923888 0.927157 0.873491 0.909751 0.910379 0.957954 0.970508 1.01936 0.899742 1.07303 0.994723 0.985207 0.902054 0.936237 0.957019 0.950046 0.950734 0.951026 0.879498 0.943973 0.952232 0.957705 0.938443 0.952165 0.912824 0.915902 0.925948 0.915246 0.930123 0.979199 0.905864 0.870176 0.871439 0.863765 0.831992 0.841091 0.87683 0.869982 0.766591 0.794888 0.790241 0.780007 0.783914 0.786662 0.795889 0.766939 0.756207 0.751255 0.716293 0.724733 0.713801 0.706657 0.713551 0.704076 0.693523 0.695199 0.679602 0.695094 0.674375 0.64945 0.644562 0.635052 0.641205 0.64827 0.605412 0.578156 0.558469 0.453203 0.548409 0.42111 0.388973 0.409797 0.476467 0.52692 0.517799 0.34398 0.416184 0.226378 0.380303 0.287031 0.338111 0.43841 0.360513 0.472566 0.418548 0.456041 0.445223 0.45987 0.432627 0.435056 0.422275 0.429802 0.406199 0.543076 0.581499 0.567694 0.576364 0.619893 0.637842 0.663413 0.657136 0.679685 0.680086 0.678243 0.682525 0.734339 0.716264 0.820368 0.993428 0.813428 0.770783 0.734037 0.736222 0.741023 0.737269 0.749519 0.7706 0.793205 0.787716 0.794335 0.79946 0.808361 0.818716 0.83205 0.849705 0.825657 0.851546 0.861538 0.878558 0.837684 0.915811 0.910612 1.00865 0.990817 0.982967 0.972165 0.958693 0.93398 0.939427 0.932047 0.957663 0.960947 0.945822 0.923951 0.88674 0.88684 0.895338 0.94759 0.995268 0.96177 1.01478 1.04875 1.02939 1.01005 0.996748 0.97885 0.952996 0.982593 0.943403 0.948183 0.927477 0.913301 0.935653 0.957862 0.949967 0.948158 0.960192 0.945205 0.937237 0.939339 0.911594 0.839236 0.883939 0.883805 0.865502 0.826909 0.852458 0.844367 0.812631 0.808965 0.824448 0.826921 0.797286 0.808635 0.817278 0.797267 0.791419 0.738292 0.772156 0.771238 0.746584 0.73192 0.723652 0.714707 0.695382 0.662595 0.669105 0.651124 0.647284 0.64554 0.651137 0.64815 0.664929 0.646161 0.577467 0.611225 0.558647 0.474011 0.459146 0.517046 0.43887 0.450609 0.417071 0.477539 0.4545 0.529184 0.499561 0.525249 0.542668 0.500272 0.478107 0.419614 0.525162 0.512069 0.488768 0.483213 0.447576 0.460093 0.475929 0.5881 0.609959 0.644928 0.662278 0.656342 0.678968 0.681622 0.675994 0.691796 0.689528 0.701127 0.700497 0.7135 0.743958 0.720388 0.800514 0.781954 0.780781 0.754576 0.755035 0.743896 0.746511 0.760795 0.756444 0.785543 0.817449 0.814491 0.82089 0.805157 0.800418 0.800132 0.819001 0.846516 0.875846 0.871404 0.88816 0.884095 0.883769 0.846759 0.910279 0.944816 1.0072 0.981638 0.965484 0.948473 0.958397 0.935434 0.955097 0.964769 0.960436 0.923888 0.882836 0.884147 0.92104 0.880329 0.996745 0.979977 1.02073 0.999804 1.00687 1.00431 0.981552 0.96458 1.02944 0.982355 0.928355 0.905858 0.940824 0.939582 0.948216 0.974264 0.951943 0.947731 0.973072 0.975368 0.94823 0.945507 0.942315 0.968455 0.947327 0.885121 0.870072 0.853385 0.884499 0.866067 0.838955 0.862146 0.829518 0.843112 0.828225 0.812103 0.820731 0.827642 0.815665 0.819035 0.794965 0.80019 0.768639 0.75542 0.75824 0.743506 0.721332 0.705469 0.685267 0.646949 0.64438 0.670613 0.660004 0.591105 0.64792 0.573146 0.592682 0.557546 0.494057 0.506757 0.53147 0.475729 0.500741 0.556677 0.563114 0.578059 0.528994 0.576618 0.603808 0.542984 0.585642 0.564193 0.509977 0.557481 0.510735 0.484255 0.492368 0.624086 0.65069 0.678695 0.694738 0.694604 0.705118 0.703823 0.704598 0.716614 0.718683 0.736214 0.756996 0.803979 0.798587 0.781317 0.798645 0.763207 0.768863 0.749879 0.743285 0.749262 0.832164 0.821024 0.868274 0.84534 0.834227 0.848779 0.829286 0.890805 0.899625 0.889692 0.893967 0.874066 0.879735 0.954637 0.935484 0.914625 0.945121 0.975738 0.966297 0.951111 0.962259 0.97947 0.958971 0.966927 0.980733 0.940472 0.867259 0.887603 0.977336 0.925073 0.980413 1.00001 0.989929 0.988943 1.00588 1.01085 1.01458 1.01191 0.948636 0.951352 1.06135 0.989907 0.933965 0.96236 0.946498 0.95434 0.982702 0.96831 0.988713 0.982249 0.985207 0.994264 0.984682 0.853151 0.848888 0.875448 0.87868 0.911983 0.901752 0.871495 0.905224 0.865825 0.867029 0.868012 0.892062 0.855625 0.810228 0.825902 0.829383 0.833326 0.832458 0.78411 0.771315 0.776659 0.786241 0.762731 0.807977 0.724865 0.779868 0.719529 0.66034 0.707698 0.633854 0.632244 0.69709 0.673442 0.62602 0.601021 0.603799 0.556655 0.581119 0.564086 0.589778 0.469436 0.550113 0.57714 0.587759 0.640742 0.618202 0.6584 0.602192 0.635765 0.602048 0.54509 0.578436 0.507387 0.521105 0.498052 0.696725 0.708288 0.719953 0.706171 0.709265 0.710727 0.704494 0.714686 0.723379 0.745629 0.753899 0.785594 0.809908 0.812939 0.806795 0.80804 0.780085 0.758254 0.733217 0.719074 0.740078 0.827044 0.845009 0.866475 0.862442 0.840146 0.917834 0.910154 0.906673 0.892359 0.89384 0.900106 0.864916 0.917376 0.947358 0.969073 0.96522 0.960986 0.963941 0.959479 0.966 0.972333 0.95886 0.97788 0.979956 0.934285 0.903908 1.04272 1.04155 0.989357 1.00351 1.00736 0.991583 1.0073 1.02143 0.957502 0.997096 0.951837 1.01124 0.970048 1.27017 0.933489 0.963311 0.964972 0.964653 0.976852 0.9813 1.00207 0.993965 1.00896 1.00821 1.03875 0.892718 0.892516 0.844477 0.873923 0.881238 0.922427 0.914222 0.881068 0.893925 0.880465 0.876194 0.879773 0.898065 0.849364 0.86415 0.823928 0.826519 0.832602 0.83744 0.843972 0.781328 0.788957 0.782377 0.772497 0.806349 0.83961 0.758495 0.810083 0.722812 0.685619 0.747755 0.76127 0.660237 0.597931 0.732092 0.716694 0.643379 0.652108 0.602772 0.672106 0.612128 0.614425 0.653913 0.588229 0.532996 0.563508 0.589156 0.674813 0.672404 0.693786 0.686598 0.639567 0.678712 0.651898 0.581542 0.450357 0.734386 0.693147 0.731763 0.721629 0.709394 0.698763 0.70941 0.693641 0.707767 0.699961 0.72861 0.749929 0.768786 0.783963 0.814493 0.818682 0.814631 0.817392 0.812574 0.783462 0.737986 0.709711 0.794995 0.873506 0.859307 0.892273 0.849991 0.930966 0.924019 0.916871 0.903276 0.902183 0.902238 0.91245 0.980272 0.96216 0.960503 0.959752 0.971832 0.96732 0.973738 0.978046 0.995201 0.996544 0.891751 1.04149 1.04875 1.01407 1.02497 1.01167 1.01042 1.01844 1.03394 0.980997 1.0164 0.911026 1.18428 0.987448 0.991935 0.967192 0.989951 1.00281 0.995955 1.02182 1.06204 0.880853 0.833839 0.921774 0.84336 0.91538 0.938011 0.904741 0.912645 0.905139 0.878463 0.89411 0.901921 0.896618 0.883359 0.850305 0.819081 0.835377 0.824929 0.851196 0.834105 0.851326 0.868704 0.843261 0.855897 0.74479 0.814939 0.818955 0.761372 0.898759 0.538467 0.840278 0.703291 0.845399 0.680375 0.726604 0.70965 0.724131 0.688313 0.802362 0.73229 0.62158 0.65146 0.637315 0.648792 0.59085 0.600844 0.590722 0.61237 0.594796 0.706782 0.732003 0.706165 0.705074 0.697979 0.702325 0.686861 0.626544 0.548359 0.748176 0.75704 0.639171 0.689217 0.591807 0.674509 0.701097 0.707775 0.702692 0.778212 0.831241 0.829746 0.82653 0.826494 0.816186 0.784181 0.714747 0.771714 0.911023 0.865583 0.854905 0.83701 0.916152 0.826306 0.928763 0.929314 0.968545 0.940381 0.923936 0.913785 0.907839 0.907754 0.909146 0.915884 0.916957 0.971259 0.96675 0.96027 0.980593 0.978252 0.974652 1.00266 1.00339 1.01131 0.999091 1.00816 0.919411 1.05174 1.02863 1.04088 1.02779 1.01691 1.00033 1.01867 1.03996 1.0352 0.999482 0.852215 1.07877 1.26495 0.969852 1.01057 1.01403 0.983382 1.01071 0.999939 1.02114 1.02871 1.06095 0.847044 0.902966 0.979441 0.898642 0.911173 0.942472 0.903243 0.88437 0.881636 0.88774 0.894778 0.89535 0.882122 0.887979 0.870524 0.803152 0.810623 0.828977 0.779318 0.825046 0.878399 0.969933 0.838753 0.728332 0.749615 0.850868 0.970091 0.67724 0.787623 0.698308 0.610296 0.740738 0.730426 0.715436 0.755061 0.764548 0.783573 0.760143 0.716342 0.681172 0.767728 0.665632 0.611703 0.604806 0.631882 0.736801 0.716431 0.714156 0.720433 0.715414 0.59979 0.694852 0.853367 0.744991 0.672048 0.621492 0.669967 0.684069 0.705073 0.728399 0.77935 0.732799 0.836804 0.850983 0.836743 0.823991 0.812429 0.798378 0.724727 0.984474 0.932065 0.875759 0.900472 0.853866 0.983221 0.902915 0.937699 0.924771 0.920485 0.911492 0.912864 0.918155 0.930848 0.930128 0.977646 0.972494 0.990878 0.982649 0.980067 1.01182 0.994808 1.01447 1.02441 1.02263 0.98213 1.00294 1.04542 1.04396 1.05071 1.04445 1.03486 1.03164 0.994677 1.04862 1.05012 1.05861 0.957635 0.88657 1.09902 0.95839 0.974397 1.02907 1.01304 1.00913 1.01865 0.961758 1.037 1.06346 1.03601 0.855058 0.910438 0.967986 0.907048 0.949183 0.952533 0.942945 0.899391 0.891635 0.895005 0.888448 0.896185 0.894208 0.896289 0.893574 0.894651 0.885459 0.89431 0.812513 0.7754 0.774029 0.83348 0.903447 0.957037 0.807861 0.830277 0.797756 0.881847 0.881272 0.755014 0.680683 0.712699 0.729624 0.703192 0.779473 0.769571 0.786189 0.797792 0.792399 0.764147 0.628227 0.615689 0.624922 0.631442 0.634505 0.722118 0.753082 0.735748 0.72601 0.745285 0.781732 0.672568 0.709894 0.840353 0.739076 0.762057 0.745871 0.685216 0.661029 0.726768 0.804241 0.859291 0.864983 0.832508 0.82712 0.818063 0.811706 0.803238 0.779653 0.953238 0.983704 0.960873 0.92089 0.884395 0.819016 0.976014 0.85419 0.919865 0.943525 0.931793 0.921523 0.919105 0.920822 0.948387 0.976143 1.00084 0.994893 1.02542 0.966127 1.01465 1.02361 0.988605 1.02168 1.03322 0.99074 0.992865 1.0293 1.0051 1.04613 1.05396 1.03719 1.03494 0.979409 0.974505 1.07075 1.10548 1.06348 1.06581 1.06453 1.04655 0.965313 0.975464 0.9669 0.944811 1.079 1.0003 1.04613 1.05385 1.0029 1.04258 0.949278 0.992669 1.06368 1.04948 0.86505 0.87671 0.94943 0.907457 0.948167 0.966788 0.949865 0.920679 0.911355 0.903042 0.887957 0.899674 0.903842 0.887965 0.900471 0.850495 0.774205 0.894765 0.878791 0.956059 0.932693 0.821661 0.832454 0.913039 0.798063 0.875379 0.777447 0.768714 0.701212 0.743578 0.582657 0.695571 0.837254 0.762373 0.775289 0.789568 0.792691 0.831165 0.79954 0.866207 0.638605 0.6323 0.69071 0.735673 0.763779 0.773264 0.761868 0.752997 0.797843 0.778932 0.726353 0.763854 0.690109 0.7126 0.792542 0.74332 0.80388 0.793596 1.42081 0.671673 0.787908 0.757989 0.834363 0.917814 0.844316 0.806275 0.867889 0.850848 0.79747 0.845718 0.927412 0.985535 0.976913 0.963119 0.903351 0.799161 0.906204 0.968539 0.904672 0.882695 0.932805 0.977826 0.94893 0.925482 0.91378 0.929467 0.955828 1.00732 1.00117 1.04872 0.973394 0.926849 1.02627 1.00892 1.04194 1.0487 1.0047 1.01048 1.05765 1.06517 1.04899 1.04838 0.993156 1.12559 1.0574 0.959103 0.984754 1.00705 1.01776 1.04496 1.01573 1.05828 1.02316 1.05213 1.03409 1.06532 1.04046 1.07124 1.00885 1.06677 1.04492 1.07581 1.17568 0.876394 0.880831 0.942557 0.957283 0.976524 0.926847 0.914096 0.869405 0.898513 0.916367 0.893742 0.904807 0.871987 0.876141 0.919079 0.785341 0.887217 0.972364 0.796876 0.825227 0.889342 0.869552 0.736776 0.836078 0.651043 0.793884 0.777889 0.80148 0.778537 0.826626 0.816731 0.889413 0.611656 0.648891 0.714782 0.798465 0.749846 0.775515 0.773251 0.779985 0.778645 0.822068 0.787322 0.780743 0.715876 0.738138 0.777417 0.792631 0.829988 0.851226 0.81886 1.02758 1.02838 0.824885 0.848836 0.921144 0.807398 0.771094 0.856099 0.879809 0.93625 0.962626 0.986562 0.953097 0.931706 0.865967 0.868336 0.919158 0.913582 0.872994 1.06354 0.971626 0.968189 0.956452 0.913625 0.896692 0.945634 0.912979 1.02244 1.0388 1.02032 0.98883 1.06565 0.956419 0.932012 0.952766 1.03641 1.03727 1.00499 0.98982 1.03002 1.07137 1.07661 1.06142 1.0493 0.995106 1.17966 1.05134 1.08337 1.04043 1.02991 1.01947 1.04651 1.05688 1.05941 1.02781 1.05562 1.03896 1.1056 1.18451 0.872484 0.904456 0.972928 0.916896 0.999976 0.976279 0.921897 0.895561 0.91288 0.907136 0.92332 0.83211 0.957559 0.933179 0.844014 0.840097 0.842566 0.818087 0.803902 0.847308 0.842744 0.796359 0.756819 0.847624 0.824689 0.856789 0.915918 0.755462 0.785569 0.788856 0.803113 0.839673 0.869211 0.895018 0.668743 0.624432 0.791914 0.768243 0.784067 0.801157 0.801065 0.825825 0.805994 0.785556 0.826572 0.840198 0.719639 0.868 0.825994 0.851397 0.82859 0.802969 0.790731 0.917194 0.994139 1.11963 0.930597 0.736565 0.741824 0.834082 0.866112 0.809866 0.946077 0.864653 0.893577 0.944407 0.959034 0.956685 0.915726 0.875098 0.881238 0.917314 0.909994 1.07346 0.947789 0.959349 0.89325 0.958983 0.976598 0.934394 1.03977 1.03458 1.01278 0.992504 1.0184 1.04893 0.90344 0.968563 1.0554 1.07703 1.05408 1.01378 1.05911 0.978015 1.10768 1.10793 1.0585 1.01543 1.00702 1.10907 1.18892 1.15057 1.0666 1.10517 1.03967 1.05319 1.06506 1.05496 1.06018 1.05509 1.01448 1.02458 1.06057 1.10716 1.17481 0.97004 0.996043 1.05893 0.968018 0.957279 0.887116 1.00645 0.999804 0.922898 0.795966 0.932361 0.900915 0.915227 0.968584 0.97387 0.932386 0.859169 0.826448 0.841483 0.822146 0.895462 0.812868 0.857955 0.871737 0.916854 0.869619 0.775561 0.8157 0.817006 0.848073 0.85966 0.89965 0.837625 0.753609 0.789354 0.702003 0.770052 0.896652 0.842653 0.66848 0.798782 0.813161 0.832004 0.787492 0.848723 0.869247 0.812142 0.965189 0.837899 0.845598 0.841441 0.8525 0.92369 0.941474 0.914891 0.874078 0.970953 0.87152 0.912395 0.945147 0.9613 0.963889 0.913242 0.879398 0.884285 0.916285 0.935604 1.13053 1.06421 0.970338 0.949277 1.05552 0.94447 1.04578 1.01356 1.00601 1.04855 0.985776 1.07012 1.07139 0.973877 1.04487 1.10007 1.11333 1.06532 1.01635 1.13522 1.09679 1.07709 1.04504 1.03725 1.0798 1.21908 1.14579 1.06942 1.08871 1.04661 1.04941 1.08853 1.09222 1.04762 1.06268 1.05865 1.06846 1.04051 1.03849 1.06319 1.09684 1.08996 1.27461 1.01819 1.08538 1.02411 0.897754 1.02978 1.02974 0.967784 0.867211 0.926743 0.937903 0.893721 0.918364 0.913637 0.956942 0.973119 0.967072 0.905891 0.84874 0.839433 0.842774 0.802112 0.820505 0.828174 0.819547 0.868763 0.896422 0.912673 0.922408 0.807404 0.838884 0.839012 0.812557 0.868425 0.885227 0.849738 0.858641 0.881579 0.889844 0.670837 0.796387 0.724832 0.812215 0.811689 0.809599 0.841209 0.873028 0.820516 0.864441 0.965797 0.849951 0.824309 0.842001 0.863143 0.851641 0.874792 0.905368 0.921287 0.801254 0.916425 0.853803 0.898585 0.928102 0.966397 0.951938 0.971272 0.93926 0.915987 0.887498 0.89899 0.933809 0.937362 0.964712 0.947031 1.03178 0.951867 0.973408 0.982659 1.08497 1.04207 1.00576 1.06908 0.960447 1.03692 0.988442 1.05748 1.17659 1.05197 0.993886 1.02631 1.10823 1.06868 1.01364 1.11737 1.14067 1.14571 1.06822 1.0818 1.10948 1.05516 1.08456 1.0438 1.06576 1.04468 1.09682 1.12608 1.06729 1.05894 1.05994 1.05686 1.05585 1.07664 1.05544 1.07054 1.07837 0.983657 0.954936 1.11724 0.989022 0.951686 0.977753 0.878208 0.944169 0.959841 0.943152 0.851077 0.882987 0.834398 0.826312 0.910349 0.849575 0.84006 0.826493 0.845649 0.840858 0.875466 0.915563 0.907182 0.83493 0.838391 0.865892 0.813249 0.922067 0.880414 0.85963 0.850117 0.795849 0.750234 0.814817 0.854778 0.843613 0.865291 0.997073 0.954189 0.84907 0.830827 0.829743 0.835372 0.828346 0.860133 0.870166 0.884651 0.943909 0.929225 0.897169 0.874959 0.916591 0.965741 0.950392 0.973508 0.940694 0.905528 0.925446 0.891988 0.924857 0.948648 0.933266 0.972013 1.03651 0.968297 1.0746 1.02443 1.11661 1.03759 1.06992 0.960791 1.06993 1.0206 1.16315 0.99411 1.11007 1.19178 1.19178 1.12847 1.14025 1.14472 1.07499 1.08568 1.19492 1.12589 1.15694 1.07195 1.03647 1.10833 1.12489 1.07819 1.06265 1.07817 1.05569 1.08194 1.04899 1.06576 1.05884 0.968595 0.946156 1.00711 0.954177 1.01276 0.952923 0.968467 0.931545 0.977135 0.90977 0.943521 0.943197 0.948305 0.839282 0.928372 0.860977 0.841013 0.838628 0.844705 0.83296 0.853145 0.891492 0.935976 0.810831 0.863698 0.865067 0.82897 0.915042 0.890197 0.85704 0.794772 0.770883 0.775805 0.828406 0.856059 0.848697 0.868767 1.08372 0.969526 0.881369 0.858616 1.19178 0.865458 0.859735 0.89257 0.907203 0.905647 0.930844 0.898241 0.871913 0.855561 0.964134 0.951452 0.964082 0.944456 0.903958 0.908347 0.940995 0.936132 0.980821 0.910521 1.03101 1.12693 1.06766 1.07589 1.05496 1.07007 1.07029 0.969222 1.01052 0.95511 1.02216 0.963697 0.929288 0.930789 0.970173 0.935077 0.924793 0.922274 0.948439 0.960233 0.854052 0.896813 1.01771 0.952718 0.836159 0.846186 0.842264 0.869909 0.893615 0.937163 0.911472 0.806403 1.11244 0.914671 0.9055 0.88627 0.92236 0.889259 0.831702 0.790574 0.879233 0.897979 
SCALARS Stress float 1
LOOKUP_TABLE default
-210873000000.0 -149480000000.0 -264408000000.0 -148644000000.0 -214563000000.0 -59465200000.0 -239731000000.0 -336558000000.0 -184475000000.0 -122207000000.0 -383613000000.0 -319908000000.0 -1.02341e+12 -640935000000.0 -507464000000.0 -242739000000.0 -488885000000.0 -253804000000.0 -328101000000.0 -274923000000.0 -420569000000.0 -684150000000.0 -222814000000.0 -179267000000.0 -286326000000.0 -298503000000.0 -776387000000.0 -1.07827e+12 -401194000000.0 -1.02462e+12 -569249000000.0 -1.18778e+12 -1.20362e+12 -1.16221e+12 -1.43849e+12 -669114000000.0 -818598000000.0 -910135000000.0 -1.04285e+12 -1.35885e+12 -1.09616e+12 -371293000000.0 -1.02758e+12 -935076000000.0 -544524000000.0 -893355000000.0 -625677000000.0 -653319000000.0 -711280000000.0 -759454000000.0 -422509000000.0 -1.17106e+12 -1.18045e+12 -1.80459e+12 -975140000000.0 -711233000000.0 -1.55098e+12 -1.29724e+12 -2.31027e+12 -1.62286e+12 -1.97609e+12 -396406000000.0 -817081000000.0 -1.2432e+12 -948154000000.0 -658055000000.0 -1.53368e+12 -1.32625e+12 -639030000000.0 -1.35961e+12 -1.66184e+12 -917024000000.0 -1.28973e+12 -1.82305e+12 -1.4039e+12 -1.86349e+12 -1.30658e+12 -2.01846e+12 -1.54297e+12 -1.31421e+12 -1.83551e+12 -2.58589e+12 -2.8722e+12 -2.28789e+12 -1.65776e+12 -1.20488e+12 -2.48512e+12 -2.35632e+12 -2.60312e+12 -2.51284e+12 -1.27768e+12 -2.52356e+12 -2.08431e+12 -1.42499e+12 -2.32399e+12 -1.12973e+12 -918625000000.0 -1.0408e+12 -1.89145e+12 -1.93582e+12 -1.69289e+12 -2.53733e+12 -1.46544e+12 -1.01087e+12 -806466000000.0 -1.37983e+12 -1.7195e+12 -849971000000.0 -3.47068e+12 -1.52877e+12 -3.2087e+12 -2.12923e+12 -3.02248e+12 -2.48573e+12 -2.72896e+12 -1.06781e+12 -2.37085e+12 -696157000000.0 -1.62564e+12 -1.68933e+12 -2.83892e+12 -859184000000.0 -2.16405e+12 -2.33677e+12 -4.98706e+12 -1.65123e+12 -4.03813e+12 -680421000000.0 -1.65438e+12 -2.21392e+12 -1.01341e+12 -1.15119e+12 -1.54803e+12 -3.80275e+12 -3.77242e+12 -2.49777e+12 -1.70812e+12 -2.74288e+12 -2.21564e+12 -3.41767e+12 -5.45918e+12 -3.98173e+12 -820109000000.0 -2.82148e+12 -1.47093e+12 -2.28394e+12 -3.43096e+12 -3.7867e+12 -1.95669e+12 -2.97901e+12 -2.6523e+12 -2.32251e+12 -859358000000.0 -1.24685e+12 -994022000000.0 -1.85319e+12 -2.53013e+12 -2.24855e+12 -2.57358e+12 -548865000000.0 -1.66522e+12 -1.52852e+12 -3.25012e+12 -2.29804e+12 -5.08427e+12 -2.95426e+12 -3.77104e+12 -4.48676e+12 -3.60863e+12 -4.01262e+12 -2.73535e+12 -3.94133e+12 -3.16985e+12 -3.96566e+12 -3.44203e+12 -3.77732e+12 -3.99565e+12 -4.2333e+12 -2.70273e+12 -4.63459e+12 -2.81215e+12 -3.28422e+12 -3.47173e+12 -2.93235e+12 -5.49489e+12 -3.51352e+12 -1.92784e+12 -2.50914e+12 -748473000000.0 -1.5984e+12 -2.87998e+12 -2.28982e+12 -3.12899e+12 -6.04432e+12 -1.98203e+12 -6.49429e+12 -4.50831e+12 -3.76249e+12 -3.36146e+12 -6.09983e+12 -4.00292e+12 -5.02552e+12 -1.29112e+12 -3.317e+12 -5.52565e+12 -3.46345e+12 -5.30235e+12 -1.27009e+12 -4.34871e+12 -2.39396e+12 -3.63252e+12 -2.97763e+12 -3.59501e+12 -3.43259e+12 -4.43458e+12 -2.99756e+12 -5.33211e+12 -4.19467e+12 -1.51104e+12 -3.19752e+12 -3.24132e+12 -4.74351e+12 -5.35781e+12 -2.13834e+12 -5.61595e+12 -3.75177e+12 -5.1308e+12 -3.56897e+12 -2.78349e+12 -5.15067e+12 -3.84448e+12 -4.02834e+12 -5.27849e+12 -7.30485e+12 -5.75778e+12 -5.727e+12 -4.62607e+12 -5.03248e+12 -4.2487e+12 -4.94626e+12 -1.72985e+12 -7.42266e+12 -3.20375e+12 -1.95056e+12 -3.60851e+12 -2.77995e+12 -2.74166e+12 -2.75594e+12 -3.60298e+12 -3.52299e+12 -4.05644e+12 -6.23648e+12 -7.21451e+12 -2.59861e+12 -3.40709e+12 -6.23721e+12 -4.31694e+12 -3.70412e+12 -6.38556e+12 -3.45194e+12 -4.5951e+12 -3.50417e+12 -6.68498e+12 -4.03589e+12 -4.45316e+12 -4.65716e+12 -5.20834e+12 -6.12756e+12 -3.08772e+12 -1.93221e+12 -5.40691e+12 -4.22148e+12 -3.78739e+12 -5.3469e+12 -4.89437e+12 -5.93957e+12 -4.89165e+12 -2.89766e+12 -5.02358e+12 -3.80071e+12 -5.14101e+12 -5.95167e+12 -6.14663e+12 -6.5648e+12 -2.28577e+12 -3.88734e+12 -3.45607e+12 -3.09646e+12 -5.89219e+12 -4.67748e+12 -4.26726e+12 -5.8617e+12 -4.51977e+12 -2.26207e+12 -4.2708e+12 -4.9966e+12 -6.03289e+12 -3.37353e+12 -6.72715e+12 -7.87623e+12 -5.677e+12 -4.7085e+12 -4.58788e+12 -4.22363e+12 -6.67958e+12 -7.23225e+12 -8.53611e+12 -5.33662e+12 -5.58079e+12 -3.90673e+12 -5.61724e+12 -6.2898e+12 -4.11783e+12 -6.64797e+12 -4.64914e+12 -3.85108e+12 -2.78614e+12 -4.89808e+12 -3.79388e+12 -6.5706e+12 -7.54088e+12 -4.29153e+12 -3.7237e+12 -4.2836e+12 -4.98573e+12 -3.40639e+12 -2.40351e+12 -5.56375e+12 -5.77726e+12 -7.86146e+12 -7.69736e+12 -4.64317e+12 -7.44199e+12 -12549700000.0 -4.63991e+12 -5.96735e+12 -2.77472e+12 -5.05435e+12 -4.35369e+12 -6.52216e+12 -7.33179e+12 -5.42475e+12 -7.66783e+12 -6.48212e+12 -3.67426e+12 -4.88291e+12 -4.90226e+12 -4.28286e+12 -7.2975e+12 -4.12961e+12 -6.38505e+12 -2.73846e+12 -5.02772e+12 -5.48922e+12 -2.47992e+12 -6.7821e+12 -4.56741e+12 -2.64875e+12 -4.16792e+12 -4.60673e+12 -2.28199e+12 -4.98845e+12 -4.79973e+12 -6.41316e+12 -5.91588e+12 -7.69065e+12 -4.30714e+12 -2.96226e+12 -8.06114e+12 -3.46222e+12 -1.55898e+12 -6.06693e+12 -3.13138e+12 -7.07035e+12 -6.35872e+12 -5.5333e+12 -5.31873e+12 -6.33441e+12 -5.01612e+12 -4.98389e+12 -6.83261e+12 -5.91293e+12 -4.48137e+12 -5.77095e+12 -2.3647e+12 -5.13954e+12 -3.89373e+12 -4.76336e+12 -3.46312e+12 -5.37567e+12 -5.78878e+12 -3.51459e+12 -3.68956e+12 -4.13022e+12 -4.22606e+12 -5.34015e+12 -5.56899e+12 -4.85132e+12 -4.36248e+12 -5.49679e+12 -6.27118e+12 -4.85614e+12 -3.37876e+12 -6.85261e+12 -7.25978e+12 -6.54725e+12 -6.2334e+12 -7.35968e+12 -2.04009e+12 -6.55911e+12 -4.8609e+12 -2.59287e+12 -4.10209e+12 -4.56009e+12 -4.89341e+12 -8.30569e+12 -5.55578e+12 -5.75734e+12 -4.33455e+12 -5.50907e+12 -5.86187e+12 -7.18944e+12 -5.79829e+12 -4.66121e+12 -3.65687e+12 -5.36296e+12 -5.11712e+12 -5.81063e+12 -5.33064e+12 -7.25657e+12 -3.645e+12 -4.14026e+12 -5.2031e+12 -5.94482e+12 -5.59333e+12 -5.13033e+12 -2.72864e+12 -3.90749e+12 -4.52738e+12 -3.56754e+12 -4.15369e+12 -3.01605e+12 -3.97997e+12 -3.98013e+12 -7.01161e+12 -7.16952e+12 -4.49225e+12 -6.4551e+12 -5.98334e+12 -5.93019e+12 -7.86252e+12 -3.84168e+12 -5.58737e+12 -4.2748e+12 -5.5452e+12 -8.15994e+12 -5.5387e+12 -8.18365e+12 -6.51182e+12 -8.15027e+12 -5.0328e+12 -3.99776e+12 -7.26125e+12 -5.37274e+12 -6.86443e+12 -5.03239e+12 -5.04771e+12 -4.44385e+12 -1.05963e+13 -7.95847e+12 -9.19574e+12 -9.33232e+12 -7.76232e+12 -8.70905e+12 -7.46324e+12 -4.79875e+12 -6.82958e+12 -8.73264e+12 -8.26875e+12 -8.22338e+12 -7.85234e+12 -5.96422e+12 -3.61897e+12 -4.26841e+12 -6.89398e+12 -7.16544e+12 -3.02288e+12 -3.56936e+12 -5.31175e+12 -5.84434e+12 -5.22967e+12 -2.92816e+12 -4.72407e+12 -3.80521e+12 -5.36745e+12 -4.65385e+12 -7.42601e+12 -3.31578e+12 -9.03296e+12 -7.73226e+12 -5.87269e+12 -5.6866e+12 -3.89603e+12 -4.08387e+12 -6.75541e+12 -4.88224e+12 -6.66778e+12 -7.35403e+12 -4.83206e+12 -2.94126e+12 -4.01021e+12 -6.71952e+12 -6.63218e+12 -7.83837e+12 -5.70185e+12 -8.79468e+12 -1.0732e+13 -5.61946e+12 -6.1156e+12 -8.55528e+12 -5.79001e+12 -5.73307e+12 -3.50302e+12 -8.93833e+12 -4.61873e+12 -4.64766e+12 -6.35013e+12 -4.91766e+12 -4.51754e+12 -6.59497e+12 -7.4216e+12 -4.26905e+12 -8.65977e+12 -6.17745e+12 -1.13341e+13 -4.73534e+12 -5.92482e+12 -1.08365e+13 -1.05477e+13 -3.4745e+12 -7.10117e+12 -6.94561e+12 -9.13139e+12 -7.22532e+12 -4.59605e+12 -4.73706e+12 -7.16324e+12 -6.13916e+12 -5.00393e+12 -3.30899e+12 -6.57807e+12 -7.73674e+12 -5.26629e+12 -5.80009e+12 -4.79976e+12 -7.64551e+12 -5.44213e+12 -4.30641e+12 -5.68389e+12 -5.74299e+12 -3.92604e+12 -5.84034e+12 -2.97765e+12 -3.25198e+12 -4.01772e+12 -4.61003e+12 -4.90303e+12 -3.53194e+12 -6.37872e+12 -5.31968e+12 -5.56078e+12 -5.709e+12 -4.8194e+12 -6.75365e+12 -2.59136e+12 -4.10537e+12 -4.88477e+12 -5.74896e+12 -8.23348e+12 -8.95732e+12 -8.69657e+12 -5.98514e+12 -8.20805e+12 -5.50376e+12 -1.09696e+13 -9.30935e+12 -8.34199e+12 -1.28779e+13 -8.59361e+12 -4.03366e+12 -6.88351e+12 -7.04112e+12 -5.72893e+12 -6.12431e+12 -4.30517e+12 -5.96286e+12 -5.5796e+12 -7.44703e+12 -7.22964e+12 -7.66939e+12 -3.54495e+12 -4.08836e+12 -6.20499e+12 -8.30182e+12 -4.25429e+12 -5.74299e+12 -5.83816e+12 -8.25632e+12 -7.99708e+12 -6.06483e+12 -5.95113e+12 -3.83747e+12 -3.65369e+12 -7.29463e+12 -1.08262e+13 -5.39617e+12 -5.88656e+12 -4.93553e+12 -3.52079e+12 -1.21793e+13 -6.35101e+12 -5.12246e+12 -6.73499e+12 -5.58646e+12 -7.60297e+12 -4.29795e+12 -4.93586e+12 -7.20597e+12 -9.88465e+12 -5.01312e+12 -7.1141e+12 -8.41601e+12 -1.09151e+13 -9.18906e+12 -5.31914e+12 -3.67782e+12 -6.65576e+12 -6.24112e+12 -6.24242e+12 -6.97239e+12 -9.6125e+12 -1.13574e+13 -8.71818e+12 -5.15883e+12 -6.49069e+12 -6.73913e+12 -1.30691e+13 -1.10346e+13 -7.95946e+12 -1.06992e+13 -1.65577e+13 -4.09219e+12 -1.08328e+13 -5.8821e+12 -8.09762e+12 -7.59985e+12 -7.16452e+12 -5.60179e+12 -8.06605e+12 -4.61653e+12 -7.49843e+12 -7.41715e+12 -4.10308e+12 -4.24885e+12 -5.9125e+12 -7.55666e+12 -1.10863e+13 -5.71911e+12 -9.64159e+12 -6.22833e+12 -3.49181e+12 -6.01807e+12 -6.28744e+12 -5.11772e+12 -4.92256e+12 -1.07664e+13 -9.83278e+12 -7.05408e+12 -6.95147e+12 -9.02286e+12 -4.9786e+12 -5.25767e+12 -6.99549e+12 -4.70934e+12 -7.93314e+12 -8.39882e+12 -8.15602e+12 -6.39212e+12 -5.92069e+12 -6.87812e+12 -7.13481e+12 -6.61127e+12 -4.29287e+12 -5.06955e+12 -4.1443e+12 -4.43804e+12 -6.08194e+12 -4.65385e+12 -7.35481e+12 -4.73499e+12 -6.07715e+12 -3.86928e+12 -5.65256e+12 -4.6651e+12 -6.37718e+12 -6.25548e+12 -7.77548e+12 -7.33088e+12 -5.09434e+12 -7.78161e+12 -5.0323e+12 -7.05157e+12 -1.03179e+13 -6.51472e+12 -3.02835e+12 -8.94693e+12 -5.39906e+12 -6.14087e+12 -1.2181e+13 -1.01922e+13 -5.12432e+12 -7.76801e+12 -9.77034e+12 -6.30785e+12 -7.51876e+12 -1.05646e+13 -5.62273e+12 -6.06341e+12 -1.08041e+13 -5.21113e+12 -9.45938e+12 -6.59013e+12 -9.30882e+12 -5.89956e+12 -4.50439e+12 -1.21335e+13 -5.79167e+12 -4.8517e+12 -4.95402e+12 -3.73133e+12 -9.11641e+12 -4.47578e+12 -3.6222e+12 -4.01839e+12 -3.43587e+12 -6.11898e+12 -8.94087e+12 -7.45713e+12 -6.88796e+12 -7.93311e+12 -7.65217e+12 -6.34088e+12 -8.67169e+12 -5.54689e+12 -5.36029e+12 -8.24186e+12 -6.79355e+12 -8.36261e+12 -1.06707e+13 -8.36107e+12 -1.29403e+13 -4.77556e+12 -1.02826e+13 -7.02419e+12 -4.35887e+12 -5.50214e+12 -3.79496e+12 -4.10937e+12 -4.29969e+12 -6.88421e+12 -9.03454e+12 -7.15483e+12 -4.45601e+12 -6.7606e+12 -5.18433e+12 -2.37375e+12 -6.93339e+12 -5.3325e+12 -4.40496e+12 -6.00599e+12 -2.8225e+12 -5.98631e+12 -5.43433e+12 -4.40599e+12 -2.53691e+12 -7.27464e+12 -5.889e+12 -4.05532e+12 -5.53835e+12 -6.18345e+12 -5.48046e+12 -4.19011e+12 -6.24183e+12 -7.36497e+12 -7.74704e+12 -3.44832e+12 -1.94399e+12 -4.38904e+12 -4.02445e+12 -7.11626e+12 -5.75579e+12 -2.89106e+12 -6.48291e+12 -7.11496e+12 -7.85701e+12 -5.80489e+12 -1.07298e+13 -6.90192e+12 -6.49112e+12 -8.92399e+12 -4.94743e+12 -7.1794e+12 -5.34798e+12 -7.98869e+12 -4.42141e+12 -5.17583e+12 -1.28736e+13 -1.03353e+13 -5.59259e+12 -7.46881e+12 -5.51607e+12 -6.7812e+12 -5.95046e+12 -1.0812e+13 -7.29029e+12 -3.53874e+12 -6.41094e+12 -5.32603e+12 -6.6628e+12 -4.56564e+12 -7.70986e+12 -3.53755e+12 -8.36589e+12 -4.49754e+12 -4.9613e+12 -3.65339e+12 -5.59074e+12 -7.84226e+12 -7.98684e+12 -8.95277e+12 -7.20213e+12 -1.07874e+13 -7.62883e+12 -6.785e+12 -8.42143e+12 -4.64169e+12 -4.79818e+12 -4.75899e+12 -1.17981e+13 -4.80525e+12 -7.93196e+12 -6.90572e+12 -6.04522e+12 -9.53686e+12 -4.51189e+12 -6.00405e+12 -9.55323e+12 -9.7358e+12 -7.0778e+12 -6.42416e+12 -8.29014e+12 -6.13172e+12 -3.38651e+12 -4.68723e+12 -5.55184e+12 -6.13694e+12 -3.2181e+12 -3.86134e+12 -4.94602e+12 -5.48385e+12 -7.18478e+12 -3.57858e+12 -4.787e+12 -3.54698e+12 -4.59907e+12 -4.23763e+12 -6.99325e+12 -2.20207e+12 -2.54756e+12 -8.16348e+12 -4.40515e+12 -5.35583e+12 -4.86016e+12 -6.72594e+12 -3.5431e+12 -4.21729e+12 -8.0615e+12 -3.78972e+12 -5.34948e+12 -4.68347e+12 -3.80789e+12 -8.80301e+12 -6.04811e+12 -1.014e+13 -7.26187e+12 -5.29471e+12 -6.87186e+12 -4.3951e+12 -5.50458e+12 -7.65465e+12 -9.89032e+12 -6.55716e+12 -5.41418e+12 -8.92599e+12 -7.13011e+12 -5.86152e+12 -5.6597e+12 -1.01354e+13 -5.23693e+12 -3.92661e+12 -9.4057e+12 -5.37958e+12 -7.49595e+12 -9.78109e+12 -6.92391e+12 -8.72439e+12 -1.16726e+13 -3.14965e+12 -5.4513e+12 -5.99316e+12 -6.07903e+12 -5.49392e+12 -1.10934e+13 -9.5508e+12 -1.07529e+13 -6.81881e+12 -6.44955e+12 -9.07886e+12 -3.57104e+12 -5.38236e+12 -6.97333e+12 -5.66157e+12 -6.76556e+12 -6.0164e+12 -6.78146e+12 -6.35559e+12 -1.23055e+13 -6.8132e+12 -1.35977e+13 -5.11181e+12 -1.06383e+13 -8.88771e+12 -7.62695e+12 -7.80653e+12 -4.94696e+12 -5.48629e+12 -8.47428e+12 -6.94714e+12 -5.87237e+12 -6.84673e+12 -7.59563e+12 -7.11293e+12 -7.11429e+12 -7.21004e+12 -7.55425e+12 -5.52374e+12 -5.55602e+12 -5.42218e+12 -6.24109e+12 -5.91236e+12 -7.52627e+12 -6.421e+12 -8.36996e+12 -8.64707e+12 -7.03361e+12 -6.308e+12 -5.50804e+12 -5.69199e+12 -6.87797e+12 -4.53708e+12 -3.80238e+12 -8.15379e+12 -1.04497e+13 -4.43745e+12 -5.69487e+12 -8.15044e+12 -6.83696e+12 -4.38442e+12 -8.38018e+12 -8.27683e+12 -6.06362e+12 -6.54879e+12 -6.04768e+12 -7.79625e+12 -7.92598e+12 -7.3092e+12 -4.107e+12 -6.17155e+12 -5.2242e+12 -5.30609e+12 -6.76999e+12 -8.45207e+12 -5.72846e+12 -7.70147e+12 -6.94915e+12 -8.2669e+12 -7.98041e+12 -8.79038e+12 -6.94936e+12 -5.09841e+12 -6.29592e+12 -5.93073e+12 -7.51414e+12 -5.92737e+12 -2.26065e+12 -7.24619e+12 -9.52613e+12 -1.04218e+13 -6.79127e+12 -8.57781e+12 -8.32175e+12 -8.29862e+12 -7.85289e+12 -7.81144e+12 -1.38518e+13 -8.40337e+12 -9.30173e+12 -3.31064e+12 -4.18161e+12 -7.19179e+12 -6.095e+12 -7.79612e+12 -9.92902e+12 -1.1599e+13 -3.93249e+12 -9.85072e+12 -9.57466e+12 -8.26452e+12 -3.84091e+12 -1.24095e+13 -1.10819e+13 -9.46004e+12 -4.77069e+12 -7.13811e+12 -8.75784e+12 -5.27361e+12 -5.90367e+12 -7.52218e+12 -9.149e+12 -7.83735e+12 -6.52832e+12 -7.70634e+12 -6.97833e+12 -6.15576e+12 -5.64394e+12 -9.55766e+12 -9.56057e+12 -7.68744e+12 -6.88072e+12 -1.25328e+13 -5.04276e+12 -3.89742e+12 -8.45609e+12 -6.93725e+12 -4.21284e+12 -1.93369e+12 -6.76228e+12 -3.39693e+12 -5.39578e+12 -2.88931e+12 -6.54212e+12 -4.48363e+12 -6.93545e+12 -5.83356e+12 -4.69104e+12 -4.3566e+12 -4.85068e+12 -6.21839e+12 -4.52727e+12 -5.07292e+12 -5.56648e+12 -4.04274e+12 -7.93729e+12 -8.75549e+12 -4.96264e+12 -5.79844e+12 -5.97538e+12 -5.09354e+12 -1.00825e+13 -4.74211e+12 -4.34772e+12 -8.77558e+12 -7.6339e+12 -6.41033e+12 -6.30193e+12 -6.36534e+12 -2.93767e+12 -4.58598e+12 -1.14633e+13 -4.83612e+12 -6.76828e+12 -6.83267e+12 -5.71024e+12 -4.30944e+12 -7.6562e+12 -5.52542e+12 -6.71709e+12 -8.03025e+12 -6.30541e+12 -7.2913e+12 -9.73496e+12 -4.77654e+12 -6.07543e+12 -7.27937e+12 -5.97184e+12 -9.24601e+12 -7.29876e+12 -6.29333e+12 -7.95963e+12 -1.44761e+13 -6.64202e+12 -8.97539e+12 -8.90916e+12 -8.80076e+12 -1.01529e+13 -8.84535e+12 -7.27673e+12 -3.73893e+12 -1.2523e+13 -7.5358e+12 -2.74466e+12 -4.08326e+12 -5.72276e+12 -5.15856e+12 -7.25397e+12 -1.17294e+13 -1.31653e+13 -8.0964e+12 -9.42122e+12 -6.27065e+12 -1.00102e+13 -5.52018e+12 -6.63802e+12 -5.87006e+12 -8.69024e+12 -6.37589e+12 -9.04173e+12 -5.76838e+12 -7.9153e+12 -9.14629e+12 -7.76766e+12 -1.18547e+13 -6.96289e+12 -7.31477e+12 -8.71411e+12 -7.90538e+12 -6.46911e+12 -4.48031e+12 -5.26149e+12 -5.61392e+12 -7.86601e+12 -7.43265e+12 -1.27241e+13 -8.67861e+12 -9.17069e+12 -4.59832e+12 -6.50677e+12 -3.63873e+12 -5.73152e+12 -5.70835e+12 -5.60999e+12 -6.10944e+12 -3.79082e+12 -3.61838e+12 -6.1568e+12 -2.01769e+12 -7.25752e+12 -4.81612e+12 -1.42011e+12 -4.91166e+12 -5.56017e+12 -9.01332e+12 -8.52228e+12 -5.18552e+12 -6.02672e+12 -6.89783e+12 -7.15094e+12 -7.63808e+12 -5.60982e+12 -7.93236e+12 -3.54066e+12 -4.10195e+12 -6.59326e+12 -6.73213e+12 -6.63156e+12 -5.02514e+12 -5.8022e+12 -8.12379e+12 -4.39255e+12 -9.80227e+12 -4.87323e+12 -5.30323e+12 -9.02426e+12 -9.62868e+12 -5.09806e+12 -6.83522e+12 -5.78401e+12 -5.8683e+12 -9.39076e+12 -1.14647e+13 -4.76985e+12 -8.98385e+12 -6.74507e+12 -9.21579e+12 -1.29707e+13 -8.68707e+12 -5.09085e+12 -7.14681e+12 -1.20757e+13 -7.75458e+12 -1.0823e+13 -7.15073e+12 -7.34929e+12 -9.86844e+12 -6.53701e+12 -9.59942e+12 -8.39636e+12 -2.6767e+12 -3.84076e+12 -8.85227e+12 -5.24075e+12 -4.1474e+12 -7.15397e+12 -3.53472e+12 -8.66036e+12 -5.12899e+12 -6.71617e+12 -5.70421e+12 -4.85028e+12 -9.30974e+12 -5.72051e+12 -8.87508e+12 -5.74161e+12 -9.44246e+12 -1.22977e+13 -6.0477e+12 -9.89203e+12 -9.09391e+12 -6.18472e+12 -1.07175e+13 -1.06676e+13 -7.56127e+12 -5.23069e+12 -1.18346e+13 -8.24533e+12 -8.55994e+12 -5.27599e+12 -5.91631e+12 -7.34212e+12 -5.86729e+12 -6.91747e+12 -5.46185e+12 -4.41388e+12 -6.11455e+12 -4.96097e+12 -5.26132e+12 -8.40268e+12 -6.56803e+12 -5.86399e+12 -6.38564e+12 -4.05628e+12 -6.84928e+12 -3.38236e+12 -6.08837e+12 -6.29747e+12 -3.25428e+12 -3.52799e+12 -4.93462e+12 -5.54216e+12 -6.33317e+12 -7.97078e+12 -6.11421e+12 -6.25892e+12 -6.38844e+12 -5.36979e+12 -4.56951e+12 -5.41341e+12 -4.11933e+12 -7.4413e+12 -9.74522e+12 -5.30821e+12 -3.85524e+12 -5.62644e+12 -4.85207e+12 -5.34737e+12 -6.89131e+12 -7.15711e+12 -5.38798e+12 -5.895e+12 -2.57701e+12 -4.86053e+12 -4.53449e+12 -4.82739e+12 -9.59254e+12 -4.89731e+12 -2.76644e+12 -6.13365e+12 -6.75165e+12 -6.77315e+12 -5.75117e+12 -7.04159e+12 -4.83727e+12 -6.63118e+12 -6.09893e+12 -7.11992e+12 -1.04849e+13 -5.43949e+12 -6.53263e+12 -5.16453e+12 -4.22373e+12 -9.01722e+12 -7.93818e+12 -4.61548e+12 -5.63211e+12 -9.09903e+12 -8.36811e+12 -7.24557e+12 -9.48135e+12 -8.44512e+12 -8.17304e+12 -8.2714e+12 -1.20337e+13 -1.12571e+13 -8.91075e+12 -6.54378e+12 -1.1451e+13 -6.81096e+12 -7.24226e+12 -1.02896e+13 -7.99738e+12 -5.14186e+12 -5.18869e+12 -8.53061e+12 -8.41296e+12 -6.16922e+12 -6.10262e+12 -3.13145e+12 -4.71358e+12 -5.27957e+12 -6.39628e+12 -1.02641e+13 -7.69406e+12 -8.71107e+12 -6.97585e+12 -9.55724e+12 -7.42144e+12 -7.86831e+12 -7.43074e+12 -5.46635e+12 -7.44821e+12 -4.95172e+12 -8.11111e+12 -9.14003e+12 -6.28932e+12 -9.75232e+12 -7.92523e+12 -4.81825e+12 -8.23399e+12 -7.28045e+12 -5.81869e+12 -6.75108e+12 -6.50001e+12 -8.1933e+12 -6.39129e+12 -3.02045e+12 -7.69567e+12 -7.80263e+12 -8.95761e+12 -4.46066e+12 -6.40093e+12 -4.21524e+12 -5.46941e+12 -5.38894e+12 -4.55406e+12 -8.02989e+12 -8.34657e+12 -5.40992e+12 -6.15167e+12 -4.68451e+12 -5.44689e+12 -8.76315e+12 -3.29357e+12 -4.68789e+12 -5.41189e+12 -5.07681e+12 -5.64909e+12 -3.31363e+12 -6.66518e+12 -4.68564e+12 -5.99565e+12 -3.42755e+12 -5.38091e+12 -3.34165e+12 -4.1304e+12 -3.53677e+12 -3.93813e+12 -7.42519e+12 -6.89076e+12 -7.25016e+12 -6.29676e+12 -7.14683e+12 -2.62101e+12 -7.18948e+12 -3.62456e+12 -5.18892e+12 -4.62017e+12 -8.76398e+12 -3.28899e+12 -4.95657e+12 -8.98941e+12 -8.49884e+12 -4.78782e+12 -5.7459e+12 -5.28002e+12 -6.58116e+12 -7.36066e+12 -5.10467e+12 -4.60863e+12 -7.31299e+12 -5.82307e+12 -8.35049e+12 -9.11813e+12 -7.31912e+12 -7.39269e+12 -8.8635e+12 -9.41333e+12 -5.08256e+12 -7.09776e+12 -1.38805e+13 -7.82049e+12 -9.62809e+12 -4.93275e+12 -1.19565e+13 -5.49045e+12 -1.08716e+13 -5.61972e+12 -5.04898e+12 -1.39168e+13 -8.73252e+12 -5.28992e+12 -9.13217e+12 -6.36181e+12 -4.87915e+12 -7.48242e+12 -9.91141e+12 -9.85872e+12 -4.96505e+12 -9.96026e+12 -7.01871e+12 -6.08502e+12 -4.42988e+12 -9.11655e+12 -7.27699e+12 -1.22168e+13 -6.27538e+12 -6.88663e+12 -5.6353e+12 -5.52397e+12 -8.97354e+12 -1.15874e+13 -2.13948e+12 -6.29851e+12 -4.85551e+12 -3.67619e+12 -8.66023e+12 -8.16817e+12 -5.05095e+12 -6.71588e+12 -9.09824e+12 -8.59269e+12 -2.47411e+12 -9.67923e+12 -9.90108e+12 -5.71731e+12 -7.91819e+12 -7.65527e+12 -7.17702e+12 -4.8081e+12 -3.66831e+12 -8.54333e+12 -5.25869e+12 -5.51734e+12 -6.2861e+12 -4.7256e+12 -3.25997e+12 -6.21222e+12 -5.74454e+12 -3.77011e+12 -6.71295e+12 -4.69759e+12 -2.22948e+12 -3.23875e+12 -7.76415e+12 -5.85037e+12 -3.7219e+12 -5.27778e+12 -6.30592e+12 -4.17663e+12 -5.43383e+12 -3.7338e+12 -6.27638e+12 -3.23789e+12 -5.22727e+12 -4.04237e+12 -5.07319e+12 -7.38665e+12 -2.51335e+12 -1.05699e+13 -3.31355e+12 -6.47661e+12 -3.88459e+12 -4.54776e+12 -6.37308e+12 -6.41331e+12 -8.05709e+12 -6.65016e+12 -4.50099e+12 -4.27646e+12 -5.92037e+12 -5.95679e+12 -7.4806e+12 -6.69779e+12 -6.17288e+12 -7.25139e+12 -5.15461e+12 -8.93481e+12 -5.60198e+12 -6.40285e+12 -3.31866e+12 -6.97845e+12 -8.2365e+12 -3.96041e+12 -8.76739e+12 -7.72935e+12 -4.09847e+12 -2.50502e+12 -6.96574e+12 -5.73926e+12 -4.70269e+12 -5.9662e+12 -8.18957e+12 -7.17477e+12 -7.87179e+12 -7.01084e+12 -3.22737e+12 -6.63796e+12 -7.71202e+12 -3.88556e+12 -9.47006e+12 -8.34376e+12 -4.27044e+12 -7.30048e+12 -6.46294e+12 -2.66265e+12 -7.32491e+12 -6.87834e+12 -9.04763e+12 -3.10698e+12 -9.90809e+12 -6.55661e+12 -7.64696e+12 -6.93357e+12 -8.16984e+12 -1.01068e+13 -7.27356e+12 -5.39007e+12 -7.98704e+12 -8.55433e+12 -7.99642e+12 -5.99364e+12 -6.21066e+12 -8.96467e+12 -1.11177e+13 -8.45038e+12 -1.14047e+13 -1.15963e+13 -6.30954e+12 -8.40108e+12 -7.27078e+12 -8.99983e+12 -7.49468e+12 -5.11804e+12 -5.37241e+12 -4.86074e+12 -3.83878e+12 -6.15321e+12 -5.17461e+12 -5.54403e+12 -3.82299e+12 -7.68593e+12 -8.78838e+12 -5.51609e+12 -4.6813e+12 -4.49096e+12 -5.44023e+12 -4.42877e+12 -7.65174e+12 -5.95711e+12 -6.28469e+12 -2.78383e+12 -2.26028e+12 -6.66857e+12 -5.00124e+12 -8.01157e+12 -5.97188e+12 -4.78655e+12 -8.30097e+12 -4.76195e+12 -3.94109e+12 -6.4358e+12 -4.39607e+12 -3.58733e+12 -5.43733e+12 -6.55424e+12 -5.23729e+12 -5.87945e+12 -4.36498e+12 -3.11155e+12 -2.2942e+12 -4.02427e+12 -5.26101e+12 -7.47772e+12 -5.27477e+12 -3.42163e+12 -4.95172e+12 -4.67819e+12 -5.71375e+12 -5.46717e+12 -3.56854e+12 -6.74475e+12 -2.77132e+12 -4.61844e+12 -5.47484e+12 -5.35544e+12 -8.10751e+12 -3.42095e+12 -5.52007e+12 -6.10065e+12 -3.5151e+12 -6.02296e+12 -5.23252e+12 -4.79348e+12 -4.1235e+12 -4.8495e+12 -4.97403e+12 -2.94979e+12 -5.04619e+12 -7.65262e+12 -5.36435e+12 -5.79668e+12 -4.67465e+12 -6.16894e+12 -3.8375e+12 -6.27283e+12 -7.86497e+12 -4.98705e+12 -6.44673e+12 -6.24288e+12 -4.3827e+12 -3.58571e+12 -1.59823e+12 -6.98415e+12 -4.14479e+12 -5.10759e+12 -5.86038e+12 -5.61593e+12 -8.89411e+12 -3.441e+12 -7.36637e+12 -6.49871e+12 -7.70305e+12 -7.43796e+12 -1.12311e+13 -5.17472e+12 -6.40408e+12 -9.88741e+12 -5.67703e+12 -3.6507e+12 -6.34524e+12 -5.51781e+12 -4.31114e+12 -9.81062e+12 -7.07988e+12 -7.7593e+12 -7.38521e+12 -8.12867e+12 -7.85756e+12 -4.75934e+12 -8.97116e+12 -8.03097e+12 -5.1519e+12 -4.13222e+12 -6.87427e+12 -7.66908e+12 -9.61057e+12 -8.5125e+12 -9.42311e+12 -6.18783e+12 -5.79761e+12 -7.65505e+12 -8.03538e+12 -5.02039e+12 -8.31607e+12 -5.10469e+12 -7.72283e+12 -6.3747e+12 -3.97899e+12 -6.98969e+12 -7.90561e+12 -6.01728e+12 -9.84413e+12 -6.65638e+12 -3.89126e+12 -6.6129e+12 -8.31702e+12 -7.94377e+12 -5.52628e+12 -4.87229e+12 -6.86061e+12 -4.47753e+12 -6.98021e+12 -3.91416e+12 -1.01244e+13 -1.05349e+13 -5.77652e+12 -9.98127e+12 -5.53497e+12 -3.89364e+12 -5.64477e+12 -3.39807e+12 -7.51815e+12 -5.3383e+12 -4.752e+12 -4.54458e+12 -6.71396e+12 -1.07467e+13 -6.70015e+12 -5.9331e+12 -6.31824e+12 -5.24854e+12 -4.10838e+12 -9.06193e+12 -3.27876e+12 -4.44405e+12 -6.1389e+12 -2.8038e+12 -7.01196e+12 -5.33824e+12 -2.7074e+12 -4.00452e+12 -4.72464e+12 -6.753e+12 -4.1732e+12 -3.41281e+12 -6.48521e+12 -5.98036e+12 -3.86077e+12 -3.08481e+12 -4.80775e+12 -5.86462e+12 -8.75249e+12 -3.53906e+12 -4.05073e+12 -5.86435e+12 -5.35152e+12 -5.63174e+12 -2.35396e+12 -1.6502e+12 -5.15852e+12 -5.17861e+12 -8.18585e+12 -9.89457e+12 -4.38127e+12 -4.54519e+12 -7.20327e+12 -6.84033e+12 -4.41592e+12 -6.46002e+12 -6.52984e+12 -4.14573e+12 -6.68759e+12 -4.82547e+12 -3.04724e+12 -6.53156e+12 -5.57426e+12 -6.0632e+12 -2.13664e+12 -9.43462e+12 -8.21878e+12 -2.85754e+12 -9.5129e+12 -4.20464e+12 -6.4975e+12 -7.07957e+12 -1.09993e+13 -9.53456e+12 -7.75759e+12 -7.05378e+12 -4.4999e+12 -9.37385e+12 -1.01927e+13 -8.29848e+12 -8.08101e+12 -7.19977e+12 -6.89663e+12 -5.91213e+12 -6.69887e+12 -6.6655e+12 -7.60319e+12 -6.18711e+12 -4.73426e+12 -6.18995e+12 -4.25056e+12 -7.70416e+12 -7.25081e+12 -4.6392e+12 -4.56608e+12 -3.31873e+12 -2.64472e+12 -7.43657e+12 -2.69349e+12 -7.61524e+12 -9.76526e+12 -6.49531e+12 -6.53828e+12 -4.43831e+12 -1.16245e+13 -5.81456e+12 -5.1944e+12 -2.90339e+12 -9.66627e+12 -1.13698e+13 -6.87451e+12 -9.67991e+12 -4.4962e+12 -5.71594e+12 -6.67244e+12 -4.60914e+12 -4.13588e+12 -7.30064e+12 -8.20156e+12 -6.33256e+12 -7.01748e+12 -6.12902e+12 -3.82785e+12 -7.95199e+12 -5.78572e+12 -8.23538e+12 -4.84296e+12 -7.93054e+12 -6.56091e+12 -5.64309e+12 -4.64664e+12 -3.99334e+12 -5.19665e+12 -6.02966e+12 -5.72385e+12 -5.19672e+12 -4.74895e+12 -4.41219e+12 -6.1498e+12 -5.73645e+12 -9.30098e+12 -3.31286e+12 -5.22918e+12 -4.32671e+12 -7.31472e+12 -6.84943e+12 -4.97152e+12 -4.89786e+12 -5.63477e+12 -4.07637e+12 -7.6819e+12 -6.35181e+12 -6.96405e+12 -7.22266e+12 -5.03456e+12 -4.86866e+12 -5.29406e+12 -3.68002e+12 -5.40981e+12 -2.18065e+12 -5.50979e+12 -5.27836e+12 -5.44637e+12 -4.1568e+12 -6.17174e+12 -3.89958e+12 -7.09953e+12 -5.37485e+12 -4.01299e+12 -7.94305e+12 -6.80166e+12 -6.85889e+12 -6.5496e+12 -3.16863e+12 -5.65624e+12 -3.83865e+12 -4.16216e+12 -2.03878e+12 -3.32686e+12 -4.92918e+12 -3.809e+12 -5.11367e+12 -4.46858e+12 -4.16383e+12 -3.08331e+12 -3.5408e+12 -4.05131e+12 -6.25776e+12 -7.20586e+12 -7.93495e+12 -4.63909e+12 -4.98305e+12 -7.07303e+12 -5.308e+12 -2.06486e+12 -9.41955e+12 -5.96915e+12 -6.23058e+12 -6.33735e+12 -6.81041e+12 -7.41255e+12 -5.14491e+12 -7.71154e+12 -3.77998e+12 -9.4394e+12 -6.92661e+12 -8.271e+12 -6.93489e+12 -8.3763e+12 -9.92348e+12 -8.44566e+12 -1.16897e+13 -1.1225e+13 -9.66079e+12 -5.94308e+12 -6.22399e+12 -1.12444e+13 -8.29772e+12 -7.18762e+12 -7.64012e+12 -8.90181e+12 -1.01622e+13 -7.69344e+12 -5.11115e+12 -6.37327e+12 -3.6119e+12 -8.27248e+12 -5.32019e+12 -5.28675e+12 -5.02722e+12 -4.00584e+12 -5.90861e+12 -6.29617e+12 -6.63517e+12 -6.58307e+12 -7.59623e+12 -1.13107e+13 -8.06224e+12 -4.20327e+12 -8.32006e+12 -1.3791e+13 -7.74874e+12 -9.92121e+12 -5.18721e+12 -4.31027e+12 -5.56641e+12 -6.78021e+12 -9.0048e+12 -9.97794e+12 -4.49419e+12 -6.41415e+12 -4.23493e+12 -5.25619e+12 -5.80113e+12 -4.81074e+12 -2.00597e+12 -5.37405e+12 -1.00644e+13 -6.66425e+12 -6.04779e+12 -6.92527e+12 -6.36212e+12 -2.80013e+12 -4.928e+12 -6.09277e+12 -6.29539e+12 -3.90464e+12 -3.21824e+12 -6.10554e+12 -5.84131e+12 -4.73298e+12 -5.14256e+12 -8.91721e+12 -9.24723e+12 -7.01501e+12 -4.71704e+12 -3.96103e+12 -4.75026e+12 -4.95284e+12 -5.17667e+12 -5.21933e+12 -6.58037e+12 -5.30171e+12 -2.99804e+12 -5.5256e+12 -5.02967e+12 -5.82414e+12 -3.2699e+12 -5.70807e+12 -5.44969e+12 -6.16309e+12 -6.01382e+12 -3.26603e+12 -3.28782e+12 -5.37272e+12 -3.27017e+12 -1.95194e+12 -3.77376e+12 -3.53457e+12 -2.01819e+12 -4.41979e+12 -4.01521e+12 -4.04449e+12 -3.81834e+12 -6.19776e+12 -3.55334e+12 -4.97737e+12 -4.93319e+12 -3.58192e+12 -2.29182e+12 -2.27862e+12 -4.14675e+12 -2.04465e+12 -4.90545e+12 -3.04719e+12 -7.16989e+12 -5.9318e+12 -5.28117e+12 -4.24992e+12 -8.40324e+12 -4.84771e+12 -8.238e+12 -6.34846e+12 -8.24854e+12 -5.05788e+12 -7.17013e+12 -5.66229e+12 -6.62285e+12 -9.08166e+12 -7.6547e+12 -4.79858e+12 -3.7111e+12 -5.77918e+12 -1.0719e+13 -6.31419e+12 -1.07238e+13 -9.13141e+12 -3.03968e+12 -4.33252e+12 -5.8353e+12 -2.19298e+12 -6.19996e+12 -7.15958e+12 -6.90305e+12 -8.38419e+12 -4.20372e+12 -3.92522e+12 -7.67699e+12 -5.97201e+12 -6.19779e+12 -6.72143e+12 -9.83331e+12 -6.4706e+12 -4.6245e+12 -5.77846e+12 -7.35112e+12 -4.72146e+12 -5.52274e+12 -5.50926e+12 -7.30575e+12 -7.89485e+12 -5.70688e+12 -3.95394e+12 -5.35225e+12 -6.04172e+12 -5.35387e+12 -4.06616e+12 -3.56878e+12 -6.45772e+12 -6.16287e+12 -7.16574e+12 -4.79602e+12 -1.03509e+13 -2.71805e+12 -8.86725e+12 -6.39644e+12 -6.22595e+12 -1.66702e+13 -8.8517e+12 -5.85286e+12 -6.15981e+12 -1.02261e+13 -8.74845e+12 -8.42854e+12 -8.54004e+12 -4.58381e+12 -8.55674e+12 -6.46155e+12 -5.99526e+12 -7.47147e+12 -6.73074e+12 -8.78654e+12 -6.30732e+12 -1.20641e+13 -8.02256e+12 -9.13242e+12 -3.11438e+12 -6.37189e+12 -2.81484e+12 -6.19655e+12 -5.12806e+12 -4.31514e+12 -6.38875e+12 -4.52153e+12 -8.12068e+12 -2.87713e+12 -4.14564e+12 -6.24151e+12 -8.25806e+12 -9.01874e+12 -4.37249e+12 -3.99735e+12 -3.79665e+12 -3.21797e+12 -4.44121e+12 -6.09362e+12 -4.65493e+12 -3.9151e+12 -5.07301e+12 -2.89025e+12 -5.97367e+12 -3.24995e+12 -3.02193e+12 -4.70715e+12 -6.0873e+12 -3.48513e+12 -4.18117e+12 -3.16017e+12 -4.50887e+12 -4.95341e+12 -4.20145e+12 -4.4516e+12 -2.11433e+12 -4.83733e+12 -4.40215e+12 -7.19362e+12 -3.03039e+12 -1.63541e+12 -2.77624e+12 -1.93441e+12 -5.3721e+12 -5.57935e+12 -2.02264e+12 -3.44627e+12 -2.7946e+12 -5.67534e+12 -3.49258e+12 -3.2606e+12 -4.92804e+12 -4.91675e+12 -4.01436e+12 -4.91833e+12 -3.71093e+12 -5.04146e+12 -4.95847e+12 -3.50397e+12 -4.97446e+12 -5.2402e+12 -6.04528e+12 -6.63677e+12 -8.73827e+12 -5.21926e+12 -3.53539e+12 -6.27346e+12 -6.47959e+12 -5.19117e+12 -3.1095e+12 -7.74067e+12 -4.65413e+12 -4.59603e+12 -5.63635e+12 -9.39917e+12 -5.7375e+12 -3.69931e+12 -5.77339e+12 -5.17078e+12 -5.10786e+12 -5.851e+12 -3.84532e+12 -5.99186e+12 -5.87704e+12 -8.39241e+12 -4.50678e+12 -8.05748e+12 -8.61392e+12 -8.12626e+12 -7.1033e+12 -7.57629e+12 -9.4554e+12 -5.67503e+12 -7.14455e+12 -7.06853e+12 -8.45123e+12 -9.93799e+12 -6.49867e+12 -4.67885e+12 -8.79852e+12 -3.21013e+12 -7.77176e+12 -4.961e+12 -4.03293e+12 -4.34891e+12 -4.82441e+12 -6.28692e+12 -8.41187e+12 -9.78512e+12 -6.94423e+12 -7.64482e+12 -4.79653e+12 -7.49883e+12 -4.79906e+12 -1.29404e+13 -5.55287e+12 -6.46484e+12 -1.0793e+13 -6.1606e+12 -5.12997e+12 -8.57142e+12 -3.40852e+12 -6.16574e+12 -5.04486e+12 -6.88532e+12 -5.0359e+12 -7.84794e+12 -7.59455e+12 -4.2276e+12 -7.4025e+12 -4.16441e+12 -5.64049e+12 -4.7045e+12 -4.85399e+12 -3.50034e+12 -7.75452e+12 -3.95579e+12 -6.23168e+12 -7.37744e+12 -4.65616e+12 -7.23779e+12 -5.53763e+12 -6.12907e+12 -5.00114e+12 -5.28861e+12 -3.45091e+12 -4.74269e+12 -9.23413e+12 -3.64326e+12 -7.54293e+12 -4.47939e+12 -6.90271e+12 -3.27193e+12 -3.02289e+12 -4.05177e+12 -6.78412e+12 -2.60541e+12 -2.77915e+12 -2.56762e+12 -6.31582e+12 -6.08563e+12 -4.05352e+12 -3.71511e+12 -5.13555e+12 -5.57749e+12 -3.67082e+12 -5.291e+12 -2.51536e+12 -3.60223e+12 -3.04236e+12 -2.6792e+12 -4.64441e+12 -2.53539e+12 -6.04446e+12 -3.54306e+12 -3.56816e+12 -4.14868e+12 -3.12608e+12 -3.35075e+12 -1.88811e+12 -4.66814e+12 -4.11603e+12 -2.31153e+12 -3.21996e+12 -3.5513e+12 -5.41343e+12 -2.15752e+12 -5.23616e+12 -4.05291e+12 -4.313e+12 -4.38157e+12 -7.18662e+12 -4.58979e+12 -6.78088e+12 -4.71972e+12 -2.7617e+12 -3.9592e+12 -3.34502e+12 -5.79706e+12 -7.92349e+12 -7.81776e+12 -7.77503e+12 -7.1631e+12 -1.92805e+12 -6.37677e+12 -6.89124e+12 -7.77506e+12 -6.01199e+12 -8.86035e+12 -4.96684e+12 -3.29284e+12 -4.69977e+12 -6.72153e+12 -5.40125e+12 -7.75464e+12 -7.53423e+12 -6.48127e+12 -2.43207e+12 -4.61335e+12 -8.68284e+12 -7.47457e+12 -5.96125e+12 -4.07003e+12 -4.97367e+12 -3.40495e+12 -1.20641e+13 -6.67041e+12 -5.57184e+12 -5.63192e+12 -5.72509e+12 -4.89216e+12 -4.8671e+12 -5.9348e+12 -9.86374e+12 -9.01264e+12 -6.62577e+12 -1.04705e+13 -5.30784e+12 -7.00208e+12 -4.13543e+12 -6.58043e+12 -4.04437e+12 -4.58522e+12 -3.57728e+12 -4.23409e+12 -5.08778e+12 -3.43495e+12 -7.08377e+12 -6.6295e+12 -6.22207e+12 -5.3548e+12 -6.88501e+12 -9.06468e+12 -7.125e+12 -6.03582e+12 -3.77306e+12 -7.18265e+12 -3.61274e+12 -4.15105e+12 -6.51782e+12 -6.43714e+12 -3.59855e+12 -4.91533e+12 -7.38741e+12 -5.33437e+12 -5.00718e+12 -5.30675e+12 -4.23445e+12 -6.57719e+12 -7.02556e+12 -6.20875e+12 -4.79643e+12 -5.69024e+12 -9.83213e+12 -5.50697e+12 -4.45324e+12 -5.52621e+12 -1.46629e+12 -5.7309e+12 -8.08968e+12 -9.06546e+12 -6.07256e+12 -5.12119e+12 -4.48417e+12 -5.53311e+12 -6.37168e+12 -6.80205e+12 -6.56214e+12 -3.8488e+12 -4.72281e+12 -3.91608e+12 -7.51376e+12 -2.21827e+12 -4.93225e+12 -4.80011e+12 -3.09114e+12 -4.48661e+12 -3.98708e+12 -4.2052e+12 -3.45948e+12 -2.16749e+12 -4.89199e+12 -3.98138e+12 -4.42022e+12 -2.46947e+12 -5.10748e+12 -3.9433e+12 -4.57572e+12 -3.07134e+12 -3.84348e+12 -2.19642e+12 -3.79052e+12 -2.21831e+12 -918106000000.0 -4.84922e+12 -3.26734e+12 -2.82636e+12 -4.88727e+12 -5.15762e+12 -6.36965e+12 -2.51632e+12 -2.89847e+12 -2.94146e+12 -1.84562e+12 -4.1676e+12 -3.109e+12 -5.02905e+12 -5.00666e+12 -2.74186e+12 -3.22842e+12 -3.8356e+12 -3.80493e+12 -5.13475e+12 -2.84841e+12 -5.43266e+12 -4.0294e+12 -2.71004e+12 -5.51292e+12 -4.55897e+12 -2.47154e+12 -2.65343e+12 -4.6299e+12 -4.02634e+12 -5.51174e+12 -4.08971e+12 -3.93111e+12 -6.03383e+12 -5.20071e+12 -4.09977e+12 -3.34818e+12 -4.01733e+12 -3.97699e+12 -5.30912e+12 -7.2023e+12 -1.02808e+13 -3.77298e+12 -2.69252e+12 -4.7166e+12 -3.9015e+12 -6.79855e+12 -5.70391e+12 -7.60307e+12 -4.17895e+12 -6.21488e+12 -1.10018e+13 -5.49177e+12 -3.86911e+12 -7.11797e+12 -1.22012e+13 -9.79218e+12 -6.2664e+12 -9.00664e+12 -4.70723e+12 -5.42119e+12 -4.3793e+12 -4.32772e+12 -5.38893e+12 -4.90813e+12 -5.28605e+12 -4.79687e+12 -9.53412e+12 -7.99436e+12 -6.79169e+12 -7.17266e+12 -6.69409e+12 -6.51053e+12 -8.03939e+12 -8.69196e+12 -7.58152e+12 -5.21026e+12 -7.13736e+12 -5.58653e+12 -2.50859e+12 -5.00887e+12 -6.06889e+12 -7.39502e+12 -5.38887e+12 -4.76593e+12 -4.23989e+12 -3.58505e+12 -4.02949e+12 -7.22991e+12 -4.93425e+12 -7.8521e+12 -8.11252e+12 -6.43634e+12 -6.45129e+12 -7.70454e+12 -4.71788e+12 -6.52662e+12 -3.38362e+12 -4.39572e+12 -6.48323e+12 -3.61129e+12 -5.83887e+12 -3.49756e+12 -6.63574e+12 -6.45903e+12 -5.77779e+12 -5.80791e+12 -3.74426e+12 -4.08626e+12 -2.48589e+12 -6.47392e+12 -2.03614e+12 -6.96597e+12 -5.66072e+12 -4.29869e+12 -3.0883e+12 -7.24313e+12 -4.78218e+12 -3.42528e+12 -4.6379e+12 -5.3613e+12 -6.92541e+12 -4.1286e+12 -3.41015e+12 -3.55582e+12 -4.11223e+12 -4.4067e+12 -738797000000.0 -5.80242e+12 -4.79701e+12 -5.97328e+12 -3.69733e+12 -2.71291e+12 -2.64428e+12 -3.40768e+12 -3.43614e+12 -3.09164e+12 -3.11527e+12 -2.48282e+12 -3.53764e+12 -2.71175e+12 -5.29194e+12 -4.40877e+12 -2.62789e+12 -2.36888e+12 -3.28739e+12 -2.11373e+12 -4.39262e+12 -3.84436e+12 -3.2589e+12 -4.8724e+12 -2.90961e+12 -4.49399e+12 -3.70533e+12 -4.92844e+12 -3.99918e+12 -4.21024e+12 -3.43125e+12 -6.08308e+12 -2.964e+12 -3.28684e+12 -4.53173e+12 -2.27222e+12 -3.52894e+12 -1.23551e+12 -1.80407e+12 -4.37097e+12 -4.87976e+12 -3.89153e+12 -1.739e+12 -3.03527e+12 -2.66515e+12 -5.34323e+12 -2.00034e+12 -2.8916e+12 -2.82618e+12 -4.15068e+12 -4.00533e+12 -4.00577e+12 -8.82195e+12 -4.18502e+12 -5.16932e+12 -5.49885e+12 -5.60793e+12 -4.95195e+12 -2.72699e+12 -3.07006e+12 -4.46997e+12 -7.97e+12 -7.94178e+12 -9.99227e+12 -6.89429e+12 -7.1539e+12 -7.97372e+12 -5.99989e+12 -3.95644e+12 -7.99897e+12 -7.64671e+12 -6.96994e+12 -7.29698e+12 -6.08662e+12 -5.7235e+12 -4.14241e+12 -4.50529e+12 -8.59544e+12 -4.3229e+12 -6.62449e+12 -1.0422e+13 -1.00629e+13 -1.14933e+13 -5.68366e+12 -6.84431e+12 -4.24509e+12 -8.31412e+12 -5.3816e+12 -7.9561e+12 -8.46938e+12 -5.24961e+12 -2.84787e+12 -6.56694e+12 -5.77966e+12 -3.28075e+12 -4.60099e+12 -5.28358e+12 -5.31759e+12 -7.55017e+12 -4.60845e+12 -6.69803e+12 -6.23919e+12 -5.51385e+12 -8.72721e+12 -5.08383e+12 -3.79713e+12 -9.70986e+12 -8.08729e+12 -7.04633e+12 -6.55031e+12 -7.86869e+12 -5.94618e+12 -4.14273e+12 -8.10014e+12 -6.22506e+12 -4.70236e+12 -5.74868e+12 -6.39695e+12 -5.2809e+12 -6.95612e+12 -4.00189e+12 -5.08146e+12 -3.50113e+12 -5.56369e+12 -5.60499e+12 -3.02221e+12 -4.39967e+12 -7.85257e+12 -7.44294e+12 -4.93535e+12 -7.29686e+12 -5.58342e+12 -3.69226e+12 -7.14385e+12 -3.99224e+12 -4.81023e+12 -3.92963e+12 -3.43715e+12 -2.99708e+12 -3.07319e+12 -2.55149e+12 -5.69416e+12 -6.4452e+12 -3.29626e+12 -2.03506e+12 -4.78838e+12 -3.63958e+12 -3.74149e+12 -3.10499e+12 -7.15155e+12 -5.73328e+12 -4.85696e+12 -2.66473e+12 -1.41155e+12 -4.16036e+12 -1.68703e+12 -1.42353e+12 -4.99811e+12 -2.72645e+12 -3.04141e+12 -3.68225e+12 -3.23908e+12 -2.2146e+12 -5.04483e+12 -4.09708e+12 -3.0055e+12 -3.0013e+12 -3.18666e+12 -4.46784e+12 -2.94439e+12 -3.57756e+12 -2.34395e+12 -4.93212e+12 -5.1024e+12 -2.20881e+12 -4.54715e+12 -4.52525e+12 -3.65827e+12 -3.04581e+12 -2.97437e+12 -4.69727e+12 -3.0597e+12 -2.26442e+12 -4.30796e+12 -2.18393e+12 -3.99532e+12 -3.37728e+12 -3.40658e+12 -3.93129e+12 -4.89452e+12 -3.01733e+12 -3.12681e+12 -4.17779e+12 -3.47566e+12 -3.2072e+12 -4.59187e+12 -7.58998e+12 -2.98419e+12 -3.31072e+12 -5.08012e+12 -3.9543e+12 -5.1303e+12 -3.92562e+12 -5.21757e+12 -6.29057e+12 -8.91445e+12 -3.22328e+12 -4.16954e+12 -3.49699e+12 -4.15644e+12 -5.40386e+12 -6.11082e+12 -3.11578e+12 -2.84054e+12 -2.9621e+12 -4.83719e+12 -5.4385e+12 -5.16751e+12 -6.79009e+12 -4.8199e+12 -4.75935e+12 -5.12119e+12 -9.91417e+12 -8.11712e+12 -6.25471e+12 -2.2527e+12 -8.72721e+12 -9.25928e+12 -4.44991e+12 -5.83822e+12 -5.50884e+12 -4.87112e+12 -7.51088e+12 -4.75992e+12 -9.84646e+12 -9.07629e+12 -7.42247e+12 -7.17935e+12 -6.18036e+12 -1.22426e+13 -5.66412e+12 -6.93974e+12 -4.74119e+12 -3.12421e+12 -3.99588e+12 -6.40144e+12 -3.23973e+12 -8.39391e+12 -5.17471e+12 -5.72456e+12 -6.63056e+12 -5.38129e+12 -5.75945e+12 -8.16664e+12 -6.38106e+12 -5.13586e+12 -8.0895e+12 -5.8431e+12 -8.33005e+12 -5.98507e+12 -4.65348e+12 -6.91374e+12 -5.16064e+12 -4.23147e+12 -5.69852e+12 -4.34108e+12 -4.6819e+12 -8.0224e+12 -5.65311e+12 -6.65825e+12 -7.18958e+12 -5.51164e+12 -3.62821e+12 -9.03737e+12 -5.75895e+12 -4.59248e+12 -6.34447e+12 -7.23983e+12 -2.22426e+12 -4.40553e+12 -4.22741e+12 -4.05206e+12 -4.34254e+12 -1.15676e+12 -4.38027e+12 -4.70363e+12 -5.71353e+12 -3.20651e+12 -3.90992e+12 -2.49133e+12 -3.68349e+12 -5.26547e+12 -5.45727e+12 -5.16191e+12 -5.46836e+12 -2.82621e+12 -3.15583e+12 -4.07563e+12 -741355000000.0 -2.68491e+12 -3.46879e+12 -3.97805e+12 -2.71302e+12 -4.07156e+12 -3.81297e+12 -2.30126e+12 -2.11758e+12 -2.42339e+12 -1.962e+12 -2.11494e+12 -2.50695e+12 -4.22888e+12 -2.17192e+12 -3.27658e+12 -2.79411e+12 -3.40352e+12 -2.12269e+12 -1.43386e+12 -3.87368e+12 -1.78657e+12 -2.82703e+12 -1.19283e+12 -3.32614e+12 -5.10448e+12 -1.82183e+12 -4.08559e+12 -3.06768e+12 -1.94348e+12 -2.81947e+12 -2.14974e+12 -4.22029e+12 -3.33661e+12 -2.7479e+12 -3.3374e+12 -2.67935e+12 -1.92225e+12 -4.00705e+12 -4.72443e+12 -2.39777e+12 -3.5788e+12 -2.5777e+12 -4.12382e+12 -5.76369e+12 -8.54635e+12 -3.46963e+12 -4.18781e+12 -4.13463e+12 -2.92892e+12 -4.48669e+12 -2.42894e+12 -4.91277e+12 -3.19992e+12 -3.76522e+12 -3.32841e+12 -5.23444e+12 -3.72836e+12 -3.63855e+12 -4.74267e+12 -3.44997e+12 -3.13311e+12 -3.1797e+12 -4.25413e+12 -4.73742e+12 -5.67814e+12 -7.19446e+12 -6.80405e+12 -4.77016e+12 -7.06626e+12 -6.12945e+12 -5.13961e+12 -7.47328e+12 -3.58805e+12 -5.77917e+12 -4.43757e+12 -7.99322e+12 -1.38308e+13 -5.69799e+12 -7.49017e+12 -4.98874e+12 -1.04743e+13 -7.01535e+12 -5.35522e+12 -6.76954e+12 -8.39455e+12 -9.82641e+12 -9.8603e+12 -1.15022e+13 -6.43644e+12 -2.71377e+12 -4.01585e+12 -6.73765e+12 -5.79416e+12 -2.29548e+12 -3.00324e+12 -3.09176e+12 -4.01999e+12 -6.24884e+12 -3.10782e+12 -3.56931e+12 -1.055e+13 -9.35584e+12 -4.56906e+12 -4.14514e+12 -4.8908e+12 -5.45615e+12 -4.9751e+12 -5.23386e+12 -7.95771e+12 -6.01943e+12 -5.60994e+12 -9.02474e+12 -6.11293e+12 -5.22569e+12 -5.39222e+12 -4.07279e+12 -4.0599e+12 -6.6256e+12 -4.71676e+12 -7.35506e+12 -5.1066e+12 -4.31697e+12 -2.2678e+12 -4.42131e+12 -3.94756e+12 -6.17479e+12 -7.57153e+12 -4.03217e+12 -3.5828e+12 -3.0462e+12 -9.11489e+12 -3.22156e+12 -5.99915e+12 -2.51181e+12 -5.88341e+12 -2.41851e+12 -3.29921e+12 -4.30553e+12 -3.60008e+12 -3.96998e+12 -5.33277e+12 -4.59186e+12 -4.59843e+12 -2.86587e+12 -3.70526e+12 -3.28913e+12 -4.56064e+12 -3.49836e+12 -2.76405e+12 -1.93581e+12 -3.46443e+12 -2.37222e+12 -3.30254e+12 -1.97107e+12 -4.73579e+12 -2.165e+12 -2.34548e+12 -2.49048e+12 -1.67841e+12 -2.66388e+12 -2.99868e+12 -1.55039e+12 -2.94514e+12 -3.18421e+12 -2.71868e+12 -4.17008e+12 -2.84166e+12 -2.33567e+12 -2.0575e+12 -1.21205e+12 -2.66213e+12 -4.79523e+12 -2.87011e+12 -4.01868e+12 -2.46956e+12 -1.51057e+12 -2.77728e+12 -2.81406e+12 -3.09288e+12 -2.67725e+12 -1.51734e+12 -2.78066e+12 -2.08952e+12 -1.72505e+12 -2.67552e+12 -1.65519e+12 -2.683e+12 -2.56477e+12 -3.08491e+12 -2.29512e+12 -3.65792e+12 -5.47783e+12 -2.20306e+12 -2.87413e+12 -4.5768e+12 -4.52289e+12 -3.9466e+12 -2.68125e+12 -2.82284e+12 -6.02212e+12 -1.66143e+12 -5.75225e+12 -3.60609e+12 -4.88094e+12 -5.68823e+12 -3.35081e+12 -6.01923e+12 -6.47089e+12 -4.7607e+12 -3.78197e+12 -3.88993e+12 -5.00861e+12 -3.89931e+12 -5.15852e+12 -3.17554e+12 -3.81282e+12 -5.69291e+12 -3.98805e+12 -3.58204e+12 -4.43108e+12 -5.56756e+12 -6.59696e+12 -4.65083e+12 -5.15396e+12 -4.95345e+12 -8.59556e+12 -5.42566e+12 -7.27524e+12 -5.63481e+12 -5.59116e+12 -4.03604e+12 -3.21589e+12 -5.86563e+12 -6.66757e+12 -7.12153e+12 -4.96209e+12 -4.1004e+12 -6.59086e+12 -5.51649e+12 -4.19239e+12 -2.76967e+12 -6.50784e+12 -5.51982e+12 -5.592e+12 -4.82751e+12 -4.74156e+12 -8.82916e+12 -3.86565e+12 -7.44536e+12 -7.36935e+12 -3.23332e+12 -3.41326e+12 -7.40643e+12 -4.68445e+12 -6.0414e+12 -4.99474e+12 -5.97889e+12 -6.11996e+12 -4.40705e+12 -5.89942e+12 -4.23852e+12 -3.87341e+12 -3.57538e+12 -6.34973e+12 -7.77966e+12 -6.07605e+12 -3.79661e+12 -2.35397e+12 -6.08968e+12 -3.41988e+12 -4.3141e+12 -3.98374e+12 -4.64578e+12 -4.7302e+12 -5.85963e+12 -5.25917e+12 -4.3407e+12 -5.45012e+12 -5.61077e+12 -1.79417e+12 -2.08758e+12 -4.44592e+12 -2.09611e+12 -1.93346e+12 -4.75104e+12 -4.04511e+12 -7.83266e+12 -4.05247e+12 -5.91239e+12 -4.04448e+12 -5.02236e+12 -5.98678e+12 -2.98975e+12 -1.66663e+12 -3.10369e+12 -5.301e+12 -5.29978e+12 -3.46488e+12 -3.40375e+12 -3.03553e+12 -2.89389e+12 -4.74498e+12 -3.45383e+12 -3.27943e+12 -5.04543e+12 -4.02233e+12 -2.47382e+12 -3.14315e+12 -1.77729e+12 -2.97123e+12 -3.27816e+12 -2.6107e+12 -847785000000.0 -1.80823e+12 -2.44466e+12 -3.95587e+12 -3.75928e+12 -2.31877e+12 -3.02908e+12 -2.07255e+12 -1.03246e+12 -2.82199e+12 -2.20738e+12 -2.32323e+12 -2.69291e+12 -3.22597e+12 -2.56909e+12 -2.67217e+12 -2.47315e+12 -3.26405e+12 -2.52058e+12 -2.11601e+12 -2.16888e+12 -3.22379e+12 -4.25418e+12 -3.12444e+12 -2.65742e+12 -2.67364e+12 -2.79591e+12 -1.69722e+12 -1.92838e+12 -2.64102e+12 -3.68416e+12 -3.60197e+12 -2.34198e+12 -3.55897e+12 -5.79984e+12 -2.68858e+12 -4.23266e+12 -3.80689e+12 -6.76014e+12 -2.98057e+12 -4.09198e+12 -1.27058e+12 -2.87582e+12 -3.38423e+12 -4.78151e+12 -4.48426e+12 -4.78617e+12 -5.12789e+12 -4.77461e+12 -4.41135e+12 -4.33054e+12 -2.93578e+12 -5.30868e+12 -3.31488e+12 -3.84449e+12 -6.28741e+12 -4.82603e+12 -5.85097e+12 -5.06409e+12 -4.33971e+12 -5.25824e+12 -756864000000.0 -5.60654e+12 -6.52113e+12 -5.98448e+12 -4.96809e+12 -5.88734e+12 -4.93909e+12 -4.70468e+12 -6.01537e+12 -6.64176e+12 -3.25997e+12 -4.55463e+12 -4.70588e+12 -7.64148e+12 -6.54072e+12 -5.19297e+12 -4.90002e+12 -6.03522e+12 -7.54049e+12 -5.69628e+12 -2.43192e+12 -3.34655e+12 -1.78791e+12 -3.27665e+12 -4.61661e+12 -5.81785e+12 -5.05605e+12 -3.8668e+12 -7.098e+12 -6.16779e+12 -3.36052e+12 -3.71983e+12 -6.34783e+12 -3.65469e+12 -4.71433e+12 -4.05426e+12 -3.09887e+12 -4.60707e+12 -3.85351e+12 -4.3376e+12 -5.13634e+12 -6.68242e+12 -3.61079e+12 -4.49963e+12 -3.42697e+12 -5.42856e+12 -3.21572e+12 -3.99934e+12 -3.93567e+12 -3.48173e+12 -5.1058e+12 -2.81626e+12 -3.64339e+12 -7.61141e+12 -2.85946e+12 -4.674e+12 -5.40759e+12 -3.59242e+12 -5.53574e+12 -5.41958e+12 -4.85628e+12 -4.00685e+12 -6.44353e+12 -2.07008e+12 -3.55134e+12 -3.62616e+12 -3.02546e+12 -1.78221e+12 -2.21517e+12 -2.06663e+12 -4.0011e+12 -3.68369e+12 -3.2768e+12 -1.2012e+12 -2.49873e+12 -3.05e+12 -2.96066e+12 -3.12794e+12 -1.92834e+12 -2.47319e+12 -2.68527e+12 -2.02868e+12 -2.02249e+12 -1.77284e+12 -1.23626e+12 -2.46561e+12 -2.50046e+12 -1.13663e+12 -2.98393e+12 -2.6505e+12 -1.70025e+12 -1.73984e+12 -1.88602e+12 -1.79734e+12 -3.16989e+12 -1.00743e+12 -1.29167e+12 -1.87598e+12 -74963600000.0 -2.40153e+12 -2.44654e+12 -4.29891e+12 -2.05506e+12 -3.55901e+12 -2.76544e+12 -4.39385e+12 -2.60228e+12 -3.39045e+12 -1.27835e+12 -3.1642e+12 -5.0359e+12 -1.53176e+12 -2.82566e+12 -2.27898e+12 -4.45907e+12 -2.06731e+12 -3.53015e+12 -4.01688e+12 -5.27831e+12 -4.14413e+12 -2.83083e+12 -2.37345e+12 -5.75603e+12 -4.98181e+12 -3.44063e+12 -3.52478e+12 -4.99492e+12 -3.84838e+12 -2.12259e+12 -4.20647e+12 -3.89717e+12 -4.33242e+12 -2.50654e+12 -4.6397e+12 -5.71071e+12 -5.24036e+12 -5.20143e+12 -6.70294e+12 -4.5914e+12 -5.22008e+12 -2.43596e+12 -2.48265e+12 -2.48011e+12 -5.66281e+12 -3.90455e+12 -6.70744e+12 -3.85282e+12 -3.05872e+12 -5.85215e+12 -4.44892e+12 -2.91184e+12 -4.1651e+12 -3.23727e+12 -4.53487e+12 -4.14329e+12 -5.96812e+12 -3.84252e+12 -4.85329e+12 -3.19226e+12 -3.73383e+12 -3.77483e+12 -4.581e+12 -4.11027e+12 -4.19454e+12 -3.24648e+12 -5.47546e+12 -5.7738e+12 -6.79469e+12 -3.93809e+12 -6.78637e+12 -4.63664e+12 -3.44969e+12 -2.9113e+12 -3.06766e+12 -5.22048e+12 -4.04089e+12 -3.96276e+12 -3.79392e+12 -2.8687e+12 -3.79014e+12 -3.09182e+12 -1.43805e+12 -1.58746e+12 -3.70207e+12 -5.14582e+12 -6.09645e+12 -3.65685e+12 -4.30264e+12 -2.53534e+12 -4.31781e+12 -4.38046e+12 -3.78719e+12 -4.12614e+12 -4.72798e+12 -3.25149e+12 -5.23756e+12 -2.62545e+12 -3.06125e+12 -3.90444e+12 -3.66113e+12 -4.22374e+12 -2.98219e+12 -2.50923e+12 -3.78635e+12 -5.02258e+12 -3.62148e+12 -2.26272e+12 -2.93068e+12 -1.94846e+12 -3.06455e+12 -4.05833e+12 -2.78193e+12 -2.3899e+12 -2.41262e+12 -2.09857e+12 -2.49889e+12 -1.32332e+12 -2.53525e+12 -1.14511e+12 -2.04201e+12 -2.94462e+12 -2.97938e+12 -2.06044e+12 -2.87385e+12 -2.05566e+12 -3.10543e+12 -1.58725e+12 -3.05224e+12 -2.0749e+12 -2.1904e+12 -1.09093e+12 -966873000000.0 -2.07769e+12 -1.35484e+12 -1.8773e+12 -1.97333e+12 -2.03298e+12 -3.44607e+12 -2.56456e+12 -2.58006e+12 -2.01298e+12 -1.04671e+12 -2.74967e+12 -3.10726e+12 -2.71234e+12 -3.3156e+12 -4.47883e+12 -1.90743e+12 -1.67228e+12 -1.59175e+12 -2.56556e+12 -3.46755e+12 -2.76932e+12 -5.21669e+12 -4.79961e+12 -5.36422e+12 -3.79532e+12 -4.9143e+12 -3.6443e+12 -4.48452e+12 -4.70873e+12 -2.76271e+12 -4.42801e+12 -3.81072e+12 -3.04795e+12 -5.40708e+12 -2.60965e+12 -3.4631e+12 -3.61776e+12 -4.68024e+12 -4.58299e+12 -3.90869e+12 -3.86527e+12 -6.16129e+12 -6.24319e+12 -4.75362e+12 -5.24645e+12 -4.4379e+12 -6.6784e+12 -5.90204e+12 -4.80255e+12 -6.87284e+12 -2.79873e+12 -5.30574e+12 -5.26278e+12 -7.55856e+12 -3.7182e+12 -3.69883e+12 -7.29152e+12 -7.00957e+12 -6.52439e+12 -6.8711e+12 -5.9716e+12 -1.94476e+12 -2.10294e+12 -4.01009e+12 -1.46979e+12 -3.37055e+12 -4.71372e+12 -5.97254e+12 -3.15476e+12 -5.66634e+12 -7.35388e+12 -3.65324e+12 -2.78542e+12 -4.10501e+12 -3.84869e+12 -4.86003e+12 -6.25581e+12 -2.64854e+12 -5.28689e+12 -4.10801e+12 -2.63034e+12 -4.92693e+12 -4.65645e+12 -3.84872e+12 -4.58789e+12 -5.49883e+12 -4.83507e+12 -4.3036e+12 -3.23136e+12 -4.00672e+12 -4.29502e+12 -2.14814e+12 -4.28621e+12 -3.36996e+12 -2.84242e+12 -2.77342e+12 -3.69509e+12 -1.16117e+12 -4.72111e+12 -1.89177e+12 -3.635e+12 -4.75977e+12 -3.60502e+12 -2.58614e+12 -2.53006e+12 -3.41529e+12 -2.33555e+12 -3.02802e+12 -3.00436e+12 -2.42226e+12 -3.58936e+12 -2.49643e+12 -3.37158e+12 -3.62335e+12 -1.75697e+12 -2.77114e+12 -3.0698e+12 -1.35694e+12 -2.91902e+12 -1.89129e+12 -1.72117e+12 -466564000000.0 -1.20494e+12 -1.98878e+12 -2.02541e+12 -2.42026e+12 -1.28553e+12 -1.92087e+12 -477428000000.0 -1.52496e+12 -1.68489e+12 -1.38789e+12 -1.72314e+12 -2.61305e+12 -2.66275e+12 -1.81569e+12 -2.43727e+12 -1.54728e+12 -1.73682e+12 -384712000000.0 -2.10751e+12 -1.66694e+12 -1.44564e+12 -1.72804e+12 -2.18016e+12 -2.1278e+12 -2.78136e+12 -2.97722e+12 -1.00151e+12 -2.99105e+12 -2.57685e+12 -1.43491e+12 -3.9436e+12 -2.05639e+12 -4.01294e+12 -3.13331e+12 -2.74188e+12 -2.59088e+12 -3.88698e+12 -5.24179e+12 -4.57936e+12 -4.6213e+12 -2.02532e+12 -4.89377e+12 -5.11137e+12 -3.71951e+12 -3.26013e+12 -4.40142e+12 -4.4313e+12 -4.23897e+12 -3.52298e+12 -4.19137e+12 -2.89514e+12 -4.20808e+12 -2.19722e+12 -4.3753e+12 -3.93485e+12 -3.44551e+12 -4.56333e+12 -2.92449e+12 -3.15489e+12 -4.76744e+12 -7.56309e+12 -4.70629e+12 -3.4467e+12 -3.07432e+12 -4.68087e+12 -5.04014e+12 -4.62514e+12 -7.00536e+12 -5.28048e+12 -1.97115e+12 -4.9568e+12 -4.17714e+12 -2.8674e+12 -3.54365e+12 -4.52958e+12 -4.74799e+12 -3.83733e+12 -4.7063e+12 -3.49232e+12 -2.40661e+12 -3.48733e+12 -1.28609e+12 -2.17028e+12 -4.25879e+12 -2.47651e+12 -3.82481e+12 -1.81943e+12 -4.26999e+12 -3.61575e+12 -3.54795e+12 -2.61388e+12 -3.61315e+12 -2.53848e+12 -3.4361e+12 -2.30875e+12 -2.88152e+12 -3.7762e+12 -4.90309e+12 -2.55812e+12 -3.0232e+12 -3.85837e+12 -1.86059e+12 -1.96833e+12 -3.57548e+12 -3.06818e+12 -3.19447e+12 -3.70129e+12 -4.07644e+12 -3.16137e+12 -1.76331e+12 -1.98082e+12 -2.4768e+12 -2.60799e+12 -219807000000.0 -2.11509e+12 -2.29624e+12 -2.72714e+12 -1.56794e+12 -2.29329e+12 -554180000000.0 -1.22748e+12 -1.58773e+12 -599721000000.0 -1.74534e+12 -1.76551e+12 -1.0913e+12 -1.44075e+12 -972109000000.0 -1.75309e+12 -769633000000.0 -1.65682e+12 -247362000000.0 -1.32704e+12 -950939000000.0 -386017000000.0 -1.36969e+12 -1.71303e+12 -1.37442e+12 -2.20661e+12 -1.32451e+12 -1.37883e+12 -2.4408e+12 -3.20181e+12 -1.76439e+12 -2.17365e+12 -2.09415e+12 -998992000000.0 -1.44199e+12 -2.25419e+12 -2.45241e+12 -1.49494e+12 -3.1748e+12 -4.29057e+12 -2.08164e+12 -2.13921e+12 -588154000000.0 -2.13513e+12 -1.82359e+12 -1.56159e+12 -2.7678e+12 -2.88344e+12 -3.26675e+12 -4.57107e+12 -4.16616e+12 -1.05769e+12 -2.44757e+12 -4.35225e+12 -4.22421e+12 -1.74444e+12 -4.46607e+12 -2.13536e+12 -2.14956e+12 -3.84269e+12 -4.77168e+12 -3.57499e+12 -4.27373e+12 -4.21101e+12 -1.0322e+12 -1.92133e+12 -2.87742e+12 -3.39737e+12 -3.31812e+12 -2.91677e+12 -5.05472e+12 -6.07428e+12 -3.80445e+12 -4.36167e+12 -3.02391e+12 -2.39668e+12 -2.50354e+12 -3.70398e+12 -4.22694e+12 -2.89703e+12 -4.29876e+12 -5.40083e+12 -6.88054e+12 -4.03698e+12 -5.96089e+12 -2.95768e+12 -3.83797e+12 -2.99931e+12 -4.68486e+12 -4.26852e+12 -3.24802e+12 -5.78393e+12 -5.10846e+12 -2.79518e+12 -3.91568e+12 -5.93933e+12 -3.91938e+12 -2.31862e+12 -4.05747e+12 -4.59218e+12 -1.14824e+12 -3.97454e+12 -3.63023e+12 -3.67924e+12 -3.52711e+12 -1.72912e+12 -4.54187e+12 -1.99603e+12 -3.06382e+12 -1.30483e+12 -3.10889e+12 -3.65922e+12 -2.52144e+12 -3.14942e+12 -4.41389e+12 -3.68451e+12 -5.01687e+12 -3.8798e+12 -4.13253e+12 -3.1655e+12 -1.83544e+12 -1.75652e+12 -1.60846e+12 -2.29723e+12 -2.52336e+12 -1.816e+12 -2.04808e+12 -2.46878e+12 -1.23887e+12 -2.99086e+12 -594047000000.0 -993024000000.0 -1.52962e+12 -1.43211e+12 -1.06407e+12 -1.6589e+12 -1.4897e+12 -2.0341e+12 -1.10525e+12 -517783000000.0 -1.46707e+12 -1.61941e+12 -1.41444e+12 -608450000000.0 -1.4864e+12 -1.43232e+12 -1.10046e+12 -1.35695e+12 -782885000000.0 -1.78063e+12 -2.02575e+12 -881552000000.0 -2.3715e+12 -2.03018e+12 -1.68403e+12 -715102000000.0 -1.17834e+12 -1.6339e+12 -1.5285e+12 -1.29062e+12 -951219000000.0 -1.60228e+12 -2.76364e+12 -2.31552e+12 -2.97086e+12 -2.09077e+12 -1.59498e+12 -843678000000.0 -4.08213e+12 -1.50215e+12 -2.95335e+12 -1.33484e+12 -1.08064e+12 -499248000000.0 -3.61828e+12 -5.77791e+12 -1.43428e+12 -1.73755e+12 -1.61479e+12 -3.12363e+12 -2.40372e+12 -2.77353e+12 -3.84312e+12 -2.68621e+12 -4.2633e+12 -2.9946e+12 -2.20519e+12 -3.51618e+12 -3.71062e+12 -4.8866e+12 -4.47933e+12 -3.42594e+12 -4.4348e+12 -3.63505e+12 -4.30146e+12 -5.10623e+12 -2.58808e+12 -2.69581e+12 -3.99896e+12 -4.38656e+12 -2.7672e+12 -2.95946e+12 -3.28616e+12 -2.82949e+12 -2.71617e+12 -2.08432e+12 -1.2237e+12 -6.06411e+12 -3.51259e+12 -3.48445e+12 -2.52196e+12 -4.37852e+12 -1.859e+12 -1.55714e+12 -2.66561e+12 -3.64346e+12 -5.73533e+12 -3.56404e+12 -4.89049e+12 -1.34944e+12 -2.26013e+12 -2.59172e+12 -2.29711e+12 -6.21605e+12 -1.98388e+12 -3.43673e+12 -2.06601e+12 -2.5701e+12 -1.04605e+12 -2.29758e+12 -4.3033e+12 -969274000000.0 -3.70652e+12 -3.72992e+12 -1.53576e+12 -4.96543e+12 -2.46613e+12 -2.56623e+12 -2.30047e+12 -1.19666e+12 -2.05789e+12 -3.06236e+12 -2.40501e+12 -1.3892e+12 -3.33079e+12 -2.35735e+12 -2.26443e+12 -1.76e+12 -1.48226e+12 -2.94076e+12 -2.17705e+12 -3.8298e+12 -2.04876e+12 -873095000000.0 -1.44225e+12 -949278000000.0 -1.84675e+12 -1.03802e+12 -947321000000.0 -1.09861e+12 -1.10864e+12 -762224000000.0 -1.41615e+12 -1.4124e+12 -1.63813e+12 -912793000000.0 -869750000000.0 -1.13216e+12 -1.30281e+12 -1.23717e+12 -1.46364e+12 -1.88831e+12 -2.1736e+12 -886131000000.0 -1.64293e+12 -1.48104e+12 -269764000000.0 -1.11577e+12 -1.48173e+12 -538037000000.0 -2.27157e+12 -1.78538e+12 -2.18984e+12 -1.43326e+12 -996886000000.0 -1.12795e+12 -1.08724e+12 -2.43197e+12 -2.32382e+12 -1.80136e+12 -2.3143e+12 -2.52356e+12 -2.25483e+12 -1.19633e+12 -2.57169e+12 -4.15033e+12 -1.14659e+12 -1.67002e+12 -1.38939e+12 -1.52912e+12 -3.08887e+12 -2.10394e+12 -1.98853e+12 -2.95896e+12 -1.89686e+12 -3.07487e+12 -1.54047e+12 -2.75863e+12 -4.35409e+12 -4.68629e+12 -2.17915e+12 -1.06691e+12 -2.81928e+12 -3.65749e+12 -2.46526e+12 -4.17148e+12 -3.49735e+12 -3.59624e+12 -2.64475e+12 -2.86478e+12 -2.7612e+12 -2.93831e+12 -2.61832e+12 -2.42033e+12 -2.75209e+12 -2.20971e+12 -4.23846e+12 -3.89924e+12 -2.96472e+12 -2.65455e+12 -3.86672e+12 -2.46945e+12 -3.28272e+12 -2.79368e+12 -1.78684e+12 -4.56236e+12 -1.72271e+12 -2.24449e+12 -4.25718e+12 -5.48182e+12 -1.48349e+12 -3.04924e+12 -1.47958e+12 -1.86422e+12 -3.87289e+12 -1.75208e+12 -3.63949e+12 -2.86155e+12 -3.09052e+12 -3.38508e+12 -1.96536e+12 -2.5381e+12 -2.63812e+12 -3.63533e+12 -1.55126e+12 -2.2957e+12 -3.23909e+12 -2.31325e+12 -3.58504e+12 -926227000000.0 -3.0136e+12 -2.6391e+12 -1.67842e+12 -1.20639e+12 -2.38422e+12 -1.23394e+12 -780585000000.0 -3.07829e+12 -1.66508e+12 -937518000000.0 -1.73492e+12 -1.79938e+12 -1.53334e+12 -1.05609e+12 -2.07727e+12 -718269000000.0 -2.1558e+12 -550046000000.0 -864317000000.0 -1.39128e+12 -1.52777e+12 -540892000000.0 -549974000000.0 -1.20349e+12 -394938000000.0 -824337000000.0 -1.00428e+12 -944991000000.0 -1.27112e+12 -968999000000.0 -1.92978e+12 -2.66854e+12 -1.26966e+12 -1.14605e+12 -1.06812e+12 -1.29306e+12 -237482000000.0 -1.10687e+12 -336084000000.0 -834167000000.0 -2.09617e+12 -922622000000.0 -2.1203e+12 -1.81733e+12 -722300000000.0 -1.81072e+12 -1.24369e+12 -1.22828e+12 -1.47404e+12 -1.733e+12 -1.82089e+12 -1.65512e+12 -1.69197e+12 -1.40863e+12 -1.96179e+12 -1.47942e+12 -1.40696e+12 -2.66755e+12 -2.69897e+12 -2.59499e+12 -623638000000.0 -1.34402e+12 -1.95976e+12 -2.02836e+12 -2.73366e+12 -747755000000.0 -2.50314e+12 -1.79345e+12 -2.07799e+12 -3.48285e+12 -1.34043e+12 -3.13982e+12 -2.27872e+12 -2.48665e+12 -1.43325e+12 -4.37191e+12 -1.23885e+12 -2.6066e+12 -2.62363e+12 -3.03552e+12 -2.11592e+12 -2.33582e+12 -2.50566e+12 -2.63257e+12 -2.71664e+12 -2.71831e+12 -1.88907e+12 -3.17354e+12 -2.12702e+12 -4.07949e+12 -4.05142e+12 -1.69003e+12 -4.09649e+12 -3.27104e+12 -2.88793e+12 -3.20655e+12 -2.05656e+12 -2.15422e+12 -2.68563e+12 -3.55899e+12 -446041000000.0 -3.21464e+12 -3.6598e+12 -2.18052e+12 -2.60962e+12 -2.38999e+12 -1.85095e+12 -2.51159e+12 -1.66873e+12 -155920000000.0 -2.64325e+12 -1.42202e+12 -2.38706e+12 -1.80382e+12 -1.60561e+12 -1.48013e+12 -3.35305e+12 -2.05994e+12 -1.55892e+12 -1.28024e+12 -1.68464e+12 -1.92792e+12 -1.98341e+12 -1.94275e+12 -1.57747e+12 -1.82208e+12 -1.3778e+12 -2.07909e+12 -1.34452e+12 -859793000000.0 -1.19071e+12 -1.10842e+12 -1.80469e+12 -1.8816e+12 -1.24058e+12 -1.3147e+12 -1.33969e+12 -1.08757e+12 -1.05504e+12 -760501000000.0 -677277000000.0 -715568000000.0 -475556000000.0 -1.1375e+12 -898679000000.0 -764161000000.0 -862369000000.0 -315796000000.0 -658564000000.0 -517990000000.0 -570558000000.0 -341672000000.0 -875949000000.0 -1.052e+12 -543964000000.0 -890734000000.0 -1.09549e+12 -996169000000.0 -1.35087e+12 -946755000000.0 -790380000000.0 -443857000000.0 -698593000000.0 -811218000000.0 -1.44891e+12 -455540000000.0 -758845000000.0 -1.55238e+12 -1.76905e+12 -43113800000.0 -799545000000.0 -525299000000.0 -1.28489e+12 -1.08169e+12 -2.69065e+12 -1.80637e+12 -2.13453e+12 -1.619e+12 -2.56157e+12 -2.29392e+12 -1.87659e+12 -1.3368e+12 -1.05859e+12 -1.74377e+12 -2.3629e+12 -2.40512e+12 -1.36264e+12 -3.33046e+12 -1.35838e+12 -1.76159e+12 -3.73795e+12 -2.60573e+12 -667077000000.0 -2.847e+12 -3.07858e+12 -1.25317e+12 -1.92346e+12 -1.87473e+12 -2.06855e+12 -228398000000.0 -3.20245e+12 -1.81949e+12 -1.00381e+12 -1.71743e+12 -2.52232e+12 -2.87537e+12 -3.12406e+12 -2.95036e+12 -2.64282e+12 -2.72879e+12 -2.22849e+12 -2.54784e+12 -3.08075e+12 -1.62976e+12 -2.28931e+12 -2.5128e+12 -2.25314e+12 -2.87029e+12 -1.27902e+12 -1.84202e+12 -982360000000.0 -2.55816e+12 -1.9721e+12 -2.47584e+12 -3.32582e+12 -2.65557e+12 -3.30162e+12 -761719000000.0 -1.70337e+12 -2.04882e+12 -1.47802e+12 -1.6371e+12 -3.01553e+12 -1.80055e+12 -2.24858e+12 -1.08971e+12 -1.43817e+12 -2.00372e+12 -1.20714e+12 -1.58138e+12 -1.75465e+12 -1.40175e+12 -1.38311e+12 -2.16516e+12 -1.1808e+12 -1.0426e+12 -857728000000.0 -2.06732e+12 -1.49785e+12 -513811000000.0 -1.20101e+12 -1.30627e+12 -1.34266e+12 -944229000000.0 -663219000000.0 -463182000000.0 -1.61649e+12 -918268000000.0 -1.48364e+12 -1.46798e+12 -858313000000.0 -641748000000.0 -930665000000.0 -626373000000.0 -1.1914e+12 -578233000000.0 -615327000000.0 -813816000000.0 -262754000000.0 -1.25147e+12 -639680000000.0 -1.1329e+12 -887332000000.0 -488286000000.0 -124583000000.0 -1.0393e+12 -763079000000.0 -28286300000.0 -867038000000.0 -1.30499e+12 -526134000000.0 -475372000000.0 -911225000000.0 -405784000000.0 -540919000000.0 -1.06452e+12 -904632000000.0 -567136000000.0 -457286000000.0 -814558000000.0 -1.52838e+12 -970723000000.0 -1.12526e+12 -1.04435e+12 -1.48714e+12 -1.13075e+12 -1.22933e+12 -2.09428e+12 -1.69332e+12 -1.6684e+12 -1.00001e+12 -2.04972e+12 -1.54624e+12 -2.5459e+12 -1.45075e+12 -500473000000.0 -1.56913e+12 -1.92066e+12 -2.64182e+12 -1.01378e+12 -1.89165e+12 -2.70807e+12 -1.66717e+12 -2.42417e+12 -1.79337e+12 -2.44549e+12 -2.46372e+12 -3.34431e+12 -2.24647e+12 -2.92488e+12 -1.16616e+12 -2.26216e+12 -2.29906e+12 -2.95983e+12 -2.34742e+12 -2.0316e+12 -778749000000.0 -1.87178e+12 -1.09212e+12 -1.35604e+12 -1.63416e+12 -1.14828e+12 -1.17086e+12 -773570000000.0 -2.60878e+12 -1.38834e+12 -2.16159e+12 -1.27639e+12 -1.2207e+12 -2.8096e+12 -1.05387e+12 -756702000000.0 -1.21794e+12 -1.11928e+12 -841956000000.0 -2.60367e+12 -998895000000.0 -1.16778e+12 -2.25295e+12 -812463000000.0 -1.3236e+12 -1.52674e+12 -1.33847e+12 -1.05761e+12 -978711000000.0 -921301000000.0 -1.35852e+12 -1.53514e+12 -1.38338e+12 -419995000000.0 -1.88691e+12 -1.10389e+12 -620788000000.0 -868097000000.0 -797324000000.0 -917067000000.0 -1.12435e+12 -664467000000.0 -764883000000.0 -274999000000.0 -429043000000.0 -392150000000.0 -1.35386e+12 -372625000000.0 -918837000000.0 -591797000000.0 -252116000000.0 -326851000000.0 -179249000000.0 -451113000000.0 -325206000000.0 -608684000000.0 -608801000000.0 -737829000000.0 -818793000000.0 -689557000000.0 -363608000000.0 -364340000000.0 -179587000000.0 -298850000000.0 -419264000000.0 -723328000000.0 -812829000000.0 -810271000000.0 -299969000000.0 -953501000000.0 -399592000000.0 -1.39592e+12 -695652000000.0 -1.66955e+12 -669441000000.0 -1.02178e+12 -695334000000.0 -1.64034e+12 -57439500000.0 -827806000000.0 -295332000000.0 -2.44641e+12 -1.12887e+12 -655998000000.0 -1.75092e+12 -1.22985e+12 -1.16508e+12 -537249000000.0 -1.5152e+12 -2.06096e+12 -1.71166e+12 -620161000000.0 -511425000000.0 -1.58327e+12 -1.34812e+12 -1.38999e+12 -961580000000.0 -1.99236e+12 -1.56967e+12 -2.05723e+12 -2.37077e+12 -1.05666e+12 -2.2611e+12 -1.47162e+12 -2.68285e+12 -1.12381e+12 -876183000000.0 -3.25553e+12 -1.07122e+12 -690156000000.0 -1.63863e+12 -1.12031e+12 -2.77752e+12 -1.45612e+12 -1.30004e+12 -1.50233e+12 -828184000000.0 -1.1644e+12 -1.76553e+12 -65223000000.0 -1.27681e+12 -1.68582e+12 -578796000000.0 -1.28779e+12 -2.28226e+12 -698293000000.0 -1.31324e+12 -752390000000.0 -1.25064e+12 -1.77469e+12 -945014000000.0 -79555600000.0 -1.57818e+12 -2.73513e+12 -1.60729e+12 -1.29511e+12 -1.64651e+12 -1.97406e+12 -600981000000.0 -860148000000.0 -1.76693e+12 -809022000000.0 -1.40064e+12 -1.16488e+12 -386481000000.0 -855117000000.0 -708173000000.0 -1.6702e+12 -1.9861e+12 -492830000000.0 -551119000000.0 -711974000000.0 -420044000000.0 -945026000000.0 -711751000000.0 -747626000000.0 -973058000000.0 -760830000000.0 -46041400000.0 -1.29595e+12 -669551000000.0 -1.28154e+12 -766726000000.0 -777353000000.0 -773526000000.0 -233749000000.0 -348639000000.0 -490863000000.0 -204762000000.0 -233854000000.0 -294825000000.0 -116787000000.0 -415265000000.0 -218156000000.0 -351710000000.0 -312527000000.0 -21170900000.0 -300320000000.0 -502457000000.0 -389881000000.0 -852683000000.0 -835807000000.0 -332403000000.0 -806326000000.0 -858316000000.0 -394082000000.0 -1.07637e+12 -146211000000.0 -399153000000.0 -494796000000.0 -120499000000.0 -784038000000.0 -374912000000.0 -734418000000.0 -859367000000.0 -899519000000.0 -979365000000.0 -1.18301e+12 -1.57776e+12 -1.3388e+12 -1.08307e+12 -1.12628e+12 -312713000000.0 -1.52837e+12 -1.78126e+12 -2.19763e+12 -1.15714e+12 -1.41687e+12 -1.73641e+12 -781792000000.0 -1.58485e+12 -2.16139e+12 -1.50951e+12 -969138000000.0 -1.04327e+12 -1.35765e+12 -839828000000.0 -2.27983e+12 -1.6533e+12 -2.22945e+12 -1.75282e+12 -1.11534e+12 -1.26157e+12 -526577000000.0 -1.72444e+12 -1.53152e+12 -1.09059e+12 -1.64429e+12 -1.9473e+12 -1.22099e+12 -1.16438e+12 -1.75337e+12 -1.0636e+12 -1.17723e+12 -774644000000.0 -1.05503e+12 -1.13932e+12 -1.14597e+12 -302807000000.0 -1.52116e+12 -878483000000.0 -944348000000.0 -1.12605e+12 -752523000000.0 -1.02212e+12 -586691000000.0 -1.48528e+12 -577652000000.0 -816243000000.0 -832618000000.0 -774064000000.0 -638955000000.0 -698847000000.0 -577513000000.0 -688317000000.0 -154963000000.0 -1.2813e+12 -1.22489e+12 -35453300000.0 -287045000000.0 -786494000000.0 -205284000000.0 -692374000000.0 -275731000000.0 -167885000000.0 -531402000000.0 -474314000000.0 -133394000000.0 -452658000000.0 -32366200000.0 -208589000000.0 -506917000000.0 -172252000000.0 -408735000000.0 -356835000000.0 -111175000000.0 -130345000000.0 -123298000000.0 -97645500000.0 -219897000000.0 -165896000000.0 -223533000000.0 -184839000000.0 -84178900000.0 -171688000000.0 -231640000000.0 -139258000000.0 -426471000000.0 -516714000000.0 -324529000000.0 -247689000000.0 -674513000000.0 -238457000000.0 -609618000000.0 -212514000000.0 -295783000000.0 -614227000000.0 -398983000000.0 -348373000000.0 -433421000000.0 -343957000000.0 -858311000000.0 -822791000000.0 -1.01963e+12 -855526000000.0 -1.09081e+12 -243032000000.0 -716688000000.0 -607954000000.0 -1.18943e+12 -665343000000.0 -364740000000.0 -883531000000.0 -1.00669e+12 -982789000000.0 -807041000000.0 -867747000000.0 -988669000000.0 -2.2771e+12 -1.19553e+12 -1.39294e+12 -1.4593e+12 -813864000000.0 -801978000000.0 -772544000000.0 -919468000000.0 -1.31603e+12 -1.97178e+12 -667049000000.0 -696612000000.0 -406808000000.0 -577415000000.0 -1.47515e+12 -1.50956e+12 -1.24153e+12 -698735000000.0 -898891000000.0 -913934000000.0 -1.64079e+12 -681521000000.0 -1.48751e+12 -389542000000.0 -324328000000.0 -652496000000.0 -563674000000.0 -804484000000.0 -709597000000.0 -700932000000.0 -813065000000.0 -755333000000.0 -473958000000.0 -1.64419e+12 -894761000000.0 -1.10043e+12 -958739000000.0 -1.17426e+12 -791059000000.0 -274423000000.0 -553154000000.0 -914625000000.0 -892416000000.0 -765118000000.0 -457648000000.0 -382390000000.0 -590112000000.0 -609981000000.0 -364457000000.0 -412668000000.0 -587819000000.0 -449447000000.0 -955178000000.0 -667864000000.0 -531425000000.0 -236003000000.0 -334292000000.0 -101850000000.0 -546101000000.0 -333142000000.0 -162487000000.0 -258703000000.0 -272170000000.0 -83774100000.0 -211499000000.0 -289316000000.0 -439421000000.0 -190630000000.0 -25467800000.0 -63038000000.0 -201376000000.0 -359509000000.0 -128001000000.0 -100192000000.0 -116755000000.0 -102866000000.0 -193831000000.0 -216459000000.0 -451419000000.0 -328803000000.0 -370426000000.0 -136598000000.0 -137792000000.0 -340774000000.0 -190824000000.0 -170479000000.0 -95519200000.0 -159695000000.0 -123540000000.0 -195894000000.0 -268274000000.0 -168470000000.0 -171919000000.0 -256888000000.0 -499258000000.0 -337917000000.0 -316262000000.0 -349760000000.0 -658564000000.0 -222558000000.0 -772672000000.0 -662305000000.0 -1.06912e+12 -579390000000.0 -428771000000.0 -622688000000.0 -471658000000.0 -293874000000.0 -705557000000.0 -974866000000.0 -620399000000.0 -148511000000.0 -1.0741e+12 -546012000000.0 -952526000000.0 -423020000000.0 -980806000000.0 -852671000000.0 -919374000000.0 -893110000000.0 -885794000000.0 -201810000000.0 -957569000000.0 -1.31306e+12 -1.01014e+12 -586294000000.0 -1.06203e+12 -698557000000.0 -866319000000.0 -395183000000.0 -161756000000.0 -258593000000.0 -854429000000.0 -697256000000.0 -457228000000.0 -414075000000.0 -512380000000.0 -689946000000.0 -344864000000.0 -460005000000.0 -249963000000.0 -449438000000.0 -694637000000.0 -671379000000.0 -304629000000.0 -464148000000.0 -277137000000.0 -625406000000.0 -84143100000.0 -316118000000.0 -640466000000.0 -440988000000.0 -646832000000.0 -323354000000.0 -137217000000.0 -564007000000.0 -418639000000.0 -297705000000.0 -389067000000.0 -229753000000.0 -194585000000.0 -336216000000.0 -163221000000.0 -104740000000.0 -65005300000.0 -72148500000.0 -36899600000.0 -69960000000.0 -50957500000.0 -153461000000.0 -120119000000.0 -46880700000.0 -40914900000.0 -12549700000.0 -12549700000.0 -20129700000.0 -36059500000.0 -27206700000.0 -81747000000.0 -53657500000.0 -28569200000.0 -122324000000.0 -103194000000.0 -157656000000.0 -153579000000.0 -109264000000.0 -130633000000.0 -117563000000.0 -302521000000.0 -79641700000.0 -223320000000.0 -215015000000.0 -246311000000.0 -330130000000.0 -123930000000.0 -197946000000.0 -363588000000.0 -485216000000.0 -144157000000.0 -297193000000.0 -219653000000.0 -353338000000.0 -428359000000.0 -352786000000.0 -727522000000.0 -320412000000.0 -266235000000.0 -332154000000.0 -407775000000.0 -340721000000.0 -318093000000.0 -490503000000.0 -454680000000.0 -533214000000.0 -579456000000.0 -263952000000.0 -535398000000.0 -372286000000.0 -231421000000.0 -79863700000.0 -756892000000.0 -865763000000.0 -480682000000.0 -362919000000.0 -273643000000.0 -851361000000.0 -391453000000.0 -211792000000.0 -87907200000.0 -72176000000.0 -232314000000.0 -193044000000.0 -63479700000.0 -163000000000.0 -171531000000.0 -114252000000.0 -12549700000.0 -316914000000.0 -158578000000.0 -123432000000.0 -165066000000.0 -103673000000.0 -92695800000.0 -80822300000.0 -38967700000.0 -275405000000.0 -256770000000.0 -222287000000.0 -71135800000.0 -99522600000.0 -122547000000.0 -51694600000.0 -50758500000.0 -139394000000.0 -109124000000.0 -89096700000.0 -91111500000.0 -69206200000.0 -65783500000.0 -50079000000.0 -100477000000.0 -86376900000.0 -136262000000.0 -147793000000.0 -107572000000.0 -83022100000.0 -134745000000.0 -64824700000.0 -104250000000.0 -131652000000.0 -35799100000.0 -51800200000.0 -41186400000.0 -113558000000.0 -112367000000.0 -292526000000.0 -148342000000.0 -79664000000.0 -119374000000.0 -123378000000.0 -203579000000.0 -124938000000.0 -203165000000.0 -199609000000.0 -99499300000.0 -80346900000.0 -574770000000.0 -363137000000.0 -379224000000.0 -79379900000.0 -153943000000.0 -170680000000.0 -220242000000.0 -599534000000.0 -103401000000.0 -69542000000.0 -115257000000.0 -61485900000.0 