# vtk DataFile Version 2.0
Time step 8
ASCII
DATASET UNSTRUCTURED_GRID
POINTS 5000 float
46930.5 473629.0 0
55033.4 471425.0 0
171834.0 472712.0 0
177746.0 472756.0 0
182952.0 471953.0 0
278873.0 472839.0 0
297322.0 472818.0 0
372009.0 471361.0 0
394014.0 472743.0 0
403606.0 471799.0 0
422052.0 472191.0 0
431374.0 471454.0 0
442648.0 470108.0 0
450984.0 472613.0 0
36007.4 480851.0 0
42602.7 476720.0 0
47238.8 478066.0 0
50656.9 475457.0 0
50815.2 471375.0 0
57083.5 475119.0 0
59929.9 471593.0 0
64679.5 474496.0 0
69785.9 475177.0 0
73961.2 473271.0 0
78466.2 474718.0 0
83263.5 474356.0 0
87398.2 473681.0 0
92500.0 474509.0 0
97208.1 474530.0 0
101307.0 474446.0 0
105965.0 473875.0 0
111928.0 474343.0 0
117841.0 474501.0 0
123320.0 474578.0 0
128334.0 474697.0 0
133416.0 473949.0 0
138112.0 474630.0 0
142500.0 474552.0 0
147500.0 474486.0 0
152501.0 474456.0 0
157579.0 474114.0 0
162541.0 474277.0 0
167027.0 473879.0 0
183477.0 477028.0 0
187418.0 473790.0 0
192500.0 474904.0 0
196122.0 474111.0 0
201765.0 473450.0 0
207659.0 474191.0 0
213003.0 473615.0 0
218136.0 474613.0 0
222488.0 474622.0 0
225835.0 474010.0 0
230427.0 473827.0 0
235813.0 474759.0 0
241171.0 473460.0 0
246495.0 475477.0 0
252658.0 473417.0 0
259020.0 473951.0 0
263755.0 474977.0 0
268739.0 473967.0 0
273936.0 474219.0 0
282033.0 476160.0 0
286331.0 474475.0 0
291721.0 474952.0 0
303642.0 473693.0 0
307754.0 476212.0 0
312122.0 474010.0 0
317923.0 474643.0 0
323239.0 474589.0 0
327578.0 474796.0 0
332202.0 474399.0 0
337218.0 474111.0 0
341012.0 475327.0 0
345899.0 473696.0 0
350712.0 475551.0 0
355312.0 474689.0 0
361834.0 473243.0 0
367943.0 474660.0 0
377034.0 473308.0 0
382617.0 474150.0 0
378849.0 477841.0 0
388131.0 473427.0 0
399149.0 474534.0 0
408632.0 472563.0 0
412488.0 474507.0 0
408244.0 476817.0 0
417500.0 474520.0 0
421725.0 476844.0 0
426621.0 473626.0 0
431566.0 477233.0 0
435383.0 474120.0 0
439275.0 472457.0 0
439029.0 476900.0 0
446276.0 472467.0 0
442650.0 474609.0 0
448712.0 476379.0 0
444959.0 478060.0 0
453637.0 476749.0 0
458666.0 477790.0 0
463087.0 479735.0 0
25470.8 486398.0 0
28094.7 484432.0 0
31723.8 483201.0 0
35125.9 485832.0 0
41030.3 482074.0 0
47143.8 483051.0 0
51280.4 479754.0 0
53899.6 476792.0 0
55783.8 480126.0 0
60437.6 478423.0 0
65127.6 479457.0 0
68939.2 479160.0 0
73456.7 478697.0 0
77708.6 479677.0 0
81970.3 478918.0 0
87913.7 478435.0 0
92500.0 479649.0 0
97169.2 479301.0 0
102467.0 479182.0 0
108253.0 478468.0 0
112500.0 479585.0 0
117500.0 479667.0 0
122500.0 479589.0 0
127738.0 479101.0 0
132501.0 479483.0 0
137520.0 479498.0 0
142771.0 478978.0 0
146998.0 479332.0 0
152008.0 479206.0 0
156939.0 478178.0 0
156287.0 482733.0 0
161370.0 479014.0 0
166584.0 478556.0 0
172917.0 478292.0 0
178320.0 478175.0 0
182226.0 482189.0 0
188548.0 478256.0 0
193523.0 479062.0 0
198211.0 478495.0 0
203928.0 479073.0 0
213695.0 478166.0 0
209361.0 479332.0 0
213289.0 482973.0 0
217644.0 479668.0 0
222080.0 479556.0 0
226860.0 478240.0 0
232239.0 479180.0 0
237753.0 479986.0 0
243351.0 479931.0 0
248405.0 479572.0 0
252623.0 480012.0 0
257212.0 478581.0 0
262328.0 479159.0 0
267183.0 478848.0 0
271685.0 478176.0 0
276939.0 478572.0 0
279887.0 482530.0 0
282807.0 479852.0 0
287500.0 479563.0 0
292817.0 479468.0 0
298207.0 478335.0 0
303060.0 479357.0 0
307480.0 479506.0 0
312501.0 479758.0 0
317499.0 479521.0 0
322473.0 479064.0 0
327500.0 479543.0 0
332500.0 479616.0 0
337686.0 479003.0 0
341396.0 482576.0 0
343280.0 478368.0 0
347701.0 478865.0 0
352658.0 479458.0 0
356028.0 482933.0 0
361500.0 478558.0 0
357827.0 479096.0 0
365178.0 478384.0 0
366504.0 482481.0 0
372945.0 478084.0 0
382060.0 478897.0 0
384279.0 482319.0 0
388270.0 478520.0 0
393457.0 478807.0 0
398038.0 479256.0 0
402940.0 477991.0 0
412680.0 478462.0 0
408711.0 482473.0 0
417331.0 479087.0 0
426759.0 478612.0 0
423048.0 481854.0 0
435420.0 479628.0 0
439484.0 482061.0 0
445057.0 483014.0 0
450383.0 480864.0 0
455606.0 481553.0 0
460022.0 482465.0 0
464810.0 484069.0 0
469966.0 484271.0 0
18124.5 491174.0 0
22421.1 489426.0 0
30014.1 488302.0 0
34448.6 490159.0 0
39600.8 488406.0 0
43402.9 485493.0 0
45256.6 488323.0 0
49481.9 487093.0 0
53147.5 484189.0 0
56157.1 487543.0 0
58951.6 483941.0 0
64356.0 483960.0 0
69852.5 483894.0 0
75790.2 483946.0 0
79749.6 485776.0 0
82824.6 483557.0 0
87778.7 484021.0 0
93118.0 484519.0 0
98060.3 483739.0 0
103040.0 484995.0 0
108029.0 483247.0 0
112500.0 484505.0 0
116779.0 484345.0 0
120879.0 484139.0 0
125914.0 483483.0 0
123524.0 488110.0 0
131187.0 485238.0 0
136472.0 485137.0 0
141033.0 483118.0 0
146349.0 484219.0 0
151869.0 485839.0 0
161737.0 484704.0 0
166549.0 486548.0 0
170045.0 483137.0 0
176341.0 483965.0 0
182230.0 487666.0 0
188093.0 484424.0 0
194300.0 484075.0 0
200013.0 483570.0 0
204282.0 484605.0 0
208095.0 484170.0 0
217709.0 484617.0 0
222592.0 483831.0 0
222191.0 488101.0 0
226907.0 483238.0 0
232481.0 484644.0 0
237505.0 484411.0 0
237676.0 487759.0 0
241836.0 485049.0 0
246920.0 483689.0 0
251873.0 484926.0 0
257660.0 483334.0 0
255924.0 488097.0 0
262647.0 483942.0 0
260385.0 487749.0 0
267414.0 483314.0 0
266410.0 488022.0 0
272970.0 483454.0 0
278355.0 488028.0 0
283579.0 484790.0 0
287240.0 484869.0 0
288750.0 488077.0 0
291071.0 483836.0 0
296782.0 483405.0 0
302268.0 484602.0 0
307722.0 483936.0 0
313224.0 485052.0 0
318226.0 484183.0 0
322511.0 483068.0 0
326836.0 484885.0 0
336508.0 483672.0 0
331879.0 484745.0 0
339800.0 487978.0 0
346809.0 483253.0 0
351876.0 484299.0 0
361242.0 483256.0 0
357370.0 486882.0 0
366623.0 487170.0 0
371103.0 484268.0 0
377639.0 483748.0 0
382683.0 487815.0 0
392135.0 483578.0 0
388186.0 485587.0 0
396908.0 483557.0 0
402502.0 484201.0 0
407494.0 487765.0 0
413675.0 485195.0 0
418407.0 483999.0 0
425870.0 485478.0 0
430074.0 482805.0 0
434955.0 483882.0 0
441288.0 486832.0 0
445352.0 487790.0 0
449908.0 486359.0 0
454103.0 485006.0 0
457808.0 485435.0 0
461036.0 487105.0 0
459490.0 489926.0 0
464316.0 488844.0 0
468731.0 488350.0 0
474341.0 487883.0 0
479261.0 489785.0 0
7924.39 497625.0 0
11184.8 495656.0 0
14649.6 493626.0 0
18612.2 495817.0 0
22951.7 493836.0 0
26474.4 491347.0 0
26937.4 494940.0 0
31164.9 493543.0 0
37033.2 493922.0 0
42925.1 492823.0 0
48374.1 492228.0 0
52581.3 489166.0 0
56144.3 491917.0 0
60341.7 489179.0 0
64614.0 488416.0 0
68937.0 489640.0 0
73349.5 488976.0 0
77758.0 489077.0 0
82779.6 488987.0 0
87936.1 489193.0 0
92779.0 490125.0 0
98147.9 489088.0 0
103066.0 490667.0 0
107886.0 488741.0 0
113236.0 488864.0 0
118256.0 488819.0 0
127500.0 489664.0 0
132683.0 490076.0 0
137740.0 489059.0 0
142519.0 489251.0 0
147986.0 488846.0 0
147028.0 493129.0 0
156816.0 488213.0 0
153362.0 490520.0 0
160420.0 489506.0 0
164436.0 490240.0 0
167075.0 493089.0 0
170839.0 489167.0 0
177033.0 490531.0 0
186634.0 490045.0 0
191650.0 489570.0 0
197208.0 488836.0 0
203030.0 488743.0 0
208745.0 490490.0 0
214378.0 488631.0 0
218774.0 489749.0 0
216370.0 493232.0 0
227667.0 488764.0 0
234164.0 489106.0 0
237940.0 492487.0 0
241955.0 489639.0 0
246442.0 488885.0 0
251559.0 490177.0 0
262658.0 491338.0 0
271797.0 489740.0 0
284343.0 489565.0 0
292973.0 489790.0 0
298928.0 489725.0 0
303967.0 489883.0 0
307500.0 489707.0 0
312195.0 489520.0 0
316245.0 488916.0 0
321068.0 488451.0 0
325876.0 489922.0 0
329925.0 488572.0 0
334407.0 490513.0 0
346080.0 489508.0 0
352826.0 489871.0 0
361698.0 489255.0 0
367083.0 492075.0 0
371855.0 489890.0 0
377787.0 491209.0 0
387119.0 489733.0 0
392748.0 490238.0 0
399158.0 489306.0 0
402647.0 493287.0 0
403942.0 489331.0 0
407622.0 492827.0 0
411662.0 489614.0 0
416197.0 488950.0 0
420198.0 490964.0 0
424341.0 489285.0 0
429666.0 489063.0 0
434761.0 487954.0 0
438403.0 490681.0 0
444025.0 492757.0 0
450007.0 491717.0 0
455049.0 489389.0 0
457967.0 493836.0 0
462682.0 492958.0 0
466981.0 491802.0 0
467403.0 496701.0 0
471409.0 492602.0 0
472795.0 497344.0 0
476935.0 493975.0 0
483143.0 493107.0 0
488096.0 496531.0 0
4388.59 499771.0 0
8488.53 502162.0 0
14037.8 499304.0 0
18982.1 500302.0 0
23621.3 498747.0 0
29282.8 498595.0 0
33507.5 497407.0 0
36834.4 498672.0 0
40995.3 497482.0 0
45542.4 496321.0 0
52356.4 495863.0 0
48365.0 499160.0 0
57033.1 497196.0 0
60204.0 494203.0 0
64925.1 493117.0 0
69827.5 494741.0 0
74165.7 493020.0 0
73383.0 497291.0 0
78895.8 494209.0 0
84130.7 493967.0 0
88907.3 494014.0 0
92996.7 494616.0 0
97397.9 494462.0 0
101364.0 494617.0 0
106035.0 494354.0 0
111428.0 493465.0 0
111245.0 498302.0 0
116746.0 494073.0 0
122178.0 493285.0 0
126966.0 493979.0 0
131271.0 494475.0 0
136613.0 493617.0 0
142236.0 494944.0 0
151798.0 495101.0 0
157924.0 494048.0 0
163701.0 494728.0 0
170997.0 495164.0 0
176729.0 496809.0 0
182886.0 494494.0 0
193643.0 493679.0 0
189149.0 494456.0 0
198217.0 494706.0 0
203149.0 493841.0 0
202570.0 498345.0 0
207349.0 495860.0 0
212135.0 494720.0 0
221228.0 493391.0 0
226320.0 495296.0 0
232018.0 493702.0 0
236162.0 497495.0 0
242882.0 494208.0 0
248082.0 494014.0 0
252926.0 494249.0 0
257756.0 493280.0 0
262885.0 496909.0 0
267640.0 493909.0 0
272717.0 495616.0 0
278476.0 494705.0 0
283566.0 494149.0 0
282092.0 498079.0 0
288828.0 493396.0 0
293481.0 494369.0 0
297494.0 495759.0 0
302639.0 494189.0 0
301883.0 498107.0 0
307206.0 494546.0 0
312031.0 494251.0 0
317095.0 493325.0 0
322422.0 494011.0 0
331091.0 494126.0 0
327287.0 494761.0 0
341413.0 493426.0 0
337062.0 494480.0 0
346849.0 495368.0 0
351766.0 495562.0 0
355709.0 497735.0 0
357858.0 493381.0 0
362923.0 494242.0 0
370223.0 495428.0 0
374571.0 495497.0 0
383150.0 493864.0 0
383258.0 498000.0 0
387079.0 498304.0 0
388021.0 493855.0 0
391960.0 496630.0 0
397623.0 495306.0 0
411107.0 497544.0 0
413594.0 493320.0 0
416704.0 494752.0 0
420802.0 495840.0 0
425240.0 493201.0 0
425559.0 497870.0 0
428727.0 494324.0 0
433740.0 493743.0 0
439018.0 496240.0 0
448388.0 496514.0 0
453388.0 495950.0 0
458270.0 498945.0 0
462393.0 497803.0 0
465359.0 501949.0 0
474184.0 501428.0 0
477668.0 499259.0 0
481747.0 497356.0 0
484890.0 499683.0 0
488905.0 501782.0 0
493228.0 499512.0 0
1452.44 500626.0 0
2832.55 504397.0 0
8135.19 507323.0 0
12727.5 503694.0 0
16927.7 504091.0 0
21842.4 504071.0 0
27009.4 503169.0 0
33227.3 502090.0 0
38535.9 502529.0 0
44036.4 501486.0 0
48290.7 503381.0 0
52720.6 501499.0 0
57940.6 501664.0 0
62878.8 498902.0 0
67705.9 500688.0 0
64874.8 503730.0 0
70412.5 498639.0 0
77205.6 499161.0 0
72683.1 502868.0 0
82687.9 499557.0 0
88494.0 499068.0 0
93150.7 499392.0 0
101840.0 499271.0 0
97331.8 499026.0 0
106713.0 499703.0 0
115546.0 498796.0 0
121009.0 499305.0 0
127549.0 499231.0 0
133381.0 498909.0 0
138783.0 499404.0 0
143786.0 499542.0 0
148422.0 499204.0 0
152819.0 499638.0 0
157017.0 499748.0 0
161411.0 498529.0 0
162080.0 503175.0 0
166782.0 498432.0 0
172273.0 500922.0 0
176995.0 501135.0 0
181279.0 501177.0 0
186786.0 499428.0 0
192337.0 498973.0 0
197785.0 500410.0 0
206582.0 500452.0 0
210640.0 499308.0 0
216355.0 499065.0 0
222656.0 499150.0 0
228324.0 500832.0 0
233992.0 501957.0 0
241051.0 499931.0 0
246507.0 500457.0 0
251007.0 498432.0 0
252243.0 502781.0 0
256840.0 499485.0 0
268302.0 499290.0 0
272894.0 500499.0 0
277848.0 500669.0 0
282777.0 503446.0 0
287104.0 499477.0 0
293019.0 498756.0 0
297875.0 501016.0 0
306237.0 499876.0 0
311485.0 499943.0 0
316963.0 498444.0 0
322421.0 499922.0 0
328060.0 499385.0 0
333948.0 498415.0 0
337751.0 501622.0 0
342387.0 499359.0 0
348146.0 500099.0 0
352449.0 499861.0 0
356123.0 502361.0 0
360589.0 499028.0 0
366558.0 499077.0 0
372535.0 500413.0 0
378553.0 498836.0 0
383478.0 502438.0 0
390562.0 501268.0 0
395616.0 501062.0 0
399909.0 499534.0 0
404751.0 498561.0 0
408985.0 503245.0 0
416696.0 499396.0 0
421520.0 500646.0 0
430578.0 498566.0 0
435159.0 499687.0 0
439719.0 501629.0 0
444051.0 498971.0 0
448942.0 501538.0 0
453877.0 501065.0 0
457439.0 503040.0 0
461106.0 502822.0 0
468678.0 505997.0 0
470060.0 501313.0 0
473806.0 505467.0 0
477939.0 503930.0 0
481647.0 501604.0 0
485509.0 502824.0 0
487927.0 506012.0 0
492729.0 504926.0 0
497487.0 502455.0 0
3467.5 509899.0 0
13789.5 508111.0 0
19613.2 508990.0 0
25092.0 508090.0 0
30742.5 506744.0 0
35814.4 507119.0 0
40768.9 506979.0 0
44996.4 506008.0 0
51889.8 506167.0 0
48345.6 509391.0 0
55903.6 506422.0 0
60679.4 505848.0 0
68197.8 504569.0 0
69872.1 507730.0 0
78846.0 504384.0 0
84186.4 505732.0 0
88627.1 504076.0 0
93483.4 503996.0 0
98350.4 503490.0 0
98897.6 507671.0 0
106070.0 504125.0 0
102334.0 505209.0 0
105690.0 508608.0 0
111028.0 503656.0 0
116878.0 503547.0 0
126532.0 504259.0 0
122718.0 504914.0 0
131438.0 503671.0 0
128484.0 507639.0 0
135425.0 505519.0 0
139909.0 504928.0 0
145230.0 504104.0 0
150944.0 504214.0 0
156947.0 505102.0 0
167208.0 503525.0 0
167183.0 508488.0 0
171476.0 506213.0 0
176206.0 504878.0 0
180996.0 506783.0 0
185804.0 504729.0 0
191583.0 504860.0 0
197336.0 505943.0 0
202616.0 503740.0 0
207586.0 504463.0 0
212126.0 503694.0 0
217212.0 505445.0 0
223339.0 505116.0 0
228956.0 506845.0 0
233378.0 506415.0 0
238426.0 505617.0 0
243821.0 505078.0 0
248828.0 504685.0 0
251442.0 508544.0 0
255520.0 505557.0 0
262556.0 504119.0 0
268730.0 504258.0 0
273463.0 505029.0 0
278373.0 506056.0 0
287929.0 505483.0 0
293156.0 504088.0 0
297692.0 506252.0 0
302599.0 503922.0 0
308379.0 504849.0 0
313173.0 504538.0 0
317462.0 504067.0 0
322179.0 505476.0 0
326057.0 503863.0 0
330264.0 504441.0 0
335319.0 505000.0 0
340578.0 505376.0 0
346133.0 506313.0 0
351204.0 504297.0 0
356418.0 507802.0 0
360911.0 504892.0 0
366510.0 504809.0 0
371182.0 505359.0 0
377246.0 506008.0 0
387581.0 505775.0 0
392457.0 505645.0 0
398000.0 506662.0 0
403439.0 504602.0 0
413910.0 503459.0 0
417193.0 503498.0 0
416424.0 507306.0 0
420152.0 504677.0 0
426102.0 504294.0 0
431476.0 502895.0 0
431390.0 507587.0 0
435571.0 504557.0 0
439981.0 506366.0 0
445282.0 505865.0 0
450488.0 506776.0 0
454635.0 505675.0 0
458806.0 506395.0 0
463463.0 507259.0 0
472349.0 509557.0 0
477577.0 508527.0 0
482572.0 506387.0 0
482030.0 510641.0 0
486231.0 510247.0 0
493700.0 509775.0 0
490050.0 510793.0 0
497487.0 507228.0 0
2107.25 514290.0 0
10096.9 512396.0 0
15757.0 513384.0 0
20412.2 513665.0 0
23998.6 512319.0 0
29016.1 512141.0 0
33860.6 511185.0 0
38761.4 511993.0 0
44023.3 511906.0 0
53465.2 510387.0 0
59023.6 511606.0 0
65035.4 509359.0 0
74664.2 510589.0 0
80768.9 509794.0 0
85938.2 510580.0 0
90722.9 508549.0 0
95500.9 510550.0 0
101299.0 511236.0 0
111380.0 510000.0 0
118386.0 509106.0 0
123975.0 509413.0 0
133324.0 509773.0 0
137504.0 512888.0 0
137827.0 508804.0 0
141885.0 509788.0 0
147397.0 509421.0 0
152966.0 509463.0 0
157275.0 510919.0 0
161843.0 508719.0 0
170784.0 510208.0 0
173367.0 513416.0 0
176952.0 509861.0 0
182406.0 511578.0 0
186959.0 509736.0 0
191599.0 510160.0 0
196418.0 511397.0 0
201778.0 509341.0 0
207309.0 509441.0 0
213149.0 509339.0 0
219864.0 510575.0 0
224970.0 510413.0 0
228703.0 510941.0 0
232573.0 510154.0 0
237059.0 510878.0 0
242023.0 509186.0 0
246484.0 509091.0 0
257778.0 510802.0 0
262740.0 510174.0 0
268234.0 509873.0 0
274034.0 509969.0 0
279351.0 511560.0 0
284615.0 509622.0 0
289580.0 510443.0 0
293256.0 508718.0 0
296726.0 511219.0 0
302404.0 509849.0 0
307427.0 510210.0 0
311941.0 508673.0 0
316677.0 508644.0 0
321210.0 510569.0 0
317297.0 513485.0 0
326331.0 509145.0 0
331639.0 509510.0 0
337252.0 510466.0 0
342904.0 510746.0 0
346822.0 510898.0 0
351275.0 509463.0 0
349669.0 513664.0 0
361840.0 510975.0 0
367102.0 509662.0 0
371757.0 509833.0 0
382271.0 509842.0 0
378461.0 512577.0 0
386905.0 510498.0 0
391439.0 510182.0 0
395473.0 511130.0 0
400071.0 511779.0 0
405386.0 510446.0 0
411086.0 508753.0 0
416747.0 512565.0 0
421733.0 509658.0 0
427317.0 510355.0 0
436325.0 510105.0 0
442198.0 510992.0 0
448295.0 511513.0 0
453920.0 510226.0 0
459494.0 511488.0 0
467162.0 511025.0 0
463863.0 513057.0 0
471008.0 513812.0 0
475565.0 512855.0 0
479902.0 513568.0 0
483957.0 513776.0 0
488564.0 513893.0 0
492993.0 514309.0 0
497778.0 511876.0 0
2214.9 518304.0 0
6568.55 516369.0 0
12353.1 518354.0 0
18456.9 517613.0 0
23728.9 516988.0 0
29540.5 518039.0 0
32949.6 514663.0 0
36343.6 517152.0 0
42444.1 516006.0 0
48252.9 515551.0 0
54293.2 515171.0 0
58756.8 517604.0 0
63485.6 515358.0 0
68960.4 514065.0 0
74309.0 517285.0 0
78748.2 514469.0 0
83427.1 515162.0 0
89276.8 515294.0 0
94444.2 515101.0 0
98095.6 514005.0 0
101465.0 515528.0 0
97588.8 518360.0 0
105884.0 514062.0 0
110388.0 515355.0 0
107308.0 518812.0 0
115641.0 514931.0 0
121736.0 514204.0 0
128198.0 513771.0 0
133691.0 514598.0 0
142033.0 515046.0 0
148122.0 516001.0 0
153557.0 514272.0 0
158010.0 515097.0 0
163120.0 514550.0 0
166883.0 518568.0 0
168450.0 513711.0 0
177722.0 514318.0 0
181564.0 516118.0 0
186420.0 514991.0 0
191531.0 514666.0 0
195881.0 517117.0 0
201138.0 514918.0 0
207158.0 515501.0 0
212137.0 514241.0 0
216849.0 515395.0 0
221639.0 516026.0 0
226123.0 514941.0 0
231065.0 514289.0 0
235913.0 515501.0 0
241322.0 514110.0 0
246760.0 514013.0 0
252449.0 514031.0 0
257587.0 516000.0 0
263825.0 515637.0 0
269707.0 515506.0 0
274678.0 514918.0 0
279821.0 516911.0 0
283887.0 514052.0 0
284142.0 518455.0 0
288459.0 515454.0 0
292519.0 513866.0 0
293422.0 518417.0 0
298541.0 516088.0 0
303470.0 514870.0 0
307596.0 514757.0 0
312051.0 513905.0 0
317040.0 518359.0 0
323356.0 515495.0 0
328029.0 513766.0 0
328861.0 518453.0 0
332755.0 514587.0 0
337422.0 515772.0 0
342112.0 514671.0 0
345683.0 514667.0 0
355472.0 513995.0 0
360769.0 516141.0 0
366683.0 514381.0 0
373590.0 514941.0 0
378287.0 517055.0 0
383020.0 515580.0 0
387922.0 514900.0 0
392403.0 514556.0 0
396897.0 515044.0 0
403100.0 515736.0 0
412149.0 513948.0 0
407772.0 515093.0 0
418185.0 518197.0 0
420527.0 514689.0 0
424842.0 514549.0 0
428296.0 518129.0 0
431786.0 514018.0 0
437705.0 515974.0 0
443598.0 516149.0 0
452518.0 514102.0 0
449290.0 517822.0 0
456402.0 515941.0 0
461437.0 516799.0 0
466737.0 516314.0 0
472649.0 517840.0 0
477316.0 517229.0 0
481988.0 517540.0 0
486175.0 516886.0 0
490520.0 519077.0 0
497421.0 516514.0 0
2117.57 522152.0 0
6939.36 521807.0 0
13349.2 523612.0 0
16350.2 521083.0 0
20699.7 521414.0 0
25469.5 521717.0 0
33342.6 521612.0 0
38739.7 522212.0 0
44262.8 520498.0 0
49508.5 521421.0 0
54061.7 519671.0 0
57564.1 522225.0 0
63167.3 520227.0 0
63119.6 524605.0 0
67605.6 519551.0 0
71557.1 521871.0 0
79632.5 519961.0 0
84750.8 519858.0 0
82733.9 523622.0 0
86748.6 523686.0 0
88786.4 520300.0 0
92515.3 519422.0 0
96861.0 523462.0 0
102562.0 519942.0 0
111961.0 519514.0 0
118034.0 520452.0 0
123294.0 519441.0 0
127805.0 519150.0 0
128465.0 523641.0 0
132857.0 519659.0 0
138559.0 518987.0 0
143179.0 519849.0 0
147929.0 521968.0 0
151862.0 519800.0 0
156552.0 519914.0 0
161571.0 519505.0 0
162813.0 523644.0 0
173212.0 519611.0 0
178569.0 519813.0 0
183703.0 520649.0 0
189469.0 519805.0 0
193917.0 520940.0 0
199706.0 519844.0 0
203834.0 520450.0 0
208227.0 520670.0 0
212716.0 518886.0 0
219025.0 520170.0 0
223287.0 519573.0 0
227639.0 519676.0 0
232482.0 519222.0 0
238037.0 519820.0 0
242548.0 520549.0 0
246945.0 518835.0 0
246173.0 523822.0 0
252144.0 520272.0 0
257468.0 520297.0 0
262287.0 521814.0 0
267715.0 519767.0 0
271777.0 519284.0 0
272494.0 523175.0 0
276110.0 519749.0 0
283078.0 523839.0 0
288396.0 520786.0 0
298705.0 520855.0 0
302500.0 519571.0 0
306842.0 518707.0 0
306782.0 523429.0 0
311906.0 519577.0 0
316139.0 523228.0 0
325008.0 519323.0 0
321479.0 520379.0 0
334361.0 520158.0 0
339772.0 519573.0 0
344411.0 518884.0 0
343390.0 523776.0 0
350366.0 519295.0 0
356930.0 520928.0 0
363425.0 520749.0 0
369534.0 519190.0 0
375004.0 520265.0 0
379779.0 520995.0 0
383997.0 520823.0 0
386938.0 523852.0 0
388179.0 519353.0 0
393188.0 519560.0 0
397891.0 519154.0 0
396055.0 523629.0 0
401929.0 520083.0 0
406433.0 519724.0 0
412484.0 519812.0 0
417535.0 523669.0 0
423192.0 519647.0 0
433347.0 520593.0 0
439505.0 521950.0 0
444724.0 520788.0 0
447950.0 523061.0 0
454332.0 520050.0 0
458194.0 519597.0 0
457411.0 523236.0 0
461064.0 520845.0 0
465227.0 521359.0 0
470269.0 521708.0 0
475549.0 521920.0 0
480443.0 521471.0 0
485204.0 521395.0 0
493740.0 522804.0 0
497813.0 521015.0 0
3852.91 526531.0 0
9579.39 525514.0 0
8160.17 529755.0 0
12934.3 528138.0 0
17626.7 524694.0 0
22444.0 525929.0 0
28555.3 526320.0 0
32873.9 525019.0 0
34012.2 528914.0 0
38899.0 527469.0 0
43260.6 525560.0 0
48448.2 526693.0 0
53577.0 524910.0 0
52268.9 529478.0 0
59411.5 525784.0 0
56675.1 529207.0 0
67465.1 524033.0 0
71509.8 526045.0 0
76347.9 524975.0 0
81010.5 527739.0 0
91548.7 524589.0 0
101458.0 524602.0 0
98535.3 528830.0 0
106560.0 523967.0 0
103766.0 528835.0 0
112497.0 525014.0 0
118163.0 525839.0 0
123313.0 524679.0 0
128534.0 528803.0 0
133282.0 525129.0 0
138746.0 524709.0 0
143891.0 523891.0 0
146849.0 526226.0 0
143138.0 528021.0 0
152563.0 524297.0 0
150611.0 528260.0 0
157733.0 524470.0 0
155579.0 528375.0 0
161124.0 528523.0 0
168084.0 523996.0 0
172534.0 525408.0 0
177255.0 524988.0 0
182430.0 525556.0 0
187113.0 524697.0 0
192279.0 524956.0 0
197939.0 524576.0 0
202908.0 524442.0 0
203754.0 528593.0 0
207315.0 525400.0 0
212081.0 523839.0 0
217227.0 525257.0 0
222465.0 523925.0 0
227470.0 525136.0 0
232546.0 523926.0 0
232003.0 528160.0 0
237198.0 524090.0 0
236004.0 528315.0 0
241442.0 524969.0 0
250466.0 525214.0 0
254647.0 524791.0 0
258904.0 525455.0 0
262588.0 528489.0 0
267360.0 525092.0 0
272379.0 527822.0 0
277144.0 525025.0 0
288061.0 525340.0 0
292567.0 523992.0 0
297169.0 524768.0 0
297901.0 528620.0 0
301880.0 524545.0 0
306642.0 528292.0 0
311449.0 524935.0 0
320454.0 524764.0 0
326174.0 524122.0 0
332598.0 526146.0 0
338291.0 525156.0 0
345164.0 528204.0 0
348142.0 524663.0 0
353272.0 525279.0 0
358654.0 526367.0 0
363254.0 526225.0 0
367694.0 524799.0 0
372418.0 524348.0 0
377432.0 525633.0 0
382222.0 524028.0 0
382777.0 528718.0 0
391436.0 524076.0 0
388899.0 528699.0 0
397066.0 528551.0 0
401150.0 524892.0 0
406307.0 524571.0 0
411719.0 526139.0 0
421828.0 526869.0 0
427628.0 524412.0 0
435467.0 525746.0 0
439811.0 526741.0 0
444205.0 525666.0 0
448183.0 526101.0 0
452382.0 524962.0 0
457245.0 528284.0 0
461675.0 524931.0 0
467523.0 525705.0 0
472680.0 526487.0 0
479042.0 525199.0 0
481368.0 527654.0 0
484623.0 526128.0 0
489960.0 525057.0 0
497278.0 525679.0 0
2826.74 531972.0 0
10993.7 532929.0 0
13857.5 531651.0 0
18188.2 530143.0 0
24514.2 531238.0 0
29824.2 531307.0 0
32537.0 533260.0 0
38586.9 533035.0 0
44599.6 530951.0 0
49399.9 532258.0 0
58545.1 533990.0 0
61875.6 529711.0 0
67651.6 529535.0 0
73359.3 530366.0 0
78162.7 531538.0 0
86863.6 529287.0 0
93013.1 530432.0 0
101972.0 533171.0 0
108648.0 529324.0 0
113783.0 530379.0 0
118823.0 531110.0 0
123681.0 529698.0 0
128573.0 533963.0 0
133178.0 529636.0 0
137667.0 530082.0 0
141712.0 532578.0 0
146704.0 530264.0 0
150812.0 533964.0 0
156879.0 533573.0 0
167207.0 530049.0 0
172982.0 529685.0 0
178137.0 530473.0 0
183473.0 530355.0 0
189264.0 529424.0 0
192431.0 534010.0 0
194193.0 529475.0 0
199063.0 530166.0 0
202783.0 533720.0 0
208233.0 530450.0 0
213087.0 529025.0 0
217790.0 530561.0 0
222500.0 529624.0 0
227500.0 529712.0 0
231711.0 532338.0 0
241032.0 529343.0 0
246242.0 529613.0 0
252683.0 530008.0 0
257728.0 529144.0 0
257371.0 532484.0 0
268561.0 529807.0 0
265467.0 533622.0 0
276534.0 530043.0 0
282731.0 529628.0 0
285500.0 533885.0 0
287738.0 529736.0 0
290202.0 533578.0 0
293217.0 529445.0 0
297159.0 533822.0 0
302004.0 530741.0 0
306693.0 533640.0 0
311465.0 530155.0 0
317260.0 529069.0 0
322973.0 529329.0 0
326798.0 529129.0 0
331499.0 530561.0 0
328237.0 532630.0 0
335559.0 531074.0 0
340698.0 529903.0 0
345865.0 533282.0 0
349888.0 529266.0 0
355476.0 531282.0 0
361555.0 530913.0 0
367130.0 530094.0 0
372523.0 529245.0 0
377543.0 531352.0 0
373346.0 534097.0 0
393267.0 530865.0 0
402172.0 530474.0 0
407357.0 529247.0 0
411830.0 531411.0 0
416830.0 529367.0 0
421222.0 531593.0 0
425705.0 530456.0 0
431697.0 529707.0 0
437469.0 530618.0 0
442787.0 530576.0 0
447500.0 529493.0 0
452269.0 530674.0 0
458484.0 534012.0 0
462319.0 529886.0 0
463750.0 534378.0 0
467422.0 530593.0 0
472194.0 531372.0 0
477316.0 529622.0 0
482579.0 530645.0 0
488048.0 530159.0 0
493382.0 528817.0 0
492629.0 533746.0 0
497793.0 530260.0 0
497566.0 534618.0 0
2517.87 537046.0 0
7011.53 534844.0 0
11782.4 537240.0 0
17083.8 536179.0 0
22814.1 536872.0 0
28290.7 535526.0 0
33966.7 538405.0 0
39669.5 537982.0 0
43439.4 536248.0 0
47836.3 535917.0 0
53273.1 534894.0 0
59721.9 539084.0 0
64481.1 535272.0 0
69592.4 536007.0 0
71684.7 533942.0 0
75345.4 535929.0 0
81204.8 535619.0 0
87172.1 535919.0 0
92090.1 534994.0 0
96793.2 534544.0 0
102261.0 538977.0 0
107482.0 535382.0 0
113392.0 535359.0 0
118430.0 536349.0 0
123391.0 534747.0 0
132394.0 539141.0 0
133517.0 534167.0 0
137920.0 535660.0 0
142193.0 539235.0 0
145557.0 535106.0 0
147632.0 538940.0 0
157362.0 538672.0 0
162738.0 534464.0 0
167165.0 538592.0 0
170930.0 534502.0 0
175286.0 536161.0 0
179517.0 535202.0 0
183015.0 534301.0 0
183482.0 538383.0 0
187062.0 534406.0 0
190200.0 539005.0 0
197761.0 535802.0 0
203215.0 539111.0 0
206834.0 535743.0 0
211033.0 534471.0 0
215674.0 534922.0 0
221096.0 535006.0 0
227037.0 535098.0 0
237736.0 534180.0 0
243997.0 534863.0 0
242567.0 539126.0 0
249045.0 534590.0 0
246892.0 538983.0 0
254332.0 536074.0 0
260305.0 534530.0 0
262599.0 538785.0 0
268073.0 538857.0 0
272338.0 534122.0 0
279428.0 534741.0 0
283812.0 538066.0 0
288873.0 538611.0 0
293321.0 536771.0 0
302103.0 535810.0 0
312349.0 536215.0 0
318358.0 534895.0 0
323511.0 534272.0 0
327649.0 538398.0 0
332479.0 535142.0 0
337200.0 535583.0 0
341118.0 534461.0 0
340790.0 538581.0 0
351299.0 535473.0 0
359143.0 535626.0 0
364378.0 535391.0 0
368963.0 534730.0 0
377252.0 536417.0 0
373258.0 539069.0 0
381330.0 534549.0 0
386925.0 534825.0 0
393288.0 535704.0 0
397599.0 538517.0 0
398424.0 534087.0 0
402772.0 535386.0 0
407637.0 534565.0 0
415581.0 535292.0 0
417845.0 539243.0 0
420904.0 536312.0 0
424622.0 534598.0 0
428983.0 534718.0 0
432035.0 539232.0 0
434097.0 534615.0 0
438748.0 535645.0 0
443132.0 534763.0 0
448032.0 534696.0 0
453323.0 535447.0 0
462916.0 538736.0 0
468446.0 535623.0 0
473422.0 535497.0 0
471428.0 538958.0 0
477820.0 534663.0 0
483430.0 534687.0 0
480583.0 537947.0 0
488038.0 535671.0 0
484844.0 539415.0 0
495049.0 539182.0 0
2469.79 541827.0 0
7241.19 539875.0 0
11515.7 541382.0 0
15548.3 541227.0 0
20635.6 541854.0 0
26804.4 540586.0 0
30800.4 543921.0 0
40151.1 542146.0 0
35730.2 544143.0 0
44705.2 540652.0 0
48707.5 539650.0 0
47927.6 543719.0 0
53003.0 540026.0 0
51917.1 544081.0 0
56896.6 544176.0 0
64057.2 540363.0 0
62615.2 544290.0 0
67776.3 539657.0 0
71841.2 539447.0 0
78538.9 539386.0 0
78012.0 543431.0 0
82616.1 540597.0 0
87291.9 541494.0 0
92131.6 539631.0 0
97129.4 539648.0 0
106969.0 541286.0 0
111049.0 539749.0 0
115773.0 540926.0 0
121037.0 540977.0 0
126529.0 539470.0 0
137077.0 540217.0 0
146139.0 543860.0 0
152491.0 539687.0 0
156031.0 543606.0 0
161943.0 539992.0 0
172433.0 539583.0 0
178156.0 540466.0 0
186203.0 542738.0 0
191017.0 544257.0 0
195171.0 540478.0 0
199537.0 541096.0 0
207788.0 539853.0 0
204820.0 543632.0 0
212383.0 539178.0 0
212051.0 543837.0 0
217615.0 539650.0 0
223420.0 539700.0 0
222097.0 544234.0 0
227735.0 540066.0 0
232789.0 539417.0 0
232318.0 543702.0 0
238478.0 540135.0 0
241851.0 543636.0 0
247153.0 544081.0 0
251678.0 540554.0 0
257601.0 540518.0 0
261705.0 544149.0 0
266577.0 543391.0 0
273424.0 540764.0 0
279464.0 540902.0 0
284868.0 543142.0 0
290069.0 543435.0 0
293674.0 540976.0 0
298695.0 539663.0 0
297375.0 544091.0 0
302690.0 539577.0 0
302413.0 542724.0 0
307506.0 539214.0 0
307402.0 543142.0 0
313024.0 542004.0 0
316450.0 539625.0 0
321352.0 539870.0 0
316973.0 544140.0 0
326268.0 543761.0 0
333467.0 540163.0 0
337819.0 541418.0 0
346491.0 539841.0 0
352472.0 540399.0 0
358071.0 541228.0 0
362735.0 539266.0 0
367656.0 539952.0 0
372618.0 543746.0 0
377748.0 541128.0 0
383111.0 540043.0 0
388921.0 540650.0 0
393931.0 540953.0 0
402017.0 540009.0 0
407567.0 540356.0 0
413356.0 540606.0 0
420871.0 540460.0 0
422260.0 544256.0 0
426071.0 540042.0 0
436703.0 539447.0 0
438615.0 543619.0 0
442434.0 539566.0 0
448362.0 541636.0 0
452854.0 539476.0 0
453261.0 544317.0 0
457753.0 540868.0 0
467295.0 540774.0 0
471750.0 543260.0 0
476115.0 539867.0 0
480936.0 543729.0 0
486707.0 544256.0 0
489781.0 540278.0 0
497275.0 544336.0 0
3617.8 546671.0 0
8342.54 544872.0 0
12827.4 544870.0 0
17438.4 545856.0 0
22034.2 546240.0 0
26146.4 545339.0 0
39582.5 547476.0 0
43826.6 544671.0 0
47266.8 548928.0 0
52732.0 548253.0 0
67206.8 544627.0 0
72550.7 544641.0 0
78915.4 548150.0 0
82529.9 545016.0 0
86307.9 545520.0 0
90287.4 544822.0 0
95346.1 544660.0 0
101244.0 544636.0 0
106687.0 546296.0 0
111908.0 544553.0 0
118219.0 545619.0 0
123167.0 545424.0 0
127536.0 544598.0 0
132124.0 544494.0 0
128372.0 549212.0 0
137148.0 544810.0 0
132837.0 548818.0 0
141616.0 546113.0 0
151309.0 546148.0 0
161862.0 546267.0 0
169328.0 544931.0 0
176022.0 546248.0 0
181644.0 545250.0 0
189289.0 548734.0 0
195761.0 545125.0 0
200456.0 546550.0 0
208582.0 545404.0 0
206750.0 548013.0 0
216920.0 545038.0 0
221379.0 549067.0 0
227095.0 544616.0 0
231368.0 548017.0 0
236443.0 544931.0 0
240754.0 548841.0 0
248666.0 548881.0 0
251813.0 544801.0 0
252867.0 548530.0 0
256465.0 545707.0 0
260248.0 548787.0 0
265563.0 548603.0 0
270726.0 545767.0 0
276586.0 545622.0 0
281990.0 548674.0 0
288359.0 548221.0 0
293710.0 545565.0 0
298812.0 548508.0 0
304688.0 547259.0 0
310397.0 545348.0 0
309373.0 548997.0 0
313989.0 547240.0 0
317857.0 548932.0 0
321655.0 545836.0 0
327659.0 548322.0 0
331771.0 545147.0 0
336619.0 545382.0 0
341700.0 544347.0 0
346553.0 545492.0 0
350460.0 544369.0 0
351667.0 548952.0 0
354551.0 545386.0 0
357521.0 549142.0 0
363442.0 544503.0 0
368533.0 545178.0 0
368501.0 549432.0 0
376925.0 546236.0 0
381320.0 544598.0 0
385818.0 545100.0 0
382675.0 548532.0 0
391618.0 545685.0 0
397951.0 544423.0 0
395888.0 549073.0 0
403551.0 544932.0 0
405914.0 549320.0 0
408269.0 545451.0 0
412687.0 545668.0 0
417337.0 544243.0 0
422034.0 549125.0 0
426943.0 546744.0 0
432961.0 545146.0 0
437857.0 548979.0 0
443611.0 545107.0 0
448261.0 547432.0 0
453292.0 549525.0 0
457708.0 546609.0 0
462705.0 544775.0 0
467699.0 545451.0 0
472128.0 548064.0 0
475882.0 544762.0 0
477754.0 549364.0 0
483663.0 548392.0 0
487899.0 548716.0 0
491923.0 545838.0 0
2741.43 551916.0 0
7843.24 549870.0 0
14608.4 549790.0 0
11474.9 552406.0 0
19982.4 550489.0 0
25390.7 550192.0 0
32560.8 550624.0 0
42528.3 552134.0 0
47247.4 554039.0 0
52212.4 553599.0 0
57848.3 550397.0 0
63822.4 549610.0 0
69622.3 549982.0 0
74731.0 550353.0 0
77864.7 554428.0 0
82817.3 549734.0 0
83349.4 554445.0 0
87442.6 549939.0 0
93081.4 550024.0 0
98815.6 549926.0 0
103867.0 550369.0 0
107183.0 550326.0 0
111583.0 550378.0 0
107433.0 553571.0 0
116307.0 553122.0 0
120224.0 550367.0 0
124032.0 549800.0 0
125889.0 554168.0 0
131751.0 553548.0 0
136833.0 549501.0 0
137373.0 554375.0 0
141035.0 550300.0 0
146488.0 549788.0 0
151924.0 551502.0 0
148398.0 554421.0 0
156603.0 549614.0 0
161088.0 551872.0 0
166621.0 551124.0 0
172431.0 549815.0 0
170963.0 553197.0 0
175986.0 553901.0 0
179265.0 549858.0 0
184149.0 550460.0 0
193623.0 549693.0 0
189098.0 553971.0 0
197472.0 549655.0 0
194213.0 554519.0 0
202998.0 550317.0 0
199437.0 553993.0 0
207500.0 552872.0 0
212428.0 549453.0 0
217229.0 549543.0 0
221759.0 553363.0 0
226150.0 549621.0 0
232423.0 554074.0 0
235990.0 549845.0 0
238410.0 553989.0 0
244982.0 553123.0 0
251597.0 553675.0 0
256285.0 550690.0 0
261909.0 553432.0 0
270043.0 552701.0 0
272830.0 549328.0 0
275592.0 549559.0 0
277879.0 552597.0 0
288657.0 553539.0 0
293534.0 550237.0 0
297033.0 553310.0 0
302806.0 553646.0 0
312853.0 551941.0 0
318306.0 554223.0 0
323270.0 551080.0 0
328661.0 553514.0 0
332500.0 549688.0 0
336736.0 549992.0 0
341826.0 549914.0 0
344697.0 554272.0 0
347060.0 549868.0 0
349739.0 553912.0 0
354242.0 552694.0 0
363215.0 550829.0 0
368202.0 554138.0 0
373391.0 550629.0 0
379143.0 550557.0 0
382536.0 553998.0 0
387196.0 550662.0 0
392415.0 551724.0 0
400730.0 549563.0 0
406564.0 554465.0 0
411152.0 550797.0 0
416879.0 550047.0 0
426125.0 552268.0 0
431142.0 550785.0 0
443665.0 550917.0 0
449034.0 551743.0 0
458549.0 550736.0 0
455955.0 554172.0 0
462378.0 549801.0 0
467376.0 550434.0 0
472859.0 553174.0 0
482064.0 552618.0 0
487282.0 553734.0 0
491487.0 550867.0 0
496268.0 549720.0 0
498092.0 554034.0 0
2121.08 556669.0 0
6972.42 554914.0 0
11205.1 556108.0 0
13022.7 559302.0 0
16255.0 554927.0 0
22370.9 555182.0 0
20516.0 559708.0 0
27013.1 554709.0 0
31329.3 558444.0 0
37915.2 556007.0 0
44015.8 556602.0 0
57386.1 556470.0 0
62708.1 554959.0 0
67632.4 555291.0 0
72713.8 554861.0 0
77197.2 559524.0 0
82042.7 559555.0 0
86320.4 558550.0 0
88693.1 554909.0 0
91303.9 559415.0 0
93514.3 554873.0 0
96815.0 558957.0 0
97460.3 554568.0 0
102509.0 555595.0 0
111838.0 556713.0 0
116491.0 559437.0 0
120414.0 556196.0 0
143286.0 555166.0 0
147730.0 558988.0 0
157543.0 554563.0 0
153149.0 555969.0 0
157681.0 559547.0 0
162890.0 558982.0 0
163405.0 554487.0 0
168226.0 556445.0 0
172666.0 558618.0 0
178426.0 558965.0 0
182189.0 555865.0 0
186711.0 558509.0 0
192379.0 559143.0 0
196990.0 559594.0 0
203684.0 555709.0 0
201498.0 559326.0 0
207149.0 559452.0 0
210948.0 556544.0 0
216254.0 554992.0 0
221889.0 558020.0 0
226476.0 554931.0 0
236648.0 559217.0 0
241392.0 558311.0 0
245943.0 558471.0 0
250569.0 559541.0 0
257056.0 555203.0 0
255290.0 559302.0 0
266258.0 556798.0 0
274234.0 555272.0 0
271216.0 558903.0 0
277944.0 558790.0 0
283134.0 555050.0 0
288204.0 558801.0 0
292946.0 555775.0 0
298189.0 558514.0 0
303231.0 559179.0 0
308611.0 554434.0 0
307944.0 559422.0 0
314082.0 559348.0 0
318999.0 558985.0 0
323980.0 556518.0 0
329428.0 558901.0 0
333890.0 555294.0 0
339378.0 554651.0 0
337155.0 559343.0 0
347876.0 559277.0 0
353143.0 558451.0 0
358643.0 555518.0 0
363883.0 556391.0 0
372405.0 555181.0 0
367836.0 559566.0 0
377053.0 555089.0 0
382622.0 559221.0 0
387497.0 555301.0 0
391955.0 555810.0 0
396040.0 554752.0 0
394296.0 559052.0 0
401122.0 555030.0 0
398117.0 559091.0 0
411010.0 555661.0 0
415260.0 555038.0 0
420882.0 554655.0 0
428420.0 555691.0 0
430901.0 555315.0 0
435657.0 554899.0 0
441810.0 556787.0 0
446446.0 555284.0 0
447107.0 559538.0 0
451109.0 556253.0 0
456156.0 559111.0 0
461346.0 554784.0 0
466694.0 555756.0 0
470951.0 558051.0 0
477854.0 554786.0 0
482522.0 558578.0 0
488755.0 559097.0 0
493222.0 554628.0 0
497009.0 558725.0 0
3308.61 561312.0 0
8490.49 559827.0 0
7122.08 564511.0 0
12109.0 563269.0 0
16475.2 559733.0 0
17747.1 563995.0 0
25438.2 560733.0 0
22217.3 564546.0 0
33558.8 564044.0 0
37209.4 561360.0 0
41640.3 560345.0 0
47367.1 560583.0 0
53006.7 559840.0 0
58712.7 561744.0 0
63575.2 560105.0 0
68274.3 559686.0 0
67590.8 564445.0 0
72459.3 559702.0 0
72576.5 564306.0 0
81327.8 564681.0 0
87064.8 563556.0 0
92353.0 564663.0 0
101399.0 561543.0 0
107495.0 561628.0 0
113036.0 561536.0 0
121222.0 560934.0 0
125969.0 560255.0 0
132173.0 559897.0 0
137909.0 560005.0 0
137950.0 564669.0 0
141969.0 564598.0 0
142950.0 560543.0 0
146961.0 564694.0 0
152787.0 560600.0 0
159531.0 563754.0 0
167645.0 561454.0 0
163446.0 564201.0 0
172482.0 562889.0 0
178101.0 564475.0 0
182711.0 560967.0 0
188462.0 563521.0 0
194130.0 564231.0 0
199283.0 564064.0 0
204392.0 564241.0 0
212749.0 559664.0 0
209717.0 564598.0 0
214202.0 563357.0 0
217686.0 560902.0 0
222171.0 563497.0 0
226990.0 559980.0 0
226302.0 563917.0 0
231741.0 559720.0 0
235842.0 563933.0 0
240166.0 561658.0 0
243844.0 562626.0 0
260830.0 559606.0 0
266544.0 562130.0 0
272526.0 564508.0 0
278318.0 564577.0 0
283099.0 561736.0 0
289569.0 564273.0 0
293208.0 560666.0 0
298930.0 563906.0 0
303151.0 563156.0 0
307305.0 564533.0 0
317408.0 563934.0 0
322289.0 562094.0 0
327442.0 563626.0 0
333602.0 559576.0 0
332633.0 563732.0 0
338514.0 564622.0 0
342539.0 559691.0 0
346315.0 562588.0 0
350688.0 564382.0 0
357896.0 560679.0 0
362600.0 561216.0 0
373587.0 559788.0 0
378360.0 559936.0 0
377860.0 564226.0 0
387500.0 559837.0 0
383077.0 564349.0 0
387699.0 564587.0 0
390959.0 559669.0 0
390723.0 564597.0 0
394900.0 563705.0 0
400866.0 563401.0 0
406092.0 560506.0 0
412402.0 560182.0 0
418022.0 559765.0 0
423150.0 559724.0 0
428006.0 559610.0 0
428495.0 564384.0 0
432883.0 560149.0 0
437782.0 560409.0 0
441802.0 561432.0 0
451861.0 561420.0 0
461123.0 560424.0 0
466196.0 560359.0 0
470989.0 563184.0 0
476025.0 559761.0 0
488644.0 564402.0 0
492799.0 561716.0 0
497140.0 564529.0 0
1873.34 565525.0 0
2696.41 569299.0 0
8041.68 568872.0 0
12493.8 567848.0 0
16843.6 568798.0 0
22029.4 568791.0 0
25749.6 565268.0 0
29675.4 567009.0 0
25979.1 569113.0 0
34070.1 569367.0 0
36970.2 566326.0 0
38758.6 569797.0 0
41385.4 565551.0 0
46338.8 565840.0 0
47750.0 569624.0 0
51580.9 565195.0 0
56794.4 565947.0 0
62304.2 565547.0 0
69006.2 569345.0 0
73928.1 568777.0 0
76674.9 565433.0 0
77243.6 569353.0 0
80588.8 569759.0 0
92879.1 569656.0 0
97296.1 564812.0 0
102453.0 566687.0 0
106791.0 566773.0 0
111762.0 565486.0 0
113193.0 569587.0 0
117605.0 564978.0 0
122376.0 569600.0 0
123401.0 564805.0 0
128752.0 565306.0 0
131793.0 569523.0 0
134015.0 564786.0 0
136774.0 569079.0 0
143849.0 569692.0 0
152345.0 565504.0 0
149773.0 569286.0 0
156974.0 568651.0 0
162925.0 568678.0 0
166868.0 565972.0 0
173129.0 568562.0 0
183521.0 565657.0 0
186957.0 568914.0 0
192093.0 569117.0 0
197038.0 568408.0 0
202084.0 569029.0 0
207553.0 569694.0 0
213886.0 567669.0 0
217581.0 565278.0 0
220580.0 568344.0 0
225457.0 567803.0 0
230531.0 565189.0 0
236311.0 569390.0 0
240145.0 565668.0 0
245290.0 568687.0 0
250504.0 564918.0 0
256592.0 564908.0 0
262538.0 565265.0 0
267392.0 567594.0 0
277766.0 569571.0 0
283016.0 567289.0 0
289383.0 568988.0 0
294478.0 565133.0 0
293009.0 568677.0 0
297451.0 569597.0 0
303333.0 568226.0 0
312486.0 565450.0 0
319789.0 568252.0 0
324042.0 566645.0 0
328603.0 569129.0 0
334526.0 568882.0 0
343787.0 565287.0 0
348436.0 569490.0 0
354772.0 568471.0 0
358375.0 565044.0 0
358971.0 569003.0 0
363266.0 566082.0 0
367920.0 564916.0 0
373153.0 565420.0 0
376889.0 567874.0 0
380636.0 568561.0 0
386479.0 568900.0 0
391217.0 568035.0 0
396542.0 569435.0 0
400572.0 567761.0 0
404354.0 566788.0 0
409863.0 566007.0 0
416549.0 565619.0 0
423009.0 565360.0 0
426003.0 569895.0 0
433176.0 564956.0 0
430350.0 568683.0 0
438373.0 565684.0 0
444026.0 565328.0 0
448671.0 564833.0 0
447502.0 569430.0 0
452114.0 565393.0 0
452738.0 569581.0 0
457223.0 565213.0 0
462814.0 564830.0 0
461610.0 569041.0 0
466859.0 565696.0 0
470749.0 568906.0 0
476457.0 566061.0 0
482898.0 565278.0 0
480685.0 569773.0 0
492884.0 565394.0 0
2103.86 573480.0 0
7035.09 573886.0 0
12962.0 573233.0 0
19037.6 573434.0 0
24846.1 573619.0 0
30607.7 573564.0 0
40306.3 573883.0 0
43602.0 570505.0 0
47460.8 573826.0 0
51879.8 570838.0 0
58956.1 570432.0 0
64535.2 570742.0 0
71574.0 573581.0 0
77091.2 572929.0 0
86217.0 569831.0 0
82198.6 574701.0 0
92728.7 573778.0 0
98300.2 570070.0 0
97500.0 574684.0 0
103076.0 570656.0 0
102154.0 574490.0 0
106993.0 574003.0 0
109068.0 569934.0 0
112046.0 573781.0 0
117535.0 570682.0 0
122408.0 573165.0 0
126501.0 570183.0 0
132276.0 574110.0 0
140106.0 571413.0 0
137633.0 573981.0 0
142418.0 574534.0 0
147592.0 574028.0 0
152973.0 572830.0 0
160843.0 573161.0 0
167786.0 570513.0 0
165204.0 574389.0 0
171549.0 574406.0 0
178788.0 570587.0 0
183248.0 570025.0 0
185340.0 573999.0 0
190333.0 573336.0 0
195450.0 574031.0 0
201418.0 574442.0 0
212593.0 573488.0 0
217065.0 570489.0 0
223103.0 572707.0 0
229458.0 570235.0 0
232589.0 573851.0 0
240631.0 571277.0 0
243619.0 574910.0 0
248518.0 573745.0 0
252773.0 569774.0 0
257599.0 570289.0 0
255190.0 573882.0 0
259937.0 574383.0 0
262114.0 570009.0 0
266643.0 574621.0 0
272537.0 570573.0 0
276429.0 574075.0 0
281518.0 573262.0 0
285866.0 571007.0 0
292443.0 573455.0 0
303105.0 573495.0 0
308939.0 570006.0 0
307317.0 574635.0 0
314770.0 570860.0 0
318756.0 574897.0 0
323608.0 571296.0 0
327688.0 574705.0 0
332240.0 573328.0 0
338282.0 570768.0 0
337074.0 574482.0 0
342973.0 570581.0 0
347521.0 574913.0 0
353416.0 573795.0 0
358803.0 572847.0 0
362313.0 570063.0 0
366717.0 569880.0 0
363931.0 574401.0 0
371946.0 570724.0 0
368645.0 574094.0 0
372351.0 574692.0 0
377217.0 572123.0 0
383156.0 573508.0 0
392548.0 572786.0 0
396892.0 574828.0 0
401816.0 572797.0 0
407682.0 571493.0 0
413055.0 571454.0 0
417920.0 570707.0 0
417500.0 574583.0 0
421891.0 570420.0 0
423186.0 574390.0 0
430250.0 573551.0 0
435240.0 570573.0 0
438429.0 574309.0 0
441611.0 570516.0 0
445491.0 573623.0 0
449919.0 574235.0 0
457466.0 571080.0 0
454254.0 573885.0 0
461691.0 573380.0 0
465843.0 570143.0 0
466120.0 574850.0 0
471892.0 574881.0 0
476710.0 571926.0 0
481370.0 574447.0 0
485157.0 570283.0 0
491162.0 570152.0 0
497366.0 569982.0 0
497597.0 574982.0 0
3506.44 579178.0 0
12482.1 578727.0 0
17972.1 579566.0 0
23727.5 578900.0 0
29055.7 579061.0 0
33768.0 579139.0 0
35848.4 575162.0 0
38518.1 579914.0 0
43666.3 576382.0 0
47675.4 578585.0 0
51767.6 575681.0 0
56711.8 575437.0 0
61955.2 575604.0 0
66615.8 575263.0 0
66385.6 579853.0 0
71600.1 579463.0 0
84054.8 579428.0 0
88527.5 576073.0 0
94267.5 577635.0 0
99288.5 579445.0 0
108383.0 578921.0 0
113690.0 578528.0 0
117511.0 575293.0 0
122279.0 577554.0 0
118214.0 579636.0 0
127419.0 575185.0 0
131165.0 579149.0 0
135136.0 577543.0 0
139733.0 578495.0 0
145011.0 579077.0 0
152078.0 578981.0 0
157007.0 575478.0 0
161958.0 578268.0 0
167726.0 578506.0 0
176500.0 575040.0 0
174029.0 579783.0 0
180603.0 575109.0 0
179316.0 579194.0 0
184126.0 579588.0 0
189275.0 577554.0 0
193941.0 579972.0 0
198654.0 578446.0 0
206655.0 574973.0 0
212817.0 579857.0 0
218402.0 574847.0 0
217730.0 579325.0 0
222312.0 578056.0 0
227571.0 575576.0 0
231495.0 579271.0 0
238008.0 575140.0 0
236422.0 579816.0 0
241119.0 579857.0 0
247384.0 578699.0 0
251855.0 576816.0 0
256817.0 579285.0 0
262246.0 579351.0 0
272601.0 575462.0 0
277670.0 579557.0 0
282500.0 578743.0 0
286819.0 575605.0 0
298339.0 575452.0 0
303379.0 578526.0 0
308246.0 579351.0 0
312118.0 576099.0 0
320525.0 579740.0 0
323379.0 575735.0 0
333222.0 579395.0 0
341453.0 575700.0 0
343517.0 579538.0 0
347447.0 579723.0 0
351879.0 579222.0 0
357723.0 578124.0 0
363097.0 579401.0 0
368287.0 578923.0 0
373585.0 577918.0 0
378637.0 577050.0 0
383250.0 579660.0 0
388424.0 575029.0 0
392220.0 577763.0 0
397017.0 579415.0 0
402835.0 579499.0 0
407508.0 579804.0 0
408300.0 576185.0 0
412614.0 576379.0 0
416243.0 579197.0 0
421463.0 578984.0 0
426942.0 577864.0 0
433951.0 574763.0 0
435904.0 578353.0 0
442379.0 578495.0 0
449178.0 579799.0 0
458034.0 575626.0 0
454476.0 578605.0 0
458515.0 579811.0 0
461974.0 577562.0 0
465782.0 579694.0 0
470139.0 579839.0 0
476840.0 576480.0 0
487111.0 575318.0 0
492788.0 576018.0 0
490995.0 580055.0 0
8723.02 580607.0 0
8522.4 584800.0 0
13844.6 584324.0 0
23132.5 584406.0 0
28527.6 584225.0 0
33931.4 584040.0 0
38906.0 584839.0 0
43657.0 580924.0 0
42627.0 584808.0 0
47500.0 584459.0 0
51991.0 580234.0 0
52524.4 584630.0 0
56959.6 580842.0 0
61790.4 580311.0 0
62817.0 584767.0 0
67051.5 584242.0 0
78155.0 580125.0 0
82616.4 584502.0 0
87650.0 581122.0 0
87306.6 585064.0 0
92159.8 582894.0 0
97540.7 584871.0 0
103927.0 580521.0 0
102108.0 584171.0 0
107218.0 584702.0 0
113417.0 583974.0 0
121390.0 583022.0 0
126514.0 580097.0 0
129760.0 583210.0 0
135459.0 583228.0 0
141673.0 583324.0 0
147666.0 584742.0 0
152872.0 584348.0 0
157615.0 580758.0 0
162430.0 584347.0 0
168681.0 583990.0 0
173731.0 585077.0 0
178707.0 584219.0 0
188736.0 583466.0 0
193868.0 584920.0 0
198390.0 583479.0 0
202651.0 580094.0 0
203242.0 584263.0 0
207408.0 580093.0 0
207077.0 584479.0 0
211177.0 584618.0 0
216449.0 583864.0 0
222962.0 584334.0 0
226590.0 580236.0 0
228872.0 584375.0 0
233279.0 583613.0 0
237909.0 584448.0 0
243073.0 584608.0 0
248428.0 584210.0 0
251789.0 580822.0 0
254167.0 584621.0 0
259019.0 584279.0 0
262899.0 585300.0 0
266658.0 581913.0 0
272574.0 580179.0 0
270858.0 584431.0 0
276200.0 583974.0 0
282049.0 584833.0 0
287472.0 580861.0 0
293537.0 580069.0 0
298960.0 580321.0 0
297635.0 584627.0 0
305272.0 584095.0 0
315526.0 580437.0 0
311375.0 581519.0 0
318593.0 583737.0 0
326181.0 580184.0 0
322500.0 584745.0 0
328399.0 585106.0 0
339180.0 580086.0 0
336777.0 584013.0 0
340858.0 584012.0 0
345893.0 584128.0 0
357165.0 583401.0 0
361864.0 584235.0 0
372245.0 582502.0 0
377935.0 582679.0 0
388373.0 580786.0 0
393022.0 582890.0 0
398384.0 584824.0 0
406360.0 583644.0 0
411338.0 580735.0 0
411147.0 585011.0 0
415078.0 583890.0 0
420192.0 584366.0 0
426683.0 584394.0 0
431386.0 580672.0 0
432949.0 584525.0 0
438051.0 584091.0 0
443993.0 584614.0 0
453746.0 583531.0 0
458582.0 583903.0 0
462409.0 582279.0 0
466736.0 584471.0 0
471945.0 584165.0 0
475257.0 580205.0 0
477237.0 584351.0 0
480044.0 580094.0 0
482080.0 585048.0 0
485617.0 580947.0 0
489773.0 584312.0 0
496396.0 580400.0 0
3164.64 585838.0 0
6288.15 590037.0 0
18498.9 586562.0 0
22244.6 589867.0 0
28437.9 589320.0 0
33593.1 589465.0 0
38618.2 589448.0 0
43605.1 589522.0 0
48002.6 589552.0 0
52534.4 589461.0 0
57920.4 586128.0 0
62272.0 589827.0 0
67454.1 588585.0 0
73080.0 585464.0 0
78447.6 585915.0 0
76739.0 589914.0 0
81350.6 589385.0 0
85945.5 589033.0 0
91423.4 589261.0 0
97966.7 590242.0 0
102665.0 588564.0 0
111206.0 588552.0 0
115595.0 588682.0 0
117658.0 585219.0 0
120887.0 588899.0 0
125829.0 585841.0 0
131139.0 588779.0 0
137692.0 589327.0 0
143151.0 589467.0 0
156909.0 585197.0 0
153147.0 588239.0 0
157271.0 589852.0 0
166039.0 588575.0 0
170929.0 588943.0 0
176350.0 589884.0 0
183463.0 585144.0 0
181024.0 588364.0 0
186176.0 589958.0 0
191509.0 588344.0 0
196661.0 589190.0 0
200989.0 587189.0 0
208501.0 589289.0 0
214309.0 588656.0 0
218880.0 587774.0 0
222367.0 590113.0 0
227009.0 589156.0 0
232760.0 588684.0 0
240809.0 588874.0 0
252581.0 589930.0 0
257357.0 588270.0 0
267066.0 587670.0 0
272352.0 588649.0 0
277512.0 588575.0 0
287433.0 585471.0 0
288959.0 590150.0 0
291742.0 585575.0 0
295303.0 589716.0 0
301351.0 588764.0 0
309529.0 585334.0 0
307340.0 589738.0 0
313449.0 585172.0 0
317704.0 588216.0 0
325796.0 589148.0 0
332787.0 585462.0 0
336433.0 588513.0 0
342264.0 589336.0 0
348072.0 589443.0 0
352075.0 585314.0 0
357668.0 588820.0 0
363319.0 589102.0 0
367454.0 585045.0 0
372483.0 587780.0 0
377848.0 588611.0 0
383692.0 585795.0 0
388778.0 585465.0 0
393096.0 588614.0 0
403675.0 588896.0 0
408395.0 586788.0 0
413718.0 588765.0 0
418173.0 590030.0 0
422379.0 589155.0 0
432620.0 588776.0 0
436749.0 588904.0 0
442767.0 590077.0 0
447200.0 589161.0 0
448947.0 585426.0 0
451830.0 589306.0 0
455975.0 587745.0 0
461898.0 589108.0 0
468644.0 589838.0 0
474663.0 589347.0 0
479977.0 589103.0 0
486421.0 589360.0 0
493060.0 586163.0 0
497152.0 586336.0 0
2175.03 591083.0 0
6215.16 594590.0 0
11623.7 590238.0 0
17448.0 590931.0 0
16312.2 595299.0 0
20717.7 594648.0 0
25578.4 593792.0 0
32124.5 594737.0 0
37642.7 594422.0 0
42833.1 594598.0 0
48297.0 594415.0 0
52981.3 594640.0 0
57041.9 590510.0 0
57812.3 594722.0 0
62379.9 594401.0 0
67147.5 594186.0 0
71648.8 591042.0 0
73089.9 595195.0 0
77209.5 593868.0 0
81019.2 594459.0 0
86666.4 594162.0 0
98432.2 595378.0 0
106937.0 590645.0 0
102834.0 593338.0 0
111354.0 593904.0 0
116950.0 593186.0 0
125903.0 590988.0 0
126454.0 594942.0 0
134457.0 592781.0 0
145984.0 594863.0 0
149156.0 590380.0 0
152672.0 595039.0 0
161787.0 590708.0 0
158605.0 594394.0 0
165933.0 593784.0 0
171423.0 594131.0 0
182920.0 595064.0 0
192497.0 592973.0 0
202497.0 592013.0 0
212533.0 594271.0 0
218064.0 592417.0 0
222767.0 594978.0 0
228434.0 594546.0 0
233434.0 593905.0 0
237174.0 591853.0 0
241675.0 594141.0 0
246446.0 590251.0 0
256972.0 592786.0 0
262089.0 590593.0 0
268517.0 593629.0 0
275321.0 592475.0 0
278332.0 595277.0 0
282678.0 591846.0 0
287371.0 594832.0 0
292402.0 595129.0 0
298878.0 595118.0 0
303793.0 593069.0 0
307430.0 595208.0 0
312838.0 590240.0 0
312084.0 595095.0 0
316760.0 593390.0 0
321209.0 595016.0 0
321541.0 590624.0 0
331431.0 590342.0 0
327306.0 595170.0 0
338018.0 592859.0 0
342569.0 594796.0 0
347167.0 594315.0 0
352557.0 591003.0 0
356962.0 594551.0 0
361879.0 593723.0 0
366148.0 594471.0 0
368004.0 590500.0 0
370569.0 594813.0 0
376152.0 594141.0 0
382053.0 592456.0 0
387585.0 590452.0 0
391764.0 594576.0 0
397957.0 591203.0 0
396561.0 595266.0 0
406923.0 593963.0 0
409201.0 590270.0 0
411735.0 594018.0 0
416951.0 594503.0 0
422603.0 594509.0 0
427547.0 591061.0 0
432346.0 594818.0 0
437909.0 593223.0 0
448024.0 593495.0 0
455818.0 593500.0 0
465881.0 594113.0 0
477277.0 594227.0 0
481796.0 593114.0 0
492948.0 590514.0 0
498365.0 590617.0 0
497017.0 594999.0 0
2132.23 595389.0 0
4416.28 599567.0 0
10917.4 596990.0 0
17519.3 599388.0 0
22697.4 599644.0 0
27957.7 598202.0 0
38231.8 599726.0 0
43383.1 599544.0 0
48102.5 599806.0 0
52500.0 599572.0 0
56961.2 599604.0 0
61980.6 598678.0 0
66676.2 599379.0 0
71744.7 599951.0 0
77009.3 597901.0 0
82500.0 599725.0 0
87405.3 599490.0 0
92814.4 595757.0 0
97500.0 599563.0 0
106553.0 596521.0 0
102533.0 599276.0 0
110686.0 599679.0 0
116746.0 598830.0 0
121841.0 595718.0 0
126405.0 599082.0 0
130918.0 595511.0 0
139171.0 595377.0 0
143280.0 599237.0 0
162258.0 596997.0 0
158546.0 599186.0 0
166267.0 599107.0 0
171865.0 599972.0 0
177108.0 596124.0 0
180919.0 599601.0 0
188192.0 595781.0 0
185183.0 599974.0 0
192373.0 599257.0 0
197234.0 595936.0 0
202212.0 597407.0 0
206933.0 596363.0 0
211574.0 599941.0 0
217258.0 598534.0 0
228545.0 599978.0 0
233593.0 598689.0 0
237309.0 595917.0 0
240866.0 599873.0 0
247021.0 596708.0 0
252616.0 595414.0 0
253676.0 600360.0 0
258083.0 597761.0 0
263053.0 596182.0 0
269768.0 599277.0 0
273691.0 596693.0 0
283844.0 598201.0 0
289216.0 599945.0 0
295332.0 600177.0 0
303749.0 597306.0 0
308050.0 599206.0 0
311805.0 599473.0 0
316559.0 597943.0 0
322625.0 599615.0 0
333743.0 595573.0 0
331960.0 599915.0 0
338818.0 597390.0 0
347137.0 599192.0 0
352040.0 595822.0 0
355805.0 598870.0 0
360441.0 598638.0 0
366875.0 599597.0 0
373339.0 599789.0 0
379693.0 599340.0 0
386471.0 595429.0 0
383142.0 596586.0 0
388427.0 599837.0 0
397344.0 598938.0 0
401606.0 595691.0 0
406766.0 599548.0 0
413545.0 599919.0 0
421685.0 599219.0 0
427371.0 596368.0 0
430341.0 599734.0 0
436931.0 599495.0 0
442643.0 595674.0 0
447960.0 599628.0 0
451846.0 596710.0 0
452813.0 600314.0 0
457694.0 599660.0 0
461284.0 595609.0 0
462432.0 599542.0 0
466505.0 598913.0 0
471616.0 595503.0 0
476473.0 598446.0 0
480106.0 596606.0 0
482202.0 600059.0 0
486551.0 596161.0 0
491937.0 595666.0 0
491248.0 600200.0 0
2631.18 604514.0 0
8226.53 601292.0 0
7019.2 604589.0 0
14033.2 601443.0 0
11303.1 604906.0 0
16614.0 604765.0 0
21027.8 604545.0 0
27710.0 603967.0 0
32712.2 600454.0 0
34067.0 604928.0 0
38294.5 604842.0 0
42515.0 604488.0 0
46529.1 604522.0 0
51186.6 604395.0 0
56014.3 604195.0 0
61509.2 604583.0 0
67598.9 604208.0 0
73253.5 604893.0 0
78587.4 603519.0 0
83235.0 603752.0 0
87403.3 604353.0 0
91892.5 601597.0 0
97756.0 604304.0 0
106392.0 600556.0 0
102044.0 603809.0 0
107500.0 604494.0 0
112928.0 604169.0 0
122047.0 601009.0 0
118130.0 604697.0 0
123282.0 605470.0 0
127112.0 603488.0 0
131212.0 600959.0 0
136383.0 600801.0 0
135956.0 605337.0 0
141133.0 603987.0 0
148904.0 600439.0 0
152355.0 605129.0 0
154238.0 600557.0 0
162298.0 601593.0 0
158323.0 605264.0 0
163583.0 605438.0 0
167654.0 603970.0 0
177199.0 602040.0 0
180956.0 604222.0 0
192303.0 605247.0 0
196765.0 601388.0 0
201719.0 602529.0 0
207088.0 601270.0 0
206084.0 605260.0 0
210677.0 605017.0 0
216203.0 604586.0 0
223112.0 600668.0 0
231822.0 603505.0 0
236746.0 601494.0 0
235943.0 604775.0 0
240537.0 605555.0 0
249173.0 601604.0 0
244929.0 603143.0 0
252440.0 605246.0 0
257725.0 603736.0 0
260785.0 600802.0 0
265039.0 601414.0 0
261954.0 604510.0 0
270048.0 604425.0 0
275104.0 605688.0 0
277996.0 600725.0 0
282736.0 603046.0 0
286645.0 604218.0 0
292043.0 605161.0 0
300590.0 600767.0 0
304916.0 600869.0 0
303353.0 604521.0 0
311577.0 604689.0 0
317698.0 603762.0 0
323249.0 604460.0 0
327077.0 601153.0 0
331155.0 604422.0 0
337293.0 603182.0 0
342579.0 600538.0 0
351776.0 600981.0 0
347835.0 603543.0 0
357512.0 603391.0 0
362587.0 603020.0 0
366354.0 604875.0 0
371166.0 605383.0 0
376854.0 604732.0 0
381633.0 605423.0 0
384296.0 602229.0 0
388318.0 605025.0 0
393349.0 600928.0 0
396658.0 604554.0 0
401192.0 601846.0 0
408200.0 605511.0 0
416946.0 605102.0 0
418747.0 601119.0 0
422037.0 603981.0 0
425608.0 600520.0 0
427433.0 605425.0 0
432330.0 603793.0 0
442769.0 600621.0 0
450660.0 604213.0 0
461572.0 603833.0 0
466814.0 605401.0 0
470894.0 601738.0 0
476174.0 603284.0 0
481380.0 605417.0 0
486801.0 601699.0 0
493748.0 603771.0 0
497255.0 600692.0 0
497972.0 605407.0 0
9084.02 609080.0 0
13803.5 609265.0 0
18869.5 609733.0 0
23015.8 608033.0 0
27222.0 610129.0 0
32638.5 609307.0 0
37662.3 609447.0 0
42476.8 609722.0 0
47793.2 609311.0 0
52900.8 609125.0 0
57365.0 608489.0 0
64977.3 608915.0 0
70093.9 609302.0 0
76477.5 609839.0 0
82959.5 608025.0 0
91549.3 606190.0 0
88481.3 609421.0 0
95160.9 607318.0 0
99139.0 609327.0 0
103501.0 607754.0 0
106401.0 610317.0 0
111225.0 609229.0 0
122052.0 609097.0 0
126147.0 609587.0 0
131032.0 606859.0 0
137109.0 609904.0 0
142716.0 610025.0 0
146896.0 605999.0 0
147023.0 610139.0 0
153086.0 610315.0 0
157710.0 610603.0 0
162235.0 609626.0 0
167484.0 609238.0 0
172960.0 606439.0 0
178094.0 606317.0 0
177354.0 610256.0 0
181207.0 608415.0 0
185779.0 605691.0 0
189361.0 610426.0 0
197685.0 605978.0 0
195445.0 610325.0 0
201329.0 609925.0 0
207549.0 610080.0 0
213061.0 609524.0 0
221488.0 605906.0 0
223741.0 609776.0 0
226948.0 605749.0 0
232009.0 608777.0 0
236888.0 608556.0 0
246220.0 608243.0 0
251030.0 609666.0 0
256634.0 610098.0 0
262707.0 608565.0 0
267786.0 609264.0 0
279597.0 606151.0 0
278805.0 610566.0 0
283431.0 606473.0 0
287440.0 609651.0 0
293574.0 610471.0 0
298280.0 605856.0 0
297784.0 610658.0 0
302592.0 608942.0 0
306789.0 607327.0 0
313018.0 609417.0 0
317873.0 609863.0 0
322812.0 610389.0 0
327111.0 608394.0 0
332631.0 609418.0 0
338088.0 609637.0 0
343292.0 606224.0 0
346614.0 610238.0 0
351586.0 606067.0 0
355882.0 608495.0 0
362230.0 609074.0 0
368594.0 610122.0 0
374018.0 609969.0 0
379478.0 609874.0 0
384488.0 608216.0 0
392670.0 605554.0 0
388348.0 609692.0 0
392600.0 609376.0 0
402886.0 606997.0 0
398480.0 608749.0 0
406297.0 610591.0 0
412840.0 606486.0 0
411234.0 610493.0 0
422676.0 609425.0 0
433587.0 610001.0 0
436802.0 605627.0 0
442167.0 605797.0 0
446998.0 607059.0 0
456025.0 605906.0 0
458657.0 610349.0 0
463459.0 609933.0 0
468542.0 609640.0 0
471809.0 606857.0 0
476816.0 609274.0 0
486503.0 606375.0 0
491642.0 608440.0 0
497271.0 610110.0 0
3533.22 610610.0 0
1390.69 615035.0 0
6444.7 615566.0 0
11424.8 614173.0 0
17286.5 614889.0 0
22347.7 614271.0 0
33778.8 614657.0 0
38865.3 614636.0 0
43320.4 614527.0 0
47846.7 614531.0 0
52616.5 613857.0 0
61021.2 611257.0 0
57500.0 614661.0 0
63004.1 615203.0 0
67590.5 614095.0 0
72332.5 613824.0 0
81715.7 614654.0 0
88335.7 614117.0 0
93944.8 612324.0 0
98478.0 613184.0 0
102292.0 613884.0 0
106877.0 614155.0 0
112590.0 615148.0 0
117464.0 611045.0 0
122749.0 614109.0 0
127525.0 614165.0 0
132500.0 612482.0 0
131123.0 615956.0 0
134888.0 614322.0 0
140294.0 615716.0 0
148969.0 613951.0 0
154432.0 614416.0 0
158827.0 615011.0 0
163233.0 614328.0 0
167627.0 614371.0 0
173011.0 612409.0 0
177350.0 614955.0 0
181434.0 615716.0 0
184188.0 612159.0 0
192422.0 614779.0 0
197407.0 614947.0 0
208845.0 615582.0 0
214114.0 614659.0 0
218626.0 610810.0 0
223724.0 615482.0 0
227652.0 611899.0 0
232008.0 614130.0 0
236378.0 613123.0 0
241037.0 611244.0 0
241042.0 615338.0 0
246070.0 614133.0 0
251863.0 614575.0 0
260825.0 614150.0 0
265954.0 614309.0 0
273247.0 610926.0 0
272740.0 615859.0 0
276757.0 614888.0 0
282945.0 611323.0 0
280956.0 614497.0 0
285749.0 615329.0 0
291209.0 614526.0 0
296512.0 615197.0 0
302089.0 613879.0 0
306935.0 611433.0 0
310898.0 613014.0 0
306820.0 615506.0 0
315831.0 615061.0 0
321221.0 614693.0 0
326211.0 613572.0 0
329791.0 611631.0 0
332094.0 613971.0 0
336884.0 615553.0 0
342754.0 611309.0 0
342235.0 615471.0 0
346448.0 614281.0 0
351190.0 611202.0 0
357472.0 612856.0 0
361507.0 615597.0 0
366624.0 614800.0 0
372055.0 615116.0 0
384602.0 613942.0 0
390647.0 613462.0 0
395927.0 613119.0 0
401790.0 611643.0 0
400584.0 615698.0 0
404427.0 614837.0 0
408855.0 614941.0 0
416896.0 610793.0 0
413824.0 615527.0 0
418362.0 615752.0 0
423408.0 614466.0 0
428036.0 611126.0 0
431602.0 614511.0 0
436035.0 614732.0 0
438975.0 610764.0 0
441309.0 615448.0 0
444069.0 610775.0 0
448932.0 611188.0 0
446298.0 615103.0 0
453820.0 611176.0 0
451221.0 615440.0 0
457577.0 615026.0 0
462792.0 615343.0 0
467796.0 614151.0 0
471776.0 611440.0 0
473400.0 615252.0 0
478926.0 614675.0 0
482396.0 610735.0 0
484169.0 615433.0 0
487164.0 611622.0 0
488525.0 615592.0 0
493086.0 614271.0 0
498189.0 614532.0 0
2803.69 618874.0 0
8307.77 620238.0 0
13909.7 619442.0 0
18947.7 619571.0 0
23216.2 618659.0 0
27864.0 616156.0 0
32219.4 619310.0 0
37366.8 619717.0 0
40871.3 619298.0 0
45149.8 619934.0 0
50350.8 619243.0 0
55927.3 619819.0 0
60763.4 618985.0 0
65888.6 619197.0 0
76152.6 615841.0 0
71980.9 619275.0 0
78715.1 619957.0 0
86386.9 618122.0 0
82549.3 620473.0 0
91565.4 618058.0 0
97849.0 617771.0 0
103559.0 620569.0 0
108316.0 618207.0 0
114224.0 620393.0 0
117750.0 616892.0 0
118186.0 620547.0 0
121829.0 618447.0 0
126591.0 619249.0 0
131715.0 620308.0 0
136079.0 619157.0 0
145728.0 619029.0 0
152509.0 618107.0 0
157111.0 619416.0 0
161459.0 619417.0 0
167027.0 620336.0 0
171373.0 616727.0 0
173101.0 620800.0 0
177876.0 619841.0 0
182259.0 619781.0 0
187065.0 617589.0 0
192672.0 619895.0 0
198373.0 619112.0 0
202891.0 616288.0 0
210823.0 619526.0 0
218746.0 616158.0 0
215552.0 620242.0 0
221110.0 620235.0 0
228203.0 616090.0 0
231147.0 618633.0 0
236736.0 618610.0 0
242826.0 618666.0 0
248450.0 619493.0 0
254180.0 619748.0 0
256860.0 615773.0 0
262479.0 619207.0 0
269285.0 620092.0 0
279865.0 618377.0 0
275558.0 619338.0 0
283917.0 620480.0 0
289439.0 619442.0 0
294227.0 619532.0 0
298654.0 620328.0 0
302678.0 618449.0 0
306221.0 619717.0 0
311366.0 618778.0 0
317645.0 619268.0 0
322401.0 619990.0 0
327256.0 618267.0 0
332473.0 617873.0 0
340590.0 618883.0 0
344585.0 618850.0 0
350378.0 616027.0 0
348305.0 619693.0 0
355812.0 618545.0 0
364824.0 619417.0 0
369519.0 619752.0 0
374238.0 619125.0 0
378058.0 615709.0 0
381968.0 618825.0 0
386936.0 619459.0 0
391890.0 618524.0 0
397044.0 618222.0 0
401149.0 619916.0 0
405894.0 619233.0 0
411223.0 619711.0 0
416370.0 620026.0 0
421517.0 618414.0 0
427691.0 616023.0 0
425797.0 620275.0 0
431406.0 619677.0 0
437085.0 619580.0 0
448323.0 619947.0 0
454362.0 619275.0 0
459684.0 619607.0 0
463699.0 619453.0 0
467863.0 619246.0 0
472314.0 619830.0 0
476470.0 618816.0 0
481163.0 618984.0 0
486713.0 619570.0 0
490997.0 618865.0 0
496411.0 618584.0 0
2385.04 623937.0 0
6761.43 624867.0 0
12089.6 625286.0 0
17303.5 624068.0 0
22190.6 623433.0 0
27748.3 621480.0 0
27199.9 625798.0 0
31720.9 623981.0 0
36689.8 624852.0 0
42176.0 624394.0 0
47657.5 624106.0 0
52772.5 624724.0 0
57786.4 624389.0 0
62633.3 623541.0 0
66850.2 623520.0 0
75298.1 624042.0 0
80288.5 625693.0 0
86495.8 624067.0 0
94515.5 623146.0 0
99659.0 624089.0 0
105153.0 624759.0 0
108561.0 622883.0 0
113299.0 625361.0 0
117696.0 623691.0 0
122401.0 622941.0 0
127103.0 624505.0 0
131322.0 624488.0 0
135505.0 623722.0 0
140452.0 621841.0 0
148458.0 624225.0 0
153809.0 623084.0 0
158456.0 624486.0 0
162500.0 624882.0 0
170756.0 624590.0 0
176132.0 624496.0 0
180925.0 624249.0 0
185043.0 622590.0 0
189980.0 625313.0 0
196582.0 623920.0 0
201778.0 621966.0 0
206669.0 620887.0 0
211160.0 624142.0 0
216925.0 625838.0 0
222131.0 625190.0 0
226661.0 621501.0 0
232439.0 623602.0 0
237322.0 623940.0 0
242135.0 624202.0 0
247861.0 625423.0 0
253420.0 625023.0 0
258314.0 623127.0 0
262731.0 624986.0 0
273610.0 625317.0 0
278791.0 623020.0 0
282345.0 624619.0 0
286823.0 625482.0 0
292749.0 624277.0 0
303130.0 622855.0 0
308025.0 623391.0 0
313161.0 624811.0 0
318743.0 623966.0 0
325881.0 624353.0 0
330619.0 621873.0 0
336048.0 621534.0 0
342198.0 623669.0 0
347163.0 625727.0 0
351421.0 623513.0 0
359055.0 623871.0 0
364037.0 624214.0 0
368423.0 624182.0 0
373107.0 623334.0 0
378610.0 622234.0 0
383767.0 622329.0 0
387220.0 624598.0 0
391448.0 623582.0 0
397500.0 623696.0 0
403482.0 625005.0 0
408303.0 623392.0 0
412530.0 624685.0 0
416710.0 624571.0 0
421354.0 623434.0 0
428602.0 624910.0 0
434758.0 624193.0 0
442522.0 621001.0 0
444392.0 625524.0 0
447755.0 624592.0 0
452148.0 623872.0 0
457036.0 623256.0 0
461989.0 624940.0 0
467167.0 623897.0 0
471519.0 623897.0 0
476738.0 624174.0 0
483484.0 623697.0 0
488804.0 623631.0 0
493231.0 622685.0 0
497707.0 623280.0 0
2460.38 628770.0 0
7827.84 629790.0 0
13623.7 630420.0 0
16985.3 628060.0 0
23405.2 628672.0 0
28680.0 630248.0 0
33563.8 628923.0 0
38593.6 629307.0 0
42906.3 630010.0 0
47171.0 629088.0 0
52165.0 630156.0 0
56948.0 628851.0 0
62000.4 628092.0 0
65929.8 629278.0 0
70327.8 626585.0 0
73888.7 629783.0 0
77500.0 629702.0 0
82975.7 629867.0 0
91464.0 627752.0 0
87343.5 629938.0 0
96902.5 628639.0 0
102600.0 628104.0 0
108498.0 628498.0 0
117242.0 628244.0 0
122659.0 628670.0 0
128286.0 629280.0 0
133632.0 628614.0 0
138754.0 628634.0 0
143082.0 626569.0 0
147161.0 629327.0 0
152866.0 628964.0 0
158671.0 628964.0 0
166287.0 626460.0 0
163313.0 630411.0 0
166954.0 630691.0 0
170706.0 629340.0 0
175954.0 629450.0 0
181344.0 629841.0 0
184565.0 626416.0 0
186515.0 630099.0 0
196455.0 629762.0 0
201074.0 627123.0 0
206012.0 626115.0 0
205115.0 631034.0 0
210221.0 629802.0 0
215265.0 630425.0 0
219858.0 630096.0 0
227581.0 626150.0 0
224984.0 629564.0 0
230893.0 629557.0 0
237019.0 628840.0 0
253530.0 630372.0 0
258376.0 628290.0 0
263490.0 629947.0 0
267327.0 626099.0 0
274183.0 630657.0 0
279555.0 628698.0 0
285143.0 630911.0 0
289467.0 629596.0 0
293557.0 629463.0 0
298524.0 625992.0 0
297501.0 630841.0 0
303388.0 629724.0 0
308866.0 628228.0 0
313493.0 630266.0 0
318177.0 629006.0 0
322037.0 627152.0 0
321638.0 630340.0 0
325908.0 630137.0 0
330909.0 627227.0 0
335282.0 628810.0 0
337427.0 626175.0 0
339415.0 630391.0 0
344721.0 629468.0 0
350431.0 629355.0 0
356546.0 628863.0 0
361508.0 627880.0 0
366597.0 629511.0 0
377380.0 626524.0 0
372937.0 629067.0 0
382685.0 627600.0 0
377940.0 630517.0 0
388429.0 629115.0 0
393604.0 628047.0 0
398954.0 629562.0 0
404287.0 630483.0 0
408925.0 628140.0 0
413969.0 629330.0 0
419019.0 628445.0 0
423694.0 627871.0 0
427621.0 630068.0 0
432789.0 629188.0 0
436025.0 628106.0 0
439696.0 626013.0 0
443552.0 629614.0 0
447346.0 628157.0 0
451972.0 629553.0 0
457493.0 628145.0 0
462407.0 630882.0 0
467869.0 628978.0 0
472153.0 627572.0 0
475812.0 629996.0 0
480485.0 628275.0 0
485696.0 629346.0 0
491812.0 627541.0 0
497330.0 628161.0 0
2995.62 634189.0 0
8326.6 635940.0 0
13747.0 635370.0 0
19372.4 632852.0 0
25064.0 633089.0 0
29486.2 634933.0 0
34924.0 634000.0 0
40145.0 633844.0 0
43500.6 635659.0 0
46623.1 633927.0 0
51093.4 635278.0 0
55633.2 634699.0 0
60381.6 632823.0 0
66013.0 634151.0 0
72217.0 634721.0 0
81334.7 633410.0 0
77698.2 634190.0 0
85674.0 634668.0 0
91230.9 633176.0 0
97645.8 634188.0 0
103170.0 633762.0 0
109162.0 634822.0 0
113474.0 631195.0 0
115188.0 634992.0 0
117750.0 632874.0 0
121504.0 633967.0 0
126727.0 634554.0 0
132577.0 635616.0 0
136685.0 632538.0 0
142378.0 631751.0 0
147053.0 634826.0 0
154153.0 635414.0 0
159749.0 634410.0 0
164399.0 634827.0 0
168616.0 633754.0 0
173380.0 633922.0 0
178253.0 634507.0 0
182367.0 634420.0 0
186968.0 635269.0 0
191361.0 631564.0 0
197453.0 634846.0 0
200805.0 631480.0 0
203025.0 635291.0 0
207648.0 634571.0 0
212949.0 634397.0 0
217561.0 634107.0 0
221977.0 634703.0 0
227150.0 634750.0 0
232771.0 635166.0 0
237794.0 634170.0 0
242062.0 631402.0 0
244762.0 635669.0 0
247813.0 631446.0 0
251380.0 635886.0 0
259334.0 632588.0 0
255908.0 634572.0 0
262472.0 634472.0 0
269031.0 631213.0 0
272458.0 634743.0 0
277534.0 634390.0 0
282443.0 634722.0 0
289234.0 633884.0 0
294386.0 634363.0 0
299512.0 634414.0 0
304376.0 635598.0 0
307770.0 632445.0 0
311486.0 635202.0 0
317122.0 634271.0 0
322315.0 633916.0 0
326970.0 635562.0 0
332891.0 633461.0 0
338154.0 635111.0 0
342566.0 635356.0 0
347382.0 633908.0 0
351942.0 634201.0 0
356859.0 634870.0 0
362071.0 633337.0 0
366658.0 634936.0 0
371238.0 634383.0 0
376795.0 635146.0 0
381833.0 633630.0 0
386960.0 633898.0 0
392271.0 633486.0 0
402295.0 633894.0 0
398031.0 635567.0 0
406195.0 635532.0 0
410860.0 633171.0 0
415802.0 634160.0 0
421530.0 633612.0 0
427269.0 635340.0 0
433129.0 635576.0 0
438339.0 631939.0 0
443370.0 635808.0 0
447340.0 632313.0 0
451300.0 635135.0 0
456950.0 633943.0 0
466309.0 635454.0 0
471447.0 633081.0 0
476818.0 636001.0 0
481620.0 632798.0 0
490342.0 633417.0 0
496749.0 633985.0 0
2068.71 639853.0 0
5846.74 639551.0 0
11589.2 640100.0 0
18189.1 638927.0 0
23101.3 637187.0 0
28660.4 639583.0 0
32594.4 637852.0 0
37790.8 637456.0 0
42449.5 638989.0 0
46803.5 639698.0 0
50633.2 640203.0 0
55790.6 639524.0 0
62130.6 639199.0 0
67991.1 638764.0 0
71863.0 639974.0 0
76124.4 640273.0 0
80884.6 637901.0 0
85891.8 640155.0 0
93959.7 638229.0 0
99538.5 639273.0 0
104662.0 638761.0 0
109277.0 640641.0 0
113758.0 638677.0 0
118458.0 637747.0 0
123357.0 638781.0 0
128042.0 639625.0 0
132038.0 640368.0 0
136043.0 639628.0 0
139729.0 636261.0 0
143725.0 638727.0 0
147805.0 640139.0 0
152576.0 641021.0 0
157829.0 640224.0 0
162569.0 638791.0 0
167968.0 639100.0 0
173137.0 638431.0 0
177533.0 639565.0 0
182792.0 638964.0 0
188509.0 640752.0 0
192173.0 636782.0 0
193033.0 641178.0 0
196024.0 639086.0 0
200599.0 639808.0 0
206041.0 639473.0 0
212066.0 640060.0 0
217551.0 638651.0 0
221978.0 640181.0 0
226581.0 639912.0 0
231372.0 640220.0 0
236693.0 639362.0 0
241108.0 636357.0 0
241684.0 640060.0 0
247456.0 640758.0 0
253547.0 640489.0 0
258059.0 638552.0 0
263014.0 638757.0 0
267527.0 636379.0 0
272169.0 639359.0 0
280060.0 639180.0 0
284322.0 639182.0 0
288308.0 638737.0 0
292893.0 638999.0 0
297444.0 638594.0 0
301920.0 639994.0 0
307500.0 639511.0 0
313247.0 640146.0 0
318185.0 639592.0 0
322502.0 638205.0 0
326433.0 640929.0 0
336236.0 638389.0 0
331800.0 639770.0 0
340228.0 639570.0 0
346714.0 639896.0 0
352867.0 638836.0 0
357761.0 640071.0 0
363284.0 639035.0 0
369254.0 639325.0 0
373633.0 638089.0 0
376832.0 639828.0 0
382181.0 639865.0 0
388474.0 638676.0 0
393417.0 638596.0 0
397887.0 640865.0 0
403257.0 640875.0 0
412700.0 637692.0 0
408882.0 640051.0 0
417355.0 638988.0 0
422626.0 639790.0 0
427981.0 640676.0 0
437447.0 639764.0 0
448024.0 639500.0 0
453264.0 639493.0 0
458120.0 640222.0 0
461496.0 636359.0 0
463391.0 640431.0 0
468015.0 640194.0 0
472426.0 639796.0 0
481085.0 639823.0 0
484976.0 636530.0 0
489596.0 639216.0 0
497034.0 640126.0 0
2347.3 644518.0 0
7741.47 643394.0 0
12516.5 644785.0 0
17676.7 644474.0 0
23841.1 643044.0 0
29193.3 644461.0 0
32587.8 641993.0 0
37124.1 641612.0 0
41978.9 644300.0 0
47920.1 644612.0 0
52668.5 644218.0 0
57461.4 644802.0 0
62988.1 645512.0 0
67888.5 643529.0 0
72935.2 644226.0 0
77750.7 644770.0 0
81829.3 642898.0 0
85751.0 645408.0 0
90752.7 643164.0 0
96821.2 644476.0 0
101961.0 643732.0 0
106520.0 644891.0 0
111546.0 645442.0 0
116707.0 643067.0 0
124942.0 644604.0 0
130374.0 645096.0 0
133573.0 643493.0 0
138036.0 644372.0 0
143459.0 643406.0 0
148945.0 645492.0 0
154497.0 644689.0 0
158073.0 645876.0 0
162043.0 643437.0 0
166742.0 645326.0 0
172757.0 643933.0 0
179040.0 644711.0 0
184240.0 643980.0 0
188580.0 645460.0 0
192696.0 645116.0 0
197401.0 644341.0 0
202866.0 644808.0 0
208100.0 644250.0 0
213253.0 646040.0 0
218336.0 643791.0 0
222696.0 644054.0 0
226813.0 644784.0 0
232132.0 645446.0 0
237482.0 644798.0 0
242653.0 644680.0 0
252373.0 645421.0 0
257746.0 643965.0 0
262823.0 643444.0 0
267397.0 641681.0 0
272003.0 645386.0 0
276052.0 641974.0 0
279939.0 644533.0 0
285547.0 643690.0 0
292073.0 644463.0 0
298472.0 643976.0 0
303926.0 644185.0 0
308807.0 645271.0 0
312999.0 644312.0 0
317900.0 645431.0 0
321899.0 642101.0 0
324657.0 645827.0 0
329748.0 645270.0 0
335675.0 644377.0 0
342028.0 644599.0 0
351884.0 644090.0 0
347270.0 645693.0 0
357206.0 645220.0 0
363352.0 646141.0 0
369155.0 644678.0 0
373417.0 642235.0 0
377857.0 644001.0 0
387164.0 644269.0 0
393608.0 644252.0 0
399657.0 645958.0 0
404675.0 646120.0 0
409075.0 644964.0 0
413532.0 642375.0 0
418559.0 643853.0 0
423608.0 645301.0 0
432649.0 642372.0 0
428866.0 645689.0 0
437691.0 645091.0 0
442822.0 641433.0 0
441876.0 645920.0 0
446619.0 644490.0 0
451330.0 643807.0 0
456046.0 644897.0 0
460993.0 645428.0 0
465543.0 644477.0 0
470300.0 644461.0 0
476833.0 641938.0 0
481410.0 645524.0 0
485288.0 641458.0 0
487439.0 645830.0 0
492609.0 643853.0 0
497638.0 645412.0 0
2107.09 648952.0 0
6181.92 647803.0 0
10477.8 649043.0 0
15313.5 649187.0 0
21165.0 648999.0 0
26891.9 648627.0 0
35148.9 646245.0 0
31983.0 650661.0 0
37900.3 650464.0 0
42162.8 649573.0 0
46757.4 649758.0 0
52438.9 648938.0 0
56235.7 650178.0 0
60060.1 649924.0 0
65168.1 650436.0 0
69700.9 648165.0 0
75164.8 649554.0 0
81428.1 648866.0 0
87201.4 650286.0 0
92810.0 648944.0 0
98071.0 649692.0 0
102952.0 648663.0 0
108311.0 649616.0 0
114354.0 650275.0 0
119641.0 648072.0 0
124474.0 651100.0 0
129304.0 649117.0 0
133810.0 648948.0 0
137668.0 649003.0 0
141925.0 648336.0 0
147613.0 651188.0 0
153680.0 648743.0 0
158051.0 650096.0 0
162582.0 648626.0 0
168397.0 649529.0 0
173720.0 649263.0 0
177642.0 649755.0 0
182534.0 649064.0 0
187161.0 648836.0 0
192525.0 649580.0 0
197331.0 648602.0 0
203399.0 650381.0 0
208241.0 648940.0 0
212191.0 650850.0 0
217026.0 650602.0 0
221533.0 647997.0 0
226056.0 649625.0 0
230852.0 650656.0 0
236795.0 650757.0 0
242511.0 649723.0 0
247333.0 647107.0 0
247341.0 651503.0 0
251200.0 650194.0 0
255912.0 649228.0 0
262232.0 649582.0 0
266199.0 647177.0 0
270277.0 650964.0 0
277040.0 650020.0 0
282736.0 648231.0 0
287722.0 649351.0 0
293237.0 650509.0 0
301576.0 648814.0 0
307325.0 650758.0 0
312829.0 648914.0 0
324088.0 650364.0 0
330761.0 649110.0 0
327804.0 649226.0 0
334152.0 649630.0 0
338877.0 649294.0 0
344537.0 650361.0 0
352207.0 650337.0 0
358865.0 650837.0 0
368900.0 649496.0 0
373846.0 647787.0 0
382069.0 646677.0 0
378783.0 650850.0 0
384412.0 650539.0 0
389461.0 650090.0 0
395536.0 650265.0 0
402848.0 649884.0 0
407983.0 650403.0 0
413779.0 648398.0 0
419744.0 648840.0 0
425067.0 650064.0 0
433573.0 647293.0 0
429824.0 650628.0 0
434287.0 651173.0 0
436679.0 650172.0 0
440075.0 649919.0 0
445201.0 649256.0 0
452197.0 649674.0 0
457813.0 649098.0 0
461876.0 650253.0 0
466135.0 648900.0 0
470540.0 649205.0 0
475287.0 647309.0 0
479647.0 650870.0 0
485858.0 651329.0 0
491635.0 649561.0 0
497258.0 650487.0 0
1811.66 652856.0 0
6770.73 653072.0 0
12539.2 653555.0 0
18030.4 653874.0 0
23402.3 654693.0 0
28064.6 654173.0 0
34620.4 656015.0 0
39011.3 654543.0 0
43456.6 653687.0 0
49974.7 652636.0 0
47500.0 655099.0 0
57387.9 654459.0 0
62666.8 654916.0 0
67512.1 654758.0 0
72712.4 655151.0 0
78246.4 654489.0 0
83613.5 654277.0 0
88270.8 655869.0 0
93387.1 654957.0 0
98566.4 654148.0 0
104509.0 653690.0 0
110564.0 654323.0 0
114999.0 655564.0 0
119270.0 653532.0 0
123101.0 655302.0 0
127630.0 654304.0 0
131985.0 653514.0 0
137220.0 653166.0 0
142565.0 653788.0 0
147424.0 656198.0 0
152897.0 654612.0 0
162875.0 653808.0 0
158355.0 654213.0 0
168147.0 654339.0 0
173361.0 653504.0 0
178763.0 654888.0 0
188688.0 652212.0 0
184548.0 654211.0 0
192804.0 654694.0 0
198402.0 653164.0 0
203175.0 656393.0 0
207553.0 653547.0 0
212149.0 655599.0 0
217452.0 655978.0 0
222095.0 653213.0 0
227394.0 654861.0 0
232852.0 655529.0 0
244134.0 655085.0 0
249597.0 654710.0 0
253779.0 656334.0 0
258900.0 654264.0 0
264018.0 655649.0 0
265725.0 652005.0 0
268213.0 655324.0 0
273345.0 655145.0 0
278597.0 656367.0 0
283370.0 653180.0 0
288700.0 654933.0 0
293883.0 655727.0 0
297875.0 652093.0 0
298157.0 656738.0 0
302475.0 654479.0 0
307246.0 656021.0 0
312492.0 655053.0 0
318681.0 652178.0 0
316838.0 656580.0 0
324098.0 655172.0 0
330233.0 653995.0 0
336423.0 653757.0 0
341810.0 656376.0 0
348007.0 654919.0 0
356314.0 655363.0 0
360792.0 655898.0 0
364670.0 652354.0 0
371973.0 653758.0 0
377506.0 656081.0 0
382564.0 654755.0 0
388320.0 656511.0 0
399811.0 652328.0 0
403871.0 654960.0 0
412353.0 653864.0 0
408683.0 656529.0 0
416935.0 652698.0 0
421693.0 653653.0 0
426937.0 655029.0 0
432479.0 655086.0 0
437750.0 654354.0 0
442337.0 653912.0 0
447367.0 654618.0 0
452832.0 655563.0 0
458523.0 654550.0 0
463739.0 653797.0 0
468392.0 653500.0 0
473569.0 652599.0 0
477645.0 654523.0 0
481824.0 654782.0 0
485915.0 656655.0 0
491365.0 655710.0 0
497370.0 655842.0 0
2706.27 657284.0 0
7532.36 660202.0 0
12540.1 658546.0 0
18028.0 660064.0 0
23888.2 659708.0 0
28729.1 658592.0 0
37464.8 660432.0 0
41833.7 658482.0 0
47383.0 659415.0 0
52262.6 656592.0 0
56218.2 659712.0 0
61015.5 659735.0 0
66603.2 659903.0 0
72008.3 660494.0 0
81048.5 658726.0 0
76602.1 659456.0 0
85504.4 659855.0 0
90923.6 660747.0 0
96723.6 659401.0 0
101603.0 657841.0 0
106991.0 658464.0 0
112250.0 659046.0 0
120704.0 658736.0 0
126067.0 658293.0 0
131783.0 659548.0 0
138284.0 658858.0 0
143803.0 658782.0 0
148147.0 661116.0 0
152882.0 660321.0 0
157120.0 658539.0 0
162462.0 659261.0 0
168134.0 659942.0 0
173985.0 659086.0 0
188513.0 657546.0 0
183821.0 659791.0 0
192739.0 660421.0 0
198818.0 660643.0 0
203688.0 661020.0 0
208113.0 659574.0 0
214395.0 660384.0 0
218793.0 660071.0 0
222500.0 659522.0 0
228347.0 659990.0 0
234169.0 660585.0 0
238321.0 656890.0 0
242816.0 660491.0 0
248061.0 659495.0 0
252431.0 659984.0 0
256586.0 660240.0 0
261491.0 659365.0 0
266099.0 659313.0 0
270574.0 659116.0 0
275348.0 661048.0 0
282963.0 659512.0 0
288437.0 660771.0 0
294165.0 660623.0 0
299580.0 660157.0 0
304161.0 659976.0 0
308908.0 659694.0 0
311919.0 661742.0 0
315384.0 659843.0 0
320048.0 657584.0 0
327770.0 660335.0 0
335163.0 659100.0 0
339327.0 660640.0 0
346724.0 659430.0 0
350714.0 660317.0 0
352302.0 656626.0 0
357752.0 660301.0 0
363231.0 660015.0 0
367621.0 656790.0 0
367380.0 661249.0 0
372870.0 660270.0 0
379171.0 661093.0 0
383294.0 659209.0 0
386402.0 661662.0 0
395136.0 656659.0 0
400083.0 657789.0 0
398358.0 660930.0 0
402808.0 660901.0 0
407645.0 660800.0 0
412773.0 659344.0 0
418165.0 657658.0 0
422980.0 660269.0 0
427749.0 659771.0 0
432244.0 660334.0 0
437355.0 659598.0 0
443052.0 659018.0 0
448503.0 660008.0 0
455700.0 659778.0 0
463259.0 657771.0 0
460258.0 660428.0 0
467749.0 658730.0 0
471706.0 656652.0 0
474174.0 659821.0 0
479099.0 659081.0 0
483698.0 660119.0 0
487274.0 660397.0 0
497344.0 661116.0 0
2545.89 662518.0 0
7052.87 666061.0 0
11109.9 663690.0 0
14954.4 664724.0 0
21744.0 665256.0 0
27454.7 663418.0 0
32792.7 661917.0 0
37954.8 664850.0 0
43632.0 663267.0 0
47974.5 664701.0 0
52296.4 662301.0 0
57411.5 664098.0 0
62695.2 664244.0 0
71470.6 664700.0 0
67298.7 665250.0 0
75620.4 663892.0 0
81180.7 664222.0 0
86545.7 664236.0 0
97609.4 664861.0 0
103370.0 663151.0 0
109353.0 663767.0 0
116448.0 662977.0 0
122144.0 663592.0 0
119684.0 666512.0 0
127129.0 663542.0 0
131564.0 664644.0 0
136075.0 664398.0 0
143022.0 664228.0 0
148930.0 666328.0 0
154355.0 664502.0 0
158749.0 662597.0 0
164770.0 663496.0 0
169092.0 665442.0 0
174014.0 664465.0 0
177360.0 666623.0 0
178835.0 662424.0 0
183160.0 665999.0 0
188133.0 663450.0 0
192931.0 665248.0 0
197171.0 665495.0 0
202638.0 665137.0 0
207709.0 665041.0 0
212355.0 664814.0 0
217498.0 664950.0 0
222761.0 664734.0 0
226810.0 663823.0 0
231116.0 664838.0 0
238567.0 661892.0 0
236028.0 665348.0 0
240806.0 665429.0 0
246034.0 664979.0 0
251928.0 664271.0 0
257679.0 665201.0 0
262767.0 664284.0 0
268243.0 663858.0 0
273219.0 666052.0 0
278416.0 665572.0 0
282903.0 664105.0 0
286928.0 666064.0 0
292234.0 665582.0 0
297696.0 664249.0 0
302894.0 665127.0 0
307910.0 664136.0 0
312549.0 665660.0 0
317513.0 664422.0 0
322189.0 661758.0 0
326999.0 665959.0 0
332464.0 664689.0 0
338479.0 664796.0 0
342997.0 662150.0 0
344361.0 665850.0 0
348040.0 664010.0 0
352585.0 663725.0 0
356599.0 665688.0 0
362430.0 665686.0 0
369138.0 666304.0 0
374448.0 665919.0 0
378184.0 665532.0 0
382500.0 664680.0 0
387507.0 665547.0 0
391721.0 662435.0 0
395937.0 665133.0 0
400271.0 665316.0 0
405358.0 664942.0 0
410954.0 665030.0 0
416923.0 663746.0 0
422510.0 665961.0 0
426891.0 663705.0 0
431299.0 665516.0 0
436942.0 665442.0 0
441901.0 664281.0 0
446903.0 665092.0 0
452087.0 663466.0 0
456747.0 665705.0 0
461544.0 664537.0 0
466512.0 665268.0 0
470710.0 662574.0 0
475636.0 664952.0 0
481414.0 664100.0 0
486839.0 665048.0 0
491780.0 661939.0 0
498259.0 665415.0 0
2126.43 667147.0 0
8701.6 670941.0 0
11857.5 667845.0 0
17222.0 668606.0 0
21721.1 670291.0 0
26451.1 668936.0 0
33015.1 668504.0 0
38498.3 670912.0 0
42101.7 667644.0 0
46694.9 669406.0 0
53094.4 668779.0 0
59996.6 668592.0 0
65162.3 669593.0 0
70093.8 669431.0 0
73696.0 671197.0 0
76538.7 668661.0 0
81711.0 670330.0 0
86844.9 668796.0 0
91975.7 667105.0 0
93021.6 671505.0 0
97384.5 670806.0 0
103475.0 669433.0 0
109135.0 669260.0 0
113026.0 667101.0 0
116861.0 668716.0 0
113334.0 671164.0 0
122871.0 668436.0 0
127613.0 668716.0 0
133316.0 669581.0 0
139249.0 668959.0 0
144879.0 670485.0 0
149786.0 671168.0 0
153726.0 669269.0 0
158397.0 667131.0 0
163758.0 668079.0 0
168173.0 670283.0 0
173737.0 670406.0 0
179737.0 670163.0 0
188026.0 668579.0 0
184193.0 670796.0 0
192818.0 670043.0 0
196805.0 668900.0 0
201000.0 670389.0 0
206704.0 670220.0 0
212799.0 670252.0 0
218371.0 670044.0 0
222665.0 670611.0 0
226934.0 668378.0 0
231996.0 670093.0 0
237410.0 670364.0 0
242928.0 669150.0 0
247890.0 670870.0 0
252459.0 668823.0 0
256758.0 670295.0 0
261299.0 668809.0 0
266060.0 668907.0 0
270615.0 669825.0 0
276175.0 670682.0 0
282578.0 670064.0 0
288780.0 671048.0 0
294540.0 671058.0 0
299682.0 669071.0 0
304538.0 669781.0 0
308554.0 668495.0 0
312342.0 670357.0 0
316985.0 669489.0 0
322241.0 666894.0 0
321647.0 671353.0 0
325559.0 670086.0 0
330789.0 670916.0 0
336394.0 669652.0 0
341798.0 669380.0 0
346684.0 668532.0 0
351858.0 668764.0 0
358886.0 669292.0 0
361979.0 671540.0 0
366602.0 671743.0 0
377322.0 669553.0 0
373467.0 669753.0 0
381129.0 669481.0 0
386202.0 670467.0 0
391006.0 667950.0 0
394726.0 671046.0 0
399177.0 669856.0 0
408094.0 668591.0 0
403984.0 669896.0 0
411917.0 670813.0 0
417891.0 669944.0 0
427842.0 668975.0 0
424255.0 670300.0 0
432083.0 670722.0 0
437190.0 669645.0 0
441464.0 669684.0 0
446857.0 670448.0 0
451998.0 668867.0 0
456937.0 670730.0 0
461790.0 669465.0 0
466642.0 670293.0 0
471861.0 669760.0 0
478091.0 670843.0 0
482786.0 668813.0 0
487321.0 670966.0 0
494183.0 667084.0 0
497869.0 670156.0 0
3367.35 672468.0 0
9506.45 676108.0 0
12828.0 671995.0 0
18062.9 675017.0 0
24332.1 673822.0 0
28887.4 676694.0 0
34940.6 675177.0 0
38883.2 674568.0 0
43092.0 673239.0 0
48920.8 673169.0 0
52798.4 676292.0 0
57447.4 673547.0 0
62218.9 673336.0 0
66400.4 675864.0 0
71657.4 675332.0 0
77055.2 673876.0 0
86149.3 673385.0 0
82120.8 676375.0 0
91094.5 675565.0 0
96254.1 675779.0 0
101435.0 675430.0 0
107277.0 674226.0 0
113008.0 676512.0 0
117846.0 673264.0 0
123600.0 673973.0 0
129228.0 673485.0 0
133210.0 674654.0 0
138088.0 674501.0 0
148032.0 674538.0 0
143603.0 676293.0 0
153091.0 675314.0 0
157921.0 672262.0 0
163089.0 674893.0 0
169354.0 675264.0 0
174266.0 675849.0 0
183351.0 674848.0 0
178652.0 675100.0 0
188175.0 673796.0 0
192713.0 674402.0 0
197380.0 674257.0 0
202702.0 674841.0 0
208556.0 674889.0 0
213171.0 676061.0 0
217819.0 674623.0 0
222623.0 675172.0 0
228048.0 674078.0 0
233168.0 674566.0 0
237612.0 675770.0 0
241694.0 673373.0 0
245617.0 675858.0 0
250005.0 675558.0 0
254911.0 675500.0 0
261392.0 674609.0 0
268153.0 674292.0 0
273788.0 675790.0 0
279306.0 675457.0 0
283603.0 674998.0 0
287096.0 676033.0 0
291467.0 675362.0 0
296288.0 676201.0 0
301561.0 674408.0 0
308122.0 674363.0 0
313788.0 674751.0 0
318153.0 673868.0 0
322086.0 675909.0 0
326487.0 674506.0 0
330902.0 676635.0 0
335182.0 674382.0 0
340205.0 674684.0 0
347922.0 673231.0 0
353248.0 674347.0 0
357986.0 673191.0 0
361679.0 675943.0 0
366379.0 676594.0 0
371312.0 673932.0 0
376816.0 674387.0 0
381973.0 674366.0 0
385839.0 675310.0 0
391047.0 675288.0 0
397849.0 673817.0 0
401426.0 674026.0 0
407377.0 673985.0 0
413079.0 676268.0 0
422663.0 673363.0 0
418810.0 676064.0 0
427000.0 674223.0 0
431428.0 675881.0 0
436705.0 674475.0 0
441833.0 675097.0 0
445951.0 675270.0 0
451394.0 674763.0 0
457740.0 675874.0 0
462150.0 674094.0 0
466100.0 674608.0 0
471297.0 675243.0 0
475816.0 675417.0 0
482436.0 674765.0 0
487403.0 676642.0 0
492978.0 672314.0 0
497481.0 674976.0 0
3712.06 679497.0 0
13773.1 680209.0 0
23461.4 678650.0 0
27196.4 681911.0 0
32993.2 681303.0 0
40275.1 678355.0 0
46875.4 677838.0 0
56026.4 681304.0 0
61570.8 678809.0 0
67260.3 681481.0 0
73127.1 681103.0 0
77797.6 679029.0 0
81938.7 681863.0 0
86663.9 679325.0 0
91666.9 681241.0 0
96738.8 680362.0 0
101693.0 680992.0 0
107780.0 681044.0 0
114533.0 681528.0 0
118110.0 678869.0 0
122313.0 681717.0 0
127899.0 679101.0 0
134445.0 679441.0 0
140080.0 680287.0 0
148683.0 679174.0 0
153189.0 680465.0 0
158198.0 679090.0 0
168270.0 679476.0 0
164253.0 681073.0 0
172487.0 680452.0 0
178248.0 680373.0 0
183402.0 679483.0 0
188537.0 679214.0 0
194466.0 679163.0 0
199563.0 679739.0 0
203078.0 680146.0 0
207102.0 679263.0 0
212492.0 680813.0 0
217409.0 679498.0 0
222216.0 679928.0 0
227130.0 679676.0 0
232057.0 678951.0 0
236816.0 680885.0 0
241651.0 678768.0 0
246733.0 680946.0 0
251689.0 679551.0 0
257034.0 681336.0 0
263682.0 681224.0 0
268823.0 679466.0 0
273154.0 680946.0 0
277962.0 680438.0 0
283394.0 679415.0 0
287818.0 679679.0 0
293035.0 679803.0 0
296442.0 680114.0 0
300256.0 680181.0 0
306560.0 680804.0 0
312517.0 679731.0 0
317442.0 678256.0 0
321507.0 680397.0 0
326597.0 679771.0 0
332699.0 681500.0 0
337801.0 679530.0 0
342274.0 679160.0 0
347148.0 678614.0 0
356938.0 677397.0 0
352558.0 679847.0 0
363542.0 680262.0 0
369016.0 679755.0 0
373325.0 678739.0 0
378089.0 679974.0 0
382697.0 681012.0 0
387210.0 679247.0 0
391785.0 680927.0 0
396443.0 678099.0 0
402235.0 678883.0 0
408269.0 679881.0 0
413519.0 680968.0 0
418407.0 682072.0 0
423576.0 679358.0 0
427481.0 679021.0 0
432715.0 679911.0 0
437049.0 680025.0 0
442012.0 679493.0 0
448425.0 679828.0 0
453630.0 679752.0 0
458112.0 680881.0 0
462642.0 678821.0 0
467759.0 678675.0 0
473007.0 680921.0 0
478927.0 679058.0 0
484213.0 680943.0 0
488575.0 680689.0 0
492236.0 677205.0 0
493930.0 680961.0 0
497977.0 679489.0 0
3228.9 686443.0 0
9067.3 683096.0 0
14266.5 686266.0 0
19219.9 682176.0 0
23715.4 685844.0 0
28815.0 686480.0 0
33580.0 686854.0 0
38195.9 684320.0 0
43845.4 683066.0 0
50577.6 682118.0 0
48000.8 686099.0 0
57849.6 685785.0 0
61399.3 684023.0 0
64867.5 685869.0 0
73725.1 686142.0 0
77223.2 684662.0 0
86304.3 684478.0 0
81806.3 687132.0 0
90672.7 685884.0 0
95525.2 685481.0 0
101012.0 686194.0 0
106314.0 687092.0 0
112200.0 685172.0 0
117826.0 683572.0 0
121421.0 686614.0 0
127052.0 685922.0 0
132278.0 684169.0 0
137330.0 684927.0 0
142353.0 687133.0 0
144642.0 682503.0 0
148726.0 685437.0 0
154014.0 685174.0 0
159765.0 685052.0 0
165049.0 686781.0 0
168870.0 684370.0 0
173012.0 685780.0 0
177362.0 685097.0 0
181792.0 684174.0 0
186895.0 684242.0 0
192700.0 685493.0 0
197921.0 683532.0 0
202857.0 684609.0 0
208699.0 684485.0 0
214157.0 684918.0 0
218414.0 684405.0 0
222523.0 684623.0 0
226778.0 684573.0 0
232134.0 684383.0 0
238167.0 685112.0 0
242230.0 683883.0 0
247142.0 685985.0 0
252158.0 684076.0 0
257496.0 686251.0 0
261066.0 685847.0 0
269055.0 684594.0 0
274076.0 685380.0 0
278615.0 685227.0 0
283402.0 684653.0 0
287646.0 684700.0 0
291889.0 684432.0 0
296341.0 683347.0 0
301246.0 685948.0 0
306309.0 686031.0 0
311284.0 685501.0 0
317150.0 683642.0 0
323244.0 685128.0 0
328538.0 684811.0 0
332777.0 686051.0 0
336913.0 684611.0 0
341837.0 683848.0 0
347327.0 684306.0 0
352774.0 685232.0 0
358274.0 682853.0 0
367172.0 684289.0 0
362690.0 685319.0 0
373172.0 684273.0 0
378574.0 684786.0 0
387520.0 684376.0 0
382985.0 685364.0 0
391784.0 686013.0 0
395832.0 683983.0 0
401231.0 684396.0 0
406638.0 685778.0 0
411254.0 684293.0 0
414806.0 684923.0 0
423376.0 684992.0 0
428249.0 682905.0 0
433145.0 684828.0 0
438136.0 684302.0 0
442061.0 683815.0 0
446040.0 684396.0 0
451567.0 684947.0 0
456416.0 684417.0 0
460840.0 684572.0 0
465910.0 683483.0 0
470392.0 685943.0 0
475756.0 686802.0 0
480282.0 683957.0 0
484277.0 685917.0 0
490440.0 685896.0 0
497110.0 684509.0 0
2050.32 691586.0 0
8582.28 688246.0 0
6285.93 692301.0 0
12128.6 691698.0 0
19310.3 687291.0 0
17722.5 691956.0 0
22021.1 689969.0 0
26131.9 690491.0 0
32453.7 691091.0 0
37393.5 690662.0 0
43027.3 688858.0 0
48179.2 690905.0 0
52673.1 687202.0 0
56915.5 690010.0 0
62526.6 690281.0 0
68903.1 689085.0 0
73572.3 691015.0 0
77577.1 689910.0 0
83145.0 691614.0 0
87465.5 689536.0 0
93157.0 690293.0 0
97734.9 689596.0 0
102288.0 691110.0 0
106366.0 691509.0 0
110681.0 690096.0 0
116483.0 688849.0 0
121554.0 691167.0 0
126230.0 691700.0 0
133267.0 689082.0 0
138035.0 690045.0 0
142247.0 692020.0 0
146501.0 690015.0 0
151293.0 689584.0 0
156155.0 690726.0 0
161058.0 690173.0 0
165373.0 692047.0 0
170497.0 690454.0 0
176176.0 689753.0 0
181998.0 689722.0 0
188074.0 689745.0 0
193601.0 691544.0 0
198801.0 688639.0 0
202446.0 691299.0 0
205630.0 688924.0 0
212570.0 689459.0 0
216952.0 689747.0 0
221230.0 689392.0 0
226676.0 689755.0 0
231605.0 689487.0 0
236884.0 689953.0 0
243147.0 689339.0 0
247989.0 690000.0 0
251937.0 688621.0 0
256437.0 690197.0 0
261204.0 690140.0 0
266147.0 689513.0 0
271059.0 689585.0 0
276053.0 689802.0 0
282560.0 689437.0 0
287070.0 689548.0 0
291750.0 689450.0 0
296320.0 687776.0 0
301911.0 691505.0 0
307957.0 689423.0 0
316172.0 689221.0 0
311688.0 690901.0 0
321420.0 690231.0 0
325722.0 689118.0 0
330174.0 690076.0 0
335482.0 689338.0 0
341198.0 689561.0 0
347534.0 690451.0 0
353662.0 690664.0 0
360102.0 689578.0 0
366414.0 690180.0 0
371153.0 691606.0 0
374202.0 689027.0 0
378719.0 690131.0 0
383620.0 689498.0 0
388838.0 689920.0 0
393760.0 689500.0 0
398074.0 688604.0 0
402899.0 689762.0 0
407515.0 689314.0 0
411148.0 689139.0 0
417050.0 689018.0 0
422137.0 689628.0 0
427425.0 689432.0 0
432549.0 689580.0 0
436995.0 689072.0 0
442666.0 688689.0 0
448031.0 689151.0 0
452908.0 690828.0 0
457828.0 688526.0 0
462107.0 690918.0 0
466480.0 688822.0 0
472318.0 690187.0 0
476881.0 692029.0 0
480897.0 689376.0 0
486092.0 691140.0 0
493068.0 691635.0 0
497547.0 689833.0 0
3237.52 696434.0 0
8021.44 696212.0 0
12494.0 696691.0 0
17386.4 697497.0 0
20192.6 695285.0 0
23290.8 694182.0 0
29313.2 695124.0 0
36852.7 696864.0 0
41495.6 693564.0 0
47433.0 695191.0 0
50711.7 696995.0 0
52897.6 693009.0 0
57550.0 694906.0 0
62001.6 695437.0 0
66415.3 694550.0 0
71143.9 694193.0 0
75918.2 694596.0 0
81230.1 696326.0 0
87174.1 695250.0 0
92489.7 695223.0 0
97022.3 693864.0 0
101496.0 695806.0 0
106536.0 695886.0 0
112178.0 695702.0 0
118311.0 695490.0 0
123581.0 695434.0 0
130798.0 694428.0 0
135902.0 693552.0 0
139845.0 696162.0 0
143528.0 695304.0 0
147449.0 695015.0 0
152499.0 694256.0 0
157377.0 695183.0 0
161869.0 695471.0 0
167890.0 695594.0 0
172721.0 695884.0 0
177611.0 694344.0 0
181854.0 694974.0 0
187473.0 695558.0 0
192334.0 696013.0 0
198295.0 694250.0 0
202815.0 694869.0 0
208538.0 694414.0 0
213661.0 696340.0 0
216129.0 693498.0 0
220606.0 694509.0 0
225730.0 695300.0 0
230995.0 694173.0 0
235819.0 695404.0 0
240475.0 695298.0 0
246284.0 695020.0 0
253252.0 695322.0 0
259641.0 695038.0 0
264271.0 695397.0 0
268934.0 694504.0 0
273384.0 694290.0 0
278413.0 694835.0 0
283220.0 693981.0 0
287045.0 693827.0 0
291476.0 694930.0 0
296774.0 692669.0 0
300859.0 696168.0 0
306451.0 693177.0 0
310321.0 695335.0 0
316157.0 695414.0 0
322192.0 695737.0 0
326691.0 694155.0 0
331611.0 695522.0 0
337355.0 694701.0 0
342533.0 694403.0 0
346572.0 696139.0 0
351071.0 694957.0 0
357377.0 695515.0 0
363354.0 695088.0 0
368456.0 694499.0 0
374879.0 694620.0 0
379623.0 694787.0 0
384125.0 694389.0 0
392621.0 693095.0 0
388981.0 695379.0 0
397458.0 694153.0 0
402512.0 693386.0 0
402087.0 696707.0 0
407111.0 693961.0 0
413278.0 694219.0 0
418710.0 694647.0 0
423777.0 693755.0 0
428379.0 695107.0 0
433636.0 694267.0 0
438389.0 693372.0 0
437476.0 696906.0 0
442825.0 694507.0 0
448383.0 694346.0 0
453828.0 696178.0 0
457624.0 693303.0 0
461501.0 695410.0 0
467161.0 694599.0 0
472856.0 694320.0 0
478049.0 695505.0 0
482110.0 694838.0 0
489658.0 695161.0 0
494077.0 695873.0 0
497892.0 694420.0 0
2915.77 702184.0 0
8503.16 701000.0 0
14228.0 701177.0 0
24206.4 698386.0 0
20660.5 701064.0 0
27532.2 699255.0 0
31066.2 700370.0 0
35238.3 701943.0 0
39767.3 701678.0 0
42318.6 697793.0 0
46871.0 699445.0 0
50461.1 701668.0 0
54970.8 699920.0 0
60730.9 699882.0 0
65984.5 699719.0 0
72466.4 700140.0 0
78627.8 701127.0 0
82322.1 700563.0 0
85750.7 700171.0 0
91505.6 700843.0 0
97064.2 698832.0 0
102962.0 701495.0 0
109014.0 700573.0 0
113540.0 700399.0 0
121559.0 700491.0 0
127209.0 699093.0 0
133683.0 700332.0 0
140054.0 701551.0 0
144842.0 699352.0 0
149540.0 700623.0 0
154573.0 699078.0 0
159591.0 699637.0 0
163759.0 699978.0 0
167681.0 699550.0 0
171700.0 700896.0 0
177113.0 700142.0 0
183471.0 700012.0 0
188620.0 700312.0 0
191974.0 699058.0 0
197300.0 700045.0 0
203355.0 699602.0 0
209149.0 701462.0 0
213936.0 699797.0 0
217709.0 699486.0 0
222339.0 699671.0 0
227473.0 700210.0 0
232935.0 699724.0 0
238568.0 700031.0 0
242978.0 699616.0 0
247849.0 700783.0 0
251821.0 700468.0 0
255848.0 700937.0 0
260922.0 700218.0 0
266010.0 699379.0 0
271909.0 700053.0 0
277073.0 699368.0 0
282288.0 699504.0 0
287747.0 698424.0 0
291600.0 701301.0 0
296149.0 698291.0 0
300612.0 700684.0 0
305816.0 698834.0 0
311763.0 700011.0 0
316929.0 701868.0 0
322024.0 700543.0 0
327525.0 699642.0 0
332713.0 700159.0 0
337155.0 700169.0 0
341911.0 698686.0 0
351909.0 699597.0 0
347029.0 701160.0 0
357659.0 701792.0 0
362891.0 700212.0 0
367594.0 698940.0 0
372293.0 698677.0 0
376865.0 699554.0 0
382014.0 699524.0 0
387545.0 700735.0 0
393955.0 699639.0 0
399549.0 700454.0 0
405552.0 701003.0 0
411508.0 699445.0 0
417198.0 700098.0 0
423353.0 699430.0 0
429693.0 700492.0 0
435232.0 700372.0 0
440987.0 699466.0 0
446584.0 699955.0 0
451870.0 700678.0 0
458289.0 699574.0 0
464000.0 699644.0 0
469172.0 700012.0 0
473907.0 698983.0 0
478638.0 699881.0 0
483112.0 699320.0 0
487745.0 699923.0 0
492526.0 699703.0 0
497279.0 699506.0 0
1225.54 705963.0 0
6935.46 705491.0 0
11607.7 704923.0 0
17506.5 704847.0 0
21643.2 704884.0 0
26120.4 703491.0 0
31948.8 705159.0 0
37478.7 706652.0 0
42296.6 705189.0 0
46461.6 704326.0 0
52589.4 705935.0 0
58280.5 704788.0 0
63554.6 704397.0 0
68105.1 703990.0 0
71632.6 706276.0 0
76712.3 706070.0 0
81880.0 704759.0 0
86966.0 704791.0 0
91688.5 707113.0 0
97274.9 705071.0 0
102267.0 706826.0 0
107148.0 705780.0 0
112263.0 704820.0 0
116885.0 702902.0 0
122768.0 705712.0 0
128649.0 705276.0 0
135130.0 707106.0 0
139520.0 705695.0 0
144421.0 704444.0 0
148511.0 705728.0 0
153136.0 704556.0 0
158166.0 703862.0 0
162741.0 704495.0 0
168023.0 704436.0 0
173885.0 703981.0 0
177313.0 705617.0 0
181657.0 704967.0 0
186548.0 705009.0 0
192248.0 703888.0 0
197548.0 705684.0 0
201851.0 704313.0 0
206196.0 706925.0 0
214419.0 704168.0 0
218815.0 704801.0 0
222500.0 704855.0 0
226836.0 705865.0 0
232469.0 704812.0 0
237238.0 705161.0 0
242483.0 704293.0 0
247224.0 705641.0 0
252500.0 704858.0 0
256734.0 705587.0 0
261571.0 705410.0 0
267243.0 705033.0 0
272739.0 705883.0 0
277645.0 703933.0 0
282173.0 706670.0 0
286778.0 703689.0 0
291423.0 706320.0 0
296784.0 704408.0 0
302663.0 705050.0 0
307594.0 704248.0 0
312267.0 705116.0 0
320959.0 705460.0 0
316487.0 706719.0 0
326432.0 705553.0 0
331746.0 704637.0 0
337571.0 705843.0 0
342920.0 703637.0 0
347473.0 706219.0 0
352854.0 705317.0 0
357984.0 707297.0 0
362317.0 704644.0 0
366460.0 703506.0 0
372211.0 703642.0 0
376998.0 704069.0 0
381069.0 704263.0 0
385499.0 706114.0 0
391310.0 705629.0 0
396868.0 704823.0 0
401787.0 705341.0 0
407745.0 706650.0 0
412931.0 704371.0 0
417883.0 705809.0 0
422513.0 704589.0 0
426756.0 705205.0 0
432820.0 704532.0 0
437592.0 705061.0 0
443016.0 704322.0 0
448177.0 705422.0 0
452399.0 704632.0 0
456583.0 704857.0 0
461870.0 704653.0 0
467433.0 704928.0 0
472566.0 703510.0 0
477300.0 704349.0 0
482275.0 704166.0 0
488484.0 705328.0 0
492998.0 704435.0 0
497500.0 704501.0 0
2838.33 709691.0 0
8069.99 710503.0 0
13258.2 709641.0 0
18000.5 709353.0 0
22048.0 711461.0 0
27340.5 709529.0 0
33013.0 710401.0 0
37636.1 712370.0 0
42210.5 710166.0 0
47735.7 709328.0 0
52115.6 711640.0 0
56774.6 710086.0 0
62052.8 709333.0 0
67589.5 709550.0 0
73001.7 711318.0 0
78240.6 711264.0 0
84163.0 710232.0 0
89682.0 711504.0 0
94383.1 711500.0 0
99045.4 710395.0 0
104143.0 711312.0 0
108883.0 710029.0 0
112842.0 709407.0 0
115873.0 711701.0 0
117942.0 707787.0 0
122036.0 710664.0 0
128102.0 712658.0 0
134931.0 712317.0 0
138890.0 710694.0 0
143312.0 709414.0 0
146947.0 711613.0 0
150923.0 709803.0 0
157128.0 709372.0 0
162886.0 709268.0 0
167767.0 710445.0 0
172936.0 708358.0 0
177978.0 710164.0 0
183197.0 709740.0 0
188054.0 709729.0 0
192508.0 709417.0 0
197193.0 710321.0 0
202500.0 709731.0 0
207990.0 711544.0 0
212627.0 709518.0 0
217500.0 709687.0 0
222500.0 709556.0 0
227997.0 711180.0 0
232697.0 709518.0 0
237715.0 710073.0 0
242755.0 708839.0 0
247743.0 710012.0 0
252089.0 709125.0 0
256422.0 709810.0 0
260830.0 710409.0 0
265610.0 710210.0 0
270840.0 710968.0 0
277140.0 709977.0 0
282219.0 711074.0 0
286878.0 709806.0 0
292433.0 711465.0 0
298553.0 710772.0 0
304009.0 709726.0 0
308205.0 708669.0 0
312837.0 710388.0 0
318511.0 711311.0 0
323347.0 709574.0 0
327904.0 710784.0 0
333231.0 710217.0 0
337966.0 711689.0 0
342778.0 709630.0 0
351212.0 710375.0 0
356616.0 712628.0 0
362892.0 710284.0 0
368509.0 707799.0 0
373195.0 711485.0 0
378306.0 708472.0 0
382975.0 710547.0 0
388406.0 710969.0 0
393441.0 711092.0 0
398014.0 709921.0 0
403365.0 710170.0 0
407959.0 711914.0 0
412581.0 709595.0 0
417642.0 710971.0 0
422220.0 709136.0 0
426983.0 710993.0 0
430387.0 707847.0 0
435018.0 710531.0 0
441198.0 709692.0 0
446573.0 712298.0 0
452498.0 709780.0 0
459295.0 710160.0 0
464439.0 708701.0 0
469169.0 710481.0 0
474366.0 708200.0 0
479360.0 709257.0 0
483936.0 708810.0 0
488160.0 710575.0 0
492607.0 708372.0 0
497500.0 709475.0 0
1837.38 714783.0 0
5886.13 715212.0 0
11078.6 714483.0 0
16961.1 714556.0 0
23472.4 716446.0 0
28283.6 715029.0 0
33348.3 715788.0 0
38133.2 716870.0 0
42453.4 715307.0 0
47124.6 714485.0 0
51821.6 716379.0 0
57173.5 715645.0 0
62550.5 714574.0 0
67210.6 714492.0 0
71275.8 716174.0 0
76061.4 715665.0 0
81809.3 716777.0 0
87139.5 715003.0 0
91820.8 715972.0 0
97632.6 715635.0 0
103058.0 716947.0 0
108461.0 715137.0 0
113831.0 715511.0 0
119123.0 714950.0 0
123742.0 717393.0 0
133412.0 716547.0 0
138458.0 715210.0 0
143359.0 714442.0 0
146954.0 715562.0 0
151388.0 715596.0 0
157332.0 715714.0 0
162827.0 714345.0 0
167760.0 715447.0 0
173430.0 714640.0 0
177976.0 715555.0 0
181783.0 715008.0 0
187123.0 714497.0 0
193340.0 715317.0 0
198714.0 714288.0 0
202909.0 714359.0 0
207265.0 715905.0 0
212287.0 714921.0 0
217524.0 714456.0 0
222459.0 714580.0 0
226557.0 715710.0 0
231487.0 714333.0 0
236425.0 714782.0 0
241594.0 713440.0 0
247231.0 715138.0 0
253443.0 714320.0 0
258830.0 714773.0 0
262836.0 714583.0 0
267260.0 714955.0 0
273177.0 715494.0 0
277621.0 715521.0 0
282097.0 714626.0 0
286992.0 715008.0 0
291057.0 716052.0 0
296136.0 716807.0 0
301850.0 714949.0 0
306231.0 713908.0 0
310618.0 714616.0 0
315097.0 715964.0 0
320154.0 716269.0 0
325693.0 716172.0 0
331395.0 715210.0 0
336165.0 715746.0 0
342069.0 716311.0 0
347052.0 713006.0 0
351442.0 715795.0 0
361381.0 716415.0 0
367667.0 715063.0 0
378684.0 715748.0 0
384818.0 715124.0 0
389651.0 716320.0 0
394563.0 715478.0 0
399896.0 715202.0 0
403942.0 714576.0 0
407225.0 716851.0 0
412915.0 714956.0 0
418099.0 715682.0 0
422663.0 714211.0 0
427399.0 716246.0 0
431875.0 714655.0 0
436473.0 715796.0 0
441506.0 715501.0 0
446106.0 717415.0 0
451489.0 716468.0 0
457330.0 716424.0 0
462102.0 715087.0 0
467324.0 716473.0 0
473613.0 715106.0 0
484200.0 712945.0 0
479760.0 714694.0 0
487456.0 716876.0 0
492974.0 713850.0 0
497909.0 715726.0 0
2251.02 719205.0 0
5583.16 721189.0 0
10575.1 720403.0 0
17132.6 721052.0 0
22608.6 721256.0 0
27769.9 720434.0 0
33365.2 721250.0 0
38769.0 721686.0 0
47201.0 720289.0 0
53090.9 721391.0 0
58281.1 720998.0 0
63589.9 719942.0 0
68456.5 719747.0 0
72824.5 720726.0 0
77451.9 720520.0 0
82526.8 721723.0 0
87338.9 719503.0 0
92533.2 721124.0 0
98283.2 721147.0 0
102937.0 721659.0 0
107325.0 720356.0 0
112378.0 719747.0 0
117397.0 719747.0 0
121642.0 721174.0 0
125693.0 721959.0 0
127990.0 718660.0 0
131875.0 722110.0 0
137333.0 720218.0 0
142970.0 719721.0 0
148109.0 719630.0 0
153150.0 721046.0 0
162928.0 719443.0 0
158430.0 721066.0 0
167373.0 719984.0 0
172169.0 720503.0 0
177548.0 719477.0 0
182502.0 719936.0 0
186777.0 719595.0 0
191075.0 720994.0 0
197765.0 720191.0 0
203465.0 719248.0 0
208227.0 720432.0 0
213261.0 720053.0 0
218099.0 719520.0 0
222116.0 719500.0 0
225928.0 719994.0 0
230915.0 719831.0 0
236702.0 719995.0 0
242527.0 719355.0 0
248081.0 720674.0 0
252482.0 720489.0 0
256718.0 718993.0 0
261185.0 720964.0 0
266737.0 720740.0 0
272422.0 720155.0 0
277913.0 720764.0 0
283256.0 718843.0 0
288575.0 720330.0 0
293463.0 721216.0 0
297370.0 722669.0 0
301196.0 719701.0 0
307590.0 720015.0 0
313569.0 720900.0 0
318661.0 721030.0 0
323241.0 720693.0 0
327508.0 721811.0 0
332246.0 720118.0 0
337578.0 721108.0 0
342861.0 722252.0 0
347299.0 718150.0 0
347283.0 722125.0 0
351842.0 721219.0 0
356273.0 718463.0 0
359083.0 722464.0 0
363562.0 721205.0 0
367649.0 720485.0 0
372800.0 718154.0 0
372550.0 722650.0 0
377190.0 721108.0 0
382420.0 719646.0 0
386600.0 720507.0 0
392315.0 720664.0 0
397503.0 720241.0 0
402438.0 719746.0 0
406585.0 721852.0 0
411674.0 720120.0 0
417382.0 721066.0 0
422821.0 719371.0 0
427676.0 721457.0 0
432619.0 719451.0 0
438100.0 720467.0 0
443282.0 721209.0 0
448178.0 721216.0 0
452847.0 722220.0 0
457481.0 721064.0 0
462308.0 720203.0 0
467062.0 721845.0 0
472263.0 721313.0 0
477755.0 719836.0 0
482849.0 719834.0 0
487930.0 721996.0 0
492474.0 720041.0 0
497462.0 719725.0 0
42916.8 723379.0 0
POINT_DATA 5000
SCALARS Radius float 1
LOOKUP_TABLE default
5113.21 4478.15 6044.04 5415.48 5120.0 5580.89 6810.52 5529.52 6756.95 6324.23 4270.53 5191.63 4216.92 5634.83 5820.48 5782.6 4862.21 3929.19 4107.03 4043.57 5379.87 5925.6 4501.51 4792.73 4736.58 4931.38 3485.26 4329.05 4151.94 4049.23 5337.48 6124.89 5708.81 5252.48 4780.03 5495.39 3996.0 3856.1 4665.12 3383.4 4133.88 4834.9 3850.77 5085.53 3863.18 2356.98 4998.37 6182.6 5492.18 5258.36 5061.3 3642.12 3163.97 5812.43 5122.66 5906.14 5484.19 7513.1 5254.28 4436.4 5733.48 4672.91 3588.44 5645.7 5176.86 5840.26 3672.51 6110.27 5561.06 5073.35 3615.22 5670.04 4380.59 3589.27 6716.79 3607.45 5759.91 7613.27 4951.03 5255.32 6037.08 4523.7 5096.78 4129.43 3843.58 3320.52 4727.24 4194.5 5082.47 5344.25 5445.87 4593.7 4150.99 4704.72 4742.68 4177.94 4344.58 4571.7 5495.84 6268.1 4861.06 3979.26 3471.03 5253.55 5011.84 7034.11 6261.42 4502.5 3771.48 4271.69 5681.38 4138.42 3708.04 5513.6 3240.09 4556.36 6082.81 3191.99 4685.34 5601.05 4929.8 3586.91 3103.0 3554.9 4015.92 5542.21 4487.31 3936.02 4044.71 5980.74 4094.62 5109.54 4927.02 5546.39 5325.36 5484.83 5538.89 5351.6 4730.36 4715.55 5867.73 3951.75 5013.56 5701.86 4499.64 4375.68 5542.27 5054.98 6030.06 5170.02 3557.27 4927.31 4688.68 4402.52 4517.56 4182.53 5903.42 3968.64 3955.56 3761.32 4118.05 4366.19 5553.16 2938.66 4940.78 4231.61 4008.92 3942.53 3379.84 4827.82 5227.21 3997.1 3260.67 5123.52 4091.31 3038.33 4392.68 4333.2 4295.38 7199.21 2240.39 5923.5 5091.39 5293.9 3912.37 6142.94 4602.25 6691.39 4790.08 4763.45 5344.0 3815.26 5908.1 6048.7 5896.46 5022.8 3784.5 6481.79 5320.28 4298.67 5960.66 6608.73 4359.62 6946.21 2586.12 5433.8 4011.77 5499.11 3633.87 5922.5 5198.77 5987.17 6013.14 2765.2 4901.41 5110.37 5664.98 4382.74 5927.43 4651.28 4384.42 3693.63 4516.43 5481.78 4948.92 5637.59 4937.14 5043.05 5816.2 5693.81 6483.19 3829.13 5945.65 6759.9 5418.62 7021.47 5416.38 6059.59 2720.68 4955.55 3563.63 4238.81 4345.55 4468.59 5885.03 2837.58 3871.88 5325.02 5200.76 5017.13 4862.64 5279.39 5185.34 3673.74 4432.58 5205.43 6684.56 7447.37 4688.67 2635.86 4385.06 5292.64 6166.5 5065.13 5936.02 5305.17 4861.08 4003.05 5390.22 4805.87 4712.33 6038.78 5697.78 4667.36 6372.62 4254.17 5090.24 5615.42 7565.34 5530.87 4612.68 4281.49 4973.83 6342.25 4187.56 4840.84 5135.69 4020.32 6045.46 4245.72 4541.21 4164.68 6133.92 3719.84 4178.4 3780.23 3095.48 4166.08 5374.51 6739.08 4797.52 4471.58 4569.12 4796.58 5873.69 4962.09 3999.48 4203.26 5188.81 6057.22 5062.71 6125.34 4527.08 5347.48 4850.01 3970.25 5147.67 3979.82 5011.31 5138.31 5264.06 4659.59 6327.9 4048.37 6355.42 4362.19 5690.56 3115.91 4493.48 3307.12 5924.89 4002.16 4778.34 4174.52 4138.16 3486.22 4684.5 3091.3 6230.49 6458.82 4601.27 5493.32 5740.68 5926.61 6051.14 5836.15 3261.21 4195.44 6704.06 3653.41 5600.93 3856.01 5246.2 4390.66 4827.23 6116.18 4924.6 4733.32 7184.19 2899.43 2924.37 3867.67 4290.3 5399.73 4660.72 3888.21 5891.05 6902.81 6644.76 5629.19 4786.6 5740.84 6445.94 4310.18 7134.64 5978.9 4716.19 3629.62 5514.76 4997.27 4301.06 4877.67 4290.14 6562.18 4156.38 5316.75 7055.53 5669.65 5934.22 5624.49 5762.59 4123.6 7092.87 5224.12 4850.14 7042.12 6326.39 6817.32 4319.79 6643.85 6098.14 4472.17 6222.42 5654.31 4730.41 3745.84 5690.26 4156.2 5965.78 4497.59 4374.35 4810.12 5643.58 5215.05 4292.06 3821.72 5577.04 5006.58 4602.86 3688.8 4548.16 3369.23 5449.18 5492.26 4220.88 5244.78 5762.84 3937.74 4749.8 6084.86 5478.92 5551.36 6894.71 4414.54 5789.98 6138.47 7054.71 3641.64 5489.43 5747.75 4277.89 4727.62 5054.25 4796.33 5539.32 5360.19 6496.85 4794.96 4874.39 5541.59 4124.71 5728.85 6337.56 4911.47 5803.39 5863.59 4381.97 4024.3 6257.19 3255.82 5242.73 2812.98 4737.14 4065.69 5603.15 4695.45 6052.7 3921.18 3798.62 5308.1 3666.57 4907.89 4937.02 4073.93 5655.21 4645.41 4433.59 4320.28 5542.14 2739.94 4931.53 4218.06 5480.13 6308.71 6405.76 3456.98 3498.2 5105.16 3066.13 5448.61 4302.5 6006.16 6009.88 5013.67 5826.04 5339.78 4143.78 4970.88 4666.81 5163.55 4819.73 3382.7 3954.91 6471.55 2965.01 5499.39 5644.82 3637.61 5501.93 5463.38 5945.21 4938.74 5696.88 5607.14 3923.03 5975.63 5252.34 6396.74 4138.46 4274.61 2775.04 4986.77 6898.19 6318.18 5586.81 3948.17 4551.24 4621.75 5358.59 4515.71 6519.71 6640.13 5082.6 5810.84 4230.54 5094.44 3748.24 4655.49 4467.94 4933.21 4850.81 6038.14 2540.31 6029.66 5527.54 5573.7 5697.4 4270.95 4055.8 7325.81 5280.17 6425.26 5143.58 6186.19 4839.34 5083.08 2980.99 6834.49 5525.39 3998.5 5938.34 5380.13 6394.38 5555.28 5169.36 4686.65 5834.74 5556.96 5788.23 5581.75 6392.01 3599.45 6730.19 4907.06 3735.44 5163.9 6043.3 5952.75 6332.36 6122.55 6155.31 4223.33 5911.67 3323.28 6695.82 5835.78 5794.24 4678.38 5050.65 4827.33 5206.48 5513.57 5729.23 5226.0 3365.82 4538.95 5965.15 4763.66 4780.2 4636.5 4940.42 3703.1 4946.42 5923.4 5085.71 6116.33 6343.14 5774.97 5462.21 5750.71 5470.77 4831.47 4643.85 4004.04 6062.05 4289.17 5564.02 2965.79 4410.55 6035.6 5137.34 4481.53 5330.45 4581.13 3856.59 3610.4 4219.07 5413.79 6387.01 5367.52 3092.35 4322.15 5210.03 4714.54 3629.96 5478.47 5351.39 6142.37 6061.47 5375.47 4566.18 4723.12 5120.49 5201.36 5262.61 6302.8 5409.61 6038.2 4005.44 5206.78 5555.88 6732.43 5028.96 3866.16 6362.12 4484.76 4840.01 4511.82 5611.2 7933.0 4455.12 5173.87 4894.16 5711.87 5118.27 4941.22 5932.23 5791.61 3369.13 4479.66 5367.2 3043.85 5461.13 4726.76 5839.13 5495.68 5489.34 5002.48 5708.14 5537.72 3920.42 8332.24 4553.56 5329.64 6049.55 5709.62 4127.74 2476.04 5133.97 3942.07 7443.72 3937.08 5371.02 5260.34 4709.35 6586.45 4373.3 4750.78 4163.5 5724.64 5078.86 5100.1 6090.91 3561.29 4963.34 5019.93 3295.83 5081.78 4260.92 6263.44 5960.56 4118.84 4020.95 6313.06 3474.39 6470.3 4200.03 5082.74 6915.83 6072.45 7099.43 5526.14 5198.29 5423.0 5077.33 4746.52 6338.89 6202.55 5025.39 5893.5 4547.19 3320.11 5030.91 6022.17 5119.37 3982.23 6163.38 3459.9 4853.39 4964.09 4809.42 5024.9 4306.53 5659.17 5094.81 5972.06 5713.22 5861.71 4359.04 3183.98 3794.63 4524.28 3778.1 5152.36 5826.64 4220.65 6820.42 4816.2 6321.41 4896.52 4751.02 3372.79 5184.56 5282.64 4715.72 4669.66 4808.52 5046.33 4764.96 5607.24 5053.92 6352.26 3847.38 3818.59 4863.72 4143.08 6623.85 4262.82 5102.36 4342.9 5065.11 5069.84 4051.44 4241.89 5054.74 5941.72 5991.09 5126.91 6600.94 4788.58 6155.1 5876.71 6262.72 5029.78 6515.84 4888.6 2990.77 4739.14 4918.77 4371.99 4219.78 3885.86 5235.29 4459.28 4479.94 6250.23 6413.02 4863.27 5862.86 6049.79 3493.7 5374.98 4719.7 6939.12 4735.33 5411.85 5092.37 6444.77 6314.07 4287.63 5315.4 6449.45 3975.31 3689.45 3824.16 5125.78 5572.95 3868.18 4373.47 6723.16 5584.06 7111.16 3817.13 5507.24 6851.54 4583.31 4503.89 5806.08 5243.29 4997.27 4093.08 4449.22 5543.27 4717.05 5287.2 6135.57 5998.38 4312.67 5423.8 4270.24 4989.15 5017.78 5015.69 6175.81 4727.24 6677.09 4305.57 6959.81 4829.35 5201.67 4424.7 4089.76 4754.05 5526.55 3192.41 6084.93 5215.15 4987.87 3315.57 5804.71 5020.12 5727.3 4242.52 5281.28 5356.51 4277.88 3057.03 4087.15 7500.97 3948.23 5228.18 5787.31 3927.99 5868.82 4050.9 4978.31 4099.77 4981.9 4656.78 4537.32 4906.82 3600.43 5131.24 5004.23 5196.67 6496.67 5474.8 3664.11 6607.87 5117.47 4925.63 5882.65 4434.19 5187.7 4623.61 4188.3 6261.75 5177.64 4255.31 5453.3 4407.9 3492.19 4584.5 5122.63 4703.08 6345.13 5274.19 5516.95 4406.4 4413.85 4844.57 3999.94 4027.46 4470.98 5776.37 4516.28 3921.08 4190.31 3627.82 4044.45 5262.19 5344.43 5045.38 5350.88 5372.61 3686.21 5402.24 6480.17 5023.15 4377.07 5101.59 3813.22 5570.3 4336.42 4306.11 7589.94 3130.65 5628.24 5856.11 3327.49 4109.88 4234.94 4562.29 5013.13 5080.66 3417.33 4926.42 4164.13 4642.34 4520.1 4947.52 5153.74 5874.89 4293.03 5813.4 4389.21 3791.79 4128.98 4925.44 6246.22 4951.47 4307.28 3697.96 4739.42 4723.48 5538.93 4899.11 2631.9 4745.45 6255.18 4668.71 4758.21 5269.18 7228.46 6362.14 6719.88 5978.82 5266.5 4523.88 4066.38 4403.98 4948.98 5227.52 4414.48 4729.43 4092.24 5163.02 7144.24 5598.74 5687.83 6442.69 6320.71 4648.04 3464.83 4721.32 3163.78 4305.16 3293.56 5274.14 4903.82 5746.28 4082.47 5511.6 4338.08 4378.3 6134.99 4094.73 4989.56 4718.54 4440.57 5548.29 6766.43 2315.64 5916.16 4390.41 5226.56 5599.49 5313.22 4097.57 3905.51 5017.5 4864.22 3901.8 5759.46 5083.41 5678.96 4244.9 6048.86 6070.58 4285.32 6034.41 5452.83 5130.91 4948.5 4519.22 6445.22 3844.9 3695.36 4564.34 3963.86 4871.44 3848.93 5076.35 6020.48 5935.47 3402.32 5903.66 4528.49 5004.67 5365.89 5992.26 3960.8 4511.54 5070.39 4980.85 5714.58 5110.45 5208.32 5248.77 3296.27 4083.97 4713.25 4607.02 3895.51 4528.09 4165.81 5441.96 6291.51 5174.89 5882.89 4188.32 5246.61 4100.38 3746.31 5344.77 5027.98 5097.87 4278.07 7267.18 6256.02 5320.92 4305.43 4406.1 5034.59 4942.77 4263.33 5080.18 4454.63 5912.61 3279.1 6193.35 4560.84 6086.96 5233.78 5776.57 4562.74 5683.26 5139.5 7493.3 4814.55 3527.05 5698.77 2477.07 6413.11 5529.42 5092.28 4965.89 5659.95 4152.85 2908.7 4453.64 4517.73 5469.47 5660.16 3838.47 2588.37 6736.03 6235.57 3623.87 3087.09 6934.37 6113.95 4050.08 5328.22 5563.79 6171.13 5511.88 4512.11 7055.42 5486.68 5100.25 5490.43 5022.28 5197.52 4959.34 5383.07 4527.02 4531.14 5013.42 3838.56 6552.22 5651.07 6375.99 5200.05 5234.29 5313.66 5419.37 5275.32 4466.03 5409.33 4898.94 5196.0 4923.9 4973.78 3329.99 3947.47 5091.68 4204.84 6243.0 6673.96 3556.85 3161.47 3435.9 6390.78 4288.3 5370.52 4788.87 4652.29 4495.87 5774.81 6022.72 5498.32 5527.33 5346.27 6475.1 4969.21 2691.29 2845.98 4880.14 5289.52 5314.85 5941.4 5450.44 6510.17 5742.65 5592.32 5381.16 5565.13 4470.61 3701.27 5653.9 5046.21 4929.14 5894.61 3979.54 5304.13 5944.09 5833.06 4923.41 4497.31 5384.76 6138.12 5257.12 4428.78 5243.43 4537.14 5551.9 3757.34 6415.61 4687.64 5329.59 4419.71 4888.12 5037.06 4541.8 5175.29 5842.56 5887.15 5412.31 7480.41 3423.15 4890.5 3981.07 5452.42 5186.3 6853.85 3497.9 2395.5 5941.61 5782.48 6248.6 3836.45 5683.61 5805.86 6894.26 4986.51 5339.38 5178.99 5615.35 4591.87 4790.78 6422.84 4247.15 4502.18 4602.85 6248.81 5872.05 5273.35 4091.8 4645.58 2651.49 5181.4 5512.23 5670.2 5985.29 4247.23 4178.15 4613.31 4733.04 6119.09 5788.66 7531.29 5069.25 3903.75 5048.89 4755.47 5935.03 3991.03 5475.8 5314.69 7435.25 6826.57 4249.46 5965.81 3702.37 4643.31 6917.52 5402.21 4989.09 6718.19 4982.31 4307.48 3848.54 4425.84 5331.02 4871.96 4863.23 4402.67 4631.83 4996.99 4384.88 6887.27 6008.49 4220.46 4806.34 4287.53 5612.21 5945.08 3169.67 4968.03 3306.14 5490.58 5395.14 4863.79 4702.06 3830.46 6031.67 4689.15 4655.16 5409.66 4345.67 3867.19 4765.72 4642.66 4039.91 4752.14 5276.7 6119.63 4950.97 5512.16 3197.63 4863.96 5191.08 5203.08 5374.07 5163.77 4588.7 4488.85 3731.84 4579.69 4901.07 3554.48 6496.52 3436.15 5005.85 4151.76 4020.4 3493.47 4721.02 4596.75 4933.65 5443.58 4558.46 4049.02 4470.4 5311.03 5255.12 6169.11 4027.09 5801.99 5379.09 5210.48 4962.77 4853.02 6259.23 5088.44 4998.21 4711.62 4114.24 4268.65 5349.31 4694.83 4649.22 5509.42 4354.08 5094.52 4256.43 5936.36 2682.24 4520.62 5229.48 5475.7 4485.99 5127.16 5435.74 4244.99 6050.81 5543.46 6185.89 3997.96 4750.17 5660.85 3460.94 2330.66 3990.25 4177.19 3691.0 4752.51 3587.05 6229.37 4236.14 4407.87 5282.91 3797.33 7256.35 4800.69 6566.1 3555.86 6386.78 4456.39 4896.39 6081.14 5480.83 4607.85 5128.57 6000.7 5604.21 3361.92 4750.58 6710.88 3967.48 5235.11 6213.04 6622.11 3685.13 4590.55 6790.73 5251.4 5097.69 5857.79 6543.13 5149.72 5036.58 5464.25 5411.02 4752.9 4287.16 5199.44 4062.5 4435.51 5683.95 3766.55 6027.62 5010.2 4216.17 6484.17 4938.72 4254.37 3374.08 4031.78 6098.1 5708.99 5687.85 5346.68 5296.29 4611.53 4285.66 4896.11 5094.48 5172.53 3872.61 4135.62 5534.94 7644.38 7552.94 6101.92 5323.3 4635.6 4662.56 5166.79 2976.22 3405.98 5394.55 4681.72 4946.74 5996.33 5928.32 5415.19 4612.62 4016.18 3619.07 5526.75 4275.57 6385.23 5327.45 5560.26 6363.92 6205.93 4439.35 5830.72 6184.4 3758.07 3828.81 4373.45 4082.57 5733.62 5169.9 5282.51 4460.92 5945.89 4042.28 4105.55 4421.12 4340.76 5254.49 6065.22 4221.28 4303.19 5514.84 3633.79 5421.53 3914.2 5937.08 6070.3 4135.08 5233.29 4778.82 4312.56 4612.06 5204.04 5053.95 5926.11 6667.68 5767.9 5211.38 5089.62 5869.4 4741.26 5920.32 4255.85 4732.09 3988.3 6136.49 4356.25 4216.95 5776.96 5486.48 5301.47 4617.55 3645.12 5424.88 5415.85 8659.64 5469.13 4233.8 5765.42 6123.03 5966.61 5711.11 4575.94 5021.88 3546.71 5956.65 5768.57 5564.23 5950.04 4231.83 2435.33 6401.43 4074.48 4558.47 5020.71 2681.29 5997.88 5839.71 4238.4 5576.92 4318.48 6132.95 5266.22 3930.79 4860.33 3685.13 6004.68 4051.34 3361.26 6799.4 3627.55 6239.84 4256.67 5865.39 3457.48 4427.28 3931.07 6079.11 6430.39 5417.15 3688.16 3949.6 4945.39 6326.18 3950.63 5661.62 6631.19 6648.68 4467.04 5626.61 5817.25 2983.99 2614.4 5061.98 4537.6 4923.24 4419.61 7177.44 5309.98 6553.94 5255.18 5460.65 3004.16 4767.78 5235.17 5225.33 4779.5 4929.75 4435.36 6649.96 5134.39 5784.3 4256.57 5442.32 6088.68 4643.56 5620.74 5657.36 6124.08 5467.84 5266.01 5253.37 6515.8 3685.65 3701.16 4916.22 4186.6 5895.77 5750.07 4757.74 6045.67 4209.49 5742.74 3821.94 4244.21 4947.24 3875.05 3540.11 6200.54 5148.58 4652.01 4199.45 7234.66 6599.66 4055.54 6098.95 4997.83 4893.49 5325.44 5102.75 4597.29 4200.09 4498.25 5931.77 4188.87 5151.21 3735.24 6574.95 6333.29 4477.04 5731.57 6408.83 5365.24 5226.97 4004.35 4763.96 5754.18 3312.06 5180.76 3418.99 4480.95 5278.36 4409.63 5521.25 3661.9 3082.32 5370.85 5949.46 3658.37 7440.72 5376.71 5703.6 4807.28 4867.08 4266.03 5280.69 4713.74 4220.03 5407.78 4084.49 5449.46 6179.96 6632.99 6113.54 5147.36 6260.79 3963.76 4563.46 5528.53 6799.88 3062.43 5726.66 5426.78 5652.0 5463.41 4159.35 4237.98 6439.37 6045.22 4614.3 3532.3 5580.92 5769.98 5067.46 2221.99 3580.58 4863.01 2775.69 5356.79 4785.25 3619.79 5029.47 6306.21 2978.76 2040.66 7016.27 5884.9 3876.21 4673.35 5689.26 4992.42 6022.7 4940.84 4833.46 4809.67 7248.4 5280.12 3946.28 5984.81 5439.9 5367.73 4409.27 4640.06 3456.47 5471.74 5421.64 3548.39 4858.51 4207.54 4886.12 6419.12 4976.12 4817.16 5453.98 3991.42 5148.08 4388.63 4834.87 5760.22 5938.17 4795.43 5398.64 6817.57 3614.96 3886.68 5703.74 5662.55 5737.92 3056.7 3755.95 4360.23 6234.32 5293.51 4446.06 5008.63 3450.93 5132.68 6595.03 4993.35 6218.95 5222.16 5107.23 5136.08 3178.54 5558.68 3776.94 4765.02 5629.39 4448.13 2684.03 5070.29 4768.61 2261.36 5075.55 6923.84 5227.59 6166.29 5453.6 5703.07 5294.77 4662.43 4630.82 4043.66 4813.08 4540.86 5990.52 4835.83 2967.38 5604.35 6316.56 6477.91 3091.67 6420.81 4081.97 5401.99 5973.33 3583.21 4347.74 2511.46 5291.9 4009.62 4011.37 2081.58 6505.78 5461.55 6519.43 5876.64 5424.46 4857.84 4908.49 4684.44 4962.21 4858.44 3468.42 4771.13 5297.19 4351.38 5550.75 5933.7 5466.33 4444.97 5721.05 3498.16 4247.69 4514.39 4588.99 4321.21 4344.34 3673.28 4928.27 3583.49 5052.84 3375.28 4366.74 5625.65 4301.61 3184.64 6107.89 4446.84 5660.55 3718.69 4514.79 3672.21 2216.82 4509.89 5269.38 5097.95 5108.06 3573.73 4693.52 4000.43 6853.04 3420.08 4745.43 5831.96 4539.07 4747.55 5464.68 5591.76 4586.19 4585.31 6625.18 5323.91 4270.74 6293.89 4558.15 4983.39 5366.52 4690.55 5533.72 5533.42 4802.32 4010.57 4599.38 5246.47 6157.04 6191.29 4522.21 7422.36 5506.19 6719.94 4950.67 5832.37 4642.93 5409.63 4263.16 4709.05 3077.84 6024.75 6109.49 5860.67 5332.65 3764.1 6451.33 5413.31 4332.87 4743.59 5208.14 4715.58 3317.83 4450.7 5151.52 5369.08 3101.75 4518.04 4766.06 4874.18 5435.19 3298.2 4270.15 6865.76 6449.64 6464.8 4406.05 4749.59 4680.94 5799.69 5571.72 3809.69 5236.43 3208.96 5285.07 7051.9 4184.23 4608.41 4144.57 5980.59 6834.41 6226.14 3796.15 3000.29 4209.31 5718.28 6242.79 5950.45 5713.03 5849.65 4165.21 5297.16 4936.96 5206.33 5530.49 5653.03 6192.0 4940.28 6752.75 5885.28 3004.34 5607.3 3022.6 2928.82 4811.76 4914.45 4222.4 4698.87 4568.41 3624.7 4912.04 4691.91 2685.81 4475.83 4510.8 5889.35 5010.04 4570.98 5097.45 4275.07 5825.38 5737.75 2761.07 5742.47 3778.02 6552.21 5417.8 7132.12 3678.08 5518.57 4187.31 5463.48 3240.51 5545.46 4527.99 5161.01 4298.15 4376.7 5190.61 4628.4 8325.01 6051.83 4440.81 5941.9 3973.12 6642.76 4497.78 5567.93 4243.79 5987.42 5433.65 4442.22 4887.76 4669.06 3012.99 4811.32 6400.08 6184.88 5829.32 4396.25 3763.05 5092.24 5551.95 5549.49 3918.87 2275.45 5423.42 6605.86 5012.5 3562.79 7093.13 4953.1 5818.95 4093.99 3604.14 3940.49 4452.54 5089.1 5828.35 4028.32 5876.72 4099.92 4884.59 4680.14 3858.06 4083.79 4187.94 5263.27 6300.92 5021.77 5599.29 4801.8 7216.98 5271.02 4807.4 7013.17 4601.74 6506.86 5088.57 5580.34 3852.6 5134.67 5775.31 4215.0 4603.5 4481.76 5452.78 5065.26 4304.41 4892.44 5578.94 4286.17 6579.31 5323.55 5375.1 5313.12 5351.56 4661.03 5160.59 3984.88 5262.35 4320.42 4255.34 5064.79 5480.3 7509.24 4394.56 5896.26 5388.78 4185.61 6101.13 4047.87 4573.72 5099.21 4917.99 5636.4 4367.78 5146.37 5670.0 4836.16 4232.16 5300.96 5151.11 5680.94 5730.33 3781.77 5581.55 5193.01 4543.1 6550.44 3860.83 3764.06 4523.39 5278.56 5434.47 5829.22 5631.14 4343.78 5811.18 4909.65 4008.15 7693.4 4286.49 4437.07 3449.37 5491.9 6405.0 4659.16 5789.55 4633.05 4901.2 5711.62 4383.56 4990.79 5166.79 6479.39 2895.63 4516.53 4122.92 5079.22 5381.54 5810.77 2711.19 5474.15 7519.2 6355.68 4511.7 4478.6 3953.55 4304.63 4469.54 4314.56 4173.54 6038.68 5046.12 3834.47 3805.67 4590.01 6101.86 5993.0 4803.57 5966.42 4110.59 4706.5 3332.49 5354.66 4647.67 4214.44 5375.12 4356.36 4787.97 3746.36 7610.49 4777.03 3684.56 4246.61 6028.09 5452.36 4172.6 3804.5 6486.37 5498.42 5318.53 4732.09 4281.98 7165.9 5344.83 7046.11 3427.63 4146.81 6342.48 5756.75 4587.67 5599.7 6969.28 3665.95 5698.96 4350.12 4095.75 5227.02 3603.51 4298.45 5222.51 6609.84 4344.51 5135.96 3834.43 5658.37 4707.06 6074.94 3474.5 5491.37 4250.88 3783.54 6348.03 5732.27 3475.67 4792.39 7038.89 5146.37 6917.62 4013.38 5067.56 6137.8 5263.3 3352.35 3747.03 6523.86 2783.85 4356.49 4326.48 3994.07 4219.94 5907.46 4264.91 5399.29 4909.31 6522.59 4798.17 5425.98 5996.66 4405.42 4997.91 3598.08 4599.81 5698.23 7300.58 4714.83 3608.06 6633.61 5217.95 5484.36 4277.24 4063.9 5291.05 5161.1 3928.53 4619.2 5606.51 5166.41 5740.65 5067.56 6349.67 6329.53 4139.3 4227.41 5078.31 5391.48 4923.43 5131.15 4847.14 3950.27 5116.66 5378.23 5374.67 4981.43 6789.23 3989.7 4215.2 5069.89 4157.29 6813.72 5327.75 4609.02 4638.18 4196.37 3344.57 6448.66 5220.76 6945.98 5138.2 5783.48 4863.97 4449.98 4504.35 4840.44 5093.82 5951.81 4163.74 3924.14 6918.35 4296.69 6238.32 3319.67 6471.42 5283.8 4076.59 4428.14 5164.1 6464.15 4972.17 5699.53 4222.77 5268.38 5527.23 4805.33 3863.67 5980.95 4814.12 6193.08 6069.3 2735.53 5887.01 5116.6 5388.39 5335.47 4526.81 5048.19 6799.23 4888.27 6740.71 6487.56 4854.11 5971.22 5533.19 5417.21 6602.43 3568.28 6063.64 7382.3 2995.67 5522.21 3772.3 4855.01 4923.57 3340.09 6061.63 2279.05 4867.7 4829.35 4075.28 8137.11 5484.32 6650.77 4067.96 7104.73 2596.96 5701.75 4350.15 3516.27 6541.45 4750.49 4263.78 4643.9 5228.75 6047.14 5009.83 5210.38 5717.8 3629.44 3566.79 5003.78 3299.24 6246.56 4741.28 4061.6 2603.64 5107.0 6212.15 4783.07 4896.65 4946.23 6083.28 5211.6 4453.97 3556.79 3503.41 6412.67 4701.5 7001.83 4771.65 5012.97 5589.37 5439.49 5212.43 4834.3 6804.79 6372.13 5369.5 5404.01 6016.19 4124.49 4479.11 5714.25 6685.4 4850.06 6332.01 7044.29 4234.18 4049.16 7085.01 3936.95 6153.94 6836.82 3862.77 4631.99 5168.35 4740.98 3185.39 5128.77 3728.18 5633.61 7122.87 4243.26 4153.84 5119.86 4592.15 5084.17 4901.44 3776.8 4998.22 5096.43 6156.21 6104.26 5583.61 6171.71 4986.71 3628.89 4668.88 4022.56 5027.43 5522.75 5867.64 6208.9 6059.93 5602.53 6545.43 6760.92 4711.04 4506.18 4824.12 6162.3 3272.75 5971.21 4264.54 5261.19 7043.44 4263.65 6106.43 4807.35 5666.95 4642.2 4811.22 3683.86 4918.76 5293.75 4208.41 5826.78 5473.72 2856.55 4553.68 6502.97 3758.22 4852.58 4757.2 5561.74 6100.73 5806.31 4745.79 5456.71 7317.04 3971.08 4036.91 4593.7 5110.11 6379.14 6639.64 3687.65 5454.12 4887.52 5478.95 6348.54 4066.57 5642.35 5156.76 6357.47 4891.38 5535.91 3230.13 5955.86 6176.67 5325.96 4848.46 5412.24 5016.02 4581.37 4920.21 5851.61 5478.11 5526.31 3858.17 3477.1 4078.93 5934.82 4501.78 5797.36 3572.94 5001.58 4729.42 5089.26 3886.72 5415.45 6592.93 6350.71 6436.74 4653.83 2460.79 5096.24 3908.98 6589.82 6328.42 7307.21 3619.72 4438.58 4565.93 7107.63 5073.02 5788.97 3472.91 4023.93 5868.89 4989.2 3274.85 5007.21 7144.05 4099.26 2970.9 5206.47 6542.5 4383.47 4834.39 5262.47 3104.96 3512.94 3831.52 4991.35 4587.7 4258.98 6761.81 5467.63 3903.91 4568.64 3919.62 4127.53 5210.75 4474.83 6555.44 5658.14 4508.18 6214.73 2205.51 5175.89 5361.87 4268.19 3205.68 4374.74 4532.7 4504.86 4788.08 5975.23 4473.29 4198.94 5470.04 4908.75 4211.82 6556.26 6204.65 5438.92 4482.9 4349.13 6550.4 3766.69 4891.67 5216.26 3634.5 6571.31 3851.85 6318.23 4206.98 4058.87 5174.75 5932.07 6101.57 4793.65 2949.12 3856.53 5460.89 4533.37 4532.89 5260.85 5742.09 2779.99 5887.38 2884.65 5807.46 4648.21 6942.34 3658.05 4549.69 6423.81 5030.15 3644.78 4312.15 6418.11 6015.02 5244.22 4922.49 5585.14 7039.98 4820.17 5244.98 4159.81 5792.98 4385.81 4034.05 5690.96 5798.38 3862.91 4456.11 5366.11 5039.12 4824.81 5769.14 5944.3 5135.5 3381.82 5347.9 4646.51 5851.63 4504.52 4831.93 4928.85 5556.0 5545.59 5494.28 5610.53 5755.15 4580.06 3926.11 5493.89 4057.17 4467.0 4994.65 5196.92 3787.08 5644.81 5334.36 4728.55 4929.6 5750.35 4489.99 4548.45 4551.26 5730.61 7124.45 6358.93 3894.64 5064.67 3703.49 5232.85 4062.56 3717.47 6200.63 3217.67 5079.64 6163.54 5212.37 6003.78 5684.25 2628.22 5058.51 4244.49 5036.98 5513.8 6818.91 3503.65 4521.75 4027.63 6631.28 5350.88 4392.65 5420.67 6413.15 6103.11 5048.55 4984.46 4024.31 5948.71 5844.72 3992.97 6040.74 4054.22 7228.94 5393.65 4961.99 4393.16 4595.12 3311.29 6484.43 4625.67 6192.77 3485.54 4458.64 4583.52 3492.83 6280.13 3684.15 5832.29 4438.76 6006.89 6456.58 3965.3 4960.64 4983.3 7778.01 5127.82 5124.17 5805.1 4125.9 3419.87 4064.58 4234.88 5113.6 4384.28 4810.98 3563.14 5091.22 5640.72 5727.79 5212.92 5615.84 4464.73 6440.38 3904.07 5748.9 3663.0 4954.81 6304.49 4835.97 6419.64 5464.83 7066.96 2781.96 4431.23 5917.34 5601.55 4462.87 5630.9 4554.68 4368.28 4692.32 4945.0 4658.11 3127.83 4212.15 5114.07 4385.49 7142.95 4383.68 6618.21 2617.39 5144.44 4051.18 5969.37 6816.66 5034.69 4509.46 996.652 3538.53 4680.69 6500.49 5965.58 3352.34 4901.29 4050.03 4775.04 5188.53 4882.66 3429.57 5569.2 5410.33 4642.74 5305.59 5416.45 6459.51 5754.6 4955.16 4904.51 4147.31 5989.05 2202.77 5751.15 5950.88 4441.22 5853.89 6551.93 3380.69 4140.4 3110.13 4386.8 5446.4 4725.01 5966.75 5510.9 3657.69 4883.63 4505.28 4971.29 5510.45 4730.14 2606.51 3994.39 6119.99 3814.65 4618.73 4128.1 5372.82 4402.17 5401.4 5053.15 5910.86 7320.78 4834.44 5782.43 4456.26 4027.33 3873.92 5026.76 6282.38 5023.41 4092.07 4546.44 5657.55 4184.21 4700.07 5188.82 5273.37 5043.14 4717.73 4732.37 5072.5 4985.3 5713.36 4749.18 5553.94 3742.31 4546.96 5424.55 5134.72 4921.1 4608.34 3814.16 5695.79 3622.8 5414.58 5577.41 5740.98 4346.07 4013.86 6545.99 4218.16 2918.64 4140.92 4512.07 5984.8 5236.24 4585.04 5678.58 4263.18 6570.35 4242.63 4559.74 3269.54 5836.26 6666.67 6063.44 4583.94 5046.31 4928.35 1937.5 3844.54 5849.53 4651.99 4420.11 6127.39 4972.18 4607.18 4124.76 7200.89 4120.07 4813.33 4952.52 3840.21 6746.66 4954.76 3908.56 6735.97 3636.15 4330.58 6114.89 5135.63 3288.01 4355.83 6870.97 5351.86 6056.87 5474.01 4149.55 6201.86 7554.58 3639.44 5166.89 5491.63 5725.37 3868.62 5138.33 3743.76 3425.69 6711.21 4236.86 5393.76 4941.02 3864.92 2955.36 3668.93 4446.58 4009.24 7541.76 4775.49 4681.29 3220.29 6239.68 3845.9 4439.71 5667.51 4708.31 4198.9 5431.29 4833.67 5325.91 4213.05 4224.3 5157.38 6203.03 5235.87 5810.17 4966.07 4400.14 3669.32 4704.92 4316.0 4287.25 4392.75 4271.07 4420.6 5287.25 4770.51 4184.47 6511.37 4012.92 5759.79 4177.47 4598.54 5218.42 4933.49 6139.64 4896.43 5463.06 4639.8 5260.52 3185.09 5114.23 5495.0 7407.91 6015.22 4454.74 2904.46 4826.52 5120.92 4337.32 5241.75 4731.53 3763.9 4788.7 5863.0 5640.12 5329.76 3899.7 2403.72 4147.49 4802.98 4833.55 4081.34 7224.99 6334.53 4844.83 5244.78 5652.87 5483.7 5018.69 6384.7 5952.38 3896.27 5807.52 5963.36 5230.02 5307.35 4342.18 6016.08 4731.21 3124.7 6064.71 6102.98 5153.18 4763.4 5902.67 5454.11 5806.61 4983.1 6010.59 7123.04 3756.96 5906.57 4932.29 4990.23 3784.94 5499.59 5749.6 4141.21 4174.44 4564.41 6331.74 5951.86 4252.18 4659.88 3791.41 5853.12 5702.4 5069.9 6089.45 3673.6 3306.84 5265.21 4657.24 5866.42 4762.1 3987.69 6502.99 6219.34 4191.01 4475.38 4589.06 4920.88 5890.25 4216.44 3999.5 5034.05 4816.51 5345.73 4770.63 3990.94 4756.8 5477.8 4462.35 3986.41 4241.68 6102.49 3469.18 2945.34 4489.29 5064.23 4301.93 6061.85 5512.44 6449.06 4685.4 6240.42 5146.0 5721.14 4577.73 5084.5 4918.64 6638.25 5078.59 5134.33 4759.99 2646.13 5419.57 5162.67 5760.98 3646.95 4705.68 5384.86 4749.96 5377.37 4658.24 5869.67 4311.48 4899.73 3152.86 5457.66 6394.19 5973.89 5518.11 5087.14 5712.35 5169.48 4743.9 6776.22 5321.17 3719.11 4467.13 6060.17 3877.8 6273.6 5136.87 5024.32 4708.17 3779.45 2741.2 5790.42 5784.37 3142.09 3682.35 5591.77 5182.13 6110.48 6245.52 3954.77 6793.1 3125.13 6016.87 6715.73 4506.66 5209.55 5426.4 5763.05 5129.68 5357.39 5076.84 5247.01 4208.37 4841.7 5685.74 952.938 5473.89 4678.7 3450.07 6215.87 5191.26 6060.06 5544.27 3484.81 5308.33 4666.12 6023.07 5674.63 5340.05 5995.4 5322.11 5700.79 6710.14 4426.02 4711.15 5188.22 4841.23 2804.54 4357.11 5005.6 4176.32 6069.78 5532.75 6949.65 3372.95 4095.83 5676.61 5846.95 5268.15 5819.0 6347.72 4924.07 3460.93 3200.6 4629.02 5914.5 6006.16 4288.45 4987.28 6206.98 6562.03 4815.47 4368.12 4365.58 5214.4 4636.53 3629.49 5766.05 5469.35 3835.81 4019.34 4869.48 3623.19 4906.11 4387.39 4564.1 5825.55 5509.51 4848.14 5366.22 4316.5 6193.73 5254.24 3742.11 4192.21 3597.43 5701.52 4158.91 5311.55 3360.86 4869.25 5545.21 4333.87 5684.05 3667.93 5638.7 5813.79 4644.88 5293.13 7350.26 3768.46 5167.53 5003.3 4168.52 5800.81 5106.46 4068.31 5166.05 5077.29 5515.73 4850.5 5866.91 2820.07 6405.69 5679.74 4825.73 5288.33 6296.54 5797.21 6019.35 6740.35 6028.63 4550.92 5146.1 6485.77 5960.5 5393.43 6896.55 4685.65 6470.23 6506.63 4140.04 3495.3 4697.49 5735.08 4726.2 4750.81 3825.48 3810.68 4196.62 2809.19 4916.7 5486.89 7208.19 4549.51 3587.93 4975.85 5695.25 5323.95 5716.42 5701.63 4620.95 5368.93 4488.39 5124.86 4927.73 4602.57 3565.32 4608.62 5407.96 4071.75 4626.72 5131.77 5549.71 4410.82 6443.99 3889.98 5193.58 5399.43 5695.44 5117.64 3422.21 3916.42 5429.3 5510.96 6653.07 4745.16 4697.91 4584.81 5071.98 5719.79 3199.4 4371.08 7261.51 4968.14 4914.03 5086.29 5144.56 5139.18 5551.43 3034.16 5049.99 4201.03 5001.87 4493.79 4279.44 4899.19 5058.34 4028.22 5575.11 3852.82 5487.63 4507.36 7145.73 5403.97 4795.08 6562.92 5501.73 3671.06 3612.44 7035.54 5233.76 4683.28 4217.36 6549.8 4165.36 4851.18 4871.77 5811.26 5062.77 6075.99 5927.2 4419.79 5407.69 3869.39 5152.78 4117.9 4753.76 4638.09 5377.01 5330.26 5939.22 4668.8 5125.17 4859.01 5524.45 7133.44 3953.26 4474.39 4658.59 6478.35 5453.77 4104.04 5589.53 5593.79 5025.42 5196.08 4517.29 4495.75 4849.5 6171.01 5796.26 4603.04 4870.94 5271.88 6121.56 7168.2 3763.85 3419.07 5710.33 5344.44 6432.8 3186.07 4369.86 4967.51 5173.82 7212.97 5490.64 5034.34 3769.2 4507.46 5036.14 5603.68 4944.51 5610.95 5532.72 3220.8 5179.17 5579.39 5270.51 5148.1 5224.64 5949.73 4312.48 5527.13 6370.33 4278.57 5081.08 6318.25 6864.06 6008.81 4932.56 5192.49 3487.31 6643.4 3918.94 4674.9 5461.72 6599.28 6224.85 5368.66 4556.19 5648.78 6875.73 5226.42 4697.24 4983.43 6311.89 6734.39 5942.45 4150.76 5005.72 5368.52 5155.28 5388.73 4884.93 5205.38 4600.71 5262.79 3957.38 4494.15 5035.71 4710.88 5300.17 4057.4 5534.23 4781.9 6815.96 4441.91 5339.6 5828.25 4725.11 4215.05 4271.93 4604.1 5076.11 5990.75 5600.21 5459.92 5467.51 4625.53 4096.47 5114.67 5353.66 2638.82 5030.33 5234.2 4965.24 6379.38 6257.79 5353.23 6229.83 4468.26 5578.18 5293.37 5933.54 5559.79 5879.24 4571.74 4096.86 3622.48 5001.51 5385.86 5115.42 4082.4 5482.76 3745.02 3720.7 4211.36 5698.53 3604.31 4450.49 3468.45 5635.32 4526.34 4316.45 5409.08 5042.75 4598.92 5241.22 6647.08 4979.52 5490.75 3422.29 4407.79 5214.63 3495.68 5783.94 5352.24 7362.42 4202.77 5836.14 5473.05 5537.34 5884.99 5726.42 4433.12 2549.95 3392.26 4361.24 5138.93 6406.8 7086.69 6170.9 4436.48 6081.3 5117.52 5615.35 3967.76 6213.24 5987.88 4228.53 6123.46 6142.88 5111.26 4574.54 4764.83 4949.55 3132.34 1969.87 4841.28 5507.38 6889.5 4416.87 4052.43 4896.67 3934.11 6025.77 4466.22 6153.71 5917.08 5483.37 3626.86 6371.96 5322.07 5770.07 5101.6 4282.11 6589.13 2347.41 4542.16 3543.37 2030.03 5527.27 5104.39 4612.13 5846.6 5327.05 5438.55 4434.65 5977.66 4523.81 5106.33 5198.94 4028.35 5464.05 2980.31 3148.79 5740.78 4796.12 5997.91 4742.82 6791.86 4930.72 4209.0 5728.58 4887.73 6297.99 3856.73 5378.24 5817.74 5887.71 5661.6 4827.61 5285.75 5385.03 5481.64 5673.75 5360.67 6263.3 4501.05 4537.03 6548.29 4114.2 3990.96 4326.06 5034.46 5757.29 5793.12 5469.17 5061.75 4373.2 3769.24 6022.78 4087.32 6647.85 7025.09 2569.12 5161.74 7336.37 5099.9 6945.69 5118.86 4304.64 4733.79 5833.78 5758.98 5254.49 5288.64 6828.8 3579.59 6161.94 5057.59 4065.28 4461.14 5285.6 5615.06 5490.54 5203.54 4047.95 6142.94 5001.69 6581.56 3980.46 5383.9 5158.44 3886.56 4496.51 4511.05 6561.94 5259.21 5418.12 5934.05 4714.66 6771.18 4984.17 4656.01 4037.86 5602.62 5714.51 5628.97 4484.78 5157.73 5847.91 4934.66 4903.84 4109.44 4290.49 6688.53 5209.5 5065.74 5791.25 4873.23 5410.6 5453.2 6348.93 6824.53 4332.64 5232.16 4422.23 4820.68 6031.22 5485.84 6424.77 4538.89 5918.95 5689.56 6556.86 3242.31 6099.28 5372.25 3234.26 4169.15 4778.37 5134.17 5968.54 4904.35 5592.54 3247.97 5124.34 4904.37 4358.81 4651.64 5729.92 5016.46 6224.13 4761.84 3661.67 5517.65 4009.68 3303.49 4622.73 4161.32 6351.89 5932.28 2960.5 4298.7 3902.48 4183.4 6030.39 4905.53 4823.06 3799.01 7392.65 5319.1 3757.23 4181.93 6883.86 3350.99 3820.19 4979.5 4745.37 5939.29 5418.98 5575.11 4052.49 5061.74 5326.03 6189.67 4948.96 5256.82 4061.87 4013.86 5165.31 3798.09 4288.5 5715.51 3721.69 3456.3 5317.83 5092.93 5881.93 2803.01 4444.0 6182.19 5327.39 5781.62 4981.81 4138.59 4970.55 4938.33 4621.33 4541.22 3539.68 4946.08 4984.01 6217.33 4557.1 5927.1 6175.27 5876.51 6731.89 4733.41 2932.52 5264.83 3901.53 5136.51 6815.51 5313.86 4457.05 3989.26 3618.64 5703.84 4335.79 3530.82 5453.69 5797.32 5432.04 3921.27 3702.45 5265.63 4898.29 4431.06 5730.2 4830.13 3494.16 5370.9 4074.16 4529.77 4325.13 6172.27 5390.33 5078.73 5278.54 5729.0 5192.92 5275.57 4179.87 4786.66 5891.25 5370.1 5129.4 5114.51 4655.37 5585.25 5256.75 4672.86 6530.78 5560.23 4975.32 3043.77 5237.55 3909.94 5088.64 6589.8 6920.92 3729.16 3783.36 3038.91 3922.28 6570.43 3445.92 5236.69 4586.82 6026.04 6200.05 5859.17 4034.41 5522.34 5771.98 4420.35 5717.45 5117.83 5268.27 4645.93 5448.64 4585.37 6417.61 5395.12 5783.69 6074.39 3483.61 4256.08 4460.89 4399.52 4554.24 3939.96 5910.66 7415.84 4637.3 5141.03 4840.44 8123.59 5765.14 4767.54 5121.08 2927.84 4696.03 6177.68 4605.39 6270.59 2848.44 6045.26 6500.45 4907.55 4103.76 4286.61 4094.63 4603.66 4969.68 6636.43 5431.14 6298.8 3689.24 5178.07 5189.91 5777.26 4171.02 7012.36 5028.06 4886.99 4002.99 5159.67 3161.1 5764.52 5684.88 6523.78 4645.86 4045.67 5620.88 4941.52 5900.0 4262.74 6241.77 3783.79 5317.19 4248.14 5279.19 4016.6 5821.49 7050.08 5580.44 5998.13 5095.52 4746.15 3720.38 4758.84 4731.37 5023.61 3976.0 4068.41 6463.71 5059.37 5783.38 4139.39 6264.03 3562.8 4151.74 5192.82 3573.84 4174.22 4067.89 6294.09 4571.57 5131.07 4121.07 3133.28 5524.28 5731.43 6353.81 4150.44 3518.14 5044.68 2649.69 5899.78 5000.74 5772.57 4813.81 5244.95 4634.25 5901.8 6351.48 3830.7 6210.0 5350.9 4262.52 6738.9 5992.06 4157.1 8052.53 4867.12 6044.01 6520.19 1458.87 5734.07 3997.68 6033.28 4819.83 4801.16 5071.38 5616.66 5688.77 4698.7 5368.28 6229.64 4220.43 6263.87 5743.8 6666.34 5084.76 6605.11 4757.87 3557.46 5971.95 3979.46 5652.73 6321.97 5151.19 6509.54 6119.0 3792.06 4293.3 5128.59 5587.3 3572.73 4864.38 3770.22 4390.64 5150.84 4608.01 5087.97 6005.95 4308.49 4930.17 4581.1 4745.44 4085.96 5762.82 7360.12 6223.98 5462.6 5617.29 3035.06 4262.19 4597.88 4878.93 6275.25 6892.33 4505.3 4452.36 4511.34 4832.21 5009.21 4742.35 5394.79 5645.54 5264.08 4526.87 4691.01 4594.89 5245.95 5821.42 4515.02 3463.53 6126.03 2970.24 4197.87 5105.54 5462.1 3414.67 6032.45 5444.36 4026.03 6908.32 3467.11 4817.75 6153.26 5637.53 3882.37 4095.4 5188.57 3873.79 5357.33 5252.37 5432.4 5037.58 7430.48 5545.68 4970.12 4967.93 6369.66 5973.57 6241.48 5957.82 6286.27 6327.54 5507.07 4802.36 5327.71 5466.13 5257.38 5075.23 4975.56 7282.36 3826.01 4645.91 5581.01 6834.92 6379.33 5130.57 5402.45 3985.93 6412.84 2589.19 6071.59 6079.55 5485.61 4993.49 5310.33 6583.37 3688.83 3402.44 4848.98 4491.96 5184.98 4467.51 5339.82 4519.03 5460.57 5110.27 5703.34 4612.68 6668.98 6649.52 4232.33 4939.56 4747.68 5770.92 3093.38 4845.91 2002.78 5631.32 6322.0 5793.14 4491.26 4609.65 5704.61 5410.73 4379.91 4574.03 5290.37 4227.66 5850.38 4730.97 3677.85 5214.71 4677.84 4811.11 4924.52 4866.8 6044.69 5658.05 6593.1 4000.51 6033.93 5011.37 2827.92 4441.44 4232.44 5336.61 5563.09 4848.15 4439.09 5523.81 4718.61 6697.45 5717.67 5515.59 3224.81 4499.54 3775.38 4046.22 6457.89 5640.67 6572.17 6080.69 5555.89 4766.47 4871.1 5678.08 5922.62 5125.45 4414.09 3784.68 4188.16 3717.22 4654.92 2943.17 4880.78 5286.55 4322.56 5509.09 5625.02 5212.05 4829.77 3928.99 4444.92 6959.88 4125.75 5749.53 5247.73 5090.48 5034.02 5582.28 5945.25 5181.31 3856.4 4696.06 4137.16 4937.36 5308.4 6581.13 4569.32 5537.61 6084.88 4397.06 4199.44 4053.12 4479.5 6261.67 3435.13 5065.78 4431.46 4521.42 3207.84 3977.98 6043.34 4128.93 4959.72 4712.17 3808.04 4723.71 4461.67 6126.5 4034.88 6007.1 6345.2 5488.96 5128.03 3720.92 5087.3 4942.63 6139.74 4975.57 7066.26 6150.31 3057.3 5873.62 4996.91 5379.52 3920.44 3768.62 5314.67 5563.47 5651.46 4066.36 3162.27 5516.37 5092.44 5432.2 4612.4 3312.3 4746.19 6381.58 3282.57 4798.13 5648.59 4630.5 6296.36 4432.32 4451.76 7885.41 5782.25 4104.97 4844.2 4575.72 5114.61 3751.73 6118.13 3374.62 4926.62 3917.09 6009.93 5872.45 5270.1 5191.29 4947.64 6305.9 6649.21 3470.69 4859.95 4132.08 5522.18 5223.1 3873.72 4592.49 3625.98 5479.86 6474.5 4702.32 4763.04 5971.9 3746.62 4532.67 4876.37 4769.62 5260.13 4649.5 4810.74 5985.75 5475.83 6189.29 5984.55 5672.46 5803.3 3228.27 4721.98 5252.82 3543.98 5056.26 5878.55 4014.44 6604.72 6002.77 3794.47 4610.55 4967.02 4614.49 5400.69 4462.5 5573.31 5004.68 4023.88 5348.11 4405.61 5108.84 3511.5 5067.92 4520.14 5357.14 3188.21 5919.27 4793.06 6637.38 6188.33 6111.23 6916.18 5786.06 4137.41 3868.69 5447.74 4450.51 6033.72 3851.47 4966.74 4959.94 1635.31 5639.4 6185.73 4083.24 6520.96 3771.91 5217.62 6178.19 4616.81 5715.25 5212.2 4611.21 5108.42 3354.94 4404.87 5237.27 5767.65 4750.76 4907.03 5497.27 4081.77 4948.21 4987.01 2181.29 4420.3 6332.64 6492.44 4083.1 3482.73 3996.93 5130.56 4957.99 4063.26 4997.89 4542.62 5093.28 6131.52 6009.88 4699.77 4850.49 4981.55 5144.23 6188.62 6153.07 4414.06 5944.52 4413.56 5050.2 2513.38 5316.05 4908.32 3995.08 5019.84 3900.93 5784.38 4149.17 4329.8 5728.27 3074.49 5202.33 3956.24 7558.99 3393.59 4142.1 5043.14 5333.04 5445.91 4521.99 4812.59 6842.54 7115.67 5675.45 3361.11 6038.56 2807.46 5599.16 4179.8 3488.34 5658.35 5428.24 4487.51 4582.12 4295.25 7394.47 4729.45 4850.95 5374.09 6271.22 3421.81 5378.75 3920.64 6186.24 5822.7 3780.07 5466.49 4038.17 5007.41 3692.99 4907.48 6213.74 2329.93 4369.87 6938.87 5412.07 5512.57 4806.99 4813.55 5856.43 3839.0 3465.03 5349.85 5799.86 5172.1 4362.94 4469.82 6545.78 4870.14 2932.2 5105.72 5003.49 3964.03 4216.33 5832.72 5617.91 4721.2 4202.12 4706.31 2694.25 4735.99 4203.68 4739.56 4613.32 5145.39 3352.46 6351.95 5195.09 5345.05 7679.2 4881.51 2626.41 4311.92 6729.99 5093.41 6842.35 5464.34 3621.63 5801.89 5908.57 7296.47 5742.39 4821.41 4924.53 5616.11 4499.52 3874.12 4028.13 4457.73 6476.35 6260.58 4067.24 3053.19 6571.26 5580.95 6598.99 3549.92 4032.06 5246.81 5089.1 5888.95 5394.78 3463.34 5122.38 2853.68 5262.85 4998.37 5329.84 6559.82 3879.83 6565.95 4577.98 5043.34 5886.81 4246.24 6805.02 5354.48 5640.63 4900.26 6261.13 4167.55 4720.34 5244.47 5510.89 4731.16 6470.87 4495.33 5282.67 4159.89 5178.55 5146.69 6203.24 6818.23 4488.41 6679.12 5652.19 5806.74 6578.62 6284.12 4796.04 5229.56 6011.4 4672.34 6052.22 5376.41 5003.63 4695.7 4944.08 4082.01 5269.39 4305.35 5210.22 2451.27 3903.9 4444.95 5161.02 3124.49 6265.48 5003.81 6262.18 3818.37 4701.03 6225.05 5434.04 5200.1 3997.52 4444.54 5779.9 4909.74 5310.33 5299.03 6664.54 3922.98 5161.73 5259.48 4777.96 4803.4 6833.5 6608.94 2613.78 4780.16 3834.01 5738.37 4433.23 4813.24 5759.19 3113.64 4490.2 4304.75 5480.86 6139.9 4720.22 4313.38 5827.3 5250.56 3633.58 2468.16 6294.14 4339.97 5203.75 5169.09 4691.15 2459.88 4210.24 5470.67 5901.71 5225.11 5342.9 5252.22 5733.12 4962.35 6436.29 5402.81 4600.81 4919.13 5168.97 4124.33 5783.88 5002.38 6705.93 4865.11 5449.09 5502.14 4605.61 4465.56 4131.08 5747.9 3864.19 4287.93 5315.71 6158.93 5081.65 4823.14 5438.5 4621.32 5699.4 3878.8 4698.94 3948.21 5669.15 5296.05 5263.86 3330.85 5056.32 5533.52 5410.33 4747.24 4380.86 5576.16 5648.02 3308.75 4439.17 5677.42 4929.35 5606.22 3943.77 5242.38 6081.35 5459.52 4609.98 5566.5 5663.36 4276.59 5579.04 5125.53 5994.21 5403.81 5082.25 6964.78 4374.05 5036.84 4565.36 5813.68 4025.08 4008.67 3618.53 5254.93 4770.21 8013.28 3846.55 3796.73 5417.07 3082.16 5656.84 6789.66 4739.41 5312.2 5847.27 4706.59 5734.84 3982.31 4950.07 4582.24 2832.83 4084.87 6036.99 3010.1 3825.98 4589.22 5087.03 4667.84 3906.41 4123.08 4512.6 4260.38 4636.45 4932.27 5638.51 6793.49 3563.33 6060.19 5536.0 6786.37 4333.23 4328.76 5561.63 5940.5 4358.06 5093.51 5647.93 4280.92 6201.49 5154.74 6437.99 6898.8 5386.95 6540.57 5332.11 4893.72 6004.72 4072.4 5373.78 5345.65 4489.18 5863.36 4632.75 5237.76 4994.98 4286.84 6423.96 6058.13 5894.69 6988.4 6635.51 4060.17 6051.35 5302.53 4909.13 4287.61 4867.13 4604.34 4863.27 2701.42 5442.79 5051.39 6673.92 5151.68 4884.94 5362.15 4455.61 4738.72 4752.31 5240.97 5569.85 5405.6 3929.35 4884.93 4759.38 6960.97 4287.15 5282.51 5504.65 5669.41 5732.11 5040.9 5596.68 4868.66 5159.9 5283.65 4644.68 2892.36 5981.54 5911.29 5416.41 4694.27 6760.64 2515.5 5177.88 5551.79 6981.47 3916.15 4474.96 4758.76 4790.63 5259.29 3584.05 4916.75 4818.53 5097.85 5584.64 6189.04 6224.64 4221.03 3799.55 5082.66 4550.77 4337.93 3550.88 4345.51 4048.73 6223.33 3860.8 5145.13 3747.96 5611.29 4521.88 6568.45 5004.22 4601.54 7263.57 4696.92 5705.96 5739.69 6632.04 7360.62 4977.64 4985.45 4983.56 5699.51 2489.44 5499.37 4883.13 4836.76 4752.94 5551.09 3950.53 4501.1 5581.47 4384.91 6550.61 4987.01 4713.56 6094.34 6779.82 3999.81 5543.67 6210.48 6377.45 4182.05 4502.12 3255.93 6853.07 6327.61 4633.59 5733.59 5575.8 5268.93 6874.6 5106.9 5306.31 5523.96 4223.53 4733.37 4535.94 3037.72 4523.9 5126.08 5604.0 3760.4 4951.02 3919.47 4602.7 3783.35 4037.16 4004.39 6395.63 4987.48 5943.61 4248.58 5479.17 4542.25 5020.37 4414.23 5233.88 4849.21 4785.55 3793.83 5245.4 6189.81 5367.05 4449.73 5647.11 4088.72 3945.62 3743.85 6236.46 5342.17 6379.3 5015.67 3795.63 5189.4 4576.71 6538.04 4894.15 6157.59 5201.3 5848.41 4090.28 4246.83 5438.6 7370.52 4726.5 5467.05 3724.23 5103.3 4963.88 5888.94 4727.98 3832.09 4122.2 5175.88 5267.65 4516.26 4790.16 3509.34 5360.88 3647.26 3731.58 3166.37 5369.42 5207.08 5205.53 4714.52 4587.19 5543.05 6028.89 5333.16 4888.17 5755.98 5392.85 5077.2 4274.05 5275.27 4277.54 5529.09 4531.46 5925.82 5448.68 4739.5 4072.95 4491.62 3865.5 3695.72 
SCALARS Velocity float 1
LOOKUP_TABLE default
1.05963 1.369 1.19562 1.19635 1.19633 1.19242 1.19291 1.20505 1.1968 1.20967 1.30524 1.42844 1.87759 1.5642 0.926059 1.47538 1.44731 1.55907 1.52516 1.72945 1.77628 1.28623 1.19224 1.35989 1.13481 1.19265 1.2289 1.19178 1.19174 1.19135 1.20142 1.19804 1.1917 1.19179 1.19124 1.19221 1.19157 1.19178 1.19178 1.19178 1.19461 1.19693 1.19994 1.19683 1.19541 1.19178 1.19436 1.19382 1.19174 1.19972 1.19178 1.19157 1.20457 1.20026 1.19483 1.19438 1.19564 1.19207 1.19536 1.1928 1.19785 1.19253 1.19139 1.19199 1.19405 1.20036 1.1952 1.19216 1.19171 1.19791 1.19083 1.19182 1.19432 1.18729 1.19861 1.18029 1.19578 1.1992 1.22052 1.21363 1.20331 1.2105 1.1922 1.20558 1.28815 1.20439 1.29151 1.19178 1.27613 1.35005 1.28592 1.20608 1.71399 1.33811 1.54472 1.6351 1.24798 1.77416 1.4153 1.04366 1.02701 0.873334 0.890729 0.896256 0.868773 1.44329 1.33023 1.5381 1.56321 1.00104 1.17648 1.31679 1.17522 1.31151 1.17809 1.24438 1.21199 1.19178 1.22484 1.19178 1.20183 1.19178 1.19178 1.19178 1.20895 1.19161 1.19178 1.19339 1.19409 1.19107 1.19573 1.19508 1.19894 1.20026 1.19651 1.19691 1.19847 1.19708 1.19262 1.19737 1.19401 1.19974 1.19814 1.19935 1.1905 1.20035 1.20407 1.1938 1.19293 1.20114 1.19758 1.19443 1.19424 1.19373 1.20056 1.198 1.1972 1.19305 1.19206 1.19178 1.1962 1.19324 1.19986 1.19516 1.19178 1.19164 1.1983 1.19178 1.19178 1.19587 1.19684 1.19254 1.20004 1.18895 1.2 1.19838 1.19959 1.21792 1.21653 1.21585 1.23247 1.21481 1.19178 1.20014 1.19166 1.20917 1.20359 1.29116 1.18139 1.36901 1.24116 1.32504 1.38739 1.04067 1.1085 1.28471 0.900893 0.905755 0.869137 0.829612 0.858413 0.877251 0.978708 1.15627 1.2307 1.04148 0.844026 0.881459 1.05755 1.16251 1.28969 1.12932 1.22854 1.10927 1.26094 1.21069 1.17291 1.23431 1.20462 1.19975 1.19178 1.19178 1.19178 1.20945 1.20199 1.19313 1.19208 1.19479 1.19368 1.19486 1.19924 1.19773 1.20124 1.19956 1.19848 1.19747 1.19163 1.19529 1.19882 1.19185 1.19178 1.20136 1.20273 1.20337 1.19368 1.19287 1.19374 1.19141 1.20112 1.1962 1.19424 1.19801 1.1941 1.19998 1.20087 1.202 1.19978 1.19369 1.1914 1.19177 1.19682 1.20033 1.19427 1.19991 1.19526 1.18924 1.20244 1.19821 1.18344 1.19802 1.19824 1.19732 1.20182 1.18864 1.19838 1.19932 1.2163 1.20552 1.21406 1.21331 1.21929 1.1952 1.20679 1.21545 1.28484 1.28349 1.08233 1.20054 1.3429 1.32642 1.34467 1.09687 1.01323 1.04681 1.18115 1.11364 0.924622 1.02512 0.922539 0.910397 0.982162 0.602566 0.683677 0.752114 0.845914 0.868722 0.926287 0.9775 0.987758 1.02603 1.07956 1.0379 1.14024 0.823966 1.3532 1.22956 1.30333 1.36259 1.15022 1.20344 1.21151 1.13775 1.23583 1.19484 1.19953 1.19048 1.19492 1.19178 1.19625 1.1952 1.19783 1.19779 1.19782 1.20256 1.19709 1.19919 1.19714 1.19718 1.20168 1.19962 1.1964 1.19934 1.19426 1.19825 1.18773 1.19791 1.18485 1.19668 1.20267 1.19836 1.19285 1.19054 1.2019 1.19129 1.20096 1.20132 1.19987 1.19552 1.19601 1.19172 1.19178 1.19022 1.20725 1.19869 1.19658 1.19924 1.19999 1.20166 1.18901 1.19271 1.21724 1.20631 1.19463 1.19393 1.15314 1.2063 1.19246 1.18464 1.29269 1.28532 1.30129 1.12027 1.13143 1.29342 1.30026 1.11952 1.06559 0.952717 1.01999 1.10796 0.838509 0.930104 0.944893 0.824599 0.75552 0.799403 1.02684 1.06054 0.643518 0.819759 0.906411 0.805751 0.983703 1.04996 0.959899 1.10557 1.09837 1.01017 0.851176 1.00827 1.34727 1.40637 1.28479 1.28844 1.39888 1.17453 1.18189 1.21227 1.25578 1.18617 1.24479 1.19178 1.19004 1.20114 1.20438 1.19647 1.20466 1.22038 1.1955 1.19488 1.19738 1.19613 1.19465 1.19695 1.20117 1.19894 1.1924 1.20145 1.19609 1.19107 1.1982 1.19275 1.18693 1.18816 1.18342 1.18946 1.20515 1.19557 1.18466 1.20491 1.20274 1.19897 1.20015 1.19834 1.2018 1.19232 1.19927 1.1992 1.19682 1.1955 1.19534 1.19178 1.1904 1.1916 1.19017 1.20702 1.19841 1.20326 1.19878 1.19485 1.20228 1.19751 1.19082 1.18918 1.18566 1.19446 1.2093 1.20509 1.19248 1.19369 1.22155 1.2015 1.14232 1.20409 1.24096 1.25007 1.15676 1.14882 1.31201 1.15371 1.38235 1.16305 1.11876 1.10674 0.882648 1.21504 0.838828 0.450396 0.474289 0.884362 0.383687 0.238312 0.818102 1.10077 1.5759 1.37059 0.622506 1.21051 0.78472 1.12282 1.10998 0.799041 1.09855 1.26063 0.876116 0.729451 1.24824 1.36252 1.1585 1.23169 1.20993 1.17199 1.16756 1.15756 1.25552 1.25384 1.20244 1.25214 1.194 1.19231 1.20295 1.22127 1.19795 1.19692 1.1967 1.19902 1.19257 1.19447 1.19327 1.1922 1.20229 1.2001 1.1987 1.19884 1.19455 1.19622 1.19082 1.18481 1.19469 1.19376 1.19045 1.18913 1.18878 1.19351 1.19449 1.20334 1.20609 1.19889 1.19597 1.20163 1.19097 1.19158 1.19733 1.19277 1.1894 1.16894 1.19011 1.20669 1.19897 1.19897 1.20518 1.19008 1.19133 1.19465 1.19769 1.20375 1.19722 1.19875 1.19884 1.21378 1.19419 1.16959 1.23044 1.17858 1.17301 1.19306 1.26235 1.14285 1.41409 1.04554 1.0591 1.11847 1.14009 0.892226 1.02005 1.24613 0.827913 1.03918 0.284734 0.531965 0.801505 0.357927 0.19106 0.858572 1.33414 1.56975 0.837393 1.0745 0.909828 0.695729 1.15578 0.62704 1.07368 0.605262 0.818997 1.2304 1.03904 1.23799 1.20269 1.16003 1.14594 1.25213 1.25478 1.25478 1.2588 1.19452 1.17701 1.19224 1.18206 1.19464 1.19618 1.20311 1.20384 1.2011 1.19702 1.19437 1.19271 1.19542 1.1939 1.20211 1.20161 1.19833 1.19981 1.19919 1.19596 1.19696 1.19132 1.18931 1.18297 1.19415 1.19408 1.19105 1.19462 1.18826 1.18788 1.20206 1.20202 1.1947 1.19693 1.20046 1.19572 1.20121 1.19049 1.19503 1.19252 1.18867 1.19353 1.18393 1.19178 1.19571 1.1991 1.22336 1.19419 1.18916 1.19037 1.19986 1.19476 1.18574 1.19625 1.19897 1.19571 1.18677 1.17826 1.18796 1.22073 1.14858 1.19222 1.28309 1.20664 1.08798 1.22876 1.39257 1.24131 1.08097 1.05628 1.03196 1.13953 0.838329 1.07022 1.20947 0.574929 0.42574 0.503778 0.727117 0.809426 0.745674 1.1267 1.09668 0.626869 0.443208 0.917509 1.02993 1.05714 0.742929 1.19638 0.698577 1.16061 1.25174 1.05491 1.0188 1.15661 1.1453 1.15692 1.25086 1.25437 1.17811 1.1846 1.185 1.20578 1.19492 1.20102 1.1913 1.19822 1.19232 1.19802 1.18521 1.19202 1.19586 1.19373 1.19985 1.19822 1.19507 1.19648 1.19113 1.19516 1.1829 1.20079 1.19169 1.18972 1.19481 1.18618 1.18993 1.19015 1.20494 1.19401 1.19867 1.19531 1.20029 1.18881 1.20178 1.19561 1.20528 1.19083 1.20152 1.19178 1.18933 1.1932 1.1969 1.18401 1.20949 1.20087 1.17263 1.19178 1.20172 1.19162 1.19087 1.19582 1.19817 1.1945 1.198 1.19035 1.17555 1.18158 1.20422 1.23107 1.22888 1.19699 1.16723 1.10007 1.11853 1.08086 1.08262 1.04688 0.953462 1.14027 1.01817 1.19741 0.706025 0.630912 0.873036 0.79976 1.15211 0.797954 1.0802 0.640817 0.741491 0.935279 0.965697 1.105 0.900463 1.2147 0.768587 1.04023 0.913449 1.24637 1.07327 0.969158 1.07755 1.14723 1.14091 1.18769 1.1054 1.27095 1.2176 1.16641 1.21481 1.19469 1.18381 1.1871 1.17236 1.19586 1.19924 1.19585 1.19871 1.1916 1.19761 1.18467 1.19155 1.19214 1.19382 1.20082 1.19591 1.19394 1.19591 1.18721 1.19427 1.17876 1.19889 1.19778 1.15541 1.18857 1.19175 1.18953 1.1914 1.20342 1.19211 1.1923 1.19553 1.19262 1.19856 1.19005 1.19903 1.19817 1.19498 1.19367 1.19307 1.19694 1.20434 1.20777 1.18933 1.18497 1.19515 1.20602 1.20342 1.19781 1.17154 1.19198 1.20438 1.18331 1.19351 1.19658 1.19887 1.19075 1.17401 1.17797 1.18156 1.21448 1.19206 1.18454 1.2062 1.28515 1.30721 1.112 1.12279 1.19178 1.08254 1.14125 1.07527 0.989002 1.12875 1.14253 1.18522 0.835201 0.604279 0.87504 0.795924 0.499973 1.06964 0.686698 0.78895 0.936737 1.00474 0.9771 1.02476 1.07637 1.06254 1.07676 1.01796 1.24055 1.10227 0.956832 0.957189 1.19178 1.15612 1.19235 1.18462 1.18284 1.17631 1.10309 1.2 1.20757 1.15751 1.18018 1.16844 1.19188 1.19745 1.19669 1.19582 1.19643 1.19924 1.19112 1.18439 1.18549 1.19225 1.19271 1.19203 1.19174 1.19072 1.19102 1.18967 1.19116 1.19587 1.17965 1.2052 1.19877 1.19178 1.19178 1.20823 1.18481 1.1947 1.20203 1.19965 1.19061 1.19256 1.19358 1.20681 1.19844 1.19553 1.20154 1.20058 1.20016 1.19339 1.19178 1.21206 1.21134 1.18917 1.18392 1.19344 1.19728 1.191 1.16422 1.20895 1.2063 1.18613 1.19824 1.19345 1.19886 1.19854 1.18984 1.16611 1.17907 1.18052 1.18394 1.2233 1.19711 1.1631 1.17603 1.18272 1.20445 1.12871 1.15887 1.03253 1.09445 1.14087 1.02329 1.13669 1.08841 1.05573 1.12608 1.01584 0.725795 1.24525 0.860271 0.838793 0.977676 0.802143 0.923528 0.920977 0.905568 1.00782 1.01826 1.03173 1.09262 1.1337 1.05584 1.07988 1.013 0.952421 1.02603 1.14524 1.13932 1.19756 1.15161 1.19372 1.22177 1.13213 1.15389 1.1849 1.18596 1.19569 1.18144 1.17035 1.19276 1.19631 1.19415 1.19635 1.19907 1.193 1.20009 1.19531 1.19402 1.19441 1.20662 1.19097 1.19039 1.19598 1.18755 1.1896 1.191 1.1904 1.19188 1.19611 1.19521 1.19586 1.20518 1.19906 1.19857 1.17955 1.2079 1.21056 1.18218 1.18842 1.19199 1.18134 1.19219 1.18776 1.19761 1.20668 1.1945 1.19838 1.20206 1.19269 1.19306 1.19703 1.18772 1.21078 1.17882 1.19603 1.19768 1.18637 1.18679 1.21164 1.18024 1.18713 1.19163 1.19429 1.19584 1.19342 1.18867 1.17716 1.17985 1.17485 1.17998 1.17145 1.1643 1.18283 1.18098 1.12648 1.15771 1.11429 1.0523 1.09046 1.06159 1.0057 1.10185 1.07539 1.13389 0.934094 0.975287 0.704707 0.862343 1.23136 0.921627 0.908379 0.987594 0.940525 1.02897 1.06077 1.04122 1.12146 1.04657 1.06443 1.11697 1.13937 1.15018 1.19487 1.20582 1.18552 1.17134 1.18804 1.19325 1.17927 1.17799 1.17019 1.19236 1.19605 1.19327 1.19605 1.19897 1.19178 1.19372 1.20414 1.18757 1.19607 1.18767 1.19358 1.19212 1.18944 1.19279 1.18996 1.19603 1.19519 1.1953 1.19988 1.19178 1.17941 1.20773 1.19043 1.19185 1.18608 1.19178 1.19178 1.20093 1.1919 1.19675 1.19839 1.20197 1.20158 1.20078 1.19396 1.18993 1.19209 1.21503 1.17933 1.19069 1.19711 1.19617 1.18238 1.1984 1.19356 1.1917 1.20495 1.18295 1.17077 1.19284 1.19308 1.19238 1.18849 1.1912 1.17257 1.17004 1.18989 1.18121 1.20776 1.11861 1.15549 1.16512 1.12725 1.1097 1.07003 0.994443 1.09788 1.13056 1.17601 1.06037 0.778108 1.17235 0.949445 1.09309 1.1282 1.13303 0.915592 0.923599 0.93865 1.13786 0.921014 1.0369 1.10622 1.03646 1.10815 1.05499 1.0841 1.12527 1.17184 1.14293 1.16659 1.13097 1.235 1.22311 1.1555 1.17278 1.18625 1.19515 1.20029 1.18094 1.17828 1.17091 1.19266 1.19309 1.19303 1.18914 1.18382 1.19151 1.19678 1.20482 1.19267 1.20046 1.19273 1.195 1.19111 1.19362 1.19453 1.18915 1.19027 1.18603 1.20233 1.1739 1.19067 1.20165 1.19901 1.19079 1.1947 1.18987 1.19278 1.19211 1.20077 1.18158 1.19178 1.18755 1.19045 1.19312 1.19702 1.20455 1.19782 1.19193 1.19253 1.18018 1.18887 1.19745 1.19755 1.20535 1.18334 1.1889 1.18709 1.18879 1.18488 1.19294 1.19027 1.18823 1.20023 1.1862 1.18219 1.17345 1.20027 1.19498 1.17107 1.18993 1.1741 1.17069 1.15487 1.14818 1.16583 1.13087 1.09925 1.13577 1.12537 1.09769 1.02253 1.20151 1.07251 0.891805 1.05334 1.23694 0.913121 1.12533 1.06011 1.14046 1.03311 0.97656 1.18452 0.951092 1.09046 1.13001 1.10528 1.13808 1.04464 1.1116 1.07899 1.11808 1.12287 1.17352 1.17203 1.17968 1.16772 1.16988 1.10335 1.18684 1.19104 1.18923 1.15402 1.17285 1.1869 1.19374 1.19178 1.18643 1.16987 1.18044 1.19512 1.18641 1.19349 1.19734 1.20203 1.18965 1.20335 1.192 1.19295 1.18894 1.18472 1.18461 1.182 1.20235 1.20189 1.20336 1.20138 1.19706 1.20309 1.19023 1.19224 1.19463 1.19097 1.19157 1.20054 1.18802 1.19066 1.18954 1.21383 1.19264 1.19311 1.20398 1.19633 1.1912 1.20528 1.19975 1.22233 1.22128 1.22087 1.22081 1.18182 1.19207 1.18584 1.19996 1.19855 1.20794 1.1939 1.20656 1.19913 1.18775 1.19472 1.18936 1.20041 1.1859 1.1924 1.18154 1.17338 1.17858 1.18896 1.18318 1.15648 1.16116 1.2005 1.15275 1.16105 1.14044 1.11445 1.03639 1.16352 1.14179 1.0838 1.08858 1.1479 1.1566 1.14054 1.13324 1.10468 1.02075 1.18343 0.982865 1.12978 1.13252 1.14763 1.0635 1.07054 1.13454 1.16442 1.1891 1.17854 1.19193 1.15673 1.18226 1.16565 1.19371 1.20001 1.18707 1.1828 1.17078 1.17988 1.19563 1.20142 1.19582 1.18613 1.20081 1.19591 1.19247 1.18755 1.20172 1.19311 1.19501 1.1892 1.18281 1.19688 1.16704 1.19097 1.20475 1.20388 1.19303 1.18619 1.18927 1.19486 1.2038 1.18785 1.19519 1.19409 1.20528 1.19669 1.22871 1.18562 1.20443 1.20004 1.19021 1.20212 1.21181 1.19733 1.19173 1.21453 1.19769 1.1844 1.20402 1.20337 1.18018 1.20695 1.20069 1.20725 1.19178 1.1971 1.21043 1.18445 1.18891 1.18827 1.18529 1.19309 1.19139 1.18124 1.17671 1.18693 1.18967 1.19419 1.19231 1.19115 1.17698 1.21146 1.16746 1.16379 1.14819 1.15854 1.13033 1.11464 1.16401 1.13324 1.18275 1.08118 1.11129 1.14601 1.16361 1.18151 1.15617 1.21829 1.04016 1.1662 1.16162 1.11494 1.12757 1.17017 1.15109 1.14608 1.13685 1.16682 1.17294 1.16566 1.16919 1.17578 1.19353 1.19224 1.19197 1.19132 1.18952 1.19543 1.17846 1.1885 1.18089 1.18803 1.19105 1.17629 1.19326 1.20361 1.20311 1.18618 1.18501 1.19666 1.19174 1.19014 1.19116 1.2016 1.18884 1.19646 1.19877 1.19979 1.19776 1.19189 1.19516 1.18085 1.1892 1.20124 1.18884 1.17803 1.19957 1.19563 1.19178 1.20461 1.20569 1.19102 1.19124 1.18882 1.20942 1.21332 1.19612 1.19382 1.2007 1.20448 1.24241 1.18934 1.20363 1.2002 1.18982 1.20246 1.20978 1.20802 1.19821 1.19103 1.20249 1.19178 1.18017 1.20673 1.20103 1.20215 1.20383 1.20582 1.18393 1.1872 1.17602 1.18823 1.19772 1.19594 1.18561 1.19949 1.19029 1.18045 1.19141 1.16363 1.15915 1.13008 1.12353 1.13093 1.15947 1.18672 1.08648 1.13202 1.17817 1.15316 1.14287 1.12993 1.15485 1.04433 1.16481 1.13033 1.13847 1.16288 1.146 1.15882 1.19141 1.15719 1.167 1.15093 1.17376 1.16775 1.18898 1.18118 1.19259 1.19235 1.19131 1.19115 1.19256 1.18961 1.19418 1.19404 1.17814 1.17934 1.17586 1.17287 1.19353 1.19094 1.19943 1.1891 1.19872 1.20382 1.20219 1.19226 1.19889 1.19704 1.199 1.19358 1.19178 1.19162 1.1888 1.19396 1.20582 1.19863 1.20001 1.20569 1.19293 1.20335 1.18623 1.21264 1.19584 1.1935 1.18961 1.21169 1.18632 1.18994 1.19371 1.20506 1.19965 1.19859 1.20315 1.20994 1.20993 1.20761 1.18651 1.19491 1.19066 1.20559 1.20324 1.21117 1.19281 1.21257 1.19783 1.19629 1.18457 1.17431 1.18863 1.18252 1.19804 1.19178 1.18807 1.16888 1.19178 1.20218 1.18332 1.18117 1.19456 1.17364 1.19661 1.19322 1.16581 1.13716 1.12497 1.17905 1.1782 1.1587 1.20159 1.09981 1.15809 1.16335 1.17619 1.16184 1.19178 1.16579 1.05841 1.15292 1.17057 1.15336 1.16736 1.16602 1.18352 1.19496 1.15937 1.16957 1.16102 1.16643 1.17199 1.17448 1.16783 1.18869 1.19471 1.18139 1.18143 1.19231 1.19165 1.19279 1.18583 1.17577 1.17848 1.17364 1.1948 1.19178 1.18587 1.19178 1.19216 1.19178 1.19284 1.19005 1.20532 1.1936 1.21808 1.19916 1.19729 1.1982 1.1926 1.18899 1.19279 1.20512 1.19178 1.20544 1.20661 1.19978 1.20418 1.18934 1.20488 1.1946 1.20045 1.18313 1.20055 1.20175 1.20052 1.18948 1.19343 1.19073 1.19437 1.199 1.20121 1.20924 1.2074 1.18012 1.18751 1.20563 1.20104 1.20096 1.18203 1.20465 1.21056 1.19967 1.21959 1.18302 1.17748 1.18659 1.19472 1.19178 1.19735 1.18473 1.19178 1.19687 1.19198 1.17903 1.18814 1.18492 1.16779 1.18122 1.20059 1.19754 1.15778 1.17581 1.1388 1.18207 1.20368 1.09902 1.17217 1.17005 1.16384 1.1631 1.17192 1.13344 1.16167 1.18253 1.1593 1.17308 1.1924 1.18518 1.17514 1.19519 1.18585 1.17259 1.17491 1.16709 1.16614 1.19264 1.17109 1.17353 1.17776 1.20428 1.18829 1.18141 1.19149 1.19149 1.19399 1.18638 1.18644 1.17511 1.17615 1.18395 1.17765 1.19218 1.19064 1.19325 1.2043 1.20512 1.19659 1.18909 1.19198 1.19547 1.21135 1.19496 1.19117 1.19886 1.19768 1.1935 1.19034 1.19302 1.20394 1.20351 1.19994 1.19998 1.20447 1.2007 1.18957 1.20143 1.21191 1.19548 1.19548 1.20725 1.20568 1.19903 1.19586 1.18985 1.19141 1.1934 1.19154 1.19162 1.20912 1.1892 1.18613 1.19102 1.20097 1.19369 1.18967 1.19269 1.20487 1.21667 1.2181 1.18622 1.18825 1.17693 1.19642 1.19734 1.20716 1.19616 1.19362 1.17878 1.17109 1.1835 1.19814 1.18089 1.16117 1.15878 1.18257 1.1809 1.16258 1.23199 1.17577 1.18833 1.19536 1.20153 1.20789 1.20693 1.19085 1.18241 1.16945 1.17777 1.18293 1.16408 1.16426 1.18563 1.16751 1.18771 1.19071 1.18581 1.17097 1.17284 1.1822 1.17188 1.18234 1.18501 1.19756 1.19206 1.1907 1.19107 1.19528 1.18716 1.19178 1.18641 1.19152 1.2005 1.18786 1.19274 1.17725 1.20819 1.19445 1.20473 1.19122 1.19689 1.18706 1.19385 1.2088 1.20472 1.18941 1.19286 1.19524 1.19624 1.1907 1.1874 1.19108 1.18823 1.20398 1.19855 1.19974 1.20619 1.19026 1.20213 1.1796 1.19177 1.19606 1.20059 1.20448 1.19767 1.21075 1.20697 1.20073 1.18501 1.17525 1.19211 1.18 1.18945 1.20706 1.19187 1.19417 1.19229 1.16203 1.17711 1.20106 1.19536 1.20031 1.20116 1.19103 1.18429 1.20552 1.21652 1.19422 1.19443 1.19399 1.18494 1.189 1.19178 1.19652 1.19903 1.19712 1.18741 1.17396 1.18707 1.17803 1.19274 1.19178 1.18768 1.19284 1.17952 1.20012 1.19023 1.17045 1.18677 1.20094 1.19285 1.19556 1.20658 1.18343 1.18238 1.18229 1.16839 1.17782 1.17957 1.1649 1.17591 1.17862 1.18884 1.19349 1.18998 1.19273 1.18973 1.20224 1.19692 1.1899 1.17756 1.18127 1.1722 1.18776 1.18893 1.17991 1.18061 1.19731 1.18808 1.18525 1.19969 1.18747 1.19998 1.19438 1.17694 1.20844 1.20149 1.1934 1.20585 1.19521 1.18681 1.19898 1.20626 1.18805 1.20458 1.19842 1.18228 1.19927 1.19978 1.19394 1.21507 1.18591 1.17666 1.19603 1.21099 1.19718 1.20724 1.20718 1.20629 1.20689 1.20162 1.18386 1.19178 1.18792 1.18365 1.18812 1.20181 1.20269 1.18202 1.20537 1.19116 1.17893 1.19202 1.2056 1.20138 1.20111 1.16607 1.18705 1.19642 1.19242 1.19726 1.18444 1.20065 1.21878 1.19114 1.18876 1.19178 1.19749 1.1989 1.19401 1.19672 1.19748 1.1767 1.18702 1.1885 1.17719 1.19128 1.18792 1.20181 1.2454 1.20112 1.20478 1.20439 1.19383 1.2027 1.19531 1.20414 1.18196 1.18491 1.1675 1.17567 1.16604 1.18908 1.19128 1.19137 1.19015 1.19291 1.19078 1.20246 1.19016 1.18166 1.1798 1.19178 1.17195 1.17372 1.18728 1.18945 1.19166 1.20689 1.19501 1.19178 1.18401 1.18181 1.19716 1.18434 1.19837 1.20684 1.19934 1.19334 1.19236 1.19436 1.19909 1.19574 1.18794 1.20782 1.20363 1.18161 1.20468 1.19569 1.19921 1.19598 1.18601 1.19178 1.19348 1.1843 1.18732 1.21107 1.20798 1.20085 1.20383 1.19514 1.20318 1.20875 1.20459 1.18476 1.18972 1.18724 1.18775 1.19031 1.20342 1.14474 1.20111 1.17813 1.18787 1.19765 1.18842 1.19178 1.1854 1.19114 1.19414 1.20802 1.19913 1.20058 1.20742 1.19483 1.19178 1.18387 1.19663 1.18933 1.19114 1.1895 1.22056 1.19369 1.18597 1.19728 1.19573 1.19678 1.1977 1.18586 1.17685 1.17832 1.19662 1.19347 1.20016 1.18301 1.18847 1.18982 1.20522 1.20507 1.19469 1.15954 1.19142 1.20508 1.16461 1.202 1.1923 1.18236 1.17366 1.1737 1.17821 1.18953 1.1898 1.19172 1.19552 1.19149 1.2022 1.18981 1.1917 1.19163 1.19184 1.1891 1.19178 1.20697 1.19771 1.19496 1.19131 1.18991 1.19003 1.19823 1.18449 1.1973 1.19395 1.19963 1.18829 1.19143 1.19732 1.19643 1.19347 1.20101 1.18191 1.20058 1.1817 1.19688 1.19649 1.18928 1.19176 1.19385 1.18921 1.18235 1.19911 1.20625 1.20167 1.20486 1.19991 1.19739 1.20776 1.20203 1.18733 1.19196 1.18829 1.20407 1.1998 1.19394 1.17768 1.17665 1.17912 1.1822 1.20998 1.17728 1.20729 1.19808 1.20801 1.17589 1.19549 1.19076 1.19066 1.20211 1.19933 1.20304 1.19799 1.20154 1.21776 1.19726 1.19909 1.19178 1.1969 1.18899 1.15296 1.18891 1.20048 1.20609 1.18788 1.18687 1.19942 1.20455 1.20206 1.21737 1.21677 1.20897 1.19653 1.19641 1.17123 1.17841 1.1853 1.17971 1.18986 1.19321 1.19025 1.19037 1.19174 1.19713 1.20067 1.2021 1.18972 1.19178 1.19178 1.19178 1.19456 1.20084 1.19641 1.20759 1.19726 1.19006 1.19996 1.1895 1.18987 1.16807 1.19768 1.19733 1.19374 1.19759 1.19002 1.18895 1.19368 1.1959 1.2024 1.20396 1.1846 1.18305 1.19635 1.19528 1.17912 1.21247 1.20848 1.19403 1.2006 1.19622 1.20461 1.19976 1.19166 1.18602 1.18656 1.18592 1.1806 1.20113 1.19385 1.18368 1.18651 1.17251 1.18116 1.1826 1.20965 1.17817 1.19364 1.19361 1.21767 1.18896 1.19176 1.19521 1.17864 1.19006 1.19183 1.19913 1.19178 1.20316 1.20048 1.20685 1.20227 1.19221 1.19846 1.1896 1.19813 1.19685 1.18841 1.18778 1.19483 1.19861 1.20169 1.20082 1.20588 1.20172 1.19828 1.18697 1.20721 1.20706 1.20178 1.19062 1.16669 1.18555 1.18454 1.18932 1.19003 1.19414 1.19108 1.1943 1.20093 1.20579 1.18906 1.1918 1.19177 1.19178 1.20491 1.19655 1.20715 1.18601 1.2006 1.19178 1.18924 1.19931 1.19178 1.19391 1.22428 1.1937 1.19728 1.1951 1.18845 1.19431 1.19117 1.19154 1.19337 1.18214 1.19477 1.19292 1.18998 1.18789 1.19459 1.20168 1.19724 1.21796 1.2081 1.19929 1.18897 1.19543 1.20174 1.19853 1.19178 1.18853 1.18797 1.1928 1.19032 1.17681 1.17816 1.1988 1.19151 1.1864 1.19005 1.18216 1.15441 1.18187 1.18852 1.21784 1.17897 1.19928 1.19589 1.19174 1.19767 1.18872 1.20207 1.19934 1.20539 1.18788 1.19713 1.19914 1.1911 1.19571 1.19084 1.19279 1.19994 1.19747 1.20044 1.19927 1.19879 1.18951 1.18993 1.20694 1.19385 1.19317 1.19848 1.20805 1.19948 1.19774 1.20334 1.19032 1.17596 1.18731 1.17635 1.18352 1.18623 1.19672 1.1849 1.19178 1.19631 1.19564 1.17801 1.20981 1.20557 1.20122 1.19895 1.18892 1.19758 1.18954 1.19106 1.20336 1.19631 1.20664 1.1892 1.2024 1.20306 1.1888 1.19857 1.22694 1.19032 1.22434 1.19178 1.19768 1.19517 1.19889 1.19344 1.18757 1.19452 1.18668 1.18696 1.18501 1.19857 1.20332 1.2059 1.18063 1.18086 1.18058 1.20047 1.18884 1.18316 1.1954 1.1931 1.20698 1.19848 1.20403 1.19315 1.19748 1.19477 1.18868 1.19231 1.18492 1.18584 1.17749 1.19542 1.18375 1.20194 1.18503 1.15625 1.2038 1.19967 1.15039 1.17943 1.16149 1.18733 1.19177 1.18336 1.16189 1.16924 1.18593 1.21591 1.18085 1.17916 1.19558 1.1938 1.18703 1.18995 1.1959 1.20029 1.19812 1.20347 1.18372 1.19221 1.18503 1.19255 1.19635 1.22084 1.21665 1.19109 1.19707 1.18975 1.20243 1.19745 1.19567 1.19133 1.19377 1.18844 1.19887 1.1916 1.18184 1.20631 1.19053 1.19115 1.17302 1.19471 1.191 1.19247 1.19558 1.20066 1.19503 1.2187 1.20505 1.19942 1.18922 1.18735 1.19685 1.18591 1.20198 1.19848 1.20827 1.20131 1.20357 1.1965 1.20711 1.21366 1.20075 1.2245 1.1938 1.20227 1.19482 1.18107 1.17872 1.19038 1.18572 1.1956 1.19563 1.20073 1.18153 1.18681 1.20268 1.18956 1.18903 1.18613 1.20379 1.20303 1.19722 1.19214 1.19183 1.19204 1.20477 1.19868 1.19719 1.20298 1.1848 1.18681 1.18395 1.19692 1.18338 1.1976 1.2088 1.22096 1.18475 1.19263 1.16473 1.18642 1.19178 1.19254 1.18793 1.19249 1.17036 1.18466 1.21532 1.17749 1.19459 1.19178 1.1935 1.19215 1.19094 1.19092 1.19667 1.19752 1.18236 1.20046 1.20461 1.18965 1.20307 1.19676 1.20236 1.1867 1.21284 1.17129 1.20517 1.2103 1.19513 1.19366 1.18894 1.18737 1.1797 1.19692 1.2055 1.16995 1.19205 1.2125 1.18081 1.17154 1.19538 1.19376 1.19662 1.1962 1.19903 1.19938 1.19998 1.19178 1.20404 1.19129 1.19254 1.19698 1.19273 1.20225 1.19178 1.19548 1.21025 1.20561 1.20303 1.20643 1.21579 1.20073 1.1963 1.19558 1.20194 1.19987 1.21369 1.18754 1.19176 1.15105 1.20677 1.19746 1.1886 1.19269 1.18283 1.21041 1.20231 1.18797 1.18763 1.17801 1.19463 1.19233 1.18992 1.20121 1.18944 1.1868 1.17533 1.18732 1.1857 1.21632 1.18548 1.18562 1.19423 1.18318 1.19668 1.21211 1.16843 1.16083 1.18753 1.20638 1.20546 1.18616 1.19516 1.19915 1.19283 1.16862 1.20449 1.16602 1.20938 1.19077 1.20053 1.17363 1.19705 1.19465 1.19241 1.19422 1.19097 1.19108 1.19461 1.19636 1.17834 1.20555 1.18683 1.20354 1.19852 1.19153 1.17939 1.21209 1.1989 1.1876 1.1738 1.19226 1.19865 1.18868 1.19315 1.20406 1.20063 1.19133 1.18392 1.17587 1.17945 1.19307 1.18383 1.20406 1.18509 1.1934 1.19263 1.18678 1.19161 1.19651 1.18265 1.18089 1.16881 1.18677 1.19306 1.1977 1.19203 1.19376 1.20254 1.21621 1.20494 1.20509 1.19134 1.19287 1.18987 1.18611 1.20481 1.18506 1.20683 1.21265 1.20438 1.19178 1.19521 1.19916 1.22121 1.20003 1.17968 1.18757 1.19972 1.1986 1.19178 1.21899 1.1926 1.18815 1.19933 1.19493 1.19454 1.18091 1.21128 1.1965 1.1986 1.1965 1.18448 1.18698 1.19009 1.18926 1.19104 1.19213 1.19455 1.18391 1.18795 1.17847 1.19135 1.18166 1.21675 1.2035 1.18688 1.18122 1.19616 1.21285 1.20356 1.19197 1.18703 1.18539 1.19075 1.19092 1.1987 1.1952 1.20227 1.20449 1.19671 1.19647 1.20362 1.19675 1.19178 1.18577 1.19235 1.20534 1.19097 1.19933 1.20463 1.20788 1.2069 1.19177 1.23502 1.1977 1.19455 1.19825 1.20708 1.18326 1.18083 1.19652 1.18486 1.17723 1.19265 1.20834 1.18565 1.19243 1.20167 1.18459 1.19272 1.1893 1.19389 1.17497 1.20962 1.17797 1.19908 1.19758 1.19011 1.19131 1.19906 1.21472 1.20228 1.19922 1.20454 1.21103 1.195 1.21373 1.18828 1.21069 1.19064 1.21083 1.18227 1.19027 1.19342 1.20983 1.19636 1.19006 1.18727 1.19463 1.21991 1.21755 1.19055 1.18902 1.21385 1.19399 1.19388 1.19014 1.23618 1.19178 1.1932 1.2038 1.17648 1.18751 1.18255 1.19454 1.19394 1.1866 1.19273 1.18671 1.17635 1.18369 1.18095 1.21587 1.20294 1.1829 1.18048 1.1786 1.20345 1.21433 1.19307 1.19919 1.18466 1.19017 1.19485 1.2067 1.19559 1.19617 1.19669 1.20147 1.19561 1.18405 1.1874 1.20472 1.19474 1.19736 1.19193 1.20755 1.17074 1.19852 1.18846 1.19473 1.19352 1.17382 1.20176 1.21006 1.17871 1.1963 1.18357 1.19996 1.20061 1.19329 1.19186 1.19318 1.18991 1.17657 1.19104 1.18774 1.19296 1.18858 1.19178 1.18558 1.20039 1.19704 1.19049 1.19309 1.19886 1.21162 1.19953 1.20677 1.21356 1.1634 1.21309 1.18959 1.21205 1.20011 1.21207 1.16652 1.19133 1.19178 1.19716 1.20009 1.19262 1.21205 1.20883 1.18559 1.20413 1.21663 1.19612 1.20613 1.18661 1.20177 1.18867 1.18593 1.23641 1.1997 1.20173 1.17945 1.19137 1.20374 1.19357 1.18448 1.17792 1.19344 1.19287 1.18625 1.18506 1.18972 1.18587 1.18722 1.18008 1.17683 1.18256 1.21536 1.17917 1.1745 1.19966 1.1883 1.21361 1.19375 1.1829 1.18671 1.18983 1.19059 1.18935 1.17078 1.19982 1.19066 1.19599 1.19405 1.19406 1.19714 1.20007 1.21917 1.19488 1.19131 1.18436 1.19813 1.19723 1.20389 1.19011 1.19178 1.20609 1.19893 1.20644 1.18416 1.18844 1.19424 1.17589 1.20197 1.21337 1.18812 1.20433 1.18429 1.20332 1.19177 1.19406 1.19228 1.19577 1.19089 1.18776 1.1757 1.188 1.18472 1.19375 1.18298 1.18889 1.18645 1.1973 1.19645 1.20175 1.19247 1.20042 1.21286 1.19559 1.20101 1.22086 1.17211 1.23975 1.19557 1.18549 1.18883 1.21056 1.1943 1.19967 1.20136 1.20928 1.19552 1.21126 1.20151 1.18501 1.19913 1.21363 1.24927 1.21553 1.19604 1.18433 1.19393 1.18874 1.18532 1.19267 1.19473 1.20251 1.18383 1.19845 1.17924 1.19352 1.1741 1.18274 1.19178 1.19186 1.1873 1.19178 1.18585 1.18622 1.1782 1.17421 1.18004 1.2138 1.21087 1.1817 1.17884 1.18753 1.17644 1.18585 1.19258 1.18039 1.20265 1.20005 1.19178 1.18633 1.19004 1.18854 1.17252 1.19592 1.18993 1.18941 1.19406 1.19873 1.20052 1.19813 1.20042 1.19754 1.19461 1.19666 1.19135 1.18952 1.20443 1.20851 1.19872 1.18371 1.1883 1.17314 1.1937 1.17813 1.22375 1.20538 1.17949 1.18132 1.20773 1.19622 1.19185 1.19269 1.18935 1.18799 1.1842 1.19324 1.19289 1.18353 1.18422 1.19396 1.17765 1.20253 1.19841 1.19834 1.20577 1.19145 1.19715 1.22713 1.18359 1.19203 1.19098 1.18564 1.19392 1.2172 1.19175 1.17789 1.20047 1.20732 1.20248 1.21359 1.20576 1.18239 1.22104 1.19439 1.18243 1.19947 1.1836 1.19318 1.20208 1.19026 1.1814 1.20175 1.17132 1.20031 1.18215 1.19888 1.1886 1.17568 1.17858 1.18729 1.19181 1.20969 1.18025 1.19244 1.1823 1.18557 1.22292 1.17096 1.17256 1.20234 1.19434 1.19651 1.18949 1.18426 1.1817 1.18545 1.17887 1.2037 1.19983 1.20217 1.18711 1.19134 1.188 1.16901 1.19178 1.18708 1.18591 1.19286 1.19875 1.19795 1.20126 1.20009 1.19629 1.19147 1.19563 1.19099 1.20253 1.20357 1.20011 1.197 1.1827 1.18732 1.19286 1.1845 1.2063 1.17292 1.20934 1.19788 1.17942 1.20714 1.18135 1.18412 1.19078 1.202 1.19472 1.17847 1.20762 1.19771 1.17538 1.18355 1.19024 1.20039 1.20385 1.20061 1.19685 1.20322 1.21106 1.19659 1.22667 1.18058 1.18669 1.1926 1.18565 1.19095 1.21632 1.18759 1.19435 1.20108 1.2063 1.21348 1.20897 1.19328 1.19145 1.16949 1.20297 1.188 1.18609 1.19203 1.19686 1.18764 1.18452 1.22119 1.17728 1.19923 1.21349 1.19688 1.21253 1.17806 1.17871 1.18959 1.19474 1.17595 1.18669 1.18586 1.22489 1.22015 1.16962 1.16856 1.20036 1.19317 1.18445 1.18104 1.18287 1.17909 1.17814 1.19957 1.19183 1.19831 1.19421 1.1825 1.15434 1.18733 1.18489 1.18283 1.19211 1.19178 1.19392 1.19818 1.19653 1.18949 1.19505 1.19387 1.19212 1.20104 1.20276 1.20108 1.18186 1.18474 1.18038 1.1739 1.17383 1.20857 1.20927 1.1983 1.18121 1.17686 1.20668 1.18785 1.19153 1.18207 1.17658 1.19817 1.15969 1.19957 1.19983 1.19178 1.19596 1.1856 1.18074 1.1798 1.19065 1.20031 1.20459 1.20041 1.19858 1.19843 1.20693 1.2136 1.22758 1.15777 1.17833 1.19314 1.19223 1.18114 1.18795 1.19137 1.21692 1.19056 1.1983 1.20841 1.20925 1.19257 1.18929 1.18226 1.18165 1.21448 1.19115 1.19564 1.20259 1.19746 1.19613 1.18617 1.21928 1.17888 1.2004 1.19178 1.19115 1.17096 1.18968 1.19785 1.19044 1.19178 1.17882 1.18458 1.18418 1.173 1.22033 1.18382 1.17094 1.18993 1.19187 1.18851 1.18655 1.18689 1.18167 1.19123 1.17927 1.17689 1.18131 1.21844 1.20232 1.19472 1.16465 1.19074 1.18392 1.19341 1.19216 1.19437 1.19905 1.19654 1.19398 1.19178 1.19215 1.20045 1.19917 1.1825 1.18067 1.18787 1.18465 1.18289 1.17602 1.17549 1.19226 1.2066 1.20513 1.15822 1.17839 1.1611 1.19091 1.19509 1.18535 1.17143 1.18479 1.23582 1.1997 1.19174 1.18502 1.19716 1.1715 1.17629 1.19173 1.19989 1.20322 1.19887 1.19927 1.20712 1.19336 1.20044 1.19178 1.20717 1.20726 1.19178 1.18751 1.19005 1.1905 1.18379 1.19776 1.20142 1.20008 1.20432 1.19328 1.19216 1.19211 1.20093 1.21185 1.19336 1.18887 1.1984 1.19416 1.19573 1.18387 1.21924 1.19991 1.18238 1.18026 1.18728 1.17765 1.20982 1.20193 1.19111 1.19046 1.19229 1.18258 1.18191 1.17302 1.21914 1.16756 1.17219 1.19321 1.18328 1.18946 1.18461 1.17675 1.17818 1.17764 1.17383 1.18108 1.21184 1.18966 1.19346 1.15124 1.15198 1.1634 1.17254 1.18229 1.1801 1.18326 1.19012 1.19173 1.1967 1.1938 1.19675 1.1919 1.19073 1.19194 1.20084 1.17862 1.18694 1.18351 1.17568 1.17441 1.18805 1.18957 1.19506 1.21376 1.18839 1.16319 1.17119 1.21779 1.1954 1.17194 1.18773 1.23667 1.19637 1.18204 1.19209 1.20189 1.17075 1.17166 1.19234 1.19946 1.19626 1.1977 1.19586 1.20619 1.19219 1.20531 1.22693 1.1969 1.20819 1.20618 1.192 1.19405 1.18432 1.19899 1.21551 1.19127 1.19998 1.20281 1.19642 1.18161 1.19519 1.20394 1.18865 1.19792 1.19262 1.19567 1.18293 1.2007 1.19289 1.20019 1.1803 1.18477 1.18775 1.20275 1.18957 1.19031 1.17881 1.18878 1.1778 1.16978 1.19178 1.17782 1.17684 1.1861 1.18892 1.18665 1.1959 1.17998 1.17981 1.17362 1.17588 1.18372 1.19781 1.18766 1.19269 1.18429 1.18974 1.20705 1.14215 1.18237 1.17712 1.1839 1.19139 1.18576 1.19366 1.18848 1.19271 1.1906 1.18124 1.19057 1.17655 1.19828 1.17336 1.18151 1.19046 1.1813 1.16072 1.16784 1.16451 1.18978 1.1883 1.21771 1.1746 1.18254 1.16233 1.17239 1.2079 1.18849 1.18016 1.237 1.1826 1.20023 1.18389 1.19537 1.19495 1.16085 1.17685 1.19263 1.19774 1.19434 1.19178 1.18288 1.17807 1.19378 1.19626 1.20162 1.2102 1.19514 1.2048 1.20858 1.20201 1.17501 1.20015 1.21134 1.19807 1.17489 1.19619 1.18854 1.1713 1.18206 1.21091 1.19946 1.19252 1.19474 1.18484 1.18864 1.18458 1.20906 1.19634 1.21169 1.18125 1.18482 1.17534 1.17768 1.17713 1.1999 1.19178 1.20064 1.18107 1.18789 1.18244 1.17252 1.18182 1.19033 1.17865 1.18568 1.18773 1.17796 1.18146 1.19619 1.18109 1.18148 1.17654 1.1825 1.18565 1.19738 1.19113 1.18415 1.20804 1.19774 1.21264 1.15304 1.18109 1.18088 1.19178 1.18726 1.18379 1.19456 1.19029 1.19191 1.18462 1.18751 1.17855 1.18134 1.19158 1.16894 1.19178 1.19006 1.19604 1.17824 1.17287 1.17879 1.18841 1.18538 1.17196 1.17648 1.15761 1.19058 1.19695 1.18481 1.19196 1.18251 1.17535 1.17432 1.21149 1.18637 1.18227 1.18165 1.16795 1.19279 1.19582 1.1938 1.1964 1.17939 1.17747 1.19098 1.19686 1.21298 1.21048 1.19046 1.20725 1.20624 1.19977 1.20255 1.1959 1.20213 1.19323 1.17162 1.19418 1.19167 1.19172 1.18431 1.17444 1.17694 1.20124 1.17754 1.17864 1.20552 1.18787 1.18317 1.18663 1.18693 1.21064 1.19604 1.21282 1.1824 1.17282 1.1753 1.19744 1.18296 1.18305 1.19688 1.18106 1.18645 1.18197 1.17161 1.16892 1.18982 1.1982 1.18354 1.17919 1.18182 1.19723 1.18192 1.18495 1.18177 1.19056 1.18465 1.18316 1.19176 1.18653 1.20841 1.19222 1.20757 1.16474 1.17847 1.18087 1.18145 1.19178 1.18516 1.18331 1.18303 1.19267 1.18273 1.1826 1.17688 1.17934 1.19578 1.18726 1.20935 1.18671 1.19449 1.18411 1.16605 1.19475 1.18634 1.18584 1.18322 1.24038 1.17353 1.14909 1.189 1.19364 1.18489 1.18831 1.18046 1.17345 1.17225 1.1863 1.19957 1.19201 1.17904 1.16992 1.15777 1.19345 1.19178 1.19662 1.17765 1.18128 1.18759 1.20057 1.19324 1.19872 1.19497 1.17615 1.19751 1.19969 1.17756 1.15616 1.19 1.17311 1.17916 1.18972 1.19051 1.18433 1.17724 1.1766 1.19341 1.17775 1.18792 1.18677 1.18157 1.18611 1.18448 1.18086 1.19839 1.19453 1.1798 1.18364 1.18387 1.17625 1.19639 1.18256 1.20431 1.18307 1.18308 1.18148 1.17194 1.16875 1.19 1.19895 1.18323 1.18192 1.18481 1.17756 1.18046 1.18485 1.18619 1.18792 1.18302 1.18216 1.18716 1.18877 1.18215 1.20063 1.17992 1.17375 1.17657 1.17236 1.18474 1.18362 1.18336 1.18337 1.18949 1.17968 1.1828 1.17731 1.17588 1.18895 1.1886 1.20515 1.18581 1.18726 1.20472 1.20002 1.18762 1.18424 1.18165 1.18255 1.19572 1.18479 1.1921 1.19303 1.17926 1.18109 1.18095 1.20782 1.17192 1.1802 1.19466 1.18978 1.17639 1.17284 1.18606 1.18989 1.17563 1.18128 1.18767 1.1959 1.18927 1.20174 1.16335 1.19833 1.17285 1.15915 1.18642 1.19962 1.19487 1.18452 1.18685 1.17998 1.17571 1.17988 1.21913 1.18 1.18343 1.18646 1.18776 1.18405 1.18081 1.1803 1.17848 1.19435 1.18169 1.17547 1.18278 1.196 1.18421 1.19142 1.1862 1.17772 1.18368 1.17235 1.16906 1.18949 1.19178 1.18244 1.18202 1.18432 1.17815 1.18216 1.18539 1.18622 1.18759 1.18214 1.18595 1.19156 1.18447 1.18547 1.19473 1.18972 1.1775 1.17909 1.17071 1.18379 1.18339 1.19178 1.18566 1.1865 1.17829 1.17753 1.18317 1.18121 1.19444 1.1905 1.14004 1.18123 1.19439 1.20015 1.20164 1.18628 1.18443 1.18168 1.19175 1.19857 1.1817 1.19054 1.19261 1.18489 1.18149 1.18284 1.19809 1.1879 1.17563 1.18118 1.17539 1.17445 1.16996 1.1508 1.18597 1.20707 1.17126 1.18972 1.18264 1.18755 1.18648 1.19125 1.18054 1.18942 1.18986 1.17437 1.16533 1.19656 1.16796 1.16435 1.19544 1.19584 1.19548 1.18134 1.18776 1.17732 1.17752 1.18427 1.18668 1.17794 1.18156 1.18341 1.19143 1.19191 1.18741 1.1929 1.18064 1.18029 1.18659 1.19501 1.18072 1.17423 1.17977 1.19289 1.18185 1.18875 1.18593 1.17183 1.18968 1.20307 1.18711 1.18977 1.1845 1.18234 1.19099 1.18346 1.17799 1.18185 1.18791 1.18621 1.18782 1.1815 1.18579 1.1835 1.18238 1.18357 1.18763 1.19286 1.17661 1.17885 1.17323 1.18467 1.18244 1.18358 1.18473 1.18521 1.17628 1.17694 1.18619 1.18328 1.1944 1.18843 1.18077 1.1763 1.17834 1.19213 1.20023 1.18536 1.18684 1.18424 1.1942 1.19976 1.18197 1.19041 1.19234 1.19345 1.18531 1.19178 1.17557 1.18811 1.17798 1.17293 1.17986 1.17516 1.17119 1.18123 1.20715 1.16738 1.15951 1.18849 1.17663 1.1745 1.18747 1.18694 1.19394 1.17546 1.18807 1.17222 1.18998 1.16266 1.15379 1.19938 1.19536 1.19294 1.1773 1.19083 1.18107 1.18307 1.17873 1.17796 1.18772 1.17506 1.17714 1.17951 1.18132 1.19178 1.19177 1.19059 1.18284 1.19352 1.17742 1.17528 1.18245 1.17598 1.17882 1.18974 1.17926 1.18483 1.18163 1.17295 1.19148 1.20147 1.19716 1.18819 1.18465 1.18356 1.19074 1.18114 1.17801 1.18261 1.18772 1.18959 1.19484 1.18461 1.19203 1.19071 1.18365 1.18367 1.18853 1.19695 1.17733 1.17637 1.17634 1.19224 1.18245 1.18333 1.18331 1.18429 1.17479 1.17919 1.18343 1.18741 1.19498 1.1828 1.18651 1.17935 1.19832 1.19442 1.19864 1.18551 1.18675 1.18527 1.19539 1.18898 1.1879 1.18855 1.19198 1.18442 1.18333 1.1822 1.18219 1.18654 1.18722 1.1726 1.17251 1.16934 1.17107 1.18093 1.19169 1.15794 1.18538 1.17467 1.16898 1.19349 1.18879 1.17605 1.18323 1.17548 1.17465 1.16458 1.16182 1.15619 1.20713 1.19713 1.19397 1.15537 1.18393 1.17721 1.17576 1.17549 1.17836 1.18682 1.17394 1.17781 1.17665 1.18178 1.18586 1.19237 1.19207 1.18527 1.19155 1.18308 1.18095 1.18515 1.17757 1.17917 1.18848 1.19178 1.18938 1.18391 1.17976 1.18778 1.20119 1.1916 1.18774 1.18468 1.18392 1.19397 1.17944 1.18367 1.18837 1.19743 1.19185 1.19178 1.18402 1.19532 1.20907 1.18187 1.18535 1.18844 1.19086 1.1699 1.17537 1.18303 1.18114 1.18141 1.18634 1.18159 1.18462 1.1862 1.17866 1.18143 1.18564 1.19164 1.18558 1.1946 1.19809 1.17932 1.19298 1.19949 1.19833 1.18846 1.18542 1.18706 1.19305 1.19107 1.18697 1.1868 1.1866 1.18117 1.18412 1.18255 1.18181 1.18194 1.18609 1.18851 1.1748 1.18912 1.18031 1.17288 1.20917 1.18986 1.15688 1.17995 1.19226 1.17829 1.19434 1.18294 1.16814 1.18757 1.17239 1.1739 1.17331 1.17327 1.16824 1.20247 1.19285 1.15786 1.15253 1.18232 1.17495 1.17551 1.17357 1.18166 1.18719 1.17222 1.17536 1.17282 1.18627 1.19136 1.18356 1.18332 1.17856 1.18439 1.18112 1.18539 1.18041 1.18746 1.18834 1.19178 1.18947 1.18416 1.17945 1.187 1.19622 1.19324 1.19036 1.179 1.19062 1.19179 1.17984 1.20277 1.18398 1.18837 1.19669 1.18706 1.18502 1.17989 1.17454 1.17799 1.18568 1.18953 1.19097 1.16994 1.17591 1.18232 1.18094 1.1807 1.185 1.18167 1.18903 1.18458 1.17615 1.18081 1.18801 1.19864 1.18635 1.20357 1.182 1.19035 1.19144 1.18861 1.18497 1.18706 1.1928 1.19064 1.1875 1.18207 1.18444 1.18432 1.1824 1.18194 1.18882 1.19036 1.18588 1.19294 1.1858 1.17708 1.19182 1.18954 1.16601 1.16274 1.18187 1.17041 1.19599 1.1801 1.16546 1.19371 1.17022 1.17783 1.17999 1.19887 1.18387 1.18999 1.14844 1.16782 1.18209 1.16939 1.18627 1.17487 1.1688 1.17536 1.17429 1.19178 1.1737 1.17225 1.18678 1.18856 1.17915 1.18202 1.17948 1.19334 1.1836 1.18768 1.18025 1.1878 1.18604 1.18507 1.18898 1.18782 1.18537 1.18772 1.19122 1.19178 1.19042 1.17967 1.19095 1.19265 1.18023 1.19178 1.18451 1.18863 1.19293 1.18731 1.18524 1.1832 1.18194 1.18351 1.18533 1.19187 1.19207 1.16982 1.18034 1.17585 1.17929 1.17886 1.18419 1.18335 1.18352 1.17933 1.17471 1.17967 1.18951 1.19302 1.18587 1.19278 1.18502 1.18265 1.18842 1.18296 1.19047 1.1853 1.18733 1.19229 1.19627 1.18999 1.188 1.18281 1.18796 1.18406 1.18326 1.18348 1.19178 1.19 1.19203 1.19194 1.18567 1.19228 1.19178 1.18924 1.18297 1.15693 1.18067 1.15624 1.19435 1.16765 1.1767 1.16852 1.16985 1.17546 1.18648 1.19447 1.17733 1.18513 1.15071 1.17314 1.1627 1.17628 1.19073 1.1815 1.17262 1.17623 1.17436 1.17496 1.17878 1.17188 1.17168 1.17833 1.18812 1.18115 1.17989 1.18089 1.19319 1.18644 1.18938 1.17933 1.18621 1.19127 1.18447 1.18864 1.19178 1.18892 1.18977 1.19178 1.19178 1.1907 1.18006 1.1911 1.19207 1.18269 1.19236 1.18442 1.18838 1.19197 1.18646 1.18558 1.18341 1.19094 1.18336 1.18523 1.192 1.19179 1.18884 1.17631 1.17977 1.17885 1.18377 1.17843 1.17947 1.17957 1.17517 1.17875 1.18868 1.18867 1.18716 1.18171 1.18704 1.18976 1.18706 1.18216 1.1859 1.18485 1.18904 1.19179 1.18426 1.19064 1.18905 1.18361 1.18783 1.18345 1.18463 1.18276 1.19049 1.18918 1.19066 1.1933 1.18569 1.19182 1.19178 1.19303 1.18968 1.16773 1.18547 1.15995 1.19713 1.16735 1.17759 1.16863 1.16812 1.17468 1.18545 1.19299 1.17848 1.18522 1.15846 1.17638 1.1674 1.17867 1.1781 1.17973 1.18724 1.17217 1.17837 1.17231 1.16798 1.17889 1.1879 1.17963 1.17892 1.18121 1.19296 1.18653 1.1891 1.18689 1.18694 1.19178 1.18343 1.18964 1.19177 1.18858 1.18983 1.19178 1.19182 1.19075 1.1914 1.19123 1.19214 1.18395 1.19226 1.19166 1.19242 1.18917 1.18945 1.18634 1.18409 1.19069 1.18514 1.1879 1.18273 1.18969 1.19441 1.18121 1.17417 1.18006 1.18494 1.17979 1.17872 1.17753 1.17879 1.17931 1.17929 1.19321 1.18325 1.1886 1.19119 1.19244 1.19568 1.1863 1.18477 1.18871 1.19191 1.18374 1.18886 1.18978 1.18369 1.18762 1.18297 1.19178 1.18712 1.19033 1.1905 1.1932 1.19144 1.19119 1.19152 1.19131 1.1945 1.18466 1.16549 1.18541 1.16229 1.19189 1.16678 1.17625 1.16765 1.17523 1.19043 1.19299 1.18255 1.1866 1.17859 1.1771 1.19178 1.17834 1.17626 1.17982 1.1899 1.17897 1.18488 1.18344 1.18531 1.17157 1.16793 1.18139 1.18836 1.19178 1.17988 1.19194 1.18124 1.18667 1.18932 1.19178 1.18676 1.19253 1.18457 1.18536 1.19154 1.19042 1.19174 1.19218 1.19222 1.19056 1.19133 1.19126 1.19182 1.18415 1.19099 1.19226 1.19015 1.18873 1.19032 1.18987 1.18727 1.18241 1.1854 1.18724 1.19084 1.18941 1.18121 1.17381 1.17992 1.18582 1.18506 1.17773 1.17815 1.17918 1.179 1.17874 1.17362 1.18051 1.18584 1.19232 1.18147 1.18185 1.19178 1.19178 1.19178 1.18719 1.19184 1.19109 1.18595 1.19102 1.1888 1.19178 1.1839 1.18958 1.19054 1.1877 1.18955 1.18315 1.19183 1.18708 1.19047 1.19097 1.19209 1.19111 1.19117 1.19178 1.19132 1.16972 
SCALARS Stress float 1
LOOKUP_TABLE default
-1.30023e+12 -169222000000.0 -14659200000.0 -14317600000.0 -14032800000.0 -13045200000.0 -13346300000.0 -22632400000.0 -26061000000.0 -23205100000.0 -51096800000.0 -167322000000.0 -272114000000.0 -2.03606e+12 -2.88075e+12 -1.94436e+12 -2.368e+12 -809817000000.0 -232361000000.0 -730408000000.0 -388464000000.0 -311260000000.0 -191475000000.0 -121678000000.0 -78308400000.0 -62626900000.0 -35588600000.0 -12549700000.0 -12850000000.0 -13512400000.0 -16881700000.0 -18775000000.0 -16427800000.0 -15286700000.0 -14404200000.0 -13556700000.0 -12778100000.0 -12549700000.0 -12549700000.0 -12549700000.0 -13067000000.0 -14040500000.0 -14319800000.0 -20369300000.0 -13206300000.0 -12549700000.0 -13402200000.0 -13738600000.0 -12686100000.0 -15162400000.0 -12646400000.0 -12757500000.0 -14194900000.0 -19395200000.0 -18984800000.0 -16497500000.0 -17571100000.0 -13338500000.0 -13899900000.0 -12896900000.0 -15660900000.0 -13796300000.0 -12989300000.0 -12951200000.0 -13720500000.0 -16538600000.0 -13300500000.0 -13289400000.0 -13647800000.0 -15744700000.0 -14409800000.0 -14908400000.0 -15199100000.0 -15680400000.0 -20731100000.0 -22518600000.0 -29516500000.0 -39799500000.0 -61933100000.0 -27112000000.0 -28791100000.0 -53893000000.0 -26539700000.0 -26206300000.0 -29200600000.0 -13968100000.0 -82051800000.0 -12549700000.0 -73836700000.0 -176280000000.0 -365578000000.0 -443939000000.0 -411901000000.0 -419346000000.0 -1.01136e+12 -846587000000.0 -1.42045e+12 -1.05418e+12 -2.4535e+12 -3.01077e+12 -2.29562e+12 -1.54817e+12 -1.65838e+12 -2.94541e+12 -2.93107e+12 -4.98956e+12 -2.45433e+12 -882299000000.0 -968072000000.0 -440897000000.0 -506581000000.0 -416996000000.0 -252088000000.0 -137052000000.0 -26908600000.0 -29434900000.0 -27619100000.0 -12549700000.0 -21046600000.0 -12549700000.0 -28107300000.0 -12549700000.0 -12549700000.0 -12549700000.0 -16873400000.0 -13275100000.0 -12549700000.0 -12865500000.0 -13602400000.0 -14785700000.0 -17247600000.0 -17025500000.0 -23081700000.0 -22563600000.0 -19968800000.0 -22774800000.0 -23600300000.0 -19956300000.0 -15424000000.0 -16624800000.0 -18529100000.0 -19154100000.0 -17838100000.0 -28974000000.0 -14127900000.0 -16867100000.0 -27763500000.0 -13234400000.0 -18637700000.0 -18895400000.0 -18810800000.0 -16479800000.0 -16268600000.0 -13474600000.0 -18968500000.0 -14070500000.0 -16819000000.0 -14445500000.0 -12910500000.0 -12549700000.0 -14980000000.0 -14220400000.0 -23221200000.0 -13904100000.0 -12549700000.0 -12574000000.0 -16639600000.0 -12549700000.0 -12549700000.0 -13712900000.0 -33769700000.0 -16415600000.0 -13629300000.0 -13314400000.0 -37605800000.0 -20321800000.0 -22763300000.0 -30316200000.0 -70557000000.0 -81355100000.0 -17879500000.0 -33734200000.0 -12549700000.0 -15676400000.0 -12744900000.0 -60774000000.0 -23343000000.0 -345677000000.0 -20449600000.0 -462232000000.0 -474569000000.0 -268553000000.0 -1.18196e+12 -1.91703e+12 -2.27175e+12 -2.03986e+12 -786420000000.0 -3.39928e+12 -2.62535e+12 -1.37586e+12 -2.98615e+12 -4.43764e+12 -2.24825e+12 -4.2104e+12 -1.21799e+12 -3.20189e+12 -1.50196e+12 -449052000000.0 -605932000000.0 -767950000000.0 -607773000000.0 -267794000000.0 -185796000000.0 -111456000000.0 -103876000000.0 -114261000000.0 -71458500000.0 -80484400000.0 -66381400000.0 -34541800000.0 -12549700000.0 -12549700000.0 -12549700000.0 -28729800000.0 -39433400000.0 -18531500000.0 -17209500000.0 -16902000000.0 -18483300000.0 -19493100000.0 -30351200000.0 -26884600000.0 -40778000000.0 -36597300000.0 -27169400000.0 -31124200000.0 -21116700000.0 -27990300000.0 -13367000000.0 -12680300000.0 -12549700000.0 -18174800000.0 -37846500000.0 -33228200000.0 -14592400000.0 -16062300000.0 -17064700000.0 -13032200000.0 -31578000000.0 -23549100000.0 -16243600000.0 -31451100000.0 -15238400000.0 -18620500000.0 -24556300000.0 -38117400000.0 -28699100000.0 -25656800000.0 -12726600000.0 -12576600000.0 -27933000000.0 -21773100000.0 -20030100000.0 -43857700000.0 -29887400000.0 -30644300000.0 -30013400000.0 -26665900000.0 -25780400000.0 -35686400000.0 -33235100000.0 -36296500000.0 -39129300000.0 -38518800000.0 -54277000000.0 -46368200000.0 -65342500000.0 -122872000000.0 -248110000000.0 -281534000000.0 -58313700000.0 -58716800000.0 -75520800000.0 -281095000000.0 -91203800000.0 -424300000000.0 -304501000000.0 -324155000000.0 -392759000000.0 -564700000000.0 -503583000000.0 -1.63025e+12 -2.83717e+12 -1.74085e+12 -1.2232e+12 -1.09221e+12 -432507000000.0 -2.00113e+12 -3.50334e+12 -2.80103e+12 -2.58693e+12 -2.07553e+12 -2.16514e+12 -1.90158e+12 -3.62863e+12 -3.34203e+12 -1.91826e+12 -2.018e+12 -1.60342e+12 -2.82416e+12 -1.736e+12 -2.38699e+12 -1.32128e+12 -1.47808e+12 -201514000000.0 -411673000000.0 -321011000000.0 -234719000000.0 -276215000000.0 -130968000000.0 -138379000000.0 -83429700000.0 -100761000000.0 -73576500000.0 -101995000000.0 -30959200000.0 -27105100000.0 -12549700000.0 -16165500000.0 -14562600000.0 -15445500000.0 -15661100000.0 -25055200000.0 -16540200000.0 -22853500000.0 -33895800000.0 -24452000000.0 -22975500000.0 -47198900000.0 -55447500000.0 -49700200000.0 -47196800000.0 -43799400000.0 -58096600000.0 -59630100000.0 -57395700000.0 -44799000000.0 -30128900000.0 -68843900000.0 -17911100000.0 -25561300000.0 -13716400000.0 -33548100000.0 -12771000000.0 -43835700000.0 -53964300000.0 -28198400000.0 -22773900000.0 -51231000000.0 -12713500000.0 -12549700000.0 -16043000000.0 -16132600000.0 -24837600000.0 -27848300000.0 -29228500000.0 -37323300000.0 -79337800000.0 -86799200000.0 -46369400000.0 -96735000000.0 -68124600000.0 -128774000000.0 -281496000000.0 -241273000000.0 -324156000000.0 -415588000000.0 -73240000000.0 -425920000000.0 -375562000000.0 -267840000000.0 -356348000000.0 -321083000000.0 -716662000000.0 -543354000000.0 -868739000000.0 -2.5119e+12 -2.32141e+12 -1.77975e+12 -3.19671e+12 -2.98103e+12 -2.61326e+12 -4.80786e+12 -2.49452e+12 -2.15146e+12 -4.98739e+12 -3.29876e+12 -2.66878e+12 -1.62777e+12 -4.17689e+12 -2.28096e+12 -2.63134e+12 -3.34099e+12 -2.8752e+12 -2.69994e+12 -1.7451e+12 -2.74328e+12 -1.06977e+12 -2.04392e+12 -935337000000.0 -932025000000.0 -1.48819e+12 -1.04703e+12 -670948000000.0 -198473000000.0 -357008000000.0 -264061000000.0 -113573000000.0 -108932000000.0 -25090500000.0 -52977700000.0 -12549700000.0 -53273500000.0 -89050900000.0 -127540000000.0 -63843300000.0 -73522600000.0 -45579600000.0 -41576200000.0 -29077100000.0 -37752300000.0 -46413200000.0 -42368400000.0 -20669800000.0 -58931300000.0 -107130000000.0 -74003300000.0 -27878500000.0 -44661600000.0 -29764100000.0 -30122900000.0 -13214800000.0 -40519500000.0 -36147100000.0 -47016300000.0 -59921000000.0 -110120000000.0 -100501000000.0 -23611000000.0 -49156300000.0 -16625400000.0 -45894100000.0 -71257500000.0 -17279500000.0 -55596900000.0 -19521400000.0 -31672700000.0 -39232100000.0 -34833000000.0 -19158800000.0 -65168400000.0 -12549700000.0 -43441700000.0 -13108900000.0 -18202400000.0 -28163700000.0 -45450200000.0 -23939400000.0 -21210100000.0 -53448400000.0 -45797300000.0 -15690600000.0 -19931700000.0 -52513000000.0 -70137700000.0 -87985000000.0 -89443400000.0 -114794000000.0 -40989600000.0 -23903100000.0 -193633000000.0 -139131000000.0 -231992000000.0 -293574000000.0 -741127000000.0 -146111000000.0 -125672000000.0 -373803000000.0 -34655400000.0 -720157000000.0 -490090000000.0 -632509000000.0 -1.61938e+12 -1.99847e+12 -2.2994e+12 -1.8135e+12 -1.24875e+12 -1.46432e+12 -2.7554e+12 -3.17622e+12 -2.71488e+12 -1.50884e+12 -870732000000.0 -3.27919e+12 -686788000000.0 -643340000000.0 -3.09834e+12 -1.93278e+12 -3.21429e+12 -2.5872e+12 -3.64574e+12 -298630000000.0 -1.41452e+12 -1.74588e+12 -369809000000.0 -1.79252e+12 -1.55879e+12 -817898000000.0 -387472000000.0 -634614000000.0 -191747000000.0 -637235000000.0 -715728000000.0 -421598000000.0 -374175000000.0 -248781000000.0 -170991000000.0 -236133000000.0 -209712000000.0 -115849000000.0 -167770000000.0 -148065000000.0 -83296800000.0 -78093900000.0 -58732900000.0 -58739400000.0 -18473500000.0 -27404900000.0 -30704600000.0 -58507500000.0 -15648400000.0 -131810000000.0 -24883700000.0 -17887900000.0 -26319100000.0 -23483900000.0 -21170000000.0 -28262500000.0 -13123000000.0 -25644500000.0 -20616500000.0 -38034100000.0 -41907600000.0 -111691000000.0 -107739000000.0 -113788000000.0 -14935600000.0 -159996000000.0 -53738800000.0 -84363700000.0 -46396900000.0 -69024900000.0 -75168900000.0 -65702200000.0 -28459600000.0 -42652100000.0 -63359400000.0 -69191700000.0 -106082000000.0 -80181900000.0 -87126600000.0 -70922300000.0 -50702500000.0 -50259900000.0 -47619000000.0 -142230000000.0 -142289000000.0 -128959000000.0 -90362900000.0 -113104000000.0 -355181000000.0 -45412600000.0 -193152000000.0 -180647000000.0 -353315000000.0 -251205000000.0 -715903000000.0 -921016000000.0 -646893000000.0 -855132000000.0 -1.1244e+12 -1.00825e+12 -1.88861e+12 -2.23994e+12 -1.00553e+12 -1.12489e+12 -2.5739e+12 -2.15667e+12 -2.02705e+12 -1.65149e+12 -3.05617e+12 -1.44255e+12 -1.72176e+12 -2.80031e+12 -1.35881e+12 -1.80614e+12 -3.87174e+12 -992932000000.0 -1.79391e+12 -2.15777e+12 -1.64184e+12 -1.37075e+12 -1.80372e+12 -755566000000.0 -2.1524e+12 -315044000000.0 -1.60105e+12 -440439000000.0 -585685000000.0 -429014000000.0 -251145000000.0 -201944000000.0 -245896000000.0 -185023000000.0 -35993500000.0 -92989300000.0 -150289000000.0 -150643000000.0 -119418000000.0 -130562000000.0 -13070000000.0 -15173200000.0 -98638800000.0 -81867800000.0 -96636500000.0 -109126000000.0 -104430000000.0 -130989000000.0 -129084000000.0 -68223100000.0 -71074400000.0 -105435000000.0 -39109700000.0 -38947500000.0 -32340400000.0 -29576900000.0 -27382800000.0 -20795200000.0 -22171200000.0 -17953100000.0 -43677000000.0 -45660800000.0 -24809100000.0 -33111600000.0 -57717300000.0 -16970700000.0 -57778900000.0 -60444900000.0 -47472900000.0 -116355000000.0 -70149400000.0 -109123000000.0 -88225600000.0 -33829800000.0 -28667100000.0 -28071300000.0 -36602100000.0 -40017400000.0 -12549700000.0 -14075600000.0 -73783700000.0 -24428200000.0 -44911400000.0 -38266300000.0 -122974000000.0 -133334000000.0 -137378000000.0 -15860100000.0 -100048000000.0 -107735000000.0 -84155900000.0 -299621000000.0 -225692000000.0 -296462000000.0 -242672000000.0 -226351000000.0 -175564000000.0 -52308600000.0 -185368000000.0 -145766000000.0 -960094000000.0 -486365000000.0 -987445000000.0 -1.2055e+12 -1.42664e+12 -1.80104e+12 -688375000000.0 -1.4339e+12 -987799000000.0 -1.53816e+12 -2.11451e+12 -901072000000.0 -2.54083e+12 -1.13474e+12 -1.55502e+12 -2.35235e+12 -754262000000.0 -1.35656e+12 -1.45007e+12 -3.39516e+12 -2.48062e+12 -1.3597e+12 -1.14058e+12 -1.71203e+12 -19360800000.0 -1.35797e+12 -342732000000.0 -1.06384e+12 -1.43768e+12 -819529000000.0 -738247000000.0 -514294000000.0 -460190000000.0 -336122000000.0 -187902000000.0 -15798900000.0 -77034700000.0 -109089000000.0 -90374100000.0 -85835300000.0 -39502200000.0 -12861300000.0 -39460700000.0 -18309500000.0 -33182500000.0 -19288100000.0 -103754000000.0 -131000000000.0 -119473000000.0 -23630700000.0 -42649900000.0 -35690700000.0 -41050400000.0 -39375600000.0 -15238300000.0 -20783400000.0 -36236000000.0 -13788800000.0 -22431600000.0 -19967400000.0 -22617900000.0 -33148300000.0 -23166100000.0 -37545600000.0 -84689100000.0 -123452000000.0 -68829000000.0 -114539000000.0 -114704000000.0 -18843700000.0 -24248700000.0 -15716800000.0 -23121700000.0 -16003500000.0 -12549700000.0 -28046100000.0 -19213800000.0 -110022000000.0 -86769600000.0 -43908500000.0 -55825400000.0 -56865500000.0 -12549700000.0 -63077000000.0 -41622500000.0 -66302200000.0 -106736000000.0 -91083200000.0 -110817000000.0 -86500800000.0 -103400000000.0 -157674000000.0 -120391000000.0 -55800600000.0 -159053000000.0 -89378200000.0 -143005000000.0 -283554000000.0 -669834000000.0 -406461000000.0 -1.29697e+12 -1.14849e+12 -264412000000.0 -649035000000.0 -1.57421e+12 -521154000000.0 -306105000000.0 -1.48651e+12 -1.61604e+12 -1.18208e+12 -1.40341e+12 -571597000000.0 -1.57603e+12 -510754000000.0 -1.57454e+12 -3.26134e+12 -798164000000.0 -1.13125e+12 -1.38521e+12 -810651000000.0 -519865000000.0 -929394000000.0 -470590000000.0 -873680000000.0 -152914000000.0 -440386000000.0 -594953000000.0 -779002000000.0 -473299000000.0 -238709000000.0 -228930000000.0 -188663000000.0 -111761000000.0 -180292000000.0 -157820000000.0 -136417000000.0 -170122000000.0 -98511000000.0 -51556500000.0 -169841000000.0 -77493900000.0 -24090700000.0 -61943700000.0 -83078900000.0 -67931600000.0 -57336100000.0 -55542500000.0 -90638000000.0 -104673000000.0 -61453700000.0 -77063900000.0 -105897000000.0 -42853300000.0 -41553400000.0 -53949300000.0 -73745100000.0 -68488400000.0 -68265100000.0 -58366100000.0 -49643400000.0 -56411900000.0 -67982800000.0 -81156100000.0 -49216000000.0 -74748100000.0 -129974000000.0 -12656100000.0 -90047900000.0 -45932300000.0 -90018300000.0 -18761000000.0 -99345100000.0 -45761400000.0 -86799900000.0 -13103300000.0 -121512000000.0 -86478900000.0 -72014600000.0 -70749100000.0 -73726500000.0 -46997100000.0 -51127300000.0 -23072200000.0 -37710700000.0 -39322800000.0 -28606100000.0 -13667200000.0 -54081300000.0 -84331100000.0 -59303100000.0 -47072200000.0 -93130800000.0 -50508100000.0 -35966400000.0 -140598000000.0 -157412000000.0 -97674000000.0 -146001000000.0 -271476000000.0 -202814000000.0 -309548000000.0 -134921000000.0 -459715000000.0 -300820000000.0 -12549700000.0 -1.04124e+12 -1.09293e+12 -614958000000.0 -964911000000.0 -1.08367e+12 -260483000000.0 -1.18532e+12 -636333000000.0 -1.69216e+12 -839367000000.0 -1.45889e+12 -1.53401e+12 -819203000000.0 -1.09875e+12 -1.04438e+12 -175909000000.0 -421180000000.0 -733557000000.0 -1.55822e+12 -405279000000.0 -910077000000.0 -440233000000.0 -858544000000.0 -270208000000.0 -478410000000.0 -164695000000.0 -169787000000.0 -12549700000.0 -129568000000.0 -237904000000.0 -143281000000.0 -157110000000.0 -182046000000.0 -38305300000.0 -17676700000.0 -185833000000.0 -129612000000.0 -57912000000.0 -66630800000.0 -66896800000.0 -42294800000.0 -67659300000.0 -97389900000.0 -55372800000.0 -25552200000.0 -27767500000.0 -15748600000.0 -21787100000.0 -12650400000.0 -12985100000.0 -112746000000.0 -12677100000.0 -90683900000.0 -16296400000.0 -33715500000.0 -13900400000.0 -13640500000.0 -15359500000.0 -16710400000.0 -26634200000.0 -12549700000.0 -12549700000.0 -15942000000.0 -56376700000.0 -51193700000.0 -73036800000.0 -45472600000.0 -124877000000.0 -13573700000.0 -91045200000.0 -18637600000.0 -21015700000.0 -21969000000.0 -84307900000.0 -79979600000.0 -18785300000.0 -12892500000.0 -12549700000.0 -30621700000.0 -52613800000.0 -16857100000.0 -41045000000.0 -48746000000.0 -42764000000.0 -86928800000.0 -71106900000.0 -116652000000.0 -73585900000.0 -136564000000.0 -156133000000.0 -215192000000.0 -182190000000.0 -223317000000.0 -215543000000.0 -194972000000.0 -59638600000.0 -243862000000.0 -335228000000.0 -275482000000.0 -23961700000.0 -364010000000.0 -342944000000.0 -446093000000.0 -65278900000.0 -348589000000.0 -701720000000.0 -784671000000.0 -1.22305e+12 -282297000000.0 -1.10234e+12 -222389000000.0 -295069000000.0 -291512000000.0 -995486000000.0 -355478000000.0 -1.34074e+12 -326873000000.0 -763900000000.0 -890836000000.0 -570701000000.0 -1.53366e+12 -527432000000.0 -500375000000.0 -350716000000.0 -350789000000.0 -1.06051e+12 -1.38472e+12 -164861000000.0 -1.00697e+12 -403372000000.0 -706183000000.0 -735662000000.0 -186301000000.0 -388081000000.0 -423052000000.0 -389751000000.0 -130001000000.0 -32385900000.0 -14177000000.0 -140161000000.0 -126935000000.0 -70163900000.0 -145971000000.0 -179710000000.0 -13531100000.0 -107622000000.0 -89461000000.0 -78669300000.0 -85006700000.0 -49343400000.0 -43489300000.0 -27473200000.0 -34608800000.0 -50173700000.0 -13250900000.0 -32279200000.0 -18568400000.0 -32179700000.0 -14411300000.0 -140603000000.0 -13546600000.0 -76997300000.0 -55423700000.0 -90774200000.0 -60864000000.0 -29172100000.0 -26534700000.0 -43252400000.0 -42207400000.0 -44014100000.0 -53534600000.0 -40781400000.0 -40447800000.0 -46493700000.0 -24376300000.0 -59723700000.0 -33922100000.0 -62716100000.0 -40513100000.0 -147486000000.0 -115613000000.0 -110109000000.0 -79205800000.0 -83915400000.0 -115852000000.0 -62883300000.0 -98979400000.0 -30529200000.0 -24623300000.0 -27564200000.0 -71273800000.0 -32947100000.0 -77073300000.0 -106084000000.0 -127511000000.0 -44031400000.0 -114989000000.0 -33625200000.0 -50188900000.0 -14044700000.0 -62754100000.0 -86042100000.0 -105821000000.0 -76021700000.0 -43697800000.0 -84929200000.0 -145120000000.0 -233609000000.0 -64072400000.0 -185815000000.0 -48594400000.0 -133082000000.0 -57744400000.0 -484458000000.0 -199633000000.0 -429447000000.0 -893451000000.0 -221280000000.0 -1.0687e+12 -228548000000.0 -606308000000.0 -758074000000.0 -798162000000.0 -583516000000.0 -292300000000.0 -531802000000.0 -67774500000.0 -1.15084e+12 -875402000000.0 -374678000000.0 -175665000000.0 -964150000000.0 -1.02436e+12 -115597000000.0 -21880600000.0 -1.29694e+12 -834652000000.0 -336709000000.0 -212253000000.0 -475968000000.0 -264709000000.0 -215542000000.0 -240792000000.0 -109604000000.0 -71071300000.0 -200283000000.0 -111580000000.0 -79810500000.0 -93751900000.0 -91584700000.0 -121975000000.0 -90483200000.0 -66042300000.0 -104212000000.0 -12549700000.0 -84669500000.0 -96144400000.0 -153574000000.0 -20257500000.0 -49752800000.0 -35907200000.0 -82572300000.0 -46530200000.0 -70241000000.0 -61505800000.0 -43106000000.0 -27048700000.0 -16014300000.0 -44649900000.0 -12549700000.0 -14267800000.0 -52647200000.0 -57337800000.0 -31625900000.0 -108491000000.0 -12549700000.0 -12549700000.0 -18087000000.0 -148240000000.0 -144488000000.0 -48194500000.0 -34666400000.0 -50321000000.0 -80634200000.0 -80553300000.0 -84258900000.0 -69986200000.0 -35273000000.0 -68753900000.0 -76404900000.0 -34859200000.0 -13064200000.0 -13936000000.0 -17790200000.0 -131007000000.0 -96548200000.0 -50956300000.0 -153933000000.0 -140297000000.0 -163647000000.0 -126203000000.0 -119100000000.0 -166218000000.0 -39835000000.0 -74140500000.0 -156995000000.0 -95091300000.0 -177543000000.0 -51003300000.0 -46600800000.0 -174262000000.0 -173150000000.0 -662486000000.0 -531679000000.0 -172918000000.0 -490290000000.0 -184117000000.0 -698966000000.0 -359845000000.0 -715140000000.0 -452293000000.0 -266510000000.0 -165819000000.0 -474135000000.0 -204613000000.0 -314173000000.0 -710371000000.0 -823794000000.0 -599274000000.0 -44071500000.0 -441802000000.0 -618565000000.0 -683840000000.0 -388346000000.0 -514203000000.0 -269773000000.0 -412999000000.0 -98863000000.0 -193800000000.0 -75558700000.0 -230610000000.0 -32469300000.0 -27237800000.0 -62674600000.0 -191722000000.0 -162539000000.0 -113260000000.0 -108632000000.0 -50021100000.0 -260042000000.0 -105544000000.0 -173094000000.0 -145157000000.0 -64159200000.0 -134491000000.0 -130878000000.0 -163687000000.0 -103998000000.0 -93814700000.0 -55824100000.0 -135484000000.0 -84662800000.0 -87742200000.0 -91929400000.0 -114787000000.0 -89069000000.0 -14849600000.0 -121018000000.0 -82348700000.0 -33371300000.0 -15584000000.0 -38251700000.0 -39478300000.0 -50459700000.0 -59497200000.0 -55381100000.0 -102618000000.0 -20402300000.0 -16051400000.0 -45965000000.0 -40236500000.0 -64965600000.0 -12549700000.0 -91304600000.0 -31526100000.0 -126508000000.0 -197850000000.0 -137601000000.0 -160391000000.0 -70493700000.0 -41295400000.0 -56292500000.0 -60626800000.0 -42632900000.0 -111801000000.0 -115136000000.0 -15622800000.0 -29154200000.0 -25160500000.0 -20309300000.0 -60309900000.0 -37738800000.0 -54100700000.0 -134197000000.0 -83653600000.0 -108884000000.0 -256711000000.0 -127817000000.0 -45887500000.0 -94238400000.0 -96471300000.0 -89628000000.0 -138529000000.0 -19176900000.0 -122613000000.0 -120878000000.0 -234878000000.0 -232851000000.0 -360745000000.0 -261511000000.0 -436916000000.0 -114016000000.0 -422532000000.0 -469535000000.0 -586296000000.0 -355508000000.0 -643811000000.0 -338490000000.0 -124127000000.0 -419429000000.0 -301002000000.0 -672310000000.0 -904839000000.0 -613587000000.0 -253097000000.0 -60184300000.0 -183378000000.0 -268411000000.0 -316795000000.0 -482884000000.0 -278944000000.0 -201245000000.0 -282264000000.0 -51171300000.0 -250087000000.0 -108524000000.0 -194642000000.0 -176941000000.0 -106152000000.0 -146940000000.0 -59494400000.0 -60876000000.0 -80919300000.0 -83517600000.0 -42940100000.0 -56816900000.0 -23068200000.0 -44197400000.0 -12549700000.0 -135988000000.0 -160245000000.0 -64934200000.0 -71684500000.0 -59097400000.0 -138953000000.0 -81985800000.0 -72963700000.0 -118191000000.0 -64588400000.0 -64913700000.0 -13949600000.0 -69552200000.0 -30806800000.0 -17008900000.0 -21305400000.0 -33760900000.0 -15130300000.0 -30307600000.0 -66682200000.0 -13779000000.0 -33271400000.0 -28684200000.0 -14000900000.0 -13291100000.0 -85783200000.0 -101627000000.0 -117887000000.0 -18840400000.0 -67289700000.0 -82571500000.0 -33232800000.0 -57840400000.0 -103400000000.0 -232035000000.0 -65532700000.0 -65165700000.0 -54797300000.0 -13901800000.0 -14399600000.0 -43818000000.0 -17733000000.0 -30174500000.0 -30792100000.0 -12984700000.0 -48518000000.0 -26803600000.0 -87541900000.0 -68484900000.0 -39869900000.0 -106322000000.0 -82421500000.0 -116496000000.0 -18515400000.0 -116472000000.0 -43996400000.0 -117200000000.0 -91610600000.0 -120652000000.0 -127252000000.0 -89025400000.0 -68093200000.0 -63391400000.0 -47194600000.0 -243860000000.0 -183593000000.0 -54235900000.0 -513072000000.0 -818033000000.0 -603024000000.0 -537144000000.0 -108343000000.0 -538441000000.0 -441789000000.0 -643322000000.0 -284675000000.0 -454224000000.0 -296139000000.0 -539684000000.0 -518414000000.0 -543862000000.0 -110336000000.0 -128262000000.0 -310466000000.0 -131570000000.0 -144174000000.0 -239671000000.0 -29787100000.0 -162197000000.0 -111057000000.0 -28961100000.0 -56514700000.0 -109724000000.0 -21273400000.0 -33975500000.0 -22223900000.0 -48682600000.0 -56554900000.0 -50166300000.0 -160625000000.0 -35024800000.0 -19853000000.0 -20162500000.0 -17619900000.0 -19494500000.0 -25592900000.0 -21663400000.0 -14043100000.0 -61899800000.0 -191278000000.0 -159350000000.0 -85677300000.0 -18064800000.0 -76606700000.0 -34788500000.0 -45177300000.0 -24286800000.0 -17469500000.0 -85613600000.0 -38658500000.0 -44046800000.0 -100632000000.0 -98390200000.0 -25556700000.0 -48696500000.0 -89545900000.0 -13620400000.0 -131987000000.0 -78444400000.0 -107455000000.0 -48546600000.0 -85922200000.0 -148956000000.0 -164886000000.0 -26826300000.0 -20724600000.0 -88056200000.0 -29691800000.0 -40394400000.0 -33733400000.0 -41217800000.0 -66498700000.0 -151856000000.0 -98990000000.0 -60735200000.0 -127813000000.0 -36952200000.0 -32444600000.0 -12549700000.0 -38983400000.0 -55983700000.0 -141529000000.0 -47850200000.0 -49707500000.0 -118343000000.0 -14077300000.0 -124599000000.0 -48116000000.0 -19374100000.0 -112106000000.0 -67871100000.0 -149925000000.0 -126625000000.0 -123533000000.0 -131014000000.0 -151367000000.0 -170232000000.0 -229982000000.0 -382255000000.0 -281803000000.0 -218147000000.0 -197426000000.0 -148343000000.0 -86274200000.0 -183193000000.0 -326253000000.0 -233320000000.0 -455927000000.0 -259785000000.0 -160933000000.0 -316867000000.0 -176795000000.0 -311107000000.0 -148939000000.0 -158301000000.0 -154400000000.0 -134762000000.0 -44631700000.0 -294034000000.0 -219520000000.0 -76628700000.0 -75356000000.0 -124877000000.0 -147341000000.0 -89616700000.0 -88618200000.0 -24900100000.0 -90622500000.0 -47906900000.0 -104087000000.0 -105498000000.0 -90815700000.0 -65064900000.0 -47237300000.0 -158435000000.0 -15921800000.0 -56892000000.0 -20734800000.0 -13195400000.0 -91099900000.0 -89528300000.0 -25073500000.0 -96234200000.0 -17457100000.0 -100198000000.0 -78799000000.0 -104981000000.0 -71717200000.0 -32743500000.0 -142697000000.0 -85825800000.0 -65603400000.0 -72729200000.0 -52772700000.0 -63918700000.0 -27894800000.0 -40882700000.0 -32847500000.0 -19029700000.0 -22845700000.0 -34503500000.0 -30393100000.0 -12549700000.0 -90412200000.0 -20678900000.0 -47927000000.0 -66255000000.0 -30947700000.0 -48680300000.0 -50890200000.0 -64086000000.0 -41783200000.0 -77139400000.0 -175542000000.0 -79858900000.0 -92347100000.0 -216899000000.0 -138368000000.0 -51741100000.0 -83086600000.0 -137941000000.0 -83345500000.0 -187424000000.0 -111370000000.0 -141339000000.0 -12549700000.0 -15075400000.0 -81991800000.0 -105786000000.0 -29289900000.0 -83230900000.0 -60850900000.0 -129009000000.0 -22615600000.0 -50847700000.0 -111897000000.0 -145686000000.0 -156441000000.0 -122725000000.0 -57900800000.0 -209479000000.0 -103667000000.0 -75204500000.0 -104384000000.0 -141536000000.0 -259779000000.0 -20346200000.0 -27220500000.0 -176296000000.0 -60786300000.0 -192120000000.0 -225886000000.0 -301909000000.0 -384285000000.0 -163693000000.0 -372808000000.0 -234123000000.0 -155302000000.0 -95189800000.0 -120124000000.0 -78190200000.0 -76119100000.0 -58421900000.0 -47605800000.0 -44285600000.0 -126970000000.0 -140885000000.0 -179524000000.0 -130020000000.0 -81516200000.0 -38667700000.0 -56921100000.0 -23204700000.0 -30344800000.0 -54776200000.0 -37014500000.0 -88422300000.0 -38655500000.0 -51119500000.0 -36060500000.0 -23470100000.0 -104543000000.0 -71198300000.0 -92603400000.0 -115651000000.0 -177216000000.0 -40124100000.0 -23965200000.0 -90516400000.0 -77687000000.0 -33036100000.0 -151659000000.0 -13502800000.0 -77669400000.0 -40908800000.0 -40117700000.0 -12549700000.0 -12933500000.0 -14404900000.0 -47592600000.0 -73998500000.0 -74843400000.0 -132997000000.0 -75412700000.0 -42173400000.0 -33345800000.0 -65673000000.0 -95821600000.0 -105216000000.0 -81004000000.0 -76129300000.0 -227013000000.0 -191430000000.0 -197185000000.0 -84749000000.0 -234163000000.0 -367170000000.0 -48676500000.0 -128519000000.0 -133973000000.0 -69245600000.0 -126070000000.0 -154694000000.0 -14049000000.0 -140091000000.0 -23736500000.0 -121952000000.0 -128183000000.0 -14442600000.0 -33770000000.0 -85278200000.0 -64593700000.0 -136432000000.0 -19015000000.0 -101490000000.0 -122784000000.0 -96702600000.0 -12549700000.0 -14262000000.0 -92602200000.0 -12549700000.0 -124359000000.0 -97342100000.0 -110620000000.0 -91715000000.0 -192654000000.0 -16331900000.0 -12785600000.0 -317999000000.0 -147425000000.0 -67831700000.0 -17439000000.0 -90237700000.0 -41177100000.0 -177250000000.0 -223790000000.0 -258641000000.0 -295297000000.0 -132607000000.0 -309538000000.0 -12549700000.0 -254095000000.0 -107316000000.0 -92232400000.0 -27758600000.0 -65516400000.0 -81331700000.0 -48718800000.0 -38450500000.0 -24375000000.0 -64290300000.0 -21431700000.0 -147860000000.0 -100384000000.0 -42648400000.0 -68601100000.0 -32953800000.0 -24547000000.0 -22929200000.0 -40938900000.0 -32829700000.0 -29506700000.0 -62013500000.0 -44638300000.0 -52802000000.0 -65172800000.0 -24990300000.0 -15396700000.0 -14247500000.0 -12549700000.0 -14930600000.0 -12549700000.0 -14553100000.0 -12549700000.0 -145257000000.0 -93794100000.0 -47388900000.0 -202898000000.0 -28991900000.0 -85999200000.0 -153541000000.0 -59760100000.0 -41925200000.0 -36618400000.0 -59234800000.0 -87878100000.0 -12549700000.0 -63359900000.0 -46137700000.0 -86213200000.0 -109005000000.0 -15037000000.0 -22396700000.0 -54532300000.0 -32875600000.0 -12710600000.0 -80778100000.0 -265811000000.0 -16650700000.0 -194493000000.0 -126450000000.0 -74306900000.0 -197848000000.0 -181951000000.0 -130184000000.0 -154360000000.0 -245823000000.0 -156530000000.0 -175435000000.0 -134208000000.0 -54073100000.0 -117134000000.0 -138666000000.0 -158983000000.0 -95998100000.0 -115894000000.0 -45823800000.0 -60932900000.0 -126185000000.0 -19602800000.0 -15040500000.0 -12549700000.0 -123541000000.0 -54285500000.0 -12549700000.0 -57046400000.0 -103091000000.0 -82657900000.0 -119394000000.0 -82141800000.0 -61918700000.0 -134106000000.0 -81603000000.0 -18195300000.0 -176309000000.0 -108658000000.0 -102266000000.0 -39138800000.0 -69188800000.0 -28982400000.0 -182481000000.0 -253287000000.0 -260338000000.0 -180977000000.0 -153261000000.0 -41681000000.0 -27904300000.0 -20934200000.0 -51699400000.0 -34852600000.0 -13820000000.0 -26484200000.0 -34845000000.0 -19594100000.0 -45119500000.0 -57254400000.0 -18226600000.0 -140684000000.0 -19995700000.0 -12982700000.0 -60882400000.0 -50976900000.0 -32590100000.0 -16336900000.0 -21890400000.0 -18907900000.0 -13039400000.0 -27150100000.0 -41755300000.0 -17164000000.0 -20631800000.0 -20237300000.0 -24305600000.0 -17809200000.0 -40279400000.0 -12872000000.0 -14227700000.0 -17055600000.0 -17458800000.0 -18521400000.0 -25098900000.0 -89035300000.0 -57421100000.0 -110610000000.0 -121738000000.0 -90988500000.0 -161655000000.0 -58304300000.0 -122567000000.0 -140965000000.0 -110393000000.0 -100491000000.0 -136949000000.0 -97387500000.0 -32321000000.0 -54045300000.0 -112118000000.0 -103007000000.0 -60340200000.0 -59591800000.0 -58528400000.0 -165774000000.0 -122352000000.0 -156625000000.0 -98082000000.0 -58842100000.0 -111936000000.0 -32450800000.0 -227578000000.0 -202936000000.0 -171199000000.0 -101418000000.0 -148300000000.0 -287813000000.0 -30710200000.0 -14528600000.0 -81269800000.0 -155419000000.0 -52686200000.0 -13853700000.0 -129270000000.0 -35039000000.0 -97741000000.0 -47950800000.0 -57887500000.0 -76280900000.0 -13197300000.0 -112632000000.0 -24555700000.0 -39926900000.0 -57960400000.0 -37231400000.0 -22499400000.0 -139990000000.0 -15991100000.0 -76298600000.0 -76330400000.0 -141964000000.0 -126915000000.0 -147391000000.0 -141747000000.0 -54610900000.0 -100151000000.0 -77292500000.0 -93979800000.0 -67345100000.0 -104156000000.0 -104073000000.0 -81561000000.0 -259303000000.0 -343885000000.0 -207281000000.0 -13998200000.0 -132726000000.0 -37563400000.0 -70069200000.0 -80809900000.0 -84860600000.0 -76055700000.0 -76828500000.0 -43658000000.0 -105557000000.0 -78194000000.0 -20198100000.0 -39236700000.0 -26169000000.0 -54412900000.0 -42080100000.0 -62584300000.0 -39024200000.0 -41841300000.0 -16901900000.0 -12549700000.0 -12849300000.0 -13209600000.0 -18132100000.0 -15391900000.0 -17263800000.0 -25382000000.0 -15062000000.0 -17024200000.0 -25192900000.0 -53504900000.0 -43995100000.0 -20650400000.0 -104072000000.0 -153648000000.0 -27970200000.0 -199557000000.0 -85014200000.0 -166755000000.0 -69220600000.0 -12774200000.0 -120876000000.0 -13686100000.0 -36660700000.0 -105879000000.0 -189590000000.0 -62985800000.0 -89392800000.0 -121722000000.0 -186094000000.0 -15619100000.0 -176326000000.0 -14664600000.0 -15673300000.0 -106593000000.0 -58967100000.0 -254898000000.0 -92813100000.0 -323375000000.0 -215169000000.0 -107015000000.0 -230797000000.0 -165760000000.0 -313131000000.0 -106873000000.0 -12584800000.0 -31521300000.0 -187506000000.0 -110233000000.0 -18228900000.0 -118875000000.0 -152372000000.0 -43765200000.0 -36803900000.0 -62917000000.0 -48872800000.0 -102542000000.0 -40549900000.0 -111053000000.0 -99086400000.0 -118052000000.0 -136087000000.0 -59246100000.0 -12549800000.0 -144003000000.0 -75194400000.0 -59469500000.0 -14278600000.0 -71709200000.0 -62401400000.0 -151030000000.0 -94121200000.0 -12549700000.0 -125152000000.0 -66479300000.0 -57195900000.0 -58264800000.0 -60915600000.0 -68989300000.0 -120078000000.0 -70922700000.0 -91919400000.0 -76081600000.0 -37305100000.0 -82600400000.0 -61090000000.0 -238953000000.0 -172961000000.0 -47103000000.0 -72975900000.0 -405503000000.0 -164991000000.0 -103960000000.0 -25612500000.0 -13944800000.0 -35690400000.0 -29764000000.0 -27659800000.0 -31415800000.0 -57005000000.0 -27947700000.0 -16448400000.0 -32224900000.0 -63751300000.0 -64413300000.0 -43979300000.0 -47362800000.0 -31311500000.0 -42820400000.0 -43597000000.0 -48318800000.0 -57930300000.0 -43373400000.0 -43525000000.0 -42727400000.0 -17693600000.0 -29797000000.0 -42349400000.0 -21176700000.0 -21842600000.0 -63762300000.0 -15956100000.0 -58910800000.0 -225136000000.0 -13906900000.0 -109998000000.0 -28017700000.0 -43214000000.0 -154318000000.0 -118122000000.0 -109574000000.0 -39937900000.0 -86624300000.0 -157467000000.0 -151855000000.0 -78752000000.0 -167721000000.0 -75668500000.0 -58334300000.0 -68834200000.0 -82886900000.0 -199429000000.0 -87478700000.0 -12549700000.0 -83918700000.0 -106384000000.0 -63334200000.0 -200468000000.0 -16346800000.0 -144617000000.0 -19089800000.0 -177809000000.0 -72843000000.0 -66744800000.0 -174347000000.0 -141958000000.0 -117368000000.0 -142752000000.0 -70132400000.0 -207022000000.0 -24609500000.0 -41031000000.0 -49663800000.0 -89161100000.0 -101319000000.0 -136268000000.0 -59773400000.0 -12549700000.0 -138721000000.0 -60012100000.0 -44130000000.0 -74087700000.0 -30780900000.0 -39125000000.0 -24348300000.0 -16902800000.0 -77083000000.0 -32243000000.0 -51204700000.0 -99384900000.0 -24470500000.0 -71211900000.0 -205036000000.0 -79567100000.0 -101817000000.0 -15733500000.0 -61334700000.0 -64233200000.0 -114147000000.0 -170710000000.0 -184000000000.0 -255973000000.0 -145877000000.0 -62291300000.0 -14197700000.0 -19458000000.0 -31444000000.0 -19443600000.0 -17165200000.0 -33073800000.0 -19490900000.0 -24162200000.0 -13933700000.0 -12549700000.0 -35305100000.0 -15447600000.0 -36951200000.0 -28024300000.0 -14029900000.0 -15288300000.0 -39161700000.0 -12549700000.0 -54551800000.0 -27063000000.0 -69792000000.0 -35034900000.0 -48773600000.0 -31960700000.0 -64885600000.0 -14252700000.0 -39177200000.0 -35383200000.0 -87706500000.0 -173215000000.0 -148603000000.0 -202961000000.0 -150208000000.0 -63064700000.0 -116888000000.0 -38879000000.0 -211806000000.0 -159857000000.0 -167589000000.0 -12549700000.0 -19034600000.0 -100918000000.0 -46402400000.0 -130049000000.0 -65588900000.0 -15087300000.0 -136391000000.0 -24113800000.0 -76762900000.0 -68624700000.0 -217134000000.0 -138505000000.0 -83646100000.0 -156197000000.0 -19129900000.0 -245093000000.0 -26879300000.0 -25776700000.0 -178690000000.0 -88441500000.0 -81216900000.0 -56134900000.0 -235633000000.0 -12549700000.0 -298316000000.0 -180279000000.0 -107604000000.0 -32006800000.0 -135471000000.0 -107613000000.0 -15184500000.0 -215889000000.0 -12549700000.0 -157204000000.0 -45654700000.0 -88485900000.0 -80400000000.0 -114477000000.0 -211819000000.0 -245792000000.0 -85115000000.0 -191231000000.0 -38192600000.0 -93826200000.0 -53989100000.0 -14312800000.0 -59998100000.0 -72167500000.0 -46658200000.0 -71288300000.0 -129213000000.0 -60464600000.0 -19009300000.0 -18439000000.0 -162679000000.0 -120372000000.0 -142598000000.0 -43925400000.0 -54977900000.0 -162173000000.0 -16201900000.0 -51377200000.0 -194563000000.0 -186162000000.0 -285450000000.0 -209244000000.0 -146967000000.0 -23586900000.0 -15533500000.0 -12571900000.0 -23164800000.0 -17085000000.0 -45135300000.0 -23015100000.0 -15937200000.0 -14562500000.0 -13343500000.0 -22244500000.0 -12549700000.0 -22475500000.0 -31504400000.0 -27136600000.0 -13328400000.0 -29989600000.0 -36482600000.0 -61112900000.0 -14923500000.0 -14819500000.0 -93072100000.0 -78314200000.0 -17185200000.0 -120863000000.0 -107651000000.0 -130994000000.0 -14038400000.0 -18458100000.0 -87388600000.0 -157430000000.0 -160872000000.0 -208289000000.0 -269466000000.0 -85646300000.0 -127929000000.0 -98267700000.0 -172417000000.0 -153828000000.0 -153371000000.0 -49523700000.0 -187645000000.0 -115802000000.0 -166751000000.0 -198799000000.0 -188879000000.0 -232651000000.0 -130219000000.0 -251484000000.0 -37852500000.0 -170694000000.0 -124604000000.0 -149064000000.0 -84112900000.0 -154259000000.0 -267108000000.0 -237243000000.0 -65784400000.0 -18803600000.0 -36594000000.0 -151822000000.0 -85361600000.0 -121879000000.0 -174146000000.0 -155609000000.0 -143742000000.0 -215472000000.0 -294236000000.0 -68643600000.0 -180063000000.0 -128594000000.0 -149030000000.0 -223899000000.0 -83752500000.0 -12549700000.0 -101333000000.0 -110116000000.0 -53885300000.0 -57251500000.0 -62532300000.0 -83687800000.0 -19544200000.0 -14141700000.0 -185253000000.0 -13489100000.0 -80363500000.0 -107049000000.0 -97566900000.0 -272266000000.0 -107938000000.0 -318344000000.0 -167339000000.0 -136329000000.0 -154334000000.0 -178934000000.0 -17383600000.0 -13048100000.0 -25590900000.0 -14198400000.0 -13219500000.0 -15895800000.0 -30808900000.0 -56589400000.0 -18849500000.0 -12549700000.0 -12549700000.0 -12549700000.0 -20146900000.0 -23618700000.0 -13729200000.0 -43125300000.0 -32504500000.0 -26611400000.0 -13329200000.0 -31164500000.0 -39543700000.0 -46140100000.0 -47198200000.0 -50507900000.0 -45153000000.0 -49055400000.0 -72615800000.0 -48528400000.0 -97334800000.0 -277191000000.0 -238735000000.0 -162965000000.0 -169864000000.0 -185868000000.0 -82202300000.0 -203402000000.0 -70441800000.0 -24118100000.0 -244315000000.0 -151770000000.0 -157307000000.0 -210214000000.0 -136920000000.0 -180378000000.0 -192270000000.0 -235269000000.0 -228596000000.0 -142501000000.0 -98915600000.0 -88163300000.0 -202731000000.0 -134028000000.0 -145205000000.0 -58526900000.0 -187087000000.0 -197311000000.0 -107706000000.0 -95336000000.0 -131867000000.0 -169963000000.0 -15868300000.0 -134629000000.0 -102452000000.0 -98185200000.0 -199373000000.0 -66086000000.0 -59491900000.0 -152709000000.0 -12549700000.0 -56699900000.0 -119444000000.0 -34827400000.0 -136557000000.0 -97870700000.0 -30589400000.0 -186695000000.0 -102058000000.0 -170973000000.0 -84444600000.0 -163183000000.0 -127982000000.0 -45573400000.0 -105384000000.0 -160965000000.0 -138205000000.0 -196570000000.0 -248062000000.0 -161841000000.0 -180289000000.0 -60063900000.0 -146670000000.0 -163050000000.0 -151374000000.0 -104553000000.0 -96488400000.0 -189684000000.0 -16008300000.0 -17217700000.0 -23278100000.0 -14373600000.0 -25042800000.0 -57195200000.0 -15533900000.0 -12706800000.0 -12599100000.0 -12549700000.0 -33348700000.0 -21389500000.0 -54366000000.0 -16655300000.0 -40664800000.0 -12549700000.0 -20285200000.0 -94784800000.0 -12549700000.0 -26087200000.0 -20992200000.0 -52096900000.0 -40033400000.0 -21735000000.0 -36883700000.0 -41997300000.0 -136474000000.0 -149741000000.0 -112529000000.0 -68248000000.0 -250161000000.0 -388250000000.0 -111360000000.0 -30191800000.0 -124760000000.0 -49953700000.0 -143880000000.0 -100402000000.0 -165252000000.0 -114841000000.0 -49948900000.0 -16299100000.0 -105187000000.0 -135104000000.0 -12549700000.0 -170038000000.0 -56914700000.0 -101808000000.0 -139142000000.0 -100537000000.0 -16741700000.0 -223501000000.0 -185848000000.0 -111668000000.0 -157648000000.0 -27630300000.0 -32909000000.0 -45598300000.0 -101920000000.0 -194355000000.0 -18660100000.0 -42251400000.0 -13150500000.0 -122512000000.0 -157029000000.0 -23841900000.0 -68924400000.0 -127308000000.0 -47559700000.0 -143125000000.0 -150237000000.0 -269240000000.0 -93418300000.0 -165405000000.0 -57306600000.0 -172863000000.0 -123079000000.0 -131575000000.0 -14926400000.0 -176682000000.0 -49466900000.0 -157062000000.0 -31356500000.0 -155715000000.0 -59201200000.0 -86855400000.0 -83915300000.0 -167076000000.0 -112024000000.0 -96217600000.0 -199307000000.0 -30270500000.0 -118406000000.0 -206831000000.0 -247453000000.0 -211102000000.0 -77971300000.0 -19643500000.0 -13501200000.0 -12549700000.0 -22704400000.0 -17030900000.0 -19963400000.0 -32879500000.0 -70516400000.0 -44553800000.0 -49346900000.0 -31917700000.0 -31309800000.0 -33418900000.0 -37251000000.0 -57565800000.0 -37123900000.0 -73098200000.0 -13135400000.0 -51038600000.0 -13298000000.0 -21036500000.0 -70045500000.0 -27706500000.0 -13291600000.0 -40132000000.0 -12549700000.0 -63772900000.0 -23341900000.0 -86763800000.0 -74909300000.0 -83341700000.0 -64576400000.0 -77619000000.0 -108434000000.0 -225264000000.0 -126064000000.0 -132372000000.0 -73363400000.0 -138404000000.0 -134861000000.0 -21118800000.0 -19087200000.0 -231157000000.0 -234158000000.0 -279696000000.0 -13563500000.0 -188172000000.0 -54346700000.0 -157660000000.0 -78167900000.0 -45268000000.0 -195391000000.0 -167569000000.0 -85249300000.0 -73888900000.0 -60311200000.0 -71632800000.0 -105710000000.0 -64219700000.0 -138922000000.0 -103091000000.0 -129345000000.0 -59816200000.0 -146656000000.0 -170921000000.0 -274067000000.0 -65230300000.0 -119402000000.0 -144357000000.0 -111421000000.0 -43232700000.0 -49988500000.0 -151795000000.0 -237516000000.0 -127320000000.0 -133853000000.0 -183775000000.0 -237798000000.0 -75122000000.0 -72527000000.0 -143882000000.0 -93895500000.0 -81857000000.0 -96000600000.0 -131653000000.0 -133689000000.0 -15710100000.0 -48836200000.0 -149190000000.0 -87088900000.0 -109096000000.0 -122671000000.0 -47990500000.0 -128130000000.0 -27126900000.0 -120654000000.0 -98704900000.0 -103025000000.0 -81396400000.0 -103128000000.0 -240181000000.0 -299596000000.0 -275811000000.0 -272001000000.0 -170940000000.0 -406670000000.0 -92963900000.0 -150987000000.0 -121061000000.0 -27259200000.0 -37663700000.0 -34650400000.0 -42589600000.0 -52645900000.0 -132288000000.0 -67170400000.0 -28619700000.0 -30817200000.0 -36284300000.0 -35361300000.0 -56041000000.0 -39704800000.0 -126707000000.0 -116261000000.0 -81553100000.0 -80305500000.0 -93275400000.0 -60790000000.0 -49902700000.0 -58590800000.0 -64980300000.0 -82624200000.0 -93957000000.0 -91187000000.0 -106991000000.0 -16590600000.0 -242929000000.0 -203905000000.0 -52972600000.0 -76239100000.0 -106653000000.0 -44529700000.0 -66482100000.0 -191101000000.0 -81638700000.0 -35898200000.0 -54420000000.0 -334803000000.0 -183271000000.0 -206908000000.0 -155245000000.0 -174835000000.0 -245948000000.0 -139418000000.0 -205428000000.0 -116533000000.0 -25352400000.0 -195301000000.0 -142663000000.0 -132535000000.0 -130682000000.0 -265558000000.0 -168122000000.0 -260275000000.0 -45891500000.0 -39058700000.0 -20521500000.0 -148842000000.0 -12549700000.0 -147918000000.0 -40867500000.0 -97468800000.0 -110271000000.0 -54347000000.0 -194670000000.0 -63927700000.0 -179391000000.0 -12549700000.0 -96746800000.0 -135820000000.0 -13022400000.0 -142383000000.0 -168859000000.0 -147257000000.0 -57832200000.0 -39112500000.0 -118647000000.0 -12963500000.0 -38251700000.0 -145608000000.0 -25899400000.0 -85076400000.0 -111404000000.0 -43473000000.0 -56715900000.0 -82345000000.0 -97767000000.0 -168260000000.0 -202614000000.0 -152377000000.0 -201895000000.0 -281150000000.0 -41499300000.0 -31646900000.0 -104131000000.0 -221190000000.0 -286135000000.0 -271932000000.0 -409606000000.0 -154920000000.0 -41030400000.0 -30220700000.0 -22531300000.0 -24106800000.0 -31794300000.0 -12549700000.0 -58624200000.0 -26100300000.0 -22746400000.0 -24360200000.0 -14324000000.0 -61962400000.0 -12549700000.0 -58514600000.0 -57282900000.0 -60737700000.0 -125228000000.0 -81999400000.0 -58682900000.0 -45307200000.0 -23942800000.0 -53058600000.0 -115306000000.0 -153268000000.0 -18753500000.0 -47344400000.0 -12549400000.0 -22601200000.0 -30602900000.0 -237298000000.0 -104181000000.0 -12672500000.0 -92801600000.0 -51538400000.0 -69406300000.0 -118419000000.0 -28265900000.0 -15534500000.0 -53367300000.0 -303148000000.0 -136564000000.0 -202891000000.0 -45563800000.0 -237212000000.0 -114607000000.0 -204268000000.0 -183446000000.0 -130178000000.0 -284811000000.0 -14627400000.0 -233669000000.0 -267503000000.0 -55325900000.0 -172454000000.0 -224694000000.0 -25736700000.0 -182765000000.0 -16980200000.0 -138209000000.0 -221861000000.0 -15087500000.0 -62264100000.0 -80004900000.0 -35605900000.0 -51817000000.0 -35162700000.0 -141540000000.0 -91310700000.0 -86446500000.0 -44565000000.0 -50884700000.0 -140927000000.0 -64851400000.0 -88818600000.0 -12647900000.0 -53805600000.0 -186688000000.0 -279865000000.0 -150808000000.0 -161954000000.0 -157732000000.0 -150809000000.0 -94528100000.0 -94694800000.0 -57876200000.0 -93184700000.0 -100750000000.0 -129092000000.0 -78656800000.0 -73928900000.0 -15016000000.0 -165436000000.0 -100388000000.0 -33511700000.0 -70599800000.0 -14790200000.0 -90974300000.0 -90943100000.0 -73157800000.0 -145726000000.0 -160031000000.0 -85926100000.0 -31791200000.0 -105612000000.0 -15205600000.0 -13495700000.0 -260602000000.0 -127126000000.0 -34959500000.0 -82321400000.0 -59896200000.0 -170774000000.0 -76058300000.0 -40387500000.0 -14360000000.0 -36740200000.0 -37860800000.0 -19265800000.0 -120417000000.0 -64229000000.0 -12795800000.0 -13805400000.0 -15666500000.0 -24304400000.0 -28263600000.0 -21584000000.0 -171637000000.0 -56695400000.0 -150664000000.0 -12549700000.0 -162481000000.0 -14106400000.0 -151730000000.0 -65357000000.0 -46418800000.0 -103559000000.0 -93658600000.0 -88349400000.0 -12549700000.0 -78179900000.0 -84722400000.0 -71519700000.0 -81756200000.0 -90905200000.0 -42123600000.0 -111533000000.0 -59068200000.0 -80286500000.0 -142136000000.0 -134707000000.0 -47361900000.0 -47786300000.0 -117333000000.0 -197154000000.0 -12664400000.0 -213091000000.0 -282625000000.0 -177707000000.0 -337650000000.0 -275801000000.0 -12897600000.0 -185285000000.0 -122873000000.0 -76076000000.0 -243247000000.0 -237642000000.0 -60048000000.0 -123838000000.0 -235844000000.0 -12609300000.0 -191504000000.0 -14972400000.0 -187430000000.0 -70555100000.0 -25308500000.0 -56358200000.0 -14116400000.0 -168908000000.0 -69982200000.0 -128796000000.0 -102724000000.0 -49655800000.0 -12549700000.0 -89312500000.0 -57309900000.0 -88834000000.0 -338680000000.0 -102015000000.0 -79824600000.0 -15612800000.0 -160078000000.0 -184409000000.0 -45488200000.0 -159484000000.0 -146475000000.0 -66896300000.0 -120646000000.0 -14986500000.0 -19900000000.0 -74332000000.0 -109552000000.0 -219751000000.0 -200884000000.0 -138462000000.0 -251712000000.0 -86392300000.0 -70311800000.0 -48435700000.0 -134802000000.0 -71045400000.0 -128636000000.0 -152368000000.0 -24509000000.0 -72419900000.0 -188452000000.0 -45897700000.0 -21505300000.0 -33862500000.0 -13772700000.0 -56575200000.0 -104670000000.0 -183390000000.0 -135369000000.0 -113293000000.0 -95355200000.0 -88351200000.0 -86909300000.0 -100944000000.0 -143607000000.0 -31915900000.0 -161744000000.0 -166432000000.0 -203472000000.0 -204566000000.0 -35565600000.0 -13921700000.0 -70789700000.0 -174938000000.0 -73267300000.0 -105261000000.0 -117766000000.0 -93605700000.0 -107897000000.0 -266106000000.0 -72078200000.0 -124535000000.0 -20544700000.0 -12549700000.0 -102675000000.0 -101780000000.0 -59128900000.0 -94380400000.0 -232585000000.0 -225192000000.0 -118851000000.0 -247249000000.0 -83663600000.0 -123723000000.0 -62686800000.0 -235135000000.0 -137422000000.0 -146968000000.0 -97804600000.0 -248918000000.0 -132839000000.0 -239117000000.0 -94102800000.0 -28935800000.0 -137746000000.0 -93059900000.0 -122177000000.0 -300888000000.0 -130810000000.0 -170319000000.0 -125583000000.0 -164336000000.0 -174910000000.0 -237520000000.0 -229096000000.0 -235625000000.0 -203095000000.0 -365179000000.0 -17120500000.0 -74801500000.0 -13911800000.0 -91966300000.0 -44509400000.0 -173438000000.0 -89869100000.0 -131094000000.0 -156013000000.0 -69367700000.0 -137868000000.0 -123550000000.0 -119624000000.0 -196571000000.0 -79809600000.0 -54243400000.0 -191692000000.0 -12815000000.0 -12577300000.0 -230127000000.0 -151986000000.0 -115086000000.0 -147584000000.0 -77235700000.0 -134647000000.0 -171141000000.0 -12549700000.0 -76863900000.0 -196789000000.0 -45424200000.0 -13054500000.0 -29905100000.0 -17101500000.0 -212086000000.0 -98048600000.0 -89560000000.0 -64437200000.0 -35737100000.0 -37699000000.0 -58225700000.0 -61267700000.0 -89390300000.0 -59427600000.0 -75776200000.0 -12622600000.0 -12549700000.0 -103063000000.0 -241133000000.0 -82963600000.0 -345485000000.0 -216846000000.0 -319808000000.0 -97258700000.0 -126603000000.0 -188075000000.0 -188888000000.0 -109374000000.0 -237716000000.0 -302154000000.0 -259404000000.0 -167950000000.0 -16605500000.0 -148761000000.0 -121195000000.0 -181039000000.0 -215078000000.0 -170120000000.0 -36746700000.0 -269485000000.0 -98379800000.0 -99396600000.0 -162004000000.0 -81485200000.0 -170367000000.0 -71159800000.0 -99368000000.0 -90766700000.0 -137571000000.0 -176029000000.0 -121532000000.0 -172317000000.0 -137363000000.0 -117580000000.0 -182267000000.0 -170015000000.0 -181236000000.0 -134729000000.0 -16492800000.0 -106664000000.0 -218073000000.0 -46093100000.0 -139586000000.0 -223887000000.0 -85534500000.0 -58097600000.0 -135172000000.0 -114240000000.0 -60044800000.0 -91507000000.0 -46550000000.0 -49678600000.0 -13582300000.0 -15993400000.0 -449766000000.0 -145928000000.0 -126716000000.0 -184932000000.0 -12549700000.0 -207663000000.0 -214269000000.0 -199938000000.0 -142027000000.0 -271959000000.0 -125113000000.0 -159550000000.0 -158153000000.0 -142995000000.0 -156648000000.0 -80096600000.0 -144910000000.0 -81075900000.0 -12549500000.0 -106398000000.0 -15493000000.0 -13983700000.0 -183729000000.0 -72777900000.0 -76739300000.0 -108437000000.0 -32439100000.0 -74415800000.0 -110046000000.0 -251930000000.0 -56245100000.0 -199304000000.0 -97246700000.0 -194086000000.0 -208863000000.0 -225336000000.0 -90043300000.0 -38367400000.0 -43981200000.0 -50433300000.0 -36337600000.0 -36272300000.0 -72591100000.0 -55767300000.0 -158327000000.0 -100363000000.0 -56498500000.0 -82773800000.0 -53746600000.0 -44591700000.0 -135911000000.0 -220635000000.0 -20071600000.0 -133131000000.0 -103135000000.0 -85160400000.0 -23818900000.0 -85662300000.0 -142343000000.0 -63208400000.0 -135146000000.0 -16893200000.0 -184038000000.0 -89956900000.0 -17308100000.0 -73610200000.0 -112289000000.0 -156688000000.0 -52388700000.0 -58315600000.0 -183664000000.0 -93481800000.0 -12549700000.0 -106753000000.0 -147534000000.0 -12549700000.0 -181779000000.0 -126403000000.0 -62535200000.0 -129373000000.0 -246816000000.0 -199018000000.0 -99083700000.0 -152806000000.0 -293727000000.0 -96049000000.0 -41892100000.0 -97043100000.0 -66608000000.0 -228546000000.0 -71136300000.0 -54767100000.0 -12549700000.0 -126538000000.0 -184532000000.0 -27455700000.0 -166979000000.0 -142392000000.0 -94177500000.0 -96401700000.0 -182845000000.0 -187662000000.0 -225940000000.0 -140249000000.0 -169931000000.0 -281412000000.0 -210363000000.0 -106537000000.0 -87709600000.0 -32565200000.0 -48702500000.0 -145860000000.0 -242247000000.0 -189460000000.0 -188656000000.0 -94173200000.0 -130935000000.0 -110749000000.0 -79167300000.0 -151940000000.0 -185506000000.0 -266609000000.0 -165752000000.0 -187711000000.0 -128454000000.0 -12914000000.0 -265610000000.0 -158703000000.0 -61268200000.0 -126732000000.0 -194778000000.0 -86899000000.0 -310711000000.0 -321626000000.0 -38397100000.0 -97611200000.0 -15435000000.0 -211942000000.0 -113633000000.0 -40404400000.0 -32612200000.0 -66762800000.0 -27700400000.0 -12729800000.0 -51381300000.0 -19719300000.0 -112371000000.0 -81405800000.0 -47434200000.0 -54360000000.0 -101772000000.0 -104753000000.0 -233630000000.0 -254142000000.0 -46322600000.0 -207535000000.0 -120183000000.0 -132024000000.0 -83152800000.0 -93420500000.0 -60318600000.0 -73124300000.0 -131565000000.0 -138809000000.0 -226629000000.0 -165280000000.0 -86412800000.0 -116205000000.0 -107676000000.0 -106087000000.0 -18841400000.0 -26468600000.0 -130512000000.0 -96421100000.0 -59481600000.0 -110554000000.0 -150331000000.0 -158296000000.0 -270690000000.0 -132397000000.0 -111887000000.0 -100950000000.0 -174080000000.0 -30538700000.0 -138107000000.0 -104108000000.0 -139712000000.0 -152081000000.0 -147005000000.0 -166027000000.0 -130196000000.0 -107625000000.0 -103630000000.0 -82446000000.0 -123599000000.0 -100583000000.0 -228075000000.0 -224632000000.0 -12549700000.0 -72952900000.0 -62808400000.0 -121669000000.0 -296483000000.0 -71193200000.0 -158271000000.0 -85132000000.0 -262752000000.0 -252325000000.0 -242572000000.0 -201220000000.0 -189274000000.0 -154293000000.0 -14421600000.0 -137834000000.0 -108914000000.0 -186131000000.0 -71584100000.0 -104457000000.0 -78508000000.0 -81227100000.0 -54543300000.0 -41550800000.0 -151356000000.0 -152477000000.0 -344505000000.0 -21062900000.0 -23330600000.0 -94879900000.0 -73572000000.0 -27787500000.0 -72237000000.0 -126685000000.0 -39819900000.0 -207253000000.0 -286827000000.0 -14627400000.0 -88198900000.0 -79592900000.0 -223760000000.0 -136737000000.0 -60525400000.0 -65375800000.0 -111728000000.0 -86392900000.0 -75708700000.0 -66229700000.0 -64847900000.0 -178653000000.0 -110915000000.0 -79990200000.0 -60864600000.0 -75619100000.0 -110804000000.0 -280383000000.0 -33694900000.0 -235094000000.0 -217651000000.0 -86301700000.0 -144927000000.0 -143427000000.0 -47819900000.0 -51167800000.0 -99762500000.0 -105612000000.0 -281947000000.0 -57545500000.0 -39685400000.0 -57873000000.0 -74381300000.0 -236614000000.0 -78618700000.0 -48602400000.0 -70689100000.0 -50855800000.0 -17234500000.0 -91668700000.0 -152999000000.0 -130837000000.0 -46994100000.0 -84055100000.0 -62388500000.0 -205423000000.0 -111259000000.0 -199042000000.0 -160519000000.0 -112089000000.0 -98221700000.0 -259927000000.0 -182307000000.0 -149203000000.0 -113923000000.0 -129328000000.0 -103783000000.0 -130271000000.0 -240307000000.0 -177005000000.0 -125775000000.0 -292948000000.0 -225860000000.0 -12549700000.0 -200243000000.0 -208096000000.0 -345202000000.0 -256431000000.0 -293225000000.0 -312830000000.0 -237125000000.0 -232675000000.0 -208475000000.0 -225689000000.0 -339707000000.0 -393390000000.0 -195423000000.0 -82848900000.0 -125458000000.0 -112466000000.0 -77908700000.0 -87958000000.0 -65076500000.0 -192720000000.0 -49766000000.0 -167584000000.0 -95575300000.0 -92402500000.0 -176639000000.0 -96296300000.0 -86810200000.0 -136797000000.0 -133933000000.0 -12549700000.0 -198596000000.0 -118066000000.0 -217818000000.0 -424300000000.0 -62455700000.0 -30624100000.0 -75148500000.0 -49397600000.0 -91670700000.0 -333467000000.0 -191602000000.0 -95060600000.0 -214484000000.0 -26725200000.0 -49299700000.0 -45132000000.0 -24231500000.0 -15732100000.0 -56072800000.0 -146979000000.0 -121247000000.0 -175353000000.0 -83980500000.0 -103734000000.0 -302446000000.0 -116092000000.0 -279771000000.0 -87598700000.0 -86809400000.0 -221196000000.0 -89018500000.0 -33652700000.0 -16367500000.0 -64968300000.0 -43120400000.0 -183674000000.0 -148349000000.0 -84459800000.0 -92141600000.0 -12549700000.0 -145927000000.0 -44100600000.0 -90543800000.0 -79673900000.0 -41165300000.0 -12549700000.0 -149763000000.0 -159348000000.0 -184153000000.0 -69149100000.0 -103665000000.0 -46332000000.0 -154501000000.0 -19897700000.0 -68442500000.0 -241787000000.0 -161341000000.0 -14935200000.0 -91833200000.0 -12663100000.0 -128235000000.0 -80537500000.0 -115058000000.0 -29688800000.0 -85029700000.0 -97532100000.0 -181031000000.0 -14030100000.0 -170695000000.0 -74739200000.0 -113523000000.0 -84900200000.0 -88612200000.0 -121793000000.0 -345971000000.0 -12549700000.0 -243781000000.0 -93286200000.0 -162488000000.0 -299713000000.0 -229275000000.0 -97058800000.0 -83206000000.0 -217145000000.0 -99910800000.0 -84993200000.0 -13323700000.0 -59697000000.0 -18356200000.0 -45573200000.0 -136776000000.0 -15752000000.0 -12945300000.0 -52721000000.0 -141564000000.0 -103193000000.0 -46358200000.0 -44321700000.0 -56324900000.0 -12607000000.0 -175005000000.0 -44896100000.0 -76300900000.0 -281600000000.0 -53236700000.0 -68499100000.0 -247174000000.0 -229609000000.0 -333172000000.0 -21358700000.0 -13624000000.0 -191399000000.0 -12549700000.0 -33423000000.0 -49761300000.0 -12549700000.0 -92204500000.0 -144298000000.0 -58188800000.0 -54544400000.0 -143112000000.0 -150609000000.0 -55383500000.0 -246526000000.0 -54902600000.0 -232883000000.0 -148818000000.0 -57137800000.0 -141978000000.0 -37454500000.0 -70379800000.0 -82621300000.0 -114315000000.0 -94254900000.0 -293943000000.0 -255370000000.0 -127570000000.0 -123050000000.0 -94977600000.0 -177615000000.0 -57874200000.0 -95971200000.0 -101070000000.0 -208391000000.0 -160867000000.0 -103309000000.0 -104688000000.0 -223753000000.0 -106573000000.0 -112040000000.0 -107071000000.0 -152525000000.0 -186906000000.0 -115287000000.0 -101985000000.0 -121316000000.0 -133431000000.0 -98475000000.0 -80206500000.0 -27398400000.0 -183464000000.0 -128777000000.0 -72899900000.0 -89362200000.0 -73522400000.0 -76591000000.0 -204878000000.0 -125120000000.0 -196447000000.0 -194908000000.0 -67420800000.0 -15999400000.0 -179183000000.0 -191875000000.0 -301617000000.0 -118192000000.0 -149842000000.0 -195914000000.0 -100431000000.0 -17207200000.0 -260945000000.0 -191066000000.0 -152768000000.0 -102210000000.0 -182181000000.0 -102726000000.0 -163818000000.0 -92110000000.0 -110118000000.0 -118962000000.0 -131534000000.0 -92767800000.0 -53769900000.0 -188722000000.0 -137375000000.0 -45984000000.0 -81775200000.0 -104134000000.0 -111892000000.0 -65380600000.0 -67252300000.0 -40236900000.0 -269188000000.0 -52644600000.0 -155756000000.0 -193804000000.0 -182046000000.0 -398833000000.0 -39888600000.0 -13089700000.0 -215474000000.0 -112773000000.0 -136737000000.0 -140364000000.0 -88397300000.0 -133626000000.0 -25955800000.0 -15124500000.0 -191524000000.0 -18097300000.0 -12934300000.0 -179056000000.0 -133279000000.0 -111404000000.0 -328992000000.0 -182534000000.0 -243908000000.0 -178750000000.0 -207331000000.0 -226588000000.0 -318773000000.0 -109987000000.0 -79135400000.0 -197835000000.0 -167361000000.0 -162965000000.0 -209554000000.0 -84942500000.0 -175686000000.0 -180888000000.0 -153500000000.0 -53931600000.0 -101123000000.0 -163083000000.0 -14426800000.0 -12549700000.0 -31357800000.0 -81877100000.0 -113868000000.0 -79792500000.0 -151032000000.0 -66701500000.0 -129273000000.0 -115303000000.0 -116353000000.0 -120350000000.0 -210694000000.0 -30460500000.0 -22525200000.0 -34321900000.0 -42386100000.0 -82961900000.0 -63683600000.0 -47647600000.0 -169178000000.0 -58581300000.0 -211572000000.0 -95665800000.0 -62619500000.0 -77048300000.0 -79822600000.0 -110891000000.0 -155686000000.0 -108659000000.0 -12923800000.0 -76187400000.0 -273721000000.0 -30525700000.0 -39632800000.0 -50053000000.0 -211227000000.0 -131351000000.0 -16125300000.0 -96763900000.0 -89029400000.0 -169428000000.0 -102086000000.0 -70212600000.0 -108615000000.0 -143693000000.0 -103942000000.0 -102992000000.0 -175007000000.0 -118794000000.0 -86909100000.0 -104763000000.0 -86218300000.0 -92311500000.0 -104095000000.0 -124200000000.0 -22291800000.0 -20000100000.0 -138502000000.0 -89556700000.0 -132835000000.0 -12549700000.0 -77691600000.0 -297908000000.0 -52320200000.0 -58802800000.0 -245600000000.0 -16486700000.0 -97325000000.0 -47719400000.0 -40093000000.0 -141152000000.0 -84930800000.0 -119409000000.0 -96267800000.0 -273177000000.0 -89586200000.0 -234303000000.0 -301217000000.0 -107366000000.0 -313525000000.0 -57948800000.0 -142145000000.0 -49381700000.0 -100147000000.0 -60044900000.0 -312392000000.0 -19914500000.0 -33536400000.0 -118517000000.0 -20124100000.0 -43687800000.0 -16202500000.0 -118339000000.0 -223812000000.0 -99947200000.0 -181988000000.0 -12549700000.0 -26363500000.0 -68627000000.0 -84780400000.0 -85289400000.0 -97651200000.0 -41266900000.0 -43321400000.0 -82903900000.0 -93423500000.0 -55832000000.0 -40430100000.0 -159399000000.0 -20676800000.0 -77197600000.0 -58676500000.0 -87444200000.0 -136784000000.0 -149417000000.0 -34041700000.0 -50549700000.0 -49574900000.0 -66271500000.0 -84406100000.0 -49923800000.0 -36631100000.0 -220451000000.0 -154677000000.0 -12549700000.0 -238337000000.0 -169500000000.0 -243406000000.0 -200053000000.0 -77770700000.0 -87811400000.0 -225200000000.0 -110230000000.0 -267558000000.0 -14998100000.0 -16675200000.0 -12549700000.0 -62032600000.0 -72568100000.0 -19706800000.0 -46047400000.0 -17838500000.0 -101779000000.0 -90904300000.0 -99119600000.0 -67309500000.0 -90711800000.0 -21397300000.0 -18489500000.0 -23007600000.0 -199949000000.0 -83783200000.0 -110029000000.0 -98864900000.0 -133423000000.0 -252295000000.0 -261189000000.0 -346049000000.0 -415414000000.0 -32504800000.0 -120108000000.0 -174427000000.0 -88292100000.0 -15321900000.0 -93954900000.0 -363657000000.0 -345983000000.0 -180351000000.0 -210184000000.0 -305504000000.0 -211802000000.0 -202673000000.0 -78280300000.0 -43136300000.0 -39993400000.0 -17776300000.0 -347369000000.0 -130567000000.0 -211285000000.0 -136805000000.0 -199592000000.0 -284210000000.0 -163878000000.0 -251710000000.0 -111317000000.0 -66229100000.0 -123872000000.0 -105842000000.0 -318422000000.0 -324684000000.0 -208436000000.0 -160429000000.0 -164917000000.0 -199533000000.0 -120680000000.0 -142143000000.0 -153477000000.0 -129190000000.0 -109822000000.0 -57475200000.0 -47528000000.0 -44323900000.0 -93077400000.0 -92600000000.0 -91877000000.0 -82861300000.0 -51956100000.0 -64153900000.0 -14626200000.0 -41578000000.0 -71183200000.0 -109760000000.0 -32797000000.0 -86323600000.0 -32511700000.0 -21361500000.0 -63415600000.0 -54617400000.0 -189475000000.0 -118244000000.0 -127659000000.0 -170833000000.0 -62232200000.0 -62743900000.0 -82038200000.0 -187058000000.0 -19094800000.0 -14006600000.0 -12549700000.0 -208866000000.0 -104661000000.0 -173294000000.0 -123595000000.0 -94207700000.0 -173830000000.0 -124623000000.0 -226697000000.0 -38359200000.0 -54367100000.0 -41782800000.0 -90989100000.0 -55609700000.0 -66815000000.0 -63303900000.0 -54891500000.0 -55007600000.0 -83203300000.0 -46473200000.0 -35895700000.0 -48539200000.0 -82600000000.0 -13419300000.0 -18826200000.0 -34737400000.0 -154808000000.0 -90320800000.0 -65312700000.0 -98209900000.0 -158486000000.0 -23401000000.0 -12647100000.0 -185429000000.0 -118363000000.0 -22160200000.0 -212934000000.0 -12549700000.0 -175116000000.0 -372252000000.0 -344793000000.0 -255449000000.0 -236953000000.0 -12793900000.0 -162176000000.0 -142727000000.0 -169495000000.0 -116285000000.0 -245084000000.0 -208525000000.0 -178054000000.0 -281490000000.0 -193108000000.0 -49808000000.0 -330876000000.0 -243763000000.0 -294504000000.0 -161419000000.0 -317302000000.0 -189409000000.0 -201710000000.0 -163912000000.0 -78786700000.0 -145621000000.0 -165626000000.0 -225209000000.0 -119052000000.0 -127817000000.0 -146125000000.0 -219736000000.0 -37565700000.0 -42212700000.0 -84979700000.0 -67427400000.0 -26065100000.0 -60609800000.0 -13788000000.0 -54549900000.0 -91309900000.0 -66475900000.0 -55714300000.0 -56863500000.0 -50241600000.0 -87984200000.0 -91366400000.0 -101886000000.0 -96548000000.0 -114777000000.0 -107882000000.0 -110393000000.0 -60226100000.0 -124561000000.0 -26820400000.0 -28987200000.0 -55449000000.0 -42161500000.0 -161313000000.0 -90481200000.0 -88116900000.0 -193799000000.0 -170110000000.0 -161446000000.0 -177637000000.0 -138272000000.0 -194582000000.0 -112667000000.0 -87321000000.0 -147521000000.0 -34050700000.0 -108286000000.0 -96624600000.0 -41780900000.0 -36704800000.0 -75799100000.0 -48981300000.0 -14839200000.0 -22557200000.0 -14153900000.0 -89322600000.0 -54216300000.0 -75834000000.0 -30114000000.0 -32728500000.0 -95455300000.0 -65355200000.0 -68978300000.0 -136934000000.0 -63970500000.0 -23035000000.0 -51138200000.0 -116862000000.0 -35762700000.0 -13631400000.0 -168595000000.0 -82477300000.0 -18962500000.0 -230193000000.0 -252017000000.0 -61430200000.0 -92575300000.0 -161003000000.0 -145424000000.0 -209000000000.0 -210861000000.0 -213043000000.0 -156189000000.0 -133317000000.0 -195759000000.0 -183798000000.0 -126363000000.0 -146373000000.0 -161470000000.0 -258267000000.0 -223181000000.0 -20292700000.0 -109835000000.0 -163946000000.0 -284513000000.0 -334202000000.0 -293645000000.0 -50365100000.0 -33689600000.0 -91840500000.0 -33038100000.0 -39289800000.0 -156730000000.0 -103922000000.0 -54403000000.0 -102951000000.0 -104796000000.0 -27667800000.0 -26656600000.0 -39222800000.0 -66003800000.0 -17966200000.0 -16990600000.0 -13581300000.0 -12549700000.0 -82543500000.0 -34194100000.0 -70150800000.0 -86595500000.0 -51952800000.0 -54973300000.0 -53362100000.0 -55184300000.0 -79130800000.0 -28066500000.0 -12925000000.0 -59011600000.0 -17304400000.0 -121532000000.0 -19303100000.0 -41213600000.0 -75380400000.0 -162251000000.0 -114321000000.0 -73353000000.0 -12549700000.0 -171065000000.0 -145409000000.0 -126077000000.0 -121538000000.0 -116001000000.0 -77453700000.0 -98200400000.0 -69301000000.0 -68796600000.0 -125759000000.0 -71905800000.0 -34368800000.0 -51221900000.0 -55152600000.0 -43257400000.0 -60922400000.0 -12605000000.0 -13229900000.0 -18906300000.0 -38701900000.0 -16903800000.0 -19414100000.0 -118039000000.0 -97721300000.0 -20895900000.0 -103759000000.0 -44173900000.0 -28381900000.0 -95766300000.0 -74814200000.0 -65859100000.0 -46179700000.0 -13402600000.0 -23044500000.0 -362137000000.0 -66031400000.0 -81073300000.0 -109123000000.0 -137403000000.0 -204721000000.0 -57688500000.0 -247045000000.0 -124417000000.0 -117179000000.0 -118364000000.0 -85541900000.0 -116951000000.0 -25268100000.0 -13288000000.0 -72229100000.0 -114476000000.0 -208980000000.0 -185829000000.0 -252845000000.0 -166527000000.0 -38315100000.0 -13758000000.0 -171506000000.0 -173495000000.0 -167732000000.0 -162891000000.0 -51732200000.0 -124830000000.0 -102125000000.0 -51434800000.0 -90780700000.0 -17132400000.0 -13539600000.0 -124268000000.0 -49505600000.0 -91424700000.0 -99588100000.0 -53320000000.0 -29000400000.0 -17299100000.0 -41691400000.0 -57373000000.0 -35167100000.0 -35381100000.0 -39912500000.0 -60201000000.0 -44253300000.0 -32574600000.0 -38564000000.0 -54205500000.0 -17552300000.0 -16313500000.0 -47712300000.0 -36025300000.0 -87719700000.0 -52126900000.0 -43678100000.0 -79147800000.0 -43863800000.0 -119242000000.0 -59515400000.0 -69360600000.0 -209392000000.0 -36300000000.0 -63629300000.0 -96099700000.0 -94691700000.0 -216113000000.0 -154071000000.0 -186506000000.0 -183017000000.0 -127338000000.0 -26035000000.0 -63302300000.0 -36783300000.0 -59152000000.0 -40245600000.0 -44494100000.0 -89764500000.0 -99411900000.0 -97315800000.0 -51256800000.0 -29519700000.0 -49483700000.0 -21351900000.0 -21251400000.0 -47796100000.0 -30888100000.0 -38456400000.0 -93634800000.0 -12549700000.0 -136761000000.0 -147725000000.0 -105747000000.0 -119075000000.0 -61975500000.0 -42601800000.0 -123743000000.0 -68937400000.0 -68018900000.0 -201442000000.0 -171466000000.0 -112361000000.0 -59743000000.0 -63650400000.0 -38751200000.0 -81094900000.0 -46433000000.0 -192521000000.0 -194416000000.0 -162091000000.0 -14863900000.0 -119325000000.0 -48929200000.0 -81015100000.0 -41061800000.0 -46760400000.0 -146251000000.0 -207438000000.0 -16278900000.0 -105134000000.0 -91447100000.0 -45881600000.0 -197591000000.0 -156087000000.0 -114246000000.0 -136487000000.0 -238437000000.0 -12549700000.0 -21062000000.0 -51480600000.0 -97209900000.0 -73836000000.0 -88860600000.0 -113165000000.0 -137709000000.0 -53929300000.0 -67242800000.0 -97427100000.0 -74671500000.0 -20986900000.0 -21897100000.0 -25286600000.0 -66007700000.0 -31388600000.0 -33335100000.0 -36825200000.0 -52078000000.0 -69919900000.0 -47984500000.0 -80452700000.0 -76506000000.0 -77765500000.0 -76267500000.0 -83825500000.0 -60658800000.0 -112763000000.0 -16734800000.0 -21824200000.0 -72225900000.0 -46827300000.0 -74089000000.0 -20023700000.0 -137643000000.0 -21235100000.0 -18003000000.0 -12798600000.0 -108478000000.0 -14655400000.0 -162915000000.0 -107331000000.0 -153945000000.0 -100663000000.0 -124773000000.0 -53795100000.0 -40332800000.0 -31179500000.0 -33204000000.0 -58940000000.0 -20369800000.0 -40919800000.0 -18924000000.0 -12584600000.0 -85535900000.0 -46389600000.0 -46097200000.0 -74808000000.0 -63153500000.0 -77028800000.0 -53066200000.0 -51168000000.0 -150586000000.0 -119408000000.0 -45906600000.0 -65265500000.0 -13245000000.0 -35631500000.0 -78554400000.0 -76197400000.0 -23633000000.0 -18280200000.0 -13133500000.0 -130490000000.0 -104621000000.0 -47053000000.0 -36797100000.0 -50550100000.0 -64068900000.0 -89350400000.0 -118299000000.0 -64447300000.0 -59223400000.0 -132705000000.0 -110056000000.0 -84499000000.0 -78514700000.0 -138496000000.0 -87864700000.0 -217289000000.0 -222401000000.0 -128939000000.0 -154392000000.0 -172253000000.0 -79319200000.0 -185942000000.0 -134348000000.0 -52631600000.0 -300889000000.0 -22584000000.0 -24354800000.0 -12699500000.0 -37984500000.0 -55507300000.0 -34144500000.0 -51868700000.0 -26628200000.0 -70411700000.0 -15046200000.0 -26037000000.0 -49510300000.0 -12549700000.0 -68253400000.0 -64926800000.0 -77073000000.0 -24931400000.0 -21993200000.0 -20501400000.0 -24277300000.0 -30299300000.0 -58746600000.0 -42188700000.0 -75438400000.0 -37499200000.0 -19792800000.0 -13350400000.0 -22945900000.0 -12549700000.0 -95671000000.0 -26952300000.0 -27020800000.0 -77529200000.0 -19015300000.0 -86011400000.0 -33340800000.0 -31700700000.0 -162547000000.0 -73327900000.0 -81507700000.0 -96806400000.0 -132554000000.0 -29522200000.0 -53771300000.0 -15603500000.0 -191549000000.0 -78807100000.0 -31665500000.0 -38472500000.0 -22925800000.0 -18594900000.0 -19592100000.0 -44932000000.0 -43226600000.0 -14199400000.0 -27888900000.0 -19204800000.0 -78728200000.0 -54791100000.0 -64237600000.0 -51971000000.0 -46752300000.0 -53928100000.0 -19489600000.0 -51775700000.0 -93843600000.0 -63636500000.0 -30540000000.0 -36594500000.0 -48869000000.0 -32110800000.0 -13453500000.0 -16370400000.0 -40941900000.0 -32525100000.0 -21084300000.0 -34668900000.0 -117208000000.0 -86143600000.0 -42617600000.0 -39766500000.0 -63515400000.0 -38769300000.0 -76766900000.0 -81009300000.0 -144262000000.0 -158283000000.0 -83437300000.0 -92546600000.0 -56374100000.0 -59953600000.0 -161390000000.0 -216776000000.0 -46513300000.0 -117713000000.0 -32325300000.0 -17845300000.0 -200264000000.0 -125483000000.0 -68752300000.0 -124165000000.0 -187422000000.0 -223559000000.0 -117892000000.0 -48980200000.0 -29847400000.0 -75000500000.0 -51585800000.0 -23237500000.0 -25845300000.0 -37420600000.0 -56144200000.0 -60281300000.0 -41101300000.0 -12549700000.0 -43606600000.0 -35108700000.0 -41521100000.0 -30524300000.0 -24128800000.0 -26129000000.0 -30561000000.0 -41760800000.0 -14602700000.0 -12572600000.0 -42065800000.0 -21154900000.0 -32181400000.0 -33411800000.0 -34083700000.0 -47546400000.0 -60428800000.0 -70026000000.0 -35347300000.0 -37638600000.0 -98877700000.0 -21437400000.0 -75416900000.0 -81883400000.0 -82675600000.0 -42059300000.0 -68901900000.0 -24581500000.0 -81553500000.0 -20115500000.0 -13400300000.0 -44999500000.0 -189891000000.0 -87740800000.0 -62610800000.0 -48869000000.0 -55949800000.0 -48488200000.0 -73775500000.0 -43304300000.0 -13136700000.0 -44768100000.0 -61075100000.0 -23759700000.0 -24878800000.0 -33503600000.0 -13861800000.0 -19015700000.0 -66905000000.0 -51710100000.0 -28383600000.0 -59214500000.0 -27577600000.0 -26259400000.0 -22150000000.0 -22581000000.0 -29396400000.0 -17047700000.0 -12833700000.0 -17419000000.0 -16465600000.0 -94986800000.0 -76271600000.0 -25348500000.0 -57103900000.0 -16514600000.0 -150620000000.0 -25739700000.0 -76355700000.0 -114383000000.0 -95119300000.0 -91617700000.0 -95671800000.0 -89319100000.0 -127030000000.0 -95224200000.0 -170282000000.0 -153190000000.0 -131262000000.0 -30415400000.0 -41623800000.0 -70525000000.0 -116306000000.0 -12549700000.0 -102922000000.0 -81102600000.0 -12877600000.0 -72937700000.0 -63627900000.0 -78228300000.0 -42596500000.0 -24931900000.0 -22250900000.0 -23060600000.0 -35773100000.0 -33113100000.0 -18325700000.0 -51897300000.0 -16193800000.0 -16542000000.0 -20394100000.0 -18449700000.0 -13070400000.0 -12549700000.0 -15477700000.0 -21727600000.0 -13532100000.0 -13519700000.0 -29313800000.0 -12549700000.0 -17407300000.0 -17989700000.0 -16977000000.0 -31795000000.0 -44237600000.0 -38747200000.0 -62577200000.0 -43002400000.0 -61608900000.0 -33336900000.0 -36909500000.0 -37569800000.0 -38273600000.0 -54584900000.0 -44358100000.0 -16769200000.0 -93319500000.0 -14750300000.0 -86729500000.0 -94165100000.0 -80189100000.0 -53882900000.0 -20431400000.0 -14135100000.0 -24040700000.0 -13121700000.0 -25649200000.0 -33328000000.0 -35766300000.0 -34879600000.0 -13075400000.0 -37528100000.0 -23867700000.0 -20161900000.0 -16296300000.0 -36206600000.0 -35320400000.0 -58697400000.0 -18279800000.0 -45970100000.0 -23372200000.0 -44131400000.0 -12549700000.0 -16720100000.0 -12651000000.0 -12642900000.0 -19523100000.0 -12610400000.0 -12549700000.0 -26836700000.0 -36602200000.0 -110143000000.0 -100309000000.0 -106805000000.0 -117619000000.0 -131415000000.0 -44016300000.0 -99458000000.0 -148513000000.0 -66441600000.0 -72468300000.0 -71711500000.0 -74060000000.0 -25187300000.0 -69662400000.0 -91523400000.0 -42094000000.0 -77413000000.0 -43123900000.0 -53120300000.0 -36722500000.0 -46652000000.0 -55421100000.0 -56849700000.0 -34281100000.0 -83988400000.0 -42904200000.0 -28396200000.0 -30105200000.0 -14382900000.0 -43846500000.0 -52089500000.0 -28823400000.0 -28283300000.0 -30570000000.0 -15176400000.0 -22558000000.0 -15397700000.0 -37319600000.0 -13874700000.0 -12549700000.0 -16386300000.0 -15860900000.0 -12549700000.0 -12549700000.0 -14522000000.0 -15548200000.0 -13062000000.0 -12606900000.0 -24368300000.0 -12732200000.0 -13801100000.0 -13516300000.0 -13023900000.0 -23153500000.0 -19593600000.0 -19715000000.0 -15734400000.0 -28850000000.0 -40309300000.0 -29558900000.0 -23917700000.0 -22263200000.0 -65052800000.0 -49567100000.0 -60930300000.0 -70206600000.0 -30999400000.0 -104178000000.0 -37139600000.0 -58569900000.0 -64457400000.0 -19164700000.0 -22714600000.0 -26484200000.0 -25254300000.0 -27715000000.0 -18383800000.0 -21391200000.0 -26605200000.0 -27402700000.0 -34298900000.0 -22878100000.0 -27168100000.0 -29470100000.0 -30759800000.0 -28357100000.0 -38211900000.0 -24163100000.0 -49818900000.0 -34739500000.0 -19801500000.0 -18932400000.0 -16920600000.0 -14292100000.0 -13578100000.0 -14259800000.0 -13984100000.0 -12549700000.0 -13314500000.0 -18128000000.0 -59262200000.0 -25643200000.0 -39161700000.0 -19249600000.0 -46970700000.0 -31555800000.0 -25252600000.0 -46643900000.0 -41588200000.0 -25623800000.0 -28075400000.0 -34675800000.0 -36023000000.0 -43938900000.0 -50454000000.0 -36262800000.0 -29934200000.0 -41261900000.0 -29188200000.0 -28009700000.0 -26794200000.0 -37417600000.0 -32988100000.0 -41318700000.0 -29258600000.0 -25235100000.0 -18319500000.0 -33602900000.0 -28151200000.0 -14374000000.0 -17188000000.0 -18252300000.0 -14128100000.0 -17751600000.0 -12549700000.0 -30726700000.0 -12915600000.0 -12619400000.0 -14735300000.0 -13057300000.0 -12549700000.0 -12570600000.0 -13021300000.0 -13686700000.0 -13617200000.0 -13359300000.0 -20853100000.0 -13181800000.0 -12965000000.0 -13819600000.0 -17921200000.0 -14837100000.0 -14007000000.0 -17747900000.0 -13341200000.0 -22397100000.0 -23593200000.0 -15031100000.0 -22161600000.0 -17857700000.0 -25252900000.0 -36091100000.0 -38493900000.0 -33040200000.0 -20296100000.0 -56591000000.0 -22376700000.0 -35562200000.0 -24718400000.0 -38001500000.0 -24267600000.0 -24820600000.0 -20420100000.0 -16166500000.0 -14603600000.0 -13248700000.0 -17985300000.0 -14447000000.0 -15749800000.0 -12658300000.0 -20423700000.0 -16603900000.0 -14395900000.0 -17938500000.0 -19016200000.0 -27153400000.0 -12549700000.0 -20987700000.0 -15471100000.0 -17210600000.0 -13656800000.0 -14342000000.0 -14035100000.0 -14276000000.0 -13114200000.0 -13556000000.0 -14769100000.0 -31493700000.0 -18443700000.0 -20110900000.0 -12882600000.0 -23263400000.0 -21827700000.0 -36475800000.0 -19213700000.0 -17741900000.0 -19672100000.0 -21550200000.0 -18397600000.0 -20940700000.0 -13759500000.0 -12549700000.0 -16448200000.0 -18626800000.0 -14298700000.0 -13072700000.0 -14369200000.0 -14190600000.0 -13708000000.0 -13578900000.0 -30948400000.0 -26464800000.0 -15414600000.0 -13934100000.0 -12549700000.0 -17150800000.0 -12718300000.0 -15753300000.0 -13646500000.0 -13510200000.0 -12549700000.0 -13940000000.0 -13076800000.0 -15517100000.0 -18979100000.0 -16612500000.0 -14364800000.0 -14129100000.0 -13779600000.0 -13512900000.0 -13545600000.0 -13625500000.0 -13241200000.0 -12760000000.0 -15144300000.0 -13238100000.0 -14260300000.0 -14466700000.0 -16699300000.0 -16260000000.0 -16324300000.0 -20377700000.0 -20403500000.0 -15941200000.0 -14147600000.0 -20614700000.0 -25582100000.0 -25624600000.0 -26561900000.0 -21471400000.0 -17991300000.0 -23568700000.0 -25137000000.0 -17461300000.0 -24191800000.0 -16759100000.0 -20233900000.0 -30328400000.0 -15823900000.0 -15599600000.0 -12936300000.0 -26696000000.0 -13684300000.0 -12549700000.0 -12549700000.0 -12549700000.0 -14614700000.0 -13274600000.0 -13121400000.0 -13882000000.0 -13412700000.0 -14093100000.0 -12549700000.0 -14607900000.0 -13761700000.0 -14032600000.0 -14433100000.0 -12959100000.0 -15977000000.0 -13574200000.0 -15815300000.0 -13918500000.0 -13996400000.0 -13348600000.0 -13212500000.0 -12654400000.0 -12549700000.0 -12603200000.0 -18768000000.0 