# vtk DataFile Version 2.0
Time step 2
ASCII
DATASET UNSTRUCTURED_GRID
POINTS 5000 float
2769.67 500101.0 0
9715.49 496245.0 0
13026.8 495116.0 0
17198.7 494794.0 0
22591.9 495561.0 0
27755.7 492706.0 0
33179.0 495227.0 0
38125.7 495676.0 0
42639.4 495664.0 0
47500.0 495644.0 0
52137.1 495670.0 0
57047.8 494638.0 0
62763.5 495585.0 0
67994.7 495719.0 0
72661.8 495090.0 0
77500.0 495598.0 0
82500.0 495587.0 0
87449.8 495121.0 0
92500.0 495625.0 0
97306.5 495646.0 0
101405.0 495554.0 0
106086.0 495237.0 0
111876.0 495581.0 0
117792.0 495617.0 0
123272.0 495695.0 0
128288.0 495805.0 0
133373.0 495072.0 0
138071.0 495744.0 0
142500.0 495669.0 0
147500.0 495602.0 0
152501.0 495572.0 0
157527.0 495449.0 0
162511.0 495458.0 0
166997.0 495319.0 0
171875.0 493967.0 0
177771.0 494013.0 0
183011.0 493475.0 0
187511.0 495115.0 0
192500.0 496020.0 0
196298.0 495427.0 0
201836.0 494664.0 0
207715.0 495305.0 0
213087.0 495215.0 0
218219.0 495728.0 0
222565.0 495730.0 0
225960.0 495607.0 0
230424.0 495227.0 0
235850.0 495815.0 0
241244.0 494724.0 0
246522.0 496822.0 0
252600.0 494569.0 0
258939.0 495195.0 0
263659.0 496221.0 0
268670.0 495450.0 0
273859.0 495438.0 0
278777.0 494018.0 0
282026.0 497247.0 0
286340.0 495606.0 0
291721.0 496159.0 0
297340.0 494078.0 0
303565.0 495197.0 0
307827.0 497302.0 0
312209.0 495141.0 0
318000.0 495754.0 0
323298.0 495768.0 0
327620.0 495872.0 0
332226.0 495519.0 0
337225.0 495321.0 0
341030.0 496426.0 0
346000.0 495124.0 0
350961.0 496461.0 0
355599.0 495994.0 0
362139.0 494706.0 0
368203.0 496276.0 0
372073.0 492767.0 0
377025.0 494871.0 0
382609.0 495548.0 0
388111.0 494912.0 0
393958.0 494127.0 0
398954.0 496231.0 0
403469.0 493554.0 0
408374.0 494888.0 0
412500.0 495742.0 0
417500.0 495636.0 0
422481.0 495328.0 0
427292.0 495569.0 0
432604.0 493796.0 0
437537.0 495608.0 0
442436.0 495057.0 0
446600.0 494413.0 0
450941.0 495489.0 0
455474.0 495376.0 0
460447.0 495582.0 0
465990.0 495545.0 0
471764.0 494569.0 0
477287.0 493735.0 0
481045.0 497198.0 0
482776.0 492351.0 0
487341.0 496017.0 0
492443.0 498096.0 0
2272.73 504303.0 0
6916.0 498985.0 0
11819.3 500376.0 0
17802.1 500671.0 0
23309.1 501328.0 0
28665.4 499026.0 0
34992.2 500691.0 0
40339.7 500714.0 0
44445.7 501023.0 0
48233.9 500105.0 0
52500.0 500630.0 0
57871.1 500105.0 0
62747.0 500678.0 0
67505.6 500391.0 0
72351.4 500229.0 0
77500.0 500756.0 0
82116.0 500405.0 0
87797.0 499888.0 0
92500.0 500765.0 0
97219.7 500633.0 0
102467.0 500299.0 0
108194.0 499907.0 0
112500.0 500701.0 0
117500.0 500783.0 0
122500.0 500706.0 0
127554.0 500567.0 0
132451.0 500598.0 0
137520.0 500614.0 0
142710.0 500171.0 0
147168.0 500531.0 0
152174.0 500303.0 0
157148.0 499536.0 0
161570.0 500383.0 0
166782.0 500005.0 0
172680.0 499592.0 0
178083.0 499449.0 0
183307.0 498546.0 0
188405.0 499630.0 0
193405.0 500225.0 0
198114.0 499925.0 0
203767.0 500358.0 0
209186.0 500462.0 0
213595.0 499766.0 0
217695.0 500691.0 0
222110.0 500777.0 0
226960.0 499842.0 0
232207.0 500447.0 0
237700.0 501079.0 0
243292.0 501048.0 0
248138.0 501028.0 0
252369.0 501216.0 0
256939.0 499740.0 0
262482.0 500473.0 0
267492.0 500421.0 0
271729.0 499386.0 0
276840.0 499795.0 0
282599.0 500973.0 0
287500.0 500679.0 0
292533.0 500734.0 0
298036.0 499612.0 0
302839.0 500833.0 0
307500.0 500820.0 0
312501.0 500874.0 0
317500.0 500633.0 0
322500.0 500646.0 0
327500.0 500660.0 0
332500.0 500732.0 0
337523.0 500510.0 0
343089.0 499601.0 0
347598.0 500266.0 0
352548.0 500521.0 0
357519.0 500735.0 0
362096.0 500002.0 0
365768.0 500208.0 0
373172.0 499741.0 0
379014.0 499395.0 0
382275.0 500856.0 0
388034.0 499974.0 0
393186.0 500142.0 0
397754.0 500394.0 0
402710.0 499700.0 0
408100.0 499151.0 0
412668.0 500390.0 0
417341.0 500475.0 0
422231.0 499971.0 0
427400.0 500646.0 0
432960.0 499088.0 0
437500.0 500673.0 0
442931.0 499449.0 0
447438.0 498518.0 0
451816.0 500033.0 0
456979.0 500261.0 0
462317.0 500853.0 0
466567.0 500101.0 0
469795.0 501863.0 0
474599.0 500190.0 0
479931.0 502274.0 0
485945.0 502100.0 0
491743.0 503063.0 0
496852.0 500933.0 0
2235.76 508515.0 0
7322.24 503966.0 0
12376.9 505772.0 0
16808.8 505829.0 0
20934.7 505339.0 0
26956.2 505914.0 0
32538.0 505554.0 0
38083.1 505574.0 0
42761.6 505339.0 0
47451.9 504806.0 0
51729.4 506335.0 0
56445.2 505724.0 0
61985.0 505684.0 0
67539.3 505238.0 0
73486.3 505867.0 0
78315.5 505942.0 0
82062.0 505133.0 0
87057.7 505419.0 0
92531.5 505516.0 0
97546.2 505155.0 0
102630.0 506061.0 0
107937.0 504669.0 0
112500.0 505621.0 0
116846.0 505554.0 0
120942.0 505294.0 0
125931.0 505023.0 0
131290.0 506447.0 0
136553.0 506183.0 0
141186.0 504390.0 0
146494.0 505412.0 0
152018.0 506926.0 0
156575.0 504086.0 0
161938.0 506183.0 0
166698.0 508013.0 0
170154.0 504624.0 0
176412.0 505328.0 0
182292.0 503715.0 0
188170.0 505795.0 0
194323.0 505213.0 0
200018.0 504952.0 0
204204.0 506142.0 0
207895.0 505270.0 0
213140.0 504538.0 0
217616.0 505721.0 0
222505.0 505413.0 0
227288.0 504840.0 0
232612.0 505893.0 0
237500.0 505846.0 0
242043.0 506141.0 0
247306.0 505309.0 0
252333.0 506182.0 0
257622.0 504458.0 0
262577.0 505255.0 0
267358.0 504865.0 0
272892.0 504690.0 0
279744.0 503775.0 0
283535.0 505854.0 0
287195.0 505937.0 0
291158.0 505413.0 0
296832.0 504722.0 0
302312.0 506089.0 0
307721.0 505289.0 0
313232.0 506176.0 0
318223.0 505490.0 0
322526.0 504637.0 0
327055.0 505673.0 0
332050.0 505700.0 0
336726.0 505249.0 0
341519.0 503910.0 0
346880.0 504746.0 0
351981.0 505409.0 0
356292.0 504891.0 0
361499.0 504634.0 0
366821.0 504356.0 0
371523.0 505890.0 0
378011.0 505340.0 0
384615.0 504198.0 0
388697.0 507222.0 0
392535.0 505045.0 0
397293.0 504808.0 0
402823.0 505855.0 0
409111.0 504738.0 0
414395.0 506715.0 0
418970.0 505143.0 0
424048.0 504784.0 0
427901.0 507075.0 0
432283.0 504763.0 0
437267.0 505694.0 0
442167.0 504680.0 0
447973.0 503584.0 0
453780.0 505327.0 0
458685.0 505798.0 0
462696.0 505419.0 0
467500.0 505784.0 0
472246.0 504888.0 0
476870.0 505743.0 0
482436.0 506602.0 0
487498.0 507787.0 0
491606.0 507138.0 0
496595.0 507171.0 0
2255.32 512708.0 0
8304.44 509729.0 0
13515.1 510322.0 0
17748.7 509746.0 0
22357.1 509862.0 0
26871.6 511704.0 0
31981.1 509942.0 0
37445.2 510723.0 0
43147.2 510391.0 0
48966.5 509571.0 0
53748.5 510774.0 0
58944.7 510491.0 0
63350.2 510377.0 0
67875.8 510902.0 0
72437.8 510848.0 0
77035.3 510043.0 0
82094.3 510153.0 0
87265.6 510576.0 0
92214.7 510809.0 0
97695.0 510508.0 0
102708.0 511837.0 0
107632.0 510131.0 0
112981.0 510077.0 0
117998.0 510101.0 0
123272.0 509483.0 0
127500.0 510780.0 0
132624.0 511332.0 0
137604.0 510206.0 0
142503.0 510538.0 0
147734.0 510155.0 0
153430.0 511624.0 0
157145.0 509803.0 0
160765.0 511003.0 0
164749.0 511756.0 0
170916.0 510668.0 0
177104.0 511858.0 0
182323.0 509155.0 0
186734.0 511390.0 0
191685.0 510944.0 0
197118.0 510042.0 0
202869.0 510224.0 0
208732.0 511109.0 0
214531.0 510080.0 0
218957.0 510941.0 0
222524.0 509696.0 0
227982.0 510374.0 0
233669.0 510523.0 0
237208.0 509267.0 0
242490.0 510708.0 0
247072.0 510497.0 0
251904.0 511216.0 0
256362.0 509358.0 0
260823.0 509302.0 0
266305.0 509525.0 0
271721.0 511067.0 0
278241.0 509269.0 0
284101.0 511175.0 0
288342.0 509317.0 0
292698.0 510849.0 0
298830.0 511063.0 0
303875.0 510998.0 0
307500.0 510824.0 0
312430.0 510684.0 0
316526.0 510542.0 0
321277.0 509606.0 0
326078.0 511077.0 0
330261.0 510273.0 0
334849.0 511904.0 0
340192.0 509366.0 0
346352.0 511098.0 0
353010.0 510991.0 0
357838.0 508708.0 0
362284.0 510528.0 0
367269.0 508975.0 0
371901.0 511619.0 0
377772.0 512340.0 0
382927.0 509593.0 0
387387.0 511272.0 0
392972.0 511003.0 0
399389.0 510760.0 0
404151.0 510740.0 0
407942.0 510028.0 0
412362.0 511096.0 0
416892.0 510523.0 0
421374.0 510888.0 0
425862.0 510682.0 0
431196.0 510991.0 0
437657.0 509834.0 0
442348.0 510254.0 0
446981.0 508711.0 0
451170.0 509798.0 0
455946.0 510776.0 0
461651.0 510349.0 0
467287.0 511110.0 0
472639.0 509700.0 0
478735.0 511045.0 0
484524.0 511550.0 0
488727.0 512066.0 0
492309.0 510732.0 0
496770.0 513411.0 0
1525.81 516128.0 0
6932.11 515818.0 0
11665.5 513874.0 0
17081.3 514838.0 0
23005.7 515223.0 0
29713.3 514710.0 0
34286.0 515482.0 0
39127.6 514940.0 0
42891.9 516929.0 0
47514.1 514585.0 0
52428.3 516133.0 0
56816.8 514819.0 0
62840.6 515146.0 0
68174.6 516078.0 0
72823.9 514957.0 0
77748.0 515258.0 0
83027.6 515143.0 0
87817.8 515446.0 0
92500.0 515688.0 0
97493.0 516108.0 0
101744.0 515728.0 0
106147.0 515791.0 0
111615.0 514806.0 0
116935.0 515458.0 0
122373.0 514736.0 0
127161.0 515293.0 0
131437.0 515839.0 0
136722.0 514815.0 0
142283.0 516242.0 0
147063.0 514480.0 0
151895.0 516208.0 0
158016.0 515361.0 0
163594.0 516146.0 0
167065.0 514823.0 0
171037.0 516646.0 0
176776.0 518063.0 0
182836.0 515638.0 0
189156.0 515773.0 0
193660.0 515090.0 0
198308.0 515644.0 0
203279.0 515257.0 0
207666.0 516707.0 0
212379.0 515497.0 0
216702.0 514536.0 0
221471.0 514519.0 0
226504.0 516259.0 0
232235.0 515362.0 0
238055.0 513915.0 0
243111.0 515030.0 0
248211.0 515722.0 0
253025.0 515709.0 0
257813.0 514638.0 0
262805.0 513033.0 0
267591.0 515303.0 0
272716.0 516926.0 0
278444.0 515882.0 0
283543.0 515761.0 0
288696.0 514612.0 0
293262.0 515792.0 0
297294.0 516999.0 0
302638.0 515305.0 0
307335.0 515658.0 0
312159.0 515407.0 0
317278.0 514961.0 0
322629.0 515168.0 0
327452.0 516032.0 0
331170.0 515103.0 0
337294.0 515993.0 0
341589.0 514840.0 0
347219.0 516934.0 0
352119.0 516689.0 0
357961.0 514591.0 0
363003.0 515456.0 0
367261.0 513865.0 0
370682.0 516826.0 0
375005.0 516893.0 0
382701.0 515584.0 0
387524.0 515427.0 0
391962.0 517229.0 0
397758.0 516550.0 0
402933.0 514705.0 0
408786.0 514789.0 0
413562.0 515131.0 0
417500.0 515714.0 0
422518.0 515740.0 0
427425.0 514741.0 0
431259.0 516407.0 0
436049.0 514597.0 0
441748.0 515818.0 0
447942.0 514363.0 0
453678.0 515564.0 0
458929.0 515684.0 0
464339.0 515628.0 0
468872.0 516606.0 0
473033.0 514987.0 0
477440.0 516804.0 0
481937.0 515843.0 0
486583.0 515817.0 0
491763.0 516786.0 0
497459.0 518829.0 0
2744.67 520061.0 0
7963.71 521845.0 0
12417.2 518337.0 0
17992.6 520521.0 0
23546.9 520959.0 0
28434.2 518779.0 0
33188.1 521032.0 0
38599.4 519755.0 0
43096.3 521081.0 0
47936.7 520524.0 0
53487.4 520839.0 0
59190.1 519887.0 0
64341.2 520941.0 0
67793.7 520865.0 0
71731.7 518845.0 0
76105.4 520236.0 0
82061.9 520722.0 0
88281.1 520483.0 0
93023.5 520815.0 0
97288.6 520682.0 0
101849.0 520478.0 0
106739.0 521096.0 0
111293.0 519633.0 0
115624.0 520140.0 0
121120.0 520715.0 0
127661.0 520744.0 0
133464.0 520309.0 0
138842.0 520801.0 0
143819.0 520808.0 0
148407.0 520204.0 0
152770.0 520766.0 0
156935.0 521015.0 0
161347.0 519939.0 0
166984.0 520134.0 0
172489.0 522319.0 0
176853.0 522332.0 0
181130.0 522278.0 0
186632.0 520609.0 0
192142.0 520385.0 0
197640.0 521318.0 0
202511.0 519645.0 0
206661.0 521238.0 0
210745.0 520659.0 0
216384.0 520251.0 0
222644.0 519885.0 0
228136.0 521873.0 0
233757.0 522938.0 0
236499.0 518862.0 0
241357.0 521098.0 0
246695.0 521425.0 0
251267.0 519959.0 0
256950.0 520819.0 0
262995.0 518542.0 0
268416.0 520598.0 0
272891.0 521810.0 0
277739.0 521695.0 0
282172.0 519673.0 0
287155.0 520879.0 0
293005.0 520187.0 0
297956.0 522127.0 0
301797.0 519005.0 0
306249.0 520349.0 0
311386.0 521162.0 0
316886.0 520053.0 0
322383.0 521079.0 0
327979.0 520687.0 0
333781.0 519536.0 0
337931.0 522224.0 0
342790.0 520682.0 0
348440.0 521678.0 0
352666.0 520981.0 0
355972.0 518994.0 0
360871.0 520092.0 0
366841.0 520342.0 0
372803.0 521716.0 0
379029.0 520130.0 0
383713.0 519521.0 0
387511.0 519912.0 0
391475.0 522033.0 0
396472.0 522414.0 0
400565.0 520425.0 0
405442.0 519739.0 0
412006.0 519784.0 0
417992.0 520619.0 0
423023.0 521834.0 0
427169.0 518988.0 0
432278.0 520955.0 0
437068.0 519759.0 0
441854.0 521271.0 0
447109.0 520552.0 0
452689.0 520778.0 0
458145.0 521147.0 0
462424.0 520803.0 0
466317.0 520091.0 0
471511.0 520865.0 0
476809.0 521473.0 0
482325.0 521143.0 0
487801.0 520676.0 0
492547.0 522135.0 0
497341.0 523621.0 0
3047.39 525718.0 0
8636.52 527733.0 0
13474.5 524069.0 0
18238.3 527581.0 0
23591.8 526584.0 0
28427.8 524085.0 0
33317.7 526547.0 0
38110.5 524933.0 0
42749.3 525270.0 0
49438.9 525258.0 0
53508.0 525930.0 0
58412.5 525779.0 0
63248.8 524996.0 0
66854.5 525006.0 0
71701.5 524172.0 0
78015.8 525383.0 0
83463.5 526465.0 0
88139.1 525480.0 0
93024.0 525535.0 0
97949.4 525223.0 0
102305.0 525664.0 0
106194.0 525496.0 0
111138.0 524912.0 0
116960.0 524874.0 0
122735.0 526060.0 0
126983.0 525558.0 0
131862.0 525323.0 0
136100.0 526471.0 0
140607.0 526150.0 0
145860.0 525086.0 0
151503.0 525538.0 0
157450.0 526319.0 0
162568.0 524431.0 0
167601.0 525194.0 0
171970.0 527620.0 0
176564.0 526081.0 0
181290.0 527883.0 0
186017.0 525900.0 0
191696.0 526274.0 0
197438.0 526846.0 0
202758.0 525004.0 0
207685.0 525207.0 0
212188.0 525049.0 0
217227.0 526618.0 0
223281.0 526218.0 0
228852.0 528010.0 0
233233.0 527380.0 0
238249.0 526483.0 0
243664.0 526503.0 0
248295.0 525950.0 0
251936.0 524568.0 0
255559.0 526850.0 0
262364.0 525648.0 0
268484.0 525565.0 0
273167.0 526338.0 0
278102.0 527017.0 0
282592.0 524583.0 0
287604.0 526887.0 0
292776.0 525495.0 0
297469.0 527138.0 0
302493.0 525221.0 0
308202.0 525964.0 0
313172.0 525654.0 0
317512.0 525614.0 0
322681.0 526623.0 0
326758.0 525717.0 0
330977.0 525718.0 0
336015.0 525869.0 0
341192.0 526704.0 0
346737.0 527066.0 0
351870.0 525500.0 0
356630.0 523551.0 0
361473.0 525814.0 0
366993.0 526077.0 0
371572.0 526666.0 0
377569.0 527197.0 0
383785.0 523891.0 0
388059.0 526738.0 0
392787.0 526568.0 0
398064.0 528085.0 0
403130.0 525421.0 0
408769.0 524872.0 0
413998.0 525169.0 0
417360.0 525845.0 0
420528.0 525342.0 0
427884.0 525381.0 0
433478.0 525266.0 0
437916.0 524569.0 0
442623.0 526061.0 0
448235.0 526450.0 0
453636.0 525684.0 0
458153.0 526133.0 0
462567.0 525670.0 0
467449.0 525030.0 0
472772.0 526255.0 0
479204.0 525726.0 0
483516.0 525829.0 0
487763.0 525641.0 0
492469.0 526274.0 0
497780.0 528106.0 0
2132.01 530990.0 0
7029.75 533576.0 0
13627.9 531074.0 0
18438.8 532460.0 0
22193.7 531017.0 0
27705.0 530706.0 0
32552.1 530827.0 0
37501.2 530702.0 0
42461.5 532424.0 0
46277.0 529138.0 0
51317.7 531162.0 0
57153.8 531841.0 0
63313.2 530158.0 0
68150.1 528459.0 0
73051.6 531370.0 0
79308.6 530991.0 0
84593.0 531574.0 0
89661.9 530163.0 0
94504.7 532060.0 0
98083.9 529421.0 0
101413.0 532111.0 0
105978.0 529948.0 0
111679.0 531185.0 0
118557.0 530360.0 0
124110.0 530620.0 0
128657.0 529075.0 0
133503.0 531089.0 0
138021.0 530341.0 0
142081.0 531178.0 0
147527.0 530504.0 0
153028.0 530952.0 0
157487.0 531534.0 0
162244.0 529941.0 0
167474.0 530128.0 0
171089.0 531505.0 0
177324.0 531041.0 0
182365.0 532706.0 0
187331.0 530860.0 0
191948.0 531526.0 0
196862.0 532311.0 0
202003.0 530658.0 0
207511.0 530155.0 0
213313.0 530842.0 0
219984.0 531565.0 0
225072.0 531455.0 0
228770.0 532101.0 0
232420.0 531094.0 0
237396.0 531818.0 0
241950.0 530310.0 0
246403.0 530535.0 0
251323.0 529612.0 0
257807.0 532065.0 0
262708.0 531600.0 0
268131.0 531177.0 0
273879.0 531225.0 0
279251.0 532401.0 0
284722.0 531268.0 0
289520.0 531745.0 0
293306.0 530292.0 0
297161.0 532132.0 0
302589.0 531048.0 0
307582.0 531253.0 0
311927.0 529491.0 0
316542.0 530144.0 0
321179.0 531575.0 0
326376.0 530730.0 0
331638.0 530929.0 0
337268.0 531234.0 0
343363.0 531862.0 0
347513.0 531633.0 0
352044.0 530573.0 0
357023.0 528919.0 0
362317.0 531795.0 0
367607.0 530931.0 0
372202.0 531103.0 0
378525.0 533705.0 0
382465.0 531181.0 0
387129.0 531339.0 0
392102.0 531174.0 0
396182.0 532816.0 0
400778.0 532710.0 0
406078.0 531434.0 0
411729.0 529697.0 0
417126.0 529636.0 0
422810.0 530090.0 0
428097.0 532015.0 0
432539.0 529782.0 0
438210.0 530079.0 0
444038.0 531029.0 0
449742.0 532644.0 0
454763.0 530204.0 0
460359.0 531364.0 0
465007.0 532137.0 0
468391.0 530168.0 0
473027.0 531332.0 0
477739.0 530421.0 0
482478.0 530622.0 0
486748.0 530713.0 0
490733.0 530198.0 0
494987.0 531713.0 0
2232.48 535565.0 0
6852.63 539380.0 0
12204.6 537008.0 0
17697.7 536799.0 0
22906.8 535827.0 0
28744.1 536777.0 0
32606.1 534182.0 0
36268.6 536463.0 0
41246.2 536638.0 0
46979.1 535624.0 0
52792.7 535820.0 0
57390.4 537899.0 0
61971.6 535539.0 0
67666.2 535441.0 0
73432.2 538051.0 0
78138.6 535731.0 0
82837.6 536496.0 0
88687.6 536021.0 0
93868.1 536542.0 0
97468.5 535240.0 0
101025.0 536365.0 0
105602.0 535387.0 0
110516.0 536407.0 0
115801.0 536118.0 0
121891.0 535412.0 0
128223.0 535156.0 0
133616.0 535930.0 0
137485.0 534408.0 0
142031.0 536420.0 0
148096.0 536916.0 0
153597.0 535758.0 0
158046.0 535726.0 0
163107.0 535775.0 0
168434.0 534846.0 0
173460.0 534686.0 0
177734.0 535522.0 0
181512.0 537228.0 0
186291.0 536031.0 0
191339.0 535941.0 0
195926.0 537695.0 0
201361.0 536224.0 0
207331.0 536117.0 0
212369.0 535752.0 0
217091.0 536369.0 0
221858.0 536261.0 0
226391.0 535932.0 0
231267.0 535322.0 0
236069.0 536373.0 0
241477.0 535261.0 0
246840.0 535412.0 0
252447.0 535088.0 0
257554.0 537124.0 0
263773.0 536968.0 0
269644.0 536788.0 0
274605.0 536138.0 0
279148.0 537723.0 0
283341.0 535491.0 0
287964.0 536628.0 0
292477.0 535252.0 0
297693.0 537245.0 0
302673.0 536208.0 0
307500.0 535743.0 0
312080.0 534673.0 0
317519.0 534814.0 0
323264.0 536491.0 0
328133.0 535586.0 0
332882.0 535971.0 0
337622.0 536430.0 0
342500.0 535793.0 0
346251.0 535901.0 0
350143.0 534596.0 0
356154.0 535109.0 0
361538.0 536959.0 0
366937.0 535692.0 0
373760.0 536233.0 0
378242.0 538100.0 0
383309.0 536262.0 0
388192.0 535670.0 0
392637.0 535627.0 0
397839.0 536683.0 0
403410.0 536756.0 0
408101.0 536348.0 0
412366.0 534778.0 0
417184.0 534749.0 0
420786.0 537068.0 0
424738.0 535551.0 0
431644.0 535485.0 0
437408.0 536179.0 0
443314.0 536534.0 0
449979.0 539005.0 0
453682.0 535506.0 0
457828.0 536593.0 0
462741.0 536677.0 0
467904.0 535465.0 0
472935.0 535914.0 0
477618.0 535388.0 0
482418.0 535902.0 0
486662.0 535002.0 0
491696.0 536156.0 0
497413.0 536240.0 0
2122.18 539864.0 0
8675.85 543727.0 0
12631.2 542300.0 0
16228.5 540708.0 0
20246.3 540648.0 0
25020.6 540819.0 0
32080.9 540981.0 0
37767.3 542024.0 0
43436.3 541041.0 0
48698.2 541577.0 0
53453.1 540699.0 0
57308.0 542695.0 0
62553.7 540816.0 0
67202.6 540831.0 0
71065.5 542838.0 0
78774.6 540844.0 0
83895.7 541239.0 0
87958.1 541006.0 0
92508.1 540540.0 0
97340.6 539628.0 0
102678.0 540621.0 0
107481.0 539945.0 0
112106.0 540630.0 0
118057.0 541572.0 0
123294.0 540686.0 0
127766.0 540511.0 0
132781.0 540980.0 0
138420.0 540167.0 0
142977.0 541289.0 0
147450.0 542844.0 0
151937.0 540706.0 0
156628.0 540613.0 0
161580.0 540652.0 0
166794.0 539688.0 0
173045.0 540756.0 0
178402.0 540926.0 0
183712.0 541660.0 0
189371.0 540814.0 0
193906.0 541480.0 0
199324.0 540906.0 0
203397.0 541742.0 0
207768.0 541371.0 0
212465.0 540483.0 0
218699.0 541326.0 0
222895.0 540710.0 0
227604.0 540733.0 0
232500.0 540639.0 0
237984.0 540752.0 0
242545.0 541042.0 0
247260.0 540174.0 0
252527.0 541310.0 0
257617.0 541421.0 0
262382.0 543101.0 0
267518.0 541196.0 0
271549.0 540631.0 0
275865.0 541000.0 0
283199.0 539826.0 0
287581.0 541875.0 0
292725.0 539881.0 0
298510.0 541884.0 0
302500.0 540687.0 0
307149.0 540578.0 0
312274.0 540296.0 0
317499.0 539670.0 0
321981.0 541524.0 0
325962.0 540548.0 0
329910.0 540358.0 0
335580.0 541249.0 0
340689.0 539532.0 0
345093.0 540688.0 0
350882.0 540182.0 0
357286.0 541904.0 0
363691.0 541766.0 0
369782.0 540513.0 0
375211.0 541496.0 0
379938.0 541906.0 0
384032.0 541887.0 0
388011.0 540081.0 0
392952.0 540646.0 0
397614.0 541174.0 0
401722.0 540900.0 0
406238.0 540818.0 0
412215.0 540496.0 0
418061.0 540190.0 0
423175.0 541026.0 0
428140.0 539140.0 0
433420.0 541107.0 0
439623.0 542128.0 0
444932.0 541181.0 0
448093.0 543652.0 0
455270.0 540748.0 0
459172.0 540756.0 0
462363.0 540762.0 0
466613.0 540831.0 0
472324.0 540528.0 0
477769.0 540784.0 0
482650.0 540689.0 0
487343.0 539960.0 0
492601.0 541339.0 0
497813.0 540918.0 0
3064.29 544893.0 0
7517.99 548055.0 0
12152.3 546790.0 0
16238.0 544765.0 0
21098.9 545573.0 0
27156.0 546217.0 0
32633.4 545599.0 0
36706.9 547188.0 0
41928.1 546037.0 0
48140.4 547036.0 0
53393.2 545573.0 0
58962.5 546338.0 0
62724.7 545230.0 0
67125.1 545268.0 0
72194.1 546842.0 0
76986.6 546322.0 0
82501.2 545183.0 0
86534.9 544647.0 0
91397.6 545339.0 0
96811.9 544773.0 0
101450.0 545720.0 0
106530.0 545045.0 0
112472.0 546107.0 0
118105.0 546836.0 0
123276.0 545920.0 0
128422.0 544982.0 0
133146.0 546433.0 0
138580.0 545866.0 0
143743.0 545409.0 0
147049.0 547218.0 0
152554.0 545423.0 0
157500.0 545669.0 0
162788.0 544796.0 0
167898.0 545053.0 0
172345.0 546533.0 0
177401.0 545708.0 0
182460.0 546530.0 0
187094.0 545715.0 0
192225.0 545629.0 0
197847.0 545708.0 0
202779.0 545790.0 0
207237.0 546160.0 0
212169.0 545465.0 0
217365.0 546511.0 0
222651.0 545529.0 0
227763.0 545796.0 0
232943.0 545670.0 0
237512.0 545046.0 0
241721.0 545854.0 0
246475.0 545104.0 0
250838.0 545990.0 0
254972.0 545822.0 0
259088.0 546729.0 0
267316.0 546516.0 0
272239.0 544517.0 0
277002.0 546218.0 0
282945.0 545230.0 0
287979.0 546426.0 0
292557.0 545493.0 0
297168.0 545839.0 0
301822.0 545358.0 0
306788.0 545283.0 0
311621.0 545538.0 0
316434.0 544481.0 0
320745.0 545838.0 0
326408.0 545517.0 0
332916.0 546834.0 0
338626.0 546349.0 0
343791.0 545446.0 0
348656.0 545715.0 0
353364.0 546342.0 0
359039.0 547180.0 0
363601.0 547216.0 0
367967.0 545769.0 0
372619.0 545473.0 0
377642.0 546520.0 0
382289.0 545130.0 0
387089.0 544670.0 0
391474.0 545240.0 0
396029.0 545419.0 0
401213.0 545763.0 0
406334.0 545573.0 0
411306.0 546684.0 0
416695.0 545185.0 0
421865.0 546545.0 0
428032.0 545310.0 0
435288.0 546402.0 0
439559.0 546996.0 0
444078.0 546131.0 0
448140.0 546586.0 0
452601.0 545604.0 0
457972.0 544290.0 0
462515.0 545346.0 0
467500.0 545808.0 0
472794.0 545782.0 0
477689.0 545661.0 0
482500.0 545828.0 0
486953.0 544864.0 0
491333.0 545786.0 0
496286.0 545500.0 0
2962.16 550774.0 0
9054.65 552076.0 0
11921.6 550716.0 0
16538.6 550412.0 0
22932.9 551123.0 0
27822.7 551348.0 0
32267.7 549695.0 0
37861.4 552679.0 0
44142.8 551234.0 0
48890.5 552894.0 0
51815.7 550124.0 0
56289.5 549841.0 0
61529.5 550164.0 0
67277.5 550741.0 0
72938.0 551469.0 0
77712.8 552442.0 0
81351.1 549488.0 0
87272.6 550186.0 0
93257.5 551595.0 0
98737.0 550064.0 0
103858.0 550318.0 0
108704.0 550375.0 0
113824.0 551508.0 0
118909.0 551948.0 0
123841.0 550915.0 0
128690.0 550111.0 0
133321.0 550907.0 0
137797.0 551279.0 0
142708.0 549474.0 0
146548.0 551138.0 0
150606.0 549597.0 0
155540.0 550058.0 0
161064.0 549653.0 0
167190.0 551017.0 0
172956.0 550911.0 0
178144.0 551146.0 0
183389.0 551290.0 0
188845.0 550578.0 0
193757.0 550390.0 0
198580.0 551339.0 0
203390.0 550238.0 0
208106.0 551291.0 0
213062.0 550359.0 0
217791.0 551769.0 0
222500.0 550740.0 0
227500.0 550659.0 0
232733.0 549917.0 0
236688.0 549342.0 0
241018.0 550385.0 0
246215.0 550761.0 0
252716.0 550916.0 0
257887.0 550376.0 0
262420.0 550029.0 0
268583.0 551200.0 0
272348.0 549153.0 0
276548.0 551233.0 0
282476.0 550941.0 0
287465.0 550803.0 0
292660.0 550951.0 0
297207.0 549730.0 0
301499.0 551306.0 0
306584.0 550134.0 0
311693.0 550718.0 0
317523.0 550062.0 0
323203.0 550713.0 0
327261.0 550391.0 0
331557.0 551175.0 0
335562.0 551874.0 0
340738.0 551211.0 0
345264.0 549904.0 0
349991.0 550443.0 0
355676.0 551756.0 0
361683.0 551769.0 0
367163.0 551044.0 0
372455.0 550308.0 0
377425.0 552215.0 0
382645.0 549847.0 0
388606.0 549629.0 0
393010.0 551329.0 0
397164.0 550205.0 0
402297.0 551337.0 0
407335.0 550179.0 0
411880.0 551851.0 0
417099.0 550834.0 0
421891.0 551101.0 0
426389.0 551316.0 0
431975.0 550636.0 0
437804.0 551276.0 0
443379.0 551227.0 0
447911.0 550029.0 0
452615.0 551461.0 0
457528.0 549145.0 0
462734.0 550489.0 0
467965.0 550820.0 0
472841.0 550943.0 0
477851.0 550440.0 0
482481.0 550856.0 0
487522.0 550204.0 0
493062.0 550501.0 0
497792.0 550086.0 0
2515.29 556079.0 0
7226.99 555751.0 0
12050.4 555377.0 0
17360.7 556627.0 0
23144.8 557131.0 0
28601.1 555766.0 0
33038.3 554036.0 0
39266.8 557621.0 0
43264.9 556645.0 0
47671.6 556705.0 0
52333.3 556123.0 0
57532.6 554817.0 0
63496.8 555962.0 0
68646.0 556013.0 0
71566.5 555879.0 0
75512.3 557154.0 0
81259.5 556054.0 0
87160.7 556814.0 0
92087.4 556105.0 0
96777.1 555840.0 0
101918.0 554580.0 0
107506.0 556378.0 0
113382.0 556489.0 0
118450.0 557045.0 0
123441.0 555948.0 0
128531.0 555239.0 0
133368.0 555414.0 0
137649.0 556897.0 0
141591.0 554097.0 0
145749.0 555911.0 0
151041.0 555292.0 0
157057.0 555175.0 0
162896.0 555493.0 0
170418.0 555771.0 0
174885.0 556869.0 0
179085.0 555931.0 0
182645.0 555737.0 0
186640.0 555525.0 0
191974.0 555344.0 0
197341.0 556869.0 0
202402.0 555104.0 0
206788.0 555914.0 0
211099.0 555681.0 0
215674.0 556096.0 0
221055.0 556186.0 0
226928.0 556287.0 0
231770.0 553976.0 0
237873.0 555325.0 0
244093.0 555999.0 0
249101.0 555572.0 0
254350.0 556978.0 0
257451.0 553683.0 0
260322.0 555788.0 0
265448.0 554950.0 0
272246.0 555430.0 0
279229.0 556014.0 0
284973.0 555338.0 0
289555.0 554929.0 0
292710.0 557545.0 0
296878.0 555044.0 0
301721.0 557221.0 0
306404.0 555390.0 0
312422.0 556771.0 0
318470.0 555871.0 0
323643.0 555661.0 0
328265.0 554007.0 0
332704.0 556068.0 0
337552.0 556232.0 0
341594.0 555679.0 0
346410.0 554848.0 0
352124.0 556461.0 0
359052.0 556297.0 0
363983.0 556497.0 0
368547.0 555844.0 0
372921.0 555205.0 0
377017.0 557163.0 0
381160.0 555475.0 0
386746.0 555785.0 0
393178.0 556100.0 0
398562.0 555606.0 0
403203.0 556119.0 0
408070.0 555425.0 0
414875.0 556209.0 0
420260.0 556748.0 0
424238.0 555661.0 0
428835.0 555904.0 0
433884.0 555602.0 0
438417.0 556454.0 0
442456.0 555317.0 0
447353.0 555245.0 0
452548.0 556432.0 0
457736.0 554943.0 0
462998.0 555271.0 0
467847.0 556070.0 0
472772.0 555464.0 0
477910.0 555536.0 0
482608.0 555380.0 0
487551.0 555708.0 0
492560.0 555518.0 0
497558.0 554600.0 0
2474.33 561049.0 0
7671.57 560689.0 0
11997.7 560435.0 0
15796.2 561716.0 0
21033.5 562244.0 0
26931.0 561109.0 0
34065.3 559123.0 0
39740.3 561863.0 0
44504.4 561258.0 0
48524.5 560521.0 0
52751.6 561253.0 0
58946.6 559840.0 0
63297.7 561004.0 0
67500.0 560640.0 0
71724.6 560381.0 0
77893.1 561220.0 0
82289.9 561119.0 0
86884.9 562357.0 0
92488.8 560741.0 0
97487.3 560831.0 0
102606.0 560369.0 0
107115.0 562300.0 0
111033.0 560690.0 0
115789.0 561433.0 0
121015.0 561665.0 0
126581.0 560659.0 0
132411.0 560418.0 0
137100.0 561248.0 0
142129.0 560060.0 0
147483.0 559876.0 0
152045.0 561397.0 0
156860.0 560260.0 0
161555.0 560895.0 0
166863.0 559979.0 0
172196.0 560517.0 0
177718.0 561166.0 0
183208.0 559612.0 0
189188.0 560381.0 0
194234.0 561134.0 0
198558.0 561875.0 0
202537.0 560625.0 0
207500.0 560630.0 0
212370.0 560609.0 0
217571.0 560806.0 0
223025.0 561017.0 0
227320.0 561265.0 0
232405.0 560716.0 0
238575.0 561260.0 0
242683.0 560414.0 0
246976.0 559968.0 0
251875.0 561738.0 0
257474.0 561460.0 0
262512.0 559961.0 0
268031.0 560147.0 0
273296.0 562293.0 0
279127.0 562131.0 0
283361.0 559525.0 0
288405.0 559947.0 0
293419.0 561739.0 0
298572.0 561230.0 0
302561.0 561031.0 0
307500.0 560638.0 0
312720.0 562577.0 0
316535.0 560895.0 0
321446.0 560798.0 0
327826.0 559765.0 0
333662.0 561072.0 0
337990.0 562319.0 0
341151.0 559758.0 0
346724.0 561369.0 0
352639.0 561483.0 0
358185.0 561877.0 0
362956.0 560536.0 0
367790.0 561178.0 0
373244.0 560036.0 0
377815.0 561760.0 0
383185.0 561186.0 0
388878.0 561553.0 0
393832.0 561351.0 0
397962.0 560059.0 0
402513.0 560673.0 0
408006.0 561188.0 0
413744.0 561645.0 0
417849.0 560109.0 0
420889.0 561295.0 0
425920.0 561101.0 0
431928.0 560293.0 0
436609.0 560428.0 0
442213.0 560169.0 0
448294.0 561643.0 0
453112.0 560499.0 0
458066.0 561367.0 0
463408.0 559726.0 0
467948.0 561320.0 0
472010.0 559466.0 0
476641.0 560635.0 0
481436.0 559557.0 0
485979.0 560372.0 0
491118.0 560652.0 0
496617.0 559870.0 0
3015.64 566181.0 0
8167.84 565742.0 0
12683.6 565631.0 0
17519.6 566402.0 0
22088.1 566894.0 0
26227.4 566144.0 0
30835.9 564603.0 0
35783.2 564850.0 0
42741.4 565571.0 0
47433.3 564709.0 0
51458.7 565276.0 0
56798.5 565198.0 0
62511.1 565054.0 0
67233.5 565743.0 0
72607.9 565556.0 0
78202.1 565309.0 0
82707.3 565638.0 0
87125.8 566461.0 0
90776.8 565851.0 0
95836.1 565804.0 0
101703.0 566050.0 0
107254.0 567153.0 0
112391.0 565343.0 0
118140.0 566131.0 0
123076.0 566136.0 0
127489.0 565787.0 0
132056.0 565902.0 0
137068.0 565800.0 0
141509.0 567122.0 0
145869.0 564786.0 0
150955.0 567104.0 0
155763.0 565008.0 0
161605.0 567154.0 0
168933.0 566253.0 0
175468.0 566871.0 0
180982.0 566405.0 0
185521.0 564189.0 0
190306.0 565562.0 0
195056.0 565702.0 0
199652.0 567192.0 0
204556.0 565423.0 0
208626.0 566151.0 0
212348.0 565463.0 0
217298.0 566188.0 0
222612.0 565704.0 0
227630.0 565830.0 0
232796.0 564997.0 0
236937.0 566162.0 0
242343.0 564960.0 0
247647.0 565019.0 0
252235.0 565967.0 0
256887.0 566695.0 0
262123.0 565277.0 0
267568.0 564808.0 0
271311.0 567752.0 0
276659.0 567026.0 0
284472.0 564507.0 0
289545.0 564739.0 0
293388.0 566392.0 0
297212.0 565530.0 0
302135.0 564525.0 0
307408.0 565203.0 0
310918.0 566422.0 0
317265.0 565614.0 0
322130.0 566673.0 0
326961.0 565206.0 0
331694.0 566144.0 0
336533.0 566161.0 0
341661.0 565500.0 0
347483.0 566922.0 0
351353.0 565735.0 0
355464.0 566543.0 0
363319.0 565463.0 0
368357.0 566420.0 0
372492.0 565158.0 0
377184.0 566815.0 0
381634.0 565805.0 0
386128.0 566233.0 0
391892.0 566382.0 0
397841.0 565625.0 0
403483.0 565661.0 0
408147.0 566306.0 0
412525.0 566419.0 0
417298.0 565637.0 0
422152.0 565269.0 0
427061.0 567278.0 0
433145.0 566086.0 0
438787.0 564551.0 0
443905.0 565517.0 0
448678.0 567470.0 0
452858.0 565031.0 0
457077.0 567016.0 0
462268.0 565987.0 0
467239.0 565909.0 0
471670.0 564785.0 0
475992.0 565487.0 0
481084.0 564857.0 0
486728.0 565413.0 0
491917.0 566558.0 0
497277.0 565445.0 0
2742.32 571609.0 0
8042.68 570724.0 0
11807.6 573097.0 0
15086.2 570629.0 0
20067.6 571175.0 0
25480.1 571123.0 0
32505.3 571343.0 0
39148.3 568639.0 0
42624.8 572910.0 0
47473.4 569997.0 0
52855.4 569319.0 0
57967.2 571334.0 0
63826.4 570289.0 0
69518.7 570809.0 0
74531.2 571192.0 0
79015.0 570045.0 0
83077.0 570727.0 0
87609.5 570965.0 0
93173.4 570884.0 0
98875.7 571179.0 0
103917.0 570774.0 0
107552.0 571195.0 0
112002.0 571069.0 0
119564.0 571063.0 0
123408.0 570927.0 0
128255.0 570398.0 0
132734.0 570230.0 0
137046.0 570468.0 0
141259.0 571333.0 0
146443.0 570700.0 0
151899.0 572381.0 0
156649.0 570834.0 0
161128.0 572773.0 0
165973.0 572302.0 0
172483.0 570974.0 0
178758.0 570340.0 0
183461.0 571560.0 0
188645.0 570011.0 0
193039.0 570667.0 0
197380.0 570859.0 0
202525.0 570684.0 0
207750.0 569254.0 0
212428.0 570569.0 0
217702.0 570649.0 0
221861.0 570512.0 0
226646.0 570672.0 0
231891.0 569228.0 0
237311.0 571050.0 0
241918.0 570248.0 0
248697.0 569950.0 0
252837.0 569721.0 0
256749.0 571622.0 0
260621.0 569852.0 0
265846.0 569736.0 0
272955.0 571548.0 0
275617.0 570915.0 0
281787.0 570017.0 0
287990.0 569542.0 0
293286.0 571071.0 0
298500.0 569945.0 0
304379.0 569078.0 0
309043.0 570718.0 0
314043.0 569010.0 0
318045.0 570359.0 0
322577.0 572090.0 0
327288.0 569923.0 0
332500.0 570804.0 0
336901.0 570747.0 0
341890.0 571054.0 0
346884.0 571236.0 0
351667.0 570068.0 0
357258.0 570937.0 0
363085.0 571774.0 0
368396.0 570637.0 0
373388.0 570926.0 0
378866.0 571343.0 0
382602.0 569776.0 0
387107.0 571878.0 0
392356.0 571696.0 0
396460.0 570515.0 0
401223.0 570503.0 0
406346.0 570429.0 0
411629.0 571526.0 0
417320.0 570945.0 0
422427.0 570102.0 0
426741.0 572839.0 0
431799.0 571798.0 0
437998.0 569893.0 0
443927.0 571245.0 0
448887.0 572157.0 0
453378.0 570742.0 0
458135.0 571098.0 0
462057.0 570973.0 0
467076.0 570850.0 0
472244.0 569644.0 0
477668.0 570190.0 0
483820.0 569543.0 0
488090.0 569762.0 0
491863.0 571530.0 0
496715.0 570847.0 0
2122.01 576423.0 0
6889.98 575702.0 0
11166.9 576787.0 0
16388.9 575935.0 0
22183.4 576017.0 0
26852.3 575773.0 0
31523.7 579195.0 0
37945.3 576633.0 0
43855.5 577450.0 0
47312.6 575172.0 0
52280.8 574671.0 0
57572.4 577328.0 0
62825.5 575633.0 0
67714.2 576256.0 0
72783.2 575781.0 0
77946.8 575564.0 0
83429.8 575454.0 0
88631.7 575946.0 0
93123.3 575703.0 0
97074.6 575655.0 0
102373.0 576366.0 0
107334.0 574436.0 0
111679.0 577335.0 0
116240.0 574481.0 0
120847.0 576584.0 0
126522.0 575653.0 0
132282.0 575058.0 0
137843.0 575277.0 0
143599.0 576206.0 0
148689.0 575569.0 0
153146.0 576843.0 0
157798.0 575714.0 0
162700.0 575882.0 0
167572.0 577566.0 0
171310.0 575576.0 0
176311.0 574896.0 0
182108.0 577126.0 0
188220.0 575170.0 0
193275.0 575463.0 0
198459.0 575556.0 0
202902.0 576493.0 0
206958.0 574099.0 0
210866.0 577251.0 0
216222.0 575951.0 0
221787.0 574801.0 0
226437.0 576050.0 0
232385.0 575308.0 0
238341.0 575704.0 0
242185.0 579222.0 0
245802.0 574784.0 0
252364.0 574812.0 0
257891.0 576032.0 0
262848.0 574874.0 0
269600.0 574294.0 0
274089.0 575927.0 0
277885.0 573930.0 0
283015.0 576352.0 0
288376.0 574801.0 0
292670.0 576994.0 0
296828.0 574730.0 0
302561.0 575461.0 0
308343.0 576106.0 0
312511.0 573588.0 0
317945.0 575671.0 0
323723.0 577437.0 0
328599.0 574993.0 0
333896.0 576065.0 0
339287.0 575708.0 0
344481.0 575588.0 0
349400.0 575344.0 0
353841.0 574265.0 0
358461.0 576621.0 0
363698.0 577326.0 0
368061.0 575307.0 0
372333.0 575449.0 0
376906.0 575893.0 0
382353.0 574972.0 0
387497.0 576417.0 0
392506.0 575794.0 0
396871.0 575600.0 0
401962.0 575880.0 0
407388.0 575506.0 0
411906.0 576265.0 0
416174.0 576051.0 0
421772.0 575689.0 0
427489.0 576860.0 0
430781.0 576442.0 0
436210.0 575899.0 0
442490.0 577186.0 0
446979.0 575399.0 0
451528.0 576642.0 0
456522.0 575085.0 0
461817.0 576015.0 0
467189.0 576144.0 0
473032.0 574789.0 0
478220.0 575568.0 0
482668.0 573921.0 0
487959.0 574780.0 0
493216.0 575736.0 0
498094.0 575230.0 0
2832.68 581206.0 0
8243.03 580672.0 0
12811.6 580440.0 0
16771.5 580741.0 0
20825.5 580756.0 0
25754.8 581776.0 0
33708.9 584802.0 0
37195.1 581953.0 0
41681.4 581322.0 0
47509.0 581148.0 0
53150.4 580581.0 0
58894.4 582538.0 0
63692.5 580764.0 0
68389.2 580787.0 0
72547.2 580595.0 0
77267.4 580650.0 0
82090.8 580693.0 0
86327.7 579619.0 0
91313.9 580377.0 0
96761.2 580062.0 0
101431.0 582315.0 0
107449.0 582216.0 0
113554.0 581930.0 0
117099.0 579999.0 0
121135.0 581375.0 0
125929.0 581460.0 0
132173.0 581013.0 0
137897.0 581053.0 0
142970.0 581551.0 0
147842.0 580093.0 0
152881.0 581504.0 0
157746.0 580668.0 0
162913.0 580392.0 0
167755.0 582567.0 0
172637.0 580098.0 0
178296.0 580145.0 0
182567.0 582223.0 0
186500.0 579853.0 0
192477.0 580430.0 0
197258.0 580703.0 0
201769.0 580534.0 0
207410.0 580549.0 0
212749.0 580780.0 0
217598.0 581876.0 0
222058.0 579431.0 0
227599.0 580991.0 0
232842.0 580914.0 0
237730.0 580894.0 0
240976.0 582607.0 0
246548.0 580135.0 0
251150.0 580527.0 0
255688.0 579840.0 0
260997.0 581025.0 0
266583.0 578793.0 0
271776.0 579872.0 0
277574.0 579708.0 0
282766.0 582582.0 0
287958.0 580016.0 0
292753.0 581885.0 0
297668.0 579970.0 0
302552.0 580974.0 0
307187.0 580984.0 0
313219.0 580314.0 0
318106.0 580455.0 0
321861.0 582900.0 0
328884.0 580428.0 0
333057.0 580839.0 0
336596.0 580458.0 0
342187.0 580927.0 0
347539.0 580701.0 0
352995.0 579632.0 0
357633.0 581951.0 0
362307.0 582063.0 0
367563.0 580633.0 0
373288.0 580418.0 0
378042.0 580865.0 0
382312.0 580199.0 0
387500.0 580953.0 0
391913.0 580698.0 0
395282.0 580467.0 0
398996.0 579924.0 0
406081.0 581375.0 0
412619.0 580830.0 0
418206.0 580861.0 0
423278.0 580978.0 0
428062.0 580731.0 0
432902.0 580846.0 0
437703.0 581470.0 0
441783.0 581711.0 0
447282.0 580581.0 0
451834.0 581839.0 0
456397.0 580102.0 0
461323.0 581590.0 0
466238.0 581286.0 0
470595.0 579416.0 0
475822.0 580314.0 0
482358.0 579892.0 0
488563.0 580243.0 0
492710.0 582655.0 0
497008.0 579818.0 0
2500.0 585714.0 0
7323.0 585469.0 0
12205.2 584481.0 0
17735.5 585092.0 0
22374.7 585697.0 0
25933.1 586319.0 0
29946.6 587861.0 0
37086.5 587105.0 0
41535.4 586561.0 0
46474.4 586653.0 0
51593.7 585878.0 0
56784.5 586602.0 0
62533.2 586248.0 0
67869.7 585622.0 0
72803.7 585166.0 0
76948.5 585920.0 0
81621.6 585849.0 0
87287.4 584613.0 0
92568.3 585759.0 0
97509.7 585782.0 0
102565.0 587425.0 0
106895.0 587349.0 0
111548.0 586227.0 0
117281.0 585650.0 0
123071.0 585826.0 0
128784.0 586463.0 0
134060.0 586160.0 0
137944.0 585785.0 0
142169.0 585715.0 0
148004.0 585789.0 0
153408.0 586376.0 0
158633.0 585154.0 0
162548.0 585617.0 0
166796.0 587024.0 0
172399.0 584358.0 0
178046.0 585639.0 0
183427.0 587004.0 0
188332.0 584735.0 0
193902.0 585739.0 0
198916.0 584883.0 0
203942.0 585549.0 0
209228.0 585994.0 0
213706.0 584693.0 0
217507.0 586255.0 0
222455.0 584879.0 0
226365.0 586212.0 0
230755.0 586030.0 0
236166.0 585375.0 0
240495.0 587038.0 0
244298.0 584148.0 0
250504.0 585719.0 0
256483.0 586012.0 0
262211.0 586879.0 0
266281.0 583890.0 0
272426.0 585467.0 0
278138.0 585486.0 0
283083.0 588129.0 0
289067.0 585495.0 0
294003.0 586222.0 0
298526.0 585348.0 0
302776.0 584868.0 0
306960.0 586123.0 0
312213.0 586557.0 0
317100.0 584979.0 0
323186.0 587582.0 0
326732.0 585064.0 0
331909.0 585105.0 0
337815.0 585546.0 0
343049.0 586250.0 0
346549.0 585162.0 0
351220.0 585760.0 0
358055.0 586312.0 0
362698.0 586898.0 0
367405.0 585994.0 0
372660.0 586009.0 0
377595.0 585602.0 0
383206.0 585283.0 0
387836.0 585679.0 0
390893.0 586176.0 0
395109.0 585094.0 0
401064.0 584566.0 0
404747.0 587778.0 0
410180.0 586604.0 0
416780.0 586728.0 0
423164.0 586548.0 0
428633.0 585480.0 0
433339.0 585670.0 0
438526.0 586558.0 0
444157.0 585432.0 0
448739.0 586044.0 0
452173.0 585801.0 0
457225.0 586170.0 0
462810.0 586049.0 0
466786.0 587132.0 0
470753.0 584435.0 0
476511.0 586612.0 0
482954.0 586535.0 0
488634.0 585469.0 0
492879.0 586313.0 0
497141.0 585515.0 0
2536.87 590445.0 0
7973.26 589880.0 0
12789.3 589049.0 0
17149.7 589938.0 0
22358.3 589921.0 0
26919.3 590792.0 0
33963.5 591014.0 0
38640.5 590631.0 0
43331.7 591741.0 0
47500.0 590766.0 0
51830.1 591522.0 0
58431.6 591265.0 0
63991.6 591696.0 0
68559.4 590668.0 0
73354.6 589788.0 0
77242.1 590541.0 0
80587.4 590875.0 0
86212.1 590821.0 0
92875.3 590776.0 0
98377.0 591059.0 0
102978.0 591418.0 0
108341.0 590944.0 0
112507.0 590513.0 0
117516.0 591358.0 0
122500.0 590726.0 0
126674.0 591398.0 0
132082.0 590780.0 0
137058.0 590285.0 0
140740.0 592009.0 0
144616.0 590594.0 0
150958.0 590231.0 0
157202.0 590463.0 0
163061.0 589967.0 0
167969.0 591511.0 0
173385.0 589937.0 0
179122.0 591653.0 0
183311.0 591086.0 0
187031.0 590095.0 0
192123.0 590665.0 0
197035.0 589713.0 0
202018.0 590742.0 0
207503.0 591280.0 0
213420.0 588968.0 0
217112.0 590998.0 0
221029.0 589740.0 0
226288.0 590194.0 0
230876.0 591102.0 0
236341.0 590812.0 0
240948.0 591596.0 0
246010.0 590077.0 0
253258.0 591276.0 0
258032.0 591242.0 0
262442.0 591610.0 0
267686.0 588965.0 0
273072.0 591452.0 0
278282.0 590458.0 0
285714.0 592010.0 0
289192.0 590155.0 0
292727.0 589763.0 0
297143.0 590496.0 0
303009.0 589846.0 0
308585.0 591036.0 0
314118.0 592141.0 0
319070.0 589496.0 0
323209.0 592050.0 0
328380.0 590395.0 0
334276.0 590156.0 0
338116.0 591839.0 0
342794.0 591580.0 0
348254.0 590484.0 0
354800.0 590244.0 0
358956.0 590815.0 0
362426.0 590924.0 0
366805.0 591079.0 0
372075.0 591408.0 0
377188.0 589292.0 0
380980.0 589641.0 0
386909.0 590575.0 0
391616.0 589573.0 0
396601.0 590833.0 0
400409.0 588827.0 0
407816.0 591913.0 0
413171.0 592192.0 0
418100.0 591880.0 0
422095.0 591617.0 0
427304.0 589901.0 0
431756.0 590249.0 0
436619.0 591951.0 0
442356.0 590822.0 0
447871.0 590474.0 0
453082.0 590846.0 0
457828.0 592211.0 0
462023.0 590347.0 0
466276.0 591235.0 0
471164.0 590044.0 0
476789.0 592523.0 0
480964.0 591120.0 0
485248.0 591465.0 0
491236.0 591080.0 0
497370.0 590857.0 0
2097.41 594647.0 0
6903.64 594878.0 0
12704.8 594451.0 0
18635.0 594831.0 0
24308.1 594581.0 0
29974.2 594674.0 0
35122.8 596368.0 0
39454.5 594796.0 0
43111.3 596768.0 0
47303.4 595008.0 0
51771.8 596395.0 0
56707.6 596447.0 0
61940.3 596647.0 0
66549.8 595955.0 0
71649.8 594843.0 0
77149.8 594117.0 0
82274.1 595807.0 0
88361.6 597093.0 0
93234.8 594884.0 0
97500.0 595800.0 0
102410.0 595597.0 0
107264.0 595366.0 0
112339.0 594858.0 0
117500.0 595995.0 0
122419.0 594713.0 0
127639.0 596386.0 0
132552.0 595596.0 0
137861.0 595187.0 0
142352.0 595261.0 0
147767.0 595371.0 0
153107.0 594427.0 0
157547.0 596456.0 0
161662.0 594701.0 0
165951.0 595708.0 0
171532.0 595581.0 0
176488.0 595991.0 0
180564.0 596260.0 0
185220.0 595051.0 0
190754.0 594960.0 0
195892.0 595235.0 0
201723.0 596280.0 0
206904.0 596629.0 0
212690.0 594866.0 0
218350.0 596428.0 0
222953.0 594364.0 0
227743.0 596422.0 0
232817.0 595386.0 0
238125.0 596510.0 0
243601.0 595896.0 0
248583.0 595378.0 0
252458.0 597555.0 0
256113.0 595086.0 0
260731.0 596177.0 0
267367.0 595713.0 0
273148.0 596880.0 0
276681.0 595177.0 0
281618.0 594462.0 0
286800.0 596633.0 0
292361.0 594515.0 0
298326.0 596291.0 0
303328.0 595046.0 0
307608.0 595835.0 0
312245.0 597722.0 0
318377.0 595778.0 0
323037.0 596267.0 0
327443.0 595931.0 0
332000.0 594597.0 0
337038.0 595593.0 0
341438.0 596742.0 0
347229.0 596005.0 0
353196.0 595444.0 0
358326.0 594603.0 0
363365.0 595415.0 0
368094.0 595412.0 0
372500.0 596061.0 0
377099.0 593531.0 0
383087.0 594771.0 0
388439.0 595989.0 0
392821.0 594331.0 0
397199.0 595875.0 0
402131.0 593670.0 0
408473.0 596570.0 0
412752.0 597143.0 0
417500.0 595699.0 0
423237.0 595636.0 0
429019.0 594279.0 0
432561.0 595906.0 0
439152.0 596000.0 0
444795.0 595068.0 0
449213.0 595447.0 0
453543.0 595753.0 0
457586.0 596782.0 0
461825.0 595383.0 0
466486.0 595907.0 0
472261.0 595917.0 0
477171.0 597499.0 0
481688.0 595749.0 0
487432.0 596348.0 0
492901.0 596876.0 0
497602.0 595750.0 0
3505.87 600226.0 0
8684.29 601788.0 0
12440.4 599902.0 0
18023.6 600972.0 0
23620.7 599913.0 0
28848.5 600263.0 0
33467.8 600528.0 0
38193.1 600841.0 0
43336.3 601216.0 0
47814.7 600276.0 0
52319.4 600921.0 0
57174.7 601817.0 0
61950.4 601354.0 0
66465.4 600709.0 0
71642.2 600711.0 0
78171.6 601162.0 0
84057.1 600557.0 0
87674.7 602146.0 0
93992.3 598963.0 0
99100.9 600474.0 0
103755.0 601471.0 0
108353.0 600346.0 0
113638.0 599708.0 0
118186.0 600744.0 0
122689.0 599090.0 0
127079.0 601343.0 0
131549.0 600388.0 0
135564.0 598893.0 0
140121.0 599843.0 0
145342.0 600475.0 0
152269.0 600470.0 0
157952.0 601529.0 0
162618.0 599830.0 0
168195.0 599951.0 0
173843.0 600998.0 0
179091.0 600221.0 0
183851.0 601040.0 0
188901.0 598800.0 0
193725.0 600901.0 0
198587.0 599984.0 0
202757.0 601153.0 0
207483.0 601754.0 0
212879.0 601256.0 0
217796.0 600828.0 0
222399.0 599746.0 0
226998.0 601056.0 0
231980.0 600787.0 0
236840.0 601350.0 0
241499.0 600957.0 0
247013.0 599926.0 0
251263.0 601366.0 0
257024.0 600596.0 0
262204.0 600504.0 0
266804.0 602668.0 0
272577.0 601467.0 0
277699.0 600665.0 0
282575.0 599873.0 0
287381.0 601864.0 0
293346.0 601062.0 0
298716.0 601505.0 0
303203.0 600008.0 0
308091.0 600617.0 0
311482.0 602321.0 0
315735.0 601969.0 0
320455.0 600428.0 0
325943.0 601368.0 0
332958.0 600647.0 0
338870.0 601339.0 0
343167.0 600742.0 0
347068.0 600791.0 0
351493.0 600752.0 0
357376.0 599886.0 0
362878.0 600433.0 0
368095.0 600270.0 0
373283.0 599445.0 0
378021.0 598548.0 0
382778.0 600883.0 0
387954.0 601175.0 0
392361.0 599214.0 0
397237.0 600411.0 0
402996.0 600257.0 0
407660.0 600264.0 0
411374.0 601524.0 0
416260.0 600411.0 0
421455.0 600202.0 0
426940.0 599260.0 0
431593.0 601696.0 0
436233.0 599717.0 0
442667.0 600384.0 0
449518.0 601047.0 0
454860.0 600345.0 0
458987.0 601074.0 0
462757.0 599457.0 0
466926.0 600714.0 0
471268.0 600988.0 0
475375.0 601292.0 0
480138.0 601309.0 0
485761.0 601819.0 0
491565.0 601001.0 0
496648.0 601131.0 0
3158.73 606863.0 0
8413.55 605975.0 0
13580.3 605242.0 0
18209.6 607459.0 0
22890.9 605480.0 0
28270.8 605399.0 0
33646.4 605414.0 0
38671.6 605748.0 0
42500.0 605740.0 0
47500.0 605576.0 0
52500.0 605635.0 0
57642.1 607137.0 0
62744.5 605850.0 0
67007.1 605669.0 0
72980.7 606732.0 0
78363.4 606958.0 0
82518.9 605564.0 0
87005.3 606021.0 0
92009.9 604254.0 0
97540.9 605691.0 0
102142.0 605722.0 0
107243.0 606122.0 0
113522.0 605123.0 0
117753.0 606393.0 0
121463.0 604166.0 0
126002.0 606824.0 0
130168.0 604591.0 0
135845.0 604582.0 0
141992.0 604708.0 0
147901.0 606150.0 0
153096.0 605808.0 0
157204.0 605948.0 0
162773.0 605928.0 0
168931.0 605350.0 0
174033.0 606260.0 0
178942.0 605244.0 0
183555.0 606557.0 0
188709.0 604606.0 0
193872.0 605822.0 0
198462.0 604996.0 0
203328.0 605325.0 0
207070.0 606118.0 0
211003.0 605870.0 0
216536.0 605260.0 0
222430.0 605709.0 0
228300.0 605559.0 0
232756.0 605357.0 0
237407.0 606023.0 0
242742.0 605814.0 0
248026.0 605340.0 0
253682.0 605480.0 0
258475.0 605772.0 0
262203.0 604554.0 0
265581.0 607996.0 0
272019.0 606067.0 0
276048.0 605197.0 0
281826.0 605852.0 0
287143.0 606346.0 0
291376.0 606444.0 0
297115.0 605715.0 0
304735.0 605603.0 0
309101.0 606033.0 0
312974.0 606258.0 0
318314.0 605661.0 0
322500.0 605861.0 0
328852.0 605814.0 0
333073.0 606701.0 0
337026.0 605283.0 0
341060.0 604983.0 0
346037.0 605321.0 0
352106.0 606739.0 0
357225.0 605142.0 0
361925.0 605307.0 0
367368.0 606526.0 0
372100.0 604045.0 0
377731.0 604179.0 0
383660.0 606975.0 0
388778.0 606581.0 0
392773.0 604334.0 0
398386.0 605949.0 0
405280.0 605031.0 0
408589.0 606513.0 0
411737.0 605782.0 0
415725.0 605213.0 0
420786.0 605672.0 0
427238.0 605759.0 0
432738.0 605712.0 0
437856.0 605538.0 0
444201.0 606343.0 0
449040.0 607265.0 0
453708.0 605180.0 0
458529.0 605146.0 0
462373.0 603613.0 0
466604.0 605545.0 0
471770.0 605563.0 0
477422.0 605632.0 0
482560.0 606059.0 0
489990.0 605054.0 0
493083.0 607155.0 0
497156.0 607020.0 0
2174.29 612073.0 0
6284.66 611054.0 0
11609.5 611197.0 0
17516.9 611876.0 0
22661.4 611175.0 0
28286.0 610470.0 0
33421.8 610827.0 0
38413.0 610353.0 0
43386.3 610632.0 0
47781.7 610666.0 0
52500.0 610578.0 0
57533.9 611581.0 0
62279.2 610906.0 0
67557.9 609995.0 0
71805.0 612362.0 0
77061.1 611012.0 0
81681.4 610595.0 0
86261.5 610123.0 0
91720.7 610622.0 0
97921.5 611065.0 0
102799.0 609999.0 0
107209.0 611967.0 0
111429.0 609723.0 0
115814.0 609983.0 0
121112.0 610016.0 0
126256.0 611652.0 0
131720.0 610237.0 0
137820.0 610530.0 0
143277.0 610580.0 0
149626.0 611595.0 0
153643.0 609642.0 0
157911.0 610561.0 0
162245.0 611833.0 0
166521.0 609996.0 0
171329.0 610128.0 0
176670.0 610980.0 0
181420.0 610084.0 0
186640.0 611097.0 0
191834.0 609228.0 0
196775.0 610695.0 0
202080.0 608801.0 0
208233.0 610979.0 0
213890.0 609683.0 0
218524.0 609388.0 0
222285.0 611213.0 0
226852.0 610460.0 0
232513.0 610378.0 0
237216.0 612900.0 0
240752.0 610065.0 0
246295.0 611365.0 0
252344.0 610846.0 0
257050.0 609694.0 0
261728.0 611885.0 0
270343.0 610222.0 0
274330.0 612851.0 0
277392.0 609695.0 0
282371.0 612796.0 0
288595.0 611034.0 0
294638.0 610732.0 0
300655.0 610028.0 0
303636.0 613974.0 0
307429.0 610940.0 0
312909.0 611303.0 0
318018.0 610207.0 0
322212.0 611838.0 0
326103.0 609696.0 0
331274.0 611425.0 0
336386.0 609993.0 0
342221.0 610361.0 0
347962.0 610734.0 0
352391.0 612264.0 0
357568.0 610464.0 0
363178.0 610232.0 0
367727.0 611933.0 0
372321.0 609424.0 0
377732.0 609999.0 0
382187.0 613532.0 0
387617.0 611582.0 0
393135.0 609976.0 0
397885.0 612582.0 0
403634.0 610555.0 0
409206.0 611467.0 0
413668.0 609886.0 0
418039.0 611317.0 0
422256.0 610691.0 0
427446.0 612414.0 0
432433.0 610017.0 0
436527.0 610293.0 0
442570.0 611526.0 0
447278.0 610536.0 0
451893.0 611074.0 0
455955.0 609369.0 0
461936.0 610291.0 0
468665.0 611106.0 0
474671.0 610542.0 0
479770.0 609533.0 0
481949.0 613279.0 0
486978.0 610228.0 0
493406.0 611470.0 0
498364.0 611335.0 0
2131.64 616345.0 0
4144.75 620628.0 0
6439.38 615760.0 0
8110.57 621931.0 0
11241.2 617951.0 0
13887.6 622697.0 0
16625.7 616285.0 0
17284.3 620505.0 0
21048.1 615948.0 0
22429.3 621136.0 0
25902.8 615182.0 0
27921.0 619742.0 0
31877.9 616057.0 0
32678.8 621741.0 0
37722.5 615432.0 0
38156.3 620753.0 0
42833.1 615715.0 0
43309.4 620664.0 0
48297.0 615531.0 0
48028.8 620920.0 0
52981.3 615756.0 0
52500.0 620689.0 0
57514.2 615844.0 0
57153.4 620781.0 0
62501.0 615663.0 0
62189.5 619948.0 0
67374.9 615598.0 0
66861.4 620778.0 0
73710.1 616318.0 0
71916.3 620922.0 0
77230.0 615341.0 0
77355.1 619376.0 0
81098.0 615647.0 0
82500.0 620841.0 0
86739.0 615253.0 0
87383.5 620563.0 0
92808.9 617127.0 0
91759.2 622887.0 0
98335.3 616140.0 0
97500.0 620680.0 0
102971.0 614761.0 0
102500.0 620597.0 0
106930.0 617589.0 0
106596.0 621604.0 0
111757.0 615030.0 0
111025.0 620753.0 0
117346.0 614425.0 0
117215.0 620053.0 0
122252.0 616903.0 0
126719.0 615608.0 0
122416.0 622195.0 0
126818.0 620378.0 0
131099.0 616510.0 0
131676.0 621920.0 0
134934.0 614274.0 0
136838.0 621735.0 0
139801.0 616434.0 0
143912.0 620403.0 0
146538.0 616009.0 0
149082.0 621690.0 0
153212.0 616116.0 0
154413.0 621690.0 0
159098.0 615464.0 0
158664.0 620221.0 0
162534.0 618340.0 0
162454.0 622537.0 0
166163.0 615151.0 0
166555.0 620401.0 0
171644.0 615235.0 0
172125.0 620997.0 0
177313.0 617198.0 0
177444.0 623100.0 0
182980.0 615867.0 0
181135.0 620643.0 0
188132.0 616918.0 0
185353.0 621212.0 0
192479.0 614175.0 0
192071.0 620420.0 0
197027.0 617471.0 0
197610.0 622533.0 0
202343.0 613832.0 0
201911.0 619251.0 0
207373.0 617196.0 0
206954.0 621968.0 0
212910.0 615348.0 0
211493.0 620877.0 0
218465.0 614073.0 0
217441.0 619783.0 0
223390.0 616026.0 0
223339.0 621751.0 0
229004.0 615899.0 0
228799.0 621355.0 0
233935.0 615379.0 0
233808.0 620004.0 0
237413.0 617013.0 0
237629.0 621653.0 0
241546.0 615307.0 0
241951.0 621047.0 0
246881.0 617639.0 0
248982.0 622385.0 0
252334.0 616295.0 0
253296.0 621221.0 0
256934.0 614461.0 0
257842.0 619487.0 0
262294.0 617290.0 0
260723.0 622348.0 0
268043.0 616043.0 0
264957.0 621823.0 0
273774.0 617265.0 0
271160.0 621128.0 0
278039.0 616141.0 0
277673.0 621580.0 0
283462.0 619125.0 0
282460.0 623770.0 0
286940.0 615746.0 0
288741.0 621011.0 0
291881.0 616165.0 0
294891.0 621104.0 0
298351.0 616008.0 0
300104.0 621599.0 0
303376.0 617808.0 0
304396.0 621411.0 0
307486.0 616193.0 0
307835.0 620692.0 0
312164.0 616091.0 0
311555.0 620359.0 0
316734.0 614742.0 0
316414.0 619290.0 0
320755.0 615953.0 0
322906.0 620250.0 0
326861.0 615990.0 0
327415.0 621957.0 0
333420.0 616700.0 0
331986.0 621148.0 0
338265.0 614144.0 0
338448.0 618642.0 0
342610.0 616089.0 0
342540.0 621286.0 0
347224.0 615652.0 0
347227.0 620540.0 0
352361.0 616931.0 0
351998.0 621910.0 0
357378.0 616194.0 0
356318.0 620503.0 0
362211.0 614993.0 0
360976.0 619980.0 0
366397.0 616068.0 0
366984.0 621169.0 0
370848.0 615796.0 0
376429.0 615511.0 0
373404.0 620867.0 0
379745.0 620789.0 0
382916.0 617730.0 0
384763.0 622650.0 0
386338.0 616893.0 0
389103.0 620863.0 0
391611.0 615866.0 0
393668.0 622843.0 0
396394.0 616567.0 0
397212.0 620184.0 0
401445.0 617083.0 0
400978.0 623126.0 0
407043.0 615470.0 0
406584.0 620908.0 0
411839.0 615108.0 0
413360.0 621081.0 0
416999.0 615827.0 0
418614.0 621858.0 0
422610.0 616015.0 0
421868.0 620680.0 0
427410.0 617638.0 0
425825.0 621736.0 0
432301.0 616091.0 0
430352.0 621000.0 0
437748.0 614539.0 0
437137.0 620807.0 0
442410.0 617010.0 0
443153.0 621782.0 0
447796.0 614918.0 0
448355.0 620995.0 0
451868.0 617772.0 0
453225.0 621227.0 0
456103.0 614934.0 0
458092.0 620881.0 0
461605.0 616789.0 0
463101.0 620566.0 0
466230.0 615565.0 0
467195.0 620425.0 0
471978.0 616727.0 0
471777.0 622915.0 0
477597.0 615305.0 0
476774.0 619633.0 0
480923.0 616917.0 0
481250.0 620862.0 0
486248.0 616944.0 0
486957.0 622366.0 0
491658.0 616367.0 0
491859.0 620916.0 0
497017.0 616244.0 0
497101.0 621925.0 0
2630.82 625646.0 0
7017.99 625705.0 0
11239.5 626214.0 0
17278.3 625521.0 0
21634.4 626236.0 0
27846.5 625480.0 0
34008.0 626220.0 0
38228.4 625908.0 0
42500.0 625662.0 0
46861.5 625615.0 0
51527.9 625507.0 0
56365.2 625618.0 0
61870.0 625914.0 0
67959.8 625559.0 0
73206.4 625925.0 0
78917.7 624989.0 0
83208.2 625279.0 0
87129.3 625389.0 0
91175.7 627403.0 0
97500.0 625630.0 0
102500.0 625622.0 0
107500.0 625611.0 0
112435.0 625504.0 0
117619.0 626039.0 0
122764.0 626826.0 0
126814.0 625318.0 0
131397.0 627713.0 0
136326.0 626248.0 0
141523.0 625009.0 0
147193.0 627282.0 0
152598.0 626260.0 0
158517.0 626175.0 0
163651.0 626424.0 0
167779.0 625201.0 0
173180.0 627362.0 0
178273.0 627345.0 0
181190.0 625332.0 0
185994.0 626894.0 0
192507.0 626231.0 0
197814.0 627070.0 0
202327.0 624402.0 0
207154.0 625990.0 0
211666.0 625986.0 0
217112.0 625832.0 0
222290.0 627168.0 0
227605.0 626731.0 0
232497.0 624810.0 0
236745.0 624891.0 0
240981.0 626626.0 0
245455.0 624826.0 0
252124.0 626037.0 0
257486.0 625031.0 0
262520.0 625835.0 0
268987.0 625748.0 0
274076.0 625938.0 0
278397.0 627143.0 0
282240.0 627244.0 0
286226.0 625327.0 0
291744.0 626097.0 0
297973.0 626745.0 0
302978.0 625225.0 0
306623.0 627692.0 0
311636.0 625507.0 0
317828.0 625048.0 0
323439.0 625093.0 0
326926.0 629399.0 0
331126.0 625634.0 0
337244.0 624427.0 0
343493.0 626825.0 0
348334.0 624812.0 0
352354.0 626837.0 0
357675.0 625100.0 0
362693.0 624513.0 0
366418.0 626421.0 0
371214.0 626351.0 0
376879.0 626104.0 0
382287.0 625973.0 0
388117.0 626194.0 0
392447.0 626884.0 0
396912.0 626447.0 0
403166.0 627952.0 0
408485.0 626676.0 0
413161.0 626957.0 0
417304.0 625891.0 0
422441.0 625273.0 0
428000.0 626422.0 0
432846.0 624716.0 0
437088.0 626910.0 0
442326.0 626816.0 0
447230.0 627034.0 0
451451.0 625288.0 0
456738.0 626918.0 0
462111.0 624799.0 0
467267.0 625910.0 0
471806.0 628102.0 0
476970.0 624469.0 0
482260.0 626121.0 0
487311.0 626966.0 0
493227.0 625036.0 0
497974.0 626583.0 0
3529.67 631727.0 0
9066.64 630399.0 0
13730.5 630541.0 0
18755.5 630733.0 0
23106.5 629943.0 0
27422.7 631615.0 0
32748.4 630650.0 0
37706.8 630619.0 0
42462.5 630700.0 0
47729.5 630563.0 0
52768.4 630196.0 0
57219.7 630030.0 0
61187.2 632216.0 0
65308.7 630276.0 0
70378.8 630673.0 0
76704.7 631264.0 0
83201.4 629561.0 0
88683.6 631044.0 0
94425.8 629282.0 0
98552.0 630900.0 0
103103.0 630262.0 0
106750.0 631474.0 0
111606.0 630715.0 0
117878.0 632387.0 0
122547.0 630656.0 0
126660.0 630663.0 0
132500.0 633391.0 0
137117.0 630884.0 0
142847.0 631074.0 0
147141.0 631424.0 0
153245.0 631408.0 0
157869.0 631488.0 0
162416.0 630641.0 0
167677.0 630376.0 0
172242.0 633166.0 0
177083.0 631445.0 0
181020.0 629810.0 0
184624.0 632847.0 0
189818.0 631420.0 0
195513.0 631355.0 0
201476.0 630975.0 0
207704.0 630915.0 0
213249.0 630780.0 0
218884.0 631706.0 0
224062.0 631279.0 0
228111.0 633058.0 0
232459.0 629986.0 0
237208.0 629302.0 0
241159.0 632267.0 0
246613.0 629827.0 0
251516.0 630498.0 0
256999.0 631442.0 0
263179.0 630176.0 0
268302.0 630860.0 0
273945.0 631434.0 0
279485.0 631424.0 0
283092.0 632674.0 0
287375.0 630690.0 0
292844.0 631572.0 0
296881.0 631411.0 0
302473.0 630403.0 0
308070.0 631535.0 0
312822.0 630227.0 0
317582.0 631138.0 0
322508.0 631001.0 0
329604.0 632655.0 0
332462.0 630597.0 0
337829.0 630834.0 0
342602.0 631847.0 0
346399.0 631132.0 0
350994.0 631732.0 0
355903.0 630119.0 0
362244.0 630506.0 0
368627.0 630979.0 0
373697.0 631378.0 0
379114.0 631358.0 0
383846.0 629639.0 0
387770.0 630889.0 0
392418.0 630703.0 0
397990.0 630825.0 0
402012.0 632482.0 0
406439.0 631628.0 0
411259.0 631421.0 0
416814.0 631574.0 0
422585.0 630699.0 0
427933.0 632100.0 0
433336.0 630694.0 0
438650.0 631874.0 0
443791.0 631842.0 0
448641.0 631357.0 0
453501.0 631545.0 0
458507.0 631749.0 0
463242.0 630882.0 0
467935.0 630585.0 0
471182.0 632375.0 0
476714.0 630391.0 0
482171.0 631452.0 0
486903.0 632043.0 0
491811.0 629960.0 0
497281.0 631260.0 0
1664.02 636281.0 0
6283.91 636743.0 0
11274.4 635407.0 0
17290.1 635917.0 0
22294.0 635390.0 0
27669.0 637604.0 0
33552.3 636071.0 0
38628.6 635759.0 0
43084.4 635665.0 0
47608.9 635834.0 0
52592.0 634975.0 0
57500.0 635778.0 0
63100.9 636160.0 0
67666.7 635459.0 0
72369.9 635291.0 0
76274.2 637006.0 0
81816.7 636122.0 0
88508.4 635692.0 0
93804.9 634381.0 0
98398.5 635119.0 0
102469.0 635285.0 0
107054.0 635572.0 0
113083.0 636543.0 0
118204.0 638239.0 0
122609.0 635910.0 0
127328.0 635384.0 0
131256.0 636113.0 0
135309.0 635632.0 0
140742.0 636822.0 0
149249.0 635148.0 0
154041.0 635515.0 0
158132.0 636010.0 0
162587.0 635646.0 0
167448.0 635490.0 0
171352.0 637619.0 0
177371.0 636120.0 0
181520.0 636083.0 0
187130.0 638424.0 0
192584.0 635874.0 0
197525.0 635904.0 0
202913.0 637355.0 0
208802.0 636418.0 0
214103.0 635876.0 0
218824.0 636995.0 0
223788.0 636174.0 0
228334.0 637133.0 0
232521.0 635204.0 0
236956.0 634909.0 0
241893.0 636297.0 0
245883.0 635544.0 0
251682.0 635350.0 0
257244.0 637292.0 0
261074.0 635460.0 0
266112.0 635542.0 0
272452.0 636166.0 0
276704.0 635885.0 0
280877.0 635625.0 0
285646.0 636310.0 0
291778.0 636100.0 0
297092.0 636089.0 0
302749.0 635368.0 0
307667.0 636021.0 0
311971.0 634247.0 0
316292.0 636541.0 0
321940.0 635550.0 0
327079.0 635325.0 0
331436.0 635603.0 0
336516.0 636662.0 0
342617.0 636022.0 0
346949.0 635555.0 0
351087.0 636568.0 0
357596.0 634313.0 0
361624.0 636992.0 0
366483.0 635499.0 0
371765.0 636524.0 0
377693.0 637181.0 0
384192.0 635333.0 0
390062.0 636115.0 0
395121.0 634912.0 0
399905.0 635963.0 0
403818.0 636469.0 0
408335.0 636135.0 0
413347.0 636022.0 0
417862.0 636642.0 0
422662.0 635774.0 0
428008.0 636925.0 0
431974.0 635403.0 0
436362.0 636423.0 0
441341.0 636348.0 0
446753.0 635655.0 0
451670.0 636140.0 0
457333.0 636382.0 0
462554.0 636288.0 0
467601.0 635310.0 0
473048.0 636062.0 0
478034.0 635985.0 0
484297.0 635882.0 0
488641.0 636115.0 0
493544.0 635688.0 0
498191.0 635603.0 0
2802.79 640214.0 0
8417.83 641250.0 0
14021.4 640542.0 0
19021.0 641105.0 0
23100.3 640233.0 0
27671.4 642866.0 0
32371.5 640847.0 0
37500.0 640825.0 0
41535.0 640456.0 0
45829.6 640914.0 0
51019.4 640252.0 0
56541.7 641031.0 0
61320.1 640125.0 0
66356.7 640951.0 0
72434.9 640764.0 0
78715.1 641073.0 0
82724.7 641669.0 0
86362.6 639500.0 0
91452.0 640091.0 0
97708.9 639703.0 0
103833.0 641174.0 0
108820.0 639497.0 0
114276.0 641884.0 0
117757.0 641643.0 0
122013.0 640288.0 0
126810.0 640513.0 0
132014.0 640783.0 0
136470.0 640182.0 0
140806.0 642895.0 0
146189.0 640316.0 0
152648.0 639420.0 0
157358.0 640658.0 0
161686.0 640854.0 0
167281.0 641452.0 0
173416.0 641508.0 0
178216.0 640952.0 0
182555.0 641024.0 0
185543.0 643562.0 0
193538.0 640849.0 0
198352.0 640078.0 0
202424.0 643137.0 0
207154.0 641455.0 0
211307.0 640033.0 0
215921.0 641272.0 0
221235.0 640976.0 0
226615.0 641626.0 0
231322.0 639487.0 0
236723.0 640357.0 0
242680.0 640001.0 0
248216.0 640779.0 0
253750.0 640522.0 0
258035.0 643311.0 0
262780.0 640437.0 0
269469.0 641182.0 0
275539.0 640294.0 0
279693.0 639360.0 0
283643.0 641391.0 0
289120.0 640532.0 0
293909.0 640322.0 0
298282.0 641470.0 0
302455.0 639967.0 0
306603.0 640832.0 0
311597.0 639983.0 0
318247.0 640612.0 0
323017.0 640912.0 0
328085.0 640054.0 0
332415.0 639429.0 0
336784.0 642667.0 0
342336.0 639759.0 0
346459.0 640633.0 0
350286.0 640679.0 0
356016.0 639879.0 0
364680.0 640934.0 0
369326.0 641169.0 0
373644.0 640686.0 0
377915.0 643169.0 0
381632.0 640177.0 0
387243.0 640697.0 0
392620.0 640601.0 0
397574.0 639459.0 0
401812.0 640594.0 0
406539.0 641016.0 0
411599.0 640620.0 0
416590.0 641165.0 0
421113.0 639847.0 0
425627.0 640889.0 0
431677.0 640537.0 0
437281.0 641366.0 0
442869.0 641798.0 0
448610.0 640516.0 0
453988.0 640508.0 0
459370.0 641004.0 0
463371.0 640498.0 0
467567.0 640414.0 0
472500.0 640626.0 0
478670.0 640670.0 0
482865.0 640095.0 0
487075.0 641007.0 0
491304.0 640168.0 0
497088.0 639810.0 0
2384.98 645274.0 0
6820.33 645854.0 0
12141.4 646364.0 0
17325.6 645458.0 0
22193.9 645030.0 0
26961.7 647103.0 0
31548.7 645483.0 0
36560.6 645807.0 0
42039.2 645604.0 0
47501.8 645529.0 0
52619.5 645803.0 0
57616.5 645882.0 0
62409.4 644884.0 0
66549.7 645364.0 0
70707.8 647294.0 0
75889.3 645408.0 0
80973.8 646381.0 0
87198.6 645221.0 0
94483.8 645061.0 0
99693.2 645509.0 0
103475.0 645625.0 0
108398.0 644125.0 0
113258.0 646821.0 0
117698.0 645215.0 0
122625.0 644738.0 0
127510.0 645722.0 0
132148.0 645382.0 0
136398.0 645796.0 0
143115.0 647738.0 0
148787.0 645563.0 0
154108.0 644340.0 0
158464.0 645858.0 0
162500.0 645999.0 0
166908.0 647540.0 0
172059.0 645718.0 0
176640.0 645647.0 0
181444.0 645340.0 0
185159.0 647360.0 0
190555.0 646102.0 0
197183.0 645042.0 0
201718.0 647967.0 0
206482.0 646712.0 0
211455.0 644693.0 0
217628.0 646819.0 0
222766.0 645804.0 0
227351.0 646331.0 0
231840.0 644535.0 0
236455.0 645631.0 0
241166.0 645340.0 0
246832.0 646423.0 0
252473.0 645944.0 0
258310.0 648305.0 0
262186.0 645664.0 0
266735.0 646809.0 0
273176.0 646769.0 0
278487.0 644153.0 0
281867.0 646054.0 0
286395.0 646383.0 0
292311.0 645306.0 0
297988.0 647019.0 0
302873.0 644372.0 0
307622.0 645640.0 0
312912.0 646069.0 0
318524.0 645369.0 0
322334.0 647943.0 0
326361.0 645381.0 0
331439.0 643704.0 0
336726.0 647508.0 0
342942.0 644723.0 0
347869.0 646804.0 0
352330.0 645157.0 0
358817.0 645368.0 0
363708.0 645632.0 0
368049.0 645281.0 0
372647.0 644925.0 0
377380.0 647640.0 0
382772.0 643854.0 0
386505.0 645470.0 0
390743.0 645227.0 0
397181.0 644799.0 0
403243.0 645643.0 0
408331.0 645470.0 0
412769.0 645620.0 0
416979.0 645666.0 0
421756.0 645014.0 0
428443.0 645478.0 0
433948.0 645643.0 0
439138.0 646471.0 0
443862.0 646557.0 0
447416.0 645753.0 0
451648.0 645033.0 0
456544.0 644537.0 0
461635.0 645609.0 0
466853.0 645056.0 0
471103.0 645779.0 0
476269.0 645319.0 0
483596.0 645161.0 0
488776.0 645106.0 0
493246.0 644105.0 0
497709.0 644560.0 0
2460.34 650099.0 0
7819.62 650809.0 0
13617.0 651518.0 0
17170.8 649458.0 0
23456.6 650267.0 0
28196.9 651595.0 0
33143.2 650508.0 0
38191.6 650619.0 0
42567.1 650742.0 0
47331.7 650604.0 0
52400.7 651264.0 0
57281.8 650405.0 0
63058.1 649423.0 0
66923.0 650749.0 0
73687.1 651035.0 0
77500.0 650818.0 0
82518.3 651083.0 0
86905.2 651036.0 0
91382.5 649539.0 0
96783.3 650504.0 0
102412.0 649679.0 0
108305.0 649688.0 0
113268.0 652446.0 0
117180.0 649703.0 0
122548.0 650422.0 0
128181.0 650569.0 0
133513.0 650130.0 0
138633.0 649928.0 0
142505.0 652691.0 0
147169.0 650539.0 0
152885.0 650140.0 0
158692.0 650657.0 0
163562.0 651136.0 0
167400.0 651378.0 0
171306.0 650389.0 0
176573.0 650629.0 0
182001.0 650824.0 0
187200.0 650954.0 0
192048.0 652388.0 0
197225.0 650900.0 0
201669.0 652246.0 0
205958.0 651694.0 0
211006.0 650304.0 0
215879.0 651709.0 0
220431.0 651193.0 0
225485.0 650255.0 0
231341.0 650568.0 0
237494.0 650293.0 0
242647.0 652531.0 0
248354.0 652078.0 0
253975.0 651094.0 0
258720.0 652662.0 0
263001.0 650736.0 0
268486.0 651861.0 0
273553.0 652098.0 0
278730.0 649853.0 0
284370.0 651663.0 0
288753.0 650614.0 0
292806.0 650473.0 0
296732.0 651786.0 0
302969.0 650450.0 0
308592.0 650453.0 0
313481.0 651410.0 0
318674.0 650376.0 0
322277.0 651199.0 0
326514.0 651169.0 0
331838.0 649006.0 0
335753.0 651029.0 0
340034.0 651243.0 0
345254.0 650395.0 0
350802.0 650707.0 0
356804.0 650495.0 0
361668.0 649557.0 0
366819.0 650562.0 0
373034.0 650574.0 0
377880.0 651949.0 0
382590.0 649164.0 0
388362.0 650273.0 0
393489.0 649243.0 0
398792.0 650543.0 0
404037.0 651206.0 0
408998.0 650180.0 0
413975.0 650978.0 0
418804.0 649747.0 0
423354.0 649763.0 0
427611.0 650622.0 0
432701.0 650817.0 0
436627.0 649212.0 0
442838.0 650589.0 0
446812.0 649761.0 0
451785.0 650673.0 0
457284.0 649376.0 0
462260.0 651875.0 0
467666.0 650110.0 0
472035.0 649359.0 0
475970.0 651093.0 0
480628.0 649600.0 0
485829.0 650726.0 0
491865.0 648917.0 0
497331.0 649356.0 0
2993.27 655507.0 0
8296.11 657175.0 0
13647.0 656474.0 0
19367.0 654336.0 0
24897.2 654798.0 0
29227.6 656199.0 0
34225.8 655641.0 0
39226.8 655679.0 0
43040.3 655892.0 0
47133.2 655601.0 0
51734.8 656449.0 0
56256.0 655683.0 0
61089.5 654006.0 0
66714.7 655588.0 0
72884.5 656182.0 0
78345.4 655954.0 0
81885.3 654916.0 0
86247.9 655948.0 0
91823.7 654733.0 0
97378.7 655958.0 0
102854.0 655314.0 0
108885.0 655948.0 0
113897.0 656587.0 0
116991.0 655357.0 0
121076.0 655571.0 0
126343.0 655710.0 0
132217.0 656559.0 0
136655.0 653975.0 0
140132.0 657287.0 0
146970.0 655998.0 0
153597.0 656649.0 0
159180.0 655580.0 0
163756.0 655931.0 0
167982.0 654815.0 0
172834.0 655412.0 0
177751.0 655564.0 0
182110.0 655504.0 0
186897.0 656102.0 0
193105.0 657561.0 0
197453.0 655963.0 0
203373.0 656214.0 0
207586.0 655691.0 0
212070.0 655474.0 0
217508.0 655734.0 0
221983.0 655704.0 0
227226.0 655733.0 0
233409.0 656020.0 0
238494.0 655482.0 0
242030.0 657139.0 0
245587.0 656357.0 0
251457.0 656763.0 0
255952.0 655443.0 0
262480.0 655544.0 0
266925.0 656952.0 0
271440.0 655978.0 0
276869.0 655771.0 0
282443.0 655838.0 0
288218.0 654836.0 0
293327.0 655369.0 0
298187.0 655573.0 0
303041.0 656367.0 0
307243.0 654581.0 0
311460.0 656341.0 0
317036.0 655302.0 0
322176.0 655287.0 0
326852.0 656689.0 0
332952.0 655410.0 0
338399.0 655611.0 0
342723.0 656187.0 0
347538.0 654916.0 0
352157.0 655537.0 0
357167.0 656387.0 0
362119.0 654159.0 0
366628.0 655935.0 0
371197.0 655803.0 0
376508.0 656494.0 0
381585.0 655108.0 0
386652.0 654966.0 0
391909.0 654515.0 0
398011.0 656491.0 0
402138.0 654631.0 0
406022.0 656215.0 0
410992.0 654882.0 0
415891.0 655737.0 0
421512.0 654823.0 0
427364.0 655860.0 0
432954.0 657441.0 0
438042.0 653646.0 0
443320.0 656921.0 0
447416.0 653706.0 0
451506.0 656273.0 0
457148.0 655382.0 0
461717.0 657694.0 0
466417.0 656403.0 0
471487.0 653955.0 0
476761.0 656976.0 0
481696.0 654080.0 0
485290.0 657473.0 0
490451.0 654713.0 0
496754.0 655091.0 0
2281.21 660863.0 0
6084.9 660948.0 0
11692.5 661413.0 0
17834.4 660327.0 0
22840.4 658850.0 0
27809.2 660695.0 0
31908.1 659456.0 0
37740.9 659929.0 0
42509.3 660274.0 0
47272.9 660842.0 0
51101.3 661352.0 0
56287.9 660514.0 0
62622.8 660399.0 0
68493.5 660469.0 0
72429.4 661428.0 0
76645.0 660810.0 0
81764.3 659420.0 0
86865.0 661361.0 0
93715.3 659924.0 0
99154.8 661003.0 0
104191.0 660337.0 0
108921.0 661672.0 0
113590.0 660548.0 0
118122.0 659356.0 0
123046.0 659890.0 0
127629.0 661181.0 0
132473.0 661336.0 0
136496.0 660705.0 0
143887.0 660094.0 0
148052.0 661176.0 0
152710.0 662373.0 0
157815.0 660982.0 0
162700.0 660352.0 0
168069.0 660197.0 0
173199.0 659880.0 0
177656.0 660506.0 0
182885.0 659936.0 0
188161.0 661640.0 0
192660.0 661857.0 0
196140.0 660890.0 0
200740.0 660608.0 0
206164.0 660458.0 0
212130.0 661142.0 0
217667.0 660281.0 0
222258.0 660834.0 0
226799.0 660948.0 0
231526.0 660862.0 0
236844.0 660424.0 0
241824.0 660847.0 0
247547.0 661671.0 0
253556.0 661340.0 0
257988.0 659403.0 0
262820.0 659860.0 0
267475.0 662211.0 0
273274.0 660213.0 0
280053.0 660082.0 0
284244.0 660520.0 0
288132.0 659700.0 0
292650.0 660110.0 0
297171.0 660092.0 0
301732.0 661164.0 0
307500.0 660627.0 0
313270.0 661234.0 0
318176.0 660454.0 0
322595.0 659597.0 0
326661.0 662076.0 0
332025.0 661605.0 0
336454.0 660177.0 0
340605.0 660511.0 0
346799.0 660764.0 0
353022.0 660112.0 0
357864.0 661513.0 0
363188.0 659894.0 0
369098.0 660716.0 0
373458.0 659528.0 0
376626.0 661213.0 0
381894.0 661191.0 0
388495.0 659610.0 0
393417.0 659418.0 0
397580.0 661722.0 0
402874.0 661366.0 0
408541.0 660950.0 0
412666.0 659169.0 0
417011.0 660618.0 0
422264.0 660960.0 0
427623.0 661235.0 0
432250.0 662860.0 0
437443.0 661373.0 0
442868.0 662478.0 0
448038.0 660418.0 0
453561.0 660589.0 0
458421.0 661261.0 0
463677.0 661715.0 0
468228.0 661066.0 0
472631.0 661019.0 0
477259.0 662666.0 0
481306.0 660401.0 0
485302.0 662364.0 0
489684.0 660397.0 0
497040.0 661138.0 0
2334.65 665756.0 0
7292.34 665047.0 0
12114.0 666270.0 0
17272.5 665861.0 0
23448.9 664690.0 0
28863.0 665618.0 0
32400.9 663490.0 0
36869.8 664036.0 0
42083.0 665678.0 0
47948.2 665459.0 0
52632.9 665579.0 0
57369.1 665945.0 0
62818.8 666681.0 0
67839.9 665199.0 0
72850.2 665790.0 0
77628.1 665588.0 0
81918.2 664470.0 0
86099.0 666375.0 0
91232.0 664959.0 0
97344.9 666425.0 0
102248.0 664872.0 0
106646.0 666071.0 0
111692.0 666166.0 0
117196.0 664848.0 0
123800.0 665764.0 0
129226.0 666248.0 0
132675.0 665297.0 0
137201.0 665802.0 0
142583.0 664573.0 0
148367.0 666582.0 0
153399.0 666381.0 0
157135.0 666098.0 0
161623.0 664913.0 0
166445.0 666411.0 0
172520.0 665326.0 0
178845.0 665710.0 0
184041.0 664988.0 0
188247.0 666368.0 0
192345.0 665798.0 0
197117.0 665606.0 0
202595.0 665783.0 0
208085.0 665234.0 0
213012.0 667108.0 0
218286.0 665389.0 0
222617.0 665845.0 0
226795.0 665825.0 0
232147.0 666070.0 0
237521.0 665804.0 0
242663.0 665469.0 0
247312.0 667934.0 0
252340.0 666242.0 0
257704.0 664796.0 0
262747.0 664501.0 0
266283.0 667963.0 0
271954.0 665935.0 0
276591.0 663491.0 0
280475.0 665948.0 0
285915.0 664858.0 0
292341.0 665544.0 0
298657.0 665365.0 0
304072.0 665129.0 0
308813.0 666469.0 0
312888.0 665352.0 0
317786.0 666138.0 0
322266.0 663558.0 0
324993.0 666886.0 0
330052.0 666666.0 0
336018.0 665889.0 0
342241.0 665602.0 0
347396.0 666416.0 0
351919.0 665240.0 0
357023.0 666481.0 0
363159.0 666615.0 0
369063.0 666049.0 0
373280.0 663644.0 0
377728.0 665346.0 0
382113.0 667644.0 0
387041.0 665151.0 0
393283.0 664940.0 0
399242.0 666693.0 0
404175.0 666515.0 0
408584.0 665940.0 0
413199.0 663897.0 0
418158.0 665483.0 0
423300.0 666457.0 0
428566.0 666264.0 0
433683.0 667445.0 0
438323.0 666843.0 0
442619.0 667050.0 0
446660.0 665356.0 0
451297.0 664724.0 0
455933.0 665802.0 0
460821.0 666045.0 0
465383.0 665980.0 0
470045.0 665486.0 0
475314.0 667552.0 0
481567.0 666526.0 0
487565.0 666620.0 0
492759.0 664789.0 0
497640.0 666620.0 0
2102.64 670656.0 0
6078.26 669522.0 0
10287.4 670619.0 0
15048.4 670572.0 0
21564.6 670867.0 0
27146.8 670001.0 0
34036.3 668128.0 0
38308.1 670785.0 0
42667.3 670889.0 0
47268.9 670862.0 0
52698.1 670296.0 0
56633.7 670840.0 0
60408.3 671333.0 0
65459.8 671290.0 0
70321.7 670169.0 0
75846.5 670821.0 0
81968.4 669872.0 0
87421.3 671848.0 0
93048.8 670528.0 0
98254.3 671449.0 0
102937.0 669837.0 0
108240.0 670672.0 0
113743.0 671349.0 0
119302.0 670197.0 0
124598.0 672115.0 0
129515.0 670400.0 0
133833.0 670314.0 0
137679.0 670418.0 0
141903.0 669644.0 0
147092.0 672259.0 0
152689.0 670371.0 0
157500.0 670646.0 0
162563.0 670053.0 0
168075.0 670559.0 0
173659.0 670580.0 0
177578.0 670440.0 0
182478.0 670049.0 0
187500.0 670699.0 0
192528.0 670311.0 0
197426.0 669840.0 0
202860.0 671377.0 0
207641.0 669851.0 0
211562.0 671767.0 0
216396.0 671421.0 0
221414.0 670066.0 0
226172.0 670671.0 0
231030.0 671287.0 0
237069.0 671681.0 0
242750.0 670499.0 0
247092.0 672240.0 0
251378.0 670953.0 0
256096.0 670086.0 0
262295.0 670678.0 0
265902.0 672793.0 0
270419.0 671631.0 0
276690.0 670750.0 0
282438.0 670174.0 0
287426.0 670696.0 0
293006.0 671581.0 0
297838.0 672575.0 0
302092.0 669903.0 0
307494.0 671809.0 0
312977.0 669947.0 0
318744.0 672722.0 0
324233.0 671343.0 0
328003.0 670529.0 0
331912.0 670179.0 0
335202.0 671134.0 0
339965.0 670820.0 0
345700.0 671336.0 0
352417.0 671441.0 0
358982.0 671782.0 0
364627.0 672883.0 0
369077.0 670817.0 0
373820.0 669057.0 0
378883.0 671748.0 0
383898.0 671806.0 0
388927.0 671053.0 0
395007.0 670862.0 0
399447.0 672502.0 0
402698.0 670388.0 0
407755.0 671405.0 0
413719.0 669626.0 0
419573.0 670381.0 0
424385.0 671300.0 0
429131.0 671284.0 0
433196.0 671348.0 0
437500.0 671263.0 0
440956.0 671112.0 0
446136.0 670171.0 0
452550.0 670507.0 0
458158.0 670045.0 0
462258.0 671084.0 0
466642.0 670245.0 0
471032.0 670097.0 0
474517.0 672947.0 0
479989.0 671930.0 0
485630.0 671993.0 0
491752.0 670269.0 0
497259.0 671689.0 0
1809.69 674523.0 0
6737.28 674773.0 0
12438.0 675051.0 0
17836.4 675114.0 0
23037.5 676562.0 0
27546.4 675401.0 0
31676.3 672882.0 0
37852.0 675897.0 0
42530.2 675157.0 0
47500.0 676216.0 0
50997.7 674391.0 0
57218.7 675394.0 0
62400.5 676399.0 0
67183.1 675797.0 0
72345.2 675809.0 0
77861.2 676276.0 0
83387.5 675471.0 0
88092.4 676808.0 0
93224.9 676259.0 0
98392.5 675866.0 0
103868.0 675072.0 0
109627.0 675503.0 0
114053.0 676293.0 0
118593.0 675541.0 0
122768.0 676083.0 0
127523.0 675345.0 0
131820.0 675010.0 0
136934.0 674525.0 0
142185.0 675075.0 0
146988.0 677260.0 0
152391.0 676196.0 0
157701.0 675664.0 0
162089.0 675225.0 0
167268.0 675230.0 0
172397.0 674597.0 0
177751.0 675826.0 0
183448.0 675448.0 0
187895.0 674810.0 0
192506.0 675806.0 0
198081.0 674462.0 0
202984.0 677398.0 0
207278.0 674467.0 0
211888.0 676457.0 0
217133.0 676748.0 0
222237.0 675251.0 0
227693.0 675573.0 0
233084.0 676117.0 0
238387.0 677833.0 0
244112.0 675929.0 0
249529.0 675260.0 0
253429.0 677419.0 0
258549.0 675370.0 0
263806.0 676222.0 0
268135.0 676290.0 0
272824.0 676203.0 0
278142.0 677006.0 0
283493.0 675046.0 0
288953.0 676086.0 0
294090.0 676648.0 0
298368.0 677086.0 0
302868.0 675493.0 0
307628.0 676827.0 0
312831.0 676069.0 0
317283.0 677184.0 0
320535.0 677969.0 0
324773.0 676090.0 0
330889.0 674996.0 0
337064.0 675297.0 0
342654.0 677000.0 0
348633.0 676225.0 0
352868.0 677992.0 0
356568.0 676203.0 0
361105.0 676796.0 0
366949.0 677546.0 0
371648.0 675172.0 0
376913.0 676705.0 0
382095.0 676051.0 0
387929.0 677437.0 0
394692.0 677122.0 0
399527.0 678416.0 0
403231.0 675523.0 0
408053.0 677117.0 0
412033.0 674957.0 0
416686.0 674184.0 0
421416.0 675204.0 0
426702.0 676159.0 0
432148.0 675517.0 0
437420.0 675407.0 0
441975.0 675434.0 0
446991.0 675757.0 0
452475.0 676401.0 0
458187.0 675491.0 0
463399.0 676020.0 0
467963.0 675176.0 0
472236.0 676720.0 0
477926.0 675759.0 0
482040.0 675902.0 0
486242.0 677286.0 0
491589.0 676174.0 0
497373.0 677040.0 0
2699.01 678906.0 0
7653.55 681336.0 0
12639.7 680000.0 0
18102.0 681123.0 0
24056.1 681486.0 0
28551.8 679739.0 0
33991.7 678136.0 0
37874.2 681565.0 0
42339.9 680172.0 0
47802.2 680942.0 0
52804.1 678582.0 0
57187.9 680980.0 0
61916.2 681473.0 0
67320.8 680946.0 0
72612.7 681212.0 0
77023.8 681457.0 0
81162.7 680068.0 0
85493.1 680984.0 0
90747.2 681803.0 0
96499.4 680597.0 0
101368.0 679483.0 0
106602.0 679866.0 0
111735.0 680010.0 0
116401.0 683073.0 0
121413.0 679996.0 0
126578.0 679407.0 0
132022.0 681044.0 0
138311.0 680151.0 0
143651.0 679988.0 0
147775.0 682200.0 0
152438.0 681775.0 0
156598.0 680050.0 0
161806.0 680698.0 0
167403.0 680820.0 0
173180.0 680151.0 0
178217.0 683143.0 0
183424.0 681044.0 0
188194.0 679020.0 0
192609.0 681524.0 0
198678.0 681681.0 0
203555.0 681968.0 0
207955.0 680449.0 0
214217.0 681207.0 0
218508.0 680906.0 0
222500.0 680638.0 0
227540.0 680780.0 0
233151.0 681315.0 0
238719.0 682788.0 0
242929.0 681337.0 0
248267.0 680116.0 0
252527.0 681206.0 0
256688.0 680941.0 0
261597.0 680125.0 0
266173.0 680177.0 0
270608.0 680473.0 0
275504.0 681961.0 0
282097.0 680604.0 0
287586.0 681712.0 0
294127.0 681486.0 0
298257.0 680757.0 0
302812.0 681166.0 0
307556.0 680832.0 0
312393.0 681709.0 0
316161.0 680499.0 0
322132.0 682351.0 0
327768.0 681038.0 0
334935.0 680223.0 0
339338.0 680638.0 0
342654.0 682791.0 0
346863.0 680551.0 0
350808.0 681353.0 0
357875.0 681084.0 0
363280.0 681089.0 0
367521.0 681704.0 0
373054.0 681567.0 0
379329.0 681822.0 0
383505.0 680276.0 0
386529.0 682709.0 0
391873.0 683115.0 0
397702.0 681536.0 0
402371.0 681341.0 0
407160.0 681417.0 0
412338.0 680427.0 0
417764.0 679015.0 0
422832.0 681091.0 0
427628.0 680875.0 0
432161.0 680781.0 0
437335.0 680679.0 0
443075.0 680499.0 0
448632.0 680876.0 0
455326.0 680582.0 0
459765.0 681560.0 0
463513.0 680226.0 0
468068.0 680417.0 0
473667.0 680457.0 0
478832.0 680415.0 0
483527.0 680788.0 0
487096.0 681140.0 0
491813.0 682209.0 0
497349.0 682306.0 0
2544.76 684077.0 0
7057.64 687114.0 0
11110.3 684807.0 0
14755.4 685610.0 0
21318.0 686338.0 0
28094.5 684688.0 0
33709.7 684052.0 0
38721.3 685892.0 0
43276.1 684965.0 0
47643.5 686245.0 0
52270.0 683798.0 0
57397.7 685506.0 0
62622.6 686198.0 0
67288.1 686286.0 0
71393.9 685685.0 0
75562.9 685688.0 0
81115.1 685581.0 0
86448.6 685329.0 0
91985.6 687932.0 0
97627.3 685908.0 0
103405.0 684649.0 0
109379.0 684986.0 0
113585.0 687575.0 0
118718.0 687193.0 0
121784.0 684937.0 0
126708.0 684722.0 0
131039.0 685965.0 0
135692.0 685491.0 0
142724.0 685354.0 0
148437.0 687416.0 0
154410.0 685668.0 0
158508.0 684454.0 0
164028.0 684959.0 0
168493.0 686272.0 0
173447.0 685495.0 0
176949.0 687388.0 0
182752.0 686830.0 0
188010.0 684615.0 0
192809.0 686297.0 0
197419.0 686689.0 0
202570.0 686102.0 0
207628.0 685868.0 0
212260.0 685637.0 0
217582.0 685602.0 0
222858.0 685637.0 0
227116.0 684877.0 0
231343.0 686202.0 0
236248.0 686232.0 0
241142.0 686205.0 0
246355.0 685638.0 0
252155.0 685587.0 0
257424.0 685977.0 0
262519.0 685051.0 0
267990.0 684910.0 0
273092.0 686793.0 0
278313.0 686581.0 0
282869.0 685124.0 0
286882.0 687114.0 0
292087.0 686335.0 0
297573.0 685193.0 0
302662.0 686385.0 0
307630.0 685353.0 0
312440.0 685969.0 0
317484.0 685260.0 0
322230.0 687475.0 0
326993.0 686993.0 0
332379.0 685703.0 0
338403.0 685851.0 0
343531.0 686546.0 0
347333.0 685206.0 0
351804.0 685019.0 0
356023.0 686204.0 0
361757.0 686635.0 0
368441.0 686868.0 0
373958.0 687033.0 0
377557.0 685997.0 0
382500.0 685797.0 0
387855.0 686425.0 0
391440.0 688637.0 0
396294.0 685797.0 0
400621.0 686083.0 0
405504.0 685768.0 0
410773.0 686176.0 0
416682.0 684696.0 0
422313.0 686782.0 0
426782.0 684798.0 0
431350.0 686008.0 0
436915.0 686522.0 0
441867.0 685653.0 0
446864.0 685832.0 0
452037.0 684406.0 0
456923.0 686012.0 0
461776.0 685332.0 0
466671.0 686116.0 0
471151.0 684091.0 0
476216.0 685834.0 0
481937.0 685535.0 0
487338.0 685721.0 0
493966.0 687388.0 0
498261.0 686592.0 0
2126.82 688661.0 0
8470.73 691969.0 0
11856.8 688934.0 0
16982.9 689519.0 0
21279.5 691218.0 0
25964.4 689850.0 0
32357.9 690168.0 0
37948.2 692269.0 0
41917.5 689641.0 0
46509.9 690988.0 0
52817.5 690236.0 0
59559.9 690201.0 0
64744.1 690358.0 0
69602.5 690732.0 0
73463.7 691549.0 0
76940.5 690235.0 0
82070.7 691644.0 0
87023.4 689825.0 0
92435.9 692302.0 0
96790.1 691713.0 0
102916.0 690722.0 0
108923.0 690341.0 0
113241.0 691551.0 0
117247.0 690415.0 0
121615.0 689488.0 0
126565.0 689820.0 0
133024.0 690695.0 0
138756.0 689832.0 0
144164.0 691683.0 0
149005.0 692160.0 0
152880.0 690207.0 0
157842.0 688967.0 0
163185.0 689564.0 0
167801.0 691127.0 0
173322.0 691143.0 0
179277.0 690948.0 0
183681.0 691634.0 0
187623.0 689731.0 0
192471.0 690803.0 0
196577.0 690786.0 0
200948.0 691357.0 0
206596.0 690995.0 0
212661.0 691054.0 0
218201.0 691041.0 0
222498.0 691112.0 0
226965.0 689415.0 0
232307.0 691261.0 0
237732.0 691181.0 0
242719.0 690284.0 0
247784.0 691612.0 0
252535.0 690144.0 0
256930.0 691148.0 0
261397.0 689603.0 0
266106.0 690040.0 0
270899.0 690792.0 0
275858.0 691538.0 0
282515.0 690951.0 0
288634.0 692219.0 0
294348.0 691786.0 0
299629.0 690385.0 0
304616.0 690865.0 0
308635.0 689632.0 0
312679.0 690793.0 0
317365.0 690287.0 0
321852.0 691941.0 0
325802.0 691194.0 0
331017.0 691881.0 0
336590.0 690830.0 0
341902.0 690436.0 0
346767.0 689802.0 0
351925.0 690024.0 0
357714.0 690113.0 0
362505.0 691949.0 0
367125.0 692609.0 0
372458.0 690661.0 0
377500.0 690703.0 0
381524.0 690753.0 0
386671.0 691288.0 0
394714.0 692155.0 0
398888.0 690371.0 0
403628.0 690904.0 0
407857.0 690142.0 0
411888.0 691913.0 0
417813.0 690859.0 0
423471.0 691309.0 0
427500.0 690640.0 0
432547.0 691152.0 0
437305.0 690696.0 0
441575.0 690809.0 0
447011.0 691113.0 0
452174.0 689662.0 0
457233.0 691037.0 0
462147.0 690240.0 0
466955.0 691082.0 0
472102.0 690298.0 0
478014.0 691917.0 0
482778.0 690149.0 0
487594.0 691536.0 0
493280.0 692658.0 0
497857.0 690438.0 0
3364.27 693932.0 0
9259.78 697117.0 0
12456.7 693151.0 0
17749.5 695865.0 0
23908.5 694650.0 0
28408.6 697381.0 0
34416.8 696457.0 0
38796.0 695704.0 0
42922.7 695001.0 0
48789.9 694628.0 0
52976.1 697291.0 0
57803.5 695160.0 0
62436.0 694489.0 0
66922.2 696070.0 0
72080.6 695545.0 0
77585.8 695351.0 0
82692.3 697370.0 0
86627.8 694394.0 0
91441.5 696553.0 0
96340.2 696687.0 0
101297.0 696719.0 0
106896.0 695227.0 0
112632.0 696784.0 0
117873.0 694992.0 0
123382.0 694636.0 0
128811.0 694134.0 0
132592.0 695731.0 0
137317.0 695328.0 0
142729.0 697405.0 0
147170.0 695788.0 0
152216.0 695918.0 0
157469.0 694053.0 0
162871.0 695831.0 0
169054.0 696048.0 0
173945.0 696505.0 0
178322.0 695913.0 0
182994.0 695684.0 0
187865.0 694997.0 0
192431.0 695141.0 0
197659.0 695500.0 0
202602.0 695827.0 0
208220.0 695715.0 0
212826.0 696858.0 0
217525.0 695616.0 0
222359.0 695664.0 0
227870.0 695116.0 0
232961.0 695829.0 0
237504.0 696550.0 0
241820.0 694608.0 0
245941.0 696736.0 0
250304.0 696088.0 0
255202.0 696384.0 0
261669.0 695352.0 0
268439.0 695238.0 0
274022.0 696849.0 0
279502.0 696356.0 0
283797.0 695860.0 0
287267.0 696976.0 0
291638.0 696310.0 0
296388.0 696812.0 0
301818.0 695562.0 0
308353.0 695297.0 0
313991.0 695399.0 0
318340.0 694638.0 0
322388.0 696294.0 0
326882.0 695507.0 0
331524.0 697496.0 0
336126.0 695802.0 0
341164.0 695792.0 0
348042.0 694470.0 0
353413.0 695468.0 0
358054.0 694077.0 0
361895.0 696509.0 0
366414.0 697295.0 0
371754.0 695283.0 0
377306.0 695477.0 0
382460.0 695693.0 0
386414.0 696076.0 0
391252.0 696482.0 0
397789.0 695118.0 0
402398.0 695611.0 0
407083.0 694926.0 0
413092.0 697323.0 0
418792.0 696949.0 0
422893.0 694704.0 0
427214.0 695453.0 0
431782.0 696477.0 0
437096.0 695452.0 0
442163.0 696149.0 0
446218.0 695880.0 0
451634.0 695421.0 0
458165.0 696163.0 0
463059.0 695741.0 0
467038.0 695353.0 0
471644.0 695793.0 0
476064.0 696599.0 0
482246.0 695933.0 0
487399.0 697109.0 0
492252.0 697483.0 0
497482.0 695726.0 0
3701.36 700858.0 0
9120.19 703878.0 0
13584.4 700922.0 0
19040.3 702795.0 0
23325.3 699449.0 0
27078.6 702621.0 0
32664.7 702468.0 0
39396.9 699631.0 0
43397.7 703570.0 0
47364.3 699369.0 0
51434.1 703265.0 0
56708.8 701864.0 0
62368.5 699958.0 0
68291.9 701545.0 0
73969.1 701501.0 0
78713.8 700355.0 0
82783.1 702933.0 0
87228.5 700230.0 0
92187.3 702195.0 0
97192.5 701114.0 0
102036.0 702052.0 0
108003.0 701674.0 0
113562.0 701905.0 0
117269.0 699880.0 0
121845.0 701981.0 0
127526.0 699666.0 0
133902.0 700451.0 0
139369.0 701413.0 0
144066.0 703043.0 0
148409.0 700298.0 0
153008.0 700955.0 0
158114.0 700273.0 0
164079.0 701992.0 0
168015.0 700258.0 0
172238.0 701127.0 0
177960.0 701195.0 0
183078.0 700291.0 0
188183.0 700429.0 0
194062.0 699922.0 0
199089.0 700790.0 0
202597.0 700996.0 0
206568.0 699990.0 0
212750.0 701646.0 0
217451.0 700513.0 0
222273.0 700613.0 0
227173.0 700701.0 0
232066.0 700137.0 0
236824.0 701655.0 0
241781.0 699785.0 0
246812.0 701831.0 0
251690.0 700195.0 0
256887.0 702343.0 0
263528.0 702067.0 0
268672.0 700390.0 0
272966.0 701905.0 0
277672.0 701082.0 0
283283.0 700597.0 0
287709.0 700792.0 0
292860.0 700848.0 0
296254.0 701264.0 0
300060.0 701136.0 0
307038.0 701766.0 0
312948.0 700431.0 0
317888.0 699007.0 0
322066.0 700804.0 0
327218.0 700679.0 0
332733.0 702463.0 0
337801.0 700647.0 0
342310.0 700449.0 0
347135.0 699763.0 0
352569.0 700816.0 0
357178.0 698350.0 0
363573.0 700914.0 0
368686.0 700605.0 0
373022.0 700323.0 0
377839.0 700857.0 0
382494.0 700794.0 0
387231.0 700109.0 0
391687.0 702122.0 0
396531.0 699443.0 0
402244.0 700542.0 0
408318.0 700952.0 0
413504.0 701999.0 0
418404.0 702932.0 0
423593.0 700474.0 0
427512.0 700379.0 0
432505.0 700637.0 0
437286.0 701293.0 0
442009.0 700532.0 0
447746.0 700766.0 0
452916.0 700583.0 0
457396.0 701345.0 0
462223.0 700582.0 0
467198.0 699664.0 0
472461.0 701670.0 0
478521.0 700641.0 0
484058.0 701289.0 0
488406.0 701105.0 0
494118.0 701162.0 0
497977.0 700575.0 0
3243.27 707774.0 0
8788.49 708895.0 0
14281.5 706903.0 0
19267.4 707668.0 0
23591.8 706417.0 0
28615.7 707194.0 0
33276.0 707906.0 0
37910.8 705391.0 0
42881.3 709076.0 0
47731.0 706219.0 0
51959.3 708366.0 0
58010.4 706479.0 0
61843.7 705624.0 0
65728.1 705783.0 0
72403.8 706287.0 0
77213.4 705781.0 0
81240.9 707831.0 0
87147.1 705337.0 0
91378.7 706849.0 0
96091.1 706189.0 0
101467.0 707056.0 0
106751.0 707657.0 0
112309.0 706008.0 0
117484.0 704622.0 0
121132.0 706901.0 0
126752.0 706319.0 0
132161.0 705322.0 0
137412.0 706352.0 0
142601.0 707938.0 0
148005.0 706133.0 0
153254.0 705671.0 0
158915.0 706471.0 0
164349.0 707601.0 0
168403.0 705614.0 0
172782.0 706395.0 0
177127.0 705931.0 0
181515.0 704982.0 0
186568.0 705464.0 0
192429.0 706273.0 0
197765.0 704697.0 0
202738.0 705552.0 0
208679.0 705006.0 0
213831.0 705935.0 0
218105.0 705656.0 0
222218.0 705689.0 0
226469.0 705513.0 0
232425.0 705500.0 0
238250.0 705844.0 0
242373.0 704860.0 0
247132.0 706835.0 0
252227.0 705439.0 0
257826.0 707164.0 0
261394.0 706889.0 0
268874.0 705474.0 0
274003.0 706303.0 0
278760.0 705728.0 0
283548.0 705813.0 0
287750.0 705683.0 0
291957.0 705531.0 0
296376.0 704491.0 0
301761.0 706697.0 0
306805.0 707226.0 0
311713.0 706195.0 0
317603.0 704340.0 0
323363.0 705663.0 0
328659.0 705808.0 0
332936.0 706936.0 0
337050.0 705417.0 0
342017.0 705003.0 0
347501.0 705384.0 0
352968.0 706060.0 0
358498.0 703816.0 0
362704.0 706630.0 0
367050.0 705125.0 0
373017.0 705844.0 0
378440.0 705647.0 0
382855.0 706137.0 0
387375.0 705131.0 0
391644.0 706751.0 0
395844.0 705052.0 0
401204.0 706031.0 0
406715.0 706858.0 0
411310.0 705339.0 0
414874.0 705861.0 0
423125.0 706181.0 0
428074.0 704299.0 0
433145.0 705689.0 0
438171.0 705660.0 0
442132.0 704839.0 0
446336.0 705655.0 0
451965.0 705955.0 0
456974.0 705480.0 0
460987.0 705902.0 0
465995.0 704648.0 0
470489.0 706958.0 0
475808.0 707227.0 0
480587.0 705153.0 0
484624.0 706442.0 0
490594.0 706085.0 0
497122.0 705405.0 0
2045.4 712899.0 0
6241.39 712670.0 0
12291.3 712295.0 0
17874.9 712307.0 0
22324.5 710717.0 0
26391.1 711471.0 0
32549.3 712189.0 0
37383.9 711216.0 0
41657.4 713620.0 0
47801.4 711501.0 0
52545.6 713491.0 0
56482.3 710478.0 0
62004.2 710927.0 0
68355.6 710189.0 0
73205.1 711332.0 0
77242.0 710746.0 0
83582.0 711832.0 0
88116.5 710374.0 0
93656.9 710997.0 0
98149.3 710351.0 0
102512.0 711830.0 0
106522.0 712006.0 0
110846.0 710924.0 0
116544.0 709731.0 0
121676.0 711611.0 0
126267.0 711994.0 0
133197.0 710184.0 0
137944.0 711229.0 0
142365.0 712792.0 0
146640.0 710877.0 0
151381.0 710452.0 0
156131.0 711902.0 0
160969.0 711321.0 0
165459.0 712475.0 0
170598.0 711164.0 0
176270.0 710656.0 0
182065.0 710505.0 0
188102.0 710865.0 0
193713.0 712235.0 0
198892.0 709769.0 0
202766.0 712085.0 0
205870.0 709607.0 0
212608.0 710580.0 0
216993.0 710747.0 0
221282.0 710592.0 0
226742.0 710641.0 0
231676.0 710554.0 0
236976.0 710679.0 0
243262.0 710321.0 0
248137.0 710773.0 0
252235.0 709998.0 0
256857.0 711107.0 0
261595.0 711142.0 0
266493.0 710569.0 0
271525.0 710680.0 0
276524.0 710429.0 0
282788.0 710586.0 0
287500.0 710652.0 0
292369.0 710528.0 0
296946.0 708846.0 0
302607.0 712190.0 0
308191.0 710730.0 0
312112.0 711570.0 0
316591.0 709885.0 0
321701.0 711079.0 0
325898.0 710299.0 0
330399.0 710950.0 0
335601.0 710201.0 0
341179.0 710540.0 0
347326.0 711467.0 0
353278.0 711419.0 0
359622.0 710660.0 0
365840.0 710868.0 0
370381.0 712523.0 0
373817.0 710615.0 0
378400.0 710933.0 0
383287.0 710661.0 0
388480.0 710622.0 0
393366.0 710660.0 0
397639.0 709827.0 0
402378.0 711202.0 0
407643.0 710412.0 0
411270.0 710154.0 0
417167.0 709923.0 0
422187.0 710879.0 0
427444.0 710322.0 0
432530.0 710690.0 0
436968.0 710406.0 0
442570.0 709549.0 0
447992.0 710006.0 0
452833.0 711773.0 0
457768.0 709651.0 0
462227.0 711597.0 0
466738.0 709938.0 0
472594.0 711152.0 0
476399.0 712506.0 0
480773.0 710553.0 0
486200.0 711252.0 0
492826.0 711973.0 0
497547.0 710983.0 0
3329.7 717499.0 0
7999.48 716497.0 0
12403.8 717186.0 0
17330.9 717774.0 0
20799.5 716317.0 0
24071.8 715909.0 0
29421.4 716174.0 0
38139.4 717402.0 0
43912.4 717027.0 0
48112.2 715848.0 0
51288.8 717810.0 0
57971.5 715147.0 0
62347.8 716086.0 0
66836.1 716144.0 0
71380.9 714874.0 0
76101.2 715525.0 0
81556.6 716467.0 0
87526.1 715988.0 0
92771.1 715865.0 0
97225.2 714522.0 0
101662.0 716330.0 0
106685.0 716305.0 0
112326.0 716474.0 0
118453.0 716195.0 0
123674.0 715717.0 0
130352.0 715164.0 0
135463.0 714844.0 0
139729.0 716754.0 0
143429.0 716146.0 0
147302.0 715890.0 0
152312.0 715185.0 0
157358.0 716411.0 0
162413.0 716316.0 0
167733.0 716170.0 0
172542.0 716658.0 0
177544.0 715348.0 0
182103.0 715798.0 0
187282.0 716638.0 0
192334.0 717129.0 0
198117.0 715308.0 0
202598.0 715907.0 0
208264.0 715254.0 0
213378.0 717115.0 0
216599.0 715224.0 0
221136.0 715640.0 0
226245.0 716190.0 0
231503.0 715254.0 0
236337.0 716204.0 0
240924.0 716612.0 0
246614.0 715813.0 0
253526.0 716106.0 0
259881.0 715937.0 0
264350.0 716534.0 0
268954.0 715640.0 0
273371.0 715406.0 0
278049.0 715747.0 0
282895.0 715148.0 0
287334.0 715152.0 0
291848.0 715988.0 0
297590.0 713674.0 0
301629.0 716877.0 0
306778.0 714516.0 0
310934.0 715857.0 0
316704.0 716055.0 0
322626.0 716439.0 0
327024.0 714937.0 0
331907.0 716351.0 0
337610.0 715710.0 0
342674.0 715333.0 0
346694.0 717112.0 0
351167.0 715924.0 0
356591.0 716404.0 0
363127.0 715946.0 0
367910.0 715590.0 0
373746.0 715826.0 0
378474.0 715726.0 0
382979.0 715546.0 0
388588.0 716006.0 0
392506.0 714318.0 0
397323.0 715336.0 0
402434.0 714926.0 0
407066.0 714822.0 0
413209.0 715275.0 0
418618.0 715603.0 0
423706.0 715034.0 0
428313.0 716255.0 0
433540.0 715394.0 0
438303.0 714680.0 0
442803.0 715271.0 0
448313.0 715197.0 0
453567.0 717014.0 0
457548.0 714425.0 0
461629.0 716080.0 0
467113.0 715681.0 0
472777.0 715340.0 0
477585.0 715969.0 0
482438.0 715804.0 0
488732.0 715954.0 0
493176.0 716463.0 0
497500.0 715634.0 0
2916.34 723131.0 0
8391.24 721250.0 0
14251.8 721502.0 0
19913.8 721847.0 0
24030.0 720203.0 0
27584.4 720293.0 0
31622.8 721155.0 0
35925.7 722177.0 0
42379.3 721405.0 0
47411.9 720098.0 0
51214.0 721665.0 0
55754.2 720312.0 0
61369.6 720592.0 0
66441.2 721279.0 0
72755.4 720889.0 0
78889.7 721209.0 0
82554.7 720719.0 0
85964.5 720791.0 0
91451.0 721384.0 0
97046.7 719480.0 0
102594.0 721931.0 0
108543.0 721204.0 0
112909.0 721264.0 0
116555.0 722919.0 0
121533.0 721682.0 0
126887.0 719730.0 0
133387.0 720853.0 0
139707.0 722117.0 0
144542.0 720097.0 0
149179.0 721544.0 0
154221.0 720049.0 0
159248.0 720344.0 0
163385.0 720862.0 0
167291.0 720365.0 0
171334.0 721621.0 0
176859.0 720948.0 0
183198.0 721011.0 0
188326.0 721404.0 0
191974.0 720174.0 0
197174.0 721089.0 0
203210.0 720623.0 0
209039.0 722298.0 0
213777.0 720544.0 0
217545.0 720667.0 0
222163.0 720814.0 0
227299.0 721252.0 0
232748.0 720780.0 0
238370.0 721001.0 0
242791.0 720738.0 0
248076.0 721583.0 0
252048.0 721716.0 0
256091.0 721721.0 0
261158.0 721078.0 0
266274.0 720680.0 0
272177.0 720957.0 0
277288.0 720370.0 0
282448.0 720470.0 0
287845.0 719153.0 0
291847.0 721808.0 0
296630.0 719190.0 0
300976.0 721742.0 0
306210.0 720160.0 0
312207.0 720495.0 0
317251.0 722549.0 0
322308.0 721213.0 0
327784.0 720377.0 0
332925.0 721001.0 0
337326.0 721076.0 0
342054.0 719618.0 0
346962.0 722077.0 0
351830.0 720566.0 0
357482.0 722472.0 0
362576.0 721013.0 0
367187.0 720037.0 0
371744.0 720185.0 0
376259.0 720451.0 0
381247.0 720924.0 0
386780.0 721161.0 0
393128.0 720230.0 0
398640.0 721398.0 0
401679.0 718184.0 0
405730.0 721797.0 0
411632.0 720521.0 0
417227.0 721085.0 0
423306.0 720698.0 0
429572.0 721644.0 0
435042.0 721378.0 0
437599.0 718210.0 0
441359.0 720321.0 0
446928.0 720900.0 0
452196.0 721601.0 0
458042.0 720331.0 0
463728.0 720527.0 0
468928.0 721122.0 0
473628.0 720031.0 0
478363.0 720806.0 0
482853.0 720596.0 0
487502.0 720910.0 0
492361.0 720634.0 0
497201.0 720623.0 0
1475.64 727012.0 0
7340.58 725876.0 0
11513.4 725140.0 0
16775.9 725614.0 0
22081.7 725848.0 0
26683.9 724684.0 0
32156.1 725925.0 0
37648.3 727043.0 0
42534.7 725900.0 0
46628.1 724836.0 0
52333.1 726244.0 0
58072.5 725725.0 0
63318.4 725449.0 0
67875.3 725712.0 0
71853.1 727006.0 0
76861.2 726192.0 0
81989.6 724900.0 0
86975.1 725392.0 0
91722.4 727386.0 0
97339.0 725907.0 0
102436.0 727204.0 0
106866.0 726224.0 0
112299.0 725695.0 0
117760.0 727709.0 0
122694.0 726837.0 0
128399.0 725812.0 0
134871.0 727552.0 0
139296.0 726267.0 0
143787.0 725386.0 0
148065.0 725775.0 0
152842.0 725531.0 0
157850.0 724642.0 0
162360.0 725657.0 0
167669.0 725417.0 0
173163.0 724927.0 0
177138.0 726408.0 0
181504.0 726009.0 0
186386.0 725962.0 0
192074.0 724820.0 0
197617.0 726712.0 0
201938.0 725402.0 0
206352.0 727894.0 0
214197.0 725206.0 0
218583.0 725899.0 0
222500.0 725971.0 0
226968.0 726897.0 0
232573.0 725891.0 0
237334.0 726182.0 0
242638.0 725439.0 0
247466.0 726429.0 0
252500.0 725974.0 0
256869.0 726388.0 0
261705.0 726256.0 0
267382.0 726197.0 0
272906.0 726743.0 0
277824.0 724905.0 0
282285.0 727669.0 0
286863.0 724658.0 0
291641.0 726898.0 0
297040.0 725295.0 0
302843.0 726209.0 0
307769.0 725628.0 0
312483.0 725596.0 0
316578.0 727386.0 0
321066.0 726340.0 0
326495.0 726183.0 0
331825.0 725441.0 0
337540.0 726661.0 0
342916.0 724597.0 0
347631.0 727058.0 0
352866.0 725973.0 0
358128.0 727860.0 0
362064.0 725422.0 0
366294.0 724669.0 0
372602.0 725044.0 0
377357.0 724789.0 0
381290.0 725622.0 0
385873.0 726778.0 0
391569.0 726608.0 0
397098.0 725926.0 0
401994.0 726070.0 0
407649.0 727528.0 0
412894.0 725473.0 0
417877.0 726785.0 0
422680.0 725877.0 0
426922.0 726464.0 0
432774.0 725590.0 0
437539.0 725935.0 0
442939.0 725290.0 0
448040.0 726406.0 0
452220.0 725473.0 0
456397.0 725629.0 0
461689.0 725549.0 0
467227.0 725993.0 0
472364.0 724580.0 0
477246.0 725627.0 0
482212.0 725378.0 0
488497.0 726254.0 0
492975.0 725635.0 0
497500.0 725617.0 0
2834.06 730840.0 0
8030.09 731146.0 0
13038.9 729875.0 0
17696.4 729952.0 0
21900.2 731378.0 0
27397.6 730800.0 0
33033.6 731017.0 0
37702.4 732483.0 0
42288.4 730618.0 0
47667.2 729811.0 0
52053.0 731802.0 0
56783.2 731082.0 0
61944.2 730379.0 0
67369.1 730675.0 0
72821.9 731841.0 0
77933.5 731509.0 0
83756.2 730551.0 0
89262.8 731468.0 0
93860.2 732053.0 0
98556.5 731363.0 0
103672.0 731805.0 0
108407.0 730542.0 0
112403.0 730629.0 0
116026.0 731761.0 0
121430.0 731433.0 0
127655.0 733108.0 0
134848.0 732738.0 0
138399.0 731327.0 0
142883.0 730385.0 0
146714.0 732191.0 0
150860.0 730852.0 0
157042.0 730199.0 0
162792.0 730445.0 0
167725.0 731343.0 0
172940.0 729396.0 0
177932.0 731108.0 0
183140.0 730751.0 0
187996.0 730827.0 0
192431.0 730317.0 0
197252.0 731345.0 0
202500.0 730848.0 0
207942.0 732586.0 0
212605.0 730620.0 0
217500.0 730803.0 0
222500.0 730672.0 0
228049.0 732204.0 0
232694.0 730603.0 0
237607.0 731099.0 0
242733.0 729974.0 0
247486.0 730818.0 0
252173.0 730291.0 0
256549.0 730693.0 0
260962.0 731243.0 0
265742.0 731358.0 0
271006.0 731774.0 0
277190.0 730936.0 0
282220.0 732115.0 0
286866.0 730911.0 0
292502.0 732048.0 0
298596.0 731691.0 0
304026.0 730903.0 0
308217.0 730051.0 0
312946.0 731292.0 0
318605.0 731968.0 0
323465.0 730428.0 0
328037.0 731343.0 0
333297.0 731006.0 0
338081.0 732153.0 0
342870.0 730167.0 0
347114.0 733566.0 0
351234.0 730958.0 0
356609.0 733088.0 0
362897.0 730996.0 0
368588.0 728834.0 0
373263.0 732489.0 0
378205.0 729282.0 0
382982.0 731016.0 0
388347.0 731788.0 0
393294.0 732012.0 0
397844.0 731097.0 0
403126.0 730980.0 0
407662.0 732655.0 0
412349.0 730654.0 0
417373.0 731922.0 0
421997.0 730365.0 0
426870.0 731738.0 0
430583.0 729038.0 0
435275.0 731520.0 0
441396.0 730719.0 0
446762.0 733187.0 0
452526.0 730502.0 0
459185.0 731064.0 0
464241.0 729606.0 0
468880.0 731473.0 0
474101.0 729295.0 0
479099.0 730306.0 0
483689.0 730065.0 0
488039.0 731484.0 0
492414.0 729548.0 0
497500.0 730591.0 0
2072.69 735909.0 0
6231.89 736012.0 0
11361.2 734920.0 0
17216.6 735181.0 0
23066.6 736399.0 0
28073.4 736244.0 0
33187.0 736404.0 0
38062.0 736934.0 0
42515.4 735805.0 0
47179.0 734960.0 0
51929.1 736496.0 0
57337.0 736630.0 0
62717.4 735574.0 0
67375.3 735641.0 0
71608.4 736826.0 0
76373.8 736167.0 0
82082.3 737429.0 0
87203.9 735221.0 0
91720.6 736741.0 0
97074.8 736172.0 0
102498.0 737397.0 0
107898.0 735615.0 0
113206.0 735953.0 0
118457.0 735653.0 0
123210.0 737725.0 0
127410.0 739091.0 0
133062.0 736842.0 0
138181.0 735841.0 0
143112.0 735404.0 0
146779.0 736224.0 0
151185.0 736652.0 0
157123.0 736578.0 0
162680.0 735521.0 0
167661.0 736343.0 0
173344.0 735679.0 0
177915.0 736431.0 0
181735.0 736031.0 0
187080.0 735624.0 0
193317.0 736186.0 0
198699.0 735338.0 0
202890.0 735513.0 0
207276.0 736956.0 0
212288.0 736025.0 0
217524.0 735572.0 0
222491.0 735700.0 0
226615.0 736726.0 0
231470.0 735414.0 0
236401.0 735824.0 0
241587.0 734577.0 0
247304.0 735958.0 0
253487.0 735492.0 0
258881.0 735888.0 0
262900.0 735705.0 0
267702.0 735963.0 0
272955.0 736464.0 0
277396.0 736495.0 0
282354.0 735663.0 0
287284.0 736092.0 0
291430.0 736704.0 0
296440.0 737800.0 0
302281.0 735720.0 0
306677.0 734779.0 0
310946.0 735847.0 0
315457.0 736883.0 0
320459.0 736836.0 0
325924.0 736721.0 0
331575.0 735999.0 0
336297.0 736197.0 0
342128.0 736795.0 0
347355.0 738492.0 0
351552.0 736348.0 0
356395.0 738907.0 0
361591.0 737160.0 0
367601.0 735785.0 0
372693.0 738883.0 0
378671.0 736812.0 0
384703.0 735834.0 0
389479.0 737152.0 0
394386.0 736392.0 0
399711.0 736338.0 0
403776.0 735928.0 0
407396.0 737596.0 0
412913.0 736050.0 0
418057.0 736574.0 0
422696.0 735393.0 0
427601.0 736929.0 0
432139.0 735602.0 0
436526.0 736827.0 0
441559.0 736541.0 0
446236.0 738256.0 0
451578.0 737138.0 0
457333.0 737540.0 0
461922.0 735975.0 0
467079.0 737511.0 0
473330.0 736041.0 0
479453.0 735759.0 0
483932.0 734179.0 0
487401.0 737888.0 0
492964.0 734997.0 0
497910.0 736773.0 0
2251.0 740404.0 0
5755.38 742064.0 0
10653.4 740822.0 0
17189.2 741655.0 0
22651.5 741255.0 0
27823.7 741554.0 0
33467.5 741854.0 0
38883.4 741683.0 0
42922.2 743599.0 0
47359.1 740747.0 0
53299.0 741452.0 0
58459.2 741992.0 0
63751.7 740934.0 0
68597.1 740613.0 0
72982.5 741429.0 0
77573.0 740954.0 0
82471.3 742630.0 0
87338.9 740619.0 0
92438.6 741889.0 0
98112.5 741611.0 0
102817.0 742090.0 0
107475.0 740920.0 0
112500.0 740662.0 0
117500.0 740688.0 0
121993.0 741864.0 0
125955.0 742834.0 0
131429.0 742362.0 0
137481.0 740915.0 0
142983.0 740694.0 0
148109.0 740747.0 0
153090.0 742051.0 0
158336.0 741907.0 0
162925.0 740568.0 0
167391.0 740887.0 0
172168.0 741558.0 0
177548.0 740593.0 0
182524.0 740950.0 0
186807.0 740730.0 0
191171.0 741903.0 0
197699.0 741086.0 0
203431.0 740404.0 0
208216.0 741469.0 0
213249.0 741164.0 0
218086.0 740666.0 0
222096.0 740650.0 0
225917.0 741012.0 0
230899.0 740906.0 0
236678.0 741032.0 0
242503.0 740487.0 0
248096.0 741499.0 0
252486.0 741504.0 0
256754.0 740154.0 0
261277.0 741925.0 0
266802.0 741685.0 0
272468.0 741151.0 0
277934.0 741765.0 0
283284.0 739930.0 0
288630.0 741224.0 0
293512.0 742028.0 0
297412.0 743460.0 0
301430.0 740784.0 0
307800.0 740918.0 0
313748.0 741756.0 0
318798.0 741553.0 0
323329.0 741126.0 0
327490.0 742506.0 0
332240.0 740920.0 0
337608.0 741525.0 0
343040.0 742705.0 0
347452.0 742445.0 0
352041.0 741757.0 0
358777.0 743168.0 0
363311.0 742132.0 0
367499.0 741612.0 0
372577.0 743376.0 0
377227.0 742163.0 0
382456.0 740766.0 0
386678.0 741557.0 0
392175.0 741460.0 0
397376.0 741357.0 0
402307.0 740848.0 0
406628.0 742564.0 0
411596.0 741157.0 0
417322.0 741934.0 0
422815.0 740488.0 0
427684.0 742129.0 0
432716.0 740402.0 0
438176.0 741483.0 0
443373.0 741988.0 0
448143.0 742129.0 0
452852.0 742888.0 0
457563.0 742167.0 0
462326.0 741054.0 0
467019.0 742824.0 0
472207.0 742283.0 0
477733.0 740978.0 0
482818.0 740865.0 0
487906.0 742997.0 0
492474.0 741158.0 0
497479.0 740769.0 0
POINT_DATA 5000
SCALARS Radius float 1
LOOKUP_TABLE default
4796.58 3979.26 3471.03 5253.55 5820.48 5782.6 4862.21 5113.21 3929.19 4107.03 4478.15 5379.87 5925.6 4501.51 4792.73 4736.58 4931.38 3485.26 4329.05 4151.94 4049.23 5337.48 6124.89 5708.81 5252.48 4780.03 5495.39 3996.0 3856.1 4665.12 3383.4 4133.88 4834.9 3850.77 6044.04 5415.48 5120.0 3863.18 2356.98 4998.37 6182.6 5492.18 5258.36 5061.3 3642.12 3163.97 5812.43 5122.66 5906.14 5484.19 7513.1 5254.28 4436.4 5733.48 4672.91 5580.89 3588.44 5645.7 5176.86 6810.52 5840.26 3672.51 6110.27 5561.06 5073.35 3615.22 5670.04 4380.59 3589.27 6716.79 3607.45 5759.91 7613.27 4951.03 5529.52 5255.32 6037.08 5096.78 6756.95 4129.43 6324.23 3843.58 3320.52 4194.5 4270.53 5344.25 5191.63 4593.7 4150.99 4216.92 4742.68 4344.58 5634.83 5495.84 6268.1 4861.06 5374.51 5320.28 6739.08 4797.52 4569.12 4298.67 5960.66 6608.73 5011.84 7034.11 6261.42 4502.5 3771.48 4043.57 4271.69 5681.38 4138.42 3708.04 5513.6 3240.09 4556.36 6082.81 3191.99 4685.34 5601.05 4929.8 3586.91 3103.0 3554.9 4015.92 5542.21 4487.31 3936.02 4044.71 5980.74 4094.62 4927.02 5546.39 5325.36 5484.83 5085.53 5351.6 4730.36 4715.55 5867.73 5013.56 3951.75 4499.64 4375.68 5542.27 5054.98 6030.06 5170.02 3557.27 4927.31 4688.68 4402.52 4517.56 4182.53 5903.42 3955.56 3761.32 4118.05 4366.19 5553.16 2938.66 4940.78 4231.61 4008.92 3942.53 3379.84 4827.82 3997.1 3260.67 5123.52 4392.68 3038.33 4333.2 7199.21 4523.7 2240.39 5091.39 5293.9 3912.37 6142.94 4727.24 4602.25 4790.08 5082.47 4763.45 5445.87 3815.26 4704.72 4177.94 4571.7 5896.46 5022.8 3784.5 3780.23 6481.79 5224.12 7042.12 4819.73 6326.39 4471.58 5873.69 4962.09 3999.48 4359.62 6946.21 2586.12 5433.8 4011.77 5499.11 3633.87 5922.5 5198.77 5987.17 6013.14 2765.2 4901.41 5110.37 5664.98 4382.74 5927.43 4651.28 4384.42 3693.63 4516.43 5481.78 5637.59 4937.14 5043.05 5816.2 5693.81 5109.54 6483.19 3829.13 5945.65 6759.9 5538.89 7021.47 5416.38 6059.59 2720.68 4955.55 5701.86 3563.63 4238.81 4468.59 5885.03 2837.58 5325.02 5200.76 5017.13 4862.64 5185.34 4432.58 6684.56 3968.64 4688.67 2635.86 5292.64 6166.5 5065.13 5936.02 5305.17 4861.08 4003.05 5390.22 4712.33 4805.87 5227.21 5697.78 4667.36 4091.31 6372.62 4295.38 5615.42 7565.34 5923.5 4281.49 4612.68 4973.83 6342.25 6691.39 4840.84 5135.69 5344.0 4020.32 6045.46 4245.72 5908.1 6048.7 6133.92 3719.84 4178.4 3095.48 4166.08 4123.6 4850.14 5163.55 3382.7 6817.32 4319.79 6098.14 4472.17 4203.26 5188.81 4730.41 6057.22 5062.71 6125.34 4527.08 5347.48 4850.01 3970.25 5147.67 3979.82 5011.31 5138.31 5264.06 4659.59 6327.9 4048.37 6355.42 4362.19 5690.56 4948.92 3115.91 4493.48 3307.12 5924.89 4002.16 4138.16 4174.52 3486.22 4684.5 6230.49 6458.82 5418.62 4601.27 5493.32 5740.68 5926.61 6051.14 5836.15 3261.21 4345.55 6704.06 3653.41 3871.88 3856.01 5246.2 4390.66 5279.39 3673.74 5205.43 6116.18 7447.37 4924.6 4385.06 4733.32 7184.19 2899.43 2924.37 3867.67 4290.3 5399.73 4660.72 3888.21 5891.05 6038.78 6902.81 6644.76 4254.17 5629.19 5090.24 5740.84 6445.94 5530.87 4310.18 7134.64 5978.9 3629.62 4187.56 4997.27 4301.06 4877.67 4290.14 6562.18 4156.38 5316.75 4541.21 4164.68 5669.65 5934.22 5624.49 5762.59 7092.87 4666.81 3703.1 3954.91 6471.55 2965.01 6643.85 3637.61 6222.42 5654.31 3745.84 5690.26 4156.2 4497.59 5965.78 4374.35 4810.12 5643.58 5215.05 4292.06 5577.04 5006.58 4602.86 3688.8 4548.16 3369.23 5449.18 5492.26 5244.78 5762.84 3937.74 4749.8 6084.86 5478.92 4778.34 5551.36 6894.71 4414.54 3091.3 5789.98 6138.47 7054.71 5489.43 3641.64 5747.75 4277.89 5054.25 4796.33 4195.44 5539.32 5360.19 6496.85 5600.93 4874.39 5541.59 4124.71 5728.85 4827.23 4911.47 5803.39 5863.59 4381.97 6257.19 3255.82 5242.73 2812.98 4065.69 5603.15 4695.45 6052.7 3798.62 3921.18 3666.57 5308.1 4907.89 4937.02 5655.21 4645.41 4786.6 4433.59 4320.28 5542.14 4218.06 5480.13 6308.71 4716.19 5514.76 3456.98 3498.2 5105.16 3066.13 4302.5 6006.16 6009.88 7055.53 5013.67 5826.04 5339.78 4143.78 4970.88 4763.66 4636.5 4940.42 5923.4 5085.71 5499.39 5644.82 5501.93 5463.38 5945.21 4938.74 5696.88 5607.14 3923.03 5975.63 5252.34 6396.74 4138.46 2775.04 3821.72 4986.77 6318.18 5586.81 3948.17 4621.75 4551.24 5358.59 4220.88 4515.71 6519.71 6640.13 5082.6 5810.84 4230.54 5094.44 3748.24 4655.49 4467.94 4850.81 6038.14 2540.31 6029.66 5527.54 5573.7 5697.4 4727.62 4270.95 4055.8 7325.81 5280.17 6425.26 5143.58 4794.96 6186.19 4839.34 5083.08 6834.49 6337.56 5525.39 3998.5 5938.34 4024.3 6394.38 5555.28 5169.36 4737.14 4686.65 5834.74 5556.96 5788.23 5581.75 6392.01 3599.45 6730.19 4907.06 3735.44 4073.93 6043.3 5952.75 6332.36 6122.55 2739.94 4931.53 4223.33 5911.67 3323.28 6695.82 6405.76 5794.24 4678.38 5448.61 5050.65 4827.33 5206.48 5513.57 5729.23 5226.0 3365.82 4538.95 5965.15 4780.2 6090.91 4946.42 5019.93 5081.78 6116.33 6263.44 6343.14 5774.97 5462.21 5750.71 5470.77 4831.47 4643.85 4004.04 4289.17 5564.02 4274.61 2965.79 6898.19 6035.6 5137.34 4481.53 5330.45 4581.13 4219.07 3610.4 6387.01 5367.52 4322.15 3092.35 5210.03 3629.96 5478.47 5351.39 6142.37 6061.47 4933.21 5375.47 4723.12 5120.49 5201.36 5262.61 6302.8 5409.61 6038.2 4005.44 5206.78 5555.88 6732.43 5028.96 3866.16 6362.12 4484.76 4840.01 2980.99 5611.2 7933.0 4455.12 5173.87 4894.16 5380.13 5711.87 5118.27 4941.22 5932.23 5791.61 3369.13 4479.66 5367.2 3043.85 5461.13 4726.76 5839.13 5495.68 5489.34 5163.9 5708.14 5537.72 3920.42 8332.24 6155.31 4553.56 5329.64 6049.55 5709.62 5835.78 4127.74 2476.04 3942.07 7443.72 3937.08 5260.34 4709.35 6586.45 4373.3 4750.78 4163.5 5724.64 5078.86 5100.1 3561.29 4963.34 3295.83 4459.28 4260.92 6250.23 5960.56 4118.84 4020.95 6313.06 3474.39 6470.3 4200.03 6062.05 5082.74 6915.83 6072.45 4410.55 7099.43 5526.14 5198.29 5423.0 5077.33 3856.59 4746.52 5413.79 6338.89 6202.55 5025.39 4714.54 5893.5 3320.11 5030.91 6022.17 5119.37 3982.23 6163.38 4566.18 3459.9 4964.09 4809.42 5024.9 4306.53 5659.17 5094.81 5972.06 5713.22 5861.71 4359.04 3183.98 3794.63 4524.28 3778.1 5152.36 4511.82 5826.64 4220.65 6820.42 4816.2 6321.41 4896.52 4751.02 3372.79 5184.56 5282.64 4715.72 4669.66 4808.52 5046.33 5607.24 5053.92 6352.26 3847.38 3818.59 4863.72 5002.48 6623.85 4262.82 5102.36 5065.11 4342.9 5069.84 4051.44 4241.89 5054.74 5941.72 5991.09 5133.97 6600.94 4788.58 5371.02 6155.1 5876.71 6262.72 5029.78 6515.84 2990.77 4888.6 4739.14 4918.77 4371.99 4219.78 3885.86 5235.29 4479.94 5453.3 6413.02 4863.27 5862.86 6049.79 3493.7 5374.98 4719.7 6939.12 4735.33 5411.85 5092.37 6444.77 6314.07 4287.63 5315.4 6449.45 3975.31 3689.45 3824.16 5572.95 3868.18 6723.16 5584.06 7111.16 3817.13 4547.19 5507.24 6851.54 4583.31 4503.89 5806.08 4997.27 4853.39 4093.08 4449.22 5543.27 4717.05 5287.2 6135.57 5998.38 4312.67 5423.8 4270.24 4989.15 5017.78 5015.69 6175.81 4727.24 6677.09 4305.57 6959.81 4829.35 5201.67 4424.7 4089.76 5526.55 3192.41 5215.15 4987.87 3315.57 5804.71 4764.96 5727.3 4242.52 5356.51 4277.88 3057.03 4087.15 4143.08 7500.97 3948.23 5228.18 5787.31 3927.99 5868.82 4050.9 4978.31 4099.77 4981.9 4537.32 4656.78 5126.91 3600.43 5131.24 5196.67 6496.67 5474.8 6607.87 3664.11 5117.47 4925.63 5882.65 4434.19 5187.7 4623.61 4188.3 6261.75 5177.64 4255.31 4094.73 4407.9 3492.19 4584.5 5122.63 4703.08 6345.13 5274.19 5516.95 4406.4 4413.85 4844.57 4027.46 4470.98 5776.37 4516.28 3627.82 4044.45 5125.78 5344.43 4373.47 5045.38 5350.88 5372.61 3686.21 6480.17 5023.15 4377.07 5101.59 3813.22 5570.3 4336.42 5243.29 7589.94 3130.65 5628.24 5856.11 3327.49 4109.88 4234.94 4562.29 5013.13 5080.66 3417.33 4926.42 4164.13 4642.34 4520.1 4947.52 5874.89 4293.03 5813.4 4389.21 3791.79 4925.44 4754.05 4951.47 6084.93 4307.28 3697.96 4739.42 5538.93 5020.12 4745.45 2631.9 5281.28 6255.18 4668.71 4758.21 7228.46 6362.14 6719.88 5978.82 5266.5 4523.88 4066.38 4948.98 5227.52 4414.48 4092.24 5163.02 7144.24 4906.82 5687.83 5004.23 6442.69 6320.71 4648.04 3464.83 4721.32 3163.78 3293.56 5274.14 4903.82 5746.28 4082.47 5511.6 4338.08 4378.3 6134.99 4989.56 4718.54 4440.57 5548.29 6766.43 2315.64 4390.41 5226.56 5599.49 5313.22 3905.51 3999.94 4864.22 3901.8 5759.46 3921.08 4190.31 5678.96 5262.19 4244.9 6070.58 6034.41 5452.83 5130.91 5402.24 4519.22 6445.22 3844.9 3695.36 3963.86 3848.93 4306.11 5935.47 3402.32 5903.66 4528.49 5004.67 5365.89 5992.26 3960.8 5070.39 4980.85 5714.58 5110.45 5208.32 5248.77 4083.97 4607.02 5153.74 3895.51 4528.09 4165.81 6291.51 4128.98 5882.89 6246.22 4188.32 5246.61 4100.38 5344.77 4723.48 5097.87 4899.11 4278.07 7267.18 6256.02 5320.92 5269.18 4406.1 5034.59 4942.77 4263.33 5080.18 4454.63 5912.61 3279.1 4403.98 4560.84 4729.43 5776.57 4562.74 5683.26 5598.74 5139.5 7493.3 4814.55 3527.05 5698.77 2477.07 6413.11 4305.16 5092.28 4965.89 5659.95 4152.85 2908.7 4453.64 4517.73 5469.47 5660.16 3838.47 2588.37 6736.03 6235.57 3623.87 5916.16 6934.37 6113.95 4050.08 4097.57 5017.5 5563.79 6171.13 5511.88 4512.11 5083.41 7055.42 5486.68 6048.86 4285.32 5490.43 5022.28 5197.52 4959.34 4948.5 4527.02 4531.14 4564.34 3838.56 4871.44 5076.35 6020.48 6375.99 5200.05 5234.29 5313.66 5419.37 4466.03 5409.33 4511.54 5196.0 4923.9 4973.78 3329.99 3947.47 3296.27 4713.25 4204.84 6243.0 6673.96 3556.85 5441.96 3435.9 5174.89 4288.3 5370.52 4652.29 5774.81 3746.31 5498.32 5027.98 5346.27 6475.1 4969.21 2691.29 2845.98 5289.52 5314.85 4305.43 5450.44 6510.17 5742.65 5592.32 5381.16 5565.13 6193.35 6086.96 3701.27 5233.78 5653.9 5046.21 4929.14 5894.61 3979.54 5304.13 5944.09 5833.06 4923.41 4497.31 5384.76 5529.42 5257.12 5243.43 4537.14 5551.9 3757.34 6415.61 4687.64 4419.71 5037.06 4541.8 5175.29 5842.56 5887.15 5412.31 3087.09 3423.15 4890.5 3981.07 5452.42 5328.22 6853.85 3497.9 2395.5 5941.61 5782.48 6248.6 3836.45 5683.61 5100.25 6894.26 4986.51 5339.38 5178.99 5383.07 4591.87 4790.78 5013.42 4247.15 6552.22 5651.07 6248.81 5273.35 4091.8 4645.58 2651.49 5512.23 5275.32 5985.29 4898.94 4178.15 4613.31 4733.04 6119.09 5788.66 5091.68 7531.29 5069.25 5048.89 5935.03 3161.47 3991.03 6390.78 7435.25 6826.57 4788.87 4495.87 3702.37 6022.72 4643.31 5527.33 6917.52 5402.21 4989.09 4880.14 4982.31 4307.48 3848.54 5941.4 5331.02 4871.96 4863.23 4402.67 4470.61 4631.83 4384.88 6887.27 6008.49 4806.34 4287.53 5612.21 5945.08 4968.03 3306.14 5490.58 4863.79 4702.06 3830.46 6031.67 4689.15 6138.12 4428.78 5409.66 4345.67 4765.72 4642.66 4752.14 5329.59 4888.12 4950.97 5512.16 3197.63 4863.96 5191.08 5203.08 7480.41 5163.77 4488.85 3731.84 4901.07 5186.3 3436.15 4151.76 4020.4 3493.47 4596.75 4933.65 5443.58 4558.46 5805.86 4049.02 4470.4 5311.03 5255.12 6169.11 5615.35 4027.09 6422.84 4502.18 5379.09 4602.85 4962.77 5872.05 4853.02 6259.23 5181.4 5670.2 4711.62 4114.24 4247.23 4268.65 4694.83 5509.42 4354.08 4256.43 5936.36 4520.62 3903.75 4755.47 4485.99 5127.16 5475.8 5314.69 6050.81 5543.46 4249.46 5965.81 4750.17 5660.85 2330.66 4177.19 4752.51 3587.05 6229.37 6718.19 5282.91 3797.33 4425.84 7256.35 4800.69 6566.1 3555.86 6386.78 4996.99 4896.39 6081.14 5480.83 4607.85 4220.46 5128.57 6000.7 5604.21 3169.67 3361.92 6710.88 5395.14 3967.48 6213.04 6622.11 3685.13 6790.73 4655.16 5251.4 3867.19 5857.79 4039.91 5276.7 5036.58 6119.63 5411.02 4752.9 4287.16 5199.44 4062.5 4435.51 5374.07 4588.7 3766.55 4579.69 3554.48 6496.52 5005.85 4216.17 6484.17 4721.02 4254.37 3374.08 4031.78 6098.1 5708.99 5687.85 5346.68 5296.29 4611.53 4285.66 4896.11 5172.53 4135.62 5801.99 5534.94 5210.48 7644.38 7552.94 6101.92 5323.3 5088.44 4998.21 4662.56 5166.79 5349.31 2976.22 4649.22 5394.55 5094.52 4946.74 2682.24 5928.32 5229.48 5475.7 4016.18 5526.75 5435.74 4244.99 5327.45 5560.26 6185.89 3997.96 4439.35 3460.94 3990.25 3691.0 3758.07 4236.14 5733.62 4407.87 5282.51 4460.92 5945.89 4042.28 4105.55 4340.76 6065.22 4221.28 4456.39 5514.84 3633.79 5421.53 5937.08 6070.3 5233.29 4312.56 4612.06 5204.04 4750.58 5926.11 6667.68 5235.11 5211.38 5089.62 4590.55 4741.26 5920.32 4255.85 5097.69 3988.3 6543.13 5149.72 5776.96 5464.25 5486.48 5301.47 3645.12 4617.55 5424.88 5415.85 8659.64 5683.95 5469.13 6027.62 5010.2 6123.03 5966.61 5711.11 4575.94 4938.72 3546.71 5768.57 5564.23 5950.04 4231.83 2435.33 6401.43 5020.71 2681.29 5094.48 3872.61 4238.4 4318.48 6132.95 5266.22 4860.33 3685.13 6004.68 4051.34 3627.55 6239.84 4635.6 4256.67 3457.48 3931.07 3405.98 5417.15 3688.16 4681.72 4945.39 5996.33 3950.63 5415.19 4612.62 3619.07 4467.04 4275.57 6385.23 2983.99 2614.4 6363.92 6205.93 4923.24 5830.72 6184.4 3828.81 4373.45 4082.57 5255.18 5169.9 3004.16 4767.78 5235.17 4779.5 4421.12 5254.49 6649.96 4303.19 5784.3 4256.57 3914.2 6088.68 4643.56 4135.08 5620.74 4778.82 6124.08 5467.84 5053.95 5266.01 5253.37 5767.9 6515.8 3685.65 5869.4 3701.16 4186.6 5895.77 4732.09 6136.49 4356.25 4216.95 4209.49 5742.74 4244.21 4947.24 3875.05 6200.54 5148.58 4199.45 7234.66 6599.66 4055.54 4233.8 5765.42 6098.95 4997.83 4893.49 5325.44 5021.88 5956.65 4498.25 4188.87 3735.24 6574.95 4074.48 6333.29 4558.47 5731.57 5997.88 5839.71 5576.92 6408.83 3930.79 4004.35 5226.97 3312.06 5180.76 3361.26 6799.4 5278.36 5865.39 4427.28 6079.11 3082.32 6430.39 3658.37 7440.72 3949.6 5703.6 6326.18 5661.62 4867.08 6631.19 6648.68 4713.74 5626.61 5817.25 4084.49 5061.98 6632.99 4537.6 5147.36 4419.61 7177.44 4563.46 5309.98 6553.94 5726.66 5460.65 5652.0 5463.41 5225.33 4929.75 4435.36 6045.22 4614.3 5134.39 3532.3 5769.98 5442.32 2221.99 3580.58 4863.01 5356.79 5657.36 3619.79 5029.47 6306.21 2978.76 2040.66 7016.27 5884.9 3876.21 5689.26 4916.22 6022.7 4940.84 5750.07 4809.67 4757.74 6045.67 3946.28 3821.94 5439.9 5367.73 3540.11 3456.47 4652.01 5421.64 4858.51 4207.54 4886.12 6419.12 4976.12 4817.16 5453.98 3991.42 4388.63 5102.75 4597.29 4200.09 5931.77 5151.21 5398.64 6817.57 3614.96 4477.04 3886.68 5703.74 5662.55 5737.92 4360.23 5365.24 5293.51 4763.96 5754.18 5008.63 3418.99 4480.95 4993.35 4409.63 5521.25 3661.9 5370.85 5949.46 3178.54 4765.02 5376.71 4448.13 5070.29 4807.28 2261.36 4266.03 5280.69 4220.03 6923.84 5407.78 5449.46 6179.96 5703.07 6113.54 4662.43 6260.79 3963.76 5528.53 6799.88 3062.43 5990.52 5426.78 2967.38 4159.35 6477.91 4237.98 6439.37 4081.97 5401.99 5580.92 5973.33 3583.21 5067.46 2511.46 4011.37 2775.69 4785.25 6519.43 5876.64 5424.46 4857.84 4908.49 4962.21 4858.44 3468.42 4673.35 4771.13 4992.42 5297.19 4351.38 4833.46 5933.7 7248.4 5280.12 4444.97 5984.81 3498.16 4409.27 4640.06 5471.74 3548.39 3673.28 4928.27 3375.28 5625.65 4301.61 6107.89 4446.84 5660.55 5148.08 4834.87 3672.21 5760.22 5938.17 4795.43 5097.95 5108.06 3573.73 4693.52 6853.04 4745.43 5831.96 4747.55 3056.7 3755.95 6234.32 4586.19 4446.06 3450.93 4270.74 5132.68 6595.03 4558.15 6218.95 5222.16 5107.23 5136.08 5558.68 3776.94 4010.57 5629.39 2684.03 6157.04 4768.61 4522.21 5075.55 5506.19 6719.94 4950.67 5227.59 6166.29 5453.6 5409.63 5294.77 4709.05 4630.82 4043.66 4813.08 5860.67 4540.86 3764.1 4835.83 5604.35 6316.56 4332.87 3091.67 6420.81 4715.58 4450.7 5151.52 5369.08 4347.74 5291.9 4009.62 2081.58 6505.78 5461.55 4270.15 6865.76 6449.64 6464.8 4684.44 4749.59 5799.69 5571.72 3809.69 3208.96 7051.9 4184.23 4144.57 5550.75 6834.41 6226.14 5466.33 3000.29 5721.05 4247.69 4514.39 4588.99 4321.21 4344.34 3583.49 5052.84 4366.74 5297.16 3184.64 5206.33 5530.49 5653.03 3718.69 4514.79 2216.82 4509.89 6752.75 5269.38 5607.3 2928.82 4222.4 4000.43 4568.41 3420.08 4912.04 4539.07 5464.68 2685.81 5591.76 4585.31 6625.18 5323.91 5097.45 6293.89 5737.75 2761.07 4983.39 5366.52 4690.55 5533.72 5533.42 4802.32 3678.08 4599.38 5246.47 4187.31 6191.29 3240.51 7422.36 5161.01 4298.15 4628.4 5832.37 6051.83 4642.93 3973.12 4263.16 3077.84 6024.75 6109.49 5567.93 5987.42 5332.65 4442.22 6451.33 5413.31 3012.99 6400.08 4743.59 5208.14 3317.83 3763.05 5092.24 5549.49 3101.75 4518.04 4766.06 4874.18 5435.19 3298.2 4953.1 5818.95 4093.99 3940.49 4406.05 4680.94 5828.35 5876.72 5236.43 5285.07 4680.14 4608.41 4187.94 5980.59 5021.77 3796.15 4801.8 7216.98 5271.02 4209.31 5718.28 6242.79 5950.45 5713.03 5849.65 5134.67 4165.21 4215.0 4936.96 4481.76 5452.78 5065.26 4304.41 6192.0 4940.28 5885.28 6579.31 3004.34 3022.6 4811.76 4914.45 4698.87 4661.03 3624.7 5262.35 4691.91 4475.83 4510.8 5889.35 5010.04 4394.56 4570.98 4275.07 5825.38 4185.61 4047.87 5742.47 3778.02 6552.21 5417.8 5146.37 7132.12 4836.16 5518.57 5151.11 5463.48 5730.33 5545.46 4527.99 4543.1 4376.7 5190.61 8325.01 3764.06 4440.81 5941.9 5434.47 6642.76 5829.22 4497.78 4243.79 5811.18 5433.65 4008.15 4887.76 4669.06 4811.32 4286.49 6184.88 5829.32 4396.25 5551.95 3918.87 2275.45 5423.42 6605.86 4383.56 5012.5 3562.79 7093.13 4516.53 4122.92 3604.14 4452.54 5089.1 2711.19 4028.32 4099.92 4884.59 3858.06 4511.7 4083.79 5263.27 6300.92 4173.54 5599.29 6038.68 5046.12 4807.4 7013.17 3805.67 4601.74 6506.86 5088.57 5580.34 3852.6 5775.31 4706.5 4603.5 4647.67 5375.12 4356.36 4892.44 5578.94 7610.49 4286.17 3684.56 5323.55 5375.1 4172.6 5313.12 5351.56 3984.88 5160.59 4732.09 4320.42 4255.34 5064.79 5480.3 7509.24 4146.81 5896.26 5388.78 6101.13 4573.72 5099.21 4917.99 5636.4 4367.78 4350.12 5227.02 5670.0 4232.16 5300.96 4344.51 5680.94 3781.77 5581.55 5193.01 3474.5 6550.44 3860.83 6348.03 5732.27 4523.39 5278.56 5146.37 6917.62 4013.38 5631.14 4343.78 3352.35 5263.3 4909.65 6523.86 7693.4 4326.48 4437.07 3449.37 5491.9 6405.0 4659.16 5789.55 4633.05 4901.2 5711.62 4798.17 4990.79 5166.79 6479.39 2895.63 4997.91 5079.22 5381.54 5810.77 4714.83 5474.15 7519.2 6355.68 4478.6 3953.55 4304.63 4469.54 4314.56 3928.53 5606.51 5740.65 3834.47 6349.67 6329.53 4590.01 6101.86 4227.41 5993.0 4803.57 5966.42 4110.59 3332.49 5354.66 4214.44 5378.23 4787.97 3746.36 6789.23 3989.7 4777.03 4246.61 6028.09 5452.36 3804.5 6486.37 5498.42 3344.57 5318.53 5220.76 4281.98 7165.9 5344.83 7046.11 3427.63 4863.97 6342.48 5756.75 4587.67 5599.7 4163.74 6969.28 3665.95 5698.96 4095.75 3603.51 4298.45 5222.51 6609.84 5135.96 3834.43 5658.37 4707.06 6074.94 5491.37 4250.88 3783.54 5268.38 3475.67 4792.39 7038.89 3863.67 4814.12 5067.56 6137.8 2735.53 5116.6 3747.03 2783.85 4356.49 4526.81 3994.07 4219.94 5907.46 6740.71 4264.91 5399.29 5971.22 4909.31 6522.59 6602.43 3568.28 5425.98 5996.66 4405.42 2995.67 3598.08 4599.81 5698.23 7300.58 3608.06 6633.61 5217.95 4867.7 5484.36 4277.24 4063.9 5291.05 5161.1 4619.2 5166.41 5067.56 2596.96 5701.75 4350.15 4139.3 6541.45 4750.49 5078.31 5391.48 4923.43 5131.15 4847.14 3950.27 5116.66 3566.79 5374.67 4981.43 4741.28 4215.2 5069.89 4157.29 6813.72 5327.75 4609.02 4896.65 4638.18 4196.37 6448.66 4453.97 6945.98 5138.2 5783.48 4701.5 4449.98 4504.35 4771.65 4840.44 5093.82 5951.81 3924.14 6918.35 4296.69 6238.32 3319.67 6471.42 5283.8 4076.59 4428.14 5164.1 6464.15 4479.11 4972.17 6685.4 5699.53 4222.77 6332.01 5527.23 4234.18 4805.33 7085.01 5980.95 6193.08 6069.3 3862.77 5887.01 5168.35 5388.39 3728.18 5335.47 5633.61 5048.19 6799.23 4888.27 4592.15 6487.56 4854.11 4998.22 5533.19 5417.21 6104.26 5583.61 6063.64 4986.71 7382.3 4022.56 5522.21 3772.3 4855.01 6208.9 4923.57 3340.09 6061.63 2279.05 4829.35 4075.28 8137.11 5484.32 6650.77 4067.96 4824.12 7104.73 6162.3 3272.75 4264.54 5261.19 3516.27 3104.96 7043.44 3831.52 4263.78 4263.65 4643.9 6106.43 5228.75 4807.35 6047.14 5467.63 5009.83 5666.95 5210.38 4642.2 5717.8 4811.22 3629.44 3683.86 5003.78 4918.76 3299.24 5293.75 6246.56 4208.41 4061.6 5826.78 2603.64 5473.72 5107.0 2856.55 6212.15 4553.68 6502.97 5361.87 4783.07 3758.22 4946.23 4757.2 4852.58 3205.68 6083.28 5561.74 5211.6 6100.73 5806.31 3556.79 4788.08 4745.79 5456.71 5470.04 3503.41 4908.75 7317.04 3971.08 6412.67 6204.65 7001.83 4482.9 5012.97 4593.7 4036.91 4349.13 5589.37 5110.11 5439.49 6379.14 6639.64 5216.26 5212.43 3687.65 5454.12 4887.52 4834.3 5478.95 6348.54 3851.85 6804.79 4066.57 5642.35 4206.98 6372.13 5156.76 5369.5 6357.47 5404.01 6101.57 6016.19 4891.38 4124.49 5535.91 3230.13 2949.12 5714.25 5955.86 6176.67 4533.37 5325.96 4848.46 4850.06 5412.24 5016.02 2779.99 7044.29 5887.38 4920.21 4581.37 4049.16 6942.34 5851.61 3658.05 3936.95 5478.11 6153.94 5526.31 6836.82 5030.15 3858.17 3644.78 4631.99 3477.1 4740.98 4078.93 3185.39 5934.82 5128.77 4501.78 7122.87 4922.49 5797.36 3572.94 4243.26 5001.58 4153.84 4820.17 5119.86 4729.42 5089.26 5244.98 5084.17 3886.72 4901.44 5415.45 3776.8 6592.93 5096.43 6156.21 6350.71 6436.74 2460.79 4456.11 4653.83 5096.24 6171.71 5039.12 3628.89 3908.98 6589.82 5769.14 4668.88 6328.42 5027.43 7307.21 5522.75 3381.82 5867.64 3619.72 4438.58 4646.51 6059.93 4565.93 5602.53 7107.63 5073.02 4831.93 6545.43 5788.97 3472.91 4023.93 6760.92 5868.89 4989.2 3274.85 4711.04 5007.21 7144.05 5494.28 4506.18 4099.26 2970.9 5206.47 6542.5 4580.06 4383.47 4834.39 5971.21 5493.89 5262.47 3512.94 4991.35 4587.7 4258.98 6761.81 3903.91 4568.64 3919.62 4127.53 5210.75 4474.83 6555.44 5658.14 4508.18 6214.73 2205.51 5175.89 3894.64 4268.19 4374.74 4532.7 4504.86 5975.23 4473.29 4198.94 6163.54 4211.82 6556.26 5684.25 5438.92 6550.4 3766.69 4891.67 6818.91 3503.65 3634.5 6631.28 6571.31 4392.65 6318.23 4058.87 5174.75 5932.07 4984.46 5948.71 4793.65 3856.53 5460.89 4532.89 5260.85 5742.09 2884.65 5807.46 4648.21 4393.16 3311.29 4549.69 6423.81 6192.77 4312.15 4583.52 6418.11 6015.02 5244.22 5832.29 5585.14 7039.98 6456.58 4159.81 4960.64 5792.98 4385.81 4034.05 5690.96 5798.38 3862.91 5366.11 3419.87 4824.81 5113.6 5944.3 3563.14 5135.5 5347.9 5851.63 4504.52 5212.92 5615.84 4464.73 4928.85 6440.38 5556.0 5545.59 4954.81 5610.53 5755.15 4835.97 3926.11 4057.17 7066.96 4467.0 4994.65 5196.92 3787.08 5644.81 5334.36 4728.55 4929.6 5750.35 4489.99 4548.45 4658.11 4551.26 5730.61 7124.45 6358.93 5064.67 3703.49 5232.85 4062.56 3717.47 6200.63 6816.66 3217.67 5079.64 996.652 5212.37 6003.78 2628.22 5058.51 4244.49 5036.98 5513.8 5188.53 4521.75 4027.63 5569.2 5350.88 5420.67 6413.15 6103.11 5048.55 6459.51 4024.31 4955.16 5844.72 3992.97 5989.05 6040.74 4054.22 7228.94 5393.65 4961.99 6551.93 4595.12 3110.13 6484.43 4625.67 3485.54 4458.64 3657.69 3492.83 6280.13 3684.15 2606.51 4438.76 6006.89 3814.65 3965.3 5372.82 4983.3 7778.01 5127.82 5124.17 5805.1 4125.9 4064.58 4234.88 4384.28 4456.26 4810.98 5091.22 6282.38 5640.72 5657.55 5727.79 5188.82 5043.14 4717.73 5072.5 3904.07 5748.9 3663.0 3742.31 6304.49 5134.72 4608.34 6419.64 5464.83 2781.96 4431.23 5917.34 5601.55 4462.87 6545.99 5630.9 4554.68 4368.28 4692.32 4945.0 3127.83 4212.15 5114.07 4385.49 4263.18 7142.95 4383.68 6618.21 2617.39 5144.44 4051.18 5969.37 4928.35 5034.69 4509.46 3538.53 4680.69 6500.49 5965.58 3352.34 4901.29 4050.03 4775.04 4120.07 4882.66 3429.57 6746.66 5410.33 4642.74 6735.97 5305.59 5416.45 4330.58 5754.6 3288.01 4904.51 4147.31 2202.77 5751.15 5950.88 4149.55 4441.22 5853.89 3380.69 4140.4 4386.8 5446.4 4725.01 5966.75 5510.9 4505.28 4883.63 4971.29 5510.45 4730.14 3994.39 6119.99 4618.73 4128.1 4446.58 4402.17 5401.4 5053.15 5910.86 6239.68 7320.78 4834.44 5782.43 4027.33 3873.92 5026.76 5023.41 4092.07 4546.44 4224.3 4184.21 4700.07 5273.37 4732.37 4985.3 5713.36 4749.18 5553.94 4546.96 5424.55 4921.1 3814.16 5695.79 3622.8 5414.58 5577.41 5740.98 4346.07 4013.86 4177.47 4218.16 2918.64 4140.92 4512.07 5984.8 5236.24 4585.04 5678.58 6570.35 4242.63 3269.54 4559.74 5836.26 6666.67 6063.44 4583.94 5046.31 1937.5 3844.54 5849.53 4651.99 4420.11 5863.0 6127.39 4972.18 4607.18 4124.76 7200.89 4813.33 4952.52 3840.21 4081.34 4954.76 3908.56 4844.83 5244.78 3636.15 6114.89 5135.63 6384.7 4355.83 6870.97 5351.86 6056.87 5474.01 5307.35 6201.86 7554.58 5166.89 3639.44 5491.63 5725.37 3868.62 5138.33 3743.76 3425.69 6711.21 4236.86 5393.76 4941.02 3864.92 6010.59 2955.36 3668.93 4009.24 7541.76 4775.49 4681.29 3220.29 5749.6 3845.9 4439.71 5667.51 4708.31 4198.9 5431.29 4833.67 5325.91 4213.05 5157.38 6203.03 5235.87 6089.45 5810.17 4966.07 4400.14 3669.32 4704.92 4316.0 4287.25 4392.75 4271.07 4420.6 5287.25 4770.51 4184.47 6511.37 4012.92 5759.79 4598.54 5218.42 4933.49 6139.64 4896.43 5463.06 4639.8 5260.52 3185.09 6102.49 5114.23 5495.0 7407.91 6015.22 4454.74 2904.46 4826.52 5120.92 4337.32 5241.75 4731.53 3763.9 4788.7 5084.5 5640.12 5329.76 3899.7 2403.72 5134.33 4147.49 4802.98 4833.55 3646.95 7224.99 6334.53 4749.96 5377.37 5652.87 5483.7 5018.69 3152.86 5952.38 3896.27 5807.52 5963.36 5230.02 5087.14 4342.18 5169.48 6016.08 4731.21 3124.7 6064.71 6102.98 6060.17 5153.18 4763.4 5902.67 5454.11 3779.45 5806.61 4983.1 3682.35 7123.04 3756.96 5906.57 4932.29 4990.23 3784.94 5499.59 3125.13 4141.21 4174.44 4564.41 6331.74 5951.86 4252.18 4659.88 3791.41 5853.12 5702.4 5069.9 5473.89 3673.6 3306.84 5265.21 4657.24 5866.42 4762.1 3987.69 6502.99 6219.34 4191.01 4475.38 4589.06 4920.88 5890.25 4216.44 3999.5 5034.05 4816.51 5345.73 4770.63 3990.94 4756.8 5477.8 4462.35 3986.41 4241.68 3469.18 2945.34 4489.29 4301.93 5064.23 6061.85 5512.44 6449.06 4924.07 4685.4 6240.42 5146.0 5721.14 4577.73 4987.28 4918.64 6638.25 5078.59 4759.99 2646.13 5419.57 5162.67 5760.98 4705.68 5469.35 5384.86 4019.34 4658.24 5869.67 4311.48 4899.73 5457.66 6394.19 5973.89 5366.22 6193.73 5518.11 3742.11 5712.35 5701.52 4743.9 6776.22 5321.17 3719.11 4467.13 3877.8 6273.6 5136.87 5024.32 4708.17 2741.2 5790.42 5784.37 3142.09 5591.77 5182.13 6110.48 6245.52 3954.77 6793.1 6016.87 4506.66 6715.73 5209.55 5426.4 5763.05 5129.68 5357.39 5076.84 5247.01 4208.37 4841.7 5685.74 952.938 4678.7 3450.07 6215.87 5191.26 6060.06 5544.27 3484.81 5308.33 4666.12 6023.07 5674.63 5340.05 5995.4 5322.11 5700.79 6710.14 4426.02 4711.15 5188.22 4841.23 2804.54 4357.11 5005.6 4176.32 6069.78 5532.75 6949.65 4095.83 3372.95 5676.61 5846.95 5268.15 5819.0 6347.72 3460.93 3200.6 4629.02 5914.5 6006.16 4288.45 5407.96 6206.98 6562.03 4815.47 4368.12 4365.58 5214.4 4636.53 3629.49 5766.05 5117.64 3835.81 4869.48 3623.19 4906.11 4387.39 4564.1 5825.55 5509.51 4848.14 3199.4 4316.5 5254.24 4192.21 3597.43 5144.56 4158.91 5311.55 3360.86 4869.25 5545.21 4333.87 5684.05 3667.93 5638.7 5813.79 4644.88 5293.13 7350.26 3768.46 5167.53 5003.3 4168.52 5800.81 5106.46 4068.31 5166.05 5077.29 5515.73 4850.5 5866.91 6405.69 2820.07 5679.74 4825.73 5288.33 6296.54 5797.21 6019.35 6740.35 6028.63 4550.92 5146.1 6485.77 3869.39 5960.5 5393.43 6896.55 4685.65 5377.01 6470.23 6506.63 4140.04 3495.3 4697.49 5735.08 4726.2 4750.81 3825.48 3810.68 4196.62 2809.19 4916.7 5486.89 7208.19 4549.51 3587.93 4975.85 5695.25 5323.95 5716.42 5701.63 4620.95 5368.93 4488.39 5124.86 4927.73 4602.57 3565.32 4608.62 4071.75 4626.72 5131.77 5549.71 4410.82 6443.99 3889.98 5193.58 5399.43 5695.44 3422.21 3916.42 5429.3 5510.96 6653.07 4745.16 4697.91 4584.81 5071.98 5719.79 4371.08 7261.51 4968.14 4914.03 5086.29 5527.13 5139.18 5551.43 3034.16 5049.99 4201.03 5001.87 4493.79 4279.44 4899.19 5058.34 4028.22 5575.11 5487.63 3852.82 4507.36 7145.73 5403.97 4795.08 6562.92 5501.73 3671.06 3612.44 7035.54 5233.76 4683.28 4217.36 6549.8 4851.18 4165.36 4871.77 5811.26 5062.77 4884.93 6075.99 5262.79 5927.2 4419.79 5407.69 5152.78 4117.9 4753.76 4781.9 4638.09 4441.91 5330.26 5939.22 4668.8 5125.17 4859.01 5524.45 7133.44 3953.26 4474.39 4658.59 6478.35 5453.77 4104.04 5589.53 5593.79 5025.42 5196.08 4517.29 4495.75 4849.5 6171.01 5796.26 4603.04 4870.94 5271.88 6121.56 7168.2 3763.85 3419.07 5710.33 5344.44 6432.8 3186.07 4369.86 4967.51 5173.82 7212.97 5490.64 5034.34 3769.2 4507.46 5036.14 5603.68 4944.51 5610.95 5532.72 3220.8 5179.17 5579.39 5270.51 5148.1 5490.75 5224.64 5949.73 4312.48 5783.94 6370.33 4278.57 5081.08 6318.25 6864.06 6008.81 4932.56 5192.49 3487.31 6643.4 3918.94 4674.9 5461.72 6599.28 6224.85 4556.19 5368.66 5648.78 6875.73 5226.42 4697.24 4983.43 5117.52 6311.89 6734.39 5942.45 4150.76 5005.72 5368.52 5155.28 5388.73 5205.38 4764.83 4600.71 3957.38 4494.15 5035.71 4710.88 5300.17 4057.4 5534.23 6025.77 6815.96 5339.6 5828.25 4725.11 4215.05 4271.93 4604.1 5076.11 5990.75 5600.21 5459.92 4625.53 4096.47 5114.67 5353.66 2638.82 5030.33 5234.2 4965.24 6379.38 6257.79 5353.23 6229.83 4468.26 5578.18 5293.37 5933.54 5559.79 5879.24 4571.74 4096.86 3622.48 5001.51 5385.86 5115.42 4082.4 5482.76 3745.02 3720.7 4211.36 5698.53 3604.31 4450.49 3468.45 5635.32 4526.34 4316.45 5409.08 5042.75 4598.92 5241.22 6647.08 4979.52 3422.29 4407.79 5214.63 3495.68 3990.96 5352.24 7362.42 4202.77 5836.14 5473.05 4373.2 5537.34 5884.99 5726.42 7025.09 4433.12 3392.26 2549.95 4361.24 5138.93 6406.8 7086.69 6170.9 5833.78 4436.48 6081.3 5615.35 3967.76 6213.24 5987.88 3579.59 4228.53 6123.46 6142.88 5111.26 4574.54 4949.55 3132.34 1969.87 4841.28 5507.38 6889.5 4416.87 4052.43 4896.67 3934.11 5158.44 4466.22 6153.71 5917.08 5483.37 3626.86 6371.96 5322.07 5770.07 5101.6 4282.11 5467.51 2347.41 4542.16 2030.03 3543.37 5527.27 5104.39 4612.13 5846.6 5327.05 5438.55 4434.65 5977.66 4523.81 5106.33 5198.94 4028.35 5464.05 2980.31 3148.79 5740.78 4796.12 5997.91 4742.82 6791.86 4209.0 4930.72 5728.58 4887.73 6297.99 5378.24 3856.73 5817.74 5887.71 5661.6 4827.61 5285.75 5385.03 5481.64 5673.75 5360.67 5968.54 6263.3 4501.05 4537.03 6548.29 4114.2 4326.06 5034.46 5757.29 5793.12 5469.17 5061.75 3769.24 6022.78 4087.32 6647.85 2569.12 4161.32 5161.74 7336.37 5099.9 6945.69 5118.86 4183.4 4304.64 4733.79 4823.06 5758.98 5254.49 5288.64 6828.8 6883.86 3350.99 6161.94 4065.28 5057.59 4461.14 5285.6 5615.06 5490.54 5203.54 4047.95 6142.94 5001.69 6581.56 3980.46 5383.9 3798.09 3886.56 4496.51 4511.05 6561.94 5259.21 5418.12 5934.05 4714.66 6771.18 4984.17 4656.01 6589.13 4037.86 5602.62 5714.51 5628.97 4484.78 5157.73 5847.91 4934.66 4109.44 4903.84 4290.49 6688.53 5209.5 5065.74 5791.25 4873.23 6731.89 5410.6 5453.2 6348.93 6824.53 4332.64 5232.16 4422.23 4820.68 6031.22 5485.84 6424.77 5453.69 5918.95 4538.89 5689.56 6556.86 3242.31 6099.28 5372.25 3234.26 4169.15 4778.37 5134.17 4074.16 4904.35 5592.54 3247.97 5124.34 4904.37 4358.81 4651.64 5729.92 5016.46 6224.13 4761.84 3661.67 5517.65 4009.68 3303.49 4622.73 5256.75 6351.89 5932.28 2960.5 4975.32 4298.7 3902.48 6030.39 4905.53 3799.01 7392.65 5319.1 3757.23 4181.93 6570.43 3820.19 4979.5 4745.37 5939.29 5418.98 5575.11 4052.49 5061.74 5326.03 6189.67 4948.96 5256.82 4013.86 4061.87 5165.31 4288.5 5715.51 3721.69 3456.3 6074.39 5317.83 5092.93 5881.93 2803.01 4444.0 6182.19 5327.39 5781.62 4981.81 4138.59 4970.55 4938.33 4621.33 4541.22 4946.08 3539.68 4984.01 6217.33 4557.1 6270.59 5927.1 6175.27 5876.51 4103.76 2932.52 4733.41 5264.83 3901.53 5136.51 6815.51 5313.86 4457.05 3989.26 3618.64 5703.84 4335.79 3530.82 5797.32 5432.04 3921.27 3702.45 5265.63 4898.29 4431.06 5730.2 4830.13 3494.16 5370.9 4529.77 4325.13 6172.27 5390.33 5078.73 5278.54 5729.0 5192.92 5275.57 4179.87 4786.66 5891.25 5370.1 5129.4 5114.51 4655.37 5585.25 5023.61 4672.86 6530.78 5560.23 3043.77 5237.55 3909.94 5088.64 6589.8 6920.92 3729.16 3783.36 3038.91 3922.28 4571.57 3445.92 5236.69 4586.82 6026.04 6200.05 5859.17 4034.41 5522.34 5771.98 4420.35 5717.45 5117.83 5268.27 4645.93 5448.64 4585.37 6417.61 5395.12 5783.69 5350.9 3483.61 4256.08 4460.89 4399.52 4554.24 3939.96 5910.66 7415.84 4637.3 5141.03 4840.44 8123.59 5765.14 4767.54 5121.08 2927.84 4696.03 6177.68 4605.39 2848.44 6045.26 6500.45 4907.55 4094.63 4286.61 4603.66 4969.68 6636.43 5431.14 6298.8 3689.24 5178.07 5189.91 5777.26 4171.02 7012.36 5028.06 4002.99 4886.99 5159.67 3161.1 5764.52 5684.88 6523.78 4645.86 4045.67 5620.88 4941.52 5900.0 4262.74 6241.77 3783.79 5317.19 4248.14 5279.19 4016.6 5821.49 7050.08 5580.44 5998.13 5095.52 4746.15 3720.38 4758.84 4731.37 3976.0 4068.41 6463.71 5059.37 5783.38 4139.39 6264.03 3562.8 4151.74 5192.82 4174.22 3573.84 4067.89 6294.09 5131.07 4121.07 5524.28 3133.28 5731.43 6353.81 3518.14 4150.44 5044.68 2649.69 5899.78 5000.74 5772.57 4813.81 5244.95 4634.25 5901.8 6351.48 3830.7 6210.0 5432.4 4262.52 6738.9 5992.06 4157.1 8052.53 4867.12 6044.01 6520.19 1458.87 5734.07 3997.68 6033.28 4819.83 4801.16 5071.38 5616.66 5688.77 5368.28 4698.7 6229.64 4220.43 6263.87 5743.8 6666.34 5084.76 6605.11 4757.87 3557.46 5971.95 5652.73 3979.46 6321.97 5151.19 6509.54 6119.0 3792.06 5128.59 4293.3 5587.3 3572.73 4864.38 3770.22 4390.64 5150.84 4608.01 5087.97 6005.95 4308.49 4930.17 4581.1 4745.44 4085.96 5762.82 7360.12 6223.98 5462.6 5617.29 3035.06 4262.19 4597.88 4878.93 6275.25 6892.33 4505.3 4452.36 4511.34 4832.21 5009.21 4742.35 5394.79 5645.54 5264.08 4526.87 4691.01 4594.89 5245.95 5821.42 4515.02 3463.53 6126.03 2970.24 4197.87 5105.54 5462.1 6032.45 3414.67 5444.36 4026.03 6908.32 3467.11 4817.75 6153.26 5637.53 3882.37 4095.4 5188.57 3873.79 5357.33 5252.37 4499.54 5037.58 7430.48 5640.67 5545.68 6080.69 4970.12 4967.93 6369.66 5973.57 5922.62 6241.48 5125.45 5957.82 6286.27 6327.54 5507.07 4802.36 5327.71 5466.13 5257.38 5075.23 4975.56 7282.36 3826.01 4645.91 5581.01 6834.92 6379.33 5130.57 5090.48 5402.45 3985.93 6412.84 6071.59 2589.19 6079.55 5485.61 4993.49 5310.33 6583.37 3688.83 3402.44 4848.98 4491.96 5184.98 4467.51 5339.82 4519.03 5460.57 5110.27 5703.34 4612.68 6668.98 6649.52 4232.33 4939.56 4747.68 5770.92 3093.38 4845.91 2002.78 5631.32 6322.0 5793.14 4491.26 4609.65 5704.61 5410.73 4379.91 4574.03 5290.37 5850.38 4227.66 4730.97 3677.85 5214.71 4677.84 4811.11 4924.52 4866.8 6044.69 5658.05 6593.1 4000.51 6033.93 5011.37 2827.92 4441.44 4232.44 5336.61 5563.09 4848.15 4439.09 5523.81 4718.61 6697.45 5717.67 5515.59 3224.81 3775.38 4046.22 6457.89 4844.2 6572.17 3751.73 5555.89 4766.47 4871.1 5678.08 5872.45 4414.09 5191.29 3784.68 4188.16 3717.22 4654.92 2943.17 5286.55 4880.78 4322.56 5509.09 5625.02 5212.05 4829.77 3928.99 4444.92 6959.88 4125.75 5749.53 5247.73 5034.02 5582.28 5945.25 5181.31 3856.4 4696.06 4137.16 4937.36 5308.4 6581.13 4569.32 5537.61 6084.88 4397.06 4199.44 4053.12 4479.5 6261.67 3435.13 5065.78 4431.46 4521.42 3207.84 3977.98 6043.34 4128.93 4959.72 4712.17 3808.04 4723.71 4461.67 6126.5 4034.88 6007.1 6345.2 5488.96 5128.03 3720.92 5087.3 4942.63 6139.74 4975.57 7066.26 3057.3 6150.31 5873.62 4996.91 3920.44 5379.52 3768.62 5314.67 5563.47 5651.46 4066.36 3162.27 5516.37 5092.44 5432.2 4612.4 3312.3 4746.19 6381.58 3282.57 4798.13 5648.59 4630.5 6296.36 4432.32 4451.76 7885.41 5782.25 4104.97 4575.72 5114.61 6118.13 3374.62 4926.62 3917.09 6009.93 4083.1 5270.1 5130.56 4947.64 6305.9 6649.21 3470.69 4859.95 4132.08 5522.18 5223.1 3873.72 4592.49 3625.98 5479.86 6474.5 4702.32 4763.04 5971.9 3746.62 4532.67 4876.37 4769.62 5260.13 4649.5 4810.74 5985.75 5475.83 6189.29 5984.55 5672.46 5803.3 3228.27 4721.98 5252.82 3543.98 5056.26 5878.55 4014.44 6604.72 6002.77 3794.47 4610.55 4967.02 4614.49 5400.69 4462.5 5573.31 5004.68 4023.88 5348.11 4405.61 5108.84 3511.5 4520.14 5067.92 5357.14 3188.21 5919.27 4793.06 6637.38 6188.33 6111.23 6916.18 5786.06 4137.41 3868.69 5447.74 4450.51 6033.72 3851.47 4966.74 4959.94 1635.31 5639.4 6185.73 4083.24 6520.96 3771.91 5217.62 6178.19 4616.81 5715.25 5212.2 4611.21 5108.42 3354.94 4404.87 5237.27 5767.65 4750.76 4907.03 5497.27 4081.77 4948.21 4987.01 2181.29 4420.3 6332.64 6492.44 4613.32 3482.73 3996.93 4957.99 4063.26 4997.89 4542.62 5093.28 6131.52 6009.88 4699.77 4850.49 4981.55 5144.23 6188.62 6153.07 4414.06 5944.52 4413.56 5050.2 2513.38 5316.05 4908.32 3995.08 5019.84 3900.93 5784.38 4149.17 4329.8 5728.27 3074.49 5202.33 3956.24 7558.99 3393.59 4142.1 5043.14 5333.04 5445.91 4521.99 4812.59 6842.54 7115.67 5675.45 3361.11 6038.56 2807.46 5599.16 4179.8 3488.34 5658.35 5428.24 4487.51 4582.12 4295.25 7394.47 4729.45 4850.95 5374.09 6271.22 3421.81 5378.75 3920.64 6186.24 5822.7 3780.07 5466.49 4038.17 5007.41 4907.48 3692.99 6213.74 2329.93 6938.87 5412.07 5512.57 4806.99 4813.55 5856.43 3839.0 5349.85 5799.86 5172.1 4362.94 4469.82 6545.78 4870.14 2932.2 5105.72 5003.49 3964.03 4216.33 5832.72 5617.91 4721.2 4706.31 4202.12 2694.25 4735.99 4203.68 4739.56 5145.39 3352.46 6351.95 5195.09 5345.05 7679.2 4881.51 2626.41 4311.92 6729.99 5093.41 6842.35 5464.34 3621.63 4777.96 5801.89 5908.57 7296.47 5742.39 4821.41 4924.53 5616.11 4499.52 3874.12 4028.13 4457.73 6476.35 6260.58 4067.24 3053.19 6571.26 5580.95 6598.99 3549.92 4032.06 5246.81 5089.1 5888.95 5394.78 3463.34 5122.38 2853.68 5262.85 4998.37 5329.84 6559.82 3879.83 6565.95 4577.98 5043.34 5886.81 4246.24 6805.02 5354.48 5640.63 4900.26 6261.13 4167.55 4720.34 5244.47 4731.16 5510.89 6470.87 4495.33 5282.67 4159.89 5178.55 5146.69 6203.24 6818.23 4488.41 4369.87 6679.12 5652.19 5806.74 6578.62 6284.12 4796.04 3465.03 5229.56 6011.4 4672.34 6052.22 5376.41 5003.63 4695.7 4944.08 4082.01 5269.39 4305.35 5210.22 2451.27 3903.9 4444.95 5161.02 3124.49 6265.48 5003.81 6262.18 3818.37 4701.03 6225.05 5434.04 5200.1 3997.52 4444.54 5779.9 4909.74 5310.33 5299.03 6664.54 3922.98 5161.73 5259.48 5254.93 4803.4 6833.5 6608.94 2613.78 4780.16 3834.01 5738.37 4433.23 4813.24 5759.19 3113.64 4490.2 4304.75 5480.86 6139.9 4720.22 4313.38 5827.3 5250.56 3633.58 2468.16 6294.14 4339.97 5203.75 5169.09 4691.15 2459.88 4210.24 5470.67 5901.71 5225.11 5342.9 5252.22 5733.12 4962.35 6436.29 5402.81 4600.81 4919.13 4124.33 5168.97 5783.88 5002.38 6705.93 4865.11 5449.09 5502.14 4605.61 4465.56 4131.08 5747.9 3864.19 4287.93 5315.71 6158.93 5081.65 4823.14 5438.5 4621.32 5699.4 3878.8 4698.94 3948.21 5669.15 5296.05 5263.86 3330.85 5056.32 5533.52 5410.33 4747.24 4380.86 5576.16 5648.02 3308.75 4439.17 5677.42 4929.35 5606.22 3943.77 5242.38 6081.35 5459.52 4609.98 5566.5 5663.36 4276.59 5579.04 5125.53 5994.21 5403.81 5082.25 6964.78 4374.05 5036.84 4565.36 5813.68 4025.08 4008.67 3618.53 4770.21 8013.28 3846.55 3796.73 5417.07 3082.16 5656.84 6789.66 4739.41 5312.2 5847.27 4706.59 5734.84 3982.31 4950.07 4582.24 2832.83 4084.87 6036.99 3010.1 3825.98 4589.22 5087.03 4667.84 3906.41 4123.08 4512.6 4260.38 4636.45 4932.27 5638.51 6793.49 3563.33 6060.19 5536.0 6786.37 4333.23 4328.76 5561.63 5940.5 4358.06 5093.51 5647.93 4280.92 6201.49 4696.92 5154.74 6437.99 6898.8 5386.95 6540.57 5332.11 4893.72 6004.72 4072.4 5373.78 5345.65 4489.18 5863.36 4632.75 5237.76 4994.98 4286.84 6423.96 6058.13 5894.69 6988.4 6635.51 4060.17 6051.35 5302.53 4909.13 4287.61 4867.13 4604.34 4863.27 2701.42 5442.79 5051.39 6673.92 5151.68 4884.94 5362.15 4455.61 4738.72 4752.31 5240.97 5569.85 5405.6 3929.35 4884.93 4759.38 6960.97 4287.15 5282.51 5504.65 5669.41 5732.11 5040.9 5596.68 4868.66 4004.39 5159.9 5283.65 4644.68 2892.36 5981.54 5911.29 5416.41 4694.27 6760.64 2515.5 5177.88 5551.79 6981.47 3916.15 4474.96 4758.76 4790.63 5259.29 3584.05 4916.75 4818.53 5097.85 5584.64 6189.04 6224.64 4221.03 3799.55 5082.66 4550.77 4337.93 3550.88 4345.51 4048.73 6223.33 3860.8 5145.13 3747.96 5611.29 4521.88 6568.45 5004.22 4601.54 7263.57 3832.09 5705.96 5267.65 5739.69 6632.04 5360.88 7360.62 4977.64 4985.45 4983.56 5699.51 2489.44 5499.37 4883.13 4836.76 4752.94 5551.09 3950.53 4501.1 5581.47 4384.91 6550.61 4987.01 4713.56 6094.34 6779.82 5543.67 3999.81 6210.48 6377.45 4182.05 4502.12 3255.93 6853.07 6327.61 4633.59 5733.59 5575.8 5268.93 3695.72 6874.6 5106.9 5306.31 5523.96 4223.53 4733.37 4535.94 3037.72 4523.9 5126.08 5604.0 3760.4 4951.02 3919.47 4602.7 3783.35 4037.16 6395.63 4987.48 5943.61 4248.58 5479.17 5020.37 4542.25 4414.23 5233.88 4849.21 4785.55 3793.83 5245.4 6189.81 5367.05 4449.73 5647.11 4088.72 3945.62 3743.85 6236.46 5342.17 6379.3 5015.67 3795.63 5189.4 4576.71 6538.04 4894.15 6157.59 5201.3 5848.41 4090.28 4246.83 5438.6 7370.52 4726.5 5467.05 3724.23 5103.3 4963.88 5888.94 4727.98 4122.2 5175.88 4516.26 4790.16 3509.34 3647.26 3731.58 3166.37 5369.42 5207.08 5205.53 4714.52 4587.19 5543.05 6028.89 5333.16 4888.17 5755.98 5392.85 5077.2 4274.05 5275.27 4277.54 5529.09 4531.46 5925.82 5448.68 4739.5 4072.95 4491.62 3865.5 
SCALARS Velocity float 1
LOOKUP_TABLE default
0.997109 1.04957 1.63873 1.43662 1.22444 1.26578 1.33851 1.18679 1.1944 1.19178 1.19178 1.19982 1.19178 1.19178 1.21602 1.19178 1.19178 1.23038 1.19178 1.19167 1.19106 1.2265 1.19178 1.19178 1.19178 1.19178 1.19178 1.19178 1.19178 1.19178 1.19178 1.25402 1.19178 1.24912 1.19897 1.21101 1.28807 1.22703 1.19178 1.21389 1.22676 1.19171 1.29224 1.19096 1.18977 1.19981 1.1974 1.17723 1.21723 1.22234 1.2059 1.22017 1.20161 1.25247 1.21876 1.20957 1.17809 1.1951 1.19021 1.2202 1.23764 1.15829 1.20323 1.18732 1.19405 1.17105 1.19472 1.23456 1.16867 1.25156 1.16221 1.18554 1.2625 1.23114 1.24875 1.24036 1.20761 1.31992 1.22143 1.23805 1.29874 1.2892 1.19178 1.19178 1.3448 1.19178 1.24971 1.19178 1.24224 1.25219 1.31991 1.24818 1.19057 1.34091 1.39196 1.20934 0.862293 1.68176 1.5834 1.24889 0.504867 1.23048 0.415759 1.30733 1.23444 1.30199 1.2822 1.20454 1.16862 1.25116 1.19178 1.19949 1.19144 1.20036 1.217 1.19178 1.19321 1.23033 1.19178 1.19238 1.19178 1.25163 1.19178 1.19178 1.19178 1.2361 1.19178 1.19178 1.21469 1.21296 1.18981 1.25324 1.1811 1.24824 1.20163 1.21156 1.28254 1.23287 1.19579 1.2264 1.23857 1.20545 1.29234 1.16604 1.16681 1.20889 1.23 1.1872 1.17845 1.23234 1.21037 1.21802 1.21173 1.26197 1.21433 1.20464 1.17702 1.19178 1.18955 1.22324 1.23538 1.19178 1.19178 1.19178 1.26044 1.19178 1.19178 1.24736 1.20535 1.19178 1.16788 1.19178 1.26718 1.30009 1.22431 1.21344 1.24432 1.30367 1.22352 1.19474 1.28417 1.28785 1.30785 1.26756 1.34847 1.19178 1.24969 1.19178 1.24666 1.26283 1.32373 1.25089 1.1666 1.33305 1.1506 1.32613 0.800028 0.478498 1.19916 1.59015 0.429288 1.1308 1.19392 1.30073 1.26828 1.18811 1.19178 1.18846 1.19076 1.25859 1.09143 1.19857 1.18557 1.20018 1.22188 1.19024 1.19331 1.22685 1.19178 1.19238 1.19178 1.24611 1.19178 1.19899 1.19142 1.25335 1.17822 1.15857 1.23375 1.21314 1.14301 1.25477 1.26997 1.21633 1.23059 1.2207 1.27392 1.23181 1.19332 1.22462 1.29394 1.19186 1.28215 1.18503 1.24331 1.24056 1.22249 1.19178 1.18303 1.24917 1.21129 1.2099 1.21031 1.2555 1.21506 1.23812 1.18043 1.1916 1.26377 1.22375 1.2428 1.22599 1.17486 1.19805 1.25625 1.15138 1.16094 1.2575 1.23342 1.18922 1.14253 1.51386 1.24562 1.31246 1.21868 1.22245 1.294 1.23766 1.23235 1.2 1.26323 1.26904 1.20145 1.27344 1.36709 1.22047 1.25242 1.27733 1.24919 1.25642 1.20948 1.19178 1.17166 1.19178 1.24622 1.00532 0.812169 0.457694 1.20286 1.34943 0.659866 1.17758 1.22262 1.28212 1.25476 1.16948 1.09185 1.18781 1.18652 1.263 1.19382 1.20619 1.26597 1.19024 1.24781 1.21907 1.1934 1.21802 1.18869 1.19311 1.18925 1.2359 1.22372 1.2077 1.22494 1.19178 1.18704 1.22284 1.19178 1.23335 1.14023 1.25375 1.27561 1.23029 1.23297 1.20755 1.26532 1.23711 1.21372 1.19431 1.28486 1.13625 1.24653 1.257 1.24137 1.24361 1.2437 1.30102 1.18096 1.24806 1.18264 1.21676 1.23574 1.23494 1.20272 1.23997 1.26181 1.21225 1.19556 1.214 1.19178 1.19178 1.16974 1.24796 1.19861 1.18436 1.26139 1.20846 1.23708 1.22095 1.1793 1.46329 1.22419 1.2868 1.28082 1.20991 1.26763 1.24193 1.19415 1.25332 1.32845 1.28046 1.19036 1.21742 1.1676 1.18373 1.24515 1.26272 1.24487 1.26003 1.29973 1.17492 1.19969 1.26249 1.22659 1.03407 0.943578 1.22941 1.20393 1.17276 1.20412 1.16625 1.24341 1.27109 1.24739 1.30408 1.25846 1.2817 1.18112 1.2536 1.14625 1.19556 1.2634 1.21181 1.25114 1.22081 1.19595 1.21038 1.19178 1.21529 1.19518 1.25472 1.24387 1.22155 1.23307 1.19786 1.17547 1.23273 1.24311 1.23907 1.17864 1.21738 1.19062 1.28717 1.22417 1.18292 1.21075 1.21778 1.21866 1.15707 1.26259 1.1564 1.19379 1.17839 1.23931 1.19725 1.26078 1.27752 1.17077 1.25878 1.18683 1.21503 1.26355 1.19585 1.19236 1.21755 1.26586 1.20309 1.2381 1.20216 1.19193 1.19101 1.1722 1.24535 1.19583 1.14439 1.16876 1.23693 1.23956 1.24091 1.16487 1.25811 1.18562 1.28193 1.15369 1.24802 1.25883 1.24168 1.17871 1.21303 1.29757 1.27557 1.23013 1.19178 1.16461 1.22192 1.23115 1.22032 1.22565 1.26408 1.15876 1.18082 1.2111 1.14634 1.21444 1.10793 1.13411 1.06074 1.01307 1.07557 1.05891 1.18658 1.24532 1.27155 1.25824 1.31014 1.27054 1.27061 1.18569 1.24484 1.15291 1.22151 1.22501 1.1954 1.24528 1.2126 1.20109 1.18831 1.18166 1.22672 1.21523 1.23872 1.23482 1.20758 1.21964 1.19698 1.19176 1.21605 1.23172 1.16067 1.18075 1.21195 1.22018 1.26261 1.20195 1.17393 1.13856 1.18413 1.23645 1.13035 1.24108 1.14052 1.27071 1.15248 1.15133 1.20607 1.16306 1.2588 1.19032 1.08772 1.21116 1.19594 1.25122 1.20469 1.19562 1.19135 1.25843 1.20275 1.23895 1.19033 1.16678 1.14973 1.24349 1.23683 1.1938 1.13869 1.20132 1.11179 1.24086 1.28418 1.16471 1.25033 1.12191 1.22863 1.19424 1.25867 1.26213 1.2358 1.17014 1.19388 1.12461 1.23437 1.31292 1.21354 1.17071 1.2264 1.23774 1.21737 1.2149 1.24466 1.15435 1.16671 1.19483 1.18011 1.1471 1.1353 1.16465 1.22207 0.984975 1.01152 1.00886 1.17806 1.233 1.18671 1.23916 1.29685 1.24737 1.2729 1.19613 1.21352 1.16565 1.21992 1.23741 1.16895 1.23942 1.19655 1.13775 1.1813 1.18593 1.24486 1.17276 1.22179 1.22773 1.20834 1.19178 1.21968 1.30238 1.11382 1.17417 1.15502 1.20679 1.20952 1.23621 1.25628 1.19752 1.16877 1.12922 1.16363 1.23714 1.1048 1.24017 1.14187 1.28982 1.14203 1.18112 1.20388 1.15188 1.12187 1.19286 1.14942 1.36512 1.19113 1.23826 1.20568 1.20437 1.17673 1.25692 1.19728 1.23869 1.18329 1.19654 1.23424 1.19178 1.25271 1.19403 1.26774 1.21955 1.16977 1.27875 1.12012 1.18091 1.24104 1.08568 1.22988 1.19238 1.21859 1.26816 1.11648 1.15906 1.1896 1.1877 1.27644 1.19178 1.29938 1.18611 1.23235 1.23734 1.20148 1.20933 1.22703 1.16166 1.16272 1.18908 1.19776 1.19178 1.17178 1.18608 1.19637 0.982781 0.967381 1.19178 1.1587 1.13903 1.18557 1.22643 1.12958 1.23104 1.21148 1.19528 1.2112 1.12279 1.21804 1.23536 1.18223 1.18742 1.21524 1.23877 1.20755 1.17518 1.24218 1.13142 1.21794 1.20365 1.20758 1.18161 1.26235 1.224 1.29526 1.19721 1.16286 1.22719 1.11879 1.24719 1.25085 1.15695 1.17351 1.10883 1.17522 1.24129 1.07569 1.24501 1.13737 1.23173 1.14464 1.19077 1.20544 1.15242 1.14455 1.22215 1.23165 1.1964 1.19974 1.2132 1.2075 1.19246 1.13171 1.19829 1.19849 1.24746 1.17918 1.19214 1.18456 1.17544 1.2586 1.1563 1.2343 1.22689 1.18153 1.19178 1.11748 1.16514 1.1974 1.07583 1.24078 1.18906 1.16858 1.14401 1.11475 1.15969 1.20357 1.13417 1.17669 1.19279 1.2936 1.21708 1.23041 1.23611 1.17831 1.2129 1.21827 1.18061 1.19855 1.19809 1.21574 1.13898 1.20457 1.20565 1.16739 1.32132 1.20404 1.19758 1.15093 1.12967 1.18019 1.21307 1.1224 1.20578 1.20991 1.17012 1.22183 1.13574 1.20232 1.22678 1.21625 1.18019 1.22928 1.25925 1.19772 1.17317 1.19466 1.12106 1.20216 1.19112 1.22134 1.194 1.25052 1.22573 1.23617 1.20106 1.15821 1.23006 1.1221 1.25555 1.22435 1.22243 1.19426 1.1039 1.17371 1.23971 1.06558 1.25367 1.13687 1.24558 1.16732 1.10341 1.16554 1.14903 1.1193 1.21212 1.22816 1.20706 1.19106 1.19029 1.21031 1.19061 1.11403 1.18931 1.18711 1.2278 1.18866 1.20431 1.19178 1.16503 1.23981 1.16582 1.24314 1.21929 1.17177 1.19178 1.17459 1.13679 1.20771 1.10208 1.21048 1.19295 1.16438 1.10516 1.1303 1.15441 1.19178 1.16731 1.15869 1.17458 1.29598 1.27083 1.21707 1.23583 1.15364 1.21682 1.20229 1.19062 1.20322 1.11788 1.20979 1.14371 1.21421 1.07526 1.35506 0.934995 1.27173 1.191 1.11252 1.11113 1.23466 1.08312 1.16918 1.15767 1.17053 1.11072 1.21188 1.24414 1.18887 1.21707 1.25141 1.18257 1.18727 1.26015 1.19262 1.19178 1.20827 1.12149 1.19559 1.21245 1.20758 1.20395 1.24271 1.21748 1.17484 1.18982 1.15288 1.19173 1.19184 1.22112 1.22063 1.19596 1.19153 1.15821 1.19978 1.00251 1.17564 1.18327 1.1451 1.22771 1.21039 1.20669 1.17431 1.19178 1.18536 1.19123 1.21288 1.20504 1.18382 1.19024 1.15146 1.18627 1.16931 1.1965 1.16908 1.23443 1.16436 1.19178 1.25291 1.15132 1.23142 1.19039 1.19203 1.2687 1.2055 1.11684 1.29623 1.13631 1.1956 1.15818 1.22683 1.18731 1.12831 1.26785 1.1213 1.15599 1.2712 1.14545 1.15692 1.14296 1.26769 1.27689 1.21523 1.13779 1.13898 1.22038 1.19026 1.21721 1.20938 1.10708 1.2145 1.15731 1.21006 1.15693 1.20241 0.955899 1.2284 1.18348 1.10021 1.10273 1.12512 1.09086 1.17616 1.26735 1.10456 1.13165 1.20649 1.2089 1.16973 1.21589 1.25142 1.14893 1.23711 1.26917 1.21006 1.17741 1.22687 1.27097 1.17793 1.21298 1.17892 1.20242 1.23395 1.2121 1.19941 1.2771 1.1584 1.19178 1.19178 1.21885 1.19934 1.19178 1.12602 1.16832 1.19269 1.15102 1.18144 1.19532 1.15031 1.22968 1.22255 1.22749 1.17185 1.22756 1.20013 1.07711 1.20902 1.14963 1.17924 1.23171 1.1607 1.19888 1.17304 1.20221 1.14057 1.24712 1.18007 1.13006 1.25157 1.13635 1.22099 1.19729 1.21359 1.14399 1.23593 1.26002 1.26709 1.19178 1.14734 1.15221 1.13979 1.20806 1.15962 1.25983 1.17893 1.18982 1.2996 1.14596 1.13744 1.11999 1.2914 1.16202 1.20729 1.14414 1.13805 1.21901 1.18279 1.21656 1.20996 1.2803 1.21296 1.16811 1.18434 1.19178 1.22114 1.18243 1.28669 1.18787 1.15659 1.42391 1.20215 1.13286 1.19074 1.2629 1.02102 1.16579 1.10359 1.16487 1.19071 1.13083 1.24661 1.15719 1.11975 1.27676 1.19897 1.21818 1.25021 1.2335 1.18342 1.19739 1.16125 1.20411 1.22626 1.2098 1.24151 1.25885 1.10001 1.21203 1.2879 1.20713 1.17745 1.19785 1.11722 1.14523 1.20471 1.22228 1.17684 1.24957 1.15835 1.22584 1.20586 1.19178 1.19178 1.27225 1.19404 1.25686 1.18716 1.15977 1.22628 1.32544 1.19414 1.20707 1.17241 1.20713 1.12936 1.25481 1.1813 1.0898 1.24677 1.12345 1.21105 1.19574 1.22286 1.17188 1.08965 1.19106 1.2062 1.26012 1.12623 1.13627 1.19565 1.18982 1.15582 1.25699 1.18004 0.975667 1.27968 1.13894 1.12207 1.09893 1.30666 1.1552 1.2011 1.20604 1.19071 1.22806 1.16595 1.21248 1.20949 1.27808 1.20815 1.18529 1.17013 1.18408 1.23476 1.19117 1.30742 1.17007 1.1612 1.09823 1.19395 1.1457 1.15873 1.20046 1.04991 1.14905 1.06732 1.20449 1.2157 1.16298 1.18242 1.32553 1.11089 1.09138 1.19352 1.21538 1.20617 1.24495 1.18762 1.20172 1.14278 1.20465 1.21227 1.20619 1.20877 1.26562 1.18018 1.20973 1.26036 1.17817 1.20512 1.11779 1.12728 1.20345 1.20072 1.25378 1.15891 1.36973 1.07231 1.24905 1.20004 1.1868 1.17683 1.30299 1.20674 1.1654 1.20787 1.18611 1.22766 1.25442 1.25102 1.21572 1.18922 1.24092 1.262 1.17321 1.18029 1.2524 1.23847 1.12167 1.20738 1.1886 1.26455 1.06093 1.1506 1.20185 1.21687 1.18756 1.12257 1.17835 1.22038 1.19493 1.14101 1.21448 1.16875 0.97772 1.2843 1.15167 1.13913 1.21924 1.17449 1.24397 1.20146 1.21121 1.18381 1.20444 1.15487 1.20785 1.20665 1.27775 1.20782 1.3696 1.15788 1.20907 1.2334 1.17746 1.27867 1.16677 1.13858 1.28175 1.19801 1.16215 1.1669 1.18893 1.03219 1.21505 1.2596 1.18798 1.18938 1.15747 1.19178 1.18475 1.15169 1.08374 1.18888 1.19192 1.19586 1.18955 1.15666 1.15863 1.12422 1.13008 1.19561 1.20749 1.19425 1.20769 1.20516 1.28592 1.24275 1.16341 1.20333 1.19084 1.12798 1.20027 1.25706 1.07292 1.14643 1.21731 1.19178 1.19178 1.18875 1.19351 1.17054 1.22449 1.19393 1.26531 1.18974 1.23014 1.14397 1.23664 1.25033 1.19177 1.20046 1.23876 1.26347 1.12249 1.22174 1.19448 1.19178 1.11719 1.19425 1.17717 1.27742 1.06101 1.12496 1.21301 1.21116 1.18715 1.10227 1.19412 1.2239 1.20313 1.11248 1.19697 1.1664 0.974484 1.29104 1.15214 1.16937 1.18391 1.22567 1.17614 1.18308 1.20809 1.19178 1.1919 1.12303 1.20604 1.20254 1.27849 1.20627 1.38584 1.17218 1.27179 1.27112 1.17867 1.2854 1.16711 1.13469 1.19246 1.16908 1.17026 1.15209 1.18333 1.17054 1.19597 1.24963 1.22361 1.19641 1.16265 1.19178 1.19332 1.29788 1.19178 1.18017 1.19428 1.20183 1.19476 1.15638 1.14179 1.10544 1.13177 1.18112 1.20395 1.17491 1.13617 1.19883 1.17271 1.23849 1.16669 1.17403 1.12354 1.20219 1.24652 1.26066 1.07165 1.11261 1.27212 1.05306 1.23314 1.17583 1.20149 1.15914 1.22496 1.20584 1.27063 1.16742 1.22749 1.16251 1.2206 1.24494 1.2356 1.24284 1.25392 1.26735 1.07546 1.21447 1.26408 1.33781 1.1427 1.20134 1.13501 1.29631 1.17879 1.1323 1.13775 1.21994 1.21998 1.17342 1.16386 1.22456 1.23622 1.09293 1.22146 1.20899 1.14423 1.24555 1.143 1.18861 1.14734 1.13366 1.19207 1.16338 1.20034 1.20704 1.15927 1.1223 1.20221 1.21163 1.14791 1.18642 1.24758 1.15635 1.21943 1.27581 1.04901 1.27393 1.16827 1.13139 1.06358 1.14521 1.16203 1.19328 1.17858 1.20271 1.15024 1.25126 1.19893 1.18539 1.14707 1.1739 1.17835 1.31642 1.17271 1.19072 1.10651 1.24777 1.0555 1.15091 1.15513 1.16198 1.1992 1.17392 1.21342 1.16187 1.13892 1.19632 1.16614 1.20678 1.17074 1.16615 1.17882 1.14848 1.18146 1.28199 1.18944 1.17916 1.06194 1.27799 1.19178 1.15159 1.22019 1.13023 1.23123 1.19881 1.28217 1.18123 1.24168 1.18673 1.18715 1.24747 1.2622 1.29448 1.26537 1.2571 1.07703 1.21811 1.32237 1.35536 1.25622 1.21532 1.12769 1.2982 1.19178 1.12461 1.15503 1.20676 1.19178 1.24987 1.1547 1.21494 1.07718 1.12761 1.37268 1.21567 1.09748 1.30222 1.13629 1.21659 1.11945 1.12342 1.19162 1.1494 1.21638 1.19758 1.13945 1.06292 1.21607 1.20489 1.15142 1.16191 1.26478 1.18012 1.2422 1.26119 1.05543 1.2532 1.16577 1.15835 1.06466 1.21039 1.18301 1.19178 1.18009 1.10796 1.16327 1.20442 1.19715 1.16419 1.14054 1.17319 1.19252 1.19236 1.16722 1.15699 1.10248 1.26196 1.17359 1.14653 1.11113 1.33098 1.12445 1.21574 1.2323 1.1472 1.18319 1.17376 1.18173 1.2076 1.21817 1.16913 1.31129 1.17962 1.19469 1.26704 1.17869 1.21869 1.16439 1.26913 1.14527 1.128 1.22902 1.18881 1.2353 1.20664 1.16793 1.26368 1.25672 1.20084 1.34138 1.29496 1.01465 1.29505 1.23909 1.22607 1.17897 1.2309 1.31915 1.14826 1.26189 1.21658 1.08154 1.25745 1.04559 1.16822 1.18216 1.27103 1.21116 1.13696 1.16176 1.20374 1.18436 1.15128 1.15535 1.19177 1.10129 1.22733 1.11228 1.20537 1.09966 1.14347 1.19781 1.15591 1.19172 1.20698 1.14012 1.09319 1.13942 1.21594 1.1703 1.13625 1.27275 1.16259 1.26672 1.24113 1.19178 1.22821 1.16559 1.18391 1.22025 1.20683 1.19518 1.18268 1.1868 1.09612 1.14859 1.13669 1.16507 1.14534 1.13547 1.18176 1.18465 1.19148 1.16229 1.16139 1.13474 1.27083 1.14158 1.09417 1.059 1.15218 1.11719 1.18621 1.19178 1.19178 1.17286 1.16596 1.1838 1.20086 1.21776 1.15605 1.27804 1.18826 1.20397 1.25773 1.19178 1.19137 1.20427 1.17668 1.19178 1.13431 1.23498 1.19178 1.23215 1.2092 1.26647 1.23066 1.20287 1.17239 1.23006 1.3869 1.11911 1.21459 1.2097 1.21697 1.17164 1.23363 1.32699 1.12318 1.14907 1.22137 1.07472 1.2549 1.18219 1.23261 1.19629 1.19233 1.21274 1.09633 1.16275 1.18405 1.1445 1.18396 1.15343 1.19178 1.19745 1.30988 1.16711 1.16363 1.08846 1.17544 1.20691 1.14215 1.14039 1.216 1.09156 1.19208 1.14129 1.19356 1.17545 1.19178 1.26027 1.14251 1.22941 1.23867 1.15802 1.20912 1.19178 1.19534 1.22363 1.21714 1.1926 1.18215 1.19561 1.17571 1.14838 1.16374 1.15514 1.12835 1.13079 1.19324 1.17503 1.12621 1.16577 1.16081 1.2224 1.17036 1.13057 1.07817 1.11194 1.17135 1.16105 1.18485 1.2223 1.19216 1.19178 1.15735 1.17411 1.22232 1.22726 1.1409 1.27463 1.19643 1.24006 1.19147 1.30496 1.14306 1.17952 1.21011 1.24034 1.13322 1.23773 1.0455 1.24146 1.21401 1.09567 1.31139 1.15368 1.1507 1.28919 1.32258 1.12859 1.19901 1.19868 1.22679 1.15313 1.21346 1.30775 1.16439 1.16259 1.19436 1.14571 1.23804 1.20068 1.22791 1.18593 1.3986 1.22087 1.09968 1.16214 1.19205 1.1316 1.26114 1.15838 1.19033 1.322 1.28099 1.19305 1.18241 1.10539 1.18498 1.19618 1.13133 1.13811 1.17093 1.03604 1.15375 1.1464 1.13468 1.20231 1.13249 1.23915 1.13843 1.19679 1.21386 1.15883 1.19065 1.21413 1.19958 1.2196 1.2211 1.19179 1.25536 1.29567 1.24931 1.18304 1.19178 1.15815 1.15294 1.15936 1.19969 1.18631 1.22636 1.1709 1.16411 1.22128 1.17612 1.13602 1.16875 1.20348 1.19178 1.19178 1.1972 1.19079 1.197 1.04796 1.16851 1.1772 1.23461 1.21251 1.12518 1.2454 1.17711 1.14408 1.16891 1.28706 1.23717 1.18315 1.23772 1.23988 1.00826 1.24147 1.34844 1.22978 1.21916 0.965425 1.27894 1.21686 1.11731 1.28096 1.2231 1.13892 1.17511 1.25085 1.21792 1.14959 1.15802 1.26729 1.15314 1.23113 1.27664 1.11896 1.21415 1.23738 1.14722 1.1771 1.17246 1.27915 1.28424 1.16045 1.18956 1.12212 1.28707 1.22084 1.21945 1.31639 1.21289 1.31499 1.02006 1.17748 1.19374 1.16228 1.09117 1.37636 1.21265 1.05995 1.17606 1.23001 1.11374 1.22561 1.14963 1.21217 1.14224 1.21301 1.16115 1.17725 1.17196 1.21424 1.19396 1.21573 1.25368 1.18131 1.22258 1.21255 1.25917 1.04655 1.28292 1.17248 1.17166 1.19189 1.12 1.20016 1.22279 1.21493 1.20078 1.21274 1.19178 1.19118 1.19111 1.20293 1.19178 1.25652 1.20161 1.20408 1.20386 1.1917 1.22979 1.21145 1.17163 1.26271 1.18061 1.20454 1.18838 1.15259 1.17115 1.30336 1.21401 1.28319 1.17793 1.24301 1.25662 1.26759 1.10349 1.23541 1.22074 1.13802 1.29518 1.05439 1.15103 1.31945 1.17153 1.31874 1.23146 1.23506 1.1455 1.16717 1.13022 1.26888 1.1677 1.25384 1.21217 1.11475 1.20574 1.22932 1.16722 1.17879 1.21457 1.26634 1.28044 1.17785 1.19386 1.19178 1.28348 1.23973 1.16288 1.28056 1.19178 1.28478 1.01411 1.17653 1.19178 1.18084 1.19034 1.15105 1.2579 1.21848 1.24443 1.21642 1.11409 1.28593 1.14832 1.18222 1.24832 1.21771 1.16893 1.1719 1.15528 1.19425 1.20208 1.19286 1.24833 1.19941 1.224 1.2268 1.15347 1.03932 1.32356 1.17941 1.16719 1.18862 1.23256 1.19611 1.18706 1.24881 1.20281 1.22598 1.1796 1.15846 1.1991 1.21998 1.18681 1.25222 1.20956 1.18482 1.24981 1.19564 1.23631 1.20663 1.15812 1.26969 1.21669 1.21167 1.12674 1.20753 1.24326 1.18183 1.238 1.23218 1.17765 1.24316 1.25298 1.26596 1.10584 1.24672 1.28665 1.16173 1.22686 1.05797 1.18219 1.2743 1.11743 1.28254 1.19178 1.20194 1.12445 1.15009 1.15015 1.24718 1.23719 1.1493 1.23043 1.15004 1.22168 1.2148 1.22723 1.20384 1.21202 1.24812 1.274 1.18347 1.19254 1.29387 1.27075 1.22882 1.02269 1.27817 1.12736 1.17991 1.30106 1.23916 1.24312 1.22826 1.2271 1.24051 1.24084 1.25193 1.20194 1.25407 1.20772 1.28683 1.15451 1.15444 1.19062 1.2243 1.17801 1.17448 1.14313 1.17983 1.20209 1.13033 1.14449 1.22432 1.20892 1.21351 1.15996 1.19178 1.19178 1.19178 1.15495 1.17843 1.21506 1.1877 1.18596 1.16917 1.19397 1.23652 1.17907 1.2069 1.20792 1.21378 1.15277 1.24622 1.13813 1.15763 1.26246 1.24475 1.21373 1.21095 1.15748 1.25887 1.21234 1.21987 1.10924 1.19447 1.22245 1.22871 1.21971 1.23661 1.18179 1.21633 1.24183 1.22598 1.13567 1.27112 1.29995 1.18484 1.17935 1.11311 1.19993 1.1536 1.02837 1.35111 1.14344 1.18962 1.10455 1.13728 1.16603 1.24534 1.16619 1.18229 1.27027 1.19178 1.15613 1.21009 1.29801 1.18384 1.22272 1.22651 1.26565 1.19121 1.20182 1.30905 1.26777 1.21865 1.19178 1.2643 1.19178 1.31149 0.502285 1.22661 1.23756 1.22543 1.21314 1.19165 1.23686 1.22755 1.29391 1.24152 1.20068 1.27707 1.1559 1.14583 1.18945 1.22342 1.16414 1.14213 1.12278 1.16072 1.1771 1.1424 1.15206 1.19178 1.19423 1.20013 1.16999 1.19021 1.19209 1.19178 1.14699 1.17733 1.21584 1.19256 1.19023 1.20269 1.20342 1.22489 1.18137 1.25941 1.20867 1.21899 1.21701 1.23649 1.13337 1.23533 1.19249 1.16696 1.19464 1.22242 1.15717 1.20203 1.23978 1.16136 1.2123 1.44426 1.18013 1.23604 1.22897 1.29875 1.19105 1.19428 1.26411 1.21318 1.1374 1.27838 1.18525 1.22192 1.18444 1.13558 1.28909 1.27124 1.21736 1.09041 1.1698 1.16109 1.11566 1.17642 1.20832 1.10449 1.15704 1.18203 1.26712 1.14433 1.11791 1.18367 1.24639 1.19461 1.20068 1.21073 1.2586 1.20836 1.19614 1.23317 1.23694 1.15174 1.20683 1.2364 1.22414 1.28231 1.22145 1.20912 1.15731 1.22817 1.20067 1.26592 1.21339 1.20268 1.20565 1.25941 1.21446 1.15892 1.21773 1.14468 1.21752 1.17639 1.18915 1.13053 1.1229 1.14311 1.17261 1.1984 1.0476 1.14273 1.19698 1.16003 1.21013 1.21349 1.23386 1.21421 1.21272 1.19136 1.18338 1.19198 1.19241 1.19178 1.19193 1.19178 1.19169 1.19178 1.19178 1.13988 1.13863 1.19351 1.19644 1.21608 1.21689 1.18964 1.18485 1.20022 1.20713 1.19711 1.19178 1.19956 1.19509 1.21373 1.18887 1.17763 1.19178 1.25598 1.19178 1.18534 1.1786 1.20612 1.19882 1.21542 1.20651 1.1742 1.13108 1.17471 1.21849 1.16941 1.16187 1.24152 1.16626 1.17801 1.21556 1.2173 1.21291 1.11209 1.1187 1.18306 1.17564 1.19191 1.16178 1.21334 1.19812 1.15481 1.15057 1.19849 1.20564 1.17941 1.2121 1.14495 1.14683 1.17875 1.16291 1.21002 1.19578 1.28925 1.32694 1.13258 1.10182 1.18353 1.19982 1.2605 1.22113 1.1654 1.16671 1.16487 1.16772 1.25031 1.2355 1.18366 1.11249 1.20413 1.20434 1.14069 1.13525 1.13357 1.151 1.20461 1.22119 1.23411 1.22428 1.26038 1.17644 1.1216 1.23845 1.23229 1.22031 1.15847 1.15699 1.18722 1.19873 1.20048 1.19254 1.19326 1.18026 1.08728 1.07008 1.15468 1.22866 1.19893 1.18725 1.19197 1.2121 1.11839 1.14294 1.21126 1.20763 1.17754 1.18924 1.22793 1.22169 1.19087 1.15418 1.21286 1.2196 1.18571 1.15877 1.24321 1.23241 1.23091 1.23066 1.21652 1.21382 1.08193 1.22433 1.13715 1.24821 1.17528 1.01907 1.2214 1.18797 1.21395 1.21582 1.21359 1.20724 1.22264 1.18368 1.20218 1.17739 1.14673 1.15246 1.17105 1.17716 1.23441 1.23013 1.19434 1.17593 1.1653 1.18596 1.19683 1.19583 1.18969 1.15183 1.2135 1.18844 1.21487 1.19404 1.23607 1.20518 1.17387 1.19081 1.26614 1.19814 1.17809 1.15899 1.32325 1.2573 1.18216 1.15798 1.19237 1.20703 1.12596 1.11088 1.14623 1.13769 1.18338 1.19238 1.21861 1.2012 1.25189 1.19963 1.19119 1.194 1.19178 1.19163 1.19253 1.28477 1.19054 1.21763 1.18751 1.22963 1.23578 1.18428 1.17266 1.19178 1.19178 1.19178 1.21418 1.20334 1.20561 1.25049 1.15109 1.15256 1.212 1.21659 1.14178 1.15484 1.19075 1.19852 1.14113 1.21448 1.24481 1.13601 1.12789 1.17971 1.31531 1.09223 1.21291 1.20517 1.20404 1.18792 1.24932 1.13783 1.19105 1.23285 1.14673 1.21428 1.19178 1.1776 1.1726 1.24302 1.15649 1.22132 1.16493 1.1831 1.182 1.04815 1.19171 1.22055 1.13786 1.11423 1.1873 1.22279 1.14999 1.21546 1.13897 1.23084 1.22756 1.21307 1.1318 1.24882 1.17383 1.13848 1.17485 1.19908 1.16484 1.17577 0.995787 1.17981 1.19399 1.15134 1.19457 1.20061 1.11461 1.11613 1.19293 1.16536 1.21193 1.09783 1.14827 1.25804 1.11429 1.19689 1.28513 1.17301 1.17189 1.22791 1.21134 1.17587 1.27984 1.19679 1.20199 1.20008 1.1778 1.18159 1.20605 1.29577 1.13774 1.32307 1.17927 1.2517 1.23756 1.22619 1.3024 1.20388 1.33239 1.00736 1.21097 1.19051 1.21442 1.21215 1.08762 1.15359 1.20401 1.20711 1.1368 1.16006 1.17051 1.19181 1.13577 1.17975 1.25569 1.10991 1.12598 1.16748 1.18614 1.08702 1.24404 1.18701 1.21345 1.1706 1.22938 1.1154 1.17565 1.22965 1.15387 1.21214 1.19914 1.18572 1.15446 1.18962 1.2219 1.19504 1.28959 1.18495 1.25772 1.06412 1.18384 1.21036 1.14393 1.14149 1.1947 1.20844 1.1588 1.1653 1.10386 1.22779 1.21267 1.13125 1.25712 1.23642 1.25557 1.13754 1.17195 1.23638 1.13588 1.17579 1.16733 1.17372 1.19933 1.12791 1.1317 1.21724 1.11014 1.12826 1.1327 1.18952 1.20009 1.19498 1.13544 1.25285 1.0716 1.28648 1.30502 1.18089 1.20466 1.17328 1.2004 1.17616 1.19212 1.1961 1.20696 1.19369 1.19306 1.19144 1.19178 1.19178 1.15716 1.21268 1.21585 1.15001 1.24631 1.21658 1.30324 1.3047 1.19277 1.27491 1.19525 1.19602 1.19943 1.22029 1.11114 1.23878 1.17774 1.19323 1.13845 1.17754 1.1963 1.18534 1.15027 1.16398 1.08272 1.16054 1.18265 1.16788 1.18373 1.08681 1.23654 1.18241 1.17068 1.1434 1.20318 1.23394 1.17786 1.21262 1.14962 1.28104 1.19906 1.16552 1.15277 1.14403 1.20183 1.19757 1.31693 1.17391 1.25479 1.18328 1.2013 1.2146 1.14382 1.19417 1.19178 1.16768 1.17527 1.24907 1.14374 1.21639 1.1978 1.11252 1.24404 1.22585 1.25121 1.32343 1.24632 1.12032 1.18834 1.18922 1.16553 1.18492 1.20177 1.10877 1.1937 1.1923 1.13189 1.13438 1.18299 1.18747 1.18331 1.24544 1.13449 1.24237 1.16709 1.19999 1.24448 1.18195 1.21655 1.14974 1.18553 1.20066 1.20026 1.20497 1.21565 1.19178 1.19904 1.17814 1.21474 1.13942 1.22319 1.22693 1.2157 1.19178 1.19178 1.24291 1.29376 1.30584 1.15923 1.25813 1.22567 1.18506 1.20406 1.22716 1.15389 1.21589 1.16636 1.20048 1.17355 1.20872 1.20651 1.17902 1.14902 1.16433 1.26407 1.19187 1.16972 1.16558 1.17663 1.10486 1.02943 1.2038 1.17628 1.09906 1.17239 1.22756 1.19964 1.21707 1.1677 1.0336 1.16514 1.17547 1.11982 1.17423 1.17354 1.23456 1.19385 1.18793 1.24268 1.1871 1.19618 1.21622 1.22433 1.19513 1.30734 1.1506 1.18618 1.2065 1.16299 1.22248 1.23129 1.24131 1.24171 1.22366 1.23634 1.19178 1.2452 1.18297 1.1242 1.23041 1.20288 1.22087 1.24234 1.05988 1.17882 1.1775 1.12985 1.13513 1.21103 1.18649 1.19393 1.24495 1.19178 1.21291 1.24318 1.11762 1.274 1.20279 1.21347 1.14559 1.18326 1.20165 1.19678 1.21263 1.22291 1.16716 1.19543 1.20858 1.20525 1.21055 1.25229 1.22503 1.12449 1.24511 1.17261 1.22048 1.29103 1.22001 1.16026 1.23729 1.22729 1.20812 1.21749 1.23709 1.19853 1.24437 1.14099 1.23476 1.18862 1.18742 1.19178 1.18233 1.1806 1.19087 1.21874 1.18346 1.16353 1.18563 1.15124 1.10245 1.15899 1.18436 1.16616 1.10154 1.16615 1.21161 1.1983 1.19552 1.22781 1.02583 1.13923 1.15014 1.16474 1.18827 1.15464 1.17155 1.21276 1.1771 1.23926 1.32902 1.21492 1.21049 1.0366 1.15928 1.33486 1.14327 1.19114 1.19385 1.20327 1.24564 1.22362 1.19469 1.23945 1.19178 1.23568 1.1903 1.19313 1.17759 1.15356 1.24741 1.19043 1.22272 1.25172 1.12761 1.24448 1.18541 1.16832 1.19174 1.18063 1.22665 1.1254 1.26548 1.32707 1.15214 1.23641 1.32318 1.29285 1.20577 1.21231 1.18929 1.18314 1.21087 1.19428 1.23369 1.24605 1.19192 1.19163 1.19586 1.20897 1.21456 1.24551 1.20683 1.16844 1.19178 1.22385 1.20729 1.26759 1.27985 1.22189 1.22376 1.19047 1.19473 1.23383 1.24281 1.17863 1.28186 1.12945 1.23515 1.20124 1.19443 1.04466 1.18616 1.17456 1.19478 1.19994 1.17137 1.16793 1.29597 1.1417 1.12164 1.16163 1.19284 1.17564 1.16204 1.1635 1.16422 1.17465 1.14674 1.21985 1.00886 1.07425 1.17792 1.18034 1.18504 1.16259 1.17018 1.19453 1.173 1.17515 1.3362 1.20177 1.19444 1.03689 1.15331 1.32513 1.36601 1.17705 1.18167 1.20881 1.25263 1.24615 1.18359 1.2266 1.20828 1.23019 1.21954 1.19319 1.17088 1.23743 1.25401 1.21699 1.25806 1.28835 1.12529 1.25418 1.19965 1.16799 1.29219 1.19052 1.23041 1.13158 1.27153 1.33977 1.14978 1.27918 1.16857 1.25243 1.2002 1.21034 1.13509 1.18099 1.22306 1.27878 1.22157 1.26082 1.1943 1.19119 1.1942 1.20337 1.18786 1.22815 1.20048 1.18509 1.24969 1.24224 1.21512 1.22881 1.25674 1.23803 1.20291 1.18137 1.26701 1.25243 1.23647 1.1725 1.23595 1.15097 1.22237 1.20942 1.19309 1.19105 1.20788 1.21232 1.19168 1.19259 1.16794 1.17176 1.19178 1.18376 1.1928 1.21537 1.23961 1.19188 1.19178 1.15801 1.16496 1.14975 1.16358 1.07031 1.18058 1.29462 1.17725 1.24543 1.18764 1.19178 1.17027 1.18525 1.20099 1.1784 1.33839 1.20694 1.15615 1.34743 1.14973 1.32575 1.15518 1.19288 1.18667 1.25476 1.2378 1.15969 1.17804 1.21952 1.18724 1.23071 1.218 1.20045 1.17893 1.27003 1.2024 1.24628 1.21389 1.23865 1.13012 1.21123 1.23777 1.16467 1.26863 1.21324 1.19185 1.16445 1.26621 1.2021 1.12915 1.23051 1.21162 1.22286 1.1942 1.20337 1.24845 1.19178 1.22022 1.26495 1.1982 1.27547 1.44714 1.19178 1.19318 1.20166 1.18982 1.21602 1.27815 1.18834 1.17052 1.23391 1.19782 1.24815 1.2412 1.24963 1.18615 1.17709 1.28954 1.25392 1.18626 1.15518 1.21042 1.27745 1.17592 1.22054 1.19203 1.24144 1.20768 1.20027 1.16971 1.19749 1.16472 1.12804 1.20844 1.18462 1.15839 1.18349 1.23815 1.14676 1.19403 1.14607 1.15473 1.14614 1.17661 1.08809 1.17852 1.29364 1.157 1.19898 1.15987 1.22855 1.15875 1.17374 1.21509 1.20485 1.19178 1.22334 1.16334 1.33774 1.15104 1.30405 1.23708 1.17503 1.17862 1.22366 1.22866 1.1602 1.20842 1.22445 1.23709 1.22464 1.1864 1.16979 1.17498 1.12824 1.17061 1.21284 1.22853 1.2051 1.1398 1.16859 1.17779 1.16318 1.16626 1.24344 1.19996 1.2094 1.28934 1.02841 1.10022 1.14378 1.18568 1.21155 1.18488 1.19178 1.30781 1.22579 1.21891 1.27298 1.28181 1.26065 1.44747 1.21651 1.19217 1.21092 1.20941 1.20538 1.26097 1.1925 1.10833 1.2328 1.17123 1.2575 1.2822 1.11648 1.21649 1.12389 1.30911 1.26044 1.20316 1.23536 1.22155 1.25615 1.17008 1.22807 1.16682 1.23452 1.1756 1.19523 1.16504 1.18536 1.1655 1.13063 1.22206 1.19769 1.16375 1.16807 1.2275 1.16601 1.19109 1.15222 1.14971 1.15066 1.16489 1.06975 1.14727 1.28923 1.12962 1.14041 1.27168 1.23373 1.19071 1.16299 1.20276 1.2227 1.15865 1.2083 1.14931 1.33041 1.20265 1.3088 1.25917 1.16114 1.17246 1.19891 1.20048 1.15876 1.20486 1.22423 1.2331 1.16262 1.16176 1.14576 1.17863 1.12517 1.17484 1.2188 1.23504 1.2091 1.15377 1.16598 1.19478 1.20981 1.14275 1.219 1.11254 1.19793 1.24252 1.29761 1.01318 1.1655 1.16643 1.19168 1.18174 1.26919 1.31495 1.2603 1.24501 1.33974 1.35016 1.31478 1.16226 1.22202 1.19211 1.21437 1.20497 1.28936 1.10644 1.26729 1.24383 1.18838 1.17414 1.21106 1.28292 1.1275 1.22619 1.12083 1.33893 1.2301 1.20083 1.19673 1.22908 1.22986 1.15482 1.21741 1.19178 1.22181 1.17298 1.19251 1.18258 1.1581 1.19178 1.19178 1.21897 1.19563 1.16121 1.15526 1.15019 1.28425 1.18932 1.15729 1.14156 1.15658 1.15016 1.14501 1.21123 1.19178 1.12124 1.17406 1.13155 1.27302 1.20007 1.15222 1.19178 1.22346 1.13564 1.20124 1.12263 1.14956 1.21534 1.21936 1.2972 1.20085 1.20505 1.19174 1.15368 1.11376 1.18702 1.2242 1.16474 1.20201 1.17912 1.14149 1.07024 1.12993 1.18233 1.21199 1.22371 1.20645 1.15962 1.15876 1.19176 1.17346 1.17269 1.19334 1.25935 1.17084 1.22279 1.26038 1.03869 1.18205 1.14192 1.15892 1.17403 1.26647 1.29766 1.24731 1.23602 1.17143 1.21575 1.37987 1.25438 1.22111 1.19177 1.26876 1.16946 1.281 1.15102 1.1563 1.28684 1.19514 1.09173 1.17678 1.26594 1.14485 1.26203 1.12434 1.35646 1.14154 1.20986 1.20227 1.23347 1.20828 1.15596 1.21268 1.19645 1.21486 1.18531 1.17359 1.23765 1.1601 1.47082 1.12877 1.21962 1.17142 1.15698 1.1447 1.14477 1.28752 1.1848 1.15084 1.14697 1.17085 1.15958 1.09733 1.26002 1.13167 1.14478 1.22362 1.12474 1.2788 1.20773 1.1473 1.10955 1.21296 1.17701 1.21891 1.13167 1.06363 1.12265 1.12722 1.32552 1.19024 1.20263 1.22063 1.14951 1.17033 1.16093 1.23195 1.13341 1.21187 1.17423 1.11377 1.17211 1.12855 1.0987 1.19433 1.2208 1.21858 1.20892 1.15115 1.19955 1.18589 1.20539 1.18767 1.24589 1.10472 1.27392 0.860626 1.14286 1.19208 1.1377 1.11955 1.16819 1.2634 1.15289 1.23963 1.23087 1.18378 1.22959 1.39172 1.18213 1.22126 1.07695 1.29835 1.19865 1.29293 1.15511 1.19939 1.28924 1.21105 1.13928 1.14825 1.15548 1.22171 1.31814 1.1955 1.12868 1.18843 1.2046 1.20116 1.22848 1.19452 1.14619 1.22737 1.18821 1.21182 1.19054 1.17975 1.16481 1.16442 1.38492 1.14453 1.16516 1.16379 1.15409 1.14248 1.19228 1.19178 1.19297 1.1517 1.13596 1.17469 1.16662 1.07173 1.12652 1.17783 1.21097 1.30603 1.19554 1.14274 1.19076 1.13899 1.10895 1.20767 1.17608 1.17743 1.16365 1.05866 1.09382 1.23047 1.15815 1.13266 1.178 1.20805 1.15337 1.21001 1.10686 1.19656 1.11963 1.1841 1.17443 1.09331 1.13688 1.14213 1.1042 1.18673 1.18705 1.16614 1.21282 1.14747 1.19166 1.18789 1.18744 1.20383 1.26283 1.3313 1.29847 1.06996 1.15551 1.19121 1.18552 1.09044 1.16208 1.25879 1.15107 1.19178 1.20049 1.20749 1.22547 1.35258 1.1602 1.19829 1.14321 1.26388 1.194 1.29364 1.1662 1.29692 1.26475 1.21785 1.24896 1.13829 1.16536 1.25275 1.29435 1.13394 1.17433 1.18454 1.19007 1.19685 1.21422 1.20946 1.13197 1.21316 1.31878 1.20574 1.18308 1.16897 1.17033 1.16315 1.2583 1.15362 1.19178 1.16579 1.14799 1.15252 1.15056 1.19198 1.20622 1.20889 1.16245 1.13799 1.17919 1.24634 1.16458 1.16791 1.23048 1.14019 1.2139 1.13217 1.18483 1.13942 1.11143 1.20103 1.17418 1.14976 1.21317 1.04549 1.1717 1.22961 1.16224 1.13871 1.20188 1.28348 1.10462 1.1952 1.11389 1.19907 1.09925 1.19178 1.14039 1.09343 1.19658 1.19143 1.15733 1.20604 1.19103 1.21012 1.23484 1.16452 1.19671 1.20894 1.16889 1.25326 1.12665 1.17446 1.23507 1.26104 1.20814 1.2493 1.15281 1.0761 1.15738 1.25372 1.17402 1.23396 1.18914 1.18836 1.23349 1.21756 1.12386 1.29414 1.25406 1.24787 1.25527 1.2098 1.15633 1.08025 1.26873 1.2391 1.25716 1.12967 1.15375 1.2296 1.27084 1.1309 1.25973 1.1586 1.17449 1.21247 1.18817 1.23497 1.13489 1.19051 1.30281 1.20476 1.18352 1.16399 1.16471 1.16106 1.25188 1.16689 1.26507 1.17285 1.14699 1.15069 1.21116 1.14715 1.20959 1.2123 1.16769 1.26478 1.16431 1.24222 1.1806 1.16712 1.22727 1.16188 1.16931 1.19022 1.16467 1.12298 1.22112 1.18603 1.15999 1.1307 1.20522 1.0491 1.20082 1.2214 1.19508 1.19273 1.21093 1.25478 1.2412 1.16717 1.14336 1.15915 1.19178 1.19707 1.1419 1.1944 1.11541 1.18713 1.36826 1.20029 1.179 1.24801 1.19178 1.18191 1.19549 1.19274 1.16445 1.22882 1.1275 1.17197 1.22276 1.10798 1.21301 1.23631 1.1352 1.06909 1.15592 1.24605 1.1777 1.24831 1.14651 1.201 1.10906 1.14059 1.2035 1.28371 1.2831 1.23073 1.24603 1.23743 1.09627 1.07895 1.27291 1.22805 1.24773 1.14497 1.14246 1.22541 1.21366 1.11979 1.28621 1.17054 1.15611 1.20929 1.20245 1.23852 1.23485 1.17851 1.30564 1.11658 1.17508 1.15783 1.16793 1.16041 1.22849 1.17141 1.18973 1.17839 1.17356 1.1568 1.20186 1.12736 1.21264 1.21072 1.15549 1.27062 1.1807 1.14136 1.17894 1.16485 1.18862 1.19284 1.16428 1.21427 1.17635 1.14716 1.11921 1.20754 1.17458 1.17753 1.19774 1.07429 1.2008 1.19384 1.21033 1.21661 1.21259 1.24368 1.18501 1.06213 1.12417 1.18794 1.1942 1.19883 1.12326 1.25442 1.23601 1.19169 1.15248 1.18769 1.16649 1.26964 1.20821 1.12857 1.19804 1.20291 1.15956 1.20192 1.13753 1.19178 1.21786 1.13498 1.28703 1.15303 1.1183 1.06418 1.1088 1.22599 1.13303 1.14393 1.13016 1.18841 1.12379 1.14149 1.26466 1.07025 1.30456 1.17624 1.11283 1.24826 1.07235 1.12168 1.26595 1.15256 1.11162 1.16395 1.13365 1.20288 1.12272 1.1222 1.16401 1.12521 1.13732 1.21051 1.21459 1.14024 1.21673 1.15656 1.23541 1.12326 1.17592 1.15822 1.1729 1.15874 1.22615 1.16668 1.18529 1.10189 1.16934 1.16257 1.1949 1.19171 1.19916 1.20725 1.14578 1.19178 1.19112 1.16299 1.1865 1.18366 1.18313 1.18557 1.11496 1.21947 1.19128 1.16055 1.23384 1.19524 1.17513 1.17852 1.19354 1.0854 1.19289 1.19883 1.19178 1.21415 1.19629 1.20784 1.21888 1.08235 1.14577 1.22738 1.18058 1.14324 1.14542 1.19258 1.24314 1.25412 1.18654 1.18131 1.15783 1.19178 1.2021 1.11673 1.19137 1.19262 1.17434 1.18689 1.00637 1.3057 1.18983 1.14377 1.38161 1.07397 1.11506 1.09937 1.25508 1.20315 1.11004 1.14198 1.11343 1.09338 1.12224 1.13586 1.14017 1.02163 0.940518 1.16251 1.14651 1.27698 1.0582 1.06883 1.19178 1.08071 1.10914 1.18104 1.14433 1.18516 1.138 1.18448 1.23643 1.1311 1.10945 1.2448 1.23532 1.15662 1.10376 1.14576 1.26857 1.12814 1.20542 1.14673 1.17578 1.16571 1.22629 1.18401 1.19783 1.20572 1.14023 1.17659 1.19853 1.18791 1.1797 1.19781 1.14546 1.18313 1.18588 1.22988 1.17056 1.21251 1.17494 1.18582 1.08072 1.21267 1.18948 1.16929 1.22902 1.19157 1.21214 1.17703 1.17389 1.11395 1.21217 1.17339 1.16579 1.17848 1.18688 1.17603 1.2502 1.16751 1.188 1.22143 1.15936 1.14398 1.12072 1.12797 1.23104 1.27115 1.19182 1.18524 1.18461 1.21269 1.20874 1.18747 1.2869 1.1841 1.15616 1.22662 1.22713 1.34345 1.21229 1.1812 1.07907 1.30618 1.02899 1.06143 1.25285 1.18686 1.1043 1.11512 1.07742 1.23977 1.22008 1.12653 1.12031 1.0128 1.1361 1.14727 1.15692 1.18326 1.13561 1.09698 1.19397 1.08011 1.13067 1.1602 1.15333 1.14716 1.1247 1.14591 1.25184 1.02265 1.08668 1.24559 1.19175 1.15162 1.12434 1.17009 1.22154 1.21709 1.08636 1.15373 1.18191 1.16577 1.20722 1.18336 1.19846 1.15086 1.15861 1.18448 1.18616 1.19454 1.16214 1.17868 1.1453 1.17314 1.18548 1.22866 1.16409 1.20007 1.17072 1.19276 1.13716 1.21223 1.19178 1.17966 1.22292 1.1745 1.19625 1.1677 1.16922 1.18903 1.20973 1.17962 1.13968 1.15235 1.17405 1.14697 1.27293 1.13683 1.18002 1.24066 1.16533 1.20705 1.14289 1.22058 1.25256 1.23036 1.1912 1.18945 1.18246 1.21918 1.14105 1.16954 1.30129 1.17602 1.12227 1.18813 1.24012 1.07882 1.21125 1.19178 1.0816 1.2554 1.04182 1.08596 1.19685 1.15579 1.08836 1.10063 1.08606 1.18833 1.29468 1.22004 1.12209 0.997252 1.12335 1.16703 1.14716 1.17768 1.22641 1.1163 1.18873 1.14339 1.15406 1.15076 1.148 1.09688 1.09943 1.16235 1.18585 1.05832 1.18284 1.29062 1.08365 1.17436 1.13456 1.17383 1.19888 1.14452 1.08927 1.15263 1.19178 1.19178 1.19971 1.19178 1.18654 1.18583 1.17799 1.09032 1.31988 1.20097 1.15893 1.17426 1.15343 1.21942 1.17276 1.15182 1.16357 1.15723 1.1809 1.1921 1.20051 1.21341 1.19369 1.19489 1.20591 1.17409 1.21616 1.16377 1.15989 1.06881 1.15866 1.1672 1.16202 1.15132 1.15772 1.16087 1.22236 1.18639 1.2713 1.21248 1.19489 1.19758 1.13403 1.23963 1.25374 1.29463 1.14505 1.22009 1.17919 1.2423 1.16969 1.18504 1.30415 1.1576 1.1169 1.1615 1.23324 1.08067 1.20465 1.15582 1.0859 1.19178 1.15034 1.1883 1.19178 1.13936 1.08857 1.0856 1.17231 1.27933 1.14908 1.191 1.06259 1.00925 1.1087 1.06794 1.15299 1.17161 1.2209 1.15635 1.12259 1.15441 1.15204 1.13085 1.14445 1.08318 1.11643 1.18764 0.949165 1.1998 1.14607 1.13683 1.06954 1.1451 1.17721 1.16611 1.19693 1.16384 1.22351 1.14281 1.15124 1.18605 1.1978 1.19178 1.18248 1.18247 1.17123 1.09214 1.19093 1.19435 1.1653 1.1926 1.16361 1.19183 1.16662 1.18506 1.14887 1.14044 1.20781 1.14199 1.20389 1.21121 1.18953 1.14446 1.17037 1.16662 1.21738 1.16029 1.15381 1.06472 1.14314 1.17091 1.14855 1.15281 1.14519 1.15235 1.15116 1.16121 1.24961 1.24014 1.18892 1.24001 1.08119 1.11139 1.16375 1.28606 1.14105 1.23154 1.18046 1.23578 1.18207 1.14117 1.30398 1.17752 1.14763 1.17836 1.13802 1.14169 1.21048 1.16333 1.17205 1.23742 1.16711 1.19178 1.19178 1.17546 1.06896 1.13549 1.16218 1.19178 1.19031 1.17107 1.06555 1.17437 1.12336 1.08694 1.18702 1.18254 1.23046 1.0891 1.13106 1.10331 1.15774 1.11855 1.13354 1.07779 1.14858 1.19178 0.970485 1.19759 1.13357 1.11699 1.06845 1.19276 1.15515 1.17175 1.19199 1.1917 1.19178 1.18333 1.15045 1.18638 1.18554 1.17487 1.17955 1.18623 1.18039 1.18662 1.19043 1.19178 1.15756 1.19125 1.17009 1.19983 1.16232 1.19178 1.15558 1.13157 1.20038 1.13858 1.18411 1.15647 1.1682 1.09028 1.15975 1.24456 1.22845 1.15364 1.12905 1.23048 1.11506 1.16072 1.13784 1.15273 1.13528 1.14537 1.12571 1.15348 1.22043 1.22407 1.15466 1.22143 1.10133 1.1783 1.22611 1.12321 1.14659 1.23982 1.16707 1.25054 1.24121 1.21086 1.1183 1.20565 1.18814 1.13645 1.16397 1.18424 1.18787 1.18745 1.23437 1.23476 1.15595 1.22749 1.19178 1.2041 1.04563 1.16007 1.11541 1.0993 1.19966 1.16972 1.04329 1.1581 1.13739 1.05137 1.19845 1.17874 1.22597 1.11238 1.14463 1.12599 1.05718 1.15769 1.14386 1.09604 1.16835 1.22237 1.04772 1.18285 1.12721 1.12498 1.11242 1.19319 1.0628 1.17429 1.19456 1.20093 1.17874 1.18228 1.19147 1.18187 1.1896 1.16583 1.17872 1.19178 1.18548 1.19136 1.19178 1.19178 1.1536 1.18987 1.16976 1.19936 1.1612 1.21503 1.1925 1.12852 1.20086 1.1321 1.17169 1.20636 1.1698 1.08991 1.16511 1.24921 1.22758 1.16282 1.11969 1.23436 1.09828 1.13797 1.10885 1.11857 1.1309 1.12549 1.10114 1.14223 1.20449 1.1692 1.16409 1.16142 1.13289 1.14452 1.23654 1.13973 1.1133 1.22975 1.15708 1.22108 1.13281 1.28562 1.16919 1.20945 1.12205 1.08622 1.15541 1.21834 1.17013 1.19525 1.18581 1.2358 1.15223 1.22118 1.19178 1.19178 1.18975 1.17338 1.11473 1.09336 1.19413 1.15519 1.03878 1.1902 1.14668 1.04993 1.18876 1.17063 1.21293 1.13106 1.17305 1.1779 1.06795 1.16992 1.13998 1.10251 1.09815 1.15857 1.15517 1.07126 1.12403 1.12569 1.12587 1.1864 1.17342 1.17323 1.18904 1.20019 1.17818 1.18218 1.16193 1.19307 1.19428 1.15892 1.18282 1.19545 1.18608 1.19156 1.19178 1.19334 1.1507 1.17649 1.17212 1.20018 1.16143 1.21408 1.19178 1.19178 1.17082 1.16844 1.17377 1.2061 1.163 1.10284 1.17486 1.18211 1.16142 1.19702 1.16474 1.07044 1.11386 1.1503 1.11076 1.11552 1.03005 1.11744 1.09975 1.15065 1.10872 1.11089 1.16654 1.11037 1.14606 1.14323 1.19938 1.27454 1.10327 1.19178 1.1305 1.22003 1.10652 1.14198 1.17417 1.19318 1.10854 1.08276 1.18893 1.12812 1.16044 1.15527 1.17163 1.22485 1.13998 1.20774 1.16186 1.19516 1.18065 1.17688 1.11353 1.09368 1.19173 1.1472 1.03451 1.09976 1.15207 1.05824 1.1704 1.17645 1.21855 1.1417 1.11796 1.19178 1.19178 1.16462 1.12927 1.10171 1.10065 1.19178 1.19178 1.10327 1.15758 1.10105 1.14009 1.183 1.19178 1.17314 1.18858 1.19374 1.17788 1.18313 1.19178 1.19117 1.19383 1.16467 1.16189 1.19687 1.18334 1.1909 1.19551 1.19604 1.18609 1.17794 1.16985 1.19586 1.16137 1.15109 1.20446 1.13117 1.14152 1.1703 1.16031 1.21264 1.18476 1.12152 1.10555 1.19178 1.16982 1.13285 1.1821 1.05905 1.11612 1.15983 1.10298 1.1092 1.02259 1.11546 1.1367 1.17556 1.19178 1.10873 1.16413 1.19178 1.19178 1.14253 1.19135 1.18189 1.09621 1.15989 1.11687 1.19261 1.09941 1.13809 1.16322 1.08897 1.12718 1.08687 1.1847 1.12481 1.15602 1.15521 1.1972 1.16648 1.13341 1.19178 1.1604 
SCALARS Stress float 1
LOOKUP_TABLE default
-758754000000.0 -812494000000.0 -408169000000.0 -359649000000.0 -135111000000.0 -51301500000.0 -112651000000.0 -46575400000.0 -20975400000.0 -12549700000.0 -12549700000.0 -15531000000.0 -12549700000.0 -12549700000.0 -19616200000.0 -12549700000.0 -12549700000.0 -18250200000.0 -12549700000.0 -13604000000.0 -15923500000.0 -27994400000.0 -12549700000.0 -12549700000.0 -12549700000.0 -12549700000.0 -12549700000.0 -12549700000.0 -12549700000.0 -12549700000.0 -12549700000.0 -23609700000.0 -12549700000.0 -22588000000.0 -16071000000.0 -19980700000.0 -44386600000.0 -18924000000.0 -12549700000.0 -19889000000.0 -32744600000.0 -15903700000.0 -50465500000.0 -21037900000.0 -23808400000.0 -27613900000.0 -34195600000.0 -41715500000.0 -51000200000.0 -88949200000.0 -62121200000.0 -60236500000.0 -57177600000.0 -73392900000.0 -54410300000.0 -27372000000.0 -20985400000.0 -17367700000.0 -17181300000.0 -32799300000.0 -37845800000.0 -21482000000.0 -37695000000.0 -55778000000.0 -60682300000.0 -61699000000.0 -66966100000.0 -63918400000.0 -63888100000.0 -88914000000.0 -75430200000.0 -72384800000.0 -116915000000.0 -109937000000.0 -51414200000.0 -87520000000.0 -102494000000.0 -135103000000.0 -83685500000.0 -72899400000.0 -78041200000.0 -29841100000.0 -12549700000.0 -12549700000.0 -47356000000.0 -12549700000.0 -32860900000.0 -12549700000.0 -22456600000.0 -29428200000.0 -67898300000.0 -51557600000.0 -59314900000.0 -138280000000.0 -179386000000.0 -22403100000.0 -407027000000.0 -540132000000.0 -1.64817e+12 -788987000000.0 -1.00732e+12 -656133000000.0 -1.15577e+12 -923579000000.0 -864960000000.0 -577819000000.0 -332268000000.0 -78675200000.0 -41510300000.0 -30612700000.0 -12549700000.0 -22198800000.0 -13050800000.0 -13999600000.0 -37335800000.0 -12549700000.0 -12892600000.0 -42159400000.0 -12549700000.0 -12698900000.0 -12549700000.0 -52450600000.0 -12549700000.0 -12549700000.0 -12549700000.0 -21582900000.0 -12549700000.0 -12549700000.0 -16677500000.0 -19179300000.0 -20902100000.0 -57525600000.0 -36560100000.0 -77355300000.0 -23694600000.0 -36549300000.0 -111500000000.0 -60460000000.0 -26492700000.0 -41161300000.0 -111138000000.0 -70302000000.0 -127863000000.0 -59411700000.0 -60179400000.0 -61534600000.0 -66908900000.0 -42100300000.0 -39007600000.0 -56924000000.0 -35040700000.0 -37352300000.0 -34055200000.0 -67953000000.0 -17617200000.0 -43668100000.0 -14115900000.0 -12549700000.0 -12861700000.0 -54803800000.0 -71816700000.0 -12549700000.0 -12549700000.0 -12549700000.0 -28910500000.0 -12549700000.0 -12549700000.0 -28207700000.0 -74490200000.0 -12549700000.0 -18440100000.0 -12549700000.0 -102522000000.0 -80452700000.0 -146416000000.0 -70125600000.0 -16196800000.0 -201505000000.0 -103478000000.0 -80075200000.0 -291246000000.0 -97658400000.0 -83104500000.0 -89229400000.0 -160021000000.0 -12549700000.0 -76131000000.0 -12549700000.0 -48004700000.0 -46237600000.0 -237282000000.0 -265516000000.0 -247559000000.0 -261609000000.0 -243111000000.0 -472806000000.0 -598632000000.0 -1.91522e+12 -166804000000.0 -1.00565e+12 -538348000000.0 -831963000000.0 -213888000000.0 -235688000000.0 -106915000000.0 -364049000000.0 -12549700000.0 -233906000000.0 -100993000000.0 -106578000000.0 -65228900000.0 -80191600000.0 -70066300000.0 -72835500000.0 -104195000000.0 -13018100000.0 -16329000000.0 -72409200000.0 -12549700000.0 -12998500000.0 -12549700000.0 -84668700000.0 -12549700000.0 -14565700000.0 -16160400000.0 -74546800000.0 -57906100000.0 -63419700000.0 -77176000000.0 -97033600000.0 -106251000000.0 -130530000000.0 -171005000000.0 -237934000000.0 -204223000000.0 -265555000000.0 -274631000000.0 -255312000000.0 -125807000000.0 -235620000000.0 -131007000000.0 -107809000000.0 -179975000000.0 -16317700000.0 -22702300000.0 -26762600000.0 -48786900000.0 -12549700000.0 -18006400000.0 -81434800000.0 -52125000000.0 -44162700000.0 -67855500000.0 -141121000000.0 -98273000000.0 -47024800000.0 -18199300000.0 -13317000000.0 -64610700000.0 -99396900000.0 -174157000000.0 -112357000000.0 -131654000000.0 -126146000000.0 -137518000000.0 -140290000000.0 -154936000000.0 -204583000000.0 -169054000000.0 -111965000000.0 -101324000000.0 -140986000000.0 -167708000000.0 -130060000000.0 -346782000000.0 -316347000000.0 -321830000000.0 -122654000000.0 -95649000000.0 -95355100000.0 -656361000000.0 -513700000000.0 -497385000000.0 -411120000000.0 -517623000000.0 -567605000000.0 -249386000000.0 -245644000000.0 -284439000000.0 -381215000000.0 -146482000000.0 -12549700000.0 -55180000000.0 -12549700000.0 -347587000000.0 -64367000000.0 -664817000000.0 -568590000000.0 -299982000000.0 -1.29441e+12 -343838000000.0 -470606000000.0 -217251000000.0 -355929000000.0 -292107000000.0 -287434000000.0 -165354000000.0 -223668000000.0 -14719300000.0 -72270000000.0 -22917600000.0 -30840400000.0 -33604700000.0 -17550200000.0 -23856700000.0 -114941000000.0 -47889000000.0 -111241000000.0 -28630700000.0 -22021600000.0 -14453800000.0 -144562000000.0 -44281500000.0 -47146200000.0 -89542800000.0 -12549700000.0 -13541300000.0 -16748900000.0 -12549700000.0 -36642200000.0 -57461100000.0 -49337200000.0 -139764000000.0 -137408000000.0 -184869000000.0 -373052000000.0 -236606000000.0 -378463000000.0 -350749000000.0 -363779000000.0 -314070000000.0 -178506000000.0 -290807000000.0 -112032000000.0 -88550500000.0 -136252000000.0 -79857200000.0 -36413300000.0 -13586700000.0 -114611000000.0 -17713800000.0 -112946000000.0 -78309300000.0 -178942000000.0 -110536000000.0 -207973000000.0 -118325000000.0 -89941600000.0 -14148300000.0 -263149000000.0 -12549700000.0 -12549700000.0 -27108900000.0 -27477400000.0 -37277200000.0 -48023300000.0 -55199400000.0 -165219000000.0 -315097000000.0 -400964000000.0 -425637000000.0 -385450000000.0 -636874000000.0 -551791000000.0 -527130000000.0 -705077000000.0 -596515000000.0 -533426000000.0 -414079000000.0 -793322000000.0 -141718000000.0 -165048000000.0 -434425000000.0 -232201000000.0 -226152000000.0 -237478000000.0 -728673000000.0 -157769000000.0 -244499000000.0 -286900000000.0 -119982000000.0 -298592000000.0 -280908000000.0 -483351000000.0 -772971000000.0 -846116000000.0 -327432000000.0 -21138500000.0 -38709300000.0 -1.32562e+12 -258392000000.0 -509815000000.0 -143828000000.0 -286681000000.0 -99741100000.0 -295648000000.0 -221551000000.0 -276071000000.0 -205192000000.0 -159952000000.0 -47133900000.0 -47198400000.0 -101257000000.0 -46109200000.0 -42823700000.0 -122333000000.0 -33383900000.0 -105205000000.0 -12549700000.0 -20323900000.0 -18443800000.0 -181899000000.0 -53464400000.0 -80926000000.0 -160543000000.0 -83783400000.0 -103160000000.0 -121700000000.0 -160916000000.0 -113433000000.0 -171118000000.0 -212814000000.0 -125009000000.0 -169644000000.0 -301976000000.0 -518287000000.0 -273296000000.0 -251689000000.0 -41519100000.0 -97749100000.0 -219829000000.0 -162277000000.0 -159152000000.0 -330474000000.0 -333305000000.0 -463534000000.0 -565142000000.0 -199364000000.0 -168644000000.0 -292738000000.0 -65403900000.0 -185741000000.0 -257900000000.0 -14860900000.0 -84295500000.0 -191034000000.0 -193901000000.0 -133607000000.0 -106745000000.0 -375606000000.0 -12553000000.0 -17185900000.0 -36499900000.0 -88873600000.0 -87768200000.0 -76435000000.0 -91586300000.0 -126772000000.0 -247538000000.0 -77281400000.0 -92946000000.0 -141842000000.0 -754437000000.0 -504858000000.0 -236539000000.0 -250723000000.0 -294936000000.0 -361734000000.0 -208112000000.0 -514999000000.0 -240489000000.0 -404595000000.0 -62557100000.0 -12549700000.0 -20215700000.0 -15996600000.0 -143858000000.0 -951430000000.0 -849421000000.0 -721336000000.0 -630158000000.0 -482970000000.0 -556061000000.0 -311907000000.0 -322348000000.0 -356557000000.0 -498742000000.0 -468239000000.0 -551848000000.0 -790614000000.0 -573204000000.0 -254100000000.0 -302640000000.0 -552869000000.0 -560710000000.0 -344804000000.0 -459195000000.0 -302090000000.0 -334944000000.0 -236876000000.0 -149491000000.0 -208099000000.0 -36462800000.0 -15577900000.0 -89231600000.0 -147039000000.0 -20439100000.0 -118072000000.0 -47311800000.0 -77909500000.0 -69207400000.0 -270020000000.0 -81984400000.0 -70863500000.0 -217652000000.0 -144380000000.0 -145342000000.0 -146575000000.0 -214336000000.0 -102261000000.0 -86796100000.0 -133001000000.0 -152413000000.0 -34015500000.0 -339922000000.0 -160079000000.0 -107592000000.0 -323704000000.0 -244974000000.0 -217925000000.0 -231381000000.0 -175856000000.0 -117511000000.0 -195240000000.0 -112443000000.0 -292202000000.0 -253025000000.0 -467968000000.0 -511888000000.0 -471343000000.0 -629923000000.0 -867719000000.0 -511952000000.0 -393584000000.0 -375998000000.0 -482827000000.0 -312278000000.0 -301321000000.0 -304008000000.0 -229281000000.0 -162128000000.0 -159890000000.0 -285230000000.0 -271476000000.0 -271273000000.0 -228663000000.0 -248234000000.0 -205854000000.0 -408367000000.0 -264494000000.0 -136240000000.0 -179484000000.0 -756746000000.0 -96555700000.0 -308636000000.0 -220831000000.0 -192104000000.0 -359023000000.0 -266950000000.0 -545809000000.0 -228171000000.0 -759972000000.0 -290530000000.0 -176766000000.0 -205834000000.0 -127588000000.0 -71930900000.0 -414663000000.0 -551692000000.0 -269440000000.0 -229371000000.0 -39505300000.0 -15873100000.0 -187351000000.0 -161544000000.0 -207996000000.0 -179684000000.0 -66772400000.0 -178729000000.0 -693679000000.0 -580405000000.0 -1.23455e+12 -1.01944e+12 -653760000000.0 -784532000000.0 -646664000000.0 -656282000000.0 -257417000000.0 -352185000000.0 -99630100000.0 -59423200000.0 -191918000000.0 -73081100000.0 -42384100000.0 -308461000000.0 -191459000000.0 -93592500000.0 -152797000000.0 -63195900000.0 -96318700000.0 -58065300000.0 -178413000000.0 -324609000000.0 -311849000000.0 -12549700000.0 -27612200000.0 -81191300000.0 -83209600000.0 -163333000000.0 -294905000000.0 -308515000000.0 -420373000000.0 -244589000000.0 -274930000000.0 -350454000000.0 -377951000000.0 -384629000000.0 -384729000000.0 -376610000000.0 -351034000000.0 -281145000000.0 -323240000000.0 -276440000000.0 -358069000000.0 -313025000000.0 -92985200000.0 -123197000000.0 -234491000000.0 -23170500000.0 -119680000000.0 -47339400000.0 -143716000000.0 -531949000000.0 -254884000000.0 -285922000000.0 -366240000000.0 -125949000000.0 -268415000000.0 -194320000000.0 -263694000000.0 -324657000000.0 -367469000000.0 -12549800000.0 -27599800000.0 -119401000000.0 -80442500000.0 -122625000000.0 -218301000000.0 -457555000000.0 -361962000000.0 -653119000000.0 -564769000000.0 -632203000000.0 -298731000000.0 -367384000000.0 -1.04657e+12 -976538000000.0 -679464000000.0 -733801000000.0 -963877000000.0 -491887000000.0 -887533000000.0 -12549800000.0 -22607100000.0 -24070700000.0 -424225000000.0 -335393000000.0 -772102000000.0 -396198000000.0 -259079000000.0 -189464000000.0 -60839600000.0 -58301000000.0 -267125000000.0 -12549700000.0 -285713000000.0 -43444200000.0 -24976300000.0 -26867000000.0 -631149000000.0 -12549700000.0 -787988000000.0 -461081000000.0 -276304000000.0 -265114000000.0 -194562000000.0 -337560000000.0 -306349000000.0 -371883000000.0 -513136000000.0 -412175000000.0 -597665000000.0 -399985000000.0 -359451000000.0 -219751000000.0 -211014000000.0 -179924000000.0 -175446000000.0 -138028000000.0 -77793300000.0 -85561300000.0 -229000000000.0 -344558000000.0 -317646000000.0 -201188000000.0 -211511000000.0 -181957000000.0 -77802000000.0 -152101000000.0 -162951000000.0 -166591000000.0 -157542000000.0 -581034000000.0 -369341000000.0 -446645000000.0 -92498100000.0 -162392000000.0 -42957700000.0 -144314000000.0 -82865900000.0 -34630500000.0 -91757100000.0 -29318000000.0 -188537000000.0 -79221300000.0 -70009300000.0 -64016400000.0 -111227000000.0 -24627100000.0 -118136000000.0 -23975300000.0 -346090000000.0 -579559000000.0 -263980000000.0 -330887000000.0 -446595000000.0 -180854000000.0 -51044000000.0 -29199800000.0 -170741000000.0 -15168800000.0 -19919900000.0 -306074000000.0 -227249000000.0 -309472000000.0 -179255000000.0 -212362000000.0 -439423000000.0 -12549700000.0 -57979000000.0 -293010000000.0 -14457600000.0 -509726000000.0 -232003000000.0 -387114000000.0 -444395000000.0 -128205000000.0 -307105000000.0 -84636300000.0 -237551000000.0 -619329000000.0 -156784000000.0 -933826000000.0 -501377000000.0 -632153000000.0 -382806000000.0 -317047000000.0 -824472000000.0 -753222000000.0 -615651000000.0 -233504000000.0 -155453000000.0 -113052000000.0 -274785000000.0 -91733300000.0 -265285000000.0 -38670300000.0 -73272700000.0 -101072000000.0 -782953000000.0 -308043000000.0 -381465000000.0 -774548000000.0 -515561000000.0 -353515000000.0 -383252000000.0 -388548000000.0 -416786000000.0 -284952000000.0 -149715000000.0 -104355000000.0 -561708000000.0 -295380000000.0 -232447000000.0 -282169000000.0 -161893000000.0 -190734000000.0 -39856300000.0 -23542300000.0 -100606000000.0 -93802400000.0 -143009000000.0 -15717300000.0 -619243000000.0 -124536000000.0 -86042000000.0 -114430000000.0 -155102000000.0 -340256000000.0 -309615000000.0 -267195000000.0 -251039000000.0 -461673000000.0 -23030200000.0 -537750000000.0 -303119000000.0 -371064000000.0 -269611000000.0 -330586000000.0 -292127000000.0 -309661000000.0 -327905000000.0 -287050000000.0 -334847000000.0 -214369000000.0 -233413000000.0 -296259000000.0 -328278000000.0 -249986000000.0 -370234000000.0 -372684000000.0 -14763900000.0 -396374000000.0 -100956000000.0 -132909000000.0 -150482000000.0 -318532000000.0 -143315000000.0 -17274700000.0 -203257000000.0 -31255100000.0 -12549700000.0 -144604000000.0 -98569600000.0 -169135000000.0 -95081400000.0 -162888000000.0 -381197000000.0 -12549700000.0 -22318800000.0 -172286000000.0 -428061000000.0 -226317000000.0 -20656800000.0 -319415000000.0 -229838000000.0 -119714000000.0 -345648000000.0 -312784000000.0 -12549700000.0 -526486000000.0 -141585000000.0 -678256000000.0 -210047000000.0 -377390000000.0 -515034000000.0 -157188000000.0 -742939000000.0 -461535000000.0 -516037000000.0 -290644000000.0 -317777000000.0 -284978000000.0 -479034000000.0 -283128000000.0 -421430000000.0 -178725000000.0 -168074000000.0 -595281000000.0 -205449000000.0 -302980000000.0 -200779000000.0 -324231000000.0 -51619900000.0 -331463000000.0 -527408000000.0 -23686100000.0 -372073000000.0 -371550000000.0 -452394000000.0 -335314000000.0 -390973000000.0 -19080500000.0 -23783400000.0 -154101000000.0 -58702000000.0 -182138000000.0 -16032100000.0 -12549700000.0 -60818700000.0 -42741000000.0 -160619000000.0 -198318000000.0 -459547000000.0 -190547000000.0 -193867000000.0 -269463000000.0 -223262000000.0 -25375800000.0 -42353100000.0 -12904100000.0 -14171000000.0 -19811400000.0 -493068000000.0 -687101000000.0 -13954900000.0 -264429000000.0 -162645000000.0 -36120600000.0 -109846000000.0 -42886000000.0 -43930800000.0 -30155900000.0 -133704000000.0 -20600500000.0 -21585600000.0 -12549700000.0 -130824000000.0 -26031200000.0 -184185000000.0 -215679000000.0 -14282100000.0 -354924000000.0 -91562400000.0 -97981200000.0 -220374000000.0 -273560000000.0 -34362400000.0 -185587000000.0 -131935000000.0 -12549700000.0 -36849600000.0 -153032000000.0 -159426000000.0 -200181000000.0 -15843000000.0 -146043000000.0 -298547000000.0 -411452000000.0 -563196000000.0 -707133000000.0 -700807000000.0 -637893000000.0 -427810000000.0 -625049000000.0 -540104000000.0 -475733000000.0 -398197000000.0 -481277000000.0 -353004000000.0 -400374000000.0 -677274000000.0 -1.02149e+12 -625549000000.0 -419112000000.0 -503312000000.0 -742417000000.0 -478854000000.0 -723972000000.0 -142699000000.0 -333078000000.0 -83763700000.0 -83862200000.0 -212167000000.0 -38335400000.0 -233458000000.0 -107330000000.0 -300218000000.0 -58005200000.0 -224640000000.0 -273808000000.0 -420934000000.0 -201491000000.0 -176119000000.0 -347181000000.0 -632368000000.0 -17551000000.0 -280083000000.0 -90900600000.0 -259173000000.0 -32889400000.0 -408213000000.0 -83671300000.0 -160943000000.0 -74722800000.0 -73778300000.0 -103480000000.0 -135929000000.0 -80322300000.0 -136253000000.0 -112278000000.0 -159016000000.0 -296719000000.0 -530136000000.0 -158084000000.0 -199519000000.0 -160001000000.0 -141206000000.0 -27259000000.0 -24571100000.0 -12549700000.0 -12549700000.0 -36363100000.0 -492446000000.0 -12549700000.0 -488474000000.0 -349678000000.0 -293370000000.0 -179099000000.0 -212203000000.0 -116061000000.0 -114779000000.0 -140540000000.0 -275528000000.0 -113752000000.0 -126702000000.0 -159931000000.0 -214727000000.0 -155583000000.0 -297938000000.0 -185936000000.0 -359861000000.0 -416049000000.0 -198971000000.0 -42959600000.0 -256207000000.0 -362866000000.0 -136589000000.0 -266643000000.0 -180457000000.0 -178856000000.0 -224201000000.0 -285439000000.0 -218717000000.0 -344841000000.0 -542309000000.0 -518561000000.0 -185699000000.0 -290020000000.0 -32358300000.0 -12549700000.0 -316539000000.0 -275684000000.0 -282536000000.0 -435264000000.0 -298156000000.0 -21590600000.0 -261852000000.0 -366353000000.0 -311244000000.0 -251129000000.0 -339734000000.0 -600411000000.0 -326690000000.0 -88818700000.0 -1.00944e+12 -35315900000.0 -155255000000.0 -461811000000.0 -71504200000.0 -142845000000.0 -170309000000.0 -117973000000.0 -238451000000.0 -59201200000.0 -196870000000.0 -12549700000.0 -189296000000.0 -63918900000.0 -310053000000.0 -94609900000.0 -304099000000.0 -90429700000.0 -224983000000.0 -324874000000.0 -151154000000.0 -603374000000.0 -396877000000.0 -348903000000.0 -174022000000.0 -199059000000.0 -276332000000.0 -474600000000.0 -500824000000.0 -396662000000.0 -452686000000.0 -395113000000.0 -450674000000.0 -413609000000.0 -313905000000.0 -125472000000.0 -320664000000.0 -41927800000.0 -456785000000.0 -159055000000.0 -201918000000.0 -211372000000.0 -136683000000.0 -112777000000.0 -43097800000.0 -55816200000.0 -85996400000.0 -59827300000.0 -549313000000.0 -73336900000.0 -265514000000.0 -232010000000.0 -169203000000.0 -74087500000.0 -145436000000.0 -71593400000.0 -59732700000.0 -52824100000.0 -238678000000.0 -12549700000.0 -12549700000.0 -67137100000.0 -88837900000.0 -55705900000.0 -136818000000.0 -110891000000.0 -53541400000.0 -348549000000.0 -78902200000.0 -257314000000.0 -231796000000.0 -292011000000.0 -72288100000.0 -312313000000.0 -162337000000.0 -125720000000.0 -178880000000.0 -240951000000.0 -249020000000.0 -54280800000.0 -83209400000.0 -16929700000.0 -321340000000.0 -297317000000.0 -443112000000.0 -414942000000.0 -552709000000.0 -673689000000.0 -401269000000.0 -508684000000.0 -666841000000.0 -562075000000.0 -752432000000.0 -486392000000.0 -514386000000.0 -670848000000.0 -668102000000.0 -709283000000.0 -574008000000.0 -337480000000.0 -692682000000.0 -317356000000.0 -182158000000.0 -448383000000.0 -124920000000.0 -220795000000.0 -167585000000.0 -146019000000.0 -227263000000.0 -39781600000.0 -195372000000.0 -23989300000.0 -217760000000.0 -17013100000.0 -307699000000.0 -153061000000.0 -288808000000.0 -163889000000.0 -242084000000.0 -290221000000.0 -136661000000.0 -237719000000.0 -181739000000.0 -113012000000.0 -78820600000.0 -149636000000.0 -186990000000.0 -499157000000.0 -63214400000.0 -55107100000.0 -96844000000.0 -259289000000.0 -287132000000.0 -170570000000.0 -415627000000.0 -412583000000.0 -603627000000.0 -191557000000.0 -742197000000.0 -428578000000.0 -441159000000.0 -443324000000.0 -469740000000.0 -294121000000.0 -265284000000.0 -236470000000.0 -375071000000.0 -516991000000.0 -308361000000.0 -212506000000.0 -288245000000.0 -168982000000.0 -496281000000.0 -160270000000.0 -329088000000.0 -213337000000.0 -181652000000.0 -189268000000.0 -263356000000.0 -329876000000.0 -266827000000.0 -234699000000.0 -304790000000.0 -137062000000.0 -206929000000.0 -250880000000.0 -74101300000.0 -52347300000.0 -666600000000.0 -517989000000.0 -742002000000.0 -161601000000.0 -281704000000.0 -15969600000.0 -77900900000.0 -185687000000.0 -183367000000.0 -238920000000.0 -268890000000.0 -113872000000.0 -156519000000.0 -180329000000.0 -20556200000.0 -95171000000.0 -225866000000.0 -72244900000.0 -250783000000.0 -139830000000.0 -69172800000.0 -51437600000.0 -428088000000.0 -131464000000.0 -250391000000.0 -141297000000.0 -38609800000.0 -296940000000.0 -218552000000.0 -727722000000.0 -86206800000.0 -27513500000.0 -731751000000.0 -532371000000.0 -545236000000.0 -519546000000.0 -120093000000.0 -241309000000.0 -147862000000.0 -176356000000.0 -222562000000.0 -49980500000.0 -170638000000.0 -20847600000.0 -273172000000.0 -82127200000.0 -401260000000.0 -96999200000.0 -218544000000.0 -59645500000.0 -122172000000.0 -22730300000.0 -149009000000.0 -458995000000.0 -95798500000.0 -73683700000.0 -65979200000.0 -147598000000.0 -224558000000.0 -234783000000.0 -12549700000.0 -21943000000.0 -25567100000.0 -45668200000.0 -121004000000.0 -14684200000.0 -284873000000.0 -151607000000.0 -81484800000.0 -359149000000.0 -678787000000.0 -188827000000.0 -241889000000.0 -177041000000.0 -237922000000.0 -525858000000.0 -363845000000.0 -371101000000.0 -209209000000.0 -233466000000.0 -427378000000.0 -14639500000.0 -198668000000.0 -57193300000.0 -442784000000.0 -299868000000.0 -50038300000.0 -23308200000.0 -12549700000.0 -12549700000.0 -194244000000.0 -63342200000.0 -80787700000.0 -24805000000.0 -176973000000.0 -55594400000.0 -85336800000.0 -20888000000.0 -241371000000.0 -447348000000.0 -275857000000.0 -12549500000.0 -233601000000.0 -408738000000.0 -372180000000.0 -91795000000.0 -176881000000.0 -14372300000.0 -12549700000.0 -53343000000.0 -13280300000.0 -245794000000.0 -171576000000.0 -128617000000.0 -133347000000.0 -150575000000.0 -523029000000.0 -385490000000.0 -568933000000.0 -301858000000.0 -397819000000.0 -339033000000.0 -462043000000.0 -265832000000.0 -336565000000.0 -230648000000.0 -224987000000.0 -415823000000.0 -255157000000.0 -692293000000.0 -19332300000.0 -17346800000.0 -441660000000.0 -337335000000.0 -12549700000.0 -1.02691e+12 -627842000000.0 -607541000000.0 -731225000000.0 -449870000000.0 -633737000000.0 -258424000000.0 -376033000000.0 -109840000000.0 -339178000000.0 -57245500000.0 -499105000000.0 -57365200000.0 -139827000000.0 -15868900000.0 -139589000000.0 -109596000000.0 -111418000000.0 -399015000000.0 -216237000000.0 -13112000000.0 -45417300000.0 -23197400000.0 -402747000000.0 -282381000000.0 -12549700000.0 -25256700000.0 -55349300000.0 -12549700000.0 -103749000000.0 -20485600000.0 -319107000000.0 -122395000000.0 -231432000000.0 -568508000000.0 -130909000000.0 -69093700000.0 -106731000000.0 -70185500000.0 -160989000000.0 -71452900000.0 -317966000000.0 -436072000000.0 -683013000000.0 -1.07656e+12 -1.09229e+12 -868276000000.0 -543412000000.0 -422473000000.0 -313886000000.0 -257558000000.0 -199321000000.0 -101865000000.0 -65468100000.0 -63473900000.0 -190241000000.0 -62521900000.0 -77182000000.0 -42376800000.0 -276271000000.0 -166954000000.0 -177455000000.0 -180601000000.0 -338271000000.0 -454168000000.0 -278425000000.0 -186381000000.0 -273025000000.0 -585109000000.0 -205529000000.0 -78312300000.0 -153439000000.0 -28769900000.0 -48336200000.0 -37126700000.0 -20444800000.0 -226319000000.0 -213534000000.0 -76079600000.0 -129672000000.0 -224894000000.0 -163292000000.0 -86411300000.0 -177896000000.0 -232497000000.0 -139275000000.0 -42279500000.0 -320208000000.0 -40823100000.0 -96847100000.0 -44352500000.0 -63580700000.0 -339699000000.0 -278196000000.0 -648801000000.0 -346538000000.0 -423986000000.0 -388198000000.0 -692953000000.0 -548600000000.0 -464033000000.0 -34780300000.0 -17512800000.0 -189450000000.0 -457858000000.0 -567891000000.0 -453984000000.0 -486318000000.0 -586814000000.0 -753256000000.0 -442160000000.0 -698331000000.0 -71699200000.0 -136890000000.0 -77720900000.0 -90121700000.0 -50473000000.0 -38963200000.0 -302166000000.0 -195634000000.0 -387711000000.0 -293009000000.0 -322859000000.0 -506386000000.0 -506880000000.0 -339372000000.0 -357940000000.0 -321263000000.0 -288744000000.0 -398134000000.0 -427153000000.0 -156394000000.0 -96077900000.0 -25281600000.0 -404901000000.0 -74359600000.0 -16339900000.0 -49559400000.0 -27493500000.0 -95928600000.0 -24838500000.0 -261625000000.0 -235449000000.0 -257739000000.0 -75125100000.0 -336290000000.0 -15138100000.0 -255509000000.0 -391710000000.0 -231422000000.0 -15851900000.0 -12285400000.0 -39284600000.0 -26067000000.0 -12549700000.0 -188041000000.0 -123405000000.0 -88992200000.0 -277238000000.0 -113766000000.0 -122517000000.0 -14923200000.0 -54497500000.0 -441908000000.0 -333361000000.0 -857853000000.0 -147888000000.0 -181039000000.0 -706625000000.0 -466695000000.0 -140391000000.0 -291901000000.0 -301506000000.0 -170306000000.0 -44309200000.0 -25880800000.0 -229158000000.0 -224148000000.0 -12549700000.0 -29036400000.0 -105035000000.0 -170912000000.0 -12549700000.0 -259391000000.0 -299544000000.0 -218488000000.0 -155781000000.0 -185129000000.0 -89578400000.0 -370829000000.0 -297830000000.0 -305251000000.0 -441052000000.0 -282990000000.0 -688365000000.0 -286087000000.0 -424957000000.0 -352417000000.0 -440625000000.0 -516879000000.0 -558169000000.0 -181290000000.0 -226394000000.0 -62659000000.0 -208015000000.0 -373851000000.0 -96856700000.0 -200145000000.0 -91510900000.0 -365385000000.0 -239207000000.0 -556390000000.0 -33931000000.0 -38619800000.0 -24389300000.0 -20781400000.0 -16425800000.0 -12549700000.0 -140454000000.0 -218887000000.0 -169213000000.0 -24869700000.0 -43156000000.0 -400762000000.0 -162946000000.0 -56750100000.0 -137102000000.0 -26825400000.0 -41939900000.0 -137572000000.0 -150659000000.0 -74177300000.0 -25424700000.0 -19005800000.0 -447173000000.0 -285266000000.0 -331034000000.0 -400004000000.0 -406937000000.0 -487330000000.0 -610171000000.0 -199399000000.0 -14266100000.0 -115684000000.0 -46749500000.0 -314665000000.0 -96196300000.0 -147898000000.0 -100081000000.0 -518469000000.0 -205146000000.0 -146720000000.0 -143235000000.0 -110259000000.0 -125001000000.0 -195093000000.0 -102912000000.0 -68072600000.0 -277921000000.0 -179193000000.0 -331889000000.0 -314460000000.0 -561423000000.0 -260454000000.0 -341694000000.0 -847432000000.0 -742718000000.0 -885955000000.0 -702520000000.0 -296648000000.0 -156542000000.0 -217074000000.0 -381989000000.0 -210762000000.0 -352799000000.0 -517486000000.0 -506141000000.0 -513510000000.0 -424135000000.0 -437696000000.0 -503376000000.0 -499970000000.0 -307753000000.0 -143979000000.0 -319548000000.0 -210366000000.0 -156881000000.0 -376442000000.0 -293548000000.0 -12549600000.0 -21527200000.0 -33543000000.0 -270111000000.0 -437616000000.0 -426988000000.0 -177361000000.0 -368642000000.0 -75477300000.0 -12548500000.0 -741998000000.0 -380482000000.0 -219899000000.0 -214633000000.0 -282969000000.0 -443998000000.0 -513988000000.0 -187835000000.0 -332133000000.0 -185861000000.0 -498633000000.0 -12549700000.0 -451592000000.0 -20451700000.0 -25668800000.0 -16434500000.0 -30121500000.0 -16653900000.0 -29931300000.0 -172429000000.0 -105280000000.0 -83394400000.0 -123132000000.0 -145247000000.0 -263677000000.0 -96435400000.0 -71529500000.0 -153919000000.0 -74136600000.0 -76186600000.0 -90851500000.0 -393593000000.0 -274489000000.0 -305365000000.0 -405996000000.0 -32957100000.0 -79003600000.0 -22766700000.0 -52614700000.0 -12549700000.0 -12549700000.0 -16381700000.0 -526901000000.0 -300653000000.0 -323781000000.0 -265366000000.0 -430494000000.0 -24264200000.0 -126368000000.0 -342842000000.0 -456025000000.0 -12549700000.0 -14739300000.0 -122637000000.0 -91259500000.0 -12549700000.0 -51487200000.0 -109655000000.0 -12549700000.0 -300424000000.0 -229766000000.0 -19549900000.0 -456009000000.0 -765084000000.0 -450345000000.0 -676913000000.0 -1.08515e+12 -664548000000.0 -82468000000.0 -349287000000.0 -1.15885e+12 -779915000000.0 -570980000000.0 -481001000000.0 -359585000000.0 -302317000000.0 -142206000000.0 -402281000000.0 -45394600000.0 -19284100000.0 -24102200000.0 -149968000000.0 -15300000000.0 -322043000000.0 -205726000000.0 -330274000000.0 -171586000000.0 -261021000000.0 -20496300000.0 -75816200000.0 -12549700000.0 -27218800000.0 -67074100000.0 -166873000000.0 -273376000000.0 -407831000000.0 -194139000000.0 -449618000000.0 -280957000000.0 -279461000000.0 -643940000000.0 -316584000000.0 -12556100000.0 -56135700000.0 -12587200000.0 -190851000000.0 -12549700000.0 -608153000000.0 -333557000000.0 -371413000000.0 -589521000000.0 -232933000000.0 -538378000000.0 -12549700000.0 -21456600000.0 -27389900000.0 -40649300000.0 -12566900000.0 -15043500000.0 -112609000000.0 -80082000000.0 -83945800000.0 -76466300000.0 -155915000000.0 -173358000000.0 -132274000000.0 -99661100000.0 -161916000000.0 -103713000000.0 -141471000000.0 -288913000000.0 -27361700000.0 -42681300000.0 -50658400000.0 -86115900000.0 -57235000000.0 -54455300000.0 -30406500000.0 -36366800000.0 -29265600000.0 -12786700000.0 -12549700000.0 -305671000000.0 -121863000000.0 -107982000000.0 -27972100000.0 -207771000000.0 -313908000000.0 -638647000000.0 -75596900000.0 -346660000000.0 -274579000000.0 -225970000000.0 -134713000000.0 -146687000000.0 -24122600000.0 -20407700000.0 -156429000000.0 -65455800000.0 -306534000000.0 -142138000000.0 -46508800000.0 -248346000000.0 -732516000000.0 -495812000000.0 -187512000000.0 -781122000000.0 -691752000000.0 -416831000000.0 -16844200000.0 -324453000000.0 -500428000000.0 -150909000000.0 -362493000000.0 -264976000000.0 -228289000000.0 -199154000000.0 -34728300000.0 -292920000000.0 -125046000000.0 -271259000000.0 -171196000000.0 -116231000000.0 -266176000000.0 -30354300000.0 -185405000000.0 -35342300000.0 -120346000000.0 -25868500000.0 -52309200000.0 -16145200000.0 -19314200000.0 -106196000000.0 -215034000000.0 -25336600000.0 -507292000000.0 -218717000000.0 -427728000000.0 -38452800000.0 -51197200000.0 -541466000000.0 -264342000000.0 -157711000000.0 -165303000000.0 -180566000000.0 -177363000000.0 -150028000000.0 -543547000000.0 -386079000000.0 -483248000000.0 -548673000000.0 -179157000000.0 -458933000000.0 -16924000000.0 -23232800000.0 -48107500000.0 -65105300000.0 -12549900000.0 -112017000000.0 -85740400000.0 -91106700000.0 -25914300000.0 -12549700000.0 -23712400000.0 -128172000000.0 -74558700000.0 -17323000000.0 -60995700000.0 -15367700000.0 -27205600000.0 -151418000000.0 -34733100000.0 -18029200000.0 -15614400000.0 -53591700000.0 -14511400000.0 -12549700000.0 -12549700000.0 -27080800000.0 -15075100000.0 -38203000000.0 -32114000000.0 -99045300000.0 -230742000000.0 -412563000000.0 -307976000000.0 -332955000000.0 -544248000000.0 -242453000000.0 -56808800000.0 -359428000000.0 -311253000000.0 -75052600000.0 -72938800000.0 -87761100000.0 -135135000000.0 -63983300000.0 -164079000000.0 -120132000000.0 -329550000000.0 -194300000000.0 -119348000000.0 -931187000000.0 -22749600000.0 -171873000000.0 -265494000000.0 -1.08078e+12 -415478000000.0 -266866000000.0 -410653000000.0 -510628000000.0 -430803000000.0 -577845000000.0 -737740000000.0 -429907000000.0 -475611000000.0 -127795000000.0 -67439000000.0 -269166000000.0 -223482000000.0 -64555800000.0 -133220000000.0 -23387300000.0 -300406000000.0 -161114000000.0 -274080000000.0 -118609000000.0 -147691000000.0 -53046900000.0 -50551000000.0 -36446900000.0 -102654000000.0 -327919000000.0 -228450000000.0 -327735000000.0 -74068500000.0 -47933300000.0 -73225700000.0 -294452000000.0 -251466000000.0 -469772000000.0 -384711000000.0 -112000000000.0 -116195000000.0 -148756000000.0 -161953000000.0 -228099000000.0 -614045000000.0 -36841500000.0 -50615200000.0 -224556000000.0 -878227000000.0 -547952000000.0 -199773000000.0 -486036000000.0 -498550000000.0 -577200000000.0 -478558000000.0 -342647000000.0 -218266000000.0 -122246000000.0 -87144200000.0 -83651000000.0 -92597400000.0 -152762000000.0 -74683200000.0 -88600500000.0 -126771000000.0 -62998900000.0 -69578800000.0 -157039000000.0 -42635300000.0 -12549700000.0 -17410700000.0 -58548800000.0 -19300800000.0 -12549700000.0 -22246400000.0 -32713900000.0 -23333200000.0 -25227600000.0 -14631600000.0 -124248000000.0 -558637000000.0 -21962700000.0 -76297500000.0 -103402000000.0 -559531000000.0 -84987200000.0 -313012000000.0 -328395000000.0 -202850000000.0 -225364000000.0 -269465000000.0 -302613000000.0 -408120000000.0 -456063000000.0 -460933000000.0 -398483000000.0 -778693000000.0 -524266000000.0 -747576000000.0 -333137000000.0 -262040000000.0 -165783000000.0 -425950000000.0 -1.80355e+12 -553001000000.0 -520048000000.0 -848306000000.0 -318797000000.0 -758206000000.0 -60962100000.0 -293613000000.0 -67842500000.0 -131492000000.0 -308808000000.0 -90669400000.0 -250661000000.0 -217529000000.0 -20064000000.0 -26921800000.0 -110967000000.0 -286851000000.0 -75174300000.0 -180682000000.0 -20733900000.0 -12549700000.0 -159961000000.0 -118697000000.0 -35394500000.0 -286804000000.0 -12549700000.0 -509474000000.0 -49250100000.0 -17873200000.0 -12549700000.0 -50843200000.0 -155396000000.0 -14206900000.0 -441750000000.0 -309351000000.0 -127493000000.0 -60137200000.0 -56636400000.0 -29892400000.0 -126188000000.0 -556309000000.0 -239960000000.0 -141998000000.0 -687949000000.0 -494567000000.0 -450640000000.0 -102124000000.0 -16307500000.0 -13200000000.0 -466150000000.0 -314825000000.0 -290552000000.0 -253522000000.0 -269164000000.0 -215519000000.0 -191229000000.0 -195060000000.0 -264469000000.0 -178576000000.0 -162281000000.0 -220429000000.0 -155775000000.0 -109278000000.0 -164037000000.0 -120641000000.0 -57768900000.0 -39304400000.0 -84484700000.0 -46424500000.0 -16412500000.0 -59301500000.0 -65580400000.0 -15811800000.0 -59993400000.0 -36205000000.0 -157311000000.0 -616104000000.0 -175432000000.0 -223071000000.0 -461307000000.0 -270345000000.0 -229020000000.0 -32958000000.0 -419401000000.0 -246950000000.0 -184914000000.0 -85051100000.0 -153812000000.0 -122360000000.0 -326130000000.0 -108193000000.0 -213400000000.0 -328699000000.0 -37172300000.0 -400465000000.0 -363833000000.0 -24554500000.0 -462663000000.0 -73180700000.0 -1.4561e+12 -584863000000.0 -12549700000.0 -427501000000.0 -98860800000.0 -599666000000.0 -264892000000.0 -444504000000.0 -157589000000.0 -130234000000.0 -377826000000.0 -470606000000.0 -580491000000.0 -367039000000.0 -169521000000.0 -105676000000.0 -175745000000.0 -335926000000.0 -193630000000.0 -181618000000.0 -19190900000.0 -39943000000.0 -205100000000.0 -310519000000.0 -186980000000.0 -383415000000.0 -173114000000.0 -563767000000.0 -66326300000.0 -98895000000.0 -97217600000.0 -157548000000.0 -222448000000.0 -167597000000.0 -167434000000.0 -865333000000.0 -212910000000.0 -102197000000.0 -85365600000.0 -104103000000.0 -185956000000.0 -395681000000.0 -21595100000.0 -213100000000.0 -585916000000.0 -245734000000.0 -384185000000.0 -287429000000.0 -354618000000.0 -513859000000.0 -106995000000.0 -72508400000.0 -113556000000.0 -90060400000.0 -39600200000.0 -12549700000.0 -12549700000.0 -12549700000.0 -90876600000.0 -24919600000.0 -16925600000.0 -59497000000.0 -16358200000.0 -25448400000.0 -81495500000.0 -202849000000.0 -83934100000.0 -81025000000.0 -132093000000.0 -48202900000.0 -21414000000.0 -87702800000.0 -56188800000.0 -134845000000.0 -364526000000.0 -368159000000.0 -735962000000.0 -244708000000.0 -141163000000.0 -174172000000.0 -372303000000.0 -360985000000.0 -291473000000.0 -264783000000.0 -718631000000.0 -64833700000.0 -122130000000.0 -87341000000.0 -129355000000.0 -38060000000.0 -395963000000.0 -40755200000.0 -153341000000.0 -394561000000.0 -177395000000.0 -462298000000.0 -651792000000.0 -512952000000.0 -290307000000.0 -221003000000.0 -1.10938e+12 -53294400000.0 -505304000000.0 -755399000000.0 -307794000000.0 -512424000000.0 -109525000000.0 -368307000000.0 -111944000000.0 -318349000000.0 -29922100000.0 -12549700000.0 -424539000000.0 -467440000000.0 -141417000000.0 -202136000000.0 -338220000000.0 -764948000000.0 -511473000000.0 -449742000000.0 -401493000000.0 -287952000000.0 -599541000000.0 -57830600000.0 -12549700000.0 -235522000000.0 -12549700000.0 -467448000000.0 -122349000000.0 -191929000000.0 -179378000000.0 -275866000000.0 -406078000000.0 -12631300000.0 -135545000000.0 -767959000000.0 -346514000000.0 -262032000000.0 -192624000000.0 -89844700000.0 -262215000000.0 -450763000000.0 -31667000000.0 -545403000000.0 -466677000000.0 -230190000000.0 -427217000000.0 -110723000000.0 -49301600000.0 -153365000000.0 -41127400000.0 -12549700000.0 -97425400000.0 -122442000000.0 -48793000000.0 -26075700000.0 -16048100000.0 -12549700000.0 -65496500000.0 -16897100000.0 -27800200000.0 -54710900000.0 -16626000000.0 -31382500000.0 -105002000000.0 -195865000000.0 -16051900000.0 -29664600000.0 -22360500000.0 -172153000000.0 -79145100000.0 -198421000000.0 -187730000000.0 -271722000000.0 -17300800000.0 -34135900000.0 -711035000000.0 -320470000000.0 -290017000000.0 -492107000000.0 -610026000000.0 -796893000000.0 -363575000000.0 -282555000000.0 -913248000000.0 -367081000000.0 -415766000000.0 -59818200000.0 -356159000000.0 -413963000000.0 -253797000000.0 -451609000000.0 -472808000000.0 -689534000000.0 -782403000000.0 -740165000000.0 -810667000000.0 -513444000000.0 -366356000000.0 -1.13209e+12 -389861000000.0 -413193000000.0 -464138000000.0 -701650000000.0 -229361000000.0 -609639000000.0 -348897000000.0 -75174400000.0 -142659000000.0 -384918000000.0 -163048000000.0 -246579000000.0 -259971000000.0 -205259000000.0 -407356000000.0 -382358000000.0 -330246000000.0 -543704000000.0 -309525000000.0 -255886000000.0 -375401000000.0 -119486000000.0 -559259000000.0 -361104000000.0 -291809000000.0 -450416000000.0 -421063000000.0 -655590000000.0 -174442000000.0 -141940000000.0 -142358000000.0 -247890000000.0 -517538000000.0 -89760000000.0 -162736000000.0 -727039000000.0 -13208300000.0 -388024000000.0 -178782000000.0 -392852000000.0 -141623000000.0 -748285000000.0 -524901000000.0 -414137000000.0 -631662000000.0 -590002000000.0 -18700300000.0 -84684900000.0 -83551600000.0 -14801800000.0 -31794300000.0 -103739000000.0 -32792900000.0 -66980900000.0 -20175200000.0 -68842200000.0 -51022900000.0 -118121000000.0 -146327000000.0 -108443000000.0 -62112900000.0 -12624200000.0 -15686500000.0 -12549700000.0 -13979800000.0 -12549700000.0 -12975500000.0 -12549700000.0 -12549700000.0 -48789200000.0 -27173300000.0 -12777900000.0 -22070700000.0 -63900400000.0 -82062000000.0 -39051900000.0 -17246600000.0 -14229200000.0 -60963200000.0 -32301000000.0 -12549700000.0 -114682000000.0 -100999000000.0 -277692000000.0 -223800000000.0 -87082300000.0 -12549700000.0 -104322000000.0 -12549700000.0 -102901000000.0 -13072000000.0 -199514000000.0 -227627000000.0 -156382000000.0 -127011000000.0 -85658000000.0 -108995000000.0 -20315800000.0 -33180600000.0 -126410000000.0 -112118000000.0 -255358000000.0 -148393000000.0 -381012000000.0 -204543000000.0 -713957000000.0 -303595000000.0 -364442000000.0 -185020000000.0 -324773000000.0 -135260000000.0 -137647000000.0 -287955000000.0 -290485000000.0 -567150000000.0 -492392000000.0 -871284000000.0 -483128000000.0 -289047000000.0 -343435000000.0 -89918000000.0 -710626000000.0 -175655000000.0 -28264900000.0 -769853000000.0 -458401000000.0 -32226000000.0 -883745000000.0 -59557100000.0 -680102000000.0 -338286000000.0 -773605000000.0 -178368000000.0 -661754000000.0 -292811000000.0 -302242000000.0 -133739000000.0 -284142000000.0 -75448900000.0 -705777000000.0 -593998000000.0 -13750700000.0 -229888000000.0 -580790000000.0 -517404000000.0 -906290000000.0 -831357000000.0 -542746000000.0 -789743000000.0 -413222000000.0 -742174000000.0 -1.12066e+12 -181109000000.0 -451550000000.0 -652218000000.0 -683828000000.0 -228001000000.0 -283753000000.0 -745275000000.0 -399511000000.0 -95798600000.0 -273325000000.0 -243857000000.0 -422435000000.0 -288902000000.0 -380343000000.0 -328656000000.0 -45664900000.0 -102906000000.0 -29725200000.0 -95886500000.0 -285365000000.0 -327732000000.0 -12902600000.0 -221760000000.0 -198957000000.0 -24229200000.0 -134165000000.0 -121505000000.0 -68523200000.0 -39785100000.0 -316207000000.0 -373588000000.0 -14504200000.0 -118977000000.0 -97431100000.0 -155320000000.0 -453612000000.0 -518914000000.0 -213551000000.0 -149022000000.0 -98067100000.0 -139854000000.0 -144889000000.0 -257243000000.0 -228747000000.0 -558572000000.0 -558552000000.0 -486421000000.0 -111969000000.0 -287491000000.0 -194457000000.0 -329556000000.0 -289282000000.0 -284241000000.0 -246623000000.0 -191377000000.0 -565527000000.0 -542293000000.0 -182564000000.0 -345651000000.0 -184657000000.0 -167757000000.0 -270603000000.0 -110366000000.0 -306704000000.0 -109790000000.0 -608310000000.0 -468089000000.0 -511157000000.0 -182127000000.0 -687041000000.0 -191901000000.0 -399627000000.0 -380962000000.0 -414621000000.0 -299724000000.0 -116174000000.0 -215586000000.0 -326713000000.0 -352949000000.0 -403096000000.0 -203566000000.0 -206619000000.0 -149040000000.0 -664996000000.0 -626601000000.0 -97053500000.0 -64968100000.0 -290866000000.0 -322816000000.0 -332533000000.0 -248216000000.0 -199256000000.0 -116320000000.0 -205088000000.0 -126519000000.0 -66507200000.0 -12809800000.0 -40198700000.0 -22508400000.0 -85017400000.0 -169620000000.0 -47838600000.0 -17208700000.0 -12549700000.0 -14393600000.0 -19409700000.0 -42985900000.0 -26082200000.0 -109623000000.0 -13486000000.0 -99706200000.0 -13657700000.0 -130259000000.0 -231731000000.0 -12549700000.0 -12549700000.0 -12549700000.0 -247091000000.0 -199655000000.0 -62176700000.0 -42511300000.0 -166053000000.0 -156830000000.0 -318756000000.0 -300378000000.0 -418273000000.0 -327091000000.0 -70436200000.0 -186688000000.0 -606436000000.0 -228149000000.0 -209224000000.0 -360623000000.0 -785999000000.0 -425120000000.0 -390651000000.0 -526776000000.0 -424110000000.0 -528137000000.0 -472775000000.0 -420398000000.0 -659994000000.0 -223293000000.0 -613482000000.0 -800117000000.0 -465618000000.0 -255569000000.0 -12549700000.0 -902931000000.0 -568479000000.0 -226648000000.0 -22316200000.0 -110777000000.0 -438931000000.0 -226024000000.0 -143310000000.0 -119470000000.0 -304843000000.0 -199862000000.0 -62458600000.0 -180370000000.0 -279859000000.0 -533086000000.0 -279881000000.0 -233758000000.0 -556247000000.0 -202359000000.0 -324742000000.0 -253482000000.0 -509435000000.0 -371069000000.0 -38417400000.0 -67482700000.0 -37534300000.0 -282057000000.0 -460391000000.0 -325426000000.0 -166141000000.0 -204865000000.0 -314841000000.0 -278815000000.0 -234252000000.0 -616872000000.0 -680587000000.0 -369515000000.0 -506208000000.0 -734272000000.0 -910889000000.0 -783207000000.0 -648533000000.0 -450163000000.0 -749777000000.0 -646584000000.0 -120066000000.0 -94733300000.0 -184500000000.0 -209559000000.0 -180648000000.0 -189443000000.0 -227097000000.0 -451275000000.0 -226432000000.0 -189605000000.0 -192587000000.0 -192022000000.0 -170815000000.0 -189974000000.0 -207074000000.0 -142024000000.0 -289625000000.0 -344629000000.0 -266010000000.0 -219043000000.0 -127514000000.0 -170105000000.0 -120543000000.0 -108436000000.0 -306355000000.0 -287311000000.0 -105427000000.0 -138868000000.0 -10452000000.0 -22602800000.0 -442154000000.0 -54416500000.0 -196646000000.0 -170986000000.0 -49003100000.0 -90435300000.0 -323641000000.0 -77199700000.0 -195455000000.0 -295381000000.0 -558472000000.0 -257681000000.0 -182184000000.0 -382749000000.0 -281307000000.0 -437029000000.0 -178653000000.0 -294436000000.0 -727142000000.0 -335953000000.0 -554405000000.0 -583857000000.0 -595119000000.0 -377458000000.0 -29208300000.0 -745851000000.0 -467718000000.0 -249292000000.0 -191839000000.0 -479155000000.0 -79656900000.0 -134439000000.0 -29093700000.0 -24994500000.0 -250462000000.0 -306927000000.0 -162574000000.0 -15627100000.0 -13353800000.0 -329857000000.0 -164422000000.0 -97867000000.0 -263089000000.0 -518267000000.0 -590615000000.0 -397854000000.0 -158008000000.0 -436256000000.0 -51316500000.0 -20185200000.0 -28075100000.0 -310902000000.0 -534544000000.0 -417566000000.0 -379708000000.0 -416332000000.0 -475098000000.0 -578800000000.0 -439693000000.0 -46997300000.0 -251269000000.0 -142817000000.0 -307370000000.0 -99755700000.0 -33022200000.0 -16868500000.0 -77443800000.0 -738081000000.0 -646353000000.0 -525978000000.0 -1.18131e+12 -618622000000.0 -20450600000.0 -91974900000.0 -38516000000.0 -40177200000.0 -13252400000.0 -320420000000.0 -44631500000.0 -26658100000.0 -20718200000.0 -15447600000.0 -12549700000.0 -12549700000.0 -175663000000.0 -114798000000.0 -171959000000.0 -262459000000.0 -626859000000.0 -268084000000.0 -312648000000.0 -23436800000.0 -16706800000.0 -33194000000.0 -437061000000.0 -169426000000.0 -104999000000.0 -132713000000.0 -68502600000.0 -81397400000.0 -449951000000.0 -156789000000.0 -56945000000.0 -123157000000.0 -19383900000.0 -80375800000.0 -307195000000.0 -56222200000.0 -35069400000.0 -257790000000.0 -574054000000.0 -364080000000.0 -455520000000.0 -349680000000.0 -269922000000.0 -353282000000.0 -69616200000.0 -100283000000.0 -541178000000.0 -307762000000.0 -12258300000.0 -782770000000.0 -460435000000.0 -130931000000.0 -443022000000.0 -846827000000.0 -17144400000.0 -348138000000.0 -437485000000.0 -428129000000.0 -159233000000.0 -213824000000.0 -160379000000.0 -153977000000.0 -251804000000.0 -280739000000.0 -26511000000.0 -13418900000.0 -12549700000.0 -282904000000.0 -110335000000.0 -60707700000.0 -253559000000.0 -676474000000.0 -778240000000.0 -440282000000.0 -409048000000.0 -381162000000.0 -639102000000.0 -498918000000.0 -384829000000.0 -374821000000.0 -17294400000.0 -99026000000.0 -61695500000.0 -39747900000.0 -59809700000.0 -311073000000.0 -144742000000.0 -21015500000.0 -102136000000.0 -206218000000.0 -230432000000.0 -104134000000.0 -37988700000.0 -80910900000.0 -23772700000.0 -332070000000.0 -546997000000.0 -31924400000.0 -274009000000.0 -258389000000.0 -45773900000.0 -58669700000.0 -75399000000.0 -44201100000.0 -38606800000.0 -267106000000.0 -30591900000.0 -12549700000.0 -20803600000.0 -42043500000.0 -81608200000.0 -115618000000.0 -212739000000.0 -131941000000.0 -223306000000.0 -12549700000.0 -12549700000.0 -777168000000.0 -340842000000.0 -333314000000.0 -233153000000.0 -295862000000.0 -116970000000.0 -14461000000.0 -213980000000.0 -195299000000.0 -108372000000.0 -126193000000.0 -461462000000.0 -155176000000.0 -66979200000.0 -168950000000.0 -100372000000.0 -299423000000.0 -206776000000.0 -150372000000.0 -156847000000.0 -194711000000.0 -357386000000.0 -75899600000.0 -62171500000.0 -335522000000.0 -262596000000.0 -1.06681e+12 -993952000000.0 -1.08196e+12 -785741000000.0 -634885000000.0 -515175000000.0 -1.02051e+12 -941491000000.0 -959432000000.0 -800060000000.0 -1.13911e+12 -732167000000.0 -398322000000.0 -358989000000.0 -589737000000.0 -17343200000.0 -135687000000.0 -67837100000.0 -16557100000.0 -277760000000.0 -250620000000.0 -117298000000.0 -85644400000.0 -144198000000.0 -291104000000.0 -97249000000.0 -27100100000.0 -108966000000.0 -1.20079e+12 -329050000000.0 -262960000000.0 -18963100000.0 -197774000000.0 -442029000000.0 -12549700000.0 -411876000000.0 -714956000000.0 -165538000000.0 -268362000000.0 -170328000000.0 -214493000000.0 -167357000000.0 -209989000000.0 -376890000000.0 -171468000000.0 -245353000000.0 -417123000000.0 -178587000000.0 -27921500000.0 -14529500000.0 -88855900000.0 -12549700000.0 -489142000000.0 -621920000000.0 -74468000000.0 -177079000000.0 -379934000000.0 -60976000000.0 -28081400000.0 -33767800000.0 -15229900000.0 -38932900000.0 -333677000000.0 -182528000000.0 -153736000000.0 -161857000000.0 -158022000000.0 -158094000000.0 -164602000000.0 -231436000000.0 -155366000000.0 -274699000000.0 -387151000000.0 -419387000000.0 -877912000000.0 -628826000000.0 -28777100000.0 -51511200000.0 -196555000000.0 -209449000000.0 -21845500000.0 -155306000000.0 -120425000000.0 -18784500000.0 -147432000000.0 -305428000000.0 -152943000000.0 -228074000000.0 -14363000000.0 -12549700000.0 -226588000000.0 -136727000000.0 -18240200000.0 -30992600000.0 -132884000000.0 -343884000000.0 -494242000000.0 -489641000000.0 -402537000000.0 -847809000000.0 -29619500000.0 -104805000000.0 -19294100000.0 -789550000000.0 -709369000000.0 -379533000000.0 -796000000000.0 -25846000000.0 -667688000000.0 -193928000000.0 -401673000000.0 -264913000000.0 -242027000000.0 -151272000000.0 -403981000000.0 -713493000000.0 -592542000000.0 -162446000000.0 -151809000000.0 -329474000000.0 -253518000000.0 -58430900000.0 -138656000000.0 -287035000000.0 -18540600000.0 -349254000000.0 -319602000000.0 -972131000000.0 -317590000000.0 -373227000000.0 -82595100000.0 -385639000000.0 -12549700000.0 -446624000000.0 -320086000000.0 -457903000000.0 -535377000000.0 -73307300000.0 -151479000000.0 -46220700000.0 -130477000000.0 -39818900000.0 -222018000000.0 -177065000000.0 -34636000000.0 -52630800000.0 -12548900000.0 -357885000000.0 -229243000000.0 -176302000000.0 -257092000000.0 -195912000000.0 -480928000000.0 -609049000000.0 -80508800000.0 -215161000000.0 -427125000000.0 -69103800000.0 -14290400000.0 -20383700000.0 -23787400000.0 -289593000000.0 -174273000000.0 -87287800000.0 -27145600000.0 -16349900000.0 -19582800000.0 -62968700000.0 -81329400000.0 -135710000000.0 -155788000000.0 -16474400000.0 -12549700000.0 -119890000000.0 -110230000000.0 -899117000000.0 -695812000000.0 -325919000000.0 -523394000000.0 -98748600000.0 -152486000000.0 -345557000000.0 -358852000000.0 -267467000000.0 -78536900000.0 -188582000000.0 -372041000000.0 -292795000000.0 -85252600000.0 -83686200000.0 -52769000000.0 -237394000000.0 -78737900000.0 -133647000000.0 -340269000000.0 -125675000000.0 -138746000000.0 -344378000000.0 -75574600000.0 -402563000000.0 -73360400000.0 -89628300000.0 -180204000000.0 -499073000000.0 -480688000000.0 -200560000000.0 -980089000000.0 -523267000000.0 -132248000000.0 -382943000000.0 -603998000000.0 -553267000000.0 -528970000000.0 -401207000000.0 -164834000000.0 -308425000000.0 -144526000000.0 -397092000000.0 -368425000000.0 -457906000000.0 -219815000000.0 -69055300000.0 -128240000000.0 -335175000000.0 -225002000000.0 -248024000000.0 -374502000000.0 -1.28303e+12 -742075000000.0 -414733000000.0 -682339000000.0 -795476000000.0 -713006000000.0 -697875000000.0 -310470000000.0 -814065000000.0 -656595000000.0 -529309000000.0 -518695000000.0 -570303000000.0 -519931000000.0 -440238000000.0 -603896000000.0 -559020000000.0 -12716100000.0 -66337300000.0 -29835700000.0 -417136000000.0 -203959000000.0 -368887000000.0 -377648000000.0 -244632000000.0 -700718000000.0 -381549000000.0 -489191000000.0 -324218000000.0 -459305000000.0 -184299000000.0 -343688000000.0 -360121000000.0 -437915000000.0 -121861000000.0 -159571000000.0 -106721000000.0 -32917100000.0 -15864100000.0 -15217900000.0 -60936700000.0 -28469000000.0 -212038000000.0 -218448000000.0 -161220000000.0 -166888000000.0 -179376000000.0 -272559000000.0 -762932000000.0 -610890000000.0 -131767000000.0 -445726000000.0 -18926900000.0 -22135900000.0 -252843000000.0 -280400000000.0 -68312100000.0 -133855000000.0 -183555000000.0 -389789000000.0 -196783000000.0 -21337200000.0 -14655100000.0 -60704700000.0 -186682000000.0 -20026900000.0 -46103600000.0 -232055000000.0 -44041500000.0 -12549700000.0 -323971000000.0 -13257100000.0 -315444000000.0 -42696700000.0 -14022800000.0 -12549700000.0 -435353000000.0 -490583000000.0 -299147000000.0 -517945000000.0 -297032000000.0 -304534000000.0 -28047600000.0 -350192000000.0 -127618000000.0 -206478000000.0 -12549700000.0 -392939000000.0 -396816000000.0 -307451000000.0 -485206000000.0 -301394000000.0 -257101000000.0 -699293000000.0 -244908000000.0 -332392000000.0 -713788000000.0 -293629000000.0 -328992000000.0 -749887000000.0 -319753000000.0 -425687000000.0 -91497400000.0 -230986000000.0 -200318000000.0 -188169000000.0 -789773000000.0 -367460000000.0 -515828000000.0 -452647000000.0 -227094000000.0 -348575000000.0 -301338000000.0 -432854000000.0 -334205000000.0 -473567000000.0 -326778000000.0 -620001000000.0 -641454000000.0 -239931000000.0 -471079000000.0 -349014000000.0 -176652000000.0 -175034000000.0 -288737000000.0 -815134000000.0 -344223000000.0 -428636000000.0 -1.00549e+12 -773144000000.0 -25198200000.0 -104849000000.0 -12549700000.0 -220684000000.0 -182494000000.0 -81326500000.0 -209888000000.0 -57031500000.0 -12549700000.0 -13237300000.0 -61183100000.0 -31663800000.0 -418247000000.0 -58622800000.0 -67897200000.0 -75750800000.0 -266744000000.0 -299217000000.0 -1.18335e+12 -818446000000.0 -243953000000.0 -716648000000.0 -307258000000.0 -418923000000.0 -462826000000.0 -17187300000.0 -30195100000.0 -68601100000.0 -190472000000.0 -468631000000.0 -335130000000.0 -159087000000.0 -160093000000.0 -217142000000.0 -259206000000.0 -111049000000.0 -173699000000.0 -228680000000.0 -136402000000.0 -151846000000.0 -206083000000.0 -429833000000.0 -635534000000.0 -279046000000.0 -236200000000.0 -249544000000.0 -439662000000.0 -385686000000.0 -261000000000.0 -583241000000.0 -515385000000.0 -469504000000.0 -499872000000.0 -374943000000.0 -104556000000.0 -259373000000.0 -196443000000.0 -394858000000.0 -426081000000.0 -255436000000.0 -416415000000.0 -12549700000.0 -153844000000.0 -502381000000.0 -117009000000.0 -485658000000.0 -806791000000.0 -48638600000.0 -81077400000.0 -648517000000.0 -492163000000.0 -639026000000.0 -362927000000.0 -228531000000.0 -346946000000.0 -176029000000.0 -843688000000.0 -171734000000.0 -627379000000.0 -342455000000.0 -311911000000.0 -55430900000.0 -61780200000.0 -340496000000.0 -217932000000.0 -279381000000.0 -265653000000.0 -422991000000.0 -512633000000.0 -604393000000.0 -42075100000.0 -30867000000.0 -170582000000.0 -196678000000.0 -111754000000.0 -487403000000.0 -380773000000.0 -369789000000.0 -740976000000.0 -630581000000.0 -12549700000.0 -148886000000.0 -74777600000.0 -313317000000.0 -445448000000.0 -253057000000.0 -321816000000.0 -371785000000.0 -353478000000.0 -272955000000.0 -265721000000.0 -254723000000.0 -648877000000.0 -209112000000.0 -225253000000.0 -180997000000.0 -238803000000.0 -559277000000.0 -1.35125e+12 -275042000000.0 -630187000000.0 -714238000000.0 -188932000000.0 -274087000000.0 -498399000000.0 -56258900000.0 -38744400000.0 -83677800000.0 -145653000000.0 -339329000000.0 -235598000000.0 -71745900000.0 -75948600000.0 -83609900000.0 -343863000000.0 -63465000000.0 -244459000000.0 -16758600000.0 -23073300000.0 -20566100000.0 -66930100000.0 -298544000000.0 -347940000000.0 -72238700000.0 -59261400000.0 -73476300000.0 -306895000000.0 -338151000000.0 -302632000000.0 -484926000000.0 -190781000000.0 -351052000000.0 -305829000000.0 -324791000000.0 -572017000000.0 -340236000000.0 -483985000000.0 -631198000000.0 -672613000000.0 -479859000000.0 -460426000000.0 -398798000000.0 -336309000000.0 -882403000000.0 -286128000000.0 -97914800000.0 -190269000000.0 -822133000000.0 -610576000000.0 -1.17272e+12 -880374000000.0 -1.13641e+12 -381128000000.0 -473809000000.0 -321883000000.0 -629811000000.0 -605180000000.0 -1.16786e+12 -1.34171e+12 -413035000000.0 -392379000000.0 -386155000000.0 -391961000000.0 -199665000000.0 -130952000000.0 -138004000000.0 -56885900000.0 -17089600000.0 -94861400000.0 -549108000000.0 -439995000000.0 -290212000000.0 -399942000000.0 -319392000000.0 -391624000000.0 -691647000000.0 -353047000000.0 -476259000000.0 -1.27318e+12 -121328000000.0 -168726000000.0 -334289000000.0 -297994000000.0 -369150000000.0 -713849000000.0 -527565000000.0 -399264000000.0 -27647000000.0 -128214000000.0 -17007500000.0 -65334500000.0 -62458100000.0 -386986000000.0 -503629000000.0 -333928000000.0 -440744000000.0 -506945000000.0 -36019400000.0 -1.25177e+12 -303023000000.0 -321512000000.0 -735657000000.0 -278930000000.0 -608961000000.0 -591028000000.0 -61767900000.0 -40241800000.0 -111047000000.0 -189605000000.0 -270718000000.0 -328433000000.0 -12549700000.0 -36669900000.0 -14958000000.0 -276439000000.0 -104163000000.0 -224805000000.0 -12549700000.0 -12549700000.0 -31996600000.0 -223687000000.0 -319764000000.0 -313841000000.0 -132437000000.0 -96368300000.0 -77960500000.0 -241541000000.0 -208199000000.0 -102952000000.0 -365409000000.0 -37554600000.0 -185143000000.0 -12549700000.0 -115424000000.0 -150993000000.0 -634019000000.0 -43886600000.0 -166300000000.0 -274405000000.0 -12549700000.0 -408259000000.0 -145416000000.0 -267638000000.0 -669596000000.0 -224115000000.0 -186820000000.0 -92532500000.0 -548796000000.0 -33565800000.0 -925975000000.0 -166674000000.0 -1.09043e+12 -834356000000.0 -671855000000.0 -659220000000.0 -608786000000.0 -54467000000.0 -244618000000.0 -692810000000.0 -129475000000.0 -180216000000.0 -166790000000.0 -29627800000.0 -116993000000.0 -85947200000.0 -91139100000.0 -40041300000.0 -12549300000.0 -28358400000.0 -483691000000.0 -199291000000.0 -190884000000.0 -29383800000.0 -129930000000.0 -111103000000.0 -438542000000.0 -40835500000.0 -91438000000.0 -1.04365e+12 -82641900000.0 -192156000000.0 -533220000000.0 -557536000000.0 -1.09599e+12 -122079000000.0 -117284000000.0 -903721000000.0 -20726700000.0 -132921000000.0 -12549500000.0 -55752400000.0 -390851000000.0 -152170000000.0 -365442000000.0 -197495000000.0 -250615000000.0 -253536000000.0 -123290000000.0 -1.29977e+12 -318247000000.0 -66413700000.0 -744331000000.0 -419943000000.0 -574724000000.0 -145871000000.0 -464271000000.0 -339400000000.0 -400763000000.0 -514628000000.0 -817228000000.0 -949932000000.0 -407661000000.0 -400770000000.0 -410592000000.0 -495406000000.0 -440651000000.0 -482570000000.0 -301091000000.0 -370747000000.0 -383800000000.0 -282231000000.0 -169760000000.0 -456783000000.0 -364882000000.0 -335590000000.0 -359248000000.0 -465796000000.0 -357646000000.0 -397733000000.0 -195648000000.0 -156449000000.0 -253344000000.0 -80214600000.0 -20858600000.0 -110854000000.0 -600622000000.0 -239675000000.0 -393642000000.0 -463111000000.0 -319905000000.0 -684659000000.0 -336878000000.0 -476918000000.0 -254155000000.0 -176478000000.0 -120095000000.0 -406237000000.0 -727132000000.0 -1.11665e+12 -224173000000.0 -322760000000.0 -546534000000.0 -74528900000.0 -321389000000.0 -178293000000.0 -420630000000.0 -375881000000.0 -465637000000.0 -743394000000.0 -305563000000.0 -238179000000.0 -107221000000.0 -184074000000.0 -118700000000.0 -334505000000.0 -246422000000.0 -262133000000.0 -190627000000.0 -185358000000.0 -671443000000.0 -254414000000.0 -267285000000.0 -113910000000.0 -203899000000.0 -178701000000.0 -271775000000.0 -213282000000.0 -243473000000.0 -1.11657e+12 -157653000000.0 -562285000000.0 -583757000000.0 -536164000000.0 -1.18064e+12 -50399100000.0 -58387500000.0 -997456000000.0 -533768000000.0 -443801000000.0 -481721000000.0 -544268000000.0 -193174000000.0 -321747000000.0 -410940000000.0 -250543000000.0 -362582000000.0 -613705000000.0 -429258000000.0 -1.18348e+12 -699081000000.0 -673573000000.0 -1.09758e+12 -726090000000.0 -918215000000.0 -1.01481e+12 -815851000000.0 -838017000000.0 -817703000000.0 -916945000000.0 -422424000000.0 -435992000000.0 -521724000000.0 -510002000000.0 -509665000000.0 -545621000000.0 -299804000000.0 -296961000000.0 -127033000000.0 -249065000000.0 -195106000000.0 -53153900000.0 -319195000000.0 -225333000000.0 -13979500000.0 -12549700000.0 -52532400000.0 -130771000000.0 -199587000000.0 -173438000000.0 -173426000000.0 -52425700000.0 -129777000000.0 -361123000000.0 -144070000000.0 -264685000000.0 -501888000000.0 -107935000000.0 -202771000000.0 -211553000000.0 -117642000000.0 -312407000000.0 -110726000000.0 -17958000000.0 -431427000000.0 -106365000000.0 -109415000000.0 -559804000000.0 -90468000000.0 -457513000000.0 -392967000000.0 -290812000000.0 -415882000000.0 -177874000000.0 -436420000000.0 -700182000000.0 -241986000000.0 -317563000000.0 -294912000000.0 -304382000000.0 -23112300000.0 -253014000000.0 -217747000000.0 -270439000000.0 -276584000000.0 -58661200000.0 -119351000000.0 -81682200000.0 -58393800000.0 -74470400000.0 -493606000000.0 -498011000000.0 -235199000000.0 -136678000000.0 -214744000000.0 -70446000000.0 -164201000000.0 -26033000000.0 -88007400000.0 -1.14114e+12 -283364000000.0 -268251000000.0 -377653000000.0 -12549700000.0 -39284100000.0 -1.10868e+12 -92504000000.0 -1.05812e+12 -345657000000.0 -16516200000.0 -120690000000.0 -211035000000.0 -69543900000.0 -334068000000.0 -366997000000.0 -208453000000.0 -360999000000.0 -299401000000.0 -219872000000.0 -942295000000.0 -739478000000.0 -1.07989e+12 -179057000000.0 -324683000000.0 -289484000000.0 -452868000000.0 -263269000000.0 -412871000000.0 -117383000000.0 -606478000000.0 -30373400000.0 -203224000000.0 -61356200000.0 -63957400000.0 -116598000000.0 -94184600000.0 -174359000000.0 -100285000000.0 -78210400000.0 -69916000000.0 -12549700000.0 -92635500000.0 -242646000000.0 -175681000000.0 -38235100000.0 -18009100000.0 -52756300000.0 -222089000000.0 -197122000000.0 -28506700000.0 -227954000000.0 -30501700000.0 -32159100000.0 -242824000000.0 -190153000000.0 -206539000000.0 -330645000000.0 -30466000000.0 -348745000000.0 -300370000000.0 -116558000000.0 -415593000000.0 -186224000000.0 -88282900000.0 -500044000000.0 -210468000000.0 -177733000000.0 -679991000000.0 -94024900000.0 -476284000000.0 -404486000000.0 -454607000000.0 -599614000000.0 -259807000000.0 -778483000000.0 -76870300000.0 -39121500000.0 -12549700000.0 -336364000000.0 -147985000000.0 -17975500000.0 -169251000000.0 -75463700000.0 -160796000000.0 -137471000000.0 -194265000000.0 -175717000000.0 -162166000000.0 -200063000000.0 -199972000000.0 -362253000000.0 -731597000000.0 -152865000000.0 -281294000000.0 -332179000000.0 -447124000000.0 -736094000000.0 -517972000000.0 -898888000000.0 -312366000000.0 -92027700000.0 -209505000000.0 -514276000000.0 -56183800000.0 -13128900000.0 -607852000000.0 -1.07595e+12 -1.61896e+12 -384045000000.0 -579394000000.0 -633739000000.0 -883764000000.0 -827148000000.0 -331604000000.0 -202076000000.0 -222130000000.0 -408989000000.0 -751318000000.0 -465441000000.0 -441419000000.0 -592609000000.0 -922709000000.0 -103360000000.0 -314243000000.0 -177749000000.0 -428966000000.0 -55774500000.0 -997408000000.0 -808423000000.0 -669778000000.0 -348547000000.0 -236302000000.0 -445475000000.0 -300677000000.0 -359195000000.0 -410001000000.0 -256946000000.0 -200593000000.0 -196548000000.0 -194685000000.0 -130049000000.0 -220258000000.0 -302715000000.0 -239233000000.0 -130591000000.0 -144081000000.0 -245388000000.0 -32998400000.0 -147113000000.0 -59735300000.0 -280933000000.0 -127531000000.0 -172607000000.0 -276858000000.0 -183378000000.0 -110891000000.0 -87199200000.0 -646108000000.0 -215826000000.0 -325424000000.0 -333923000000.0 -194599000000.0 -101111000000.0 -83167900000.0 -362191000000.0 -32568000000.0 -33436800000.0 -762434000000.0 -280388000000.0 -659459000000.0 -261368000000.0 -513508000000.0 -150764000000.0 -25365500000.0 -447221000000.0 -109505000000.0 -12549700000.0 -20176400000.0 -248744000000.0 -286209000000.0 -235420000000.0 -125786000000.0 -82646600000.0 -209710000000.0 -157189000000.0 -51046000000.0 -12549700000.0 -15552700000.0 -56930200000.0 -23960400000.0 -245385000000.0 -616073000000.0 -170898000000.0 -176214000000.0 -347254000000.0 -270002000000.0 -172298000000.0 -37757400000.0 -531406000000.0 -230109000000.0 -17265200000.0 -564758000000.0 -67065300000.0 -424304000000.0 -1.20081e+12 -957614000000.0 -733226000000.0 -1.83008e+12 -12797700000.0 -65151200000.0 -575735000000.0 -683803000000.0 -404204000000.0 -697230000000.0 -509246000000.0 -461576000000.0 -626562000000.0 -419248000000.0 -614794000000.0 -1.27964e+12 -1.09362e+12 -1.25263e+12 -917913000000.0 -1.58391e+12 -1.00528e+12 -1.34488e+12 -898917000000.0 -233104000000.0 -118475000000.0 -466387000000.0 -332390000000.0 -602486000000.0 -535743000000.0 -431148000000.0 -626236000000.0 -128637000000.0 -144496000000.0 -159976000000.0 -62357100000.0 -89743500000.0 -79379000000.0 -14262200000.0 -141170000000.0 -146787000000.0 -56126900000.0 -55528200000.0 -168465000000.0 -82901000000.0 -174343000000.0 -77178500000.0 -184227000000.0 -88883400000.0 -132628000000.0 -208527000000.0 -314303000000.0 -189286000000.0 -455623000000.0 -19824500000.0 -24685900000.0 -96107900000.0 -38678600000.0 -399244000000.0 -208364000000.0 -179292000000.0 -436318000000.0 -298026000000.0 -456640000000.0 -280207000000.0 -51113600000.0 -523355000000.0 -285124000000.0 -444379000000.0 -228303000000.0 -145425000000.0 -450403000000.0 -96035800000.0 -25961400000.0 -42478700000.0 -208802000000.0 -332623000000.0 -16683000000.0 -12547800000.0 -27995000000.0 -226883000000.0 -214009000000.0 -137979000000.0 -123948000000.0 -160743000000.0 -203004000000.0 -203331000000.0 -343666000000.0 -581974000000.0 -31715600000.0 -12549700000.0 -231124000000.0 -128029000000.0 -185467000000.0 -66587100000.0 -427274000000.0 -73140800000.0 -51791200000.0 -830461000000.0 -1.30115e+12 -870717000000.0 -339315000000.0 -328806000000.0 -516119000000.0 -642151000000.0 -1.03689e+12 -1.56638e+12 -962907000000.0 -272871000000.0 -576901000000.0 -607835000000.0 -783096000000.0 -742775000000.0 -934891000000.0 -935417000000.0 -815873000000.0 -261024000000.0 -469871000000.0 -998945000000.0 -845158000000.0 -117923000000.0 -235273000000.0 -273349000000.0 -1.24943e+12 -807417000000.0 -848905000000.0 -468756000000.0 -311803000000.0 -272744000000.0 -129810000000.0 -131861000000.0 -87977000000.0 -411398000000.0 -196081000000.0 -192299000000.0 -176312000000.0 -232354000000.0 -87995600000.0 -68587600000.0 -117409000000.0 -92298100000.0 -19334300000.0 -20111200000.0 -140559000000.0 -53027700000.0 -121885000000.0 -12549700000.0 -183054000000.0 -75723200000.0 -126866000000.0 -205229000000.0 -246409000000.0 -275992000000.0 -332151000000.0 -57465000000.0 -14185500000.0 -61871800000.0 -28385300000.0 -350451000000.0 -22398200000.0 -34038600000.0 -206377000000.0 -87557500000.0 -249317000000.0 -260728000000.0 -12549700000.0 -532602000000.0 -381243000000.0 -458454000000.0 -69159900000.0 -159102000000.0 -372591000000.0 -319421000000.0 -248651000000.0 -212922000000.0 -508025000000.0 -26332900000.0 -156279000000.0 -153623000000.0 -152284000000.0 -136128000000.0 -182138000000.0 -12549700000.0 -13347300000.0 -23201500000.0 -13015800000.0 -47666000000.0 -229691000000.0 -626422000000.0 -236499000000.0 -265104000000.0 -371543000000.0 -270875000000.0 -385789000000.0 -131474000000.0 -310585000000.0 -30133100000.0 -31846600000.0 -58186900000.0 -578236000000.0 -602866000000.0 -488326000000.0 -421620000000.0 -314691000000.0 -610164000000.0 -68797200000.0 -1.01746e+12 -231166000000.0 -253281000000.0 -251704000000.0 -135399000000.0 -226752000000.0 -108698000000.0 -12549700000.0 -471525000000.0 -460017000000.0 -589209000000.0 -548110000000.0 -1.00147e+12 -561101000000.0 -105142000000.0 -21841300000.0 -229707000000.0 -712167000000.0 -271378000000.0 -515411000000.0 -306090000000.0 -155231000000.0 -255479000000.0 -138674000000.0 -50130100000.0 -17174200000.0 -309077000000.0 -125717000000.0 -191719000000.0 -188105000000.0 -152945000000.0 -41561400000.0 -30647000000.0 -83243400000.0 -86291000000.0 -42350100000.0 -38207800000.0 -137334000000.0 -97959700000.0 -72755100000.0 -40083300000.0 -138718000000.0 -22426800000.0 -85643900000.0 -120701000000.0 -309105000000.0 -49594600000.0 -245405000000.0 -183189000000.0 -129687000000.0 -177160000000.0 -201013000000.0 -198772000000.0 -35998900000.0 -30306100000.0 -226900000000.0 -60021400000.0 -276699000000.0 -261709000000.0 -93229800000.0 -599704000000.0 -375981000000.0 -595086000000.0 -301157000000.0 -19244400000.0 -296066000000.0 -100736000000.0 -53101300000.0 -53033000000.0 -351893000000.0 -31734600000.0 -122272000000.0 -170532000000.0 -120568000000.0 -155002000000.0 -47188900000.0 -152819000000.0 -31270600000.0 -18361300000.0 -38287400000.0 -47281300000.0 -187128000000.0 -474406000000.0 -21042500000.0 -179007000000.0 -378474000000.0 -428535000000.0 -461342000000.0 -571901000000.0 -568491000000.0 -1.0007e+12 -468693000000.0 -210911000000.0 -457405000000.0 -484375000000.0 -271888000000.0 -53662000000.0 -107869000000.0 -178872000000.0 -535221000000.0 -930681000000.0 -250883000000.0 -260515000000.0 -484479000000.0 -283216000000.0 -376961000000.0 -216983000000.0 -332090000000.0 -264895000000.0 -494324000000.0 -113667000000.0 -259743000000.0 -616034000000.0 -371931000000.0 -648220000000.0 -530223000000.0 -321672000000.0 -685888000000.0 -677652000000.0 -12549000000.0 -115150000000.0 -266556000000.0 -218515000000.0 -233661000000.0 -262417000000.0 -281054000000.0 -396932000000.0 -121409000000.0 -141372000000.0 -229335000000.0 -224068000000.0 -18017400000.0 -17858000000.0 -52151100000.0 -88391300000.0 -32252700000.0 -32278500000.0 -140756000000.0 -107699000000.0 -60103400000.0 -38506300000.0 -168686000000.0 -97730200000.0 -195441000000.0 -276177000000.0 -360499000000.0 -28059800000.0 -199613000000.0 -77491600000.0 -12549700000.0 -66155400000.0 -116051000000.0 -238130000000.0 -28963900000.0 -28283200000.0 -214308000000.0 -16997900000.0 -24079100000.0 -630386000000.0 -364635000000.0 -1.04121e+12 -875307000000.0 -1.03625e+12 -646034000000.0 -580903000000.0 -361331000000.0 -199262000000.0 -152917000000.0 -143189000000.0 -406260000000.0 -156538000000.0 -334698000000.0 -87793800000.0 -13402100000.0 -187226000000.0 -71056700000.0 -99826000000.0 -145642000000.0 -129464000000.0 -192260000000.0 -187731000000.0 -66199300000.0 -718912000000.0 -283485000000.0 -150362000000.0 -323765000000.0 -12549700000.0 -150952000000.0 -91846300000.0 -246954000000.0 -49830300000.0 -19169400000.0 -83060800000.0 -309217000000.0 -416131000000.0 -149241000000.0 -15020600000.0 -61745500000.0 -289255000000.0 -309860000000.0 -580619000000.0 -43807400000.0 -241525000000.0 -161561000000.0 -136530000000.0 -149326000000.0 -182664000000.0 -360866000000.0 -435668000000.0 -587566000000.0 -370552000000.0 -440453000000.0 -780706000000.0 -267551000000.0 -328013000000.0 -124359000000.0 -148027000000.0 -1.19933e+12 -171152000000.0 -191083000000.0 -77940800000.0 -206793000000.0 -206536000000.0 -14380600000.0 -28619200000.0 -40472300000.0 -190649000000.0 -12549700000.0 -12549700000.0 -90730600000.0 -12549700000.0 -211217000000.0 -171928000000.0 -186778000000.0 -104069000000.0 -88882300000.0 -118278000000.0 -240994000000.0 -183643000000.0 -156784000000.0 -234694000000.0 -351257000000.0 -254301000000.0 -203352000000.0 -33444500000.0 -266481000000.0 -12848900000.0 -157788000000.0 -96896100000.0 -12589900000.0 -83566900000.0 -199328000000.0 -38621700000.0 -209927000000.0 -211744000000.0 -484432000000.0 -402227000000.0 -512416000000.0 -315319000000.0 -565904000000.0 -30743000000.0 -341214000000.0 -119791000000.0 -649847000000.0 -206819000000.0 -70934900000.0 -240945000000.0 -56535100000.0 -28691700000.0 -289795000000.0 -101232000000.0 -377348000000.0 -20520200000.0 -86374000000.0 -238863000000.0 -127765000000.0 -161837000000.0 -133627000000.0 -104407000000.0 -219936000000.0 -265988000000.0 -287141000000.0 -454755000000.0 -59420200000.0 -63123000000.0 -305294000000.0 -122156000000.0 -18042200000.0 -12549700000.0 -122817000000.0 -25381600000.0 -12549700000.0 -39496700000.0 -180765000000.0 -371626000000.0 -103593000000.0 -90022800000.0 -15537500000.0 -269539000000.0 -265469000000.0 -52917100000.0 -642482000000.0 -374809000000.0 -486326000000.0 -440383000000.0 -626306000000.0 -657081000000.0 -456307000000.0 -126785000000.0 -322934000000.0 -100857000000.0 -26460100000.0 -992624000000.0 -555512000000.0 -498308000000.0 -504474000000.0 -466088000000.0 -712934000000.0 -631850000000.0 -278843000000.0 -130887000000.0 -50535500000.0 -140070000000.0 -58487600000.0 -42894600000.0 -36615900000.0 -45270600000.0 -147027000000.0 -110102000000.0 -104715000000.0 -12549700000.0 -155628000000.0 -102428000000.0 -90981900000.0 -75798400000.0 -54250100000.0 -51938400000.0 -161524000000.0 -64566600000.0 -88426300000.0 -13754700000.0 -99298800000.0 -40898000000.0 -86543300000.0 -171202000000.0 -106576000000.0 -375522000000.0 -304223000000.0 -257160000000.0 -65003800000.0 -39048500000.0 -235661000000.0 -173768000000.0 -271782000000.0 -333749000000.0 -170023000000.0 -156890000000.0 -392415000000.0 -129217000000.0 -438900000000.0 -110119000000.0 -262461000000.0 -113653000000.0 -1.05164e+12 -588873000000.0 -435717000000.0 -408098000000.0 -498060000000.0 -416229000000.0 -576081000000.0 -302363000000.0 -47473200000.0 -269418000000.0 -464519000000.0 -463021000000.0 -344894000000.0 -353611000000.0 -312569000000.0 -206351000000.0 -160251000000.0 -191664000000.0 -161229000000.0 -334808000000.0 -113878000000.0 -173733000000.0 -161401000000.0 -86524400000.0 -59265000000.0 -57348400000.0 -99669100000.0 -12549700000.0 -12549700000.0 -17146200000.0 -30156700000.0 -161902000000.0 -321003000000.0 -12549700000.0 -104750000000.0 -252163000000.0 -252187000000.0 -71796100000.0 -314927000000.0 -298733000000.0 -198917000000.0 -273990000000.0 -115327000000.0 -99233600000.0 -181896000000.0 -325280000000.0 -560663000000.0 -602186000000.0 -612732000000.0 -326363000000.0 -53971900000.0 -12549700000.0 -158918000000.0 -116683000000.0 -460097000000.0 -305413000000.0 -21879700000.0 -91781100000.0 -32528200000.0 -77819500000.0 -12786500000.0 -12625800000.0 -12549700000.0 -25847800000.0 -69153500000.0 -50181200000.0 -37937200000.0 -173120000000.0 -26237500000.0 -18302700000.0 -24611900000.0 -19591100000.0 -13637200000.0 -12549700000.0 -97870500000.0 -15197800000.0 -48329700000.0 -16277300000.0 -61388900000.0 -12549700000.0 -22508900000.0 -77468400000.0 -43521100000.0 -257860000000.0 -180811000000.0 -157611000000.0 -221801000000.0 -235534000000.0 -335782000000.0 -164011000000.0 -165039000000.0 -161191000000.0 -141489000000.0 -183741000000.0 -273247000000.0 -55952700000.0 -515436000000.0 -90393900000.0 -462599000000.0 -573845000000.0 -331700000000.0 -151496000000.0 -20673800000.0 -153769000000.0 -202244000000.0 -208291000000.0 -354028000000.0 -135365000000.0 -154905000000.0 -241114000000.0 -42836000000.0 -99567700000.0 -65764700000.0 -57305900000.0 -40744100000.0 -126650000000.0 -185813000000.0 -259741000000.0 -211077000000.0 -318885000000.0 -38871400000.0 -110481000000.0 -140837000000.0 -14625500000.0 -34105800000.0 -48419400000.0 -64615000000.0 -16399800000.0 -12549700000.0 -142941000000.0 -267335000000.0 -357135000000.0 -524094000000.0 -421583000000.0 -407152000000.0 -480834000000.0 -427613000000.0 -504624000000.0 -712289000000.0 -439632000000.0 -370988000000.0 -445779000000.0 -366194000000.0 -354183000000.0 -368200000000.0 -422594000000.0 -351736000000.0 -270519000000.0 -183636000000.0 -385791000000.0 -65640500000.0 -50294900000.0 -79809400000.0 -64426700000.0 -284798000000.0 -110201000000.0 -110751000000.0 -88792700000.0 -38899100000.0 -78812400000.0 -37258600000.0 -40633300000.0 -48372400000.0 -70366000000.0 -13144500000.0 -19419300000.0 -17564000000.0 -108337000000.0 -18104300000.0 -12549700000.0 -16646800000.0 -13763500000.0 -12549700000.0 -12549700000.0 -72026800000.0 -12889000000.0 -33343700000.0 -17760800000.0 -48046900000.0 -18812100000.0 -13986400000.0 -31139800000.0 -28475800000.0 -144187000000.0 -60318400000.0 -50031600000.0 -165188000000.0 -219123000000.0 -289310000000.0 -257297000000.0 -160907000000.0 -153771000000.0 -206500000000.0 -182006000000.0 -364384000000.0 -413932000000.0 -163706000000.0 -521496000000.0 -147243000000.0 -244077000000.0 -332867000000.0 -411400000000.0 -208834000000.0 -226810000000.0 -174777000000.0 -89585300000.0 -338760000000.0 -230289000000.0 -212546000000.0 -268262000000.0 -269233000000.0 -252114000000.0 -212058000000.0 -184508000000.0 -177368000000.0 -187252000000.0 -273630000000.0 -268387000000.0 -302722000000.0 -699384000000.0 -455903000000.0 -256757000000.0 -180874000000.0 -61189600000.0 -22475900000.0 -62759000000.0 -24508100000.0 -46053000000.0 -12549700000.0 -12549700000.0 -16155600000.0 -45877900000.0 -132604000000.0 -99512200000.0 -33464100000.0 -71908800000.0 -145923000000.0 -22956000000.0 -105000000000.0 -130113000000.0 -18960000000.0 -55653000000.0 -36019000000.0 -60608700000.0 -57059500000.0 -133448000000.0 -152028000000.0 -63249600000.0 -148104000000.0 -121362000000.0 -265350000000.0 -180379000000.0 -200628000000.0 -157860000000.0 -93000900000.0 -106541000000.0 -89913900000.0 -52187000000.0 -33745600000.0 -57027200000.0 -35747200000.0 -32120700000.0 -36578100000.0 -43144500000.0 -23774000000.0 -24291000000.0 -24561600000.0 -94093700000.0 -15407500000.0 -14648500000.0 -14027600000.0 -12617800000.0 -12549700000.0 -13354700000.0 -23109800000.0 -47186300000.0 -47863900000.0 -37381800000.0 -52903600000.0 -47714300000.0 -12549700000.0 -12549700000.0 -74847000000.0 -47385700000.0 -20085700000.0 -28839900000.0 -25065000000.0 -42337500000.0 -107168000000.0 -21640200000.0 -148303000000.0 -121518000000.0 -157195000000.0 -226357000000.0 -365320000000.0 -311729000000.0 -228706000000.0 -431508000000.0 -170374000000.0 -228429000000.0 -132556000000.0 -108308000000.0 -242161000000.0 -128143000000.0 -206216000000.0 -196499000000.0 -102935000000.0 -72180100000.0 -48379800000.0 -31424100000.0 -117498000000.0 -12549700000.0 -90906900000.0 -38736200000.0 -117940000000.0 -111368000000.0 -35292500000.0 -14288100000.0 -127372000000.0 -170093000000.0 -13779100000.0 -150416000000.0 -68308400000.0 -163638000000.0 -88793200000.0 -96646200000.0 -106280000000.0 -102748000000.0 -48179200000.0 -14006200000.0 -15780600000.0 -28038600000.0 -62813700000.0 -42088300000.0 -20255500000.0 -36788700000.0 -79626400000.0 -38053700000.0 -73798800000.0 -88087200000.0 -59768300000.0 -66875300000.0 -54409200000.0 -59638300000.0 -69260900000.0 -12549700000.0 -12549700000.0 -20463700000.0 -35523900000.0 -24492700000.0 -36613700000.0 -12549700000.0 -12549700000.0 -23220100000.0 -17083200000.0 -65503400000.0 -28822800000.0 -15852800000.0 -12549700000.0 -21407500000.0 -16092600000.0 -14835400000.0 -16746900000.0 -16258500000.0 -12549700000.0 -13238700000.0 -14187300000.0 -23405200000.0 -41877400000.0 -29809100000.0 -27301200000.0 -27390400000.0 -26527700000.0 -25403800000.0 -28190200000.0 -42176000000.0 -46002600000.0 -49389300000.0 -53592400000.0 -46117300000.0 -82843900000.0 -80196600000.0 -110655000000.0 -94336800000.0 -79550000000.0 -89409100000.0 -72726700000.0 -70326800000.0 -43335900000.0 -107677000000.0 -152592000000.0 -134121000000.0 -117384000000.0 -135523000000.0 -74999000000.0 -100952000000.0 -99632900000.0 -41648300000.0 -48526500000.0 -57261800000.0 -26714000000.0 -19822600000.0 -12549700000.0 -21482300000.0 -16538200000.0 -12549700000.0 -12549700000.0 -35755600000.0 -21509000000.0 -21226400000.0 -33708700000.0 -43655400000.0 -53946300000.0 -13719000000.0 -36978800000.0 -47695900000.0 -50598300000.0 -60031200000.0 -31118200000.0 -63844100000.0 -39399500000.0 -77076000000.0 -46595700000.0 -57950800000.0 -37088500000.0 -36020100000.0 -21412500000.0 -12549700000.0 -15833700000.0 