# vtk DataFile Version 2.0
Time step 93
ASCII
DATASET UNSTRUCTURED_GRID
POINTS 4650 float
294592.0 283792.0 0
208906.0 284745.0 0
215609.0 284507.0 0
219277.0 286038.0 0
236996.0 286342.0 0
243950.0 286112.0 0
247368.0 284042.0 0
250880.0 285948.0 0
257819.0 285837.0 0
264878.0 286024.0 0
276505.0 286042.0 0
284306.0 285815.0 0
291158.0 285800.0 0
298003.0 285840.0 0
201998.0 288710.0 0
205446.0 286723.0 0
208895.0 288738.0 0
212340.0 286766.0 0
215790.0 288751.0 0
223076.0 287216.0 0
226696.0 288862.0 0
233612.0 288472.0 0
240541.0 288194.0 0
247464.0 288019.0 0
254378.0 287867.0 0
261301.0 287795.0 0
272800.0 288186.0 0
280878.0 287842.0 0
287751.0 287813.0 0
294584.0 287823.0 0
205444.0 290706.0 0
212352.0 290746.0 0
219545.0 290001.0 0
223321.0 291186.0 0
230255.0 290638.0 0
237158.0 290314.0 0
244061.0 290086.0 0
250963.0 289926.0 0
257850.0 289815.0 0
266628.0 289607.0 0
270128.0 291512.0 0
277480.0 289900.0 0
284351.0 289811.0 0
291183.0 289811.0 0
298004.0 289832.0 0
201997.0 292686.0 0
208889.0 292704.0 0
215818.0 292743.0 0
219629.0 293947.0 0
226917.0 292831.0 0
233799.0 292446.0 0
240684.0 292168.0 0
244184.0 294049.0 0
247562.0 291985.0 0
251039.0 293892.0 0
254437.0 291850.0 0
257891.0 293793.0 0
261294.0 291764.0 0
264939.0 293213.0 0
274081.0 291954.0 0
277644.0 293858.0 0
280979.0 291827.0 0
284428.0 293801.0 0
287794.0 291803.0 0
291215.0 293799.0 0
294601.0 291814.0 0
298005.0 293817.0 0
201996.0 296645.0 0
205432.0 294666.0 0
208853.0 296649.0 0
212332.0 294700.0 0
215752.0 296715.0 0
223441.0 295141.0 0
227083.0 296775.0 0
230456.0 294607.0 0
234015.0 296392.0 0
237334.0 294274.0 0
240835.0 296128.0 0
247659.0 295942.0 0
254492.0 295815.0 0
261339.0 295732.0 0
268384.0 295091.0 0
274350.0 295885.0 0
281092.0 295812.0 0
287849.0 295789.0 0
294619.0 295797.0 0
205407.0 298614.0 0
212246.0 298640.0 0
219551.0 297868.0 0
223330.0 299073.0 0
230738.0 298524.0 0
237519.0 298226.0 0
244306.0 298003.0 0
251109.0 297847.0 0
257926.0 297750.0 0
264983.0 297191.0 0
271104.0 297894.0 0
277783.0 297833.0 0
284507.0 297788.0 0
291251.0 297781.0 0
298007.0 297795.0 0
201994.0 300595.0 0
208788.0 300594.0 0
215590.0 300654.0 0
219315.0 301759.0 0
227530.0 300666.0 0
234244.0 300340.0 0
240983.0 300082.0 0
244417.0 301950.0 0
247750.0 299890.0 0
251169.0 301790.0 0
254535.0 299766.0 0
257929.0 301704.0 0
261328.0 299697.0 0
264570.0 301799.0 0
267837.0 299851.0 0
271205.0 301846.0 0
274497.0 299853.0 0
277882.0 301808.0 0
281186.0 299796.0 0
284572.0 301768.0 0
287902.0 299771.0 0
291283.0 301755.0 0
294636.0 299773.0 0
298008.0 301765.0 0
201992.0 304540.0 0
205374.0 302562.0 0
208718.0 304549.0 0
212123.0 302587.0 0
215419.0 304567.0 0
224407.0 302814.0 0
227859.0 304617.0 0
231022.0 302471.0 0
234454.0 304301.0 0
237697.0 302181.0 0
241116.0 304032.0 0
247829.0 303829.0 0
254562.0 303709.0 0
261246.0 303710.0 0
267908.0 303806.0 0
274577.0 303808.0 0
281255.0 303769.0 0
287945.0 303743.0 0
294651.0 303740.0 0
205341.0 306510.0 0
212023.0 306552.0 0
218326.0 306953.0 0
221382.0 304959.0 0
224750.0 306771.0 0
231256.0 306441.0 0
237851.0 306139.0 0
244514.0 305889.0 0
251219.0 305724.0 0
257915.0 305666.0 0
264587.0 305736.0 0
271267.0 305784.0 0
277943.0 305767.0 0
284619.0 305736.0 0
291308.0 305720.0 0
298009.0 305725.0 0
201989.0 308480.0 0
208654.0 308508.0 0
215123.0 308778.0 0
221618.0 308875.0 0
228097.0 308593.0 0
234624.0 308269.0 0
241228.0 307976.0 0
244592.0 309815.0 0
247895.0 307756.0 0
251260.0 309642.0 0
254585.0 307645.0 0
257939.0 309594.0 0
261263.0 307654.0 0
264618.0 309649.0 0
267946.0 307728.0 0
271305.0 309704.0 0
274627.0 307748.0 0
277981.0 309708.0 0
281300.0 307727.0 0
284650.0 309688.0 0
287975.0 307704.0 0
291326.0 309671.0 0
294663.0 307696.0 0
298010.0 309672.0 0
201987.0 312411.0 0
205310.0 310454.0 0
208585.0 312480.0 0
211868.0 310606.0 0
218403.0 310837.0 0
224936.0 310724.0 0
231430.0 310417.0 0
234752.0 312232.0 0
237974.0 310092.0 0
241315.0 311909.0 0
247947.0 311664.0 0
254615.0 311552.0 0
261291.0 311563.0 0
267976.0 311633.0 0
274658.0 311671.0 0
281328.0 311667.0 0
287996.0 311648.0 0
294670.0 311638.0 0
205289.0 314393.0 0
211879.0 314535.0 0
215149.0 312693.0 0
218486.0 314711.0 0
221731.0 312773.0 0
225057.0 314660.0 0
228250.0 312561.0 0
231553.0 314383.0 0
238067.0 314036.0 0
244649.0 313721.0 0
251295.0 313533.0 0
257964.0 313487.0 0
264644.0 313540.0 0
271329.0 313608.0 0
278004.0 313633.0 0
284670.0 313624.0 0
291337.0 313607.0 0
298011.0 313604.0 0
201986.0 316324.0 0
208595.0 316401.0 0
215216.0 316573.0 0
221838.0 316668.0 0
228366.0 316520.0 0
234850.0 316185.0 0
241377.0 315827.0 0
244686.0 317601.0 0
247984.0 315544.0 0
251316.0 317393.0 0
254638.0 315428.0 0
257974.0 317349.0 0
261310.0 315441.0 0
264652.0 317408.0 0
267994.0 315519.0 0
271338.0 317495.0 0
274675.0 315578.0 0
278014.0 317541.0 0
281344.0 315590.0 0
284681.0 317541.0 0
288008.0 315576.0 0
291345.0 317525.0 0
294676.0 315564.0 0
298012.0 317520.0 0
201986.0 320204.0 0
205297.0 318294.0 0
208625.0 320275.0 0
211927.0 318417.0 0
218583.0 318576.0 0
225179.0 318597.0 0
231660.0 318342.0 0
234940.0 320132.0 0
238138.0 317968.0 0
241417.0 319730.0 0
248002.0 319391.0 0
254640.0 319274.0 0
261302.0 319290.0 0
267990.0 319384.0 0
274677.0 319467.0 0
281352.0 319495.0 0
288016.0 319485.0 0
294680.0 319471.0 0
205310.0 322153.0 0
211977.0 322257.0 0
215291.0 320422.0 0
218678.0 322414.0 0
221963.0 320557.0 0
225347.0 322543.0 0
228496.0 320486.0 0
231787.0 322303.0 0
238198.0 321897.0 0
244702.0 321445.0 0
251315.0 321222.0 0
257949.0 321183.0 0
264626.0 321247.0 0
271325.0 321361.0 0
278016.0 321429.0 0
284689.0 321441.0 0
291351.0 321424.0 0
298012.0 321418.0 0
201986.0 324047.0 0
208652.0 324106.0 0
215354.0 324234.0 0
222079.0 324413.0 0
228734.0 324517.0 0
235038.0 324087.0 0
241441.0 323628.0 0
244700.0 325235.0 0
248004.0 323201.0 0
251290.0 325029.0 0
254606.0 323095.0 0
257863.0 324992.0 0
261246.0 323109.0 0
264543.0 325048.0 0
267951.0 323221.0 0
271284.0 325199.0 0
274664.0 323333.0 0
278015.0 325294.0 0
281358.0 323381.0 0
284702.0 325322.0 0
288025.0 323377.0 0
291360.0 325305.0 0
294684.0 323360.0 0
298013.0 325297.0 0
201986.0 327856.0 0
205320.0 325974.0 0
208666.0 327901.0 0
212011.0 326058.0 0
215386.0 328007.0 0
218750.0 326213.0 0
225474.0 326457.0 0
232125.0 326508.0 0
238259.0 325836.0 0
241454.0 327544.0 0
248003.0 326972.0 0
254519.0 326909.0 0
261096.0 326891.0 0
267852.0 327018.0 0
274645.0 327166.0 0
281375.0 327246.0 0
288043.0 327251.0 0
294691.0 327230.0 0
205323.0 329763.0 0
212020.0 329826.0 0
218770.0 329964.0 0
222157.0 328224.0 0
225549.0 330379.0 0
228845.0 328461.0 0
232227.0 330439.0 0
235537.0 328489.0 0
238960.0 330471.0 0
244725.0 328912.0 0
247887.0 330747.0 0
251206.0 328839.0 0
254388.0 330723.0 0
257718.0 328797.0 0
260885.0 330680.0 0
264296.0 328784.0 0
267406.0 330692.0 0
271224.0 328986.0 0
278032.0 329130.0 0
284732.0 329188.0 0
291378.0 329168.0 0
298014.0 329160.0 0
201985.0 331637.0 0
208663.0 331670.0 0
215379.0 331747.0 0
222152.0 331968.0 0
228919.0 332388.0 0
235615.0 332408.0 0
244396.0 332451.0 0
251067.0 332633.0 0
257549.0 332609.0 0
263997.0 332566.0 0
270426.0 332570.0 0
274652.0 330953.0 0
278095.0 332934.0 0
281422.0 331093.0 0
284797.0 333046.0 0
288079.0 331112.0 0
291412.0 333020.0 0
294704.0 331084.0 0
298016.0 333009.0 0
201985.0 335394.0 0
205319.0 333529.0 0
208646.0 335420.0 0
212002.0 333570.0 0
215340.0 335461.0 0
218740.0 333674.0 0
222116.0 335630.0 0
225633.0 334334.0 0
232293.0 334354.0 0
237690.0 335643.0 0
240953.0 333816.0 0
247683.0 334443.0 0
254246.0 334530.0 0
260677.0 334497.0 0
267059.0 334456.0 0
273396.0 334383.0 0
281525.0 334928.0 0
288148.0 334971.0 0
294729.0 334925.0 0
205313.0 337279.0 0
211962.0 337299.0 0
218686.0 337340.0 0
225744.0 338310.0 0
229000.0 336314.0 0
234445.0 337520.0 0
241012.0 337722.0 0
244306.0 336124.0 0
247620.0 338174.0 0
250932.0 336394.0 0
254150.0 338333.0 0
257404.0 336433.0 0
260533.0 338332.0 0
263769.0 336382.0 0
266848.0 338248.0 0
270101.0 336319.0 0
273143.0 338139.0 0
276346.0 336131.0 0
279309.0 337819.0 0
284923.0 336912.0 0
291475.0 336865.0 0
298018.0 336847.0 0
201984.0 339127.0 0
205316.0 341013.0 0
208633.0 339164.0 0
211943.0 341035.0 0
215264.0 339152.0 0
218546.0 340950.0 0
222074.0 339208.0 0
231221.0 339447.0 0
237796.0 339531.0 0
244341.0 339880.0 0
250904.0 340170.0 0
257334.0 340267.0 0
263641.0 340209.0 0
269935.0 340085.0 0
276197.0 339914.0 0
282317.0 339465.0 0
285395.0 341101.0 0
288277.0 338843.0 0
291579.0 340716.0 0
294770.0 338761.0 0
298021.0 340683.0 0
201984.0 342827.0 0
208643.0 342901.0 0
215247.0 342872.0 0
221770.0 342662.0 0
228042.0 341456.0 0
231491.0 343327.0 0
234616.0 341398.0 0
237979.0 343394.0 0
241133.0 341585.0 0
244469.0 343671.0 0
247670.0 341939.0 0
254154.0 342150.0 0
260487.0 342183.0 0
266749.0 342041.0 0
273034.0 341897.0 0
276132.0 343686.0 0
279264.0 341639.0 0
282351.0 343313.0 0
288535.0 342802.0 0
294819.0 342606.0 0
205332.0 344727.0 0
211972.0 344770.0 0
218563.0 344645.0 0
222028.0 346197.0 0
225140.0 343789.0 0
228508.0 345402.0 0
234877.0 345265.0 0
241319.0 345425.0 0
247797.0 345722.0 0
250975.0 343962.0 0
254262.0 345973.0 0
257375.0 344119.0 0
260569.0 346064.0 0
263618.0 344048.0 0
266745.0 345830.0 0
269870.0 343843.0 0
272986.0 345652.0 0
279219.0 345432.0 0
285458.0 344972.0 0
291694.0 344608.0 0
298024.0 344516.0 0
201985.0 346478.0 0
205353.0 348417.0 0
208675.0 346621.0 0
212031.0 348480.0 0
215326.0 346591.0 0
218783.0 348276.0 0
225507.0 347585.0 0
231859.0 347225.0 0
238223.0 347247.0 0
244647.0 347473.0 0
251109.0 347752.0 0
257548.0 347981.0 0
263732.0 347923.0 0
269863.0 347598.0 0
276064.0 347464.0 0
282307.0 347115.0 0
285417.0 348779.0 0
288579.0 346678.0 0
291717.0 348451.0 0
294862.0 346456.0 0
298026.0 348337.0 0
201987.0 350056.0 0
208698.0 350319.0 0
215439.0 350253.0 0
222452.0 349740.0 0
225897.0 351342.0 0
228878.0 349267.0 0
232199.0 351094.0 0
235187.0 349137.0 0
238493.0 351099.0 0
241543.0 349257.0 0
244846.0 351280.0 0
247962.0 349510.0 0
251266.0 351532.0 0
254415.0 349770.0 0
260868.0 349984.0 0
266835.0 349644.0 0
269818.0 351390.0 0
272921.0 349426.0 0
275930.0 351267.0 0
279118.0 349224.0 0
282199.0 350878.0 0
288550.0 350479.0 0
294868.0 350270.0 0
201985.0 353519.0 0
205368.0 352107.0 0
208680.0 354019.0 0
212045.0 352158.0 0
216567.0 353607.0 0
219478.0 351744.0 0
222934.0 353397.0 0
229235.0 353095.0 0
235490.0 352998.0 0
241777.0 353089.0 0
248134.0 353300.0 0
254562.0 353541.0 0
257730.0 351776.0 0
261057.0 353777.0 0
264244.0 352015.0 0
272741.0 353228.0 0
278955.0 353015.0 0
285336.0 352518.0 0
291701.0 352234.0 0
294861.0 354034.0 0
298027.0 352122.0 0
205414.0 355862.0 0
213624.0 355330.0 0
219979.0 355363.0 0
226287.0 355111.0 0
232522.0 354941.0 0
235774.0 356848.0 0
238755.0 354947.0 0
245041.0 355093.0 0
251405.0 355309.0 0
257849.0 355540.0 0
264364.0 355815.0 0
267647.0 354188.0 0
270938.0 356329.0 0
275710.0 355073.0 0
278780.0 356796.0 0
282065.0 354570.0 0
285269.0 356180.0 0
288504.0 354209.0 0
291678.0 355959.0 0
298028.0 355864.0 0
201979.0 356822.0 0
207603.0 358795.0 0
210621.0 357017.0 0
213953.0 358925.0 0
216989.0 357195.0 0
220359.0 359009.0 0
223335.0 357100.0 0
226634.0 358878.0 0
229576.0 356911.0 0
232823.0 358778.0 0
238995.0 358796.0 0
241995.0 356925.0 0
245209.0 358917.0 0
248283.0 357098.0 0
251499.0 359097.0 0
254655.0 357309.0 0
257871.0 359309.0 0
261106.0 357548.0 0
264300.0 359607.0 0
267606.0 357959.0 0
274151.0 358372.0 0
281987.0 358141.0 0
288473.0 357882.0 0
294851.0 357749.0 0
201963.0 359974.0 0
204996.0 361063.0 0
210926.0 360671.0 0
217339.0 360769.0 0
223679.0 360808.0 0
229886.0 360716.0 0
236033.0 360696.0 0
242185.0 360771.0 0
248392.0 360914.0 0
254679.0 361096.0 0
261030.0 361332.0 0
267433.0 361731.0 0
270792.0 360097.0 0
277364.0 360218.0 0
281964.0 361548.0 0
285250.0 359782.0 0
288459.0 361521.0 0
291660.0 359639.0 0
294843.0 361424.0 0
298028.0 359563.0 0
201967.0 363353.0 0
208086.0 362646.0 0
211310.0 364336.0 0
214291.0 362487.0 0
217683.0 364315.0 0
220703.0 362663.0 0
223994.0 364518.0 0
226946.0 362638.0 0
230167.0 364514.0 0
233095.0 362608.0 0
236261.0 364547.0 0
239206.0 362652.0 0
242341.0 364633.0 0
245341.0 362760.0 0
248464.0 364757.0 0
251542.0 362912.0 0
257812.0 363106.0 0
264125.0 363401.0 0
270500.0 363866.0 0
273942.0 362137.0 0
279035.0 363311.0 0
285245.0 363358.0 0
291650.0 363286.0 0
298028.0 363224.0 0
201970.0 366790.0 0
205125.0 364750.0 0
208314.0 366309.0 0
214626.0 366030.0 0
221036.0 366343.0 0
227236.0 366393.0 0
233337.0 366440.0 0
239381.0 366521.0 0
245441.0 366628.0 0
251553.0 366759.0 0
254652.0 364916.0 0
257720.0 366937.0 0
260890.0 365144.0 0
263905.0 367228.0 0
267145.0 365521.0 0
273062.0 366325.0 0
276108.0 364920.0 0
279089.0 367004.0 0
282163.0 365208.0 0
288453.0 365138.0 0
291639.0 366909.0 0
294837.0 365065.0 0
298028.0 366853.0 0
205204.0 368282.0 0
208504.0 369830.0 0
211576.0 367909.0 0
214897.0 369505.0 0
217997.0 367796.0 0
224298.0 368234.0 0
230425.0 368311.0 0
236448.0 368410.0 0
242461.0 368515.0 0
248510.0 368629.0 0
254610.0 368770.0 0
260743.0 368990.0 0
266811.0 369401.0 0
269938.0 367786.0 0
275962.0 368620.0 0
282172.0 368857.0 0
285308.0 367003.0 0
288454.0 368765.0 0
294823.0 368682.0 0
201973.0 370241.0 0
205313.0 371681.0 0
211902.0 371397.0 0
218239.0 371138.0 0
221373.0 370069.0 0
224638.0 371950.0 0
227521.0 370147.0 0
230632.0 372131.0 0
233532.0 370284.0 0
236577.0 372287.0 0
239511.0 370406.0 0
242548.0 372411.0 0
245513.0 370517.0 0
248540.0 372521.0 0
251553.0 370634.0 0
254572.0 372645.0 0
257635.0 370798.0 0
263708.0 371097.0 0
269741.0 371620.0 0
272833.0 370099.0 0
275884.0 372262.0 0
279026.0 370631.0 0
285266.0 370630.0 0
288329.0 372366.0 0
291604.0 370517.0 0
294775.0 372269.0 0
298027.0 370450.0 0
302245.0 371055.0 0
201981.0 373701.0 0
205574.0 374852.0 0
208873.0 373182.0 0
212346.0 374844.0 0
215262.0 372954.0 0
218691.0 374377.0 0
221838.0 373805.0 0
227761.0 373941.0 0
233643.0 374151.0 0
239601.0 374296.0 0
245564.0 374419.0 0
251550.0 374524.0 0
257573.0 374668.0 0
260628.0 372856.0 0
263618.0 374937.0 0
266673.0 373241.0 0
272774.0 373809.0 0
278986.0 374245.0 0
282118.0 372480.0 0
285171.0 374268.0 0
291331.0 374058.0 0
297999.0 374013.0 0
299656.0 377071.0 0
197333.0 378946.0 0
200246.0 377113.0 0
203153.0 377122.0 0
206102.0 378463.0 0
208756.0 376361.0 0
211605.0 377859.0 0
215924.0 376333.0 0
219350.0 377667.0 0
224968.0 375726.0 0
230704.0 375996.0 0
236652.0 376160.0 0
242608.0 376310.0 0
248566.0 376424.0 0
254555.0 376526.0 0
260580.0 376701.0 0
266645.0 377024.0 0
269696.0 375382.0 0
275859.0 375896.0 0
278963.0 377867.0 0
282076.0 376121.0 0
285127.0 377958.0 0
288156.0 376021.0 0
294201.0 375687.0 0
302410.0 378793.0 0
194436.0 380754.0 0
200477.0 379975.0 0
203574.0 380634.0 0
208982.0 379978.0 0
214584.0 379023.0 0
217799.0 380197.0 0
222284.0 377484.0 0
224761.0 379679.0 0
227758.0 377839.0 0
230704.0 379826.0 0
233688.0 378002.0 0
236672.0 380013.0 0
239649.0 378177.0 0
242640.0 380197.0 0
245603.0 378322.0 0
248599.0 380320.0 0
251567.0 378417.0 0
257571.0 378526.0 0
263616.0 378736.0 0
269700.0 379114.0 0
272761.0 377495.0 0
272791.0 381168.0 0
275862.0 379533.0 0
282026.0 379766.0 0
288130.0 379807.0 0
291008.0 377737.0 0
293554.0 379454.0 0
296561.0 377609.0 0
299093.0 380080.0 0
302297.0 381840.0 0
305352.0 380620.0 0
188236.0 384624.0 0
191234.0 382739.0 0
193977.0 383616.0 0
197539.0 382047.0 0
201002.0 382941.0 0
206417.0 382134.0 0
212092.0 381295.0 0
215325.0 382452.0 0
221383.0 381151.0 0
224511.0 383280.0 0
227679.0 381628.0 0
233666.0 381821.0 0
239654.0 382033.0 0
245634.0 382210.0 0
251611.0 382293.0 0
254582.0 380395.0 0
257626.0 382357.0 0
260610.0 380518.0 0
263666.0 382517.0 0
266666.0 380781.0 0
269751.0 382822.0 0
275857.0 383191.0 0
278934.0 381507.0 0
281974.0 383428.0 0
285040.0 381637.0 0
291025.0 381765.0 0
295967.0 381256.0 0
299373.0 383078.0 0
305326.0 383691.0 0
308348.0 382489.0 0
311440.0 384432.0 0
185170.0 386538.0 0
191204.0 385814.0 0
194065.0 387201.0 0
196195.0 385079.0 0
198936.0 385125.0 0
203809.0 384267.0 0
206747.0 385680.0 0
209449.0 383454.0 0
212623.0 384653.0 0
215943.0 385799.0 0
218698.0 383564.0 0
221694.0 385104.0 0
227536.0 385324.0 0
230626.0 383605.0 0
236628.0 383830.0 0
242643.0 384052.0 0
248643.0 384197.0 0
254653.0 384237.0 0
260690.0 384317.0 0
263765.0 386288.0 0
266738.0 384526.0 0
272808.0 384858.0 0
278920.0 385163.0 0
284901.0 385366.0 0
287930.0 383549.0 0
293510.0 384153.0 0
296571.0 384274.0 0
299331.0 386350.0 0
302333.0 385045.0 0
305343.0 386781.0 0
308449.0 385488.0 0
314434.0 386302.0 0
182068.0 388478.0 0
184985.0 389576.0 0
188113.0 387656.0 0
191076.0 388898.0 0
197473.0 388155.0 0
201211.0 386609.0 0
203959.0 387776.0 0
209771.0 386842.0 0
213171.0 387913.0 0
218959.0 387269.0 0
224602.0 387100.0 0
230481.0 387348.0 0
233565.0 385602.0 0
236501.0 387601.0 0
239599.0 385842.0 0
242599.0 387847.0 0
245653.0 386063.0 0
248690.0 388036.0 0
251681.0 386143.0 0
257725.0 386165.0 0
260812.0 388100.0 0
266835.0 388279.0 0
269803.0 386546.0 0
272869.0 388555.0 0
275881.0 386857.0 0
281889.0 387139.0 0
287640.0 387395.0 0
290548.0 385644.0 0
293045.0 387934.0 0
296076.0 387235.0 0
299058.0 389481.0 0
302175.0 388284.0 0
305097.0 389818.0 0
308465.0 388442.0 0
311477.0 387713.0 0
314441.0 389529.0 0
317453.0 388187.0 0
175853.0 392366.0 0
178951.0 390427.0 0
181835.0 391544.0 0
187950.0 390692.0 0
191021.0 391846.0 0
194256.0 390153.0 0
197196.0 391277.0 0
200441.0 389520.0 0
203353.0 390928.0 0
206804.0 389195.0 0
208116.0 391953.0 0
210455.0 389917.0 0
216186.0 389389.0 0
221802.0 389011.0 0
224599.0 390969.0 0
227486.0 389123.0 0
230334.0 391144.0 0
233384.0 389355.0 0
236278.0 391327.0 0
239463.0 389584.0 0
245638.0 389853.0 0
251764.0 389960.0 0
254753.0 388050.0 0
257859.0 389950.0 0
263897.0 390060.0 0
269893.0 390281.0 0
275878.0 390568.0 0
278877.0 388863.0 0
281762.0 390902.0 0
284716.0 389167.0 0
290229.0 389541.0 0
295696.0 390429.0 0
298424.0 392453.0 0
302122.0 391587.0 0
308190.0 391144.0 0
311448.0 391064.0 0
317648.0 391291.0 0
320586.0 390138.0 0
323799.0 392142.0 0
172803.0 394277.0 0
178713.0 393549.0 0
181633.0 394626.0 0
184776.0 392611.0 0
187783.0 393677.0 0
190788.0 394854.0 0
193977.0 393271.0 0
196866.0 394425.0 0
200092.0 392700.0 0
205414.0 393085.0 0
210822.0 393555.0 0
213426.0 391458.0 0
216204.0 393109.0 0
219016.0 391055.0 0
221768.0 392885.0 0
227377.0 392978.0 0
233166.0 393131.0 0
239190.0 393244.0 0
242479.0 391554.0 0
248726.0 391821.0 0
251851.0 393744.0 0
254878.0 391828.0 0
258025.0 393709.0 0
260968.0 391874.0 0
264046.0 393840.0 0
266956.0 392043.0 0
272901.0 392292.0 0
278795.0 392614.0 0
284552.0 392986.0 0
287419.0 391267.0 0
290064.0 393418.0 0
292806.0 391740.0 0
300769.0 394344.0 0
305469.0 392943.0 0
309028.0 393874.0 0
312192.0 394425.0 0
314781.0 392666.0 0
318113.0 394394.0 0
320922.0 393164.0 0
327060.0 394178.0 0
169826.0 396141.0 0
172717.0 397571.0 0
175652.0 395563.0 0
178554.0 396703.0 0
181512.0 397735.0 0
184612.0 395652.0 0
187628.0 396713.0 0
193704.0 396526.0 0
199598.0 396101.0 0
202581.0 394563.0 0
205059.0 396728.0 0
207927.0 395371.0 0
213440.0 395206.0 0
218921.0 394855.0 0
224489.0 394848.0 0
230139.0 394984.0 0
236019.0 395059.0 0
242112.0 395120.0 0
245556.0 393544.0 0
248704.0 395533.0 0
255036.0 395560.0 0
261151.0 395646.0 0
267044.0 395850.0 0
269956.0 394055.0 0
272898.0 396083.0 0
275837.0 394332.0 0
278718.0 396398.0 0
281644.0 394691.0 0
287287.0 395115.0 0
292754.0 395551.0 0
295482.0 393959.0 0
298104.0 396040.0 0
303537.0 395242.0 0
306627.0 396181.0 0
309777.0 397011.0 0
312887.0 397729.0 0
315453.0 395906.0 0
318720.0 397591.0 0
321428.0 396229.0 0
324224.0 395126.0 0
327521.0 397144.0 0
330337.0 396226.0 0
163886.0 399853.0 0
166868.0 397991.0 0
169828.0 399435.0 0
175638.0 398836.0 0
178636.0 399932.0 0
184519.0 398734.0 0
187523.0 399782.0 0
190669.0 397915.0 0
193488.0 400038.0 0
196482.0 397634.0 0
199310.0 399493.0 0
202220.0 398149.0 0
207571.0 398908.0 0
210532.0 397163.0 0
213093.0 398908.0 0
216052.0 396879.0 0
218701.0 398621.0 0
221617.0 396731.0 0
224274.0 398728.0 0
227186.0 396863.0 0
229898.0 398842.0 0
232928.0 396931.0 0
235787.0 398802.0 0
238903.0 396930.0 0
241790.0 398795.0 0
244977.0 396976.0 0
247656.0 398778.0 0
250184.0 400456.0 0
251984.0 397487.0 0
258256.0 397437.0 0
264154.0 397662.0 0
269982.0 397877.0 0
275794.0 398133.0 0
281576.0 398481.0 0
284452.0 396796.0 0
287270.0 398911.0 0
290044.0 397241.0 0
295488.0 397679.0 0
301098.0 397680.0 0
304156.0 398638.0 0
307213.0 399491.0 0
310311.0 400201.0 0
316113.0 399200.0 0
321938.0 399400.0 0
324706.0 398176.0 0
327867.0 400216.0 0
330735.0 399244.0 0
333573.0 398251.0 0
336782.0 400258.0 0
160803.0 401774.0 0
163700.0 403020.0 0
166886.0 401250.0 0
169919.0 402739.0 0
172802.0 400940.0 0
175823.0 402146.0 0
181764.0 400934.0 0
184940.0 401968.0 0
190488.0 400918.0 0
196360.0 400729.0 0
201610.0 401750.0 0
204650.0 400383.0 0
210144.0 400820.0 0
215684.0 400560.0 0
221337.0 400544.0 0
226901.0 400759.0 0
232707.0 400717.0 0
238699.0 400647.0 0
241655.0 402509.0 0
244669.0 400690.0 0
247606.0 402581.0 0
252981.0 401353.0 0
255371.0 399200.0 0
258355.0 401242.0 0
261265.0 399467.0 0
264190.0 401527.0 0
267085.0 399702.0 0
272879.0 399912.0 0
278677.0 400191.0 0
284445.0 400572.0 0
290151.0 400991.0 0
292863.0 399331.0 0
295875.0 401294.0 0
298483.0 399544.0 0
301626.0 401036.0 0
304720.0 402046.0 0
307813.0 402804.0 0
313466.0 400906.0 0
316707.0 402524.0 0
319271.0 400905.0 0
322148.0 402765.0 0
324996.0 401383.0 0
331076.0 402309.0 0
333944.0 401308.0 0
339962.0 402247.0 0
154659.0 405617.0 0
157725.0 403699.0 0
160623.0 404962.0 0
166540.0 404395.0 0
173004.0 404357.0 0
176444.0 405319.0 0
179086.0 403131.0 0
182395.0 404138.0 0
185817.0 405130.0 0
188190.0 403057.0 0
191881.0 403543.0 0
194932.0 403529.0 0
198469.0 403002.0 0
204050.0 403913.0 0
207225.0 402542.0 0
209954.0 404583.0 0
212695.0 402638.0 0
218318.0 402296.0 0
223895.0 402604.0 0
229627.0 402661.0 0
235638.0 402523.0 0
238661.0 404344.0 0
244636.0 404392.0 0
250851.0 404209.0 0
255539.0 403160.0 0
261254.0 403317.0 0
267078.0 403584.0 0
269978.0 401737.0 0
272864.0 403758.0 0
275769.0 401946.0 0
278686.0 403967.0 0
281581.0 402249.0 0
284539.0 404300.0 0
287365.0 402648.0 0
293174.0 402973.0 0
299059.0 403029.0 0
302317.0 404503.0 0
305560.0 405482.0 0
310960.0 403381.0 0
314143.0 403974.0 0
319310.0 404486.0 0
325314.0 404597.0 0
328188.0 403321.0 0
331323.0 405442.0 0
334229.0 404423.0 0
337111.0 403348.0 0
340254.0 405368.0 0
343115.0 404219.0 0
151597.0 407533.0 0
157577.0 406915.0 0
160509.0 408220.0 0
163504.0 406283.0 0
166330.0 407766.0 0
169282.0 405751.0 0
171639.0 407276.0 0
174475.0 407832.0 0
179814.0 406319.0 0
183229.0 407260.0 0
186774.0 408040.0 0
189585.0 405856.0 0
193364.0 406630.0 0
197068.0 406061.0 0
200711.0 405207.0 0
203319.0 407252.0 0
206714.0 406013.0 0
212846.0 406581.0 0
215248.0 404187.0 0
217610.0 405909.0 0
220826.0 404327.0 0
223326.0 406433.0 0
226513.0 404617.0 0
229401.0 406341.0 0
232558.0 404427.0 0
232652.0 407995.0 0
235663.0 406176.0 0
241672.0 406219.0 0
247744.0 406167.0 0
253843.0 406144.0 0
258244.0 405095.0 0
264134.0 405400.0 0
269961.0 405616.0 0
275776.0 405750.0 0
281660.0 405970.0 0
287564.0 406332.0 0
290376.0 404640.0 0
293490.0 406508.0 0
296360.0 404808.0 0
299691.0 406466.0 0
303147.0 407985.0 0
308934.0 406056.0 0
312469.0 406448.0 0
316344.0 406212.0 0
319719.0 407773.0 0
322478.0 406006.0 0
325446.0 407922.0 0
328387.0 406498.0 0
334459.0 407587.0 0
337365.0 406488.0 0
343355.0 407374.0 0
346237.0 406173.0 0
349339.0 408114.0 0
148530.0 409449.0 0
151499.0 410781.0 0
154537.0 408851.0 0
157493.0 410179.0 0
163445.0 409633.0 0
168987.0 409334.0 0
177532.0 408704.0 0
180784.0 409567.0 0
184193.0 410360.0 0
190221.0 408761.0 0
193333.0 409777.0 0
196360.0 409162.0 0
199753.0 408387.0 0
206000.0 409347.0 0
209491.0 408058.0 0
215710.0 408785.0 0
219871.0 407971.0 0
226116.0 408337.0 0
229643.0 409738.0 0
235730.0 409851.0 0
238704.0 408044.0 0
241718.0 409934.0 0
244714.0 408069.0 0
247685.0 409915.0 0
250714.0 407968.0 0
253571.0 409924.0 0
256715.0 408170.0 0
259495.0 410183.0 0
261056.0 407127.0 0
263965.0 409207.0 0
267027.0 407465.0 0
269947.0 409487.0 0
272865.0 407601.0 0
278746.0 407706.0 0
284709.0 407968.0 0
290649.0 408252.0 0
296673.0 408221.0 0
299844.0 409753.0 0
306778.0 408723.0 0
310463.0 409007.0 0
314118.0 409035.0 0
317296.0 409328.0 0
322492.0 409369.0 0
328584.0 409646.0 0
331539.0 408603.0 0
337505.0 409701.0 0
340442.0 408547.0 0
343504.0 410576.0 0
346438.0 409352.0 0
352425.0 410044.0 0
142269.0 413361.0 0
145420.0 411392.0 0
148423.0 412641.0 0
154466.0 412137.0 0
157466.0 413464.0 0
160481.0 411510.0 0
163512.0 412996.0 0
166311.0 411339.0 0
169290.0 412767.0 0
171991.0 410542.0 0
175044.0 411221.0 0
178237.0 411989.0 0
181555.0 412753.0 0
187645.0 411139.0 0
191124.0 412001.0 0
195069.0 412565.0 0
198657.0 411731.0 0
202373.0 410430.0 0
208764.0 411430.0 0
212272.0 410141.0 0
214927.0 412407.0 0
218392.0 411135.0 0
222441.0 409983.0 0
224005.0 412758.0 0
226900.0 411547.0 0
232748.0 411626.0 0
238730.0 411772.0 0
244679.0 411834.0 0
250562.0 411820.0 0
256374.0 411948.0 0
262204.0 412141.0 0
266947.0 411289.0 0
272901.0 411429.0 0
275819.0 409527.0 0
278841.0 411396.0 0
281795.0 409632.0 0
284919.0 411578.0 0
287801.0 409996.0 0
290890.0 411865.0 0
293792.0 410049.0 0
296977.0 411725.0 0
302739.0 411260.0 0
305698.0 411736.0 0
309046.0 411746.0 0
312593.0 411861.0 0
316084.0 412108.0 0
319703.0 411626.0 0
322881.0 412448.0 0
325664.0 411221.0 0
328454.0 412853.0 0
331552.0 411835.0 0
334548.0 410836.0 0
337568.0 412961.0 0
340544.0 411775.0 0
346529.0 412578.0 0
349496.0 411316.0 0
352573.0 413259.0 0
355509.0 411973.0 0
139007.0 415394.0 0
145304.0 414548.0 0
148375.0 415867.0 0
151427.0 414078.0 0
154422.0 415456.0 0
160549.0 414777.0 0
163781.0 416196.0 0
166621.0 414888.0 0
172391.0 413820.0 0
175600.0 414493.0 0
178904.0 415200.0 0
182272.0 415951.0 0
184920.0 413504.0 0
188294.0 414259.0 0
191729.0 414868.0 0
194806.0 415576.0 0
198042.0 415185.0 0
201541.0 413495.0 0
205159.0 412573.0 0
207910.0 414745.0 0
211461.0 413646.0 0
217423.0 414825.0 0
220758.0 413550.0 0
226690.0 415053.0 0
229831.0 413412.0 0
232717.0 415353.0 0
235728.0 413574.0 0
238651.0 415544.0 0
241674.0 413710.0 0
247578.0 413759.0 0
253384.0 413813.0 0
259162.0 413971.0 0
264900.0 414010.0 0
269974.0 413329.0 0
275898.0 413278.0 0
281936.0 413225.0 0
288047.0 413704.0 0
294003.0 413595.0 0
300168.0 413348.0 0
303674.0 414693.0 0
307412.0 414673.0 0
311011.0 414712.0 0
314562.0 414869.0 0
318198.0 414749.0 0
321531.0 415023.0 0
325256.0 414823.0 0
331608.0 414999.0 0
334590.0 414119.0 0
340477.0 415071.0 0
343524.0 413834.0 0
346621.0 415812.0 0
349606.0 414540.0 0
355631.0 415207.0 0
358588.0 413899.0 0
361667.0 415825.0 0
135738.0 417437.0 0
138647.0 418488.0 0
141925.0 416439.0 0
144807.0 417573.0 0
151477.0 417463.0 0
154721.0 418809.0 0
157505.0 416723.0 0
160641.0 417939.0 0
169641.0 416213.0 0
172915.0 417057.0 0
176241.0 417712.0 0
179630.0 418389.0 0
185655.0 416696.0 0
189065.0 417393.0 0
192388.0 418119.0 0
201112.0 416557.0 0
204365.0 415838.0 0
210464.0 417097.0 0
214016.0 416046.0 0
220046.0 417233.0 0
223344.0 416187.0 0
226237.0 418489.0 0
229559.0 417011.0 0
235588.0 417330.0 0
241543.0 417524.0 0
244577.0 415665.0 0
247448.0 417647.0 0
250429.0 415729.0 0
253268.0 417744.0 0
256202.0 415839.0 0
261971.0 415949.0 0
267644.0 415785.0 0
270484.0 417493.0 0
273020.0 415252.0 0
276047.0 417044.0 0
278927.0 415048.0 0
281994.0 416739.0 0
285115.0 415093.0 0
288220.0 417519.0 0
291105.0 415534.0 0
294298.0 417173.0 0
297158.0 415212.0 0
300367.0 416662.0 0
303154.0 417946.0 0
306299.0 417588.0 0
309689.0 417650.0 0
313131.0 417743.0 0
316653.0 417737.0 0
320074.0 417891.0 0
323585.0 417818.0 0
326898.0 418193.0 0
328452.0 415712.0 0
334138.0 417531.0 0
337364.0 416320.0 0
340708.0 418269.0 0
343642.0 417072.0 0
349624.0 417818.0 0
352640.0 416512.0 0
355668.0 418472.0 0
358688.0 417147.0 0
364755.0 417757.0 0
132474.0 419479.0 0
135408.0 420551.0 0
141546.0 419587.0 0
144424.0 420785.0 0
147593.0 418794.0 0
150141.0 420239.0 0
157998.0 420054.0 0
161252.0 421275.0 0
163759.0 419138.0 0
166904.0 418573.0 0
170239.0 419546.0 0
173602.0 420293.0 0
176997.0 420907.0 0
183073.0 419166.0 0
186513.0 419901.0 0
189938.0 420640.0 0
195917.0 418452.0 0
199161.0 418881.0 0
203007.0 419284.0 0
206787.0 418032.0 0
209271.0 420413.0 0
213012.0 419560.0 0
216642.0 418488.0 0
222971.0 419704.0 0
229108.0 420567.0 0
232411.0 419021.0 0
238456.0 419329.0 0
244420.0 419524.0 0
250307.0 419655.0 0
256135.0 419761.0 0
259054.0 417851.0 0
261966.0 419813.0 0
264836.0 417847.0 0
267771.0 419655.0 0
273397.0 419209.0 0
279070.0 418725.0 0
285122.0 418389.0 0
291352.0 419173.0 0
297646.0 418719.0 0
300978.0 420447.0 0
304770.0 420763.0 0
308241.0 420669.0 0
311702.0 420723.0 0
315179.0 420745.0 0
318619.0 420838.0 0
330638.0 418128.0 0
335242.0 420526.0 0
337887.0 419411.0 0
343578.0 420458.0 0
346595.0 419132.0 0
352613.0 419802.0 0
358714.0 420416.0 0
361756.0 419083.0 0
364843.0 421025.0 0
367857.0 419697.0 0
125947.0 423563.0 0
129212.0 421521.0 0
132175.0 422613.0 0
135180.0 423721.0 0
138362.0 421660.0 0
141322.0 422839.0 0
147236.0 422174.0 0
150212.0 423588.0 0
152879.0 421336.0 0
155838.0 422417.0 0
164778.0 421953.0 0
167878.0 422168.0 0
171119.0 422941.0 0
180455.0 421552.0 0
183977.0 422400.0 0
187419.0 423154.0 0
190873.0 423814.0 0
193470.0 421173.0 0
196983.0 421638.0 0
200658.0 421914.0 0
205586.0 421128.0 0
210646.0 423313.0 0
213778.0 422795.0 0
216800.0 421946.0 0
219813.0 420799.0 0
225774.0 422082.0 0
231986.0 422648.0 0
235274.0 421047.0 0
238148.0 423093.0 0
241327.0 421345.0 0
247291.0 421543.0 0
253185.0 421674.0 0
259060.0 421749.0 0
264950.0 421701.0 0
270740.0 421420.0 0
276375.0 420898.0 0
279461.0 422452.0 0
282136.0 420268.0 0
285396.0 421490.0 0
288650.0 421433.0 0
294605.0 420647.0 0
297707.0 422116.0 0
300253.0 423802.0 0
303392.0 423590.0 0
306859.0 423741.0 0
322079.0 420855.0 0
325422.0 421032.0 0
328870.0 421000.0 0
332246.0 420815.0 0
337640.0 422956.0 0
340600.0 421733.0 0
346412.0 422515.0 0
349526.0 421142.0 0
352503.0 423109.0 0
355629.0 421759.0 0
358684.0 423698.0 0
361786.0 422358.0 0
367951.0 422974.0 0
370977.0 421648.0 0
374117.0 423611.0 0
122682.0 425607.0 0
128937.0 424680.0 0
131981.0 425785.0 0
138211.0 424897.0 0
141255.0 426152.0 0
144276.0 424139.0 0
147327.0 425512.0 0
153316.0 424786.0 0
156472.0 425890.0 0
158950.0 423551.0 0
162287.0 424504.0 0
165556.0 425226.0 0
168709.0 425704.0 0
174450.0 423556.0 0
177859.0 424084.0 0
181366.0 424673.0 0
184973.0 425708.0 0
188393.0 426438.0 0
194296.0 424311.0 0
197600.0 424708.0 0
203704.0 424017.0 0
207311.0 423787.0 0
216072.0 425513.0 0
219404.0 424563.0 0
222547.0 423401.0 0
225227.0 425847.0 0
228616.0 424143.0 0
234883.0 424742.0 0
241032.0 425146.0 0
244205.0 423380.0 0
247104.0 425425.0 0
250180.0 423569.0 0
256113.0 423675.0 0
262057.0 423681.0 0
267988.0 423530.0 0
271069.0 425351.0 0
273736.0 423142.0 0
276821.0 424721.0 0
282740.0 423765.0 0
286267.0 424586.0 0
291960.0 422798.0 0
295273.0 424298.0 0
298045.0 426290.0 0
301758.0 426778.0 0
310293.0 423753.0 0
313753.0 423782.0 0
317209.0 423842.0 0
320680.0 423882.0 0
324110.0 423990.0 0
327573.0 423996.0 0
331014.0 423897.0 0
334373.0 423721.0 0
340167.0 425269.0 0
343288.0 423942.0 0
346095.0 425899.0 0
349329.0 424476.0 0
355537.0 425054.0 0
361783.0 425642.0 0
364887.0 424308.0 0
368008.0 426268.0 0
371080.0 424932.0 0
377279.0 425588.0 0
119420.0 427649.0 0
122450.0 428842.0 0
125693.0 426757.0 0
128765.0 427869.0 0
131890.0 428981.0 0
135068.0 426930.0 0
138184.0 428175.0 0
144361.0 427462.0 0
147584.0 428778.0 0
150526.0 426865.0 0
153804.0 428161.0 0
159740.0 426911.0 0
163040.0 427904.0 0
166286.0 428652.0 0
171962.0 426320.0 0
175313.0 426798.0 0
178749.0 427213.0 0
182299.0 427697.0 0
191956.0 427019.0 0
195406.0 427564.0 0
200638.0 425135.0 0
202293.0 427733.0 0
205599.0 427010.0 0
209128.0 426664.0 0
212614.0 426195.0 0
218439.0 428139.0 0
221982.0 427259.0 0
228140.0 427659.0 0
231552.0 426271.0 0
237778.0 426846.0 0
243941.0 427213.0 0
250047.0 427459.0 0
253114.0 425586.0 0
256110.0 427567.0 0
259110.0 425635.0 0
262182.0 427538.0 0
265128.0 425555.0 0
268282.0 427382.0 0
274187.0 427049.0 0
280088.0 426072.0 0
283577.0 427111.0 0
289523.0 425185.0 0
292921.0 426376.0 0
296554.0 429251.0 0
305242.0 426737.0 0
308768.0 426816.0 0
312270.0 426839.0 0
315768.0 426878.0 0
319272.0 426912.0 0
322770.0 426974.0 0
326295.0 426987.0 0
329831.0 426919.0 0
333353.0 426769.0 0
336852.0 426252.0 0
339431.0 428682.0 0
342805.0 427450.0 0
349072.0 427774.0 0
352342.0 426411.0 0
355459.0 428340.0 0
358639.0 426980.0 0
364904.0 427606.0 0
371148.0 428236.0 0
374229.0 426903.0 0
377401.0 428887.0 0
380465.0 427580.0 0
112922.0 431718.0 0
116165.0 429687.0 0
119215.0 430931.0 0
125542.0 429976.0 0
128691.0 431077.0 0
135062.0 430160.0 0
138269.0 431468.0 0
141336.0 429462.0 0
144565.0 430738.0 0
150926.0 430096.0 0
154308.0 431551.0 0
157085.0 429284.0 0
160404.0 430296.0 0
169504.0 429183.0 0
172812.0 429648.0 0
176171.0 430001.0 0
179530.0 430298.0 0
182877.0 430554.0 0
185966.0 429168.0 0
189655.0 429573.0 0
193300.0 430286.0 0
198701.0 428057.0 0
200295.0 430890.0 0
203951.0 430482.0 0
207488.0 429910.0 0
211140.0 429462.0 0
214808.0 428885.0 0
220701.0 430856.0 0
224369.0 430159.0 0
227844.0 430950.0 0
231169.0 429908.0 0
234475.0 428453.0 0
237323.0 430612.0 0
240681.0 428924.0 0
246900.0 429279.0 0
253049.0 429471.0 0
259174.0 429502.0 0
265343.0 429378.0 0
271503.0 429281.0 0
277445.0 428446.0 0
281009.0 429533.0 0
286977.0 427967.0 0
290208.0 428742.0 0
293423.0 429597.0 0
299999.0 429568.0 0
303618.0 429810.0 0
307161.0 429843.0 0
310717.0 429898.0 0
314262.0 429930.0 0
317810.0 429954.0 0
321359.0 429982.0 0
324934.0 429980.0 0
328539.0 429915.0 0
332176.0 429764.0 0
335857.0 429409.0 0
342167.0 430911.0 0
345689.0 429203.0 0
349008.0 430970.0 0
352249.0 429675.0 0
358594.0 430270.0 0
361766.0 428936.0 0
364901.0 430925.0 0
368037.0 429584.0 0
371180.0 431563.0 0
374305.0 430217.0 0
380598.0 430885.0 0
383677.0 429589.0 0
386916.0 431615.0 0
109689.0 433742.0 0
115993.0 433018.0 0
119118.0 434245.0 0
122324.0 432104.0 0
125489.0 433217.0 0
131896.0 432189.0 0
135155.0 433391.0 0
141506.0 432759.0 0
144791.0 433989.0 0
147891.0 431988.0 0
151309.0 433273.0 0
157624.0 432687.0 0
161054.0 433628.0 0
163791.0 431400.0 0
167090.0 432146.0 0
170458.0 432590.0 0
173905.0 432926.0 0
177376.0 433193.0 0
180879.0 433368.0 0
184527.0 432979.0 0
187726.0 432332.0 0
191277.0 432718.0 0
196615.0 430981.0 0
201999.0 433657.0 0
205761.0 433220.0 0
209469.0 432687.0 0
213225.0 432161.0 0
216981.0 431548.0 0
233894.0 432236.0 0
240319.0 432645.0 0
243665.0 431012.0 0
246700.0 433111.0 0
249912.0 431316.0 0
252981.0 433328.0 0
256122.0 431433.0 0
262309.0 431367.0 0
265505.0 433144.0 0
268631.0 431144.0 0
274747.0 430925.0 0
278456.0 431904.0 0
282170.0 432963.0 0
284564.0 430561.0 0
287987.0 431497.0 0
291318.0 432317.0 0
294906.0 432637.0 0
298321.0 432588.0 0
301873.0 432765.0 0
305496.0 432898.0 0
309095.0 432942.0 0
312692.0 432985.0 0
316285.0 433007.0 0
319879.0 433016.0 0
323488.0 432997.0 0
327128.0 432922.0 0
330810.0 432762.0 0
334563.0 432445.0 0
338406.0 431958.0 0
342898.0 434126.0 0
345762.0 432274.0 0
352213.0 432966.0 0
355402.0 431648.0 0
358538.0 433578.0 0
361733.0 432248.0 0
368029.0 432929.0 0
374339.0 433552.0 0
377483.0 432208.0 0
380684.0 434210.0 0
383820.0 432904.0 0
390177.0 433655.0 0
106461.0 435762.0 0
112788.0 435097.0 0
115930.0 436387.0 0
122295.0 435392.0 0
125526.0 436475.0 0
128711.0 434297.0 0
131994.0 435395.0 0
135347.0 436606.0 0
138446.0 434787.0 0
141720.0 436082.0 0
148137.0 435159.0 0
151561.0 436351.0 0
154719.0 435038.0 0
158067.0 436050.0 0
161584.0 436760.0 0
164629.0 435009.0 0
168151.0 435574.0 0
171750.0 435871.0 0
175363.0 436110.0 0
178999.0 436249.0 0
182711.0 436086.0 0
186297.0 435733.0 0
189715.0 435345.0 0
194403.0 433988.0 0
198182.0 433922.0 0
203878.0 436382.0 0
207699.0 435928.0 0
211488.0 435410.0 0
215270.0 434880.0 0
219021.0 434319.0 0
222720.0 433780.0 0
226325.0 433824.0 0
230337.0 433646.0 0
233288.0 435966.0 0
236854.0 434343.0 0
243423.0 434776.0 0
249769.0 435143.0 0
256122.0 435255.0 0
259278.0 433360.0 0
262533.0 435210.0 0
268763.0 434667.0 0
272321.0 433792.0 0
276086.0 434425.0 0
279801.0 435286.0 0
285771.0 434097.0 0
289160.0 435107.0 0
292821.0 435545.0 0
296505.0 435749.0 0
300108.0 435797.0 0
303752.0 435912.0 0
307411.0 435994.0 0
311057.0 436037.0 0
314698.0 436065.0 0
318337.0 436070.0 0
321981.0 436045.0 0
325637.0 435970.0 0
329306.0 435822.0 0
332980.0 435565.0 0
336596.0 435207.0 0
339987.0 434948.0 0
345856.0 435567.0 0
349020.0 434209.0 0
352228.0 436312.0 0
355351.0 435015.0 0
361646.0 435586.0 0
364854.0 434274.0 0
367968.0 436307.0 0
371165.0 434915.0 0
374317.0 436911.0 0
377515.0 435551.0 0
383908.0 436237.0 0
387065.0 434947.0 0
390331.0 437012.0 0
393458.0 435708.0 0
99937.9 439843.0 0
103216.0 437792.0 0
106394.0 439185.0 0
109597.0 437160.0 0
112769.0 438520.0 0
119118.0 437590.0 0
122351.0 438705.0 0
128813.0 437521.0 0
132168.0 438578.0 0
138726.0 438177.0 0
145013.0 437260.0 0
148371.0 438335.0 0
151808.0 439269.0 0
155260.0 438677.0 0
158867.0 439329.0 0
162538.0 439621.0 0
165958.0 438595.0 0
169699.0 438832.0 0
184698.0 438834.0 0
188468.0 438415.0 0
192404.0 437303.0 0
196165.0 436983.0 0
200020.0 436722.0 0
209666.0 438665.0 0
213444.0 438193.0 0
217191.0 437714.0 0
220898.0 437256.0 0
224562.0 437002.0 0
228418.0 436772.0 0
236623.0 438031.0 0
240048.0 436264.0 0
243209.0 438547.0 0
246498.0 436958.0 0
252904.0 437171.0 0
259346.0 437169.0 0
265950.0 436984.0 0
270774.0 437435.0 0
274207.0 437265.0 0
277718.0 437921.0 0
283532.0 436425.0 0
286853.0 437890.0 0
290654.0 438399.0 0
301951.0 438943.0 0
305662.0 439028.0 0
309366.0 439087.0 0
313058.0 439121.0 0
316746.0 439133.0 0
324123.0 439047.0 0
327820.0 438919.0 0
331519.0 438709.0 0
335207.0 438425.0 0
338864.0 438157.0 0
342555.0 437718.0 0
345954.0 438497.0 0
349150.0 437478.0 0
355140.0 438524.0 0
358396.0 436919.0 0
361499.0 438928.0 0
364755.0 437653.0 0
371092.0 438289.0 0
377483.0 438916.0 0
380712.0 437553.0 0
383937.0 439588.0 0
387156.0 438297.0 0
393610.0 439095.0 0
396755.0 437772.0 0
96628.1 441915.0 0
103152.0 441216.0 0
109619.0 440617.0 0
112868.0 441989.0 0
115978.0 439797.0 0
119227.0 440974.0 0
122520.0 442051.0 0
125628.0 439745.0 0
128944.0 440737.0 0
132293.0 441711.0 0
135609.0 439757.0 0
139041.0 441682.0 0
142037.0 439473.0 0
145514.0 440562.0 0
149162.0 441545.0 0
153095.0 442029.0 0
156679.0 442147.0 0
160453.0 442456.0 0
173421.0 439034.0 0
177153.0 439160.0 0
180929.0 439082.0 0
186772.0 441491.0 0
190649.0 440773.0 0
194335.0 440206.0 0
198126.0 439828.0 0
201978.0 439490.0 0
205844.0 439107.0 0
215295.0 441080.0 0
218997.0 440676.0 0
222655.0 440351.0 0
226328.0 440071.0 0
229959.0 439880.0 0
233455.0 439631.0 0
239815.0 439777.0 0
246225.0 440890.0 0
249605.0 438934.0 0
252862.0 441014.0 0
256143.0 439022.0 0
262600.0 438946.0 0
265776.0 440651.0 0
269404.0 440582.0 0
273185.0 440651.0 0
276927.0 441136.0 0
281356.0 438593.0 0
284568.0 440831.0 0
294468.0 438694.0 0
298241.0 438860.0 0
320433.0 439112.0 0
333729.0 441617.0 0
337419.0 441340.0 0
341106.0 440999.0 0
344647.0 441100.0 0
348527.0 440791.0 0
351956.0 439817.0 0
358154.0 440220.0 0
364640.0 441056.0 0
367858.0 439730.0 0
370939.0 441687.0 0
374226.0 440291.0 0
380676.0 440911.0 0
387179.0 441670.0 0
390418.0 440389.0 0
396896.0 441196.0 0
400060.0 439841.0 0
403368.0 441912.0 0
93300.7 443999.0 0
99866.3 443285.0 0
103190.0 444629.0 0
106437.0 442615.0 0
109763.0 444118.0 0
116148.0 443252.0 0
119477.0 444394.0 0
125855.0 443050.0 0
129226.0 443992.0 0
135685.0 442730.0 0
142619.0 442799.0 0
146386.0 443744.0 0
150432.0 444531.0 0
164388.0 442198.0 0
167918.0 441884.0 0
171612.0 442011.0 0
175355.0 442113.0 0
179140.0 442081.0 0
182942.0 441881.0 0
192539.0 443548.0 0
196297.0 443042.0 0
200114.0 442641.0 0
203954.0 442276.0 0
207774.0 441904.0 0
211555.0 441500.0 0
220757.0 443738.0 0
224426.0 443450.0 0
228084.0 443229.0 0
231750.0 443037.0 0
235425.0 442700.0 0
238964.0 442972.0 0
242706.0 442354.0 0
249563.0 442581.0 0
256142.0 442671.0 0
259456.0 441014.0 0
262763.0 442824.0 0
267657.0 443753.0 0
271457.0 443805.0 0
280679.0 441523.0 0
288515.0 441229.0 0
292428.0 441581.0 0
296288.0 441818.0 0
300102.0 441968.0 0
303875.0 442058.0 0
307632.0 442129.0 0
311376.0 442175.0 0
315110.0 442196.0 0
318842.0 442187.0 0
322571.0 442137.0 0
326298.0 442034.0 0
330021.0 441862.0 0
339714.0 444211.0 0
343456.0 444020.0 0
347313.0 443703.0 0
351206.0 443169.0 0
354782.0 442164.0 0
358071.0 443305.0 0
361397.0 442230.0 0
367644.0 443239.0 0
374063.0 443686.0 0
377381.0 442306.0 0
380571.0 444281.0 0
383896.0 442954.0 0
387119.0 445064.0 0
390424.0 443792.0 0
393684.0 442508.0 0
396942.0 444654.0 0
400179.0 443310.0 0
406673.0 443982.0 0
89974.4 446085.0 0
93255.0 447559.0 0
96557.2 445403.0 0
99900.9 446721.0 0
106593.0 446031.0 0
113089.0 445507.0 0
116458.0 446741.0 0
122863.0 445429.0 0
126305.0 446383.0 0
132648.0 444887.0 0
136244.0 445558.0 0
139771.0 445177.0 0
143513.0 446007.0 0
147301.0 446856.0 0
154450.0 445136.0 0
158389.0 445327.0 0
162448.0 445244.0 0
166231.0 445189.0 0
169873.0 445092.0 0
173593.0 445138.0 0
177368.0 445124.0 0
181167.0 444983.0 0
184967.0 444645.0 0
188786.0 444101.0 0
194463.0 446323.0 0
198260.0 445857.0 0
202066.0 445483.0 0
205861.0 445142.0 0
209632.0 444793.0 0
213372.0 444428.0 0
217080.0 444065.0 0
229873.0 446387.0 0
233560.0 446164.0 0
237173.0 446110.0 0
240966.0 445899.0 0
244623.0 445587.0 0
248216.0 445799.0 0
252033.0 445523.0 0
255722.0 446101.0 0
259321.0 444901.0 0
262681.0 446448.0 0
275177.0 444057.0 0
278994.0 444352.0 0
282972.0 444217.0 0
286692.0 444199.0 0
290526.0 444490.0 0
294389.0 444756.0 0
298241.0 444948.0 0
302069.0 445078.0 0
305873.0 445166.0 0
309661.0 445226.0 0
313440.0 445260.0 0
317212.0 445265.0 0
320980.0 445234.0 0
324744.0 445157.0 0
328502.0 445021.0 0
332246.0 444818.0 0
335973.0 444543.0 0
346044.0 446674.0 0
349964.0 446249.0 0
353850.0 445714.0 0
357408.0 446179.0 0
361028.0 445554.0 0
364393.0 444534.0 0
370687.0 445075.0 0
373885.0 447073.0 0
377226.0 445723.0 0
380387.0 447663.0 0
383774.0 446336.0 0
390333.0 447227.0 0
393659.0 445953.0 0
400192.0 446817.0 0
403455.0 445430.0 0
406724.0 447549.0 0
409975.0 446050.0 0
83400.7 450215.0 0
86670.0 448160.0 0
89990.6 449747.0 0
96617.1 448900.0 0
103324.0 448014.0 0
106826.0 449388.0 0
110028.0 447687.0 0
113436.0 449069.0 0
119903.0 447829.0 0
123413.0 448809.0 0
126992.0 449692.0 0
129816.0 447260.0 0
133459.0 447981.0 0
137226.0 448382.0 0
140800.0 448511.0 0
144510.0 449215.0 0
150787.0 447713.0 0
154019.0 448400.0 0
157284.0 448526.0 0
160766.0 448279.0 0
164448.0 448319.0 0
168155.0 448292.0 0
171851.0 448243.0 0
175606.0 448219.0 0
179393.0 448120.0 0
183186.0 447892.0 0
186931.0 447426.0 0
190678.0 446872.0 0
196402.0 449113.0 0
200183.0 448726.0 0
203949.0 448400.0 0
207700.0 448087.0 0
211432.0 447762.0 0
215143.0 447433.0 0
218836.0 447119.0 0
222519.0 446832.0 0
226194.0 446592.0 0
266221.0 446835.0 0
269884.0 446961.0 0
273569.0 447132.0 0
277323.0 447318.0 0
281197.0 447352.0 0
285004.0 447399.0 0
288759.0 447516.0 0
292575.0 447735.0 0
296421.0 447936.0 0
300268.0 448091.0 0
304104.0 448201.0 0
307928.0 448277.0 0
311742.0 448326.0 0
315549.0 448346.0 0
319352.0 448334.0 0
323151.0 448282.0 0
326945.0 448180.0 0
330732.0 448018.0 0
334507.0 447780.0 0
338277.0 447423.0 0
342141.0 447012.0 0
348605.0 449324.0 0
352459.0 448954.0 0
356158.0 448965.0 0
360072.0 448709.0 0
363810.0 448004.0 0
367285.0 446871.0 0
370492.0 448337.0 0
376987.0 449212.0 0
383561.0 449727.0 0
386970.0 448482.0 0
393538.0 449430.0 0
396885.0 448147.0 0
403430.0 448989.0 0
409994.0 449659.0 0
413279.0 448119.0 0
416590.0 450193.0 0
80164.6 452241.0 0
86774.5 451944.0 0
93394.7 451149.0 0
96858.1 452425.0 0
100038.0 450152.0 0
103499.0 451366.0 0
106998.0 452601.0 0
110406.0 451361.0 0
116947.0 450230.0 0
120526.0 451253.0 0
124161.0 452163.0 0
130662.0 450445.0 0
134411.0 451011.0 0
138119.0 451413.0 0
141747.0 451754.0 0
148192.0 450290.0 0
151690.0 451171.0 0
155311.0 451632.0 0
158990.0 451589.0 0
162608.0 451463.0 0
166319.0 451453.0 0
170054.0 451416.0 0
173809.0 451361.0 0
177600.0 451282.0 0
181406.0 451127.0 0
185191.0 450854.0 0
188837.0 450257.0 0
192604.0 449612.0 0
202036.0 451678.0 0
205764.0 451392.0 0
209480.0 451098.0 0
213188.0 450794.0 0
216890.0 450492.0 0
220587.0 450209.0 0
224280.0 449960.0 0
227973.0 449747.0 0
231666.0 449553.0 0
235337.0 449427.0 0
239054.0 449263.0 0
242750.0 449095.0 0
246361.0 449050.0 0
250083.0 448995.0 0
253679.0 449129.0 0
257429.0 449289.0 0
260938.0 449573.0 0
264538.0 449917.0 0
268225.0 450124.0 0
271921.0 450269.0 0
275657.0 450406.0 0
279457.0 450477.0 0
283258.0 450550.0 0
287041.0 450652.0 0
290825.0 450793.0 0
294645.0 450965.0 0
298488.0 451120.0 0
302336.0 451244.0 0
306181.0 451336.0 0
310020.0 451398.0 0
313855.0 451433.0 0
317686.0 451439.0 0
321515.0 451410.0 0
325340.0 451339.0 0
329162.0 451215.0 0
332982.0 451020.0 0
336814.0 450716.0 0
340796.0 450034.0 0
344707.0 449677.0 0
354910.0 451959.0 0
358801.0 451705.0 0
362754.0 451275.0 0
366581.0 450542.0 0
370135.0 451386.0 0
373661.0 450489.0 0
380078.0 451023.0 0
383348.0 453089.0 0
386764.0 451923.0 0
390164.0 450690.0 0
396719.0 451674.0 0
400095.0 450363.0 0
403293.0 452590.0 0
406662.0 451157.0 0
413273.0 451768.0 0
419912.0 452273.0 0
74934.6 455486.0 0
83585.3 454120.0 0
90243.6 453449.0 0
93772.5 454773.0 0
100354.0 453616.0 0
103883.0 454744.0 0
113995.0 452627.0 0
117649.0 453709.0 0
121343.0 454662.0 0
127855.0 452953.0 0
131591.0 453604.0 0
135313.0 454128.0 0
138980.0 454548.0 0
145440.0 452440.0 0
149264.0 453881.0 0
152999.0 454479.0 0
156836.0 454686.0 0
160619.0 454679.0 0
164366.0 454611.0 0
168144.0 454580.0 0
183425.0 454166.0 0
187236.0 453898.0 0
190782.0 452962.0 0
194530.0 452378.0 0
198292.0 451986.0 0
211214.0 454160.0 0
214918.0 453863.0 0
218629.0 453579.0 0
222340.0 453326.0 0
226049.0 453108.0 0
229754.0 452921.0 0
233449.0 452776.0 0
237153.0 452635.0 0
240845.0 452504.0 0
244505.0 452432.0 0
248171.0 452377.0 0
251812.0 452439.0 0
255472.0 452541.0 0
259111.0 452785.0 0
262758.0 453038.0 0
266464.0 453260.0 0
270195.0 453424.0 0
273943.0 453547.0 0
277723.0 453632.0 0
281511.0 453709.0 0
285300.0 453802.0 0
289091.0 453916.0 0
292896.0 454048.0 0
296726.0 454186.0 0
300573.0 454309.0 0
319839.0 454543.0 0
323685.0 454501.0 0
327526.0 454416.0 0
331359.0 454272.0 0
335186.0 454041.0 0
339575.0 453052.0 0
343418.0 452713.0 0
347268.0 452406.0 0
351112.0 452108.0 0
357445.0 454773.0 0
361370.0 454425.0 0
365292.0 454007.0 0
369017.0 454248.0 0
372926.0 453836.0 0
376594.0 452861.0 0
379910.0 454228.0 0
386361.0 455428.0 0
389851.0 454192.0 0
393306.0 452946.0 0
396427.0 455237.0 0
399883.0 453948.0 0
406490.0 454806.0 0
409902.0 453298.0 0
413163.0 455440.0 0
416564.0 453884.0 0
423244.0 454360.0 0
71661.0 457538.0 0
78450.4 455577.0 0
81515.3 457345.0 0
87160.7 455770.0 0
90788.0 457188.0 0
97335.1 455983.0 0
100926.0 457103.0 0
107529.0 455716.0 0
111134.0 455093.0 0
114810.0 456184.0 0
118556.0 457185.0 0
125068.0 455498.0 0
128816.0 456212.0 0
132561.0 456816.0 0
136277.0 457321.0 0
142579.0 454960.0 0
146178.0 455521.0 0
150756.0 457396.0 0
154598.0 457651.0 0
158470.0 457762.0 0
171938.0 454528.0 0
175751.0 454453.0 0
179585.0 454341.0 0
192604.0 455666.0 0
196352.0 455241.0 0
200092.0 454956.0 0
203813.0 454711.0 0
207515.0 454447.0 0
220376.0 456687.0 0
224103.0 456466.0 0
227823.0 456280.0 0
231535.0 456131.0 0
235242.0 456002.0 0
238940.0 455891.0 0
242619.0 455814.0 0
246292.0 455766.0 0
249948.0 455779.0 0
253610.0 455852.0 0
257267.0 456007.0 0
260950.0 456216.0 0
264665.0 456411.0 0
268412.0 456578.0 0
272179.0 456708.0 0
275962.0 456803.0 0
279752.0 456884.0 0
304427.0 454408.0 0
308282.0 454482.0 0
312136.0 454529.0 0
315988.0 454551.0 0
333502.0 457386.0 0
338262.0 455983.0 0
342106.0 455785.0 0
345922.0 455514.0 0
349746.0 455246.0 0
353568.0 455032.0 0
363792.0 457274.0 0
367601.0 457194.0 0
371591.0 456973.0 0
375547.0 456459.0 0
379160.0 457266.0 0
382861.0 456518.0 0
389328.0 457707.0 0
392914.0 456485.0 0
399556.0 457560.0 0
403047.0 456233.0 0
409710.0 456961.0 0
416447.0 457600.0 0
419868.0 456007.0 0
423178.0 458140.0 0
426579.0 456449.0 0
68389.7 459595.0 0
71786.3 461285.0 0
74985.3 459086.0 0
78514.0 459759.0 0
84769.9 458693.0 0
88153.0 459864.0 0
94416.6 458428.0 0
98055.0 459564.0 0
104589.0 458091.0 0
108341.0 458830.0 0
112039.0 458781.0 0
115787.0 459709.0 0
122318.0 458073.0 0
126091.0 458844.0 0
129871.0 459505.0 0
133646.0 460074.0 0
139945.0 457754.0 0
143582.0 458164.0 0
147315.0 458377.0 0
152456.0 460711.0 0
162317.0 457765.0 0
166140.0 457729.0 0
169974.0 457688.0 0
173817.0 457625.0 0
177675.0 457538.0 0
181542.0 457419.0 0
185402.0 457261.0 0
189218.0 457112.0 0
194283.0 458459.0 0
198062.0 458204.0 0
201810.0 458009.0 0
205533.0 457809.0 0
209226.0 457545.0 0
212926.0 457245.0 0
216648.0 456948.0 0
233317.0 459364.0 0
237024.0 459266.0 0
240719.0 459192.0 0
244406.0 459145.0 0
248082.0 459139.0 0
251757.0 459181.0 0
255434.0 459282.0 0
259128.0 459432.0 0
283545.0 456969.0 0
287343.0 457067.0 0
291151.0 457177.0 0
294974.0 457292.0 0
298816.0 457404.0 0
302670.0 457503.0 0
306532.0 457581.0 0
310397.0 457638.0 0
314264.0 457672.0 0
318131.0 457683.0 0
321993.0 457668.0 0
325847.0 457622.0 0
329686.0 457534.0 0
336851.0 458878.0 0
340690.0 458833.0 0
344518.0 458642.0 0
348337.0 458398.0 0
352162.0 458161.0 0
356021.0 457901.0 0
359909.0 457595.0 0
370063.0 460066.0 0
374076.0 459772.0 0
378010.0 460264.0 0
381943.0 459846.0 0
385677.0 458986.0 0
392365.0 459999.0 0
396001.0 458807.0 0
402690.0 459917.0 0
406211.0 458503.0 0
409433.0 460622.0 0
412973.0 459130.0 0
419738.0 459775.0 0
426494.0 460275.0 0
429923.0 458541.0 0
433275.0 460643.0 0
61788.2 463734.0 0
65104.3 461657.0 0
68563.5 463449.0 0
75276.6 462747.0 0
81871.4 461258.0 0
85339.8 462544.0 0
91663.1 461002.0 0
95266.7 462123.0 0
101746.0 460573.0 0
105510.0 461416.0 0
109313.0 462026.0 0
113043.0 462374.0 0
119608.0 460673.0 0
123410.0 461506.0 0
127226.0 462211.0 0
137402.0 460559.0 0
141149.0 460967.0 0
144950.0 461230.0 0
148809.0 461169.0 0
156305.0 460798.0 0
160188.0 460852.0 0
164063.0 460860.0 0
167929.0 460834.0 0
171802.0 460790.0 0
175680.0 460725.0 0
179565.0 460641.0 0
183448.0 460541.0 0
187312.0 460449.0 0
191148.0 460417.0 0
195890.0 461361.0 0
199715.0 461248.0 0
203495.0 461123.0 0
207239.0 460960.0 0
210925.0 460656.0 0
214651.0 460324.0 0
218392.0 460044.0 0
222136.0 459815.0 0
225873.0 459631.0 0
229599.0 459484.0 0
262853.0 459599.0 0
266605.0 459752.0 0
270381.0 459882.0 0
274171.0 459985.0 0
277970.0 460071.0 0
281772.0 460153.0 0
285578.0 460241.0 0
289392.0 460335.0 0
293218.0 460434.0 0
297057.0 460533.0 0
300910.0 460624.0 0
304774.0 460702.0 0
308645.0 460764.0 0
312520.0 460807.0 0
316396.0 460832.0 0
320269.0 460839.0 0
324135.0 460828.0 0
327981.0 460795.0 0
331795.0 460728.0 0
335341.0 461780.0 0
339177.0 461862.0 0
343025.0 461759.0 0
346865.0 461564.0 0
350701.0 461331.0 0
354554.0 461074.0 0
358424.0 460793.0 0
362294.0 460507.0 0
366143.0 460311.0 0
376088.0 462960.0 0
380706.0 463033.0 0
384713.0 462533.0 0
388655.0 461182.0 0
391708.0 463473.0 0
395430.0 462357.0 0
399098.0 461186.0 0
405836.0 462267.0 0
412738.0 462820.0 0
416261.0 461344.0 0
423026.0 461958.0 0
429818.0 462407.0 0
436632.0 462745.0 0
58431.8 465835.0 0
65294.2 465577.0 0
72101.1 465078.0 0
78867.5 463742.0 0
82399.8 465137.0 0
88881.3 463688.0 0
92489.9 464773.0 0
98952.8 463140.0 0
102713.0 464027.0 0
106528.0 464757.0 0
116854.0 463177.0 0
120770.0 464202.0 0
124621.0 464953.0 0
131052.0 462817.0 0
134885.0 463351.0 0
138720.0 463788.0 0
142593.0 464094.0 0
146517.0 464199.0 0
150410.0 464092.0 0
154182.0 463911.0 0
158042.0 463935.0 0
161930.0 463964.0 0
165824.0 463969.0 0
169718.0 463945.0 0
173616.0 463904.0 0
177516.0 463848.0 0
181414.0 463782.0 0
185302.0 463724.0 0
189177.0 463702.0 0
193047.0 463750.0 0
197495.0 464370.0 0
201369.0 464355.0 0
205194.0 464285.0 0
208980.0 464162.0 0
212660.0 463725.0 0
216397.0 463403.0 0
220151.0 463157.0 0
223903.0 462971.0 0
227644.0 462828.0 0
231373.0 462718.0 0
235092.0 462631.0 0
238802.0 462564.0 0
242503.0 462519.0 0
246199.0 462503.0 0
249893.0 462524.0 0
253589.0 462588.0 0
257297.0 462693.0 0
261028.0 462822.0 0
264785.0 462955.0 0
268564.0 463076.0 0
272359.0 463180.0 0
276165.0 463269.0 0
279977.0 463351.0 0
283793.0 463432.0 0
287615.0 463516.0 0
291446.0 463603.0 0
295288.0 463690.0 0
299142.0 463773.0 0
303006.0 463847.0 0
306879.0 463910.0 0
310758.0 463959.0 0
314639.0 463993.0 0
318519.0 464016.0 0
322394.0 464029.0 0
326253.0 464042.0 0
330075.0 464049.0 0
345321.0 464726.0 0
349182.0 464522.0 0
353043.0 464279.0 0
356911.0 464014.0 0
360778.0 463745.0 0
364633.0 463509.0 0
368494.0 463267.0 0
372335.0 463004.0 0
383151.0 465864.0 0
387940.0 464617.0 0
394729.0 465887.0 0
398487.0 464799.0 0
402199.0 463619.0 0
409156.0 464230.0 0
416001.0 465128.0 0
419529.0 463585.0 0
422786.0 465820.0 0
426321.0 464135.0 0
433154.0 464554.0 0
439998.0 464851.0 0
61951.8 467697.0 0
68873.8 467346.0 0
72566.7 468919.0 0
75719.6 466484.0 0
79387.9 467679.0 0
86007.9 466366.0 0
89668.2 467472.0 0
96174.0 465790.0 0
99930.0 466696.0 0
103742.0 467479.0 0
110349.0 465327.0 0
114104.0 465859.0 0
117912.0 466585.0 0
122088.0 467759.0 0
128485.0 465583.0 0
132367.0 466126.0 0
136277.0 466618.0 0
140198.0 466968.0 0
144159.0 467157.0 0
148118.0 467197.0 0
152019.0 467142.0 0
155874.0 467071.0 0
159762.0 467077.0 0
163670.0 467093.0 0
167584.0 467094.0 0
171498.0 467075.0 0
175410.0 467043.0 0
179320.0 467003.0 0
183224.0 466967.0 0
187121.0 466953.0 0
191016.0 466984.0 0
194922.0 467078.0 0
210724.0 467454.0 0
214385.0 466779.0 0
218144.0 466494.0 0
221909.0 466298.0 0
225665.0 466161.0 0
229407.0 466062.0 0
233138.0 465987.0 0
236862.0 465929.0 0
240579.0 465888.0 0
244293.0 465868.0 0
248006.0 465874.0 0
251721.0 465913.0 0
255446.0 465985.0 0
259187.0 466081.0 0
262949.0 466189.0 0
266732.0 466296.0 0
270531.0 466394.0 0
274343.0 466481.0 0
278162.0 466562.0 0
281988.0 466639.0 0
285819.0 466716.0 0
289657.0 466794.0 0
293504.0 466872.0 0
297360.0 466947.0 0
301226.0 467016.0 0
305100.0 467077.0 0
308981.0 467128.0 0
312865.0 467169.0 0
316749.0 467202.0 0
320628.0 467231.0 0
324496.0 467267.0 0
328340.0 467335.0 0
333747.0 464720.0 0
337585.0 464886.0 0
341454.0 464864.0 0
351488.0 467501.0 0
355367.0 467254.0 0
359243.0 466997.0 0
363112.0 466751.0 0
366975.0 466513.0 0
370816.0 466286.0 0
374611.0 466107.0 0
378475.0 465766.0 0
386317.0 467772.0 0
390942.0 466928.0 0
397707.0 468408.0 0
401501.0 467332.0 0
405252.0 466112.0 0
408787.0 467750.0 0
412434.0 466525.0 0
419222.0 467444.0 0
426068.0 468020.0 0
429638.0 466305.0 0
432971.0 468502.0 0
436501.0 466698.0 0
443379.0 466967.0 0
65538.0 469514.0 0
69352.1 471266.0 0
76316.5 470272.0 0
83064.8 468999.0 0
86788.4 470178.0 0
93383.6 468501.0 0
97154.4 469429.0 0
100976.0 470241.0 0
107578.0 468141.0 0
111394.0 468724.0 0
115187.0 469296.0 0
119022.0 469916.0 0
125961.0 468407.0 0
129859.0 468949.0 0
133787.0 469414.0 0
137794.0 469872.0 0
141782.0 470109.0 0
157570.0 470221.0 0
161487.0 470227.0 0
165411.0 470240.0 0
199140.0 467471.0 0
203052.0 467516.0 0
206915.0 467494.0 0
219880.0 469610.0 0
223652.0 469477.0 0
227411.0 469392.0 0
231156.0 469333.0 0
234893.0 469286.0 0
238628.0 469251.0 0
242360.0 469231.0 0
246092.0 469229.0 0
249827.0 469251.0 0
253569.0 469298.0 0
257323.0 469368.0 0
261094.0 469452.0 0
264882.0 469541.0 0
268686.0 469629.0 0
272503.0 469711.0 0
276330.0 469788.0 0
280163.0 469861.0 0
332088.0 467719.0 0
335935.0 467922.0 0
339822.0 467963.0 0
343717.0 467882.0 0
347605.0 467718.0 0
357683.0 470262.0 0
361568.0 470018.0 0
365449.0 469778.0 0
369313.0 469561.0 0
373137.0 469376.0 0
376969.0 469067.0 0
380806.0 468634.0 0
386661.0 471250.0 0
390186.0 470364.0 0
393919.0 469426.0 0
404404.0 469988.0 0
408155.0 471189.0 0
411931.0 470247.0 0
415619.0 468966.0 0
422467.0 469726.0 0
429390.0 470216.0 0
439860.0 468824.0 0
73206.2 472806.0 0
80066.2 471578.0 0
83861.0 472860.0 0
90554.3 471228.0 0
94376.0 472207.0 0
104830.0 470946.0 0
108688.0 471573.0 0
112528.0 472150.0 0
116361.0 472695.0 0
123511.0 471321.0 0
127399.0 471855.0 0
131317.0 472301.0 0
135262.0 472672.0 0
145775.0 470229.0 0
149739.0 470264.0 0
153665.0 470244.0 0
169338.0 470242.0 0
173262.0 470231.0 0
177183.0 470211.0 0
181100.0 470193.0 0
185011.0 470187.0 0
188921.0 470209.0 0
192837.0 470275.0 0
196772.0 470394.0 0
200835.0 470647.0 0
204774.0 470728.0 0
208660.0 470768.0 0
212494.0 470810.0 0
216100.0 469827.0 0
284002.0 469933.0 0
287848.0 470004.0 0
291701.0 470075.0 0
295562.0 470143.0 0
299431.0 470208.0 0
303307.0 470266.0 0
307189.0 470318.0 0
311075.0 470362.0 0
314961.0 470401.0 0
318844.0 470439.0 0
322717.0 470486.0 0
326570.0 470565.0 0
330374.0 470785.0 0
334243.0 470986.0 0
338149.0 471067.0 0
342066.0 471035.0 0
345981.0 470914.0 0
349890.0 470730.0 0
353791.0 470506.0 0
363895.0 473068.0 0
367779.0 472843.0 0
371641.0 472655.0 0
375483.0 472431.0 0
379295.0 472061.0 0
383061.0 471545.0 0
389201.0 473994.0 0
392916.0 473042.0 0
396723.0 472043.0 0
400569.0 471045.0 0
411092.0 473971.0 0
414957.0 472823.0 0
418825.0 471341.0 0
422074.0 473662.0 0
425787.0 471926.0 0
76980.4 474114.0 0
80859.3 475462.0 0
87686.0 473985.0 0
91542.2 474949.0 0
98228.7 473051.0 0
102111.0 473780.0 0
106011.0 474428.0 0
109900.0 475031.0 0
120227.0 473191.0 0
125019.0 474869.0 0
128924.0 475291.0 0
132865.0 475637.0 0
139440.0 473099.0 0
143438.0 473253.0 0
147431.0 473341.0 0
151403.0 473376.0 0
155351.0 473379.0 0
159283.0 473381.0 0
163217.0 473394.0 0
167152.0 473409.0 0
171086.0 473416.0 0
175016.0 473415.0 0
178942.0 473411.0 0
182864.0 473414.0 0
186784.0 473433.0 0
190706.0 473482.0 0
194639.0 473568.0 0
198591.0 473700.0 0
202580.0 473883.0 0
206528.0 473998.0 0
210428.0 474103.0 0
214282.0 474227.0 0
217787.0 472895.0 0
221589.0 472767.0 0
225370.0 472701.0 0
229134.0 472664.0 0
232888.0 472634.0 0
236642.0 472608.0 0
240394.0 472591.0 0
244147.0 472585.0 0
247902.0 472597.0 0
251663.0 472627.0 0
255433.0 472675.0 0
259216.0 472739.0 0
263013.0 472811.0 0
266823.0 472886.0 0
270647.0 472960.0 0
274480.0 473031.0 0
278320.0 473099.0 0
282167.0 473166.0 0
286021.0 473232.0 0
289880.0 473297.0 0
293747.0 473360.0 0
297620.0 473420.0 0
301499.0 473476.0 0
305384.0 473526.0 0
309272.0 473572.0 0
313162.0 473614.0 0
317050.0 473656.0 0
320932.0 473707.0 0
324802.0 473783.0 0
328654.0 473928.0 0
332535.0 474087.0 0
336451.0 474188.0 0
340383.0 474194.0 0
344320.0 474111.0 0
348254.0 473960.0 0
352180.0 473761.0 0
356096.0 473537.0 0
360001.0 473303.0 0
370110.0 475948.0 0
373982.0 475758.0 0
377847.0 475479.0 0
385414.0 474666.0 0
391749.0 476725.0 0
395563.0 475721.0 0
399423.0 474756.0 0
403307.0 473831.0 0
407188.0 474547.0 0
413997.0 476663.0 0
418121.0 475241.0 0
425416.0 475858.0 0
429239.0 474164.0 0
77765.9 477983.0 0
84787.4 476726.0 0
88740.6 477784.0 0
95499.1 475903.0 0
99420.9 476663.0 0
103369.0 477308.0 0
107302.0 477922.0 0
113774.0 475581.0 0
117647.0 476064.0 0
121541.0 476434.0 0
126603.0 478391.0 0
136839.0 475895.0 0
141137.0 476317.0 0
145133.0 476418.0 0
149128.0 476485.0 0
153105.0 476523.0 0
157064.0 476543.0 0
161010.0 476562.0 0
164952.0 476584.0 0
168892.0 476604.0 0
172829.0 476618.0 0
176763.0 476628.0 0
180692.0 476639.0 0
184620.0 476659.0 0
188548.0 476698.0 0
192481.0 476765.0 0
196426.0 476866.0 0
200385.0 477004.0 0
204357.0 477168.0 0
208304.0 477326.0 0
212217.0 477497.0 0
216093.0 477700.0 0
219444.0 476004.0 0
223268.0 475972.0 0
227060.0 475971.0 0
230836.0 475969.0 0
234614.0 475956.0 0
238391.0 475945.0 0
242168.0 475940.0 0
245946.0 475946.0 0
249728.0 475965.0 0
253516.0 475998.0 0
257313.0 476045.0 0
261121.0 476101.0 0
264941.0 476163.0 0
268771.0 476227.0 0
272611.0 476291.0 0
276459.0 476354.0 0
280314.0 476416.0 0
284175.0 476477.0 0
288042.0 476536.0 0
291914.0 476595.0 0
295792.0 476651.0 0
299676.0 476704.0 0
303564.0 476753.0 0
307456.0 476798.0 0
311350.0 476841.0 0
315243.0 476885.0 0
319134.0 476935.0 0
323021.0 477003.0 0
326904.0 477107.0 0
330805.0 477227.0 0
334738.0 477332.0 0
338680.0 477368.0 0
342632.0 477317.0 0
346586.0 477193.0 0
350537.0 477019.0 0
354480.0 476814.0 0
358410.0 476595.0 0
362326.0 476373.0 0
366226.0 476153.0 0
381667.0 475080.0 0
398155.0 478492.0 0
401966.0 477658.0 0
405794.0 477811.0 0
409702.0 477623.0 0
92639.8 478642.0 0
96755.4 479592.0 0
100792.0 480239.0 0
111224.0 478503.0 0
115132.0 479011.0 0
119046.0 479412.0 0
122964.0 479665.0 0
130535.0 478699.0 0
134502.0 478944.0 0
138489.0 479115.0 0
142866.0 479534.0 0
146862.0 479601.0 0
150854.0 479659.0 0
154832.0 479704.0 0
158793.0 479739.0 0
162744.0 479771.0 0
166690.0 479801.0 0
170631.0 479827.0 0
174570.0 479848.0 0
178505.0 479868.0 0
182439.0 479891.0 0
186372.0 479925.0 0
190308.0 479978.0 0
194250.0 480058.0 0
198205.0 480170.0 0
202171.0 480317.0 0
221077.0 479170.0 0
224916.0 479235.0 0
228722.0 479282.0 0
232535.0 479287.0 0
236345.0 479288.0 0
240152.0 479289.0 0
243957.0 479295.0 0
247761.0 479308.0 0
251570.0 479332.0 0
255384.0 479366.0 0
259206.0 479409.0 0
263037.0 479459.0 0
266877.0 479513.0 0
270725.0 479568.0 0
274581.0 479625.0 0
278444.0 479681.0 0
282312.0 479737.0 0
286186.0 479792.0 0
290065.0 479847.0 0
293949.0 479899.0 0
297837.0 479950.0 0
301730.0 479997.0 0
305626.0 480041.0 0
309525.0 480084.0 0
313424.0 480127.0 0
317323.0 480174.0 0
321222.0 480232.0 0
344894.0 480437.0 0
348866.0 480282.0 0
352834.0 480094.0 0
356791.0 479889.0 0
360734.0 479681.0 0
364660.0 479474.0 0
368569.0 479273.0 0
372462.0 479081.0 0
376358.0 478854.0 0
380248.0 478539.0 0
384099.0 478143.0 0
387935.0 477553.0 0
394327.0 479431.0 0
400666.0 481436.0 0
404550.0 481219.0 0
412528.0 480367.0 0
89933.1 481572.0 0
93853.3 482313.0 0
98249.1 483221.0 0
104740.0 480847.0 0
108691.0 481426.0 0
112649.0 481990.0 0
116601.0 482432.0 0
120554.0 482748.0 0
128273.0 481868.0 0
132224.0 482074.0 0
136205.0 482238.0 0
140201.0 482346.0 0
144622.0 482750.0 0
148612.0 482806.0 0
152598.0 482866.0 0
156572.0 482920.0 0
160533.0 482968.0 0
164484.0 483009.0 0
168430.0 483046.0 0
206143.0 480498.0 0
210099.0 480706.0 0
214027.0 480945.0 0
217920.0 481222.0 0
222682.0 482418.0 0
226526.0 482564.0 0
230397.0 482591.0 0
234253.0 482613.0 0
238097.0 482627.0 0
241933.0 482639.0 0
245765.0 482652.0 0
249596.0 482671.0 0
253429.0 482697.0 0
257267.0 482730.0 0
261112.0 482770.0 0
264963.0 482814.0 0
325123.0 480309.0 0
329039.0 480399.0 0
332981.0 480482.0 0
336959.0 480561.0 0
340923.0 480539.0 0
355142.0 483185.0 0
359109.0 482988.0 0
363062.0 482795.0 0
366999.0 482606.0 0
370926.0 482420.0 0
374857.0 482218.0 0
378793.0 481950.0 0
382715.0 481603.0 0
386628.0 481110.0 0
390521.0 480420.0 0
396810.0 482219.0 0
408475.0 481617.0 0
102217.0 483827.0 0
106173.0 484395.0 0
110130.0 484931.0 0
114184.0 485480.0 0
124522.0 482878.0 0
130006.0 485302.0 0
133969.0 485428.0 0
137967.0 485522.0 0
141979.0 485590.0 0
172371.0 483077.0 0
176310.0 483104.0 0
180247.0 483131.0 0
184184.0 483164.0 0
188122.0 483208.0 0
192063.0 483272.0 0
196014.0 483362.0 0
199977.0 483486.0 0
203947.0 483651.0 0
207926.0 483866.0 0
211892.0 484133.0 0
215832.0 484448.0 0
268821.0 482862.0 0
272685.0 482911.0 0
276556.0 482962.0 0
280432.0 483013.0 0
284313.0 483064.0 0
288199.0 483114.0 0
292090.0 483164.0 0
295984.0 483211.0 0
299882.0 483257.0 0
303783.0 483300.0 0
307687.0 483342.0 0
311592.0 483383.0 0
315498.0 483426.0 0
319405.0 483475.0 0
323317.0 483534.0 0
327240.0 483601.0 0
331183.0 483666.0 0
335144.0 483714.0 0
339209.0 483786.0 0
343188.0 483699.0 0
347175.0 483557.0 0
351162.0 483379.0 0
365387.0 485941.0 0
369344.0 485761.0 0
373302.0 485572.0 0
381237.0 485051.0 0
385197.0 484660.0 0
389136.0 484079.0 0
393044.0 483390.0 0
399203.0 485154.0 0
403044.0 484626.0 0
406925.0 485294.0 0
95348.0 485894.0 0
99742.3 486868.0 0
103703.0 487423.0 0
107666.0 487951.0 0
118157.0 485853.0 0
122215.0 486034.0 0
126182.0 486121.0 0
146387.0 485979.0 0
150374.0 486038.0 0
154354.0 486105.0 0
158323.0 486170.0 0
162281.0 486228.0 0
166230.0 486277.0 0
170174.0 486318.0 0
174114.0 486353.0 0
178053.0 486384.0 0
181991.0 486416.0 0
185930.0 486455.0 0
189870.0 486507.0 0
193814.0 486579.0 0
197769.0 486680.0 0
201733.0 486818.0 0
205710.0 487006.0 0
209701.0 487272.0 0
213687.0 487608.0 0
219728.0 484785.0 0
224208.0 485795.0 0
228197.0 485849.0 0
232119.0 485908.0 0
236007.0 485948.0 0
239878.0 485973.0 0
243739.0 485993.0 0
247595.0 486012.0 0
251450.0 486034.0 0
255306.0 486061.0 0
259166.0 486093.0 0
263029.0 486129.0 0
266898.0 486170.0 0
270772.0 486213.0 0
274652.0 486257.0 0
278536.0 486303.0 0
282425.0 486350.0 0
286318.0 486397.0 0
290215.0 486443.0 0
294116.0 486488.0 0
298020.0 486532.0 0
301927.0 486574.0 0
305836.0 486614.0 0
309747.0 486654.0 0
313659.0 486694.0 0
317574.0 486736.0 0
321493.0 486782.0 0
325421.0 486831.0 0
329365.0 486878.0 0
333328.0 486925.0 0
337292.0 486929.0 0
341490.0 486997.0 0
345473.0 486851.0 0
349474.0 486678.0 0
353468.0 486487.0 0
357453.0 486300.0 0
361425.0 486119.0 0
377269.0 485340.0 0
387676.0 487732.0 0
391616.0 487099.0 0
395508.0 486450.0 0
401637.0 488184.0 0
92413.2 488570.0 0
96805.8 489505.0 0
101280.0 490515.0 0
105242.0 491026.0 0
111633.0 488431.0 0
115766.0 488979.0 0
119932.0 489185.0 0
123918.0 489353.0 0
127881.0 489402.0 0
131779.0 488709.0 0
135775.0 488746.0 0
139791.0 488804.0 0
143788.0 488866.0 0
148159.0 489227.0 0
152143.0 489299.0 0
156118.0 489379.0 0
160081.0 489454.0 0
164033.0 489519.0 0
167979.0 489573.0 0
171922.0 489616.0 0
175862.0 489652.0 0
179800.0 489685.0 0
183738.0 489721.0 0
187675.0 489765.0 0
191614.0 489823.0 0
195557.0 489903.0 0
199507.0 490014.0 0
203466.0 490166.0 0
207439.0 490383.0 0
211436.0 490719.0 0
217661.0 488034.0 0
221566.0 488740.0 0
226032.0 489057.0 0
229978.0 489169.0 0
233897.0 489247.0 0
237800.0 489295.0 0
241690.0 489326.0 0
245572.0 489351.0 0
249449.0 489374.0 0
253325.0 489399.0 0
257200.0 489426.0 0
261078.0 489456.0 0
264959.0 489490.0 0
268843.0 489527.0 0
272732.0 489567.0 0
276625.0 489608.0 0
280522.0 489650.0 0
284422.0 489693.0 0
288326.0 489736.0 0
292234.0 489779.0 0
296144.0 489821.0 0
300057.0 489861.0 0
303972.0 489901.0 0
307889.0 489939.0 0
311808.0 489976.0 0
315729.0 490014.0 0
319654.0 490052.0 0
323586.0 490088.0 0
327530.0 490119.0 0
331492.0 490144.0 0
335483.0 490186.0 0
339456.0 490122.0 0
343785.0 490190.0 0
347769.0 489995.0 0
351781.0 489805.0 0
355773.0 489621.0 0
359758.0 489449.0 0
363737.0 489282.0 0
367711.0 489112.0 0
371682.0 488934.0 0
375663.0 488729.0 0
379652.0 488487.0 0
383650.0 488175.0 0
394131.0 490159.0 0
398004.0 489521.0 0
404126.0 491098.0 0
407644.0 489205.0 0
94000.2 492314.0 0
98307.5 493113.0 0
109207.0 491515.0 0
113163.0 491944.0 0
117653.0 492351.0 0
121661.0 492574.0 0
125650.0 492703.0 0
129798.0 492586.0 0
133674.0 492053.0 0
137643.0 492061.0 0
141631.0 492109.0 0
145623.0 492173.0 0
149935.0 492500.0 0
153917.0 492591.0 0
157885.0 492687.0 0
161841.0 492772.0 0
165790.0 492841.0 0
169734.0 492894.0 0
173676.0 492936.0 0
177615.0 492972.0 0
181552.0 493007.0 0
185486.0 493046.0 0
189420.0 493094.0 0
193352.0 493159.0 0
197286.0 493248.0 0
201224.0 493370.0 0
215394.0 491138.0 0
219134.0 492359.0 0
223679.0 492096.0 0
227813.0 492398.0 0
231767.0 492525.0 0
235702.0 492602.0 0
239623.0 492652.0 0
243531.0 492687.0 0
247430.0 492715.0 0
251325.0 492741.0 0
255218.0 492766.0 0
259110.0 492793.0 0
263003.0 492823.0 0
266899.0 492855.0 0
270797.0 492889.0 0
274699.0 492925.0 0
278604.0 492963.0 0
282512.0 493003.0 0
286423.0 493043.0 0
290337.0 493083.0 0
294254.0 493123.0 0
298173.0 493162.0 0
302095.0 493201.0 0
306018.0 493237.0 0
341660.0 493300.0 0
346086.0 493360.0 0
350073.0 493140.0 0
354073.0 492956.0 0
358064.0 492789.0 0
362050.0 492632.0 0
366031.0 492474.0 0
370012.0 492310.0 0
373996.0 492127.0 0
377983.0 491913.0 0
381998.0 491661.0 0
386050.0 491314.0 0
390218.0 490769.0 0
407139.0 493591.0 0
102862.0 494163.0 0
106823.0 494637.0 0
110772.0 495110.0 0
115053.0 495290.0 0
119407.0 495804.0 0
135538.0 495390.0 0
139498.0 495391.0 0
143480.0 495434.0 0
147469.0 495508.0 0
151713.0 495803.0 0
205167.0 493536.0 0
209123.0 493782.0 0
213145.0 494225.0 0
221659.0 495379.0 0
225618.0 495570.0 0
309944.0 493273.0 0
313872.0 493307.0 0
317803.0 493340.0 0
321739.0 493369.0 0
325681.0 493391.0 0
329634.0 493403.0 0
333599.0 493402.0 0
337687.0 493440.0 0
356346.0 496142.0 0
360334.0 495992.0 0
364318.0 495846.0 0
368302.0 495698.0 0
372287.0 495535.0 0
376275.0 495348.0 0
380268.0 495123.0 0
384332.0 494856.0 0
388622.0 494321.0 0
392779.0 493840.0 0
396728.0 493239.0 0
400721.0 493186.0 0
95567.2 495987.0 0
99845.6 496720.0 0
105320.0 498263.0 0
112754.0 498496.0 0
123397.0 495989.0 0
127690.0 495896.0 0
131651.0 495903.0 0
137389.0 498732.0 0
155690.0 495921.0 0
159651.0 496031.0 0
163603.0 496121.0 0
167551.0 496186.0 0
171496.0 496236.0 0
175438.0 496277.0 0
179375.0 496312.0 0
183308.0 496349.0 0
187237.0 496391.0 0
191162.0 496445.0 0
195084.0 496518.0 0
199003.0 496618.0 0
202920.0 496749.0 0
206835.0 496925.0 0
210757.0 497196.0 0
215806.0 497115.0 0
219483.0 498563.0 0
229624.0 495782.0 0
233594.0 495895.0 0
237543.0 495968.0 0
241476.0 496019.0 0
245398.0 496056.0 0
249312.0 496086.0 0
253221.0 496113.0 0
257128.0 496138.0 0
261034.0 496165.0 0
264940.0 496193.0 0
268849.0 496223.0 0
272759.0 496255.0 0
276672.0 496289.0 0
280588.0 496325.0 0
284506.0 496362.0 0
288427.0 496400.0 0
292351.0 496438.0 0
296277.0 496476.0 0
300204.0 496513.0 0
304134.0 496549.0 0
308066.0 496583.0 0
312001.0 496615.0 0
315938.0 496645.0 0
319880.0 496670.0 0
323827.0 496688.0 0
327780.0 496694.0 0
331739.0 496684.0 0
335706.0 496637.0 0
339934.0 496680.0 0
343911.0 496468.0 0
348375.0 496516.0 0
352357.0 496308.0 0
382527.0 498358.0 0
386942.0 497843.0 0
391121.0 497394.0 0
395330.0 496918.0 0
400787.0 497181.0 0
404763.0 496795.0 0
97161.8 499641.0 0
101836.0 500115.0 0
108995.0 499768.0 0
116776.0 498752.0 0
121157.0 499281.0 0
125562.0 499175.0 0
129539.0 499255.0 0
133496.0 499276.0 0
141350.0 498730.0 0
145330.0 498777.0 0
149320.0 498871.0 0
153485.0 499144.0 0
157458.0 499291.0 0
161414.0 499410.0 0
165371.0 499492.0 0
169323.0 499552.0 0
173271.0 499598.0 0
177211.0 499637.0 0
181145.0 499673.0 0
185071.0 499711.0 0
188991.0 499758.0 0
192904.0 499819.0 0
196813.0 499902.0 0
200718.0 500013.0 0
204622.0 500151.0 0
208538.0 500311.0 0
213206.0 500073.0 0
223529.0 498871.0 0
227510.0 499032.0 0
231496.0 499181.0 0
235465.0 499279.0 0
239417.0 499347.0 0
243358.0 499396.0 0
247289.0 499434.0 0
251213.0 499464.0 0
255134.0 499491.0 0
259052.0 499516.0 0
262970.0 499542.0 0
266888.0 499569.0 0
270808.0 499597.0 0
274729.0 499628.0 0
278652.0 499660.0 0
282577.0 499694.0 0
286505.0 499729.0 0
290435.0 499765.0 0
294367.0 499801.0 0
298301.0 499837.0 0
302237.0 499872.0 0
306176.0 499906.0 0
310117.0 499937.0 0
314061.0 499964.0 0
318009.0 499987.0 0
321963.0 500003.0 0
325922.0 500008.0 0
329887.0 499998.0 0
333858.0 499959.0 0
337829.0 499853.0 0
342220.0 499891.0 0
346202.0 499642.0 0
350627.0 499688.0 0
354606.0 499510.0 0
358591.0 499365.0 0
362576.0 499230.0 0
366560.0 499097.0 0
370545.0 498953.0 0
374533.0 498790.0 0
378524.0 498595.0 0
389427.0 500940.0 0
393623.0 500472.0 0
397918.0 499958.0 0
403155.0 500447.0 0
106744.0 503067.0 0
114510.0 502003.0 0
118498.0 502243.0 0
123443.0 502459.0 0
127423.0 502584.0 0
131399.0 502650.0 0
135352.0 502679.0 0
139240.0 502078.0 0
143200.0 502078.0 0
147176.0 502138.0 0
151158.0 502268.0 0
155243.0 502532.0 0
159214.0 502705.0 0
163188.0 502806.0 0
167155.0 502880.0 0
171114.0 502934.0 0
175063.0 502978.0 0
179000.0 503016.0 0
182926.0 503054.0 0
186841.0 503096.0 0
190747.0 503149.0 0
194645.0 503218.0 0
198540.0 503310.0 0
202438.0 503429.0 0
206342.0 503552.0 0
210276.0 503620.0 0
214153.0 503718.0 0
217605.0 501972.0 0
221531.0 502221.0 0
225475.0 502348.0 0
229435.0 502480.0 0
233403.0 502593.0 0
237365.0 502677.0 0
241317.0 502738.0 0
245262.0 502784.0 0
249200.0 502820.0 0
253133.0 502850.0 0
257062.0 502876.0 0
260990.0 502901.0 0
264918.0 502925.0 0
268846.0 502951.0 0
272775.0 502978.0 0
276705.0 503007.0 0
280637.0 503038.0 0
284571.0 503071.0 0
288507.0 503105.0 0
292445.0 503139.0 0
296385.0 503174.0 0
300327.0 503208.0 0
304272.0 503240.0 0
308219.0 503270.0 0
312170.0 503297.0 0
316124.0 503318.0 0
320084.0 503333.0 0
324050.0 503338.0 0
328023.0 503328.0 0
332006.0 503297.0 0
336001.0 503231.0 0
340014.0 503032.0 0
344513.0 503081.0 0
348488.0 502854.0 0
352835.0 502895.0 0
356817.0 502748.0 0
360801.0 502624.0 0
364784.0 502505.0 0
368769.0 502379.0 0
372756.0 502238.0 0
376746.0 502071.0 0
380738.0 501870.0 0
385148.0 501322.0 0
400258.0 503197.0 0
97866.4 503556.0 0
101828.0 504055.0 0
110764.0 503341.0 0
116250.0 505528.0 0
120838.0 505383.0 0
125314.0 505918.0 0
129311.0 506006.0 0
133281.0 506075.0 0
141095.0 505431.0 0
145047.0 505436.0 0
148993.0 505536.0 0
152950.0 505704.0 0
156968.0 505978.0 0
160999.0 506123.0 0
164991.0 506215.0 0
168969.0 506282.0 0
172931.0 506334.0 0
219549.0 505606.0 0
223472.0 505713.0 0
227412.0 505822.0 0
231365.0 505927.0 0
235325.0 506016.0 0
239284.0 506087.0 0
243237.0 506141.0 0
247184.0 506183.0 0
342264.0 506208.0 0
346755.0 506298.0 0
350732.0 506109.0 0
355002.0 506141.0 0
358988.0 506024.0 0
362973.0 505919.0 0
366957.0 505811.0 0
370945.0 505690.0 0
374936.0 505549.0 0
378928.0 505381.0 0
383372.0 504825.0 0
387607.0 504433.0 0
391921.0 504036.0 0
396149.0 503540.0 0
99427.0 507233.0 0
104582.0 506909.0 0
108551.0 506649.0 0
112527.0 506949.0 0
118659.0 508654.0 0
137227.0 506102.0 0
142979.0 508781.0 0
146851.0 508849.0 0
176877.0 506377.0 0
180806.0 506418.0 0
184719.0 506459.0 0
188616.0 506506.0 0
192501.0 506565.0 0
196379.0 506641.0 0
200262.0 506739.0 0
204163.0 506855.0 0
208093.0 506928.0 0
212014.0 507006.0 0
215945.0 507032.0 0
251127.0 506217.0 0
255067.0 506244.0 0
259004.0 506269.0 0
262940.0 506292.0 0
266876.0 506316.0 0
270812.0 506340.0 0
274749.0 506366.0 0
278687.0 506394.0 0
282627.0 506424.0 0
286569.0 506456.0 0
290512.0 506489.0 0
294458.0 506522.0 0
298405.0 506555.0 0
302355.0 506587.0 0
306308.0 506616.0 0
310264.0 506642.0 0
314224.0 506663.0 0
318189.0 506677.0 0
322159.0 506682.0 0
326137.0 506674.0 0
330123.0 506649.0 0
334116.0 506599.0 0
338236.0 506445.0 0
381577.0 508335.0 0
385811.0 507952.0 0
390081.0 507541.0 0
394413.0 507140.0 0
398474.0 506773.0 0
101753.0 510483.0 0
105926.0 510663.0 0
109965.0 510384.0 0
113952.0 510686.0 0
122685.0 508865.0 0
127252.0 509353.0 0
131236.0 509458.0 0
135207.0 509523.0 0
139156.0 509525.0 0
150726.0 508986.0 0
154608.0 509193.0 0
158473.0 509541.0 0
162356.0 509746.0 0
166257.0 509877.0 0
170178.0 509962.0 0
174115.0 510020.0 0
178065.0 510060.0 0
182026.0 510087.0 0
185999.0 510104.0 0
189981.0 510116.0 0
193971.0 510127.0 0
197964.0 510145.0 0
201954.0 510180.0 0
205926.0 510250.0 0
209882.0 510315.0 0
213835.0 510358.0 0
217780.0 510355.0 0
221473.0 509109.0 0
225405.0 509201.0 0
229348.0 509291.0 0
233302.0 509374.0 0
237260.0 509447.0 0
241217.0 509506.0 0
245171.0 509553.0 0
249121.0 509591.0 0
253068.0 509622.0 0
257013.0 509648.0 0
260956.0 509670.0 0
264899.0 509692.0 0
268842.0 509714.0 0
272785.0 509737.0 0
276729.0 509763.0 0
280674.0 509790.0 0
284621.0 509820.0 0
288569.0 509851.0 0
292520.0 509882.0 0
296472.0 509914.0 0
300426.0 509945.0 0
304384.0 509974.0 0
308344.0 510000.0 0
312309.0 510021.0 0
316278.0 510036.0 0
320253.0 510041.0 0
324234.0 510036.0 0
328221.0 510015.0 0
332215.0 509978.0 0
336353.0 509823.0 0
340495.0 509648.0 0
344487.0 509441.0 0
348944.0 509550.0 0
352928.0 509403.0 0
357134.0 509427.0 0
361124.0 509338.0 0
365111.0 509249.0 0
369099.0 509146.0 0
373090.0 509025.0 0
377085.0 508887.0 0
388270.0 511073.0 0
392479.0 510717.0 0
396495.0 510541.0 0
400481.0 510223.0 0
118027.0 512522.0 0
122003.0 512736.0 0
125957.0 513037.0 0
129914.0 513162.0 0
133866.0 513227.0 0
137826.0 513218.0 0
143255.0 512629.0 0
147712.0 512606.0 0
152093.0 512602.0 0
156084.0 512795.0 0
160098.0 513062.0 0
164071.0 513228.0 0
168035.0 513333.0 0
171997.0 513401.0 0
175962.0 513447.0 0
179929.0 513477.0 0
183902.0 513494.0 0
187880.0 513504.0 0
191861.0 513511.0 0
195844.0 513521.0 0
199823.0 513543.0 0
203797.0 513587.0 0
207769.0 513644.0 0
211738.0 513691.0 0
215701.0 513713.0 0
219650.0 513696.0 0
223405.0 512608.0 0
227344.0 512683.0 0
231292.0 512755.0 0
235247.0 512823.0 0
239205.0 512883.0 0
243162.0 512934.0 0
247117.0 512976.0 0
251070.0 513010.0 0
255020.0 513037.0 0
258970.0 513059.0 0
262919.0 513079.0 0
266867.0 513100.0 0
270816.0 513121.0 0
274765.0 513144.0 0
278715.0 513169.0 0
282665.0 513196.0 0
286618.0 513225.0 0
290572.0 513255.0 0
294528.0 513286.0 0
298486.0 513316.0 0
302447.0 513345.0 0
306412.0 513370.0 0
310381.0 513391.0 0
314354.0 513407.0 0
318332.0 513414.0 0
322315.0 513411.0 0
326303.0 513395.0 0
330297.0 513365.0 0
334457.0 513214.0 0
338599.0 513051.0 0
342690.0 512900.0 0
346681.0 512723.0 0
351082.0 512837.0 0
355073.0 512732.0 0
359231.0 512752.0 0
363229.0 512690.0 0
367218.0 512606.0 0
371210.0 512502.0 0
375206.0 512383.0 0
379744.0 511843.0 0
384006.0 511480.0 0
100256.0 514285.0 0
104252.0 514293.0 0
108233.0 513988.0 0
112212.0 514287.0 0
115890.0 515822.0 0
119879.0 516059.0 0
140860.0 515757.0 0
145471.0 515863.0 0
149841.0 515883.0 0
153829.0 516098.0 0
157810.0 516312.0 0
161872.0 516558.0 0
225348.0 516100.0 0
229293.0 516159.0 0
233244.0 516218.0 0
237201.0 516275.0 0
241159.0 516327.0 0
245117.0 516371.0 0
249074.0 516408.0 0
253028.0 516437.0 0
256982.0 516460.0 0
260936.0 516479.0 0
264890.0 516498.0 0
268843.0 516517.0 0
272796.0 516538.0 0
276749.0 516560.0 0
332538.0 516613.0 0
336682.0 516471.0 0
340787.0 516328.0 0
344843.0 516190.0 0
348832.0 516052.0 0
353169.0 516160.0 0
357173.0 516094.0 0
361293.0 516114.0 0
365313.0 516074.0 0
369310.0 515982.0 0
373308.0 515876.0 0
377856.0 515342.0 0
382160.0 515004.0 0
386457.0 514616.0 0
390637.0 514272.0 0
394627.0 514075.0 0
398619.0 513927.0 0
101540.0 518073.0 0
105535.0 518081.0 0
109514.0 517773.0 0
113350.0 518848.0 0
123863.0 516348.0 0
127865.0 516532.0 0
131868.0 516643.0 0
135872.0 516668.0 0
143096.0 519042.0 0
165879.0 516697.0 0
169871.0 516783.0 0
173855.0 516841.0 0
177833.0 516877.0 0
181811.0 516898.0 0
185791.0 516907.0 0
189771.0 516912.0 0
193751.0 516918.0 0
197729.0 516929.0 0
201704.0 516954.0 0
205681.0 516993.0 0
209659.0 517038.0 0
213633.0 517071.0 0
217598.0 517082.0 0
221548.0 517062.0 0
280703.0 516585.0 0
284659.0 516611.0 0
288616.0 516640.0 0
292575.0 516670.0 0
296536.0 516700.0 0
300500.0 516728.0 0
304468.0 516753.0 0
308439.0 516774.0 0
312416.0 516790.0 0
316397.0 516799.0 0
320383.0 516800.0 0
324373.0 516790.0 0
328366.0 516764.0 0
383429.0 518771.0 0
387415.0 518480.0 0
391395.0 518188.0 0
395381.0 517996.0 0
399376.0 517960.0 0
117707.0 519361.0 0
121688.0 519624.0 0
125745.0 519867.0 0
129804.0 520023.0 0
133882.0 520096.0 0
138939.0 519219.0 0
147594.0 519177.0 0
151587.0 519403.0 0
155579.0 519619.0 0
159574.0 519824.0 0
163706.0 520045.0 0
167751.0 520164.0 0
171754.0 520238.0 0
175746.0 520287.0 0
179730.0 520313.0 0
183714.0 520323.0 0
187696.0 520328.0 0
191677.0 520330.0 0
195656.0 520333.0 0
199635.0 520345.0 0
203614.0 520368.0 0
207595.0 520401.0 0
211577.0 520438.0 0
215552.0 520465.0 0
219517.0 520472.0 0
223466.0 520450.0 0
227299.0 519585.0 0
231248.0 519634.0 0
235203.0 519683.0 0
239161.0 519732.0 0
243121.0 519777.0 0
247080.0 519818.0 0
251038.0 519850.0 0
254995.0 519874.0 0
258954.0 519891.0 0
262911.0 519908.0 0
266868.0 519926.0 0
270825.0 519945.0 0
274780.0 519965.0 0
278737.0 519987.0 0
282694.0 520012.0 0
286653.0 520039.0 0
290614.0 520067.0 0
294577.0 520097.0 0
298543.0 520124.0 0
302513.0 520149.0 0
306487.0 520170.0 0
310465.0 520186.0 0
314449.0 520197.0 0
318437.0 520199.0 0
322431.0 520194.0 0
326429.0 520179.0 0
330604.0 520023.0 0
334739.0 519897.0 0
338858.0 519772.0 0
342934.0 519640.0 0
346945.0 519527.0 0
350938.0 519419.0 0
355207.0 519515.0 0
359235.0 519489.0 0
363320.0 519508.0 0
367402.0 519468.0 0
371395.0 519376.0 0
375404.0 519255.0 0
379404.0 519000.0 0
100501.0 522086.0 0
104498.0 522026.0 0
108478.0 521715.0 0
112347.0 522680.0 0
116320.0 523052.0 0
120307.0 523318.0 0
124348.0 523567.0 0
128370.0 523717.0 0
132406.0 523780.0 0
137159.0 522781.0 0
141174.0 522529.0 0
145236.0 522404.0 0
149355.0 522715.0 0
153354.0 522938.0 0
157357.0 523148.0 0
161417.0 523320.0 0
165593.0 523525.0 0
169654.0 523635.0 0
173669.0 523703.0 0
177662.0 523743.0 0
181651.0 523755.0 0
185636.0 523755.0 0
189619.0 523755.0 0
193602.0 523753.0 0
197583.0 523755.0 0
201563.0 523765.0 0
205545.0 523785.0 0
209529.0 523813.0 0
213513.0 523850.0 0
217487.0 523877.0 0
221451.0 523885.0 0
225399.0 523854.0 0
229257.0 523067.0 0
233211.0 523108.0 0
237166.0 523152.0 0
241128.0 523195.0 0
245088.0 523238.0 0
249051.0 523274.0 0
253009.0 523302.0 0
256972.0 523316.0 0
260934.0 523331.0 0
264894.0 523348.0 0
268852.0 523365.0 0
272810.0 523384.0 0
276768.0 523404.0 0
280726.0 523426.0 0
284686.0 523451.0 0
288647.0 523478.0 0
292611.0 523507.0 0
296578.0 523535.0 0
300548.0 523559.0 0
304523.0 523579.0 0
308504.0 523595.0 0
312489.0 523607.0 0
316479.0 523611.0 0
320474.0 523607.0 0
324473.0 523598.0 0
328677.0 523457.0 0
332789.0 523330.0 0
336896.0 523226.0 0
340995.0 523106.0 0
345017.0 523002.0 0
349013.0 522899.0 0
353005.0 522818.0 0
357205.0 522902.0 0
361257.0 522915.0 0
365380.0 522898.0 0
369433.0 522903.0 0
373481.0 522773.0 0
377614.0 522571.0 0
381604.0 522320.0 0
385664.0 522070.0 0
389947.0 521912.0 0
394000.0 521885.0 0
398000.0 521908.0 0
102009.0 526000.0 0
106003.0 525928.0 0
109995.0 525892.0 0
114024.0 526288.0 0
118096.0 526611.0 0
142555.0 526274.0 0
146552.0 526239.0 0
150811.0 526409.0 0
154990.0 526558.0 0
159082.0 526727.0 0
235174.0 526592.0 0
239133.0 526618.0 0
243094.0 526673.0 0
247060.0 526700.0 0
251024.0 526748.0 0
254993.0 526753.0 0
258958.0 526768.0 0
262920.0 526783.0 0
266881.0 526800.0 0
270840.0 526817.0 0
274798.0 526836.0 0
278756.0 526856.0 0
282714.0 526879.0 0
286674.0 526903.0 0
290637.0 526931.0 0
294604.0 526960.0 0
334881.0 526714.0 0
338877.0 526670.0 0
342862.0 526606.0 0
346835.0 526525.0 0
350797.0 526443.0 0
354751.0 526394.0 0
358703.0 526544.0 0
378396.0 526482.0 0
382353.0 526233.0 0
386317.0 526008.0 0
390293.0 525895.0 0
394278.0 525889.0 0
398271.0 525913.0 0
122128.0 526858.0 0
126245.0 527075.0 0
130347.0 527184.0 0
134593.0 527125.0 0
138563.0 526641.0 0
163180.0 526882.0 0
167384.0 527077.0 0
171469.0 527173.0 0
175535.0 527219.0 0
179562.0 527224.0 0
183577.0 527209.0 0
187572.0 527196.0 0
191563.0 527186.0 0
195547.0 527181.0 0
199529.0 527181.0 0
203509.0 527190.0 0
207489.0 527207.0 0
211472.0 527234.0 0
215461.0 527282.0 0
219431.0 527310.0 0
223411.0 527316.0 0
227352.0 527260.0 0
231224.0 526547.0 0
298575.0 526985.0 0
302551.0 527004.0 0
306533.0 527018.0 0
310519.0 527029.0 0
314511.0 527036.0 0
318507.0 527035.0 0
322507.0 527024.0 0
326715.0 526886.0 0
330864.0 526792.0 0
362632.0 526655.0 0
366567.0 526690.0 0
370500.0 526883.0 0
374441.0 526651.0 0
101773.0 530004.0 0
105768.0 529931.0 0
109759.0 529877.0 0
113731.0 530237.0 0
117709.0 530551.0 0
121694.0 530799.0 0
125685.0 531007.0 0
129682.0 531104.0 0
133708.0 531027.0 0
137685.0 530644.0 0
141647.0 530164.0 0
145634.0 530227.0 0
149618.0 530211.0 0
153602.0 530296.0 0
157586.0 530426.0 0
161574.0 530536.0 0
165563.0 530632.0 0
169556.0 530679.0 0
173551.0 530687.0 0
177551.0 530680.0 0
181563.0 530662.0 0
185558.0 530649.0 0
189549.0 530631.0 0
193534.0 530621.0 0
197513.0 530614.0 0
201488.0 530615.0 0
205462.0 530624.0 0
209436.0 530638.0 0
213417.0 530663.0 0
217412.0 530753.0 0
221403.0 530730.0 0
225468.0 530777.0 0
229644.0 530461.0 0
233601.0 530261.0 0
237557.0 530259.0 0
241521.0 530336.0 0
245483.0 530342.0 0
249448.0 530416.0 0
253403.0 530390.0 0
257365.0 530404.0 0
261332.0 530421.0 0
265301.0 530442.0 0
269274.0 530464.0 0
273250.0 530490.0 0
277230.0 530517.0 0
281214.0 530550.0 0
285203.0 530585.0 0
289196.0 530626.0 0
293193.0 530668.0 0
297233.0 530718.0 0
301291.0 530763.0 0
305375.0 530807.0 0
309449.0 530841.0 0
313493.0 530860.0 0
317492.0 530861.0 0
321491.0 530844.0 0
325654.0 530700.0 0
329754.0 530603.0 0
333763.0 530543.0 0
337761.0 530495.0 0
341759.0 530430.0 0
345771.0 530358.0 0
349789.0 530293.0 0
353788.0 530268.0 0
357780.0 530389.0 0
361930.0 530583.0 0
365938.0 530628.0 0
369936.0 530840.0 0
373949.0 530636.0 0
377948.0 530448.0 0
381966.0 530203.0 0
385981.0 529991.0 0
389998.0 529883.0 0
394000.0 529885.0 0
398000.0 529908.0 0
102000.0 534000.0 0
106000.0 533927.0 0
110000.0 533876.0 0
114080.0 534188.0 0
118108.0 534496.0 0
142019.0 534144.0 0
146017.0 534211.0 0
150017.0 534181.0 0
154036.0 534263.0 0
158055.0 534390.0 0
206319.0 534481.0 0
210329.0 534478.0 0
214319.0 534482.0 0
230207.0 534384.0 0
234185.0 534226.0 0
238174.0 534190.0 0
242163.0 534278.0 0
246157.0 534265.0 0
254171.0 534296.0 0
258182.0 534301.0 0
262201.0 534306.0 0
266214.0 534317.0 0
270225.0 534329.0 0
274225.0 534349.0 0
278224.0 534369.0 0
282222.0 534399.0 0
286218.0 534431.0 0
290213.0 534472.0 0
342066.0 534401.0 0
346059.0 534329.0 0
350053.0 534267.0 0
354049.0 534252.0 0
358045.0 534343.0 0
382004.0 534194.0 0
386001.0 533988.0 0
390000.0 533882.0 0
394000.0 533885.0 0
398000.0 533908.0 0
122098.0 534750.0 0
126087.0 534964.0 0
130080.0 535065.0 0
134074.0 535011.0 0
138051.0 534628.0 0
162067.0 534499.0 0
166086.0 534594.0 0
170093.0 534639.0 0
174093.0 534646.0 0
178093.0 534641.0 0
182093.0 534612.0 0
186098.0 534593.0 0
190113.0 534562.0 0
194128.0 534542.0 0
198173.0 534518.0 0
202214.0 534503.0 0
218289.0 534709.0 0
222270.0 534572.0 0
226239.0 534699.0 0
250150.0 534362.0 0
294206.0 534516.0 0
298198.0 534577.0 0
302190.0 534636.0 0
306179.0 534697.0 0
310168.0 534745.0 0
314156.0 534774.0 0
318143.0 534777.0 0
322129.0 534758.0 0
326111.0 534644.0 0
330096.0 534574.0 0
334083.0 534520.0 0
338074.0 534470.0 0
362035.0 534574.0 0
366031.0 534619.0 0
370022.0 534837.0 0
374016.0 534635.0 0
378011.0 534440.0 0
102000.0 538000.0 0
106000.0 537927.0 0
110000.0 537876.0 0
113990.0 538160.0 0
117977.0 538467.0 0
121979.0 538726.0 0
125993.0 538944.0 0
129997.0 539049.0 0
134001.0 539010.0 0
137993.0 538628.0 0
141996.0 538143.0 0
145995.0 538211.0 0
149995.0 538173.0 0
153993.0 538254.0 0
157991.0 538383.0 0
161988.0 538492.0 0
165986.0 538589.0 0
169985.0 538634.0 0
173984.0 538641.0 0
177982.0 538637.0 0
181979.0 538606.0 0
185976.0 538579.0 0
189971.0 538541.0 0
193966.0 538515.0 0
197959.0 538484.0 0
201952.0 538462.0 0
205946.0 538427.0 0
209940.0 538417.0 0
213936.0 538406.0 0
217926.0 538692.0 0
221919.0 538511.0 0
225917.0 538681.0 0
229902.0 538349.0 0
233977.0 538225.0 0
237976.0 538168.0 0
241980.0 538269.0 0
245979.0 538245.0 0
249977.0 538359.0 0
253974.0 538276.0 0
257972.0 538280.0 0
261970.0 538284.0 0
265968.0 538294.0 0
269967.0 538305.0 0
273965.0 538324.0 0
277964.0 538343.0 0
281963.0 538373.0 0
285963.0 538405.0 0
289962.0 538446.0 0
293964.0 538491.0 0
297967.0 538553.0 0
301969.0 538609.0 0
305973.0 538669.0 0
309977.0 538716.0 0
313981.0 538744.0 0
317983.0 538748.0 0
321982.0 538726.0 0
325992.0 538621.0 0
329994.0 538566.0 0
333994.0 538510.0 0
337995.0 538458.0 0
341995.0 538386.0 0
345996.0 538314.0 0
349996.0 538252.0 0
353996.0 538245.0 0
357995.0 538312.0 0
361996.0 538568.0 0
365999.0 538614.0 0
369993.0 538835.0 0
373997.0 538635.0 0
377999.0 538433.0 0
382000.0 538187.0 0
386000.0 537985.0 0
390000.0 537880.0 0
394000.0 537885.0 0
398000.0 537908.0 0
102000.0 542000.0 0
106000.0 541927.0 0
110000.0 541876.0 0
114000.0 542139.0 0
142000.0 542142.0 0
150000.0 542168.0 0
214017.0 542363.0 0
238009.0 542156.0 0
358000.0 542289.0 0
382000.0 542182.0 0
386000.0 541983.0 0
390000.0 541880.0 0
394000.0 541885.0 0
398000.0 541908.0 0
118002.0 542447.0 0
122002.0 542708.0 0
125999.0 542930.0 0
129998.0 543038.0 0
133998.0 543010.0 0
138002.0 542628.0 0
146000.0 542211.0 0
154000.0 542248.0 0
158000.0 542378.0 0
162001.0 542488.0 0
166001.0 542586.0 0
170001.0 542631.0 0
174001.0 542639.0 0
178001.0 542635.0 0
182001.0 542604.0 0
186001.0 542572.0 0
190001.0 542528.0 0
194001.0 542499.0 0
198002.0 542463.0 0
202003.0 542438.0 0
206005.0 542400.0 0
210006.0 542386.0 0
218002.0 542690.0 0
222018.0 542477.0 0
226022.0 542676.0 0
230012.0 542332.0 0
234010.0 542225.0 0
242007.0 542266.0 0
246007.0 542233.0 0
250004.0 542359.0 0
254003.0 542263.0 0
258003.0 542268.0 0
262003.0 542271.0 0
266003.0 542281.0 0
270003.0 542292.0 0
274003.0 542311.0 0
278004.0 542329.0 0
282004.0 542358.0 0
286004.0 542390.0 0
290004.0 542432.0 0
294003.0 542478.0 0
298003.0 542538.0 0
302002.0 542593.0 0
306002.0 542651.0 0
310002.0 542697.0 0
314001.0 542725.0 0
318001.0 542729.0 0
322001.0 542704.0 0
326000.0 542606.0 0
330000.0 542560.0 0
334000.0 542503.0 0
338000.0 542449.0 0
342000.0 542374.0 0
346000.0 542302.0 0
350000.0 542241.0 0
354000.0 542239.0 0
362000.0 542564.0 0
366000.0 542611.0 0
370001.0 542833.0 0
374000.0 542635.0 0
378000.0 542428.0 0
102000.0 546000.0 0
106000.0 545927.0 0
110000.0 545876.0 0
114000.0 546126.0 0
118000.0 546434.0 0
122000.0 546697.0 0
126000.0 546921.0 0
130000.0 547030.0 0
134000.0 547010.0 0
138000.0 546628.0 0
142000.0 546142.0 0
146000.0 546211.0 0
150000.0 546164.0 0
154000.0 546243.0 0
158000.0 546374.0 0
162000.0 546485.0 0
166000.0 546583.0 0
170000.0 546630.0 0
174000.0 546638.0 0
178000.0 546634.0 0
182000.0 546603.0 0
186000.0 546570.0 0
190000.0 546521.0 0
194000.0 546489.0 0
198000.0 546450.0 0
202000.0 546423.0 0
205999.0 546383.0 0
209999.0 546367.0 0
213999.0 546335.0 0
218000.0 546690.0 0
221999.0 546456.0 0
225997.0 546673.0 0
229996.0 546322.0 0
234000.0 546225.0 0
237999.0 546148.0 0
242000.0 546265.0 0
246000.0 546226.0 0
250000.0 546359.0 0
254000.0 546255.0 0
258000.0 546260.0 0
262000.0 546263.0 0
266000.0 546273.0 0
270000.0 546283.0 0
274000.0 546302.0 0
278000.0 546320.0 0
282000.0 546349.0 0
286000.0 546380.0 0
290000.0 546422.0 0
294000.0 546468.0 0
298000.0 546527.0 0
302000.0 546582.0 0
306000.0 546639.0 0
310000.0 546684.0 0
314000.0 546712.0 0
318000.0 546716.0 0
322000.0 546689.0 0
326000.0 546597.0 0
330000.0 546557.0 0
334000.0 546497.0 0
338000.0 546443.0 0
342000.0 546366.0 0
346000.0 546294.0 0
350000.0 546233.0 0
354000.0 546235.0 0
358000.0 546273.0 0
362000.0 546561.0 0
366000.0 546610.0 0
370000.0 546832.0 0
374000.0 546635.0 0
378000.0 546424.0 0
382000.0 546179.0 0
386000.0 545981.0 0
390000.0 545879.0 0
394000.0 545885.0 0
398000.0 545908.0 0
106000.0 549927.0 0
110000.0 549876.0 0
386000.0 549980.0 0
390000.0 549879.0 0
394000.0 549885.0 0
398000.0 549908.0 0
102000.0 550000.0 0
114000.0 550119.0 0
118000.0 550427.0 0
122000.0 550691.0 0
126000.0 550917.0 0
130000.0 551026.0 0
134000.0 551010.0 0
138000.0 550628.0 0
142000.0 550142.0 0
146000.0 550211.0 0
150000.0 550163.0 0
154000.0 550241.0 0
158000.0 550372.0 0
162000.0 550484.0 0
166000.0 550582.0 0
170000.0 550629.0 0
174000.0 550637.0 0
178000.0 550633.0 0
182000.0 550602.0 0
186000.0 550569.0 0
190000.0 550517.0 0
194000.0 550485.0 0
198000.0 550444.0 0
202000.0 550416.0 0
206000.0 550375.0 0
210000.0 550357.0 0
214000.0 550321.0 0
218000.0 550690.0 0
222000.0 550445.0 0
226000.0 550671.0 0
230000.0 550318.0 0
234000.0 550225.0 0
238000.0 550144.0 0
242000.0 550264.0 0
246000.0 550222.0 0
250000.0 550359.0 0
254000.0 550251.0 0
258000.0 550256.0 0
262000.0 550259.0 0
266000.0 550268.0 0
270000.0 550279.0 0
274000.0 550297.0 0
278000.0 550315.0 0
282000.0 550344.0 0
286000.0 550375.0 0
290000.0 550417.0 0
294000.0 550463.0 0
298000.0 550522.0 0
302000.0 550576.0 0
306000.0 550632.0 0
310000.0 550678.0 0
314000.0 550706.0 0
318000.0 550710.0 0
322000.0 550682.0 0
326000.0 550592.0 0
330000.0 550555.0 0
334000.0 550495.0 0
338000.0 550440.0 0
342000.0 550362.0 0
346000.0 550289.0 0
350000.0 550229.0 0
354000.0 550233.0 0
358000.0 550265.0 0
362000.0 550560.0 0
366000.0 550610.0 0
370000.0 550832.0 0
374000.0 550635.0 0
378000.0 550423.0 0
382000.0 550177.0 0
POINT_DATA 4650
SCALARS Radius float 1
LOOKUP_TABLE default
4000.0 4000.0 4000.0 4000.0 4000.0 4000.0 4000.0 4000.0 4000.0 4000.0 4000.0 4000.0 4000.0 4000.0 4000.0 4000.0 4000.0 4000.0 4000.0 4000.0 4000.0 4000.0 4000.0 4000.0 4000.0 4000.0 4000.0 4000.0 4000.0 4000.0 4000.0 4000.0 4000.0 4000.0 4000.0 4000.0 4000.0 4000.0 4000.0 4000.0 4000.0 4000.0 4000.0 4000.0 4000.0 4000.0 4000.0 4000.0 4000.0 4000.0 4000.0 4000.0 4000.0 4000.0 4000.0 4000.0 4000.0 4000.0 4000.0 4000.0 4000.0 4000.0 4000.0 4000.0 4000.0 4000.0 4000.0 4000.0 4000.0 4000.0 4000.0 4000.0 4000.0 4000.0 4000.0 4000.0 4000.0 4000.0 4000.0 4000.0 4000.0 4000.0 4000.0 4000.0 4000.0 4000.0 4000.0 4000.0 4000.0 4000.0 4000.0 4000.0 4000.0 4000.0 4000.0 4000.0 4000.0 4000.0 4000.0 4000.0 4000.0 4000.0 4000.0 4000.0 4000.0 4000.0 4000.0 4000.0 4000.0 4000.0 4000.0 4000.0 4000.0 4000.0 4000.0 4000.0 4000.0 4000.0 4000.0 4000.0 4000.0 4000.0 4000.0 4000.0 4000.0 4000.0 4000.0 4000.0 4000.0 4000.0 4000.0 4000.0 4000.0 4000.0 4000.0 4000.0 4000.0 4000.0 4000.0 4000.0 4000.0 4000.0 4000.0 4000.0 4000.0 4000.0 4000.0 4000.0 4000.0 4000.0 4000.0 4000.0 4000.0 4000.0 4000.0 4000.0 4000.0 4000.0 4000.0 4000.0 4000.0 4000.0 4000.0 4000.0 4000.0 4000.0 4000.0 4000.0 4000.0 4000.0 4000.0 4000.0 4000.0 4000.0 4000.0 4000.0 4000.0 4000.0 4000.0 4000.0 4000.0 4000.0 4000.0 4000.0 4000.0 4000.0 4000.0 4000.0 4000.0 4000.0 4000.0 4000.0 4000.0 4000.0 4000.0 4000.0 4000.0 4000.0 4000.0 4000.0 4000.0 4000.0 4000.0 4000.0 4000.0 4000.0 4000.0 4000.0 4000.0 4000.0 4000.0 4000.0 4000.0 4000.0 4000.0 4000.0 4000.0 4000.0 4000.0 4000.0 4000.0 4000.0 4000.0 4000.0 4000.0 4000.0 4000.0 4000.0 4000.0 4000.0 4000.0 4000.0 4000.0 4000.0 4000.0 4000.0 4000.0 4000.0 4000.0 4000.0 4000.0 4000.0 4000.0 4000.0 4000.0 4000.0 4000.0 4000.0 4000.0 4000.0 4000.0 4000.0 4000.0 4000.0 4000.0 4000.0 4000.0 4000.0 4000.0 4000.0 4000.0 4000.0 4000.0 4000.0 4000.0 4000.0 4000.0 4000.0 4000.0 4000.0 4000.0 4000.0 4000.0 4000.0 4000.0 4000.0 4000.0 4000.0 4000.0 4000.0 4000.0 4000.0 4000.0 4000.0 4000.0 4000.0 4000.0 4000.0 4000.0 4000.0 4000.0 4000.0 4000.0 4000.0 4000.0 4000.0 4000.0 4000.0 4000.0 4000.0 4000.0 4000.0 4000.0 4000.0 4000.0 4000.0 4000.0 4000.0 4000.0 4000.0 4000.0 4000.0 4000.0 4000.0 4000.0 4000.0 4000.0 4000.0 4000.0 4000.0 4000.0 4000.0 4000.0 4000.0 4000.0 4000.0 4000.0 4000.0 4000.0 4000.0 4000.0 4000.0 4000.0 4000.0 4000.0 4000.0 4000.0 4000.0 4000.0 4000.0 4000.0 4000.0 4000.0 4000.0 4000.0 4000.0 4000.0 4000.0 4000.0 4000.0 4000.0 4000.0 4000.0 4000.0 4000.0 4000.0 4000.0 4000.0 4000.0 4000.0 4000.0 4000.0 4000.0 4000.0 4000.0 4000.0 4000.0 4000.0 4000.0 4000.0 4000.0 4000.0 4000.0 4000.0 4000.0 4000.0 4000.0 4000.0 4000.0 4000.0 4000.0 4000.0 4000.0 4000.0 4000.0 4000.0 4000.0 4000.0 4000.0 4000.0 4000.0 4000.0 4000.0 4000.0 4000.0 4000.0 4000.0 4000.0 4000.0 4000.0 4000.0 4000.0 4000.0 4000.0 4000.0 4000.0 4000.0 4000.0 4000.0 4000.0 4000.0 4000.0 4000.0 4000.0 4000.0 4000.0 4000.0 4000.0 4000.0 4000.0 4000.0 4000.0 4000.0 4000.0 4000.0 4000.0 4000.0 4000.0 4000.0 4000.0 4000.0 4000.0 4000.0 4000.0 4000.0 4000.0 4000.0 4000.0 4000.0 4000.0 4000.0 4000.0 4000.0 4000.0 4000.0 4000.0 4000.0 4000.0 4000.0 4000.0 4000.0 4000.0 4000.0 4000.0 4000.0 4000.0 4000.0 4000.0 4000.0 4000.0 4000.0 4000.0 4000.0 4000.0 4000.0 4000.0 4000.0 4000.0 4000.0 4000.0 4000.0 4000.0 4000.0 4000.0 4000.0 4000.0 4000.0 4000.0 4000.0 4000.0 4000.0 4000.0 4000.0 4000.0 4000.0 4000.0 4000.0 4000.0 4000.0 4000.0 4000.0 4000.0 4000.0 4000.0 4000.0 4000.0 4000.0 4000.0 4000.0 4000.0 4000.0 4000.0 4000.0 4000.0 4000.0 4000.0 4000.0 4000.0 4000.0 4000.0 4000.0 4000.0 4000.0 4000.0 4000.0 4000.0 4000.0 4000.0 4000.0 4000.0 4000.0 4000.0 4000.0 4000.0 4000.0 4000.0 4000.0 4000.0 4000.0 4000.0 4000.0 4000.0 4000.0 4000.0 4000.0 4000.0 4000.0 4000.0 4000.0 4000.0 4000.0 4000.0 4000.0 4000.0 4000.0 4000.0 4000.0 4000.0 4000.0 4000.0 4000.0 4000.0 4000.0 4000.0 4000.0 4000.0 4000.0 4000.0 4000.0 4000.0 4000.0 4000.0 4000.0 4000.0 4000.0 4000.0 4000.0 4000.0 4000.0 4000.0 4000.0 4000.0 4000.0 4000.0 4000.0 4000.0 4000.0 4000.0 4000.0 4000.0 4000.0 4000.0 4000.0 4000.0 4000.0 4000.0 4000.0 4000.0 4000.0 4000.0 4000.0 4000.0 4000.0 4000.0 4000.0 4000.0 4000.0 4000.0 4000.0 4000.0 4000.0 4000.0 4000.0 4000.0 4000.0 4000.0 4000.0 4000.0 4000.0 4000.0 4000.0 4000.0 4000.0 4000.0 4000.0 4000.0 4000.0 4000.0 4000.0 4000.0 4000.0 4000.0 4000.0 4000.0 4000.0 4000.0 4000.0 4000.0 4000.0 4000.0 4000.0 4000.0 4000.0 4000.0 4000.0 4000.0 4000.0 4000.0 4000.0 4000.0 4000.0 4000.0 4000.0 4000.0 4000.0 4000.0 4000.0 4000.0 4000.0 4000.0 4000.0 4000.0 4000.0 4000.0 4000.0 4000.0 4000.0 4000.0 4000.0 4000.0 4000.0 4000.0 4000.0 4000.0 4000.0 4000.0 4000.0 4000.0 4000.0 4000.0 4000.0 4000.0 4000.0 4000.0 4000.0 4000.0 4000.0 4000.0 4000.0 4000.0 4000.0 4000.0 4000.0 4000.0 4000.0 4000.0 4000.0 4000.0 4000.0 4000.0 4000.0 4000.0 4000.0 4000.0 4000.0 4000.0 4000.0 4000.0 4000.0 4000.0 4000.0 4000.0 4000.0 4000.0 4000.0 4000.0 4000.0 4000.0 4000.0 4000.0 4000.0 4000.0 4000.0 4000.0 4000.0 4000.0 4000.0 4000.0 4000.0 4000.0 4000.0 4000.0 4000.0 4000.0 4000.0 4000.0 4000.0 4000.0 4000.0 4000.0 4000.0 4000.0 4000.0 4000.0 4000.0 4000.0 4000.0 4000.0 4000.0 4000.0 4000.0 4000.0 4000.0 4000.0 4000.0 4000.0 4000.0 4000.0 4000.0 4000.0 4000.0 4000.0 4000.0 4000.0 4000.0 4000.0 4000.0 4000.0 4000.0 4000.0 4000.0 4000.0 4000.0 4000.0 4000.0 4000.0 4000.0 4000.0 4000.0 4000.0 4000.0 4000.0 4000.0 4000.0 4000.0 4000.0 4000.0 4000.0 4000.0 4000.0 4000.0 4000.0 4000.0 4000.0 4000.0 4000.0 4000.0 4000.0 4000.0 4000.0 4000.0 4000.0 4000.0 4000.0 4000.0 4000.0 4000.0 4000.0 4000.0 4000.0 4000.0 4000.0 4000.0 4000.0 4000.0 4000.0 4000.0 4000.0 4000.0 4000.0 4000.0 4000.0 4000.0 4000.0 4000.0 4000.0 4000.0 4000.0 4000.0 4000.0 4000.0 4000.0 4000.0 4000.0 4000.0 4000.0 4000.0 4000.0 4000.0 4000.0 4000.0 4000.0 4000.0 4000.0 4000.0 4000.0 4000.0 4000.0 4000.0 4000.0 4000.0 4000.0 4000.0 4000.0 4000.0 4000.0 4000.0 4000.0 4000.0 4000.0 4000.0 4000.0 4000.0 4000.0 4000.0 4000.0 4000.0 4000.0 4000.0 4000.0 4000.0 4000.0 4000.0 4000.0 4000.0 4000.0 4000.0 4000.0 4000.0 4000.0 4000.0 4000.0 4000.0 4000.0 4000.0 4000.0 4000.0 4000.0 4000.0 4000.0 4000.0 4000.0 4000.0 4000.0 4000.0 4000.0 4000.0 4000.0 4000.0 4000.0 4000.0 4000.0 4000.0 4000.0 4000.0 4000.0 4000.0 4000.0 4000.0 4000.0 4000.0 4000.0 4000.0 4000.0 4000.0 4000.0 4000.0 4000.0 4000.0 4000.0 4000.0 4000.0 4000.0 4000.0 4000.0 4000.0 4000.0 4000.0 4000.0 4000.0 4000.0 4000.0 4000.0 4000.0 4000.0 4000.0 4000.0 4000.0 4000.0 4000.0 4000.0 4000.0 4000.0 4000.0 4000.0 4000.0 4000.0 4000.0 4000.0 4000.0 4000.0 4000.0 4000.0 4000.0 4000.0 4000.0 4000.0 4000.0 4000.0 4000.0 4000.0 4000.0 4000.0 4000.0 4000.0 4000.0 4000.0 4000.0 4000.0 4000.0 4000.0 4000.0 4000.0 4000.0 4000.0 4000.0 4000.0 4000.0 4000.0 4000.0 4000.0 4000.0 4000.0 4000.0 4000.0 4000.0 4000.0 4000.0 4000.0 4000.0 4000.0 4000.0 4000.0 4000.0 4000.0 4000.0 4000.0 4000.0 4000.0 4000.0 4000.0 4000.0 4000.0 4000.0 4000.0 4000.0 4000.0 4000.0 4000.0 4000.0 4000.0 4000.0 4000.0 4000.0 4000.0 4000.0 4000.0 4000.0 4000.0 4000.0 4000.0 4000.0 4000.0 4000.0 4000.0 4000.0 4000.0 4000.0 4000.0 4000.0 4000.0 4000.0 4000.0 4000.0 4000.0 4000.0 4000.0 4000.0 4000.0 4000.0 4000.0 4000.0 4000.0 4000.0 4000.0 4000.0 4000.0 4000.0 4000.0 4000.0 4000.0 4000.0 4000.0 4000.0 4000.0 4000.0 4000.0 4000.0 4000.0 4000.0 4000.0 4000.0 4000.0 4000.0 4000.0 4000.0 4000.0 4000.0 4000.0 4000.0 4000.0 4000.0 4000.0 4000.0 4000.0 4000.0 4000.0 4000.0 4000.0 4000.0 4000.0 4000.0 4000.0 4000.0 4000.0 4000.0 4000.0 4000.0 4000.0 4000.0 4000.0 4000.0 4000.0 4000.0 4000.0 4000.0 4000.0 4000.0 4000.0 4000.0 4000.0 4000.0 4000.0 4000.0 4000.0 4000.0 4000.0 4000.0 4000.0 4000.0 4000.0 4000.0 4000.0 4000.0 4000.0 4000.0 4000.0 4000.0 4000.0 4000.0 4000.0 4000.0 4000.0 4000.0 4000.0 4000.0 4000.0 4000.0 4000.0 4000.0 4000.0 4000.0 4000.0 4000.0 4000.0 4000.0 4000.0 4000.0 4000.0 4000.0 4000.0 4000.0 4000.0 4000.0 4000.0 4000.0 4000.0 4000.0 4000.0 4000.0 4000.0 4000.0 4000.0 4000.0 4000.0 4000.0 4000.0 4000.0 4000.0 4000.0 4000.0 4000.0 4000.0 4000.0 4000.0 4000.0 4000.0 4000.0 4000.0 4000.0 4000.0 4000.0 4000.0 4000.0 4000.0 4000.0 4000.0 4000.0 4000.0 4000.0 4000.0 4000.0 4000.0 4000.0 4000.0 4000.0 4000.0 4000.0 4000.0 4000.0 4000.0 4000.0 4000.0 4000.0 4000.0 4000.0 4000.0 4000.0 4000.0 4000.0 4000.0 4000.0 4000.0 4000.0 4000.0 4000.0 4000.0 4000.0 4000.0 4000.0 4000.0 4000.0 4000.0 4000.0 4000.0 4000.0 4000.0 4000.0 4000.0 4000.0 4000.0 4000.0 4000.0 4000.0 4000.0 4000.0 4000.0 4000.0 4000.0 4000.0 4000.0 4000.0 4000.0 4000.0 4000.0 4000.0 4000.0 4000.0 4000.0 4000.0 4000.0 4000.0 4000.0 4000.0 4000.0 4000.0 4000.0 4000.0 4000.0 4000.0 4000.0 4000.0 4000.0 4000.0 4000.0 4000.0 4000.0 4000.0 4000.0 4000.0 4000.0 4000.0 4000.0 4000.0 4000.0 4000.0 4000.0 4000.0 4000.0 4000.0 4000.0 4000.0 4000.0 4000.0 4000.0 4000.0 4000.0 4000.0 4000.0 4000.0 4000.0 4000.0 4000.0 4000.0 4000.0 4000.0 4000.0 4000.0 4000.0 4000.0 4000.0 4000.0 4000.0 4000.0 4000.0 4000.0 4000.0 4000.0 4000.0 4000.0 4000.0 4000.0 4000.0 4000.0 4000.0 4000.0 4000.0 4000.0 4000.0 4000.0 4000.0 4000.0 4000.0 4000.0 4000.0 4000.0 4000.0 4000.0 4000.0 4000.0 4000.0 4000.0 4000.0 4000.0 4000.0 4000.0 4000.0 4000.0 4000.0 4000.0 4000.0 4000.0 4000.0 4000.0 4000.0 4000.0 4000.0 4000.0 4000.0 4000.0 4000.0 4000.0 4000.0 4000.0 4000.0 4000.0 4000.0 4000.0 4000.0 4000.0 4000.0 4000.0 4000.0 4000.0 4000.0 4000.0 4000.0 4000.0 4000.0 4000.0 4000.0 4000.0 4000.0 4000.0 4000.0 4000.0 4000.0 4000.0 4000.0 4000.0 4000.0 4000.0 4000.0 4000.0 4000.0 4000.0 4000.0 4000.0 4000.0 4000.0 4000.0 4000.0 4000.0 4000.0 4000.0 4000.0 4000.0 4000.0 4000.0 4000.0 4000.0 4000.0 4000.0 4000.0 4000.0 4000.0 4000.0 4000.0 4000.0 4000.0 4000.0 4000.0 4000.0 4000.0 4000.0 4000.0 4000.0 4000.0 4000.0 4000.0 4000.0 4000.0 4000.0 4000.0 4000.0 4000.0 4000.0 4000.0 4000.0 4000.0 4000.0 4000.0 4000.0 4000.0 4000.0 4000.0 4000.0 4000.0 4000.0 4000.0 4000.0 4000.0 4000.0 4000.0 4000.0 4000.0 4000.0 4000.0 4000.0 4000.0 4000.0 4000.0 4000.0 4000.0 4000.0 4000.0 4000.0 4000.0 4000.0 4000.0 4000.0 4000.0 4000.0 4000.0 4000.0 4000.0 4000.0 4000.0 4000.0 4000.0 4000.0 4000.0 4000.0 4000.0 4000.0 4000.0 4000.0 4000.0 4000.0 4000.0 4000.0 4000.0 4000.0 4000.0 4000.0 4000.0 4000.0 4000.0 4000.0 4000.0 4000.0 4000.0 4000.0 4000.0 4000.0 4000.0 4000.0 4000.0 4000.0 4000.0 4000.0 4000.0 4000.0 4000.0 4000.0 4000.0 4000.0 4000.0 4000.0 4000.0 4000.0 4000.0 4000.0 4000.0 4000.0 4000.0 4000.0 4000.0 4000.0 4000.0 4000.0 4000.0 4000.0 4000.0 4000.0 4000.0 4000.0 4000.0 4000.0 4000.0 4000.0 4000.0 4000.0 4000.0 4000.0 4000.0 4000.0 4000.0 4000.0 4000.0 4000.0 4000.0 4000.0 4000.0 4000.0 4000.0 4000.0 4000.0 4000.0 4000.0 4000.0 4000.0 4000.0 4000.0 4000.0 4000.0 4000.0 4000.0 4000.0 4000.0 4000.0 4000.0 4000.0 4000.0 4000.0 4000.0 4000.0 4000.0 4000.0 4000.0 4000.0 4000.0 4000.0 4000.0 4000.0 4000.0 4000.0 4000.0 4000.0 4000.0 4000.0 4000.0 4000.0 4000.0 4000.0 4000.0 4000.0 4000.0 4000.0 4000.0 4000.0 4000.0 4000.0 4000.0 4000.0 4000.0 4000.0 4000.0 4000.0 4000.0 4000.0 4000.0 4000.0 4000.0 4000.0 4000.0 4000.0 4000.0 4000.0 4000.0 4000.0 4000.0 4000.0 4000.0 4000.0 4000.0 4000.0 4000.0 4000.0 4000.0 4000.0 4000.0 4000.0 4000.0 4000.0 4000.0 4000.0 4000.0 4000.0 4000.0 4000.0 4000.0 4000.0 4000.0 4000.0 4000.0 4000.0 4000.0 4000.0 4000.0 4000.0 4000.0 4000.0 4000.0 4000.0 4000.0 4000.0 4000.0 4000.0 4000.0 4000.0 4000.0 4000.0 4000.0 4000.0 4000.0 4000.0 4000.0 4000.0 4000.0 4000.0 4000.0 4000.0 4000.0 4000.0 4000.0 4000.0 4000.0 4000.0 4000.0 4000.0 4000.0 4000.0 4000.0 4000.0 4000.0 4000.0 4000.0 4000.0 4000.0 4000.0 4000.0 4000.0 4000.0 4000.0 4000.0 4000.0 4000.0 4000.0 4000.0 4000.0 4000.0 4000.0 4000.0 4000.0 4000.0 4000.0 4000.0 4000.0 4000.0 4000.0 4000.0 4000.0 4000.0 4000.0 4000.0 4000.0 4000.0 4000.0 4000.0 4000.0 4000.0 4000.0 4000.0 4000.0 4000.0 4000.0 4000.0 4000.0 4000.0 4000.0 4000.0 4000.0 4000.0 4000.0 4000.0 4000.0 4000.0 4000.0 4000.0 4000.0 4000.0 4000.0 4000.0 4000.0 4000.0 4000.0 4000.0 4000.0 4000.0 4000.0 4000.0 4000.0 4000.0 4000.0 4000.0 4000.0 4000.0 4000.0 4000.0 4000.0 4000.0 4000.0 4000.0 4000.0 4000.0 4000.0 4000.0 4000.0 4000.0 4000.0 4000.0 4000.0 4000.0 4000.0 4000.0 4000.0 4000.0 4000.0 4000.0 4000.0 4000.0 4000.0 4000.0 4000.0 4000.0 4000.0 4000.0 4000.0 4000.0 4000.0 4000.0 4000.0 4000.0 4000.0 4000.0 4000.0 4000.0 4000.0 4000.0 4000.0 4000.0 4000.0 4000.0 4000.0 4000.0 4000.0 4000.0 4000.0 4000.0 4000.0 4000.0 4000.0 4000.0 4000.0 4000.0 4000.0 4000.0 4000.0 4000.0 4000.0 4000.0 4000.0 4000.0 4000.0 4000.0 4000.0 4000.0 4000.0 4000.0 4000.0 4000.0 4000.0 4000.0 4000.0 4000.0 4000.0 4000.0 4000.0 4000.0 4000.0 4000.0 4000.0 4000.0 4000.0 4000.0 4000.0 4000.0 4000.0 4000.0 4000.0 4000.0 4000.0 4000.0 4000.0 4000.0 4000.0 4000.0 4000.0 4000.0 4000.0 4000.0 4000.0 4000.0 4000.0 4000.0 4000.0 4000.0 4000.0 4000.0 4000.0 4000.0 4000.0 4000.0 4000.0 4000.0 4000.0 4000.0 4000.0 4000.0 4000.0 4000.0 4000.0 4000.0 4000.0 4000.0 4000.0 4000.0 4000.0 4000.0 4000.0 4000.0 4000.0 4000.0 4000.0 4000.0 4000.0 4000.0 4000.0 4000.0 4000.0 4000.0 4000.0 4000.0 4000.0 4000.0 4000.0 4000.0 4000.0 4000.0 4000.0 4000.0 4000.0 4000.0 4000.0 4000.0 4000.0 4000.0 4000.0 4000.0 4000.0 4000.0 4000.0 4000.0 4000.0 4000.0 4000.0 4000.0 4000.0 4000.0 4000.0 4000.0 4000.0 4000.0 4000.0 4000.0 4000.0 4000.0 4000.0 4000.0 4000.0 4000.0 4000.0 4000.0 4000.0 4000.0 4000.0 4000.0 4000.0 4000.0 4000.0 4000.0 4000.0 4000.0 4000.0 4000.0 4000.0 4000.0 4000.0 4000.0 4000.0 4000.0 4000.0 4000.0 4000.0 4000.0 4000.0 4000.0 4000.0 4000.0 4000.0 4000.0 4000.0 4000.0 4000.0 4000.0 4000.0 4000.0 4000.0 4000.0 4000.0 4000.0 4000.0 4000.0 4000.0 4000.0 4000.0 4000.0 4000.0 4000.0 4000.0 4000.0 4000.0 4000.0 4000.0 4000.0 4000.0 4000.0 4000.0 4000.0 4000.0 4000.0 4000.0 4000.0 4000.0 4000.0 4000.0 4000.0 4000.0 4000.0 4000.0 4000.0 4000.0 4000.0 4000.0 4000.0 4000.0 4000.0 4000.0 4000.0 4000.0 4000.0 4000.0 4000.0 4000.0 4000.0 4000.0 4000.0 4000.0 4000.0 4000.0 4000.0 4000.0 4000.0 4000.0 4000.0 4000.0 4000.0 4000.0 4000.0 4000.0 4000.0 4000.0 4000.0 4000.0 4000.0 4000.0 4000.0 4000.0 4000.0 4000.0 4000.0 4000.0 4000.0 4000.0 4000.0 4000.0 4000.0 4000.0 4000.0 4000.0 4000.0 4000.0 4000.0 4000.0 4000.0 4000.0 4000.0 4000.0 4000.0 4000.0 4000.0 4000.0 4000.0 4000.0 4000.0 4000.0 4000.0 4000.0 4000.0 4000.0 4000.0 4000.0 4000.0 4000.0 4000.0 4000.0 4000.0 4000.0 4000.0 4000.0 4000.0 4000.0 4000.0 4000.0 4000.0 4000.0 4000.0 4000.0 4000.0 4000.0 4000.0 4000.0 4000.0 4000.0 4000.0 4000.0 4000.0 4000.0 4000.0 4000.0 4000.0 4000.0 4000.0 4000.0 4000.0 4000.0 4000.0 4000.0 4000.0 4000.0 4000.0 4000.0 4000.0 4000.0 4000.0 4000.0 4000.0 4000.0 4000.0 4000.0 4000.0 4000.0 4000.0 4000.0 4000.0 4000.0 4000.0 4000.0 4000.0 4000.0 4000.0 4000.0 4000.0 4000.0 4000.0 4000.0 4000.0 4000.0 4000.0 4000.0 4000.0 4000.0 4000.0 4000.0 4000.0 4000.0 4000.0 4000.0 4000.0 4000.0 4000.0 4000.0 4000.0 4000.0 4000.0 4000.0 4000.0 4000.0 4000.0 4000.0 4000.0 4000.0 4000.0 4000.0 4000.0 4000.0 4000.0 4000.0 4000.0 4000.0 4000.0 4000.0 4000.0 4000.0 4000.0 4000.0 4000.0 4000.0 4000.0 4000.0 4000.0 4000.0 4000.0 4000.0 4000.0 4000.0 4000.0 4000.0 4000.0 4000.0 4000.0 4000.0 4000.0 4000.0 4000.0 4000.0 4000.0 4000.0 4000.0 4000.0 4000.0 4000.0 4000.0 4000.0 4000.0 4000.0 4000.0 4000.0 4000.0 4000.0 4000.0 4000.0 4000.0 4000.0 4000.0 4000.0 4000.0 4000.0 4000.0 4000.0 4000.0 4000.0 4000.0 4000.0 4000.0 4000.0 4000.0 4000.0 4000.0 4000.0 4000.0 4000.0 4000.0 4000.0 4000.0 4000.0 4000.0 4000.0 4000.0 4000.0 4000.0 4000.0 4000.0 4000.0 4000.0 4000.0 4000.0 4000.0 4000.0 4000.0 4000.0 4000.0 4000.0 4000.0 4000.0 4000.0 4000.0 4000.0 4000.0 4000.0 4000.0 4000.0 4000.0 4000.0 4000.0 4000.0 4000.0 4000.0 4000.0 4000.0 4000.0 4000.0 4000.0 4000.0 4000.0 4000.0 4000.0 4000.0 4000.0 4000.0 4000.0 4000.0 4000.0 4000.0 4000.0 4000.0 4000.0 4000.0 4000.0 4000.0 4000.0 4000.0 4000.0 4000.0 4000.0 4000.0 4000.0 4000.0 4000.0 4000.0 4000.0 4000.0 4000.0 4000.0 4000.0 4000.0 4000.0 4000.0 4000.0 4000.0 4000.0 4000.0 4000.0 4000.0 4000.0 4000.0 4000.0 4000.0 4000.0 4000.0 4000.0 4000.0 4000.0 4000.0 4000.0 4000.0 4000.0 4000.0 4000.0 4000.0 4000.0 4000.0 4000.0 4000.0 4000.0 4000.0 4000.0 4000.0 4000.0 4000.0 4000.0 4000.0 4000.0 4000.0 4000.0 4000.0 4000.0 4000.0 4000.0 4000.0 4000.0 4000.0 4000.0 4000.0 4000.0 4000.0 4000.0 4000.0 4000.0 4000.0 4000.0 4000.0 4000.0 4000.0 4000.0 4000.0 4000.0 4000.0 4000.0 4000.0 4000.0 4000.0 4000.0 4000.0 4000.0 4000.0 4000.0 4000.0 4000.0 4000.0 4000.0 4000.0 4000.0 4000.0 4000.0 4000.0 4000.0 4000.0 4000.0 4000.0 4000.0 4000.0 4000.0 4000.0 4000.0 4000.0 4000.0 4000.0 4000.0 4000.0 4000.0 4000.0 4000.0 4000.0 4000.0 4000.0 4000.0 4000.0 4000.0 4000.0 4000.0 4000.0 4000.0 4000.0 4000.0 4000.0 4000.0 4000.0 4000.0 4000.0 4000.0 4000.0 4000.0 4000.0 4000.0 4000.0 4000.0 4000.0 4000.0 4000.0 4000.0 4000.0 4000.0 4000.0 4000.0 4000.0 4000.0 4000.0 4000.0 4000.0 4000.0 4000.0 4000.0 4000.0 4000.0 4000.0 4000.0 4000.0 4000.0 4000.0 4000.0 4000.0 4000.0 4000.0 4000.0 4000.0 4000.0 4000.0 4000.0 4000.0 4000.0 4000.0 4000.0 4000.0 4000.0 4000.0 4000.0 4000.0 4000.0 4000.0 4000.0 4000.0 4000.0 4000.0 4000.0 4000.0 4000.0 4000.0 4000.0 4000.0 4000.0 4000.0 4000.0 4000.0 4000.0 4000.0 4000.0 4000.0 4000.0 4000.0 4000.0 4000.0 4000.0 4000.0 4000.0 4000.0 4000.0 4000.0 4000.0 4000.0 4000.0 4000.0 4000.0 4000.0 4000.0 4000.0 4000.0 4000.0 4000.0 4000.0 4000.0 4000.0 4000.0 4000.0 4000.0 4000.0 4000.0 4000.0 4000.0 4000.0 4000.0 4000.0 4000.0 4000.0 4000.0 4000.0 4000.0 4000.0 4000.0 4000.0 4000.0 4000.0 4000.0 4000.0 4000.0 4000.0 4000.0 4000.0 4000.0 4000.0 4000.0 4000.0 4000.0 4000.0 4000.0 4000.0 4000.0 4000.0 4000.0 4000.0 4000.0 4000.0 4000.0 4000.0 4000.0 4000.0 4000.0 4000.0 4000.0 4000.0 4000.0 4000.0 4000.0 4000.0 4000.0 4000.0 4000.0 4000.0 4000.0 4000.0 4000.0 4000.0 4000.0 4000.0 4000.0 4000.0 4000.0 4000.0 4000.0 4000.0 4000.0 4000.0 4000.0 4000.0 4000.0 4000.0 4000.0 4000.0 4000.0 4000.0 4000.0 4000.0 4000.0 4000.0 4000.0 4000.0 4000.0 4000.0 4000.0 4000.0 4000.0 4000.0 4000.0 4000.0 4000.0 4000.0 4000.0 4000.0 4000.0 4000.0 4000.0 4000.0 4000.0 4000.0 4000.0 4000.0 4000.0 4000.0 4000.0 4000.0 4000.0 4000.0 4000.0 4000.0 4000.0 4000.0 4000.0 4000.0 4000.0 4000.0 4000.0 4000.0 4000.0 4000.0 4000.0 4000.0 4000.0 4000.0 4000.0 4000.0 4000.0 4000.0 4000.0 4000.0 4000.0 4000.0 4000.0 4000.0 4000.0 4000.0 4000.0 4000.0 4000.0 4000.0 4000.0 4000.0 4000.0 4000.0 4000.0 4000.0 4000.0 4000.0 4000.0 4000.0 4000.0 4000.0 4000.0 4000.0 4000.0 4000.0 4000.0 4000.0 4000.0 4000.0 4000.0 4000.0 4000.0 4000.0 4000.0 4000.0 4000.0 4000.0 4000.0 4000.0 4000.0 4000.0 4000.0 4000.0 4000.0 4000.0 4000.0 4000.0 4000.0 4000.0 4000.0 4000.0 4000.0 4000.0 4000.0 4000.0 4000.0 4000.0 4000.0 4000.0 4000.0 4000.0 4000.0 4000.0 4000.0 4000.0 4000.0 4000.0 4000.0 4000.0 4000.0 4000.0 4000.0 4000.0 4000.0 4000.0 4000.0 4000.0 4000.0 4000.0 4000.0 4000.0 4000.0 4000.0 4000.0 4000.0 4000.0 4000.0 4000.0 4000.0 4000.0 4000.0 4000.0 4000.0 4000.0 4000.0 4000.0 4000.0 4000.0 4000.0 4000.0 4000.0 4000.0 4000.0 4000.0 4000.0 4000.0 4000.0 4000.0 4000.0 4000.0 4000.0 4000.0 4000.0 4000.0 4000.0 4000.0 4000.0 4000.0 4000.0 4000.0 4000.0 4000.0 4000.0 4000.0 4000.0 4000.0 4000.0 4000.0 4000.0 4000.0 4000.0 4000.0 4000.0 4000.0 4000.0 4000.0 4000.0 4000.0 4000.0 4000.0 4000.0 4000.0 4000.0 4000.0 4000.0 4000.0 4000.0 4000.0 4000.0 4000.0 4000.0 4000.0 4000.0 4000.0 4000.0 4000.0 4000.0 4000.0 4000.0 4000.0 4000.0 4000.0 4000.0 4000.0 4000.0 4000.0 4000.0 4000.0 4000.0 4000.0 4000.0 4000.0 4000.0 4000.0 4000.0 4000.0 4000.0 4000.0 4000.0 4000.0 4000.0 4000.0 4000.0 4000.0 4000.0 4000.0 4000.0 4000.0 4000.0 4000.0 4000.0 4000.0 4000.0 4000.0 4000.0 4000.0 4000.0 4000.0 4000.0 4000.0 4000.0 4000.0 4000.0 4000.0 4000.0 4000.0 4000.0 4000.0 4000.0 4000.0 4000.0 4000.0 4000.0 4000.0 4000.0 4000.0 4000.0 4000.0 4000.0 4000.0 4000.0 4000.0 4000.0 4000.0 4000.0 4000.0 4000.0 4000.0 4000.0 4000.0 4000.0 4000.0 4000.0 4000.0 4000.0 4000.0 4000.0 4000.0 4000.0 4000.0 4000.0 4000.0 4000.0 4000.0 4000.0 4000.0 4000.0 4000.0 4000.0 4000.0 4000.0 4000.0 4000.0 4000.0 4000.0 4000.0 4000.0 4000.0 4000.0 4000.0 4000.0 4000.0 4000.0 4000.0 4000.0 4000.0 4000.0 4000.0 4000.0 4000.0 4000.0 4000.0 4000.0 4000.0 4000.0 4000.0 4000.0 4000.0 4000.0 4000.0 4000.0 4000.0 4000.0 4000.0 4000.0 4000.0 4000.0 4000.0 4000.0 4000.0 4000.0 4000.0 4000.0 4000.0 4000.0 4000.0 4000.0 4000.0 4000.0 4000.0 4000.0 4000.0 4000.0 4000.0 4000.0 4000.0 4000.0 4000.0 4000.0 4000.0 4000.0 4000.0 4000.0 4000.0 4000.0 4000.0 4000.0 4000.0 4000.0 4000.0 4000.0 4000.0 4000.0 4000.0 4000.0 4000.0 4000.0 4000.0 4000.0 4000.0 4000.0 4000.0 4000.0 4000.0 4000.0 4000.0 4000.0 4000.0 4000.0 4000.0 4000.0 4000.0 4000.0 4000.0 4000.0 4000.0 4000.0 4000.0 4000.0 4000.0 4000.0 4000.0 4000.0 4000.0 4000.0 4000.0 4000.0 4000.0 4000.0 4000.0 4000.0 4000.0 4000.0 4000.0 4000.0 4000.0 4000.0 4000.0 4000.0 4000.0 4000.0 4000.0 4000.0 4000.0 4000.0 4000.0 4000.0 4000.0 4000.0 4000.0 4000.0 4000.0 4000.0 4000.0 4000.0 4000.0 4000.0 4000.0 4000.0 4000.0 4000.0 4000.0 4000.0 4000.0 4000.0 4000.0 4000.0 4000.0 4000.0 4000.0 4000.0 4000.0 4000.0 4000.0 4000.0 4000.0 4000.0 4000.0 4000.0 4000.0 4000.0 4000.0 4000.0 4000.0 4000.0 4000.0 4000.0 4000.0 4000.0 4000.0 4000.0 4000.0 4000.0 4000.0 4000.0 4000.0 4000.0 4000.0 4000.0 4000.0 4000.0 4000.0 4000.0 4000.0 4000.0 4000.0 4000.0 4000.0 4000.0 4000.0 4000.0 4000.0 4000.0 4000.0 4000.0 4000.0 4000.0 4000.0 4000.0 4000.0 4000.0 4000.0 4000.0 4000.0 4000.0 4000.0 4000.0 4000.0 4000.0 4000.0 4000.0 4000.0 4000.0 4000.0 4000.0 4000.0 4000.0 4000.0 4000.0 4000.0 4000.0 4000.0 4000.0 4000.0 4000.0 4000.0 4000.0 4000.0 4000.0 4000.0 4000.0 4000.0 4000.0 4000.0 4000.0 4000.0 4000.0 4000.0 4000.0 4000.0 4000.0 4000.0 4000.0 4000.0 4000.0 4000.0 4000.0 4000.0 4000.0 4000.0 4000.0 4000.0 4000.0 4000.0 4000.0 4000.0 4000.0 4000.0 4000.0 4000.0 4000.0 4000.0 4000.0 4000.0 4000.0 4000.0 4000.0 4000.0 4000.0 4000.0 4000.0 4000.0 4000.0 4000.0 4000.0 4000.0 4000.0 4000.0 4000.0 4000.0 4000.0 4000.0 4000.0 4000.0 4000.0 4000.0 4000.0 4000.0 4000.0 4000.0 4000.0 4000.0 4000.0 4000.0 4000.0 4000.0 4000.0 4000.0 4000.0 4000.0 4000.0 4000.0 4000.0 4000.0 4000.0 4000.0 4000.0 4000.0 4000.0 4000.0 4000.0 4000.0 4000.0 4000.0 4000.0 4000.0 4000.0 4000.0 4000.0 4000.0 4000.0 4000.0 4000.0 4000.0 4000.0 4000.0 4000.0 4000.0 4000.0 4000.0 4000.0 4000.0 4000.0 4000.0 4000.0 4000.0 4000.0 4000.0 4000.0 4000.0 4000.0 4000.0 4000.0 4000.0 4000.0 4000.0 4000.0 4000.0 4000.0 4000.0 4000.0 4000.0 4000.0 4000.0 4000.0 4000.0 4000.0 4000.0 4000.0 4000.0 4000.0 4000.0 4000.0 4000.0 4000.0 4000.0 4000.0 4000.0 4000.0 4000.0 4000.0 4000.0 4000.0 4000.0 4000.0 4000.0 4000.0 4000.0 4000.0 4000.0 4000.0 4000.0 4000.0 4000.0 4000.0 4000.0 4000.0 4000.0 4000.0 4000.0 4000.0 4000.0 4000.0 4000.0 4000.0 4000.0 4000.0 4000.0 4000.0 4000.0 4000.0 4000.0 4000.0 4000.0 4000.0 4000.0 4000.0 4000.0 4000.0 4000.0 4000.0 4000.0 4000.0 4000.0 4000.0 4000.0 4000.0 4000.0 4000.0 4000.0 4000.0 4000.0 4000.0 4000.0 4000.0 4000.0 4000.0 4000.0 4000.0 4000.0 4000.0 4000.0 4000.0 4000.0 4000.0 4000.0 4000.0 4000.0 4000.0 4000.0 4000.0 4000.0 4000.0 4000.0 4000.0 4000.0 4000.0 4000.0 4000.0 4000.0 4000.0 4000.0 4000.0 4000.0 4000.0 4000.0 4000.0 4000.0 4000.0 4000.0 4000.0 4000.0 4000.0 4000.0 4000.0 4000.0 4000.0 4000.0 4000.0 4000.0 4000.0 4000.0 4000.0 4000.0 4000.0 4000.0 4000.0 4000.0 4000.0 4000.0 4000.0 4000.0 4000.0 4000.0 4000.0 4000.0 4000.0 4000.0 4000.0 4000.0 4000.0 4000.0 4000.0 4000.0 4000.0 4000.0 4000.0 4000.0 4000.0 4000.0 4000.0 4000.0 4000.0 4000.0 4000.0 4000.0 4000.0 4000.0 4000.0 4000.0 4000.0 4000.0 4000.0 4000.0 4000.0 4000.0 4000.0 4000.0 4000.0 4000.0 4000.0 4000.0 4000.0 4000.0 4000.0 4000.0 4000.0 4000.0 4000.0 4000.0 4000.0 4000.0 4000.0 4000.0 4000.0 4000.0 4000.0 4000.0 4000.0 4000.0 4000.0 4000.0 4000.0 4000.0 4000.0 4000.0 4000.0 4000.0 4000.0 4000.0 4000.0 4000.0 4000.0 4000.0 4000.0 4000.0 4000.0 4000.0 4000.0 4000.0 4000.0 4000.0 4000.0 4000.0 4000.0 4000.0 4000.0 4000.0 4000.0 4000.0 4000.0 4000.0 4000.0 4000.0 4000.0 4000.0 4000.0 4000.0 4000.0 4000.0 4000.0 4000.0 4000.0 4000.0 4000.0 4000.0 4000.0 4000.0 4000.0 4000.0 4000.0 4000.0 4000.0 4000.0 4000.0 4000.0 4000.0 4000.0 4000.0 4000.0 4000.0 4000.0 4000.0 4000.0 4000.0 4000.0 4000.0 4000.0 4000.0 4000.0 4000.0 4000.0 4000.0 4000.0 4000.0 4000.0 4000.0 4000.0 4000.0 4000.0 4000.0 4000.0 4000.0 4000.0 4000.0 4000.0 4000.0 4000.0 4000.0 4000.0 4000.0 4000.0 4000.0 4000.0 4000.0 4000.0 4000.0 4000.0 4000.0 4000.0 4000.0 4000.0 4000.0 4000.0 4000.0 4000.0 4000.0 4000.0 4000.0 4000.0 4000.0 4000.0 4000.0 4000.0 4000.0 4000.0 4000.0 4000.0 4000.0 4000.0 4000.0 4000.0 4000.0 4000.0 4000.0 4000.0 4000.0 4000.0 4000.0 4000.0 4000.0 4000.0 4000.0 4000.0 4000.0 4000.0 4000.0 4000.0 4000.0 4000.0 4000.0 4000.0 4000.0 4000.0 4000.0 4000.0 4000.0 4000.0 4000.0 4000.0 4000.0 4000.0 4000.0 4000.0 4000.0 4000.0 4000.0 4000.0 4000.0 4000.0 4000.0 4000.0 4000.0 4000.0 4000.0 4000.0 4000.0 4000.0 4000.0 4000.0 4000.0 4000.0 4000.0 4000.0 4000.0 4000.0 4000.0 4000.0 4000.0 4000.0 4000.0 4000.0 4000.0 4000.0 4000.0 4000.0 4000.0 4000.0 4000.0 4000.0 4000.0 4000.0 4000.0 4000.0 4000.0 4000.0 4000.0 4000.0 4000.0 4000.0 4000.0 4000.0 4000.0 4000.0 4000.0 4000.0 4000.0 4000.0 4000.0 4000.0 4000.0 4000.0 4000.0 4000.0 4000.0 4000.0 4000.0 4000.0 4000.0 4000.0 4000.0 4000.0 4000.0 4000.0 4000.0 4000.0 4000.0 4000.0 4000.0 4000.0 4000.0 4000.0 4000.0 4000.0 4000.0 4000.0 4000.0 4000.0 4000.0 4000.0 4000.0 4000.0 4000.0 4000.0 4000.0 4000.0 4000.0 4000.0 4000.0 4000.0 4000.0 4000.0 4000.0 4000.0 4000.0 4000.0 4000.0 4000.0 4000.0 4000.0 4000.0 4000.0 4000.0 4000.0 4000.0 4000.0 4000.0 4000.0 4000.0 4000.0 4000.0 4000.0 4000.0 4000.0 4000.0 4000.0 4000.0 4000.0 4000.0 4000.0 4000.0 4000.0 4000.0 4000.0 4000.0 4000.0 4000.0 4000.0 4000.0 4000.0 4000.0 4000.0 4000.0 4000.0 4000.0 4000.0 4000.0 4000.0 4000.0 4000.0 4000.0 4000.0 4000.0 4000.0 4000.0 4000.0 4000.0 4000.0 4000.0 4000.0 4000.0 4000.0 4000.0 4000.0 4000.0 4000.0 4000.0 4000.0 4000.0 4000.0 4000.0 4000.0 4000.0 4000.0 4000.0 4000.0 4000.0 4000.0 4000.0 4000.0 4000.0 4000.0 4000.0 4000.0 4000.0 4000.0 4000.0 4000.0 4000.0 4000.0 4000.0 4000.0 4000.0 4000.0 4000.0 4000.0 4000.0 4000.0 4000.0 4000.0 4000.0 4000.0 4000.0 4000.0 4000.0 4000.0 4000.0 4000.0 4000.0 4000.0 4000.0 4000.0 4000.0 4000.0 4000.0 4000.0 4000.0 4000.0 4000.0 4000.0 4000.0 4000.0 4000.0 4000.0 4000.0 4000.0 4000.0 4000.0 4000.0 4000.0 4000.0 4000.0 4000.0 4000.0 4000.0 4000.0 4000.0 4000.0 4000.0 4000.0 4000.0 4000.0 4000.0 4000.0 4000.0 4000.0 4000.0 4000.0 4000.0 4000.0 4000.0 4000.0 4000.0 4000.0 4000.0 4000.0 4000.0 4000.0 4000.0 4000.0 4000.0 4000.0 4000.0 4000.0 4000.0 4000.0 4000.0 4000.0 4000.0 4000.0 4000.0 4000.0 4000.0 4000.0 4000.0 4000.0 4000.0 4000.0 4000.0 4000.0 4000.0 4000.0 4000.0 4000.0 4000.0 4000.0 4000.0 4000.0 4000.0 4000.0 4000.0 4000.0 4000.0 4000.0 4000.0 4000.0 4000.0 4000.0 4000.0 4000.0 4000.0 4000.0 4000.0 4000.0 4000.0 4000.0 4000.0 4000.0 4000.0 4000.0 4000.0 4000.0 4000.0 4000.0 4000.0 4000.0 4000.0 4000.0 4000.0 4000.0 4000.0 4000.0 4000.0 4000.0 4000.0 4000.0 4000.0 4000.0 4000.0 4000.0 4000.0 4000.0 4000.0 4000.0 4000.0 4000.0 4000.0 4000.0 4000.0 4000.0 4000.0 4000.0 4000.0 4000.0 4000.0 4000.0 4000.0 4000.0 4000.0 4000.0 4000.0 4000.0 4000.0 4000.0 4000.0 4000.0 4000.0 4000.0 4000.0 4000.0 4000.0 4000.0 4000.0 4000.0 4000.0 4000.0 4000.0 4000.0 4000.0 4000.0 4000.0 4000.0 4000.0 4000.0 4000.0 4000.0 4000.0 4000.0 4000.0 4000.0 4000.0 4000.0 4000.0 4000.0 4000.0 4000.0 4000.0 4000.0 4000.0 4000.0 4000.0 4000.0 4000.0 4000.0 4000.0 4000.0 4000.0 4000.0 4000.0 4000.0 4000.0 4000.0 4000.0 4000.0 4000.0 4000.0 4000.0 4000.0 4000.0 4000.0 4000.0 4000.0 4000.0 4000.0 4000.0 4000.0 4000.0 4000.0 4000.0 4000.0 4000.0 4000.0 4000.0 4000.0 4000.0 4000.0 4000.0 4000.0 4000.0 4000.0 4000.0 4000.0 4000.0 4000.0 4000.0 4000.0 4000.0 4000.0 4000.0 4000.0 4000.0 4000.0 4000.0 4000.0 4000.0 4000.0 4000.0 4000.0 4000.0 4000.0 4000.0 4000.0 4000.0 4000.0 4000.0 4000.0 4000.0 4000.0 4000.0 4000.0 4000.0 4000.0 4000.0 4000.0 4000.0 4000.0 4000.0 4000.0 4000.0 4000.0 4000.0 4000.0 4000.0 4000.0 4000.0 4000.0 4000.0 4000.0 4000.0 4000.0 4000.0 4000.0 4000.0 4000.0 4000.0 4000.0 4000.0 4000.0 4000.0 4000.0 4000.0 4000.0 4000.0 4000.0 4000.0 4000.0 4000.0 4000.0 4000.0 4000.0 4000.0 4000.0 4000.0 4000.0 4000.0 4000.0 4000.0 4000.0 4000.0 4000.0 4000.0 4000.0 4000.0 4000.0 4000.0 4000.0 4000.0 4000.0 4000.0 4000.0 4000.0 4000.0 4000.0 4000.0 4000.0 4000.0 4000.0 4000.0 4000.0 4000.0 4000.0 4000.0 4000.0 4000.0 4000.0 4000.0 4000.0 4000.0 4000.0 4000.0 4000.0 4000.0 4000.0 4000.0 4000.0 4000.0 4000.0 4000.0 4000.0 4000.0 4000.0 4000.0 4000.0 4000.0 4000.0 4000.0 4000.0 4000.0 4000.0 4000.0 4000.0 4000.0 4000.0 4000.0 4000.0 4000.0 4000.0 4000.0 4000.0 4000.0 4000.0 4000.0 4000.0 4000.0 4000.0 4000.0 4000.0 4000.0 4000.0 4000.0 4000.0 4000.0 4000.0 4000.0 4000.0 4000.0 4000.0 4000.0 4000.0 4000.0 4000.0 4000.0 4000.0 4000.0 4000.0 4000.0 4000.0 4000.0 4000.0 4000.0 4000.0 4000.0 4000.0 4000.0 4000.0 4000.0 4000.0 4000.0 4000.0 4000.0 4000.0 4000.0 4000.0 4000.0 4000.0 4000.0 4000.0 4000.0 4000.0 4000.0 4000.0 4000.0 4000.0 4000.0 4000.0 4000.0 4000.0 4000.0 4000.0 4000.0 4000.0 4000.0 4000.0 4000.0 4000.0 4000.0 4000.0 4000.0 4000.0 4000.0 4000.0 4000.0 4000.0 4000.0 4000.0 4000.0 4000.0 4000.0 4000.0 4000.0 4000.0 4000.0 4000.0 4000.0 4000.0 4000.0 4000.0 4000.0 4000.0 4000.0 4000.0 4000.0 4000.0 4000.0 4000.0 4000.0 4000.0 4000.0 4000.0 4000.0 4000.0 4000.0 4000.0 4000.0 4000.0 4000.0 4000.0 4000.0 4000.0 4000.0 4000.0 4000.0 4000.0 4000.0 4000.0 4000.0 4000.0 4000.0 4000.0 4000.0 4000.0 4000.0 4000.0 4000.0 4000.0 4000.0 4000.0 4000.0 4000.0 4000.0 4000.0 4000.0 4000.0 4000.0 4000.0 4000.0 4000.0 4000.0 4000.0 4000.0 4000.0 4000.0 4000.0 4000.0 4000.0 4000.0 4000.0 4000.0 4000.0 4000.0 4000.0 4000.0 4000.0 4000.0 4000.0 4000.0 4000.0 4000.0 4000.0 4000.0 4000.0 4000.0 4000.0 4000.0 4000.0 4000.0 4000.0 4000.0 4000.0 4000.0 4000.0 4000.0 4000.0 4000.0 4000.0 4000.0 4000.0 4000.0 4000.0 4000.0 4000.0 4000.0 4000.0 4000.0 4000.0 4000.0 4000.0 4000.0 4000.0 4000.0 4000.0 4000.0 4000.0 4000.0 4000.0 4000.0 4000.0 4000.0 4000.0 4000.0 4000.0 4000.0 4000.0 4000.0 4000.0 4000.0 4000.0 4000.0 4000.0 4000.0 4000.0 4000.0 4000.0 4000.0 4000.0 4000.0 4000.0 4000.0 4000.0 4000.0 4000.0 4000.0 4000.0 4000.0 4000.0 4000.0 4000.0 4000.0 4000.0 4000.0 4000.0 4000.0 4000.0 4000.0 4000.0 4000.0 4000.0 4000.0 4000.0 4000.0 4000.0 4000.0 4000.0 4000.0 4000.0 4000.0 4000.0 4000.0 4000.0 4000.0 4000.0 4000.0 4000.0 4000.0 4000.0 4000.0 4000.0 4000.0 4000.0 4000.0 4000.0 4000.0 4000.0 4000.0 4000.0 4000.0 4000.0 4000.0 4000.0 4000.0 4000.0 4000.0 4000.0 4000.0 4000.0 4000.0 4000.0 4000.0 4000.0 4000.0 4000.0 4000.0 4000.0 4000.0 4000.0 4000.0 4000.0 4000.0 4000.0 4000.0 4000.0 4000.0 4000.0 4000.0 4000.0 4000.0 4000.0 4000.0 4000.0 4000.0 4000.0 4000.0 4000.0 4000.0 4000.0 4000.0 4000.0 4000.0 4000.0 4000.0 4000.0 4000.0 4000.0 4000.0 4000.0 4000.0 4000.0 4000.0 4000.0 4000.0 4000.0 4000.0 4000.0 4000.0 4000.0 4000.0 4000.0 4000.0 4000.0 4000.0 4000.0 4000.0 4000.0 4000.0 4000.0 4000.0 4000.0 4000.0 4000.0 4000.0 4000.0 4000.0 4000.0 4000.0 4000.0 4000.0 4000.0 4000.0 4000.0 4000.0 4000.0 4000.0 4000.0 4000.0 4000.0 4000.0 4000.0 4000.0 4000.0 4000.0 4000.0 4000.0 4000.0 4000.0 4000.0 4000.0 4000.0 4000.0 4000.0 4000.0 4000.0 4000.0 4000.0 4000.0 4000.0 4000.0 4000.0 4000.0 4000.0 4000.0 4000.0 4000.0 4000.0 4000.0 4000.0 4000.0 4000.0 4000.0 4000.0 4000.0 4000.0 4000.0 4000.0 4000.0 4000.0 4000.0 4000.0 4000.0 4000.0 4000.0 4000.0 4000.0 4000.0 4000.0 4000.0 4000.0 4000.0 4000.0 4000.0 4000.0 4000.0 4000.0 4000.0 4000.0 4000.0 4000.0 4000.0 4000.0 4000.0 4000.0 4000.0 4000.0 4000.0 4000.0 4000.0 4000.0 4000.0 4000.0 4000.0 4000.0 4000.0 4000.0 4000.0 4000.0 4000.0 4000.0 4000.0 4000.0 4000.0 4000.0 4000.0 4000.0 4000.0 4000.0 4000.0 4000.0 4000.0 4000.0 4000.0 4000.0 4000.0 4000.0 4000.0 4000.0 4000.0 4000.0 4000.0 4000.0 4000.0 4000.0 4000.0 4000.0 4000.0 4000.0 4000.0 4000.0 4000.0 4000.0 4000.0 4000.0 4000.0 4000.0 4000.0 4000.0 4000.0 4000.0 4000.0 4000.0 4000.0 4000.0 4000.0 4000.0 4000.0 4000.0 4000.0 4000.0 4000.0 4000.0 4000.0 4000.0 4000.0 4000.0 4000.0 4000.0 4000.0 4000.0 4000.0 4000.0 4000.0 4000.0 4000.0 4000.0 4000.0 4000.0 4000.0 4000.0 4000.0 4000.0 4000.0 4000.0 4000.0 4000.0 4000.0 4000.0 SCALARS Mass float 1
LOOKUP_TABLE default
11309700000.0 11309700000.0 11309700000.0 11309700000.0 11309700000.0 11309700000.0 11309700000.0 11309700000.0 11309700000.0 11309700000.0 11309700000.0 11309700000.0 11309700000.0 11309700000.0 11309700000.0 11309700000.0 11309700000.0 11309700000.0 11309700000.0 11309700000.0 11309700000.0 11309700000.0 11309700000.0 11309700000.0 11309700000.0 11309700000.0 11309700000.0 11309700000.0 11309700000.0 11309700000.0 11309700000.0 11309700000.0 11309700000.0 11309700000.0 11309700000.0 11309700000.0 11309700000.0 11309700000.0 11309700000.0 11309700000.0 11309700000.0 11309700000.0 11309700000.0 11309700000.0 11309700000.0 11309700000.0 11309700000.0 11309700000.0 11309700000.0 11309700000.0 11309700000.0 11309700000.0 11309700000.0 11309700000.0 11309700000.0 11309700000.0 11309700000.0 11309700000.0 11309700000.0 11309700000.0 11309700000.0 11309700000.0 11309700000.0 11309700000.0 11309700000.0 11309700000.0 11309700000.0 11309700000.0 11309700000.0 11309700000.0 11309700000.0 11309700000.0 11309700000.0 11309700000.0 11309700000.0 11309700000.0 11309700000.0 11309700000.0 11309700000.0 11309700000.0 11309700000.0 11309700000.0 11309700000.0 11309700000.0 11309700000.0 11309700000.0 11309700000.0 11309700000.0 11309700000.0 11309700000.0 11309700000.0 11309700000.0 11309700000.0 11309700000.0 11309700000.0 11309700000.0 11309700000.0 11309700000.0 11309700000.0 11309700000.0 11309700000.0 11309700000.0 11309700000.0 11309700000.0 11309700000.0 11309700000.0 11309700000.0 11309700000.0 11309700000.0 11309700000.0 11309700000.0 11309700000.0 11309700000.0 11309700000.0 11309700000.0 11309700000.0 11309700000.0 11309700000.0 11309700000.0 11309700000.0 11309700000.0 11309700000.0 11309700000.0 11309700000.0 11309700000.0 11309700000.0 11309700000.0 11309700000.0 11309700000.0 11309700000.0 11309700000.0 11309700000.0 11309700000.0 11309700000.0 11309700000.0 11309700000.0 11309700000.0 11309700000.0 11309700000.0 11309700000.0 11309700000.0 11309700000.0 11309700000.0 11309700000.0 11309700000.0 11309700000.0 11309700000.0 11309700000.0 11309700000.0 11309700000.0 11309700000.0 11309700000.0 11309700000.0 11309700000.0 11309700000.0 11309700000.0 11309700000.0 11309700000.0 11309700000.0 11309700000.0 11309700000.0 11309700000.0 11309700000.0 11309700000.0 11309700000.0 11309700000.0 11309700000.0 11309700000.0 11309700000.0 11309700000.0 11309700000.0 11309700000.0 11309700000.0 11309700000.0 11309700000.0 11309700000.0 11309700000.0 11309700000.0 11309700000.0 11309700000.0 11309700000.0 11309700000.0 11309700000.0 11309700000.0 11309700000.0 11309700000.0 11309700000.0 11309700000.0 11309700000.0 11309700000.0 11309700000.0 11309700000.0 11309700000.0 11309700000.0 11309700000.0 11309700000.0 11309700000.0 11309700000.0 11309700000.0 11309700000.0 11309700000.0 11309700000.0 11309700000.0 11309700000.0 11309700000.0 11309700000.0 11309700000.0 11309700000.0 11309700000.0 11309700000.0 11309700000.0 11309700000.0 11309700000.0 11309700000.0 11309700000.0 11309700000.0 11309700000.0 11309700000.0 11309700000.0 11309700000.0 11309700000.0 11309700000.0 11309700000.0 11309700000.0 11309700000.0 11309700000.0 11309700000.0 11309700000.0 11309700000.0 11309700000.0 11309700000.0 11309700000.0 11309700000.0 11309700000.0 11309700000.0 11309700000.0 11309700000.0 11309700000.0 11309700000.0 11309700000.0 11309700000.0 11309700000.0 11309700000.0 11309700000.0 11309700000.0 11309700000.0 11309700000.0 11309700000.0 11309700000.0 11309700000.0 11309700000.0 11309700000.0 11309700000.0 11309700000.0 11309700000.0 11309700000.0 11309700000.0 11309700000.0 11309700000.0 11309700000.0 11309700000.0 11309700000.0 11309700000.0 11309700000.0 11309700000.0 11309700000.0 11309700000.0 11309700000.0 11309700000.0 11309700000.0 11309700000.0 11309700000.0 11309700000.0 11309700000.0 11309700000.0 11309700000.0 11309700000.0 11309700000.0 11309700000.0 11309700000.0 11309700000.0 11309700000.0 11309700000.0 11309700000.0 11309700000.0 11309700000.0 11309700000.0 11309700000.0 11309700000.0 11309700000.0 11309700000.0 11309700000.0 11309700000.0 11309700000.0 11309700000.0 11309700000.0 11309700000.0 11309700000.0 11309700000.0 11309700000.0 11309700000.0 11309700000.0 11309700000.0 11309700000.0 11309700000.0 11309700000.0 11309700000.0 11309700000.0 11309700000.0 11309700000.0 11309700000.0 11309700000.0 11309700000.0 11309700000.0 11309700000.0 11309700000.0 11309700000.0 11309700000.0 11309700000.0 11309700000.0 11309700000.0 11309700000.0 11309700000.0 11309700000.0 11309700000.0 11309700000.0 11309700000.0 11309700000.0 11309700000.0 11309700000.0 11309700000.0 11309700000.0 11309700000.0 11309700000.0 11309700000.0 11309700000.0 11309700000.0 11309700000.0 11309700000.0 11309700000.0 11309700000.0 11309700000.0 11309700000.0 11309700000.0 11309700000.0 11309700000.0 11309700000.0 11309700000.0 11309700000.0 11309700000.0 11309700000.0 11309700000.0 11309700000.0 11309700000.0 11309700000.0 11309700000.0 11309700000.0 11309700000.0 11309700000.0 11309700000.0 11309700000.0 11309700000.0 11309700000.0 11309700000.0 11309700000.0 11309700000.0 11309700000.0 11309700000.0 11309700000.0 11309700000.0 11309700000.0 11309700000.0 11309700000.0 11309700000.0 11309700000.0 11309700000.0 11309700000.0 11309700000.0 11309700000.0 11309700000.0 11309700000.0 11309700000.0 11309700000.0 11309700000.0 11309700000.0 11309700000.0 11309700000.0 11309700000.0 11309700000.0 11309700000.0 11309700000.0 11309700000.0 11309700000.0 11309700000.0 11309700000.0 11309700000.0 11309700000.0 11309700000.0 11309700000.0 11309700000.0 11309700000.0 11309700000.0 11309700000.0 11309700000.0 11309700000.0 11309700000.0 11309700000.0 11309700000.0 11309700000.0 11309700000.0 11309700000.0 11309700000.0 11309700000.0 11309700000.0 11309700000.0 11309700000.0 11309700000.0 11309700000.0 11309700000.0 11309700000.0 11309700000.0 11309700000.0 11309700000.0 11309700000.0 11309700000.0 11309700000.0 11309700000.0 11309700000.0 11309700000.0 11309700000.0 11309700000.0 11309700000.0 11309700000.0 11309700000.0 11309700000.0 11309700000.0 11309700000.0 11309700000.0 11309700000.0 11309700000.0 11309700000.0 11309700000.0 11309700000.0 11309700000.0 11309700000.0 11309700000.0 11309700000.0 11309700000.0 11309700000.0 11309700000.0 11309700000.0 11309700000.0 11309700000.0 11309700000.0 11309700000.0 11309700000.0 11309700000.0 11309700000.0 11309700000.0 11309700000.0 11309700000.0 11309700000.0 11309700000.0 11309700000.0 11309700000.0 11309700000.0 11309700000.0 11309700000.0 11309700000.0 11309700000.0 11309700000.0 11309700000.0 11309700000.0 11309700000.0 11309700000.0 11309700000.0 11309700000.0 11309700000.0 11309700000.0 11309700000.0 11309700000.0 11309700000.0 11309700000.0 11309700000.0 11309700000.0 11309700000.0 11309700000.0 11309700000.0 11309700000.0 11309700000.0 11309700000.0 11309700000.0 11309700000.0 11309700000.0 11309700000.0 11309700000.0 11309700000.0 11309700000.0 11309700000.0 11309700000.0 11309700000.0 11309700000.0 11309700000.0 11309700000.0 11309700000.0 11309700000.0 11309700000.0 11309700000.0 11309700000.0 11309700000.0 11309700000.0 11309700000.0 11309700000.0 11309700000.0 11309700000.0 11309700000.0 11309700000.0 11309700000.0 11309700000.0 11309700000.0 11309700000.0 11309700000.0 11309700000.0 11309700000.0 11309700000.0 11309700000.0 11309700000.0 11309700000.0 11309700000.0 11309700000.0 11309700000.0 11309700000.0 11309700000.0 11309700000.0 11309700000.0 11309700000.0 11309700000.0 11309700000.0 11309700000.0 11309700000.0 11309700000.0 11309700000.0 11309700000.0 11309700000.0 11309700000.0 11309700000.0 11309700000.0 11309700000.0 11309700000.0 11309700000.0 11309700000.0 11309700000.0 11309700000.0 11309700000.0 11309700000.0 11309700000.0 11309700000.0 11309700000.0 11309700000.0 11309700000.0 11309700000.0 11309700000.0 11309700000.0 11309700000.0 11309700000.0 11309700000.0 11309700000.0 11309700000.0 11309700000.0 11309700000.0 11309700000.0 11309700000.0 11309700000.0 11309700000.0 11309700000.0 11309700000.0 11309700000.0 11309700000.0 11309700000.0 11309700000.0 11309700000.0 11309700000.0 11309700000.0 11309700000.0 11309700000.0 11309700000.0 11309700000.0 11309700000.0 11309700000.0 11309700000.0 11309700000.0 11309700000.0 11309700000.0 11309700000.0 11309700000.0 11309700000.0 11309700000.0 11309700000.0 11309700000.0 11309700000.0 11309700000.0 11309700000.0 11309700000.0 11309700000.0 11309700000.0 11309700000.0 11309700000.0 11309700000.0 11309700000.0 11309700000.0 11309700000.0 11309700000.0 11309700000.0 11309700000.0 11309700000.0 11309700000.0 11309700000.0 11309700000.0 11309700000.0 11309700000.0 11309700000.0 11309700000.0 11309700000.0 11309700000.0 11309700000.0 11309700000.0 11309700000.0 11309700000.0 11309700000.0 11309700000.0 11309700000.0 11309700000.0 11309700000.0 11309700000.0 11309700000.0 11309700000.0 11309700000.0 11309700000.0 11309700000.0 11309700000.0 11309700000.0 11309700000.0 11309700000.0 11309700000.0 11309700000.0 11309700000.0 11309700000.0 11309700000.0 11309700000.0 11309700000.0 11309700000.0 11309700000.0 11309700000.0 11309700000.0 11309700000.0 11309700000.0 11309700000.0 11309700000.0 11309700000.0 11309700000.0 11309700000.0 11309700000.0 11309700000.0 11309700000.0 11309700000.0 11309700000.0 11309700000.0 11309700000.0 11309700000.0 11309700000.0 11309700000.0 11309700000.0 11309700000.0 11309700000.0 11309700000.0 11309700000.0 11309700000.0 11309700000.0 11309700000.0 11309700000.0 11309700000.0 11309700000.0 11309700000.0 11309700000.0 11309700000.0 11309700000.0 11309700000.0 11309700000.0 11309700000.0 11309700000.0 11309700000.0 11309700000.0 11309700000.0 11309700000.0 11309700000.0 11309700000.0 11309700000.0 11309700000.0 11309700000.0 11309700000.0 11309700000.0 11309700000.0 11309700000.0 11309700000.0 11309700000.0 11309700000.0 11309700000.0 11309700000.0 11309700000.0 11309700000.0 11309700000.0 11309700000.0 11309700000.0 11309700000.0 11309700000.0 11309700000.0 11309700000.0 11309700000.0 11309700000.0 11309700000.0 11309700000.0 11309700000.0 11309700000.0 11309700000.0 11309700000.0 11309700000.0 11309700000.0 11309700000.0 11309700000.0 11309700000.0 11309700000.0 11309700000.0 11309700000.0 11309700000.0 11309700000.0 11309700000.0 11309700000.0 11309700000.0 11309700000.0 11309700000.0 11309700000.0 11309700000.0 11309700000.0 11309700000.0 11309700000.0 11309700000.0 11309700000.0 11309700000.0 11309700000.0 11309700000.0 11309700000.0 11309700000.0 11309700000.0 11309700000.0 11309700000.0 11309700000.0 11309700000.0 11309700000.0 11309700000.0 11309700000.0 11309700000.0 11309700000.0 11309700000.0 11309700000.0 11309700000.0 11309700000.0 11309700000.0 11309700000.0 11309700000.0 11309700000.0 11309700000.0 11309700000.0 11309700000.0 11309700000.0 11309700000.0 11309700000.0 11309700000.0 11309700000.0 11309700000.0 11309700000.0 11309700000.0 11309700000.0 11309700000.0 11309700000.0 11309700000.0 11309700000.0 11309700000.0 11309700000.0 11309700000.0 11309700000.0 11309700000.0 11309700000.0 11309700000.0 11309700000.0 11309700000.0 11309700000.0 11309700000.0 11309700000.0 11309700000.0 11309700000.0 11309700000.0 11309700000.0 11309700000.0 11309700000.0 11309700000.0 11309700000.0 11309700000.0 11309700000.0 11309700000.0 11309700000.0 11309700000.0 11309700000.0 11309700000.0 11309700000.0 11309700000.0 11309700000.0 11309700000.0 11309700000.0 11309700000.0 11309700000.0 11309700000.0 11309700000.0 11309700000.0 11309700000.0 11309700000.0 11309700000.0 11309700000.0 11309700000.0 11309700000.0 11309700000.0 11309700000.0 11309700000.0 11309700000.0 11309700000.0 11309700000.0 11309700000.0 11309700000.0 11309700000.0 11309700000.0 11309700000.0 11309700000.0 11309700000.0 11309700000.0 11309700000.0 11309700000.0 11309700000.0 11309700000.0 11309700000.0 11309700000.0 11309700000.0 11309700000.0 11309700000.0 11309700000.0 11309700000.0 11309700000.0 11309700000.0 11309700000.0 11309700000.0 11309700000.0 11309700000.0 11309700000.0 11309700000.0 11309700000.0 11309700000.0 11309700000.0 11309700000.0 11309700000.0 11309700000.0 11309700000.0 11309700000.0 11309700000.0 11309700000.0 11309700000.0 11309700000.0 11309700000.0 11309700000.0 11309700000.0 11309700000.0 11309700000.0 11309700000.0 11309700000.0 11309700000.0 11309700000.0 11309700000.0 11309700000.0 11309700000.0 11309700000.0 11309700000.0 11309700000.0 11309700000.0 11309700000.0 11309700000.0 11309700000.0 11309700000.0 11309700000.0 11309700000.0 11309700000.0 11309700000.0 11309700000.0 11309700000.0 11309700000.0 11309700000.0 11309700000.0 11309700000.0 11309700000.0 11309700000.0 11309700000.0 11309700000.0 11309700000.0 11309700000.0 11309700000.0 11309700000.0 11309700000.0 11309700000.0 11309700000.0 11309700000.0 11309700000.0 11309700000.0 11309700000.0 11309700000.0 11309700000.0 11309700000.0 11309700000.0 11309700000.0 11309700000.0 11309700000.0 11309700000.0 11309700000.0 11309700000.0 11309700000.0 11309700000.0 11309700000.0 11309700000.0 11309700000.0 11309700000.0 11309700000.0 11309700000.0 11309700000.0 11309700000.0 11309700000.0 11309700000.0 11309700000.0 11309700000.0 11309700000.0 11309700000.0 11309700000.0 11309700000.0 11309700000.0 11309700000.0 11309700000.0 11309700000.0 11309700000.0 11309700000.0 11309700000.0 11309700000.0 11309700000.0 11309700000.0 11309700000.0 11309700000.0 11309700000.0 11309700000.0 11309700000.0 11309700000.0 11309700000.0 11309700000.0 11309700000.0 11309700000.0 11309700000.0 11309700000.0 11309700000.0 11309700000.0 11309700000.0 11309700000.0 11309700000.0 11309700000.0 11309700000.0 11309700000.0 11309700000.0 11309700000.0 11309700000.0 11309700000.0 11309700000.0 11309700000.0 11309700000.0 11309700000.0 11309700000.0 11309700000.0 11309700000.0 11309700000.0 11309700000.0 11309700000.0 11309700000.0 11309700000.0 11309700000.0 11309700000.0 11309700000.0 11309700000.0 11309700000.0 11309700000.0 11309700000.0 11309700000.0 11309700000.0 11309700000.0 11309700000.0 11309700000.0 11309700000.0 11309700000.0 11309700000.0 11309700000.0 11309700000.0 11309700000.0 11309700000.0 11309700000.0 11309700000.0 11309700000.0 11309700000.0 11309700000.0 11309700000.0 11309700000.0 11309700000.0 11309700000.0 11309700000.0 11309700000.0 11309700000.0 11309700000.0 11309700000.0 11309700000.0 11309700000.0 11309700000.0 11309700000.0 11309700000.0 11309700000.0 11309700000.0 11309700000.0 11309700000.0 11309700000.0 11309700000.0 11309700000.0 11309700000.0 11309700000.0 11309700000.0 11309700000.0 11309700000.0 11309700000.0 11309700000.0 11309700000.0 11309700000.0 11309700000.0 11309700000.0 11309700000.0 11309700000.0 11309700000.0 11309700000.0 11309700000.0 11309700000.0 11309700000.0 11309700000.0 11309700000.0 11309700000.0 11309700000.0 11309700000.0 11309700000.0 11309700000.0 11309700000.0 11309700000.0 11309700000.0 11309700000.0 11309700000.0 11309700000.0 11309700000.0 11309700000.0 11309700000.0 11309700000.0 11309700000.0 11309700000.0 11309700000.0 11309700000.0 11309700000.0 11309700000.0 11309700000.0 11309700000.0 11309700000.0 11309700000.0 11309700000.0 11309700000.0 11309700000.0 11309700000.0 11309700000.0 11309700000.0 11309700000.0 11309700000.0 11309700000.0 11309700000.0 11309700000.0 11309700000.0 11309700000.0 11309700000.0 11309700000.0 11309700000.0 11309700000.0 11309700000.0 11309700000.0 11309700000.0 11309700000.0 11309700000.0 11309700000.0 11309700000.0 11309700000.0 11309700000.0 11309700000.0 11309700000.0 11309700000.0 11309700000.0 11309700000.0 11309700000.0 11309700000.0 11309700000.0 11309700000.0 11309700000.0 11309700000.0 11309700000.0 11309700000.0 11309700000.0 11309700000.0 11309700000.0 11309700000.0 11309700000.0 11309700000.0 11309700000.0 11309700000.0 11309700000.0 11309700000.0 11309700000.0 11309700000.0 11309700000.0 11309700000.0 11309700000.0 11309700000.0 11309700000.0 11309700000.0 11309700000.0 11309700000.0 11309700000.0 11309700000.0 11309700000.0 11309700000.0 11309700000.0 11309700000.0 11309700000.0 11309700000.0 11309700000.0 11309700000.0 11309700000.0 11309700000.0 11309700000.0 11309700000.0 11309700000.0 11309700000.0 11309700000.0 11309700000.0 11309700000.0 11309700000.0 11309700000.0 11309700000.0 11309700000.0 11309700000.0 11309700000.0 11309700000.0 11309700000.0 11309700000.0 11309700000.0 11309700000.0 11309700000.0 11309700000.0 11309700000.0 11309700000.0 11309700000.0 11309700000.0 11309700000.0 11309700000.0 11309700000.0 11309700000.0 11309700000.0 11309700000.0 11309700000.0 11309700000.0 11309700000.0 11309700000.0 11309700000.0 11309700000.0 11309700000.0 11309700000.0 11309700000.0 11309700000.0 11309700000.0 11309700000.0 11309700000.0 11309700000.0 11309700000.0 11309700000.0 11309700000.0 11309700000.0 11309700000.0 11309700000.0 11309700000.0 11309700000.0 11309700000.0 11309700000.0 11309700000.0 11309700000.0 11309700000.0 11309700000.0 11309700000.0 11309700000.0 11309700000.0 11309700000.0 11309700000.0 11309700000.0 11309700000.0 11309700000.0 11309700000.0 11309700000.0 11309700000.0 11309700000.0 11309700000.0 11309700000.0 11309700000.0 11309700000.0 11309700000.0 11309700000.0 11309700000.0 11309700000.0 11309700000.0 11309700000.0 11309700000.0 11309700000.0 11309700000.0 11309700000.0 11309700000.0 11309700000.0 11309700000.0 11309700000.0 11309700000.0 11309700000.0 11309700000.0 11309700000.0 11309700000.0 11309700000.0 11309700000.0 11309700000.0 11309700000.0 11309700000.0 11309700000.0 11309700000.0 11309700000.0 11309700000.0 11309700000.0 11309700000.0 11309700000.0 11309700000.0 11309700000.0 11309700000.0 11309700000.0 11309700000.0 11309700000.0 11309700000.0 11309700000.0 11309700000.0 11309700000.0 11309700000.0 11309700000.0 11309700000.0 11309700000.0 11309700000.0 11309700000.0 11309700000.0 11309700000.0 11309700000.0 11309700000.0 11309700000.0 11309700000.0 11309700000.0 11309700000.0 11309700000.0 11309700000.0 11309700000.0 11309700000.0 11309700000.0 11309700000.0 11309700000.0 11309700000.0 11309700000.0 11309700000.0 11309700000.0 11309700000.0 11309700000.0 11309700000.0 11309700000.0 11309700000.0 11309700000.0 11309700000.0 11309700000.0 11309700000.0 11309700000.0 11309700000.0 11309700000.0 11309700000.0 11309700000.0 11309700000.0 11309700000.0 11309700000.0 11309700000.0 11309700000.0 11309700000.0 11309700000.0 11309700000.0 11309700000.0 11309700000.0 11309700000.0 11309700000.0 11309700000.0 11309700000.0 11309700000.0 11309700000.0 11309700000.0 11309700000.0 11309700000.0 11309700000.0 11309700000.0 11309700000.0 11309700000.0 11309700000.0 11309700000.0 11309700000.0 11309700000.0 11309700000.0 11309700000.0 11309700000.0 11309700000.0 11309700000.0 11309700000.0 11309700000.0 11309700000.0 11309700000.0 11309700000.0 11309700000.0 11309700000.0 11309700000.0 11309700000.0 11309700000.0 11309700000.0 11309700000.0 11309700000.0 11309700000.0 11309700000.0 11309700000.0 11309700000.0 11309700000.0 11309700000.0 11309700000.0 11309700000.0 11309700000.0 11309700000.0 11309700000.0 11309700000.0 11309700000.0 11309700000.0 11309700000.0 11309700000.0 11309700000.0 11309700000.0 11309700000.0 11309700000.0 11309700000.0 11309700000.0 11309700000.0 11309700000.0 11309700000.0 11309700000.0 11309700000.0 11309700000.0 11309700000.0 11309700000.0 11309700000.0 11309700000.0 11309700000.0 11309700000.0 11309700000.0 11309700000.0 11309700000.0 11309700000.0 11309700000.0 11309700000.0 11309700000.0 11309700000.0 11309700000.0 11309700000.0 11309700000.0 11309700000.0 11309700000.0 11309700000.0 11309700000.0 11309700000.0 11309700000.0 11309700000.0 11309700000.0 11309700000.0 11309700000.0 11309700000.0 11309700000.0 11309700000.0 11309700000.0 11309700000.0 11309700000.0 11309700000.0 11309700000.0 11309700000.0 11309700000.0 11309700000.0 11309700000.0 11309700000.0 11309700000.0 11309700000.0 11309700000.0 11309700000.0 11309700000.0 11309700000.0 11309700000.0 11309700000.0 11309700000.0 11309700000.0 11309700000.0 11309700000.0 11309700000.0 11309700000.0 11309700000.0 11309700000.0 11309700000.0 11309700000.0 11309700000.0 11309700000.0 11309700000.0 11309700000.0 11309700000.0 11309700000.0 11309700000.0 11309700000.0 11309700000.0 11309700000.0 11309700000.0 11309700000.0 11309700000.0 11309700000.0 11309700000.0 11309700000.0 11309700000.0 11309700000.0 11309700000.0 11309700000.0 11309700000.0 11309700000.0 11309700000.0 11309700000.0 11309700000.0 11309700000.0 11309700000.0 11309700000.0 11309700000.0 11309700000.0 11309700000.0 11309700000.0 11309700000.0 11309700000.0 11309700000.0 11309700000.0 11309700000.0 11309700000.0 11309700000.0 11309700000.0 11309700000.0 11309700000.0 11309700000.0 11309700000.0 11309700000.0 11309700000.0 11309700000.0 11309700000.0 11309700000.0 11309700000.0 11309700000.0 11309700000.0 11309700000.0 11309700000.0 11309700000.0 11309700000.0 11309700000.0 11309700000.0 11309700000.0 11309700000.0 11309700000.0 11309700000.0 11309700000.0 11309700000.0 11309700000.0 11309700000.0 11309700000.0 11309700000.0 11309700000.0 11309700000.0 11309700000.0 11309700000.0 11309700000.0 11309700000.0 11309700000.0 11309700000.0 11309700000.0 11309700000.0 11309700000.0 11309700000.0 11309700000.0 11309700000.0 11309700000.0 11309700000.0 11309700000.0 11309700000.0 11309700000.0 11309700000.0 11309700000.0 11309700000.0 11309700000.0 11309700000.0 11309700000.0 11309700000.0 11309700000.0 11309700000.0 11309700000.0 11309700000.0 11309700000.0 11309700000.0 11309700000.0 11309700000.0 11309700000.0 11309700000.0 11309700000.0 11309700000.0 11309700000.0 11309700000.0 11309700000.0 11309700000.0 11309700000.0 11309700000.0 11309700000.0 11309700000.0 11309700000.0 11309700000.0 11309700000.0 11309700000.0 11309700000.0 11309700000.0 11309700000.0 11309700000.0 11309700000.0 11309700000.0 11309700000.0 11309700000.0 11309700000.0 11309700000.0 11309700000.0 11309700000.0 11309700000.0 11309700000.0 11309700000.0 11309700000.0 11309700000.0 11309700000.0 11309700000.0 11309700000.0 11309700000.0 11309700000.0 11309700000.0 11309700000.0 11309700000.0 11309700000.0 11309700000.0 11309700000.0 11309700000.0 11309700000.0 11309700000.0 11309700000.0 11309700000.0 11309700000.0 11309700000.0 11309700000.0 11309700000.0 11309700000.0 11309700000.0 11309700000.0 11309700000.0 11309700000.0 11309700000.0 11309700000.0 11309700000.0 11309700000.0 11309700000.0 11309700000.0 11309700000.0 11309700000.0 11309700000.0 11309700000.0 11309700000.0 11309700000.0 11309700000.0 11309700000.0 11309700000.0 11309700000.0 11309700000.0 11309700000.0 11309700000.0 11309700000.0 11309700000.0 11309700000.0 11309700000.0 11309700000.0 11309700000.0 11309700000.0 11309700000.0 11309700000.0 11309700000.0 11309700000.0 11309700000.0 11309700000.0 11309700000.0 11309700000.0 11309700000.0 11309700000.0 11309700000.0 11309700000.0 11309700000.0 11309700000.0 11309700000.0 11309700000.0 11309700000.0 11309700000.0 11309700000.0 11309700000.0 11309700000.0 11309700000.0 11309700000.0 11309700000.0 11309700000.0 11309700000.0 11309700000.0 11309700000.0 11309700000.0 11309700000.0 11309700000.0 11309700000.0 11309700000.0 11309700000.0 11309700000.0 11309700000.0 11309700000.0 11309700000.0 11309700000.0 11309700000.0 11309700000.0 11309700000.0 11309700000.0 11309700000.0 11309700000.0 11309700000.0 11309700000.0 11309700000.0 11309700000.0 11309700000.0 11309700000.0 11309700000.0 11309700000.0 11309700000.0 11309700000.0 11309700000.0 11309700000.0 11309700000.0 11309700000.0 11309700000.0 11309700000.0 11309700000.0 11309700000.0 11309700000.0 11309700000.0 11309700000.0 11309700000.0 11309700000.0 11309700000.0 11309700000.0 11309700000.0 11309700000.0 11309700000.0 11309700000.0 11309700000.0 11309700000.0 11309700000.0 11309700000.0 11309700000.0 11309700000.0 11309700000.0 11309700000.0 11309700000.0 11309700000.0 11309700000.0 11309700000.0 11309700000.0 11309700000.0 11309700000.0 11309700000.0 11309700000.0 11309700000.0 11309700000.0 11309700000.0 11309700000.0 11309700000.0 11309700000.0 11309700000.0 11309700000.0 11309700000.0 11309700000.0 11309700000.0 11309700000.0 11309700000.0 11309700000.0 11309700000.0 11309700000.0 11309700000.0 11309700000.0 11309700000.0 11309700000.0 11309700000.0 11309700000.0 11309700000.0 11309700000.0 11309700000.0 11309700000.0 11309700000.0 11309700000.0 11309700000.0 11309700000.0 11309700000.0 11309700000.0 11309700000.0 11309700000.0 11309700000.0 11309700000.0 11309700000.0 11309700000.0 11309700000.0 11309700000.0 11309700000.0 11309700000.0 11309700000.0 11309700000.0 11309700000.0 11309700000.0 11309700000.0 11309700000.0 11309700000.0 11309700000.0 11309700000.0 11309700000.0 11309700000.0 11309700000.0 11309700000.0 11309700000.0 11309700000.0 11309700000.0 11309700000.0 11309700000.0 11309700000.0 11309700000.0 11309700000.0 11309700000.0 11309700000.0 11309700000.0 11309700000.0 11309700000.0 11309700000.0 11309700000.0 11309700000.0 11309700000.0 11309700000.0 11309700000.0 11309700000.0 11309700000.0 11309700000.0 11309700000.0 11309700000.0 11309700000.0 11309700000.0 11309700000.0 11309700000.0 11309700000.0 11309700000.0 11309700000.0 11309700000.0 11309700000.0 11309700000.0 11309700000.0 11309700000.0 11309700000.0 11309700000.0 11309700000.0 11309700000.0 11309700000.0 11309700000.0 11309700000.0 11309700000.0 11309700000.0 11309700000.0 11309700000.0 11309700000.0 11309700000.0 11309700000.0 11309700000.0 11309700000.0 11309700000.0 11309700000.0 11309700000.0 11309700000.0 11309700000.0 11309700000.0 11309700000.0 11309700000.0 11309700000.0 11309700000.0 11309700000.0 11309700000.0 11309700000.0 11309700000.0 11309700000.0 11309700000.0 11309700000.0 11309700000.0 11309700000.0 11309700000.0 11309700000.0 11309700000.0 11309700000.0 11309700000.0 11309700000.0 11309700000.0 11309700000.0 11309700000.0 11309700000.0 11309700000.0 11309700000.0 11309700000.0 11309700000.0 11309700000.0 11309700000.0 11309700000.0 11309700000.0 11309700000.0 11309700000.0 11309700000.0 11309700000.0 11309700000.0 11309700000.0 11309700000.0 11309700000.0 11309700000.0 11309700000.0 11309700000.0 11309700000.0 11309700000.0 11309700000.0 11309700000.0 11309700000.0 11309700000.0 11309700000.0 11309700000.0 11309700000.0 11309700000.0 11309700000.0 11309700000.0 11309700000.0 11309700000.0 11309700000.0 11309700000.0 11309700000.0 11309700000.0 11309700000.0 11309700000.0 11309700000.0 11309700000.0 11309700000.0 11309700000.0 11309700000.0 11309700000.0 11309700000.0 11309700000.0 11309700000.0 11309700000.0 11309700000.0 11309700000.0 11309700000.0 11309700000.0 11309700000.0 11309700000.0 11309700000.0 11309700000.0 11309700000.0 11309700000.0 11309700000.0 11309700000.0 11309700000.0 11309700000.0 11309700000.0 11309700000.0 11309700000.0 11309700000.0 11309700000.0 11309700000.0 11309700000.0 11309700000.0 11309700000.0 11309700000.0 11309700000.0 11309700000.0 11309700000.0 11309700000.0 11309700000.0 11309700000.0 11309700000.0 11309700000.0 11309700000.0 11309700000.0 11309700000.0 11309700000.0 11309700000.0 11309700000.0 11309700000.0 11309700000.0 11309700000.0 11309700000.0 11309700000.0 11309700000.0 11309700000.0 11309700000.0 11309700000.0 11309700000.0 11309700000.0 11309700000.0 11309700000.0 11309700000.0 11309700000.0 11309700000.0 11309700000.0 11309700000.0 11309700000.0 11309700000.0 11309700000.0 11309700000.0 11309700000.0 11309700000.0 11309700000.0 11309700000.0 11309700000.0 11309700000.0 11309700000.0 11309700000.0 11309700000.0 11309700000.0 11309700000.0 11309700000.0 11309700000.0 11309700000.0 11309700000.0 11309700000.0 11309700000.0 11309700000.0 11309700000.0 11309700000.0 11309700000.0 11309700000.0 11309700000.0 11309700000.0 11309700000.0 11309700000.0 11309700000.0 11309700000.0 11309700000.0 11309700000.0 11309700000.0 11309700000.0 11309700000.0 11309700000.0 11309700000.0 11309700000.0 11309700000.0 11309700000.0 11309700000.0 11309700000.0 11309700000.0 11309700000.0 11309700000.0 11309700000.0 11309700000.0 11309700000.0 11309700000.0 11309700000.0 11309700000.0 11309700000.0 11309700000.0 11309700000.0 11309700000.0 11309700000.0 11309700000.0 11309700000.0 11309700000.0 11309700000.0 11309700000.0 11309700000.0 11309700000.0 11309700000.0 11309700000.0 11309700000.0 11309700000.0 11309700000.0 11309700000.0 11309700000.0 11309700000.0 11309700000.0 11309700000.0 11309700000.0 11309700000.0 11309700000.0 11309700000.0 11309700000.0 11309700000.0 11309700000.0 11309700000.0 11309700000.0 11309700000.0 11309700000.0 11309700000.0 11309700000.0 11309700000.0 11309700000.0 11309700000.0 11309700000.0 11309700000.0 11309700000.0 11309700000.0 11309700000.0 11309700000.0 11309700000.0 11309700000.0 11309700000.0 11309700000.0 11309700000.0 11309700000.0 11309700000.0 11309700000.0 11309700000.0 11309700000.0 11309700000.0 11309700000.0 11309700000.0 11309700000.0 11309700000.0 11309700000.0 11309700000.0 11309700000.0 11309700000.0 11309700000.0 11309700000.0 11309700000.0 11309700000.0 11309700000.0 11309700000.0 11309700000.0 11309700000.0 11309700000.0 11309700000.0 11309700000.0 11309700000.0 11309700000.0 11309700000.0 11309700000.0 11309700000.0 11309700000.0 11309700000.0 11309700000.0 11309700000.0 11309700000.0 11309700000.0 11309700000.0 11309700000.0 11309700000.0 11309700000.0 11309700000.0 11309700000.0 11309700000.0 11309700000.0 11309700000.0 11309700000.0 11309700000.0 11309700000.0 11309700000.0 11309700000.0 11309700000.0 11309700000.0 11309700000.0 11309700000.0 11309700000.0 11309700000.0 11309700000.0 11309700000.0 11309700000.0 11309700000.0 11309700000.0 11309700000.0 11309700000.0 11309700000.0 11309700000.0 11309700000.0 11309700000.0 11309700000.0 11309700000.0 11309700000.0 11309700000.0 11309700000.0 11309700000.0 11309700000.0 11309700000.0 11309700000.0 11309700000.0 11309700000.0 11309700000.0 11309700000.0 11309700000.0 11309700000.0 11309700000.0 11309700000.0 11309700000.0 11309700000.0 11309700000.0 11309700000.0 11309700000.0 11309700000.0 11309700000.0 11309700000.0 11309700000.0 11309700000.0 11309700000.0 11309700000.0 11309700000.0 11309700000.0 11309700000.0 11309700000.0 11309700000.0 11309700000.0 11309700000.0 11309700000.0 11309700000.0 11309700000.0 11309700000.0 11309700000.0 11309700000.0 11309700000.0 11309700000.0 11309700000.0 11309700000.0 11309700000.0 11309700000.0 11309700000.0 11309700000.0 11309700000.0 11309700000.0 11309700000.0 11309700000.0 11309700000.0 11309700000.0 11309700000.0 11309700000.0 11309700000.0 11309700000.0 11309700000.0 11309700000.0 11309700000.0 11309700000.0 11309700000.0 11309700000.0 11309700000.0 11309700000.0 11309700000.0 11309700000.0 11309700000.0 11309700000.0 11309700000.0 11309700000.0 11309700000.0 11309700000.0 11309700000.0 11309700000.0 11309700000.0 11309700000.0 11309700000.0 11309700000.0 11309700000.0 11309700000.0 11309700000.0 11309700000.0 11309700000.0 11309700000.0 11309700000.0 11309700000.0 11309700000.0 11309700000.0 11309700000.0 11309700000.0 11309700000.0 11309700000.0 11309700000.0 11309700000.0 11309700000.0 11309700000.0 11309700000.0 11309700000.0 11309700000.0 11309700000.0 11309700000.0 11309700000.0 11309700000.0 11309700000.0 11309700000.0 11309700000.0 11309700000.0 11309700000.0 11309700000.0 11309700000.0 11309700000.0 11309700000.0 11309700000.0 11309700000.0 11309700000.0 11309700000.0 11309700000.0 11309700000.0 11309700000.0 11309700000.0 11309700000.0 11309700000.0 11309700000.0 11309700000.0 11309700000.0 11309700000.0 11309700000.0 11309700000.0 11309700000.0 11309700000.0 11309700000.0 11309700000.0 11309700000.0 11309700000.0 11309700000.0 11309700000.0 11309700000.0 11309700000.0 11309700000.0 11309700000.0 11309700000.0 11309700000.0 11309700000.0 11309700000.0 11309700000.0 11309700000.0 11309700000.0 11309700000.0 11309700000.0 11309700000.0 11309700000.0 11309700000.0 11309700000.0 11309700000.0 11309700000.0 11309700000.0 11309700000.0 11309700000.0 11309700000.0 11309700000.0 11309700000.0 11309700000.0 11309700000.0 11309700000.0 11309700000.0 11309700000.0 11309700000.0 11309700000.0 11309700000.0 11309700000.0 11309700000.0 11309700000.0 11309700000.0 11309700000.0 11309700000.0 11309700000.0 11309700000.0 11309700000.0 11309700000.0 11309700000.0 11309700000.0 11309700000.0 11309700000.0 11309700000.0 11309700000.0 11309700000.0 11309700000.0 11309700000.0 11309700000.0 11309700000.0 11309700000.0 11309700000.0 11309700000.0 11309700000.0 11309700000.0 11309700000.0 11309700000.0 11309700000.0 11309700000.0 11309700000.0 11309700000.0 11309700000.0 11309700000.0 11309700000.0 11309700000.0 11309700000.0 11309700000.0 11309700000.0 11309700000.0 11309700000.0 11309700000.0 11309700000.0 11309700000.0 11309700000.0 11309700000.0 11309700000.0 11309700000.0 11309700000.0 11309700000.0 11309700000.0 11309700000.0 11309700000.0 11309700000.0 11309700000.0 11309700000.0 11309700000.0 11309700000.0 11309700000.0 11309700000.0 11309700000.0 11309700000.0 11309700000.0 11309700000.0 11309700000.0 11309700000.0 11309700000.0 11309700000.0 11309700000.0 11309700000.0 11309700000.0 11309700000.0 11309700000.0 11309700000.0 11309700000.0 11309700000.0 11309700000.0 11309700000.0 11309700000.0 11309700000.0 11309700000.0 11309700000.0 11309700000.0 11309700000.0 11309700000.0 11309700000.0 11309700000.0 11309700000.0 11309700000.0 11309700000.0 11309700000.0 11309700000.0 11309700000.0 11309700000.0 11309700000.0 11309700000.0 11309700000.0 11309700000.0 11309700000.0 11309700000.0 11309700000.0 11309700000.0 11309700000.0 11309700000.0 11309700000.0 11309700000.0 11309700000.0 11309700000.0 11309700000.0 11309700000.0 11309700000.0 11309700000.0 11309700000.0 11309700000.0 11309700000.0 11309700000.0 11309700000.0 11309700000.0 11309700000.0 11309700000.0 11309700000.0 11309700000.0 11309700000.0 11309700000.0 11309700000.0 11309700000.0 11309700000.0 11309700000.0 11309700000.0 11309700000.0 11309700000.0 11309700000.0 11309700000.0 11309700000.0 11309700000.0 11309700000.0 11309700000.0 11309700000.0 11309700000.0 11309700000.0 11309700000.0 11309700000.0 11309700000.0 11309700000.0 11309700000.0 11309700000.0 11309700000.0 11309700000.0 11309700000.0 11309700000.0 11309700000.0 11309700000.0 11309700000.0 11309700000.0 11309700000.0 11309700000.0 11309700000.0 11309700000.0 11309700000.0 11309700000.0 11309700000.0 11309700000.0 11309700000.0 11309700000.0 11309700000.0 11309700000.0 11309700000.0 11309700000.0 11309700000.0 11309700000.0 11309700000.0 11309700000.0 11309700000.0 11309700000.0 11309700000.0 11309700000.0 11309700000.0 11309700000.0 11309700000.0 11309700000.0 11309700000.0 11309700000.0 11309700000.0 11309700000.0 11309700000.0 11309700000.0 11309700000.0 11309700000.0 11309700000.0 11309700000.0 11309700000.0 11309700000.0 11309700000.0 11309700000.0 11309700000.0 11309700000.0 11309700000.0 11309700000.0 11309700000.0 11309700000.0 11309700000.0 11309700000.0 11309700000.0 11309700000.0 11309700000.0 11309700000.0 11309700000.0 11309700000.0 11309700000.0 11309700000.0 11309700000.0 11309700000.0 11309700000.0 11309700000.0 11309700000.0 11309700000.0 11309700000.0 11309700000.0 11309700000.0 11309700000.0 11309700000.0 11309700000.0 11309700000.0 11309700000.0 11309700000.0 11309700000.0 11309700000.0 11309700000.0 11309700000.0 11309700000.0 11309700000.0 11309700000.0 11309700000.0 11309700000.0 11309700000.0 11309700000.0 11309700000.0 11309700000.0 11309700000.0 11309700000.0 11309700000.0 11309700000.0 11309700000.0 11309700000.0 11309700000.0 11309700000.0 11309700000.0 11309700000.0 11309700000.0 11309700000.0 11309700000.0 11309700000.0 11309700000.0 11309700000.0 11309700000.0 11309700000.0 11309700000.0 11309700000.0 11309700000.0 11309700000.0 11309700000.0 11309700000.0 11309700000.0 11309700000.0 11309700000.0 11309700000.0 11309700000.0 11309700000.0 11309700000.0 11309700000.0 11309700000.0 11309700000.0 11309700000.0 11309700000.0 11309700000.0 11309700000.0 11309700000.0 11309700000.0 11309700000.0 11309700000.0 11309700000.0 11309700000.0 11309700000.0 11309700000.0 11309700000.0 11309700000.0 11309700000.0 11309700000.0 11309700000.0 11309700000.0 11309700000.0 11309700000.0 11309700000.0 11309700000.0 11309700000.0 11309700000.0 11309700000.0 11309700000.0 11309700000.0 11309700000.0 11309700000.0 11309700000.0 11309700000.0 11309700000.0 11309700000.0 11309700000.0 11309700000.0 11309700000.0 11309700000.0 11309700000.0 11309700000.0 11309700000.0 11309700000.0 11309700000.0 11309700000.0 11309700000.0 11309700000.0 11309700000.0 11309700000.0 11309700000.0 11309700000.0 11309700000.0 11309700000.0 11309700000.0 11309700000.0 11309700000.0 11309700000.0 11309700000.0 11309700000.0 11309700000.0 11309700000.0 11309700000.0 11309700000.0 11309700000.0 11309700000.0 11309700000.0 11309700000.0 11309700000.0 11309700000.0 11309700000.0 11309700000.0 11309700000.0 11309700000.0 11309700000.0 11309700000.0 11309700000.0 11309700000.0 11309700000.0 11309700000.0 11309700000.0 11309700000.0 11309700000.0 11309700000.0 11309700000.0 11309700000.0 11309700000.0 11309700000.0 11309700000.0 11309700000.0 11309700000.0 11309700000.0 11309700000.0 11309700000.0 11309700000.0 11309700000.0 11309700000.0 11309700000.0 11309700000.0 11309700000.0 11309700000.0 11309700000.0 11309700000.0 11309700000.0 11309700000.0 11309700000.0 11309700000.0 11309700000.0 11309700000.0 11309700000.0 11309700000.0 11309700000.0 11309700000.0 11309700000.0 11309700000.0 11309700000.0 11309700000.0 11309700000.0 11309700000.0 11309700000.0 11309700000.0 11309700000.0 11309700000.0 11309700000.0 11309700000.0 11309700000.0 11309700000.0 11309700000.0 11309700000.0 11309700000.0 11309700000.0 11309700000.0 11309700000.0 11309700000.0 11309700000.0 11309700000.0 11309700000.0 11309700000.0 11309700000.0 11309700000.0 11309700000.0 11309700000.0 11309700000.0 11309700000.0 11309700000.0 11309700000.0 11309700000.0 11309700000.0 11309700000.0 11309700000.0 11309700000.0 11309700000.0 11309700000.0 11309700000.0 11309700000.0 11309700000.0 11309700000.0 11309700000.0 11309700000.0 11309700000.0 11309700000.0 11309700000.0 11309700000.0 11309700000.0 11309700000.0 11309700000.0 11309700000.0 11309700000.0 11309700000.0 11309700000.0 11309700000.0 11309700000.0 11309700000.0 11309700000.0 11309700000.0 11309700000.0 11309700000.0 11309700000.0 11309700000.0 11309700000.0 11309700000.0 11309700000.0 11309700000.0 11309700000.0 11309700000.0 11309700000.0 11309700000.0 11309700000.0 11309700000.0 11309700000.0 11309700000.0 11309700000.0 11309700000.0 11309700000.0 11309700000.0 11309700000.0 11309700000.0 11309700000.0 11309700000.0 11309700000.0 11309700000.0 11309700000.0 11309700000.0 11309700000.0 11309700000.0 11309700000.0 11309700000.0 11309700000.0 11309700000.0 11309700000.0 11309700000.0 11309700000.0 11309700000.0 11309700000.0 11309700000.0 11309700000.0 11309700000.0 11309700000.0 11309700000.0 11309700000.0 11309700000.0 11309700000.0 11309700000.0 11309700000.0 11309700000.0 11309700000.0 11309700000.0 11309700000.0 11309700000.0 11309700000.0 11309700000.0 11309700000.0 11309700000.0 11309700000.0 11309700000.0 11309700000.0 11309700000.0 11309700000.0 11309700000.0 11309700000.0 11309700000.0 11309700000.0 11309700000.0 11309700000.0 11309700000.0 11309700000.0 11309700000.0 11309700000.0 11309700000.0 11309700000.0 11309700000.0 11309700000.0 11309700000.0 11309700000.0 11309700000.0 11309700000.0 11309700000.0 11309700000.0 11309700000.0 11309700000.0 11309700000.0 11309700000.0 11309700000.0 11309700000.0 11309700000.0 11309700000.0 11309700000.0 11309700000.0 11309700000.0 11309700000.0 11309700000.0 11309700000.0 11309700000.0 11309700000.0 11309700000.0 11309700000.0 11309700000.0 11309700000.0 11309700000.0 11309700000.0 11309700000.0 11309700000.0 11309700000.0 11309700000.0 11309700000.0 11309700000.0 11309700000.0 11309700000.0 11309700000.0 11309700000.0 11309700000.0 11309700000.0 11309700000.0 11309700000.0 11309700000.0 11309700000.0 11309700000.0 11309700000.0 11309700000.0 11309700000.0 11309700000.0 11309700000.0 11309700000.0 11309700000.0 11309700000.0 11309700000.0 11309700000.0 11309700000.0 11309700000.0 11309700000.0 11309700000.0 11309700000.0 11309700000.0 11309700000.0 11309700000.0 11309700000.0 11309700000.0 11309700000.0 11309700000.0 11309700000.0 11309700000.0 11309700000.0 11309700000.0 11309700000.0 11309700000.0 11309700000.0 11309700000.0 11309700000.0 11309700000.0 11309700000.0 11309700000.0 11309700000.0 11309700000.0 11309700000.0 11309700000.0 11309700000.0 11309700000.0 11309700000.0 11309700000.0 11309700000.0 11309700000.0 11309700000.0 11309700000.0 11309700000.0 11309700000.0 11309700000.0 11309700000.0 11309700000.0 11309700000.0 11309700000.0 11309700000.0 11309700000.0 11309700000.0 11309700000.0 11309700000.0 11309700000.0 11309700000.0 11309700000.0 11309700000.0 11309700000.0 11309700000.0 11309700000.0 11309700000.0 11309700000.0 11309700000.0 11309700000.0 11309700000.0 11309700000.0 11309700000.0 11309700000.0 11309700000.0 11309700000.0 11309700000.0 11309700000.0 11309700000.0 11309700000.0 11309700000.0 11309700000.0 11309700000.0 11309700000.0 11309700000.0 11309700000.0 11309700000.0 11309700000.0 11309700000.0 11309700000.0 11309700000.0 11309700000.0 11309700000.0 11309700000.0 11309700000.0 11309700000.0 11309700000.0 11309700000.0 11309700000.0 11309700000.0 11309700000.0 11309700000.0 11309700000.0 11309700000.0 11309700000.0 11309700000.0 11309700000.0 11309700000.0 11309700000.0 11309700000.0 11309700000.0 11309700000.0 11309700000.0 11309700000.0 11309700000.0 11309700000.0 11309700000.0 11309700000.0 11309700000.0 11309700000.0 11309700000.0 11309700000.0 11309700000.0 11309700000.0 11309700000.0 11309700000.0 11309700000.0 11309700000.0 11309700000.0 11309700000.0 11309700000.0 11309700000.0 11309700000.0 11309700000.0 11309700000.0 11309700000.0 11309700000.0 11309700000.0 11309700000.0 11309700000.0 11309700000.0 11309700000.0 11309700000.0 11309700000.0 11309700000.0 11309700000.0 11309700000.0 11309700000.0 11309700000.0 11309700000.0 11309700000.0 11309700000.0 11309700000.0 11309700000.0 11309700000.0 11309700000.0 11309700000.0 11309700000.0 11309700000.0 11309700000.0 11309700000.0 11309700000.0 11309700000.0 11309700000.0 11309700000.0 11309700000.0 11309700000.0 11309700000.0 11309700000.0 11309700000.0 11309700000.0 11309700000.0 11309700000.0 11309700000.0 11309700000.0 11309700000.0 11309700000.0 11309700000.0 11309700000.0 11309700000.0 11309700000.0 11309700000.0 11309700000.0 11309700000.0 11309700000.0 11309700000.0 11309700000.0 11309700000.0 11309700000.0 11309700000.0 11309700000.0 11309700000.0 11309700000.0 11309700000.0 11309700000.0 11309700000.0 11309700000.0 11309700000.0 11309700000.0 11309700000.0 11309700000.0 11309700000.0 11309700000.0 11309700000.0 11309700000.0 11309700000.0 11309700000.0 11309700000.0 11309700000.0 11309700000.0 11309700000.0 11309700000.0 11309700000.0 11309700000.0 11309700000.0 11309700000.0 11309700000.0 11309700000.0 11309700000.0 11309700000.0 11309700000.0 11309700000.0 11309700000.0 11309700000.0 11309700000.0 11309700000.0 11309700000.0 11309700000.0 11309700000.0 11309700000.0 11309700000.0 11309700000.0 11309700000.0 11309700000.0 11309700000.0 11309700000.0 11309700000.0 11309700000.0 11309700000.0 11309700000.0 11309700000.0 11309700000.0 11309700000.0 11309700000.0 11309700000.0 11309700000.0 11309700000.0 11309700000.0 11309700000.0 11309700000.0 11309700000.0 11309700000.0 11309700000.0 11309700000.0 11309700000.0 11309700000.0 11309700000.0 11309700000.0 11309700000.0 11309700000.0 11309700000.0 11309700000.0 11309700000.0 11309700000.0 11309700000.0 11309700000.0 11309700000.0 11309700000.0 11309700000.0 11309700000.0 11309700000.0 11309700000.0 11309700000.0 11309700000.0 11309700000.0 11309700000.0 11309700000.0 11309700000.0 11309700000.0 11309700000.0 11309700000.0 11309700000.0 11309700000.0 11309700000.0 11309700000.0 11309700000.0 11309700000.0 11309700000.0 11309700000.0 11309700000.0 11309700000.0 11309700000.0 11309700000.0 11309700000.0 11309700000.0 11309700000.0 11309700000.0 11309700000.0 11309700000.0 11309700000.0 11309700000.0 11309700000.0 11309700000.0 11309700000.0 11309700000.0 11309700000.0 11309700000.0 11309700000.0 11309700000.0 11309700000.0 11309700000.0 11309700000.0 11309700000.0 11309700000.0 11309700000.0 11309700000.0 11309700000.0 11309700000.0 11309700000.0 11309700000.0 11309700000.0 11309700000.0 11309700000.0 11309700000.0 11309700000.0 11309700000.0 11309700000.0 11309700000.0 11309700000.0 11309700000.0 11309700000.0 11309700000.0 11309700000.0 11309700000.0 11309700000.0 11309700000.0 11309700000.0 11309700000.0 11309700000.0 11309700000.0 11309700000.0 11309700000.0 11309700000.0 11309700000.0 11309700000.0 11309700000.0 11309700000.0 11309700000.0 11309700000.0 11309700000.0 11309700000.0 11309700000.0 11309700000.0 11309700000.0 11309700000.0 11309700000.0 11309700000.0 11309700000.0 11309700000.0 11309700000.0 11309700000.0 11309700000.0 11309700000.0 11309700000.0 11309700000.0 11309700000.0 11309700000.0 11309700000.0 11309700000.0 11309700000.0 11309700000.0 11309700000.0 11309700000.0 11309700000.0 11309700000.0 11309700000.0 11309700000.0 11309700000.0 11309700000.0 11309700000.0 11309700000.0 11309700000.0 11309700000.0 11309700000.0 11309700000.0 11309700000.0 11309700000.0 11309700000.0 11309700000.0 11309700000.0 11309700000.0 11309700000.0 11309700000.0 11309700000.0 11309700000.0 11309700000.0 11309700000.0 11309700000.0 11309700000.0 11309700000.0 11309700000.0 11309700000.0 11309700000.0 11309700000.0 11309700000.0 11309700000.0 11309700000.0 11309700000.0 11309700000.0 11309700000.0 11309700000.0 11309700000.0 11309700000.0 11309700000.0 11309700000.0 11309700000.0 11309700000.0 11309700000.0 11309700000.0 11309700000.0 11309700000.0 11309700000.0 11309700000.0 11309700000.0 11309700000.0 11309700000.0 11309700000.0 11309700000.0 11309700000.0 11309700000.0 11309700000.0 11309700000.0 11309700000.0 11309700000.0 11309700000.0 11309700000.0 11309700000.0 11309700000.0 11309700000.0 11309700000.0 11309700000.0 11309700000.0 11309700000.0 11309700000.0 11309700000.0 11309700000.0 11309700000.0 11309700000.0 11309700000.0 11309700000.0 11309700000.0 11309700000.0 11309700000.0 11309700000.0 11309700000.0 11309700000.0 11309700000.0 11309700000.0 11309700000.0 11309700000.0 11309700000.0 11309700000.0 11309700000.0 11309700000.0 11309700000.0 11309700000.0 11309700000.0 11309700000.0 11309700000.0 11309700000.0 11309700000.0 11309700000.0 11309700000.0 11309700000.0 11309700000.0 11309700000.0 11309700000.0 11309700000.0 11309700000.0 11309700000.0 11309700000.0 11309700000.0 11309700000.0 11309700000.0 11309700000.0 11309700000.0 11309700000.0 11309700000.0 11309700000.0 11309700000.0 11309700000.0 11309700000.0 11309700000.0 11309700000.0 11309700000.0 11309700000.0 11309700000.0 11309700000.0 11309700000.0 11309700000.0 11309700000.0 11309700000.0 11309700000.0 11309700000.0 11309700000.0 11309700000.0 11309700000.0 11309700000.0 11309700000.0 11309700000.0 11309700000.0 11309700000.0 11309700000.0 11309700000.0 11309700000.0 11309700000.0 11309700000.0 11309700000.0 11309700000.0 11309700000.0 11309700000.0 11309700000.0 11309700000.0 11309700000.0 11309700000.0 11309700000.0 11309700000.0 11309700000.0 11309700000.0 11309700000.0 11309700000.0 11309700000.0 11309700000.0 11309700000.0 11309700000.0 11309700000.0 11309700000.0 11309700000.0 11309700000.0 11309700000.0 11309700000.0 11309700000.0 11309700000.0 11309700000.0 11309700000.0 11309700000.0 11309700000.0 11309700000.0 11309700000.0 11309700000.0 11309700000.0 11309700000.0 11309700000.0 11309700000.0 11309700000.0 11309700000.0 11309700000.0 11309700000.0 11309700000.0 11309700000.0 11309700000.0 11309700000.0 11309700000.0 11309700000.0 11309700000.0 11309700000.0 11309700000.0 11309700000.0 11309700000.0 11309700000.0 11309700000.0 11309700000.0 11309700000.0 11309700000.0 11309700000.0 11309700000.0 11309700000.0 11309700000.0 11309700000.0 11309700000.0 11309700000.0 11309700000.0 11309700000.0 11309700000.0 11309700000.0 11309700000.0 11309700000.0 11309700000.0 11309700000.0 11309700000.0 11309700000.0 11309700000.0 11309700000.0 11309700000.0 11309700000.0 11309700000.0 11309700000.0 11309700000.0 11309700000.0 11309700000.0 11309700000.0 11309700000.0 11309700000.0 11309700000.0 11309700000.0 11309700000.0 11309700000.0 11309700000.0 11309700000.0 11309700000.0 11309700000.0 11309700000.0 11309700000.0 11309700000.0 11309700000.0 11309700000.0 11309700000.0 11309700000.0 11309700000.0 11309700000.0 11309700000.0 11309700000.0 11309700000.0 11309700000.0 11309700000.0 11309700000.0 11309700000.0 11309700000.0 11309700000.0 11309700000.0 11309700000.0 11309700000.0 11309700000.0 11309700000.0 11309700000.0 11309700000.0 11309700000.0 11309700000.0 11309700000.0 11309700000.0 11309700000.0 11309700000.0 11309700000.0 11309700000.0 11309700000.0 11309700000.0 11309700000.0 11309700000.0 11309700000.0 11309700000.0 11309700000.0 11309700000.0 11309700000.0 11309700000.0 11309700000.0 11309700000.0 11309700000.0 11309700000.0 11309700000.0 11309700000.0 11309700000.0 11309700000.0 11309700000.0 11309700000.0 11309700000.0 11309700000.0 11309700000.0 11309700000.0 11309700000.0 11309700000.0 11309700000.0 11309700000.0 11309700000.0 11309700000.0 11309700000.0 11309700000.0 11309700000.0 11309700000.0 11309700000.0 11309700000.0 11309700000.0 11309700000.0 11309700000.0 11309700000.0 11309700000.0 11309700000.0 11309700000.0 11309700000.0 11309700000.0 11309700000.0 11309700000.0 11309700000.0 11309700000.0 11309700000.0 11309700000.0 11309700000.0 11309700000.0 11309700000.0 11309700000.0 11309700000.0 11309700000.0 11309700000.0 11309700000.0 11309700000.0 11309700000.0 11309700000.0 11309700000.0 11309700000.0 11309700000.0 11309700000.0 11309700000.0 11309700000.0 11309700000.0 11309700000.0 11309700000.0 11309700000.0 11309700000.0 11309700000.0 11309700000.0 11309700000.0 11309700000.0 11309700000.0 11309700000.0 11309700000.0 11309700000.0 11309700000.0 11309700000.0 11309700000.0 11309700000.0 11309700000.0 11309700000.0 11309700000.0 11309700000.0 11309700000.0 11309700000.0 11309700000.0 11309700000.0 11309700000.0 11309700000.0 11309700000.0 11309700000.0 11309700000.0 11309700000.0 11309700000.0 11309700000.0 11309700000.0 11309700000.0 11309700000.0 11309700000.0 11309700000.0 11309700000.0 11309700000.0 11309700000.0 11309700000.0 11309700000.0 11309700000.0 11309700000.0 11309700000.0 11309700000.0 11309700000.0 11309700000.0 11309700000.0 11309700000.0 11309700000.0 11309700000.0 11309700000.0 11309700000.0 11309700000.0 11309700000.0 11309700000.0 11309700000.0 11309700000.0 11309700000.0 11309700000.0 11309700000.0 11309700000.0 11309700000.0 11309700000.0 11309700000.0 11309700000.0 11309700000.0 11309700000.0 11309700000.0 11309700000.0 11309700000.0 11309700000.0 11309700000.0 11309700000.0 11309700000.0 11309700000.0 11309700000.0 11309700000.0 11309700000.0 11309700000.0 11309700000.0 11309700000.0 11309700000.0 11309700000.0 11309700000.0 11309700000.0 11309700000.0 11309700000.0 11309700000.0 11309700000.0 11309700000.0 11309700000.0 11309700000.0 11309700000.0 11309700000.0 11309700000.0 11309700000.0 11309700000.0 11309700000.0 11309700000.0 11309700000.0 11309700000.0 11309700000.0 11309700000.0 11309700000.0 11309700000.0 11309700000.0 11309700000.0 11309700000.0 11309700000.0 11309700000.0 11309700000.0 11309700000.0 11309700000.0 11309700000.0 11309700000.0 11309700000.0 11309700000.0 11309700000.0 11309700000.0 11309700000.0 11309700000.0 11309700000.0 11309700000.0 11309700000.0 11309700000.0 11309700000.0 11309700000.0 11309700000.0 11309700000.0 11309700000.0 11309700000.0 11309700000.0 11309700000.0 11309700000.0 11309700000.0 11309700000.0 11309700000.0 11309700000.0 11309700000.0 11309700000.0 11309700000.0 11309700000.0 11309700000.0 11309700000.0 11309700000.0 11309700000.0 11309700000.0 11309700000.0 11309700000.0 11309700000.0 11309700000.0 11309700000.0 11309700000.0 11309700000.0 11309700000.0 11309700000.0 11309700000.0 11309700000.0 11309700000.0 11309700000.0 11309700000.0 11309700000.0 11309700000.0 11309700000.0 11309700000.0 11309700000.0 11309700000.0 11309700000.0 11309700000.0 11309700000.0 11309700000.0 11309700000.0 11309700000.0 11309700000.0 11309700000.0 11309700000.0 11309700000.0 11309700000.0 11309700000.0 11309700000.0 11309700000.0 11309700000.0 11309700000.0 11309700000.0 11309700000.0 11309700000.0 11309700000.0 11309700000.0 11309700000.0 11309700000.0 11309700000.0 11309700000.0 11309700000.0 11309700000.0 11309700000.0 11309700000.0 11309700000.0 11309700000.0 11309700000.0 11309700000.0 11309700000.0 11309700000.0 11309700000.0 11309700000.0 11309700000.0 11309700000.0 11309700000.0 11309700000.0 11309700000.0 11309700000.0 11309700000.0 11309700000.0 11309700000.0 11309700000.0 11309700000.0 11309700000.0 11309700000.0 11309700000.0 11309700000.0 11309700000.0 11309700000.0 11309700000.0 11309700000.0 11309700000.0 11309700000.0 11309700000.0 11309700000.0 11309700000.0 11309700000.0 11309700000.0 11309700000.0 11309700000.0 11309700000.0 11309700000.0 11309700000.0 11309700000.0 11309700000.0 11309700000.0 11309700000.0 11309700000.0 11309700000.0 11309700000.0 11309700000.0 11309700000.0 11309700000.0 11309700000.0 11309700000.0 11309700000.0 11309700000.0 11309700000.0 11309700000.0 11309700000.0 11309700000.0 11309700000.0 11309700000.0 11309700000.0 11309700000.0 11309700000.0 11309700000.0 11309700000.0 11309700000.0 11309700000.0 11309700000.0 11309700000.0 11309700000.0 11309700000.0 11309700000.0 11309700000.0 11309700000.0 11309700000.0 11309700000.0 11309700000.0 11309700000.0 11309700000.0 11309700000.0 11309700000.0 11309700000.0 11309700000.0 11309700000.0 11309700000.0 11309700000.0 11309700000.0 11309700000.0 11309700000.0 11309700000.0 11309700000.0 11309700000.0 11309700000.0 11309700000.0 11309700000.0 11309700000.0 11309700000.0 11309700000.0 11309700000.0 11309700000.0 11309700000.0 11309700000.0 11309700000.0 11309700000.0 11309700000.0 11309700000.0 11309700000.0 11309700000.0 11309700000.0 11309700000.0 11309700000.0 11309700000.0 11309700000.0 11309700000.0 11309700000.0 11309700000.0 11309700000.0 11309700000.0 11309700000.0 11309700000.0 11309700000.0 11309700000.0 11309700000.0 11309700000.0 11309700000.0 11309700000.0 11309700000.0 11309700000.0 11309700000.0 11309700000.0 11309700000.0 11309700000.0 11309700000.0 11309700000.0 11309700000.0 11309700000.0 11309700000.0 11309700000.0 11309700000.0 11309700000.0 11309700000.0 11309700000.0 11309700000.0 11309700000.0 11309700000.0 11309700000.0 11309700000.0 11309700000.0 11309700000.0 11309700000.0 11309700000.0 11309700000.0 11309700000.0 11309700000.0 11309700000.0 11309700000.0 11309700000.0 11309700000.0 11309700000.0 11309700000.0 11309700000.0 11309700000.0 11309700000.0 11309700000.0 11309700000.0 11309700000.0 11309700000.0 11309700000.0 11309700000.0 11309700000.0 11309700000.0 11309700000.0 11309700000.0 11309700000.0 11309700000.0 11309700000.0 11309700000.0 11309700000.0 11309700000.0 11309700000.0 11309700000.0 11309700000.0 11309700000.0 11309700000.0 11309700000.0 11309700000.0 11309700000.0 11309700000.0 11309700000.0 11309700000.0 11309700000.0 11309700000.0 11309700000.0 11309700000.0 11309700000.0 11309700000.0 11309700000.0 11309700000.0 11309700000.0 11309700000.0 11309700000.0 11309700000.0 11309700000.0 11309700000.0 11309700000.0 11309700000.0 11309700000.0 11309700000.0 11309700000.0 11309700000.0 11309700000.0 11309700000.0 11309700000.0 11309700000.0 11309700000.0 11309700000.0 11309700000.0 11309700000.0 11309700000.0 11309700000.0 11309700000.0 11309700000.0 11309700000.0 11309700000.0 11309700000.0 11309700000.0 11309700000.0 11309700000.0 11309700000.0 11309700000.0 11309700000.0 11309700000.0 11309700000.0 11309700000.0 11309700000.0 11309700000.0 11309700000.0 11309700000.0 11309700000.0 11309700000.0 11309700000.0 11309700000.0 11309700000.0 11309700000.0 11309700000.0 11309700000.0 11309700000.0 11309700000.0 11309700000.0 11309700000.0 11309700000.0 11309700000.0 11309700000.0 11309700000.0 11309700000.0 11309700000.0 11309700000.0 11309700000.0 11309700000.0 11309700000.0 11309700000.0 11309700000.0 11309700000.0 11309700000.0 11309700000.0 11309700000.0 11309700000.0 11309700000.0 11309700000.0 11309700000.0 11309700000.0 11309700000.0 11309700000.0 11309700000.0 11309700000.0 11309700000.0 11309700000.0 11309700000.0 11309700000.0 11309700000.0 11309700000.0 11309700000.0 11309700000.0 11309700000.0 11309700000.0 11309700000.0 11309700000.0 11309700000.0 11309700000.0 11309700000.0 11309700000.0 11309700000.0 11309700000.0 11309700000.0 11309700000.0 11309700000.0 11309700000.0 11309700000.0 11309700000.0 11309700000.0 11309700000.0 11309700000.0 11309700000.0 11309700000.0 11309700000.0 11309700000.0 11309700000.0 11309700000.0 11309700000.0 11309700000.0 11309700000.0 11309700000.0 11309700000.0 11309700000.0 11309700000.0 11309700000.0 11309700000.0 11309700000.0 11309700000.0 11309700000.0 11309700000.0 11309700000.0 11309700000.0 11309700000.0 11309700000.0 11309700000.0 11309700000.0 11309700000.0 11309700000.0 11309700000.0 11309700000.0 11309700000.0 11309700000.0 11309700000.0 11309700000.0 11309700000.0 11309700000.0 11309700000.0 11309700000.0 11309700000.0 11309700000.0 11309700000.0 11309700000.0 11309700000.0 11309700000.0 11309700000.0 11309700000.0 11309700000.0 11309700000.0 11309700000.0 11309700000.0 11309700000.0 11309700000.0 11309700000.0 11309700000.0 11309700000.0 11309700000.0 11309700000.0 11309700000.0 11309700000.0 11309700000.0 11309700000.0 11309700000.0 11309700000.0 11309700000.0 11309700000.0 11309700000.0 11309700000.0 11309700000.0 11309700000.0 11309700000.0 11309700000.0 11309700000.0 11309700000.0 11309700000.0 11309700000.0 11309700000.0 11309700000.0 11309700000.0 11309700000.0 11309700000.0 11309700000.0 11309700000.0 11309700000.0 11309700000.0 11309700000.0 11309700000.0 11309700000.0 11309700000.0 11309700000.0 11309700000.0 11309700000.0 11309700000.0 11309700000.0 11309700000.0 11309700000.0 11309700000.0 11309700000.0 11309700000.0 11309700000.0 11309700000.0 11309700000.0 11309700000.0 11309700000.0 11309700000.0 11309700000.0 11309700000.0 11309700000.0 11309700000.0 11309700000.0 11309700000.0 11309700000.0 11309700000.0 11309700000.0 11309700000.0 11309700000.0 11309700000.0 11309700000.0 11309700000.0 11309700000.0 11309700000.0 11309700000.0 11309700000.0 11309700000.0 11309700000.0 11309700000.0 11309700000.0 11309700000.0 11309700000.0 11309700000.0 11309700000.0 11309700000.0 11309700000.0 11309700000.0 11309700000.0 11309700000.0 11309700000.0 11309700000.0 11309700000.0 11309700000.0 11309700000.0 11309700000.0 11309700000.0 11309700000.0 11309700000.0 11309700000.0 11309700000.0 11309700000.0 11309700000.0 11309700000.0 11309700000.0 11309700000.0 11309700000.0 11309700000.0 11309700000.0 11309700000.0 11309700000.0 11309700000.0 11309700000.0 11309700000.0 11309700000.0 11309700000.0 11309700000.0 11309700000.0 11309700000.0 11309700000.0 11309700000.0 11309700000.0 11309700000.0 11309700000.0 11309700000.0 11309700000.0 11309700000.0 11309700000.0 11309700000.0 11309700000.0 11309700000.0 11309700000.0 11309700000.0 11309700000.0 11309700000.0 11309700000.0 11309700000.0 11309700000.0 11309700000.0 11309700000.0 11309700000.0 11309700000.0 11309700000.0 11309700000.0 11309700000.0 11309700000.0 11309700000.0 11309700000.0 11309700000.0 11309700000.0 11309700000.0 11309700000.0 11309700000.0 11309700000.0 11309700000.0 11309700000.0 11309700000.0 11309700000.0 11309700000.0 11309700000.0 11309700000.0 11309700000.0 11309700000.0 11309700000.0 11309700000.0 11309700000.0 11309700000.0 11309700000.0 11309700000.0 11309700000.0 11309700000.0 11309700000.0 11309700000.0 11309700000.0 11309700000.0 11309700000.0 11309700000.0 11309700000.0 11309700000.0 11309700000.0 11309700000.0 11309700000.0 11309700000.0 11309700000.0 11309700000.0 11309700000.0 11309700000.0 11309700000.0 11309700000.0 11309700000.0 11309700000.0 11309700000.0 11309700000.0 11309700000.0 11309700000.0 11309700000.0 11309700000.0 11309700000.0 11309700000.0 11309700000.0 11309700000.0 11309700000.0 11309700000.0 11309700000.0 11309700000.0 11309700000.0 11309700000.0 11309700000.0 11309700000.0 11309700000.0 11309700000.0 11309700000.0 11309700000.0 11309700000.0 11309700000.0 11309700000.0 11309700000.0 11309700000.0 11309700000.0 11309700000.0 11309700000.0 11309700000.0 11309700000.0 11309700000.0 11309700000.0 11309700000.0 11309700000.0 11309700000.0 11309700000.0 11309700000.0 11309700000.0 11309700000.0 11309700000.0 11309700000.0 11309700000.0 11309700000.0 11309700000.0 11309700000.0 11309700000.0 11309700000.0 11309700000.0 11309700000.0 11309700000.0 11309700000.0 11309700000.0 11309700000.0 11309700000.0 11309700000.0 11309700000.0 11309700000.0 11309700000.0 11309700000.0 11309700000.0 11309700000.0 11309700000.0 11309700000.0 11309700000.0 11309700000.0 11309700000.0 11309700000.0 11309700000.0 11309700000.0 11309700000.0 11309700000.0 11309700000.0 11309700000.0 11309700000.0 11309700000.0 11309700000.0 11309700000.0 11309700000.0 11309700000.0 11309700000.0 11309700000.0 11309700000.0 11309700000.0 11309700000.0 11309700000.0 11309700000.0 11309700000.0 11309700000.0 11309700000.0 11309700000.0 11309700000.0 11309700000.0 11309700000.0 11309700000.0 11309700000.0 11309700000.0 11309700000.0 11309700000.0 11309700000.0 11309700000.0 11309700000.0 11309700000.0 11309700000.0 11309700000.0 11309700000.0 11309700000.0 11309700000.0 11309700000.0 11309700000.0 11309700000.0 11309700000.0 11309700000.0 11309700000.0 11309700000.0 11309700000.0 11309700000.0 11309700000.0 11309700000.0 11309700000.0 11309700000.0 11309700000.0 11309700000.0 11309700000.0 11309700000.0 11309700000.0 11309700000.0 11309700000.0 11309700000.0 11309700000.0 11309700000.0 11309700000.0 11309700000.0 11309700000.0 11309700000.0 11309700000.0 11309700000.0 11309700000.0 11309700000.0 11309700000.0 11309700000.0 11309700000.0 11309700000.0 11309700000.0 11309700000.0 11309700000.0 11309700000.0 11309700000.0 11309700000.0 11309700000.0 11309700000.0 11309700000.0 11309700000.0 11309700000.0 11309700000.0 11309700000.0 11309700000.0 11309700000.0 11309700000.0 11309700000.0 11309700000.0 11309700000.0 11309700000.0 11309700000.0 11309700000.0 11309700000.0 11309700000.0 11309700000.0 11309700000.0 11309700000.0 11309700000.0 11309700000.0 11309700000.0 11309700000.0 11309700000.0 11309700000.0 11309700000.0 11309700000.0 11309700000.0 11309700000.0 11309700000.0 11309700000.0 11309700000.0 11309700000.0 11309700000.0 11309700000.0 11309700000.0 11309700000.0 11309700000.0 11309700000.0 11309700000.0 11309700000.0 11309700000.0 11309700000.0 11309700000.0 11309700000.0 11309700000.0 11309700000.0 11309700000.0 11309700000.0 11309700000.0 11309700000.0 11309700000.0 11309700000.0 11309700000.0 11309700000.0 11309700000.0 11309700000.0 11309700000.0 11309700000.0 11309700000.0 11309700000.0 11309700000.0 11309700000.0 11309700000.0 11309700000.0 11309700000.0 11309700000.0 11309700000.0 11309700000.0 11309700000.0 11309700000.0 11309700000.0 11309700000.0 11309700000.0 11309700000.0 11309700000.0 11309700000.0 11309700000.0 11309700000.0 11309700000.0 11309700000.0 11309700000.0 11309700000.0 11309700000.0 11309700000.0 11309700000.0 11309700000.0 11309700000.0 11309700000.0 11309700000.0 11309700000.0 11309700000.0 11309700000.0 11309700000.0 11309700000.0 11309700000.0 11309700000.0 11309700000.0 11309700000.0 11309700000.0 11309700000.0 11309700000.0 11309700000.0 11309700000.0 11309700000.0 11309700000.0 11309700000.0 11309700000.0 11309700000.0 11309700000.0 11309700000.0 11309700000.0 11309700000.0 11309700000.0 11309700000.0 11309700000.0 11309700000.0 11309700000.0 11309700000.0 11309700000.0 11309700000.0 11309700000.0 11309700000.0 11309700000.0 11309700000.0 11309700000.0 11309700000.0 11309700000.0 11309700000.0 11309700000.0 11309700000.0 11309700000.0 11309700000.0 11309700000.0 11309700000.0 11309700000.0 11309700000.0 11309700000.0 11309700000.0 11309700000.0 11309700000.0 11309700000.0 11309700000.0 11309700000.0 11309700000.0 11309700000.0 11309700000.0 11309700000.0 11309700000.0 11309700000.0 11309700000.0 11309700000.0 11309700000.0 11309700000.0 11309700000.0 11309700000.0 11309700000.0 11309700000.0 11309700000.0 11309700000.0 11309700000.0 11309700000.0 11309700000.0 11309700000.0 11309700000.0 11309700000.0 11309700000.0 11309700000.0 11309700000.0 11309700000.0 11309700000.0 11309700000.0 11309700000.0 11309700000.0 11309700000.0 11309700000.0 11309700000.0 11309700000.0 11309700000.0 11309700000.0 11309700000.0 11309700000.0 11309700000.0 11309700000.0 11309700000.0 11309700000.0 11309700000.0 
SCALARS Velocity float 1
LOOKUP_TABLE default
1.07674 1.0835 1.0985 1.10035 1.10435 1.10434 1.10521 1.1055 1.10918 1.02195 1.06033 1.07598 1.07601 1.07059 1.08039 1.0818 1.08276 1.08447 1.08528 1.10685 1.1028 1.10416 1.10361 1.10464 1.10636 1.112 1.05617 1.07756 1.07377 1.07082 1.08108 1.08352 1.1012 1.10684 1.10402 1.10371 1.10374 1.1049 1.10905 1.00105 0.99875 1.07875 1.07582 1.07098 1.07022 1.08027 1.08174 1.08436 1.1018 1.10233 1.10345 1.10316 1.10307 1.10382 1.10404 1.10595 1.10814 1.11252 1.02193 1.08602 1.0801 1.07792 1.07538 1.0732 1.07104 1.07027 1.06966 1.07986 1.08056 1.08132 1.08292 1.08366 1.10606 1.10253 1.10292 1.1019 1.10276 1.10253 1.10303 1.10469 1.11216 1.02266 1.0859 1.07762 1.07288 1.06988 1.08001 1.08237 1.10241 1.10461 1.10121 1.102 1.10237 1.10319 1.10594 1.02069 1.0904 1.08092 1.0751 1.07086 1.06916 1.07915 1.08071 1.08313 1.10306 1.09824 1.10149 1.10186 1.10149 1.10226 1.1025 1.10383 1.10545 1.10912 1.10608 1.09572 1.0909 1.08562 1.08197 1.07801 1.07536 1.07271 1.07064 1.06948 1.06865 1.07817 1.07902 1.07935 1.08244 1.08429 1.09344 1.09735 1.10033 1.10092 1.10148 1.10092 1.10122 1.1035 1.10564 1.09855 1.08726 1.07902 1.0728 1.06907 1.07769 1.08187 1.07438 1.0845 1.09157 1.09943 1.10051 1.10005 1.1015 1.10468 1.10445 1.0939 1.08395 1.07608 1.0705 1.06814 1.07724 1.07714 1.07132 1.08261 1.09575 1.09991 1.09921 1.09757 1.09943 1.09956 1.10241 1.10353 1.10496 1.10429 1.10035 1.09692 1.09023 1.08661 1.08066 1.07716 1.07314 1.07044 1.06869 1.0677 1.07624 1.07664 1.07409 1.07046 1.07483 1.08869 1.09825 1.09849 1.0988 1.09639 1.09648 1.10054 1.10443 1.10247 1.09348 1.08266 1.07363 1.06839 1.07492 1.07114 1.07129 1.07387 1.08033 1.08569 1.09414 1.09739 1.0962 1.09372 1.09662 1.10211 1.10504 1.10017 1.08942 1.07839 1.0705 1.06744 1.07522 1.07313 1.07138 1.07727 1.0937 1.09687 1.09224 1.08854 1.09233 1.09287 1.09802 1.10029 1.10401 1.10613 1.10513 1.10366 1.0968 1.09208 1.08466 1.07958 1.07423 1.07081 1.06832 1.06762 1.07501 1.07422 1.0733 1.07184 1.07251 1.08134 1.09745 1.09486 1.09263 1.08699 1.08736 1.09493 1.10314 1.10823 1.09991 1.08639 1.07499 1.06879 1.07454 1.07291 1.07207 1.07298 1.07324 1.07232 1.09534 1.09712 1.08876 1.08245 1.08884 1.09767 1.10669 1.10702 1.09419 1.08074 1.07171 1.06864 1.07577 1.07421 1.07346 1.07364 1.05849 1.09407 1.08141 1.07633 1.08257 1.08577 1.09146 1.09342 1.10065 1.10479 1.11152 1.10923 1.10214 1.09536 1.08774 1.08225 1.07626 1.07374 1.07029 1.07102 1.07752 1.07573 1.07559 1.0742 1.07464 1.07464 1.06703 1.05102 1.08627 1.07716 1.07968 1.08866 1.09383 1.11452 1.10234 1.08935 1.07866 1.07348 1.07763 1.07543 1.07506 1.07474 1.06328 1.05881 1.05116 1.04574 1.04459 1.07153 1.08053 1.08474 1.08545 1.08916 1.08901 1.09327 1.10065 1.10725 1.09697 1.08484 1.07767 1.07535 1.0803 1.07719 1.07526 1.07599 1.05721 1.04491 1.06623 1.08109 1.08533 1.09227 1.08388 1.10398 1.10095 1.09231 1.08926 1.08289 1.08413 1.07906 1.08197 1.08445 1.0802 1.07892 1.07633 1.07547 1.07565 1.07713 1.06175 1.0493 1.07716 1.06913 1.07273 1.08092 1.08617 1.09054 1.06409 1.09766 1.08936 1.08727 1.08366 1.07678 1.07562 1.06063 1.05493 1.08662 1.06983 1.06688 1.06954 1.0749 1.07542 1.08069 1.07839 1.08458 1.07351 1.07441 1.05757 1.04882 1.04412 1.09573 1.09316 1.09061 1.09018 1.08757 1.08072 1.07685 1.07461 1.07403 1.07929 1.09417 1.07686 1.0674 1.07091 1.0737 1.06948 1.05312 1.04867 1.05556 1.07886 1.09741 1.10366 1.0975 1.10024 1.09785 1.08226 1.07379 1.08158 1.09894 1.09325 1.08534 1.07704 1.07065 1.06706 1.06771 1.07067 1.06646 1.0468 1.04121 1.04558 1.04953 1.06601 1.10059 1.1077 1.09194 1.07679 1.07444 1.09179 1.10874 1.1028 1.08495 1.06995 1.06513 1.06792 1.06696 1.06679 1.05444 1.04877 1.008 1.01797 1.01708 1.05284 1.09021 1.11087 1.10949 1.10829 1.09452 1.0833 1.07595 1.07387 1.07504 1.10932 1.09409 1.07539 1.06393 1.06362 1.06238 1.02833 0.962026 1.04484 1.07545 1.10213 1.10972 1.12005 1.1161 1.11726 1.12174 1.07895 1.07457 1.10688 1.10694 1.10221 1.08971 1.08245 1.06972 1.06566 1.05595 1.05863 1.05278 1.0616 1.04731 0.95713 0.886035 0.987821 1.05076 1.04436 1.07459 1.12169 1.12411 1.14407 1.08982 1.06302 1.06584 1.11656 1.10055 1.10312 1.09555 1.07505 1.05616 1.04547 1.04425 1.0573 1.04278 0.98715 0.961561 0.995953 1.11365 1.13074 1.12874 1.12255 1.07619 1.1306 1.09946 1.0977 1.08034 1.06232 1.05852 1.04157 1.0323 1.02705 0.991812 1.3435 1.38537 1.05166 0.887731 1.06322 1.1475 1.13953 1.13445 1.12254 1.16769 1.20601 1.15634 1.09316 1.09681 1.09318 1.09495 1.08586 1.08445 1.06733 1.04318 1.04098 1.02122 1.02447 1.00218 1.01222 0.979205 0.98875 0.980214 1.14269 1.41248 1.13529 1.14415 1.12415 1.1836 1.30257 1.12545 1.06673 1.08471 1.07306 1.0477 1.02267 0.998195 0.971868 0.954435 1.06849 1.24437 1.24724 1.19893 1.15757 1.12821 1.12405 1.10467 1.11268 1.21661 1.21899 1.12418 1.05052 1.0196 1.08677 1.07735 1.07585 1.06161 1.05466 1.03817 1.02852 1.01075 1.00109 0.980613 0.971693 0.944199 0.973829 1.14197 1.23924 1.41602 1.14833 1.09985 1.09009 1.1977 1.29242 1.26338 1.00656 1.09081 1.06474 1.05035 1.02446 0.996965 0.968327 0.949056 0.948883 0.946706 1.0158 1.0712 1.30932 1.45195 1.36836 1.22735 1.1084 1.06434 1.06651 1.05406 1.27531 1.35246 1.14843 1.04006 0.939642 1.06358 1.06191 1.03897 1.01628 0.993087 0.975362 0.994289 1.13242 1.20024 1.38225 1.24005 1.15416 1.07299 1.00869 1.0931 1.14248 1.25285 0.922128 1.11115 1.09565 1.07336 1.07149 1.05332 1.0491 1.03372 1.03455 1.01615 1.02329 1.00321 1.02681 1.00886 1.08231 1.21751 1.31031 1.3243 1.31994 1.12832 1.08553 1.02296 0.979597 0.992006 0.893832 0.84796 0.980869 1.59619 1.55111 1.12157 1.09078 1.10201 1.10025 1.06574 1.05208 1.04074 1.03576 1.05795 1.0583 1.09024 1.15183 1.23272 1.20398 1.16979 1.10718 1.0799 0.833254 0.525865 0.722709 0.739873 1.06066 1.44727 1.72552 1.49147 1.64116 1.40253 1.12828 1.08742 1.06618 1.06741 1.05094 1.05331 1.07712 1.0364 1.11719 1.17474 1.17964 1.14014 1.06571 1.09475 1.07641 0.520011 0.696455 0.876605 1.1923 1.0864 1.27575 0.95431 1.07886 1.15771 1.1219 1.0792 1.07368 1.08454 1.08377 1.11023 1.08308 1.08315 1.06351 1.06608 1.01895 1.01587 1.12316 1.06281 1.15633 1.08798 1.08268 1.1348 1.25765 1.00509 0.794483 0.671471 0.589358 0.626522 0.655716 0.697635 0.774686 0.886758 0.999796 0.456144 0.610756 1.09739 1.05866 1.07866 1.07169 1.12042 1.12709 1.05489 1.06273 1.01354 1.0293 0.911401 0.900535 0.960243 1.04124 1.10903 1.12349 1.12907 1.09716 1.05691 0.826996 0.619353 0.57509 0.580147 0.600234 0.643346 0.702994 0.805394 0.759911 0.937533 0.808137 0.683757 0.559343 0.720707 0.836993 1.01144 1.02534 1.049 1.09461 1.16339 1.10456 1.00626 0.935826 0.908505 0.925008 0.958757 1.08617 1.18993 1.18262 0.964826 0.942801 0.824699 0.668571 0.595537 0.610941 0.571448 0.586104 0.590628 0.612148 0.635234 0.640348 0.890632 0.803647 0.713758 0.712439 0.898059 0.990867 1.00626 1.04749 1.07257 1.14681 1.1922 1.18897 1.12484 1.02001 0.947016 0.902981 0.867732 0.895673 0.90496 1.00576 1.12987 1.20325 1.14075 1.0096 0.871318 0.818629 0.658868 0.497666 0.5513 0.573474 0.574894 0.565412 0.551264 0.568786 0.575862 0.594145 0.593597 0.622526 0.666588 0.758438 0.783035 0.838847 0.739836 0.739156 0.822663 0.954474 0.956412 0.981952 0.989612 1.00424 1.02842 1.12131 1.27141 0.970469 0.939643 0.916778 0.887318 0.869091 0.912947 1.02082 1.05302 1.15865 1.11333 0.948946 0.86813 0.651147 0.46843 0.513019 0.557245 0.54194 0.513686 0.53865 0.567681 0.575864 0.580306 0.579814 0.612819 0.627315 0.669032 0.737026 0.618059 0.786367 0.79405 0.877618 0.91032 0.930104 0.968911 1.00453 1.01872 1.13555 1.13712 0.965965 0.936535 0.981826 0.919826 0.876803 0.859757 0.822003 0.951984 1.06014 1.13185 1.07385 1.00279 0.835927 0.492183 0.439604 0.449367 0.535413 0.533322 0.520877 0.511682 0.521601 0.540735 0.553339 0.565496 0.578799 0.585679 0.596081 0.639966 0.671658 0.687587 0.70413 0.775813 0.851341 0.921691 0.938405 1.02047 1.04246 0.923219 1.40373 1.33511 1.09473 0.95058 0.848345 0.811934 0.809464 0.869344 0.920255 0.987761 1.03082 1.0377 0.925733 0.805779 0.779115 0.599011 0.528448 0.485436 0.482259 0.518679 0.525135 0.503225 0.518962 0.526863 0.452809 0.490803 0.515328 0.556772 0.578449 0.586394 0.5987 0.624656 0.641357 0.655454 0.684794 0.697578 0.792711 0.830091 0.897443 0.926202 0.913797 0.913313 0.913178 0.980406 1.09033 1.06904 1.06922 1.00903 1.12795 1.37776 0.859087 0.451268 1.21656 1.05024 0.885494 0.799718 0.863648 0.939061 0.980679 0.9682 1.0203 0.945565 0.657714 0.583529 0.422125 0.395233 0.50633 0.548231 0.532449 0.545883 0.530097 0.523673 0.522673 0.42428 0.436377 0.482961 0.526633 0.543998 0.568516 0.585029 0.593709 0.635464 0.674556 0.681123 0.738008 0.868481 0.972827 0.857314 0.989841 1.10478 1.0591 0.860691 0.925943 0.257704 0.819146 1.18117 1.10452 0.975904 0.930918 0.847347 0.826282 0.897484 0.940257 0.964666 1.0016 0.969677 0.83556 0.711896 0.600261 0.498674 0.458614 0.55027 0.555549 0.567931 0.557998 0.54323 0.52541 0.527953 0.379718 0.392957 0.408758 0.489276 0.561691 0.584647 0.589734 0.598582 0.59595 0.609152 0.617417 0.637518 0.659845 0.762481 0.832363 0.919143 0.953437 0.878195 0.851273 1.2161 1.04648 0.853811 0.568403 0.436911 1.07474 1.0609 0.893077 0.82747 0.845719 0.861909 0.882017 0.90896 0.903883 0.92784 0.966854 0.923589 0.82682 0.625233 0.55266 0.584544 0.576448 0.575177 0.563396 0.557417 0.532142 0.521278 0.523417 0.528908 0.336212 0.395885 0.418348 0.433636 0.512887 0.539973 0.589752 0.58643 0.592405 0.589448 0.590421 0.6064 0.621587 0.650857 0.66232 0.768773 0.867633 1.00516 1.03824 0.851226 0.807295 0.944077 1.1136 1.36395 1.11433 0.736465 0.755349 0.659324 0.286474 0.699549 1.21731 1.04831 0.880757 0.867967 0.887441 0.883069 0.912947 0.905876 0.964203 0.979741 0.9652 0.666811 0.643706 0.607638 0.607067 0.592576 0.588416 0.585065 0.533563 0.513677 0.518156 0.520748 0.509041 0.424583 0.389141 0.362638 0.430374 0.481114 0.59483 0.588559 0.589535 0.58531 0.627864 0.620357 0.656857 0.62424 0.892038 0.950433 0.86721 1.04727 1.31895 0.786401 0.720049 0.715105 0.637006 0.519781 0.447013 0.322378 0.462255 0.731845 0.697789 1.29771 1.32222 1.01515 0.97795 0.871458 0.88671 0.869741 0.865068 0.897948 0.843639 0.849434 0.714853 0.641462 0.620931 0.595606 0.591689 0.565854 0.496181 0.507513 0.508069 0.513588 0.501318 0.530623 0.513065 0.476738 0.412619 0.508582 0.475562 0.614097 0.593311 0.612788 0.599893 0.566303 0.57015 0.558894 0.622785 0.651706 0.711822 0.651472 0.78726 0.925985 0.935456 0.860797 0.792874 1.36558 0.716797 0.983757 0.926517 0.702877 0.590928 0.430401 0.451197 0.654565 1.27689 0.912366 0.883439 0.900471 0.891221 0.872886 0.827067 0.785075 0.85668 0.899654 0.632552 0.483191 0.555688 0.61543 0.599982 0.592939 0.593257 0.59307 0.604803 0.574955 0.53661 0.496781 0.51128 0.510812 0.509809 0.489975 0.476279 0.439747 0.57477 0.610434 0.45126 0.48293 0.614314 0.542191 0.564571 0.569826 0.55068 0.536995 0.524833 0.563665 0.543202 0.394289 0.543337 0.726887 0.792563 0.892365 0.936332 0.890023 0.709061 0.462794 0.148168 0.887661 0.808776 0.829475 0.735872 0.650227 0.586471 0.497227 0.413059 0.493176 1.18048 0.908802 0.902266 0.813281 0.723119 0.981928 0.477405 0.448238 0.541185 0.579915 0.590937 0.59399 0.604746 0.638561 0.566704 0.532704 0.514694 0.479787 0.485944 0.468369 0.450488 0.419544 0.385017 0.385841 0.476341 0.424299 0.855762 1.06008 0.754202 0.491123 0.57154 0.549227 0.530151 0.522899 0.481605 0.385826 0.372102 1.1303 1.01835 0.799235 0.811899 0.375097 0.235719 0.0747784 0.500358 0.704937 0.685 0.642425 0.635012 0.578658 0.582788 0.488636 0.334261 0.320541 0.350566 0.972612 0.926623 0.91764 0.921863 0.898591 0.808365 0.787214 0.792104 0.743398 0.677898 0.189182 0.395156 0.351428 0.44159 0.518224 0.558391 0.576642 0.584243 0.627469 0.70656 0.504816 0.467404 0.477047 0.466119 0.47105 0.453803 0.44137 0.392813 0.36975 0.34749 0.395902 0.219001 0.28291 0.660595 0.512245 0.371988 0.514767 0.510153 0.544943 0.532047 0.529057 0.515589 0.438452 0.422129 0.353337 0.986368 0.82463 0.86386 0.828539 0.856463 0.784781 0.0614141 0.370182 0.531752 0.65665 0.665212 0.62925 0.564398 0.458013 0.433395 0.298422 0.340045 0.716459 0.886864 0.96986 0.843317 0.898934 0.478166 0.12987 0.321898 0.31761 0.407441 0.49464 0.616151 0.661209 0.281503 0.45663 0.467061 0.459059 0.433191 0.408183 0.382557 0.368661 0.347006 0.357961 0.347239 0.345568 0.357045 0.308688 0.161081 0.458079 1.18168 0.299691 0.392696 0.449617 0.499627 0.538284 0.518817 0.449973 0.509854 0.424292 0.746016 1.16373 0.978932 0.22751 0.549899 0.843746 0.327198 0.0491723 0.416829 0.541105 0.569553 0.646361 0.645451 0.619191 0.53612 0.431607 0.527883 0.805578 0.827806 0.875718 0.935009 0.804161 0.886117 0.983059 0.705254 0.543548 0.355199 0.533298 0.536759 0.541249 0.534214 0.496074 0.372842 0.459449 0.455454 0.445131 0.447267 0.425977 0.404663 0.357965 0.348488 0.3227 0.340746 0.346568 0.349009 0.335613 0.259417 0.100481 0.351738 0.658437 0.198397 0.208568 0.331792 0.397566 0.487533 0.522346 0.557522 0.570861 0.548865 0.44473 0.58887 0.560036 0.964246 0.612898 0.619568 0.629901 0.151039 0.0293099 0.297607 0.492803 0.594289 0.638312 0.638244 0.638799 0.60134 0.499512 0.505758 0.65822 0.726721 0.773917 0.858076 0.854521 0.856131 0.81392 0.492483 0.441925 0.345504 0.338993 0.401141 0.470593 0.492284 0.512112 0.53737 0.595948 0.471671 0.425393 0.441843 0.452611 0.433512 0.393343 0.378693 0.347077 0.330878 0.291371 0.324842 0.334627 0.341543 0.349011 0.351461 0.345568 0.316403 0.358418 0.331061 0.395658 0.379946 0.262984 0.369943 0.448375 0.522902 0.556676 0.585739 0.591362 0.566191 0.609769 1.12683 0.961156 0.712231 0.328566 0.316946 0.551799 0.522546 0.389871 0.41252 0.531767 0.605247 0.653471 0.641395 0.642559 0.573105 0.551531 0.496169 0.576165 0.758177 0.803478 0.79019 0.822437 0.955248 0.191792 0.423101 0.381758 0.363363 0.369919 0.415353 0.450496 0.468755 0.499124 0.550952 0.51449 0.469087 0.454366 0.445326 0.44083 0.429472 0.40866 0.362162 0.314483 0.308456 0.272539 0.258297 0.282735 0.305902 0.322575 0.340775 0.347431 0.334153 0.355271 0.353872 0.338477 0.351787 0.270908 0.241986 0.296253 0.527346 0.566409 0.593216 0.629242 0.625862 0.549802 0.38575 0.554324 0.871484 0.790313 0.707933 0.461307 0.330428 0.447914 0.519161 0.669494 0.405273 0.403549 0.472449 0.512999 0.563956 0.624969 0.676389 0.62654 0.552088 0.68714 0.803804 0.776379 0.752203 0.713291 0.90189 0.343213 0.317685 0.36773 0.366481 0.370138 0.372985 0.406896 0.429301 0.450323 0.487201 0.493078 0.431753 0.448282 0.441979 0.443023 0.410922 0.383794 0.362698 0.330147 0.296738 0.283213 0.238136 0.213028 0.196694 0.267736 0.305601 0.320994 0.329079 0.336861 0.342016 0.355085 0.351814 0.350049 0.352272 0.297215 0.25937 0.391925 0.41843 0.517318 0.56914 0.576685 0.599883 0.578317 0.417887 0.501484 0.565952 0.752879 0.690102 0.503203 0.378441 0.387646 0.449324 0.488001 0.546601 0.593565 0.630297 0.667026 0.708482 0.672349 0.601432 0.544032 0.555688 0.815871 0.815222 0.697176 0.769019 0.762714 0.780016 0.500475 0.276321 0.408191 0.339204 0.386735 0.378948 0.37689 0.377422 0.399705 0.41738 0.432965 0.445188 0.469722 0.405612 0.441282 0.438381 0.435243 0.417617 0.399613 0.340123 0.278062 0.254957 0.231371 0.205876 0.181943 0.247415 0.280363 0.310264 0.326822 0.338403 0.341941 0.351849 0.371409 0.380362 0.405752 0.291443 0.228137 0.222582 0.331141 0.520485 0.494386 0.555498 0.55381 0.575367 0.532509 0.434521 0.43384 0.439869 0.910457 0.745762 0.517207 0.355769 0.381926 0.455265 0.521201 0.610947 0.478497 0.463479 0.516106 0.506905 0.574266 0.668618 0.736342 0.662253 0.582566 0.571515 0.908296 0.935288 0.857383 0.712212 0.788565 0.621248 0.452581 0.401237 0.39327 0.343409 0.380859 0.389868 0.377049 0.385134 0.399614 0.406453 0.404017 0.414361 0.465624 0.422804 0.442173 0.446909 0.434555 0.40884 0.382307 0.364978 0.315462 0.302876 0.257889 0.18333 0.177794 0.170991 0.164205 0.2215 0.227323 0.243709 0.264587 0.289944 0.319208 0.329916 0.347217 0.362257 0.436316 0.395881 0.416175 0.462704 0.398291 0.465791 0.627723 0.554168 0.532727 0.401945 0.396952 0.867087 0.612748 0.592767 0.436841 0.498064 0.539696 0.578867 0.548282 0.52877 0.493756 0.546653 0.574011 0.602232 0.714171 0.798585 0.422585 0.687224 1.00562 1.095 0.579644 0.734548 0.71363 0.44309 0.383288 0.368957 0.383272 0.386627 0.392554 0.395241 0.392754 0.397348 0.414944 0.415287 0.419308 0.436747 0.453778 0.419796 0.421137 0.39556 0.336485 0.269807 0.214745 0.167571 0.155823 0.162734 0.168395 0.230989 0.22766 0.2754 0.307087 0.313038 0.323124 0.329516 0.345506 0.364239 0.389165 0.376005 0.516922 0.4583 0.456342 0.527736 0.577216 0.56513 0.752959 0.540074 0.524411 0.43918 0.424388 0.696655 0.615711 0.54227 0.446593 0.402137 0.552012 0.576523 0.569305 0.559749 0.570836 0.555868 0.570737 0.573097 0.634599 0.710807 0.786991 0.62569 0.362936 0.640577 0.783193 0.886532 1.07847 0.799433 0.573378 0.479152 0.385911 0.384585 0.390494 0.394695 0.408165 0.42169 0.451016 0.418302 0.428012 0.389933 0.354954 0.323238 0.198049 0.168317 0.158381 0.174407 0.175365 0.171757 0.249175 0.223471 0.235589 0.24329 0.310639 0.326671 0.321854 0.340868 0.357779 0.413685 0.442679 0.288889 0.79904 0.58317 0.515991 0.485062 0.510512 0.469808 0.444106 0.59067 0.553582 0.447413 0.487694 0.490794 0.519254 0.584666 0.581893 0.587162 0.585854 0.607693 0.595665 0.587124 0.609943 0.673575 0.950696 0.810206 0.582121 0.747324 0.874809 0.747454 0.694561 0.58442 0.460391 0.429148 0.389157 0.383305 0.393533 0.390846 0.39598 0.392929 0.388196 0.374702 0.411389 0.408275 0.416106 0.484345 0.405365 0.437864 0.440638 0.345179 0.285174 0.175691 0.17318 0.20268 0.19577 0.172047 0.197913 0.192095 0.176562 0.239706 0.24902 0.24286 0.246165 0.251099 0.334178 0.324479 0.321497 0.329693 0.37279 0.233881 0.504129 0.314434 0.200604 1.33195 1.05739 0.475348 0.493088 0.451604 0.488688 0.482793 0.485167 0.483492 0.580008 0.495308 0.478734 0.501748 0.537724 0.532904 0.55805 0.579303 0.607875 0.618143 0.619643 0.622484 0.658012 0.628544 0.703563 0.705398 1.03444 0.592242 0.765761 0.609864 0.331273 0.672804 0.696007 0.649867 0.563144 0.469812 0.430958 0.407997 0.402895 0.411038 0.407432 0.399246 0.389427 0.375994 0.362317 0.427289 0.419324 0.432045 0.29572 0.398346 0.44831 0.373923 0.409612 0.326679 0.167213 0.177839 0.221978 0.220886 0.202425 0.1937 0.169815 0.191013 0.260816 0.251442 0.216683 0.246653 0.2529 0.269677 0.363727 0.339572 0.315135 0.309341 0.314907 0.340765 0.310884 0.242952 0.456819 0.384594 0.953098 1.17288 1.24232 0.322179 0.655128 0.496634 0.49965 0.526778 0.502934 0.509981 0.537311 0.530839 0.456913 0.506551 0.522664 0.545266 0.561607 0.584093 0.595088 0.599064 0.60402 0.602549 0.641953 0.709776 0.650348 0.492133 0.485456 0.639729 0.640039 0.601938 0.551269 0.49357 0.454041 0.44354 0.439378 0.430532 0.418083 0.399795 0.375972 0.352165 0.322355 0.433826 0.438135 0.424037 0.355576 0.328593 0.380299 0.493615 0.38178 0.426513 0.204524 0.184254 0.179536 0.199939 0.187977 0.17944 0.194364 0.157845 0.36796 0.192892 0.244781 0.243445 0.237801 0.245829 0.192778 0.400881 0.319108 0.303342 0.301589 0.313941 0.309736 0.345294 0.502078 0.614529 0.717218 0.425799 0.772571 0.733394 0.624718 0.564093 0.571739 0.524283 0.531504 0.542619 0.501691 0.429894 0.52198 0.541216 0.568689 0.590757 0.605333 0.613485 0.619338 0.623555 0.630234 0.635172 0.641116 0.656566 0.658738 0.667331 0.676543 0.541315 0.58191 0.591906 0.617106 0.64734 0.649023 0.581381 0.546692 0.560669 0.607125 0.603596 0.581151 0.546043 0.516178 0.491402 0.474398 0.462125 0.4441 0.420374 0.383903 0.339731 0.29591 0.482443 0.45979 0.385154 0.357724 0.361508 0.444662 0.255835 0.432735 0.133439 0.279006 0.245732 0.170085 0.168398 0.18791 0.17029 0.163812 0.179581 0.110026 0.709614 0.206101 0.243232 0.256753 0.229395 0.206635 0.349805 0.315252 0.294553 0.31356 0.329677 0.369048 0.461097 0.639315 0.579788 0.241332 0.366963 0.672005 0.707976 0.649529 0.565346 0.569029 0.377394 0.427741 0.486007 0.596978 0.616445 0.627091 0.63322 0.636566 0.640336 0.644211 0.649378 0.657258 0.66102 0.66434 0.649003 0.578905 0.570092 0.590602 0.605311 0.619588 0.61991 0.607193 0.588756 0.577073 0.581652 0.594595 0.587214 0.575084 0.474486 0.446275 0.404237 0.347826 0.27446 0.567078 0.486045 0.452542 0.430302 0.378118 0.369732 0.403331 0.292377 0.372139 0.464946 0.44414 0.191412 0.198082 0.166047 0.137807 0.146426 0.119472 0.154304 0.139589 0.154683 0.105032 0.665666 0.911651 0.680108 0.19054 0.254136 0.262361 0.245926 0.139606 0.423351 0.364225 0.307643 0.305345 0.326233 0.352159 0.396434 0.61592 0.781372 0.28477 0.240913 0.439631 0.577896 0.55336 0.553649 0.388546 0.467756 0.521558 0.551492 0.574567 0.648233 0.648503 0.648164 0.649895 0.652574 0.657181 0.660389 0.661062 0.647414 0.610692 0.590013 0.587285 0.602643 0.608357 0.606212 0.601591 0.600261 0.556094 0.533119 0.513418 0.493462 0.288631 0.633952 0.523982 0.472254 0.439595 0.400782 0.380691 0.366699 0.371578 0.518634 0.516823 0.148871 0.0907931 0.177909 0.124194 0.152238 0.102183 0.149637 0.106575 0.0735386 0.109953 0.631925 0.629829 0.666704 0.511482 0.651382 0.549641 0.272678 0.266234 0.236191 0.185244 0.435383 0.370483 0.298599 0.315677 0.331891 0.334596 0.450161 0.481824 0.63795 0.257134 0.614931 0.646961 0.600801 0.570128 0.570489 0.57942 0.587869 0.652457 0.435201 0.512878 0.557213 0.575873 0.60175 0.627317 0.641817 0.653171 0.656517 0.659241 0.659266 0.650516 0.632008 0.614099 0.604176 0.594636 0.590947 0.590423 0.593297 0.589458 0.578439 0.563333 0.545143 0.526897 0.505274 0.476172 0.434844 0.372413 0.690181 0.5575 0.492244 0.451673 0.414475 0.391694 0.377164 0.440172 0.48322 0.67414 0.37077 0.131094 0.130271 0.151808 0.107403 0.127491 0.0962433 0.13601 0.113046 0.0694517 0.0763554 0.0523655 0.567857 0.600505 0.604385 0.571637 0.523558 0.548991 0.405553 0.348696 0.285978 0.284458 0.285894 0.433367 0.303271 0.300479 0.311203 0.336537 0.319038 0.397074 0.612556 0.294005 0.443635 0.57617 0.594168 0.580516 0.586381 0.590206 0.594841 0.632167 0.690988 0.490451 0.55646 0.582755 0.586743 0.638579 0.657622 0.663273 0.659792 0.654283 0.652402 0.603035 0.607545 0.605555 0.598828 0.597869 0.59897 0.597077 0.59684 0.598866 0.599326 0.592908 0.582235 0.569638 0.553897 0.535021 0.511505 0.471876 0.411097 0.323846 0.723632 0.600976 0.523 0.47182 0.432254 0.400261 0.383791 0.376124 0.366374 0.471188 0.569216 0.545837 0.214605 0.311203 0.140968 0.079119 0.0867849 0.12559 0.166043 0.0711846 0.0441237 0.0528446 0.565213 0.58084 0.566595 0.431135 0.479848 0.509214 0.42922 0.332793 0.341081 0.319594 0.419356 0.284512 0.291232 0.315946 0.298563 0.296931 0.356139 0.496578 0.380402 0.280252 0.338139 0.455841 0.550241 0.579632 0.587043 0.602795 0.605486 0.627995 0.659421 0.700276 0.545851 0.584019 0.591506 0.577548 0.676582 0.681024 0.669307 0.657026 0.652119 0.651906 0.653756 0.657556 0.658402 0.65367 0.643239 0.630347 0.620428 0.614595 0.611464 0.608954 0.604628 0.601188 0.599784 0.600015 0.601394 0.602918 0.603385 0.600606 0.594593 0.585159 0.572901 0.559958 0.542142 0.515318 0.460242 0.375686 0.505536 0.459706 0.420541 0.391841 0.369895 0.329928 0.374113 0.482561 0.267424 0.523401 0.37041 0.168231 0.00470441 0.0869294 0.152664 0.129147 0.118061 0.0330661 0.0217623 0.00390076 0.570613 0.567902 0.397709 0.442174 0.366558 0.511014 0.486061 0.382066 0.375899 0.356841 0.351005 0.432811 0.454755 0.262741 0.306247 0.311792 0.274756 0.342465 0.430831 0.399233 0.363477 0.351304 0.395764 0.48195 0.542967 0.580766 0.597848 0.613012 0.625713 0.643331 0.667878 0.695537 0.573999 0.706429 0.678652 0.656781 0.648372 0.649881 0.650041 0.654257 0.657339 0.656095 0.649772 0.640683 0.631737 0.624752 0.619962 0.615936 0.612125 0.609195 0.60685 0.605449 0.605985 0.60692 0.606483 0.605164 0.601994 0.595825 0.586941 0.577545 0.565657 0.547957 0.52202 0.443019 0.732114 0.642388 0.56446 0.454271 0.415657 0.37895 0.323849 0.246754 0.347108 0.518733 0.583893 0.156665 0.547989 0.44296 0.211658 0.148922 0.0918679 0.0679544 0.184856 0.080894 0.0392303 0.0146796 0.0495851 0.019115 0.54285 0.423989 0.175488 0.491021 0.487871 0.442152 0.40214 0.395476 0.362111 0.3994 0.456825 0.497074 0.285032 0.314132 0.351851 0.313381 0.391595 0.397622 0.442386 0.50697 0.583612 0.589702 0.583663 0.654406 0.645074 0.64689 0.649445 0.651722 0.655336 0.657372 0.654494 0.648022 0.640595 0.633835 0.628136 0.623588 0.620371 0.617606 0.615071 0.613694 0.714194 0.669833 0.605298 0.54617 0.496322 0.414798 0.375058 0.26305 0.187302 0.418256 0.5276 0.671245 0.822389 0.868579 0.679266 0.365487 0.300816 0.170855 0.107224 0.138542 0.0783125 0.0239378 0.259186 0.272672 0.506638 0.486083 0.438693 0.390487 0.401726 0.429807 0.478835 0.247037 0.27977 0.316401 0.393116 0.42904 0.442819 0.406947 0.548518 0.585244 0.606946 0.619995 0.633193 0.649969 0.667401 0.678651 0.599432 0.57616 0.568684 0.575215 0.696735 0.613039 0.612856 0.612282 0.611087 0.608937 0.604987 0.598758 0.59105 0.582711 0.569807 0.556147 0.538069 0.684327 0.677639 0.636412 0.58406 0.532484 0.487164 0.450266 0.377856 0.230602 0.0409538 0.489676 0.776003 1.02051 0.521356 0.692661 0.671329 0.489135 0.533887 0.278804 0.217407 0.212589 0.119401 0.226952 0.242393 0.508961 0.463969 0.427528 0.415682 0.414708 0.423321 0.538908 0.237945 0.28735 0.34885 0.364412 0.423433 0.45278 0.457669 0.443667 0.445289 0.480909 0.527676 0.56294 0.592071 0.611772 0.62534 0.638554 0.650857 0.65637 0.651983 0.582311 0.559572 0.559924 0.555212 0.668278 0.650701 0.645608 0.652226 0.653344 0.655839 0.657582 0.657955 0.653966 0.648014 0.641994 0.63638 0.631581 0.627897 0.625176 0.623139 0.62162 0.620806 0.620265 0.619594 0.61862 0.61693 0.614021 0.609409 0.60304 0.596061 0.587348 0.576931 0.570275 0.622227 0.666143 0.650844 0.611619 0.565097 0.519211 0.480878 0.447371 0.415302 0.258602 0.325639 0.7766 0.728809 0.596811 0.66702 0.644827 0.557874 0.62609 0.617993 0.432489 0.182218 0.0590771 0.251937 0.468539 0.527382 0.440854 0.439091 0.429534 0.433255 0.450935 0.496034 0.571694 0.246383 0.41891 0.408848 0.449384 0.471648 0.478566 0.477886 0.492254 0.523219 0.5511 0.576587 0.599291 0.616445 0.628194 0.637205 0.641413 0.634264 0.609973 0.557557 0.551101 0.580412 0.548937 0.670938 0.660246 0.658495 0.654 0.661041 0.660453 0.660776 0.658987 0.654542 0.649311 0.644269 0.639672 0.63578 0.632743 0.630639 0.629308 0.628385 0.627713 0.627143 0.626321 0.624955 0.622737 0.619283 0.614307 0.608399 0.602792 0.595792 0.594807 0.616799 0.641889 0.650306 0.627226 0.589604 0.547739 0.508036 0.477729 0.446114 0.43083 0.389833 0.905041 0.647504 0.682932 0.791426 0.697556 0.537477 0.435907 0.435875 0.439313 0.466952 0.516638 0.601141 0.315338 0.379319 0.444482 0.442162 0.483104 0.498671 0.512443 0.522029 0.53106 0.550006 0.569316 0.589021 0.605986 0.617445 0.62441 0.627199 0.620624 0.601788 0.581728 0.665827 0.670093 0.655727 0.663549 0.667282 0.665557 0.663941 0.660679 0.656188 0.651647 0.647443 0.643668 0.640548 0.638241 0.636708 0.635748 0.635069 0.634467 0.633792 0.632744 0.631039 0.6285 0.624961 0.620488 0.615905 0.610976 0.611578 0.569693 0.532469 0.503074 0.478275 0.457707 0.446025 0.411813 0.36053 0.661487 0.635919 0.729826 0.473622 0.508769 0.746003 0.888016 0.770643 0.54912 0.561163 0.434424 0.442543 0.449676 0.449739 0.484964 0.535245 0.278018 0.350324 0.411469 0.470648 0.480665 0.514287 0.533189 0.542097 0.548209 0.556099 0.568469 0.54548 0.562921 0.582666 0.560104 0.672694 0.651045 0.659533 0.674133 0.672612 0.66965 0.666602 0.663014 0.658769 0.654744 0.651158 0.648083 0.623144 0.638122 0.644297 0.636929 0.608316 0.504466 0.478919 0.457561 0.441008 0.413641 0.561417 0.574714 0.63027 0.639786 0.356249 0.658491 1.1463 0.442559 0.454552 0.474971 0.462521 0.636882 0.321816 0.389005 0.447036 0.502564 0.582444 0.596607 0.608039 0.614116 0.615052 0.61039 0.596384 0.576003 0.569031 0.542078 0.562408 0.583364 0.645665 0.643941 0.642833 0.642125 0.641568 0.641003 0.640265 0.639069 0.637203 0.634602 0.631471 0.628428 0.625881 0.625225 0.630838 0.640827 0.645086 0.640045 0.628338 0.588648 0.554137 0.525204 0.455409 0.458106 0.502251 0.656564 0.740221 0.704387 0.874654 0.675713 0.746135 1.11611 0.618252 0.434078 0.445707 0.463531 0.505313 0.582802 0.658748 0.518359 0.544801 0.557448 0.562971 0.566601 0.571946 0.580578 0.591001 0.600971 0.607649 0.608526 0.60259 0.592201 0.574293 0.56322 0.552224 0.53083 0.555095 0.749525 0.638845 0.657298 0.67949 0.681312 0.676463 0.672551 0.669511 0.6658 0.661769 0.658163 0.655103 0.652656 0.650836 0.649593 0.648803 0.648251 0.647794 0.647345 0.646665 0.64544 0.643634 0.641448 0.639182 0.637713 0.637594 0.641129 0.645403 0.64703 0.654315 0.638076 0.614119 0.56883 0.546729 0.521883 0.498356 0.467253 0.572968 0.834697 0.873351 0.902908 0.697043 0.773931 0.655699 0.425456 0.446106 0.496233 0.478218 0.565551 0.611737 0.665955 0.363417 0.431939 0.488125 0.530037 0.553968 0.572748 0.579433 0.580106 0.580522 0.583696 0.589715 0.596948 0.60329 0.605828 0.602271 0.592001 0.576845 0.560826 0.558275 0.539209 0.516865 0.988568 0.835683 0.653405 0.685037 0.688602 0.683285 0.679133 0.676169 0.672956 0.668819 0.664875 0.661689 0.659177 0.657296 0.655959 0.655063 0.654463 0.654075 0.653842 0.653558 0.652893 0.651855 0.650571 0.649104 0.647995 0.647745 0.649185 0.651262 0.652465 0.653409 0.665864 0.632537 0.595699 0.552621 0.542791 0.509761 0.482333 0.4882 0.502736 0.498556 0.57227 0.664522 0.754516 0.882013 0.901021 0.837326 0.714319 0.824776 0.687716 0.479069 0.50818 0.551049 0.581809 0.629904 0.722945 0.415007 0.4765 0.520035 0.553132 0.588192 0.597101 0.596054 0.59211 0.58995 0.59145 0.59579 0.601117 0.60478 0.604221 0.597817 0.585494 0.568961 0.560765 0.580147 1.14317 0.805432 0.692966 0.693921 0.690347 0.686583 0.683298 0.679956 0.67596 0.671712 0.66814 0.66538 0.663333 0.661891 0.660892 0.660204 0.659789 0.659665 0.659689 0.659506 0.659089 0.658567 0.657916 0.624628 0.579154 0.537471 0.527559 0.506928 0.519676 0.532612 0.530269 0.600789 0.667884 0.742068 0.810835 0.85229 1.13898 0.419092 0.457385 0.487578 0.572182 0.558549 0.459779 0.509842 0.547456 0.573881 0.616091 0.542211 0.543802 0.50611 0.726477 0.787294 0.657272 0.657148 0.657598 0.657943 0.658048 0.659367 0.654578 0.67291 0.524787 0.543244 0.552419 0.567311 0.6216 0.655708 0.736185 0.773148 0.784624 0.850726 0.86712 0.901071 0.819412 0.70898 0.554612 0.55282 0.603689 0.701364 0.742186 0.495544 0.614205 0.604621 0.596176 0.594076 0.596214 0.600501 0.605017 0.607031 0.604321 0.595826 0.582473 0.568442 0.554411 0.557516 0.502668 1.07014 0.522631 0.708858 0.701017 0.695527 0.691269 0.687519 0.683223 0.678757 0.674706 0.671504 0.669121 0.667436 0.666263 0.665475 0.664948 0.664776 0.664945 0.665125 0.665184 0.665336 0.665402 0.665371 0.665608 0.666068 0.666522 0.666204 0.6647 0.664756 0.64822 0.673143 0.616368 0.559808 0.524273 0.753777 0.752612 0.775401 0.838993 0.883503 0.870915 0.815185 0.731144 0.859557 0.576428 0.579334 0.687566 0.720658 0.751228 0.538206 0.57073 0.591492 0.63931 0.622378 0.604831 0.595758 0.596401 0.600518 0.605348 0.610037 0.611253 0.606948 0.595322 0.579277 0.56295 0.559211 0.565623 1.08188 0.744937 0.753331 0.717498 0.70819 0.700757 0.695529 0.690804 0.686006 0.681528 0.677824 0.674885 0.672761 0.671242 0.670203 0.669544 0.669198 0.66927 0.669678 0.670171 0.670794 0.671429 0.67204 0.672782 0.673258 0.673769 0.674086 0.672994 0.671175 0.663408 0.644058 0.658826 0.611479 0.535754 0.530947 0.551913 0.5645 0.586092 0.6295 0.665964 0.709332 0.743829 0.77312 0.863889 0.842306 0.840812 0.557392 0.593973 0.671359 0.706812 0.731384 0.759588 0.526083 0.562617 0.59525 0.605909 0.654293 0.629331 0.597632 0.595987 0.599948 0.605937 0.612192 0.617077 0.617411 0.609404 0.593699 0.57569 0.559259 0.56597 0.592021 0.67019 0.549792 0.735137 0.741562 0.736421 0.721322 0.712113 0.704834 0.698788 0.693532 0.688472 0.684182 0.680683 0.677965 0.675989 0.674494 0.673479 0.67295 0.672812 0.673101 0.673848 0.674909 0.676084 0.677267 0.6785 0.679364 0.679834 0.679972 0.679458 0.678019 0.673112 0.667461 0.622827 0.641081 0.615634 0.529803 0.55018 0.573514 0.604431 0.642395 0.675392 0.700652 0.734522 0.736162 0.838529 0.750648 0.674798 0.856949 0.574134 0.687374 0.689263 0.713536 0.742957 0.550293 0.596475 0.619439 0.611069 0.659296 0.605517 0.596359 0.599535 0.605577 0.724934 0.736207 0.737836 0.732273 0.723054 0.714687 0.707694 0.701503 0.602612 0.629847 0.625728 0.536845 0.570394 0.606437 0.651744 0.684498 0.708747 0.731253 0.715719 0.734654 0.754735 0.819144 0.732988 0.751462 0.822342 0.844687 0.676815 0.772747 0.591947 0.63286 0.613686 0.621108 0.624635 0.623039 0.611735 0.597006 0.572295 0.571513 0.602979 0.632051 0.683545 0.695795 0.690681 0.686347 0.682942 0.680434 0.67849 0.676867 0.67589 0.675527 0.675587 0.676144 0.677399 0.67908 0.680954 0.682857 0.684301 0.685172 0.685563 0.684656 0.683872 0.682323 0.679112 0.644252 0.712733 0.717362 0.755198 0.814162 0.791632 0.870461 0.808565 0.858841 0.882206 0.70022 0.695324 0.726659 0.774324 0.789976 0.631725 0.591435 0.749906 0.716303 0.697565 0.69275 0.696851 0.704111 0.714858 0.725158 0.731925 0.729439 0.71385 0.66193 0.617159 0.631041 0.66185 0.6836 0.730962 0.735708 0.736741 0.733457 0.725193 0.717352 0.709849 0.703188 0.697596 0.692427 0.687947 0.684411 0.681918 0.679929 0.678238 0.677244 0.676998 0.6773 0.678317 0.680271 0.6828 0.685468 0.68773 0.689554 0.690682 0.690457 0.689549 0.688616 0.689165 0.649793 0.615922 0.605517 0.620521 0.635844 0.554989 0.596451 0.654295 0.694455 0.71758 0.752795 0.748538 0.845043 0.832444 0.821472 0.691118 0.697672 0.742898 0.74749 0.837196 0.796703 0.565914 0.625984 0.688795 0.670611 0.703578 0.689989 0.69006 0.692883 0.701655 0.712594 0.727563 0.734729 0.733864 0.723597 0.69489 0.656542 0.640058 0.652228 0.67128 0.685523 0.735961 0.739925 0.739178 0.736094 0.729631 0.720302 0.711273 0.704706 0.698913 0.693312 0.688365 0.684795 0.682209 0.680107 0.678344 0.677397 0.677261 0.677937 0.67972 0.682523 0.685855 0.689258 0.692179 0.694657 0.696686 0.695901 0.69344 0.69403 0.662829 0.608003 0.617603 0.611198 0.617074 0.648575 0.577608 0.628458 0.691222 0.721801 0.782445 0.722513 0.714827 0.896334 0.882886 0.915341 0.939017 0.845703 0.829975 0.674256 0.644106 0.707993 0.681279 0.676495 0.692184 0.745459 0.744053 0.740832 0.739816 0.733505 0.72239 0.712917 0.705992 0.698949 0.692189 0.687466 0.683841 0.681084 0.678815 0.677067 0.628135 0.603661 0.614628 0.621315 0.612486 0.661003 0.620301 0.661737 0.718778 0.771116 0.73541 0.744956 0.748 0.839477 0.833394 0.893367 0.895132 0.880894 0.914199 0.85056 0.83459 0.805962 0.859049 0.808367 0.705641 0.687945 0.694116 0.692025 0.712151 0.734593 0.737269 0.738728 0.733105 0.715339 0.688159 0.663087 0.660464 0.668066 0.677878 0.692707 0.677005 0.676127 0.67637 0.67787 0.680295 0.683708 0.6881 0.692491 0.696408 0.699616 0.702935 0.697557 0.699615 0.853024 0.773096 0.834126 0.82925 0.897182 0.841893 0.83677 0.840159 0.861504 0.858875 0.76762 0.716145 0.693434 0.678282 0.674836 0.690645 0.688918 0.688417 0.695639 0.744755 0.743424 0.744738 0.741941 0.732169 0.714599 0.690234 0.674397 0.677578 0.679695 0.689034 0.701246 0.747751 0.745954 0.74273 0.740003 0.732739 0.723284 0.713939 0.704107 0.695806 0.689522 0.685046 0.681384 0.678326 0.675761 0.674068 0.673919 0.675077 0.676563 0.679447 0.683897 0.689741 0.69544 0.700475 0.703628 0.708865 0.687626 0.68437 0.671862 0.607647 0.599429 0.61302 0.630101 0.613698 0.682673 0.669842 0.706926 0.768792 0.841465 0.828891 0.894776 0.890427 0.928633 0.857331 0.830825 0.826558 0.839151 0.849354 0.833906 0.742669 0.803524 0.755709 0.703024 0.683883 0.676724 0.680796 0.690296 0.676418 0.671661 0.742221 0.771423 0.750544 0.75486 0.749622 0.733046 0.715768 0.696258 0.683304 0.699044 0.697423 0.698263 0.726853 0.744898 0.748632 0.748766 0.736092 0.730913 0.722091 0.710405 0.699025 0.690826 0.685389 0.680903 0.677091 0.673668 0.671293 0.670798 0.671036 0.672327 0.674003 0.677051 0.683623 0.691447 0.698322 0.703323 0.704826 0.709456 0.659085 0.681947 0.607872 0.598714 0.596529 0.612298 0.638581 0.635372 0.716314 0.71253 0.874852 0.834403 0.840167 0.836204 0.807601 0.876469 0.893832 0.893832 0.894506 0.894641 0.830452 0.842124 0.830305 0.854364 0.8947 0.795207 0.798848 0.790668 0.765407 0.743651 0.733269 0.727094 0.721301 0.704495 0.691642 0.68474 0.67966 0.674811 0.671157 0.668195 0.666672 0.665874 0.667106 0.669362 0.83959 0.815864 0.811837 0.804906 0.815383 0.834606 0.778329 0.881409 0.867781 0.886134 0.896203 0.89944 0.898171 0.835119 0.845485 0.855125 0.868268 0.894744 0.782691 0.775278 0.770236 0.784701 0.835348 0.796017 0.790334 0.768086 0.754567 0.736364 0.715197 0.69684 0.689257 0.707212 0.720785 0.710736 0.770241 0.745336 0.66868 0.674408 0.683404 0.692873 0.699477 0.702539 0.697349 0.703236 0.696884 0.854201 0.826915 0.881488 0.88422 0.894738 0.895154 0.838189 0.828565 0.820917 0.833656 0.844492 0.854167 0.891868 0.889768 0.878125 0.893228 0.860451 0.877706 0.877793 0.878417 0.884685 0.882752 0.88559 0.903178 0.810366 0.809296 0.780392 0.77335 0.757253 0.733386 0.710989 0.698494 0.707011 0.709769 0.716678 0.843211 0.729792 0.846827 0.826253 0.845269 0.834958 0.838927 0.831373 0.83302 0.831302 0.828462 0.825203 0.822828 0.819988 0.819378 0.818774 0.819926 0.82144 0.835967 0.837027 0.835867 0.832482 0.83184 0.834519 0.829325 0.81223 0.793466 0.888661 0.879519 0.873004 0.871509 0.875902 0.891512 0.833411 0.870411 0.853236 0.88726 0.893873 0.88398 0.871568 0.894764 0.893603 0.893832 0.893832 0.893832 0.893832 0.893833 0.834003 0.829835 0.8886 0.893942 0.869976 0.881321 0.882847 0.805525 0.766576 0.739332 0.798483 0.902352 0.85559 0.873037 0.856024 0.862583 0.864753 0.866176 0.867311 0.867184 0.866907 0.865215 0.864881 0.864027 0.865118 0.870017 0.866804 0.86975 0.886043 0.82736 0.873192 0.891708 0.891824 0.893832 0.893832 0.841863 0.851915 0.858629 0.893528 0.894711 0.884178 0.889081 0.887074 0.886536 0.891182 0.83874 0.829021 0.814581 0.806414 0.800547 0.799372 0.887371 0.763361 0.88851 0.894896 0.866616 0.86818 0.861942 0.853245 0.845799 0.841681 0.841759 0.833627 0.826231 0.866565 0.884959 0.879146 0.874212 0.867466 0.887797 0.894099 0.881686 0.893832 0.893832 0.893874 0.829442 0.83081 0.841321 0.85176 0.857748 0.89365 0.893835 0.891169 0.893763 0.873398 0.877544 0.88009 0.8827 0.887242 0.887165 0.887242 0.887953 0.881034 0.845794 0.83557 0.824432 0.814855 0.806501 0.80251 0.78515 0.749386 0.891676 0.775297 0.884553 0.822692 0.893806 0.852395 0.876162 0.856748 0.893693 0.859944 0.861081 0.861214 0.861692 0.861226 0.860922 0.858826 0.858366 0.856832 0.857843 0.859736 0.85825 0.852415 0.844957 0.83923 0.836314 0.836065 0.828397 0.834754 0.879769 0.87713 0.871508 0.862945 0.861017 0.863525 0.880869 0.823118 0.87719 0.877693 0.888747 0.893853 0.879622 0.875386 0.888624 0.890983 0.893832 0.893832 0.893832 0.893832 0.893832 0.828414 0.891436 0.876158 0.756154 0.853352 0.820548 0.877728 0.886764 0.890879 0.893832 0.893832 0.830469 0.840053 0.851088 0.857633 0.893306 0.893833 0.893763 0.874646 0.877746 0.881153 0.885136 0.88655 0.887316 0.887487 0.889142 0.866834 0.851318 0.839727 0.826722 0.817555 0.808437 0.794327 0.891393 0.785661 0.881793 0.840374 0.893836 0.882196 0.857757 0.89365 0.857169 0.85764 0.856771 0.856702 0.855615 0.854924 0.852197 0.85171 0.849994 0.850967 0.853062 0.849773 0.844694 0.838885 0.835078 0.833528 0.833685 0.825128 0.844908 0.878062 0.871849 0.866451 0.858854 0.857414 0.859491 0.877663 0.880719 0.884115 0.889415 0.893828 0.878254 0.893832 0.893832 0.893832 0.828736 0.830091 0.839163 0.850657 0.857799 0.89294 0.893832 0.891767 0.893794 0.878673 0.872742 0.876273 0.879995 0.883442 0.885748 0.887126 0.887786 0.889288 0.883567 0.862022 0.851149 0.835601 0.825697 0.813395 0.80217 0.758874 0.891882 0.79452 0.881451 0.853491 0.893833 0.857095 0.888873 0.85788 0.893632 0.855543 0.855559 0.85407 0.853617 0.851974 0.850988 0.847774 0.847141 0.845359 0.846534 0.848693 0.844352 0.839865 0.835312 0.832887 0.832282 0.832945 0.823031 0.852007 0.875898 0.868198 0.863704 0.856381 0.855279 0.85711 0.875744 0.819261 0.883572 0.888892 0.889841 0.893814 0.877553 0.879763 0.885917 0.891079 0.893832 0.893832 0.893832 0.893832 0.885637 0.891228 0.893832 0.893832 0.893832 0.829149 0.829854 0.838701 0.850454 0.857947 0.892708 0.893828 0.892149 0.89381 0.879689 0.87182 0.875592 0.879369 0.882496 0.885201 0.886908 0.888045 0.889384 0.889611 0.867862 0.857729 0.839668 0.829795 0.816361 0.806086 0.760323 0.891841 0.799498 0.881335 0.859609 0.893824 0.859431 0.89224 0.857716 0.893622 0.854824 0.854647 0.852847 0.852137 0.850159 0.849041 0.845597 0.844856 0.842969 0.844326 0.846594 0.841711 0.837531 0.833642 0.831939 0.831818 0.832786 0.822116 0.855223 0.874818 0.86645 0.862533 0.855141 0.854309 0.856032 0.874871 0.818686 0.885236 0.891616 0.890067 0.893806 0.877239 0.880893 
SCALARS Axial_Stress float 1
LOOKUP_TABLE default
-98721500000.0 -88637800000.0 -116032000000.0 -163651000000.0 -66765800000.0 -83311900000.0 -73244700000.0 -92559400000.0 -75614100000.0 -52972400000.0 -52929200000.0 -91522800000.0 -183640000000.0 -166387000000.0 -137078000000.0 -128869000000.0 -225793000000.0 -239083000000.0 -202082000000.0 -150962000000.0 -153906000000.0 -77472300000.0 -94125100000.0 -203184000000.0 -137336000000.0 -108019000000.0 -52397500000.0 -144713000000.0 -319456000000.0 -351101000000.0 -299646000000.0 -243710000000.0 -342271000000.0 -318567000000.0 -175259000000.0 -232701000000.0 -274988000000.0 -281154000000.0 -281205000000.0 -102027000000.0 -123771000000.0 -249821000000.0 -350620000000.0 -424122000000.0 -247063000000.0 -262325000000.0 -355195000000.0 -95225100000.0 -289110000000.0 -348616000000.0 -316619000000.0 -369773000000.0 -505427000000.0 -396910000000.0 -494179000000.0 -368190000000.0 -467404000000.0 -454036000000.0 -393660000000.0 -271768000000.0 -647212000000.0 -453692000000.0 -565881000000.0 -484698000000.0 -577603000000.0 -507591000000.0 -336986000000.0 -383058000000.0 -472520000000.0 -539180000000.0 -351028000000.0 -302627000000.0 -257889000000.0 -298092000000.0 -363022000000.0 -623011000000.0 -495991000000.0 -622334000000.0 -617265000000.0 -582786000000.0 -449386000000.0 -387078000000.0 -898041000000.0 -692542000000.0 -658058000000.0 -660261000000.0 -672657000000.0 -606272000000.0 -490909000000.0 -420285000000.0 -794988000000.0 -755060000000.0 -737781000000.0 -714211000000.0 -637173000000.0 -399813000000.0 -1.166e+12 -864705000000.0 -757227000000.0 -737299000000.0 -427988000000.0 -500283000000.0 -768523000000.0 -760970000000.0 -797393000000.0 -1.05577e+12 -904906000000.0 -862921000000.0 -965814000000.0 -841397000000.0 -935741000000.0 -796272000000.0 -860201000000.0 -605478000000.0 -1.29895e+12 -1.19905e+12 -1.19424e+12 -1.06775e+12 -1.03084e+12 -882860000000.0 -925282000000.0 -824475000000.0 -891851000000.0 -813051000000.0 -520937000000.0 -620079000000.0 -885025000000.0 -980691000000.0 -898865000000.0 -1.05159e+12 -1.42145e+12 -1.35215e+12 -1.10182e+12 -1.15395e+12 -999216000000.0 -1.09145e+12 -1.06496e+12 -1.0272e+12 -1.12639e+12 -1.27626e+12 -1.16174e+12 -1.04005e+12 -978423000000.0 -961199000000.0 -1.10316e+12 -1.02313e+12 -2.26331e+12 -2.04299e+12 -1.68953e+12 -1.33427e+12 -1.22334e+12 -1.18886e+12 -1.1631e+12 -1.1765e+12 -1.29027e+12 -1.26745e+12 -1.15492e+12 -1.07304e+12 -1.03781e+12 -615227000000.0 -747412000000.0 -1.16858e+12 -1.85121e+12 -1.96799e+12 -1.54444e+12 -1.36324e+12 -1.30806e+12 -1.40897e+12 -1.2898e+12 -1.39528e+12 -1.27812e+12 -1.38182e+12 -1.29947e+12 -1.39229e+12 -1.33229e+12 -1.3497e+12 -1.26119e+12 -1.26779e+12 -1.17106e+12 -1.20361e+12 -1.11931e+12 -1.17438e+12 -1.1022e+12 -710370000000.0 -882514000000.0 -1.32572e+12 -1.51526e+12 -1.59217e+12 -1.93039e+12 -1.73397e+12 -1.50986e+12 -1.53936e+12 -1.42577e+12 -1.51348e+12 -1.5164e+12 -1.49258e+12 -1.4651e+12 -1.43114e+12 -1.35886e+12 -1.28838e+12 -1.24836e+12 -1.23572e+12 -1.5638e+12 -1.6695e+12 -1.76282e+12 -1.8028e+12 -1.82364e+12 -1.71322e+12 -1.63591e+12 -1.63267e+12 -1.61012e+12 -1.62915e+12 -1.6165e+12 -1.57262e+12 -1.5223e+12 -1.44763e+12 -1.37184e+12 -1.32215e+12 -1.30256e+12 -805992000000.0 -1.03365e+12 -1.66997e+12 -1.75147e+12 -1.75029e+12 -1.67201e+12 -1.68971e+12 -1.70865e+12 -1.85605e+12 -1.7436e+12 -1.83952e+12 -1.70004e+12 -1.7623e+12 -1.63083e+12 -1.66167e+12 -1.54439e+12 -1.54653e+12 -1.45578e+12 -1.4669e+12 -1.39463e+12 -1.43067e+12 -1.36824e+12 -1.42487e+12 -1.36327e+12 -901999000000.0 -1.17045e+12 -1.72429e+12 -1.79411e+12 -1.75201e+12 -1.75641e+12 -1.66879e+12 -1.73034e+12 -1.83473e+12 -1.78209e+12 -1.8883e+12 -1.9834e+12 -1.91181e+12 -1.79886e+12 -1.65632e+12 -1.54294e+12 -1.48963e+12 -1.4815e+12 -1.48812e+12 -1.85547e+12 -1.84611e+12 -1.79094e+12 -1.77412e+12 -1.67816e+12 -1.47449e+12 -1.66748e+12 -1.8402e+12 -1.94151e+12 -2.11029e+12 -2.07677e+12 -1.95776e+12 -1.80107e+12 -1.63068e+12 -1.54684e+12 -1.53056e+12 -1.54501e+12 -998807000000.0 -1.29726e+12 -1.91332e+12 -1.86851e+12 -1.67811e+12 -1.23119e+12 -1.95254e+12 -2.03325e+12 -2.43711e+12 -2.25157e+12 -2.34009e+12 -2.14185e+12 -2.17329e+12 -1.96765e+12 -1.92671e+12 -1.74812e+12 -1.666e+12 -1.60503e+12 -1.60662e+12 -1.57201e+12 -1.62348e+12 -1.59135e+12 -1.66822e+12 -1.61527e+12 -1.09754e+12 -1.41708e+12 -1.98096e+12 -2.03959e+12 -1.96019e+12 -1.99388e+12 -1.84741e+12 -1.39933e+12 -1.13707e+12 -2.05263e+12 -1.99651e+12 -2.6193e+12 -2.33821e+12 -2.21931e+12 -1.70759e+12 -1.63092e+12 -1.64242e+12 -1.70176e+12 -1.75199e+12 -2.11182e+12 -2.09585e+12 -2.01996e+12 -1.75755e+12 -1.22638e+12 -1.27802e+12 -1.2455e+12 -1.05024e+12 -864883000000.0 -3.19937e+12 -2.73088e+12 -2.50811e+12 -2.48885e+12 -2.37201e+12 -2.45287e+12 -2.29832e+12 -2.62567e+12 -1.54246e+12 -1.64898e+12 -1.71051e+12 -1.80187e+12 -1.20042e+12 -1.53307e+12 -2.17605e+12 -2.15912e+12 -2.07007e+12 -1.28638e+12 -1.18228e+12 -2.47807e+12 -2.59042e+12 -2.53963e+12 -2.6427e+12 -3.02823e+12 -1.50815e+12 -1.52764e+12 -1.70027e+12 -1.78769e+12 -1.81682e+12 -1.95651e+12 -1.90876e+12 -1.31127e+12 -1.64627e+12 -2.24992e+12 -2.32343e+12 -2.24767e+12 -2.34067e+12 -2.25521e+12 -2.37092e+12 -1.14497e+12 -1.30232e+12 -1.64604e+12 -1.43493e+12 -2.50559e+12 -2.5931e+12 -2.66386e+12 -2.93778e+12 -3.31567e+12 -1.59685e+12 -1.93858e+12 -2.10037e+12 -2.37795e+12 -2.42521e+12 -2.45804e+12 -1.02232e+12 -1.31116e+12 -1.68219e+12 -1.87554e+12 -2.32003e+12 -2.47156e+12 -2.56132e+12 -2.64382e+12 -2.67272e+12 -2.8082e+12 -2.86094e+12 -3.10531e+12 -3.22513e+12 -3.4202e+12 -3.46588e+12 -3.45781e+12 -1.7336e+12 -2.15098e+12 -1.43441e+12 -1.76114e+12 -2.47866e+12 -2.44434e+12 -2.5374e+12 -2.58771e+12 -2.87445e+12 -2.49149e+12 -1.60884e+12 -1.97381e+12 -2.32445e+12 -2.58416e+12 -2.74916e+12 -2.99774e+12 -3.3233e+12 -3.48352e+12 -3.29637e+12 -2.98945e+12 -2.03155e+12 -2.41323e+12 -2.33936e+12 -1.56692e+12 -1.88842e+12 -2.51663e+12 -2.67573e+12 -3.60938e+12 -1.38425e+12 -2.00357e+12 -1.99964e+12 -2.23448e+12 -2.1901e+12 -2.4467e+12 -2.50729e+12 -2.67819e+12 -2.88138e+12 -3.23452e+12 -3.44534e+12 -3.44093e+12 -3.40943e+12 -3.23921e+12 -2.75471e+12 -2.60138e+12 -2.54382e+12 -2.56136e+12 -2.92858e+12 -2.86493e+12 -2.30279e+12 -2.34763e+12 -2.29213e+12 -2.42156e+12 -2.59697e+12 -2.61571e+12 -2.66826e+12 -2.76466e+12 -2.85716e+12 -3.0805e+12 -3.38668e+12 -3.43358e+12 -3.50341e+12 -3.32619e+12 -3.06162e+12 -2.81153e+12 -1.71754e+12 -2.04736e+12 -2.57007e+12 -2.54266e+12 -2.51219e+12 -2.60212e+12 -2.39099e+12 -2.73119e+12 -2.49019e+12 -2.4846e+12 -2.59742e+12 -2.68593e+12 -2.6412e+12 -3.10004e+12 -3.60823e+12 -3.41298e+12 -3.21485e+12 -3.16788e+12 -3.00426e+12 -3.06095e+12 -2.90728e+12 -1.90018e+12 -2.26771e+12 -2.54981e+12 -2.1843e+12 -3.06768e+12 -3.02617e+12 -2.74241e+12 -2.80523e+12 -2.61915e+12 -2.7354e+12 -2.63429e+12 -2.76132e+12 -2.71536e+12 -2.78433e+12 -2.71969e+12 -2.41848e+12 -3.59321e+12 -3.69961e+12 -3.56526e+12 -3.34223e+12 -3.25268e+12 -3.24323e+12 -3.19664e+12 -3.14939e+12 -2.70917e+12 -2.4982e+12 -2.43582e+12 -2.26973e+12 -3.78544e+12 -3.47016e+12 -3.37778e+12 -3.02322e+12 -2.87811e+12 -2.83823e+12 -2.85039e+12 -2.80338e+12 -2.68001e+12 -2.55393e+12 -2.01539e+12 -3.42524e+12 -3.12737e+12 -3.30025e+12 -3.27043e+12 -3.35025e+12 -2.07828e+12 -2.33724e+12 -3.78222e+12 -3.65418e+12 -3.28439e+12 -3.05204e+12 -3.09201e+12 -2.95147e+12 -2.92594e+12 -2.90118e+12 -2.77336e+12 -2.41347e+12 -2.02473e+12 -2.24395e+12 -3.03816e+12 -2.78188e+12 -3.32485e+12 -3.50581e+12 -3.38738e+12 -3.45798e+12 -2.24304e+12 -3.27546e+12 -3.03208e+12 -3.52739e+12 -3.8253e+12 -3.81999e+12 -3.68867e+12 -3.53746e+12 -3.46554e+12 -3.25491e+12 -3.25711e+12 -3.1342e+12 -3.01924e+12 -3.07525e+12 -2.98823e+12 -3.02368e+12 -2.91672e+12 -2.91004e+12 -2.71806e+12 -2.70022e+12 -2.50575e+12 -2.43131e+12 -3.6701e+12 -3.58019e+12 -3.52002e+12 -3.65339e+12 -4.08798e+12 -3.71066e+12 -3.83307e+12 -3.63827e+12 -3.43508e+12 -3.27053e+12 -3.17152e+12 -3.11319e+12 -3.03897e+12 -2.91221e+12 -2.7513e+12 -2.55864e+12 -2.11592e+12 -3.60755e+12 -3.75013e+12 -3.73278e+12 -3.61801e+12 -3.66285e+12 -2.38895e+12 -3.36149e+12 -4.02747e+12 -4.11375e+12 -3.91222e+12 -3.94368e+12 -3.69631e+12 -3.718e+12 -3.59994e+12 -3.58174e+12 -3.42462e+12 -3.41701e+12 -3.28428e+12 -3.29269e+12 -3.19887e+12 -3.2163e+12 -3.13493e+12 -3.0527e+12 -2.94664e+12 -2.56739e+12 -2.18685e+12 -4.16049e+12 -3.77882e+12 -3.74952e+12 -2.51249e+12 -3.16649e+12 -4.28449e+12 -4.25004e+12 -4.19416e+12 -3.62756e+12 -3.71659e+12 -3.56705e+12 -3.40317e+12 -3.29774e+12 -3.23228e+12 -3.15211e+12 -3.1853e+12 -3.08845e+12 -3.17002e+12 -2.99955e+12 -3.82196e+12 -4.25223e+12 -4.27308e+12 -4.09144e+12 -3.82948e+12 -3.84722e+12 -3.77387e+12 -2.60687e+12 -4.29112e+12 -4.30086e+12 -4.31238e+12 -4.56063e+12 -4.22848e+12 -3.79322e+12 -3.72244e+12 -3.53378e+12 -3.38957e+12 -3.30756e+12 -3.26262e+12 -3.26639e+12 -3.45908e+12 -3.47195e+12 -4.17222e+12 -4.19059e+12 -4.01361e+12 -3.97301e+12 -3.8326e+12 -2.97337e+12 -4.03429e+12 -4.49481e+12 -4.84642e+12 -3.46246e+12 -3.99564e+12 -3.86693e+12 -3.85008e+12 -3.68369e+12 -3.61885e+12 -3.49601e+12 -3.47588e+12 -3.38667e+12 -3.39843e+12 -3.33259e+12 -3.3895e+12 -3.33271e+12 -3.47077e+12 -3.73013e+12 -3.89093e+12 -4.1355e+12 -4.23746e+12 -4.16698e+12 -4.17871e+12 -3.90743e+12 -3.71356e+12 -2.64528e+12 -9035750000.0 -2.59746e+12 -4.91257e+12 -4.34996e+12 -3.97036e+12 -4.78518e+12 -5.13762e+12 -3.96122e+12 -4.03974e+12 -3.75469e+12 -3.5846e+12 -3.46884e+12 -3.43651e+12 -3.50062e+12 -3.48423e+12 -3.68497e+12 -3.7031e+12 -3.98548e+12 -4.22726e+12 -4.24742e+12 -4.27494e+12 -4.21643e+12 -2.55422e+12 -4.91703e+12 -4.49507e+12 -4.50502e+12 -5.6474e+12 -5.84141e+12 -5.35614e+12 -5.93164e+12 -4.35524e+12 -4.78798e+12 -4.3755e+12 -3.89139e+12 -3.71559e+12 -3.5627e+12 -3.48675e+12 -3.51891e+12 -3.6624e+12 -3.85874e+12 -3.891e+12 -4.16107e+12 -4.27436e+12 -4.26922e+12 -4.25277e+12 -4.31735e+12 -4.27865e+12 -4.3908e+12 -4.11171e+12 -6.48018e+12 -6.1248e+12 -5.97105e+12 -5.70322e+12 -5.06053e+12 -4.95062e+12 -4.2347e+12 -4.04051e+12 -4.03561e+12 -3.86459e+12 -3.82641e+12 -3.68184e+12 -3.65728e+12 -3.55466e+12 -3.57626e+12 -3.54377e+12 -3.64833e+12 -3.82907e+12 -4.00135e+12 -4.07233e+12 -4.1595e+12 -4.22323e+12 -4.33435e+12 -4.1499e+12 -4.32287e+12 -5.08777e+12 -5.27452e+12 -6.2673e+12 -6.63402e+12 -4.35737e+12 -4.26083e+12 -4.28971e+12 -6.76487e+12 -6.34082e+12 -6.67866e+12 -5.93317e+12 -6.02537e+12 -5.63928e+12 -2.74006e+12 -3.94947e+12 -4.23598e+12 -3.99051e+12 -3.79101e+12 -3.64224e+12 -3.63618e+12 -3.63995e+12 -3.75962e+12 -3.7931e+12 -3.92559e+12 -3.9581e+12 -4.08527e+12 -4.27645e+12 -4.32544e+12 -4.40716e+12 -4.36365e+12 -3.77717e+12 -5.23339e+12 -6.50631e+12 -6.73959e+12 -4.1826e+12 -3.96184e+12 -4.12257e+12 -6.96007e+12 -6.86825e+12 -7.25724e+12 -7.08543e+12 -6.05928e+12 -5.84567e+12 -5.9376e+12 -5.6831e+12 -5.37965e+12 -4.80403e+12 -4.13302e+12 -4.1472e+12 -4.15913e+12 -3.94425e+12 -3.7624e+12 -3.65371e+12 -3.72615e+12 -3.88102e+12 -3.9892e+12 -4.03023e+12 -4.21965e+12 -4.38538e+12 -4.46167e+12 -4.3656e+12 -4.27833e+12 -6.7585e+12 -6.70046e+12 -6.57348e+12 -6.52923e+12 -6.60238e+12 -4.05182e+12 -4.02178e+12 -6.74835e+12 -6.86039e+12 -6.90182e+12 -5.96167e+12 -6.23205e+12 -5.98775e+12 -5.49862e+12 -5.75138e+12 -4.91765e+12 -4.29409e+12 -4.17296e+12 -4.09646e+12 -4.04842e+12 -3.90707e+12 -3.86666e+12 -3.72769e+12 -3.70221e+12 -3.69319e+12 -3.83259e+12 -3.94048e+12 -4.10158e+12 -4.15353e+12 -4.26021e+12 -4.32684e+12 -4.47421e+12 -4.62876e+12 -4.65025e+12 -5.03261e+12 -5.70682e+12 -5.82707e+12 -6.47023e+12 -6.61102e+12 -6.22556e+12 -6.21927e+12 -6.34648e+12 -3.90187e+12 -4.03232e+12 -3.9935e+12 -6.66989e+12 -6.72289e+12 -6.55346e+12 -6.28175e+12 -6.24849e+12 -5.92727e+12 -5.35924e+12 -4.79845e+12 -6.74454e+12 -6.02992e+12 -5.34348e+12 -4.51796e+12 -4.45122e+12 -4.27935e+12 -4.23701e+12 -4.15769e+12 -4.15749e+12 -4.00618e+12 -3.79224e+12 -3.69324e+12 -3.77613e+12 -3.8784e+12 -4.04837e+12 -4.19403e+12 -4.36519e+12 -4.43633e+12 -4.54572e+12 -4.59495e+12 -4.9169e+12 -5.96655e+12 -6.23133e+12 -5.2795e+12 -6.86063e+12 -5.48358e+12 -6.42859e+12 -3.76285e+12 -3.63737e+12 -4.10856e+12 -6.62748e+12 -6.5414e+12 -6.60836e+12 -6.52573e+12 -6.63754e+12 -6.31282e+12 -6.23625e+12 -6.04813e+12 -6.02021e+12 -6.15994e+12 -5.65216e+12 -5.26583e+12 -4.95806e+12 -4.69989e+12 -4.35195e+12 -4.20574e+12 -4.1787e+12 -3.92741e+12 -3.66989e+12 -3.55021e+12 -3.78829e+12 -3.93033e+12 -3.99413e+12 -4.09096e+12 -4.13729e+12 -4.28378e+12 -4.47091e+12 -4.69536e+12 -4.78985e+12 -5.03927e+12 -5.24824e+12 -6.9219e+12 -6.30227e+12 -6.39824e+12 -6.20961e+12 -6.16442e+12 -6.30128e+12 -6.45832e+12 -3.5723e+12 -4.16299e+12 -6.53128e+12 -6.61455e+12 -6.5391e+12 -6.51531e+12 -6.47984e+12 -6.51995e+12 -6.12378e+12 -6.37655e+12 -6.16295e+12 -6.12887e+12 -6.44095e+12 -5.58427e+12 -5.02631e+12 -4.54408e+12 -4.26416e+12 -4.22123e+12 -4.22637e+12 -3.73431e+12 -3.11819e+12 -3.81467e+12 -4.07395e+12 -4.12732e+12 -4.20196e+12 -4.27398e+12 -4.37624e+12 -4.49199e+12 -4.59918e+12 -4.88828e+12 -5.30283e+12 -5.83033e+12 -6.3935e+12 -6.389e+12 -6.51045e+12 -6.57761e+12 -6.50392e+12 -6.34707e+12 -6.35946e+12 -6.37699e+12 -6.46797e+12 -6.51374e+12 -3.60464e+12 -3.97676e+12 -4.11685e+12 -6.49208e+12 -6.44594e+12 -6.39579e+12 -6.61893e+12 -6.81034e+12 -6.68538e+12 -5.59765e+12 -6.41711e+12 -6.57734e+12 -6.21151e+12 -5.98852e+12 -5.84481e+12 -5.41229e+12 -5.30041e+12 -5.17342e+12 -4.82078e+12 -4.56982e+12 -4.36565e+12 -4.26641e+12 -4.23565e+12 -4.28355e+12 -4.26441e+12 -4.35731e+12 -4.29449e+12 -4.90452e+12 -5.4055e+12 -2.86437e+12 -4.11538e+12 -4.07938e+12 -4.17174e+12 -4.3743e+12 -4.64e+12 -4.76363e+12 -4.93676e+12 -5.10028e+12 -5.7555e+12 -6.60665e+12 -6.27334e+12 -6.29763e+12 -6.48478e+12 -6.44908e+12 -6.45381e+12 -6.44769e+12 -6.41693e+12 -6.49626e+12 -3.66905e+12 -3.73801e+12 -3.96329e+12 -6.48208e+12 -6.31077e+12 -5.98663e+12 -6.22855e+12 -6.1029e+12 -6.51317e+12 -6.60893e+12 -7.04964e+12 -6.97002e+12 -6.02094e+12 -5.88035e+12 -5.55989e+12 -5.35508e+12 -4.90568e+12 -4.30277e+12 -4.27936e+12 -4.37558e+12 -4.49492e+12 -4.55739e+12 -4.67853e+12 -4.97991e+12 -4.10466e+12 -4.15019e+12 -4.08391e+12 -4.0301e+12 -4.07943e+12 -4.24733e+12 -4.51193e+12 -4.79803e+12 -5.12853e+12 -5.34115e+12 -5.53412e+12 -6.0251e+12 -6.08398e+12 -6.01184e+12 -6.19642e+12 -6.70042e+12 -6.51193e+12 -6.45413e+12 -6.33241e+12 -6.36328e+12 -6.37241e+12 -6.51084e+12 -3.79325e+12 -3.91912e+12 -3.94774e+12 -6.48669e+12 -6.35507e+12 -5.13271e+12 -5.91566e+12 -6.28982e+12 -6.30316e+12 -6.1331e+12 -6.65333e+12 -5.96659e+12 -6.02708e+12 -6.32418e+12 -5.67364e+12 -5.56616e+12 -5.06112e+12 -5.18295e+12 -5.33815e+12 -4.47189e+12 -4.27815e+12 -4.37163e+12 -4.46973e+12 -4.54442e+12 -3.63896e+12 -4.54978e+12 -4.06856e+12 -4.0087e+12 -4.11719e+12 -4.21755e+12 -4.37383e+12 -4.53173e+12 -4.66595e+12 -4.79348e+12 -4.94158e+12 -5.24662e+12 -5.61469e+12 -5.52798e+12 -5.56625e+12 -6.66084e+12 -7.00264e+12 -6.05928e+12 -6.35412e+12 -6.35996e+12 -6.24525e+12 -6.36529e+12 -6.52423e+12 -6.52734e+12 -3.84671e+12 -3.87012e+12 -6.41874e+12 -6.35126e+12 -6.42394e+12 -6.24813e+12 -6.07584e+12 -6.78796e+12 -6.19218e+12 -6.09863e+12 -6.11276e+12 -5.91298e+12 -5.47345e+12 -4.52657e+12 -5.26637e+12 -5.61097e+12 -5.46593e+12 -5.36882e+12 -4.02376e+12 -5.47627e+12 -5.30393e+12 -4.82726e+12 -4.15225e+12 -4.15931e+12 -4.19348e+12 -4.33918e+12 -4.57203e+12 -4.48733e+12 -4.457e+12 -4.23532e+12 -3.69484e+12 -4.19185e+12 -3.96818e+12 -4.05199e+12 -4.37482e+12 -4.67954e+12 -4.84355e+12 -5.08655e+12 -5.18843e+12 -5.25717e+12 -5.07556e+12 -4.27239e+12 -5.92923e+12 -6.17349e+12 -5.56254e+12 -6.02888e+12 -6.46792e+12 -6.2109e+12 -6.30322e+12 -6.24882e+12 -6.39865e+12 -6.50285e+12 -3.87706e+12 -3.88651e+12 -3.80814e+12 -6.24654e+12 -6.32805e+12 -6.23726e+12 -6.30743e+12 -6.50641e+12 -6.21233e+12 -6.09158e+12 -5.8638e+12 -5.88376e+12 -6.47505e+12 -5.38256e+12 -5.28621e+12 -4.99935e+12 -4.82137e+12 -3.54168e+12 -4.3903e+12 -3.39291e+12 -4.74616e+12 -4.45036e+12 -4.42605e+12 -4.28376e+12 -4.28644e+12 -4.08886e+12 -3.97734e+12 -3.98778e+12 -3.91686e+12 -4.17124e+12 -3.85632e+12 -3.62672e+12 -3.92592e+12 -3.96862e+12 -4.18312e+12 -4.54898e+12 -4.75739e+12 -4.94534e+12 -5.26881e+12 -5.30361e+12 -4.72229e+12 -5.73342e+12 -5.99025e+12 -6.70197e+12 -6.25519e+12 -6.4232e+12 -6.19622e+12 -6.25166e+12 -6.37971e+12 -6.3531e+12 -6.4656e+12 -3.86327e+12 -3.43669e+12 -3.68419e+12 -6.22673e+12 -6.10957e+12 -6.04112e+12 -6.20503e+12 -6.20495e+12 -6.11759e+12 -6.10807e+12 -6.39992e+12 -5.9893e+12 -5.96151e+12 -5.82312e+12 -5.68985e+12 -5.4607e+12 -4.0011e+12 -4.42105e+12 -4.95656e+12 -4.67173e+12 -4.30012e+12 -3.97893e+12 -3.63489e+12 -3.25394e+12 -5.46795e+12 -5.45706e+12 -4.54294e+12 -4.2951e+12 -4.10366e+12 -3.91772e+12 -4.07666e+12 -4.42442e+12 -3.53916e+12 -4.13021e+12 -4.37618e+12 -4.58098e+12 -4.69221e+12 -4.72821e+12 -4.6725e+12 -4.80112e+12 -4.99368e+12 -4.97876e+12 -5.78811e+12 -5.6415e+12 -5.59941e+12 -5.6608e+12 -6.00599e+12 -5.16063e+12 -6.69578e+12 -6.26079e+12 -6.16107e+12 -6.05484e+12 -6.08611e+12 -6.135e+12 -6.2429e+12 -6.26214e+12 -6.38406e+12 -6.32564e+12 -3.84017e+12 -3.35704e+12 -5.94722e+12 -5.6203e+12 -6.00381e+12 -5.90611e+12 -6.07826e+12 -5.90179e+12 -5.53146e+12 -5.88389e+12 -5.73828e+12 -5.70342e+12 -5.63955e+12 -5.74401e+12 -5.79316e+12 -5.5282e+12 -6.29274e+12 -3.90731e+12 -5.09052e+12 -4.82547e+12 -4.76152e+12 -4.33441e+12 -3.98552e+12 -4.05911e+12 -5.1561e+12 -4.92506e+12 -4.55976e+12 -4.3507e+12 -4.16252e+12 -4.12093e+12 -3.92133e+12 -3.88288e+12 -4.20782e+12 -4.5593e+12 -3.60592e+12 -4.39175e+12 -4.7509e+12 -4.33501e+12 -4.87412e+12 -5.00923e+12 -4.1176e+12 -5.16392e+12 -5.31898e+12 -5.58425e+12 -5.42214e+12 -5.6483e+12 -5.30123e+12 -6.2409e+12 -6.00098e+12 -5.89541e+12 -6.10361e+12 -6.13305e+12 -6.23188e+12 -6.24553e+12 -3.79964e+12 -3.73627e+12 -3.33499e+12 -6.04238e+12 -6.01427e+12 -5.93518e+12 -4.99101e+12 -5.49814e+12 -6.06672e+12 -6.30432e+12 -5.51924e+12 -5.57482e+12 -5.52352e+12 -5.53878e+12 -5.64729e+12 -5.60234e+12 -5.90501e+12 -6.19593e+12 -5.09114e+12 -4.24063e+12 -3.94972e+12 -3.94908e+12 -4.59211e+12 -4.53624e+12 -4.69162e+12 -4.26754e+12 -3.96731e+12 -3.93511e+12 -3.77761e+12 -3.79666e+12 -3.755e+12 -3.92002e+12 -4.31204e+12 -4.5211e+12 -4.27379e+12 -3.89353e+12 -4.34275e+12 -4.6821e+12 -5.03438e+12 -4.76517e+12 -3.53192e+12 -4.52796e+12 -4.655e+12 -5.0917e+12 -5.02003e+12 -6.27118e+12 -5.39928e+12 -5.40834e+12 -5.44045e+12 -5.39155e+12 -5.65489e+12 -5.45716e+12 -5.8967e+12 -6.78361e+12 -5.15903e+12 -5.52895e+12 -5.92909e+12 -6.02408e+12 -6.0741e+12 -6.15738e+12 -6.05149e+12 -6.14298e+12 -3.65428e+12 -3.29133e+12 -5.99429e+12 -5.99376e+12 -6.05012e+12 -6.00042e+12 -6.51725e+12 -5.84863e+12 -6.10956e+12 -6.61464e+12 -4.13744e+12 -5.24166e+12 -5.35345e+12 -5.38931e+12 -5.46987e+12 -5.44173e+12 -5.489e+12 -5.31118e+12 -5.08993e+12 -4.12815e+12 -4.63581e+12 -4.04198e+12 -3.2882e+12 -3.38968e+12 -4.25691e+12 -4.31827e+12 -4.34757e+12 -4.02044e+12 -3.7836e+12 -3.67165e+12 -3.75257e+12 -3.97545e+12 -3.99913e+12 -4.31789e+12 -4.19353e+12 -4.11974e+12 -4.73491e+12 -5.46207e+12 -4.44658e+12 -4.6075e+12 -3.93798e+12 -5.35135e+12 -5.20307e+12 -5.27448e+12 -5.26027e+12 -5.39846e+12 -6.10172e+12 -6.54662e+12 -5.99359e+12 -5.89128e+12 -5.99307e+12 -5.96091e+12 -5.93372e+12 -6.0245e+12 -5.89815e+12 -3.56134e+12 -3.14046e+12 -3.22233e+12 -5.87353e+12 -5.83152e+12 -5.93719e+12 -5.91244e+12 -6.32502e+12 -6.35109e+12 -6.06487e+12 -5.94039e+12 -5.48788e+12 -4.82501e+12 -5.20387e+12 -5.43572e+12 -5.26194e+12 -5.33433e+12 -5.22743e+12 -5.20206e+12 -5.08132e+12 -4.28079e+12 -5.18239e+12 -5.12285e+12 -5.30579e+12 -4.76558e+12 -4.09338e+12 -4.02809e+12 -4.03905e+12 -4.05279e+12 -3.80678e+12 -3.80663e+12 -3.63314e+12 -3.6112e+12 -3.74875e+12 -3.94933e+12 -3.98458e+12 -4.34212e+12 -4.69475e+12 -5.28924e+12 -5.64561e+12 -3.3149e+12 -4.90386e+12 -5.25096e+12 -5.99589e+12 -5.06814e+12 -5.3178e+12 -5.42152e+12 -5.73559e+12 -5.95011e+12 -6.14478e+12 -6.17332e+12 -5.88767e+12 -5.77146e+12 -5.87168e+12 -5.72954e+12 -5.83336e+12 -5.7062e+12 -5.80612e+12 -5.77324e+12 -3.46286e+12 -3.35728e+12 -3.05622e+12 -5.71669e+12 -5.67545e+12 -5.78168e+12 -5.76889e+12 -6.00879e+12 -6.02167e+12 -5.97473e+12 -5.73993e+12 -5.92781e+12 -5.58676e+12 -5.2309e+12 -4.83737e+12 -5.2531e+12 -5.32021e+12 -5.3729e+12 -4.94129e+12 -4.9561e+12 -5.39952e+12 -5.46557e+12 -4.27411e+12 -4.92841e+12 -4.75113e+12 -4.04541e+12 -3.79905e+12 -3.23295e+12 -4.01698e+12 -3.78404e+12 -3.60672e+12 -3.6178e+12 -3.45238e+12 -3.52067e+12 -3.57093e+12 -3.71296e+12 -3.84605e+12 -3.63835e+12 -3.96619e+12 -4.2222e+12 -5.00426e+12 -4.70615e+12 -4.5755e+12 -4.75035e+12 -4.0894e+12 -5.18035e+12 -5.15852e+12 -5.13096e+12 -5.17191e+12 -5.20009e+12 -5.37055e+12 -5.49167e+12 -5.64789e+12 -6.08618e+12 -5.60974e+12 -5.59418e+12 -5.46175e+12 -5.61785e+12 -5.58295e+12 -5.58756e+12 -5.68192e+12 -5.55897e+12 -5.64948e+12 -3.24289e+12 -2.97993e+12 -5.36863e+12 -5.54523e+12 -5.49807e+12 -5.47674e+12 -5.64988e+12 -5.59122e+12 -5.74127e+12 -5.65419e+12 -5.89935e+12 -5.54151e+12 -5.48565e+12 -5.11101e+12 -4.82058e+12 -5.0052e+12 -5.1062e+12 -5.22749e+12 -5.24436e+12 -5.18284e+12 -5.32961e+12 -6.18379e+12 -4.98941e+12 -4.53849e+12 -4.87659e+12 -4.97041e+12 -3.91724e+12 -2.96151e+12 -3.94029e+12 -3.78613e+12 -3.55174e+12 -3.39833e+12 -3.33278e+12 -3.43449e+12 -3.36878e+12 -3.51783e+12 -3.45074e+12 -3.63948e+12 -3.56978e+12 -3.64616e+12 -4.47929e+12 -4.62049e+12 -4.2736e+12 -4.55564e+12 -4.27358e+12 -4.93386e+12 -5.01168e+12 -4.96038e+12 -4.97341e+12 -4.99289e+12 -5.08138e+12 -5.15716e+12 -5.23055e+12 -5.38531e+12 -5.55312e+12 -4.87998e+12 -5.09559e+12 -5.24198e+12 -5.4394e+12 -5.36316e+12 -5.49017e+12 -5.46665e+12 -5.43681e+12 -5.51887e+12 -5.37619e+12 -3.11622e+12 -2.83913e+12 -2.91075e+12 -5.1918e+12 -5.31572e+12 -5.28551e+12 -5.46319e+12 -5.35086e+12 -5.51695e+12 -5.42921e+12 -5.49186e+12 -4.97627e+12 -5.27454e+12 -5.07123e+12 -4.6633e+12 -4.89926e+12 -5.18988e+12 -5.61493e+12 -6.21669e+12 -3.7177e+12 -4.96646e+12 -4.94693e+12 -5.48582e+12 -4.67847e+12 -4.60017e+12 -4.43492e+12 -4.49672e+12 -4.3391e+12 -3.16285e+12 -1.78e+12 -4.64647e+12 -3.7277e+12 -3.53636e+12 -3.13769e+12 -3.34098e+12 -3.22336e+12 -3.21397e+12 -3.28551e+12 -3.36203e+12 -3.12023e+12 -3.8705e+12 -4.23415e+12 -4.78279e+12 -4.95225e+12 -5.6826e+12 -4.60698e+12 -4.85765e+12 -4.75725e+12 -4.78093e+12 -4.77553e+12 -4.79245e+12 -4.84487e+12 -4.89021e+12 -4.92343e+12 -4.95125e+12 -4.87013e+12 -3.49092e+12 -4.81928e+12 -5.16171e+12 -5.24327e+12 -5.30759e+12 -5.38187e+12 -5.26349e+12 -5.34655e+12 -5.22446e+12 -5.30081e+12 -5.21972e+12 -2.97669e+12 -2.83043e+12 -2.75854e+12 -5.01132e+12 -4.94785e+12 -5.13205e+12 -5.09047e+12 -5.28498e+12 -5.27669e+12 -5.24781e+12 -5.16071e+12 -5.31466e+12 -5.14122e+12 -4.74498e+12 -4.57536e+12 -4.49677e+12 -4.31809e+12 -4.47857e+12 -4.84584e+12 -5.22233e+12 -5.65298e+12 -5.28699e+12 -4.99957e+12 -5.40394e+12 -4.65615e+12 -4.25308e+12 -4.26192e+12 -4.14399e+12 -4.02448e+12 -3.72683e+12 -2.88633e+12 -3.08149e+12 -3.14396e+12 -2.94662e+12 -3.11564e+12 -2.95045e+12 -3.11711e+12 -3.23763e+12 -3.27705e+12 -3.28505e+12 -2.69469e+12 -3.79295e+12 -4.06458e+12 -4.43401e+12 -4.58631e+12 -4.76019e+12 -4.83402e+12 -4.39942e+12 -4.46433e+12 -4.5612e+12 -4.54199e+12 -4.56806e+12 -4.58108e+12 -4.61937e+12 -4.65501e+12 -4.67342e+12 -4.64769e+12 -4.43382e+12 -3.68955e+12 -5.5146e+12 -5.17094e+12 -5.08991e+12 -5.17617e+12 -5.19407e+12 -5.20922e+12 -5.13351e+12 -5.08438e+12 -5.15275e+12 -4.99197e+12 -5.04158e+12 -2.68292e+12 -2.65502e+12 -4.8247e+12 -4.76295e+12 -4.89646e+12 -4.86619e+12 -5.07688e+12 -5.09076e+12 -5.08244e+12 -5.0834e+12 -5.01249e+12 -5.10125e+12 -5.10519e+12 -4.12005e+12 -4.30159e+12 -4.87917e+12 -3.2603e+12 -3.85317e+12 -4.34027e+12 -4.70747e+12 -5.01943e+12 -5.07935e+12 -5.28396e+12 -5.36953e+12 -3.4063e+12 -4.13325e+12 -3.9979e+12 -3.96218e+12 -3.82119e+12 -3.62959e+12 -3.31081e+12 -2.72599e+12 -3.29139e+12 -2.3353e+12 -1.80332e+12 -2.62309e+12 -2.89964e+12 -2.86355e+12 -2.90083e+12 -2.93974e+12 -2.72705e+12 -3.81834e+12 -1.61006e+12 -3.40745e+12 -4.05401e+12 -4.09108e+12 -4.01694e+12 -4.22933e+12 -4.34289e+12 -4.21062e+12 -4.25047e+12 -4.31591e+12 -4.33436e+12 -4.35807e+12 -4.38615e+12 -4.42077e+12 -4.45622e+12 -4.49966e+12 -4.53938e+12 -4.57482e+12 -4.98033e+12 -5.34036e+12 -5.07999e+12 -5.10144e+12 -5.05117e+12 -5.0342e+12 -5.05946e+12 -4.90905e+12 -5.01662e+12 -4.87483e+12 -4.93282e+12 -4.80114e+12 -4.8433e+12 -4.63352e+12 -2.5367e+12 -2.28551e+12 -2.49135e+12 -4.44808e+12 -4.63244e+12 -4.56107e+12 -4.7123e+12 -4.68796e+12 -4.86219e+12 -4.87581e+12 -4.68073e+12 -4.98467e+12 -5.20365e+12 -5.56641e+12 -2.8635e+12 -4.37894e+12 -4.99868e+12 -2.54178e+12 -3.76962e+12 -4.65014e+12 -4.60089e+12 -2.91679e+12 -3.70309e+12 -3.93485e+12 -3.70561e+12 -3.56125e+12 -3.36425e+12 -3.1005e+12 -3.16444e+12 -2.67799e+12 -2.45707e+12 -3.07925e+12 -2.6111e+12 -2.5404e+12 -2.57104e+12 -2.71396e+12 -2.03077e+12 -3.02056e+12 -3.6684e+12 -3.82444e+12 -4.05848e+12 -2.81648e+12 -3.55209e+12 -3.98147e+12 -4.03436e+12 -4.08827e+12 -4.11553e+12 -4.13917e+12 -4.1841e+12 -4.20406e+12 -4.21193e+12 -4.19051e+12 -4.24642e+12 -3.45604e+12 -6.08203e+12 -5.50027e+12 -4.68424e+12 -5.06192e+12 -4.82197e+12 -4.83581e+12 -4.83004e+12 -4.70493e+12 -4.76687e+12 -4.56264e+12 -4.59018e+12 -4.41199e+12 -2.39615e+12 -2.07363e+12 -4.19692e+12 -4.33885e+12 -4.25704e+12 -4.50539e+12 -4.48012e+12 -4.50474e+12 -4.70616e+12 -4.78622e+12 -4.97923e+12 -4.81319e+12 -3.58162e+12 -4.56368e+12 -4.63806e+12 -4.56987e+12 -3.95844e+12 -3.59999e+12 -4.03331e+12 -4.18397e+12 -4.45528e+12 -4.56065e+12 -4.14259e+12 -3.5378e+12 -3.65236e+12 -3.73674e+12 -3.7866e+12 -3.77626e+12 -3.38191e+12 -3.2468e+12 -3.25134e+12 -3.18055e+12 -3.43665e+12 -3.28646e+12 -3.60201e+12 -1.49253e+12 -2.55575e+12 -2.11346e+12 -2.71192e+12 -2.65497e+12 -3.19807e+12 -3.09512e+12 -2.50195e+12 -3.35816e+12 -4.28731e+12 -1.36736e+12 -3.81934e+12 -3.97169e+12 -4.16282e+12 -3.97707e+12 -4.06145e+12 -3.99617e+12 -4.49921e+12 -5.08083e+12 -4.80329e+12 -4.79312e+12 -4.68712e+12 -4.69032e+12 -4.63895e+12 -4.65753e+12 -4.53765e+12 -4.34438e+12 -4.37211e+12 -4.17912e+12 -2.26533e+12 -2.13448e+12 -1.87804e+12 -3.89088e+12 -3.91169e+12 -4.17302e+12 -3.96928e+12 -4.20976e+12 -4.21508e+12 -4.59943e+12 -4.78327e+12 -5.3145e+12 -4.02966e+12 -4.04834e+12 -3.33954e+12 -3.92978e+12 -3.51766e+12 -3.84983e+12 -4.04533e+12 -4.14596e+12 -4.20634e+12 -3.67504e+12 -3.6457e+12 -3.65204e+12 -3.63615e+12 -3.59673e+12 -3.51063e+12 -3.21533e+12 -3.15148e+12 -3.17783e+12 -3.22043e+12 -2.46979e+12 -3.8468e+12 -1.86425e+12 -2.9634e+12 -2.95592e+12 -2.20302e+12 -1.88235e+12 -2.95345e+12 -2.91255e+12 -4.01259e+12 -2.73925e+12 -3.28581e+12 -3.56108e+12 -3.71156e+12 -3.76527e+12 -3.82031e+12 -3.86309e+12 -3.88648e+12 -3.90422e+12 -3.91812e+12 -3.93076e+12 -3.94571e+12 -3.7944e+12 -4.1326e+12 -4.07214e+12 -4.12275e+12 -3.47738e+12 -5.27337e+12 -4.84946e+12 -4.3451e+12 -4.40842e+12 -4.45392e+12 -4.33807e+12 -4.33885e+12 -4.11194e+12 -4.11627e+12 -4.14484e+12 -3.89946e+12 -3.93017e+12 -1.99897e+12 -1.68198e+12 -3.17802e+12 -3.55642e+12 -3.60971e+12 -3.89423e+12 -3.87724e+12 -3.84175e+12 -4.29297e+12 -4.42414e+12 -5.08915e+12 -5.11783e+12 -3.32127e+12 -3.93527e+12 -3.82027e+12 -2.83645e+12 -3.08627e+12 -3.6218e+12 -3.8077e+12 -3.63532e+12 -3.74475e+12 -3.80667e+12 -3.83626e+12 -3.84053e+12 -3.63111e+12 -3.61942e+12 -3.59569e+12 -3.55623e+12 -3.51265e+12 -3.44978e+12 -3.36011e+12 -3.2637e+12 -3.05865e+12 -2.85424e+12 -3.10514e+12 -2.77091e+12 -2.07502e+12 -2.98366e+12 -1.24471e+12 -3.1612e+12 -1.40352e+12 -2.90461e+12 -3.06771e+12 -3.40659e+12 -3.00186e+12 -2.62819e+12 -2.9654e+12 -3.22512e+12 -3.39645e+12 -3.50395e+12 -3.56005e+12 -3.60413e+12 -3.63162e+12 -3.64676e+12 -3.65626e+12 -3.65753e+12 -3.6583e+12 -3.6739e+12 -3.74957e+12 -3.81294e+12 -3.64832e+12 -2.96495e+12 -4.9337e+12 -4.78082e+12 -4.41312e+12 -4.37855e+12 -4.28978e+12 -4.22332e+12 -4.19276e+12 -4.13811e+12 -3.87208e+12 -3.87905e+12 -3.63374e+12 -3.661e+12 -3.37174e+12 -1.85809e+12 -1.19067e+12 -1.45548e+12 -2.6739e+12 -3.29537e+12 -3.6837e+12 -3.705e+12 -3.40282e+12 -3.35631e+12 -3.91191e+12 -4.01803e+12 -4.12629e+12 -4.58218e+12 -4.59902e+12 -4.28165e+12 -3.79001e+12 -3.9914e+12 -4.56315e+12 -5.11962e+12 -4.60046e+12 -3.84382e+12 -3.74796e+12 -3.67135e+12 -3.55794e+12 -3.55108e+12 -3.5445e+12 -3.49643e+12 -3.51226e+12 -3.55651e+12 -3.61022e+12 -3.54208e+12 -3.46576e+12 -3.38911e+12 -3.31038e+12 -3.23299e+12 -3.1727e+12 -3.11393e+12 -3.0844e+12 -3.56169e+12 -3.20042e+12 -3.10212e+12 -3.12162e+12 -2.97652e+12 -2.96906e+12 -2.85091e+12 -2.98916e+12 -3.12888e+12 -3.2362e+12 -3.31041e+12 -3.35597e+12 -3.38515e+12 -3.40039e+12 -3.4051e+12 -3.39694e+12 -3.37929e+12 -3.36369e+12 -3.36659e+12 -3.43683e+12 -3.82824e+12 -3.62069e+12 -3.44709e+12 -3.77552e+12 -4.03467e+12 -3.819e+12 -3.41724e+12 -4.47227e+12 -3.94234e+12 -3.91721e+12 -3.87057e+12 -3.63358e+12 -3.62049e+12 -3.34258e+12 -3.07924e+12 -1.69679e+12 -1.51201e+12 -1.00607e+12 -1.98582e+12 -2.86808e+12 -3.11257e+12 -3.47506e+12 -3.75658e+12 -4.21304e+12 -2.3712e+12 -3.45813e+12 -3.58407e+12 -3.69843e+12 -4.14815e+12 -4.04244e+12 -3.98234e+12 -3.8954e+12 -3.81745e+12 -4.24892e+12 -4.33327e+12 -3.92403e+12 -3.59527e+12 -3.5221e+12 -3.45233e+12 -3.35919e+12 -3.30529e+12 -3.22169e+12 -3.08747e+12 -3.34865e+12 -3.5912e+12 -3.44457e+12 -3.33222e+12 -3.24334e+12 -3.17238e+12 -3.11615e+12 -3.06439e+12 -3.01997e+12 -2.9735e+12 -2.87841e+12 -2.92814e+12 -2.73584e+12 -2.54702e+12 -2.62331e+12 -2.33862e+12 -2.55458e+12 -2.62371e+12 -3.02741e+12 -3.25594e+12 -3.20561e+12 -3.09371e+12 -3.03989e+12 -2.92054e+12 -2.88922e+12 -2.88573e+12 -2.86657e+12 -2.93437e+12 -3.01228e+12 -3.07915e+12 -3.12706e+12 -3.15712e+12 -3.17187e+12 -3.17272e+12 -3.15828e+12 -3.12604e+12 -3.07804e+12 -3.00301e+12 -2.75686e+12 -3.65005e+12 -3.68112e+12 -3.52686e+12 -3.39241e+12 -3.22158e+12 -2.34206e+12 -4.6774e+12 -4.16322e+12 -3.97414e+12 -3.99156e+12 -3.73215e+12 -3.67127e+12 -3.33351e+12 -3.32481e+12 -2.98943e+12 -3.03074e+12 -2.76274e+12 -1.31944e+12 -1.83714e+12 -1.07882e+12 -2.26765e+12 -2.61488e+12 -3.41759e+12 -3.81153e+12 -2.88556e+12 -3.10029e+12 -3.26192e+12 -3.76762e+12 -3.78356e+12 -3.84044e+12 -3.94656e+12 -4.10467e+12 -2.77735e+12 -3.49265e+12 -3.57242e+12 -3.48157e+12 -3.33045e+12 -3.27216e+12 -2.80818e+12 -2.36114e+12 -3.67719e+12 -3.70218e+12 -3.58301e+12 -3.08446e+12 -3.04007e+12 -3.00507e+12 -2.96369e+12 -2.91499e+12 -2.84875e+12 -2.82323e+12 -2.72079e+12 -2.6053e+12 -2.60174e+12 -2.44687e+12 -2.5492e+12 -2.50784e+12 -2.81436e+12 -2.93874e+12 -3.00041e+12 -2.99078e+12 -2.94074e+12 -2.85898e+12 -2.80689e+12 -2.79604e+12 -2.79764e+12 -2.80255e+12 -2.8394e+12 -2.88443e+12 -2.94716e+12 -2.9119e+12 -2.8556e+12 -2.77015e+12 -2.49527e+12 -3.96153e+12 -3.72926e+12 -3.57751e+12 -3.4493e+12 -3.26756e+12 -3.0529e+12 -2.5305e+12 -3.72865e+12 -3.59066e+12 -2.76014e+12 -4.55513e+12 -3.51523e+12 -3.45223e+12 -3.37874e+12 -3.01536e+12 -2.98103e+12 -2.6444e+12 -2.73832e+12 -2.40604e+12 -2.42445e+12 -1.13355e+12 -1.61259e+12 -2.1423e+12 -2.40823e+12 -1.31778e+12 -1.88052e+12 -2.94925e+12 -3.26449e+12 -4.05363e+12 -2.12466e+12 -2.64584e+12 -2.81002e+12 -3.3794e+12 -3.47073e+12 -3.58376e+12 -3.7376e+12 -4.2224e+12 -4.82852e+12 -2.49012e+12 -3.10223e+12 -3.22124e+12 -3.20133e+12 -3.10744e+12 -2.98545e+12 -3.79247e+12 -3.65152e+12 -3.44408e+12 -3.26623e+12 -3.15361e+12 -2.91136e+12 -2.86798e+12 -2.81054e+12 -2.76014e+12 -2.68445e+12 -2.60278e+12 -2.55612e+12 -2.48287e+12 -2.48068e+12 -2.48788e+12 -2.58492e+12 -2.72717e+12 -2.7842e+12 -2.81421e+12 -2.80726e+12 -2.76152e+12 -2.71981e+12 -2.92426e+12 -2.9515e+12 -2.96468e+12 -2.96395e+12 -2.31632e+12 -3.95315e+12 -3.80267e+12 -3.57828e+12 -3.42544e+12 -3.38627e+12 -2.86595e+12 -3.06516e+12 -2.93828e+12 -2.26961e+12 -3.99842e+12 -3.88311e+12 -3.1182e+12 -3.07399e+12 -2.5967e+12 -2.58939e+12 -2.38042e+12 -2.0561e+12 -2.08078e+12 -1.73759e+12 -951032000000.0 -1.16623e+12 -2.10113e+12 -2.8975e+12 -1.61843e+12 -2.4789e+12 -2.21668e+12 -2.41042e+12 -2.72465e+12 -3.50986e+12 -3.57127e+12 -2.09852e+12 -2.49707e+12 -2.96171e+12 -3.08866e+12 -3.23255e+12 -3.38481e+12 -3.97147e+12 -4.35387e+12 -4.5354e+12 -2.64813e+12 -3.19032e+12 -3.10334e+12 -3.03497e+12 -2.94677e+12 -2.82243e+12 -2.65789e+12 -2.41592e+12 -1.98927e+12 -3.63991e+12 -3.435e+12 -3.20433e+12 -3.02055e+12 -2.95603e+12 -2.9361e+12 -2.93781e+12 -2.64389e+12 -2.57142e+12 -2.51363e+12 -2.45632e+12 -2.43177e+12 -2.4234e+12 -2.46874e+12 -2.53849e+12 -2.69767e+12 -2.69283e+12 -2.69463e+12 -2.70258e+12 -2.72411e+12 -2.74974e+12 -2.77002e+12 -2.78025e+12 -2.7782e+12 -2.76194e+12 -2.72639e+12 -2.66861e+12 -2.57962e+12 -3.78284e+12 -3.70551e+12 -3.53545e+12 -3.37514e+12 -3.28322e+12 -3.17733e+12 -3.04385e+12 -2.80991e+12 -2.27154e+12 -2.83322e+12 -3.01139e+12 -2.88715e+12 -2.77407e+12 -2.67484e+12 -2.10119e+12 -2.16349e+12 -2.02393e+12 -2.04705e+12 -1.71796e+12 -1.38881e+12 -756272000000.0 -563189000000.0 -397925000000.0 -757431000000.0 -1.28431e+12 -2.08783e+12 -1.91146e+12 -1.8986e+12 -2.13224e+12 -2.29771e+12 -2.94198e+12 -3.04571e+12 -2.98985e+12 -2.17447e+12 -2.48412e+12 -2.63919e+12 -2.81247e+12 -3.5702e+12 -3.78285e+12 -3.87923e+12 -3.68599e+12 -2.95099e+12 -2.99107e+12 -2.95761e+12 -2.8802e+12 -2.79451e+12 -2.68675e+12 -2.54946e+12 -2.37805e+12 -2.17959e+12 -1.84853e+12 -3.32627e+12 -3.11914e+12 -2.90581e+12 -2.7146e+12 -2.781e+12 -2.86923e+12 -2.86798e+12 -2.83245e+12 -2.77683e+12 -2.71543e+12 -2.60577e+12 -2.63802e+12 -2.65033e+12 -2.63674e+12 -2.61225e+12 -2.59268e+12 -2.58236e+12 -2.57902e+12 -2.58061e+12 -2.58701e+12 -2.59905e+12 -2.61096e+12 -2.61709e+12 -2.61457e+12 -2.60026e+12 -2.56865e+12 -2.51061e+12 -2.42229e+12 -2.19329e+12 -3.48769e+12 -3.4903e+12 -3.38178e+12 -3.26465e+12 -3.16434e+12 -3.06517e+12 -2.96139e+12 -2.86622e+12 -2.93194e+12 -3.53385e+12 -2.57598e+12 -1.76763e+12 -2.78779e+12 -2.58737e+12 -2.38556e+12 -2.19917e+12 -1.36629e+12 -1.78669e+12 -1.70884e+12 -1.356e+12 -1.03662e+12 -378800000000.0 -118949000000.0 -628156000000.0 -1.28919e+12 -1.15625e+12 -1.34484e+12 -1.8258e+12 -1.86305e+12 -2.45162e+12 -2.55603e+12 -2.5823e+12 -2.47545e+12 -2.01793e+12 -2.3262e+12 -2.97981e+12 -3.11533e+12 -3.25785e+12 -3.31599e+12 -3.2496e+12 -3.06089e+12 -2.75531e+12 -2.7932e+12 -2.78183e+12 -2.7308e+12 -2.65119e+12 -2.55946e+12 -2.44911e+12 -2.32059e+12 -2.17985e+12 -2.03339e+12 -1.79254e+12 -2.92965e+12 -2.75295e+12 -2.55671e+12 -2.26708e+12 -2.83305e+12 -2.85226e+12 -2.81747e+12 -2.75597e+12 -2.68291e+12 -2.60476e+12 -2.52869e+12 -2.46422e+12 -2.40881e+12 -2.37248e+12 -2.35429e+12 -2.36692e+12 -2.40408e+12 -2.44588e+12 -2.48055e+12 -2.49683e+12 -2.49802e+12 -2.48884e+12 -2.47662e+12 -2.4672e+12 -2.46166e+12 -2.45995e+12 -2.46124e+12 -2.46474e+12 -2.46937e+12 -2.47173e+12 -2.46859e+12 -2.45725e+12 -2.43242e+12 -2.38561e+12 -2.29442e+12 -2.10552e+12 -3.08282e+12 -3.00741e+12 -2.92603e+12 -2.84488e+12 -2.78598e+12 -2.8227e+12 -2.85039e+12 -2.87462e+12 -2.31015e+12 -2.49501e+12 -2.15643e+12 -1.85476e+12 -1.58345e+12 -2.07175e+12 -1.35287e+12 -1.3383e+12 -932632000000.0 -1.0001e+12 -676306000000.0 -219994000000.0 -189262000000.0 -447904000000.0 -474125000000.0 -1.30128e+12 -713372000000.0 -1.38664e+12 -1.43328e+12 -1.981e+12 -2.09527e+12 -2.18612e+12 -2.49053e+12 -2.41645e+12 -2.68899e+12 -1.73752e+12 -2.53821e+12 -2.70159e+12 -2.74187e+12 -2.82532e+12 -2.84075e+12 -2.81385e+12 -2.7588e+12 -2.61332e+12 -2.59395e+12 -2.56147e+12 -2.50744e+12 -2.43426e+12 -2.34817e+12 -2.24883e+12 -2.14335e+12 -2.03608e+12 -1.92837e+12 -1.76161e+12 -1.97239e+12 -2.8366e+12 -2.82645e+12 -2.75257e+12 -2.66239e+12 -2.56995e+12 -2.48184e+12 -2.40712e+12 -2.34828e+12 -2.30541e+12 -2.27828e+12 -2.27272e+12 -2.28695e+12 -2.31152e+12 -2.33568e+12 -2.35297e+12 -2.35928e+12 -2.35804e+12 -2.35273e+12 -2.34654e+12 -2.34179e+12 -2.33905e+12 -2.33822e+12 -2.33828e+12 -2.33865e+12 -2.33812e+12 -2.33457e+12 -2.3262e+12 -2.30948e+12 -2.279e+12 -2.22258e+12 -2.04674e+12 -3.12301e+12 -3.19281e+12 -3.15318e+12 -2.75341e+12 -2.69212e+12 -2.64365e+12 -2.64434e+12 -2.67225e+12 -2.71005e+12 -2.97145e+12 -2.89033e+12 -2.24504e+12 -2.43137e+12 -1.67899e+12 -1.22184e+12 -707862000000.0 -2.19064e+12 -1.60059e+12 -879335000000.0 -611114000000.0 -657490000000.0 -241527000000.0 -346548000000.0 -66499700000.0 -155223000000.0 -140195000000.0 -600400000000.0 -831633000000.0 -904287000000.0 -1.49211e+12 -1.60975e+12 -1.74915e+12 -2.24292e+12 -2.33509e+12 -2.47645e+12 -2.74157e+12 -2.08154e+12 -2.29713e+12 -2.45633e+12 -2.28916e+12 -2.44426e+12 -2.42593e+12 -2.39461e+12 -2.35733e+12 -2.52514e+12 -2.38858e+12 -2.21535e+12 -2.77299e+12 -2.65659e+12 -2.53999e+12 -2.43397e+12 -2.34348e+12 -2.27625e+12 -2.2288e+12 -2.19591e+12 -2.1788e+12 -2.17802e+12 -2.18871e+12 -2.20369e+12 -2.21682e+12 -2.22472e+12 -2.22702e+12 -2.22582e+12 -2.2228e+12 -2.73541e+12 -2.85576e+12 -2.87669e+12 -2.85307e+12 -2.80908e+12 -2.47508e+12 -2.45268e+12 -2.46516e+12 -2.5304e+12 -2.63218e+12 -2.64126e+12 -2.569e+12 -3.40532e+12 -2.59479e+12 -2.12194e+12 -363569000000.0 -2.09641e+12 -1.25812e+12 -825513000000.0 -410642000000.0 -374490000000.0 -139851000000.0 -131459000000.0 -315342000000.0 -304779000000.0 -1.03084e+12 -1.05113e+12 -1.88707e+12 -2.04014e+12 -2.21135e+12 -2.42121e+12 -1.5268e+12 -1.8796e+12 -2.11645e+12 -2.35339e+12 -2.50032e+12 -2.52541e+12 -2.49651e+12 -2.30484e+12 -2.23951e+12 -2.16465e+12 -2.08427e+12 -2.00293e+12 -1.92283e+12 -1.84234e+12 -1.7285e+12 -2.15225e+12 -2.06607e+12 -1.94248e+12 -1.69648e+12 -2.82826e+12 -2.21957e+12 -2.21708e+12 -2.21542e+12 -2.21413e+12 -2.21278e+12 -2.21084e+12 -2.20736e+12 -2.20144e+12 -2.19178e+12 -2.17663e+12 -2.15566e+12 -2.12032e+12 -2.31908e+12 -2.50535e+12 -2.57681e+12 -2.59401e+12 -2.58245e+12 -2.55404e+12 -2.5149e+12 -2.26254e+12 -2.30016e+12 -2.39778e+12 -2.41348e+12 -2.42657e+12 -2.2345e+12 -2.46709e+12 -1.95225e+12 -1.54872e+12 -1.04418e+12 -717062000000.0 -340176000000.0 -302931000000.0 -107790000000.0 -321812000000.0 -322384000000.0 -145173000000.0 -428747000000.0 -764754000000.0 -1.24361e+12 -1.4503e+12 -1.67572e+12 -1.85832e+12 -2.65636e+12 -1.35104e+12 -1.69247e+12 -1.93827e+12 -2.07124e+12 -2.20488e+12 -2.27088e+12 -2.29673e+12 -2.27954e+12 -2.24e+12 -2.20791e+12 -2.17024e+12 -2.1238e+12 -2.06855e+12 -2.00765e+12 -1.94564e+12 -1.88566e+12 -1.82744e+12 -1.76759e+12 -1.70422e+12 -1.86318e+12 -1.81728e+12 -1.69908e+12 -1.44514e+12 -2.76483e+12 -2.67048e+12 -2.51769e+12 -2.38249e+12 -2.27218e+12 -2.19387e+12 -2.14025e+12 -2.10468e+12 -2.08156e+12 -2.07101e+12 -2.07166e+12 -2.07884e+12 -2.08755e+12 -2.09443e+12 -2.09824e+12 -2.09917e+12 -2.09835e+12 -2.09663e+12 -2.09469e+12 -2.09291e+12 -2.09115e+12 -2.08921e+12 -2.0869e+12 -2.08375e+12 -2.07931e+12 -2.07327e+12 -2.06546e+12 -2.05689e+12 -2.05286e+12 -2.13849e+12 -2.20708e+12 -2.28696e+12 -2.32563e+12 -2.3385e+12 -2.33409e+12 -2.31832e+12 -2.29598e+12 -2.27474e+12 -2.12639e+12 -2.1633e+12 -2.1542e+12 -2.42042e+12 -1.75838e+12 -1.43975e+12 -995571000000.0 -312383000000.0 -1.95639e+12 -194533000000.0 -110605000000.0 -104267000000.0 -97909600000.0 -120069000000.0 -71267300000.0 -216278000000.0 -659946000000.0 -903416000000.0 -1.27403e+12 -1.49346e+12 -2.0499e+12 -2.26067e+12 -2.46078e+12 -1.18061e+12 -2.11609e+12 -1.90651e+12 -2.0262e+12 -2.08594e+12 -2.10581e+12 -2.09355e+12 -2.06539e+12 -2.03525e+12 -2.00082e+12 -1.961e+12 -1.9161e+12 -1.86937e+12 -1.82469e+12 -1.78282e+12 -1.74037e+12 -1.69859e+12 -1.67528e+12 -1.68713e+12 -1.60718e+12 -1.46974e+12 -1.2144e+12 -2.64831e+12 -2.51167e+12 -2.32718e+12 -2.18261e+12 -2.09963e+12 -2.03943e+12 -2.00166e+12 -1.97738e+12 -1.96218e+12 -1.9562e+12 -1.95762e+12 -1.96253e+12 -1.9678e+12 -1.97177e+12 -1.97394e+12 -1.97449e+12 -1.97399e+12 -1.97283e+12 -1.97129e+12 -1.96954e+12 -1.96752e+12 -1.96519e+12 -1.96238e+12 -1.95898e+12 -1.95523e+12 -1.95145e+12 -1.94868e+12 -1.95206e+12 -1.99096e+12 -2.02493e+12 -2.01733e+12 -2.05649e+12 -2.08557e+12 -2.10263e+12 -2.10794e+12 -2.1044e+12 -2.09609e+12 -2.08507e+12 -2.08244e+12 -2.09887e+12 -1.13787e+12 -802538000000.0 -1.97708e+12 -532406000000.0 -661408000000.0 -473296000000.0 -955126000000.0 -1.64546e+12 -1.81777e+12 -2.0174e+12 -2.19018e+12 -1.52263e+12 -1.73543e+12 -1.87649e+12 -1.7856e+12 -1.88922e+12 -1.92972e+12 -1.93955e+12 -1.92684e+12 -1.90309e+12 -1.87554e+12 -1.84571e+12 -1.81295e+12 -1.77853e+12 -1.7455e+12 -1.71577e+12 -1.68635e+12 -1.65149e+12 -1.6156e+12 -1.57733e+12 -2.45823e+12 -2.27221e+12 -2.05535e+12 -1.98215e+12 -1.92429e+12 -1.88587e+12 -1.86322e+12 -1.84833e+12 -1.83957e+12 -1.83737e+12 -1.83971e+12 -1.84366e+12 -1.84743e+12 -1.85022e+12 -1.85182e+12 -1.85232e+12 -1.85194e+12 -1.85089e+12 -1.84941e+12 -1.84759e+12 -1.84543e+12 -1.84301e+12 -1.84039e+12 -1.8379e+12 -1.83626e+12 -1.83691e+12 -1.84301e+12 -1.86087e+12 -1.88909e+12 -1.90503e+12 -1.91077e+12 -1.90779e+12 -1.89757e+12 -1.89154e+12 -1.88534e+12 -1.8513e+12 -1.81896e+12 -1.8912e+12 -1.82841e+12 -1.41381e+12 -662388000000.0 -1.51627e+12 -156437000000.0 -102124000000.0 -558436000000.0 -535324000000.0 -1.15145e+12 -1.31789e+12 -1.33033e+12 -1.52626e+12 -1.65891e+12 -1.08813e+12 -1.37073e+12 -1.54533e+12 -1.66431e+12 -1.72089e+12 -1.77551e+12 -1.79226e+12 -1.79027e+12 -1.7741e+12 -1.75121e+12 -1.72642e+12 -1.52005e+12 -1.4071e+12 -1.2515e+12 -1.01037e+12 -2.15025e+12 -1.83384e+12 -1.82586e+12 -1.78701e+12 -1.75599e+12 -1.7381e+12 -1.72716e+12 -1.71971e+12 -1.71641e+12 -1.71749e+12 -1.72094e+12 -1.72478e+12 -1.86418e+12 -1.87948e+12 -1.8763e+12 -1.74405e+12 -1.81839e+12 -1.72911e+12 -1.73e+12 -1.71655e+12 -1.69384e+12 -1.65678e+12 -1.59114e+12 -1.52377e+12 -1.46757e+12 -1.35211e+12 -1.07138e+12 -1.22136e+12 -142227000000.0 -831308000000.0 -1.02239e+12 -1.22585e+12 -1.09378e+12 -1.88158e+12 -1.00829e+12 -1.2191e+12 -1.39832e+12 -1.49308e+12 -1.7014e+12 -1.67646e+12 -1.65301e+12 -1.63288e+12 -1.61518e+12 -1.59222e+12 -1.55995e+12 -1.52649e+12 -1.46976e+12 -1.36717e+12 -1.21923e+12 -1.03654e+12 -1.72809e+12 -1.73052e+12 -1.73196e+12 -1.73241e+12 -1.73196e+12 -1.73086e+12 -1.72932e+12 -1.72739e+12 -1.72523e+12 -1.72309e+12 -1.72139e+12 -1.72093e+12 -1.72313e+12 -1.73054e+12 -1.74699e+12 -1.76269e+12 -1.76331e+12 -1.78763e+12 -1.48642e+12 -1.61499e+12 -1.66571e+12 -1.70742e+12 -1.51205e+12 -1.47325e+12 -1.40803e+12 -1.16871e+12 -945783000000.0 -808207000000.0 -575484000000.0 -1.04239e+12 -1.25427e+12 -200695000000.0 -607442000000.0 -462916000000.0 -702700000000.0 -883495000000.0 -1.1788e+12 -1.54467e+12 -1.56398e+12 -1.6377e+12 -1.66397e+12 -1.66178e+12 -1.6485e+12 -1.62763e+12 -1.6047e+12 -1.58367e+12 -1.56561e+12 -1.55031e+12 -1.53812e+12 -1.52951e+12 -1.5208e+12 -1.50246e+12 -1.47611e+12 -1.44536e+12 -1.37116e+12 -1.20545e+12 -989177000000.0 -883034000000.0 -1.19222e+12 -1.58285e+12 -1.61641e+12 -1.60943e+12 -1.60246e+12 -1.59811e+12 -1.59514e+12 -1.59376e+12 -1.59503e+12 -1.59876e+12 -1.60325e+12 -1.60736e+12 -1.61068e+12 -1.61303e+12 -1.61435e+12 -1.61463e+12 -1.61403e+12 -1.61283e+12 -1.61115e+12 -1.60911e+12 -1.60713e+12 -1.60568e+12 -1.60548e+12 -1.60786e+12 -1.61489e+12 -1.62862e+12 -1.64449e+12 -1.65444e+12 -1.63823e+12 -1.70757e+12 -1.33177e+12 -1.47295e+12 -1.51732e+12 -1.56062e+12 -1.56496e+12 -1.54349e+12 -1.30557e+12 -469532000000.0 -587045000000.0 -594772000000.0 -1.12853e+12 -63175400000.0 -554412000000.0 -387683000000.0 -586009000000.0 -1.03822e+12 -805003000000.0 -1.22672e+12 -1.26933e+12 -1.28019e+12 -806472000000.0 -1.16085e+12 -1.28953e+12 -1.33292e+12 -1.55091e+12 -1.54929e+12 -1.52977e+12 -1.50536e+12 -1.48041e+12 -1.45992e+12 -1.44645e+12 -1.43829e+12 -1.43419e+12 -1.43367e+12 -1.43601e+12 -1.43525e+12 -1.42479e+12 -1.41328e+12 -1.39696e+12 -1.34441e+12 -1.12513e+12 -666545000000.0 -226558000000.0 -1.55791e+12 -1.49088e+12 -1.46492e+12 -1.46082e+12 -1.46262e+12 -1.46528e+12 -1.46835e+12 -1.47187e+12 -1.47666e+12 -1.48233e+12 -1.48768e+12 -1.49215e+12 -1.49556e+12 -1.49783e+12 -1.49894e+12 -1.49898e+12 -1.4982e+12 -1.49678e+12 -1.4948e+12 -1.49273e+12 -1.49116e+12 -1.49063e+12 -1.49228e+12 -1.4978e+12 -1.50879e+12 -1.52334e+12 -1.53613e+12 -1.54134e+12 -1.4122e+12 -1.54669e+12 -1.24351e+12 -1.38102e+12 -1.42541e+12 -1.42208e+12 -1.39394e+12 -1.35709e+12 -1.31399e+12 -1.24827e+12 -1.15011e+12 -993470000000.0 -788028000000.0 -554265000000.0 -624327000000.0 -525308000000.0 -61211600000.0 -80347800000.0 -499740000000.0 -726965000000.0 -842076000000.0 -855277000000.0 -969364000000.0 -915182000000.0 -1.23174e+12 -1.03635e+12 -1.1291e+12 -1.19758e+12 -1.19924e+12 -1.45177e+12 -1.42546e+12 -1.38799e+12 -1.3536e+12 -1.32865e+12 -1.31792e+12 -1.31612e+12 -1.32063e+12 -1.32925e+12 -1.34126e+12 -1.35497e+12 -1.36407e+12 -1.36841e+12 -1.38127e+12 -971161000000.0 -270043000000.0 -700126000000.0 -1.30155e+12 -1.28448e+12 -1.29984e+12 -1.31653e+12 -1.32928e+12 -1.33918e+12 -1.34731e+12 -1.35442e+12 -1.36169e+12 -1.3687e+12 -1.3747e+12 -1.37945e+12 -1.38286e+12 -1.3849e+12 -1.38568e+12 -1.38545e+12 -1.3844e+12 -1.38252e+12 -1.38022e+12 -1.37823e+12 -1.37701e+12 -1.35686e+12 -1.21455e+12 -1.29074e+12 -1.30627e+12 -1.27343e+12 -1.23166e+12 -1.17713e+12 -1.10819e+12 -1.02402e+12 -932668000000.0 -722477000000.0 -445633000000.0 -518850000000.0 -213987000000.0 -283840000000.0 -472794000000.0 -418616000000.0 -820088000000.0 -686176000000.0 -1.03866e+12 -1.09024e+12 -1.11338e+12 -1.08754e+12 -1.34277e+12 -1.40238e+12 -1.40171e+12 -1.04273e+12 -838661000000.0 -688917000000.0 -1.37738e+12 -1.38071e+12 -1.38838e+12 -1.40142e+12 -1.41967e+12 -1.44744e+12 -1.51246e+12 -1.20345e+12 -1.18338e+12 -1.13012e+12 -1.06532e+12 -990750000000.0 -905793000000.0 -815810000000.0 -707711000000.0 -400530000000.0 -567694000000.0 -336037000000.0 -296525000000.0 -41856000000.0 -104710000000.0 -443875000000.0 -316103000000.0 -476088000000.0 -692594000000.0 -1.12721e+12 -992903000000.0 -994803000000.0 -1.28287e+12 -1.22603e+12 -1.18679e+12 -1.17722e+12 -1.18187e+12 -1.19563e+12 -1.21504e+12 -1.23777e+12 -1.2631e+12 -1.28835e+12 -1.30978e+12 -1.33471e+12 -1.38743e+12 -1.50425e+12 -1.65694e+12 -370240000000.0 -585903000000.0 -1.04055e+12 -1.11113e+12 -1.15626e+12 -1.1859e+12 -1.20579e+12 -1.2206e+12 -1.23191e+12 -1.24145e+12 -1.25035e+12 -1.25816e+12 -1.26452e+12 -1.26933e+12 -1.27252e+12 -1.27418e+12 -1.27457e+12 -1.27396e+12 -1.27232e+12 -1.26983e+12 -1.26727e+12 -1.26512e+12 -1.26387e+12 -1.2646e+12 -1.26827e+12 -1.27592e+12 -1.28897e+12 -1.31086e+12 -1.35602e+12 -1.44564e+12 -1.02103e+12 -1.16726e+12 -1.22251e+12 -1.22256e+12 -431579000000.0 -488841000000.0 -442475000000.0 -268670000000.0 -41098000000.0 -59358600000.0 -142356000000.0 -357172000000.0 -167176000000.0 -639808000000.0 -453436000000.0 -915707000000.0 -887816000000.0 -819296000000.0 -1.03662e+12 -1.04201e+12 -991122000000.0 -1.2038e+12 -1.10028e+12 -1.02753e+12 -1.01874e+12 -1.03133e+12 -1.05656e+12 -1.0887e+12 -1.12455e+12 -1.16194e+12 -1.19967e+12 -1.23373e+12 -1.26299e+12 -1.2971e+12 -1.37016e+12 -1.5506e+12 -994156000000.0 -521109000000.0 -719378000000.0 -909912000000.0 -990446000000.0 -1.03867e+12 -1.07008e+12 -1.09245e+12 -1.10905e+12 -1.12169e+12 -1.13269e+12 -1.14251e+12 -1.15071e+12 -1.15713e+12 -1.16167e+12 -1.16443e+12 -1.16559e+12 -1.16544e+12 -1.16412e+12 -1.16166e+12 -1.15851e+12 -1.15535e+12 -1.15254e+12 -1.15072e+12 -1.15051e+12 -1.15237e+12 -1.15701e+12 -1.16546e+12 -1.18197e+12 -1.2098e+12 -1.28894e+12 -940215000000.0 -999548000000.0 -1.18502e+12 -1.12494e+12 -1.05138e+12 -973125000000.0 -892009000000.0 -804521000000.0 -712847000000.0 -616838000000.0 -372795000000.0 -336523000000.0 -57179400000.0 -37520200000.0 -20831900000.0 -420347000000.0 -462749000000.0 -684432000000.0 -712402000000.0 -721820000000.0 -700587000000.0 -955559000000.0 -1.00698e+12 -1.01002e+12 -904659000000.0 -1.00011e+12 -826773000000.0 -832050000000.0 -856954000000.0 -898651000000.0 -947330000000.0 -999349000000.0 -1.05193e+12 -1.10321e+12 -1.14928e+12 -1.18525e+12 -1.21034e+12 -1.23097e+12 -1.30199e+12 -1.3034e+12 -1.52731e+12 -597695000000.0 -597064000000.0 -639580000000.0 -735854000000.0 -834543000000.0 -894878000000.0 -935396000000.0 -964259000000.0 -986268000000.0 -1.00275e+12 -1.01601e+12 -1.0278e+12 -1.03796e+12 -1.04622e+12 -1.05231e+12 -1.05628e+12 -1.05843e+12 -1.0589e+12 -1.05788e+12 -1.05555e+12 -1.0521e+12 -1.04803e+12 -1.04383e+12 -1.03988e+12 -1.03643e+12 -1.03368e+12 -1.03165e+12 -1.02928e+12 -1.02423e+12 -1.00889e+12 -933125000000.0 -1.09177e+12 -945778000000.0 -867158000000.0 -1.07931e+12 -990671000000.0 -896967000000.0 -807647000000.0 -716723000000.0 -621892000000.0 -522397000000.0 -400452000000.0 -469645000000.0 -34705500000.0 -77799500000.0 -241044000000.0 -118843000000.0 -314217000000.0 -586338000000.0 -465144000000.0 -574643000000.0 -586558000000.0 -948144000000.0 -1.07271e+12 -1.00351e+12 -825651000000.0 -624131000000.0 -601491000000.0 -628239000000.0 -691623000000.0 -761771000000.0 -551934000000.0 -584526000000.0 -630117000000.0 -696010000000.0 -759335000000.0 -805233000000.0 -838748000000.0 -864771000000.0 -903686000000.0 -869934000000.0 -758223000000.0 -933436000000.0 -829263000000.0 -729754000000.0 -635810000000.0 -541544000000.0 -439930000000.0 -325419000000.0 -411602000000.0 -346461000000.0 -275398000000.0 -111679000000.0 -59272500000.0 -142382000000.0 -127052000000.0 -66195900000.0 -405760000000.0 -642351000000.0 -1.16229e+12 -1.1457e+12 -834519000000.0 -907315000000.0 -978448000000.0 -1.04498e+12 -1.09814e+12 -1.12995e+12 -1.12677e+12 -1.07866e+12 -1.13095e+12 -1.29296e+12 -1.3284e+12 -885043000000.0 -900647000000.0 -914169000000.0 -926222000000.0 -936424000000.0 -944366000000.0 -949735000000.0 -952888000000.0 -954180000000.0 -953628000000.0 -951401000000.0 -947833000000.0 -943150000000.0 -937778000000.0 -932145000000.0 -926361000000.0 -920446000000.0 -914268000000.0 -907171000000.0 -896613000000.0 -877325000000.0 -837627000000.0 -879496000000.0 -316947000000.0 -297155000000.0 -244747000000.0 -75131600000.0 -66833200000.0 -14145500000.0 -35162100000.0 -28422300000.0 -14719100000.0 -356504000000.0 -470343000000.0 -410274000000.0 -437870000000.0 -598717000000.0 -1.05984e+12 -949952000000.0 -946941000000.0 -896481000000.0 -812736000000.0 -749049000000.0 -703375000000.0 -667298000000.0 -636053000000.0 -609214000000.0 -590167000000.0 -585667000000.0 -607186000000.0 -695953000000.0 -894470000000.0 -1.02939e+12 -1.11243e+12 -1.12818e+12 -464825000000.0 -535986000000.0 -585736000000.0 -637428000000.0 -683397000000.0 -718876000000.0 -746458000000.0 -769112000000.0 -787034000000.0 -801987000000.0 -815569000000.0 -827610000000.0 -837461000000.0 -844669000000.0 -849012000000.0 -851103000000.0 -851192000000.0 -849196000000.0 -845422000000.0 -840333000000.0 -834138000000.0 -827198000000.0 -819701000000.0 -811721000000.0 -802702000000.0 -792100000000.0 -779694000000.0 -760405000000.0 -723317000000.0 -765355000000.0 -775195000000.0 -702596000000.0 -778602000000.0 -648442000000.0 -765071000000.0 -650900000000.0 -552816000000.0 -464003000000.0 -375236000000.0 -259771000000.0 -200848000000.0 -75633300000.0 -45811900000.0 -27886200000.0 -351421000000.0 -358971000000.0 -537689000000.0 -441918000000.0 -420116000000.0 -389737000000.0 -553212000000.0 -557638000000.0 -504347000000.0 -388052000000.0 -495442000000.0 -542761000000.0 -566169000000.0 -569126000000.0 -564876000000.0 -557526000000.0 -549942000000.0 -547124000000.0 -552098000000.0 -572549000000.0 -618897000000.0 -717563000000.0 -829598000000.0 -906351000000.0 -955453000000.0 -952840000000.0 -414107000000.0 -487488000000.0 -532916000000.0 -573857000000.0 -608170000000.0 -634706000000.0 -656757000000.0 -675518000000.0 -691717000000.0 -706214000000.0 -719954000000.0 -731412000000.0 -740505000000.0 -746591000000.0 -749671000000.0 -750366000000.0 -748739000000.0 -744809000000.0 -739212000000.0 -732373000000.0 -724458000000.0 -715751000000.0 -706315000000.0 -695851000000.0 -683084000000.0 -667998000000.0 -653216000000.0 -626742000000.0 -648401000000.0 -614067000000.0 -655261000000.0 -537625000000.0 -666146000000.0 -527846000000.0 -590951000000.0 -447244000000.0 -373187000000.0 -308414000000.0 -241687000000.0 -228029000000.0 -215137000000.0 -17399800000.0 -36893100000.0 -53227800000.0 -58445300000.0 -321542000000.0 -252894000000.0 -342693000000.0 -442019000000.0 -402532000000.0 -380404000000.0 -400532000000.0 -310754000000.0 -377106000000.0 -439208000000.0 -476903000000.0 -507675000000.0 -532256000000.0 -551131000000.0 -566733000000.0 -583126000000.0 -597794000000.0 -613636000000.0 -626516000000.0 -636984000000.0 -644918000000.0 -649595000000.0 -548825000000.0 -482443000000.0 -485414000000.0 -525836000000.0 -389763000000.0 -552400000000.0 -386446000000.0 -432219000000.0 -233825000000.0 -222808000000.0 -179234000000.0 -165325000000.0 -144203000000.0 -122167000000.0 -81058800000.0 -75749400000.0 -26056800000.0 -18162300000.0 -38475200000.0 -67440400000.0 -214265000000.0 -329981000000.0 -261602000000.0 -192439000000.0 -204685000000.0 -185390000000.0 -337790000000.0 -389391000000.0 -415545000000.0 -434871000000.0 -450527000000.0 -463472000000.0 -477814000000.0 -502522000000.0 -540724000000.0 -600070000000.0 -671875000000.0 -737569000000.0 -782789000000.0 -806659000000.0 -791777000000.0 -651181000000.0 -649999000000.0 -645942000000.0 -639629000000.0 -631802000000.0 -623015000000.0 -613568000000.0 -603321000000.0 -591977000000.0 -579096000000.0 -562635000000.0 -542012000000.0 -532763000000.0 -111128000000.0 -81747400000.0 -74756800000.0 -50694200000.0 -19595300000.0 -278108000000.0 -276129000000.0 -209721000000.0 -174451000000.0 -146331000000.0 -155925000000.0 -258960000000.0 -268340000000.0 -268451000000.0 -257833000000.0 -230405000000.0 -237019000000.0 -255737000000.0 -291858000000.0 -335246000000.0 -371738000000.0 -392641000000.0 -419769000000.0 -457685000000.0 -504467000000.0 -555016000000.0 -604436000000.0 -640519000000.0 -660279000000.0 -662018000000.0 -655021000000.0 -337643000000.0 -387546000000.0 -418622000000.0 -435761000000.0 -456091000000.0 -461544000000.0 -476181000000.0 -487885000000.0 -508497000000.0 -522808000000.0 -534350000000.0 -543506000000.0 -550113000000.0 -553141000000.0 -553017000000.0 -549082000000.0 -541808000000.0 -532099000000.0 -521811000000.0 -511727000000.0 -501561000000.0 -490047000000.0 -476698000000.0 -461909000000.0 -439841000000.0 -395781000000.0 -449756000000.0 -386431000000.0 -333523000000.0 -366407000000.0 -354628000000.0 -260996000000.0 -449846000000.0 -253895000000.0 -255043000000.0 -155147000000.0 -102492000000.0 -85046500000.0 -106282000000.0 -15451300000.0 -30097500000.0 -49465400000.0 -210638000000.0 -255234000000.0 -230801000000.0 -181617000000.0 -153700000000.0 -120231000000.0 -43347900000.0 -73206500000.0 -42349500000.0 -170032000000.0 -164172000000.0 -162292000000.0 -159105000000.0 -140939000000.0 -145883000000.0 -143773000000.0 -206277000000.0 -265873000000.0 -303546000000.0 -330413000000.0 -371708000000.0 -416291000000.0 -460696000000.0 -500060000000.0 -533536000000.0 -534608000000.0 -534339000000.0 -511568000000.0 -558669000000.0 -296831000000.0 -338086000000.0 -355644000000.0 -366701000000.0 -367494000000.0 -369685000000.0 -371634000000.0 -404181000000.0 -420280000000.0 -432641000000.0 -442477000000.0 -450290000000.0 -455433000000.0 -457143000000.0 -454415000000.0 -446923000000.0 -434133000000.0 -419969000000.0 -408138000000.0 -398870000000.0 -388838000000.0 -375895000000.0 -360781000000.0 -349579000000.0 -326670000000.0 -298844000000.0 -299845000000.0 -177690000000.0 -206387000000.0 -220171000000.0 -221061000000.0 -164063000000.0 -317551000000.0 -112234000000.0 -159509000000.0 -28148000000.0 -45007500000.0 -74424000000.0 -92833300000.0 -64633000000.0 -21357800000.0 -9035750000.0 -9035750000.0 -18542000000.0 -34284200000.0 -77954200000.0 -194737000000.0 -201550000000.0 -42744000000.0 -14894100000.0 -96094000000.0 -86702700000.0 -81403100000.0 -252606000000.0 -331521000000.0 -242702000000.0 -309863000000.0 -209070000000.0 -302290000000.0 -315626000000.0 -329183000000.0 -337847000000.0 -346906000000.0 -351696000000.0 -358199000000.0 -355602000000.0 -351219000000.0 -335617000000.0 -313799000000.0 -79119800000.0 -129338000000.0 -193475000000.0 -245958000000.0 -276715000000.0 -246147000000.0 -445615000000.0 -201055000000.0 -191258000000.0 -135150000000.0 -89849300000.0 -53312600000.0 -23732500000.0 -175321000000.0 -141506000000.0 -117930000000.0 -16609900000.0 -10582500000.0 -76227500000.0 -62459000000.0 -63752000000.0 -54934000000.0 -121706000000.0 -169595000000.0 -212882000000.0 -280485000000.0 -333956000000.0 -378584000000.0 -414716000000.0 -445321000000.0 -465389000000.0 -398614000000.0 -380124000000.0 -350463000000.0 -537004000000.0 -291379000000.0 -294473000000.0 -285011000000.0 -277735000000.0 -266431000000.0 -249910000000.0 -232546000000.0 -247089000000.0 -225051000000.0 -166634000000.0 -322303000000.0 -334611000000.0 -240392000000.0 -203176000000.0 -17654000000.0 -35034500000.0 -65418100000.0 -197990000000.0 -189639000000.0 -155067000000.0 -120665000000.0 -95793000000.0 -18167800000.0 -36868900000.0 -67172500000.0 -65880800000.0 -121461000000.0 -108204000000.0 -94580900000.0 -80456300000.0 -62018800000.0 -51844000000.0 -36332900000.0 -17042500000.0 -94943100000.0 -136905000000.0 -202160000000.0 -251676000000.0 -302091000000.0 -335460000000.0 -355534000000.0 -381736000000.0 -411952000000.0 -83402200000.0 -324546000000.0 -35072000000.0 -278197000000.0 -185338000000.0 -272054000000.0 -193655000000.0 -252337000000.0 -179512000000.0 -269856000000.0 -246321000000.0 -232091000000.0 -220033000000.0 -210383000000.0 -198260000000.0 -188030000000.0 -171450000000.0 -156342000000.0 -136670000000.0 -119477000000.0 -115766000000.0 -126540000000.0 -139386000000.0 -148778000000.0 -153288000000.0 -154406000000.0 -171913000000.0 -147080000000.0 -95411100000.0 -52359400000.0 -70378100000.0 -86053400000.0 -87465200000.0 -83672300000.0 -54146300000.0 -183118000000.0 -43834300000.0 -49310500000.0 -20208400000.0 -9050570000.0 -42376600000.0 -49720700000.0 -21106800000.0 -14030300000.0 -9035750000.0 -9035750000.0 -9035750000.0 -9035750000.0 -9036950000.0 -128348000000.0 -132972000000.0 -24390600000.0 -12095400000.0 -44518700000.0 -43884600000.0 -38415300000.0 -175083000000.0 -222488000000.0 -335587000000.0 -203117000000.0 -69037600000.0 -126239000000.0 -62490600000.0 -102011000000.0 -78095600000.0 -76402600000.0 -77339300000.0 -77203600000.0 -79948500000.0 -83207600000.0 -91562600000.0 -97379000000.0 -106118000000.0 -110081000000.0 -99023000000.0 -97976600000.0 -89469700000.0 -50751000000.0 -155674000000.0 -40826200000.0 -20490800000.0 -13962400000.0 -9037220000.0 -9035750000.0 -123585000000.0 -110077000000.0 -100299000000.0 -31107500000.0 -23997500000.0 -32853900000.0 -25088600000.0 -23744100000.0 -22577200000.0 -18468000000.0 -46564700000.0 -70014800000.0 -102057000000.0 -121089000000.0 -145279000000.0 -160499000000.0 -91542700000.0 -307776000000.0 -120093000000.0 -19283900000.0 -111401000000.0 -119457000000.0 -133505000000.0 -149861000000.0 -162754000000.0 -170426000000.0 -173185000000.0 -193921000000.0 -169206000000.0 -104966000000.0 -89732200000.0 -90207200000.0 -49022500000.0 -45062200000.0 -25892700000.0 -11770300000.0 -37745500000.0 -9035750000.0 -9035750000.0 -9764790000.0 -104331000000.0 -101791000000.0 -87678300000.0 -71933900000.0 -62259300000.0 -9997620000.0 -9035800000.0 -12851600000.0 -10215900000.0 -36771700000.0 -39994500000.0 -35593600000.0 -31121400000.0 -26074800000.0 -25091200000.0 -25398200000.0 -26539100000.0 -34136300000.0 -61426900000.0 -90338700000.0 -110040000000.0 -132018000000.0 -145544000000.0 -156243000000.0 -169068000000.0 -210555000000.0 -17210400000.0 -166456000000.0 -27939400000.0 -87891800000.0 -10030500000.0 -66704200000.0 -24898500000.0 -66548000000.0 -14883700000.0 -71047800000.0 -70258200000.0 -71140100000.0 -70662600000.0 -71453000000.0 -71512400000.0 -74387700000.0 -73973500000.0 -75263600000.0 -72618600000.0 -69149600000.0 -73780700000.0 -80922800000.0 -88984000000.0 -94229800000.0 -96356300000.0 -95943900000.0 -108610000000.0 -80165800000.0 -34297500000.0 -42106500000.0 -49236200000.0 -60564500000.0 -62642400000.0 -59643600000.0 -33427300000.0 -114772000000.0 -27875000000.0 -22671300000.0 -15674500000.0 -9040490000.0 -32224600000.0 -32522500000.0 -19352700000.0 -13231500000.0 -9035750000.0 -9035750000.0 -9035750000.0 -9035750000.0 -9035750000.0 -76366600000.0 -11197800000.0 -26752500000.0 -149530000000.0 -50479900000.0 -85098800000.0 -25061500000.0 -17070000000.0 -12112000000.0 -9035750000.0 -9035750000.0 -74717000000.0 -65384200000.0 -53988600000.0 -46968100000.0 -9788120000.0 -9035780000.0 -9087060000.0 -30508000000.0 -26923200000.0 -23187600000.0 -19313200000.0 -17280700000.0 -16078300000.0 -15482100000.0 -14267800000.0 -27245700000.0 -48164700000.0 -59260000000.0 -74138900000.0 -83665200000.0 -94144400000.0 -106223000000.0 -15467800000.0 -114298000000.0 -22376600000.0 -57662000000.0 -10423300000.0 -18489000000.0 -48544800000.0 -10518900000.0 -49491300000.0 -48782500000.0 -49580800000.0 -49676500000.0 -51027800000.0 -51891200000.0 -54913900000.0 -55505300000.0 -57349900000.0 -56355500000.0 -54236400000.0 -58200000000.0 -63072000000.0 -68311600000.0 -71421600000.0 -72430000000.0 -71826000000.0 -81044900000.0 -56815800000.0 -26932600000.0 -34428500000.0 -39356000000.0 -47121500000.0 -48448100000.0 -46489000000.0 -27391300000.0 -21389100000.0 -16223000000.0 -13512700000.0 -9044880000.0 -26005500000.0 -9035750000.0 -9035750000.0 -9035750000.0 -49046900000.0 -48087000000.0 -42643200000.0 -35794100000.0 -31524100000.0 -9516650000.0 -9035740000.0 -10222700000.0 -9060210000.0 -19191800000.0 -22179900000.0 -19932200000.0 -17632800000.0 -15433300000.0 -14018300000.0 -13177700000.0 -12778100000.0 -11917800000.0 -15645400000.0 -30805600000.0 -36545500000.0 -46304000000.0 -52308400000.0 -59262000000.0 -65741900000.0 -89521500000.0 -10274700000.0 -70329600000.0 -17371300000.0 -34512200000.0 -9036420000.0 -31958900000.0 -12190600000.0 -31452200000.0 -9169220000.0 -32840700000.0 -32738500000.0 -33531200000.0 -33732600000.0 -34660000000.0 -35234600000.0 -37125100000.0 -37495000000.0 -38534500000.0 -37829300000.0 -36531000000.0 -39114600000.0 -41879400000.0 -44752300000.0 -46357600000.0 -46830100000.0 -46496200000.0 -52306800000.0 -36399800000.0 -19962900000.0 -24875200000.0 -27607400000.0 -32127700000.0 -32888800000.0 -31789700000.0 -20368700000.0 -54531500000.0 -15942200000.0 -12232600000.0 -11603300000.0 -9043150000.0 -19246100000.0 -18254500000.0 -14029000000.0 -10853700000.0 -9035750000.0 -9035750000.0 -9035750000.0 -9035750000.0 -10622900000.0 -9599760000.0 -9035750000.0 -9035750000.0 -9035750000.0 -21542800000.0 -21253500000.0 -19561000000.0 -17407500000.0 -16058400000.0 -9184490000.0 -9035680000.0 -9379700000.0 -9041970000.0 -12149800000.0 -13196300000.0 -12470400000.0 -11744300000.0 -11071600000.0 -10603000000.0 -10320500000.0 -10180500000.0 -9957110000.0 -10432900000.0 -15827100000.0 -17254000000.0 -20513200000.0 -22346500000.0 -24528100000.0 -26426700000.0 -34176900000.0 -9398330000.0 -28071700000.0 -11697100000.0 -16526600000.0 -9036130000.0 -16028000000.0 -9745260000.0 -16030200000.0 -9078770000.0 -16529700000.0 -16503200000.0 -16756400000.0 -16821800000.0 -17124800000.0 -17313500000.0 -17917200000.0 -18038600000.0 -18359800000.0 -18128300000.0 -17729100000.0 -18567300000.0 -19419400000.0 -20291400000.0 -20764200000.0 -20892000000.0 -20775100000.0 -22646100000.0 -17556500000.0 -12469200000.0 -14090700000.0 -14898200000.0 -16308900000.0 -16548500000.0 -16213300000.0 -12635800000.0 -23300600000.0 -11164900000.0 -9866700000.0 -9826820000.0 -9038100000.0 -12237000000.0 -11889400000.0 
SCALARS Shear_Stress float 1
LOOKUP_TABLE default
27996400000.0 1312320000.0 39764900000.0 3432530000.0 59980000000.0 51540700000.0 48161200000.0 34867900000.0 47006400000.0 17054400000.0 47977300000.0 13635200000.0 69538300000.0 37616600000.0 21680900000.0 5066090000.0 30658000000.0 30776600000.0 83944500000.0 8019710000.0 5285470000.0 46643300000.0 42705100000.0 82837900000.0 3266270000.0 59760600000.0 43943500000.0 9372660000.0 108945000000.0 126840000000.0 38044400000.0 95181200000.0 38104200000.0 16553700000.0 3285990000.0 87630900000.0 62747300000.0 39438700000.0 10732500000.0 32500700000.0 25832900000.0 68157000000.0 110637000000.0 152180000000.0 33817400000.0 80907000000.0 102507000000.0 75456300000.0 258180000000.0 57071700000.0 68856900000.0 18052600000.0 6406680000.0 46515200000.0 6615540000.0 9564560000.0 19827700000.0 50164100000.0 112080000000.0 91207400000.0 103468000000.0 116719000000.0 186976000000.0 148758000000.0 171857000000.0 152441000000.0 36165600000.0 98891100000.0 55551200000.0 73891300000.0 154637000000.0 103982000000.0 209793000000.0 265338000000.0 118878000000.0 2095990000.0 16814100000.0 44075500000.0 12439200000.0 22015700000.0 39128100000.0 43652600000.0 136541000000.0 225188000000.0 203969000000.0 180383000000.0 6018450000.0 49278200000.0 260061000000.0 266369000000.0 1682350000.0 93378300000.0 61816100000.0 35673100000.0 35779200000.0 65707600000.0 295948000000.0 250833000000.0 247478000000.0 208950000000.0 34242600000.0 81571100000.0 63469800000.0 17986600000.0 172478000000.0 86520800000.0 171223000000.0 130417000000.0 126969000000.0 69414400000.0 82886700000.0 62965200000.0 148240000000.0 153768000000.0 404232000000.0 340837000000.0 234445000000.0 272093000000.0 281173000000.0 278819000000.0 272018000000.0 242856000000.0 232444000000.0 207345000000.0 25610300000.0 53444000000.0 106678000000.0 205687000000.0 165227000000.0 115394000000.0 193459000000.0 425629000000.0 285222000000.0 338452000000.0 219901000000.0 211466000000.0 114523000000.0 127570000000.0 360830000000.0 239498000000.0 234575000000.0 278364000000.0 254694000000.0 220375000000.0 199280000000.0 318107000000.0 580141000000.0 311423000000.0 534125000000.0 465077000000.0 320339000000.0 173192000000.0 117442000000.0 225813000000.0 171694000000.0 184394000000.0 246808000000.0 263485000000.0 235040000000.0 5481730000.0 35181700000.0 323194000000.0 592853000000.0 382864000000.0 555815000000.0 439260000000.0 266532000000.0 188999000000.0 133810000000.0 110924000000.0 145468000000.0 134427000000.0 186654000000.0 96404300000.0 129427000000.0 128766000000.0 192038000000.0 205246000000.0 246772000000.0 234032000000.0 242155000000.0 217926000000.0 215215000000.0 27215600000.0 49099600000.0 270954000000.0 396545000000.0 534167000000.0 215323000000.0 485745000000.0 534077000000.0 482377000000.0 378408000000.0 293887000000.0 116156000000.0 86889400000.0 84910300000.0 77110300000.0 147230000000.0 206522000000.0 212367000000.0 193236000000.0 267634000000.0 253981000000.0 254271000000.0 115086000000.0 257591000000.0 425950000000.0 545770000000.0 543455000000.0 410144000000.0 171565000000.0 62011600000.0 50780600000.0 35736500000.0 86355200000.0 160484000000.0 194378000000.0 185864000000.0 70632400000.0 118198000000.0 205004000000.0 77447700000.0 205660000000.0 551697000000.0 507519000000.0 313627000000.0 122632000000.0 65628400000.0 7217180000.0 22416300000.0 17030900000.0 5380200000.0 34595000000.0 26558000000.0 33312400000.0 101414000000.0 108117000000.0 160355000000.0 147882000000.0 172150000000.0 144757000000.0 158823000000.0 121029000000.0 240782000000.0 134772000000.0 29041400000.0 58327300000.0 6603560000.0 433542000000.0 571682000000.0 578240000000.0 454153000000.0 362994000000.0 498977000.0 19713700000.0 70262300000.0 46468100000.0 36326500000.0 105240000000.0 126911000000.0 118084000000.0 10035400000.0 106271000000.0 77746700000.0 146312000000.0 74703500000.0 278529000000.0 647547000000.0 697723000000.0 548825000000.0 25849600000.0 16119500000.0 57721100000.0 137617000000.0 55875000000.0 33359400000.0 97639600000.0 101562000000.0 173355000000.0 364420000000.0 115349000000.0 233788000000.0 110790000000.0 342467000000.0 703995000000.0 504214000000.0 200058000000.0 61989200000.0 58370600000.0 11357500000.0 25076800000.0 155393000000.0 323779000000.0 174787000000.0 241905000000.0 78943700000.0 75577000000.0 38738400000.0 53346100000.0 84779200000.0 65897100000.0 78738100000.0 221348000000.0 468037000000.0 127272000000.0 214558000000.0 235614000000.0 357592000000.0 328422000000.0 220444000000.0 212246000000.0 676893000000.0 731372000000.0 27883000000.0 82505900000.0 103378000000.0 544298000000.0 271628000000.0 28582600000.0 59984700000.0 50759800000.0 202496000000.0 313755000000.0 467221000000.0 342580000000.0 297651000000.0 230605000000.0 142511000000.0 84739600000.0 17182900000.0 331411000000.0 98694000000.0 98891500000.0 131583000000.0 74365800000.0 84930900000.0 195531000000.0 207920000000.0 684894000000.0 205127000000.0 36480100000.0 50886300000.0 257184000000.0 547497000000.0 262089000000.0 425299000000.0 532999000000.0 180003000000.0 54715800000.0 711030000000.0 23616700000.0 190013000000.0 156845000000.0 94797800000.0 657319000000.0 475923000000.0 70458800000.0 79172600000.0 74164600000.0 72759800000.0 47457200000.0 270485000000.0 617203000000.0 234360000000.0 251071000000.0 337366000000.0 453877000000.0 560356000000.0 736243000000.0 469487000000.0 85058200000.0 203533000000.0 359581000000.0 305283000000.0 149729000000.0 281948000000.0 190003000000.0 115128000000.0 186298000000.0 156296000000.0 88550100000.0 249675000000.0 272020000000.0 691252000000.0 409886000000.0 141073000000.0 173825000000.0 321007000000.0 336101000000.0 154765000000.0 34042400000.0 187388000000.0 291327000000.0 412527000000.0 340670000000.0 302748000000.0 209873000000.0 281578000000.0 398471000000.0 690526000000.0 141703000000.0 156511000000.0 250507000000.0 706128000000.0 286938000000.0 225438000000.0 205903000000.0 314231000000.0 405503000000.0 1.0917e+12 166824000000.0 250276000000.0 66426600000.0 52935900000.0 382964000000.0 440755000000.0 247969000000.0 396646000000.0 892392000000.0 944455000000.0 351852000000.0 349862000000.0 196104000000.0 212660000000.0 844540000000.0 247053000000.0 212491000000.0 537277000000.0 258835000000.0 292833000000.0 235750000000.0 283154000000.0 262892000000.0 99911000000.0 3837210000.0 253642000000.0 542308000000.0 337279000000.0 271853000000.0 363872000000.0 508145000000.0 546029000000.0 789254000000.0 324788000000.0 352110000000.0 253706000000.0 333449000000.0 809192000000.0 725357000000.0 609572000000.0 341271000000.0 274406000000.0 99932800000.0 111087000000.0 213565000000.0 457291000000.0 712324000000.0 581384000000.0 431815000000.0 258651000000.0 323995000000.0 424414000000.0 545466000000.0 522509000000.0 193832000000.0 1.05452e+12 370332000000.0 323180000000.0 410907000000.0 383407000000.0 943731000000.0 164726000000.0 495376000000.0 355568000000.0 197264000000.0 129594000000.0 272507000000.0 946334000000.0 383704000000.0 422049000000.0 356119000000.0 291894000000.0 499613000000.0 377958000000.0 386467000000.0 232006000000.0 1.36262e+12 364735000000.0 884638000000.0 557082000000.0 155189000000.0 428938000000.0 488861000000.0 461575000000.0 438796000000.0 332242000000.0 278951000000.0 167379000000.0 143466000000.0 136648000000.0 258447000000.0 832129000000.0 522422000000.0 443257000000.0 467736000000.0 416568000000.0 144369000000.0 246722000000.0 294858000000.0 1.66548e+12 174936000000.0 313909000000.0 639124000000.0 276510000000.0 502596000000.0 47311300000.0 406483000000.0 504215000000.0 408411000000.0 236839000000.0 104100000000.0 99252800000.0 62004400000.0 92292800000.0 273925000000.0 399621000000.0 28733900000.0 203722000000.0 163695000000.0 341350000000.0 253401000000.0 47514500000.0 99002600000.0 276157000000.0 501221000000.0 546705000000.0 502836000000.0 369092000000.0 198197000000.0 68985200000.0 99674600000.0 217508000000.0 268527000000.0 187597000000.0 297695000000.0 209899000000.0 185374000000.0 42255100000.0 58335600000.0 470682000000.0 1.84127e+12 317490000000.0 144629000000.0 247071000000.0 233135000000.0 17495400000.0 117801000000.0 320503000000.0 439351000000.0 533784000000.0 574839000000.0 492954000000.0 478106000000.0 335587000000.0 314519000000.0 170978000000.0 185279000000.0 94330200000.0 178231000000.0 11463800000.0 179027000000.0 612506000000.0 78854300000.0 42718000000.0 1.43387e+12 1.14559e+12 49662500000.0 319556000000.0 168629000000.0 462052000000.0 604147000000.0 592969000000.0 467588000000.0 321745000000.0 258358000000.0 141604000000.0 2538940000.0 515249000000.0 639290000000.0 251441000000.0 132550000000.0 43209900000.0 50715000000.0 591875000000.0 1.29275e+12 613015000000.0 29973600000.0 347550000000.0 444035000000.0 93333800000.0 213229000000.0 341346000000.0 494864000000.0 576315000000.0 677170000000.0 660845000000.0 698391000000.0 602360000000.0 610438000000.0 471793000000.0 371652000000.0 336033000000.0 167376000000.0 210394000000.0 290719000000.0 220973000000.0 107063000000.0 695988000000.0 1.23741e+12 116459000000.0 9229690000.0 368141000000.0 321576000000.0 375512000000.0 646836000000.0 748011000000.0 718337000000.0 625659000000.0 500395000000.0 550245000000.0 450444000000.0 547479000000.0 399554000000.0 1.04269e+12 742954000000.0 178057000000.0 96735600000.0 137247000000.0 148734000000.0 119015000000.0 794055000000.0 496853000000.0 572999000000.0 203494000000.0 332548000000.0 640949000000.0 248641000000.0 583965000000.0 756613000000.0 784589000000.0 731345000000.0 647790000000.0 614632000000.0 766903000000.0 969151000000.0 235376000000.0 68457700000.0 1326430000.0 92772200000.0 202658000000.0 1.24937e+12 1.29903e+12 324044000000.0 599791000000.0 614811000000.0 421306000000.0 506173000000.0 746507000000.0 743587000000.0 787756000000.0 805437000000.0 836461000000.0 806524000000.0 813948000000.0 738671000000.0 736737000000.0 671893000000.0 704251000000.0 646680000000.0 490396000000.0 92296000000.0 21629600000.0 64895900000.0 83302900000.0 254551000000.0 527837000000.0 913779000000.0 9035750000.0 1.24251e+12 618002000000.0 1.2463e+12 1.24955e+12 282689000000.0 230745000000.0 921854000000.0 818662000000.0 754143000000.0 817613000000.0 853097000000.0 799749000000.0 717057000000.0 691146000000.0 628159000000.0 635253000000.0 313170000000.0 9738190000.0 75270300000.0 219206000000.0 84270500000.0 1.12339e+12 30570500000.0 406043000000.0 214236000000.0 1.10983e+12 711074000000.0 348712000000.0 210957000000.0 836166000000.0 278120000000.0 1.00767e+12 729145000000.0 763587000000.0 840696000000.0 844351000000.0 757187000000.0 647892000000.0 511251000000.0 465101000000.0 83863900000.0 83561900000.0 106699000000.0 238323000000.0 467669000000.0 156417000000.0 82318400000.0 125646000000.0 635159000000.0 737549000000.0 313234000000.0 125163000000.0 139068000000.0 1.27592e+12 453706000000.0 707298000000.0 632007000000.0 697407000000.0 690299000000.0 777796000000.0 779815000000.0 848617000000.0 817990000000.0 800675000000.0 682270000000.0 552569000000.0 378094000000.0 245475000000.0 271281000000.0 149466000000.0 177143000000.0 427617000000.0 906667000000.0 1.08762e+12 1.2387e+12 1.03409e+12 256388000000.0 199747000000.0 128040000000.0 440903000000.0 87881800000.0 1.01858e+12 428551000000.0 545105000000.0 70196500000.0 57293900000.0 637073000000.0 215570000000.0 504201000000.0 609989000000.0 672430000000.0 774931000000.0 742621000000.0 715341000000.0 616598000000.0 591765000000.0 529854000000.0 465355000000.0 372418000000.0 215492000000.0 161444000000.0 318636000000.0 365486000000.0 654267000000.0 509694000000.0 283574000000.0 449686000000.0 29932300000.0 484038000000.0 139343000000.0 560499000000.0 261799000000.0 884755000000.0 991850000000.0 429287000000.0 459516000000.0 84947400000.0 239231000000.0 78796600000.0 194430000000.0 1.31107e+12 449278000000.0 535231000000.0 575270000000.0 633156000000.0 731577000000.0 633200000000.0 556480000000.0 527946000000.0 466874000000.0 328731000000.0 293025000000.0 569056000000.0 618136000000.0 1.72602e+12 31337600000.0 179285000000.0 143620000000.0 622455000000.0 767480000000.0 208172000000.0 164610000000.0 354612000000.0 401065000000.0 483991000000.0 1.1315e+12 44305000000.0 137731000000.0 381363000000.0 25318700000.0 674643000000.0 811175000000.0 548910000000.0 529020000000.0 443533000000.0 492068000000.0 380195000000.0 613615000000.0 573982000000.0 650708000000.0 552455000000.0 531664000000.0 526055000000.0 442321000000.0 418243000000.0 328670000000.0 500031000000.0 917114000000.0 1.12838e+12 1.2883e+12 351624000000.0 762415000000.0 3626110000.0 428514000000.0 1.07534e+12 272197000000.0 401057000000.0 138133000.0 317946000000.0 229221000000.0 259943000000.0 462119000000.0 760783000000.0 600758000000.0 374158000000.0 599040000000.0 509504000000.0 251314000000.0 41971900000.0 218010000000.0 492073000000.0 1.07609e+12 937361000000.0 758448000000.0 726161000000.0 533365000000.0 408946000000.0 249691000000.0 321176000000.0 538694000000.0 527290000000.0 479711000000.0 565379000000.0 536430000000.0 508230000000.0 473205000000.0 656364000000.0 758930000000.0 1.09915e+12 89018900000.0 417111000000.0 660203000000.0 646159000000.0 150208000000.0 321209000000.0 11348600000.0 4501300000.0 434184000000.0 157084000000.0 262815000000.0 378367000000.0 547426000000.0 667683000000.0 130195000000.0 422674000000.0 389630000000.0 1.25129e+12 618677000000.0 464454000000.0 681223000000.0 783845000000.0 944018000000.0 912984000000.0 617828000000.0 217634000000.0 10751300000.0 318766000000.0 373265000000.0 375306000000.0 400746000000.0 534996000000.0 670666000000.0 628655000000.0 578048000000.0 626666000000.0 813890000000.0 958474000000.0 976372000000.0 1.05086e+12 224686000000.0 817680000000.0 794909000000.0 297843000000.0 417580000000.0 236057000000.0 275631000000.0 26627200000.0 360732000000.0 112686000000.0 14637300000.0 82247500000.0 143310000000.0 395019000000.0 484810000000.0 488014000000.0 105240000000.0 726100000000.0 742289000000.0 77618400000.0 771130000000.0 733073000000.0 967929000000.0 831442000000.0 440797000000.0 55017700000.0 320897000000.0 607450000000.0 132102000000.0 657028000000.0 768905000000.0 675248000000.0 726269000000.0 660170000000.0 702563000000.0 726827000000.0 885027000000.0 890366000000.0 399775000000.0 435626000000.0 1.05782e+12 381854000000.0 101285000000.0 33493100000.0 26087700000.0 13075500000.0 165852000000.0 203084000000.0 165574000000.0 104533000000.0 101227000000.0 273553000000.0 113299000000.0 10549900000.0 135981000000.0 95293600000.0 31902500000.0 786578000000.0 1.50101e+12 466012000000.0 530674000000.0 678067000000.0 296130000000.0 516791000000.0 751453000000.0 680454000000.0 587288000000.0 849528000000.0 982548000000.0 991035000000.0 791970000000.0 631076000000.0 431111000000.0 330509000000.0 326392000000.0 167126000000.0 191543000000.0 1.28626e+12 206343000000.0 568795000000.0 808624000000.0 807126000000.0 735640000000.0 715330000000.0 785911000000.0 753692000000.0 811594000000.0 638300000000.0 42568000000.0 443564000000.0 297950000000.0 2814620000.0 150675000000.0 41945900000.0 80868000000.0 227229000000.0 175882000000.0 122184000000.0 146365000000.0 225775000000.0 120313000000.0 357205000000.0 566963000000.0 187256000000.0 200012000000.0 148545000000.0 154565000000.0 115120000000.0 11785000000.0 398510000000.0 440017000000.0 643382000000.0 499661000000.0 806938000000.0 958729000000.0 482053000000.0 378411000000.0 453353000000.0 418107000000.0 281535000000.0 1.61344e+12 391563000000.0 679564000000.0 778656000000.0 875873000000.0 878463000000.0 807936000000.0 695356000000.0 683970000000.0 612229000000.0 698134000000.0 324304000000.0 259301000000.0 165565000000.0 470719000000.0 415267000000.0 288849000000.0 655089000000.0 414189000000.0 178022000000.0 143628000000.0 163238000000.0 126741000000.0 169678000000.0 240202000000.0 248879000000.0 150513000000.0 24074600000.0 697537000000.0 548311000000.0 287168000000.0 402608000000.0 826860000000.0 276268000000.0 284996000000.0 353193000000.0 72785500000.0 33214800000.0 160060000000.0 214569000000.0 1.15911e+12 450378000000.0 918071000000.0 476149000000.0 306871000000.0 399238000000.0 415433000000.0 24751600000.0 610893000000.0 721580000000.0 908931000000.0 887233000000.0 820702000000.0 735854000000.0 609875000000.0 616454000000.0 525774000000.0 626049000000.0 312462000000.0 46176300000.0 246693000000.0 189617000000.0 335469000000.0 146165000000.0 19050200000.0 10459300000.0 224824000000.0 181656000000.0 128755000000.0 146956000000.0 131951000000.0 200134000000.0 227630000000.0 148966000000.0 154318000000.0 29749500000.0 282988000000.0 139477000000.0 488553000000.0 1.02095e+12 404883000000.0 503962000000.0 554123000000.0 1.47795e+12 1.62744e+12 1.06385e+12 325715000000.0 410072000000.0 141993000000.0 113281000000.0 886832000000.0 155427000000.0 639428000000.0 384017000000.0 658215000000.0 299678000000.0 128876000000.0 123539000000.0 299733000000.0 454088000000.0 186674000000.0 56128600000.0 207062000000.0 750642000000.0 896662000000.0 672673000000.0 447371000000.0 508425000000.0 411414000000.0 161045000000.0 109042000000.0 615894000000.0 772802000000.0 199428000000.0 1.06445e+12 679124000000.0 766736000000.0 87420400000.0 50937200000.0 348176000000.0 45798300000.0 111359000000.0 147508000000.0 207071000000.0 216734000000.0 97185400000.0 133460000000.0 143307000000.0 169843000000.0 110320000000.0 491011000000.0 355816000000.0 97324700000.0 431476000000.0 358134000000.0 387589000000.0 366900000000.0 26558300000.0 652541000000.0 358607000000.0 181696000000.0 244418000000.0 702635000000.0 91146200000.0 405201000000.0 446998000000.0 495786000000.0 406023000000.0 613564000000.0 668323000000.0 748619000000.0 2079530000.0 96329900000.0 41995900000.0 72841900000.0 794456000000.0 833382000000.0 786680000000.0 466126000000.0 325722000000.0 284163000000.0 31404000000.0 59603400000.0 943646000000.0 786777000000.0 164534000000.0 5714690000.0 608608000000.0 335182000000.0 98953900000.0 98352900000.0 135657000000.0 134423000000.0 155768000000.0 202871000000.0 112234000000.0 30610800000.0 347303000000.0 127826000000.0 268982000000.0 252023000000.0 343657000000.0 611917000000.0 208385000000.0 22477500000.0 302714000000.0 30003400000.0 217333000000.0 694929000000.0 1.51516e+12 1.90144e+12 500249000000.0 1.14937e+12 593058000000.0 148275000000.0 145356000000.0 365063000000.0 986208000000.0 554997000000.0 66506100000.0 329332000000.0 518375000000.0 620886000000.0 892404000000.0 753370000000.0 322503000000.0 258903000000.0 760896000000.0 585424000000.0 326121000000.0 225260000000.0 42497300000.0 553159000000.0 319756000000.0 42057000000.0 177919000000.0 549979000000.0 759167000000.0 84128700000.0 178650000000.0 725341000000.0 841924000000.0 237936000000.0 707425000000.0 981165000000.0 253178000000.0 21423000000.0 28417500000.0 91327200000.0 227182000000.0 205769000000.0 180065000000.0 212946000000.0 7900060000.0 619574000000.0 787041000000.0 40896700000.0 85045000000.0 465924000000.0 926663000000.0 879089000000.0 114878000000.0 55284000000.0 251095000000.0 261165000000.0 319897000000.0 396025000000.0 410647000000.0 175497000000.0 918374000000.0 1.31748e+12 732125000000.0 434224000000.0 157462000000.0 452907000000.0 1.00881e+12 166126000000.0 350855000000.0 432338000000.0 489952000000.0 575166000000.0 619216000000.0 819253000000.0 977055000000.0 773126000000.0 649907000000.0 545610000000.0 589108000000.0 22286500000.0 850870000000.0 75802000000.0 440757000000.0 1.09932e+12 1.00471e+12 454081000000.0 564463000000.0 19036600000.0 491703000000.0 210361000000.0 110978000000.0 296904000000.0 362003000000.0 253102000000.0 131909000000.0 179248000000.0 199857000000.0 202554000000.0 183179000000.0 1119770000.0 252542000000.0 297457000000.0 351623000000.0 511641000000.0 297498000000.0 95114200000.0 60288700000.0 6664650000.0 224837000000.0 266873000000.0 413033000000.0 281842000000.0 229586000000.0 349980000000.0 269613000000.0 327429000000.0 362479000000.0 146926000000.0 208566000000.0 90727000000.0 54514100000.0 93776400000.0 472553000000.0 662141000000.0 749434000000.0 885280000000.0 986264000000.0 1.02321e+12 966338000000.0 788314000000.0 990368000000.0 1.24688e+12 776593000000.0 710600000000.0 358481000000.0 16807800000.0 450910000000.0 1.40286e+12 215528000000.0 188507000000.0 51754600000.0 470491000000.0 338028000000.0 477180000000.0 111530000000.0 118856000000.0 37210800000.0 192003000000.0 242696000000.0 473794000000.0 350073000000.0 635932000000.0 529265000000.0 111680000000.0 10620700000.0 155752000000.0 191197000000.0 242514000000.0 233883000000.0 160936000000.0 15883100000.0 309674000000.0 163086000000.0 72933900000.0 271284000000.0 303185000000.0 155841000000.0 237210000000.0 505974000000.0 1.1142e+12 133143000000.0 247192000000.0 373961000000.0 294061000000.0 290190000000.0 388646000000.0 111887000000.0 81895500000.0 184297000000.0 1.02478e+12 793135000000.0 889546000000.0 414175000000.0 388597000000.0 79495700000.0 199962000000.0 534636000000.0 763713000000.0 968282000000.0 974884000000.0 909560000000.0 827839000000.0 813802000000.0 886086000000.0 1.22477e+12 516541000000.0 628911000000.0 191771000000.0 593509000000.0 379934000000.0 911919000000.0 35101300000.0 47459100000.0 49665000000.0 20986300000.0 980648000000.0 612833000000.0 230665000000.0 185791000000.0 54312200000.0 237403000000.0 300797000000.0 263946000000.0 285128000000.0 135898000000.0 33831200000.0 28876000000.0 369845000000.0 371954000000.0 240901000000.0 148456000000.0 106500000000.0 165869000000.0 981074000000.0 715448000000.0 81254900000.0 1.15578e+12 283752000000.0 578632000000.0 197149000000.0 205387000000.0 153043000000.0 587845000000.0 957412000000.0 1.22798e+12 904239000000.0 745016000000.0 680428000000.0 551340000000.0 711941000000.0 391992000000.0 19202500000.0 312082000000.0 428220000000.0 604819000000.0 847371000000.0 961137000000.0 879054000000.0 771163000000.0 1.09725e+12 870663000000.0 448692000000.0 224690000000.0 416799000000.0 1.48542e+12 246439000000.0 631001000000.0 219850000000.0 653171000000.0 96075200000.0 190818000000.0 907300000.0 153183000000.0 623040000000.0 237733000000.0 366247000000.0 122688000000.0 212559000000.0 341040000000.0 317181000000.0 395790000000.0 336003000000.0 299548000000.0 107836000000.0 79049600000.0 29246900000.0 406592000000.0 465464000000.0 290279000000.0 216680000000.0 61842800000.0 235184000000.0 156641000000.0 200898000000.0 289986000000.0 143274000000.0 356096000000.0 854125000000.0 70264700000.0 404205000000.0 831913000000.0 83586600000.0 225090000000.0 42941900000.0 345593000000.0 1.02855e+12 283981000000.0 197591000000.0 715318000000.0 854694000000.0 925055000000.0 352542000000.0 237269000000.0 477165000000.0 681286000000.0 727814000000.0 869849000000.0 882429000000.0 755861000000.0 775404000000.0 1.05857e+12 1.10074e+12 674081000000.0 134550000000.0 252438000000.0 149592000000.0 543583000000.0 194312000000.0 590404000000.0 132777000000.0 97604000000.0 25192000000.0 53577100000.0 88077100000.0 110381000000.0 16714900000.0 193501000000.0 209849000000.0 218908000000.0 402478000000.0 389256000000.0 437737000000.0 403023000000.0 342168000000.0 343536000000.0 319193000000.0 44827400000.0 13770100000.0 403419000000.0 416672000000.0 504595000000.0 579678000000.0 473126000000.0 366469000000.0 322984000000.0 576069000000.0 462890000000.0 78650000000.0 17026100000.0 327512000000.0 558507000000.0 294297000000.0 102533000000.0 563737000000.0 1.41693e+12 117851000000.0 184178000000.0 89483800000.0 199149000000.0 458707000000.0 85797200000.0 13266000000.0 23128700000.0 549856000000.0 931213000000.0 26006900000.0 388605000000.0 506813000000.0 710835000000.0 836689000000.0 740102000000.0 770641000000.0 617521000000.0 642086000000.0 464221000000.0 965295000000.0 112348000000.0 76775400000.0 713247000000.0 803375000000.0 1.03823e+12 65710300000.0 22999700000.0 37716200000.0 2629290000.0 32296900000.0 159412000000.0 268547000000.0 326111000000.0 459941000000.0 259143000000.0 240970000000.0 77118000000.0 797956000000.0 547626000000.0 489700000000.0 474797000000.0 383096000000.0 361880000000.0 338901000000.0 370675000000.0 5011000000.0 29166500000.0 8163810000.0 373588000000.0 499701000000.0 604369000000.0 605158000000.0 438623000000.0 381034000000.0 564207000000.0 797064000000.0 63632000000.0 70005100000.0 270791000000.0 673554000000.0 332781000000.0 164272000000.0 49906100000.0 586959000000.0 238016000000.0 680067000000.0 150214000000.0 122260000000.0 430204000000.0 193189000000.0 103208000000.0 357453000000.0 323175000000.0 37865800000.0 1.04301e+12 427340000000.0 540631000000.0 427597000000.0 158148000000.0 207529000000.0 571002000000.0 669453000000.0 663140000000.0 386200000000.0 1.096e+12 108004000000.0 195453000000.0 287463000000.0 861999000000.0 235755000000.0 159906000000.0 181693000000.0 8211440000.0 47881200000.0 52297900000.0 89264200000.0 196672000000.0 334199000000.0 478569000000.0 678928000000.0 631174000000.0 1.1807e+12 1.24899e+12 797788000000.0 590123000000.0 518310000000.0 449532000000.0 392476000000.0 365119000000.0 398706000000.0 387608000000.0 413781000000.0 32091800000.0 60931200000.0 33704800000.0 334664000000.0 405696000000.0 463239000000.0 572489000000.0 711558000000.0 776653000000.0 474818000000.0 657893000000.0 869028000000.0 1.2304e+12 349691000000.0 1.04165e+12 505678000000.0 518924000000.0 385052000000.0 146374000000.0 17152300000.0 426987000000.0 277407000000.0 447051000000.0 104031000000.0 2608300000.0 730166000000.0 539086000000.0 485347000000.0 541944000000.0 401438000000.0 110880000000.0 252166000000.0 286134000000.0 493025000000.0 515062000000.0 504139000000.0 506626000000.0 560400000000.0 573242000000.0 347010000000.0 123213000000.0 576909000000.0 339602000000.0 73728500000.0 393073000000.0 212021000000.0 33385300000.0 404172000000.0 7359350000.0 155428000000.0 104586000000.0 124385000000.0 143771000000.0 215824000000.0 329977000000.0 482021000000.0 716078000000.0 1.02524e+12 1.26722e+12 648909000000.0 1.12577e+12 489964000000.0 422416000000.0 504735000000.0 457476000000.0 368966000000.0 434244000000.0 423638000000.0 482824000000.0 448857000000.0 82387000000.0 31301700000.0 295897000000.0 330316000000.0 504534000000.0 637457000000.0 708273000000.0 882482000000.0 1.05526e+12 386438000000.0 396861000000.0 968458000000.0 1.50115e+12 312776000000.0 438126000000.0 1.28447e+12 591958000000.0 103131000000.0 112659000000.0 256043000000.0 497644000000.0 325249000000.0 27754200000.0 498577000000.0 241310000000.0 748146000000.0 798709000000.0 686626000000.0 577209000000.0 437793000000.0 151616000000.0 511455000000.0 558489000000.0 267764000000.0 720754000000.0 270224000000.0 192054000000.0 268017000000.0 205769000000.0 406034000000.0 86976000000.0 8315750000.0 680266000000.0 342632000000.0 632563000000.0 338720000000.0 130786000000.0 272614000000.0 228522000000.0 38593700000.0 163725000000.0 208961000000.0 196127000000.0 213514000000.0 250039000000.0 309387000000.0 373331000000.0 405509000000.0 253050000000.0 364163000000.0 844512000000.0 1.11497e+12 721536000000.0 31055300000.0 79399200000.0 503120000000.0 391583000000.0 345100000000.0 438653000000.0 475529000000.0 474783000000.0 526796000000.0 471275000000.0 475078000000.0 96079600000.0 153621000000.0 104122000000.0 464383000000.0 299487000000.0 277027000000.0 396033000000.0 487522000000.0 825391000000.0 1.11798e+12 189386000000.0 540854000000.0 575733000000.0 851428000000.0 509052000000.0 459148000000.0 643527000000.0 446752000000.0 386348000000.0 725339000000.0 1.18668e+12 163691000000.0 621429000000.0 843200000000.0 582140000000.0 398245000000.0 193050000000.0 119328000000.0 320410000000.0 882396000000.0 499080000000.0 655667000000.0 363950000000.0 638866000000.0 348217000000.0 348013000000.0 453642000000.0 68908900000.0 537866000000.0 208575000000.0 188091000000.0 99762300000.0 591004000000.0 292247000000.0 307552000000.0 308368000000.0 304447000000.0 320426000000.0 392085000000.0 424525000000.0 408483000000.0 324895000000.0 557712000000.0 117048000000.0 712671000000.0 126145000000.0 296001000000.0 656297000000.0 669395000000.0 398622000000.0 469815000000.0 524235000000.0 561643000000.0 609121000000.0 542054000000.0 464502000000.0 97400500000.0 154789000000.0 600734000000.0 308717000000.0 249923000000.0 297624000000.0 357858000000.0 434081000000.0 598621000000.0 734809000000.0 933340000000.0 1.58108e+12 228947000000.0 562240000000.0 825738000000.0 1.11009e+12 790796000000.0 83289700000.0 833524000000.0 464271000000.0 626644000000.0 674242000000.0 958827000000.0 225989000000.0 342408000000.0 636621000000.0 798590000000.0 759552000000.0 178010000000.0 55214900000.0 107350000000.0 251528000000.0 449770000000.0 239948000000.0 911587000000.0 598171000000.0 315288000000.0 702625000000.0 288636000000.0 249362000000.0 319974000000.0 94956400000.0 304405000000.0 793554000000.0 1.16105e+12 237710000000.0 586384000000.0 434913000000.0 351451000000.0 336175000000.0 356333000000.0 10310600000.0 894120000000.0 864140000000.0 143884000000.0 1.24257e+12 216360000000.0 182188000000.0 582681000000.0 535630000000.0 656209000000.0 599442000000.0 534477000000.0 435903000000.0 84352800000.0 65869200000.0 103872000000.0 643034000000.0 847076000000.0 661840000000.0 272973000000.0 282647000000.0 369169000000.0 506898000000.0 592791000000.0 1.46612e+12 1.10329e+12 1.494e+12 1.99533e+12 289264000000.0 269572000000.0 290044000000.0 529615000000.0 651834000000.0 765263000000.0 418076000000.0 513277000000.0 653839000000.0 651671000000.0 541653000000.0 375591000000.0 92143200000.0 187962000000.0 187751000000.0 86263700000.0 820642000000.0 483533000000.0 73721100000.0 639878000000.0 799867000000.0 340459000000.0 509751000000.0 1.02334e+12 212214000000.0 1.50536e+12 877184000000.0 816044000000.0 674431000000.0 547297000000.0 443332000000.0 414860000000.0 400943000000.0 400521000000.0 412804000000.0 425623000000.0 428510000000.0 396279000000.0 450279000000.0 1.13995e+12 1.38189e+12 993509000000.0 232366000000.0 1.2373e+12 510207000000.0 111639000000.0 665040000000.0 568193000000.0 735798000000.0 679843000000.0 640246000000.0 567574000000.0 501783000000.0 455487000000.0 401730000000.0 46142200000.0 9050090000.0 433878000000.0 579571000000.0 807955000000.0 993951000000.0 242743000000.0 355638000000.0 459035000000.0 571496000000.0 807060000000.0 1.22751e+12 271125000000.0 1.15239e+12 712299000000.0 1.84352e+12 1.43932e+12 939264000000.0 292350000000.0 60940000000.0 369002000000.0 537641000000.0 595884000000.0 658178000000.0 431492000000.0 538563000000.0 552138000000.0 519990000000.0 446244000000.0 331438000000.0 181006000000.0 13593700000.0 150248000000.0 430672000000.0 32911900000.0 162442000000.0 919632000000.0 101033000000.0 677204000000.0 753955000000.0 527867000000.0 24547800000.0 309707000000.0 1.01591e+12 424319000000.0 78994800000.0 538449000000.0 658873000000.0 632271000000.0 572047000000.0 514573000000.0 489169000000.0 479873000000.0 476990000000.0 476446000000.0 468970000000.0 439217000000.0 390693000000.0 427329000000.0 1.40946e+12 1.30514e+12 231829000000.0 1.04414e+12 552553000000.0 127083000000.0 1.02303e+12 627473000000.0 467414000000.0 853703000000.0 744112000000.0 580263000000.0 521471000000.0 400336000000.0 358446000000.0 324361000000.0 42590200000.0 323121000000.0 162372000000.0 237491000000.0 605550000000.0 1.09241e+12 1.48093e+12 126169000000.0 357058000000.0 475169000000.0 604076000000.0 794615000000.0 791728000000.0 1.16491e+12 1.13179e+12 437575000000.0 997969000000.0 199709000000.0 361155000000.0 550697000000.0 344790000000.0 110674000000.0 152665000000.0 201527000000.0 381963000000.0 454110000000.0 377096000000.0 288324000000.0 402235000000.0 520825000000.0 419922000000.0 334331000000.0 249957000000.0 153003000000.0 44705700000.0 47013200000.0 126734000000.0 158840000000.0 121408000000.0 77176900000.0 112314000000.0 517028000000.0 466569000000.0 264610000000.0 231166000000.0 480973000000.0 590718000000.0 600212000000.0 576988000000.0 552774000000.0 537032000000.0 529417000000.0 525631000000.0 517371000000.0 496403000000.0 463728000000.0 451868000000.0 581465000000.0 1.29805e+12 1.12026e+12 546849000000.0 1.13774e+12 1.25639e+12 621092000000.0 246800000000.0 1.39198e+12 40979000000.0 910605000000.0 671281000000.0 493224000000.0 455290000000.0 343644000000.0 337722000000.0 42798700000.0 41435000000.0 17644000000.0 10320700000.0 408390000000.0 523853000000.0 766978000000.0 972217000000.0 1.42058e+12 7008080000.0 507495000000.0 630822000000.0 772384000000.0 1.05911e+12 1.19413e+12 1.03439e+12 776239000000.0 15536300000.0 188576000000.0 421872000000.0 84542600000.0 46285500000.0 162568000000.0 237252000000.0 314696000000.0 403827000000.0 361992000000.0 29100900000.0 62988600000.0 514188000000.0 239585000000.0 148443000000.0 86597000000.0 34688900000.0 14522300000.0 68386000000.0 113071000000.0 144350000000.0 254223000000.0 164380000000.0 229506000000.0 554321000000.0 457131000000.0 659927000000.0 539667000000.0 578726000000.0 730027000000.0 197903000000.0 28041000000.0 42693100000.0 252329000000.0 304753000000.0 260298000000.0 241723000000.0 317193000000.0 468361000000.0 552615000000.0 578735000000.0 575555000000.0 568234000000.0 563774000000.0 559059000000.0 550336000000.0 534057000000.0 516897000000.0 529932000000.0 524170000000.0 1.53213e+12 1.33537e+12 1.11993e+12 1.37347e+12 1.21625e+12 89298900000.0 1.22456e+12 505321000000.0 1.35781e+12 642669000000.0 489441000000.0 519661000000.0 441657000000.0 384029000000.0 327205000000.0 317663000000.0 342403000000.0 39131600000.0 246262000000.0 31746000000.0 189155000000.0 329991000000.0 620878000000.0 845657000000.0 530478000000.0 641878000000.0 733399000000.0 935718000000.0 1.02423e+12 954374000000.0 741460000000.0 1.39909e+12 174837000000.0 632617000000.0 690718000000.0 412873000000.0 284103000000.0 349842000000.0 350530000000.0 238164000000.0 97197500000.0 429956000000.0 361402000000.0 8844060000.0 4387080000.0 16752900000.0 55462100000.0 104087000000.0 178288000000.0 194105000000.0 261927000000.0 422501000000.0 476821000000.0 619689000000.0 571691000000.0 602643000000.0 437424000000.0 234881000000.0 18285800000.0 75591300000.0 164110000000.0 210082000000.0 209479000000.0 220006000000.0 268913000000.0 359699000000.0 464572000000.0 529883000000.0 559203000000.0 529838000000.0 481523000000.0 416135000000.0 172043000000.0 1.3698e+12 1.09545e+12 1.00034e+12 807532000000.0 1.13687e+12 1.112e+12 375072000000.0 1.19441e+12 1.05181e+12 26229800000.0 1.26893e+12 298868000000.0 514262000000.0 483731000000.0 497194000000.0 394986000000.0 300693000000.0 392756000000.0 423053000000.0 314771000000.0 18656200000.0 154100000000.0 980926000000.0 794636000000.0 68152600000.0 95897300000.0 433804000000.0 611657000000.0 1.3036e+12 224908000000.0 556403000000.0 653147000000.0 829596000000.0 887088000000.0 848029000000.0 712760000000.0 565320000000.0 1.09947e+12 235701000000.0 667570000000.0 723705000000.0 395416000000.0 442274000000.0 458186000000.0 372658000000.0 378882000000.0 230508000000.0 84542600000.0 5913320000.0 6734380000.0 45579600000.0 118634000000.0 177797000000.0 252738000000.0 361597000000.0 443679000000.0 543218000000.0 570162000000.0 562561000000.0 456176000000.0 238168000000.0 67614000000.0 64597000000.0 143836000000.0 174858000000.0 182821000000.0 560184000000.0 572191000000.0 575896000000.0 573081000000.0 46302500000.0 1.12344e+12 959262000000.0 845259000000.0 794741000000.0 967094000000.0 573199000000.0 1.0968e+12 1.33171e+12 339787000000.0 1.23099e+12 623988000000.0 770219000000.0 637281000000.0 462458000000.0 317393000000.0 530875000000.0 358257000000.0 261579000000.0 197495000000.0 2286130000.0 181782000000.0 140704000000.0 154920000000.0 1.13541e+12 931144000000.0 862379000000.0 219820000000.0 416808000000.0 927385000000.0 1.11581e+12 47224000000.0 701758000000.0 722277000000.0 785184000000.0 804415000000.0 748023000000.0 543226000000.0 598950000000.0 743789000000.0 9169230000.0 581797000000.0 489108000000.0 497716000000.0 510422000000.0 514612000000.0 460427000000.0 238932000000.0 240477000000.0 663892000000.0 402924000000.0 173681000000.0 23083100000.0 78458500000.0 23193400000.0 26184400000.0 223548000000.0 315514000000.0 396539000000.0 473902000000.0 515355000000.0 518910000000.0 445519000000.0 293179000000.0 196196000000.0 236103000000.0 302738000000.0 383515000000.0 460431000000.0 515320000000.0 548253000000.0 564765000000.0 567627000000.0 554598000000.0 515519000000.0 439022000000.0 311737000000.0 844809000000.0 875589000000.0 777396000000.0 728689000000.0 816653000000.0 909842000000.0 876155000000.0 1.10864e+12 962671000000.0 1.16733e+12 1.13124e+12 433581000000.0 911068000000.0 666953000000.0 373309000000.0 253930000000.0 875827000000.0 554370000000.0 232916000000.0 153755000000.0 8699800000.0 36343300000.0 87750700000.0 149070000000.0 31303400000.0 265391000000.0 586099000000.0 452258000000.0 452616000000.0 37424300000.0 699689000000.0 975273000000.0 941356000000.0 306794000000.0 604052000000.0 678296000000.0 759203000000.0 680350000000.0 726183000000.0 904647000000.0 589640000000.0 614726000000.0 697155000000.0 639863000000.0 593998000000.0 582282000000.0 565186000000.0 520945000000.0 400838000000.0 205437000000.0 79417300000.0 855455000000.0 457278000000.0 169593000000.0 124329000000.0 113035000000.0 49522100000.0 64336600000.0 19069200000.0 58046100000.0 138995000000.0 119671000000.0 12527100000.0 107553000000.0 154265000000.0 170991000000.0 185702000000.0 216103000000.0 265970000000.0 328972000000.0 396244000000.0 457867000000.0 503960000000.0 532008000000.0 543216000000.0 535465000000.0 499878000000.0 413437000000.0 252354000000.0 136993000000.0 609056000000.0 806598000000.0 764595000000.0 711997000000.0 726886000000.0 770905000000.0 760957000000.0 659359000000.0 886487000000.0 768069000000.0 975702000000.0 756448000000.0 1.11679e+12 1.06205e+12 834763000000.0 600229000000.0 201457000000.0 592036000000.0 328197000000.0 159596000000.0 124833000000.0 61048100000.0 56435700000.0 86568100000.0 234034000000.0 696880000000.0 290690000000.0 368817000000.0 150090000000.0 430643000000.0 753783000000.0 931494000000.0 948312000000.0 499721000000.0 664645000000.0 808534000000.0 792185000000.0 858775000000.0 1.00968e+12 1.02387e+12 635359000000.0 329740000000.0 595502000000.0 673897000000.0 666597000000.0 639571000000.0 613421000000.0 567287000000.0 487542000000.0 371693000000.0 262626000000.0 153069000000.0 932147000000.0 521644000000.0 215274000000.0 216825000000.0 50170100000.0 83235100000.0 76034800000.0 3220460000.0 90010700000.0 183961000000.0 272610000000.0 348846000000.0 413673000000.0 454921000000.0 464282000000.0 420260000000.0 315080000000.0 176997000000.0 44426400000.0 56070800000.0 120318000000.0 154015000000.0 176196000000.0 202919000000.0 241045000000.0 290683000000.0 347008000000.0 402995000000.0 450996000000.0 485574000000.0 503796000000.0 502887000000.0 476841000000.0 408627000000.0 246768000000.0 121536000000.0 727201000000.0 703329000000.0 701524000000.0 686033000000.0 634175000000.0 665385000000.0 605082000000.0 251921000000.0 297640000000.0 927238000000.0 913929000000.0 726946000000.0 476377000000.0 1.13479e+12 203968000000.0 160756000000.0 123624000000.0 179227000000.0 40983000000.0 36658500000.0 9793250000.0 207982000000.0 319197000000.0 335507000000.0 247392000000.0 169201000000.0 49098700000.0 203033000000.0 524644000000.0 751428000000.0 794919000000.0 524158000000.0 1.00403e+12 274112000000.0 785801000000.0 915969000000.0 916655000000.0 1.04138e+12 1.11371e+12 976063000000.0 709037000000.0 551360000000.0 651619000000.0 694577000000.0 683044000000.0 647477000000.0 604352000000.0 542768000000.0 465539000000.0 392817000000.0 362198000000.0 371916000000.0 252146000000.0 62984100000.0 140398000000.0 74739800000.0 30262600000.0 136440000000.0 228869000000.0 302089000000.0 358971000000.0 396826000000.0 409179000000.0 383619000000.0 312900000000.0 208323000000.0 94756200000.0 5400890000.0 78891200000.0 126943000000.0 159176000000.0 187840000000.0 220970000000.0 261444000000.0 308062000000.0 356042000000.0 399945000000.0 434972000000.0 456852000000.0 461586000000.0 444052000000.0 394043000000.0 287925000000.0 30165200000.0 440248000000.0 737645000000.0 766971000000.0 689489000000.0 660229000000.0 624975000000.0 614953000000.0 562891000000.0 410742000000.0 641184000000.0 585518000000.0 1.07094e+12 1.24461e+12 621241000000.0 465218000000.0 21811400000.0 1.25463e+12 486586000000.0 133506000000.0 249513000000.0 178175000000.0 7909830000.0 45974200000.0 34373200000.0 90994400000.0 86065600000.0 421535000000.0 59274500000.0 38586800000.0 105650000000.0 358462000000.0 587970000000.0 792967000000.0 677863000000.0 656742000000.0 1.00782e+12 601636000000.0 805819000000.0 1.04335e+12 990111000000.0 1.11179e+12 669235000000.0 686998000000.0 694423000000.0 912779000000.0 543005000000.0 198139000000.0 176348000000.0 54976000000.0 72099100000.0 177450000000.0 252508000000.0 304190000000.0 338951000000.0 353404000000.0 340044000000.0 293431000000.0 217361000000.0 125694000000.0 35761200000.0 39321200000.0 95378300000.0 136299000000.0 169071000000.0 330355000000.0 668165000000.0 762794000000.0 753099000000.0 719310000000.0 629781000000.0 609273000000.0 573923000000.0 474928000000.0 481616000000.0 476389000000.0 435858000000.0 128928000000.0 303933000000.0 551727000000.0 83674800000.0 1.28445e+12 415257000000.0 157955000000.0 167893000000.0 189897000000.0 4705800000.0 104507000000.0 85225400000.0 114648000000.0 243136000000.0 294551000000.0 708281000000.0 687842000000.0 633241000000.0 709632000000.0 130170000000.0 531199000000.0 761596000000.0 999257000000.0 1.07516e+12 927784000000.0 758972000000.0 673770000000.0 631565000000.0 579351000000.0 521015000000.0 466188000000.0 435977000000.0 457810000000.0 533012000000.0 835136000000.0 515516000000.0 185232000000.0 263760000000.0 183146000000.0 201049000000.0 236389000000.0 275523000000.0 316207000000.0 354744000000.0 387244000000.0 409814000000.0 418050000000.0 407028000000.0 369046000000.0 288943000000.0 124578000000.0 298330000000.0 624853000000.0 748085000000.0 767997000000.0 745951000000.0 709548000000.0 668671000000.0 564010000000.0 512633000000.0 482224000000.0 358307000000.0 185503000000.0 574809000000.0 226500000000.0 222452000000.0 428058000000.0 375549000000.0 340089000000.0 213931000000.0 194371000000.0 81539300000.0 232832000000.0 267067000000.0 55802700000.0 185664000000.0 441758000000.0 467316000000.0 632213000000.0 680876000000.0 631961000000.0 932078000000.0 68155400000.0 497498000000.0 763105000000.0 890824000000.0 1.02182e+12 992306000000.0 887778000000.0 770477000000.0 702950000000.0 688123000000.0 672107000000.0 640816000000.0 597577000000.0 550029000000.0 505355000000.0 475145000000.0 475527000000.0 518390000000.0 609656000000.0 714025000000.0 456013000000.0 151636000000.0 263769000000.0 302769000000.0 203862000000.0 30960500000.0 104282000000.0 190592000000.0 240132000000.0 274524000000.0 292655000000.0 289222000000.0 260417000000.0 207386000000.0 137430000000.0 62033100000.0 7802490000.0 65799500000.0 111397000000.0 148177000000.0 180877000000.0 213460000000.0 247516000000.0 282289000000.0 315706000000.0 344949000000.0 366855000000.0 378303000000.0 376077000000.0 355814000000.0 313494000000.0 251943000000.0 351478000000.0 550140000000.0 701775000000.0 754214000000.0 760208000000.0 740102000000.0 702562000000.0 654820000000.0 609300000000.0 487151000000.0 469075000000.0 344004000000.0 294519000000.0 164724000000.0 261908000000.0 256883000000.0 106716000000.0 1.10886e+12 84357700000.0 58053500000.0 97469700000.0 97597400000.0 89203800000.0 43100400000.0 131115000000.0 370534000000.0 549729000000.0 658962000000.0 656914000000.0 620293000000.0 718297000000.0 824026000000.0 92401400000.0 927783000000.0 823169000000.0 940476000000.0 920952000000.0 837033000000.0 747536000000.0 686084000000.0 654468000000.0 628781000000.0 596371000000.0 558745000000.0 521974000000.0 494301000000.0 484859000000.0 501096000000.0 542686000000.0 595306000000.0 580718000000.0 388197000000.0 133930000000.0 241730000000.0 404243000000.0 216032000000.0 10890500000.0 104573000000.0 153776000000.0 193115000000.0 219459000000.0 227919000000.0 214955000000.0 181287000000.0 131290000000.0 72206100000.0 12201600000.0 42379600000.0 88716100000.0 127391000000.0 160999000000.0 192281000000.0 222975000000.0 253396000000.0 282535000000.0 308573000000.0 329457000000.0 343155000000.0 347717000000.0 341859000000.0 327918000000.0 318373000000.0 392834000000.0 549919000000.0 655319000000.0 715367000000.0 750615000000.0 758108000000.0 738139000000.0 698674000000.0 645828000000.0 580747000000.0 515227000000.0 25476300000.0 71191800000.0 458283000000.0 574368000000.0 32559100000.0 430570000000.0 270311000000.0 479643000000.0 597836000000.0 616030000000.0 701078000000.0 716195000000.0 517384000000.0 748117000000.0 832727000000.0 778576000000.0 869844000000.0 842241000000.0 770009000000.0 694511000000.0 640523000000.0 604837000000.0 575336000000.0 545946000000.0 518326000000.0 496121000000.0 485007000000.0 491751000000.0 519391000000.0 558236000000.0 581925000000.0 472809000000.0 195487000000.0 21274400000.0 23629400000.0 81858000000.0 125700000000.0 151133000000.0 155942000000.0 140818000000.0 109430000000.0 66978100000.0 19392400000.0 27841700000.0 71102200000.0 109143000000.0 142570000000.0 172871000000.0 201362000000.0 228600000000.0 254299000000.0 277504000000.0 296915000000.0 311302000000.0 320124000000.0 324122000000.0 326978000000.0 341090000000.0 757807000000.0 764385000000.0 743877000000.0 697785000000.0 633025000000.0 559031000000.0 495882000000.0 489695000000.0 482114000000.0 373226000000.0 373481000000.0 309868000000.0 3763400000.0 269442000000.0 539261000000.0 12038600000.0 30100800000.0 350288000000.0 206198000000.0 562881000000.0 655821000000.0 588351000000.0 638021000000.0 714272000000.0 135282000000.0 514292000000.0 706285000000.0 738478000000.0 737053000000.0 786797000000.0 754408000000.0 691990000000.0 627672000000.0 577867000000.0 542957000000.0 531729000000.0 364836000000.0 118241000000.0 199178000000.0 472000000000.0 203223000000.0 182814000000.0 74536400000.0 6023020000.0 56964000000.0 82948900000.0 87282800000.0 74182500000.0 48298100000.0 14359300000.0 23090700000.0 406194000000.0 528678000000.0 691963000000.0 696447000000.0 725074000000.0 736176000000.0 679277000000.0 610581000000.0 553623000000.0 550741000000.0 577153000000.0 550131000000.0 518183000000.0 421332000000.0 154660000000.0 16081700000.0 94938800000.0 402046000000.0 483542000000.0 598940000000.0 504160000000.0 660215000000.0 181347000000.0 507857000000.0 674812000000.0 655542000000.0 516723000000.0 495131000000.0 478260000000.0 468631000000.0 470614000000.0 490611000000.0 526979000000.0 560996000000.0 577906000000.0 516363000000.0 340810000000.0 58142200000.0 60344500000.0 95177000000.0 126869000000.0 155702000000.0 182308000000.0 207136000000.0 230193000000.0 251032000000.0 268941000000.0 283327000000.0 294158000000.0 302694000000.0 313094000000.0 335669000000.0 390727000000.0 483829000000.0 582603000000.0 735847000000.0 658719000000.0 726854000000.0 763385000000.0 766359000000.0 599036000000.0 591453000000.0 613018000000.0 558625000000.0 425021000000.0 205717000000.0 41570800000.0 224858000000.0 254642000000.0 60494400000.0 299296000000.0 160872000000.0 327550000000.0 419943000000.0 590120000000.0 700881000000.0 524695000000.0 700995000000.0 713799000000.0 669092000000.0 607167000000.0 548506000000.0 504818000000.0 476040000000.0 456578000000.0 442948000000.0 435013000000.0 434733000000.0 446209000000.0 473601000000.0 513006000000.0 560423000000.0 600500000000.0 544325000000.0 417962000000.0 127289000000.0 624654000000.0 559839000000.0 283919000000.0 134186000000.0 49629500000.0 392447000.0 23904500000.0 28835800000.0 19070000000.0 969683000.0 27368600000.0 56713700000.0 86359600000.0 114742000000.0 141251000000.0 165838000000.0 188594000000.0 209478000000.0 228302000000.0 244808000000.0 258788000000.0 270501000000.0 281380000000.0 294822000000.0 317956000000.0 363083000000.0 438237000000.0 534478000000.0 579353000000.0 673027000000.0 576145000000.0 703139000000.0 749105000000.0 745156000000.0 697247000000.0 639446000000.0 610251000000.0 206562000000.0 84175300000.0 109042000000.0 150862000000.0 2584560000.0 265479000000.0 101426000000.0 241767000000.0 528569000000.0 389232000000.0 565710000000.0 533908000000.0 440120000000.0 289993000000.0 555294000000.0 611746000000.0 575116000000.0 664818000000.0 640704000000.0 579885000000.0 514856000000.0 462566000000.0 428450000000.0 408401000000.0 395769000000.0 387875000000.0 384680000000.0 388081000000.0 402337000000.0 430298000000.0 471326000000.0 528263000000.0 586575000000.0 427018000000.0 157875000000.0 13895900000.0 552774000000.0 355316000000.0 229478000000.0 144921000000.0 83731500000.0 43740700000.0 22525300000.0 17038400000.0 23677700000.0 38815900000.0 59305900000.0 82477800000.0 106339000000.0 129665000000.0 151818000000.0 172496000000.0 191496000000.0 208688000000.0 223973000000.0 237320000000.0 249165000000.0 260847000000.0 274935000000.0 296024000000.0 331383000000.0 388986000000.0 475241000000.0 603869000000.0 574689000000.0 599298000000.0 521522000000.0 666161000000.0 705684000000.0 681888000000.0 640316000000.0 603135000000.0 573720000000.0 574334000000.0 583571000000.0 544586000000.0 438923000000.0 7611280000.0 196135000000.0 1023890000.0 39924000000.0 12114500000.0 225794000000.0 285601000000.0 369172000000.0 365936000000.0 482276000000.0 427064000000.0 349598000000.0 176291000000.0 425825000000.0 525190000000.0 504397000000.0 625384000000.0 563391000000.0 483491000000.0 418657000000.0 378646000000.0 357532000000.0 343700000000.0 333592000000.0 326385000000.0 322377000000.0 323148000000.0 331929000000.0 352058000000.0 388052000000.0 152469000000.0 70082600000.0 260249000000.0 497207000000.0 326846000000.0 235960000000.0 163762000000.0 110121000000.0 75005800000.0 56132900000.0 50523200000.0 54903500000.0 66377400000.0 82491500000.0 101100000000.0 120587000000.0 139903000000.0 158384000000.0 175592000000.0 191293000000.0 205462000000.0 218216000000.0 229949000000.0 241695000000.0 505288000000.0 503703000000.0 633398000000.0 647876000000.0 609539000000.0 571246000000.0 537508000000.0 518744000000.0 498183000000.0 476672000000.0 387433000000.0 209874000000.0 190371000000.0 40393000000.0 31002900000.0 155600000000.0 153801000000.0 367840000000.0 314471000000.0 185029000000.0 369937000000.0 462386000000.0 454245000000.0 577128000000.0 460390000000.0 578348000000.0 316793000000.0 225693000000.0 190898000000.0 255366000000.0 273935000000.0 301286000000.0 340493000000.0 392474000000.0 462009000000.0 609713000000.0 497990000000.0 556870000000.0 523791000000.0 486658000000.0 455745000000.0 431179000000.0 410430000000.0 362897000000.0 187164000000.0 293542000000.0 214058000000.0 185116000000.0 40396100.0 32824400000.0 163201000000.0 6520930000.0 154541000000.0 313773000000.0 401176000000.0 172729000000.0 197906000000.0 472193000000.0 380628000000.0 330980000000.0 310393000000.0 294255000000.0 279924000000.0 266465000000.0 254645000000.0 245380000000.0 239734000000.0 238458000000.0 240607000000.0 257151000000.0 333847000000.0 379544000000.0 38380700000.0 141520000000.0 420253000000.0 317786000000.0 233541000000.0 169203000000.0 123438000000.0 93539200000.0 77321000000.0 72261200000.0 75525900000.0 84770800000.0 97939600000.0 113264000000.0 129441000000.0 145541000000.0 160925000000.0 175227000000.0 188392000000.0 200550000000.0 212041000000.0 223752000000.0 237191000000.0 254301000000.0 277343000000.0 307652000000.0 344520000000.0 386784000000.0 443961000000.0 559108000000.0 417970000000.0 441452000000.0 486155000000.0 560759000000.0 190030000000.0 245077000000.0 221596000000.0 177482000000.0 8059280000.0 18142600000.0 67605100000.0 124173000000.0 60746000000.0 322324000000.0 198811000000.0 334441000000.0 260404000000.0 105138000000.0 346319000000.0 428263000000.0 420354000000.0 513653000000.0 368623000000.0 294082000000.0 276766000000.0 256123000000.0 234414000000.0 211565000000.0 189399000000.0 169725000000.0 154338000000.0 144574000000.0 141166000000.0 145715000000.0 209382000000.0 533577000000.0 473066000000.0 203592000000.0 257120000000.0 318283000000.0 260382000000.0 203463000000.0 156670000000.0 122038000000.0 99398700000.0 87404800000.0 83998500000.0 87204900000.0 95295700000.0 106546000000.0 119509000000.0 133133000000.0 146639000000.0 159532000000.0 171663000000.0 183205000000.0 194499000000.0 206220000000.0 219524000000.0 235898000000.0 257058000000.0 284296000000.0 317494000000.0 355371000000.0 397149000000.0 425472000000.0 468690000000.0 381345000000.0 397655000000.0 466906000000.0 483081000000.0 465761000000.0 429760000000.0 395279000000.0 366935000000.0 340921000000.0 309193000000.0 185390000000.0 163200000000.0 19830000000.0 19336000000.0 12511200000.0 157598000000.0 186054000000.0 186330000000.0 232816000000.0 163578000000.0 44031700000.0 185250000000.0 320226000000.0 386072000000.0 374666000000.0 430955000000.0 294163000000.0 276391000000.0 241533000000.0 206184000000.0 168544000000.0 130573000000.0 95637500000.0 67119300000.0 48223900000.0 43452700000.0 56955100000.0 89496500000.0 215150000000.0 161593000000.0 305971000000.0 164415000000.0 57082000000.0 40528000000.0 152803000000.0 205997000000.0 192629000000.0 163830000000.0 134757000000.0 111353000000.0 95857900000.0 88321200000.0 87343600000.0 91389500000.0 99036000000.0 108986000000.0 120185000000.0 131804000000.0 143286000000.0 154386000000.0 165203000000.0 176087000000.0 187639000000.0 200779000000.0 216685000000.0 236674000000.0 261991000000.0 293682000000.0 332414000000.0 379210000000.0 432977000000.0 432400000000.0 445359000000.0 353949000000.0 329577000000.0 437724000000.0 412269000000.0 375899000000.0 338911000000.0 308104000000.0 279834000000.0 243635000000.0 167818000000.0 213813000000.0 13943000000.0 41206800000.0 120278000000.0 3556690000.0 103547000000.0 187965000000.0 188478000000.0 191491000000.0 54022300000.0 132835000000.0 245573000000.0 246443000000.0 310936000000.0 380034000000.0 359594000000.0 314072000000.0 261372000000.0 202718000000.0 238714000000.0 104104000000.0 3837950000.0 93399700000.0 136959000000.0 139699000000.0 125976000000.0 108689000000.0 365223000000.0 320892000000.0 290715000000.0 391214000000.0 339924000000.0 291613000000.0 256982000000.0 232222000000.0 196018000000.0 131995000000.0 182378000000.0 159808000000.0 134222000000.0 39178400000.0 25408700000.0 16769200000.0 36310400000.0 37179800000.0 233663000000.0 35399100000.0 55189200000.0 31797800000.0 142184000000.0 82095200000.0 25200800000.0 22747600000.0 53179400000.0 51250000000.0 433200000.0 97935600000.0 170368000000.0 235434000000.0 191428000000.0 94368900000.0 85674300000.0 82629600000.0 84240400000.0 89253900000.0 96575700000.0 105532000000.0 115411000000.0 125522000000.0 135533000000.0 145473000000.0 155734000000.0 166958000000.0 179903000000.0 195353000000.0 214137000000.0 237042000000.0 264790000000.0 298346000000.0 336782000000.0 371459000000.0 377606000000.0 418607000000.0 139012000000.0 134419000000.0 112033000000.0 29921900000.0 30989400000.0 10337400000.0 28188800000.0 17939000000.0 8286250000.0 209521000000.0 241037000000.0 115042000000.0 19584200000.0 98312000000.0 71815800000.0 118827000000.0 104283000000.0 68316300000.0 18093200000.0 49718800000.0 109263000000.0 160306000000.0 207934000000.0 251442000000.0 287413000000.0 310371000000.0 311912000000.0 279789000000.0 260960000000.0 260742000000.0 264040000000.0 159923000000.0 221829000000.0 92736500000.0 6400970000.0 58863000000.0 90654200000.0 96636600000.0 90534600000.0 81076400000.0 73895000000.0 71126100000.0 72167300000.0 75844400000.0 81182300000.0 88093900000.0 96294100000.0 105146000000.0 114114000000.0 123148000000.0 132624000000.0 143304000000.0 155955000000.0 171064000000.0 188995000000.0 210044000000.0 234113000000.0 261479000000.0 292833000000.0 321626000000.0 326927000000.0 354086000000.0 362263000000.0 281868000000.0 299453000000.0 259233000000.0 332543000000.0 266438000000.0 213029000000.0 185588000000.0 164962000000.0 108870000000.0 89470700000.0 30183800000.0 21634800000.0 13535800000.0 180886000000.0 76703500000.0 91868000000.0 7328430000.0 15452700000.0 61749600000.0 362775000000.0 362778000000.0 317408000000.0 242121000000.0 220700000000.0 135067000000.0 99461800000.0 92346000000.0 99199800000.0 116707000000.0 142371000000.0 166397000000.0 180958000000.0 187071000000.0 185905000000.0 209657000000.0 246969000000.0 254805000000.0 222250000000.0 99582000000.0 206900000000.0 84816600000.0 16395700000.0 30963100000.0 54452800000.0 59628000000.0 56162600000.0 51883400000.0 51258900000.0 53919000000.0 57986100000.0 61998700000.0 66971900000.0 73425500000.0 81116800000.0 89273700000.0 97440800000.0 105954000000.0 115768000000.0 127869000000.0 142854000000.0 160654000000.0 180716000000.0 203000000000.0 226381000000.0 248387000000.0 270635000000.0 280523000000.0 301610000000.0 283126000000.0 299801000000.0 209823000000.0 275865000000.0 225434000000.0 274696000000.0 189117000000.0 141351000000.0 130371000000.0 95757500000.0 95395900000.0 96480000000.0 919141000.0 9300460000.0 15150900000.0 29104400000.0 75882200000.0 84455500000.0 82146100000.0 164363000000.0 174248000000.0 167043000000.0 183758000000.0 175461000000.0 188952000000.0 83901200000.0 29664000000.0 5454280000.0 22185700000.0 24505900000.0 21761200000.0 23161800000.0 28528200000.0 35221800000.0 38579300000.0 41634500000.0 46045900000.0 52257400000.0 255580000000.0 223077000000.0 227374000000.0 231252000000.0 142272000000.0 252553000000.0 181305000000.0 208721000000.0 111304000000.0 106685000000.0 89607900000.0 77311100000.0 82743200000.0 71710900000.0 29513300000.0 14953400000.0 1420560000.0 87617600.0 17408800000.0 32142400000.0 63140800000.0 127583000000.0 124601000000.0 96404600000.0 92620700000.0 74030100000.0 164472000000.0 140853000000.0 111725000000.0 102120000000.0 111980000000.0 124408000000.0 131108000000.0 136988000000.0 143254000000.0 165654000000.0 203466000000.0 225772000000.0 211849000000.0 157681000000.0 41212700000.0 59678700000.0 67382400000.0 75132600000.0 83844300000.0 94912500000.0 109669000000.0 127963000000.0 148321000000.0 169678000000.0 192051000000.0 211473000000.0 220236000000.0 233645000000.0 62140300000.0 21964500000.0 1919650000.0 6974970000.0 1612040000.0 133451000000.0 124006000000.0 124695000000.0 106032000000.0 90457200000.0 71674300000.0 125176000000.0 148612000000.0 147736000000.0 147319000000.0 125976000000.0 127396000000.0 113085000000.0 87043200000.0 83386700000.0 93494700000.0 96747900000.0 100668000000.0 110897000000.0 131159000000.0 161331000000.0 192002000000.0 192129000000.0 152941000000.0 80221900000.0 9992010000.0 171460000000.0 85914200000.0 44576300000.0 20497300000.0 8275680000.0 11768400000.0 11152500000.0 4288550000.0 8497270000.0 11045100000.0 11994500000.0 13737800000.0 17803300000.0 23977100000.0 31464100000.0 39381600000.0 47431500000.0 56743900000.0 70593300000.0 89692200000.0 111715000000.0 133825000000.0 155209000000.0 177865000000.0 195205000000.0 187203000000.0 211289000000.0 181361000000.0 154594000000.0 174631000000.0 156178000000.0 97834000000.0 212082000000.0 121128000000.0 123628000000.0 61882900000.0 34357600000.0 40313000000.0 65191700000.0 2523500000.0 12109000000.0 26997000000.0 72584500000.0 112338000000.0 130397000000.0 110542000000.0 94958100000.0 75441600000.0 28172700000.0 43984300000.0 20630900000.0 109155000000.0 101396000000.0 97780900000.0 91627400000.0 79566000000.0 81180300000.0 58391500000.0 56546800000.0 61971000000.0 65209700000.0 73107600000.0 86309900000.0 97268800000.0 118844000000.0 147971000000.0 171029000000.0 144784000000.0 86633900000.0 2285420000.0 42904500000.0 157974000000.0 98353100000.0 63547000000.0 44480800000.0 40749200000.0 45027500000.0 46056600000.0 18578000000.0 19695800000.0 22015100000.0 23348100000.0 22508800000.0 18455200000.0 11818200000.0 3642750000.0 5217890000.0 13608800000.0 25937600000.0 45361600000.0 69954000000.0 94800800000.0 116866000000.0 135553000000.0 156929000000.0 158195000000.0 145802000000.0 145782000000.0 84841200000.0 102796000000.0 105394000000.0 86339600000.0 58344000000.0 183417000000.0 65066200000.0 95821100000.0 18046400000.0 28793400000.0 43273600000.0 56852600000.0 40917000000.0 19023300000.0 9035750000.0 9035750000.0 510068000.0 16222100000.0 19180900000.0 135110000000.0 140143000000.0 25654300000.0 3170720000.0 72943700000.0 59890300000.0 53152300000.0 133277000000.0 55898900000.0 87901700000.0 38240100000.0 87264200000.0 29904400000.0 44805800000.0 51534800000.0 56673900000.0 58073200000.0 57645900000.0 51464800000.0 45546400000.0 34674200000.0 23589300000.0 9343130000.0 35153200000.0 22849200000.0 2652060000.0 41629600000.0 84943900000.0 133507000000.0 52625500000.0 104726000000.0 67711600000.0 73524400000.0 59006200000.0 35365800000.0 5816340000.0 120260000000.0 97874000000.0 82239900000.0 9663510000.0 7565740000.0 48120300000.0 38125400000.0 37769500000.0 31821400000.0 66888900000.0 77895800000.0 70577100000.0 70305100000.0 70887100000.0 77617500000.0 90179900000.0 115485000000.0 150029000000.0 79304400000.0 46994900000.0 55743300000.0 101523000000.0 177159000000.0 11721300000.0 40667000000.0 71419100000.0 99919100000.0 122574000000.0 136093000000.0 157366000000.0 139791000000.0 106510000000.0 213492000000.0 177305000000.0 209897000000.0 166581000000.0 347697000.0 17021200000.0 18258300000.0 107677000000.0 121801000000.0 111210000000.0 95046600000.0 85670600000.0 167044000.0 18408400000.0 19251900000.0 47967800000.0 9592590000.0 10578100000.0 9597120000.0 7284120000.0 8829930000.0 20173200.0 11393700000.0 13110900000.0 49053200000.0 49012200000.0 59785700000.0 51643200000.0 51289700000.0 55014500000.0 65700000000.0 104699000000.0 197039000000.0 7135490000.0 186172000000.0 25063100000.0 41265600000.0 141085000000.0 65894800000.0 108286000000.0 56621200000.0 138054000000.0 79423700000.0 61576400000.0 45118400000.0 32726300000.0 18206400000.0 2593160000.0 18858800000.0 37908900000.0 59160400000.0 74777000000.0 84982100000.0 93506700000.0 105026000000.0 119492000000.0 130821000000.0 135460000000.0 132140000000.0 149322000000.0 132356000000.0 85236600000.0 43790300000.0 53744600000.0 72689000000.0 80548400000.0 73879600000.0 24923300000.0 149601000000.0 42540600000.0 48013700000.0 19946800000.0 9050560000.0 41909300000.0 49275900000.0 21018300000.0 14004100000.0 9035750000.0 9035750000.0 9035750000.0 9035750000.0 9036950000.0 127170000000.0 122504000000.0 7251370000.0 6029750000.0 44099300000.0 43423000000.0 37957700000.0 163399000000.0 170910000000.0 183841000000.0 46937900000.0 50751100000.0 37871300000.0 1912320000.0 55289000000.0 74918000000.0 72907900000.0 73314100000.0 72771900000.0 73470400000.0 72502100000.0 73508600000.0 69465100000.0 66214300000.0 58208200000.0 43775300000.0 51464700000.0 51805100000.0 23519500000.0 129114000000.0 40645800000.0 20490500000.0 13959500000.0 9034280000.0 9035750000.0 95577500000.0 68690600000.0 52518300000.0 11827200000.0 5568520000.0 32438600000.0 24779300000.0 23161300000.0 21684800000.0 17966500000.0 45522600000.0 68522300000.0 99553400000.0 117732000000.0 140059000000.0 153260000000.0 70812500000.0 115606000000.0 71924600000.0 1300200000.0 50059400000.0 50416300000.0 55749700000.0 62262800000.0 65700600000.0 65417800000.0 61487000000.0 71769900000.0 44659300000.0 3522110000.0 4267870000.0 22806900000.0 21241900000.0 21609100000.0 9632050000.0 6352840000.0 37560300000.0 9035750000.0 9035750000.0 8318130000.0 101606000000.0 100451000000.0 87590800000.0 71891300000.0 62231300000.0 9997270000.0 9035800000.0 12118400000.0 7981630000.0 33245900000.0 35612600000.0 30594400000.0 25346700000.0 18921800000.0 15700900000.0 12719800000.0 9072250000.0 9821980000.0 29384800000.0 50880900000.0 63293100000.0 79808800000.0 91210000000.0 105263000000.0 129564000000.0 192644000000.0 6047790000.0 154368000000.0 23470400000.0 82952900000.0 8047130000.0 64557100000.0 21666500000.0 59386000000.0 3363150000.0 55251700000.0 54395400000.0 55906600000.0 56624200000.0 59241500000.0 61254100000.0 66313300000.0 68337100000.0 71838400000.0 71309100000.0 68883000000.0 73519800000.0 80658700000.0 88724500000.0 93991100000.0 96150300000.0 95650800000.0 108323000000.0 80086500000.0 34278100000.0 42087900000.0 49218100000.0 60545400000.0 62626700000.0 59631500000.0 32887900000.0 114218000000.0 27872800000.0 22670100000.0 15674000000.0 9040490000.0 32224300000.0 32522500000.0 19352700000.0 13231500000.0 9035750000.0 9035750000.0 9035750000.0 9035750000.0 9035750000.0 76365900000.0 11197800000.0 26752500000.0 140612000000.0 47382600000.0 85098700000.0 25061500000.0 17070000000.0 12112000000.0 9035750000.0 9035750000.0 74713700000.0 65381800000.0 53988400000.0 46968100000.0 9788120000.0 9035780000.0 9087060000.0 30507900000.0 26923100000.0 23187500000.0 19313100000.0 17276500000.0 16070100000.0 15465600000.0 14255400000.0 27244700000.0 48161900000.0 59254800000.0 74129200000.0 83649800000.0 94119900000.0 106187000000.0 6617620000.0 114209000000.0 22365200000.0 56216000000.0 7658220000.0 15224800000.0 45523500000.0 7907970000.0 47508700000.0 47607200000.0 49134800000.0 49550800000.0 51023400000.0 51886300000.0 54908200000.0 55499200000.0 57178900000.0 55903600000.0 53646700000.0 57587400000.0 62386100000.0 67571300000.0 70711600000.0 71871900000.0 71615600000.0 81042900000.0 56815500000.0 26932500000.0 34428400000.0 39355900000.0 47121400000.0 48448000000.0 46472200000.0 27374600000.0 21364100000.0 16198000000.0 13512700000.0 9044880000.0 26005500000.0 9035750000.0 9035750000.0 9035750000.0 49046900000.0 48087000000.0 42643200000.0 35794100000.0 31524100000.0 9516650000.0 9035740000.0 10222700000.0 9060210000.0 19191800000.0 22179900000.0 19932200000.0 17632800000.0 15433300000.0 14018300000.0 13177700000.0 12778100000.0 11917800000.0 15645400000.0 30805600000.0 36545500000.0 46080000000.0 51677600000.0 58454000000.0 64911800000.0 89090200000.0 10274700000.0 70327500000.0 17370900000.0 34511700000.0 9036410000.0 31958600000.0 12190600000.0 31452100000.0 9169220000.0 32840500000.0 32735600000.0 33524200000.0 33724000000.0 34655500000.0 35230400000.0 37120900000.0 37495000000.0 38534400000.0 37829300000.0 36531000000.0 39114600000.0 41879400000.0 44752300000.0 46357500000.0 46830100000.0 46496200000.0 52306700000.0 36399800000.0 19962900000.0 24875200000.0 27607400000.0 32127700000.0 32888800000.0 31785900000.0 20364900000.0 54531500000.0 15942200000.0 12232600000.0 11603300000.0 9043150000.0 19246100000.0 18254500000.0 14029000000.0 10853700000.0 9035750000.0 9035750000.0 9035750000.0 9035750000.0 10622900000.0 9599760000.0 9035750000.0 9035750000.0 9035750000.0 21542800000.0 21253500000.0 19561000000.0 17407500000.0 16058400000.0 9184490000.0 9035680000.0 9379700000.0 9041970000.0 12149800000.0 13196300000.0 12470400000.0 11744300000.0 11071600000.0 10603000000.0 10320500000.0 10180500000.0 9957110000.0 10432900000.0 15827100000.0 17254000000.0 20513200000.0 22346500000.0 24528100000.0 26426700000.0 34176900000.0 9398330000.0 28071700000.0 11697100000.0 16526600000.0 9036130000.0 16028000000.0 9745260000.0 16030200000.0 9078770000.0 16529700000.0 16503200000.0 16756400000.0 16821800000.0 17124800000.0 17313500000.0 17917200000.0 18038600000.0 18359800000.0 18128300000.0 17729100000.0 18567300000.0 19419400000.0 20291400000.0 20764200000.0 20892000000.0 20775100000.0 22646100000.0 17556500000.0 12469200000.0 14090700000.0 14898200000.0 16308900000.0 16548500000.0 16213300000.0 12635800000.0 23300600000.0 11164900000.0 9866700000.0 9826820000.0 9038100000.0 12237000000.0 11889400000.0 