# vtk DataFile Version 2.0
Time step 41
ASCII
DATASET UNSTRUCTURED_GRID
POINTS 5000 float
202702.0 341265.0 0
207225.0 338652.0 0
208769.0 341981.0 0
213691.0 339583.0 0
281975.0 341377.0 0
288026.0 338283.0 0
297463.0 339109.0 0
202415.0 346281.0 0
206391.0 343929.0 0
211303.0 344535.0 0
216540.0 344611.0 0
221735.0 343476.0 0
227071.0 345384.0 0
230744.0 343644.0 0
235206.0 343705.0 0
240463.0 346252.0 0
266627.0 345356.0 0
271604.0 342801.0 0
273520.0 346823.0 0
277827.0 345893.0 0
287712.0 344109.0 0
292449.0 346947.0 0
297176.0 344419.0 0
203578.0 351384.0 0
207809.0 348020.0 0
213569.0 349002.0 0
218993.0 349644.0 0
223311.0 347651.0 0
224878.0 351608.0 0
228970.0 349682.0 0
231729.0 346861.0 0
235559.0 349241.0 0
240277.0 351610.0 0
245048.0 349664.0 0
248728.0 352166.0 0
251046.0 347360.0 0
257311.0 348098.0 0
262061.0 347472.0 0
262624.0 351787.0 0
266349.0 350156.0 0
270385.0 349176.0 0
274883.0 350895.0 0
279560.0 350472.0 0
283091.0 347378.0 0
284879.0 351103.0 0
287248.0 348896.0 0
290211.0 350872.0 0
296665.0 351021.0 0
201910.0 355654.0 0
206365.0 356197.0 0
209919.0 352605.0 0
212222.0 357255.0 0
215506.0 353499.0 0
220998.0 355009.0 0
224115.0 357732.0 0
227810.0 355806.0 0
231772.0 352849.0 0
232492.0 356967.0 0
236082.0 354225.0 0
240723.0 356892.0 0
245725.0 355045.0 0
254479.0 352168.0 0
251267.0 355354.0 0
258695.0 352562.0 0
256621.0 356543.0 0
261276.0 356000.0 0
266302.0 355016.0 0
270065.0 357520.0 0
270663.0 353277.0 0
274106.0 355926.0 0
278057.0 354108.0 0
282428.0 354131.0 0
287172.0 354151.0 0
291037.0 354105.0 0
294145.0 355368.0 0
202766.0 359890.0 0
208556.0 361503.0 0
216991.0 357778.0 0
221127.0 360838.0 0
226276.0 360589.0 0
230155.0 359729.0 0
233588.0 361396.0 0
236240.0 358624.0 0
239037.0 362528.0 0
244058.0 360812.0 0
248531.0 359284.0 0
253200.0 359675.0 0
258324.0 361192.0 0
264084.0 360468.0 0
269000.0 361131.0 0
271843.0 359983.0 0
274984.0 360260.0 0
279512.0 358734.0 0
284979.0 358904.0 0
290239.0 358204.0 0
287386.0 362826.0 0
291179.0 362068.0 0
296222.0 360039.0 0
202039.0 364056.0 0
202007.0 367767.0 0
205974.0 366286.0 0
211129.0 366911.0 0
215058.0 362747.0 0
220005.0 366011.0 0
224925.0 365403.0 0
229911.0 364222.0 0
234958.0 366477.0 0
242529.0 364378.0 0
242503.0 367385.0 0
246202.0 365143.0 0
250645.0 363819.0 0
254530.0 363248.0 0
253387.0 368082.0 0
257012.0 365840.0 0
261552.0 365601.0 0
267600.0 366369.0 0
272382.0 363483.0 0
272782.0 367968.0 0
277803.0 364810.0 0
283294.0 363674.0 0
282144.0 367522.0 0
286207.0 367079.0 0
290048.0 365221.0 0
293438.0 364470.0 0
297550.0 365215.0 0
202302.0 371324.0 0
207358.0 371354.0 0
212723.0 371953.0 0
216222.0 368503.0 0
220624.0 373080.0 0
223252.0 370237.0 0
227395.0 372334.0 0
228580.0 368739.0 0
231888.0 369821.0 0
239384.0 368215.0 0
236756.0 372165.0 0
242010.0 371919.0 0
245401.0 369308.0 0
249025.0 368541.0 0
251220.0 371738.0 0
258628.0 369966.0 0
263474.0 370576.0 0
269903.0 371475.0 0
273157.0 372631.0 0
275825.0 370357.0 0
278986.0 369011.0 0
278349.0 371753.0 0
280625.0 370423.0 0
283799.0 371520.0 0
287530.0 371065.0 0
290526.0 368851.0 0
294286.0 367467.0 0
294127.0 371500.0 0
297857.0 368923.0 0
298484.0 374595.0 0
202011.0 374834.0 0
198592.0 378574.0 0
201254.0 377333.0 0
204531.0 375173.0 0
207878.0 378035.0 0
209943.0 375348.0 0
214321.0 377623.0 0
217267.0 373006.0 0
219492.0 377023.0 0
224129.0 375594.0 0
228575.0 376453.0 0
231697.0 373731.0 0
235300.0 377127.0 0
239782.0 376809.0 0
243912.0 376114.0 0
247266.0 373139.0 0
247724.0 378203.0 0
251317.0 376017.0 0
255286.0 373169.0 0
260423.0 375086.0 0
263975.0 378300.0 0
266295.0 374557.0 0
271213.0 376551.0 0
276297.0 375192.0 0
280178.0 373610.0 0
281686.0 376952.0 0
286206.0 375446.0 0
290251.0 373581.0 0
293075.0 376909.0 0
289423.0 377930.0 0
295921.0 374356.0 0
298395.0 372010.0 0
297050.0 377771.0 0
300342.0 377625.0 0
303415.0 380261.0 0
191706.0 383123.0 0
195522.0 380917.0 0
194571.0 384394.0 0
200044.0 380724.0 0
200085.0 383090.0 0
197476.0 383654.0 0
203810.0 379774.0 0
203259.0 384328.0 0
206833.0 382144.0 0
211106.0 381736.0 0
217793.0 381812.0 0
222458.0 380651.0 0
226547.0 380102.0 0
231590.0 381025.0 0
237755.0 381895.0 0
243392.0 380838.0 0
248577.0 382408.0 0
251128.0 379926.0 0
255624.0 379125.0 0
260571.0 380408.0 0
267259.0 379019.0 0
264635.0 383010.0 0
269747.0 382688.0 0
274315.0 380550.0 0
278222.0 379285.0 0
281280.0 381985.0 0
284685.0 379771.0 0
287772.0 381188.0 0
288814.0 384481.0 0
292085.0 381980.0 0
295821.0 381382.0 0
299915.0 380751.0 0
299680.0 383609.0 0
302651.0 383964.0 0
306876.0 383370.0 0
311194.0 384952.0 0
179642.0 389980.0 0
183737.0 388150.0 0
187905.0 385999.0 0
186972.0 389865.0 0
190860.0 390798.0 0
191742.0 387004.0 0
195912.0 386534.0 0
194680.0 389828.0 0
199535.0 386474.0 0
197890.0 388872.0 0
201893.0 388684.0 0
205760.0 387135.0 0
208036.0 384474.0 0
210478.0 387284.0 0
214858.0 385355.0 0
217967.0 389101.0 0
221348.0 385271.0 0
225858.0 384214.0 0
222468.0 389208.0 0
229480.0 385625.0 0
226311.0 388476.0 0
233807.0 386083.0 0
237877.0 387131.0 0
241630.0 385569.0 0
245888.0 384960.0 0
249695.0 387309.0 0
252888.0 383848.0 0
258590.0 385847.0 0
264253.0 387618.0 0
268618.0 388024.0 0
273387.0 385680.0 0
277563.0 383927.0 0
277137.0 388962.0 0
281273.0 387132.0 0
284818.0 384515.0 0
288044.0 388281.0 0
291832.0 385764.0 0
293124.0 389231.0 0
296700.0 386420.0 0
301294.0 386891.0 0
300959.0 390933.0 0
304969.0 387604.0 0
308769.0 387606.0 0
311217.0 390710.0 0
314470.0 387447.0 0
318221.0 390186.0 0
170927.0 395792.0 0
173699.0 393904.0 0
177081.0 392486.0 0
180292.0 393335.0 0
178423.0 395826.0 0
182093.0 390908.0 0
181991.0 394748.0 0
184737.0 393387.0 0
188390.0 392886.0 0
191887.0 394208.0 0
195863.0 393194.0 0
199498.0 391118.0 0
203921.0 390704.0 0
201772.0 394319.0 0
207349.0 390605.0 0
205939.0 393664.0 0
209983.0 391200.0 0
209341.0 394517.0 0
213330.0 391106.0 0
216667.0 394394.0 0
220774.0 393545.0 0
224295.0 392130.0 0
227473.0 393540.0 0
230756.0 389741.0 0
235692.0 391679.0 0
239622.0 393377.0 0
244802.0 389343.0 0
240373.0 390169.0 0
242772.0 393327.0 0
246259.0 393873.0 0
248680.0 391579.0 0
253851.0 388450.0 0
252355.0 392563.0 0
257346.0 392630.0 0
261597.0 390671.0 0
265426.0 391962.0 0
269063.0 393159.0 0
272542.0 390333.0 0
272534.0 394319.0 0
276077.0 393504.0 0
280600.0 393023.0 0
284362.0 390679.0 0
288258.0 393639.0 0
290634.0 391462.0 0
293529.0 394467.0 0
296560.0 390855.0 0
297777.0 394082.0 0
306051.0 391773.0 0
303987.0 395114.0 0
309071.0 395221.0 0
313002.0 395454.0 0
315237.0 392485.0 0
317045.0 394246.0 0
322451.0 392585.0 0
319653.0 394707.0 0
326270.0 394076.0 0
329163.0 395088.0 0
165250.0 399345.0 0
162281.0 401007.0 0
168091.0 397265.0 0
168761.0 400567.0 0
175189.0 396371.0 0
172629.0 398942.0 0
177343.0 398875.0 0
179635.0 400252.0 0
181227.0 397293.0 0
184153.0 396719.0 0
182585.0 400305.0 0
185404.0 399307.0 0
188203.0 396116.0 0
189523.0 399869.0 0
193458.0 397523.0 0
197764.0 396730.0 0
196886.0 400370.0 0
200875.0 399338.0 0
205259.0 397981.0 0
209399.0 399044.0 0
212767.0 396227.0 0
215834.0 398409.0 0
219649.0 398396.0 0
224129.0 397209.0 0
228420.0 398336.0 0
231452.0 394982.0 0
234663.0 397057.0 0
237934.0 396620.0 0
241205.0 396332.0 0
244909.0 397891.0 0
249335.0 396127.0 0
254100.0 398123.0 0
259195.0 397797.0 0
262021.0 394819.0 0
265834.0 397331.0 0
270548.0 397252.0 0
274598.0 397526.0 0
278670.0 397358.0 0
282514.0 397716.0 0
286012.0 398424.0 0
284830.0 395192.0 0
289261.0 397666.0 0
292357.0 398275.0 0
295792.0 398685.0 0
300489.0 397145.0 0
303809.0 399780.0 0
307063.0 397923.0 0
311913.0 398749.0 0
316240.0 397334.0 0
316516.0 400693.0 0
320546.0 397570.0 0
320629.0 400689.0 0
324104.0 396734.0 0
327671.0 397373.0 0
324285.0 400019.0 0
327214.0 399986.0 0
331366.0 398047.0 0
330996.0 401426.0 0
335156.0 399113.0 0
154431.0 406176.0 0
159788.0 402911.0 0
157082.0 404488.0 0
164899.0 403355.0 0
161619.0 405510.0 0
168393.0 405510.0 0
175686.0 401964.0 0
171887.0 403588.0 0
175048.0 406085.0 0
179280.0 403626.0 0
182829.0 403262.0 0
186077.0 402956.0 0
189894.0 403473.0 0
193329.0 401433.0 0
192152.0 405065.0 0
195284.0 404213.0 0
199006.0 403185.0 0
203003.0 402615.0 0
206772.0 402123.0 0
209631.0 403991.0 0
212563.0 400977.0 0
216458.0 402325.0 0
220864.0 403087.0 0
225290.0 402074.0 0
229479.0 402692.0 0
232092.0 399601.0 0
233087.0 403006.0 0
236120.0 400978.0 0
239052.0 404044.0 0
240394.0 400292.0 0
243857.0 402586.0 0
248928.0 401561.0 0
253354.0 403102.0 0
257853.0 402591.0 0
262237.0 400840.0 0
266019.0 402555.0 0
269022.0 400662.0 0
273036.0 401519.0 0
269541.0 404510.0 0
276900.0 400673.0 0
277034.0 404816.0 0
280550.0 401481.0 0
283703.0 404151.0 0
284608.0 401271.0 0
288407.0 401681.0 0
286816.0 405213.0 0
292571.0 401797.0 0
298603.0 400750.0 0
296785.0 403307.0 0
301302.0 402981.0 0
307278.0 401448.0 0
305552.0 403592.0 0
309904.0 400866.0 0
313224.0 402195.0 0
309910.0 404425.0 0
314358.0 406022.0 0
317275.0 403997.0 0
321143.0 404537.0 0
327578.0 403054.0 0
324778.0 403040.0 0
328101.0 406504.0 0
331041.0 404869.0 0
338546.0 401652.0 0
335590.0 402445.0 0
339464.0 404991.0 0
341480.0 403281.0 0
343954.0 405393.0 0
148724.0 409592.0 0
146294.0 411594.0 0
151691.0 408306.0 0
154017.0 410569.0 0
158792.0 406693.0 0
156495.0 408430.0 0
159480.0 408935.0 0
164846.0 406886.0 0
162503.0 409015.0 0
169582.0 409631.0 0
166537.0 409261.0 0
171776.0 407582.0 0
174037.0 410784.0 0
178801.0 408082.0 0
183139.0 406762.0 0
184506.0 410380.0 0
187799.0 406765.0 0
188372.0 410998.0 0
192415.0 408562.0 0
197113.0 407594.0 0
199828.0 410697.0 0
201317.0 406411.0 0
205553.0 406053.0 0
202969.0 408864.0 0
205752.0 409812.0 0
209345.0 408356.0 0
213191.0 405292.0 0
213867.0 409412.0 0
217588.0 406772.0 0
220776.0 408875.0 0
223395.0 406697.0 0
227087.0 406918.0 0
231306.0 406659.0 0
235521.0 405496.0 0
234078.0 409739.0 0
238595.0 408623.0 0
242048.0 406046.0 0
242780.0 409520.0 0
246065.0 406067.0 0
250547.0 406900.0 0
255132.0 406204.0 0
253808.0 410019.0 0
257409.0 408681.0 0
260126.0 406318.0 0
263253.0 404707.0 0
263458.0 408171.0 0
266712.0 407024.0 0
272959.0 406107.0 0
275663.0 409658.0 0
279558.0 409338.0 0
281094.0 405836.0 0
284296.0 408601.0 0
288839.0 409385.0 0
290662.0 405787.0 0
292953.0 410439.0 0
294548.0 406050.0 0
296304.0 409258.0 0
299661.0 407444.0 0
303413.0 408923.0 0
303600.0 406346.0 0
307150.0 407385.0 0
305465.0 410568.0 0
311475.0 408707.0 0
318676.0 408287.0 0
315696.0 410887.0 0
322956.0 409077.0 0
324989.0 406259.0 0
326847.0 410871.0 0
334646.0 406707.0 0
330907.0 408846.0 0
338601.0 407793.0 0
335006.0 411025.0 0
342121.0 407718.0 0
341708.0 410638.0 0
346947.0 407343.0 0
345447.0 409945.0 0
350020.0 409243.0 0
353342.0 410896.0 0
138455.0 415986.0 0
140541.0 414444.0 0
143416.0 413724.0 0
150344.0 411982.0 0
148044.0 414744.0 0
153035.0 413270.0 0
151206.0 415846.0 0
157654.0 411679.0 0
155597.0 414902.0 0
158876.0 414898.0 0
163822.0 411885.0 0
160588.0 411624.0 0
162077.0 414383.0 0
166517.0 412381.0 0
169865.0 412924.0 0
165619.0 415354.0 0
172422.0 415220.0 0
175706.0 414728.0 0
177557.0 411897.0 0
178727.0 414151.0 0
181030.0 411648.0 0
181338.0 415266.0 0
184685.0 414769.0 0
188821.0 414414.0 0
191799.0 412609.0 0
192072.0 416001.0 0
195564.0 412437.0 0
199233.0 415114.0 0
203024.0 412446.0 0
207111.0 412815.0 0
210863.0 412930.0 0
214620.0 413241.0 0
217554.0 411024.0 0
217560.0 415345.0 0
220729.0 412164.0 0
224540.0 410989.0 0
222520.0 415270.0 0
229179.0 411167.0 0
232748.0 412982.0 0
236859.0 413135.0 0
240410.0 411972.0 0
243551.0 413248.0 0
246704.0 410205.0 0
250374.0 411397.0 0
253273.0 415102.0 0
256647.0 412079.0 0
260914.0 411374.0 0
266100.0 412142.0 0
270722.0 409988.0 0
270276.0 414948.0 0
274310.0 413513.0 0
278078.0 412873.0 0
280664.0 415183.0 0
282076.0 412290.0 0
286540.0 412892.0 0
290657.0 413946.0 0
294549.0 414752.0 0
298014.0 412391.0 0
297883.0 415281.0 0
302158.0 412169.0 0
308805.0 411360.0 0
305934.0 413693.0 0
309281.0 414710.0 0
312566.0 413029.0 0
317657.0 415127.0 0
320210.0 412022.0 0
323309.0 412756.0 0
322329.0 415743.0 0
331464.0 412674.0 0
338546.0 411609.0 0
335209.0 414016.0 0
338088.0 415929.0 0
341255.0 413983.0 0
344215.0 412647.0 0
343475.0 415859.0 0
348838.0 411960.0 0
347173.0 414061.0 0
349838.0 415769.0 0
352265.0 413815.0 0
356432.0 412928.0 0
355983.0 415471.0 0
359552.0 414543.0 0
362431.0 416356.0 0
128188.0 422074.0 0
133155.0 418895.0 0
131203.0 420296.0 0
136220.0 418092.0 0
134976.0 421653.0 0
139274.0 420134.0 0
140993.0 417707.0 0
144179.0 417610.0 0
141898.0 421380.0 0
144896.0 421442.0 0
147766.0 418242.0 0
148073.0 421173.0 0
150125.0 418251.0 0
153497.0 417778.0 0
151776.0 420767.0 0
156604.0 417976.0 0
159320.0 417633.0 0
155463.0 420707.0 0
158861.0 421159.0 0
162839.0 418509.0 0
168477.0 416774.0 0
166642.0 420471.0 0
171600.0 418710.0 0
179150.0 417456.0 0
175298.0 418670.0 0
178393.0 421221.0 0
182659.0 419168.0 0
187871.0 418752.0 0
195347.0 416478.0 0
192864.0 420162.0 0
197168.0 419161.0 0
199922.0 418698.0 0
204304.0 417114.0 0
208896.0 415969.0 0
209120.0 419472.0 0
212788.0 417013.0 0
220255.0 418615.0 0
216172.0 420149.0 0
224093.0 419739.0 0
226365.0 415394.0 0
230225.0 415785.0 0
228103.0 419674.0 0
233987.0 415689.0 0
232651.0 419908.0 0
236898.0 418066.0 0
240254.0 415749.0 0
243551.0 417238.0 0
247759.0 415288.0 0
246026.0 420217.0 0
250365.0 419648.0 0
254055.0 419867.0 0
256468.0 418285.0 0
258599.0 415659.0 0
263241.0 416046.0 0
260778.0 418765.0 0
266967.0 417066.0 0
273489.0 417460.0 0
277268.0 417161.0 0
281479.0 418966.0 0
284267.0 416150.0 0
285639.0 420438.0 0
288369.0 417306.0 0
292207.0 417990.0 0
297151.0 419223.0 0
301586.0 416722.0 0
305189.0 416434.0 0
305239.0 420363.0 0
308120.0 417602.0 0
313382.0 417806.0 0
317338.0 420131.0 0
320432.0 418962.0 0
324350.0 420481.0 0
327395.0 416443.0 0
333196.0 416849.0 0
331102.0 420102.0 0
334191.0 421490.0 0
336342.0 419257.0 0
341159.0 418513.0 0
346659.0 417257.0 0
344930.0 420928.0 0
353438.0 416913.0 0
350519.0 419343.0 0
353613.0 421125.0 0
355479.0 419006.0 0
358148.0 417430.0 0
357821.0 421063.0 0
361019.0 418460.0 0
364043.0 419973.0 0
365338.0 418159.0 0
368133.0 420229.0 0
122881.0 425721.0 0
126235.0 424448.0 0
130609.0 422459.0 0
133095.0 423511.0 0
130070.0 424927.0 0
129771.0 426844.0 0
133156.0 426133.0 0
137601.0 423509.0 0
140984.0 424781.0 0
144665.0 425508.0 0
148359.0 424398.0 0
151203.0 423812.0 0
152712.0 426377.0 0
154954.0 423607.0 0
158267.0 425213.0 0
162634.0 423560.0 0
166190.0 425617.0 0
170583.0 422924.0 0
174687.0 422258.0 0
176861.0 424676.0 0
179488.0 426115.0 0
180967.0 422876.0 0
182540.0 425354.0 0
185093.0 422758.0 0
187715.0 424973.0 0
189316.0 422454.0 0
192009.0 425218.0 0
196573.0 423172.0 0
201234.0 422221.0 0
205431.0 421853.0 0
208558.0 423881.0 0
212524.0 421632.0 0
212028.0 425708.0 0
219947.0 422368.0 0
216194.0 425224.0 0
223040.0 423885.0 0
226494.0 423708.0 0
230204.0 423734.0 0
235234.0 424103.0 0
240584.0 421745.0 0
244859.0 424158.0 0
248606.0 423611.0 0
253229.0 424063.0 0
258217.0 421995.0 0
264526.0 421856.0 0
270401.0 420792.0 0
273571.0 425282.0 0
275250.0 421471.0 0
278601.0 421388.0 0
278070.0 425643.0 0
282356.0 423313.0 0
286816.0 425180.0 0
289716.0 421728.0 0
293964.0 422697.0 0
298203.0 423772.0 0
301780.0 422428.0 0
303165.0 426074.0 0
306300.0 425155.0 0
309866.0 422080.0 0
315173.0 423646.0 0
320534.0 423737.0 0
328440.0 422239.0 0
325507.0 425136.0 0
329408.0 426187.0 0
331954.0 424051.0 0
338537.0 421654.0 0
336162.0 424145.0 0
341734.0 422429.0 0
340509.0 425581.0 0
348830.0 422907.0 0
344690.0 425317.0 0
351808.0 424027.0 0
355492.0 424211.0 0
358939.0 424994.0 0
361050.0 422120.0 0
363825.0 424468.0 0
366313.0 422273.0 0
369147.0 425042.0 0
371003.0 422522.0 0
374340.0 424541.0 0
372141.0 426852.0 0
377242.0 426823.0 0
113742.0 432156.0 0
117092.0 429505.0 0
120162.0 427780.0 0
123908.0 429091.0 0
120052.0 431010.0 0
122455.0 431813.0 0
127051.0 427593.0 0
126158.0 431745.0 0
128933.0 430180.0 0
131624.0 428411.0 0
133928.0 429990.0 0
136072.0 426745.0 0
139675.0 427990.0 0
137164.0 430944.0 0
142426.0 429628.0 0
149303.0 427714.0 0
146141.0 429563.0 0
151133.0 430725.0 0
154125.0 429417.0 0
155934.0 427301.0 0
157423.0 429592.0 0
161376.0 428628.0 0
169071.0 427441.0 0
165620.0 429789.0 0
169541.0 430838.0 0
173179.0 427018.0 0
177148.0 430051.0 0
184907.0 426853.0 0
181495.0 428541.0 0
184341.0 430618.0 0
188100.0 428391.0 0
192017.0 430479.0 0
195997.0 427797.0 0
200166.0 426589.0 0
199026.0 430311.0 0
202679.0 430037.0 0
204599.0 426131.0 0
205522.0 429642.0 0
208673.0 428834.0 0
213257.0 429518.0 0
217435.0 430188.0 0
220279.0 426469.0 0
224148.0 427286.0 0
221429.0 429860.0 0
228022.0 428245.0 0
231992.0 427025.0 0
235372.0 429718.0 0
238666.0 427000.0 0
242401.0 427575.0 0
246694.0 427823.0 0
250432.0 427351.0 0
253150.0 429794.0 0
256917.0 427367.0 0
260947.0 426174.0 0
260995.0 430558.0 0
264927.0 428101.0 0
269152.0 425898.0 0
272299.0 429051.0 0
276153.0 430411.0 0
280228.0 429671.0 0
282660.0 427371.0 0
285285.0 428395.0 0
287685.0 429427.0 0
291868.0 427577.0 0
296632.0 426533.0 0
296999.0 430691.0 0
300246.0 426956.0 0
301247.0 430909.0 0
304425.0 429102.0 0
308208.0 429854.0 0
310908.0 426858.0 0
314614.0 427812.0 0
316409.0 430843.0 0
318474.0 427569.0 0
322795.0 428356.0 0
327120.0 429212.0 0
333931.0 427373.0 0
330979.0 429625.0 0
337415.0 427246.0 0
335670.0 430930.0 0
338641.0 429822.0 0
341723.0 429066.0 0
344965.0 428905.0 0
344662.0 431932.0 0
349080.0 426952.0 0
348557.0 430629.0 0
353011.0 427817.0 0
355190.0 430762.0 0
351634.0 431371.0 0
356555.0 427872.0 0
359068.0 427927.0 0
357072.0 429957.0 0
359778.0 430874.0 0
361776.0 426969.0 0
363530.0 430068.0 0
366593.0 427324.0 0
367090.0 431738.0 0
373813.0 429282.0 0
370058.0 429716.0 0
378708.0 430623.0 0
381019.0 427749.0 0
383464.0 429492.0 0
381739.0 431051.0 0
385902.0 431875.0 0
107069.0 436362.0 0
110851.0 434699.0 0
117275.0 433023.0 0
114798.0 435520.0 0
118870.0 436459.0 0
122390.0 434861.0 0
126658.0 434982.0 0
131422.0 433144.0 0
135258.0 434405.0 0
138667.0 436855.0 0
140318.0 432846.0 0
143939.0 432804.0 0
142389.0 435829.0 0
147906.0 432751.0 0
145582.0 435908.0 0
155097.0 432471.0 0
151738.0 434141.0 0
154903.0 436682.0 0
158781.0 433075.0 0
162688.0 433324.0 0
166515.0 433884.0 0
173095.0 431593.0 0
170545.0 434712.0 0
174338.0 434615.0 0
178156.0 434728.0 0
180820.0 431968.0 0
182804.0 435056.0 0
187676.0 433250.0 0
192115.0 435881.0 0
195981.0 432522.0 0
197030.0 436250.0 0
200980.0 434284.0 0
205916.0 433095.0 0
210429.0 433256.0 0
214471.0 433156.0 0
217587.0 435218.0 0
220302.0 432817.0 0
224702.0 431961.0 0
228670.0 433397.0 0
231432.0 430885.0 0
232855.0 434849.0 0
236012.0 433312.0 0
239933.0 432052.0 0
244886.0 432000.0 0
242976.0 435569.0 0
247956.0 435015.0 0
249277.0 431294.0 0
252454.0 434448.0 0
257047.0 432096.0 0
260972.0 435545.0 0
264826.0 433116.0 0
268855.0 431030.0 0
268069.0 434950.0 0
272438.0 434263.0 0
276633.0 435088.0 0
279869.0 433365.0 0
284006.0 431827.0 0
282700.0 435617.0 0
287958.0 432846.0 0
290513.0 431739.0 0
290938.0 435115.0 0
293637.0 432779.0 0
296358.0 434888.0 0
300122.0 435159.0 0
305291.0 434457.0 0
312601.0 431311.0 0
309618.0 433730.0 0
312717.0 435253.0 0
316486.0 434903.0 0
320235.0 431474.0 0
320981.0 435635.0 0
325004.0 432911.0 0
329444.0 432985.0 0
333078.0 432696.0 0
332469.0 436416.0 0
336785.0 435386.0 0
338553.0 432697.0 0
341461.0 432414.0 0
340633.0 435928.0 0
344094.0 435504.0 0
347387.0 433528.0 0
350713.0 434972.0 0
354231.0 433812.0 0
358122.0 433879.0 0
362781.0 433660.0 0
361087.0 436594.0 0
366034.0 434862.0 0
370822.0 433070.0 0
375007.0 432793.0 0
373423.0 436336.0 0
377707.0 435944.0 0
380394.0 434528.0 0
383500.0 434197.0 0
388833.0 433862.0 0
392197.0 434721.0 0
394529.0 437252.0 0
98579.7 440314.0 0
101206.0 439187.0 0
104049.0 437928.0 0
102265.0 441820.0 0
105026.0 441080.0 0
108491.0 440637.0 0
112008.0 438905.0 0
113300.0 442375.0 0
115751.0 438233.0 0
116909.0 441293.0 0
123954.0 438385.0 0
120626.0 440216.0 0
124085.0 441964.0 0
126467.0 439324.0 0
127059.0 441755.0 0
130115.0 437947.0 0
130543.0 441967.0 0
134112.0 438429.0 0
136975.0 440827.0 0
142806.0 438736.0 0
140570.0 441252.0 0
149543.0 437215.0 0
145631.0 439437.0 0
148389.0 441272.0 0
152125.0 440511.0 0
159398.0 437049.0 0
156505.0 440599.0 0
163315.0 437191.0 0
160532.0 441129.0 0
164457.0 441018.0 0
167451.0 437605.0 0
168925.0 441167.0 0
171626.0 438158.0 0
174955.0 437841.0 0
178703.0 439327.0 0
183145.0 438776.0 0
187181.0 437417.0 0
195551.0 439953.0 0
200397.0 439579.0 0
204332.0 437365.0 0
208294.0 437313.0 0
210676.0 439346.0 0
213124.0 436905.0 0
216312.0 438842.0 0
219756.0 438708.0 0
222172.0 435921.0 0
225991.0 436181.0 0
229292.0 437758.0 0
233244.0 439505.0 0
237307.0 436822.0 0
241210.0 439339.0 0
246134.0 439529.0 0
250459.0 437999.0 0
253947.0 439070.0 0
256337.0 436223.0 0
258374.0 440143.0 0
263755.0 440069.0 0
265861.0 436648.0 0
269530.0 438839.0 0
275159.0 439491.0 0
279525.0 437456.0 0
283479.0 439596.0 0
287044.0 436648.0 0
291130.0 438602.0 0
294020.0 437055.0 0
297401.0 438606.0 0
301969.0 439690.0 0
306167.0 438978.0 0
310022.0 437751.0 0
313018.0 441623.0 0
314155.0 438674.0 0
318919.0 440204.0 0
324244.0 437807.0 0
324167.0 441221.0 0
328311.0 436853.0 0
327951.0 440823.0 0
331755.0 440233.0 0
335985.0 439677.0 0
340153.0 439599.0 0
343821.0 438999.0 0
347573.0 437292.0 0
347750.0 441388.0 0
353627.0 437222.0 0
351255.0 439179.0 0
354760.0 441086.0 0
356473.0 437161.0 0
358819.0 439672.0 0
364030.0 437499.0 0
362830.0 441899.0 0
369577.0 437081.0 0
366472.0 439876.0 0
368491.0 442191.0 0
372020.0 441223.0 0
375442.0 438881.0 0
379308.0 439413.0 0
382309.0 438137.0 0
383561.0 441257.0 0
386476.0 437602.0 0
390625.0 437728.0 0
387327.0 441826.0 0
391066.0 441167.0 0
394635.0 440686.0 0
397583.0 437736.0 0
399635.0 439974.0 0
397374.0 440790.0 0
402215.0 442550.0 0
92057.3 444691.0 0
89711.4 447290.0 0
96133.5 443619.0 0
94314.4 446357.0 0
98269.5 446654.0 0
99773.6 442888.0 0
101295.0 445654.0 0
104646.0 444823.0 0
108432.0 444513.0 0
111508.0 444464.0 0
115673.0 444343.0 0
119737.0 443973.0 0
123426.0 445584.0 0
128021.0 445242.0 0
133748.0 442848.0 0
131442.0 445707.0 0
137269.0 444303.0 0
140287.0 445635.0 0
144396.0 443096.0 0
148832.0 445546.0 0
153296.0 443823.0 0
157099.0 444535.0 0
161307.0 445693.0 0
165818.0 444643.0 0
173741.0 442457.0 0
169811.0 444417.0 0
177600.0 444238.0 0
181588.0 443070.0 0
185529.0 441507.0 0
190451.0 441567.0 0
194675.0 444307.0 0
197739.0 443227.0 0
201346.0 444408.0 0
204813.0 441268.0 0
208398.0 441818.0 0
205988.0 446031.0 0
210193.0 445303.0 0
213192.0 442087.0 0
214979.0 445445.0 0
218507.0 442755.0 0
224495.0 441208.0 0
221427.0 445674.0 0
229596.0 441544.0 0
228351.0 445768.0 0
232725.0 444359.0 0
237455.0 442761.0 0
242616.0 443826.0 0
246417.0 444581.0 0
250956.0 442821.0 0
255830.0 444007.0 0
260415.0 444412.0 0
264207.0 444707.0 0
267570.0 442919.0 0
272411.0 444555.0 0
276865.0 444472.0 0
279646.0 441754.0 0
283614.0 443768.0 0
288636.0 442559.0 0
294308.0 441530.0 0
292790.0 445527.0 0
298409.0 442112.0 0
301663.0 444760.0 0
309431.0 441897.0 0
305465.0 443030.0 0
308437.0 445464.0 0
311530.0 445394.0 0
315637.0 444606.0 0
319376.0 445338.0 0
322245.0 443862.0 0
326671.0 445479.0 0
330521.0 443258.0 0
334806.0 443832.0 0
339202.0 443247.0 0
343787.0 443439.0 0
341913.0 446498.0 0
348791.0 446332.0 0
351492.0 442681.0 0
354109.0 445542.0 0
358101.0 443676.0 0
362339.0 446178.0 0
367010.0 444823.0 0
371146.0 445117.0 0
374815.0 445704.0 0
376176.0 442538.0 0
380071.0 443155.0 0
378460.0 446403.0 0
384085.0 445439.0 0
388644.0 445488.0 0
394878.0 443879.0 0
391626.0 444364.0 0
398609.0 444350.0 0
397718.0 447275.0 0
405606.0 443982.0 0
402469.0 446712.0 0
408564.0 445795.0 0
411415.0 447365.0 0
80618.4 452171.0 0
83617.6 450414.0 0
86075.8 448618.0 0
88520.9 451179.0 0
92826.3 448953.0 0
92157.3 452730.0 0
96417.8 449342.0 0
96370.0 452669.0 0
99950.4 449525.0 0
102466.0 448346.0 0
105552.0 448095.0 0
108775.0 448374.0 0
104167.0 451025.0 0
107186.0 452331.0 0
113361.0 447944.0 0
110861.0 451869.0 0
118082.0 447562.0 0
114715.0 451830.0 0
117823.0 450851.0 0
121610.0 449186.0 0
120181.0 451978.0 0
125990.0 449490.0 0
130003.0 449373.0 0
134768.0 448081.0 0
136165.0 451917.0 0
143959.0 447484.0 0
139375.0 449483.0 0
142895.0 451687.0 0
146716.0 449685.0 0
153366.0 447755.0 0
149968.0 450166.0 0
153633.0 451578.0 0
157336.0 448813.0 0
160537.0 450596.0 0
164042.0 449040.0 0
166736.0 451616.0 0
168217.0 448016.0 0
171909.0 446809.0 0
171223.0 451436.0 0
175386.0 448168.0 0
178542.0 451038.0 0
180408.0 447397.0 0
182343.0 450975.0 0
185902.0 446809.0 0
185399.0 451201.0 0
189074.0 451613.0 0
191567.0 447342.0 0
193117.0 450997.0 0
197067.0 448230.0 0
202246.0 448873.0 0
208870.0 448885.0 0
212811.0 448462.0 0
217665.0 448280.0 0
221337.0 448828.0 0
224509.0 447051.0 0
223330.0 450688.0 0
227324.0 450967.0 0
231503.0 448938.0 0
235680.0 448030.0 0
239955.0 447149.0 0
241470.0 450030.0 0
244265.0 448369.0 0
248916.0 448021.0 0
253135.0 447164.0 0
257658.0 449214.0 0
263011.0 448954.0 0
267703.0 447708.0 0
271921.0 450256.0 0
276766.0 449467.0 0
280626.0 446291.0 0
281937.0 450219.0 0
285764.0 447901.0 0
289054.0 451233.0 0
289948.0 447616.0 0
293109.0 450229.0 0
297185.0 446667.0 0
301949.0 449793.0 0
305685.0 447587.0 0
309629.0 449033.0 0
313936.0 449021.0 0
318426.0 448969.0 0
322243.0 447223.0 0
322208.0 450555.0 0
325359.0 449628.0 0
328737.0 450939.0 0
331304.0 447286.0 0
338494.0 447070.0 0
335425.0 448391.0 0
338176.0 451150.0 0
345018.0 448463.0 0
341638.0 450180.0 0
348119.0 451841.0 0
352267.0 449984.0 0
358730.0 447486.0 0
355750.0 449468.0 0
358926.0 451323.0 0
365894.0 448438.0 0
362725.0 450696.0 0
367370.0 451987.0 0
370057.0 448761.0 0
374016.0 449276.0 0
377705.0 449850.0 0
381991.0 449006.0 0
387182.0 449558.0 0
390808.0 448674.0 0
393946.0 447650.0 0
391506.0 451446.0 0
395131.0 452131.0 0
400572.0 448403.0 0
397921.0 450052.0 0
400301.0 450915.0 0
405748.0 448898.0 0
402819.0 451065.0 0
406010.0 453094.0 0
409585.0 450278.0 0
414160.0 450153.0 0
417798.0 452573.0 0
77920.7 453326.0 0
75338.6 455439.0 0
78169.4 456370.0 0
81961.7 455209.0 0
84645.1 452662.0 0
86941.5 454813.0 0
90128.1 456152.0 0
93673.7 455964.0 0
96397.7 455875.0 0
100745.0 452933.0 0
100356.0 457184.0 0
104665.0 455140.0 0
107552.0 457125.0 0
109139.0 455072.0 0
112843.0 455682.0 0
117276.0 454414.0 0
116334.0 456892.0 0
123703.0 452739.0 0
120738.0 455918.0 0
127574.0 453222.0 0
124939.0 456630.0 0
128880.0 457282.0 0
131659.0 453051.0 0
134907.0 455111.0 0
138990.0 453771.0 0
142423.0 456585.0 0
146691.0 453474.0 0
150580.0 453989.0 0
154029.0 454914.0 0
156894.0 453048.0 0
159881.0 454179.0 0
162068.0 456956.0 0
163248.0 452911.0 0
166987.0 455793.0 0
171285.0 455564.0 0
175286.0 453675.0 0
180037.0 454594.0 0
184549.0 454608.0 0
188883.0 455973.0 0
192160.0 453781.0 0
195721.0 453219.0 0
200078.0 452357.0 0
203024.0 455962.0 0
205615.0 451491.0 0
207716.0 456273.0 0
210330.0 452465.0 0
214960.0 452692.0 0
219753.0 452862.0 0
223969.0 453884.0 0
229634.0 455645.0 0
230559.0 452094.0 0
234108.0 453162.0 0
238574.0 451320.0 0
242291.0 452988.0 0
246783.0 452614.0 0
252341.0 452190.0 0
257038.0 454682.0 0
261540.0 453475.0 0
266897.0 453085.0 0
271989.0 454848.0 0
280067.0 453428.0 0
276424.0 455566.0 0
283067.0 455272.0 0
285385.0 452930.0 0
289097.0 454988.0 0
293066.0 454802.0 0
297862.0 452740.0 0
302539.0 453767.0 0
306391.0 452522.0 0
308537.0 455950.0 0
311373.0 453272.0 0
314687.0 456413.0 0
316328.0 452862.0 0
320634.0 453411.0 0
323181.0 456747.0 0
325354.0 453756.0 0
329971.0 455666.0 0
333622.0 452250.0 0
337309.0 454700.0 0
341436.0 454386.0 0
344466.0 452148.0 0
345673.0 455533.0 0
348859.0 456151.0 0
352259.0 454386.0 0
355925.0 452874.0 0
356539.0 456933.0 0
360529.0 455024.0 0
364606.0 454551.0 0
368647.0 456310.0 0
371772.0 453354.0 0
374761.0 456179.0 0
376112.0 453229.0 0
378055.0 457375.0 0
380851.0 454132.0 0
384952.0 452541.0 0
389306.0 453645.0 0
386181.0 456331.0 0
392996.0 455605.0 0
396255.0 456629.0 0
399121.0 454550.0 0
402781.0 453880.0 0
404661.0 456704.0 0
409315.0 453813.0 0
408159.0 457179.0 0
412546.0 453672.0 0
415175.0 455471.0 0
411941.0 457393.0 0
419689.0 456175.0 0
422042.0 453957.0 0
424896.0 456608.0 0
67207.0 461761.0 0
70327.9 459625.0 0
72524.0 462118.0 0
73108.5 457441.0 0
75483.8 460424.0 0
79094.8 459977.0 0
83188.9 458593.0 0
86457.2 457805.0 0
84726.1 462071.0 0
92785.2 458367.0 0
89019.8 460250.0 0
93074.8 461844.0 0
96156.5 459595.0 0
97993.4 462643.0 0
101821.0 461041.0 0
104733.0 458697.0 0
106750.0 460744.0 0
110772.0 459996.0 0
114532.0 461857.0 0
115141.0 459050.0 0
118103.0 458251.0 0
117804.0 461263.0 0
121746.0 460151.0 0
125391.0 460245.0 0
128456.0 462213.0 0
132752.0 458863.0 0
132937.0 462533.0 0
137569.0 457944.0 0
135562.0 461108.0 0
139433.0 461654.0 0
143830.0 460547.0 0
147099.0 457574.0 0
147443.0 461979.0 0
151534.0 457949.0 0
152416.0 461855.0 0
156668.0 457696.0 0
160191.0 460201.0 0
165016.0 461157.0 0
169872.0 459707.0 0
173585.0 457423.0 0
174188.0 461195.0 0
177249.0 457822.0 0
181432.0 458765.0 0
185212.0 458653.0 0
188797.0 460860.0 0
193663.0 457922.0 0
198211.0 456658.0 0
196858.0 461849.0 0
200484.0 460307.0 0
205149.0 460561.0 0
209480.0 460613.0 0
212261.0 456829.0 0
216955.0 457179.0 0
221488.0 457196.0 0
223906.0 460075.0 0
225703.0 456869.0 0
228186.0 460554.0 0
233134.0 458145.0 0
238263.0 456381.0 0
236149.0 461325.0 0
244120.0 458128.0 0
239952.0 460376.0 0
249629.0 456782.0 0
248638.0 460993.0 0
253756.0 457192.0 0
252412.0 461058.0 0
259853.0 457799.0 0
256595.0 460309.0 0
264212.0 457804.0 0
268984.0 458632.0 0
273726.0 459366.0 0
277707.0 459641.0 0
280751.0 457611.0 0
285703.0 458186.0 0
291208.0 459514.0 0
296444.0 458173.0 0
300631.0 456777.0 0
304765.0 457371.0 0
308373.0 459236.0 0
311526.0 458011.0 0
315335.0 460924.0 0
319001.0 457913.0 0
322656.0 460089.0 0
326844.0 459045.0 0
334273.0 457152.0 0
331568.0 460139.0 0
335718.0 460890.0 0
338756.0 458093.0 0
343271.0 458716.0 0
347720.0 460057.0 0
352201.0 459055.0 0
355582.0 460208.0 0
358381.0 460956.0 0
360835.0 458834.0 0
364698.0 458819.0 0
368749.0 460834.0 0
372445.0 458694.0 0
375704.0 459213.0 0
375924.0 462030.0 0
379269.0 460765.0 0
382728.0 458779.0 0
382169.0 462307.0 0
384715.0 461924.0 0
390435.0 458140.0 0
387285.0 460230.0 0
392096.0 461485.0 0
394794.0 459202.0 0
397828.0 458070.0 0
398328.0 460576.0 0
401145.0 458051.0 0
403308.0 460219.0 0
405401.0 459895.0 0
401557.0 462182.0 0
410289.0 459837.0 0
407813.0 460472.0 0
414484.0 459825.0 0
411987.0 462285.0 0
416747.0 462657.0 0
417376.0 458149.0 0
419645.0 460669.0 0
422204.0 458649.0 0
421970.0 462983.0 0
424680.0 461377.0 0
428321.0 459057.0 0
428084.0 462670.0 0
432138.0 461211.0 0
57263.5 467739.0 0
60144.3 464820.0 0
61373.8 467490.0 0
63646.1 463590.0 0
65220.5 466937.0 0
69103.2 464988.0 0
73068.4 465303.0 0
76724.2 464700.0 0
80568.5 463434.0 0
82009.8 466390.0 0
86443.4 465228.0 0
90061.3 464410.0 0
92781.7 466979.0 0
94738.9 464015.0 0
96942.7 466688.0 0
101360.0 464944.0 0
104897.0 462824.0 0
104981.0 466020.0 0
108938.0 464692.0 0
113202.0 464638.0 0
115386.0 467311.0 0
116673.0 464330.0 0
120023.0 463551.0 0
119321.0 467042.0 0
123661.0 464251.0 0
126509.0 466177.0 0
130906.0 466316.0 0
135746.0 464041.0 0
139147.0 465435.0 0
142919.0 464224.0 0
145407.0 466075.0 0
149251.0 466003.0 0
153271.0 465908.0 0
156843.0 462848.0 0
159306.0 465795.0 0
160980.0 463237.0 0
163102.0 466225.0 0
167382.0 465090.0 0
170878.0 463821.0 0
178123.0 461852.0 0
175379.0 466236.0 0
181243.0 462199.0 0
180349.0 465799.0 0
184524.0 462933.0 0
188487.0 465455.0 0
192805.0 463414.0 0
199211.0 464085.0 0
202090.0 463595.0 0
206003.0 465784.0 0
210811.0 464918.0 0
213978.0 461321.0 0
219355.0 462384.0 0
215203.0 466123.0 0
224235.0 463729.0 0
227778.0 465702.0 0
231931.0 463150.0 0
240291.0 464336.0 0
245397.0 464047.0 0
250193.0 464803.0 0
255165.0 465490.0 0
261854.0 463765.0 0
267280.0 462722.0 0
271076.0 462855.0 0
275891.0 463706.0 0
281817.0 462429.0 0
287316.0 463442.0 0
291573.0 464351.0 0
295728.0 462853.0 0
300863.0 461624.0 0
303445.0 466320.0 0
305868.0 462389.0 0
307741.0 466709.0 0
310929.0 463188.0 0
315755.0 465777.0 0
320192.0 463647.0 0
324443.0 462894.0 0
328874.0 464120.0 0
333321.0 464028.0 0
337020.0 464290.0 0
339474.0 466671.0 0
340418.0 462444.0 0
344631.0 462479.0 0
343525.0 465786.0 0
348075.0 465186.0 0
351126.0 462934.0 0
352325.0 466451.0 0
354933.0 463282.0 0
359732.0 464511.0 0
362494.0 462272.0 0
363452.0 466098.0 0
366050.0 463733.0 0
366940.0 467467.0 0
369974.0 464907.0 0
372476.0 462609.0 0
375243.0 466030.0 0
379607.0 464976.0 0
383926.0 464884.0 0
388781.0 464362.0 0
395592.0 462630.0 0
393753.0 466362.0 0
398852.0 464989.0 0
404923.0 463018.0 0
403036.0 465401.0 0
408719.0 464269.0 0
414387.0 465063.0 0
411551.0 467281.0 0
419070.0 464533.0 0
416751.0 467499.0 0
420584.0 467250.0 0
423517.0 465886.0 0
426351.0 464472.0 0
430202.0 464061.0 0
427928.0 467463.0 0
430019.0 466193.0 0
433799.0 464968.0 0
433048.0 468078.0 0
436546.0 467227.0 0
436143.0 462946.0 0
442369.0 465829.0 0
438902.0 465154.0 0
444353.0 468018.0 0
50632.6 471522.0 0
53215.7 468367.0 0
54395.3 471041.0 0
59023.2 470632.0 0
61707.0 470532.0 0
64442.6 469808.0 0
66324.5 472156.0 0
69345.4 469055.0 0
72870.0 471799.0 0
73128.4 468404.0 0
75817.5 468924.0 0
78881.8 467937.0 0
81176.2 470422.0 0
85231.7 468856.0 0
84372.6 472311.0 0
87670.1 471617.0 0
89079.7 468262.0 0
91024.5 470882.0 0
94941.0 470396.0 0
99706.2 467610.0 0
102959.0 469184.0 0
98846.4 470640.0 0
107407.0 468765.0 0
105108.0 472283.0 0
111861.0 468309.0 0
109853.0 471351.0 0
115362.0 471086.0 0
123215.0 468354.0 0
119761.0 470577.0 0
126670.0 469633.0 0
130862.0 471034.0 0
135756.0 468390.0 0
134059.0 472609.0 0
141551.0 469031.0 0
146718.0 469600.0 0
151491.0 470316.0 0
156319.0 467978.0 0
158758.0 470949.0 0
160129.0 468209.0 0
162195.0 470919.0 0
166149.0 469686.0 0
170577.0 468025.0 0
173651.0 470885.0 0
177252.0 470904.0 0
180942.0 469949.0 0
184772.0 467603.0 0
188749.0 469728.0 0
191657.0 467297.0 0
193093.0 470845.0 0
196274.0 466869.0 0
200860.0 467322.0 0
203938.0 470800.0 0
208491.0 470220.0 0
212068.0 469102.0 0
215301.0 470442.0 0
219311.0 468365.0 0
223730.0 467849.0 0
227365.0 471266.0 0
231236.0 467651.0 0
232669.0 471492.0 0
235497.0 466636.0 0
239057.0 468779.0 0
236532.0 471084.0 0
243046.0 468646.0 0
247690.0 468460.0 0
251627.0 468496.0 0
254902.0 471210.0 0
258717.0 468696.0 0
263229.0 470413.0 0
267685.0 467150.0 0
272180.0 466630.0 0
271275.0 470781.0 0
279615.0 467075.0 0
275688.0 469182.0 0
284693.0 468512.0 0
290264.0 468795.0 0
294330.0 466993.0 0
300161.0 471252.0 0
298811.0 466915.0 0
304418.0 470819.0 0
308612.0 470165.0 0
312050.0 468195.0 0
316455.0 470041.0 0
319295.0 467739.0 0
320821.0 470844.0 0
324678.0 467639.0 0
329229.0 471850.0 0
331426.0 467982.0 0
334437.0 471966.0 0
335638.0 467604.0 0
338745.0 470645.0 0
341902.0 469040.0 0
345887.0 469503.0 0
349990.0 469938.0 0
354340.0 469877.0 0
356649.0 467107.0 0
358305.0 471081.0 0
360551.0 467900.0 0
362257.0 470891.0 0
364828.0 468771.0 0
363178.0 468173.0 0
366340.0 472579.0 0
368555.0 469735.0 0
371428.0 468292.0 0
371164.0 472257.0 0
375961.0 471079.0 0
378998.0 468665.0 0
382384.0 468436.0 0
386016.0 471814.0 0
386495.0 467799.0 0
390685.0 469696.0 0
394627.0 471950.0 0
397281.0 469177.0 0
399619.0 472625.0 0
401470.0 468470.0 0
406189.0 467721.0 0
404385.0 471883.0 0
409583.0 470537.0 0
414261.0 470637.0 0
418817.0 470447.0 0
422111.0 470581.0 0
425167.0 469225.0 0
426997.0 472333.0 0
430129.0 470331.0 0
435294.0 470622.0 0
437812.0 469714.0 0
440345.0 468183.0 0
442451.0 470360.0 0
447142.0 469831.0 0
444615.0 472152.0 0
450351.0 471472.0 0
40640.4 478061.0 0
43364.1 475301.0 0
47135.8 473633.0 0
46661.1 477348.0 0
50808.2 474969.0 0
50463.5 477964.0 0
53607.2 475121.0 0
57640.8 473782.0 0
62000.0 473691.0 0
59844.5 477166.0 0
64637.0 474956.0 0
63668.8 478113.0 0
69718.3 473348.0 0
68278.9 477111.0 0
77483.2 473027.0 0
72828.2 475713.0 0
81802.7 473983.0 0
79721.5 476627.0 0
82891.0 477243.0 0
85727.1 474903.0 0
88786.2 474015.0 0
92458.9 474980.0 0
96855.9 474491.0 0
101232.0 473611.0 0
99286.0 477296.0 0
103282.0 476598.0 0
107484.0 474626.0 0
112203.0 473758.0 0
110161.0 477181.0 0
118558.0 473890.0 0
115360.0 476604.0 0
122937.0 472903.0 0
120153.0 477093.0 0
124451.0 477153.0 0
127440.0 473794.0 0
131416.0 475048.0 0
137577.0 472702.0 0
134748.0 475564.0 0
137786.0 476788.0 0
140976.0 473998.0 0
144024.0 474891.0 0
144362.0 472212.0 0
147810.0 473544.0 0
149418.0 477111.0 0
152089.0 474767.0 0
155463.0 472415.0 0
155649.0 476006.0 0
159656.0 474672.0 0
164178.0 474946.0 0
169545.0 473702.0 0
174963.0 475581.0 0
179888.0 474174.0 0
184770.0 472861.0 0
189449.0 474299.0 0
193747.0 474810.0 0
198349.0 472420.0 0
202897.0 474778.0 0
207237.0 474751.0 0
211655.0 472862.0 0
210688.0 476176.0 0
217846.0 472834.0 0
222246.0 472234.0 0
224796.0 475848.0 0
230171.0 475757.0 0
235433.0 475957.0 0
240318.0 473141.0 0
245264.0 472707.0 0
250020.0 472857.0 0
258868.0 472440.0 0
258081.0 476209.0 0
261451.0 474879.0 0
267553.0 471720.0 0
265347.0 475462.0 0
269900.0 475321.0 0
275545.0 474632.0 0
280170.0 471809.0 0
280330.0 476128.0 0
284064.0 474274.0 0
287521.0 472604.0 0
291149.0 473665.0 0
295356.0 471372.0 0
298087.0 474438.0 0
300785.0 474203.0 0
303858.0 475601.0 0
307808.0 473954.0 0
307216.0 477596.0 0
312492.0 473221.0 0
317946.0 475612.0 0
324780.0 472071.0 0
322804.0 474862.0 0
326674.0 475618.0 0
330050.0 476437.0 0
333980.0 476532.0 0
338967.0 475508.0 0
342860.0 472629.0 0
344509.0 476365.0 0
347024.0 473396.0 0
353024.0 472260.0 0
350683.0 474535.0 0
355870.0 474352.0 0
361234.0 475408.0 0
365743.0 477602.0 0
369819.0 476215.0 0
374205.0 475469.0 0
381149.0 472598.0 0
378281.0 475120.0 0
381120.0 476849.0 0
385287.0 476629.0 0
390274.0 474127.0 0
394308.0 475845.0 0
397292.0 474893.0 0
399635.0 475646.0 0
403521.0 476931.0 0
408670.0 474538.0 0
412962.0 474070.0 0
412181.0 477808.0 0
415205.0 476921.0 0
417979.0 474171.0 0
421510.0 477488.0 0
422673.0 473895.0 0
425501.0 476115.0 0
432523.0 473126.0 0
429494.0 475617.0 0
436437.0 473420.0 0
433821.0 476283.0 0
436987.0 476701.0 0
439834.0 472580.0 0
440115.0 476053.0 0
443047.0 474329.0 0
442776.0 477525.0 0
446183.0 476564.0 0
447569.0 473531.0 0
450278.0 474896.0 0
450193.0 478384.0 0
453211.0 473688.0 0
456932.0 475981.0 0
453686.0 476745.0 0
460692.0 477857.0 0
34057.1 481277.0 0
36970.0 479284.0 0
38094.0 482660.0 0
41815.7 482751.0 0
43804.7 479522.0 0
45850.8 481655.0 0
48000.1 480517.0 0
48200.3 483540.0 0
51095.4 481437.0 0
55251.8 478492.0 0
54602.6 482706.0 0
60067.0 482416.0 0
65387.8 481624.0 0
72304.7 479372.0 0
69261.2 481670.0 0
76080.0 477964.0 0
74265.9 482216.0 0
79405.2 480470.0 0
88200.6 478092.0 0
84529.9 480663.0 0
92320.0 479639.0 0
89428.8 482813.0 0
95534.7 478497.0 0
94266.2 482959.0 0
97479.8 480294.0 0
101146.0 479956.0 0
106067.0 477911.0 0
104107.0 479737.0 0
106955.0 480677.0 0
111839.0 481130.0 0
117326.0 480690.0 0
122163.0 481005.0 0
128672.0 477653.0 0
126004.0 480261.0 0
129412.0 481430.0 0
132984.0 478770.0 0
136509.0 480044.0 0
141370.0 478256.0 0
145599.0 477730.0 0
144271.0 481843.0 0
148137.0 480648.0 0
153060.0 480379.0 0
158483.0 478796.0 0
163355.0 480462.0 0
167322.0 478038.0 0
168685.0 481710.0 0
170926.0 478352.0 0
174009.0 481515.0 0
178818.0 478907.0 0
183110.0 477340.0 0
182788.0 481902.0 0
187173.0 479243.0 0
191440.0 477938.0 0
196085.0 478948.0 0
200304.0 477083.0 0
204110.0 479321.0 0
209643.0 480679.0 0
214806.0 476761.0 0
220270.0 476588.0 0
223227.0 480282.0 0
227371.0 478884.0 0
231846.0 480901.0 0
239663.0 478565.0 0
236391.0 480740.0 0
243451.0 476679.0 0
248240.0 478528.0 0
253687.0 476635.0 0
256843.0 480294.0 0
261756.0 479617.0 0
267596.0 481007.0 0
272703.0 479026.0 0
277899.0 480957.0 0
283562.0 479245.0 0
288871.0 478128.0 0
294582.0 477312.0 0
299915.0 478160.0 0
296963.0 481396.0 0
304489.0 480565.0 0
309457.0 480692.0 0
310176.0 476875.0 0
313209.0 478439.0 0
316834.0 481313.0 0
321044.0 480133.0 0
324120.0 478225.0 0
327756.0 479333.0 0
331872.0 480619.0 0
337372.0 481336.0 0
341552.0 479260.0 0
345169.0 480509.0 0
348905.0 478599.0 0
353416.0 477885.0 0
355167.0 480260.0 0
357585.0 478415.0 0
361782.0 481128.0 0
366388.0 481956.0 0
369740.0 480055.0 0
372905.0 478914.0 0
373027.0 482490.0 0
377593.0 479640.0 0
382317.0 480630.0 0
386476.0 481844.0 0
390398.0 478887.0 0
395136.0 479596.0 0
393152.0 482292.0 0
398492.0 478036.0 0
401679.0 480792.0 0
405698.0 482089.0 0
408285.0 479334.0 0
412248.0 480999.0 0
415076.0 479980.0 0
418194.0 478562.0 0
421019.0 480962.0 0
417931.0 481915.0 0
424868.0 479676.0 0
428836.0 479295.0 0
431880.0 481826.0 0
432316.0 478397.0 0
435751.0 480577.0 0
439645.0 479307.0 0
443015.0 480584.0 0
446384.0 480285.0 0
447221.0 483385.0 0
450731.0 482245.0 0
453631.0 481295.0 0
454362.0 479323.0 0
455621.0 482693.0 0
458007.0 479824.0 0
461710.0 482334.0 0
463468.0 479844.0 0
466440.0 481505.0 0
469253.0 483281.0 0
23926.6 487859.0 0
27263.9 485792.0 0
31023.2 483809.0 0
30360.2 487762.0 0
34747.5 485443.0 0
37037.1 489486.0 0
38665.8 486387.0 0
41606.8 487018.0 0
44971.8 485032.0 0
51305.2 485799.0 0
47923.1 487064.0 0
55563.9 486908.0 0
61838.1 487439.0 0
65494.1 484706.0 0
66581.6 488189.0 0
69873.5 485397.0 0
77529.4 484085.0 0
74293.9 486850.0 0
81250.6 484078.0 0
78937.8 487367.0 0
85239.4 484337.0 0
87409.6 487236.0 0
91820.0 486876.0 0
98628.6 483908.0 0
103197.0 482876.0 0
106909.0 484633.0 0
111567.0 486246.0 0
115010.0 483375.0 0
116972.0 485826.0 0
119421.0 483409.0 0
121884.0 485986.0 0
125576.0 483755.0 0
125791.0 487982.0 0
133474.0 483305.0 0
129337.0 485864.0 0
132967.0 487552.0 0
136768.0 483153.0 0
140037.0 482368.0 0
142763.0 486030.0 0
148277.0 485212.0 0
153608.0 485739.0 0
157930.0 483461.0 0
161750.0 485475.0 0
165993.0 485028.0 0
170999.0 485436.0 0
178526.0 483439.0 0
181284.0 486772.0 0
186821.0 485322.0 0
191308.0 482148.0 0
191680.0 486299.0 0
195514.0 484475.0 0
200064.0 482497.0 0
204628.0 485095.0 0
209369.0 485979.0 0
213463.0 484558.0 0
217934.0 481677.0 0
222081.0 485750.0 0
227092.0 483467.0 0
231018.0 486102.0 0
239124.0 482525.0 0
235678.0 485161.0 0
243220.0 481651.0 0
240778.0 486527.0 0
247663.0 484661.0 0
252509.0 482011.0 0
256726.0 484938.0 0
261607.0 484878.0 0
270069.0 486127.0 0
265730.0 486316.0 0
272666.0 482898.0 0
275283.0 485332.0 0
282321.0 483824.0 0
286927.0 483686.0 0
292612.0 483181.0 0
297252.0 485075.0 0
300561.0 482734.0 0
303997.0 485317.0 0
300448.0 486188.0 0
306957.0 483639.0 0
310209.0 485462.0 0
313049.0 482412.0 0
315623.0 486852.0 0
320697.0 484770.0 0
324818.0 482226.0 0
324593.0 486549.0 0
329124.0 485099.0 0
334189.0 485263.0 0
338389.0 486745.0 0
342554.0 484394.0 0
347941.0 483709.0 0
352401.0 482507.0 0
351038.0 487005.0 0
355642.0 486805.0 0
357153.0 482654.0 0
360173.0 485992.0 0
364882.0 486786.0 0
369765.0 484380.0 0
369044.0 487558.0 0
373160.0 487447.0 0
376561.0 484359.0 0
380604.0 484206.0 0
383811.0 484180.0 0
390081.0 483643.0 0
386874.0 485861.0 0
390375.0 487338.0 0
393817.0 485610.0 0
397980.0 483131.0 0
396881.0 487181.0 0
400657.0 486935.0 0
402979.0 484297.0 0
404613.0 487302.0 0
409978.0 483252.0 0
407364.0 485752.0 0
411493.0 487489.0 0
414544.0 483956.0 0
419658.0 485191.0 0
423566.0 483834.0 0
423826.0 487511.0 0
426958.0 486736.0 0
427826.0 483059.0 0
431713.0 486258.0 0
435792.0 484727.0 0
439760.0 483327.0 0
438858.0 487252.0 0
442386.0 486686.0 0
444070.0 483875.0 0
446016.0 486938.0 0
449783.0 486516.0 0
453992.0 485636.0 0
457993.0 488176.0 0
458603.0 484193.0 0
462056.0 486360.0 0
464986.0 484107.0 0
467713.0 486317.0 0
464653.0 488623.0 0
472181.0 485366.0 0
471229.0 488693.0 0
475638.0 488238.0 0
17336.7 491577.0 0
20886.4 490009.0 0
27014.7 489751.0 0
21456.3 493425.0 0
24407.7 491475.0 0
27586.5 492867.0 0
30401.4 491203.0 0
33422.2 489215.0 0
30408.2 493944.0 0
33779.1 492970.0 0
40668.9 491008.0 0
45219.6 489351.0 0
43713.9 493174.0 0
46991.7 491974.0 0
50161.7 489982.0 0
54011.9 491135.0 0
58073.7 490108.0 0
57162.7 493260.0 0
60288.9 491540.0 0
63881.4 491609.0 0
70503.2 489540.0 0
67741.7 492047.0 0
73395.3 490705.0 0
71436.4 493059.0 0
76895.3 490311.0 0
82692.0 487970.0 0
80498.4 492004.0 0
84995.9 491286.0 0
89011.8 490530.0 0
95983.1 487792.0 0
97291.9 491323.0 0
101962.0 488373.0 0
103140.0 493239.0 0
107104.0 488585.0 0
106620.0 491871.0 0
109845.0 490386.0 0
114191.0 490183.0 0
118872.0 489804.0 0
122670.0 489819.0 0
125578.0 492806.0 0
129574.0 490075.0 0
137586.0 487255.0 0
133744.0 491445.0 0
141724.0 489742.0 0
145393.0 489390.0 0
146814.0 492226.0 0
151117.0 490714.0 0
157537.0 488995.0 0
163423.0 490020.0 0
168028.0 488297.0 0
171663.0 489883.0 0
175037.0 491631.0 0
175740.0 487101.0 0
179022.0 491078.0 0
184451.0 491094.0 0
189810.0 489916.0 0
194633.0 489213.0 0
199365.0 487287.0 0
202734.0 489712.0 0
207384.0 490377.0 0
212163.0 488996.0 0
217083.0 487579.0 0
220630.0 491399.0 0
226768.0 488934.0 0
233705.0 489748.0 0
237471.0 489328.0 0
244818.0 488967.0 0
248892.0 489493.0 0
252368.0 486907.0 0
259257.0 487780.0 0
256062.0 490247.0 0
262474.0 490158.0 0
267952.0 490837.0 0
273874.0 489998.0 0
279425.0 487221.0 0
278641.0 491598.0 0
284615.0 488424.0 0
289896.0 488436.0 0
294715.0 488458.0 0
298503.0 488468.0 0
302050.0 489169.0 0
306780.0 489222.0 0
311344.0 489820.0 0
317986.0 490895.0 0
321967.0 490131.0 0
326988.0 490040.0 0
331319.0 489347.0 0
335246.0 489487.0 0
338655.0 492366.0 0
342139.0 489422.0 0
346563.0 487711.0 0
346258.0 492085.0 0
349876.0 490356.0 0
354056.0 490815.0 0
359554.0 490840.0 0
364853.0 491936.0 0
370006.0 490949.0 0
374938.0 492640.0 0
378008.0 488364.0 0
379993.0 492293.0 0
383207.0 488252.0 0
387556.0 489865.0 0
390874.0 490830.0 0
394093.0 489727.0 0
398617.0 490055.0 0
403447.0 490756.0 0
407853.0 490228.0 0
411136.0 490847.0 0
416289.0 488262.0 0
413837.0 491504.0 0
421190.0 488946.0 0
425581.0 489850.0 0
423666.0 491702.0 0
429081.0 490221.0 0
435836.0 488849.0 0
432967.0 490571.0 0
435920.0 492591.0 0
441558.0 489545.0 0
438874.0 490966.0 0
442439.0 492537.0 0
444806.0 489864.0 0
449069.0 490454.0 0
453470.0 490229.0 0
457114.0 492491.0 0
461162.0 490639.0 0
464865.0 492104.0 0
468412.0 491051.0 0
473209.0 491648.0 0
470928.0 493769.0 0
477093.0 492829.0 0
479733.0 490410.0 0
481440.0 493818.0 0
483260.0 491696.0 0
10743.8 495252.0 0
7784.1 497532.0 0
14281.1 494150.0 0
11161.2 498219.0 0
15103.1 497340.0 0
18237.8 495024.0 0
18648.4 498891.0 0
25154.4 494750.0 0
22187.8 497217.0 0
28562.3 496115.0 0
26268.6 498279.0 0
30320.3 498939.0 0
31699.8 496304.0 0
35142.4 497434.0 0
37301.7 493599.0 0
40218.0 496115.0 0
45661.9 496105.0 0
48695.9 493839.0 0
51269.7 493484.0 0
50116.6 497102.0 0
54042.1 495222.0 0
60631.6 494876.0 0
57629.2 496981.0 0
64465.3 495521.0 0
68007.7 495546.0 0
71587.0 496268.0 0
75528.0 493923.0 0
79311.8 495968.0 0
87627.6 494158.0 0
83552.1 495018.0 0
86271.9 497652.0 0
92763.7 492457.0 0
89985.8 497049.0 0
93496.8 497307.0 0
96716.2 495539.0 0
99699.6 493182.0 0
100805.0 497047.0 0
105925.0 496435.0 0
110928.0 494683.0 0
116381.0 494193.0 0
120759.0 493446.0 0
118870.0 497450.0 0
123024.0 496888.0 0
130011.0 495067.0 0
138481.0 492295.0 0
135232.0 496381.0 0
139990.0 496645.0 0
143281.0 493667.0 0
147550.0 495610.0 0
152509.0 496751.0 0
155492.0 493199.0 0
159593.0 494662.0 0
164322.0 495038.0 0
168024.0 492621.0 0
171842.0 494186.0 0
175935.0 495439.0 0
180907.0 496303.0 0
185582.0 495674.0 0
188215.0 493782.0 0
192843.0 494439.0 0
198706.0 492850.0 0
203657.0 493458.0 0
207528.0 496665.0 0
211159.0 492990.0 0
215322.0 492080.0 0
218037.0 495920.0 0
224979.0 493732.0 0
230126.0 493393.0 0
234302.0 496666.0 0
236596.0 492565.0 0
238733.0 495688.0 0
241018.0 491920.0 0
246200.0 493817.0 0
251498.0 492979.0 0
259223.0 492816.0 0
255928.0 496447.0 0
262055.0 495548.0 0
266987.0 495764.0 0
271632.0 495026.0 0
276084.0 494551.0 0
279667.0 494671.0 0
282440.0 492464.0 0
287547.0 493409.0 0
293678.0 493552.0 0
298566.0 491947.0 0
298731.0 495981.0 0
303495.0 493744.0 0
309549.0 494336.0 0
314585.0 492543.0 0
314445.0 497003.0 0
319257.0 494786.0 0
325282.0 495330.0 0
330193.0 493060.0 0
334367.0 493701.0 0
336268.0 497121.0 0
340511.0 496668.0 0
342653.0 493502.0 0
345696.0 497114.0 0
350862.0 494878.0 0
356622.0 495263.0 0
362110.0 496545.0 0
368169.0 493780.0 0
366985.0 496354.0 0
370925.0 495343.0 0
374195.0 497778.0 0
378934.0 496738.0 0
384930.0 494144.0 0
389234.0 492996.0 0
389970.0 496439.0 0
396073.0 493459.0 0
392302.0 493577.0 0
394295.0 497347.0 0
400773.0 494131.0 0
397941.0 497058.0 0
401641.0 497956.0 0
406466.0 495661.0 0
410755.0 493703.0 0
411057.0 497486.0 0
414366.0 495738.0 0
418697.0 493121.0 0
427093.0 493398.0 0
423574.0 496154.0 0
431753.0 494374.0 0
428427.0 497689.0 0
436410.0 496554.0 0
439597.0 494244.0 0
440288.0 497686.0 0
446569.0 493599.0 0
443110.0 495888.0 0
447429.0 497413.0 0
452189.0 494813.0 0
457355.0 496047.0 0
461767.0 495035.0 0
467287.0 495795.0 0
464562.0 498554.0 0
471470.0 497850.0 0
474330.0 495488.0 0
475559.0 499594.0 0
479204.0 497447.0 0
483451.0 496908.0 0
485849.0 494549.0 0
489629.0 496766.0 0
493271.0 498785.0 0
3701.63 500043.0 0
3114.07 504007.0 0
7683.54 501033.0 0
14704.7 500331.0 0
11078.6 502233.0 0
16185.5 503234.0 0
19842.7 502153.0 0
23190.5 500500.0 0
27475.5 502357.0 0
33161.0 502133.0 0
38134.4 500411.0 0
41106.9 503330.0 0
42693.4 499558.0 0
46795.9 499593.0 0
49799.3 501115.0 0
54240.5 499302.0 0
52964.8 502990.0 0
56966.3 502758.0 0
58458.8 499842.0 0
61293.7 498454.0 0
61170.7 502210.0 0
65046.3 499271.0 0
64806.1 502753.0 0
68762.1 498461.0 0
68811.8 501972.0 0
71486.9 499490.0 0
74993.3 497965.0 0
73556.1 502275.0 0
82414.0 498609.0 0
78128.1 500248.0 0
85448.8 500811.0 0
89417.5 501159.0 0
92635.8 499765.0 0
95871.4 499282.0 0
97833.1 498470.0 0
99005.1 501093.0 0
103555.0 500410.0 0
109268.0 500601.0 0
114151.0 498233.0 0
113605.0 502060.0 0
117011.0 500913.0 0
121607.0 500995.0 0
126418.0 499468.0 0
131187.0 500067.0 0
135708.0 501108.0 0
139401.0 500247.0 0
143935.0 498936.0 0
148337.0 499496.0 0
151931.0 502380.0 0
157146.0 499285.0 0
162539.0 499435.0 0
168090.0 497813.0 0
171698.0 501573.0 0
172915.0 497810.0 0
176489.0 500464.0 0
181227.0 501867.0 0
185104.0 499469.0 0
188598.0 497424.0 0
188138.0 501349.0 0
192102.0 500072.0 0
196936.0 498300.0 0
201969.0 497624.0 0
200020.0 501863.0 0
213197.0 497202.0 0
216990.0 500999.0 0
222405.0 498404.0 0
227219.0 497250.0 0
230211.0 499921.0 0
234347.0 501742.0 0
238110.0 499614.0 0
242663.0 498154.0 0
249675.0 497166.0 0
246358.0 502132.0 0
251901.0 501365.0 0
260033.0 499849.0 0
256653.0 501861.0 0
264529.0 500404.0 0
270224.0 500215.0 0
274920.0 498381.0 0
278420.0 497271.0 0
278510.0 500682.0 0
283047.0 497856.0 0
288228.0 498409.0 0
286432.0 502281.0 0
291767.0 497734.0 0
295287.0 498440.0 0
298940.0 499810.0 0
302509.0 498737.0 0
306292.0 497587.0 0
310138.0 500105.0 0
305502.0 502062.0 0
314628.0 501298.0 0
318757.0 499846.0 0
323224.0 499794.0 0
327478.0 502061.0 0
331300.0 497937.0 0
335257.0 500755.0 0
338516.0 500161.0 0
342643.0 500816.0 0
346941.0 502062.0 0
349981.0 499550.0 0
353785.0 498831.0 0
358087.0 500461.0 0
362874.0 502003.0 0
366207.0 499650.0 0
369867.0 499153.0 0
372940.0 502030.0 0
377409.0 501428.0 0
381553.0 500849.0 0
382792.0 498163.0 0
386695.0 500164.0 0
392062.0 501114.0 0
398402.0 501799.0 0
404415.0 500825.0 0
409340.0 501015.0 0
414578.0 500572.0 0
418491.0 498165.0 0
420237.0 502606.0 0
421743.0 499399.0 0
425251.0 501143.0 0
430007.0 502198.0 0
432907.0 498748.0 0
433955.0 501207.0 0
437284.0 500526.0 0
440935.0 500556.0 0
444001.0 498877.0 0
444171.0 501967.0 0
447584.0 501168.0 0
450817.0 499165.0 0
455323.0 499252.0 0
460616.0 499651.0 0
457943.0 502789.0 0
464372.0 501259.0 0
468478.0 500898.0 0
478648.0 503020.0 0
473284.0 502245.0 0
482974.0 501197.0 0
486510.0 499434.0 0
487933.0 503325.0 0
489597.0 500223.0 0
491446.0 501616.0 0
494221.0 501579.0 0
497453.0 500038.0 0
2113.33 507457.0 0
7689.2 504761.0 0
5528.76 507862.0 0
8846.57 508093.0 0
12790.1 506275.0 0
18577.2 506057.0 0
16738.0 508725.0 0
22859.2 504828.0 0
25904.3 507400.0 0
29686.0 505582.0 0
33471.5 507303.0 0
37496.8 504812.0 0
41857.3 507126.0 0
45469.6 503542.0 0
46015.0 507961.0 0
49690.5 505361.0 0
54290.9 506226.0 0
59094.3 506469.0 0
63295.0 505948.0 0
66781.3 505161.0 0
70306.2 505652.0 0
77030.6 503644.0 0
74411.0 506357.0 0
81524.8 503398.0 0
78471.5 506524.0 0
86033.6 505037.0 0
90416.4 505452.0 0
94457.4 503024.0 0
98542.9 505441.0 0
101875.0 503807.0 0
105350.0 503567.0 0
107963.0 505273.0 0
111660.0 504906.0 0
113361.0 507594.0 0
115788.0 504943.0 0
118660.0 503246.0 0
120687.0 506186.0 0
124715.0 503720.0 0
128538.0 503998.0 0
130390.0 506997.0 0
132723.0 504285.0 0
137149.0 504999.0 0
139627.0 506687.0 0
141750.0 503955.0 0
146663.0 503321.0 0
155855.0 502852.0 0
155147.0 506759.0 0
159360.0 503420.0 0
159607.0 507105.0 0
163695.0 504209.0 0
167397.0 502700.0 0
166869.0 507144.0 0
170143.0 505308.0 0
174363.0 505140.0 0
178352.0 504833.0 0
185131.0 504027.0 0
190362.0 505656.0 0
195834.0 503414.0 0
200294.0 505874.0 0
205138.0 502540.0 0
208780.0 506811.0 0
210823.0 501984.0 0
212863.0 505653.0 0
217318.0 506584.0 0
221039.0 503199.0 0
225975.0 502865.0 0
230293.0 503939.0 0
233435.0 505926.0 0
238934.0 504893.0 0
242454.0 502183.0 0
244290.0 507189.0 0
249679.0 506686.0 0
255049.0 506026.0 0
260617.0 504954.0 0
267075.0 506231.0 0
271935.0 504618.0 0
274846.0 502563.0 0
274966.0 507135.0 0
277999.0 504468.0 0
282064.0 503527.0 0
285805.0 507270.0 0
291373.0 502360.0 0
296460.0 502965.0 0
298958.0 506292.0 0
301255.0 503140.0 0
307049.0 507222.0 0
312473.0 505077.0 0
317141.0 504452.0 0
320283.0 503471.0 0
323136.0 503485.0 0
325299.0 506292.0 0
321081.0 507016.0 0
329913.0 507359.0 0
332320.0 502993.0 0
333884.0 505962.0 0
336232.0 504219.0 0
339625.0 503454.0 0
339359.0 506884.0 0
343557.0 505565.0 0
348258.0 505890.0 0
353334.0 504086.0 0
359106.0 505506.0 0
363990.0 506401.0 0
368218.0 503643.0 0
373376.0 507405.0 0
380491.0 503737.0 0
377894.0 505526.0 0
381420.0 507055.0 0
384108.0 504002.0 0
385251.0 507727.0 0
388936.0 505583.0 0
394136.0 505744.0 0
397879.0 506444.0 0
401109.0 507271.0 0
405844.0 504137.0 0
402770.0 504262.0 0
405637.0 508034.0 0
408943.0 505193.0 0
412682.0 504827.0 0
416433.0 504663.0 0
419847.0 506780.0 0
425110.0 506406.0 0
430313.0 506456.0 0
435197.0 504525.0 0
440781.0 504965.0 0
437863.0 508318.0 0
446292.0 504928.0 0
444399.0 508117.0 0
452208.0 504155.0 0
457609.0 506985.0 0
462417.0 504636.0 0
466763.0 504304.0 0
466943.0 507650.0 0
470868.0 505736.0 0
475600.0 505769.0 0
474423.0 509217.0 0
483920.0 505787.0 0
488327.0 507653.0 0
492236.0 505144.0 0
496907.0 503711.0 0
2119.07 510292.0 0
2588.64 513657.0 0
6689.73 511301.0 0
12386.3 511351.0 0
17851.9 511746.0 0
21117.8 509031.0 0
24787.5 511109.0 0
21455.5 512627.0 0
29379.1 509512.0 0
33299.5 511827.0 0
37893.8 509552.0 0
42575.4 511593.0 0
46911.9 511419.0 0
50925.9 509442.0 0
55785.4 509791.0 0
53801.8 512553.0 0
59455.6 510586.0 0
57864.2 514071.0 0
66824.3 508455.0 0
63002.5 509975.0 0
66449.5 512503.0 0
71066.1 510421.0 0
76586.6 510307.0 0
82017.4 508808.0 0
79481.2 513163.0 0
83670.4 512963.0 0
87786.9 510114.0 0
93852.3 508634.0 0
98699.2 509370.0 0
103754.0 508072.0 0
109318.0 508951.0 0
110160.0 512380.0 0
116628.0 508609.0 0
113402.0 511321.0 0
120188.0 511285.0 0
125965.0 508867.0 0
130572.0 510195.0 0
134170.0 508135.0 0
134180.0 512640.0 0
138702.0 509150.0 0
142116.0 510916.0 0
144279.0 507742.0 0
145959.0 511439.0 0
149450.0 507752.0 0
152877.0 512248.0 0
158022.0 510546.0 0
162907.0 508496.0 0
166120.0 510901.0 0
171600.0 510180.0 0
177103.0 508860.0 0
181716.0 507553.0 0
180117.0 512106.0 0
185859.0 507950.0 0
188599.0 510459.0 0
184527.0 511728.0 0
195170.0 507986.0 0
199406.0 510704.0 0
204030.0 508040.0 0
207330.0 511772.0 0
212713.0 510192.0 0
217722.0 512081.0 0
222735.0 507185.0 0
222820.0 511931.0 0
228107.0 508197.0 0
233280.0 510710.0 0
238020.0 509978.0 0
242210.0 512175.0 0
247891.0 512108.0 0
253207.0 510895.0 0
258180.0 510077.0 0
262582.0 509748.0 0
271307.0 511110.0 0
276250.0 511531.0 0
280140.0 508341.0 0
289431.0 511623.0 0
290472.0 506961.0 0
294779.0 507607.0 0
299350.0 510262.0 0
302233.0 507198.0 0
303754.0 511743.0 0
311837.0 509429.0 0
316479.0 509005.0 0
325775.0 510327.0 0
321015.0 511934.0 0
335636.0 510114.0 0
341901.0 510773.0 0
346365.0 509029.0 0
351232.0 509517.0 0
356089.0 509559.0 0
361101.0 510083.0 0
364923.0 511911.0 0
367977.0 509337.0 0
371627.0 512415.0 0
375280.0 512358.0 0
378460.0 509666.0 0
383149.0 511398.0 0
388076.0 510439.0 0
392291.0 509652.0 0
394734.0 512842.0 0
397198.0 509915.0 0
402435.0 511411.0 0
410726.0 508901.0 0
407620.0 512884.0 0
415662.0 508880.0 0
412752.0 512762.0 0
420829.0 510626.0 0
425191.0 511846.0 0
429242.0 510367.0 0
433955.0 509133.0 0
433146.0 513334.0 0
437540.0 511868.0 0
441144.0 510009.0 0
445482.0 512606.0 0
448776.0 508604.0 0
450803.0 512620.0 0
453611.0 509323.0 0
457199.0 511082.0 0
454414.0 513009.0 0
462639.0 509853.0 0
467437.0 511479.0 0
470386.0 509421.0 0
471861.0 512156.0 0
474667.0 512291.0 0
477991.0 512430.0 0
479742.0 508456.0 0
482383.0 512694.0 0
485267.0 510336.0 0
492223.0 509545.0 0
489016.0 511469.0 0
494917.0 512386.0 0
497182.0 507856.0 0
498417.0 510834.0 0
3476.58 518388.0 0
9155.69 514270.0 0
6391.57 514884.0 0
8640.53 517570.0 0
12352.8 516320.0 0
15838.1 514514.0 0
19353.6 515416.0 0
16216.8 518322.0 0
24062.5 515704.0 0
28405.0 513584.0 0
27998.4 517617.0 0
32237.0 516172.0 0
37679.9 514622.0 0
40501.9 518891.0 0
42491.0 515611.0 0
46052.8 515025.0 0
50122.2 513791.0 0
49539.2 517648.0 0
53407.0 515952.0 0
56641.5 517993.0 0
62446.7 513938.0 0
65782.6 516603.0 0
69766.4 515063.0 0
72326.2 517875.0 0
73997.3 514115.0 0
76784.3 517255.0 0
81897.5 517486.0 0
86641.0 515424.0 0
91883.3 514522.0 0
96403.4 512876.0 0
97178.7 516892.0 0
100767.0 513223.0 0
102059.0 517888.0 0
106179.0 513563.0 0
111276.0 516173.0 0
116138.0 514118.0 0
119955.0 516069.0 0
124213.0 513978.0 0
126255.0 516424.0 0
128854.0 514031.0 0
132296.0 516990.0 0
136281.0 516215.0 0
139078.0 513375.0 0
143279.0 514762.0 0
148198.0 515518.0 0
152724.0 517744.0 0
157290.0 515265.0 0
161959.0 512940.0 0
165866.0 515208.0 0
168275.0 512953.0 0
170403.0 515895.0 0
175999.0 513487.0 0
179287.0 516735.0 0
187948.0 514068.0 0
184400.0 516767.0 0
193132.0 513248.0 0
198465.0 516151.0 0
203090.0 514289.0 0
206460.0 517085.0 0
211209.0 515558.0 0
215938.0 516457.0 0
220451.0 516242.0 0
228079.0 512815.0 0
225451.0 516104.0 0
231215.0 516304.0 0
237097.0 514708.0 0
252290.0 515960.0 0
257158.0 514913.0 0
262215.0 515541.0 0
266226.0 512291.0 0
272433.0 516145.0 0
279702.0 512404.0 0
277895.0 516692.0 0
283837.0 512641.0 0
287319.0 515892.0 0
294790.0 512842.0 0
291234.0 516551.0 0
299809.0 515754.0 0
304902.0 516454.0 0
308712.0 513041.0 0
313983.0 513373.0 0
317895.0 514740.0 0
316870.0 517432.0 0
325299.0 515273.0 0
330382.0 513138.0 0
328952.0 517170.0 0
334557.0 515229.0 0
338040.0 514336.0 0
342018.0 516263.0 0
347817.0 513966.0 0
353664.0 513808.0 0
358059.0 513797.0 0
362679.0 514924.0 0
367994.0 514969.0 0
373596.0 517083.0 0
378843.0 513809.0 0
378602.0 517669.0 0
382789.0 516248.0 0
391059.0 513320.0 0
387186.0 514447.0 0
390721.0 516799.0 0
395174.0 516808.0 0
398882.0 513977.0 0
403376.0 515783.0 0
407698.0 517870.0 0
411508.0 516099.0 0
417040.0 513690.0 0
415055.0 517492.0 0
418889.0 517485.0 0
421536.0 514869.0 0
425078.0 515948.0 0
428999.0 514754.0 0
432605.0 517972.0 0
436781.0 515951.0 0
440943.0 514157.0 0
440257.0 517970.0 0
444279.0 517417.0 0
448565.0 516659.0 0
452371.0 515914.0 0
456094.0 516406.0 0
459970.0 513956.0 0
460773.0 518137.0 0
464647.0 515092.0 0
469512.0 514896.0 0
467226.0 518001.0 0
470916.0 518934.0 0
474758.0 516151.0 0
479854.0 516628.0 0
484087.0 516179.0 0
486904.0 514094.0 0
491752.0 515590.0 0
498044.0 513576.0 0
497284.0 516904.0 0
1343.61 522180.0 0
4164.71 523837.0 0
7627.79 521157.0 0
12131.1 521029.0 0
17552.6 522715.0 0
20953.4 519242.0 0
25473.9 519767.0 0
23014.3 522789.0 0
30224.6 520074.0 0
35193.2 520039.0 0
32041.8 523316.0 0
38893.8 522521.0 0
45293.8 519259.0 0
42281.0 522055.0 0
49522.4 521413.0 0
53043.9 519737.0 0
61292.8 518393.0 0
57170.2 521738.0 0
65912.0 521128.0 0
68894.1 518501.0 0
70542.6 521462.0 0
74761.6 521464.0 0
78799.1 520983.0 0
82432.5 522594.0 0
85752.1 519354.0 0
87583.2 522833.0 0
88716.0 518199.0 0
92900.1 520541.0 0
98459.1 521438.0 0
103652.0 522756.0 0
106863.0 518676.0 0
109224.0 522460.0 0
112299.0 519971.0 0
115716.0 518241.0 0
119686.0 520440.0 0
123656.0 518152.0 0
123776.0 522275.0 0
128250.0 519710.0 0
135270.0 520131.0 0
139954.0 518295.0 0
141817.0 522436.0 0
144650.0 519151.0 0
148814.0 520641.0 0
156774.0 519941.0 0
161878.0 518747.0 0
167329.0 519519.0 0
170976.0 519814.0 0
173203.0 522506.0 0
174503.0 517927.0 0
177823.0 521533.0 0
182510.0 521382.0 0
186453.0 520800.0 0
189395.0 517858.0 0
194211.0 519121.0 0
198564.0 520610.0 0
202206.0 518498.0 0
209174.0 520126.0 0
205135.0 521425.0 0
213393.0 520297.0 0
217960.0 520048.0 0
222403.0 520413.0 0
227427.0 521063.0 0
232770.0 521831.0 0
237232.0 519799.0 0
241679.0 517656.0 0
244149.0 521730.0 0
240540.0 521871.0 0
247161.0 517869.0 0
251632.0 521196.0 0
259786.0 519488.0 0
255842.0 519235.0 0
263552.0 519936.0 0
267526.0 517252.0 0
271320.0 520328.0 0
279830.0 521008.0 0
275683.0 522076.0 0
283550.0 518139.0 0
282666.0 522004.0 0
288145.0 519986.0 0
295252.0 517432.0 0
293011.0 521143.0 0
297769.0 520503.0 0
302471.0 519852.0 0
309121.0 518334.0 0
313476.0 517954.0 0
316733.0 520858.0 0
320898.0 518167.0 0
326407.0 521457.0 0
332391.0 519139.0 0
337313.0 518507.0 0
341212.0 521378.0 0
346451.0 519766.0 0
351698.0 518392.0 0
354680.0 521462.0 0
360244.0 518122.0 0
356287.0 517778.0 0
359701.0 522916.0 0
364804.0 519587.0 0
369276.0 518907.0 0
368630.0 522317.0 0
377266.0 521616.0 0
381605.0 520671.0 0
386865.0 519643.0 0
392420.0 521134.0 0
399895.0 518338.0 0
396861.0 520880.0 0
403988.0 520253.0 0
407724.0 521907.0 0
412001.0 520629.0 0
417402.0 521306.0 0
422731.0 519813.0 0
427991.0 519260.0 0
431578.0 522459.0 0
436801.0 521060.0 0
442268.0 521883.0 0
447373.0 520751.0 0
452231.0 519962.0 0
457164.0 520783.0 0
461008.0 521874.0 0
464464.0 520015.0 0
467930.0 521094.0 0
471435.0 522657.0 0
474727.0 520634.0 0
478767.0 521089.0 0
483487.0 520066.0 0
487988.0 518746.0 0
486737.0 522815.0 0
494101.0 520278.0 0
490452.0 522181.0 0
498226.0 520249.0 0
2333.33 527259.0 0
8538.66 525318.0 0
13599.9 526063.0 0
17918.6 527452.0 0
20729.5 525539.0 0
24047.4 526233.0 0
27663.3 523596.0 0
27102.7 528359.0 0
31256.0 526981.0 0
35800.7 525455.0 0
40874.0 525401.0 0
45777.9 524173.0 0
49971.1 525012.0 0
53343.4 523550.0 0
52639.9 527532.0 0
61372.7 523250.0 0
57135.9 526387.0 0
61196.4 527359.0 0
65115.9 525588.0 0
68746.6 524447.0 0
72571.6 525340.0 0
77643.1 525261.0 0
81972.0 526446.0 0
84764.1 525495.0 0
87467.3 526688.0 0
91160.7 525892.0 0
95280.5 524846.0 0
99372.7 526423.0 0
106325.0 526815.0 0
111209.0 527353.0 0
114953.0 523231.0 0
120046.0 524842.0 0
123577.0 525983.0 0
127102.0 524867.0 0
132008.0 523917.0 0
137588.0 524539.0 0
141794.0 527254.0 0
145628.0 524423.0 0
149469.0 526124.0 0
153217.0 523335.0 0
159206.0 524650.0 0
164526.0 523276.0 0
168999.0 523294.0 0
166562.0 526894.0 0
171606.0 527559.0 0
176059.0 525475.0 0
180490.0 525712.0 0
185615.0 525226.0 0
190397.0 522888.0 0
195566.0 523910.0 0
199850.0 524108.0 0
203726.0 526131.0 0
208854.0 524651.0 0
214526.0 525818.0 0
219610.0 524006.0 0
223926.0 524849.0 0
228148.0 526057.0 0
232625.0 526869.0 0
237361.0 524898.0 0
242129.0 525291.0 0
247790.0 526058.0 0
253698.0 525680.0 0
257793.0 523248.0 0
262550.0 524133.0 0
267162.0 522343.0 0
271447.0 524874.0 0
280053.0 525240.0 0
275568.0 526770.0 0
285758.0 524165.0 0
290115.0 524731.0 0
294483.0 525953.0 0
300954.0 524026.0 0
304579.0 527164.0 0
306255.0 522538.0 0
308958.0 526938.0 0
311966.0 522753.0 0
313635.0 527754.0 0
316432.0 524747.0 0
320733.0 523498.0 0
328749.0 527038.0 0
331429.0 523371.0 0
333023.0 526448.0 0
335944.0 523175.0 0
345771.0 524073.0 0
341629.0 526908.0 0
350528.0 523524.0 0
347554.0 527962.0 0
354969.0 525627.0 0
361940.0 527570.0 0
365119.0 524905.0 0
369720.0 526723.0 0
372863.0 522817.0 0
379921.0 525283.0 0
384195.0 524288.0 0
389135.0 524855.0 0
395906.0 525046.0 0
400377.0 527918.0 0
400493.0 523061.0 0
404988.0 524703.0 0
409931.0 525490.0 0
414154.0 524295.0 0
421880.0 524614.0 0
417860.0 525749.0 0
426727.0 523608.0 0
425223.0 528251.0 0
429357.0 524528.0 0
430756.0 527889.0 0
435190.0 525278.0 0
440843.0 528134.0 0
439107.0 525179.0 0
442353.0 525795.0 0
446142.0 524755.0 0
450581.0 524149.0 0
454596.0 523601.0 0
454113.0 527500.0 0
458919.0 525275.0 0
463015.0 528378.0 0
463969.0 524050.0 0
467860.0 524015.0 0
466702.0 526846.0 0
471425.0 527078.0 0
475252.0 524321.0 0
478800.0 525201.0 0
476576.0 528423.0 0
482670.0 523877.0 0
485827.0 526131.0 0
489494.0 525718.0 0
493644.0 524611.0 0
497721.0 523333.0 0
497360.0 527328.0 0
2423.68 531318.0 0
5922.59 528854.0 0
10349.6 530203.0 0
15572.8 531243.0 0
21687.1 530518.0 0
26509.7 532376.0 0
30393.1 531145.0 0
34359.0 529770.0 0
38887.5 529180.0 0
36925.6 532786.0 0
43973.2 528326.0 0
42361.3 532000.0 0
46198.6 531591.0 0
48528.0 528646.0 0
49362.6 532926.0 0
51567.2 530642.0 0
55239.9 530622.0 0
52618.1 533107.0 0
59882.7 531545.0 0
64127.1 529387.0 0
69011.3 528829.0 0
74199.4 529761.0 0
79725.5 530669.0 0
84674.7 528733.0 0
84627.6 532853.0 0
89152.4 530302.0 0
94550.7 529272.0 0
102611.0 530109.0 0
107773.0 531763.0 0
112533.0 531801.0 0
116807.0 528805.0 0
121467.0 528446.0 0
120903.0 532135.0 0
125326.0 529370.0 0
129784.0 528323.0 0
134290.0 528508.0 0
138104.0 528867.0 0
136380.0 532077.0 0
139582.0 531468.0 0
143611.0 531795.0 0
148475.0 530340.0 0
152901.0 528431.0 0
157228.0 529946.0 0
162433.0 529287.0 0
160038.0 532684.0 0
167032.0 531303.0 0
177286.0 530800.0 0
183342.0 530005.0 0
188213.0 531134.0 0
192324.0 528042.0 0
197248.0 527603.0 0
196037.0 531277.0 0
200472.0 530115.0 0
205467.0 531029.0 0
210299.0 529586.0 0
219585.0 528986.0 0
214908.0 531831.0 0
223916.0 528772.0 0
227573.0 530749.0 0
232807.0 531829.0 0
237846.0 530249.0 0
242879.0 529765.0 0
247340.0 532326.0 0
252214.0 530460.0 0
257587.0 529235.0 0
262433.0 528742.0 0
266987.0 527494.0 0
271983.0 530515.0 0
278506.0 530232.0 0
284034.0 529331.0 0
290397.0 530058.0 0
298423.0 528065.0 0
296114.0 532511.0 0
301957.0 530781.0 0
306789.0 531307.0 0
310876.0 530642.0 0
318922.0 527591.0 0
316904.0 532203.0 0
323473.0 527936.0 0
327027.0 531873.0 0
332699.0 531514.0 0
336459.0 527815.0 0
338759.0 532387.0 0
344020.0 531963.0 0
348644.0 532606.0 0
352237.0 529345.0 0
357691.0 530102.0 0
363154.0 531859.0 0
366303.0 528953.0 0
370977.0 530622.0 0
367828.0 532704.0 0
375350.0 528149.0 0
380815.0 529977.0 0
385833.0 529087.0 0
388699.0 532669.0 0
392334.0 529100.0 0
396559.0 528625.0 0
397315.0 532900.0 0
402224.0 532570.0 0
405047.0 528928.0 0
406110.0 532831.0 0
409408.0 530194.0 0
412675.0 533437.0 0
414559.0 529019.0 0
420408.0 529973.0 0
427121.0 532940.0 0
432799.0 533075.0 0
436959.0 529453.0 0
442221.0 532244.0 0
444562.0 528680.0 0
447395.0 533373.0 0
449238.0 528725.0 0
452948.0 532809.0 0
458202.0 530443.0 0
463116.0 533394.0 0
467548.0 530623.0 0
473210.0 532361.0 0
478651.0 532394.0 0
481759.0 528663.0 0
483281.0 533365.0 0
487307.0 530211.0 0
492489.0 528903.0 0
496779.0 532290.0 0
2033.9 535294.0 0
4539.67 537951.0 0
6594.13 533600.0 0
8462.13 537297.0 0
11919.6 535002.0 0
15073.3 538202.0 0
18409.5 535146.0 0
23932.8 536778.0 0
29361.5 535530.0 0
33268.2 534012.0 0
32584.0 538064.0 0
36315.0 536669.0 0
39994.4 534882.0 0
45454.8 536278.0 0
51360.3 536791.0 0
55858.8 534880.0 0
60317.5 536572.0 0
65585.0 534033.0 0
70992.0 533325.0 0
69443.7 538126.0 0
73905.3 536456.0 0
77507.7 534911.0 0
81291.2 535705.0 0
88010.0 534897.0 0
92637.6 534052.0 0
90130.9 538166.0 0
98075.6 533486.0 0
103388.0 535126.0 0
107772.0 536589.0 0
111915.0 536050.0 0
116516.0 534000.0 0
120455.0 536886.0 0
125369.0 534537.0 0
131462.0 533501.0 0
136189.0 536409.0 0
139922.0 534874.0 0
143255.0 536334.0 0
147300.0 535228.0 0
152990.0 533725.0 0
158020.0 535983.0 0
163343.0 534060.0 0
167506.0 536332.0 0
171531.0 532976.0 0
171837.0 537189.0 0
174885.0 535433.0 0
178476.0 536269.0 0
183136.0 535422.0 0
187682.0 535289.0 0
192237.0 532719.0 0
191168.0 536290.0 0
195250.0 535488.0 0
198907.0 534021.0 0
204510.0 536316.0 0
209185.0 534167.0 0
212885.0 536277.0 0
217644.0 536442.0 0
222902.0 532835.0 0
226780.0 535432.0 0
231292.0 536634.0 0
237143.0 536104.0 0
242713.0 534697.0 0
247360.0 536634.0 0
251064.0 535490.0 0
255632.0 534343.0 0
260707.0 533362.0 0
264842.0 537455.0 0
265304.0 532752.0 0
269867.0 535839.0 0
276162.0 535828.0 0
281458.0 533750.0 0
286345.0 534737.0 0
291738.0 536018.0 0
300682.0 535623.0 0
306121.0 536595.0 0
311553.0 535023.0 0
322265.0 532889.0 0
325187.0 535544.0 0
322002.0 537425.0 0
328132.0 535583.0 0
331356.0 536543.0 0
336014.0 536936.0 0
342388.0 537013.0 0
353577.0 534277.0 0
359305.0 536223.0 0
365012.0 536656.0 0
370360.0 537089.0 0
373842.0 533556.0 0
378402.0 534230.0 0
383844.0 534645.0 0
389321.0 537731.0 0
392627.0 534030.0 0
395103.0 538237.0 0
399961.0 537446.0 0
404282.0 536715.0 0
409041.0 535692.0 0
413720.0 537892.0 0
417309.0 534165.0 0
422221.0 534849.0 0
425684.0 537992.0 0
430071.0 537103.0 0
434641.0 537665.0 0
437770.0 534495.0 0
441722.0 536705.0 0
445789.0 537499.0 0
450301.0 537154.0 0
458710.0 534571.0 0
455621.0 537124.0 0
460657.0 538093.0 0
464939.0 537364.0 0
468412.0 535144.0 0
472615.0 537464.0 0
476833.0 536097.0 0
481074.0 536977.0 0
486155.0 537002.0 0
490985.0 534217.0 0
497077.0 537438.0 0
2092.35 540964.0 0
7175.83 540568.0 0
11246.1 540029.0 0
15038.3 542742.0 0
19152.9 540326.0 0
23674.8 542700.0 0
28785.6 540353.0 0
35762.6 541089.0 0
40436.8 538943.0 0
40275.9 543191.0 0
44120.9 541214.0 0
48273.8 540589.0 0
56430.8 538981.0 0
53050.9 541501.0 0
56588.3 542346.0 0
60000.7 541384.0 0
64569.2 539712.0 0
68192.6 542939.0 0
72952.9 541259.0 0
78227.6 539662.0 0
84872.0 539123.0 0
91243.7 542354.0 0
95364.6 538760.0 0
100206.0 538492.0 0
100535.0 542714.0 0
104759.0 540304.0 0
109937.0 540552.0 0
115665.0 538669.0 0
114078.0 543045.0 0
119402.0 542234.0 0
124559.0 539869.0 0
127456.0 542743.0 0
130092.0 539417.0 0
135502.0 541278.0 0
140157.0 539122.0 0
145308.0 540441.0 0
150527.0 538748.0 0
155702.0 541193.0 0
161956.0 537951.0 0
160964.0 541944.0 0
165249.0 540740.0 0
170353.0 541365.0 0
175313.0 539513.0 0
180611.0 540861.0 0
186603.0 539564.0 0
193794.0 540206.0 0
199339.0 538646.0 0
209095.0 538791.0 0
204882.0 541794.0 0
213644.0 540885.0 0
218848.0 541658.0 0
222672.0 538039.0 0
227534.0 540467.0 0
232985.0 541286.0 0
238482.0 542228.0 0
244082.0 540031.0 0
249740.0 539700.0 0
254250.0 539519.0 0
259675.0 538431.0 0
264038.0 541293.0 0
267976.0 540141.0 0
272559.0 540782.0 0
277762.0 542029.0 0
282211.0 538582.0 0
287627.0 540094.0 0
292760.0 541058.0 0
296288.0 537875.0 0
300378.0 541118.0 0
305280.0 541322.0 0
310452.0 541017.0 0
316641.0 538694.0 0
321383.0 542162.0 0
327073.0 540313.0 0
333012.0 540785.0 0
338698.0 542215.0 0
344462.0 542214.0 0
348669.0 538197.0 0
354548.0 539908.0 0
362324.0 541430.0 0
367070.0 540774.0 0
371522.0 542504.0 0
375727.0 538785.0 0
380312.0 538124.0 0
379532.0 542517.0 0
384461.0 540736.0 0
394664.0 542726.0 0
398491.0 541318.0 0
403231.0 541672.0 0
409057.0 540673.0 0
415267.0 542240.0 0
419181.0 539017.0 0
423230.0 541454.0 0
427815.0 542381.0 0
431945.0 540837.0 0
436401.0 541806.0 0
433548.0 543358.0 0
438577.0 538684.0 0
442293.0 541237.0 0
448216.0 542255.0 0
452986.0 540659.0 0
457449.0 541563.0 0
461575.0 543207.0 0
464010.0 540627.0 0
468546.0 540124.0 0
473665.0 542062.0 0
478003.0 539918.0 0
482920.0 541932.0 0
488299.0 541273.0 0
492557.0 539120.0 0
497644.0 542134.0 0
1783.93 544475.0 0
6249.53 544869.0 0
11000.1 544516.0 0
14251.7 547495.0 0
18895.3 545389.0 0
23283.9 547980.0 0
27960.2 545270.0 0
32084.8 543733.0 0
31662.6 548067.0 0
36558.9 546502.0 0
43323.5 543994.0 0
42354.4 547523.0 0
46336.7 544803.0 0
49851.4 544068.0 0
49217.6 546568.0 0
52980.4 546615.0 0
58300.4 545880.0 0
63464.4 544694.0 0
71602.6 545647.0 0
67322.5 548348.0 0
76368.4 545201.0 0
81678.0 543773.0 0
86874.8 544321.0 0
91309.8 546848.0 0
95884.2 544578.0 0
100228.0 547386.0 0
104547.0 545178.0 0
109740.0 545847.0 0
115307.0 547380.0 0
119621.0 547049.0 0
123936.0 544922.0 0
128845.0 546480.0 0
131695.0 543425.0 0
134578.0 547023.0 0
140719.0 544769.0 0
146257.0 545342.0 0
150403.0 543483.0 0
154322.0 546408.0 0
158837.0 545937.0 0
164163.0 545835.0 0
169630.0 546703.0 0
175136.0 544949.0 0
180110.0 547707.0 0
184892.0 544889.0 0
189754.0 543238.0 0
194130.0 545742.0 0
200039.0 545231.0 0
204836.0 546227.0 0
209757.0 544936.0 0
215555.0 545770.0 0
223335.0 543270.0 0
219838.0 545805.0 0
229687.0 545056.0 0
234485.0 546048.0 0
238843.0 547209.0 0
242866.0 545406.0 0
247967.0 544391.0 0
252019.0 542738.0 0
255754.0 544407.0 0
260618.0 544075.0 0
265037.0 545253.0 0
269320.0 544323.0 0
274047.0 546096.0 0
282676.0 543870.0 0
287773.0 545828.0 0
293110.0 545902.0 0
296361.0 543472.0 0
299213.0 545793.0 0
303752.0 545674.0 0
308384.0 545782.0 0
314597.0 542816.0 0
313331.0 545991.0 0
317443.0 544467.0 0
322052.0 547179.0 0
327712.0 546879.0 0
333704.0 545952.0 0
337976.0 546874.0 0
346311.0 546174.0 0
341870.0 547291.0 0
349368.0 543463.0 0
350304.0 547235.0 0
353306.0 544666.0 0
357895.0 543758.0 0
361613.0 546633.0 0
366087.0 545035.0 0
375694.0 545353.0 0
379787.0 546945.0 0
384997.0 546838.0 0
390134.0 543478.0 0
397772.0 546144.0 0
402767.0 546462.0 0
407042.0 545435.0 0
411658.0 544727.0 0
415650.0 547327.0 0
419661.0 544217.0 0
424559.0 546022.0 0
431320.0 544348.0 0
429566.0 547811.0 0
434977.0 546231.0 0
439340.0 544670.0 0
444034.0 546410.0 0
449328.0 547756.0 0
453084.0 544962.0 0
458253.0 546639.0 0
463379.0 547490.0 0
465673.0 544168.0 0
467937.0 548350.0 0
469679.0 544344.0 0
472859.0 547047.0 0
478069.0 544121.0 0
477122.0 547674.0 0
481170.0 546993.0 0
487233.0 546379.0 0
492747.0 544140.0 0
497282.0 546698.0 0
2688.75 548572.0 0
2530.61 553025.0 0
8173.55 550309.0 0
13071.5 552063.0 0
18464.7 551169.0 0
27662.9 549793.0 0
34901.2 551882.0 0
39378.5 550669.0 0
43093.4 552156.0 0
47200.4 549611.0 0
51895.3 551449.0 0
56039.2 550007.0 0
58857.3 552680.0 0
62013.5 549307.0 0
64933.5 552816.0 0
69526.9 553510.0 0
72361.8 549920.0 0
76792.8 550964.0 0
79880.6 548019.0 0
82053.5 552473.0 0
83964.5 547930.0 0
87914.7 548985.0 0
89775.1 552514.0 0
94978.4 550645.0 0
100719.0 552433.0 0
106083.0 550261.0 0
111841.0 551183.0 0
117971.0 552155.0 0
123258.0 549795.0 0
130716.0 551142.0 0
135002.0 552132.0 0
138939.0 550295.0 0
144680.0 550580.0 0
150020.0 548159.0 0
155092.0 550649.0 0
161224.0 549558.0 0
166574.0 549969.0 0
171110.0 551868.0 0
175844.0 550242.0 0
179326.0 552043.0 0
184568.0 550924.0 0
189310.0 548125.0 0
193347.0 550386.0 0
197014.0 549347.0 0
198147.0 552499.0 0
203175.0 550137.0 0
208182.0 550130.0 0
212742.0 549627.0 0
218048.0 550672.0 0
222816.0 548458.0 0
226908.0 548009.0 0
226160.0 552457.0 0
230959.0 549865.0 0
236012.0 550429.0 0
240683.0 550911.0 0
246007.0 549908.0 0
251998.0 547990.0 0
252046.0 552484.0 0
256981.0 549531.0 0
262104.0 548914.0 0
267907.0 549284.0 0
272897.0 551246.0 0
277938.0 549942.0 0
282351.0 548393.0 0
285973.0 550936.0 0
291201.0 550745.0 0
296634.0 549453.0 0
301737.0 550360.0 0
306732.0 550051.0 0
310528.0 548577.0 0
312761.0 551654.0 0
317173.0 549261.0 0
321533.0 552213.0 0
326371.0 552147.0 0
331919.0 551544.0 0
337804.0 550890.0 0
342733.0 551202.0 0
347300.0 550447.0 0
356277.0 548566.0 0
351829.0 550710.0 0
361195.0 552175.0 0
365176.0 549125.0 0
370633.0 548768.0 0
376632.0 550200.0 0
381232.0 550520.0 0
386862.0 552946.0 0
392175.0 549177.0 0
396977.0 550733.0 0
400991.0 550334.0 0
405574.0 549792.0 0
410599.0 549276.0 0
415047.0 552914.0 0
420496.0 549370.0 0
425614.0 550391.0 0
429398.0 552793.0 0
433880.0 550882.0 0
439331.0 549441.0 0
445980.0 551192.0 0
450459.0 552612.0 0
453854.0 549514.0 0
457822.0 551589.0 0
461202.0 550477.0 0
464864.0 552031.0 0
471299.0 551020.0 0
474895.0 550770.0 0
479334.0 551586.0 0
484031.0 550036.0 0
482948.0 553558.0 0
487665.0 551078.0 0
492205.0 549686.0 0
497391.0 551452.0 0
2107.24 557168.0 0
6736.68 555836.0 0
10307.2 554029.0 0
15516.1 555809.0 0
11611.5 557257.0 0
19751.3 556303.0 0
24229.0 553724.0 0
23087.5 558511.0 0
29973.9 553605.0 0
27835.9 558316.0 0
34210.8 557916.0 0
39354.9 554735.0 0
43930.5 556505.0 0
48370.3 554463.0 0
54440.0 557130.0 0
61411.1 556441.0 0
66528.1 556975.0 0
73695.0 554129.0 0
74488.6 557239.0 0
77679.3 555485.0 0
82415.9 557987.0 0
87420.5 556251.0 0
92824.2 556591.0 0
98747.3 557601.0 0
105254.0 556239.0 0
110806.0 556264.0 0
115273.0 556591.0 0
122446.0 553811.0 0
119791.0 557241.0 0
126348.0 553196.0 0
124177.0 557060.0 0
129948.0 555943.0 0
135200.0 557307.0 0
140612.0 555037.0 0
145943.0 556993.0 0
150091.0 553123.0 0
150883.0 557403.0 0
154652.0 555372.0 0
159070.0 553290.0 0
164336.0 554003.0 0
168707.0 556054.0 0
175846.0 555928.0 0
181775.0 555497.0 0
186213.0 555472.0 0
189890.0 553084.0 0
194633.0 554634.0 0
201497.0 555326.0 0
207150.0 555244.0 0
213217.0 554997.0 0
218715.0 555773.0 0
223011.0 556045.0 0
232149.0 554779.0 0
237505.0 555232.0 0
243215.0 554315.0 0
248255.0 555644.0 0
255780.0 554952.0 0
260093.0 553101.0 0
264787.0 553737.0 0
269384.0 554110.0 0
275418.0 555934.0 0
281675.0 554820.0 0
287919.0 555715.0 0
293676.0 555978.0 0
298740.0 554214.0 0
304162.0 554640.0 0
308352.0 554126.0 0
312043.0 556153.0 0
316565.0 554321.0 0
320296.0 556500.0 0
324167.0 555859.0 0
329197.0 557035.0 0
335193.0 556198.0 0
340495.0 555614.0 0
344909.0 554125.0 0
349833.0 555350.0 0
355085.0 553673.0 0
358332.0 556154.0 0
362269.0 557792.0 0
367300.0 554810.0 0
371942.0 557605.0 0
372477.0 553817.0 0
376014.0 554563.0 0
375765.0 558033.0 0
379034.0 553324.0 0
379242.0 556791.0 0
382118.0 554244.0 0
391501.0 554275.0 0
389298.0 557718.0 0
394926.0 553510.0 0
393937.0 557684.0 0
399067.0 554701.0 0
403994.0 553873.0 0
406882.0 558161.0 0
402693.0 558414.0 0
409174.0 554526.0 0
420601.0 554641.0 0
425351.0 554144.0 0
424128.0 557698.0 0
428473.0 557761.0 0
433471.0 556201.0 0
437465.0 553804.0 0
442229.0 554389.0 0
447236.0 556343.0 0
452010.0 557923.0 0
455014.0 554498.0 0
458005.0 558455.0 0
460767.0 554613.0 0
465065.0 556957.0 0
468959.0 553926.0 0
475070.0 555637.0 0
480556.0 556951.0 0
486563.0 555363.0 0
492033.0 555388.0 0
497358.0 556067.0 0
3367.92 561941.0 0
8548.82 560170.0 0
12561.7 561385.0 0
18470.7 562162.0 0
24902.1 562313.0 0
30666.9 563379.0 0
39880.7 559202.0 0
40523.7 562158.0 0
44030.4 561703.0 0
48231.6 558947.0 0
50986.7 561958.0 0
59329.9 561117.0 0
63915.3 560592.0 0
70941.5 558707.0 0
67925.9 562747.0 0
77252.5 560487.0 0
86757.0 560749.0 0
91665.7 562529.0 0
95364.6 560229.0 0
97884.1 562515.0 0
102877.0 561857.0 0
108638.0 561097.0 0
113181.0 559900.0 0
117373.0 561166.0 0
122886.0 562262.0 0
127819.0 559933.0 0
131803.0 561055.0 0
140284.0 560574.0 0
145383.0 562871.0 0
149401.0 560712.0 0
154388.0 560952.0 0
159420.0 558336.0 0
164915.0 560100.0 0
171156.0 560388.0 0
175898.0 561670.0 0
180094.0 560227.0 0
184688.0 559278.0 0
190071.0 558206.0 0
194530.0 558880.0 0
198611.0 559700.0 0
203490.0 559641.0 0
208610.0 559999.0 0
213285.0 560771.0 0
218100.0 560320.0 0
222900.0 560573.0 0
227790.0 558020.0 0
232889.0 559291.0 0
237313.0 560561.0 0
241534.0 558380.0 0
245613.0 560411.0 0
249944.0 560479.0 0
254782.0 560336.0 0
261055.0 558761.0 0
267800.0 558930.0 0
273218.0 561027.0 0
278790.0 560439.0 0
282978.0 559652.0 0
286442.0 560515.0 0
290752.0 560209.0 0
295434.0 561068.0 0
300888.0 559336.0 0
307379.0 559592.0 0
312916.0 560564.0 0
316903.0 558840.0 0
320335.0 561602.0 0
324705.0 560249.0 0
329039.0 562585.0 0
333360.0 560686.0 0
338242.0 560446.0 0
345107.0 558910.0 0
350248.0 560911.0 0
354248.0 558259.0 0
354681.0 562546.0 0
358146.0 559781.0 0
363249.0 562334.0 0
368444.0 560752.0 0
373817.0 562039.0 0
378780.0 560953.0 0
382093.0 562976.0 0
384033.0 558676.0 0
388411.0 562838.0 0
398087.0 559093.0 0
401972.0 562967.0 0
398594.0 562354.0 0
406327.0 562028.0 0
410957.0 559855.0 0
416469.0 558748.0 0
421063.0 559260.0 0
419815.0 562268.0 0
424384.0 562165.0 0
431952.0 559876.0 0
429564.0 562637.0 0
435247.0 563224.0 0
438633.0 558441.0 0
440449.0 562580.0 0
443592.0 559819.0 0
448667.0 561930.0 0
454360.0 562306.0 0
462232.0 560734.0 0
458777.0 562768.0 0
466387.0 561429.0 0
470234.0 558555.0 0
471039.0 563435.0 0
477194.0 561434.0 0
484150.0 559422.0 0
488833.0 560477.0 0
494345.0 560163.0 0
498287.0 559916.0 0
497872.0 563400.0 0
8957.07 564908.0 0
13937.5 567105.0 0
23519.5 566521.0 0
28016.5 567991.0 0
36943.1 563774.0 0
41955.1 566896.0 0
47938.1 565798.0 0
55139.5 564145.0 0
62488.1 565543.0 0
72899.8 563630.0 0
77647.3 565667.0 0
81918.4 563303.0 0
86539.4 565657.0 0
91120.0 567999.0 0
95731.3 566328.0 0
100563.0 566757.0 0
106614.0 567204.0 0
113159.0 565143.0 0
118689.0 565866.0 0
123504.0 568055.0 0
129028.0 565416.0 0
135486.0 564382.0 0
141028.0 565923.0 0
145588.0 568052.0 0
150381.0 565209.0 0
155008.0 565956.0 0
159835.0 564050.0 0
165544.0 566435.0 0
169182.0 564209.0 0
173087.0 566009.0 0
178736.0 565306.0 0
183699.0 563779.0 0
188788.0 563379.0 0
194674.0 563843.0 0
198402.0 567908.0 0
199791.0 563775.0 0
203169.0 564746.0 0
207247.0 564360.0 0
212286.0 565425.0 0
217092.0 565083.0 0
221908.0 565219.0 0
227094.0 563638.0 0
232012.0 563577.0 0
236928.0 565674.0 0
241574.0 563187.0 0
246654.0 565470.0 0
251672.0 564432.0 0
257048.0 566091.0 0
263617.0 565200.0 0
269197.0 563949.0 0
273215.0 566146.0 0
277990.0 565481.0 0
283073.0 564179.0 0
287972.0 563864.0 0
291853.0 564686.0 0
295237.0 564495.0 0
295122.0 567962.0 0
298998.0 564880.0 0
304811.0 565673.0 0
310717.0 565046.0 0
316262.0 563463.0 0
319917.0 566088.0 0
324821.0 565469.0 0
332427.0 566404.0 0
337117.0 565113.0 0
341446.0 564053.0 0
346240.0 564139.0 0
351326.0 566241.0 0
358880.0 563834.0 0
362274.0 566786.0 0
366087.0 565136.0 0
370288.0 565995.0 0
375078.0 566922.0 0
379618.0 566188.0 0
384376.0 566314.0 0
391123.0 567520.0 0
394275.0 563118.0 0
398852.0 566481.0 0
404857.0 567366.0 0
410321.0 565258.0 0
415873.0 564646.0 0
421189.0 566100.0 0
426983.0 565821.0 0
424548.0 567859.0 0
431617.0 567252.0 0
439909.0 566814.0 0
444058.0 564490.0 0
448006.0 567498.0 0
452955.0 567057.0 0
457373.0 566528.0 0
462129.0 565689.0 0
466931.0 565583.0 0
474526.0 565556.0 0
478521.0 567172.0 0
482616.0 563592.0 0
487426.0 565702.0 0
492553.0 564687.0 0
496631.0 567539.0 0
3693.02 568533.0 0
9619.32 570543.0 0
14772.4 573298.0 0
19095.5 569012.0 0
24250.5 571601.0 0
29548.0 572442.0 0
33512.1 568760.0 0
38745.4 571620.0 0
45585.0 571169.0 0
52401.4 568928.0 0
54432.2 573510.0 0
57842.4 569241.0 0
60525.7 573060.0 0
63317.3 570453.0 0
66258.7 572800.0 0
68096.1 568283.0 0
73870.8 568900.0 0
76663.8 573039.0 0
77997.8 569511.0 0
81923.5 568422.0 0
86920.7 570667.0 0
91125.1 572445.0 0
95878.7 571461.0 0
101377.0 571815.0 0
106483.0 573250.0 0
111508.0 570609.0 0
115637.0 569586.0 0
119357.0 570065.0 0
122438.0 572837.0 0
128077.0 572150.0 0
132837.0 569287.0 0
137686.0 569987.0 0
142650.0 572156.0 0
149914.0 570339.0 0
155127.0 570639.0 0
160805.0 570078.0 0
165947.0 572117.0 0
169514.0 569399.0 0
174189.0 571150.0 0
178434.0 570100.0 0
182677.0 568615.0 0
187712.0 568477.0 0
193335.0 570225.0 0
198791.0 573051.0 0
203242.0 569210.0 0
209005.0 569495.0 0
214241.0 569407.0 0
218531.0 569527.0 0
216729.0 572933.0 0
222633.0 569402.0 0
226779.0 568522.0 0
232106.0 568940.0 0
238186.0 569897.0 0
242055.0 568213.0 0
247192.0 570473.0 0
252233.0 568920.0 0
257775.0 570961.0 0
261206.0 569918.0 0
268570.0 569039.0 0
273356.0 570611.0 0
277825.0 570267.0 0
282508.0 569364.0 0
286660.0 569956.0 0
290794.0 569266.0 0
294656.0 572339.0 0
299625.0 570694.0 0
304643.0 570817.0 0
309616.0 570786.0 0
315379.0 568795.0 0
322565.0 570516.0 0
328077.0 569694.0 0
332279.0 570929.0 0
336418.0 569728.0 0
341163.0 568691.0 0
346450.0 569709.0 0
351526.0 571556.0 0
356968.0 569216.0 0
361849.0 570574.0 0
366394.0 570005.0 0
372147.0 571140.0 0
377847.0 570751.0 0
382195.0 570058.0 0
387034.0 570507.0 0
391191.0 572087.0 0
395258.0 570352.0 0
400767.0 571480.0 0
406002.0 573191.0 0
409451.0 569922.0 0
413171.0 568806.0 0
417766.0 570146.0 0
413741.0 572283.0 0
423099.0 571542.0 0
427929.0 569911.0 0
432562.0 572078.0 0
435698.0 568673.0 0
439460.0 571496.0 0
443762.0 568533.0 0
445832.0 571917.0 0
451382.0 572212.0 0
455730.0 569948.0 0
459987.0 570271.0 0
465126.0 570227.0 0
471070.0 569221.0 0
483426.0 568947.0 0
479567.0 571940.0 0
487424.0 569822.0 0
490989.0 568947.0 0
494222.0 571227.0 0
497997.0 571436.0 0
3224.24 574974.0 0
9225.41 575668.0 0
20047.0 573570.0 0
18640.8 578123.0 0
22705.0 575759.0 0
26733.5 576086.0 0
33963.9 574119.0 0
33335.8 578325.0 0
38128.8 577351.0 0
43828.6 576492.0 0
49849.9 573635.0 0
48994.5 578302.0 0
58183.6 576526.0 0
63665.3 576827.0 0
71069.6 574043.0 0
75206.9 576816.0 0
79326.9 576909.0 0
82837.8 573458.0 0
83653.2 577972.0 0
87742.7 575716.0 0
93593.9 576248.0 0
98357.9 575375.0 0
102977.0 576594.0 0
106966.0 577551.0 0
111078.0 575668.0 0
116803.0 574513.0 0
121548.0 577199.0 0
126194.0 577596.0 0
134036.0 574316.0 0
138877.0 574626.0 0
143002.0 576933.0 0
147076.0 574598.0 0
151885.0 574686.0 0
156750.0 575720.0 0
161622.0 575256.0 0
165903.0 577096.0 0
170886.0 575236.0 0
176641.0 575522.0 0
182272.0 574113.0 0
188343.0 574020.0 0
193682.0 576313.0 0
202373.0 575721.0 0
205824.0 573814.0 0
212484.0 573901.0 0
215981.0 577011.0 0
220938.0 573615.0 0
226369.0 573784.0 0
231273.0 573980.0 0
236511.0 574577.0 0
242726.0 573677.0 0
247515.0 574545.0 0
251503.0 573389.0 0
256071.0 574662.0 0
260781.0 574183.0 0
265725.0 573980.0 0
270610.0 573850.0 0
275466.0 574927.0 0
281058.0 574021.0 0
285542.0 573695.0 0
283309.0 578012.0 0
290185.0 574183.0 0
287002.0 577186.0 0
296511.0 576870.0 0
301683.0 575903.0 0
305972.0 578129.0 0
306314.0 574157.0 0
310197.0 575987.0 0
314682.0 574343.0 0
320214.0 575365.0 0
325303.0 573875.0 0
329731.0 574921.0 0
335006.0 574365.0 0
341240.0 574435.0 0
347659.0 575665.0 0
353732.0 576454.0 0
360282.0 575222.0 0
366533.0 575820.0 0
371298.0 576746.0 0
374805.0 574990.0 0
379231.0 575705.0 0
383645.0 573920.0 0
388305.0 576009.0 0
393052.0 575341.0 0
397258.0 574974.0 0
401974.0 576456.0 0
407497.0 576373.0 0
410967.0 575625.0 0
416725.0 575851.0 0
421683.0 575895.0 0
427616.0 575393.0 0
432466.0 576537.0 0
436692.0 575371.0 0
442344.0 575898.0 0
447676.0 576100.0 0
453085.0 577817.0 0
456808.0 573964.0 0
460278.0 577220.0 0
464535.0 575284.0 0
469276.0 574479.0 0
471505.0 577729.0 0
474749.0 574193.0 0
483602.0 573781.0 0
479844.0 576575.0 0
489557.0 574709.0 0
496110.0 575540.0 0
2042.26 579861.0 0
6305.58 579292.0 0
8679.21 582647.0 0
13064.4 578788.0 0
12854.1 583757.0 0
17668.5 583341.0 0
23673.3 579475.0 0
21061.2 581487.0 0
29107.6 580963.0 0
35566.0 582952.0 0
41629.5 580861.0 0
45403.8 580785.0 0
50889.4 582441.0 0
54052.5 579250.0 0
58659.3 581235.0 0
63060.7 581816.0 0
67623.0 580658.0 0
72082.0 579391.0 0
76507.2 580852.0 0
81683.2 582490.0 0
87573.2 581341.0 0
92829.5 581030.0 0
97235.6 579485.0 0
101665.0 581104.0 0
106542.0 581826.0 0
112110.0 581278.0 0
118214.0 581417.0 0
123461.0 581193.0 0
131148.0 579387.0 0
136288.0 578933.0 0
140506.0 580971.0 0
144192.0 580193.0 0
148041.0 579602.0 0
153126.0 579271.0 0
157590.0 580202.0 0
162047.0 580060.0 0
168957.0 580147.0 0
173767.0 580333.0 0
178696.0 579830.0 0
182869.0 579301.0 0
187845.0 579801.0 0
192198.0 580415.0 0
198620.0 578536.0 0
203131.0 579189.0 0
208865.0 579138.0 0
214207.0 580329.0 0
217508.0 583003.0 0
220267.0 578613.0 0
225392.0 579313.0 0
230725.0 578659.0 0
235506.0 580014.0 0
240050.0 579040.0 0
245828.0 579542.0 0
252791.0 579701.0 0
259264.0 579093.0 0
264175.0 579148.0 0
268862.0 578749.0 0
273276.0 578494.0 0
278665.0 579397.0 0
287291.0 583190.0 0
290870.0 579585.0 0
295799.0 582467.0 0
300633.0 580582.0 0
309799.0 580351.0 0
315609.0 580410.0 0
326030.0 578673.0 0
321588.0 580207.0 0
331373.0 580300.0 0
337124.0 579397.0 0
341944.0 579383.0 0
345943.0 581133.0 0
350491.0 580256.0 0
357563.0 581054.0 0
363505.0 580672.0 0
368964.0 579907.0 0
372292.0 583375.0 0
375112.0 579560.0 0
379716.0 580276.0 0
384156.0 579595.0 0
392369.0 579018.0 0
388781.0 581351.0 0
397137.0 580312.0 0
401338.0 579855.0 0
401565.0 583026.0 0
406537.0 580414.0 0
413555.0 580475.0 0
419153.0 581026.0 0
423979.0 579455.0 0
428509.0 580861.0 0
433792.0 580962.0 0
438026.0 582718.0 0
438795.0 579282.0 0
442880.0 581522.0 0
448430.0 581084.0 0
453478.0 583093.0 0
457328.0 580460.0 0
461571.0 581480.0 0
466879.0 580404.0 0
472254.0 581726.0 0
475951.0 579246.0 0
476203.0 582882.0 0
479966.0 581543.0 0
484621.0 579084.0 0
488929.0 582139.0 0
492996.0 579749.0 0
497561.0 580287.0 0
4121.24 583904.0 0
8311.22 587391.0 0
15586.9 587641.0 0
23829.0 583664.0 0
20799.0 586798.0 0
26998.3 584820.0 0
30377.9 586242.0 0
34303.9 588075.0 0
38634.2 587613.0 0
42323.1 585033.0 0
47031.7 584676.0 0
50476.8 586942.0 0
55006.8 585420.0 0
60713.8 585745.0 0
65883.2 585414.0 0
72284.8 585461.0 0
78377.7 586777.0 0
85475.4 585948.0 0
82125.2 586765.0 0
91381.4 586426.0 0
97588.8 584356.0 0
103057.0 586726.0 0
109179.0 586314.0 0
113652.0 585846.0 0
117246.0 587849.0 0
122126.0 586010.0 0
127631.0 584082.0 0
134098.0 585221.0 0
140445.0 586323.0 0
145032.0 583714.0 0
149738.0 584931.0 0
154939.0 584129.0 0
159970.0 584329.0 0
162951.0 588129.0 0
168049.0 583984.0 0
164126.0 583964.0 0
172105.0 585157.0 0
177681.0 585012.0 0
174209.0 588279.0 0
183995.0 584445.0 0
192541.0 583454.0 0
189132.0 584478.0 0
192609.0 588139.0 0
197678.0 584329.0 0
203732.0 583881.0 0
213805.0 583773.0 0
209350.0 586182.0 0
214930.0 588134.0 0
222115.0 583465.0 0
227222.0 584191.0 0
232697.0 584360.0 0
238543.0 583920.0 0
242965.0 583816.0 0
242184.0 588082.0 0
247690.0 585205.0 0
251610.0 584539.0 0
255603.0 585202.0 0
260627.0 584249.0 0
265708.0 583440.0 0
271571.0 584407.0 0
276725.0 583683.0 0
277299.0 588233.0 0
281897.0 584490.0 0
286688.0 588292.0 0
291399.0 585692.0 0
300142.0 584935.0 0
305449.0 583746.0 0
311331.0 585070.0 0
316526.0 586825.0 0
321453.0 584993.0 0
326947.0 584105.0 0
332052.0 585007.0 0
336457.0 584796.0 0
341286.0 583651.0 0
347589.0 585868.0 0
352516.0 584505.0 0
357871.0 587177.0 0
363129.0 585774.0 0
367719.0 584221.0 0
371478.0 588241.0 0
376768.0 584580.0 0
381863.0 584143.0 0
386849.0 586477.0 0
393134.0 585208.0 0
398667.0 586253.0 0
405087.0 587029.0 0
410761.0 585049.0 0
416377.0 585838.0 0
423750.0 584892.0 0
429987.0 586085.0 0
435465.0 585897.0 0
440451.0 586174.0 0
445929.0 586256.0 0
451046.0 587159.0 0
458409.0 585595.0 0
464115.0 585630.0 0
469281.0 585609.0 0
474079.0 586016.0 0
478780.0 586172.0 0
483054.0 584821.0 0
487166.0 586825.0 0
493871.0 583958.0 0
491855.0 587529.0 0
497900.0 584489.0 0
496455.0 588625.0 0
2915.65 589293.0 0
1221.8 592962.0 0
6985.34 591917.0 0
12108.4 590514.0 0
18895.4 591198.0 0
22760.1 592642.0 0
25688.5 588995.0 0
30902.1 591079.0 0
36651.7 592655.0 0
45584.8 589326.0 0
41571.9 590678.0 0
52449.4 591212.0 0
58202.6 590326.0 0
63521.4 590047.0 0
68043.5 589421.0 0
71644.4 591454.0 0
76692.2 591764.0 0
81819.1 590441.0 0
86906.9 590399.0 0
91743.6 592355.0 0
97252.4 590160.0 0
102190.0 591984.0 0
107047.0 591151.0 0
112824.0 590186.0 0
118623.0 592619.0 0
123406.0 591098.0 0
129131.0 590204.0 0
135600.0 591977.0 0
139953.0 590466.0 0
145160.0 588484.0 0
143855.0 593399.0 0
148774.0 590680.0 0
153359.0 589473.0 0
158344.0 588483.0 0
163195.0 592886.0 0
168314.0 588861.0 0
172964.0 592548.0 0
177689.0 590475.0 0
181918.0 589292.0 0
186961.0 589496.0 0
197687.0 589991.0 0
201909.0 588455.0 0
206012.0 591408.0 0
212923.0 593406.0 0
219322.0 588725.0 0
222361.0 588586.0 0
222500.0 593416.0 0
226549.0 589841.0 0
231839.0 589382.0 0
237078.0 589007.0 0
242755.0 592699.0 0
246723.0 590002.0 0
252500.0 588719.0 0
252216.0 592882.0 0
256574.0 589828.0 0
261394.0 589425.0 0
267048.0 588877.0 0
272432.0 590221.0 0
281866.0 590889.0 0
291240.0 591028.0 0
296391.0 588674.0 0
302527.0 589105.0 0
307523.0 589033.0 0
308371.0 593406.0 0
312148.0 590109.0 0
320898.0 589984.0 0
316374.0 591678.0 0
326370.0 590071.0 0
331728.0 589564.0 0
337520.0 590355.0 0
342961.0 588406.0 0
347446.0 590925.0 0
352818.0 590233.0 0
358005.0 592604.0 0
362396.0 590164.0 0
366400.0 588686.0 0
368239.0 593036.0 0
376204.0 589036.0 0
380274.0 588520.0 0
378557.0 592959.0 0
384068.0 591455.0 0
390724.0 591156.0 0
396171.0 590262.0 0
400997.0 590914.0 0
407978.0 592221.0 0
412374.0 589851.0 0
417215.0 591461.0 0
421370.0 589361.0 0
425550.0 590167.0 0
432789.0 590242.0 0
429361.0 592410.0 0
437483.0 590596.0 0
442871.0 590891.0 0
448066.0 591434.0 0
452262.0 590801.0 0
456352.0 590719.0 0
461558.0 590389.0 0
466924.0 590199.0 0
471918.0 590093.0 0
477494.0 590491.0 0
482594.0 589652.0 0
488906.0 591868.0 0
493181.0 591089.0 0
497783.0 593078.0 0
2840.49 596588.0 0
8109.87 596147.0 0
13285.8 595286.0 0
17971.0 595508.0 0
22014.2 597505.0 0
26952.9 594912.0 0
32409.3 596603.0 0
37507.7 597969.0 0
41864.5 595343.0 0
47312.7 594169.0 0
51675.5 596454.0 0
56461.3 595475.0 0
61720.5 594783.0 0
67250.7 594285.0 0
73186.7 596075.0 0
78347.2 596909.0 0
84237.8 595811.0 0
89810.4 596743.0 0
94874.3 596361.0 0
99534.6 595279.0 0
104644.0 596132.0 0
109424.0 595037.0 0
113397.0 594748.0 0
116696.0 596579.0 0
122504.0 595764.0 0
128620.0 597552.0 0
134941.0 597148.0 0
139640.0 595234.0 0
147086.0 596155.0 0
143542.0 598416.0 0
151205.0 594702.0 0
157573.0 594052.0 0
162834.0 598203.0 0
167849.0 594723.0 0
178225.0 595032.0 0
183527.0 594042.0 0
188384.0 594000.0 0
192832.0 593650.0 0
197493.0 594628.0 0
202313.0 593658.0 0
203051.0 598216.0 0
208429.0 595724.0 0
217500.0 593547.0 0
217524.0 598316.0 0
222408.0 598433.0 0
227980.0 595090.0 0
233073.0 593917.0 0
231224.0 598501.0 0
237945.0 593861.0 0
241636.0 597408.0 0
248100.0 594179.0 0
253337.0 598269.0 0
256441.0 594053.0 0
260866.0 594449.0 0
262540.0 598318.0 0
265632.0 594099.0 0
270760.0 595363.0 0
276878.0 594269.0 0
282045.0 595282.0 0
286727.0 594181.0 0
292587.0 596076.0 0
298629.0 594884.0 0
304056.0 593710.0 0
306082.0 597980.0 0
312942.0 595267.0 0
318614.0 596154.0 0
323300.0 594086.0 0
327848.0 595296.0 0
333157.0 594686.0 0
337868.0 596204.0 0
342676.0 594167.0 0
346801.0 597708.0 0
351052.0 595235.0 0
356409.0 597809.0 0
362759.0 595782.0 0
373442.0 595883.0 0
382416.0 596244.0 0
387810.0 596354.0 0
393401.0 595485.0 0
398093.0 595070.0 0
403544.0 595255.0 0
412802.0 595067.0 0
408081.0 597131.0 0
418053.0 596496.0 0
422159.0 593785.0 0
422517.0 598743.0 0
426670.0 596140.0 0
433827.0 595292.0 0
440037.0 595752.0 0
445931.0 596589.0 0
452304.0 595826.0 0
459066.0 595869.0 0
464184.0 594378.0 0
469096.0 595455.0 0
474625.0 594249.0 0
479993.0 594356.0 0
484556.0 594104.0 0
484035.0 598142.0 0
488291.0 597010.0 0
493655.0 594951.0 0
497572.0 597589.0 0
1350.55 600493.0 0
6061.39 601058.0 0
11157.4 600082.0 0
16959.0 600626.0 0
24029.0 602247.0 0
28554.3 600096.0 0
33327.1 601896.0 0
38186.4 602415.0 0
42320.2 600452.0 0
46915.9 599348.0 0
51541.4 601188.0 0
56913.4 600968.0 0
62278.3 599960.0 0
66852.4 599200.0 0
70977.0 600663.0 0
75765.6 601078.0 0
81519.4 602147.0 0
87488.0 600380.0 0
92333.2 600837.0 0
98303.7 600288.0 0
103654.0 601772.0 0
109010.0 599876.0 0
114355.0 600204.0 0
119653.0 600063.0 0
124328.0 602335.0 0
128580.0 603548.0 0
133857.0 601508.0 0
138742.0 599677.0 0
147103.0 599647.0 0
151596.0 600455.0 0
157539.0 600383.0 0
162955.0 603253.0 0
167708.0 599714.0 0
173365.0 598820.0 0
177917.0 599688.0 0
177545.0 603350.0 0
181728.0 599190.0 0
187055.0 598573.0 0
186744.0 603416.0 0
193294.0 599574.0 0
198877.0 598641.0 0
203492.0 603205.0 0
207424.0 600021.0 0
212269.0 598808.0 0
218051.0 603357.0 0
222066.0 603319.0 0
226488.0 599621.0 0
236422.0 598646.0 0
242467.0 603355.0 0
247219.0 599253.0 0
258545.0 598582.0 0
256673.0 602898.0 0
266908.0 599072.0 0
273505.0 599646.0 0
277945.0 599725.0 0
281779.0 598818.0 0
283155.0 602964.0 0
286841.0 599378.0 0
290874.0 600542.0 0
296015.0 600838.0 0
301748.0 599194.0 0
310368.0 599140.0 0
314837.0 600512.0 0
319850.0 601220.0 0
325341.0 600547.0 0
331030.0 599554.0 0
335792.0 600123.0 0
341681.0 600795.0 0
346837.0 602814.0 0
351075.0 600657.0 0
355969.0 603614.0 0
361182.0 601872.0 0
368162.0 599782.0 0
372718.0 603644.0 0
378362.0 600770.0 0
384515.0 600700.0 0
390370.0 601166.0 0
395116.0 599662.0 0
400441.0 600033.0 0
404397.0 599045.0 0
407066.0 601972.0 0
413468.0 600356.0 0
418246.0 601176.0 0
426938.0 601373.0 0
431360.0 599765.0 0
436299.0 600141.0 0
441182.0 601361.0 0
446100.0 601919.0 0
451509.0 602459.0 0
457130.0 601325.0 0
461912.0 600720.0 0
467232.0 601231.0 0
473497.0 600076.0 0
479588.0 599680.0 0
486865.0 602335.0 0
492779.0 600341.0 0
497910.0 602047.0 0
2249.09 604191.0 0
5636.73 606052.0 0
10679.0 605969.0 0
17170.4 607076.0 0
22643.6 606922.0 0
28460.1 605382.0 0
33760.4 607327.0 0
39173.6 607147.0 0
43283.4 608913.0 0
46991.8 605160.0 0
52941.7 606158.0 0
58144.2 606233.0 0
63460.1 605266.0 0
68205.7 604247.0 0
72579.6 605176.0 0
77149.5 605846.0 0
83099.6 606883.0 0
87392.7 604769.0 0
92744.9 606012.0 0
98309.2 605825.0 0
102952.0 606427.0 0
107801.0 605072.0 0
112121.0 604082.0 0
116860.0 604318.0 0
121214.0 605336.0 0
125822.0 606520.0 0
132369.0 607085.0 0
137617.0 604895.0 0
142931.0 603671.0 0
148001.0 604075.0 0
153595.0 605804.0 0
158840.0 605685.0 0
167320.0 604248.0 0
172124.0 604680.0 0
182511.0 604109.0 0
190899.0 605193.0 0
197831.0 604338.0 0
208210.0 604556.0 0
213220.0 603939.0 0
225863.0 603907.0 0
230849.0 604011.0 0
236634.0 603877.0 0
248048.0 604791.0 0
252434.0 604384.0 0
261135.0 604877.0 0
266691.0 604872.0 0
272368.0 604226.0 0
277843.0 604967.0 0
288361.0 604798.0 0
293310.0 605225.0 0
297194.0 606733.0 0
301036.0 603788.0 0
307426.0 604085.0 0
313312.0 605444.0 0
318373.0 605980.0 0
322871.0 605057.0 0
327158.0 606092.0 0
331911.0 604452.0 0
337205.0 605599.0 0
342383.0 606745.0 0
346799.0 606787.0 0
351385.0 606084.0 0
359698.0 606772.0 0
364390.0 606040.0 0
368362.0 604844.0 0
372122.0 608099.0 0
376594.0 606018.0 0
382386.0 604161.0 0
387093.0 605171.0 0
392579.0 605732.0 0
397677.0 604715.0 0
402749.0 604682.0 0
406792.0 606988.0 0
411527.0 605176.0 0
417145.0 606477.0 0
422322.0 604181.0 0
427299.0 606568.0 0
432200.0 604507.0 0
437663.0 605531.0 0
443085.0 606303.0 0
447745.0 606315.0 0
452594.0 608241.0 0
456773.0 605935.0 0
461670.0 605816.0 0
466646.0 606505.0 0
471855.0 606172.0 0
477363.0 604758.0 0
482385.0 605414.0 0
488246.0 607271.0 0
492233.0 605719.0 0
496512.0 605796.0 0
POINT_DATA 5000
SCALARS Radius float 1
LOOKUP_TABLE default
5415.48 5120.0 2356.98 6182.6 6810.52 5840.26 5073.35 4834.9 3863.18 4998.37 5492.18 5258.36 5061.3 3163.97 5812.43 5906.14 5733.48 5580.89 3588.44 5645.7 6110.27 5561.06 5670.04 6044.04 5085.53 5351.6 5867.73 3951.75 5013.56 4499.64 3642.12 5542.27 5122.66 5484.19 3557.27 7513.1 5254.28 4436.4 4517.56 4182.53 4672.91 5176.86 4366.19 5553.16 2938.66 3672.51 4008.92 6716.79 3850.77 5325.36 5484.83 5538.89 4715.55 6059.59 2720.68 5701.86 4375.68 4238.81 5054.98 6030.06 5170.02 4688.68 4927.31 4402.52 5185.34 4432.58 5903.42 3955.56 3761.32 5292.64 4118.05 5065.13 4940.78 3615.22 4380.59 5546.39 6759.9 4730.36 5926.61 4955.55 3563.63 4345.55 4468.59 5885.03 5325.02 5200.76 4862.64 5205.43 6684.56 3968.64 2635.86 4385.06 6166.5 5936.02 5305.17 4231.61 3379.84 7613.27 4133.88 4094.62 5945.65 5418.62 7021.47 5416.38 6051.14 5836.15 6704.06 2837.58 3871.88 5246.2 5017.13 3673.74 5279.39 4827.23 6116.18 7447.37 4688.67 4924.6 7184.19 4290.3 3867.67 4861.08 3942.53 3607.45 4951.03 4665.12 6483.19 6230.49 5493.32 3641.64 5740.68 4277.89 4195.44 3261.21 3653.41 6496.85 5600.93 3856.01 4390.66 4124.71 4911.47 5803.39 4381.97 3255.82 4733.32 2899.43 2812.98 2924.37 5399.73 4003.05 4827.82 3589.27 5759.91 4333.2 3038.33 3936.02 4780.03 3383.4 4927.02 5109.54 4174.52 7054.71 4601.27 5489.43 5747.75 4796.33 5539.32 5360.19 4794.96 4874.39 5541.59 4839.34 5083.08 5728.85 6337.56 3998.5 5863.59 6257.19 5242.73 4065.69 5603.15 5390.22 4805.87 5227.21 4712.33 3997.1 3260.67 5123.52 4295.38 5529.52 5252.48 5495.39 3554.9 3856.1 4044.71 3996.0 5980.74 5816.2 3829.13 6458.82 5527.54 5573.7 5054.25 7325.81 6425.26 6186.19 4840.01 2980.99 6834.49 5525.39 4024.3 5938.34 6394.38 5555.28 4737.14 4686.65 4695.45 4660.72 3888.21 6038.78 5697.78 4392.68 4667.36 4091.31 7199.21 5255.32 4049.23 5337.48 6124.89 5481.78 5542.21 5708.81 4015.92 5043.05 4487.31 4002.16 4138.16 5693.81 3091.3 5789.98 6138.47 6302.8 5697.4 4727.62 4270.95 4055.8 5206.78 5280.17 5028.96 5143.58 4484.76 5152.36 5611.2 7933.0 5173.87 5380.13 5118.27 5169.36 5932.23 5834.74 5556.96 6052.7 3921.18 5891.05 6902.81 4254.17 6644.76 5615.42 4523.7 7565.34 6037.08 6756.95 4651.28 4382.74 5601.05 3586.91 4516.43 4929.8 3103.0 5637.59 3307.12 4937.14 5924.89 4778.34 3486.22 6894.71 4684.5 4414.54 2540.31 5120.49 6029.66 5409.61 6038.2 4005.44 5713.22 5555.88 6732.43 3183.98 6362.12 3866.16 4524.28 3778.1 4511.82 4220.65 5826.64 6820.42 4455.12 4894.16 4896.52 5711.87 3372.79 4941.22 5791.61 5788.23 5581.75 3798.62 6392.01 3666.57 5308.1 6372.62 4937.02 5629.19 5090.24 5091.39 2240.39 6324.23 5096.78 4727.24 3320.52 4685.34 4329.05 4151.94 5927.43 4384.42 6355.42 4362.19 3693.63 4948.92 3115.91 4493.48 4749.8 6084.86 5810.84 5478.92 5551.36 4467.94 4850.81 6038.14 5201.36 5262.61 4306.53 5094.81 5972.06 4312.67 5861.71 4359.04 5017.78 3794.63 6175.81 4727.24 6959.81 4829.35 4816.2 6321.41 4751.02 5184.56 5282.64 4715.72 3369.13 4479.66 5367.2 3043.85 5461.13 6730.19 4907.89 5655.21 4786.6 5923.5 5740.84 4612.68 5530.87 5293.9 4129.43 4973.83 3912.37 6142.94 6342.25 3843.58 4792.73 4931.38 4736.58 6082.81 5110.37 6327.9 5690.56 5492.26 5244.78 5762.84 3937.74 5082.6 4230.54 5094.44 3748.24 4655.49 4933.21 5375.47 4723.12 4809.42 5024.9 5659.17 6135.57 5998.38 5423.8 4270.24 3417.33 4989.15 4164.13 5015.69 4947.52 6677.09 4305.57 5813.4 5201.67 4424.7 4089.76 5526.55 4754.05 3192.41 6084.93 4987.87 3315.57 4669.66 4808.52 4764.96 5607.24 3599.45 4726.76 5839.13 3735.44 4907.06 4073.93 4645.41 5163.9 6043.3 4433.59 6445.94 4281.49 4310.18 5542.14 4218.06 4602.25 6691.39 4270.53 4194.5 5191.63 4501.51 5379.87 5513.6 4901.41 3485.26 4556.36 3240.09 3191.99 5664.98 4048.37 4659.59 4220.88 6519.71 6640.13 5478.47 5351.39 6142.37 5119.37 6061.47 6163.38 4997.27 4566.18 4964.09 3459.9 4093.08 5543.27 4717.05 5856.11 5287.2 4234.94 4562.29 5013.13 5080.66 4926.42 5110.45 5248.77 4642.34 4083.97 4520.1 5874.89 4293.03 4528.09 4165.81 4389.21 3791.79 4128.98 4925.44 4951.47 5246.61 4307.28 5215.15 5804.71 5020.12 5046.33 5727.3 5053.92 4242.52 6352.26 3057.03 3847.38 5495.68 3818.59 5489.34 5952.75 5708.14 5537.72 4320.28 6332.36 7134.64 4931.53 4790.08 5480.13 5082.47 4187.56 5344.25 4840.84 5344.0 4593.7 4478.15 4043.57 5925.6 3708.04 6013.14 5138.31 4602.86 5264.06 4621.75 4551.24 3688.8 3369.23 5358.59 4548.16 5449.18 4515.71 4322.15 4714.54 3092.35 3629.96 5210.03 3320.11 6022.17 4583.31 3982.23 4503.89 5806.08 5243.29 4853.39 4449.22 5628.24 3327.49 4109.88 5992.26 3960.8 4980.85 5070.39 5714.58 3329.99 5208.32 3296.27 4607.02 5153.74 3895.51 6673.96 3556.85 6291.51 5882.89 6246.22 5370.52 4188.32 4100.38 3697.96 4739.42 5538.93 4899.11 4745.45 5281.28 2631.9 5356.51 4863.72 4087.15 4143.08 5002.48 6623.85 4262.82 3920.42 5102.36 6122.55 5978.9 2739.94 6308.71 3629.62 4997.27 4716.19 5135.69 4301.06 3456.98 6045.46 4763.45 3815.26 4150.99 4216.92 3929.19 3771.48 4107.03 5681.38 5198.77 5147.67 4138.42 5987.17 4292.06 5011.31 3979.82 5006.58 2765.2 4581.13 5586.81 4219.07 3610.4 3856.59 5413.79 6387.01 5367.52 6202.55 5025.39 5030.91 5893.5 4547.19 5507.24 6851.54 4336.42 5570.3 4306.11 3402.32 7589.94 3130.65 5004.67 5365.89 4511.54 5409.33 5196.0 4923.9 4973.78 4613.31 3947.47 6119.09 5091.68 4713.25 4204.84 6243.0 5069.25 5048.89 3991.03 3161.47 5441.96 5174.89 3435.9 4288.3 4652.29 5774.81 5344.77 4723.48 5027.98 5097.87 4278.07 7267.18 6255.18 4277.88 4668.71 4758.21 7500.97 3948.23 5228.18 5787.31 8332.24 6155.31 4342.9 4553.56 4223.33 5911.67 5514.76 6695.82 4290.14 6405.76 4877.67 4020.32 5445.87 4245.72 4704.72 4571.7 4177.94 4742.68 4502.5 5922.5 4271.69 3970.25 3633.87 2775.04 4850.01 5643.58 5577.04 6318.18 4481.53 3948.17 5077.33 4746.52 5572.95 6338.89 5584.06 7111.16 3817.13 5023.15 3844.9 4377.07 3695.36 5101.59 3848.93 3813.22 6020.48 5935.47 5903.66 4528.49 5419.37 4466.03 5275.32 4898.94 5985.29 4178.15 4694.83 4733.04 5788.66 7531.29 3903.75 4755.47 5935.03 6390.78 7435.25 6826.57 4788.87 4495.87 3746.31 6022.72 5498.32 5527.33 5346.27 6475.1 2691.29 6256.02 2845.98 5320.92 7228.46 6362.14 6719.88 5065.11 5978.82 3927.99 5069.84 5329.64 4051.44 3323.28 6049.55 5835.78 5709.62 3498.2 6562.18 4541.21 5908.1 6048.7 4344.58 5896.46 5634.83 5495.84 4164.68 6268.1 5782.6 4862.21 5113.21 5499.11 4011.77 4527.08 5347.48 4374.35 4810.12 4138.46 3821.72 5215.05 4986.77 6035.6 5137.34 5330.45 5423.0 5125.78 3824.16 3689.45 3868.18 6723.16 3686.21 5372.61 5402.24 6480.17 6445.22 3963.86 4564.34 4871.44 5076.35 6375.99 5200.05 5234.29 4091.8 4645.58 5313.66 2651.49 5512.23 4711.62 5349.31 4247.23 4268.65 4649.22 5509.42 4354.08 5936.36 4520.62 5229.48 5475.7 4485.99 5127.16 5475.8 5314.69 4244.99 6050.81 5543.46 4249.46 5965.81 3702.37 4643.31 2330.66 4177.19 6917.52 4969.21 5402.21 4880.14 4989.09 4982.31 5289.52 5269.18 4406.1 4305.43 5034.59 4942.77 5080.18 5868.82 5266.5 4050.9 4523.88 4066.38 4241.89 5054.74 4099.77 5941.72 4981.9 5794.24 4127.74 4537.32 3066.13 4302.5 2476.04 5105.16 4156.38 6006.16 6009.88 5050.65 5022.8 5316.75 6133.92 3784.5 4178.4 3719.84 5669.65 5820.48 7034.11 6261.42 2586.12 6125.34 5965.78 6396.74 6898.19 5526.14 6449.45 5198.29 3975.31 4044.45 5344.43 5262.19 5045.38 4373.47 6034.41 5350.88 5130.91 4948.5 4519.22 4527.02 4531.14 5013.42 3838.56 5651.07 6248.81 5872.05 5273.35 4853.02 6259.23 5181.4 5670.2 4114.24 5166.79 2976.22 5394.55 5094.52 4256.43 4946.74 2682.24 5928.32 5415.19 3950.63 4612.62 4016.18 5526.75 5435.74 6385.23 5327.45 5560.26 2983.99 6185.89 3997.96 4750.17 5660.85 3460.94 3990.25 3691.0 3758.07 4752.51 3587.05 6229.37 6718.19 5314.85 4307.48 3848.54 5941.4 5450.44 5331.02 6510.17 4263.33 4454.63 5592.32 5912.61 3279.1 4978.31 4403.98 4948.98 4414.48 5163.02 4656.78 5991.09 4678.38 5126.91 5448.61 4827.33 7055.53 3937.08 5513.57 5013.67 5729.23 5934.22 3780.23 5624.49 3471.03 4359.62 5253.55 3745.84 5011.84 6057.22 6946.21 5062.71 5433.8 4497.59 5252.34 5975.63 4274.61 2965.79 4410.55 7099.43 4287.63 5315.4 4516.28 3627.82 5678.96 6070.58 4244.9 4285.32 5490.43 5452.83 5022.28 4959.34 5197.52 5178.99 5383.07 4790.78 4591.87 4247.15 6552.22 4602.85 4962.77 6101.92 5323.3 5088.44 4998.21 3457.48 4662.56 3931.07 3405.98 5417.15 3688.16 4681.72 4945.39 5996.33 5661.62 6631.19 3619.07 4467.04 4275.57 5626.61 5817.25 2614.4 6363.92 6205.93 4439.35 5830.72 6184.4 3828.81 4373.45 4236.14 5733.62 4407.87 5282.91 3797.33 4425.84 7256.35 4871.96 4800.69 5742.65 4863.23 4402.67 5381.16 5565.13 4560.84 5227.52 6086.96 4092.24 4729.43 5233.78 4562.74 5776.57 3942.07 7144.24 7443.72 5133.97 3600.43 6600.94 5371.02 5260.34 5206.48 4709.35 6586.45 5826.04 5876.71 5226.0 5339.78 3095.48 4861.06 4166.08 6481.79 3979.26 5960.66 6608.73 3999.48 4203.26 5188.81 4730.41 5696.88 5690.26 4156.2 4289.17 5564.02 6444.77 6314.07 5776.37 3921.08 4190.31 5486.68 6048.86 6894.26 4986.51 5339.38 6169.11 5615.35 6422.84 4027.09 4502.18 5379.09 5210.48 7552.94 4051.34 3627.55 6239.84 4635.6 4256.67 5865.39 4427.28 6079.11 3082.32 6430.39 7440.72 3658.37 3949.6 5376.71 5703.6 6326.18 4867.08 4266.03 6648.68 4713.74 5407.78 4084.49 5061.98 6632.99 4537.6 4923.24 4419.61 7177.44 5309.98 4563.46 4082.57 5255.18 5282.51 5169.9 3004.16 4460.92 5945.89 4042.28 4105.55 6566.1 3555.86 6386.78 4470.61 6193.35 4631.83 6887.27 3701.27 6008.49 4806.34 5683.26 5598.74 4906.82 5131.24 4788.58 6155.1 5196.67 6496.67 5474.8 4750.78 4373.3 5762.59 5029.78 5320.28 5374.51 5224.12 4850.14 4569.12 4796.58 4298.67 5873.69 4962.09 6222.42 5654.31 5470.77 4643.85 3923.03 4004.04 5607.14 5082.74 5411.85 6915.83 4844.57 6072.45 5092.37 4027.46 4470.98 3901.8 5759.46 5083.41 7055.42 3836.45 5100.25 5683.61 5805.86 4049.02 5311.03 4470.4 4611.53 5255.12 4285.66 4896.11 4318.48 5172.53 4135.62 6132.95 5801.99 4860.33 5534.94 3685.13 7644.38 3312.06 5180.76 6004.68 3361.26 6799.4 4409.63 3661.9 5370.85 5949.46 3178.54 4765.02 3776.94 5629.39 4448.13 5070.29 4807.28 2261.36 5075.55 5280.69 4220.03 6923.84 5449.46 6179.96 5703.07 6113.54 5147.36 4662.43 6260.79 4043.66 3963.76 5528.53 6553.94 5726.66 5460.65 4767.78 5235.17 4779.5 4340.76 4421.12 4435.36 5254.49 6065.22 4996.99 4221.28 4456.39 4384.88 4896.39 6081.14 5480.83 5653.9 4220.46 4287.53 5046.21 5612.21 4929.14 5894.61 5687.83 5004.23 6442.69 6320.71 4648.04 6262.72 3527.05 6607.87 3365.82 3664.11 4163.5 7092.87 4123.6 4538.95 4970.88 6739.08 7042.12 3637.61 4471.58 5463.38 6098.14 4472.17 5750.71 4938.74 3474.39 4831.47 6062.05 6939.12 4735.33 4413.85 3999.94 6171.13 4864.22 2395.5 5511.88 5941.61 4512.11 4933.65 6098.1 6248.6 5443.58 4558.46 6401.43 5346.68 5296.29 2681.29 5094.48 3872.61 5576.92 4238.4 6408.83 3930.79 5266.22 5226.97 5754.18 5132.68 3418.99 4480.95 5278.36 6218.95 5521.25 5222.16 5107.23 5136.08 5558.68 4010.57 5246.47 2684.03 6157.04 4768.61 4522.21 5506.19 6719.94 4950.67 5227.59 6166.29 5453.6 5294.77 5409.63 3077.84 4709.05 4630.82 4813.08 6799.88 3062.43 5426.78 2967.38 5652.0 4159.35 5463.41 5225.33 4237.98 4929.75 6045.22 6649.96 4303.19 5514.84 3633.79 4256.57 3914.2 5421.53 4607.85 5937.08 6070.3 5128.57 6000.7 5945.08 3979.54 5139.5 4968.03 7493.3 4814.55 5833.06 5944.09 5698.77 3464.83 6515.84 4143.78 5724.64 5965.15 4925.63 4763.66 4666.81 4888.6 4780.2 4797.52 6326.39 6643.85 6343.14 4020.95 5501.93 5462.21 6313.06 5945.21 3493.7 6345.13 4200.03 6470.3 4719.7 5516.95 5313.22 5563.79 4406.4 3905.51 6853.85 3493.47 4020.4 3497.9 4596.75 5782.48 4031.78 5950.04 5708.99 4231.83 5687.85 2435.33 6333.29 4558.47 5020.71 5731.57 5997.88 5662.55 5839.71 4360.23 6234.32 5365.24 4004.35 5293.51 4763.96 5008.63 4270.74 6293.89 6595.03 4993.35 4558.15 4983.39 5366.52 4690.55 5533.72 5533.42 4802.32 3678.08 4599.38 5518.57 4187.31 6191.29 5463.48 7422.36 3240.51 5161.01 4527.99 4298.15 4376.7 4628.4 5190.61 5832.37 6051.83 4642.93 3973.12 4263.16 6024.75 6109.49 5860.67 4540.86 5990.52 3764.1 4835.83 5604.35 6477.91 3091.67 6439.37 4614.3 4081.97 5401.99 5134.39 5784.3 5769.98 6088.68 2221.99 4643.56 4135.08 5620.74 5233.29 5604.21 3169.67 4612.06 5204.04 5304.13 3361.92 3306.14 4863.79 5490.58 5395.14 4702.06 2477.07 4923.41 5117.47 2990.77 3163.78 4497.31 3293.56 4305.16 5882.65 5092.28 4739.14 5078.86 4918.77 5163.55 4636.5 4819.73 6817.32 3382.7 6471.55 6263.44 4319.79 4863.27 5960.56 5122.63 5774.97 5862.86 6049.79 5374.98 5226.56 5274.19 5599.49 5452.42 4097.57 5017.5 5328.22 4151.76 4216.17 6484.17 4721.02 3546.71 4254.37 3374.08 5768.57 5564.23 3735.24 6574.95 4074.48 3614.96 4477.04 3886.68 5703.74 4747.55 5737.92 3056.7 3755.95 5591.76 4585.31 4586.19 4446.06 6625.18 3450.93 5323.91 5097.45 4185.61 5737.75 2761.07 3778.02 6552.21 5417.8 5146.37 7132.12 5227.02 4836.16 5300.96 5151.11 5730.33 5545.46 4543.1 6550.44 8325.01 3764.06 4440.81 5941.9 6642.76 5829.22 4497.78 5567.93 5987.42 5433.65 5332.65 4442.22 6451.33 5413.31 6316.56 4332.87 6420.81 4715.58 3317.83 4450.7 5580.92 3532.3 5151.52 5973.33 3583.21 4347.74 5442.32 5067.46 4863.01 3580.58 5356.79 4011.37 4778.82 4312.56 6124.08 5467.84 4750.58 6710.88 3967.48 6667.68 6213.04 4721.32 3830.46 6413.11 5274.14 5529.42 4434.19 5257.12 4903.82 5100.1 4940.42 3954.91 4371.99 3703.1 4946.42 6090.91 3561.29 5085.71 3295.83 5923.4 4963.34 5644.82 2965.01 6413.02 3492.19 4584.5 4118.84 5548.29 6766.43 5916.16 2315.64 4703.08 4390.41 4890.5 6113.95 3731.84 3981.07 4050.08 4901.07 5186.3 3436.15 5711.11 5005.85 4575.94 5325.44 4938.72 5021.88 5956.65 4188.87 4498.25 5151.21 5398.64 6817.57 3573.73 6853.04 4745.43 5831.96 5464.68 4475.83 2685.81 4510.8 5889.35 5010.04 4394.56 4570.98 4275.07 5825.38 4573.72 4047.87 5099.21 5742.47 4917.99 5636.4 4367.78 4350.12 3603.51 5670.0 4232.16 6609.84 4344.51 5135.96 5680.94 3781.77 3834.43 5581.55 5193.01 3474.5 5491.37 3860.83 6348.03 5732.27 4523.39 4792.39 5434.47 5278.56 6917.62 5631.14 4243.79 4343.78 5811.18 5263.3 4008.15 4887.76 4669.06 3012.99 4811.32 6400.08 6184.88 4743.59 5829.32 5208.14 4396.25 3763.05 5092.24 5369.08 4518.04 5291.9 4766.06 4009.62 4874.18 2511.46 2081.58 6505.78 2775.69 5657.36 4785.25 6519.43 3619.79 5029.47 6306.21 5053.95 5926.11 5253.37 5235.11 5767.9 5211.38 6031.67 6515.8 5384.76 6138.12 4428.78 4965.89 5746.28 5659.95 5187.7 4152.85 4082.47 4623.61 4219.78 5081.78 4188.3 4459.28 6116.33 4260.92 5499.39 6250.23 4407.9 4718.54 4440.57 6235.57 5412.31 5203.08 3087.09 5374.07 3623.87 7480.41 6934.37 5163.77 4488.85 3423.15 5010.2 4579.69 3554.48 6496.52 5966.61 4893.49 4388.63 4834.87 5102.75 4597.29 5760.22 4200.09 5938.17 5931.77 4795.43 5097.95 5108.06 4222.4 4693.52 4000.43 4661.03 4568.41 3624.7 3420.08 4912.04 4320.42 4691.91 4539.07 4255.34 5064.79 5480.3 7509.24 5896.26 5388.78 6101.13 5599.7 4163.74 6969.28 3665.95 5698.96 4095.75 3319.67 4298.45 5222.51 4076.59 5164.1 6464.15 5658.37 4707.06 6074.94 4250.88 4222.77 3783.54 3475.67 5268.38 5527.23 7038.89 5146.37 3863.67 4814.12 4013.38 5067.56 6137.8 3352.35 2735.53 5116.6 4909.65 3747.03 6523.86 7693.4 4286.49 4326.48 4437.07 3449.37 5491.9 6405.0 5551.95 4659.16 3918.87 3101.75 5549.49 5423.42 6605.86 5012.5 5435.19 5461.55 5876.64 4270.15 3298.2 6865.76 5424.46 5266.01 2978.76 2040.66 7016.27 6622.11 4689.15 5089.62 3685.13 6790.73 4655.16 5243.43 4741.26 5409.66 5920.32 4537.14 4186.6 5251.4 5551.9 3867.19 4453.64 4345.67 5511.6 5019.93 3885.86 6261.75 5235.29 5177.64 4517.73 4338.08 4541.8 4255.31 6134.99 5453.3 4479.94 3838.47 2588.37 4062.5 5887.15 6736.03 4435.51 8659.64 4588.7 3766.55 5683.95 6027.62 5469.13 5765.42 6123.03 6098.95 4997.83 5453.98 3991.42 5148.08 3718.69 4514.79 3672.21 2216.82 4509.89 6752.75 5269.38 5607.3 4914.45 2928.82 5313.12 4698.87 3984.88 5160.59 5262.35 4732.09 4281.98 7165.9 5344.83 7046.11 3427.63 4863.97 4146.81 6342.48 5756.75 4587.67 5093.82 5951.81 3924.14 6918.35 4296.69 6238.32 6804.79 6471.42 5283.8 5369.5 4428.14 6016.19 4479.11 4124.49 4972.17 6685.4 5699.53 4850.06 6332.01 7044.29 4805.33 7085.01 5980.95 6193.08 6069.3 5887.01 3862.77 5168.35 5388.39 2783.85 4356.49 5335.47 4526.81 3994.07 4219.94 5907.46 6740.71 4264.91 5399.29 5789.55 4633.05 2275.45 4901.2 6522.59 5711.62 4383.56 3562.79 4990.79 7093.13 4953.1 5818.95 6449.64 4857.84 3940.49 4908.49 4962.21 4749.59 5884.9 3468.42 3685.65 4590.55 3876.21 4673.35 5869.4 4916.22 5297.19 3701.16 6022.7 4255.85 5097.69 4765.72 3988.3 5857.79 2908.7 3757.34 4039.91 6415.61 5276.7 4752.14 4378.3 4419.71 4950.97 5037.06 5660.16 5175.29 5842.56 5199.44 4094.73 5191.08 5424.88 5415.85 4199.45 7234.66 6599.66 4055.54 4886.12 6419.12 4233.8 6107.89 4976.12 4446.84 4817.16 5660.55 5653.03 6192.0 4940.28 5885.28 6579.31 3004.34 5323.55 3022.6 5375.1 4811.76 4172.6 5351.56 5498.42 4196.37 3344.57 5318.53 5220.76 6945.98 5138.2 5783.48 4701.5 4449.98 4771.65 4840.44 5439.49 6639.64 5212.43 3687.65 5454.12 4834.3 6348.54 4066.57 5642.35 6372.13 6357.47 5404.01 4891.38 3230.13 5535.91 5714.25 5955.86 6176.67 5325.96 5412.24 5016.02 4920.21 4581.37 4234.18 4049.16 3936.95 6153.94 6836.82 3858.17 4631.99 4740.98 3477.1 3185.39 5128.77 3728.18 7122.87 5633.61 5048.19 4243.26 6799.23 4888.27 4592.15 6487.56 4854.11 5971.22 4998.22 5533.19 4909.31 5417.21 6602.43 4798.17 3568.28 5425.98 5166.79 4516.53 2895.63 4093.99 4122.92 4997.91 5079.22 6464.8 3604.14 4452.54 4684.44 4406.05 4858.44 4680.94 5828.35 5799.69 5571.72 5689.26 3809.69 4771.13 4992.42 7051.9 4940.84 5895.77 4608.41 4184.23 4732.09 4833.46 5750.07 6136.49 6543.13 4642.66 5149.72 4687.64 5469.47 5036.58 4888.12 5329.59 6119.63 4244.21 5411.02 4989.56 5512.16 3197.63 4287.16 3645.12 4863.96 3456.47 5471.74 6200.54 5148.58 4652.01 3548.39 5421.64 4858.51 4207.54 4366.74 3375.28 5625.65 4301.61 4936.96 3184.64 4481.76 5206.33 5530.49 5452.78 5065.26 4304.41 5578.94 3989.7 7610.49 4777.03 4286.17 4246.61 3684.56 6028.09 5452.36 3804.5 6486.37 4638.18 6448.66 5211.6 3556.79 4453.97 3503.41 7317.04 6412.67 7001.83 4504.35 5012.97 4036.91 5589.37 5110.11 6379.14 5216.26 4887.52 5478.95 3851.85 6318.23 4206.98 5156.76 5932.07 6101.57 4793.65 2949.12 4532.89 4533.37 4848.46 2779.99 5742.09 5887.38 5807.46 6942.34 5851.61 3658.05 5478.11 5526.31 5030.15 3644.78 4078.93 5934.82 4501.78 3572.94 5797.36 5001.58 4153.84 5119.86 5089.26 5084.17 4901.44 5415.45 3776.8 5096.43 6156.21 6104.26 5583.61 6063.64 5996.66 4986.71 6479.39 4405.42 3598.08 4599.81 5381.54 5810.77 5089.1 2711.19 5876.72 4028.32 5236.43 3208.96 4099.92 5285.07 4680.14 3858.06 4478.6 4144.57 4083.79 4187.94 4351.38 5550.75 5933.7 4809.67 4757.74 4356.25 5776.96 4209.49 4216.95 5742.74 5464.25 3946.28 3821.94 3498.16 4209.31 5439.9 5486.48 4409.27 4752.9 5301.47 4617.55 4947.24 3875.05 4588.99 4321.21 3540.11 5950.45 4344.34 5713.03 5849.65 3583.49 3673.28 4928.27 5052.84 5297.16 4165.21 4603.5 4647.67 4214.44 5375.12 4787.97 4892.44 4356.36 3746.36 6789.23 4741.28 4215.2 5069.89 4157.29 5107.0 6212.15 6813.72 5327.75 4609.02 4946.23 4896.65 6083.28 5806.31 6100.73 4745.79 5456.71 4908.75 6556.26 3971.08 6204.65 4482.9 4593.7 4349.13 4891.67 6818.91 3503.65 3634.5 6631.28 6571.31 4392.65 6413.15 4058.87 5174.75 5048.55 4984.46 5948.71 5844.72 3856.53 3992.97 5460.89 6040.74 5260.85 2884.65 7228.94 5393.65 4961.99 4648.21 4393.16 3311.29 4549.69 6423.81 6192.77 4312.15 4583.52 6418.11 6015.02 4922.49 5244.22 5585.14 7039.98 4820.17 4729.42 4159.81 5244.98 3886.72 5792.98 6592.93 6350.71 6436.74 2460.79 4456.11 4653.83 5096.24 6171.71 7382.3 2995.67 4668.88 5522.21 4022.56 5027.43 5698.23 3772.3 4855.01 7300.58 4714.83 3608.06 5474.15 7519.2 4884.59 6633.61 6355.68 5217.95 5484.36 4511.7 3953.55 5980.59 4304.63 5263.27 6834.41 5021.77 7248.4 6045.67 3796.15 5466.33 5280.12 4801.8 7216.98 4444.97 5984.81 5721.05 5271.02 7013.17 6329.53 3805.67 4247.69 5718.28 5367.73 4514.39 4640.06 6242.79 6506.86 5088.57 4803.57 5580.34 3852.6 5134.67 5775.31 4110.59 4847.14 3332.49 4215.0 4706.5 5354.66 3950.27 3566.79 5116.66 3629.44 5378.23 5003.78 4981.43 5374.67 4061.6 5473.72 2603.64 2856.55 2205.51 4553.68 5361.87 6502.97 4783.07 3758.22 4757.2 4852.58 5561.74 5975.23 4788.08 4198.94 5470.04 4211.82 6003.78 5684.25 5438.92 6550.4 5036.98 3766.69 5513.8 5188.53 4521.75 4027.63 3429.57 5569.2 5350.88 5420.67 4642.74 6103.11 5416.45 6459.51 4024.31 4955.16 4904.51 4147.31 5989.05 4054.22 5751.15 5950.88 4441.22 4149.55 5853.89 6551.93 4595.12 3110.13 4386.8 6484.43 4625.67 4725.01 3485.54 4458.64 3657.69 4883.63 3492.83 6280.13 4971.29 3684.15 5832.29 4438.76 6006.89 6456.58 3814.65 3965.3 4960.64 4983.3 4385.81 4034.05 5690.96 5798.38 3862.91 4125.9 5366.11 5039.12 3908.98 3628.89 6589.82 6328.42 7307.21 5522.75 5867.64 6208.9 4923.57 6059.93 3340.09 5602.53 6061.63 4867.7 2279.05 4829.35 4075.28 4063.9 4277.24 4469.54 4314.56 6300.92 5161.1 5291.05 3928.53 6226.14 5740.65 5599.29 6038.68 5046.12 5067.56 3000.29 3834.47 2596.96 4807.4 4350.15 4590.01 4139.3 3516.27 6541.45 4601.74 4263.78 6101.86 5078.31 4227.41 5993.0 5391.48 4923.43 5966.42 5009.83 5131.15 5210.38 5717.8 4811.22 3683.86 4918.76 3299.24 5293.75 6246.56 4208.41 5826.78 4508.18 6214.73 5175.89 3894.64 3703.49 4268.19 4374.74 3717.47 4062.56 3205.68 6200.63 4532.7 4504.86 3217.67 4473.29 5079.64 996.652 6163.54 5212.37 2628.22 5965.58 5058.51 3352.34 4901.29 4244.49 4124.76 4050.03 4775.04 4120.07 4882.66 6746.66 5410.33 3908.56 6735.97 5244.78 5305.59 3636.15 6114.89 4330.58 5754.6 3288.01 4355.83 6870.97 2202.77 5351.86 6056.87 5474.01 6201.86 7554.58 3380.69 4140.4 5166.89 3639.44 5446.4 5725.37 5966.75 5510.9 3743.76 4505.28 6711.21 5510.45 4730.14 2606.51 3994.39 3864.92 4941.02 6119.99 4618.73 2955.36 3668.93 4128.1 4009.24 5372.82 4402.17 7778.01 5127.82 5124.17 5805.1 7320.78 3419.87 4064.58 4234.88 4824.81 4384.28 5769.14 5944.3 3563.14 5135.5 3619.72 3381.82 5347.9 4646.51 4438.58 4565.93 4504.52 7107.63 5073.02 6545.43 6760.92 3472.91 4989.2 4023.93 8137.11 5484.32 6650.77 4173.54 4619.2 5606.51 5166.41 4824.12 7104.73 4383.47 6162.3 6349.67 4264.54 5262.47 5261.19 7043.44 4263.65 4750.49 4643.9 4258.98 5228.75 4807.35 6047.14 5467.63 4568.64 5666.95 4642.2 3919.62 4127.53 5750.35 4474.83 5210.75 4548.45 6555.44 5658.14 5730.61 5114.07 4385.49 7124.45 6358.93 5064.67 6618.21 5232.85 2617.39 4051.18 5144.44 5969.37 6816.66 3844.54 5034.69 5849.53 4509.46 3538.53 4680.69 4420.11 6500.49 6127.39 4972.18 4607.18 3899.7 7200.89 4813.33 4952.52 4802.98 3840.21 4081.34 4833.55 4954.76 6334.53 4844.83 5377.37 5652.87 5483.7 5135.63 5018.69 6384.7 5952.38 3896.27 5807.52 5963.36 5230.02 5307.35 4342.18 6016.08 4731.21 5491.63 6102.98 3868.62 5138.33 5153.18 3425.69 4763.4 4236.86 5393.76 4983.1 5806.61 7123.04 5906.57 4446.58 5401.4 5053.15 5910.86 3220.29 6239.68 3845.9 4141.21 4834.44 5782.43 4456.26 5113.6 3873.92 4810.98 5091.22 5640.72 6282.38 5851.63 4546.44 5727.79 5212.92 4831.93 5788.97 5615.84 4464.73 4928.85 6440.38 5868.89 5556.0 4711.04 5007.21 3274.85 7144.05 4506.18 4067.96 4099.26 2970.9 5206.47 6542.5 4580.06 4834.39 5971.21 3926.11 5493.89 5701.75 3272.75 7066.96 3104.96 3512.94 4467.0 4991.35 3831.52 4587.7 4994.65 5196.92 6106.43 3787.08 5644.81 6761.81 5334.36 3903.91 4728.55 4929.6 4554.68 4368.28 4692.32 4489.99 4945.0 4658.11 4212.15 4551.26 5678.58 6570.35 4263.18 7142.95 4383.68 4559.74 5836.26 6015.22 6666.67 6063.44 4583.94 5046.31 4928.35 1937.5 5241.75 4731.53 3763.9 4651.99 4788.7 5863.0 5084.5 5640.12 5329.76 5078.59 2403.72 5134.33 4147.49 5162.67 3646.95 5760.98 7224.99 5384.86 4749.96 4658.24 5869.67 4311.48 4899.73 3152.86 5457.66 6394.19 5973.89 5518.11 5087.14 5712.35 5169.48 4743.9 3124.7 6776.22 6064.71 3719.11 6060.17 4467.13 6273.6 5136.87 5902.67 5454.11 3779.45 2741.2 5784.37 6010.59 3142.09 3682.35 3756.96 6110.48 7541.76 4775.49 4681.29 5499.59 5749.6 6715.73 4439.71 4174.44 5667.51 4027.33 4708.31 4198.9 5431.29 5026.76 5023.41 5325.91 4092.07 5657.55 4213.05 4224.3 4184.21 4700.07 5188.82 5273.37 5043.14 4717.73 4732.37 4985.3 5072.5 3904.07 5748.9 5545.59 5553.94 5494.28 5610.53 3663.0 4954.81 6304.49 5755.15 4608.34 4835.97 6419.64 4057.17 5464.83 2781.96 5414.58 4431.23 5917.34 5740.98 5601.55 4462.87 4346.07 4013.86 6545.99 4177.47 4218.16 5630.9 2918.64 4140.92 4512.07 5984.8 4896.43 5236.24 3127.83 4585.04 5260.52 3185.09 5114.23 4242.63 5495.0 3269.54 7407.91 5064.23 6061.85 4454.74 5512.44 2904.46 4826.52 5120.92 4337.32 4685.4 6240.42 5146.0 5721.14 4288.45 4577.73 4987.28 4918.64 6638.25 4759.99 2646.13 4365.58 5419.57 5214.4 4636.53 3629.49 4705.68 5469.35 3835.81 4019.34 3623.19 4869.48 4906.11 4387.39 4564.1 5825.55 5509.51 4848.14 5366.22 4316.5 3199.4 6193.73 5254.24 3742.11 4192.21 3597.43 5701.52 4158.91 3360.86 5311.55 5321.17 3034.16 4869.25 3877.8 5545.21 4333.87 3667.93 5024.32 4708.17 4644.88 5790.42 7350.26 5591.77 5182.13 5003.3 6245.52 4932.29 3954.77 3784.94 4990.23 6793.1 6016.87 3125.13 4506.66 5209.55 4564.41 6331.74 5951.86 4833.67 4252.18 4659.88 3791.41 5853.12 5157.38 6203.03 5235.87 5473.89 6089.45 5810.17 4966.07 5713.36 4749.18 3669.32 4704.92 3742.31 4316.0 4546.96 5424.55 5134.72 5695.79 3814.16 5287.25 4420.6 3622.8 4770.51 5577.41 6511.37 4216.44 3999.5 4012.92 5759.79 5034.05 4598.54 5218.42 4933.49 6139.64 3990.94 4756.8 4357.11 5463.06 5477.8 4176.32 4639.8 3986.41 4241.68 6102.49 3469.18 2945.34 3372.95 4489.29 4301.93 5846.95 5268.15 5819.0 6449.06 4924.07 3200.6 4629.02 5914.5 6006.16 4608.62 5407.96 4071.75 6206.98 6562.03 4815.47 4368.12 4410.82 6443.99 3889.98 5193.58 5399.43 5766.05 5117.64 3916.42 5429.3 5510.96 6653.07 4745.16 4697.91 4584.81 5071.98 5719.79 4371.08 7261.51 4968.14 4914.03 5086.29 5144.56 5139.18 5551.43 4278.57 5049.99 4201.03 5001.87 5684.05 4279.44 5638.7 4899.19 5813.79 5058.34 4028.22 5293.13 5487.63 3768.46 3852.82 5167.53 4168.52 7145.73 5800.81 5403.97 5106.46 4068.31 5166.05 5077.29 5515.73 4850.5 5426.4 5763.05 5129.68 5679.74 5357.39 5076.84 5247.01 4208.37 5702.4 4841.7 5069.9 5685.74 952.938 6740.35 4678.7 3450.07 3673.6 3306.84 5265.21 4657.24 4400.14 5191.26 5866.42 5544.27 4762.1 3987.69 3484.81 6502.99 4287.25 4392.75 4666.12 4921.1 4271.07 4191.01 4475.38 4589.06 5340.05 4920.88 4184.47 5890.25 5700.79 6710.14 4726.2 4426.02 4816.51 5345.73 3825.48 4770.63 5188.22 3810.68 4841.23 4196.62 2804.54 5005.6 2809.19 5486.89 4462.35 6069.78 5532.75 6949.65 4095.83 4975.85 5695.25 5676.61 5716.42 5701.63 4620.95 6347.72 3460.93 4488.39 5124.86 4927.73 4602.57 3565.32 3763.85 3419.07 5710.33 5344.44 4626.72 5131.77 5549.71 3186.07 4967.51 7212.97 5490.64 5034.34 5695.44 3422.21 4507.46 5036.14 5603.68 4944.51 5532.72 5610.95 3220.8 5179.17 5579.39 5270.51 5148.1 5490.75 5224.64 5949.73 4312.48 5527.13 6370.33 5081.08 6318.25 6864.06 4493.79 6008.81 4932.56 5192.49 3487.31 3918.94 6643.4 5575.11 5461.72 6599.28 4507.36 6224.85 4556.19 5368.66 4795.08 6562.92 5501.73 3671.06 3612.44 4697.24 7035.54 5233.76 5866.91 4683.28 6405.69 2820.07 6549.8 4851.18 4825.73 4165.36 5288.33 4871.77 6296.54 5797.21 6019.35 6075.99 6028.63 5927.2 4550.92 5146.1 6215.87 6485.77 6060.06 5960.5 5308.33 6896.55 4685.65 6219.34 5377.01 6023.07 5674.63 6506.63 4140.04 4668.8 5995.4 3495.3 5322.11 4697.49 5735.08 7133.44 4750.81 4711.15 3953.26 4474.39 4658.59 6478.35 5453.77 4916.7 5589.53 7208.19 4549.51 5025.42 5196.08 3587.93 4517.29 4495.75 5323.95 4849.5 6171.01 5796.26 4603.04 4870.94 5368.93 5271.88 6121.56 7168.2 4571.74 4096.86 3622.48 5001.51 6432.8 5115.42 4369.86 5482.76 5173.82 3745.02 3720.7 4211.36 5698.53 3604.31 3769.2 3856.73 4450.49 3468.45 5635.32 4526.34 4316.45 5409.08 5042.75 4598.92 5241.22 6647.08 4979.52 3422.29 4407.79 5214.63 3495.68 3990.96 5783.94 5352.24 7362.42 4202.77 5836.14 5473.05 5537.34 5884.99 5726.42 4674.9 3392.26 4433.12 2549.95 4361.24 5138.93 6406.8 5648.78 6875.73 5226.42 6081.3 4983.43 5117.52 6311.89 6734.39 4217.36 5942.45 4150.76 5005.72 5368.52 5155.28 5811.26 5062.77 5205.38 4884.93 4600.71 5262.79 4494.15 5035.71 4419.79 3869.39 5407.69 5152.78 4117.9 5393.43 4753.76 4638.09 4441.91 5330.26 6470.23 5939.22 4215.05 4271.93 5125.17 4859.01 5524.45 5990.75 5600.21 5467.51 5459.92 4625.53 4096.47 5114.67 4104.04 5353.66 2638.82 5030.33 5593.79 5234.2 4965.24 6379.38 6257.79 5353.23 6229.83 4468.26 4523.81 5578.18 5106.33 5293.37 5198.94 5933.54 5559.79 2980.31 5879.24 5740.78 4796.12 5997.91 5385.86 6791.86 4082.4 4209.0 4930.72 5728.58 4887.73 6297.99 5378.24 5817.74 5887.71 4827.61 5661.6 5285.75 5385.03 5481.64 5673.75 5360.67 5968.54 6263.3 4501.05 4537.03 6548.29 4114.2 4326.06 5034.46 5757.29 5793.12 5469.17 5061.75 4373.2 6022.78 4087.32 6647.85 7025.09 5161.74 7336.37 5099.9 6945.69 5118.86 7086.69 6170.9 5833.78 4436.48 5758.98 5615.35 3967.76 5288.64 6213.24 3579.59 4228.53 6123.46 6142.88 5111.26 5388.73 4574.54 4949.55 4764.83 4841.28 1969.87 3957.38 5507.38 6889.5 4710.88 5300.17 4052.43 4057.4 5534.23 6025.77 4781.9 6815.96 5339.6 5828.25 4725.11 3626.86 6371.96 4604.1 5322.07 5076.11 5770.07 5101.6 4282.11 4656.01 6589.13 2347.41 5602.62 4542.16 3543.37 2030.03 5628.97 5527.27 5104.39 4612.13 5847.91 5846.6 5327.05 5438.55 4434.65 5977.66 5209.5 5065.74 5791.25 4873.23 4028.35 5464.05 5453.2 3148.79 6348.93 6824.53 4332.64 4742.82 4422.23 4820.68 6031.22 5485.84 6424.77 5453.69 5918.95 4538.89 5689.56 6556.86 3242.31 6099.28 5372.25 4169.15 3234.26 4778.37 5134.17 4074.16 4904.35 5592.54 3247.97 5124.34 4904.37 4358.81 4651.64 5729.92 5016.46 6224.13 4761.84 3769.24 3661.67 5517.65 4009.68 2569.12 4622.73 4161.32 5256.75 6351.89 5932.28 2960.5 4298.7 4975.32 4183.4 3902.48 4304.64 4733.79 4905.53 4823.06 5254.49 3757.23 6828.8 5987.88 6161.94 4065.28 5057.59 4461.14 5418.98 5285.6 5615.06 3132.34 5490.54 5203.54 4047.95 6142.94 5001.69 4416.87 6581.56 3980.46 4896.67 5383.9 3934.11 5158.44 4466.22 3886.56 4496.51 6153.71 5917.08 5483.37 5418.12 5092.93 5934.05 4714.66 6771.18 4984.17 5781.62 4037.86 4138.59 5714.51 4938.33 4484.78 4621.33 5157.73 4541.22 4946.08 4934.66 4984.01 4109.44 6217.33 4903.84 4290.49 4557.1 6688.53 5927.1 6175.27 5876.51 6731.89 5410.6 5264.83 3901.53 5136.51 6815.51 5232.16 4457.05 3989.26 3618.64 5703.84 4335.79 3530.82 5797.32 5432.04 3921.27 3702.45 3161.1 5265.63 4898.29 4431.06 5730.2 4830.13 3494.16 5620.88 5370.9 4529.77 4325.13 6172.27 5390.33 3783.79 5078.73 5278.54 5729.0 5192.92 5275.57 4179.87 4786.66 5891.25 5370.1 5129.4 5114.51 3303.49 4655.37 5585.25 5023.61 4672.86 6530.78 5560.23 3043.77 5237.55 6030.39 3909.94 6589.8 3799.01 7392.65 5319.1 4181.93 6570.43 6883.86 3350.99 4979.5 4745.37 5939.29 6200.05 5575.11 4052.49 5061.74 5326.03 6189.67 4948.96 5117.83 5256.82 4013.86 4061.87 5165.31 3798.09 4288.5 5715.51 4511.05 3721.69 3456.3 6561.94 5259.21 4256.08 5881.93 2803.01 4444.0 4399.52 4554.24 6182.19 3939.96 5327.39 5910.66 7415.84 4981.81 5141.03 4970.55 8123.59 5765.14 4767.54 3539.68 2927.84 4696.03 6177.68 4605.39 6270.59 6045.26 6500.45 4907.55 4103.76 2932.52 4286.61 4733.41 4603.66 4969.68 6636.43 5431.14 6298.8 5313.86 3689.24 5178.07 5189.91 5777.26 4171.02 7012.36 5028.06 4002.99 4886.99 5159.67 5764.52 5684.88 6523.78 4645.86 4045.67 4941.52 5900.0 4262.74 6241.77 5317.19 4248.14 5279.19 4016.6 5821.49 7050.08 5580.44 5998.13 5095.52 4746.15 3720.38 4758.84 4731.37 3976.0 4068.41 6463.71 5059.37 5783.38 4139.39 6264.03 5088.64 3562.8 5192.82 6920.92 4174.22 3729.16 3783.36 3573.84 3038.91 4067.89 3922.28 3445.92 4571.57 3820.19 5131.07 5236.69 4586.82 3133.28 5524.28 6026.04 5859.17 4034.41 4150.44 5522.34 5771.98 4420.35 5717.45 5772.57 4813.81 5268.27 5244.95 4645.93 5448.64 4585.37 6417.61 5395.12 5783.69 6074.39 5317.83 6738.9 4460.89 4157.1 8052.53 4867.12 6044.01 4637.3 1458.87 5734.07 4840.44 3997.68 4819.83 4801.16 5121.08 5071.38 5688.77 4698.7 6229.64 2848.44 4220.43 6263.87 5743.8 4094.63 5084.76 6605.11 4757.87 3557.46 5971.95 5652.73 3979.46 6321.97 5151.19 6509.54 6119.0 3792.06 5128.59 4293.3 5587.3 3572.73 4864.38 3770.22 4390.64 5150.84 4608.01 5087.97 6005.95 4308.49 4930.17 4581.1 4745.44 4085.96 5762.82 7360.12 6223.98 5462.6 5617.29 3035.06 4262.19 4597.88 4878.93 6275.25 6892.33 4505.3 4452.36 4511.34 4832.21 5009.21 4742.35 5394.79 5645.54 5264.08 4526.87 4227.66 4151.74 4594.89 5245.95 5821.42 4515.02 3463.53 6294.09 6126.03 4121.07 4197.87 2970.24 5105.54 5731.43 6353.81 3518.14 3414.67 5444.36 2649.69 5044.68 6908.32 5899.78 3467.11 5000.74 6153.26 5637.53 4634.25 3882.37 4095.4 5901.8 5188.57 6351.48 3830.7 6210.0 5350.9 3483.61 4262.52 5992.06 5545.68 4970.12 4967.93 6520.19 5973.57 6241.48 6033.28 6286.27 5616.66 4802.36 5368.28 5466.13 5257.38 5075.23 4975.56 7282.36 6666.34 4645.91 5581.01 6834.92 6379.33 5130.57 5090.48 5402.45 3985.93 6412.84 6071.59 2589.19 6079.55 5485.61 4993.49 5310.33 6583.37 4569.32 3688.83 3402.44 4848.98 4491.96 5184.98 4467.51 5339.82 4519.03 5460.57 5110.27 5703.34 4612.68 6668.98 6649.52 4232.33 4939.56 4747.68 5770.92 3093.38 4845.91 2002.78 4461.67 5631.32 6322.0 5793.14 4491.26 4609.65 5704.61 5410.73 4379.91 4574.03 5290.37 5850.38 4691.01 4730.97 3677.85 5214.71 4677.84 4811.11 4924.52 4866.8 6044.69 5658.05 6593.1 5462.1 6032.45 5011.37 4026.03 2827.92 4441.44 5336.61 4817.75 5563.09 4848.15 4439.09 5523.81 4718.61 3873.79 5717.67 5357.33 5252.37 5432.4 5037.58 7430.48 5640.67 6572.17 6080.69 5555.89 4766.47 6369.66 5678.08 5922.62 5125.45 5191.29 5957.82 3784.68 4188.16 3717.22 6327.54 5507.07 4654.92 2943.17 5327.71 4880.78 4322.56 5509.09 5625.02 5212.05 4829.77 3826.01 3928.99 4444.92 6959.88 4125.75 5749.53 5247.73 5034.02 5582.28 5945.25 5181.31 3856.4 4696.06 4137.16 4937.36 5308.4 6581.13 5803.3 5537.61 6084.88 4397.06 4199.44 3543.98 4053.12 4479.5 6261.67 3435.13 5065.78 4431.46 4521.42 3207.84 3977.98 6043.34 4128.93 4959.72 4712.17 3808.04 4723.71 4405.61 6126.5 4034.88 6007.1 6345.2 5488.96 5128.03 3720.92 5087.3 4942.63 6139.74 4975.57 7066.26 3057.3 6150.31 5873.62 4996.91 3920.44 5379.52 3768.62 5314.67 5563.47 5651.46 4066.36 4000.51 6033.93 3162.27 5516.37 5092.44 5432.2 4232.44 4612.4 3312.3 4746.19 6381.58 3282.57 4798.13 5648.59 6697.45 5515.59 4432.32 3224.81 4499.54 3775.38 4046.22 6457.89 4844.2 3751.73 6118.13 3374.62 4926.62 4871.1 3917.09 6009.93 5872.45 4414.09 5270.1 4947.64 6305.9 6649.21 3470.69 4859.95 5286.55 4132.08 5522.18 5223.1 3873.72 4592.49 3625.98 5479.86 6474.5 4702.32 4763.04 5971.9 3746.62 4532.67 4876.37 4769.62 5260.13 4649.5 4810.74 5985.75 5475.83 6189.29 5984.55 5672.46 3228.27 4721.98 5252.82 4142.1 5056.26 5878.55 4014.44 6604.72 6002.77 3794.47 4610.55 4967.02 4614.49 5400.69 4462.5 5573.31 5004.68 4023.88 4179.8 5348.11 3488.34 5428.24 5108.84 4582.12 3511.5 4520.14 5067.92 5357.14 3188.21 5919.27 4793.06 6637.38 6188.33 6111.23 6916.18 5786.06 4137.41 3868.69 5447.74 4450.51 6033.72 3851.47 4966.74 4959.94 1635.31 5639.4 6185.73 4083.24 6520.96 3771.91 5217.62 6178.19 4616.81 5715.25 5212.2 4611.21 5108.42 4630.5 3354.94 6296.36 4451.76 5237.27 7885.41 5782.25 4104.97 4575.72 4081.77 5114.61 4948.21 4987.01 4420.3 2181.29 6332.64 6492.44 4083.1 3482.73 3996.93 5130.56 4957.99 4063.26 4997.89 4542.62 5093.28 6131.52 6009.88 4699.77 4850.49 4981.55 5144.23 6188.62 6153.07 4414.06 5944.52 4413.56 5050.2 2513.38 5316.05 4908.32 3995.08 5019.84 3900.93 5784.38 4149.17 4329.8 5728.27 3074.49 5202.33 3956.24 7558.99 3393.59 4032.06 5043.14 5333.04 5445.91 4521.99 4812.59 6842.54 7115.67 5675.45 3361.11 6038.56 2807.46 5599.16 4577.98 5658.35 5886.81 4487.51 4295.25 7394.47 4850.95 4729.45 5374.09 6271.22 3421.81 5378.75 3920.64 6186.24 5822.7 3780.07 4159.89 5466.49 4038.17 5007.41 3692.99 4907.48 6213.74 2329.93 4369.87 6938.87 5412.07 5512.57 4806.99 4813.55 5856.43 3465.03 3839.0 5349.85 5799.86 5172.1 4362.94 4469.82 6545.78 4870.14 4404.87 2932.2 5105.72 5767.65 5003.49 4750.76 4907.03 5497.27 5617.91 4721.2 4202.12 4706.31 2694.25 4735.99 4203.68 4739.56 4613.32 5145.39 3352.46 6351.95 5195.09 5345.05 7679.2 4881.51 4311.92 2626.41 6729.99 5093.41 6842.35 5464.34 3621.63 4777.96 5801.89 5908.57 7296.47 5742.39 4821.41 4924.53 5616.11 4499.52 4813.24 4028.13 3874.12 4457.73 6476.35 3113.64 6260.58 3053.19 4067.24 6139.9 6571.26 5580.95 3549.92 6598.99 5250.56 5246.81 5089.1 5888.95 5394.78 3463.34 5169.09 5122.38 2853.68 5262.85 4998.37 5329.84 6559.82 3879.83 5342.9 6565.95 5733.12 5043.34 4246.24 6805.02 5354.48 5640.63 4900.26 6261.13 4167.55 4720.34 5244.47 4731.16 5510.89 6470.87 4495.33 5282.67 5747.9 5178.55 5146.69 6203.24 6818.23 4488.41 6679.12 5652.19 5806.74 6578.62 6284.12 4796.04 5229.56 6011.4 4672.34 6052.22 5376.41 5003.63 4695.7 4944.08 4082.01 5269.39 3964.03 4305.35 4216.33 5210.22 5832.72 2451.27 3903.9 4444.95 5161.02 3124.49 6265.48 5003.81 6262.18 4701.03 3818.37 6225.05 5434.04 5200.1 3997.52 4444.54 5779.9 4909.74 5310.33 5299.03 6664.54 3922.98 5161.73 5259.48 5254.93 4803.4 6833.5 6608.94 2613.78 4780.16 5417.07 3834.01 5738.37 4433.23 4739.41 5759.19 5847.27 4490.2 4304.75 5480.86 4720.22 4313.38 5827.3 6036.99 3633.58 2468.16 3825.98 6294.14 4339.97 5203.75 3906.41 4691.15 2459.88 4512.6 4210.24 5470.67 5901.71 5225.11 5252.22 4962.35 6436.29 5402.81 4600.81 4328.76 4919.13 5168.97 4124.33 5783.88 5002.38 6705.93 4865.11 5449.09 5502.14 4605.61 4465.56 4131.08 5386.95 3864.19 4287.93 5332.11 5315.71 6158.93 5081.65 4823.14 5438.5 4621.32 5699.4 3878.8 4698.94 3948.21 4286.84 5669.15 5296.05 5263.86 3330.85 5056.32 5533.52 5410.33 4747.24 4380.86 5576.16 5648.02 3308.75 4439.17 5677.42 4929.35 5606.22 3943.77 5242.38 6081.35 5459.52 4609.98 5566.5 5663.36 4276.59 5579.04 5125.53 5994.21 5403.81 5082.25 6964.78 4374.05 5036.84 4565.36 5813.68 4025.08 4008.67 3618.53 4770.21 8013.28 3846.55 3796.73 3082.16 4644.68 5656.84 6789.66 5416.41 5312.2 4706.59 5734.84 3982.31 4950.07 4582.24 2832.83 4474.96 4084.87 3010.1 5259.29 3584.05 4589.22 5087.03 4818.53 4667.84 5584.64 4123.08 6224.64 4260.38 4636.45 3799.55 4932.27 5638.51 6793.49 3563.33 6060.19 5536.0 6786.37 4333.23 5145.13 5561.63 5940.5 4358.06 5093.51 5647.93 4280.92 6201.49 4696.92 5154.74 6437.99 6898.8 6540.57 4893.72 6004.72 4072.4 5373.78 5345.65 5863.36 4489.18 4632.75 5237.76 4752.94 4994.98 6423.96 6058.13 5894.69 6988.4 6635.51 4060.17 6051.35 5302.53 4909.13 4287.61 3999.81 4867.13 4604.34 4863.27 2701.42 5442.79 5051.39 6673.92 5151.68 4884.94 5362.15 4455.61 4738.72 4752.31 5240.97 5569.85 5405.6 3929.35 4884.93 4759.38 6960.97 4287.15 5282.51 5504.65 5669.41 5732.11 5040.9 5596.68 4868.66 4004.39 5159.9 5283.65 2892.36 5981.54 5911.29 4542.25 4694.27 6760.64 2515.5 4849.21 5177.88 5551.79 3793.83 6981.47 3916.15 5367.05 4758.76 4790.63 4088.72 3945.62 4916.75 5097.85 6379.3 6189.04 4221.03 5189.4 5082.66 4550.77 4337.93 3550.88 5201.3 4345.51 4048.73 6223.33 3860.8 3747.96 5611.29 4521.88 6568.45 5004.22 4601.54 7263.57 3832.09 5705.96 5267.65 5739.69 6632.04 5360.88 7360.62 4977.64 4985.45 4983.56 5699.51 2489.44 5499.37 4883.13 4836.76 5551.09 3950.53 4501.1 5581.47 4384.91 6550.61 4987.01 4713.56 6094.34 6779.82 5543.67 6210.48 6377.45 4182.05 4502.12 3255.93 6853.07 6327.61 4633.59 5733.59 5575.8 5268.93 3695.72 6874.6 5106.9 5306.31 5523.96 4223.53 4733.37 4535.94 3037.72 4523.9 5126.08 5604.0 3760.4 4951.02 3919.47 4602.7 3783.35 4037.16 6395.63 4987.48 5943.61 4248.58 5479.17 5020.37 4414.23 5233.88 4785.55 5245.4 6189.81 4449.73 5647.11 3743.85 6236.46 5342.17 5015.67 3795.63 4576.71 6538.04 4894.15 6157.59 5848.41 4090.28 4246.83 5438.6 7370.52 4726.5 5467.05 3724.23 5103.3 4963.88 5888.94 4727.98 4122.2 5175.88 4516.26 4790.16 3509.34 3647.26 3731.58 3166.37 5369.42 5207.08 5205.53 4714.52 4587.19 5543.05 6028.89 5333.16 4888.17 5755.98 5392.85 5077.2 4274.05 5275.27 4277.54 5529.09 4531.46 5925.82 5448.68 4739.5 4072.95 4491.62 3865.5 
SCALARS Velocity float 1
LOOKUP_TABLE default
1.61362 1.5089 1.49561 1.53231 1.59174 1.5846 1.40634 1.59916 1.57904 1.5209 1.5425 1.6771 1.60983 1.72604 1.63507 1.58633 1.60369 1.62969 1.57136 1.53388 1.59337 1.62397 1.40119 1.56925 1.57993 1.52984 1.57131 1.68242 1.68334 1.62935 1.71194 1.60828 1.61396 1.4299 1.59725 1.78218 1.67306 1.70334 1.68278 1.62876 1.56185 1.56521 1.52106 1.59934 1.57939 1.58552 1.64894 1.71968 1.49888 1.56331 1.57264 1.61942 1.57868 1.59663 1.56321 1.62212 1.59763 1.61336 1.60692 1.63921 1.36257 1.70092 1.37362 1.6784 1.70106 1.674 1.65305 1.6094 1.57341 1.57025 1.501 1.50806 1.61172 1.65763 1.76534 1.42422 1.6479 1.60857 1.58548 1.65643 1.59145 1.50013 1.63613 1.59905 1.56421 1.15246 1.40708 1.69942 1.6609 1.60801 1.60368 1.56942 1.47014 1.57059 1.64399 1.56824 1.6481 1.78046 1.387 1.61032 1.70332 1.61262 1.6152 1.46071 1.77528 1.56632 1.4228 1.54911 1.55275 1.61753 1.15434 1.55798 1.22817 1.66033 1.62062 1.62606 1.58223 1.54953 1.51757 1.63523 1.70158 1.67459 1.64029 1.72088 1.82162 2.43596 1.78351 1.74705 1.66895 1.54771 1.62721 1.48772 1.71369 1.86004 1.57353 1.46715 1.59443 1.60106 1.61471 1.41867 1.5964 1.56353 1.53867 1.47962 1.51291 1.54311 1.51898 1.75192 1.83768 1.63284 1.66335 1.86812 1.96866 1.50394 2.73305 2.66036 1.63903 2.49621 3.8503 1.46917 2.13542 1.89296 1.75053 1.54874 1.55423 1.59755 1.77268 1.40131 1.34623 1.47605 1.50442 1.4696 1.44206 1.40849 1.54733 1.48359 1.46904 1.47875 1.54343 1.70285 1.50832 1.86676 1.69282 1.82698 1.96256 1.99728 0.439912 1.9771 1.54117 1.23998 1.17869 1.47058 1.1681 1.77328 1.29903 1.51501 1.62371 1.74673 1.83337 1.39384 1.6749 1.42861 1.73976 1.19652 1.37786 1.42384 1.44461 1.44034 1.46717 1.50973 1.49377 1.49034 1.46452 1.30545 1.39543 1.43611 1.69185 1.26881 1.21237 2.06711 1.29947 1.11408 1.13525 1.03383 1.1321 1.06409 1.04197 1.15462 1.16 1.14092 1.16573 1.16547 1.46954 1.31204 1.59077 1.35727 1.37386 1.06855 1.24013 1.4779 1.40107 1.10892 1.43769 1.71804 1.2853 1.19499 1.4731 1.27406 1.33185 1.44406 1.37418 1.31846 1.4114 1.42602 1.42677 1.35778 1.29268 1.3748 1.34459 1.53227 1.46783 1.54313 1.44814 0.845746 1.63795 1.45805 1.32996 1.52557 1.43489 1.2192 1.03009 1.00948 1.08131 1.07535 1.04843 1.08153 1.03474 1.14783 1.12522 1.1127 1.16363 1.19241 1.2259 1.62692 1.17112 0.903069 1.57702 1.22234 1.40961 1.12479 1.23846 1.10562 1.1329 1.4679 1.2657 1.21624 1.28752 1.33173 1.35726 1.28822 1.31564 1.27887 1.31403 1.38299 1.36681 1.38572 1.46409 1.39581 1.23954 1.1732 1.20119 1.26657 1.35437 1.56868 1.57108 1.78569 1.58832 1.01815 1.61837 1.28328 0.921531 0.936718 0.832872 1.18226 1.33399 1.04732 1.21836 1.05829 1.07337 1.06539 1.04612 1.06291 1.07705 1.06893 1.07064 1.03292 1.15204 1.12073 1.12844 1.11795 1.15849 1.14614 0.954136 0.938 0.471667 0.85769 1.02352 1.20534 1.13925 1.19521 1.12532 1.14354 1.10181 1.21427 1.20881 1.19294 1.34938 1.37799 1.22176 1.2979 1.32482 1.40119 1.47092 1.30859 1.22429 1.2238 1.29316 1.19173 1.33405 1.52597 1.03972 0.794085 0.999761 0.914495 0.559067 1.11753 1.05809 0.899979 0.952587 1.00196 0.965723 1.08988 1.07034 1.00929 1.05699 1.09062 1.02359 1.1092 1.00384 1.03699 1.02432 1.06604 1.03897 0.995766 0.956512 1.00697 0.993903 0.992481 0.946886 1.00343 1.04299 1.04702 1.04637 0.953572 0.99723 1.1064 1.21999 1.15473 1.17035 1.14809 1.30747 1.13397 1.17315 1.17849 1.17966 1.209 1.32687 1.4227 1.15266 1.2498 1.23338 1.39187 1.30664 1.20648 1.24639 1.21735 1.22292 1.22861 1.20746 1.22719 1.22234 1.20566 1.12838 1.17157 1.00291 1.30075 1.20573 1.01315 0.886633 0.823322 1.06261 1.04 0.954328 0.980853 1.00114 1.01047 0.980177 1.00055 1.00556 0.937349 0.897392 1.12744 0.96708 0.901349 0.922229 0.987305 0.970022 0.991671 0.934017 1.02125 1.00256 1.02796 1.0267 1.04096 0.939353 1.00945 0.960153 0.969385 1.0842 1.07751 1.19466 1.0798 1.0284 0.993177 0.946877 1.08527 1.05595 1.14779 1.07897 1.14405 1.18479 1.19788 1.23874 1.25346 1.00165 1.11691 1.12864 1.18827 1.2733 1.20667 1.18087 0.923936 0.915412 1.30793 1.21256 1.22835 1.12375 0.896122 1.19243 1.28481 1.27669 1.22377 1.18882 1.15955 1.18353 1.2564 1.19566 1.16087 1.13211 1.14716 1.0223 0.994625 1.13064 1.03947 0.991429 0.923406 0.993191 0.990687 0.951777 0.995948 0.936943 1.04343 0.934417 0.95906 0.964701 0.822718 1.00886 0.916629 0.838615 0.942122 0.911457 0.958199 0.950828 0.959783 0.944409 0.954666 0.958727 0.95464 0.939218 0.92152 0.9586 0.918617 0.989387 0.930397 0.987519 0.939904 0.961521 0.889084 0.91964 1.11087 1.21952 1.09656 1.33008 1.13851 0.927541 1.21196 1.14384 1.04651 1.11872 0.922947 1.16525 1.09851 1.19267 1.18703 1.11074 1.12788 1.15353 1.05375 1.1311 1.11745 1.14488 1.15408 1.16231 1.06176 1.04665 1.21405 1.13223 1.05653 0.999957 1.09936 1.19677 1.17284 1.16472 1.1339 1.11765 1.05496 1.10999 1.10445 1.07224 1.04804 1.06129 0.952342 1.30036 1.03303 1.32197 1.19658 1.0443 0.996492 0.980805 0.978838 0.959843 0.99407 0.969658 0.998017 0.974139 0.929664 0.790932 0.89221 0.929507 0.818791 0.916559 0.914061 0.910501 0.869159 0.883598 0.905104 0.722384 1.04418 1.07237 0.959406 0.856705 0.918288 0.942577 0.929525 0.884785 0.878876 0.90792 0.866412 0.881531 0.857585 0.863366 0.886037 0.937807 0.92764 0.99196 0.894836 0.929005 0.820743 0.805922 0.753532 0.583602 0.883379 0.985321 0.974218 1.08651 1.02842 1.19671 1.81273 1.27951 1.16699 1.02042 1.05351 1.14851 1.21983 1.08782 1.11364 1.09868 1.103 1.12189 1.07903 1.1997 1.09774 1.02012 1.1005 1.04866 1.04969 1.07404 1.03977 1.09907 1.09334 1.08524 1.16281 1.13871 1.07618 1.00048 1.03168 0.990198 1.02431 1.01816 1.03323 1.05008 0.276387 0.801993 0.673731 1.0109 1.00183 0.996257 0.979016 0.958181 0.976649 0.941376 0.936798 0.994225 1.00424 0.822133 1.07025 0.918275 0.94239 0.968682 0.906308 0.884886 0.96213 0.876068 0.945647 0.90761 0.926641 0.726912 0.71197 0.955524 0.836228 0.898913 0.853262 0.865502 0.890548 0.862348 0.868466 0.824714 0.823966 0.98062 0.881439 0.914053 0.869013 0.841167 0.774836 0.77948 0.919836 1.03041 0.997289 1.02509 0.99974 0.947023 1.03011 0.804139 0.494488 1.22247 0.981032 1.03589 0.974498 0.689128 1.09014 1.0609 1.07304 1.07898 1.06965 0.937778 1.03804 1.05811 1.03585 1.04364 0.989404 1.12644 1.15103 1.15811 1.10373 1.01591 1.01228 0.983379 0.989148 0.998742 1.02809 1.02729 1.03718 0.98073 0.925609 0.901223 0.992785 0.990376 0.973588 0.991611 0.991183 0.964895 0.96614 0.925986 0.979407 0.872694 1.19218 0.838642 1.03878 1.00544 0.968101 1.00391 1.02502 0.922071 0.943217 0.918365 0.941191 0.951712 0.962625 0.800105 0.827768 0.80112 0.785311 0.775812 0.765422 0.804403 0.879179 0.925522 0.901368 0.909499 0.912799 0.87589 0.952038 0.849794 0.931279 0.903318 0.824152 0.838955 0.920627 0.849428 0.860956 0.849036 0.8746 0.880206 0.873848 0.950644 0.945337 0.963724 0.996203 0.961896 0.897322 0.830382 1.11588 1.04043 1.10149 1.15127 1.10781 0.898163 0.885904 1.04784 1.08147 1.10384 1.13171 1.07181 1.00051 0.957887 0.961408 1.05642 1.0845 0.99927 0.878709 0.91689 1.08165 1.0834 1.1197 1.10644 1.09589 0.958175 0.995266 0.988747 0.990913 0.980722 1.01889 1.03239 1.06146 1.0043 1.01395 0.928563 0.957739 0.972584 1.00925 0.981691 0.961651 0.975118 0.979334 0.987442 0.978386 0.970603 0.959748 0.904993 0.828036 0.849846 0.832982 0.924808 0.971327 0.84766 0.901439 0.941628 0.902768 0.850871 0.841244 0.759888 0.883096 0.826935 0.973684 0.858162 0.951173 0.933488 0.971937 0.930814 0.922363 0.927815 0.941798 0.853398 0.819412 0.796737 0.809048 0.920262 0.872979 0.872656 0.93447 0.975163 0.910795 0.857403 0.846047 0.848347 0.843549 0.897523 0.952386 0.94499 0.963481 0.915985 0.938188 0.931116 0.927449 0.928278 0.944907 0.948462 0.981212 1.0036 0.978815 0.83081 0.896326 0.920783 1.07069 1.05747 0.979654 0.967132 1.02006 1.15552 1.13914 1.02704 1.01375 0.997613 0.983281 0.948538 1.13487 1.07815 0.959822 0.977912 0.919287 0.887837 0.965922 1.17573 1.08988 1.08401 1.04793 0.991549 0.992186 0.979672 0.99619 0.967391 0.986233 0.95867 1.00989 1.04579 1.13486 0.946845 1.02084 1.07468 1.12733 0.96019 0.939908 0.915936 0.948957 0.953804 0.978044 0.96501 0.955342 0.933574 0.847355 0.890787 0.823344 0.847783 0.885397 0.964476 0.954488 0.837507 0.974789 0.84004 0.855833 0.896003 0.85655 0.855018 0.929858 0.880112 0.929254 0.921162 0.854234 0.905931 0.880923 0.868972 0.785744 0.814636 0.846695 0.819504 0.871572 0.863372 0.910058 0.881561 0.861829 0.876609 0.944194 0.85334 0.970146 0.847728 1.01289 0.782711 0.924811 0.822347 0.998205 1.08113 0.983729 0.987891 0.900143 0.897874 0.928235 0.886304 0.918852 0.922108 0.886294 0.894213 0.902899 0.903773 0.946461 0.881584 0.82984 1.019 0.938968 1.07583 1.1116 1.05034 1.29229 1.06621 1.25581 1.03901 0.988613 0.997928 0.985065 1.10394 0.880117 0.954045 0.94797 0.928572 0.950475 0.924277 1.11692 1.0717 1.02045 1.03207 1.02709 0.971375 0.966813 0.951549 0.960872 1.0681 0.730996 1.13217 0.596671 1.21964 1.0203 0.96752 1.00603 0.950153 0.958379 0.960483 0.965416 0.923962 0.879726 0.843142 0.865473 0.970368 0.823724 0.870302 0.889505 0.83971 0.892627 0.849133 0.867696 0.858107 0.843922 0.869833 0.852166 0.857356 0.844249 0.858073 0.813055 0.807797 0.854073 0.827112 0.803767 0.839313 0.797985 0.845419 0.796186 0.861365 0.887147 0.83858 0.880031 0.874366 0.755219 0.89019 0.857866 0.856068 0.866743 0.874607 0.856667 0.862339 0.855139 0.875754 0.929149 0.740823 0.936667 0.987943 0.873747 0.851009 0.858095 0.875233 0.881786 0.882799 0.875766 0.845222 0.851044 0.870748 0.768596 0.836815 0.73731 1.02722 0.958134 0.947743 1.02736 1.14089 1.43183 1.09145 0.788653 1.01014 0.948187 1.01725 1.05342 1.0433 1.03022 1.0011 0.91678 0.927699 0.930758 0.925734 0.907535 0.95369 1.03287 0.945447 1.08625 1.0663 1.00021 0.965093 0.999787 1.02588 1.06933 0.91511 0.926555 0.96409 0.806102 0.457351 0.795754 0.976224 0.964034 0.952451 0.960132 0.931923 0.903473 0.927582 0.891502 0.860276 0.88693 0.900363 0.789786 0.83509 0.847802 0.835827 0.870297 0.877517 0.852755 0.857429 0.850791 0.803737 0.85355 0.781774 0.784861 0.752178 0.666229 0.749865 0.736789 0.901246 0.821726 1.03703 0.89973 0.854463 0.744322 0.801469 0.765486 0.749067 0.742363 0.800507 0.825652 0.827211 0.86192 0.790442 0.809285 0.780783 0.772613 0.798941 0.824972 0.783844 0.810439 0.856277 0.811036 0.811605 0.935018 0.900835 0.937091 0.885591 0.882246 0.887968 0.884882 0.885663 0.880626 0.879984 0.87521 0.885153 0.883315 0.878056 0.851866 0.885515 0.850455 0.872173 0.841744 0.876253 0.871201 0.782726 0.860605 0.883655 1.14709 1.01078 0.76325 1.05808 1.01322 1.02417 1.05433 1.05031 1.07337 1.05615 0.996465 0.970158 0.966545 0.935792 0.931822 0.935319 0.929639 0.918749 0.973225 0.764108 1.17533 1.30898 1.0644 1.05229 1.00978 1.06769 1.05851 1.0608 0.984337 0.939687 0.787326 0.745221 0.876553 0.845876 0.914393 0.933624 0.959858 0.951018 0.966872 0.954843 0.925073 0.931333 0.915875 0.883238 0.933713 0.871709 0.914713 0.768042 0.842459 0.812869 0.831579 0.804834 0.825938 0.845405 0.843371 0.870915 0.838408 0.876991 0.892727 0.765263 0.851308 0.829266 0.644539 0.804277 0.756113 0.661048 0.730318 0.793532 0.982605 0.577366 1.18421 1.27683 1.22679 0.639864 0.65877 0.735034 0.785429 0.841057 0.884114 0.936775 0.830508 0.636634 0.624493 0.725964 0.675116 0.831637 0.858282 0.81728 0.887312 0.878019 0.829266 0.79883 0.904516 0.969164 0.903731 0.889544 0.894276 0.884738 0.883665 0.879745 0.875597 0.880998 0.911708 0.903123 0.905384 0.87599 0.941702 0.930256 1.01363 1.13627 0.784286 0.925661 0.985666 0.950637 0.969526 1.05495 1.04736 1.04659 1.0562 1.09435 1.00646 0.950288 0.955037 0.942639 0.950845 0.951688 0.938798 0.949731 0.945523 1.1771 0.491375 1.12002 1.1207 1.12817 1.1078 1.05743 0.99287 0.954378 0.915566 0.92371 0.858464 0.881149 0.931978 0.914183 0.941765 0.954302 0.957701 0.94138 0.929341 0.934485 0.932066 0.909956 0.879402 0.902523 0.892924 0.861456 0.836216 0.831981 0.829868 0.816213 0.822058 0.829193 0.854365 0.846977 0.826978 0.870191 0.872651 0.925674 0.870583 0.904745 0.707374 0.984001 0.680869 0.665887 0.891649 0.760974 0.799326 0.794998 0.522062 0.404613 0.764766 0.612313 0.928544 0.806198 0.294736 0.689038 0.885919 0.823358 0.776108 0.846703 0.942436 0.606034 0.724493 0.763909 0.789147 0.79456 0.869052 0.798755 0.845707 0.928555 0.894474 0.883226 0.875668 0.856681 0.843175 0.936279 0.880915 0.959764 0.95381 0.924736 0.901645 0.901968 0.868687 0.892272 0.882594 0.895883 0.933245 0.919926 0.942828 0.916993 0.929521 0.82072 1.08149 0.984819 1.05282 0.867128 0.820573 0.851486 1.136 1.06358 1.04571 1.05213 1.05575 1.04653 1.05349 1.11212 0.98089 0.962563 0.96446 0.98908 0.958755 0.976606 0.958849 0.977453 0.960526 0.96562 0.974282 0.932995 1.02867 1.02884 0.875814 0.852653 1.06659 1.13542 1.11082 1.00019 0.949289 0.929098 0.945976 0.920707 0.947208 0.945435 0.954372 0.949959 0.959118 0.965225 0.950108 0.944755 0.923783 0.902237 0.922673 0.895775 0.877061 0.841799 0.839249 0.833193 0.804116 0.813056 0.830893 0.818511 0.836053 0.836029 0.833629 0.837562 0.863186 0.883469 0.809053 0.981561 1.07627 0.888689 0.825594 0.749125 0.806792 0.715448 0.790235 0.724659 0.487026 0.498109 0.611162 0.633267 0.871706 0.911744 1.13485 0.9217 0.700487 0.637197 0.748385 0.656073 0.554732 0.583735 0.961894 0.997362 1.02635 0.789503 0.76987 0.916313 0.566781 0.71615 0.53077 0.899994 0.745493 0.687015 0.638614 0.770566 0.856168 0.865362 0.884398 0.887165 0.887962 0.868106 0.839788 0.910534 0.912132 0.922362 0.892512 0.900647 0.887428 0.885759 0.879494 0.886249 0.891298 0.913382 0.94983 0.968728 0.959753 1.0599 0.988431 0.900632 0.989444 0.889435 0.952473 0.888334 0.818958 1.20316 1.09198 1.01724 1.03 1.06948 1.01634 0.967449 0.993518 0.981026 0.984356 0.981823 0.973613 0.927248 0.963842 0.968809 0.920491 0.94037 1.03388 1.13925 1.11471 1.06865 0.936592 0.886476 0.919688 0.952169 0.943793 0.943313 0.955441 0.927599 0.954261 0.985203 0.996993 0.973137 1.09 0.983344 0.918366 0.932568 0.915374 0.942843 0.904709 0.928437 0.884021 0.894156 0.849846 0.822459 0.823371 0.808971 0.820826 0.828927 0.858689 0.824821 0.844666 0.89553 0.821126 0.950954 0.867182 0.908167 0.674468 0.919846 0.683005 0.604287 0.590396 0.967392 0.629051 0.615808 1.00008 0.683493 0.827936 0.91488 0.823766 0.964739 0.728078 0.631725 0.710301 0.635118 0.726953 0.847057 0.739557 0.585094 0.674706 1.09965 0.951806 0.98537 0.936116 0.672003 0.50392 0.523963 0.607797 0.625042 0.481793 0.37837 1.06843 0.615129 0.770714 0.644929 0.670682 0.775304 0.803807 0.901006 0.878876 0.87925 0.873766 0.831032 0.798573 0.717291 0.901503 0.932663 0.926976 0.892269 0.855083 0.875159 0.901693 0.94152 0.97154 0.955242 0.892202 0.883762 0.753734 0.961907 0.958007 0.995272 0.93206 0.941348 0.852406 0.757134 1.13 1.00645 1.00474 1.05686 1.03582 0.98879 0.996115 0.969965 0.981852 0.984015 0.987357 0.993721 0.988519 0.994044 0.98515 0.978013 0.954092 0.956921 0.952155 0.934914 0.961359 0.901996 0.929922 1.07099 1.18347 1.20342 1.01505 0.808564 0.926333 0.943624 0.945596 0.942195 0.932055 0.88932 0.947432 0.902129 0.92804 0.922273 1.01896 1.19612 0.976087 0.939763 0.936483 0.961876 0.94845 0.94425 0.914148 0.931324 0.881999 0.890564 0.84895 0.850064 0.823452 0.811351 0.810547 0.804644 0.80394 0.796779 0.785433 0.791488 0.770745 0.812271 0.831099 0.821299 0.783618 0.880746 0.973889 0.702096 0.740442 0.709363 0.585886 0.565646 0.741329 0.858366 0.799908 0.692831 0.748282 0.677028 0.68901 0.668097 0.681807 0.673423 0.67984 0.64572 0.710939 0.714211 0.61328 0.699415 0.247504 0.507407 1.02875 0.688774 0.801894 0.735687 0.706358 0.735158 0.810182 0.688111 0.690981 0.470828 0.695931 0.687697 0.665207 0.873708 0.922106 0.952907 0.94365 0.877612 0.893982 0.879776 0.86436 0.827142 0.858396 0.818415 0.765933 0.691059 1.01552 1.0178 1.03202 0.995777 0.984915 0.956016 0.931137 0.907213 0.898721 0.838901 0.943336 0.970024 0.914973 0.901015 0.837373 1.00371 0.986578 0.959026 0.911527 0.810126 1.08151 1.11972 1.05549 1.04252 1.03951 1.00723 0.999682 0.977166 1.00556 0.996183 0.990856 1.00673 0.991352 0.960248 0.971604 0.95528 0.967164 0.964813 0.981409 0.979741 0.814931 1.04014 1.02828 1.11109 1.12285 1.01766 0.873971 0.917798 0.847372 0.907519 0.923136 0.957212 0.860196 0.863571 0.877924 0.908259 0.936304 0.925416 1.18228 0.962119 0.869428 0.979937 0.962593 0.874267 0.825945 0.829546 0.811237 0.818896 0.81713 0.796231 0.781773 0.759905 0.775548 0.775414 0.803023 0.807719 0.712288 0.874726 0.734227 0.750006 0.722132 0.564252 0.675872 0.565972 0.719099 0.485647 0.701851 0.700969 0.82151 0.968656 0.740216 0.800267 0.771362 0.688041 0.676989 0.66273 0.672595 0.641565 0.663764 0.579592 0.606363 0.652847 0.644847 0.601663 0.644418 0.635645 0.623008 0.589219 0.572259 0.67574 0.647603 0.631322 0.701217 0.768017 0.821526 0.755387 0.794311 0.802087 0.772894 0.88832 0.712215 0.644214 0.7949 0.735814 0.617387 1.01954 0.967392 0.985943 1.08668 0.958427 0.908533 0.811681 0.78369 0.771693 0.701674 0.640729 0.902084 1.10238 1.00163 0.904093 0.902728 0.879948 0.812601 0.923033 0.931821 0.931647 0.947502 0.909349 0.88785 0.871889 0.930835 1.00513 0.981448 0.962524 0.96739 0.892304 1.11107 1.04057 1.06448 1.04453 0.992194 0.999472 1.05749 1.02791 1.01634 1.00214 1.00873 1.01941 0.99675 0.958962 0.969519 0.981983 1.02677 1.16115 1.08032 1.07386 1.07648 0.977858 0.915745 0.885166 0.891601 0.936903 0.957114 0.968278 0.830341 0.890382 0.880403 1.01276 0.966022 0.696036 0.877843 0.936047 0.966578 0.983311 0.837216 0.800399 0.822017 0.850354 0.82828 0.826447 0.813829 0.765626 0.7488 0.734445 0.76305 0.791949 0.790616 0.80558 0.812125 0.947951 0.697201 0.631067 1.02919 0.754476 0.785507 0.71563 0.759712 0.626129 0.695535 0.543975 0.729064 0.710207 0.61901 0.632073 0.648417 0.626863 0.636265 0.567833 0.585417 0.616964 0.60304 0.625566 0.641571 0.517271 0.57085 0.593757 0.465199 0.401703 0.495796 0.550692 0.630658 0.651822 0.674835 0.663395 0.651839 0.716103 0.760085 0.80581 0.787323 0.812782 0.753848 0.866494 0.463086 0.435376 1.29055 1.09746 1.06875 0.998699 0.976205 0.864392 0.829097 0.780785 0.728125 0.703712 0.759961 0.753969 0.797082 0.962699 1.05062 0.970739 0.896563 0.88538 0.85248 0.913422 0.926042 0.916155 0.911309 0.956499 0.985588 0.983076 0.980271 0.967595 0.936446 0.970939 1.07603 1.08613 1.05436 1.06812 1.00305 0.983033 1.02736 1.03606 1.03139 1.03363 1.01869 1.00136 1.0348 1.01335 0.969634 0.950555 0.991259 0.988726 1.01513 1.11392 1.17722 1.09514 1.01842 0.95424 0.997623 0.989754 0.941629 0.902408 0.949098 0.94229 1.05269 0.994318 1.25205 0.863088 0.994176 0.943052 0.880364 0.84633 0.90395 0.908544 0.989075 1.09001 1.03294 0.77084 0.839358 0.862824 0.849956 0.839823 0.837549 0.798711 0.834571 0.831434 0.753628 0.751195 0.744716 0.781203 0.787937 0.805714 0.798463 0.766178 0.764811 0.802559 0.940562 0.36784 0.209071 0.592614 0.657046 0.672989 0.618262 0.680789 0.661655 0.650908 0.564972 0.618399 0.647922 0.601759 0.592445 0.618504 0.548225 0.492175 0.408466 0.505908 0.566743 0.362626 0.502238 0.651324 0.668196 0.521215 0.516845 0.499157 0.268603 0.292414 0.618744 0.209657 0.274254 0.515564 0.64698 0.711031 0.68339 0.623339 0.632407 0.639094 0.625365 0.658781 0.693937 0.786818 0.772699 0.804753 0.795183 0.797369 0.674562 0.687461 0.465724 0.353824 1.12986 1.2104 0.918251 0.366348 1.22713 0.916484 0.776774 0.783429 0.767934 0.73098 0.645305 0.776551 0.961484 0.882723 0.970442 0.964218 0.968312 0.906951 0.885037 0.897827 0.880797 0.933119 0.946559 0.935327 0.977187 0.98177 0.984796 0.983861 0.972224 1.00044 1.04774 1.07952 1.04565 1.09762 1.00927 1.0528 0.933106 1.01954 1.05017 1.01434 1.04722 1.03971 0.999253 0.9726 0.976879 1.0266 1.02613 1.02211 1.16965 1.21137 1.0909 0.958503 0.956491 0.942713 0.969159 0.930651 1.06079 1.31245 0.768313 0.700902 0.947725 0.925336 0.959381 0.93444 0.92451 0.943029 0.825695 0.619509 0.729285 0.842593 0.774852 0.845873 0.868878 0.878695 0.772703 0.74185 0.788892 0.760115 0.718987 0.856194 0.774289 1.09531 0.400633 1.03181 0.52166 0.635084 0.617944 0.656293 0.644007 0.673565 0.663923 0.655184 0.611395 0.614863 0.631022 0.55918 0.506493 0.404049 0.383338 0.447006 0.469565 0.514986 0.446384 0.580484 0.557936 0.399988 0.61196 0.434519 0.356463 0.485684 0.347331 0.24466 0.132849 0.16199 0.0690784 0.289638 0.185422 0.535646 0.461102 0.62154 0.567835 0.534346 0.610978 0.635625 0.585493 0.647246 0.647972 0.710252 0.787843 0.782337 0.773986 0.772124 0.601798 0.691979 0.856736 0.95341 1.22244 1.26845 1.12755 0.881913 0.70058 0.881529 0.882991 0.757752 0.750996 0.753967 0.701064 0.940046 0.961036 0.871945 1.09034 1.00376 0.932422 0.89447 0.887918 0.885126 0.901914 0.904831 0.940456 0.957704 0.989707 0.993793 0.98678 1.00202 1.00884 1.03816 1.06238 1.06896 1.05789 1.09431 0.998752 1.08875 0.97373 0.964705 1.00326 1.02631 1.04679 1.10062 0.994912 1.03456 1.01339 1.00127 0.986127 1.03409 1.04832 0.984338 1.03166 1.05845 1.07979 1.03351 0.832535 0.919377 0.948189 0.961114 0.96596 1.03808 1.17776 0.923805 0.982899 0.784872 0.889392 0.922938 0.980695 0.975153 0.938186 0.72943 0.823098 0.709122 0.762745 0.741268 0.779828 0.818258 0.806668 0.704422 0.799529 0.80293 0.70846 0.717271 0.729393 0.75107 0.745844 0.762811 0.791915 0.758972 0.693946 0.834812 0.661201 0.718496 0.688435 0.693185 0.709765 0.670021 0.693697 0.685345 0.639224 0.690559 0.608 0.528512 0.68817 0.534579 0.426144 0.473513 0.460285 0.238652 0.592767 0.645233 0.469344 0.774197 0.135687 0.413294 0.361886 0.362039 0.251312 0.404313 0.0637501 0.266724 0.636158 0.713129 0.760957 0.682815 0.675036 0.723409 0.634926 0.71477 0.660966 0.59499 0.630729 0.695639 0.814396 1.05785 0.791823 0.912988 0.846574 0.810253 0.821987 0.76198 0.77854 0.476843 0.822692 1.79318 1.05247 0.988996 0.763352 0.828425 0.819821 0.828343 0.819953 0.805468 0.809392 0.968779 0.880474 0.75426 1.09485 0.955449 0.91119 0.883655 0.886334 0.902232 0.924872 0.954883 0.952299 0.971908 0.994278 1.0067 0.990815 1.04323 1.02379 1.02958 1.05676 1.0622 1.07487 1.09586 1.0079 1.05958 0.97039 0.990748 1.00258 1.06629 1.09116 0.979991 1.03839 1.03793 1.04476 1.02301 1.01005 1.05488 1.04532 1.05707 1.04799 1.02048 0.959785 1.39613 0.870492 0.970184 0.994058 0.868081 0.945743 0.997635 0.974112 0.978948 1.04062 1.00677 1.05939 1.08776 0.896278 0.881562 0.928616 0.986669 0.992718 0.970639 0.943267 0.874758 0.824157 0.863031 0.748814 0.761116 0.750412 0.794939 0.811199 0.790712 0.754743 0.785339 0.794884 0.778354 0.798756 0.797414 0.759271 0.721826 0.705215 0.718678 0.718168 0.73507 0.719122 0.777154 0.708691 0.66855 0.646684 0.743243 0.603942 0.766572 0.667367 0.576869 0.676592 0.479134 0.214777 0.36159 0.206447 0.392641 0.387912 0.499421 0.0231943 0.346202 0.170421 0.284209 0.349053 0.340797 0.316084 0.233591 0.920923 0.909896 0.723901 0.733717 0.755938 0.731735 0.782821 0.800286 0.696512 0.554351 1.15677 0.996765 0.889936 0.693676 0.714378 0.552438 0.59066 0.452313 0.830482 1.22137 0.859211 0.782168 0.816867 0.830527 0.823149 0.823367 0.815278 0.826762 0.855357 0.926103 0.919655 0.890788 0.845007 0.772729 0.888387 1.01541 0.902425 0.891984 0.892727 0.873601 0.86641 0.944892 0.935991 0.974419 0.964346 0.971915 0.984079 1.03105 1.04891 1.03931 1.04044 1.09217 1.07914 1.08642 1.06053 1.07734 1.02296 0.991491 0.979535 0.996892 1.00021 1.08191 0.954316 1.03158 1.05211 1.04641 1.03085 1.01662 1.03633 1.02747 1.0376 1.08314 1.0107 1.23613 0.892672 0.98001 0.935647 0.961012 0.96619 0.986492 0.985717 1.02346 1.00565 0.99354 1.01122 1.0363 1.04003 1.09949 0.918561 0.951413 0.936197 0.942538 0.999138 0.965726 0.950029 0.882274 0.89755 0.76268 0.746403 0.757781 0.77803 0.760673 0.802367 0.821401 0.815714 0.754735 0.776122 0.818653 0.732826 0.850272 0.810262 0.798271 0.846864 0.722291 0.72153 0.732709 0.750231 0.758778 0.834973 0.78079 0.680099 0.592806 0.789462 0.763099 0.658577 0.633026 0.762694 0.618348 0.55042 0.617551 0.297013 0.246499 0.0100414 0.0822185 0.176904 0.370748 0.484506 0.448124 0.835234 0.662075 0.737539 0.526156 0.650945 0.724386 0.749724 0.791005 0.735175 0.648126 0.927152 0.325045 0.997692 1.2856 0.77612 0.723653 0.593792 0.637713 0.762304 0.768519 0.776211 0.935708 0.877876 0.845115 0.835168 0.837228 0.825495 0.832226 0.878031 0.912664 0.895391 0.863685 0.9156 0.835354 0.856235 0.895946 0.895279 0.892725 0.909014 0.897997 0.967893 0.986018 0.973718 0.983339 1.00161 0.997688 1.06285 1.06153 1.08133 1.05458 1.05495 1.12003 1.10009 1.06442 1.09343 1.01839 1.05026 0.995165 1.0066 1.01402 0.975242 1.04348 1.04677 1.05933 1.0435 1.03057 1.03807 1.04525 1.10953 1.26059 1.05417 1.03864 1.28646 0.844416 0.978443 0.993212 0.999619 0.991442 1.03585 0.966872 0.949757 0.975885 0.98792 0.945573 0.89654 0.916396 0.93402 0.926294 0.7902 0.759839 0.780412 0.830859 0.866645 0.868911 0.732287 0.883118 0.702091 0.801473 0.916869 0.945577 0.776197 0.755231 0.745964 0.711167 0.726081 0.781309 0.834839 0.981077 1.4276 0.64412 1.13315 1.56982 0.860052 0.76576 0.487807 0.403129 0.422367 0.567028 0.772312 0.753683 0.683804 0.291987 0.949027 0.561954 0.292782 0.412069 0.223806 0.393789 0.133513 0.491473 0.539207 0.620745 0.717355 0.734898 0.752443 0.685389 0.647741 0.56166 0.584866 0.642652 0.665411 0.700888 0.708735 0.648102 0.521107 0.320136 1.09664 0.914001 0.756681 0.777239 0.661067 0.811418 0.766401 0.785671 0.850519 0.889162 0.847461 0.847876 0.849738 0.851326 0.848337 0.886849 0.894482 0.905697 0.911358 0.919858 0.954207 0.898742 0.85204 0.856218 0.881628 0.94586 0.94564 0.970574 0.99408 0.984803 0.9761 1.02459 1.00355 1.06818 1.07885 1.0727 1.07613 1.05284 1.04401 1.08244 1.10392 1.08262 1.01149 1.03453 1.00257 1.02702 1.06821 1.07722 1.06283 1.05387 1.04923 1.07164 1.0524 0.971293 1.05366 1.04154 1.07815 1.0867 0.837373 0.959578 0.984167 0.967616 0.944015 0.995235 1.00514 1.0017 1.03672 1.05256 0.990429 0.970689 0.988725 1.00136 0.938265 0.905828 0.94533 0.794012 0.746286 0.744841 0.785921 0.783331 0.803538 0.920251 0.898767 0.82025 0.788126 0.766521 0.722208 0.824007 0.822477 0.907664 0.530537 0.724074 0.689992 0.66754 0.697284 0.638114 0.623647 0.615999 1.36042 0.88857 0.714852 0.403383 0.518739 0.652853 0.526653 0.579088 0.343413 0.678106 0.696486 0.592639 0.7465 0.341362 0.464276 0.836894 1.0136 0.808703 0.772484 0.785517 0.828298 0.67777 0.691526 0.612394 0.595081 0.637135 0.660871 0.659981 0.626775 0.691085 0.554822 0.812871 0.617706 0.865497 0.837278 0.837211 0.825511 0.805756 0.793842 0.795766 0.78548 0.827538 0.816726 0.847468 0.857425 0.86218 0.909021 0.885729 0.899352 0.908023 0.910144 0.915566 0.916411 0.930295 0.822215 0.86102 0.872804 0.884119 0.993627 0.985232 0.991765 1.04454 1.03196 1.0355 1.024 1.07292 1.07831 1.07477 1.07898 1.09807 1.05795 1.07449 1.05404 1.09507 1.09721 1.0976 1.03809 0.988475 1.03991 0.990849 1.05326 1.09183 1.06448 1.08256 1.05755 1.07731 1.06709 1.08137 1.06902 1.04592 1.06672 0.995401 1.03363 1.04614 1.06645 1.08116 1.0897 1.00181 0.974374 0.96926 0.955101 0.982322 0.983201 1.02499 1.06131 1.04025 0.976974 0.981787 0.983151 0.912728 1.00441 0.914514 0.948339 0.889462 0.927008 0.914733 0.693569 0.775805 0.819284 0.956329 0.954496 0.916196 0.843797 0.745651 0.897295 0.745386 0.618371 0.686898 0.672703 0.675114 0.693717 0.989409 0.645178 0.495368 0.487464 0.477714 0.51918 0.471853 0.784294 0.710823 0.684266 0.725848 0.788959 0.677637 0.6014 0.822672 0.895895 0.7475 0.657304 0.623402 0.682894 0.660753 0.668223 0.675852 0.641506 0.561801 0.726528 0.779209 0.70875 0.78074 0.827676 0.709096 0.864257 0.862702 0.854792 0.833579 0.826489 0.819204 0.782863 0.792006 0.812627 0.8293 0.855965 0.916469 0.932695 0.909067 0.919373 0.910296 0.900139 0.89722 1.01873 1.01061 0.844633 1.14231 1.03765 0.97089 0.988892 1.00198 0.995255 1.03141 1.03301 1.05822 1.0831 1.08306 1.09459 1.11792 1.06109 1.0919 1.10208 1.10899 1.01461 1.06516 1.00857 1.05619 1.08931 1.08055 1.09465 1.07495 1.06325 1.09066 1.075 1.05035 1.06549 1.07004 1.07884 1.10992 0.982487 1.05609 1.06129 1.04427 0.981115 0.982292 0.957043 0.998501 1.00401 1.01621 1.01834 1.03216 0.951634 1.05933 0.985313 0.951323 0.97896 0.93032 0.955178 0.870016 1.04419 1.0714 0.691407 0.774583 0.842526 0.913347 1.0254 0.961653 0.831214 0.89973 0.757264 1.06285 0.677585 0.67652 0.740186 0.754831 0.69155 0.73022 0.708877 0.694348 0.725974 0.824299 0.763633 0.717403 0.628611 0.639793 0.571298 0.475452 0.548157 0.559074 0.533139 0.732356 0.599571 0.756203 0.736719 0.731615 0.772224 0.741292 0.782825 0.780794 0.885836 0.648633 0.631361 0.652005 0.678696 0.678989 0.687205 0.582531 0.710526 0.799714 0.833118 0.817857 0.815868 0.818368 0.801682 0.766046 0.803091 0.871108 0.850766 0.851563 0.818377 0.868503 0.770398 0.714167 0.82267 0.833971 0.931068 0.94572 0.942753 0.92378 0.92019 0.932736 0.892882 0.889045 0.948716 1.03955 1.00724 1.2252 1.11482 1.15521 1.04584 0.945009 0.983381 0.988104 1.00023 1.04206 1.08862 1.04757 1.08775 1.05462 1.05719 1.09031 1.05546 1.09495 1.11988 1.1113 1.02767 1.07043 1.03521 1.05902 1.10559 1.10016 1.10644 1.08759 1.0744 1.09936 1.07897 1.06902 1.07254 1.05686 1.00633 0.932798 1.08362 1.06395 1.04015 1.0046 1.03792 1.02728 1.01888 1.0078 1.02572 1.03105 1.0907 0.946818 0.96139 0.98264 0.955233 1.02035 0.858942 1.06613 1.05984 1.05379 0.788044 0.870308 0.846258 0.875835 0.884983 0.861953 0.813996 0.805898 0.43206 0.713977 0.853396 1.04062 0.753317 0.736363 0.736718 0.762705 0.711442 0.812861 0.785455 0.75075 0.62261 0.662168 0.618212 0.652436 0.604448 0.710646 0.740705 0.737871 0.79134 0.823564 0.713355 0.78315 0.809843 0.818331 0.717569 0.756872 0.695386 0.703679 0.697302 0.672883 0.701351 0.753909 0.936285 0.833976 0.826833 0.788517 0.838015 0.83552 0.85906 0.801294 0.822165 0.935445 0.847616 0.923519 0.850768 0.827523 0.862908 0.981514 0.952816 0.950097 0.940217 0.935908 0.915499 0.953952 0.975316 1.19229 1.1132 1.1291 1.02265 1.06528 0.990294 1.00614 1.04242 1.04975 1.04236 1.01866 1.08757 1.03109 1.0919 1.12628 1.06618 1.07223 1.05306 1.10784 1.14782 1.04503 1.11967 1.08301 1.06284 1.06221 1.11508 1.11313 1.10788 1.10256 1.18941 1.10698 1.09723 1.08205 1.08453 1.07701 1.09064 1.0304 1.03407 1.04051 1.04672 1.03174 1.02346 1.03975 1.02473 1.034 1.08698 1.06245 0.969937 0.958066 1.00348 1.09057 0.951302 1.02842 0.947222 0.913174 0.875751 0.915008 0.856636 0.759573 1.05597 0.772324 0.761004 1.11461 0.94796 0.715104 0.787139 0.750707 0.748728 0.7542 0.82774 0.635183 0.840692 0.548832 0.725727 0.670388 0.684065 0.681721 0.866415 0.838115 0.788689 0.842663 0.904429 0.83664 0.758268 0.741151 0.723806 0.760337 0.759387 0.82405 0.914557 0.888234 0.866008 0.829664 0.800149 0.865405 0.769682 0.806674 0.817427 0.808742 0.815079 0.908507 1.05913 0.856038 0.841156 1.03455 1.0001 0.981241 0.950045 0.944673 0.947855 0.920692 0.897981 0.920912 0.961507 0.970548 1.15814 1.07474 1.01693 1.06387 1.02149 1.02844 1.04794 1.07113 1.01672 1.06156 1.02987 1.09369 1.04203 1.12569 1.06659 1.18156 1.05603 1.11984 1.0812 1.08174 1.08199 1.11601 1.1242 1.18367 1.12154 1.11787 1.09319 1.08549 1.09419 1.07971 1.10476 1.05784 1.12527 1.05318 1.05966 1.05017 1.04681 1.04898 1.01846 1.04016 1.12157 1.0083 0.963841 0.984916 1.00405 1.02539 1.07245 1.1021 1.00423 1.04075 0.9802 0.878278 0.929755 0.851626 1.08631 0.933573 0.906177 0.796509 0.972209 0.808788 0.792855 0.824342 0.764718 0.742414 0.742271 0.944511 0.805351 1.1294 0.756497 0.674797 0.728552 0.756994 0.901946 0.820608 0.778526 0.835167 0.906532 0.909199 0.740796 0.762991 0.768464 0.818445 0.820391 0.85195 0.861011 0.865093 0.875127 0.886312 0.867618 0.8068 0.793191 0.940206 0.791691 0.820154 0.798571 0.836723 0.89815 1.06232 1.10457 0.867005 0.835238 1.01313 1.03923 0.963694 0.897043 0.891209 0.909394 0.896234 0.958022 0.995175 1.13978 1.06001 1.03092 1.08548 1.00919 1.04367 1.05778 1.02003 1.07533 1.00878 1.07235 1.11812 1.2176 1.05169 1.10647 1.1339 1.17323 1.02539 1.09609 1.09366 1.09214 1.1051 1.13109 1.13787 1.18055 1.11692 1.12815 1.10667 1.12149 1.08824 1.10785 1.07142 1.04017 1.04969 1.06459 1.04619 1.05584 1.04065 1.10661 1.0687 1.02154 1.03855 1.10378 1.04803 1.12336 1.00254 1.01374 0.95284 1.04518 1.01778 1.03554 1.00002 1.02041 1.00983 0.94043 0.893194 0.816195 0.93794 1.11571 0.98621 0.883433 0.883192 0.869508 0.873323 0.851997 0.811158 0.731546 0.804937 0.886045 0.859895 0.546227 0.664272 0.708025 0.727695 0.790038 0.816778 0.873153 0.848533 0.846384 0.808754 0.829602 0.909178 0.936637 0.99222 0.749993 0.817555 0.862339 0.884649 0.881697 0.889772 0.883292 0.964615 0.814325 0.91674 0.817539 0.854281 0.73338 0.76644 1.07208 1.02421 1.06625 1.12212 1.08586 1.07774 0.819678 0.96447 1.00732 0.93567 0.86727 0.896472 0.946894 1.01896 1.13732 1.05959 1.04084 1.0481 1.03414 1.0422 1.03534 1.01486 1.08513 1.1134 1.07425 1.12223 1.17819 1.19308 1.10951 1.17526 1.14368 1.15003 1.12085 1.13199 1.13842 1.10518 1.10381 1.08973 1.12281 1.16655 1.17483 1.1599 1.1187 1.1261 1.12958 1.12005 1.09805 1.11306 1.09486 1.07403 1.07975 1.05825 1.04651 1.11862 1.11366 1.07379 1.03257 1.02531 1.11071 1.1419 1.0373 1.01018 1.03826 1.00402 1.04289 1.06971 0.992835 1.02585 1.03792 0.984661 0.918811 0.866154 0.871993 1.03381 1.00834 0.938931 0.908845 0.887453 0.878692 0.897666 0.869401 0.788733 0.892213 0.872895 0.78735 0.949601 0.736072 0.912313 0.846095 0.732462 0.71147 0.896302 0.851632 0.814873 0.958284 0.986079 0.930216 0.764255 0.967874 0.893581 0.878049 0.889946 0.896904 0.917297 0.903346 0.89165 0.913895 0.905251 0.980567 0.970068 0.783124 1.3591 1.24364 1.10006 0.989189 1.18786 0.939784 1.04681 1.02566 0.977371 0.902412 0.884465 0.963495 1.08327 1.06758 0.938049 0.984296 1.10064 1.02739 1.03012 1.04434 1.03443 1.15878 1.13477 1.10797 1.09974 1.09332 1.13717 1.10043 1.14413 1.06611 1.14811 1.14452 1.1609 1.11969 1.12191 1.1274 1.12335 1.12388 1.13748 1.15499 1.17122 1.16423 1.13786 1.12347 1.11254 1.11637 1.08783 1.10217 1.07884 1.12724 1.12617 1.07269 1.0636 1.0474 0.980132 1.08734 1.04322 1.04452 1.03979 1.02155 1.03194 1.01978 1.09567 1.10096 0.963876 0.944932 1.00621 1.00779 1.03056 1.00729 1.04572 0.998873 1.03176 0.949331 0.898615 1.03901 0.967902 1.00997 0.985771 0.937545 1.006 0.886914 0.888449 0.915395 0.987421 0.955345 1.10693 0.858602 0.898783 0.85364 0.938932 0.996809 0.937658 0.802355 0.955626 0.866185 0.803692 0.98162 0.988628 0.967883 0.949798 0.910307 0.958314 0.903669 0.903111 0.932717 0.91955 0.969334 0.993288 0.909354 1.05382 1.14176 1.06095 1.13808 0.976142 0.963293 1.03045 1.09691 0.997234 0.969597 1.07135 1.04588 1.00032 1.13768 1.12062 1.01089 1.0511 1.07199 1.14192 1.14647 1.17534 1.20172 1.09093 1.15494 1.10484 1.14826 1.0284 1.09431 1.14659 1.14438 1.16263 1.1242 1.15187 1.12783 1.13182 1.12886 1.13649 1.11545 1.13191 1.1575 1.14823 1.1325 1.1322 1.12289 1.20257 1.1306 1.12215 1.11459 1.18634 1.12444 1.13214 1.12963 1.07133 1.06061 0.989211 1.11862 1.05405 1.0549 1.05306 1.05852 1.02934 1.05273 1.04096 1.04225 1.03931 1.07692 1.02476 1.03017 0.952231 0.972301 0.980201 1.01649 1.01146 1.01737 1.00549 1.02646 1.04757 0.904928 0.867788 0.961736 0.957383 0.974442 0.989699 1.02557 1.10591 0.928581 0.94759 0.973512 0.981209 0.956604 0.913823 0.984381 0.937768 0.826253 0.78021 0.76247 1.00116 1.02363 0.986015 1.02532 0.906048 0.945668 0.982077 0.963244 0.967053 0.932333 1.01598 1.0294 1.12446 1.02519 1.05253 1.1096 1.04711 1.01076 1.00119 1.05129 1.08862 1.23788 1.10217 0.997237 1.06456 1.08812 1.13385 1.09847 1.20461 1.14536 1.1198 1.18553 1.15024 1.14419 1.17302 0.985439 1.13866 1.15428 1.15038 1.16538 1.12998 1.15303 1.12994 1.13653 1.13008 1.14357 1.12183 1.14585 1.1813 1.16002 1.13815 1.12657 1.17186 1.19676 1.14106 1.12138 1.14282 1.13423 1.19039 1.12572 1.12149 1.13155 1.08078 1.14497 1.09276 1.18371 1.06126 1.05578 1.04196 1.07168 1.04976 1.00408 1.0356 1.04349 1.09407 1.05496 1.06774 1.00128 1.0097 1.01664 1.02332 1.05128 1.01764 0.932898 0.980324 0.985325 1.0014 1.03153 1.08988 0.971922 0.981838 0.997311 0.850831 0.962367 1.02286 0.97851 0.913747 0.822158 0.993046 1.00967 0.981272 0.959522 1.00471 1.01697 0.991703 1.033 0.986895 0.945483 0.954138 0.968079 1.03322 1.02502 1.07977 1.09634 0.973689 1.01162 1.01512 1.05325 1.09452 1.07285 1.05308 1.12193 1.06158 1.04373 1.03521 1.01323 1.05489 1.089 0.995633 1.19154 1.07225 1.08368 1.09274 1.13289 1.12282 1.079 1.1526 1.11466 1.17423 1.14636 1.13769 1.17345 1.13779 1.15622 1.15104 1.16899 1.18427 1.13362 1.15657 1.13389 1.14332 1.13295 1.1484 1.12728 1.14767 1.18193 1.16303 1.14378 1.1351 1.17209 1.1249 1.14596 1.14417 1.14027 1.19021 1.13084 1.11601 1.09472 1.1372 1.14891 1.10607 1.1808 1.07085 1.0625 1.03695 1.10593 1.04408 1.01276 1.04228 1.1126 1.134 1.07428 0.974653 1.01034 1.03313 1.02008 1.02264 1.04142 1.03297 0.925866 1.01942 0.998823 0.973545 1.00931 1.00359 1.02446 1.04617 1.03459 1.00605 1.00986 0.958263 1.02271 0.996329 0.972281 0.939215 0.952015 0.887809 1.00356 1.00075 1.00456 1.04134 1.02251 1.00765 1.03439 1.06512 1.03955 1.04226 1.00561 1.03189 1.03003 1.06161 1.03209 1.02822 0.986049 1.04432 1.05608 1.10001 1.07117 1.09163 1.10442 1.06187 1.05411 1.04146 1.0743 1.11996 1.0791 1.1911 1.10293 1.1967 1.0822 1.0987 1.14 1.12986 1.15086 1.14914 1.17634 1.1523 1.13666 1.15078 1.15332 1.15596 1.181 1.1488 1.19321 1.14294 1.16222 1.12962 1.14873 1.13667 1.16453 1.18592 1.16998 1.1588 1.14001 1.13369 1.1254 1.14734 1.14894 1.12883 1.17206 1.17042 1.1468 1.16784 1.1345 1.12937 1.11231 1.16193 1.14576 1.11227 1.16956 1.09934 1.13077 1.07583 1.04924 1.21255 1.13743 1.08202 1.15506 1.10508 1.06101 0.98643 1.0184 1.04919 1.02644 1.04713 0.926376 1.02457 0.995106 1.01215 1.03627 1.03523 1.03216 1.0522 1.08971 1.01647 0.904078 1.00028 1.08161 1.02428 1.01533 0.963973 0.956299 1.01491 1.00734 1.04466 0.9574 0.943569 1.07715 1.01618 1.03409 1.03417 1.06812 1.02712 1.05878 1.10052 1.19572 1.01859 1.06853 1.02992 1.05318 1.01366 1.07549 1.10796 1.07096 1.1102 1.10498 1.05878 1.07419 1.06077 1.09433 1.14453 1.02067 1.11502 1.12065 1.19755 1.0952 1.10225 1.14895 1.15088 1.1535 1.14639 1.17923 1.15601 1.12701 1.17096 1.15303 1.15088 1.18086 1.20972 1.14675 1.18589 1.14302 1.15918 1.17556 1.15205 1.17177 1.18575 1.19178 1.16565 1.13478 1.15552 1.16952 1.15655 1.17425 1.17602 1.12385 1.1434 1.16011 1.13959 1.16517 1.14678 1.16638 1.11497 1.15897 1.0868 1.08976 1.13388 1.09385 1.1182 1.08514 1.12458 1.03523 1.10513 1.01059 1.02261 1.03258 1.05181 1.04108 1.07464 1.01082 1.04719 1.01672 1.02012 1.03305 1.04479 1.04502 1.03769 1.02014 1.1338 1.09015 0.989327 1.08971 1.09039 1.03528 0.972385 1.10975 0.993774 0.95523 1.05886 1.03802 1.03407 1.01981 1.06616 1.04782 1.04071 1.06203 1.11288 1.03468 1.12973 1.04714 0.980141 1.05109 1.07484 1.0515 1.09096 1.09291 1.07756 1.09078 1.11208 1.11478 1.06717 1.09026 1.13613 1.08582 1.13039 1.15906 1.11696 1.13634 1.17266 1.10135 1.14605 1.18387 1.15806 1.16386 1.16053 1.1444 1.15715 1.17557 1.12606 1.1542 1.1633 1.16978 1.1579 1.1834 1.15303 1.18911 1.18952 1.18508 1.16756 1.17818 1.12818 1.19552 1.15528 1.17218 1.17346 1.18481 1.1681 1.16705 1.16266 1.1665 1.16025 1.16953 1.18031 1.16686 1.1443 1.14867 1.14539 1.14313 1.16537 1.16063 1.15805 1.16734 1.14061 1.1805 1.10099 1.10357 1.15717 1.10488 1.11163 1.12562 1.09923 1.08366 1.08135 1.05294 1.05299 1.08865 1.05127 1.05157 1.02182 1.03869 1.04816 1.03161 1.1431 1.11976 1.058 0.976101 1.02561 1.11301 1.12643 1.02994 1.05207 0.946383 0.95975 1.0716 1.0713 1.0503 1.12618 1.0149 0.957779 1.06878 1.08006 1.08993 1.16524 1.09071 1.0909 1.02588 1.06409 1.07534 1.06212 1.10379 1.08056 1.07649 1.10801 1.11283 1.1195 1.08563 1.09189 1.14262 1.09014 1.14342 1.15828 1.11269 1.15956 1.1813 1.08713 1.12044 1.16846 1.18965 1.15812 1.1629 1.14285 1.18215 1.1747 1.15855 1.16248 1.15826 1.19131 1.17702 1.24126 1.19178 1.18426 1.16564 1.18943 1.19178 1.16068 1.19178 1.19888 1.17664 1.18843 1.17297 1.16753 1.17822 1.16409 1.17217 1.179 1.14991 1.14885 1.15368 1.14639 1.14638 1.16508 1.16189 1.16653 1.17023 1.1451 1.14864 1.10647 1.11988 1.15702 1.14614 1.1108 1.15123 1.12915 1.12945 1.09091 1.0792 1.09999 1.07668 1.07022 1.08502 1.07113 1.06378 1.0868 1.11684 1.04353 1.02733 1.06429 1.04801 1.14147 1.13252 1.09458 0.987035 1.04344 1.08208 1.09436 1.02587 0.973593 1.05981 1.0508 1.09809 1.05106 1.08783 1.07532 1.10177 1.09084 1.09539 1.18274 1.15124 1.05043 1.07559 1.07872 1.08232 1.10708 1.08058 1.12303 1.12453 1.11618 1.13054 1.12246 1.08992 1.13435 1.1008 1.14676 1.15684 1.15887 1.16925 1.189 1.10926 1.15341 1.19178 1.16429 1.14188 1.18383 1.17229 1.16436 1.15984 1.18853 1.19218 1.17227 1.19178 1.19178 1.19339 1.18484 1.16845 1.17767 1.19508 1.18032 1.17688 1.18494 1.17764 1.19191 1.19045 1.16985 1.16294 1.16826 1.17866 1.1693 1.16889 1.17777 1.17851 1.18037 1.15579 1.14912 1.15592 1.16836 1.16692 1.15377 1.15811 1.15678 1.14699 1.10179 1.13486 1.15697 1.10661 1.06745 1.10946 1.08398 1.11301 1.07215 1.08682 1.08676 1.08232 1.08852 1.12641 1.08084 1.04426 1.17263 1.05263 1.1378 1.13996 1.12566 1.03799 1.01242 1.05129 1.05594 1.06949 1.03483 0.976927 1.05025 1.08329 1.08073 1.04878 1.10369 1.09295 1.10318 1.09162 1.09802 1.18053 1.15159 1.0567 1.07655 1.08074 1.10251 1.12138 1.08972 1.10638 1.1343 1.12987 1.13075 1.1245 1.16259 1.09415 1.13153 1.14965 1.14726 1.16878 1.18989 1.11295 1.15389 1.19811 1.16525 1.16351 1.18747 1.18781 1.18633 1.17436 1.19414 1.16444 1.16088 1.18644 1.17772 1.19198 1.1931 1.19445 1.18882 1.19178 1.18179 1.18082 1.19026 1.18863 1.17431 1.17363 1.17399 1.17662 1.17145 1.16945 1.16858 1.1749 1.17853 1.16085 1.1548 1.14749 1.17549 1.17737 1.16154 1.16156 1.15057 1.14676 1.10236 1.14441 1.14726 1.11896 1.13279 1.09297 1.11778 1.15078 1.12488 1.13445 1.08259 1.07898 1.09206 1.12245 1.08088 1.10397 1.0579 1.18757 1.05466 1.14956 1.12165 1.14856 1.0677 1.12628 1.06274 1.04319 0.97742 1.09424 1.11814 1.0837 1.05246 1.10933 1.09474 1.10171 1.09253 1.10813 1.1781 1.15275 1.06071 1.07796 1.11169 1.10154 1.09607 1.11409 1.10747 1.13586 1.13066 1.13606 1.12611 1.1689 1.12964 1.18642 1.13175 1.14193 1.14698 1.19387 1.12945 1.12118 1.15831 1.16563 1.16417 1.18567 1.16892 1.17386 1.17624 1.19147 1.18938 1.17762 1.19075 1.18142 1.19024 1.18817 1.17509 1.17769 1.17509 1.16994 1.17917 1.18299 1.17709 1.18172 1.1546 1.14758 1.17617 1.17448 1.1788 1.16558 1.1612 1.15125 1.14794 1.13466 1.17109 1.14917 1.11652 1.12782 1.10715 1.14188 1.09326 1.14661 1.09104 1.08427 1.08521 1.09729 1.08803 1.12099 1.08165 1.08908 1.05005 1.08231 1.06018 1.14921 1.12287 1.1484 1.06906 1.0824 1.05966 1.071 1.03668 1.03247 
SCALARS Stress float 1
LOOKUP_TABLE default
-309824000000.0 -141503000000.0 -182726000000.0 -232168000000.0 -456949000000.0 -227430000000.0 -89687900000.0 -418980000000.0 -307642000000.0 -570415000000.0 -465520000000.0 -260581000000.0 -293983000000.0 -136647000000.0 -296383000000.0 -252897000000.0 -357226000000.0 -255219000000.0 -700827000000.0 -712815000000.0 -1.17072e+12 -1.50375e+12 -431464000000.0 -1.09383e+12 -826837000000.0 -1.12983e+12 -981533000000.0 -734023000000.0 -1.3214e+12 -727856000000.0 -311322000000.0 -726959000000.0 -1.03759e+12 -408077000000.0 -749424000000.0 -817792000000.0 -406734000000.0 -293143000000.0 -1.3498e+12 -999846000000.0 -755361000000.0 -667163000000.0 -933983000000.0 -1.19819e+12 -418515000000.0 -632192000000.0 -974603000000.0 -1.08938e+12 -954854000000.0 -1.54176e+12 -1.55828e+12 -1.92519e+12 -703178000000.0 -1.98256e+12 -571632000000.0 -1.12217e+12 -709392000000.0 -996400000000.0 -1.57488e+12 -2.32566e+12 -713176000000.0 -1.05805e+12 -1.02962e+12 -1.45966e+12 -1.34077e+12 -784283000000.0 -1.91777e+12 -1.1712e+12 -490705000000.0 -1.55576e+12 -1.45195e+12 -1.09584e+12 -1.17226e+12 -1.65498e+12 -2.37522e+12 -1.64442e+12 -3.27078e+12 -2.24562e+12 -1.63289e+12 -2.24775e+12 -989901000000.0 -1.5698e+12 -2.21175e+12 -2.25899e+12 -2.47657e+12 -1.64187e+12 -1.58349e+12 -1.15831e+12 -2.95977e+12 -1.44611e+12 -788977000000.0 -2.34594e+12 -2.56459e+12 -2.24562e+12 -1.48572e+12 -1.26305e+12 -892347000000.0 -3.30256e+12 -1.62171e+12 -1.95163e+12 -4.58563e+12 -2.56632e+12 -3.23559e+12 -3.29487e+12 -3.9583e+12 -3.53779e+12 -4.21795e+12 -1.15485e+12 -1.50241e+12 -2.43984e+12 -1.31801e+12 -1.59462e+12 -2.03009e+12 -3.22358e+12 -4.53221e+12 -5.02023e+12 -2.26556e+12 -2.64041e+12 -3.39472e+12 -529460000000.0 -1.32428e+12 -1.25446e+12 -1.80767e+12 -1.42659e+12 -2.54841e+12 -2.50264e+12 -5.22993e+12 -6.07206e+12 -3.45288e+12 -2.34233e+12 -3.00105e+12 -2.03676e+12 -1.24719e+12 -1.22432e+12 -1.44814e+12 -4.47344e+12 -2.80392e+12 -2.0208e+12 -1.76632e+12 -2.54549e+12 -2.49552e+12 -4.52917e+12 -1.45671e+12 -1.38028e+12 -2.60576e+12 -1.52109e+12 -1.40993e+12 -1.58279e+12 -3.50856e+12 -2.58054e+12 -2.75086e+12 -1.65693e+12 -4.64794e+12 -2.07892e+12 -1.65663e+12 -2.63327e+12 -3.24895e+12 -2.8371e+12 -4.68174e+12 -4.31275e+12 -3.51536e+12 -7.00989e+12 -3.03691e+12 -4.86766e+12 -3.90329e+12 -3.78037e+12 -3.57461e+12 -4.27422e+12 -1.78554e+12 -3.71514e+12 -2.82041e+12 -2.74444e+12 -3.19801e+12 -3.4439e+12 -3.95017e+12 -2.60845e+12 -3.94467e+12 -3.83104e+12 -2.05684e+12 -2.92377e+12 -4.18489e+12 -4.19451e+12 -3.53322e+12 -4.61944e+12 -4.10573e+12 -3.71999e+12 -1.30035e+12 -5.87868e+12 -3.09821e+12 -5.21672e+12 -4.72376e+12 -4.47758e+12 -3.96807e+12 -3.31046e+12 -3.90053e+12 -3.94872e+12 -6.80019e+12 -6.76228e+12 -3.42141e+12 -6.85808e+12 -4.84332e+12 -4.90123e+12 -4.51449e+12 -6.35477e+12 -4.11466e+12 -3.95914e+12 -2.70885e+12 -927505000000.0 -4.70719e+12 -5.4075e+12 -2.6615e+12 -4.45498e+12 -5.23663e+12 -4.27867e+12 -3.60558e+12 -3.1792e+12 -3.7915e+12 -4.54575e+12 -3.89027e+12 -6.41351e+12 -7.05029e+12 -5.00501e+12 -5.61843e+12 -4.85765e+12 -8.80954e+12 -5.55753e+12 -2.92161e+12 -4.81806e+12 -6.36026e+12 -7.58759e+12 -7.53591e+12 -8.00583e+12 -4.29393e+12 -6.25341e+12 -4.72695e+12 -4.10944e+12 -3.77549e+12 -6.54008e+12 -2.6909e+12 -6.40192e+12 -6.10292e+12 -6.83905e+12 -4.59976e+12 -2.94781e+12 -3.79475e+12 -2.57112e+12 -3.62377e+12 -3.506e+12 -4.25616e+12 -3.99346e+12 -3.48676e+12 -2.69262e+12 -3.97904e+12 -6.35564e+12 -4.37347e+12 -2.80281e+12 -3.58663e+12 -3.94867e+12 -5.6905e+12 -5.16494e+12 -5.23901e+12 -6.79809e+12 -3.88598e+12 -7.61442e+12 -9.02273e+12 -5.1525e+12 -9.27964e+12 -7.98085e+12 -6.46042e+12 -1.37419e+13 -6.74121e+12 -8.04976e+12 -3.96465e+12 -3.56302e+12 -5.4455e+12 -4.09002e+12 -5.30259e+12 -5.66917e+12 -2.92652e+12 -7.57674e+12 -4.12067e+12 -6.05213e+12 -8.0408e+12 -5.13306e+12 -3.19564e+12 -9.60248e+12 -4.83683e+12 -4.89214e+12 -2.01459e+12 -4.81351e+12 -6.04087e+12 -5.58878e+12 -6.57954e+12 -3.43355e+12 -5.21798e+12 -4.64917e+12 -5.47148e+12 -2.0058e+12 -5.87931e+12 -2.0925e+12 -3.47528e+12 -2.80981e+12 -3.57775e+12 -2.38578e+12 -5.21586e+12 -5.84704e+12 -3.76655e+12 -3.12312e+12 -3.34107e+12 -5.34454e+12 -2.37857e+12 -4.3803e+12 -4.78031e+12 -6.15129e+12 -6.21684e+12 -4.27202e+12 -7.90568e+12 -3.97579e+12 -6.72648e+12 -9.7134e+12 -6.04934e+12 -7.96605e+12 -7.20175e+12 -7.63789e+12 -2.41005e+12 -7.11766e+12 -7.26995e+12 -4.3192e+12 -2.38641e+12 -4.58361e+12 -3.79654e+12 -3.67401e+12 -9.40684e+12 -5.47436e+12 -1.01833e+13 -5.34785e+12 -4.11743e+12 -5.9114e+12 -3.04861e+12 -5.1324e+12 -5.76923e+12 -8.39123e+12 -7.9433e+12 -7.19394e+12 -7.12622e+12 -4.76497e+12 -5.52629e+12 -7.23434e+12 -5.38345e+12 -5.40637e+12 -4.12788e+12 -4.28535e+12 -5.44414e+12 -2.75616e+12 -5.79463e+12 -3.62804e+12 -4.09179e+12 -3.0441e+12 -5.83396e+12 -3.2074e+12 -6.03542e+12 -3.41659e+12 -3.68927e+12 -4.66937e+12 -3.76049e+12 -4.81799e+12 -4.91021e+12 -3.99934e+12 -2.43103e+12 -3.76198e+12 -5.06594e+12 -2.95404e+12 -6.4739e+12 -9.29377e+12 -5.94418e+12 -6.73143e+12 -5.71955e+12 -8.64975e+12 -7.26582e+12 -5.77673e+12 -7.54246e+12 -7.23688e+12 -4.90971e+12 -6.35779e+12 -4.72359e+12 -6.72031e+12 -9.72539e+12 -3.04916e+12 -4.45958e+12 -4.75003e+12 -4.5134e+12 -9.59689e+12 -6.87123e+12 -1.00697e+13 -8.22152e+12 -8.55818e+12 -7.56709e+12 -8.03221e+12 -4.14517e+12 -6.376e+12 -4.81683e+12 -6.21786e+12 -3.75252e+12 -5.05193e+12 -5.40596e+12 -6.01455e+12 -5.09906e+12 -4.14111e+12 -4.86707e+12 -6.13958e+12 -6.27311e+12 -5.67206e+12 -4.94484e+12 -2.97694e+12 -2.29335e+12 -3.30214e+12 -2.50888e+12 -3.85219e+12 -4.09894e+12 -5.72919e+12 -3.39175e+12 -4.18108e+12 -3.82077e+12 -2.78351e+12 -3.2118e+12 -4.70136e+12 -3.74043e+12 -1.98601e+12 -5.8481e+12 -4.08628e+12 -2.36638e+12 -3.88357e+12 -4.19825e+12 -4.14572e+12 -5.75755e+12 -3.90914e+12 -4.70295e+12 -7.36997e+12 -3.8586e+12 -5.62072e+12 -4.36566e+12 -5.45891e+12 -6.20694e+12 -8.31199e+12 -5.64734e+12 -9.87412e+12 -5.20409e+12 -5.09753e+12 -7.2577e+12 -5.82428e+12 -3.70267e+12 -1.03552e+13 -5.88284e+12 -3.27734e+12 -4.8274e+12 -3.81165e+12 -5.64319e+12 -5.68622e+12 -6.5641e+12 -3.79951e+12 -6.11068e+12 -3.56016e+12 -4.19389e+12 -7.44645e+12 -4.97136e+12 -5.89682e+12 -5.45629e+12 -9.81904e+12 -9.63758e+12 -7.02714e+12 -6.73118e+12 -8.34047e+12 -6.10529e+12 -7.57946e+12 -7.72514e+12 -5.15166e+12 -4.32667e+12 -4.62427e+12 -2.8338e+12 -3.70746e+12 -5.12976e+12 -4.18869e+12 -6.4778e+12 -4.93665e+12 -3.02165e+12 -3.62069e+12 -3.74034e+12 -4.22349e+12 -3.82752e+12 -4.07925e+12 -3.53275e+12 -3.57218e+12 -2.52681e+12 -2.96686e+12 -4.43902e+12 -2.87989e+12 -3.21713e+12 -3.05286e+12 -2.641e+12 -2.17403e+12 -3.22166e+12 -3.38422e+12 -5.06846e+12 -4.65115e+12 -3.07237e+12 -5.47671e+12 -5.84896e+12 -4.63712e+12 -4.67659e+12 -5.59895e+12 -5.36216e+12 -4.66459e+12 -7.36195e+12 -2.64905e+12 -4.13079e+12 -6.54686e+12 -3.73553e+12 -6.99379e+12 -8.51267e+12 -7.52937e+12 -7.73714e+12 -5.42055e+12 -1.01635e+13 -1.20647e+13 -7.40449e+12 -6.48293e+12 -7.91909e+12 -6.84588e+12 -5.24312e+12 -5.41784e+12 -6.61708e+12 -5.72945e+12 -4.07336e+12 -4.20099e+12 -3.47394e+12 -7.22635e+12 -4.82206e+12 -9.74502e+12 -6.85068e+12 -5.49295e+12 -7.16747e+12 -5.74106e+12 -5.56165e+12 -4.07322e+12 -3.78749e+12 -7.0796e+12 -5.04355e+12 -6.91367e+12 -5.46689e+12 -5.38496e+12 -5.57534e+12 -3.44025e+12 -3.53017e+12 -6.30937e+12 -3.26269e+12 -7.90186e+12 -5.36882e+12 -4.15434e+12 -4.36085e+12 -6.66137e+12 -5.22903e+12 -5.05038e+12 -3.88175e+12 -5.89499e+12 -2.49302e+12 -3.12542e+12 -5.73767e+12 -3.0934e+12 -2.78992e+12 -4.23134e+12 -4.0292e+12 -2.16745e+12 -3.6744e+12 -1.85917e+12 -3.37376e+12 -3.73809e+12 -2.68859e+12 -5.91592e+12 -2.54853e+12 -5.97496e+12 -4.64481e+12 -5.49447e+12 -4.53176e+12 -2.46094e+12 -2.71465e+12 -3.05894e+12 -3.90401e+12 -5.69511e+12 -4.34611e+12 -4.30202e+12 -5.02785e+12 -2.45123e+12 -5.43953e+12 -5.56461e+12 -3.51412e+12 -4.23068e+12 -6.15071e+12 -9.26034e+12 -4.935e+12 -4.73825e+12 -6.63149e+12 -9.64969e+12 -8.96707e+12 -3.31178e+12 -9.55644e+12 -4.75999e+12 -6.34394e+12 -6.36113e+12 -7.13576e+12 -5.03463e+12 -4.32208e+12 -9.76171e+12 -4.40907e+12 -4.64029e+12 -3.30468e+12 -3.44555e+12 -3.20165e+12 -3.14195e+12 -3.40984e+12 -6.20085e+12 -7.51072e+12 -7.59637e+12 -5.33629e+12 -9.08823e+12 -5.64902e+12 -6.50543e+12 -4.63768e+12 -6.44647e+12 -2.99842e+12 -5.74781e+12 -7.25412e+12 -4.99747e+12 -4.0518e+12 -4.40155e+12 -7.66458e+12 -9.61276e+12 -6.67687e+12 -9.32927e+12 -6.35e+12 -5.87965e+12 -7.64958e+12 -4.82219e+12 -6.28055e+12 -9.21411e+12 -4.09856e+12 -5.84063e+12 -3.56495e+12 -3.198e+12 -9.72969e+12 -2.30271e+12 -4.57719e+12 -4.3654e+12 -4.23775e+12 -5.05741e+12 -3.38515e+12 -3.0455e+12 -4.09811e+12 -2.86099e+12 -3.25364e+12 -5.91928e+12 -4.4062e+12 -3.26456e+12 -3.24124e+12 -5.25149e+12 -4.05363e+12 -3.78041e+12 -3.21612e+12 -2.43742e+12 -4.74125e+12 -4.22287e+12 -2.72197e+12 -3.11602e+12 -4.27438e+12 -5.0428e+12 -5.50605e+12 -4.10617e+12 -4.65941e+12 -4.70039e+12 -3.23674e+12 -9.51297e+12 -6.88034e+12 -4.05615e+12 -4.4535e+12 -5.40216e+12 -1.13635e+13 -4.3926e+12 -6.61625e+12 -8.22908e+12 -1.4943e+13 -9.59231e+12 -5.48577e+12 -5.29296e+12 -5.11572e+12 -8.55829e+12 -7.59067e+12 -1.11379e+13 -5.37306e+12 -1.04877e+13 -6.64799e+12 -4.83515e+12 -7.6136e+12 -5.82404e+12 -6.08028e+12 -6.60451e+12 -2.87717e+12 -4.55607e+12 -4.35926e+12 -6.81037e+12 -4.74912e+12 -4.64858e+12 -4.40436e+12 -2.81135e+12 -5.81838e+12 -7.9932e+12 -7.90957e+12 -9.68671e+12 -5.20259e+12 -4.66675e+12 -6.10011e+12 -6.00501e+12 -7.53137e+12 -9.87575e+12 -7.44266e+12 -1.0477e+13 -3.93452e+12 -5.21561e+12 -3.54737e+12 -4.13654e+12 -3.3684e+12 -5.29548e+12 -3.54125e+12 -3.7419e+12 -6.68658e+12 -6.68564e+12 -6.2714e+12 -4.69865e+12 -5.41858e+12 -3.37536e+12 -5.61087e+12 -4.18276e+12 -5.07416e+12 -3.22087e+12 -3.07416e+12 -3.22024e+12 -4.59704e+12 -6.3772e+12 -2.88314e+12 -3.68448e+12 -4.78614e+12 -5.73624e+12 -6.94052e+12 -6.67818e+12 -3.26801e+12 -3.02973e+12 -2.8188e+12 -4.97224e+12 -5.42279e+12 -4.57654e+12 -4.77397e+12 -7.98105e+12 -1.74562e+12 -6.69671e+12 -2.45072e+12 -4.91779e+12 -1.04656e+13 -8.26136e+12 -9.26538e+12 -6.3666e+12 -7.77624e+12 -4.0535e+12 -5.8785e+12 -6.91738e+12 -4.42378e+12 -4.31859e+12 -8.02829e+12 -8.76828e+12 -8.50783e+12 -4.58709e+12 -1.0223e+13 -5.97397e+12 -8.80613e+12 -1.00442e+13 -5.46923e+12 -9.6759e+12 -5.90224e+12 -6.16925e+12 -5.54938e+12 -7.40955e+12 -6.33816e+12 -5.14135e+12 -5.10062e+12 -8.2503e+12 -5.59815e+12 -5.52934e+12 -7.64735e+12 -6.06786e+12 -6.26529e+12 -4.77795e+12 -4.56854e+12 -6.7836e+12 -6.69486e+12 -8.81494e+12 -6.94787e+12 -7.10082e+12 -7.24837e+12 -6.52036e+12 -4.0254e+12 -3.8164e+12 -4.22209e+12 -9.64265e+12 -4.11877e+12 -6.64533e+12 -6.30501e+12 -8.82811e+12 -7.58019e+12 -3.49808e+12 -4.63505e+12 -4.90978e+12 -5.44647e+12 -7.84743e+12 -5.52614e+12 -5.32268e+12 -3.79633e+12 -4.13238e+12 -4.68409e+12 -1.94738e+12 -4.77137e+12 -3.7298e+12 -3.8015e+12 -3.00487e+12 -2.81787e+12 -4.06469e+12 -3.56964e+12 -3.61918e+12 -4.91809e+12 -3.43659e+12 -3.88046e+12 -4.92765e+12 -3.79122e+12 -3.99744e+12 -4.53159e+12 -5.23997e+12 -2.29093e+12 -5.94022e+12 -4.79831e+12 -3.01486e+12 -4.89159e+12 -2.58942e+12 -3.74832e+12 -1.53146e+12 -3.49686e+12 -6.86315e+12 -5.28011e+12 -4.41023e+12 -4.12699e+12 -5.07017e+12 -4.68244e+12 -5.0239e+12 -5.6283e+12 -4.60702e+12 -4.49804e+12 -5.68068e+12 -5.54078e+12 -5.75719e+12 -7.06593e+12 -5.83856e+12 -4.30841e+12 -4.58805e+12 -4.26328e+12 -4.6158e+12 -6.09162e+12 -4.42791e+12 -8.65002e+12 -6.02741e+12 -7.9211e+12 -4.63274e+12 -5.36105e+12 -3.19941e+12 -5.06917e+12 -2.21206e+12 -6.51698e+12 -5.34784e+12 -9.33418e+12 -9.35503e+12 -7.48349e+12 -7.53979e+12 -8.2736e+12 -1.0171e+13 -3.33568e+12 -3.59767e+12 -4.77777e+12 -6.28488e+12 -7.31006e+12 -9.0462e+12 -1.01109e+13 -3.58468e+12 -8.98104e+12 -9.79669e+12 -1.08559e+13 -1.18794e+13 -7.45205e+12 -9.67891e+12 -6.77055e+12 -4.73688e+12 -4.5879e+12 -7.06463e+12 -6.61706e+12 -6.17083e+12 -5.34074e+12 -7.97128e+12 -6.5432e+12 -5.9821e+12 -5.42387e+12 -5.03746e+12 -4.42435e+12 -3.83257e+12 -4.91553e+12 -3.76495e+12 -5.40176e+12 -7.47443e+12 -5.6211e+12 -5.34787e+12 -4.8602e+12 -6.43213e+12 -4.05491e+12 -5.04882e+12 -3.23109e+12 -3.33221e+12 -1.71406e+12 -3.89625e+12 -3.80774e+12 -3.32216e+12 -2.64002e+12 -1.62737e+12 -3.78362e+12 -3.93789e+12 -1.94249e+12 -2.87561e+12 -2.03277e+12 -3.44341e+12 -4.36706e+12 -5.55601e+12 -4.23983e+12 -5.14008e+12 -1.41286e+12 -4.90196e+12 -2.84247e+12 -3.67765e+12 -4.33637e+12 -2.26018e+12 -3.33467e+12 -3.05408e+12 -2.48601e+12 -3.87686e+12 -2.6503e+12 -6.80662e+12 -6.33833e+12 -5.18842e+12 -4.17159e+12 -3.44296e+12 -6.54441e+12 -6.43152e+12 -6.52215e+12 -8.24158e+12 -4.34852e+12 -4.65276e+12 -6.51711e+12 -7.08451e+12 -3.00973e+12 -5.61949e+12 -4.50395e+12 -5.83386e+12 -4.95565e+12 -6.37953e+12 -5.76648e+12 -8.10023e+12 -6.25121e+12 -6.57266e+12 -7.36063e+12 -6.60998e+12 -1.2506e+13 -5.35826e+12 -8.35921e+12 -7.19699e+12 -8.92669e+12 -7.62158e+12 -3.49082e+12 -6.25316e+12 -2.77553e+12 -4.19279e+12 -5.47611e+12 -4.50953e+12 -7.30886e+12 -9.83689e+12 -1.17369e+13 -7.35676e+12 -8.40776e+12 -6.17334e+12 -7.66935e+12 -9.3652e+12 -5.26945e+12 -3.23112e+12 -5.63653e+12 -1.16742e+13 -5.29645e+12 -7.37621e+12 -5.73223e+12 -3.76384e+12 -7.46981e+12 -8.38294e+12 -4.60729e+12 -5.07669e+12 -6.66096e+12 -6.35479e+12 -5.86703e+12 -5.21458e+12 -5.51525e+12 -5.26298e+12 -5.94327e+12 -4.70438e+12 -4.20281e+12 -4.04699e+12 -7.21588e+12 -4.74288e+12 -4.81162e+12 -6.99891e+12 -4.21598e+12 -4.70842e+12 -3.23504e+12 -2.7814e+12 -2.5912e+12 -2.75882e+12 -1.86101e+12 -4.42498e+12 -2.25543e+12 -2.51809e+12 -2.83183e+12 -4.44045e+12 -5.3788e+12 -5.26163e+12 -2.0569e+12 -2.61858e+12 -3.33556e+12 -4.13012e+12 -3.31495e+12 -717311000000.0 -4.58626e+12 -4.23826e+12 -2.9576e+12 -5.81986e+12 -5.69459e+12 -2.71949e+12 -2.93443e+12 -2.88069e+12 -4.51149e+12 -3.98829e+12 -4.54254e+12 -2.57395e+12 -3.69449e+12 -8.09489e+12 -4.90681e+12 -4.99993e+12 -6.59342e+12 -4.81918e+12 -4.19027e+12 -6.09715e+12 -6.22952e+12 -5.08311e+12 -6.66951e+12 -8.35651e+12 -4.3898e+12 -5.56861e+12 -6.44395e+12 -5.49348e+12 -7.81292e+12 -4.81187e+12 -1.11556e+13 -1.30898e+13 -7.25903e+12 -4.20018e+12 -1.03395e+13 -7.88641e+12 -7.52666e+12 -7.76273e+12 -7.21589e+12 -1.16831e+13 -1.0131e+13 -9.45196e+12 -7.48259e+12 -7.31261e+12 -2.18488e+12 -4.81577e+12 -5.32446e+12 -8.05797e+12 -3.41038e+12 -6.61906e+12 -8.10039e+12 -5.14758e+12 -5.65402e+12 -7.41735e+12 -6.04311e+12 -8.41862e+12 -8.31819e+12 -4.75056e+12 -5.64478e+12 -7.80846e+12 -9.92305e+12 -9.33215e+12 -8.08997e+12 -4.75987e+12 -4.87831e+12 -6.89778e+12 -8.24374e+12 -9.20207e+12 -5.86817e+12 -6.06304e+12 -6.7258e+12 -6.3022e+12 -6.33199e+12 -3.98782e+12 -4.29205e+12 -6.12511e+12 -6.30493e+12 -9.65797e+12 -3.85501e+12 -2.68664e+12 -6.43124e+12 -3.27381e+12 -2.40877e+12 -4.55117e+12 -3.33591e+12 -5.12557e+12 -2.17502e+12 -6.01045e+12 -4.80263e+12 -2.30412e+12 -2.46205e+12 -3.83048e+12 -4.75491e+12 -4.46443e+12 -2.82634e+12 -2.78177e+12 -5.21489e+12 -2.73937e+12 -3.67044e+12 -2.96578e+12 -4.82098e+12 -5.00023e+12 -3.33147e+12 -3.69627e+12 -3.71378e+12 -6.58423e+12 -3.26219e+12 -3.89016e+12 -2.90383e+12 -4.48642e+12 -4.86486e+12 -4.75988e+12 -1.91963e+12 -3.51415e+12 -5.8719e+12 -3.72461e+12 -4.03192e+12 -7.26707e+12 -3.29231e+12 -7.67686e+12 -4.44172e+12 -7.4405e+12 -4.90498e+12 -9.35965e+12 -4.10952e+12 -7.82034e+12 -6.077e+12 -7.84988e+12 -7.80789e+12 -6.24808e+12 -6.25952e+12 -6.75984e+12 -9.06889e+12 -7.13464e+12 -1.09131e+13 -8.31213e+12 -6.8704e+12 -5.42724e+12 -9.22746e+12 -7.10107e+12 -6.4328e+12 -8.63725e+12 -5.65529e+12 -4.70916e+12 -4.2436e+12 -4.47326e+12 -3.84218e+12 -9.61052e+12 -6.98789e+12 -9.92407e+12 -8.83181e+12 -7.61589e+12 -6.39543e+12 -4.60185e+12 -4.71635e+12 -7.85512e+12 -6.60963e+12 -6.93277e+12 -1.15761e+13 -7.01622e+12 -9.00532e+12 -6.94442e+12 -4.46126e+12 -5.42011e+12 -4.32319e+12 -8.19473e+12 -6.57712e+12 -1.02914e+13 -4.32164e+12 -6.1173e+12 -7.24637e+12 -7.27302e+12 -4.2086e+12 -6.06778e+12 -4.53557e+12 -4.46802e+12 -5.48394e+12 -3.41996e+12 -4.8669e+12 -4.23422e+12 -5.57703e+12 -3.81471e+12 -5.96884e+12 -4.94556e+12 -4.78065e+12 -5.83358e+12 -2.26978e+12 -9.22359e+12 -2.91227e+12 -3.86133e+12 -6.34702e+12 -1.96473e+12 -6.06177e+12 -3.41109e+12 -2.43115e+12 -4.04656e+12 -4.84973e+12 -1.86166e+12 -3.31269e+12 -2.67055e+12 -3.21684e+12 -2.52332e+12 -3.05867e+12 -3.0812e+12 -1.09486e+12 -2.41113e+12 -3.40249e+12 -2.75139e+12 -5.31001e+12 -3.81804e+12 -6.06862e+12 -4.49791e+12 -3.35071e+12 -4.02791e+12 -3.62482e+12 -5.40112e+12 -2.33742e+12 -2.99382e+12 -4.29368e+12 -5.54931e+12 -4.96233e+12 -4.95952e+12 -3.47177e+12 -4.41654e+12 -3.1584e+12 -3.90871e+12 -3.81427e+12 -4.32089e+12 -5.37873e+12 -7.48306e+12 -5.24802e+12 -4.49478e+12 -4.19027e+12 -4.14629e+12 -5.10723e+12 -7.12892e+12 -6.74725e+12 -7.06014e+12 -4.69195e+12 -4.73803e+12 -6.52468e+12 -7.27675e+12 -6.13963e+12 -8.14663e+12 -7.81687e+12 -6.88672e+12 -1.06299e+13 -1.01263e+13 -5.78871e+12 -9.9416e+12 -4.26641e+12 -1.05657e+13 -3.45556e+12 -4.59329e+12 -4.70729e+12 -1.22639e+13 -5.21235e+12 -6.24337e+12 -7.64231e+12 -8.69673e+12 -9.53442e+12 -3.06439e+12 -3.57353e+12 -8.06324e+12 -1.01166e+13 -5.99645e+12 -9.01537e+12 -6.74686e+12 -3.85134e+12 -6.39914e+12 -8.86157e+12 -1.10653e+13 -6.14935e+12 -4.91382e+12 -4.45186e+12 -8.69239e+12 -6.02401e+12 -2.05335e+12 -7.29225e+12 -7.93201e+12 -5.34222e+12 -5.87339e+12 -7.7292e+12 -8.01395e+12 -6.70383e+12 -5.11353e+12 -7.82915e+12 -5.85834e+12 -5.56949e+12 -1.83383e+12 -4.8289e+12 -3.00723e+12 -5.46161e+12 -3.60912e+12 -6.47767e+12 -3.10824e+12 -3.89743e+12 -4.49364e+12 -4.76104e+12 -4.31514e+12 -2.13615e+12 -2.88401e+12 -4.24251e+12 -5.92001e+12 -3.19879e+12 -3.63364e+12 -3.58266e+12 -3.32069e+12 -3.71647e+12 -2.44097e+12 -2.93256e+12 -1.79394e+12 -4.2623e+12 -3.16757e+12 -2.23176e+12 -3.06985e+12 -5.07544e+12 -2.92232e+12 -2.98186e+12 -3.4958e+12 -4.12576e+12 -4.23771e+12 -3.19267e+12 -2.00284e+12 -2.31106e+12 -2.99695e+12 -3.37847e+12 -6.36653e+12 -1.27697e+12 -3.19929e+12 -1.32099e+12 -4.06152e+12 -3.34874e+12 -4.77449e+12 -4.66153e+12 -3.82824e+12 -3.6494e+12 -6.38386e+12 -8.309e+12 -4.12186e+12 -5.57701e+12 -3.1461e+12 -3.45829e+12 -3.59638e+12 -6.22489e+12 -4.77772e+12 -7.17651e+12 -7.48672e+12 -6.3422e+12 -8.19604e+12 -8.05983e+12 -4.28491e+12 -7.01803e+12 -5.94444e+12 -1.24288e+13 -7.14906e+12 -8.52881e+12 -8.65192e+12 -7.68989e+12 -4.02828e+12 -1.00112e+13 -5.03159e+12 -8.09188e+12 -9.40486e+12 -6.31287e+12 -6.88763e+12 -6.81931e+12 -6.71779e+12 -6.85182e+12 -4.84585e+12 -7.49624e+12 -7.64962e+12 -7.8801e+12 -4.74058e+12 -5.65142e+12 -8.15165e+12 -1.05396e+13 -8.9257e+12 -4.18084e+12 -9.81384e+12 -5.09261e+12 -1.02842e+13 -5.81963e+12 -7.36667e+12 -6.63256e+12 -7.34675e+12 -5.30683e+12 -4.29901e+12 -9.99846e+12 -3.54872e+12 -4.47974e+12 -3.56171e+12 -4.81186e+12 -7.21516e+12 -4.18087e+12 -6.7134e+12 -6.36577e+12 -4.08908e+12 -6.88965e+12 -1.68491e+12 -7.31868e+12 -4.70572e+12 -5.06309e+12 -5.13952e+12 -6.19505e+12 -5.75999e+12 -4.47955e+12 -4.01109e+12 -5.38812e+12 -4.48759e+12 -3.07932e+12 -4.85355e+12 -3.59616e+12 -3.40055e+12 -3.43853e+12 -6.58371e+12 -5.93902e+12 -3.96767e+12 -2.80517e+12 -3.52695e+12 -3.80531e+12 -2.60531e+12 -4.16682e+12 -3.90547e+12 -3.05923e+12 -2.12596e+12 -3.18371e+12 -2.68565e+12 -1.06353e+12 -3.92938e+12 -3.24636e+12 -5.36723e+12 -2.05527e+12 -3.22453e+12 -3.12742e+12 -2.33219e+12 -1.90344e+12 -3.01796e+12 -3.34935e+12 -4.69625e+12 -4.53625e+12 -2.37356e+12 -2.18068e+12 -2.20957e+12 -3.71782e+12 -3.8039e+12 -4.94615e+12 -3.67574e+12 -4.47896e+12 -2.67144e+12 -3.54399e+12 -5.07919e+12 -6.50379e+12 -2.02523e+12 -6.51565e+12 -3.94598e+12 -2.42998e+12 -5.16042e+12 -5.17005e+12 -6.30882e+12 -5.59603e+12 -7.13287e+12 -2.02772e+12 -4.67045e+12 -4.18655e+12 -6.47747e+12 -6.27507e+12 -6.67556e+12 -3.07071e+12 -4.85077e+12 -6.07934e+12 -6.7491e+12 -3.38625e+12 -3.11058e+12 -6.2028e+12 -7.22379e+12 -7.11311e+12 -5.6645e+12 -2.56728e+12 -5.99471e+12 -6.53565e+12 -3.07089e+12 -3.0362e+12 -5.3735e+12 -3.7345e+12 -5.00889e+12 -8.73316e+12 -6.70706e+12 -6.02575e+12 -7.19348e+12 -6.57451e+12 -7.19885e+12 -5.91013e+12 -6.99802e+12 -8.15236e+12 -4.19332e+12 -7.86186e+12 -7.17841e+12 -3.76426e+12 -6.93761e+12 -6.67845e+12 -7.19326e+12 -9.15954e+12 -8.56722e+12 -9.10264e+12 -7.23463e+12 -7.17504e+12 -7.17016e+12 -7.57954e+12 -6.93297e+12 -4.59191e+12 -6.1698e+12 -6.93633e+12 -4.57041e+12 -4.76553e+12 -8.95755e+12 -5.3015e+12 -3.28187e+12 -4.32861e+12 -3.30283e+12 -5.99986e+12 -5.66793e+12 -3.21408e+12 -7.82174e+12 -3.24829e+12 -3.15707e+12 -3.68449e+12 -3.17013e+12 -6.18956e+12 -4.89847e+12 -5.33209e+12 -2.01298e+12 -3.05147e+12 -4.9445e+12 -3.55218e+12 -3.60229e+12 -3.11678e+12 -5.63719e+12 -2.71978e+12 -4.0417e+12 -3.37851e+12 -2.24553e+12 -5.33369e+12 -993663000000.0 -2.38461e+12 -4.87084e+12 -3.99767e+12 -3.14321e+12 -5.28105e+12 -3.50138e+12 -3.27969e+12 -3.36461e+12 -2.89729e+12 -3.17063e+12 -3.21275e+12 -1.98024e+12 -3.92734e+12 -5.50895e+12 -1.87729e+12 -2.01e+12 -3.44002e+12 -4.39335e+12 -3.93636e+12 -3.14914e+12 -4.15519e+12 -3.46929e+12 -4.00539e+12 -4.03943e+12 -2.42913e+12 -5.4996e+12 -4.3181e+12 -5.02941e+12 -4.00763e+12 -6.3834e+12 -3.90171e+12 -2.5124e+12 -3.68924e+12 -5.23719e+12 -2.89306e+12 -5.00398e+12 -5.7512e+12 -2.89206e+12 -3.49433e+12 -5.46492e+12 -4.99177e+12 -5.04336e+12 -2.18958e+12 -5.68907e+12 -2.64735e+12 -4.69928e+12 -4.41194e+12 -7.2868e+12 -6.1948e+12 -5.33627e+12 -9.57785e+12 -4.79741e+12 -9.71114e+12 -9.01379e+12 -5.88124e+12 -4.27678e+12 -9.16873e+12 -6.94779e+12 -7.89301e+12 -5.51043e+12 -7.04946e+12 -6.66057e+12 -6.49222e+12 -6.5141e+12 -4.64597e+12 -4.86879e+12 -4.00461e+12 -7.06962e+12 -8.55134e+12 -4.11984e+12 -4.80284e+12 -2.48937e+12 -6.35731e+12 -4.70518e+12 -5.66822e+12 -2.05735e+12 -9.56431e+12 -4.2013e+12 -5.41821e+12 -5.1013e+12 -7.9167e+12 -1.14152e+13 -8.60262e+12 -2.58075e+12 -6.34855e+12 -5.17806e+12 -6.39164e+12 -8.30643e+12 -3.88137e+12 -4.06063e+12 -4.79879e+12 -5.73366e+12 -6.47958e+12 -3.6538e+12 -7.26628e+12 -6.11065e+12 -4.91435e+12 -5.91075e+12 -5.29339e+12 -4.98059e+12 -5.84543e+12 -3.40981e+12 -4.51737e+12 -5.02753e+12 -5.73831e+12 -8.10002e+12 -2.94598e+12 -7.01446e+12 -4.02569e+12 -4.91218e+12 -4.66464e+12 -4.10583e+12 -1.52129e+12 -3.35575e+12 -5.81528e+12 -4.095e+12 -3.55129e+12 -2.95135e+12 -2.82881e+12 -4.97512e+12 -2.6593e+12 -2.78138e+12 -3.31436e+12 -3.55667e+12 -3.04076e+12 -4.05094e+12 -2.02959e+12 -2.48298e+12 -1.06694e+12 -3.27793e+12 -1.82822e+12 -3.88123e+12 -2.66471e+12 -2.97362e+12 -2.86598e+12 -1.99903e+12 -1.80473e+12 -3.83678e+12 -3.12497e+12 -1.26757e+12 -2.40579e+12 -1.62028e+12 -3.78875e+12 -2.45965e+12 -2.87556e+12 -2.05907e+12 -4.80982e+12 -3.18632e+12 -4.52072e+12 -2.92143e+12 -3.05956e+12 -2.14282e+12 -3.88634e+12 -2.83678e+12 -2.46121e+12 -2.94042e+12 -2.5452e+12 -1.2344e+12 -2.94388e+12 -4.44157e+12 -4.2346e+12 -3.77307e+12 -4.97598e+12 -4.63522e+12 -3.15948e+12 -3.1304e+12 -4.71053e+12 -4.62758e+12 -3.81992e+12 -5.5005e+12 -4.2775e+12 -3.52247e+12 -5.14643e+12 -1.47899e+12 -1.33452e+12 -7.00443e+12 -2.30747e+12 -6.4079e+12 -4.9909e+12 -8.03785e+12 -3.32482e+12 -5.68301e+12 -8.56199e+12 -6.39982e+12 -7.77928e+12 -5.61176e+12 -6.80266e+12 -7.07494e+12 -7.06635e+12 -8.64436e+12 -9.92096e+12 -7.18445e+12 -8.92346e+12 -5.74211e+12 -6.34503e+12 -8.33408e+12 -7.56229e+12 -7.04067e+12 -4.62499e+12 -4.65177e+12 -6.05289e+12 -4.79928e+12 -4.73268e+12 -4.94039e+12 -3.913e+12 -6.60075e+12 -3.52253e+12 -5.31818e+12 -8.95875e+12 -5.46308e+12 -5.85851e+12 -6.13677e+12 -1.00327e+13 -7.4732e+12 -7.89938e+12 -3.70568e+12 -7.9205e+12 -4.9678e+12 -1.24113e+13 -1.06536e+13 -7.17083e+12 -5.33211e+12 -3.82815e+12 -5.6415e+12 -4.91021e+12 -3.7192e+12 -8.75741e+12 -7.68592e+12 -5.47665e+12 -4.13132e+12 -4.35966e+12 -5.37155e+12 -4.73383e+12 -6.7585e+12 -4.00009e+12 -6.15696e+12 -5.82057e+12 -4.01335e+12 -4.76428e+12 -5.13584e+12 -3.35369e+12 -4.12206e+12 -3.01884e+12 -3.59848e+12 -3.71779e+12 -2.63213e+12 -2.59952e+12 -3.52805e+12 -3.98226e+12 -3.62446e+12 -3.4289e+12 -3.46984e+12 -3.53044e+12 -3.87616e+12 -8.47504e+12 -3.67622e+12 -4.28928e+12 -4.45301e+12 -3.81466e+12 -2.80624e+12 -4.00014e+12 -1.92032e+12 -2.86902e+12 -1.21006e+12 -2.22901e+12 -1.97616e+12 -2.92902e+12 -779781000000.0 -2.64179e+12 -3.57204e+12 -2.72202e+12 -2.21998e+12 -4.00805e+12 -2.41752e+12 -1.94658e+12 -2.02149e+12 -1.0234e+12 -2.71233e+12 -3.36216e+12 -4.94704e+12 -2.80374e+12 -1.50972e+12 -1.76867e+12 -2.03736e+12 -3.67137e+12 -3.83571e+12 -1.63093e+12 -1.35966e+12 -3.33862e+12 -3.72783e+12 -2.41881e+12 -5.35551e+12 -7.20914e+12 -3.405e+12 -3.13639e+12 -3.01188e+12 -1.39025e+12 -4.4709e+12 -5.34025e+12 -5.3518e+12 -3.00935e+12 -2.35165e+12 -2.65568e+12 -5.26184e+12 -4.71996e+12 -7.07431e+12 -4.55945e+12 -5.69438e+12 -6.15485e+12 -6.4253e+12 -4.50259e+12 -2.63735e+12 -8.66852e+12 -6.41847e+12 -5.87566e+12 -2.3551e+12 -1.69407e+12 -9.78396e+12 -9.94677e+12 -5.66386e+12 -6.19648e+12 -3.88496e+12 -1.02213e+13 -5.59129e+12 -6.62425e+12 -6.01096e+12 -7.24441e+12 -8.20218e+12 -5.50691e+12 -4.954e+12 -6.66353e+12 -7.35893e+12 -4.25712e+12 -5.514e+12 -4.91288e+12 -7.62295e+12 -6.46429e+12 -4.826e+12 -9.22108e+12 -4.74096e+12 -4.82789e+12 -5.63027e+12 -3.50557e+12 -4.07197e+12 -3.49992e+12 -8.81197e+12 -7.30365e+12 -5.31346e+12 -4.28187e+12 -2.45275e+12 -4.62859e+12 -7.97512e+12 -1.11034e+13 -6.31951e+12 -1.59092e+13 -5.80776e+12 -4.62446e+12 -7.20263e+12 -8.15715e+12 -6.31921e+12 -6.84476e+12 -7.90513e+12 -7.66012e+12 -5.64881e+12 -5.83309e+12 -3.44591e+12 -4.56054e+12 -3.05977e+12 -4.19028e+12 -3.25607e+12 -1.23541e+12 -4.13085e+12 -7.92962e+12 -4.48236e+12 -5.07271e+12 -4.30983e+12 -1.7743e+12 -4.98686e+12 -3.15416e+12 -2.39986e+12 -4.14637e+12 -4.90776e+12 -3.77448e+12 -4.02987e+12 -6.50044e+12 -5.02824e+12 -5.41684e+12 -1.84361e+12 -2.61446e+12 -2.88616e+12 -4.01166e+12 -4.71903e+12 -3.09001e+12 -2.8577e+12 -3.35785e+12 -2.49731e+12 -4.99794e+12 -3.26801e+12 -4.23751e+12 -3.17997e+12 -3.31569e+12 -2.62588e+12 -2.71453e+12 -2.23909e+12 -2.163e+12 -1.9793e+12 -2.20955e+12 -3.09265e+12 -3.68804e+12 -2.6418e+12 -2.67444e+12 -3.48299e+12 -3.12686e+12 -3.30939e+12 -3.1583e+12 -3.75076e+12 -2.98542e+12 -3.07537e+12 -4.23165e+12 -2.14445e+12 -2.36525e+12 -3.3416e+12 -940297000000.0 -1.93354e+12 -3.66039e+12 -3.06945e+12 -2.35758e+12 -2.20748e+12 -5.005e+12 -5.28929e+12 -3.3583e+12 -5.73207e+12 -4.93095e+12 -3.99212e+12 -1.66784e+12 -4.6372e+12 -6.66253e+12 -6.42486e+12 -3.60129e+12 -3.0095e+12 -4.57883e+12 -8.32458e+12 -4.73643e+12 -6.57503e+12 -8.04957e+12 -5.46077e+12 -3.65761e+12 -5.09507e+12 -5.74134e+12 -4.69362e+12 -7.62765e+12 -3.31344e+12 -3.58331e+12 -5.20357e+12 -4.0421e+12 -5.13007e+12 -7.61843e+12 -6.04053e+12 -6.85354e+12 -4.07191e+12 -8.27707e+12 -5.32425e+12 -6.36679e+12 -6.07662e+12 -4.46222e+12 -8.21306e+12 -2.62389e+12 -4.41912e+12 -4.63907e+12 -9.40224e+12 -6.88115e+12 -3.842e+12 -3.06979e+12 -3.38505e+12 -4.01826e+12 -4.57447e+12 -5.4296e+12 -6.78423e+12 -8.51414e+12 -6.37738e+12 -4.58609e+12 -6.38644e+12 -7.06655e+12 -7.09698e+12 -4.75622e+12 -1.08583e+13 -9.32502e+12 -4.19582e+12 -5.65552e+12 -8.29125e+12 -4.45702e+12 -7.6608e+12 -5.85124e+12 -4.40461e+12 -5.54775e+12 -6.6267e+12 -5.91942e+12 -7.52345e+12 -4.9792e+12 -6.55776e+12 -7.73716e+12 -2.64664e+12 -4.61816e+12 -2.4227e+12 -4.32846e+12 -3.8903e+12 -2.45718e+12 -4.09365e+12 -5.14164e+12 -3.11255e+12 -2.86055e+12 -4.44933e+12 -3.91519e+12 -6.30343e+12 -4.43702e+12 -4.84597e+12 -3.45096e+12 -2.13289e+12 -2.41011e+12 -3.78377e+12 -2.79413e+12 -3.42179e+12 -3.02147e+12 -1.43634e+12 -3.34373e+12 -2.2945e+12 -2.63708e+12 -1.67735e+12 -3.70535e+12 -3.45559e+12 -3.54598e+12 -2.66005e+12 -2.14886e+12 -976896000000.0 -1.8938e+12 -2.94051e+12 -2.59597e+12 -2.6173e+12 -2.05074e+12 -2.27885e+12 -1.71549e+12 -2.26267e+12 -1.63089e+12 -2.00925e+12 -2.32469e+12 -1.56675e+12 -3.79938e+12 -3.83482e+12 -1.37196e+12 -2.73188e+12 -2.2798e+12 -1.93679e+12 -1.52465e+12 -2.86252e+12 -1.87577e+12 -5.06103e+12 -3.71023e+12 -3.42599e+12 -3.0165e+12 -5.84267e+12 -3.24398e+12 -2.43692e+12 -5.37602e+12 -3.49179e+12 -5.16402e+12 -3.5899e+12 -4.54939e+12 -4.5436e+12 -5.41602e+12 -5.85193e+12 -4.21031e+12 -2.97888e+12 -4.36914e+12 -5.67698e+12 -3.69387e+12 -1.79768e+12 -3.46526e+12 -3.10432e+12 -4.61513e+12 -5.11783e+12 -7.34415e+12 -3.14931e+12 -4.13692e+12 -4.60946e+12 -4.26487e+12 -5.17411e+12 -4.2081e+12 -6.47471e+12 -6.93931e+12 -6.4334e+12 -6.93114e+12 -3.40861e+12 -5.57745e+12 -6.42838e+12 -1.02875e+13 -6.25382e+12 -8.10516e+12 -5.14281e+12 -4.48216e+12 -5.7745e+12 -5.63486e+12 -8.0352e+12 -9.12532e+12 -9.65047e+12 -6.3708e+12 -6.76097e+12 -5.65915e+12 -6.97696e+12 -6.13076e+12 -4.21252e+12 -6.88905e+12 -6.27301e+12 -3.01106e+12 -4.47639e+12 -5.92316e+12 -6.68438e+12 -3.03399e+12 -4.25658e+12 -3.82944e+12 -5.90766e+12 -3.16093e+12 -6.51405e+12 -8.24977e+12 -6.11359e+12 -5.15314e+12 -3.21253e+12 -5.78202e+12 -5.47778e+12 -4.54184e+12 -4.25897e+12 -3.3357e+12 -6.98905e+12 -4.34061e+12 -5.04674e+12 -2.76138e+12 -4.16136e+12 -5.87066e+12 -6.37845e+12 -5.04108e+12 -5.21554e+12 -4.34344e+12 -5.71902e+12 -3.27203e+12 -8.2981e+12 -4.95421e+12 -4.02219e+12 -3.23739e+12 -3.13503e+12 -6.76159e+12 -5.15369e+12 -2.91555e+12 -6.01786e+12 -3.08998e+12 -4.8008e+12 -3.59351e+12 -1.90015e+12 -2.57824e+12 -2.8929e+12 -5.73505e+12 -4.20542e+12 -5.88552e+12 -3.19604e+12 -3.06549e+12 -2.15744e+12 -2.0443e+12 -2.30748e+12 -3.19826e+12 -2.55827e+12 -1.58018e+12 -2.74788e+12 -1.52474e+12 -3.25922e+12 -1.06194e+12 -2.23051e+12 -2.17823e+12 -2.8415e+12 -1.28345e+12 -255672000000.0 -1.84415e+12 -2.13421e+12 -1.82748e+12 -998721000000.0 -1.86023e+12 -1.69155e+12 -1.96269e+12 -3.84018e+12 -2.06321e+12 -1.21062e+12 -2.19782e+12 -2.23777e+12 -2.21072e+12 -1.73195e+12 -1.53363e+12 -3.31145e+12 -2.84666e+12 -2.36704e+12 -2.84799e+12 -3.00309e+12 -2.3396e+12 -3.50491e+12 -2.69911e+12 -2.91063e+12 -3.05329e+12 -4.14305e+12 -2.33438e+12 -3.36542e+12 -3.89724e+12 -5.45033e+12 -4.69497e+12 -4.43722e+12 -6.36556e+12 -4.87536e+12 -6.66333e+12 -3.70974e+12 -2.69707e+12 -3.52864e+12 -5.80398e+12 -6.51475e+12 -4.71796e+12 -2.23426e+12 -7.31004e+12 -3.54653e+12 -6.00576e+12 -2.41094e+12 -4.04707e+12 -6.28204e+12 -5.15749e+12 -4.15106e+12 -4.53777e+12 -4.06343e+12 -3.8266e+12 -4.1184e+12 -4.59913e+12 -7.3148e+12 -8.57663e+12 -5.61462e+12 -5.83295e+12 -5.39992e+12 -7.68793e+12 -4.82492e+12 -4.69773e+12 -7.90374e+12 -4.83979e+12 -4.47446e+12 -2.60995e+12 -1.94075e+12 -2.74101e+12 -4.38811e+12 -6.22974e+12 -4.8708e+12 -5.42438e+12 -5.70503e+12 -4.89082e+12 -5.52058e+12 -3.63e+12 -4.63966e+12 -3.96561e+12 -3.28135e+12 -6.74383e+12 -4.9037e+12 -6.36936e+12 -6.60291e+12 -3.21698e+12 -3.43717e+12 -4.78968e+12 -5.39114e+12 -5.7972e+12 -3.77313e+12 -4.36303e+12 -4.26437e+12 -3.65534e+12 -5.08732e+12 -4.03056e+12 -4.36139e+12 -3.1973e+12 -2.15489e+12 -6.77484e+12 -3.85121e+12 -3.34892e+12 -4.42464e+12 -3.81786e+12 -4.30463e+12 -6.99679e+12 -7.01899e+12 -4.67828e+12 -3.52622e+12 -3.6941e+12 -4.08143e+12 -4.95413e+12 -5.23705e+12 -4.94436e+12 -3.67618e+12 -3.47865e+12 -3.06156e+12 -5.16981e+12 -2.90565e+12 -4.05175e+12 -2.90427e+12 -2.18992e+12 -1.79867e+12 -2.58696e+12 -3.88309e+12 -1.48361e+12 -1.65963e+12 -3.60954e+12 -3.15848e+12 -2.44341e+12 -2.25138e+12 -1.65058e+12 -1.97802e+12 -2.54349e+12 -2.45756e+12 -2.33521e+12 -2.22387e+12 -864059000000.0 -1.42965e+12 -1.53537e+12 -2.12215e+12 -2.20419e+12 -839337000000.0 -3.04501e+12 -1.44061e+12 -1.43895e+12 -876845000000.0 -1.82311e+12 -1.32034e+12 -1.54495e+12 -2.35841e+12 -1.46188e+12 -1.1541e+12 -1.38345e+12 -2.99603e+12 -1.84814e+12 -2.25213e+12 -2.19334e+12 -2.35466e+12 -3.46724e+12 -3.24233e+12 -2.72108e+12 -1.8066e+12 -3.25193e+12 -2.33755e+12 -3.29295e+12 -5.52517e+12 -5.65565e+12 -4.53175e+12 -1.76539e+12 -3.02551e+12 -3.38915e+12 -3.48539e+12 -4.91134e+12 -7.61276e+12 -1.92584e+12 -3.34536e+12 -5.80044e+12 -2.75316e+12 -4.09343e+12 -6.55286e+12 -3.36575e+12 -5.31729e+12 -7.96345e+12 -4.43658e+12 -2.7981e+12 -5.77711e+12 -1.04516e+13 -5.16882e+12 -8.16787e+12 -7.74227e+12 -5.35266e+12 -5.90869e+12 -4.31099e+12 -3.14101e+12 -7.35448e+12 -3.97607e+12 -5.60107e+12 -8.87055e+12 -5.89964e+12 -1.05368e+13 -8.09569e+12 -3.85268e+12 -6.93992e+12 -6.90562e+12 -5.70764e+12 -1.10064e+13 -5.45657e+12 -5.46031e+12 -5.0956e+12 -4.03332e+12 -4.99462e+12 -5.97204e+12 -3.45976e+12 -4.53131e+12 -6.87855e+12 -5.98438e+12 -4.86168e+12 -4.93383e+12 -7.06032e+12 -7.38816e+12 -5.32708e+12 -5.18069e+12 -6.49216e+12 -3.68997e+12 -5.29044e+12 -6.1646e+12 -3.95987e+12 -4.4964e+12 -2.42798e+12 -3.40809e+12 -3.46787e+12 -4.86323e+12 -3.37999e+12 -2.96541e+12 -4.54306e+12 -3.11409e+12 -5.49885e+12 -3.80725e+12 -4.37116e+12 -5.12986e+12 -3.28412e+12 -4.16843e+12 -1.64935e+12 -1.30549e+12 -1.27958e+12 -2.65892e+12 -4.64535e+12 -4.89919e+12 -3.33186e+12 -2.42795e+12 -3.59127e+12 -2.70269e+12 -3.1681e+12 -5.36058e+12 -3.46475e+12 -2.42972e+12 -2.45584e+12 -2.66886e+12 -3.40705e+12 -3.41301e+12 -1.60189e+12 -3.81701e+12 -2.87301e+12 -1.79461e+12 -1.58605e+12 -2.6337e+12 -1.82564e+12 -1.26271e+12 -1.14328e+12 -2.8533e+12 -2.17439e+12 -2.32166e+12 -2.33707e+12 -3.14064e+12 -1.14214e+12 -2.87485e+12 -1.38881e+12 -1.53367e+12 -1.89273e+12 -1.10614e+12 -2.00692e+12 -678031000000.0 -1.53239e+12 -1.82544e+12 -2.1676e+12 -1.57578e+12 -2.46127e+12 -2.98955e+12 -1.77302e+12 -1.00339e+12 -1.40779e+12 -1.70394e+12 -2.21495e+12 -1.85361e+12 -1.14078e+12 -1.40215e+12 -1.54146e+12 -2.16799e+12 -986360000000.0 -3.13849e+12 -2.26554e+12 -1.43893e+12 -3.21634e+12 -2.73796e+12 -2.86227e+12 -3.6209e+12 -1.64128e+12 -2.13224e+12 -3.00219e+12 -2.6859e+12 -2.7598e+12 -2.68097e+12 -4.14698e+12 -4.26237e+12 -2.12245e+12 -1.8499e+12 -4.26171e+12 -2.97305e+12 -1.95523e+12 -3.29197e+12 -5.91257e+12 -6.14709e+12 -6.28352e+12 -5.30514e+12 -4.8291e+12 -5.59031e+12 -4.95089e+12 -5.70077e+12 -3.31557e+12 -5.91309e+12 -5.8533e+12 -4.64621e+12 -1.61105e+12 -3.92008e+12 -3.7057e+12 -3.162e+12 -4.19404e+12 -4.22781e+12 -4.90345e+12 -8.36158e+12 -5.36967e+12 -6.49018e+12 -3.76515e+12 -7.52805e+12 -6.64234e+12 -6.58006e+12 -8.13695e+12 -5.99249e+12 -5.27845e+12 -2.72593e+12 -3.72469e+12 -2.34139e+12 -2.57692e+12 -3.30548e+12 -3.71402e+12 -3.42984e+12 -2.69641e+12 -7.6164e+12 -4.36818e+12 -3.53883e+12 -7.22499e+12 -4.64637e+12 -4.12265e+12 -6.93295e+12 -5.69107e+12 -4.19573e+12 -6.43172e+12 -4.21879e+12 -5.04731e+12 -5.02911e+12 -5.18956e+12 -4.26943e+12 -3.0509e+12 -4.35731e+12 -2.31019e+12 -5.15702e+12 -6.28935e+12 -3.60741e+12 -5.55404e+12 -3.75242e+12 -5.1561e+12 -3.82183e+12 -2.80443e+12 -2.46291e+12 -3.19882e+12 -2.66899e+12 -2.23644e+12 -1.46463e+12 -2.36552e+12 -4.78334e+12 -3.03672e+12 -2.11247e+12 -1.23922e+12 -2.66283e+12 -3.43601e+12 -221198000000.0 -4.4151e+12 -2.86298e+12 -1.29369e+12 -3.12843e+12 -2.54623e+12 -1.39769e+12 -2.16799e+12 -1.70953e+12 -947841000000.0 -2.05271e+12 -1.71494e+12 -1.56627e+12 -1.78661e+12 -2.82012e+12 -2.32756e+12 -587149000000.0 -2.61543e+12 -1.48462e+12 -1.26815e+12 -990188000000.0 -1.54338e+12 -1.61776e+12 -1.55127e+12 -347434000000.0 -943958000000.0 -1.50496e+12 -248133000000.0 -1.17714e+12 -2.24178e+12 -1.77579e+12 -1.4301e+12 -3.17837e+12 -1.2436e+12 -1.01864e+12 -1.49866e+12 -1.29287e+12 -2.48861e+12 -1.38861e+12 -1.97798e+12 -2.9469e+12 -1.39483e+12 -1.02834e+12 -2.1822e+12 -2.24218e+12 -2.15389e+12 -1.04606e+12 -2.037e+12 -1.36402e+12 -1.56946e+12 -2.8762e+12 -2.3388e+12 -1.60108e+12 -834406000000.0 -2.26766e+12 -2.0156e+12 -2.36991e+12 -2.75732e+12 -5.85651e+12 -2.41579e+12 -3.66575e+12 -2.93963e+12 -5.69549e+12 -2.06345e+12 -2.46428e+12 -2.47754e+12 -3.45054e+12 -3.36615e+12 -3.71642e+12 -5.85676e+12 -3.21601e+12 -3.61177e+12 -2.53692e+12 -2.06297e+12 -3.85453e+12 -4.3133e+12 -3.05888e+12 -4.2909e+12 -4.08642e+12 -6.06381e+12 -5.21544e+12 -7.27867e+12 -6.87212e+12 -2.6528e+12 -4.88867e+12 -3.43413e+12 -1.1065e+13 -5.74904e+12 -8.08983e+12 -4.11437e+12 -4.36143e+12 -5.66588e+12 -5.75663e+12 -3.79143e+12 -9.44281e+12 -4.02542e+12 -7.30418e+12 -6.24377e+12 -2.31532e+12 -3.80682e+12 -3.87479e+12 -7.31299e+12 -2.85852e+12 -3.46344e+12 -3.68247e+12 -3.5582e+12 -5.17206e+12 -3.84538e+12 -6.33861e+12 -4.0711e+12 -4.17578e+12 -5.01752e+12 -3.81014e+12 -3.02586e+12 -3.43819e+12 -4.63321e+12 -3.43452e+12 -4.48745e+12 -3.05545e+12 -6.31213e+12 -4.64912e+12 -3.904e+12 -4.12064e+12 -3.38435e+12 -6.61596e+12 -5.06087e+12 -4.71583e+12 -4.32513e+12 -3.02394e+12 -1.64461e+12 -2.17612e+12 -3.35478e+12 -4.06859e+12 -3.49495e+12 -2.10747e+12 -3.14185e+12 -3.35629e+12 -1.16852e+12 -864510000000.0 -2.29345e+12 -2.01384e+12 -3.92798e+12 -2.55447e+12 -2.64816e+12 -1.70685e+12 -774809000000.0 -2.85034e+12 -1.49016e+12 -659469000000.0 -1.39696e+12 -1.48798e+12 -1.44559e+12 -1.40389e+12 -2.73727e+12 -2.36732e+12 -994592000000.0 -796262000000.0 -1.06736e+12 -1.36045e+12 -1.5347e+12 -1.0217e+12 -1.71314e+12 -2.12051e+12 -725699000000.0 -1.05512e+12 -1.32054e+12 -1.1834e+12 -1.52652e+12 -1.27368e+12 -2.07871e+12 -1.8297e+12 -1.03535e+12 -2.20889e+12 -834984000000.0 -1.1912e+12 -1.6764e+12 -563503000000.0 -957895000000.0 -1.72614e+12 -1.67766e+12 -2.0758e+12 -2.42592e+12 -3.86245e+12 -2.12129e+12 -2.7966e+12 -3.26379e+12 -1.75778e+12 -3.92505e+12 -1.82118e+12 -4.43603e+12 -1.67306e+12 -2.15924e+12 -2.80003e+12 -3.31113e+12 -1.96755e+12 -3.27977e+12 -2.02741e+12 -2.2684e+12 -3.29187e+12 -5.02997e+12 -4.52605e+12 -4.53687e+12 -3.04576e+12 -4.98145e+12 -4.18094e+12 -3.63707e+12 -6.08888e+12 -5.36685e+12 -3.30961e+12 -4.28404e+12 -6.38678e+12 -6.76629e+12 -5.65503e+12 -4.40656e+12 -4.65027e+12 -2.29746e+12 -8.64212e+12 -3.82287e+12 -3.28785e+12 -3.27223e+12 -2.52226e+12 -5.13566e+12 -7.06585e+12 -3.43753e+12 -4.1291e+12 -6.64202e+12 -2.99313e+12 -6.30326e+12 -4.83029e+12 -2.1723e+12 -5.76404e+12 -2.04535e+12 -2.70155e+12 -3.3148e+12 -4.38483e+12 -2.98699e+12 -3.53895e+12 -3.95528e+12 -3.72043e+12 -6.31661e+12 -2.45786e+12 -5.3038e+12 -6.48077e+12 -4.69967e+12 -2.77139e+12 -3.63513e+12 -4.39314e+12 -3.01671e+12 -3.12605e+12 -4.16208e+12 -2.96608e+12 -3.42503e+12 -3.15181e+12 -2.36571e+12 -3.09465e+12 -4.50212e+12 -5.81308e+12 -2.12348e+12 -6.47124e+12 -3.42431e+12 -1.54703e+12 -4.91307e+12 -4.48177e+12 -5.09696e+12 -3.21579e+12 -2.55815e+12 -3.17283e+12 -2.82045e+12 -501968000000.0 -1.702e+12 -2.76614e+12 -2.06861e+12 -1.70128e+12 -1.85972e+12 -2.48394e+12 -1.62172e+12 -3.1526e+12 -2.49941e+12 -3.0502e+12 -1.14098e+12 -2.2411e+12 -541201000000.0 -1.48375e+12 -932452000000.0 -1.66365e+12 -2.30332e+12 -1.71792e+12 -1.2391e+12 -1.03128e+12 -1.4465e+12 -883541000000.0 -903576000000.0 -379872000000.0 -1.33942e+12 -1.12579e+12 -1.85863e+12 -1.40247e+12 -1.25227e+12 -1.11149e+12 -1.9716e+12 -1.04097e+12 -1.37826e+12 -2.21567e+12 -1.85503e+12 -728809000000.0 -2.87233e+12 -561583000000.0 -2.08644e+12 -2.13835e+12 -2.25718e+12 -2.4599e+12 -1.65757e+12 -932895000000.0 -3.03631e+12 -2.35142e+12 -1.40904e+12 -903474000000.0 -1.6445e+12 -4.00628e+12 -5.59212e+12 -1.19515e+12 -2.11445e+12 -3.60297e+12 -2.54291e+12 -2.62038e+12 -2.05072e+12 -2.17013e+12 -4.14089e+12 -1.88586e+12 -2.21458e+12 -2.22467e+12 -3.13931e+12 -2.86793e+12 -3.02188e+12 -3.78881e+12 -2.19246e+12 -4.49564e+12 -2.34133e+12 -2.99808e+12 -2.29889e+12 -4.09526e+12 -4.32458e+12 -4.04903e+12 -4.03351e+12 -3.57708e+12 -4.36753e+12 -3.79965e+12 -4.35254e+12 -3.40148e+12 -5.20801e+12 -6.50382e+12 -5.52976e+12 -4.79718e+12 -5.61003e+12 -2.98053e+12 -4.64638e+12 -6.13166e+12 -5.4486e+12 -4.23474e+12 -3.9626e+12 -5.39419e+12 -2.96805e+12 -3.78316e+12 -1.30609e+12 -4.49708e+12 -3.76784e+12 -4.35366e+12 -4.25146e+12 -4.79633e+12 -3.05776e+12 -2.84675e+12 -2.28749e+12 -6.15472e+12 -2.92208e+12 -3.39229e+12 -4.08436e+12 -1.47029e+12 -2.17949e+12 -3.00079e+12 -4.31805e+12 -3.31974e+12 -2.64293e+12 -1.43046e+12 -2.58753e+12 -3.69764e+12 -1.02031e+12 -2.1827e+12 -2.85808e+12 -3.30102e+12 -1.80425e+12 -6.36538e+12 -2.36778e+12 -3.25677e+12 -1.87653e+12 -2.13437e+12 -1.32907e+12 -2.73683e+12 -2.97816e+12 -2.03475e+12 -2.26174e+12 -2.76892e+12 -3.00003e+12 -2.7633e+12 -1.72962e+12 -1.23615e+12 -1.82731e+12 -3.21935e+12 -3.30691e+12 -1.53133e+12 -93608200000.0 -501947000000.0 -2.0714e+12 -1.64895e+12 -957288000000.0 -629706000000.0 -612041000000.0 -1.81352e+12 -396239000000.0 -729457000000.0 -159489000000.0 -1.204e+12 -562875000000.0 -755532000000.0 -458485000000.0 -1.31812e+12 -1.4558e+12 -1.31452e+12 -1.12511e+12 -1.11539e+12 -349776000000.0 -1.98053e+12 -765513000000.0 -209363000000.0 -384991000000.0 -144405000000.0 -1.28715e+12 -393143000000.0 -842655000000.0 -786792000000.0 -1.10794e+12 -757877000000.0 -800848000000.0 -1.29e+12 -1.55148e+12 -793768000000.0 -621684000000.0 -1.81146e+12 -1.97305e+12 -1.66144e+12 -1.97258e+12 -2.35545e+12 -1.58278e+12 -2.19303e+12 -1.73154e+12 -4.15437e+12 -1.44358e+12 -1.48235e+12 -1.73876e+12 -1.92998e+12 -2.5545e+12 -2.87413e+12 -938939000000.0 -2.56994e+12 -2.7193e+12 -1.97167e+12 -3.79667e+12 -4.00746e+12 -2.61989e+12 -2.83872e+12 -2.36205e+12 -1.91355e+12 -3.4713e+12 -2.02168e+12 -4.26084e+12 -3.79692e+12 -3.95869e+12 -4.3599e+12 -4.05851e+12 -3.15249e+12 -4.32531e+12 -3.40926e+12 -2.55664e+12 -3.3688e+12 -2.44437e+12 -3.10663e+12 -3.78967e+12 -3.998e+12 -4.20857e+12 -4.81453e+12 -1.78697e+12 -3.57007e+12 -2.99514e+12 -2.03918e+12 -2.51851e+12 -4.42728e+12 -6.64166e+12 -3.10713e+12 -2.68114e+12 -2.83121e+12 -3.86742e+12 -3.2966e+12 -2.35683e+12 -2.68931e+12 -3.3849e+12 -5.00908e+12 -2.84538e+12 -3.09558e+12 -2.55783e+12 -3.97193e+12 -3.0429e+12 -2.68884e+12 -2.74753e+12 -2.33999e+12 -1.10886e+12 -3.23824e+12 -1.65339e+12 -1.19269e+12 -1.63843e+12 -1.7459e+12 -2.65772e+12 -3.00116e+12 -3.04709e+12 -3.42168e+12 -3.95276e+12 -2.74581e+12 -1.15254e+12 -1.70048e+12 -2.88523e+12 -2.76555e+12 -1.06476e+12 -1.76472e+12 -1.75177e+12 -2.74321e+12 -2.28842e+12 -1.63365e+12 -1.24227e+12 -1.49646e+12 -2.40054e+12 -812346000000.0 -1.31635e+12 -857241000000.0 -1.64163e+12 -1.31485e+12 -723246000000.0 -1.33422e+12 -1.0843e+12 -1.58194e+12 -1.38838e+12 -811513000000.0 -985369000000.0 -1.43281e+12 -1.26638e+12 -992912000000.0 -958531000000.0 -1.09051e+12 -595816000000.0 -544290000000.0 -1.13767e+12 -1.04917e+12 -1.07746e+12 -870172000000.0 -1.02012e+12 -905685000000.0 -904537000000.0 -1.40193e+12 -709904000000.0 -749526000000.0 -1.13349e+12 -1.17004e+12 -1.68089e+12 -1.306e+12 -1.57177e+12 -1.83415e+12 -1.02432e+12 -1.46284e+12 -723930000000.0 -2.50959e+12 -3.82398e+12 -2.33328e+12 -2.2842e+12 -2.88877e+12 -1.65895e+12 -2.09029e+12 -1.78056e+12 -3.13504e+12 -2.45696e+12 -3.63627e+12 -4.02535e+12 -2.07319e+12 -2.57061e+12 -3.22297e+12 -2.34833e+12 -1.88601e+12 -2.64994e+12 -4.19935e+12 -3.83844e+12 -2.58419e+12 -4.27546e+12 -484130000000.0 -4.13557e+12 -3.45834e+12 -1.79725e+12 -996258000000.0 -1.8225e+12 -4.33189e+12 -2.82404e+12 -3.42023e+12 -3.3717e+12 -4.10007e+12 -4.17775e+12 -2.80964e+12 -2.63315e+12 -2.07279e+12 -5.61832e+12 -2.49234e+12 -3.48537e+12 -2.45722e+12 -3.85541e+12 -3.13787e+12 -1.88384e+12 -2.38273e+12 -2.24349e+12 -2.96606e+12 -2.46711e+12 -2.19914e+12 -4.83454e+12 -3.47191e+12 -3.75187e+12 -3.63249e+12 -2.29837e+12 -2.90389e+12 -3.43575e+12 -1.95515e+12 -3.26335e+12 -4.32575e+12 -2.45767e+12 -2.32799e+12 -1.88403e+12 -972282000000.0 -3.14738e+12 -943277000000.0 -2.17114e+12 -3.15231e+12 -3.53551e+12 -2.31946e+12 -4.73304e+12 -1.56758e+12 -2.58226e+12 -2.3987e+12 -2.45424e+12 -3.39961e+12 -2.24115e+12 -2.49533e+12 -3.52605e+12 -1.20491e+12 -1.03593e+12 -1.80721e+12 -2.67075e+12 -1.15429e+12 -1.17206e+12 -791418000000.0 -1.47334e+12 -2.08644e+12 -1.71843e+12 -1.47573e+12 -1.12367e+12 -1.59521e+12 -910144000000.0 -1.20712e+12 -1.8065e+12 -1.39139e+12 -841256000000.0 -1.0931e+12 -463187000000.0 -835830000000.0 -837742000000.0 -1.59604e+12 -823627000000.0 -832931000000.0 -795282000000.0 -133280000000.0 -450553000000.0 -1.20086e+12 -648199000000.0 -922870000000.0 -846238000000.0 -476009000000.0 -836456000000.0 -805412000000.0 -1.03304e+12 -848236000000.0 -716396000000.0 -1.57337e+12 -1.45159e+12 -1.29071e+12 -1.17141e+12 -980698000000.0 -993362000000.0 -709864000000.0 -857260000000.0 -1.87363e+12 -1.06035e+12 -1.928e+12 -1.97009e+12 -2.09491e+12 -2.82156e+12 -1.09549e+12 -2.64544e+12 -1.31802e+12 -2.87992e+12 -2.35244e+12 -980661000000.0 -1.19832e+12 -1.46485e+12 -3.15626e+12 -2.07798e+12 -2.97667e+12 -2.7838e+12 -3.27259e+12 -1.4272e+12 -3.5373e+12 -2.50297e+12 -2.64654e+12 -2.59159e+12 -2.97335e+12 -3.65647e+12 -3.7933e+12 -2.80128e+12 -3.06558e+12 -4.30994e+12 -3.12671e+12 -3.34459e+12 -3.08176e+12 -2.25479e+12 -5.36921e+12 -4.33593e+12 -4.42739e+12 -3.46818e+12 -3.49398e+12 -5.53715e+12 -2.33183e+12 -4.8858e+12 -3.71422e+12 -4.0597e+12 -4.10178e+12 -3.97592e+12 -1.47282e+12 -2.6678e+12 -4.01797e+12 -1.72676e+12 -2.31251e+12 -2.93705e+12 -4.13714e+12 -5.01315e+12 -2.34335e+12 -2.68745e+12 -1.45473e+12 -2.37454e+12 -3.09146e+12 -2.97329e+12 -2.15203e+12 -2.19305e+12 -3.3164e+12 -5.00283e+12 -2.00717e+12 -1.883e+12 -2.29057e+12 -1.44124e+12 -2.28112e+12 -2.35636e+12 -2.36441e+12 -2.55573e+12 -2.37775e+12 -3.45744e+12 -2.40346e+12 -1.85095e+12 -2.89161e+12 -1.87084e+12 -2.55482e+12 -3.33311e+12 -1.04677e+12 -1.12471e+12 -760837000000.0 -1.21688e+12 -1.61449e+12 -1.22049e+12 -698033000000.0 -1.09647e+12 -1.59149e+12 -1.14577e+12 -1.2883e+12 -949543000000.0 -808942000000.0 -447490000000.0 -330298000000.0 -328444000000.0 -501784000000.0 -131061000000.0 -712465000000.0 -510919000000.0 -580764000000.0 -611346000000.0 -522238000000.0 -919093000000.0 -1.42737e+12 -398427000000.0 -472849000000.0 -430231000000.0 -290023000000.0 -533555000000.0 -15071900000.0 -376311000000.0 -616125000000.0 -543603000000.0 -1.01633e+12 -560037000000.0 -1.18309e+12 -612068000000.0 -1.29368e+12 -1.09927e+12 -922999000000.0 -726484000000.0 -941520000000.0 -615983000000.0 -352251000000.0 -938943000000.0 -1.05763e+12 -2.15517e+12 -1.63655e+12 -3.22089e+12 -1.61333e+12 -2.75083e+12 -1.98222e+12 -1.55157e+12 -2.06876e+12 -4.46024e+12 -2.32696e+12 -2.71707e+12 -542329000000.0 -1.89963e+12 -3.07056e+12 -1.91986e+12 -3.37009e+12 -1.89144e+12 -2.57929e+12 -2.67059e+12 -2.18899e+12 -3.3911e+12 -2.82419e+12 -2.64069e+12 -1.08039e+12 -2.36867e+12 -3.31933e+12 -2.35588e+12 -2.61936e+12 -3.41336e+12 -2.6434e+12 -2.52022e+12 -1.78141e+12 -2.2156e+12 -4.18655e+12 -3.37242e+12 -900148000000.0 -2.65416e+12 -2.71594e+12 -2.18054e+12 -3.29556e+12 -3.54695e+12 -2.23583e+12 -2.58445e+12 -3.4564e+12 -2.39242e+12 -1.52798e+12 -2.89812e+12 -1.52866e+12 -2.66165e+12 -743783000000.0 -2.57595e+12 -3.09672e+12 -1.81128e+12 -1.3346e+12 -2.59222e+12 -1.57928e+12 -3.12276e+12 -2.65559e+12 -1.62168e+12 -1.13287e+12 -1.94426e+12 -1.26764e+12 -2.76922e+12 -2.34866e+12 -1.89883e+12 -2.11125e+12 -711392000000.0 -1.46286e+12 -1.02427e+12 -735170000000.0 -1.02624e+12 -2.14091e+12 -1.59582e+12 -564037000000.0 -523099000000.0 -1.25633e+12 -1.05367e+12 -864652000000.0 -765733000000.0 -505573000000.0 -978311000000.0 -312551000000.0 -278030000000.0 -708087000000.0 -542514000000.0 -593544000000.0 -934538000000.0 -588251000000.0 -967368000000.0 -439804000000.0 -691582000000.0 -253334000000.0 -31228200000.0 -381742000000.0 -673539000000.0 -493472000000.0 -296280000000.0 -1.03338e+12 -724828000000.0 -434433000000.0 -380585000000.0 -44193300000.0 -1.02512e+12 -875305000000.0 -1.16231e+12 -1.94007e+12 -1.05007e+12 -1.89464e+12 -1.51802e+12 -1.88172e+12 -1.41031e+12 -3.21929e+12 -2.66488e+12 -1.65669e+12 -1.7427e+12 -1.99376e+12 -882366000000.0 -1.05744e+12 -1.71935e+12 -2.81307e+12 -799738000000.0 -1.52398e+12 -2.11899e+12 -2.7409e+12 -1.94231e+12 -1.29339e+12 -1.96195e+12 -1.34979e+12 -2.6188e+12 -2.00949e+12 -790195000000.0 -1.87966e+12 -2.01511e+12 -3.78628e+12 -2.65246e+12 -3.06689e+12 -1.6476e+12 -2.28435e+12 -2.66896e+12 -3.49768e+12 -2.87105e+12 -3.53034e+12 -3.66823e+12 -4.60836e+12 -1.35879e+12 -1.27804e+12 -3.98995e+12 -2.24725e+12 -2.06418e+12 -1.43341e+12 -2.93051e+12 -2.36364e+12 -1.32833e+12 -1.80143e+12 -3.84813e+12 -1.05105e+12 -2.52355e+12 -1.59241e+12 -1.94282e+12 -404327000000.0 -2.3531e+12 -1.74632e+12 -1.40558e+12 -2.06505e+12 -978066000000.0 -1.83512e+12 -1.76649e+12 -2.04922e+12 -1.30575e+12 -2.33561e+12 -1.74758e+12 -1.66427e+12 -1.38835e+12 -1.49126e+12 -539451000000.0 -2.22431e+12 -1.38819e+12 -589687000000.0 -1.39996e+12 -717893000000.0 -479913000000.0 -743683000000.0 -740718000000.0 -477215000000.0 -1.26898e+12 -1.25807e+12 -1.12054e+12 -827451000000.0 -1.00781e+12 -622801000000.0 -1.12876e+12 -707768000000.0 -36364000000.0 -333948000000.0 -511564000000.0 -23922100000.0 -123726000000.0 -560984000000.0 -832996000000.0 -323682000000.0 -357582000000.0 -448421000000.0 -229788000000.0 -366051000000.0 -400749000000.0 -635820000000.0 -525437000000.0 -801429000000.0 -612993000000.0 -813174000000.0 -730611000000.0 -620312000000.0 -172731000000.0 -892457000000.0 -453921000000.0 -551132000000.0 -385126000000.0 -276354000000.0 -645895000000.0 -1.08369e+12 -1.45189e+12 -668045000000.0 -1.02288e+12 -131618000000.0 -877874000000.0 -607014000000.0 -1.00666e+12 -1.34011e+12 -706631000000.0 -1.035e+12 -2.06945e+12 -453421000000.0 -1.95077e+12 -2.03026e+12 -1.56059e+12 -996238000000.0 -1.85758e+12 -1.97027e+12 -1.71821e+12 -2.01035e+12 -2.32365e+12 -911533000000.0 -1.31131e+12 -1.77015e+12 -1.16419e+12 -2.97693e+12 -1.29354e+12 -777279000000.0 -3.74341e+12 -869665000000.0 -2.42138e+12 -1.95276e+12 -1.95911e+12 -2.2699e+12 -2.06801e+12 -1.39177e+12 -1.30674e+12 -2.52291e+12 -3.25315e+12 -2.17677e+12 -2.21478e+12 -1.97143e+12 -1.08697e+12 -1.32517e+12 -2.82838e+12 -3.097e+12 -2.72782e+12 -1.74438e+12 -673330000000.0 -1.92323e+12 -1.97413e+12 -1.92243e+12 -1.86559e+12 -1.51072e+12 -954827000000.0 -882466000000.0 -1.50543e+12 -1.21493e+12 -1.65456e+12 -2.34226e+12 -2.80035e+12 -1.41737e+12 -1.16544e+12 -1.50142e+12 -2.52747e+12 -1.90228e+12 -1.14743e+12 -1.55319e+12 -1.85969e+12 -1.37717e+12 -517830000000.0 -1.49916e+12 -1.01319e+12 -1.28435e+12 -294566000000.0 -702266000000.0 -243655000000.0 -647410000000.0 -93796900000.0 -239058000000.0 -486055000000.0 -1.03979e+12 -315867000000.0 -201584000000.0 -218148000000.0 -323312000000.0 -388671000000.0 -369378000000.0 -169016000000.0 -149262000000.0 -194311000000.0 -232503000000.0 -391358000000.0 -482867000000.0 -133182000000.0 -191176000000.0 -345200000000.0 -295013000000.0 -59498000000.0 -359240000000.0 -394312000000.0 -750812000000.0 -176218000000.0 -205816000000.0 -550223000000.0 -693491000000.0 -317579000000.0 -831734000000.0 -360464000000.0 -577616000000.0 -535697000000.0 -583174000000.0 -271044000000.0 -212262000000.0 -1.71594e+12 -755713000000.0 -15945800000.0 -1.3112e+12 -1.49906e+12 -349022000000.0 -1.45491e+12 -538982000000.0 -2.22507e+12 -1.29148e+12 -851655000000.0 -1.83248e+12 -1.58238e+12 -457537000000.0 -1.64985e+12 -1.38142e+12 -2.90205e+12 -1.49579e+12 -1.61685e+12 -798098000000.0 -1.58719e+12 -1.86902e+12 -2.75715e+12 -1.68527e+12 -2.12807e+12 -2.50623e+12 -1.73686e+12 -2.14996e+12 -2.16579e+12 -1.37342e+12 -2.31198e+12 -2.27164e+12 -1.71657e+12 -2.16322e+12 -827448000000.0 -3.4822e+12 -2.10659e+12 -1.53377e+12 -2.11259e+12 -849230000000.0 -793853000000.0 -720456000000.0 -1.71145e+12 -1.72324e+12 -994106000000.0 -2.305e+12 -2.32284e+12 -3.4465e+12 -1.37049e+12 -1.03154e+12 -1.49015e+12 -1.15861e+12 -1.77454e+12 -1.29935e+12 -66374600000.0 -413437000000.0 -951678000000.0 -2.40606e+12 -470191000000.0 -1.35964e+12 -1.55029e+12 -1.83913e+12 -725352000000.0 -510052000000.0 -234988000000.0 -301724000000.0 -1.39296e+12 -788499000000.0 -1.58113e+12 -1.32102e+12 -1.18631e+12 -725691000000.0 -1.07582e+12 -590501000000.0 -1.05798e+12 -1.10698e+12 -540135000000.0 -527164000000.0 -575887000000.0 -402739000000.0 -368543000000.0 -492209000000.0 -343248000000.0 -396346000000.0 -337048000000.0 -312774000000.0 -202527000000.0 -168159000000.0 -316644000000.0 -578545000000.0 -143000000000.0 -341684000000.0 -286936000000.0 -376060000000.0 -270869000000.0 -193712000000.0 -643871000000.0 -434192000000.0 -92525000000.0 -792772000000.0 -754807000000.0 -46651700000.0 -88321000000.0 -410738000000.0 -250571000000.0 -279669000000.0 -379108000000.0 -1.22247e+12 -337767000000.0 -1.20845e+12 -979259000000.0 -1.22177e+12 -1.16916e+12 -792929000000.0 -1.07763e+12 -1.22775e+12 -558637000000.0 -578498000000.0 -592286000000.0 -596831000000.0 -687717000000.0 -499405000000.0 -1.32417e+12 -470042000000.0 -848924000000.0 -949834000000.0 -1.02139e+12 -1.09481e+12 -992333000000.0 -680457000000.0 -1.51181e+12 -1.55979e+12 -1.96518e+12 -1.09098e+12 -1.95076e+12 -1.75445e+12 -2.00809e+12 -2.24357e+12 -2.17274e+12 -2.27437e+12 -1.55584e+12 -2.04067e+12 -1.17579e+12 -839383000000.0 -1.62276e+12 -1.48138e+12 -2.28941e+12 -1.52588e+12 -2.23378e+12 -2.68749e+12 -1.97742e+12 -1.7318e+12 -1.6326e+12 -434751000000.0 -1.36684e+12 -1.3271e+12 -1.05002e+12 -1.32079e+12 -137864000000.0 -1.94237e+12 -1.22871e+12 -1.18088e+12 -1.20182e+12 -2.05928e+12 -590497000000.0 -1.10915e+12 -1.10748e+12 -1.03255e+12 -1.28974e+12 -632131000000.0 -855132000000.0 -1.99367e+12 -1.2238e+12 -1.03002e+12 -760763000000.0 -1.47853e+12 -1.02699e+12 -122516000000.0 -1.20758e+12 -1.06706e+12 -865749000000.0 -871456000000.0 -406288000000.0 -270771000000.0 -818805000000.0 -121859000000.0 -237680000000.0 -124621000000.0 -471156000000.0 -416468000000.0 -213414000000.0 -27305800000.0 -186506000000.0 -265217000000.0 -192414000000.0 -203793000000.0 -153006000000.0 -133522000000.0 -251372000000.0 -372210000000.0 -392640000000.0 -296365000000.0 -458314000000.0 -556308000000.0 -220400000000.0 -296528000000.0 -348982000000.0 -198366000000.0 -249905000000.0 -457358000000.0 -138106000000.0 -476487000000.0 -318496000000.0 -692589000000.0 -404981000000.0 -294758000000.0 -385780000000.0 -899137000000.0 -568064000000.0 -873845000000.0 -412324000000.0 -742382000000.0 -674131000000.0 -242570000000.0 -795262000000.0 -592848000000.0 -77437500000.0 -1.17187e+12 -334427000000.0 -540177000000.0 -1.01035e+12 -1.16058e+12 -873063000000.0 -1.09097e+12 -657957000000.0 -1.68883e+12 -1.58853e+12 -2.20516e+12 -1.01099e+12 -496299000000.0 -984464000000.0 -530466000000.0 -1.42379e+12 -2.10987e+12 -2.65543e+12 -448543000000.0 -1.2551e+12 -1.65075e+12 -1.49148e+12 -1.11254e+12 -1.24449e+12 -758688000000.0 -2.59559e+12 -1.80243e+12 -1.19829e+12 -814028000000.0 -2.10637e+12 -2.34565e+12 -1.22326e+12 -703659000000.0 -1.82753e+12 -1.13939e+12 -1.5676e+12 -951739000000.0 -2.1772e+12 -1.5583e+12 -1.41163e+12 -1.18931e+12 -1.36589e+12 -1.17899e+12 -619360000000.0 -1.53586e+12 -1.00793e+12 -1.44736e+12 -1.16116e+12 -814731000000.0 -1.27511e+12 -1.0767e+12 -285917000000.0 -1.04155e+12 -773675000000.0 -275615000000.0 -648943000000.0 -710280000000.0 -243351000000.0 -287839000000.0 -495589000000.0 -223894000000.0 -177548000000.0 -633790000000.0 -389169000000.0 -201674000000.0 -423067000000.0 -433973000000.0 -188934000000.0 -95630400000.0 -74828200000.0 -152916000000.0 -198630000000.0 -104870000000.0 -69428000000.0 -87905400000.0 -102648000000.0 -219392000000.0 -178335000000.0 -216747000000.0 -220437000000.0 -162325000000.0 -336920000000.0 -55859000000.0 -253048000000.0 -231822000000.0 -124453000000.0 -14622300000.0 -300106000000.0 -82330300000.0 -312070000000.0 -556046000000.0 -401707000000.0 -593622000000.0 -191497000000.0 -650450000000.0 -855479000000.0 -297338000000.0 -252381000000.0 -523191000000.0 -789458000000.0 -593763000000.0 -900801000000.0 -869097000000.0 -422858000000.0 -778152000000.0 -830585000000.0 -401417000000.0 -885914000000.0 -355283000000.0 -954405000000.0 -1.40478e+12 -1.72794e+12 -1.11616e+12 -1.16362e+12 -787685000000.0 -1.31397e+12 -546081000000.0 -641893000000.0 -1.52306e+12 -1.27807e+12 -1.54897e+12 -1.23869e+12 -680037000000.0 -1.34451e+12 -1.50965e+12 -1.55078e+12 -1.63742e+12 -434776000000.0 -1.15351e+12 -1.88958e+12 -1.11036e+12 -2.53969e+12 -1.26149e+12 -1.13989e+12 -2.06954e+12 -500524000000.0 -802778000000.0 -1.5798e+12 -377109000000.0 -1.51498e+12 -726051000000.0 -901066000000.0 -1.1224e+12 -772051000000.0 -679690000000.0 -898977000000.0 -695723000000.0 -1.15777e+12 -229252000000.0 -165430000000.0 -629243000000.0 -638028000000.0 -1.03483e+12 -514423000000.0 -651257000000.0 -830826000000.0 -380467000000.0 -518564000000.0 -472653000000.0 -360192000000.0 -750516000000.0 -123684000000.0 -751026000000.0 -401733000000.0 -570377000000.0 -438725000000.0 -369360000000.0 -114390000000.0 -114144000000.0 -437035000000.0 -116570000000.0 -348686000000.0 -426657000000.0 -333853000000.0 -196938000000.0 -129303000000.0 -338446000000.0 -34314800000.0 -83952900000.0 -117842000000.0 -95134800000.0 -95947900000.0 -174236000000.0 -150524000000.0 -173750000000.0 -85020200000.0 -118179000000.0 -48363300000.0 -48834800000.0 -302276000000.0 -327282000000.0 -328206000000.0 -194533000000.0 -171754000000.0 -371022000000.0 -163674000000.0 -235573000000.0 -226136000000.0 -359590000000.0 -695767000000.0 -156785000000.0 -227807000000.0 -305744000000.0 -564997000000.0 -610384000000.0 -777786000000.0 -719273000000.0 -835891000000.0 -216120000000.0 -924928000000.0 -731335000000.0 -316811000000.0 -232004000000.0 -671219000000.0 -379163000000.0 -641077000000.0 -1.46389e+12 -979414000000.0 -399598000000.0 -755657000000.0 -1.75277e+12 -195162000000.0 -1.22255e+12 -1.52926e+12 -705369000000.0 -609944000000.0 -684350000000.0 -269341000000.0 -712410000000.0 -1.15948e+12 -222980000000.0 -468904000000.0 -1.1519e+12 -1.67134e+12 -1.43122e+12 -646317000000.0 -887194000000.0 -1.29552e+12 -407385000000.0 -1.00315e+12 -1.39361e+12 -246197000000.0 -630615000000.0 -921181000000.0 -362464000000.0 -945845000000.0 -819784000000.0 -512874000000.0 -942738000000.0 -1.03195e+12 -672712000000.0 -431782000000.0 -1.0699e+12 -1.03353e+12 -916432000000.0 -213069000000.0 -512431000000.0 -754382000000.0 -628247000000.0 -761239000000.0 -706927000000.0 -281869000000.0 -280084000000.0 -245596000000.0 -725989000000.0 -597298000000.0 -624543000000.0 -428911000000.0 -749928000000.0 -22303700000.0 -238876000000.0 -46757200000.0 -336761000000.0 -344519000000.0 -254053000000.0 -323796000000.0 -275876000000.0 -227930000000.0 -194979000000.0 -251021000000.0 -122380000000.0 -135349000000.0 -110512000000.0 -222240000000.0 -57450600000.0 -120111000000.0 -105911000000.0 -167915000000.0 -225062000000.0 -128365000000.0 -189802000000.0 -161530000000.0 -189898000000.0 -170295000000.0 -187264000000.0 -274874000000.0 -306963000000.0 -77064100000.0 -64669600000.0 -122731000000.0 -307725000000.0 -129674000000.0 -68256700000.0 -65675900000.0 -175609000000.0 -155913000000.0 -98919900000.0 -336634000000.0 -70889900000.0 -22586400000.0 -426500000000.0 -290484000000.0 -127887000000.0 -257393000000.0 -550634000000.0 -694150000000.0 -628144000000.0 -325272000000.0 -612262000000.0 -698834000000.0 -598256000000.0 -678499000000.0 -473394000000.0 -1.08534e+12 -534065000000.0 -338880000000.0 -565952000000.0 -1.38123e+12 -700711000000.0 -1.26806e+12 -718704000000.0 -497785000000.0 -809884000000.0 -600519000000.0 -784270000000.0 -724007000000.0 -621151000000.0 -937711000000.0 -282498000000.0 -137827000000.0 -990188000000.0 -596381000000.0 -1.13399e+12 -1.99902e+12 -1.42938e+12 -658962000000.0 -622595000000.0 -626328000000.0 -256535000000.0 -556389000000.0 -803462000000.0 -390946000000.0 -18635700000.0 -734714000000.0 -384374000000.0 -358646000000.0 -250034000000.0 -426330000000.0 -309619000000.0 -672337000000.0 -498339000000.0 -499115000000.0 -615555000000.0 -854747000000.0 -942463000000.0 -579377000000.0 -574469000000.0 -785880000000.0 -690625000000.0 -498812000000.0 -497285000000.0 -220079000000.0 -523445000000.0 -552441000000.0 -161698000000.0 -192168000000.0 -133515000000.0 -52970500000.0 -251231000000.0 -221770000000.0 -183369000000.0 -110787000000.0 -212553000000.0 -151919000000.0 -169620000000.0 -187819000000.0 -33458300000.0 -113125000000.0 -153206000000.0 -158761000000.0 -24765300000.0 -31780100000.0 -58832100000.0 -58165200000.0 -74927500000.0 -153026000000.0 -92657000000.0 -179381000000.0 -105139000000.0 -24734300000.0 -12549700000.0 -178572000000.0 -18080400000.0 -303636000000.0 -117158000000.0 -254666000000.0 -226294000000.0 -15783100000.0 -147897000000.0 -462948000000.0 -333902000000.0 -280645000000.0 -62079100000.0 -231748000000.0 -138382000000.0 -219841000000.0 -68475900000.0 -817292000000.0 -380492000000.0 -119730000000.0 -237069000000.0 -423886000000.0 -508959000000.0 -108548000000.0 -77660900000.0 -363285000000.0 -840988000000.0 -355462000000.0 -681957000000.0 -302485000000.0 -550477000000.0 -510349000000.0 -1.04712e+12 -496419000000.0 -539246000000.0 -394213000000.0 -350554000000.0 -305796000000.0 -634060000000.0 -736469000000.0 -352393000000.0 -450932000000.0 -780947000000.0 -697985000000.0 -709870000000.0 -83013300000.0 -1.05584e+12 -897295000000.0 -500059000000.0 -896882000000.0 -1.11233e+12 -714200000000.0 -463945000000.0 -384176000000.0 -300921000000.0 -661981000000.0 -360608000000.0 -435553000000.0 -565334000000.0 -532934000000.0 -517200000000.0 -618710000000.0 -326015000000.0 -489778000000.0 -613800000000.0 -819703000000.0 -632431000000.0 -303868000000.0 -427163000000.0 -194862000000.0 -380127000000.0 -224891000000.0 -375275000000.0 -311240000000.0 -274780000000.0 -282564000000.0 -350967000000.0 -409214000000.0 -436758000000.0 -304605000000.0 -110080000000.0 -38120600000.0 -375415000000.0 -75443100000.0 -49102200000.0 -94987300000.0 -98708300000.0 -76675300000.0 -205812000000.0 -102601000000.0 -162263000000.0 -15923500000.0 -173305000000.0 -182061000000.0 -68890400000.0 -122952000000.0 -37034800000.0 -123809000000.0 -48048600000.0 -37371600000.0 -44474700000.0 -92613000000.0 -39668700000.0 -28528900000.0 -15489000000.0 -71575700000.0 -40761900000.0 -73658200000.0 -67037200000.0 -107204000000.0 -97586400000.0 -102428000000.0 -158954000000.0 -209279000000.0 -177602000000.0 -36910000000.0 -304273000000.0 -358120000000.0 -225148000000.0 -156276000000.0 -99405300000.0 -179612000000.0 -123840000000.0 -225657000000.0 -92954700000.0 -114211000000.0 -42046100000.0 -710742000000.0 -207784000000.0 -328080000000.0 -66459800000.0 -193217000000.0 -565535000000.0 -750439000000.0 -764523000000.0 -216715000000.0 -891051000000.0 -686152000000.0 -334104000000.0 -839638000000.0 -510071000000.0 -463477000000.0 -580459000000.0 -883403000000.0 -572355000000.0 -358452000000.0 -304091000000.0 -259173000000.0 -479620000000.0 -775659000000.0 -261540000000.0 -574078000000.0 -134302000000.0 -140449000000.0 -763904000000.0 -777824000000.0 -347354000000.0 -205122000000.0 -136864000000.0 -369807000000.0 -454499000000.0 -46266700000.0 -612949000000.0 -171295000000.0 -473273000000.0 -154460000000.0 -94214800000.0 -219934000000.0 -292041000000.0 -342455000000.0 -407053000000.0 -283392000000.0 -318850000000.0 -247345000000.0 -519415000000.0 -467053000000.0 -250863000000.0 -193600000000.0 -154852000000.0 -155463000000.0 -144940000000.0 -173139000000.0 -334166000000.0 -130186000000.0 -20915500000.0 -243675000000.0 -48529800000.0 -199282000000.0 -337323000000.0 -24924400000.0 -88839000000.0 -24262700000.0 -122124000000.0 -69068000000.0 -37526100000.0 -44514300000.0 -83035200000.0 -86168500000.0 -62582100000.0 -22253300000.0 -30840800000.0 -30047000000.0 -12549700000.0 -35050700000.0 -62878500000.0 -25605400000.0 -12549700000.0 -40926200000.0 -12549700000.0 -17863400000.0 -36990900000.0 -29890200000.0 -71110900000.0 -122755000000.0 -64970400000.0 -152707000000.0 -139663000000.0 -63513600000.0 -77367700000.0 -41912700000.0 -109262000000.0 -59782400000.0 -93634600000.0 -108362000000.0 -67668800000.0 -219792000000.0 -54047200000.0 -231739000000.0 -243926000000.0 -315403000000.0 -215184000000.0 -147102000000.0 -122325000000.0 -86837700000.0 -147371000000.0 -222463000000.0 -148499000000.0 -639166000000.0 -467644000000.0 -367996000000.0 -389130000000.0 -231618000000.0 -542738000000.0 -481437000000.0 -224995000000.0 -359634000000.0 -253079000000.0 -863344000000.0 -411361000000.0 -225298000000.0 -495052000000.0 -301075000000.0 -527491000000.0 -415285000000.0 -317374000000.0 -369349000000.0 -279910000000.0 -516262000000.0 -389805000000.0 -367601000000.0 -203135000000.0 -117319000000.0 -378847000000.0 -481381000000.0 -304592000000.0 -527163000000.0 -239719000000.0 -122765000000.0 -194101000000.0 -221363000000.0 -146982000000.0 -379453000000.0 -281504000000.0 -140890000000.0 -210975000000.0 -134983000000.0 -455460000000.0 -129214000000.0 -229056000000.0 -71143700000.0 -155086000000.0 -133001000000.0 -123975000000.0 -145017000000.0 -137949000000.0 -231693000000.0 -42318500000.0 -48041900000.0 -16322600000.0 -24035100000.0 -201154000000.0 -137454000000.0 -12549700000.0 -82354800000.0 -22880600000.0 -24642300000.0 -34319700000.0 -95527500000.0 -31315000000.0 -12980200000.0 -13300800000.0 -39275600000.0 -12549700000.0 -12549700000.0 -13300800000.0 -14344100000.0 -46917900000.0 -32624300000.0 -35192600000.0 -31429800000.0 -33142300000.0 -47367000000.0 -38794000000.0 -30189800000.0 -31200800000.0 -31307100000.0 -79873300000.0 -49660400000.0 -36650100000.0 -40805500000.0 -77968600000.0 -51759000000.0 -61972700000.0 -47297900000.0 -84055600000.0 -130278000000.0 -102675000000.0 -100589000000.0 -139726000000.0 -62577500000.0 -255802000000.0 -53211300000.0 -63522300000.0 -203837000000.0 -275920000000.0 -191392000000.0 -280504000000.0 -377717000000.0 -72485900000.0 -189687000000.0 -143211000000.0 -296696000000.0 -174634000000.0 -167370000000.0 -186947000000.0 -50254100000.0 -137680000000.0 -394646000000.0 -430853000000.0 -83801700000.0 -483663000000.0 -353506000000.0 -93183700000.0 -192874000000.0 -406910000000.0 -89992500000.0 -289637000000.0 -252458000000.0 -228067000000.0 -128519000000.0 -361374000000.0 -19812200000.0 -202456000000.0 -328554000000.0 -282956000000.0 -118631000000.0 -155935000000.0 -147190000000.0 -134807000000.0 -86633800000.0 -76813500000.0 -140396000000.0 -216090000000.0 -200397000000.0 -117340000000.0 -180413000000.0 -61900100000.0 -181788000000.0 -72209500000.0 -68550900000.0 -157748000000.0 -131472000000.0 -147462000000.0 -105459000000.0 -169052000000.0 -109140000000.0 -68359200000.0 -92529300000.0 -28776700000.0 -12908100000.0 -139318000000.0 -56511700000.0 -16228300000.0 -29705700000.0 -56924300000.0 -20602000000.0 -13252900000.0 -23947000000.0 -21198600000.0 -13730700000.0 -67305500000.0 -17417500000.0 -25007600000.0 -28947000000.0 -12610600000.0 -16955300000.0 -16993300000.0 -15708100000.0 -12549700000.0 -27655500000.0 -59100300000.0 -27710000000.0 -18202100000.0 -47999600000.0 -31292400000.0 -36622500000.0 -34176100000.0 -31225800000.0 -17237000000.0 -30739500000.0 -48656500000.0 -20320800000.0 -29010300000.0 -57843700000.0 -69565300000.0 -71191600000.0 -64302900000.0 -34747300000.0 -112550000000.0 -47718100000.0 -94281700000.0 -89713500000.0 -81581700000.0 -161885000000.0 -101139000000.0 -196537000000.0 -121832000000.0 -112094000000.0 -36852400000.0 -137325000000.0 -93879700000.0 -180496000000.0 -102611000000.0 -136666000000.0 -186796000000.0 -210267000000.0 -47604100000.0 -284252000000.0 -98311200000.0 -329630000000.0 -139272000000.0 -223217000000.0 -210958000000.0 -541218000000.0 -177307000000.0 -261763000000.0 -349822000000.0 -89156100000.0 -70594700000.0 -39059000000.0 -101046000000.0 -101892000000.0 -38119100000.0 -72920500000.0 -60642000000.0 -63926400000.0 -33137100000.0 -52070500000.0 -28679200000.0 -72200100000.0 -89863200000.0 -69639200000.0 -60721000000.0 -62081500000.0 -19229300000.0 -27605700000.0 -28713000000.0 -36057500000.0 -20568700000.0 -38721600000.0 -21220600000.0 -28759200000.0 -13559000000.0 -21603100000.0 -47451100000.0 -52503100000.0 -46214600000.0 -41084900000.0 -44022000000.0 -27743200000.0 -19679700000.0 -23563000000.0 -14356200000.0 -21857700000.0 -30686600000.0 -17962200000.0 -16669800000.0 -18048400000.0 -26792400000.0 -22641900000.0 -16238600000.0 -13985400000.0 -17082200000.0 -26821800000.0 -21740300000.0 -23856300000.0 -29718100000.0 -19876900000.0 -15633100000.0 -38797000000.0 -47206000000.0 -41636700000.0 -38920000000.0 -26781700000.0 -25603300000.0 -40920200000.0 -48698000000.0 -36238700000.0 -37419200000.0 -49405200000.0 -27950000000.0 -19928000000.0 -19323000000.0 -21193300000.0 -23164400000.0 -20670900000.0 -31153900000.0 -52289300000.0 -42457300000.0 -44053700000.0 -35410900000.0 -100546000000.0 -89043400000.0 -115011000000.0 -35669800000.0 -86764200000.0 -74850800000.0 -72258400000.0 -60849100000.0 -59046600000.0 -31436100000.0 -51268200000.0 -40514400000.0 -84209500000.0 -113398000000.0 -100392000000.0 -36004500000.0 -52668100000.0 -31628300000.0 