# vtk DataFile Version 2.0
Time step 87
ASCII
DATASET UNSTRUCTURED_GRID
POINTS 4650 float
294561.0 299109.0 0
205463.0 302088.0 0
208935.0 300120.0 0
212373.0 302146.0 0
215772.0 300092.0 0
219508.0 301440.0 0
237145.0 302016.0 0
244096.0 301826.0 0
247529.0 299778.0 0
251028.0 301708.0 0
257983.0 301662.0 0
264420.0 301011.0 0
277130.0 301248.0 0
284205.0 301127.0 0
291109.0 301099.0 0
298002.0 301117.0 0
201999.0 304067.0 0
208913.0 304107.0 0
215837.0 304139.0 0
223234.0 302818.0 0
226852.0 304453.0 0
233750.0 304127.0 0
240676.0 303889.0 0
247596.0 303755.0 0
254515.0 303653.0 0
261443.0 303663.0 0
266634.0 304325.0 0
273639.0 303332.0 0
280769.0 303156.0 0
287676.0 303098.0 0
294561.0 303100.0 0
205450.0 306068.0 0
212371.0 306117.0 0
219614.0 305417.0 0
223355.0 306794.0 0
230382.0 306270.0 0
237284.0 305991.0 0
244181.0 305802.0 0
251077.0 305684.0 0
257973.0 305638.0 0
270137.0 306216.0 0
273963.0 307295.0 0
277356.0 305218.0 0
280859.0 307134.0 0
284256.0 305111.0 0
287720.0 307079.0 0
291132.0 305085.0 0
294576.0 307076.0 0
298003.0 305099.0 0
201998.0 308045.0 0
205437.0 310029.0 0
208898.0 308070.0 0
215823.0 308124.0 0
219610.0 309374.0 0
226990.0 308428.0 0
233913.0 308104.0 0
237449.0 309950.0 0
240799.0 307866.0 0
244278.0 309771.0 0
247660.0 307722.0 0
251108.0 309650.0 0
254532.0 307631.0 0
257968.0 309603.0 0
261407.0 307628.0 0
265323.0 308078.0 0
268789.0 309957.0 0
277489.0 309175.0 0
284329.0 309084.0 0
291166.0 309057.0 0
298004.0 309068.0 0
201996.0 312005.0 0
208860.0 312019.0 0
212336.0 310072.0 0
215752.0 312088.0 0
223352.0 310749.0 0
226987.0 312381.0 0
230540.0 310233.0 0
234139.0 312044.0 0
240933.0 311835.0 0
247723.0 311688.0 0
254523.0 311587.0 0
261415.0 311575.0 0
265355.0 312055.0 0
274156.0 311226.0 0
280963.0 311101.0 0
287775.0 311047.0 0
294594.0 311040.0 0
205413.0 313978.0 0
212258.0 314016.0 0
219519.0 313307.0 0
223229.0 314679.0 0
230884.0 314146.0 0
237629.0 313912.0 0
244377.0 313741.0 0
251133.0 313613.0 0
257903.0 313530.0 0
270873.0 313275.0 0
274317.0 315177.0 0
277625.0 313133.0 0
281063.0 315061.0 0
284407.0 313048.0 0
287832.0 315005.0 0
291203.0 313019.0 0
294613.0 314995.0 0
298006.0 313027.0 0
201994.0 315954.0 0
208801.0 315963.0 0
215618.0 316029.0 0
219330.0 317218.0 0
227684.0 316238.0 0
234369.0 316000.0 0
241069.0 315805.0 0
244474.0 317711.0 0
247786.0 315656.0 0
251163.0 317577.0 0
254510.0 315544.0 0
257847.0 317485.0 0
261218.0 315479.0 0
264443.0 317438.0 0
267596.0 315299.0 0
271025.0 317218.0 0
277741.0 317087.0 0
284481.0 317002.0 0
291239.0 316970.0 0
298007.0 316975.0 0
201992.0 319895.0 0
205383.0 317923.0 0
208737.0 319914.0 0
212150.0 317962.0 0
215458.0 319950.0 0
221478.0 320390.0 0
224553.0 318332.0 0
227980.0 320188.0 0
231152.0 318094.0 0
234568.0 319968.0 0
237801.0 317882.0 0
241197.0 319777.0 0
247851.0 319622.0 0
254512.0 319506.0 0
261149.0 319440.0 0
267784.0 319286.0 0
274435.0 319121.0 0
281149.0 319011.0 0
287883.0 318953.0 0
294631.0 318939.0 0
205351.0 321865.0 0
212051.0 321926.0 0
218384.0 322343.0 0
224836.0 322274.0 0
231367.0 322060.0 0
237950.0 321854.0 0
244567.0 321678.0 0
251204.0 321538.0 0
257841.0 321440.0 0
264494.0 321350.0 0
271151.0 321167.0 0
277831.0 321028.0 0
281217.0 322945.0 0
284543.0 320944.0 0
287926.0 322887.0 0
291271.0 320909.0 0
294646.0 322871.0 0
298009.0 320912.0 0
201990.0 323828.0 0
208671.0 323868.0 0
215162.0 324153.0 0
221671.0 324309.0 0
228185.0 324147.0 0
234730.0 323938.0 0
241311.0 323745.0 0
247918.0 323582.0 0
251256.0 325486.0 0
254541.0 323456.0 0
257881.0 325365.0 0
261184.0 323358.0 0
264542.0 325244.0 0
267854.0 323212.0 0
271218.0 325082.0 0
274526.0 323054.0 0
277900.0 324952.0 0
284593.0 324871.0 0
291298.0 324836.0 0
298010.0 324836.0 0
201988.0 327751.0 0
205319.0 325803.0 0
208600.0 327833.0 0
211892.0 325968.0 0
215169.0 328069.0 0
218436.0 326233.0 0
221759.0 328200.0 0
224992.0 326207.0 0
228317.0 328090.0 0
231524.0 326022.0 0
234856.0 327897.0 0
238076.0 325819.0 0
241410.0 327700.0 0
244655.0 325637.0 0
247987.0 327528.0 0
254590.0 327383.0 0
261229.0 327254.0 0
267903.0 327105.0 0
274583.0 326961.0 0
281268.0 326861.0 0
287960.0 326806.0 0
294659.0 326790.0 0
205297.0 329733.0 0
211892.0 329898.0 0
218495.0 330107.0 0
225088.0 330116.0 0
231639.0 329966.0 0
238180.0 329770.0 0
244736.0 329580.0 0
251314.0 329413.0 0
257927.0 329265.0 0
264583.0 329120.0 0
271263.0 328969.0 0
277946.0 328852.0 0
281303.0 330756.0 0
284630.0 328780.0 0
287984.0 330709.0 0
291318.0 328748.0 0
294668.0 330694.0 0
298011.0 328747.0 0
201986.0 331653.0 0
208604.0 331749.0 0
215218.0 331952.0 0
221835.0 332079.0 0
228412.0 332010.0 0
234957.0 331836.0 0
241499.0 331638.0 0
248056.0 331454.0 0
251371.0 333320.0 0
254640.0 331287.0 0
257967.0 333144.0 0
261269.0 331129.0 0
264613.0 332976.0 0
267938.0 330974.0 0
271291.0 332830.0 0
274621.0 330843.0 0
277975.0 332730.0 0
284654.0 332671.0 0
291332.0 332644.0 0
298012.0 332642.0 0
201986.0 335519.0 0
205303.0 333624.0 0
208634.0 335617.0 0
211933.0 333781.0 0
215284.0 335808.0 0
218566.0 333970.0 0
221916.0 335952.0 0
225171.0 334011.0 0
228500.0 335914.0 0
231733.0 333889.0 0
235050.0 335754.0 0
238273.0 333700.0 0
241585.0 335555.0 0
244814.0 333502.0 0
248122.0 335360.0 0
254683.0 335170.0 0
261295.0 334983.0 0
267958.0 334817.0 0
274642.0 334699.0 0
281324.0 334630.0 0
288000.0 334594.0 0
294674.0 334582.0 0
205318.0 337470.0 0
211986.0 337622.0 0
218647.0 337821.0 0
225259.0 337897.0 0
231827.0 337792.0 0
238366.0 337608.0 0
244892.0 337403.0 0
251422.0 337209.0 0
257991.0 337001.0 0
264624.0 336809.0 0
271302.0 336665.0 0
274644.0 338530.0 0
277988.0 336584.0 0
281330.0 338483.0 0
284667.0 336542.0 0
288006.0 338461.0 0
291340.0 336522.0 0
294677.0 338452.0 0
298012.0 336520.0 0
201986.0 339342.0 0
205332.0 341270.0 0
208668.0 339438.0 0
215355.0 339634.0 0
222007.0 339818.0 0
228597.0 339803.0 0
235154.0 339651.0 0
241677.0 339450.0 0
248188.0 339248.0 0
251465.0 341086.0 0
254711.0 339036.0 0
257993.0 340839.0 0
261299.0 338814.0 0
264607.0 340616.0 0
267955.0 338634.0 0
271286.0 340470.0 0
277983.0 340415.0 0
284669.0 340393.0 0
291343.0 340382.0 0
298013.0 340380.0 0
201986.0 343126.0 0
208692.0 343213.0 0
212035.0 341421.0 0
215419.0 343421.0 0
218733.0 341651.0 0
222110.0 343677.0 0
225360.0 341777.0 0
228718.0 343675.0 0
231941.0 341675.0 0
235292.0 343528.0 0
238478.0 341497.0 0
241792.0 343328.0 0
244978.0 341286.0 0
248257.0 343126.0 0
254721.0 342889.0 0
261271.0 342622.0 0
267914.0 342419.0 0
274617.0 342334.0 0
281321.0 342314.0 0
288008.0 342308.0 0
294679.0 342301.0 0
205338.0 345028.0 0
212066.0 345174.0 0
218815.0 345448.0 0
225482.0 345651.0 0
232102.0 345531.0 0
238639.0 345374.0 0
245085.0 345155.0 0
251498.0 344963.0 0
257967.0 344661.0 0
264540.0 344395.0 0
267791.0 346168.0 0
271223.0 344238.0 0
274539.0 346103.0 0
277951.0 344219.0 0
281307.0 346115.0 0
284666.0 344221.0 0
288013.0 346135.0 0
291345.0 344222.0 0
294681.0 346130.0 0
298014.0 344218.0 0
201985.0 346875.0 0
205328.0 348754.0 0
208696.0 346946.0 0
212058.0 348882.0 0
215451.0 347158.0 0
222215.0 347526.0 0
228889.0 347518.0 0
235509.0 347382.0 0
241955.0 347200.0 0
248336.0 347005.0 0
251512.0 348866.0 0
254705.0 346734.0 0
257909.0 348465.0 0
261207.0 346413.0 0
264435.0 348164.0 0
270998.0 347944.0 0
277912.0 347980.0 0
284677.0 348027.0 0
291355.0 348046.0 0
298014.0 348034.0 0
201984.0 350601.0 0
208661.0 350646.0 0
215424.0 350842.0 0
218847.0 349181.0 0
222291.0 351344.0 0
225642.0 349515.0 0
229206.0 351288.0 0
232371.0 349340.0 0
235852.0 351217.0 0
238886.0 349256.0 0
242197.0 351084.0 0
245235.0 349020.0 0
248455.0 350915.0 0
254622.0 350563.0 0
261136.0 350189.0 0
267613.0 349927.0 0
274096.0 349754.0 0
277101.0 351544.0 0
281320.0 349881.0 0
284734.0 351814.0 0
288042.0 349950.0 0
294689.0 349937.0 0
205305.0 352463.0 0
211973.0 352550.0 0
218804.0 352841.0 0
226119.0 353309.0 0
232735.0 353095.0 0
239324.0 353170.0 0
245401.0 352883.0 0
251095.0 353442.0 0
257870.0 352222.0 0
261064.0 353968.0 0
264313.0 351947.0 0
267424.0 353725.0 0
270715.0 351705.0 0
273758.0 353495.0 0
280040.0 353287.0 0
288129.0 353769.0 0
291388.0 351866.0 0
294714.0 353728.0 0
298016.0 351827.0 0
201982.0 354315.0 0
205283.0 356166.0 0
208607.0 354339.0 0
211880.0 356237.0 0
215239.0 354463.0 0
218388.0 356365.0 0
222894.0 355054.0 0
229680.0 355053.0 0
236227.0 354980.0 0
242743.0 355317.0 0
247880.0 355538.0 0
254588.0 354239.0 0
257828.0 355959.0 0
264191.0 355757.0 0
270482.0 355499.0 0
276770.0 355274.0 0
282945.0 354974.0 0
285854.0 356600.0 0
291482.0 355709.0 0
298020.0 355600.0 0
201981.0 358020.0 0
208570.0 358031.0 0
215094.0 358180.0 0
221367.0 358195.0 0
224479.0 359723.0 0
226718.0 357080.0 0
230274.0 358831.0 0
233192.0 356830.0 0
236642.0 358747.0 0
239618.0 356995.0 0
245227.0 358257.0 0
250979.0 357495.0 0
254544.0 357853.0 0
260990.0 357762.0 0
267254.0 357553.0 0
270299.0 359296.0 0
273524.0 357261.0 0
276579.0 359014.0 0
279776.0 357028.0 0
282789.0 358743.0 0
288802.0 358178.0 0
294804.0 357510.0 0
201979.0 361716.0 0
205269.0 359856.0 0
208566.0 361696.0 0
211847.0 359937.0 0
215118.0 361934.0 0
218257.0 360106.0 0
221534.0 361875.0 0
227763.0 361174.0 0
233788.0 360549.0 0
238460.0 362036.0 0
241821.0 360079.0 0
245077.0 362141.0 0
248461.0 360362.0 0
254539.0 361416.0 0
257787.0 359686.0 0
260891.0 361585.0 0
264066.0 359598.0 0
267103.0 361401.0 0
273373.0 361006.0 0
279651.0 360759.0 0
285812.0 360410.0 0
291850.0 359680.0 0
294933.0 361361.0 0
298026.0 359375.0 0
205259.0 363520.0 0
211906.0 363578.0 0
218449.0 363798.0 0
224940.0 363422.0 0
228426.0 364900.0 0
231205.0 362681.0 0
235153.0 364068.0 0
241772.0 363978.0 0
248136.0 364374.0 0
251345.0 362797.0 0
257687.0 363452.0 0
263948.0 363462.0 0
270159.0 363062.0 0
273292.0 364693.0 0
276485.0 362724.0 0
279613.0 364470.0 0
282728.0 362488.0 0
285787.0 364187.0 0
288845.0 362015.0 0
291863.0 363523.0 0
298032.0 363154.0 0
201979.0 365418.0 0
205285.0 367159.0 0
208579.0 365286.0 0
215302.0 365648.0 0
218843.0 367402.0 0
221926.0 365482.0 0
225456.0 367033.0 0
232044.0 366299.0 0
238541.0 365910.0 0
244932.0 366094.0 0
251220.0 366676.0 0
254443.0 365141.0 0
257586.0 367242.0 0
260790.0 365425.0 0
266977.0 365270.0 0
270069.0 366749.0 0
276473.0 366391.0 0
282712.0 366232.0 0
288786.0 365859.0 0
294931.0 365117.0 0
201984.0 369165.0 0
208731.0 368809.0 0
211982.0 367062.0 0
215771.0 369283.0 0
222423.0 369055.0 0
228995.0 368518.0 0
232390.0 370097.0 0
235431.0 367952.0 0
238676.0 369846.0 0
241768.0 367917.0 0
244902.0 370042.0 0
248040.0 368306.0 0
254355.0 368921.0 0
260704.0 369274.0 0
263863.0 367353.0 0
266918.0 369194.0 0
273313.0 368295.0 0
279609.0 368170.0 0
285759.0 367999.0 0
288742.0 369776.0 0
291797.0 367235.0 0
294961.0 368742.0 0
298036.0 366864.0 0
202212.0 372856.0 0
205440.0 370731.0 0
209192.0 372197.0 0
212348.0 370425.0 0
219402.0 370970.0 0
222931.0 372671.0 0
225951.0 370641.0 0
229371.0 372240.0 0
235648.0 371867.0 0
241822.0 371878.0 0
248000.0 372222.0 0
251150.0 370538.0 0
257496.0 371049.0 0
263793.0 371267.0 0
270141.0 370253.0 0
273362.0 371861.0 0
276488.0 370038.0 0
279551.0 371878.0 0
282679.0 369989.0 0
285696.0 371840.0 0
291878.0 370718.0 0
298042.0 370536.0 0
200651.0 375962.0 0
206280.0 374050.0 0
212689.0 373824.0 0
216375.0 372758.0 0
219904.0 374572.0 0
226381.0 374332.0 0
232658.0 373948.0 0
238799.0 373806.0 0
244910.0 373993.0 0
251085.0 374408.0 0
254267.0 372730.0 0
257365.0 374860.0 0
260617.0 373132.0 0
263694.0 375235.0 0
266795.0 373233.0 0
270160.0 373575.0 0
276399.0 373702.0 0
282550.0 373746.0 0
288582.0 373849.0 0
291851.0 373939.0 0
295047.0 372305.0 0
294719.0 375784.0 0
298026.0 374239.0 0
198267.0 378365.0 0
201652.0 379064.0 0
204036.0 376341.0 0
209628.0 375728.0 0
212575.0 377612.0 0
215553.0 375915.0 0
218402.0 377528.0 0
223423.0 376339.0 0
229700.0 376037.0 0
232882.0 377845.0 0
235822.0 375803.0 0
238897.0 377778.0 0
241878.0 375849.0 0
244913.0 377953.0 0
247967.0 376144.0 0
254151.0 376569.0 0
260410.0 376972.0 0
266502.0 377635.0 0
269799.0 376839.0 0
273191.0 375432.0 0
276124.0 377350.0 0
279361.0 375584.0 0
282266.0 377493.0 0
285463.0 375687.0 0
288142.0 377904.0 0
291313.0 377113.0 0
297138.0 377962.0 0
300108.0 377345.0 0
192167.0 382160.0 0
195367.0 380171.0 0
198681.0 381270.0 0
204708.0 380102.0 0
207060.0 377852.0 0
209868.0 379629.0 0
215541.0 379541.0 0
221315.0 378951.0 0
224299.0 380435.0 0
226794.0 378106.0 0
229992.0 379911.0 0
235957.0 379761.0 0
241916.0 379829.0 0
247918.0 380084.0 0
251001.0 378301.0 0
254002.0 380447.0 0
257176.0 378704.0 0
263300.0 379178.0 0
269372.0 380287.0 0
272773.0 378947.0 0
279033.0 379268.0 0
285037.0 379535.0 0
290800.0 380569.0 0
294021.0 379327.0 0
299899.0 380479.0 0
303045.0 379190.0 0
306014.0 381049.0 0
188883.0 384217.0 0
195133.0 382961.0 0
198041.0 383933.0 0
201914.0 382009.0 0
207288.0 381825.0 0
212793.0 381437.0 0
215786.0 383235.0 0
218578.0 381188.0 0
221604.0 382725.0 0
227294.0 382097.0 0
233059.0 381788.0 0
238963.0 381760.0 0
244895.0 381926.0 0
250892.0 382224.0 0
256946.0 382597.0 0
260109.0 380865.0 0
262979.0 383085.0 0
266140.0 381516.0 0
272363.0 382479.0 0
275723.0 380945.0 0
281871.0 381245.0 0
287721.0 381764.0 0
293641.0 382813.0 0
296794.0 381486.0 0
299745.0 383684.0 0
302915.0 382407.0 0
305929.0 384343.0 0
308990.0 382908.0 0
185632.0 386260.0 0
188614.0 387228.0 0
191821.0 385020.0 0
194981.0 385900.0 0
198246.0 386865.0 0
201114.0 384626.0 0
204528.0 384016.0 0
207456.0 385554.0 0
210157.0 383485.0 0
213051.0 385239.0 0
218796.0 384896.0 0
224582.0 384334.0 0
230258.0 383897.0 0
233185.0 385775.0 0
236048.0 383738.0 0
238983.0 385752.0 0
241921.0 383819.0 0
247844.0 384047.0 0
253829.0 384366.0 0
259840.0 384770.0 0
265857.0 385347.0 0
269058.0 383905.0 0
275321.0 384540.0 0
278626.0 382930.0 0
281479.0 384960.0 0
284643.0 383335.0 0
287432.0 385518.0 0
290508.0 384144.0 0
293426.0 386298.0 0
296576.0 384896.0 0
302815.0 385623.0 0
308931.0 386198.0 0
311985.0 384777.0 0
315015.0 386669.0 0
182488.0 388229.0 0
185557.0 389510.0 0
192064.0 387894.0 0
195437.0 388899.0 0
201614.0 387338.0 0
204725.0 387631.0 0
210327.0 387267.0 0
215972.0 386978.0 0
218911.0 388656.0 0
221770.0 386525.0 0
224691.0 388229.0 0
227517.0 386079.0 0
230429.0 387948.0 0
236071.0 387729.0 0
241886.0 387818.0 0
244847.0 385914.0 0
247746.0 388030.0 0
250763.0 386177.0 0
253659.0 388312.0 0
256729.0 386516.0 0
262716.0 386965.0 0
268776.0 387597.0 0
272019.0 386081.0 0
274960.0 388159.0 0
278236.0 386572.0 0
284326.0 387052.0 0
290311.0 387740.0 0
296433.0 388272.0 0
299625.0 386909.0 0
302759.0 388820.0 0
305866.0 387672.0 0
308894.0 389503.0 0
311965.0 388025.0 0
318086.0 388586.0 0
175898.0 392339.0 0
179196.0 390278.0 0
182120.0 391342.0 0
187358.0 392037.0 0
189427.0 390012.0 0
192732.0 390896.0 0
196119.0 391937.0 0
198824.0 389789.0 0
202055.0 390280.0 0
207612.0 389281.0 0
210317.0 391069.0 0
213149.0 389024.0 0
216026.0 390733.0 0
221823.0 390355.0 0
227571.0 390032.0 0
233308.0 389907.0 0
238936.0 389740.0 0
244763.0 389916.0 0
250629.0 390152.0 0
256538.0 390449.0 0
259610.0 388675.0 0
262490.0 390835.0 0
265607.0 389162.0 0
271715.0 389739.0 0
277875.0 390197.0 0
281133.0 388618.0 0
284057.0 390685.0 0
287221.0 389188.0 0
290184.0 391339.0 0
293272.0 389796.0 0
296304.0 391633.0 0
299542.0 390126.0 0
302746.0 391934.0 0
305843.0 391077.0 0
311969.0 391266.0 0
315047.0 389878.0 0
318193.0 391774.0 0
321196.0 390528.0 0
172618.0 394389.0 0
178789.0 393397.0 0
181527.0 394728.0 0
184584.0 393088.0 0
187636.0 395194.0 0
190418.0 393356.0 0
193574.0 393944.0 0
199419.0 392885.0 0
202275.0 393493.0 0
204980.0 391308.0 0
207472.0 393119.0 0
213114.0 392778.0 0
218912.0 392438.0 0
224696.0 392126.0 0
230416.0 391930.0 0
236164.0 391912.0 0
241784.0 391809.0 0
247633.0 392025.0 0
253503.0 392272.0 0
259413.0 392583.0 0
265383.0 392980.0 0
268522.0 391332.0 0
271451.0 393434.0 0
274646.0 391808.0 0
280779.0 392214.0 0
287045.0 392779.0 0
293219.0 393341.0 0
299410.0 393301.0 0
305786.0 394630.0 0
308861.0 392837.0 0
312111.0 394453.0 0
315166.0 393063.0 0
318400.0 394959.0 0
321367.0 393704.0 0
324333.0 392486.0 0
327492.0 394458.0 0
169367.0 396421.0 0
172258.0 397561.0 0
175503.0 395482.0 0
178329.0 396667.0 0
184465.0 396330.0 0
190923.0 396652.0 0
194380.0 396586.0 0
197238.0 395021.0 0
200622.0 396386.0 0
204498.0 395109.0 0
210154.0 394807.0 0
212938.0 396479.0 0
215958.0 394479.0 0
218816.0 396218.0 0
221781.0 394193.0 0
224615.0 396025.0 0
227530.0 393984.0 0
230336.0 395914.0 0
233241.0 393894.0 0
236042.0 395914.0 0
238985.0 393960.0 0
241802.0 396003.0 0
244640.0 393905.0 0
247507.0 396012.0 0
250499.0 394136.0 0
253368.0 396240.0 0
256374.0 394389.0 0
262295.0 394707.0 0
268295.0 395092.0 0
274382.0 395483.0 0
277565.0 393837.0 0
280473.0 395839.0 0
283674.0 394209.0 0
286525.0 396160.0 0
290138.0 394915.0 0
293429.0 396905.0 0
296374.0 395046.0 0
299682.0 396569.0 0
302556.0 394829.0 0
309096.0 396098.0 0
312432.0 397614.0 0
315416.0 396226.0 0
321634.0 396900.0 0
324555.0 395644.0 0
327747.0 397602.0 0
330663.0 396439.0 0
166129.0 398444.0 0
169050.0 399585.0 0
175108.0 398731.0 0
177978.0 399933.0 0
181220.0 397978.0 0
184209.0 399445.0 0
187527.0 398250.0 0
190435.0 399859.0 0
193782.0 399255.0 0
197431.0 398142.0 0
203509.0 398309.0 0
207050.0 396769.0 0
209782.0 398409.0 0
215782.0 398189.0 0
221657.0 398030.0 0
227412.0 397931.0 0
233120.0 397904.0 0
238850.0 397950.0 0
244625.0 398042.0 0
250380.0 398121.0 0
256243.0 398337.0 0
259251.0 396498.0 0
262136.0 398590.0 0
265188.0 396808.0 0
268095.0 398872.0 0
271220.0 397154.0 0
277315.0 397498.0 0
283356.0 397830.0 0
289197.0 398049.0 0
291789.0 399655.0 0
296931.0 398408.0 0
303234.0 397655.0 0
306393.0 398164.0 0
309600.0 399443.0 0
315796.0 399380.0 0
318720.0 398152.0 0
321971.0 400137.0 0
324847.0 398837.0 0
330922.0 399574.0 0
333838.0 398422.0 0
159577.0 402535.0 0
162901.0 400464.0 0
165890.0 401592.0 0
168902.0 402869.0 0
171940.0 400842.0 0
174819.0 402048.0 0
180909.0 401170.0 0
183882.0 402547.0 0
187065.0 401486.0 0
193293.0 402210.0 0
196763.0 401198.0 0
200250.0 399861.0 0
203012.0 401792.0 0
206363.0 400131.0 0
212633.0 400082.0 0
215547.0 401844.0 0
218642.0 399978.0 0
221454.0 401865.0 0
224456.0 399923.0 0
230184.0 399894.0 0
235910.0 399920.0 0
241672.0 399989.0 0
247461.0 400084.0 0
253262.0 400209.0 0
259126.0 400422.0 0
265032.0 400654.0 0
271012.0 400891.0 0
274157.0 399172.0 0
277111.0 401162.0 0
280250.0 399503.0 0
283190.0 401530.0 0
286170.0 399826.0 0
289049.0 401676.0 0
294767.0 400668.0 0
297978.0 401939.0 0
300427.0 399753.0 0
303802.0 400834.0 0
306971.0 401665.0 0
310137.0 402810.0 0
312892.0 400788.0 0
316244.0 402552.0 0
319112.0 401377.0 0
325128.0 402100.0 0
328015.0 400800.0 0
331134.0 402770.0 0
334079.0 401544.0 0
337016.0 400408.0 0
340213.0 402407.0 0
156310.0 404578.0 0
162420.0 403505.0 0
165197.0 404582.0 0
171945.0 404286.0 0
175051.0 405501.0 0
177730.0 403221.0 0
180610.0 404375.0 0
183471.0 405526.0 0
186615.0 404936.0 0
189908.0 402962.0 0
196172.0 404383.0 0
199603.0 403240.0 0
205911.0 403526.0 0
209303.0 401840.0 0
212349.0 403587.0 0
218396.0 403733.0 0
224219.0 403821.0 0
227220.0 401876.0 0
229977.0 403862.0 0
232956.0 401893.0 0
235748.0 403906.0 0
238718.0 401945.0 0
241548.0 403975.0 0
244510.0 402028.0 0
247367.0 404068.0 0
250318.0 402127.0 0
253191.0 404190.0 0
256146.0 402290.0 0
262021.0 402486.0 0
267941.0 402682.0 0
273933.0 402860.0 0
280107.0 403148.0 0
286204.0 403539.0 0
289449.0 405166.0 0
292247.0 403102.0 0
295543.0 404245.0 0
301267.0 403159.0 0
304519.0 404225.0 0
307655.0 405192.0 0
313371.0 403938.0 0
319467.0 404680.0 0
322281.0 403468.0 0
328188.0 404080.0 0
334283.0 404701.0 0
337261.0 403507.0 0
343440.0 404423.0 0
153093.0 406592.0 0
155986.0 407716.0 0
159169.0 405626.0 0
162023.0 406685.0 0
164846.0 407886.0 0
167843.0 405788.0 0
170402.0 407055.0 0
178120.0 406721.0 0
181202.0 407853.0 0
184722.0 408262.0 0
189602.0 405923.0 0
192801.0 405259.0 0
198781.0 406646.0 0
202409.0 405196.0 0
205892.0 406738.0 0
209117.0 405225.0 0
212117.0 407152.0 0
215274.0 405497.0 0
221175.0 405707.0 0
226963.0 405810.0 0
232753.0 405863.0 0
238569.0 405925.0 0
244401.0 406009.0 0
250239.0 406113.0 0
256085.0 406248.0 0
259042.0 404354.0 0
261957.0 406395.0 0
264930.0 404522.0 0
267854.0 406523.0 0
270857.0 404665.0 0
273775.0 406600.0 0
276854.0 404780.0 0
279772.0 406632.0 0
283222.0 405153.0 0
286558.0 407158.0 0
292945.0 406467.0 0
298837.0 405475.0 0
302139.0 406652.0 0
310731.0 406229.0 0
313743.0 407064.0 0
316633.0 405763.0 0
322310.0 406986.0 0
325243.0 405481.0 0
328272.0 407396.0 0
331289.0 406007.0 0
334540.0 407850.0 0
337526.0 406610.0 0
340497.0 405490.0 0
343746.0 407507.0 0
346683.0 406450.0 0
146751.0 410562.0 0
149910.0 408584.0 0
152838.0 409770.0 0
158906.0 408820.0 0
161824.0 409981.0 0
167658.0 409233.0 0
170611.0 410502.0 0
173161.0 408054.0 0
176093.0 409202.0 0
179176.0 410328.0 0
182598.0 410956.0 0
187926.0 408432.0 0
191639.0 408436.0 0
195164.0 407630.0 0
196923.0 410251.0 0
199970.0 409575.0 0
202911.0 408273.0 0
205793.0 410220.0 0
208937.0 408702.0 0
214963.0 409202.0 0
218087.0 407507.0 0
220825.0 409565.0 0
223910.0 407721.0 0
229720.0 407807.0 0
235562.0 407870.0 0
241418.0 407948.0 0
247276.0 408045.0 0
253133.0 408161.0 0
259002.0 408290.0 0
264890.0 408408.0 0
270790.0 408482.0 0
276691.0 408479.0 0
282614.0 408396.0 0
285140.0 410103.0 0
290244.0 408494.0 0
293790.0 409850.0 0
296370.0 407768.0 0
299704.0 409016.0 0
305442.0 407728.0 0
308775.0 408768.0 0
312208.0 409723.0 0
316098.0 409112.0 0
319350.0 408158.0 0
322052.0 410594.0 0
325203.0 408893.0 0
328627.0 410593.0 0
331568.0 409208.0 0
337792.0 409731.0 0
340784.0 408590.0 0
344048.0 410616.0 0
347007.0 409530.0 0
349943.0 408487.0 0
353228.0 410541.0 0
143607.0 412530.0 0
149707.0 411796.0 0
152713.0 412994.0 0
155809.0 410922.0 0
158801.0 412092.0 0
161798.0 413340.0 0
164731.0 411272.0 0
167696.0 412598.0 0
173661.0 411589.0 0
176868.0 412728.0 0
186195.0 411269.0 0
189852.0 411212.0 0
193567.0 410956.0 0
198932.0 413116.0 0
202467.0 411661.0 0
208602.0 412264.0 0
211804.0 410784.0 0
217710.0 411317.0 0
223534.0 411625.0 0
226645.0 409730.0 0
229422.0 411721.0 0
232516.0 409804.0 0
235357.0 411803.0 0
238407.0 409882.0 0
241283.0 411901.0 0
244293.0 409977.0 0
247195.0 412008.0 0
250173.0 410084.0 0
253098.0 412119.0 0
256053.0 410200.0 0
261945.0 410309.0 0
267846.0 410386.0 0
273738.0 410396.0 0
276694.0 412264.0 0
279583.0 410306.0 0
282414.0 412113.0 0
288114.0 410879.0 0
291331.0 412047.0 0
297248.0 411344.0 0
300521.0 412598.0 0
303036.0 410154.0 0
306475.0 411146.0 0
310123.0 412106.0 0
314726.0 411845.0 0
318508.0 411417.0 0
325747.0 412013.0 0
331816.0 412497.0 0
334790.0 411041.0 0
338042.0 412868.0 0
341062.0 411710.0 0
347310.0 412642.0 0
350286.0 411547.0 0
356523.0 412603.0 0
140481.0 414486.0 0
143469.0 415811.0 0
146582.0 413805.0 0
149614.0 415040.0 0
155756.0 414179.0 0
158824.0 415410.0 0
164822.0 414675.0 0
170706.0 413836.0 0
173698.0 414885.0 0
180384.0 413606.0 0
184178.0 413844.0 0
188025.0 413985.0 0
191840.0 413915.0 0
195555.0 413702.0 0
201691.0 414802.0 0
205244.0 413597.0 0
211338.0 414433.0 0
214558.0 412948.0 0
220404.0 413446.0 0
226276.0 413624.0 0
232258.0 413706.0 0
238236.0 413812.0 0
244189.0 413926.0 0
250125.0 414038.0 0
256053.0 414141.0 0
259002.0 412222.0 0
261983.0 414220.0 0
264915.0 412300.0 0
267917.0 414255.0 0
270826.0 412326.0 0
273834.0 414221.0 0
279663.0 414087.0 0
285571.0 413515.0 0
288739.0 414467.0 0
294718.0 413301.0 0
298156.0 415099.0 0
303836.0 413594.0 0
307164.0 414395.0 0
310254.0 415249.0 0
313272.0 414555.0 0
316870.0 414484.0 0
320314.0 414107.0 0
323260.0 413709.0 0
325991.0 415590.0 0
328869.0 413941.0 0
332085.0 415853.0 0
335024.0 414272.0 0
341286.0 414856.0 0
344314.0 413759.0 0
350576.0 414634.0 0
353577.0 413616.0 0
356861.0 415722.0 0
359809.0 414659.0 0
134298.0 418357.0 0
137378.0 416429.0 0
140376.0 417813.0 0
146513.0 417074.0 0
149606.0 418314.0 0
152688.0 416251.0 0
155799.0 417462.0 0
161918.0 416709.0 0
165052.0 418093.0 0
167883.0 416001.0 0
170968.0 417269.0 0
176598.0 415888.0 0
179415.0 416680.0 0
182565.0 416590.0 0
186132.0 416666.0 0
189924.0 416696.0 0
193790.0 416707.0 0
197582.0 416682.0 0
200842.0 417790.0 0
204472.0 416846.0 0
207980.0 415733.0 0
214022.0 416691.0 0
217247.0 415155.0 0
219915.0 417348.0 0
223096.0 415535.0 0
225874.0 417469.0 0
229100.0 415589.0 0
235143.0 415701.0 0
241148.0 415829.0 0
247125.0 415952.0 0
253088.0 416061.0 0
259042.0 416145.0 0
264998.0 416186.0 0
270960.0 416170.0 0
276889.0 416065.0 0
280072.0 417781.0 0
282819.0 415698.0 0
286065.0 416990.0 0
291972.0 415514.0 0
295313.0 416578.0 0
301483.0 416207.0 0
304949.0 417039.0 0
308403.0 417869.0 0
312073.0 417999.0 0
315452.0 417535.0 0
319062.0 417265.0 0
322680.0 417041.0 0
329252.0 417295.0 0
335143.0 417592.0 0
338213.0 416029.0 0
341436.0 418016.0 0
344510.0 416941.0 0
347547.0 415800.0 0
350789.0 417747.0 0
353850.0 416715.0 0
360109.0 417848.0 0
363062.0 416696.0 0
366267.0 418705.0 0
131237.0 420269.0 0
137311.0 419801.0 0
143420.0 419123.0 0
146516.0 420367.0 0
152738.0 419532.0 0
155917.0 420750.0 0
158948.0 418743.0 0
162139.0 420068.0 0
168225.0 419431.0 0
174018.0 418377.0 0
177131.0 419338.0 0
180560.0 419698.0 0
184045.0 419545.0 0
187726.0 419469.0 0
191542.0 419454.0 0
195404.0 419674.0 0
203400.0 420008.0 0
207114.0 419099.0 0
210659.0 418005.0 0
213369.0 420374.0 0
216695.0 419000.0 0
222608.0 419457.0 0
228780.0 419393.0 0
231995.0 417562.0 0
234929.0 419562.0 0
238063.0 417711.0 0
241012.0 419731.0 0
244090.0 417851.0 0
247069.0 419872.0 0
250096.0 417973.0 0
253101.0 419986.0 0
256084.0 418069.0 0
259117.0 420055.0 0
262066.0 418121.0 0
265132.0 420059.0 0
268058.0 418112.0 0
271175.0 419987.0 0
274060.0 418030.0 0
277269.0 419796.0 0
283361.0 419295.0 0
286707.0 420533.0 0
289302.0 417994.0 0
292572.0 418925.0 0
295974.0 419592.0 0
299200.0 418912.0 0
302752.0 419670.0 0
306372.0 420398.0 0
310190.0 420894.0 0
313907.0 420850.0 0
317409.0 420437.0 0
320763.0 420243.0 0
323739.0 420173.0 0
326343.0 418770.0 0
329321.0 420730.0 0
332215.0 419422.0 0
335154.0 420965.0 0
338295.0 419168.0 0
344672.0 420153.0 0
347716.0 419013.0 0
350891.0 420889.0 0
354016.0 419845.0 0
357091.0 418875.0 0
360264.0 421084.0 0
363295.0 419970.0 0
369418.0 420680.0 0
128137.0 422205.0 0
131220.0 423611.0 0
134281.0 421762.0 0
137303.0 423236.0 0
140344.0 421181.0 0
143425.0 422460.0 0
146572.0 423671.0 0
149661.0 421611.0 0
152845.0 422823.0 0
156087.0 424021.0 0
159150.0 422077.0 0
162425.0 423393.0 0
165388.0 421509.0 0
168669.0 422848.0 0
171425.0 420787.0 0
174633.0 421861.0 0
178091.0 422462.0 0
181720.0 422573.0 0
185352.0 422394.0 0
189039.0 422280.0 0
192720.0 422339.0 0
196280.0 423022.0 0
199008.0 420409.0 0
202638.0 423063.0 0
206222.0 422353.0 0
209838.0 421452.0 0
216082.0 422841.0 0
219373.0 421271.0 0
225472.0 421211.0 0
231743.0 421373.0 0
237881.0 421583.0 0
244000.0 421751.0 0
250083.0 421887.0 0
256143.0 421981.0 0
262192.0 422009.0 0
268248.0 421946.0 0
274381.0 421780.0 0
280597.0 421441.0 0
284026.0 422903.0 0
290099.0 421499.0 0
293626.0 422227.0 0
297313.0 422450.0 0
300676.0 422459.0 0
304250.0 423019.0 0
308039.0 423465.0 0
312134.0 423840.0 0
316085.0 423621.0 0
319720.0 423374.0 0
323160.0 423427.0 0
326265.0 422414.0 0
332195.0 423196.0 0
338471.0 422161.0 0
341610.0 421146.0 0
344805.0 423428.0 0
347784.0 422331.0 0
354009.0 423009.0 0
357170.0 422070.0 0
363373.0 423302.0 0
366414.0 422067.0 0
372529.0 422627.0 0
121766.0 426186.0 0
124979.0 424178.0 0
128072.0 425496.0 0
134281.0 425226.0 0
140351.0 424590.0 0
143474.0 425805.0 0
149772.0 424928.0 0
152996.0 426119.0 0
156263.0 427266.0 0
159369.0 425412.0 0
162650.0 426667.0 0
165748.0 424933.0 0
169122.0 426165.0 0
172033.0 424337.0 0
175464.0 425163.0 0
179166.0 425418.0 0
182898.0 425409.0 0
186561.0 425253.0 0
190189.0 425182.0 0
193827.0 425377.0 0
199439.0 423754.0 0
205097.0 425653.0 0
208795.0 424837.0 0
212481.0 423920.0 0
218816.0 425404.0 0
222090.0 423416.0 0
225205.0 424752.0 0
228506.0 423124.0 0
231423.0 425170.0 0
234690.0 423398.0 0
240880.0 423601.0 0
247026.0 423769.0 0
253133.0 423891.0 0
259225.0 423950.0 0
265313.0 423917.0 0
271419.0 423767.0 0
274635.0 425476.0 0
277703.0 423462.0 0
281175.0 425054.0 0
287560.0 424056.0 0
291216.0 424849.0 0
294953.0 425336.0 0
326210.0 426102.0 0
328978.0 423990.0 0
335485.0 424190.0 0
338725.0 425074.0 0
341769.0 424259.0 0
347552.0 425875.0 0
350774.0 424056.0 0
357115.0 425282.0 0
360275.0 424359.0 0
366386.0 425506.0 0
369465.0 424106.0 0
372527.0 426029.0 0
375659.0 424584.0 0
378846.0 426575.0 0
118524.0 428214.0 0
124850.0 427452.0 0
127982.0 428766.0 0
131197.0 426949.0 0
137305.0 426728.0 0
140381.0 428019.0 0
146682.0 426968.0 0
149937.0 428279.0 0
153176.0 429436.0 0
159532.0 428801.0 0
165928.0 428392.0 0
169331.0 429167.0 0
172753.0 427892.0 0
176606.0 428219.0 0
180423.0 428321.0 0
184140.0 428287.0 0
187718.0 428197.0 0
191176.0 428180.0 0
194562.0 428238.0 0
197594.0 426669.0 0
201450.0 426439.0 0
207536.0 428196.0 0
211294.0 427371.0 0
215069.0 426475.0 0
228049.0 426858.0 0
234431.0 427182.0 0
237698.0 425418.0 0
240771.0 427436.0 0
243923.0 425622.0 0
246989.0 427645.0 0
250084.0 425781.0 0
253179.0 427777.0 0
256223.0 425874.0 0
259356.0 427827.0 0
262353.0 425881.0 0
265531.0 427761.0 0
268485.0 425769.0 0
271695.0 427568.0 0
277862.0 427035.0 0
284876.0 426453.0 0
288784.0 427435.0 0
292623.0 428074.0 0
298560.0 425629.0 0
302038.0 425852.0 0
305603.0 426221.0 0
309151.0 426516.0 0
312371.0 427010.0 0
315557.0 426709.0 0
318954.0 426449.0 0
322516.0 426432.0 0
330171.0 426666.0 0
333542.0 426770.0 0
337036.0 427498.0 0
340868.0 427511.0 0
344288.0 426801.0 0
350638.0 427078.0 0
353908.0 426157.0 0
356758.0 428538.0 0
360043.0 427675.0 0
363259.0 426694.0 0
366167.0 429012.0 0
369362.0 427593.0 0
375687.0 427942.0 0
382112.0 428614.0 0
115295.0 430236.0 0
118373.0 431556.0 0
121589.0 429476.0 0
124691.0 430723.0 0
131182.0 430245.0 0
134290.0 428777.0 0
137318.0 430276.0 0
143565.0 429133.0 0
146845.0 430242.0 0
150133.0 431710.0 0
156469.0 430475.0 0
162727.0 429869.0 0
170884.0 431730.0 0
174413.0 431144.0 0
178179.0 431231.0 0
181926.0 431268.0 0
185601.0 431248.0 0
189215.0 431203.0 0
196649.0 430429.0 0
200025.0 429521.0 0
203804.0 428969.0 0
209830.0 430814.0 0
213577.0 430044.0 0
217264.0 429318.0 0
220826.0 428580.0 0
224380.0 428093.0 0
231019.0 428889.0 0
237570.0 429202.0 0
243848.0 429477.0 0
250089.0 429655.0 0
256317.0 429749.0 0
262535.0 429736.0 0
268763.0 429588.0 0
274905.0 429251.0 0
278087.0 430794.0 0
280975.0 428487.0 0
283981.0 429713.0 0
287176.0 430372.0 0
296338.0 428568.0 0
299949.0 428901.0 0
303507.0 429166.0 0
307072.0 429476.0 0
310576.0 429861.0 0
314212.0 429934.0 0
317708.0 429653.0 0
321204.0 429487.0 0
324799.0 429309.0 0
328305.0 429374.0 0
331961.0 429780.0 0
335476.0 430084.0 0
339257.0 430212.0 0
343080.0 429998.0 0
346660.0 429385.0 0
349932.0 429866.0 0
353431.0 429345.0 0
359420.0 430990.0 0
362849.0 430099.0 0
369138.0 431119.0 0
372451.0 429406.0 0
375919.0 431208.0 0
379023.0 429900.0 0
385383.0 430661.0 0
108915.0 434234.0 0
112093.0 432242.0 0
115208.0 433644.0 0
121504.0 432813.0 0
124675.0 434052.0 0
127831.0 431993.0 0
131017.0 433370.0 0
134276.0 432469.0 0
137443.0 433825.0 0
140493.0 431439.0 0
143790.0 432443.0 0
147196.0 433488.0 0
153238.0 432757.0 0
156477.0 433433.0 0
159817.0 432377.0 0
163480.0 432693.0 0
166948.0 431838.0 0
192851.0 431128.0 0
194902.0 433612.0 0
198652.0 432994.0 0
202286.0 432218.0 0
206068.0 431561.0 0
211998.0 433551.0 0
215751.0 432901.0 0
219512.0 432293.0 0
223261.0 431586.0 0
227264.0 430410.0 0
231072.0 432404.0 0
234323.0 430863.0 0
240658.0 431260.0 0
246949.0 431504.0 0
253234.0 431643.0 0
259499.0 431688.0 0
265766.0 431585.0 0
272025.0 431424.0 0
275264.0 433122.0 0
281330.0 432164.0 0
284806.0 433160.0 0
290623.0 430868.0 0
294227.0 431434.0 0
297874.0 431881.0 0
301515.0 432186.0 0
305152.0 432437.0 0
308791.0 432726.0 0
312494.0 432862.0 0
316193.0 432820.0 0
319776.0 432645.0 0
323344.0 432490.0 0
326874.0 432486.0 0
330399.0 432643.0 0
334022.0 432931.0 0
337716.0 433000.0 0
341490.0 432914.0 0
345210.0 432652.0 0
348661.0 432652.0 0
352352.0 432405.0 0
355947.0 431794.0 0
361998.0 433441.0 0
365604.0 432503.0 0
370079.0 434283.0 0
372845.0 432573.0 0
379227.0 433258.0 0
382313.0 431979.0 0
385553.0 434085.0 0
388634.0 432697.0 0
391859.0 434716.0 0
105745.0 436218.0 0
112070.0 435712.0 0
118389.0 434951.0 0
121633.0 436205.0 0
127892.0 435299.0 0
131251.0 436391.0 0
134611.0 436298.0 0
140740.0 434824.0 0
144054.0 435697.0 0
147369.0 436511.0 0
150605.0 435396.0 0
154175.0 436037.0 0
158022.0 435951.0 0
161481.0 435535.0 0
165286.0 435291.0 0
168870.0 434778.0 0
172599.0 434554.0 0
176175.0 434275.0 0
179870.0 434267.0 0
183581.0 434255.0 0
187294.0 434201.0 0
191044.0 434061.0 0
196884.0 436215.0 0
200688.0 435596.0 0
204437.0 434894.0 0
208228.0 434234.0 0
217676.0 435934.0 0
221241.0 435579.0 0
224586.0 434942.0 0
227875.0 433790.0 0
234183.0 434615.0 0
237430.0 433010.0 0
240513.0 435077.0 0
243758.0 433320.0 0
246897.0 435343.0 0
250095.0 433506.0 0
253295.0 435487.0 0
256424.0 433606.0 0
259653.0 435543.0 0
262718.0 433577.0 0
265978.0 435380.0 0
269067.0 433377.0 0
272411.0 435345.0 0
278581.0 434562.0 0
282144.0 435667.0 0
288395.0 433765.0 0
292030.0 434297.0 0
295733.0 434800.0 0
299496.0 435176.0 0
303247.0 435418.0 0
306992.0 435623.0 0
310754.0 435781.0 0
314504.0 435826.0 0
318206.0 435779.0 0
321832.0 435664.0 0
325408.0 435623.0 0
328971.0 435688.0 0
332564.0 435824.0 0
336258.0 435910.0 0
339990.0 435853.0 0
343725.0 435708.0 0
347370.0 435632.0 0
351053.0 435370.0 0
354774.0 434929.0 0
358421.0 434269.0 0
367264.0 435438.0 0
373066.0 436022.0 0
376129.0 434552.0 0
379344.0 436676.0 0
382458.0 435407.0 0
388740.0 436181.0 0
395085.0 436735.0 0
102550.0 438217.0 0
108942.0 437752.0 0
112188.0 439212.0 0
115290.0 437090.0 0
118584.0 438376.0 0
121973.0 439596.0 0
124960.0 437437.0 0
128426.0 438610.0 0
132075.0 439475.0 0
138019.0 437375.0 0
141466.0 438268.0 0
144969.0 439019.0 0
152099.0 438832.0 0
155850.0 438933.0 0
159589.0 438806.0 0
163268.0 438418.0 0
167003.0 438114.0 0
170640.0 437756.0 0
174301.0 437550.0 0
177929.0 437368.0 0
181624.0 437295.0 0
185367.0 437208.0 0
189164.0 437042.0 0
193033.0 436693.0 0
202694.0 438253.0 0
206483.0 437620.0 0
210263.0 437018.0 0
213999.0 436439.0 0
223620.0 438677.0 0
227317.0 437318.0 0
230858.0 436057.0 0
237229.0 436868.0 0
243643.0 437151.0 0
250095.0 437329.0 0
256545.0 437447.0 0
262905.0 437428.0 0
269316.0 437053.0 0
275769.0 437015.0 0
279413.0 438158.0 0
285850.0 436479.0 0
289592.0 437088.0 0
293402.0 437646.0 0
297350.0 438055.0 0
301325.0 438376.0 0
305214.0 438545.0 0
309025.0 438705.0 0
312807.0 438808.0 0
316553.0 438834.0 0
320251.0 438802.0 0
323890.0 438764.0 0
327503.0 438778.0 0
331129.0 438837.0 0
334805.0 438871.0 0
338535.0 438838.0 0
342274.0 438728.0 0
345991.0 438618.0 0
349730.0 438395.0 0
353462.0 438018.0 0
357155.0 437507.0 0
360735.0 436857.0 0
364133.0 436102.0 0
366596.0 438931.0 0
369887.0 437893.0 0
372919.0 439311.0 0
376203.0 437959.0 0
382478.0 438907.0 0
385613.0 437588.0 0
388706.0 439742.0 0
391908.0 438213.0 0
398328.0 438765.0 0
96056.4 442280.0 0
99319.9 440238.0 0
102583.0 441732.0 0
105790.0 439731.0 0
109085.0 441299.0 0
115497.0 440555.0 0
118881.0 441788.0 0
125490.0 440763.0 0
129179.0 441857.0 0
132958.0 442821.0 0
135520.0 440017.0 0
139060.0 440909.0 0
142693.0 441640.0 0
148715.0 439211.0 0
153788.0 441971.0 0
157511.0 441900.0 0
161274.0 441657.0 0
165012.0 441315.0 0
168725.0 441039.0 0
172384.0 440780.0 0
176047.0 440591.0 0
179720.0 440418.0 0
183454.0 440271.0 0
187253.0 440075.0 0
191116.0 439768.0 0
194995.0 439359.0 0
198865.0 438849.0 0
204642.0 440988.0 0
208434.0 440430.0 0
212212.0 439917.0 0
215979.0 439437.0 0
219759.0 439053.0 0
227005.0 440669.0 0
230453.0 439572.0 0
233927.0 438369.0 0
240308.0 438853.0 0
243558.0 440964.0 0
246839.0 439157.0 0
253344.0 439303.0 0
259852.0 439403.0 0
266164.0 439176.0 0
269498.0 440515.0 0
273095.0 439674.0 0
276797.0 440756.0 0
283149.0 439064.0 0
286857.0 439795.0 0
290453.0 440401.0 0
293842.0 441015.0 0
297130.0 441417.0 0
300430.0 441587.0 0
340834.0 441760.0 0
344592.0 441631.0 0
348367.0 441427.0 0
352143.0 441113.0 0
355889.0 440687.0 0
359576.0 440168.0 0
363158.0 439563.0 0
369327.0 441503.0 0
376077.0 441303.0 0
379317.0 440142.0 0
385514.0 441178.0 0
391826.0 441730.0 0
395108.0 440241.0 0
398347.0 442299.0 0
401590.0 440808.0 0
92759.5 444343.0 0
99331.1 443785.0 0
105928.0 443225.0 0
112408.0 442744.0 0
115791.0 444033.0 0
122334.0 442941.0 0
125796.0 444010.0 0
129059.0 445115.0 0
132180.0 446106.0 0
136684.0 443574.0 0
140448.0 444317.0 0
146473.0 442059.0 0
150203.0 442164.0 0
155442.0 445059.0 0
159199.0 444838.0 0
163022.0 444520.0 0
166777.0 444259.0 0
170484.0 444038.0 0
174161.0 443828.0 0
177847.0 443630.0 0
181562.0 443417.0 0
185339.0 443178.0 0
189181.0 442873.0 0
193058.0 442497.0 0
196944.0 442049.0 0
200812.0 441540.0 0
206503.0 443821.0 0
210242.0 443355.0 0
213912.0 442971.0 0
217500.0 442663.0 0
221005.0 442446.0 0
224376.0 442452.0 0
229593.0 443120.0 0
233259.0 442038.0 0
236882.0 440808.0 0
240232.0 442440.0 0
246711.0 442974.0 0
250062.0 441121.0 0
253380.0 443078.0 0
256664.0 441243.0 0
260036.0 443227.0 0
263203.0 441337.0 0
266672.0 443051.0 0
274522.0 443664.0 0
280588.0 441671.0 0
284337.0 442500.0 0
287998.0 443230.0 0
303864.0 441578.0 0
307478.0 441696.0 0
311182.0 441809.0 0
314914.0 441877.0 0
318635.0 441898.0 0
322325.0 441893.0 0
325988.0 441889.0 0
329653.0 441902.0 0
333347.0 441902.0 0
337078.0 441856.0 0
350783.0 444203.0 0
354581.0 443841.0 0
358345.0 443397.0 0
362062.0 442883.0 0
365725.0 442314.0 0
372694.0 442337.0 0
378964.0 443626.0 0
382289.0 442474.0 0
388518.0 443389.0 0
395037.0 443745.0 0
401607.0 444391.0 0
404861.0 442856.0 0
408129.0 444904.0 0
89441.5 446423.0 0
96051.6 445855.0 0
99393.3 447340.0 0
102678.0 445225.0 0
106131.0 446659.0 0
109323.0 444900.0 0
112704.0 446315.0 0
116220.0 447507.0 0
119262.0 445205.0 0
122755.0 446344.0 0
126158.0 447489.0 0
129525.0 448634.0 0
135381.0 446733.0 0
138706.0 447245.0 0
144259.0 444834.0 0
148053.0 445168.0 0
151776.0 445224.0 0
179688.0 446648.0 0
183435.0 446364.0 0
187243.0 446034.0 0
191100.0 445659.0 0
194981.0 445242.0 0
198858.0 444788.0 0
202705.0 444309.0 0
212036.0 446396.0 0
215715.0 446099.0 0
219370.0 445869.0 0
223028.0 445741.0 0
226800.0 445359.0 0
231967.0 445609.0 0
235738.0 444745.0 0
239302.0 445689.0 0
243263.0 444878.0 0
250095.0 444851.0 0
256682.0 444981.0 0
263481.0 445217.0 0
270839.0 443572.0 0
278257.0 444378.0 0
282008.0 445210.0 0
285710.0 446018.0 0
291560.0 443890.0 0
295130.0 444411.0 0
298723.0 444701.0 0
302328.0 444771.0 0
305926.0 444797.0 0
309588.0 444875.0 0
313293.0 444946.0 0
317013.0 444992.0 0
320728.0 445011.0 0
324432.0 445012.0 0
328134.0 445003.0 0
331854.0 444976.0 0
335601.0 444915.0 0
339373.0 444812.0 0
343163.0 444673.0 0
346970.0 444478.0 0
357028.0 446597.0 0
360806.0 446145.0 0
364549.0 445637.0 0
368255.0 445050.0 0
371788.0 445220.0 0
375494.0 444626.0 0
378235.0 447028.0 0
381817.0 446024.0 0
385235.0 444830.0 0
388215.0 447143.0 0
391640.0 445215.0 0
394957.0 447213.0 0
398306.0 445843.0 0
404844.0 446501.0 0
411394.0 446950.0 0
86112.6 448510.0 0
89519.9 450101.0 0
92783.0 447959.0 0
96194.9 449455.0 0
102757.0 448678.0 0
106166.0 449918.0 0
109608.0 448614.0 0
113204.0 449868.0 0
119794.0 448654.0 0
123319.0 449866.0 0
126782.0 451050.0 0
132972.0 449549.0 0
142245.0 447690.0 0
145931.0 448102.0 0
149671.0 448380.0 0
153366.0 448350.0 0
157115.0 448088.0 0
161036.0 447662.0 0
164845.0 447452.0 0
168581.0 447270.0 0
172285.0 447086.0 0
175979.0 446884.0 0
185318.0 449271.0 0
189141.0 448870.0 0
193007.0 448449.0 0
196883.0 448023.0 0
200739.0 447595.0 0
204556.0 447168.0 0
208322.0 446758.0 0
217609.0 449235.0 0
221360.0 449035.0 0
225202.0 448757.0 0
229095.0 448395.0 0
232920.0 448838.0 0
236614.0 448507.0 0
240374.0 448907.0 0
243945.0 448660.0 0
246828.0 446678.0 0
250053.0 448605.0 0
253372.0 446902.0 0
256672.0 448708.0 0
259968.0 446977.0 0
268476.0 446376.0 0
272392.0 446844.0 0
276107.0 447268.0 0
279828.0 447964.0 0
283545.0 448799.0 0
289354.0 446739.0 0
293041.0 447286.0 0
296773.0 447665.0 0
300518.0 447857.0 0
304234.0 447936.0 0
307933.0 447987.0 0
311648.0 448051.0 0
315376.0 448104.0 0
319108.0 448137.0 0
322840.0 448144.0 0
326574.0 448128.0 0
330321.0 448084.0 0
334089.0 448008.0 0
337881.0 447894.0 0
341695.0 447742.0 0
345532.0 447547.0 0
349380.0 447299.0 0
353217.0 446983.0 0
359479.0 449391.0 0
363264.0 448936.0 0
367006.0 448442.0 0
370656.0 448215.0 0
374476.0 447784.0 0
381019.0 449471.0 0
384707.0 448455.0 0
391543.0 448542.0 0
398164.0 449424.0 0
401520.0 448018.0 0
404691.0 450194.0 0
408065.0 448607.0 0
414666.0 448998.0 0
79408.4 452701.0 0
82722.0 450623.0 0
85927.5 452217.0 0
93017.1 451591.0 0
96571.7 453090.0 0
99622.2 450977.0 0
103025.0 452182.0 0
116872.0 450976.0 0
120517.0 452174.0 0
124059.0 453463.0 0
136474.0 450182.0 0
140046.0 450658.0 0
143693.0 451053.0 0
147430.0 451409.0 0
151220.0 451692.0 0
154975.0 451430.0 0
159183.0 450752.0 0
162971.0 450613.0 0
166700.0 450491.0 0
170408.0 450344.0 0
174113.0 450163.0 0
177825.0 449937.0 0
181550.0 449637.0 0
191040.0 451690.0 0
194907.0 451261.0 0
198767.0 450859.0 0
202599.0 450476.0 0
206393.0 450112.0 0
210148.0 449776.0 0
213880.0 449482.0 0
253374.0 450820.0 0
262952.0 449024.0 0
266569.0 449422.0 0
270304.0 449818.0 0
274060.0 450291.0 0
277761.0 450827.0 0
287186.0 449605.0 0
290940.0 450155.0 0
294743.0 450570.0 0
298571.0 450844.0 0
302387.0 451003.0 0
306175.0 451099.0 0
309940.0 451169.0 0
313699.0 451232.0 0
317456.0 451275.0 0
321214.0 451291.0 0
324977.0 451274.0 0
328749.0 451223.0 0
332539.0 451135.0 0
336351.0 451007.0 0
340186.0 450842.0 0
344045.0 450638.0 0
347924.0 450396.0 0
351809.0 450122.0 0
355661.0 449787.0 0
365747.0 451766.0 0
369509.0 451391.0 0
373335.0 450926.0 0
377206.0 450296.0 0
383794.0 451979.0 0
387569.0 450970.0 0
391245.0 451699.0 0
394765.0 450695.0 0
401267.0 451705.0 0
407882.0 452342.0 0
411298.0 450696.0 0
414566.0 452765.0 0
417964.0 451062.0 0
421296.0 453145.0 0
76094.6 454777.0 0
82702.7 454422.0 0
89093.1 453729.0 0
92276.6 455090.0 0
100110.0 454762.0 0
106693.0 453004.0 0
110344.0 452394.0 0
114053.0 453411.0 0
117758.0 454484.0 0
121354.0 455813.0 0
130294.0 452097.0 0
133915.0 452929.0 0
137572.0 453539.0 0
141260.0 454001.0 0
144978.0 454396.0 0
148694.0 454773.0 0
152309.0 455225.0 0
157456.0 453739.0 0
161149.0 453767.0 0
164829.0 453712.0 0
168522.0 453607.0 0
172231.0 453453.0 0
175957.0 453251.0 0
179694.0 452984.0 0
183422.0 452599.0 0
187199.0 452150.0 0
192945.0 454515.0 0
196799.0 454115.0 0
200637.0 453758.0 0
204447.0 453428.0 0
208229.0 453121.0 0
211991.0 452838.0 0
215747.0 452586.0 0
219515.0 452360.0 0
223315.0 452120.0 0
227113.0 451869.0 0
230820.0 451874.0 0
234679.0 451950.0 0
238381.0 451964.0 0
242240.0 452036.0 0
246066.0 451769.0 0
249797.0 452122.0 0
256974.0 452239.0 0
260736.0 452095.0 0
264528.0 452528.0 0
268291.0 452885.0 0
272040.0 453286.0 0
275781.0 453772.0 0
281448.0 451540.0 0
285038.0 452544.0 0
288841.0 453056.0 0
292690.0 453475.0 0
296566.0 453789.0 0
300446.0 454008.0 0
304310.0 454157.0 0
308151.0 454270.0 0
311964.0 454357.0 0
315761.0 454421.0 0
319551.0 454451.0 0
323343.0 454441.0 0
327142.0 454389.0 0
330954.0 454294.0 0
334785.0 454155.0 0
338638.0 453975.0 0
342514.0 453757.0 0
346411.0 453508.0 0
350327.0 453236.0 0
354256.0 452969.0 0
358115.0 452632.0 0
361946.0 452219.0 0
368278.0 454632.0 0
372137.0 454140.0 0
376030.0 453543.0 0
379930.0 452825.0 0
386419.0 454668.0 0
390146.0 454647.0 0
394153.0 454170.0 0
397781.0 453055.0 0
404396.0 453915.0 0
411119.0 454465.0 0
417879.0 454835.0 0
424663.0 455250.0 0
72763.1 456864.0 0
79472.6 456502.0 0
85965.0 456052.0 0
89268.4 457489.0 0
95437.5 456416.0 0
103921.0 455527.0 0
107797.0 456026.0 0
111460.0 456088.0 0
115163.0 456959.0 0
118792.0 458095.0 0
127570.0 454619.0 0
131221.0 455537.0 0
134938.0 456291.0 0
138686.0 456868.0 0
142440.0 457344.0 0
146169.0 457798.0 0
155541.0 456498.0 0
159215.0 456882.0 0
162892.0 456935.0 0
166584.0 456878.0 0
170305.0 456752.0 0
174056.0 456568.0 0
177829.0 456332.0 0
181594.0 456034.0 0
185298.0 455531.0 0
189096.0 454984.0 0
198673.0 457029.0 0
202488.0 456723.0 0
206282.0 456442.0 0
210061.0 456179.0 0
213832.0 455934.0 0
217604.0 455707.0 0
221385.0 455488.0 0
225159.0 455286.0 0
228893.0 455195.0 0
232656.0 455180.0 0
236444.0 455240.0 0
240231.0 455239.0 0
244053.0 455199.0 0
247746.0 455251.0 0
251534.0 455310.0 0
255146.0 455387.0 0
258912.0 455491.0 0
262587.0 455644.0 0
266335.0 455979.0 0
270089.0 456329.0 0
279495.0 454358.0 0
282990.0 455657.0 0
286791.0 456031.0 0
290651.0 456417.0 0
294548.0 456738.0 0
298460.0 456987.0 0
337058.0 457143.0 0
340949.0 456911.0 0
344856.0 456649.0 0
348779.0 456365.0 0
352726.0 456075.0 0
356721.0 455872.0 0
360598.0 455499.0 0
364446.0 455066.0 0
374776.0 456830.0 0
378685.0 456169.0 0
382577.0 455434.0 0
392740.0 457299.0 0
397139.0 456643.0 0
400829.0 455423.0 0
403996.0 457627.0 0
407604.0 456090.0 0
410874.0 458252.0 0
414413.0 456543.0 0
421245.0 456925.0 0
428053.0 457375.0 0
69423.3 458957.0 0
72847.9 460754.0 0
76165.1 458599.0 0
79623.1 460293.0 0
82871.1 458331.0 0
86295.4 459962.0 0
92650.7 458813.0 0
98196.8 458068.0 0
101633.0 458361.0 0
105338.0 458850.0 0
109119.0 459236.0 0
112763.0 459669.0 0
116426.0 460543.0 0
124779.0 457187.0 0
128468.0 458130.0 0
132233.0 458949.0 0
136042.0 459641.0 0
139848.0 460225.0 0
149834.0 458296.0 0
179751.0 459412.0 0
183560.0 459107.0 0
187215.0 458366.0 0
191009.0 457804.0 0
194842.0 457377.0 0
208098.0 459508.0 0
211877.0 459278.0 0
215654.0 459061.0 0
219430.0 458857.0 0
223200.0 458676.0 0
226950.0 458555.0 0
230705.0 458496.0 0
234471.0 458499.0 0
238261.0 458521.0 0
242048.0 458514.0 0
245800.0 458556.0 0
249548.0 458598.0 0
253279.0 458702.0 0
257003.0 458770.0 0
260726.0 458916.0 0
264439.0 459120.0 0
273845.0 456734.0 0
277604.0 457225.0 0
280964.0 458849.0 0
284785.0 459116.0 0
288641.0 459425.0 0
302371.0 457174.0 0
306273.0 457322.0 0
310162.0 457460.0 0
314012.0 457562.0 0
317844.0 457617.0 0
321673.0 457622.0 0
325502.0 457578.0 0
329338.0 457483.0 0
333188.0 457337.0 0
347199.0 459535.0 0
351121.0 459227.0 0
355051.0 458927.0 0
359270.0 458796.0 0
363134.0 458377.0 0
366996.0 457918.0 0
370875.0 457410.0 0
377388.0 459537.0 0
381274.0 458873.0 0
385109.0 458209.0 0
388854.0 457802.0 0
395425.0 459835.0 0
400107.0 459125.0 0
407223.0 459837.0 0
414395.0 460305.0 0
417809.0 458607.0 0
421155.0 460733.0 0
424613.0 459048.0 0
431436.0 459492.0 0
62696.3 463169.0 0
66071.9 461056.0 0
69550.4 462895.0 0
76305.5 462440.0 0
79820.6 463995.0 0
89906.8 461227.0 0
95479.1 460844.0 0
99160.9 461469.0 0
102863.0 461796.0 0
106639.0 462183.0 0
110411.0 462613.0 0
114142.0 463182.0 0
122010.0 459871.0 0
125745.0 460768.0 0
129546.0 461611.0 0
133387.0 462362.0 0
137230.0 463036.0 0
143620.0 460753.0 0
147340.0 461300.0 0
153299.0 459169.0 0
157023.0 459837.0 0
160790.0 460100.0 0
164544.0 460138.0 0
168304.0 460053.0 0
172092.0 459885.0 0
175922.0 459658.0 0
189090.0 461154.0 0
192885.0 460657.0 0
196701.0 460299.0 0
200512.0 460008.0 0
204311.0 459750.0 0
217452.0 462223.0 0
221226.0 462054.0 0
224990.0 461923.0 0
228751.0 461841.0 0
232516.0 461809.0 0
236293.0 461812.0 0
240076.0 461826.0 0
243843.0 461858.0 0
247605.0 461907.0 0
268190.0 459412.0 0
271960.0 459741.0 0
275752.0 460123.0 0
278937.0 462088.0 0
292538.0 459724.0 0
296460.0 459977.0 0
300391.0 460182.0 0
304325.0 460347.0 0
308261.0 460496.0 0
312205.0 460680.0 0
316089.0 460782.0 0
319961.0 460811.0 0
323828.0 460784.0 0
327694.0 460700.0 0
331564.0 460553.0 0
335452.0 460348.0 0
339362.0 460097.0 0
343279.0 459827.0 0
353454.0 462108.0 0
357364.0 461753.0 0
361857.0 461733.0 0
365709.0 461254.0 0
369587.0 460731.0 0
373484.0 460160.0 0
379973.0 462307.0 0
383837.0 461687.0 0
387661.0 461160.0 0
391523.0 460593.0 0
398156.0 462403.0 0
403263.0 461272.0 0
411058.0 462028.0 0
417708.0 462445.0 0
424499.0 462878.0 0
428001.0 461271.0 0
431359.0 463418.0 0
434818.0 461611.0 0
438193.0 463725.0 0
66200.0 465026.0 0
73062.0 464706.0 0
76667.9 466330.0 0
83489.5 462668.0 0
87269.1 463769.0 0
92693.6 463676.0 0
96492.3 464371.0 0
100340.0 464836.0 0
104172.0 465168.0 0
108010.0 465535.0 0
119324.0 462793.0 0
123083.0 463534.0 0
126897.0 464321.0 0
130754.0 465091.0 0
134615.0 465814.0 0
141048.0 463645.0 0
144829.0 464235.0 0
150979.0 462008.0 0
154714.0 462684.0 0
158542.0 463145.0 0
162380.0 463337.0 0
166211.0 463344.0 0
170049.0 463206.0 0
173954.0 462957.0 0
177839.0 462743.0 0
181703.0 462515.0 0
185529.0 462281.0 0
190887.0 463956.0 0
194697.0 463568.0 0
198508.0 463286.0 0
202310.0 463048.0 0
206103.0 462829.0 0
209890.0 462618.0 0
213673.0 462415.0 0
251354.0 461983.0 0
255106.0 462071.0 0
258843.0 462179.0 0
262582.0 462339.0 0
266333.0 462543.0 0
270117.0 462794.0 0
273941.0 463072.0 0
282786.0 462273.0 0
286652.0 462511.0 0
290545.0 462765.0 0
294464.0 463003.0 0
298399.0 463209.0 0
302340.0 463381.0 0
306285.0 463528.0 0
310240.0 463675.0 0
314291.0 463936.0 0
318213.0 464000.0 0
322122.0 463998.0 0
326022.0 463936.0 0
329920.0 463805.0 0
333826.0 463591.0 0
337763.0 463314.0 0
341698.0 463034.0 0
345626.0 462741.0 0
349545.0 462432.0 0
359695.0 464560.0 0
364455.0 464662.0 0
368302.0 464112.0 0
372184.0 463535.0 0
376080.0 462931.0 0
382550.0 465144.0 0
386423.0 464578.0 0
390311.0 463987.0 0
394223.0 463288.0 0
400659.0 465249.0 0
404337.0 464769.0 0
407745.0 463556.0 0
414272.0 464179.0 0
417555.0 466335.0 0
421023.0 464589.0 0
427925.0 465227.0 0
434681.0 465586.0 0
69734.5 466857.0 0
81362.2 467347.0 0
85193.7 466861.0 0
89968.7 466645.0 0
93870.2 467303.0 0
97787.9 467812.0 0
101699.0 468191.0 0
111855.0 465990.0 0
116648.0 465818.0 0
120453.0 466417.0 0
124290.0 467114.0 0
128156.0 467854.0 0
138460.0 466486.0 0
142283.0 467124.0 0
148576.0 464881.0 0
152372.0 465564.0 0
156214.0 466114.0 0
160105.0 466450.0 0
164009.0 466583.0 0
167920.0 466539.0 0
171961.0 466224.0 0
175886.0 466040.0 0
179781.0 465862.0 0
183651.0 465685.0 0
187492.0 465539.0 0
192612.0 466812.0 0
196448.0 466544.0 0
200266.0 466333.0 0
204072.0 466140.0 0
207870.0 465951.0 0
211663.0 465765.0 0
215451.0 465587.0 0
219235.0 465425.0 0
223012.0 465293.0 0
226785.0 465198.0 0
230557.0 465145.0 0
234334.0 465129.0 0
238115.0 465138.0 0
241893.0 465168.0 0
245666.0 465214.0 0
249434.0 465279.0 0
253201.0 465359.0 0
256965.0 465457.0 0
260727.0 465578.0 0
264502.0 465728.0 0
268304.0 465899.0 0
272157.0 466079.0 0
276913.0 465362.0 0
280789.0 465478.0 0
284670.0 465656.0 0
288566.0 465864.0 0
292481.0 466075.0 0
296411.0 466271.0 0
300349.0 466442.0 0
304290.0 466590.0 0
308229.0 466720.0 0
312172.0 466848.0 0
316456.0 467196.0 0
320394.0 467217.0 0
324326.0 467183.0 0
328252.0 467080.0 0
332187.0 466883.0 0
336162.0 466553.0 0
340119.0 466264.0 0
344062.0 465972.0 0
347991.0 465667.0 0
351906.0 465344.0 0
355808.0 464988.0 0
362066.0 467361.0 0
367042.0 467570.0 0
370888.0 466964.0 0
374768.0 466356.0 0
378662.0 465746.0 0
389041.0 467437.0 0
392954.0 466784.0 0
396851.0 466033.0 0
403360.0 468350.0 0
407192.0 467373.0 0
410800.0 465945.0 0
414051.0 468042.0 0
420863.0 468486.0 0
424352.0 466743.0 0
73793.9 469037.0 0
78372.3 469872.0 0
83588.5 470440.0 0
87520.0 469971.0 0
91403.5 470364.0 0
105597.0 468509.0 0
109505.0 468860.0 0
113980.0 468907.0 0
117845.0 469369.0 0
121715.0 469976.0 0
125595.0 470660.0 0
132024.0 468597.0 0
135878.0 469312.0 0
139719.0 469988.0 0
146091.0 467753.0 0
149931.0 468395.0 0
153840.0 469076.0 0
157755.0 469515.0 0
161689.0 469758.0 0
165623.0 469850.0 0
170016.0 469449.0 0
173930.0 469314.0 0
177829.0 469177.0 0
181716.0 469039.0 0
185589.0 468917.0 0
189452.0 468844.0 0
194290.0 469744.0 0
198156.0 469584.0 0
201992.0 469431.0 0
205813.0 469274.0 0
209623.0 469110.0 0
213426.0 468946.0 0
217223.0 468792.0 0
221016.0 468660.0 0
224804.0 468559.0 0
228589.0 468494.0 0
232373.0 468464.0 0
236159.0 468462.0 0
239944.0 468485.0 0
243730.0 468526.0 0
247514.0 468583.0 0
251298.0 468654.0 0
255084.0 468738.0 0
258874.0 468836.0 0
262675.0 468945.0 0
266503.0 469056.0 0
270383.0 469149.0 0
274892.0 468660.0 0
278794.0 468721.0 0
282691.0 468847.0 0
286594.0 469013.0 0
290509.0 469194.0 0
294436.0 469373.0 0
298371.0 469539.0 0
302309.0 469685.0 0
306246.0 469813.0 0
310180.0 469922.0 0
334596.0 469812.0 0
338557.0 469515.0 0
342508.0 469224.0 0
346449.0 468924.0 0
350378.0 468607.0 0
354294.0 468262.0 0
358195.0 467863.0 0
373451.0 469826.0 0
377335.0 469206.0 0
381234.0 468605.0 0
385135.0 468027.0 0
391653.0 470303.0 0
395572.0 469623.0 0
399470.0 468915.0 0
410259.0 469857.0 0
413692.0 471847.0 0
417336.0 470259.0 0
424313.0 470644.0 0
80655.7 473104.0 0
85141.7 473951.0 0
95318.1 470852.0 0
99245.3 471231.0 0
103188.0 471537.0 0
107142.0 471814.0 0
111363.0 471972.0 0
115273.0 472376.0 0
119165.0 472890.0 0
129471.0 471401.0 0
133328.0 472145.0 0
137173.0 472857.0 0
143548.0 470629.0 0
147394.0 471248.0 0
151279.0 471853.0 0
175844.0 472477.0 0
179740.0 472369.0 0
183630.0 472267.0 0
187514.0 472192.0 0
191404.0 472172.0 0
203711.0 472572.0 0
207552.0 472442.0 0
211377.0 472299.0 0
215192.0 472156.0 0
219001.0 472026.0 0
222807.0 471920.0 0
226607.0 471847.0 0
230404.0 471808.0 0
234200.0 471798.0 0
237995.0 471812.0 0
241792.0 471845.0 0
245591.0 471894.0 0
249392.0 471955.0 0
253199.0 472026.0 0
257014.0 472106.0 0
260844.0 472188.0 0
272880.0 471974.0 0
276804.0 471992.0 0
280716.0 472075.0 0
284628.0 472203.0 0
288545.0 472355.0 0
292471.0 472515.0 0
314123.0 469989.0 0
318645.0 470443.0 0
322606.0 470438.0 0
326548.0 470377.0 0
330498.0 470212.0 0
340963.0 472500.0 0
344911.0 472202.0 0
348852.0 471891.0 0
352786.0 471556.0 0
356709.0 471182.0 0
360615.0 470737.0 0
364480.0 470177.0 0
369601.0 470464.0 0
375989.0 472703.0 0
379886.0 472085.0 0
383800.0 471497.0 0
387728.0 470918.0 0
398158.0 472536.0 0
402059.0 471889.0 0
406256.0 471067.0 0
416914.0 474189.0 0
420713.0 472384.0 0
89058.5 473595.0 0
92950.7 474002.0 0
96866.7 474370.0 0
100792.0 474624.0 0
104775.0 474855.0 0
108793.0 475058.0 0
112728.0 475406.0 0
123056.0 473513.0 0
126940.0 474220.0 0
130811.0 474985.0 0
134648.0 475738.0 0
141007.0 473527.0 0
144854.0 474145.0 0
148727.0 474728.0 0
155394.0 472583.0 0
159338.0 472912.0 0
163306.0 473079.0 0
168016.0 472595.0 0
171940.0 472572.0 0
195955.0 472761.0 0
199851.0 472681.0 0
224613.0 475202.0 0
228425.0 475158.0 0
232233.0 475141.0 0
236039.0 475148.0 0
264699.0 472255.0 0
268602.0 472284.0 0
270883.0 475298.0 0
274824.0 475283.0 0
296404.0 472670.0 0
300341.0 472813.0 0
304280.0 472939.0 0
308219.0 473045.0 0
312162.0 473117.0 0
316109.0 473120.0 0
320812.0 473664.0 0
324815.0 473695.0 0
328771.0 473577.0 0
333038.0 473078.0 0
337007.0 472791.0 0
347324.0 475196.0 0
351269.0 474869.0 0
355211.0 474511.0 0
359145.0 474105.0 0
363058.0 473621.0 0
366924.0 473029.0 0
372126.0 473356.0 0
382420.0 474991.0 0
386355.0 474410.0 0
390306.0 473840.0 0
394238.0 473209.0 0
400752.0 475496.0 0
404843.0 474650.0 0
409223.0 473704.0 0
412761.0 475592.0 0
420293.0 476315.0 0
424042.0 474589.0 0
82317.4 476723.0 0
86678.3 477571.0 0
90629.9 477245.0 0
94564.1 477598.0 0
102388.0 477958.0 0
106325.0 478188.0 0
116643.0 475855.0 0
120547.0 476410.0 0
124440.0 477065.0 0
128317.0 477810.0 0
132154.0 478630.0 0
138467.0 476445.0 0
142310.0 477077.0 0
152643.0 475267.0 0
157015.0 476100.0 0
161037.0 476264.0 0
165942.0 475704.0 0
169886.0 475787.0 0
173816.0 475760.0 0
177729.0 475686.0 0
181632.0 475604.0 0
185530.0 475532.0 0
189430.0 475492.0 0
193344.0 475505.0 0
197639.0 475857.0 0
201560.0 475828.0 0
205445.0 475747.0 0
209308.0 475642.0 0
213145.0 475516.0 0
216971.0 475390.0 0
220794.0 475281.0 0
239848.0 475173.0 0
243660.0 475213.0 0
247477.0 475264.0 0
251303.0 475323.0 0
255140.0 475386.0 0
258995.0 475447.0 0
262877.0 475492.0 0
266800.0 475482.0 0
278748.0 475333.0 0
282666.0 475428.0 0
286587.0 475553.0 0
290513.0 475692.0 0
294445.0 475834.0 0
298382.0 475970.0 0
302323.0 476094.0 0
306266.0 476200.0 0
310214.0 476277.0 0
314169.0 476308.0 0
318123.0 476269.0 0
322864.0 476878.0 0
327044.0 476985.0 0
331476.0 476359.0 0
335459.0 476083.0 0
339423.0 475799.0 0
343376.0 475504.0 0
353692.0 477857.0 0
357644.0 477473.0 0
361591.0 477041.0 0
365510.0 476530.0 0
369385.0 475923.0 0
374623.0 476252.0 0
378505.0 475598.0 0
384926.0 477927.0 0
388871.0 477361.0 0
392878.0 476805.0 0
396822.0 476152.0 0
403522.0 478302.0 0
407528.0 477540.0 0
411160.0 479157.0 0
98486.0 477865.0 0
110240.0 478481.0 0
114157.0 478864.0 0
118066.0 479351.0 0
121962.0 479948.0 0
125834.0 480650.0 0
129657.0 481468.0 0
135940.0 479395.0 0
139770.0 480041.0 0
146179.0 477659.0 0
150080.0 478192.0 0
154017.0 478666.0 0
158928.0 479478.0 0
163838.0 478838.0 0
167798.0 478976.0 0
171753.0 479015.0 0
175689.0 478988.0 0
179607.0 478932.0 0
183516.0 478871.0 0
187422.0 478823.0 0
191334.0 478805.0 0
195267.0 478834.0 0
199363.0 479023.0 0
203305.0 479013.0 0
207215.0 478952.0 0
211096.0 478874.0 0
214936.0 478758.0 0
218771.0 478643.0 0
222608.0 478555.0 0
226435.0 478508.0 0
230255.0 478490.0 0
234073.0 478491.0 0
237894.0 478509.0 0
241719.0 478541.0 0
245550.0 478582.0 0
249390.0 478630.0 0
253244.0 478679.0 0
257117.0 478723.0 0
261016.0 478751.0 0
264949.0 478739.0 0
268923.0 478630.0 0
272861.0 478593.0 0
276789.0 478615.0 0
280711.0 478683.0 0
284634.0 478784.0 0
288560.0 478903.0 0
292492.0 479031.0 0
296429.0 479158.0 0
300369.0 479277.0 0
304314.0 479382.0 0
308262.0 479464.0 0
312215.0 479512.0 0
316171.0 479514.0 0
320116.0 479474.0 0
324800.0 480106.0 0
329947.0 479687.0 0
333930.0 479391.0 0
337893.0 479121.0 0
341846.0 478830.0 0
345794.0 478527.0 0
349742.0 478205.0 0
360074.0 480447.0 0
364038.0 480001.0 0
367968.0 479469.0 0
371859.0 478856.0 0
377096.0 479154.0 0
380997.0 478515.0 0
391345.0 480355.0 0
395472.0 479774.0 0
399418.0 479131.0 0
409786.0 482863.0 0
94438.4 481548.0 0
99875.6 481488.0 0
103839.0 481340.0 0
107776.0 481603.0 0
111701.0 481923.0 0
115622.0 482338.0 0
119527.0 482872.0 0
123404.0 483524.0 0
133399.0 482383.0 0
143631.0 480627.0 0
147523.0 481167.0 0
151456.0 481640.0 0
155908.0 481828.0 0
161793.0 482052.0 0
165735.0 482179.0 0
169688.0 482258.0 0
173635.0 482276.0 0
177567.0 482252.0 0
181486.0 482209.0 0
185398.0 482164.0 0
189308.0 482132.0 0
193226.0 482125.0 0
197164.0 482155.0 0
201151.0 482240.0 0
205105.0 482226.0 0
209033.0 482186.0 0
212929.0 482150.0 0
216748.0 482019.0 0
220596.0 481905.0 0
224435.0 481857.0 0
228265.0 481842.0 0
232095.0 481841.0 0
235927.0 481854.0 0
239764.0 481879.0 0
243608.0 481911.0 0
247461.0 481949.0 0
251326.0 481986.0 0
255209.0 482018.0 0
259112.0 482034.0 0
263041.0 482022.0 0
266990.0 481967.0 0
270919.0 481920.0 0
274842.0 481922.0 0
278763.0 481966.0 0
282685.0 482044.0 0
286611.0 482144.0 0
290542.0 482257.0 0
294478.0 482374.0 0
298418.0 482487.0 0
302362.0 482591.0 0
306308.0 482677.0 0
310256.0 482738.0 0
314203.0 482766.0 0
318141.0 482760.0 0
322062.0 482734.0 0
327627.0 482585.0 0
332421.0 482711.0 0
336387.0 482470.0 0
340331.0 482184.0 0
344268.0 481888.0 0
348207.0 481570.0 0
352155.0 481227.0 0
356111.0 480854.0 0
366490.0 482986.0 0
370433.0 482431.0 0
374347.0 481822.0 0
379536.0 482074.0 0
383453.0 481467.0 0
387393.0 480905.0 0
398052.0 482776.0 0
402189.0 481980.0 0
406127.0 481285.0 0
97191.3 484422.0 0
101399.0 485099.0 0
105338.0 484756.0 0
109275.0 485031.0 0
113211.0 485373.0 0
117124.0 485835.0 0
121012.0 486428.0 0
127231.0 484304.0 0
137236.0 483041.0 0
141089.0 483636.0 0
144940.0 484182.0 0
148757.0 484697.0 0
152501.0 485171.0 0
156185.0 485466.0 0
159898.0 485356.0 0
191193.0 485455.0 0
195111.0 485450.0 0
199043.0 485466.0 0
203003.0 485484.0 0
206955.0 485464.0 0
210899.0 485452.0 0
214823.0 485494.0 0
218589.0 485261.0 0
222424.0 485203.0 0
226256.0 485197.0 0
230099.0 485195.0 0
233944.0 485206.0 0
237794.0 485225.0 0
241650.0 485251.0 0
245514.0 485281.0 0
249390.0 485309.0 0
253279.0 485332.0 0
257185.0 485342.0 0
261109.0 485331.0 0
265045.0 485298.0 0
268977.0 485263.0 0
272898.0 485251.0 0
276818.0 485275.0 0
280739.0 485332.0 0
284664.0 485413.0 0
288595.0 485511.0 0
338884.0 485583.0 0
342763.0 485287.0 0
346674.0 484971.0 0
350606.0 484630.0 0
354553.0 484262.0 0
358515.0 483864.0 0
362486.0 483439.0 0
372910.0 485411.0 0
376840.0 484835.0 0
381930.0 485030.0 0
385865.0 484466.0 0
389816.0 483935.0 0
393879.0 483320.0 0
106882.0 488190.0 0
110840.0 488454.0 0
114758.0 488850.0 0
124857.0 487159.0 0
130914.0 485463.0 0
134752.0 486083.0 0
138610.0 486684.0 0
142474.0 487241.0 0
146331.0 487770.0 0
163746.0 485444.0 0
167655.0 485521.0 0
171587.0 485564.0 0
175522.0 485569.0 0
179450.0 485547.0 0
183368.0 485513.0 0
187281.0 485479.0 0
292530.0 485617.0 0
296469.0 485724.0 0
300412.0 485825.0 0
304356.0 485915.0 0
308301.0 485986.0 0
312241.0 486033.0 0
316170.0 486055.0 0
320074.0 486056.0 0
323944.0 486024.0 0
327671.0 486231.0 0
331341.0 486167.0 0
335074.0 485894.0 0
349043.0 488071.0 0
352978.0 487703.0 0
356930.0 487309.0 0
360897.0 486891.0 0
364878.0 486452.0 0
368951.0 485984.0 0
379314.0 487907.0 0
384276.0 488036.0 0
388227.0 487519.0 0
392328.0 486905.0 0
396404.0 486325.0 0
400797.0 485656.0 0
98776.3 488081.0 0
102966.0 488734.0 0
118652.0 489366.0 0
122515.0 490036.0 0
128460.0 488588.0 0
132310.0 489180.0 0
136171.0 489765.0 0
140050.0 490321.0 0
150171.0 488269.0 0
154016.0 488652.0 0
157898.0 488780.0 0
161737.0 488777.0 0
165627.0 488827.0 0
169547.0 488869.0 0
173480.0 488890.0 0
177412.0 488887.0 0
181339.0 488867.0 0
185258.0 488839.0 0
189173.0 488811.0 0
193086.0 488790.0 0
197004.0 488777.0 0
200935.0 488765.0 0
204881.0 488746.0 0
208832.0 488721.0 0
212800.0 488743.0 0
220329.0 488513.0 0
224202.0 488550.0 0
228075.0 488548.0 0
231941.0 488561.0 0
235806.0 488580.0 0
239675.0 488602.0 0
243551.0 488625.0 0
247436.0 488646.0 0
251333.0 488663.0 0
255242.0 488669.0 0
259164.0 488661.0 0
263094.0 488637.0 0
267025.0 488611.0 0
270950.0 488597.0 0
274871.0 488607.0 0
278793.0 488646.0 0
282718.0 488709.0 0
286647.0 488792.0 0
290582.0 488886.0 0
294521.0 488985.0 0
298463.0 489084.0 0
302407.0 489175.0 0
306352.0 489253.0 0
310292.0 489315.0 0
314223.0 489359.0 0
318135.0 489386.0 0
322017.0 489401.0 0
325838.0 489488.0 0
329693.0 489523.0 0
333539.0 489345.0 0
337377.0 489054.0 0
341235.0 488737.0 0
345127.0 488414.0 0
355327.0 490786.0 0
359285.0 490368.0 0
363256.0 489936.0 0
367276.0 489475.0 0
371422.0 488972.0 0
375376.0 488436.0 0
390718.0 490483.0 0
394819.0 489921.0 0
399094.0 489217.0 0
97206.5 491750.0 0
101143.0 492260.0 0
104992.0 493076.0 0
108544.0 491588.0 0
112437.0 491922.0 0
116328.0 492359.0 0
120189.0 492941.0 0
126010.0 491707.0 0
129882.0 492298.0 0
133753.0 492879.0 0
143942.0 490849.0 0
147845.0 491354.0 0
151768.0 491797.0 0
155717.0 492042.0 0
159653.0 492136.0 0
163571.0 492160.0 0
167499.0 492196.0 0
171436.0 492222.0 0
175375.0 492232.0 0
179310.0 492226.0 0
183239.0 492207.0 0
187161.0 492183.0 0
191078.0 492157.0 0
194994.0 492131.0 0
198912.0 492102.0 0
202835.0 492066.0 0
206762.0 492024.0 0
210686.0 491995.0 0
214601.0 492072.0 0
218279.0 491715.0 0
222124.0 491897.0 0
226031.0 491892.0 0
229919.0 491916.0 0
233801.0 491939.0 0
237684.0 491961.0 0
241572.0 491981.0 0
245467.0 491998.0 0
249371.0 492010.0 0
253284.0 492014.0 0
257207.0 492007.0 0
261136.0 491990.0 0
265066.0 491969.0 0
268994.0 491955.0 0
272919.0 491957.0 0
276843.0 491981.0 0
280769.0 492029.0 0
284699.0 492097.0 0
288633.0 492180.0 0
292572.0 492270.0 0
296514.0 492364.0 0
300459.0 492454.0 0
304405.0 492537.0 0
308349.0 492609.0 0
312287.0 492667.0 0
316215.0 492712.0 0
320127.0 492748.0 0
324014.0 492800.0 0
327915.0 492823.0 0
331838.0 492740.0 0
335743.0 492520.0 0
339639.0 492219.0 0
343541.0 491892.0 0
347456.0 491548.0 0
351385.0 491180.0 0
361621.0 493439.0 0
365617.0 492990.0 0
369738.0 492465.0 0
373841.0 492012.0 0
377797.0 491520.0 0
381747.0 491035.0 0
386575.0 491101.0 0
397472.0 492828.0 0
401885.0 492045.0 0
110117.0 495042.0 0
114036.0 495402.0 0
117910.0 495906.0 0
123545.0 494826.0 0
127424.0 495386.0 0
137643.0 493426.0 0
141555.0 493942.0 0
145490.0 494437.0 0
149448.0 494906.0 0
153509.0 495264.0 0
157498.0 495433.0 0
161480.0 495493.0 0
165436.0 495532.0 0
169388.0 495563.0 0
173336.0 495583.0 0
177282.0 495588.0 0
181221.0 495581.0 0
185155.0 495563.0 0
189082.0 495540.0 0
193004.0 495511.0 0
196924.0 495477.0 0
200840.0 495432.0 0
204756.0 495374.0 0
208674.0 495312.0 0
212602.0 495275.0 0
219699.0 495331.0 0
223961.0 495212.0 0
227880.0 495264.0 0
231779.0 495301.0 0
235677.0 495326.0 0
239578.0 495346.0 0
243484.0 495361.0 0
247396.0 495371.0 0
251314.0 495374.0 0
255239.0 495368.0 0
259169.0 495355.0 0
263101.0 495338.0 0
267032.0 495324.0 0
270961.0 495321.0 0
274888.0 495336.0 0
278816.0 495371.0 0
282747.0 495426.0 0
286681.0 495496.0 0
290620.0 495578.0 0
294562.0 495665.0 0
298508.0 495753.0 0
302456.0 495838.0 0
306404.0 495914.0 0
334014.0 495958.0 0
337965.0 495696.0 0
341903.0 495386.0 0
345835.0 495050.0 0
349770.0 494689.0 0
353709.0 494298.0 0
357658.0 493878.0 0
368072.0 495989.0 0
372137.0 495522.0 0
376208.0 495113.0 0
380170.0 494656.0 0
384133.0 494209.0 0
389047.0 494052.0 0
393173.0 493506.0 0
98811.9 495487.0 0
102701.0 496264.0 0
106625.0 496721.0 0
111766.0 498469.0 0
115654.0 498926.0 0
121023.0 498154.0 0
131333.0 496003.0 0
135239.0 496558.0 0
139168.0 497060.0 0
143116.0 497538.0 0
147082.0 498003.0 0
151182.0 498403.0 0
214583.0 498465.0 0
221994.0 498511.0 0
310351.0 495981.0 0
314294.0 496037.0 0
318230.0 496083.0 0
322159.0 496126.0 0
326096.0 496144.0 0
330053.0 496100.0 0
344178.0 498561.0 0
348131.0 498216.0 0
352079.0 497841.0 0
356025.0 497424.0 0
359979.0 496976.0 0
363950.0 496518.0 0
378535.0 498264.0 0
382504.0 497829.0 0
386705.0 497243.0 0
391462.0 497073.0 0
395790.0 496423.0 0
400220.0 495678.0 0
97296.7 499175.0 0
101207.0 499911.0 0
105142.0 500372.0 0
109015.0 501083.0 0
124922.0 498481.0 0
128818.0 499035.0 0
132828.0 499702.0 0
136784.0 500206.0 0
140747.0 500668.0 0
155330.0 498713.0 0
159381.0 498800.0 0
163364.0 498865.0 0
167333.0 498909.0 0
171295.0 498939.0 0
175252.0 498956.0 0
179204.0 498958.0 0
183151.0 498949.0 0
187092.0 498932.0 0
191027.0 498906.0 0
194956.0 498873.0 0
198880.0 498828.0 0
202798.0 498765.0 0
206712.0 498680.0 0
210635.0 498586.0 0
218280.0 499046.0 0
225856.0 498611.0 0
229747.0 498668.0 0
233655.0 498698.0 0
237569.0 498719.0 0
241487.0 498734.0 0
245409.0 498745.0 0
249334.0 498748.0 0
253263.0 498744.0 0
257195.0 498732.0 0
261129.0 498718.0 0
265063.0 498705.0 0
268995.0 498699.0 0
272927.0 498707.0 0
276858.0 498733.0 0
280790.0 498775.0 0
284725.0 498835.0 0
288664.0 498906.0 0
292607.0 498987.0 0
296553.0 499071.0 0
300502.0 499155.0 0
304454.0 499233.0 0
308407.0 499304.0 0
312361.0 499365.0 0
316315.0 499417.0 0
320269.0 499460.0 0
324232.0 499480.0 0
328210.0 499455.0 0
332204.0 499373.0 0
336238.0 499158.0 0
340217.0 498876.0 0
354394.0 501003.0 0
358340.0 500554.0 0
362298.0 500073.0 0
366388.0 499529.0 0
370450.0 499064.0 0
374472.0 498643.0 0
385047.0 500845.0 0
389203.0 500357.0 0
393530.0 500360.0 0
397497.0 499962.0 0
401456.0 499462.0 0
98834.8 503099.0 0
102797.0 503566.0 0
113359.0 501982.0 0
118382.0 501614.0 0
122311.0 501832.0 0
126250.0 502136.0 0
130178.0 502636.0 0
134429.0 503380.0 0
144718.0 501117.0 0
148812.0 501517.0 0
152993.0 501883.0 0
157290.0 502101.0 0
161286.0 502191.0 0
165273.0 502254.0 0
169250.0 502299.0 0
173219.0 502327.0 0
177184.0 502340.0 0
181145.0 502340.0 0
185101.0 502329.0 0
189052.0 502309.0 0
192997.0 502280.0 0
196938.0 502240.0 0
200872.0 502183.0 0
204797.0 502096.0 0
208721.0 501964.0 0
212680.0 501804.0 0
218315.0 502969.0 0
223728.0 501943.0 0
227667.0 502037.0 0
231608.0 502072.0 0
235545.0 502097.0 0
239478.0 502116.0 0
243410.0 502129.0 0
247343.0 502134.0 0
251277.0 502132.0 0
255213.0 502123.0 0
259149.0 502110.0 0
263086.0 502098.0 0
267021.0 502090.0 0
270956.0 502093.0 0
274891.0 502110.0 0
278826.0 502144.0 0
282763.0 502193.0 0
286703.0 502256.0 0
290646.0 502329.0 0
294592.0 502408.0 0
298543.0 502488.0 0
302497.0 502567.0 0
306455.0 502639.0 0
310414.0 502703.0 0
314378.0 502757.0 0
318348.0 502800.0 0
322326.0 502826.0 0
326314.0 502821.0 0
330307.0 502766.0 0
334440.0 502594.0 0
338502.0 502357.0 0
342491.0 502071.0 0
346465.0 501751.0 0
350430.0 501397.0 0
360676.0 503671.0 0
364715.0 503100.0 0
368743.0 502621.0 0
372765.0 502201.0 0
376765.0 501813.0 0
380843.0 501449.0 0
399775.0 503203.0 0
106709.0 504218.0 0
110656.0 504707.0 0
115878.0 504902.0 0
119814.0 505215.0 0
123755.0 505447.0 0
127690.0 505750.0 0
131628.0 506177.0 0
138400.0 503830.0 0
142376.0 504260.0 0
146452.0 504646.0 0
150604.0 505021.0 0
154997.0 505278.0 0
159215.0 505520.0 0
163212.0 505598.0 0
167201.0 505659.0 0
171183.0 505703.0 0
175161.0 505726.0 0
179135.0 505735.0 0
183106.0 505731.0 0
187073.0 505717.0 0
191037.0 505693.0 0
194997.0 505658.0 0
198954.0 505609.0 0
202905.0 505539.0 0
206843.0 505414.0 0
210783.0 505196.0 0
214834.0 504930.0 0
221614.0 505220.0 0
225569.0 505404.0 0
229544.0 505445.0 0
233508.0 505476.0 0
237460.0 505502.0 0
241404.0 505521.0 0
245346.0 505531.0 0
249285.0 505533.0 0
253225.0 505527.0 0
257164.0 505516.0 0
261103.0 505504.0 0
265041.0 505494.0 0
268978.0 505493.0 0
272915.0 505504.0 0
276852.0 505528.0 0
280791.0 505568.0 0
284733.0 505623.0 0
288678.0 505689.0 0
292626.0 505762.0 0
296578.0 505839.0 0
300534.0 505916.0 0
304493.0 505989.0 0
308457.0 506054.0 0
312425.0 506109.0 0
316400.0 506152.0 0
320385.0 506180.0 0
324381.0 506191.0 0
328387.0 506167.0 0
332538.0 505996.0 0
336692.0 505811.0 0
340765.0 505569.0 0
344773.0 505287.0 0
348755.0 504962.0 0
352742.0 504581.0 0
356732.0 504180.0 0
367050.0 506209.0 0
371051.0 505767.0 0
375036.0 505388.0 0
379050.0 505011.0 0
383392.0 504464.0 0
387409.0 504016.0 0
391384.0 503715.0 0
395793.0 503567.0 0
100436.0 506765.0 0
104368.0 507391.0 0
108358.0 507842.0 0
112964.0 507955.0 0
117272.0 508540.0 0
136097.0 507035.0 0
140067.0 507436.0 0
144125.0 507807.0 0
148225.0 508173.0 0
152631.0 508414.0 0
156943.0 508726.0 0
204986.0 508892.0 0
208959.0 508700.0 0
212898.0 508351.0 0
218112.0 506914.0 0
223423.0 508769.0 0
227489.0 508820.0 0
231474.0 508855.0 0
235439.0 508893.0 0
263057.0 508912.0 0
266995.0 508908.0 0
270933.0 508913.0 0
274871.0 508930.0 0
278810.0 508961.0 0
343012.0 508803.0 0
347039.0 508533.0 0
351063.0 508167.0 0
355065.0 507772.0 0
359146.0 507349.0 0
363094.0 506719.0 0
381211.0 508310.0 0
385152.0 508004.0 0
389095.0 507615.0 0
393067.0 507343.0 0
397077.0 507294.0 0
401051.0 506976.0 0
102000.0 510579.0 0
106044.0 510993.0 0
110569.0 511164.0 0
121251.0 508825.0 0
125221.0 509062.0 0
129187.0 509338.0 0
133153.0 509666.0 0
137854.0 510698.0 0
141826.0 510996.0 0
161151.0 508946.0 0
165149.0 509020.0 0
169139.0 509082.0 0
173130.0 509118.0 0
177119.0 509134.0 0
181104.0 509137.0 0
185087.0 509129.0 0
189068.0 509111.0 0
193046.0 509081.0 0
197025.0 509038.0 0
201004.0 508978.0 0
219021.0 510638.0 0
239393.0 508920.0 0
243343.0 508937.0 0
247289.0 508945.0 0
251233.0 508943.0 0
255175.0 508934.0 0
259117.0 508923.0 0
282752.0 509007.0 0
286698.0 509065.0 0
290650.0 509132.0 0
294606.0 509205.0 0
298564.0 509280.0 0
302525.0 509352.0 0
306490.0 509419.0 0
310459.0 509476.0 0
314436.0 509519.0 0
318421.0 509547.0 0
322416.0 509563.0 0
326433.0 509562.0 0
330626.0 509416.0 0
334776.0 509231.0 0
338942.0 509039.0 0
353386.0 511378.0 0
357371.0 510993.0 0
364835.0 510210.0 0
369356.0 509346.0 0
373314.0 508972.0 0
377267.0 508624.0 0
391280.0 510938.0 0
395226.0 510799.0 0
399208.0 510658.0 0
114674.0 511563.0 0
118950.0 512082.0 0
122917.0 512364.0 0
126880.0 512606.0 0
130822.0 512873.0 0
134753.0 513127.0 0
145883.0 511360.0 0
150271.0 511567.0 0
154574.0 511875.0 0
158904.0 512185.0 0
163088.0 512383.0 0
167084.0 512466.0 0
171090.0 512512.0 0
175097.0 512539.0 0
179096.0 512549.0 0
183092.0 512546.0 0
187087.0 512533.0 0
191081.0 512509.0 0
195076.0 512470.0 0
199074.0 512420.0 0
203071.0 512347.0 0
207161.0 512206.0 0
211197.0 511946.0 0
215137.0 511388.0 0
221697.0 513419.0 0
225469.0 512211.0 0
229467.0 512237.0 0
233428.0 512291.0 0
237386.0 512328.0 0
241339.0 512352.0 0
245290.0 512368.0 0
249238.0 512371.0 0
253184.0 512366.0 0
257128.0 512355.0 0
261070.0 512344.0 0
265009.0 512337.0 0
268947.0 512339.0 0
272884.0 512349.0 0
276822.0 512372.0 0
280763.0 512408.0 0
284709.0 512457.0 0
288660.0 512515.0 0
292617.0 512583.0 0
296579.0 512655.0 0
300544.0 512728.0 0
304512.0 512797.0 0
308484.0 512856.0 0
312462.0 512903.0 0
316444.0 512933.0 0
320435.0 512946.0 0
324447.0 512951.0 0
328664.0 512829.0 0
332863.0 512674.0 0
337015.0 512475.0 0
341164.0 512293.0 0
345224.0 512075.0 0
349352.0 511759.0 0
361242.0 511912.0 0
367676.0 512909.0 0
371627.0 512563.0 0
375563.0 512223.0 0
379493.0 511907.0 0
383423.0 511601.0 0
387355.0 511304.0 0
100623.0 514645.0 0
104605.0 514672.0 0
108607.0 514673.0 0
112585.0 514966.0 0
116560.0 515257.0 0
120645.0 515650.0 0
124634.0 515899.0 0
128605.0 516148.0 0
132572.0 516379.0 0
137564.0 515703.0 0
141359.0 514895.0 0
145231.0 515254.0 0
149131.0 515334.0 0
153051.0 515512.0 0
156998.0 515644.0 0
160971.0 515719.0 0
165000.0 515851.0 0
169035.0 515911.0 0
173059.0 515946.0 0
177079.0 515968.0 0
181089.0 515971.0 0
185096.0 515963.0 0
189100.0 515943.0 0
193110.0 515913.0 0
197118.0 515861.0 0
201136.0 515807.0 0
205241.0 515664.0 0
209406.0 515485.0 0
213644.0 515077.0 0
217560.0 514329.0 0
227520.0 515625.0 0
231444.0 515711.0 0
235379.0 515747.0 0
239336.0 515779.0 0
243287.0 515800.0 0
247244.0 515811.0 0
251190.0 515811.0 0
255139.0 515801.0 0
259082.0 515790.0 0
263023.0 515782.0 0
266959.0 515780.0 0
270895.0 515786.0 0
274828.0 515800.0 0
278766.0 515827.0 0
282707.0 515868.0 0
286656.0 515916.0 0
290614.0 515973.0 0
294576.0 516042.0 0
298543.0 516114.0 0
302515.0 516185.0 0
306493.0 516248.0 0
310474.0 516300.0 0
314460.0 516336.0 0
318449.0 516349.0 0
322449.0 516347.0 0
326655.0 516239.0 0
330892.0 516105.0 0
335102.0 515939.0 0
339222.0 515749.0 0
343316.0 515603.0 0
347311.0 515439.0 0
351297.0 515229.0 0
355267.0 514877.0 0
359218.0 515345.0 0
363215.0 515389.0 0
371190.0 516475.0 0
375230.0 516165.0 0
379258.0 515867.0 0
383389.0 515570.0 0
387415.0 515283.0 0
391396.0 514925.0 0
395390.0 514778.0 0
399385.0 514651.0 0
102000.0 518578.0 0
106000.0 518555.0 0
110009.0 518546.0 0
114092.0 518674.0 0
142201.0 518775.0 0
213342.0 519044.0 0
219974.0 517271.0 0
223806.0 516685.0 0
229385.0 519115.0 0
349261.0 518905.0 0
357195.0 518795.0 0
367110.0 516770.0 0
385645.0 518859.0 0
389921.0 518638.0 0
394000.0 518555.0 0
398000.0 518578.0 0
118244.0 518873.0 0
122420.0 519195.0 0
126410.0 519439.0 0
130401.0 519671.0 0
134409.0 519825.0 0
138345.0 519496.0 0
146109.0 519109.0 0
150027.0 519184.0 0
153938.0 519373.0 0
157851.0 519521.0 0
161767.0 519612.0 0
165684.0 519754.0 0
169604.0 519829.0 0
173530.0 519876.0 0
177461.0 519908.0 0
181399.0 519916.0 0
185345.0 519912.0 0
189299.0 519894.0 0
193261.0 519868.0 0
197231.0 519810.0 0
201213.0 519767.0 0
205199.0 519616.0 0
209313.0 519455.0 0
217319.0 520164.0 0
221625.0 520793.0 0
225559.0 520160.0 0
233352.0 519209.0 0
237312.0 519201.0 0
241279.0 519254.0 0
245238.0 519249.0 0
249199.0 519277.0 0
253151.0 519257.0 0
257098.0 519252.0 0
261037.0 519239.0 0
264974.0 519240.0 0
268905.0 519237.0 0
272836.0 519255.0 0
276762.0 519262.0 0
280698.0 519299.0 0
284643.0 519335.0 0
288603.0 519378.0 0
292564.0 519440.0 0
296532.0 519509.0 0
300505.0 519580.0 0
304486.0 519646.0 0
308470.0 519703.0 0
312462.0 519747.0 0
316459.0 519773.0 0
320460.0 519761.0 0
324623.0 519659.0 0
328871.0 519529.0 0
333122.0 519385.0 0
337306.0 519235.0 0
341306.0 519111.0 0
345290.0 519034.0 0
353226.0 518831.0 0
361167.0 518822.0 0
364941.0 520054.0 0
369385.0 520012.0 0
373465.0 519734.0 0
377497.0 519442.0 0
381567.0 519117.0 0
101894.0 522579.0 0
105891.0 522555.0 0
109885.0 522544.0 0
113874.0 522668.0 0
117857.0 522845.0 0
121832.0 523108.0 0
125812.0 523335.0 0
129795.0 523551.0 0
133787.0 523697.0 0
138142.0 523376.0 0
142093.0 522768.0 0
146228.0 523068.0 0
150536.0 523120.0 0
154823.0 523249.0 0
158928.0 523353.0 0
162926.0 523427.0 0
166977.0 523517.0 0
170993.0 523556.0 0
174989.0 523575.0 0
178981.0 523583.0 0
182969.0 523568.0 0
186952.0 523549.0 0
190930.0 523519.0 0
194901.0 523491.0 0
198868.0 523427.0 0
202826.0 523407.0 0
206781.0 523261.0 0
210732.0 523184.0 0
214688.0 523084.0 0
218839.0 523864.0 0
223267.0 524346.0 0
227195.0 523714.0 0
231042.0 522723.0 0
234990.0 523103.0 0
238954.0 522803.0 0
242904.0 523085.0 0
246868.0 522868.0 0
250824.0 523136.0 0
254791.0 522879.0 0
258767.0 522870.0 0
262746.0 522831.0 0
266724.0 522821.0 0
270705.0 522785.0 0
274681.0 522789.0 0
278660.0 522748.0 0
282629.0 522774.0 0
286589.0 522792.0 0
290547.0 522852.0 0
294510.0 522913.0 0
298478.0 522985.0 0
302458.0 523050.0 0
306446.0 523113.0 0
310441.0 523163.0 0
314444.0 523198.0 0
318488.0 523197.0 0
322556.0 523133.0 0
326546.0 523132.0 0
330528.0 523137.0 0
334504.0 523105.0 0
338474.0 523028.0 0
342438.0 522921.0 0
346401.0 522853.0 0
350361.0 522741.0 0
354327.0 522776.0 0
358299.0 522761.0 0
362269.0 522986.0 0
366924.0 523494.0 0
370908.0 523665.0 0
374872.0 523450.0 0
378826.0 523198.0 0
382777.0 522917.0 0
386735.0 522698.0 0
390703.0 522561.0 0
394682.0 522580.0 0
398672.0 522604.0 0
101859.0 526580.0 0
105854.0 526557.0 0
109843.0 526543.0 0
213074.0 526708.0 0
229930.0 526558.0 0
237855.0 526621.0 0
390000.0 526547.0 0
394000.0 526555.0 0
398000.0 526578.0 0
113825.0 526668.0 0
117800.0 526837.0 0
121765.0 527075.0 0
125727.0 527287.0 0
129686.0 527488.0 0
133648.0 527627.0 0
137597.0 527242.0 0
141550.0 526728.0 0
145520.0 526976.0 0
149500.0 526960.0 0
153481.0 527002.0 0
157463.0 527066.0 0
161443.0 527139.0 0
165419.0 527195.0 0
169393.0 527213.0 0
173366.0 527221.0 0
177339.0 527222.0 0
181310.0 527199.0 0
185282.0 527174.0 0
189253.0 527140.0 0
193225.0 527113.0 0
197197.0 527046.0 0
201173.0 527044.0 0
205144.0 526900.0 0
209117.0 527020.0 0
216940.0 527661.0 0
220908.0 527530.0 0
225761.0 527412.0 0
233884.0 526944.0 0
241856.0 526947.0 0
245847.0 526720.0 0
249902.0 527030.0 0
253891.0 526765.0 0
257888.0 526766.0 0
261884.0 526724.0 0
265881.0 526725.0 0
269876.0 526686.0 0
273870.0 526712.0 0
277860.0 526648.0 0
281849.0 526683.0 0
285836.0 526677.0 0
289827.0 526754.0 0
293820.0 526814.0 0
297815.0 526895.0 0
301812.0 526959.0 0
305810.0 527028.0 0
309809.0 527081.0 0
313813.0 527120.0 0
317812.0 527103.0 0
321847.0 527050.0 0
325846.0 527051.0 0
329844.0 527058.0 0
333841.0 527027.0 0
337836.0 526954.0 0
341830.0 526858.0 0
345823.0 526796.0 0
349815.0 526741.0 0
353802.0 526772.0 0
357785.0 526743.0 0
361759.0 526941.0 0
365721.0 527291.0 0
369699.0 527439.0 0
373688.0 527248.0 0
377732.0 527035.0 0
381856.0 526801.0 0
385966.0 526619.0 0
102000.0 530578.0 0
106000.0 530555.0 0
110000.0 530546.0 0
114000.0 530665.0 0
117998.0 530827.0 0
122005.0 531043.0 0
126022.0 531239.0 0
130076.0 531417.0 0
134211.0 531523.0 0
138186.0 531120.0 0
142154.0 530712.0 0
146147.0 530903.0 0
150194.0 530881.0 0
154198.0 530925.0 0
158195.0 530992.0 0
162192.0 531065.0 0
166190.0 531116.0 0
170189.0 531128.0 0
174189.0 531130.0 0
178188.0 531126.0 0
182188.0 531096.0 0
186193.0 531064.0 0
190226.0 531014.0 0
194225.0 530981.0 0
198221.0 530903.0 0
202216.0 530902.0 0
206208.0 530751.0 0
210200.0 530871.0 0
214180.0 530537.0 0
218421.0 531420.0 0
222530.0 531161.0 0
226518.0 531283.0 0
230411.0 530494.0 0
234360.0 530910.0 0
238318.0 530574.0 0
242275.0 530930.0 0
246244.0 530689.0 0
250208.0 531020.0 0
254179.0 530746.0 0
258162.0 530753.0 0
262147.0 530706.0 0
266133.0 530714.0 0
270121.0 530671.0 0
274111.0 530707.0 0
278102.0 530628.0 0
282094.0 530667.0 0
286088.0 530638.0 0
290081.0 530723.0 0
294075.0 530777.0 0
298069.0 530863.0 0
302063.0 530924.0 0
306058.0 530997.0 0
310052.0 531051.0 0
314048.0 531093.0 0
318044.0 531071.0 0
322040.0 531030.0 0
326036.0 531030.0 0
330033.0 531036.0 0
334030.0 531005.0 0
338027.0 530933.0 0
342024.0 530840.0 0
346021.0 530782.0 0
350018.0 530743.0 0
354017.0 530767.0 0
358015.0 530764.0 0
362012.0 530927.0 0
366111.0 531255.0 0
370108.0 531381.0 0
374099.0 531206.0 0
378088.0 531007.0 0
382075.0 530786.0 0
386066.0 530615.0 0
390061.0 530547.0 0
394058.0 530555.0 0
398056.0 530579.0 0
102000.0 534578.0 0
106000.0 534555.0 0
110000.0 534546.0 0
114000.0 534664.0 0
117997.0 534824.0 0
121990.0 535026.0 0
125983.0 535210.0 0
129975.0 535371.0 0
133970.0 535458.0 0
137946.0 535047.0 0
141934.0 534713.0 0
145930.0 534876.0 0
149928.0 534854.0 0
153926.0 534902.0 0
157924.0 534975.0 0
161921.0 535053.0 0
165918.0 535102.0 0
169914.0 535114.0 0
173910.0 535115.0 0
177905.0 535111.0 0
181899.0 535080.0 0
185893.0 535048.0 0
189886.0 534994.0 0
193879.0 534960.0 0
197872.0 534880.0 0
201865.0 534884.0 0
205855.0 534731.0 0
209845.0 534855.0 0
213821.0 534500.0 0
217720.0 535361.0 0
221694.0 535053.0 0
225672.0 535145.0 0
229982.0 534454.0 0
233961.0 534882.0 0
237947.0 534546.0 0
241984.0 534917.0 0
245976.0 534674.0 0
249991.0 535012.0 0
253993.0 534737.0 0
257996.0 534747.0 0
261995.0 534696.0 0
265995.0 534709.0 0
269995.0 534663.0 0
273995.0 534706.0 0
277993.0 534616.0 0
281993.0 534661.0 0
285992.0 534615.0 0
289991.0 534707.0 0
293990.0 534756.0 0
297990.0 534845.0 0
301989.0 534903.0 0
305989.0 534979.0 0
309989.0 535035.0 0
313991.0 535080.0 0
317992.0 535053.0 0
321995.0 535017.0 0
325995.0 535016.0 0
329994.0 535022.0 0
333994.0 534991.0 0
337993.0 534920.0 0
341991.0 534830.0 0
345990.0 534775.0 0
349989.0 534743.0 0
353988.0 534767.0 0
357986.0 534764.0 0
361981.0 534926.0 0
365967.0 535237.0 0
369964.0 535342.0 0
373966.0 535183.0 0
377985.0 534994.0 0
381993.0 534776.0 0
385999.0 534611.0 0
390000.0 534548.0 0
394000.0 534555.0 0
398000.0 534578.0 0
102000.0 538578.0 0
106000.0 538555.0 0
110000.0 538546.0 0
114000.0 538664.0 0
118000.0 538821.0 0
121995.0 539014.0 0
125992.0 539187.0 0
129989.0 539335.0 0
133988.0 539407.0 0
138015.0 538990.0 0
142005.0 538713.0 0
146008.0 538857.0 0
150012.0 538836.0 0
154015.0 538888.0 0
158014.0 538966.0 0
162013.0 539047.0 0
166012.0 539096.0 0
170012.0 539108.0 0
174012.0 539109.0 0
178012.0 539105.0 0
182012.0 539074.0 0
186013.0 539041.0 0
190019.0 538986.0 0
194023.0 538953.0 0
198022.0 538869.0 0
202022.0 538877.0 0
206019.0 538725.0 0
210017.0 538850.0 0
214010.0 538482.0 0
218151.0 539336.0 0
222175.0 539008.0 0
226172.0 539075.0 0
230115.0 538443.0 0
234085.0 538873.0 0
238066.0 538536.0 0
242044.0 538914.0 0
246033.0 538669.0 0
250016.0 539010.0 0
254005.0 538734.0 0
258003.0 538745.0 0
262002.0 538691.0 0
266001.0 538708.0 0
270001.0 538658.0 0
274000.0 538705.0 0
278001.0 538608.0 0
282000.0 538657.0 0
286001.0 538600.0 0
290001.0 538696.0 0
294001.0 538740.0 0
298001.0 538833.0 0
302002.0 538888.0 0
306002.0 538966.0 0
310001.0 539023.0 0
314001.0 539071.0 0
318001.0 539041.0 0
322001.0 539007.0 0
326001.0 539004.0 0
330001.0 539011.0 0
334001.0 538980.0 0
338000.0 538910.0 0
342000.0 538823.0 0
346000.0 538772.0 0
350000.0 538743.0 0
354000.0 538767.0 0
358000.0 538764.0 0
362001.0 538926.0 0
366017.0 539220.0 0
370016.0 539307.0 0
374013.0 539164.0 0
378009.0 538982.0 0
382003.0 538768.0 0
386000.0 538609.0 0
390000.0 538548.0 0
394000.0 538555.0 0
398000.0 538578.0 0
102000.0 542578.0 0
106000.0 542555.0 0
110000.0 542546.0 0
114000.0 542663.0 0
118000.0 542819.0 0
122000.0 543005.0 0
126001.0 543169.0 0
130004.0 543305.0 0
134010.0 543362.0 0
137997.0 542943.0 0
142000.0 542713.0 0
145999.0 542841.0 0
149999.0 542821.0 0
153999.0 542875.0 0
157998.0 542957.0 0
161998.0 543042.0 0
165999.0 543091.0 0
169999.0 543104.0 0
173999.0 543104.0 0
177999.0 543101.0 0
181999.0 543069.0 0
185998.0 543037.0 0
189998.0 542982.0 0
193998.0 542948.0 0
197997.0 542863.0 0
201998.0 542873.0 0
205998.0 542721.0 0
209999.0 542849.0 0
213981.0 542470.0 0
217888.0 543326.0 0
221872.0 542980.0 0
225958.0 543038.0 0
230000.0 542436.0 0
233996.0 542867.0 0
237996.0 542530.0 0
241999.0 542911.0 0
245999.0 542666.0 0
250000.0 543007.0 0
254000.0 542732.0 0
258000.0 542745.0 0
262000.0 542687.0 0
266000.0 542708.0 0
270000.0 542655.0 0
274000.0 542705.0 0
278000.0 542601.0 0
282000.0 542654.0 0
286000.0 542589.0 0
290000.0 542689.0 0
294000.0 542729.0 0
298000.0 542824.0 0
302000.0 542877.0 0
306000.0 542956.0 0
310000.0 543013.0 0
314000.0 543064.0 0
318000.0 543032.0 0
322000.0 542999.0 0
326000.0 542995.0 0
330000.0 543002.0 0
334000.0 542971.0 0
338000.0 542902.0 0
342000.0 542818.0 0
346000.0 542770.0 0
350000.0 542743.0 0
354000.0 542767.0 0
358000.0 542764.0 0
362000.0 542926.0 0
365994.0 543205.0 0
369994.0 543276.0 0
373998.0 543146.0 0
377999.0 542970.0 0
382000.0 542760.0 0
386000.0 542607.0 0
390000.0 542548.0 0
394000.0 542555.0 0
398000.0 542578.0 0
102000.0 546578.0 0
106000.0 546555.0 0
110000.0 546546.0 0
114000.0 546663.0 0
118000.0 546817.0 0
122000.0 546999.0 0
126000.0 547156.0 0
129999.0 547281.0 0
133998.0 547324.0 0
138000.0 546906.0 0
142000.0 546713.0 0
146000.0 546828.0 0
150000.0 546807.0 0
154000.0 546864.0 0
158000.0 546950.0 0
162000.0 547037.0 0
166000.0 547087.0 0
170000.0 547100.0 0
174000.0 547100.0 0
178000.0 547097.0 0
182000.0 547065.0 0
186000.0 547033.0 0
190000.0 546977.0 0
194000.0 546943.0 0
198000.0 546857.0 0
202000.0 546870.0 0
206000.0 546719.0 0
210000.0 546848.0 0
214000.0 546462.0 0
218017.0 547322.0 0
222032.0 546962.0 0
226032.0 547011.0 0
230000.0 546436.0 0
234000.0 546862.0 0
238000.0 546525.0 0
242000.0 546909.0 0
246000.0 546663.0 0
250000.0 547005.0 0
254000.0 546731.0 0
258000.0 546744.0 0
262000.0 546685.0 0
266000.0 546708.0 0
270000.0 546653.0 0
274000.0 546705.0 0
278000.0 546595.0 0
282000.0 546651.0 0
286000.0 546581.0 0
290000.0 546683.0 0
294000.0 546721.0 0
298000.0 546818.0 0
302000.0 546868.0 0
306000.0 546949.0 0
310000.0 547006.0 0
314000.0 547059.0 0
318000.0 547025.0 0
322000.0 546992.0 0
326000.0 546988.0 0
330000.0 546995.0 0
334000.0 546965.0 0
338000.0 546897.0 0
342000.0 546814.0 0
346000.0 546769.0 0
350000.0 546743.0 0
354000.0 546767.0 0
358000.0 546764.0 0
362000.0 546926.0 0
366001.0 547192.0 0
370001.0 547249.0 0
374000.0 547131.0 0
378000.0 546961.0 0
382000.0 546753.0 0
386000.0 546606.0 0
390000.0 546548.0 0
394000.0 546555.0 0
398000.0 546578.0 0
102000.0 550578.0 0
106000.0 550555.0 0
110000.0 550546.0 0
114000.0 550662.0 0
118000.0 550816.0 0
122000.0 550994.0 0
126000.0 551147.0 0
130000.0 551262.0 0
134000.0 551294.0 0
138000.0 550877.0 0
142000.0 550713.0 0
146000.0 550818.0 0
150000.0 550796.0 0
154000.0 550854.0 0
158000.0 550943.0 0
162000.0 551032.0 0
166000.0 551083.0 0
170000.0 551097.0 0
174000.0 551096.0 0
178000.0 551094.0 0
182000.0 551062.0 0
186000.0 551030.0 0
190000.0 550974.0 0
194000.0 550940.0 0
198000.0 550853.0 0
202000.0 550867.0 0
206000.0 550716.0 0
210000.0 550847.0 0
214000.0 550456.0 0
217998.0 551321.0 0
221993.0 550950.0 0
225998.0 550990.0 0
230000.0 550436.0 0
234000.0 550859.0 0
238000.0 550522.0 0
242000.0 550907.0 0
246000.0 550661.0 0
250000.0 551003.0 0
254000.0 550730.0 0
258000.0 550744.0 0
262000.0 550683.0 0
266000.0 550708.0 0
270000.0 550651.0 0
274000.0 550705.0 0
278000.0 550591.0 0
282000.0 550649.0 0
286000.0 550574.0 0
290000.0 550680.0 0
294000.0 550714.0 0
298000.0 550813.0 0
302000.0 550862.0 0
306000.0 550943.0 0
310000.0 551001.0 0
314000.0 551055.0 0
318000.0 551019.0 0
322000.0 550988.0 0
326000.0 550983.0 0
330000.0 550990.0 0
334000.0 550961.0 0
338000.0 550893.0 0
342000.0 550812.0 0
346000.0 550768.0 0
350000.0 550743.0 0
354000.0 550766.0 0
358000.0 550764.0 0
362000.0 550926.0 0
366000.0 551180.0 0
370000.0 551226.0 0
374000.0 551118.0 0
378000.0 550952.0 0
382000.0 550748.0 0
386000.0 550604.0 0
390000.0 550548.0 0
394000.0 550555.0 0
398000.0 550578.0 0
102000.0 554578.0 0
106000.0 554555.0 0
110000.0 554546.0 0
114000.0 554662.0 0
118000.0 554815.0 0
122000.0 554991.0 0
126000.0 555140.0 0
130000.0 555249.0 0
134000.0 555271.0 0
138000.0 554855.0 0
142000.0 554713.0 0
146000.0 554811.0 0
150000.0 554787.0 0
154000.0 554846.0 0
158000.0 554938.0 0
162000.0 555029.0 0
166000.0 555080.0 0
170000.0 555094.0 0
174000.0 555094.0 0
178000.0 555092.0 0
182000.0 555059.0 0
186000.0 555027.0 0
190000.0 554971.0 0
194000.0 554937.0 0
198000.0 554849.0 0
202000.0 554865.0 0
206000.0 554714.0 0
210000.0 554846.0 0
214000.0 554451.0 0
222000.0 554941.0 0
226000.0 554975.0 0
230000.0 554436.0 0
234000.0 554857.0 0
238000.0 554520.0 0
242000.0 554906.0 0
246000.0 554660.0 0
250000.0 555002.0 0
254000.0 554730.0 0
258000.0 554744.0 0
262000.0 554682.0 0
266000.0 554708.0 0
270000.0 554650.0 0
274000.0 554705.0 0
278000.0 554588.0 0
282000.0 554647.0 0
286000.0 554570.0 0
290000.0 554677.0 0
294000.0 554710.0 0
298000.0 554810.0 0
302000.0 554857.0 0
306000.0 554940.0 0
310000.0 554997.0 0
314000.0 555051.0 0
318000.0 555015.0 0
322000.0 554985.0 0
326000.0 554979.0 0
330000.0 554987.0 0
334000.0 554958.0 0
338000.0 554890.0 0
342000.0 554811.0 0
346000.0 554768.0 0
350000.0 554743.0 0
354000.0 554766.0 0
358000.0 554764.0 0
362000.0 554926.0 0
366000.0 555171.0 0
370000.0 555209.0 0
374000.0 555109.0 0
378000.0 554946.0 0
382000.0 554743.0 0
386000.0 554603.0 0
390000.0 554548.0 0
394000.0 554555.0 0
398000.0 554578.0 0
218000.0 555320.0 0
102000.0 558578.0 0
106000.0 558555.0 0
110000.0 558546.0 0
114000.0 558661.0 0
118000.0 558815.0 0
122000.0 558989.0 0
126000.0 559136.0 0
130000.0 559241.0 0
134000.0 559256.0 0
138000.0 558841.0 0
142000.0 558713.0 0
146000.0 558806.0 0
150000.0 558781.0 0
154000.0 558841.0 0
158000.0 558934.0 0
162000.0 559026.0 0
166000.0 559078.0 0
170000.0 559093.0 0
174000.0 559092.0 0
178000.0 559090.0 0
182000.0 559057.0 0
186000.0 559025.0 0
190000.0 558969.0 0
194000.0 558935.0 0
198000.0 558847.0 0
202000.0 558863.0 0
206000.0 558713.0 0
210000.0 558846.0 0
214000.0 558449.0 0
218000.0 559319.0 0
222000.0 558935.0 0
226000.0 558965.0 0
230000.0 558436.0 0
234000.0 558856.0 0
238000.0 558518.0 0
242000.0 558905.0 0
246000.0 558658.0 0
250000.0 559001.0 0
254000.0 558729.0 0
258000.0 558744.0 0
262000.0 558681.0 0
266000.0 558708.0 0
270000.0 558650.0 0
274000.0 558705.0 0
278000.0 558586.0 0
282000.0 558646.0 0
286000.0 558567.0 0
290000.0 558675.0 0
294000.0 558707.0 0
298000.0 558808.0 0
302000.0 558855.0 0
306000.0 558937.0 0
310000.0 558995.0 0
314000.0 559049.0 0
318000.0 559012.0 0
322000.0 558982.0 0
326000.0 558977.0 0
330000.0 558984.0 0
334000.0 558956.0 0
338000.0 558888.0 0
342000.0 558810.0 0
346000.0 558768.0 0
350000.0 558743.0 0
354000.0 558766.0 0
358000.0 558764.0 0
362000.0 558926.0 0
366000.0 559165.0 0
370000.0 559197.0 0
374000.0 559102.0 0
378000.0 558941.0 0
382000.0 558740.0 0
386000.0 558603.0 0
390000.0 558548.0 0
394000.0 558555.0 0
398000.0 558578.0 0
102000.0 562578.0 0
106000.0 562555.0 0
110000.0 562546.0 0
114000.0 562661.0 0
118000.0 562815.0 0
122000.0 562988.0 0
138000.0 562834.0 0
142000.0 562713.0 0
146000.0 562803.0 0
150000.0 562778.0 0
154000.0 562838.0 0
158000.0 562932.0 0
162000.0 563025.0 0
166000.0 563077.0 0
182000.0 563056.0 0
186000.0 563024.0 0
190000.0 562968.0 0
194000.0 562934.0 0
198000.0 562846.0 0
202000.0 562862.0 0
206000.0 562712.0 0
210000.0 562846.0 0
214000.0 562447.0 0
222000.0 562931.0 0
226000.0 562960.0 0
230000.0 562436.0 0
234000.0 562855.0 0
238000.0 562517.0 0
242000.0 562904.0 0
246000.0 562658.0 0
250000.0 563000.0 0
254000.0 562729.0 0
258000.0 562744.0 0
262000.0 562681.0 0
266000.0 562708.0 0
270000.0 562649.0 0
274000.0 562705.0 0
278000.0 562584.0 0
282000.0 562645.0 0
286000.0 562565.0 0
290000.0 562674.0 0
294000.0 562706.0 0
298000.0 562807.0 0
302000.0 562853.0 0
306000.0 562936.0 0
310000.0 562994.0 0
314000.0 563047.0 0
318000.0 563010.0 0
322000.0 562981.0 0
326000.0 562975.0 0
330000.0 562983.0 0
334000.0 562955.0 0
338000.0 562888.0 0
342000.0 562810.0 0
346000.0 562768.0 0
350000.0 562743.0 0
354000.0 562766.0 0
358000.0 562764.0 0
362000.0 562926.0 0
366000.0 563161.0 0
374000.0 563099.0 0
378000.0 562939.0 0
382000.0 562739.0 0
386000.0 562602.0 0
390000.0 562548.0 0
394000.0 562555.0 0
398000.0 562578.0 0
126000.0 563134.0 0
130000.0 563236.0 0
134000.0 563248.0 0
170000.0 563092.0 0
174000.0 563091.0 0
178000.0 563089.0 0
218000.0 563319.0 0
370000.0 563192.0 0
POINT_DATA 4650
SCALARS Radius float 1
LOOKUP_TABLE default
4000.0 4000.0 4000.0 4000.0 4000.0 4000.0 4000.0 4000.0 4000.0 4000.0 4000.0 4000.0 4000.0 4000.0 4000.0 4000.0 4000.0 4000.0 4000.0 4000.0 4000.0 4000.0 4000.0 4000.0 4000.0 4000.0 4000.0 4000.0 4000.0 4000.0 4000.0 4000.0 4000.0 4000.0 4000.0 4000.0 4000.0 4000.0 4000.0 4000.0 4000.0 4000.0 4000.0 4000.0 4000.0 4000.0 4000.0 4000.0 4000.0 4000.0 4000.0 4000.0 4000.0 4000.0 4000.0 4000.0 4000.0 4000.0 4000.0 4000.0 4000.0 4000.0 4000.0 4000.0 4000.0 4000.0 4000.0 4000.0 4000.0 4000.0 4000.0 4000.0 4000.0 4000.0 4000.0 4000.0 4000.0 4000.0 4000.0 4000.0 4000.0 4000.0 4000.0 4000.0 4000.0 4000.0 4000.0 4000.0 4000.0 4000.0 4000.0 4000.0 4000.0 4000.0 4000.0 4000.0 4000.0 4000.0 4000.0 4000.0 4000.0 4000.0 4000.0 4000.0 4000.0 4000.0 4000.0 4000.0 4000.0 4000.0 4000.0 4000.0 4000.0 4000.0 4000.0 4000.0 4000.0 4000.0 4000.0 4000.0 4000.0 4000.0 4000.0 4000.0 4000.0 4000.0 4000.0 4000.0 4000.0 4000.0 4000.0 4000.0 4000.0 4000.0 4000.0 4000.0 4000.0 4000.0 4000.0 4000.0 4000.0 4000.0 4000.0 4000.0 4000.0 4000.0 4000.0 4000.0 4000.0 4000.0 4000.0 4000.0 4000.0 4000.0 4000.0 4000.0 4000.0 4000.0 4000.0 4000.0 4000.0 4000.0 4000.0 4000.0 4000.0 4000.0 4000.0 4000.0 4000.0 4000.0 4000.0 4000.0 4000.0 4000.0 4000.0 4000.0 4000.0 4000.0 4000.0 4000.0 4000.0 4000.0 4000.0 4000.0 4000.0 4000.0 4000.0 4000.0 4000.0 4000.0 4000.0 4000.0 4000.0 4000.0 4000.0 4000.0 4000.0 4000.0 4000.0 4000.0 4000.0 4000.0 4000.0 4000.0 4000.0 4000.0 4000.0 4000.0 4000.0 4000.0 4000.0 4000.0 4000.0 4000.0 4000.0 4000.0 4000.0 4000.0 4000.0 4000.0 4000.0 4000.0 4000.0 4000.0 4000.0 4000.0 4000.0 4000.0 4000.0 4000.0 4000.0 4000.0 4000.0 4000.0 4000.0 4000.0 4000.0 4000.0 4000.0 4000.0 4000.0 4000.0 4000.0 4000.0 4000.0 4000.0 4000.0 4000.0 4000.0 4000.0 4000.0 4000.0 4000.0 4000.0 4000.0 4000.0 4000.0 4000.0 4000.0 4000.0 4000.0 4000.0 4000.0 4000.0 4000.0 4000.0 4000.0 4000.0 4000.0 4000.0 4000.0 4000.0 4000.0 4000.0 4000.0 4000.0 4000.0 4000.0 4000.0 4000.0 4000.0 4000.0 4000.0 4000.0 4000.0 4000.0 4000.0 4000.0 4000.0 4000.0 4000.0 4000.0 4000.0 4000.0 4000.0 4000.0 4000.0 4000.0 4000.0 4000.0 4000.0 4000.0 4000.0 4000.0 4000.0 4000.0 4000.0 4000.0 4000.0 4000.0 4000.0 4000.0 4000.0 4000.0 4000.0 4000.0 4000.0 4000.0 4000.0 4000.0 4000.0 4000.0 4000.0 4000.0 4000.0 4000.0 4000.0 4000.0 4000.0 4000.0 4000.0 4000.0 4000.0 4000.0 4000.0 4000.0 4000.0 4000.0 4000.0 4000.0 4000.0 4000.0 4000.0 4000.0 4000.0 4000.0 4000.0 4000.0 4000.0 4000.0 4000.0 4000.0 4000.0 4000.0 4000.0 4000.0 4000.0 4000.0 4000.0 4000.0 4000.0 4000.0 4000.0 4000.0 4000.0 4000.0 4000.0 4000.0 4000.0 4000.0 4000.0 4000.0 4000.0 4000.0 4000.0 4000.0 4000.0 4000.0 4000.0 4000.0 4000.0 4000.0 4000.0 4000.0 4000.0 4000.0 4000.0 4000.0 4000.0 4000.0 4000.0 4000.0 4000.0 4000.0 4000.0 4000.0 4000.0 4000.0 4000.0 4000.0 4000.0 4000.0 4000.0 4000.0 4000.0 4000.0 4000.0 4000.0 4000.0 4000.0 4000.0 4000.0 4000.0 4000.0 4000.0 4000.0 4000.0 4000.0 4000.0 4000.0 4000.0 4000.0 4000.0 4000.0 4000.0 4000.0 4000.0 4000.0 4000.0 4000.0 4000.0 4000.0 4000.0 4000.0 4000.0 4000.0 4000.0 4000.0 4000.0 4000.0 4000.0 4000.0 4000.0 4000.0 4000.0 4000.0 4000.0 4000.0 4000.0 4000.0 4000.0 4000.0 4000.0 4000.0 4000.0 4000.0 4000.0 4000.0 4000.0 4000.0 4000.0 4000.0 4000.0 4000.0 4000.0 4000.0 4000.0 4000.0 4000.0 4000.0 4000.0 4000.0 4000.0 4000.0 4000.0 4000.0 4000.0 4000.0 4000.0 4000.0 4000.0 4000.0 4000.0 4000.0 4000.0 4000.0 4000.0 4000.0 4000.0 4000.0 4000.0 4000.0 4000.0 4000.0 4000.0 4000.0 4000.0 4000.0 4000.0 4000.0 4000.0 4000.0 4000.0 4000.0 4000.0 4000.0 4000.0 4000.0 4000.0 4000.0 4000.0 4000.0 4000.0 4000.0 4000.0 4000.0 4000.0 4000.0 4000.0 4000.0 4000.0 4000.0 4000.0 4000.0 4000.0 4000.0 4000.0 4000.0 4000.0 4000.0 4000.0 4000.0 4000.0 4000.0 4000.0 4000.0 4000.0 4000.0 4000.0 4000.0 4000.0 4000.0 4000.0 4000.0 4000.0 4000.0 4000.0 4000.0 4000.0 4000.0 4000.0 4000.0 4000.0 4000.0 4000.0 4000.0 4000.0 4000.0 4000.0 4000.0 4000.0 4000.0 4000.0 4000.0 4000.0 4000.0 4000.0 4000.0 4000.0 4000.0 4000.0 4000.0 4000.0 4000.0 4000.0 4000.0 4000.0 4000.0 4000.0 4000.0 4000.0 4000.0 4000.0 4000.0 4000.0 4000.0 4000.0 4000.0 4000.0 4000.0 4000.0 4000.0 4000.0 4000.0 4000.0 4000.0 4000.0 4000.0 4000.0 4000.0 4000.0 4000.0 4000.0 4000.0 4000.0 4000.0 4000.0 4000.0 4000.0 4000.0 4000.0 4000.0 4000.0 4000.0 4000.0 4000.0 4000.0 4000.0 4000.0 4000.0 4000.0 4000.0 4000.0 4000.0 4000.0 4000.0 4000.0 4000.0 4000.0 4000.0 4000.0 4000.0 4000.0 4000.0 4000.0 4000.0 4000.0 4000.0 4000.0 4000.0 4000.0 4000.0 4000.0 4000.0 4000.0 4000.0 4000.0 4000.0 4000.0 4000.0 4000.0 4000.0 4000.0 4000.0 4000.0 4000.0 4000.0 4000.0 4000.0 4000.0 4000.0 4000.0 4000.0 4000.0 4000.0 4000.0 4000.0 4000.0 4000.0 4000.0 4000.0 4000.0 4000.0 4000.0 4000.0 4000.0 4000.0 4000.0 4000.0 4000.0 4000.0 4000.0 4000.0 4000.0 4000.0 4000.0 4000.0 4000.0 4000.0 4000.0 4000.0 4000.0 4000.0 4000.0 4000.0 4000.0 4000.0 4000.0 4000.0 4000.0 4000.0 4000.0 4000.0 4000.0 4000.0 4000.0 4000.0 4000.0 4000.0 4000.0 4000.0 4000.0 4000.0 4000.0 4000.0 4000.0 4000.0 4000.0 4000.0 4000.0 4000.0 4000.0 4000.0 4000.0 4000.0 4000.0 4000.0 4000.0 4000.0 4000.0 4000.0 4000.0 4000.0 4000.0 4000.0 4000.0 4000.0 4000.0 4000.0 4000.0 4000.0 4000.0 4000.0 4000.0 4000.0 4000.0 4000.0 4000.0 4000.0 4000.0 4000.0 4000.0 4000.0 4000.0 4000.0 4000.0 4000.0 4000.0 4000.0 4000.0 4000.0 4000.0 4000.0 4000.0 4000.0 4000.0 4000.0 4000.0 4000.0 4000.0 4000.0 4000.0 4000.0 4000.0 4000.0 4000.0 4000.0 4000.0 4000.0 4000.0 4000.0 4000.0 4000.0 4000.0 4000.0 4000.0 4000.0 4000.0 4000.0 4000.0 4000.0 4000.0 4000.0 4000.0 4000.0 4000.0 4000.0 4000.0 4000.0 4000.0 4000.0 4000.0 4000.0 4000.0 4000.0 4000.0 4000.0 4000.0 4000.0 4000.0 4000.0 4000.0 4000.0 4000.0 4000.0 4000.0 4000.0 4000.0 4000.0 4000.0 4000.0 4000.0 4000.0 4000.0 4000.0 4000.0 4000.0 4000.0 4000.0 4000.0 4000.0 4000.0 4000.0 4000.0 4000.0 4000.0 4000.0 4000.0 4000.0 4000.0 4000.0 4000.0 4000.0 4000.0 4000.0 4000.0 4000.0 4000.0 4000.0 4000.0 4000.0 4000.0 4000.0 4000.0 4000.0 4000.0 4000.0 4000.0 4000.0 4000.0 4000.0 4000.0 4000.0 4000.0 4000.0 4000.0 4000.0 4000.0 4000.0 4000.0 4000.0 4000.0 4000.0 4000.0 4000.0 4000.0 4000.0 4000.0 4000.0 4000.0 4000.0 4000.0 4000.0 4000.0 4000.0 4000.0 4000.0 4000.0 4000.0 4000.0 4000.0 4000.0 4000.0 4000.0 4000.0 4000.0 4000.0 4000.0 4000.0 4000.0 4000.0 4000.0 4000.0 4000.0 4000.0 4000.0 4000.0 4000.0 4000.0 4000.0 4000.0 4000.0 4000.0 4000.0 4000.0 4000.0 4000.0 4000.0 4000.0 4000.0 4000.0 4000.0 4000.0 4000.0 4000.0 4000.0 4000.0 4000.0 4000.0 4000.0 4000.0 4000.0 4000.0 4000.0 4000.0 4000.0 4000.0 4000.0 4000.0 4000.0 4000.0 4000.0 4000.0 4000.0 4000.0 4000.0 4000.0 4000.0 4000.0 4000.0 4000.0 4000.0 4000.0 4000.0 4000.0 4000.0 4000.0 4000.0 4000.0 4000.0 4000.0 4000.0 4000.0 4000.0 4000.0 4000.0 4000.0 4000.0 4000.0 4000.0 4000.0 4000.0 4000.0 4000.0 4000.0 4000.0 4000.0 4000.0 4000.0 4000.0 4000.0 4000.0 4000.0 4000.0 4000.0 4000.0 4000.0 4000.0 4000.0 4000.0 4000.0 4000.0 4000.0 4000.0 4000.0 4000.0 4000.0 4000.0 4000.0 4000.0 4000.0 4000.0 4000.0 4000.0 4000.0 4000.0 4000.0 4000.0 4000.0 4000.0 4000.0 4000.0 4000.0 4000.0 4000.0 4000.0 4000.0 4000.0 4000.0 4000.0 4000.0 4000.0 4000.0 4000.0 4000.0 4000.0 4000.0 4000.0 4000.0 4000.0 4000.0 4000.0 4000.0 4000.0 4000.0 4000.0 4000.0 4000.0 4000.0 4000.0 4000.0 4000.0 4000.0 4000.0 4000.0 4000.0 4000.0 4000.0 4000.0 4000.0 4000.0 4000.0 4000.0 4000.0 4000.0 4000.0 4000.0 4000.0 4000.0 4000.0 4000.0 4000.0 4000.0 4000.0 4000.0 4000.0 4000.0 4000.0 4000.0 4000.0 4000.0 4000.0 4000.0 4000.0 4000.0 4000.0 4000.0 4000.0 4000.0 4000.0 4000.0 4000.0 4000.0 4000.0 4000.0 4000.0 4000.0 4000.0 4000.0 4000.0 4000.0 4000.0 4000.0 4000.0 4000.0 4000.0 4000.0 4000.0 4000.0 4000.0 4000.0 4000.0 4000.0 4000.0 4000.0 4000.0 4000.0 4000.0 4000.0 4000.0 4000.0 4000.0 4000.0 4000.0 4000.0 4000.0 4000.0 4000.0 4000.0 4000.0 4000.0 4000.0 4000.0 4000.0 4000.0 4000.0 4000.0 4000.0 4000.0 4000.0 4000.0 4000.0 4000.0 4000.0 4000.0 4000.0 4000.0 4000.0 4000.0 4000.0 4000.0 4000.0 4000.0 4000.0 4000.0 4000.0 4000.0 4000.0 4000.0 4000.0 4000.0 4000.0 4000.0 4000.0 4000.0 4000.0 4000.0 4000.0 4000.0 4000.0 4000.0 4000.0 4000.0 4000.0 4000.0 4000.0 4000.0 4000.0 4000.0 4000.0 4000.0 4000.0 4000.0 4000.0 4000.0 4000.0 4000.0 4000.0 4000.0 4000.0 4000.0 4000.0 4000.0 4000.0 4000.0 4000.0 4000.0 4000.0 4000.0 4000.0 4000.0 4000.0 4000.0 4000.0 4000.0 4000.0 4000.0 4000.0 4000.0 4000.0 4000.0 4000.0 4000.0 4000.0 4000.0 4000.0 4000.0 4000.0 4000.0 4000.0 4000.0 4000.0 4000.0 4000.0 4000.0 4000.0 4000.0 4000.0 4000.0 4000.0 4000.0 4000.0 4000.0 4000.0 4000.0 4000.0 4000.0 4000.0 4000.0 4000.0 4000.0 4000.0 4000.0 4000.0 4000.0 4000.0 4000.0 4000.0 4000.0 4000.0 4000.0 4000.0 4000.0 4000.0 4000.0 4000.0 4000.0 4000.0 4000.0 4000.0 4000.0 4000.0 4000.0 4000.0 4000.0 4000.0 4000.0 4000.0 4000.0 4000.0 4000.0 4000.0 4000.0 4000.0 4000.0 4000.0 4000.0 4000.0 4000.0 4000.0 4000.0 4000.0 4000.0 4000.0 4000.0 4000.0 4000.0 4000.0 4000.0 4000.0 4000.0 4000.0 4000.0 4000.0 4000.0 4000.0 4000.0 4000.0 4000.0 4000.0 4000.0 4000.0 4000.0 4000.0 4000.0 4000.0 4000.0 4000.0 4000.0 4000.0 4000.0 4000.0 4000.0 4000.0 4000.0 4000.0 4000.0 4000.0 4000.0 4000.0 4000.0 4000.0 4000.0 4000.0 4000.0 4000.0 4000.0 4000.0 4000.0 4000.0 4000.0 4000.0 4000.0 4000.0 4000.0 4000.0 4000.0 4000.0 4000.0 4000.0 4000.0 4000.0 4000.0 4000.0 4000.0 4000.0 4000.0 4000.0 4000.0 4000.0 4000.0 4000.0 4000.0 4000.0 4000.0 4000.0 4000.0 4000.0 4000.0 4000.0 4000.0 4000.0 4000.0 4000.0 4000.0 4000.0 4000.0 4000.0 4000.0 4000.0 4000.0 4000.0 4000.0 4000.0 4000.0 4000.0 4000.0 4000.0 4000.0 4000.0 4000.0 4000.0 4000.0 4000.0 4000.0 4000.0 4000.0 4000.0 4000.0 4000.0 4000.0 4000.0 4000.0 4000.0 4000.0 4000.0 4000.0 4000.0 4000.0 4000.0 4000.0 4000.0 4000.0 4000.0 4000.0 4000.0 4000.0 4000.0 4000.0 4000.0 4000.0 4000.0 4000.0 4000.0 4000.0 4000.0 4000.0 4000.0 4000.0 4000.0 4000.0 4000.0 4000.0 4000.0 4000.0 4000.0 4000.0 4000.0 4000.0 4000.0 4000.0 4000.0 4000.0 4000.0 4000.0 4000.0 4000.0 4000.0 4000.0 4000.0 4000.0 4000.0 4000.0 4000.0 4000.0 4000.0 4000.0 4000.0 4000.0 4000.0 4000.0 4000.0 4000.0 4000.0 4000.0 4000.0 4000.0 4000.0 4000.0 4000.0 4000.0 4000.0 4000.0 4000.0 4000.0 4000.0 4000.0 4000.0 4000.0 4000.0 4000.0 4000.0 4000.0 4000.0 4000.0 4000.0 4000.0 4000.0 4000.0 4000.0 4000.0 4000.0 4000.0 4000.0 4000.0 4000.0 4000.0 4000.0 4000.0 4000.0 4000.0 4000.0 4000.0 4000.0 4000.0 4000.0 4000.0 4000.0 4000.0 4000.0 4000.0 4000.0 4000.0 4000.0 4000.0 4000.0 4000.0 4000.0 4000.0 4000.0 4000.0 4000.0 4000.0 4000.0 4000.0 4000.0 4000.0 4000.0 4000.0 4000.0 4000.0 4000.0 4000.0 4000.0 4000.0 4000.0 4000.0 4000.0 4000.0 4000.0 4000.0 4000.0 4000.0 4000.0 4000.0 4000.0 4000.0 4000.0 4000.0 4000.0 4000.0 4000.0 4000.0 4000.0 4000.0 4000.0 4000.0 4000.0 4000.0 4000.0 4000.0 4000.0 4000.0 4000.0 4000.0 4000.0 4000.0 4000.0 4000.0 4000.0 4000.0 4000.0 4000.0 4000.0 4000.0 4000.0 4000.0 4000.0 4000.0 4000.0 4000.0 4000.0 4000.0 4000.0 4000.0 4000.0 4000.0 4000.0 4000.0 4000.0 4000.0 4000.0 4000.0 4000.0 4000.0 4000.0 4000.0 4000.0 4000.0 4000.0 4000.0 4000.0 4000.0 4000.0 4000.0 4000.0 4000.0 4000.0 4000.0 4000.0 4000.0 4000.0 4000.0 4000.0 4000.0 4000.0 4000.0 4000.0 4000.0 4000.0 4000.0 4000.0 4000.0 4000.0 4000.0 4000.0 4000.0 4000.0 4000.0 4000.0 4000.0 4000.0 4000.0 4000.0 4000.0 4000.0 4000.0 4000.0 4000.0 4000.0 4000.0 4000.0 4000.0 4000.0 4000.0 4000.0 4000.0 4000.0 4000.0 4000.0 4000.0 4000.0 4000.0 4000.0 4000.0 4000.0 4000.0 4000.0 4000.0 4000.0 4000.0 4000.0 4000.0 4000.0 4000.0 4000.0 4000.0 4000.0 4000.0 4000.0 4000.0 4000.0 4000.0 4000.0 4000.0 4000.0 4000.0 4000.0 4000.0 4000.0 4000.0 4000.0 4000.0 4000.0 4000.0 4000.0 4000.0 4000.0 4000.0 4000.0 4000.0 4000.0 4000.0 4000.0 4000.0 4000.0 4000.0 4000.0 4000.0 4000.0 4000.0 4000.0 4000.0 4000.0 4000.0 4000.0 4000.0 4000.0 4000.0 4000.0 4000.0 4000.0 4000.0 4000.0 4000.0 4000.0 4000.0 4000.0 4000.0 4000.0 4000.0 4000.0 4000.0 4000.0 4000.0 4000.0 4000.0 4000.0 4000.0 4000.0 4000.0 4000.0 4000.0 4000.0 4000.0 4000.0 4000.0 4000.0 4000.0 4000.0 4000.0 4000.0 4000.0 4000.0 4000.0 4000.0 4000.0 4000.0 4000.0 4000.0 4000.0 4000.0 4000.0 4000.0 4000.0 4000.0 4000.0 4000.0 4000.0 4000.0 4000.0 4000.0 4000.0 4000.0 4000.0 4000.0 4000.0 4000.0 4000.0 4000.0 4000.0 4000.0 4000.0 4000.0 4000.0 4000.0 4000.0 4000.0 4000.0 4000.0 4000.0 4000.0 4000.0 4000.0 4000.0 4000.0 4000.0 4000.0 4000.0 4000.0 4000.0 4000.0 4000.0 4000.0 4000.0 4000.0 4000.0 4000.0 4000.0 4000.0 4000.0 4000.0 4000.0 4000.0 4000.0 4000.0 4000.0 4000.0 4000.0 4000.0 4000.0 4000.0 4000.0 4000.0 4000.0 4000.0 4000.0 4000.0 4000.0 4000.0 4000.0 4000.0 4000.0 4000.0 4000.0 4000.0 4000.0 4000.0 4000.0 4000.0 4000.0 4000.0 4000.0 4000.0 4000.0 4000.0 4000.0 4000.0 4000.0 4000.0 4000.0 4000.0 4000.0 4000.0 4000.0 4000.0 4000.0 4000.0 4000.0 4000.0 4000.0 4000.0 4000.0 4000.0 4000.0 4000.0 4000.0 4000.0 4000.0 4000.0 4000.0 4000.0 4000.0 4000.0 4000.0 4000.0 4000.0 4000.0 4000.0 4000.0 4000.0 4000.0 4000.0 4000.0 4000.0 4000.0 4000.0 4000.0 4000.0 4000.0 4000.0 4000.0 4000.0 4000.0 4000.0 4000.0 4000.0 4000.0 4000.0 4000.0 4000.0 4000.0 4000.0 4000.0 4000.0 4000.0 4000.0 4000.0 4000.0 4000.0 4000.0 4000.0 4000.0 4000.0 4000.0 4000.0 4000.0 4000.0 4000.0 4000.0 4000.0 4000.0 4000.0 4000.0 4000.0 4000.0 4000.0 4000.0 4000.0 4000.0 4000.0 4000.0 4000.0 4000.0 4000.0 4000.0 4000.0 4000.0 4000.0 4000.0 4000.0 4000.0 4000.0 4000.0 4000.0 4000.0 4000.0 4000.0 4000.0 4000.0 4000.0 4000.0 4000.0 4000.0 4000.0 4000.0 4000.0 4000.0 4000.0 4000.0 4000.0 4000.0 4000.0 4000.0 4000.0 4000.0 4000.0 4000.0 4000.0 4000.0 4000.0 4000.0 4000.0 4000.0 4000.0 4000.0 4000.0 4000.0 4000.0 4000.0 4000.0 4000.0 4000.0 4000.0 4000.0 4000.0 4000.0 4000.0 4000.0 4000.0 4000.0 4000.0 4000.0 4000.0 4000.0 4000.0 4000.0 4000.0 4000.0 4000.0 4000.0 4000.0 4000.0 4000.0 4000.0 4000.0 4000.0 4000.0 4000.0 4000.0 4000.0 4000.0 4000.0 4000.0 4000.0 4000.0 4000.0 4000.0 4000.0 4000.0 4000.0 4000.0 4000.0 4000.0 4000.0 4000.0 4000.0 4000.0 4000.0 4000.0 4000.0 4000.0 4000.0 4000.0 4000.0 4000.0 4000.0 4000.0 4000.0 4000.0 4000.0 4000.0 4000.0 4000.0 4000.0 4000.0 4000.0 4000.0 4000.0 4000.0 4000.0 4000.0 4000.0 4000.0 4000.0 4000.0 4000.0 4000.0 4000.0 4000.0 4000.0 4000.0 4000.0 4000.0 4000.0 4000.0 4000.0 4000.0 4000.0 4000.0 4000.0 4000.0 4000.0 4000.0 4000.0 4000.0 4000.0 4000.0 4000.0 4000.0 4000.0 4000.0 4000.0 4000.0 4000.0 4000.0 4000.0 4000.0 4000.0 4000.0 4000.0 4000.0 4000.0 4000.0 4000.0 4000.0 4000.0 4000.0 4000.0 4000.0 4000.0 4000.0 4000.0 4000.0 4000.0 4000.0 4000.0 4000.0 4000.0 4000.0 4000.0 4000.0 4000.0 4000.0 4000.0 4000.0 4000.0 4000.0 4000.0 4000.0 4000.0 4000.0 4000.0 4000.0 4000.0 4000.0 4000.0 4000.0 4000.0 4000.0 4000.0 4000.0 4000.0 4000.0 4000.0 4000.0 4000.0 4000.0 4000.0 4000.0 4000.0 4000.0 4000.0 4000.0 4000.0 4000.0 4000.0 4000.0 4000.0 4000.0 4000.0 4000.0 4000.0 4000.0 4000.0 4000.0 4000.0 4000.0 4000.0 4000.0 4000.0 4000.0 4000.0 4000.0 4000.0 4000.0 4000.0 4000.0 4000.0 4000.0 4000.0 4000.0 4000.0 4000.0 4000.0 4000.0 4000.0 4000.0 4000.0 4000.0 4000.0 4000.0 4000.0 4000.0 4000.0 4000.0 4000.0 4000.0 4000.0 4000.0 4000.0 4000.0 4000.0 4000.0 4000.0 4000.0 4000.0 4000.0 4000.0 4000.0 4000.0 4000.0 4000.0 4000.0 4000.0 4000.0 4000.0 4000.0 4000.0 4000.0 4000.0 4000.0 4000.0 4000.0 4000.0 4000.0 4000.0 4000.0 4000.0 4000.0 4000.0 4000.0 4000.0 4000.0 4000.0 4000.0 4000.0 4000.0 4000.0 4000.0 4000.0 4000.0 4000.0 4000.0 4000.0 4000.0 4000.0 4000.0 4000.0 4000.0 4000.0 4000.0 4000.0 4000.0 4000.0 4000.0 4000.0 4000.0 4000.0 4000.0 4000.0 4000.0 4000.0 4000.0 4000.0 4000.0 4000.0 4000.0 4000.0 4000.0 4000.0 4000.0 4000.0 4000.0 4000.0 4000.0 4000.0 4000.0 4000.0 4000.0 4000.0 4000.0 4000.0 4000.0 4000.0 4000.0 4000.0 4000.0 4000.0 4000.0 4000.0 4000.0 4000.0 4000.0 4000.0 4000.0 4000.0 4000.0 4000.0 4000.0 4000.0 4000.0 4000.0 4000.0 4000.0 4000.0 4000.0 4000.0 4000.0 4000.0 4000.0 4000.0 4000.0 4000.0 4000.0 4000.0 4000.0 4000.0 4000.0 4000.0 4000.0 4000.0 4000.0 4000.0 4000.0 4000.0 4000.0 4000.0 4000.0 4000.0 4000.0 4000.0 4000.0 4000.0 4000.0 4000.0 4000.0 4000.0 4000.0 4000.0 4000.0 4000.0 4000.0 4000.0 4000.0 4000.0 4000.0 4000.0 4000.0 4000.0 4000.0 4000.0 4000.0 4000.0 4000.0 4000.0 4000.0 4000.0 4000.0 4000.0 4000.0 4000.0 4000.0 4000.0 4000.0 4000.0 4000.0 4000.0 4000.0 4000.0 4000.0 4000.0 4000.0 4000.0 4000.0 4000.0 4000.0 4000.0 4000.0 4000.0 4000.0 4000.0 4000.0 4000.0 4000.0 4000.0 4000.0 4000.0 4000.0 4000.0 4000.0 4000.0 4000.0 4000.0 4000.0 4000.0 4000.0 4000.0 4000.0 4000.0 4000.0 4000.0 4000.0 4000.0 4000.0 4000.0 4000.0 4000.0 4000.0 4000.0 4000.0 4000.0 4000.0 4000.0 4000.0 4000.0 4000.0 4000.0 4000.0 4000.0 4000.0 4000.0 4000.0 4000.0 4000.0 4000.0 4000.0 4000.0 4000.0 4000.0 4000.0 4000.0 4000.0 4000.0 4000.0 4000.0 4000.0 4000.0 4000.0 4000.0 4000.0 4000.0 4000.0 4000.0 4000.0 4000.0 4000.0 4000.0 4000.0 4000.0 4000.0 4000.0 4000.0 4000.0 4000.0 4000.0 4000.0 4000.0 4000.0 4000.0 4000.0 4000.0 4000.0 4000.0 4000.0 4000.0 4000.0 4000.0 4000.0 4000.0 4000.0 4000.0 4000.0 4000.0 4000.0 4000.0 4000.0 4000.0 4000.0 4000.0 4000.0 4000.0 4000.0 4000.0 4000.0 4000.0 4000.0 4000.0 4000.0 4000.0 4000.0 4000.0 4000.0 4000.0 4000.0 4000.0 4000.0 4000.0 4000.0 4000.0 4000.0 4000.0 4000.0 4000.0 4000.0 4000.0 4000.0 4000.0 4000.0 4000.0 4000.0 4000.0 4000.0 4000.0 4000.0 4000.0 4000.0 4000.0 4000.0 4000.0 4000.0 4000.0 4000.0 4000.0 4000.0 4000.0 4000.0 4000.0 4000.0 4000.0 4000.0 4000.0 4000.0 4000.0 4000.0 4000.0 4000.0 4000.0 4000.0 4000.0 4000.0 4000.0 4000.0 4000.0 4000.0 4000.0 4000.0 4000.0 4000.0 4000.0 4000.0 4000.0 4000.0 4000.0 4000.0 4000.0 4000.0 4000.0 4000.0 4000.0 4000.0 4000.0 4000.0 4000.0 4000.0 4000.0 4000.0 4000.0 4000.0 4000.0 4000.0 4000.0 4000.0 4000.0 4000.0 4000.0 4000.0 4000.0 4000.0 4000.0 4000.0 4000.0 4000.0 4000.0 4000.0 4000.0 4000.0 4000.0 4000.0 4000.0 4000.0 4000.0 4000.0 4000.0 4000.0 4000.0 4000.0 4000.0 4000.0 4000.0 4000.0 4000.0 4000.0 4000.0 4000.0 4000.0 4000.0 4000.0 4000.0 4000.0 4000.0 4000.0 4000.0 4000.0 4000.0 4000.0 4000.0 4000.0 4000.0 4000.0 4000.0 4000.0 4000.0 4000.0 4000.0 4000.0 4000.0 4000.0 4000.0 4000.0 4000.0 4000.0 4000.0 4000.0 4000.0 4000.0 4000.0 4000.0 4000.0 4000.0 4000.0 4000.0 4000.0 4000.0 4000.0 4000.0 4000.0 4000.0 4000.0 4000.0 4000.0 4000.0 4000.0 4000.0 4000.0 4000.0 4000.0 4000.0 4000.0 4000.0 4000.0 4000.0 4000.0 4000.0 4000.0 4000.0 4000.0 4000.0 4000.0 4000.0 4000.0 4000.0 4000.0 4000.0 4000.0 4000.0 4000.0 4000.0 4000.0 4000.0 4000.0 4000.0 4000.0 4000.0 4000.0 4000.0 4000.0 4000.0 4000.0 4000.0 4000.0 4000.0 4000.0 4000.0 4000.0 4000.0 4000.0 4000.0 4000.0 4000.0 4000.0 4000.0 4000.0 4000.0 4000.0 4000.0 4000.0 4000.0 4000.0 4000.0 4000.0 4000.0 4000.0 4000.0 4000.0 4000.0 4000.0 4000.0 4000.0 4000.0 4000.0 4000.0 4000.0 4000.0 4000.0 4000.0 4000.0 4000.0 4000.0 4000.0 4000.0 4000.0 4000.0 4000.0 4000.0 4000.0 4000.0 4000.0 4000.0 4000.0 4000.0 4000.0 4000.0 4000.0 4000.0 4000.0 4000.0 4000.0 4000.0 4000.0 4000.0 4000.0 4000.0 4000.0 4000.0 4000.0 4000.0 4000.0 4000.0 4000.0 4000.0 4000.0 4000.0 4000.0 4000.0 4000.0 4000.0 4000.0 4000.0 4000.0 4000.0 4000.0 4000.0 4000.0 4000.0 4000.0 4000.0 4000.0 4000.0 4000.0 4000.0 4000.0 4000.0 4000.0 4000.0 4000.0 4000.0 4000.0 4000.0 4000.0 4000.0 4000.0 4000.0 4000.0 4000.0 4000.0 4000.0 4000.0 4000.0 4000.0 4000.0 4000.0 4000.0 4000.0 4000.0 4000.0 4000.0 4000.0 4000.0 4000.0 4000.0 4000.0 4000.0 4000.0 4000.0 4000.0 4000.0 4000.0 4000.0 4000.0 4000.0 4000.0 4000.0 4000.0 4000.0 4000.0 4000.0 4000.0 4000.0 4000.0 4000.0 4000.0 4000.0 4000.0 4000.0 4000.0 4000.0 4000.0 4000.0 4000.0 4000.0 4000.0 4000.0 4000.0 4000.0 4000.0 4000.0 4000.0 4000.0 4000.0 4000.0 4000.0 4000.0 4000.0 4000.0 4000.0 4000.0 4000.0 4000.0 4000.0 4000.0 4000.0 4000.0 4000.0 4000.0 4000.0 4000.0 4000.0 4000.0 4000.0 4000.0 4000.0 4000.0 4000.0 4000.0 4000.0 4000.0 4000.0 4000.0 4000.0 4000.0 4000.0 4000.0 4000.0 4000.0 4000.0 4000.0 4000.0 4000.0 4000.0 4000.0 4000.0 4000.0 4000.0 4000.0 4000.0 4000.0 4000.0 4000.0 4000.0 4000.0 4000.0 4000.0 4000.0 4000.0 4000.0 4000.0 4000.0 4000.0 4000.0 4000.0 4000.0 4000.0 4000.0 4000.0 4000.0 4000.0 4000.0 4000.0 4000.0 4000.0 4000.0 4000.0 4000.0 4000.0 4000.0 4000.0 4000.0 4000.0 4000.0 4000.0 4000.0 4000.0 4000.0 4000.0 4000.0 4000.0 4000.0 4000.0 4000.0 4000.0 4000.0 4000.0 4000.0 4000.0 4000.0 4000.0 4000.0 4000.0 4000.0 4000.0 4000.0 4000.0 4000.0 4000.0 4000.0 4000.0 4000.0 4000.0 4000.0 4000.0 4000.0 4000.0 4000.0 4000.0 4000.0 4000.0 4000.0 4000.0 4000.0 4000.0 4000.0 4000.0 4000.0 4000.0 4000.0 4000.0 4000.0 4000.0 4000.0 4000.0 4000.0 4000.0 4000.0 4000.0 4000.0 4000.0 4000.0 4000.0 4000.0 4000.0 4000.0 4000.0 4000.0 4000.0 4000.0 4000.0 4000.0 4000.0 4000.0 4000.0 4000.0 4000.0 4000.0 4000.0 4000.0 4000.0 4000.0 4000.0 4000.0 4000.0 4000.0 4000.0 4000.0 4000.0 4000.0 4000.0 4000.0 4000.0 4000.0 4000.0 4000.0 4000.0 4000.0 4000.0 4000.0 4000.0 4000.0 4000.0 4000.0 4000.0 4000.0 4000.0 4000.0 4000.0 4000.0 4000.0 4000.0 4000.0 4000.0 4000.0 4000.0 4000.0 4000.0 4000.0 4000.0 4000.0 4000.0 4000.0 4000.0 4000.0 4000.0 4000.0 4000.0 4000.0 4000.0 4000.0 4000.0 4000.0 4000.0 4000.0 4000.0 4000.0 4000.0 4000.0 4000.0 4000.0 4000.0 4000.0 4000.0 4000.0 4000.0 4000.0 4000.0 4000.0 4000.0 4000.0 4000.0 4000.0 4000.0 4000.0 4000.0 4000.0 4000.0 4000.0 4000.0 4000.0 4000.0 4000.0 4000.0 4000.0 4000.0 4000.0 4000.0 4000.0 4000.0 4000.0 4000.0 4000.0 4000.0 4000.0 4000.0 4000.0 4000.0 4000.0 4000.0 4000.0 4000.0 4000.0 4000.0 4000.0 4000.0 4000.0 4000.0 4000.0 4000.0 4000.0 4000.0 4000.0 4000.0 4000.0 4000.0 4000.0 4000.0 4000.0 4000.0 4000.0 4000.0 4000.0 4000.0 4000.0 4000.0 4000.0 4000.0 4000.0 4000.0 4000.0 4000.0 4000.0 4000.0 4000.0 4000.0 4000.0 4000.0 4000.0 4000.0 4000.0 4000.0 4000.0 4000.0 4000.0 4000.0 4000.0 4000.0 4000.0 4000.0 4000.0 4000.0 4000.0 4000.0 4000.0 4000.0 4000.0 4000.0 4000.0 4000.0 4000.0 4000.0 4000.0 4000.0 4000.0 4000.0 4000.0 4000.0 4000.0 4000.0 4000.0 4000.0 4000.0 4000.0 4000.0 4000.0 4000.0 4000.0 4000.0 4000.0 4000.0 4000.0 4000.0 4000.0 4000.0 4000.0 4000.0 4000.0 4000.0 4000.0 4000.0 4000.0 4000.0 4000.0 4000.0 4000.0 4000.0 4000.0 4000.0 4000.0 4000.0 4000.0 4000.0 4000.0 4000.0 4000.0 4000.0 4000.0 4000.0 4000.0 4000.0 4000.0 4000.0 4000.0 4000.0 4000.0 4000.0 4000.0 4000.0 4000.0 4000.0 4000.0 4000.0 4000.0 4000.0 4000.0 4000.0 4000.0 4000.0 4000.0 4000.0 4000.0 4000.0 4000.0 4000.0 4000.0 4000.0 4000.0 4000.0 4000.0 4000.0 4000.0 4000.0 4000.0 4000.0 4000.0 4000.0 4000.0 4000.0 4000.0 4000.0 4000.0 4000.0 4000.0 4000.0 4000.0 4000.0 4000.0 4000.0 4000.0 4000.0 4000.0 4000.0 4000.0 4000.0 4000.0 4000.0 4000.0 4000.0 4000.0 4000.0 4000.0 4000.0 4000.0 4000.0 4000.0 4000.0 4000.0 4000.0 4000.0 4000.0 4000.0 4000.0 4000.0 4000.0 4000.0 4000.0 4000.0 4000.0 4000.0 4000.0 4000.0 4000.0 4000.0 4000.0 4000.0 4000.0 4000.0 4000.0 4000.0 4000.0 4000.0 4000.0 4000.0 4000.0 4000.0 4000.0 4000.0 4000.0 4000.0 4000.0 4000.0 4000.0 4000.0 4000.0 4000.0 4000.0 4000.0 4000.0 4000.0 4000.0 4000.0 4000.0 4000.0 4000.0 4000.0 4000.0 4000.0 4000.0 4000.0 4000.0 4000.0 4000.0 4000.0 4000.0 4000.0 4000.0 4000.0 4000.0 4000.0 4000.0 4000.0 4000.0 4000.0 4000.0 4000.0 4000.0 4000.0 4000.0 4000.0 4000.0 4000.0 4000.0 4000.0 4000.0 4000.0 4000.0 4000.0 4000.0 4000.0 4000.0 4000.0 4000.0 4000.0 4000.0 4000.0 4000.0 4000.0 4000.0 4000.0 4000.0 4000.0 4000.0 4000.0 4000.0 4000.0 4000.0 4000.0 4000.0 4000.0 4000.0 4000.0 4000.0 4000.0 4000.0 4000.0 4000.0 4000.0 4000.0 4000.0 4000.0 4000.0 4000.0 4000.0 4000.0 4000.0 4000.0 4000.0 4000.0 4000.0 4000.0 4000.0 4000.0 4000.0 4000.0 4000.0 4000.0 4000.0 4000.0 4000.0 4000.0 4000.0 4000.0 4000.0 4000.0 4000.0 4000.0 4000.0 4000.0 4000.0 4000.0 4000.0 4000.0 4000.0 4000.0 4000.0 4000.0 4000.0 4000.0 4000.0 4000.0 4000.0 4000.0 4000.0 4000.0 4000.0 4000.0 4000.0 4000.0 4000.0 4000.0 4000.0 4000.0 4000.0 4000.0 4000.0 4000.0 4000.0 4000.0 4000.0 4000.0 4000.0 4000.0 4000.0 4000.0 4000.0 4000.0 4000.0 4000.0 4000.0 4000.0 4000.0 4000.0 4000.0 4000.0 4000.0 4000.0 4000.0 4000.0 4000.0 4000.0 4000.0 4000.0 4000.0 4000.0 4000.0 4000.0 4000.0 4000.0 4000.0 4000.0 4000.0 4000.0 4000.0 4000.0 4000.0 4000.0 4000.0 4000.0 4000.0 4000.0 4000.0 4000.0 4000.0 4000.0 4000.0 4000.0 4000.0 4000.0 4000.0 4000.0 4000.0 4000.0 4000.0 4000.0 4000.0 4000.0 4000.0 4000.0 4000.0 4000.0 4000.0 4000.0 4000.0 4000.0 4000.0 4000.0 4000.0 4000.0 4000.0 4000.0 4000.0 4000.0 4000.0 4000.0 4000.0 4000.0 4000.0 4000.0 4000.0 4000.0 4000.0 4000.0 4000.0 4000.0 4000.0 4000.0 4000.0 4000.0 4000.0 4000.0 4000.0 4000.0 4000.0 4000.0 4000.0 4000.0 4000.0 4000.0 4000.0 4000.0 4000.0 4000.0 4000.0 4000.0 4000.0 4000.0 4000.0 4000.0 4000.0 4000.0 4000.0 4000.0 4000.0 4000.0 4000.0 4000.0 4000.0 4000.0 4000.0 4000.0 4000.0 4000.0 4000.0 4000.0 4000.0 4000.0 4000.0 4000.0 4000.0 4000.0 4000.0 4000.0 4000.0 4000.0 4000.0 4000.0 4000.0 4000.0 4000.0 4000.0 4000.0 4000.0 4000.0 4000.0 4000.0 4000.0 4000.0 4000.0 4000.0 4000.0 4000.0 4000.0 4000.0 4000.0 4000.0 4000.0 4000.0 4000.0 4000.0 4000.0 4000.0 4000.0 4000.0 4000.0 4000.0 4000.0 4000.0 4000.0 4000.0 4000.0 4000.0 4000.0 4000.0 4000.0 4000.0 4000.0 4000.0 4000.0 4000.0 4000.0 4000.0 4000.0 4000.0 4000.0 4000.0 4000.0 4000.0 4000.0 4000.0 4000.0 4000.0 4000.0 4000.0 4000.0 4000.0 4000.0 4000.0 4000.0 4000.0 4000.0 4000.0 4000.0 4000.0 4000.0 4000.0 4000.0 4000.0 4000.0 4000.0 4000.0 4000.0 4000.0 4000.0 4000.0 4000.0 4000.0 4000.0 4000.0 4000.0 4000.0 4000.0 4000.0 4000.0 4000.0 4000.0 4000.0 4000.0 4000.0 4000.0 4000.0 4000.0 4000.0 4000.0 4000.0 4000.0 4000.0 4000.0 4000.0 4000.0 4000.0 4000.0 4000.0 4000.0 4000.0 4000.0 4000.0 4000.0 4000.0 4000.0 4000.0 4000.0 4000.0 4000.0 4000.0 4000.0 4000.0 4000.0 4000.0 4000.0 4000.0 4000.0 4000.0 4000.0 4000.0 4000.0 4000.0 4000.0 4000.0 4000.0 4000.0 4000.0 4000.0 4000.0 4000.0 4000.0 4000.0 4000.0 4000.0 4000.0 4000.0 4000.0 4000.0 4000.0 4000.0 4000.0 4000.0 4000.0 4000.0 4000.0 4000.0 4000.0 4000.0 4000.0 4000.0 4000.0 4000.0 4000.0 4000.0 4000.0 4000.0 4000.0 4000.0 4000.0 4000.0 4000.0 4000.0 4000.0 4000.0 4000.0 4000.0 4000.0 4000.0 4000.0 4000.0 4000.0 4000.0 4000.0 4000.0 4000.0 4000.0 4000.0 4000.0 4000.0 4000.0 4000.0 4000.0 4000.0 4000.0 4000.0 4000.0 4000.0 4000.0 4000.0 4000.0 4000.0 4000.0 4000.0 4000.0 4000.0 4000.0 4000.0 4000.0 4000.0 4000.0 4000.0 4000.0 4000.0 4000.0 4000.0 4000.0 4000.0 4000.0 4000.0 4000.0 4000.0 4000.0 4000.0 4000.0 4000.0 4000.0 4000.0 4000.0 4000.0 4000.0 4000.0 4000.0 4000.0 4000.0 4000.0 4000.0 4000.0 4000.0 4000.0 4000.0 4000.0 4000.0 4000.0 4000.0 4000.0 4000.0 4000.0 4000.0 4000.0 4000.0 4000.0 4000.0 4000.0 4000.0 4000.0 4000.0 4000.0 4000.0 4000.0 4000.0 4000.0 4000.0 4000.0 4000.0 4000.0 4000.0 4000.0 4000.0 4000.0 4000.0 4000.0 4000.0 4000.0 4000.0 4000.0 4000.0 4000.0 4000.0 4000.0 4000.0 4000.0 4000.0 4000.0 4000.0 4000.0 4000.0 4000.0 4000.0 4000.0 4000.0 4000.0 4000.0 4000.0 4000.0 4000.0 4000.0 4000.0 4000.0 4000.0 4000.0 4000.0 4000.0 4000.0 4000.0 4000.0 4000.0 4000.0 4000.0 4000.0 4000.0 4000.0 4000.0 4000.0 4000.0 4000.0 4000.0 4000.0 4000.0 4000.0 4000.0 4000.0 4000.0 4000.0 4000.0 4000.0 4000.0 4000.0 4000.0 4000.0 4000.0 4000.0 4000.0 4000.0 4000.0 4000.0 4000.0 4000.0 4000.0 4000.0 4000.0 4000.0 4000.0 4000.0 4000.0 4000.0 4000.0 4000.0 4000.0 4000.0 4000.0 4000.0 4000.0 4000.0 4000.0 4000.0 4000.0 4000.0 4000.0 4000.0 4000.0 4000.0 4000.0 4000.0 4000.0 4000.0 4000.0 4000.0 4000.0 4000.0 4000.0 4000.0 4000.0 4000.0 4000.0 4000.0 4000.0 4000.0 4000.0 4000.0 4000.0 4000.0 4000.0 4000.0 4000.0 4000.0 4000.0 4000.0 4000.0 4000.0 4000.0 4000.0 4000.0 4000.0 4000.0 4000.0 4000.0 4000.0 4000.0 4000.0 4000.0 4000.0 4000.0 4000.0 4000.0 4000.0 4000.0 4000.0 4000.0 4000.0 4000.0 4000.0 4000.0 4000.0 4000.0 4000.0 4000.0 4000.0 4000.0 4000.0 4000.0 4000.0 4000.0 4000.0 4000.0 4000.0 4000.0 4000.0 4000.0 4000.0 4000.0 4000.0 4000.0 4000.0 4000.0 4000.0 4000.0 4000.0 4000.0 4000.0 4000.0 4000.0 4000.0 4000.0 4000.0 4000.0 4000.0 4000.0 4000.0 4000.0 4000.0 4000.0 4000.0 4000.0 4000.0 4000.0 4000.0 4000.0 4000.0 4000.0 4000.0 4000.0 4000.0 4000.0 4000.0 4000.0 4000.0 4000.0 4000.0 4000.0 4000.0 4000.0 4000.0 4000.0 4000.0 4000.0 4000.0 4000.0 4000.0 4000.0 4000.0 4000.0 4000.0 4000.0 4000.0 4000.0 4000.0 4000.0 4000.0 4000.0 4000.0 4000.0 4000.0 4000.0 4000.0 4000.0 4000.0 4000.0 4000.0 4000.0 4000.0 4000.0 4000.0 4000.0 4000.0 4000.0 4000.0 4000.0 4000.0 4000.0 4000.0 4000.0 4000.0 4000.0 4000.0 4000.0 4000.0 4000.0 4000.0 4000.0 4000.0 4000.0 4000.0 4000.0 4000.0 4000.0 4000.0 4000.0 4000.0 4000.0 4000.0 4000.0 4000.0 4000.0 4000.0 4000.0 4000.0 4000.0 4000.0 4000.0 4000.0 4000.0 4000.0 4000.0 4000.0 4000.0 4000.0 4000.0 4000.0 4000.0 4000.0 4000.0 4000.0 4000.0 4000.0 4000.0 4000.0 4000.0 4000.0 4000.0 4000.0 4000.0 4000.0 4000.0 4000.0 4000.0 4000.0 4000.0 4000.0 4000.0 4000.0 4000.0 4000.0 4000.0 4000.0 4000.0 4000.0 4000.0 4000.0 4000.0 4000.0 4000.0 4000.0 4000.0 4000.0 4000.0 4000.0 4000.0 4000.0 4000.0 4000.0 4000.0 4000.0 4000.0 4000.0 4000.0 4000.0 4000.0 4000.0 4000.0 4000.0 4000.0 4000.0 4000.0 4000.0 4000.0 4000.0 4000.0 4000.0 4000.0 4000.0 4000.0 4000.0 4000.0 4000.0 4000.0 4000.0 4000.0 4000.0 4000.0 4000.0 4000.0 4000.0 4000.0 4000.0 4000.0 4000.0 4000.0 4000.0 4000.0 4000.0 4000.0 4000.0 4000.0 4000.0 4000.0 4000.0 4000.0 4000.0 4000.0 4000.0 4000.0 4000.0 4000.0 4000.0 4000.0 4000.0 4000.0 4000.0 4000.0 4000.0 4000.0 4000.0 4000.0 4000.0 4000.0 4000.0 4000.0 4000.0 4000.0 4000.0 4000.0 4000.0 4000.0 4000.0 4000.0 4000.0 4000.0 4000.0 4000.0 4000.0 4000.0 4000.0 4000.0 4000.0 4000.0 4000.0 4000.0 4000.0 4000.0 4000.0 4000.0 4000.0 4000.0 4000.0 4000.0 4000.0 4000.0 4000.0 4000.0 4000.0 4000.0 4000.0 4000.0 4000.0 4000.0 4000.0 4000.0 4000.0 4000.0 4000.0 4000.0 4000.0 4000.0 4000.0 4000.0 4000.0 4000.0 4000.0 4000.0 4000.0 4000.0 4000.0 4000.0 4000.0 4000.0 4000.0 4000.0 4000.0 4000.0 4000.0 4000.0 4000.0 4000.0 4000.0 4000.0 4000.0 4000.0 4000.0 4000.0 4000.0 4000.0 4000.0 4000.0 4000.0 4000.0 4000.0 4000.0 4000.0 4000.0 4000.0 4000.0 4000.0 4000.0 4000.0 4000.0 4000.0 4000.0 4000.0 4000.0 4000.0 4000.0 4000.0 4000.0 4000.0 4000.0 4000.0 4000.0 4000.0 4000.0 4000.0 4000.0 4000.0 4000.0 4000.0 4000.0 4000.0 4000.0 4000.0 4000.0 4000.0 4000.0 4000.0 4000.0 4000.0 4000.0 4000.0 4000.0 4000.0 4000.0 4000.0 4000.0 4000.0 4000.0 4000.0 4000.0 4000.0 4000.0 4000.0 4000.0 4000.0 4000.0 4000.0 4000.0 4000.0 4000.0 4000.0 4000.0 4000.0 4000.0 4000.0 4000.0 4000.0 4000.0 4000.0 4000.0 4000.0 4000.0 4000.0 4000.0 4000.0 4000.0 4000.0 4000.0 4000.0 4000.0 4000.0 4000.0 4000.0 4000.0 4000.0 4000.0 4000.0 4000.0 4000.0 4000.0 4000.0 4000.0 4000.0 4000.0 4000.0 4000.0 4000.0 4000.0 4000.0 4000.0 4000.0 4000.0 4000.0 4000.0 4000.0 4000.0 4000.0 4000.0 4000.0 4000.0 4000.0 4000.0 4000.0 4000.0 4000.0 4000.0 4000.0 4000.0 4000.0 4000.0 4000.0 4000.0 4000.0 4000.0 4000.0 4000.0 4000.0 4000.0 4000.0 4000.0 4000.0 4000.0 4000.0 4000.0 4000.0 4000.0 4000.0 4000.0 4000.0 4000.0 4000.0 4000.0 4000.0 4000.0 4000.0 4000.0 4000.0 4000.0 4000.0 4000.0 4000.0 4000.0 4000.0 4000.0 4000.0 4000.0 4000.0 4000.0 4000.0 4000.0 4000.0 4000.0 4000.0 4000.0 4000.0 4000.0 4000.0 4000.0 4000.0 4000.0 4000.0 4000.0 4000.0 4000.0 4000.0 4000.0 4000.0 4000.0 4000.0 4000.0 4000.0 4000.0 4000.0 4000.0 4000.0 4000.0 4000.0 4000.0 4000.0 4000.0 4000.0 4000.0 4000.0 4000.0 4000.0 4000.0 4000.0 4000.0 4000.0 4000.0 4000.0 4000.0 4000.0 4000.0 4000.0 4000.0 4000.0 4000.0 4000.0 4000.0 4000.0 4000.0 4000.0 4000.0 4000.0 4000.0 4000.0 4000.0 4000.0 4000.0 4000.0 4000.0 4000.0 4000.0 4000.0 4000.0 4000.0 4000.0 4000.0 4000.0 4000.0 4000.0 4000.0 4000.0 4000.0 4000.0 4000.0 4000.0 4000.0 4000.0 4000.0 4000.0 4000.0 4000.0 4000.0 4000.0 4000.0 4000.0 4000.0 4000.0 4000.0 4000.0 4000.0 4000.0 4000.0 4000.0 4000.0 4000.0 4000.0 4000.0 4000.0 4000.0 4000.0 4000.0 4000.0 4000.0 4000.0 4000.0 4000.0 4000.0 4000.0 4000.0 4000.0 4000.0 4000.0 4000.0 4000.0 4000.0 4000.0 4000.0 4000.0 4000.0 4000.0 4000.0 4000.0 4000.0 4000.0 4000.0 4000.0 4000.0 4000.0 4000.0 4000.0 4000.0 4000.0 4000.0 4000.0 4000.0 4000.0 4000.0 4000.0 4000.0 4000.0 4000.0 4000.0 4000.0 4000.0 4000.0 4000.0 4000.0 4000.0 4000.0 4000.0 4000.0 4000.0 4000.0 4000.0 4000.0 4000.0 4000.0 4000.0 4000.0 4000.0 4000.0 4000.0 4000.0 4000.0 4000.0 4000.0 4000.0 4000.0 4000.0 4000.0 4000.0 4000.0 4000.0 4000.0 4000.0 4000.0 4000.0 4000.0 4000.0 4000.0 4000.0 4000.0 4000.0 4000.0 4000.0 4000.0 4000.0 4000.0 4000.0 4000.0 4000.0 4000.0 4000.0 4000.0 4000.0 4000.0 4000.0 4000.0 4000.0 4000.0 4000.0 SCALARS Mass float 1
LOOKUP_TABLE default
11309700000.0 11309700000.0 11309700000.0 11309700000.0 11309700000.0 11309700000.0 11309700000.0 11309700000.0 11309700000.0 11309700000.0 11309700000.0 11309700000.0 11309700000.0 11309700000.0 11309700000.0 11309700000.0 11309700000.0 11309700000.0 11309700000.0 11309700000.0 11309700000.0 11309700000.0 11309700000.0 11309700000.0 11309700000.0 11309700000.0 11309700000.0 11309700000.0 11309700000.0 11309700000.0 11309700000.0 11309700000.0 11309700000.0 11309700000.0 11309700000.0 11309700000.0 11309700000.0 11309700000.0 11309700000.0 11309700000.0 11309700000.0 11309700000.0 11309700000.0 11309700000.0 11309700000.0 11309700000.0 11309700000.0 11309700000.0 11309700000.0 11309700000.0 11309700000.0 11309700000.0 11309700000.0 11309700000.0 11309700000.0 11309700000.0 11309700000.0 11309700000.0 11309700000.0 11309700000.0 11309700000.0 11309700000.0 11309700000.0 11309700000.0 11309700000.0 11309700000.0 11309700000.0 11309700000.0 11309700000.0 11309700000.0 11309700000.0 11309700000.0 11309700000.0 11309700000.0 11309700000.0 11309700000.0 11309700000.0 11309700000.0 11309700000.0 11309700000.0 11309700000.0 11309700000.0 11309700000.0 11309700000.0 11309700000.0 11309700000.0 11309700000.0 11309700000.0 11309700000.0 11309700000.0 11309700000.0 11309700000.0 11309700000.0 11309700000.0 11309700000.0 11309700000.0 11309700000.0 11309700000.0 11309700000.0 11309700000.0 11309700000.0 11309700000.0 11309700000.0 11309700000.0 11309700000.0 11309700000.0 11309700000.0 11309700000.0 11309700000.0 11309700000.0 11309700000.0 11309700000.0 11309700000.0 11309700000.0 11309700000.0 11309700000.0 11309700000.0 11309700000.0 11309700000.0 11309700000.0 11309700000.0 11309700000.0 11309700000.0 11309700000.0 11309700000.0 11309700000.0 11309700000.0 11309700000.0 11309700000.0 11309700000.0 11309700000.0 11309700000.0 11309700000.0 11309700000.0 11309700000.0 11309700000.0 11309700000.0 11309700000.0 11309700000.0 11309700000.0 11309700000.0 11309700000.0 11309700000.0 11309700000.0 11309700000.0 11309700000.0 11309700000.0 11309700000.0 11309700000.0 11309700000.0 11309700000.0 11309700000.0 11309700000.0 11309700000.0 11309700000.0 11309700000.0 11309700000.0 11309700000.0 11309700000.0 11309700000.0 11309700000.0 11309700000.0 11309700000.0 11309700000.0 11309700000.0 11309700000.0 11309700000.0 11309700000.0 11309700000.0 11309700000.0 11309700000.0 11309700000.0 11309700000.0 11309700000.0 11309700000.0 11309700000.0 11309700000.0 11309700000.0 11309700000.0 11309700000.0 11309700000.0 11309700000.0 11309700000.0 11309700000.0 11309700000.0 11309700000.0 11309700000.0 11309700000.0 11309700000.0 11309700000.0 11309700000.0 11309700000.0 11309700000.0 11309700000.0 11309700000.0 11309700000.0 11309700000.0 11309700000.0 11309700000.0 11309700000.0 11309700000.0 11309700000.0 11309700000.0 11309700000.0 11309700000.0 11309700000.0 11309700000.0 11309700000.0 11309700000.0 11309700000.0 11309700000.0 11309700000.0 11309700000.0 11309700000.0 11309700000.0 11309700000.0 11309700000.0 11309700000.0 11309700000.0 11309700000.0 11309700000.0 11309700000.0 11309700000.0 11309700000.0 11309700000.0 11309700000.0 11309700000.0 11309700000.0 11309700000.0 11309700000.0 11309700000.0 11309700000.0 11309700000.0 11309700000.0 11309700000.0 11309700000.0 11309700000.0 11309700000.0 11309700000.0 11309700000.0 11309700000.0 11309700000.0 11309700000.0 11309700000.0 11309700000.0 11309700000.0 11309700000.0 11309700000.0 11309700000.0 11309700000.0 11309700000.0 11309700000.0 11309700000.0 11309700000.0 11309700000.0 11309700000.0 11309700000.0 11309700000.0 11309700000.0 11309700000.0 11309700000.0 11309700000.0 11309700000.0 11309700000.0 11309700000.0 11309700000.0 11309700000.0 11309700000.0 11309700000.0 11309700000.0 11309700000.0 11309700000.0 11309700000.0 11309700000.0 11309700000.0 11309700000.0 11309700000.0 11309700000.0 11309700000.0 11309700000.0 11309700000.0 11309700000.0 11309700000.0 11309700000.0 11309700000.0 11309700000.0 11309700000.0 11309700000.0 11309700000.0 11309700000.0 11309700000.0 11309700000.0 11309700000.0 11309700000.0 11309700000.0 11309700000.0 11309700000.0 11309700000.0 11309700000.0 11309700000.0 11309700000.0 11309700000.0 11309700000.0 11309700000.0 11309700000.0 11309700000.0 11309700000.0 11309700000.0 11309700000.0 11309700000.0 11309700000.0 11309700000.0 11309700000.0 11309700000.0 11309700000.0 11309700000.0 11309700000.0 11309700000.0 11309700000.0 11309700000.0 11309700000.0 11309700000.0 11309700000.0 11309700000.0 11309700000.0 11309700000.0 11309700000.0 11309700000.0 11309700000.0 11309700000.0 11309700000.0 11309700000.0 11309700000.0 11309700000.0 11309700000.0 11309700000.0 11309700000.0 11309700000.0 11309700000.0 11309700000.0 11309700000.0 11309700000.0 11309700000.0 11309700000.0 11309700000.0 11309700000.0 11309700000.0 11309700000.0 11309700000.0 11309700000.0 11309700000.0 11309700000.0 11309700000.0 11309700000.0 11309700000.0 11309700000.0 11309700000.0 11309700000.0 11309700000.0 11309700000.0 11309700000.0 11309700000.0 11309700000.0 11309700000.0 11309700000.0 11309700000.0 11309700000.0 11309700000.0 11309700000.0 11309700000.0 11309700000.0 11309700000.0 11309700000.0 11309700000.0 11309700000.0 11309700000.0 11309700000.0 11309700000.0 11309700000.0 11309700000.0 11309700000.0 11309700000.0 11309700000.0 11309700000.0 11309700000.0 11309700000.0 11309700000.0 11309700000.0 11309700000.0 11309700000.0 11309700000.0 11309700000.0 11309700000.0 11309700000.0 11309700000.0 11309700000.0 11309700000.0 11309700000.0 11309700000.0 11309700000.0 11309700000.0 11309700000.0 11309700000.0 11309700000.0 11309700000.0 11309700000.0 11309700000.0 11309700000.0 11309700000.0 11309700000.0 11309700000.0 11309700000.0 11309700000.0 11309700000.0 11309700000.0 11309700000.0 11309700000.0 11309700000.0 11309700000.0 11309700000.0 11309700000.0 11309700000.0 11309700000.0 11309700000.0 11309700000.0 11309700000.0 11309700000.0 11309700000.0 11309700000.0 11309700000.0 11309700000.0 11309700000.0 11309700000.0 11309700000.0 11309700000.0 11309700000.0 11309700000.0 11309700000.0 11309700000.0 11309700000.0 11309700000.0 11309700000.0 11309700000.0 11309700000.0 11309700000.0 11309700000.0 11309700000.0 11309700000.0 11309700000.0 11309700000.0 11309700000.0 11309700000.0 11309700000.0 11309700000.0 11309700000.0 11309700000.0 11309700000.0 11309700000.0 11309700000.0 11309700000.0 11309700000.0 11309700000.0 11309700000.0 11309700000.0 11309700000.0 11309700000.0 11309700000.0 11309700000.0 11309700000.0 11309700000.0 11309700000.0 11309700000.0 11309700000.0 11309700000.0 11309700000.0 11309700000.0 11309700000.0 11309700000.0 11309700000.0 11309700000.0 11309700000.0 11309700000.0 11309700000.0 11309700000.0 11309700000.0 11309700000.0 11309700000.0 11309700000.0 11309700000.0 11309700000.0 11309700000.0 11309700000.0 11309700000.0 11309700000.0 11309700000.0 11309700000.0 11309700000.0 11309700000.0 11309700000.0 11309700000.0 11309700000.0 11309700000.0 11309700000.0 11309700000.0 11309700000.0 11309700000.0 11309700000.0 11309700000.0 11309700000.0 11309700000.0 11309700000.0 11309700000.0 11309700000.0 11309700000.0 11309700000.0 11309700000.0 11309700000.0 11309700000.0 11309700000.0 11309700000.0 11309700000.0 11309700000.0 11309700000.0 11309700000.0 11309700000.0 11309700000.0 11309700000.0 11309700000.0 11309700000.0 11309700000.0 11309700000.0 11309700000.0 11309700000.0 11309700000.0 11309700000.0 11309700000.0 11309700000.0 11309700000.0 11309700000.0 11309700000.0 11309700000.0 11309700000.0 11309700000.0 11309700000.0 11309700000.0 11309700000.0 11309700000.0 11309700000.0 11309700000.0 11309700000.0 11309700000.0 11309700000.0 11309700000.0 11309700000.0 11309700000.0 11309700000.0 11309700000.0 11309700000.0 11309700000.0 11309700000.0 11309700000.0 11309700000.0 11309700000.0 11309700000.0 11309700000.0 11309700000.0 11309700000.0 11309700000.0 11309700000.0 11309700000.0 11309700000.0 11309700000.0 11309700000.0 11309700000.0 11309700000.0 11309700000.0 11309700000.0 11309700000.0 11309700000.0 11309700000.0 11309700000.0 11309700000.0 11309700000.0 11309700000.0 11309700000.0 11309700000.0 11309700000.0 11309700000.0 11309700000.0 11309700000.0 11309700000.0 11309700000.0 11309700000.0 11309700000.0 11309700000.0 11309700000.0 11309700000.0 11309700000.0 11309700000.0 11309700000.0 11309700000.0 11309700000.0 11309700000.0 11309700000.0 11309700000.0 11309700000.0 11309700000.0 11309700000.0 11309700000.0 11309700000.0 11309700000.0 11309700000.0 11309700000.0 11309700000.0 11309700000.0 11309700000.0 11309700000.0 11309700000.0 11309700000.0 11309700000.0 11309700000.0 11309700000.0 11309700000.0 11309700000.0 11309700000.0 11309700000.0 11309700000.0 11309700000.0 11309700000.0 11309700000.0 11309700000.0 11309700000.0 11309700000.0 11309700000.0 11309700000.0 11309700000.0 11309700000.0 11309700000.0 11309700000.0 11309700000.0 11309700000.0 11309700000.0 11309700000.0 11309700000.0 11309700000.0 11309700000.0 11309700000.0 11309700000.0 11309700000.0 11309700000.0 11309700000.0 11309700000.0 11309700000.0 11309700000.0 11309700000.0 11309700000.0 11309700000.0 11309700000.0 11309700000.0 11309700000.0 11309700000.0 11309700000.0 11309700000.0 11309700000.0 11309700000.0 11309700000.0 11309700000.0 11309700000.0 11309700000.0 11309700000.0 11309700000.0 11309700000.0 11309700000.0 11309700000.0 11309700000.0 11309700000.0 11309700000.0 11309700000.0 11309700000.0 11309700000.0 11309700000.0 11309700000.0 11309700000.0 11309700000.0 11309700000.0 11309700000.0 11309700000.0 11309700000.0 11309700000.0 11309700000.0 11309700000.0 11309700000.0 11309700000.0 11309700000.0 11309700000.0 11309700000.0 11309700000.0 11309700000.0 11309700000.0 11309700000.0 11309700000.0 11309700000.0 11309700000.0 11309700000.0 11309700000.0 11309700000.0 11309700000.0 11309700000.0 11309700000.0 11309700000.0 11309700000.0 11309700000.0 11309700000.0 11309700000.0 11309700000.0 11309700000.0 11309700000.0 11309700000.0 11309700000.0 11309700000.0 11309700000.0 11309700000.0 11309700000.0 11309700000.0 11309700000.0 11309700000.0 11309700000.0 11309700000.0 11309700000.0 11309700000.0 11309700000.0 11309700000.0 11309700000.0 11309700000.0 11309700000.0 11309700000.0 11309700000.0 11309700000.0 11309700000.0 11309700000.0 11309700000.0 11309700000.0 11309700000.0 11309700000.0 11309700000.0 11309700000.0 11309700000.0 11309700000.0 11309700000.0 11309700000.0 11309700000.0 11309700000.0 11309700000.0 11309700000.0 11309700000.0 11309700000.0 11309700000.0 11309700000.0 11309700000.0 11309700000.0 11309700000.0 11309700000.0 11309700000.0 11309700000.0 11309700000.0 11309700000.0 11309700000.0 11309700000.0 11309700000.0 11309700000.0 11309700000.0 11309700000.0 11309700000.0 11309700000.0 11309700000.0 11309700000.0 11309700000.0 11309700000.0 11309700000.0 11309700000.0 11309700000.0 11309700000.0 11309700000.0 11309700000.0 11309700000.0 11309700000.0 11309700000.0 11309700000.0 11309700000.0 11309700000.0 11309700000.0 11309700000.0 11309700000.0 11309700000.0 11309700000.0 11309700000.0 11309700000.0 11309700000.0 11309700000.0 11309700000.0 11309700000.0 11309700000.0 11309700000.0 11309700000.0 11309700000.0 11309700000.0 11309700000.0 11309700000.0 11309700000.0 11309700000.0 11309700000.0 11309700000.0 11309700000.0 11309700000.0 11309700000.0 11309700000.0 11309700000.0 11309700000.0 11309700000.0 11309700000.0 11309700000.0 11309700000.0 11309700000.0 11309700000.0 11309700000.0 11309700000.0 11309700000.0 11309700000.0 11309700000.0 11309700000.0 11309700000.0 11309700000.0 11309700000.0 11309700000.0 11309700000.0 11309700000.0 11309700000.0 11309700000.0 11309700000.0 11309700000.0 11309700000.0 11309700000.0 11309700000.0 11309700000.0 11309700000.0 11309700000.0 11309700000.0 11309700000.0 11309700000.0 11309700000.0 11309700000.0 11309700000.0 11309700000.0 11309700000.0 11309700000.0 11309700000.0 11309700000.0 11309700000.0 11309700000.0 11309700000.0 11309700000.0 11309700000.0 11309700000.0 11309700000.0 11309700000.0 11309700000.0 11309700000.0 11309700000.0 11309700000.0 11309700000.0 11309700000.0 11309700000.0 11309700000.0 11309700000.0 11309700000.0 11309700000.0 11309700000.0 11309700000.0 11309700000.0 11309700000.0 11309700000.0 11309700000.0 11309700000.0 11309700000.0 11309700000.0 11309700000.0 11309700000.0 11309700000.0 11309700000.0 11309700000.0 11309700000.0 11309700000.0 11309700000.0 11309700000.0 11309700000.0 11309700000.0 11309700000.0 11309700000.0 11309700000.0 11309700000.0 11309700000.0 11309700000.0 11309700000.0 11309700000.0 11309700000.0 11309700000.0 11309700000.0 11309700000.0 11309700000.0 11309700000.0 11309700000.0 11309700000.0 11309700000.0 11309700000.0 11309700000.0 11309700000.0 11309700000.0 11309700000.0 11309700000.0 11309700000.0 11309700000.0 11309700000.0 11309700000.0 11309700000.0 11309700000.0 11309700000.0 11309700000.0 11309700000.0 11309700000.0 11309700000.0 11309700000.0 11309700000.0 11309700000.0 11309700000.0 11309700000.0 11309700000.0 11309700000.0 11309700000.0 11309700000.0 11309700000.0 11309700000.0 11309700000.0 11309700000.0 11309700000.0 11309700000.0 11309700000.0 11309700000.0 11309700000.0 11309700000.0 11309700000.0 11309700000.0 11309700000.0 11309700000.0 11309700000.0 11309700000.0 11309700000.0 11309700000.0 11309700000.0 11309700000.0 11309700000.0 11309700000.0 11309700000.0 11309700000.0 11309700000.0 11309700000.0 11309700000.0 11309700000.0 11309700000.0 11309700000.0 11309700000.0 11309700000.0 11309700000.0 11309700000.0 11309700000.0 11309700000.0 11309700000.0 11309700000.0 11309700000.0 11309700000.0 11309700000.0 11309700000.0 11309700000.0 11309700000.0 11309700000.0 11309700000.0 11309700000.0 11309700000.0 11309700000.0 11309700000.0 11309700000.0 11309700000.0 11309700000.0 11309700000.0 11309700000.0 11309700000.0 11309700000.0 11309700000.0 11309700000.0 11309700000.0 11309700000.0 11309700000.0 11309700000.0 11309700000.0 11309700000.0 11309700000.0 11309700000.0 11309700000.0 11309700000.0 11309700000.0 11309700000.0 11309700000.0 11309700000.0 11309700000.0 11309700000.0 11309700000.0 11309700000.0 11309700000.0 11309700000.0 11309700000.0 11309700000.0 11309700000.0 11309700000.0 11309700000.0 11309700000.0 11309700000.0 11309700000.0 11309700000.0 11309700000.0 11309700000.0 11309700000.0 11309700000.0 11309700000.0 11309700000.0 11309700000.0 11309700000.0 11309700000.0 11309700000.0 11309700000.0 11309700000.0 11309700000.0 11309700000.0 11309700000.0 11309700000.0 11309700000.0 11309700000.0 11309700000.0 11309700000.0 11309700000.0 11309700000.0 11309700000.0 11309700000.0 11309700000.0 11309700000.0 11309700000.0 11309700000.0 11309700000.0 11309700000.0 11309700000.0 11309700000.0 11309700000.0 11309700000.0 11309700000.0 11309700000.0 11309700000.0 11309700000.0 11309700000.0 11309700000.0 11309700000.0 11309700000.0 11309700000.0 11309700000.0 11309700000.0 11309700000.0 11309700000.0 11309700000.0 11309700000.0 11309700000.0 11309700000.0 11309700000.0 11309700000.0 11309700000.0 11309700000.0 11309700000.0 11309700000.0 11309700000.0 11309700000.0 11309700000.0 11309700000.0 11309700000.0 11309700000.0 11309700000.0 11309700000.0 11309700000.0 11309700000.0 11309700000.0 11309700000.0 11309700000.0 11309700000.0 11309700000.0 11309700000.0 11309700000.0 11309700000.0 11309700000.0 11309700000.0 11309700000.0 11309700000.0 11309700000.0 11309700000.0 11309700000.0 11309700000.0 11309700000.0 11309700000.0 11309700000.0 11309700000.0 11309700000.0 11309700000.0 11309700000.0 11309700000.0 11309700000.0 11309700000.0 11309700000.0 11309700000.0 11309700000.0 11309700000.0 11309700000.0 11309700000.0 11309700000.0 11309700000.0 11309700000.0 11309700000.0 11309700000.0 11309700000.0 11309700000.0 11309700000.0 11309700000.0 11309700000.0 11309700000.0 11309700000.0 11309700000.0 11309700000.0 11309700000.0 11309700000.0 11309700000.0 11309700000.0 11309700000.0 11309700000.0 11309700000.0 11309700000.0 11309700000.0 11309700000.0 11309700000.0 11309700000.0 11309700000.0 11309700000.0 11309700000.0 11309700000.0 11309700000.0 11309700000.0 11309700000.0 11309700000.0 11309700000.0 11309700000.0 11309700000.0 11309700000.0 11309700000.0 11309700000.0 11309700000.0 11309700000.0 11309700000.0 11309700000.0 11309700000.0 11309700000.0 11309700000.0 11309700000.0 11309700000.0 11309700000.0 11309700000.0 11309700000.0 11309700000.0 11309700000.0 11309700000.0 11309700000.0 11309700000.0 11309700000.0 11309700000.0 11309700000.0 11309700000.0 11309700000.0 11309700000.0 11309700000.0 11309700000.0 11309700000.0 11309700000.0 11309700000.0 11309700000.0 11309700000.0 11309700000.0 11309700000.0 11309700000.0 11309700000.0 11309700000.0 11309700000.0 11309700000.0 11309700000.0 11309700000.0 11309700000.0 11309700000.0 11309700000.0 11309700000.0 11309700000.0 11309700000.0 11309700000.0 11309700000.0 11309700000.0 11309700000.0 11309700000.0 11309700000.0 11309700000.0 11309700000.0 11309700000.0 11309700000.0 11309700000.0 11309700000.0 11309700000.0 11309700000.0 11309700000.0 11309700000.0 11309700000.0 11309700000.0 11309700000.0 11309700000.0 11309700000.0 11309700000.0 11309700000.0 11309700000.0 11309700000.0 11309700000.0 11309700000.0 11309700000.0 11309700000.0 11309700000.0 11309700000.0 11309700000.0 11309700000.0 11309700000.0 11309700000.0 11309700000.0 11309700000.0 11309700000.0 11309700000.0 11309700000.0 11309700000.0 11309700000.0 11309700000.0 11309700000.0 11309700000.0 11309700000.0 11309700000.0 11309700000.0 11309700000.0 11309700000.0 11309700000.0 11309700000.0 11309700000.0 11309700000.0 11309700000.0 11309700000.0 11309700000.0 11309700000.0 11309700000.0 11309700000.0 11309700000.0 11309700000.0 11309700000.0 11309700000.0 11309700000.0 11309700000.0 11309700000.0 11309700000.0 11309700000.0 11309700000.0 11309700000.0 11309700000.0 11309700000.0 11309700000.0 11309700000.0 11309700000.0 11309700000.0 11309700000.0 11309700000.0 11309700000.0 11309700000.0 11309700000.0 11309700000.0 11309700000.0 11309700000.0 11309700000.0 11309700000.0 11309700000.0 11309700000.0 11309700000.0 11309700000.0 11309700000.0 11309700000.0 11309700000.0 11309700000.0 11309700000.0 11309700000.0 11309700000.0 11309700000.0 11309700000.0 11309700000.0 11309700000.0 11309700000.0 11309700000.0 11309700000.0 11309700000.0 11309700000.0 11309700000.0 11309700000.0 11309700000.0 11309700000.0 11309700000.0 11309700000.0 11309700000.0 11309700000.0 11309700000.0 11309700000.0 11309700000.0 11309700000.0 11309700000.0 11309700000.0 11309700000.0 11309700000.0 11309700000.0 11309700000.0 11309700000.0 11309700000.0 11309700000.0 11309700000.0 11309700000.0 11309700000.0 11309700000.0 11309700000.0 11309700000.0 11309700000.0 11309700000.0 11309700000.0 11309700000.0 11309700000.0 11309700000.0 11309700000.0 11309700000.0 11309700000.0 11309700000.0 11309700000.0 11309700000.0 11309700000.0 11309700000.0 11309700000.0 11309700000.0 11309700000.0 11309700000.0 11309700000.0 11309700000.0 11309700000.0 11309700000.0 11309700000.0 11309700000.0 11309700000.0 11309700000.0 11309700000.0 11309700000.0 11309700000.0 11309700000.0 11309700000.0 11309700000.0 11309700000.0 11309700000.0 11309700000.0 11309700000.0 11309700000.0 11309700000.0 11309700000.0 11309700000.0 11309700000.0 11309700000.0 11309700000.0 11309700000.0 11309700000.0 11309700000.0 11309700000.0 11309700000.0 11309700000.0 11309700000.0 11309700000.0 11309700000.0 11309700000.0 11309700000.0 11309700000.0 11309700000.0 11309700000.0 11309700000.0 11309700000.0 11309700000.0 11309700000.0 11309700000.0 11309700000.0 11309700000.0 11309700000.0 11309700000.0 11309700000.0 11309700000.0 11309700000.0 11309700000.0 11309700000.0 11309700000.0 11309700000.0 11309700000.0 11309700000.0 11309700000.0 11309700000.0 11309700000.0 11309700000.0 11309700000.0 11309700000.0 11309700000.0 11309700000.0 11309700000.0 11309700000.0 11309700000.0 11309700000.0 11309700000.0 11309700000.0 11309700000.0 11309700000.0 11309700000.0 11309700000.0 11309700000.0 11309700000.0 11309700000.0 11309700000.0 11309700000.0 11309700000.0 11309700000.0 11309700000.0 11309700000.0 11309700000.0 11309700000.0 11309700000.0 11309700000.0 11309700000.0 11309700000.0 11309700000.0 11309700000.0 11309700000.0 11309700000.0 11309700000.0 11309700000.0 11309700000.0 11309700000.0 11309700000.0 11309700000.0 11309700000.0 11309700000.0 11309700000.0 11309700000.0 11309700000.0 11309700000.0 11309700000.0 11309700000.0 11309700000.0 11309700000.0 11309700000.0 11309700000.0 11309700000.0 11309700000.0 11309700000.0 11309700000.0 11309700000.0 11309700000.0 11309700000.0 11309700000.0 11309700000.0 11309700000.0 11309700000.0 11309700000.0 11309700000.0 11309700000.0 11309700000.0 11309700000.0 11309700000.0 11309700000.0 11309700000.0 11309700000.0 11309700000.0 11309700000.0 11309700000.0 11309700000.0 11309700000.0 11309700000.0 11309700000.0 11309700000.0 11309700000.0 11309700000.0 11309700000.0 11309700000.0 11309700000.0 11309700000.0 11309700000.0 11309700000.0 11309700000.0 11309700000.0 11309700000.0 11309700000.0 11309700000.0 11309700000.0 11309700000.0 11309700000.0 11309700000.0 11309700000.0 11309700000.0 11309700000.0 11309700000.0 11309700000.0 11309700000.0 11309700000.0 11309700000.0 11309700000.0 11309700000.0 11309700000.0 11309700000.0 11309700000.0 11309700000.0 11309700000.0 11309700000.0 11309700000.0 11309700000.0 11309700000.0 11309700000.0 11309700000.0 11309700000.0 11309700000.0 11309700000.0 11309700000.0 11309700000.0 11309700000.0 11309700000.0 11309700000.0 11309700000.0 11309700000.0 11309700000.0 11309700000.0 11309700000.0 11309700000.0 11309700000.0 11309700000.0 11309700000.0 11309700000.0 11309700000.0 11309700000.0 11309700000.0 11309700000.0 11309700000.0 11309700000.0 11309700000.0 11309700000.0 11309700000.0 11309700000.0 11309700000.0 11309700000.0 11309700000.0 11309700000.0 11309700000.0 11309700000.0 11309700000.0 11309700000.0 11309700000.0 11309700000.0 11309700000.0 11309700000.0 11309700000.0 11309700000.0 11309700000.0 11309700000.0 11309700000.0 11309700000.0 11309700000.0 11309700000.0 11309700000.0 11309700000.0 11309700000.0 11309700000.0 11309700000.0 11309700000.0 11309700000.0 11309700000.0 11309700000.0 11309700000.0 11309700000.0 11309700000.0 11309700000.0 11309700000.0 11309700000.0 11309700000.0 11309700000.0 11309700000.0 11309700000.0 11309700000.0 11309700000.0 11309700000.0 11309700000.0 11309700000.0 11309700000.0 11309700000.0 11309700000.0 11309700000.0 11309700000.0 11309700000.0 11309700000.0 11309700000.0 11309700000.0 11309700000.0 11309700000.0 11309700000.0 11309700000.0 11309700000.0 11309700000.0 11309700000.0 11309700000.0 11309700000.0 11309700000.0 11309700000.0 11309700000.0 11309700000.0 11309700000.0 11309700000.0 11309700000.0 11309700000.0 11309700000.0 11309700000.0 11309700000.0 11309700000.0 11309700000.0 11309700000.0 11309700000.0 11309700000.0 11309700000.0 11309700000.0 11309700000.0 11309700000.0 11309700000.0 11309700000.0 11309700000.0 11309700000.0 11309700000.0 11309700000.0 11309700000.0 11309700000.0 11309700000.0 11309700000.0 11309700000.0 11309700000.0 11309700000.0 11309700000.0 11309700000.0 11309700000.0 11309700000.0 11309700000.0 11309700000.0 11309700000.0 11309700000.0 11309700000.0 11309700000.0 11309700000.0 11309700000.0 11309700000.0 11309700000.0 11309700000.0 11309700000.0 11309700000.0 11309700000.0 11309700000.0 11309700000.0 11309700000.0 11309700000.0 11309700000.0 11309700000.0 11309700000.0 11309700000.0 11309700000.0 11309700000.0 11309700000.0 11309700000.0 11309700000.0 11309700000.0 11309700000.0 11309700000.0 11309700000.0 11309700000.0 11309700000.0 11309700000.0 11309700000.0 11309700000.0 11309700000.0 11309700000.0 11309700000.0 11309700000.0 11309700000.0 11309700000.0 11309700000.0 11309700000.0 11309700000.0 11309700000.0 11309700000.0 11309700000.0 11309700000.0 11309700000.0 11309700000.0 11309700000.0 11309700000.0 11309700000.0 11309700000.0 11309700000.0 11309700000.0 11309700000.0 11309700000.0 11309700000.0 11309700000.0 11309700000.0 11309700000.0 11309700000.0 11309700000.0 11309700000.0 11309700000.0 11309700000.0 11309700000.0 11309700000.0 11309700000.0 11309700000.0 11309700000.0 11309700000.0 11309700000.0 11309700000.0 11309700000.0 11309700000.0 11309700000.0 11309700000.0 11309700000.0 11309700000.0 11309700000.0 11309700000.0 11309700000.0 11309700000.0 11309700000.0 11309700000.0 11309700000.0 11309700000.0 11309700000.0 11309700000.0 11309700000.0 11309700000.0 11309700000.0 11309700000.0 11309700000.0 11309700000.0 11309700000.0 11309700000.0 11309700000.0 11309700000.0 11309700000.0 11309700000.0 11309700000.0 11309700000.0 11309700000.0 11309700000.0 11309700000.0 11309700000.0 11309700000.0 11309700000.0 11309700000.0 11309700000.0 11309700000.0 11309700000.0 11309700000.0 11309700000.0 11309700000.0 11309700000.0 11309700000.0 11309700000.0 11309700000.0 11309700000.0 11309700000.0 11309700000.0 11309700000.0 11309700000.0 11309700000.0 11309700000.0 11309700000.0 11309700000.0 11309700000.0 11309700000.0 11309700000.0 11309700000.0 11309700000.0 11309700000.0 11309700000.0 11309700000.0 11309700000.0 11309700000.0 11309700000.0 11309700000.0 11309700000.0 11309700000.0 11309700000.0 11309700000.0 11309700000.0 11309700000.0 11309700000.0 11309700000.0 11309700000.0 11309700000.0 11309700000.0 11309700000.0 11309700000.0 11309700000.0 11309700000.0 11309700000.0 11309700000.0 11309700000.0 11309700000.0 11309700000.0 11309700000.0 11309700000.0 11309700000.0 11309700000.0 11309700000.0 11309700000.0 11309700000.0 11309700000.0 11309700000.0 11309700000.0 11309700000.0 11309700000.0 11309700000.0 11309700000.0 11309700000.0 11309700000.0 11309700000.0 11309700000.0 11309700000.0 11309700000.0 11309700000.0 11309700000.0 11309700000.0 11309700000.0 11309700000.0 11309700000.0 11309700000.0 11309700000.0 11309700000.0 11309700000.0 11309700000.0 11309700000.0 11309700000.0 11309700000.0 11309700000.0 11309700000.0 11309700000.0 11309700000.0 11309700000.0 11309700000.0 11309700000.0 11309700000.0 11309700000.0 11309700000.0 11309700000.0 11309700000.0 11309700000.0 11309700000.0 11309700000.0 11309700000.0 11309700000.0 11309700000.0 11309700000.0 11309700000.0 11309700000.0 11309700000.0 11309700000.0 11309700000.0 11309700000.0 11309700000.0 11309700000.0 11309700000.0 11309700000.0 11309700000.0 11309700000.0 11309700000.0 11309700000.0 11309700000.0 11309700000.0 11309700000.0 11309700000.0 11309700000.0 11309700000.0 11309700000.0 11309700000.0 11309700000.0 11309700000.0 11309700000.0 11309700000.0 11309700000.0 11309700000.0 11309700000.0 11309700000.0 11309700000.0 11309700000.0 11309700000.0 11309700000.0 11309700000.0 11309700000.0 11309700000.0 11309700000.0 11309700000.0 11309700000.0 11309700000.0 11309700000.0 11309700000.0 11309700000.0 11309700000.0 11309700000.0 11309700000.0 11309700000.0 11309700000.0 11309700000.0 11309700000.0 11309700000.0 11309700000.0 11309700000.0 11309700000.0 11309700000.0 11309700000.0 11309700000.0 11309700000.0 11309700000.0 11309700000.0 11309700000.0 11309700000.0 11309700000.0 11309700000.0 11309700000.0 11309700000.0 11309700000.0 11309700000.0 11309700000.0 11309700000.0 11309700000.0 11309700000.0 11309700000.0 11309700000.0 11309700000.0 11309700000.0 11309700000.0 11309700000.0 11309700000.0 11309700000.0 11309700000.0 11309700000.0 11309700000.0 11309700000.0 11309700000.0 11309700000.0 11309700000.0 11309700000.0 11309700000.0 11309700000.0 11309700000.0 11309700000.0 11309700000.0 11309700000.0 11309700000.0 11309700000.0 11309700000.0 11309700000.0 11309700000.0 11309700000.0 11309700000.0 11309700000.0 11309700000.0 11309700000.0 11309700000.0 11309700000.0 11309700000.0 11309700000.0 11309700000.0 11309700000.0 11309700000.0 11309700000.0 11309700000.0 11309700000.0 11309700000.0 11309700000.0 11309700000.0 11309700000.0 11309700000.0 11309700000.0 11309700000.0 11309700000.0 11309700000.0 11309700000.0 11309700000.0 11309700000.0 11309700000.0 11309700000.0 11309700000.0 11309700000.0 11309700000.0 11309700000.0 11309700000.0 11309700000.0 11309700000.0 11309700000.0 11309700000.0 11309700000.0 11309700000.0 11309700000.0 11309700000.0 11309700000.0 11309700000.0 11309700000.0 11309700000.0 11309700000.0 11309700000.0 11309700000.0 11309700000.0 11309700000.0 11309700000.0 11309700000.0 11309700000.0 11309700000.0 11309700000.0 11309700000.0 11309700000.0 11309700000.0 11309700000.0 11309700000.0 11309700000.0 11309700000.0 11309700000.0 11309700000.0 11309700000.0 11309700000.0 11309700000.0 11309700000.0 11309700000.0 11309700000.0 11309700000.0 11309700000.0 11309700000.0 11309700000.0 11309700000.0 11309700000.0 11309700000.0 11309700000.0 11309700000.0 11309700000.0 11309700000.0 11309700000.0 11309700000.0 11309700000.0 11309700000.0 11309700000.0 11309700000.0 11309700000.0 11309700000.0 11309700000.0 11309700000.0 11309700000.0 11309700000.0 11309700000.0 11309700000.0 11309700000.0 11309700000.0 11309700000.0 11309700000.0 11309700000.0 11309700000.0 11309700000.0 11309700000.0 11309700000.0 11309700000.0 11309700000.0 11309700000.0 11309700000.0 11309700000.0 11309700000.0 11309700000.0 11309700000.0 11309700000.0 11309700000.0 11309700000.0 11309700000.0 11309700000.0 11309700000.0 11309700000.0 11309700000.0 11309700000.0 11309700000.0 11309700000.0 11309700000.0 11309700000.0 11309700000.0 11309700000.0 11309700000.0 11309700000.0 11309700000.0 11309700000.0 11309700000.0 11309700000.0 11309700000.0 11309700000.0 11309700000.0 11309700000.0 11309700000.0 11309700000.0 11309700000.0 11309700000.0 11309700000.0 11309700000.0 11309700000.0 11309700000.0 11309700000.0 11309700000.0 11309700000.0 11309700000.0 11309700000.0 11309700000.0 11309700000.0 11309700000.0 11309700000.0 11309700000.0 11309700000.0 11309700000.0 11309700000.0 11309700000.0 11309700000.0 11309700000.0 11309700000.0 11309700000.0 11309700000.0 11309700000.0 11309700000.0 11309700000.0 11309700000.0 11309700000.0 11309700000.0 11309700000.0 11309700000.0 11309700000.0 11309700000.0 11309700000.0 11309700000.0 11309700000.0 11309700000.0 11309700000.0 11309700000.0 11309700000.0 11309700000.0 11309700000.0 11309700000.0 11309700000.0 11309700000.0 11309700000.0 11309700000.0 11309700000.0 11309700000.0 11309700000.0 11309700000.0 11309700000.0 11309700000.0 11309700000.0 11309700000.0 11309700000.0 11309700000.0 11309700000.0 11309700000.0 11309700000.0 11309700000.0 11309700000.0 11309700000.0 11309700000.0 11309700000.0 11309700000.0 11309700000.0 11309700000.0 11309700000.0 11309700000.0 11309700000.0 11309700000.0 11309700000.0 11309700000.0 11309700000.0 11309700000.0 11309700000.0 11309700000.0 11309700000.0 11309700000.0 11309700000.0 11309700000.0 11309700000.0 11309700000.0 11309700000.0 11309700000.0 11309700000.0 11309700000.0 11309700000.0 11309700000.0 11309700000.0 11309700000.0 11309700000.0 11309700000.0 11309700000.0 11309700000.0 11309700000.0 11309700000.0 11309700000.0 11309700000.0 11309700000.0 11309700000.0 11309700000.0 11309700000.0 11309700000.0 11309700000.0 11309700000.0 11309700000.0 11309700000.0 11309700000.0 11309700000.0 11309700000.0 11309700000.0 11309700000.0 11309700000.0 11309700000.0 11309700000.0 11309700000.0 11309700000.0 11309700000.0 11309700000.0 11309700000.0 11309700000.0 11309700000.0 11309700000.0 11309700000.0 11309700000.0 11309700000.0 11309700000.0 11309700000.0 11309700000.0 11309700000.0 11309700000.0 11309700000.0 11309700000.0 11309700000.0 11309700000.0 11309700000.0 11309700000.0 11309700000.0 11309700000.0 11309700000.0 11309700000.0 11309700000.0 11309700000.0 11309700000.0 11309700000.0 11309700000.0 11309700000.0 11309700000.0 11309700000.0 11309700000.0 11309700000.0 11309700000.0 11309700000.0 11309700000.0 11309700000.0 11309700000.0 11309700000.0 11309700000.0 11309700000.0 11309700000.0 11309700000.0 11309700000.0 11309700000.0 11309700000.0 11309700000.0 11309700000.0 11309700000.0 11309700000.0 11309700000.0 11309700000.0 11309700000.0 11309700000.0 11309700000.0 11309700000.0 11309700000.0 11309700000.0 11309700000.0 11309700000.0 11309700000.0 11309700000.0 11309700000.0 11309700000.0 11309700000.0 11309700000.0 11309700000.0 11309700000.0 11309700000.0 11309700000.0 11309700000.0 11309700000.0 11309700000.0 11309700000.0 11309700000.0 11309700000.0 11309700000.0 11309700000.0 11309700000.0 11309700000.0 11309700000.0 11309700000.0 11309700000.0 11309700000.0 11309700000.0 11309700000.0 11309700000.0 11309700000.0 11309700000.0 11309700000.0 11309700000.0 11309700000.0 11309700000.0 11309700000.0 11309700000.0 11309700000.0 11309700000.0 11309700000.0 11309700000.0 11309700000.0 11309700000.0 11309700000.0 11309700000.0 11309700000.0 11309700000.0 11309700000.0 11309700000.0 11309700000.0 11309700000.0 11309700000.0 11309700000.0 11309700000.0 11309700000.0 11309700000.0 11309700000.0 11309700000.0 11309700000.0 11309700000.0 11309700000.0 11309700000.0 11309700000.0 11309700000.0 11309700000.0 11309700000.0 11309700000.0 11309700000.0 11309700000.0 11309700000.0 11309700000.0 11309700000.0 11309700000.0 11309700000.0 11309700000.0 11309700000.0 11309700000.0 11309700000.0 11309700000.0 11309700000.0 11309700000.0 11309700000.0 11309700000.0 11309700000.0 11309700000.0 11309700000.0 11309700000.0 11309700000.0 11309700000.0 11309700000.0 11309700000.0 11309700000.0 11309700000.0 11309700000.0 11309700000.0 11309700000.0 11309700000.0 11309700000.0 11309700000.0 11309700000.0 11309700000.0 11309700000.0 11309700000.0 11309700000.0 11309700000.0 11309700000.0 11309700000.0 11309700000.0 11309700000.0 11309700000.0 11309700000.0 11309700000.0 11309700000.0 11309700000.0 11309700000.0 11309700000.0 11309700000.0 11309700000.0 11309700000.0 11309700000.0 11309700000.0 11309700000.0 11309700000.0 11309700000.0 11309700000.0 11309700000.0 11309700000.0 11309700000.0 11309700000.0 11309700000.0 11309700000.0 11309700000.0 11309700000.0 11309700000.0 11309700000.0 11309700000.0 11309700000.0 11309700000.0 11309700000.0 11309700000.0 11309700000.0 11309700000.0 11309700000.0 11309700000.0 11309700000.0 11309700000.0 11309700000.0 11309700000.0 11309700000.0 11309700000.0 11309700000.0 11309700000.0 11309700000.0 11309700000.0 11309700000.0 11309700000.0 11309700000.0 11309700000.0 11309700000.0 11309700000.0 11309700000.0 11309700000.0 11309700000.0 11309700000.0 11309700000.0 11309700000.0 11309700000.0 11309700000.0 11309700000.0 11309700000.0 11309700000.0 11309700000.0 11309700000.0 11309700000.0 11309700000.0 11309700000.0 11309700000.0 11309700000.0 11309700000.0 11309700000.0 11309700000.0 11309700000.0 11309700000.0 11309700000.0 11309700000.0 11309700000.0 11309700000.0 11309700000.0 11309700000.0 11309700000.0 11309700000.0 11309700000.0 11309700000.0 11309700000.0 11309700000.0 11309700000.0 11309700000.0 11309700000.0 11309700000.0 11309700000.0 11309700000.0 11309700000.0 11309700000.0 11309700000.0 11309700000.0 11309700000.0 11309700000.0 11309700000.0 11309700000.0 11309700000.0 11309700000.0 11309700000.0 11309700000.0 11309700000.0 11309700000.0 11309700000.0 11309700000.0 11309700000.0 11309700000.0 11309700000.0 11309700000.0 11309700000.0 11309700000.0 11309700000.0 11309700000.0 11309700000.0 11309700000.0 11309700000.0 11309700000.0 11309700000.0 11309700000.0 11309700000.0 11309700000.0 11309700000.0 11309700000.0 11309700000.0 11309700000.0 11309700000.0 11309700000.0 11309700000.0 11309700000.0 11309700000.0 11309700000.0 11309700000.0 11309700000.0 11309700000.0 11309700000.0 11309700000.0 11309700000.0 11309700000.0 11309700000.0 11309700000.0 11309700000.0 11309700000.0 11309700000.0 11309700000.0 11309700000.0 11309700000.0 11309700000.0 11309700000.0 11309700000.0 11309700000.0 11309700000.0 11309700000.0 11309700000.0 11309700000.0 11309700000.0 11309700000.0 11309700000.0 11309700000.0 11309700000.0 11309700000.0 11309700000.0 11309700000.0 11309700000.0 11309700000.0 11309700000.0 11309700000.0 11309700000.0 11309700000.0 11309700000.0 11309700000.0 11309700000.0 11309700000.0 11309700000.0 11309700000.0 11309700000.0 11309700000.0 11309700000.0 11309700000.0 11309700000.0 11309700000.0 11309700000.0 11309700000.0 11309700000.0 11309700000.0 11309700000.0 11309700000.0 11309700000.0 11309700000.0 11309700000.0 11309700000.0 11309700000.0 11309700000.0 11309700000.0 11309700000.0 11309700000.0 11309700000.0 11309700000.0 11309700000.0 11309700000.0 11309700000.0 11309700000.0 11309700000.0 11309700000.0 11309700000.0 11309700000.0 11309700000.0 11309700000.0 11309700000.0 11309700000.0 11309700000.0 11309700000.0 11309700000.0 11309700000.0 11309700000.0 11309700000.0 11309700000.0 11309700000.0 11309700000.0 11309700000.0 11309700000.0 11309700000.0 11309700000.0 11309700000.0 11309700000.0 11309700000.0 11309700000.0 11309700000.0 11309700000.0 11309700000.0 11309700000.0 11309700000.0 11309700000.0 11309700000.0 11309700000.0 11309700000.0 11309700000.0 11309700000.0 11309700000.0 11309700000.0 11309700000.0 11309700000.0 11309700000.0 11309700000.0 11309700000.0 11309700000.0 11309700000.0 11309700000.0 11309700000.0 11309700000.0 11309700000.0 11309700000.0 11309700000.0 11309700000.0 11309700000.0 11309700000.0 11309700000.0 11309700000.0 11309700000.0 11309700000.0 11309700000.0 11309700000.0 11309700000.0 11309700000.0 11309700000.0 11309700000.0 11309700000.0 11309700000.0 11309700000.0 11309700000.0 11309700000.0 11309700000.0 11309700000.0 11309700000.0 11309700000.0 11309700000.0 11309700000.0 11309700000.0 11309700000.0 11309700000.0 11309700000.0 11309700000.0 11309700000.0 11309700000.0 11309700000.0 11309700000.0 11309700000.0 11309700000.0 11309700000.0 11309700000.0 11309700000.0 11309700000.0 11309700000.0 11309700000.0 11309700000.0 11309700000.0 11309700000.0 11309700000.0 11309700000.0 11309700000.0 11309700000.0 11309700000.0 11309700000.0 11309700000.0 11309700000.0 11309700000.0 11309700000.0 11309700000.0 11309700000.0 11309700000.0 11309700000.0 11309700000.0 11309700000.0 11309700000.0 11309700000.0 11309700000.0 11309700000.0 11309700000.0 11309700000.0 11309700000.0 11309700000.0 11309700000.0 11309700000.0 11309700000.0 11309700000.0 11309700000.0 11309700000.0 11309700000.0 11309700000.0 11309700000.0 11309700000.0 11309700000.0 11309700000.0 11309700000.0 11309700000.0 11309700000.0 11309700000.0 11309700000.0 11309700000.0 11309700000.0 11309700000.0 11309700000.0 11309700000.0 11309700000.0 11309700000.0 11309700000.0 11309700000.0 11309700000.0 11309700000.0 11309700000.0 11309700000.0 11309700000.0 11309700000.0 11309700000.0 11309700000.0 11309700000.0 11309700000.0 11309700000.0 11309700000.0 11309700000.0 11309700000.0 11309700000.0 11309700000.0 11309700000.0 11309700000.0 11309700000.0 11309700000.0 11309700000.0 11309700000.0 11309700000.0 11309700000.0 11309700000.0 11309700000.0 11309700000.0 11309700000.0 11309700000.0 11309700000.0 11309700000.0 11309700000.0 11309700000.0 11309700000.0 11309700000.0 11309700000.0 11309700000.0 11309700000.0 11309700000.0 11309700000.0 11309700000.0 11309700000.0 11309700000.0 11309700000.0 11309700000.0 11309700000.0 11309700000.0 11309700000.0 11309700000.0 11309700000.0 11309700000.0 11309700000.0 11309700000.0 11309700000.0 11309700000.0 11309700000.0 11309700000.0 11309700000.0 11309700000.0 11309700000.0 11309700000.0 11309700000.0 11309700000.0 11309700000.0 11309700000.0 11309700000.0 11309700000.0 11309700000.0 11309700000.0 11309700000.0 11309700000.0 11309700000.0 11309700000.0 11309700000.0 11309700000.0 11309700000.0 11309700000.0 11309700000.0 11309700000.0 11309700000.0 11309700000.0 11309700000.0 11309700000.0 11309700000.0 11309700000.0 11309700000.0 11309700000.0 11309700000.0 11309700000.0 11309700000.0 11309700000.0 11309700000.0 11309700000.0 11309700000.0 11309700000.0 11309700000.0 11309700000.0 11309700000.0 11309700000.0 11309700000.0 11309700000.0 11309700000.0 11309700000.0 11309700000.0 11309700000.0 11309700000.0 11309700000.0 11309700000.0 11309700000.0 11309700000.0 11309700000.0 11309700000.0 11309700000.0 11309700000.0 11309700000.0 11309700000.0 11309700000.0 11309700000.0 11309700000.0 11309700000.0 11309700000.0 11309700000.0 11309700000.0 11309700000.0 11309700000.0 11309700000.0 11309700000.0 11309700000.0 11309700000.0 11309700000.0 11309700000.0 11309700000.0 11309700000.0 11309700000.0 11309700000.0 11309700000.0 11309700000.0 11309700000.0 11309700000.0 11309700000.0 11309700000.0 11309700000.0 11309700000.0 11309700000.0 11309700000.0 11309700000.0 11309700000.0 11309700000.0 11309700000.0 11309700000.0 11309700000.0 11309700000.0 11309700000.0 11309700000.0 11309700000.0 11309700000.0 11309700000.0 11309700000.0 11309700000.0 11309700000.0 11309700000.0 11309700000.0 11309700000.0 11309700000.0 11309700000.0 11309700000.0 11309700000.0 11309700000.0 11309700000.0 11309700000.0 11309700000.0 11309700000.0 11309700000.0 11309700000.0 11309700000.0 11309700000.0 11309700000.0 11309700000.0 11309700000.0 11309700000.0 11309700000.0 11309700000.0 11309700000.0 11309700000.0 11309700000.0 11309700000.0 11309700000.0 11309700000.0 11309700000.0 11309700000.0 11309700000.0 11309700000.0 11309700000.0 11309700000.0 11309700000.0 11309700000.0 11309700000.0 11309700000.0 11309700000.0 11309700000.0 11309700000.0 11309700000.0 11309700000.0 11309700000.0 11309700000.0 11309700000.0 11309700000.0 11309700000.0 11309700000.0 11309700000.0 11309700000.0 11309700000.0 11309700000.0 11309700000.0 11309700000.0 11309700000.0 11309700000.0 11309700000.0 11309700000.0 11309700000.0 11309700000.0 11309700000.0 11309700000.0 11309700000.0 11309700000.0 11309700000.0 11309700000.0 11309700000.0 11309700000.0 11309700000.0 11309700000.0 11309700000.0 11309700000.0 11309700000.0 11309700000.0 11309700000.0 11309700000.0 11309700000.0 11309700000.0 11309700000.0 11309700000.0 11309700000.0 11309700000.0 11309700000.0 11309700000.0 11309700000.0 11309700000.0 11309700000.0 11309700000.0 11309700000.0 11309700000.0 11309700000.0 11309700000.0 11309700000.0 11309700000.0 11309700000.0 11309700000.0 11309700000.0 11309700000.0 11309700000.0 11309700000.0 11309700000.0 11309700000.0 11309700000.0 11309700000.0 11309700000.0 11309700000.0 11309700000.0 11309700000.0 11309700000.0 11309700000.0 11309700000.0 11309700000.0 11309700000.0 11309700000.0 11309700000.0 11309700000.0 11309700000.0 11309700000.0 11309700000.0 11309700000.0 11309700000.0 11309700000.0 11309700000.0 11309700000.0 11309700000.0 11309700000.0 11309700000.0 11309700000.0 11309700000.0 11309700000.0 11309700000.0 11309700000.0 11309700000.0 11309700000.0 11309700000.0 11309700000.0 11309700000.0 11309700000.0 11309700000.0 11309700000.0 11309700000.0 11309700000.0 11309700000.0 11309700000.0 11309700000.0 11309700000.0 11309700000.0 11309700000.0 11309700000.0 11309700000.0 11309700000.0 11309700000.0 11309700000.0 11309700000.0 11309700000.0 11309700000.0 11309700000.0 11309700000.0 11309700000.0 11309700000.0 11309700000.0 11309700000.0 11309700000.0 11309700000.0 11309700000.0 11309700000.0 11309700000.0 11309700000.0 11309700000.0 11309700000.0 11309700000.0 11309700000.0 11309700000.0 11309700000.0 11309700000.0 11309700000.0 11309700000.0 11309700000.0 11309700000.0 11309700000.0 11309700000.0 11309700000.0 11309700000.0 11309700000.0 11309700000.0 11309700000.0 11309700000.0 11309700000.0 11309700000.0 11309700000.0 11309700000.0 11309700000.0 11309700000.0 11309700000.0 11309700000.0 11309700000.0 11309700000.0 11309700000.0 11309700000.0 11309700000.0 11309700000.0 11309700000.0 11309700000.0 11309700000.0 11309700000.0 11309700000.0 11309700000.0 11309700000.0 11309700000.0 11309700000.0 11309700000.0 11309700000.0 11309700000.0 11309700000.0 11309700000.0 11309700000.0 11309700000.0 11309700000.0 11309700000.0 11309700000.0 11309700000.0 11309700000.0 11309700000.0 11309700000.0 11309700000.0 11309700000.0 11309700000.0 11309700000.0 11309700000.0 11309700000.0 11309700000.0 11309700000.0 11309700000.0 11309700000.0 11309700000.0 11309700000.0 11309700000.0 11309700000.0 11309700000.0 11309700000.0 11309700000.0 11309700000.0 11309700000.0 11309700000.0 11309700000.0 11309700000.0 11309700000.0 11309700000.0 11309700000.0 11309700000.0 11309700000.0 11309700000.0 11309700000.0 11309700000.0 11309700000.0 11309700000.0 11309700000.0 11309700000.0 11309700000.0 11309700000.0 11309700000.0 11309700000.0 11309700000.0 11309700000.0 11309700000.0 11309700000.0 11309700000.0 11309700000.0 11309700000.0 11309700000.0 11309700000.0 11309700000.0 11309700000.0 11309700000.0 11309700000.0 11309700000.0 11309700000.0 11309700000.0 11309700000.0 11309700000.0 11309700000.0 11309700000.0 11309700000.0 11309700000.0 11309700000.0 11309700000.0 11309700000.0 11309700000.0 11309700000.0 11309700000.0 11309700000.0 11309700000.0 11309700000.0 11309700000.0 11309700000.0 11309700000.0 11309700000.0 11309700000.0 11309700000.0 11309700000.0 11309700000.0 11309700000.0 11309700000.0 11309700000.0 11309700000.0 11309700000.0 11309700000.0 11309700000.0 11309700000.0 11309700000.0 11309700000.0 11309700000.0 11309700000.0 11309700000.0 11309700000.0 11309700000.0 11309700000.0 11309700000.0 11309700000.0 11309700000.0 11309700000.0 11309700000.0 11309700000.0 11309700000.0 11309700000.0 11309700000.0 11309700000.0 11309700000.0 11309700000.0 11309700000.0 11309700000.0 11309700000.0 11309700000.0 11309700000.0 11309700000.0 11309700000.0 11309700000.0 11309700000.0 11309700000.0 11309700000.0 11309700000.0 11309700000.0 11309700000.0 11309700000.0 11309700000.0 11309700000.0 11309700000.0 11309700000.0 11309700000.0 11309700000.0 11309700000.0 11309700000.0 11309700000.0 11309700000.0 11309700000.0 11309700000.0 11309700000.0 11309700000.0 11309700000.0 11309700000.0 11309700000.0 11309700000.0 11309700000.0 11309700000.0 11309700000.0 11309700000.0 11309700000.0 11309700000.0 11309700000.0 11309700000.0 11309700000.0 11309700000.0 11309700000.0 11309700000.0 11309700000.0 11309700000.0 11309700000.0 11309700000.0 11309700000.0 11309700000.0 11309700000.0 11309700000.0 11309700000.0 11309700000.0 11309700000.0 11309700000.0 11309700000.0 11309700000.0 11309700000.0 11309700000.0 11309700000.0 11309700000.0 11309700000.0 11309700000.0 11309700000.0 11309700000.0 11309700000.0 11309700000.0 11309700000.0 11309700000.0 11309700000.0 11309700000.0 11309700000.0 11309700000.0 11309700000.0 11309700000.0 11309700000.0 11309700000.0 11309700000.0 11309700000.0 11309700000.0 11309700000.0 11309700000.0 11309700000.0 11309700000.0 11309700000.0 11309700000.0 11309700000.0 11309700000.0 11309700000.0 11309700000.0 11309700000.0 11309700000.0 11309700000.0 11309700000.0 11309700000.0 11309700000.0 11309700000.0 11309700000.0 11309700000.0 11309700000.0 11309700000.0 11309700000.0 11309700000.0 11309700000.0 11309700000.0 11309700000.0 11309700000.0 11309700000.0 11309700000.0 11309700000.0 11309700000.0 11309700000.0 11309700000.0 11309700000.0 11309700000.0 11309700000.0 11309700000.0 11309700000.0 11309700000.0 11309700000.0 11309700000.0 11309700000.0 11309700000.0 11309700000.0 11309700000.0 11309700000.0 11309700000.0 11309700000.0 11309700000.0 11309700000.0 11309700000.0 11309700000.0 11309700000.0 11309700000.0 11309700000.0 11309700000.0 11309700000.0 11309700000.0 11309700000.0 11309700000.0 11309700000.0 11309700000.0 11309700000.0 11309700000.0 11309700000.0 11309700000.0 11309700000.0 11309700000.0 11309700000.0 11309700000.0 11309700000.0 11309700000.0 11309700000.0 11309700000.0 11309700000.0 11309700000.0 11309700000.0 11309700000.0 11309700000.0 11309700000.0 11309700000.0 11309700000.0 11309700000.0 11309700000.0 11309700000.0 11309700000.0 11309700000.0 11309700000.0 11309700000.0 11309700000.0 11309700000.0 11309700000.0 11309700000.0 11309700000.0 11309700000.0 11309700000.0 11309700000.0 11309700000.0 11309700000.0 11309700000.0 11309700000.0 11309700000.0 11309700000.0 11309700000.0 11309700000.0 11309700000.0 11309700000.0 11309700000.0 11309700000.0 11309700000.0 11309700000.0 11309700000.0 11309700000.0 11309700000.0 11309700000.0 11309700000.0 11309700000.0 11309700000.0 11309700000.0 11309700000.0 11309700000.0 11309700000.0 11309700000.0 11309700000.0 11309700000.0 11309700000.0 11309700000.0 11309700000.0 11309700000.0 11309700000.0 11309700000.0 11309700000.0 11309700000.0 11309700000.0 11309700000.0 11309700000.0 11309700000.0 11309700000.0 11309700000.0 11309700000.0 11309700000.0 11309700000.0 11309700000.0 11309700000.0 11309700000.0 11309700000.0 11309700000.0 11309700000.0 11309700000.0 11309700000.0 11309700000.0 11309700000.0 11309700000.0 11309700000.0 11309700000.0 11309700000.0 11309700000.0 11309700000.0 11309700000.0 11309700000.0 11309700000.0 11309700000.0 11309700000.0 11309700000.0 11309700000.0 11309700000.0 11309700000.0 11309700000.0 11309700000.0 11309700000.0 11309700000.0 11309700000.0 11309700000.0 11309700000.0 11309700000.0 11309700000.0 11309700000.0 11309700000.0 11309700000.0 11309700000.0 11309700000.0 11309700000.0 11309700000.0 11309700000.0 11309700000.0 11309700000.0 11309700000.0 11309700000.0 11309700000.0 11309700000.0 11309700000.0 11309700000.0 11309700000.0 11309700000.0 11309700000.0 11309700000.0 11309700000.0 11309700000.0 11309700000.0 11309700000.0 11309700000.0 11309700000.0 11309700000.0 11309700000.0 11309700000.0 11309700000.0 11309700000.0 11309700000.0 11309700000.0 11309700000.0 11309700000.0 11309700000.0 11309700000.0 11309700000.0 11309700000.0 11309700000.0 11309700000.0 11309700000.0 11309700000.0 11309700000.0 11309700000.0 11309700000.0 11309700000.0 11309700000.0 11309700000.0 11309700000.0 11309700000.0 11309700000.0 11309700000.0 11309700000.0 11309700000.0 11309700000.0 11309700000.0 11309700000.0 11309700000.0 11309700000.0 11309700000.0 11309700000.0 11309700000.0 11309700000.0 11309700000.0 11309700000.0 11309700000.0 11309700000.0 11309700000.0 11309700000.0 11309700000.0 11309700000.0 11309700000.0 11309700000.0 11309700000.0 11309700000.0 11309700000.0 11309700000.0 11309700000.0 11309700000.0 11309700000.0 11309700000.0 11309700000.0 11309700000.0 11309700000.0 11309700000.0 11309700000.0 11309700000.0 11309700000.0 11309700000.0 11309700000.0 11309700000.0 11309700000.0 11309700000.0 11309700000.0 11309700000.0 11309700000.0 11309700000.0 11309700000.0 11309700000.0 11309700000.0 11309700000.0 11309700000.0 11309700000.0 11309700000.0 11309700000.0 11309700000.0 11309700000.0 11309700000.0 11309700000.0 11309700000.0 11309700000.0 11309700000.0 11309700000.0 11309700000.0 11309700000.0 11309700000.0 11309700000.0 11309700000.0 11309700000.0 11309700000.0 11309700000.0 11309700000.0 11309700000.0 11309700000.0 11309700000.0 11309700000.0 11309700000.0 11309700000.0 11309700000.0 11309700000.0 11309700000.0 11309700000.0 11309700000.0 11309700000.0 11309700000.0 11309700000.0 11309700000.0 11309700000.0 11309700000.0 11309700000.0 11309700000.0 11309700000.0 11309700000.0 11309700000.0 11309700000.0 11309700000.0 11309700000.0 11309700000.0 11309700000.0 11309700000.0 11309700000.0 11309700000.0 11309700000.0 11309700000.0 11309700000.0 11309700000.0 11309700000.0 11309700000.0 11309700000.0 11309700000.0 11309700000.0 11309700000.0 11309700000.0 11309700000.0 11309700000.0 11309700000.0 11309700000.0 11309700000.0 11309700000.0 11309700000.0 11309700000.0 11309700000.0 11309700000.0 11309700000.0 11309700000.0 11309700000.0 11309700000.0 11309700000.0 11309700000.0 11309700000.0 11309700000.0 11309700000.0 11309700000.0 11309700000.0 11309700000.0 11309700000.0 11309700000.0 11309700000.0 11309700000.0 11309700000.0 11309700000.0 11309700000.0 11309700000.0 11309700000.0 11309700000.0 11309700000.0 11309700000.0 11309700000.0 11309700000.0 11309700000.0 11309700000.0 11309700000.0 11309700000.0 11309700000.0 11309700000.0 11309700000.0 11309700000.0 11309700000.0 11309700000.0 11309700000.0 11309700000.0 11309700000.0 11309700000.0 11309700000.0 11309700000.0 11309700000.0 11309700000.0 11309700000.0 11309700000.0 11309700000.0 11309700000.0 11309700000.0 11309700000.0 11309700000.0 11309700000.0 11309700000.0 11309700000.0 11309700000.0 11309700000.0 11309700000.0 11309700000.0 11309700000.0 11309700000.0 11309700000.0 11309700000.0 11309700000.0 11309700000.0 11309700000.0 11309700000.0 11309700000.0 11309700000.0 11309700000.0 11309700000.0 11309700000.0 11309700000.0 11309700000.0 11309700000.0 11309700000.0 11309700000.0 11309700000.0 11309700000.0 11309700000.0 11309700000.0 11309700000.0 11309700000.0 11309700000.0 11309700000.0 11309700000.0 11309700000.0 11309700000.0 11309700000.0 11309700000.0 11309700000.0 11309700000.0 11309700000.0 11309700000.0 11309700000.0 11309700000.0 11309700000.0 11309700000.0 11309700000.0 11309700000.0 11309700000.0 11309700000.0 11309700000.0 11309700000.0 11309700000.0 11309700000.0 11309700000.0 11309700000.0 11309700000.0 11309700000.0 11309700000.0 11309700000.0 11309700000.0 11309700000.0 11309700000.0 11309700000.0 11309700000.0 11309700000.0 11309700000.0 11309700000.0 11309700000.0 11309700000.0 11309700000.0 11309700000.0 11309700000.0 11309700000.0 11309700000.0 11309700000.0 11309700000.0 11309700000.0 11309700000.0 11309700000.0 11309700000.0 11309700000.0 11309700000.0 11309700000.0 11309700000.0 11309700000.0 11309700000.0 11309700000.0 11309700000.0 11309700000.0 11309700000.0 11309700000.0 11309700000.0 11309700000.0 11309700000.0 11309700000.0 11309700000.0 11309700000.0 11309700000.0 11309700000.0 11309700000.0 11309700000.0 11309700000.0 11309700000.0 11309700000.0 11309700000.0 11309700000.0 11309700000.0 11309700000.0 11309700000.0 11309700000.0 11309700000.0 11309700000.0 11309700000.0 11309700000.0 11309700000.0 11309700000.0 11309700000.0 11309700000.0 11309700000.0 11309700000.0 11309700000.0 11309700000.0 11309700000.0 11309700000.0 11309700000.0 11309700000.0 11309700000.0 11309700000.0 11309700000.0 11309700000.0 11309700000.0 11309700000.0 11309700000.0 11309700000.0 11309700000.0 11309700000.0 11309700000.0 11309700000.0 11309700000.0 11309700000.0 11309700000.0 11309700000.0 11309700000.0 11309700000.0 11309700000.0 11309700000.0 11309700000.0 11309700000.0 11309700000.0 11309700000.0 11309700000.0 11309700000.0 11309700000.0 11309700000.0 11309700000.0 11309700000.0 11309700000.0 11309700000.0 11309700000.0 11309700000.0 11309700000.0 11309700000.0 11309700000.0 11309700000.0 11309700000.0 11309700000.0 11309700000.0 11309700000.0 11309700000.0 11309700000.0 11309700000.0 11309700000.0 11309700000.0 11309700000.0 11309700000.0 11309700000.0 11309700000.0 11309700000.0 11309700000.0 11309700000.0 11309700000.0 11309700000.0 11309700000.0 11309700000.0 11309700000.0 11309700000.0 11309700000.0 11309700000.0 11309700000.0 11309700000.0 11309700000.0 11309700000.0 11309700000.0 11309700000.0 11309700000.0 11309700000.0 11309700000.0 11309700000.0 11309700000.0 11309700000.0 11309700000.0 11309700000.0 11309700000.0 11309700000.0 11309700000.0 11309700000.0 11309700000.0 11309700000.0 11309700000.0 11309700000.0 11309700000.0 11309700000.0 11309700000.0 11309700000.0 11309700000.0 11309700000.0 11309700000.0 11309700000.0 11309700000.0 11309700000.0 11309700000.0 11309700000.0 11309700000.0 11309700000.0 11309700000.0 11309700000.0 11309700000.0 11309700000.0 11309700000.0 11309700000.0 11309700000.0 11309700000.0 11309700000.0 11309700000.0 11309700000.0 11309700000.0 11309700000.0 11309700000.0 11309700000.0 11309700000.0 11309700000.0 11309700000.0 11309700000.0 11309700000.0 11309700000.0 11309700000.0 11309700000.0 11309700000.0 11309700000.0 11309700000.0 11309700000.0 11309700000.0 11309700000.0 11309700000.0 11309700000.0 11309700000.0 11309700000.0 11309700000.0 11309700000.0 11309700000.0 11309700000.0 11309700000.0 11309700000.0 11309700000.0 11309700000.0 11309700000.0 11309700000.0 11309700000.0 11309700000.0 11309700000.0 11309700000.0 11309700000.0 11309700000.0 11309700000.0 11309700000.0 11309700000.0 11309700000.0 11309700000.0 11309700000.0 11309700000.0 11309700000.0 11309700000.0 11309700000.0 11309700000.0 11309700000.0 11309700000.0 11309700000.0 11309700000.0 11309700000.0 11309700000.0 11309700000.0 11309700000.0 11309700000.0 11309700000.0 11309700000.0 11309700000.0 11309700000.0 11309700000.0 11309700000.0 11309700000.0 11309700000.0 11309700000.0 11309700000.0 11309700000.0 11309700000.0 11309700000.0 11309700000.0 11309700000.0 11309700000.0 11309700000.0 11309700000.0 11309700000.0 11309700000.0 11309700000.0 11309700000.0 11309700000.0 11309700000.0 11309700000.0 11309700000.0 11309700000.0 11309700000.0 11309700000.0 11309700000.0 11309700000.0 11309700000.0 11309700000.0 11309700000.0 11309700000.0 11309700000.0 11309700000.0 11309700000.0 11309700000.0 11309700000.0 11309700000.0 11309700000.0 11309700000.0 11309700000.0 11309700000.0 11309700000.0 11309700000.0 11309700000.0 11309700000.0 11309700000.0 11309700000.0 11309700000.0 11309700000.0 11309700000.0 11309700000.0 11309700000.0 11309700000.0 11309700000.0 11309700000.0 11309700000.0 11309700000.0 11309700000.0 11309700000.0 11309700000.0 11309700000.0 11309700000.0 11309700000.0 11309700000.0 11309700000.0 11309700000.0 11309700000.0 11309700000.0 11309700000.0 11309700000.0 11309700000.0 11309700000.0 11309700000.0 11309700000.0 11309700000.0 11309700000.0 11309700000.0 11309700000.0 11309700000.0 11309700000.0 11309700000.0 11309700000.0 11309700000.0 11309700000.0 11309700000.0 11309700000.0 11309700000.0 11309700000.0 11309700000.0 11309700000.0 11309700000.0 11309700000.0 11309700000.0 11309700000.0 11309700000.0 11309700000.0 11309700000.0 11309700000.0 11309700000.0 11309700000.0 11309700000.0 11309700000.0 11309700000.0 11309700000.0 11309700000.0 11309700000.0 11309700000.0 11309700000.0 11309700000.0 11309700000.0 11309700000.0 11309700000.0 11309700000.0 11309700000.0 11309700000.0 11309700000.0 11309700000.0 11309700000.0 11309700000.0 11309700000.0 11309700000.0 11309700000.0 11309700000.0 11309700000.0 11309700000.0 11309700000.0 11309700000.0 11309700000.0 11309700000.0 11309700000.0 11309700000.0 11309700000.0 11309700000.0 11309700000.0 11309700000.0 11309700000.0 11309700000.0 11309700000.0 11309700000.0 11309700000.0 11309700000.0 11309700000.0 11309700000.0 11309700000.0 11309700000.0 11309700000.0 11309700000.0 11309700000.0 11309700000.0 11309700000.0 11309700000.0 11309700000.0 11309700000.0 11309700000.0 11309700000.0 11309700000.0 11309700000.0 11309700000.0 11309700000.0 11309700000.0 11309700000.0 11309700000.0 11309700000.0 11309700000.0 11309700000.0 11309700000.0 11309700000.0 11309700000.0 11309700000.0 11309700000.0 11309700000.0 11309700000.0 11309700000.0 11309700000.0 11309700000.0 11309700000.0 11309700000.0 11309700000.0 11309700000.0 11309700000.0 11309700000.0 11309700000.0 11309700000.0 11309700000.0 11309700000.0 11309700000.0 11309700000.0 11309700000.0 11309700000.0 11309700000.0 11309700000.0 11309700000.0 11309700000.0 11309700000.0 11309700000.0 11309700000.0 11309700000.0 11309700000.0 11309700000.0 11309700000.0 11309700000.0 11309700000.0 11309700000.0 11309700000.0 11309700000.0 11309700000.0 11309700000.0 11309700000.0 11309700000.0 11309700000.0 11309700000.0 11309700000.0 11309700000.0 11309700000.0 11309700000.0 11309700000.0 11309700000.0 11309700000.0 11309700000.0 11309700000.0 11309700000.0 11309700000.0 11309700000.0 11309700000.0 11309700000.0 11309700000.0 11309700000.0 11309700000.0 11309700000.0 11309700000.0 11309700000.0 11309700000.0 11309700000.0 11309700000.0 11309700000.0 11309700000.0 11309700000.0 11309700000.0 11309700000.0 11309700000.0 11309700000.0 11309700000.0 11309700000.0 11309700000.0 11309700000.0 11309700000.0 11309700000.0 11309700000.0 11309700000.0 11309700000.0 11309700000.0 11309700000.0 11309700000.0 11309700000.0 11309700000.0 11309700000.0 11309700000.0 11309700000.0 11309700000.0 11309700000.0 11309700000.0 11309700000.0 11309700000.0 11309700000.0 11309700000.0 11309700000.0 11309700000.0 11309700000.0 11309700000.0 11309700000.0 11309700000.0 11309700000.0 11309700000.0 11309700000.0 11309700000.0 11309700000.0 11309700000.0 11309700000.0 11309700000.0 11309700000.0 11309700000.0 11309700000.0 11309700000.0 11309700000.0 11309700000.0 11309700000.0 11309700000.0 11309700000.0 11309700000.0 11309700000.0 11309700000.0 11309700000.0 11309700000.0 11309700000.0 11309700000.0 11309700000.0 11309700000.0 11309700000.0 11309700000.0 11309700000.0 11309700000.0 11309700000.0 11309700000.0 11309700000.0 11309700000.0 11309700000.0 11309700000.0 11309700000.0 11309700000.0 11309700000.0 11309700000.0 11309700000.0 11309700000.0 11309700000.0 11309700000.0 11309700000.0 11309700000.0 11309700000.0 11309700000.0 11309700000.0 11309700000.0 11309700000.0 11309700000.0 11309700000.0 11309700000.0 11309700000.0 11309700000.0 11309700000.0 11309700000.0 11309700000.0 11309700000.0 11309700000.0 11309700000.0 11309700000.0 11309700000.0 11309700000.0 11309700000.0 11309700000.0 11309700000.0 11309700000.0 11309700000.0 11309700000.0 11309700000.0 11309700000.0 11309700000.0 11309700000.0 11309700000.0 11309700000.0 11309700000.0 11309700000.0 11309700000.0 11309700000.0 11309700000.0 11309700000.0 11309700000.0 11309700000.0 11309700000.0 11309700000.0 11309700000.0 11309700000.0 11309700000.0 11309700000.0 11309700000.0 11309700000.0 11309700000.0 11309700000.0 11309700000.0 11309700000.0 11309700000.0 11309700000.0 11309700000.0 11309700000.0 11309700000.0 11309700000.0 11309700000.0 11309700000.0 11309700000.0 11309700000.0 11309700000.0 11309700000.0 11309700000.0 11309700000.0 11309700000.0 11309700000.0 11309700000.0 11309700000.0 11309700000.0 11309700000.0 11309700000.0 11309700000.0 11309700000.0 11309700000.0 11309700000.0 11309700000.0 11309700000.0 11309700000.0 11309700000.0 11309700000.0 11309700000.0 11309700000.0 11309700000.0 11309700000.0 11309700000.0 11309700000.0 11309700000.0 11309700000.0 11309700000.0 11309700000.0 11309700000.0 11309700000.0 11309700000.0 11309700000.0 11309700000.0 11309700000.0 11309700000.0 11309700000.0 11309700000.0 11309700000.0 11309700000.0 11309700000.0 11309700000.0 11309700000.0 11309700000.0 11309700000.0 11309700000.0 11309700000.0 11309700000.0 11309700000.0 11309700000.0 11309700000.0 11309700000.0 11309700000.0 11309700000.0 11309700000.0 11309700000.0 11309700000.0 11309700000.0 11309700000.0 11309700000.0 11309700000.0 11309700000.0 11309700000.0 11309700000.0 11309700000.0 11309700000.0 11309700000.0 11309700000.0 11309700000.0 11309700000.0 11309700000.0 11309700000.0 11309700000.0 11309700000.0 11309700000.0 11309700000.0 11309700000.0 11309700000.0 11309700000.0 11309700000.0 11309700000.0 11309700000.0 11309700000.0 11309700000.0 11309700000.0 11309700000.0 11309700000.0 11309700000.0 11309700000.0 11309700000.0 11309700000.0 11309700000.0 11309700000.0 11309700000.0 11309700000.0 11309700000.0 11309700000.0 11309700000.0 11309700000.0 11309700000.0 11309700000.0 11309700000.0 11309700000.0 11309700000.0 11309700000.0 11309700000.0 11309700000.0 11309700000.0 11309700000.0 11309700000.0 11309700000.0 11309700000.0 11309700000.0 11309700000.0 11309700000.0 11309700000.0 11309700000.0 11309700000.0 11309700000.0 11309700000.0 11309700000.0 11309700000.0 11309700000.0 11309700000.0 11309700000.0 11309700000.0 11309700000.0 11309700000.0 11309700000.0 11309700000.0 11309700000.0 11309700000.0 11309700000.0 11309700000.0 11309700000.0 11309700000.0 11309700000.0 11309700000.0 11309700000.0 11309700000.0 11309700000.0 11309700000.0 11309700000.0 11309700000.0 11309700000.0 11309700000.0 11309700000.0 11309700000.0 11309700000.0 11309700000.0 11309700000.0 11309700000.0 11309700000.0 11309700000.0 11309700000.0 11309700000.0 11309700000.0 11309700000.0 11309700000.0 11309700000.0 11309700000.0 11309700000.0 11309700000.0 11309700000.0 11309700000.0 11309700000.0 11309700000.0 11309700000.0 11309700000.0 11309700000.0 11309700000.0 11309700000.0 11309700000.0 11309700000.0 11309700000.0 11309700000.0 11309700000.0 11309700000.0 11309700000.0 11309700000.0 11309700000.0 11309700000.0 11309700000.0 11309700000.0 11309700000.0 11309700000.0 11309700000.0 11309700000.0 11309700000.0 11309700000.0 11309700000.0 11309700000.0 11309700000.0 11309700000.0 11309700000.0 11309700000.0 11309700000.0 11309700000.0 11309700000.0 11309700000.0 11309700000.0 11309700000.0 11309700000.0 11309700000.0 11309700000.0 11309700000.0 11309700000.0 11309700000.0 11309700000.0 11309700000.0 11309700000.0 11309700000.0 11309700000.0 11309700000.0 11309700000.0 11309700000.0 11309700000.0 11309700000.0 11309700000.0 11309700000.0 11309700000.0 11309700000.0 11309700000.0 11309700000.0 11309700000.0 11309700000.0 11309700000.0 11309700000.0 11309700000.0 11309700000.0 11309700000.0 11309700000.0 11309700000.0 11309700000.0 11309700000.0 11309700000.0 11309700000.0 
SCALARS Velocity float 1
LOOKUP_TABLE default
1.09769 1.07662 1.07722 1.0773 1.09395 1.07969 1.10193 1.10477 1.10693 1.10954 1.1157 1.07306 1.09486 1.09722 1.09684 1.09598 1.0757 1.07696 1.07821 1.09509 1.0995 1.10071 1.10346 1.10698 1.11265 1.11774 1.05698 1.09218 1.09649 1.09553 1.09623 1.07648 1.07725 1.0806 1.09594 1.0982 1.10254 1.10519 1.10962 1.11606 1.06031 1.09473 1.09593 1.09552 1.09589 1.09435 1.09525 1.09404 1.09473 1.07631 1.07728 1.07732 1.0778 1.08176 1.10033 1.1018 1.10351 1.10423 1.10634 1.10735 1.10961 1.11276 1.11704 1.11765 1.065 1.06865 1.09527 1.09402 1.09294 1.09232 1.07734 1.07836 1.07782 1.07771 1.09703 1.1014 1.09874 1.10291 1.1059 1.10865 1.11183 1.11623 1.06558 1.09473 1.09359 1.09194 1.09108 1.07854 1.07884 1.0835 1.09873 1.10113 1.10563 1.1085 1.11109 1.11598 1.09606 1.09344 1.09319 1.09067 1.09124 1.08852 1.08973 1.08735 1.08901 1.07859 1.07975 1.0783 1.086 1.10073 1.10501 1.10859 1.11178 1.11128 1.11433 1.11425 1.11633 1.11475 1.11074 1.09989 1.09581 1.09068 1.08761 1.08574 1.08504 1.07993 1.08004 1.08153 1.07962 1.07901 1.09602 1.09859 1.10257 1.10392 1.10783 1.10847 1.11213 1.11515 1.11688 1.11478 1.10209 1.0921 1.08721 1.08434 1.08306 1.08166 1.08024 1.09743 1.10013 1.10644 1.11196 1.11605 1.11824 1.11756 1.10989 1.09622 1.08788 1.08319 1.08337 1.07964 1.08122 1.07859 1.08078 1.08109 1.08436 1.09786 1.09871 1.10437 1.11091 1.11649 1.11996 1.12319 1.12015 1.11978 1.11509 1.10974 1.10256 1.09534 1.09047 1.08438 1.07853 1.07652 1.07678 1.08245 1.08302 1.08868 1.09624 1.09918 1.09926 1.10156 1.1023 1.10626 1.10883 1.11419 1.11599 1.12174 1.12135 1.12615 1.12471 1.11642 1.10212 1.08754 1.07829 1.0746 1.0745 1.08536 1.09605 1.1016 1.10443 1.11126 1.12066 1.12808 1.12996 1.12349 1.11012 1.09314 1.07947 1.07209 1.07299 1.06944 1.0721 1.07159 1.07381 1.08343 1.09014 1.10005 1.10446 1.10819 1.11783 1.12799 1.13444 1.13959 1.1314 1.12916 1.11894 1.11096 1.10109 1.08957 1.08284 1.07262 1.06667 1.06858 1.07306 1.08302 1.08563 1.08978 1.09578 1.10089 1.10395 1.10836 1.10669 1.10923 1.11359 1.12059 1.12555 1.13419 1.13635 1.14546 1.14116 1.12267 1.09955 1.07589 1.0643 1.06449 1.07098 1.08445 1.09527 1.10725 1.10784 1.11364 1.12907 1.14572 1.15346 1.13705 1.11209 1.0845 1.06603 1.0634 1.05479 1.0596 1.06007 1.06677 1.07395 1.07601 1.08048 1.08052 1.08791 1.10209 1.11541 1.10687 1.12096 1.13861 1.15986 1.17397 1.15509 1.1466 1.12716 1.11291 1.09751 1.07823 1.05159 1.0518 1.06722 1.08401 1.07595 1.08371 1.09362 1.10179 1.11239 1.1321 1.10711 1.09861 1.10989 1.11862 1.13001 1.13798 1.15518 1.17827 1.17412 1.13032 1.0955 1.05271 1.04385 1.05597 1.08123 1.07532 1.08957 1.11734 1.0998 1.10096 1.12961 1.16263 1.20618 1.15366 1.1124 1.09778 1.07331 1.03659 1.03835 1.03281 1.043 1.04943 1.069 1.09244 1.09724 1.06891 1.0688 1.07946 1.08621 1.09709 1.17326 1.07674 1.11902 1.1284 1.19885 1.25838 1.197 1.14671 1.12523 1.10511 1.08584 1.03002 1.02879 1.06952 1.11508 1.06144 1.07399 1.09539 1.11034 1.26486 1.06428 1.04178 1.08973 1.13309 1.14203 1.11907 1.16892 1.22469 1.20185 1.11216 1.09079 1.06396 1.08894 1.01546 1.00517 1.03582 1.10753 1.06371 1.07935 1.09926 0.988781 1.08253 1.18854 1.25616 0.511582 1.13544 1.09805 1.09113 1.0752 1.07334 1.06171 1.12284 1.0114 1.06508 1.12622 1.13582 1.05365 1.06051 1.07488 1.0891 1.07577 1.08502 1.35634 1.03239 1.1333 1.35015 0.702618 1.25792 1.13925 1.07814 1.06294 1.07147 1.15668 1.18663 1.07147 1.15606 1.04987 1.08238 1.10869 1.01469 0.910888 1.00599 0.994749 1.07303 1.16261 1.23124 0.944942 0.899283 1.20056 1.09343 1.06626 1.06202 1.05801 1.06188 1.08703 1.1101 1.20941 1.15085 1.02853 1.05992 1.08789 1.11033 1.12728 1.09521 1.0053 0.904885 1.08375 0.951395 0.944065 0.948822 1.02117 1.1388 1.11791 1.08575 1.07383 1.06609 1.06269 1.07036 1.14044 1.23204 1.20048 1.16207 1.02897 1.11755 1.09521 0.941942 0.936607 0.957844 0.942066 0.947576 1.04603 1.09041 1.09976 1.07003 1.07171 1.07928 1.06715 1.07704 1.08711 1.09202 1.1611 1.22614 1.17913 0.82276 0.878231 1.05243 1.16797 1.1115 1.02356 0.954561 0.864532 0.945384 0.979295 1.06632 1.09891 1.0785 1.07563 1.06817 1.09019 1.08596 1.07535 1.08213 1.22552 0.662573 0.924645 1.09282 1.25535 1.02535 0.896671 0.889219 0.913977 0.945519 0.96412 0.991987 1.02967 1.07015 1.06183 1.06284 1.06839 1.10262 1.08716 1.01374 1.01041 1.26322 1.24405 1.15745 1.77984 0.916752 1.06589 1.02847 1.13378 1.02216 0.932863 0.90103 0.928216 0.972035 1.01609 1.04364 1.06186 1.04751 1.11821 1.11541 1.10759 1.10934 1.06151 0.979217 1.44704 1.02649 4.20413 1.09261 0.942708 1.34602 1.20248 0.939967 0.919018 0.959231 0.9909 1.02284 1.04589 1.04173 1.05669 1.04232 0.957436 1.1488 1.11482 1.08571 0.451678 1.58383 1.13017 1.20279 0.843058 0.921705 2.48618 1.37222 1.02516 1.15254 1.25164 0.895297 1.12026 0.932196 0.9667 0.956031 0.973477 0.976683 0.984814 1.00128 1.02225 1.03282 1.04499 1.15649 1.11941 1.12385 1.11532 1.06196 0.999623 0.942859 1.6254 1.08588 0.678983 0.313002 0.271623 0.48949 1.12855 1.27181 1.0754 1.05197 0.688875 0.652411 1.01178 0.999299 0.983242 0.97761 0.985208 1.00206 0.997686 1.01599 1.02444 1.0935 1.12877 1.10361 0.995021 1.20119 1.35489 0.891023 0.722338 0.761073 0.42582 0.338999 0.221809 1.02384 0.994961 1.07368 0.949864 0.79497 0.688671 0.824713 1.01178 0.98491 0.976174 0.980567 0.990734 1.00795 1.0032 1.03009 1.09099 1.11499 1.05326 0.957055 1.12488 1.15338 0.94469 0.831663 0.785042 0.774328 0.434952 0.455102 0.486764 0.400318 0.562933 0.758001 1.14995 1.00171 1.06851 0.989062 0.805421 0.75542 0.992992 1.01456 1.00516 0.997763 0.977232 0.96921 0.973969 0.983935 1.00432 1.05019 1.07251 1.08596 1.05524 1.0129 0.996981 1.06814 1.02044 1.01985 0.842716 0.746491 0.748947 0.729035 0.438265 0.441401 0.4572 0.562063 0.676514 1.02412 0.995664 0.898314 0.834838 0.781182 0.829186 0.85969 0.814338 1.03305 0.988175 0.968761 0.957825 0.960216 0.951564 0.966858 0.979006 1.00651 1.04332 1.02373 1.04782 1.0184 1.03792 0.930042 0.881023 0.795456 0.708448 0.728519 0.733262 0.723273 0.419708 0.436793 0.441911 0.464782 0.450489 0.534434 0.54543 0.502679 0.792493 1.02179 0.982342 0.935772 0.886897 0.82935 0.852099 0.799627 1.03237 0.973333 0.941949 0.943404 0.960096 0.954232 0.975091 0.994093 1.00096 1.0306 1.01079 0.992833 1.05488 0.939584 0.929984 0.853614 0.982645 0.681769 0.760095 0.741128 0.711375 0.702128 0.421318 0.442226 0.482297 0.471004 0.533216 0.531652 0.577511 0.680451 0.823262 0.992065 1.00959 0.937924 0.853676 0.838508 0.833984 0.72521 1.02307 0.95382 0.929637 0.937015 0.947367 0.969391 0.954369 0.971965 0.970207 1.03121 0.869231 1.10746 0.783718 0.784783 0.690961 0.702881 0.664136 0.681038 0.677237 0.65353 0.477793 0.422464 0.411457 0.509557 0.553524 0.606214 0.627022 0.653511 0.736056 0.986333 0.994634 0.940286 0.889451 0.846803 0.838904 0.8286 0.835398 0.826197 0.822684 0.851018 0.735529 0.770199 1.00858 0.977058 0.925522 0.910703 0.922813 0.930115 0.938884 0.936063 0.952692 0.913242 0.89155 0.777845 1.21047 0.977277 0.916433 0.807981 1.4291 0.618054 0.583544 0.642599 0.635327 0.652673 0.639086 0.635771 0.601263 0.569406 0.494869 0.647935 0.56506 0.655889 0.64025 0.748545 0.696328 0.677267 0.970524 1.03783 1.01864 0.866473 0.823161 0.825978 0.813115 0.821791 0.779448 0.928026 0.907799 0.917326 0.908912 0.922977 0.91151 0.925113 0.924585 0.866021 0.918899 0.231194 0.829426 1.09323 0.20826 0.378438 0.57331 0.614103 0.611603 0.630823 0.62402 0.622886 0.59251 0.715154 0.799245 0.993498 0.604265 0.728568 0.695321 0.718087 0.747396 0.883405 0.77551 0.755622 1.10914 1.15234 0.920372 0.76434 0.798328 0.79493 0.816313 0.817429 0.817235 0.803466 0.798549 0.903941 0.89919 0.900007 0.895982 0.915402 0.907881 0.910571 0.955853 0.878531 0.719222 0.577291 0.729764 0.859384 0.824334 0.451513 0.459237 0.467368 0.517864 0.584036 0.615151 0.62474 0.611436 0.614214 0.611953 0.600044 0.529166 0.632548 0.394686 1.14357 1.23325 0.889839 0.729144 0.756992 0.837588 0.877361 1.08361 0.896095 1.35208 1.04554 0.706841 0.759503 0.800876 0.81311 0.810976 0.812039 0.816462 0.823986 0.813149 0.802314 0.819794 0.846129 0.869964 0.891913 0.889595 0.886258 0.874007 0.940961 0.812763 0.729012 0.437983 0.595011 0.759303 0.699052 0.52238 0.489518 0.564948 0.597936 0.605131 0.602935 0.606249 0.58395 0.510262 0.493068 0.541292 0.497829 0.240172 0.381866 0.531592 0.831475 0.823452 0.923557 0.987473 1.03157 1.47279 1.40803 0.710981 0.639018 0.703932 0.728313 0.774535 0.803869 0.813067 0.820282 0.818327 0.844177 0.86549 0.880272 0.868488 0.877604 0.865165 0.869073 0.851656 0.848994 0.804001 1.04284 0.898063 0.577345 0.699504 0.718726 0.505154 0.513536 0.519082 0.571248 0.590438 0.585363 0.595239 0.589251 0.595869 0.594684 0.579516 0.562688 0.539474 0.517901 0.48689 0.49785 0.41938 0.256945 0.733545 1.05484 0.394871 0.54506 0.85013 0.970727 1.04232 1.12776 0.243231 1.02627 1.14055 0.915798 0.865964 0.752226 0.757465 0.773376 0.786885 0.809622 0.817829 0.820032 0.827257 0.848126 0.856858 0.856256 0.85069 0.826639 0.885113 0.40509 0.785878 0.677178 0.673431 0.723312 0.660717 0.548507 0.523087 0.51602 0.534554 0.564992 0.573605 0.565436 0.575711 0.586189 0.58648 0.571755 0.556237 0.534985 0.502191 0.547341 0.502149 0.466098 0.47547 0.447168 0.40495 0.341281 0.494102 0.778924 0.500121 0.872521 0.869714 0.571335 0.754015 0.336335 0.875688 0.836403 0.759993 0.78446 0.799051 0.812994 0.817293 0.821967 0.82098 0.821304 0.822939 0.8236 0.83356 0.830121 0.842835 0.845938 0.84407 0.830777 0.83449 0.863648 0.751543 0.564037 0.677675 0.722433 0.731523 0.717569 0.648731 0.562775 0.525175 0.528388 0.551135 0.561927 0.576525 0.575531 0.578035 0.549599 0.526285 0.465324 0.542711 0.546496 0.528607 0.474956 0.441888 0.389638 0.429948 0.629558 0.552629 1.01915 0.727398 0.726052 0.551386 0.399006 0.737737 0.795882 0.803127 0.782032 0.778106 0.800078 0.823809 0.821729 0.818887 0.820435 0.82237 0.834243 0.825012 0.835332 0.820975 0.82847 0.81542 0.785383 0.544805 0.629158 0.681444 0.739372 0.729859 0.678166 0.559944 0.550837 0.553297 0.588083 0.597797 0.589374 0.567986 0.536415 0.560249 0.571362 0.566379 0.517477 0.493361 0.457167 0.430446 0.507715 0.521753 0.535478 0.511159 0.45949 0.43466 0.426231 0.408018 0.451144 0.502845 0.504915 0.350719 1.16089 0.628792 0.721638 0.521552 0.238882 0.592276 0.708445 0.754154 0.78662 0.746043 0.762364 0.780791 0.788535 0.80844 0.823679 0.825499 0.817116 0.813472 0.81279 0.813254 0.81326 0.805068 0.779119 0.725807 0.702377 0.609214 0.655498 0.659651 0.755741 0.764728 0.695816 0.508006 0.527687 0.609727 0.686806 0.552217 0.542183 0.564423 0.568892 0.567062 0.546259 0.50808 0.485744 0.41988 0.395762 0.354515 0.471986 0.498912 0.528614 0.48269 0.439426 0.473003 0.385095 0.41486 0.47092 0.159726 0.607442 0.803724 0.630154 0.504599 0.338743 0.660533 0.723242 0.726284 0.734147 0.699192 0.731866 0.782583 0.842538 0.833186 0.826452 0.819232 0.808086 0.809233 0.79945 0.805483 0.795726 0.803267 0.794501 0.804348 0.792697 0.798197 0.769487 0.774347 0.734282 0.666841 0.628175 0.650618 0.661439 0.683486 0.713633 0.743118 0.852462 0.78962 0.639546 0.679384 0.649684 0.670507 0.501624 0.526541 0.498612 0.526913 0.561756 0.573262 0.552188 0.497312 0.480615 0.449634 0.423746 0.385567 0.330464 0.44184 0.365958 0.473179 0.449037 0.503629 0.508029 0.478746 0.456391 0.50347 0.504993 0.445842 0.400637 0.458391 0.393825 0.386707 0.488349 0.438515 0.666854 0.546345 0.421748 0.331307 0.434392 1.29764 0.676531 0.706052 0.697967 0.676769 0.787475 0.814215 0.842677 0.811324 0.795179 0.789184 0.786182 0.784937 0.771513 0.737214 0.686868 0.645806 0.646159 0.642771 0.696095 0.654063 0.728857 0.949152 1.27699 0.979273 0.891465 0.839012 0.680194 0.453344 0.537901 0.563653 0.592137 0.575027 0.482709 0.459425 0.403623 0.352696 0.295921 0.371289 0.358851 0.308071 0.400263 0.503948 0.477848 0.47349 0.48311 0.428936 0.39403 0.376083 0.475135 0.575014 0.56327 0.413831 0.414786 0.557433 0.547353 0.339701 0.447544 1.1135 0.575508 0.604298 0.64764 0.624133 0.761988 0.799653 0.873427 0.857063 0.82296 0.793596 0.783468 0.779258 0.777282 0.771728 0.741088 0.707323 0.707093 0.686609 0.617296 0.640982 0.633002 0.376925 0.705493 0.485953 0.507684 0.523354 0.656244 0.485294 0.500374 0.460909 0.354873 0.302403 0.276993 0.259181 0.231011 0.438777 0.322369 0.356834 0.233243 0.496812 0.482334 0.399028 0.384125 0.342649 0.45334 0.677073 0.294179 0.500721 0.37921 0.412743 0.496022 0.506003 0.508414 0.597596 0.792775 0.708906 0.542044 0.580537 0.612966 0.963045 0.804259 0.795603 0.778894 0.779641 0.768568 0.773037 0.764112 0.770549 0.763848 0.768626 0.755615 0.749255 0.716587 0.682025 0.659877 0.640091 0.627981 0.583664 0.448563 0.540101 1.16109 0.810547 0.685305 0.343951 0.285041 0.676437 0.350516 0.419391 0.470099 0.502456 0.570281 0.539987 0.493747 0.475333 0.424417 0.391452 0.30835 0.254347 0.196366 0.463703 0.474706 0.441249 0.513215 0.368491 0.516235 0.52275 0.400382 0.365685 0.348933 0.425271 0.678566 0.241433 0.453238 0.402449 0.45009 0.514908 0.518398 0.662706 0.637346 0.601843 0.56271 0.573653 0.563965 0.638507 0.735717 0.844314 0.781509 0.768438 0.758674 0.757526 0.758034 0.734146 0.676181 0.66447 0.67915 0.664019 0.777389 0.622011 0.537943 0.513247 0.810478 0.648276 0.025024 0.234327 0.25771 0.324782 0.540536 0.492044 0.395288 0.422375 0.458941 0.501015 0.213671 0.463644 0.472513 0.475176 0.307938 0.28635 0.221319 0.212991 0.167251 0.402667 0.438984 0.441602 0.456034 0.488495 0.724576 1.04534 0.714971 0.327454 0.356031 0.391975 0.365409 0.418139 0.456001 0.3096 0.191425 0.408935 0.602323 0.633434 0.648618 0.598014 0.586708 0.589891 0.566836 0.65902 0.775004 1.13119 0.844355 0.791087 0.777661 0.75709 0.751006 0.754106 0.749111 0.697395 0.649404 0.665161 0.705877 0.699352 0.655315 0.57399 0.542385 0.613162 0.638542 0.391428 0.1024 0.150755 0.316731 0.439913 0.468325 0.44934 0.422336 0.443502 0.476819 0.396552 0.336239 0.438586 0.453817 0.503491 0.309499 0.274198 0.194943 0.177814 0.144831 0.131963 0.0883182 0.36113 0.410637 0.384343 0.364564 0.3794 0.878737 0.597885 0.401768 0.394671 0.353705 0.396881 0.424641 0.261676 0.0465957 0.158508 0.317409 0.353631 0.449566 0.467877 0.504508 0.545604 0.597465 0.634508 0.640172 0.614982 0.607526 0.402124 0.402741 0.531751 0.800355 0.83923 0.802418 0.787605 0.763576 0.747628 0.74636 0.740545 0.747089 0.747156 0.753356 0.754447 0.734571 0.689173 0.646663 0.6782 0.787253 0.749925 0.650148 0.586925 0.58001 0.539284 0.458532 0.35062 0.195662 0.258494 0.388566 0.430732 0.438075 0.436744 0.433885 0.446434 0.417013 0.406409 0.378368 0.414377 0.567802 0.235112 0.224419 0.215316 0.191245 0.132638 0.0645229 0.306757 0.374347 0.357733 0.368137 0.322535 0.286375 0.333917 0.655645 0.521547 0.481106 0.474903 0.402507 0.403844 0.254329 0.106745 0.188369 0.234049 0.385865 0.437862 0.499219 0.519748 0.558997 0.604321 0.634375 0.626932 0.609581 0.598173 0.547763 0.4717 0.695404 0.833325 0.83546 0.757471 0.736892 0.739199 0.751463 0.7606 0.609132 0.677826 0.716573 0.827537 0.762513 0.710823 0.675487 0.553779 0.481359 0.388626 0.34799 0.2937 0.350616 0.404441 0.423752 0.429905 0.433904 0.433397 0.416637 0.410978 0.40494 0.381226 0.40216 0.43084 0.493902 0.455452 0.307053 0.258934 0.197909 0.178339 0.150046 0.121573 0.0371626 0.129476 0.229064 0.270986 0.342236 0.336782 0.261393 0.115478 0.43967 0.787097 0.841243 0.561264 0.673935 0.467407 0.413306 0.182432 0.155473 0.133584 0.27329 0.391127 0.470651 0.512813 0.534169 0.559376 0.59226 0.614158 0.617943 0.620267 0.600888 0.581352 0.574422 0.455807 0.400188 0.698883 0.751489 0.830644 0.795043 0.740948 0.739669 0.734795 0.741205 0.758211 0.786317 0.188396 0.669018 0.675245 0.70392 0.884745 0.821577 0.635995 0.491225 0.431756 0.418582 0.412965 0.417838 0.395937 0.385721 0.422294 0.469309 0.288165 0.254559 0.194484 0.119418 0.0870836 0.0429227 0.016014 0.0839031 0.148803 0.301015 0.267 0.117215 0.305198 0.528873 1.05397 0.814612 0.971966 0.59993 0.386086 0.338878 0.137441 0.184281 0.343852 0.421343 0.483084 0.527655 0.550238 0.567233 0.583409 0.59351 0.602101 0.60805 0.607229 0.588019 0.586851 0.655659 0.63895 0.608738 0.559673 0.677522 0.754774 0.862106 0.78255 0.7437 0.733843 0.73324 0.735541 0.737689 0.748797 0.766593 0.76736 0.698884 0.71947 0.798248 0.369092 0.467813 0.422115 0.376947 0.373232 0.36428 0.392352 0.414701 0.425644 0.431646 0.412574 0.409442 0.395532 0.400341 0.442656 0.22722 0.278326 0.2308 0.183483 0.100852 0.0490281 0.0112826 0.0361817 0.149638 0.122988 0.246478 0.275989 0.307513 0.30939 0.218546 0.148205 0.269687 0.599909 0.716689 0.352123 1.11816 0.715672 0.453386 0.333549 0.236681 0.578525 0.586119 0.587061 0.589519 0.59675 0.598921 0.595973 0.627583 0.63599 0.613007 0.579464 0.588693 0.730183 0.929214 0.685107 0.7334 0.732045 0.734842 0.752916 0.861934 0.727797 0.74763 0.758117 0.80814 0.6554 0.466433 0.377232 0.369251 0.414153 0.416844 0.402993 0.4025 0.40286 0.415713 0.427497 0.436608 0.439119 0.430472 0.416473 0.395575 0.401701 0.418832 0.432554 0.248762 0.273087 0.274705 0.264282 0.224491 0.221615 0.13134 0.122605 0.0866553 0.0625646 0.069712 0.106888 0.285137 0.224173 0.292292 0.383965 0.488428 0.376778 0.0454059 0.577352 0.621811 0.246642 0.387253 0.397636 0.3989 0.371933 0.236096 0.178397 0.464111 0.491047 0.507421 0.534014 0.564517 0.58874 0.586829 0.58647 0.590334 0.593045 0.593662 0.597952 0.613157 0.592423 0.598619 0.646219 0.627836 0.771092 0.588758 0.697009 0.759113 0.716482 0.732343 0.739537 0.735475 0.85709 0.822034 0.793698 0.784549 0.782713 0.738272 0.682922 0.549309 0.435269 0.394236 0.395425 0.418502 0.427874 0.424901 0.424588 0.42792 0.435904 0.445631 0.452406 0.450352 0.437997 0.418089 0.407003 0.387397 0.401064 0.416349 0.349246 0.283998 0.279984 0.258436 0.14133 0.144872 0.0918422 0.0965115 0.0672829 0.0951587 0.213429 0.0982447 0.324355 0.465364 0.605305 0.267235 0.530979 0.396453 0.819882 0.25366 0.867011 0.620407 0.410776 0.331409 0.383369 0.0884685 0.685205 0.580914 0.560485 0.55626 0.573337 0.585666 0.589548 0.581304 0.581187 0.586054 0.591637 0.597297 0.610824 0.617152 0.734255 0.761302 0.864027 0.846099 0.840842 0.839541 0.68788 0.6691 0.600725 0.512187 0.442774 0.41547 0.42096 0.432158 0.438683 0.442174 0.444894 0.450983 0.458668 0.466226 0.471262 0.467465 0.450583 0.412466 0.3894 0.390465 0.36283 0.325857 0.293258 0.292255 0.256073 0.153247 0.160638 0.154909 0.0774849 0.0914264 0.108683 0.100306 0.117577 0.222593 0.264215 0.439936 0.61962 0.494296 0.226777 0.40002 0.410359 0.667474 0.849831 0.177747 0.644062 0.713205 0.450207 0.296134 0.411311 1.11772 0.890419 0.646876 0.578419 0.565079 0.564038 0.579577 0.588117 0.590054 0.586691 0.575746 0.578884 0.584921 0.591193 0.598988 0.60404 0.603332 0.595557 0.596333 0.614002 0.611135 0.670025 0.663775 0.64894 0.692766 0.6866 0.731499 0.739103 0.803744 0.847945 0.859173 0.877913 0.82751 0.624909 0.648725 0.618504 0.565831 0.509569 0.465846 0.441589 0.440479 0.447686 0.456854 0.46219 0.466453 0.472841 0.480035 0.487108 0.492702 0.489169 0.466907 0.386932 0.355629 0.375079 0.357696 0.338799 0.316567 0.307344 0.288382 0.2403 0.191494 0.18844 0.112282 0.064474 0.104298 0.139223 0.210441 0.260365 0.348994 0.501907 0.953493 0.26845 0.591839 0.595628 0.679049 1.009 0.114615 0.528564 0.594223 0.468295 0.302111 0.297433 1.03399 0.616876 0.548452 0.537786 0.542686 0.556101 0.580298 0.58999 0.585917 0.577177 0.58061 0.586015 0.590395 0.593728 0.5939 0.592412 0.591739 0.597875 0.605487 0.63291 0.642775 0.655421 0.66217 0.679776 0.69352 0.698012 0.731961 0.774854 0.813497 0.853594 0.892673 0.594812 0.622702 0.62128 0.596342 0.560693 0.49903 0.506508 0.513886 0.51499 0.490349 0.31299 0.341736 0.36361 0.336821 0.325988 0.314661 0.285931 0.233781 0.228644 0.115959 0.0342049 0.0456135 0.120162 0.146657 0.157198 0.202076 0.176499 0.227912 0.222287 0.320282 0.442704 0.792737 0.998458 0.42687 0.438529 0.491247 0.613439 0.955959 0.325031 0.530184 0.462741 0.411786 0.411948 0.443315 0.588465 0.593514 0.573625 0.572915 0.575923 0.587822 0.588118 0.587506 0.587367 0.590201 0.598075 0.614072 0.627458 0.640629 0.65419 0.664107 0.680855 0.69096 0.708683 0.745875 0.784671 0.890568 0.936014 0.569472 0.606081 0.615194 0.524617 0.494524 0.461273 0.456668 0.467962 0.476783 0.482604 0.487212 0.492948 0.53259 0.542442 0.535786 0.320041 0.333471 0.344773 0.347347 0.344822 0.328903 0.3099 0.273673 0.332883 0.322832 0.139126 0.263654 0.16945 0.176946 0.16368 0.162141 0.212029 0.170244 0.241499 0.305019 0.467467 0.721135 0.784629 0.686306 0.146724 0.343424 0.51087 0.810517 0.832252 0.460833 0.481695 0.451115 0.458452 0.352481 0.439572 0.832683 0.759516 0.576508 0.530544 0.52318 0.53697 0.571734 0.570579 0.573679 0.578634 0.583137 0.58586 0.584902 0.587462 0.593237 0.60411 0.616254 0.629616 0.643618 0.656508 0.669422 0.828562 0.884824 0.959344 0.556132 0.609196 0.590552 0.567714 0.54657 0.524827 0.464157 0.477719 0.487716 0.493646 0.49914 0.504043 0.508691 0.513464 0.522419 0.555421 0.632225 0.326445 0.328939 0.341854 0.348217 0.353822 0.334899 0.311728 0.299344 0.388836 0.0880931 0.28278 0.215574 0.179754 0.181221 0.18507 0.163755 0.169009 0.169264 0.315815 0.426512 0.944741 0.864178 0.738555 0.642659 0.474663 0.39269 0.458186 1.00443 0.759276 0.59027 0.530494 0.49993 0.427597 0.445824 0.643372 0.728182 0.672226 0.575311 0.529934 0.521616 0.572634 0.590835 0.597578 0.604558 0.572906 0.577873 0.58297 0.585783 0.585343 0.585595 0.585362 0.682107 0.697335 0.722241 0.757935 0.802759 0.865524 0.960434 0.589726 0.608929 0.611472 0.604311 0.59181 0.579393 0.569306 0.561517 0.471002 0.490993 0.501058 0.507512 0.513404 0.515974 0.516209 0.522163 0.530534 0.541206 0.701899 0.326961 0.328393 0.342725 0.354994 0.365503 0.349178 0.342271 0.348605 0.506812 0.309813 0.275321 0.24547 0.18969 0.184565 0.174608 0.197302 0.204806 0.961377 0.90083 0.68229 0.648479 0.5471 0.477239 0.677293 0.872547 0.729189 0.618496 0.522464 0.485657 0.488117 0.558167 0.653091 0.672161 0.628931 0.575046 0.523086 0.598395 0.599246 0.601359 0.606073 0.610969 0.578283 0.584072 0.587224 0.587196 0.585414 0.584909 0.58509 0.587028 0.590881 0.598965 0.609715 0.621454 0.635728 0.649661 0.662301 0.675382 0.690312 0.709135 0.736215 0.777749 0.840604 0.940415 0.55205 0.579615 0.600396 0.610247 0.609746 0.603631 0.595037 0.586858 0.582151 0.600858 0.482894 0.500543 0.510636 0.51812 0.527122 0.518656 0.521739 0.526065 0.532428 0.54405 0.58868 0.742349 0.328517 0.340307 0.357435 0.370222 0.385046 0.392524 0.415556 0.332875 0.303436 0.360335 0.153199 0.155229 0.167026 0.844603 1.01722 0.212791 0.676485 0.660793 0.484402 0.550416 0.612679 0.626367 0.521624 0.459056 0.494955 0.469792 0.487302 0.529877 0.60552 0.643507 0.655474 0.621798 0.562281 0.632903 0.60474 0.602411 0.606853 0.612538 0.615742 0.587379 0.590259 0.590848 0.588484 0.585851 0.585011 0.586618 0.590679 0.596957 0.605385 0.616822 0.630123 0.643425 0.657027 0.671485 0.687565 0.703858 0.724043 0.75486 0.809489 0.902437 0.553034 0.574857 0.593658 0.606262 0.611253 0.609822 0.604429 0.597485 0.592778 0.598436 0.522515 0.525372 0.526639 0.528112 0.53447 0.559041 0.619288 0.354729 0.37431 0.385672 0.384996 0.425305 0.445147 0.471618 0.581807 0.2453 0.184942 0.238791 0.476621 0.28109 0.612996 0.52596 0.525698 0.544787 0.455222 0.488284 0.425331 0.444809 0.44255 0.500679 0.507928 0.578194 0.624169 0.605983 0.608221 0.61411 0.619253 0.621394 0.592889 0.588754 0.586145 0.586093 0.589277 0.595762 0.603875 0.613781 0.625974 0.638977 0.652938 0.668829 0.685525 0.702603 0.718964 0.741274 0.551524 0.573266 0.589673 0.601861 0.609663 0.612549 0.626055 0.499779 0.508592 0.519527 0.531504 0.5311 0.529921 0.531324 0.5437 0.578731 0.645439 0.757488 0.339115 0.37563 0.400526 0.414599 0.416634 0.460176 0.387572 0.363688 0.262927 0.21467 0.654393 0.615396 0.6022 0.46273 0.435768 0.40177 0.38427 0.405001 0.352258 0.368173 0.440863 0.539714 0.581065 0.617591 0.660374 0.659597 0.587325 0.665732 0.620005 0.596162 0.595578 0.60205 0.611958 0.622888 0.635211 0.771626 0.846267 0.552631 0.568608 0.611014 0.606447 0.601762 0.601959 0.612934 0.63909 0.521946 0.516392 0.534 0.518358 0.530271 0.534054 0.539059 0.558014 0.598568 0.663115 0.758595 0.358209 0.427115 0.442955 0.445917 0.462732 0.447808 0.387081 0.69606 0.252753 0.278912 0.221591 0.555272 0.34861 0.617895 0.56718 0.365014 0.442097 0.357326 0.32549 0.282124 0.259078 0.497877 0.592319 0.601949 0.651842 0.673687 0.617974 0.689912 0.646279 0.621769 0.615019 0.617998 0.623372 0.62668 0.625475 0.60374 0.59962 0.593426 0.588404 0.586565 0.588574 0.594046 0.649611 0.665317 0.682066 0.699556 0.715072 0.728157 0.756297 0.754784 0.586072 0.598259 0.606698 0.612283 0.614267 0.612886 0.610047 0.608808 0.611665 0.622651 0.643162 0.549438 0.528269 0.513917 0.533212 0.538207 0.535745 0.550137 0.572125 0.61813 0.676711 0.745513 0.369955 0.401309 0.456637 0.470108 0.48785 0.477621 0.471546 0.658348 0.148232 0.630547 0.423683 0.356323 0.298546 0.252803 0.192242 0.202968 0.596515 0.629528 0.626419 0.644789 0.671541 0.621442 0.703409 0.669675 0.644779 0.630104 0.627163 0.629841 0.633099 0.633107 0.628463 0.611101 0.601042 0.592816 0.587368 0.58802 0.593293 0.601447 0.610102 0.620128 0.632091 0.645697 0.660943 0.676843 0.691967 0.706579 0.7183 0.720734 0.695501 0.541963 0.557535 0.577195 0.592745 0.602972 0.610171 0.614672 0.616284 0.615819 0.615197 0.615781 0.619921 0.629024 0.641169 0.582434 0.501748 0.537177 0.544562 0.543376 0.540187 0.541175 0.584123 0.638009 0.675446 0.731012 0.393566 0.431049 0.513277 0.502698 0.476609 0.143348 0.613424 0.713483 0.424736 0.44283 0.409199 0.334305 0.267273 0.222381 0.620719 0.651568 0.646841 0.660831 0.612129 0.699196 0.686262 0.666198 0.650748 0.641741 0.640004 0.641278 0.641595 0.638629 0.631652 0.613142 0.601478 0.59183 0.586247 0.59181 0.602579 0.610134 0.617948 0.628869 0.642 0.656161 0.670171 0.683556 0.696858 0.706001 0.702422 0.668397 0.590821 0.548455 0.571645 0.585914 0.5975 0.606728 0.613152 0.617092 0.619096 0.619958 0.620604 0.622591 0.626548 0.6316 0.640516 0.583118 0.534737 0.552279 0.550434 0.547827 0.547064 0.55013 0.560961 0.639727 0.677064 0.72012 0.423896 0.461648 0.489546 0.50348 0.567041 0.647429 0.678394 0.755318 0.480792 0.4464 0.410181 0.346222 0.287431 0.194317 0.6625 0.672424 0.660298 0.642965 0.645672 0.642507 0.689496 0.647989 0.642473 0.630842 0.615353 0.60256 0.59076 0.584595 0.604747 0.612417 0.617039 0.626344 0.63832 0.65161 0.664743 0.676455 0.68588 0.692694 0.690731 0.66624 0.608355 0.570625 0.570697 0.581818 0.591651 0.601808 0.610533 0.559779 0.556653 0.555352 0.556718 0.560264 0.571517 0.595069 0.674482 0.715376 0.464414 0.502204 0.54025 0.533057 0.496887 0.457419 0.424228 0.254611 0.832838 0.745244 0.705558 0.682592 0.655565 0.692918 0.6826 0.668906 0.658033 0.652599 0.651021 0.650427 0.616418 0.620305 0.623024 0.625048 0.62726 0.6302 0.633516 0.637523 0.646697 0.5953 0.57272 0.571805 0.566759 0.566246 0.569781 0.580015 0.594593 0.643386 0.718567 0.506909 0.558256 0.563123 0.520369 0.607541 0.671814 0.791631 0.38642 0.375345 0.920795 0.833576 0.771261 0.714144 0.647943 0.649007 0.668017 0.688524 0.689938 0.681086 0.671516 0.664631 0.661118 0.659005 0.656713 0.652119 0.643857 0.63242 0.61793 0.602572 0.586662 0.618162 0.616686 0.624806 0.635815 0.648254 0.660728 0.671444 0.679129 0.681582 0.679313 0.667903 0.626526 0.594674 0.583189 0.580486 0.587499 0.597553 0.607414 0.614824 0.620321 0.624824 0.628663 0.632296 0.636149 0.640188 0.644486 0.648441 0.630185 0.595399 0.580562 0.57441 0.568248 0.567024 0.569729 0.576297 0.585316 0.600091 0.644179 0.67575 0.591029 0.549339 0.630442 0.954379 0.987348 0.944138 0.513236 0.480317 0.446347 0.447734 0.953148 0.900392 0.829043 0.679954 0.651749 0.65237 0.663883 0.678169 0.688045 0.687023 0.681436 0.674576 0.669836 0.667156 0.664634 0.660975 0.655408 0.646888 0.634961 0.619209 0.599334 0.571727 0.641236 0.618143 0.625491 0.635336 0.646606 0.658408 0.668168 0.675205 0.678189 0.673414 0.663639 0.640934 0.619902 0.59601 0.587419 0.587806 0.595223 0.604694 0.612854 0.619435 0.625407 0.631198 0.636827 0.642313 0.647402 0.651861 0.654579 0.646933 0.625554 0.597768 0.583427 0.582748 0.582527 0.579139 0.574389 0.581237 0.590914 0.61025 0.64375 0.688165 0.724373 0.566861 0.645222 0.807428 0.557767 0.519369 0.501327 0.948628 0.912421 0.759296 0.708419 0.672209 0.642778 0.669811 0.674734 0.685592 0.688311 0.686175 0.681591 0.677004 0.67396 0.671663 0.668833 0.66466 0.658778 0.649691 0.637363 0.617675 0.588229 0.663127 0.630658 0.638442 0.647863 0.657779 0.666678 0.673562 0.67637 0.674395 0.664989 0.649307 0.632451 0.614975 0.600563 0.595401 0.597052 0.602842 0.610426 0.61755 0.624607 0.632171 0.640125 0.647841 0.590403 0.593232 0.595661 0.594061 0.585368 0.57224 0.57038 0.602517 0.606622 0.676648 0.700387 0.740502 0.612203 0.571747 1.03935 0.963092 0.946235 0.596268 0.550535 0.985476 0.893397 0.808831 0.746075 0.701028 0.661189 0.655803 0.572359 0.637649 0.654066 0.659024 0.661654 0.660361 0.651693 0.627818 0.606898 0.597766 0.583048 0.574766 0.569089 0.582961 0.697311 0.718626 0.754274 0.586324 0.660112 0.808742 0.89468 0.800116 0.80148 0.699122 0.911719 0.872218 0.86323 0.789407 0.741787 0.680227 0.687827 0.688955 0.687712 0.685049 0.682027 0.679059 0.677232 0.67466 0.671466 0.666958 0.661519 0.652545 0.636834 0.612783 0.677735 0.644577 0.652887 0.660852 0.665844 0.672554 0.676093 0.675194 0.668523 0.656647 0.642754 0.62884 0.618163 0.611151 0.606145 0.605584 0.609369 0.614741 0.622505 0.632329 0.642485 0.652046 0.65969 0.664958 0.670018 0.672355 0.671348 0.659637 0.614244 0.598009 0.605593 0.586706 0.576527 0.565621 0.591077 0.594476 0.673761 0.735351 0.724442 0.691321 0.744072 0.763138 0.819058 0.806867 0.607831 0.890537 0.911133 0.874539 0.803656 0.814386 0.692833 0.68197 0.649868 0.697269 0.691875 0.689136 0.686116 0.684257 0.683208 0.680993 0.678519 0.675893 0.673329 0.669372 0.661896 0.652089 0.636868 0.606207 0.672366 0.651584 0.658919 0.665051 0.666941 0.670175 0.67309 0.675267 0.671157 0.66258 0.652403 0.64074 0.63262 0.625302 0.619162 0.618326 0.618319 0.617626 0.623396 0.634414 0.646102 0.657224 0.665497 0.672653 0.680143 0.684788 0.686927 0.686982 0.638501 0.625752 0.61138 0.621546 0.61383 0.600117 0.572867 0.575727 0.573772 0.681916 0.710942 0.702029 0.788899 0.667269 0.708457 0.810444 0.773304 0.801306 0.811034 0.758511 0.78668 0.738931 0.712062 0.672156 0.661746 0.697892 0.692709 0.687456 0.685075 0.685731 0.683959 0.681346 0.67903 0.677235 0.674375 0.668807 0.660334 0.652782 0.643412 0.654439 0.655928 0.665916 0.666738 0.66838 0.667414 0.675277 0.670946 0.671277 0.668917 0.662337 0.653088 0.644131 0.634817 0.627915 0.628636 0.631184 0.636839 0.641808 0.646965 0.653436 0.665303 0.677674 0.685002 0.690078 0.696453 0.701774 0.705505 0.659846 0.653309 0.643054 0.62616 0.641346 0.614722 0.601117 0.588946 0.548389 0.699223 0.722828 0.697244 0.717914 0.744607 0.767522 0.757663 0.809674 0.733528 0.705554 0.83392 0.763255 0.816027 0.787765 0.752389 0.695763 0.685327 0.648819 0.661708 0.651208 0.680985 0.669944 0.654892 0.676802 0.676913 0.667721 0.65624 0.6442 0.637655 0.638095 0.637524 0.662087 0.623643 0.606303 0.613075 0.587058 0.567384 0.855838 0.862849 0.909703 0.933068 0.818197 0.804822 0.855986 0.628053 0.809812 0.729005 0.760519 0.766136 0.751201 0.80952 0.794328 0.698192 0.69053 0.685614 0.688348 0.686056 0.683922 0.68106 0.678809 0.677312 0.673428 0.666836 0.649668 0.680769 0.673931 0.676641 0.67029 0.667099 0.664488 0.64486 0.66367 0.674324 0.677549 0.681112 0.693082 0.70019 0.704304 0.703274 0.707176 0.714028 0.686559 0.655627 0.667759 0.659641 0.635217 0.617593 0.658267 0.730215 0.749561 0.822849 0.892561 0.803704 0.874916 0.776915 0.729758 0.727579 0.756917 0.75399 0.759882 0.733366 0.706763 0.667919 0.643815 0.692627 0.690822 0.690096 0.688002 0.686008 0.683012 0.679304 0.678207 0.675674 0.66893 0.670745 0.654265 0.679678 0.677573 0.699631 0.709433 0.69014 0.668304 0.687855 0.672104 0.680574 0.678111 0.673572 0.670757 0.663216 0.653404 0.651344 0.649583 0.648069 0.6531 0.670235 0.683861 0.70508 0.709704 0.71105 0.715484 0.722344 0.717509 0.710786 0.715587 0.6986 0.676166 0.664264 0.68402 0.70503 0.624743 0.61648 0.89234 0.772437 0.744856 0.809488 0.858183 0.866394 0.851544 0.909446 0.452607 0.912814 0.854301 0.789972 0.747241 0.742768 0.755799 0.753851 0.626385 0.825531 0.756906 0.7548 0.72986 0.744242 0.749418 0.693096 0.695816 0.689896 0.687933 0.684401 0.680132 0.678081 0.677055 0.667488 0.669429 0.663068 0.679118 0.679129 0.660515 0.727445 0.689242 0.695951 0.67863 0.675865 0.681557 0.679984 0.67789 0.670002 0.662911 0.660244 0.654447 0.658605 0.669662 0.668729 0.682234 0.721884 0.730858 0.732413 0.736588 0.746404 0.74473 0.742183 0.723183 0.70408 0.676299 0.685583 0.680488 0.729856 0.817153 0.756028 0.696145 0.696614 0.876793 0.880138 0.732555 0.774756 0.796772 0.798081 0.779484 0.822083 0.720528 0.892328 0.893832 0.893832 0.894234 0.894137 0.873909 0.683088 0.76107 0.734377 0.685625 0.713729 0.891528 0.787616 0.799651 0.851541 0.893832 0.893832 0.873781 0.76227 0.750554 0.753957 0.790504 0.686907 0.794465 0.783613 0.753873 0.771438 0.772204 0.706212 0.70296 0.69685 0.691069 0.685449 0.679839 0.676494 0.676448 0.666414 0.668227 0.659127 0.69351 0.876819 0.639855 0.653961 0.844358 0.696526 0.681702 0.68408 0.679369 0.682229 0.676966 0.668919 0.665812 0.662659 0.662819 0.677453 0.679776 0.714307 0.71905 0.739503 0.750831 0.761716 0.770218 0.768811 0.759694 0.752446 0.711988 0.657902 0.690763 0.704342 0.729892 0.760246 0.755756 0.89764 0.85992 0.753925 0.729058 0.76941 0.782399 0.802644 0.894445 0.89467 0.897448 0.897869 0.879782 0.797617 0.785637 0.787423 0.807539 0.693741 0.869236 0.7953 0.80949 0.804975 0.798802 0.803364 0.775517 0.764393 0.764585 0.76393 0.76429 0.764205 0.765978 0.770207 0.764674 0.771417 0.764135 0.820271 0.705062 0.887608 0.745479 0.775169 0.804551 0.883609 0.837727 0.861827 0.816972 0.869128 0.82983 0.836566 0.834581 0.836639 0.829145 0.800618 0.816237 0.762119 0.73273 0.754628 0.764513 0.770909 0.770334 0.77558 0.784052 0.78017 0.753366 0.835343 0.83807 0.831936 0.820736 0.815444 0.832095 0.819246 0.889809 0.892349 0.907039 0.773613 0.826936 0.859164 0.855971 0.856531 0.870362 0.867377 0.913624 0.903968 0.903883 0.895949 0.896278 0.900859 0.818191 0.804491 0.858031 0.89391 0.893832 0.893832 0.900696 0.883771 0.817537 0.807277 0.799999 0.809916 0.743119 0.905391 0.83778 0.870163 0.891121 0.88761 0.892238 0.8804 0.870559 0.870717 0.870141 0.870225 0.869688 0.870575 0.873435 0.86742 0.874317 0.868341 0.866942 0.935501 0.827929 0.761391 0.884696 0.892971 0.863196 0.89268 0.864037 0.870417 0.866625 0.87461 0.867808 0.893638 0.859043 0.854143 0.788414 0.807893 0.804494 0.806376 0.807881 0.816552 0.819469 0.819025 0.803683 0.86441 0.867092 0.86452 0.855985 0.851869 0.860772 0.854069 0.897629 0.893576 0.905576 0.817601 0.888372 0.896071 0.892875 0.902356 0.898541 0.886659 0.893838 0.893833 0.893865 0.896952 0.88344 0.833651 0.824181 0.821053 0.842502 0.79328 0.910712 0.875646 0.890665 0.899692 0.901271 0.905223 0.897118 0.89126 0.891427 0.892198 0.891849 0.891741 0.890202 0.892042 0.886678 0.893972 0.891741 0.890498 0.854389 0.893832 0.870035 0.744091 0.808649 0.868495 0.859845 0.886711 0.878667 0.890471 0.876198 0.880779 0.873513 0.878161 0.876608 0.893337 0.872131 0.873741 0.819703 0.83287 0.828244 0.835654 0.836165 0.842504 0.84624 0.844816 0.830521 0.868029 0.867609 0.867171 0.8608 0.859357 0.865796 0.862454 0.894108 0.893766 0.894269 0.874719 0.894693 0.885788 0.88942 0.898669 0.895266 0.888639 0.894706 0.89407 0.893972 0.893837 0.893832 0.893861 0.895384 0.884897 0.85155 0.834485 0.824104 0.83498 0.796116 0.894612 0.869094 0.885416 0.894512 0.898514 0.902857 0.896093 0.892906 0.892483 0.893463 0.892537 0.892735 0.891044 0.891905 0.886868 0.893838 0.893492 0.892989 0.861638 0.889612 0.894038 0.811395 0.830542 0.874503 0.873537 0.889597 0.883727 0.892061 0.882059 0.882597 0.87784 0.884609 0.880308 0.893654 0.877642 0.883752 0.840603 0.853901 0.848221 0.854811 0.85104 0.855516 0.861011 0.864538 0.850685 0.870579 0.87081 0.869608 0.865434 0.866003 0.87067 0.873113 0.89398 0.893826 0.894323 0.893179 0.890474 0.87236 0.882374 0.89122 0.890358 0.889709 0.893832 0.893832 0.893833 0.893836 0.893832 0.893854 0.894336 0.886782 0.866081 0.844509 0.830654 0.828979 0.802703 0.894263 0.867434 0.878829 0.887584 0.893327 0.8978 0.892767 0.891782 0.890932 0.89163 0.890808 0.891125 0.889822 0.890458 0.885857 0.892482 0.892537 0.893151 0.866208 0.891891 0.882581 0.832777 0.853927 0.878304 0.878737 0.889979 0.886332 0.891474 0.885753 0.888616 0.881619 0.891614 0.883122 0.893598 0.880142 0.889512 0.858873 0.868175 0.861112 0.86708 0.8618 0.865755 0.869659 0.878004 0.871202 0.873883 0.874025 0.872364 0.870204 0.871709 0.874766 0.880237 0.893832 0.893827 0.893832 0.894097 0.885061 0.861383 0.876081 0.885161 0.886695 0.890557 0.893832 0.893832 0.893833 0.893834 0.893832 0.893844 0.893726 0.888742 0.875085 0.854352 0.837474 0.825461 0.809718 0.894154 0.867426 0.873924 0.881619 0.888685 0.892791 0.889896 0.890242 0.889227 0.889757 0.889008 0.889334 0.888354 0.888788 0.884807 0.890966 0.89087 0.892729 0.869742 0.892553 0.876611 0.837747 0.876694 0.880922 0.883367 0.890059 0.888599 0.890693 0.88832 0.89256 0.884586 0.893504 0.885963 0.893593 0.882671 0.891512 0.87333 0.878613 0.86911 0.874296 0.869436 0.872951 0.875088 0.885707 0.881439 0.877672 0.876596 0.875421 0.874755 0.876728 0.878973 0.885389 0.893832 0.893826 0.893832 0.894039 0.879777 0.853117 0.871363 0.880679 0.884135 0.891114 0.893832 0.893832 0.893833 0.893832 0.893832 0.893832 0.893232 0.890196 0.879533 0.862554 0.843298 0.823544 0.815836 0.894015 0.86825 0.870679 0.876831 0.884531 0.888683 0.887638 0.888679 0.88773 0.888306 0.887562 0.887894 0.887205 0.887298 0.884092 0.889561 0.889632 0.892361 0.873352 0.89195 0.872471 0.839312 0.8921 0.883033 0.886788 0.889924 0.890083 0.890081 0.890479 0.893529 0.887105 0.893714 0.888641 0.893596 0.884509 0.891078 0.879661 0.884296 0.875303 0.879477 0.874758 0.87807 0.879367 0.887246 0.883316 0.880584 0.87871 0.878295 0.878643 0.880725 0.883058 0.890164 0.893832 0.893824 0.893832 0.893929 0.874747 0.847158 0.868049 0.877567 0.882338 0.891563 0.893832 0.893832 0.893832 0.89383 0.893832 0.893821 0.892805 0.891142 0.881923 0.868736 0.847904 0.822382 0.820976 0.893853 0.869323 0.868663 0.873173 0.880907 0.885485 0.885926 0.887287 0.886479 0.88721 0.886485 0.886825 0.88629 0.886101 0.883579 0.888264 0.888754 0.892107 0.876765 0.891297 0.868683 0.842534 0.89376 0.885468 0.887427 0.88988 0.890108 0.889804 0.891857 0.893573 0.889059 0.8937 0.89029 0.893605 0.884848 0.889782 0.880597 0.885789 0.879301 0.882824 0.878514 0.881342 0.881934 0.885638 0.882193 0.882347 0.880386 0.880559 0.881663 0.883436 0.886493 0.892787 0.893832 0.893823 0.893832 0.893811 0.870237 0.843092 0.86581 0.875535 0.881189 0.891621 0.893832 0.893832 0.893832 0.893828 0.893832 0.893811 0.892483 0.891686 0.883462 0.872927 0.851447 0.821543 0.825068 0.893697 0.870311 0.867484 0.870573 0.878001 0.883032 0.884781 0.886166 0.885521 0.886424 0.885727 0.886077 0.885565 0.885236 0.883212 0.887226 0.888129 0.89196 0.879707 0.865633 0.84594 0.893831 0.88731 0.886446 0.889878 0.889288 0.889742 0.892284 0.893494 0.890119 0.893677 0.89076 0.893615 0.884234 0.888534 0.87979 0.885415 0.880764 0.884045 0.880418 0.882599 0.882538 0.883598 0.880688 0.883396 0.881594 0.882216 0.883873 0.885127 0.889055 0.893629 0.893832 0.893821 0.893832 0.893707 0.86655 0.840471 0.86438 0.874284 0.880578 0.891234 0.893832 0.893832 0.893832 0.890726 0.893827 0.893832 0.893803 0.892272 0.891923 0.884469 0.875312 0.853989 0.820982 0.8279 0.893578 0.871033 0.866853 0.868905 0.875991 0.881328 0.884159 0.885378 0.884892 0.885914 0.885239 0.885604 0.885062 0.884663 0.882982 0.886514 0.887781 0.891868 0.881866 0.890279 0.863409 0.848684 0.893832 0.888171 0.885298 0.889865 0.888425 0.88977 0.892151 0.893427 0.89043 0.893661 0.890623 0.893622 0.88348 0.88765 0.878904 0.884734 0.880789 0.884025 0.880866 0.882608 0.882146 0.882117 0.879564 0.884079 0.882428 0.883359 0.885382 0.886196 0.89071 0.893804 0.893832 0.89382 0.893832 0.89363 0.863946 0.83893 0.863551 0.873587 0.88031 0.890715 0.893832 0.893832 0.893831 0.893826 0.893832 0.893799 0.892166 0.891986 0.88498 0.829343 0.893515 0.871411 0.866583 0.868083 0.874973 0.880451 0.883912 0.884997 0.885375 0.884807 0.884367 0.882877 0.886144 0.887657 0.891822 0.882985 0.862251 0.850232 0.893832 0.888418 0.884642 0.889852 0.887934 0.889805 0.891949 0.89339 0.890434 0.893652 0.890428 0.893625 0.883031 0.887204 0.878411 0.884321 0.880532 0.883773 0.880786 0.882351 0.881727 0.881372 0.878987 0.884446 0.882891 0.883956 0.886172 0.886764 0.891522 0.893829 0.893832 0.893818 0.893832 0.893589 0.862601 0.863173 0.873283 0.880218 0.890377 0.893832 0.893832 0.893831 0.876317 0.855343 0.820707 0.884972 0.884586 0.885659 0.890052 0.838223 
SCALARS Axial_Stress float 1
LOOKUP_TABLE default
-93869200000.0 -97056700000.0 -75307900000.0 -198501000000.0 -125068000000.0 -166671000000.0 -69332800000.0 -82618200000.0 -72237200000.0 -87626100000.0 -72847900000.0 -69703900000.0 -61804000000.0 -80161100000.0 -146280000000.0 -137258000000.0 -100412000000.0 -202332000000.0 -94713200000.0 -171329000000.0 -177306000000.0 -85242500000.0 -105978000000.0 -211518000000.0 -114373000000.0 -129062000000.0 -128121000000.0 -61092800000.0 -105677000000.0 -210941000000.0 -270506000000.0 -261937000000.0 -222018000000.0 -194790000000.0 -203834000000.0 -197681000000.0 -236458000000.0 -294146000000.0 -291251000000.0 -279672000000.0 -145296000000.0 -288298000000.0 -226338000000.0 -382889000000.0 -288150000000.0 -412749000000.0 -337153000000.0 -441205000000.0 -235290000000.0 -239471000000.0 -440273000000.0 -331882000000.0 -160097000000.0 -278604000000.0 -215727000000.0 -289796000000.0 -524023000000.0 -394233000000.0 -538241000000.0 -427000000000.0 -545801000000.0 -385051000000.0 -475227000000.0 -431493000000.0 -333563000000.0 -334120000000.0 -524296000000.0 -508766000000.0 -522562000000.0 -344255000000.0 -366258000000.0 -517668000000.0 -361822000000.0 -359312000000.0 -295706000000.0 -295638000000.0 -277256000000.0 -680805000000.0 -655092000000.0 -665188000000.0 -677629000000.0 -415213000000.0 -231529000000.0 -731493000000.0 -623564000000.0 -612995000000.0 -619657000000.0 -642801000000.0 -587160000000.0 -476501000000.0 -457997000000.0 -925743000000.0 -795248000000.0 -776501000000.0 -790532000000.0 -843529000000.0 -945312000000.0 -955503000000.0 -772962000000.0 -840321000000.0 -717838000000.0 -805040000000.0 -708531000000.0 -798198000000.0 -454261000000.0 -490367000000.0 -738079000000.0 -694828000000.0 -704857000000.0 -1.15768e+12 -972317000000.0 -897309000000.0 -1.00083e+12 -894136000000.0 -1.01753e+12 -930188000000.0 -1.12014e+12 -1.14486e+12 -1.6028e+12 -929544000000.0 -1.08396e+12 -983149000000.0 -913108000000.0 -888874000000.0 -563247000000.0 -618578000000.0 -856884000000.0 -947580000000.0 -845185000000.0 -968619000000.0 -1.95192e+12 -1.52651e+12 -1.42057e+12 -1.17844e+12 -1.20022e+12 -1.03912e+12 -1.11864e+12 -1.1098e+12 -1.16247e+12 -1.38727e+12 -1.32327e+12 -1.12304e+12 -1.03368e+12 -986412000000.0 -971132000000.0 -1.08342e+12 -972819000000.0 -2.15602e+12 -1.7063e+12 -1.38417e+12 -1.2494e+12 -1.21017e+12 -1.23026e+12 -1.33686e+12 -1.45511e+12 -1.29575e+12 -1.16097e+12 -1.2064e+12 -1.09271e+12 -1.15526e+12 -1.06017e+12 -1.13508e+12 -670099000000.0 -755668000000.0 -1.15709e+12 -1.79368e+12 -1.92345e+12 -1.581e+12 -1.39286e+12 -1.31942e+12 -1.31295e+12 -1.42495e+12 -1.36402e+12 -1.47987e+12 -1.45372e+12 -1.51403e+12 -1.41577e+12 -1.42745e+12 -1.30268e+12 -1.32902e+12 -1.25689e+12 -1.22032e+12 -774230000000.0 -903464000000.0 -1.3206e+12 -1.51036e+12 -1.55204e+12 -1.74611e+12 -1.89251e+12 -1.82942e+12 -1.75469e+12 -1.67893e+12 -1.54307e+12 -1.55527e+12 -1.4361e+12 -1.50462e+12 -1.40584e+12 -1.50346e+12 -1.53328e+12 -1.56853e+12 -1.53363e+12 -1.44917e+12 -1.36542e+12 -1.31087e+12 -1.28816e+12 -1.57441e+12 -1.66987e+12 -1.81516e+12 -1.76903e+12 -1.66501e+12 -1.60334e+12 -1.59076e+12 -1.60372e+12 -1.62913e+12 -1.62853e+12 -1.56183e+12 -1.47689e+12 -1.50814e+12 -1.4072e+12 -1.45313e+12 -1.3683e+12 -1.4298e+12 -875437000000.0 -1.06894e+12 -1.68713e+12 -1.77455e+12 -1.80831e+12 -1.74762e+12 -1.69392e+12 -1.67812e+12 -1.68522e+12 -1.78021e+12 -1.70071e+12 -1.78905e+12 -1.70795e+12 -1.76822e+12 -1.66746e+12 -1.7007e+12 -1.58858e+12 -1.61292e+12 -1.54241e+12 -1.50392e+12 -974109000000.0 -1.22308e+12 -1.75483e+12 -1.83052e+12 -1.77866e+12 -1.83605e+12 -1.81882e+12 -1.81963e+12 -1.79574e+12 -1.80927e+12 -1.76548e+12 -1.81755e+12 -1.75606e+12 -1.84571e+12 -1.77002e+12 -1.86723e+12 -1.87454e+12 -1.8644e+12 -1.81225e+12 -1.72298e+12 -1.6362e+12 -1.58127e+12 -1.56072e+12 -1.90436e+12 -1.88675e+12 -1.85301e+12 -1.82252e+12 -1.85524e+12 -1.90061e+12 -1.95244e+12 -1.96138e+12 -1.96203e+12 -1.924e+12 -1.84218e+12 -1.84797e+12 -1.73626e+12 -1.74623e+12 -1.66171e+12 -1.69471e+12 -1.62757e+12 -1.68364e+12 -1.07154e+12 -1.36858e+12 -2.04703e+12 -1.96348e+12 -1.91203e+12 -1.8303e+12 -1.86021e+12 -1.93269e+12 -2.01602e+12 -2.05767e+12 -2.14915e+12 -2.06045e+12 -2.15319e+12 -2.03731e+12 -2.09574e+12 -1.96581e+12 -1.98352e+12 -1.83823e+12 -1.76144e+12 -1.74134e+12 -1.17019e+12 -1.50662e+12 -2.10319e+12 -2.00002e+12 -1.99801e+12 -1.89409e+12 -1.80429e+12 -1.82422e+12 -1.88587e+12 -1.93392e+12 -2.04162e+12 -2.04259e+12 -2.1994e+12 -2.14993e+12 -2.26412e+12 -2.26115e+12 -2.23612e+12 -2.12915e+12 -1.94845e+12 -1.82694e+12 -1.79413e+12 -1.80439e+12 -2.20053e+12 -2.13447e+12 -1.92996e+12 -1.7489e+12 -1.99783e+12 -2.18371e+12 -2.37784e+12 -2.33654e+12 -2.35845e+12 -2.31311e+12 -2.39873e+12 -2.11095e+12 -1.89787e+12 -1.88803e+12 -1.87591e+12 -1.84045e+12 -1.88161e+12 -1.84916e+12 -1.93359e+12 -1.27393e+12 -1.63976e+12 -2.38371e+12 -2.26273e+12 -2.29827e+12 -2.12616e+12 -1.65859e+12 -1.85654e+12 -2.15894e+12 -2.39421e+12 -2.49452e+12 -2.50209e+12 -2.47932e+12 -2.54011e+12 -2.44388e+12 -2.5569e+12 -2.49849e+12 -1.79732e+12 -1.89986e+12 -1.95583e+12 -1.38953e+12 -1.76248e+12 -2.47868e+12 -2.28442e+12 -2.06358e+12 -1.55479e+12 -1.42528e+12 -2.01792e+12 -2.09939e+12 -2.19659e+12 -2.29646e+12 -2.63388e+12 -2.64592e+12 -2.56784e+12 -2.58708e+12 -2.68918e+12 -2.66253e+12 -2.86914e+12 -3.24371e+12 -1.76539e+12 -1.7811e+12 -1.95635e+12 -2.09154e+12 -2.57569e+12 -2.59206e+12 -2.13408e+12 -1.94909e+12 -2.34984e+12 -2.02414e+12 -2.92029e+12 -1.6939e+12 -2.83967e+12 -2.90253e+12 -2.7798e+12 -2.89088e+12 -2.86548e+12 -3.1599e+12 -3.54438e+12 -1.85826e+12 -2.06097e+12 -2.32065e+12 -1.5303e+12 -1.87059e+12 -2.7543e+12 -2.69249e+12 -2.83601e+12 -2.75616e+12 -3.21531e+12 -1.97017e+12 -2.34483e+12 -2.53042e+12 -1.82943e+12 -1.98018e+12 -2.95099e+12 -3.05714e+12 -2.95427e+12 -3.07942e+12 -3.45333e+12 -3.72278e+12 -3.74013e+12 -2.04265e+12 -1.73534e+12 -1.96383e+12 -2.88132e+12 -3.0224e+12 -3.92357e+12 -3.75011e+12 -2.09691e+12 -2.45736e+12 -2.73817e+12 -2.97097e+12 -2.58604e+12 -1.43866e+12 -1.72051e+12 -3.14738e+12 -3.05726e+12 -3.01911e+12 -3.22422e+12 -3.33125e+12 -3.56396e+12 -3.67581e+12 -3.77783e+12 -3.59832e+12 -2.74194e+12 -2.02429e+12 -2.91208e+12 -3.04276e+12 -3.02412e+12 -3.04431e+12 -3.42281e+12 -3.57265e+12 -3.28492e+12 -3.195e+12 -1.46394e+12 -1.36562e+12 -1.75039e+12 -1.39826e+12 -3.26743e+12 -3.21002e+12 -3.0698e+12 -3.03062e+12 -3.05276e+12 -3.47538e+12 -3.71776e+12 -3.74194e+12 -3.20648e+12 -3.42274e+12 -1.9722e+12 -3.03545e+12 -3.12049e+12 -3.16658e+12 -3.39449e+12 -3.09042e+12 -2.95177e+12 -1.48344e+12 -1.86528e+12 -2.25893e+12 -2.55922e+12 -3.07916e+12 -3.01594e+12 -3.35621e+12 -3.64557e+12 -3.67508e+12 -3.78565e+12 -3.76865e+12 -3.67542e+12 -3.49582e+12 -3.57019e+12 -2.32645e+12 -1.9265e+12 -2.92332e+12 -3.22679e+12 -2.63797e+12 -2.98829e+12 -3.24101e+12 -3.16845e+12 -2.32529e+12 -1.99558e+12 -2.22512e+12 -2.61021e+12 -2.97313e+12 -2.94242e+12 -2.98071e+12 -2.94651e+12 -3.5308e+12 -3.85126e+12 -3.75666e+12 -3.39511e+12 -3.88677e+12 -1.69302e+12 -3.1874e+12 -3.54187e+12 -2.88999e+12 -3.1254e+12 -2.86706e+12 -2.72272e+12 -2.3012e+12 -2.44398e+12 -2.2728e+12 -2.5012e+12 -2.49571e+12 -2.84863e+12 -2.85587e+12 -2.87121e+12 -2.45703e+12 -4.00048e+12 -3.87292e+12 -3.58486e+12 -2.91988e+12 -3.92326e+12 -4.45308e+12 -2.64958e+12 -1.894e+12 -2.76477e+12 -3.70243e+12 -3.52494e+12 -3.14528e+12 -3.10646e+12 -3.06145e+12 -3.01731e+12 -2.68743e+12 -2.5888e+12 -2.68929e+12 -2.71929e+12 -2.8539e+12 -2.62713e+12 -4.26525e+12 -4.42267e+12 -4.06838e+12 -3.96326e+12 -3.7488e+12 -3.44111e+12 -4.79089e+12 -2.84814e+12 -4.37076e+12 -3.92586e+12 -3.50991e+12 -3.28545e+12 -2.7566e+12 -3.15319e+12 -2.9625e+12 -2.74681e+12 -2.73018e+12 -2.84351e+12 -2.86991e+12 -2.89614e+12 -2.72411e+12 -2.3228e+12 -2.36304e+12 -4.82134e+12 -4.21107e+12 -3.79851e+12 -2.7317e+12 -5.4762e+12 -4.92304e+12 -5.0876e+12 -2.80876e+12 -4.55102e+12 -6.2501e+12 -4.51431e+12 -4.15817e+12 -4.46529e+12 -4.87331e+12 -5.05541e+12 -2.89951e+12 -3.17499e+12 -3.15739e+12 -2.94539e+12 -2.97005e+12 -2.82699e+12 -2.91322e+12 -2.85706e+12 -2.94892e+12 -2.84096e+12 -2.7798e+12 -4.38309e+12 -4.49831e+12 -4.20871e+12 -4.04261e+12 -3.94332e+12 -3.61201e+12 -3.64983e+12 -4.87334e+12 -5.34283e+12 -4.22983e+12 -3.71856e+12 -4.00489e+12 -6.00607e+12 -5.41439e+12 -4.78459e+12 -4.63056e+12 -4.98192e+12 -4.65347e+12 -4.09674e+12 -3.14227e+12 -3.28532e+12 -3.14409e+12 -3.01015e+12 -2.99453e+12 -2.96406e+12 -3.04723e+12 -2.99314e+12 -2.9918e+12 -3.88469e+12 -4.20728e+12 -4.09989e+12 -4.04266e+12 -4.87018e+12 -5.28155e+12 -6.09293e+12 -4.076e+12 -3.9437e+12 -3.48263e+12 -6.42666e+12 -6.71509e+12 -6.62111e+12 -4.95466e+12 -4.75788e+12 -4.85349e+12 -4.87553e+12 -4.47189e+12 -3.70414e+12 -3.32287e+12 -3.14891e+12 -3.0553e+12 -3.0703e+12 -3.14422e+12 -3.10357e+12 -3.28915e+12 -3.3087e+12 -4.03242e+12 -4.13186e+12 -4.14202e+12 -4.27755e+12 -5.1806e+12 -5.45774e+12 -5.81057e+12 -6.06189e+12 -5.97778e+12 -3.9125e+12 -3.42017e+12 -5.84438e+12 -6.26061e+12 -6.70114e+12 -6.69357e+12 -6.36541e+12 -4.93161e+12 -5.25e+12 -4.97538e+12 -4.89743e+12 -4.6465e+12 -4.05325e+12 -3.58977e+12 -3.55545e+12 -3.32163e+12 -3.30673e+12 -3.15422e+12 -3.10215e+12 -3.15599e+12 -3.28147e+12 -3.53751e+12 -3.83924e+12 -4.11426e+12 -4.15988e+12 -4.27745e+12 -4.31627e+12 -4.51257e+12 -4.84096e+12 -5.09853e+12 -5.39214e+12 -5.84723e+12 -6.04807e+12 -3.88561e+12 -3.83057e+12 -3.25434e+12 -5.0223e+12 -6.60288e+12 -6.56313e+12 -6.16026e+12 -5.19432e+12 -5.08547e+12 -4.76292e+12 -4.53504e+12 -4.33478e+12 -4.04369e+12 -3.72392e+12 -3.55613e+12 -3.49345e+12 -3.27752e+12 -3.16584e+12 -3.18358e+12 -3.1618e+12 -3.24615e+12 -3.26517e+12 -3.456e+12 -3.85449e+12 -4.02399e+12 -4.15784e+12 -4.21612e+12 -4.43126e+12 -4.7979e+12 -5.32082e+12 -5.63385e+12 -5.67154e+12 -5.70591e+12 -5.86889e+12 -6.10862e+12 -3.74994e+12 -3.2092e+12 -3.18108e+12 -5.56302e+12 -6.95686e+12 -6.31392e+12 -6.67148e+12 -6.51651e+12 -6.39891e+12 -6.37284e+12 -5.34422e+12 -5.03111e+12 -4.87367e+12 -4.69851e+12 -4.27763e+12 -3.81678e+12 -3.50101e+12 -3.44054e+12 -3.25246e+12 -3.23282e+12 -3.35398e+12 -3.40156e+12 -3.55962e+12 -3.65931e+12 -4.0399e+12 -4.2972e+12 -4.3382e+12 -4.4267e+12 -4.55484e+12 -4.65912e+12 -5.0133e+12 -5.32398e+12 -5.53227e+12 -5.54993e+12 -5.27356e+12 -5.9006e+12 -6.1008e+12 -6.10322e+12 -3.69553e+12 -3.27725e+12 -5.75063e+12 -6.12624e+12 -6.24583e+12 -6.20204e+12 -6.54745e+12 -6.27987e+12 -6.43115e+12 -6.58186e+12 -5.75917e+12 -5.26737e+12 -4.86213e+12 -4.47874e+12 -4.04392e+12 -3.66889e+12 -3.46251e+12 -3.33987e+12 -3.25071e+12 -3.31268e+12 -3.48203e+12 -3.73196e+12 -3.88286e+12 -4.05268e+12 -4.19087e+12 -4.45072e+12 -4.38798e+12 -4.75501e+12 -5.80266e+12 -4.33229e+12 -5.55289e+12 -5.7969e+12 -5.94299e+12 -5.9495e+12 -6.13576e+12 -3.67009e+12 -3.66015e+12 -3.35875e+12 -5.92705e+12 -5.8462e+12 -5.8938e+12 -6.1055e+12 -5.12425e+12 -6.57504e+12 -6.18962e+12 -4.76583e+12 -5.35198e+12 -5.06006e+12 -4.84468e+12 -4.66406e+12 -4.45036e+12 -4.25262e+12 -4.04056e+12 -3.84788e+12 -3.68476e+12 -3.58115e+12 -3.52236e+12 -3.47898e+12 -3.48637e+12 -3.27959e+12 -3.25958e+12 -3.28159e+12 -3.35647e+12 -3.41433e+12 -3.62486e+12 -3.9087e+12 -4.19904e+12 -4.3352e+12 -4.47636e+12 -4.6238e+12 -4.80142e+12 -3.9919e+12 -3.62293e+12 -5.18695e+12 -5.78535e+12 -6.39869e+12 -5.53145e+12 -5.8036e+12 -5.82433e+12 -6.00358e+12 -6.20023e+12 -6.26474e+12 -3.66826e+12 -3.40228e+12 -6.04342e+12 -5.80913e+12 -5.80559e+12 -5.96313e+12 -6.06894e+12 -5.75849e+12 -5.75413e+12 -5.65546e+12 -5.87565e+12 -4.88136e+12 -5.20645e+12 -4.95723e+12 -4.63481e+12 -4.23381e+12 -3.84485e+12 -3.596e+12 -3.48842e+12 -3.47159e+12 -3.27459e+12 -3.45253e+12 -3.53129e+12 -3.657e+12 -3.77674e+12 -3.93408e+12 -4.06229e+12 -4.33181e+12 -4.6193e+12 -5.37167e+12 -5.99269e+12 -4.9408e+12 -5.61002e+12 -5.30554e+12 -5.80494e+12 -5.77866e+12 -5.82186e+12 -5.90789e+12 -6.10599e+12 -6.3224e+12 -3.6749e+12 -3.3225e+12 -3.24044e+12 -5.79856e+12 -5.47852e+12 -5.83401e+12 -5.80705e+12 -5.94881e+12 -6.28242e+12 -5.80561e+12 -5.80277e+12 -5.45968e+12 -5.26728e+12 -4.94742e+12 -4.8498e+12 -4.7541e+12 -4.59723e+12 -4.42605e+12 -4.18149e+12 -4.01019e+12 -3.69346e+12 -3.53238e+12 -3.46698e+12 -3.44606e+12 -3.37775e+12 -3.55197e+12 -3.79159e+12 -4.0919e+12 -4.19922e+12 -4.31369e+12 -4.44616e+12 -4.56745e+12 -4.89479e+12 -5.42677e+12 -5.15609e+12 -5.31449e+12 -5.39466e+12 -5.6543e+12 -5.5515e+12 -5.93771e+12 -6.00211e+12 -5.87196e+12 -5.7591e+12 -6.05647e+12 -6.18368e+12 -6.19218e+12 -6.32573e+12 -3.63548e+12 -3.54557e+12 -3.46192e+12 -6.01942e+12 -6.03207e+12 -5.20641e+12 -5.66257e+12 -6.01397e+12 -6.36447e+12 -6.9021e+12 -5.34391e+12 -5.94658e+12 -5.51093e+12 -4.9541e+12 -4.63089e+12 -4.69337e+12 -4.6953e+12 -4.34688e+12 -3.94459e+12 -3.81587e+12 -3.66844e+12 -3.58976e+12 -3.51426e+12 -3.47472e+12 -3.44016e+12 -3.44024e+12 -3.40818e+12 -3.39059e+12 -3.41647e+12 -3.46398e+12 -3.66019e+12 -3.93331e+12 -4.26385e+12 -4.36109e+12 -4.60946e+12 -4.79579e+12 -5.42263e+12 -5.13603e+12 -5.48415e+12 -5.60922e+12 -5.64074e+12 -6.28878e+12 -5.82312e+12 -5.84516e+12 -6.05297e+12 -6.13344e+12 -6.2546e+12 -3.46844e+12 -3.53699e+12 -6.1832e+12 -6.15723e+12 -6.10167e+12 -6.18717e+12 -6.18572e+12 -6.32881e+12 -5.89775e+12 -6.34142e+12 -5.97751e+12 -6.79594e+12 -6.21919e+12 -3.81618e+12 -4.10723e+12 -5.07888e+12 -4.84975e+12 -4.64728e+12 -4.48805e+12 -4.08054e+12 -3.75446e+12 -3.56494e+12 -3.45791e+12 -3.40745e+12 -3.39246e+12 -3.46979e+12 -3.54938e+12 -3.64034e+12 -3.77668e+12 -3.90035e+12 -4.085e+12 -4.25754e+12 -4.46858e+12 -4.70145e+12 -4.10207e+12 -3.09047e+12 -5.03253e+12 -5.1701e+12 -5.25324e+12 -6.06072e+12 -6.82551e+12 -6.23054e+12 -5.5531e+12 -5.91124e+12 -5.7182e+12 -5.95272e+12 -5.99456e+12 -6.09448e+12 -6.17942e+12 -6.12094e+12 -3.40896e+12 -3.54969e+12 -3.55831e+12 -6.12842e+12 -6.08499e+12 -6.05388e+12 -6.29673e+12 -6.11087e+12 -5.89242e+12 -5.80532e+12 -5.82308e+12 -5.71948e+12 -5.96283e+12 -5.98862e+12 -5.19611e+12 -5.09096e+12 -5.75518e+12 -5.63747e+12 -5.28745e+12 -4.86149e+12 -4.37438e+12 -4.21436e+12 -3.92958e+12 -3.83274e+12 -3.62056e+12 -3.49164e+12 -3.41554e+12 -3.38452e+12 -3.41428e+12 -3.5329e+12 -3.73838e+12 -4.03587e+12 -4.45314e+12 -4.97349e+12 -6.07372e+12 -4.40328e+12 -4.78035e+12 -4.87809e+12 -4.94963e+12 -5.32035e+12 -5.28116e+12 -5.20515e+12 -6.11216e+12 -5.65399e+12 -4.10466e+12 -5.34123e+12 -5.69752e+12 -5.83257e+12 -5.96697e+12 -6.01532e+12 -5.95812e+12 -6.08247e+12 -3.34066e+12 -3.25065e+12 -3.53014e+12 -6.03204e+12 -5.93956e+12 -6.03347e+12 -5.95629e+12 -5.92727e+12 -6.08653e+12 -6.05395e+12 -5.72763e+12 -5.15152e+12 -5.93171e+12 -5.55628e+12 -5.39989e+12 -4.37056e+12 -5.50918e+12 -4.93673e+12 -4.5863e+12 -4.05293e+12 -3.67007e+12 -3.66536e+12 -3.56268e+12 -3.53055e+12 -3.46388e+12 -3.43529e+12 -3.38788e+12 -3.38086e+12 -3.35608e+12 -3.37716e+12 -3.38858e+12 -3.45112e+12 -3.60442e+12 -3.84389e+12 -4.187e+12 -4.37825e+12 -4.71672e+12 -5.3301e+12 -4.96924e+12 -5.0225e+12 -4.48555e+12 -4.72244e+12 -4.98523e+12 -4.94436e+12 -4.32403e+12 -5.41679e+12 -5.34478e+12 -5.51177e+12 -5.68908e+12 -5.88738e+12 -5.89789e+12 -5.88001e+12 -5.92636e+12 -6.02081e+12 -3.19359e+12 -3.51324e+12 -5.80454e+12 -5.92198e+12 -5.82664e+12 -5.85631e+12 -5.78174e+12 -5.86625e+12 -5.92118e+12 -5.77137e+12 -4.71401e+12 -5.30258e+12 -5.28036e+12 -5.00404e+12 -4.681e+12 -5.28378e+12 -5.22328e+12 -4.53665e+12 -4.24341e+12 -3.73082e+12 -3.5656e+12 -3.49358e+12 -3.40475e+12 -3.34618e+12 -3.34271e+12 -3.41052e+12 -3.49713e+12 -3.55203e+12 -3.6846e+12 -3.7711e+12 -3.95773e+12 -4.09238e+12 -4.70345e+12 -5.38968e+12 -4.98849e+12 -4.93174e+12 -3.69478e+12 -5.00987e+12 -5.40308e+12 -6.44997e+12 -4.78037e+12 -5.46339e+12 -5.30628e+12 -6.30012e+12 -5.58128e+12 -5.53847e+12 -5.57645e+12 -5.84922e+12 -5.76507e+12 -5.80737e+12 -5.87782e+12 -5.89278e+12 -5.776e+12 -3.18648e+12 -3.48751e+12 -3.49826e+12 -5.6898e+12 -5.7122e+12 -5.61439e+12 -5.735e+12 -5.66471e+12 -5.7197e+12 -5.59155e+12 -5.81162e+12 -5.66485e+12 -5.94826e+12 -6.28982e+12 -5.67958e+12 -5.36367e+12 -4.9486e+12 -4.41615e+12 -3.00029e+12 -5.14319e+12 -5.13186e+12 -4.83684e+12 -4.06184e+12 -3.84104e+12 -3.46086e+12 -3.43878e+12 -3.48454e+12 -3.51172e+12 -3.4304e+12 -3.34731e+12 -3.31199e+12 -3.34062e+12 -3.44072e+12 -3.61543e+12 -3.86403e+12 -4.27591e+12 -4.37223e+12 -4.87421e+12 -4.89025e+12 -5.14138e+12 -5.37778e+12 -4.38204e+12 -4.83868e+12 -5.33175e+12 -5.39209e+12 -4.83281e+12 -4.94248e+12 -4.50813e+12 -5.76741e+12 -5.77206e+12 -5.85734e+12 -5.62793e+12 -5.64933e+12 -5.78055e+12 -5.79389e+12 -5.74018e+12 -5.67731e+12 -3.21719e+12 -3.2475e+12 -3.47308e+12 -5.58338e+12 -5.58408e+12 -5.50461e+12 -5.52878e+12 -5.46311e+12 -5.55857e+12 -5.47193e+12 -5.51609e+12 -5.6741e+12 -5.91613e+12 -5.59482e+12 -5.12576e+12 -4.83588e+12 -4.49135e+12 -3.80148e+12 -4.43389e+12 -4.48521e+12 -4.2938e+12 -3.74147e+12 -3.53944e+12 -3.06142e+12 -3.49555e+12 -3.46165e+12 -3.38814e+12 -3.35862e+12 -3.28074e+12 -3.29242e+12 -3.24753e+12 -3.28719e+12 -3.26904e+12 -3.34609e+12 -3.35804e+12 -3.48003e+12 -3.5293e+12 -3.6836e+12 -3.74232e+12 -3.96821e+12 -4.01172e+12 -4.39842e+12 -4.43325e+12 -4.87267e+12 -5.27901e+12 -5.66026e+12 -3.04336e+12 -4.31407e+12 -4.68047e+12 -4.53507e+12 -4.77481e+12 -4.99006e+12 -5.26498e+12 -6.41653e+12 -5.45285e+12 -5.53359e+12 -5.21732e+12 -5.48835e+12 -5.74739e+12 -5.54313e+12 -5.65971e+12 -5.81883e+12 -5.65579e+12 -5.62115e+12 -5.49056e+12 -5.56073e+12 -3.25423e+12 -3.35075e+12 -5.54136e+12 -5.51321e+12 -5.33663e+12 -5.454e+12 -5.35651e+12 -5.31523e+12 -5.41015e+12 -5.32907e+12 -5.29375e+12 -5.30996e+12 -5.2096e+12 -5.24362e+12 -5.14728e+12 -5.25184e+12 -5.26907e+12 -5.0561e+12 -4.84494e+12 -4.64251e+12 -4.60161e+12 -4.66579e+12 -4.52003e+12 -3.38966e+12 -4.68584e+12 -4.46245e+12 -4.11847e+12 -2.82906e+12 -3.05937e+12 -3.49215e+12 -3.45314e+12 -3.2717e+12 -3.21668e+12 -3.20866e+12 -3.25526e+12 -3.37773e+12 -3.58365e+12 -3.75343e+12 -3.93694e+12 -3.80313e+12 -4.59571e+12 -4.87251e+12 -4.47961e+12 -3.96691e+12 -4.35691e+12 -4.15205e+12 -3.15034e+12 -3.89561e+12 -4.58408e+12 -4.77032e+12 -5.72254e+12 -3.82712e+12 -5.95328e+12 -5.56568e+12 -5.57911e+12 -5.55316e+12 -5.56498e+12 -5.47818e+12 -5.35267e+12 -5.41533e+12 -3.20888e+12 -3.01162e+12 -3.17274e+12 -5.42739e+12 -5.22914e+12 -5.18947e+12 -5.12452e+12 -5.20946e+12 -5.15321e+12 -5.23471e+12 -5.07255e+12 -5.0768e+12 -4.77633e+12 -4.49291e+12 -4.52095e+12 -4.31619e+12 -4.43323e+12 -4.45649e+12 -4.4837e+12 -4.59742e+12 -4.76403e+12 -5.52002e+12 -4.19501e+12 -3.88641e+12 -3.46475e+12 -1.45683e+12 -2.31188e+12 -4.20507e+12 -3.63711e+12 -3.27846e+12 -3.27271e+12 -3.18943e+12 -3.16135e+12 -3.17084e+12 -3.24616e+12 -3.40298e+12 -3.616e+12 -3.66898e+12 -3.62653e+12 -3.06221e+12 -3.86061e+12 -4.18035e+12 -4.26481e+12 -3.11012e+12 -6.15012e+12 -5.85824e+12 -6.76077e+12 -6.04802e+12 -4.79932e+12 -5.74097e+12 -5.44847e+12 -5.34432e+12 -5.1229e+12 -5.23858e+12 -5.10732e+12 -3.05338e+12 -2.8208e+12 -2.93054e+12 -5.25286e+12 -5.19108e+12 -5.34471e+12 -5.01643e+12 -4.87723e+12 -5.14488e+12 -4.97297e+12 -4.97335e+12 -4.84508e+12 -4.14559e+12 -5.27339e+12 -2.50422e+12 -3.8505e+12 -4.28023e+12 -4.55161e+12 -4.8261e+12 -5.33238e+12 -6.13776e+12 -3.20501e+12 -4.57484e+12 -3.74566e+12 -3.29128e+12 -2.51508e+12 -3.33435e+12 -3.0587e+12 -3.14357e+12 -3.10592e+12 -3.12493e+12 -3.04228e+12 -3.10174e+12 -3.04442e+12 -3.13694e+12 -3.1048e+12 -3.24061e+12 -3.23574e+12 -3.42182e+12 -3.37485e+12 -3.75411e+12 -2.49838e+12 -3.03934e+12 -3.74722e+12 -4.322e+12 -4.2441e+12 -4.49779e+12 -4.58532e+12 -5.80624e+12 -5.18171e+12 -4.49066e+12 -4.46722e+12 -4.53385e+12 -4.75119e+12 -5.61579e+12 -5.95174e+12 -5.53236e+12 -5.98275e+12 -5.70136e+12 -5.50393e+12 -5.23652e+12 -5.09823e+12 -4.61924e+12 -4.8403e+12 -4.8428e+12 -2.71655e+12 -2.87881e+12 -4.99167e+12 -5.14121e+12 -5.1282e+12 -5.10496e+12 -4.76273e+12 -4.53661e+12 -4.93093e+12 -5.09581e+12 -4.75596e+12 -5.01296e+12 -5.06027e+12 -4.1665e+12 -3.45979e+12 -4.09644e+12 -4.40929e+12 -4.6781e+12 -4.96645e+12 -4.74993e+12 -4.0723e+12 -4.13826e+12 -3.34866e+12 -2.92855e+12 -2.56939e+12 -2.23374e+12 -3.12249e+12 -2.71225e+12 -3.07978e+12 -2.99177e+12 -2.96421e+12 -2.99169e+12 -3.0742e+12 -3.22416e+12 -3.40115e+12 -3.67403e+12 -4.28845e+12 -4.9886e+12 -4.54009e+12 -4.00676e+12 -4.12944e+12 -4.21754e+12 -4.48364e+12 -5.06277e+12 -5.25117e+12 -4.87042e+12 -4.63576e+12 -4.32525e+12 -4.06568e+12 -4.82676e+12 -4.9148e+12 -5.11119e+12 -5.25339e+12 -4.44963e+12 -5.87776e+12 -5.86641e+12 -5.10251e+12 -4.79593e+12 -3.56011e+12 -4.57064e+12 -4.80235e+12 -4.81012e+12 -2.66838e+12 -2.70243e+12 -2.80745e+12 -4.77469e+12 -4.98478e+12 -5.05093e+12 -5.20385e+12 -5.41087e+12 -3.70702e+12 -4.13535e+12 -4.56928e+12 -4.76104e+12 -4.91381e+12 -5.05492e+12 -6.01261e+12 -3.56639e+12 -5.16965e+12 -3.54862e+12 -5.25325e+12 -4.43833e+12 -4.37051e+12 -3.89534e+12 -3.69769e+12 -2.96651e+12 -2.51377e+12 -1.87963e+12 -1.93117e+12 -2.2002e+12 -3.45252e+12 -3.13447e+12 -2.97272e+12 -2.88801e+12 -2.88767e+12 -2.93911e+12 -3.05222e+12 -2.99677e+12 -3.00726e+12 -4.17811e+12 -4.32055e+12 -3.89876e+12 -3.82524e+12 -3.82774e+12 -3.9489e+12 -4.14777e+12 -4.51033e+12 -4.6843e+12 -4.73645e+12 -4.59207e+12 -4.36703e+12 -4.29874e+12 -4.29467e+12 -4.69984e+12 -4.73537e+12 -4.83708e+12 -4.84386e+12 -5.17172e+12 -5.40174e+12 -5.33183e+12 -4.50842e+12 -3.62686e+12 -5.46344e+12 -4.8724e+12 -4.68592e+12 -4.71199e+12 -4.58212e+12 -2.63024e+12 -2.57264e+12 -2.5851e+12 -4.51382e+12 -4.73924e+12 -4.73783e+12 -5.28208e+12 -5.39883e+12 -2.92101e+12 -4.56903e+12 -5.08798e+12 -5.8635e+12 -3.35762e+12 -4.88294e+12 -4.52064e+12 -4.38679e+12 -4.35485e+12 -3.9378e+12 -4.06702e+12 -3.90431e+12 -4.17706e+12 -4.39425e+12 -4.58065e+12 -4.67511e+12 -4.07583e+12 -3.90391e+12 -3.57792e+12 -3.32259e+12 -2.69615e+12 -2.90078e+12 -3.58212e+12 -4.01275e+12 -3.0316e+12 -2.87937e+12 -2.8172e+12 -2.81393e+12 -2.69967e+12 -2.79665e+12 -2.698e+12 -2.81689e+12 -2.73531e+12 -2.89769e+12 -2.92701e+12 -3.04982e+12 -2.3407e+12 -3.2952e+12 -3.62134e+12 -3.9535e+12 -3.5817e+12 -3.42711e+12 -3.49221e+12 -3.75228e+12 -4.06845e+12 -4.25463e+12 -4.35409e+12 -4.40047e+12 -4.2933e+12 -4.22859e+12 -4.24769e+12 -4.33291e+12 -4.48363e+12 -4.51778e+12 -4.58077e+12 -4.86024e+12 -4.87065e+12 -4.93381e+12 -4.83496e+12 -5.31964e+12 -5.21981e+12 -4.79954e+12 -4.59546e+12 -4.53735e+12 -4.4092e+12 -2.43784e+12 -2.4082e+12 -4.24987e+12 -4.1809e+12 -4.46042e+12 -4.3992e+12 -4.3184e+12 -4.76911e+12 -4.67916e+12 -4.05831e+12 -4.01927e+12 -4.52158e+12 -5.03768e+12 -3.9529e+12 -4.2407e+12 -4.31663e+12 -3.99797e+12 -4.05574e+12 -3.90193e+12 -3.98428e+12 -3.9657e+12 -4.1255e+12 -4.24984e+12 -4.29194e+12 -4.1523e+12 -3.55554e+12 -3.31227e+12 -3.07332e+12 -2.81903e+12 -1.24348e+12 -3.36387e+12 -3.35865e+12 -2.53974e+12 -2.5665e+12 -2.62445e+12 -2.58604e+12 -2.68203e+12 -3.21066e+12 -2.12816e+12 -2.9051e+12 -3.63087e+12 -3.34259e+12 -2.65919e+12 -2.55373e+12 -2.76103e+12 -3.48351e+12 -3.84164e+12 -4.00933e+12 -4.09142e+12 -4.11189e+12 -4.0888e+12 -4.09784e+12 -4.15623e+12 -4.20586e+12 -4.26885e+12 -4.31034e+12 -4.4613e+12 -4.54961e+12 -4.58483e+12 -4.64973e+12 -4.66232e+12 -4.59999e+12 -4.4388e+12 -4.677e+12 -5.01726e+12 -4.88141e+12 -4.37678e+12 -4.35444e+12 -4.0849e+12 -4.24017e+12 -2.25751e+12 -1.97776e+12 -2.19085e+12 -3.80367e+12 -4.06871e+12 -3.87281e+12 -4.11577e+12 -4.06536e+12 -4.0814e+12 -3.28299e+12 -2.9514e+12 -3.3898e+12 -3.89028e+12 -4.24835e+12 -4.79245e+12 -3.83604e+12 -3.93307e+12 -3.87521e+12 -3.86221e+12 -3.88794e+12 -3.8299e+12 -3.87153e+12 -3.90328e+12 -3.98363e+12 -4.00535e+12 -3.92225e+12 -3.8415e+12 -3.7265e+12 -3.2983e+12 -3.07458e+12 -2.76205e+12 -2.48387e+12 -2.20515e+12 -3.98799e+12 -3.50731e+12 -2.85741e+12 -2.60609e+12 -2.37144e+12 -2.53113e+12 -2.47464e+12 -2.40031e+12 -2.84894e+12 -3.71974e+12 -1.27281e+12 -2.04064e+12 -3.31391e+12 -3.5355e+12 -3.69653e+12 -4.3991e+12 -4.713e+12 -4.575e+12 -4.06075e+12 -4.13599e+12 -4.1978e+12 -4.24378e+12 -4.27385e+12 -4.29873e+12 -4.27115e+12 -3.13647e+12 -4.97413e+12 -4.58091e+12 -4.03968e+12 -3.95636e+12 -3.96936e+12 -3.65796e+12 -2.07623e+12 -1.75793e+12 -3.48975e+12 -3.77687e+12 -3.7827e+12 -3.72153e+12 -4.05429e+12 -4.04308e+12 -4.63269e+12 -4.89025e+12 -2.94623e+12 -3.43866e+12 -4.28047e+12 -4.23261e+12 -3.49062e+12 -3.51237e+12 -3.74454e+12 -3.7555e+12 -3.73917e+12 -3.70633e+12 -3.73318e+12 -3.76115e+12 -3.77505e+12 -3.7241e+12 -3.65568e+12 -3.56892e+12 -3.45773e+12 -3.1795e+12 -3.05786e+12 -3.06488e+12 -3.13622e+12 -3.26829e+12 -3.85894e+12 -3.47525e+12 -2.66683e+12 -1.37101e+12 -3.17621e+12 -2.08489e+12 -2.40472e+12 -2.35867e+12 -2.38296e+12 -1.99792e+12 -2.07033e+12 -1.51048e+12 -1.98587e+12 -2.80722e+12 -3.22038e+12 -3.51288e+12 -3.94298e+12 -3.81481e+12 -3.82052e+12 -3.85311e+12 -3.87719e+12 -3.89747e+12 -3.9135e+12 -3.95239e+12 -3.99249e+12 -4.02046e+12 -3.92056e+12 -3.94141e+12 -3.9402e+12 -3.89577e+12 -3.79313e+12 -5.37624e+12 -4.38132e+12 -4.12036e+12 -3.5699e+12 -3.66288e+12 -3.36398e+12 -1.91905e+12 -1.74563e+12 -1.48769e+12 -3.24259e+12 -3.25421e+12 -3.50045e+12 -3.46437e+12 -3.32975e+12 -3.2176e+12 -3.37714e+12 -3.77713e+12 -3.86939e+12 -4.12477e+12 -4.40914e+12 -4.52012e+12 -4.04289e+12 -3.73488e+12 -3.74871e+12 -3.67442e+12 -3.56013e+12 -3.57095e+12 -3.54577e+12 -3.49736e+12 -3.44166e+12 -3.37602e+12 -3.29085e+12 -3.06629e+12 -3.0527e+12 -3.04073e+12 -3.16576e+12 -2.38892e+12 -2.67172e+12 -1.70902e+12 -2.86816e+12 -803231000000.0 -2.46473e+12 -2.40093e+12 -977476000000.0 -2.9888e+12 -2.5179e+12 -2.87026e+12 -3.14236e+12 -3.88503e+12 -4.25152e+12 -4.33508e+12 -4.10785e+12 -3.8114e+12 -3.69983e+12 -3.6642e+12 -3.66328e+12 -3.6783e+12 -3.70465e+12 -3.73794e+12 -3.77212e+12 -3.79839e+12 -3.82114e+12 -3.86219e+12 -3.89196e+12 -3.65451e+12 -3.63585e+12 -3.58092e+12 -3.09097e+12 -4.56693e+12 -4.69538e+12 -3.92334e+12 -3.7046e+12 -3.52333e+12 -2.41803e+12 -3.63792e+12 -3.57192e+12 -3.41072e+12 -3.03059e+12 -1.55081e+12 -1.13458e+12 -2.24194e+12 -2.86257e+12 -2.97212e+12 -3.51479e+12 -4.08191e+12 -2.05019e+12 -2.75243e+12 -3.55512e+12 -3.73008e+12 -3.85087e+12 -4.35339e+12 -3.72315e+12 -3.51736e+12 -3.21365e+12 -3.06198e+12 -2.88879e+12 -3.60268e+12 -3.66695e+12 -3.61867e+12 -3.56937e+12 -3.541e+12 -3.36908e+12 -3.35039e+12 -3.33009e+12 -3.29988e+12 -3.25505e+12 -3.19204e+12 -3.11487e+12 -2.89322e+12 -2.81114e+12 -2.36201e+12 -1.06575e+12 -3.22901e+12 -1.75921e+12 -3.49228e+12 -2.79247e+12 -2.38088e+12 -2.2775e+12 -2.04572e+12 -2.44975e+12 -2.11554e+12 -2.07224e+12 -2.61143e+12 -2.52844e+12 -2.77203e+12 -2.84746e+12 -3.37673e+12 -3.66501e+12 -3.83274e+12 -3.8216e+12 -3.70979e+12 -3.56795e+12 -3.49518e+12 -3.46422e+12 -3.46226e+12 -3.48117e+12 -3.51283e+12 -3.5457e+12 -3.57373e+12 -3.5959e+12 -3.61843e+12 -3.63094e+12 -3.63036e+12 -3.64727e+12 -3.37629e+12 -3.38202e+12 -3.30197e+12 -3.67188e+12 -3.91609e+12 -3.21506e+12 -2.86631e+12 -3.99491e+12 -3.2041e+12 -3.05457e+12 -2.63908e+12 -2.64824e+12 -1.35309e+12 -1.25214e+12 -1.31732e+12 -2.64867e+12 -2.39519e+12 -2.4707e+12 -2.92633e+12 -3.40061e+12 -3.17007e+12 -3.37736e+12 -3.39532e+12 -4.06028e+12 -3.67808e+12 -3.33146e+12 -2.94223e+12 -2.09815e+12 -2.45224e+12 -3.84621e+12 -3.68104e+12 -3.54405e+12 -3.43696e+12 -3.36959e+12 -3.33753e+12 -3.36243e+12 -3.23155e+12 -3.23439e+12 -3.21229e+12 -3.16864e+12 -3.10651e+12 -3.03841e+12 -2.9683e+12 -966645000000.0 -2.36005e+12 -2.63694e+12 -2.58153e+12 -2.79131e+12 -2.86134e+12 -2.85091e+12 -3.17214e+12 -3.35802e+12 -3.44103e+12 -3.44312e+12 -3.38179e+12 -3.3065e+12 -3.26187e+12 -3.24373e+12 -3.25017e+12 -3.27677e+12 -3.31063e+12 -3.34292e+12 -3.37068e+12 -3.39325e+12 -3.40305e+12 -3.39148e+12 -3.35394e+12 -3.37241e+12 -3.12004e+12 -3.30137e+12 -3.32974e+12 -3.33828e+12 -2.48339e+12 -1.49487e+12 -4.10311e+12 -3.58863e+12 -2.62328e+12 -2.21538e+12 -2.27315e+12 -1.96918e+12 -1.15572e+12 -970308000000.0 -1.04239e+12 -2.20963e+12 -3.0744e+12 -3.44928e+12 -1.47463e+12 -4.09663e+12 -1.76134e+12 -2.77103e+12 -3.21235e+12 -3.11767e+12 -3.82186e+12 -3.72061e+12 -3.50847e+12 -3.23422e+12 -2.92211e+12 -2.57697e+12 -2.24769e+12 -4.35421e+12 -3.83854e+12 -3.50303e+12 -3.3138e+12 -3.19803e+12 -3.12956e+12 -3.09441e+12 -3.16022e+12 -3.19426e+12 -3.19648e+12 -3.18327e+12 -3.1405e+12 -3.07777e+12 -3.00166e+12 -2.91561e+12 -2.82231e+12 -2.72144e+12 -2.49263e+12 -2.10645e+12 -2.33666e+12 -2.54415e+12 -2.51292e+12 -2.71241e+12 -1.54258e+12 -2.83629e+12 -2.57116e+12 -1.4811e+12 -2.40826e+12 -2.56347e+12 -2.71275e+12 -2.92056e+12 -3.04634e+12 -2.17799e+12 -2.69374e+12 -2.93269e+12 -3.06396e+12 -3.12738e+12 -3.131e+12 -3.08083e+12 -3.03701e+12 -3.0101e+12 -3.007e+12 -3.02744e+12 -3.06241e+12 -3.10053e+12 -3.1373e+12 -3.17055e+12 -3.19399e+12 -3.19391e+12 -3.15812e+12 -3.03326e+12 -3.06475e+12 -3.10107e+12 -2.96224e+12 -2.99317e+12 -2.93765e+12 -2.81678e+12 -1.85895e+12 -3.39666e+12 -2.78134e+12 -2.7601e+12 -2.14286e+12 -1.81995e+12 -1.73225e+12 -810632000000.0 -809623000000.0 -1.9014e+12 -2.32978e+12 -2.77457e+12 -3.70042e+12 -3.15266e+12 -3.45384e+12 -2.286e+12 -3.08959e+12 -3.4295e+12 -3.24425e+12 -3.28474e+12 -3.23539e+12 -3.06607e+12 -2.83586e+12 -2.60192e+12 -4.09609e+12 -3.8281e+12 -3.40303e+12 -3.14905e+12 -2.9982e+12 -2.90653e+12 -2.86173e+12 -2.7926e+12 -2.98117e+12 -3.15383e+12 -3.12918e+12 -3.04989e+12 -2.96208e+12 -2.86753e+12 -2.7684e+12 -2.66278e+12 -2.514e+12 -2.32993e+12 -2.35356e+12 -2.32513e+12 -2.50497e+12 -2.4181e+12 -2.25303e+12 -2.40858e+12 -2.43469e+12 -2.442e+12 -2.3538e+12 -2.21136e+12 -2.50909e+12 -2.67968e+12 -3.04742e+12 -1.97976e+12 -2.31982e+12 -2.57368e+12 -2.73039e+12 -2.82463e+12 -2.93692e+12 -2.98503e+12 -3.01377e+12 -3.0133e+12 -2.95335e+12 -2.54071e+12 -2.75744e+12 -2.84345e+12 -2.68144e+12 -2.5992e+12 -2.43284e+12 -3.09446e+12 -2.04391e+12 -1.92348e+12 -1.62266e+12 -1.69222e+12 -1.13768e+12 -1.51716e+12 -1.59399e+12 -556825000000.0 -579038000000.0 -1.07045e+12 -1.52681e+12 -1.70827e+12 -1.52909e+12 -1.47155e+12 -3.2861e+12 -3.61267e+12 -2.97361e+12 -3.09976e+12 -3.03716e+12 -2.96266e+12 -3.34233e+12 -2.54031e+12 -2.78921e+12 -2.84054e+12 -2.79836e+12 -2.67654e+12 -2.39261e+12 -2.5365e+12 -2.26673e+12 -3.13919e+12 -3.22408e+12 -3.19351e+12 -2.81794e+12 -2.71481e+12 -2.61248e+12 -2.4988e+12 -2.3827e+12 -2.34089e+12 -2.30562e+12 -2.32867e+12 -2.35465e+12 -2.2632e+12 -2.34445e+12 -2.28711e+12 -2.43654e+12 -2.30497e+12 -2.37056e+12 -2.40588e+12 -2.86874e+12 -3.02597e+12 -1.82346e+12 -2.10872e+12 -2.28988e+12 -2.86835e+12 -2.8592e+12 -2.77596e+12 -2.74865e+12 -2.74057e+12 -2.76021e+12 -2.79552e+12 -2.84135e+12 -2.88861e+12 -2.8799e+12 -2.93538e+12 -3.03053e+12 -2.26291e+12 -2.53596e+12 -2.65192e+12 -2.70206e+12 -2.4212e+12 -2.36596e+12 -2.27147e+12 -2.71085e+12 -2.39928e+12 -1.38885e+12 -1.11159e+12 -1.61559e+12 -1.54897e+12 -1.34948e+12 -1.37323e+12 -439199000000.0 -104513000000.0 -310129000000.0 -604328000000.0 -1.26156e+12 -1.75969e+12 -2.51934e+12 -2.29011e+12 -2.79253e+12 -2.63857e+12 -2.7485e+12 -2.96012e+12 -3.09374e+12 -1.59652e+12 -2.25411e+12 -2.42062e+12 -2.46641e+12 -2.44955e+12 -2.54482e+12 -2.41428e+12 -3.08614e+12 -3.32896e+12 -3.13149e+12 -2.88868e+12 -2.72804e+12 -2.63067e+12 -2.62431e+12 -3.29126e+12 -3.25437e+12 -3.14605e+12 -3.03307e+12 -2.92381e+12 -2.45885e+12 -2.36933e+12 -2.31146e+12 -2.26849e+12 -2.25297e+12 -2.24568e+12 -2.22801e+12 -2.2381e+12 -2.23793e+12 -2.60485e+12 -2.80226e+12 -2.96372e+12 -1.66546e+12 -2.44729e+12 -2.5572e+12 -2.62598e+12 -2.65209e+12 -2.62013e+12 -2.40424e+12 -2.43203e+12 -2.46656e+12 -2.50711e+12 -2.55477e+12 -2.61575e+12 -2.68101e+12 -2.76414e+12 -2.82656e+12 -2.89291e+12 -3.01096e+12 -2.08573e+12 -2.37045e+12 -2.44115e+12 -2.45271e+12 -2.19499e+12 -2.16718e+12 -2.33594e+12 -2.42806e+12 -1.49789e+12 -1.49986e+12 -1.91914e+12 -1.31165e+12 -1.16126e+12 -855117000000.0 -659960000000.0 -287784000000.0 -85600700000.0 -222311000000.0 -433208000000.0 -662185000000.0 -526124000000.0 -1.51122e+12 -1.22166e+12 -1.95721e+12 -2.25255e+12 -2.36434e+12 -2.59761e+12 -1.39048e+12 -1.80391e+12 -2.04383e+12 -2.15237e+12 -2.198e+12 -2.39547e+12 -2.33196e+12 -2.59359e+12 -2.69915e+12 -2.70535e+12 -2.55412e+12 -2.37283e+12 -2.24224e+12 -2.41258e+12 -2.35894e+12 -2.20783e+12 -1.90497e+12 -3.30594e+12 -3.18946e+12 -3.02816e+12 -2.88675e+12 -2.76395e+12 -2.65466e+12 -2.55491e+12 -2.27097e+12 -2.28992e+12 -2.3e+12 -2.3841e+12 -2.49471e+12 -2.68611e+12 -2.84803e+12 -1.92894e+12 -2.08148e+12 -2.21327e+12 -2.32491e+12 -2.4096e+12 -2.4674e+12 -2.49523e+12 -2.48461e+12 -1.96963e+12 -2.13473e+12 -2.1982e+12 -2.24644e+12 -2.29709e+12 -2.38383e+12 -2.52555e+12 -2.61356e+12 -2.69007e+12 -2.77273e+12 -2.88477e+12 -1.98041e+12 -2.21504e+12 -2.24116e+12 -2.22802e+12 -1.98992e+12 -2.02784e+12 -2.03046e+12 -1.93593e+12 -1.43893e+12 -2.65505e+12 -2.30541e+12 -1.38823e+12 -1.02192e+12 -1.11068e+12 -545955000000.0 -159878000000.0 -181488000000.0 -1.37917e+12 -1.16827e+12 -228272000000.0 -1.12978e+12 -1.67901e+12 -1.98901e+12 -2.78527e+12 -1.4274e+12 -1.60805e+12 -1.79356e+12 -1.89967e+12 -2.19798e+12 -2.18035e+12 -2.35805e+12 -2.24993e+12 -2.21249e+12 -2.15412e+12 -1.97418e+12 -1.6892e+12 -2.29338e+12 -2.24618e+12 -2.13117e+12 -1.97091e+12 -1.69292e+12 -3.19116e+12 -3.02784e+12 -2.84655e+12 -2.70052e+12 -2.58247e+12 -2.48405e+12 -2.39826e+12 -2.32269e+12 -2.26395e+12 -2.21784e+12 -2.18736e+12 -2.16616e+12 -2.14896e+12 -2.15107e+12 -2.14956e+12 -2.16785e+12 -2.18256e+12 -2.21894e+12 -2.27584e+12 -2.38269e+12 -2.52877e+12 -2.67924e+12 -1.54113e+12 -1.76931e+12 -1.90295e+12 -2.02051e+12 -2.12223e+12 -2.21081e+12 -2.2861e+12 -2.35288e+12 -2.42588e+12 -2.53687e+12 -1.75846e+12 -1.89859e+12 -1.9384e+12 -1.95651e+12 -1.96738e+12 -2.27767e+12 -2.39055e+12 -2.47754e+12 -2.56155e+12 -2.66352e+12 -2.79814e+12 -2.64774e+12 -1.90196e+12 -2.0622e+12 -2.05311e+12 -2.02211e+12 -1.758e+12 -1.67567e+12 -1.50011e+12 -1.25168e+12 -1.32684e+12 -1.17478e+12 -1.12088e+12 -791506000000.0 -942181000000.0 -110369000000.0 -402348000000.0 -979254000000.0 -623468000000.0 -572980000000.0 -2.21386e+12 -2.42938e+12 -1.4697e+12 -1.50374e+12 -1.65596e+12 -1.74327e+12 -1.97154e+12 -1.9932e+12 -2.00112e+12 -2.1693e+12 -2.09018e+12 -1.67725e+12 -1.72401e+12 -1.68539e+12 -1.48475e+12 -2.46764e+12 -2.24109e+12 -2.08518e+12 -1.94216e+12 -1.79538e+12 -1.5535e+12 -2.96342e+12 -2.79148e+12 -2.62247e+12 -2.49246e+12 -2.39476e+12 -2.31781e+12 -2.25366e+12 -2.20043e+12 -2.15598e+12 -2.12049e+12 -2.0915e+12 -2.06899e+12 -2.05909e+12 -2.05617e+12 -2.06246e+12 -2.07498e+12 -2.09934e+12 -2.14639e+12 -2.22452e+12 -2.34312e+12 -2.46381e+12 -1.44343e+12 -1.63428e+12 -1.74698e+12 -1.85089e+12 -1.94344e+12 -2.02597e+12 -2.10167e+12 -2.17381e+12 -2.25165e+12 -2.35566e+12 -2.15871e+12 -2.20649e+12 -2.27511e+12 -2.34599e+12 -2.42401e+12 -2.51672e+12 -2.63073e+12 -1.90683e+12 -1.87264e+12 -1.82696e+12 -1.79532e+12 -1.42466e+12 -1.28526e+12 -1.10094e+12 -303137000000.0 -760081000000.0 -479213000000.0 -286583000000.0 -197608000000.0 -657679000000.0 -1.12216e+12 -1.5367e+12 -1.81011e+12 -2.06725e+12 -1.38122e+12 -1.49243e+12 -1.58486e+12 -1.78777e+12 -1.81274e+12 -1.80893e+12 -2.00327e+12 -1.98754e+12 -1.98681e+12 -2.02734e+12 -1.89228e+12 -1.77115e+12 -1.65343e+12 -1.46514e+12 -2.38035e+12 -2.28118e+12 -2.21503e+12 -2.16487e+12 -2.12243e+12 -2.08459e+12 -2.05034e+12 -2.01675e+12 -1.98798e+12 -1.96885e+12 -1.95855e+12 -1.95747e+12 -1.96279e+12 -1.97623e+12 -2.00243e+12 -2.04893e+12 -1.37251e+12 -1.52228e+12 -1.61484e+12 -1.70144e+12 -1.78251e+12 -1.85689e+12 -2.44291e+12 -1.6549e+12 -1.65686e+12 -1.64023e+12 -1.61426e+12 -2.08977e+12 -2.14365e+12 -2.20004e+12 -2.26006e+12 -2.3242e+12 -2.39217e+12 -2.32744e+12 -1.81084e+12 -1.74887e+12 -1.69316e+12 -1.62659e+12 -1.52696e+12 -1.037e+12 -1.10604e+12 -765390000000.0 -145729000000.0 -323640000000.0 -496606000000.0 -655945000000.0 -1.04348e+12 -1.4458e+12 -1.66103e+12 -1.30992e+12 -1.43771e+12 -1.65777e+12 -1.68399e+12 -1.66732e+12 -1.63525e+12 -1.80517e+12 -1.81046e+12 -1.81813e+12 -1.19917e+12 -1.31321e+12 -1.37487e+12 -2.36052e+12 -2.20613e+12 -2.66235e+12 -2.51473e+12 -1.97922e+12 -1.94223e+12 -1.90622e+12 -1.87922e+12 -2.12359e+12 -2.21297e+12 -1.33648e+12 -1.4338e+12 -1.92569e+12 -1.99177e+12 -2.0589e+12 -2.13328e+12 -2.21066e+12 -2.21743e+12 -1.63721e+12 -1.24582e+12 -1.27857e+12 -1.99865e+12 -2.04708e+12 -1.99848e+12 -2.03608e+12 -2.06885e+12 -2.09197e+12 -2.1076e+12 -1.98587e+12 -1.6989e+12 -1.50902e+12 -1.39434e+12 -1.18479e+12 -1.09443e+12 -834891000000.0 -776416000000.0 -97201100000.0 -453356000000.0 -110534000000.0 -106035000000.0 -121226000000.0 -202858000000.0 -250571000000.0 -516988000000.0 -1.61805e+12 -1.41802e+12 -1.5418e+12 -1.60275e+12 -1.63724e+12 -1.62172e+12 -1.49419e+12 -1.60084e+12 -1.61218e+12 -1.81963e+12 -697142000000.0 -1.30558e+12 -1.99843e+12 -2.02244e+12 -1.92069e+12 -1.81224e+12 -1.71562e+12 -1.62588e+12 -1.54168e+12 -1.41149e+12 -2.32923e+12 -2.22746e+12 -2.14456e+12 -2.08018e+12 -2.05266e+12 -2.02956e+12 -2.00505e+12 -1.86106e+12 -1.85228e+12 -1.8508e+12 -1.85415e+12 -1.86308e+12 -1.87994e+12 -1.90119e+12 -1.91088e+12 -1.50452e+12 -1.57317e+12 -1.63895e+12 -1.70269e+12 -1.76304e+12 -1.82035e+12 -1.87618e+12 -1.93076e+12 -1.97705e+12 -1.99949e+12 -1.89103e+12 -1.71591e+12 -765668000000.0 -1.72672e+12 -1.85844e+12 -1.91162e+12 -1.95761e+12 -1.85644e+12 -1.8557e+12 -1.82977e+12 -1.80347e+12 -1.66035e+12 -1.58035e+12 -1.59395e+12 -1.31544e+12 -1.17591e+12 -825516000000.0 -840374000000.0 -591173000000.0 -167192000000.0 -323285000000.0 -891346000000.0 -1.42127e+12 -1.50474e+12 -1.58402e+12 -1.63052e+12 -1.64577e+12 -1.58258e+12 -1.35495e+12 -1.4082e+12 -1.61372e+12 -1.61865e+12 -1.51955e+12 -1.14945e+12 -1.54472e+12 -1.74083e+12 -1.74785e+12 -1.69878e+12 -1.63272e+12 -1.56783e+12 -1.509e+12 -1.4582e+12 -1.38567e+12 -1.98692e+12 -1.96445e+12 -1.93581e+12 -1.88687e+12 -1.91532e+12 -1.91813e+12 -1.91426e+12 -1.87228e+12 -1.82472e+12 -1.78968e+12 -1.7639e+12 -1.74776e+12 -1.73987e+12 -1.73632e+12 -1.73373e+12 -1.732e+12 -1.72609e+12 -1.67805e+12 -1.38863e+12 -1.39116e+12 -1.41683e+12 -1.46408e+12 -1.5136e+12 -1.56353e+12 -1.61393e+12 -1.66267e+12 -1.7093e+12 -1.7531e+12 -1.7888e+12 -1.80549e+12 -1.7845e+12 -1.65632e+12 -1.5887e+12 -1.4144e+12 -1.6759e+12 -1.73431e+12 -1.78821e+12 -1.81995e+12 -1.84277e+12 -1.62857e+12 -1.52986e+12 -1.49799e+12 -1.3623e+12 -1.48095e+12 -1.44159e+12 -906941000000.0 -681244000000.0 -610250000000.0 -124356000000.0 -138961000000.0 -510409000000.0 -1.26787e+12 -1.32442e+12 -1.42831e+12 -1.54309e+12 -1.616e+12 -1.65529e+12 -942802000000.0 -1.4252e+12 -1.37535e+12 -1.34624e+12 -1.55939e+12 -1.29494e+12 -1.49178e+12 -1.55886e+12 -1.55992e+12 -1.52824e+12 -1.48638e+12 -1.44787e+12 -1.41989e+12 -1.40809e+12 -1.41475e+12 -1.71695e+12 -1.76659e+12 -1.75649e+12 -1.66692e+12 -1.82387e+12 -1.87846e+12 -1.81875e+12 -1.74487e+12 -1.7002e+12 -1.66631e+12 -1.64321e+12 -1.62961e+12 -1.62155e+12 -1.61419e+12 -1.60587e+12 -1.5907e+12 -1.55237e+12 -1.43141e+12 -1.37073e+12 -1.35408e+12 -1.37146e+12 -1.40384e+12 -1.43933e+12 -1.47772e+12 -1.51755e+12 -1.55628e+12 -1.59279e+12 -1.62445e+12 -1.64573e+12 -1.64934e+12 -1.63371e+12 -1.57973e+12 -1.63261e+12 -1.56831e+12 -1.49598e+12 -1.62827e+12 -1.66443e+12 -1.67736e+12 -1.67856e+12 -1.66563e+12 -1.23244e+12 -1.22142e+12 -1.0895e+12 -1.38062e+12 -1.27042e+12 -1.10185e+12 -506818000000.0 -363533000000.0 -120874000000.0 -116613000000.0 -394120000000.0 -1.17198e+12 -1.31757e+12 -1.48732e+12 -1.58676e+12 -1.64472e+12 -1.65631e+12 -1.15786e+12 -1.27082e+12 -1.39593e+12 -1.67257e+12 -2.20552e+12 -2.52372e+12 -1.48382e+12 -1.35152e+12 -1.38275e+12 -1.45931e+12 -1.58921e+12 -1.62472e+12 -1.5869e+12 -1.26719e+12 -2.00458e+12 -1.81996e+12 -1.66573e+12 -1.60908e+12 -1.5664e+12 -1.53683e+12 -1.518e+12 -1.50651e+12 -1.49751e+12 -1.4858e+12 -1.46847e+12 -1.43631e+12 -1.3739e+12 -1.32791e+12 -1.2941e+12 -1.28943e+12 -1.30457e+12 -1.3267e+12 -1.35307e+12 -1.67857e+12 -1.59085e+12 -1.55267e+12 -1.53127e+12 -1.51016e+12 -1.47682e+12 -1.42145e+12 -1.02223e+12 -837517000000.0 -1.23799e+12 -1.06432e+12 -844234000000.0 -746084000000.0 -1.08646e+12 -1.42459e+12 -1.54401e+12 -1.64669e+12 -691930000000.0 -890983000000.0 -1.03741e+12 -1.16675e+12 -1.33058e+12 -1.43992e+12 -1.42681e+12 -1.42412e+12 -1.40967e+12 -1.38626e+12 -1.36301e+12 -1.34878e+12 -1.3833e+12 -1.41448e+12 -1.44451e+12 -1.47234e+12 -1.49634e+12 -1.51552e+12 -1.53464e+12 -1.56948e+12 -1.47341e+12 -2.50938e+12 -2.52767e+12 -2.03162e+12 -1.39171e+12 -1.36504e+12 -1.33743e+12 -1.29871e+12 -1.21388e+12 -1.01481e+12 -619467000000.0 -1.04557e+12 -817667000000.0 -722802000000.0 -558028000000.0 -288019000000.0 -104886000000.0 -241820000000.0 -1.6382e+12 -1.63808e+12 -627509000000.0 -719694000000.0 -816140000000.0 -930625000000.0 -1.56636e+12 -1.81148e+12 -1.665e+12 -1.35021e+12 -1.30737e+12 -1.28965e+12 -1.28074e+12 -1.27018e+12 -1.25895e+12 -1.25322e+12 -1.26007e+12 -1.28711e+12 -1.34098e+12 -1.41094e+12 -1.49152e+12 -1.51625e+12 -1.417e+12 -1.68707e+12 -1.50782e+12 -1.4959e+12 -1.45644e+12 -1.42497e+12 -1.4037e+12 -1.3898e+12 -1.37935e+12 -1.36804e+12 -1.35153e+12 -1.32637e+12 -1.28745e+12 -1.25162e+12 -1.22586e+12 -1.20938e+12 -1.21088e+12 -1.22203e+12 -1.23787e+12 -1.25862e+12 -1.2822e+12 -1.30571e+12 -1.32822e+12 -1.34967e+12 -1.3705e+12 -1.39455e+12 -1.43057e+12 -1.45936e+12 -1.77327e+12 -2.0537e+12 -1.91184e+12 -1.66488e+12 -1.50227e+12 -1.43109e+12 -1.19214e+12 -1.17109e+12 -1.12826e+12 -989345000000.0 -991416000000.0 -851260000000.0 -723921000000.0 -549711000000.0 -342278000000.0 -90643800000.0 -298413000000.0 -582946000000.0 -1.49572e+12 -1.52769e+12 -1.64012e+12 -1.69616e+12 -648040000000.0 -635113000000.0 -647361000000.0 -1.04419e+12 -1.14485e+12 -1.16569e+12 -1.26437e+12 -1.24811e+12 -1.17307e+12 -1.15416e+12 -1.14647e+12 -1.14278e+12 -1.14017e+12 -1.14101e+12 -1.15015e+12 -1.17347e+12 -1.21643e+12 -1.27926e+12 -1.36405e+12 -1.47235e+12 -1.61691e+12 -1.56215e+12 -1.45752e+12 -1.31814e+12 -1.39288e+12 -1.34375e+12 -1.3082e+12 -1.28602e+12 -1.27102e+12 -1.26009e+12 -1.24962e+12 -1.23629e+12 -1.21666e+12 -1.19057e+12 -1.16322e+12 -1.14166e+12 -1.12626e+12 -1.11944e+12 -1.12215e+12 -1.13e+12 -1.14239e+12 -1.15847e+12 -1.17555e+12 -1.19217e+12 -1.20862e+12 -1.22536e+12 -1.24407e+12 -1.26892e+12 -1.30134e+12 -1.42831e+12 -1.5321e+12 -1.56221e+12 -1.47055e+12 -1.36849e+12 -1.28748e+12 -1.23953e+12 -1.21156e+12 -1.02643e+12 -924908000000.0 -908257000000.0 -851179000000.0 -662268000000.0 -431832000000.0 -819186000000.0 -355821000000.0 -68708900000.0 -1.35223e+12 -1.58941e+12 -1.64014e+12 -692694000000.0 -697883000000.0 -718559000000.0 -815830000000.0 -886505000000.0 -855743000000.0 -810917000000.0 -909919000000.0 -1.02543e+12 -1.01427e+12 -1.01104e+12 -1.01024e+12 -1.01171e+12 -1.01659e+12 -1.02729e+12 -1.04722e+12 -1.08121e+12 -1.13303e+12 -1.20933e+12 -1.31848e+12 -1.46447e+12 -1.69983e+12 -428373000000.0 -1.25036e+12 -1.21632e+12 -1.18221e+12 -1.16305e+12 -1.14958e+12 -1.13946e+12 -1.13043e+12 -1.12027e+12 -1.10635e+12 -1.08794e+12 -1.06855e+12 -1.05088e+12 -1.03713e+12 -1.02825e+12 -1.0253e+12 -1.02716e+12 -1.03297e+12 -1.04235e+12 -1.05326e+12 -1.06413e+12 -1.07517e+12 -1.08676e+12 -1.13165e+12 -1.14893e+12 -1.11312e+12 -1.06992e+12 -1.03822e+12 -1.02614e+12 -1.02651e+12 -819811000000.0 -768109000000.0 -653372000000.0 -480543000000.0 -285244000000.0 -748682000000.0 -564689000000.0 -142272000000.0 -435951000000.0 -481365000000.0 -1.55951e+12 -1.50811e+12 -690032000000.0 -477266000000.0 -509698000000.0 -614295000000.0 -708944000000.0 -744486000000.0 -696011000000.0 -1.34692e+12 -1.49043e+12 -1.09902e+12 -1.11357e+12 -1.13225e+12 -1.18068e+12 -1.21883e+12 -1.19575e+12 -885433000000.0 -853986000000.0 -827504000000.0 -847720000000.0 -877990000000.0 -870733000000.0 -454253000000.0 -340697000000.0 -215881000000.0 -601168000000.0 -364568000000.0 -135539000000.0 -76846300000.0 -320701000000.0 -395612000000.0 -771792000000.0 -749560000000.0 -728095000000.0 -218477000000.0 -388667000000.0 -535595000000.0 -623372000000.0 -872971000000.0 -882172000000.0 -878184000000.0 -876943000000.0 -878558000000.0 -884516000000.0 -895464000000.0 -912487000000.0 -938540000000.0 -977971000000.0 -1.03681e+12 -1.12961e+12 -1.27507e+12 -1.47418e+12 -1.14832e+12 -1.2012e+12 -1.07213e+12 -1.03941e+12 -1.02529e+12 -1.01674e+12 -1.01001e+12 -1.00331e+12 -994083000000.0 -981945000000.0 -968886000000.0 -956556000000.0 -945332000000.0 -936427000000.0 -930882000000.0 -928358000000.0 -929071000000.0 -932683000000.0 -938130000000.0 -943882000000.0 -949809000000.0 -956407000000.0 -963262000000.0 -970429000000.0 -977914000000.0 -989717000000.0 -989823000000.0 -954896000000.0 -814576000000.0 -876455000000.0 -906270000000.0 -607204000000.0 -690215000000.0 -790275000000.0 -736523000000.0 -679212000000.0 -611614000000.0 -317155000000.0 -49058400000.0 -437768000000.0 -292720000000.0 -65366000000.0 -81545000000.0 -246250000000.0 -1.2076e+12 -703663000000.0 -644000000000.0 -614329000000.0 -827791000000.0 -189373000000.0 -636933000000.0 -624344000000.0 -501336000000.0 -668693000000.0 -731286000000.0 -743409000000.0 -742589000000.0 -742084000000.0 -747718000000.0 -758176000000.0 -772444000000.0 -791956000000.0 -819255000000.0 -858854000000.0 -916354000000.0 -1.02002e+12 -1.19968e+12 -1.3449e+12 -274082000000.0 -864250000000.0 -839244000000.0 -872613000000.0 -884973000000.0 -886791000000.0 -885721000000.0 -884059000000.0 -880024000000.0 -873308000000.0 -865902000000.0 -858781000000.0 -851316000000.0 -844038000000.0 -837813000000.0 -833907000000.0 -831373000000.0 -829828000000.0 -830178000000.0 -831628000000.0 -833187000000.0 -835716000000.0 -838023000000.0 -840096000000.0 -841614000000.0 -839352000000.0 -822541000000.0 -783711000000.0 -728636000000.0 -738622000000.0 -731400000000.0 -696790000000.0 -664319000000.0 -627812000000.0 -605213000000.0 -646321000000.0 -587491000000.0 -563377000000.0 -438714000000.0 -297820000000.0 -121522000000.0 -477945000000.0 -653729000000.0 -589072000000.0 -676242000000.0 -618112000000.0 -646932000000.0 -877033000000.0 -361281000000.0 -510532000000.0 -548015000000.0 -436665000000.0 -499746000000.0 -581936000000.0 -609319000000.0 -609686000000.0 -601691000000.0 -606609000000.0 -617773000000.0 -630159000000.0 -644235000000.0 -662348000000.0 -684759000000.0 -714921000000.0 -751193000000.0 -861171000000.0 -1.13333e+12 -857643000000.0 -539286000000.0 -530649000000.0 -684263000000.0 -736831000000.0 -751925000000.0 -758386000000.0 -761024000000.0 -762607000000.0 -762416000000.0 -760841000000.0 -759446000000.0 -755833000000.0 -751082000000.0 -746143000000.0 -742870000000.0 -739337000000.0 -735321000000.0 -731084000000.0 -728161000000.0 -725987000000.0 -725527000000.0 -724807000000.0 -722012000000.0 -719618000000.0 -714996000000.0 -695985000000.0 -645375000000.0 -584922000000.0 -640540000000.0 -628407000000.0 -616282000000.0 -495804000000.0 -418268000000.0 -432518000000.0 -336707000000.0 -515905000000.0 -510723000000.0 -416560000000.0 -277460000000.0 -244251000000.0 -175950000000.0 -68047000000.0 -296414000000.0 -93421600000.0 -268882000000.0 -457469000000.0 -53257400000.0 -417197000000.0 -234423000000.0 -397245000000.0 -447965000000.0 -371813000000.0 -421449000000.0 -389095000000.0 -471580000000.0 -649326000000.0 -1.08956e+12 -957676000000.0 -55339600000.0 -495407000000.0 -601622000000.0 -621304000000.0 -659919000000.0 -658003000000.0 -656912000000.0 -655762000000.0 -651926000000.0 -461487000000.0 -262417000000.0 -297464000000.0 -306750000000.0 -71933300000.0 -503635000000.0 -394601000000.0 -350176000000.0 -217112000000.0 -47378200000.0 -255171000000.0 -65952700000.0 -65701200000.0 -334705000000.0 -26903500000.0 -495180000000.0 -464558000000.0 -531843000000.0 -940053000000.0 -274549000000.0 -376363000000.0 -493710000000.0 -486857000000.0 -457872000000.0 -457299000000.0 -473804000000.0 -486838000000.0 -499209000000.0 -509148000000.0 -521382000000.0 -528707000000.0 -529608000000.0 -746816000000.0 -633509000000.0 -637489000000.0 -641658000000.0 -647215000000.0 -652016000000.0 -658044000000.0 -647061000000.0 -640904000000.0 -634935000000.0 -629863000000.0 -624614000000.0 -621115000000.0 -614363000000.0 -606686000000.0 -601216000000.0 -593044000000.0 -566187000000.0 -500633000000.0 -492171000000.0 -528577000000.0 -528431000000.0 -177122000000.0 -123446000000.0 -404439000000.0 -581124000000.0 -472148000000.0 -399063000000.0 -294922000000.0 -247431000000.0 -78725100000.0 -63347500000.0 -383401000000.0 -430757000000.0 -480382000000.0 -746591000000.0 -1.12397e+12 -267925000000.0 -327456000000.0 -297133000000.0 -265882000000.0 -408377000000.0 -319318000000.0 -327078000000.0 -331555000000.0 -343414000000.0 -356679000000.0 -365650000000.0 -365138000000.0 -374891000000.0 -360434000000.0 -344498000000.0 -334274000000.0 -324236000000.0 -965046000000.0 -572918000000.0 -225115000000.0 -504696000000.0 -513183000000.0 -513120000000.0 -522815000000.0 -518519000000.0 -530471000000.0 -536642000000.0 -553456000000.0 -560990000000.0 -566374000000.0 -567100000000.0 -572752000000.0 -568904000000.0 -563912000000.0 -557668000000.0 -552309000000.0 -547875000000.0 -534664000000.0 -522773000000.0 -511165000000.0 -500397000000.0 -489812000000.0 -488088000000.0 -490504000000.0 -442120000000.0 -374576000000.0 -388220000000.0 -426003000000.0 -397603000000.0 -227481000000.0 -151688000000.0 -134872000000.0 -543606000000.0 -483728000000.0 -434582000000.0 -395582000000.0 -379822000000.0 -338524000000.0 -45644000000.0 -136547000000.0 -31184000000.0 -74407700000.0 -112007000000.0 -190421000000.0 -356824000000.0 -485859000000.0 -679659000000.0 -841876000000.0 -659545000000.0 -610043000000.0 -569066000000.0 -444949000000.0 -318372000000.0 -206616000000.0 -209038000000.0 -222257000000.0 -230204000000.0 -227657000000.0 -234662000000.0 -235647000000.0 -241327000000.0 -234475000000.0 -266686000000.0 -220947000000.0 -260073000000.0 -180152000000.0 -166346000000.0 -822754000000.0 -718685000000.0 -450159000000.0 -431892000000.0 -405640000000.0 -402432000000.0 -403465000000.0 -416642000000.0 -443844000000.0 -460983000000.0 -470528000000.0 -480758000000.0 -483781000000.0 -494906000000.0 -491038000000.0 -477405000000.0 -471312000000.0 -475603000000.0 -464282000000.0 -443878000000.0 -420286000000.0 -402001000000.0 -384408000000.0 -369616000000.0 -379767000000.0 -391673000000.0 -277057000000.0 -279997000000.0 -288444000000.0 -311001000000.0 -195144000000.0 -153078000000.0 -93146400000.0 -131123000000.0 -116287000000.0 -23268100000.0 -238669000000.0 -161600000000.0 -126300000000.0 -114683000000.0 -72898000000.0 -54445400000.0 -52548300000.0 -18542100000.0 -9035750000.0 -9035750000.0 -9113450000.0 -9041920000.0 -383103000000.0 -47626300000.0 -973321000000.0 -940828000000.0 -322980000000.0 -192030000000.0 -126922000000.0 -402928000000.0 -68654100000.0 -17973200000.0 -9035750000.0 -9035750000.0 -50045400000.0 -224711000000.0 -297233000000.0 -355862000000.0 -443811000000.0 -726073000000.0 -487524000000.0 -488323000000.0 -461648000000.0 -431832000000.0 -407313000000.0 -433742000000.0 -432068000000.0 -416632000000.0 -389919000000.0 -367317000000.0 -336198000000.0 -307823000000.0 -266969000000.0 -256144000000.0 -177247000000.0 -173937000000.0 -83486500000.0 -288597000000.0 -417672000000.0 -481830000000.0 -181454000000.0 -362536000000.0 -198819000000.0 -336743000000.0 -225469000000.0 -349415000000.0 -340166000000.0 -390290000000.0 -374390000000.0 -416856000000.0 -386694000000.0 -451883000000.0 -387594000000.0 -406905000000.0 -413778000000.0 -401641000000.0 -379908000000.0 -349154000000.0 -323300000000.0 -293123000000.0 -265793000000.0 -230102000000.0 -315036000000.0 -183977000000.0 -178350000000.0 -185206000000.0 -180839000000.0 -175392000000.0 -218324000000.0 -137544000000.0 -156711000000.0 -316664000000.0 -223574000000.0 -146601000000.0 -97822700000.0 -82351500000.0 -15031700000.0 -27360900000.0 -40540300000.0 -53927000000.0 -98206500000.0 -215919000000.0 -263648000000.0 -304073000000.0 -304593000000.0 -419563000000.0 -31503800000.0 -141487000000.0 -114526000000.0 -83909600000.0 -65534800000.0 -42573200000.0 -59914500000.0 -76869700000.0 -95112300000.0 -108257000000.0 -130427000000.0 -149315000000.0 -175145000000.0 -189360000000.0 -240591000000.0 -220799000000.0 -259652000000.0 -206196000000.0 -290439000000.0 -9362330000.0 -384854000000.0 -450436000000.0 -202133000000.0 -132297000000.0 -273068000000.0 -145940000000.0 -227507000000.0 -127164000000.0 -173408000000.0 -141767000000.0 -162046000000.0 -128127000000.0 -159072000000.0 -121786000000.0 -209061000000.0 -253670000000.0 -388536000000.0 -334105000000.0 -334996000000.0 -280081000000.0 -256832000000.0 -206999000000.0 -174984000000.0 -156367000000.0 -192478000000.0 -124539000000.0 -162496000000.0 -189874000000.0 -220672000000.0 -241685000000.0 -231395000000.0 -230263000000.0 -170585000000.0 -132461000000.0 -112315000000.0 -143132000000.0 -122581000000.0 -247736000000.0 -239285000000.0 -213324000000.0 -198253000000.0 -167098000000.0 -109987000000.0 -70076100000.0 -29651800000.0 -19345700000.0 -40053500000.0 -61588700000.0 -199456000000.0 -251490000000.0 -133962000000.0 -9053060000.0 -9035750000.0 -9035750000.0 -84235200000.0 -131592000000.0 -239599000000.0 -307769000000.0 -373624000000.0 -401630000000.0 -436316000000.0 -85732800000.0 -194953000000.0 -165624000000.0 -133280000000.0 -113554000000.0 -104574000000.0 -127598000000.0 -139898000000.0 -145204000000.0 -144565000000.0 -149819000000.0 -148878000000.0 -151848000000.0 -146570000000.0 -157468000000.0 -124574000000.0 -140485000000.0 -119811000000.0 -133574000000.0 -187902000000.0 -277030000000.0 -111417000000.0 -13826900000.0 -65003100000.0 -14832100000.0 -58584000000.0 -41371300000.0 -64834600000.0 -42421700000.0 -68493800000.0 -40990800000.0 -112214000000.0 -99485800000.0 -194255000000.0 -146714000000.0 -161119000000.0 -136735000000.0 -144480000000.0 -125140000000.0 -115357000000.0 -102567000000.0 -130754000000.0 -79466600000.0 -86958700000.0 -92591500000.0 -100612000000.0 -102021000000.0 -89465900000.0 -85350200000.0 -51167400000.0 -68448700000.0 -84841200000.0 -131470000000.0 -159098000000.0 -206316000000.0 -106044000000.0 -53667000000.0 -42576000000.0 -24405200000.0 -9036970000.0 -9035830000.0 -9042650000.0 -9745740000.0 -26727600000.0 -90682300000.0 -138821000000.0 -197281000000.0 -253959000000.0 -320976000000.0 -36798200000.0 -101272000000.0 -80884600000.0 -64314700000.0 -46753500000.0 -28607700000.0 -31657800000.0 -31471500000.0 -32134400000.0 -28743200000.0 -30712500000.0 -28547800000.0 -35118100000.0 -38880500000.0 -59663300000.0 -43731300000.0 -49973000000.0 -32796000000.0 -116608000000.0 -9035760000.0 -112990000000.0 -282356000000.0 -221428000000.0 -149937000000.0 -178009000000.0 -116585000000.0 -133685000000.0 -96614600000.0 -106121000000.0 -85403500000.0 -97578200000.0 -69771600000.0 -80403300000.0 -46630600000.0 -86624100000.0 -61634900000.0 -135337000000.0 -107288000000.0 -127705000000.0 -110488000000.0 -122041000000.0 -109490000000.0 -102738000000.0 -88869000000.0 -108833000000.0 -79443600000.0 -81316400000.0 -80379500000.0 -81728400000.0 -78256000000.0 -63436700000.0 -49238800000.0 -16548600000.0 -14716700000.0 -12536800000.0 -23956100000.0 -76235100000.0 -165791000000.0 -112722000000.0 -81703700000.0 -67848100000.0 -41581900000.0 -23833000000.0 -17943200000.0 -12016600000.0 -9039030000.0 -9035960000.0 -9054300000.0 -11146500000.0 -25550800000.0 -76794600000.0 -126675000000.0 -184714000000.0 -236561000000.0 -253502000000.0 -12008200000.0 -92490700000.0 -83582600000.0 -67434200000.0 -47826600000.0 -35581000000.0 -41216200000.0 -43356800000.0 -47956200000.0 -47489800000.0 -52036700000.0 -52745500000.0 -57026400000.0 -57484400000.0 -67685400000.0 -51091600000.0 -52519100000.0 -43252000000.0 -107596000000.0 -54842600000.0 -149141000000.0 -216659000000.0 -58933600000.0 -38170300000.0 -46614200000.0 -20064100000.0 -29991100000.0 -18944400000.0 -24055700000.0 -17155700000.0 -32984300000.0 -15084200000.0 -29874700000.0 -10656100000.0 -47028300000.0 -28736200000.0 -84142500000.0 -61499700000.0 -80140600000.0 -66025600000.0 -78428800000.0 -69155400000.0 -64681600000.0 -52623700000.0 -68760100000.0 -54579300000.0 -58952600000.0 -59808900000.0 -60034900000.0 -56552900000.0 -45178500000.0 -31869500000.0 -13642400000.0 -14716000000.0 -15783700000.0 -18076700000.0 -80517000000.0 -152302000000.0 -87503800000.0 -57225400000.0 -43362000000.0 -18896300000.0 -9035750000.0 -9035750000.0 -9035980000.0 -9040700000.0 -9036060000.0 -9063710000.0 -11410700000.0 -18884400000.0 -50155600000.0 -88571600000.0 -139922000000.0 -197859000000.0 -210262000000.0 -9911060000.0 -76606800000.0 -73709900000.0 -61603500000.0 -42681700000.0 -28860600000.0 -28543800000.0 -26468700000.0 -28306800000.0 -25962600000.0 -27967000000.0 -27002400000.0 -29077800000.0 -29197300000.0 -37131800000.0 -24151900000.0 -22294600000.0 -13626100000.0 -59351600000.0 -14924200000.0 -77801000000.0 -163684000000.0 -62406100000.0 -55055100000.0 -55478200000.0 -33847200000.0 -36474100000.0 -27464100000.0 -25625500000.0 -17464200000.0 -29816900000.0 -13105300000.0 -25655600000.0 -10351000000.0 -39084400000.0 -22590600000.0 -61721100000.0 -44590300000.0 -61418900000.0 -50157200000.0 -61342300000.0 -53961000000.0 -51336600000.0 -40267800000.0 -51117400000.0 -45279500000.0 -48983700000.0 -48970100000.0 -47121000000.0 -43386900000.0 -33446800000.0 -20122400000.0 -9035760000.0 -9062890000.0 -9035780000.0 -9092600000.0 -70770900000.0 -139576000000.0 -83148000000.0 -56433800000.0 -41842400000.0 -17185000000.0 -9035750000.0 -9035750000.0 -9036370000.0 -9041790000.0 -9036130000.0 -9069750000.0 -11543100000.0 -16049700000.0 -38500500000.0 -69210500000.0 -114671000000.0 -170946000000.0 -173599000000.0 -9135770000.0 -65720900000.0 -66905100000.0 -57362400000.0 -40510800000.0 -29203900000.0 -27379200000.0 -25048000000.0 -26712000000.0 -24779300000.0 -26480800000.0 -25688900000.0 -27246200000.0 -27541400000.0 -33312300000.0 -22671000000.0 -20927300000.0 -13168200000.0 -49695500000.0 -19172700000.0 -71878500000.0 -123287000000.0 -19366900000.0 -28701400000.0 -29184200000.0 -18362400000.0 -20802800000.0 -18105900000.0 -15669300000.0 -10532400000.0 -21654700000.0 -9573800000.0 -19804800000.0 -9565040000.0 -33271300000.0 -20155200000.0 -46806000000.0 -33775400000.0 -48061900000.0 -39133500000.0 -48307500000.0 -42468200000.0 -41292000000.0 -32605000000.0 -40275700000.0 -37061200000.0 -40754800000.0 -40292100000.0 -37709000000.0 -34518400000.0 -26116800000.0 -14836200000.0 -9035760000.0 -9060100000.0 -9035770000.0 -9163890000.0 -65793400000.0 -124410000000.0 -73747100000.0 -51181500000.0 -38101300000.0 -15736800000.0 -9035760000.0 -9035750000.0 -9036660000.0 -9042150000.0 -9036150000.0 -9071690000.0 -11411500000.0 -13932800000.0 -30561500000.0 -53329200000.0 -91906800000.0 -142681000000.0 -140019000000.0 -9224200000.0 -54692500000.0 -58100000000.0 -51424000000.0 -37501300000.0 -28116600000.0 -25373800000.0 -23127600000.0 -24389500000.0 -22737700000.0 -24087400000.0 -23405800000.0 -24534200000.0 -24984100000.0 -29256400000.0 -21130800000.0 -19482200000.0 -12515400000.0 -38052600000.0 -14764500000.0 -60905700000.0 -100736000000.0 -10612000000.0 -23546600000.0 -24327000000.0 -16703200000.0 -18262100000.0 -16729500000.0 -13356400000.0 -9770540000.0 -17874300000.0 -9338990000.0 -16501600000.0 -9463630000.0 -28225900000.0 -18655400000.0 -37220900000.0 -26798500000.0 -37699200000.0 -30899700000.0 -38117600000.0 -33644100000.0 -33286500000.0 -28133600000.0 -33997100000.0 -30277400000.0 -33597500000.0 -32762500000.0 -30013300000.0 -27516900000.0 -20355300000.0 -11419500000.0 -9035770000.0 -9056880000.0 -9035780000.0 -9220640000.0 -58729500000.0 -106749000000.0 -63837200000.0 -45260200000.0 -33786900000.0 -14435600000.0 -9035760000.0 -9035750000.0 -9036820000.0 -9041730000.0 -9036120000.0 -9069290000.0 -11087900000.0 -12368000000.0 -24557400000.0 -40427900000.0 -71067100000.0 -113394000000.0 -108452000000.0 -9258700000.0 -43932900000.0 -48072200000.0 -43680700000.0 -32910300000.0 -25420300000.0 -22508400000.0 -20653600000.0 -21562000000.0 -20200300000.0 -21237000000.0 -20704300000.0 -21515900000.0 -21979900000.0 -24956700000.0 -19041500000.0 -17549900000.0 -11867300000.0 -29849300000.0 -13808200000.0 -51120700000.0 -78816500000.0 -9126150000.0 -19116400000.0 -20756000000.0 -15002000000.0 -16283300000.0 -15120700000.0 -11803300000.0 -9569180000.0 -14987000000.0 -9272750000.0 -14131200000.0 -9362860000.0 -23857500000.0 -17142600000.0 -30499400000.0 -22193900000.0 -29544900000.0 -24548000000.0 -29879300000.0 -26690100000.0 -26784700000.0 -24642400000.0 -28943700000.0 -24621600000.0 -27247600000.0 -26295600000.0 -23792000000.0 -22056400000.0 -16112200000.0 -9736270000.0 -9035770000.0 -9053020000.0 -9035790000.0 -9237710000.0 -49779200000.0 -86809800000.0 -52635300000.0 -38121000000.0 -28780700000.0 -13259700000.0 -9035760000.0 -9035750000.0 -9036810000.0 -9040580000.0 -9036050000.0 -9062850000.0 -10605300000.0 -11178300000.0 -19526500000.0 -29814100000.0 -51923000000.0 -83627900000.0 -78498500000.0 -9238870000.0 -33517400000.0 -37232200000.0 -34561600000.0 -26998800000.0 -21520400000.0 -19005100000.0 -17671900000.0 -18270900000.0 -17244300000.0 -17973400000.0 -17592700000.0 -18154800000.0 -18527900000.0 -20468000000.0 -16485200000.0 -15292300000.0 -11119700000.0 -22852100000.0 -39962100000.0 -57760300000.0 -9038330000.0 -15509400000.0 -17642700000.0 -13276600000.0 -14431100000.0 -13387400000.0 -10803300000.0 -9436610000.0 -12835800000.0 -9211380000.0 -12436000000.0 -9264860000.0 -19732900000.0 -15220600000.0 -24491800000.0 -18437000000.0 -22980200000.0 -19527700000.0 -23069200000.0 -21033300000.0 -21334500000.0 -20794300000.0 -23677700000.0 -19692500000.0 -21539000000.0 -20684900000.0 -18719000000.0 -17676900000.0 -13154900000.0 -9181780000.0 -9035770000.0 -9048590000.0 -9035780000.0 -9213270000.0 -39216900000.0 -65292700000.0 -40554600000.0 -30176700000.0 -23311600000.0 -12136300000.0 -9035760000.0 -9035750000.0 -9036640000.0 -12591400000.0 -9038840000.0 -9035940000.0 -9053140000.0 -10007400000.0 -10224300000.0 -15051500000.0 -20777300000.0 -33962600000.0 -53440100000.0 -49743000000.0 -9174120000.0 -23412800000.0 -25907500000.0 -24503900000.0 -20080600000.0 -16765700000.0 -15081100000.0 -14305600000.0 -14638100000.0 -14003300000.0 -14432600000.0 -14205800000.0 -14539900000.0 -14770400000.0 -15853300000.0 -13577700000.0 -12818000000.0 -10303700000.0 -16817900000.0 -11201400000.0 -27784100000.0 -37565700000.0 -9035800000.0 -12619400000.0 -14338500000.0 -11549700000.0 -12383100000.0 -11614200000.0 -10056500000.0 -9284840000.0 -11156300000.0 -9142760000.0 -11025500000.0 -9170050000.0 -15495400000.0 -12877000000.0 -18345400000.0 -14707600000.0 -17178000000.0 -15152700000.0 -17127800000.0 -16030200000.0 -16306600000.0 -16294400000.0 -17932600000.0 -15189700000.0 -16277300000.0 -15687800000.0 -14456900000.0 -13943600000.0 -11131300000.0 -9057900000.0 -9035760000.0 -9043690000.0 -9035770000.0 -9154830000.0 -27415200000.0 -42748400000.0 -27911600000.0 -21734000000.0 -17575500000.0 -10943300000.0 -9035750000.0 -9035750000.0 -9036330000.0 -9036740000.0 -9035810000.0 -9041330000.0 -9343740000.0 -9394750000.0 -10889600000.0 -21697300000.0 -9080620000.0 -13508800000.0 -14324600000.0 -13905800000.0 -12533400000.0 -11489000000.0 -10938400000.0 -10732700000.0 -10661800000.0 -10766400000.0 -10838400000.0 -11168500000.0 -10466900000.0 -10224800000.0 -9438050000.0 -11415900000.0 -14941800000.0 -17918900000.0 -9035750000.0 -10121400000.0 -10721200000.0 -9820910000.0 -10101800000.0 -9839870000.0 -9352630000.0 -9114830000.0 -9680830000.0 -9069480000.0 -9655960000.0 -9077480000.0 -11069300000.0 -10256800000.0 -11962400000.0 -10821300000.0 -11566800000.0 -10936400000.0 -11534000000.0 -11207300000.0 -11306800000.0 -11337500000.0 -11841000000.0 -10933800000.0 -11275900000.0 -11077500000.0 -10687000000.0 -10544200000.0 -9648540000.0 -9038050000.0 -9035760000.0 -9038290000.0 -9035760000.0 -9074520000.0 -14832900000.0 -14954500000.0 -13022100000.0 -11712300000.0 -9640300000.0 -9035750000.0 -9035750000.0 -9035940000.0 -12626800000.0 -16754500000.0 -22934400000.0 -10699300000.0 -10800500000.0 -10598700000.0 -9714510000.0 -19611500000.0 
SCALARS Shear_Stress float 1
LOOKUP_TABLE default
169191000.0 29378500000.0 20431500000.0 7768560000.0 54827300000.0 27540400000.0 53361700000.0 47409900000.0 51955200000.0 45244400000.0 58228700000.0 21410300000.0 61481200000.0 27277400000.0 11524700000.0 5860540000.0 34763800000.0 65919200000.0 10679800000.0 23262700000.0 12858200000.0 36876900000.0 31342400000.0 78505400000.0 26481200000.0 69156300000.0 41845900000.0 60439100000.0 31576700000.0 26844700000.0 17123300000.0 63251000000.0 126090000000.0 102414000000.0 106237000000.0 12935400000.0 81041800000.0 30499700000.0 45210900000.0 58674800000.0 14340000000.0 120205000000.0 102308000000.0 9080410000.0 3497660000.0 33389400000.0 23657800000.0 23126200000.0 47420600000.0 84048500000.0 66688400000.0 114672000000.0 80845100000.0 187765000000.0 113720000000.0 93540300000.0 17852400000.0 22069000000.0 68067600000.0 3319870000.0 40409100000.0 23257200000.0 99220700000.0 10767900000.0 76842500000.0 56913200000.0 6085300000.0 46869100000.0 41381300000.0 62268500000.0 106720000000.0 75205000000.0 134072000000.0 85444600000.0 194161000000.0 232441000000.0 188581000000.0 22195700000.0 127252000000.0 112337000000.0 57932700000.0 206965000000.0 37994900000.0 1153320000.0 73901900000.0 65816400000.0 46758000000.0 12619400000.0 49278500000.0 175892000000.0 252002000000.0 55923300000.0 174726000000.0 182475000000.0 154368000000.0 51593700000.0 117200000000.0 146365000000.0 105356000000.0 126717000000.0 93655300000.0 97415800000.0 70442900000.0 73582500000.0 71344600000.0 100454000000.0 38015400000.0 1723610000.0 135880000000.0 138502000000.0 239437000000.0 248011000000.0 281031000000.0 220686000000.0 252845000000.0 194160000000.0 256756000000.0 146152000000.0 459742000000.0 262877000000.0 188687000000.0 154802000000.0 124037000000.0 95558500000.0 81405300000.0 83587200000.0 70303900000.0 161144000000.0 132705000000.0 108088000000.0 348625000000.0 210888000000.0 398265000000.0 300902000000.0 373794000000.0 312928000000.0 339560000000.0 297744000000.0 280831000000.0 294707000000.0 377367000000.0 169904000000.0 145177000000.0 116621000000.0 93926400000.0 155149000000.0 295889000000.0 571320000000.0 433284000000.0 427541000000.0 391828000000.0 342438000000.0 302547000000.0 271572000000.0 128293000000.0 219839000000.0 152524000000.0 134104000000.0 131402000000.0 119316000000.0 109317000000.0 103003000000.0 96960100000.0 72626700000.0 284584000000.0 579768000000.0 349109000000.0 445208000000.0 431122000000.0 384108000000.0 331177000000.0 299517000000.0 277515000000.0 190677000000.0 149593000000.0 63907600000.0 154123000000.0 112577000000.0 155169000000.0 122819000000.0 118779000000.0 109161000000.0 120406000000.0 91821300000.0 227851000000.0 364517000000.0 521952000000.0 260736000000.0 216230000000.0 201319000000.0 361682000000.0 382516000000.0 437462000000.0 421313000000.0 415044000000.0 386070000000.0 361628000000.0 326252000000.0 231403000000.0 89075800000.0 54064800000.0 84168100000.0 103774000000.0 106699000000.0 99016400000.0 225834000000.0 262679000000.0 119537000000.0 264223000000.0 385988000000.0 394663000000.0 348009000000.0 272005000000.0 139056000000.0 19892600000.0 29890400000.0 67851000000.0 59095100000.0 91511700000.0 81372600000.0 95375900000.0 81624000000.0 152855000000.0 168718000000.0 188031000000.0 115826000000.0 148850000000.0 307927000000.0 374546000000.0 358700000000.0 303474000000.0 251373000000.0 195543000000.0 104598000000.0 47689000000.0 24978700000.0 14176800000.0 42314100000.0 14615600000.0 9144860000.0 53086800000.0 68988500000.0 194866000000.0 304850000000.0 90690000000.0 9344770000.0 82914900000.0 883607000.0 67553500000.0 125844000000.0 216377000000.0 252954000000.0 321550000000.0 317922000000.0 352244000000.0 321567000000.0 319138000000.0 286296000000.0 177944000000.0 11597100000.0 78576200000.0 53367900000.0 8021690000.0 45099800000.0 50907700000.0 72585200000.0 80837000000.0 3584800000.0 191907000000.0 257935000000.0 310549000000.0 295048000000.0 257292000000.0 84909800000.0 74034300000.0 118768000000.0 128842000000.0 53354700000.0 53469900000.0 5577070000.0 1213220000.0 31086000000.0 7916460000.0 246655000000.0 449228000000.0 223563000000.0 163220000000.0 133035000000.0 103283000000.0 196830000000.0 262763000000.0 297224000000.0 295842000000.0 314118000000.0 187837000000.0 88204400000.0 17741700000.0 121617000000.0 150470000000.0 216431000000.0 133353000000.0 56237100000.0 14371500000.0 307307000000.0 572794000000.0 315095000000.0 249767000000.0 310683000000.0 107105000000.0 59540400000.0 166980000000.0 92234500000.0 175030000000.0 206864000000.0 293221000000.0 316387000000.0 295963000000.0 357542000000.0 228597000000.0 16285200000.0 233284000000.0 234863000000.0 146823000000.0 53192400000.0 42674700000.0 333258000000.0 409887000000.0 319509000000.0 101143000000.0 26404400000.0 341694000000.0 342221000000.0 463459000000.0 107654000000.0 100430000000.0 147891000000.0 382662000000.0 568815000000.0 287017000000.0 285783000000.0 133642000000.0 91520300000.0 53946600000.0 89632200000.0 373362000000.0 651254000000.0 363611000000.0 423290000000.0 536561000000.0 500436000000.0 94645900000.0 163316000000.0 167024000000.0 411090000000.0 523062000000.0 859479000000.0 273943000000.0 44900700000.0 8460790000.0 28832200000.0 196582000000.0 655378000000.0 206926000000.0 54736200000.0 437329000000.0 680266000000.0 415530000000.0 695741000000.0 573964000000.0 337673000000.0 183522000000.0 263560000000.0 168157000000.0 42985800000.0 517347000000.0 776126000000.0 407783000000.0 577364000000.0 37614200000.0 94225100000.0 95643100000.0 160782000000.0 32278200000.0 601652000000.0 400451000000.0 75219600000.0 112336000000.0 327116000000.0 447412000000.0 969187000000.0 60337800000.0 204769000000.0 183533000000.0 330619000000.0 828313000000.0 26084200000.0 217534000000.0 219799000000.0 351041000000.0 188147000000.0 201746000000.0 192266000000.0 87859700000.0 47774700000.0 73338700000.0 483364000000.0 681358000000.0 288301000000.0 335003000000.0 267765000000.0 411578000000.0 357772000000.0 659424000000.0 43204400000.0 5719250000.0 437128000000.0 334568000000.0 165939000000.0 31183400000.0 414428000000.0 349671000000.0 231985000000.0 502935000000.0 836278000000.0 247055000000.0 440714000000.0 679871000000.0 316469000000.0 21545400000.0 114612000000.0 601329000000.0 183670000000.0 111900000000.0 76166900000.0 320932000000.0 498831000000.0 25035400000.0 941827000000.0 296702000000.0 366270000000.0 515259000000.0 345619000000.0 260600000000.0 210266000000.0 312238000000.0 436396000000.0 1.09886e+12 193629000000.0 653043000000.0 302757000000.0 465691000000.0 280472000000.0 76597500000.0 101929000000.0 161601000000.0 638400000000.0 21070300000.0 131999000000.0 41424100000.0 337956000000.0 317436000000.0 160299000000.0 164492000000.0 454073000000.0 553742000000.0 647713000000.0 146607000000.0 243877000000.0 594818000000.0 1.02093e+12 485891000000.0 352123000000.0 350943000000.0 681560000000.0 285691000000.0 129799000000.0 149636000000.0 133739000000.0 165444000000.0 396854000000.0 891296000000.0 972054000000.0 224791000000.0 656978000000.0 178654000000.0 83077000000.0 92665700000.0 195654000000.0 361866000000.0 555555000000.0 802353000000.0 546436000000.0 337605000000.0 556351000000.0 601573000000.0 664245000000.0 249579000000.0 594579000000.0 474616000000.0 398345000000.0 154870000000.0 362819000000.0 742181000000.0 592835000000.0 125963000000.0 267356000000.0 470103000000.0 869561000000.0 231595000000.0 28108700000.0 358894000000.0 1.03476e+12 202245000000.0 654328000000.0 1.04012e+12 948267000000.0 506206000000.0 491680000000.0 227989000000.0 333658000000.0 505060000000.0 751098000000.0 714024000000.0 821767000000.0 752666000000.0 259739000000.0 464967000000.0 705136000000.0 1.21802e+12 180836000000.0 212316000000.0 611537000000.0 1.4808e+12 8736060000.0 42202400000.0 424125000000.0 1.104e+12 1.09174e+12 794859000000.0 1.03469e+12 482988000000.0 273761000000.0 276555000000.0 150152000000.0 741580000000.0 892557000000.0 764468000000.0 562102000000.0 290727000000.0 766485000000.0 517612000000.0 31190700000.0 107455000000.0 252187000000.0 364631000000.0 563551000000.0 439986000000.0 343588000000.0 594090000000.0 429645000000.0 383122000000.0 1.14449e+12 877488000000.0 94465900000.0 604273000000.0 924686000000.0 905619000000.0 639788000000.0 389918000000.0 390211000000.0 393671000000.0 659993000000.0 1.54274e+12 534583000000.0 171604000000.0 353473000000.0 1.81703e+12 429445000000.0 19302100000.0 114236000000.0 303438000000.0 200464000000.0 647317000000.0 1.12089e+12 225513000000.0 771368000000.0 381453000000.0 380996000000.0 210383000000.0 507275000000.0 839108000000.0 898434000000.0 1.02866e+12 996611000000.0 990934000000.0 844714000000.0 551426000000.0 509044000000.0 1.30545e+12 490727000000.0 71225800000.0 42990700000.0 237926000000.0 385563000000.0 620621000000.0 1.48621e+12 361478000000.0 1.10904e+12 223244000000.0 33261400000.0 310370000000.0 1.05753e+12 1.46994e+12 1.11462e+12 936607000000.0 298705000000.0 959671000000.0 1.2138e+12 453615000000.0 845625000000.0 1.02209e+12 1.07641e+12 949498000000.0 768489000000.0 737751000000.0 586333000000.0 940456000000.0 218351000000.0 273826000000.0 177097000000.0 747838000000.0 121697000000.0 267020000000.0 538150000000.0 258578000000.0 308696000000.0 38672400000.0 654792000000.0 456390000000.0 1.23943e+12 911554000000.0 822722000000.0 497999000000.0 419232000000.0 733425000000.0 1.26796e+12 1.02233e+12 1.10418e+12 1.07339e+12 909753000000.0 802843000000.0 780565000000.0 869640000000.0 893710000000.0 184227000000.0 77038300000.0 422539000000.0 996562000000.0 61395300000.0 252593000000.0 563961000000.0 454283000000.0 160712000000.0 247891000000.0 250687000000.0 732702000000.0 729227000000.0 513254000000.0 673525000000.0 805576000000.0 1.15989e+12 688982000000.0 916229000000.0 802262000000.0 547570000000.0 1.01778e+12 1.21749e+12 1.15698e+12 1.1104e+12 1.13526e+12 1.13771e+12 1.05257e+12 904637000000.0 859383000000.0 695791000000.0 112787000000.0 28811500000.0 141042000000.0 324838000000.0 617905000000.0 600789000000.0 254965000000.0 1603290000.0 146603000000.0 570397000000.0 238800000000.0 167372000000.0 111813000000.0 189814000000.0 949441000000.0 848702000000.0 576748000000.0 672352000000.0 909803000000.0 825605000000.0 611744000000.0 658138000000.0 777671000000.0 989703000000.0 1.15318e+12 1.12866e+12 1.10994e+12 1.15747e+12 1.14007e+12 1.1243e+12 1.02763e+12 1.00591e+12 914638000000.0 808201000000.0 302600000000.0 31648500000.0 86392600000.0 111890000000.0 360342000000.0 252354000000.0 327176000000.0 645510000000.0 759743000000.0 19694400000.0 272728000000.0 358534000000.0 83325600000.0 12474900000.0 40535700000.0 486517000000.0 197136000000.0 793247000000.0 645718000000.0 159679000000.0 463887000000.0 466717000000.0 824390000000.0 707280000000.0 702846000000.0 624021000000.0 819158000000.0 1.12531e+12 1.0865e+12 1.06502e+12 1.15362e+12 1.0996e+12 972517000000.0 885699000000.0 795644000000.0 644581000000.0 199586000000.0 136068000000.0 147283000000.0 30609000000.0 279338000000.0 154038000000.0 44768200000.0 297931000000.0 776663000000.0 1.06388e+12 384288000000.0 556841000000.0 439824000000.0 372567000000.0 80975900000.0 54058300000.0 257757000000.0 137124000000.0 650526000000.0 795862000000.0 511482000000.0 804323000000.0 624717000000.0 349527000000.0 1.10933e+12 671300000000.0 597521000000.0 680767000000.0 978955000000.0 1.19237e+12 1.08277e+12 1.04389e+12 1.14371e+12 1.05959e+12 910692000000.0 656546000000.0 417562000000.0 310412000000.0 192211000000.0 118784000000.0 250158000000.0 89161200000.0 511045000000.0 572796000000.0 523846000000.0 664909000000.0 518791000000.0 361143000000.0 295255000000.0 70879100000.0 73744300000.0 27695400000.0 84965000000.0 162826000000.0 20823000000.0 464413000000.0 492872000000.0 815857000000.0 827320000000.0 700964000000.0 191091000000.0 507742000000.0 389532000000.0 558972000000.0 636883000000.0 816701000000.0 970856000000.0 1.10669e+12 1.17793e+12 1.19248e+12 1.1987e+12 1.07166e+12 1.10261e+12 1.05021e+12 1.07836e+12 1.13126e+12 1.08175e+12 1.00758e+12 819111000000.0 495857000000.0 258488000000.0 196323000000.0 215293000000.0 57812200000.0 92447700000.0 647386000000.0 599189000000.0 294752000000.0 434917000000.0 723306000000.0 521111000000.0 690007000000.0 533604000000.0 218244000000.0 263306000000.0 225916000000.0 81064600000.0 5648590000.0 160918000000.0 5830570000.0 81438100000.0 302340000000.0 791334000000.0 742509000000.0 475428000000.0 1.39773e+12 847553000000.0 300143000000.0 151969000000.0 48252100000.0 406485000000.0 803403000000.0 1.08662e+12 1.19763e+12 1.173e+12 1.1372e+12 1.11984e+12 1.0351e+12 943149000000.0 860952000000.0 703700000000.0 583700000000.0 380428000000.0 223885000000.0 294079000000.0 209308000000.0 526354000000.0 464176000000.0 709220000000.0 693917000000.0 108902000000.0 468831000000.0 272532000000.0 42325200000.0 169305000000.0 223285000000.0 66180300000.0 53496800000.0 148398000000.0 553738000000.0 454461000000.0 167168000000.0 221080000000.0 340201000000.0 807370000000.0 158883000000.0 1.02989e+12 832592000000.0 50832700000.0 163557000000.0 423340000000.0 31788300000.0 307714000000.0 595681000000.0 798862000000.0 959546000000.0 1.1542e+12 1.18088e+12 1.15055e+12 1.16631e+12 1.10036e+12 973083000000.0 770357000000.0 483672000000.0 275686000000.0 143640000000.0 219939000000.0 302747000000.0 523926000000.0 195731000000.0 1.14768e+12 457046000000.0 450447000000.0 257813000000.0 541768000000.0 106577000000.0 594454000000.0 297116000000.0 79239300000.0 7437350000.0 139354000000.0 237390000000.0 306467000000.0 22194500000.0 10726700000.0 98798100000.0 145272000000.0 76819500000.0 33407100000.0 241120000000.0 324098000000.0 315912000000.0 226951000000.0 1.09199e+12 907307000000.0 307734000000.0 104178000000.0 955746000000.0 497171000000.0 54142700000.0 596494000000.0 950758000000.0 1.05956e+12 1.08833e+12 1.15232e+12 1.12042e+12 1.15956e+12 1.12505e+12 1.13822e+12 1.12436e+12 1.17488e+12 1.11511e+12 1.05047e+12 901896000000.0 685532000000.0 392059000000.0 92790800000.0 449024000000.0 358952000000.0 181614000000.0 370478000000.0 182155000000.0 273786000000.0 778585000000.0 584898000000.0 308695000000.0 321202000000.0 151612000000.0 415271000000.0 400112000000.0 12043600000.0 121098000000.0 181177000000.0 134596000000.0 8507980000.0 141183000000.0 238519000000.0 759041000000.0 341787000000.0 53443800000.0 12826300000.0 131403000000.0 116489000000.0 1.02986e+12 1.32457e+12 514316000000.0 327883000000.0 141442000000.0 353806000000.0 817725000000.0 1.00569e+12 1.06291e+12 1.08985e+12 1.10083e+12 1.11934e+12 1.04986e+12 989463000000.0 925362000000.0 831624000000.0 769437000000.0 618701000000.0 569256000000.0 281678000000.0 96695000000.0 560104000000.0 869659000000.0 387809000000.0 283300000000.0 173936000000.0 807504000000.0 218373000000.0 125853000000.0 585587000000.0 10869400000.0 450761000000.0 385693000000.0 435062000000.0 457501000000.0 376252000000.0 347076000000.0 30443600000.0 140461000000.0 130431000000.0 220793000000.0 106493000000.0 39846600000.0 184689000000.0 49097900000.0 1.02285e+12 756206000000.0 394954000000.0 156473000000.0 22701100000.0 709315000000.0 663758000000.0 948233000000.0 865118000000.0 439949000000.0 209398000000.0 59259600000.0 485386000000.0 656505000000.0 855431000000.0 944890000000.0 983564000000.0 1.0241e+12 1.06134e+12 1.0834e+12 1.07213e+12 985750000000.0 862963000000.0 722506000000.0 531417000000.0 249563000000.0 408966000000.0 765524000000.0 491134000000.0 230300000000.0 229152000000.0 81613400000.0 127030000000.0 179217000000.0 613377000000.0 137007000000.0 458038000000.0 645601000000.0 293559000000.0 310302000000.0 516712000000.0 421778000000.0 371335000000.0 349418000000.0 74366700000.0 66937900000.0 170044000000.0 246901000000.0 269071000000.0 207523000000.0 121085000000.0 13343800000.0 155980000000.0 92622100000.0 4153100000.0 467307000000.0 592257000000.0 475167000000.0 100785000000.0 678221000000.0 773083000000.0 2805410000.0 273523000000.0 740307000000.0 941775000000.0 914297000000.0 826927000000.0 933512000000.0 896992000000.0 994958000000.0 975477000000.0 1.04038e+12 1.01729e+12 1.05911e+12 1.01494e+12 1.01564e+12 921293000000.0 803995000000.0 688169000000.0 667191000000.0 524171000000.0 517036000000.0 1.21769e+12 255705000000.0 569006000000.0 424415000000.0 31395500000.0 641037000000.0 1.53068e+12 1.29736e+12 903936000000.0 327023000000.0 196992000000.0 435792000000.0 567090000000.0 454876000000.0 384270000000.0 430580000000.0 32596500000.0 211736000000.0 221474000000.0 258482000000.0 294600000000.0 260479000000.0 181026000000.0 70715600000.0 178607000000.0 344790000000.0 1.06229e+12 1.22709e+12 1.03536e+12 661188000000.0 30518800000.0 1.05249e+12 463367000000.0 210072000000.0 535603000000.0 897252000000.0 747053000000.0 766939000000.0 882717000000.0 956079000000.0 985104000000.0 962603000000.0 954558000000.0 885642000000.0 852679000000.0 775863000000.0 748300000000.0 685812000000.0 611555000000.0 1196040000.0 529042000000.0 540173000000.0 1.18641e+12 321394000000.0 451922000000.0 134019000000.0 523377000000.0 36003100000.0 979147000000.0 623643000000.0 198265000000.0 296682000000.0 227822000000.0 337413000000.0 504991000000.0 390196000000.0 523890000000.0 419292000000.0 358318000000.0 31937100000.0 277794000000.0 253237000000.0 152234000000.0 304362000000.0 334943000000.0 320343000000.0 353470000000.0 159049000000.0 37866500000.0 59588000000.0 298761000000.0 350078000000.0 571408000000.0 383881000000.0 460062000000.0 924927000000.0 862072000000.0 438625000000.0 299206000000.0 543783000000.0 212234000000.0 410540000000.0 770046000000.0 929155000000.0 956281000000.0 417535000000.0 601559000000.0 756010000000.0 871590000000.0 928870000000.0 942715000000.0 901897000000.0 801902000000.0 682684000000.0 572364000000.0 330064000000.0 245612000000.0 155760000000.0 103926000000.0 779477000000.0 289712000000.0 53788800000.0 238416000000.0 199820000000.0 58451900000.0 509629000000.0 1.07524e+12 27653800000.0 266464000000.0 696400000000.0 607670000000.0 400711000000.0 387124000000.0 604240000000.0 485691000000.0 265803000000.0 117615000000.0 207213000000.0 119965000000.0 58122700000.0 242296000000.0 356412000000.0 383586000000.0 499254000000.0 284458000000.0 366754000000.0 93393900000.0 406424000000.0 46227100000.0 414799000000.0 438775000000.0 876187000000.0 1.21513e+12 749834000000.0 1.49889e+12 713283000000.0 141564000000.0 124052000000.0 747828000000.0 1.04996e+12 327822000000.0 586643000000.0 634439000000.0 764569000000.0 740580000000.0 848455000000.0 823393000000.0 895904000000.0 855678000000.0 891867000000.0 828274000000.0 827350000000.0 731959000000.0 691480000000.0 534426000000.0 527523000000.0 252223000000.0 176060000000.0 121817000000.0 398064000000.0 171075000000.0 314812000000.0 1.23728e+12 146930000000.0 611786000000.0 508251000000.0 125610000000.0 338114000000.0 926809000000.0 504586000000.0 30591200000.0 416950000000.0 936910000000.0 475826000000.0 1.02341e+12 275534000000.0 243447000000.0 656858000000.0 509981000000.0 376792000000.0 264800000000.0 169440000000.0 252250000000.0 17780300000.0 357704000000.0 6179910000.0 44516000000.0 120916000000.0 275770000000.0 443512000000.0 363640000000.0 454953000000.0 665402000000.0 395675000000.0 650792000000.0 164274000000.0 490284000000.0 344754000000.0 9371590000.0 613876000000.0 814491000000.0 761210000000.0 829353000000.0 753359000000.0 794489000000.0 924879000000.0 140029000000.0 442682000000.0 317631000000.0 298295000000.0 963551000000.0 191375000000.0 499709000000.0 608039000000.0 722159000000.0 795888000000.0 802215000000.0 747159000000.0 611600000000.0 238330000000.0 44572200000.0 62666800000.0 11119800000.0 419909000000.0 56637900000.0 661849000000.0 433928000000.0 1.33989e+12 1.95034e+12 1.40951e+12 592236000000.0 452312000000.0 1.02e+12 1.34027e+12 1.12556e+12 587683000000.0 128868000000.0 316589000000.0 615408000000.0 407951000000.0 87932300000.0 38072700000.0 128252000000.0 40279400000.0 37175300000.0 510931000000.0 142003000000.0 92479600000.0 356906000000.0 358050000000.0 467329000000.0 813093000000.0 365718000000.0 925893000000.0 246065000000.0 1.47471e+12 291928000000.0 545572000000.0 977115000000.0 930140000000.0 754326000000.0 832517000000.0 1.60369e+12 440106000000.0 536918000000.0 508632000000.0 290563000000.0 153354000000.0 1.05709e+12 337870000000.0 343481000000.0 234267000000.0 430676000000.0 578483000000.0 715115000000.0 753330000000.0 733474000000.0 642422000000.0 503025000000.0 350492000000.0 256220000000.0 926503000000.0 225788000000.0 492259000000.0 429897000000.0 487370000000.0 290686000000.0 39637000000.0 155962000000.0 106853000000.0 674997000000.0 1.03236e+12 301368000000.0 199484000000.0 69643100000.0 20139300000.0 382050000000.0 12317400000.0 125237000000.0 22192400000.0 516132000000.0 716123000000.0 569514000000.0 137808000000.0 132882000000.0 589277000000.0 249357000000.0 473503000000.0 176428000000.0 189510000000.0 975113000000.0 267979000000.0 1.10666e+12 914954000000.0 560831000000.0 156464000000.0 65247700000.0 330730000000.0 14775900000.0 907676000000.0 527305000000.0 512890000000.0 345462000000.0 85206200000.0 6045530000.0 382004000000.0 471873000000.0 611896000000.0 602202000000.0 684173000000.0 634457000000.0 694642000000.0 623804000000.0 643040000000.0 518864000000.0 531982000000.0 597495000000.0 176594000000.0 1.32669e+12 1.11711e+12 676642000000.0 11013600000.0 325851000000.0 54811600000.0 289254000000.0 259171000000.0 159170000000.0 217952000000.0 898175000000.0 784133000000.0 424574000000.0 774314000000.0 698058000000.0 96919500000.0 1.02702e+12 435089000000.0 193647000000.0 155424000000.0 54529100000.0 9243340000.0 24285800000.0 685189000000.0 36235900000.0 86212200000.0 309922000000.0 386021000000.0 458194000000.0 1.00468e+12 474845000000.0 97815900000.0 449562000000.0 725040000000.0 509204000000.0 1.36329e+12 1.1987e+12 636481000000.0 73869800000.0 562937000000.0 525422000000.0 369040000000.0 345311000000.0 70312000000.0 160764000000.0 592639000000.0 330705000000.0 22653500000.0 550384000000.0 973404000000.0 318722000000.0 720813000000.0 353917000000.0 512754000000.0 550996000000.0 575279000000.0 527151000000.0 377161000000.0 624607000000.0 529285000000.0 105134000000.0 410119000000.0 727332000000.0 270092000000.0 26920200000.0 176279000000.0 137889000000.0 239403000000.0 330521000000.0 43450500000.0 105151000000.0 126275000000.0 192732000000.0 381768000000.0 523916000000.0 931981000000.0 753818000000.0 392985000000.0 524631000000.0 321004000000.0 298472000000.0 199283000000.0 963960000000.0 1.01455e+12 597051000000.0 443370000000.0 40385300000.0 145136000000.0 129408000000.0 274994000000.0 323911000000.0 333494000000.0 589058000000.0 1.00622e+12 955881000000.0 91025400000.0 270046000000.0 669047000000.0 1.3397e+12 40463800000.0 592384000000.0 324447000000.0 871627000000.0 442583000000.0 806955000000.0 669415000000.0 416425000000.0 375345000000.0 494511000000.0 201319000000.0 36675700000.0 136747000000.0 738210000000.0 1.39207e+12 290939000000.0 73448300000.0 383209000000.0 468482000000.0 492122000000.0 527505000000.0 347972000000.0 747016000000.0 761518000000.0 110459000000.0 321858000000.0 494370000000.0 63803600000.0 14624100000.0 26861400000.0 80693700000.0 353416000000.0 493443000000.0 332183000000.0 98012100000.0 108028000000.0 130885000000.0 57497300000.0 587247000000.0 725571000000.0 695469000000.0 100624000000.0 514444000000.0 710673000000.0 452549000000.0 522812000000.0 666498000000.0 385300000000.0 748869000000.0 331650000000.0 292494000000.0 164615000000.0 100713000000.0 54028500000.0 53491200000.0 233175000000.0 330270000000.0 403249000000.0 330011000000.0 663566000000.0 1.16325e+12 51090900000.0 156221000000.0 729039000000.0 674727000000.0 846193000000.0 361620000000.0 183964000000.0 388983000000.0 63793400000.0 157153000000.0 36481800000.0 330507000000.0 451444000000.0 568853000000.0 860342000000.0 760136000000.0 564120000000.0 452247000000.0 397572000000.0 626536000000.0 1.03177e+12 981466000000.0 199949000000.0 204002000000.0 466356000000.0 195920000000.0 400626000000.0 294749000000.0 376343000000.0 308144000000.0 441445000000.0 462020000000.0 470436000000.0 266633000000.0 33949300000.0 880859000000.0 162357000000.0 478222000000.0 192348000000.0 91225500000.0 235193000000.0 284876000000.0 353785000000.0 517343000000.0 582157000000.0 492794000000.0 309685000000.0 47301000000.0 42544500000.0 68656400000.0 374954000000.0 651084000000.0 664748000000.0 486031000000.0 675900000000.0 757902000000.0 708460000000.0 534113000000.0 971660000000.0 452633000000.0 428541000000.0 205362000000.0 141631000000.0 91647500000.0 1949270000.0 15510300000.0 195244000000.0 262207000000.0 336657000000.0 486400000000.0 730560000000.0 530721000000.0 745803000000.0 574193000000.0 123174000000.0 42047600000.0 470127000000.0 275809000000.0 530846000000.0 573169000000.0 319705000000.0 311378000000.0 62206900000.0 91527100000.0 99968000000.0 371742000000.0 600653000000.0 840007000000.0 843851000000.0 583095000000.0 408865000000.0 200799000000.0 154395000000.0 165036000000.0 1.16013e+12 394013000000.0 722500000000.0 238115000000.0 176236000000.0 206670000000.0 585691000000.0 622374000000.0 290766000000.0 349975000000.0 798408000000.0 925620000000.0 1.2647e+12 1.58153e+12 1.35411e+12 972636000000.0 718851000000.0 579419000000.0 425904000000.0 235144000000.0 96350500000.0 124783000000.0 314710000000.0 526947000000.0 641469000000.0 611349000000.0 730340000000.0 780633000000.0 683884000000.0 421609000000.0 86488700000.0 929285000000.0 52747200000.0 507100000000.0 1.1295e+12 410915000000.0 41448200000.0 21711800000.0 55028800000.0 304867000000.0 20697100000.0 74539400000.0 36992000000.0 528840000000.0 434011000000.0 188479000000.0 414832000000.0 600763000000.0 1.20299e+12 1.69666e+12 1.26104e+12 658725000000.0 5875770000.0 464129000000.0 282539000000.0 35851400000.0 473967000000.0 485031000000.0 367641000000.0 223757000000.0 79644800000.0 119787000000.0 246520000000.0 510852000000.0 756394000000.0 857247000000.0 864788000000.0 763942000000.0 533793000000.0 366703000000.0 226311000000.0 165334000000.0 399478000000.0 104034000000.0 190255000000.0 133476000000.0 465650000000.0 492805000000.0 189148000000.0 60774600000.0 246227000000.0 609659000000.0 597863000000.0 740942000000.0 66360500000.0 543836000000.0 369117000000.0 61073700000.0 370501000000.0 521695000000.0 475858000000.0 668200000000.0 764621000000.0 827085000000.0 786690000000.0 636313000000.0 371487000000.0 18994500000.0 296087000000.0 333228000000.0 53809100000.0 156589000000.0 523821000000.0 431477000000.0 419734000000.0 1220880000.0 82763500000.0 453982000000.0 761257000000.0 280393000000.0 525280000000.0 693275000000.0 636126000000.0 147890000000.0 436101000000.0 542505000000.0 670717000000.0 625359000000.0 356026000000.0 194416000000.0 468367000000.0 579271000000.0 335617000000.0 170828000000.0 103271000000.0 186769000000.0 371044000000.0 616991000000.0 781946000000.0 854128000000.0 827518000000.0 710485000000.0 313497000000.0 16505100000.0 347649000000.0 658390000000.0 1.01385e+12 638377000000.0 127452000000.0 214617000000.0 600135000000.0 832485000000.0 317286000000.0 148137000000.0 60407900000.0 121595000000.0 190086000000.0 367121000000.0 106053000000.0 576647000000.0 370544000000.0 252831000000.0 1812010000.0 261145000000.0 146161000000.0 347884000000.0 375298000000.0 296986000000.0 209953000000.0 198930000000.0 310200000000.0 472518000000.0 601441000000.0 861503000000.0 785514000000.0 656950000000.0 504951000000.0 466372000000.0 1.03002e+12 218544000000.0 33367300000.0 257229000000.0 668147000000.0 270910000000.0 51392800000.0 87554400000.0 71339400000.0 414586000000.0 312225000000.0 800537000000.0 1.39805e+12 30835200000.0 420820000000.0 647501000000.0 617181000000.0 419649000000.0 114495000000.0 93056800000.0 769472000000.0 679381000000.0 665040000000.0 482231000000.0 249716000000.0 237737000000.0 440852000000.0 642512000000.0 772967000000.0 805255000000.0 732429000000.0 563677000000.0 74620700000.0 230139000000.0 290451000000.0 176853000000.0 80577700000.0 1.01241e+12 429167000000.0 1.22717e+12 315226000000.0 198205000000.0 289667000000.0 298800000000.0 713138000000.0 50681300000.0 65732300000.0 26816900000.0 113285000000.0 27321600000.0 71628300000.0 34995800000.0 29624200000.0 149646000000.0 251263000000.0 271458000000.0 253161000000.0 256337000000.0 326357000000.0 450188000000.0 577124000000.0 679875000000.0 787218000000.0 858793000000.0 758158000000.0 634193000000.0 525316000000.0 215313000000.0 891448000000.0 654495000000.0 739411000000.0 316145000000.0 39335000000.0 377619000000.0 1.09777e+12 673316000000.0 398705000000.0 178240000000.0 84847000000.0 178246000000.0 580487000000.0 445551000000.0 422833000000.0 638933000000.0 1.45304e+12 43577100000.0 615696000000.0 521831000000.0 168916000000.0 62153600000.0 130346000000.0 196938000000.0 167543000000.0 85448000000.0 130035000000.0 339053000000.0 866433000000.0 460915000000.0 223167000000.0 118289000000.0 115969000000.0 455640000000.0 643224000000.0 744329000000.0 723880000000.0 600532000000.0 398583000000.0 147614000000.0 18539100000.0 285413000000.0 441551000000.0 211596000000.0 680165000000.0 496030000000.0 248465000000.0 363798000000.0 238944000000.0 777851000000.0 310149000000.0 708566000000.0 288418000000.0 660385000000.0 411501000000.0 224248000000.0 34559100000.0 195723000000.0 23924700000.0 239092000000.0 386171000000.0 333066000000.0 203404000000.0 160051000000.0 206878000000.0 238311000000.0 255054000000.0 280973000000.0 342003000000.0 442084000000.0 560394000000.0 676577000000.0 793225000000.0 884787000000.0 906307000000.0 856946000000.0 694501000000.0 557775000000.0 200938000000.0 872355000000.0 1.10609e+12 828856000000.0 398435000000.0 1.36839e+12 237664000000.0 163611000000.0 187551000000.0 159026000000.0 31019600000.0 76553100000.0 151568000000.0 216113000000.0 765225000000.0 804740000000.0 135418000000.0 589123000000.0 672713000000.0 282355000000.0 51020100000.0 3260020000.0 5706330000.0 147333000000.0 342202000000.0 81558400000.0 34362500000.0 966083000000.0 376542000000.0 171285000000.0 83881500000.0 70541900000.0 109119000000.0 249800000000.0 656733000000.0 694791000000.0 618830000000.0 470122000000.0 284931000000.0 117188000000.0 15125800000.0 377316000000.0 266155000000.0 398332000000.0 111917000000.0 12246300000.0 147602000000.0 55188000000.0 322318000000.0 517891000000.0 561358000000.0 477913000000.0 356952000000.0 283370000000.0 266477000000.0 269537000000.0 295137000000.0 350518000000.0 435986000000.0 544075000000.0 662439000000.0 784574000000.0 894397000000.0 963194000000.0 930560000000.0 826282000000.0 556306000000.0 881807000000.0 1.1564e+12 1.12731e+12 778459000000.0 218697000000.0 1.28446e+12 463187000000.0 144262000000.0 255142000000.0 166874000000.0 250266000000.0 45601100000.0 112466000000.0 27022500000.0 326970000000.0 187860000000.0 233900000000.0 300071000000.0 1.27062e+12 328396000000.0 463245000000.0 361161000000.0 418117000000.0 342899000000.0 476622000000.0 407373000000.0 342109000000.0 235819000000.0 91521800000.0 806060000000.0 583968000000.0 105509000000.0 6858580000.0 6067320000.0 35830600000.0 70246000000.0 79726200000.0 213569000000.0 457099000000.0 639493000000.0 607316000000.0 500710000000.0 360500000000.0 224271000000.0 124855000000.0 89355100000.0 149075000000.0 110214000000.0 314409000000.0 101506000000.0 59419600000.0 14984200000.0 481152000000.0 425200000000.0 641431000000.0 693902000000.0 493596000000.0 50326200000.0 33243700000.0 16752200000.0 35160600000.0 165367000000.0 216840000000.0 343790000000.0 572036000000.0 669160000000.0 660467000000.0 581880000000.0 461599000000.0 367551000000.0 323130000000.0 324362000000.0 363915000000.0 433828000000.0 529030000000.0 641933000000.0 762999000000.0 878397000000.0 975888000000.0 1.04826e+12 946944000000.0 776329000000.0 681462000000.0 896647000000.0 1.08696e+12 1.16057e+12 1.06927e+12 104164000000.0 1.23707e+12 1.00428e+12 402106000000.0 387778000000.0 281597000000.0 362440000000.0 131292000000.0 101115000000.0 191512000000.0 561445000000.0 279550000000.0 704233000000.0 1.00588e+12 885553000000.0 390416000000.0 129369000000.0 317237000000.0 254351000000.0 538021000000.0 653115000000.0 586117000000.0 401543000000.0 79903100000.0 253878000000.0 131179000000.0 14798900000.0 19687300000.0 41614300000.0 110100000000.0 128166000000.0 17242200000.0 130636000000.0 523153000000.0 489928000000.0 384522000000.0 273246000000.0 178421000000.0 116178000000.0 91564000000.0 23949500000.0 182047000000.0 191087000000.0 101708000000.0 68364800000.0 80745800000.0 205613000000.0 247404000000.0 381213000000.0 467102000000.0 345698000000.0 460144000000.0 86699800000.0 11626100000.0 3045370000.0 222784000000.0 178164000000.0 507427000000.0 672209000000.0 732440000000.0 738453000000.0 850470000000.0 936487000000.0 1.0264e+12 1.17499e+12 950082000000.0 798793000000.0 735984000000.0 1.0493e+12 982080000000.0 739199000000.0 1.12193e+12 717626000000.0 354179000000.0 706406000000.0 463005000000.0 626018000000.0 502051000000.0 298862000000.0 11528000000.0 117729000000.0 121295000000.0 154058000000.0 533482000000.0 499132000000.0 293496000000.0 480917000000.0 644359000000.0 642287000000.0 307669000000.0 299719000000.0 218428000000.0 90415300000.0 53181300000.0 517424000000.0 724649000000.0 755853000000.0 580144000000.0 515819000000.0 228088000000.0 156016000000.0 141076000000.0 507839000000.0 554387000000.0 201475000000.0 131100000000.0 75358700000.0 3320040000.0 117096000000.0 177577000000.0 169154000000.0 76743300000.0 9967600000.0 149046000000.0 192229000000.0 288371000000.0 251163000000.0 357458000000.0 328548000000.0 248611000000.0 124526000000.0 209554000000.0 171757000000.0 125519000000.0 382282000000.0 726219000000.0 678308000000.0 536543000000.0 424181000000.0 384014000000.0 399208000000.0 442776000000.0 516799000000.0 619603000000.0 911023000000.0 931765000000.0 1.08659e+12 758696000000.0 762610000000.0 867052000000.0 993881000000.0 861460000000.0 647118000000.0 184481000000.0 765185000000.0 763920000000.0 394878000000.0 784215000000.0 159504000000.0 263928000000.0 225055000000.0 301318000000.0 19808200000.0 54221000000.0 70971000000.0 24543800000.0 26612000000.0 517132000000.0 64168400000.0 229636000000.0 343448000000.0 177309000000.0 381559000000.0 323615000000.0 201501000000.0 290213000000.0 406850000000.0 652900000000.0 734087000000.0 664439000000.0 287581000000.0 90076000000.0 483332000000.0 352684000000.0 284914000000.0 135162000000.0 129708000000.0 220202000000.0 309589000000.0 287706000000.0 489204000000.0 464075000000.0 381401000000.0 287682000000.0 11601900000.0 74339200000.0 140401000000.0 168447000000.0 143784000000.0 104743000000.0 135035000000.0 181953000000.0 229016000000.0 2035570000.0 193614000000.0 380861000000.0 73181000000.0 594704000000.0 709603000000.0 760170000000.0 782007000000.0 804135000000.0 588864000000.0 482306000000.0 467616000000.0 479899000000.0 517196000000.0 598921000000.0 718862000000.0 835026000000.0 886239000000.0 858363000000.0 910870000000.0 572956000000.0 741260000000.0 869111000000.0 921462000000.0 681144000000.0 494173000000.0 716226000000.0 989343000000.0 403852000000.0 872919000000.0 223338000000.0 79560900000.0 221370000000.0 56238000000.0 132859000000.0 88346500000.0 43677600000.0 29702800000.0 92566000000.0 152936000000.0 263011000000.0 187051000000.0 23542800000.0 504499000000.0 613642000000.0 490382000000.0 547402000000.0 116973000000.0 174457000000.0 490053000000.0 632437000000.0 620674000000.0 471499000000.0 241287000000.0 217198000000.0 223527000000.0 481897000000.0 394998000000.0 297352000000.0 359036000000.0 543599000000.0 411546000000.0 198437000000.0 206863000000.0 488066000000.0 496759000000.0 399950000000.0 302457000000.0 216472000000.0 143581000000.0 80192800000.0 237651000000.0 253842000000.0 279102000000.0 193768000000.0 29012300000.0 242050000000.0 535437000000.0 136425000000.0 311335000000.0 490751000000.0 627970000000.0 707647000000.0 752143000000.0 797727000000.0 924240000000.0 586150000000.0 564768000000.0 544281000000.0 544067000000.0 582965000000.0 704455000000.0 861369000000.0 882191000000.0 873013000000.0 850083000000.0 700279000000.0 427917000000.0 668921000000.0 779527000000.0 783704000000.0 620626000000.0 711626000000.0 863075000000.0 861831000000.0 440571000000.0 104335000000.0 302910000000.0 43863100000.0 15379500000.0 112436000000.0 206033000000.0 10959500000.0 13475500000.0 196943000000.0 93855200000.0 48282400000.0 388757000000.0 637473000000.0 673298000000.0 630131000000.0 143390000000.0 230418000000.0 409788000000.0 506941000000.0 534130000000.0 421644000000.0 172178000000.0 217747000000.0 442428000000.0 575428000000.0 541255000000.0 478268000000.0 808175000000.0 534248000000.0 346785000000.0 140781000000.0 159524000000.0 681068000000.0 519303000000.0 368047000000.0 256394000000.0 170581000000.0 100645000000.0 34855200000.0 34632300000.0 96600900000.0 140001000000.0 153449000000.0 146898000000.0 153201000000.0 170210000000.0 197192000000.0 204858000000.0 207618000000.0 196953000000.0 138539000000.0 18091800000.0 278917000000.0 648220000000.0 42779900000.0 168278000000.0 279287000000.0 412346000000.0 533278000000.0 620269000000.0 668989000000.0 692267000000.0 720666000000.0 859769000000.0 469672000000.0 573496000000.0 568234000000.0 586947000000.0 690298000000.0 949825000000.0 910582000000.0 876028000000.0 839530000000.0 810150000000.0 787852000000.0 503622000000.0 319052000000.0 572361000000.0 672521000000.0 674299000000.0 732671000000.0 674087000000.0 270456000000.0 576706000000.0 287234000000.0 208837000000.0 329675000000.0 163755000000.0 142443000000.0 13711800000.0 74917700000.0 339004000000.0 109669000000.0 168410000000.0 677345000000.0 799129000000.0 431925000000.0 389115000000.0 436571000000.0 465352000000.0 514396000000.0 466882000000.0 411468000000.0 401624000000.0 581564000000.0 416491000000.0 538271000000.0 570092000000.0 375015000000.0 769699000000.0 494605000000.0 373461000000.0 250970000000.0 125890000000.0 42385100000.0 820131000000.0 546242000000.0 360136000000.0 234567000000.0 144021000000.0 72939300000.0 9446810000.0 48460000000.0 97374000000.0 131171000000.0 149189000000.0 159514000000.0 165749000000.0 172704000000.0 172640000000.0 161735000000.0 134346000000.0 69698200000.0 69017200000.0 323437000000.0 712632000000.0 164796000000.0 213542000000.0 268896000000.0 359239000000.0 455059000000.0 535464000000.0 590084000000.0 619089000000.0 636649000000.0 683361000000.0 958809000000.0 891188000000.0 867120000000.0 840456000000.0 813275000000.0 784344000000.0 723554000000.0 494900000000.0 597504000000.0 633862000000.0 685046000000.0 613365000000.0 467042000000.0 282668000000.0 69026100000.0 498024000000.0 97075500000.0 279346000000.0 41459100000.0 168109000000.0 289415000000.0 573482000000.0 724399000000.0 881545000000.0 599969000000.0 531166000000.0 460682000000.0 414670000000.0 359932000000.0 322018000000.0 416140000000.0 521040000000.0 770901000000.0 388988000000.0 297570000000.0 214642000000.0 160246000000.0 111979000000.0 362297000000.0 224470000000.0 126333000000.0 57421700000.0 3586070000.0 45451900000.0 90857100000.0 127407000000.0 148959000000.0 156195000000.0 154199000000.0 143124000000.0 120087000000.0 77600600000.0 3609420000.0 121978000000.0 278841000000.0 260147000000.0 269916000000.0 322514000000.0 393443000000.0 462450000000.0 735346000000.0 434807000000.0 555380000000.0 525569000000.0 573237000000.0 841919000000.0 826255000000.0 812307000000.0 797574000000.0 762348000000.0 658325000000.0 353781000000.0 255756000000.0 458696000000.0 575291000000.0 651414000000.0 671801000000.0 345636000000.0 499967000000.0 514577000000.0 73889600000.0 266635000000.0 166226000000.0 110990000000.0 185698000000.0 593037000000.0 847875000000.0 663543000000.0 575140000000.0 449947000000.0 398341000000.0 263757000000.0 157131000000.0 338113000000.0 424113000000.0 587995000000.0 350123000000.0 509865000000.0 368726000000.0 619692000000.0 521396000000.0 878715000000.0 561328000000.0 39098200000.0 92788100000.0 127746000000.0 140367000000.0 346920000000.0 725745000000.0 378098000000.0 295324000000.0 517955000000.0 556860000000.0 585501000000.0 621686000000.0 663376000000.0 594967000000.0 524957000000.0 486730000000.0 440307000000.0 913612000000.0 875586000000.0 786344000000.0 786524000000.0 779243000000.0 726819000000.0 579374000000.0 253410000000.0 234280000000.0 570981000000.0 631928000000.0 573607000000.0 447652000000.0 420114000000.0 390409000000.0 19747400000.0 360254000000.0 83460000000.0 82990800000.0 17700000000.0 23350100000.0 118494000000.0 36937000000.0 500791000000.0 513176000000.0 509925000000.0 457383000000.0 397875000000.0 254546000000.0 32356100000.0 197715000000.0 324864000000.0 806038000000.0 299627000000.0 418680000000.0 474219000000.0 574440000000.0 458619000000.0 344417000000.0 262707000000.0 212385000000.0 215421000000.0 263260000000.0 859142000000.0 556453000000.0 366467000000.0 208155000000.0 102854000000.0 48162300000.0 8638390000.0 137087000000.0 119651000000.0 86917100000.0 33661000000.0 49262400000.0 174521000000.0 362983000000.0 671683000000.0 269917000000.0 292780000000.0 341977000000.0 398677000000.0 451102000000.0 494640000000.0 531580000000.0 571016000000.0 615466000000.0 637008000000.0 479995000000.0 564934000000.0 316161000000.0 857041000000.0 881024000000.0 819983000000.0 795465000000.0 752674000000.0 749923000000.0 672609000000.0 494037000000.0 195523000000.0 244515000000.0 458681000000.0 515353000000.0 539675000000.0 433379000000.0 410870000000.0 319648000000.0 19855100000.0 157705000000.0 50400100000.0 468264000000.0 474142000000.0 436358000000.0 355339000000.0 196797000000.0 127709000000.0 15665700000.0 173926000000.0 463471000000.0 641223000000.0 659549000000.0 129138000000.0 369823000000.0 566799000000.0 509439000000.0 396459000000.0 298164000000.0 234682000000.0 215734000000.0 262234000000.0 384541000000.0 783162000000.0 542420000000.0 365018000000.0 156106000000.0 58571800000.0 45351400000.0 16253100000.0 54257600000.0 103615000000.0 121787000000.0 120445000000.0 101529000000.0 65296300000.0 8970080000.0 74494100000.0 194612000000.0 350747000000.0 527030000000.0 374227000000.0 279253000000.0 251177000000.0 258797000000.0 293106000000.0 339740000000.0 387293000000.0 430366000000.0 468482000000.0 504917000000.0 540567000000.0 562937000000.0 534297000000.0 394330000000.0 234043000000.0 541832000000.0 845634000000.0 767078000000.0 741095000000.0 727808000000.0 736695000000.0 714288000000.0 610723000000.0 431603000000.0 175555000000.0 268229000000.0 447577000000.0 376297000000.0 367531000000.0 359103000000.0 49862300000.0 96293500000.0 224782000000.0 573016000000.0 494639000000.0 469988000000.0 442635000000.0 352140000000.0 184291000000.0 239986000000.0 349257000000.0 550678000000.0 831057000000.0 832908000000.0 286186000000.0 406284000000.0 446958000000.0 395703000000.0 313578000000.0 242017000000.0 200603000000.0 203149000000.0 268115000000.0 429595000000.0 653134000000.0 514442000000.0 349861000000.0 24061000000.0 10423200000.0 59021700000.0 23815900000.0 85902300000.0 102497000000.0 103659000000.0 87047000000.0 53109000000.0 471871000.0 73981500000.0 169678000000.0 283258000000.0 383315000000.0 322033000000.0 232006000000.0 205336000000.0 213789000000.0 241580000000.0 281938000000.0 325416000000.0 366016000000.0 401815000000.0 432532000000.0 456093000000.0 463549000000.0 436161000000.0 367682000000.0 337951000000.0 705625000000.0 974961000000.0 745931000000.0 657565000000.0 624008000000.0 638895000000.0 673906000000.0 707607000000.0 533331000000.0 407094000000.0 185571000000.0 292206000000.0 405032000000.0 426417000000.0 282572000000.0 234549000000.0 6806930000.0 26692400000.0 89254500000.0 448327000000.0 465583000000.0 446704000000.0 362585000000.0 222465000000.0 85840000000.0 24993000000.0 105579000000.0 82223900000.0 43476500000.0 142486000000.0 52273100000.0 470683000000.0 172842000000.0 238959000000.0 381527000000.0 504998000000.0 478613000000.0 379261000000.0 241860000000.0 75332300000.0 22883900000.0 79917200000.0 77028300000.0 82338800000.0 71872800000.0 43355100000.0 1997270000.0 63188100000.0 138662000000.0 220932000000.0 284791000000.0 274689000000.0 215736000000.0 169305000000.0 168481000000.0 191576000000.0 226621000000.0 266144000000.0 170056000000.0 354791000000.0 459175000000.0 535825000000.0 598699000000.0 642418000000.0 653892000000.0 411152000000.0 171737000000.0 304661000000.0 345931000000.0 311975000000.0 328413000000.0 411709000000.0 454873000000.0 345883000000.0 4565170000.0 346309000000.0 154692000000.0 8839330000.0 34918200000.0 17818900000.0 9150840000.0 228993000000.0 303293000000.0 286326000000.0 235040000000.0 186395000000.0 160997000000.0 304006000000.0 337078000000.0 363422000000.0 379195000000.0 375969000000.0 338944000000.0 252963000000.0 117052000000.0 374282000000.0 77547100000.0 120557000000.0 15098300000.0 383140000000.0 462968000000.0 529083000000.0 573562000000.0 546341000000.0 453804000000.0 129200000000.0 294268000000.0 258255000000.0 295053000000.0 237542000000.0 170924000000.0 40511600000.0 5625990000.0 255062000000.0 47461200000.0 292410000000.0 228165000000.0 107257000000.0 21941300000.0 31628300000.0 206845000000.0 82087700000.0 94668200000.0 97566800000.0 204447000000.0 235459000000.0 215177000000.0 175285000000.0 139896000000.0 125292000000.0 145806000000.0 217023000000.0 323425000000.0 421128000000.0 497802000000.0 593101000000.0 486874000000.0 45620400000.0 8764540000.0 37827800000.0 47836600000.0 31185600000.0 3200230000.0 51772200000.0 110860000000.0 171045000000.0 214915000000.0 219645000000.0 188635000000.0 151466000000.0 136622000000.0 148917000000.0 176403000000.0 210851000000.0 245581000000.0 276663000000.0 301347000000.0 315840000000.0 313717000000.0 285148000000.0 219267000000.0 108029000000.0 117331000000.0 22029500000.0 215549000000.0 125272000000.0 76338900000.0 166810000000.0 288345000000.0 402466000000.0 468222000000.0 493817000000.0 407815000000.0 419063000000.0 313659000000.0 261500000000.0 210895000000.0 130124000000.0 43395400000.0 125921000000.0 261538000000.0 195742000000.0 238501000000.0 208751000000.0 54497900000.0 185670000000.0 187825000000.0 145947000000.0 111522000000.0 194982000000.0 273098000000.0 339351000000.0 224295000000.0 143275000000.0 179960000000.0 202598000000.0 195633000000.0 166950000000.0 132049000000.0 104714000000.0 96673300000.0 117926000000.0 166829000000.0 229844000000.0 281951000000.0 310952000000.0 303832000000.0 513528000000.0 21438100000.0 107037000000.0 13830600000.0 19695800000.0 15733000000.0 7022560000.0 42349600000.0 85786600000.0 130789000000.0 165088000000.0 172420000000.0 154690000000.0 130987000000.0 114608000000.0 114721000000.0 132229000000.0 159917000000.0 191074000000.0 220423000000.0 244829000000.0 261531000000.0 266372000000.0 253859000000.0 218591000000.0 158317000000.0 67970100000.0 112577000000.0 267475000000.0 303198000000.0 206293000000.0 180441000000.0 215185000000.0 274041000000.0 335836000000.0 417843000000.0 379844000000.0 378624000000.0 343257000000.0 217896000000.0 93905600000.0 235924000000.0 111525000000.0 10302800000.0 274349000000.0 269069000000.0 123511000000.0 142646000000.0 31781000000.0 12971300000.0 135751000000.0 269153000000.0 343584000000.0 358485000000.0 385266000000.0 334572000000.0 234225000000.0 207716000000.0 189619000000.0 164797000000.0 133855000000.0 103494000000.0 81581400000.0 74530000000.0 83497600000.0 109993000000.0 163388000000.0 259704000000.0 577506000000.0 251253000000.0 387910000000.0 83097200000.0 8041910000.0 2583040000.0 15600500000.0 37721600000.0 66431800000.0 97757600000.0 123140000000.0 132740000000.0 124869000000.0 107659000000.0 92375100000.0 86349800000.0 93768100000.0 113697000000.0 140057000000.0 167108000000.0 191441000000.0 211021000000.0 223452000000.0 226000000000.0 324570000000.0 299284000000.0 254462000000.0 241391000000.0 251944000000.0 284622000000.0 347616000000.0 331339000000.0 326898000000.0 255295000000.0 149156000000.0 67110800000.0 208844000000.0 187453000000.0 28461500000.0 27653000000.0 155241000000.0 333205000000.0 203642000000.0 99243500000.0 82965900000.0 25208900000.0 116000000000.0 245366000000.0 313235000000.0 303753000000.0 198439000000.0 333296000000.0 216593000000.0 195720000000.0 169491000000.0 202855000000.0 305130000000.0 363506000000.0 268848000000.0 228142000000.0 207210000000.0 232127000000.0 309516000000.0 343530000000.0 170312000000.0 107797000000.0 85799400000.0 220831000000.0 146350000000.0 44022400000.0 18107200000.0 5964610000.0 81208500000.0 47413400000.0 31479300000.0 261877000000.0 28415400000.0 115119000000.0 209269000000.0 287266000000.0 372806000000.0 293416000000.0 233065000000.0 197029000000.0 168721000000.0 141644000000.0 114139000000.0 89058200000.0 70224700000.0 58658800000.0 53878700000.0 70379300000.0 151244000000.0 328482000000.0 715626000000.0 103844000000.0 39220900000.0 7949410000.0 26043800000.0 38742600000.0 54346300000.0 71702000000.0 86956600000.0 95251500000.0 93058100000.0 82883200000.0 70050800000.0 61748000000.0 62832700000.0 73615200000.0 92546600000.0 115394000000.0 139036000000.0 161439000000.0 180079000000.0 193329000000.0 201399000000.0 206419000000.0 214977000000.0 250492000000.0 317764000000.0 391408000000.0 375039000000.0 391784000000.0 338803000000.0 159574000000.0 168271000000.0 272987000000.0 283403000000.0 279826000000.0 260661000000.0 122740000000.0 19270000000.0 138537000000.0 87055000000.0 16439900000.0 2537970000.0 28097900000.0 316271000000.0 52270900000.0 93239100000.0 154584000000.0 399586000000.0 28256800000.0 274923000000.0 268042000000.0 211562000000.0 288445000000.0 310323000000.0 260116000000.0 210373000000.0 175884000000.0 152135000000.0 129939000000.0 107876000000.0 88868700000.0 73424800000.0 59518100000.0 45207500000.0 71527800000.0 245621000000.0 486947000000.0 242993000000.0 269769000000.0 83259000000.0 83367800000.0 66802100000.0 51457100000.0 47008100000.0 51310000000.0 56715700000.0 59649800000.0 58429900000.0 52322800000.0 43384600000.0 37025000000.0 36312700000.0 42607600000.0 53623300000.0 68298600000.0 88748400000.0 112948000000.0 135631000000.0 154464000000.0 171276000000.0 191330000000.0 219342000000.0 260866000000.0 307059000000.0 328494000000.0 320040000000.0 346809000000.0 354181000000.0 309197000000.0 236645000000.0 198080000000.0 155875000000.0 235566000000.0 228232000000.0 238479000000.0 179714000000.0 99766000000.0 54505000000.0 8882000000.0 61347100000.0 97655100000.0 140741000000.0 91883600000.0 142599000000.0 420057000000.0 146638000000.0 222450000000.0 235898000000.0 180776000000.0 190303000000.0 256952000000.0 258723000000.0 217341000000.0 179587000000.0 160534000000.0 145211000000.0 129698000000.0 115563000000.0 104660000000.0 95923600000.0 85936000000.0 58388400000.0 84971900000.0 349968000000.0 58983000000.0 113594000000.0 82271500000.0 167038000000.0 119868000000.0 71497100000.0 45284600000.0 31420200000.0 26439300000.0 26764400000.0 24248500000.0 17901400000.0 10530200000.0 5259880000.0 4172200000.0 9520860000.0 19588100000.0 34017400000.0 52014000000.0 71913800000.0 92069300000.0 112050000000.0 132659000000.0 156754000000.0 189735000000.0 236468000000.0 286275000000.0 303578000000.0 275652000000.0 290491000000.0 290958000000.0 300693000000.0 237791000000.0 185859000000.0 202553000000.0 93328400000.0 145555000000.0 215430000000.0 174650000000.0 108183000000.0 106166000000.0 38496200000.0 5353660000.0 157081000000.0 20018400000.0 49034900000.0 149744000000.0 27140900000.0 238816000000.0 10742800000.0 144735000000.0 189763000000.0 155684000000.0 154060000000.0 149337000000.0 114508000000.0 111062000000.0 288628000000.0 104334000000.0 31544300000.0 203143000000.0 151232000000.0 72138100000.0 25038000000.0 33096100000.0 35350800000.0 31401100000.0 22550700000.0 221405000000.0 122555000000.0 135759000000.0 139591000000.0 33087000000.0 189835000000.0 83570400000.0 67740400000.0 53232500000.0 28897900000.0 127181000000.0 6272350000.0 24829200000.0 162432000000.0 14712700000.0 218630000000.0 161681000000.0 209999000000.0 457325000000.0 12364400000.0 190162000000.0 224136000000.0 207838000000.0 175340000000.0 167428000000.0 158722000000.0 147544000000.0 139163000000.0 132313000000.0 134232000000.0 140479000000.0 152078000000.0 261980000000.0 36841300000.0 14457600000.0 1062460000.0 9086930000.0 13339100000.0 17497000000.0 3816350000.0 22496800000.0 45556800000.0 61207700000.0 75172300000.0 92571200000.0 113984000000.0 142319000000.0 183186000000.0 233719000000.0 262729000000.0 235446000000.0 223540000000.0 237573000000.0 243878000000.0 86247300000.0 9840350000.0 82481600000.0 187260000000.0 50246600000.0 45249400000.0 166927000000.0 51960900000.0 4284280000.0 26921800000.0 146575000000.0 101652000000.0 44152900000.0 75632300000.0 122589000000.0 172415000000.0 180037000000.0 148855000000.0 122125000000.0 187573000000.0 148117000000.0 163470000000.0 160770000000.0 156373000000.0 151754000000.0 150291000000.0 149435000000.0 164887000000.0 169456000000.0 162747000000.0 167640000000.0 85754700000.0 107081000000.0 41946400000.0 4936130000.0 133779000000.0 18673800000.0 4081780000.0 18134300000.0 35232400000.0 44041900000.0 51943100000.0 55480200000.0 66687900000.0 74813800000.0 82050000000.0 79131200000.0 68195900000.0 48319800000.0 22552900000.0 7247940000.0 34987600000.0 53305000000.0 65778900000.0 80214700000.0 102311000000.0 124993000000.0 162281000000.0 214196000000.0 208072000000.0 166628000000.0 175308000000.0 191326000000.0 183624000000.0 101762000000.0 73429000000.0 42647600000.0 189614000000.0 46390000000.0 62761600000.0 111291000000.0 119428000000.0 153260000000.0 27785000000.0 37193700000.0 12725600000.0 37335800000.0 6096060000.0 108391000000.0 120935000000.0 103737000000.0 260548000000.0 12813100000.0 225948000000.0 220214000000.0 146491000000.0 96397500000.0 38265300000.0 44397000000.0 140028000000.0 149825000000.0 155757000000.0 154711000000.0 160006000000.0 160879000000.0 165044000000.0 160074000000.0 182961000000.0 150140000000.0 174622000000.0 120881000000.0 65539400000.0 167926000000.0 214354000000.0 183172000000.0 96022500000.0 68536200000.0 69023500000.0 79628400000.0 96761000000.0 94099800000.0 107271000000.0 121887000000.0 132178000000.0 141927000000.0 128224000000.0 105420000000.0 83357400000.0 35428800000.0 5641370000.0 22889200000.0 42927900000.0 63953000000.0 81486600000.0 96339500000.0 112865000000.0 156253000000.0 184741000000.0 120614000000.0 122963000000.0 130305000000.0 143991000000.0 86637400000.0 46763200000.0 15727800000.0 33368700000.0 8016110000.0 8235400000.0 179011000000.0 125015000000.0 97512300000.0 89694200000.0 52658900000.0 25357000000.0 29898000000.0 10009000000.0 9035750000.0 9035750000.0 9113320000.0 9041890000.0 217678000000.0 47111300000.0 1287630000.0 235374000000.0 9570900000.0 77524700000.0 105687000000.0 266312000000.0 43319600000.0 15280200000.0 9035750000.0 9035750000.0 40958000000.0 146418000000.0 186391000000.0 234813000000.0 157135000000.0 213724000000.0 143333000000.0 173540000000.0 210348000000.0 231598000000.0 242266000000.0 205636000000.0 182109000000.0 159051000000.0 138455000000.0 107228000000.0 77445000000.0 41311700000.0 14000400000.0 47450700000.0 47915900000.0 112344000000.0 78380800000.0 35430600000.0 221300000000.0 155049000000.0 118067000000.0 17137700000.0 116996000000.0 55515500000.0 142875000000.0 115924000000.0 157070000000.0 160778000000.0 195854000000.0 191676000000.0 222520000000.0 174009000000.0 153354000000.0 71094600000.0 22962400000.0 7159570000.0 19641900000.0 41923900000.0 61082200000.0 78545500000.0 100010000000.0 106519000000.0 155490000000.0 87111800000.0 91423900000.0 103006000000.0 107948000000.0 57984600000.0 2104790000.0 119377000000.0 79986700000.0 41603300000.0 123548000000.0 85827300000.0 59374800000.0 50399700000.0 3012890000.0 9311930000.0 22101400000.0 35631900000.0 16937700000.0 92983800000.0 160785000000.0 234268000000.0 275232000000.0 398931000000.0 19222800000.0 137406000000.0 105563000000.0 71696400000.0 49027300000.0 30172200000.0 46676100000.0 45343300000.0 29912400000.0 9447480000.0 7159540000.0 29091500000.0 48623600000.0 73489800000.0 85236000000.0 130035000000.0 124427000000.0 157811000000.0 21137600000.0 9230530000.0 114771000000.0 82827200000.0 55296100000.0 101610000000.0 21890700000.0 128702000000.0 54452600000.0 109936000000.0 38641000000.0 51488100000.0 26478600000.0 45121900000.0 31229600000.0 68019400000.0 29691900000.0 68296400000.0 8413930000.0 34885200000.0 2277150000.0 20272300000.0 69075200000.0 90119200000.0 106642000000.0 105755000000.0 130862000000.0 47943900000.0 19219500000.0 1396730000.0 8876770000.0 25912200000.0 58368600000.0 74586100000.0 119953000000.0 114583000000.0 93518400000.0 10488300000.0 40954000000.0 43596500000.0 51986300000.0 100997000000.0 104008000000.0 99562300000.0 91733600000.0 52396200000.0 11992300000.0 1356360000.0 22058100000.0 43250900000.0 15713000000.0 38918000000.0 59270900000.0 9053050000.0 9035750000.0 9035750000.0 65887700000.0 65321000000.0 1003140000.0 37471700000.0 86831600000.0 125665000000.0 240123000000.0 56291300000.0 21091300000.0 3804010000.0 17923300000.0 39599300000.0 67936600000.0 73190700000.0 75854800000.0 77704100000.0 83702600000.0 83317400000.0 84814500000.0 80604800000.0 81516100000.0 61011100000.0 79421300000.0 72270300000.0 102164000000.0 80607900000.0 1159350000.0 175847000000.0 58795100000.0 4205940000.0 51006400000.0 3195030000.0 34053800000.0 15573700000.0 36397400000.0 10394900000.0 24473300000.0 23008200000.0 26036000000.0 3884320000.0 103403000000.0 82466500000.0 113247000000.0 104362000000.0 122344000000.0 112732000000.0 108762000000.0 95519800000.0 122242000000.0 71985500000.0 70499400000.0 68466600000.0 70766000000.0 65895800000.0 43091100000.0 25024900000.0 33068000000.0 50506900000.0 66193900000.0 42029400000.0 12778600000.0 90250100000.0 72010200000.0 49890000000.0 40678700000.0 23755200000.0 9036970000.0 9035830000.0 9042650000.0 9745740000.0 26678000000.0 90322700000.0 137947000000.0 194931000000.0 230818000000.0 251341000000.0 17938800000.0 88478000000.0 78194400000.0 54809700000.0 28689300000.0 12908000000.0 20581100000.0 23716900000.0 27123000000.0 24287900000.0 27554600000.0 27367200000.0 27878800000.0 21114500000.0 25637500000.0 322648000.0 794390000.0 13680800000.0 63527000000.0 9035750000.0 54404400000.0 121800000000.0 2361800000.0 75412300000.0 39369700000.0 85990600000.0 49366200000.0 67301300000.0 38755500000.0 42601200000.0 15682300000.0 30368500000.0 7541580000.0 27891300000.0 24008800000.0 9154210000.0 87449000000.0 60553600000.0 82989300000.0 67487400000.0 80689000000.0 69408900000.0 65085700000.0 54975500000.0 76860700000.0 49855800000.0 55975700000.0 57874100000.0 60529900000.0 57388300000.0 43395600000.0 30915400000.0 1532370000.0 3351000000.0 5617940000.0 21914600000.0 71825800000.0 141081000000.0 67054400000.0 30287400000.0 19333600000.0 1087360000.0 5705660000.0 121981000.0 6044430000.0 9039030000.0 9035960000.0 9054300000.0 10493500000.0 19580400000.0 58132100000.0 96488700000.0 149859000000.0 207048000000.0 241699000000.0 6086860000.0 80620800000.0 72353600000.0 56019500000.0 33390500000.0 15218200000.0 14203800000.0 10616600000.0 10225500000.0 5157470000.0 5478110000.0 2552380000.0 3973200000.0 2576880000.0 12519400000.0 4744150000.0 6158350000.0 19431300000.0 46284600000.0 29018400000.0 5238660000.0 122193000000.0 58115900000.0 37802600000.0 46208100000.0 19201700000.0 29086400000.0 18913000000.0 24016500000.0 16888100000.0 32695200000.0 14529500000.0 28731200000.0 8769910000.0 44619900000.0 25767600000.0 81278000000.0 59853900000.0 79415700000.0 65887300000.0 78289200000.0 69133700000.0 64664400000.0 52612800000.0 68747700000.0 54142800000.0 57602500000.0 57330100000.0 56498800000.0 52215200000.0 39709400000.0 24709100000.0 4435000000.0 3383440000.0 2382390000.0 2610360000.0 66050300000.0 145959000000.0 87396300000.0 57189900000.0 43346700000.0 18893200000.0 9035750000.0 9035750000.0 9035980000.0 9040700000.0 9036060000.0 9063710000.0 11410700000.0 18884400000.0 50155500000.0 88570700000.0 139858000000.0 197789000000.0 208497000000.0 8220400000.0 76576600000.0 73677800000.0 60257100000.0 40599700000.0 27790900000.0 27962400000.0 26104700000.0 28147600000.0 25900800000.0 27951000000.0 26985300000.0 29053800000.0 29169100000.0 36504800000.0 22966000000.0 21213600000.0 13137800000.0 59217600000.0 14826400000.0 69198100000.0 126327000000.0 10731100000.0 10797400000.0 18857400000.0 4169650000.0 13329100000.0 9758180000.0 12775400000.0 8399370000.0 23307300000.0 8618680000.0 22468300000.0 8964310000.0 39084300000.0 22590600000.0 61720700000.0 44590000000.0 61418500000.0 50156900000.0 61341800000.0 53947000000.0 51230000000.0 40044700000.0 50861200000.0 45060400000.0 48831700000.0 48881400000.0 47090900000.0 43386700000.0 33446600000.0 20122300000.0 9035760000.0 9062850000.0 9035740000.0 9092600000.0 70758400000.0 138234000000.0 80497400000.0 54321200000.0 41057000000.0 17185000000.0 9035750000.0 9035750000.0 9036370000.0 9041790000.0 9036130000.0 9069750000.0 11543100000.0 16049700000.0 38500500000.0 69210100000.0 114668000000.0 170939000000.0 173595000000.0 9135770000.0 65666800000.0 66793300000.0 57304100000.0 40510400000.0 29203700000.0 27379000000.0 24975400000.0 26578000000.0 24631100000.0 26271500000.0 25407900000.0 26949500000.0 27297700000.0 33205900000.0 22670400000.0 20926900000.0 12895700000.0 46381800000.0 10685100000.0 65990100000.0 122848000000.0 19351800000.0 28689900000.0 29176900000.0 18361100000.0 20801800000.0 18105700000.0 15669300000.0 10532400000.0 21654700000.0 9573800000.0 19804800000.0 9565040000.0 33271300000.0 20155200000.0 46806000000.0 33775400000.0 48061900000.0 39133500000.0 48307500000.0 42468200000.0 41292000000.0 32605000000.0 40275700000.0 37061200000.0 40754800000.0 40292100000.0 37709000000.0 34518400000.0 26116800000.0 14836200000.0 9035760000.0 9060100000.0 9035770000.0 9163890000.0 65791300000.0 124406000000.0 73746000000.0 51181200000.0 38101300000.0 15736800000.0 9035760000.0 9035750000.0 9036660000.0 9042150000.0 9036150000.0 9071690000.0 11411500000.0 13932800000.0 30561500000.0 53329200000.0 91758800000.0 142532000000.0 140019000000.0 9224200000.0 54692500000.0 58100000000.0 51424000000.0 37501300000.0 28116600000.0 25373800000.0 23127600000.0 24389300000.0 22737400000.0 24087400000.0 23405800000.0 24534200000.0 24984100000.0 29248500000.0 21123000000.0 19482200000.0 12515400000.0 38051900000.0 14758000000.0 60806000000.0 100691000000.0 10612000000.0 23546600000.0 24327000000.0 16703200000.0 18262100000.0 16729500000.0 13356400000.0 9770540000.0 17874300000.0 9338990000.0 16501600000.0 9463630000.0 28225900000.0 18655400000.0 37220900000.0 26798500000.0 37699200000.0 30899700000.0 38117600000.0 33644100000.0 33286500000.0 28133600000.0 33997100000.0 30277400000.0 33597500000.0 32762500000.0 30013300000.0 27516900000.0 20355300000.0 11419500000.0 9035770000.0 9056880000.0 9035780000.0 9220640000.0 58729300000.0 106748000000.0 63837200000.0 45260200000.0 33786900000.0 14435600000.0 9035760000.0 9035750000.0 9036820000.0 9041730000.0 9036120000.0 9069290000.0 11087900000.0 12368000000.0 24557400000.0 40427900000.0 71067100000.0 113394000000.0 108452000000.0 9258700000.0 43932900000.0 48072200000.0 43680700000.0 32910300000.0 25420300000.0 22508400000.0 20653600000.0 21562000000.0 20200300000.0 21237000000.0 20704300000.0 21515900000.0 21979900000.0 24956700000.0 19041500000.0 17549900000.0 11867300000.0 29849300000.0 13808000000.0 51115900000.0 78810200000.0 9126150000.0 19116400000.0 20756000000.0 15002000000.0 16283300000.0 15120700000.0 11803300000.0 9569180000.0 14987000000.0 9272750000.0 14131200000.0 9362860000.0 23857500000.0 17142600000.0 30499400000.0 22193900000.0 29544900000.0 24548000000.0 29879300000.0 26690100000.0 26784700000.0 24642400000.0 28943700000.0 24621600000.0 27247600000.0 26295600000.0 23792000000.0 22056400000.0 16112200000.0 9736270000.0 9035770000.0 9053020000.0 9035790000.0 9237710000.0 49779200000.0 86809800000.0 52635300000.0 38121000000.0 28780700000.0 13259700000.0 9035760000.0 9035750000.0 9036810000.0 9040580000.0 9036050000.0 9062850000.0 10605300000.0 11178300000.0 19526500000.0 29814100000.0 51923000000.0 83627900000.0 78498500000.0 9238870000.0 33517400000.0 37232200000.0 34561600000.0 26998800000.0 21520400000.0 19005100000.0 17671900000.0 18270900000.0 17244300000.0 17973400000.0 17592700000.0 18154800000.0 18527900000.0 20468000000.0 16485200000.0 15292300000.0 11119700000.0 22852100000.0 39962000000.0 57760300000.0 9038330000.0 15509400000.0 17642700000.0 13276600000.0 14431100000.0 13387400000.0 10803300000.0 9436610000.0 12835800000.0 9211380000.0 12436000000.0 9264860000.0 19732900000.0 15220600000.0 24491800000.0 18437000000.0 22980200000.0 19527700000.0 23069200000.0 21033300000.0 21334500000.0 20794300000.0 23677700000.0 19692500000.0 21539000000.0 20684900000.0 18719000000.0 17676900000.0 13154900000.0 9181780000.0 9035770000.0 9048590000.0 9035780000.0 9213270000.0 39216900000.0 65292700000.0 40554600000.0 30176700000.0 23311600000.0 12136300000.0 9035760000.0 9035750000.0 9036640000.0 12591400000.0 9038840000.0 9035940000.0 9053140000.0 10007400000.0 10224300000.0 15051500000.0 20777300000.0 33962600000.0 53440100000.0 49743000000.0 9174120000.0 23412800000.0 25907500000.0 24503900000.0 20080600000.0 16765700000.0 15081100000.0 14305600000.0 14638100000.0 14003300000.0 14432600000.0 14205800000.0 14539900000.0 14770400000.0 15853300000.0 13577700000.0 12818000000.0 10303700000.0 16817900000.0 11201400000.0 27784100000.0 37565700000.0 9035800000.0 12619400000.0 14338500000.0 11549700000.0 12383100000.0 11614200000.0 10056500000.0 9284840000.0 11156300000.0 9142760000.0 11025500000.0 9170050000.0 15495400000.0 12877000000.0 18345400000.0 14707600000.0 17178000000.0 15152700000.0 17127800000.0 16030200000.0 16306600000.0 16294400000.0 17932600000.0 15189700000.0 16277300000.0 15687800000.0 14456900000.0 13943600000.0 11131300000.0 9057900000.0 9035760000.0 9043690000.0 9035770000.0 9154830000.0 27415200000.0 42748400000.0 27911600000.0 21734000000.0 17575500000.0 10943300000.0 9035750000.0 9035750000.0 9036330000.0 9036740000.0 9035810000.0 9041330000.0 9343740000.0 9394750000.0 10889600000.0 21697300000.0 9080620000.0 13508800000.0 14324600000.0 13905800000.0 12533400000.0 11489000000.0 10938400000.0 10732700000.0 10661800000.0 10766400000.0 10838400000.0 11168500000.0 10466900000.0 10224800000.0 9438050000.0 11415900000.0 14941800000.0 17918900000.0 9035750000.0 10121400000.0 10721200000.0 9820910000.0 10101800000.0 9839870000.0 9352630000.0 9114830000.0 9680830000.0 9069480000.0 9655960000.0 9077480000.0 11069300000.0 10256800000.0 11962400000.0 10821300000.0 11566800000.0 10936400000.0 11534000000.0 11207300000.0 11306800000.0 11337500000.0 11841000000.0 10933800000.0 11275900000.0 11077500000.0 10687000000.0 10544200000.0 9648540000.0 9038050000.0 9035760000.0 9038290000.0 9035760000.0 9074520000.0 14832900000.0 14954500000.0 13022100000.0 11712300000.0 9640300000.0 9035750000.0 9035750000.0 9035940000.0 12626800000.0 16754500000.0 22934400000.0 10699300000.0 10800500000.0 10598700000.0 9714510000.0 19611500000.0 