# vtk DataFile Version 2.0
Time step 94
ASCII
DATASET UNSTRUCTURED_GRID
POINTS 4650 float
294603.0 281242.0 0
208898.0 282191.0 0
215578.0 281916.0 0
219252.0 283435.0 0
236968.0 283742.0 0
243916.0 283509.0 0
247331.0 281436.0 0
250842.0 283339.0 0
257774.0 283216.0 0
264955.0 283645.0 0
276307.0 283548.0 0
284326.0 283269.0 0
291170.0 283252.0 0
298003.0 283307.0 0
201998.0 286162.0 0
205442.0 284172.0 0
208891.0 286185.0 0
212332.0 284209.0 0
215780.0 286191.0 0
223053.0 284609.0 0
226667.0 286272.0 0
233586.0 285873.0 0
240511.0 285595.0 0
247430.0 285415.0 0
254339.0 285256.0 0
261261.0 285163.0 0
272544.0 285708.0 0
280896.0 285291.0 0
287768.0 285271.0 0
294587.0 285289.0 0
205443.0 288157.0 0
212347.0 288191.0 0
219545.0 287395.0 0
223317.0 288577.0 0
230231.0 288040.0 0
237132.0 287716.0 0
244031.0 287485.0 0
250928.0 287320.0 0
257811.0 287195.0 0
266600.0 287281.0 0
270102.0 289190.0 0
277496.0 287346.0 0
284367.0 287265.0 0
291191.0 287277.0 0
298004.0 287300.0 0
201997.0 290138.0 0
208889.0 290153.0 0
215816.0 290184.0 0
219641.0 291340.0 0
226899.0 290242.0 0
233775.0 289848.0 0
240657.0 289570.0 0
244158.0 291450.0 0
247532.0 289382.0 0
251010.0 291288.0 0
254403.0 289239.0 0
257857.0 291174.0 0
261255.0 289131.0 0
264784.0 290831.0 0
274080.0 289380.0 0
277666.0 291301.0 0
280997.0 289275.0 0
284442.0 291256.0 0
287805.0 289263.0 0
291222.0 291265.0 0
294606.0 289281.0 0
298006.0 291286.0 0
201996.0 294097.0 0
205432.0 292117.0 0
208855.0 294099.0 0
212335.0 292147.0 0
215763.0 294157.0 0
223452.0 292534.0 0
227085.0 294186.0 0
230437.0 292011.0 0
233991.0 293798.0 0
237309.0 291677.0 0
240811.0 293532.0 0
247634.0 293342.0 0
254465.0 293208.0 0
261304.0 293100.0 0
268223.0 292705.0 0
274371.0 293313.0 0
281107.0 293261.0 0
287858.0 293250.0 0
294622.0 293265.0 0
205408.0 296066.0 0
212248.0 296088.0 0
219581.0 295261.0 0
223363.0 296470.0 0
230710.0 295932.0 0
237495.0 295632.0 0
244282.0 295406.0 0
251086.0 295245.0 0
257904.0 295138.0 0
264824.0 294814.0 0
271128.0 295313.0 0
277798.0 295274.0 0
284517.0 295243.0 0
291256.0 295246.0 0
298007.0 295265.0 0
201994.0 298048.0 0
208789.0 298044.0 0
215597.0 298098.0 0
219343.0 299152.0 0
227499.0 298082.0 0
234218.0 297747.0 0
240961.0 297487.0 0
244398.0 299356.0 0
247728.0 297292.0 0
251151.0 299191.0 0
254516.0 297161.0 0
257917.0 299095.0 0
261318.0 297073.0 0
264565.0 299188.0 0
267855.0 297259.0 0
271213.0 299265.0 0
274511.0 297283.0 0
277890.0 299248.0 0
281197.0 297244.0 0
284578.0 299223.0 0
287909.0 297232.0 0
291286.0 299221.0 0
294639.0 297241.0 0
298008.0 299235.0 0
201992.0 301994.0 0
205375.0 300015.0 0
208721.0 302001.0 0
212125.0 300033.0 0
215422.0 302009.0 0
224373.0 300236.0 0
227833.0 302033.0 0
230996.0 299881.0 0
234433.0 301710.0 0
237675.0 299588.0 0
241098.0 301440.0 0
247812.0 301234.0 0
254548.0 301106.0 0
261237.0 301102.0 0
267903.0 301210.0 0
274581.0 301237.0 0
281260.0 301216.0 0
287949.0 301204.0 0
294653.0 301208.0 0
205344.0 303965.0 0
212027.0 304000.0 0
218310.0 304414.0 0
221351.0 302397.0 0
224728.0 304196.0 0
231237.0 303853.0 0
237835.0 303548.0 0
244498.0 303298.0 0
251204.0 303127.0 0
257902.0 303061.0 0
264577.0 303131.0 0
271262.0 303200.0 0
277944.0 303204.0 0
284622.0 303189.0 0
291309.0 303185.0 0
298009.0 303194.0 0
201990.0 305935.0 0
208659.0 305964.0 0
215115.0 306245.0 0
221607.0 306318.0 0
228081.0 306012.0 0
234610.0 305679.0 0
241215.0 305388.0 0
244580.0 307230.0 0
247881.0 305166.0 0
251246.0 307051.0 0
254570.0 305046.0 0
257924.0 306994.0 0
261249.0 305050.0 0
264604.0 307047.0 0
267935.0 305132.0 0
271294.0 307117.0 0
274622.0 305173.0 0
277976.0 307142.0 0
281299.0 305172.0 0
284648.0 307140.0 0
287976.0 305163.0 0
291325.0 307135.0 0
294663.0 305164.0 0
298010.0 307140.0 0
201988.0 309867.0 0
205313.0 307910.0 0
208586.0 309941.0 0
211867.0 308074.0 0
218400.0 308297.0 0
224928.0 308155.0 0
231419.0 307830.0 0
234747.0 309646.0 0
237965.0 307505.0 0
241307.0 309327.0 0
247936.0 309080.0 0
254601.0 308960.0 0
261276.0 308962.0 0
267962.0 309036.0 0
274648.0 309093.0 0
281321.0 309110.0 0
287992.0 309107.0 0
294669.0 309104.0 0
205291.0 311851.0 0
211883.0 312001.0 0
215152.0 310159.0 0
218493.0 312172.0 0
221731.0 310221.0 0
225058.0 312098.0 0
228244.0 309983.0 0
231552.0 311799.0 0
238065.0 311454.0 0
244642.0 311145.0 0
251284.0 310950.0 0
257949.0 310893.0 0
264628.0 310941.0 0
271315.0 311019.0 0
277993.0 311064.0 0
284661.0 311074.0 0
291333.0 311069.0 0
298011.0 311070.0 0
201986.0 313781.0 0
208599.0 313863.0 0
215226.0 314038.0 0
221848.0 314122.0 0
228369.0 313943.0 0
234852.0 313602.0 0
241375.0 313254.0 0
244684.0 315035.0 0
247977.0 312970.0 0
251310.0 314819.0 0
254627.0 312844.0 0
257963.0 314763.0 0
261295.0 312846.0 0
264636.0 314812.0 0
267978.0 312922.0 0
271321.0 314905.0 0
274660.0 312998.0 0
277997.0 314971.0 0
281331.0 313031.0 0
284665.0 314990.0 0
287998.0 313032.0 0
291335.0 314984.0 0
294672.0 313027.0 0
298011.0 314982.0 0
201986.0 317660.0 0
205300.0 315752.0 0
208632.0 317735.0 0
211936.0 315881.0 0
218601.0 316039.0 0
225191.0 316043.0 0
231666.0 315757.0 0
234944.0 317554.0 0
238141.0 315395.0 0
241420.0 317168.0 0
248002.0 316828.0 0
254636.0 316699.0 0
261292.0 316702.0 0
267973.0 316788.0 0
274657.0 316887.0 0
281329.0 316936.0 0
287999.0 316939.0 0
294673.0 316930.0 0
205314.0 319610.0 0
211990.0 319718.0 0
215307.0 317885.0 0
218703.0 319876.0 0
221991.0 318020.0 0
225391.0 320008.0 0
228508.0 317905.0 0
231787.0 319721.0 0
238201.0 319332.0 0
244705.0 318892.0 0
251320.0 318659.0 0
257950.0 318606.0 0
264615.0 318657.0 0
271305.0 318774.0 0
277988.0 318863.0 0
284662.0 318889.0 0
291335.0 318879.0 0
298012.0 318873.0 0
201986.0 321501.0 0
208661.0 321564.0 0
215373.0 321695.0 0
222114.0 321874.0 0
228784.0 322011.0 0
235031.0 321512.0 0
241444.0 321078.0 0
244711.0 322693.0 0
248014.0 320649.0 0
251315.0 322474.0 0
254620.0 320530.0 0
257890.0 322430.0 0
261249.0 320532.0 0
264541.0 322471.0 0
267935.0 320628.0 0
271255.0 322619.0 0
274634.0 320760.0 0
277968.0 322735.0 0
281321.0 320825.0 0
284659.0 322769.0 0
287997.0 320827.0 0
291336.0 322751.0 0
294673.0 320811.0 0
298013.0 322742.0 0
201986.0 325308.0 0
205325.0 323429.0 0
208676.0 325358.0 0
212025.0 323517.0 0
215403.0 325467.0 0
218773.0 323672.0 0
225511.0 323934.0 0
232180.0 324017.0 0
238252.0 323276.0 0
241457.0 325002.0 0
248031.0 324425.0 0
254563.0 324354.0 0
261135.0 324338.0 0
267836.0 324430.0 0
274588.0 324607.0 0
281316.0 324693.0 0
288001.0 324695.0 0
294676.0 324670.0 0
205329.0 327216.0 0
212033.0 327285.0 0
218788.0 327424.0 0
222179.0 325684.0 0
225584.0 327866.0 0
228885.0 325955.0 0
232268.0 327947.0 0
235592.0 326006.0 0
239012.0 327989.0 0
244752.0 326377.0 0
247958.0 328199.0 0
251263.0 326287.0 0
254466.0 328176.0 0
257781.0 326249.0 0
260969.0 328146.0 0
264353.0 326244.0 0
267517.0 328151.0 0
271151.0 326429.0 0
277955.0 326580.0 0
284671.0 326633.0 0
291345.0 326603.0 0
298013.0 326591.0 0
201986.0 329085.0 0
208674.0 329125.0 0
215394.0 329208.0 0
222170.0 329426.0 0
228951.0 329886.0 0
235652.0 329925.0 0
244503.0 329926.0 0
251157.0 330087.0 0
257648.0 330074.0 0
264111.0 330045.0 0
270548.0 330081.0 0
274550.0 328408.0 0
277984.0 330393.0 0
281339.0 328543.0 0
284722.0 330485.0 0
288026.0 328546.0 0
291375.0 330437.0 0
294687.0 328507.0 0
298015.0 330421.0 0
201985.0 332836.0 0
205325.0 330978.0 0
208659.0 332875.0 0
212016.0 331031.0 0
215354.0 332927.0 0
218754.0 331137.0 0
222128.0 333090.0 0
225658.0 331826.0 0
232319.0 331865.0 0
237812.0 333105.0 0
241074.0 331292.0 0
247790.0 331908.0 0
254353.0 331992.0 0
260798.0 331978.0 0
267178.0 331960.0 0
273500.0 331944.0 0
281426.0 332378.0 0
288093.0 332390.0 0
294712.0 332327.0 0
205322.0 334724.0 0
211979.0 334764.0 0
218697.0 334809.0 0
225757.0 335806.0 0
229018.0 333818.0 0
234565.0 334968.0 0
241123.0 335196.0 0
244415.0 333597.0 0
247725.0 335641.0 0
251042.0 333856.0 0
254264.0 335798.0 0
257527.0 333906.0 0
260668.0 335832.0 0
263900.0 333893.0 0
266965.0 335816.0 0
270196.0 333877.0 0
273200.0 335740.0 0
276414.0 333719.0 0
279338.0 335397.0 0
284852.0 334342.0 0
291445.0 334261.0 0
298018.0 334241.0 0
201985.0 336561.0 0
205327.0 338451.0 0
208650.0 336618.0 0
211965.0 338506.0 0
215283.0 336628.0 0
218565.0 338434.0 0
222081.0 336672.0 0
231333.0 336885.0 0
237905.0 336995.0 0
244442.0 337354.0 0
251001.0 337633.0 0
257452.0 337745.0 0
263777.0 337765.0 0
270015.0 337719.0 0
276219.0 337526.0 0
282323.0 336991.0 0
285402.0 338551.0 0
288243.0 336243.0 0
291573.0 338091.0 0
294762.0 336142.0 0
298021.0 338061.0 0
201985.0 340250.0 0
208662.0 340355.0 0
215273.0 340361.0 0
221799.0 340133.0 0
228140.0 338889.0 0
231590.0 340769.0 0
234720.0 338851.0 0
238073.0 340864.0 0
241229.0 339061.0 0
244547.0 341151.0 0
247754.0 339409.0 0
254240.0 339611.0 0
260609.0 339697.0 0
266866.0 339690.0 0
273075.0 339565.0 0
276158.0 341333.0 0
279274.0 339219.0 0
282374.0 340822.0 0
288556.0 340193.0 0
294826.0 339971.0 0
205341.0 342155.0 0
211994.0 342249.0 0
218593.0 342144.0 0
222075.0 343662.0 0
225200.0 341213.0 0
228597.0 342829.0 0
234969.0 342726.0 0
241395.0 342909.0 0
247846.0 343202.0 0
251033.0 341426.0 0
254279.0 343430.0 0
257446.0 341588.0 0
260627.0 343564.0 0
263744.0 341646.0 0
266864.0 343576.0 0
269953.0 341579.0 0
273047.0 343402.0 0
279264.0 343017.0 0
285506.0 342403.0 0
291727.0 341972.0 0
298025.0 341888.0 0
201985.0 343888.0 0
205353.0 345835.0 0
208685.0 344073.0 0
212023.0 345970.0 0
215346.0 344096.0 0
218801.0 345796.0 0
225607.0 345003.0 0
231951.0 344673.0 0
238299.0 344728.0 0
244696.0 344968.0 0
251116.0 345231.0 0
257499.0 345429.0 0
263792.0 345532.0 0
269977.0 345461.0 0
276154.0 345150.0 0
282388.0 344608.0 0
285531.0 346191.0 0
288648.0 344056.0 0
291793.0 345812.0 0
294892.0 343817.0 0
298029.0 345718.0 0
201986.0 347456.0 0
208676.0 347778.0 0
215388.0 347779.0 0
222602.0 347171.0 0
226033.0 348784.0 0
228981.0 346704.0 0
232284.0 348562.0 0
235266.0 346612.0 0
238547.0 348600.0 0
241595.0 346758.0 0
244866.0 348798.0 0
247973.0 347012.0 0
251225.0 349043.0 0
254359.0 347248.0 0
260703.0 347425.0 0
266946.0 347479.0 0
270083.0 349383.0 0
273085.0 347261.0 0
276188.0 348997.0 0
279260.0 346824.0 0
282378.0 348361.0 0
288688.0 347848.0 0
294926.0 347645.0 0
201984.0 350918.0 0
205344.0 349517.0 0
208583.0 351505.0 0
211959.0 349680.0 0
216888.0 350997.0 0
219745.0 349204.0 0
223130.0 350869.0 0
229337.0 350565.0 0
235547.0 350496.0 0
241803.0 350613.0 0
248114.0 350833.0 0
254453.0 351063.0 0
257582.0 349258.0 0
260792.0 351262.0 0
263902.0 349414.0 0
273198.0 351163.0 0
279259.0 350670.0 0
285550.0 349914.0 0
291836.0 349607.0 0
294947.0 351450.0 0
298031.0 349536.0 0
205326.0 353275.0 0
213944.0 352624.0 0
220202.0 352852.0 0
226415.0 352602.0 0
232583.0 352442.0 0
235799.0 354375.0 0
238784.0 352472.0 0
245038.0 352637.0 0
251339.0 352859.0 0
257663.0 353076.0 0
263995.0 353257.0 0
267106.0 351393.0 0
270335.0 353355.0 0
276250.0 352908.0 0
279293.0 354581.0 0
282379.0 352044.0 0
285636.0 353560.0 0
288741.0 351583.0 0
291867.0 353379.0 0
298033.0 353341.0 0
201975.0 354222.0 0
207771.0 355970.0 0
210885.0 354225.0 0
214111.0 356255.0 0
217197.0 354624.0 0
220490.0 356537.0 0
223476.0 354619.0 0
226694.0 356421.0 0
229641.0 354427.0 0
232836.0 356314.0 0
238996.0 356342.0 0
242000.0 354472.0 0
245197.0 356482.0 0
248251.0 354661.0 0
251441.0 356681.0 0
254541.0 354878.0 0
257720.0 356889.0 0
260855.0 355080.0 0
264026.0 357077.0 0
267194.0 355243.0 0
273543.0 355379.0 0
282518.0 355540.0 0
288781.0 355304.0 0
294955.0 355240.0 0
201960.0 357364.0 0
205022.0 358231.0 0
211005.0 357910.0 0
217434.0 358212.0 0
223719.0 358383.0 0
229874.0 358275.0 0
236015.0 358244.0 0
242175.0 358329.0 0
248372.0 358497.0 0
254607.0 358696.0 0
260871.0 358895.0 0
267156.0 359081.0 0
270356.0 357243.0 0
276745.0 357349.0 0
282393.0 358866.0 0
285675.0 357200.0 0
288739.0 359017.0 0
291866.0 357137.0 0
294947.0 359008.0 0
298033.0 357132.0 0
201968.0 360707.0 0
208057.0 359842.0 0
211211.0 361564.0 0
214309.0 359812.0 0
217650.0 361746.0 0
220722.0 360261.0 0
223889.0 362175.0 0
226893.0 360235.0 0
230056.0 362103.0 0
233041.0 360169.0 0
236197.0 362096.0 0
239179.0 360203.0 0
242325.0 362184.0 0
245335.0 360331.0 0
248470.0 362339.0 0
251523.0 360511.0 0
257742.0 360708.0 0
263981.0 360904.0 0
270218.0 361109.0 0
273470.0 359278.0 0
279227.0 360049.0 0
285509.0 360797.0 0
291817.0 360857.0 0
298033.0 360900.0 0
201966.0 364231.0 0
205063.0 362003.0 0
208141.0 363541.0 0
214450.0 363308.0 0
220888.0 364084.0 0
227053.0 364038.0 0
233215.0 363999.0 0
239335.0 364053.0 0
245448.0 364181.0 0
251579.0 364352.0 0
254644.0 362526.0 0
257730.0 364543.0 0
260839.0 362723.0 0
263884.0 364751.0 0
267029.0 362933.0 0
273068.0 363292.0 0
276170.0 361660.0 0
279075.0 363896.0 0
282242.0 362415.0 0
288607.0 362666.0 0
291720.0 364507.0 0
294916.0 362733.0 0
298031.0 364643.0 0
205066.0 365677.0 0
208222.0 367128.0 0
211304.0 365120.0 0
214526.0 366732.0 0
217716.0 365125.0 0
224043.0 365986.0 0
230226.0 365904.0 0
236354.0 365931.0 0
242449.0 366035.0 0
248544.0 366188.0 0
254655.0 366368.0 0
260774.0 366569.0 0
266855.0 366821.0 0
269960.0 365037.0 0
275956.0 365527.0 0
282087.0 366055.0 0
285341.0 364399.0 0
288432.0 366274.0 0
294858.0 366405.0 0
201967.0 367864.0 0
205126.0 369271.0 0
211520.0 368605.0 0
217796.0 368304.0 0
221118.0 368038.0 0
224306.0 369800.0 0
227240.0 367821.0 0
230414.0 369692.0 0
233378.0 367809.0 0
236494.0 369755.0 0
239466.0 367895.0 0
242546.0 369883.0 0
245535.0 368034.0 0
248593.0 370043.0 0
251611.0 368202.0 0
254647.0 370223.0 0
257696.0 368393.0 0
263764.0 368621.0 0
269785.0 368932.0 0
272865.0 367199.0 0
275805.0 369356.0 0
278913.0 367677.0 0
285132.0 368011.0 0
288151.0 369855.0 0
291538.0 368078.0 0
294681.0 369969.0 0
298026.0 368370.0 0
302245.0 368943.0 0
201986.0 371588.0 0
205775.0 372591.0 0
208608.0 370571.0 0
211989.0 372062.0 0
214824.0 370144.0 0
218263.0 371411.0 0
221528.0 371975.0 0
227490.0 371610.0 0
233538.0 371616.0 0
239571.0 371733.0 0
245596.0 371887.0 0
251623.0 372060.0 0
257651.0 372254.0 0
260696.0 370432.0 0
263662.0 372492.0 0
266716.0 370700.0 0
272718.0 371056.0 0
278782.0 371454.0 0
281902.0 369738.0 0
284866.0 371665.0 0
291160.0 371542.0 0
297779.0 371944.0 0
298121.0 374964.0 0
198250.0 378376.0 0
200743.0 376202.0 0
203453.0 374967.0 0
206749.0 376159.0 0
209241.0 374022.0 0
212633.0 375497.0 0
215409.0 373504.0 0
218826.0 374703.0 0
224670.0 373632.0 0
230616.0 373495.0 0
236613.0 373581.0 0
242615.0 373730.0 0
248620.0 373900.0 0
254627.0 374084.0 0
260625.0 374299.0 0
266607.0 374565.0 0
269653.0 372796.0 0
275671.0 373158.0 0
278641.0 375212.0 0
281779.0 373490.0 0
284785.0 375469.0 0
287740.0 373473.0 0
294084.0 373353.0 0
301084.0 377943.0 0
195488.0 380102.0 0
201312.0 378831.0 0
204299.0 378494.0 0
210007.0 377550.0 0
215990.0 376903.0 0
219229.0 378230.0 0
221972.0 375830.0 0
225010.0 377488.0 0
227766.0 375436.0 0
230806.0 377331.0 0
233684.0 375437.0 0
236705.0 377416.0 0
239649.0 375571.0 0
242654.0 377575.0 0
245631.0 375738.0 0
248626.0 377753.0 0
251620.0 375920.0 0
257606.0 376118.0 0
263580.0 376356.0 0
269545.0 376641.0 0
272593.0 374885.0 0
272479.0 378706.0 0
275538.0 376948.0 0
281604.0 377215.0 0
287850.0 377406.0 0
290519.0 374957.0 0
292822.0 376750.0 0
296155.0 375767.0 0
297899.0 378533.0 0
301274.0 380869.0 0
304204.0 379891.0 0
189361.0 383918.0 0
192356.0 382036.0 0
195153.0 382964.0 0
198746.0 381435.0 0
202199.0 381699.0 0
207489.0 379722.0 0
213238.0 379003.0 0
216449.0 380424.0 0
222293.0 379643.0 0
225248.0 381349.0 0
228000.0 379299.0 0
233799.0 379283.0 0
239693.0 379413.0 0
245639.0 379584.0 0
251604.0 379775.0 0
254601.0 377943.0 0
257566.0 379975.0 0
260568.0 378161.0 0
263516.0 380212.0 0
266522.0 378419.0 0
269454.0 380480.0 0
275401.0 380747.0 0
278476.0 378973.0 0
281377.0 380960.0 0
284548.0 379164.0 0
290617.0 379710.0 0
294443.0 379173.0 0
298561.0 381586.0 0
304284.0 382863.0 0
307246.0 381791.0 0
310417.0 383795.0 0
186297.0 385833.0 0
192305.0 385045.0 0
195185.0 386337.0 0
197601.0 384284.0 0
200474.0 384582.0 0
205246.0 382101.0 0
208012.0 383435.0 0
210580.0 381148.0 0
213716.0 382554.0 0
216801.0 384024.0 0
219551.0 381875.0 0
222510.0 383458.0 0
228150.0 383181.0 0
230949.0 381200.0 0
236760.0 381265.0 0
242662.0 381415.0 0
248613.0 381595.0 0
254569.0 381793.0 0
260520.0 382014.0 0
263463.0 384061.0 0
266452.0 382267.0 0
272372.0 382531.0 0
278293.0 382764.0 0
284140.0 382981.0 0
287283.0 381209.0 0
292651.0 382513.0 0
295768.0 381966.0 0
298161.0 384816.0 0
301214.0 383999.0 0
304109.0 385794.0 0
307477.0 384631.0 0
313322.0 385613.0 0
183188.0 387776.0 0
186095.0 388847.0 0
189234.0 386925.0 0
192216.0 388086.0 0
198456.0 387322.0 0
203329.0 384941.0 0
205633.0 386116.0 0
211048.0 384715.0 0
214096.0 386139.0 0
219762.0 385601.0 0
225379.0 385219.0 0
231024.0 385086.0 0
233869.0 383150.0 0
236774.0 385123.0 0
239702.0 383257.0 0
242637.0 385249.0 0
245621.0 383418.0 0
248580.0 385417.0 0
251575.0 383621.0 0
257528.0 383820.0 0
260478.0 385856.0 0
266389.0 386112.0 0
269372.0 384320.0 0
272268.0 386370.0 0
275263.0 384569.0 0
281098.0 384793.0 0
286656.0 385183.0 0
289603.0 383610.0 0
292010.0 386155.0 0
295094.0 385294.0 0
297965.0 387940.0 0
301027.0 387147.0 0
304051.0 388909.0 0
307006.0 387337.0 0
310278.0 387190.0 0
313424.0 388791.0 0
316369.0 387505.0 0
176941.0 391684.0 0
180058.0 389733.0 0
182934.0 390813.0 0
189058.0 389921.0 0
192111.0 391005.0 0
195365.0 389334.0 0
198466.0 390213.0 0
201723.0 387906.0 0
204706.0 389354.0 0
208376.0 386949.0 0
208427.0 390064.0 0
211403.0 388235.0 0
217020.0 387716.0 0
222614.0 387294.0 0
225407.0 389094.0 0
228210.0 387070.0 0
231034.0 388974.0 0
233887.0 387028.0 0
236751.0 388987.0 0
239675.0 387101.0 0
245573.0 387234.0 0
251531.0 387463.0 0
254529.0 385623.0 0
257487.0 387648.0 0
263413.0 387903.0 0
269290.0 388168.0 0
275125.0 388421.0 0
278100.0 386610.0 0
280846.0 388697.0 0
283750.0 386915.0 0
289123.0 387518.0 0
294669.0 388602.0 0
297374.0 390875.0 0
301086.0 390345.0 0
307639.0 389952.0 0
310742.0 390560.0 0
316615.0 390585.0 0
319508.0 389462.0 0
322722.0 391467.0 0
173862.0 393612.0 0
179799.0 392820.0 0
182719.0 393870.0 0
185865.0 391852.0 0
188855.0 392879.0 0
191867.0 393944.0 0
195117.0 392341.0 0
198018.0 393188.0 0
201374.0 391126.0 0
206234.0 392106.0 0
211456.0 391741.0 0
214289.0 389798.0 0
217074.0 391473.0 0
219845.0 389388.0 0
222605.0 391146.0 0
228188.0 390952.0 0
233869.0 390907.0 0
239614.0 390948.0 0
242575.0 389073.0 0
248528.0 389202.0 0
251466.0 391324.0 0
254475.0 389422.0 0
257446.0 391453.0 0
260436.0 389687.0 0
263360.0 391745.0 0
266322.0 389961.0 0
272159.0 390225.0 0
277928.0 390495.0 0
283518.0 390856.0 0
286321.0 389139.0 0
288925.0 391397.0 0
291715.0 389864.0 0
299636.0 392979.0 0
304716.0 391752.0 0
308032.0 392935.0 0
311191.0 393853.0 0
313880.0 392052.0 0
317097.0 393740.0 0
319863.0 392469.0 0
325984.0 393504.0 0
170847.0 395504.0 0
173748.0 396856.0 0
176720.0 394840.0 0
179644.0 395944.0 0
182630.0 396968.0 0
185695.0 394881.0 0
188710.0 395895.0 0
194794.0 395508.0 0
200650.0 394668.0 0
203539.0 393176.0 0
206088.0 395521.0 0
208940.0 393767.0 0
214262.0 393488.0 0
219797.0 393210.0 0
225342.0 392962.0 0
230983.0 392845.0 0
236724.0 392859.0 0
242461.0 392895.0 0
245485.0 391028.0 0
248454.0 392908.0 0
254397.0 393157.0 0
260409.0 393509.0 0
266217.0 393820.0 0
269193.0 392024.0 0
272055.0 394083.0 0
274998.0 392291.0 0
277806.0 394382.0 0
280680.0 392613.0 0
286182.0 393061.0 0
291595.0 393641.0 0
294376.0 392151.0 0
296930.0 394433.0 0
302526.0 393852.0 0
305541.0 395103.0 0
308644.0 396157.0 0
311772.0 397103.0 0
314402.0 395292.0 0
317631.0 396938.0 0
320358.0 395541.0 0
323151.0 394428.0 0
326451.0 396437.0 0
329272.0 395560.0 0
164912.0 399213.0 0
167898.0 397348.0 0
170876.0 398849.0 0
176719.0 398058.0 0
179793.0 399136.0 0
185648.0 397969.0 0
188656.0 398975.0 0
191744.0 396975.0 0
194567.0 398996.0 0
197541.0 396380.0 0
200337.0 398128.0 0
203210.0 396774.0 0
208710.0 397396.0 0
211572.0 395520.0 0
214196.0 397302.0 0
216971.0 395260.0 0
219639.0 397040.0 0
222494.0 395001.0 0
225200.0 396811.0 0
228096.0 394812.0 0
230883.0 396687.0 0
233805.0 394760.0 0
236653.0 396697.0 0
239602.0 394829.0 0
242511.0 396821.0 0
245257.0 394788.0 0
248039.0 396334.0 0
249686.0 398927.0 0
251362.0 395280.0 0
257499.0 395224.0 0
263221.0 395614.0 0
269093.0 395871.0 0
274899.0 396155.0 0
280604.0 396502.0 0
283417.0 394772.0 0
286181.0 396949.0 0
288891.0 395263.0 0
294287.0 395884.0 0
300001.0 396209.0 0
303036.0 397340.0 0
306077.0 398472.0 0
309161.0 399406.0 0
314985.0 398555.0 0
320828.0 398701.0 0
323620.0 397459.0 0
326794.0 399467.0 0
329683.0 398545.0 0
332526.0 397596.0 0
335749.0 399612.0 0
161745.0 401180.0 0
164601.0 402287.0 0
167988.0 400597.0 0
171077.0 402266.0 0
173872.0 400162.0 0
177042.0 401286.0 0
182937.0 400169.0 0
186127.0 401210.0 0
191623.0 400003.0 0
197414.0 399488.0 0
202639.0 400371.0 0
205692.0 399021.0 0
211328.0 399239.0 0
216807.0 399109.0 0
222302.0 398850.0 0
227948.0 398638.0 0
233706.0 398586.0 0
239521.0 398653.0 0
242406.0 400613.0 0
245517.0 398791.0 0
247868.0 401409.0 0
252619.0 399025.0 0
254628.0 396658.0 0
257081.0 399189.0 0
260191.0 397412.0 0
263094.0 399435.0 0
266107.0 397655.0 0
271960.0 397928.0 0
277739.0 398242.0 0
283427.0 398643.0 0
288998.0 399098.0 0
291659.0 397449.0 0
294652.0 399504.0 0
297308.0 397892.0 0
300460.0 399554.0 0
303567.0 400809.0 0
306640.0 401856.0 0
312305.0 400270.0 0
315517.0 401861.0 0
318126.0 400233.0 0
321014.0 402030.0 0
323894.0 400633.0 0
330027.0 401568.0 0
332910.0 400637.0 0
338930.0 401603.0 0
155528.0 405072.0 0
158620.0 403136.0 0
161492.0 404311.0 0
167359.0 403548.0 0
174377.0 403414.0 0
177693.0 404500.0 0
180295.0 402339.0 0
183615.0 403372.0 0
187053.0 404389.0 0
189379.0 402263.0 0
193007.0 402618.0 0
196023.0 402409.0 0
199532.0 401684.0 0
205107.0 402509.0 0
208302.0 400986.0 0
210982.0 402908.0 0
213955.0 401098.0 0
219424.0 400882.0 0
224993.0 400624.0 0
230747.0 400490.0 0
236552.0 400514.0 0
239396.0 402473.0 0
245009.0 402801.0 0
251106.0 402680.0 0
254452.0 401529.0 0
260054.0 401206.0 0
265984.0 401469.0 0
268988.0 399700.0 0
271870.0 401746.0 0
274826.0 399991.0 0
277715.0 402052.0 0
280605.0 400339.0 0
283524.0 402451.0 0
286293.0 400795.0 0
291969.0 401148.0 0
297817.0 401373.0 0
301067.0 402989.0 0
304331.0 404313.0 0
309734.0 402649.0 0
312901.0 403350.0 0
318135.0 403776.0 0
324203.0 403802.0 0
327110.0 402523.0 0
330281.0 404643.0 0
333205.0 403728.0 0
336085.0 402712.0 0
339225.0 404744.0 0
342079.0 403572.0 0
152461.0 406992.0 0
158436.0 406303.0 0
161375.0 407539.0 0
164341.0 405527.0 0
167069.0 407008.0 0
169776.0 405057.0 0
172506.0 405896.0 0
175480.0 406878.0 0
181048.0 405520.0 0
184478.0 406492.0 0
188047.0 407328.0 0
190805.0 405112.0 0
194535.0 405654.0 0
198219.0 404805.0 0
201809.0 403842.0 0
204407.0 405893.0 0
207750.0 404481.0 0
213715.0 404884.0 0
216569.0 402977.0 0
219190.0 404717.0 0
222051.0 402707.0 0
224715.0 404373.0 0
227759.0 402411.0 0
230605.0 404245.0 0
233586.0 402383.0 0
233437.0 406168.0 0
236415.0 404328.0 0
242122.0 404541.0 0
248064.0 404869.0 0
253973.0 405010.0 0
257208.0 403172.0 0
262956.0 403241.0 0
268874.0 403503.0 0
274769.0 403782.0 0
280656.0 404105.0 0
286502.0 404591.0 0
289246.0 402850.0 0
292321.0 404771.0 0
295107.0 403061.0 0
298385.0 404838.0 0
301780.0 406401.0 0
307621.0 405246.0 0
311137.0 405771.0 0
315110.0 405501.0 0
318536.0 407015.0 0
321332.0 405220.0 0
324351.0 407071.0 0
327319.0 405640.0 0
333456.0 406849.0 0
336357.0 405863.0 0
342320.0 406726.0 0
345205.0 405527.0 0
348319.0 407475.0 0
149428.0 408892.0 0
152404.0 410236.0 0
155403.0 408273.0 0
158405.0 409523.0 0
164282.0 408908.0 0
170001.0 408381.0 0
178649.0 407812.0 0
181974.0 408722.0 0
185454.0 409574.0 0
191491.0 408101.0 0
194519.0 408857.0 0
197587.0 407901.0 0
200950.0 407049.0 0
207039.0 407905.0 0
210442.0 406432.0 0
216557.0 406926.0 0
221654.0 406619.0 0
227586.0 406095.0 0
230447.0 407975.0 0
236208.0 408168.0 0
239182.0 406348.0 0
242002.0 408377.0 0
245003.0 406581.0 0
247898.0 408595.0 0
250942.0 406651.0 0
253797.0 408751.0 0
256886.0 406925.0 0
259751.0 408890.0 0
259990.0 405100.0 0
262827.0 407072.0 0
265848.0 405266.0 0
268749.0 407278.0 0
271776.0 405525.0 0
277707.0 405801.0 0
283674.0 406170.0 0
289527.0 406563.0 0
295527.0 406550.0 0
298825.0 408239.0 0
305301.0 407740.0 0
309025.0 408297.0 0
312822.0 408268.0 0
316061.0 408548.0 0
321375.0 408519.0 0
327519.0 408728.0 0
330513.0 407732.0 0
336512.0 409088.0 0
339421.0 407964.0 0
342456.0 409940.0 0
345402.0 408691.0 0
351431.0 409421.0 0
143545.0 412588.0 0
146447.0 410762.0 0
149458.0 412192.0 0
155452.0 411510.0 0
158533.0 412787.0 0
161423.0 410835.0 0
164494.0 412245.0 0
167270.0 410390.0 0
170345.0 411685.0 0
173011.0 409338.0 0
176113.0 410226.0 0
179331.0 411055.0 0
182658.0 411869.0 0
188994.0 410459.0 0
192585.0 411479.0 0
196577.0 411285.0 0
200032.0 410396.0 0
203542.0 409210.0 0
209760.0 409853.0 0
213205.0 408424.0 0
215898.0 410566.0 0
219294.0 409256.0 0
224471.0 407919.0 0
224250.0 411165.0 0
227424.0 409715.0 0
233204.0 409973.0 0
238997.0 410189.0 0
244851.0 410396.0 0
250757.0 410531.0 0
256675.0 410721.0 0
262619.0 410855.0 0
265700.0 409053.0 0
271677.0 409268.0 0
274705.0 407523.0 0
277666.0 409487.0 0
280710.0 407784.0 0
283810.0 409769.0 0
286723.0 408385.0 0
289754.0 410262.0 0
292666.0 408355.0 0
295970.0 410010.0 0
302073.0 409697.0 0
305053.0 410950.0 0
308146.0 411199.0 0
311526.0 411090.0 0
314984.0 411314.0 0
318588.0 410798.0 0
321780.0 411569.0 0
324565.0 410326.0 0
327358.0 411884.0 0
330504.0 410882.0 0
333552.0 410033.0 0
336560.0 412365.0 0
339506.0 411271.0 0
345484.0 411898.0 0
348479.0 410644.0 0
351664.0 412568.0 0
354580.0 411388.0 0
138427.0 415770.0 0
146591.0 414147.0 0
149709.0 415528.0 0
152544.0 413513.0 0
155656.0 414789.0 0
161656.0 414123.0 0
164839.0 415542.0 0
167623.0 413766.0 0
173457.0 412672.0 0
176636.0 413494.0 0
179912.0 414253.0 0
183239.0 415079.0 0
185990.0 412687.0 0
189232.0 413546.0 0
192207.0 414510.0 0
195396.0 414139.0 0
199120.0 413784.0 0
202698.0 412526.0 0
206239.0 411262.0 0
209036.0 413233.0 0
212489.0 411910.0 0
218217.0 413087.0 0
221283.0 412071.0 0
227006.0 413352.0 0
230155.0 411731.0 0
232890.0 413762.0 0
235967.0 411993.0 0
238760.0 414018.0 0
241815.0 412211.0 0
247712.0 412405.0 0
253613.0 412562.0 0
259548.0 412690.0 0
265506.0 412806.0 0
268610.0 411023.0 0
274643.0 411230.0 0
280661.0 411365.0 0
286870.0 412264.0 0
292982.0 411860.0 0
299349.0 411762.0 0
302680.0 413325.0 0
306364.0 414118.0 0
310058.0 414065.0 0
313577.0 414103.0 0
317187.0 413931.0 0
320504.0 414167.0 0
324192.0 413914.0 0
330444.0 413986.0 0
333511.0 413214.0 0
339357.0 414710.0 0
342440.0 413213.0 0
345834.0 415011.0 0
348740.0 413783.0 0
354799.0 414553.0 0
357727.0 413356.0 0
360875.0 415326.0 0
135489.0 417592.0 0
138571.0 418622.0 0
141068.0 414622.0 0
143993.0 416251.0 0
152833.0 416842.0 0
155958.0 418114.0 0
158792.0 416070.0 0
161976.0 417394.0 0
170746.0 415029.0 0
173909.0 415976.0 0
177173.0 416713.0 0
180526.0 417449.0 0
186540.0 415953.0 0
189776.0 416968.0 0
193207.0 417433.0 0
202392.0 415817.0 0
205607.0 414638.0 0
211685.0 415414.0 0
215016.0 414243.0 0
220684.0 415784.0 0
223831.0 414740.0 0
226518.0 417035.0 0
229732.0 415448.0 0
235662.0 415795.0 0
241585.0 416044.0 0
244657.0 414231.0 0
247512.0 416248.0 0
250568.0 414393.0 0
253436.0 416404.0 0
256489.0 414544.0 0
262431.0 414644.0 0
268418.0 414722.0 0
271353.0 416583.0 0
271576.0 412968.0 0
274620.0 414896.0 0
277645.0 413169.0 0
280687.0 414972.0 0
283732.0 413122.0 0
287282.0 416218.0 0
290040.0 413913.0 0
293373.0 415308.0 0
296335.0 413369.0 0
299579.0 415319.0 0
302547.0 416625.0 0
305621.0 417095.0 0
308903.0 416986.0 0
312318.0 417024.0 0
315793.0 416947.0 0
319182.0 417061.0 0
322653.0 416941.0 0
325908.0 417310.0 0
327336.0 414758.0 0
332836.0 416495.0 0
336098.0 415680.0 0
340492.0 417668.0 0
343011.0 416256.0 0
348901.0 417026.0 0
351853.0 415770.0 0
354937.0 417767.0 0
357921.0 416537.0 0
364034.0 417302.0 0
132525.0 419450.0 0
135602.0 420641.0 0
141493.0 418474.0 0
144461.0 419854.0 0
147044.0 417634.0 0
150126.0 418958.0 0
159098.0 419373.0 0
162264.0 420654.0 0
165215.0 418798.0 0
168035.0 417199.0 0
171162.0 418418.0 0
174408.0 419236.0 0
177749.0 419890.0 0
183938.0 418350.0 0
187360.0 419290.0 0
190986.0 420193.0 0
196448.0 417125.0 0
199519.0 417007.0 0
204864.0 418260.0 0
208267.0 416656.0 0
210967.0 418863.0 0
214300.0 417833.0 0
217534.0 416808.0 0
223299.0 418386.0 0
229244.0 419146.0 0
232493.0 417510.0 0
238475.0 417831.0 0
244434.0 418074.0 0
250380.0 418257.0 0
256328.0 418388.0 0
259376.0 416511.0 0
262287.0 418452.0 0
265336.0 416569.0 0
268264.0 418450.0 0
274279.0 418373.0 0
277776.0 416847.0 0
283938.0 416293.0 0
290599.0 417522.0 0
296712.0 416702.0 0
300368.0 419223.0 0
303867.0 419943.0 0
307462.0 420045.0 0
310945.0 420006.0 0
314433.0 419980.0 0
317863.0 420026.0 0
329530.0 417198.0 0
334755.0 419163.0 0
337738.0 418426.0 0
343123.0 419796.0 0
345963.0 418333.0 0
351928.0 419030.0 0
358041.0 419750.0 0
361057.0 418517.0 0
364216.0 420502.0 0
367211.0 419288.0 0
126378.0 423296.0 0
129484.0 421353.0 0
132541.0 422567.0 0
135701.0 423656.0 0
138803.0 421495.0 0
141777.0 422082.0 0
147492.0 421150.0 0
150569.0 422431.0 0
153227.0 420250.0 0
156339.0 421504.0 0
165504.0 421952.0 0
168452.0 420744.0 0
171678.0 421790.0 0
181157.0 420615.0 0
184576.0 421627.0 0
187838.0 422485.0 0
190820.0 423378.0 0
194712.0 420343.0 0
198234.0 420144.0 0
201754.0 419525.0 0
207530.0 419996.0 0
210385.0 422235.0 0
213643.0 421345.0 0
216907.0 420441.0 0
220115.0 419477.0 0
225948.0 420768.0 0
232058.0 421222.0 0
235305.0 419566.0 0
238154.0 421627.0 0
241320.0 419872.0 0
247304.0 420104.0 0
253273.0 420263.0 0
259246.0 420347.0 0
265229.0 420356.0 0
271195.0 420289.0 0
277070.0 420109.0 0
279792.0 421575.0 0
281210.0 418569.0 0
284956.0 419388.0 0
288245.0 420059.0 0
293883.0 418779.0 0
297213.0 419795.0 0
298754.0 422706.0 0
302144.0 422703.0 0
305832.0 422920.0 0
321314.0 419997.0 0
324652.0 420157.0 0
328109.0 420091.0 0
331565.0 419796.0 0
337006.0 421878.0 0
340108.0 421070.0 0
345871.0 421773.0 0
348898.0 420345.0 0
351900.0 422312.0 0
354988.0 421012.0 0
358099.0 422978.0 0
361178.0 421730.0 0
367401.0 422499.0 0
370408.0 421288.0 0
373625.0 423300.0 0
123223.0 425270.0 0
129427.0 424509.0 0
132557.0 425667.0 0
138841.0 424590.0 0
141915.0 425529.0 0
144778.0 423361.0 0
147855.0 424624.0 0
153683.0 423715.0 0
156821.0 424955.0 0
159467.0 422735.0 0
162631.0 423957.0 0
165911.0 424951.0 0
169034.0 424340.0 0
175028.0 422459.0 0
178440.0 423046.0 0
181919.0 423783.0 0
185428.0 425091.0 0
188627.0 426041.0 0
193872.0 423417.0 0
197138.0 423232.0 0
204083.0 422125.0 0
207146.0 423077.0 0
216065.0 424015.0 0
219435.0 423158.0 0
222704.0 422118.0 0
225324.0 424595.0 0
228717.0 422796.0 0
234929.0 423313.0 0
241026.0 423688.0 0
244192.0 421918.0 0
247095.0 423962.0 0
250201.0 422124.0 0
256199.0 422242.0 0
262202.0 422273.0 0
268202.0 422221.0 0
271193.0 424076.0 0
274102.0 422083.0 0
277102.0 423750.0 0
282866.0 422157.0 0
286064.0 422998.0 0
291556.0 421197.0 0
295027.0 422259.0 0
296535.0 425426.0 0
300432.0 425812.0 0
309471.0 422988.0 0
313027.0 422989.0 0
316530.0 423024.0 0
320018.0 423027.0 0
323453.0 423106.0 0
326924.0 423070.0 0
330392.0 422875.0 0
333793.0 422496.0 0
339521.0 424430.0 0
342743.0 423253.0 0
345539.0 425128.0 0
348771.0 423679.0 0
354976.0 424264.0 0
361266.0 424952.0 0
364354.0 423720.0 0
367553.0 425730.0 0
370609.0 424513.0 0
376857.0 425322.0 0
120030.0 427267.0 0
123081.0 428492.0 0
126271.0 426485.0 0
129390.0 427660.0 0
132565.0 428793.0 0
135728.0 426745.0 0
138908.0 427785.0 0
145022.0 426787.0 0
148184.0 428047.0 0
150988.0 425889.0 0
154168.0 427191.0 0
160016.0 426140.0 0
163328.0 427287.0 0
166744.0 427940.0 0
172378.0 425120.0 0
175777.0 425656.0 0
179222.0 426176.0 0
182745.0 426871.0 0
192096.0 426507.0 0
195530.0 426452.0 0
200592.0 422815.0 0
202352.0 425679.0 0
205553.0 425781.0 0
209229.0 425637.0 0
212667.0 424854.0 0
218446.0 426722.0 0
221986.0 425889.0 0
228266.0 426318.0 0
231643.0 424891.0 0
237800.0 425416.0 0
243934.0 425752.0 0
250040.0 425986.0 0
253135.0 424127.0 0
256112.0 426098.0 0
259166.0 424190.0 0
262182.0 426095.0 0
265204.0 424157.0 0
268260.0 426005.0 0
274274.0 425791.0 0
280399.0 425013.0 0
283615.0 425827.0 0
289291.0 423807.0 0
292746.0 424699.0 0
296857.0 428646.0 0
304194.0 425754.0 0
307918.0 425884.0 0
311566.0 425963.0 0
315143.0 426014.0 0
318690.0 426041.0 0
322206.0 426082.0 0
325736.0 426059.0 0
329274.0 425920.0 0
332788.0 425644.0 0
336227.0 425192.0 0
338826.0 427773.0 0
342195.0 426678.0 0
348529.0 426935.0 0
351801.0 425584.0 0
354972.0 427498.0 0
358138.0 426205.0 0
364460.0 426954.0 0
370761.0 427764.0 0
373829.0 426545.0 0
377056.0 428592.0 0
380098.0 427350.0 0
113579.0 431304.0 0
116812.0 429281.0 0
119872.0 430523.0 0
126198.0 429676.0 0
129374.0 430824.0 0
135785.0 429887.0 0
139030.0 431015.0 0
142078.0 428898.0 0
145281.0 430178.0 0
151405.0 429306.0 0
154679.0 430659.0 0
157384.0 428398.0 0
160713.0 429473.0 0
169920.0 427906.0 0
173248.0 428433.0 0
176617.0 428846.0 0
179993.0 429292.0 0
183373.0 429759.0 0
186481.0 428769.0 0
190045.0 429272.0 0
193647.0 429516.0 0
198953.0 426140.0 0
200646.0 429097.0 0
204034.0 428930.0 0
207602.0 428680.0 0
211308.0 428244.0 0
214892.0 427508.0 0
220747.0 429471.0 0
224422.0 428733.0 0
227888.0 429605.0 0
231243.0 428562.0 0
234531.0 427064.0 0
237372.0 429208.0 0
240697.0 427485.0 0
246895.0 427809.0 0
253029.0 427989.0 0
259137.0 428032.0 0
265260.0 427946.0 0
271401.0 427853.0 0
277603.0 427227.0 0
281040.0 428595.0 0
286850.0 426638.0 0
290182.0 427334.0 0
293608.0 427964.0 0
299976.0 428969.0 0
303186.0 428776.0 0
306614.0 428820.0 0
310168.0 428919.0 0
313748.0 428998.0 0
317326.0 429042.0 0
320894.0 429073.0 0
324473.0 429053.0 0
328069.0 428944.0 0
331675.0 428722.0 0
335276.0 428364.0 0
341583.0 430131.0 0
345110.0 428364.0 0
348528.0 430053.0 0
351769.0 428788.0 0
358172.0 429436.0 0
361332.0 428184.0 0
364528.0 430212.0 0
367660.0 428987.0 0
370852.0 431046.0 0
373972.0 429818.0 0
380287.0 430646.0 0
383347.0 429383.0 0
386601.0 431419.0 0
110335.0 433334.0 0
116655.0 432572.0 0
119785.0 433798.0 0
122993.0 431724.0 0
126173.0 432880.0 0
132609.0 431940.0 0
135896.0 433060.0 0
142294.0 432229.0 0
145578.0 433566.0 0
148521.0 431435.0 0
151823.0 432668.0 0
157985.0 431780.0 0
161429.0 432686.0 0
164200.0 430586.0 0
167581.0 431152.0 0
170876.0 431344.0 0
174285.0 431703.0 0
177747.0 432037.0 0
181286.0 432406.0 0
184999.0 432348.0 0
188278.0 432147.0 0
191763.0 432445.0 0
197181.0 429414.0 0
202362.0 432158.0 0
205961.0 431853.0 0
209652.0 431434.0 0
213390.0 430887.0 0
217072.0 430195.0 0
233968.0 430861.0 0
240367.0 431221.0 0
243683.0 429559.0 0
246720.0 431645.0 0
249904.0 429836.0 0
252957.0 431849.0 0
256065.0 429947.0 0
262220.0 429906.0 0
265387.0 431693.0 0
268441.0 429730.0 0
274680.0 429387.0 0
278159.0 430631.0 0
281791.0 432355.0 0
284351.0 429506.0 0
287776.0 430186.0 0
291252.0 430778.0 0
294705.0 431410.0 0
298223.0 431918.0 0
301786.0 431988.0 0
305251.0 431906.0 0
308767.0 431936.0 0
312333.0 432001.0 0
315924.0 432051.0 0
319523.0 432080.0 0
323134.0 432064.0 0
326761.0 431974.0 0
330408.0 431783.0 0
334082.0 431465.0 0
337814.0 430978.0 0
342602.0 433282.0 0
345310.0 431343.0 0
351815.0 432006.0 0
354992.0 430740.0 0
358186.0 432688.0 0
361368.0 431437.0 0
367704.0 432278.0 0
374041.0 433124.0 0
377183.0 431892.0 0
380394.0 433977.0 0
383519.0 432710.0 0
389861.0 433459.0 0
107081.0 435370.0 0
113431.0 434629.0 0
116576.0 435887.0 0
122973.0 434974.0 0
126222.0 436102.0 0
129418.0 434004.0 0
132729.0 435106.0 0
136091.0 436247.0 0
139218.0 434251.0 0
142555.0 435545.0 0
148868.0 434807.0 0
152237.0 435950.0 0
155175.0 434142.0 0
158458.0 435112.0 0
161978.0 435703.0 0
165049.0 434022.0 0
168553.0 434453.0 0
172056.0 434643.0 0
175598.0 434893.0 0
179196.0 435113.0 0
182929.0 435242.0 0
186531.0 435353.0 0
189956.0 435459.0 0
195305.0 432550.0 0
198847.0 432393.0 0
204200.0 435062.0 0
207910.0 434655.0 0
211657.0 434160.0 0
215408.0 433594.0 0
219119.0 432967.0 0
222802.0 432379.0 0
226396.0 432471.0 0
230413.0 432285.0 0
233375.0 434584.0 0
236928.0 432953.0 0
243475.0 433330.0 0
249785.0 433670.0 0
256072.0 433785.0 0
259155.0 431867.0 0
262292.0 433697.0 0
268693.0 433349.0 0
271714.0 431622.0 0
275009.0 432919.0 0
278527.0 433773.0 0
285404.0 433066.0 0
289031.0 433631.0 0
292632.0 434190.0 0
296280.0 434675.0 0
299999.0 434945.0 0
303660.0 435008.0 0
307252.0 435001.0 0
310849.0 435034.0 0
314465.0 435076.0 0
318094.0 435103.0 0
321733.0 435095.0 0
325379.0 435027.0 0
329025.0 434877.0 0
332655.0 434623.0 0
336233.0 434256.0 0
339646.0 433842.0 0
345549.0 434610.0 0
348647.0 433223.0 0
351893.0 435287.0 0
355012.0 434037.0 0
361324.0 434726.0 0
364529.0 433506.0 0
367670.0 435606.0 0
370869.0 434362.0 0
374037.0 436462.0 0
377232.0 435224.0 0
383608.0 436070.0 0
386755.0 434775.0 0
390001.0 436841.0 0
393130.0 435505.0 0
100522.0 439475.0 0
103810.0 437416.0 0
106957.0 438743.0 0
110200.0 436687.0 0
113366.0 437979.0 0
119773.0 437095.0 0
123020.0 438243.0 0
129534.0 437197.0 0
132894.0 438276.0 0
139487.0 437493.0 0
145847.0 436991.0 0
149035.0 438163.0 0
152242.0 438994.0 0
155642.0 437776.0 0
159295.0 438283.0 0
162975.0 438478.0 0
166319.0 437498.0 0
169962.0 437680.0 0
184517.0 438251.0 0
188091.0 438546.0 0
193403.0 435650.0 0
196953.0 435589.0 0
200550.0 435379.0 0
209829.0 437432.0 0
213585.0 436932.0 0
217315.0 436401.0 0
221000.0 435886.0 0
224639.0 435623.0 0
228495.0 435392.0 0
236722.0 436645.0 0
240126.0 434844.0 0
243298.0 437100.0 0
246554.0 435499.0 0
252906.0 435701.0 0
259274.0 435714.0 0
265457.0 435393.0 0
268639.0 436708.0 0
272195.0 435550.0 0
275968.0 436306.0 0
283283.0 436053.0 0
286959.0 436525.0 0
290640.0 437019.0 0
301882.0 437971.0 0
305597.0 438047.0 0
309267.0 438078.0 0
312931.0 438111.0 0
316601.0 438137.0 0
323960.0 438093.0 0
327640.0 437983.0 0
331309.0 437789.0 0
334959.0 437497.0 0
338588.0 437146.0 0
342219.0 436755.0 0
345630.0 437497.0 0
348830.0 436457.0 0
354837.0 437469.0 0
358084.0 435990.0 0
361177.0 438033.0 0
364445.0 436832.0 0
370810.0 437709.0 0
377205.0 438585.0 0
380426.0 437341.0 0
383619.0 439463.0 0
386829.0 438162.0 0
393258.0 438914.0 0
396412.0 437558.0 0
97214.4 441545.0 0
103694.0 440807.0 0
110153.0 440064.0 0
113387.0 441360.0 0
116574.0 439228.0 0
119824.0 440416.0 0
123114.0 441535.0 0
126321.0 439338.0 0
129664.0 440396.0 0
133041.0 441441.0 0
136294.0 439420.0 0
139730.0 440709.0 0
142899.0 438882.0 0
146299.0 440577.0 0
149760.0 441614.0 0
153722.0 441502.0 0
157204.0 441125.0 0
160915.0 441322.0 0
173559.0 437841.0 0
177169.0 437983.0 0
180825.0 438041.0 0
186147.0 441398.0 0
191450.0 438829.0 0
194988.0 438777.0 0
198626.0 438576.0 0
202328.0 438271.0 0
206070.0 437883.0 0
215426.0 439784.0 0
219120.0 439330.0 0
222765.0 438973.0 0
226435.0 438677.0 0
230074.0 438464.0 0
233560.0 438221.0 0
239926.0 438349.0 0
246320.0 439436.0 0
249657.0 437470.0 0
252909.0 439552.0 0
256131.0 437563.0 0
262545.0 437541.0 0
265951.0 439238.0 0
270466.0 439282.0 0
273973.0 439138.0 0
277747.0 439508.0 0
279809.0 436632.0 0
285118.0 439552.0 0
294355.0 437458.0 0
298118.0 437783.0 0
320279.0 438138.0 0
333582.0 440723.0 0
337227.0 440406.0 0
340856.0 440040.0 0
344398.0 440086.0 0
348256.0 439739.0 0
351640.0 438734.0 0
357836.0 439283.0 0
364287.0 440180.0 0
367559.0 438967.0 0
370655.0 441091.0 0
373945.0 439828.0 0
380370.0 440735.0 0
386816.0 441585.0 0
390057.0 440253.0 0
396528.0 440996.0 0
399706.0 439620.0 0
403012.0 441689.0 0
93890.5 443626.0 0
100412.0 442892.0 0
103678.0 444207.0 0
106927.0 442130.0 0
110204.0 443473.0 0
116652.0 442606.0 0
119944.0 443778.0 0
126435.0 442595.0 0
129780.0 443607.0 0
136473.0 442566.0 0
143196.0 442133.0 0
147068.0 444168.0 0
151511.0 444365.0 0
164697.0 441120.0 0
168123.0 440778.0 0
171692.0 440886.0 0
175280.0 440983.0 0
178879.0 441016.0 0
182479.0 441017.0 0
192917.0 442012.0 0
196610.0 441781.0 0
200367.0 441471.0 0
204148.0 441108.0 0
207927.0 440696.0 0
211690.0 440249.0 0
220892.0 442360.0 0
224562.0 442047.0 0
228226.0 441807.0 0
231896.0 441609.0 0
235584.0 441241.0 0
239116.0 441535.0 0
242837.0 440896.0 0
249654.0 441118.0 0
256185.0 441228.0 0
259450.0 439545.0 0
262844.0 441309.0 0
268248.0 442121.0 0
272129.0 442405.0 0
281572.0 439566.0 0
288772.0 439928.0 0
292491.0 440311.0 0
296262.0 440632.0 0
300056.0 440869.0 0
303838.0 441018.0 0
307591.0 441099.0 0
311318.0 441142.0 0
315037.0 441173.0 0
318757.0 441184.0 0
322478.0 441161.0 0
326196.0 441088.0 0
329901.0 440947.0 0
339557.0 443300.0 0
343316.0 442977.0 0
347154.0 442637.0 0
350990.0 442084.0 0
354449.0 441004.0 0
357568.0 442441.0 0
360974.0 441315.0 0
367348.0 442373.0 0
373741.0 443221.0 0
377079.0 441972.0 0
380220.0 444153.0 0
383537.0 442890.0 0
386714.0 445037.0 0
390029.0 443694.0 0
393301.0 442352.0 0
396561.0 444461.0 0
399812.0 443088.0 0
406331.0 443767.0 0
90555.1 445715.0 0
93800.4 447133.0 0
97112.0 445000.0 0
100405.0 446316.0 0
107006.0 445532.0 0
113502.0 444783.0 0
116813.0 446033.0 0
123263.0 444870.0 0
126602.0 445893.0 0
133156.0 444597.0 0
136522.0 445669.0 0
139927.0 443914.0 0
143391.0 445226.0 0
145951.0 447641.0 0
155319.0 444389.0 0
158945.0 444275.0 0
162698.0 444240.0 0
166366.0 444129.0 0
169918.0 444007.0 0
173527.0 444060.0 0
177147.0 444089.0 0
180736.0 444056.0 0
184285.0 443973.0 0
189369.0 442089.0 0
194545.0 444995.0 0
198370.0 444671.0 0
202186.0 444323.0 0
205984.0 443949.0 0
209756.0 443548.0 0
213502.0 443133.0 0
217214.0 442724.0 0
230042.0 444942.0 0
233736.0 444704.0 0
237347.0 444648.0 0
241151.0 444432.0 0
244824.0 444083.0 0
248425.0 444336.0 0
252248.0 443988.0 0
255943.0 444645.0 0
259491.0 443393.0 0
262921.0 444910.0 0
275829.0 442487.0 0
279619.0 442662.0 0
283347.0 442796.0 0
286988.0 442951.0 0
290692.0 443249.0 0
294450.0 443537.0 0
298242.0 443777.0 0
302049.0 443959.0 0
305849.0 444082.0 0
309633.0 444158.0 0
313402.0 444204.0 0
317166.0 444228.0 0
320929.0 444225.0 0
324689.0 444184.0 0
328441.0 444093.0 0
332174.0 443933.0 0
335878.0 443682.0 0
346023.0 445569.0 0
349923.0 445148.0 0
353789.0 444542.0 0
357289.0 445378.0 0
360719.0 444580.0 0
364043.0 443561.0 0
370359.0 444508.0 0
373418.0 446614.0 0
376852.0 445375.0 0
379987.0 447586.0 0
383370.0 446346.0 0
389911.0 447157.0 0
393261.0 445811.0 0
399834.0 446584.0 0
403107.0 445191.0 0
406411.0 447303.0 0
409659.0 445850.0 0
83910.6 449882.0 0
87221.7 447805.0 0
90490.6 449285.0 0
97115.4 448467.0 0
103765.0 447607.0 0
107183.0 448939.0 0
110364.0 446925.0 0
113719.0 448263.0 0
120143.0 447191.0 0
123486.0 448253.0 0
126832.0 449219.0 0
129967.0 446848.0 0
133342.0 447795.0 0
136751.0 448878.0 0
139738.0 447140.0 0
142536.0 448387.0 0
149426.0 447195.0 0
153228.0 447365.0 0
156990.0 447402.0 0
160711.0 447319.0 0
164442.0 447279.0 0
168133.0 447217.0 0
171791.0 447168.0 0
175487.0 447172.0 0
179211.0 447132.0 0
182980.0 446952.0 0
187032.0 445857.0 0
190733.0 445298.0 0
196427.0 447881.0 0
200244.0 447543.0 0
204039.0 447199.0 0
207808.0 446838.0 0
211556.0 446460.0 0
215283.0 446084.0 0
218988.0 445732.0 0
222678.0 445418.0 0
226359.0 445157.0 0
266528.0 445170.0 0
270248.0 445419.0 0
274015.0 445632.0 0
277747.0 445750.0 0
281493.0 445912.0 0
285216.0 446080.0 0
288919.0 446272.0 0
292667.0 446510.0 0
296452.0 446729.0 0
300261.0 446913.0 0
304080.0 447056.0 0
307898.0 447159.0 0
311707.0 447228.0 0
315510.0 447268.0 0
319309.0 447283.0 0
323108.0 447269.0 0
326902.0 447218.0 0
330687.0 447117.0 0
334458.0 446937.0 0
338226.0 446618.0 0
342129.0 445920.0 0
348671.0 448202.0 0
352485.0 447826.0 0
356111.0 448071.0 0
359999.0 447834.0 0
363534.0 447010.0 0
366950.0 445848.0 0
369912.0 447932.0 0
376539.0 448771.0 0
383127.0 449833.0 0
386528.0 448519.0 0
393133.0 449284.0 0
396511.0 447947.0 0
403118.0 448722.0 0
409724.0 449425.0 0
412995.0 447938.0 0
416338.0 450032.0 0
80636.4 451937.0 0
87210.8 451458.0 0
93828.9 450661.0 0
97222.3 451948.0 0
100492.0 449741.0 0
103937.0 450998.0 0
107449.0 452322.0 0
110630.0 450430.0 0
117087.0 449522.0 0
120475.0 450665.0 0
123883.0 451691.0 0
130162.0 450120.0 0
133441.0 450988.0 0
136683.0 451829.0 0
140062.0 450888.0 0
147638.0 450617.0 0
151226.0 450394.0 0
154959.0 450443.0 0
158728.0 450437.0 0
162480.0 450387.0 0
166234.0 450350.0 0
169978.0 450308.0 0
173729.0 450262.0 0
177522.0 450201.0 0
181372.0 450030.0 0
185290.0 449460.0 0
188918.0 448793.0 0
192621.0 448248.0 0
202114.0 450465.0 0
205867.0 450136.0 0
209602.0 449785.0 0
213331.0 449427.0 0
217053.0 449085.0 0
220764.0 448775.0 0
224464.0 448510.0 0
228160.0 448286.0 0
231855.0 448082.0 0
235525.0 447951.0 0
239245.0 447779.0 0
242949.0 447595.0 0
246558.0 447550.0 0
250294.0 447489.0 0
253877.0 447621.0 0
257637.0 447810.0 0
261157.0 448038.0 0
264788.0 448330.0 0
268464.0 448538.0 0
272184.0 448730.0 0
275932.0 448895.0 0
279667.0 449031.0 0
283407.0 449190.0 0
287148.0 449363.0 0
290897.0 449544.0 0
294678.0 449732.0 0
298484.0 449903.0 0
302308.0 450048.0 0
306140.0 450164.0 0
309973.0 450250.0 0
313802.0 450308.0 0
317629.0 450340.0 0
321455.0 450348.0 0
325280.0 450329.0 0
329098.0 450278.0 0
332900.0 450174.0 0
336686.0 449966.0 0
341046.0 448864.0 0
344847.0 448535.0 0
354843.0 450958.0 0
358719.0 450753.0 0
362721.0 450413.0 0
366353.0 449371.0 0
369407.0 451309.0 0
373013.0 449979.0 0
379689.0 451033.0 0
382789.0 453363.0 0
386255.0 452039.0 0
389708.0 450638.0 0
396386.0 451445.0 0
399776.0 450101.0 0
403059.0 452277.0 0
406411.0 450872.0 0
413045.0 451553.0 0
419688.0 452130.0 0
74113.3 456022.0 0
83972.1 453628.0 0
90570.4 452893.0 0
93985.2 454219.0 0
100663.0 453169.0 0
104154.0 454361.0 0
114055.0 451799.0 0
117525.0 453070.0 0
121010.0 454187.0 0
127309.0 452620.0 0
130762.0 453502.0 0
134303.0 454281.0 0
138227.0 454359.0 0
144014.0 451052.0 0
149255.0 453672.0 0
152931.0 453537.0 0
156693.0 453529.0 0
160482.0 453504.0 0
164271.0 453464.0 0
168067.0 453425.0 0
183477.0 452839.0 0
187261.0 452479.0 0
190829.0 451674.0 0
194546.0 451144.0 0
198332.0 450782.0 0
211368.0 452776.0 0
215096.0 452427.0 0
218823.0 452119.0 0
222541.0 451854.0 0
226249.0 451630.0 0
229951.0 451438.0 0
233642.0 451287.0 0
237344.0 451140.0 0
241035.0 450999.0 0
244693.0 450923.0 0
248360.0 450863.0 0
251998.0 450928.0 0
255653.0 451038.0 0
259305.0 451273.0 0
262956.0 451487.0 0
266652.0 451700.0 0
270370.0 451875.0 0
274108.0 452032.0 0
277858.0 452178.0 0
281606.0 452318.0 0
285361.0 452470.0 0
289128.0 452627.0 0
292910.0 452783.0 0
296715.0 452935.0 0
300538.0 453071.0 0
319750.0 453428.0 0
323591.0 453433.0 0
327426.0 453420.0 0
331246.0 453390.0 0
335027.0 453307.0 0
339850.0 451703.0 0
343636.0 451556.0 0
347393.0 451290.0 0
351148.0 451007.0 0
357308.0 453779.0 0
361170.0 453409.0 0
365598.0 452905.0 0
369383.0 454602.0 0
372728.0 453300.0 0
376217.0 452143.0 0
379289.0 454518.0 0
385913.0 455594.0 0
389457.0 454117.0 0
392947.0 452761.0 0
396254.0 454945.0 0
399672.0 453636.0 0
406342.0 454472.0 0
409710.0 453032.0 0
413010.0 455203.0 0
416368.0 453689.0 0
423040.0 454229.0 0
70813.2 458084.0 0
77381.7 453986.0 0
80752.5 455763.0 0
87362.5 455163.0 0
90809.3 456548.0 0
97441.7 455452.0 0
100930.0 456611.0 0
107699.0 455615.0 0
110993.0 454011.0 0
114549.0 455353.0 0
118167.0 456666.0 0
124533.0 455157.0 0
128125.0 456019.0 0
131834.0 456793.0 0
135749.0 457154.0 0
141809.0 453954.0 0
145593.0 453911.0 0
150878.0 456748.0 0
154634.0 456653.0 0
158435.0 456619.0 0
171874.0 453374.0 0
175704.0 453296.0 0
179575.0 453152.0 0
192689.0 454510.0 0
196428.0 454050.0 0
200196.0 453736.0 0
203946.0 453458.0 0
207657.0 453132.0 0
220592.0 455187.0 0
224313.0 454968.0 0
228023.0 454783.0 0
231725.0 454632.0 0
235424.0 454499.0 0
239116.0 454381.0 0
242789.0 454298.0 0
246458.0 454247.0 0
250109.0 454262.0 0
253767.0 454341.0 0
257422.0 454493.0 0
261106.0 454689.0 0
264810.0 454872.0 0
268539.0 455044.0 0
272283.0 455194.0 0
276039.0 455333.0 0
279802.0 455467.0 0
304374.0 453189.0 0
308216.0 453284.0 0
312061.0 453355.0 0
315906.0 453403.0 0
333321.0 456603.0 0
338461.0 454477.0 0
342259.0 454547.0 0
346036.0 454395.0 0
349787.0 454169.0 0
353512.0 454012.0 0
363413.0 456134.0 0
366798.0 456290.0 0
372209.0 456775.0 0
375740.0 455527.0 0
378536.0 458011.0 0
382261.0 456934.0 0
389359.0 457543.0 0
392807.0 456221.0 0
399525.0 457205.0 0
402943.0 455864.0 0
409615.0 456674.0 0
416307.0 457388.0 0
419692.0 455834.0 0
423016.0 457982.0 0
426397.0 456332.0 0
67482.4 460168.0 0
70924.6 461939.0 0
74270.6 459857.0 0
77548.2 457893.0 0
84168.3 457433.0 0
87668.4 458905.0 0
94300.2 457819.0 0
97818.4 458992.0 0
104454.0 457718.0 0
108047.0 458794.0 0
111556.0 457659.0 0
115225.0 458885.0 0
121775.0 457725.0 0
125466.0 458582.0 0
129261.0 459300.0 0
133216.0 459875.0 0
139619.0 457195.0 0
143351.0 456992.0 0
147136.0 456902.0 0
152526.0 459828.0 0
162255.0 456582.0 0
166084.0 456539.0 0
169926.0 456489.0 0
173787.0 456415.0 0
177671.0 456298.0 0
181568.0 456105.0 0
185419.0 455875.0 0
189202.0 455644.0 0
194476.0 457348.0 0
198244.0 457001.0 0
202008.0 456757.0 0
205743.0 456526.0 0
209411.0 456164.0 0
213127.0 455776.0 0
216861.0 455452.0 0
233485.0 457855.0 0
237181.0 457751.0 0
240867.0 457672.0 0
244546.0 457622.0 0
248215.0 457617.0 0
251883.0 457663.0 0
255556.0 457767.0 0
259245.0 457912.0 0
283570.0 455601.0 0
287348.0 455738.0 0
291139.0 455874.0 0
294945.0 456007.0 0
298768.0 456131.0 0
302604.0 456243.0 0
306450.0 456339.0 0
310302.0 456417.0 0
314157.0 456476.0 0
318010.0 456517.0 0
321860.0 456541.0 0
325701.0 456555.0 0
329528.0 456569.0 0
336914.0 457273.0 0
340721.0 457491.0 0
344548.0 457466.0 0
348345.0 457315.0 0
352111.0 457140.0 0
355892.0 456914.0 0
359679.0 456604.0 0
369489.0 458805.0 0
374835.0 458876.0 0
379606.0 461279.0 0
382892.0 460423.0 0
386047.0 459117.0 0
392638.0 459718.0 0
396090.0 458477.0 0
402759.0 459499.0 0
406191.0 458112.0 0
409427.0 460351.0 0
412886.0 458890.0 0
419604.0 459582.0 0
426346.0 460133.0 0
429757.0 458437.0 0
433125.0 460547.0 0
60765.5 464373.0 0
64131.6 462266.0 0
67609.0 464072.0 0
74418.6 463631.0 0
80993.0 459680.0 0
84547.3 461272.0 0
91219.6 460234.0 0
94798.0 461452.0 0
101366.0 460078.0 0
104958.0 461075.0 0
108638.0 461912.0 0
112276.0 461312.0 0
119038.0 460322.0 0
122814.0 461217.0 0
126652.0 461919.0 0
137167.0 460113.0 0
141065.0 460136.0 0
144890.0 460025.0 0
148719.0 459937.0 0
156343.0 459753.0 0
160184.0 459707.0 0
164040.0 459662.0 0
167908.0 459611.0 0
171791.0 459546.0 0
175688.0 459454.0 0
179590.0 459324.0 0
183473.0 459172.0 0
187321.0 459017.0 0
191129.0 458896.0 0
196194.0 460234.0 0
200002.0 460014.0 0
203785.0 459846.0 0
207538.0 459668.0 0
211171.0 459162.0 0
214888.0 458786.0 0
218621.0 458510.0 0
222350.0 458294.0 0
226070.0 458120.0 0
229781.0 457976.0 0
262960.0 458075.0 0
266694.0 458230.0 0
270447.0 458374.0 0
274212.0 458506.0 0
277985.0 458631.0 0
281767.0 458754.0 0
285556.0 458875.0 0
289356.0 458996.0 0
293168.0 459114.0 0
296993.0 459225.0 0
300831.0 459329.0 0
304678.0 459422.0 0
308533.0 459502.0 0
312392.0 459567.0 0
316252.0 459619.0 0
320107.0 459659.0 0
323952.0 459693.0 0
327779.0 459733.0 0
331570.0 459808.0 0
335259.0 460158.0 0
339084.0 460423.0 0
342953.0 460493.0 0
346808.0 460426.0 0
350635.0 460283.0 0
354452.0 460081.0 0
358264.0 459822.0 0
362049.0 459500.0 0
365718.0 459382.0 0
376116.0 461808.0 0
382152.0 464018.0 0
385718.0 462911.0 0
389178.0 461061.0 0
392439.0 463229.0 0
395880.0 462045.0 0
399322.0 460815.0 0
405950.0 461804.0 0
412671.0 462601.0 0
416159.0 461124.0 0
422906.0 461776.0 0
429687.0 462283.0 0
436495.0 462657.0 0
57386.6 466488.0 0
64267.8 466198.0 0
71135.7 465835.0 0
77943.7 462061.0 0
81518.2 463713.0 0
88177.3 462667.0 0
91832.2 463947.0 0
98400.3 462561.0 0
102040.0 463558.0 0
105737.0 464411.0 0
115954.0 462321.0 0
120282.0 463972.0 0
124124.0 464663.0 0
130567.0 462449.0 0
134704.0 462968.0 0
138660.0 463124.0 0
142584.0 463134.0 0
146467.0 463064.0 0
150341.0 462989.0 0
154202.0 462908.0 0
158068.0 462843.0 0
161947.0 462793.0 0
165836.0 462743.0 0
169735.0 462686.0 0
173643.0 462613.0 0
177554.0 462522.0 0
181457.0 462418.0 0
185341.0 462313.0 0
189203.0 462228.0 0
193047.0 462196.0 0
197868.0 463192.0 0
201717.0 463091.0 0
205528.0 462999.0 0
209298.0 462921.0 0
212893.0 462139.0 0
216621.0 461825.0 0
220357.0 461607.0 0
224087.0 461443.0 0
227808.0 461313.0 0
231521.0 461204.0 0
235226.0 461113.0 0
238924.0 461041.0 0
242617.0 460992.0 0
246304.0 460976.0 0
249989.0 460999.0 0
253678.0 461067.0 0
257379.0 461174.0 0
261099.0 461304.0 0
264841.0 461440.0 0
268600.0 461572.0 0
272373.0 461696.0 0
276157.0 461813.0 0
279949.0 461926.0 0
283749.0 462036.0 0
287559.0 462144.0 0
291378.0 462249.0 0
295208.0 462350.0 0
299048.0 462445.0 0
302898.0 462532.0 0
306755.0 462611.0 0
310617.0 462679.0 0
314482.0 462738.0 0
318343.0 462788.0 0
322197.0 462836.0 0
326034.0 462892.0 0
329845.0 462978.0 0
345200.0 463505.0 0
349078.0 463412.0 0
352941.0 463248.0 0
356795.0 463028.0 0
360636.0 462765.0 0
364448.0 462549.0 0
368337.0 462142.0 0
372214.0 461558.0 0
384774.0 466704.0 0
388976.0 464439.0 0
395514.0 465665.0 0
399008.0 464477.0 0
402482.0 463196.0 0
409142.0 464059.0 0
415928.0 464888.0 0
419437.0 463368.0 0
422717.0 465611.0 0
426217.0 463968.0 0
433030.0 464445.0 0
439866.0 464768.0 0
60904.8 468334.0 0
67810.2 468000.0 0
71632.5 469738.0 0
74787.7 467369.0 0
78553.7 466274.0 0
85189.0 465139.0 0
88899.0 466450.0 0
95500.6 465105.0 0
99202.3 466133.0 0
102958.0 467017.0 0
109490.0 465023.0 0
113175.0 464933.0 0
116960.0 465601.0 0
121718.0 467564.0 0
128031.0 465193.0 0
131988.0 465567.0 0
136253.0 466083.0 0
140220.0 466167.0 0
144170.0 466163.0 0
148095.0 466111.0 0
152007.0 466050.0 0
155910.0 465986.0 0
159813.0 465932.0 0
163721.0 465884.0 0
167633.0 465834.0 0
171551.0 465777.0 0
175470.0 465710.0 0
179386.0 465637.0 0
183292.0 465565.0 0
187186.0 465507.0 0
191070.0 465485.0 0
194950.0 465522.0 0
211037.0 466262.0 0
214559.0 465128.0 0
218313.0 464900.0 0
222061.0 464747.0 0
225798.0 464634.0 0
229524.0 464543.0 0
233243.0 464466.0 0
236956.0 464403.0 0
240665.0 464358.0 0
244370.0 464336.0 0
248075.0 464344.0 0
251782.0 464387.0 0
255498.0 464463.0 0
259229.0 464563.0 0
262977.0 464676.0 0
266743.0 464792.0 0
270523.0 464904.0 0
274315.0 465012.0 0
278117.0 465116.0 0
281927.0 465217.0 0
285746.0 465315.0 0
289573.0 465410.0 0
293410.0 465501.0 0
297255.0 465588.0 0
301108.0 465670.0 0
304968.0 465744.0 0
308834.0 465812.0 0
312703.0 465874.0 0
316571.0 465930.0 0
320435.0 465986.0 0
324288.0 466050.0 0
328125.0 466136.0 0
333608.0 463185.0 0
337428.0 463392.0 0
341308.0 463507.0 0
351366.0 466406.0 0
355257.0 466224.0 0
359137.0 465997.0 0
363004.0 465758.0 0
366895.0 465428.0 0
370762.0 465019.0 0
374514.0 464833.0 0
378419.0 464667.0 0
388346.0 467636.0 0
391998.0 466760.0 0
398494.0 468173.0 0
402078.0 466952.0 0
405602.0 465565.0 0
408772.0 467776.0 0
412368.0 466322.0 0
419194.0 467188.0 0
425998.0 467843.0 0
429535.0 466167.0 0
432858.0 468391.0 0
436374.0 466603.0 0
443245.0 466883.0 0
64453.5 470154.0 0
68317.6 471926.0 0
75471.3 471118.0 0
82247.4 467697.0 0
85987.7 469003.0 0
92634.8 467684.0 0
96390.2 468761.0 0
100202.0 469680.0 0
106773.0 467724.0 0
110633.0 468166.0 0
114368.0 468389.0 0
118197.0 468794.0 0
125587.0 468066.0 0
129517.0 468441.0 0
133480.0 468688.0 0
137878.0 469203.0 0
141855.0 469229.0 0
157645.0 469075.0 0
161571.0 469032.0 0
165497.0 468990.0 0
199522.0 466236.0 0
203405.0 466236.0 0
207241.0 466232.0 0
219972.0 468017.0 0
223737.0 467930.0 0
227485.0 467864.0 0
231223.0 467806.0 0
234955.0 467757.0 0
238684.0 467717.0 0
242410.0 467694.0 0
246136.0 467693.0 0
249863.0 467718.0 0
253598.0 467770.0 0
257342.0 467846.0 0
261101.0 467936.0 0
264875.0 468034.0 0
268662.0 468134.0 0
272462.0 468231.0 0
276273.0 468325.0 0
280092.0 468417.0 0
331939.0 466280.0 0
335774.0 466435.0 0
339651.0 466544.0 0
343556.0 466577.0 0
347465.0 466528.0 0
357578.0 469218.0 0
361482.0 468989.0 0
365393.0 468703.0 0
369287.0 468376.0 0
373132.0 468117.0 0
377006.0 467855.0 0
380955.0 467462.0 0
387296.0 470752.0 0
391146.0 470214.0 0
394857.0 469307.0 0
405155.0 469409.0 0
408458.0 471425.0 0
412055.0 470045.0 0
415651.0 468684.0 0
422450.0 469491.0 0
429291.0 470072.0 0
439731.0 468737.0 0
72411.2 473629.0 0
79333.9 470338.0 0
83086.3 471608.0 0
89749.6 470232.0 0
93584.8 471440.0 0
104066.0 470443.0 0
107995.0 471007.0 0
111876.0 471430.0 0
115699.0 471725.0 0
123244.0 471093.0 0
127137.0 471433.0 0
131083.0 471674.0 0
135062.0 471804.0 0
145824.0 469212.0 0
149775.0 469171.0 0
153715.0 469123.0 0
169424.0 468945.0 0
173351.0 468896.0 0
177275.0 468845.0 0
181194.0 468795.0 0
185106.0 468756.0 0
189014.0 468742.0 0
192919.0 468771.0 0
196832.0 468860.0 0
201177.0 469366.0 0
205087.0 469453.0 0
208950.0 469535.0 0
212781.0 469652.0 0
216185.0 468149.0 0
283919.0 468506.0 0
287755.0 468592.0 0
291598.0 468676.0 0
295449.0 468756.0 0
299307.0 468831.0 0
303171.0 468902.0 0
307041.0 468968.0 0
310915.0 469029.0 0
314790.0 469087.0 0
318663.0 469146.0 0
322532.0 469212.0 0
326393.0 469293.0 0
330244.0 469406.0 0
334104.0 469529.0 0
337988.0 469625.0 0
341895.0 469668.0 0
345819.0 469647.0 0
349745.0 469560.0 0
353666.0 469413.0 0
363838.0 471976.0 0
367758.0 471689.0 0
371656.0 471417.0 0
375564.0 471133.0 0
379510.0 470782.0 0
383477.0 470347.0 0
389936.0 473557.0 0
393876.0 472904.0 0
397726.0 471843.0 0
401469.0 470716.0 0
411652.0 473809.0 0
415303.0 472528.0 0
418884.0 471058.0 0
422098.0 473419.0 0
425711.0 471762.0 0
76271.9 474932.0 0
80201.9 474287.0 0
86842.2 472869.0 0
90640.3 473974.0 0
97444.6 472391.0 0
101346.0 473203.0 0
105381.0 473807.0 0
109325.0 474348.0 0
119563.0 471962.0 0
124836.0 474559.0 0
128757.0 474760.0 0
132740.0 474876.0 0
139568.0 472319.0 0
143550.0 472306.0 0
147528.0 472282.0 0
151495.0 472250.0 0
155450.0 472216.0 0
159395.0 472183.0 0
163334.0 472151.0 0
167270.0 472119.0 0
171203.0 472085.0 0
175133.0 472049.0 0
179060.0 472016.0 0
182983.0 471990.0 0
186903.0 471983.0 0
190822.0 472006.0 0
194747.0 472076.0 0
198685.0 472208.0 0
202850.0 472579.0 0
206781.0 472736.0 0
210674.0 472889.0 0
214540.0 473076.0 0
217787.0 471218.0 0
221605.0 471181.0 0
225390.0 471154.0 0
229156.0 471127.0 0
232913.0 471097.0 0
236666.0 471067.0 0
240417.0 471047.0 0
244167.0 471041.0 0
247918.0 471055.0 0
251673.0 471091.0 0
255435.0 471146.0 0
259207.0 471217.0 0
262992.0 471298.0 0
266789.0 471383.0 0
270598.0 471469.0 0
274416.0 471554.0 0
278244.0 471637.0 0
282079.0 471717.0 0
285923.0 471796.0 0
289773.0 471872.0 0
293630.0 471945.0 0
297494.0 472015.0 0
301363.0 472081.0 0
305238.0 472144.0 0
309116.0 472204.0 0
312997.0 472261.0 0
316879.0 472319.0 0
320761.0 472382.0 0
324641.0 472456.0 0
328520.0 472549.0 0
332408.0 472653.0 0
336306.0 472741.0 0
340221.0 472789.0 0
344151.0 472783.0 0
348092.0 472720.0 0
352036.0 472601.0 0
355975.0 472435.0 0
359908.0 472229.0 0
370115.0 474723.0 0
374039.0 474444.0 0
377972.0 474125.0 0
385698.0 473738.0 0
392500.0 476392.0 0
396776.0 475425.0 0
400630.0 474474.0 0
404413.0 473302.0 0
407951.0 474978.0 0
414761.0 476398.0 0
418456.0 474982.0 0
425365.0 475700.0 0
429022.0 474012.0 0
78776.9 478006.0 0
83970.8 475593.0 0
87792.9 476725.0 0
94725.9 475189.0 0
98631.1 476003.0 0
102794.0 476635.0 0
106753.0 477205.0 0
113239.0 474744.0 0
117137.0 475007.0 0
121037.0 475136.0 0
126492.0 477965.0 0
136732.0 474924.0 0
141302.0 475432.0 0
145284.0 475399.0 0
149266.0 475376.0 0
153238.0 475355.0 0
157199.0 475335.0 0
161152.0 475316.0 0
165096.0 475297.0 0
169035.0 475277.0 0
172970.0 475256.0 0
176901.0 475236.0 0
180829.0 475220.0 0
184755.0 475218.0 0
188682.0 475239.0 0
192612.0 475294.0 0
196551.0 475398.0 0
200505.0 475565.0 0
204551.0 475863.0 0
208501.0 476071.0 0
212419.0 476285.0 0
216315.0 476530.0 0
219377.0 474347.0 0
223223.0 474394.0 0
227031.0 474417.0 0
230822.0 474417.0 0
234607.0 474404.0 0
238389.0 474391.0 0
242167.0 474386.0 0
245944.0 474394.0 0
249722.0 474418.0 0
253504.0 474459.0 0
257293.0 474514.0 0
261091.0 474579.0 0
264900.0 474651.0 0
268718.0 474725.0 0
272546.0 474800.0 0
276382.0 474875.0 0
280226.0 474948.0 0
284077.0 475019.0 0
287935.0 475088.0 0
291799.0 475156.0 0
295668.0 475220.0 0
299543.0 475282.0 0
303423.0 475341.0 0
307306.0 475398.0 0
311193.0 475453.0 0
315083.0 475508.0 0
318974.0 475566.0 0
322867.0 475631.0 0
326765.0 475708.0 0
330674.0 475793.0 0
334599.0 475882.0 0
338526.0 475938.0 0
342464.0 475944.0 0
346415.0 475895.0 0
350374.0 475796.0 0
354334.0 475653.0 0
358291.0 475471.0 0
362243.0 475249.0 0
366187.0 474991.0 0
381884.0 473787.0 0
399485.0 478175.0 0
403370.0 477302.0 0
407161.0 478450.0 0
410991.0 477573.0 0
91667.2 477655.0 0
96000.5 478920.0 0
100196.0 479493.0 0
110759.0 477727.0 0
114722.0 478062.0 0
118663.0 478280.0 0
122574.0 478338.0 0
130486.0 478013.0 0
134486.0 478061.0 0
138480.0 478063.0 0
143060.0 478547.0 0
147041.0 478512.0 0
151021.0 478497.0 0
154993.0 478489.0 0
158956.0 478485.0 0
162909.0 478480.0 0
166853.0 478475.0 0
170791.0 478468.0 0
174725.0 478460.0 0
178655.0 478454.0 0
182584.0 478456.0 0
186512.0 478475.0 0
190443.0 478520.0 0
194381.0 478602.0 0
198330.0 478734.0 0
202295.0 478933.0 0
220966.0 477545.0 0
224837.0 477656.0 0
228674.0 477708.0 0
232501.0 477721.0 0
236320.0 477722.0 0
240132.0 477723.0 0
243939.0 477731.0 0
247743.0 477749.0 0
251548.0 477780.0 0
255356.0 477823.0 0
259171.0 477875.0 0
262993.0 477935.0 0
266823.0 477999.0 0
270661.0 478064.0 0
274506.0 478130.0 0
278359.0 478196.0 0
282218.0 478261.0 0
286083.0 478324.0 0
289954.0 478385.0 0
293830.0 478445.0 0
297710.0 478503.0 0
301595.0 478559.0 0
305484.0 478612.0 0
309377.0 478664.0 0
313272.0 478716.0 0
317171.0 478768.0 0
321073.0 478824.0 0
344717.0 479092.0 0
348687.0 479004.0 0
352663.0 478878.0 0
356639.0 478717.0 0
360612.0 478521.0 0
364576.0 478291.0 0
368530.0 478037.0 0
372476.0 477771.0 0
376417.0 477481.0 0
380339.0 477181.0 0
384221.0 476983.0 0
388168.0 476702.0 0
395411.0 478892.0 0
401904.0 481233.0 0
405784.0 481763.0 0
413920.0 480272.0 0
88925.9 480537.0 0
92830.1 481297.0 0
97709.0 482489.0 0
104207.0 480113.0 0
108183.0 480616.0 0
112320.0 481105.0 0
116296.0 481401.0 0
120257.0 481581.0 0
128358.0 481251.0 0
132313.0 481252.0 0
136300.0 481252.0 0
140287.0 481233.0 0
144827.0 481674.0 0
148807.0 481650.0 0
152784.0 481648.0 0
156754.0 481656.0 0
160713.0 481668.0 0
164662.0 481678.0 0
168603.0 481686.0 0
206284.0 479202.0 0
210245.0 479453.0 0
214180.0 479721.0 0
218097.0 480012.0 0
222565.0 480815.0 0
226464.0 480955.0 0
230346.0 481009.0 0
234212.0 481031.0 0
238064.0 481046.0 0
241905.0 481060.0 0
245738.0 481079.0 0
249568.0 481106.0 0
253397.0 481140.0 0
257229.0 481183.0 0
261066.0 481233.0 0
264909.0 481287.0 0
324981.0 478886.0 0
328902.0 478952.0 0
332842.0 479023.0 0
336807.0 479108.0 0
340757.0 479131.0 0
354958.0 481969.0 0
358949.0 481792.0 0
362936.0 481590.0 0
366910.0 481358.0 0
370874.0 481106.0 0
374828.0 480838.0 0
378770.0 480563.0 0
382697.0 480317.0 0
386647.0 480037.0 0
390628.0 479660.0 0
397969.0 481750.0 0
409924.0 481306.0 0
101665.0 483055.0 0
105693.0 483592.0 0
109742.0 484016.0 0
113910.0 484506.0 0
124471.0 481369.0 0
130178.0 484524.0 0
134158.0 484479.0 0
138146.0 484460.0 0
142129.0 484439.0 0
172538.0 481690.0 0
176469.0 481694.0 0
180398.0 481702.0 0
184326.0 481720.0 0
188255.0 481757.0 0
192189.0 481822.0 0
196131.0 481926.0 0
200087.0 482084.0 0
204060.0 482313.0 0
208038.0 482588.0 0
212002.0 482882.0 0
215946.0 483199.0 0
268759.0 481344.0 0
272614.0 481402.0 0
276476.0 481461.0 0
280344.0 481519.0 0
284217.0 481577.0 0
288094.0 481634.0 0
291977.0 481689.0 0
295864.0 481743.0 0
299755.0 481795.0 0
303650.0 481845.0 0
307548.0 481894.0 0
311449.0 481942.0 0
315353.0 481989.0 0
319262.0 482037.0 0
323176.0 482087.0 0
327101.0 482138.0 0
331040.0 482189.0 0
335000.0 482240.0 0
339034.0 482342.0 0
343004.0 482316.0 0
346981.0 482235.0 0
350966.0 482115.0 0
365265.0 484681.0 0
369247.0 484448.0 0
373219.0 484201.0 0
381127.0 483689.0 0
385083.0 483416.0 0
389055.0 483081.0 0
393575.0 482189.0 0
400301.0 484863.0 0
404268.0 485124.0 0
408236.0 484829.0 0
94491.4 484739.0 0
99254.1 486138.0 0
103226.0 486607.0 0
107292.0 487057.0 0
117877.0 484787.0 0
122318.0 484623.0 0
126251.0 484607.0 0
146597.0 484821.0 0
150576.0 484817.0 0
154550.0 484834.0 0
158513.0 484860.0 0
162466.0 484887.0 0
166409.0 484911.0 0
170344.0 484929.0 0
174275.0 484944.0 0
178203.0 484958.0 0
182130.0 484977.0 0
186056.0 485009.0 0
189985.0 485061.0 0
193919.0 485142.0 0
197864.0 485264.0 0
201827.0 485444.0 0
205814.0 485717.0 0
209790.0 486015.0 0
213758.0 486358.0 0
219871.0 483519.0 0
224196.0 484149.0 0
228146.0 484259.0 0
232070.0 484313.0 0
235967.0 484350.0 0
239844.0 484378.0 0
243708.0 484404.0 0
247564.0 484431.0 0
251416.0 484463.0 0
255268.0 484500.0 0
259122.0 484542.0 0
262978.0 484589.0 0
266840.0 484638.0 0
270706.0 484690.0 0
274578.0 484742.0 0
278454.0 484795.0 0
282336.0 484847.0 0
286221.0 484899.0 0
290111.0 484950.0 0
294004.0 485001.0 0
297902.0 485049.0 0
301802.0 485097.0 0
305706.0 485142.0 0
309613.0 485187.0 0
313523.0 485230.0 0
317437.0 485272.0 0
321356.0 485313.0 0
325282.0 485353.0 0
329218.0 485390.0 0
333166.0 485422.0 0
337127.0 485448.0 0
341302.0 485573.0 0
345273.0 485497.0 0
349256.0 485378.0 0
353247.0 485231.0 0
357256.0 485070.0 0
361258.0 484882.0 0
377179.0 483943.0 0
387463.0 486517.0 0
391979.0 485643.0 0
396110.0 485153.0 0
402279.0 488280.0 0
91280.6 487068.0 0
95946.5 488289.0 0
100892.0 489755.0 0
104871.0 490151.0 0
111319.0 487448.0 0
115472.0 487964.0 0
120103.0 487814.0 0
124072.0 487924.0 0
128044.0 487871.0 0
132042.0 487751.0 0
136027.0 487714.0 0
140011.0 487693.0 0
143992.0 487681.0 0
148364.0 487995.0 0
152343.0 488017.0 0
156312.0 488056.0 0
160268.0 488102.0 0
164213.0 488143.0 0
168148.0 488178.0 0
172078.0 488204.0 0
176005.0 488226.0 0
179929.0 488248.0 0
183853.0 488277.0 0
187776.0 488321.0 0
191701.0 488386.0 0
195631.0 488479.0 0
199572.0 488614.0 0
203530.0 488813.0 0
207566.0 489156.0 0
211530.0 489481.0 0
217702.0 486729.0 0
221615.0 487044.0 0
225940.0 487477.0 0
229912.0 487564.0 0
233851.0 487630.0 0
237764.0 487681.0 0
241658.0 487720.0 0
245541.0 487755.0 0
249417.0 487788.0 0
253288.0 487823.0 0
257159.0 487861.0 0
261031.0 487902.0 0
264905.0 487945.0 0
268783.0 487991.0 0
272665.0 488038.0 0
276550.0 488085.0 0
280440.0 488133.0 0
284334.0 488181.0 0
288231.0 488228.0 0
292131.0 488275.0 0
296035.0 488321.0 0
299942.0 488365.0 0
303852.0 488408.0 0
307765.0 488449.0 0
311681.0 488489.0 0
315601.0 488527.0 0
319524.0 488562.0 0
323454.0 488594.0 0
327391.0 488621.0 0
331336.0 488642.0 0
335292.0 488656.0 0
339255.0 488637.0 0
343579.0 488802.0 0
347550.0 488676.0 0
351537.0 488524.0 0
355531.0 488356.0 0
359553.0 488185.0 0
363559.0 487989.0 0
367588.0 487794.0 0
371574.0 487565.0 0
375553.0 487325.0 0
379524.0 487081.0 0
383491.0 486821.0 0
394423.0 488676.0 0
398385.0 488328.0 0
405272.0 490818.0 0
408630.0 488696.0 0
92834.3 490750.0 0
97521.0 491811.0 0
108889.0 490551.0 0
112852.0 490934.0 0
117824.0 490988.0 0
121798.0 491198.0 0
125763.0 491277.0 0
129987.0 491056.0 0
133949.0 491004.0 0
137914.0 490974.0 0
141886.0 490954.0 0
145864.0 490955.0 0
150129.0 491202.0 0
154108.0 491255.0 0
158068.0 491320.0 0
162015.0 491382.0 0
165952.0 491435.0 0
169881.0 491476.0 0
173806.0 491507.0 0
177729.0 491533.0 0
181650.0 491562.0 0
185569.0 491601.0 0
189486.0 491655.0 0
193404.0 491730.0 0
197323.0 491833.0 0
201250.0 491976.0 0
215500.0 489892.0 0
219428.0 490332.0 0
223469.0 490479.0 0
227764.0 490793.0 0
231732.0 490890.0 0
235673.0 490969.0 0
239595.0 491028.0 0
243502.0 491074.0 0
247401.0 491113.0 0
251293.0 491150.0 0
255181.0 491187.0 0
259068.0 491225.0 0
262956.0 491264.0 0
266845.0 491305.0 0
270737.0 491347.0 0
274633.0 491390.0 0
278531.0 491434.0 0
282432.0 491478.0 0
286337.0 491522.0 0
290245.0 491565.0 0
294155.0 491608.0 0
298069.0 491650.0 0
301985.0 491691.0 0
305904.0 491730.0 0
341393.0 491821.0 0
345859.0 492020.0 0
349833.0 491851.0 0
353821.0 491677.0 0
357816.0 491496.0 0
361843.0 491318.0 0
365846.0 491119.0 0
369892.0 490936.0 0
373881.0 490710.0 0
377867.0 490478.0 0
381853.0 490244.0 0
385836.0 489975.0 0
390371.0 489132.0 0
408824.0 492645.0 0
102566.0 493361.0 0
106538.0 493715.0 0
110493.0 494086.0 0
115231.0 493948.0 0
119499.0 494453.0 0
135839.0 494293.0 0
139792.0 494259.0 0
143760.0 494239.0 0
147740.0 494255.0 0
151894.0 494447.0 0
205195.0 492183.0 0
209312.0 492645.0 0
213234.0 492979.0 0
221407.0 493777.0 0
225449.0 493886.0 0
309827.0 491766.0 0
313752.0 491801.0 0
317681.0 491832.0 0
321615.0 491858.0 0
325555.0 491879.0 0
329503.0 491891.0 0
333460.0 491894.0 0
337430.0 491885.0 0
356101.0 494844.0 0
360095.0 494657.0 0
364116.0 494477.0 0
368110.0 494281.0 0
372171.0 494107.0 0
376160.0 493885.0 0
380149.0 493661.0 0
384158.0 493438.0 0
388734.0 492643.0 0
392771.0 492226.0 0
396722.0 491857.0 0
400631.0 491728.0 0
94493.6 494382.0 0
99130.6 495344.0 0
104967.0 497319.0 0
112895.0 497165.0 0
123468.0 494631.0 0
127943.0 494346.0 0
131894.0 494330.0 0
137717.0 497607.0 0
155865.0 494537.0 0
159817.0 494624.0 0
163756.0 494699.0 0
167685.0 494758.0 0
171610.0 494801.0 0
175532.0 494834.0 0
179451.0 494864.0 0
183368.0 494900.0 0
187282.0 494948.0 0
191190.0 495013.0 0
195095.0 495097.0 0
198997.0 495205.0 0
202902.0 495348.0 0
206820.0 495543.0 0
211157.0 496167.0 0
216855.0 494379.0 0
219541.0 497199.0 0
229613.0 494132.0 0
233577.0 494245.0 0
237523.0 494326.0 0
241453.0 494388.0 0
245373.0 494437.0 0
249284.0 494479.0 0
253190.0 494518.0 0
257092.0 494556.0 0
260993.0 494593.0 0
264894.0 494631.0 0
268797.0 494669.0 0
272702.0 494709.0 0
276609.0 494749.0 0
280518.0 494789.0 0
284430.0 494830.0 0
288345.0 494871.0 0
292263.0 494911.0 0
296183.0 494951.0 0
300105.0 494989.0 0
304031.0 495026.0 0
307959.0 495061.0 0
311891.0 495093.0 0
315826.0 495121.0 0
319765.0 495144.0 0
323709.0 495160.0 0
327659.0 495167.0 0
331619.0 495161.0 0
335592.0 495141.0 0
339584.0 495122.0 0
343556.0 495000.0 0
348138.0 495223.0 0
352112.0 495029.0 0
382397.0 496877.0 0
387032.0 496149.0 0
391140.0 495769.0 0
395151.0 495387.0 0
401066.0 495598.0 0
404962.0 494774.0 0
96174.8 497999.0 0
101245.0 498632.0 0
108923.0 497703.0 0
116878.0 497436.0 0
121225.0 497940.0 0
125879.0 497610.0 0
129836.0 497665.0 0
133779.0 497649.0 0
141665.0 497560.0 0
145630.0 497540.0 0
149612.0 497579.0 0
153652.0 497745.0 0
157615.0 497864.0 0
161559.0 497968.0 0
165491.0 498049.0 0
169417.0 498108.0 0
173340.0 498149.0 0
177260.0 498182.0 0
181177.0 498216.0 0
185088.0 498260.0 0
188994.0 498319.0 0
192893.0 498394.0 0
196786.0 498483.0 0
200674.0 498592.0 0
204559.0 498722.0 0
208455.0 498852.0 0
214760.0 497810.0 0
223480.0 497213.0 0
227450.0 497321.0 0
231479.0 497510.0 0
235448.0 497619.0 0
239399.0 497699.0 0
243338.0 497761.0 0
247267.0 497811.0 0
251188.0 497854.0 0
255105.0 497894.0 0
259019.0 497931.0 0
262932.0 497967.0 0
266845.0 498004.0 0
270759.0 498040.0 0
274674.0 498077.0 0
278592.0 498115.0 0
282511.0 498153.0 0
286433.0 498191.0 0
290357.0 498229.0 0
294284.0 498267.0 0
298213.0 498303.0 0
302144.0 498338.0 0
306079.0 498371.0 0
310017.0 498401.0 0
313958.0 498427.0 0
317903.0 498448.0 0
321852.0 498463.0 0
325806.0 498467.0 0
329765.0 498458.0 0
333732.0 498431.0 0
337707.0 498384.0 0
341787.0 498354.0 0
345763.0 498181.0 0
350403.0 498420.0 0
354377.0 498217.0 0
358365.0 498030.0 0
362358.0 497846.0 0
366361.0 497667.0 0
370355.0 497473.0 0
374425.0 497305.0 0
378411.0 497093.0 0
389432.0 499293.0 0
393538.0 498916.0 0
398029.0 498112.0 0
403579.0 498661.0 0
106644.0 500997.0 0
114586.0 500700.0 0
118576.0 500922.0 0
123820.0 500877.0 0
127780.0 500994.0 0
131736.0 501022.0 0
135674.0 500997.0 0
139602.0 500935.0 0
143538.0 500873.0 0
147493.0 500857.0 0
151452.0 500938.0 0
155418.0 501098.0 0
159364.0 501236.0 0
163298.0 501347.0 0
167228.0 501425.0 0
171155.0 501478.0 0
175079.0 501516.0 0
178996.0 501550.0 0
182907.0 501591.0 0
186812.0 501645.0 0
190712.0 501714.0 0
194609.0 501793.0 0
198501.0 501882.0 0
202390.0 501983.0 0
206277.0 502078.0 0
210168.0 502078.0 0
213958.0 501712.0 0
217625.0 500574.0 0
221542.0 500609.0 0
225467.0 500665.0 0
229414.0 500775.0 0
233387.0 500913.0 0
237350.0 501010.0 0
241303.0 501085.0 0
245245.0 501145.0 0
249181.0 501195.0 0
253110.0 501238.0 0
257036.0 501277.0 0
260960.0 501314.0 0
264882.0 501349.0 0
268805.0 501384.0 0
272729.0 501419.0 0
276654.0 501454.0 0
280581.0 501490.0 0
284509.0 501526.0 0
288440.0 501562.0 0
292373.0 501598.0 0
296308.0 501632.0 0
300245.0 501666.0 0
304186.0 501697.0 0
308129.0 501726.0 0
312076.0 501750.0 0
316028.0 501770.0 0
319983.0 501783.0 0
323943.0 501788.0 0
327907.0 501779.0 0
331876.0 501753.0 0
335850.0 501703.0 0
339832.0 501611.0 0
344022.0 501577.0 0
347996.0 501382.0 0
352641.0 501622.0 0
356617.0 501424.0 0
360603.0 501243.0 0
364592.0 501065.0 0
368586.0 500887.0 0
372579.0 500693.0 0
376647.0 500536.0 0
380637.0 500337.0 0
385225.0 499621.0 0
400482.0 501262.0 0
97472.8 501767.0 0
101378.0 502560.0 0
110637.0 501289.0 0
116355.0 504220.0 0
121257.0 503767.0 0
125727.0 504327.0 0
129709.0 504394.0 0
133664.0 504408.0 0
141500.0 504271.0 0
145417.0 504188.0 0
149332.0 504211.0 0
153248.0 504340.0 0
157171.0 504505.0 0
161100.0 504646.0 0
165037.0 504751.0 0
168976.0 504817.0 0
172909.0 504864.0 0
219583.0 504014.0 0
223498.0 504057.0 0
227421.0 504127.0 0
231362.0 504226.0 0
235319.0 504331.0 0
239275.0 504415.0 0
243226.0 504484.0 0
247171.0 504542.0 0
341993.0 504821.0 0
346257.0 504807.0 0
350231.0 504611.0 0
354848.0 504841.0 0
358827.0 504656.0 0
362811.0 504484.0 0
366798.0 504313.0 0
370789.0 504133.0 0
374778.0 503945.0 0
378843.0 503800.0 0
383431.0 503120.0 0
387605.0 502773.0 0
391850.0 502431.0 0
396366.0 501699.0 0
98796.8 505585.0 0
104521.0 504950.0 0
108481.0 504648.0 0
112445.0 504933.0 0
119134.0 507021.0 0
137594.0 504366.0 0
143453.0 507597.0 0
147279.0 507551.0 0
176830.0 504902.0 0
180740.0 504940.0 0
184642.0 504988.0 0
188543.0 505052.0 0
192450.0 505123.0 0
196359.0 505198.0 0
200267.0 505281.0 0
204179.0 505360.0 0
208102.0 505394.0 0
212023.0 505324.0 0
215880.0 505146.0 0
251111.0 504590.0 0
255047.0 504633.0 0
258980.0 504671.0 0
262911.0 504706.0 0
266843.0 504740.0 0
270774.0 504773.0 0
274706.0 504807.0 0
278639.0 504840.0 0
282574.0 504874.0 0
286511.0 504908.0 0
290450.0 504943.0 0
294391.0 504976.0 0
298334.0 505008.0 0
302280.0 505038.0 0
306229.0 505066.0 0
310181.0 505089.0 0
314138.0 505108.0 0
318100.0 505121.0 0
322066.0 505125.0 0
326038.0 505119.0 0
330015.0 505097.0 0
333997.0 505051.0 0
337989.0 504968.0 0
381602.0 506619.0 0
385804.0 506282.0 0
390032.0 505904.0 0
394626.0 505264.0 0
398761.0 504873.0 0
101772.0 508382.0 0
105935.0 508654.0 0
110020.0 508338.0 0
114045.0 508595.0 0
123120.0 507245.0 0
127706.0 507761.0 0
131691.0 507817.0 0
135652.0 507815.0 0
139580.0 507754.0 0
151104.0 507625.0 0
154974.0 507794.0 0
158875.0 507951.0 0
162781.0 508093.0 0
166687.0 508212.0 0
170599.0 508292.0 0
174519.0 508345.0 0
178452.0 508378.0 0
182396.0 508398.0 0
186344.0 508421.0 0
190288.0 508466.0 0
194224.0 508529.0 0
198156.0 508599.0 0
202089.0 508666.0 0
206030.0 508710.0 0
209975.0 508701.0 0
213903.0 508631.0 0
217792.0 508546.0 0
221525.0 507468.0 0
225441.0 507520.0 0
229368.0 507590.0 0
233308.0 507674.0 0
237260.0 507759.0 0
241213.0 507833.0 0
245164.0 507897.0 0
249111.0 507951.0 0
253054.0 507997.0 0
256995.0 508037.0 0
260934.0 508074.0 0
264872.0 508107.0 0
268811.0 508140.0 0
272749.0 508172.0 0
276689.0 508204.0 0
280630.0 508236.0 0
284572.0 508269.0 0
288516.0 508302.0 0
292462.0 508334.0 0
296410.0 508365.0 0
300361.0 508395.0 0
304315.0 508421.0 0
308273.0 508444.0 0
312234.0 508462.0 0
316201.0 508474.0 0
320173.0 508479.0 0
324150.0 508474.0 0
328135.0 508457.0 0
332125.0 508419.0 0
336129.0 508343.0 0
340181.0 508206.0 0
344177.0 508047.0 0
348476.0 508056.0 0
352452.0 507872.0 0
357025.0 508082.0 0
361008.0 507915.0 0
364992.0 507756.0 0
368975.0 507587.0 0
372964.0 507407.0 0
376952.0 507228.0 0
388240.0 509411.0 0
392771.0 508785.0 0
396793.0 508592.0 0
400781.0 508314.0 0
117828.0 510677.0 0
121809.0 510924.0 0
125778.0 511163.0 0
129751.0 511229.0 0
133725.0 511245.0 0
137706.0 511216.0 0
143229.0 511445.0 0
147929.0 511325.0 0
152574.0 511144.0 0
156534.0 511312.0 0
160488.0 511453.0 0
164442.0 511571.0 0
168394.0 511661.0 0
172347.0 511719.0 0
176302.0 511753.0 0
180257.0 511776.0 0
184210.0 511796.0 0
188159.0 511826.0 0
192106.0 511874.0 0
196053.0 511933.0 0
200000.0 511992.0 0
203952.0 512039.0 0
207907.0 512057.0 0
211855.0 512037.0 0
215781.0 511990.0 0
219690.0 511938.0 0
223457.0 510935.0 0
227380.0 510987.0 0
231314.0 511052.0 0
235258.0 511124.0 0
239209.0 511196.0 0
243161.0 511263.0 0
247111.0 511321.0 0
251059.0 511371.0 0
255006.0 511414.0 0
258952.0 511452.0 0
262896.0 511486.0 0
266841.0 511519.0 0
270785.0 511550.0 0
274730.0 511582.0 0
278676.0 511613.0 0
282623.0 511644.0 0
286572.0 511675.0 0
290522.0 511707.0 0
294475.0 511737.0 0
298430.0 511766.0 0
302389.0 511792.0 0
306350.0 511815.0 0
310316.0 511832.0 0
314287.0 511844.0 0
318263.0 511848.0 0
322244.0 511845.0 0
326232.0 511831.0 0
330227.0 511803.0 0
334257.0 511731.0 0
338339.0 511598.0 0
342367.0 511462.0 0
346360.0 511303.0 0
350669.0 511329.0 0
354652.0 511162.0 0
359171.0 511348.0 0
363160.0 511206.0 0
367144.0 511057.0 0
371133.0 510880.0 0
375123.0 510706.0 0
379674.0 510084.0 0
383962.0 509785.0 0
100149.0 512160.0 0
104146.0 512225.0 0
108151.0 511946.0 0
112136.0 512108.0 0
115679.0 513937.0 0
119667.0 514207.0 0
140382.0 514152.0 0
145645.0 514536.0 0
150321.0 514395.0 0
154297.0 514617.0 0
158274.0 514779.0 0
162249.0 514909.0 0
225392.0 514408.0 0
229324.0 514455.0 0
233264.0 514513.0 0
237212.0 514577.0 0
241163.0 514642.0 0
245114.0 514704.0 0
249065.0 514757.0 0
253015.0 514802.0 0
256965.0 514841.0 0
260915.0 514876.0 0
264865.0 514909.0 0
268815.0 514941.0 0
272765.0 514972.0 0
276714.0 515002.0 0
332364.0 515130.0 0
336474.0 515003.0 0
340527.0 514882.0 0
344540.0 514744.0 0
348533.0 514593.0 0
352838.0 514626.0 0
356828.0 514481.0 0
361282.0 514644.0 0
365283.0 514536.0 0
369289.0 514368.0 0
373278.0 514192.0 0
377812.0 513601.0 0
382031.0 513258.0 0
386387.0 512910.0 0
390942.0 512329.0 0
394936.0 512130.0 0
398934.0 511953.0 0
101328.0 515981.0 0
105322.0 516045.0 0
109299.0 515753.0 0
113101.0 516898.0 0
123655.0 514460.0 0
127766.0 514631.0 0
131768.0 514678.0 0
135767.0 514674.0 0
142819.0 517315.0 0
166220.0 515014.0 0
170190.0 515086.0 0
174159.0 515130.0 0
178126.0 515159.0 0
182089.0 515180.0 0
186048.0 515204.0 0
190004.0 515238.0 0
193960.0 515285.0 0
197917.0 515337.0 0
201876.0 515383.0 0
205837.0 515414.0 0
209795.0 515421.0 0
213741.0 515406.0 0
217672.0 515372.0 0
221594.0 515329.0 0
280665.0 515033.0 0
284618.0 515063.0 0
288572.0 515093.0 0
292529.0 515123.0 0
296488.0 515152.0 0
300450.0 515178.0 0
304415.0 515201.0 0
308384.0 515218.0 0
312358.0 515230.0 0
316337.0 515235.0 0
320321.0 515232.0 0
324311.0 515221.0 0
328306.0 515199.0 0
383649.0 516868.0 0
387635.0 516656.0 0
391603.0 516259.0 0
395590.0 516068.0 0
399582.0 515892.0 0
117489.0 517482.0 0
121489.0 517747.0 0
125606.0 517938.0 0
129760.0 518091.0 0
133794.0 518121.0 0
138470.0 517607.0 0
148050.0 517653.0 0
152042.0 517911.0 0
156053.0 518100.0 0
160060.0 518245.0 0
164052.0 518370.0 0
168040.0 518456.0 0
172025.0 518510.0 0
176006.0 518545.0 0
179981.0 518570.0 0
183950.0 518592.0 0
187916.0 518619.0 0
191879.0 518655.0 0
195843.0 518700.0 0
199807.0 518744.0 0
203772.0 518780.0 0
207736.0 518803.0 0
211695.0 518808.0 0
215642.0 518796.0 0
219579.0 518767.0 0
223508.0 518724.0 0
227335.0 517882.0 0
231274.0 517924.0 0
235220.0 517977.0 0
239169.0 518038.0 0
243120.0 518100.0 0
247070.0 518155.0 0
251021.0 518202.0 0
254974.0 518242.0 0
258928.0 518277.0 0
262882.0 518310.0 0
266837.0 518342.0 0
270791.0 518374.0 0
274746.0 518406.0 0
278700.0 518436.0 0
282656.0 518465.0 0
286613.0 518495.0 0
290573.0 518524.0 0
294535.0 518552.0 0
298500.0 518579.0 0
302468.0 518602.0 0
306439.0 518620.0 0
310416.0 518632.0 0
314398.0 518638.0 0
318384.0 518637.0 0
322375.0 518627.0 0
326371.0 518609.0 0
330445.0 518535.0 0
334582.0 518417.0 0
338657.0 518309.0 0
342696.0 518190.0 0
346698.0 518055.0 0
350692.0 517913.0 0
354977.0 517946.0 0
358973.0 517834.0 0
363334.0 517984.0 0
367431.0 517861.0 0
371434.0 517700.0 0
375680.0 517329.0 0
379663.0 517098.0 0
100313.0 519979.0 0
104307.0 519933.0 0
108284.0 519612.0 0
112114.0 520716.0 0
116074.0 521154.0 0
120060.0 521417.0 0
124120.0 521602.0 0
128171.0 521725.0 0
132331.0 521819.0 0
136618.0 521124.0 0
140876.0 520789.0 0
145246.0 520495.0 0
149777.0 521206.0 0
153823.0 521415.0 0
157871.0 521576.0 0
161881.0 521720.0 0
165904.0 521828.0 0
169908.0 521893.0 0
173901.0 521935.0 0
177886.0 521966.0 0
181865.0 521989.0 0
185839.0 522012.0 0
189810.0 522042.0 0
193778.0 522080.0 0
197746.0 522122.0 0
201714.0 522161.0 0
205682.0 522190.0 0
209649.0 522208.0 0
213610.0 522215.0 0
217560.0 522204.0 0
221501.0 522174.0 0
225435.0 522123.0 0
229287.0 521358.0 0
233229.0 521394.0 0
237178.0 521447.0 0
241126.0 521511.0 0
245075.0 521569.0 0
249025.0 521616.0 0
252978.0 521657.0 0
256933.0 521691.0 0
260889.0 521723.0 0
264846.0 521755.0 0
268804.0 521787.0 0
272763.0 521819.0 0
276724.0 521851.0 0
280685.0 521882.0 0
284645.0 521911.0 0
288607.0 521939.0 0
292570.0 521967.0 0
296537.0 521995.0 0
300508.0 522019.0 0
304482.0 522039.0 0
308461.0 522051.0 0
312445.0 522058.0 0
316433.0 522058.0 0
320426.0 522050.0 0
324423.0 522035.0 0
328512.0 521957.0 0
332657.0 521838.0 0
336757.0 521745.0 0
340820.0 521643.0 0
344844.0 521526.0 0
348841.0 521394.0 0
352837.0 521261.0 0
357074.0 521298.0 0
361058.0 521241.0 0
365445.0 521302.0 0
369560.0 521209.0 0
373830.0 520868.0 0
377844.0 520659.0 0
381832.0 520422.0 0
385819.0 520199.0 0
389945.0 519894.0 0
394000.0 519774.0 0
398000.0 519797.0 0
101776.0 523897.0 0
105769.0 523818.0 0
109754.0 523902.0 0
113727.0 524352.0 0
117852.0 524708.0 0
142753.0 524308.0 0
146748.0 524203.0 0
151582.0 524745.0 0
155671.0 524901.0 0
159701.0 525063.0 0
235188.0 524869.0 0
239129.0 524934.0 0
243076.0 524998.0 0
247027.0 525047.0 0
250978.0 525087.0 0
254932.0 525118.0 0
258888.0 525148.0 0
262845.0 525179.0 0
266804.0 525210.0 0
270765.0 525242.0 0
274728.0 525274.0 0
278693.0 525306.0 0
282663.0 525340.0 0
286631.0 525370.0 0
290596.0 525398.0 0
294563.0 525425.0 0
334822.0 525185.0 0
338911.0 525100.0 0
342965.0 525003.0 0
346979.0 524887.0 0
350972.0 524755.0 0
354962.0 524639.0 0
359027.0 524760.0 0
378870.0 524508.0 0
382827.0 524273.0 0
386787.0 524053.0 0
390746.0 523801.0 0
394721.0 523796.0 0
398708.0 523823.0 0
121946.0 524922.0 0
126054.0 525091.0 0
130184.0 525174.0 0
134650.0 525074.0 0
138631.0 524576.0 0
163751.0 525187.0 0
167807.0 525279.0 0
171816.0 525330.0 0
175809.0 525368.0 0
179795.0 525394.0 0
183775.0 525416.0 0
187751.0 525442.0 0
191723.0 525475.0 0
195694.0 525516.0 0
199664.0 525558.0 0
203633.0 525591.0 0
207605.0 525613.0 0
211576.0 525629.0 0
215543.0 525639.0 0
219496.0 525626.0 0
223445.0 525589.0 0
227378.0 525525.0 0
231247.0 524836.0 0
298534.0 525451.0 0
302510.0 525473.0 0
306492.0 525486.0 0
310479.0 525493.0 0
314470.0 525495.0 0
318465.0 525490.0 0
322464.0 525477.0 0
326568.0 525395.0 0
330718.0 525277.0 0
363015.0 524716.0 0
367001.0 524923.0 0
370963.0 524927.0 0
374914.0 524699.0 0
101572.0 527899.0 0
105566.0 527822.0 0
109555.0 527874.0 0
113519.0 528309.0 0
117494.0 528648.0 0
121483.0 528861.0 0
125478.0 529026.0 0
129478.0 529096.0 0
133548.0 528926.0 0
137527.0 528547.0 0
141498.0 528100.0 0
145494.0 528119.0 0
149489.0 528148.0 0
153484.0 528237.0 0
157523.0 528404.0 0
161593.0 528539.0 0
165674.0 528644.0 0
169745.0 528728.0 0
173748.0 528777.0 0
177742.0 528808.0 0
181727.0 528832.0 0
185704.0 528855.0 0
189676.0 528885.0 0
193645.0 528922.0 0
197616.0 528968.0 0
201589.0 529009.0 0
205564.0 529029.0 0
209539.0 529049.0 0
213515.0 529064.0 0
217493.0 529084.0 0
221460.0 529052.0 0
225418.0 529019.0 0
229358.0 528917.0 0
233231.0 528322.0 0
237162.0 528397.0 0
241097.0 528458.0 0
245035.0 528490.0 0
248983.0 528536.0 0
252932.0 528560.0 0
256884.0 528588.0 0
260839.0 528617.0 0
264795.0 528646.0 0
268755.0 528677.0 0
272718.0 528708.0 0
276684.0 528740.0 0
280655.0 528773.0 0
284631.0 528806.0 0
288614.0 528844.0 0
292606.0 528887.0 0
296604.0 528931.0 0
300624.0 528978.0 0
304672.0 529025.0 0
308718.0 529061.0 0
312748.0 529080.0 0
316748.0 529078.0 0
320747.0 529064.0 0
324807.0 528954.0 0
328974.0 528841.0 0
333055.0 528737.0 0
337130.0 528646.0 0
341179.0 528548.0 0
345231.0 528452.0 0
349303.0 528358.0 0
353377.0 528282.0 0
357403.0 528403.0 0
361733.0 528505.0 0
365722.0 528673.0 0
369890.0 528765.0 0
373889.0 528555.0 0
377885.0 528375.0 0
381877.0 528144.0 0
385906.0 527938.0 0
389998.0 527769.0 0
394000.0 527774.0 0
398000.0 527797.0 0
102000.0 531888.0 0
106000.0 531816.0 0
110042.0 531828.0 0
114242.0 532213.0 0
118224.0 532545.0 0
142103.0 532051.0 0
146097.0 532101.0 0
150094.0 532099.0 0
154092.0 532181.0 0
158108.0 532331.0 0
206934.0 532740.0 0
210914.0 532756.0 0
214884.0 532772.0 0
230706.0 532630.0 0
234606.0 532073.0 0
238556.0 532144.0 0
242514.0 532202.0 0
246483.0 532213.0 0
254447.0 532249.0 0
258441.0 532257.0 0
262437.0 532265.0 0
266433.0 532274.0 0
270431.0 532286.0 0
274427.0 532303.0 0
278422.0 532322.0 0
282415.0 532346.0 0
286407.0 532376.0 0
290401.0 532414.0 0
342264.0 532381.0 0
346242.0 532305.0 0
350218.0 532234.0 0
354194.0 532180.0 0
358168.0 532321.0 0
382052.0 532130.0 0
386038.0 531923.0 0
390030.0 531769.0 0
394026.0 531774.0 0
398024.0 531797.0 0
122210.0 532767.0 0
126194.0 532943.0 0
130180.0 533022.0 0
134166.0 532904.0 0
138137.0 532515.0 0
162134.0 532464.0 0
166161.0 532574.0 0
170208.0 532657.0 0
174260.0 532700.0 0
178301.0 532722.0 0
182373.0 532731.0 0
186451.0 532735.0 0
190576.0 532734.0 0
194681.0 532739.0 0
198835.0 532738.0 0
202940.0 532736.0 0
218841.0 532826.0 0
222799.0 532784.0 0
226752.0 532771.0 0
250459.0 532269.0 0
294394.0 532457.0 0
298386.0 532506.0 0
302378.0 532568.0 0
306371.0 532640.0 0
310364.0 532699.0 0
314357.0 532734.0 0
318349.0 532735.0 0
322341.0 532724.0 0
326330.0 532639.0 0
330319.0 532591.0 0
334303.0 532519.0 0
338285.0 532457.0 0
362144.0 532484.0 0
366124.0 532624.0 0
370104.0 532749.0 0
374084.0 532543.0 0
378068.0 532363.0 0
101981.0 535889.0 0
105979.0 535816.0 0
109977.0 535815.0 0
113958.0 536180.0 0
117943.0 536508.0 0
121936.0 536736.0 0
125963.0 536922.0 0
129977.0 537007.0 0
134001.0 536900.0 0
137993.0 536516.0 0
141971.0 536047.0 0
145968.0 536100.0 0
149964.0 536094.0 0
153957.0 536174.0 0
157945.0 536308.0 0
161931.0 536433.0 0
165915.0 536538.0 0
169897.0 536613.0 0
173878.0 536649.0 0
177857.0 536664.0 0
181835.0 536659.0 0
185813.0 536648.0 0
189791.0 536623.0 0
193771.0 536604.0 0
197754.0 536564.0 0
201737.0 536530.0 0
205722.0 536523.0 0
209712.0 536540.0 0
213706.0 536563.0 0
217714.0 536653.0 0
221712.0 536612.0 0
225732.0 536630.0 0
229724.0 536468.0 0
233947.0 536113.0 0
237947.0 536096.0 0
241945.0 536169.0 0
245944.0 536175.0 0
249942.0 536248.0 0
253939.0 536209.0 0
257937.0 536217.0 0
261934.0 536222.0 0
265932.0 536230.0 0
269931.0 536243.0 0
273930.0 536260.0 0
277929.0 536280.0 0
281928.0 536308.0 0
285928.0 536341.0 0
289927.0 536381.0 0
293927.0 536424.0 0
297928.0 536476.0 0
301927.0 536539.0 0
305926.0 536611.0 0
309926.0 536670.0 0
313926.0 536704.0 0
317929.0 536707.0 0
321929.0 536696.0 0
325938.0 536610.0 0
329947.0 536560.0 0
333956.0 536491.0 0
337962.0 536430.0 0
341966.0 536356.0 0
345971.0 536282.0 0
349977.0 536212.0 0
353981.0 536164.0 0
357979.0 536308.0 0
361990.0 536479.0 0
365988.0 536599.0 0
369991.0 536740.0 0
373997.0 536537.0 0
377997.0 536356.0 0
381998.0 536121.0 0
385999.0 535913.0 0
390000.0 535769.0 0
394000.0 535774.0 0
398000.0 535797.0 0
102000.0 539888.0 0
106000.0 539816.0 0
110001.0 539806.0 0
114006.0 540163.0 0
142000.0 540045.0 0
150001.0 540091.0 0
214058.0 540524.0 0
238021.0 540094.0 0
358003.0 540300.0 0
382000.0 540114.0 0
386000.0 539905.0 0
390000.0 539769.0 0
394000.0 539774.0 0
398000.0 539797.0 0
118013.0 540487.0 0
122007.0 540720.0 0
126002.0 540911.0 0
130001.0 541000.0 0
134000.0 540900.0 0
138002.0 540516.0 0
146000.0 540100.0 0
154001.0 540170.0 0
158001.0 540297.0 0
162002.0 540415.0 0
166003.0 540517.0 0
170006.0 540589.0 0
174009.0 540623.0 0
178012.0 540636.0 0
182017.0 540629.0 0
186022.0 540617.0 0
190028.0 540591.0 0
194034.0 540572.0 0
198040.0 540536.0 0
202043.0 540504.0 0
206057.0 540489.0 0
210059.0 540503.0 0
218054.0 540631.0 0
222051.0 540581.0 0
226047.0 540612.0 0
230041.0 540428.0 0
234024.0 540112.0 0
242018.0 540169.0 0
246016.0 540173.0 0
250014.0 540248.0 0
254013.0 540205.0 0
258012.0 540210.0 0
262011.0 540214.0 0
266011.0 540222.0 0
270010.0 540234.0 0
274010.0 540252.0 0
278010.0 540274.0 0
282009.0 540302.0 0
286009.0 540336.0 0
290009.0 540376.0 0
294009.0 540419.0 0
298008.0 540473.0 0
302008.0 540536.0 0
306007.0 540607.0 0
310007.0 540664.0 0
314007.0 540699.0 0
318007.0 540702.0 0
322007.0 540690.0 0
326006.0 540602.0 0
330005.0 540549.0 0
334004.0 540479.0 0
338004.0 540419.0 0
342003.0 540345.0 0
346002.0 540271.0 0
350001.0 540201.0 0
354001.0 540155.0 0
362001.0 540478.0 0
366001.0 540582.0 0
370001.0 540735.0 0
374000.0 540533.0 0
378000.0 540351.0 0
102000.0 543888.0 0
106000.0 543816.0 0
110000.0 543800.0 0
114000.0 544151.0 0
117999.0 544474.0 0
121999.0 544709.0 0
126000.0 544904.0 0
130000.0 544994.0 0
134000.0 544900.0 0
138000.0 544516.0 0
142000.0 544044.0 0
146000.0 544100.0 0
150000.0 544090.0 0
154000.0 544168.0 0
158000.0 544293.0 0
162000.0 544405.0 0
166000.0 544505.0 0
169999.0 544574.0 0
173999.0 544608.0 0
177998.0 544620.0 0
181998.0 544612.0 0
185998.0 544599.0 0
189997.0 544574.0 0
193997.0 544556.0 0
197996.0 544523.0 0
201996.0 544494.0 0
205996.0 544475.0 0
209995.0 544488.0 0
213995.0 544508.0 0
217995.0 544625.0 0
221994.0 544570.0 0
225995.0 544608.0 0
229991.0 544409.0 0
233999.0 544114.0 0
237999.0 544093.0 0
241999.0 544169.0 0
245999.0 544171.0 0
250000.0 544248.0 0
254000.0 544203.0 0
258000.0 544208.0 0
262000.0 544210.0 0
266000.0 544218.0 0
270000.0 544230.0 0
273999.0 544249.0 0
277999.0 544270.0 0
281999.0 544300.0 0
285999.0 544333.0 0
289999.0 544373.0 0
293999.0 544417.0 0
298000.0 544471.0 0
302000.0 544534.0 0
306000.0 544604.0 0
310000.0 544661.0 0
314000.0 544695.0 0
318000.0 544699.0 0
322000.0 544686.0 0
326000.0 544596.0 0
330000.0 544542.0 0
334000.0 544471.0 0
338000.0 544411.0 0
342000.0 544338.0 0
346000.0 544263.0 0
350000.0 544194.0 0
354000.0 544150.0 0
358000.0 544294.0 0
362000.0 544477.0 0
366000.0 544571.0 0
370000.0 544732.0 0
374000.0 544530.0 0
378000.0 544348.0 0
382000.0 544110.0 0
386000.0 543901.0 0
390000.0 543769.0 0
394000.0 543774.0 0
398000.0 543797.0 0
106000.0 547816.0 0
110000.0 547797.0 0
386000.0 547899.0 0
390000.0 547769.0 0
394000.0 547774.0 0
398000.0 547797.0 0
102000.0 547888.0 0
114000.0 548146.0 0
118000.0 548467.0 0
122000.0 548704.0 0
126000.0 548900.0 0
130000.0 548992.0 0
134000.0 548900.0 0
138000.0 548516.0 0
142000.0 548043.0 0
146000.0 548100.0 0
150000.0 548089.0 0
154000.0 548166.0 0
158000.0 548291.0 0
162000.0 548399.0 0
166000.0 548499.0 0
170000.0 548567.0 0
174000.0 548600.0 0
178000.0 548611.0 0
182000.0 548604.0 0
186000.0 548591.0 0
190000.0 548566.0 0
194000.0 548548.0 0
198000.0 548516.0 0
202000.0 548489.0 0
206000.0 548467.0 0
210000.0 548480.0 0
214000.0 548500.0 0
218000.0 548622.0 0
222000.0 548564.0 0
226000.0 548606.0 0
230001.0 548399.0 0
234000.0 548114.0 0
238000.0 548093.0 0
242000.0 548169.0 0
246000.0 548170.0 0
250000.0 548248.0 0
254000.0 548202.0 0
258000.0 548206.0 0
262000.0 548209.0 0
266000.0 548216.0 0
270000.0 548228.0 0
274000.0 548247.0 0
278000.0 548269.0 0
282000.0 548298.0 0
286000.0 548331.0 0
290000.0 548372.0 0
294000.0 548415.0 0
298000.0 548470.0 0
302000.0 548533.0 0
306000.0 548603.0 0
310000.0 548660.0 0
314000.0 548694.0 0
318000.0 548697.0 0
322000.0 548684.0 0
326000.0 548593.0 0
330000.0 548538.0 0
334000.0 548467.0 0
338000.0 548407.0 0
342000.0 548334.0 0
346000.0 548260.0 0
350000.0 548190.0 0
354000.0 548148.0 0
358000.0 548291.0 0
362000.0 548476.0 0
366000.0 548565.0 0
370000.0 548731.0 0
374000.0 548529.0 0
378000.0 548346.0 0
382000.0 548108.0 0
POINT_DATA 4650
SCALARS Radius float 1
LOOKUP_TABLE default
4000.0 4000.0 4000.0 4000.0 4000.0 4000.0 4000.0 4000.0 4000.0 4000.0 4000.0 4000.0 4000.0 4000.0 4000.0 4000.0 4000.0 4000.0 4000.0 4000.0 4000.0 4000.0 4000.0 4000.0 4000.0 4000.0 4000.0 4000.0 4000.0 4000.0 4000.0 4000.0 4000.0 4000.0 4000.0 4000.0 4000.0 4000.0 4000.0 4000.0 4000.0 4000.0 4000.0 4000.0 4000.0 4000.0 4000.0 4000.0 4000.0 4000.0 4000.0 4000.0 4000.0 4000.0 4000.0 4000.0 4000.0 4000.0 4000.0 4000.0 4000.0 4000.0 4000.0 4000.0 4000.0 4000.0 4000.0 4000.0 4000.0 4000.0 4000.0 4000.0 4000.0 4000.0 4000.0 4000.0 4000.0 4000.0 4000.0 4000.0 4000.0 4000.0 4000.0 4000.0 4000.0 4000.0 4000.0 4000.0 4000.0 4000.0 4000.0 4000.0 4000.0 4000.0 4000.0 4000.0 4000.0 4000.0 4000.0 4000.0 4000.0 4000.0 4000.0 4000.0 4000.0 4000.0 4000.0 4000.0 4000.0 4000.0 4000.0 4000.0 4000.0 4000.0 4000.0 4000.0 4000.0 4000.0 4000.0 4000.0 4000.0 4000.0 4000.0 4000.0 4000.0 4000.0 4000.0 4000.0 4000.0 4000.0 4000.0 4000.0 4000.0 4000.0 4000.0 4000.0 4000.0 4000.0 4000.0 4000.0 4000.0 4000.0 4000.0 4000.0 4000.0 4000.0 4000.0 4000.0 4000.0 4000.0 4000.0 4000.0 4000.0 4000.0 4000.0 4000.0 4000.0 4000.0 4000.0 4000.0 4000.0 4000.0 4000.0 4000.0 4000.0 4000.0 4000.0 4000.0 4000.0 4000.0 4000.0 4000.0 4000.0 4000.0 4000.0 4000.0 4000.0 4000.0 4000.0 4000.0 4000.0 4000.0 4000.0 4000.0 4000.0 4000.0 4000.0 4000.0 4000.0 4000.0 4000.0 4000.0 4000.0 4000.0 4000.0 4000.0 4000.0 4000.0 4000.0 4000.0 4000.0 4000.0 4000.0 4000.0 4000.0 4000.0 4000.0 4000.0 4000.0 4000.0 4000.0 4000.0 4000.0 4000.0 4000.0 4000.0 4000.0 4000.0 4000.0 4000.0 4000.0 4000.0 4000.0 4000.0 4000.0 4000.0 4000.0 4000.0 4000.0 4000.0 4000.0 4000.0 4000.0 4000.0 4000.0 4000.0 4000.0 4000.0 4000.0 4000.0 4000.0 4000.0 4000.0 4000.0 4000.0 4000.0 4000.0 4000.0 4000.0 4000.0 4000.0 4000.0 4000.0 4000.0 4000.0 4000.0 4000.0 4000.0 4000.0 4000.0 4000.0 4000.0 4000.0 4000.0 4000.0 4000.0 4000.0 4000.0 4000.0 4000.0 4000.0 4000.0 4000.0 4000.0 4000.0 4000.0 4000.0 4000.0 4000.0 4000.0 4000.0 4000.0 4000.0 4000.0 4000.0 4000.0 4000.0 4000.0 4000.0 4000.0 4000.0 4000.0 4000.0 4000.0 4000.0 4000.0 4000.0 4000.0 4000.0 4000.0 4000.0 4000.0 4000.0 4000.0 4000.0 4000.0 4000.0 4000.0 4000.0 4000.0 4000.0 4000.0 4000.0 4000.0 4000.0 4000.0 4000.0 4000.0 4000.0 4000.0 4000.0 4000.0 4000.0 4000.0 4000.0 4000.0 4000.0 4000.0 4000.0 4000.0 4000.0 4000.0 4000.0 4000.0 4000.0 4000.0 4000.0 4000.0 4000.0 4000.0 4000.0 4000.0 4000.0 4000.0 4000.0 4000.0 4000.0 4000.0 4000.0 4000.0 4000.0 4000.0 4000.0 4000.0 4000.0 4000.0 4000.0 4000.0 4000.0 4000.0 4000.0 4000.0 4000.0 4000.0 4000.0 4000.0 4000.0 4000.0 4000.0 4000.0 4000.0 4000.0 4000.0 4000.0 4000.0 4000.0 4000.0 4000.0 4000.0 4000.0 4000.0 4000.0 4000.0 4000.0 4000.0 4000.0 4000.0 4000.0 4000.0 4000.0 4000.0 4000.0 4000.0 4000.0 4000.0 4000.0 4000.0 4000.0 4000.0 4000.0 4000.0 4000.0 4000.0 4000.0 4000.0 4000.0 4000.0 4000.0 4000.0 4000.0 4000.0 4000.0 4000.0 4000.0 4000.0 4000.0 4000.0 4000.0 4000.0 4000.0 4000.0 4000.0 4000.0 4000.0 4000.0 4000.0 4000.0 4000.0 4000.0 4000.0 4000.0 4000.0 4000.0 4000.0 4000.0 4000.0 4000.0 4000.0 4000.0 4000.0 4000.0 4000.0 4000.0 4000.0 4000.0 4000.0 4000.0 4000.0 4000.0 4000.0 4000.0 4000.0 4000.0 4000.0 4000.0 4000.0 4000.0 4000.0 4000.0 4000.0 4000.0 4000.0 4000.0 4000.0 4000.0 4000.0 4000.0 4000.0 4000.0 4000.0 4000.0 4000.0 4000.0 4000.0 4000.0 4000.0 4000.0 4000.0 4000.0 4000.0 4000.0 4000.0 4000.0 4000.0 4000.0 4000.0 4000.0 4000.0 4000.0 4000.0 4000.0 4000.0 4000.0 4000.0 4000.0 4000.0 4000.0 4000.0 4000.0 4000.0 4000.0 4000.0 4000.0 4000.0 4000.0 4000.0 4000.0 4000.0 4000.0 4000.0 4000.0 4000.0 4000.0 4000.0 4000.0 4000.0 4000.0 4000.0 4000.0 4000.0 4000.0 4000.0 4000.0 4000.0 4000.0 4000.0 4000.0 4000.0 4000.0 4000.0 4000.0 4000.0 4000.0 4000.0 4000.0 4000.0 4000.0 4000.0 4000.0 4000.0 4000.0 4000.0 4000.0 4000.0 4000.0 4000.0 4000.0 4000.0 4000.0 4000.0 4000.0 4000.0 4000.0 4000.0 4000.0 4000.0 4000.0 4000.0 4000.0 4000.0 4000.0 4000.0 4000.0 4000.0 4000.0 4000.0 4000.0 4000.0 4000.0 4000.0 4000.0 4000.0 4000.0 4000.0 4000.0 4000.0 4000.0 4000.0 4000.0 4000.0 4000.0 4000.0 4000.0 4000.0 4000.0 4000.0 4000.0 4000.0 4000.0 4000.0 4000.0 4000.0 4000.0 4000.0 4000.0 4000.0 4000.0 4000.0 4000.0 4000.0 4000.0 4000.0 4000.0 4000.0 4000.0 4000.0 4000.0 4000.0 4000.0 4000.0 4000.0 4000.0 4000.0 4000.0 4000.0 4000.0 4000.0 4000.0 4000.0 4000.0 4000.0 4000.0 4000.0 4000.0 4000.0 4000.0 4000.0 4000.0 4000.0 4000.0 4000.0 4000.0 4000.0 4000.0 4000.0 4000.0 4000.0 4000.0 4000.0 4000.0 4000.0 4000.0 4000.0 4000.0 4000.0 4000.0 4000.0 4000.0 4000.0 4000.0 4000.0 4000.0 4000.0 4000.0 4000.0 4000.0 4000.0 4000.0 4000.0 4000.0 4000.0 4000.0 4000.0 4000.0 4000.0 4000.0 4000.0 4000.0 4000.0 4000.0 4000.0 4000.0 4000.0 4000.0 4000.0 4000.0 4000.0 4000.0 4000.0 4000.0 4000.0 4000.0 4000.0 4000.0 4000.0 4000.0 4000.0 4000.0 4000.0 4000.0 4000.0 4000.0 4000.0 4000.0 4000.0 4000.0 4000.0 4000.0 4000.0 4000.0 4000.0 4000.0 4000.0 4000.0 4000.0 4000.0 4000.0 4000.0 4000.0 4000.0 4000.0 4000.0 4000.0 4000.0 4000.0 4000.0 4000.0 4000.0 4000.0 4000.0 4000.0 4000.0 4000.0 4000.0 4000.0 4000.0 4000.0 4000.0 4000.0 4000.0 4000.0 4000.0 4000.0 4000.0 4000.0 4000.0 4000.0 4000.0 4000.0 4000.0 4000.0 4000.0 4000.0 4000.0 4000.0 4000.0 4000.0 4000.0 4000.0 4000.0 4000.0 4000.0 4000.0 4000.0 4000.0 4000.0 4000.0 4000.0 4000.0 4000.0 4000.0 4000.0 4000.0 4000.0 4000.0 4000.0 4000.0 4000.0 4000.0 4000.0 4000.0 4000.0 4000.0 4000.0 4000.0 4000.0 4000.0 4000.0 4000.0 4000.0 4000.0 4000.0 4000.0 4000.0 4000.0 4000.0 4000.0 4000.0 4000.0 4000.0 4000.0 4000.0 4000.0 4000.0 4000.0 4000.0 4000.0 4000.0 4000.0 4000.0 4000.0 4000.0 4000.0 4000.0 4000.0 4000.0 4000.0 4000.0 4000.0 4000.0 4000.0 4000.0 4000.0 4000.0 4000.0 4000.0 4000.0 4000.0 4000.0 4000.0 4000.0 4000.0 4000.0 4000.0 4000.0 4000.0 4000.0 4000.0 4000.0 4000.0 4000.0 4000.0 4000.0 4000.0 4000.0 4000.0 4000.0 4000.0 4000.0 4000.0 4000.0 4000.0 4000.0 4000.0 4000.0 4000.0 4000.0 4000.0 4000.0 4000.0 4000.0 4000.0 4000.0 4000.0 4000.0 4000.0 4000.0 4000.0 4000.0 4000.0 4000.0 4000.0 4000.0 4000.0 4000.0 4000.0 4000.0 4000.0 4000.0 4000.0 4000.0 4000.0 4000.0 4000.0 4000.0 4000.0 4000.0 4000.0 4000.0 4000.0 4000.0 4000.0 4000.0 4000.0 4000.0 4000.0 4000.0 4000.0 4000.0 4000.0 4000.0 4000.0 4000.0 4000.0 4000.0 4000.0 4000.0 4000.0 4000.0 4000.0 4000.0 4000.0 4000.0 4000.0 4000.0 4000.0 4000.0 4000.0 4000.0 4000.0 4000.0 4000.0 4000.0 4000.0 4000.0 4000.0 4000.0 4000.0 4000.0 4000.0 4000.0 4000.0 4000.0 4000.0 4000.0 4000.0 4000.0 4000.0 4000.0 4000.0 4000.0 4000.0 4000.0 4000.0 4000.0 4000.0 4000.0 4000.0 4000.0 4000.0 4000.0 4000.0 4000.0 4000.0 4000.0 4000.0 4000.0 4000.0 4000.0 4000.0 4000.0 4000.0 4000.0 4000.0 4000.0 4000.0 4000.0 4000.0 4000.0 4000.0 4000.0 4000.0 4000.0 4000.0 4000.0 4000.0 4000.0 4000.0 4000.0 4000.0 4000.0 4000.0 4000.0 4000.0 4000.0 4000.0 4000.0 4000.0 4000.0 4000.0 4000.0 4000.0 4000.0 4000.0 4000.0 4000.0 4000.0 4000.0 4000.0 4000.0 4000.0 4000.0 4000.0 4000.0 4000.0 4000.0 4000.0 4000.0 4000.0 4000.0 4000.0 4000.0 4000.0 4000.0 4000.0 4000.0 4000.0 4000.0 4000.0 4000.0 4000.0 4000.0 4000.0 4000.0 4000.0 4000.0 4000.0 4000.0 4000.0 4000.0 4000.0 4000.0 4000.0 4000.0 4000.0 4000.0 4000.0 4000.0 4000.0 4000.0 4000.0 4000.0 4000.0 4000.0 4000.0 4000.0 4000.0 4000.0 4000.0 4000.0 4000.0 4000.0 4000.0 4000.0 4000.0 4000.0 4000.0 4000.0 4000.0 4000.0 4000.0 4000.0 4000.0 4000.0 4000.0 4000.0 4000.0 4000.0 4000.0 4000.0 4000.0 4000.0 4000.0 4000.0 4000.0 4000.0 4000.0 4000.0 4000.0 4000.0 4000.0 4000.0 4000.0 4000.0 4000.0 4000.0 4000.0 4000.0 4000.0 4000.0 4000.0 4000.0 4000.0 4000.0 4000.0 4000.0 4000.0 4000.0 4000.0 4000.0 4000.0 4000.0 4000.0 4000.0 4000.0 4000.0 4000.0 4000.0 4000.0 4000.0 4000.0 4000.0 4000.0 4000.0 4000.0 4000.0 4000.0 4000.0 4000.0 4000.0 4000.0 4000.0 4000.0 4000.0 4000.0 4000.0 4000.0 4000.0 4000.0 4000.0 4000.0 4000.0 4000.0 4000.0 4000.0 4000.0 4000.0 4000.0 4000.0 4000.0 4000.0 4000.0 4000.0 4000.0 4000.0 4000.0 4000.0 4000.0 4000.0 4000.0 4000.0 4000.0 4000.0 4000.0 4000.0 4000.0 4000.0 4000.0 4000.0 4000.0 4000.0 4000.0 4000.0 4000.0 4000.0 4000.0 4000.0 4000.0 4000.0 4000.0 4000.0 4000.0 4000.0 4000.0 4000.0 4000.0 4000.0 4000.0 4000.0 4000.0 4000.0 4000.0 4000.0 4000.0 4000.0 4000.0 4000.0 4000.0 4000.0 4000.0 4000.0 4000.0 4000.0 4000.0 4000.0 4000.0 4000.0 4000.0 4000.0 4000.0 4000.0 4000.0 4000.0 4000.0 4000.0 4000.0 4000.0 4000.0 4000.0 4000.0 4000.0 4000.0 4000.0 4000.0 4000.0 4000.0 4000.0 4000.0 4000.0 4000.0 4000.0 4000.0 4000.0 4000.0 4000.0 4000.0 4000.0 4000.0 4000.0 4000.0 4000.0 4000.0 4000.0 4000.0 4000.0 4000.0 4000.0 4000.0 4000.0 4000.0 4000.0 4000.0 4000.0 4000.0 4000.0 4000.0 4000.0 4000.0 4000.0 4000.0 4000.0 4000.0 4000.0 4000.0 4000.0 4000.0 4000.0 4000.0 4000.0 4000.0 4000.0 4000.0 4000.0 4000.0 4000.0 4000.0 4000.0 4000.0 4000.0 4000.0 4000.0 4000.0 4000.0 4000.0 4000.0 4000.0 4000.0 4000.0 4000.0 4000.0 4000.0 4000.0 4000.0 4000.0 4000.0 4000.0 4000.0 4000.0 4000.0 4000.0 4000.0 4000.0 4000.0 4000.0 4000.0 4000.0 4000.0 4000.0 4000.0 4000.0 4000.0 4000.0 4000.0 4000.0 4000.0 4000.0 4000.0 4000.0 4000.0 4000.0 4000.0 4000.0 4000.0 4000.0 4000.0 4000.0 4000.0 4000.0 4000.0 4000.0 4000.0 4000.0 4000.0 4000.0 4000.0 4000.0 4000.0 4000.0 4000.0 4000.0 4000.0 4000.0 4000.0 4000.0 4000.0 4000.0 4000.0 4000.0 4000.0 4000.0 4000.0 4000.0 4000.0 4000.0 4000.0 4000.0 4000.0 4000.0 4000.0 4000.0 4000.0 4000.0 4000.0 4000.0 4000.0 4000.0 4000.0 4000.0 4000.0 4000.0 4000.0 4000.0 4000.0 4000.0 4000.0 4000.0 4000.0 4000.0 4000.0 4000.0 4000.0 4000.0 4000.0 4000.0 4000.0 4000.0 4000.0 4000.0 4000.0 4000.0 4000.0 4000.0 4000.0 4000.0 4000.0 4000.0 4000.0 4000.0 4000.0 4000.0 4000.0 4000.0 4000.0 4000.0 4000.0 4000.0 4000.0 4000.0 4000.0 4000.0 4000.0 4000.0 4000.0 4000.0 4000.0 4000.0 4000.0 4000.0 4000.0 4000.0 4000.0 4000.0 4000.0 4000.0 4000.0 4000.0 4000.0 4000.0 4000.0 4000.0 4000.0 4000.0 4000.0 4000.0 4000.0 4000.0 4000.0 4000.0 4000.0 4000.0 4000.0 4000.0 4000.0 4000.0 4000.0 4000.0 4000.0 4000.0 4000.0 4000.0 4000.0 4000.0 4000.0 4000.0 4000.0 4000.0 4000.0 4000.0 4000.0 4000.0 4000.0 4000.0 4000.0 4000.0 4000.0 4000.0 4000.0 4000.0 4000.0 4000.0 4000.0 4000.0 4000.0 4000.0 4000.0 4000.0 4000.0 4000.0 4000.0 4000.0 4000.0 4000.0 4000.0 4000.0 4000.0 4000.0 4000.0 4000.0 4000.0 4000.0 4000.0 4000.0 4000.0 4000.0 4000.0 4000.0 4000.0 4000.0 4000.0 4000.0 4000.0 4000.0 4000.0 4000.0 4000.0 4000.0 4000.0 4000.0 4000.0 4000.0 4000.0 4000.0 4000.0 4000.0 4000.0 4000.0 4000.0 4000.0 4000.0 4000.0 4000.0 4000.0 4000.0 4000.0 4000.0 4000.0 4000.0 4000.0 4000.0 4000.0 4000.0 4000.0 4000.0 4000.0 4000.0 4000.0 4000.0 4000.0 4000.0 4000.0 4000.0 4000.0 4000.0 4000.0 4000.0 4000.0 4000.0 4000.0 4000.0 4000.0 4000.0 4000.0 4000.0 4000.0 4000.0 4000.0 4000.0 4000.0 4000.0 4000.0 4000.0 4000.0 4000.0 4000.0 4000.0 4000.0 4000.0 4000.0 4000.0 4000.0 4000.0 4000.0 4000.0 4000.0 4000.0 4000.0 4000.0 4000.0 4000.0 4000.0 4000.0 4000.0 4000.0 4000.0 4000.0 4000.0 4000.0 4000.0 4000.0 4000.0 4000.0 4000.0 4000.0 4000.0 4000.0 4000.0 4000.0 4000.0 4000.0 4000.0 4000.0 4000.0 4000.0 4000.0 4000.0 4000.0 4000.0 4000.0 4000.0 4000.0 4000.0 4000.0 4000.0 4000.0 4000.0 4000.0 4000.0 4000.0 4000.0 4000.0 4000.0 4000.0 4000.0 4000.0 4000.0 4000.0 4000.0 4000.0 4000.0 4000.0 4000.0 4000.0 4000.0 4000.0 4000.0 4000.0 4000.0 4000.0 4000.0 4000.0 4000.0 4000.0 4000.0 4000.0 4000.0 4000.0 4000.0 4000.0 4000.0 4000.0 4000.0 4000.0 4000.0 4000.0 4000.0 4000.0 4000.0 4000.0 4000.0 4000.0 4000.0 4000.0 4000.0 4000.0 4000.0 4000.0 4000.0 4000.0 4000.0 4000.0 4000.0 4000.0 4000.0 4000.0 4000.0 4000.0 4000.0 4000.0 4000.0 4000.0 4000.0 4000.0 4000.0 4000.0 4000.0 4000.0 4000.0 4000.0 4000.0 4000.0 4000.0 4000.0 4000.0 4000.0 4000.0 4000.0 4000.0 4000.0 4000.0 4000.0 4000.0 4000.0 4000.0 4000.0 4000.0 4000.0 4000.0 4000.0 4000.0 4000.0 4000.0 4000.0 4000.0 4000.0 4000.0 4000.0 4000.0 4000.0 4000.0 4000.0 4000.0 4000.0 4000.0 4000.0 4000.0 4000.0 4000.0 4000.0 4000.0 4000.0 4000.0 4000.0 4000.0 4000.0 4000.0 4000.0 4000.0 4000.0 4000.0 4000.0 4000.0 4000.0 4000.0 4000.0 4000.0 4000.0 4000.0 4000.0 4000.0 4000.0 4000.0 4000.0 4000.0 4000.0 4000.0 4000.0 4000.0 4000.0 4000.0 4000.0 4000.0 4000.0 4000.0 4000.0 4000.0 4000.0 4000.0 4000.0 4000.0 4000.0 4000.0 4000.0 4000.0 4000.0 4000.0 4000.0 4000.0 4000.0 4000.0 4000.0 4000.0 4000.0 4000.0 4000.0 4000.0 4000.0 4000.0 4000.0 4000.0 4000.0 4000.0 4000.0 4000.0 4000.0 4000.0 4000.0 4000.0 4000.0 4000.0 4000.0 4000.0 4000.0 4000.0 4000.0 4000.0 4000.0 4000.0 4000.0 4000.0 4000.0 4000.0 4000.0 4000.0 4000.0 4000.0 4000.0 4000.0 4000.0 4000.0 4000.0 4000.0 4000.0 4000.0 4000.0 4000.0 4000.0 4000.0 4000.0 4000.0 4000.0 4000.0 4000.0 4000.0 4000.0 4000.0 4000.0 4000.0 4000.0 4000.0 4000.0 4000.0 4000.0 4000.0 4000.0 4000.0 4000.0 4000.0 4000.0 4000.0 4000.0 4000.0 4000.0 4000.0 4000.0 4000.0 4000.0 4000.0 4000.0 4000.0 4000.0 4000.0 4000.0 4000.0 4000.0 4000.0 4000.0 4000.0 4000.0 4000.0 4000.0 4000.0 4000.0 4000.0 4000.0 4000.0 4000.0 4000.0 4000.0 4000.0 4000.0 4000.0 4000.0 4000.0 4000.0 4000.0 4000.0 4000.0 4000.0 4000.0 4000.0 4000.0 4000.0 4000.0 4000.0 4000.0 4000.0 4000.0 4000.0 4000.0 4000.0 4000.0 4000.0 4000.0 4000.0 4000.0 4000.0 4000.0 4000.0 4000.0 4000.0 4000.0 4000.0 4000.0 4000.0 4000.0 4000.0 4000.0 4000.0 4000.0 4000.0 4000.0 4000.0 4000.0 4000.0 4000.0 4000.0 4000.0 4000.0 4000.0 4000.0 4000.0 4000.0 4000.0 4000.0 4000.0 4000.0 4000.0 4000.0 4000.0 4000.0 4000.0 4000.0 4000.0 4000.0 4000.0 4000.0 4000.0 4000.0 4000.0 4000.0 4000.0 4000.0 4000.0 4000.0 4000.0 4000.0 4000.0 4000.0 4000.0 4000.0 4000.0 4000.0 4000.0 4000.0 4000.0 4000.0 4000.0 4000.0 4000.0 4000.0 4000.0 4000.0 4000.0 4000.0 4000.0 4000.0 4000.0 4000.0 4000.0 4000.0 4000.0 4000.0 4000.0 4000.0 4000.0 4000.0 4000.0 4000.0 4000.0 4000.0 4000.0 4000.0 4000.0 4000.0 4000.0 4000.0 4000.0 4000.0 4000.0 4000.0 4000.0 4000.0 4000.0 4000.0 4000.0 4000.0 4000.0 4000.0 4000.0 4000.0 4000.0 4000.0 4000.0 4000.0 4000.0 4000.0 4000.0 4000.0 4000.0 4000.0 4000.0 4000.0 4000.0 4000.0 4000.0 4000.0 4000.0 4000.0 4000.0 4000.0 4000.0 4000.0 4000.0 4000.0 4000.0 4000.0 4000.0 4000.0 4000.0 4000.0 4000.0 4000.0 4000.0 4000.0 4000.0 4000.0 4000.0 4000.0 4000.0 4000.0 4000.0 4000.0 4000.0 4000.0 4000.0 4000.0 4000.0 4000.0 4000.0 4000.0 4000.0 4000.0 4000.0 4000.0 4000.0 4000.0 4000.0 4000.0 4000.0 4000.0 4000.0 4000.0 4000.0 4000.0 4000.0 4000.0 4000.0 4000.0 4000.0 4000.0 4000.0 4000.0 4000.0 4000.0 4000.0 4000.0 4000.0 4000.0 4000.0 4000.0 4000.0 4000.0 4000.0 4000.0 4000.0 4000.0 4000.0 4000.0 4000.0 4000.0 4000.0 4000.0 4000.0 4000.0 4000.0 4000.0 4000.0 4000.0 4000.0 4000.0 4000.0 4000.0 4000.0 4000.0 4000.0 4000.0 4000.0 4000.0 4000.0 4000.0 4000.0 4000.0 4000.0 4000.0 4000.0 4000.0 4000.0 4000.0 4000.0 4000.0 4000.0 4000.0 4000.0 4000.0 4000.0 4000.0 4000.0 4000.0 4000.0 4000.0 4000.0 4000.0 4000.0 4000.0 4000.0 4000.0 4000.0 4000.0 4000.0 4000.0 4000.0 4000.0 4000.0 4000.0 4000.0 4000.0 4000.0 4000.0 4000.0 4000.0 4000.0 4000.0 4000.0 4000.0 4000.0 4000.0 4000.0 4000.0 4000.0 4000.0 4000.0 4000.0 4000.0 4000.0 4000.0 4000.0 4000.0 4000.0 4000.0 4000.0 4000.0 4000.0 4000.0 4000.0 4000.0 4000.0 4000.0 4000.0 4000.0 4000.0 4000.0 4000.0 4000.0 4000.0 4000.0 4000.0 4000.0 4000.0 4000.0 4000.0 4000.0 4000.0 4000.0 4000.0 4000.0 4000.0 4000.0 4000.0 4000.0 4000.0 4000.0 4000.0 4000.0 4000.0 4000.0 4000.0 4000.0 4000.0 4000.0 4000.0 4000.0 4000.0 4000.0 4000.0 4000.0 4000.0 4000.0 4000.0 4000.0 4000.0 4000.0 4000.0 4000.0 4000.0 4000.0 4000.0 4000.0 4000.0 4000.0 4000.0 4000.0 4000.0 4000.0 4000.0 4000.0 4000.0 4000.0 4000.0 4000.0 4000.0 4000.0 4000.0 4000.0 4000.0 4000.0 4000.0 4000.0 4000.0 4000.0 4000.0 4000.0 4000.0 4000.0 4000.0 4000.0 4000.0 4000.0 4000.0 4000.0 4000.0 4000.0 4000.0 4000.0 4000.0 4000.0 4000.0 4000.0 4000.0 4000.0 4000.0 4000.0 4000.0 4000.0 4000.0 4000.0 4000.0 4000.0 4000.0 4000.0 4000.0 4000.0 4000.0 4000.0 4000.0 4000.0 4000.0 4000.0 4000.0 4000.0 4000.0 4000.0 4000.0 4000.0 4000.0 4000.0 4000.0 4000.0 4000.0 4000.0 4000.0 4000.0 4000.0 4000.0 4000.0 4000.0 4000.0 4000.0 4000.0 4000.0 4000.0 4000.0 4000.0 4000.0 4000.0 4000.0 4000.0 4000.0 4000.0 4000.0 4000.0 4000.0 4000.0 4000.0 4000.0 4000.0 4000.0 4000.0 4000.0 4000.0 4000.0 4000.0 4000.0 4000.0 4000.0 4000.0 4000.0 4000.0 4000.0 4000.0 4000.0 4000.0 4000.0 4000.0 4000.0 4000.0 4000.0 4000.0 4000.0 4000.0 4000.0 4000.0 4000.0 4000.0 4000.0 4000.0 4000.0 4000.0 4000.0 4000.0 4000.0 4000.0 4000.0 4000.0 4000.0 4000.0 4000.0 4000.0 4000.0 4000.0 4000.0 4000.0 4000.0 4000.0 4000.0 4000.0 4000.0 4000.0 4000.0 4000.0 4000.0 4000.0 4000.0 4000.0 4000.0 4000.0 4000.0 4000.0 4000.0 4000.0 4000.0 4000.0 4000.0 4000.0 4000.0 4000.0 4000.0 4000.0 4000.0 4000.0 4000.0 4000.0 4000.0 4000.0 4000.0 4000.0 4000.0 4000.0 4000.0 4000.0 4000.0 4000.0 4000.0 4000.0 4000.0 4000.0 4000.0 4000.0 4000.0 4000.0 4000.0 4000.0 4000.0 4000.0 4000.0 4000.0 4000.0 4000.0 4000.0 4000.0 4000.0 4000.0 4000.0 4000.0 4000.0 4000.0 4000.0 4000.0 4000.0 4000.0 4000.0 4000.0 4000.0 4000.0 4000.0 4000.0 4000.0 4000.0 4000.0 4000.0 4000.0 4000.0 4000.0 4000.0 4000.0 4000.0 4000.0 4000.0 4000.0 4000.0 4000.0 4000.0 4000.0 4000.0 4000.0 4000.0 4000.0 4000.0 4000.0 4000.0 4000.0 4000.0 4000.0 4000.0 4000.0 4000.0 4000.0 4000.0 4000.0 4000.0 4000.0 4000.0 4000.0 4000.0 4000.0 4000.0 4000.0 4000.0 4000.0 4000.0 4000.0 4000.0 4000.0 4000.0 4000.0 4000.0 4000.0 4000.0 4000.0 4000.0 4000.0 4000.0 4000.0 4000.0 4000.0 4000.0 4000.0 4000.0 4000.0 4000.0 4000.0 4000.0 4000.0 4000.0 4000.0 4000.0 4000.0 4000.0 4000.0 4000.0 4000.0 4000.0 4000.0 4000.0 4000.0 4000.0 4000.0 4000.0 4000.0 4000.0 4000.0 4000.0 4000.0 4000.0 4000.0 4000.0 4000.0 4000.0 4000.0 4000.0 4000.0 4000.0 4000.0 4000.0 4000.0 4000.0 4000.0 4000.0 4000.0 4000.0 4000.0 4000.0 4000.0 4000.0 4000.0 4000.0 4000.0 4000.0 4000.0 4000.0 4000.0 4000.0 4000.0 4000.0 4000.0 4000.0 4000.0 4000.0 4000.0 4000.0 4000.0 4000.0 4000.0 4000.0 4000.0 4000.0 4000.0 4000.0 4000.0 4000.0 4000.0 4000.0 4000.0 4000.0 4000.0 4000.0 4000.0 4000.0 4000.0 4000.0 4000.0 4000.0 4000.0 4000.0 4000.0 4000.0 4000.0 4000.0 4000.0 4000.0 4000.0 4000.0 4000.0 4000.0 4000.0 4000.0 4000.0 4000.0 4000.0 4000.0 4000.0 4000.0 4000.0 4000.0 4000.0 4000.0 4000.0 4000.0 4000.0 4000.0 4000.0 4000.0 4000.0 4000.0 4000.0 4000.0 4000.0 4000.0 4000.0 4000.0 4000.0 4000.0 4000.0 4000.0 4000.0 4000.0 4000.0 4000.0 4000.0 4000.0 4000.0 4000.0 4000.0 4000.0 4000.0 4000.0 4000.0 4000.0 4000.0 4000.0 4000.0 4000.0 4000.0 4000.0 4000.0 4000.0 4000.0 4000.0 4000.0 4000.0 4000.0 4000.0 4000.0 4000.0 4000.0 4000.0 4000.0 4000.0 4000.0 4000.0 4000.0 4000.0 4000.0 4000.0 4000.0 4000.0 4000.0 4000.0 4000.0 4000.0 4000.0 4000.0 4000.0 4000.0 4000.0 4000.0 4000.0 4000.0 4000.0 4000.0 4000.0 4000.0 4000.0 4000.0 4000.0 4000.0 4000.0 4000.0 4000.0 4000.0 4000.0 4000.0 4000.0 4000.0 4000.0 4000.0 4000.0 4000.0 4000.0 4000.0 4000.0 4000.0 4000.0 4000.0 4000.0 4000.0 4000.0 4000.0 4000.0 4000.0 4000.0 4000.0 4000.0 4000.0 4000.0 4000.0 4000.0 4000.0 4000.0 4000.0 4000.0 4000.0 4000.0 4000.0 4000.0 4000.0 4000.0 4000.0 4000.0 4000.0 4000.0 4000.0 4000.0 4000.0 4000.0 4000.0 4000.0 4000.0 4000.0 4000.0 4000.0 4000.0 4000.0 4000.0 4000.0 4000.0 4000.0 4000.0 4000.0 4000.0 4000.0 4000.0 4000.0 4000.0 4000.0 4000.0 4000.0 4000.0 4000.0 4000.0 4000.0 4000.0 4000.0 4000.0 4000.0 4000.0 4000.0 4000.0 4000.0 4000.0 4000.0 4000.0 4000.0 4000.0 4000.0 4000.0 4000.0 4000.0 4000.0 4000.0 4000.0 4000.0 4000.0 4000.0 4000.0 4000.0 4000.0 4000.0 4000.0 4000.0 4000.0 4000.0 4000.0 4000.0 4000.0 4000.0 4000.0 4000.0 4000.0 4000.0 4000.0 4000.0 4000.0 4000.0 4000.0 4000.0 4000.0 4000.0 4000.0 4000.0 4000.0 4000.0 4000.0 4000.0 4000.0 4000.0 4000.0 4000.0 4000.0 4000.0 4000.0 4000.0 4000.0 4000.0 4000.0 4000.0 4000.0 4000.0 4000.0 4000.0 4000.0 4000.0 4000.0 4000.0 4000.0 4000.0 4000.0 4000.0 4000.0 4000.0 4000.0 4000.0 4000.0 4000.0 4000.0 4000.0 4000.0 4000.0 4000.0 4000.0 4000.0 4000.0 4000.0 4000.0 4000.0 4000.0 4000.0 4000.0 4000.0 4000.0 4000.0 4000.0 4000.0 4000.0 4000.0 4000.0 4000.0 4000.0 4000.0 4000.0 4000.0 4000.0 4000.0 4000.0 4000.0 4000.0 4000.0 4000.0 4000.0 4000.0 4000.0 4000.0 4000.0 4000.0 4000.0 4000.0 4000.0 4000.0 4000.0 4000.0 4000.0 4000.0 4000.0 4000.0 4000.0 4000.0 4000.0 4000.0 4000.0 4000.0 4000.0 4000.0 4000.0 4000.0 4000.0 4000.0 4000.0 4000.0 4000.0 4000.0 4000.0 4000.0 4000.0 4000.0 4000.0 4000.0 4000.0 4000.0 4000.0 4000.0 4000.0 4000.0 4000.0 4000.0 4000.0 4000.0 4000.0 4000.0 4000.0 4000.0 4000.0 4000.0 4000.0 4000.0 4000.0 4000.0 4000.0 4000.0 4000.0 4000.0 4000.0 4000.0 4000.0 4000.0 4000.0 4000.0 4000.0 4000.0 4000.0 4000.0 4000.0 4000.0 4000.0 4000.0 4000.0 4000.0 4000.0 4000.0 4000.0 4000.0 4000.0 4000.0 4000.0 4000.0 4000.0 4000.0 4000.0 4000.0 4000.0 4000.0 4000.0 4000.0 4000.0 4000.0 4000.0 4000.0 4000.0 4000.0 4000.0 4000.0 4000.0 4000.0 4000.0 4000.0 4000.0 4000.0 4000.0 4000.0 4000.0 4000.0 4000.0 4000.0 4000.0 4000.0 4000.0 4000.0 4000.0 4000.0 4000.0 4000.0 4000.0 4000.0 4000.0 4000.0 4000.0 4000.0 4000.0 4000.0 4000.0 4000.0 4000.0 4000.0 4000.0 4000.0 4000.0 4000.0 4000.0 4000.0 4000.0 4000.0 4000.0 4000.0 4000.0 4000.0 4000.0 4000.0 4000.0 4000.0 4000.0 4000.0 4000.0 4000.0 4000.0 4000.0 4000.0 4000.0 4000.0 4000.0 4000.0 4000.0 4000.0 4000.0 4000.0 4000.0 4000.0 4000.0 4000.0 4000.0 4000.0 4000.0 4000.0 4000.0 4000.0 4000.0 4000.0 4000.0 4000.0 4000.0 4000.0 4000.0 4000.0 4000.0 4000.0 4000.0 4000.0 4000.0 4000.0 4000.0 4000.0 4000.0 4000.0 4000.0 4000.0 4000.0 4000.0 4000.0 4000.0 4000.0 4000.0 4000.0 4000.0 4000.0 4000.0 4000.0 4000.0 4000.0 4000.0 4000.0 4000.0 4000.0 4000.0 4000.0 4000.0 4000.0 4000.0 4000.0 4000.0 4000.0 4000.0 4000.0 4000.0 4000.0 4000.0 4000.0 4000.0 4000.0 4000.0 4000.0 4000.0 4000.0 4000.0 4000.0 4000.0 4000.0 4000.0 4000.0 4000.0 4000.0 4000.0 4000.0 4000.0 4000.0 4000.0 4000.0 4000.0 4000.0 4000.0 4000.0 4000.0 4000.0 4000.0 4000.0 4000.0 4000.0 4000.0 4000.0 4000.0 4000.0 4000.0 4000.0 4000.0 4000.0 4000.0 4000.0 4000.0 4000.0 4000.0 4000.0 4000.0 4000.0 4000.0 4000.0 4000.0 4000.0 4000.0 4000.0 4000.0 4000.0 4000.0 4000.0 4000.0 4000.0 4000.0 4000.0 4000.0 4000.0 4000.0 4000.0 4000.0 4000.0 4000.0 4000.0 4000.0 4000.0 4000.0 4000.0 4000.0 4000.0 4000.0 4000.0 4000.0 4000.0 4000.0 4000.0 4000.0 4000.0 4000.0 4000.0 4000.0 4000.0 4000.0 4000.0 4000.0 4000.0 4000.0 4000.0 4000.0 4000.0 4000.0 4000.0 4000.0 4000.0 4000.0 4000.0 4000.0 4000.0 4000.0 4000.0 4000.0 4000.0 4000.0 4000.0 4000.0 4000.0 4000.0 4000.0 4000.0 4000.0 4000.0 4000.0 4000.0 4000.0 4000.0 4000.0 4000.0 4000.0 4000.0 4000.0 4000.0 4000.0 4000.0 4000.0 4000.0 4000.0 4000.0 4000.0 4000.0 4000.0 4000.0 4000.0 4000.0 4000.0 4000.0 4000.0 4000.0 4000.0 4000.0 4000.0 4000.0 4000.0 4000.0 4000.0 4000.0 4000.0 4000.0 4000.0 4000.0 4000.0 4000.0 4000.0 4000.0 4000.0 4000.0 4000.0 4000.0 4000.0 4000.0 4000.0 4000.0 4000.0 4000.0 4000.0 4000.0 4000.0 4000.0 4000.0 4000.0 4000.0 4000.0 4000.0 4000.0 4000.0 4000.0 4000.0 4000.0 4000.0 4000.0 4000.0 4000.0 4000.0 4000.0 4000.0 4000.0 4000.0 4000.0 4000.0 4000.0 4000.0 4000.0 4000.0 4000.0 4000.0 4000.0 4000.0 4000.0 4000.0 4000.0 4000.0 4000.0 4000.0 4000.0 4000.0 4000.0 4000.0 4000.0 4000.0 4000.0 4000.0 4000.0 4000.0 4000.0 4000.0 4000.0 4000.0 4000.0 4000.0 4000.0 4000.0 4000.0 4000.0 4000.0 4000.0 4000.0 4000.0 4000.0 4000.0 4000.0 4000.0 4000.0 4000.0 4000.0 4000.0 4000.0 4000.0 4000.0 4000.0 4000.0 4000.0 4000.0 4000.0 4000.0 4000.0 4000.0 4000.0 4000.0 4000.0 4000.0 4000.0 4000.0 4000.0 4000.0 4000.0 4000.0 4000.0 4000.0 4000.0 4000.0 4000.0 4000.0 4000.0 4000.0 4000.0 4000.0 4000.0 4000.0 4000.0 4000.0 4000.0 4000.0 4000.0 4000.0 4000.0 4000.0 4000.0 4000.0 4000.0 4000.0 4000.0 4000.0 4000.0 4000.0 4000.0 4000.0 4000.0 4000.0 4000.0 4000.0 4000.0 4000.0 4000.0 4000.0 4000.0 4000.0 4000.0 4000.0 4000.0 4000.0 4000.0 4000.0 4000.0 4000.0 4000.0 4000.0 4000.0 4000.0 4000.0 4000.0 4000.0 4000.0 4000.0 4000.0 4000.0 4000.0 4000.0 4000.0 4000.0 4000.0 4000.0 4000.0 4000.0 4000.0 4000.0 4000.0 4000.0 4000.0 4000.0 4000.0 4000.0 4000.0 4000.0 4000.0 4000.0 4000.0 4000.0 4000.0 4000.0 4000.0 4000.0 4000.0 4000.0 4000.0 4000.0 4000.0 4000.0 4000.0 4000.0 4000.0 4000.0 4000.0 4000.0 4000.0 4000.0 4000.0 4000.0 4000.0 4000.0 4000.0 4000.0 4000.0 4000.0 4000.0 4000.0 4000.0 4000.0 4000.0 4000.0 4000.0 4000.0 4000.0 4000.0 4000.0 4000.0 4000.0 4000.0 4000.0 4000.0 4000.0 4000.0 4000.0 4000.0 4000.0 4000.0 4000.0 4000.0 4000.0 4000.0 4000.0 4000.0 4000.0 4000.0 4000.0 4000.0 4000.0 4000.0 4000.0 4000.0 4000.0 4000.0 4000.0 4000.0 4000.0 4000.0 4000.0 4000.0 4000.0 4000.0 4000.0 4000.0 4000.0 4000.0 4000.0 4000.0 4000.0 4000.0 4000.0 4000.0 4000.0 4000.0 4000.0 4000.0 4000.0 4000.0 4000.0 4000.0 4000.0 4000.0 4000.0 4000.0 4000.0 4000.0 4000.0 4000.0 4000.0 4000.0 4000.0 4000.0 4000.0 4000.0 4000.0 4000.0 4000.0 4000.0 4000.0 4000.0 4000.0 4000.0 4000.0 4000.0 4000.0 4000.0 4000.0 4000.0 4000.0 4000.0 4000.0 4000.0 4000.0 4000.0 4000.0 4000.0 4000.0 4000.0 4000.0 4000.0 4000.0 4000.0 4000.0 4000.0 4000.0 4000.0 4000.0 4000.0 4000.0 4000.0 4000.0 4000.0 4000.0 4000.0 4000.0 4000.0 4000.0 4000.0 4000.0 4000.0 4000.0 4000.0 4000.0 4000.0 4000.0 4000.0 4000.0 4000.0 4000.0 4000.0 4000.0 4000.0 4000.0 4000.0 4000.0 4000.0 4000.0 4000.0 4000.0 4000.0 4000.0 4000.0 4000.0 4000.0 4000.0 4000.0 4000.0 4000.0 4000.0 4000.0 4000.0 4000.0 4000.0 4000.0 4000.0 4000.0 4000.0 4000.0 4000.0 4000.0 4000.0 4000.0 4000.0 4000.0 4000.0 4000.0 4000.0 4000.0 4000.0 4000.0 4000.0 4000.0 4000.0 4000.0 4000.0 4000.0 4000.0 4000.0 4000.0 4000.0 4000.0 4000.0 4000.0 4000.0 4000.0 4000.0 4000.0 4000.0 4000.0 4000.0 4000.0 4000.0 4000.0 4000.0 4000.0 4000.0 4000.0 4000.0 4000.0 4000.0 4000.0 4000.0 4000.0 4000.0 4000.0 4000.0 4000.0 4000.0 4000.0 4000.0 4000.0 4000.0 4000.0 4000.0 4000.0 4000.0 4000.0 4000.0 4000.0 4000.0 4000.0 4000.0 4000.0 4000.0 4000.0 4000.0 4000.0 4000.0 4000.0 4000.0 4000.0 4000.0 4000.0 4000.0 4000.0 4000.0 4000.0 4000.0 4000.0 4000.0 4000.0 4000.0 4000.0 4000.0 4000.0 4000.0 4000.0 4000.0 4000.0 4000.0 4000.0 4000.0 4000.0 4000.0 4000.0 4000.0 4000.0 4000.0 4000.0 4000.0 4000.0 4000.0 4000.0 4000.0 4000.0 4000.0 4000.0 4000.0 4000.0 4000.0 4000.0 4000.0 4000.0 4000.0 4000.0 4000.0 4000.0 4000.0 4000.0 4000.0 4000.0 4000.0 4000.0 4000.0 4000.0 4000.0 4000.0 4000.0 4000.0 4000.0 4000.0 4000.0 4000.0 4000.0 4000.0 4000.0 4000.0 4000.0 4000.0 4000.0 4000.0 4000.0 4000.0 4000.0 4000.0 4000.0 4000.0 4000.0 4000.0 4000.0 4000.0 4000.0 4000.0 4000.0 4000.0 4000.0 4000.0 4000.0 4000.0 4000.0 4000.0 4000.0 4000.0 4000.0 4000.0 4000.0 4000.0 4000.0 4000.0 4000.0 4000.0 4000.0 4000.0 4000.0 4000.0 4000.0 4000.0 4000.0 4000.0 4000.0 4000.0 4000.0 4000.0 4000.0 4000.0 4000.0 4000.0 4000.0 4000.0 4000.0 4000.0 4000.0 4000.0 4000.0 4000.0 4000.0 4000.0 4000.0 4000.0 4000.0 4000.0 4000.0 4000.0 4000.0 4000.0 4000.0 4000.0 4000.0 4000.0 4000.0 4000.0 4000.0 4000.0 4000.0 4000.0 4000.0 4000.0 4000.0 4000.0 4000.0 4000.0 4000.0 4000.0 4000.0 4000.0 4000.0 4000.0 4000.0 4000.0 4000.0 4000.0 4000.0 4000.0 4000.0 4000.0 4000.0 4000.0 4000.0 4000.0 4000.0 4000.0 4000.0 4000.0 4000.0 4000.0 4000.0 4000.0 4000.0 4000.0 4000.0 4000.0 4000.0 4000.0 4000.0 4000.0 4000.0 4000.0 4000.0 4000.0 4000.0 4000.0 4000.0 4000.0 4000.0 4000.0 4000.0 4000.0 4000.0 4000.0 4000.0 4000.0 4000.0 4000.0 4000.0 4000.0 4000.0 4000.0 4000.0 4000.0 4000.0 4000.0 4000.0 4000.0 4000.0 4000.0 4000.0 4000.0 4000.0 4000.0 4000.0 4000.0 4000.0 4000.0 4000.0 4000.0 4000.0 4000.0 4000.0 4000.0 4000.0 4000.0 4000.0 4000.0 4000.0 4000.0 4000.0 4000.0 4000.0 4000.0 4000.0 4000.0 4000.0 4000.0 4000.0 4000.0 4000.0 4000.0 4000.0 4000.0 4000.0 4000.0 4000.0 4000.0 4000.0 4000.0 4000.0 4000.0 4000.0 4000.0 4000.0 4000.0 4000.0 4000.0 4000.0 4000.0 4000.0 4000.0 4000.0 4000.0 4000.0 4000.0 4000.0 4000.0 4000.0 4000.0 4000.0 4000.0 4000.0 4000.0 4000.0 4000.0 4000.0 4000.0 4000.0 4000.0 4000.0 4000.0 4000.0 4000.0 4000.0 4000.0 4000.0 4000.0 4000.0 4000.0 4000.0 4000.0 4000.0 4000.0 4000.0 4000.0 4000.0 4000.0 4000.0 4000.0 4000.0 4000.0 4000.0 4000.0 4000.0 4000.0 4000.0 4000.0 4000.0 4000.0 4000.0 4000.0 4000.0 4000.0 4000.0 4000.0 4000.0 4000.0 4000.0 4000.0 4000.0 4000.0 4000.0 4000.0 4000.0 4000.0 4000.0 4000.0 4000.0 4000.0 4000.0 4000.0 4000.0 4000.0 4000.0 4000.0 4000.0 4000.0 4000.0 4000.0 4000.0 4000.0 4000.0 4000.0 4000.0 4000.0 4000.0 4000.0 4000.0 4000.0 4000.0 4000.0 4000.0 4000.0 4000.0 4000.0 4000.0 4000.0 4000.0 4000.0 4000.0 4000.0 4000.0 4000.0 4000.0 4000.0 4000.0 4000.0 4000.0 4000.0 4000.0 4000.0 4000.0 4000.0 4000.0 4000.0 4000.0 4000.0 4000.0 4000.0 4000.0 4000.0 4000.0 4000.0 4000.0 4000.0 4000.0 4000.0 4000.0 4000.0 4000.0 4000.0 4000.0 4000.0 4000.0 4000.0 4000.0 4000.0 4000.0 4000.0 4000.0 4000.0 4000.0 4000.0 4000.0 4000.0 4000.0 4000.0 4000.0 4000.0 4000.0 4000.0 4000.0 4000.0 4000.0 4000.0 4000.0 4000.0 4000.0 4000.0 4000.0 4000.0 4000.0 4000.0 4000.0 4000.0 4000.0 4000.0 4000.0 4000.0 4000.0 4000.0 4000.0 4000.0 4000.0 4000.0 4000.0 4000.0 4000.0 4000.0 4000.0 4000.0 4000.0 4000.0 4000.0 4000.0 4000.0 4000.0 4000.0 4000.0 4000.0 4000.0 4000.0 4000.0 4000.0 4000.0 4000.0 4000.0 4000.0 4000.0 4000.0 4000.0 4000.0 4000.0 4000.0 4000.0 4000.0 4000.0 4000.0 4000.0 4000.0 4000.0 4000.0 4000.0 4000.0 4000.0 4000.0 4000.0 4000.0 4000.0 4000.0 4000.0 4000.0 4000.0 4000.0 4000.0 4000.0 4000.0 4000.0 4000.0 4000.0 4000.0 4000.0 4000.0 4000.0 4000.0 4000.0 4000.0 4000.0 4000.0 4000.0 4000.0 4000.0 4000.0 4000.0 4000.0 4000.0 4000.0 4000.0 4000.0 4000.0 4000.0 4000.0 4000.0 4000.0 4000.0 4000.0 4000.0 4000.0 4000.0 4000.0 4000.0 4000.0 4000.0 4000.0 4000.0 4000.0 4000.0 4000.0 4000.0 4000.0 4000.0 4000.0 4000.0 4000.0 4000.0 4000.0 4000.0 4000.0 4000.0 4000.0 4000.0 4000.0 4000.0 4000.0 4000.0 4000.0 4000.0 4000.0 4000.0 4000.0 4000.0 4000.0 4000.0 4000.0 4000.0 4000.0 4000.0 4000.0 4000.0 4000.0 4000.0 4000.0 4000.0 4000.0 4000.0 4000.0 4000.0 4000.0 4000.0 4000.0 4000.0 4000.0 4000.0 4000.0 4000.0 4000.0 4000.0 4000.0 4000.0 4000.0 4000.0 4000.0 4000.0 4000.0 4000.0 4000.0 4000.0 4000.0 4000.0 4000.0 4000.0 4000.0 4000.0 4000.0 4000.0 4000.0 4000.0 4000.0 4000.0 4000.0 4000.0 4000.0 4000.0 4000.0 4000.0 4000.0 4000.0 4000.0 4000.0 4000.0 4000.0 4000.0 4000.0 4000.0 4000.0 4000.0 4000.0 4000.0 4000.0 4000.0 4000.0 4000.0 4000.0 4000.0 4000.0 4000.0 4000.0 4000.0 4000.0 4000.0 4000.0 4000.0 4000.0 4000.0 4000.0 4000.0 4000.0 4000.0 4000.0 4000.0 4000.0 4000.0 4000.0 4000.0 4000.0 4000.0 4000.0 4000.0 4000.0 4000.0 4000.0 4000.0 4000.0 4000.0 4000.0 4000.0 4000.0 4000.0 4000.0 4000.0 4000.0 4000.0 4000.0 4000.0 4000.0 4000.0 4000.0 4000.0 4000.0 4000.0 4000.0 4000.0 4000.0 4000.0 4000.0 4000.0 4000.0 4000.0 4000.0 4000.0 4000.0 4000.0 4000.0 4000.0 4000.0 4000.0 4000.0 4000.0 4000.0 4000.0 4000.0 4000.0 4000.0 4000.0 4000.0 4000.0 4000.0 4000.0 4000.0 4000.0 4000.0 4000.0 4000.0 4000.0 4000.0 4000.0 4000.0 4000.0 4000.0 4000.0 4000.0 4000.0 4000.0 4000.0 4000.0 4000.0 4000.0 4000.0 4000.0 4000.0 4000.0 4000.0 4000.0 4000.0 4000.0 4000.0 4000.0 4000.0 4000.0 4000.0 4000.0 4000.0 4000.0 4000.0 4000.0 4000.0 4000.0 4000.0 4000.0 4000.0 4000.0 4000.0 4000.0 4000.0 4000.0 4000.0 4000.0 4000.0 4000.0 4000.0 4000.0 4000.0 4000.0 4000.0 4000.0 4000.0 4000.0 4000.0 4000.0 4000.0 4000.0 4000.0 4000.0 4000.0 4000.0 4000.0 4000.0 4000.0 4000.0 4000.0 4000.0 4000.0 4000.0 4000.0 4000.0 4000.0 4000.0 4000.0 4000.0 4000.0 4000.0 4000.0 4000.0 4000.0 4000.0 4000.0 4000.0 4000.0 4000.0 4000.0 4000.0 4000.0 4000.0 4000.0 4000.0 4000.0 4000.0 4000.0 4000.0 4000.0 4000.0 4000.0 4000.0 4000.0 4000.0 4000.0 4000.0 4000.0 4000.0 4000.0 4000.0 4000.0 4000.0 4000.0 4000.0 4000.0 4000.0 4000.0 4000.0 4000.0 4000.0 4000.0 4000.0 4000.0 4000.0 4000.0 4000.0 4000.0 4000.0 4000.0 4000.0 4000.0 4000.0 4000.0 4000.0 4000.0 4000.0 4000.0 4000.0 4000.0 4000.0 4000.0 4000.0 4000.0 4000.0 4000.0 4000.0 4000.0 4000.0 4000.0 4000.0 4000.0 4000.0 4000.0 4000.0 4000.0 4000.0 4000.0 4000.0 4000.0 4000.0 4000.0 4000.0 4000.0 4000.0 4000.0 4000.0 4000.0 4000.0 4000.0 4000.0 4000.0 4000.0 4000.0 4000.0 4000.0 4000.0 4000.0 4000.0 4000.0 4000.0 4000.0 4000.0 4000.0 4000.0 4000.0 4000.0 4000.0 4000.0 4000.0 4000.0 4000.0 4000.0 4000.0 4000.0 4000.0 4000.0 4000.0 4000.0 4000.0 4000.0 4000.0 4000.0 4000.0 4000.0 4000.0 4000.0 4000.0 4000.0 4000.0 4000.0 4000.0 4000.0 4000.0 4000.0 4000.0 4000.0 4000.0 4000.0 4000.0 4000.0 4000.0 4000.0 4000.0 4000.0 4000.0 4000.0 4000.0 4000.0 4000.0 4000.0 4000.0 4000.0 4000.0 4000.0 4000.0 4000.0 4000.0 4000.0 4000.0 4000.0 SCALARS Mass float 1
LOOKUP_TABLE default
11309700000.0 11309700000.0 11309700000.0 11309700000.0 11309700000.0 11309700000.0 11309700000.0 11309700000.0 11309700000.0 11309700000.0 11309700000.0 11309700000.0 11309700000.0 11309700000.0 11309700000.0 11309700000.0 11309700000.0 11309700000.0 11309700000.0 11309700000.0 11309700000.0 11309700000.0 11309700000.0 11309700000.0 11309700000.0 11309700000.0 11309700000.0 11309700000.0 11309700000.0 11309700000.0 11309700000.0 11309700000.0 11309700000.0 11309700000.0 11309700000.0 11309700000.0 11309700000.0 11309700000.0 11309700000.0 11309700000.0 11309700000.0 11309700000.0 11309700000.0 11309700000.0 11309700000.0 11309700000.0 11309700000.0 11309700000.0 11309700000.0 11309700000.0 11309700000.0 11309700000.0 11309700000.0 11309700000.0 11309700000.0 11309700000.0 11309700000.0 11309700000.0 11309700000.0 11309700000.0 11309700000.0 11309700000.0 11309700000.0 11309700000.0 11309700000.0 11309700000.0 11309700000.0 11309700000.0 11309700000.0 11309700000.0 11309700000.0 11309700000.0 11309700000.0 11309700000.0 11309700000.0 11309700000.0 11309700000.0 11309700000.0 11309700000.0 11309700000.0 11309700000.0 11309700000.0 11309700000.0 11309700000.0 11309700000.0 11309700000.0 11309700000.0 11309700000.0 11309700000.0 11309700000.0 11309700000.0 11309700000.0 11309700000.0 11309700000.0 11309700000.0 11309700000.0 11309700000.0 11309700000.0 11309700000.0 11309700000.0 11309700000.0 11309700000.0 11309700000.0 11309700000.0 11309700000.0 11309700000.0 11309700000.0 11309700000.0 11309700000.0 11309700000.0 11309700000.0 11309700000.0 11309700000.0 11309700000.0 11309700000.0 11309700000.0 11309700000.0 11309700000.0 11309700000.0 11309700000.0 11309700000.0 11309700000.0 11309700000.0 11309700000.0 11309700000.0 11309700000.0 11309700000.0 11309700000.0 11309700000.0 11309700000.0 11309700000.0 11309700000.0 11309700000.0 11309700000.0 11309700000.0 11309700000.0 11309700000.0 11309700000.0 11309700000.0 11309700000.0 11309700000.0 11309700000.0 11309700000.0 11309700000.0 11309700000.0 11309700000.0 11309700000.0 11309700000.0 11309700000.0 11309700000.0 11309700000.0 11309700000.0 11309700000.0 11309700000.0 11309700000.0 11309700000.0 11309700000.0 11309700000.0 11309700000.0 11309700000.0 11309700000.0 11309700000.0 11309700000.0 11309700000.0 11309700000.0 11309700000.0 11309700000.0 11309700000.0 11309700000.0 11309700000.0 11309700000.0 11309700000.0 11309700000.0 11309700000.0 11309700000.0 11309700000.0 11309700000.0 11309700000.0 11309700000.0 11309700000.0 11309700000.0 11309700000.0 11309700000.0 11309700000.0 11309700000.0 11309700000.0 11309700000.0 11309700000.0 11309700000.0 11309700000.0 11309700000.0 11309700000.0 11309700000.0 11309700000.0 11309700000.0 11309700000.0 11309700000.0 11309700000.0 11309700000.0 11309700000.0 11309700000.0 11309700000.0 11309700000.0 11309700000.0 11309700000.0 11309700000.0 11309700000.0 11309700000.0 11309700000.0 11309700000.0 11309700000.0 11309700000.0 11309700000.0 11309700000.0 11309700000.0 11309700000.0 11309700000.0 11309700000.0 11309700000.0 11309700000.0 11309700000.0 11309700000.0 11309700000.0 11309700000.0 11309700000.0 11309700000.0 11309700000.0 11309700000.0 11309700000.0 11309700000.0 11309700000.0 11309700000.0 11309700000.0 11309700000.0 11309700000.0 11309700000.0 11309700000.0 11309700000.0 11309700000.0 11309700000.0 11309700000.0 11309700000.0 11309700000.0 11309700000.0 11309700000.0 11309700000.0 11309700000.0 11309700000.0 11309700000.0 11309700000.0 11309700000.0 11309700000.0 11309700000.0 11309700000.0 11309700000.0 11309700000.0 11309700000.0 11309700000.0 11309700000.0 11309700000.0 11309700000.0 11309700000.0 11309700000.0 11309700000.0 11309700000.0 11309700000.0 11309700000.0 11309700000.0 11309700000.0 11309700000.0 11309700000.0 11309700000.0 11309700000.0 11309700000.0 11309700000.0 11309700000.0 11309700000.0 11309700000.0 11309700000.0 11309700000.0 11309700000.0 11309700000.0 11309700000.0 11309700000.0 11309700000.0 11309700000.0 11309700000.0 11309700000.0 11309700000.0 11309700000.0 11309700000.0 11309700000.0 11309700000.0 11309700000.0 11309700000.0 11309700000.0 11309700000.0 11309700000.0 11309700000.0 11309700000.0 11309700000.0 11309700000.0 11309700000.0 11309700000.0 11309700000.0 11309700000.0 11309700000.0 11309700000.0 11309700000.0 11309700000.0 11309700000.0 11309700000.0 11309700000.0 11309700000.0 11309700000.0 11309700000.0 11309700000.0 11309700000.0 11309700000.0 11309700000.0 11309700000.0 11309700000.0 11309700000.0 11309700000.0 11309700000.0 11309700000.0 11309700000.0 11309700000.0 11309700000.0 11309700000.0 11309700000.0 11309700000.0 11309700000.0 11309700000.0 11309700000.0 11309700000.0 11309700000.0 11309700000.0 11309700000.0 11309700000.0 11309700000.0 11309700000.0 11309700000.0 11309700000.0 11309700000.0 11309700000.0 11309700000.0 11309700000.0 11309700000.0 11309700000.0 11309700000.0 11309700000.0 11309700000.0 11309700000.0 11309700000.0 11309700000.0 11309700000.0 11309700000.0 11309700000.0 11309700000.0 11309700000.0 11309700000.0 11309700000.0 11309700000.0 11309700000.0 11309700000.0 11309700000.0 11309700000.0 11309700000.0 11309700000.0 11309700000.0 11309700000.0 11309700000.0 11309700000.0 11309700000.0 11309700000.0 11309700000.0 11309700000.0 11309700000.0 11309700000.0 11309700000.0 11309700000.0 11309700000.0 11309700000.0 11309700000.0 11309700000.0 11309700000.0 11309700000.0 11309700000.0 11309700000.0 11309700000.0 11309700000.0 11309700000.0 11309700000.0 11309700000.0 11309700000.0 11309700000.0 11309700000.0 11309700000.0 11309700000.0 11309700000.0 11309700000.0 11309700000.0 11309700000.0 11309700000.0 11309700000.0 11309700000.0 11309700000.0 11309700000.0 11309700000.0 11309700000.0 11309700000.0 11309700000.0 11309700000.0 11309700000.0 11309700000.0 11309700000.0 11309700000.0 11309700000.0 11309700000.0 11309700000.0 11309700000.0 11309700000.0 11309700000.0 11309700000.0 11309700000.0 11309700000.0 11309700000.0 11309700000.0 11309700000.0 11309700000.0 11309700000.0 11309700000.0 11309700000.0 11309700000.0 11309700000.0 11309700000.0 11309700000.0 11309700000.0 11309700000.0 11309700000.0 11309700000.0 11309700000.0 11309700000.0 11309700000.0 11309700000.0 11309700000.0 11309700000.0 11309700000.0 11309700000.0 11309700000.0 11309700000.0 11309700000.0 11309700000.0 11309700000.0 11309700000.0 11309700000.0 11309700000.0 11309700000.0 11309700000.0 11309700000.0 11309700000.0 11309700000.0 11309700000.0 11309700000.0 11309700000.0 11309700000.0 11309700000.0 11309700000.0 11309700000.0 11309700000.0 11309700000.0 11309700000.0 11309700000.0 11309700000.0 11309700000.0 11309700000.0 11309700000.0 11309700000.0 11309700000.0 11309700000.0 11309700000.0 11309700000.0 11309700000.0 11309700000.0 11309700000.0 11309700000.0 11309700000.0 11309700000.0 11309700000.0 11309700000.0 11309700000.0 11309700000.0 11309700000.0 11309700000.0 11309700000.0 11309700000.0 11309700000.0 11309700000.0 11309700000.0 11309700000.0 11309700000.0 11309700000.0 11309700000.0 11309700000.0 11309700000.0 11309700000.0 11309700000.0 11309700000.0 11309700000.0 11309700000.0 11309700000.0 11309700000.0 11309700000.0 11309700000.0 11309700000.0 11309700000.0 11309700000.0 11309700000.0 11309700000.0 11309700000.0 11309700000.0 11309700000.0 11309700000.0 11309700000.0 11309700000.0 11309700000.0 11309700000.0 11309700000.0 11309700000.0 11309700000.0 11309700000.0 11309700000.0 11309700000.0 11309700000.0 11309700000.0 11309700000.0 11309700000.0 11309700000.0 11309700000.0 11309700000.0 11309700000.0 11309700000.0 11309700000.0 11309700000.0 11309700000.0 11309700000.0 11309700000.0 11309700000.0 11309700000.0 11309700000.0 11309700000.0 11309700000.0 11309700000.0 11309700000.0 11309700000.0 11309700000.0 11309700000.0 11309700000.0 11309700000.0 11309700000.0 11309700000.0 11309700000.0 11309700000.0 11309700000.0 11309700000.0 11309700000.0 11309700000.0 11309700000.0 11309700000.0 11309700000.0 11309700000.0 11309700000.0 11309700000.0 11309700000.0 11309700000.0 11309700000.0 11309700000.0 11309700000.0 11309700000.0 11309700000.0 11309700000.0 11309700000.0 11309700000.0 11309700000.0 11309700000.0 11309700000.0 11309700000.0 11309700000.0 11309700000.0 11309700000.0 11309700000.0 11309700000.0 11309700000.0 11309700000.0 11309700000.0 11309700000.0 11309700000.0 11309700000.0 11309700000.0 11309700000.0 11309700000.0 11309700000.0 11309700000.0 11309700000.0 11309700000.0 11309700000.0 11309700000.0 11309700000.0 11309700000.0 11309700000.0 11309700000.0 11309700000.0 11309700000.0 11309700000.0 11309700000.0 11309700000.0 11309700000.0 11309700000.0 11309700000.0 11309700000.0 11309700000.0 11309700000.0 11309700000.0 11309700000.0 11309700000.0 11309700000.0 11309700000.0 11309700000.0 11309700000.0 11309700000.0 11309700000.0 11309700000.0 11309700000.0 11309700000.0 11309700000.0 11309700000.0 11309700000.0 11309700000.0 11309700000.0 11309700000.0 11309700000.0 11309700000.0 11309700000.0 11309700000.0 11309700000.0 11309700000.0 11309700000.0 11309700000.0 11309700000.0 11309700000.0 11309700000.0 11309700000.0 11309700000.0 11309700000.0 11309700000.0 11309700000.0 11309700000.0 11309700000.0 11309700000.0 11309700000.0 11309700000.0 11309700000.0 11309700000.0 11309700000.0 11309700000.0 11309700000.0 11309700000.0 11309700000.0 11309700000.0 11309700000.0 11309700000.0 11309700000.0 11309700000.0 11309700000.0 11309700000.0 11309700000.0 11309700000.0 11309700000.0 11309700000.0 11309700000.0 11309700000.0 11309700000.0 11309700000.0 11309700000.0 11309700000.0 11309700000.0 11309700000.0 11309700000.0 11309700000.0 11309700000.0 11309700000.0 11309700000.0 11309700000.0 11309700000.0 11309700000.0 11309700000.0 11309700000.0 11309700000.0 11309700000.0 11309700000.0 11309700000.0 11309700000.0 11309700000.0 11309700000.0 11309700000.0 11309700000.0 11309700000.0 11309700000.0 11309700000.0 11309700000.0 11309700000.0 11309700000.0 11309700000.0 11309700000.0 11309700000.0 11309700000.0 11309700000.0 11309700000.0 11309700000.0 11309700000.0 11309700000.0 11309700000.0 11309700000.0 11309700000.0 11309700000.0 11309700000.0 11309700000.0 11309700000.0 11309700000.0 11309700000.0 11309700000.0 11309700000.0 11309700000.0 11309700000.0 11309700000.0 11309700000.0 11309700000.0 11309700000.0 11309700000.0 11309700000.0 11309700000.0 11309700000.0 11309700000.0 11309700000.0 11309700000.0 11309700000.0 11309700000.0 11309700000.0 11309700000.0 11309700000.0 11309700000.0 11309700000.0 11309700000.0 11309700000.0 11309700000.0 11309700000.0 11309700000.0 11309700000.0 11309700000.0 11309700000.0 11309700000.0 11309700000.0 11309700000.0 11309700000.0 11309700000.0 11309700000.0 11309700000.0 11309700000.0 11309700000.0 11309700000.0 11309700000.0 11309700000.0 11309700000.0 11309700000.0 11309700000.0 11309700000.0 11309700000.0 11309700000.0 11309700000.0 11309700000.0 11309700000.0 11309700000.0 11309700000.0 11309700000.0 11309700000.0 11309700000.0 11309700000.0 11309700000.0 11309700000.0 11309700000.0 11309700000.0 11309700000.0 11309700000.0 11309700000.0 11309700000.0 11309700000.0 11309700000.0 11309700000.0 11309700000.0 11309700000.0 11309700000.0 11309700000.0 11309700000.0 11309700000.0 11309700000.0 11309700000.0 11309700000.0 11309700000.0 11309700000.0 11309700000.0 11309700000.0 11309700000.0 11309700000.0 11309700000.0 11309700000.0 11309700000.0 11309700000.0 11309700000.0 11309700000.0 11309700000.0 11309700000.0 11309700000.0 11309700000.0 11309700000.0 11309700000.0 11309700000.0 11309700000.0 11309700000.0 11309700000.0 11309700000.0 11309700000.0 11309700000.0 11309700000.0 11309700000.0 11309700000.0 11309700000.0 11309700000.0 11309700000.0 11309700000.0 11309700000.0 11309700000.0 11309700000.0 11309700000.0 11309700000.0 11309700000.0 11309700000.0 11309700000.0 11309700000.0 11309700000.0 11309700000.0 11309700000.0 11309700000.0 11309700000.0 11309700000.0 11309700000.0 11309700000.0 11309700000.0 11309700000.0 11309700000.0 11309700000.0 11309700000.0 11309700000.0 11309700000.0 11309700000.0 11309700000.0 11309700000.0 11309700000.0 11309700000.0 11309700000.0 11309700000.0 11309700000.0 11309700000.0 11309700000.0 11309700000.0 11309700000.0 11309700000.0 11309700000.0 11309700000.0 11309700000.0 11309700000.0 11309700000.0 11309700000.0 11309700000.0 11309700000.0 11309700000.0 11309700000.0 11309700000.0 11309700000.0 11309700000.0 11309700000.0 11309700000.0 11309700000.0 11309700000.0 11309700000.0 11309700000.0 11309700000.0 11309700000.0 11309700000.0 11309700000.0 11309700000.0 11309700000.0 11309700000.0 11309700000.0 11309700000.0 11309700000.0 11309700000.0 11309700000.0 11309700000.0 11309700000.0 11309700000.0 11309700000.0 11309700000.0 11309700000.0 11309700000.0 11309700000.0 11309700000.0 11309700000.0 11309700000.0 11309700000.0 11309700000.0 11309700000.0 11309700000.0 11309700000.0 11309700000.0 11309700000.0 11309700000.0 11309700000.0 11309700000.0 11309700000.0 11309700000.0 11309700000.0 11309700000.0 11309700000.0 11309700000.0 11309700000.0 11309700000.0 11309700000.0 11309700000.0 11309700000.0 11309700000.0 11309700000.0 11309700000.0 11309700000.0 11309700000.0 11309700000.0 11309700000.0 11309700000.0 11309700000.0 11309700000.0 11309700000.0 11309700000.0 11309700000.0 11309700000.0 11309700000.0 11309700000.0 11309700000.0 11309700000.0 11309700000.0 11309700000.0 11309700000.0 11309700000.0 11309700000.0 11309700000.0 11309700000.0 11309700000.0 11309700000.0 11309700000.0 11309700000.0 11309700000.0 11309700000.0 11309700000.0 11309700000.0 11309700000.0 11309700000.0 11309700000.0 11309700000.0 11309700000.0 11309700000.0 11309700000.0 11309700000.0 11309700000.0 11309700000.0 11309700000.0 11309700000.0 11309700000.0 11309700000.0 11309700000.0 11309700000.0 11309700000.0 11309700000.0 11309700000.0 11309700000.0 11309700000.0 11309700000.0 11309700000.0 11309700000.0 11309700000.0 11309700000.0 11309700000.0 11309700000.0 11309700000.0 11309700000.0 11309700000.0 11309700000.0 11309700000.0 11309700000.0 11309700000.0 11309700000.0 11309700000.0 11309700000.0 11309700000.0 11309700000.0 11309700000.0 11309700000.0 11309700000.0 11309700000.0 11309700000.0 11309700000.0 11309700000.0 11309700000.0 11309700000.0 11309700000.0 11309700000.0 11309700000.0 11309700000.0 11309700000.0 11309700000.0 11309700000.0 11309700000.0 11309700000.0 11309700000.0 11309700000.0 11309700000.0 11309700000.0 11309700000.0 11309700000.0 11309700000.0 11309700000.0 11309700000.0 11309700000.0 11309700000.0 11309700000.0 11309700000.0 11309700000.0 11309700000.0 11309700000.0 11309700000.0 11309700000.0 11309700000.0 11309700000.0 11309700000.0 11309700000.0 11309700000.0 11309700000.0 11309700000.0 11309700000.0 11309700000.0 11309700000.0 11309700000.0 11309700000.0 11309700000.0 11309700000.0 11309700000.0 11309700000.0 11309700000.0 11309700000.0 11309700000.0 11309700000.0 11309700000.0 11309700000.0 11309700000.0 11309700000.0 11309700000.0 11309700000.0 11309700000.0 11309700000.0 11309700000.0 11309700000.0 11309700000.0 11309700000.0 11309700000.0 11309700000.0 11309700000.0 11309700000.0 11309700000.0 11309700000.0 11309700000.0 11309700000.0 11309700000.0 11309700000.0 11309700000.0 11309700000.0 11309700000.0 11309700000.0 11309700000.0 11309700000.0 11309700000.0 11309700000.0 11309700000.0 11309700000.0 11309700000.0 11309700000.0 11309700000.0 11309700000.0 11309700000.0 11309700000.0 11309700000.0 11309700000.0 11309700000.0 11309700000.0 11309700000.0 11309700000.0 11309700000.0 11309700000.0 11309700000.0 11309700000.0 11309700000.0 11309700000.0 11309700000.0 11309700000.0 11309700000.0 11309700000.0 11309700000.0 11309700000.0 11309700000.0 11309700000.0 11309700000.0 11309700000.0 11309700000.0 11309700000.0 11309700000.0 11309700000.0 11309700000.0 11309700000.0 11309700000.0 11309700000.0 11309700000.0 11309700000.0 11309700000.0 11309700000.0 11309700000.0 11309700000.0 11309700000.0 11309700000.0 11309700000.0 11309700000.0 11309700000.0 11309700000.0 11309700000.0 11309700000.0 11309700000.0 11309700000.0 11309700000.0 11309700000.0 11309700000.0 11309700000.0 11309700000.0 11309700000.0 11309700000.0 11309700000.0 11309700000.0 11309700000.0 11309700000.0 11309700000.0 11309700000.0 11309700000.0 11309700000.0 11309700000.0 11309700000.0 11309700000.0 11309700000.0 11309700000.0 11309700000.0 11309700000.0 11309700000.0 11309700000.0 11309700000.0 11309700000.0 11309700000.0 11309700000.0 11309700000.0 11309700000.0 11309700000.0 11309700000.0 11309700000.0 11309700000.0 11309700000.0 11309700000.0 11309700000.0 11309700000.0 11309700000.0 11309700000.0 11309700000.0 11309700000.0 11309700000.0 11309700000.0 11309700000.0 11309700000.0 11309700000.0 11309700000.0 11309700000.0 11309700000.0 11309700000.0 11309700000.0 11309700000.0 11309700000.0 11309700000.0 11309700000.0 11309700000.0 11309700000.0 11309700000.0 11309700000.0 11309700000.0 11309700000.0 11309700000.0 11309700000.0 11309700000.0 11309700000.0 11309700000.0 11309700000.0 11309700000.0 11309700000.0 11309700000.0 11309700000.0 11309700000.0 11309700000.0 11309700000.0 11309700000.0 11309700000.0 11309700000.0 11309700000.0 11309700000.0 11309700000.0 11309700000.0 11309700000.0 11309700000.0 11309700000.0 11309700000.0 11309700000.0 11309700000.0 11309700000.0 11309700000.0 11309700000.0 11309700000.0 11309700000.0 11309700000.0 11309700000.0 11309700000.0 11309700000.0 11309700000.0 11309700000.0 11309700000.0 11309700000.0 11309700000.0 11309700000.0 11309700000.0 11309700000.0 11309700000.0 11309700000.0 11309700000.0 11309700000.0 11309700000.0 11309700000.0 11309700000.0 11309700000.0 11309700000.0 11309700000.0 11309700000.0 11309700000.0 11309700000.0 11309700000.0 11309700000.0 11309700000.0 11309700000.0 11309700000.0 11309700000.0 11309700000.0 11309700000.0 11309700000.0 11309700000.0 11309700000.0 11309700000.0 11309700000.0 11309700000.0 11309700000.0 11309700000.0 11309700000.0 11309700000.0 11309700000.0 11309700000.0 11309700000.0 11309700000.0 11309700000.0 11309700000.0 11309700000.0 11309700000.0 11309700000.0 11309700000.0 11309700000.0 11309700000.0 11309700000.0 11309700000.0 11309700000.0 11309700000.0 11309700000.0 11309700000.0 11309700000.0 11309700000.0 11309700000.0 11309700000.0 11309700000.0 11309700000.0 11309700000.0 11309700000.0 11309700000.0 11309700000.0 11309700000.0 11309700000.0 11309700000.0 11309700000.0 11309700000.0 11309700000.0 11309700000.0 11309700000.0 11309700000.0 11309700000.0 11309700000.0 11309700000.0 11309700000.0 11309700000.0 11309700000.0 11309700000.0 11309700000.0 11309700000.0 11309700000.0 11309700000.0 11309700000.0 11309700000.0 11309700000.0 11309700000.0 11309700000.0 11309700000.0 11309700000.0 11309700000.0 11309700000.0 11309700000.0 11309700000.0 11309700000.0 11309700000.0 11309700000.0 11309700000.0 11309700000.0 11309700000.0 11309700000.0 11309700000.0 11309700000.0 11309700000.0 11309700000.0 11309700000.0 11309700000.0 11309700000.0 11309700000.0 11309700000.0 11309700000.0 11309700000.0 11309700000.0 11309700000.0 11309700000.0 11309700000.0 11309700000.0 11309700000.0 11309700000.0 11309700000.0 11309700000.0 11309700000.0 11309700000.0 11309700000.0 11309700000.0 11309700000.0 11309700000.0 11309700000.0 11309700000.0 11309700000.0 11309700000.0 11309700000.0 11309700000.0 11309700000.0 11309700000.0 11309700000.0 11309700000.0 11309700000.0 11309700000.0 11309700000.0 11309700000.0 11309700000.0 11309700000.0 11309700000.0 11309700000.0 11309700000.0 11309700000.0 11309700000.0 11309700000.0 11309700000.0 11309700000.0 11309700000.0 11309700000.0 11309700000.0 11309700000.0 11309700000.0 11309700000.0 11309700000.0 11309700000.0 11309700000.0 11309700000.0 11309700000.0 11309700000.0 11309700000.0 11309700000.0 11309700000.0 11309700000.0 11309700000.0 11309700000.0 11309700000.0 11309700000.0 11309700000.0 11309700000.0 11309700000.0 11309700000.0 11309700000.0 11309700000.0 11309700000.0 11309700000.0 11309700000.0 11309700000.0 11309700000.0 11309700000.0 11309700000.0 11309700000.0 11309700000.0 11309700000.0 11309700000.0 11309700000.0 11309700000.0 11309700000.0 11309700000.0 11309700000.0 11309700000.0 11309700000.0 11309700000.0 11309700000.0 11309700000.0 11309700000.0 11309700000.0 11309700000.0 11309700000.0 11309700000.0 11309700000.0 11309700000.0 11309700000.0 11309700000.0 11309700000.0 11309700000.0 11309700000.0 11309700000.0 11309700000.0 11309700000.0 11309700000.0 11309700000.0 11309700000.0 11309700000.0 11309700000.0 11309700000.0 11309700000.0 11309700000.0 11309700000.0 11309700000.0 11309700000.0 11309700000.0 11309700000.0 11309700000.0 11309700000.0 11309700000.0 11309700000.0 11309700000.0 11309700000.0 11309700000.0 11309700000.0 11309700000.0 11309700000.0 11309700000.0 11309700000.0 11309700000.0 11309700000.0 11309700000.0 11309700000.0 11309700000.0 11309700000.0 11309700000.0 11309700000.0 11309700000.0 11309700000.0 11309700000.0 11309700000.0 11309700000.0 11309700000.0 11309700000.0 11309700000.0 11309700000.0 11309700000.0 11309700000.0 11309700000.0 11309700000.0 11309700000.0 11309700000.0 11309700000.0 11309700000.0 11309700000.0 11309700000.0 11309700000.0 11309700000.0 11309700000.0 11309700000.0 11309700000.0 11309700000.0 11309700000.0 11309700000.0 11309700000.0 11309700000.0 11309700000.0 11309700000.0 11309700000.0 11309700000.0 11309700000.0 11309700000.0 11309700000.0 11309700000.0 11309700000.0 11309700000.0 11309700000.0 11309700000.0 11309700000.0 11309700000.0 11309700000.0 11309700000.0 11309700000.0 11309700000.0 11309700000.0 11309700000.0 11309700000.0 11309700000.0 11309700000.0 11309700000.0 11309700000.0 11309700000.0 11309700000.0 11309700000.0 11309700000.0 11309700000.0 11309700000.0 11309700000.0 11309700000.0 11309700000.0 11309700000.0 11309700000.0 11309700000.0 11309700000.0 11309700000.0 11309700000.0 11309700000.0 11309700000.0 11309700000.0 11309700000.0 11309700000.0 11309700000.0 11309700000.0 11309700000.0 11309700000.0 11309700000.0 11309700000.0 11309700000.0 11309700000.0 11309700000.0 11309700000.0 11309700000.0 11309700000.0 11309700000.0 11309700000.0 11309700000.0 11309700000.0 11309700000.0 11309700000.0 11309700000.0 11309700000.0 11309700000.0 11309700000.0 11309700000.0 11309700000.0 11309700000.0 11309700000.0 11309700000.0 11309700000.0 11309700000.0 11309700000.0 11309700000.0 11309700000.0 11309700000.0 11309700000.0 11309700000.0 11309700000.0 11309700000.0 11309700000.0 11309700000.0 11309700000.0 11309700000.0 11309700000.0 11309700000.0 11309700000.0 11309700000.0 11309700000.0 11309700000.0 11309700000.0 11309700000.0 11309700000.0 11309700000.0 11309700000.0 11309700000.0 11309700000.0 11309700000.0 11309700000.0 11309700000.0 11309700000.0 11309700000.0 11309700000.0 11309700000.0 11309700000.0 11309700000.0 11309700000.0 11309700000.0 11309700000.0 11309700000.0 11309700000.0 11309700000.0 11309700000.0 11309700000.0 11309700000.0 11309700000.0 11309700000.0 11309700000.0 11309700000.0 11309700000.0 11309700000.0 11309700000.0 11309700000.0 11309700000.0 11309700000.0 11309700000.0 11309700000.0 11309700000.0 11309700000.0 11309700000.0 11309700000.0 11309700000.0 11309700000.0 11309700000.0 11309700000.0 11309700000.0 11309700000.0 11309700000.0 11309700000.0 11309700000.0 11309700000.0 11309700000.0 11309700000.0 11309700000.0 11309700000.0 11309700000.0 11309700000.0 11309700000.0 11309700000.0 11309700000.0 11309700000.0 11309700000.0 11309700000.0 11309700000.0 11309700000.0 11309700000.0 11309700000.0 11309700000.0 11309700000.0 11309700000.0 11309700000.0 11309700000.0 11309700000.0 11309700000.0 11309700000.0 11309700000.0 11309700000.0 11309700000.0 11309700000.0 11309700000.0 11309700000.0 11309700000.0 11309700000.0 11309700000.0 11309700000.0 11309700000.0 11309700000.0 11309700000.0 11309700000.0 11309700000.0 11309700000.0 11309700000.0 11309700000.0 11309700000.0 11309700000.0 11309700000.0 11309700000.0 11309700000.0 11309700000.0 11309700000.0 11309700000.0 11309700000.0 11309700000.0 11309700000.0 11309700000.0 11309700000.0 11309700000.0 11309700000.0 11309700000.0 11309700000.0 11309700000.0 11309700000.0 11309700000.0 11309700000.0 11309700000.0 11309700000.0 11309700000.0 11309700000.0 11309700000.0 11309700000.0 11309700000.0 11309700000.0 11309700000.0 11309700000.0 11309700000.0 11309700000.0 11309700000.0 11309700000.0 11309700000.0 11309700000.0 11309700000.0 11309700000.0 11309700000.0 11309700000.0 11309700000.0 11309700000.0 11309700000.0 11309700000.0 11309700000.0 11309700000.0 11309700000.0 11309700000.0 11309700000.0 11309700000.0 11309700000.0 11309700000.0 11309700000.0 11309700000.0 11309700000.0 11309700000.0 11309700000.0 11309700000.0 11309700000.0 11309700000.0 11309700000.0 11309700000.0 11309700000.0 11309700000.0 11309700000.0 11309700000.0 11309700000.0 11309700000.0 11309700000.0 11309700000.0 11309700000.0 11309700000.0 11309700000.0 11309700000.0 11309700000.0 11309700000.0 11309700000.0 11309700000.0 11309700000.0 11309700000.0 11309700000.0 11309700000.0 11309700000.0 11309700000.0 11309700000.0 11309700000.0 11309700000.0 11309700000.0 11309700000.0 11309700000.0 11309700000.0 11309700000.0 11309700000.0 11309700000.0 11309700000.0 11309700000.0 11309700000.0 11309700000.0 11309700000.0 11309700000.0 11309700000.0 11309700000.0 11309700000.0 11309700000.0 11309700000.0 11309700000.0 11309700000.0 11309700000.0 11309700000.0 11309700000.0 11309700000.0 11309700000.0 11309700000.0 11309700000.0 11309700000.0 11309700000.0 11309700000.0 11309700000.0 11309700000.0 11309700000.0 11309700000.0 11309700000.0 11309700000.0 11309700000.0 11309700000.0 11309700000.0 11309700000.0 11309700000.0 11309700000.0 11309700000.0 11309700000.0 11309700000.0 11309700000.0 11309700000.0 11309700000.0 11309700000.0 11309700000.0 11309700000.0 11309700000.0 11309700000.0 11309700000.0 11309700000.0 11309700000.0 11309700000.0 11309700000.0 11309700000.0 11309700000.0 11309700000.0 11309700000.0 11309700000.0 11309700000.0 11309700000.0 11309700000.0 11309700000.0 11309700000.0 11309700000.0 11309700000.0 11309700000.0 11309700000.0 11309700000.0 11309700000.0 11309700000.0 11309700000.0 11309700000.0 11309700000.0 11309700000.0 11309700000.0 11309700000.0 11309700000.0 11309700000.0 11309700000.0 11309700000.0 11309700000.0 11309700000.0 11309700000.0 11309700000.0 11309700000.0 11309700000.0 11309700000.0 11309700000.0 11309700000.0 11309700000.0 11309700000.0 11309700000.0 11309700000.0 11309700000.0 11309700000.0 11309700000.0 11309700000.0 11309700000.0 11309700000.0 11309700000.0 11309700000.0 11309700000.0 11309700000.0 11309700000.0 11309700000.0 11309700000.0 11309700000.0 11309700000.0 11309700000.0 11309700000.0 11309700000.0 11309700000.0 11309700000.0 11309700000.0 11309700000.0 11309700000.0 11309700000.0 11309700000.0 11309700000.0 11309700000.0 11309700000.0 11309700000.0 11309700000.0 11309700000.0 11309700000.0 11309700000.0 11309700000.0 11309700000.0 11309700000.0 11309700000.0 11309700000.0 11309700000.0 11309700000.0 11309700000.0 11309700000.0 11309700000.0 11309700000.0 11309700000.0 11309700000.0 11309700000.0 11309700000.0 11309700000.0 11309700000.0 11309700000.0 11309700000.0 11309700000.0 11309700000.0 11309700000.0 11309700000.0 11309700000.0 11309700000.0 11309700000.0 11309700000.0 11309700000.0 11309700000.0 11309700000.0 11309700000.0 11309700000.0 11309700000.0 11309700000.0 11309700000.0 11309700000.0 11309700000.0 11309700000.0 11309700000.0 11309700000.0 11309700000.0 11309700000.0 11309700000.0 11309700000.0 11309700000.0 11309700000.0 11309700000.0 11309700000.0 11309700000.0 11309700000.0 11309700000.0 11309700000.0 11309700000.0 11309700000.0 11309700000.0 11309700000.0 11309700000.0 11309700000.0 11309700000.0 11309700000.0 11309700000.0 11309700000.0 11309700000.0 11309700000.0 11309700000.0 11309700000.0 11309700000.0 11309700000.0 11309700000.0 11309700000.0 11309700000.0 11309700000.0 11309700000.0 11309700000.0 11309700000.0 11309700000.0 11309700000.0 11309700000.0 11309700000.0 11309700000.0 11309700000.0 11309700000.0 11309700000.0 11309700000.0 11309700000.0 11309700000.0 11309700000.0 11309700000.0 11309700000.0 11309700000.0 11309700000.0 11309700000.0 11309700000.0 11309700000.0 11309700000.0 11309700000.0 11309700000.0 11309700000.0 11309700000.0 11309700000.0 11309700000.0 11309700000.0 11309700000.0 11309700000.0 11309700000.0 11309700000.0 11309700000.0 11309700000.0 11309700000.0 11309700000.0 11309700000.0 11309700000.0 11309700000.0 11309700000.0 11309700000.0 11309700000.0 11309700000.0 11309700000.0 11309700000.0 11309700000.0 11309700000.0 11309700000.0 11309700000.0 11309700000.0 11309700000.0 11309700000.0 11309700000.0 11309700000.0 11309700000.0 11309700000.0 11309700000.0 11309700000.0 11309700000.0 11309700000.0 11309700000.0 11309700000.0 11309700000.0 11309700000.0 11309700000.0 11309700000.0 11309700000.0 11309700000.0 11309700000.0 11309700000.0 11309700000.0 11309700000.0 11309700000.0 11309700000.0 11309700000.0 11309700000.0 11309700000.0 11309700000.0 11309700000.0 11309700000.0 11309700000.0 11309700000.0 11309700000.0 11309700000.0 11309700000.0 11309700000.0 11309700000.0 11309700000.0 11309700000.0 11309700000.0 11309700000.0 11309700000.0 11309700000.0 11309700000.0 11309700000.0 11309700000.0 11309700000.0 11309700000.0 11309700000.0 11309700000.0 11309700000.0 11309700000.0 11309700000.0 11309700000.0 11309700000.0 11309700000.0 11309700000.0 11309700000.0 11309700000.0 11309700000.0 11309700000.0 11309700000.0 11309700000.0 11309700000.0 11309700000.0 11309700000.0 11309700000.0 11309700000.0 11309700000.0 11309700000.0 11309700000.0 11309700000.0 11309700000.0 11309700000.0 11309700000.0 11309700000.0 11309700000.0 11309700000.0 11309700000.0 11309700000.0 11309700000.0 11309700000.0 11309700000.0 11309700000.0 11309700000.0 11309700000.0 11309700000.0 11309700000.0 11309700000.0 11309700000.0 11309700000.0 11309700000.0 11309700000.0 11309700000.0 11309700000.0 11309700000.0 11309700000.0 11309700000.0 11309700000.0 11309700000.0 11309700000.0 11309700000.0 11309700000.0 11309700000.0 11309700000.0 11309700000.0 11309700000.0 11309700000.0 11309700000.0 11309700000.0 11309700000.0 11309700000.0 11309700000.0 11309700000.0 11309700000.0 11309700000.0 11309700000.0 11309700000.0 11309700000.0 11309700000.0 11309700000.0 11309700000.0 11309700000.0 11309700000.0 11309700000.0 11309700000.0 11309700000.0 11309700000.0 11309700000.0 11309700000.0 11309700000.0 11309700000.0 11309700000.0 11309700000.0 11309700000.0 11309700000.0 11309700000.0 11309700000.0 11309700000.0 11309700000.0 11309700000.0 11309700000.0 11309700000.0 11309700000.0 11309700000.0 11309700000.0 11309700000.0 11309700000.0 11309700000.0 11309700000.0 11309700000.0 11309700000.0 11309700000.0 11309700000.0 11309700000.0 11309700000.0 11309700000.0 11309700000.0 11309700000.0 11309700000.0 11309700000.0 11309700000.0 11309700000.0 11309700000.0 11309700000.0 11309700000.0 11309700000.0 11309700000.0 11309700000.0 11309700000.0 11309700000.0 11309700000.0 11309700000.0 11309700000.0 11309700000.0 11309700000.0 11309700000.0 11309700000.0 11309700000.0 11309700000.0 11309700000.0 11309700000.0 11309700000.0 11309700000.0 11309700000.0 11309700000.0 11309700000.0 11309700000.0 11309700000.0 11309700000.0 11309700000.0 11309700000.0 11309700000.0 11309700000.0 11309700000.0 11309700000.0 11309700000.0 11309700000.0 11309700000.0 11309700000.0 11309700000.0 11309700000.0 11309700000.0 11309700000.0 11309700000.0 11309700000.0 11309700000.0 11309700000.0 11309700000.0 11309700000.0 11309700000.0 11309700000.0 11309700000.0 11309700000.0 11309700000.0 11309700000.0 11309700000.0 11309700000.0 11309700000.0 11309700000.0 11309700000.0 11309700000.0 11309700000.0 11309700000.0 11309700000.0 11309700000.0 11309700000.0 11309700000.0 11309700000.0 11309700000.0 11309700000.0 11309700000.0 11309700000.0 11309700000.0 11309700000.0 11309700000.0 11309700000.0 11309700000.0 11309700000.0 11309700000.0 11309700000.0 11309700000.0 11309700000.0 11309700000.0 11309700000.0 11309700000.0 11309700000.0 11309700000.0 11309700000.0 11309700000.0 11309700000.0 11309700000.0 11309700000.0 11309700000.0 11309700000.0 11309700000.0 11309700000.0 11309700000.0 11309700000.0 11309700000.0 11309700000.0 11309700000.0 11309700000.0 11309700000.0 11309700000.0 11309700000.0 11309700000.0 11309700000.0 11309700000.0 11309700000.0 11309700000.0 11309700000.0 11309700000.0 11309700000.0 11309700000.0 11309700000.0 11309700000.0 11309700000.0 11309700000.0 11309700000.0 11309700000.0 11309700000.0 11309700000.0 11309700000.0 11309700000.0 11309700000.0 11309700000.0 11309700000.0 11309700000.0 11309700000.0 11309700000.0 11309700000.0 11309700000.0 11309700000.0 11309700000.0 11309700000.0 11309700000.0 11309700000.0 11309700000.0 11309700000.0 11309700000.0 11309700000.0 11309700000.0 11309700000.0 11309700000.0 11309700000.0 11309700000.0 11309700000.0 11309700000.0 11309700000.0 11309700000.0 11309700000.0 11309700000.0 11309700000.0 11309700000.0 11309700000.0 11309700000.0 11309700000.0 11309700000.0 11309700000.0 11309700000.0 11309700000.0 11309700000.0 11309700000.0 11309700000.0 11309700000.0 11309700000.0 11309700000.0 11309700000.0 11309700000.0 11309700000.0 11309700000.0 11309700000.0 11309700000.0 11309700000.0 11309700000.0 11309700000.0 11309700000.0 11309700000.0 11309700000.0 11309700000.0 11309700000.0 11309700000.0 11309700000.0 11309700000.0 11309700000.0 11309700000.0 11309700000.0 11309700000.0 11309700000.0 11309700000.0 11309700000.0 11309700000.0 11309700000.0 11309700000.0 11309700000.0 11309700000.0 11309700000.0 11309700000.0 11309700000.0 11309700000.0 11309700000.0 11309700000.0 11309700000.0 11309700000.0 11309700000.0 11309700000.0 11309700000.0 11309700000.0 11309700000.0 11309700000.0 11309700000.0 11309700000.0 11309700000.0 11309700000.0 11309700000.0 11309700000.0 11309700000.0 11309700000.0 11309700000.0 11309700000.0 11309700000.0 11309700000.0 11309700000.0 11309700000.0 11309700000.0 11309700000.0 11309700000.0 11309700000.0 11309700000.0 11309700000.0 11309700000.0 11309700000.0 11309700000.0 11309700000.0 11309700000.0 11309700000.0 11309700000.0 11309700000.0 11309700000.0 11309700000.0 11309700000.0 11309700000.0 11309700000.0 11309700000.0 11309700000.0 11309700000.0 11309700000.0 11309700000.0 11309700000.0 11309700000.0 11309700000.0 11309700000.0 11309700000.0 11309700000.0 11309700000.0 11309700000.0 11309700000.0 11309700000.0 11309700000.0 11309700000.0 11309700000.0 11309700000.0 11309700000.0 11309700000.0 11309700000.0 11309700000.0 11309700000.0 11309700000.0 11309700000.0 11309700000.0 11309700000.0 11309700000.0 11309700000.0 11309700000.0 11309700000.0 11309700000.0 11309700000.0 11309700000.0 11309700000.0 11309700000.0 11309700000.0 11309700000.0 11309700000.0 11309700000.0 11309700000.0 11309700000.0 11309700000.0 11309700000.0 11309700000.0 11309700000.0 11309700000.0 11309700000.0 11309700000.0 11309700000.0 11309700000.0 11309700000.0 11309700000.0 11309700000.0 11309700000.0 11309700000.0 11309700000.0 11309700000.0 11309700000.0 11309700000.0 11309700000.0 11309700000.0 11309700000.0 11309700000.0 11309700000.0 11309700000.0 11309700000.0 11309700000.0 11309700000.0 11309700000.0 11309700000.0 11309700000.0 11309700000.0 11309700000.0 11309700000.0 11309700000.0 11309700000.0 11309700000.0 11309700000.0 11309700000.0 11309700000.0 11309700000.0 11309700000.0 11309700000.0 11309700000.0 11309700000.0 11309700000.0 11309700000.0 11309700000.0 11309700000.0 11309700000.0 11309700000.0 11309700000.0 11309700000.0 11309700000.0 11309700000.0 11309700000.0 11309700000.0 11309700000.0 11309700000.0 11309700000.0 11309700000.0 11309700000.0 11309700000.0 11309700000.0 11309700000.0 11309700000.0 11309700000.0 11309700000.0 11309700000.0 11309700000.0 11309700000.0 11309700000.0 11309700000.0 11309700000.0 11309700000.0 11309700000.0 11309700000.0 11309700000.0 11309700000.0 11309700000.0 11309700000.0 11309700000.0 11309700000.0 11309700000.0 11309700000.0 11309700000.0 11309700000.0 11309700000.0 11309700000.0 11309700000.0 11309700000.0 11309700000.0 11309700000.0 11309700000.0 11309700000.0 11309700000.0 11309700000.0 11309700000.0 11309700000.0 11309700000.0 11309700000.0 11309700000.0 11309700000.0 11309700000.0 11309700000.0 11309700000.0 11309700000.0 11309700000.0 11309700000.0 11309700000.0 11309700000.0 11309700000.0 11309700000.0 11309700000.0 11309700000.0 11309700000.0 11309700000.0 11309700000.0 11309700000.0 11309700000.0 11309700000.0 11309700000.0 11309700000.0 11309700000.0 11309700000.0 11309700000.0 11309700000.0 11309700000.0 11309700000.0 11309700000.0 11309700000.0 11309700000.0 11309700000.0 11309700000.0 11309700000.0 11309700000.0 11309700000.0 11309700000.0 11309700000.0 11309700000.0 11309700000.0 11309700000.0 11309700000.0 11309700000.0 11309700000.0 11309700000.0 11309700000.0 11309700000.0 11309700000.0 11309700000.0 11309700000.0 11309700000.0 11309700000.0 11309700000.0 11309700000.0 11309700000.0 11309700000.0 11309700000.0 11309700000.0 11309700000.0 11309700000.0 11309700000.0 11309700000.0 11309700000.0 11309700000.0 11309700000.0 11309700000.0 11309700000.0 11309700000.0 11309700000.0 11309700000.0 11309700000.0 11309700000.0 11309700000.0 11309700000.0 11309700000.0 11309700000.0 11309700000.0 11309700000.0 11309700000.0 11309700000.0 11309700000.0 11309700000.0 11309700000.0 11309700000.0 11309700000.0 11309700000.0 11309700000.0 11309700000.0 11309700000.0 11309700000.0 11309700000.0 11309700000.0 11309700000.0 11309700000.0 11309700000.0 11309700000.0 11309700000.0 11309700000.0 11309700000.0 11309700000.0 11309700000.0 11309700000.0 11309700000.0 11309700000.0 11309700000.0 11309700000.0 11309700000.0 11309700000.0 11309700000.0 11309700000.0 11309700000.0 11309700000.0 11309700000.0 11309700000.0 11309700000.0 11309700000.0 11309700000.0 11309700000.0 11309700000.0 11309700000.0 11309700000.0 11309700000.0 11309700000.0 11309700000.0 11309700000.0 11309700000.0 11309700000.0 11309700000.0 11309700000.0 11309700000.0 11309700000.0 11309700000.0 11309700000.0 11309700000.0 11309700000.0 11309700000.0 11309700000.0 11309700000.0 11309700000.0 11309700000.0 11309700000.0 11309700000.0 11309700000.0 11309700000.0 11309700000.0 11309700000.0 11309700000.0 11309700000.0 11309700000.0 11309700000.0 11309700000.0 11309700000.0 11309700000.0 11309700000.0 11309700000.0 11309700000.0 11309700000.0 11309700000.0 11309700000.0 11309700000.0 11309700000.0 11309700000.0 11309700000.0 11309700000.0 11309700000.0 11309700000.0 11309700000.0 11309700000.0 11309700000.0 11309700000.0 11309700000.0 11309700000.0 11309700000.0 11309700000.0 11309700000.0 11309700000.0 11309700000.0 11309700000.0 11309700000.0 11309700000.0 11309700000.0 11309700000.0 11309700000.0 11309700000.0 11309700000.0 11309700000.0 11309700000.0 11309700000.0 11309700000.0 11309700000.0 11309700000.0 11309700000.0 11309700000.0 11309700000.0 11309700000.0 11309700000.0 11309700000.0 11309700000.0 11309700000.0 11309700000.0 11309700000.0 11309700000.0 11309700000.0 11309700000.0 11309700000.0 11309700000.0 11309700000.0 11309700000.0 11309700000.0 11309700000.0 11309700000.0 11309700000.0 11309700000.0 11309700000.0 11309700000.0 11309700000.0 11309700000.0 11309700000.0 11309700000.0 11309700000.0 11309700000.0 11309700000.0 11309700000.0 11309700000.0 11309700000.0 11309700000.0 11309700000.0 11309700000.0 11309700000.0 11309700000.0 11309700000.0 11309700000.0 11309700000.0 11309700000.0 11309700000.0 11309700000.0 11309700000.0 11309700000.0 11309700000.0 11309700000.0 11309700000.0 11309700000.0 11309700000.0 11309700000.0 11309700000.0 11309700000.0 11309700000.0 11309700000.0 11309700000.0 11309700000.0 11309700000.0 11309700000.0 11309700000.0 11309700000.0 11309700000.0 11309700000.0 11309700000.0 11309700000.0 11309700000.0 11309700000.0 11309700000.0 11309700000.0 11309700000.0 11309700000.0 11309700000.0 11309700000.0 11309700000.0 11309700000.0 11309700000.0 11309700000.0 11309700000.0 11309700000.0 11309700000.0 11309700000.0 11309700000.0 11309700000.0 11309700000.0 11309700000.0 11309700000.0 11309700000.0 11309700000.0 11309700000.0 11309700000.0 11309700000.0 11309700000.0 11309700000.0 11309700000.0 11309700000.0 11309700000.0 11309700000.0 11309700000.0 11309700000.0 11309700000.0 11309700000.0 11309700000.0 11309700000.0 11309700000.0 11309700000.0 11309700000.0 11309700000.0 11309700000.0 11309700000.0 11309700000.0 11309700000.0 11309700000.0 11309700000.0 11309700000.0 11309700000.0 11309700000.0 11309700000.0 11309700000.0 11309700000.0 11309700000.0 11309700000.0 11309700000.0 11309700000.0 11309700000.0 11309700000.0 11309700000.0 11309700000.0 11309700000.0 11309700000.0 11309700000.0 11309700000.0 11309700000.0 11309700000.0 11309700000.0 11309700000.0 11309700000.0 11309700000.0 11309700000.0 11309700000.0 11309700000.0 11309700000.0 11309700000.0 11309700000.0 11309700000.0 11309700000.0 11309700000.0 11309700000.0 11309700000.0 11309700000.0 11309700000.0 11309700000.0 11309700000.0 11309700000.0 11309700000.0 11309700000.0 11309700000.0 11309700000.0 11309700000.0 11309700000.0 11309700000.0 11309700000.0 11309700000.0 11309700000.0 11309700000.0 11309700000.0 11309700000.0 11309700000.0 11309700000.0 11309700000.0 11309700000.0 11309700000.0 11309700000.0 11309700000.0 11309700000.0 11309700000.0 11309700000.0 11309700000.0 11309700000.0 11309700000.0 11309700000.0 11309700000.0 11309700000.0 11309700000.0 11309700000.0 11309700000.0 11309700000.0 11309700000.0 11309700000.0 11309700000.0 11309700000.0 11309700000.0 11309700000.0 11309700000.0 11309700000.0 11309700000.0 11309700000.0 11309700000.0 11309700000.0 11309700000.0 11309700000.0 11309700000.0 11309700000.0 11309700000.0 11309700000.0 11309700000.0 11309700000.0 11309700000.0 11309700000.0 11309700000.0 11309700000.0 11309700000.0 11309700000.0 11309700000.0 11309700000.0 11309700000.0 11309700000.0 11309700000.0 11309700000.0 11309700000.0 11309700000.0 11309700000.0 11309700000.0 11309700000.0 11309700000.0 11309700000.0 11309700000.0 11309700000.0 11309700000.0 11309700000.0 11309700000.0 11309700000.0 11309700000.0 11309700000.0 11309700000.0 11309700000.0 11309700000.0 11309700000.0 11309700000.0 11309700000.0 11309700000.0 11309700000.0 11309700000.0 11309700000.0 11309700000.0 11309700000.0 11309700000.0 11309700000.0 11309700000.0 11309700000.0 11309700000.0 11309700000.0 11309700000.0 11309700000.0 11309700000.0 11309700000.0 11309700000.0 11309700000.0 11309700000.0 11309700000.0 11309700000.0 11309700000.0 11309700000.0 11309700000.0 11309700000.0 11309700000.0 11309700000.0 11309700000.0 11309700000.0 11309700000.0 11309700000.0 11309700000.0 11309700000.0 11309700000.0 11309700000.0 11309700000.0 11309700000.0 11309700000.0 11309700000.0 11309700000.0 11309700000.0 11309700000.0 11309700000.0 11309700000.0 11309700000.0 11309700000.0 11309700000.0 11309700000.0 11309700000.0 11309700000.0 11309700000.0 11309700000.0 11309700000.0 11309700000.0 11309700000.0 11309700000.0 11309700000.0 11309700000.0 11309700000.0 11309700000.0 11309700000.0 11309700000.0 11309700000.0 11309700000.0 11309700000.0 11309700000.0 11309700000.0 11309700000.0 11309700000.0 11309700000.0 11309700000.0 11309700000.0 11309700000.0 11309700000.0 11309700000.0 11309700000.0 11309700000.0 11309700000.0 11309700000.0 11309700000.0 11309700000.0 11309700000.0 11309700000.0 11309700000.0 11309700000.0 11309700000.0 11309700000.0 11309700000.0 11309700000.0 11309700000.0 11309700000.0 11309700000.0 11309700000.0 11309700000.0 11309700000.0 11309700000.0 11309700000.0 11309700000.0 11309700000.0 11309700000.0 11309700000.0 11309700000.0 11309700000.0 11309700000.0 11309700000.0 11309700000.0 11309700000.0 11309700000.0 11309700000.0 11309700000.0 11309700000.0 11309700000.0 11309700000.0 11309700000.0 11309700000.0 11309700000.0 11309700000.0 11309700000.0 11309700000.0 11309700000.0 11309700000.0 11309700000.0 11309700000.0 11309700000.0 11309700000.0 11309700000.0 11309700000.0 11309700000.0 11309700000.0 11309700000.0 11309700000.0 11309700000.0 11309700000.0 11309700000.0 11309700000.0 11309700000.0 11309700000.0 11309700000.0 11309700000.0 11309700000.0 11309700000.0 11309700000.0 11309700000.0 11309700000.0 11309700000.0 11309700000.0 11309700000.0 11309700000.0 11309700000.0 11309700000.0 11309700000.0 11309700000.0 11309700000.0 11309700000.0 11309700000.0 11309700000.0 11309700000.0 11309700000.0 11309700000.0 11309700000.0 11309700000.0 11309700000.0 11309700000.0 11309700000.0 11309700000.0 11309700000.0 11309700000.0 11309700000.0 11309700000.0 11309700000.0 11309700000.0 11309700000.0 11309700000.0 11309700000.0 11309700000.0 11309700000.0 11309700000.0 11309700000.0 11309700000.0 11309700000.0 11309700000.0 11309700000.0 11309700000.0 11309700000.0 11309700000.0 11309700000.0 11309700000.0 11309700000.0 11309700000.0 11309700000.0 11309700000.0 11309700000.0 11309700000.0 11309700000.0 11309700000.0 11309700000.0 11309700000.0 11309700000.0 11309700000.0 11309700000.0 11309700000.0 11309700000.0 11309700000.0 11309700000.0 11309700000.0 11309700000.0 11309700000.0 11309700000.0 11309700000.0 11309700000.0 11309700000.0 11309700000.0 11309700000.0 11309700000.0 11309700000.0 11309700000.0 11309700000.0 11309700000.0 11309700000.0 11309700000.0 11309700000.0 11309700000.0 11309700000.0 11309700000.0 11309700000.0 11309700000.0 11309700000.0 11309700000.0 11309700000.0 11309700000.0 11309700000.0 11309700000.0 11309700000.0 11309700000.0 11309700000.0 11309700000.0 11309700000.0 11309700000.0 11309700000.0 11309700000.0 11309700000.0 11309700000.0 11309700000.0 11309700000.0 11309700000.0 11309700000.0 11309700000.0 11309700000.0 11309700000.0 11309700000.0 11309700000.0 11309700000.0 11309700000.0 11309700000.0 11309700000.0 11309700000.0 11309700000.0 11309700000.0 11309700000.0 11309700000.0 11309700000.0 11309700000.0 11309700000.0 11309700000.0 11309700000.0 11309700000.0 11309700000.0 11309700000.0 11309700000.0 11309700000.0 11309700000.0 11309700000.0 11309700000.0 11309700000.0 11309700000.0 11309700000.0 11309700000.0 11309700000.0 11309700000.0 11309700000.0 11309700000.0 11309700000.0 11309700000.0 11309700000.0 11309700000.0 11309700000.0 11309700000.0 11309700000.0 11309700000.0 11309700000.0 11309700000.0 11309700000.0 11309700000.0 11309700000.0 11309700000.0 11309700000.0 11309700000.0 11309700000.0 11309700000.0 11309700000.0 11309700000.0 11309700000.0 11309700000.0 11309700000.0 11309700000.0 11309700000.0 11309700000.0 11309700000.0 11309700000.0 11309700000.0 11309700000.0 11309700000.0 11309700000.0 11309700000.0 11309700000.0 11309700000.0 11309700000.0 11309700000.0 11309700000.0 11309700000.0 11309700000.0 11309700000.0 11309700000.0 11309700000.0 11309700000.0 11309700000.0 11309700000.0 11309700000.0 11309700000.0 11309700000.0 11309700000.0 11309700000.0 11309700000.0 11309700000.0 11309700000.0 11309700000.0 11309700000.0 11309700000.0 11309700000.0 11309700000.0 11309700000.0 11309700000.0 11309700000.0 11309700000.0 11309700000.0 11309700000.0 11309700000.0 11309700000.0 11309700000.0 11309700000.0 11309700000.0 11309700000.0 11309700000.0 11309700000.0 11309700000.0 11309700000.0 11309700000.0 11309700000.0 11309700000.0 11309700000.0 11309700000.0 11309700000.0 11309700000.0 11309700000.0 11309700000.0 11309700000.0 11309700000.0 11309700000.0 11309700000.0 11309700000.0 11309700000.0 11309700000.0 11309700000.0 11309700000.0 11309700000.0 11309700000.0 11309700000.0 11309700000.0 11309700000.0 11309700000.0 11309700000.0 11309700000.0 11309700000.0 11309700000.0 11309700000.0 11309700000.0 11309700000.0 11309700000.0 11309700000.0 11309700000.0 11309700000.0 11309700000.0 11309700000.0 11309700000.0 11309700000.0 11309700000.0 11309700000.0 11309700000.0 11309700000.0 11309700000.0 11309700000.0 11309700000.0 11309700000.0 11309700000.0 11309700000.0 11309700000.0 11309700000.0 11309700000.0 11309700000.0 11309700000.0 11309700000.0 11309700000.0 11309700000.0 11309700000.0 11309700000.0 11309700000.0 11309700000.0 11309700000.0 11309700000.0 11309700000.0 11309700000.0 11309700000.0 11309700000.0 11309700000.0 11309700000.0 11309700000.0 11309700000.0 11309700000.0 11309700000.0 11309700000.0 11309700000.0 11309700000.0 11309700000.0 11309700000.0 11309700000.0 11309700000.0 11309700000.0 11309700000.0 11309700000.0 11309700000.0 11309700000.0 11309700000.0 11309700000.0 11309700000.0 11309700000.0 11309700000.0 11309700000.0 11309700000.0 11309700000.0 11309700000.0 11309700000.0 11309700000.0 11309700000.0 11309700000.0 11309700000.0 11309700000.0 11309700000.0 11309700000.0 11309700000.0 11309700000.0 11309700000.0 11309700000.0 11309700000.0 11309700000.0 11309700000.0 11309700000.0 11309700000.0 11309700000.0 11309700000.0 11309700000.0 11309700000.0 11309700000.0 11309700000.0 11309700000.0 11309700000.0 11309700000.0 11309700000.0 11309700000.0 11309700000.0 11309700000.0 11309700000.0 11309700000.0 11309700000.0 11309700000.0 11309700000.0 11309700000.0 11309700000.0 11309700000.0 11309700000.0 11309700000.0 11309700000.0 11309700000.0 11309700000.0 11309700000.0 11309700000.0 11309700000.0 11309700000.0 11309700000.0 11309700000.0 11309700000.0 11309700000.0 11309700000.0 11309700000.0 11309700000.0 11309700000.0 11309700000.0 11309700000.0 11309700000.0 11309700000.0 11309700000.0 11309700000.0 11309700000.0 11309700000.0 11309700000.0 11309700000.0 11309700000.0 11309700000.0 11309700000.0 11309700000.0 11309700000.0 11309700000.0 11309700000.0 11309700000.0 11309700000.0 11309700000.0 11309700000.0 11309700000.0 11309700000.0 11309700000.0 11309700000.0 11309700000.0 11309700000.0 11309700000.0 11309700000.0 11309700000.0 11309700000.0 11309700000.0 11309700000.0 11309700000.0 11309700000.0 11309700000.0 11309700000.0 11309700000.0 11309700000.0 11309700000.0 11309700000.0 11309700000.0 11309700000.0 11309700000.0 11309700000.0 11309700000.0 11309700000.0 11309700000.0 11309700000.0 11309700000.0 11309700000.0 11309700000.0 11309700000.0 11309700000.0 11309700000.0 11309700000.0 11309700000.0 11309700000.0 11309700000.0 11309700000.0 11309700000.0 11309700000.0 11309700000.0 11309700000.0 11309700000.0 11309700000.0 11309700000.0 11309700000.0 11309700000.0 11309700000.0 11309700000.0 11309700000.0 11309700000.0 11309700000.0 11309700000.0 11309700000.0 11309700000.0 11309700000.0 11309700000.0 11309700000.0 11309700000.0 11309700000.0 11309700000.0 11309700000.0 11309700000.0 11309700000.0 11309700000.0 11309700000.0 11309700000.0 11309700000.0 11309700000.0 11309700000.0 11309700000.0 11309700000.0 11309700000.0 11309700000.0 11309700000.0 11309700000.0 11309700000.0 11309700000.0 11309700000.0 11309700000.0 11309700000.0 11309700000.0 11309700000.0 11309700000.0 11309700000.0 11309700000.0 11309700000.0 11309700000.0 11309700000.0 11309700000.0 11309700000.0 11309700000.0 11309700000.0 11309700000.0 11309700000.0 11309700000.0 11309700000.0 11309700000.0 11309700000.0 11309700000.0 11309700000.0 11309700000.0 11309700000.0 11309700000.0 11309700000.0 11309700000.0 11309700000.0 11309700000.0 11309700000.0 11309700000.0 11309700000.0 11309700000.0 11309700000.0 11309700000.0 11309700000.0 11309700000.0 11309700000.0 11309700000.0 11309700000.0 11309700000.0 11309700000.0 11309700000.0 11309700000.0 11309700000.0 11309700000.0 11309700000.0 11309700000.0 11309700000.0 11309700000.0 11309700000.0 11309700000.0 11309700000.0 11309700000.0 11309700000.0 11309700000.0 11309700000.0 11309700000.0 11309700000.0 11309700000.0 11309700000.0 11309700000.0 11309700000.0 11309700000.0 11309700000.0 11309700000.0 11309700000.0 11309700000.0 11309700000.0 11309700000.0 11309700000.0 11309700000.0 11309700000.0 11309700000.0 11309700000.0 11309700000.0 11309700000.0 11309700000.0 11309700000.0 11309700000.0 11309700000.0 11309700000.0 11309700000.0 11309700000.0 11309700000.0 11309700000.0 11309700000.0 11309700000.0 11309700000.0 11309700000.0 11309700000.0 11309700000.0 11309700000.0 11309700000.0 11309700000.0 11309700000.0 11309700000.0 11309700000.0 11309700000.0 11309700000.0 11309700000.0 11309700000.0 11309700000.0 11309700000.0 11309700000.0 11309700000.0 11309700000.0 11309700000.0 11309700000.0 11309700000.0 11309700000.0 11309700000.0 11309700000.0 11309700000.0 11309700000.0 11309700000.0 11309700000.0 11309700000.0 11309700000.0 11309700000.0 11309700000.0 11309700000.0 11309700000.0 11309700000.0 11309700000.0 11309700000.0 11309700000.0 11309700000.0 11309700000.0 11309700000.0 11309700000.0 11309700000.0 11309700000.0 11309700000.0 11309700000.0 11309700000.0 11309700000.0 11309700000.0 11309700000.0 11309700000.0 11309700000.0 11309700000.0 11309700000.0 11309700000.0 11309700000.0 11309700000.0 11309700000.0 11309700000.0 11309700000.0 11309700000.0 11309700000.0 11309700000.0 11309700000.0 11309700000.0 11309700000.0 11309700000.0 11309700000.0 11309700000.0 11309700000.0 11309700000.0 11309700000.0 11309700000.0 11309700000.0 11309700000.0 11309700000.0 11309700000.0 11309700000.0 11309700000.0 11309700000.0 11309700000.0 11309700000.0 11309700000.0 11309700000.0 11309700000.0 11309700000.0 11309700000.0 11309700000.0 11309700000.0 11309700000.0 11309700000.0 11309700000.0 11309700000.0 11309700000.0 11309700000.0 11309700000.0 11309700000.0 11309700000.0 11309700000.0 11309700000.0 11309700000.0 11309700000.0 11309700000.0 11309700000.0 11309700000.0 11309700000.0 11309700000.0 11309700000.0 11309700000.0 11309700000.0 11309700000.0 11309700000.0 11309700000.0 11309700000.0 11309700000.0 11309700000.0 11309700000.0 11309700000.0 11309700000.0 11309700000.0 11309700000.0 11309700000.0 11309700000.0 11309700000.0 11309700000.0 11309700000.0 11309700000.0 11309700000.0 11309700000.0 11309700000.0 11309700000.0 11309700000.0 11309700000.0 11309700000.0 11309700000.0 11309700000.0 11309700000.0 11309700000.0 11309700000.0 11309700000.0 11309700000.0 11309700000.0 11309700000.0 11309700000.0 11309700000.0 11309700000.0 11309700000.0 11309700000.0 11309700000.0 11309700000.0 11309700000.0 11309700000.0 11309700000.0 11309700000.0 11309700000.0 11309700000.0 11309700000.0 11309700000.0 11309700000.0 11309700000.0 11309700000.0 11309700000.0 11309700000.0 11309700000.0 11309700000.0 11309700000.0 11309700000.0 11309700000.0 11309700000.0 11309700000.0 11309700000.0 11309700000.0 11309700000.0 11309700000.0 11309700000.0 11309700000.0 11309700000.0 11309700000.0 11309700000.0 11309700000.0 11309700000.0 11309700000.0 11309700000.0 11309700000.0 11309700000.0 11309700000.0 11309700000.0 11309700000.0 11309700000.0 11309700000.0 11309700000.0 11309700000.0 11309700000.0 11309700000.0 11309700000.0 11309700000.0 11309700000.0 11309700000.0 11309700000.0 11309700000.0 11309700000.0 11309700000.0 11309700000.0 11309700000.0 11309700000.0 11309700000.0 11309700000.0 11309700000.0 11309700000.0 11309700000.0 11309700000.0 11309700000.0 11309700000.0 11309700000.0 11309700000.0 11309700000.0 11309700000.0 11309700000.0 11309700000.0 11309700000.0 11309700000.0 11309700000.0 11309700000.0 11309700000.0 11309700000.0 11309700000.0 11309700000.0 11309700000.0 11309700000.0 11309700000.0 11309700000.0 11309700000.0 11309700000.0 11309700000.0 11309700000.0 11309700000.0 11309700000.0 11309700000.0 11309700000.0 11309700000.0 11309700000.0 11309700000.0 11309700000.0 11309700000.0 11309700000.0 11309700000.0 11309700000.0 11309700000.0 11309700000.0 11309700000.0 11309700000.0 11309700000.0 11309700000.0 11309700000.0 11309700000.0 11309700000.0 11309700000.0 11309700000.0 11309700000.0 11309700000.0 11309700000.0 11309700000.0 11309700000.0 11309700000.0 11309700000.0 11309700000.0 11309700000.0 11309700000.0 11309700000.0 11309700000.0 11309700000.0 11309700000.0 11309700000.0 11309700000.0 11309700000.0 11309700000.0 11309700000.0 11309700000.0 11309700000.0 11309700000.0 11309700000.0 11309700000.0 11309700000.0 11309700000.0 11309700000.0 11309700000.0 11309700000.0 11309700000.0 11309700000.0 11309700000.0 11309700000.0 11309700000.0 11309700000.0 11309700000.0 11309700000.0 11309700000.0 11309700000.0 11309700000.0 11309700000.0 11309700000.0 11309700000.0 11309700000.0 11309700000.0 11309700000.0 11309700000.0 11309700000.0 11309700000.0 11309700000.0 11309700000.0 11309700000.0 11309700000.0 11309700000.0 11309700000.0 11309700000.0 11309700000.0 11309700000.0 11309700000.0 11309700000.0 11309700000.0 11309700000.0 11309700000.0 11309700000.0 11309700000.0 11309700000.0 11309700000.0 11309700000.0 11309700000.0 11309700000.0 11309700000.0 11309700000.0 11309700000.0 11309700000.0 11309700000.0 11309700000.0 11309700000.0 11309700000.0 11309700000.0 11309700000.0 11309700000.0 11309700000.0 11309700000.0 11309700000.0 11309700000.0 11309700000.0 11309700000.0 11309700000.0 11309700000.0 11309700000.0 11309700000.0 11309700000.0 11309700000.0 11309700000.0 11309700000.0 11309700000.0 11309700000.0 11309700000.0 11309700000.0 11309700000.0 11309700000.0 11309700000.0 11309700000.0 11309700000.0 11309700000.0 11309700000.0 11309700000.0 11309700000.0 11309700000.0 11309700000.0 11309700000.0 11309700000.0 11309700000.0 11309700000.0 11309700000.0 11309700000.0 11309700000.0 11309700000.0 11309700000.0 11309700000.0 11309700000.0 11309700000.0 11309700000.0 11309700000.0 11309700000.0 11309700000.0 11309700000.0 11309700000.0 11309700000.0 11309700000.0 11309700000.0 11309700000.0 11309700000.0 11309700000.0 11309700000.0 11309700000.0 11309700000.0 11309700000.0 11309700000.0 11309700000.0 11309700000.0 11309700000.0 11309700000.0 11309700000.0 11309700000.0 11309700000.0 11309700000.0 11309700000.0 11309700000.0 11309700000.0 11309700000.0 11309700000.0 11309700000.0 11309700000.0 11309700000.0 11309700000.0 11309700000.0 11309700000.0 11309700000.0 11309700000.0 11309700000.0 11309700000.0 11309700000.0 11309700000.0 11309700000.0 11309700000.0 11309700000.0 11309700000.0 11309700000.0 11309700000.0 11309700000.0 11309700000.0 11309700000.0 11309700000.0 11309700000.0 11309700000.0 11309700000.0 11309700000.0 11309700000.0 11309700000.0 11309700000.0 11309700000.0 11309700000.0 11309700000.0 11309700000.0 11309700000.0 11309700000.0 11309700000.0 11309700000.0 11309700000.0 11309700000.0 11309700000.0 11309700000.0 11309700000.0 11309700000.0 11309700000.0 11309700000.0 11309700000.0 11309700000.0 11309700000.0 11309700000.0 11309700000.0 11309700000.0 11309700000.0 11309700000.0 11309700000.0 11309700000.0 11309700000.0 11309700000.0 11309700000.0 11309700000.0 11309700000.0 11309700000.0 11309700000.0 11309700000.0 11309700000.0 11309700000.0 11309700000.0 11309700000.0 11309700000.0 11309700000.0 11309700000.0 11309700000.0 11309700000.0 11309700000.0 11309700000.0 11309700000.0 11309700000.0 11309700000.0 11309700000.0 11309700000.0 11309700000.0 11309700000.0 11309700000.0 11309700000.0 11309700000.0 11309700000.0 11309700000.0 11309700000.0 11309700000.0 11309700000.0 11309700000.0 11309700000.0 11309700000.0 11309700000.0 11309700000.0 11309700000.0 11309700000.0 11309700000.0 11309700000.0 11309700000.0 11309700000.0 11309700000.0 11309700000.0 11309700000.0 11309700000.0 11309700000.0 11309700000.0 11309700000.0 11309700000.0 11309700000.0 11309700000.0 11309700000.0 11309700000.0 11309700000.0 11309700000.0 11309700000.0 11309700000.0 11309700000.0 11309700000.0 11309700000.0 11309700000.0 11309700000.0 11309700000.0 11309700000.0 11309700000.0 11309700000.0 11309700000.0 11309700000.0 11309700000.0 11309700000.0 11309700000.0 11309700000.0 11309700000.0 11309700000.0 11309700000.0 11309700000.0 11309700000.0 11309700000.0 11309700000.0 11309700000.0 11309700000.0 11309700000.0 11309700000.0 11309700000.0 11309700000.0 11309700000.0 11309700000.0 11309700000.0 11309700000.0 11309700000.0 11309700000.0 11309700000.0 11309700000.0 11309700000.0 11309700000.0 11309700000.0 11309700000.0 11309700000.0 11309700000.0 11309700000.0 11309700000.0 11309700000.0 11309700000.0 11309700000.0 11309700000.0 11309700000.0 11309700000.0 11309700000.0 11309700000.0 11309700000.0 11309700000.0 11309700000.0 11309700000.0 11309700000.0 11309700000.0 11309700000.0 11309700000.0 11309700000.0 11309700000.0 11309700000.0 11309700000.0 11309700000.0 11309700000.0 11309700000.0 11309700000.0 11309700000.0 11309700000.0 11309700000.0 11309700000.0 11309700000.0 11309700000.0 11309700000.0 11309700000.0 11309700000.0 11309700000.0 11309700000.0 11309700000.0 11309700000.0 11309700000.0 11309700000.0 11309700000.0 11309700000.0 11309700000.0 11309700000.0 11309700000.0 11309700000.0 11309700000.0 11309700000.0 11309700000.0 11309700000.0 11309700000.0 11309700000.0 11309700000.0 11309700000.0 11309700000.0 11309700000.0 11309700000.0 11309700000.0 11309700000.0 11309700000.0 11309700000.0 11309700000.0 11309700000.0 11309700000.0 11309700000.0 11309700000.0 11309700000.0 11309700000.0 11309700000.0 11309700000.0 11309700000.0 11309700000.0 11309700000.0 11309700000.0 11309700000.0 11309700000.0 11309700000.0 11309700000.0 11309700000.0 11309700000.0 11309700000.0 11309700000.0 11309700000.0 11309700000.0 11309700000.0 11309700000.0 11309700000.0 11309700000.0 11309700000.0 11309700000.0 11309700000.0 11309700000.0 11309700000.0 11309700000.0 11309700000.0 11309700000.0 11309700000.0 11309700000.0 11309700000.0 11309700000.0 11309700000.0 11309700000.0 11309700000.0 11309700000.0 11309700000.0 11309700000.0 11309700000.0 11309700000.0 11309700000.0 11309700000.0 11309700000.0 11309700000.0 11309700000.0 11309700000.0 11309700000.0 11309700000.0 11309700000.0 11309700000.0 11309700000.0 11309700000.0 11309700000.0 11309700000.0 11309700000.0 11309700000.0 11309700000.0 11309700000.0 11309700000.0 11309700000.0 11309700000.0 11309700000.0 11309700000.0 11309700000.0 11309700000.0 11309700000.0 11309700000.0 11309700000.0 11309700000.0 11309700000.0 11309700000.0 11309700000.0 11309700000.0 11309700000.0 11309700000.0 11309700000.0 11309700000.0 11309700000.0 11309700000.0 11309700000.0 11309700000.0 11309700000.0 11309700000.0 11309700000.0 11309700000.0 11309700000.0 11309700000.0 11309700000.0 11309700000.0 11309700000.0 11309700000.0 11309700000.0 11309700000.0 11309700000.0 11309700000.0 11309700000.0 11309700000.0 11309700000.0 11309700000.0 11309700000.0 11309700000.0 11309700000.0 11309700000.0 11309700000.0 11309700000.0 11309700000.0 11309700000.0 11309700000.0 11309700000.0 11309700000.0 11309700000.0 11309700000.0 11309700000.0 11309700000.0 11309700000.0 11309700000.0 11309700000.0 11309700000.0 11309700000.0 11309700000.0 11309700000.0 11309700000.0 11309700000.0 11309700000.0 11309700000.0 11309700000.0 11309700000.0 11309700000.0 11309700000.0 11309700000.0 11309700000.0 11309700000.0 11309700000.0 11309700000.0 11309700000.0 11309700000.0 11309700000.0 11309700000.0 11309700000.0 11309700000.0 11309700000.0 11309700000.0 11309700000.0 11309700000.0 11309700000.0 11309700000.0 11309700000.0 11309700000.0 11309700000.0 11309700000.0 11309700000.0 11309700000.0 11309700000.0 11309700000.0 11309700000.0 11309700000.0 11309700000.0 11309700000.0 11309700000.0 11309700000.0 11309700000.0 11309700000.0 11309700000.0 11309700000.0 11309700000.0 11309700000.0 11309700000.0 11309700000.0 11309700000.0 11309700000.0 11309700000.0 11309700000.0 11309700000.0 11309700000.0 11309700000.0 11309700000.0 11309700000.0 11309700000.0 11309700000.0 11309700000.0 11309700000.0 11309700000.0 11309700000.0 11309700000.0 11309700000.0 11309700000.0 11309700000.0 11309700000.0 11309700000.0 11309700000.0 11309700000.0 11309700000.0 11309700000.0 11309700000.0 11309700000.0 11309700000.0 11309700000.0 11309700000.0 11309700000.0 11309700000.0 11309700000.0 11309700000.0 11309700000.0 11309700000.0 11309700000.0 11309700000.0 11309700000.0 11309700000.0 11309700000.0 11309700000.0 11309700000.0 11309700000.0 11309700000.0 11309700000.0 11309700000.0 11309700000.0 11309700000.0 11309700000.0 11309700000.0 11309700000.0 11309700000.0 11309700000.0 11309700000.0 11309700000.0 11309700000.0 11309700000.0 11309700000.0 11309700000.0 11309700000.0 11309700000.0 11309700000.0 11309700000.0 11309700000.0 11309700000.0 11309700000.0 11309700000.0 11309700000.0 11309700000.0 11309700000.0 11309700000.0 11309700000.0 11309700000.0 11309700000.0 11309700000.0 11309700000.0 11309700000.0 11309700000.0 11309700000.0 11309700000.0 11309700000.0 11309700000.0 11309700000.0 11309700000.0 11309700000.0 11309700000.0 11309700000.0 11309700000.0 11309700000.0 11309700000.0 11309700000.0 11309700000.0 11309700000.0 11309700000.0 11309700000.0 11309700000.0 11309700000.0 11309700000.0 11309700000.0 11309700000.0 11309700000.0 11309700000.0 11309700000.0 11309700000.0 11309700000.0 11309700000.0 11309700000.0 11309700000.0 11309700000.0 11309700000.0 11309700000.0 11309700000.0 11309700000.0 
SCALARS Velocity float 1
LOOKUP_TABLE default
1.08084 1.07952 1.09489 1.10345 1.09709 1.09897 1.10129 1.10272 1.10871 0.990956 1.05661 1.07966 1.08001 1.0741 1.07725 1.07811 1.0788 1.08038 1.08278 1.10126 1.09095 1.09589 1.09702 1.10045 1.10486 1.1173 1.05155 1.08142 1.07762 1.07428 1.07771 1.07946 1.10426 1.10147 1.09468 1.09642 1.09819 1.10176 1.1087 0.964339 0.963907 1.08258 1.07968 1.07447 1.07378 1.07735 1.07818 1.08287 1.10407 1.09086 1.09544 1.0966 1.09728 1.09923 1.10039 1.10386 1.10816 1.11701 0.995943 1.09237 1.08393 1.08193 1.07911 1.07691 1.07459 1.07379 1.0734 1.07735 1.07762 1.07803 1.07821 1.08198 1.10043 1.09074 1.09403 1.09409 1.09552 1.09583 1.09805 1.10237 1.11569 0.999546 1.09073 1.08119 1.07647 1.07359 1.07749 1.0785 1.10385 1.09874 1.09292 1.09461 1.0963 1.09914 1.10553 0.992971 1.09415 1.08436 1.07849 1.07453 1.07329 1.07719 1.07792 1.08061 1.10353 1.09019 1.09356 1.09492 1.09516 1.09694 1.09797 1.10082 1.10322 1.11175 1.10278 1.09734 1.09255 1.08879 1.08424 1.08101 1.07829 1.07618 1.07454 1.07357 1.07345 1.07692 1.07718 1.07758 1.07946 1.08119 1.08907 1.09043 1.09222 1.09294 1.09388 1.09381 1.09555 1.09954 1.09985 1.09726 1.08818 1.08095 1.07615 1.07379 1.07676 1.07922 1.07497 1.0844 1.08784 1.09182 1.09285 1.09357 1.09628 1.09977 1.09946 1.09235 1.0842 1.07829 1.07478 1.07394 1.07674 1.07652 1.07283 1.08177 1.08976 1.09212 1.09214 1.09119 1.09346 1.09347 1.09677 1.09652 1.09816 1.09669 1.09562 1.09135 1.08794 1.08392 1.0809 1.07829 1.07633 1.07528 1.07433 1.07488 1.07649 1.07645 1.07491 1.07255 1.07543 1.0854 1.09107 1.0909 1.09131 1.08968 1.0904 1.09338 1.09534 1.09361 1.08699 1.08052 1.07661 1.0753 1.0757 1.07308 1.07302 1.0748 1.07958 1.08295 1.08855 1.09022 1.08909 1.08788 1.08989 1.09285 1.09373 1.0896 1.0828 1.07806 1.0761 1.07641 1.07617 1.07452 1.07311 1.07713 1.08798 1.08932 1.08635 1.08388 1.08658 1.08576 1.08939 1.08849 1.09171 1.09013 1.09111 1.08682 1.08494 1.08038 1.07936 1.07735 1.07692 1.07732 1.07684 1.0787 1.07621 1.07548 1.07465 1.07353 1.0737 1.07966 1.08978 1.08729 1.08615 1.08246 1.08245 1.08484 1.08699 1.08802 1.08126 1.07704 1.07727 1.07913 1.07567 1.07391 1.07333 1.07343 1.07395 1.07317 1.08883 1.0889 1.08308 1.07976 1.08157 1.08312 1.08531 1.08256 1.07604 1.07606 1.07917 1.08192 1.07659 1.07489 1.07348 1.07328 1.06393 1.08613 1.07864 1.07643 1.07892 1.07843 1.07995 1.07632 1.08041 1.07791 1.08441 1.07591 1.07511 1.06934 1.07331 1.07454 1.07791 1.08197 1.08244 1.08619 1.07722 1.07608 1.075 1.0739 1.07275 1.07324 1.06888 1.05994 1.0811 1.07578 1.07735 1.07608 1.07001 1.08051 1.06552 1.06886 1.07924 1.08696 1.0766 1.07322 1.0713 1.07225 1.0657 1.06366 1.06007 1.05802 1.0577 1.07521 1.0782 1.07733 1.07381 1.07067 1.06281 1.06164 1.0617 1.06446 1.06198 1.07344 1.08601 1.09138 1.07815 1.0749 1.07079 1.07006 1.06233 1.05809 1.07376 1.07653 1.06782 1.05677 1.03743 1.05714 1.056 1.06481 1.07341 1.08168 1.09129 1.09264 1.09691 1.07955 1.07741 1.07486 1.07186 1.06779 1.06829 1.06581 1.06412 1.05932 1.07356 1.06935 1.07572 1.07325 1.05999 1.04483 1.01197 1.06213 1.08522 1.09881 1.07904 1.07004 1.06351 1.06321 1.06106 1.07545 1.07038 1.07431 1.0757 1.076 1.07373 1.06724 1.05739 1.04808 1.0272 1.01894 0.993233 0.995336 0.997335 1.07468 1.09708 1.10154 1.08171 1.08209 1.07557 1.06814 1.0633 1.05612 1.05888 1.07584 1.07229 1.07268 1.07607 1.06788 1.04108 0.994658 0.980306 1.02138 1.05791 1.08891 1.10203 1.10399 1.10339 1.08425 1.07722 1.05712 1.04953 1.07361 1.07541 1.07393 1.06976 1.06984 1.06983 1.07406 1.07451 1.05883 1.01267 0.966547 0.960262 0.991067 1.02604 1.08938 1.10561 1.08645 1.06554 1.04556 1.04171 1.06684 1.07642 1.0703 1.06628 1.0702 1.07504 1.07584 1.07192 1.06656 1.04 1.00291 0.965968 0.933504 0.985339 1.06627 1.10191 1.10054 1.0861 1.09197 1.07881 1.05975 1.04844 1.03386 1.0737 1.07071 1.06451 1.06479 1.07063 1.07838 1.05106 0.93312 0.941282 1.03372 1.07707 1.09283 1.09817 1.10103 1.08924 1.08395 1.0779 1.03217 1.05637 1.05283 1.06751 1.0584 1.06295 1.05736 1.06048 1.05829 1.06423 1.06435 1.0726 1.07981 1.01701 0.940385 0.895461 0.927499 0.983644 1.04909 1.09422 1.08683 1.07076 1.0982 1.06939 1.04751 1.11056 1.06797 1.0331 1.04545 1.05252 1.05423 1.05707 1.06507 1.0748 1.07632 1.08384 0.872332 0.986111 1.0881 1.08354 1.05535 1.06171 1.10536 1.16432 1.03486 1.02357 1.04161 1.04341 1.05052 1.05253 1.05678 1.06405 1.07726 1.08964 1.15328 0.917503 0.979072 1.07339 1.09423 1.08475 1.04945 1.02232 1.06224 1.17931 1.18586 1.15332 1.09044 0.998627 1.001 0.995116 1.02276 1.03068 1.04791 1.05038 1.04988 1.05117 1.04913 1.05509 1.0543 1.06438 1.07509 1.10407 1.2524 1.119 1.04672 1.02021 1.07372 1.15531 1.17675 1.09765 0.960857 1.00948 1.04287 1.0511 1.04815 1.04759 1.0583 1.10539 1.17017 1.25191 1.11619 1.05349 1.02776 1.0276 1.02389 1.02603 1.10208 1.15977 1.16902 1.17163 1.14814 0.9366 0.915179 0.971851 1.01398 1.03408 1.05189 1.05215 1.05638 1.05145 1.0496 1.04555 1.04855 1.07438 1.15221 1.22032 1.26167 1.05897 1.05944 1.08162 1.10908 1.1186 1.10725 1.2196 0.833799 0.968327 1.04619 1.06 1.05729 1.04712 1.04409 1.04667 1.05609 1.07277 1.10392 1.18249 1.24203 1.22247 1.14602 1.0696 1.05865 1.02707 1.04588 1.08371 1.03906 1.12023 1.16844 1.35241 0.902514 1.0211 1.05932 1.06462 1.05581 1.04614 1.05484 1.09749 1.13991 1.20226 1.14434 1.11414 1.12786 0.99123 1.0862 1.04904 1.03885 1.45858 0.717634 0.917794 0.974902 1.01201 1.04686 1.06136 1.06805 1.0728 1.0659 1.06467 1.05349 1.05156 1.04813 1.0688 1.12107 1.16156 1.16133 1.18035 1.08641 1.03853 1.02927 1.22194 1.33836 0.893832 0.824494 0.804266 1.00271 1.05412 1.14347 1.46557 0.828801 0.953139 1.03382 1.0718 1.07435 1.06151 1.05058 1.05358 1.06131 1.08533 1.13117 1.1368 1.1439 1.09269 0.960468 2.80568 6.03803 0.26032 14.0546 0.876486 1.02241 1.06089 1.14545 1.2485 1.14978 0.890241 0.975651 1.05521 1.0774 1.07286 1.05705 1.05047 1.06857 1.09748 1.12491 1.10637 1.09718 1.0555 0.959527 1.42837 2.53667 0.703428 1.66225 0.537909 1.03494 1.12599 1.04114 0.881703 0.886803 0.91408 0.94494 1.01267 1.0398 1.06808 1.07545 1.07944 1.07723 1.06786 1.05131 1.05019 1.07239 1.09908 1.07091 1.09014 1.08028 0.965793 0.54233 0.99667 4.05445 0.910033 0.496847 0.853148 0.433325 0.352772 0.48257 1.24026 1.39928 1.14693 1.15193 1.08516 0.89476 0.883409 0.898038 0.987587 1.05596 1.07756 1.06941 1.05975 1.04838 1.04437 1.03651 1.04904 1.04698 1.06085 1.06854 1.0471 1.0094 1.24185 0.753905 1.33021 0.379762 0.596769 0.649307 0.542889 0.370557 0.349164 0.512739 0.845849 0.961152 1.09623 1.16029 1.12309 1.00642 0.961145 0.878268 0.894425 0.936486 1.01776 1.06416 1.07479 1.05714 1.03492 1.02154 1.02914 1.04408 1.04506 1.0416 1.10293 1.09939 0.854145 1.11326 0.756482 0.846856 0.519477 0.462173 0.533609 0.551145 0.595042 0.580117 0.492898 0.907962 1.10416 1.18557 1.01197 0.907313 0.872434 0.926196 0.971458 0.99511 1.0349 1.04153 1.06573 1.06362 1.0629 1.04003 1.02155 1.0119 1.02411 1.01884 1.03593 1.01741 0.994517 1.00955 1.02826 0.925083 0.959652 0.844056 0.741758 0.916282 0.605024 0.42108 0.427597 0.536877 0.541198 0.537194 0.569527 0.604823 0.609481 0.671411 0.575861 0.798107 1.34231 1.00621 0.993431 0.912881 0.863395 0.868279 0.892868 0.92297 0.954612 0.96968 1.00604 1.0423 1.04371 1.04604 1.02407 1.00664 1.00646 1.0123 1.01927 0.982465 0.974045 0.994494 1.00506 0.834389 0.807378 0.583383 0.518044 0.458226 0.47217 0.504465 0.510039 0.550741 0.553105 0.529953 0.532185 0.51651 0.593358 0.66927 0.699104 0.864816 0.893937 0.899451 0.837034 0.853283 0.847362 0.898447 0.944474 0.968551 1.00676 1.04515 1.00647 1.02282 0.997787 1.00369 0.991817 0.99906 1.00284 0.996693 0.940034 0.924588 0.893137 0.922359 0.691714 0.539534 0.429658 0.376345 0.406985 0.432216 0.492425 0.51754 0.47211 0.490876 0.538471 0.579064 0.610173 0.543481 0.541293 0.552156 0.751915 0.793346 0.807059 0.893256 0.832524 0.822677 0.873078 0.928539 0.946194 0.957234 1.01042 1.03288 0.986352 0.979725 0.992185 0.997462 0.996738 0.995377 0.980207 0.971611 0.904919 0.85985 0.905086 0.809195 0.75451 0.613483 0.594016 0.503814 0.418049 0.47708 0.485221 0.51401 0.527234 0.516243 0.636668 0.567989 0.502876 0.577804 0.690858 0.593166 0.606892 0.555145 0.617932 0.683808 0.708241 0.756742 0.805925 0.82865 0.801757 0.81715 0.815518 0.83927 0.883506 0.912275 0.938361 0.940306 0.927451 0.926671 0.896437 0.990816 1.05729 0.895639 0.959969 0.960577 0.978981 0.998403 0.991203 0.954269 0.940323 0.913235 0.888881 0.86426 0.756971 0.772728 0.693845 0.636442 0.505512 0.523497 0.52324 0.538946 0.5235 0.508076 0.491857 0.548966 0.563882 0.681685 0.584556 0.546904 0.838474 0.645998 0.628431 0.619957 0.700926 0.738252 0.761257 0.7799 0.812141 0.837206 0.933378 0.933907 0.893528 0.874642 0.926797 0.676888 0.884351 0.944647 0.918115 0.952014 0.963131 0.989999 1.00405 0.972723 0.919297 0.894366 0.881265 0.870862 0.824574 0.821778 0.802628 0.69628 0.535817 0.574704 0.536525 0.554319 0.542629 0.536516 0.509248 0.477883 0.573201 0.540126 0.493413 0.514545 1.11983 0.794383 0.71811 0.669102 0.656444 0.636174 0.656998 0.701835 0.708322 0.758259 0.753883 0.757349 0.796592 0.799331 0.912487 0.947857 0.897873 0.856308 0.680106 0.77397 0.834123 0.919527 0.975262 1.00221 1.01506 1.00055 0.977489 0.93426 0.885425 0.889177 0.884906 0.862484 0.865565 0.854122 0.634435 0.600909 0.576158 0.558363 0.552503 0.546797 0.516207 0.478855 0.458654 0.49345 0.667925 0.507144 0.457244 0.489236 0.147065 0.428754 1.07638 0.606986 0.69409 0.651628 0.582896 0.636023 0.655143 0.703158 0.745878 0.785067 0.741672 0.801249 0.811953 0.792392 0.843514 0.975552 0.963829 0.934984 0.909446 0.848226 0.846143 0.765842 0.683903 0.765374 0.840898 0.929478 0.996104 1.01987 0.922458 0.857831 0.871416 0.870063 0.878394 0.872632 0.918022 0.693497 0.700879 0.625879 0.594964 0.579203 0.568649 0.557416 0.530468 0.473788 0.499415 0.503444 0.503478 0.819146 0.646459 0.560175 0.49248 0.357091 0.642088 0.576702 0.598035 0.567223 0.551715 0.624913 0.64647 0.744326 0.734969 0.743817 0.82412 0.889763 0.982677 0.860226 0.772727 0.772862 0.707163 0.683084 0.666727 0.713909 0.704964 0.762632 0.770171 0.849779 0.858544 0.943657 0.974109 1.02782 1.00218 0.858449 0.852544 0.857309 0.802029 0.98426 0.813695 0.714172 0.660115 0.584717 0.58498 0.564431 0.473799 0.441655 0.513128 0.523985 0.493346 1.17666 0.998556 0.677964 0.558264 0.486732 0.429802 0.525321 0.564572 0.747337 0.965772 0.666594 0.631951 0.594142 0.540811 0.659666 0.571919 0.788441 0.783848 0.725609 0.79974 0.846446 0.896364 1.06263 0.948066 0.876213 0.776397 0.71009 0.662348 0.666564 0.709089 0.765696 0.868809 1.01952 1.04208 1.04264 0.928122 0.848499 0.840712 0.844551 0.857429 0.859616 0.822309 0.709396 0.360151 0.571398 0.598999 0.600877 0.594813 0.58029 0.592933 0.629968 0.567871 0.502271 0.45825 0.564237 0.532778 0.476434 0.442584 0.617929 0.579423 0.517987 0.57325 0.473449 0.495022 0.499671 0.653923 0.831779 0.6956 0.630421 0.557639 0.517861 0.502793 0.616085 0.644014 0.968286 0.839158 0.757572 0.69896 0.783368 0.844174 0.804412 0.846518 0.793655 0.72713 0.71265 0.663121 0.663148 0.642461 0.668602 0.711343 0.775116 0.897957 1.01771 0.914605 0.838764 0.851413 0.780476 1.07183 0.876782 0.5546 0.593522 0.589439 0.586587 0.587221 0.629221 0.739284 0.632534 0.576146 0.460802 0.485347 0.421618 0.397885 0.35313 0.70631 0.962957 2.75866 1.1675 0.434708 0.456773 0.475992 0.451313 0.750578 0.807219 0.654936 0.563005 0.49215 0.464285 0.427349 0.75851 0.776184 0.759349 0.807904 0.822947 0.867456 0.791089 0.763535 0.672301 0.63369 0.635661 0.621902 0.641935 0.653315 0.683068 0.706588 0.817314 0.780461 0.928121 0.942138 1.05793 0.842304 0.744259 0.83943 0.878656 0.947148 0.808619 0.471145 0.874832 0.101463 0.452215 0.473304 0.539147 0.54633 0.55019 0.554659 0.600445 0.674039 0.961711 0.373393 0.381989 0.435424 0.440714 0.400236 0.373751 0.311191 0.495368 0.529543 1.91705 1.05366 0.629708 0.456805 0.528764 0.702782 0.438171 0.741835 0.879239 0.678608 0.542179 0.456557 0.39003 0.503112 0.517212 0.84579 0.753808 0.757209 0.819907 0.810505 0.823297 0.796766 0.722718 0.698092 0.637002 0.61499 0.631429 0.668968 0.690071 0.700177 0.716351 0.735347 0.715233 1.15615 0.800047 0.810004 1.11005 0.679845 0.535106 0.250683 0.451432 0.484825 0.506904 0.586559 0.495713 1.04794 0.111791 0.390216 0.412888 0.363034 0.332857 0.295474 0.271897 0.0621259 0.258507 0.299421 0.234228 0.124093 1.08733 0.701373 0.522788 0.383006 0.379027 1.08145 1.12568 0.673199 0.388502 0.160845 0.147341 0.685502 0.797212 0.67225 0.787277 0.857101 0.748583 0.712604 0.731109 0.768049 0.746431 0.670805 0.651972 0.623494 0.616514 0.616024 0.649166 0.686919 0.717303 0.706841 1.05753 0.125126 0.848876 0.744258 0.749366 0.802814 0.913569 0.794518 0.544401 0.505614 0.504599 0.493222 0.478358 0.465735 0.746183 0.463163 0.267966 0.399584 0.39645 0.391239 0.363378 0.32923 0.256901 0.236218 0.211677 0.0956251 0.13949 0.222684 0.386626 0.741288 0.697059 0.568718 0.457177 0.404611 0.425301 0.503134 0.519253 1.00674 0.510595 0.376494 0.227876 0.16977 0.309486 1.09609 0.580508 0.730291 0.837155 0.650229 0.68932 0.73387 0.720982 0.686478 0.63528 0.614165 0.611159 0.619809 0.630735 0.669857 0.70784 0.696245 0.754978 0.849158 0.634862 0.46869 0.53522 0.777831 0.910197 0.930154 0.736162 0.399927 0.480504 0.491606 0.490459 0.480749 0.47749 0.482769 0.513666 0.520583 0.385573 0.400382 0.356206 0.388629 0.335651 0.295677 0.259119 0.223235 0.192311 0.18895 0.190581 0.128616 0.216499 0.267119 0.294992 0.435404 0.548641 0.474711 0.489401 0.444484 0.407653 0.259756 0.353402 0.578068 0.44387 0.267868 0.244345 0.378107 0.86196 0.727244 0.784841 0.817605 0.733228 0.660167 0.627722 0.6554 0.660555 0.64805 0.616817 0.62004 0.640073 0.653022 0.673233 0.685782 0.70646 0.706404 0.706625 0.655931 0.18117 0.362813 0.644052 0.775112 0.9078 0.556685 0.509743 0.471553 0.492273 0.481065 0.472399 0.471556 0.483724 0.510564 0.604538 0.506807 0.447653 0.423104 0.394242 0.397296 0.367895 0.300559 0.224426 0.210996 0.194278 0.188406 0.29913 0.254202 0.2483 0.222976 0.257846 0.345804 0.462181 0.564486 0.443133 0.429572 0.402575 0.423124 0.293606 0.804052 0.546442 0.386427 0.112562 0.200501 0.0947076 0.329227 0.5863 0.76793 0.807635 0.821242 0.747756 0.653515 0.606717 0.608207 0.577293 0.662159 0.640102 0.625555 0.614768 0.615578 0.629843 0.666107 0.691658 0.68563 0.656329 0.50903 0.240191 0.476843 0.586459 0.646033 0.32345 0.310118 0.430273 0.479384 0.481665 0.47871 0.466598 0.462813 0.471536 0.492648 0.550974 0.434949 0.450549 0.451033 0.427288 0.381242 0.340905 0.305168 0.264697 0.236402 0.214391 0.187842 0.176966 0.1885 0.31176 0.294386 0.287815 0.248665 0.27767 0.334641 0.409242 0.495775 0.358937 0.383246 0.381695 0.330956 0.241944 0.147351 0.266946 0.620753 0.503751 0.316454 0.143123 0.19517 0.278044 0.516388 0.85041 0.793069 0.763863 0.664593 0.59217 0.592162 0.618512 0.617665 0.624851 0.634299 0.647234 0.671554 0.676215 0.691323 0.641579 0.608654 0.588901 0.544935 0.293271 0.375569 0.517127 0.618023 0.742231 0.534731 0.293477 0.362968 0.430983 0.463612 0.46601 0.457194 0.451988 0.455307 0.46767 0.498964 0.526489 0.393772 0.45528 0.44955 0.41659 0.392973 0.348059 0.265962 0.208921 0.205618 0.190968 0.198567 0.21276 0.308247 0.321922 0.314687 0.302268 0.340769 0.357319 0.413418 0.367364 0.501109 0.418963 0.266889 0.404138 0.368426 0.34666 0.32392 0.290179 0.396619 0.544839 0.471244 0.242387 0.0898251 0.192044 0.474353 0.731414 0.836106 0.744988 0.677172 0.625188 0.596904 0.60341 0.589125 0.647628 0.632625 0.625472 0.615977 0.623154 0.645305 0.676848 0.698211 0.718444 0.486077 0.594658 0.598217 0.676074 0.540371 0.577508 0.587554 0.55976 0.437271 0.364599 0.39758 0.434909 0.450183 0.450025 0.443902 0.440948 0.444716 0.457492 0.470233 0.537076 0.44867 0.46331 0.465598 0.439888 0.357454 0.310988 0.271906 0.236388 0.193642 0.199761 0.174133 0.193304 0.196009 0.20602 0.302088 0.302492 0.311872 0.317096 0.317359 0.300075 0.295328 0.321874 0.230071 0.386907 0.279999 0.29791 0.54579 0.475001 0.347319 0.27923 0.37724 0.458856 0.280814 0.308487 0.67282 0.779939 0.779078 0.633871 0.622865 0.603191 0.603296 0.621511 0.626182 0.621748 0.618727 0.614181 0.628683 0.661866 0.679769 0.657505 0.519536 0.504134 0.647621 0.537741 0.609961 0.54565 0.4328 0.401651 0.415847 0.43439 0.442692 0.439453 0.43575 0.43696 0.449989 0.490772 0.464557 0.47494 0.473667 0.464224 0.402287 0.36917 0.323309 0.22985 0.208512 0.171382 0.16906 0.165261 0.203668 0.200113 0.287694 0.303737 0.306118 0.306881 0.303512 0.295361 0.255884 0.262187 0.155076 0.158712 0.234315 0.351152 0.326696 0.276169 0.361635 0.346659 0.44705 0.360234 0.517532 0.414079 0.116773 0.738342 0.705516 0.707046 0.693451 0.688253 0.649868 0.610424 0.608286 0.616316 0.62375 0.625998 0.633725 0.619518 0.610144 0.634351 0.675438 0.650283 0.705256 0.622869 1.02116 0.656488 0.73466 0.808336 0.595738 0.49984 0.505907 0.444351 0.433323 0.45609 0.46248 0.475046 0.484976 0.489831 0.402744 0.348197 0.290218 0.226587 0.198851 0.210374 0.164838 0.180203 0.201633 0.207114 0.197388 0.236271 0.299802 0.304751 0.306725 0.295793 0.288492 0.249224 0.169078 0.188333 0.345208 0.419537 0.468406 0.392869 0.368055 0.452502 0.497192 0.494935 0.384272 0.327862 0.785806 0.654418 0.59446 0.603269 0.601377 0.604568 0.620813 0.6263 0.629167 0.634254 0.643181 0.626597 0.608831 0.611129 0.60516 0.632038 0.682968 0.927997 0.728069 0.702443 0.566223 0.501514 0.500053 0.476618 0.442042 0.41601 0.426958 0.440036 0.446569 0.443742 0.440327 0.434225 0.448263 0.480138 0.482936 0.48135 0.513973 0.419025 0.391062 0.327248 0.233853 0.229886 0.241752 0.189449 0.184043 0.193054 0.188909 0.197152 0.211523 0.183206 0.193975 0.227981 0.270605 0.285366 0.274669 0.278584 0.257164 0.172664 0.107142 0.19462 0.375602 0.187758 0.532681 0.610752 0.434025 0.423174 0.399244 0.418219 0.472133 0.512154 0.54888 0.630223 0.640484 1.00554 0.622013 0.532839 0.540262 0.555497 0.574893 0.597299 0.61399 0.63624 0.640398 0.637463 0.624058 0.639645 0.583947 0.660426 0.586138 0.627836 0.701614 0.684131 0.654641 0.631679 0.539962 0.547743 0.513676 0.490619 0.458138 0.441765 0.432813 0.445885 0.452178 0.45212 0.447771 0.440891 0.433416 0.434622 0.489048 0.481443 0.496317 0.328241 0.399517 0.373582 0.228431 0.282664 0.255573 0.291032 0.188467 0.202652 0.22085 0.208768 0.216054 0.19577 0.155791 0.249007 0.203197 0.224151 0.246059 0.248832 0.202705 0.264356 0.273893 0.206727 0.108793 0.120943 0.202186 0.292645 0.45248 0.595077 0.687893 0.0792096 0.303731 0.411 0.417852 0.416686 0.433194 0.461407 0.466441 0.498327 0.607153 0.934833 0.65832 0.56271 0.508652 0.528327 0.549967 0.581964 0.60787 0.624947 0.632016 0.634214 0.840101 0.752468 0.708029 0.67076 0.62455 0.601061 0.566175 0.535551 0.497261 0.469364 0.453382 0.454401 0.455018 0.46139 0.463063 0.460494 0.452283 0.440374 0.428936 0.427496 0.48976 0.489414 0.48706 0.390175 0.327031 0.390544 0.372236 0.246543 0.321128 0.232226 0.156499 0.2481 0.219427 0.213248 0.147503 0.128606 0.0732164 0.284748 0.269894 0.2212 0.221284 0.245377 0.196949 0.190489 0.334031 0.225498 0.153526 0.0776211 0.16149 0.170625 0.408593 0.430753 0.330673 0.166877 0.384906 0.403648 0.421326 0.423703 0.428203 0.421908 0.380913 0.362348 0.731386 0.759573 0.589522 0.513811 0.537867 0.568954 0.599033 0.623178 0.636432 0.640084 0.640184 0.640932 0.640068 0.636945 0.638713 0.625147 0.622604 0.602963 0.63087 0.653513 0.76002 0.742434 0.711504 0.685 0.652184 0.62176 0.586566 0.558986 0.504398 0.478415 0.470622 0.469278 0.469047 0.471589 0.474706 0.47365 0.468528 0.45419 0.435706 0.416616 0.508024 0.497128 0.452402 0.427551 0.328264 0.445898 0.551814 0.36609 0.240568 0.199295 0.109832 0.132101 0.226457 0.212779 0.224876 0.186813 0.132143 0.0428388 0.0809102 0.314932 0.209795 0.206735 0.214613 0.214153 0.307193 0.155406 0.102909 0.113638 0.1401 0.241354 0.306995 0.606618 0.300963 0.290772 0.434096 0.437875 0.442191 0.434176 0.55356 0.622939 0.697359 0.596968 0.542816 0.594748 0.624529 0.640758 0.646597 0.646219 0.644051 0.641892 0.640765 0.640632 0.637072 0.641399 0.631107 0.629236 0.642899 0.686369 0.706413 0.7007 0.67749 0.660294 0.63452 0.600399 0.559582 0.5323 0.49901 0.489612 0.48498 0.482781 0.475187 0.453525 0.423277 0.548353 0.50119 0.487594 0.48379 0.4406 0.486325 0.498139 0.73742 0.108742 0.156642 0.174931 0.0776321 0.116942 0.156902 0.24228 0.203796 0.21527 0.16208 0.126303 0.0884199 0.0281399 0.282075 0.272445 0.225277 0.175177 0.208006 0.18695 0.189927 0.167148 0.434018 0.327016 0.158666 0.121149 0.15273 0.139705 0.219531 0.400345 0.429771 0.428092 0.455169 0.468393 0.422626 0.399014 0.385106 0.638915 0.575165 0.529713 0.526136 0.557222 0.655557 0.652988 0.648972 0.644936 0.642691 0.641891 0.641945 0.644734 0.645659 0.645296 0.65083 0.658893 0.676226 0.683312 0.673048 0.656778 0.638214 0.486093 0.484472 0.483272 0.48587 0.442117 0.588375 0.523367 0.489849 0.475584 0.453575 0.566577 0.672094 0.550458 0.343293 0.229727 0.132312 0.265388 0.19754 0.257 0.238505 0.193476 0.108659 0.0436447 0.0421288 0.032502 0.172668 0.12146 0.172438 0.249974 0.408905 0.349399 0.209253 0.175137 0.14967 0.0669913 0.60113 0.527019 0.16678 0.217305 0.204036 0.147802 0.348643 0.42652 0.485741 0.497869 0.460497 0.455781 0.443394 0.4324 0.437131 0.512551 0.564801 0.613738 0.574986 0.550778 0.531466 0.539381 0.586799 0.634302 0.65165 0.644579 0.643124 0.643588 0.645758 0.64843 0.651142 0.656414 0.659793 0.614006 0.584567 0.553574 0.531156 0.515149 0.506515 0.500377 0.498283 0.496899 0.495718 0.492619 0.490209 0.482506 0.604754 0.555722 0.511261 0.482457 0.453794 0.425528 0.431561 0.662605 0.33973 0.575437 0.539424 0.456407 0.316596 0.309618 0.2767 0.258828 0.202553 0.150597 0.0728817 0.0551967 0.0143832 0.00974781 0.201933 0.141906 0.134604 0.244585 0.265046 0.429714 0.338286 0.311139 0.18812 0.265087 0.394269 0.709605 0.18178 0.23781 0.284246 0.273875 0.405922 0.479603 0.516076 0.495748 0.483333 0.479717 0.47246 0.46325 0.474092 0.51465 0.553901 0.589559 0.617274 0.539552 0.544446 0.543161 0.55147 0.646421 0.668819 0.669518 0.662004 0.653921 0.648042 0.664412 0.668095 0.664094 0.654523 0.641272 0.621571 0.601976 0.579202 0.557561 0.539628 0.528263 0.519327 0.513582 0.509308 0.506155 0.50275 0.499464 0.497568 0.494845 0.598503 0.579469 0.541981 0.506794 0.478458 0.443499 0.423431 0.480945 0.503421 0.483238 0.421697 0.412155 0.405395 0.421405 0.375704 0.341249 0.274227 0.172647 0.148143 0.0712079 0.0223029 0.00998804 0.220028 0.200002 0.16196 1.00765 0.771933 0.466023 0.422997 0.310556 0.371391 0.456844 0.678787 0.242314 0.251598 0.335709 0.143619 0.317714 0.433041 0.49318 0.513013 0.508424 0.497946 0.499325 0.495525 0.494625 0.499682 0.526398 0.554071 0.582086 0.604011 0.628062 0.535126 0.548666 0.551128 0.53195 0.69151 0.689553 0.674589 0.660057 0.650409 0.645738 0.643937 0.643924 0.645514 0.648944 0.652874 0.656761 0.660696 0.66401 0.66077 0.655754 0.649975 0.639226 0.626997 0.609812 0.593265 0.575031 0.559524 0.546144 0.536755 0.528786 0.52302 0.517938 0.514501 0.509473 0.507661 0.507736 0.534066 0.508065 0.480971 0.460399 0.473294 0.488612 0.539811 0.563213 0.252147 0.479383 0.400227 0.368574 0.312737 0.186926 0.135055 0.108889 0.0661177 0.0317208 0.0448467 0.0165999 0.227337 0.187898 0.524845 0.471445 0.824662 0.63538 0.567271 0.406657 0.436923 0.475764 0.512904 0.703674 0.737522 0.208348 0.266942 0.35144 0.218819 0.341431 0.440673 0.487145 0.502095 0.509285 0.51132 0.512482 0.514758 0.523539 0.539449 0.557242 0.576422 0.596518 0.614802 0.632591 0.510268 0.72491 0.695331 0.669873 0.653998 0.646512 0.644059 0.644131 0.645543 0.648417 0.652278 0.656278 0.660488 0.662904 0.660566 0.655261 0.646846 0.637737 0.627639 0.615131 0.599997 0.586466 0.57282 0.560829 0.55087 0.543272 0.536665 0.531153 0.527549 0.523736 0.522389 0.523849 0.548957 0.580422 0.562057 0.513776 0.501448 0.499447 0.497394 0.523464 0.541458 0.538304 0.499982 0.327821 0.40474 0.402246 0.384064 0.328124 0.222631 0.138871 0.147103 0.050569 0.0250921 0.0262089 0.0406309 0.0419862 0.214035 0.5554 0.607551 0.755019 0.700831 0.505765 0.499998 0.496191 0.508145 0.481189 0.633804 0.717047 0.202393 0.266934 0.378261 0.274757 0.377482 0.522081 0.524331 0.529632 0.543835 0.552318 0.542895 0.690342 0.662642 0.650122 0.645505 0.645133 0.646683 0.648896 0.651625 0.654993 0.658731 0.660945 0.660478 0.656839 0.649524 0.640696 0.630471 0.618928 0.542926 0.561825 0.56794 0.553034 0.532833 0.531183 0.538142 0.547327 0.507758 0.547172 0.512117 0.373705 0.323914 0.373873 0.379511 0.395873 0.0776836 0.118504 0.091897 0.12666 0.0468755 0.022241 0.636103 0.803978 0.771364 0.664635 0.520547 0.476139 0.405383 0.406727 0.547071 0.125791 0.196431 0.304166 0.414728 0.4573 0.495835 0.510341 0.540332 0.550245 0.563888 0.576575 0.591333 0.606795 0.61909 0.628438 0.551954 0.546666 0.527037 0.492901 0.738168 0.607314 0.595034 0.583106 0.572494 0.563553 0.55645 0.550297 0.545105 0.541113 0.538673 0.537076 0.538934 0.548222 0.559607 0.565016 0.56166 0.550947 0.538033 0.530621 0.568401 0.533861 0.518945 0.495758 0.400332 0.220433 0.459695 0.439812 0.461381 0.493583 0.160911 0.160097 0.169889 0.20931 0.0727438 0.696526 0.848642 0.724878 0.696515 0.530844 0.536926 0.320056 0.319218 0.659815 0.143128 0.257077 0.374671 0.347171 0.433498 0.484074 0.513981 0.5264 0.534039 0.541869 0.550677 0.561182 0.56991 0.580266 0.59104 0.602244 0.611773 0.618325 0.617236 0.550697 0.539574 0.512307 0.483069 0.734784 0.683215 0.660762 0.651038 0.648779 0.649439 0.65097 0.652814 0.654874 0.657149 0.658498 0.658672 0.656537 0.651675 0.644493 0.635086 0.624662 0.613867 0.6029 0.592455 0.58296 0.575199 0.568855 0.563678 0.559347 0.556123 0.55417 0.551961 0.55385 0.559026 0.564974 0.568076 0.566115 0.561248 0.553683 0.547716 0.550637 0.559372 0.507687 0.493382 0.459979 0.54992 0.459017 0.562492 0.572043 0.565944 0.192387 0.2342 0.197157 0.0280969 0.0260077 0.530871 0.786671 0.745527 0.537261 0.550599 0.357508 0.340973 0.393424 0.516217 0.59277 0.334835 0.459347 0.43294 0.480807 0.510716 0.528435 0.539247 0.5471 0.558723 0.5678 0.576563 0.585116 0.593406 0.601519 0.608369 0.613927 0.614457 0.60076 0.552731 0.524395 0.500626 0.484061 0.721394 0.678971 0.661527 0.656623 0.65473 0.654758 0.655775 0.656675 0.657549 0.657801 0.657048 0.655021 0.651659 0.646243 0.638691 0.629905 0.620286 0.610375 0.601279 0.593357 0.586474 0.580997 0.576277 0.57229 0.569527 0.568158 0.56778 0.569625 0.572409 0.576887 0.574918 0.57071 0.567478 0.563361 0.560118 0.561614 0.569181 0.580609 0.567925 0.383277 0.690917 0.734184 0.437791 0.30164 0.723685 0.520335 0.415496 0.311471 0.416304 0.502092 0.490603 0.399081 0.443979 0.498402 0.491157 0.510935 0.523485 0.536352 0.549653 0.560213 0.571271 0.581499 0.589723 0.597187 0.603601 0.609155 0.613852 0.616561 0.608454 0.583061 0.707647 0.677986 0.66798 0.662327 0.660961 0.660354 0.660358 0.659999 0.659133 0.657554 0.654934 0.651482 0.646967 0.641223 0.634224 0.626168 0.617958 0.610229 0.603278 0.597431 0.592535 0.588279 0.584454 0.58172 0.580303 0.580311 0.581835 0.569301 0.564707 0.564445 0.571701 0.588726 0.592536 0.544631 0.489986 0.485318 0.400286 0.366991 0.553539 0.633903 0.65357 0.446929 0.345715 0.739007 0.732767 0.386321 0.352922 0.324739 0.366591 0.432213 0.472518 0.447258 0.452955 0.489194 0.516164 0.516166 0.522537 0.531271 0.545301 0.558773 0.572576 0.584321 0.532094 0.507322 0.498316 0.503992 0.696602 0.68475 0.6739 0.669523 0.666102 0.665319 0.664346 0.662518 0.659991 0.656877 0.653031 0.648557 0.58615 0.591601 0.591786 0.57752 0.574532 0.564572 0.577752 0.596093 0.588945 0.547549 0.510799 0.453828 0.414577 0.442087 0.501225 0.685705 0.584249 0.409826 0.333016 0.336111 0.409935 0.570236 0.460245 0.478556 0.502946 0.511138 0.593912 0.601051 0.60706 0.611728 0.615264 0.617696 0.616078 0.601118 0.546619 0.507813 0.511271 0.512083 0.64348 0.637759 0.631469 0.624885 0.618459 0.612606 0.607468 0.603037 0.599074 0.595487 0.592784 0.591351 0.591135 0.591878 0.595648 0.600821 0.606661 0.606303 0.57959 0.575977 0.568969 0.563654 0.588486 0.573628 0.568639 0.463968 0.411356 0.368865 0.630149 0.620176 0.509875 0.56157 0.641207 0.363994 0.401463 0.357512 0.425329 0.680102 0.536178 0.528052 0.530946 0.542256 0.555889 0.572014 0.587091 0.597676 0.605399 0.610323 0.613537 0.615788 0.618237 0.62039 0.616248 0.590854 0.499267 0.503545 0.519404 0.531138 0.699661 0.684775 0.679264 0.673793 0.671423 0.66969 0.667397 0.664059 0.66031 0.656121 0.651498 0.646562 0.641296 0.635919 0.630605 0.625365 0.620435 0.61601 0.612059 0.608605 0.605573 0.602917 0.601171 0.600508 0.600746 0.602636 0.606194 0.611542 0.619752 0.623826 0.579833 0.57166 0.565324 0.564954 0.56559 0.577913 0.532962 0.432576 0.605043 0.638427 0.163369 0.838747 0.634891 0.340608 0.398739 0.350872 0.428249 0.663369 0.576953 0.484269 0.510373 0.51239 0.509011 0.506532 0.538405 0.542454 0.555886 0.572211 0.589527 0.601989 0.609691 0.613595 0.61542 0.616532 0.618136 0.619557 0.619 0.611074 0.587633 0.476648 0.498175 0.537248 0.590292 0.688943 0.685647 0.680933 0.678049 0.676113 0.673255 0.669389 0.664927 0.66025 0.655344 0.650331 0.645296 0.640291 0.63547 0.630976 0.626835 0.623024 0.619589 0.616616 0.614072 0.611858 0.610118 0.609069 0.608768 0.609223 0.610884 0.613333 0.619282 0.635728 0.641703 0.572097 0.564725 0.565863 0.570681 0.567665 0.579959 0.573052 0.572581 0.553592 0.541143 0.461518 0.614423 0.619176 0.760327 0.741278 0.835356 0.615993 0.435446 0.404438 0.67149 0.591513 0.626592 0.550392 0.543674 0.526579 0.524179 0.513381 0.546697 0.556595 0.574336 0.593828 0.60793 0.615277 0.617636 0.617995 0.617461 0.616677 0.617448 0.616421 0.612154 0.607044 0.542222 0.627501 0.595309 0.692422 0.685745 0.682896 0.68226 0.679755 0.675554 0.670362 0.665118 0.659877 0.654611 0.649507 0.644656 0.640103 0.635935 0.632182 0.628816 0.62583 0.623276 0.621112 0.619207 0.617577 0.652358 0.559705 0.561918 0.570085 0.578692 0.577916 0.58546 0.571103 0.569938 0.543754 0.530329 0.479813 0.689822 0.474883 0.339163 0.388139 0.592652 0.624756 0.604873 0.553426 0.536217 0.532737 0.517105 0.556418 0.61738 0.461697 0.525335 0.624015 0.637675 0.616463 0.616028 0.615995 0.61635 0.616943 0.617735 0.624218 0.657417 0.578513 0.59505 0.592085 0.594562 0.583124 0.577431 0.511032 0.539775 0.710132 0.681623 0.565275 0.260241 0.821517 0.603735 0.315266 0.642801 0.539248 0.600381 0.563556 0.570945 0.576242 0.599538 0.616206 0.623662 0.623434 0.621761 0.619362 0.616176 0.613631 0.613842 0.614013 0.612495 0.622682 0.650022 0.514141 1.21113 0.647724 0.687099 0.686792 0.688615 0.686235 0.681855 0.676247 0.670478 0.664808 0.659208 0.653873 0.648948 0.644455 0.640423 0.636858 0.633723 0.630997 0.628678 0.626734 0.625116 0.623731 0.622583 0.621901 0.621908 0.62225 0.622254 0.621672 0.62049 0.625745 0.670521 0.665253 0.550819 0.56363 0.503396 0.740715 0.659841 0.614067 0.45805 0.595896 0.812616 0.641751 0.627232 0.549074 0.55601 0.62194 0.605846 0.578921 0.541556 0.529588 0.529325 0.573171 0.604322 0.626089 0.632128 0.630732 0.626934 0.623019 0.617951 0.609783 0.609595 0.615088 0.622919 0.625933 0.643531 0.700498 1.06485 0.672 0.653285 0.685913 0.694455 0.692417 0.687833 0.68214 0.676003 0.669965 0.664025 0.658338 0.653136 0.648502 0.644421 0.640868 0.637836 0.63526 0.633064 0.631228 0.629725 0.628507 0.627519 0.626714 0.626324 0.626801 0.62742 0.626811 0.625147 0.622597 0.612259 0.685326 0.680931 0.549718 0.571961 0.595015 0.608312 0.604857 0.621935 0.598152 0.550679 0.688096 0.561533 0.746527 0.711464 0.893848 0.574825 0.514703 0.650237 0.622885 0.619024 0.600696 0.567885 0.541027 0.529109 0.55799 0.603625 0.633582 0.642958 0.637757 0.631866 0.627425 0.621274 0.613404 0.598892 0.613031 0.631015 0.633567 0.647571 0.678612 0.701185 0.982919 0.575567 0.662092 0.67498 0.673492 0.693582 0.696736 0.692815 0.687477 0.681367 0.675111 0.668949 0.662966 0.65739 0.652394 0.648051 0.644326 0.641204 0.638657 0.63655 0.634783 0.633339 0.632179 0.631242 0.630485 0.629925 0.629867 0.630402 0.63018 0.629361 0.628656 0.618379 0.597214 0.688866 0.697395 0.55814 0.588022 0.610281 0.619291 0.631882 0.641051 0.574263 0.54742 0.720344 0.839182 0.799321 0.655285 0.817578 0.533965 0.654238 0.644865 0.629622 0.628007 0.602019 0.514906 0.558211 0.599024 0.626766 0.660419 0.646141 0.636357 0.632783 0.622846 0.672137 0.682216 0.688881 0.697413 0.696272 0.691996 0.686456 0.58872 0.691681 0.71048 0.573935 0.604665 0.627255 0.643616 0.636077 0.620129 0.594439 0.727409 0.666071 0.616472 0.735874 0.755417 0.887196 0.876945 0.861713 0.674171 0.624447 0.50447 0.549286 0.625467 0.619299 0.613239 0.597311 0.637288 0.641455 0.64798 0.669307 0.688858 0.710353 0.86801 0.680298 0.67421 0.668145 0.662239 0.656728 0.651794 0.647568 0.644103 0.641362 0.639224 0.637505 0.636099 0.634968 0.634047 0.63327 0.632584 0.63204 0.631973 0.632252 0.632157 0.630287 0.626965 0.603211 0.751962 0.659105 0.601036 0.776144 0.815884 0.893832 0.871746 0.88391 0.887989 0.658942 0.642767 0.656239 0.699672 0.609624 0.607032 0.628876 0.656239 0.739561 0.752348 0.765767 0.771625 0.756912 0.737813 0.707542 0.651284 0.652442 0.648352 0.660822 0.676953 0.697946 0.741702 0.812985 0.66051 0.684063 0.693538 0.696612 0.698791 0.695928 0.691376 0.685941 0.680659 0.675257 0.669409 0.663218 0.657116 0.65163 0.647141 0.643714 0.64128 0.6395 0.63812 0.637045 0.636147 0.635248 0.634431 0.633731 0.633023 0.632647 0.633189 0.633217 0.627191 0.609413 0.591572 0.596774 0.694556 0.717627 0.591765 0.623637 0.647294 0.648275 0.623757 0.635864 0.594552 0.77625 0.835051 0.817406 0.778512 0.776168 0.801553 0.818483 0.809105 0.785443 0.463308 0.509816 0.639406 0.674935 0.696631 0.743569 0.748135 0.748813 0.749956 0.73966 0.716377 0.675285 0.653497 0.656265 0.655832 0.667585 0.68671 0.719981 0.757777 0.773947 0.679479 0.692821 0.69917 0.700457 0.699456 0.696268 0.692567 0.689283 0.685736 0.68111 0.674893 0.666812 0.658515 0.651654 0.646452 0.642954 0.640833 0.639492 0.638535 0.637695 0.636664 0.635625 0.634694 0.633907 0.633086 0.63245 0.632937 0.633606 0.600519 0.598583 0.595515 0.609619 0.696852 0.719351 0.608956 0.64421 0.65548 0.6455 0.638138 0.75317 0.700417 0.902623 0.873015 0.872834 0.922711 0.77334 0.776506 0.745841 0.510252 0.655764 0.675598 0.71254 0.731276 0.690428 0.699176 0.702001 0.702015 0.6998 0.699366 0.699925 0.698423 0.695176 0.68881 0.680639 0.67112 0.659879 0.650677 0.603235 0.591193 0.597585 0.60429 0.625161 0.695369 0.71884 0.62918 0.662304 0.651042 0.653221 0.741203 0.690212 0.670952 0.783888 0.825962 0.844356 0.889369 0.858574 0.854834 0.813711 0.788435 0.81123 0.828542 0.850935 0.777128 0.753905 0.761646 0.757387 0.746722 0.728268 0.697587 0.674332 0.658126 0.655454 0.659977 0.674659 0.698759 0.725579 0.743848 0.74319 0.644702 0.641432 0.640152 0.639511 0.638717 0.637673 0.636442 0.635047 0.634003 0.633204 0.632403 0.631815 0.633407 0.78823 0.773545 0.800256 0.816827 0.827708 0.777148 0.784372 0.804486 0.823539 0.845421 0.707398 0.629901 0.691755 0.710799 0.736587 0.741404 0.771949 0.764755 0.7545 0.738808 0.716278 0.693308 0.671853 0.657442 0.65506 0.662487 0.679697 0.701998 0.720373 0.72748 0.721687 0.698245 0.703482 0.705242 0.702952 0.699804 0.708112 0.710673 0.707106 0.698038 0.690786 0.684681 0.678337 0.665978 0.649338 0.641312 0.639673 0.639645 0.63914 0.6384 0.63707 0.635195 0.633535 0.632475 0.631793 0.631203 0.63085 0.599374 0.598364 0.589874 0.600604 0.616993 0.639113 0.692629 0.72047 0.646669 0.658179 0.655728 0.816113 0.798305 0.896027 0.88931 0.8508 0.818044 0.790266 0.80186 0.83044 0.842373 0.835428 0.732886 0.74068 0.842329 0.660918 0.723835 0.736009 0.744083 0.771817 0.776271 0.762815 0.748603 0.729704 0.707399 0.683886 0.664047 0.651999 0.65212 0.664373 0.681149 0.699554 0.712735 0.715706 0.701633 0.701738 0.708552 0.707542 0.700153 0.701545 0.714792 0.719371 0.707805 0.705966 0.70381 0.696966 0.689644 0.686062 0.659273 0.63902 0.638663 0.638707 0.638719 0.637616 0.635246 0.632936 0.631178 0.630389 0.630016 0.629528 0.591671 0.59613 0.596271 0.59571 0.607367 0.628614 0.653357 0.694915 0.718743 0.63125 0.672316 0.813447 0.802445 0.789867 0.77432 0.803682 0.893832 0.893832 0.897262 0.902407 0.850224 0.814149 0.796978 0.847404 0.895294 0.795619 0.762377 0.756662 0.717063 0.697858 0.698266 0.704501 0.733229 0.718947 0.715115 0.712406 0.713512 0.712503 0.702115 0.69547 0.70087 0.642414 0.639267 0.637817 0.593857 0.601065 0.604614 0.61501 0.64001 0.672014 0.772811 0.839213 0.831014 0.827211 0.836946 0.909229 0.907215 0.81424 0.839242 0.854205 0.874417 0.864011 0.777994 0.777848 0.77642 0.7577 0.740793 0.71957 0.69486 0.670162 0.651105 0.64581 0.651336 0.663215 0.678484 0.697062 0.706405 0.702876 0.682132 0.705005 0.63813 0.635276 0.632308 0.629766 0.628244 0.62809 0.62755 0.589066 0.587397 0.817568 0.723262 0.790033 0.828517 0.89564 0.898621 0.848155 0.810425 0.800312 0.819653 0.841442 0.858469 0.892166 0.891445 0.879879 0.894134 0.88382 0.796586 0.778805 0.790064 0.78673 0.773866 0.768232 0.751109 0.730225 0.705884 0.678327 0.653688 0.638433 0.650326 0.643434 0.660087 0.673633 0.695124 0.692451 0.678552 0.616639 0.812771 0.768516 0.779076 0.760726 0.777166 0.732706 0.718155 0.714533 0.716518 0.713975 0.714855 0.717239 0.709798 0.705837 0.770436 0.774748 0.776217 0.781609 0.784535 0.7877 0.789188 0.78896 0.787764 0.795622 0.816653 0.824482 0.831097 0.833371 0.836159 0.836494 0.826521 0.878308 0.89759 0.82577 0.850317 0.873692 0.879569 0.870261 0.866318 0.894511 0.893832 0.893832 0.893832 0.893832 0.862468 0.83777 0.827299 0.891421 0.893752 0.888842 0.880363 0.79496 0.768983 0.770206 0.769943 0.750363 0.946864 0.888622 0.898397 0.88517 0.859281 0.85739 0.850345 0.842513 0.840494 0.839395 0.835282 0.840349 0.866751 0.879319 0.871555 0.870702 0.866867 0.860678 0.898103 0.874772 0.866877 0.895471 0.894192 0.894087 0.843854 0.86284 0.876268 0.892166 0.895411 0.788869 0.793475 0.790953 0.798564 0.792524 0.791925 0.794427 0.802186 0.807589 0.809338 0.776179 0.805156 0.799264 0.810808 0.899569 0.880289 0.882295 0.88613 0.884919 0.883839 0.882638 0.883181 0.882182 0.87842 0.872772 0.870775 0.870836 0.900929 0.838009 0.863257 0.879603 0.882105 0.893865 0.894049 0.864365 0.841013 0.830541 0.845752 0.862702 0.874026 0.893023 0.893832 0.89117 0.894092 0.889633 0.889003 0.818374 0.814694 0.819429 0.811499 0.816843 0.813857 0.813536 0.814476 0.823016 0.831401 0.849532 0.855712 0.837411 0.833241 0.832178 0.871143 0.852982 0.878372 0.809236 0.894768 0.894983 0.893747 0.892226 0.893465 0.873672 0.86537 0.861241 0.855469 0.853542 0.854641 0.85954 0.873309 0.882247 0.883642 0.883923 0.887119 0.889034 0.887034 0.88502 0.88398 0.884556 0.882987 0.877267 0.870021 0.867787 0.866813 0.867443 0.866454 0.863944 0.864723 0.884958 0.893512 0.839462 0.870566 0.880081 0.880435 0.874372 0.867714 0.893832 0.893832 0.893812 0.893803 0.893832 0.865541 0.840428 0.889121 0.887535 0.824682 0.891376 0.873279 0.874138 0.870312 0.893832 0.893832 0.893814 0.830188 0.844508 0.860662 0.870991 0.893139 0.893832 0.893771 0.883683 0.852622 0.834649 0.82942 0.818384 0.81779 0.814651 0.811858 0.811354 0.817446 0.823881 0.83995 0.852928 0.831626 0.826826 0.871078 0.846184 0.876828 0.80522 0.895431 0.893625 0.889823 0.893706 0.882828 0.87485 0.868904 0.866223 0.865464 0.869629 0.87496 0.880464 0.881418 0.881873 0.8822 0.886292 0.886894 0.884241 0.881566 0.880169 0.880808 0.878768 0.871159 0.862686 0.860817 0.86001 0.861455 0.86112 0.860417 0.867474 0.889351 0.840698 0.876958 0.881401 0.879432 0.893797 0.893832 0.866348 0.839982 0.829683 0.84358 0.859284 0.868886 0.893147 0.893832 0.887951 0.893781 0.886024 0.880312 0.876132 0.848451 0.837485 0.826224 0.820055 0.816656 0.8124 0.810411 0.813606 0.817737 0.831788 0.84561 0.825731 0.820956 0.81658 0.868052 0.838838 0.874218 0.802651 0.893832 0.88888 0.893705 0.887302 0.893707 0.884558 0.881083 0.875945 0.875807 0.875471 0.877982 0.879355 0.880417 0.880108 0.880563 0.880887 0.885516 0.885237 0.882156 0.878962 0.877295 0.877972 0.875559 0.866785 0.857687 0.856184 0.855595 0.857657 0.857524 0.858414 0.8703 0.864791 0.887719 0.841653 0.881466 0.882418 0.878725 0.873977 0.872557 0.893832 0.893832 0.893815 0.893832 0.866734 0.873712 0.893832 0.893832 0.893816 0.893795 0.839752 0.82948 0.843123 0.85854 0.867836 0.893141 0.893832 0.887328 0.893786 0.885145 0.879106 0.882791 0.857744 0.842419 0.830677 0.820763 0.817966 0.813126 0.810122 0.811898 0.814984 0.827801 0.841245 0.823303 0.817987 0.812436 0.866395 0.835003 0.872976 0.800698 0.893832 0.887866 0.893824 0.885844 0.893706 0.884121 0.882635 0.878644 0.879596 0.879097 0.880032 0.879684 0.87981 0.879378 0.879911 0.880275 0.885078 0.884348 0.881083 0.877617 0.875796 0.876488 0.873882 0.864539 0.855146 0.853898 0.853442 0.855701 0.855698 0.857588 0.872174 0.860336 0.887363 0.842262 0.884228 0.882984 0.87841 0.873941 
SCALARS Axial_Stress float 1
LOOKUP_TABLE default
-100427000000.0 -89924900000.0 -113316000000.0 -160899000000.0 -66011900000.0 -87996200000.0 -74567200000.0 -100277000000.0 -76457400000.0 -42806300000.0 -52251900000.0 -93649500000.0 -186654000000.0 -171829000000.0 -144466000000.0 -134794000000.0 -226678000000.0 -244665000000.0 -220305000000.0 -144933000000.0 -146301000000.0 -77653800000.0 -103463000000.0 -205298000000.0 -152749000000.0 -104083000000.0 -51711200000.0 -146666000000.0 -329875000000.0 -369080000000.0 -301382000000.0 -243707000000.0 -361915000000.0 -330685000000.0 -171663000000.0 -233278000000.0 -275444000000.0 -284460000000.0 -290658000000.0 -75776500000.0 -96791500000.0 -243029000000.0 -362027000000.0 -455415000000.0 -254380000000.0 -262160000000.0 -349207000000.0 -93628700000.0 -294222000000.0 -360356000000.0 -316934000000.0 -366899000000.0 -497932000000.0 -393354000000.0 -486617000000.0 -370392000000.0 -468049000000.0 -468569000000.0 -395397000000.0 -247442000000.0 -687723000000.0 -469631000000.0 -582118000000.0 -502921000000.0 -598034000000.0 -528994000000.0 -345045000000.0 -378494000000.0 -467500000000.0 -528741000000.0 -330663000000.0 -278348000000.0 -250931000000.0 -302215000000.0 -381253000000.0 -611774000000.0 -487914000000.0 -611435000000.0 -605264000000.0 -568517000000.0 -467087000000.0 -391166000000.0 -911373000000.0 -713932000000.0 -674552000000.0 -677968000000.0 -662424000000.0 -599844000000.0 -477028000000.0 -394575000000.0 -758856000000.0 -740381000000.0 -723110000000.0 -696285000000.0 -609554000000.0 -418413000000.0 -1.18851e+12 -884853000000.0 -773742000000.0 -753496000000.0 -435178000000.0 -492027000000.0 -757481000000.0 -733214000000.0 -775153000000.0 -1.02547e+12 -881397000000.0 -845626000000.0 -944889000000.0 -822159000000.0 -910510000000.0 -768418000000.0 -806615000000.0 -545775000000.0 -1.22028e+12 -1.20984e+12 -1.20066e+12 -1.0813e+12 -1.04473e+12 -898455000000.0 -938357000000.0 -838916000000.0 -904657000000.0 -827335000000.0 -527425000000.0 -608918000000.0 -870036000000.0 -961696000000.0 -889800000000.0 -1.06161e+12 -1.36939e+12 -1.31948e+12 -1.07282e+12 -1.12962e+12 -977738000000.0 -1.06838e+12 -1.03949e+12 -992513000000.0 -1.09571e+12 -1.25272e+12 -1.16899e+12 -1.05159e+12 -989512000000.0 -972095000000.0 -1.08141e+12 -1.01207e+12 -2.28532e+12 -2.00492e+12 -1.65517e+12 -1.30786e+12 -1.19901e+12 -1.16205e+12 -1.13234e+12 -1.14134e+12 -1.25707e+12 -1.26134e+12 -1.16311e+12 -1.08247e+12 -1.04695e+12 -621337000000.0 -735709000000.0 -1.13248e+12 -1.86589e+12 -1.95545e+12 -1.51981e+12 -1.33936e+12 -1.28047e+12 -1.37624e+12 -1.25856e+12 -1.36159e+12 -1.24573e+12 -1.35162e+12 -1.27218e+12 -1.3708e+12 -1.31731e+12 -1.34448e+12 -1.2621e+12 -1.27099e+12 -1.17815e+12 -1.20874e+12 -1.12658e+12 -1.17948e+12 -1.10941e+12 -716585000000.0 -871792000000.0 -1.30423e+12 -1.50334e+12 -1.60876e+12 -1.93323e+12 -1.71309e+12 -1.48946e+12 -1.51832e+12 -1.39952e+12 -1.48094e+12 -1.47946e+12 -1.45958e+12 -1.44159e+12 -1.42087e+12 -1.35798e+12 -1.29073e+12 -1.2511e+12 -1.23885e+12 -1.54983e+12 -1.66376e+12 -1.76409e+12 -1.79273e+12 -1.8097e+12 -1.69318e+12 -1.62215e+12 -1.6218e+12 -1.58201e+12 -1.58894e+12 -1.57838e+12 -1.54368e+12 -1.50642e+12 -1.44371e+12 -1.37133e+12 -1.3221e+12 -1.303e+12 -813077000000.0 -1.02681e+12 -1.6565e+12 -1.73697e+12 -1.72869e+12 -1.67462e+12 -1.67337e+12 -1.66818e+12 -1.80462e+12 -1.69888e+12 -1.79468e+12 -1.66424e+12 -1.73214e+12 -1.60904e+12 -1.64947e+12 -1.53863e+12 -1.54428e+12 -1.45324e+12 -1.46149e+12 -1.3916e+12 -1.4238e+12 -1.36541e+12 -1.41989e+12 -1.36189e+12 -911078000000.0 -1.16602e+12 -1.71064e+12 -1.77871e+12 -1.73737e+12 -1.72788e+12 -1.63996e+12 -1.7371e+12 -1.81651e+12 -1.74755e+12 -1.8342e+12 -1.9274e+12 -1.87085e+12 -1.77777e+12 -1.65813e+12 -1.53762e+12 -1.47838e+12 -1.47143e+12 -1.482e+12 -1.84073e+12 -1.82784e+12 -1.76887e+12 -1.73987e+12 -1.6226e+12 -1.33689e+12 -1.72406e+12 -1.84975e+12 -1.89381e+12 -2.04175e+12 -2.02168e+12 -1.92465e+12 -1.79401e+12 -1.63188e+12 -1.53263e+12 -1.51315e+12 -1.53405e+12 -1.01139e+12 -1.29471e+12 -1.89621e+12 -1.84553e+12 -1.62132e+12 -1.15691e+12 -1.9236e+12 -1.95541e+12 -2.34257e+12 -2.181e+12 -2.27569e+12 -2.09065e+12 -2.12499e+12 -1.9487e+12 -1.93954e+12 -1.77062e+12 -1.68028e+12 -1.59441e+12 -1.56859e+12 -1.54495e+12 -1.59087e+12 -1.57216e+12 -1.65173e+12 -1.60502e+12 -1.11548e+12 -1.41629e+12 -1.96518e+12 -2.02117e+12 -1.94005e+12 -1.97118e+12 -1.82104e+12 -1.30401e+12 -1.0846e+12 -1.97666e+12 -1.87356e+12 -2.53698e+12 -2.28202e+12 -2.16423e+12 -1.84671e+12 -1.58328e+12 -1.59018e+12 -1.67238e+12 -1.74033e+12 -2.09518e+12 -2.07466e+12 -2.00146e+12 -1.74872e+12 -1.18405e+12 -1.22334e+12 -1.20319e+12 -1.01059e+12 -817929000000.0 -3.0775e+12 -2.69199e+12 -2.45383e+12 -2.42787e+12 -2.30754e+12 -2.36655e+12 -2.22293e+12 -2.34004e+12 -1.52095e+12 -1.57043e+12 -1.65784e+12 -1.78299e+12 -1.22586e+12 -1.53428e+12 -2.15621e+12 -2.13738e+12 -2.05385e+12 -1.25241e+12 -1.14073e+12 -2.54964e+12 -2.54353e+12 -2.4593e+12 -2.47254e+12 -2.81357e+12 -1.42389e+12 -1.40371e+12 -1.61102e+12 -1.71184e+12 -1.77911e+12 -1.9439e+12 -1.9026e+12 -1.34644e+12 -1.65022e+12 -2.23193e+12 -2.30005e+12 -2.22456e+12 -2.31493e+12 -2.23451e+12 -2.35748e+12 -1.12232e+12 -1.27211e+12 -1.66882e+12 -1.47642e+12 -2.50457e+12 -2.52983e+12 -2.53674e+12 -2.7117e+12 -3.17452e+12 -1.46257e+12 -1.90143e+12 -2.11258e+12 -2.35839e+12 -2.39329e+12 -2.43568e+12 -1.01787e+12 -1.29392e+12 -1.67667e+12 -1.90606e+12 -2.3323e+12 -2.46782e+12 -2.53107e+12 -2.58864e+12 -2.57812e+12 -2.67043e+12 -2.67923e+12 -2.86765e+12 -3.01186e+12 -3.24908e+12 -3.41036e+12 -3.48001e+12 -1.63224e+12 -2.16153e+12 -1.48004e+12 -1.76953e+12 -2.46114e+12 -2.41495e+12 -2.48923e+12 -2.5444e+12 -2.8195e+12 -2.49575e+12 -1.57643e+12 -1.97949e+12 -2.34139e+12 -2.56859e+12 -2.66435e+12 -2.7937e+12 -3.06328e+12 -3.37942e+12 -3.36626e+12 -3.06196e+12 -2.01107e+12 -2.46446e+12 -2.38479e+12 -1.61832e+12 -1.90488e+12 -2.48306e+12 -2.59715e+12 -3.55345e+12 -1.32958e+12 -1.97334e+12 -1.98503e+12 -2.22909e+12 -2.20212e+12 -2.4618e+12 -2.52062e+12 -2.6541e+12 -2.75269e+12 -2.93011e+12 -3.21137e+12 -3.27766e+12 -3.37351e+12 -3.26867e+12 -2.837e+12 -2.68546e+12 -2.54344e+12 -2.49116e+12 -2.80154e+12 -2.66829e+12 -2.12212e+12 -2.291e+12 -2.27082e+12 -2.42326e+12 -2.62046e+12 -2.63871e+12 -2.72581e+12 -2.73138e+12 -2.79938e+12 -2.84535e+12 -2.93029e+12 -3.05395e+12 -3.15712e+12 -3.25134e+12 -3.14475e+12 -2.9213e+12 -1.76407e+12 -2.07753e+12 -2.61735e+12 -2.52396e+12 -2.44662e+12 -2.46138e+12 -2.02817e+12 -2.68496e+12 -2.45049e+12 -2.46793e+12 -2.60739e+12 -2.73101e+12 -2.79023e+12 -2.85064e+12 -2.99314e+12 -3.20356e+12 -3.2572e+12 -3.29921e+12 -3.12943e+12 -3.2102e+12 -3.03272e+12 -1.92841e+12 -2.32281e+12 -2.57314e+12 -1.99628e+12 -3.1139e+12 -3.02256e+12 -2.70317e+12 -2.76e+12 -2.58389e+12 -2.70339e+12 -2.62376e+12 -2.76151e+12 -2.74021e+12 -2.83804e+12 -2.81103e+12 -2.82739e+12 -2.87531e+12 -2.87368e+12 -3.09845e+12 -3.16075e+12 -3.18127e+12 -3.35701e+12 -3.37551e+12 -3.30289e+12 -2.74818e+12 -2.657e+12 -2.53258e+12 -2.20555e+12 -3.97805e+12 -3.77946e+12 -3.48733e+12 -2.98498e+12 -2.82943e+12 -2.81369e+12 -2.87015e+12 -2.90984e+12 -2.86538e+12 -2.8897e+12 -2.82064e+12 -3.06784e+12 -3.06833e+12 -3.51855e+12 -3.45924e+12 -3.50017e+12 -2.06331e+12 -2.57196e+12 -3.83742e+12 -3.78333e+12 -3.28251e+12 -2.99489e+12 -3.03053e+12 -2.90607e+12 -2.91633e+12 -2.95474e+12 -2.95763e+12 -2.87181e+12 -2.73252e+12 -2.40868e+12 -3.03299e+12 -2.62681e+12 -3.56711e+12 -3.9248e+12 -3.6488e+12 -3.64394e+12 -2.16198e+12 -3.41269e+12 -2.88581e+12 -3.44425e+12 -3.8287e+12 -3.8887e+12 -3.65853e+12 -3.55371e+12 -3.40627e+12 -3.20091e+12 -3.18244e+12 -3.08367e+12 -2.98644e+12 -3.06572e+12 -3.00415e+12 -3.07647e+12 -3.01878e+12 -3.06266e+12 -2.97816e+12 -2.96213e+12 -2.77437e+12 -2.23955e+12 -4.41582e+12 -3.84603e+12 -3.63012e+12 -3.75992e+12 -3.63267e+12 -3.68775e+12 -3.83037e+12 -3.54413e+12 -3.3376e+12 -3.20352e+12 -3.14581e+12 -3.1374e+12 -3.13354e+12 -3.08596e+12 -2.92573e+12 -2.6311e+12 -1.90446e+12 -4.17778e+12 -4.18343e+12 -3.919e+12 -3.7584e+12 -3.72514e+12 -2.24539e+12 -3.16662e+12 -3.90244e+12 -4.16763e+12 -3.94132e+12 -3.94287e+12 -3.46549e+12 -3.45735e+12 -3.45063e+12 -3.43899e+12 -3.33203e+12 -3.36009e+12 -3.24597e+12 -3.29584e+12 -3.20891e+12 -3.2676e+12 -3.19909e+12 -3.17686e+12 -3.09731e+12 -2.83027e+12 -2.33097e+12 -3.22703e+12 -3.9676e+12 -3.83945e+12 -2.31257e+12 -2.86424e+12 -4.00735e+12 -4.20577e+12 -4.41111e+12 -2.907e+12 -3.47735e+12 -3.4722e+12 -3.39785e+12 -3.34605e+12 -3.32052e+12 -3.25139e+12 -3.29804e+12 -3.21206e+12 -3.24717e+12 -3.09819e+12 -3.20404e+12 -3.4029e+12 -3.59699e+12 -3.89767e+12 -3.87365e+12 -3.84073e+12 -3.76552e+12 -2.30717e+12 -4.1156e+12 -4.32398e+12 -4.48852e+12 -4.95185e+12 -4.73116e+12 -3.36837e+12 -3.55433e+12 -3.50874e+12 -3.43771e+12 -3.39383e+12 -3.37034e+12 -3.34633e+12 -3.34859e+12 -3.25753e+12 -3.54768e+12 -3.88631e+12 -3.8965e+12 -3.87835e+12 -3.69798e+12 -2.52108e+12 -3.88035e+12 -4.80477e+12 -5.34504e+12 -2.69064e+12 -3.55487e+12 -3.57482e+12 -3.69792e+12 -3.61528e+12 -3.65094e+12 -3.54121e+12 -3.57147e+12 -3.47696e+12 -3.5163e+12 -3.43998e+12 -3.4894e+12 -3.42207e+12 -3.42516e+12 -3.4911e+12 -3.46583e+12 -3.6698e+12 -3.74053e+12 -3.95055e+12 -3.9668e+12 -3.86911e+12 -3.78092e+12 -2.32585e+12 -9035750000.0 -1.45293e+12 -4.26827e+12 -4.65176e+12 -4.92628e+12 -5.13589e+12 -5.04087e+12 -3.39478e+12 -3.76799e+12 -3.75702e+12 -3.6753e+12 -3.60206e+12 -3.55744e+12 -3.54833e+12 -3.48955e+12 -3.57734e+12 -3.53441e+12 -3.64971e+12 -3.80211e+12 -3.94566e+12 -4.05812e+12 -4.15543e+12 -2.98595e+12 -4.62248e+12 -5.15191e+12 -6.66177e+12 -4.78475e+12 -5.12369e+12 -4.83498e+12 -5.00255e+12 -5.00496e+12 -4.74542e+12 -3.91679e+12 -3.85598e+12 -3.78343e+12 -3.69734e+12 -3.63584e+12 -3.60866e+12 -3.62097e+12 -3.68157e+12 -3.662e+12 -3.7955e+12 -3.90891e+12 -3.87995e+12 -3.78065e+12 -4.0737e+12 -4.20937e+12 -3.46143e+12 -4.25929e+12 -6.81515e+12 -5.03614e+12 -5.21757e+12 -4.96285e+12 -4.82676e+12 -4.15772e+12 -4.21851e+12 -3.98998e+12 -4.01189e+12 -3.89166e+12 -3.90461e+12 -3.79943e+12 -3.81616e+12 -3.72232e+12 -3.75376e+12 -3.67219e+12 -3.66879e+12 -3.7062e+12 -3.79251e+12 -3.79016e+12 -3.89777e+12 -3.90487e+12 -3.9811e+12 -3.00236e+12 -4.69629e+12 -5.33562e+12 -5.94749e+12 -5.41309e+12 -6.7157e+12 -4.27714e+12 -4.3442e+12 -4.4493e+12 -6.93727e+12 -6.16579e+12 -6.24343e+12 -5.46539e+12 -5.14802e+12 -5.0858e+12 -4.48598e+12 -4.4012e+12 -4.18216e+12 -4.01539e+12 -3.91431e+12 -3.83879e+12 -3.77973e+12 -3.72541e+12 -3.78118e+12 -3.73861e+12 -3.81488e+12 -3.79917e+12 -3.89271e+12 -3.98853e+12 -4.00168e+12 -4.02717e+12 -3.83185e+12 -3.1286e+12 -4.86383e+12 -6.68367e+12 -6.96059e+12 -4.1892e+12 -3.91626e+12 -4.15071e+12 -7.16821e+12 -7.15635e+12 -7.37663e+12 -6.85315e+12 -5.54132e+12 -5.60756e+12 -5.33424e+12 -5.3347e+12 -5.19953e+12 -4.91235e+12 -4.6481e+12 -4.31562e+12 -4.14791e+12 -4.01536e+12 -3.92891e+12 -3.87226e+12 -3.83972e+12 -3.84268e+12 -3.90643e+12 -3.89351e+12 -3.97754e+12 -4.05303e+12 -4.02027e+12 -3.75122e+12 -5.00422e+12 -5.9434e+12 -6.38753e+12 -6.9711e+12 -6.98206e+12 -6.6141e+12 -4.01029e+12 -4.03376e+12 -6.80593e+12 -6.93591e+12 -6.94505e+12 -6.65753e+12 -6.46754e+12 -5.27561e+12 -5.66167e+12 -5.50799e+12 -4.95507e+12 -4.51137e+12 -4.25453e+12 -4.12524e+12 -4.11516e+12 -4.021e+12 -4.03541e+12 -3.95168e+12 -3.99919e+12 -3.86874e+12 -3.88424e+12 -3.93376e+12 -3.96942e+12 -3.96946e+12 -4.03636e+12 -4.04495e+12 -4.12095e+12 -4.33779e+12 -4.44246e+12 -5.22634e+12 -5.5535e+12 -5.57973e+12 -6.4552e+12 -6.58415e+12 -6.94978e+12 -5.7751e+12 -6.4487e+12 -3.96952e+12 -4.00797e+12 -3.98912e+12 -6.73191e+12 -6.74043e+12 -6.61237e+12 -6.47642e+12 -5.88348e+12 -5.3738e+12 -4.38067e+12 -5.91855e+12 -5.60074e+12 -5.92979e+12 -5.22911e+12 -4.71988e+12 -4.57836e+12 -4.40699e+12 -4.33383e+12 -4.21635e+12 -4.19732e+12 -4.1178e+12 -4.0595e+12 -3.90574e+12 -3.95654e+12 -3.97588e+12 -3.98352e+12 -4.0285e+12 -4.10175e+12 -4.11706e+12 -4.25337e+12 -4.30435e+12 -4.78966e+12 -5.76227e+12 -6.16417e+12 -5.137e+12 -6.38983e+12 -6.36043e+12 -6.56185e+12 -3.8225e+12 -3.67942e+12 -4.06285e+12 -6.68094e+12 -6.60066e+12 -6.65546e+12 -6.57139e+12 -6.6538e+12 -6.17776e+12 -5.87645e+12 -5.44943e+12 -6.75323e+12 -5.58111e+12 -5.53398e+12 -5.18436e+12 -4.95776e+12 -4.74667e+12 -4.4801e+12 -4.2791e+12 -4.19845e+12 -4.13252e+12 -4.16068e+12 -3.78276e+12 -4.09455e+12 -4.04441e+12 -4.01209e+12 -4.05344e+12 -4.0306e+12 -4.08661e+12 -4.20389e+12 -4.45751e+12 -4.59752e+12 -4.91175e+12 -5.2569e+12 -7.02994e+12 -6.01903e+12 -6.55356e+12 -6.50049e+12 -6.55058e+12 -6.53775e+12 -6.57226e+12 -3.58554e+12 -4.06838e+12 -6.54052e+12 -6.65319e+12 -6.59528e+12 -6.60255e+12 -6.55128e+12 -6.55154e+12 -6.02361e+12 -6.24919e+12 -5.97286e+12 -6.46596e+12 -6.12826e+12 -5.31192e+12 -4.93022e+12 -4.62432e+12 -4.41266e+12 -4.22403e+12 -4.23256e+12 -4.15423e+12 -4.37564e+12 -4.24812e+12 -4.11073e+12 -4.04488e+12 -4.06771e+12 -4.15131e+12 -4.17548e+12 -4.29535e+12 -4.35407e+12 -4.68684e+12 -5.22279e+12 -5.6746e+12 -6.35278e+12 -6.33066e+12 -6.57052e+12 -6.64371e+12 -6.64418e+12 -6.51446e+12 -6.4896e+12 -6.51944e+12 -6.54927e+12 -6.55169e+12 -3.58067e+12 -3.82062e+12 -4.08314e+12 -6.32248e+12 -6.49061e+12 -6.52646e+12 -6.65951e+12 -6.79295e+12 -6.74241e+12 -5.51625e+12 -6.28181e+12 -6.54617e+12 -6.24255e+12 -5.86779e+12 -5.61761e+12 -5.24659e+12 -5.04136e+12 -4.874e+12 -4.74559e+12 -4.66514e+12 -4.54545e+12 -4.487e+12 -4.35938e+12 -4.30388e+12 -4.14016e+12 -3.97211e+12 -4.33905e+12 -5.42514e+12 -4.41907e+12 -2.9063e+12 -4.21572e+12 -4.00395e+12 -4.1278e+12 -4.25662e+12 -4.44227e+12 -4.5331e+12 -4.70639e+12 -4.92698e+12 -5.63347e+12 -6.56509e+12 -6.26502e+12 -6.38127e+12 -6.5494e+12 -6.54154e+12 -6.55105e+12 -6.53e+12 -6.44778e+12 -6.48542e+12 -3.62638e+12 -3.70153e+12 -3.87278e+12 -6.47481e+12 -6.08267e+12 -5.35345e+12 -6.26976e+12 -6.37307e+12 -6.55932e+12 -6.59634e+12 -7.04452e+12 -6.93037e+12 -6.05249e+12 -6.04208e+12 -5.44878e+12 -4.94143e+12 -4.70951e+12 -4.61405e+12 -4.42798e+12 -4.23009e+12 -3.96222e+12 -3.14111e+12 -5.4097e+12 -4.53958e+12 -5.17604e+12 -3.22833e+12 -3.90062e+12 -4.07581e+12 -4.10502e+12 -4.22064e+12 -4.38395e+12 -4.58394e+12 -4.93602e+12 -5.21318e+12 -5.4057e+12 -5.91005e+12 -6.11209e+12 -6.0319e+12 -6.23546e+12 -6.7451e+12 -6.59664e+12 -6.53679e+12 -6.38993e+12 -6.42731e+12 -6.35117e+12 -6.46708e+12 -3.77696e+12 -3.93832e+12 -3.92611e+12 -6.56444e+12 -6.34461e+12 -6.00874e+12 -6.16316e+12 -6.37006e+12 -6.30956e+12 -6.0838e+12 -6.64507e+12 -5.92185e+12 -5.98841e+12 -6.29686e+12 -5.7269e+12 -5.57741e+12 -5.20925e+12 -5.09876e+12 -4.863e+12 -4.71863e+12 -4.55986e+12 -4.35101e+12 -4.18596e+12 -4.37855e+12 -2.90514e+12 -5.18569e+12 -3.92221e+12 -4.14782e+12 -4.18602e+12 -4.28486e+12 -4.33473e+12 -4.45766e+12 -4.51574e+12 -4.60499e+12 -4.68522e+12 -5.1099e+12 -5.54077e+12 -5.65338e+12 -5.58204e+12 -6.63247e+12 -6.99221e+12 -6.07198e+12 -6.41167e+12 -6.39112e+12 -6.22644e+12 -6.30191e+12 -6.47116e+12 -6.49798e+12 -3.84573e+12 -3.94312e+12 -6.52979e+12 -6.47375e+12 -6.50532e+12 -6.74104e+12 -6.91269e+12 -6.32429e+12 -6.30386e+12 -6.17593e+12 -6.07526e+12 -5.82645e+12 -5.44716e+12 -4.50113e+12 -5.35291e+12 -5.71427e+12 -5.52793e+12 -5.38487e+12 -4.75038e+12 -4.73445e+12 -4.88043e+12 -4.62286e+12 -4.76559e+12 -4.68961e+12 -4.65457e+12 -4.48798e+12 -4.50814e+12 -4.34412e+12 -4.26431e+12 -4.38519e+12 -4.27041e+12 -4.24433e+12 -4.06757e+12 -4.23308e+12 -4.39964e+12 -4.56902e+12 -4.52787e+12 -4.86202e+12 -4.99633e+12 -5.19217e+12 -5.16482e+12 -5.04285e+12 -5.79841e+12 -5.97654e+12 -5.47447e+12 -6.0671e+12 -6.50961e+12 -6.27383e+12 -6.34091e+12 -6.17986e+12 -6.31955e+12 -6.51834e+12 -3.86302e+12 -3.84679e+12 -3.96281e+12 -6.32596e+12 -6.43713e+12 -6.38936e+12 -6.52702e+12 -6.67217e+12 -6.20143e+12 -5.99146e+12 -5.62915e+12 -5.58972e+12 -6.42503e+12 -5.62626e+12 -5.49836e+12 -5.10413e+12 -5.03586e+12 -3.83999e+12 -4.11689e+12 -4.86564e+12 -4.72285e+12 -4.34258e+12 -4.27346e+12 -4.16767e+12 -4.17684e+12 -4.15888e+12 -3.78278e+12 -4.11387e+12 -4.08943e+12 -4.09999e+12 -4.1758e+12 -4.16917e+12 -4.16565e+12 -4.25671e+12 -4.33707e+12 -4.51046e+12 -4.59209e+12 -4.69173e+12 -5.06938e+12 -5.0761e+12 -4.36383e+12 -5.01341e+12 -5.71527e+12 -6.67019e+12 -6.32045e+12 -6.48818e+12 -6.20137e+12 -6.13837e+12 -6.31982e+12 -6.36239e+12 -6.47287e+12 -3.75919e+12 -3.82984e+12 -3.98584e+12 -6.18606e+12 -6.28411e+12 -6.25882e+12 -6.38337e+12 -6.3108e+12 -6.41995e+12 -6.28139e+12 -6.25639e+12 -6.10686e+12 -5.96904e+12 -5.7742e+12 -5.19191e+12 -4.33189e+12 -5.09124e+12 -4.99521e+12 -5.11388e+12 -4.8241e+12 -4.63136e+12 -4.19427e+12 -3.20183e+12 -5.05628e+12 -5.07451e+12 -5.06166e+12 -4.45807e+12 -4.19419e+12 -4.06353e+12 -3.89932e+12 -4.02169e+12 -4.13047e+12 -4.20636e+12 -4.35348e+12 -4.45498e+12 -4.57689e+12 -4.60601e+12 -4.57503e+12 -4.17352e+12 -4.42577e+12 -4.77969e+12 -4.81223e+12 -5.18751e+12 -5.95414e+12 -5.8552e+12 -5.61616e+12 -5.96827e+12 -5.22249e+12 -6.72005e+12 -6.33642e+12 -6.33136e+12 -6.16482e+12 -6.03943e+12 -5.95631e+12 -6.08087e+12 -6.1463e+12 -6.32995e+12 -6.32594e+12 -3.7253e+12 -4.1901e+12 -5.90425e+12 -6.01245e+12 -6.17126e+12 -6.14353e+12 -6.20253e+12 -6.09789e+12 -6.07641e+12 -5.99917e+12 -5.83753e+12 -5.73454e+12 -5.64462e+12 -5.66192e+12 -5.59887e+12 -6.42542e+12 -4.82548e+12 -4.03095e+12 -4.72074e+12 -4.79357e+12 -4.87595e+12 -4.65356e+12 -4.33219e+12 -4.61725e+12 -4.70772e+12 -4.6261e+12 -4.34548e+12 -4.25483e+12 -4.07824e+12 -4.05701e+12 -3.98139e+12 -3.96324e+12 -4.02409e+12 -4.19602e+12 -4.26304e+12 -4.44548e+12 -4.78863e+12 -3.22536e+12 -4.67766e+12 -4.51414e+12 -4.43885e+12 -4.73669e+12 -5.36594e+12 -5.57567e+12 -5.44732e+12 -5.68944e+12 -5.4023e+12 -6.51927e+12 -6.17391e+12 -4.98665e+12 -5.85943e+12 -6.14154e+12 -6.23322e+12 -6.28472e+12 -3.68767e+12 -3.61755e+12 -4.4889e+12 -6.78175e+12 -4.30647e+12 -5.62601e+12 -6.02868e+12 -6.01771e+12 -6.10147e+12 -6.03735e+12 -5.93454e+12 -5.69287e+12 -5.58527e+12 -5.54508e+12 -5.66146e+12 -5.8743e+12 -5.6365e+12 -5.16617e+12 -4.8998e+12 -4.81752e+12 -4.57962e+12 -4.42723e+12 -4.76733e+12 -4.36852e+12 -4.40965e+12 -4.12246e+12 -3.92407e+12 -3.9343e+12 -3.82985e+12 -3.8457e+12 -3.82446e+12 -3.91675e+12 -4.0552e+12 -4.29764e+12 -4.41963e+12 -4.3035e+12 -4.25255e+12 -4.52151e+12 -4.77113e+12 -5.20634e+12 -2.87175e+12 -4.19312e+12 -4.79639e+12 -4.9503e+12 -4.32333e+12 -5.57237e+12 -5.99497e+12 -5.54156e+12 -5.56988e+12 -5.44467e+12 -5.68558e+12 -5.5038e+12 -6.00216e+12 -6.86393e+12 -6.12943e+12 -5.73742e+12 -6.58638e+12 -5.99992e+12 -6.16547e+12 -6.20972e+12 -6.11644e+12 -6.19103e+12 -3.52035e+12 -4.15259e+12 -6.65578e+12 -4.8276e+12 -5.77385e+12 -5.86901e+12 -5.92537e+12 -6.00364e+12 -5.99926e+12 -5.87952e+12 -5.65797e+12 -5.54736e+12 -5.41637e+12 -5.44447e+12 -5.3943e+12 -5.25737e+12 -4.26771e+12 -5.44999e+12 -6.13781e+12 -4.41895e+12 -4.96796e+12 -4.95194e+12 -4.66998e+12 -4.42754e+12 -4.31647e+12 -4.17527e+12 -4.15949e+12 -3.93135e+12 -3.78899e+12 -3.7274e+12 -3.79002e+12 -3.91657e+12 -3.94382e+12 -4.12444e+12 -4.22696e+12 -4.59264e+12 -3.83222e+12 -5.27349e+12 -4.38825e+12 -5.306e+12 -3.59987e+12 -5.34271e+12 -5.50806e+12 -5.39727e+12 -5.34919e+12 -5.43136e+12 -6.42212e+12 -6.07131e+12 -5.98229e+12 -6.27759e+12 -6.12419e+12 -6.05436e+12 -5.98896e+12 -6.05933e+12 -5.9095e+12 -3.4086e+12 -3.60401e+12 -3.85759e+12 -6.33993e+12 -6.09136e+12 -6.03088e+12 -5.48303e+12 -5.82492e+12 -5.80789e+12 -5.91046e+12 -5.89519e+12 -5.86211e+12 -4.94919e+12 -5.14491e+12 -5.51658e+12 -5.36016e+12 -5.33686e+12 -6.12356e+12 -4.88391e+12 -5.45977e+12 -5.13906e+12 -5.0573e+12 -5.46028e+12 -4.86183e+12 -4.42476e+12 -4.22626e+12 -3.87457e+12 -3.95395e+12 -3.94479e+12 -3.75468e+12 -3.77024e+12 -3.67042e+12 -3.6775e+12 -3.78562e+12 -4.00538e+12 -4.3265e+12 -5.12345e+12 -5.71321e+12 -3.30785e+12 -4.09098e+12 -3.8061e+12 -5.1821e+12 -5.86785e+12 -4.66259e+12 -4.39126e+12 -5.0144e+12 -5.41842e+12 -5.69186e+12 -5.90947e+12 -6.14958e+12 -5.89933e+12 -6.24349e+12 -6.00778e+12 -6.00474e+12 -5.84327e+12 -5.91439e+12 -5.7592e+12 -5.83564e+12 -5.75898e+12 -3.29272e+12 -3.18247e+12 -3.38708e+12 -6.07299e+12 -5.93928e+12 -5.80912e+12 -5.54804e+12 -5.75165e+12 -5.69181e+12 -5.73622e+12 -5.71947e+12 -5.93965e+12 -6.03961e+12 -6.0498e+12 -4.13242e+12 -5.22735e+12 -5.36404e+12 -5.4614e+12 -4.74288e+12 -5.33245e+12 -5.66189e+12 -5.41898e+12 -3.27514e+12 -6.26864e+12 -4.39545e+12 -3.95329e+12 -3.83321e+12 -3.01876e+12 -3.94654e+12 -3.75971e+12 -3.588e+12 -3.61956e+12 -3.48662e+12 -3.57521e+12 -3.64575e+12 -3.80785e+12 -4.09814e+12 -4.19485e+12 -4.65802e+12 -5.14653e+12 -4.43044e+12 -4.3126e+12 -4.51399e+12 -4.88806e+12 -3.65102e+12 -3.53698e+12 -5.17688e+12 -5.15528e+12 -5.20292e+12 -5.20858e+12 -5.36292e+12 -5.49679e+12 -5.63276e+12 -5.79453e+12 -5.66554e+12 -5.79915e+12 -5.60493e+12 -5.79154e+12 -5.6622e+12 -5.61098e+12 -5.68309e+12 -5.53761e+12 -5.61097e+12 -3.08078e+12 -3.2066e+12 -5.59265e+12 -5.82297e+12 -5.73746e+12 -5.63535e+12 -5.78184e+12 -5.59365e+12 -5.55456e+12 -5.46742e+12 -5.62727e+12 -5.49448e+12 -5.7757e+12 -5.70359e+12 -5.34296e+12 -4.92679e+12 -5.16214e+12 -5.36615e+12 -5.43294e+12 -5.67408e+12 -5.36324e+12 -4.98419e+12 -4.39109e+12 -5.02328e+12 -5.37585e+12 -4.84655e+12 -3.82912e+12 -3.09342e+12 -4.07384e+12 -3.81773e+12 -3.5363e+12 -3.41486e+12 -3.39888e+12 -3.51395e+12 -3.48353e+12 -3.63557e+12 -3.65463e+12 -3.86165e+12 -3.95485e+12 -4.45865e+12 -4.70608e+12 -4.08273e+12 -4.19326e+12 -4.35617e+12 -5.40391e+12 -4.22587e+12 -4.69115e+12 -4.87853e+12 -4.95148e+12 -4.98718e+12 -5.0747e+12 -5.15904e+12 -5.22977e+12 -5.29848e+12 -5.41239e+12 -4.901e+12 -5.1283e+12 -5.32109e+12 -5.54656e+12 -5.43955e+12 -5.53894e+12 -5.46927e+12 -5.39639e+12 -5.46369e+12 -5.30923e+12 -2.98435e+12 -2.92531e+12 -3.05592e+12 -5.38094e+12 -5.52604e+12 -5.45026e+12 -5.50353e+12 -5.36191e+12 -5.41171e+12 -5.30136e+12 -5.39756e+12 -5.13949e+12 -5.47145e+12 -5.4507e+12 -4.27492e+12 -4.97284e+12 -5.31892e+12 -5.75924e+12 -6.25228e+12 -3.75535e+12 -4.97992e+12 -5.13373e+12 -5.0017e+12 -4.61876e+12 -4.83363e+12 -4.74745e+12 -4.67301e+12 -4.28673e+12 -3.15236e+12 -1.73608e+12 -4.59309e+12 -3.76365e+12 -3.54352e+12 -3.16115e+12 -3.35718e+12 -3.27113e+12 -3.32365e+12 -3.46236e+12 -3.70769e+12 -3.85071e+12 -4.48306e+12 -3.7512e+12 -4.11475e+12 -4.3821e+12 -4.62938e+12 -5.73147e+12 -4.8779e+12 -4.67949e+12 -4.71756e+12 -4.76055e+12 -4.78477e+12 -4.83694e+12 -4.88699e+12 -4.92266e+12 -4.93257e+12 -4.90886e+12 -3.21131e+12 -4.79359e+12 -5.21655e+12 -5.32199e+12 -5.36527e+12 -5.4124e+12 -5.28673e+12 -5.33593e+12 -5.19499e+12 -5.2465e+12 -5.14582e+12 -2.88589e+12 -2.78374e+12 -2.80401e+12 -5.17914e+12 -5.11301e+12 -5.31696e+12 -5.24974e+12 -5.3563e+12 -5.26198e+12 -5.20396e+12 -5.00923e+12 -5.20998e+12 -5.1688e+12 -5.07786e+12 -4.87687e+12 -4.9346e+12 -4.5588e+12 -4.46808e+12 -4.96483e+12 -5.31977e+12 -5.61244e+12 -5.23571e+12 -4.61006e+12 -4.86946e+12 -4.91622e+12 -4.60317e+12 -4.49852e+12 -4.31907e+12 -4.12862e+12 -3.7464e+12 -2.93767e+12 -3.13347e+12 -3.18775e+12 -3.01473e+12 -3.19649e+12 -3.07137e+12 -3.30082e+12 -3.47886e+12 -3.49536e+12 -3.78055e+12 -3.94408e+12 -3.88113e+12 -2.03777e+12 -3.55903e+12 -3.95072e+12 -4.29728e+12 -4.82477e+12 -5.27193e+12 -5.1508e+12 -4.77597e+12 -4.63893e+12 -4.61441e+12 -4.61204e+12 -4.63203e+12 -4.66035e+12 -4.67879e+12 -4.66485e+12 -4.55226e+12 -4.11286e+12 -5.87217e+12 -5.22585e+12 -5.19815e+12 -5.26985e+12 -5.27816e+12 -5.26482e+12 -5.14544e+12 -5.03371e+12 -5.0823e+12 -4.9065e+12 -4.97262e+12 -2.67171e+12 -2.67959e+12 -4.98587e+12 -4.9186e+12 -5.04448e+12 -4.96912e+12 -5.16943e+12 -5.09679e+12 -5.0281e+12 -5.15872e+12 -5.04886e+12 -4.89694e+12 -4.80923e+12 -4.62325e+12 -4.56182e+12 -5.14022e+12 -3.67532e+12 -4.15161e+12 -4.50174e+12 -4.89228e+12 -5.15994e+12 -5.06775e+12 -5.01612e+12 -4.60502e+12 -4.7872e+12 -4.61231e+12 -4.27921e+12 -4.1216e+12 -3.93165e+12 -3.70404e+12 -3.33326e+12 -2.65623e+12 -3.40435e+12 -2.37661e+12 -1.8738e+12 -2.66956e+12 -2.97412e+12 -2.96972e+12 -3.05893e+12 -3.26756e+12 -3.33577e+12 -3.54705e+12 -3.16315e+12 -3.64354e+12 -4.87703e+12 -3.23791e+12 -3.81258e+12 -4.25122e+12 -4.58018e+12 -4.71899e+12 -4.69536e+12 -4.54796e+12 -4.47787e+12 -4.44744e+12 -4.43965e+12 -4.4486e+12 -4.46703e+12 -4.49468e+12 -4.54168e+12 -4.59685e+12 -4.62174e+12 -5.58301e+12 -5.22467e+12 -5.28719e+12 -5.21045e+12 -5.12481e+12 -5.11442e+12 -4.94791e+12 -4.9928e+12 -4.82212e+12 -4.85825e+12 -4.7221e+12 -4.78774e+12 -4.58897e+12 -2.5455e+12 -2.38078e+12 -2.53892e+12 -4.6049e+12 -4.79743e+12 -4.73402e+12 -4.84613e+12 -4.77001e+12 -4.90326e+12 -4.86757e+12 -4.91052e+12 -4.79662e+12 -4.92421e+12 -5.58823e+12 -2.96119e+12 -4.64409e+12 -5.21996e+12 -3.05958e+12 -4.14531e+12 -4.92813e+12 -4.69366e+12 -4.49497e+12 -4.45109e+12 -4.3939e+12 -3.80792e+12 -3.64016e+12 -3.43049e+12 -3.13284e+12 -3.24118e+12 -2.81115e+12 -2.48644e+12 -3.15503e+12 -2.72014e+12 -2.63434e+12 -2.7136e+12 -2.89543e+12 -3.51071e+12 -4.42356e+12 -1.14936e+12 -3.6879e+12 -2.30969e+12 -3.34645e+12 -3.78341e+12 -4.35421e+12 -4.36632e+12 -4.31043e+12 -4.26959e+12 -4.24333e+12 -4.22106e+12 -4.21532e+12 -4.20858e+12 -4.18842e+12 -4.13004e+12 -3.53561e+12 -6.13466e+12 -5.7346e+12 -4.98002e+12 -5.18158e+12 -4.9486e+12 -4.92251e+12 -4.78932e+12 -4.63315e+12 -4.6658e+12 -4.46005e+12 -4.52276e+12 -4.37139e+12 -2.40808e+12 -2.20468e+12 -4.38343e+12 -4.54404e+12 -4.47556e+12 -4.66055e+12 -4.58447e+12 -4.5226e+12 -4.70318e+12 -4.67405e+12 -4.66412e+12 -4.81985e+12 -4.6931e+12 -4.74552e+12 -3.93895e+12 -4.05535e+12 -4.37733e+12 -3.95287e+12 -4.53892e+12 -4.50209e+12 -4.81714e+12 -4.95287e+12 -4.80359e+12 -4.08682e+12 -4.12125e+12 -4.12871e+12 -4.06261e+12 -3.94777e+12 -3.4622e+12 -3.32357e+12 -3.3403e+12 -3.2717e+12 -3.4865e+12 -3.45285e+12 -3.68974e+12 -1.62347e+12 -2.68755e+12 -2.25191e+12 -2.85937e+12 -2.82019e+12 -2.25977e+12 -3.73426e+12 -2.98132e+12 -3.58771e+12 -4.2916e+12 -3.11138e+12 -4.07618e+12 -4.24426e+12 -4.22861e+12 -3.94583e+12 -4.00828e+12 -4.02354e+12 -4.58897e+12 -5.24655e+12 -5.13597e+12 -4.98157e+12 -4.74269e+12 -4.74566e+12 -4.59028e+12 -4.60994e+12 -4.41679e+12 -4.24492e+12 -4.31254e+12 -4.14158e+12 -2.26514e+12 -2.11679e+12 -2.01417e+12 -4.1251e+12 -4.11732e+12 -4.35406e+12 -4.27956e+12 -4.40052e+12 -4.3322e+12 -4.50823e+12 -4.55309e+12 -4.65865e+12 -4.50656e+12 -2.42876e+12 -4.05647e+12 -4.26864e+12 -3.8971e+12 -4.26847e+12 -4.51065e+12 -4.74825e+12 -5.07839e+12 -3.6649e+12 -3.78701e+12 -3.80931e+12 -3.77339e+12 -3.69735e+12 -3.59102e+12 -3.32012e+12 -3.25017e+12 -3.25659e+12 -3.3113e+12 -2.48179e+12 -3.97157e+12 -2.06385e+12 -3.05224e+12 -2.88583e+12 -2.38552e+12 -2.07248e+12 -2.66414e+12 -3.338e+12 -3.51337e+12 -3.48324e+12 -3.7141e+12 -3.87135e+12 -3.99427e+12 -4.07563e+12 -4.09498e+12 -4.07041e+12 -4.04261e+12 -4.01729e+12 -3.99315e+12 -3.96922e+12 -3.94977e+12 -3.74221e+12 -4.23102e+12 -4.21573e+12 -4.38272e+12 -4.25127e+12 -4.94411e+12 -4.83579e+12 -4.55291e+12 -4.37534e+12 -4.39253e+12 -4.14671e+12 -4.18639e+12 -3.96247e+12 -4.03087e+12 -4.08694e+12 -3.84906e+12 -3.90285e+12 -1.9665e+12 -1.83499e+12 -3.49323e+12 -3.82463e+12 -3.8396e+12 -4.09672e+12 -4.20542e+12 -4.1314e+12 -4.31506e+12 -4.37161e+12 -4.68281e+12 -4.95651e+12 -4.43892e+12 -4.31262e+12 -4.38373e+12 -4.24877e+12 -4.08194e+12 -4.09575e+12 -4.13029e+12 -3.99942e+12 -4.19558e+12 -4.40837e+12 -4.77659e+12 -5.36679e+12 -3.564e+12 -3.38824e+12 -3.55221e+12 -3.60083e+12 -3.58788e+12 -3.52909e+12 -3.44627e+12 -3.35985e+12 -3.15845e+12 -2.92652e+12 -3.18326e+12 -2.8597e+12 -2.01791e+12 -3.11216e+12 -1.0695e+12 -3.31805e+12 -1.40912e+12 -2.81862e+12 -3.16516e+12 -3.29813e+12 -3.39358e+12 -3.30238e+12 -3.46375e+12 -3.59126e+12 -3.70007e+12 -3.78476e+12 -3.83538e+12 -3.84942e+12 -3.83441e+12 -3.80939e+12 -3.77688e+12 -3.7348e+12 -3.68663e+12 -3.63963e+12 -3.62787e+12 -3.93736e+12 -3.7374e+12 -2.9528e+12 -5.29845e+12 -4.94142e+12 -4.62938e+12 -4.33261e+12 -4.08081e+12 -4.11829e+12 -3.83994e+12 -3.89551e+12 -3.75339e+12 -3.80569e+12 -3.60302e+12 -3.65652e+12 -3.40067e+12 -1.81602e+12 -1.53998e+12 -1.67985e+12 -3.14646e+12 -3.52524e+12 -3.84909e+12 -3.84114e+12 -3.97952e+12 -3.9012e+12 -4.10314e+12 -4.18328e+12 -4.35949e+12 -4.47712e+12 -4.64131e+12 -4.89982e+12 -4.88936e+12 -5.80852e+12 -3.2788e+12 -3.91516e+12 -4.00284e+12 -3.85698e+12 -3.89713e+12 -3.91974e+12 -3.88758e+12 -3.97264e+12 -4.07509e+12 -4.18672e+12 -2.49769e+12 -2.81925e+12 -3.44095e+12 -3.48628e+12 -3.49165e+12 -3.45878e+12 -3.40134e+12 -3.34045e+12 -3.29332e+12 -3.23177e+12 -3.18913e+12 -3.01359e+12 -3.05648e+12 -3.22336e+12 -3.12817e+12 -3.21209e+12 -3.28502e+12 -3.2947e+12 -3.37905e+12 -3.4639e+12 -3.53481e+12 -3.58542e+12 -3.61506e+12 -3.62147e+12 -3.6061e+12 -3.57553e+12 -3.52748e+12 -3.45764e+12 -3.36544e+12 -3.24549e+12 -2.98847e+12 -3.94944e+12 -3.8648e+12 -3.46133e+12 -4.24799e+12 -4.37765e+12 -4.26899e+12 -4.20827e+12 -3.94575e+12 -3.82328e+12 -3.58387e+12 -3.67405e+12 -3.51803e+12 -3.56056e+12 -3.34743e+12 -3.13549e+12 -1.6633e+12 -1.50557e+12 -1.37212e+12 -2.76245e+12 -3.18456e+12 -3.26804e+12 -3.56428e+12 -3.60252e+12 -3.58416e+12 -3.58838e+12 -3.817e+12 -3.85552e+12 -4.01456e+12 -4.64486e+12 -5.16945e+12 -6.03442e+12 -3.47339e+12 -3.8035e+12 -3.59566e+12 -3.75932e+12 -3.72254e+12 -3.67051e+12 -3.68459e+12 -3.6877e+12 -3.66003e+12 -3.64968e+12 -3.55122e+12 -2.69533e+12 -3.01549e+12 -3.2754e+12 -3.40318e+12 -3.37473e+12 -3.33396e+12 -3.29138e+12 -3.25732e+12 -3.20651e+12 -3.15015e+12 -3.09048e+12 -2.97575e+12 -3.02032e+12 -2.81419e+12 -2.5879e+12 -2.67956e+12 -2.3787e+12 -2.57098e+12 -2.71816e+12 -2.94525e+12 -3.07811e+12 -3.00882e+12 -3.03197e+12 -3.08128e+12 -3.06992e+12 -3.12489e+12 -3.1816e+12 -3.21187e+12 -3.26993e+12 -3.32319e+12 -3.36387e+12 -3.39429e+12 -3.41107e+12 -3.40904e+12 -3.38828e+12 -3.34778e+12 -3.28104e+12 -3.17553e+12 -3.02628e+12 -2.63803e+12 -4.33188e+12 -4.0673e+12 -3.87551e+12 -3.81265e+12 -3.1898e+12 -3.47586e+12 -3.40596e+12 -3.74196e+12 -3.5715e+12 -3.17194e+12 -3.32029e+12 -3.46747e+12 -3.25944e+12 -3.30238e+12 -3.05524e+12 -3.09199e+12 -2.85982e+12 -1.33943e+12 -982725000000.0 -2.30471e+12 -2.81252e+12 -2.91553e+12 -3.37371e+12 -3.52331e+12 -3.48848e+12 -3.41407e+12 -3.52085e+12 -4.27039e+12 -4.60225e+12 -4.93765e+12 -4.36274e+12 -4.1788e+12 -3.64513e+12 -3.51034e+12 -3.50308e+12 -3.48214e+12 -3.45711e+12 -3.44946e+12 -2.84849e+12 -2.51669e+12 -3.32118e+12 -3.4171e+12 -3.43082e+12 -3.21376e+12 -3.21426e+12 -3.18107e+12 -3.12408e+12 -3.05428e+12 -2.96561e+12 -2.9251e+12 -2.80602e+12 -2.66834e+12 -2.66313e+12 -2.48689e+12 -2.59641e+12 -2.54656e+12 -2.83463e+12 -2.86535e+12 -2.9257e+12 -2.92423e+12 -2.94133e+12 -2.97115e+12 -2.98793e+12 -3.03054e+12 -3.0724e+12 -3.10179e+12 -3.13899e+12 -3.16988e+12 -3.18438e+12 -3.1354e+12 -3.05096e+12 -2.8978e+12 -2.53369e+12 -4.42649e+12 -4.23842e+12 -3.96275e+12 -3.73386e+12 -3.726e+12 -3.65534e+12 -2.00125e+12 -4.09164e+12 -4.02215e+12 -3.76181e+12 -3.33032e+12 -2.51367e+12 -3.09843e+12 -3.21441e+12 -3.03108e+12 -3.03058e+12 -2.79594e+12 -2.82895e+12 -2.53842e+12 -2.55978e+12 -1.16177e+12 -852901000000.0 -1.12012e+12 -1.77382e+12 -2.34981e+12 -2.48387e+12 -3.07668e+12 -3.28508e+12 -3.75754e+12 -2.85404e+12 -3.02274e+12 -2.84144e+12 -3.71844e+12 -3.97591e+12 -4.09108e+12 -3.84474e+12 -3.78385e+12 -3.88091e+12 -3.37481e+12 -3.28903e+12 -3.27353e+12 -3.41914e+12 -3.35387e+12 -3.22977e+12 -3.46967e+12 -3.44715e+12 -3.36012e+12 -3.26103e+12 -3.23407e+12 -3.11103e+12 -3.03432e+12 -2.9462e+12 -2.87256e+12 -2.77763e+12 -2.67837e+12 -2.622e+12 -2.53574e+12 -2.52772e+12 -2.53618e+12 -2.61562e+12 -2.73234e+12 -2.76784e+12 -2.80514e+12 -2.81854e+12 -2.83771e+12 -2.86329e+12 -3.19537e+12 -3.21358e+12 -3.21969e+12 -3.21071e+12 -2.52982e+12 -4.17988e+12 -4.13965e+12 -3.95045e+12 -3.76558e+12 -3.77872e+12 -3.21683e+12 -4.95436e+12 -4.21005e+12 -3.93025e+12 -2.82912e+12 -2.28535e+12 -3.21116e+12 -3.09063e+12 -2.79884e+12 -2.78293e+12 -2.52812e+12 -2.21697e+12 -2.23437e+12 -1.8883e+12 -972409000000.0 -666170000000.0 -1.17785e+12 -1.41507e+12 -1.21554e+12 -1.77541e+12 -1.93613e+12 -2.67754e+12 -2.91931e+12 -3.60154e+12 -3.9456e+12 -2.33739e+12 -2.76609e+12 -3.05258e+12 -3.33388e+12 -3.48904e+12 -3.20644e+12 -3.7858e+12 -3.5063e+12 -3.5005e+12 -3.12843e+12 -3.25636e+12 -3.22945e+12 -3.19147e+12 -3.12221e+12 -3.00124e+12 -2.78032e+12 -2.58415e+12 -2.22801e+12 -3.47067e+12 -3.36369e+12 -3.20069e+12 -3.02832e+12 -3.08023e+12 -3.17094e+12 -3.16605e+12 -2.74322e+12 -2.6543e+12 -2.58555e+12 -2.51842e+12 -2.48782e+12 -2.47801e+12 -2.51715e+12 -2.57285e+12 -2.88808e+12 -2.92007e+12 -2.94947e+12 -2.9728e+12 -2.99572e+12 -3.01604e+12 -3.03245e+12 -3.0412e+12 -3.04059e+12 -3.02854e+12 -3.00085e+12 -2.95034e+12 -2.85337e+12 -3.73175e+12 -3.8193e+12 -3.7568e+12 -3.65715e+12 -3.61977e+12 -3.58203e+12 -3.57396e+12 -3.04416e+12 -4.12065e+12 -4.04641e+12 -3.87945e+12 -3.39254e+12 -3.016e+12 -2.86391e+12 -2.53485e+12 -2.51506e+12 -2.23571e+12 -2.22258e+12 -1.87934e+12 -1.5348e+12 -778897000000.0 -579721000000.0 -257740000000.0 -439244000000.0 -779110000000.0 -1.47261e+12 -1.05488e+12 -1.22948e+12 -2.16731e+12 -2.42793e+12 -3.21297e+12 -3.57738e+12 -3.89323e+12 -2.30028e+12 -1.98797e+12 -2.62541e+12 -2.95971e+12 -3.32857e+12 -3.32521e+12 -3.21027e+12 -3.19033e+12 -3.0797e+12 -3.0591e+12 -3.03119e+12 -2.98818e+12 -2.92222e+12 -2.82133e+12 -2.67089e+12 -2.51899e+12 -2.33701e+12 -1.99902e+12 -3.3258e+12 -3.158e+12 -2.9286e+12 -2.58e+12 -3.15641e+12 -3.18779e+12 -3.12191e+12 -3.0302e+12 -2.93072e+12 -2.83738e+12 -2.63302e+12 -2.66445e+12 -2.69077e+12 -2.70822e+12 -2.72771e+12 -2.75101e+12 -2.7742e+12 -2.79775e+12 -2.81836e+12 -2.83591e+12 -2.85204e+12 -2.86579e+12 -2.87454e+12 -2.87763e+12 -2.87501e+12 -2.86417e+12 -2.84369e+12 -2.81091e+12 -2.71952e+12 -3.14596e+12 -3.3837e+12 -3.43606e+12 -3.42347e+12 -3.39722e+12 -3.34845e+12 -3.29366e+12 -3.15983e+12 -3.5538e+12 -3.87946e+12 -3.09899e+12 -2.35793e+12 -3.315e+12 -3.21975e+12 -2.79878e+12 -2.61746e+12 -2.20931e+12 -1.91386e+12 -1.87568e+12 -1.52897e+12 -1.16748e+12 -395146000000.0 -81122800000.0 -469614000000.0 -663282000000.0 -659754000000.0 -625256000000.0 -1.57603e+12 -1.84683e+12 -2.70958e+12 -3.02487e+12 -3.35998e+12 -3.14687e+12 -1.75809e+12 -2.3654e+12 -3.14475e+12 -2.84749e+12 -2.96652e+12 -2.99132e+12 -2.95797e+12 -2.94874e+12 -2.91418e+12 -2.87922e+12 -2.84957e+12 -2.80935e+12 -2.74895e+12 -2.66558e+12 -2.55474e+12 -2.43333e+12 -2.29439e+12 -2.12787e+12 -1.82825e+12 -3.06738e+12 -2.86508e+12 -2.59402e+12 -2.22153e+12 -3.22767e+12 -3.16429e+12 -3.04399e+12 -2.92275e+12 -2.80975e+12 -2.70569e+12 -2.614e+12 -2.5394e+12 -2.47643e+12 -2.43562e+12 -2.41623e+12 -2.42662e+12 -2.45849e+12 -2.49622e+12 -2.53268e+12 -2.55737e+12 -2.57805e+12 -2.59568e+12 -2.61405e+12 -2.63412e+12 -2.65293e+12 -2.67027e+12 -2.6853e+12 -2.69863e+12 -2.70979e+12 -2.71743e+12 -2.72128e+12 -2.72233e+12 -2.71955e+12 -2.71247e+12 -2.70472e+12 -2.69837e+12 -3.13586e+12 -3.14279e+12 -3.11246e+12 -3.056e+12 -2.97056e+12 -3.02499e+12 -2.72004e+12 -1.51263e+12 -1.67757e+12 -3.94513e+12 -2.72515e+12 -2.40439e+12 -2.25206e+12 -1.95642e+12 -1.49836e+12 -1.5223e+12 -1.16737e+12 -1.17303e+12 -772788000000.0 -237423000000.0 -181293000000.0 -351331000000.0 -358312000000.0 -1.15807e+12 -405257000000.0 -951434000000.0 -1.31234e+12 -2.12175e+12 -2.39248e+12 -2.66393e+12 -3.62594e+12 -2.36986e+12 -3.19227e+12 -1.68425e+12 -2.64648e+12 -2.8193e+12 -2.54216e+12 -2.68757e+12 -2.74121e+12 -2.74781e+12 -2.74361e+12 -2.71787e+12 -2.68555e+12 -2.64806e+12 -2.5962e+12 -2.52642e+12 -2.43973e+12 -2.34162e+12 -2.23088e+12 -2.10185e+12 -1.95376e+12 -1.70091e+12 -1.97451e+12 -3.1805e+12 -3.07539e+12 -2.9225e+12 -2.78496e+12 -2.66437e+12 -2.5628e+12 -2.48142e+12 -2.41718e+12 -2.37156e+12 -2.3447e+12 -2.3397e+12 -2.35287e+12 -2.37685e+12 -2.40329e+12 -2.42752e+12 -2.44702e+12 -2.4644e+12 -2.48049e+12 -2.49674e+12 -2.51289e+12 -2.52735e+12 -2.54022e+12 -2.55138e+12 -2.5608e+12 -2.56751e+12 -2.57132e+12 -2.57327e+12 -2.57338e+12 -2.57141e+12 -2.571e+12 -2.58024e+12 -2.86904e+12 -2.99874e+12 -3.09664e+12 -2.87278e+12 -2.84031e+12 -2.78981e+12 -2.78807e+12 -2.6629e+12 -2.39293e+12 -2.56633e+12 -3.24206e+12 -3.77639e+12 -3.30736e+12 -2.11214e+12 -1.82089e+12 -1.79585e+12 -1.69155e+12 -1.653e+12 -1.15927e+12 -818381000000.0 -803925000000.0 -321359000000.0 -406666000000.0 -79266600000.0 -126137000000.0 -142329000000.0 -763743000000.0 -496728000000.0 -797710000000.0 -1.46786e+12 -1.72579e+12 -1.9849e+12 -2.88369e+12 -2.92967e+12 -2.63736e+12 -3.01867e+12 -2.1484e+12 -2.39493e+12 -2.57688e+12 -2.33726e+12 -2.4863e+12 -2.5358e+12 -2.50159e+12 -2.4571e+12 -2.74201e+12 -2.53606e+12 -2.29536e+12 -2.93035e+12 -2.76073e+12 -2.61734e+12 -2.5007e+12 -2.41048e+12 -2.34294e+12 -2.29446e+12 -2.2631e+12 -2.2492e+12 -2.25066e+12 -2.26309e+12 -2.28119e+12 -2.30015e+12 -2.31788e+12 -2.33353e+12 -2.34813e+12 -2.362e+12 -2.66574e+12 -2.74375e+12 -2.80336e+12 -2.85101e+12 -2.87673e+12 -2.59047e+12 -2.56354e+12 -2.49154e+12 -2.38245e+12 -2.42375e+12 -2.38548e+12 -2.35394e+12 -3.02146e+12 -2.83129e+12 -2.42301e+12 -940751000000.0 -1.92083e+12 -1.50001e+12 -1.23237e+12 -779884000000.0 -511471000000.0 -152023000000.0 -149171000000.0 -333714000000.0 -480407000000.0 -1.06064e+12 -912488000000.0 -2.15916e+12 -2.41166e+12 -2.51602e+12 -2.54127e+12 -1.5756e+12 -1.93826e+12 -2.16419e+12 -2.34494e+12 -2.54652e+12 -2.56304e+12 -2.55899e+12 -2.39905e+12 -2.32867e+12 -2.24832e+12 -2.15817e+12 -2.05549e+12 -1.93956e+12 -1.81022e+12 -1.60276e+12 -2.39396e+12 -2.21947e+12 -2.03115e+12 -1.75515e+12 -3.05666e+12 -2.37541e+12 -2.38792e+12 -2.39895e+12 -2.40845e+12 -2.4165e+12 -2.42266e+12 -2.42643e+12 -2.42841e+12 -2.42951e+12 -2.42989e+12 -2.43128e+12 -2.44017e+12 -2.48e+12 -2.52844e+12 -2.56738e+12 -2.59725e+12 -2.62243e+12 -2.63349e+12 -2.62221e+12 -2.31223e+12 -2.25435e+12 -2.24385e+12 -2.18365e+12 -1.98501e+12 -1.30195e+12 -2.13685e+12 -1.62747e+12 -1.69641e+12 -1.32891e+12 -1.25868e+12 -961038000000.0 -811688000000.0 -291204000000.0 -413925000000.0 -309660000000.0 -224202000000.0 -535798000000.0 -1.03323e+12 -1.32439e+12 -1.53213e+12 -2.00007e+12 -2.04223e+12 -2.69946e+12 -1.43409e+12 -1.72193e+12 -1.9812e+12 -2.20819e+12 -2.33717e+12 -2.38644e+12 -2.39999e+12 -2.39215e+12 -2.36617e+12 -2.32781e+12 -2.27935e+12 -2.22094e+12 -2.15428e+12 -2.07962e+12 -1.99659e+12 -1.90503e+12 -1.80476e+12 -1.6925e+12 -1.52803e+12 -2.06068e+12 -1.92946e+12 -1.78502e+12 -1.54854e+12 -2.87084e+12 -2.73309e+12 -2.56108e+12 -2.42478e+12 -2.32389e+12 -2.25315e+12 -2.20361e+12 -2.17038e+12 -2.15183e+12 -2.14651e+12 -2.15127e+12 -2.16241e+12 -2.17656e+12 -2.19101e+12 -2.20467e+12 -2.21739e+12 -2.22938e+12 -2.2407e+12 -2.25133e+12 -2.26079e+12 -2.26892e+12 -2.27579e+12 -2.2815e+12 -2.28555e+12 -2.28792e+12 -2.28964e+12 -2.29131e+12 -2.29356e+12 -2.29951e+12 -2.31668e+12 -2.32969e+12 -2.35273e+12 -2.37199e+12 -2.38833e+12 -2.40083e+12 -2.40171e+12 -2.38721e+12 -2.36248e+12 -2.08063e+12 -2.04073e+12 -1.96559e+12 -2.4446e+12 -1.56258e+12 -1.69401e+12 -954792000000.0 -482953000000.0 -1.92104e+12 -438503000000.0 -269529000000.0 -122550000000.0 -101289000000.0 -106033000000.0 -140478000000.0 -248097000000.0 -629945000000.0 -1.07407e+12 -1.56119e+12 -1.7332e+12 -2.16366e+12 -2.23683e+12 -2.28929e+12 -1.18963e+12 -2.12542e+12 -2.13198e+12 -2.22421e+12 -2.25209e+12 -2.25428e+12 -2.23777e+12 -2.20655e+12 -2.16519e+12 -2.11583e+12 -2.05931e+12 -1.99671e+12 -1.92862e+12 -1.8556e+12 -1.77783e+12 -1.69339e+12 -1.59825e+12 -1.47401e+12 -1.76421e+12 -1.67067e+12 -1.55382e+12 -1.35014e+12 -2.62682e+12 -2.48652e+12 -2.32803e+12 -2.2155e+12 -2.1446e+12 -2.09761e+12 -2.06584e+12 -2.04612e+12 -2.03742e+12 -2.03779e+12 -2.04428e+12 -2.0545e+12 -2.06617e+12 -2.07776e+12 -2.08875e+12 -2.09901e+12 -2.10857e+12 -2.11746e+12 -2.1255e+12 -2.13242e+12 -2.13828e+12 -2.14332e+12 -2.14752e+12 -2.15052e+12 -2.15295e+12 -2.1558e+12 -2.15941e+12 -2.1644e+12 -2.17233e+12 -2.1725e+12 -2.14223e+12 -2.15202e+12 -2.16537e+12 -2.1805e+12 -2.18777e+12 -2.18435e+12 -2.16636e+12 -2.13077e+12 -2.09302e+12 -1.80845e+12 -977045000000.0 -240083000000.0 -1.79131e+12 -851058000000.0 -900939000000.0 -418804000000.0 -1.09449e+12 -1.65333e+12 -1.82792e+12 -1.87601e+12 -1.88351e+12 -1.62621e+12 -1.82888e+12 -1.92526e+12 -2.07904e+12 -2.12683e+12 -2.13008e+12 -2.11735e+12 -2.0916e+12 -2.05581e+12 -2.01247e+12 -1.96343e+12 -1.91008e+12 -1.8536e+12 -1.79486e+12 -1.73429e+12 -1.67126e+12 -1.60267e+12 -1.52591e+12 -1.43422e+12 -2.32283e+12 -2.19366e+12 -2.07236e+12 -2.01068e+12 -1.9736e+12 -1.94812e+12 -1.93121e+12 -1.92222e+12 -1.92071e+12 -1.92477e+12 -1.93228e+12 -1.94177e+12 -1.95179e+12 -1.96138e+12 -1.97031e+12 -1.97849e+12 -1.98591e+12 -1.9926e+12 -1.99848e+12 -2.00347e+12 -2.00783e+12 -2.01187e+12 -2.01543e+12 -2.01859e+12 -2.02237e+12 -2.02738e+12 -2.03361e+12 -1.96039e+12 -1.98082e+12 -1.98483e+12 -1.97775e+12 -1.95124e+12 -1.92035e+12 -1.89993e+12 -1.87736e+12 -1.82828e+12 -1.77385e+12 -1.9672e+12 -1.97353e+12 -1.56796e+12 -490732000000.0 -1.62975e+12 -107314000000.0 -141732000000.0 -802577000000.0 -518792000000.0 -1.35192e+12 -1.52719e+12 -1.46219e+12 -1.48698e+12 -1.3273e+12 -1.51951e+12 -1.61519e+12 -1.72006e+12 -1.74486e+12 -2.01455e+12 -2.02676e+12 -2.00886e+12 -1.98326e+12 -1.94993e+12 -1.91031e+12 -1.86635e+12 -1.52053e+12 -1.44706e+12 -1.33515e+12 -1.16112e+12 -1.94904e+12 -1.86356e+12 -1.83888e+12 -1.82773e+12 -1.81616e+12 -1.80642e+12 -1.80047e+12 -1.79934e+12 -1.80273e+12 -1.80902e+12 -1.81705e+12 -1.82593e+12 -2.04047e+12 -2.04088e+12 -2.01941e+12 -1.89627e+12 -1.9299e+12 -1.78894e+12 -1.77968e+12 -1.74304e+12 -1.72713e+12 -1.7083e+12 -1.67582e+12 -1.631e+12 -1.66783e+12 -1.63564e+12 -1.40844e+12 -1.06276e+12 -467770000000.0 -912030000000.0 -1.198e+12 -1.31126e+12 -1.22097e+12 -1.81372e+12 -1.41184e+12 -1.52912e+12 -1.58616e+12 -1.57672e+12 -1.81973e+12 -1.77222e+12 -1.72466e+12 -1.67743e+12 -1.63072e+12 -1.58285e+12 -1.53102e+12 -1.47187e+12 -1.38532e+12 -1.35048e+12 -1.25078e+12 -1.11781e+12 -1.83462e+12 -1.84263e+12 -1.84986e+12 -1.85625e+12 -1.86188e+12 -1.86684e+12 -1.87114e+12 -1.87488e+12 -1.87842e+12 -1.882e+12 -1.88565e+12 -1.88999e+12 -1.89586e+12 -1.90374e+12 -1.91343e+12 -1.92187e+12 -1.923e+12 -1.91107e+12 -1.60597e+12 -1.72273e+12 -1.7713e+12 -1.79778e+12 -1.55972e+12 -1.54403e+12 -1.51694e+12 -1.45916e+12 -1.41846e+12 -1.32417e+12 -1.22373e+12 -513172000000.0 -1.17234e+12 -591555000000.0 -868369000000.0 -410312000000.0 -778714000000.0 -980133000000.0 -1.04399e+12 -1.64145e+12 -1.48898e+12 -1.93045e+12 -1.91538e+12 -1.88346e+12 -1.84812e+12 -1.8089e+12 -1.76757e+12 -1.72561e+12 -1.68481e+12 -1.64616e+12 -1.60963e+12 -1.5754e+12 -1.54302e+12 -1.51066e+12 -1.47526e+12 -1.42048e+12 -1.23669e+12 -1.19651e+12 -1.05452e+12 -985976000000.0 -1.4912e+12 -1.60722e+12 -1.65612e+12 -1.66982e+12 -1.6719e+12 -1.67218e+12 -1.67387e+12 -1.6781e+12 -1.68442e+12 -1.6919e+12 -1.70004e+12 -1.70821e+12 -1.71575e+12 -1.72242e+12 -1.7282e+12 -1.73314e+12 -1.73738e+12 -1.74105e+12 -1.74426e+12 -1.74721e+12 -1.75028e+12 -1.75375e+12 -1.75802e+12 -1.76384e+12 -1.7721e+12 -1.78352e+12 -1.79755e+12 -1.81425e+12 -1.83949e+12 -1.90063e+12 -1.43823e+12 -1.56371e+12 -1.61578e+12 -1.6525e+12 -1.63359e+12 -1.62674e+12 -1.47933e+12 -1.13342e+12 -1.10108e+12 -802475000000.0 -1.29889e+12 -81404100000.0 -763690000000.0 -370346000000.0 -547968000000.0 -1.0599e+12 -825520000000.0 -1.33267e+12 -1.15491e+12 -1.1344e+12 -1.38566e+12 -1.43595e+12 -1.45676e+12 -1.42428e+12 -1.8237e+12 -1.7932e+12 -1.75226e+12 -1.70899e+12 -1.66713e+12 -1.62732e+12 -1.59109e+12 -1.55951e+12 -1.53193e+12 -1.50782e+12 -1.48787e+12 -1.47216e+12 -1.4614e+12 -1.45377e+12 -1.44524e+12 -1.10143e+12 -1.09118e+12 -875719000000.0 -808250000000.0 -1.33297e+12 -1.47493e+12 -1.51618e+12 -1.53045e+12 -1.53816e+12 -1.5443e+12 -1.55095e+12 -1.55846e+12 -1.56635e+12 -1.57435e+12 -1.58227e+12 -1.58965e+12 -1.59609e+12 -1.60157e+12 -1.60614e+12 -1.60987e+12 -1.613e+12 -1.61567e+12 -1.61801e+12 -1.62033e+12 -1.62307e+12 -1.62668e+12 -1.63169e+12 -1.63878e+12 -1.64908e+12 -1.66308e+12 -1.68086e+12 -1.70587e+12 -1.74506e+12 -1.80354e+12 -1.30293e+12 -1.43257e+12 -1.48421e+12 -1.51632e+12 -1.49745e+12 -1.49427e+12 -1.40195e+12 -1.37013e+12 -1.33097e+12 -1.27962e+12 -1.21333e+12 -750285000000.0 -712200000000.0 -284442000000.0 -371127000000.0 -93447800000.0 -664565000000.0 -802658000000.0 -914683000000.0 -969393000000.0 -922072000000.0 -973646000000.0 -1.43745e+12 -1.35942e+12 -1.3502e+12 -1.34437e+12 -1.30264e+12 -1.70664e+12 -1.66425e+12 -1.61202e+12 -1.56549e+12 -1.52457e+12 -1.49036e+12 -1.4638e+12 -1.44432e+12 -1.4297e+12 -1.41977e+12 -1.41565e+12 -1.41999e+12 -1.43846e+12 -1.47699e+12 -840762000000.0 -264204000000.0 -743238000000.0 -1.32485e+12 -1.36867e+12 -1.38419e+12 -1.39874e+12 -1.41076e+12 -1.42132e+12 -1.43117e+12 -1.44037e+12 -1.44892e+12 -1.45695e+12 -1.46437e+12 -1.47087e+12 -1.47627e+12 -1.48066e+12 -1.48411e+12 -1.48678e+12 -1.48892e+12 -1.49067e+12 -1.49221e+12 -1.49395e+12 -1.49639e+12 -1.64243e+12 -1.20619e+12 -1.32891e+12 -1.36266e+12 -1.36954e+12 -1.35811e+12 -1.34203e+12 -1.23916e+12 -1.19864e+12 -1.14654e+12 -1.03287e+12 -910314000000.0 -892259000000.0 -104970000000.0 -234242000000.0 -459546000000.0 -710267000000.0 -762647000000.0 -647750000000.0 -1.24958e+12 -1.24761e+12 -1.24802e+12 -1.20738e+12 -1.58339e+12 -1.53387e+12 -973368000000.0 -1.2659e+12 -471170000000.0 -692727000000.0 -1.50004e+12 -1.50534e+12 -1.51315e+12 -1.52453e+12 -1.53962e+12 -1.55961e+12 -1.58672e+12 -1.59983e+12 -1.24125e+12 -1.21593e+12 -1.20954e+12 -1.1705e+12 -1.08136e+12 -1.03737e+12 -965140000000.0 -774927000000.0 -678976000000.0 -679354000000.0 -845967000000.0 -723261000000.0 -101154000000.0 -529696000000.0 -293423000000.0 -411815000000.0 -730102000000.0 -1.40048e+12 -1.29589e+12 -1.12902e+12 -1.51679e+12 -1.46273e+12 -1.41701e+12 -1.38157e+12 -1.35793e+12 -1.34566e+12 -1.34056e+12 -1.33978e+12 -1.34408e+12 -1.35676e+12 -1.38643e+12 -1.44707e+12 -1.557e+12 -1.76004e+12 -865343000000.0 -450888000000.0 -851691000000.0 -1.22332e+12 -1.22665e+12 -1.25012e+12 -1.27158e+12 -1.28854e+12 -1.30234e+12 -1.31385e+12 -1.32373e+12 -1.33238e+12 -1.34006e+12 -1.34677e+12 -1.35231e+12 -1.35667e+12 -1.35998e+12 -1.36232e+12 -1.36395e+12 -1.36509e+12 -1.36588e+12 -1.36656e+12 -1.36759e+12 -1.36954e+12 -1.37288e+12 -1.37788e+12 -1.38552e+12 -1.3967e+12 -1.41131e+12 -1.43105e+12 -1.45296e+12 -1.35281e+12 -1.43667e+12 -1.16046e+12 -1.24084e+12 -776960000000.0 -560900000000.0 -558771000000.0 -657724000000.0 -433690000000.0 -102220000000.0 -111823000000.0 -424171000000.0 -218773000000.0 -613256000000.0 -403607000000.0 -1.17321e+12 -1.14788e+12 -1.1165e+12 -1.16434e+12 -1.1855e+12 -1.14673e+12 -1.39955e+12 -1.35486e+12 -1.30376e+12 -1.26221e+12 -1.23959e+12 -1.23415e+12 -1.23935e+12 -1.24919e+12 -1.25987e+12 -1.27501e+12 -1.30364e+12 -1.36478e+12 -1.4731e+12 -1.66515e+12 -1.98264e+12 -159612000000.0 -648229000000.0 -665025000000.0 -1.02426e+12 -1.08316e+12 -1.1243e+12 -1.1519e+12 -1.17179e+12 -1.18686e+12 -1.19877e+12 -1.20858e+12 -1.21681e+12 -1.22384e+12 -1.22968e+12 -1.23419e+12 -1.23746e+12 -1.23961e+12 -1.2408e+12 -1.2413e+12 -1.24131e+12 -1.24098e+12 -1.24063e+12 -1.24069e+12 -1.24173e+12 -1.24408e+12 -1.24807e+12 -1.25477e+12 -1.26541e+12 -1.28343e+12 -1.31497e+12 -1.38539e+12 -1.1477e+12 -1.22471e+12 -1.12251e+12 -1.14945e+12 -1.11562e+12 -1.06225e+12 -1.05102e+12 -1.00001e+12 -935783000000.0 -873099000000.0 -473119000000.0 -583085000000.0 -298527000000.0 -80445000000.0 -9036080000.0 -328734000000.0 -497026000000.0 -884950000000.0 -911189000000.0 -929557000000.0 -961508000000.0 -1.04907e+12 -1.15042e+12 -1.2146e+12 -1.19606e+12 -1.25815e+12 -1.19667e+12 -1.13431e+12 -1.10385e+12 -1.10676e+12 -1.12414e+12 -1.1479e+12 -1.169e+12 -1.18028e+12 -1.19576e+12 -1.24425e+12 -1.33413e+12 -1.47366e+12 -1.68871e+12 -1.88895e+12 -843902000000.0 -825921000000.0 -792628000000.0 -707311000000.0 -742414000000.0 -912211000000.0 -975374000000.0 -1.01446e+12 -1.04093e+12 -1.06007e+12 -1.07439e+12 -1.0857e+12 -1.09481e+12 -1.10226e+12 -1.10841e+12 -1.11318e+12 -1.11654e+12 -1.1186e+12 -1.11946e+12 -1.11936e+12 -1.11855e+12 -1.1172e+12 -1.11553e+12 -1.11382e+12 -1.1125e+12 -1.11203e+12 -1.11255e+12 -1.11407e+12 -1.11723e+12 -1.12483e+12 -1.14361e+12 -1.18523e+12 -1.26406e+12 -1.02396e+12 -1.03361e+12 -1.06189e+12 -1.0444e+12 -986992000000.0 -928117000000.0 -890936000000.0 -833754000000.0 -773258000000.0 -679977000000.0 -524268000000.0 -22314700000.0 -65796200000.0 -318479000000.0 -89271500000.0 -327912000000.0 -775511000000.0 -564620000000.0 -684661000000.0 -742724000000.0 -1.05008e+12 -1.26743e+12 -1.31253e+12 -1.21676e+12 -1.12295e+12 -1.0106e+12 -935919000000.0 -946725000000.0 -981423000000.0 -716526000000.0 -719526000000.0 -710039000000.0 -756582000000.0 -836978000000.0 -882237000000.0 -912954000000.0 -935181000000.0 -1.10146e+12 -911713000000.0 -864953000000.0 -972198000000.0 -924118000000.0 -854460000000.0 -792987000000.0 -743668000000.0 -684453000000.0 -605440000000.0 -443971000000.0 -426532000000.0 -499892000000.0 -272122000000.0 -51671700000.0 -238633000000.0 -136193000000.0 -115520000000.0 -578445000000.0 -834442000000.0 -1.26004e+12 -1.45014e+12 -1.02522e+12 -1.06812e+12 -1.09173e+12 -1.07388e+12 -1.10025e+12 -1.17101e+12 -1.26401e+12 -1.37473e+12 -1.45229e+12 -1.38922e+12 -845600000000.0 -951671000000.0 -964401000000.0 -974547000000.0 -982556000000.0 -988967000000.0 -993900000000.0 -997304000000.0 -999276000000.0 -999902000000.0 -999300000000.0 -997683000000.0 -995270000000.0 -992281000000.0 -988948000000.0 -985505000000.0 -982293000000.0 -979560000000.0 -976863000000.0 -973272000000.0 -968943000000.0 -967238000000.0 -974188000000.0 -991801000000.0 -388490000000.0 -357399000000.0 -405727000000.0 -233644000000.0 -75420900000.0 -9035750000.0 -151611000000.0 -10717600000.0 -20371100000.0 -485118000000.0 -444683000000.0 -494293000000.0 -598280000000.0 -697774000000.0 -1.38535e+12 -1.08656e+12 -981508000000.0 -961236000000.0 -967021000000.0 -945037000000.0 -905501000000.0 -857794000000.0 -826362000000.0 -824313000000.0 -904698000000.0 -998186000000.0 -1.07552e+12 -1.14865e+12 -1.19444e+12 -1.17516e+12 -1.07617e+12 -880465000000.0 -642451000000.0 -662566000000.0 -676792000000.0 -713102000000.0 -759087000000.0 -791031000000.0 -814484000000.0 -832285000000.0 -846086000000.0 -857282000000.0 -866063000000.0 -872650000000.0 -877367000000.0 -880399000000.0 -881959000000.0 -882194000000.0 -881134000000.0 -878798000000.0 -875321000000.0 -870959000000.0 -866004000000.0 -860656000000.0 -855100000000.0 -849510000000.0 -843631000000.0 -836327000000.0 -825426000000.0 -808135000000.0 -783285000000.0 -816785000000.0 -912426000000.0 -912385000000.0 -790685000000.0 -714021000000.0 -863543000000.0 -789645000000.0 -709699000000.0 -645944000000.0 -609195000000.0 -557700000000.0 -318605000000.0 -150734000000.0 -109591000000.0 -34272700000.0 -484090000000.0 -437952000000.0 -443696000000.0 -389530000000.0 -366002000000.0 -346496000000.0 -574372000000.0 -658475000000.0 -757627000000.0 -708501000000.0 -698319000000.0 -720553000000.0 -745461000000.0 -747988000000.0 -745575000000.0 -749229000000.0 -758275000000.0 -793837000000.0 -853842000000.0 -915377000000.0 -969309000000.0 -1.00526e+12 -1.008e+12 -976178000000.0 -927166000000.0 -851490000000.0 -562518000000.0 -599208000000.0 -620404000000.0 -648900000000.0 -678025000000.0 -700274000000.0 -717982000000.0 -732507000000.0 -744609000000.0 -754327000000.0 -761400000000.0 -765485000000.0 -767294000000.0 -767637000000.0 -766831000000.0 -764969000000.0 -761950000000.0 -757532000000.0 -751760000000.0 -745052000000.0 -737752000000.0 -730121000000.0 -722288000000.0 -714086000000.0 -704618000000.0 -692089000000.0 -672776000000.0 -636767000000.0 -683820000000.0 -739103000000.0 -775418000000.0 -729341000000.0 -664891000000.0 -572964000000.0 -746373000000.0 -626185000000.0 -528909000000.0 -514484000000.0 -476041000000.0 -315154000000.0 -328980000000.0 -14638300000.0 -30346300000.0 -140728000000.0 -64014300000.0 -410526000000.0 -383291000000.0 -317310000000.0 -467602000000.0 -562023000000.0 -547151000000.0 -541115000000.0 -563087000000.0 -491230000000.0 -534057000000.0 -556210000000.0 -576860000000.0 -594869000000.0 -609993000000.0 -624416000000.0 -637020000000.0 -647112000000.0 -654674000000.0 -658696000000.0 -659649000000.0 -657711000000.0 -654666000000.0 -555438000000.0 -592339000000.0 -611154000000.0 -619413000000.0 -557152000000.0 -545999000000.0 -432520000000.0 -613830000000.0 -373760000000.0 -396029000000.0 -404921000000.0 -228467000000.0 -236129000000.0 -275479000000.0 -108858000000.0 -67029400000.0 -55239200000.0 -22663300000.0 -51314800000.0 -157513000000.0 -320861000000.0 -339043000000.0 -244859000000.0 -201496000000.0 -175288000000.0 -132625000000.0 -586308000000.0 -613609000000.0 -632879000000.0 -649342000000.0 -667184000000.0 -694295000000.0 -731472000000.0 -775205000000.0 -816246000000.0 -846398000000.0 -858997000000.0 -852739000000.0 -836956000000.0 -816209000000.0 -783249000000.0 -651216000000.0 -647094000000.0 -642003000000.0 -635052000000.0 -626371000000.0 -616797000000.0 -606855000000.0 -596989000000.0 -587041000000.0 -576406000000.0 -563718000000.0 -547344000000.0 -522416000000.0 -191353000000.0 -233340000000.0 -89415800000.0 -49409000000.0 -29494200000.0 -303966000000.0 -289971000000.0 -221369000000.0 -166527000000.0 -120038000000.0 -200579000000.0 -298856000000.0 -327796000000.0 -371464000000.0 -414805000000.0 -408521000000.0 -459667000000.0 -507426000000.0 -540360000000.0 -566772000000.0 -594139000000.0 -623537000000.0 -653567000000.0 -681657000000.0 -705166000000.0 -719497000000.0 -723801000000.0 -719897000000.0 -713311000000.0 -707723000000.0 -702662000000.0 -426424000000.0 -472194000000.0 -491169000000.0 -501768000000.0 -508009000000.0 -520397000000.0 -533642000000.0 -543836000000.0 -552065000000.0 -556366000000.0 -556871000000.0 -554147000000.0 -548639000000.0 -540529000000.0 -534108000000.0 -528230000000.0 -521121000000.0 -510682000000.0 -498208000000.0 -485089000000.0 -472780000000.0 -461278000000.0 -449504000000.0 -437031000000.0 -421992000000.0 -403691000000.0 -442348000000.0 -455079000000.0 -462420000000.0 -472976000000.0 -458075000000.0 -396814000000.0 -446538000000.0 -280696000000.0 -425947000000.0 -291854000000.0 -250284000000.0 -195867000000.0 -190856000000.0 -19624900000.0 -40520600000.0 -75692400000.0 -290899000000.0 -294988000000.0 -251541000000.0 -181923000000.0 -136521000000.0 -93675700000.0 -63744400000.0 -91233400000.0 -22364400000.0 -159782000000.0 -258596000000.0 -333050000000.0 -310427000000.0 -311596000000.0 -374785000000.0 -427369000000.0 -462373000000.0 -494427000000.0 -523510000000.0 -547816000000.0 -564782000000.0 -575933000000.0 -586685000000.0 -594010000000.0 -597782000000.0 -590562000000.0 -589912000000.0 -596140000000.0 -628022000000.0 -370219000000.0 -420694000000.0 -430048000000.0 -414083000000.0 -415261000000.0 -432283000000.0 -445171000000.0 -457009000000.0 -463265000000.0 -464253000000.0 -459384000000.0 -450021000000.0 -439506000000.0 -426192000000.0 -414686000000.0 -408740000000.0 -398902000000.0 -383567000000.0 -365062000000.0 -348897000000.0 -335794000000.0 -323132000000.0 -309748000000.0 -296696000000.0 -280246000000.0 -321067000000.0 -330733000000.0 -328842000000.0 -323366000000.0 -331030000000.0 -310085000000.0 -259119000000.0 -370026000000.0 -124907000000.0 -305906000000.0 -165070000000.0 -112731000000.0 -112063000000.0 -153493000000.0 -159662000000.0 -84104800000.0 -9035750000.0 -9035750000.0 -23014200000.0 -51251800000.0 -153220000000.0 -195279000000.0 -220371000000.0 -49544000000.0 -16507700000.0 -117219000000.0 -235782000000.0 -251856000000.0 -403775000000.0 -340567000000.0 -304307000000.0 -326167000000.0 -348153000000.0 -368862000000.0 -375398000000.0 -378166000000.0 -375275000000.0 -365550000000.0 -351076000000.0 -330190000000.0 -312175000000.0 -287694000000.0 -289030000000.0 -275790000000.0 -200424000000.0 -193729000000.0 -185706000000.0 -190449000000.0 -206031000000.0 -190521000000.0 -102571000000.0 -209562000000.0 -220151000000.0 -225005000000.0 -144532000000.0 -83504800000.0 -34447400000.0 -176623000000.0 -122753000000.0 -84488700000.0 -13830900000.0 -15489800000.0 -261077000000.0 -272930000000.0 -324852000000.0 -357328000000.0 -394500000000.0 -428821000000.0 -453657000000.0 -465463000000.0 -463260000000.0 -455388000000.0 -463050000000.0 -473603000000.0 -472524000000.0 -450620000000.0 -455994000000.0 -483897000000.0 -578043000000.0 -332776000000.0 -248989000000.0 -223547000000.0 -208210000000.0 -194731000000.0 -180814000000.0 -165156000000.0 -160120000000.0 -188455000000.0 -199706000000.0 -70935200000.0 -291447000000.0 -246739000000.0 -226233000000.0 -19609300000.0 -40769600000.0 -131585000000.0 -187173000000.0 -194321000000.0 -142495000000.0 -92091200000.0 -61063300000.0 -14054900000.0 -23167400000.0 -43123000000.0 -26805800000.0 -42056200000.0 -102013000000.0 -163462000000.0 -192134000000.0 -205031000000.0 -222220000000.0 -234819000000.0 -276958000000.0 -321223000000.0 -356902000000.0 -369000000000.0 -364132000000.0 -330209000000.0 -308025000000.0 -343936000000.0 -343937000000.0 -340697000000.0 -248075000000.0 -339957000000.0 -325376000000.0 -519222000000.0 -373522000000.0 -308810000000.0 -284029000000.0 -285507000000.0 -240409000000.0 -291239000000.0 -292051000000.0 -294210000000.0 -293714000000.0 -284607000000.0 -269450000000.0 -249495000000.0 -222444000000.0 -188831000000.0 -118792000000.0 -87123300000.0 -63321200000.0 -54743700000.0 -59573300000.0 -64479700000.0 -67451500000.0 -67166000000.0 -70883500000.0 -89901800000.0 -103162000000.0 -106386000000.0 -104525000000.0 -99904200000.0 -99500200000.0 -101139000000.0 -95815400000.0 -47141500000.0 -25107900000.0 -156079000000.0 -57632100000.0 -42908700000.0 -43914600000.0 -59353200000.0 -67152300000.0 -9210840000.0 -9035750000.0 -9035750000.0 -9035750000.0 -9035750000.0 -65475200000.0 -118911000000.0 -154823000000.0 -44663200000.0 -25360000000.0 -30448600000.0 -38344800000.0 -105204000000.0 -201140000000.0 -255698000000.0 -304879000000.0 -385816000000.0 -236432000000.0 -195009000000.0 -151745000000.0 -131388000000.0 -82855100000.0 -74264100000.0 -79551900000.0 -83960200000.0 -84574800000.0 -87057400000.0 -91677900000.0 -89069600000.0 -73627700000.0 -60293200000.0 -151434000000.0 -157936000000.0 -163713000000.0 -157050000000.0 -130949000000.0 -82076000000.0 -81938000000.0 -28700900000.0 -20393300000.0 -12781600000.0 -144262000000.0 -120885000000.0 -100728000000.0 -54216100000.0 -43479500000.0 -133363000000.0 -142184000000.0 -156557000000.0 -157844000000.0 -164900000000.0 -170856000000.0 -172986000000.0 -165270000000.0 -155879000000.0 -130836000000.0 -130595000000.0 -238131000000.0 -292562000000.0 -240016000000.0 -80254600000.0 -61044200000.0 -54827800000.0 -50887900000.0 -54410100000.0 -60332500000.0 -65565300000.0 -66931100000.0 -73032400000.0 -93312900000.0 -118849000000.0 -134758000000.0 -146091000000.0 -88792700000.0 -179696000000.0 -107318000000.0 -87670200000.0 -79696500000.0 -10887000000.0 -14549900000.0 -60241800000.0 -95754700000.0 -106402000000.0 -82725000000.0 -58230700000.0 -43226100000.0 -10154100000.0 -9035750000.0 -20251900000.0 -21335300000.0 -40787700000.0 -57573800000.0 -111071000000.0 -147144000000.0 -166049000000.0 -188311000000.0 -198524000000.0 -208763000000.0 -215703000000.0 -215793000000.0 -203727000000.0 -187340000000.0 -157897000000.0 -137925000000.0 -154049000000.0 -141427000000.0 -124420000000.0 -48819200000.0 -85911200000.0 -46003300000.0 -148387000000.0 -10242300000.0 -15705700000.0 -13154000000.0 -21896800000.0 -16713100000.0 -38732900000.0 -46131900000.0 -52433000000.0 -54251900000.0 -53862800000.0 -49404300000.0 -44689100000.0 -36215800000.0 -30610600000.0 -28380500000.0 -27081100000.0 -20594300000.0 -20191500000.0 -24463000000.0 -28255600000.0 -30082600000.0 -29104300000.0 -32189100000.0 -43326600000.0 -55601800000.0 -58215900000.0 -59272600000.0 -57086900000.0 -57770600000.0 -58350600000.0 -47109800000.0 -40876800000.0 -15105300000.0 -87032700000.0 -33415800000.0 -27474000000.0 -30688400000.0 -38443300000.0 -43338700000.0 -9035750000.0 -9035750000.0 -9063480000.0 -9072130000.0 -9035750000.0 -38486600000.0 -64757700000.0 -14773500000.0 -16628100000.0 -92075100000.0 -24285800000.0 -35721900000.0 -30029300000.0 -32534600000.0 -9035750000.0 -9035750000.0 -9054660000.0 -75021500000.0 -61415700000.0 -45504000000.0 -34931400000.0 -9994120000.0 -9035750000.0 -9095840000.0 -21889000000.0 -38711900000.0 -63281300000.0 -72065800000.0 -82558000000.0 -86338900000.0 -89416800000.0 -92706000000.0 -93955300000.0 -89422800000.0 -84185700000.0 -69197200000.0 -55926500000.0 -76172000000.0 -82994800000.0 -45529900000.0 -73929100000.0 -39749500000.0 -112935000000.0 -23463900000.0 -17507700000.0 -21416500000.0 -14191100000.0 -24058000000.0 -28356700000.0 -33127700000.0 -33726400000.0 -33985600000.0 -30986900000.0 -27841800000.0 -23969700000.0 -23171700000.0 -22651100000.0 -22344900000.0 -17706800000.0 -17443200000.0 -20417200000.0 -23557400000.0 -25241600000.0 -24610100000.0 -26965300000.0 -35611700000.0 -44959900000.0 -46973900000.0 -47731400000.0 -45966000000.0 -46268900000.0 -45951000000.0 -35481100000.0 -14590400000.0 -63939000000.0 -24237300000.0 -21803800000.0 -24800100000.0 -9059160000.0 -9035750000.0 -26343100000.0 -42183100000.0 -48278000000.0 -40001100000.0 -30444100000.0 -24480000000.0 -9481720000.0 -9035750000.0 -12661300000.0 -9069070000.0 -13773400000.0 -17456600000.0 -20267400000.0 -39487600000.0 -45144100000.0 -51819800000.0 -55272200000.0 -57530100000.0 -59881800000.0 -60975400000.0 -58832400000.0 -56106200000.0 -47513900000.0 -39212100000.0 -51171600000.0 -53317000000.0 -55012600000.0 -24966700000.0 -42064500000.0 -21178200000.0 -63755100000.0 -9042080000.0 -11930800000.0 -9093220000.0 -12997000000.0 -9132660000.0 -14693900000.0 -16919400000.0 -20261200000.0 -20375100000.0 -20606000000.0 -19054400000.0 -18158000000.0 -17392500000.0 -17537800000.0 -17243200000.0 -17051500000.0 -14221900000.0 -14290300000.0 -16167300000.0 -18118400000.0 -19115800000.0 -18691000000.0 -20139900000.0 -25459000000.0 -31008700000.0 -32052800000.0 -32419100000.0 -31185100000.0 -31389300000.0 -31019800000.0 -24095100000.0 -26569800000.0 -12772700000.0 -41500600000.0 -17282900000.0 -16478100000.0 -18547900000.0 -21537700000.0 -22494300000.0 -9035750000.0 -9035750000.0 -9046720000.0 -9035750000.0 -14424400000.0 -13166800000.0 -9035750000.0 -9035750000.0 -9039160000.0 -9043510000.0 -19404500000.0 -21311300000.0 -18732500000.0 -15756000000.0 -13911000000.0 -9177070000.0 -9035750000.0 -10191900000.0 -9045890000.0 -10543900000.0 -11771500000.0 -11609200000.0 -18593500000.0 -20055900000.0 -22089800000.0 -23194100000.0 -23863600000.0 -24542200000.0 -24888400000.0 -24273100000.0 -23475200000.0 -20833500000.0 -18200500000.0 -21938500000.0 -22734400000.0 -23480300000.0 -14036100000.0 -19484400000.0 -12879400000.0 -26159000000.0 -9035770000.0 -9987110000.0 -9035580000.0 -10347300000.0 -9060740000.0 -10705000000.0 -11214800000.0 -12230700000.0 -12165100000.0 -12231900000.0 -11847900000.0 -11743400000.0 -11647900000.0 -11717500000.0 -11622500000.0 -11568500000.0 -10675000000.0 -10712400000.0 -11305500000.0 -11930200000.0 -12244600000.0 -12109800000.0 -12569800000.0 -14259700000.0 -16011000000.0 -16342000000.0 -16446000000.0 -16032900000.0 -16114000000.0 -15964900000.0 -13674400000.0 -14740200000.0 -10248100000.0 -19173300000.0 -11543200000.0 -11355600000.0 -12031100000.0 -12950500000.0 
SCALARS Shear_Stress float 1
LOOKUP_TABLE default
28247900000.0 7325680000.0 37656200000.0 137771000.0 55281300000.0 44040400000.0 42134000000.0 25058700000.0 44755700000.0 13755300000.0 44990200000.0 14880400000.0 70222400000.0 42173800000.0 18084800000.0 2233020000.0 18818600000.0 39937000000.0 99359600000.0 5993630000.0 5133470000.0 42544400000.0 34679300000.0 69199900000.0 8829430000.0 63377900000.0 39708400000.0 7241630000.0 117757000000.0 138722000000.0 30873300000.0 81476600000.0 23749900000.0 2035500000.0 304965000.0 75767500000.0 51512600000.0 24543000000.0 3013780000.0 24038200000.0 21336800000.0 76467000000.0 119907000000.0 166081000000.0 42756100000.0 79997200000.0 97963000000.0 69113200000.0 257487000000.0 40476600000.0 54240700000.0 10943100000.0 1620850000.0 34151100000.0 4519340000.0 24757700000.0 44070400000.0 44978300000.0 129069000000.0 91489600000.0 109757000000.0 124055000000.0 200523000000.0 164114000000.0 180829000000.0 167981000000.0 44835000000.0 97481900000.0 54057100000.0 74764000000.0 156554000000.0 106498000000.0 195877000000.0 256458000000.0 94823600000.0 8151910000.0 7428750000.0 49527200000.0 20001800000.0 32944700000.0 62247400000.0 82282600000.0 160878000000.0 237125000000.0 215002000000.0 191277000000.0 7257890000.0 54649100000.0 274453000000.0 260270000000.0 2067700000.0 96965100000.0 67640200000.0 40752800000.0 48189200000.0 100057000000.0 332937000000.0 251016000000.0 256792000000.0 216778000000.0 39846500000.0 79339000000.0 66561100000.0 5409490000.0 188842000000.0 77204400000.0 167153000000.0 134582000000.0 134114000000.0 75123500000.0 86492300000.0 63233000000.0 144392000000.0 149100000000.0 387361000000.0 362845000000.0 230120000000.0 280457000000.0 276050000000.0 280450000000.0 273619000000.0 249438000000.0 237026000000.0 214647000000.0 28133000000.0 52321400000.0 108842000000.0 211998000000.0 159369000000.0 107897000000.0 191269000000.0 419027000000.0 283392000000.0 337415000000.0 220404000000.0 218318000000.0 123702000000.0 129094000000.0 354005000000.0 217696000000.0 223821000000.0 273149000000.0 255800000000.0 223477000000.0 197490000000.0 311023000000.0 572020000000.0 298976000000.0 547137000000.0 464102000000.0 325835000000.0 186459000000.0 127548000000.0 236727000000.0 183159000000.0 164450000000.0 234320000000.0 259497000000.0 235027000000.0 4090370000.0 35106800000.0 328193000000.0 592937000000.0 407742000000.0 561416000000.0 442472000000.0 281247000000.0 212199000000.0 151513000000.0 131613000000.0 159539000000.0 150605000000.0 192773000000.0 103784000000.0 121572000000.0 114688000000.0 174546000000.0 191480000000.0 237084000000.0 226613000000.0 238476000000.0 212476000000.0 212825000000.0 34073300000.0 48932000000.0 270377000000.0 409183000000.0 536261000000.0 215280000000.0 512823000000.0 536772000000.0 490505000000.0 391292000000.0 318590000000.0 143762000000.0 109080000000.0 98034800000.0 72424200000.0 134635000000.0 196952000000.0 204360000000.0 183411000000.0 268951000000.0 241843000000.0 250821000000.0 119194000000.0 281500000000.0 460794000000.0 552922000000.0 545301000000.0 431404000000.0 204300000000.0 90214400000.0 73227900000.0 44818800000.0 78847100000.0 152612000000.0 185876000000.0 173377000000.0 85297400000.0 120154000000.0 199660000000.0 63535400000.0 233731000000.0 548522000000.0 520877000000.0 345869000000.0 158926000000.0 98770000000.0 37107600000.0 50612300000.0 14092600000.0 26829400000.0 15498500000.0 26437300000.0 37677100000.0 99098400000.0 111904000000.0 155433000000.0 139178000000.0 159249000000.0 122012000000.0 138417000000.0 146676000000.0 249175000000.0 126677000000.0 14716400000.0 40389000000.0 4792160000.0 502654000000.0 578105000000.0 585904000000.0 477999000000.0 394198000000.0 28771900000.0 11595900000.0 31751400000.0 37203100000.0 52956600000.0 107389000000.0 106010000000.0 82617100000.0 25742100000.0 126303000000.0 100104000000.0 173419000000.0 66766400000.0 291531000000.0 657643000000.0 687713000000.0 560128000000.0 53973800000.0 3542160000.0 12599800000.0 91549600000.0 26824600000.0 54505500000.0 85290400000.0 63427500000.0 213509000000.0 378657000000.0 133065000000.0 254929000000.0 143773000000.0 289856000000.0 675140000000.0 518299000000.0 197772000000.0 54921200000.0 55634500000.0 35589600000.0 21649800000.0 79446600000.0 198188000000.0 145284000000.0 152085000000.0 29292800000.0 48501900000.0 42700900000.0 29410300000.0 49871700000.0 6506850000.0 23234000000.0 278448000000.0 487188000000.0 147416000000.0 231184000000.0 251989000000.0 367604000000.0 347055000000.0 241578000000.0 170101000000.0 638476000000.0 692419000000.0 2462190000.0 99213900000.0 28891200000.0 382542000000.0 219845000000.0 36116400000.0 3897770000.0 27675700000.0 225265000000.0 321383000000.0 467767000000.0 351794000000.0 324151000000.0 218604000000.0 132264000000.0 58243300000.0 7605830000.0 371545000000.0 86573200000.0 97743200000.0 141680000000.0 106903000000.0 126235000000.0 94605900000.0 153130000000.0 591858000000.0 198722000000.0 8880540000.0 32985600000.0 329822000000.0 572125000000.0 275289000000.0 419955000000.0 534962000000.0 191288000000.0 51675600000.0 674544000000.0 34047400000.0 202153000000.0 192385000000.0 52748700000.0 630039000000.0 513469000000.0 106662000000.0 6952240000.0 7046970000.0 29919300000.0 49801100000.0 349635000000.0 649586000000.0 261244000000.0 263138000000.0 333723000000.0 431056000000.0 548892000000.0 728360000000.0 487927000000.0 103482000000.0 241996000000.0 388486000000.0 273802000000.0 147227000000.0 301173000000.0 342539000000.0 150649000000.0 271746000000.0 58101300000.0 10223100000.0 285187000000.0 261043000000.0 653863000000.0 435662000000.0 170094000000.0 209638000000.0 333362000000.0 335844000000.0 148559000000.0 29889100000.0 162639000000.0 278505000000.0 425079000000.0 439108000000.0 531427000000.0 396474000000.0 453253000000.0 417143000000.0 703185000000.0 43704300000.0 57965500000.0 317635000000.0 748114000000.0 333600000000.0 241653000000.0 194030000000.0 278910000000.0 358025000000.0 1.0662e+12 185336000000.0 276764000000.0 48029400000.0 46625500000.0 334546000000.0 547636000000.0 541718000000.0 499757000000.0 905518000000.0 959048000000.0 266785000000.0 291767000000.0 125982000000.0 244605000000.0 891652000000.0 267440000000.0 178604000000.0 555395000000.0 243562000000.0 308285000000.0 263056000000.0 323851000000.0 290288000000.0 146796000000.0 25306300000.0 220515000000.0 481933000000.0 612956000000.0 511302000000.0 479044000000.0 539700000000.0 523142000000.0 791027000000.0 311617000000.0 398300000000.0 241718000000.0 304470000000.0 922472000000.0 671940000000.0 590005000000.0 386916000000.0 331923000000.0 173105000000.0 150766000000.0 270207000000.0 369058000000.0 490376000000.0 594075000000.0 673495000000.0 621704000000.0 569381000000.0 478082000000.0 519140000000.0 534094000000.0 167574000000.0 1.09091e+12 387248000000.0 316416000000.0 332743000000.0 367135000000.0 1.0386e+12 181043000000.0 539813000000.0 421559000000.0 279819000000.0 239411000000.0 366034000000.0 595043000000.0 743518000000.0 544538000000.0 353518000000.0 283457000000.0 505742000000.0 450130000000.0 453487000000.0 122703000000.0 1.35566e+12 265129000000.0 784945000000.0 543625000000.0 306850000000.0 507225000000.0 587052000000.0 534674000000.0 522274000000.0 415452000000.0 384089000000.0 284844000000.0 310172000000.0 302989000000.0 435605000000.0 716350000000.0 927361000000.0 692073000000.0 740686000000.0 592137000000.0 187623000000.0 303601000000.0 465228000000.0 1.63458e+12 109735000000.0 8390080000.0 400454000000.0 58071000000.0 286969000000.0 189969000000.0 555137000000.0 597776000000.0 496819000000.0 373475000000.0 334142000000.0 348622000000.0 373247000000.0 484044000000.0 972590000000.0 877129000000.0 56601700000.0 391955000000.0 454789000000.0 129530000000.0 531443000000.0 289996000000.0 79726900000.0 489033000000.0 621803000000.0 625117000000.0 580306000000.0 466494000000.0 374838000000.0 349580000000.0 382370000000.0 523367000000.0 563678000000.0 931548000000.0 1.16704e+12 188737000000.0 34653700000.0 244673000000.0 374847000000.0 154716000000.0 1.74305e+12 450906000000.0 373819000000.0 187897000000.0 109707000000.0 197709000000.0 326576000000.0 509839000000.0 600432000000.0 624759000000.0 608684000000.0 553956000000.0 530333000000.0 448983000000.0 443573000000.0 380731000000.0 390178000000.0 358630000000.0 376428000000.0 390053000000.0 494587000000.0 428178000000.0 263486000000.0 418205000000.0 1.35002e+12 1.38605e+12 20712300000.0 314977000000.0 397893000000.0 568488000000.0 621048000000.0 592504000000.0 518155000000.0 448936000000.0 413712000000.0 450986000000.0 496265000000.0 282653000000.0 509228000000.0 76423700000.0 156192000000.0 304492000000.0 322204000000.0 205988000000.0 1.16456e+12 655031000000.0 30575200000.0 445320000000.0 627024000000.0 508326000000.0 446492000000.0 479965000000.0 499864000000.0 581933000000.0 598410000000.0 617908000000.0 621483000000.0 583350000000.0 583786000000.0 518630000000.0 470000000000.0 476615000000.0 596515000000.0 530208000000.0 1.04186e+12 142114000000.0 120076000000.0 281873000000.0 769280000000.0 584339000000.0 195915000000.0 472819000000.0 1.08386e+12 419458000000.0 537034000000.0 622621000000.0 630126000000.0 594909000000.0 533470000000.0 568840000000.0 519206000000.0 608548000000.0 598554000000.0 1.05942e+12 1.0069e+12 666773000000.0 175646000000.0 73382400000.0 177651000000.0 149580000000.0 359449000000.0 188903000000.0 200573000000.0 183898000000.0 304219000000.0 766042000000.0 431234000000.0 458625000000.0 588242000000.0 648342000000.0 643015000000.0 618981000000.0 630498000000.0 760327000000.0 870856000000.0 721443000000.0 56230800000.0 150536000000.0 190107000000.0 201935000000.0 434590000000.0 470543000000.0 194086000000.0 701657000000.0 1.53864e+12 538860000000.0 418632000000.0 503629000000.0 536047000000.0 611883000000.0 638097000000.0 675754000000.0 670350000000.0 689592000000.0 662409000000.0 688300000000.0 659655000000.0 721501000000.0 801780000000.0 828446000000.0 606706000000.0 501564000000.0 20971300000.0 62693700000.0 493372000000.0 628940000000.0 703830000000.0 9035750000.0 726348000000.0 711226000000.0 329977000000.0 230932000000.0 286695000000.0 566351000000.0 1.40559e+12 556483000000.0 596316000000.0 667912000000.0 700367000000.0 711205000000.0 722900000000.0 716045000000.0 757179000000.0 770959000000.0 707829000000.0 442439000000.0 284882000000.0 391656000000.0 554681000000.0 1.93194e+12 342728000000.0 700849000000.0 1.3973e+12 644782000000.0 363284000000.0 223484000000.0 150698000000.0 386470000000.0 267433000000.0 754542000000.0 633195000000.0 666569000000.0 700460000000.0 716452000000.0 729296000000.0 752556000000.0 758628000000.0 744608000000.0 557680000000.0 444179000000.0 320499000000.0 299517000000.0 774966000000.0 1.03242e+12 99797500000.0 169554000000.0 84264800000.0 1.07202e+12 260527000000.0 170000000000.0 179722000000.0 1.06289e+12 895304000000.0 752991000000.0 786958000000.0 699483000000.0 733746000000.0 704720000000.0 716463000000.0 714831000000.0 717563000000.0 736554000000.0 747935000000.0 763051000000.0 723920000000.0 663495000000.0 675421000000.0 572867000000.0 373880000000.0 324903000000.0 454287000000.0 140597000000.0 1.43828e+12 560001000000.0 58608400000.0 189472000000.0 170754000000.0 373530000000.0 66884100000.0 1.10384e+12 362434000000.0 420773000000.0 95259400000.0 162527000000.0 887859000000.0 931529000000.0 896683000000.0 804386000000.0 738271000000.0 709550000000.0 742866000000.0 735908000000.0 742464000000.0 758575000000.0 760253000000.0 752877000000.0 733635000000.0 644354000000.0 526242000000.0 542792000000.0 349895000000.0 333688000000.0 882606000000.0 692510000000.0 528995000000.0 60688100000.0 836649000000.0 137730000000.0 483766000000.0 150503000000.0 549961000000.0 1.33198e+12 1.37965e+12 453331000000.0 294298000000.0 270037000000.0 437166000000.0 491846000000.0 883187000000.0 957672000000.0 897897000000.0 794451000000.0 719834000000.0 685672000000.0 707671000000.0 747784000000.0 758073000000.0 759088000000.0 721841000000.0 666927000000.0 790763000000.0 731115000000.0 1.07625e+12 917062000000.0 38710900000.0 112160000000.0 484213000000.0 1.02375e+12 22941300000.0 151574000000.0 348848000000.0 406018000000.0 548058000000.0 913669000000.0 936275000000.0 1.43597e+12 348583000000.0 469843000000.0 696870000000.0 953300000000.0 945052000000.0 876841000000.0 838312000000.0 763472000000.0 713895000000.0 683386000000.0 600961000000.0 752901000000.0 714569000000.0 729866000000.0 777761000000.0 763363000000.0 781652000000.0 740869000000.0 826725000000.0 1.2437e+12 1.34473e+12 873069000000.0 335322000000.0 553381000000.0 180305000000.0 610517000000.0 732433000000.0 258858000000.0 253600000000.0 45788900000.0 274969000000.0 205337000000.0 255985000000.0 477286000000.0 764305000000.0 527913000000.0 740114000000.0 615988000000.0 311659000000.0 131414000000.0 482384000000.0 431341000000.0 660753000000.0 914966000000.0 953434000000.0 962830000000.0 927923000000.0 909659000000.0 877266000000.0 788243000000.0 640726000000.0 831618000000.0 633204000000.0 670544000000.0 766322000000.0 803295000000.0 830361000000.0 835736000000.0 1.01835e+12 1.12406e+12 1.22516e+12 214847000000.0 581347000000.0 1.0079e+12 943959000000.0 332605000000.0 271283000000.0 18307000000.0 9931700000.0 366158000000.0 178142000000.0 263840000000.0 365794000000.0 509982000000.0 704617000000.0 262865000000.0 531018000000.0 277557000000.0 156559000000.0 328550000000.0 632673000000.0 791640000000.0 827890000000.0 935814000000.0 929423000000.0 873850000000.0 877304000000.0 718234000000.0 393814000000.0 1.17563e+12 455563000000.0 605471000000.0 718872000000.0 846123000000.0 818090000000.0 820171000000.0 936464000000.0 1.13416e+12 1.2164e+12 1.08351e+12 850483000000.0 134890000000.0 947596000000.0 647159000000.0 47197500000.0 43241600000.0 98476500000.0 259874000000.0 8994070000.0 467440000000.0 43749800000.0 84393300000.0 136901000000.0 133698000000.0 351464000000.0 429439000000.0 466690000000.0 580371000000.0 1.33085e+12 81092300000.0 730424000000.0 660888000000.0 882368000000.0 919208000000.0 872183000000.0 822102000000.0 951590000000.0 589639000000.0 179846000000.0 101125000000.0 929423000000.0 776115000000.0 802592000000.0 823271000000.0 873622000000.0 928572000000.0 1.0295e+12 1.11428e+12 892484000000.0 543907000000.0 490015000000.0 1.1218e+12 272968000000.0 79681600000.0 156730000000.0 64873700000.0 9750100000.0 150012000000.0 218704000000.0 215982000000.0 81837200000.0 78419600000.0 211504000000.0 192565000000.0 137969000000.0 166834000000.0 55362600000.0 99351100000.0 764493000000.0 1.58893e+12 309899000000.0 697210000000.0 772483000000.0 428820000000.0 755028000000.0 847983000000.0 855602000000.0 877755000000.0 940429000000.0 846451000000.0 855817000000.0 782662000000.0 811338000000.0 768728000000.0 782730000000.0 734383000000.0 1.18377e+12 97353000000.0 516569000000.0 1.4028e+12 1.18892e+12 740893000000.0 775095000000.0 845310000000.0 938003000000.0 1.04997e+12 1.02527e+12 996468000000.0 756553000000.0 232475000000.0 509154000000.0 259100000000.0 11333200000.0 69218200000.0 19540700000.0 133414000000.0 313941000000.0 222092000000.0 116306000000.0 166367000000.0 207763000000.0 97571700000.0 661853000000.0 520558000000.0 129778000000.0 214853000000.0 153754000000.0 117242000000.0 185008000000.0 106919000000.0 377054000000.0 127349000000.0 563338000000.0 1.00293e+12 966039000000.0 736157000000.0 736606000000.0 752180000000.0 698970000000.0 562220000000.0 24412800000.0 764194000000.0 210046000000.0 657498000000.0 683271000000.0 691203000000.0 727581000000.0 777384000000.0 834716000000.0 911372000000.0 867030000000.0 830632000000.0 413711000000.0 216403000000.0 25570900000.0 478148000000.0 430570000000.0 349442000000.0 572193000000.0 350996000000.0 276570000000.0 235095000000.0 241290000000.0 140058000000.0 190930000000.0 235832000000.0 223732000000.0 134389000000.0 195968000000.0 390647000000.0 348888000000.0 296154000000.0 409032000000.0 778487000000.0 191516000000.0 408853000000.0 391749000000.0 133094000000.0 59987500000.0 196326000000.0 255447000000.0 785834000000.0 868578000000.0 707651000000.0 659788000000.0 745939000000.0 773383000000.0 1.26606e+12 1.45508e+12 95264700000.0 695239000000.0 673626000000.0 717552000000.0 686482000000.0 751524000000.0 678289000000.0 768956000000.0 695531000000.0 939054000000.0 514285000000.0 87631300000.0 66444900000.0 272531000000.0 338540000000.0 196472000000.0 79221700000.0 124775000000.0 334808000000.0 279908000000.0 156771000000.0 100954000000.0 51569800000.0 182317000000.0 271979000000.0 187121000000.0 118676000000.0 32831100000.0 352208000000.0 408485000000.0 1.04711e+12 490202000000.0 380630000000.0 510376000000.0 481498000000.0 1.29218e+12 1.43732e+12 1.06686e+12 305183000000.0 169395000000.0 13582500000.0 300414000000.0 1.19255e+12 1.03473e+12 1.17773e+12 264996000000.0 523789000000.0 579836000000.0 693412000000.0 718551000000.0 767306000000.0 1.02781e+12 146625000000.0 45495300000.0 1.09633e+12 672936000000.0 638037000000.0 611016000000.0 529395000000.0 891376000000.0 663202000000.0 284172000000.0 111448000000.0 210383000000.0 669723000000.0 97018700000.0 1.08274e+12 945256000000.0 630386000000.0 217614000000.0 147490000000.0 460373000000.0 98580900000.0 35397600000.0 155648000000.0 175789000000.0 157163000000.0 338589000000.0 181150000000.0 200967000000.0 207538000000.0 85521700000.0 16569100000.0 35514200000.0 369236000000.0 760403000000.0 124660000000.0 402133000000.0 35602200000.0 94259400000.0 255658000000.0 89430800000.0 340617000000.0 1.14599e+12 362713000000.0 631153000000.0 806953000000.0 894623000000.0 777402000000.0 665432000000.0 469454000000.0 1.2406e+12 499945000000.0 575732000000.0 628950000000.0 830037000000.0 687619000000.0 618826000000.0 539144000000.0 572352000000.0 488464000000.0 347502000000.0 502596000000.0 78182100000.0 24759700000.0 1.03185e+12 1.36481e+12 175727000000.0 159242000000.0 653274000000.0 434622000000.0 228598000000.0 13361900000.0 28793100000.0 165708000000.0 206519000000.0 90982100000.0 702882000000.0 466721000000.0 133307000000.0 214086000000.0 214022000000.0 136255000000.0 135319000000.0 140250000000.0 22208700000.0 339869000000.0 117003000000.0 152237000000.0 300022000000.0 1.18752e+12 1.90011e+12 1.20497e+12 223367000000.0 447179000000.0 413960000000.0 156826000000.0 174189000000.0 153385000000.0 312819000000.0 16994800000.0 477492000000.0 714948000000.0 779988000000.0 716480000000.0 904577000000.0 658175000000.0 603764000000.0 565359000000.0 429168000000.0 481718000000.0 409048000000.0 223441000000.0 253984000000.0 1.10831e+12 290405000000.0 36845700000.0 482043000000.0 167445000000.0 301895000000.0 376324000000.0 80537900000.0 727523000000.0 755191000000.0 304414000000.0 660108000000.0 951948000000.0 377091000000.0 144683000000.0 122061000000.0 239064000000.0 441568000000.0 339578000000.0 211867000000.0 133678000000.0 107536000000.0 35266600000.0 59400900000.0 156366000000.0 171040000000.0 251177000000.0 349408000000.0 150720000000.0 64407100000.0 110607000000.0 281899000000.0 204403000000.0 289067000000.0 81050000000.0 182719000000.0 333796000000.0 1.01096e+12 897371000000.0 507418000000.0 312117000000.0 161047000000.0 1.21865e+12 1.37648e+12 420786000000.0 579245000000.0 602059000000.0 722047000000.0 708885000000.0 745299000000.0 679290000000.0 678849000000.0 659288000000.0 527070000000.0 410600000000.0 336308000000.0 203462000000.0 1.52534e+12 264191000000.0 100094000000.0 696958000000.0 1.47677e+12 762590000000.0 578959000000.0 31626900000.0 501958000000.0 305077000000.0 107584000000.0 124798000000.0 316473000000.0 603311000000.0 152479000000.0 215029000000.0 226655000000.0 125581000000.0 98350700000.0 332855000000.0 404062000000.0 1.62517e+12 444235000000.0 46445400000.0 51805500000.0 227772000000.0 352469000000.0 25353500000.0 100079000000.0 325175000000.0 500668000000.0 72141700000.0 177259000000.0 82061600000.0 315987000000.0 242137000000.0 27938500000.0 545280000000.0 877253000000.0 376539000000.0 522060000000.0 424897000000.0 604993000000.0 703966000000.0 736002000000.0 744511000000.0 819531000000.0 744216000000.0 710787000000.0 625653000000.0 405982000000.0 282337000000.0 186135000000.0 138407000000.0 385427000000.0 405771000000.0 561699000000.0 1.63402e+12 97480000000.0 243363000000.0 616417000000.0 1.26776e+12 259229000000.0 340488000000.0 242052000000.0 100728000000.0 86637900000.0 164082000000.0 319014000000.0 320566000000.0 385924000000.0 118655000000.0 189313000000.0 519959000000.0 42578300000.0 119194000000.0 184152000000.0 262113000000.0 274720000000.0 67789000000.0 186155000000.0 513488000000.0 1.51333e+12 402462000000.0 244400000000.0 154892000000.0 115134000000.0 256580000000.0 663988000000.0 380250000000.0 11204400000.0 222087000000.0 435867000000.0 394304000000.0 764712000000.0 1.17638e+12 819868000000.0 343327000000.0 974068000000.0 413565000000.0 186156000000.0 352564000000.0 799627000000.0 592822000000.0 213234000000.0 419951000000.0 621096000000.0 720826000000.0 786962000000.0 734221000000.0 694158000000.0 652018000000.0 561702000000.0 498213000000.0 98362900000.0 557404000000.0 410827000000.0 369492000000.0 791258000000.0 1.37068e+12 460724000000.0 314825000000.0 123019000000.0 15657800000.0 70074800000.0 465385000000.0 706341000000.0 1.19594e+12 427494000000.0 32353800000.0 227309000000.0 348663000000.0 321011000000.0 356122000000.0 36873800000.0 65562100000.0 112833000000.0 489910000000.0 673159000000.0 501451000000.0 758420000000.0 286354000000.0 191027000000.0 143761000000.0 117791000000.0 837185000000.0 701002000000.0 79931400000.0 535478000000.0 182753000000.0 297378000000.0 384416000000.0 892230000000.0 627233000000.0 145173000000.0 1.009e+12 380889000000.0 502742000000.0 675508000000.0 800496000000.0 709102000000.0 209597000000.0 464391000000.0 541837000000.0 639514000000.0 737809000000.0 753801000000.0 700785000000.0 588355000000.0 526017000000.0 75677100000.0 688397000000.0 796592000000.0 334391000000.0 1.1803e+12 273118000000.0 150052000000.0 3280410000.0 301710000000.0 499180000000.0 128412000000.0 148354000000.0 171723000000.0 114848000000.0 378981000000.0 130703000000.0 17808900000.0 176485000000.0 354933000000.0 349378000000.0 464537000000.0 409859000000.0 374448000000.0 13462200000.0 2411040000.0 30245200000.0 480025000000.0 640209000000.0 458796000000.0 147828000000.0 211496000000.0 128322000000.0 210846000000.0 144022000000.0 48655400000.0 33468100000.0 501978000000.0 941328000000.0 327205000000.0 551051000000.0 818336000000.0 746668000000.0 219116000000.0 608290000000.0 203187000000.0 1.42499e+12 241247000000.0 406864000000.0 595316000000.0 739490000000.0 1.02862e+12 269008000000.0 403195000000.0 533673000000.0 661156000000.0 674991000000.0 741895000000.0 720983000000.0 638193000000.0 544441000000.0 640034000000.0 494472000000.0 129919000000.0 1.45244e+12 915632000000.0 291569000000.0 254071000000.0 1.48384e+12 1.51242e+12 388726000000.0 182314000000.0 151129000000.0 53912200000.0 197941000000.0 261410000000.0 161116000000.0 119464000000.0 34183000000.0 166401000000.0 468898000000.0 379788000000.0 507448000000.0 496663000000.0 430672000000.0 426919000000.0 379663000000.0 10538300000.0 6713500000.0 452355000000.0 472578000000.0 611311000000.0 725436000000.0 683546000000.0 504457000000.0 31771800000.0 93753500000.0 42751100000.0 153803000000.0 63650900000.0 9238220000.0 49568900000.0 71477300000.0 320196000000.0 613128000000.0 1.2696e+12 208790000000.0 103096000000.0 5610640000.0 1.10381e+12 301933000000.0 249002000000.0 220929000000.0 122339000000.0 435084000000.0 831173000000.0 144811000000.0 494779000000.0 527006000000.0 661992000000.0 721476000000.0 667651000000.0 671915000000.0 574842000000.0 548680000000.0 406003000000.0 240392000000.0 276760000000.0 1.00651e+12 693739000000.0 523764000000.0 361382000000.0 943375000000.0 700138000000.0 434692000000.0 292161000000.0 213728000000.0 283865000000.0 366846000000.0 372919000000.0 276145000000.0 96536200000.0 349918000000.0 23894200000.0 937715000000.0 622769000000.0 599853000000.0 566651000000.0 480916000000.0 417801000000.0 383822000000.0 381319000000.0 18839200000.0 18525200000.0 5683930000.0 430637000000.0 584678000000.0 709325000000.0 746923000000.0 633037000000.0 216315000000.0 189784000000.0 220456000000.0 81684200000.0 25613100000.0 461241000000.0 1.05908e+12 213688000000.0 30164200000.0 7594450000.0 329965000000.0 817355000000.0 314269000000.0 299431000000.0 330855000000.0 493923000000.0 135539000000.0 282001000000.0 321088000000.0 25974200000.0 10928000000.0 1.01451e+12 491051000000.0 554414000000.0 515978000000.0 244033000000.0 275523000000.0 577912000000.0 661799000000.0 610831000000.0 406389000000.0 568637000000.0 481581000000.0 577732000000.0 781078000000.0 500662000000.0 315871000000.0 474396000000.0 417603000000.0 21829900000.0 215487000000.0 271385000000.0 269352000000.0 328279000000.0 413381000000.0 482650000000.0 521210000000.0 499662000000.0 1.19903e+12 1.4633e+12 971444000000.0 730117000000.0 611363000000.0 548276000000.0 483760000000.0 446906000000.0 439881000000.0 420186000000.0 382357000000.0 23200100000.0 34164700000.0 37843000000.0 415338000000.0 502646000000.0 544063000000.0 674041000000.0 825100000000.0 845492000000.0 466330000000.0 258105000000.0 275425000000.0 564930000000.0 320158000000.0 1.19932e+12 62610200000.0 237155000000.0 610791000000.0 105089000000.0 168238000000.0 534447000000.0 23973000000.0 708645000000.0 89378800000.0 54806200000.0 20448200000.0 267547000000.0 432950000000.0 391730000000.0 206138000000.0 132135000000.0 197796000000.0 329141000000.0 538175000000.0 540288000000.0 568794000000.0 572974000000.0 468864000000.0 163966000000.0 14576600000.0 245999000000.0 1.41092e+12 731979000000.0 689152000000.0 424225000000.0 303371000000.0 91248900000.0 274905000000.0 79167000000.0 116039000000.0 34709000000.0 178506000000.0 254872000000.0 323124000000.0 398958000000.0 475723000000.0 568947000000.0 748540000000.0 1.06743e+12 780889000000.0 1.3516e+12 620045000000.0 556540000000.0 559728000000.0 535601000000.0 444993000000.0 446185000000.0 420191000000.0 413122000000.0 383812000000.0 51082900000.0 71632000000.0 410691000000.0 472381000000.0 623048000000.0 767090000000.0 817836000000.0 952690000000.0 1.01204e+12 760476000000.0 555493000000.0 460112000000.0 1.29285e+12 367170000000.0 423547000000.0 1.31747e+12 295140000000.0 87885000000.0 87113300000.0 199245000000.0 558845000000.0 453678000000.0 50408900000.0 482553000000.0 10276900000.0 107843000000.0 326856000000.0 443889000000.0 460832000000.0 340306000000.0 76071100000.0 601212000000.0 592296000000.0 291792000000.0 772221000000.0 210397000000.0 225818000000.0 338539000000.0 316309000000.0 581839000000.0 546364000000.0 809036000000.0 917016000000.0 220338000000.0 1.04066e+12 105806000000.0 4311460000.0 136673000000.0 419996000000.0 479840000000.0 266980000000.0 123942000000.0 176132000000.0 251665000000.0 318758000000.0 371704000000.0 394518000000.0 359085000000.0 205136000000.0 262383000000.0 1.11833e+12 1.00988e+12 792709000000.0 146128000000.0 238108000000.0 545968000000.0 472670000000.0 441592000000.0 457516000000.0 467543000000.0 450831000000.0 415023000000.0 394809000000.0 415849000000.0 67775100000.0 132087000000.0 106634000000.0 481835000000.0 425121000000.0 454777000000.0 557194000000.0 677447000000.0 920108000000.0 1.07268e+12 972305000000.0 161361000000.0 95737900000.0 722766000000.0 294316000000.0 660269000000.0 670453000000.0 546540000000.0 123833000000.0 330138000000.0 273821000000.0 277078000000.0 9075040000.0 169962000000.0 466083000000.0 364462000000.0 156766000000.0 205095000000.0 294508000000.0 910756000000.0 536072000000.0 643081000000.0 363596000000.0 700011000000.0 448292000000.0 437664000000.0 643328000000.0 408993000000.0 597002000000.0 808069000000.0 931891000000.0 6494280000.0 240560000000.0 536524000000.0 388824000000.0 299058000000.0 315005000000.0 359822000000.0 420480000000.0 407912000000.0 356641000000.0 281698000000.0 321071000000.0 2589320000.0 808221000000.0 154944000000.0 56767800000.0 623505000000.0 667583000000.0 485850000000.0 461994000000.0 483582000000.0 437048000000.0 443090000000.0 428672000000.0 436157000000.0 85484800000.0 142580000000.0 536459000000.0 476046000000.0 465593000000.0 491895000000.0 561377000000.0 653052000000.0 817077000000.0 979649000000.0 1.18515e+12 1.19749e+12 1.14682e+12 918220000000.0 218770000000.0 629699000000.0 630671000000.0 164011000000.0 637430000000.0 128344000000.0 322621000000.0 485675000000.0 401849000000.0 570548000000.0 56122300000.0 252115000000.0 419131000000.0 484673000000.0 198741000000.0 59909300000.0 99317800000.0 210878000000.0 450993000000.0 206560000000.0 926344000000.0 682589000000.0 236981000000.0 782286000000.0 160518000000.0 214605000000.0 85002300000.0 218948000000.0 513856000000.0 500490000000.0 563314000000.0 531771000000.0 466967000000.0 580974000000.0 400238000000.0 251598000000.0 164303000000.0 57243100000.0 1.01791e+12 898528000000.0 172890000000.0 1.02849e+12 452486000000.0 408121000000.0 448373000000.0 497273000000.0 475865000000.0 466523000000.0 469876000000.0 449776000000.0 100461000000.0 110114000000.0 135724000000.0 565309000000.0 683042000000.0 590305000000.0 493588000000.0 462419000000.0 495515000000.0 758325000000.0 910218000000.0 1.41923e+12 1.40092e+12 837731000000.0 1.04554e+12 20188800000.0 571064000000.0 114097000000.0 31125500000.0 131296000000.0 401858000000.0 61578200000.0 370004000000.0 530847000000.0 551603000000.0 491844000000.0 378983000000.0 39737400000.0 132252000000.0 138520000000.0 220377000.0 809953000000.0 496418000000.0 93659600000.0 653106000000.0 859393000000.0 287816000000.0 701334000000.0 682305000000.0 529707000000.0 20687300000.0 55493800000.0 377683000000.0 558516000000.0 607296000000.0 560941000000.0 479150000000.0 429699000000.0 432676000000.0 451151000000.0 459585000000.0 437443000000.0 369235000000.0 331888000000.0 1.34538e+12 1.45138e+12 925020000000.0 119723000000.0 1.45814e+12 738597000000.0 266720000000.0 591598000000.0 544702000000.0 541917000000.0 471962000000.0 507456000000.0 535312000000.0 502527000000.0 518060000000.0 455537000000.0 117457000000.0 102817000000.0 501210000000.0 556076000000.0 708227000000.0 725662000000.0 420412000000.0 371725000000.0 556448000000.0 663664000000.0 1.04522e+12 1.1116e+12 1.21367e+12 1.67155e+12 580614000000.0 523049000000.0 227105000000.0 306092000000.0 6561110000.0 212806000000.0 4188450000.0 26935100000.0 2322000000.0 452713000000.0 789963000000.0 648347000000.0 657780000000.0 603320000000.0 512804000000.0 395535000000.0 250303000000.0 72516200000.0 83420200000.0 393521000000.0 27162900000.0 55962400000.0 888781000000.0 269898000000.0 686106000000.0 840652000000.0 450437000000.0 208954000000.0 104893000000.0 231636000000.0 9262560000.0 98665000000.0 232618000000.0 451692000000.0 572077000000.0 610307000000.0 589406000000.0 547172000000.0 520403000000.0 519290000000.0 521225000000.0 503872000000.0 451312000000.0 356870000000.0 264500000000.0 1.59553e+12 1.45207e+12 401453000000.0 1.11774e+12 463686000000.0 223336000000.0 529997000000.0 816991000000.0 672870000000.0 626721000000.0 495886000000.0 611942000000.0 591692000000.0 516964000000.0 448169000000.0 434120000000.0 115717000000.0 110307000000.0 11703500000.0 393579000000.0 652982000000.0 860036000000.0 936670000000.0 475633000000.0 355531000000.0 356100000000.0 356760000000.0 363757000000.0 803221000000.0 1.02883e+12 1.53243e+12 288908000000.0 49301800000.0 414475000000.0 577473000000.0 482050000000.0 301530000000.0 275152000000.0 150392000000.0 128581000000.0 309072000000.0 532565000000.0 1.1542e+12 480860000000.0 311036000000.0 542902000000.0 536317000000.0 455151000000.0 363115000000.0 264041000000.0 151086000000.0 48310900000.0 48011500000.0 95068000000.0 236739000000.0 80796400000.0 209548000000.0 83523200000.0 117513000000.0 79498500000.0 135176000000.0 346261000000.0 495684000000.0 582781000000.0 616931000000.0 611117000000.0 592521000000.0 581239000000.0 577412000000.0 567129000000.0 532867000000.0 471126000000.0 419127000000.0 395755000000.0 1.73345e+12 1.03828e+12 359937000000.0 1.11803e+12 994184000000.0 296567000000.0 200293000000.0 847178000000.0 881515000000.0 477207000000.0 520689000000.0 716631000000.0 606656000000.0 496719000000.0 412453000000.0 112137000000.0 100724000000.0 199683000000.0 214670000000.0 536062000000.0 682239000000.0 839725000000.0 1.0765e+12 1.34365e+12 410033000000.0 259127000000.0 226698000000.0 238898000000.0 283180000000.0 220214000000.0 588272000000.0 15246000000.0 47196800000.0 72172500000.0 384425000000.0 421769000000.0 355685000000.0 346423000000.0 342669000000.0 427506000000.0 648007000000.0 966934000000.0 64941700000.0 185231000000.0 276996000000.0 350966000000.0 265014000000.0 213478000000.0 171703000000.0 116869000000.0 34972100000.0 38095500000.0 84526600000.0 210422000000.0 113284000000.0 167600000000.0 525770000000.0 405245000000.0 636111000000.0 558149000000.0 487895000000.0 704725000000.0 260743000000.0 119818000000.0 37639900000.0 97254100000.0 71536000000.0 117761000000.0 173733000000.0 273274000000.0 418280000000.0 523909000000.0 587311000000.0 615642000000.0 620731000000.0 615867000000.0 609621000000.0 598690000000.0 569267000000.0 496609000000.0 378812000000.0 47171500000.0 1.53552e+12 1.18763e+12 976705000000.0 1.4269e+12 960124000000.0 382569000000.0 1.47811e+12 1.16588e+12 582532000000.0 433771000000.0 552286000000.0 750126000000.0 727048000000.0 588641000000.0 511895000000.0 452786000000.0 379343000000.0 77428300000.0 3989710000.0 28149700000.0 343985000000.0 474073000000.0 866541000000.0 1.13762e+12 405260000000.0 199183000000.0 210738000000.0 256076000000.0 298877000000.0 916719000000.0 814226000000.0 950193000000.0 112240000000.0 180192000000.0 402842000000.0 451826000000.0 447498000000.0 475429000000.0 384476000000.0 262414000000.0 80606200000.0 307277000000.0 420326000000.0 119671000000.0 150779000000.0 102485000000.0 23285300000.0 53151800000.0 143778000000.0 160131000000.0 224397000000.0 394708000000.0 445992000000.0 601515000000.0 560230000000.0 571271000000.0 394306000000.0 299048000000.0 115561000000.0 29906800000.0 45945600000.0 84008900000.0 106907000000.0 173650000000.0 258640000000.0 354403000000.0 455376000000.0 531321000000.0 599753000000.0 568683000000.0 497197000000.0 317852000000.0 182341000000.0 1.13375e+12 908676000000.0 737914000000.0 466020000000.0 912223000000.0 1.13561e+12 1.23143e+12 142888000000.0 633894000000.0 817230000000.0 458467000000.0 1.06373e+12 1.11194e+12 908359000000.0 725797000000.0 586564000000.0 433511000000.0 416746000000.0 372572000000.0 331941000000.0 58372300000.0 6332950000.0 285350000000.0 173965000000.0 172716000000.0 274868000000.0 601515000000.0 762089000000.0 1.55491e+12 364606000000.0 650406000000.0 180682000000.0 348649000000.0 585210000000.0 949401000000.0 1.20322e+12 156754000000.0 466359000000.0 331435000000.0 364207000000.0 477578000000.0 533080000000.0 646989000000.0 772105000000.0 124868000000.0 323837000000.0 294884000000.0 148761000000.0 85537200000.0 78391600000.0 9662550000.0 101550000000.0 164355000000.0 236919000000.0 346931000000.0 428667000000.0 533715000000.0 567137000000.0 551106000000.0 447488000000.0 269234000000.0 154078000000.0 44404600000.0 19310600000.0 72244500000.0 116157000000.0 580367000000.0 606696000000.0 616188000000.0 613213000000.0 186982000000.0 726562000000.0 819998000000.0 668696000000.0 504265000000.0 706675000000.0 736303000000.0 136124000000.0 283253000000.0 697706000000.0 875491000000.0 1.00033e+12 915835000000.0 872389000000.0 502914000000.0 452772000000.0 403904000000.0 308342000000.0 278005000000.0 232915000000.0 38811300000.0 63067000000.0 80882200000.0 387758000000.0 327566000000.0 6614650000.0 178397000000.0 363567000000.0 463741000000.0 1.00825e+12 1.52463e+12 247484000000.0 1.02826e+12 378839000000.0 687835000000.0 1.15917e+12 1.23971e+12 926018000000.0 486495000000.0 504533000000.0 498883000000.0 521337000000.0 550773000000.0 599454000000.0 660382000000.0 697519000000.0 533836000000.0 217044000000.0 301735000000.0 365060000000.0 349153000000.0 196587000000.0 64559600000.0 53894300000.0 135568000000.0 146821000000.0 225875000000.0 314394000000.0 393562000000.0 472551000000.0 516933000000.0 517892000000.0 446982000000.0 318705000000.0 164599000000.0 235286000000.0 315180000000.0 394986000000.0 469036000000.0 527241000000.0 566657000000.0 587841000000.0 591711000000.0 577950000000.0 542367000000.0 472577000000.0 326401000000.0 430301000000.0 790279000000.0 737961000000.0 599583000000.0 615083000000.0 643743000000.0 503476000000.0 9606740000.0 1.09992e+12 299948000000.0 350923000000.0 160506000000.0 792219000000.0 617473000000.0 291161000000.0 348947000000.0 391609000000.0 376807000000.0 248915000000.0 193174000000.0 22553300000.0 16970700000.0 22936500000.0 28229700000.0 74215600000.0 513068000000.0 254369000000.0 31562900000.0 235759000000.0 299865000000.0 622197000000.0 903106000000.0 1.31498e+12 1754100000.0 153754000000.0 627039000000.0 954866000000.0 1.23452e+12 965299000000.0 682369000000.0 602302000000.0 511519000000.0 573120000000.0 610440000000.0 643977000000.0 677908000000.0 684416000000.0 597339000000.0 420005000000.0 168689000000.0 212468000000.0 593339000000.0 405776000000.0 177575000000.0 252172000000.0 52299200000.0 140334000000.0 115956000000.0 34422700000.0 60779000000.0 145173000000.0 179612000000.0 77758500000.0 3547070000.0 59550200000.0 109688000000.0 160333000000.0 216086000000.0 281268000000.0 349408000000.0 414338000000.0 470785000000.0 514913000000.0 543967000000.0 555111000000.0 545258000000.0 509836000000.0 437780000000.0 303272000000.0 8593360000.0 312084000000.0 775686000000.0 827978000000.0 740880000000.0 688805000000.0 665630000000.0 587430000000.0 192088000000.0 749359000000.0 587873000000.0 320241000000.0 496123000000.0 1.07148e+12 512374000000.0 370824000000.0 322332000000.0 202542000000.0 437176000000.0 304493000000.0 191058000000.0 137919000000.0 50784300000.0 42413600000.0 73108700000.0 132645000000.0 317133000000.0 236767000000.0 196626000000.0 212825000000.0 411706000000.0 600192000000.0 855712000000.0 1.01964e+12 73083200000.0 644486000000.0 1.28563e+12 1.11745e+12 1.13838e+12 973441000000.0 795169000000.0 706490000000.0 639262000000.0 635895000000.0 658528000000.0 678678000000.0 693104000000.0 688530000000.0 635035000000.0 528104000000.0 374923000000.0 201432000000.0 49791700000.0 760079000000.0 457027000000.0 143753000000.0 319379000000.0 84324800000.0 161345000000.0 91430300000.0 8439070000.0 106659000000.0 196025000000.0 278721000000.0 351316000000.0 415863000000.0 458674000000.0 468151000000.0 426779000000.0 335441000000.0 220483000000.0 109694000000.0 23221700000.0 44174400000.0 98076400000.0 148601000000.0 200483000000.0 255420000000.0 313199000000.0 369345000000.0 420709000000.0 464285000000.0 496856000000.0 514538000000.0 513505000000.0 488786000000.0 433561000000.0 338182000000.0 187456000000.0 826733000000.0 780129000000.0 737184000000.0 691099000000.0 583174000000.0 894941000000.0 930360000000.0 17280700000.0 319770000000.0 1.11865e+12 156750000000.0 155309000000.0 106376000000.0 451778000000.0 322949000000.0 227766000000.0 132906000000.0 166871000000.0 24020000000.0 37388300000.0 14018200000.0 144448000000.0 128701000000.0 572610000000.0 213196000000.0 15577300000.0 202048000000.0 312219000000.0 498084000000.0 737821000000.0 977315000000.0 55179700000.0 940805000000.0 113213000000.0 1.00385e+12 1.22374e+12 1.02085e+12 1.08381e+12 986873000000.0 870155000000.0 792406000000.0 734022000000.0 712706000000.0 710754000000.0 708311000000.0 693777000000.0 655440000000.0 587949000000.0 491649000000.0 378058000000.0 273922000000.0 133737000000.0 278557000000.0 258020000000.0 214355000000.0 84711400000.0 37925900000.0 143022000000.0 229745000000.0 300054000000.0 357212000000.0 396998000000.0 411495000000.0 389591000000.0 328225000000.0 238732000000.0 141130000000.0 52199500000.0 21037900000.0 81424600000.0 133368000000.0 183161000000.0 233343000000.0 283452000000.0 332723000000.0 378910000000.0 419690000000.0 452592000000.0 474676000000.0 482366000000.0 472099000000.0 440610000000.0 385828000000.0 317164000000.0 342462000000.0 655353000000.0 828106000000.0 801020000000.0 756031000000.0 699363000000.0 788715000000.0 720195000000.0 202034000000.0 501383000000.0 792797000000.0 1.1122e+12 436642000000.0 232493000000.0 83334400000.0 26239900000.0 787525000000.0 544803000000.0 153163000000.0 109327000000.0 141502000000.0 37456800000.0 57038800000.0 41395200000.0 54287000000.0 54783300000.0 397448000000.0 160461000000.0 10107100000.0 199432000000.0 422588000000.0 670765000000.0 972854000000.0 820420000000.0 319037000000.0 749767000000.0 594430000000.0 930400000000.0 1.0992e+12 937070000000.0 1.03289e+12 777774000000.0 744860000000.0 722933000000.0 837402000000.0 468614000000.0 133545000000.0 267928000000.0 86139200000.0 53853000000.0 157530000000.0 233063000000.0 289002000000.0 328355000000.0 347581000000.0 339711000000.0 300886000000.0 235473000000.0 155803000000.0 75359400000.0 2467260000.0 60153200000.0 114834000000.0 164445000000.0 391348000000.0 582698000000.0 753297000000.0 830904000000.0 832304000000.0 767035000000.0 784251000000.0 735274000000.0 523984000000.0 608057000000.0 899550000000.0 807039000000.0 1.01266e+12 752418000000.0 273742000000.0 5597510000.0 980826000000.0 441389000000.0 202063000000.0 48636400000.0 127615000000.0 7942830000.0 38269200000.0 181765000000.0 151294000000.0 359509000000.0 256824000000.0 930773000000.0 983073000000.0 754044000000.0 566154000000.0 29129800000.0 569026000000.0 879211000000.0 991206000000.0 984009000000.0 903003000000.0 833313000000.0 698535000000.0 664264000000.0 614896000000.0 550559000000.0 475638000000.0 403214000000.0 354932000000.0 298662000000.0 832563000000.0 465882000000.0 165991000000.0 183333000000.0 417837000000.0 211333000000.0 256972000000.0 301259000000.0 342893000000.0 380420000000.0 412284000000.0 436695000000.0 451420000000.0 454441000000.0 444175000000.0 422447000000.0 400506000000.0 441462000000.0 556319000000.0 687612000000.0 784377000000.0 830600000000.0 830527000000.0 802120000000.0 752046000000.0 658813000000.0 678941000000.0 813990000000.0 879399000000.0 179808000000.0 1.01289e+12 706182000000.0 687910000000.0 268903000000.0 322673000000.0 62335300000.0 3904350000.0 9448510000.0 125256000000.0 166305000000.0 34356300000.0 31622800000.0 442013000000.0 580248000000.0 779938000000.0 971617000000.0 846359000000.0 650319000000.0 116652000000.0 615374000000.0 888672000000.0 877786000000.0 984305000000.0 960099000000.0 897584000000.0 834566000000.0 780548000000.0 737902000000.0 701569000000.0 664041000000.0 621915000000.0 573632000000.0 520978000000.0 470358000000.0 433404000000.0 424097000000.0 423870000000.0 777777000000.0 464046000000.0 214709000000.0 75870100000.0 541258000000.0 307111000000.0 93445300000.0 49489200000.0 141564000000.0 202935000000.0 246444000000.0 272765000000.0 277624000000.0 257391000000.0 213371000000.0 152796000000.0 85322000000.0 19137200000.0 41368000000.0 95541400000.0 144464000000.0 189553000000.0 232126000000.0 272542000000.0 310476000000.0 345019000000.0 375243000000.0 400196000000.0 419076000000.0 431119000000.0 436761000000.0 439596000000.0 448465000000.0 491246000000.0 561087000000.0 647183000000.0 729714000000.0 794912000000.0 830234000000.0 831858000000.0 810657000000.0 794556000000.0 686377000000.0 701542000000.0 627834000000.0 780967000000.0 549419000000.0 753577000000.0 331232000000.0 121880000000.0 1.11711e+12 91549100000.0 13134300000.0 80186400000.0 100336000000.0 37062500000.0 46811300000.0 32594800000.0 175640000000.0 524589000000.0 740951000000.0 897539000000.0 751027000000.0 683083000000.0 618669000000.0 417287000000.0 888258000000.0 839946000000.0 934242000000.0 916925000000.0 864929000000.0 806448000000.0 750983000000.0 701307000000.0 657204000000.0 615325000000.0 573788000000.0 532936000000.0 495340000000.0 467229000000.0 457411000000.0 473889000000.0 507987000000.0 702079000000.0 457299000000.0 250512000000.0 20041200000.0 617220000000.0 327455000000.0 110121000000.0 14994500000.0 90223700000.0 144701000000.0 182986000000.0 202368000000.0 199890000000.0 175625000000.0 133768000000.0 81361000000.0 25529300000.0 28905700000.0 79611600000.0 126028000000.0 168817000000.0 208646000000.0 245762000000.0 280280000000.0 312109000000.0 340674000000.0 365585000000.0 386708000000.0 404127000000.0 419063000000.0 435419000000.0 462069000000.0 515500000000.0 595645000000.0 642411000000.0 688324000000.0 748489000000.0 804427000000.0 832554000000.0 832759000000.0 817337000000.0 781256000000.0 715359000000.0 191205000000.0 372301000000.0 94528500000.0 1.03735e+12 301318000000.0 509399000000.0 134999000000.0 487733000000.0 783253000000.0 759577000000.0 633310000000.0 542593000000.0 768166000000.0 846326000000.0 780825000000.0 817494000000.0 881560000000.0 862291000000.0 812775000000.0 753269000000.0 695754000000.0 643942000000.0 598387000000.0 558193000000.0 522261000000.0 491496000000.0 469156000000.0 461093000000.0 473169000000.0 506602000000.0 550297000000.0 639472000000.0 336041000000.0 153954000000.0 57694800000.0 15677800000.0 73674900000.0 112379000000.0 129276000000.0 124746000000.0 101710000000.0 65300600000.0 21615100000.0 24226500000.0 68958700000.0 111151000000.0 150523000000.0 187086000000.0 221043000000.0 252650000000.0 281894000000.0 308630000000.0 332721000000.0 354346000000.0 374128000000.0 393532000000.0 416087000000.0 449168000000.0 767010000000.0 815623000000.0 836984000000.0 832581000000.0 800997000000.0 749925000000.0 711806000000.0 686027000000.0 604095000000.0 418489000000.0 676710000000.0 791450000000.0 582325000000.0 133884000000.0 774692000000.0 60848900000.0 3291760000.0 421381000000.0 85840500000.0 680204000000.0 777497000000.0 689859000000.0 672006000000.0 548344000000.0 289859000000.0 596875000000.0 729628000000.0 672095000000.0 805083000000.0 831022000000.0 797784000000.0 743062000000.0 681580000000.0 623094000000.0 572555000000.0 614019000000.0 429584000000.0 250847000000.0 93757700000.0 611336000000.0 367465000000.0 247401000000.0 144300000000.0 56183600000.0 7994560000.0 46922100000.0 62629200000.0 58489100000.0 38875700000.0 8856570000.0 26690600000.0 504183000000.0 589428000000.0 702155000000.0 688772000000.0 708244000000.0 834851000000.0 828279000000.0 782161000000.0 727211000000.0 677039000000.0 613136000000.0 529498000000.0 619496000000.0 754920000000.0 528996000000.0 318853000000.0 306503000000.0 424248000000.0 592930000000.0 658507000000.0 571878000000.0 532901000000.0 426445000000.0 628945000000.0 660013000000.0 594997000000.0 530753000000.0 496597000000.0 469078000000.0 449472000000.0 441467000000.0 450637000000.0 481908000000.0 531502000000.0 535535000000.0 513697000000.0 371987000000.0 197955000000.0 63984900000.0 100666000000.0 135598000000.0 168422000000.0 199115000000.0 227743000000.0 254429000000.0 279245000000.0 302165000000.0 323296000000.0 343306000000.0 363731000000.0 387510000000.0 419655000000.0 467012000000.0 535694000000.0 630036000000.0 781055000000.0 682344000000.0 723314000000.0 773242000000.0 820108000000.0 743243000000.0 693679000000.0 629125000000.0 568119000000.0 620557000000.0 545763000000.0 464830000000.0 146606000000.0 507759000000.0 317910000000.0 364554000000.0 84419600000.0 358629000000.0 500356000000.0 421270000000.0 523471000000.0 364853000000.0 792384000000.0 776120000000.0 724452000000.0 660277000000.0 595374000000.0 538877000000.0 493898000000.0 459391000000.0 433273000000.0 414436000000.0 404261000000.0 408644000000.0 436423000000.0 495693000000.0 586170000000.0 507931000000.0 458694000000.0 296741000000.0 136265000000.0 579076000000.0 466990000000.0 328452000000.0 200668000000.0 105400000000.0 42427500000.0 6534630000.0 7507060000.0 4328010000.0 11554300000.0 35662100000.0 64174900000.0 94314900000.0 124229000000.0 152950000000.0 180171000000.0 205819000000.0 229917000000.0 252571000000.0 273823000000.0 293847000000.0 313322000000.0 333487000000.0 356350000000.0 384908000000.0 423194000000.0 474122000000.0 535501000000.0 605914000000.0 740342000000.0 578372000000.0 677241000000.0 743321000000.0 788597000000.0 792187000000.0 792658000000.0 559665000000.0 474323000000.0 456742000000.0 336359000000.0 250688000000.0 14988800000.0 348372000000.0 68131900000.0 261029000000.0 570277000000.0 357803000000.0 462518000000.0 472932000000.0 479233000000.0 613449000000.0 588604000000.0 587160000000.0 539730000000.0 772674000000.0 716864000000.0 641168000000.0 565179000000.0 500181000000.0 449819000000.0 413646000000.0 388065000000.0 369410000000.0 356510000000.0 352313000000.0 363781000000.0 401637000000.0 477682000000.0 608033000000.0 399423000000.0 405542000000.0 47251100000.0 110147000000.0 540932000000.0 475262000000.0 328300000000.0 210725000000.0 129678000000.0 77196600000.0 47156000000.0 35171500000.0 37341200000.0 49769100000.0 68820400000.0 91560700000.0 115838000000.0 140201000000.0 163835000000.0 186424000000.0 207918000000.0 228360000000.0 247843000000.0 266571000000.0 285037000000.0 304169000000.0 325429000000.0 350946000000.0 383384000000.0 424853000000.0 475446000000.0 533153000000.0 592578000000.0 662295000000.0 488656000000.0 630631000000.0 705762000000.0 735251000000.0 728745000000.0 727816000000.0 675227000000.0 635958000000.0 588845000000.0 554200000000.0 536058000000.0 270726000000.0 22019000000.0 7629710000.0 278364000000.0 757446000.0 279733000000.0 375655000000.0 328214000000.0 298894000000.0 373683000000.0 356410000000.0 558129000000.0 437574000000.0 465059000000.0 501067000000.0 498209000000.0 738985000000.0 641209000000.0 541735000000.0 462371000000.0 403185000000.0 363092000000.0 337000000000.0 318936000000.0 304127000000.0 291089000000.0 284873000000.0 294876000000.0 334418000000.0 429094000000.0 163069000000.0 15088600000.0 301496000000.0 512482000000.0 403910000000.0 287424000000.0 202564000000.0 141465000000.0 100095000000.0 75723500000.0 65720600000.0 67094600000.0 76689300000.0 91674400000.0 109802000000.0 129392000000.0 149290000000.0 168846000000.0 187781000000.0 206027000000.0 223680000000.0 240997000000.0 258387000000.0 276459000000.0 557270000000.0 429731000000.0 595549000000.0 661084000000.0 672128000000.0 665695000000.0 653213000000.0 600280000000.0 577118000000.0 551701000000.0 504964000000.0 415777000000.0 382616000000.0 83138100000.0 5260060000.0 131264000000.0 257809000000.0 280747000000.0 277894000000.0 315675000000.0 380148000000.0 453817000000.0 479641000000.0 681167000000.0 620380000000.0 160020000000.0 87607000000.0 232901000000.0 285063000000.0 296218000000.0 319173000000.0 347026000000.0 381799000000.0 426062000000.0 482331000000.0 551557000000.0 569381000000.0 603436000000.0 601829000000.0 596626000000.0 567708000000.0 519321000000.0 497585000000.0 478325000000.0 369341000000.0 305119000000.0 240881000000.0 113018000000.0 242674000000.0 17252900000.0 187820000000.0 39647900000.0 148323000000.0 233399000000.0 450096000000.0 324076000000.0 232288000000.0 538328000000.0 434348000000.0 359685000000.0 312036000000.0 284039000000.0 266294000000.0 251292000000.0 234813000000.0 215216000000.0 199441000000.0 200450000000.0 234594000000.0 333313000000.0 623921000000.0 125506000000.0 145830000000.0 165083000000.0 470825000000.0 338406000000.0 257449000000.0 194304000000.0 146505000000.0 113268000000.0 93375100000.0 84986500000.0 85780400000.0 93285800000.0 105238000000.0 119851000000.0 135817000000.0 152261000000.0 168677000000.0 184814000000.0 200682000000.0 216530000000.0 232750000000.0 249854000000.0 268462000000.0 289394000000.0 313826000000.0 343131000000.0 379495000000.0 427909000000.0 497006000000.0 591175000000.0 545692000000.0 482114000000.0 398402000000.0 552189000000.0 323627000000.0 244489000000.0 283550000000.0 351325000000.0 163406000000.0 32436500000.0 35251900000.0 133501000000.0 60913600000.0 324213000000.0 156473000000.0 335795000000.0 270193000000.0 206872000000.0 323049000000.0 425191000000.0 477442000000.0 589751000000.0 429126000000.0 326363000000.0 264158000000.0 232648000000.0 215229000000.0 199860000000.0 182584000000.0 158926000000.0 130664000000.0 110683000000.0 111046000000.0 139147000000.0 244842000000.0 584959000000.0 16143400000.0 60074800000.0 210139000000.0 400798000000.0 298622000000.0 232635000000.0 181681000000.0 143096000000.0 116230000000.0 100299000000.0 93747700000.0 94579700000.0 100775000000.0 110587000000.0 122650000000.0 135954000000.0 149830000000.0 163898000000.0 178034000000.0 192399000000.0 207373000000.0 223438000000.0 241116000000.0 260935000000.0 283410000000.0 308855000000.0 337515000000.0 370756000000.0 411393000000.0 464308000000.0 579267000000.0 484185000000.0 406150000000.0 378818000000.0 498268000000.0 532007000000.0 524606000000.0 519755000000.0 481997000000.0 434283000000.0 394663000000.0 228514000000.0 300251000000.0 43590700000.0 14427100000.0 9035760000.0 160370000000.0 171753000000.0 156662000000.0 203227000000.0 151472000000.0 92143200000.0 131254000000.0 255740000000.0 350339000000.0 368562000000.0 391729000000.0 286099000000.0 219589000000.0 187962000000.0 170648000000.0 150500000000.0 129257000000.0 108466000000.0 82337400000.0 63183000000.0 61840100000.0 75517600000.0 116121000000.0 210736000000.0 119645000000.0 506177000000.0 253620000000.0 62779000000.0 21086900000.0 127945000000.0 263661000000.0 231693000000.0 192950000000.0 157559000000.0 129139000000.0 109178000000.0 97599700000.0 93320100000.0 94768800000.0 100338000000.0 108756000000.0 119054000000.0 130483000000.0 142547000000.0 154992000000.0 167847000000.0 181455000000.0 196367000000.0 213158000000.0 232254000000.0 253866000000.0 278044000000.0 304399000000.0 332171000000.0 361627000000.0 396272000000.0 447701000000.0 523273000000.0 417179000000.0 330756000000.0 360836000000.0 436764000000.0 448261000000.0 441450000000.0 431825000000.0 398678000000.0 362755000000.0 285497000000.0 202785000000.0 11244800000.0 2202510000.0 93503500000.0 33162600000.0 46658800000.0 195446000000.0 160802000000.0 155160000000.0 34030300000.0 15059400000.0 148822000000.0 177817000000.0 161146000000.0 176582000000.0 177468000000.0 178283000000.0 170791000000.0 136388000000.0 213953000000.0 109530000000.0 43856000000.0 73455400000.0 159853000000.0 164374000000.0 147435000000.0 125947000000.0 491037000000.0 359060000000.0 269422000000.0 339945000000.0 375449000000.0 365635000000.0 353781000000.0 335095000000.0 313535000000.0 256561000000.0 167221000000.0 192941000000.0 236819000000.0 116401000000.0 11269600000.0 23331500000.0 90037700000.0 84358000000.0 256123000000.0 56548400000.0 89589100000.0 124803000000.0 92536700000.0 54360100000.0 35475000000.0 33321800000.0 58607900000.0 87206600000.0 129209000000.0 212139000000.0 269643000000.0 69800700000.0 294597000000.0 107192000000.0 94187000000.0 87240400000.0 85498500000.0 87800000000.0 93094700000.0 100627000000.0 109754000000.0 119930000000.0 130781000000.0 142192000000.0 154399000000.0 167960000000.0 183559000000.0 201776000000.0 222914000000.0 246903000000.0 273415000000.0 302023000000.0 331116000000.0 361185000000.0 407252000000.0 456953000000.0 132524000000.0 158112000000.0 185068000000.0 93189800000.0 30186300000.0 9035750000.0 90920300000.0 10157800000.0 15957200000.0 211010000000.0 179964000000.0 90074700000.0 23464500000.0 213005000000.0 92092300000.0 36229600000.0 14835400000.0 20294200000.0 30360900000.0 54876900000.0 91523900000.0 129957000000.0 154644000000.0 146019000000.0 136328000000.0 137051000000.0 157640000000.0 209641000000.0 262797000000.0 219189000000.0 19074200000.0 167595000000.0 219018000000.0 124031000000.0 47707900000.0 40539200000.0 97872300000.0 109916000000.0 102960000000.0 91080000000.0 81007900000.0 74637300000.0 71944200000.0 72298700000.0 75033400000.0 79936900000.0 86778800000.0 95149200000.0 104590000000.0 114729000000.0 125586000000.0 137682000000.0 151802000000.0 168688000000.0 188845000000.0 212374000000.0 238965000000.0 268109000000.0 298794000000.0 328101000000.0 359130000000.0 397388000000.0 443098000000.0 402435000000.0 308075000000.0 223915000000.0 316944000000.0 315488000000.0 278954000000.0 261303000000.0 255094000000.0 208140000000.0 140243000000.0 58185900000.0 43260600000.0 12261000000.0 259386000000.0 157244000000.0 63079500000.0 42213600000.0 56674400000.0 103560000000.0 310426000000.0 400292000000.0 356420000000.0 191519000000.0 154058000000.0 147333000000.0 146469000000.0 145197000000.0 142225000000.0 134171000000.0 118738000000.0 115372000000.0 132392000000.0 157463000000.0 193676000000.0 229514000000.0 219920000000.0 127143000000.0 2780210000.0 99323000000.0 210401000000.0 114918000000.0 46276700000.0 16456500000.0 53213100000.0 62707200000.0 60367300000.0 56514400000.0 54429800000.0 54058200000.0 54487300000.0 54997700000.0 56779700000.0 60917000000.0 67318200000.0 75403600000.0 84560200000.0 94424100000.0 105191000000.0 117615000000.0 132692000000.0 151265000000.0 173443000000.0 198778000000.0 226610000000.0 256164000000.0 284733000000.0 298715000000.0 334794000000.0 363044000000.0 375161000000.0 316059000000.0 266054000000.0 190100000000.0 293007000000.0 248243000000.0 199125000000.0 212746000000.0 185422000000.0 97710600000.0 130333000000.0 7427560000.0 17619500000.0 48356900000.0 25787600000.0 101191000000.0 150406000000.0 59170400000.0 108481000000.0 175636000000.0 203162000000.0 181626000000.0 164777000000.0 198654000000.0 105465000000.0 48703400000.0 7690250000.0 11958000000.0 17451500000.0 20679700000.0 25311500000.0 30627600000.0 34054800000.0 34342400000.0 33529100000.0 33094000000.0 35685800000.0 272044000000.0 292007000000.0 305590000000.0 299205000000.0 239014000000.0 233145000000.0 159086000000.0 271310000000.0 181276000000.0 176661000000.0 164427000000.0 84105300000.0 117084000000.0 153086000000.0 50218100000.0 38412400000.0 35477300000.0 1311400000.0 22756000000.0 7277930000.0 77110100000.0 138429000000.0 115483000000.0 101855000000.0 81885000000.0 29174700000.0 155842000000.0 160912000000.0 156652000000.0 143866000000.0 126386000000.0 114239000000.0 118559000000.0 139682000000.0 167468000000.0 191311000000.0 191947000000.0 147138000000.0 66072600000.0 11758100000.0 74240700000.0 41949500000.0 50373100000.0 59944000000.0 70025100000.0 80851800000.0 93824000000.0 110443000000.0 131018000000.0 154456000000.0 179653000000.0 205264000000.0 229142000000.0 243571000000.0 63376100000.0 85001500000.0 318992000.0 1775770000.0 15627900000.0 174462000000.0 166771000000.0 125000000000.0 98198900000.0 75178700000.0 93863100000.0 115914000000.0 194648000000.0 214654000000.0 212593000000.0 175942000000.0 176645000000.0 173574000000.0 157059000000.0 135841000000.0 118655000000.0 112071000000.0 118260000000.0 132839000000.0 148590000000.0 154330000000.0 136866000000.0 88156200000.0 22627600000.0 32346800000.0 70706600000.0 187129000000.0 101330000000.0 58627200000.0 40623800000.0 36125000000.0 26687800000.0 14200200000.0 1901320000.0 6946680000.0 10078500000.0 11029900000.0 10893300000.0 8332900000.0 5994290000.0 10878300000.0 20428100000.0 30894100000.0 41149600000.0 52237900000.0 66576900000.0 85764600000.0 107995000000.0 130731000000.0 153234000000.0 173079000000.0 187281000000.0 216487000000.0 224423000000.0 232576000000.0 240049000000.0 224374000000.0 172656000000.0 203200000000.0 113451000000.0 190519000000.0 141330000000.0 116210000000.0 43420700000.0 47082300000.0 1671020000.0 22566700000.0 18609700000.0 101025000000.0 110508000000.0 134583000000.0 108862000000.0 81106500000.0 58153300000.0 36119500000.0 45221900000.0 8046160000.0 97190800000.0 149495000000.0 182180000000.0 170946000000.0 167686000000.0 179443000000.0 162135000000.0 136812000000.0 117854000000.0 105502000000.0 100849000000.0 100927000000.0 101967000000.0 106838000000.0 108305000000.0 90489700000.0 38831800000.0 19723000000.0 64087900000.0 77610300000.0 184263000000.0 106692000000.0 86153400000.0 94375400000.0 86945300000.0 66727000000.0 46469500000.0 30753000000.0 22429100000.0 16595300000.0 12696100000.0 9696750000.0 9154620000.0 17456600000.0 22205300000.0 14285100000.0 3342690000.0 7691040000.0 19868300000.0 38070300000.0 60323700000.0 82145000000.0 101557000000.0 119909000000.0 131791000000.0 158757000000.0 163412000000.0 165927000000.0 166086000000.0 168648000000.0 152442000000.0 116167000000.0 133482000000.0 10392000000.0 166998000000.0 95612700000.0 61575900000.0 51165700000.0 56932100000.0 80508500000.0 47447300000.0 9035750000.0 9035750000.0 5143960000.0 33157700000.0 41382100000.0 127961000000.0 152100000000.0 22263400000.0 1511160000.0 66773400000.0 127045000000.0 136763000000.0 141325000000.0 155927000000.0 142475000000.0 123177000000.0 104697000000.0 77260900000.0 65254000000.0 55991400000.0 47084500000.0 39915800000.0 33306300000.0 25268500000.0 25158200000.0 50525600000.0 54141300000.0 42810600000.0 108239000000.0 105926000000.0 102875000000.0 93371900000.0 75816000000.0 72842100000.0 26250000000.0 96294900000.0 66838800000.0 51620700000.0 87648200000.0 65894200000.0 16871200000.0 120190000000.0 84004800000.0 56852700000.0 10322700000.0 11884800000.0 137570000000.0 141123000000.0 146412000000.0 122816000000.0 104721000000.0 89127600000.0 76865800000.0 69398700000.0 61514800000.0 51876000000.0 61988300000.0 71432300000.0 56215900000.0 4438510000.0 55384300000.0 99948200000.0 103095000000.0 203785000000.0 29165500000.0 9466670000.0 15312800000.0 38185200000.0 57857100000.0 72029500000.0 83948800000.0 101546000000.0 107501000000.0 21289500000.0 51716900000.0 86452400000.0 104212000000.0 1661160000.0 22694700000.0 38066800000.0 91466800000.0 126374000000.0 111224000000.0 82421900000.0 57584600000.0 3973560000.0 4928410000.0 7786670000.0 8739800000.0 1736060000.0 51385900000.0 114346000000.0 134761000000.0 142670000000.0 154945000000.0 142923000000.0 121891000000.0 95673300000.0 71371500000.0 49692000000.0 40699200000.0 27707400000.0 21688300000.0 47735100000.0 54734700000.0 60174500000.0 23709600000.0 29105400000.0 121769000000.0 117272000000.0 239673000000.0 232388000000.0 227212000000.0 190179000000.0 182535000000.0 137258000000.0 120730000000.0 106582000000.0 91653200000.0 78664500000.0 67712100000.0 53699200000.0 39362100000.0 22557600000.0 9395850000.0 19132700000.0 29681900000.0 32513700000.0 36735200000.0 41070200000.0 43592400000.0 42062000000.0 44794100000.0 56699900000.0 67684900000.0 70439100000.0 70265400000.0 68192400000.0 70120900000.0 74611000000.0 73871900000.0 38103700000.0 5966080000.0 108101000000.0 53046000000.0 39534400000.0 38575600000.0 53766200000.0 63790600000.0 9210820000.0 9035750000.0 9035750000.0 9035750000.0 9035750000.0 64470900000.0 100056000000.0 100346000000.0 5529770000.0 7327920000.0 12895700000.0 32071100000.0 102370000000.0 64298600000.0 23036100000.0 17733000000.0 52761200000.0 194727000000.0 165117000000.0 134158000000.0 89720900000.0 1047700000.0 24900800000.0 36700300000.0 43506700000.0 45362700000.0 37196400000.0 27762600000.0 15595400000.0 6971950000.0 2330840000.0 20137300000.0 23877400000.0 24937000000.0 32851800000.0 48169000000.0 12695800000.0 27540000000.0 10230400000.0 2327680000.0 5315240000.0 58088700000.0 19771500000.0 1642860000.0 34516000000.0 24617900000.0 130063000000.0 139061000000.0 153004000000.0 153192000000.0 158788000000.0 162037000000.0 160783000000.0 148115000000.0 134455000000.0 106315000000.0 80260900000.0 108728000000.0 80494800000.0 131821000000.0 62571500000.0 560757000.0 7796100000.0 7739010000.0 2509320000.0 583723000.0 290506000.0 3086760000.0 2710490000.0 3012910000.0 6080680000.0 2029890000.0 10863500000.0 65082400000.0 39494000000.0 21421400000.0 19574500000.0 7272880000.0 7224240000.0 3525390000.0 42811600000.0 78031000000.0 96032800000.0 79701000000.0 58031600000.0 43122000000.0 10151800000.0 9035750000.0 12374600000.0 3200010000.0 2211170000.0 6460510000.0 25043200000.0 40319600000.0 39077100000.0 43371500000.0 38520400000.0 36498900000.0 36500100000.0 37352900000.0 33441800000.0 31534600000.0 16823900000.0 6698780000.0 40725000000.0 65624300000.0 91100200000.0 37664500000.0 71631900000.0 23634200000.0 118233000000.0 8336890000.0 10556600000.0 4912960000.0 10521200000.0 1356960000.0 19485400000.0 26846100000.0 34707000000.0 39314800000.0 42390800000.0 41225700000.0 38832500000.0 31461000000.0 26567800000.0 25686700000.0 26007300000.0 20414100000.0 19205400000.0 22834100000.0 27157100000.0 29551400000.0 28661900000.0 31718400000.0 42938100000.0 55124400000.0 57777100000.0 58886200000.0 56771900000.0 57507100000.0 58137400000.0 46978000000.0 40798500000.0 14347600000.0 86176200000.0 33391200000.0 27463500000.0 30680400000.0 38437100000.0 43334800000.0 9035750000.0 9035750000.0 9063480000.0 9072130000.0 9035750000.0 38485400000.0 64747600000.0 14773100000.0 16627400000.0 75262200000.0 2029010000.0 35720700000.0 30029300000.0 32534600000.0 9035750000.0 9035750000.0 9054660000.0 74994700000.0 60451800000.0 43831100000.0 33806400000.0 9595660000.0 9035750000.0 9095830000.0 21887200000.0 38703100000.0 63259100000.0 72026200000.0 82487600000.0 86231200000.0 89260100000.0 92481600000.0 93652500000.0 89054500000.0 83762900000.0 68803200000.0 55578200000.0 75558200000.0 77796300000.0 23437200000.0 50378400000.0 16972200000.0 86797200000.0 4762060000.0 665762000.0 8461670000.0 3998900000.0 16105000000.0 22305200000.0 28621200000.0 30439000000.0 31520600000.0 28868900000.0 26324700000.0 23306100000.0 22854400000.0 22300500000.0 21921900000.0 17359700000.0 17320700000.0 20411600000.0 23510000000.0 25048400000.0 24283600000.0 26597900000.0 35109600000.0 43997400000.0 45564200000.0 46230400000.0 44327700000.0 44724500000.0 44691400000.0 34867500000.0 14590300000.0 63938300000.0 24237100000.0 21803800000.0 24800100000.0 9059160000.0 9035750000.0 26343100000.0 42183000000.0 48277300000.0 40001000000.0 30444100000.0 24480000000.0 9481720000.0 9035750000.0 12661300000.0 9069070000.0 13773400000.0 17456600000.0 20267400000.0 39487600000.0 44827000000.0 50881200000.0 53702000000.0 55425200000.0 57445800000.0 58325600000.0 56085300000.0 53418400000.0 44904100000.0 36517600000.0 48748200000.0 51751000000.0 54463800000.0 24696700000.0 41790300000.0 21175400000.0 63742500000.0 9029460000.0 11918000000.0 9081600000.0 12985300000.0 9097450000.0 14616300000.0 16854600000.0 20209800000.0 20314100000.0 20565000000.0 19043400000.0 18156000000.0 17392400000.0 17537700000.0 17243200000.0 17051500000.0 14221900000.0 14290300000.0 16167300000.0 18118400000.0 19115700000.0 18689500000.0 20138400000.0 25459000000.0 31008600000.0 32052700000.0 32419100000.0 31185100000.0 31389300000.0 31019800000.0 24095100000.0 26569800000.0 12772700000.0 41500600000.0 17282900000.0 16478100000.0 18547900000.0 21537700000.0 22494300000.0 9035750000.0 9035750000.0 9046720000.0 9035750000.0 14424400000.0 13166800000.0 9035750000.0 9035750000.0 9039160000.0 9043510000.0 19404500000.0 21311300000.0 18732500000.0 15756000000.0 13911000000.0 9177070000.0 9035750000.0 10191900000.0 9045890000.0 10543900000.0 11771500000.0 11609200000.0 18593500000.0 20055900000.0 22089800000.0 23194100000.0 23863600000.0 24542200000.0 24888400000.0 24273000000.0 23475100000.0 20833500000.0 18200500000.0 21938400000.0 22734300000.0 23480300000.0 14036100000.0 19484400000.0 12879400000.0 26158800000.0 9035770000.0 9987110000.0 9035580000.0 10347300000.0 9060740000.0 10705000000.0 11214800000.0 12230700000.0 12165100000.0 12231900000.0 11847900000.0 11743400000.0 11647900000.0 11717500000.0 11622500000.0 11568500000.0 10675000000.0 10712400000.0 11305500000.0 11930200000.0 12244600000.0 12109800000.0 12569800000.0 14259700000.0 16011000000.0 16342000000.0 16446000000.0 16032900000.0 16114000000.0 15964900000.0 13674400000.0 14740200000.0 10248100000.0 19173300000.0 11543200000.0 11355600000.0 12031100000.0 12950500000.0 