# vtk DataFile Version 2.0
Time step 88
ASCII
DATASET UNSTRUCTURED_GRID
POINTS 4650 float
294565.0 296527.0 0
205460.0 299535.0 0
208930.0 297567.0 0
212367.0 299593.0 0
215741.0 297499.0 0
219465.0 298882.0 0
237116.0 299404.0 0
244066.0 299207.0 0
247496.0 297155.0 0
250998.0 299078.0 0
257950.0 299019.0 0
264488.0 298475.0 0
277074.0 298672.0 0
284224.0 298545.0 0
291117.0 298519.0 0
298002.0 298539.0 0
201999.0 301515.0 0
208909.0 301554.0 0
215829.0 301585.0 0
223205.0 300221.0 0
226828.0 301848.0 0
233724.0 301519.0 0
240650.0 301273.0 0
247569.0 301131.0 0
254487.0 301016.0 0
261414.0 301013.0 0
266643.0 301827.0 0
273560.0 300762.0 0
280791.0 300575.0 0
287690.0 300521.0 0
294565.0 300521.0 0
205448.0 303516.0 0
212367.0 303564.0 0
219603.0 302856.0 0
223354.0 304195.0 0
230358.0 303668.0 0
237261.0 303377.0 0
244158.0 303182.0 0
251054.0 303054.0 0
257947.0 302994.0 0
270145.0 303721.0 0
273993.0 304716.0 0
277382.0 302637.0 0
280884.0 304555.0 0
284275.0 302532.0 0
287736.0 304504.0 0
291142.0 302509.0 0
294581.0 304501.0 0
298003.0 302523.0 0
201998.0 305492.0 0
205435.0 307475.0 0
208895.0 305517.0 0
215820.0 305571.0 0
219611.0 306810.0 0
226987.0 305821.0 0
233893.0 305494.0 0
237430.0 307336.0 0
240778.0 305249.0 0
244262.0 307149.0 0
247642.0 305097.0 0
251095.0 307019.0 0
254512.0 304995.0 0
257952.0 306958.0 0
261383.0 304978.0 0
265278.0 305560.0 0
268738.0 307441.0 0
277521.0 306595.0 0
284351.0 306508.0 0
291177.0 306485.0 0
298004.0 306497.0 0
201996.0 309451.0 0
208857.0 309464.0 0
212333.0 307519.0 0
215747.0 309536.0 0
223367.0 308149.0 0
227006.0 309773.0 0
230531.0 307631.0 0
234119.0 309432.0 0
240918.0 309215.0 0
247713.0 309060.0 0
254519.0 308951.0 0
261396.0 308927.0 0
265312.0 309536.0 0
274199.0 308646.0 0
280991.0 308526.0 0
287792.0 308476.0 0
294600.0 308471.0 0
205410.0 311423.0 0
212251.0 311461.0 0
219518.0 310741.0 0
223242.0 312077.0 0
230866.0 311542.0 0
237613.0 311295.0 0
244367.0 311114.0 0
251133.0 310978.0 0
257915.0 310887.0 0
270924.0 310689.0 0
274361.0 312600.0 0
277662.0 310558.0 0
281093.0 312492.0 0
284431.0 310478.0 0
287849.0 312440.0 0
291214.0 310451.0 0
294619.0 312431.0 0
298006.0 310460.0 0
201994.0 313399.0 0
208795.0 313407.0 0
215605.0 313476.0 0
219317.0 314647.0 0
227667.0 313636.0 0
234354.0 313387.0 0
241059.0 313181.0 0
244470.0 315078.0 0
247784.0 313022.0 0
251172.0 314935.0 0
254522.0 312902.0 0
257872.0 314839.0 0
261248.0 312835.0 0
264481.0 314808.0 0
267651.0 312702.0 0
271073.0 314633.0 0
277778.0 314517.0 0
284504.0 314439.0 0
291250.0 314408.0 0
298007.0 314413.0 0
201992.0 317340.0 0
205378.0 315367.0 0
208728.0 317357.0 0
212138.0 315406.0 0
215440.0 317396.0 0
221476.0 317805.0 0
224542.0 315737.0 0
227971.0 317586.0 0
231139.0 315487.0 0
234557.0 317354.0 0
237789.0 315262.0 0
241190.0 317148.0 0
247854.0 316980.0 0
254532.0 316856.0 0
261183.0 316797.0 0
267825.0 316682.0 0
274477.0 316546.0 0
281178.0 316448.0 0
287899.0 316394.0 0
294636.0 316380.0 0
205345.0 319309.0 0
212035.0 319370.0 0
218385.0 319758.0 0
224833.0 319680.0 0
231359.0 319453.0 0
237942.0 319231.0 0
244565.0 319039.0 0
251217.0 318886.0 0
257872.0 318788.0 0
264533.0 318722.0 0
271192.0 318580.0 0
277866.0 318463.0 0
281244.0 320390.0 0
284565.0 318389.0 0
287939.0 320336.0 0
291280.0 318355.0 0
294650.0 320318.0 0
298009.0 318355.0 0
201989.0 321275.0 0
208659.0 321309.0 0
215161.0 321570.0 0
221671.0 321722.0 0
228182.0 321548.0 0
234723.0 321324.0 0
241305.0 321112.0 0
247923.0 320930.0 0
251271.0 322820.0 0
254565.0 320796.0 0
257916.0 322704.0 0
261223.0 320713.0 0
264587.0 322615.0 0
267897.0 320606.0 0
271261.0 322498.0 0
274565.0 320483.0 0
277931.0 322395.0 0
284611.0 322324.0 0
291304.0 322288.0 0
298010.0 322284.0 0
201988.0 325200.0 0
205314.0 323248.0 0
208596.0 325270.0 0
211888.0 323391.0 0
215168.0 325485.0 0
218436.0 323646.0 0
221764.0 325610.0 0
224995.0 323615.0 0
228322.0 325495.0 0
231522.0 323418.0 0
234854.0 325287.0 0
238070.0 323197.0 0
241405.0 325065.0 0
244653.0 322990.0 0
247992.0 324863.0 0
254617.0 324707.0 0
261274.0 324602.0 0
267950.0 324501.0 0
274621.0 324398.0 0
281291.0 324316.0 0
287969.0 324263.0 0
294661.0 324241.0 0
205294.0 327179.0 0
211890.0 327322.0 0
218499.0 327517.0 0
225099.0 327527.0 0
231645.0 327371.0 0
238177.0 327151.0 0
244733.0 326926.0 0
251330.0 326729.0 0
257968.0 326589.0 0
264635.0 326489.0 0
271308.0 326392.0 0
277974.0 326307.0 0
281320.0 328224.0 0
284642.0 326243.0 0
287988.0 328174.0 0
291320.0 326205.0 0
294667.0 328147.0 0
298011.0 326196.0 0
201986.0 329105.0 0
208601.0 329186.0 0
215219.0 329366.0 0
221848.0 329487.0 0
228429.0 329425.0 0
234963.0 329238.0 0
241496.0 329005.0 0
248059.0 328774.0 0
251389.0 330609.0 0
254672.0 328588.0 0
258017.0 330446.0 0
261322.0 328467.0 0
264673.0 330343.0 0
267991.0 328373.0 0
271338.0 330265.0 0
274658.0 328292.0 0
277999.0 330201.0 0
284660.0 330145.0 0
291330.0 330104.0 0
298012.0 330090.0 0
201986.0 332976.0 0
205300.0 331072.0 0
208629.0 333055.0 0
211930.0 331204.0 0
215285.0 333216.0 0
218575.0 331375.0 0
221941.0 333355.0 0
225196.0 331427.0 0
228533.0 333345.0 0
231751.0 331309.0 0
235070.0 333175.0 0
238277.0 331092.0 0
241589.0 332931.0 0
244811.0 330844.0 0
248127.0 332662.0 0
254722.0 332439.0 0
261358.0 332307.0 0
268015.0 332224.0 0
274675.0 332167.0 0
281333.0 332114.0 0
287997.0 332066.0 0
294671.0 332034.0 0
205314.0 334923.0 0
211979.0 335044.0 0
218660.0 335214.0 0
225301.0 335322.0 0
231864.0 335238.0 0
238388.0 335022.0 0
244898.0 334747.0 0
251447.0 334459.0 0
258053.0 334276.0 0
264690.0 334175.0 0
271346.0 334120.0 0
274669.0 336025.0 0
278005.0 334076.0 0
281333.0 335986.0 0
284666.0 334028.0 0
287999.0 335938.0 0
291333.0 333984.0 0
294672.0 335899.0 0
298012.0 333964.0 0
201986.0 336807.0 0
205326.0 338732.0 0
208658.0 336880.0 0
215352.0 337032.0 0
222042.0 337207.0 0
228650.0 337260.0 0
235198.0 337102.0 0
241707.0 336847.0 0
248204.0 336528.0 0
251510.0 338279.0 0
254766.0 336258.0 0
258067.0 338082.0 0
261370.0 336126.0 0
264663.0 337987.0 0
268009.0 336055.0 0
271318.0 337955.0 0
277993.0 337932.0 0
284665.0 337891.0 0
291335.0 337841.0 0
298013.0 337814.0 0
201986.0 340601.0 0
208679.0 340663.0 0
212022.0 338841.0 0
215402.0 340806.0 0
218742.0 339021.0 0
222145.0 341029.0 0
225420.0 339215.0 0
228786.0 341173.0 0
232002.0 339159.0 0
235376.0 341012.0 0
238543.0 338941.0 0
241894.0 340761.0 0
245018.0 338643.0 0
248314.0 340380.0 0
254803.0 340052.0 0
261325.0 339928.0 0
267943.0 339860.0 0
274632.0 339861.0 0
281327.0 339836.0 0
288001.0 339790.0 0
294674.0 339740.0 0
205332.0 342503.0 0
212046.0 342597.0 0
218797.0 342781.0 0
225542.0 343112.0 0
232180.0 343061.0 0
238787.0 342842.0 0
245228.0 342554.0 0
251592.0 342070.0 0
258041.0 341885.0 0
264533.0 341777.0 0
267701.0 343609.0 0
271229.0 341761.0 0
274579.0 343655.0 0
277972.0 341761.0 0
281336.0 343661.0 0
284671.0 341735.0 0
288016.0 343626.0 0
291339.0 341678.0 0
294678.0 343557.0 0
298013.0 341641.0 0
201985.0 344361.0 0
205328.0 346241.0 0
208685.0 344408.0 0
212044.0 346315.0 0
215425.0 344537.0 0
222199.0 344788.0 0
228956.0 345075.0 0
235625.0 344883.0 0
242238.0 344674.0 0
248508.0 344240.0 0
251671.0 345857.0 0
254813.0 343837.0 0
257909.0 345713.0 0
261198.0 343744.0 0
264318.0 345580.0 0
270778.0 345452.0 0
277978.0 345551.0 0
284705.0 345562.0 0
291357.0 345497.0 0
298015.0 345445.0 0
201984.0 348093.0 0
208668.0 348122.0 0
215410.0 348223.0 0
218816.0 346490.0 0
222226.0 348473.0 0
225700.0 347017.0 0
229151.0 348965.0 0
232419.0 346933.0 0
236060.0 348671.0 0
239150.0 346681.0 0
242665.0 348525.0 0
245714.0 346521.0 0
249201.0 348442.0 0
254611.0 347645.0 0
260989.0 347569.0 0
267392.0 347407.0 0
273780.0 347261.0 0
276741.0 349009.0 0
281394.0 347462.0 0
284798.0 349385.0 0
288062.0 347455.0 0
294692.0 347354.0 0
205316.0 349957.0 0
211999.0 349998.0 0
218789.0 350140.0 0
225824.0 350905.0 0
233031.0 350690.0 0
239611.0 350487.0 0
246164.0 350395.0 0
250414.0 352139.0 0
257640.0 349518.0 0
260752.0 351370.0 0
264070.0 349402.0 0
267125.0 351228.0 0
270426.0 349227.0 0
273451.0 351014.0 0
279688.0 350697.0 0
288168.0 351301.0 0
291400.0 349310.0 0
294725.0 351134.0 0
298017.0 349229.0 0
201983.0 351800.0 0
205304.0 353658.0 0
208635.0 351821.0 0
211938.0 353674.0 0
215314.0 351862.0 0
218589.0 353710.0 0
222194.0 352087.0 0
230053.0 352710.0 0
236588.0 352462.0 0
243140.0 352352.0 0
247198.0 354123.0 0
254074.0 351224.0 0
257362.0 353209.0 0
263843.0 353227.0 0
270175.0 353016.0 0
276490.0 352761.0 0
282645.0 352335.0 0
285628.0 353940.0 0
291502.0 353132.0 0
298020.0 353000.0 0
201982.0 355481.0 0
208609.0 355513.0 0
215216.0 355520.0 0
221730.0 355557.0 0
224763.0 357245.0 0
226996.0 354567.0 0
230664.0 356500.0 0
233611.0 354475.0 0
237161.0 356249.0 0
240128.0 354276.0 0
244016.0 356088.0 0
250577.0 356112.0 0
254024.0 354919.0 0
260547.0 355155.0 0
266911.0 355053.0 0
270000.0 356780.0 0
273256.0 354763.0 0
276377.0 356491.0 0
279550.0 354473.0 0
282625.0 356156.0 0
288660.0 355506.0 0
294803.0 354908.0 0
201983.0 359123.0 0
205302.0 357345.0 0
208613.0 359196.0 0
211904.0 357353.0 0
215194.0 359190.0 0
218450.0 357377.0 0
221684.0 359225.0 0
227993.0 358753.0 0
234205.0 358261.0 0
237736.0 360010.0 0
240835.0 358019.0 0
244256.0 359946.0 0
247429.0 358045.0 0
253990.0 358655.0 0
257271.0 356981.0 0
260444.0 358987.0 0
263666.0 357059.0 0
266754.0 358883.0 0
273152.0 358464.0 0
279525.0 358218.0 0
285697.0 357812.0 0
291762.0 357031.0 0
294914.0 358712.0 0
298026.0 356779.0 0
205323.0 361014.0 0
211934.0 361014.0 0
218512.0 361028.0 0
225030.0 360911.0 0
228398.0 362505.0 0
231344.0 360367.0 0
234741.0 362073.0 0
241137.0 361873.0 0
247567.0 361969.0 0
250729.0 360152.0 0
257216.0 360792.0 0
263570.0 360930.0 0
269886.0 360482.0 0
273125.0 362086.0 0
276356.0 360174.0 0
279560.0 361935.0 0
282667.0 359953.0 0
285763.0 361695.0 0
288746.0 359411.0 0
291827.0 360807.0 0
298034.0 360576.0 0
201985.0 362697.0 0
205380.0 364660.0 0
208667.0 362858.0 0
215302.0 362813.0 0
218755.0 364596.0 0
221914.0 362816.0 0
225331.0 364525.0 0
231750.0 364163.0 0
238083.0 363868.0 0
244440.0 363842.0 0
250791.0 364102.0 0
253972.0 362457.0 0
257203.0 364627.0 0
260401.0 362854.0 0
266669.0 362748.0 0
269874.0 364063.0 0
276360.0 363804.0 0
282724.0 363751.0 0
288807.0 363342.0 0
295005.0 362452.0 0
201987.0 366148.0 0
208795.0 366485.0 0
212062.0 364621.0 0
215598.0 366343.0 0
222202.0 366376.0 0
228704.0 366206.0 0
232008.0 367947.0 0
235053.0 365908.0 0
238304.0 367741.0 0
241358.0 365767.0 0
244570.0 367760.0 0
247664.0 365898.0 0
253991.0 366311.0 0
260405.0 366747.0 0
263540.0 364851.0 0
266638.0 366685.0 0
273166.0 365643.0 0
279496.0 365616.0 0
285855.0 365633.0 0
288640.0 367964.0 0
291962.0 364381.0 0
295142.0 366168.0 0
298042.0 364395.0 0
201984.0 369421.0 0
205467.0 368293.0 0
209563.0 369918.0 0
212500.0 368101.0 0
219069.0 368135.0 0
222467.0 369946.0 0
225599.0 368136.0 0
228923.0 369904.0 0
235244.0 369740.0 0
241502.0 369669.0 0
247727.0 369828.0 0
250834.0 368026.0 0
257163.0 368471.0 0
263589.0 368848.0 0
269967.0 367453.0 0
273074.0 369220.0 0
276281.0 367448.0 0
279263.0 369320.0 0
282536.0 367478.0 0
285355.0 369517.0 0
292044.0 367672.0 0
298041.0 368294.0 0
201971.0 372515.0 0
206706.0 371658.0 0
213012.0 371663.0 0
215985.0 369877.0 0
219356.0 371705.0 0
225793.0 371761.0 0
232162.0 371738.0 0
238433.0 371609.0 0
244651.0 371681.0 0
250832.0 371952.0 0
253966.0 370192.0 0
257039.0 372349.0 0
260278.0 370606.0 0
263164.0 372875.0 0
266375.0 371372.0 0
269717.0 370713.0 0
276006.0 371123.0 0
282103.0 371273.0 0
287996.0 371832.0 0
291288.0 370839.0 0
294973.0 369859.0 0
294084.0 373086.0 0
298013.0 372179.0 0
199651.0 377512.0 0
202065.0 375839.0 0
204891.0 374184.0 0
210154.0 373486.0 0
213400.0 375332.0 0
216320.0 373486.0 0
219544.0 375328.0 0
222648.0 373544.0 0
229044.0 373603.0 0
232208.0 375555.0 0
235332.0 373557.0 0
238498.0 375450.0 0
241585.0 373562.0 0
244692.0 375600.0 0
247748.0 373764.0 0
253875.0 374109.0 0
259980.0 374551.0 0
265984.0 375284.0 0
269223.0 374119.0 0
272664.0 372777.0 0
275556.0 374775.0 0
278858.0 373061.0 0
281616.0 375083.0 0
284802.0 373385.0 0
287434.0 375655.0 0
290649.0 374342.0 0
296310.0 375492.0 0
299446.0 375882.0 0
192095.0 382220.0 0
196998.0 379167.0 0
200133.0 380603.0 0
205318.0 377732.0 0
207865.0 375662.0 0
210756.0 377387.0 0
216565.0 377176.0 0
222679.0 377179.0 0
225697.0 379020.0 0
225870.0 375398.0 0
229051.0 377281.0 0
235349.0 377312.0 0
241650.0 377432.0 0
247699.0 377720.0 0
250770.0 375901.0 0
253723.0 378072.0 0
256831.0 376293.0 0
262834.0 376831.0 0
268874.0 377749.0 0
272186.0 376330.0 0
278380.0 376787.0 0
284293.0 377220.0 0
289997.0 378053.0 0
293138.0 376739.0 0
298772.0 379240.0 0
301864.0 378444.0 0
304807.0 380293.0 0
189124.0 384065.0 0
194615.0 380887.0 0
197963.0 382437.0 0
202832.0 379341.0 0
208071.0 379545.0 0
213751.0 379142.0 0
216752.0 380956.0 0
219661.0 379040.0 0
222683.0 380932.0 0
228573.0 380763.0 0
232179.0 379423.0 0
238626.0 379228.0 0
244635.0 379542.0 0
250644.0 379876.0 0
256615.0 380266.0 0
259713.0 378514.0 0
262562.0 380768.0 0
265682.0 379160.0 0
271798.0 379975.0 0
275087.0 378422.0 0
281130.0 378865.0 0
286907.0 379473.0 0
292643.0 380392.0 0
295754.0 379083.0 0
298424.0 382236.0 0
301714.0 381486.0 0
304654.0 383594.0 0
307712.0 382111.0 0
186193.0 385909.0 0
189291.0 387044.0 0
192202.0 384879.0 0
195402.0 384331.0 0
199050.0 385155.0 0
202110.0 383006.0 0
205259.0 381634.0 0
208157.0 383287.0 0
210988.0 381209.0 0
213929.0 382945.0 0
219708.0 382827.0 0
225662.0 382849.0 0
230713.0 382949.0 0
233507.0 383095.0 0
235657.0 380846.0 0
238375.0 383161.0 0
241541.0 381352.0 0
247573.0 381684.0 0
253537.0 382056.0 0
259472.0 382478.0 0
265419.0 383030.0 0
268567.0 381481.0 0
274680.0 382111.0 0
277916.0 380504.0 0
280685.0 382626.0 0
283819.0 381029.0 0
286512.0 383249.0 0
289559.0 381772.0 0
292258.0 384041.0 0
295316.0 382699.0 0
301466.0 384455.0 0
307558.0 385422.0 0
310645.0 383943.0 0
313640.0 385811.0 0
183241.0 387756.0 0
186350.0 389056.0 0
193055.0 387289.0 0
196332.0 387433.0 0
202228.0 386101.0 0
205243.0 385300.0 0
211117.0 384953.0 0
216820.0 384777.0 0
219669.0 386657.0 0
222625.0 384728.0 0
225471.0 386710.0 0
228418.0 385042.0 0
231841.0 386581.0 0
235454.0 385378.0 0
241331.0 385216.0 0
244478.0 383467.0 0
247366.0 385626.0 0
250463.0 383855.0 0
253324.0 386038.0 0
256399.0 384246.0 0
262322.0 384697.0 0
268294.0 385268.0 0
271463.0 383687.0 0
274333.0 385832.0 0
277514.0 384230.0 0
283439.0 384790.0 0
289251.0 385484.0 0
295041.0 386240.0 0
298183.0 385276.0 0
301265.0 387382.0 0
304420.0 386925.0 0
307389.0 388717.0 0
310541.0 387199.0 0
316723.0 387734.0 0
176941.0 391687.0 0
180108.0 389708.0 0
183060.0 390832.0 0
188364.0 391349.0 0
190546.0 389494.0 0
193853.0 390072.0 0
197077.0 390655.0 0
199529.0 388338.0 0
202794.0 389070.0 0
208287.0 386926.0 0
211188.0 388706.0 0
213985.0 386752.0 0
216766.0 388623.0 0
222511.0 388570.0 0
228592.0 388572.0 0
234753.0 388788.0 0
238234.0 387072.0 0
244201.0 387346.0 0
250225.0 387808.0 0
256179.0 388219.0 0
259250.0 386438.0 0
262105.0 388621.0 0
265181.0 386905.0 0
271174.0 387444.0 0
277183.0 387954.0 0
280324.0 386360.0 0
283149.0 388500.0 0
286224.0 386973.0 0
289082.0 389146.0 0
292071.0 387681.0 0
294960.0 389825.0 0
297925.0 388417.0 0
300954.0 390188.0 0
304242.0 390377.0 0
310601.0 390386.0 0
313674.0 389008.0 0
316874.0 390913.0 0
319863.0 389695.0 0
173799.0 393653.0 0
179844.0 392821.0 0
182637.0 394153.0 0
185616.0 392532.0 0
188773.0 394479.0 0
191508.0 392665.0 0
194627.0 393021.0 0
200378.0 391492.0 0
203403.0 392356.0 0
205678.0 389033.0 0
208554.0 390677.0 0
213878.0 390602.0 0
219573.0 390498.0 0
225452.0 390444.0 0
231495.0 390407.0 0
237635.0 390746.0 0
240996.0 389076.0 0
247053.0 389506.0 0
253078.0 389992.0 0
259040.0 390390.0 0
264971.0 390786.0 0
268053.0 389086.0 0
270934.0 391226.0 0
274048.0 389575.0 0
280034.0 390064.0 0
286031.0 390629.0 0
292036.0 391285.0 0
298004.0 391761.0 0
304726.0 393822.0 0
307549.0 391941.0 0
310899.0 393547.0 0
313884.0 392176.0 0
317180.0 394098.0 0
320098.0 392865.0 0
323037.0 391675.0 0
326225.0 393666.0 0
170708.0 395588.0 0
173572.0 396880.0 0
176681.0 394857.0 0
179558.0 396066.0 0
185694.0 395676.0 0
192103.0 395877.0 0
195423.0 395681.0 0
198124.0 393747.0 0
201330.0 394933.0 0
206057.0 392646.0 0
211025.0 392620.0 0
213727.0 394419.0 0
216646.0 392450.0 0
219442.0 394312.0 0
222423.0 392370.0 0
225261.0 394251.0 0
228339.0 392322.0 0
231147.0 394243.0 0
234333.0 392469.0 0
237129.0 394491.0 0
240438.0 392792.0 0
243215.0 394867.0 0
243789.0 391160.0 0
246612.0 393286.0 0
249907.0 391693.0 0
252771.0 393883.0 0
255946.0 392165.0 0
261912.0 392543.0 0
267849.0 392921.0 0
273822.0 393327.0 0
276923.0 391677.0 0
279817.0 393753.0 0
282913.0 392154.0 0
285834.0 394199.0 0
289010.0 392728.0 0
292148.0 394783.0 0
295116.0 393394.0 0
298442.0 395004.0 0
301456.0 393080.0 0
308023.0 395223.0 0
311365.0 396727.0 0
314263.0 395335.0 0
320448.0 396072.0 0
323320.0 394832.0 0
326524.0 396814.0 0
329415.0 395659.0 0
167681.0 397483.0 0
170532.0 398879.0 0
176463.0 398103.0 0
179415.0 399280.0 0
182556.0 397334.0 0
185663.0 398729.0 0
188874.0 397515.0 0
191875.0 399090.0 0
195060.0 398426.0 0
198468.0 396999.0 0
204571.0 396015.0 0
208112.0 394644.0 0
210734.0 396366.0 0
216474.0 396253.0 0
222238.0 396194.0 0
228052.0 396163.0 0
233909.0 396263.0 0
239884.0 396539.0 0
245978.0 396945.0 0
249467.0 395461.0 0
255691.0 396054.0 0
258841.0 394321.0 0
261748.0 396455.0 0
264794.0 394671.0 0
267686.0 396766.0 0
270740.0 395020.0 0
276727.0 395396.0 0
282740.0 395796.0 0
288793.0 396163.0 0
291720.0 397977.0 0
295480.0 396900.0 0
301935.0 396187.0 0
305258.0 397200.0 0
308549.0 398519.0 0
314735.0 398507.0 0
317596.0 397308.0 0
320849.0 399343.0 0
323667.0 398047.0 0
329698.0 398800.0 0
332598.0 397647.0 0
159138.0 402826.0 0
164743.0 399325.0 0
167612.0 400858.0 0
170515.0 402257.0 0
173417.0 400167.0 0
176334.0 401377.0 0
182429.0 400460.0 0
185485.0 401753.0 0
188660.0 400728.0 0
194883.0 401422.0 0
198173.0 400121.0 0
201503.0 398255.0 0
204303.0 399731.0 0
207396.0 398029.0 0
213452.0 398157.0 0
216206.0 400016.0 0
219236.0 398126.0 0
221982.0 400040.0 0
225005.0 398106.0 0
230794.0 398123.0 0
236648.0 398296.0 0
242617.0 398594.0 0
248713.0 399023.0 0
252364.0 397659.0 0
258654.0 398210.0 0
264660.0 398558.0 0
270590.0 398823.0 0
273646.0 397083.0 0
276577.0 399107.0 0
279661.0 397433.0 0
282633.0 399437.0 0
285693.0 397793.0 0
288633.0 399741.0 0
294170.0 399856.0 0
297107.0 400595.0 0
299145.0 398208.0 0
302598.0 399444.0 0
305887.0 400596.0 0
309120.0 401859.0 0
311864.0 399903.0 0
315219.0 401685.0 0
318050.0 400566.0 0
323987.0 401355.0 0
326824.0 400038.0 0
329928.0 402019.0 0
332852.0 400771.0 0
335780.0 399636.0 0
338988.0 401640.0 0
156240.0 404630.0 0
161893.0 401108.0 0
164802.0 402777.0 0
173492.0 403538.0 0
176491.0 404784.0 0
179249.0 402500.0 0
182155.0 403567.0 0
185082.0 404625.0 0
188326.0 404072.0 0
191640.0 402199.0 0
197825.0 403458.0 0
201074.0 401651.0 0
207077.0 401610.0 0
210241.0 399901.0 0
213075.0 401792.0 0
218946.0 401934.0 0
224697.0 401992.0 0
227735.0 400054.0 0
230442.0 402038.0 0
233513.0 400135.0 0
236233.0 402168.0 0
239371.0 400343.0 0
242086.0 402403.0 0
245309.0 400655.0 0
247984.0 402720.0 0
251315.0 401056.0 0
253895.0 402995.0 0
255406.0 399834.0 0
261621.0 400348.0 0
267576.0 400621.0 0
273505.0 400840.0 0
279542.0 401094.0 0
285638.0 401421.0 0
288623.0 403469.0 0
291429.0 401665.0 0
294633.0 403206.0 0
300264.0 401744.0 0
303471.0 402919.0 0
306644.0 404089.0 0
312364.0 403063.0 0
318439.0 403896.0 0
321203.0 402725.0 0
327021.0 403362.0 0
333070.0 403939.0 0
336037.0 402724.0 0
342233.0 403668.0 0
153174.0 406539.0 0
156084.0 407691.0 0
159294.0 406030.0 0
162114.0 404672.0 0
164891.0 406348.0 0
167691.0 404317.0 0
170721.0 405674.0 0
179507.0 405898.0 0
182646.0 406889.0 0
186286.0 407251.0 0
191438.0 405080.0 0
194681.0 404554.0 0
200521.0 405105.0 0
203858.0 403303.0 0
206743.0 405129.0 0
209930.0 403492.0 0
212733.0 405459.0 0
215856.0 403742.0 0
221656.0 403898.0 0
227392.0 403969.0 0
233157.0 404048.0 0
238968.0 404216.0 0
244816.0 404469.0 0
250686.0 404752.0 0
256507.0 404862.0 0
258477.0 402022.0 0
261540.0 404198.0 0
264582.0 402446.0 0
267532.0 404491.0 0
270497.0 402645.0 0
273417.0 404626.0 0
276431.0 402807.0 0
279367.0 404715.0 0
282562.0 403049.0 0
285662.0 405012.0 0
291834.0 405167.0 0
297891.0 404153.0 0
301127.0 405294.0 0
309754.0 405301.0 0
312720.0 406233.0 0
315619.0 404881.0 0
321279.0 406293.0 0
324137.0 404798.0 0
327128.0 406736.0 0
330101.0 405288.0 0
333328.0 407106.0 0
336311.0 405821.0 0
339284.0 404698.0 0
342560.0 406713.0 0
345507.0 405714.0 0
147122.0 410330.0 0
150145.0 408437.0 0
153084.0 409691.0 0
158987.0 409043.0 0
162071.0 408376.0 0
167921.0 407755.0 0
171049.0 409082.0 0
173811.0 406967.0 0
176955.0 408262.0 0
180185.0 409251.0 0
183851.0 409747.0 0
189564.0 407454.0 0
193379.0 407608.0 0
197066.0 407038.0 0
198052.0 410419.0 0
200349.0 408369.0 0
203526.0 406750.0 0
206287.0 408646.0 0
209555.0 407085.0 0
215498.0 407491.0 0
218588.0 405739.0 0
221265.0 407767.0 0
224336.0 405891.0 0
230096.0 405959.0 0
235899.0 406075.0 0
241728.0 406275.0 0
247579.0 406526.0 0
253435.0 406730.0 0
259188.0 406680.0 0
264572.0 406330.0 0
270475.0 406495.0 0
276337.0 406552.0 0
282298.0 406550.0 0
285201.0 408264.0 0
288958.0 407092.0 0
292678.0 408461.0 0
295346.0 406536.0 0
298679.0 407666.0 0
304389.0 406449.0 0
307737.0 407639.0 0
311222.0 408899.0 0
315157.0 408170.0 0
318373.0 407363.0 0
321043.0 409959.0 0
324125.0 408298.0 0
327449.0 410018.0 0
330368.0 408536.0 0
336578.0 408936.0 0
339584.0 407773.0 0
342894.0 409773.0 0
345868.0 408743.0 0
348812.0 407779.0 0
352153.0 409867.0 0
144080.0 412233.0 0
150110.0 411640.0 0
153175.0 412899.0 0
156056.0 410900.0 0
159348.0 411847.0 0
162373.0 412008.0 0
165066.0 409827.0 0
168112.0 411158.0 0
174287.0 410363.0 0
177681.0 411708.0 0
187464.0 410179.0 0
191129.0 410246.0 0
194797.0 410255.0 0
199806.0 413139.0 0
202892.0 410275.0 0
209217.0 410636.0 0
212378.0 409128.0 0
218177.0 409575.0 0
223929.0 409792.0 0
227023.0 407880.0 0
229753.0 409860.0 0
232838.0 407961.0 0
235623.0 409977.0 0
238676.0 408116.0 0
241488.0 410164.0 0
244523.0 408332.0 0
247358.0 410375.0 0
250386.0 408552.0 0
253240.0 410533.0 0
256238.0 408648.0 0
261955.0 408497.0 0
267569.0 408375.0 0
273409.0 408455.0 0
276347.0 410357.0 0
279252.0 408413.0 0
282158.0 410194.0 0
287651.0 410074.0 0
290613.0 410773.0 0
296208.0 409990.0 0
299456.0 411238.0 0
301946.0 408808.0 0
305303.0 409856.0 0
308867.0 410915.0 0
313907.0 410836.0 0
317579.0 410602.0 0
324612.0 411567.0 0
330582.0 411872.0 0
333565.0 410312.0 0
336857.0 412047.0 0
339891.0 410857.0 0
346226.0 411792.0 0
349209.0 410785.0 0
355516.0 411970.0 0
141022.0 414147.0 0
144044.0 415473.0 0
147094.0 413552.0 0
150193.0 414835.0 0
156408.0 413968.0 0
159646.0 414847.0 0
165390.0 413363.0 0
171164.0 412409.0 0
174153.0 413548.0 0
181471.0 412182.0 0
185175.0 412659.0 0
188929.0 412945.0 0
192632.0 413114.0 0
196197.0 413366.0 0
202898.0 413487.0 0
206020.0 412031.0 0
211920.0 412837.0 0
215071.0 411278.0 0
220824.0 411650.0 0
226630.0 411767.0 0
232542.0 411845.0 0
238449.0 412009.0 0
244338.0 412211.0 0
250235.0 412391.0 0
256134.0 412472.0 0
259088.0 410526.0 0
261968.0 412403.0 0
264805.0 410369.0 0
267703.0 412331.0 0
270527.0 410375.0 0
273493.0 412316.0 0
279295.0 412194.0 0
284923.0 412002.0 0
288071.0 413414.0 0
293860.0 412002.0 0
297220.0 413745.0 0
302684.0 412272.0 0
305953.0 413103.0 0
309080.0 413979.0 0
312095.0 413265.0 0
315760.0 413583.0 0
319201.0 413421.0 0
322158.0 413218.0 0
324748.0 415335.0 0
327622.0 413459.0 0
330895.0 415226.0 0
333830.0 413528.0 0
340177.0 413957.0 0
343217.0 412856.0 0
349579.0 413810.0 0
352573.0 412880.0 0
355941.0 415014.0 0
358882.0 414076.0 0
134848.0 418010.0 0
137945.0 416072.0 0
140976.0 417415.0 0
147149.0 416755.0 0
150326.0 417996.0 0
153394.0 416017.0 0
156611.0 417064.0 0
162677.0 415583.0 0
165702.0 416907.0 0
168418.0 414661.0 0
171441.0 415922.0 0
176770.0 414838.0 0
179765.0 414897.0 0
183111.0 415278.0 0
186685.0 415557.0 0
190381.0 415784.0 0
194129.0 416125.0 0
197894.0 416265.0 0
201476.0 416556.0 0
205310.0 415543.0 0
208684.0 414238.0 0
214575.0 415094.0 0
217709.0 413442.0 0
220344.0 415546.0 0
223483.0 413693.0 0
226218.0 415607.0 0
229409.0 413715.0 0
235380.0 413852.0 0
241308.0 414051.0 0
247224.0 414244.0 0
253149.0 414374.0 0
259051.0 414389.0 0
264867.0 414318.0 0
270660.0 414281.0 0
276486.0 414195.0 0
279512.0 416019.0 0
282217.0 414001.0 0
285332.0 415586.0 0
291254.0 414286.0 0
294556.0 415367.0 0
300417.0 414907.0 0
303778.0 415736.0 0
307153.0 416517.0 0
310815.0 416686.0 0
314144.0 416425.0 0
317751.0 416497.0 0
321350.0 416519.0 0
328076.0 416812.0 0
334041.0 416810.0 0
337101.0 415161.0 0
340446.0 417063.0 0
343511.0 415966.0 0
346552.0 414873.0 0
349902.0 416861.0 0
352944.0 415913.0 0
359282.0 417174.0 0
362229.0 416171.0 0
365533.0 418240.0 0
131732.0 419958.0 0
137890.0 419375.0 0
144074.0 418706.0 0
147237.0 419952.0 0
153533.0 419160.0 0
156747.0 420239.0 0
159784.0 418043.0 0
162886.0 419080.0 0
168777.0 418199.0 0
174357.0 417208.0 0
177636.0 417987.0 0
180906.0 418126.0 0
184367.0 418318.0 0
187979.0 418455.0 0
191723.0 418627.0 0
195644.0 419077.0 0
204189.0 418630.0 0
207917.0 417728.0 0
211353.0 416531.0 0
214045.0 418917.0 0
217205.0 417345.0 0
223002.0 417604.0 0
229070.0 417504.0 0
232260.0 415682.0 0
235151.0 417694.0 0
238251.0 415884.0 0
241144.0 417930.0 0
244198.0 416093.0 0
247123.0 418121.0 0
250147.0 416254.0 0
253098.0 418243.0 0
256089.0 416331.0 0
259048.0 418276.0 0
261981.0 416310.0 0
264945.0 418237.0 0
267817.0 416256.0 0
270829.0 418167.0 0
273670.0 416182.0 0
276743.0 418021.0 0
282673.0 417714.0 0
285956.0 419178.0 0
288556.0 416807.0 0
291774.0 417687.0 0
295099.0 418403.0 0
298241.0 417633.0 0
301696.0 418421.0 0
305184.0 419126.0 0
308833.0 419503.0 0
312433.0 419618.0 0
315872.0 419502.0 0
319301.0 419544.0 0
322557.0 419659.0 0
325312.0 418646.0 0
328235.0 420286.0 0
331143.0 418778.0 0
334291.0 420107.0 0
337335.0 418229.0 0
343805.0 419103.0 0
346844.0 417996.0 0
350121.0 419961.0 0
353212.0 418988.0 0
356271.0 418094.0 0
359501.0 420331.0 0
362555.0 419345.0 0
368785.0 420280.0 0
128584.0 421927.0 0
131671.0 423283.0 0
134793.0 421342.0 0
137889.0 422702.0 0
140982.0 420692.0 0
144135.0 421945.0 0
147343.0 423169.0 0
150442.0 421192.0 0
153668.0 422360.0 0
156911.0 423471.0 0
159952.0 421339.0 0
163151.0 422508.0 0
166022.0 420415.0 0
169208.0 421718.0 0
171860.0 419557.0 0
175117.0 420581.0 0
178501.0 421118.0 0
181937.0 421214.0 0
185497.0 421277.0 0
189146.0 421310.0 0
192877.0 421395.0 0
196627.0 422287.0 0
199408.0 419410.0 0
203225.0 421648.0 0
206922.0 420996.0 0
210573.0 420077.0 0
216779.0 421390.0 0
219849.0 419461.0 0
225785.0 419359.0 0
231997.0 419470.0 0
238046.0 419743.0 0
244069.0 419971.0 0
250080.0 420133.0 0
256075.0 420215.0 0
262036.0 420214.0 0
267962.0 420151.0 0
273907.0 420019.0 0
279942.0 419754.0 0
283293.0 421367.0 0
289322.0 420268.0 0
292851.0 420991.0 0
296558.0 421200.0 0
299851.0 421251.0 0
303304.0 421860.0 0
306899.0 422294.0 0
310540.0 422543.0 0
314156.0 422615.0 0
317695.0 422601.0 0
321258.0 422668.0 0
324948.0 422348.0 0
331554.0 422442.0 0
337710.0 421166.0 0
340769.0 420153.0 0
344097.0 422311.0 0
347052.0 421216.0 0
353251.0 422142.0 0
356397.0 421244.0 0
362647.0 422575.0 0
365760.0 421500.0 0
371977.0 422284.0 0
122210.0 425918.0 0
125407.0 423916.0 0
128508.0 425260.0 0
134798.0 424703.0 0
141032.0 423988.0 0
144231.0 425199.0 0
150590.0 424439.0 0
153843.0 425616.0 0
157121.0 426731.0 0
160168.0 424667.0 0
163441.0 425864.0 0
166408.0 423890.0 0
169761.0 425093.0 0
172540.0 423065.0 0
175901.0 423898.0 0
179421.0 424193.0 0
182997.0 424209.0 0
186605.0 424192.0 0
190199.0 424166.0 0
193744.0 424212.0 0
199992.0 422518.0 0
205772.0 424257.0 0
209507.0 423474.0 0
213209.0 422539.0 0
219491.0 423986.0 0
222459.0 421594.0 0
225511.0 422895.0 0
228786.0 421205.0 0
231669.0 423243.0 0
234893.0 421518.0 0
240972.0 421795.0 0
247029.0 422001.0 0
253067.0 422128.0 0
259083.0 422171.0 0
265070.0 422135.0 0
271033.0 422027.0 0
274158.0 423809.0 0
277094.0 421767.0 0
280436.0 423383.0 0
286784.0 422751.0 0
290522.0 423538.0 0
294324.0 424030.0 0
326517.0 425838.0 0
328282.0 423241.0 0
334933.0 423314.0 0
338246.0 424033.0 0
341209.0 423241.0 0
346883.0 424674.0 0
350061.0 423157.0 0
356297.0 424453.0 0
359486.0 423550.0 0
365695.0 424811.0 0
368884.0 423636.0 0
371911.0 425739.0 0
375111.0 424257.0 0
378191.0 426189.0 0
119014.0 427921.0 0
125321.0 427290.0 0
128515.0 428589.0 0
131680.0 426613.0 0
137944.0 426062.0 0
141131.0 427309.0 0
147494.0 426402.0 0
150788.0 427751.0 0
154043.0 428923.0 0
160436.0 428019.0 0
166777.0 427321.0 0
170084.0 428292.0 0
173248.0 426609.0 0
176869.0 427090.0 0
180584.0 427181.0 0
184265.0 427156.0 0
187908.0 427111.0 0
191514.0 427059.0 0
195172.0 426714.0 0
198384.0 425539.0 0
202165.0 425080.0 0
208203.0 426826.0 0
211993.0 426020.0 0
215779.0 425116.0 0
228345.0 424902.0 0
234591.0 425309.0 0
237819.0 423581.0 0
240790.0 425640.0 0
243936.0 423842.0 0
246934.0 425876.0 0
250022.0 424016.0 0
253053.0 426013.0 0
256089.0 424104.0 0
259152.0 426057.0 0
262135.0 424106.0 0
265242.0 426010.0 0
268161.0 424028.0 0
271301.0 425891.0 0
277338.0 425430.0 0
283971.0 424926.0 0
288180.0 426035.0 0
292065.0 426669.0 0
297959.0 424398.0 0
301429.0 424721.0 0
304995.0 425145.0 0
308627.0 425436.0 0
312286.0 425590.0 0
315923.0 425646.0 0
319521.0 425659.0 0
323140.0 425555.0 0
330210.0 425893.0 0
333450.0 426020.0 0
336862.0 426595.0 0
340563.0 426510.0 0
343866.0 425775.0 0
349762.0 426332.0 0
353067.0 425335.0 0
356084.0 427695.0 0
359278.0 426832.0 0
362481.0 425872.0 0
365296.0 428209.0 0
368594.0 427034.0 0
374831.0 427858.0 0
382045.0 428555.0 0
115840.0 429910.0 0
118988.0 431450.0 0
122138.0 429361.0 0
125334.0 430669.0 0
131784.0 429936.0 0
134882.0 428114.0 0
138069.0 429471.0 0
144385.0 428462.0 0
147725.0 429635.0 0
151083.0 431175.0 0
157321.0 429981.0 0
163797.0 429146.0 0
170957.0 431092.0 0
174470.0 430031.0 0
178313.0 430109.0 0
182101.0 430119.0 0
185839.0 430070.0 0
189567.0 429980.0 0
197150.0 429098.0 0
200683.0 428241.0 0
204461.0 427606.0 0
210469.0 429465.0 0
214237.0 428732.0 0
217904.0 428041.0 0
221377.0 427207.0 0
224751.0 426251.0 0
231252.0 426959.0 0
237580.0 427386.0 0
243796.0 427698.0 0
249973.0 427893.0 0
256126.0 427987.0 0
262265.0 427977.0 0
268418.0 427881.0 0
274466.0 427635.0 0
277653.0 429185.0 0
280537.0 426859.0 0
283541.0 428234.0 0
286674.0 428924.0 0
295825.0 427223.0 0
299482.0 427688.0 0
303079.0 428058.0 0
306716.0 428366.0 0
310401.0 428545.0 0
314095.0 428637.0 0
317769.0 428677.0 0
321413.0 428658.0 0
324946.0 428796.0 0
328538.0 428859.0 0
332077.0 429064.0 0
335539.0 429299.0 0
339228.0 429326.0 0
342962.0 429015.0 0
346488.0 428332.0 0
349714.0 429267.0 0
352905.0 428498.0 0
358765.0 430214.0 0
362029.0 429273.0 0
367981.0 430518.0 0
371357.0 429218.0 0
376510.0 430733.0 0
379194.0 429403.0 0
385284.0 430593.0 0
109480.0 433887.0 0
112681.0 431887.0 0
115886.0 433499.0 0
122178.0 432831.0 0
125437.0 434047.0 0
128617.0 431899.0 0
131998.0 433205.0 0
135063.0 431613.0 0
138246.0 432940.0 0
141296.0 430652.0 0
144630.0 431708.0 0
148058.0 432821.0 0
154316.0 432304.0 0
157748.0 433184.0 0
160662.0 431390.0 0
163872.0 432236.0 0
167207.0 430881.0 0
193354.0 429713.0 0
195353.0 432229.0 0
199159.0 431619.0 0
202870.0 430867.0 0
206672.0 430186.0 0
212619.0 432224.0 0
216485.0 431585.0 0
220355.0 430931.0 0
224107.0 429917.0 0
227716.0 428457.0 0
230890.0 430562.0 0
234288.0 429041.0 0
240598.0 429463.0 0
246840.0 429739.0 0
253056.0 429890.0 0
259244.0 429931.0 0
265444.0 429849.0 0
271643.0 429782.0 0
274864.0 431526.0 0
280864.0 430582.0 0
284330.0 431659.0 0
290103.0 429382.0 0
293721.0 429961.0 0
297403.0 430506.0 0
301100.0 430989.0 0
304782.0 431331.0 0
308508.0 431520.0 0
312255.0 431616.0 0
315994.0 431669.0 0
319694.0 431703.0 0
323323.0 431791.0 0
326953.0 431865.0 0
330550.0 431995.0 0
334159.0 432176.0 0
337826.0 432192.0 0
341531.0 432032.0 0
345153.0 431708.0 0
348452.0 431916.0 0
352105.0 431761.0 0
355474.0 431043.0 0
361336.0 432744.0 0
364655.0 431703.0 0
370378.0 432920.0 0
373536.0 431683.0 0
379324.0 433004.0 0
382282.0 431846.0 0
385437.0 433991.0 0
388502.0 432612.0 0
391710.0 434623.0 0
106192.0 435934.0 0
112728.0 435442.0 0
119117.0 435044.0 0
122438.0 436344.0 0
128740.0 435162.0 0
132067.0 436277.0 0
135334.0 435290.0 0
141550.0 433981.0 0
144879.0 434919.0 0
148191.0 435833.0 0
151428.0 434801.0 0
154851.0 435615.0 0
158263.0 436146.0 0
161473.0 434945.0 0
165385.0 434755.0 0
168948.0 433976.0 0
172844.0 433594.0 0
176394.0 433133.0 0
180120.0 433091.0 0
183876.0 433035.0 0
187653.0 432918.0 0
191484.0 432674.0 0
197337.0 434804.0 0
201168.0 434193.0 0
204954.0 433506.0 0
208774.0 432850.0 0
217688.0 434918.0 0
221085.0 434569.0 0
224234.0 433569.0 0
227465.0 431980.0 0
233998.0 432742.0 0
237333.0 431168.0 0
240401.0 433264.0 0
243651.0 431541.0 0
246742.0 433583.0 0
249931.0 431755.0 0
253078.0 433749.0 0
256188.0 431858.0 0
259366.0 433798.0 0
262408.0 431828.0 0
265625.0 433642.0 0
268711.0 431677.0 0
272037.0 433717.0 0
278159.0 432980.0 0
281743.0 434094.0 0
287912.0 432249.0 0
291516.0 432739.0 0
295192.0 433269.0 0
298939.0 433786.0 0
302745.0 434276.0 0
306588.0 434510.0 0
310414.0 434603.0 0
314224.0 434648.0 0
317977.0 434709.0 0
321674.0 434791.0 0
325350.0 434865.0 0
329008.0 434957.0 0
332675.0 435065.0 0
336398.0 435105.0 0
340136.0 435036.0 0
343804.0 434875.0 0
347315.0 434904.0 0
350887.0 434749.0 0
354513.0 434341.0 0
357970.0 433622.0 0
367142.0 434157.0 0
372975.0 435273.0 0
376200.0 434208.0 0
379160.0 436463.0 0
382341.0 435283.0 0
388594.0 436078.0 0
394918.0 436632.0 0
102887.0 438002.0 0
109346.0 437385.0 0
112410.0 438894.0 0
116031.0 437125.0 0
119528.0 438660.0 0
123114.0 439861.0 0
125835.0 437467.0 0
129265.0 438493.0 0
132852.0 439199.0 0
138739.0 436419.0 0
142192.0 437363.0 0
145671.0 438221.0 0
152707.0 438390.0 0
156284.0 438927.0 0
160051.0 438701.0 0
163465.0 437846.0 0
167320.0 437323.0 0
170996.0 436762.0 0
174687.0 436469.0 0
178292.0 436183.0 0
181998.0 436058.0 0
185766.0 435907.0 0
189595.0 435665.0 0
193469.0 435294.0 0
203106.0 436851.0 0
206870.0 436241.0 0
210582.0 435683.0 0
214187.0 435279.0 0
223655.0 437461.0 0
227182.0 435640.0 0
230606.0 434200.0 0
237094.0 434948.0 0
243495.0 435374.0 0
249895.0 435590.0 0
256284.0 435714.0 0
262579.0 435684.0 0
268930.0 435328.0 0
275386.0 435448.0 0
279133.0 436534.0 0
285461.0 434944.0 0
289163.0 435538.0 0
292850.0 436049.0 0
296583.0 436537.0 0
300411.0 437020.0 0
304547.0 437417.0 0
308594.0 437590.0 0
312495.0 437619.0 0
316290.0 437703.0 0
320024.0 437794.0 0
323733.0 437870.0 0
327431.0 437939.0 0
331138.0 438001.0 0
334888.0 438020.0 0
338680.0 437985.0 0
342468.0 437949.0 0
346104.0 437948.0 0
349725.0 437842.0 0
353358.0 437506.0 0
356970.0 436976.0 0
360465.0 436220.0 0
363851.0 435279.0 0
366388.0 437816.0 0
369676.0 436601.0 0
372465.0 438720.0 0
375858.0 437595.0 0
382224.0 438719.0 0
385444.0 437460.0 0
388552.0 439607.0 0
391749.0 438134.0 0
398143.0 438650.0 0
96205.1 442185.0 0
99557.2 440085.0 0
102789.0 441484.0 0
106080.0 439420.0 0
109228.0 441001.0 0
115233.0 440478.0 0
118056.0 441786.0 0
126689.0 440881.0 0
130326.0 441728.0 0
133995.0 442246.0 0
136218.0 439015.0 0
139723.0 439903.0 0
143290.0 440729.0 0
149370.0 438602.0 0
154237.0 441765.0 0
158016.0 441959.0 0
161680.0 441559.0 0
165504.0 440427.0 0
169289.0 440044.0 0
172924.0 439696.0 0
176559.0 439439.0 0
180196.0 439189.0 0
183916.0 438978.0 0
187709.0 438718.0 0
191558.0 438373.0 0
195427.0 437946.0 0
199287.0 437433.0 0
204971.0 439617.0 0
208701.0 439107.0 0
212383.0 438686.0 0
216069.0 438335.0 0
219804.0 438011.0 0
227174.0 439049.0 0
230438.0 437829.0 0
233770.0 436450.0 0
240180.0 437042.0 0
243346.0 439208.0 0
246643.0 437405.0 0
253112.0 437580.0 0
259553.0 437669.0 0
265816.0 437434.0 0
269162.0 438766.0 0
272884.0 438287.0 0
276671.0 439085.0 0
282931.0 437472.0 0
286711.0 438242.0 0
290421.0 438851.0 0
294079.0 439361.0 0
297705.0 439806.0 0
301200.0 440285.0 0
340965.0 440865.0 0
344837.0 440997.0 0
348511.0 440970.0 0
352188.0 440708.0 0
355848.0 440259.0 0
359470.0 439640.0 0
362994.0 438829.0 0
369017.0 440294.0 0
375518.0 440911.0 0
378915.0 439850.0 0
385307.0 440959.0 0
391663.0 441696.0 0
394923.0 440163.0 0
398143.0 442182.0 0
401401.0 440688.0 0
92859.8 444285.0 0
99458.7 443597.0 0
106055.0 442958.0 0
112240.0 442636.0 0
115288.0 444175.0 0
121118.0 442644.0 0
124415.0 443465.0 0
127916.0 444295.0 0
131527.0 444991.0 0
137418.0 442602.0 0
140957.0 443341.0 0
147001.0 441310.0 0
150695.0 441636.0 0
155640.0 444977.0 0
159210.0 445277.0 0
164143.0 443559.0 0
167674.0 443235.0 0
171246.0 442978.0 0
174821.0 442704.0 0
178436.0 442438.0 0
182097.0 442152.0 0
185839.0 441851.0 0
189646.0 441501.0 0
193493.0 441099.0 0
197349.0 440644.0 0
201184.0 440143.0 0
206799.0 442486.0 0
210510.0 442072.0 0
214194.0 441714.0 0
217854.0 441401.0 0
221441.0 441156.0 0
224843.0 441189.0 0
229807.0 441575.0 0
233338.0 440201.0 0
236789.0 438787.0 0
239972.0 440732.0 0
246548.0 441203.0 0
249861.0 439390.0 0
253147.0 441381.0 0
256397.0 439527.0 0
259749.0 441501.0 0
262880.0 439588.0 0
266344.0 441283.0 0
274480.0 441914.0 0
280492.0 439999.0 0
284302.0 440864.0 0
288040.0 441622.0 0
304488.0 440741.0 0
307764.0 440796.0 0
311179.0 440679.0 0
314780.0 440742.0 0
318446.0 440827.0 0
322136.0 440898.0 0
325841.0 440949.0 0
329563.0 440980.0 0
333320.0 440970.0 0
337122.0 440916.0 0
350985.0 443941.0 0
354688.0 443554.0 0
358376.0 443004.0 0
362031.0 442305.0 0
365597.0 441437.0 0
372035.0 442006.0 0
378594.0 443213.0 0
381988.0 442155.0 0
388367.0 443191.0 0
394826.0 443717.0 0
401426.0 444228.0 0
404699.0 442751.0 0
408030.0 444835.0 0
89553.8 446364.0 0
96140.1 445777.0 0
99476.5 447128.0 0
102782.0 444972.0 0
106159.0 446467.0 0
109274.0 444768.0 0
112423.0 446441.0 0
115768.0 447793.0 0
118560.0 445350.0 0
121960.0 446194.0 0
125451.0 446957.0 0
129031.0 447682.0 0
135106.0 445562.0 0
138635.0 446081.0 0
144624.0 443974.0 0
148337.0 444468.0 0
152012.0 444812.0 0
180285.0 445428.0 0
183978.0 445076.0 0
187739.0 444696.0 0
191553.0 444288.0 0
195395.0 443855.0 0
199233.0 443403.0 0
203040.0 442941.0 0
212340.0 445088.0 0
216036.0 444787.0 0
219712.0 444548.0 0
223376.0 444433.0 0
227175.0 444067.0 0
232615.0 443871.0 0
236225.0 442650.0 0
239550.0 444161.0 0
243185.0 443091.0 0
249897.0 443146.0 0
256428.0 443279.0 0
263202.0 443450.0 0
270845.0 441652.0 0
278214.0 442630.0 0
282000.0 443471.0 0
285743.0 444349.0 0
291702.0 442240.0 0
295348.0 442729.0 0
298946.0 443208.0 0
302513.0 443692.0 0
306126.0 443952.0 0
309713.0 443930.0 0
313271.0 443887.0 0
316889.0 443928.0 0
320553.0 443975.0 0
324248.0 444005.0 0
327967.0 444010.0 0
331715.0 443976.0 0
335493.0 443898.0 0
339303.0 443795.0 0
343155.0 443749.0 0
347267.0 444122.0 0
357228.0 446368.0 0
360944.0 445717.0 0
364642.0 444968.0 0
368266.0 444034.0 0
371632.0 445080.0 0
375145.0 444186.0 0
378018.0 446585.0 0
381556.0 445602.0 0
385013.0 444488.0 0
388019.0 446832.0 0
391456.0 445303.0 0
394668.0 447276.0 0
398084.0 445712.0 0
404766.0 446313.0 0
411359.0 446921.0 0
86288.7 448411.0 0
89718.5 450223.0 0
92898.6 448006.0 0
96311.8 449426.0 0
102829.0 448430.0 0
106184.0 449775.0 0
109499.0 448650.0 0
112917.0 450192.0 0
119300.0 448821.0 0
122884.0 449647.0 0
126496.0 450383.0 0
132645.0 448344.0 0
142259.0 446694.0 0
145941.0 447240.0 0
149630.0 447710.0 0
153283.0 448053.0 0
156840.0 448332.0 0
162387.0 446291.0 0
165973.0 446481.0 0
169496.0 446261.0 0
173056.0 446017.0 0
176648.0 445739.0 0
185836.0 447969.0 0
189616.0 447529.0 0
193439.0 447086.0 0
197275.0 446652.0 0
201094.0 446229.0 0
204879.0 445819.0 0
208625.0 445435.0 0
217903.0 447898.0 0
221628.0 447707.0 0
225426.0 447445.0 0
229223.0 447116.0 0
232907.0 447321.0 0
236539.0 446609.0 0
240238.0 447430.0 0
243807.0 446960.0 0
246651.0 444925.0 0
249794.0 446932.0 0
253139.0 445241.0 0
256486.0 446995.0 0
259743.0 445255.0 0
268407.0 444421.0 0
272289.0 444966.0 0
276029.0 445430.0 0
279783.0 446120.0 0
283516.0 447001.0 0
289383.0 445117.0 0
293082.0 445648.0 0
296774.0 446122.0 0
300469.0 446571.0 0
304212.0 446911.0 0
307955.0 447064.0 0
311631.0 447085.0 0
315276.0 447087.0 0
318944.0 447104.0 0
322638.0 447111.0 0
326356.0 447094.0 0
330094.0 447043.0 0
333848.0 446951.0 0
337609.0 446825.0 0
341363.0 446691.0 0
345118.0 446581.0 0
349881.0 447251.0 0
353529.0 446900.0 0
359781.0 449132.0 0
363490.0 448450.0 0
367170.0 447725.0 0
370704.0 448026.0 0
374424.0 447460.0 0
380806.0 449018.0 0
384472.0 448012.0 0
391129.0 448932.0 0
398175.0 449202.0 0
401468.0 447759.0 0
404756.0 449919.0 0
408074.0 448453.0 0
414679.0 449002.0 0
78234.7 453427.0 0
81468.8 451392.0 0
84825.1 451883.0 0
93275.7 451792.0 0
96848.1 453128.0 0
99749.5 450717.0 0
103187.0 451949.0 0
116547.0 451321.0 0
120222.0 452265.0 0
123901.0 453074.0 0
136259.0 448934.0 0
139877.0 449482.0 0
143541.0 450039.0 0
147229.0 450555.0 0
150906.0 451018.0 0
154534.0 451418.0 0
160212.0 448955.0 0
163868.0 449481.0 0
167545.0 449522.0 0
171166.0 449329.0 0
174794.0 449074.0 0
178442.0 448767.0 0
182115.0 448391.0 0
191490.0 450348.0 0
195320.0 449904.0 0
199145.0 449498.0 0
202946.0 449120.0 0
206717.0 448766.0 0
210461.0 448439.0 0
214187.0 448146.0 0
253311.0 449171.0 0
262784.0 447243.0 0
266430.0 447471.0 0
270168.0 447882.0 0
273942.0 448362.0 0
277678.0 448884.0 0
287076.0 448016.0 0
290834.0 448562.0 0
294606.0 449030.0 0
298391.0 449452.0 0
302211.0 449806.0 0
306051.0 450069.0 0
309840.0 450210.0 0
313571.0 450262.0 0
317280.0 450269.0 0
320997.0 450259.0 0
324728.0 450225.0 0
328473.0 450161.0 0
332225.0 450061.0 0
335979.0 449927.0 0
339720.0 449771.0 0
343438.0 449595.0 0
347157.0 449203.0 0
352467.0 450385.0 0
356086.0 449781.0 0
365967.0 451295.0 0
369552.0 451073.0 0
373338.0 450644.0 0
377107.0 449924.0 0
383530.0 451468.0 0
387328.0 450481.0 0
392066.0 452323.0 0
395003.0 450727.0 0
401438.0 451366.0 0
407985.0 452127.0 0
411352.0 450604.0 0
414623.0 452745.0 0
417998.0 451082.0 0
421328.0 453165.0 0
75013.5 455452.0 0
81530.8 454945.0 0
87801.1 453518.0 0
90986.5 454732.0 0
100404.0 454355.0 0
106756.0 452949.0 0
110288.0 452822.0 0
113882.0 453873.0 0
117564.0 454851.0 0
121274.0 455729.0 0
130136.0 451078.0 0
133794.0 451723.0 0
137461.0 452312.0 0
141133.0 452867.0 0
144824.0 453406.0 0
148525.0 453918.0 0
152210.0 454402.0 0
158067.0 451895.0 0
161688.0 452342.0 0
165434.0 452619.0 0
169162.0 452596.0 0
172853.0 452400.0 0
176546.0 452121.0 0
180254.0 451774.0 0
183947.0 451327.0 0
187686.0 450834.0 0
193376.0 453170.0 0
197198.0 452761.0 0
201006.0 452402.0 0
204790.0 452075.0 0
208552.0 451770.0 0
212297.0 451490.0 0
216034.0 451241.0 0
219774.0 451024.0 0
223541.0 450797.0 0
227298.0 450562.0 0
230983.0 450500.0 0
234779.0 450394.0 0
238401.0 450427.0 0
242278.0 450435.0 0
246071.0 450076.0 0
249798.0 450477.0 0
256941.0 450533.0 0
260688.0 450368.0 0
264481.0 450682.0 0
268209.0 450956.0 0
271950.0 451325.0 0
275707.0 451760.0 0
281399.0 449608.0 0
284818.0 451038.0 0
288617.0 451504.0 0
292446.0 451950.0 0
296289.0 452349.0 0
300159.0 452693.0 0
304057.0 452979.0 0
307963.0 453248.0 0
311778.0 453399.0 0
315557.0 453442.0 0
319319.0 453433.0 0
323080.0 453392.0 0
326846.0 453318.0 0
330615.0 453211.0 0
334384.0 453070.0 0
338145.0 452903.0 0
341891.0 452707.0 0
345631.0 452393.0 0
349302.0 451740.0 0
355023.0 453286.0 0
358646.0 452599.0 0
362313.0 451938.0 0
368468.0 454355.0 0
372189.0 453861.0 0
375985.0 453218.0 0
379769.0 452408.0 0
385818.0 454179.0 0
389118.0 453572.0 0
395039.0 454501.0 0
398176.0 452854.0 0
404602.0 453593.0 0
411203.0 454336.0 0
417918.0 454870.0 0
424929.0 455409.0 0
71767.3 457489.0 0
78389.5 457155.0 0
84869.9 456024.0 0
88192.7 457395.0 0
94313.1 455802.0 0
104027.0 455428.0 0
107757.0 456174.0 0
111329.0 456609.0 0
114966.0 457504.0 0
118665.0 458389.0 0
127583.0 453801.0 0
131276.0 454483.0 0
134981.0 455113.0 0
138689.0 455701.0 0
142402.0 456259.0 0
146124.0 456801.0 0
155857.0 454883.0 0
159530.0 455313.0 0
163272.0 455627.0 0
167057.0 455769.0 0
170821.0 455693.0 0
174575.0 455462.0 0
178358.0 455137.0 0
182115.0 454782.0 0
185790.0 454233.0 0
189558.0 453655.0 0
199059.0 455676.0 0
202847.0 455369.0 0
206617.0 455087.0 0
210374.0 454825.0 0
214123.0 454582.0 0
217871.0 454362.0 0
221627.0 454152.0 0
225377.0 453956.0 0
229098.0 453834.0 0
232845.0 453734.0 0
236574.0 453725.0 0
240341.0 453673.0 0
244148.0 453580.0 0
247813.0 453604.0 0
251607.0 453649.0 0
255216.0 453737.0 0
258959.0 453784.0 0
262634.0 453873.0 0
266364.0 454124.0 0
270094.0 454396.0 0
279464.0 452297.0 0
282652.0 454213.0 0
286472.0 454530.0 0
290323.0 454911.0 0
294195.0 455279.0 0
298089.0 455604.0 0
336595.0 456065.0 0
340383.0 455857.0 0
344170.0 455574.0 0
347939.0 455110.0 0
351601.0 454280.0 0
357592.0 456134.0 0
361210.0 455445.0 0
364846.0 454812.0 0
374837.0 456567.0 0
378584.0 455835.0 0
382270.0 455014.0 0
391947.0 456083.0 0
397922.0 456653.0 0
401228.0 455077.0 0
404261.0 457304.0 0
407748.0 455853.0 0
410903.0 458103.0 0
414442.0 456521.0 0
421578.0 456923.0 0
428623.0 457730.0 0
68483.7 459546.0 0
71949.9 461371.0 0
75195.1 459275.0 0
78703.8 460934.0 0
81856.8 458641.0 0
85290.4 459964.0 0
91604.9 458555.0 0
97774.8 456911.0 0
101367.0 457978.0 0
105074.0 458875.0 0
108782.0 459606.0 0
112408.0 460282.0 0
116082.0 461111.0 0
124995.0 456513.0 0
128719.0 457230.0 0
132453.0 457895.0 0
136194.0 458516.0 0
139941.0 459101.0 0
149853.0 457320.0 0
180262.0 458154.0 0
184063.0 457820.0 0
187684.0 457042.0 0
191452.0 456462.0 0
195257.0 456028.0 0
208420.0 458152.0 0
212177.0 457923.0 0
215931.0 457709.0 0
219687.0 457509.0 0
223440.0 457329.0 0
227181.0 457190.0 0
230927.0 457085.0 0
234670.0 457032.0 0
238435.0 456992.0 0
242202.0 456936.0 0
245937.0 456945.0 0
249673.0 456958.0 0
253399.0 457053.0 0
257130.0 457098.0 0
260856.0 457188.0 0
264571.0 457331.0 0
273851.0 454715.0 0
277653.0 455085.0 0
280539.0 457455.0 0
284396.0 457655.0 0
288257.0 457944.0 0
302005.0 455879.0 0
305949.0 456129.0 0
309934.0 456491.0 0
313788.0 456602.0 0
317608.0 456618.0 0
321412.0 456581.0 0
325210.0 456504.0 0
329007.0 456391.0 0
332803.0 456243.0 0
346544.0 458375.0 0
350346.0 457775.0 0
354025.0 456958.0 0
360083.0 458991.0 0
363734.0 458328.0 0
367396.0 457762.0 0
371097.0 457204.0 0
377477.0 459284.0 0
381201.0 458527.0 0
384864.0 457757.0 0
388443.0 457065.0 0
394896.0 458547.0 0
400767.0 458856.0 0
407313.0 459600.0 0
415021.0 460237.0 0
418324.0 458626.0 0
421670.0 460761.0 0
425112.0 459157.0 0
431989.0 459838.0 0
61799.4 463730.0 0
65160.0 461627.0 0
68652.4 463472.0 0
75480.6 463130.0 0
79073.7 464764.0 0
88764.5 461250.0 0
95098.5 459603.0 0
98687.1 460619.0 0
102373.0 461552.0 0
106095.0 462391.0 0
109804.0 463161.0 0
113498.0 463915.0 0
122396.0 459215.0 0
126138.0 459974.0 0
129895.0 460671.0 0
133661.0 461320.0 0
137436.0 461932.0 0
143693.0 459663.0 0
147456.0 460212.0 0
153573.0 457832.0 0
157310.0 458292.0 0
161078.0 458652.0 0
164881.0 458881.0 0
168703.0 458935.0 0
172524.0 458786.0 0
176415.0 458447.0 0
189536.0 459805.0 0
193308.0 459305.0 0
197099.0 458946.0 0
200883.0 458655.0 0
204656.0 458395.0 0
217722.0 460867.0 0
221482.0 460694.0 0
225237.0 460552.0 0
228992.0 460440.0 0
232746.0 460367.0 0
236509.0 460319.0 0
240276.0 460283.0 0
244029.0 460276.0 0
247781.0 460294.0 0
268318.0 457547.0 0
272090.0 457769.0 0
275922.0 457983.0 0
278480.0 460730.0 0
292137.0 458261.0 0
296035.0 458562.0 0
299945.0 458823.0 0
303861.0 459048.0 0
307780.0 459270.0 0
312047.0 459763.0 0
315896.0 459812.0 0
319736.0 459787.0 0
323568.0 459714.0 0
327395.0 459599.0 0
331221.0 459444.0 0
335049.0 459254.0 0
338880.0 459031.0 0
342712.0 458758.0 0
352765.0 460475.0 0
356450.0 459727.0 0
362597.0 461869.0 0
366275.0 461234.0 0
369987.0 460624.0 0
373729.0 459988.0 0
380129.0 462024.0 0
383878.0 461266.0 0
387602.0 460530.0 0
391311.0 459655.0 0
397872.0 461159.0 0
403670.0 460989.0 0
411686.0 461762.0 0
418267.0 462459.0 0
424973.0 462971.0 0
428562.0 461620.0 0
431906.0 463762.0 0
435360.0 461950.0 0
438730.0 464061.0 0
65308.8 465590.0 0
72193.4 465279.0 0
75794.7 467021.0 0
82255.0 462457.0 0
85825.6 463881.0 0
92322.4 462345.0 0
95955.8 463337.0 0
99657.4 464266.0 0
103397.0 465151.0 0
107144.0 465985.0 0
119799.0 461935.0 0
123547.0 462719.0 0
127318.0 463448.0 0
131104.0 464125.0 0
134898.0 464761.0 0
141218.0 462514.0 0
145010.0 463078.0 0
151227.0 460750.0 0
155010.0 461247.0 0
158812.0 461670.0 0
162640.0 461971.0 0
166495.0 462128.0 0
170367.0 462101.0 0
174458.0 461695.0 0
178354.0 461457.0 0
182208.0 461215.0 0
186016.0 460973.0 0
191302.0 462587.0 0
195094.0 462209.0 0
198882.0 461932.0 0
202662.0 461694.0 0
206433.0 461473.0 0
210198.0 461261.0 0
213960.0 461058.0 0
251525.0 460346.0 0
255285.0 460411.0 0
259038.0 460483.0 0
262792.0 460593.0 0
266560.0 460739.0 0
270366.0 460903.0 0
274227.0 461008.0 0
282370.0 460841.0 0
286246.0 461050.0 0
290129.0 461307.0 0
294024.0 461574.0 0
297930.0 461821.0 0
301835.0 462037.0 0
305733.0 462223.0 0
309637.0 462356.0 0
314234.0 463046.0 0
318077.0 463020.0 0
321931.0 462948.0 0
325783.0 462834.0 0
329635.0 462675.0 0
333494.0 462470.0 0
337367.0 462227.0 0
341241.0 461954.0 0
345113.0 461611.0 0
348970.0 461132.0 0
358913.0 462554.0 0
365115.0 464757.0 0
368842.0 464105.0 0
372597.0 463445.0 0
376367.0 462753.0 0
382807.0 464768.0 0
386614.0 464004.0 0
390429.0 463184.0 0
394209.0 462252.0 0
400865.0 463800.0 0
404766.0 464333.0 0
408292.0 463163.0 0
414835.0 464077.0 0
418034.0 466342.0 0
421514.0 464650.0 0
428475.0 465578.0 0
435223.0 465925.0 0
68852.8 467425.0 0
79478.6 468599.0 0
82728.3 466314.0 0
89458.2 465081.0 0
93162.7 466096.0 0
96910.9 467022.0 0
100690.0 467909.0 0
110872.0 466763.0 0
117210.0 464712.0 0
120958.0 465489.0 0
124728.0 466232.0 0
128524.0 466933.0 0
138700.0 465362.0 0
142514.0 465938.0 0
148819.0 463631.0 0
152646.0 464178.0 0
156477.0 464660.0 0
160323.0 465039.0 0
164187.0 465291.0 0
168048.0 465402.0 0
172539.0 464870.0 0
176426.0 464717.0 0
180290.0 464540.0 0
184135.0 464360.0 0
187957.0 464218.0 0
192989.0 465432.0 0
196813.0 465182.0 0
200615.0 464976.0 0
204403.0 464783.0 0
208183.0 464594.0 0
211957.0 464406.0 0
215729.0 464224.0 0
219500.0 464057.0 0
223269.0 463913.0 0
227037.0 463797.0 0
230804.0 463713.0 0
234573.0 463657.0 0
238344.0 463623.0 0
242111.0 463612.0 0
245877.0 463623.0 0
249643.0 463659.0 0
253415.0 463711.0 0
257194.0 463778.0 0
260977.0 463861.0 0
264776.0 463967.0 0
268611.0 464078.0 0
272508.0 464150.0 0
276492.0 464019.0 0
280398.0 464067.0 0
284283.0 464211.0 0
288166.0 464414.0 0
292059.0 464641.0 0
295961.0 464867.0 0
299866.0 465074.0 0
303767.0 465253.0 0
307662.0 465383.0 0
311553.0 465405.0 0
316458.0 466312.0 0
320307.0 466217.0 0
324176.0 466101.0 0
328048.0 465943.0 0
331929.0 465722.0 0
335841.0 465445.0 0
339752.0 465164.0 0
343658.0 464844.0 0
347552.0 464437.0 0
351410.0 463900.0 0
355196.0 463259.0 0
361394.0 465417.0 0
367653.0 467637.0 0
371416.0 466952.0 0
375205.0 466250.0 0
379005.0 465529.0 0
389374.0 466700.0 0
393248.0 465850.0 0
397104.0 464923.0 0
403926.0 467775.0 0
407727.0 466916.0 0
411336.0 465585.0 0
414485.0 467931.0 0
421292.0 468558.0 0
424802.0 466835.0 0
72451.2 469211.0 0
76254.4 470947.0 0
83268.2 470183.0 0
86506.8 467781.0 0
90341.1 468876.0 0
104479.0 468785.0 0
108234.0 469616.0 0
114601.0 467541.0 0
118362.0 468305.0 0
122143.0 469048.0 0
125944.0 469755.0 0
132333.0 467593.0 0
136152.0 468214.0 0
139981.0 468804.0 0
146344.0 466495.0 0
150201.0 467046.0 0
154088.0 467620.0 0
157954.0 468086.0 0
161825.0 468424.0 0
165682.0 468662.0 0
170551.0 467952.0 0
174442.0 467942.0 0
178314.0 467831.0 0
182178.0 467696.0 0
186032.0 467576.0 0
189883.0 467512.0 0
194632.0 468359.0 0
198492.0 468217.0 0
202318.0 468069.0 0
206125.0 467913.0 0
209920.0 467748.0 0
213708.0 467580.0 0
217494.0 467419.0 0
221278.0 467275.0 0
225061.0 467155.0 0
228842.0 467065.0 0
232623.0 467003.0 0
236403.0 466965.0 0
240182.0 466949.0 0
243961.0 466954.0 0
247742.0 466978.0 0
251529.0 467019.0 0
255323.0 467072.0 0
259127.0 467139.0 0
262945.0 467216.0 0
266789.0 467294.0 0
270673.0 467345.0 0
274601.0 467315.0 0
278486.0 467324.0 0
282362.0 467419.0 0
286241.0 467572.0 0
290129.0 467760.0 0
294028.0 467958.0 0
297935.0 468151.0 0
301844.0 468324.0 0
305753.0 468459.0 0
309659.0 468523.0 0
334311.0 468686.0 0
338255.0 468390.0 0
342188.0 468082.0 0
346110.0 467720.0 0
350009.0 467267.0 0
353861.0 466716.0 0
357654.0 466085.0 0
373992.0 469791.0 0
377808.0 469051.0 0
381646.0 468289.0 0
385502.0 467501.0 0
392098.0 469427.0 0
395997.0 468585.0 0
399942.0 467698.0 0
410849.0 469396.0 0
414022.0 471778.0 0
417703.0 470240.0 0
424865.0 470728.0 0
79960.0 472481.0 0
84366.1 473981.0 0
94165.5 469829.0 0
97978.6 470701.0 0
101803.0 471560.0 0
105601.0 472445.0 0
111976.0 470404.0 0
115742.0 471153.0 0
119542.0 471895.0 0
129761.0 470433.0 0
133591.0 471075.0 0
137430.0 471681.0 0
143823.0 469368.0 0
147686.0 469912.0 0
151583.0 470454.0 0
176272.0 471089.0 0
180158.0 471001.0 0
184036.0 470903.0 0
187911.0 470833.0 0
191795.0 470824.0 0
204017.0 471204.0 0
207847.0 471077.0 0
211660.0 470931.0 0
215463.0 470779.0 0
219264.0 470635.0 0
223064.0 470512.0 0
226863.0 470417.0 0
230657.0 470351.0 0
234449.0 470310.0 0
238239.0 470290.0 0
242031.0 470289.0 0
245825.0 470304.0 0
249624.0 470334.0 0
253432.0 470376.0 0
257249.0 470427.0 0
261080.0 470485.0 0
272705.0 470589.0 0
276592.0 470606.0 0
280464.0 470664.0 0
284339.0 470775.0 0
288223.0 470924.0 0
292119.0 471093.0 0
313544.0 468447.0 0
318689.0 469541.0 0
322568.0 469400.0 0
326458.0 469250.0 0
330358.0 469026.0 0
340717.0 471331.0 0
344655.0 471000.0 0
348579.0 470604.0 0
352474.0 470126.0 0
356326.0 469570.0 0
360130.0 468952.0 0
363896.0 468300.0 0
370203.0 470510.0 0
376558.0 472609.0 0
380411.0 471838.0 0
384292.0 471030.0 0
388193.0 470230.0 0
398582.0 471459.0 0
402352.0 470961.0 0
407165.0 470656.0 0
417229.0 474145.0 0
421028.0 472458.0 0
87621.4 471727.0 0
91467.9 472684.0 0
95304.2 473584.0 0
99124.4 474375.0 0
102970.0 475234.0 0
109353.0 473296.0 0
113125.0 474045.0 0
123357.0 472605.0 0
127186.0 473289.0 0
131026.0 473946.0 0
134875.0 474572.0 0
141278.0 472258.0 0
145136.0 472805.0 0
149011.0 473328.0 0
155546.0 471106.0 0
159448.0 471538.0 0
163325.0 471860.0 0
168475.0 470993.0 0
172373.0 471115.0 0
196270.0 471371.0 0
200163.0 471307.0 0
224866.0 473768.0 0
228676.0 473700.0 0
232481.0 473658.0 0
236283.0 473636.0 0
264930.0 470542.0 0
268805.0 470583.0 0
270804.0 473868.0 0
274690.0 473890.0 0
296026.0 471265.0 0
299941.0 471427.0 0
303864.0 471564.0 0
307790.0 471651.0 0
311713.0 471652.0 0
315602.0 471512.0 0
320902.0 472719.0 0
324837.0 472584.0 0
328753.0 472397.0 0
332809.0 471949.0 0
336768.0 471634.0 0
347132.0 473932.0 0
351053.0 473511.0 0
354946.0 473020.0 0
358801.0 472462.0 0
362622.0 471848.0 0
366415.0 471195.0 0
372740.0 473379.0 0
383010.0 474592.0 0
386923.0 473780.0 0
390846.0 473011.0 0
394740.0 472245.0 0
401177.0 474521.0 0
405046.0 473758.0 0
410248.0 473257.0 0
413545.0 475645.0 0
420525.0 476386.0 0
424372.0 474645.0 0
81105.0 476266.0 0
85534.3 477786.0 0
88874.2 475661.0 0
92709.7 476531.0 0
100425.0 478008.0 0
106701.0 476181.0 0
116935.0 474768.0 0
120766.0 475483.0 0
124613.0 476166.0 0
128466.0 476834.0 0
132324.0 477476.0 0
138729.0 475165.0 0
142588.0 475725.0 0
152906.0 473852.0 0
157087.0 474639.0 0
160995.0 475030.0 0
166326.0 474046.0 0
170239.0 474252.0 0
174168.0 474309.0 0
178086.0 474278.0 0
181989.0 474211.0 0
185884.0 474146.0 0
189781.0 474113.0 0
193694.0 474136.0 0
197933.0 474462.0 0
201853.0 474446.0 0
205735.0 474373.0 0
209589.0 474271.0 0
213415.0 474139.0 0
217231.0 473997.0 0
221048.0 473869.0 0
240086.0 473629.0 0
243891.0 473638.0 0
247702.0 473658.0 0
251521.0 473689.0 0
255349.0 473728.0 0
259189.0 473772.0 0
263044.0 473815.0 0
266917.0 473850.0 0
278569.0 473934.0 0
282445.0 474014.0 0
286328.0 474129.0 0
290222.0 474268.0 0
294128.0 474417.0 0
298046.0 474563.0 0
301974.0 474694.0 0
305913.0 474792.0 0
309858.0 474834.0 0
313798.0 474790.0 0
317704.0 474629.0 0
323046.0 475853.0 0
327069.0 475822.0 0
331350.0 475226.0 0
335307.0 474901.0 0
339254.0 474600.0 0
343196.0 474288.0 0
353525.0 476448.0 0
357423.0 475944.0 0
361290.0 475382.0 0
365127.0 474765.0 0
368938.0 474096.0 0
375285.0 476242.0 0
379121.0 475422.0 0
385599.0 477357.0 0
389524.0 476585.0 0
393463.0 475883.0 0
397348.0 475171.0 0
403908.0 477393.0 0
407910.0 476442.0 0
411131.0 478745.0 0
96553.6 477371.0 0
110504.0 476970.0 0
114325.0 477685.0 0
118172.0 478381.0 0
122037.0 479067.0 0
125907.0 479739.0 0
129778.0 480395.0 0
136184.0 478088.0 0
140046.0 478666.0 0
146454.0 476254.0 0
150329.0 476759.0 0
154226.0 477218.0 0
158717.0 478200.0 0
164146.0 477151.0 0
168080.0 477386.0 0
172034.0 477502.0 0
175979.0 477528.0 0
179907.0 477501.0 0
183821.0 477453.0 0
187729.0 477413.0 0
191643.0 477403.0 0
195577.0 477443.0 0
199641.0 477622.0 0
203584.0 477623.0 0
207492.0 477574.0 0
211365.0 477499.0 0
215191.0 477369.0 0
219018.0 477228.0 0
222856.0 477114.0 0
226682.0 477046.0 0
230498.0 477007.0 0
234311.0 476984.0 0
238125.0 476975.0 0
241942.0 476978.0 0
245764.0 476992.0 0
249593.0 477013.0 0
253430.0 477042.0 0
257278.0 477075.0 0
261138.0 477108.0 0
265011.0 477136.0 0
268894.0 477158.0 0
272781.0 477182.0 0
276665.0 477219.0 0
280547.0 477279.0 0
284433.0 477367.0 0
288327.0 477479.0 0
292233.0 477605.0 0
296150.0 477734.0 0
300080.0 477855.0 0
304022.0 477955.0 0
307974.0 478017.0 0
311931.0 478023.0 0
315881.0 477958.0 0
319802.0 477818.0 0
324959.0 479033.0 0
329934.0 478520.0 0
333872.0 478191.0 0
337805.0 477894.0 0
341738.0 477595.0 0
345673.0 477266.0 0
349605.0 476888.0 0
359896.0 478898.0 0
363777.0 478328.0 0
367635.0 477703.0 0
371471.0 477017.0 0
377811.0 479086.0 0
381689.0 478190.0 0
392066.0 479463.0 0
396085.0 478831.0 0
399998.0 478175.0 0
409956.0 482522.0 0
93680.3 480384.0 0
98242.9 481079.0 0
104039.0 479342.0 0
107871.0 479907.0 0
111708.0 480647.0 0
115582.0 481312.0 0
119468.0 481989.0 0
123357.0 482661.0 0
133648.0 481026.0 0
143907.0 479211.0 0
147776.0 479719.0 0
151668.0 480190.0 0
155611.0 480535.0 0
161993.0 480336.0 0
165947.0 480550.0 0
169908.0 480694.0 0
173865.0 480764.0 0
177811.0 480777.0 0
181741.0 480755.0 0
185660.0 480722.0 0
189575.0 480699.0 0
193495.0 480702.0 0
197434.0 480744.0 0
201417.0 480830.0 0
205372.0 480831.0 0
209298.0 480807.0 0
213186.0 480774.0 0
216989.0 480609.0 0
220838.0 480455.0 0
224677.0 480387.0 0
228500.0 480357.0 0
232324.0 480336.0 0
236148.0 480326.0 0
239976.0 480325.0 0
243809.0 480334.0 0
247647.0 480349.0 0
251493.0 480369.0 0
255349.0 480393.0 0
259214.0 480418.0 0
263089.0 480441.0 0
266973.0 480462.0 0
270862.0 480484.0 0
274751.0 480515.0 0
278640.0 480563.0 0
282531.0 480632.0 0
286428.0 480721.0 0
290334.0 480825.0 0
294251.0 480937.0 0
298180.0 481047.0 0
302120.0 481143.0 0
306071.0 481215.0 0
310027.0 481251.0 0
313980.0 481239.0 0
317914.0 481181.0 0
321805.0 481107.0 0
327782.0 481408.0 0
332436.0 481499.0 0
336364.0 481216.0 0
340280.0 480931.0 0
344204.0 480620.0 0
348135.0 480268.0 0
352067.0 479868.0 0
355991.0 479411.0 0
366274.0 481297.0 0
370157.0 480654.0 0
374015.0 479950.0 0
380351.0 481851.0 0
384225.0 480971.0 0
388137.0 480178.0 0
398692.0 481839.0 0
402755.0 481065.0 0
406696.0 480223.0 0
95611.4 483934.0 0
101217.0 483687.0 0
105134.0 483099.0 0
109071.0 483626.0 0
112993.0 484281.0 0
116908.0 484931.0 0
120819.0 485602.0 0
127242.0 483328.0 0
137516.0 481626.0 0
141377.0 482192.0 0
145225.0 482723.0 0
149044.0 483207.0 0
152793.0 483667.0 0
156478.0 484001.0 0
160140.0 483703.0 0
191424.0 484002.0 0
195346.0 484007.0 0
199285.0 484034.0 0
203249.0 484065.0 0
207208.0 484066.0 0
211157.0 484076.0 0
215078.0 484118.0 0
218830.0 483801.0 0
222662.0 483719.0 0
226482.0 483707.0 0
230316.0 483688.0 0
234153.0 483680.0 0
237992.0 483679.0 0
241836.0 483684.0 0
245685.0 483694.0 0
249540.0 483708.0 0
253403.0 483725.0 0
257274.0 483743.0 0
261154.0 483761.0 0
265040.0 483779.0 0
268932.0 483798.0 0
272825.0 483824.0 0
276721.0 483863.0 0
280618.0 483917.0 0
284520.0 483989.0 0
288428.0 484075.0 0
338830.0 484304.0 0
342722.0 484004.0 0
346640.0 483668.0 0
350574.0 483292.0 0
354513.0 482870.0 0
358449.0 482399.0 0
362372.0 481877.0 0
372685.0 483625.0 0
376582.0 482916.0 0
382812.0 484635.0 0
386702.0 483794.0 0
390630.0 483065.0 0
394567.0 482399.0 0
106545.0 486727.0 0
110449.0 487295.0 0
114375.0 487910.0 0
124718.0 486274.0 0
131124.0 483976.0 0
135004.0 484598.0 0
138879.0 485188.0 0
142747.0 485748.0 0
146600.0 486273.0 0
163942.0 483796.0 0
167841.0 483922.0 0
171776.0 484009.0 0
175720.0 484051.0 0
179658.0 484055.0 0
183586.0 484038.0 0
187506.0 484015.0 0
292346.0 484170.0 0
296274.0 484268.0 0
300212.0 484360.0 0
304158.0 484436.0 0
308110.0 484488.0 0
312061.0 484509.0 0
316000.0 484500.0 0
319914.0 484474.0 0
323801.0 484408.0 0
327528.0 484919.0 0
331215.0 484840.0 0
334983.0 484573.0 0
349041.0 486734.0 0
352986.0 486333.0 0
356938.0 485892.0 0
360892.0 485410.0 0
364838.0 484881.0 0
368769.0 484280.0 0
379100.0 485964.0 0
385222.0 487444.0 0
389128.0 486669.0 0
393090.0 486016.0 0
397037.0 485395.0 0
401454.0 484723.0 0
98544.9 486647.0 0
102640.0 487396.0 0
118300.0 488561.0 0
122207.0 489237.0 0
128613.0 486939.0 0
132506.0 487580.0 0
136398.0 488191.0 0
140292.0 488771.0 0
150426.0 486756.0 0
154254.0 487137.0 0
158134.0 487250.0 0
161935.0 487161.0 0
165799.0 487215.0 0
169710.0 487287.0 0
173643.0 487338.0 0
177581.0 487360.0 0
181515.0 487359.0 0
185442.0 487345.0 0
189364.0 487328.0 0
193283.0 487317.0 0
197208.0 487315.0 0
201147.0 487318.0 0
205102.0 487319.0 0
209066.0 487322.0 0
213048.0 487381.0 0
220560.0 487005.0 0
224410.0 487052.0 0
228275.0 487036.0 0
232133.0 487034.0 0
235988.0 487036.0 0
239845.0 487041.0 0
243706.0 487048.0 0
247571.0 487058.0 0
251442.0 487070.0 0
255320.0 487083.0 0
259204.0 487096.0 0
263095.0 487110.0 0
266991.0 487126.0 0
270889.0 487147.0 0
274790.0 487177.0 0
278694.0 487221.0 0
282601.0 487278.0 0
286513.0 487349.0 0
290433.0 487430.0 0
294361.0 487517.0 0
298297.0 487602.0 0
302241.0 487679.0 0
306189.0 487741.0 0
310136.0 487782.0 0
314075.0 487803.0 0
317995.0 487811.0 0
321885.0 487816.0 0
325687.0 488026.0 0
329586.0 488144.0 0
333455.0 487983.0 0
337311.0 487720.0 0
341196.0 487425.0 0
345108.0 487097.0 0
355372.0 489391.0 0
359337.0 488935.0 0
363308.0 488447.0 0
367297.0 487899.0 0
371254.0 487279.0 0
375185.0 486636.0 0
391502.0 489605.0 0
395528.0 489031.0 0
399731.0 488241.0 0
96145.9 489846.0 0
100092.0 490441.0 0
104019.0 491141.0 0
107925.0 490381.0 0
111865.0 490930.0 0
115804.0 491540.0 0
119715.0 492222.0 0
126104.0 489909.0 0
130013.0 490570.0 0
133920.0 491201.0 0
144185.0 489324.0 0
148076.0 489838.0 0
151982.0 490266.0 0
155929.0 490495.0 0
159855.0 490568.0 0
163741.0 490563.0 0
167649.0 490604.0 0
171576.0 490648.0 0
175514.0 490678.0 0
179452.0 490689.0 0
183386.0 490684.0 0
187314.0 490671.0 0
191237.0 490656.0 0
195159.0 490641.0 0
199083.0 490625.0 0
203013.0 490607.0 0
206949.0 490591.0 0
210881.0 490604.0 0
214791.0 490760.0 0
218422.0 490110.0 0
222281.0 490384.0 0
226201.0 490367.0 0
230089.0 490382.0 0
233964.0 490394.0 0
237836.0 490402.0 0
241710.0 490410.0 0
245586.0 490418.0 0
249467.0 490427.0 0
253352.0 490436.0 0
257243.0 490445.0 0
261138.0 490455.0 0
265039.0 490467.0 0
268943.0 490483.0 0
272849.0 490507.0 0
276758.0 490541.0 0
280671.0 490587.0 0
284588.0 490645.0 0
288511.0 490714.0 0
292440.0 490790.0 0
296376.0 490868.0 0
300318.0 490944.0 0
304265.0 491010.0 0
308212.0 491064.0 0
312154.0 491104.0 0
316084.0 491134.0 0
319994.0 491165.0 0
323868.0 491263.0 0
327786.0 491350.0 0
331747.0 491326.0 0
335676.0 491143.0 0
339596.0 490867.0 0
343524.0 490550.0 0
347464.0 490199.0 0
351414.0 489813.0 0
361704.0 492004.0 0
365719.0 491496.0 0
369764.0 490914.0 0
373715.0 490329.0 0
377685.0 489670.0 0
381609.0 489056.0 0
387582.0 490305.0 0
398221.0 491871.0 0
403023.0 490440.0 0
109389.0 494008.0 0
113343.0 494544.0 0
117242.0 495206.0 0
123592.0 492907.0 0
127503.0 493550.0 0
137834.0 491796.0 0
141758.0 492362.0 0
145695.0 492903.0 0
149651.0 493379.0 0
153697.0 493695.0 0
157671.0 493868.0 0
161638.0 493916.0 0
165573.0 493945.0 0
169510.0 493981.0 0
173451.0 494012.0 0
177395.0 494030.0 0
181337.0 494034.0 0
185274.0 494027.0 0
189205.0 494014.0 0
193131.0 493996.0 0
197053.0 493973.0 0
200973.0 493943.0 0
204893.0 493907.0 0
208815.0 493883.0 0
212743.0 493911.0 0
219863.0 493718.0 0
224115.0 493664.0 0
228029.0 493716.0 0
231921.0 493749.0 0
235809.0 493766.0 0
239697.0 493777.0 0
243586.0 493786.0 0
247478.0 493794.0 0
251372.0 493801.0 0
255270.0 493807.0 0
259171.0 493814.0 0
263077.0 493821.0 0
266986.0 493833.0 0
270898.0 493850.0 0
274813.0 493876.0 0
278730.0 493912.0 0
282652.0 493960.0 0
286578.0 494018.0 0
290510.0 494085.0 0
294447.0 494156.0 0
298390.0 494228.0 0
302337.0 494295.0 0
306286.0 494356.0 0
333933.0 494529.0 0
337915.0 494303.0 0
341880.0 494013.0 0
345841.0 493679.0 0
349806.0 493310.0 0
353769.0 492907.0 0
357734.0 492470.0 0
368179.0 494522.0 0
372161.0 494002.0 0
376239.0 493334.0 0
380174.0 492763.0 0
384103.0 492207.0 0
389900.0 493232.0 0
393833.0 492596.0 0
97641.0 493580.0 0
101569.0 494313.0 0
105516.0 494842.0 0
110949.0 497583.0 0
114829.0 498208.0 0
121078.0 495951.0 0
131436.0 494222.0 0
135367.0 494830.0 0
139310.0 495401.0 0
143265.0 495951.0 0
147261.0 496468.0 0
151407.0 496838.0 0
214681.0 497128.0 0
222113.0 496925.0 0
310233.0 494407.0 0
314174.0 494450.0 0
318105.0 494492.0 0
322024.0 494553.0 0
325962.0 494607.0 0
329937.0 494608.0 0
344176.0 497166.0 0
348165.0 496814.0 0
352144.0 496439.0 0
356108.0 496025.0 0
360074.0 495570.0 0
364079.0 495082.0 0
378686.0 496440.0 0
382619.0 495911.0 0
386552.0 495373.0 0
392208.0 496210.0 0
396440.0 495392.0 0
401464.0 494116.0 0
96330.0 497351.0 0
100248.0 498088.0 0
104186.0 498598.0 0
107911.0 499932.0 0
124974.0 496569.0 0
128886.0 497186.0 0
132906.0 497887.0 0
136855.0 498456.0 0
140823.0 499005.0 0
155458.0 497141.0 0
159508.0 497224.0 0
163480.0 497286.0 0
167436.0 497326.0 0
171389.0 497359.0 0
175342.0 497382.0 0
179293.0 497393.0 0
183241.0 497393.0 0
187183.0 497384.0 0
191119.0 497368.0 0
195049.0 497346.0 0
198973.0 497315.0 0
202889.0 497270.0 0
206802.0 497212.0 0
210727.0 497168.0 0
218404.0 497421.0 0
225981.0 497042.0 0
229866.0 497104.0 0
233766.0 497132.0 0
237670.0 497148.0 0
241573.0 497160.0 0
245476.0 497169.0 0
249381.0 497176.0 0
253287.0 497181.0 0
257195.0 497185.0 0
261107.0 497190.0 0
265021.0 497197.0 0
268938.0 497208.0 0
272858.0 497227.0 0
276780.0 497255.0 0
280706.0 497293.0 0
284637.0 497341.0 0
288571.0 497398.0 0
292511.0 497462.0 0
296455.0 497530.0 0
300404.0 497597.0 0
304355.0 497660.0 0
308306.0 497717.0 0
312257.0 497768.0 0
316203.0 497814.0 0
320148.0 497862.0 0
324102.0 497900.0 0
328078.0 497907.0 0
332072.0 497864.0 0
336172.0 497716.0 0
340184.0 497470.0 0
354478.0 499602.0 0
358439.0 499157.0 0
362424.0 498673.0 0
366532.0 498118.0 0
370530.0 497647.0 0
374740.0 496956.0 0
385045.0 499078.0 0
388989.0 498540.0 0
394618.0 499142.0 0
398576.0 498585.0 0
402500.0 497955.0 0
97821.6 501283.0 0
101772.0 501783.0 0
112433.0 501228.0 0
118563.0 499351.0 0
122468.0 499646.0 0
126359.0 500227.0 0
130273.0 500796.0 0
134429.0 501555.0 0
144834.0 499528.0 0
149055.0 499949.0 0
153124.0 500334.0 0
157385.0 500517.0 0
161374.0 500612.0 0
165353.0 500674.0 0
169322.0 500716.0 0
173288.0 500744.0 0
177252.0 500760.0 0
181212.0 500766.0 0
185167.0 500763.0 0
189117.0 500752.0 0
193061.0 500734.0 0
196998.0 500706.0 0
200927.0 500665.0 0
204845.0 500598.0 0
208762.0 500499.0 0
212720.0 500402.0 0
218342.0 501367.0 0
223832.0 500342.0 0
227764.0 500457.0 0
231697.0 500497.0 0
235625.0 500521.0 0
239547.0 500539.0 0
243464.0 500552.0 0
247380.0 500560.0 0
251295.0 500566.0 0
255211.0 500569.0 0
259129.0 500571.0 0
263049.0 500574.0 0
266971.0 500581.0 0
270895.0 500593.0 0
274823.0 500613.0 0
278753.0 500642.0 0
282686.0 500681.0 0
286624.0 500730.0 0
290566.0 500787.0 0
294513.0 500849.0 0
298463.0 500914.0 0
302417.0 500977.0 0
306372.0 501037.0 0
310329.0 501092.0 0
314286.0 501141.0 0
318245.0 501185.0 0
322211.0 501218.0 0
326190.0 501228.0 0
330182.0 501205.0 0
334286.0 501075.0 0
338412.0 500910.0 0
342454.0 500648.0 0
346495.0 500317.0 0
350497.0 499965.0 0
360784.0 502281.0 0
364867.0 501724.0 0
368854.0 501272.0 0
373180.0 500543.0 0
377143.0 500084.0 0
381098.0 499601.0 0
400923.0 501721.0 0
105541.0 503010.0 0
109448.0 503619.0 0
116027.0 502779.0 0
119947.0 503073.0 0
123868.0 503340.0 0
127761.0 503870.0 0
131679.0 504375.0 0
138388.0 502072.0 0
142415.0 502597.0 0
146635.0 503021.0 0
150749.0 503501.0 0
155103.0 503709.0 0
159269.0 503938.0 0
163264.0 504018.0 0
167250.0 504077.0 0
171231.0 504113.0 0
175209.0 504135.0 0
179183.0 504147.0 0
183152.0 504150.0 0
187118.0 504143.0 0
191079.0 504129.0 0
195035.0 504107.0 0
198985.0 504073.0 0
202926.0 504019.0 0
206852.0 503917.0 0
210777.0 503731.0 0
214917.0 503485.0 0
221695.0 503577.0 0
225639.0 503804.0 0
229611.0 503856.0 0
233569.0 503890.0 0
237512.0 503918.0 0
241445.0 503939.0 0
245373.0 503952.0 0
249298.0 503960.0 0
253222.0 503964.0 0
257146.0 503965.0 0
261072.0 503965.0 0
264999.0 503967.0 0
268928.0 503974.0 0
272859.0 503987.0 0
276792.0 504008.0 0
280729.0 504039.0 0
284670.0 504079.0 0
288614.0 504128.0 0
292563.0 504185.0 0
296515.0 504246.0 0
300471.0 504308.0 0
304430.0 504369.0 0
308391.0 504426.0 0
312354.0 504477.0 0
316322.0 504521.0 0
320295.0 504553.0 0
324277.0 504567.0 0
328270.0 504559.0 0
332382.0 504444.0 0
336505.0 504296.0 0
340656.0 504111.0 0
344763.0 503810.0 0
348809.0 503486.0 0
352798.0 503160.0 0
356830.0 502785.0 0
367175.0 504896.0 0
371575.0 504115.0 0
375542.0 503700.0 0
379509.0 503258.0 0
383511.0 502772.0 0
387485.0 502241.0 0
391476.0 501734.0 0
396951.0 502195.0 0
99348.7 504976.0 0
103161.0 506099.0 0
107248.0 506806.0 0
113028.0 505864.0 0
117166.0 506575.0 0
136029.0 505211.0 0
139997.0 505670.0 0
144221.0 506109.0 0
148288.0 506606.0 0
152785.0 506894.0 0
156984.0 507154.0 0
204984.0 507371.0 0
208940.0 507204.0 0
212883.0 506853.0 0
218260.0 505332.0 0
223460.0 507148.0 0
227532.0 507213.0 0
231517.0 507254.0 0
235476.0 507298.0 0
263023.0 507368.0 0
266957.0 507370.0 0
270891.0 507377.0 0
274828.0 507391.0 0
278767.0 507413.0 0
342953.0 507286.0 0
347056.0 506996.0 0
351064.0 506709.0 0
355113.0 506364.0 0
359243.0 505957.0 0
363209.0 505350.0 0
381809.0 506483.0 0
385757.0 506075.0 0
389704.0 505578.0 0
393681.0 505253.0 0
398136.0 505869.0 0
402108.0 505495.0 0
100729.0 509212.0 0
104690.0 509753.0 0
110579.0 509083.0 0
121154.0 506847.0 0
125172.0 507086.0 0
129189.0 507492.0 0
133153.0 507897.0 0
137815.0 508923.0 0
141794.0 509202.0 0
161175.0 507363.0 0
165171.0 507442.0 0
169170.0 507488.0 0
173164.0 507516.0 0
177152.0 507534.0 0
181136.0 507542.0 0
185116.0 507541.0 0
189094.0 507531.0 0
193068.0 507513.0 0
197041.0 507484.0 0
201014.0 507443.0 0
218891.0 509112.0 0
239422.0 507330.0 0
243362.0 507351.0 0
247297.0 507364.0 0
251229.0 507370.0 0
255159.0 507371.0 0
259091.0 507370.0 0
282710.0 507445.0 0
286656.0 507486.0 0
290606.0 507536.0 0
294560.0 507593.0 0
298517.0 507654.0 0
302478.0 507715.0 0
306442.0 507773.0 0
310410.0 507825.0 0
314382.0 507870.0 0
318360.0 507905.0 0
322344.0 507923.0 0
326336.0 507922.0 0
330460.0 507823.0 0
334586.0 507692.0 0
338729.0 507527.0 0
353341.0 509931.0 0
357481.0 509547.0 0
365289.0 508684.0 0
369955.0 507683.0 0
373911.0 507309.0 0
377862.0 506899.0 0
391952.0 508884.0 0
395908.0 509120.0 0
400397.0 509092.0 0
114546.0 509589.0 0
118891.0 510143.0 0
122874.0 510414.0 0
126843.0 510700.0 0
130807.0 511066.0 0
134756.0 511379.0 0
145844.0 509724.0 0
150344.0 510003.0 0
154693.0 510382.0 0
158898.0 510596.0 0
163071.0 510809.0 0
167102.0 510865.0 0
171120.0 510903.0 0
175120.0 510927.0 0
179117.0 510941.0 0
183111.0 510945.0 0
187102.0 510939.0 0
191091.0 510924.0 0
195081.0 510899.0 0
199074.0 510860.0 0
203080.0 510809.0 0
207123.0 510700.0 0
211140.0 510435.0 0
215054.0 509909.0 0
221708.0 511721.0 0
225498.0 510591.0 0
229496.0 510618.0 0
233453.0 510683.0 0
237403.0 510726.0 0
241350.0 510755.0 0
245295.0 510774.0 0
249235.0 510786.0 0
253172.0 510790.0 0
257108.0 510788.0 0
261046.0 510783.0 0
264984.0 510780.0 0
268923.0 510782.0 0
272861.0 510790.0 0
276802.0 510805.0 0
280746.0 510828.0 0
284692.0 510861.0 0
288643.0 510905.0 0
292597.0 510956.0 0
296555.0 511014.0 0
300517.0 511074.0 0
304483.0 511132.0 0
308453.0 511186.0 0
312428.0 511233.0 0
316409.0 511270.0 0
320396.0 511295.0 0
324388.0 511300.0 0
328512.0 511206.0 0
332654.0 511096.0 0
336788.0 510954.0 0
341024.0 510720.0 0
345230.0 510487.0 0
349273.0 510246.0 0
361456.0 509794.0 0
368310.0 511225.0 0
372271.0 510913.0 0
376225.0 510540.0 0
380167.0 510130.0 0
384100.0 509730.0 0
388029.0 509362.0 0
99796.6 513062.0 0
103771.0 513546.0 0
108408.0 512559.0 0
112388.0 512954.0 0
116378.0 513243.0 0
120628.0 513709.0 0
124603.0 513990.0 0
128568.0 514296.0 0
132547.0 514618.0 0
137150.0 514397.0 0
140848.0 513018.0 0
144784.0 513529.0 0
148734.0 513618.0 0
152700.0 513813.0 0
156685.0 513889.0 0
160787.0 514067.0 0
165015.0 514241.0 0
169057.0 514289.0 0
173082.0 514326.0 0
177093.0 514346.0 0
181101.0 514355.0 0
185104.0 514355.0 0
189105.0 514344.0 0
193105.0 514319.0 0
197111.0 514284.0 0
201124.0 514233.0 0
205201.0 514153.0 0
209376.0 513969.0 0
213558.0 513584.0 0
217475.0 512834.0 0
227561.0 513998.0 0
231459.0 514089.0 0
235392.0 514135.0 0
239340.0 514167.0 0
243293.0 514189.0 0
247242.0 514210.0 0
251186.0 514219.0 0
255128.0 514219.0 0
259071.0 514211.0 0
263014.0 514205.0 0
266955.0 514203.0 0
270896.0 514206.0 0
274838.0 514214.0 0
278781.0 514230.0 0
282727.0 514254.0 0
286676.0 514290.0 0
290629.0 514335.0 0
294586.0 514389.0 0
298547.0 514447.0 0
302513.0 514506.0 0
306484.0 514561.0 0
310461.0 514610.0 0
314444.0 514650.0 0
318434.0 514678.0 0
322431.0 514695.0 0
326557.0 514603.0 0
330692.0 514498.0 0
334832.0 514389.0 0
339082.0 514167.0 0
343298.0 513941.0 0
347415.0 513762.0 0
351469.0 513526.0 0
355451.0 513278.0 0
359431.0 513246.0 0
363414.0 513275.0 0
371028.0 514665.0 0
375023.0 514337.0 0
379114.0 513974.0 0
383321.0 513641.0 0
387468.0 513319.0 0
391444.0 512880.0 0
395494.0 513064.0 0
399488.0 512945.0 0
101390.0 516700.0 0
106258.0 516632.0 0
110230.0 516428.0 0
114205.0 516591.0 0
142383.0 516679.0 0
213004.0 517518.0 0
220061.0 515618.0 0
223850.0 514939.0 0
229393.0 517505.0 0
349472.0 517136.0 0
357422.0 516737.0 0
367050.0 514902.0 0
385657.0 516885.0 0
389843.0 516565.0 0
393836.0 516683.0 0
397905.0 516598.0 0
118182.0 516843.0 0
122370.0 517285.0 0
126348.0 517567.0 0
130326.0 517866.0 0
134718.0 517929.0 0
138688.0 517961.0 0
146272.0 517230.0 0
150192.0 517316.0 0
154092.0 517546.0 0
157992.0 517651.0 0
161881.0 517872.0 0
165759.0 518113.0 0
169647.0 518184.0 0
173541.0 518238.0 0
177441.0 518270.0 0
181352.0 518288.0 0
185274.0 518292.0 0
189217.0 518278.0 0
193170.0 518248.0 0
197128.0 518211.0 0
201092.0 518155.0 0
205068.0 518093.0 0
209038.0 517911.0 0
216956.0 518017.0 0
221634.0 519168.0 0
225528.0 518429.0 0
233366.0 517564.0 0
237320.0 517591.0 0
241292.0 517610.0 0
245246.0 517638.0 0
249205.0 517655.0 0
253152.0 517663.0 0
257101.0 517652.0 0
261047.0 517644.0 0
264993.0 517639.0 0
268935.0 517638.0 0
272877.0 517642.0 0
276818.0 517651.0 0
280762.0 517667.0 0
284707.0 517693.0 0
288658.0 517731.0 0
292611.0 517781.0 0
296569.0 517836.0 0
300533.0 517894.0 0
304504.0 517950.0 0
308481.0 518002.0 0
312465.0 518044.0 0
316455.0 518074.0 0
320453.0 518095.0 0
324604.0 518019.0 0
328731.0 517918.0 0
332850.0 517817.0 0
337118.0 517623.0 0
341352.0 517407.0 0
345478.0 517242.0 0
353451.0 516964.0 0
361398.0 516729.0 0
365073.0 518265.0 0
369242.0 518219.0 0
373299.0 517938.0 0
377377.0 517569.0 0
381489.0 517190.0 0
101726.0 520629.0 0
105718.0 520572.0 0
109707.0 520425.0 0
113695.0 520554.0 0
117674.0 520797.0 0
121641.0 521183.0 0
125619.0 521450.0 0
129601.0 521740.0 0
133598.0 521743.0 0
138499.0 521838.0 0
142338.0 520667.0 0
146505.0 521209.0 0
150853.0 521251.0 0
155134.0 521399.0 0
159156.0 521471.0 0
163246.0 521614.0 0
167313.0 521750.0 0
171305.0 521774.0 0
175294.0 521781.0 0
179279.0 521772.0 0
183261.0 521751.0 0
187233.0 521730.0 0
191203.0 521704.0 0
195173.0 521667.0 0
199146.0 521624.0 0
203117.0 521555.0 0
207097.0 521518.0 0
211065.0 521334.0 0
215028.0 521453.0 0
218950.0 522072.0 0
223540.0 522595.0 0
227446.0 521802.0 0
231336.0 520976.0 0
235311.0 521046.0 0
239291.0 521021.0 0
243252.0 521088.0 0
247219.0 521082.0 0
251176.0 521123.0 0
255139.0 521104.0 0
259091.0 521098.0 0
263037.0 521087.0 0
266980.0 521087.0 0
270922.0 521084.0 0
274862.0 521095.0 0
278803.0 521097.0 0
282743.0 521121.0 0
286686.0 521144.0 0
290631.0 521191.0 0
294583.0 521241.0 0
298542.0 521299.0 0
302511.0 521354.0 0
306488.0 521407.0 0
310473.0 521453.0 0
314467.0 521488.0 0
318465.0 521507.0 0
322619.0 521434.0 0
326776.0 521356.0 0
330881.0 521268.0 0
334879.0 521232.0 0
338862.0 521185.0 0
342827.0 521084.0 0
346777.0 520991.0 0
350722.0 520903.0 0
354658.0 520764.0 0
358597.0 520556.0 0
362495.0 521222.0 0
367185.0 521633.0 0
371174.0 521699.0 0
375146.0 521471.0 0
379108.0 521174.0 0
383073.0 520862.0 0
387047.0 520635.0 0
391029.0 520439.0 0
395019.0 520498.0 0
399013.0 520507.0 0
101537.0 524586.0 0
105532.0 524549.0 0
109519.0 524425.0 0
212980.0 524837.0 0
230030.0 524736.0 0
237868.0 524691.0 0
390000.0 524435.0 0
394000.0 524443.0 0
398000.0 524467.0 0
113496.0 524552.0 0
117457.0 524782.0 0
121400.0 525147.0 0
125349.0 525403.0 0
129297.0 525687.0 0
133259.0 525710.0 0
137217.0 525548.0 0
141305.0 524648.0 0
145264.0 524999.0 0
149253.0 524912.0 0
153251.0 524926.0 0
157249.0 524987.0 0
161244.0 525073.0 0
165240.0 525159.0 0
169269.0 525209.0 0
173269.0 525225.0 0
177266.0 525225.0 0
181259.0 525210.0 0
185245.0 525188.0 0
189224.0 525162.0 0
193200.0 525132.0 0
197171.0 525088.0 0
201135.0 525061.0 0
205092.0 524978.0 0
209038.0 525001.0 0
216907.0 525485.0 0
220887.0 525560.0 0
226139.0 525557.0 0
233951.0 524894.0 0
241813.0 524898.0 0
245754.0 524754.0 0
249705.0 524971.0 0
253647.0 524779.0 0
257598.0 524782.0 0
261549.0 524766.0 0
265504.0 524775.0 0
269459.0 524770.0 0
273417.0 524796.0 0
277375.0 524789.0 0
281340.0 524828.0 0
285309.0 524848.0 0
289287.0 524915.0 0
293270.0 524974.0 0
297259.0 525047.0 0
301250.0 525108.0 0
305245.0 525170.0 0
309241.0 525219.0 0
313237.0 525257.0 0
317233.0 525267.0 0
321294.0 525167.0 0
325441.0 525088.0 0
329555.0 525015.0 0
333554.0 524992.0 0
337551.0 524943.0 0
341547.0 524849.0 0
345560.0 524784.0 0
349567.0 524715.0 0
353567.0 524670.0 0
357559.0 524608.0 0
361519.0 525050.0 0
365511.0 525242.0 0
369511.0 525324.0 0
373548.0 525131.0 0
377653.0 524904.0 0
381818.0 524670.0 0
385950.0 524504.0 0
102022.0 528529.0 0
106019.0 528505.0 0
110014.0 528433.0 0
114011.0 528551.0 0
118023.0 528737.0 0
122181.0 529045.0 0
126315.0 529255.0 0
130568.0 529449.0 0
134557.0 529477.0 0
138546.0 529256.0 0
142442.0 528509.0 0
146402.0 528824.0 0
150374.0 528753.0 0
154351.0 528794.0 0
158333.0 528870.0 0
162320.0 528948.0 0
166313.0 529010.0 0
170312.0 529051.0 0
174312.0 529064.0 0
178312.0 529064.0 0
182316.0 529045.0 0
186322.0 529017.0 0
190353.0 528973.0 0
194353.0 528936.0 0
198356.0 528878.0 0
202353.0 528851.0 0
206350.0 528744.0 0
210344.0 528775.0 0
214374.0 528557.0 0
218421.0 529309.0 0
222689.0 529111.0 0
226671.0 529462.0 0
230565.0 528639.0 0
234529.0 528850.0 0
238495.0 528600.0 0
242457.0 528850.0 0
246428.0 528667.0 0
250394.0 528932.0 0
254369.0 528694.0 0
258354.0 528696.0 0
262343.0 528667.0 0
266334.0 528672.0 0
270329.0 528652.0 0
274325.0 528675.0 0
278324.0 528645.0 0
282322.0 528680.0 0
286321.0 528683.0 0
290315.0 528752.0 0
294308.0 528806.0 0
298298.0 528882.0 0
302287.0 528942.0 0
306274.0 529009.0 0
310259.0 529061.0 0
314244.0 529102.0 0
318227.0 529108.0 0
322207.0 529033.0 0
326185.0 528992.0 0
330163.0 528956.0 0
334146.0 528938.0 0
338131.0 528885.0 0
342117.0 528791.0 0
346105.0 528733.0 0
350095.0 528668.0 0
354088.0 528656.0 0
358084.0 528652.0 0
362142.0 528961.0 0
366153.0 529173.0 0
370150.0 529262.0 0
374141.0 529081.0 0
378131.0 528875.0 0
382121.0 528658.0 0
386114.0 528501.0 0
390111.0 528434.0 0
394109.0 528444.0 0
398108.0 528467.0 0
101944.0 532507.0 0
105942.0 532492.0 0
109936.0 532432.0 0
113926.0 532550.0 0
117910.0 532731.0 0
121885.0 533012.0 0
125865.0 533205.0 0
129847.0 533358.0 0
133835.0 533395.0 0
137814.0 533129.0 0
141889.0 532601.0 0
145884.0 532782.0 0
149885.0 532725.0 0
153883.0 532769.0 0
157880.0 532848.0 0
161875.0 532929.0 0
165868.0 532984.0 0
169860.0 533014.0 0
173851.0 533024.0 0
177841.0 533023.0 0
181830.0 533000.0 0
185819.0 532969.0 0
189806.0 532920.0 0
193793.0 532881.0 0
197778.0 532817.0 0
201764.0 532795.0 0
205747.0 532677.0 0
209732.0 532755.0 0
213703.0 532467.0 0
217603.0 533285.0 0
221570.0 532944.0 0
225539.0 533245.0 0
229718.0 532506.0 0
233878.0 532795.0 0
237866.0 532520.0 0
241951.0 532817.0 0
245945.0 532617.0 0
249976.0 532909.0 0
253967.0 532661.0 0
257965.0 532666.0 0
261961.0 532633.0 0
265959.0 532642.0 0
269956.0 532617.0 0
273953.0 532644.0 0
277949.0 532603.0 0
281945.0 532641.0 0
285942.0 532634.0 0
289939.0 532708.0 0
293938.0 532761.0 0
297936.0 532841.0 0
301935.0 532901.0 0
305936.0 532970.0 0
309940.0 533024.0 0
313946.0 533068.0 0
317946.0 533068.0 0
321961.0 533000.0 0
325971.0 532965.0 0
329975.0 532943.0 0
333975.0 532924.0 0
337974.0 532867.0 0
341973.0 532773.0 0
345972.0 532719.0 0
349972.0 532656.0 0
353971.0 532655.0 0
357970.0 532651.0 0
361959.0 532925.0 0
365952.0 533154.0 0
369950.0 533245.0 0
373947.0 533071.0 0
377974.0 532871.0 0
381988.0 532656.0 0
385997.0 532499.0 0
390000.0 532436.0 0
394000.0 532443.0 0
398000.0 532467.0 0
102001.0 536491.0 0
106001.0 536481.0 0
110001.0 536434.0 0
114000.0 536551.0 0
118001.0 536726.0 0
122005.0 536990.0 0
126007.0 537178.0 0
130009.0 537330.0 0
134010.0 537372.0 0
138068.0 537068.0 0
142037.0 536598.0 0
146030.0 536772.0 0
150027.0 536722.0 0
154025.0 536766.0 0
158023.0 536845.0 0
162021.0 536927.0 0
166020.0 536980.0 0
170019.0 537004.0 0
174019.0 537011.0 0
178019.0 537009.0 0
182021.0 536983.0 0
186022.0 536952.0 0
190031.0 536901.0 0
194034.0 536863.0 0
198034.0 536794.0 0
202034.0 536778.0 0
206031.0 536650.0 0
210030.0 536743.0 0
214065.0 536430.0 0
218174.0 537241.0 0
222226.0 536889.0 0
226244.0 537137.0 0
230174.0 536446.0 0
234146.0 536784.0 0
238123.0 536488.0 0
242098.0 536813.0 0
246081.0 536598.0 0
250060.0 536907.0 0
254044.0 536649.0 0
258037.0 536657.0 0
262031.0 536620.0 0
266027.0 536630.0 0
270023.0 536600.0 0
274020.0 536632.0 0
278018.0 536580.0 0
282016.0 536621.0 0
286015.0 536605.0 0
290013.0 536684.0 0
294012.0 536735.0 0
298011.0 536818.0 0
302010.0 536876.0 0
306008.0 536947.0 0
310008.0 537002.0 0
314007.0 537047.0 0
318007.0 537040.0 0
322005.0 536977.0 0
326005.0 536946.0 0
330004.0 536934.0 0
334004.0 536913.0 0
338003.0 536853.0 0
342002.0 536760.0 0
346001.0 536707.0 0
350001.0 536648.0 0
354001.0 536655.0 0
358000.0 536653.0 0
362006.0 536898.0 0
366025.0 537140.0 0
370024.0 537231.0 0
374020.0 537064.0 0
378015.0 536869.0 0
382008.0 536655.0 0
386005.0 536499.0 0
390004.0 536436.0 0
394004.0 536443.0 0
398004.0 536467.0 0
102000.0 540480.0 0
106000.0 540472.0 0
110000.0 540434.0 0
114000.0 540551.0 0
118000.0 540722.0 0
122001.0 540971.0 0
126004.0 541156.0 0
130008.0 541306.0 0
134007.0 541352.0 0
137993.0 541021.0 0
142000.0 540601.0 0
145997.0 540764.0 0
149997.0 540720.0 0
153997.0 540765.0 0
157997.0 540845.0 0
161998.0 540927.0 0
165998.0 540979.0 0
169997.0 540999.0 0
173997.0 541004.0 0
177997.0 541001.0 0
181996.0 540974.0 0
185995.0 540943.0 0
189994.0 540891.0 0
193993.0 540854.0 0
197990.0 540782.0 0
201988.0 540771.0 0
205982.0 540637.0 0
209978.0 540742.0 0
213960.0 540413.0 0
217872.0 541227.0 0
221851.0 540871.0 0
225841.0 541078.0 0
229973.0 540416.0 0
233988.0 540776.0 0
237985.0 540469.0 0
241997.0 540809.0 0
245996.0 540586.0 0
249999.0 540904.0 0
253999.0 540641.0 0
257999.0 540650.0 0
261999.0 540609.0 0
265999.0 540621.0 0
269999.0 540587.0 0
274000.0 540622.0 0
277999.0 540560.0 0
281999.0 540604.0 0
285999.0 540580.0 0
289999.0 540663.0 0
293999.0 540712.0 0
297999.0 540797.0 0
301999.0 540855.0 0
305999.0 540927.0 0
309999.0 540982.0 0
313999.0 541027.0 0
317999.0 541016.0 0
322000.0 540958.0 0
326000.0 540931.0 0
330000.0 540927.0 0
334000.0 540903.0 0
338000.0 540841.0 0
342000.0 540748.0 0
346000.0 540698.0 0
350000.0 540643.0 0
354000.0 540655.0 0
358000.0 540653.0 0
361997.0 540877.0 0
365989.0 541128.0 0
369987.0 541219.0 0
373995.0 541059.0 0
377999.0 540867.0 0
382000.0 540654.0 0
386000.0 540499.0 0
390000.0 540436.0 0
394000.0 540443.0 0
398000.0 540467.0 0
102000.0 544473.0 0
106000.0 544464.0 0
110000.0 544434.0 0
114000.0 544551.0 0
118000.0 544719.0 0
122000.0 544955.0 0
125997.0 545137.0 0
129994.0 545285.0 0
133994.0 545333.0 0
138004.0 544982.0 0
142000.0 544601.0 0
146000.0 544757.0 0
150000.0 544719.0 0
154000.0 544765.0 0
158000.0 544844.0 0
162000.0 544926.0 0
166000.0 544979.0 0
170000.0 544996.0 0
174000.0 544999.0 0
178000.0 544996.0 0
182000.0 544968.0 0
186000.0 544936.0 0
190000.0 544884.0 0
194000.0 544848.0 0
198000.0 544772.0 0
202000.0 544767.0 0
206001.0 544628.0 0
210000.0 544741.0 0
214004.0 544401.0 0
218020.0 545222.0 0
222050.0 544865.0 0
226076.0 545040.0 0
230022.0 544395.0 0
234002.0 544773.0 0
238001.0 544455.0 0
242000.0 544807.0 0
246000.0 544577.0 0
250000.0 544902.0 0
254000.0 544636.0 0
258000.0 544645.0 0
262000.0 544600.0 0
266000.0 544614.0 0
270000.0 544576.0 0
274000.0 544614.0 0
278000.0 544544.0 0
282000.0 544590.0 0
286000.0 544559.0 0
290000.0 544645.0 0
294000.0 544692.0 0
298000.0 544780.0 0
302000.0 544836.0 0
306000.0 544910.0 0
310000.0 544965.0 0
314000.0 545011.0 0
318000.0 544996.0 0
322000.0 544941.0 0
326000.0 544919.0 0
330000.0 544920.0 0
334000.0 544895.0 0
338000.0 544831.0 0
342000.0 544739.0 0
346000.0 544689.0 0
350000.0 544639.0 0
354000.0 544655.0 0
358000.0 544653.0 0
362000.0 544861.0 0
366002.0 545119.0 0
370004.0 545207.0 0
374001.0 545053.0 0
378000.0 544865.0 0
382000.0 544653.0 0
386000.0 544498.0 0
390000.0 544436.0 0
394000.0 544443.0 0
398000.0 544467.0 0
102000.0 548469.0 0
106000.0 548458.0 0
110000.0 548434.0 0
114000.0 548551.0 0
118000.0 548717.0 0
122000.0 548942.0 0
126000.0 549121.0 0
130001.0 549267.0 0
134002.0 549316.0 0
137999.0 548950.0 0
142000.0 548601.0 0
146000.0 548752.0 0
150000.0 548717.0 0
154000.0 548764.0 0
158000.0 548844.0 0
162000.0 548926.0 0
166000.0 548979.0 0
170000.0 548995.0 0
174000.0 548996.0 0
178000.0 548993.0 0
182000.0 548964.0 0
186000.0 548932.0 0
190000.0 548879.0 0
194000.0 548843.0 0
198000.0 548766.0 0
202000.0 548764.0 0
206000.0 548621.0 0
210000.0 548740.0 0
214000.0 548391.0 0
217997.0 549219.0 0
221987.0 548864.0 0
225983.0 549013.0 0
229999.0 548380.0 0
234000.0 548769.0 0
238000.0 548445.0 0
242000.0 548805.0 0
246000.0 548570.0 0
250000.0 548900.0 0
254000.0 548632.0 0
258000.0 548642.0 0
262000.0 548594.0 0
266000.0 548609.0 0
270000.0 548568.0 0
274000.0 548608.0 0
278000.0 548531.0 0
282000.0 548578.0 0
286000.0 548541.0 0
290000.0 548630.0 0
294000.0 548677.0 0
298000.0 548766.0 0
302000.0 548821.0 0
306000.0 548896.0 0
310000.0 548951.0 0
314000.0 548998.0 0
318000.0 548979.0 0
322000.0 548928.0 0
326000.0 548910.0 0
330000.0 548914.0 0
334000.0 548888.0 0
338000.0 548822.0 0
342000.0 548732.0 0
346000.0 548683.0 0
350000.0 548636.0 0
354000.0 548655.0 0
358000.0 548653.0 0
362000.0 548848.0 0
366000.0 549111.0 0
369999.0 549197.0 0
374000.0 549049.0 0
378000.0 548863.0 0
382000.0 548651.0 0
386000.0 548498.0 0
390000.0 548436.0 0
394000.0 548443.0 0
398000.0 548467.0 0
102000.0 552468.0 0
106000.0 552454.0 0
110000.0 552434.0 0
114000.0 552551.0 0
118000.0 552714.0 0
122000.0 552933.0 0
126000.0 553109.0 0
130000.0 553252.0 0
134000.0 553303.0 0
138000.0 552925.0 0
142000.0 552601.0 0
146000.0 552747.0 0
150000.0 552715.0 0
154000.0 552763.0 0
158000.0 552844.0 0
162000.0 552926.0 0
166000.0 552978.0 0
170000.0 552994.0 0
174000.0 552995.0 0
178000.0 552991.0 0
182000.0 552961.0 0
186000.0 552929.0 0
190000.0 552875.0 0
194000.0 552840.0 0
198000.0 552761.0 0
202000.0 552762.0 0
206000.0 552616.0 0
210000.0 552739.0 0
214000.0 552384.0 0
222001.0 552863.0 0
226002.0 552994.0 0
230000.0 552369.0 0
234000.0 552767.0 0
238000.0 552438.0 0
242000.0 552804.0 0
246000.0 552566.0 0
250000.0 552899.0 0
254000.0 552629.0 0
258000.0 552640.0 0
262000.0 552589.0 0
266000.0 552606.0 0
270000.0 552562.0 0
274000.0 552603.0 0
278000.0 552521.0 0
282000.0 552570.0 0
286000.0 552528.0 0
290000.0 552619.0 0
294000.0 552665.0 0
298000.0 552755.0 0
302000.0 552809.0 0
306000.0 552885.0 0
310000.0 552941.0 0
314000.0 552988.0 0
318000.0 552966.0 0
322000.0 552919.0 0
326000.0 552904.0 0
330000.0 552909.0 0
334000.0 552882.0 0
338000.0 552816.0 0
342000.0 552726.0 0
346000.0 552678.0 0
350000.0 552634.0 0
354000.0 552655.0 0
358000.0 552653.0 0
362000.0 552840.0 0
366000.0 553105.0 0
370000.0 553189.0 0
374000.0 553045.0 0
378000.0 552862.0 0
382000.0 552651.0 0
386000.0 552498.0 0
390000.0 552436.0 0
394000.0 552443.0 0
398000.0 552467.0 0
218000.0 553218.0 0
102000.0 556467.0 0
106000.0 556451.0 0
110000.0 556434.0 0
114000.0 556551.0 0
118000.0 556713.0 0
122000.0 556926.0 0
126000.0 557101.0 0
130000.0 557243.0 0
134000.0 557294.0 0
138000.0 556909.0 0
142000.0 556601.0 0
146000.0 556744.0 0
150000.0 556713.0 0
154000.0 556762.0 0
158000.0 556843.0 0
162000.0 556926.0 0
166000.0 556978.0 0
170000.0 556993.0 0
174000.0 556994.0 0
178000.0 556990.0 0
182000.0 556959.0 0
186000.0 556927.0 0
190000.0 556873.0 0
194000.0 556838.0 0
198000.0 556758.0 0
202000.0 556761.0 0
206000.0 556613.0 0
210000.0 556739.0 0
214000.0 556380.0 0
218000.0 557216.0 0
222000.0 556862.0 0
226000.0 556981.0 0
230000.0 556362.0 0
234000.0 556765.0 0
238000.0 556434.0 0
242000.0 556803.0 0
246000.0 556563.0 0
250000.0 556898.0 0
254000.0 556628.0 0
258000.0 556638.0 0
262000.0 556586.0 0
266000.0 556603.0 0
270000.0 556558.0 0
274000.0 556601.0 0
278000.0 556514.0 0
282000.0 556564.0 0
286000.0 556520.0 0
290000.0 556612.0 0
294000.0 556656.0 0
298000.0 556748.0 0
302000.0 556802.0 0
306000.0 556878.0 0
310000.0 556934.0 0
314000.0 556982.0 0
318000.0 556958.0 0
322000.0 556912.0 0
326000.0 556900.0 0
330000.0 556906.0 0
334000.0 556879.0 0
338000.0 556812.0 0
342000.0 556723.0 0
346000.0 556675.0 0
350000.0 556633.0 0
354000.0 556655.0 0
358000.0 556653.0 0
362000.0 556834.0 0
366000.0 557102.0 0
370000.0 557184.0 0
374000.0 557042.0 0
378000.0 556860.0 0
382000.0 556650.0 0
386000.0 556497.0 0
390000.0 556436.0 0
394000.0 556443.0 0
398000.0 556467.0 0
102000.0 560467.0 0
106000.0 560449.0 0
110000.0 560434.0 0
114000.0 560551.0 0
118000.0 560712.0 0
122000.0 560923.0 0
138000.0 560901.0 0
142000.0 560601.0 0
146000.0 560742.0 0
150000.0 560713.0 0
154000.0 560762.0 0
158000.0 560843.0 0
162000.0 560926.0 0
166000.0 560978.0 0
182000.0 560958.0 0
186000.0 560926.0 0
190000.0 560872.0 0
194000.0 560837.0 0
198000.0 560756.0 0
202000.0 560761.0 0
206000.0 560612.0 0
210000.0 560738.0 0
214000.0 560377.0 0
222000.0 560862.0 0
226000.0 560975.0 0
230000.0 560358.0 0
234000.0 560764.0 0
238000.0 560432.0 0
242000.0 560803.0 0
246000.0 560562.0 0
250000.0 560898.0 0
254000.0 560627.0 0
258000.0 560638.0 0
262000.0 560585.0 0
266000.0 560602.0 0
270000.0 560556.0 0
274000.0 560599.0 0
278000.0 560511.0 0
282000.0 560562.0 0
286000.0 560515.0 0
290000.0 560609.0 0
294000.0 560652.0 0
298000.0 560744.0 0
302000.0 560798.0 0
306000.0 560874.0 0
310000.0 560930.0 0
314000.0 560979.0 0
318000.0 560954.0 0
322000.0 560909.0 0
326000.0 560898.0 0
330000.0 560905.0 0
334000.0 560877.0 0
338000.0 560810.0 0
342000.0 560721.0 0
346000.0 560673.0 0
350000.0 560632.0 0
354000.0 560655.0 0
358000.0 560653.0 0
362000.0 560832.0 0
366000.0 561100.0 0
374000.0 561041.0 0
378000.0 560860.0 0
382000.0 560649.0 0
386000.0 560497.0 0
390000.0 560436.0 0
394000.0 560443.0 0
398000.0 560467.0 0
126000.0 561097.0 0
130000.0 561238.0 0
134000.0 561289.0 0
170000.0 560993.0 0
174000.0 560994.0 0
178000.0 560990.0 0
218000.0 561216.0 0
370000.0 561181.0 0
POINT_DATA 4650
SCALARS Radius float 1
LOOKUP_TABLE default
4000.0 4000.0 4000.0 4000.0 4000.0 4000.0 4000.0 4000.0 4000.0 4000.0 4000.0 4000.0 4000.0 4000.0 4000.0 4000.0 4000.0 4000.0 4000.0 4000.0 4000.0 4000.0 4000.0 4000.0 4000.0 4000.0 4000.0 4000.0 4000.0 4000.0 4000.0 4000.0 4000.0 4000.0 4000.0 4000.0 4000.0 4000.0 4000.0 4000.0 4000.0 4000.0 4000.0 4000.0 4000.0 4000.0 4000.0 4000.0 4000.0 4000.0 4000.0 4000.0 4000.0 4000.0 4000.0 4000.0 4000.0 4000.0 4000.0 4000.0 4000.0 4000.0 4000.0 4000.0 4000.0 4000.0 4000.0 4000.0 4000.0 4000.0 4000.0 4000.0 4000.0 4000.0 4000.0 4000.0 4000.0 4000.0 4000.0 4000.0 4000.0 4000.0 4000.0 4000.0 4000.0 4000.0 4000.0 4000.0 4000.0 4000.0 4000.0 4000.0 4000.0 4000.0 4000.0 4000.0 4000.0 4000.0 4000.0 4000.0 4000.0 4000.0 4000.0 4000.0 4000.0 4000.0 4000.0 4000.0 4000.0 4000.0 4000.0 4000.0 4000.0 4000.0 4000.0 4000.0 4000.0 4000.0 4000.0 4000.0 4000.0 4000.0 4000.0 4000.0 4000.0 4000.0 4000.0 4000.0 4000.0 4000.0 4000.0 4000.0 4000.0 4000.0 4000.0 4000.0 4000.0 4000.0 4000.0 4000.0 4000.0 4000.0 4000.0 4000.0 4000.0 4000.0 4000.0 4000.0 4000.0 4000.0 4000.0 4000.0 4000.0 4000.0 4000.0 4000.0 4000.0 4000.0 4000.0 4000.0 4000.0 4000.0 4000.0 4000.0 4000.0 4000.0 4000.0 4000.0 4000.0 4000.0 4000.0 4000.0 4000.0 4000.0 4000.0 4000.0 4000.0 4000.0 4000.0 4000.0 4000.0 4000.0 4000.0 4000.0 4000.0 4000.0 4000.0 4000.0 4000.0 4000.0 4000.0 4000.0 4000.0 4000.0 4000.0 4000.0 4000.0 4000.0 4000.0 4000.0 4000.0 4000.0 4000.0 4000.0 4000.0 4000.0 4000.0 4000.0 4000.0 4000.0 4000.0 4000.0 4000.0 4000.0 4000.0 4000.0 4000.0 4000.0 4000.0 4000.0 4000.0 4000.0 4000.0 4000.0 4000.0 4000.0 4000.0 4000.0 4000.0 4000.0 4000.0 4000.0 4000.0 4000.0 4000.0 4000.0 4000.0 4000.0 4000.0 4000.0 4000.0 4000.0 4000.0 4000.0 4000.0 4000.0 4000.0 4000.0 4000.0 4000.0 4000.0 4000.0 4000.0 4000.0 4000.0 4000.0 4000.0 4000.0 4000.0 4000.0 4000.0 4000.0 4000.0 4000.0 4000.0 4000.0 4000.0 4000.0 4000.0 4000.0 4000.0 4000.0 4000.0 4000.0 4000.0 4000.0 4000.0 4000.0 4000.0 4000.0 4000.0 4000.0 4000.0 4000.0 4000.0 4000.0 4000.0 4000.0 4000.0 4000.0 4000.0 4000.0 4000.0 4000.0 4000.0 4000.0 4000.0 4000.0 4000.0 4000.0 4000.0 4000.0 4000.0 4000.0 4000.0 4000.0 4000.0 4000.0 4000.0 4000.0 4000.0 4000.0 4000.0 4000.0 4000.0 4000.0 4000.0 4000.0 4000.0 4000.0 4000.0 4000.0 4000.0 4000.0 4000.0 4000.0 4000.0 4000.0 4000.0 4000.0 4000.0 4000.0 4000.0 4000.0 4000.0 4000.0 4000.0 4000.0 4000.0 4000.0 4000.0 4000.0 4000.0 4000.0 4000.0 4000.0 4000.0 4000.0 4000.0 4000.0 4000.0 4000.0 4000.0 4000.0 4000.0 4000.0 4000.0 4000.0 4000.0 4000.0 4000.0 4000.0 4000.0 4000.0 4000.0 4000.0 4000.0 4000.0 4000.0 4000.0 4000.0 4000.0 4000.0 4000.0 4000.0 4000.0 4000.0 4000.0 4000.0 4000.0 4000.0 4000.0 4000.0 4000.0 4000.0 4000.0 4000.0 4000.0 4000.0 4000.0 4000.0 4000.0 4000.0 4000.0 4000.0 4000.0 4000.0 4000.0 4000.0 4000.0 4000.0 4000.0 4000.0 4000.0 4000.0 4000.0 4000.0 4000.0 4000.0 4000.0 4000.0 4000.0 4000.0 4000.0 4000.0 4000.0 4000.0 4000.0 4000.0 4000.0 4000.0 4000.0 4000.0 4000.0 4000.0 4000.0 4000.0 4000.0 4000.0 4000.0 4000.0 4000.0 4000.0 4000.0 4000.0 4000.0 4000.0 4000.0 4000.0 4000.0 4000.0 4000.0 4000.0 4000.0 4000.0 4000.0 4000.0 4000.0 4000.0 4000.0 4000.0 4000.0 4000.0 4000.0 4000.0 4000.0 4000.0 4000.0 4000.0 4000.0 4000.0 4000.0 4000.0 4000.0 4000.0 4000.0 4000.0 4000.0 4000.0 4000.0 4000.0 4000.0 4000.0 4000.0 4000.0 4000.0 4000.0 4000.0 4000.0 4000.0 4000.0 4000.0 4000.0 4000.0 4000.0 4000.0 4000.0 4000.0 4000.0 4000.0 4000.0 4000.0 4000.0 4000.0 4000.0 4000.0 4000.0 4000.0 4000.0 4000.0 4000.0 4000.0 4000.0 4000.0 4000.0 4000.0 4000.0 4000.0 4000.0 4000.0 4000.0 4000.0 4000.0 4000.0 4000.0 4000.0 4000.0 4000.0 4000.0 4000.0 4000.0 4000.0 4000.0 4000.0 4000.0 4000.0 4000.0 4000.0 4000.0 4000.0 4000.0 4000.0 4000.0 4000.0 4000.0 4000.0 4000.0 4000.0 4000.0 4000.0 4000.0 4000.0 4000.0 4000.0 4000.0 4000.0 4000.0 4000.0 4000.0 4000.0 4000.0 4000.0 4000.0 4000.0 4000.0 4000.0 4000.0 4000.0 4000.0 4000.0 4000.0 4000.0 4000.0 4000.0 4000.0 4000.0 4000.0 4000.0 4000.0 4000.0 4000.0 4000.0 4000.0 4000.0 4000.0 4000.0 4000.0 4000.0 4000.0 4000.0 4000.0 4000.0 4000.0 4000.0 4000.0 4000.0 4000.0 4000.0 4000.0 4000.0 4000.0 4000.0 4000.0 4000.0 4000.0 4000.0 4000.0 4000.0 4000.0 4000.0 4000.0 4000.0 4000.0 4000.0 4000.0 4000.0 4000.0 4000.0 4000.0 4000.0 4000.0 4000.0 4000.0 4000.0 4000.0 4000.0 4000.0 4000.0 4000.0 4000.0 4000.0 4000.0 4000.0 4000.0 4000.0 4000.0 4000.0 4000.0 4000.0 4000.0 4000.0 4000.0 4000.0 4000.0 4000.0 4000.0 4000.0 4000.0 4000.0 4000.0 4000.0 4000.0 4000.0 4000.0 4000.0 4000.0 4000.0 4000.0 4000.0 4000.0 4000.0 4000.0 4000.0 4000.0 4000.0 4000.0 4000.0 4000.0 4000.0 4000.0 4000.0 4000.0 4000.0 4000.0 4000.0 4000.0 4000.0 4000.0 4000.0 4000.0 4000.0 4000.0 4000.0 4000.0 4000.0 4000.0 4000.0 4000.0 4000.0 4000.0 4000.0 4000.0 4000.0 4000.0 4000.0 4000.0 4000.0 4000.0 4000.0 4000.0 4000.0 4000.0 4000.0 4000.0 4000.0 4000.0 4000.0 4000.0 4000.0 4000.0 4000.0 4000.0 4000.0 4000.0 4000.0 4000.0 4000.0 4000.0 4000.0 4000.0 4000.0 4000.0 4000.0 4000.0 4000.0 4000.0 4000.0 4000.0 4000.0 4000.0 4000.0 4000.0 4000.0 4000.0 4000.0 4000.0 4000.0 4000.0 4000.0 4000.0 4000.0 4000.0 4000.0 4000.0 4000.0 4000.0 4000.0 4000.0 4000.0 4000.0 4000.0 4000.0 4000.0 4000.0 4000.0 4000.0 4000.0 4000.0 4000.0 4000.0 4000.0 4000.0 4000.0 4000.0 4000.0 4000.0 4000.0 4000.0 4000.0 4000.0 4000.0 4000.0 4000.0 4000.0 4000.0 4000.0 4000.0 4000.0 4000.0 4000.0 4000.0 4000.0 4000.0 4000.0 4000.0 4000.0 4000.0 4000.0 4000.0 4000.0 4000.0 4000.0 4000.0 4000.0 4000.0 4000.0 4000.0 4000.0 4000.0 4000.0 4000.0 4000.0 4000.0 4000.0 4000.0 4000.0 4000.0 4000.0 4000.0 4000.0 4000.0 4000.0 4000.0 4000.0 4000.0 4000.0 4000.0 4000.0 4000.0 4000.0 4000.0 4000.0 4000.0 4000.0 4000.0 4000.0 4000.0 4000.0 4000.0 4000.0 4000.0 4000.0 4000.0 4000.0 4000.0 4000.0 4000.0 4000.0 4000.0 4000.0 4000.0 4000.0 4000.0 4000.0 4000.0 4000.0 4000.0 4000.0 4000.0 4000.0 4000.0 4000.0 4000.0 4000.0 4000.0 4000.0 4000.0 4000.0 4000.0 4000.0 4000.0 4000.0 4000.0 4000.0 4000.0 4000.0 4000.0 4000.0 4000.0 4000.0 4000.0 4000.0 4000.0 4000.0 4000.0 4000.0 4000.0 4000.0 4000.0 4000.0 4000.0 4000.0 4000.0 4000.0 4000.0 4000.0 4000.0 4000.0 4000.0 4000.0 4000.0 4000.0 4000.0 4000.0 4000.0 4000.0 4000.0 4000.0 4000.0 4000.0 4000.0 4000.0 4000.0 4000.0 4000.0 4000.0 4000.0 4000.0 4000.0 4000.0 4000.0 4000.0 4000.0 4000.0 4000.0 4000.0 4000.0 4000.0 4000.0 4000.0 4000.0 4000.0 4000.0 4000.0 4000.0 4000.0 4000.0 4000.0 4000.0 4000.0 4000.0 4000.0 4000.0 4000.0 4000.0 4000.0 4000.0 4000.0 4000.0 4000.0 4000.0 4000.0 4000.0 4000.0 4000.0 4000.0 4000.0 4000.0 4000.0 4000.0 4000.0 4000.0 4000.0 4000.0 4000.0 4000.0 4000.0 4000.0 4000.0 4000.0 4000.0 4000.0 4000.0 4000.0 4000.0 4000.0 4000.0 4000.0 4000.0 4000.0 4000.0 4000.0 4000.0 4000.0 4000.0 4000.0 4000.0 4000.0 4000.0 4000.0 4000.0 4000.0 4000.0 4000.0 4000.0 4000.0 4000.0 4000.0 4000.0 4000.0 4000.0 4000.0 4000.0 4000.0 4000.0 4000.0 4000.0 4000.0 4000.0 4000.0 4000.0 4000.0 4000.0 4000.0 4000.0 4000.0 4000.0 4000.0 4000.0 4000.0 4000.0 4000.0 4000.0 4000.0 4000.0 4000.0 4000.0 4000.0 4000.0 4000.0 4000.0 4000.0 4000.0 4000.0 4000.0 4000.0 4000.0 4000.0 4000.0 4000.0 4000.0 4000.0 4000.0 4000.0 4000.0 4000.0 4000.0 4000.0 4000.0 4000.0 4000.0 4000.0 4000.0 4000.0 4000.0 4000.0 4000.0 4000.0 4000.0 4000.0 4000.0 4000.0 4000.0 4000.0 4000.0 4000.0 4000.0 4000.0 4000.0 4000.0 4000.0 4000.0 4000.0 4000.0 4000.0 4000.0 4000.0 4000.0 4000.0 4000.0 4000.0 4000.0 4000.0 4000.0 4000.0 4000.0 4000.0 4000.0 4000.0 4000.0 4000.0 4000.0 4000.0 4000.0 4000.0 4000.0 4000.0 4000.0 4000.0 4000.0 4000.0 4000.0 4000.0 4000.0 4000.0 4000.0 4000.0 4000.0 4000.0 4000.0 4000.0 4000.0 4000.0 4000.0 4000.0 4000.0 4000.0 4000.0 4000.0 4000.0 4000.0 4000.0 4000.0 4000.0 4000.0 4000.0 4000.0 4000.0 4000.0 4000.0 4000.0 4000.0 4000.0 4000.0 4000.0 4000.0 4000.0 4000.0 4000.0 4000.0 4000.0 4000.0 4000.0 4000.0 4000.0 4000.0 4000.0 4000.0 4000.0 4000.0 4000.0 4000.0 4000.0 4000.0 4000.0 4000.0 4000.0 4000.0 4000.0 4000.0 4000.0 4000.0 4000.0 4000.0 4000.0 4000.0 4000.0 4000.0 4000.0 4000.0 4000.0 4000.0 4000.0 4000.0 4000.0 4000.0 4000.0 4000.0 4000.0 4000.0 4000.0 4000.0 4000.0 4000.0 4000.0 4000.0 4000.0 4000.0 4000.0 4000.0 4000.0 4000.0 4000.0 4000.0 4000.0 4000.0 4000.0 4000.0 4000.0 4000.0 4000.0 4000.0 4000.0 4000.0 4000.0 4000.0 4000.0 4000.0 4000.0 4000.0 4000.0 4000.0 4000.0 4000.0 4000.0 4000.0 4000.0 4000.0 4000.0 4000.0 4000.0 4000.0 4000.0 4000.0 4000.0 4000.0 4000.0 4000.0 4000.0 4000.0 4000.0 4000.0 4000.0 4000.0 4000.0 4000.0 4000.0 4000.0 4000.0 4000.0 4000.0 4000.0 4000.0 4000.0 4000.0 4000.0 4000.0 4000.0 4000.0 4000.0 4000.0 4000.0 4000.0 4000.0 4000.0 4000.0 4000.0 4000.0 4000.0 4000.0 4000.0 4000.0 4000.0 4000.0 4000.0 4000.0 4000.0 4000.0 4000.0 4000.0 4000.0 4000.0 4000.0 4000.0 4000.0 4000.0 4000.0 4000.0 4000.0 4000.0 4000.0 4000.0 4000.0 4000.0 4000.0 4000.0 4000.0 4000.0 4000.0 4000.0 4000.0 4000.0 4000.0 4000.0 4000.0 4000.0 4000.0 4000.0 4000.0 4000.0 4000.0 4000.0 4000.0 4000.0 4000.0 4000.0 4000.0 4000.0 4000.0 4000.0 4000.0 4000.0 4000.0 4000.0 4000.0 4000.0 4000.0 4000.0 4000.0 4000.0 4000.0 4000.0 4000.0 4000.0 4000.0 4000.0 4000.0 4000.0 4000.0 4000.0 4000.0 4000.0 4000.0 4000.0 4000.0 4000.0 4000.0 4000.0 4000.0 4000.0 4000.0 4000.0 4000.0 4000.0 4000.0 4000.0 4000.0 4000.0 4000.0 4000.0 4000.0 4000.0 4000.0 4000.0 4000.0 4000.0 4000.0 4000.0 4000.0 4000.0 4000.0 4000.0 4000.0 4000.0 4000.0 4000.0 4000.0 4000.0 4000.0 4000.0 4000.0 4000.0 4000.0 4000.0 4000.0 4000.0 4000.0 4000.0 4000.0 4000.0 4000.0 4000.0 4000.0 4000.0 4000.0 4000.0 4000.0 4000.0 4000.0 4000.0 4000.0 4000.0 4000.0 4000.0 4000.0 4000.0 4000.0 4000.0 4000.0 4000.0 4000.0 4000.0 4000.0 4000.0 4000.0 4000.0 4000.0 4000.0 4000.0 4000.0 4000.0 4000.0 4000.0 4000.0 4000.0 4000.0 4000.0 4000.0 4000.0 4000.0 4000.0 4000.0 4000.0 4000.0 4000.0 4000.0 4000.0 4000.0 4000.0 4000.0 4000.0 4000.0 4000.0 4000.0 4000.0 4000.0 4000.0 4000.0 4000.0 4000.0 4000.0 4000.0 4000.0 4000.0 4000.0 4000.0 4000.0 4000.0 4000.0 4000.0 4000.0 4000.0 4000.0 4000.0 4000.0 4000.0 4000.0 4000.0 4000.0 4000.0 4000.0 4000.0 4000.0 4000.0 4000.0 4000.0 4000.0 4000.0 4000.0 4000.0 4000.0 4000.0 4000.0 4000.0 4000.0 4000.0 4000.0 4000.0 4000.0 4000.0 4000.0 4000.0 4000.0 4000.0 4000.0 4000.0 4000.0 4000.0 4000.0 4000.0 4000.0 4000.0 4000.0 4000.0 4000.0 4000.0 4000.0 4000.0 4000.0 4000.0 4000.0 4000.0 4000.0 4000.0 4000.0 4000.0 4000.0 4000.0 4000.0 4000.0 4000.0 4000.0 4000.0 4000.0 4000.0 4000.0 4000.0 4000.0 4000.0 4000.0 4000.0 4000.0 4000.0 4000.0 4000.0 4000.0 4000.0 4000.0 4000.0 4000.0 4000.0 4000.0 4000.0 4000.0 4000.0 4000.0 4000.0 4000.0 4000.0 4000.0 4000.0 4000.0 4000.0 4000.0 4000.0 4000.0 4000.0 4000.0 4000.0 4000.0 4000.0 4000.0 4000.0 4000.0 4000.0 4000.0 4000.0 4000.0 4000.0 4000.0 4000.0 4000.0 4000.0 4000.0 4000.0 4000.0 4000.0 4000.0 4000.0 4000.0 4000.0 4000.0 4000.0 4000.0 4000.0 4000.0 4000.0 4000.0 4000.0 4000.0 4000.0 4000.0 4000.0 4000.0 4000.0 4000.0 4000.0 4000.0 4000.0 4000.0 4000.0 4000.0 4000.0 4000.0 4000.0 4000.0 4000.0 4000.0 4000.0 4000.0 4000.0 4000.0 4000.0 4000.0 4000.0 4000.0 4000.0 4000.0 4000.0 4000.0 4000.0 4000.0 4000.0 4000.0 4000.0 4000.0 4000.0 4000.0 4000.0 4000.0 4000.0 4000.0 4000.0 4000.0 4000.0 4000.0 4000.0 4000.0 4000.0 4000.0 4000.0 4000.0 4000.0 4000.0 4000.0 4000.0 4000.0 4000.0 4000.0 4000.0 4000.0 4000.0 4000.0 4000.0 4000.0 4000.0 4000.0 4000.0 4000.0 4000.0 4000.0 4000.0 4000.0 4000.0 4000.0 4000.0 4000.0 4000.0 4000.0 4000.0 4000.0 4000.0 4000.0 4000.0 4000.0 4000.0 4000.0 4000.0 4000.0 4000.0 4000.0 4000.0 4000.0 4000.0 4000.0 4000.0 4000.0 4000.0 4000.0 4000.0 4000.0 4000.0 4000.0 4000.0 4000.0 4000.0 4000.0 4000.0 4000.0 4000.0 4000.0 4000.0 4000.0 4000.0 4000.0 4000.0 4000.0 4000.0 4000.0 4000.0 4000.0 4000.0 4000.0 4000.0 4000.0 4000.0 4000.0 4000.0 4000.0 4000.0 4000.0 4000.0 4000.0 4000.0 4000.0 4000.0 4000.0 4000.0 4000.0 4000.0 4000.0 4000.0 4000.0 4000.0 4000.0 4000.0 4000.0 4000.0 4000.0 4000.0 4000.0 4000.0 4000.0 4000.0 4000.0 4000.0 4000.0 4000.0 4000.0 4000.0 4000.0 4000.0 4000.0 4000.0 4000.0 4000.0 4000.0 4000.0 4000.0 4000.0 4000.0 4000.0 4000.0 4000.0 4000.0 4000.0 4000.0 4000.0 4000.0 4000.0 4000.0 4000.0 4000.0 4000.0 4000.0 4000.0 4000.0 4000.0 4000.0 4000.0 4000.0 4000.0 4000.0 4000.0 4000.0 4000.0 4000.0 4000.0 4000.0 4000.0 4000.0 4000.0 4000.0 4000.0 4000.0 4000.0 4000.0 4000.0 4000.0 4000.0 4000.0 4000.0 4000.0 4000.0 4000.0 4000.0 4000.0 4000.0 4000.0 4000.0 4000.0 4000.0 4000.0 4000.0 4000.0 4000.0 4000.0 4000.0 4000.0 4000.0 4000.0 4000.0 4000.0 4000.0 4000.0 4000.0 4000.0 4000.0 4000.0 4000.0 4000.0 4000.0 4000.0 4000.0 4000.0 4000.0 4000.0 4000.0 4000.0 4000.0 4000.0 4000.0 4000.0 4000.0 4000.0 4000.0 4000.0 4000.0 4000.0 4000.0 4000.0 4000.0 4000.0 4000.0 4000.0 4000.0 4000.0 4000.0 4000.0 4000.0 4000.0 4000.0 4000.0 4000.0 4000.0 4000.0 4000.0 4000.0 4000.0 4000.0 4000.0 4000.0 4000.0 4000.0 4000.0 4000.0 4000.0 4000.0 4000.0 4000.0 4000.0 4000.0 4000.0 4000.0 4000.0 4000.0 4000.0 4000.0 4000.0 4000.0 4000.0 4000.0 4000.0 4000.0 4000.0 4000.0 4000.0 4000.0 4000.0 4000.0 4000.0 4000.0 4000.0 4000.0 4000.0 4000.0 4000.0 4000.0 4000.0 4000.0 4000.0 4000.0 4000.0 4000.0 4000.0 4000.0 4000.0 4000.0 4000.0 4000.0 4000.0 4000.0 4000.0 4000.0 4000.0 4000.0 4000.0 4000.0 4000.0 4000.0 4000.0 4000.0 4000.0 4000.0 4000.0 4000.0 4000.0 4000.0 4000.0 4000.0 4000.0 4000.0 4000.0 4000.0 4000.0 4000.0 4000.0 4000.0 4000.0 4000.0 4000.0 4000.0 4000.0 4000.0 4000.0 4000.0 4000.0 4000.0 4000.0 4000.0 4000.0 4000.0 4000.0 4000.0 4000.0 4000.0 4000.0 4000.0 4000.0 4000.0 4000.0 4000.0 4000.0 4000.0 4000.0 4000.0 4000.0 4000.0 4000.0 4000.0 4000.0 4000.0 4000.0 4000.0 4000.0 4000.0 4000.0 4000.0 4000.0 4000.0 4000.0 4000.0 4000.0 4000.0 4000.0 4000.0 4000.0 4000.0 4000.0 4000.0 4000.0 4000.0 4000.0 4000.0 4000.0 4000.0 4000.0 4000.0 4000.0 4000.0 4000.0 4000.0 4000.0 4000.0 4000.0 4000.0 4000.0 4000.0 4000.0 4000.0 4000.0 4000.0 4000.0 4000.0 4000.0 4000.0 4000.0 4000.0 4000.0 4000.0 4000.0 4000.0 4000.0 4000.0 4000.0 4000.0 4000.0 4000.0 4000.0 4000.0 4000.0 4000.0 4000.0 4000.0 4000.0 4000.0 4000.0 4000.0 4000.0 4000.0 4000.0 4000.0 4000.0 4000.0 4000.0 4000.0 4000.0 4000.0 4000.0 4000.0 4000.0 4000.0 4000.0 4000.0 4000.0 4000.0 4000.0 4000.0 4000.0 4000.0 4000.0 4000.0 4000.0 4000.0 4000.0 4000.0 4000.0 4000.0 4000.0 4000.0 4000.0 4000.0 4000.0 4000.0 4000.0 4000.0 4000.0 4000.0 4000.0 4000.0 4000.0 4000.0 4000.0 4000.0 4000.0 4000.0 4000.0 4000.0 4000.0 4000.0 4000.0 4000.0 4000.0 4000.0 4000.0 4000.0 4000.0 4000.0 4000.0 4000.0 4000.0 4000.0 4000.0 4000.0 4000.0 4000.0 4000.0 4000.0 4000.0 4000.0 4000.0 4000.0 4000.0 4000.0 4000.0 4000.0 4000.0 4000.0 4000.0 4000.0 4000.0 4000.0 4000.0 4000.0 4000.0 4000.0 4000.0 4000.0 4000.0 4000.0 4000.0 4000.0 4000.0 4000.0 4000.0 4000.0 4000.0 4000.0 4000.0 4000.0 4000.0 4000.0 4000.0 4000.0 4000.0 4000.0 4000.0 4000.0 4000.0 4000.0 4000.0 4000.0 4000.0 4000.0 4000.0 4000.0 4000.0 4000.0 4000.0 4000.0 4000.0 4000.0 4000.0 4000.0 4000.0 4000.0 4000.0 4000.0 4000.0 4000.0 4000.0 4000.0 4000.0 4000.0 4000.0 4000.0 4000.0 4000.0 4000.0 4000.0 4000.0 4000.0 4000.0 4000.0 4000.0 4000.0 4000.0 4000.0 4000.0 4000.0 4000.0 4000.0 4000.0 4000.0 4000.0 4000.0 4000.0 4000.0 4000.0 4000.0 4000.0 4000.0 4000.0 4000.0 4000.0 4000.0 4000.0 4000.0 4000.0 4000.0 4000.0 4000.0 4000.0 4000.0 4000.0 4000.0 4000.0 4000.0 4000.0 4000.0 4000.0 4000.0 4000.0 4000.0 4000.0 4000.0 4000.0 4000.0 4000.0 4000.0 4000.0 4000.0 4000.0 4000.0 4000.0 4000.0 4000.0 4000.0 4000.0 4000.0 4000.0 4000.0 4000.0 4000.0 4000.0 4000.0 4000.0 4000.0 4000.0 4000.0 4000.0 4000.0 4000.0 4000.0 4000.0 4000.0 4000.0 4000.0 4000.0 4000.0 4000.0 4000.0 4000.0 4000.0 4000.0 4000.0 4000.0 4000.0 4000.0 4000.0 4000.0 4000.0 4000.0 4000.0 4000.0 4000.0 4000.0 4000.0 4000.0 4000.0 4000.0 4000.0 4000.0 4000.0 4000.0 4000.0 4000.0 4000.0 4000.0 4000.0 4000.0 4000.0 4000.0 4000.0 4000.0 4000.0 4000.0 4000.0 4000.0 4000.0 4000.0 4000.0 4000.0 4000.0 4000.0 4000.0 4000.0 4000.0 4000.0 4000.0 4000.0 4000.0 4000.0 4000.0 4000.0 4000.0 4000.0 4000.0 4000.0 4000.0 4000.0 4000.0 4000.0 4000.0 4000.0 4000.0 4000.0 4000.0 4000.0 4000.0 4000.0 4000.0 4000.0 4000.0 4000.0 4000.0 4000.0 4000.0 4000.0 4000.0 4000.0 4000.0 4000.0 4000.0 4000.0 4000.0 4000.0 4000.0 4000.0 4000.0 4000.0 4000.0 4000.0 4000.0 4000.0 4000.0 4000.0 4000.0 4000.0 4000.0 4000.0 4000.0 4000.0 4000.0 4000.0 4000.0 4000.0 4000.0 4000.0 4000.0 4000.0 4000.0 4000.0 4000.0 4000.0 4000.0 4000.0 4000.0 4000.0 4000.0 4000.0 4000.0 4000.0 4000.0 4000.0 4000.0 4000.0 4000.0 4000.0 4000.0 4000.0 4000.0 4000.0 4000.0 4000.0 4000.0 4000.0 4000.0 4000.0 4000.0 4000.0 4000.0 4000.0 4000.0 4000.0 4000.0 4000.0 4000.0 4000.0 4000.0 4000.0 4000.0 4000.0 4000.0 4000.0 4000.0 4000.0 4000.0 4000.0 4000.0 4000.0 4000.0 4000.0 4000.0 4000.0 4000.0 4000.0 4000.0 4000.0 4000.0 4000.0 4000.0 4000.0 4000.0 4000.0 4000.0 4000.0 4000.0 4000.0 4000.0 4000.0 4000.0 4000.0 4000.0 4000.0 4000.0 4000.0 4000.0 4000.0 4000.0 4000.0 4000.0 4000.0 4000.0 4000.0 4000.0 4000.0 4000.0 4000.0 4000.0 4000.0 4000.0 4000.0 4000.0 4000.0 4000.0 4000.0 4000.0 4000.0 4000.0 4000.0 4000.0 4000.0 4000.0 4000.0 4000.0 4000.0 4000.0 4000.0 4000.0 4000.0 4000.0 4000.0 4000.0 4000.0 4000.0 4000.0 4000.0 4000.0 4000.0 4000.0 4000.0 4000.0 4000.0 4000.0 4000.0 4000.0 4000.0 4000.0 4000.0 4000.0 4000.0 4000.0 4000.0 4000.0 4000.0 4000.0 4000.0 4000.0 4000.0 4000.0 4000.0 4000.0 4000.0 4000.0 4000.0 4000.0 4000.0 4000.0 4000.0 4000.0 4000.0 4000.0 4000.0 4000.0 4000.0 4000.0 4000.0 4000.0 4000.0 4000.0 4000.0 4000.0 4000.0 4000.0 4000.0 4000.0 4000.0 4000.0 4000.0 4000.0 4000.0 4000.0 4000.0 4000.0 4000.0 4000.0 4000.0 4000.0 4000.0 4000.0 4000.0 4000.0 4000.0 4000.0 4000.0 4000.0 4000.0 4000.0 4000.0 4000.0 4000.0 4000.0 4000.0 4000.0 4000.0 4000.0 4000.0 4000.0 4000.0 4000.0 4000.0 4000.0 4000.0 4000.0 4000.0 4000.0 4000.0 4000.0 4000.0 4000.0 4000.0 4000.0 4000.0 4000.0 4000.0 4000.0 4000.0 4000.0 4000.0 4000.0 4000.0 4000.0 4000.0 4000.0 4000.0 4000.0 4000.0 4000.0 4000.0 4000.0 4000.0 4000.0 4000.0 4000.0 4000.0 4000.0 4000.0 4000.0 4000.0 4000.0 4000.0 4000.0 4000.0 4000.0 4000.0 4000.0 4000.0 4000.0 4000.0 4000.0 4000.0 4000.0 4000.0 4000.0 4000.0 4000.0 4000.0 4000.0 4000.0 4000.0 4000.0 4000.0 4000.0 4000.0 4000.0 4000.0 4000.0 4000.0 4000.0 4000.0 4000.0 4000.0 4000.0 4000.0 4000.0 4000.0 4000.0 4000.0 4000.0 4000.0 4000.0 4000.0 4000.0 4000.0 4000.0 4000.0 4000.0 4000.0 4000.0 4000.0 4000.0 4000.0 4000.0 4000.0 4000.0 4000.0 4000.0 4000.0 4000.0 4000.0 4000.0 4000.0 4000.0 4000.0 4000.0 4000.0 4000.0 4000.0 4000.0 4000.0 4000.0 4000.0 4000.0 4000.0 4000.0 4000.0 4000.0 4000.0 4000.0 4000.0 4000.0 4000.0 4000.0 4000.0 4000.0 4000.0 4000.0 4000.0 4000.0 4000.0 4000.0 4000.0 4000.0 4000.0 4000.0 4000.0 4000.0 4000.0 4000.0 4000.0 4000.0 4000.0 4000.0 4000.0 4000.0 4000.0 4000.0 4000.0 4000.0 4000.0 4000.0 4000.0 4000.0 4000.0 4000.0 4000.0 4000.0 4000.0 4000.0 4000.0 4000.0 4000.0 4000.0 4000.0 4000.0 4000.0 4000.0 4000.0 4000.0 4000.0 4000.0 4000.0 4000.0 4000.0 4000.0 4000.0 4000.0 4000.0 4000.0 4000.0 4000.0 4000.0 4000.0 4000.0 4000.0 4000.0 4000.0 4000.0 4000.0 4000.0 4000.0 4000.0 4000.0 4000.0 4000.0 4000.0 4000.0 4000.0 4000.0 4000.0 4000.0 4000.0 4000.0 4000.0 4000.0 4000.0 4000.0 4000.0 4000.0 4000.0 4000.0 4000.0 4000.0 4000.0 4000.0 4000.0 4000.0 4000.0 4000.0 4000.0 4000.0 4000.0 4000.0 4000.0 4000.0 4000.0 4000.0 4000.0 4000.0 4000.0 4000.0 4000.0 4000.0 4000.0 4000.0 4000.0 4000.0 4000.0 4000.0 4000.0 4000.0 4000.0 4000.0 4000.0 4000.0 4000.0 4000.0 4000.0 4000.0 4000.0 4000.0 4000.0 4000.0 4000.0 4000.0 4000.0 4000.0 4000.0 4000.0 4000.0 4000.0 4000.0 4000.0 4000.0 4000.0 4000.0 4000.0 4000.0 4000.0 4000.0 4000.0 4000.0 4000.0 4000.0 4000.0 4000.0 4000.0 4000.0 4000.0 4000.0 4000.0 4000.0 4000.0 4000.0 4000.0 4000.0 4000.0 4000.0 4000.0 4000.0 4000.0 4000.0 4000.0 4000.0 4000.0 4000.0 4000.0 4000.0 4000.0 4000.0 4000.0 4000.0 4000.0 4000.0 4000.0 4000.0 4000.0 4000.0 4000.0 4000.0 4000.0 4000.0 4000.0 4000.0 4000.0 4000.0 4000.0 4000.0 4000.0 4000.0 4000.0 4000.0 4000.0 4000.0 4000.0 4000.0 4000.0 4000.0 4000.0 4000.0 4000.0 4000.0 4000.0 4000.0 4000.0 4000.0 4000.0 4000.0 4000.0 4000.0 4000.0 4000.0 4000.0 4000.0 4000.0 4000.0 4000.0 4000.0 4000.0 4000.0 4000.0 4000.0 4000.0 4000.0 4000.0 4000.0 4000.0 4000.0 4000.0 4000.0 4000.0 4000.0 4000.0 4000.0 4000.0 4000.0 4000.0 4000.0 4000.0 4000.0 4000.0 4000.0 4000.0 4000.0 4000.0 4000.0 4000.0 4000.0 4000.0 4000.0 4000.0 4000.0 4000.0 4000.0 4000.0 4000.0 4000.0 4000.0 4000.0 4000.0 4000.0 4000.0 4000.0 4000.0 4000.0 4000.0 4000.0 4000.0 4000.0 4000.0 4000.0 4000.0 4000.0 4000.0 4000.0 4000.0 4000.0 4000.0 4000.0 4000.0 4000.0 4000.0 4000.0 4000.0 4000.0 4000.0 4000.0 4000.0 4000.0 4000.0 4000.0 4000.0 4000.0 4000.0 4000.0 4000.0 4000.0 4000.0 4000.0 4000.0 4000.0 4000.0 4000.0 4000.0 4000.0 4000.0 4000.0 4000.0 4000.0 4000.0 4000.0 4000.0 4000.0 4000.0 4000.0 4000.0 4000.0 4000.0 4000.0 4000.0 4000.0 4000.0 4000.0 4000.0 4000.0 4000.0 4000.0 4000.0 4000.0 4000.0 4000.0 4000.0 4000.0 4000.0 4000.0 4000.0 4000.0 4000.0 4000.0 4000.0 4000.0 4000.0 4000.0 4000.0 4000.0 4000.0 4000.0 4000.0 4000.0 4000.0 4000.0 4000.0 4000.0 4000.0 4000.0 4000.0 4000.0 4000.0 4000.0 4000.0 4000.0 4000.0 4000.0 4000.0 4000.0 4000.0 4000.0 4000.0 4000.0 4000.0 4000.0 4000.0 4000.0 4000.0 4000.0 4000.0 4000.0 4000.0 4000.0 4000.0 4000.0 4000.0 4000.0 4000.0 4000.0 4000.0 4000.0 4000.0 4000.0 4000.0 4000.0 4000.0 4000.0 4000.0 4000.0 4000.0 4000.0 4000.0 4000.0 4000.0 4000.0 4000.0 4000.0 4000.0 4000.0 4000.0 4000.0 4000.0 4000.0 4000.0 4000.0 4000.0 4000.0 4000.0 4000.0 4000.0 4000.0 4000.0 4000.0 4000.0 4000.0 4000.0 4000.0 4000.0 4000.0 4000.0 4000.0 4000.0 4000.0 4000.0 4000.0 4000.0 4000.0 4000.0 4000.0 4000.0 4000.0 4000.0 4000.0 4000.0 4000.0 4000.0 4000.0 4000.0 4000.0 4000.0 4000.0 4000.0 4000.0 4000.0 4000.0 4000.0 4000.0 4000.0 4000.0 4000.0 4000.0 4000.0 4000.0 4000.0 4000.0 4000.0 4000.0 4000.0 4000.0 4000.0 4000.0 4000.0 4000.0 4000.0 4000.0 4000.0 4000.0 4000.0 4000.0 4000.0 4000.0 4000.0 4000.0 4000.0 4000.0 4000.0 4000.0 4000.0 4000.0 4000.0 4000.0 4000.0 4000.0 4000.0 4000.0 4000.0 4000.0 4000.0 4000.0 4000.0 4000.0 4000.0 4000.0 4000.0 4000.0 4000.0 4000.0 4000.0 4000.0 4000.0 4000.0 4000.0 4000.0 4000.0 4000.0 4000.0 4000.0 4000.0 4000.0 4000.0 4000.0 4000.0 4000.0 4000.0 4000.0 4000.0 4000.0 4000.0 4000.0 4000.0 4000.0 4000.0 4000.0 4000.0 4000.0 4000.0 4000.0 4000.0 4000.0 4000.0 4000.0 4000.0 4000.0 4000.0 4000.0 4000.0 4000.0 4000.0 4000.0 4000.0 4000.0 4000.0 4000.0 4000.0 4000.0 4000.0 4000.0 4000.0 4000.0 4000.0 4000.0 4000.0 4000.0 4000.0 4000.0 4000.0 4000.0 4000.0 4000.0 4000.0 4000.0 4000.0 4000.0 4000.0 4000.0 4000.0 4000.0 4000.0 4000.0 4000.0 4000.0 4000.0 4000.0 4000.0 4000.0 4000.0 4000.0 4000.0 4000.0 4000.0 4000.0 4000.0 4000.0 4000.0 4000.0 4000.0 4000.0 4000.0 4000.0 4000.0 4000.0 4000.0 4000.0 4000.0 4000.0 4000.0 4000.0 4000.0 4000.0 4000.0 4000.0 4000.0 4000.0 4000.0 4000.0 4000.0 4000.0 4000.0 4000.0 4000.0 4000.0 4000.0 4000.0 4000.0 4000.0 4000.0 4000.0 4000.0 4000.0 4000.0 4000.0 4000.0 4000.0 4000.0 4000.0 4000.0 4000.0 4000.0 4000.0 4000.0 4000.0 4000.0 4000.0 4000.0 4000.0 4000.0 4000.0 4000.0 4000.0 4000.0 4000.0 4000.0 4000.0 4000.0 4000.0 4000.0 4000.0 4000.0 4000.0 4000.0 4000.0 4000.0 4000.0 4000.0 4000.0 4000.0 4000.0 4000.0 4000.0 4000.0 4000.0 4000.0 4000.0 4000.0 4000.0 4000.0 4000.0 4000.0 4000.0 4000.0 4000.0 4000.0 4000.0 4000.0 4000.0 4000.0 4000.0 4000.0 4000.0 4000.0 4000.0 4000.0 4000.0 4000.0 4000.0 4000.0 4000.0 4000.0 4000.0 4000.0 4000.0 4000.0 4000.0 4000.0 4000.0 4000.0 4000.0 4000.0 4000.0 4000.0 4000.0 4000.0 4000.0 4000.0 4000.0 4000.0 4000.0 4000.0 4000.0 4000.0 4000.0 4000.0 4000.0 4000.0 4000.0 4000.0 4000.0 4000.0 4000.0 4000.0 4000.0 4000.0 4000.0 4000.0 4000.0 4000.0 4000.0 4000.0 4000.0 4000.0 4000.0 4000.0 4000.0 4000.0 4000.0 4000.0 4000.0 4000.0 4000.0 4000.0 4000.0 4000.0 4000.0 4000.0 4000.0 4000.0 4000.0 4000.0 4000.0 4000.0 4000.0 4000.0 4000.0 4000.0 4000.0 4000.0 4000.0 4000.0 4000.0 4000.0 4000.0 4000.0 4000.0 4000.0 4000.0 4000.0 4000.0 4000.0 4000.0 4000.0 4000.0 4000.0 4000.0 4000.0 4000.0 4000.0 4000.0 4000.0 4000.0 4000.0 4000.0 4000.0 4000.0 4000.0 4000.0 4000.0 4000.0 4000.0 4000.0 4000.0 4000.0 4000.0 4000.0 4000.0 4000.0 4000.0 4000.0 4000.0 4000.0 4000.0 4000.0 4000.0 4000.0 4000.0 4000.0 4000.0 4000.0 4000.0 4000.0 4000.0 4000.0 4000.0 4000.0 4000.0 4000.0 4000.0 4000.0 4000.0 4000.0 4000.0 4000.0 4000.0 4000.0 4000.0 4000.0 4000.0 4000.0 4000.0 4000.0 4000.0 4000.0 4000.0 4000.0 4000.0 4000.0 4000.0 4000.0 4000.0 4000.0 4000.0 4000.0 4000.0 4000.0 4000.0 4000.0 4000.0 4000.0 4000.0 4000.0 4000.0 4000.0 4000.0 4000.0 4000.0 4000.0 4000.0 4000.0 4000.0 4000.0 4000.0 4000.0 4000.0 4000.0 4000.0 4000.0 4000.0 4000.0 4000.0 4000.0 4000.0 4000.0 4000.0 4000.0 4000.0 4000.0 4000.0 4000.0 4000.0 4000.0 4000.0 4000.0 4000.0 4000.0 4000.0 4000.0 4000.0 4000.0 4000.0 4000.0 4000.0 4000.0 4000.0 4000.0 4000.0 4000.0 4000.0 4000.0 4000.0 4000.0 4000.0 4000.0 4000.0 4000.0 4000.0 4000.0 4000.0 4000.0 4000.0 4000.0 4000.0 4000.0 4000.0 4000.0 4000.0 4000.0 4000.0 4000.0 4000.0 4000.0 4000.0 4000.0 4000.0 4000.0 4000.0 4000.0 4000.0 4000.0 4000.0 4000.0 4000.0 4000.0 4000.0 4000.0 4000.0 4000.0 4000.0 4000.0 4000.0 4000.0 4000.0 4000.0 4000.0 4000.0 4000.0 4000.0 4000.0 4000.0 4000.0 4000.0 4000.0 4000.0 4000.0 4000.0 4000.0 4000.0 4000.0 4000.0 4000.0 4000.0 4000.0 4000.0 4000.0 4000.0 4000.0 4000.0 4000.0 4000.0 4000.0 4000.0 4000.0 4000.0 4000.0 4000.0 4000.0 4000.0 4000.0 4000.0 4000.0 4000.0 4000.0 4000.0 4000.0 4000.0 4000.0 4000.0 4000.0 4000.0 4000.0 4000.0 4000.0 4000.0 4000.0 4000.0 4000.0 4000.0 4000.0 4000.0 4000.0 4000.0 4000.0 4000.0 4000.0 4000.0 4000.0 4000.0 4000.0 4000.0 4000.0 4000.0 4000.0 4000.0 4000.0 4000.0 4000.0 4000.0 4000.0 4000.0 4000.0 4000.0 4000.0 4000.0 4000.0 4000.0 4000.0 4000.0 4000.0 4000.0 4000.0 4000.0 4000.0 4000.0 4000.0 4000.0 4000.0 4000.0 4000.0 4000.0 4000.0 4000.0 4000.0 4000.0 4000.0 4000.0 4000.0 4000.0 4000.0 4000.0 4000.0 4000.0 4000.0 4000.0 4000.0 4000.0 4000.0 4000.0 4000.0 4000.0 4000.0 4000.0 4000.0 4000.0 4000.0 4000.0 4000.0 4000.0 4000.0 4000.0 4000.0 4000.0 4000.0 4000.0 4000.0 4000.0 4000.0 4000.0 4000.0 4000.0 4000.0 4000.0 4000.0 4000.0 4000.0 4000.0 4000.0 4000.0 4000.0 4000.0 4000.0 4000.0 4000.0 4000.0 4000.0 4000.0 4000.0 4000.0 4000.0 4000.0 4000.0 4000.0 4000.0 4000.0 4000.0 4000.0 4000.0 4000.0 4000.0 4000.0 4000.0 4000.0 4000.0 4000.0 4000.0 4000.0 4000.0 4000.0 4000.0 4000.0 4000.0 4000.0 4000.0 4000.0 4000.0 4000.0 4000.0 4000.0 4000.0 4000.0 4000.0 4000.0 4000.0 4000.0 4000.0 4000.0 4000.0 4000.0 4000.0 4000.0 4000.0 4000.0 4000.0 4000.0 4000.0 4000.0 4000.0 4000.0 4000.0 4000.0 4000.0 4000.0 4000.0 4000.0 4000.0 4000.0 4000.0 4000.0 4000.0 4000.0 4000.0 4000.0 4000.0 4000.0 4000.0 4000.0 4000.0 4000.0 4000.0 4000.0 4000.0 4000.0 4000.0 4000.0 4000.0 4000.0 4000.0 4000.0 4000.0 4000.0 4000.0 4000.0 4000.0 4000.0 4000.0 4000.0 4000.0 4000.0 4000.0 4000.0 4000.0 4000.0 4000.0 4000.0 4000.0 4000.0 4000.0 4000.0 4000.0 4000.0 4000.0 4000.0 4000.0 4000.0 4000.0 4000.0 4000.0 4000.0 4000.0 4000.0 4000.0 4000.0 4000.0 4000.0 4000.0 4000.0 4000.0 4000.0 4000.0 4000.0 4000.0 4000.0 4000.0 4000.0 4000.0 4000.0 4000.0 4000.0 4000.0 4000.0 4000.0 4000.0 4000.0 4000.0 4000.0 4000.0 4000.0 4000.0 4000.0 4000.0 4000.0 4000.0 4000.0 4000.0 4000.0 4000.0 4000.0 4000.0 4000.0 4000.0 4000.0 4000.0 4000.0 4000.0 4000.0 4000.0 4000.0 4000.0 4000.0 4000.0 4000.0 4000.0 4000.0 4000.0 4000.0 4000.0 4000.0 4000.0 4000.0 4000.0 4000.0 4000.0 4000.0 4000.0 4000.0 4000.0 4000.0 4000.0 4000.0 4000.0 4000.0 4000.0 4000.0 4000.0 4000.0 4000.0 4000.0 4000.0 4000.0 4000.0 4000.0 4000.0 4000.0 4000.0 4000.0 4000.0 4000.0 4000.0 4000.0 4000.0 4000.0 4000.0 4000.0 4000.0 4000.0 4000.0 4000.0 4000.0 4000.0 4000.0 4000.0 4000.0 4000.0 4000.0 4000.0 4000.0 4000.0 4000.0 4000.0 4000.0 4000.0 4000.0 4000.0 4000.0 4000.0 4000.0 4000.0 4000.0 4000.0 4000.0 4000.0 4000.0 4000.0 4000.0 4000.0 4000.0 4000.0 4000.0 4000.0 4000.0 4000.0 4000.0 4000.0 4000.0 4000.0 4000.0 4000.0 4000.0 4000.0 4000.0 4000.0 4000.0 4000.0 4000.0 4000.0 4000.0 4000.0 4000.0 4000.0 4000.0 4000.0 4000.0 4000.0 4000.0 4000.0 4000.0 4000.0 4000.0 4000.0 4000.0 4000.0 4000.0 4000.0 4000.0 4000.0 4000.0 4000.0 4000.0 4000.0 4000.0 4000.0 4000.0 4000.0 4000.0 4000.0 4000.0 4000.0 4000.0 4000.0 4000.0 4000.0 4000.0 4000.0 4000.0 4000.0 4000.0 4000.0 4000.0 4000.0 4000.0 4000.0 4000.0 4000.0 4000.0 4000.0 4000.0 4000.0 4000.0 4000.0 4000.0 4000.0 4000.0 4000.0 4000.0 4000.0 4000.0 4000.0 4000.0 4000.0 4000.0 4000.0 4000.0 4000.0 4000.0 4000.0 4000.0 4000.0 4000.0 4000.0 4000.0 4000.0 4000.0 4000.0 4000.0 4000.0 4000.0 4000.0 4000.0 4000.0 4000.0 4000.0 4000.0 4000.0 4000.0 4000.0 4000.0 4000.0 4000.0 4000.0 4000.0 4000.0 4000.0 4000.0 4000.0 4000.0 4000.0 4000.0 4000.0 4000.0 4000.0 4000.0 4000.0 4000.0 4000.0 4000.0 4000.0 4000.0 4000.0 4000.0 4000.0 4000.0 4000.0 4000.0 4000.0 4000.0 4000.0 4000.0 4000.0 4000.0 4000.0 4000.0 4000.0 4000.0 4000.0 4000.0 4000.0 4000.0 4000.0 4000.0 4000.0 4000.0 4000.0 4000.0 4000.0 4000.0 4000.0 4000.0 4000.0 4000.0 4000.0 4000.0 4000.0 4000.0 4000.0 4000.0 4000.0 4000.0 4000.0 4000.0 4000.0 4000.0 4000.0 4000.0 4000.0 4000.0 4000.0 4000.0 4000.0 4000.0 4000.0 4000.0 4000.0 4000.0 4000.0 4000.0 4000.0 4000.0 4000.0 4000.0 4000.0 4000.0 4000.0 4000.0 4000.0 4000.0 4000.0 4000.0 4000.0 4000.0 4000.0 4000.0 4000.0 4000.0 4000.0 4000.0 4000.0 4000.0 4000.0 4000.0 4000.0 4000.0 4000.0 4000.0 4000.0 4000.0 4000.0 4000.0 4000.0 4000.0 4000.0 4000.0 4000.0 4000.0 4000.0 4000.0 4000.0 4000.0 4000.0 4000.0 4000.0 4000.0 4000.0 4000.0 4000.0 4000.0 4000.0 4000.0 4000.0 4000.0 4000.0 4000.0 4000.0 4000.0 4000.0 4000.0 4000.0 4000.0 4000.0 4000.0 4000.0 4000.0 4000.0 4000.0 4000.0 4000.0 4000.0 4000.0 4000.0 4000.0 4000.0 4000.0 4000.0 4000.0 4000.0 4000.0 4000.0 4000.0 4000.0 4000.0 4000.0 4000.0 4000.0 4000.0 4000.0 4000.0 4000.0 4000.0 4000.0 4000.0 4000.0 4000.0 4000.0 4000.0 4000.0 4000.0 4000.0 4000.0 4000.0 4000.0 4000.0 4000.0 4000.0 4000.0 4000.0 4000.0 4000.0 4000.0 4000.0 4000.0 4000.0 4000.0 4000.0 4000.0 4000.0 4000.0 4000.0 4000.0 4000.0 4000.0 4000.0 4000.0 4000.0 4000.0 4000.0 4000.0 4000.0 4000.0 4000.0 4000.0 4000.0 4000.0 4000.0 4000.0 4000.0 4000.0 4000.0 4000.0 4000.0 4000.0 4000.0 4000.0 4000.0 4000.0 4000.0 4000.0 4000.0 4000.0 4000.0 4000.0 4000.0 4000.0 4000.0 4000.0 4000.0 4000.0 4000.0 4000.0 4000.0 4000.0 4000.0 4000.0 4000.0 4000.0 4000.0 4000.0 4000.0 4000.0 4000.0 4000.0 4000.0 4000.0 4000.0 4000.0 4000.0 4000.0 4000.0 4000.0 4000.0 4000.0 4000.0 4000.0 4000.0 4000.0 4000.0 4000.0 4000.0 4000.0 4000.0 4000.0 4000.0 4000.0 4000.0 4000.0 4000.0 4000.0 4000.0 4000.0 4000.0 4000.0 4000.0 4000.0 4000.0 4000.0 4000.0 4000.0 4000.0 4000.0 4000.0 4000.0 4000.0 4000.0 4000.0 4000.0 4000.0 4000.0 4000.0 4000.0 4000.0 4000.0 4000.0 4000.0 4000.0 4000.0 4000.0 4000.0 4000.0 4000.0 4000.0 4000.0 4000.0 4000.0 4000.0 4000.0 4000.0 4000.0 4000.0 4000.0 4000.0 4000.0 4000.0 4000.0 4000.0 4000.0 4000.0 4000.0 4000.0 4000.0 4000.0 4000.0 4000.0 4000.0 4000.0 4000.0 4000.0 4000.0 4000.0 4000.0 4000.0 4000.0 4000.0 4000.0 4000.0 4000.0 4000.0 4000.0 4000.0 4000.0 4000.0 4000.0 4000.0 4000.0 4000.0 4000.0 4000.0 4000.0 4000.0 4000.0 4000.0 4000.0 4000.0 4000.0 4000.0 4000.0 4000.0 4000.0 4000.0 4000.0 4000.0 4000.0 4000.0 4000.0 4000.0 4000.0 4000.0 4000.0 4000.0 4000.0 4000.0 4000.0 4000.0 4000.0 4000.0 4000.0 4000.0 4000.0 4000.0 4000.0 4000.0 4000.0 4000.0 4000.0 4000.0 4000.0 4000.0 4000.0 4000.0 4000.0 4000.0 4000.0 4000.0 4000.0 4000.0 4000.0 4000.0 4000.0 4000.0 4000.0 4000.0 4000.0 4000.0 4000.0 4000.0 4000.0 4000.0 4000.0 4000.0 4000.0 4000.0 4000.0 4000.0 4000.0 4000.0 4000.0 4000.0 4000.0 4000.0 4000.0 4000.0 4000.0 4000.0 4000.0 4000.0 4000.0 4000.0 4000.0 4000.0 4000.0 4000.0 4000.0 4000.0 4000.0 4000.0 4000.0 4000.0 4000.0 4000.0 4000.0 4000.0 4000.0 4000.0 4000.0 4000.0 4000.0 4000.0 4000.0 4000.0 4000.0 4000.0 4000.0 4000.0 4000.0 4000.0 4000.0 4000.0 4000.0 4000.0 4000.0 4000.0 4000.0 4000.0 4000.0 4000.0 4000.0 4000.0 4000.0 4000.0 4000.0 4000.0 4000.0 4000.0 4000.0 4000.0 4000.0 4000.0 4000.0 4000.0 4000.0 4000.0 4000.0 4000.0 4000.0 4000.0 4000.0 4000.0 4000.0 4000.0 4000.0 4000.0 4000.0 4000.0 4000.0 4000.0 4000.0 4000.0 4000.0 4000.0 4000.0 4000.0 4000.0 4000.0 4000.0 4000.0 4000.0 4000.0 4000.0 4000.0 SCALARS Mass float 1
LOOKUP_TABLE default
11309700000.0 11309700000.0 11309700000.0 11309700000.0 11309700000.0 11309700000.0 11309700000.0 11309700000.0 11309700000.0 11309700000.0 11309700000.0 11309700000.0 11309700000.0 11309700000.0 11309700000.0 11309700000.0 11309700000.0 11309700000.0 11309700000.0 11309700000.0 11309700000.0 11309700000.0 11309700000.0 11309700000.0 11309700000.0 11309700000.0 11309700000.0 11309700000.0 11309700000.0 11309700000.0 11309700000.0 11309700000.0 11309700000.0 11309700000.0 11309700000.0 11309700000.0 11309700000.0 11309700000.0 11309700000.0 11309700000.0 11309700000.0 11309700000.0 11309700000.0 11309700000.0 11309700000.0 11309700000.0 11309700000.0 11309700000.0 11309700000.0 11309700000.0 11309700000.0 11309700000.0 11309700000.0 11309700000.0 11309700000.0 11309700000.0 11309700000.0 11309700000.0 11309700000.0 11309700000.0 11309700000.0 11309700000.0 11309700000.0 11309700000.0 11309700000.0 11309700000.0 11309700000.0 11309700000.0 11309700000.0 11309700000.0 11309700000.0 11309700000.0 11309700000.0 11309700000.0 11309700000.0 11309700000.0 11309700000.0 11309700000.0 11309700000.0 11309700000.0 11309700000.0 11309700000.0 11309700000.0 11309700000.0 11309700000.0 11309700000.0 11309700000.0 11309700000.0 11309700000.0 11309700000.0 11309700000.0 11309700000.0 11309700000.0 11309700000.0 11309700000.0 11309700000.0 11309700000.0 11309700000.0 11309700000.0 11309700000.0 11309700000.0 11309700000.0 11309700000.0 11309700000.0 11309700000.0 11309700000.0 11309700000.0 11309700000.0 11309700000.0 11309700000.0 11309700000.0 11309700000.0 11309700000.0 11309700000.0 11309700000.0 11309700000.0 11309700000.0 11309700000.0 11309700000.0 11309700000.0 11309700000.0 11309700000.0 11309700000.0 11309700000.0 11309700000.0 11309700000.0 11309700000.0 11309700000.0 11309700000.0 11309700000.0 11309700000.0 11309700000.0 11309700000.0 11309700000.0 11309700000.0 11309700000.0 11309700000.0 11309700000.0 11309700000.0 11309700000.0 11309700000.0 11309700000.0 11309700000.0 11309700000.0 11309700000.0 11309700000.0 11309700000.0 11309700000.0 11309700000.0 11309700000.0 11309700000.0 11309700000.0 11309700000.0 11309700000.0 11309700000.0 11309700000.0 11309700000.0 11309700000.0 11309700000.0 11309700000.0 11309700000.0 11309700000.0 11309700000.0 11309700000.0 11309700000.0 11309700000.0 11309700000.0 11309700000.0 11309700000.0 11309700000.0 11309700000.0 11309700000.0 11309700000.0 11309700000.0 11309700000.0 11309700000.0 11309700000.0 11309700000.0 11309700000.0 11309700000.0 11309700000.0 11309700000.0 11309700000.0 11309700000.0 11309700000.0 11309700000.0 11309700000.0 11309700000.0 11309700000.0 11309700000.0 11309700000.0 11309700000.0 11309700000.0 11309700000.0 11309700000.0 11309700000.0 11309700000.0 11309700000.0 11309700000.0 11309700000.0 11309700000.0 11309700000.0 11309700000.0 11309700000.0 11309700000.0 11309700000.0 11309700000.0 11309700000.0 11309700000.0 11309700000.0 11309700000.0 11309700000.0 11309700000.0 11309700000.0 11309700000.0 11309700000.0 11309700000.0 11309700000.0 11309700000.0 11309700000.0 11309700000.0 11309700000.0 11309700000.0 11309700000.0 11309700000.0 11309700000.0 11309700000.0 11309700000.0 11309700000.0 11309700000.0 11309700000.0 11309700000.0 11309700000.0 11309700000.0 11309700000.0 11309700000.0 11309700000.0 11309700000.0 11309700000.0 11309700000.0 11309700000.0 11309700000.0 11309700000.0 11309700000.0 11309700000.0 11309700000.0 11309700000.0 11309700000.0 11309700000.0 11309700000.0 11309700000.0 11309700000.0 11309700000.0 11309700000.0 11309700000.0 11309700000.0 11309700000.0 11309700000.0 11309700000.0 11309700000.0 11309700000.0 11309700000.0 11309700000.0 11309700000.0 11309700000.0 11309700000.0 11309700000.0 11309700000.0 11309700000.0 11309700000.0 11309700000.0 11309700000.0 11309700000.0 11309700000.0 11309700000.0 11309700000.0 11309700000.0 11309700000.0 11309700000.0 11309700000.0 11309700000.0 11309700000.0 11309700000.0 11309700000.0 11309700000.0 11309700000.0 11309700000.0 11309700000.0 11309700000.0 11309700000.0 11309700000.0 11309700000.0 11309700000.0 11309700000.0 11309700000.0 11309700000.0 11309700000.0 11309700000.0 11309700000.0 11309700000.0 11309700000.0 11309700000.0 11309700000.0 11309700000.0 11309700000.0 11309700000.0 11309700000.0 11309700000.0 11309700000.0 11309700000.0 11309700000.0 11309700000.0 11309700000.0 11309700000.0 11309700000.0 11309700000.0 11309700000.0 11309700000.0 11309700000.0 11309700000.0 11309700000.0 11309700000.0 11309700000.0 11309700000.0 11309700000.0 11309700000.0 11309700000.0 11309700000.0 11309700000.0 11309700000.0 11309700000.0 11309700000.0 11309700000.0 11309700000.0 11309700000.0 11309700000.0 11309700000.0 11309700000.0 11309700000.0 11309700000.0 11309700000.0 11309700000.0 11309700000.0 11309700000.0 11309700000.0 11309700000.0 11309700000.0 11309700000.0 11309700000.0 11309700000.0 11309700000.0 11309700000.0 11309700000.0 11309700000.0 11309700000.0 11309700000.0 11309700000.0 11309700000.0 11309700000.0 11309700000.0 11309700000.0 11309700000.0 11309700000.0 11309700000.0 11309700000.0 11309700000.0 11309700000.0 11309700000.0 11309700000.0 11309700000.0 11309700000.0 11309700000.0 11309700000.0 11309700000.0 11309700000.0 11309700000.0 11309700000.0 11309700000.0 11309700000.0 11309700000.0 11309700000.0 11309700000.0 11309700000.0 11309700000.0 11309700000.0 11309700000.0 11309700000.0 11309700000.0 11309700000.0 11309700000.0 11309700000.0 11309700000.0 11309700000.0 11309700000.0 11309700000.0 11309700000.0 11309700000.0 11309700000.0 11309700000.0 11309700000.0 11309700000.0 11309700000.0 11309700000.0 11309700000.0 11309700000.0 11309700000.0 11309700000.0 11309700000.0 11309700000.0 11309700000.0 11309700000.0 11309700000.0 11309700000.0 11309700000.0 11309700000.0 11309700000.0 11309700000.0 11309700000.0 11309700000.0 11309700000.0 11309700000.0 11309700000.0 11309700000.0 11309700000.0 11309700000.0 11309700000.0 11309700000.0 11309700000.0 11309700000.0 11309700000.0 11309700000.0 11309700000.0 11309700000.0 11309700000.0 11309700000.0 11309700000.0 11309700000.0 11309700000.0 11309700000.0 11309700000.0 11309700000.0 11309700000.0 11309700000.0 11309700000.0 11309700000.0 11309700000.0 11309700000.0 11309700000.0 11309700000.0 11309700000.0 11309700000.0 11309700000.0 11309700000.0 11309700000.0 11309700000.0 11309700000.0 11309700000.0 11309700000.0 11309700000.0 11309700000.0 11309700000.0 11309700000.0 11309700000.0 11309700000.0 11309700000.0 11309700000.0 11309700000.0 11309700000.0 11309700000.0 11309700000.0 11309700000.0 11309700000.0 11309700000.0 11309700000.0 11309700000.0 11309700000.0 11309700000.0 11309700000.0 11309700000.0 11309700000.0 11309700000.0 11309700000.0 11309700000.0 11309700000.0 11309700000.0 11309700000.0 11309700000.0 11309700000.0 11309700000.0 11309700000.0 11309700000.0 11309700000.0 11309700000.0 11309700000.0 11309700000.0 11309700000.0 11309700000.0 11309700000.0 11309700000.0 11309700000.0 11309700000.0 11309700000.0 11309700000.0 11309700000.0 11309700000.0 11309700000.0 11309700000.0 11309700000.0 11309700000.0 11309700000.0 11309700000.0 11309700000.0 11309700000.0 11309700000.0 11309700000.0 11309700000.0 11309700000.0 11309700000.0 11309700000.0 11309700000.0 11309700000.0 11309700000.0 11309700000.0 11309700000.0 11309700000.0 11309700000.0 11309700000.0 11309700000.0 11309700000.0 11309700000.0 11309700000.0 11309700000.0 11309700000.0 11309700000.0 11309700000.0 11309700000.0 11309700000.0 11309700000.0 11309700000.0 11309700000.0 11309700000.0 11309700000.0 11309700000.0 11309700000.0 11309700000.0 11309700000.0 11309700000.0 11309700000.0 11309700000.0 11309700000.0 11309700000.0 11309700000.0 11309700000.0 11309700000.0 11309700000.0 11309700000.0 11309700000.0 11309700000.0 11309700000.0 11309700000.0 11309700000.0 11309700000.0 11309700000.0 11309700000.0 11309700000.0 11309700000.0 11309700000.0 11309700000.0 11309700000.0 11309700000.0 11309700000.0 11309700000.0 11309700000.0 11309700000.0 11309700000.0 11309700000.0 11309700000.0 11309700000.0 11309700000.0 11309700000.0 11309700000.0 11309700000.0 11309700000.0 11309700000.0 11309700000.0 11309700000.0 11309700000.0 11309700000.0 11309700000.0 11309700000.0 11309700000.0 11309700000.0 11309700000.0 11309700000.0 11309700000.0 11309700000.0 11309700000.0 11309700000.0 11309700000.0 11309700000.0 11309700000.0 11309700000.0 11309700000.0 11309700000.0 11309700000.0 11309700000.0 11309700000.0 11309700000.0 11309700000.0 11309700000.0 11309700000.0 11309700000.0 11309700000.0 11309700000.0 11309700000.0 11309700000.0 11309700000.0 11309700000.0 11309700000.0 11309700000.0 11309700000.0 11309700000.0 11309700000.0 11309700000.0 11309700000.0 11309700000.0 11309700000.0 11309700000.0 11309700000.0 11309700000.0 11309700000.0 11309700000.0 11309700000.0 11309700000.0 11309700000.0 11309700000.0 11309700000.0 11309700000.0 11309700000.0 11309700000.0 11309700000.0 11309700000.0 11309700000.0 11309700000.0 11309700000.0 11309700000.0 11309700000.0 11309700000.0 11309700000.0 11309700000.0 11309700000.0 11309700000.0 11309700000.0 11309700000.0 11309700000.0 11309700000.0 11309700000.0 11309700000.0 11309700000.0 11309700000.0 11309700000.0 11309700000.0 11309700000.0 11309700000.0 11309700000.0 11309700000.0 11309700000.0 11309700000.0 11309700000.0 11309700000.0 11309700000.0 11309700000.0 11309700000.0 11309700000.0 11309700000.0 11309700000.0 11309700000.0 11309700000.0 11309700000.0 11309700000.0 11309700000.0 11309700000.0 11309700000.0 11309700000.0 11309700000.0 11309700000.0 11309700000.0 11309700000.0 11309700000.0 11309700000.0 11309700000.0 11309700000.0 11309700000.0 11309700000.0 11309700000.0 11309700000.0 11309700000.0 11309700000.0 11309700000.0 11309700000.0 11309700000.0 11309700000.0 11309700000.0 11309700000.0 11309700000.0 11309700000.0 11309700000.0 11309700000.0 11309700000.0 11309700000.0 11309700000.0 11309700000.0 11309700000.0 11309700000.0 11309700000.0 11309700000.0 11309700000.0 11309700000.0 11309700000.0 11309700000.0 11309700000.0 11309700000.0 11309700000.0 11309700000.0 11309700000.0 11309700000.0 11309700000.0 11309700000.0 11309700000.0 11309700000.0 11309700000.0 11309700000.0 11309700000.0 11309700000.0 11309700000.0 11309700000.0 11309700000.0 11309700000.0 11309700000.0 11309700000.0 11309700000.0 11309700000.0 11309700000.0 11309700000.0 11309700000.0 11309700000.0 11309700000.0 11309700000.0 11309700000.0 11309700000.0 11309700000.0 11309700000.0 11309700000.0 11309700000.0 11309700000.0 11309700000.0 11309700000.0 11309700000.0 11309700000.0 11309700000.0 11309700000.0 11309700000.0 11309700000.0 11309700000.0 11309700000.0 11309700000.0 11309700000.0 11309700000.0 11309700000.0 11309700000.0 11309700000.0 11309700000.0 11309700000.0 11309700000.0 11309700000.0 11309700000.0 11309700000.0 11309700000.0 11309700000.0 11309700000.0 11309700000.0 11309700000.0 11309700000.0 11309700000.0 11309700000.0 11309700000.0 11309700000.0 11309700000.0 11309700000.0 11309700000.0 11309700000.0 11309700000.0 11309700000.0 11309700000.0 11309700000.0 11309700000.0 11309700000.0 11309700000.0 11309700000.0 11309700000.0 11309700000.0 11309700000.0 11309700000.0 11309700000.0 11309700000.0 11309700000.0 11309700000.0 11309700000.0 11309700000.0 11309700000.0 11309700000.0 11309700000.0 11309700000.0 11309700000.0 11309700000.0 11309700000.0 11309700000.0 11309700000.0 11309700000.0 11309700000.0 11309700000.0 11309700000.0 11309700000.0 11309700000.0 11309700000.0 11309700000.0 11309700000.0 11309700000.0 11309700000.0 11309700000.0 11309700000.0 11309700000.0 11309700000.0 11309700000.0 11309700000.0 11309700000.0 11309700000.0 11309700000.0 11309700000.0 11309700000.0 11309700000.0 11309700000.0 11309700000.0 11309700000.0 11309700000.0 11309700000.0 11309700000.0 11309700000.0 11309700000.0 11309700000.0 11309700000.0 11309700000.0 11309700000.0 11309700000.0 11309700000.0 11309700000.0 11309700000.0 11309700000.0 11309700000.0 11309700000.0 11309700000.0 11309700000.0 11309700000.0 11309700000.0 11309700000.0 11309700000.0 11309700000.0 11309700000.0 11309700000.0 11309700000.0 11309700000.0 11309700000.0 11309700000.0 11309700000.0 11309700000.0 11309700000.0 11309700000.0 11309700000.0 11309700000.0 11309700000.0 11309700000.0 11309700000.0 11309700000.0 11309700000.0 11309700000.0 11309700000.0 11309700000.0 11309700000.0 11309700000.0 11309700000.0 11309700000.0 11309700000.0 11309700000.0 11309700000.0 11309700000.0 11309700000.0 11309700000.0 11309700000.0 11309700000.0 11309700000.0 11309700000.0 11309700000.0 11309700000.0 11309700000.0 11309700000.0 11309700000.0 11309700000.0 11309700000.0 11309700000.0 11309700000.0 11309700000.0 11309700000.0 11309700000.0 11309700000.0 11309700000.0 11309700000.0 11309700000.0 11309700000.0 11309700000.0 11309700000.0 11309700000.0 11309700000.0 11309700000.0 11309700000.0 11309700000.0 11309700000.0 11309700000.0 11309700000.0 11309700000.0 11309700000.0 11309700000.0 11309700000.0 11309700000.0 11309700000.0 11309700000.0 11309700000.0 11309700000.0 11309700000.0 11309700000.0 11309700000.0 11309700000.0 11309700000.0 11309700000.0 11309700000.0 11309700000.0 11309700000.0 11309700000.0 11309700000.0 11309700000.0 11309700000.0 11309700000.0 11309700000.0 11309700000.0 11309700000.0 11309700000.0 11309700000.0 11309700000.0 11309700000.0 11309700000.0 11309700000.0 11309700000.0 11309700000.0 11309700000.0 11309700000.0 11309700000.0 11309700000.0 11309700000.0 11309700000.0 11309700000.0 11309700000.0 11309700000.0 11309700000.0 11309700000.0 11309700000.0 11309700000.0 11309700000.0 11309700000.0 11309700000.0 11309700000.0 11309700000.0 11309700000.0 11309700000.0 11309700000.0 11309700000.0 11309700000.0 11309700000.0 11309700000.0 11309700000.0 11309700000.0 11309700000.0 11309700000.0 11309700000.0 11309700000.0 11309700000.0 11309700000.0 11309700000.0 11309700000.0 11309700000.0 11309700000.0 11309700000.0 11309700000.0 11309700000.0 11309700000.0 11309700000.0 11309700000.0 11309700000.0 11309700000.0 11309700000.0 11309700000.0 11309700000.0 11309700000.0 11309700000.0 11309700000.0 11309700000.0 11309700000.0 11309700000.0 11309700000.0 11309700000.0 11309700000.0 11309700000.0 11309700000.0 11309700000.0 11309700000.0 11309700000.0 11309700000.0 11309700000.0 11309700000.0 11309700000.0 11309700000.0 11309700000.0 11309700000.0 11309700000.0 11309700000.0 11309700000.0 11309700000.0 11309700000.0 11309700000.0 11309700000.0 11309700000.0 11309700000.0 11309700000.0 11309700000.0 11309700000.0 11309700000.0 11309700000.0 11309700000.0 11309700000.0 11309700000.0 11309700000.0 11309700000.0 11309700000.0 11309700000.0 11309700000.0 11309700000.0 11309700000.0 11309700000.0 11309700000.0 11309700000.0 11309700000.0 11309700000.0 11309700000.0 11309700000.0 11309700000.0 11309700000.0 11309700000.0 11309700000.0 11309700000.0 11309700000.0 11309700000.0 11309700000.0 11309700000.0 11309700000.0 11309700000.0 11309700000.0 11309700000.0 11309700000.0 11309700000.0 11309700000.0 11309700000.0 11309700000.0 11309700000.0 11309700000.0 11309700000.0 11309700000.0 11309700000.0 11309700000.0 11309700000.0 11309700000.0 11309700000.0 11309700000.0 11309700000.0 11309700000.0 11309700000.0 11309700000.0 11309700000.0 11309700000.0 11309700000.0 11309700000.0 11309700000.0 11309700000.0 11309700000.0 11309700000.0 11309700000.0 11309700000.0 11309700000.0 11309700000.0 11309700000.0 11309700000.0 11309700000.0 11309700000.0 11309700000.0 11309700000.0 11309700000.0 11309700000.0 11309700000.0 11309700000.0 11309700000.0 11309700000.0 11309700000.0 11309700000.0 11309700000.0 11309700000.0 11309700000.0 11309700000.0 11309700000.0 11309700000.0 11309700000.0 11309700000.0 11309700000.0 11309700000.0 11309700000.0 11309700000.0 11309700000.0 11309700000.0 11309700000.0 11309700000.0 11309700000.0 11309700000.0 11309700000.0 11309700000.0 11309700000.0 11309700000.0 11309700000.0 11309700000.0 11309700000.0 11309700000.0 11309700000.0 11309700000.0 11309700000.0 11309700000.0 11309700000.0 11309700000.0 11309700000.0 11309700000.0 11309700000.0 11309700000.0 11309700000.0 11309700000.0 11309700000.0 11309700000.0 11309700000.0 11309700000.0 11309700000.0 11309700000.0 11309700000.0 11309700000.0 11309700000.0 11309700000.0 11309700000.0 11309700000.0 11309700000.0 11309700000.0 11309700000.0 11309700000.0 11309700000.0 11309700000.0 11309700000.0 11309700000.0 11309700000.0 11309700000.0 11309700000.0 11309700000.0 11309700000.0 11309700000.0 11309700000.0 11309700000.0 11309700000.0 11309700000.0 11309700000.0 11309700000.0 11309700000.0 11309700000.0 11309700000.0 11309700000.0 11309700000.0 11309700000.0 11309700000.0 11309700000.0 11309700000.0 11309700000.0 11309700000.0 11309700000.0 11309700000.0 11309700000.0 11309700000.0 11309700000.0 11309700000.0 11309700000.0 11309700000.0 11309700000.0 11309700000.0 11309700000.0 11309700000.0 11309700000.0 11309700000.0 11309700000.0 11309700000.0 11309700000.0 11309700000.0 11309700000.0 11309700000.0 11309700000.0 11309700000.0 11309700000.0 11309700000.0 11309700000.0 11309700000.0 11309700000.0 11309700000.0 11309700000.0 11309700000.0 11309700000.0 11309700000.0 11309700000.0 11309700000.0 11309700000.0 11309700000.0 11309700000.0 11309700000.0 11309700000.0 11309700000.0 11309700000.0 11309700000.0 11309700000.0 11309700000.0 11309700000.0 11309700000.0 11309700000.0 11309700000.0 11309700000.0 11309700000.0 11309700000.0 11309700000.0 11309700000.0 11309700000.0 11309700000.0 11309700000.0 11309700000.0 11309700000.0 11309700000.0 11309700000.0 11309700000.0 11309700000.0 11309700000.0 11309700000.0 11309700000.0 11309700000.0 11309700000.0 11309700000.0 11309700000.0 11309700000.0 11309700000.0 11309700000.0 11309700000.0 11309700000.0 11309700000.0 11309700000.0 11309700000.0 11309700000.0 11309700000.0 11309700000.0 11309700000.0 11309700000.0 11309700000.0 11309700000.0 11309700000.0 11309700000.0 11309700000.0 11309700000.0 11309700000.0 11309700000.0 11309700000.0 11309700000.0 11309700000.0 11309700000.0 11309700000.0 11309700000.0 11309700000.0 11309700000.0 11309700000.0 11309700000.0 11309700000.0 11309700000.0 11309700000.0 11309700000.0 11309700000.0 11309700000.0 11309700000.0 11309700000.0 11309700000.0 11309700000.0 11309700000.0 11309700000.0 11309700000.0 11309700000.0 11309700000.0 11309700000.0 11309700000.0 11309700000.0 11309700000.0 11309700000.0 11309700000.0 11309700000.0 11309700000.0 11309700000.0 11309700000.0 11309700000.0 11309700000.0 11309700000.0 11309700000.0 11309700000.0 11309700000.0 11309700000.0 11309700000.0 11309700000.0 11309700000.0 11309700000.0 11309700000.0 11309700000.0 11309700000.0 11309700000.0 11309700000.0 11309700000.0 11309700000.0 11309700000.0 11309700000.0 11309700000.0 11309700000.0 11309700000.0 11309700000.0 11309700000.0 11309700000.0 11309700000.0 11309700000.0 11309700000.0 11309700000.0 11309700000.0 11309700000.0 11309700000.0 11309700000.0 11309700000.0 11309700000.0 11309700000.0 11309700000.0 11309700000.0 11309700000.0 11309700000.0 11309700000.0 11309700000.0 11309700000.0 11309700000.0 11309700000.0 11309700000.0 11309700000.0 11309700000.0 11309700000.0 11309700000.0 11309700000.0 11309700000.0 11309700000.0 11309700000.0 11309700000.0 11309700000.0 11309700000.0 11309700000.0 11309700000.0 11309700000.0 11309700000.0 11309700000.0 11309700000.0 11309700000.0 11309700000.0 11309700000.0 11309700000.0 11309700000.0 11309700000.0 11309700000.0 11309700000.0 11309700000.0 11309700000.0 11309700000.0 11309700000.0 11309700000.0 11309700000.0 11309700000.0 11309700000.0 11309700000.0 11309700000.0 11309700000.0 11309700000.0 11309700000.0 11309700000.0 11309700000.0 11309700000.0 11309700000.0 11309700000.0 11309700000.0 11309700000.0 11309700000.0 11309700000.0 11309700000.0 11309700000.0 11309700000.0 11309700000.0 11309700000.0 11309700000.0 11309700000.0 11309700000.0 11309700000.0 11309700000.0 11309700000.0 11309700000.0 11309700000.0 11309700000.0 11309700000.0 11309700000.0 11309700000.0 11309700000.0 11309700000.0 11309700000.0 11309700000.0 11309700000.0 11309700000.0 11309700000.0 11309700000.0 11309700000.0 11309700000.0 11309700000.0 11309700000.0 11309700000.0 11309700000.0 11309700000.0 11309700000.0 11309700000.0 11309700000.0 11309700000.0 11309700000.0 11309700000.0 11309700000.0 11309700000.0 11309700000.0 11309700000.0 11309700000.0 11309700000.0 11309700000.0 11309700000.0 11309700000.0 11309700000.0 11309700000.0 11309700000.0 11309700000.0 11309700000.0 11309700000.0 11309700000.0 11309700000.0 11309700000.0 11309700000.0 11309700000.0 11309700000.0 11309700000.0 11309700000.0 11309700000.0 11309700000.0 11309700000.0 11309700000.0 11309700000.0 11309700000.0 11309700000.0 11309700000.0 11309700000.0 11309700000.0 11309700000.0 11309700000.0 11309700000.0 11309700000.0 11309700000.0 11309700000.0 11309700000.0 11309700000.0 11309700000.0 11309700000.0 11309700000.0 11309700000.0 11309700000.0 11309700000.0 11309700000.0 11309700000.0 11309700000.0 11309700000.0 11309700000.0 11309700000.0 11309700000.0 11309700000.0 11309700000.0 11309700000.0 11309700000.0 11309700000.0 11309700000.0 11309700000.0 11309700000.0 11309700000.0 11309700000.0 11309700000.0 11309700000.0 11309700000.0 11309700000.0 11309700000.0 11309700000.0 11309700000.0 11309700000.0 11309700000.0 11309700000.0 11309700000.0 11309700000.0 11309700000.0 11309700000.0 11309700000.0 11309700000.0 11309700000.0 11309700000.0 11309700000.0 11309700000.0 11309700000.0 11309700000.0 11309700000.0 11309700000.0 11309700000.0 11309700000.0 11309700000.0 11309700000.0 11309700000.0 11309700000.0 11309700000.0 11309700000.0 11309700000.0 11309700000.0 11309700000.0 11309700000.0 11309700000.0 11309700000.0 11309700000.0 11309700000.0 11309700000.0 11309700000.0 11309700000.0 11309700000.0 11309700000.0 11309700000.0 11309700000.0 11309700000.0 11309700000.0 11309700000.0 11309700000.0 11309700000.0 11309700000.0 11309700000.0 11309700000.0 11309700000.0 11309700000.0 11309700000.0 11309700000.0 11309700000.0 11309700000.0 11309700000.0 11309700000.0 11309700000.0 11309700000.0 11309700000.0 11309700000.0 11309700000.0 11309700000.0 11309700000.0 11309700000.0 11309700000.0 11309700000.0 11309700000.0 11309700000.0 11309700000.0 11309700000.0 11309700000.0 11309700000.0 11309700000.0 11309700000.0 11309700000.0 11309700000.0 11309700000.0 11309700000.0 11309700000.0 11309700000.0 11309700000.0 11309700000.0 11309700000.0 11309700000.0 11309700000.0 11309700000.0 11309700000.0 11309700000.0 11309700000.0 11309700000.0 11309700000.0 11309700000.0 11309700000.0 11309700000.0 11309700000.0 11309700000.0 11309700000.0 11309700000.0 11309700000.0 11309700000.0 11309700000.0 11309700000.0 11309700000.0 11309700000.0 11309700000.0 11309700000.0 11309700000.0 11309700000.0 11309700000.0 11309700000.0 11309700000.0 11309700000.0 11309700000.0 11309700000.0 11309700000.0 11309700000.0 11309700000.0 11309700000.0 11309700000.0 11309700000.0 11309700000.0 11309700000.0 11309700000.0 11309700000.0 11309700000.0 11309700000.0 11309700000.0 11309700000.0 11309700000.0 11309700000.0 11309700000.0 11309700000.0 11309700000.0 11309700000.0 11309700000.0 11309700000.0 11309700000.0 11309700000.0 11309700000.0 11309700000.0 11309700000.0 11309700000.0 11309700000.0 11309700000.0 11309700000.0 11309700000.0 11309700000.0 11309700000.0 11309700000.0 11309700000.0 11309700000.0 11309700000.0 11309700000.0 11309700000.0 11309700000.0 11309700000.0 11309700000.0 11309700000.0 11309700000.0 11309700000.0 11309700000.0 11309700000.0 11309700000.0 11309700000.0 11309700000.0 11309700000.0 11309700000.0 11309700000.0 11309700000.0 11309700000.0 11309700000.0 11309700000.0 11309700000.0 11309700000.0 11309700000.0 11309700000.0 11309700000.0 11309700000.0 11309700000.0 11309700000.0 11309700000.0 11309700000.0 11309700000.0 11309700000.0 11309700000.0 11309700000.0 11309700000.0 11309700000.0 11309700000.0 11309700000.0 11309700000.0 11309700000.0 11309700000.0 11309700000.0 11309700000.0 11309700000.0 11309700000.0 11309700000.0 11309700000.0 11309700000.0 11309700000.0 11309700000.0 11309700000.0 11309700000.0 11309700000.0 11309700000.0 11309700000.0 11309700000.0 11309700000.0 11309700000.0 11309700000.0 11309700000.0 11309700000.0 11309700000.0 11309700000.0 11309700000.0 11309700000.0 11309700000.0 11309700000.0 11309700000.0 11309700000.0 11309700000.0 11309700000.0 11309700000.0 11309700000.0 11309700000.0 11309700000.0 11309700000.0 11309700000.0 11309700000.0 11309700000.0 11309700000.0 11309700000.0 11309700000.0 11309700000.0 11309700000.0 11309700000.0 11309700000.0 11309700000.0 11309700000.0 11309700000.0 11309700000.0 11309700000.0 11309700000.0 11309700000.0 11309700000.0 11309700000.0 11309700000.0 11309700000.0 11309700000.0 11309700000.0 11309700000.0 11309700000.0 11309700000.0 11309700000.0 11309700000.0 11309700000.0 11309700000.0 11309700000.0 11309700000.0 11309700000.0 11309700000.0 11309700000.0 11309700000.0 11309700000.0 11309700000.0 11309700000.0 11309700000.0 11309700000.0 11309700000.0 11309700000.0 11309700000.0 11309700000.0 11309700000.0 11309700000.0 11309700000.0 11309700000.0 11309700000.0 11309700000.0 11309700000.0 11309700000.0 11309700000.0 11309700000.0 11309700000.0 11309700000.0 11309700000.0 11309700000.0 11309700000.0 11309700000.0 11309700000.0 11309700000.0 11309700000.0 11309700000.0 11309700000.0 11309700000.0 11309700000.0 11309700000.0 11309700000.0 11309700000.0 11309700000.0 11309700000.0 11309700000.0 11309700000.0 11309700000.0 11309700000.0 11309700000.0 11309700000.0 11309700000.0 11309700000.0 11309700000.0 11309700000.0 11309700000.0 11309700000.0 11309700000.0 11309700000.0 11309700000.0 11309700000.0 11309700000.0 11309700000.0 11309700000.0 11309700000.0 11309700000.0 11309700000.0 11309700000.0 11309700000.0 11309700000.0 11309700000.0 11309700000.0 11309700000.0 11309700000.0 11309700000.0 11309700000.0 11309700000.0 11309700000.0 11309700000.0 11309700000.0 11309700000.0 11309700000.0 11309700000.0 11309700000.0 11309700000.0 11309700000.0 11309700000.0 11309700000.0 11309700000.0 11309700000.0 11309700000.0 11309700000.0 11309700000.0 11309700000.0 11309700000.0 11309700000.0 11309700000.0 11309700000.0 11309700000.0 11309700000.0 11309700000.0 11309700000.0 11309700000.0 11309700000.0 11309700000.0 11309700000.0 11309700000.0 11309700000.0 11309700000.0 11309700000.0 11309700000.0 11309700000.0 11309700000.0 11309700000.0 11309700000.0 11309700000.0 11309700000.0 11309700000.0 11309700000.0 11309700000.0 11309700000.0 11309700000.0 11309700000.0 11309700000.0 11309700000.0 11309700000.0 11309700000.0 11309700000.0 11309700000.0 11309700000.0 11309700000.0 11309700000.0 11309700000.0 11309700000.0 11309700000.0 11309700000.0 11309700000.0 11309700000.0 11309700000.0 11309700000.0 11309700000.0 11309700000.0 11309700000.0 11309700000.0 11309700000.0 11309700000.0 11309700000.0 11309700000.0 11309700000.0 11309700000.0 11309700000.0 11309700000.0 11309700000.0 11309700000.0 11309700000.0 11309700000.0 11309700000.0 11309700000.0 11309700000.0 11309700000.0 11309700000.0 11309700000.0 11309700000.0 11309700000.0 11309700000.0 11309700000.0 11309700000.0 11309700000.0 11309700000.0 11309700000.0 11309700000.0 11309700000.0 11309700000.0 11309700000.0 11309700000.0 11309700000.0 11309700000.0 11309700000.0 11309700000.0 11309700000.0 11309700000.0 11309700000.0 11309700000.0 11309700000.0 11309700000.0 11309700000.0 11309700000.0 11309700000.0 11309700000.0 11309700000.0 11309700000.0 11309700000.0 11309700000.0 11309700000.0 11309700000.0 11309700000.0 11309700000.0 11309700000.0 11309700000.0 11309700000.0 11309700000.0 11309700000.0 11309700000.0 11309700000.0 11309700000.0 11309700000.0 11309700000.0 11309700000.0 11309700000.0 11309700000.0 11309700000.0 11309700000.0 11309700000.0 11309700000.0 11309700000.0 11309700000.0 11309700000.0 11309700000.0 11309700000.0 11309700000.0 11309700000.0 11309700000.0 11309700000.0 11309700000.0 11309700000.0 11309700000.0 11309700000.0 11309700000.0 11309700000.0 11309700000.0 11309700000.0 11309700000.0 11309700000.0 11309700000.0 11309700000.0 11309700000.0 11309700000.0 11309700000.0 11309700000.0 11309700000.0 11309700000.0 11309700000.0 11309700000.0 11309700000.0 11309700000.0 11309700000.0 11309700000.0 11309700000.0 11309700000.0 11309700000.0 11309700000.0 11309700000.0 11309700000.0 11309700000.0 11309700000.0 11309700000.0 11309700000.0 11309700000.0 11309700000.0 11309700000.0 11309700000.0 11309700000.0 11309700000.0 11309700000.0 11309700000.0 11309700000.0 11309700000.0 11309700000.0 11309700000.0 11309700000.0 11309700000.0 11309700000.0 11309700000.0 11309700000.0 11309700000.0 11309700000.0 11309700000.0 11309700000.0 11309700000.0 11309700000.0 11309700000.0 11309700000.0 11309700000.0 11309700000.0 11309700000.0 11309700000.0 11309700000.0 11309700000.0 11309700000.0 11309700000.0 11309700000.0 11309700000.0 11309700000.0 11309700000.0 11309700000.0 11309700000.0 11309700000.0 11309700000.0 11309700000.0 11309700000.0 11309700000.0 11309700000.0 11309700000.0 11309700000.0 11309700000.0 11309700000.0 11309700000.0 11309700000.0 11309700000.0 11309700000.0 11309700000.0 11309700000.0 11309700000.0 11309700000.0 11309700000.0 11309700000.0 11309700000.0 11309700000.0 11309700000.0 11309700000.0 11309700000.0 11309700000.0 11309700000.0 11309700000.0 11309700000.0 11309700000.0 11309700000.0 11309700000.0 11309700000.0 11309700000.0 11309700000.0 11309700000.0 11309700000.0 11309700000.0 11309700000.0 11309700000.0 11309700000.0 11309700000.0 11309700000.0 11309700000.0 11309700000.0 11309700000.0 11309700000.0 11309700000.0 11309700000.0 11309700000.0 11309700000.0 11309700000.0 11309700000.0 11309700000.0 11309700000.0 11309700000.0 11309700000.0 11309700000.0 11309700000.0 11309700000.0 11309700000.0 11309700000.0 11309700000.0 11309700000.0 11309700000.0 11309700000.0 11309700000.0 11309700000.0 11309700000.0 11309700000.0 11309700000.0 11309700000.0 11309700000.0 11309700000.0 11309700000.0 11309700000.0 11309700000.0 11309700000.0 11309700000.0 11309700000.0 11309700000.0 11309700000.0 11309700000.0 11309700000.0 11309700000.0 11309700000.0 11309700000.0 11309700000.0 11309700000.0 11309700000.0 11309700000.0 11309700000.0 11309700000.0 11309700000.0 11309700000.0 11309700000.0 11309700000.0 11309700000.0 11309700000.0 11309700000.0 11309700000.0 11309700000.0 11309700000.0 11309700000.0 11309700000.0 11309700000.0 11309700000.0 11309700000.0 11309700000.0 11309700000.0 11309700000.0 11309700000.0 11309700000.0 11309700000.0 11309700000.0 11309700000.0 11309700000.0 11309700000.0 11309700000.0 11309700000.0 11309700000.0 11309700000.0 11309700000.0 11309700000.0 11309700000.0 11309700000.0 11309700000.0 11309700000.0 11309700000.0 11309700000.0 11309700000.0 11309700000.0 11309700000.0 11309700000.0 11309700000.0 11309700000.0 11309700000.0 11309700000.0 11309700000.0 11309700000.0 11309700000.0 11309700000.0 11309700000.0 11309700000.0 11309700000.0 11309700000.0 11309700000.0 11309700000.0 11309700000.0 11309700000.0 11309700000.0 11309700000.0 11309700000.0 11309700000.0 11309700000.0 11309700000.0 11309700000.0 11309700000.0 11309700000.0 11309700000.0 11309700000.0 11309700000.0 11309700000.0 11309700000.0 11309700000.0 11309700000.0 11309700000.0 11309700000.0 11309700000.0 11309700000.0 11309700000.0 11309700000.0 11309700000.0 11309700000.0 11309700000.0 11309700000.0 11309700000.0 11309700000.0 11309700000.0 11309700000.0 11309700000.0 11309700000.0 11309700000.0 11309700000.0 11309700000.0 11309700000.0 11309700000.0 11309700000.0 11309700000.0 11309700000.0 11309700000.0 11309700000.0 11309700000.0 11309700000.0 11309700000.0 11309700000.0 11309700000.0 11309700000.0 11309700000.0 11309700000.0 11309700000.0 11309700000.0 11309700000.0 11309700000.0 11309700000.0 11309700000.0 11309700000.0 11309700000.0 11309700000.0 11309700000.0 11309700000.0 11309700000.0 11309700000.0 11309700000.0 11309700000.0 11309700000.0 11309700000.0 11309700000.0 11309700000.0 11309700000.0 11309700000.0 11309700000.0 11309700000.0 11309700000.0 11309700000.0 11309700000.0 11309700000.0 11309700000.0 11309700000.0 11309700000.0 11309700000.0 11309700000.0 11309700000.0 11309700000.0 11309700000.0 11309700000.0 11309700000.0 11309700000.0 11309700000.0 11309700000.0 11309700000.0 11309700000.0 11309700000.0 11309700000.0 11309700000.0 11309700000.0 11309700000.0 11309700000.0 11309700000.0 11309700000.0 11309700000.0 11309700000.0 11309700000.0 11309700000.0 11309700000.0 11309700000.0 11309700000.0 11309700000.0 11309700000.0 11309700000.0 11309700000.0 11309700000.0 11309700000.0 11309700000.0 11309700000.0 11309700000.0 11309700000.0 11309700000.0 11309700000.0 11309700000.0 11309700000.0 11309700000.0 11309700000.0 11309700000.0 11309700000.0 11309700000.0 11309700000.0 11309700000.0 11309700000.0 11309700000.0 11309700000.0 11309700000.0 11309700000.0 11309700000.0 11309700000.0 11309700000.0 11309700000.0 11309700000.0 11309700000.0 11309700000.0 11309700000.0 11309700000.0 11309700000.0 11309700000.0 11309700000.0 11309700000.0 11309700000.0 11309700000.0 11309700000.0 11309700000.0 11309700000.0 11309700000.0 11309700000.0 11309700000.0 11309700000.0 11309700000.0 11309700000.0 11309700000.0 11309700000.0 11309700000.0 11309700000.0 11309700000.0 11309700000.0 11309700000.0 11309700000.0 11309700000.0 11309700000.0 11309700000.0 11309700000.0 11309700000.0 11309700000.0 11309700000.0 11309700000.0 11309700000.0 11309700000.0 11309700000.0 11309700000.0 11309700000.0 11309700000.0 11309700000.0 11309700000.0 11309700000.0 11309700000.0 11309700000.0 11309700000.0 11309700000.0 11309700000.0 11309700000.0 11309700000.0 11309700000.0 11309700000.0 11309700000.0 11309700000.0 11309700000.0 11309700000.0 11309700000.0 11309700000.0 11309700000.0 11309700000.0 11309700000.0 11309700000.0 11309700000.0 11309700000.0 11309700000.0 11309700000.0 11309700000.0 11309700000.0 11309700000.0 11309700000.0 11309700000.0 11309700000.0 11309700000.0 11309700000.0 11309700000.0 11309700000.0 11309700000.0 11309700000.0 11309700000.0 11309700000.0 11309700000.0 11309700000.0 11309700000.0 11309700000.0 11309700000.0 11309700000.0 11309700000.0 11309700000.0 11309700000.0 11309700000.0 11309700000.0 11309700000.0 11309700000.0 11309700000.0 11309700000.0 11309700000.0 11309700000.0 11309700000.0 11309700000.0 11309700000.0 11309700000.0 11309700000.0 11309700000.0 11309700000.0 11309700000.0 11309700000.0 11309700000.0 11309700000.0 11309700000.0 11309700000.0 11309700000.0 11309700000.0 11309700000.0 11309700000.0 11309700000.0 11309700000.0 11309700000.0 11309700000.0 11309700000.0 11309700000.0 11309700000.0 11309700000.0 11309700000.0 11309700000.0 11309700000.0 11309700000.0 11309700000.0 11309700000.0 11309700000.0 11309700000.0 11309700000.0 11309700000.0 11309700000.0 11309700000.0 11309700000.0 11309700000.0 11309700000.0 11309700000.0 11309700000.0 11309700000.0 11309700000.0 11309700000.0 11309700000.0 11309700000.0 11309700000.0 11309700000.0 11309700000.0 11309700000.0 11309700000.0 11309700000.0 11309700000.0 11309700000.0 11309700000.0 11309700000.0 11309700000.0 11309700000.0 11309700000.0 11309700000.0 11309700000.0 11309700000.0 11309700000.0 11309700000.0 11309700000.0 11309700000.0 11309700000.0 11309700000.0 11309700000.0 11309700000.0 11309700000.0 11309700000.0 11309700000.0 11309700000.0 11309700000.0 11309700000.0 11309700000.0 11309700000.0 11309700000.0 11309700000.0 11309700000.0 11309700000.0 11309700000.0 11309700000.0 11309700000.0 11309700000.0 11309700000.0 11309700000.0 11309700000.0 11309700000.0 11309700000.0 11309700000.0 11309700000.0 11309700000.0 11309700000.0 11309700000.0 11309700000.0 11309700000.0 11309700000.0 11309700000.0 11309700000.0 11309700000.0 11309700000.0 11309700000.0 11309700000.0 11309700000.0 11309700000.0 11309700000.0 11309700000.0 11309700000.0 11309700000.0 11309700000.0 11309700000.0 11309700000.0 11309700000.0 11309700000.0 11309700000.0 11309700000.0 11309700000.0 11309700000.0 11309700000.0 11309700000.0 11309700000.0 11309700000.0 11309700000.0 11309700000.0 11309700000.0 11309700000.0 11309700000.0 11309700000.0 11309700000.0 11309700000.0 11309700000.0 11309700000.0 11309700000.0 11309700000.0 11309700000.0 11309700000.0 11309700000.0 11309700000.0 11309700000.0 11309700000.0 11309700000.0 11309700000.0 11309700000.0 11309700000.0 11309700000.0 11309700000.0 11309700000.0 11309700000.0 11309700000.0 11309700000.0 11309700000.0 11309700000.0 11309700000.0 11309700000.0 11309700000.0 11309700000.0 11309700000.0 11309700000.0 11309700000.0 11309700000.0 11309700000.0 11309700000.0 11309700000.0 11309700000.0 11309700000.0 11309700000.0 11309700000.0 11309700000.0 11309700000.0 11309700000.0 11309700000.0 11309700000.0 11309700000.0 11309700000.0 11309700000.0 11309700000.0 11309700000.0 11309700000.0 11309700000.0 11309700000.0 11309700000.0 11309700000.0 11309700000.0 11309700000.0 11309700000.0 11309700000.0 11309700000.0 11309700000.0 11309700000.0 11309700000.0 11309700000.0 11309700000.0 11309700000.0 11309700000.0 11309700000.0 11309700000.0 11309700000.0 11309700000.0 11309700000.0 11309700000.0 11309700000.0 11309700000.0 11309700000.0 11309700000.0 11309700000.0 11309700000.0 11309700000.0 11309700000.0 11309700000.0 11309700000.0 11309700000.0 11309700000.0 11309700000.0 11309700000.0 11309700000.0 11309700000.0 11309700000.0 11309700000.0 11309700000.0 11309700000.0 11309700000.0 11309700000.0 11309700000.0 11309700000.0 11309700000.0 11309700000.0 11309700000.0 11309700000.0 11309700000.0 11309700000.0 11309700000.0 11309700000.0 11309700000.0 11309700000.0 11309700000.0 11309700000.0 11309700000.0 11309700000.0 11309700000.0 11309700000.0 11309700000.0 11309700000.0 11309700000.0 11309700000.0 11309700000.0 11309700000.0 11309700000.0 11309700000.0 11309700000.0 11309700000.0 11309700000.0 11309700000.0 11309700000.0 11309700000.0 11309700000.0 11309700000.0 11309700000.0 11309700000.0 11309700000.0 11309700000.0 11309700000.0 11309700000.0 11309700000.0 11309700000.0 11309700000.0 11309700000.0 11309700000.0 11309700000.0 11309700000.0 11309700000.0 11309700000.0 11309700000.0 11309700000.0 11309700000.0 11309700000.0 11309700000.0 11309700000.0 11309700000.0 11309700000.0 11309700000.0 11309700000.0 11309700000.0 11309700000.0 11309700000.0 11309700000.0 11309700000.0 11309700000.0 11309700000.0 11309700000.0 11309700000.0 11309700000.0 11309700000.0 11309700000.0 11309700000.0 11309700000.0 11309700000.0 11309700000.0 11309700000.0 11309700000.0 11309700000.0 11309700000.0 11309700000.0 11309700000.0 11309700000.0 11309700000.0 11309700000.0 11309700000.0 11309700000.0 11309700000.0 11309700000.0 11309700000.0 11309700000.0 11309700000.0 11309700000.0 11309700000.0 11309700000.0 11309700000.0 11309700000.0 11309700000.0 11309700000.0 11309700000.0 11309700000.0 11309700000.0 11309700000.0 11309700000.0 11309700000.0 11309700000.0 11309700000.0 11309700000.0 11309700000.0 11309700000.0 11309700000.0 11309700000.0 11309700000.0 11309700000.0 11309700000.0 11309700000.0 11309700000.0 11309700000.0 11309700000.0 11309700000.0 11309700000.0 11309700000.0 11309700000.0 11309700000.0 11309700000.0 11309700000.0 11309700000.0 11309700000.0 11309700000.0 11309700000.0 11309700000.0 11309700000.0 11309700000.0 11309700000.0 11309700000.0 11309700000.0 11309700000.0 11309700000.0 11309700000.0 11309700000.0 11309700000.0 11309700000.0 11309700000.0 11309700000.0 11309700000.0 11309700000.0 11309700000.0 11309700000.0 11309700000.0 11309700000.0 11309700000.0 11309700000.0 11309700000.0 11309700000.0 11309700000.0 11309700000.0 11309700000.0 11309700000.0 11309700000.0 11309700000.0 11309700000.0 11309700000.0 11309700000.0 11309700000.0 11309700000.0 11309700000.0 11309700000.0 11309700000.0 11309700000.0 11309700000.0 11309700000.0 11309700000.0 11309700000.0 11309700000.0 11309700000.0 11309700000.0 11309700000.0 11309700000.0 11309700000.0 11309700000.0 11309700000.0 11309700000.0 11309700000.0 11309700000.0 11309700000.0 11309700000.0 11309700000.0 11309700000.0 11309700000.0 11309700000.0 11309700000.0 11309700000.0 11309700000.0 11309700000.0 11309700000.0 11309700000.0 11309700000.0 11309700000.0 11309700000.0 11309700000.0 11309700000.0 11309700000.0 11309700000.0 11309700000.0 11309700000.0 11309700000.0 11309700000.0 11309700000.0 11309700000.0 11309700000.0 11309700000.0 11309700000.0 11309700000.0 11309700000.0 11309700000.0 11309700000.0 11309700000.0 11309700000.0 11309700000.0 11309700000.0 11309700000.0 11309700000.0 11309700000.0 11309700000.0 11309700000.0 11309700000.0 11309700000.0 11309700000.0 11309700000.0 11309700000.0 11309700000.0 11309700000.0 11309700000.0 11309700000.0 11309700000.0 11309700000.0 11309700000.0 11309700000.0 11309700000.0 11309700000.0 11309700000.0 11309700000.0 11309700000.0 11309700000.0 11309700000.0 11309700000.0 11309700000.0 11309700000.0 11309700000.0 11309700000.0 11309700000.0 11309700000.0 11309700000.0 11309700000.0 11309700000.0 11309700000.0 11309700000.0 11309700000.0 11309700000.0 11309700000.0 11309700000.0 11309700000.0 11309700000.0 11309700000.0 11309700000.0 11309700000.0 11309700000.0 11309700000.0 11309700000.0 11309700000.0 11309700000.0 11309700000.0 11309700000.0 11309700000.0 11309700000.0 11309700000.0 11309700000.0 11309700000.0 11309700000.0 11309700000.0 11309700000.0 11309700000.0 11309700000.0 11309700000.0 11309700000.0 11309700000.0 11309700000.0 11309700000.0 11309700000.0 11309700000.0 11309700000.0 11309700000.0 11309700000.0 11309700000.0 11309700000.0 11309700000.0 11309700000.0 11309700000.0 11309700000.0 11309700000.0 11309700000.0 11309700000.0 11309700000.0 11309700000.0 11309700000.0 11309700000.0 11309700000.0 11309700000.0 11309700000.0 11309700000.0 11309700000.0 11309700000.0 11309700000.0 11309700000.0 11309700000.0 11309700000.0 11309700000.0 11309700000.0 11309700000.0 11309700000.0 11309700000.0 11309700000.0 11309700000.0 11309700000.0 11309700000.0 11309700000.0 11309700000.0 11309700000.0 11309700000.0 11309700000.0 11309700000.0 11309700000.0 11309700000.0 11309700000.0 11309700000.0 11309700000.0 11309700000.0 11309700000.0 11309700000.0 11309700000.0 11309700000.0 11309700000.0 11309700000.0 11309700000.0 11309700000.0 11309700000.0 11309700000.0 11309700000.0 11309700000.0 11309700000.0 11309700000.0 11309700000.0 11309700000.0 11309700000.0 11309700000.0 11309700000.0 11309700000.0 11309700000.0 11309700000.0 11309700000.0 11309700000.0 11309700000.0 11309700000.0 11309700000.0 11309700000.0 11309700000.0 11309700000.0 11309700000.0 11309700000.0 11309700000.0 11309700000.0 11309700000.0 11309700000.0 11309700000.0 11309700000.0 11309700000.0 11309700000.0 11309700000.0 11309700000.0 11309700000.0 11309700000.0 11309700000.0 11309700000.0 11309700000.0 11309700000.0 11309700000.0 11309700000.0 11309700000.0 11309700000.0 11309700000.0 11309700000.0 11309700000.0 11309700000.0 11309700000.0 11309700000.0 11309700000.0 11309700000.0 11309700000.0 11309700000.0 11309700000.0 11309700000.0 11309700000.0 11309700000.0 11309700000.0 11309700000.0 11309700000.0 11309700000.0 11309700000.0 11309700000.0 11309700000.0 11309700000.0 11309700000.0 11309700000.0 11309700000.0 11309700000.0 11309700000.0 11309700000.0 11309700000.0 11309700000.0 11309700000.0 11309700000.0 11309700000.0 11309700000.0 11309700000.0 11309700000.0 11309700000.0 11309700000.0 11309700000.0 11309700000.0 11309700000.0 11309700000.0 11309700000.0 11309700000.0 11309700000.0 11309700000.0 11309700000.0 11309700000.0 11309700000.0 11309700000.0 11309700000.0 11309700000.0 11309700000.0 11309700000.0 11309700000.0 11309700000.0 11309700000.0 11309700000.0 11309700000.0 11309700000.0 11309700000.0 11309700000.0 11309700000.0 11309700000.0 11309700000.0 11309700000.0 11309700000.0 11309700000.0 11309700000.0 11309700000.0 11309700000.0 11309700000.0 11309700000.0 11309700000.0 11309700000.0 11309700000.0 11309700000.0 11309700000.0 11309700000.0 11309700000.0 11309700000.0 11309700000.0 11309700000.0 11309700000.0 11309700000.0 11309700000.0 11309700000.0 11309700000.0 11309700000.0 11309700000.0 11309700000.0 11309700000.0 11309700000.0 11309700000.0 11309700000.0 11309700000.0 11309700000.0 11309700000.0 11309700000.0 11309700000.0 11309700000.0 11309700000.0 11309700000.0 11309700000.0 11309700000.0 11309700000.0 11309700000.0 11309700000.0 11309700000.0 11309700000.0 11309700000.0 11309700000.0 11309700000.0 11309700000.0 11309700000.0 11309700000.0 11309700000.0 11309700000.0 11309700000.0 11309700000.0 11309700000.0 11309700000.0 11309700000.0 11309700000.0 11309700000.0 11309700000.0 11309700000.0 11309700000.0 11309700000.0 11309700000.0 11309700000.0 11309700000.0 11309700000.0 11309700000.0 11309700000.0 11309700000.0 11309700000.0 11309700000.0 11309700000.0 11309700000.0 11309700000.0 11309700000.0 11309700000.0 11309700000.0 11309700000.0 11309700000.0 11309700000.0 11309700000.0 11309700000.0 11309700000.0 11309700000.0 11309700000.0 11309700000.0 11309700000.0 11309700000.0 11309700000.0 11309700000.0 11309700000.0 11309700000.0 11309700000.0 11309700000.0 11309700000.0 11309700000.0 11309700000.0 11309700000.0 11309700000.0 11309700000.0 11309700000.0 11309700000.0 11309700000.0 11309700000.0 11309700000.0 11309700000.0 11309700000.0 11309700000.0 11309700000.0 11309700000.0 11309700000.0 11309700000.0 11309700000.0 11309700000.0 11309700000.0 11309700000.0 11309700000.0 11309700000.0 11309700000.0 11309700000.0 11309700000.0 11309700000.0 11309700000.0 11309700000.0 11309700000.0 11309700000.0 11309700000.0 11309700000.0 11309700000.0 11309700000.0 11309700000.0 11309700000.0 11309700000.0 11309700000.0 11309700000.0 11309700000.0 11309700000.0 11309700000.0 11309700000.0 11309700000.0 11309700000.0 11309700000.0 11309700000.0 11309700000.0 11309700000.0 11309700000.0 11309700000.0 11309700000.0 11309700000.0 11309700000.0 11309700000.0 11309700000.0 11309700000.0 11309700000.0 11309700000.0 11309700000.0 11309700000.0 11309700000.0 11309700000.0 11309700000.0 11309700000.0 11309700000.0 11309700000.0 11309700000.0 11309700000.0 11309700000.0 11309700000.0 11309700000.0 11309700000.0 11309700000.0 11309700000.0 11309700000.0 11309700000.0 11309700000.0 11309700000.0 11309700000.0 11309700000.0 11309700000.0 11309700000.0 11309700000.0 11309700000.0 11309700000.0 11309700000.0 11309700000.0 11309700000.0 11309700000.0 11309700000.0 11309700000.0 11309700000.0 11309700000.0 11309700000.0 11309700000.0 11309700000.0 11309700000.0 11309700000.0 11309700000.0 11309700000.0 11309700000.0 11309700000.0 11309700000.0 11309700000.0 11309700000.0 11309700000.0 11309700000.0 11309700000.0 11309700000.0 11309700000.0 11309700000.0 11309700000.0 11309700000.0 11309700000.0 11309700000.0 11309700000.0 11309700000.0 11309700000.0 11309700000.0 11309700000.0 11309700000.0 11309700000.0 11309700000.0 11309700000.0 11309700000.0 11309700000.0 11309700000.0 11309700000.0 11309700000.0 11309700000.0 11309700000.0 11309700000.0 11309700000.0 11309700000.0 11309700000.0 11309700000.0 11309700000.0 11309700000.0 11309700000.0 11309700000.0 11309700000.0 11309700000.0 11309700000.0 11309700000.0 11309700000.0 11309700000.0 11309700000.0 11309700000.0 11309700000.0 11309700000.0 11309700000.0 11309700000.0 11309700000.0 11309700000.0 11309700000.0 11309700000.0 11309700000.0 11309700000.0 11309700000.0 11309700000.0 11309700000.0 11309700000.0 11309700000.0 11309700000.0 11309700000.0 11309700000.0 11309700000.0 11309700000.0 11309700000.0 11309700000.0 11309700000.0 11309700000.0 11309700000.0 11309700000.0 11309700000.0 11309700000.0 11309700000.0 11309700000.0 11309700000.0 11309700000.0 11309700000.0 11309700000.0 11309700000.0 11309700000.0 11309700000.0 11309700000.0 11309700000.0 11309700000.0 11309700000.0 11309700000.0 11309700000.0 11309700000.0 11309700000.0 11309700000.0 11309700000.0 11309700000.0 11309700000.0 11309700000.0 11309700000.0 11309700000.0 11309700000.0 11309700000.0 11309700000.0 11309700000.0 11309700000.0 11309700000.0 11309700000.0 11309700000.0 11309700000.0 11309700000.0 11309700000.0 11309700000.0 11309700000.0 11309700000.0 11309700000.0 11309700000.0 11309700000.0 11309700000.0 11309700000.0 11309700000.0 11309700000.0 11309700000.0 11309700000.0 11309700000.0 11309700000.0 11309700000.0 11309700000.0 11309700000.0 11309700000.0 11309700000.0 11309700000.0 11309700000.0 11309700000.0 11309700000.0 11309700000.0 11309700000.0 11309700000.0 11309700000.0 11309700000.0 11309700000.0 11309700000.0 11309700000.0 11309700000.0 11309700000.0 11309700000.0 11309700000.0 11309700000.0 11309700000.0 11309700000.0 11309700000.0 11309700000.0 11309700000.0 11309700000.0 11309700000.0 11309700000.0 11309700000.0 11309700000.0 11309700000.0 11309700000.0 11309700000.0 11309700000.0 11309700000.0 11309700000.0 11309700000.0 11309700000.0 11309700000.0 11309700000.0 11309700000.0 11309700000.0 11309700000.0 11309700000.0 11309700000.0 11309700000.0 11309700000.0 11309700000.0 11309700000.0 11309700000.0 11309700000.0 11309700000.0 11309700000.0 11309700000.0 11309700000.0 11309700000.0 11309700000.0 11309700000.0 11309700000.0 11309700000.0 11309700000.0 11309700000.0 11309700000.0 11309700000.0 11309700000.0 11309700000.0 11309700000.0 11309700000.0 11309700000.0 11309700000.0 11309700000.0 11309700000.0 11309700000.0 11309700000.0 11309700000.0 11309700000.0 11309700000.0 11309700000.0 11309700000.0 11309700000.0 11309700000.0 11309700000.0 11309700000.0 11309700000.0 11309700000.0 11309700000.0 11309700000.0 11309700000.0 11309700000.0 11309700000.0 11309700000.0 11309700000.0 11309700000.0 11309700000.0 11309700000.0 11309700000.0 11309700000.0 11309700000.0 11309700000.0 11309700000.0 11309700000.0 11309700000.0 11309700000.0 11309700000.0 11309700000.0 11309700000.0 11309700000.0 11309700000.0 11309700000.0 11309700000.0 11309700000.0 11309700000.0 11309700000.0 11309700000.0 11309700000.0 11309700000.0 11309700000.0 11309700000.0 11309700000.0 11309700000.0 11309700000.0 11309700000.0 11309700000.0 11309700000.0 11309700000.0 11309700000.0 11309700000.0 11309700000.0 11309700000.0 11309700000.0 11309700000.0 11309700000.0 11309700000.0 11309700000.0 11309700000.0 11309700000.0 11309700000.0 11309700000.0 11309700000.0 11309700000.0 11309700000.0 11309700000.0 11309700000.0 11309700000.0 11309700000.0 11309700000.0 11309700000.0 11309700000.0 11309700000.0 11309700000.0 11309700000.0 11309700000.0 11309700000.0 11309700000.0 11309700000.0 11309700000.0 11309700000.0 11309700000.0 11309700000.0 11309700000.0 11309700000.0 11309700000.0 11309700000.0 11309700000.0 11309700000.0 11309700000.0 11309700000.0 11309700000.0 11309700000.0 11309700000.0 11309700000.0 11309700000.0 11309700000.0 11309700000.0 11309700000.0 11309700000.0 11309700000.0 11309700000.0 11309700000.0 11309700000.0 11309700000.0 11309700000.0 11309700000.0 11309700000.0 11309700000.0 11309700000.0 11309700000.0 11309700000.0 11309700000.0 11309700000.0 11309700000.0 11309700000.0 11309700000.0 11309700000.0 11309700000.0 11309700000.0 11309700000.0 11309700000.0 11309700000.0 11309700000.0 11309700000.0 11309700000.0 11309700000.0 11309700000.0 11309700000.0 11309700000.0 11309700000.0 11309700000.0 11309700000.0 11309700000.0 11309700000.0 11309700000.0 11309700000.0 11309700000.0 11309700000.0 11309700000.0 11309700000.0 11309700000.0 11309700000.0 11309700000.0 11309700000.0 11309700000.0 11309700000.0 11309700000.0 11309700000.0 11309700000.0 11309700000.0 11309700000.0 11309700000.0 11309700000.0 11309700000.0 11309700000.0 11309700000.0 11309700000.0 11309700000.0 11309700000.0 11309700000.0 11309700000.0 11309700000.0 11309700000.0 11309700000.0 11309700000.0 11309700000.0 11309700000.0 11309700000.0 11309700000.0 11309700000.0 11309700000.0 11309700000.0 11309700000.0 11309700000.0 11309700000.0 11309700000.0 11309700000.0 11309700000.0 11309700000.0 11309700000.0 11309700000.0 11309700000.0 11309700000.0 11309700000.0 11309700000.0 11309700000.0 11309700000.0 11309700000.0 11309700000.0 11309700000.0 11309700000.0 11309700000.0 11309700000.0 11309700000.0 11309700000.0 11309700000.0 11309700000.0 11309700000.0 11309700000.0 11309700000.0 11309700000.0 11309700000.0 11309700000.0 11309700000.0 11309700000.0 11309700000.0 11309700000.0 11309700000.0 11309700000.0 11309700000.0 11309700000.0 11309700000.0 11309700000.0 11309700000.0 11309700000.0 11309700000.0 11309700000.0 11309700000.0 11309700000.0 11309700000.0 11309700000.0 11309700000.0 11309700000.0 11309700000.0 11309700000.0 11309700000.0 11309700000.0 11309700000.0 11309700000.0 11309700000.0 11309700000.0 11309700000.0 11309700000.0 11309700000.0 11309700000.0 11309700000.0 11309700000.0 11309700000.0 11309700000.0 11309700000.0 11309700000.0 11309700000.0 11309700000.0 11309700000.0 11309700000.0 11309700000.0 11309700000.0 11309700000.0 11309700000.0 11309700000.0 11309700000.0 11309700000.0 11309700000.0 11309700000.0 11309700000.0 11309700000.0 11309700000.0 11309700000.0 11309700000.0 11309700000.0 11309700000.0 11309700000.0 11309700000.0 11309700000.0 11309700000.0 11309700000.0 11309700000.0 11309700000.0 11309700000.0 11309700000.0 11309700000.0 11309700000.0 11309700000.0 11309700000.0 11309700000.0 11309700000.0 11309700000.0 11309700000.0 11309700000.0 11309700000.0 11309700000.0 11309700000.0 11309700000.0 11309700000.0 11309700000.0 11309700000.0 11309700000.0 11309700000.0 11309700000.0 11309700000.0 11309700000.0 11309700000.0 11309700000.0 11309700000.0 11309700000.0 11309700000.0 11309700000.0 11309700000.0 11309700000.0 11309700000.0 11309700000.0 11309700000.0 11309700000.0 11309700000.0 11309700000.0 11309700000.0 11309700000.0 11309700000.0 11309700000.0 11309700000.0 11309700000.0 11309700000.0 11309700000.0 11309700000.0 11309700000.0 11309700000.0 11309700000.0 11309700000.0 11309700000.0 11309700000.0 11309700000.0 11309700000.0 11309700000.0 11309700000.0 11309700000.0 11309700000.0 11309700000.0 11309700000.0 11309700000.0 11309700000.0 11309700000.0 11309700000.0 11309700000.0 11309700000.0 11309700000.0 11309700000.0 11309700000.0 11309700000.0 11309700000.0 11309700000.0 11309700000.0 11309700000.0 11309700000.0 11309700000.0 11309700000.0 11309700000.0 11309700000.0 11309700000.0 11309700000.0 11309700000.0 11309700000.0 11309700000.0 11309700000.0 11309700000.0 11309700000.0 11309700000.0 11309700000.0 11309700000.0 11309700000.0 11309700000.0 11309700000.0 11309700000.0 11309700000.0 11309700000.0 11309700000.0 11309700000.0 11309700000.0 11309700000.0 11309700000.0 11309700000.0 11309700000.0 11309700000.0 11309700000.0 11309700000.0 11309700000.0 11309700000.0 11309700000.0 11309700000.0 11309700000.0 11309700000.0 11309700000.0 11309700000.0 11309700000.0 11309700000.0 11309700000.0 11309700000.0 11309700000.0 11309700000.0 11309700000.0 11309700000.0 11309700000.0 11309700000.0 11309700000.0 11309700000.0 11309700000.0 11309700000.0 11309700000.0 11309700000.0 11309700000.0 11309700000.0 11309700000.0 11309700000.0 11309700000.0 11309700000.0 11309700000.0 11309700000.0 11309700000.0 11309700000.0 11309700000.0 11309700000.0 11309700000.0 11309700000.0 11309700000.0 11309700000.0 11309700000.0 11309700000.0 11309700000.0 11309700000.0 11309700000.0 11309700000.0 11309700000.0 11309700000.0 11309700000.0 11309700000.0 11309700000.0 11309700000.0 11309700000.0 11309700000.0 11309700000.0 11309700000.0 11309700000.0 11309700000.0 11309700000.0 11309700000.0 11309700000.0 11309700000.0 11309700000.0 11309700000.0 11309700000.0 11309700000.0 11309700000.0 11309700000.0 11309700000.0 11309700000.0 11309700000.0 11309700000.0 11309700000.0 11309700000.0 11309700000.0 11309700000.0 11309700000.0 11309700000.0 11309700000.0 11309700000.0 11309700000.0 11309700000.0 11309700000.0 11309700000.0 11309700000.0 11309700000.0 11309700000.0 11309700000.0 11309700000.0 11309700000.0 11309700000.0 11309700000.0 11309700000.0 11309700000.0 11309700000.0 11309700000.0 11309700000.0 11309700000.0 11309700000.0 11309700000.0 11309700000.0 11309700000.0 11309700000.0 11309700000.0 11309700000.0 11309700000.0 11309700000.0 11309700000.0 11309700000.0 11309700000.0 11309700000.0 11309700000.0 11309700000.0 11309700000.0 11309700000.0 11309700000.0 11309700000.0 11309700000.0 11309700000.0 11309700000.0 11309700000.0 11309700000.0 11309700000.0 11309700000.0 11309700000.0 11309700000.0 11309700000.0 11309700000.0 11309700000.0 11309700000.0 11309700000.0 11309700000.0 11309700000.0 11309700000.0 11309700000.0 11309700000.0 11309700000.0 11309700000.0 11309700000.0 11309700000.0 11309700000.0 11309700000.0 11309700000.0 11309700000.0 11309700000.0 11309700000.0 11309700000.0 11309700000.0 11309700000.0 11309700000.0 11309700000.0 11309700000.0 11309700000.0 11309700000.0 11309700000.0 11309700000.0 11309700000.0 11309700000.0 11309700000.0 11309700000.0 11309700000.0 11309700000.0 11309700000.0 11309700000.0 11309700000.0 11309700000.0 11309700000.0 11309700000.0 11309700000.0 11309700000.0 11309700000.0 11309700000.0 11309700000.0 11309700000.0 11309700000.0 11309700000.0 11309700000.0 11309700000.0 11309700000.0 11309700000.0 11309700000.0 11309700000.0 11309700000.0 11309700000.0 11309700000.0 11309700000.0 11309700000.0 11309700000.0 11309700000.0 11309700000.0 11309700000.0 11309700000.0 11309700000.0 11309700000.0 11309700000.0 11309700000.0 11309700000.0 11309700000.0 11309700000.0 11309700000.0 11309700000.0 11309700000.0 11309700000.0 11309700000.0 11309700000.0 11309700000.0 11309700000.0 11309700000.0 11309700000.0 11309700000.0 11309700000.0 11309700000.0 11309700000.0 11309700000.0 11309700000.0 11309700000.0 11309700000.0 11309700000.0 11309700000.0 11309700000.0 11309700000.0 11309700000.0 11309700000.0 11309700000.0 11309700000.0 11309700000.0 11309700000.0 11309700000.0 11309700000.0 11309700000.0 11309700000.0 11309700000.0 11309700000.0 11309700000.0 11309700000.0 11309700000.0 11309700000.0 11309700000.0 11309700000.0 11309700000.0 11309700000.0 11309700000.0 11309700000.0 11309700000.0 11309700000.0 11309700000.0 11309700000.0 11309700000.0 11309700000.0 11309700000.0 11309700000.0 11309700000.0 11309700000.0 11309700000.0 11309700000.0 11309700000.0 11309700000.0 11309700000.0 11309700000.0 11309700000.0 11309700000.0 11309700000.0 11309700000.0 11309700000.0 11309700000.0 11309700000.0 11309700000.0 11309700000.0 11309700000.0 11309700000.0 11309700000.0 11309700000.0 11309700000.0 11309700000.0 11309700000.0 11309700000.0 11309700000.0 11309700000.0 11309700000.0 11309700000.0 11309700000.0 11309700000.0 11309700000.0 11309700000.0 11309700000.0 11309700000.0 11309700000.0 11309700000.0 11309700000.0 11309700000.0 11309700000.0 11309700000.0 11309700000.0 11309700000.0 11309700000.0 11309700000.0 11309700000.0 11309700000.0 11309700000.0 11309700000.0 11309700000.0 11309700000.0 11309700000.0 11309700000.0 11309700000.0 11309700000.0 11309700000.0 11309700000.0 11309700000.0 11309700000.0 11309700000.0 11309700000.0 11309700000.0 11309700000.0 11309700000.0 11309700000.0 11309700000.0 11309700000.0 11309700000.0 11309700000.0 11309700000.0 11309700000.0 11309700000.0 11309700000.0 11309700000.0 11309700000.0 11309700000.0 11309700000.0 11309700000.0 11309700000.0 11309700000.0 11309700000.0 11309700000.0 11309700000.0 11309700000.0 11309700000.0 11309700000.0 11309700000.0 11309700000.0 11309700000.0 11309700000.0 11309700000.0 11309700000.0 11309700000.0 11309700000.0 11309700000.0 11309700000.0 11309700000.0 11309700000.0 11309700000.0 11309700000.0 11309700000.0 11309700000.0 11309700000.0 11309700000.0 11309700000.0 11309700000.0 11309700000.0 11309700000.0 11309700000.0 11309700000.0 11309700000.0 11309700000.0 11309700000.0 11309700000.0 11309700000.0 11309700000.0 11309700000.0 11309700000.0 11309700000.0 11309700000.0 11309700000.0 11309700000.0 11309700000.0 11309700000.0 11309700000.0 11309700000.0 11309700000.0 11309700000.0 11309700000.0 11309700000.0 11309700000.0 11309700000.0 11309700000.0 11309700000.0 11309700000.0 11309700000.0 11309700000.0 11309700000.0 11309700000.0 11309700000.0 11309700000.0 11309700000.0 11309700000.0 11309700000.0 11309700000.0 11309700000.0 11309700000.0 11309700000.0 11309700000.0 11309700000.0 11309700000.0 11309700000.0 11309700000.0 11309700000.0 11309700000.0 11309700000.0 11309700000.0 11309700000.0 11309700000.0 11309700000.0 11309700000.0 11309700000.0 11309700000.0 11309700000.0 11309700000.0 11309700000.0 11309700000.0 11309700000.0 11309700000.0 11309700000.0 11309700000.0 11309700000.0 11309700000.0 11309700000.0 11309700000.0 11309700000.0 11309700000.0 11309700000.0 11309700000.0 11309700000.0 11309700000.0 11309700000.0 11309700000.0 11309700000.0 11309700000.0 11309700000.0 11309700000.0 11309700000.0 11309700000.0 11309700000.0 11309700000.0 11309700000.0 11309700000.0 11309700000.0 11309700000.0 11309700000.0 11309700000.0 11309700000.0 11309700000.0 11309700000.0 11309700000.0 11309700000.0 11309700000.0 11309700000.0 11309700000.0 11309700000.0 11309700000.0 11309700000.0 11309700000.0 11309700000.0 11309700000.0 11309700000.0 11309700000.0 11309700000.0 11309700000.0 11309700000.0 11309700000.0 11309700000.0 11309700000.0 11309700000.0 11309700000.0 11309700000.0 11309700000.0 11309700000.0 11309700000.0 11309700000.0 11309700000.0 11309700000.0 11309700000.0 11309700000.0 11309700000.0 11309700000.0 11309700000.0 11309700000.0 11309700000.0 11309700000.0 11309700000.0 11309700000.0 11309700000.0 11309700000.0 11309700000.0 11309700000.0 11309700000.0 11309700000.0 11309700000.0 11309700000.0 11309700000.0 11309700000.0 11309700000.0 11309700000.0 11309700000.0 11309700000.0 11309700000.0 11309700000.0 11309700000.0 11309700000.0 11309700000.0 11309700000.0 11309700000.0 11309700000.0 11309700000.0 11309700000.0 11309700000.0 11309700000.0 11309700000.0 11309700000.0 11309700000.0 11309700000.0 11309700000.0 11309700000.0 11309700000.0 11309700000.0 11309700000.0 11309700000.0 11309700000.0 11309700000.0 11309700000.0 11309700000.0 11309700000.0 11309700000.0 11309700000.0 11309700000.0 11309700000.0 11309700000.0 11309700000.0 11309700000.0 11309700000.0 11309700000.0 11309700000.0 11309700000.0 11309700000.0 11309700000.0 11309700000.0 11309700000.0 11309700000.0 11309700000.0 11309700000.0 11309700000.0 11309700000.0 11309700000.0 11309700000.0 11309700000.0 11309700000.0 11309700000.0 11309700000.0 11309700000.0 11309700000.0 11309700000.0 11309700000.0 11309700000.0 11309700000.0 11309700000.0 11309700000.0 11309700000.0 11309700000.0 11309700000.0 11309700000.0 11309700000.0 11309700000.0 11309700000.0 11309700000.0 11309700000.0 11309700000.0 11309700000.0 11309700000.0 11309700000.0 11309700000.0 11309700000.0 11309700000.0 11309700000.0 11309700000.0 11309700000.0 11309700000.0 11309700000.0 11309700000.0 11309700000.0 11309700000.0 11309700000.0 11309700000.0 11309700000.0 11309700000.0 11309700000.0 11309700000.0 11309700000.0 11309700000.0 11309700000.0 11309700000.0 11309700000.0 11309700000.0 11309700000.0 11309700000.0 11309700000.0 11309700000.0 11309700000.0 11309700000.0 11309700000.0 11309700000.0 11309700000.0 11309700000.0 11309700000.0 11309700000.0 11309700000.0 11309700000.0 11309700000.0 11309700000.0 11309700000.0 11309700000.0 11309700000.0 11309700000.0 11309700000.0 11309700000.0 11309700000.0 11309700000.0 11309700000.0 11309700000.0 11309700000.0 11309700000.0 11309700000.0 11309700000.0 11309700000.0 11309700000.0 11309700000.0 11309700000.0 11309700000.0 11309700000.0 11309700000.0 11309700000.0 11309700000.0 11309700000.0 11309700000.0 11309700000.0 11309700000.0 11309700000.0 11309700000.0 11309700000.0 11309700000.0 11309700000.0 11309700000.0 11309700000.0 11309700000.0 11309700000.0 11309700000.0 11309700000.0 11309700000.0 11309700000.0 11309700000.0 11309700000.0 11309700000.0 11309700000.0 11309700000.0 11309700000.0 11309700000.0 11309700000.0 11309700000.0 11309700000.0 11309700000.0 11309700000.0 11309700000.0 11309700000.0 11309700000.0 11309700000.0 11309700000.0 11309700000.0 11309700000.0 11309700000.0 11309700000.0 11309700000.0 11309700000.0 11309700000.0 11309700000.0 11309700000.0 11309700000.0 11309700000.0 11309700000.0 11309700000.0 11309700000.0 11309700000.0 11309700000.0 11309700000.0 11309700000.0 11309700000.0 11309700000.0 11309700000.0 11309700000.0 11309700000.0 11309700000.0 11309700000.0 11309700000.0 11309700000.0 11309700000.0 11309700000.0 11309700000.0 11309700000.0 11309700000.0 11309700000.0 11309700000.0 11309700000.0 11309700000.0 11309700000.0 11309700000.0 11309700000.0 11309700000.0 11309700000.0 11309700000.0 11309700000.0 11309700000.0 11309700000.0 11309700000.0 11309700000.0 11309700000.0 11309700000.0 11309700000.0 11309700000.0 11309700000.0 11309700000.0 11309700000.0 11309700000.0 
SCALARS Velocity float 1
LOOKUP_TABLE default
1.08962 1.08243 1.08269 1.08257 1.09983 1.08542 1.10766 1.11139 1.11353 1.11584 1.12221 1.07463 1.08797 1.09041 1.08918 1.08811 1.08209 1.08238 1.0826 1.10167 1.10344 1.10569 1.1096 1.1135 1.11848 1.12621 1.05832 1.08532 1.09041 1.08837 1.08857 1.08219 1.08202 1.08603 1.10178 1.10188 1.1078 1.11147 1.11583 1.12217 1.05159 1.09 1.09043 1.08975 1.08937 1.08779 1.08808 1.08734 1.08755 1.08198 1.08198 1.08209 1.08204 1.08625 1.10324 1.10594 1.10709 1.10948 1.11177 1.11372 1.11622 1.11857 1.12181 1.12656 1.06804 1.06175 1.09028 1.08812 1.08685 1.08649 1.08166 1.08198 1.08194 1.08142 1.10104 1.10218 1.10087 1.10469 1.10946 1.11454 1.11879 1.12626 1.06872 1.09079 1.08835 1.08647 1.08596 1.08163 1.08183 1.08634 1.09977 1.10011 1.10667 1.11244 1.11763 1.1211 1.09409 1.08986 1.08864 1.08617 1.08631 1.0846 1.08529 1.08441 1.0852 1.0811 1.08165 1.08114 1.08644 1.09716 1.10292 1.10946 1.1133 1.11611 1.12032 1.12077 1.12363 1.12354 1.11566 1.10013 1.09388 1.0866 1.08397 1.08346 1.08382 1.0804 1.0811 1.08128 1.08126 1.08072 1.08749 1.0929 1.0942 1.09839 1.10017 1.10532 1.10882 1.11835 1.12444 1.12267 1.10302 1.08875 1.0836 1.08237 1.08281 1.08061 1.08077 1.08651 1.08969 1.09452 1.10273 1.11403 1.12413 1.12629 1.11471 1.09446 1.08424 1.08053 1.08126 1.07991 1.08151 1.08129 1.0825 1.07984 1.08156 1.08664 1.08678 1.08937 1.09552 1.10721 1.12115 1.12904 1.12894 1.13018 1.12332 1.11465 1.10355 1.09304 1.0871 1.08096 1.07814 1.0796 1.08139 1.08 1.08052 1.08344 1.08609 1.088 1.08694 1.0857 1.08591 1.08288 1.08828 1.08829 1.09828 1.10409 1.11441 1.12462 1.13511 1.12566 1.1024 1.08348 1.0766 1.07731 1.08002 1.08191 1.08795 1.08836 1.08121 1.0793 1.09126 1.11429 1.13587 1.13604 1.11488 1.08919 1.07597 1.07147 1.07449 1.07459 1.07784 1.07906 1.08059 1.08133 1.0864 1.09121 1.08478 1.07392 1.07781 1.09911 1.12973 1.14623 1.14392 1.14399 1.1293 1.11454 1.09946 1.08229 1.07729 1.06893 1.0703 1.07626 1.08003 1.0837 1.08462 1.09068 1.09224 1.09668 1.09138 1.08449 1.0748 1.06169 1.06676 1.06404 1.08147 1.09296 1.11431 1.13899 1.1563 1.1332 1.09391 1.06809 1.06522 1.07184 1.07831 1.08781 1.09779 1.09707 1.06713 1.05141 1.06956 1.11537 1.16235 1.15321 1.11227 1.07142 1.05598 1.06002 1.05839 1.06578 1.06905 1.07481 1.07751 1.07947 1.08724 1.0923 1.09496 1.10427 1.0882 1.04834 1.04757 1.08479 1.15566 1.18466 1.17212 1.16086 1.13539 1.10726 1.0851 1.05615 1.05031 1.06119 1.07317 1.07846 1.09258 1.09948 1.10387 1.11443 1.10788 1.10126 1.06054 1.03497 1.03492 1.02802 1.05476 1.07164 1.11394 1.18365 1.18659 1.13378 1.07499 1.04261 1.05187 1.0657 1.07613 1.0965 1.10905 1.12532 1.05356 1.01921 1.04255 1.10221 1.20813 1.16047 1.10307 1.07666 1.03738 1.03401 1.04221 1.04394 1.05569 1.06073 1.0708 1.07378 1.07644 1.10029 1.10371 1.10274 1.11349 1.12189 1.13108 1.02561 1.00979 1.06663 1.23129 1.20654 1.1896 1.15877 1.12645 1.09151 1.04911 1.03119 1.04757 1.06761 1.07326 1.11296 1.10848 1.12813 1.13548 1.15183 1.04985 1.00201 1.00417 1.02631 1.06926 1.10904 1.07686 0.891396 1.21553 1.11224 1.0625 1.06481 1.08598 1.03181 1.03482 1.05275 1.07087 1.11393 1.11677 1.14665 1.06207 1.03566 1.07899 1.06481 0.688232 1.15166 1.10464 1.07779 1.05943 1.05103 1.06245 1.10047 1.04012 1.06514 1.06968 1.06962 1.12915 1.12255 1.11277 1.11889 1.13162 1.14932 1.16368 1.06709 1.00593 1.11476 0.935745 1.25345 1.1604 1.07874 1.06106 1.0768 1.09986 1.08536 1.07065 1.06666 1.15382 1.11668 1.13292 1.16931 1.20635 1.1307 1.06199 1.0136 0.958325 1.06085 1.04254 0.703984 1.24517 1.11573 1.06605 1.0816 1.07361 1.07941 1.08269 1.07373 1.09531 1.07215 1.1894 1.13699 1.11711 1.11715 1.13208 1.15434 1.18244 1.1562 1.00677 0.880717 0.980967 1.00584 1.00936 1.1796 1.17093 1.12653 1.08994 1.07153 1.09621 1.07041 1.06713 1.0968 1.08649 1.06732 1.14342 1.11315 1.15868 1.1897 1.12978 1.05629 0.966771 0.937445 1.01892 1.08373 1.15004 1.09353 1.11649 1.13235 1.09201 1.07572 1.05302 1.05065 1.07971 1.11622 1.06952 1.24149 1.13928 1.10728 1.12768 1.15081 1.17995 1.1695 1.03683 0.91565 0.969585 1.06554 1.12924 1.12401 1.12057 1.05508 1.17255 1.11045 1.06429 1.02849 1.09075 1.33376 1.07696 1.09387 1.11172 1.1609 1.12144 1.04015 0.983688 0.954216 0.941033 0.976174 1.00788 1.09228 1.10427 1.09807 1.03406 1.14098 1.07806 1.03923 0.993128 1.15945 1.05299 1.05597 1.43269 1.11538 1.08818 1.078 1.11472 1.11555 1.14847 1.12898 1.01111 0.969346 1.00691 1.04694 1.08504 1.1031 1.21272 1.14167 1.11658 1.10418 1.00091 0.964573 1.13683 1.11794 1.50202 1.21679 1.00806 1.05286 1.06028 1.12283 1.06288 0.992712 0.989442 1.02867 1.06345 1.05137 1.05772 0.998557 1.04601 1.21753 1.13216 1.06244 1.00037 1.06346 1.12824 0.945924 1.17685 0.724989 1.58359 1.29387 0.993556 0.993911 1.00173 0.983112 1.05529 1.14155 1.10171 1.08303 1.05542 1.004 1.00901 1.00544 1.0313 1.02046 1.01938 1.12316 1.16322 1.1268 1.10364 1.05644 1.00084 1.01374 1.03165 1.08411 4.26038 0.270253 1.14285 0.621109 1.26644 0.953202 0.995332 0.983218 0.963676 1.01629 1.07002 1.13734 1.23197 1.03294 1.02376 1.01346 1.0088 1.01495 0.994952 1.06366 1.11204 1.07875 1.0173 1.05237 1.22284 2.39759 0.260781 0.374363 0.423189 3.12368 1.56641 1.05719 1.06766 1.00437 0.996438 0.955343 0.928743 1.28295 1.17339 1.05127 1.06986 1.03217 0.991856 0.993828 0.98151 1.00527 1.06391 1.08554 1.04533 1.01913 1.13634 1.05328 1.04894 0.786334 0.499214 0.477073 0.0844936 0.666301 0.99556 1.77767 1.10759 0.678062 1.20262 1.2168 1.07007 1.02719 0.998315 1.00867 0.804013 1.68701 1.43316 1.12986 1.10259 1.11545 1.01432 0.974918 0.984257 1.02516 1.05138 1.05699 1.0449 1.04109 1.05244 1.07577 1.09401 1.16015 0.607626 0.574769 0.555577 0.58033 0.10114 0.190068 0.800451 1.442 0.881756 1.42059 1.09115 1.02383 1.0246 1.02982 0.793647 0.395408 0.89591 0.738055 1.18934 1.20398 1.23132 1.09789 1.04856 0.987478 0.963067 0.989797 1.02685 1.01767 1.03793 1.04497 1.06846 1.07606 0.950856 0.962655 0.644502 0.600603 0.585157 0.594313 0.559058 0.357431 0.289111 0.886136 1.14552 0.952829 1.05092 0.923522 0.0673228 1.13382 1.11268 1.06689 1.01624 0.935795 0.818513 0.342731 0.984625 1.21845 1.18464 1.01046 0.968286 0.956459 0.962004 0.99053 1.00372 1.02668 1.01778 1.04494 1.03661 1.04228 0.988469 0.849869 0.741422 0.48248 0.600007 0.596165 0.60179 0.598927 0.704024 0.498347 0.532259 0.54804 0.676655 0.602129 0.685505 0.383146 0.642678 1.34202 1.22035 1.00528 0.971639 0.922836 0.730658 0.758966 1.02025 1.28434 1.10966 0.990779 0.948248 0.963312 0.96087 0.98291 0.987279 1.00457 0.981568 0.858329 0.621704 0.571201 0.594963 0.595288 0.600613 0.600261 0.597282 0.59636 0.755865 0.768726 0.661685 0.59985 0.579283 0.58413 0.567488 0.630154 0.73344 1.37423 1.01842 0.967367 0.966561 0.923526 0.933742 0.879807 0.788042 0.749743 0.565229 0.796307 0.800642 0.876456 1.0599 1.12556 1.29349 1.1905 1.08063 0.971361 0.942799 0.951317 0.967695 0.950761 0.974668 0.970121 0.973918 0.904478 0.931753 0.840033 0.770606 0.625704 0.612884 0.599848 0.594859 0.594478 0.592129 0.598518 0.743207 0.79009 0.678423 0.597107 0.579317 0.587885 0.616977 0.609351 0.627386 0.729488 0.998784 1.05159 0.988143 0.917541 0.887769 0.8214 0.705751 0.832345 0.802538 1.31555 1.25606 1.06925 1.02579 0.946148 0.927428 0.934606 0.937207 0.939766 0.921775 0.835041 0.899942 0.747078 0.669081 0.641007 0.606509 0.599436 0.592298 0.59179 0.596316 0.596342 0.709789 0.801897 0.840208 0.700889 0.70311 0.602156 0.569316 0.579255 0.609563 0.670209 0.751942 0.852777 0.923757 0.965906 0.918877 0.875479 0.880481 0.858511 0.85919 0.797476 0.810441 0.908911 1.14401 1.35826 1.24102 0.963658 0.91088 0.922326 0.910292 0.927181 0.932304 0.937868 0.85286 0.820328 0.673101 0.80573 0.715925 0.661423 0.624182 0.612364 0.617071 0.601189 0.58763 0.591063 0.593996 0.597879 0.597211 0.60623 0.45902 0.792999 0.825328 0.598024 0.523255 0.538989 0.536819 0.545189 0.587051 0.62991 0.732572 0.877046 0.906449 0.914592 0.866479 0.848975 0.8474 0.838539 0.833819 0.793163 0.83074 0.918724 0.923846 1.1201 0.962964 1.26421 1.15841 1.59422 1.15197 0.923517 0.891988 0.908947 0.933564 0.825508 0.776251 0.77313 0.727729 0.700327 0.655205 0.595946 0.603771 0.588043 0.582497 0.594412 0.594258 0.609031 0.427157 0.415468 0.259792 0.608782 0.70622 0.711074 0.601312 0.508128 0.518869 0.544307 0.617103 0.664231 0.918791 0.900334 0.850493 0.855531 0.81169 0.834096 0.83734 0.841141 0.824458 0.823854 0.814598 0.698057 0.912676 1.54614 1.40018 1.01925 0.941707 0.89958 0.880885 0.870583 0.843952 0.929243 0.973079 0.764269 0.717127 0.727573 0.602743 0.598225 0.628875 0.570641 0.568048 0.570007 0.586061 0.586341 0.586973 0.60189 0.608197 0.604065 0.209094 0.242918 0.360979 0.530265 0.807917 0.624366 0.511089 0.522761 0.508374 0.530843 0.54781 0.59085 0.646352 0.705591 0.919939 0.992402 0.862334 0.745572 0.780193 0.798303 0.822437 0.819264 0.832732 0.83269 0.805286 0.760984 0.634082 0.464334 0.6107 1.16396 0.911208 0.855601 0.823592 0.802368 0.825245 0.775705 0.755242 0.746342 0.711066 0.668483 0.559298 0.620933 0.59865 0.563905 0.537808 0.548967 0.573903 0.573371 0.588798 0.589216 0.59872 0.595667 0.572929 0.134736 0.177266 0.309826 0.459597 0.865843 0.928082 0.626502 0.609254 0.474648 0.52647 0.585209 0.677144 0.804436 0.256614 0.72667 0.729892 0.762949 0.802345 0.817079 0.828185 0.815633 0.814084 0.780488 0.761797 0.697834 0.661378 0.548051 0.455 0.344718 0.322136 0.344531 0.984481 0.877275 0.858665 0.837736 0.856453 0.502045 0.54592 0.761238 0.733204 0.743951 0.739699 0.748051 0.574959 0.592692 0.507122 0.56469 0.573739 0.545889 0.552658 0.571702 0.579216 0.53355 0.0831362 0.0700243 0.0952196 0.064009 0.336712 0.113308 0.798189 0.562204 0.586164 0.566299 0.577284 0.619371 0.650071 0.578355 0.668213 0.702896 0.730624 0.768802 0.806776 0.80952 0.793187 0.733903 0.626277 0.466476 0.328537 0.279305 0.468456 0.627079 0.815751 0.911058 0.872194 0.867219 0.756393 0.559421 0.667645 0.724539 0.714326 0.694396 0.680134 0.748199 0.642866 0.646968 0.56887 0.517842 0.552341 0.51848 0.547026 0.5069 0.547591 0.548336 0.551961 0.509714 0.478487 0.114021 0.0942137 0.0853664 0.0872274 0.188713 0.0828753 0.240667 0.71917 0.743861 0.688357 0.645479 0.593751 0.589103 0.594035 0.601444 0.604235 0.537993 0.375728 0.512102 0.707591 0.712585 0.745026 0.793967 0.794982 0.802285 0.791427 0.795454 0.760341 0.682581 0.568212 0.437652 0.436474 0.677214 0.830639 0.866561 0.842166 0.822736 0.726333 0.593708 0.604387 0.687149 0.670582 0.658185 0.677865 0.688597 0.665131 0.735088 0.493964 0.504596 0.5186 0.460711 0.498054 0.535288 0.518693 0.518909 0.470552 0.428944 0.385363 0.121582 0.134941 0.155869 0.230832 0.307959 0.389792 0.439028 0.722763 0.686363 0.630085 0.62789 0.615423 0.60061 0.594448 0.548052 0.433691 0.757942 0.727212 0.713301 0.702196 0.796025 0.78677 0.778793 0.774392 0.747572 0.722146 0.688282 0.638746 0.612579 0.538152 0.547765 0.481204 0.564741 0.577764 0.684937 0.755481 0.785683 0.839199 0.839294 0.796684 0.713141 0.616833 0.629093 0.622738 0.629396 0.642241 0.62811 0.627317 0.626034 0.602966 0.568037 0.66562 0.262206 0.383459 0.483016 0.479532 0.506473 0.482262 0.511536 0.494161 0.499548 0.501425 0.477709 0.426762 0.400493 0.132761 0.176322 0.165103 0.203843 0.188345 0.235022 0.305802 0.317106 0.377171 0.431765 0.522675 0.647089 0.70093 0.655069 0.65928 0.648911 0.629896 0.597921 0.578277 0.54849 0.509503 0.411943 0.455586 0.683178 0.654056 0.676173 0.651555 0.771878 0.778863 0.761773 0.721989 0.664688 0.6088 0.590031 0.641678 0.731941 0.799409 0.805713 0.778078 0.637629 0.62108 0.62452 0.617196 0.608926 0.595842 0.58978 0.574668 0.564234 0.590501 0.488375 0.421325 0.546647 0.442544 0.429864 0.477248 0.468089 0.4887 0.468097 0.411713 0.450885 0.0472221 0.127666 0.134509 0.221225 0.262761 0.32261 0.36581 0.414553 0.426143 0.534733 0.592603 0.65546 0.629695 0.661638 0.647274 0.586445 0.559639 0.535265 0.506425 0.49069 0.472075 0.666919 0.641832 0.656025 0.694715 0.759005 0.782213 0.771726 0.750223 0.743518 0.701414 0.655399 0.626624 0.640198 0.696756 0.757142 0.774786 0.794161 0.775977 0.690192 0.619346 0.627997 0.462728 0.451839 0.416222 0.467404 0.349341 0.436145 0.440758 0.450251 0.480699 0.513168 0.459082 0.417663 0.382273 0.497797 0.0237494 0.129064 0.209816 0.226904 0.285879 0.33651 0.359998 0.421078 0.467222 0.555232 0.679188 0.672595 0.69058 0.566668 0.549079 0.540389 0.528874 0.531397 0.65118 0.540811 0.64401 0.640226 0.632574 0.638246 0.758892 0.746764 0.730236 0.718988 0.691253 0.686736 0.659595 0.672906 0.654432 0.682061 0.681079 0.70808 0.72165 0.734411 0.752993 0.809943 0.655796 0.636786 0.627073 0.605132 0.57815 0.553586 0.543958 0.542304 0.560963 0.523408 0.429761 0.35652 0.392578 0.387984 0.400382 0.361714 0.409937 0.411219 0.472652 0.493927 0.469198 0.56326 0.428658 0.94286 0.0162763 0.0327874 0.128948 0.224528 0.313619 0.304183 0.353611 0.373368 0.431568 0.498187 0.466009 0.58015 0.381086 0.543671 0.53787 0.547 0.550807 0.564899 0.573636 0.598588 0.633979 0.614882 0.612351 0.580205 0.647996 0.786091 0.749818 0.741334 0.710365 0.690406 0.688893 0.703315 0.721381 0.741196 0.729566 0.728341 0.761139 0.526024 0.634445 0.634171 0.596762 0.536536 0.509201 0.515045 0.53404 0.522923 0.487596 0.44076 0.396448 0.3502 0.329805 0.338042 0.449561 0.390354 0.363139 0.417929 0.497064 0.390455 0.667936 0.820569 0.917428 0.657677 0.00315432 0.0398375 0.107996 0.248958 0.367087 0.333145 0.429493 0.375951 0.40045 0.391416 0.41547 0.423172 0.613513 0.836073 0.723445 0.517228 0.698784 0.61471 0.595411 0.607521 0.615139 0.620957 0.619692 0.610551 0.644746 0.757749 0.762633 0.741585 0.745281 0.733527 0.706408 0.697038 0.704184 0.717455 0.728421 0.721769 0.738577 0.688617 0.603069 0.61638 0.636736 0.655463 0.570387 0.490562 0.481494 0.513092 0.51986 0.505681 0.476505 0.427116 0.376085 0.30175 0.259321 0.26807 0.0951231 0.2445 0.329955 0.369226 0.425736 0.436253 1.03638 0.345503 0.466672 0.400587 0.455802 0.333336 0.0246902 0.058632 0.0538982 0.343244 0.454955 0.452015 0.427793 0.402087 0.408999 0.410593 0.434272 0.370181 0.318687 0.390816 0.101846 0.465531 0.501486 0.556415 0.564063 0.570623 0.581525 0.605094 0.612445 0.613138 0.611848 0.608107 0.514857 0.586884 0.722138 0.722035 0.755001 0.757146 0.742644 0.723657 0.717033 0.705967 0.707445 0.705704 0.71505 0.716579 0.726939 0.727432 0.725681 0.728616 0.696348 0.562995 0.583807 0.612599 0.647414 0.726859 0.492383 0.480271 0.499944 0.519825 0.506322 0.497475 0.472181 0.437665 0.379529 0.277783 0.179563 0.111895 0.155901 0.200771 0.290915 0.394437 0.667411 0.583244 0.282135 0.150045 0.334723 0.220524 0.0519093 0.0839947 0.356216 0.240184 0.374893 0.627616 0.51349 0.392127 0.451199 0.424331 0.416626 0.404417 0.335222 0.348471 0.328636 0.313193 0.466689 0.580752 0.587147 0.591814 0.592733 0.594989 0.606409 0.606147 0.602992 0.588092 0.53571 0.512679 0.674152 0.713813 0.727478 0.780925 0.730862 0.712675 0.712122 0.72555 0.734938 0.740405 0.724478 0.652871 0.587906 0.587099 0.602923 0.650026 0.911808 0.529143 0.501269 0.520264 0.52573 0.512506 0.507253 0.509729 0.477014 0.393202 0.19591 0.0932358 0.174845 0.178136 0.174019 0.24486 0.375346 0.399938 0.476449 0.448479 0.408979 0.162789 0.23452 0.26777 0.295502 0.0848228 0.0789151 0.106296 0.158079 0.146883 0.315326 0.663878 0.639204 0.352695 0.403504 0.373589 0.42024 0.406528 0.401479 0.348114 0.275836 0.522557 0.366846 0.617896 0.623948 0.630286 0.608196 0.604561 0.605434 0.610525 0.612005 0.614134 0.611318 0.583294 0.553858 0.529846 0.529221 0.569688 0.683855 0.705323 0.763033 0.743022 0.732402 0.721268 0.709492 0.71926 0.737218 0.747874 0.765782 0.750569 0.685387 0.640391 0.592761 0.592484 0.608621 0.696402 0.448975 0.178699 0.280711 0.262856 0.162554 0.110333 0.231767 0.497305 0.414887 0.327155 0.166249 0.397598 0.269607 0.188696 0.0172342 0.0132276 0.148609 0.255012 0.440891 0.346157 0.959184 0.393103 0.385959 0.378553 0.396874 0.383595 0.321717 0.331492 0.571663 0.980054 1.15572 0.799963 0.67204 0.623197 0.603004 0.606057 0.610933 0.612844 0.613456 0.609808 0.600441 0.566158 0.547679 0.540607 0.560021 0.577596 0.652805 0.657265 0.745304 0.829516 0.715473 0.729269 0.715848 0.703112 0.71239 0.720364 0.730484 0.742037 0.769237 0.728909 0.694452 0.65127 0.56233 0.285222 0.342815 0.475559 0.508516 0.519941 0.525393 0.543236 0.55047 0.537153 0.475461 0.290628 0.0818307 0.206682 0.378038 0.431048 0.406883 0.291278 0.239764 0.448764 0.138063 0.0555781 0.073314 0.0709973 0.130944 0.177204 0.177422 0.268036 0.313929 0.241937 0.25254 0.58946 0.7009 0.477877 0.42918 0.387426 0.387552 0.359915 0.224688 0.424759 0.583815 0.59937 0.607702 0.611766 0.609509 0.600784 0.586469 0.552399 0.559032 0.574567 0.615612 0.634998 0.749666 0.891352 0.668187 0.759214 0.709846 0.711436 0.734778 0.760539 0.760987 0.74029 0.694649 0.618952 0.629078 0.672653 0.60935 0.375175 0.303137 0.407284 0.463077 0.490797 0.521737 0.543767 0.569514 0.607344 0.655271 0.745671 0.444985 0.0265827 0.260609 0.39316 0.556078 0.241487 0.397213 0.335953 0.42806 0.244857 0.264841 0.588477 0.702842 0.324547 0.0936489 0.0438881 0.261235 0.0268816 0.0584676 0.115479 0.195494 0.261213 0.213929 0.105492 0.482702 0.571057 0.443978 0.394841 0.378291 0.296833 0.244973 0.349291 0.266145 1.30024 0.608442 0.590221 0.572039 0.571861 0.596654 0.606202 0.607593 0.601799 0.591157 0.575842 0.559813 0.569644 0.59021 0.603324 0.593614 0.647417 0.889829 0.630249 0.745296 0.71452 0.717479 0.692212 0.720157 0.719115 0.750831 0.768978 0.77995 0.780562 0.758693 0.652284 0.647524 0.658629 0.627259 0.496614 0.391067 0.360633 0.416095 0.455333 0.486411 0.524341 0.562168 0.59475 0.66395 0.804392 1.16597 1.04495 0.504944 0.403258 0.388534 0.537261 0.061297 0.213062 0.33084 0.544298 0.887023 0.284065 0.0583822 0.0731515 0.105413 0.0146237 0.665931 0.693679 0.771115 0.0342306 0.142289 0.168987 0.183725 0.189885 0.372533 0.48704 0.402334 0.411326 0.393372 0.263307 0.276539 0.507008 0.551196 0.853429 0.521775 0.514915 0.518577 0.542815 0.57585 0.606686 0.603743 0.595803 0.584199 0.570139 0.560665 0.56063 0.680933 0.732807 0.733907 0.757389 0.778505 0.799472 0.666175 0.667097 0.664328 0.645277 0.581875 0.468892 0.393743 0.374625 0.419258 0.461013 0.492591 0.526067 0.557866 0.59168 0.681063 0.862973 1.44958 0.828494 0.362944 0.504452 0.282269 0.187419 0.176301 0.484044 0.797144 0.867013 0.855223 0.229515 0.197049 0.113931 0.185692 0.0314255 0.065377 0.667177 0.579428 0.570299 0.505311 0.16863 0.209627 0.260423 0.215828 0.258017 0.387684 0.450175 0.433495 0.434195 0.430531 0.406584 0.36653 0.356298 0.695865 0.72176 0.636127 0.509075 0.496453 0.515399 0.556085 0.584499 0.600684 0.607573 0.600469 0.590558 0.579007 0.569022 0.564516 0.567268 0.577724 0.586819 0.589582 0.610223 0.652817 0.583771 0.690355 0.752995 0.718221 0.722943 0.718895 0.726363 0.739919 0.763288 0.795113 0.808286 0.655726 0.673489 0.672837 0.66597 0.626901 0.55878 0.437665 0.379325 0.389922 0.429637 0.46909 0.496309 0.510677 0.52423 0.547903 0.614712 0.845551 1.52622 0.748444 0.553515 0.474267 0.321474 0.264484 0.161682 0.113816 0.318799 1.04097 1.19274 0.598091 0.338485 0.312596 0.18706 0.382236 0.651713 0.579525 0.480462 0.392892 0.302979 0.214985 0.244735 0.347982 0.302044 0.378768 0.468357 0.454958 0.433202 0.424788 0.427046 0.429283 0.587767 0.647107 0.677539 0.610378 0.522859 0.505491 0.548721 0.575083 0.595378 0.607968 0.596092 0.585002 0.575859 0.56989 0.56859 0.572506 0.580052 0.58739 0.602358 0.625949 0.623704 0.64743 0.708198 0.727095 0.728592 0.714481 0.718034 0.712893 0.728654 0.745527 0.835262 0.650295 0.66941 0.678035 0.675395 0.657616 0.472292 0.481527 0.594203 0.954071 1.33767 0.401855 0.49753 0.492625 0.19554 0.102311 0.11038 0.586282 1.0334 0.504576 0.512483 0.419484 0.438786 0.317841 0.26885 0.395781 0.617055 0.60432 0.599849 0.467104 0.41358 0.430185 0.370434 0.202199 0.25114 0.310522 0.271758 0.25157 0.293912 0.475098 0.476083 0.459982 0.433787 0.428488 0.454384 0.585914 0.589796 0.613409 0.614685 0.606733 0.574658 0.572082 0.573537 0.578409 0.586133 0.599078 0.61545 0.626069 0.647011 0.676354 0.70685 0.721897 0.719654 0.716553 0.717922 0.722224 0.776963 0.833139 0.640457 0.663851 0.675241 0.625297 0.567808 0.375506 0.374145 0.400305 0.436738 0.467103 0.482686 0.481209 0.751321 1.08497 0.678478 0.304661 0.282524 0.248814 0.238346 0.135424 0.120659 0.0606485 0.61135 0.949047 0.867009 0.621041 0.210508 0.264413 0.275719 0.363449 0.378944 0.56203 0.579169 0.578289 0.477767 0.497336 0.422336 0.30602 0.266179 0.278572 0.262323 0.143502 0.226959 0.429962 0.461549 0.46758 0.458436 0.457689 0.4218 0.48176 0.481029 0.581613 0.652952 0.641531 0.561739 0.488164 0.567635 0.623679 0.613969 0.602018 0.59039 0.581043 0.579685 0.586435 0.597007 0.61112 0.62439 0.642678 0.664641 0.686974 0.706837 0.732881 0.755908 0.80939 0.634025 0.676405 0.668524 0.657588 0.647666 0.634669 0.317256 0.351114 0.392944 0.431716 0.454213 0.457004 0.444493 0.438831 0.513034 0.837569 0.573553 0.394525 0.293839 0.213001 0.139839 0.161282 0.103563 0.311213 0.511186 0.874655 0.830978 0.146829 0.226379 0.274753 0.371794 0.363214 0.37223 0.371832 0.568311 0.494928 0.374668 0.461131 0.576536 0.33024 0.284209 0.31163 0.288897 0.206723 0.382213 0.483285 0.483527 0.485004 0.476906 0.45315 0.465214 0.508681 0.548573 0.610466 0.62034 0.534545 0.488822 0.629622 0.612488 0.599279 0.585185 0.62447 0.608289 0.595128 0.585175 0.578537 0.575438 0.575816 0.715633 0.718159 0.718825 0.723564 0.728685 0.737097 0.769145 0.653842 0.666053 0.669888 0.665415 0.658792 0.655568 0.660937 0.720681 0.267177 0.322998 0.382157 0.424009 0.43963 0.434846 0.435967 0.492929 0.653048 0.905154 0.547727 0.345597 0.186962 0.223622 0.146424 0.190123 0.184145 0.431196 0.69335 0.852014 0.220949 0.0335451 0.204152 0.211869 0.209724 0.35281 0.369545 0.534579 0.545175 0.456741 0.508238 0.417088 0.345233 0.331208 0.277696 0.265367 0.420526 0.456433 0.508647 0.481065 0.494859 0.482367 0.543179 0.563496 0.538697 0.50118 0.410364 0.693094 0.625456 0.603099 0.590864 0.577377 0.620642 0.601142 0.588955 0.581939 0.578338 0.578408 0.581515 0.587626 0.596871 0.608593 0.622384 0.638111 0.65627 0.675112 0.692503 0.705917 0.713479 0.717566 0.721986 0.727044 0.728708 0.719344 0.624025 0.643932 0.653797 0.657058 0.655116 0.650736 0.646799 0.650312 0.683369 0.784072 0.227175 0.307163 0.37925 0.422584 0.435045 0.442439 0.484076 0.588484 0.762919 0.855139 0.761261 0.478604 0.354481 0.216065 0.10569 0.156845 0.317515 0.508003 0.64702 0.280903 0.241947 0.222492 0.209959 0.197164 0.229549 0.365393 0.427918 0.372754 0.854213 0.601583 0.261213 0.187507 0.347573 0.386134 0.416955 0.477341 0.512129 0.507432 0.512275 0.512655 0.534633 0.576823 0.535138 0.468984 0.396422 0.734111 0.649188 0.608917 0.593822 0.584809 0.574078 0.613344 0.594439 0.585585 0.581513 0.581082 0.583779 0.589398 0.597784 0.608743 0.621217 0.635426 0.650824 0.666737 0.682206 0.695277 0.705219 0.711683 0.716409 0.719234 0.718797 0.704085 0.626488 0.632599 0.6402 0.64417 0.64319 0.638897 0.634616 0.634838 0.65056 0.70231 0.454213 0.481354 0.549114 0.667949 0.78608 0.737819 0.64063 0.222649 0.241222 0.178187 0.169542 0.391551 0.526364 0.683804 0.266113 0.264088 0.22192 0.317307 0.0935964 0.568193 0.45642 0.401002 0.505026 0.586686 0.299147 0.368215 0.461833 0.511393 0.524615 0.530224 0.540896 0.568129 0.557572 0.624573 0.601478 0.591933 0.584222 0.573785 0.585367 0.584086 0.58596 0.591264 0.599554 0.609967 0.621913 0.634403 0.647495 0.661068 0.674194 0.686439 0.696186 0.703033 0.707753 0.709167 0.649937 0.62725 0.629138 0.632142 0.63244 0.628939 0.822135 0.206562 0.3147 0.397083 0.430623 0.526543 0.605458 0.705989 0.725947 0.710374 0.607373 0.433871 0.356432 0.278815 0.13233 0.160568 0.227049 0.558254 0.278343 0.292431 0.336983 0.0724203 1.04057 0.792112 0.619384 0.51834 0.594427 0.480819 0.344933 0.424372 0.492679 0.514767 0.533442 0.552419 0.582498 0.589055 0.578649 0.498591 0.432306 0.757178 0.672755 0.605224 0.590958 0.623839 0.634781 0.645669 0.65686 0.705749 0.693253 0.659515 0.637615 0.625154 0.622879 0.629125 0.655519 0.717987 0.8368 0.213432 0.378003 0.409406 0.467608 0.48661 0.638596 0.695327 0.702953 0.651129 0.591065 0.458935 0.320259 0.148892 0.175175 0.324684 0.438103 0.349764 0.360397 0.452853 0.403197 0.311332 0.0767299 0.17228 0.734392 1.17233 1.00006 0.934139 0.398697 0.492117 0.460535 0.460523 0.509023 0.534383 0.556888 0.576463 0.532344 0.540911 0.502842 0.770088 0.6916 0.643298 0.616213 0.602121 0.593764 0.585542 0.576113 0.59888 0.59038 0.587995 0.58793 0.592317 0.600928 0.61212 0.668026 0.678434 0.687699 0.694373 0.698137 0.699531 0.695347 0.683706 0.62544 0.624597 0.625034 0.622012 0.619314 0.616912 0.618753 0.632239 0.665412 0.728242 0.835963 0.356262 0.396457 0.494793 0.49521 0.517453 0.56369 0.680106 0.669074 0.630719 0.570732 0.426997 0.316064 0.218835 0.198045 0.326375 0.387169 0.461168 0.41327 0.433781 0.376608 0.894636 0.554381 0.397579 0.507452 0.463882 0.507999 0.537148 0.548691 0.56357 0.603221 0.56952 0.51716 0.521245 0.776374 0.708477 0.660702 0.632857 0.6158 0.604297 0.595834 0.588258 0.581204 0.594942 0.593554 0.590854 0.591381 0.600076 0.613531 0.627282 0.637084 0.64529 0.654205 0.663345 0.672033 0.679877 0.686181 0.689632 0.690459 0.687158 0.677611 0.660969 0.644052 0.630522 0.622914 0.621095 0.619025 0.616972 0.615653 0.616468 0.624155 0.643145 0.678506 0.736469 0.839412 0.351434 0.570288 0.506968 0.518239 0.54052 0.584561 0.644934 0.655839 0.606551 0.585554 0.497906 0.096691 0.0305328 0.43533 0.406354 0.38178 0.305044 0.573185 1.25647 1.28585 0.71661 0.537318 0.454032 0.512269 0.499854 0.552372 0.584195 0.606696 0.556677 0.505081 0.767912 0.722452 0.678745 0.649405 0.630265 0.616606 0.606554 0.598842 0.592553 0.587808 0.599011 0.596101 0.591895 0.593603 0.611307 0.631793 0.641425 0.646701 0.653137 0.660163 0.667259 0.673665 0.678947 0.682144 0.682337 0.679886 0.673341 0.661305 0.647618 0.635417 0.626397 0.622006 0.618927 0.61744 0.617563 0.618993 0.624256 0.636463 0.658398 0.691903 0.745218 0.813841 0.654239 0.538277 0.526428 0.53504 0.557079 0.591248 0.633644 0.672752 0.617552 0.580657 0.567427 0.236125 0.279855 0.36749 0.425746 0.388521 0.416542 1.21614 0.862108 1.09221 0.763341 0.527623 0.525343 0.532357 0.535263 0.561153 0.570413 0.598528 0.66751 0.650235 0.602367 0.76333 0.604196 0.599551 0.600005 0.601736 0.596847 0.590416 0.59565 0.636665 0.648183 0.649015 0.653399 0.658382 0.663781 0.668926 0.673078 0.675931 0.67638 0.673741 0.668551 0.660946 0.650986 0.639714 0.631771 0.625705 0.621297 0.620352 0.543038 0.553554 0.57097 0.591629 0.621939 0.64764 0.652802 0.596362 0.778417 0.360719 0.396543 0.458223 0.494368 0.925536 0.726433 0.565296 0.54091 0.558346 0.572585 0.581234 0.593583 0.639789 0.721339 0.693058 0.665377 0.645026 0.629851 0.618814 0.610558 0.621104 0.623328 0.628085 0.637008 0.651335 0.671472 0.697974 0.73016 0.800355 0.496216 0.586957 0.547887 0.584812 0.597232 0.614847 0.63107 0.648588 0.63864 0.855553 0.436096 0.471173 0.501962 0.514527 0.386099 0.766331 0.845952 0.569622 0.569271 0.55777 0.580161 0.595 0.607379 0.673416 0.636759 0.607669 0.706904 0.695926 0.676286 0.657564 0.643161 0.631945 0.623472 0.616923 0.612001 0.609357 0.607638 0.604321 0.596425 0.584611 0.659278 0.651275 0.654662 0.657827 0.661465 0.665448 0.668921 0.671028 0.671604 0.670021 0.665932 0.659955 0.652228 0.644527 0.637015 0.630226 0.626387 0.624746 0.625657 0.628148 0.632854 0.640315 0.650954 0.664792 0.681019 0.69811 0.711444 0.534656 0.566249 0.591181 0.572205 0.5639 0.573414 0.611876 0.621598 0.634753 0.674168 0.67103 0.760562 0.507599 0.501992 0.440502 0.903081 0.819206 0.868675 0.78936 0.661233 0.576041 0.595758 0.579108 0.592949 0.608786 0.624756 0.651854 0.656765 0.63998 0.654724 0.68555 0.678957 0.666331 0.654573 0.644768 0.636708 0.630108 0.62468 0.620542 0.616808 0.612339 0.604791 0.59056 0.556211 0.700683 0.655166 0.658346 0.659032 0.66067 0.663181 0.665857 0.667977 0.668798 0.668103 0.665227 0.660609 0.654277 0.647663 0.641498 0.636066 0.631922 0.630386 0.630907 0.633272 0.637551 0.644016 0.65268 0.663387 0.675306 0.686708 0.693021 0.635495 0.591265 0.593646 0.591063 0.581601 0.58177 0.589434 0.600327 0.635025 0.663749 0.711104 0.758351 0.82993 0.878929 0.504315 0.421999 0.892168 0.69352 0.613145 0.583365 0.618275 0.640362 0.621007 0.629304 0.632942 0.659018 0.655567 0.652743 0.660578 0.671775 0.669445 0.662977 0.656054 0.649306 0.643008 0.637227 0.632018 0.627267 0.621797 0.613808 0.60028 0.574414 0.69097 0.667434 0.662521 0.661685 0.662739 0.66431 0.66604 0.667511 0.667776 0.666392 0.662697 0.657237 0.651553 0.646078 0.641129 0.637868 0.636225 0.636443 0.63844 0.642087 0.64763 0.654853 0.663392 0.604638 0.599536 0.595352 0.589376 0.604916 0.618334 0.627651 0.684479 0.741585 0.825936 0.859985 0.865096 0.505332 0.498864 0.857592 0.926407 0.893398 0.616894 0.606612 0.649112 0.626432 0.63943 0.640924 0.641611 0.638313 0.670177 0.559991 0.683377 0.672345 0.68015 0.684459 0.664111 0.639555 0.619754 0.58948 0.603146 0.621679 0.630663 0.637771 0.668729 0.839041 0.854002 0.833928 0.506514 0.412137 0.907082 0.871919 0.949651 0.914453 0.766159 0.671855 0.689918 0.653059 0.666235 0.654117 0.654504 0.655171 0.660472 0.667094 0.667733 0.665048 0.660751 0.654944 0.649126 0.643424 0.638013 0.632111 0.623953 0.611373 0.590689 0.690602 0.668847 0.664274 0.663907 0.66511 0.666198 0.667433 0.668078 0.667907 0.665239 0.660954 0.656207 0.650915 0.646425 0.643353 0.641737 0.641597 0.642981 0.646202 0.651068 0.657231 0.664186 0.671195 0.677033 0.679955 0.673121 0.662547 0.649393 0.635243 0.612953 0.622763 0.627719 0.636799 0.658729 0.665258 0.699667 0.794465 0.841434 0.801019 0.747502 0.765897 0.83729 0.976377 0.951738 0.564416 0.943875 0.681082 0.718307 0.709569 0.674731 0.648794 0.641369 0.665643 0.657219 0.656588 0.662794 0.670082 0.672686 0.670235 0.665334 0.659991 0.654358 0.648497 0.64203 0.634125 0.623138 0.605713 0.580517 0.684091 0.678707 0.66988 0.666727 0.66707 0.668358 0.66959 0.669815 0.66953 0.667661 0.664916 0.661063 0.656245 0.65192 0.648592 0.646666 0.646108 0.646965 0.649638 0.653762 0.659126 0.66507 0.670837 0.675637 0.678272 0.676349 0.671964 0.666574 0.656601 0.643278 0.639926 0.606254 0.604483 0.624209 0.640026 0.652239 0.669635 0.757942 0.801367 0.840675 0.856632 0.782328 0.775703 0.951188 0.962362 0.717349 0.716309 0.731255 0.679411 0.663307 0.658139 0.616721 0.669785 0.65801 0.662376 0.671351 0.679032 0.679034 0.674912 0.669714 0.664188 0.658744 0.651763 0.643655 0.634055 0.620231 0.59949 0.566685 0.681662 0.674063 0.669754 0.6699 0.671285 0.672938 0.673702 0.672542 0.670661 0.669198 0.666047 0.662036 0.657909 0.65389 0.651004 0.649872 0.650168 0.652259 0.655736 0.660225 0.665322 0.670303 0.674456 0.676965 0.677467 0.675759 0.6735 0.67245 0.654272 0.673332 0.603276 0.623989 0.639756 0.623845 0.631815 0.655169 0.757973 0.780095 0.810189 0.818427 0.802314 0.89383 0.804879 0.975944 0.826415 0.587808 0.893832 0.908009 0.680955 0.683482 0.682393 0.647741 0.605796 0.668725 0.6324 0.615769 0.590191 0.683025 0.674254 0.669918 0.670596 0.6751 0.667625 0.663736 0.659542 0.655926 0.653173 0.623548 0.654556 0.638991 0.624881 0.627164 0.643945 0.808001 0.890612 0.935816 0.911548 0.736704 0.795703 0.895457 0.828875 0.895448 0.913651 0.789248 0.743848 0.714941 0.686871 0.685728 0.665822 0.673256 0.686778 0.687254 0.684276 0.679014 0.673215 0.668206 0.664755 0.656712 0.647332 0.658972 0.678481 0.679944 0.680119 0.678048 0.673147 0.671027 0.652567 0.653467 0.656207 0.660113 0.664605 0.669063 0.672788 0.675463 0.676564 0.677128 0.676145 0.677727 0.668454 0.68157 0.629425 0.644144 0.623485 0.660763 0.767935 0.77365 0.786815 0.95685 0.731848 0.859113 0.871635 0.906978 0.892703 0.795284 0.732889 0.685651 0.718156 0.625411 0.59184 0.67156 0.684079 0.693933 0.697094 0.693144 0.687423 0.681267 0.675759 0.677736 0.686173 0.672067 0.655174 0.633163 0.598004 0.5929 0.782718 0.668694 0.668888 0.674246 0.684373 0.689447 0.694181 0.693976 0.68338 0.68023 0.673145 0.669196 0.664612 0.660299 0.656821 0.654478 0.653903 0.655132 0.658116 0.662203 0.666515 0.670264 0.672873 0.674469 0.67548 0.677377 0.676876 0.672265 0.696927 0.641849 0.643737 0.656653 0.657178 0.911325 0.768566 0.773703 0.775901 0.794366 0.821082 0.880561 0.838249 0.645503 0.894519 0.869065 0.893808 0.904507 0.848181 0.777828 0.708744 0.56626 0.755122 0.831375 0.751399 0.764123 0.792745 0.689745 0.711745 0.703694 0.702337 0.695832 0.688591 0.680822 0.691399 0.710389 0.713003 0.687705 0.687489 0.603457 0.597618 0.62216 0.662355 0.677796 0.682908 0.693044 0.707227 0.707492 0.704707 0.704957 0.679878 0.674457 0.66959 0.66387 0.659183 0.655659 0.653215 0.653027 0.654595 0.657995 0.662045 0.665927 0.668687 0.670788 0.672076 0.673449 0.679122 0.657995 0.693221 0.688069 0.644911 0.658696 0.709024 0.709215 0.703885 0.89772 0.905587 0.807751 0.823988 0.829397 0.83825 0.873242 0.893885 0.727377 0.647455 0.849447 0.83086 0.911913 0.86151 0.820922 0.672686 0.679567 0.785789 0.676576 0.761605 0.761564 0.802258 0.864224 0.8985 0.782034 0.735586 0.838811 0.87052 0.822236 0.755898 0.809677 0.684762 0.850739 0.806919 0.805444 0.825798 0.683891 0.710886 0.70832 0.702304 0.701481 0.698378 0.682927 0.745753 0.734698 0.73665 0.72252 0.737869 0.647777 0.949072 0.766023 0.800257 0.726081 0.688618 0.698185 0.700005 0.734251 0.726965 0.684588 0.678528 0.673074 0.667168 0.661062 0.655775 0.651515 0.649311 0.649511 0.651874 0.655367 0.659211 0.662607 0.665268 0.667218 0.667716 0.670695 0.666649 0.662734 0.695447 0.656687 0.667864 0.703122 0.75686 0.955889 0.767602 0.798501 0.791639 0.825531 0.840143 0.749192 0.842829 0.900139 0.86883 0.858583 0.837275 0.792164 0.725015 0.841319 0.686988 0.822788 0.8371 0.826586 0.827943 0.840977 0.770167 0.785397 0.793634 0.798386 0.802981 0.805611 0.731091 0.748184 0.762466 0.745489 0.693678 0.837119 0.807384 0.761399 0.805564 0.767422 0.759171 0.701468 0.852168 0.706697 0.692499 0.716969 0.7141 0.69671 0.679098 0.674378 0.668453 0.660971 0.655985 0.648589 0.645315 0.64218 0.644092 0.646282 0.650389 0.653818 0.657092 0.65982 0.661463 0.661277 0.653828 0.678867 0.697111 0.793195 0.776417 0.764131 0.782667 0.774272 0.779403 0.987846 0.72378 0.766341 0.815224 0.833183 0.886924 0.891254 0.898524 0.90439 0.843968 0.897135 0.814756 0.866948 0.912927 0.76937 0.730054 0.78284 0.893832 0.893832 0.893832 0.913292 0.882705 0.846591 0.807118 0.741119 0.850061 0.791802 0.698341 0.84853 0.86642 0.877569 0.885189 0.866728 0.840757 0.800572 0.803668 0.803929 0.80585 0.783892 0.753918 0.748848 0.75581 0.814275 0.788521 0.811853 0.826717 0.784631 0.760236 0.845483 0.858691 0.805806 0.860252 0.815488 0.820643 0.820012 0.821062 0.819161 0.820943 0.817116 0.81849 0.816922 0.820435 0.822397 0.826301 0.829329 0.833319 0.836199 0.838608 0.838287 0.849433 0.842056 0.817984 0.879994 0.870334 0.858645 0.872475 0.854173 0.897838 0.914384 0.794691 0.869003 0.899327 0.889674 0.898478 0.896404 0.894534 0.830468 0.877031 0.895078 0.893925 0.892585 0.880516 0.881545 0.879664 0.908941 0.836914 0.968654 0.875999 0.902402 0.897425 0.895792 0.895621 0.884794 0.837171 0.834813 0.840283 0.842867 0.842466 0.835173 0.826912 0.828774 0.839006 0.835162 0.846659 0.806522 0.893832 0.820474 0.779273 0.756801 0.871785 0.818045 0.882219 0.843243 0.886176 0.861028 0.868049 0.867612 0.871359 0.87099 0.876014 0.872764 0.876947 0.874981 0.879523 0.880553 0.883257 0.883351 0.884307 0.884345 0.883401 0.87729 0.87639 0.86369 0.884868 0.897405 0.888258 0.877552 0.886877 0.872436 0.895212 0.895077 0.836249 0.879881 0.904418 0.896929 0.899911 0.897355 0.895183 0.894355 0.893918 0.893862 0.83787 0.880942 0.897532 0.897026 0.89438 0.877615 0.880663 0.893763 0.912328 0.840757 0.896041 0.891682 0.90176 0.897289 0.895481 0.894182 0.891044 0.859432 0.858473 0.860662 0.860357 0.861435 0.862828 0.86242 0.860538 0.862772 0.855551 0.889155 0.835026 0.879535 0.880059 0.815669 0.843695 0.893133 0.842615 0.891335 0.855392 0.89276 0.867909 0.872783 0.870257 0.873829 0.871317 0.876308 0.869851 0.874024 0.869446 0.874518 0.874638 0.877576 0.876946 0.877986 0.877378 0.876833 0.869451 0.869285 0.861592 0.892353 0.890089 0.882531 0.875288 0.882429 0.873272 0.89385 0.894911 0.83685 0.878389 0.897906 0.895474 0.899156 0.897026 0.895232 0.893856 0.893832 0.893832 0.845733 0.879127 0.89384 0.893874 0.891174 0.871171 0.87243 0.881386 0.897173 0.83324 0.896468 0.890788 0.901331 0.897353 0.895857 0.894491 0.889603 0.872121 0.868238 0.867307 0.865723 0.866763 0.868659 0.87045 0.866779 0.87075 0.86011 0.892393 0.859075 0.886595 0.895993 0.827289 0.8419 0.893768 0.85138 0.89194 0.861948 0.891953 0.871903 0.87514 0.870703 0.873691 0.869226 0.874285 0.864834 0.868857 0.861651 0.867175 0.866323 0.869423 0.868451 0.869799 0.869464 0.869429 0.861559 0.863854 0.862034 0.889391 0.88501 0.878713 0.87429 0.879781 0.875953 0.893837 0.893833 0.843276 0.876551 0.891243 0.892936 0.897144 0.896024 0.894832 0.893861 0.893835 0.893832 0.858603 0.878233 0.893832 0.893866 0.889309 0.867144 0.865795 0.869959 0.882528 0.826687 0.893852 0.887762 0.89879 0.89624 0.89519 0.894366 0.891978 0.879109 0.874852 0.873293 0.870647 0.871058 0.872121 0.87428 0.869735 0.876018 0.864513 0.892489 0.869521 0.887676 0.897616 0.830235 0.846902 0.890831 0.857293 0.891086 0.867118 0.890858 0.875544 0.877792 0.871978 0.874817 0.869043 0.87427 0.86233 0.866341 0.856821 0.862645 0.860955 0.864395 0.863022 0.86485 0.864885 0.865376 0.856973 0.861587 0.86419 0.885778 0.881677 0.876223 0.87423 0.878442 0.879303 0.893836 0.893832 0.850008 0.875561 0.884887 0.890139 0.894748 0.894808 0.894348 0.893832 0.893832 0.893832 0.86935 0.87837 0.893832 0.893851 0.888305 0.864981 0.861279 0.861232 0.870437 0.82195 0.893832 0.884821 0.895284 0.894798 0.894379 0.894077 0.893541 0.884901 0.880034 0.878762 0.875814 0.875523 0.87546 0.877667 0.872553 0.880687 0.869334 0.892034 0.871509 0.88854 0.896276 0.832102 0.851962 0.888014 0.862559 0.890304 0.871952 0.890407 0.879126 0.880887 0.874274 0.877066 0.870457 0.875784 0.861835 0.865817 0.854315 0.86044 0.858023 0.861719 0.860049 0.862208 0.862538 0.863543 0.854886 0.861375 0.867224 0.883016 0.879542 0.874809 0.874967 0.878101 0.882552 0.893834 0.893832 0.856273 0.875297 0.879092 0.887414 0.89257 0.893525 0.893837 0.893832 0.893832 0.893831 0.878671 0.879048 0.893832 0.893832 0.887842 0.863992 0.858302 0.854835 0.860783 0.818871 0.893832 0.882295 0.891827 0.893204 0.893531 0.893769 0.893556 0.889333 0.884816 0.883362 0.880407 0.879889 0.87895 0.880819 0.8755 0.884614 0.874341 0.891729 0.872278 0.888594 0.893802 0.833084 0.855044 0.88674 0.867449 0.889872 0.876053 0.89017 0.882333 0.883719 0.876894 0.879771 0.872542 0.87793 0.862433 0.866407 0.853324 0.859724 0.856752 0.860631 0.858704 0.861116 0.861658 0.863055 0.854486 0.862252 0.870412 0.881164 0.878192 0.874229 0.876081 0.878315 0.885483 0.893832 0.893832 0.861677 0.87556 0.874102 0.885015 0.890778 0.892307 0.893348 0.893832 0.893832 0.893831 0.886455 0.879923 0.893832 0.893814 0.887681 0.863689 0.856467 0.850421 0.853688 0.816877 0.893832 0.880312 0.888981 0.891707 0.892742 0.893497 0.893148 0.891261 0.888295 0.887161 0.884154 0.883547 0.882114 0.883589 0.878151 0.887479 0.878593 0.891722 0.872634 0.891707 0.833533 0.858193 0.885905 0.871463 0.889665 0.879364 0.890028 0.88502 0.886137 0.879316 0.882318 0.874603 0.880047 0.863461 0.867457 0.853206 0.859829 0.856431 0.860455 0.858313 0.860918 0.861609 0.863281 0.85491 0.863513 0.873056 0.880086 0.877414 0.874122 0.877165 0.878735 0.887783 0.893829 0.893832 0.866029 0.876209 0.870108 0.88307 0.889366 0.891265 0.892931 0.893832 0.893832 0.893831 0.888469 0.891103 0.880771 0.893832 0.893799 0.887662 0.863702 0.855445 0.84767 0.849056 0.815683 0.893832 0.878963 0.886986 0.890572 0.892126 0.893295 0.892783 0.891594 0.889928 0.889605 0.887023 0.886327 0.884483 0.885718 0.880146 0.889693 0.881538 0.89178 0.872455 0.88857 0.890323 0.834053 0.860678 0.885327 0.874351 0.889568 0.881812 0.889953 0.886881 0.887961 0.881163 0.884175 0.876195 0.881693 0.864441 0.868455 0.853432 0.860214 0.856521 0.860645 0.858353 0.861086 0.861875 0.863729 0.855516 0.864661 0.874996 0.879489 0.877013 0.874179 0.877967 0.879142 0.889303 0.893828 0.893832 0.869093 0.876974 0.867306 0.881677 0.888373 0.890497 0.892628 0.893832 0.893832 0.893831 0.892914 0.881292 0.893832 0.893791 0.887679 0.863774 0.815135 0.893832 0.878283 0.88596 0.88997 0.891789 0.893186 0.892582 0.888613 0.887914 0.885809 0.886933 0.881219 0.890995 0.883037 0.891805 0.872202 0.889532 0.834448 0.862029 0.885061 0.875893 0.88953 0.883124 0.889923 0.887775 0.888937 0.882173 0.885113 0.877058 0.882594 0.865025 0.869044 0.853635 0.860502 0.85666 0.860832 0.858464 0.861261 0.8621 0.864045 0.85591 0.865337 0.8761 0.879202 0.876844 0.874235 0.87838 0.879382 0.890053 0.893827 0.893832 0.870673 0.877468 0.880947 0.88786 0.890089 0.892471 0.893832 0.893832 0.893831 0.854997 0.846354 0.846767 0.891497 0.890393 0.890638 0.888727 0.865859 
SCALARS Axial_Stress float 1
LOOKUP_TABLE default
-95367400000.0 -104648000000.0 -78915500000.0 -208941000000.0 -126098000000.0 -168651000000.0 -70234400000.0 -88327600000.0 -75617700000.0 -93039100000.0 -75390400000.0 -70796900000.0 -59935700000.0 -82152200000.0 -156014000000.0 -144916000000.0 -109679000000.0 -211646000000.0 -111936000000.0 -170034000000.0 -174083000000.0 -83337900000.0 -110141000000.0 -216938000000.0 -123014000000.0 -132362000000.0 -130805000000.0 -59262100000.0 -114183000000.0 -235233000000.0 -281234000000.0 -276140000000.0 -231288000000.0 -219469000000.0 -224563000000.0 -190952000000.0 -242691000000.0 -298593000000.0 -298502000000.0 -292533000000.0 -145214000000.0 -289307000000.0 -233299000000.0 -395018000000.0 -300206000000.0 -425722000000.0 -350381000000.0 -450868000000.0 -235479000000.0 -250078000000.0 -458621000000.0 -345561000000.0 -154517000000.0 -285705000000.0 -234587000000.0 -307532000000.0 -528650000000.0 -398279000000.0 -542420000000.0 -431053000000.0 -548408000000.0 -396729000000.0 -504836000000.0 -448195000000.0 -354314000000.0 -344988000000.0 -540104000000.0 -518618000000.0 -531075000000.0 -339919000000.0 -378718000000.0 -536217000000.0 -370671000000.0 -360144000000.0 -298048000000.0 -296156000000.0 -298018000000.0 -675612000000.0 -659790000000.0 -668528000000.0 -675778000000.0 -436566000000.0 -258704000000.0 -768405000000.0 -634654000000.0 -620543000000.0 -625587000000.0 -665671000000.0 -605595000000.0 -489224000000.0 -462978000000.0 -932877000000.0 -797755000000.0 -781297000000.0 -791390000000.0 -810653000000.0 -992086000000.0 -981233000000.0 -790712000000.0 -848766000000.0 -724404000000.0 -808115000000.0 -712789000000.0 -800368000000.0 -446441000000.0 -503660000000.0 -763147000000.0 -719759000000.0 -732703000000.0 -1.15451e+12 -974342000000.0 -901800000000.0 -1.00643e+12 -898446000000.0 -1.01903e+12 -920592000000.0 -1.09557e+12 -1.08085e+12 -1.56055e+12 -982062000000.0 -1.11055e+12 -994487000000.0 -915615000000.0 -889225000000.0 -553591000000.0 -631120000000.0 -884140000000.0 -979596000000.0 -872053000000.0 -993265000000.0 -1.9836e+12 -1.53136e+12 -1.41982e+12 -1.17977e+12 -1.19973e+12 -1.04222e+12 -1.1227e+12 -1.11642e+12 -1.15973e+12 -1.36162e+12 -1.32695e+12 -1.13556e+12 -1.0363e+12 -985226000000.0 -970163000000.0 -1.11295e+12 -1.00382e+12 -2.17112e+12 -1.71308e+12 -1.38001e+12 -1.2486e+12 -1.21642e+12 -1.2388e+12 -1.33266e+12 -1.44374e+12 -1.30062e+12 -1.16313e+12 -1.20145e+12 -1.08989e+12 -1.14975e+12 -1.05715e+12 -1.13202e+12 -660736000000.0 -763739000000.0 -1.20076e+12 -1.79111e+12 -1.93237e+12 -1.57426e+12 -1.38457e+12 -1.31989e+12 -1.3244e+12 -1.44568e+12 -1.37598e+12 -1.49533e+12 -1.45254e+12 -1.51758e+12 -1.41759e+12 -1.42589e+12 -1.30187e+12 -1.32094e+12 -1.24787e+12 -1.2147e+12 -767740000000.0 -904653000000.0 -1.34186e+12 -1.51775e+12 -1.53859e+12 -1.73901e+12 -1.89186e+12 -1.8208e+12 -1.74654e+12 -1.6542e+12 -1.52641e+12 -1.53094e+12 -1.42602e+12 -1.49668e+12 -1.41153e+12 -1.52165e+12 -1.56418e+12 -1.5858e+12 -1.53684e+12 -1.43927e+12 -1.35171e+12 -1.30119e+12 -1.28456e+12 -1.57767e+12 -1.66482e+12 -1.80499e+12 -1.74017e+12 -1.62449e+12 -1.57549e+12 -1.59304e+12 -1.64214e+12 -1.66632e+12 -1.64334e+12 -1.5544e+12 -1.45836e+12 -1.48423e+12 -1.39134e+12 -1.43977e+12 -1.36134e+12 -1.42787e+12 -874683000000.0 -1.05976e+12 -1.68574e+12 -1.76685e+12 -1.78496e+12 -1.69339e+12 -1.64097e+12 -1.65375e+12 -1.7125e+12 -1.84744e+12 -1.75826e+12 -1.85533e+12 -1.74429e+12 -1.7935e+12 -1.67126e+12 -1.68246e+12 -1.56723e+12 -1.58005e+12 -1.51896e+12 -1.4976e+12 -981878000000.0 -1.20539e+12 -1.74869e+12 -1.82407e+12 -1.77328e+12 -1.82962e+12 -1.80403e+12 -1.78582e+12 -1.73799e+12 -1.70833e+12 -1.68511e+12 -1.71746e+12 -1.69741e+12 -1.79224e+12 -1.7639e+12 -1.9097e+12 -1.97491e+12 -1.92434e+12 -1.81252e+12 -1.68219e+12 -1.59883e+12 -1.56537e+12 -1.56362e+12 -1.89254e+12 -1.88304e+12 -1.8418e+12 -1.72312e+12 -1.71071e+12 -1.79153e+12 -1.9293e+12 -2.08259e+12 -2.07224e+12 -1.95848e+12 -1.79984e+12 -1.77107e+12 -1.68111e+12 -1.6914e+12 -1.63009e+12 -1.67935e+12 -1.62522e+12 -1.69554e+12 -1.08994e+12 -1.34418e+12 -2.03092e+12 -1.95583e+12 -1.91542e+12 -1.80144e+12 -1.68699e+12 -1.75703e+12 -1.91087e+12 -2.13009e+12 -2.37968e+12 -2.23678e+12 -2.33486e+12 -2.12824e+12 -2.13112e+12 -1.9512e+12 -1.88433e+12 -1.74885e+12 -1.72511e+12 -1.74803e+12 -1.19997e+12 -1.47842e+12 -2.09393e+12 -2.00582e+12 -2.03599e+12 -1.9063e+12 -1.82789e+12 -1.66153e+12 -1.5991e+12 -1.68815e+12 -1.74845e+12 -1.84948e+12 -1.98886e+12 -2.08785e+12 -2.40307e+12 -2.56956e+12 -2.37185e+12 -2.06314e+12 -1.80048e+12 -1.76069e+12 -1.7846e+12 -1.83036e+12 -2.1772e+12 -2.14665e+12 -2.04031e+12 -1.44536e+12 -1.61747e+12 -1.83144e+12 -2.20294e+12 -2.8092e+12 -2.61817e+12 -2.3663e+12 -2.39434e+12 -1.81451e+12 -1.68968e+12 -1.78002e+12 -1.81082e+12 -1.80662e+12 -1.88416e+12 -1.87229e+12 -1.97944e+12 -1.31403e+12 -1.61116e+12 -2.34194e+12 -2.24627e+12 -2.30937e+12 -2.18684e+12 -2.03539e+12 -1.43478e+12 -1.70319e+12 -1.90283e+12 -2.78885e+12 -3.42803e+12 -2.98901e+12 -2.76806e+12 -2.55626e+12 -2.54861e+12 -2.71702e+12 -1.6713e+12 -1.87603e+12 -2.00693e+12 -1.43632e+12 -1.74406e+12 -2.42861e+12 -2.36154e+12 -2.21526e+12 -2.18511e+12 -1.31658e+12 -1.15381e+12 -1.4144e+12 -1.97137e+12 -1.9357e+12 -1.97422e+12 -1.72951e+12 -1.72157e+12 -3.14669e+12 -2.65132e+12 -2.68976e+12 -3.07015e+12 -3.34011e+12 -1.70724e+12 -1.79217e+12 -1.97493e+12 -2.16215e+12 -2.51734e+12 -2.53294e+12 -2.36883e+12 -1.15754e+12 -2.13528e+12 -2.08189e+12 -1.94567e+12 -1.10924e+12 -2.7253e+12 -2.72458e+12 -2.70603e+12 -2.83728e+12 -2.95189e+12 -3.22725e+12 -3.50093e+12 -1.92285e+12 -2.16099e+12 -2.41868e+12 -1.57632e+12 -1.87851e+12 -2.68301e+12 -2.61507e+12 -2.74741e+12 -2.67573e+12 -2.90238e+12 -2.17969e+12 -2.14156e+12 -2.19378e+12 -2.09869e+12 -1.46302e+12 -2.09958e+12 -2.54731e+12 -2.77874e+12 -3.06908e+12 -3.4404e+12 -3.52553e+12 -3.41794e+12 -2.3197e+12 -1.75052e+12 -2.02085e+12 -2.77925e+12 -2.93353e+12 -3.53011e+12 -3.82322e+12 -1.9632e+12 -2.19887e+12 -2.26719e+12 -2.30811e+12 -2.29651e+12 -1.71956e+12 -1.41323e+12 -2.47892e+12 -2.67794e+12 -2.88681e+12 -3.15979e+12 -3.30674e+12 -3.46911e+12 -3.54297e+12 -3.51322e+12 -3.14949e+12 -2.81442e+12 -2.18173e+12 -2.81383e+12 -2.89553e+12 -2.92616e+12 -3.13415e+12 -3.24998e+12 -3.59524e+12 -3.23436e+12 -2.38305e+12 -2.22269e+12 -1.87822e+12 -2.01101e+12 -1.71525e+12 -2.45746e+12 -2.60979e+12 -2.65899e+12 -2.76168e+12 -2.84496e+12 -3.40219e+12 -3.51899e+12 -3.33152e+12 -3.16361e+12 -3.41375e+12 -1.94207e+12 -2.8661e+12 -3.05095e+12 -3.34334e+12 -3.52154e+12 -3.22533e+12 -2.85327e+12 -2.66337e+12 -2.25041e+12 -2.07706e+12 -1.70215e+12 -2.53438e+12 -2.68326e+12 -3.29681e+12 -3.63439e+12 -3.54043e+12 -3.52077e+12 -3.42877e+12 -3.14842e+12 -3.09605e+12 -3.60773e+12 -2.18677e+12 -2.36948e+12 -2.7426e+12 -2.92086e+12 -3.21143e+12 -3.40625e+12 -3.4592e+12 -3.42154e+12 -2.98429e+12 -2.56187e+12 -2.30948e+12 -2.19566e+12 -2.31712e+12 -2.4505e+12 -2.56204e+12 -2.61415e+12 -3.73418e+12 -3.7591e+12 -3.28474e+12 -2.81202e+12 -3.98096e+12 -2.70287e+12 -2.63091e+12 -3.03205e+12 -3.41529e+12 -3.49315e+12 -3.26502e+12 -3.09538e+12 -2.86064e+12 -2.78268e+12 -2.53795e+12 -2.56424e+12 -2.38258e+12 -2.46163e+12 -2.36812e+12 -2.46145e+12 -2.34171e+12 -4.08881e+12 -3.65661e+12 -2.47467e+12 -2.675e+12 -4.42345e+12 -4.4479e+12 -2.28781e+12 -3.23463e+12 -2.44354e+12 -3.85531e+12 -3.49485e+12 -3.57175e+12 -3.62476e+12 -3.47062e+12 -3.36396e+12 -3.02074e+12 -2.7587e+12 -2.61712e+12 -2.48343e+12 -2.55203e+12 -1.78227e+12 -4.5952e+12 -4.3767e+12 -3.97375e+12 -3.766e+12 -3.37936e+12 -3.34422e+12 -4.97463e+12 -2.11848e+12 -3.61997e+12 -3.42906e+12 -3.94561e+12 -3.7062e+12 -3.79052e+12 -3.58722e+12 -3.16462e+12 -2.96035e+12 -2.77429e+12 -2.69233e+12 -2.62868e+12 -2.6854e+12 -2.45646e+12 -2.74309e+12 -2.50312e+12 -4.50636e+12 -4.03991e+12 -3.70607e+12 -3.68132e+12 -4.24529e+12 -3.94922e+12 -4.08091e+12 -1.14491e+12 -4.90167e+12 -5.08822e+12 -5.54977e+12 -3.85897e+12 -4.06167e+12 -3.98861e+12 -4.02284e+12 -3.79604e+12 -3.4861e+12 -3.12721e+12 -3.1859e+12 -3.13744e+12 -2.95329e+12 -2.97474e+12 -2.80992e+12 -2.7712e+12 -2.83385e+12 -3.10855e+12 -3.79317e+12 -4.1586e+12 -4.0289e+12 -3.92985e+12 -3.98288e+12 -3.8394e+12 -4.10399e+12 -4.35137e+12 -4.70871e+12 -3.41638e+12 -4.45034e+12 -4.89835e+12 -6.86815e+12 -5.29179e+12 -4.9304e+12 -4.47398e+12 -4.13286e+12 -4.05079e+12 -4.09661e+12 -3.71102e+12 -3.55807e+12 -3.37876e+12 -3.20469e+12 -2.9393e+12 -2.83703e+12 -2.90775e+12 -2.8817e+12 -3.06531e+12 -3.71996e+12 -3.93756e+12 -4.04415e+12 -4.14394e+12 -4.6489e+12 -4.84205e+12 -5.85291e+12 -4.49465e+12 -4.17846e+12 -4.62783e+12 -4.70748e+12 -6.12295e+12 -6.01962e+12 -4.77741e+12 -4.41403e+12 -4.34811e+12 -4.1243e+12 -4.04554e+12 -4.42642e+12 -2.31459e+12 -3.53423e+12 -3.07744e+12 -2.96273e+12 -3.01557e+12 -3.03875e+12 -3.24533e+12 -3.35317e+12 -3.90837e+12 -4.0099e+12 -4.15412e+12 -4.44219e+12 -4.95919e+12 -4.71749e+12 -5.79089e+12 -6.41678e+12 -6.09671e+12 -4.07972e+12 -4.3255e+12 -6.27537e+12 -6.83496e+12 -5.67425e+12 -5.75459e+12 -4.9635e+12 -4.86988e+12 -4.95102e+12 -4.69736e+12 -4.61751e+12 -4.24837e+12 -3.76532e+12 -5.23887e+12 -5.04718e+12 -4.47692e+12 -3.04186e+12 -3.20565e+12 -3.08462e+12 -3.01891e+12 -3.16582e+12 -3.48427e+12 -3.71801e+12 -4.04324e+12 -4.11684e+12 -4.28489e+12 -4.36066e+12 -4.60933e+12 -4.78669e+12 -5.11662e+12 -5.02248e+12 -6.01317e+12 -6.07891e+12 -3.96599e+12 -3.80951e+12 -3.94833e+12 -5.9095e+12 -6.58507e+12 -6.20086e+12 -6.25852e+12 -4.44623e+12 -4.90533e+12 -4.47584e+12 -4.31755e+12 -4.11861e+12 -4.27095e+12 -4.55762e+12 -2.77512e+12 -4.59618e+12 -3.41572e+12 -3.25751e+12 -3.25584e+12 -3.09717e+12 -3.12163e+12 -3.10996e+12 -3.35171e+12 -3.74668e+12 -3.92018e+12 -4.09036e+12 -4.1982e+12 -4.49189e+12 -4.88357e+12 -5.37948e+12 -5.78973e+12 -5.9084e+12 -5.45629e+12 -5.67833e+12 -6.01723e+12 -3.67226e+12 -3.72448e+12 -3.76239e+12 -6.16632e+12 -6.93151e+12 -6.67519e+12 -6.89134e+12 -6.62682e+12 -6.61072e+12 -6.27227e+12 -5.11232e+12 -4.99113e+12 -4.73555e+12 -4.51325e+12 -4.3023e+12 -3.90976e+12 -3.8717e+12 -3.84564e+12 -3.43192e+12 -3.24455e+12 -3.17537e+12 -3.24205e+12 -3.41126e+12 -3.56035e+12 -3.94782e+12 -4.26816e+12 -4.38245e+12 -4.57577e+12 -4.70911e+12 -4.89881e+12 -5.12624e+12 -5.32354e+12 -6.05943e+12 -6.35301e+12 -4.65352e+12 -5.83363e+12 -6.01735e+12 -6.00626e+12 -3.59129e+12 -3.79939e+12 -6.22028e+12 -6.50738e+12 -6.65137e+12 -6.36874e+12 -6.75765e+12 -6.64081e+12 -6.60824e+12 -5.67426e+12 -4.97319e+12 -5.44199e+12 -4.68347e+12 -4.42608e+12 -4.08283e+12 -3.65814e+12 -3.73437e+12 -3.72358e+12 -3.42959e+12 -3.21876e+12 -3.28031e+12 -3.60501e+12 -3.77979e+12 -3.97566e+12 -4.12991e+12 -4.45883e+12 -4.73472e+12 -5.02362e+12 -5.79516e+12 -5.39246e+12 -5.55305e+12 -5.76095e+12 -5.85593e+12 -5.85519e+12 -6.05206e+12 -3.5728e+12 -3.59082e+12 -3.9229e+12 -6.30579e+12 -6.25153e+12 -6.28497e+12 -6.34135e+12 -5.51029e+12 -6.78465e+12 -6.57732e+12 -5.8589e+12 -5.97835e+12 -4.88558e+12 -4.80924e+12 -4.59125e+12 -4.43393e+12 -4.26059e+12 -4.08532e+12 -3.95576e+12 -3.79632e+12 -3.86718e+12 -3.78003e+12 -3.73589e+12 -3.74542e+12 -3.64354e+12 -3.57417e+12 -3.39386e+12 -3.281e+12 -3.21092e+12 -3.43937e+12 -3.8077e+12 -4.15713e+12 -4.30934e+12 -4.48447e+12 -4.65207e+12 -4.84282e+12 -4.79361e+12 -4.56787e+12 -4.99041e+12 -5.12563e+12 -5.5515e+12 -5.74389e+12 -5.86858e+12 -5.76486e+12 -5.93121e+12 -6.14537e+12 -6.2402e+12 -3.63171e+12 -4.06006e+12 -6.34842e+12 -6.19855e+12 -6.12827e+12 -6.25464e+12 -6.22916e+12 -6.01664e+12 -5.95934e+12 -5.98113e+12 -6.25458e+12 -4.09515e+12 -5.12989e+12 -5.07257e+12 -4.63067e+12 -4.24912e+12 -3.9321e+12 -3.8291e+12 -3.78111e+12 -3.75644e+12 -3.47676e+12 -3.18157e+12 -3.28934e+12 -3.44187e+12 -3.62648e+12 -3.82501e+12 -3.99962e+12 -4.32564e+12 -4.65082e+12 -5.02162e+12 -5.14515e+12 -3.42213e+12 -5.54572e+12 -5.5862e+12 -5.83992e+12 -5.77116e+12 -5.74308e+12 -5.84144e+12 -6.06363e+12 -6.32087e+12 -3.66104e+12 -4.37229e+12 -4.16332e+12 -6.31405e+12 -6.16606e+12 -6.23596e+12 -6.1672e+12 -6.13519e+12 -6.31156e+12 -5.98989e+12 -5.90774e+12 -5.59772e+12 -5.34296e+12 -4.93748e+12 -4.93917e+12 -4.84678e+12 -4.62677e+12 -4.43213e+12 -4.2197e+12 -4.06039e+12 -3.81839e+12 -3.79569e+12 -3.81469e+12 -3.84997e+12 -3.10701e+12 -3.27474e+12 -3.62121e+12 -4.01839e+12 -4.17716e+12 -4.3346e+12 -4.47621e+12 -4.60262e+12 -4.80461e+12 -4.88977e+12 -6.34624e+12 -5.28008e+12 -4.85555e+12 -5.47361e+12 -5.66438e+12 -5.94037e+12 -6.01229e+12 -5.85817e+12 -5.68934e+12 -6.00625e+12 -6.16456e+12 -6.19355e+12 -6.34074e+12 -3.62524e+12 -3.51961e+12 -4.21278e+12 -4.15374e+12 -6.17534e+12 -6.11606e+12 -6.04114e+12 -6.20104e+12 -6.46398e+12 -6.87236e+12 -5.55385e+12 -5.88388e+12 -5.43408e+12 -5.27109e+12 -5.02859e+12 -4.87302e+12 -4.73852e+12 -4.39023e+12 -4.01985e+12 -3.90439e+12 -3.80318e+12 -3.79239e+12 -3.77328e+12 -3.7926e+12 -3.8385e+12 -3.86304e+12 -4.07538e+12 -4.19202e+12 -4.4714e+12 -2.88267e+12 -3.42302e+12 -3.81889e+12 -4.20327e+12 -4.4594e+12 -4.69922e+12 -4.74191e+12 -5.50207e+12 -5.60585e+12 -5.48388e+12 -5.63335e+12 -5.75993e+12 -6.29943e+12 -5.73408e+12 -5.75838e+12 -6.03115e+12 -6.15572e+12 -6.27662e+12 -3.40957e+12 -4.1606e+12 -6.75138e+12 -6.53934e+12 -5.9501e+12 -5.84723e+12 -6.02793e+12 -5.96483e+12 -6.1689e+12 -6.38968e+12 -6.05529e+12 -6.7471e+12 -6.02954e+12 -4.87064e+12 -4.94783e+12 -5.08225e+12 -4.90886e+12 -4.67572e+12 -4.52611e+12 -4.16104e+12 -3.87035e+12 -3.76638e+12 -3.78959e+12 -3.93829e+12 -4.30148e+12 -4.56325e+12 -2.985e+12 -3.16193e+12 -3.58861e+12 -3.78997e+12 -4.00917e+12 -4.18947e+12 -4.38429e+12 -4.57578e+12 -4.51825e+12 -4.38846e+12 -4.89359e+12 -5.32243e+12 -5.36892e+12 -5.96514e+12 -6.78384e+12 -6.22854e+12 -5.45053e+12 -5.845e+12 -5.72367e+12 -5.96751e+12 -6.01542e+12 -6.11399e+12 -6.18695e+12 -6.09479e+12 -3.30256e+12 -3.96762e+12 -4.09275e+12 -6.662e+12 -6.66229e+12 -5.23151e+12 -5.81635e+12 -5.66325e+12 -5.89575e+12 -5.7101e+12 -5.74584e+12 -5.79825e+12 -5.9616e+12 -5.69897e+12 -3.9471e+12 -5.61472e+12 -5.51788e+12 -5.25203e+12 -4.86445e+12 -4.81427e+12 -4.44639e+12 -4.29375e+12 -4.05172e+12 -3.95184e+12 -3.79009e+12 -3.76043e+12 -3.83433e+12 -4.0556e+12 -4.40165e+12 -4.46741e+12 -3.38153e+12 -3.97483e+12 -4.36513e+12 -4.83006e+12 -5.00537e+12 -3.20852e+12 -4.45223e+12 -5.14522e+12 -5.17329e+12 -5.43647e+12 -5.37419e+12 -4.74758e+12 -6.17415e+12 -5.62416e+12 -4.10814e+12 -5.32514e+12 -5.68443e+12 -5.84013e+12 -5.96029e+12 -6.00258e+12 -5.9069e+12 -6.01422e+12 -3.18569e+12 -3.05886e+12 -3.84849e+12 -6.45673e+12 -6.4426e+12 -6.71893e+12 -6.28696e+12 -5.06403e+12 -5.70171e+12 -5.73897e+12 -5.33944e+12 -4.3011e+12 -5.98597e+12 -5.56508e+12 -5.19028e+12 -4.3019e+12 -4.50749e+12 -4.90376e+12 -4.63887e+12 -4.14814e+12 -3.84255e+12 -3.82818e+12 -3.77883e+12 -3.7619e+12 -3.75137e+12 -3.77231e+12 -3.78357e+12 -3.88581e+12 -3.91807e+12 -4.1267e+12 -4.11984e+12 -4.36634e+12 -4.21158e+12 -3.70242e+12 -4.12782e+12 -4.29014e+12 -4.56931e+12 -4.77896e+12 -6.29011e+12 -5.15044e+12 -4.64101e+12 -4.94992e+12 -5.23838e+12 -5.29651e+12 -4.94054e+12 -5.89488e+12 -5.61881e+12 -5.32492e+12 -5.60952e+12 -5.86209e+12 -5.85567e+12 -5.83592e+12 -5.8324e+12 -5.91379e+12 -2.96946e+12 -3.72932e+12 -6.08607e+12 -6.26072e+12 -6.20586e+12 -6.22247e+12 -5.8027e+12 -5.63466e+12 -5.69318e+12 -5.52474e+12 -5.27933e+12 -5.58568e+12 -5.50539e+12 -5.24205e+12 -5.39266e+12 -5.96828e+12 -5.3043e+12 -4.46953e+12 -4.2785e+12 -3.90761e+12 -3.77498e+12 -3.75906e+12 -3.73525e+12 -3.77851e+12 -3.90679e+12 -4.03126e+12 -4.20158e+12 -3.96586e+12 -3.88194e+12 -3.82183e+12 -3.89579e+12 -4.04011e+12 -4.46727e+12 -5.45739e+12 -5.64968e+12 -5.1252e+12 -4.0951e+12 -5.26422e+12 -5.76219e+12 -6.6076e+12 -4.55252e+12 -5.60068e+12 -5.31812e+12 -6.15577e+12 -4.9575e+12 -5.36658e+12 -5.48241e+12 -5.78956e+12 -5.6833e+12 -5.72863e+12 -5.7447e+12 -5.77387e+12 -5.6649e+12 -2.94106e+12 -3.45458e+12 -3.59161e+12 -5.89496e+12 -6.01351e+12 -5.87837e+12 -6.03955e+12 -5.83863e+12 -5.39313e+12 -5.51879e+12 -5.62688e+12 -5.53017e+12 -6.53583e+12 -5.65875e+12 -5.67815e+12 -5.47377e+12 -5.2559e+12 -4.95776e+12 -4.46834e+12 -4.05556e+12 -5.02244e+12 -4.72989e+12 -4.0423e+12 -3.93875e+12 -3.72888e+12 -3.67667e+12 -3.72901e+12 -3.7676e+12 -3.72814e+12 -3.69975e+12 -3.74738e+12 -3.84693e+12 -3.88722e+12 -3.79989e+12 -3.87838e+12 -4.18423e+12 -4.39837e+12 -4.83615e+12 -5.08839e+12 -5.29493e+12 -5.35723e+12 -4.63843e+12 -5.16058e+12 -5.70963e+12 -5.66322e+12 -4.96544e+12 -5.08456e+12 -4.60712e+12 -5.62753e+12 -5.68403e+12 -5.775e+12 -5.53191e+12 -5.56117e+12 -5.67036e+12 -5.65195e+12 -5.62095e+12 -5.60158e+12 -2.97303e+12 -3.01391e+12 -3.33042e+12 -5.6926e+12 -5.82363e+12 -5.73379e+12 -5.7287e+12 -5.57547e+12 -5.61585e+12 -5.37957e+12 -5.46031e+12 -5.93503e+12 -5.83552e+12 -5.34261e+12 -5.23867e+12 -5.08305e+12 -4.8671e+12 -4.15828e+12 -4.50978e+12 -4.56131e+12 -4.2268e+12 -3.55587e+12 -3.6258e+12 -3.39528e+12 -3.76248e+12 -3.74704e+12 -3.68733e+12 -3.67035e+12 -3.58184e+12 -3.64143e+12 -3.57017e+12 -3.68926e+12 -3.61039e+12 -3.75057e+12 -3.65049e+12 -3.75541e+12 -3.6827e+12 -3.77639e+12 -3.80537e+12 -3.9683e+12 -4.09585e+12 -4.52725e+12 -4.6068e+12 -5.26555e+12 -5.47239e+12 -5.98618e+12 -3.13333e+12 -4.54626e+12 -5.04695e+12 -5.19205e+12 -5.29403e+12 -5.10136e+12 -5.3388e+12 -5.75095e+12 -5.38086e+12 -5.04225e+12 -5.06515e+12 -5.57224e+12 -5.71037e+12 -5.47943e+12 -5.57851e+12 -5.73275e+12 -5.58971e+12 -5.55622e+12 -5.48868e+12 -5.52011e+12 -3.03009e+12 -3.1754e+12 -5.3689e+12 -5.51066e+12 -5.42307e+12 -5.62076e+12 -5.5525e+12 -5.48588e+12 -5.5984e+12 -5.45974e+12 -5.34778e+12 -5.39395e+12 -5.24102e+12 -5.31088e+12 -5.29303e+12 -5.42414e+12 -5.38109e+12 -5.12285e+12 -4.88477e+12 -4.85593e+12 -4.83606e+12 -4.82438e+12 -3.90341e+12 -3.47116e+12 -4.25403e+12 -4.28967e+12 -4.03559e+12 -2.46326e+12 -3.5156e+12 -3.66949e+12 -3.76134e+12 -3.55875e+12 -3.48848e+12 -3.49006e+12 -3.5273e+12 -3.57455e+12 -3.67855e+12 -3.87259e+12 -4.1596e+12 -4.05167e+12 -4.82654e+12 -5.14352e+12 -4.74383e+12 -4.12313e+12 -4.62979e+12 -4.79607e+12 -4.90965e+12 -4.9577e+12 -4.89145e+12 -4.98283e+12 -3.89163e+12 -3.88972e+12 -5.98628e+12 -5.47275e+12 -5.67675e+12 -5.64702e+12 -5.59392e+12 -5.50221e+12 -5.38397e+12 -5.37933e+12 -2.97994e+12 -2.83992e+12 -3.00249e+12 -5.14877e+12 -5.242e+12 -5.35195e+12 -5.30879e+12 -5.32524e+12 -5.2001e+12 -5.13653e+12 -5.17327e+12 -5.1094e+12 -5.01544e+12 -4.89136e+12 -4.84205e+12 -4.63781e+12 -4.5941e+12 -4.65771e+12 -4.82172e+12 -5.08325e+12 -5.59018e+12 -5.53979e+12 -4.03669e+12 -3.74462e+12 -3.28801e+12 -1.55637e+12 -2.5564e+12 -4.39953e+12 -3.94393e+12 -3.63639e+12 -3.57453e+12 -3.43948e+12 -3.39632e+12 -3.40888e+12 -3.4542e+12 -3.53571e+12 -3.69873e+12 -3.77355e+12 -3.90679e+12 -3.75604e+12 -3.77502e+12 -4.38866e+12 -4.46682e+12 -5.03937e+12 -6.08874e+12 -5.75796e+12 -6.66264e+12 -5.98794e+12 -5.39074e+12 -5.79922e+12 -5.40972e+12 -5.3866e+12 -5.24436e+12 -5.14748e+12 -4.68381e+12 -2.74759e+12 -2.19661e+12 -2.70282e+12 -4.87678e+12 -4.90863e+12 -5.1398e+12 -5.14977e+12 -5.09408e+12 -5.27747e+12 -5.05501e+12 -5.00338e+12 -4.86622e+12 -4.69979e+12 -4.7819e+12 -3.51628e+12 -4.02164e+12 -4.41175e+12 -4.68087e+12 -4.98749e+12 -5.413e+12 -5.46822e+12 -4.15057e+12 -4.62293e+12 -3.60512e+12 -3.10468e+12 -2.20831e+12 -3.76193e+12 -3.40424e+12 -3.4112e+12 -3.28442e+12 -3.3271e+12 -3.2203e+12 -3.30608e+12 -3.22325e+12 -3.33585e+12 -3.27373e+12 -3.40053e+12 -3.36873e+12 -3.52693e+12 -3.46373e+12 -3.90271e+12 -2.97962e+12 -3.36458e+12 -3.98433e+12 -4.51658e+12 -4.30186e+12 -4.46223e+12 -4.56603e+12 -4.66738e+12 -4.75607e+12 -4.82636e+12 -4.60003e+12 -5.13098e+12 -4.8959e+12 -5.62996e+12 -6.04003e+12 -5.5194e+12 -5.5915e+12 -5.4995e+12 -5.47968e+12 -5.3502e+12 -5.29478e+12 -5.0678e+12 -4.95514e+12 -3.49499e+12 -3.02263e+12 -2.59066e+12 -4.27742e+12 -4.58673e+12 -4.61939e+12 -4.95306e+12 -4.93213e+12 -4.85971e+12 -5.08009e+12 -5.12495e+12 -4.65217e+12 -5.06086e+12 -4.86354e+12 -4.84012e+12 -2.76499e+12 -3.98868e+12 -4.41423e+12 -4.68256e+12 -4.9021e+12 -4.75657e+12 -4.22229e+12 -4.09131e+12 -3.20599e+12 -2.75531e+12 -2.71371e+12 -2.69258e+12 -3.22387e+12 -3.36699e+12 -3.24624e+12 -3.14812e+12 -3.12196e+12 -3.15355e+12 -3.22647e+12 -3.34239e+12 -3.48769e+12 -3.6504e+12 -4.08823e+12 -5.16896e+12 -4.93532e+12 -4.20324e+12 -4.22257e+12 -4.13964e+12 -4.21853e+12 -4.3354e+12 -4.46753e+12 -4.58861e+12 -4.56026e+12 -4.80359e+12 -4.75203e+12 -5.04824e+12 -5.06776e+12 -5.20986e+12 -5.22147e+12 -4.0059e+12 -6.32377e+12 -5.79815e+12 -5.22147e+12 -5.13616e+12 -4.67771e+12 -4.37598e+12 -5.5836e+12 -4.94196e+12 -2.95176e+12 -2.26463e+12 -2.46475e+12 -3.96566e+12 -4.33354e+12 -4.54323e+12 -4.70885e+12 -4.74545e+12 -4.49633e+12 -4.48838e+12 -4.80494e+12 -4.90212e+12 -4.97637e+12 -4.64405e+12 -4.95278e+12 -4.77684e+12 -5.50682e+12 -3.30715e+12 -4.93084e+12 -4.39862e+12 -4.2928e+12 -3.90787e+12 -3.64075e+12 -2.50691e+12 -2.1388e+12 -1.57534e+12 -1.99391e+12 -2.97938e+12 -3.14369e+12 -3.23413e+12 -3.10581e+12 -3.03062e+12 -3.03056e+12 -3.09423e+12 -3.19974e+12 -3.06891e+12 -3.01064e+12 -4.20607e+12 -4.62479e+12 -4.27343e+12 -4.15296e+12 -4.05103e+12 -3.90379e+12 -3.8318e+12 -3.96158e+12 -4.13195e+12 -4.30559e+12 -4.39079e+12 -4.53569e+12 -4.57965e+12 -4.67944e+12 -4.87663e+12 -4.86063e+12 -4.89358e+12 -4.63038e+12 -5.11703e+12 -5.6786e+12 -5.40239e+12 -4.85227e+12 -4.78729e+12 -4.65959e+12 -4.85259e+12 -5.153e+12 -5.12374e+12 -4.85987e+12 -2.78663e+12 -2.63476e+12 -2.25569e+12 -3.71201e+12 -3.84271e+12 -4.06223e+12 -4.93895e+12 -5.53008e+12 -3.26277e+12 -4.77661e+12 -5.22168e+12 -5.8862e+12 -3.4129e+12 -4.85861e+12 -5.79622e+12 -3.32743e+12 -4.28304e+12 -3.91768e+12 -4.05282e+12 -3.86137e+12 -4.22188e+12 -4.42031e+12 -4.53945e+12 -4.52531e+12 -4.04228e+12 -3.86741e+12 -3.5446e+12 -3.17367e+12 -3.54448e+12 -3.5452e+12 -3.35122e+12 -3.11358e+12 -2.97718e+12 -3.02314e+12 -2.91613e+12 -2.94e+12 -2.815e+12 -2.92221e+12 -2.81163e+12 -2.95557e+12 -2.87963e+12 -3.06057e+12 -3.11522e+12 -3.18343e+12 -2.35192e+12 -3.3279e+12 -3.8196e+12 -4.33989e+12 -4.04756e+12 -3.90913e+12 -3.71258e+12 -3.35818e+12 -3.43583e+12 -3.72949e+12 -3.99052e+12 -4.1456e+12 -4.28408e+12 -4.36385e+12 -4.45703e+12 -4.54828e+12 -4.58414e+12 -4.5182e+12 -4.47245e+12 -4.74142e+12 -4.84065e+12 -5.04813e+12 -4.94263e+12 -4.55688e+12 -4.80238e+12 -5.14931e+12 -4.76669e+12 -4.85773e+12 -4.53364e+12 -2.47174e+12 -2.12159e+12 -3.96813e+12 -3.98521e+12 -3.03256e+12 -2.87938e+12 -3.67934e+12 -4.53554e+12 -5.07467e+12 -5.13997e+12 -4.24533e+12 -4.75282e+12 -5.22261e+12 -3.90899e+12 -4.59074e+12 -4.12202e+12 -3.73166e+12 -4.32058e+12 -4.04035e+12 -4.17135e+12 -4.06513e+12 -4.20528e+12 -4.2766e+12 -4.25107e+12 -4.14608e+12 -3.60174e+12 -3.40665e+12 -3.27048e+12 -3.5139e+12 -1.10216e+12 -3.07481e+12 -2.93623e+12 -2.75645e+12 -2.66354e+12 -2.71124e+12 -2.71228e+12 -2.84092e+12 -3.45202e+12 -1.9365e+12 -3.03917e+12 -3.98529e+12 -3.91324e+12 -3.76392e+12 -3.56612e+12 -3.0865e+12 -2.61369e+12 -2.80928e+12 -3.53164e+12 -3.84409e+12 -4.02387e+12 -4.13845e+12 -4.239e+12 -4.32241e+12 -4.33935e+12 -4.28922e+12 -4.099e+12 -4.25688e+12 -4.35537e+12 -4.43426e+12 -4.54264e+12 -4.52235e+12 -4.51824e+12 -4.15604e+12 -4.313e+12 -4.51983e+12 -4.71126e+12 -4.47356e+12 -4.51551e+12 -4.15878e+12 -4.22653e+12 -2.28585e+12 -1.72383e+12 -1.92801e+12 -3.717e+12 -3.95239e+12 -3.81056e+12 -4.70831e+12 -4.98164e+12 -4.35993e+12 -4.57094e+12 -4.32424e+12 -3.34244e+12 -4.24913e+12 -4.56443e+12 -4.97625e+12 -3.93284e+12 -3.32181e+12 -3.08658e+12 -4.09621e+12 -4.23728e+12 -4.107e+12 -4.10706e+12 -4.05446e+12 -4.08154e+12 -4.05054e+12 -3.96336e+12 -3.86782e+12 -3.75397e+12 -3.4542e+12 -3.34535e+12 -3.33376e+12 -3.23957e+12 -2.74011e+12 -4.14177e+12 -3.28688e+12 -2.88785e+12 -2.68676e+12 -2.28943e+12 -2.58459e+12 -2.57105e+12 -2.53851e+12 -3.02661e+12 -3.66081e+12 -1.3316e+12 -2.49046e+12 -3.43975e+12 -3.65306e+12 -3.68733e+12 -3.67469e+12 -3.78097e+12 -4.25205e+12 -4.07019e+12 -3.59365e+12 -3.81769e+12 -3.93146e+12 -4.01467e+12 -4.08575e+12 -4.09616e+12 -3.55027e+12 -4.4522e+12 -4.42955e+12 -4.13108e+12 -3.82e+12 -3.93993e+12 -3.66552e+12 -2.07498e+12 -1.5178e+12 -3.38266e+12 -3.80038e+12 -4.02919e+12 -4.3728e+12 -4.47707e+12 -4.28447e+12 -4.28568e+12 -4.18395e+12 -3.90712e+12 -4.17954e+12 -4.54069e+12 -4.38225e+12 -3.61245e+12 -3.32002e+12 -5.30469e+12 -4.562e+12 -4.25178e+12 -4.0466e+12 -3.9806e+12 -3.92617e+12 -3.88713e+12 -3.81404e+12 -3.73067e+12 -3.64774e+12 -3.55987e+12 -3.37569e+12 -3.33061e+12 -3.28695e+12 -3.2405e+12 -3.29022e+12 -3.84396e+12 -2.78444e+12 -2.70186e+12 -2.19294e+12 -2.59014e+12 -2.27687e+12 -2.50119e+12 -2.39327e+12 -2.48487e+12 -2.10855e+12 -2.25487e+12 -1.73244e+12 -2.62005e+12 -3.01145e+12 -3.28774e+12 -3.44611e+12 -4.9513e+12 -4.68514e+12 -3.92916e+12 -3.84691e+12 -3.88554e+12 -3.95802e+12 -4.04399e+12 -4.1285e+12 -4.17271e+12 -4.16041e+12 -3.32437e+12 -3.51804e+12 -3.62919e+12 -3.64782e+12 -3.58052e+12 -4.47288e+12 -4.25205e+12 -4.144e+12 -3.66184e+12 -3.52285e+12 -3.38314e+12 -1.8667e+12 -1.71592e+12 -1.24296e+12 -2.99002e+12 -3.27377e+12 -3.53002e+12 -3.65122e+12 -3.43219e+12 -3.50349e+12 -3.68603e+12 -4.35909e+12 -4.13152e+12 -3.9949e+12 -3.92607e+12 -4.10076e+12 -3.90245e+12 -4.18134e+12 -4.11188e+12 -4.00389e+12 -3.76794e+12 -3.72436e+12 -3.67232e+12 -3.60839e+12 -3.55085e+12 -3.49858e+12 -3.44128e+12 -3.23586e+12 -3.1697e+12 -3.12832e+12 -3.30416e+12 -2.55569e+12 -2.46122e+12 -1.6553e+12 -3.31346e+12 -1.24454e+12 -2.49557e+12 -2.43122e+12 -1.20998e+12 -3.1521e+12 -2.91087e+12 -3.10091e+12 -3.15138e+12 -3.4635e+12 -3.599e+12 -3.88863e+12 -4.32848e+12 -4.47318e+12 -4.17036e+12 -3.84671e+12 -3.7842e+12 -3.80474e+12 -3.86516e+12 -3.9457e+12 -4.01927e+12 -4.07379e+12 -4.1244e+12 -4.13744e+12 -2.83475e+12 -3.27687e+12 -3.30405e+12 -3.13569e+12 -2.47778e+12 -4.92743e+12 -4.537e+12 -4.11893e+12 -3.84658e+12 -3.68298e+12 -2.91848e+12 -3.23174e+12 -2.78111e+12 -3.23524e+12 -3.19489e+12 -1.56263e+12 -956098000000.0 -1.31579e+12 -2.33161e+12 -2.74573e+12 -3.75312e+12 -4.51706e+12 -2.19258e+12 -2.65912e+12 -3.77501e+12 -3.71681e+12 -3.64976e+12 -3.87875e+12 -3.90969e+12 -3.86476e+12 -3.81029e+12 -3.63956e+12 -3.5069e+12 -4.89758e+12 -4.73534e+12 -4.21756e+12 -3.97599e+12 -3.82655e+12 -3.51213e+12 -3.48305e+12 -3.45896e+12 -3.4328e+12 -3.39899e+12 -3.35284e+12 -3.29977e+12 -3.03609e+12 -3.01907e+12 -2.71153e+12 -1.99444e+12 -3.31012e+12 -1.25193e+12 -3.74676e+12 -2.4367e+12 -2.61378e+12 -2.1938e+12 -1.89397e+12 -2.58168e+12 -2.16639e+12 -2.085e+12 -2.88383e+12 -2.9442e+12 -3.16015e+12 -3.18368e+12 -3.09565e+12 -3.29596e+12 -3.51725e+12 -3.76608e+12 -3.90343e+12 -3.90411e+12 -3.77461e+12 -3.64867e+12 -3.63621e+12 -3.67617e+12 -3.74888e+12 -3.83716e+12 -3.93748e+12 -4.07694e+12 -4.32998e+12 -4.70224e+12 -2.60441e+12 -3.04674e+12 -3.11322e+12 -3.02226e+12 -2.48633e+12 -4.39757e+12 -4.41784e+12 -3.60081e+12 -3.22981e+12 -2.15214e+12 -3.26224e+12 -3.20104e+12 -2.97076e+12 -2.91654e+12 -1.37089e+12 -1.89311e+12 -2.17139e+12 -2.50277e+12 -1.74458e+12 -2.50266e+12 -3.26497e+12 -3.8961e+12 -3.16301e+12 -3.33299e+12 -3.35461e+12 -3.81422e+12 -3.68804e+12 -3.63099e+12 -3.58128e+12 -3.51143e+12 -3.38895e+12 -4.09095e+12 -4.21878e+12 -4.02754e+12 -3.77356e+12 -3.62614e+12 -3.53274e+12 -3.52493e+12 -3.37394e+12 -3.37623e+12 -3.35504e+12 -3.3139e+12 -3.2572e+12 -3.1857e+12 -3.107e+12 -1.13774e+12 -2.42285e+12 -2.38116e+12 -2.65273e+12 -3.04489e+12 -3.25617e+12 -2.46732e+12 -2.89571e+12 -3.1476e+12 -3.35392e+12 -3.46742e+12 -3.47636e+12 -3.49164e+12 -3.44264e+12 -3.42162e+12 -3.45453e+12 -3.52101e+12 -3.61025e+12 -3.71845e+12 -3.85816e+12 -4.07349e+12 -4.43209e+12 -4.6696e+12 -2.49822e+12 -3.06518e+12 -2.80497e+12 -3.55663e+12 -3.84183e+12 -3.81877e+12 -3.00446e+12 -1.8864e+12 -4.26068e+12 -3.64437e+12 -3.08559e+12 -2.59795e+12 -2.54213e+12 -2.10715e+12 -1.15094e+12 -938055000000.0 -1.44308e+12 -3.1759e+12 -2.87144e+12 -2.91959e+12 -3.10074e+12 -4.24712e+12 -1.96657e+12 -2.66595e+12 -2.93997e+12 -3.04487e+12 -3.613e+12 -3.57711e+12 -3.5227e+12 -3.4383e+12 -3.36279e+12 -3.29795e+12 -3.24674e+12 -3.56504e+12 -3.63921e+12 -3.66188e+12 -3.52757e+12 -3.37955e+12 -3.28385e+12 -3.25032e+12 -3.30792e+12 -3.33811e+12 -3.3495e+12 -3.33101e+12 -3.28262e+12 -3.21611e+12 -3.13702e+12 -3.05162e+12 -2.96886e+12 -2.9014e+12 -2.73355e+12 -2.48376e+12 -2.67709e+12 -2.47464e+12 -2.62522e+12 -2.71191e+12 -1.26038e+12 -2.94015e+12 -2.47294e+12 -1.61624e+12 -2.3655e+12 -2.52752e+12 -2.83816e+12 -3.20454e+12 -3.46575e+12 -1.87125e+12 -2.4567e+12 -2.78022e+12 -3.00324e+12 -3.13678e+12 -3.17668e+12 -3.06115e+12 -3.09983e+12 -3.13866e+12 -3.18776e+12 -3.25935e+12 -3.3496e+12 -3.45767e+12 -3.58622e+12 -3.75312e+12 -3.98677e+12 -4.2388e+12 -4.26376e+12 -2.92311e+12 -2.99807e+12 -2.97226e+12 -3.14003e+12 -3.31529e+12 -3.40111e+12 -3.33148e+12 -3.28345e+12 -4.33327e+12 -3.46842e+12 -3.32384e+12 -2.76087e+12 -2.14125e+12 -1.62547e+12 -1.05957e+12 -1.04873e+12 -2.36685e+12 -1.96257e+12 -2.35594e+12 -2.62542e+12 -3.42007e+12 -3.26619e+12 -2.285e+12 -2.62789e+12 -2.7544e+12 -3.33654e+12 -3.31446e+12 -3.28808e+12 -3.24877e+12 -3.1852e+12 -3.09882e+12 -3.27007e+12 -3.26708e+12 -3.22294e+12 -3.17875e+12 -3.07768e+12 -2.97709e+12 -3.01458e+12 -2.95194e+12 -3.13665e+12 -3.31068e+12 -3.27479e+12 -3.18591e+12 -3.09189e+12 -2.9973e+12 -2.90633e+12 -2.82144e+12 -2.7041e+12 -2.56975e+12 -2.57859e+12 -2.45568e+12 -2.59105e+12 -2.43602e+12 -2.20858e+12 -2.32475e+12 -2.35025e+12 -2.51811e+12 -2.35034e+12 -2.18749e+12 -2.45693e+12 -2.66793e+12 -3.46417e+12 -1.67007e+12 -2.129e+12 -2.45162e+12 -2.69661e+12 -2.86479e+12 -3.42583e+12 -3.5862e+12 -3.74042e+12 -3.82648e+12 -3.49278e+12 -2.92659e+12 -2.9174e+12 -2.87978e+12 -3.0868e+12 -3.16916e+12 -3.24252e+12 -3.4104e+12 -3.21051e+12 -2.96407e+12 -2.56554e+12 -2.26401e+12 -1.596e+12 -1.58064e+12 -1.94545e+12 -668438000000.0 -700097000000.0 -1.10001e+12 -1.66665e+12 -1.57484e+12 -2.08758e+12 -1.68753e+12 -2.31282e+12 -2.68659e+12 -2.85944e+12 -2.84998e+12 -2.68159e+12 -2.38663e+12 -2.48094e+12 -3.06525e+12 -3.05373e+12 -3.03932e+12 -3.01775e+12 -2.98388e+12 -3.02834e+12 -2.72546e+12 -2.44163e+12 -3.31744e+12 -3.39445e+12 -3.35099e+12 -2.94203e+12 -2.84301e+12 -2.75203e+12 -2.6553e+12 -2.55966e+12 -2.51438e+12 -2.4409e+12 -2.4423e+12 -2.39791e+12 -2.2636e+12 -2.32417e+12 -2.2285e+12 -2.40988e+12 -2.29539e+12 -2.29564e+12 -2.30114e+12 -2.98413e+12 -3.3072e+12 -1.56469e+12 -1.94133e+12 -2.19811e+12 -2.95657e+12 -2.94994e+12 -2.44471e+12 -2.73534e+12 -2.85882e+12 -2.95957e+12 -3.06032e+12 -3.16826e+12 -3.28859e+12 -3.40203e+12 -3.36161e+12 -3.21655e+12 -2.80592e+12 -2.77534e+12 -2.90062e+12 -3.01301e+12 -2.8277e+12 -2.87683e+12 -2.94776e+12 -3.32301e+12 -2.06039e+12 -2.7095e+12 -1.75418e+12 -2.08654e+12 -1.99951e+12 -1.39164e+12 -1.59789e+12 -513875000000.0 -129596000000.0 -394094000000.0 -632156000000.0 -1.00313e+12 -915141000000.0 -1.7495e+12 -2.28227e+12 -2.3845e+12 -2.42635e+12 -2.37563e+12 -2.31014e+12 -2.21281e+12 -2.80337e+12 -2.80977e+12 -2.79566e+12 -2.7822e+12 -2.75796e+12 -2.9264e+12 -2.84176e+12 -3.00596e+12 -2.96532e+12 -2.88942e+12 -2.78939e+12 -2.6822e+12 -2.50771e+12 -2.78152e+12 -3.48008e+12 -3.42566e+12 -3.29692e+12 -3.16949e+12 -3.05078e+12 -2.59268e+12 -2.51276e+12 -2.45449e+12 -2.39499e+12 -2.36174e+12 -2.31867e+12 -2.25833e+12 -2.2425e+12 -2.21638e+12 -2.48064e+12 -2.71955e+12 -3.0102e+12 -1.52637e+12 -2.43298e+12 -2.62557e+12 -2.78156e+12 -2.92378e+12 -3.11235e+12 -2.12541e+12 -2.48344e+12 -2.62819e+12 -2.74778e+12 -2.86105e+12 -2.97647e+12 -3.09972e+12 -3.23011e+12 -3.33751e+12 -3.06402e+12 -2.95981e+12 -2.63638e+12 -2.6854e+12 -2.74914e+12 -2.79538e+12 -2.54498e+12 -2.56487e+12 -2.6624e+12 -2.63629e+12 -1.30409e+12 -2.32471e+12 -2.18477e+12 -1.59244e+12 -1.27393e+12 -934925000000.0 -707061000000.0 -329164000000.0 -104461000000.0 -228133000000.0 -536555000000.0 -328567000000.0 -1.37944e+12 -1.04094e+12 -1.80148e+12 -1.90964e+12 -2.0042e+12 -2.02193e+12 -2.04405e+12 -2.53878e+12 -2.57396e+12 -2.56514e+12 -2.5506e+12 -2.53621e+12 -2.72402e+12 -2.66745e+12 -2.76079e+12 -2.68501e+12 -2.59101e+12 -2.46123e+12 -2.27947e+12 -1.94081e+12 -2.72045e+12 -2.62256e+12 -2.43614e+12 -2.09034e+12 -3.48266e+12 -3.3425e+12 -3.16256e+12 -3.00995e+12 -2.88186e+12 -2.77361e+12 -2.67989e+12 -2.23606e+12 -2.24454e+12 -2.22187e+12 -2.24326e+12 -2.29078e+12 -2.41518e+12 -2.616e+12 -1.81647e+12 -2.02261e+12 -2.21739e+12 -2.39832e+12 -2.56402e+12 -2.73066e+12 -2.93861e+12 -3.1354e+12 -1.93486e+12 -2.2908e+12 -2.42479e+12 -2.5408e+12 -2.65554e+12 -2.77344e+12 -2.90588e+12 -3.00537e+12 -3.07229e+12 -3.0908e+12 -2.69885e+12 -2.47435e+12 -2.48929e+12 -2.51843e+12 -2.54036e+12 -2.25456e+12 -2.24995e+12 -2.1366e+12 -1.83361e+12 -352452000000.0 -2.44716e+12 -2.29739e+12 -1.64212e+12 -1.13051e+12 -1.19196e+12 -541259000000.0 -180578000000.0 -164760000000.0 -530205000000.0 -641694000000.0 -1.12795e+12 -1.35693e+12 -1.54887e+12 -1.67233e+12 -2.02497e+12 -2.24984e+12 -2.31007e+12 -2.34288e+12 -2.33507e+12 -2.51213e+12 -2.47603e+12 -2.58949e+12 -2.44684e+12 -2.32736e+12 -2.19683e+12 -2.02663e+12 -1.71225e+12 -2.91121e+12 -2.6435e+12 -2.41793e+12 -2.20047e+12 -1.87358e+12 -3.33032e+12 -3.1525e+12 -2.96169e+12 -2.81081e+12 -2.69203e+12 -2.59687e+12 -2.5162e+12 -2.44592e+12 -2.38805e+12 -2.33474e+12 -2.29218e+12 -2.24933e+12 -2.20433e+12 -2.1788e+12 -2.15289e+12 -2.15132e+12 -2.1428e+12 -2.14467e+12 -2.14531e+12 -2.16345e+12 -2.18013e+12 -2.16766e+12 -1.60302e+12 -1.75514e+12 -1.90158e+12 -2.05244e+12 -2.20121e+12 -2.34719e+12 -2.49722e+12 -2.6691e+12 -2.87213e+12 -3.00882e+12 -1.83953e+12 -2.12489e+12 -2.22e+12 -2.3163e+12 -2.43382e+12 -2.60328e+12 -2.70934e+12 -2.78024e+12 -2.81667e+12 -2.81649e+12 -2.77969e+12 -2.48856e+12 -2.25137e+12 -2.25626e+12 -2.26347e+12 -2.27136e+12 -1.8339e+12 -1.57842e+12 -1.03887e+12 -1.8341e+12 -1.45931e+12 -1.6269e+12 -1.09233e+12 -708594000000.0 -971370000000.0 -124627000000.0 -118682000000.0 -276141000000.0 -114548000000.0 -597558000000.0 -1.77449e+12 -1.80693e+12 -1.992e+12 -2.01572e+12 -2.07854e+12 -2.11334e+12 -2.32035e+12 -2.30415e+12 -2.28226e+12 -2.41555e+12 -2.31176e+12 -2.05224e+12 -1.91583e+12 -1.81652e+12 -1.55381e+12 -2.81501e+12 -2.62059e+12 -2.37876e+12 -2.18134e+12 -2.00041e+12 -1.73343e+12 -3.06585e+12 -2.8919e+12 -2.72201e+12 -2.5919e+12 -2.49647e+12 -2.42323e+12 -2.363e+12 -2.31189e+12 -2.26526e+12 -2.22303e+12 -2.18045e+12 -2.13913e+12 -2.10811e+12 -2.08294e+12 -2.06834e+12 -2.05808e+12 -2.05225e+12 -2.05429e+12 -2.05924e+12 -2.06264e+12 -2.03389e+12 -1.84308e+12 -1.78476e+12 -1.8383e+12 -1.93213e+12 -2.04098e+12 -2.15536e+12 -2.27507e+12 -2.40521e+12 -2.54754e+12 -2.70178e+12 -2.31968e+12 -2.43971e+12 -2.51529e+12 -2.55792e+12 -2.57454e+12 -2.57563e+12 -2.53755e+12 -2.03496e+12 -2.03245e+12 -2.00081e+12 -1.95773e+12 -1.43942e+12 -1.10924e+12 -99243000000.0 -938473000000.0 -558761000000.0 -478267000000.0 -310219000000.0 -261329000000.0 -250496000000.0 -986756000000.0 -1.29094e+12 -1.48628e+12 -1.60492e+12 -1.77865e+12 -1.77265e+12 -1.80576e+12 -2.11831e+12 -2.10914e+12 -2.09559e+12 -2.24457e+12 -2.17739e+12 -2.05571e+12 -2.27652e+12 -2.11463e+12 -1.96993e+12 -1.83805e+12 -1.64302e+12 -2.46885e+12 -2.37173e+12 -2.3089e+12 -2.26302e+12 -2.2245e+12 -2.1886e+12 -2.15288e+12 -2.11106e+12 -2.0691e+12 -2.03433e+12 -2.0065e+12 -1.98642e+12 -1.97163e+12 -1.96284e+12 -1.95877e+12 -1.95849e+12 -1.8428e+12 -1.80365e+12 -1.79573e+12 -1.84064e+12 -1.91104e+12 -1.99341e+12 -2.73037e+12 -1.80354e+12 -1.93882e+12 -1.96255e+12 -2.00832e+12 -2.28732e+12 -2.32549e+12 -2.34183e+12 -2.34776e+12 -2.32899e+12 -2.29498e+12 -2.26432e+12 -2.02513e+12 -1.79355e+12 -1.78743e+12 -1.74641e+12 -1.63354e+12 -967103000000.0 -1.86819e+12 -1.07712e+12 -231148000000.0 -272040000000.0 -282141000000.0 -496069000000.0 -765093000000.0 -1.20148e+12 -1.45174e+12 -1.52437e+12 -1.54124e+12 -1.86156e+12 -1.89796e+12 -1.90739e+12 -1.90527e+12 -2.07993e+12 -2.0571e+12 -2.027e+12 -1.47835e+12 -1.51742e+12 -1.40202e+12 -2.48798e+12 -2.44421e+12 -2.74047e+12 -2.59978e+12 -2.08499e+12 -2.04392e+12 -1.99749e+12 -1.95839e+12 -1.9544e+12 -1.92963e+12 -1.78739e+12 -1.75753e+12 -2.08182e+12 -2.17584e+12 -2.27197e+12 -2.36314e+12 -2.43773e+12 -2.33915e+12 -1.80031e+12 -1.63801e+12 -1.51572e+12 -2.14269e+12 -2.22454e+12 -2.13209e+12 -2.1266e+12 -2.11534e+12 -2.08323e+12 -2.04334e+12 -2.01855e+12 -1.77159e+12 -1.58359e+12 -1.50295e+12 -1.34059e+12 -1.17054e+12 -1.19073e+12 -1.30762e+12 -279924000000.0 -386889000000.0 -109225000000.0 -110743000000.0 -124763000000.0 -127105000000.0 -331635000000.0 -469475000000.0 -1.59953e+12 -1.06655e+12 -1.5546e+12 -1.61775e+12 -1.66552e+12 -1.69669e+12 -1.71017e+12 -1.90455e+12 -1.90313e+12 -2.0684e+12 -1.07608e+12 -1.19056e+12 -2.01708e+12 -2.14248e+12 -2.08727e+12 -1.99627e+12 -1.89433e+12 -1.79802e+12 -1.71045e+12 -1.58215e+12 -2.39614e+12 -2.30389e+12 -2.22559e+12 -2.16094e+12 -2.13899e+12 -2.12299e+12 -2.10526e+12 -1.92663e+12 -1.90243e+12 -1.88404e+12 -1.87127e+12 -1.86356e+12 -1.8581e+12 -1.85112e+12 -1.83197e+12 -1.74891e+12 -1.76166e+12 -1.80094e+12 -1.85589e+12 -1.91804e+12 -1.98397e+12 -2.04851e+12 -2.10248e+12 -2.13271e+12 -2.11576e+12 -1.88709e+12 -1.82429e+12 -914262000000.0 -2.06107e+12 -2.088e+12 -2.10926e+12 -2.12712e+12 -1.90323e+12 -1.87292e+12 -1.8307e+12 -1.78955e+12 -1.75453e+12 -1.50847e+12 -1.56884e+12 -1.40572e+12 -1.29145e+12 -1.01244e+12 -905647000000.0 -807873000000.0 -384255000000.0 -309433000000.0 -416453000000.0 -1.24204e+12 -1.2897e+12 -1.38037e+12 -1.44145e+12 -1.48236e+12 -1.50907e+12 -1.7209e+12 -1.73192e+12 -1.89788e+12 -1.91424e+12 -2.01331e+12 -751435000000.0 -1.49152e+12 -1.77724e+12 -1.83982e+12 -1.82908e+12 -1.78102e+12 -1.72069e+12 -1.66293e+12 -1.61268e+12 -1.54457e+12 -2.04912e+12 -2.03962e+12 -2.00637e+12 -1.95262e+12 -1.99584e+12 -2.01344e+12 -2.02872e+12 -1.98592e+12 -1.92729e+12 -1.88161e+12 -1.84447e+12 -1.81574e+12 -1.79401e+12 -1.77789e+12 -1.7669e+12 -1.75862e+12 -1.7494e+12 -1.73456e+12 -1.70856e+12 -1.68733e+12 -1.67762e+12 -1.6823e+12 -1.70131e+12 -1.73511e+12 -1.77681e+12 -1.82186e+12 -1.86584e+12 -1.90049e+12 -1.91437e+12 -1.8904e+12 -1.79414e+12 -1.46228e+12 -1.83808e+12 -1.90143e+12 -2.02371e+12 -1.9884e+12 -1.96737e+12 -1.95363e+12 -1.9324e+12 -1.61908e+12 -1.56094e+12 -1.49758e+12 -1.4385e+12 -1.2942e+12 -1.43106e+12 -1.13868e+12 -696008000000.0 -623049000000.0 -109917000000.0 -56693800000.0 -772255000000.0 -717767000000.0 -904713000000.0 -988657000000.0 -1.1309e+12 -1.21862e+12 -1.27825e+12 -1.52759e+12 -1.73296e+12 -1.7225e+12 -1.61452e+12 -1.79933e+12 -919119000000.0 -1.41422e+12 -1.58172e+12 -1.63796e+12 -1.6396e+12 -1.61523e+12 -1.58415e+12 -1.55933e+12 -1.54999e+12 -1.56663e+12 -1.8049e+12 -1.83595e+12 -1.80539e+12 -1.70298e+12 -1.90366e+12 -2.01276e+12 -1.95435e+12 -1.86145e+12 -1.80511e+12 -1.76039e+12 -1.72622e+12 -1.70094e+12 -1.68212e+12 -1.66822e+12 -1.65793e+12 -1.64809e+12 -1.6357e+12 -1.61868e+12 -1.60326e+12 -1.59435e+12 -1.59454e+12 -1.60447e+12 -1.62381e+12 -1.65044e+12 -1.68063e+12 -1.71082e+12 -1.73511e+12 -1.74607e+12 -1.73469e+12 -1.6888e+12 -1.59212e+12 -1.47273e+12 -2.13877e+12 -1.85369e+12 -1.88107e+12 -1.83954e+12 -1.80009e+12 -1.76468e+12 -1.72245e+12 -1.67182e+12 -1.26233e+12 -1.19024e+12 -1.08054e+12 -1.40765e+12 -1.37669e+12 -1.27456e+12 -419147000000.0 -532457000000.0 -134741000000.0 -252320000000.0 -251953000000.0 -525309000000.0 -489905000000.0 -847752000000.0 -998055000000.0 -1.0834e+12 -1.31064e+12 -1.55091e+12 -1.58554e+12 -1.64475e+12 -1.77521e+12 -2.26662e+12 -2.86299e+12 -1.48285e+12 -1.47534e+12 -1.50372e+12 -1.56391e+12 -1.66111e+12 -1.66765e+12 -1.58299e+12 -1.21527e+12 -2.19144e+12 -2.00128e+12 -1.79955e+12 -1.72795e+12 -1.67304e+12 -1.63278e+12 -1.60382e+12 -1.58289e+12 -1.56727e+12 -1.55531e+12 -1.54524e+12 -1.53467e+12 -1.52254e+12 -1.51109e+12 -1.50348e+12 -1.5015e+12 -1.50613e+12 -1.51714e+12 -1.53345e+12 -1.81779e+12 -1.69526e+12 -1.61923e+12 -1.56037e+12 -1.49677e+12 -1.42292e+12 -1.33712e+12 -831391000000.0 -544079000000.0 -1.37754e+12 -1.29265e+12 -1.10846e+12 -939489000000.0 -588067000000.0 -654902000000.0 -837200000000.0 -1.12703e+12 -1.32934e+12 -1.34917e+12 -1.37716e+12 -1.42252e+12 -1.50351e+12 -1.35536e+12 -1.4315e+12 -1.4744e+12 -1.49186e+12 -1.49056e+12 -1.4801e+12 -1.4715e+12 -1.5531e+12 -1.57345e+12 -1.59073e+12 -1.60027e+12 -1.59714e+12 -1.5756e+12 -1.52937e+12 -1.46598e+12 -1.12393e+12 -2.90684e+12 -2.64134e+12 -2.04678e+12 -1.40272e+12 -1.33635e+12 -1.25792e+12 -1.15364e+12 -1.01639e+12 -940738000000.0 -370090000000.0 -1.33718e+12 -1.19113e+12 -884809000000.0 -676047000000.0 -405208000000.0 -42460400000.0 -215734000000.0 -926111000000.0 -967866000000.0 -1.12929e+12 -1.14328e+12 -1.16054e+12 -1.18666e+12 -1.70203e+12 -1.99106e+12 -1.894e+12 -1.30807e+12 -1.30294e+12 -1.32613e+12 -1.34403e+12 -1.35383e+12 -1.35743e+12 -1.36045e+12 -1.3707e+12 -1.39637e+12 -1.4413e+12 -1.49468e+12 -1.5452e+12 -1.52275e+12 -1.30926e+12 -1.96736e+12 -1.65397e+12 -1.62705e+12 -1.57366e+12 -1.53141e+12 -1.50108e+12 -1.47909e+12 -1.46287e+12 -1.45036e+12 -1.44026e+12 -1.43106e+12 -1.42191e+12 -1.4136e+12 -1.40745e+12 -1.40487e+12 -1.40664e+12 -1.41256e+12 -1.42229e+12 -1.43458e+12 -1.44786e+12 -1.45978e+12 -1.46769e+12 -1.46926e+12 -1.46286e+12 -1.44851e+12 -1.43131e+12 -1.33744e+12 -1.93299e+12 -2.2498e+12 -2.00236e+12 -1.73067e+12 -1.57971e+12 -1.47717e+12 -1.10817e+12 -1.01725e+12 -876432000000.0 -738107000000.0 -691778000000.0 -503570000000.0 -1.07366e+12 -638330000000.0 -538384000000.0 -31405500000.0 -140075000000.0 -104947000000.0 -477776000000.0 -695347000000.0 -854890000000.0 -851704000000.0 -962486000000.0 -936420000000.0 -940989000000.0 -1.21785e+12 -1.2767e+12 -1.33646e+12 -1.43316e+12 -1.35192e+12 -1.20775e+12 -1.19161e+12 -1.20035e+12 -1.21214e+12 -1.22314e+12 -1.23419e+12 -1.24951e+12 -1.27498e+12 -1.31551e+12 -1.37131e+12 -1.44246e+12 -1.52611e+12 -1.6317e+12 -1.57932e+12 -1.48969e+12 -1.35588e+12 -1.51108e+12 -1.46387e+12 -1.42104e+12 -1.39148e+12 -1.3701e+12 -1.35428e+12 -1.34237e+12 -1.33297e+12 -1.3251e+12 -1.3181e+12 -1.31215e+12 -1.30776e+12 -1.30572e+12 -1.30622e+12 -1.30941e+12 -1.31499e+12 -1.32236e+12 -1.33046e+12 -1.33795e+12 -1.3434e+12 -1.34576e+12 -1.34482e+12 -1.34195e+12 -1.34138e+12 -1.33872e+12 -1.52432e+12 -1.65669e+12 -1.67673e+12 -1.54151e+12 -1.41373e+12 -1.31618e+12 -1.23807e+12 -1.17606e+12 -814250000000.0 -672188000000.0 -655334000000.0 -399954000000.0 -443467000000.0 -236056000000.0 -1.24119e+12 -523085000000.0 -103998000000.0 -566507000000.0 -869996000000.0 -923298000000.0 -794846000000.0 -828646000000.0 -964041000000.0 -977915000000.0 -950370000000.0 -911874000000.0 -1.02658e+12 -1.01494e+12 -1.10623e+12 -1.06474e+12 -1.06108e+12 -1.06986e+12 -1.08307e+12 -1.09836e+12 -1.1168e+12 -1.14211e+12 -1.17861e+12 -1.23044e+12 -1.3039e+12 -1.40647e+12 -1.53812e+12 -1.77115e+12 -429591000000.0 -1.4231e+12 -1.35643e+12 -1.30442e+12 -1.27538e+12 -1.25557e+12 -1.24101e+12 -1.23051e+12 -1.22276e+12 -1.21676e+12 -1.21189e+12 -1.20799e+12 -1.20544e+12 -1.20449e+12 -1.20514e+12 -1.20726e+12 -1.21058e+12 -1.21478e+12 -1.21923e+12 -1.22314e+12 -1.22581e+12 -1.22678e+12 -1.22622e+12 -1.18657e+12 -1.17958e+12 -1.11883e+12 -1.05635e+12 -1.00735e+12 -957778000000.0 -895445000000.0 -582151000000.0 -375834000000.0 -568667000000.0 -319939000000.0 -160697000000.0 -1.0925e+12 -947558000000.0 -66479900000.0 -52995100000.0 -166384000000.0 -1.02416e+12 -983507000000.0 -555268000000.0 -679739000000.0 -744949000000.0 -780552000000.0 -785245000000.0 -743303000000.0 -854574000000.0 -1.39919e+12 -1.57132e+12 -1.22537e+12 -1.22704e+12 -1.23492e+12 -1.30528e+12 -1.3513e+12 -1.33176e+12 -857062000000.0 -843424000000.0 -788621000000.0 -748543000000.0 -723076000000.0 -615626000000.0 -400369000000.0 -218301000000.0 -126454000000.0 -955394000000.0 -750061000000.0 -181274000000.0 -50182400000.0 -99798000000.0 -192001000000.0 -634706000000.0 -716725000000.0 -820281000000.0 -479742000000.0 -610402000000.0 -663521000000.0 -662029000000.0 -938002000000.0 -938630000000.0 -926756000000.0 -929085000000.0 -941245000000.0 -957762000000.0 -977071000000.0 -1.00114e+12 -1.03313e+12 -1.07686e+12 -1.13966e+12 -1.23661e+12 -1.38762e+12 -1.58312e+12 -1.12964e+12 -1.34205e+12 -1.19528e+12 -1.15428e+12 -1.13523e+12 -1.12256e+12 -1.11417e+12 -1.10875e+12 -1.10533e+12 -1.10299e+12 -1.10155e+12 -1.10114e+12 -1.10175e+12 -1.10338e+12 -1.10574e+12 -1.10836e+12 -1.11086e+12 -1.11296e+12 -1.11416e+12 -1.11416e+12 -1.11291e+12 -1.11073e+12 -1.10854e+12 -1.1082e+12 -1.11302e+12 -1.1395e+12 -1.15672e+12 -1.13901e+12 -1.07256e+12 -1.00866e+12 -932613000000.0 -520767000000.0 -577264000000.0 -556893000000.0 -502149000000.0 -353255000000.0 -641951000000.0 -114732000000.0 -115436000000.0 -701259000000.0 -611055000000.0 -107469000000.0 -53565900000.0 -132296000000.0 -914256000000.0 -418631000000.0 -563560000000.0 -701391000000.0 -856293000000.0 -339354000000.0 -690389000000.0 -666181000000.0 -552670000000.0 -736976000000.0 -774594000000.0 -784957000000.0 -786018000000.0 -798147000000.0 -815299000000.0 -834160000000.0 -855978000000.0 -882638000000.0 -916991000000.0 -962748000000.0 -1.03161e+12 -1.153e+12 -1.36255e+12 -1.50312e+12 -178356000000.0 -1.01838e+12 -961395000000.0 -987783000000.0 -997014000000.0 -995307000000.0 -992429000000.0 -990591000000.0 -990194000000.0 -990955000000.0 -992639000000.0 -994874000000.0 -997820000000.0 -1.00109e+12 -1.00453e+12 -1.00766e+12 -1.0099e+12 -1.01075e+12 -1.0102e+12 -1.00798e+12 -1.00429e+12 -999571000000.0 -994696000000.0 -990871000000.0 -990002000000.0 -997079000000.0 -999606000000.0 -980894000000.0 -937591000000.0 -909208000000.0 -848433000000.0 -770310000000.0 -752377000000.0 -684431000000.0 -489990000000.0 -416373000000.0 -320265000000.0 -623732000000.0 -425846000000.0 -198705000000.0 -261294000000.0 -588555000000.0 -689574000000.0 -387954000000.0 -415871000000.0 -474014000000.0 -699606000000.0 -891273000000.0 -583321000000.0 -600529000000.0 -578077000000.0 -375031000000.0 -592499000000.0 -586796000000.0 -626921000000.0 -631146000000.0 -650823000000.0 -672020000000.0 -690655000000.0 -710137000000.0 -731860000000.0 -756907000000.0 -787384000000.0 -824743000000.0 -886455000000.0 -1.03499e+12 -1.36721e+12 -883401000000.0 -647819000000.0 -626576000000.0 -791364000000.0 -847648000000.0 -861399000000.0 -866634000000.0 -869564000000.0 -872331000000.0 -875813000000.0 -880836000000.0 -886361000000.0 -892479000000.0 -898235000000.0 -903480000000.0 -907970000000.0 -911120000000.0 -912052000000.0 -910634000000.0 -906846000000.0 -900806000000.0 -893121000000.0 -884875000000.0 -877153000000.0 -870816000000.0 -867044000000.0 -861839000000.0 -844928000000.0 -801860000000.0 -788264000000.0 -747012000000.0 -682705000000.0 -673279000000.0 -623097000000.0 -450683000000.0 -267779000000.0 -307589000000.0 -565376000000.0 -424189000000.0 -214913000000.0 -49074200000.0 -26615900000.0 -9035710000.0 -661901000000.0 -70139500000.0 -431775000000.0 -441297000000.0 -9035750000.0 -172593000000.0 -306294000000.0 -544250000000.0 -470868000000.0 -317739000000.0 -350831000000.0 -465042000000.0 -640729000000.0 -807112000000.0 -1.15779e+12 -1.01355e+12 -53710800000.0 -580767000000.0 -704169000000.0 -727534000000.0 -785455000000.0 -794355000000.0 -802253000000.0 -808797000000.0 -813800000000.0 -585031000000.0 -550835000000.0 -413301000000.0 -258105000000.0 -62277300000.0 -356427000000.0 -260565000000.0 -132803000000.0 -77861000000.0 -29765900000.0 -535400000000.0 -149824000000.0 -188594000000.0 -470026000000.0 -11645000000.0 -170451000000.0 -109595000000.0 -468219000000.0 -941698000000.0 -341844000000.0 -373209000000.0 -499599000000.0 -461078000000.0 -490225000000.0 -528250000000.0 -548205000000.0 -566306000000.0 -584316000000.0 -603303000000.0 -621283000000.0 -637731000000.0 -640509000000.0 -831550000000.0 -740823000000.0 -748115000000.0 -754453000000.0 -759527000000.0 -766363000000.0 -775069000000.0 -816198000000.0 -815158000000.0 -810403000000.0 -802485000000.0 -791635000000.0 -779473000000.0 -767312000000.0 -756147000000.0 -745668000000.0 -733533000000.0 -720216000000.0 -696818000000.0 -667660000000.0 -640329000000.0 -562983000000.0 -231904000000.0 -101754000000.0 -263904000000.0 -580263000000.0 -411266000000.0 -304092000000.0 -183373000000.0 -264550000000.0 -247692000000.0 -29675900000.0 -184597000000.0 -224442000000.0 -238370000000.0 -608568000000.0 -991828000000.0 -253039000000.0 -240743000000.0 -199066000000.0 -376459000000.0 -350762000000.0 -395703000000.0 -404521000000.0 -412634000000.0 -426056000000.0 -442023000000.0 -457467000000.0 -474779000000.0 -482444000000.0 -482906000000.0 -432634000000.0 -362714000000.0 -471659000000.0 -1.18335e+12 -662691000000.0 -244138000000.0 -607601000000.0 -606796000000.0 -620381000000.0 -630633000000.0 -639333000000.0 -644911000000.0 -652848000000.0 -662514000000.0 -676878000000.0 -689652000000.0 -700433000000.0 -709705000000.0 -717085000000.0 -721994000000.0 -723248000000.0 -718590000000.0 -709439000000.0 -695430000000.0 -678967000000.0 -661518000000.0 -644988000000.0 -629627000000.0 -613146000000.0 -591806000000.0 -577415000000.0 -571469000000.0 -536533000000.0 -449802000000.0 -455756000000.0 -472260000000.0 -354142000000.0 -73149100000.0 -567465000000.0 -341377000000.0 -236974000000.0 -261931000000.0 -284742000000.0 -225061000000.0 -141585000000.0 -359994000000.0 -11133300000.0 -16726500000.0 -44489400000.0 -223496000000.0 -258829000000.0 -362631000000.0 -474991000000.0 -625184000000.0 -366664000000.0 -363591000000.0 -294629000000.0 -188412000000.0 -135061000000.0 -222633000000.0 -288388000000.0 -306358000000.0 -307987000000.0 -305566000000.0 -305504000000.0 -304972000000.0 -319342000000.0 -345225000000.0 -357333000000.0 -374871000000.0 -293546000000.0 -248096000000.0 -203727000000.0 -829376000000.0 -855471000000.0 -551354000000.0 -520733000000.0 -511112000000.0 -531589000000.0 -526593000000.0 -543487000000.0 -550920000000.0 -569186000000.0 -583495000000.0 -598992000000.0 -608899000000.0 -620867000000.0 -627344000000.0 -634660000000.0 -630947000000.0 -622643000000.0 -604555000000.0 -584019000000.0 -560259000000.0 -537572000000.0 -515773000000.0 -497008000000.0 -473903000000.0 -432920000000.0 -456468000000.0 -442838000000.0 -358277000000.0 -329913000000.0 -338132000000.0 -307236000000.0 -192609000000.0 -188797000000.0 -83122500000.0 -90924700000.0 -208701000000.0 -60772600000.0 -55852200000.0 -48994900000.0 -16691000000.0 -9144710000.0 -119656000000.0 -130177000000.0 -270829000000.0 -171496000000.0 -98238000000.0 -109169000000.0 -483967000000.0 -122084000000.0 -1.05165e+12 -1.13256e+12 -256325000000.0 -207371000000.0 -144856000000.0 -530602000000.0 -15548300000.0 -20096000000.0 -67756400000.0 -42958500000.0 -115266000000.0 -186998000000.0 -282786000000.0 -313764000000.0 -197667000000.0 -697430000000.0 -356235000000.0 -415603000000.0 -429985000000.0 -451344000000.0 -546636000000.0 -646401000000.0 -639694000000.0 -617591000000.0 -582110000000.0 -540154000000.0 -472364000000.0 -454445000000.0 -442507000000.0 -431814000000.0 -404395000000.0 -307238000000.0 -214609000000.0 -311807000000.0 -551727000000.0 -611359000000.0 -336842000000.0 -380673000000.0 -414536000000.0 -406112000000.0 -426241000000.0 -423604000000.0 -461912000000.0 -479008000000.0 -496435000000.0 -510139000000.0 -520421000000.0 -531994000000.0 -545165000000.0 -547783000000.0 -543191000000.0 -520897000000.0 -494962000000.0 -464201000000.0 -434405000000.0 -404492000000.0 -379234000000.0 -363740000000.0 -344507000000.0 -325851000000.0 -319838000000.0 -274794000000.0 -198621000000.0 -217720000000.0 -200987000000.0 -173062000000.0 -94224700000.0 -433392000000.0 -168126000000.0 -84272800000.0 -26869900000.0 -25661000000.0 -208341000000.0 -122073000000.0 -45708200000.0 -63905000000.0 -109288000000.0 -186818000000.0 -220703000000.0 -225430000000.0 -100448000000.0 -438638000000.0 -31634500000.0 -60383400000.0 -35454000000.0 -29242800000.0 -22197100000.0 -47209100000.0 -182177000000.0 -205928000000.0 -223185000000.0 -233821000000.0 -257231000000.0 -328730000000.0 -347333000000.0 -355079000000.0 -314920000000.0 -330721000000.0 -165784000000.0 -192102000000.0 -342704000000.0 -220729000000.0 -349356000000.0 -539525000000.0 -241732000000.0 -126981000000.0 -424982000000.0 -192536000000.0 -385332000000.0 -215882000000.0 -352811000000.0 -356903000000.0 -401282000000.0 -396319000000.0 -432202000000.0 -406568000000.0 -465920000000.0 -441469000000.0 -477868000000.0 -431673000000.0 -411765000000.0 -361678000000.0 -331213000000.0 -286861000000.0 -252947000000.0 -223014000000.0 -240713000000.0 -220437000000.0 -203858000000.0 -152439000000.0 -124953000000.0 -214612000000.0 -291251000000.0 -308131000000.0 -329609000000.0 -261928000000.0 -219721000000.0 -345339000000.0 -148351000000.0 -134883000000.0 -142983000000.0 -109515000000.0 -94724300000.0 -74526100000.0 -55245900000.0 -48866900000.0 -20072700000.0 -147408000000.0 -104380000000.0 -74817000000.0 -310808000000.0 -537021000000.0 -464946000000.0 -9035750000.0 -9035750000.0 -9035750000.0 -114967000000.0 -178534000000.0 -276987000000.0 -307019000000.0 -302927000000.0 -225747000000.0 -348682000000.0 -113283000000.0 -121717000000.0 -40352100000.0 -20202400000.0 -20196400000.0 -28443000000.0 -39196200000.0 -109407000000.0 -124251000000.0 -136673000000.0 -165075000000.0 -206073000000.0 -239806000000.0 -251276000000.0 -293766000000.0 -258295000000.0 -352537000000.0 -258197000000.0 -167903000000.0 -142153000000.0 -334214000000.0 -313462000000.0 -217070000000.0 -353011000000.0 -199411000000.0 -312388000000.0 -276807000000.0 -293448000000.0 -272735000000.0 -289599000000.0 -260100000000.0 -299176000000.0 -259966000000.0 -274639000000.0 -220357000000.0 -206722000000.0 -174929000000.0 -168433000000.0 -151300000000.0 -146798000000.0 -142751000000.0 -165171000000.0 -140014000000.0 -129652000000.0 -82556300000.0 -63004400000.0 -90677800000.0 -93188900000.0 -67944300000.0 -68124100000.0 -24813100000.0 -54266000000.0 -220024000000.0 -91353600000.0 -53778500000.0 -32320600000.0 -9992790000.0 -9568080000.0 -9168400000.0 -110169000000.0 -74176800000.0 -20357600000.0 -12680500000.0 -26859400000.0 -100415000000.0 -115006000000.0 -136799000000.0 -104577000000.0 -318539000000.0 -131592000000.0 -154793000000.0 -108719000000.0 -88524800000.0 -67780800000.0 -45925500000.0 -29626900000.0 -68818000000.0 -79046300000.0 -77910700000.0 -83257400000.0 -84001900000.0 -90151100000.0 -88791500000.0 -109103000000.0 -78153500000.0 -123216000000.0 -31098100000.0 -163209000000.0 -9035750000.0 -62032300000.0 -270488000000.0 -307299000000.0 -128559000000.0 -260376000000.0 -120779000000.0 -205692000000.0 -96685100000.0 -137692000000.0 -109994000000.0 -117608000000.0 -94065400000.0 -105916000000.0 -76302200000.0 -118814000000.0 -105260000000.0 -150494000000.0 -139049000000.0 -155034000000.0 -149614000000.0 -161807000000.0 -160963000000.0 -165311000000.0 -166981000000.0 -204066000000.0 -196069000000.0 -187570000000.0 -128762000000.0 -115245000000.0 -123314000000.0 -121223000000.0 -100520000000.0 -85764600000.0 -31405500000.0 -16493300000.0 -149701000000.0 -76366200000.0 -69656800000.0 -49580700000.0 -30003500000.0 -25752400000.0 -21436800000.0 -17810700000.0 -14345500000.0 -10810500000.0 -86354000000.0 -69515400000.0 -36228900000.0 -49077900000.0 -77566300000.0 -154184000000.0 -167716000000.0 -162373000000.0 -128883000000.0 -251138000000.0 -10716000000.0 -41690800000.0 -12839900000.0 -17027400000.0 -22838300000.0 -29690500000.0 -41661000000.0 -79531000000.0 -92547000000.0 -97145200000.0 -107345000000.0 -110510000000.0 -115255000000.0 -114266000000.0 -131331000000.0 -108187000000.0 -142104000000.0 -76966600000.0 -181091000000.0 -81280500000.0 -99456500000.0 -235868000000.0 -155608000000.0 -23002300000.0 -119780000000.0 -16559600000.0 -85471700000.0 -16953600000.0 -63600000000.0 -57109600000.0 -77002800000.0 -66835800000.0 -88271200000.0 -72644100000.0 -117085000000.0 -102610000000.0 -135857000000.0 -112949000000.0 -117931000000.0 -104386000000.0 -108293000000.0 -100881000000.0 -99894900000.0 -97234200000.0 -122587000000.0 -103115000000.0 -88024900000.0 -42834600000.0 -52214800000.0 -66698700000.0 -66409700000.0 -56407600000.0 -44687200000.0 -12333000000.0 -14689700000.0 -129381000000.0 -66213400000.0 -59258500000.0 -31742700000.0 -14066000000.0 -11671200000.0 -9709610000.0 -9041500000.0 -9035750000.0 -9035750000.0 -60833400000.0 -48558500000.0 -9187860000.0 -9043540000.0 -23761700000.0 -86912000000.0 -100159000000.0 -105298000000.0 -86776300000.0 -209476000000.0 -21682100000.0 -49301200000.0 -22463000000.0 -18242800000.0 -15517600000.0 -13126100000.0 -15194600000.0 -33288100000.0 -41201500000.0 -43016400000.0 -49800000000.0 -50304300000.0 -51815700000.0 -47298500000.0 -61824500000.0 -39629200000.0 -68172500000.0 -13947900000.0 -81583000000.0 -19551200000.0 -13113600000.0 -190755000000.0 -171815000000.0 -71670700000.0 -137881000000.0 -61416600000.0 -105069000000.0 -51078700000.0 -74009500000.0 -62858300000.0 -75911300000.0 -63780000000.0 -79446100000.0 -61551300000.0 -99435500000.0 -86820700000.0 -118710000000.0 -100735000000.0 -107730000000.0 -97205200000.0 -101787000000.0 -95352900000.0 -93796600000.0 -90501400000.0 -113095000000.0 -94832800000.0 -77181200000.0 -42210600000.0 -50522100000.0 -61605100000.0 -58748700000.0 -51308500000.0 -35692100000.0 -9381440000.0 -9138070000.0 -102562000000.0 -58230800000.0 -60667700000.0 -33997300000.0 -17995100000.0 -14609800000.0 -11678100000.0 -10131200000.0 -9674530000.0 -9242340000.0 -43009600000.0 -42286600000.0 -9035780000.0 -9055850000.0 -22534600000.0 -77106300000.0 -90349500000.0 -98980900000.0 -87954400000.0 -179239000000.0 -9091120000.0 -36918500000.0 -15265100000.0 -11813300000.0 -10424600000.0 -9710040000.0 -12295400000.0 -24612900000.0 -32284600000.0 -34736700000.0 -41379200000.0 -42802500000.0 -45675600000.0 -43420600000.0 -58600400000.0 -41527800000.0 -66122500000.0 -27069700000.0 -80659000000.0 -36974100000.0 -31017800000.0 -156877000000.0 -98762300000.0 -24502000000.0 -69078600000.0 -18061000000.0 -49684700000.0 -17555500000.0 -35157200000.0 -31638800000.0 -46952500000.0 -40127600000.0 -56931700000.0 -44467600000.0 -80162100000.0 -70861300000.0 -100715000000.0 -86082000000.0 -92877900000.0 -84046600000.0 -88508200000.0 -83009300000.0 -81799100000.0 -78630300000.0 -97636900000.0 -80300700000.0 -62451100000.0 -38096400000.0 -45132800000.0 -53979400000.0 -49788100000.0 -44573500000.0 -28152400000.0 -9038800000.0 -9035750000.0 -82891200000.0 -50841100000.0 -56877600000.0 -30717400000.0 -16708000000.0 -13286800000.0 -10434800000.0 -9035750000.0 -9035750000.0 -9037640000.0 -29609600000.0 -35932000000.0 -9035820000.0 -9064150000.0 -20580800000.0 -65759900000.0 -78148200000.0 -87315300000.0 -79354800000.0 -149536000000.0 -9035760000.0 -33685900000.0 -16563900000.0 -12408700000.0 -10773300000.0 -9535490000.0 -10542000000.0 -17698400000.0 -23440900000.0 -24879000000.0 -29970200000.0 -30978000000.0 -33322000000.0 -30285300000.0 -40659500000.0 -23225700000.0 -41155100000.0 -12907100000.0 -50731600000.0 -19239200000.0 -11847900000.0 -125520000000.0 -87403200000.0 -27386300000.0 -54534700000.0 -16822900000.0 -39057000000.0 -16258100000.0 -27924300000.0 -25344800000.0 -38245600000.0 -32660400000.0 -46956500000.0 -36584100000.0 -67022100000.0 -59512600000.0 -85153100000.0 -73013900000.0 -79013500000.0 -71636300000.0 -75479900000.0 -70777900000.0 -69614400000.0 -66719500000.0 -82324400000.0 -67066300000.0 -50518000000.0 -34353800000.0 -39738800000.0 -46439100000.0 -41691500000.0 -38117800000.0 -22481800000.0 -9039720000.0 -9035750000.0 -65170700000.0 -42721900000.0 -51779800000.0 -28594300000.0 -16719200000.0 -13408900000.0 -10536800000.0 -9035750000.0 -9035750000.0 -9037400000.0 -20183700000.0 -29605000000.0 -9035840000.0 -9066850000.0 -18210800000.0 -53526400000.0 -64027700000.0 -72730100000.0 -68150100000.0 -119624000000.0 -9035760000.0 -29393600000.0 -16585100000.0 -12451800000.0 -10808800000.0 -9574610000.0 -10196800000.0 -13828500000.0 -17872100000.0 -18905400000.0 -22875600000.0 -23806700000.0 -26084000000.0 -23888800000.0 -32117500000.0 -18032100000.0 -31509800000.0 -12147900000.0 -41081100000.0 -16924600000.0 -13023200000.0 -97127600000.0 -61188700000.0 -21022200000.0 -41907100000.0 -15279500000.0 -30218200000.0 -14755700000.0 -22014100000.0 -20197800000.0 -30364800000.0 -26001500000.0 -37434500000.0 -29338200000.0 -53742100000.0 -47909300000.0 -68590900000.0 -59024300000.0 -63952400000.0 -58130200000.0 -61240100000.0 -57464900000.0 -56459500000.0 -54025900000.0 -66106500000.0 -53642500000.0 -39646400000.0 -29542100000.0 -33492900000.0 -38318800000.0 -33817900000.0 -31482700000.0 -18021100000.0 -9040100000.0 -9035750000.0 -49998900000.0 -34935300000.0 -44609700000.0 -25362700000.0 -15885900000.0 -13038800000.0 -10442200000.0 -9035750000.0 -9035750000.0 -9037060000.0 -14071400000.0 -23463500000.0 -9035840000.0 -9063430000.0 -15634000000.0 -40833500000.0 -48820500000.0 -55869400000.0 -53465300000.0 -88452700000.0 -9035760000.0 -24177000000.0 -15361500000.0 -11940800000.0 -10548200000.0 -9505810000.0 -9970830000.0 -11658600000.0 -13996100000.0 -14606500000.0 -17480600000.0 -18225000000.0 -20094600000.0 -18656400000.0 -24626000000.0 -14351500000.0 -23590900000.0 -11256900000.0 -31710800000.0 -12052500000.0 -71157000000.0 -45136100000.0 -17852300000.0 -31015500000.0 -13554100000.0 -22888900000.0 -13155000000.0 -17264400000.0 -16088300000.0 -23395400000.0 -20257800000.0 -28571800000.0 -22793100000.0 -40551800000.0 -36396300000.0 -51521500000.0 -44635000000.0 -48285000000.0 -44090700000.0 -46374500000.0 -43621600000.0 -42854200000.0 -41029900000.0 -49572300000.0 -40406000000.0 -29901800000.0 -23995900000.0 -26706600000.0 -29916900000.0 -26299700000.0 -24872100000.0 -14616900000.0 -9039680000.0 -9035750000.0 -36725400000.0 -27207800000.0 -35659000000.0 -21293500000.0 -14384200000.0 -12228400000.0 -10171800000.0 -9035750000.0 -9035750000.0 -9036690000.0 -14681600000.0 -10825800000.0 -17507600000.0 -9035810000.0 -9054530000.0 -12966300000.0 -27931100000.0 -32872900000.0 -37387600000.0 -36296200000.0 -56437000000.0 -9035760000.0 -18272700000.0 -13165900000.0 -10954500000.0 -10038800000.0 -9349680000.0 -9647170000.0 -10410700000.0 -11490000000.0 -11714300000.0 -13431700000.0 -13932700000.0 -15167600000.0 -14359100000.0 -17961900000.0 -11728700000.0 -17092500000.0 -10339700000.0 -22486500000.0 -12388100000.0 -11035900000.0 -45842300000.0 -30009500000.0 -14389800000.0 -21497100000.0 -11738900000.0 -16732400000.0 -11496400000.0 -13483600000.0 -12831200000.0 -17216600000.0 -15339200000.0 -20337200000.0 -16905500000.0 -27586500000.0 -25117500000.0 -34251900000.0 -30133300000.0 -32356200000.0 -29846100000.0 -31229800000.0 -29569700000.0 -29094400000.0 -27977700000.0 -33019900000.0 -27470400000.0 -21055600000.0 -18026500000.0 -19604900000.0 -21419700000.0 -19121100000.0 -18360100000.0 -12023000000.0 -9038430000.0 -9035750000.0 -24881700000.0 -19662700000.0 -25347500000.0 -16564000000.0 -12395400000.0 -11069500000.0 -9763430000.0 -9035750000.0 -9035750000.0 -9036310000.0 -9426820000.0 -11679200000.0 -9035770000.0 -9041870000.0 -10265800000.0 -14944100000.0 -23886000000.0 -9035760000.0 -11950900000.0 -10370100000.0 -9656560000.0 -9361270000.0 -9137660000.0 -9232730000.0 -10319800000.0 -10492300000.0 -10904400000.0 -10655300000.0 -11794200000.0 -9810240000.0 -11482900000.0 -9440100000.0 -13243700000.0 -9672660000.0 -20533500000.0 -15535200000.0 -10724600000.0 -12855200000.0 -9882830000.0 -11367100000.0 -9806510000.0 -10362500000.0 -10166500000.0 -11552100000.0 -10962600000.0 -12532100000.0 -11461000000.0 -14815300000.0 -14043300000.0 -16917800000.0 -15626600000.0 -16328200000.0 -15541100000.0 -15976800000.0 -15454600000.0 -15303600000.0 -14950800000.0 -16523400000.0 -14775800000.0 -12750200000.0 -11855700000.0 -12347000000.0 -12903400000.0 -12167300000.0 -11939600000.0 -9927170000.0 -9036630000.0 -9035750000.0 -13917600000.0 -12329700000.0 -11418000000.0 -10107200000.0 -9687370000.0 -9269010000.0 -9035750000.0 -9035750000.0 -9035930000.0 -16513000000.0 -17963400000.0 -17659600000.0 -9447950000.0 -9737290000.0 -9778970000.0 -10081600000.0 -14192100000.0 
SCALARS Shear_Stress float 1
LOOKUP_TABLE default
9647780000.0 25699900000.0 17632000000.0 2533070000.0 53265900000.0 23904000000.0 56180700000.0 47110900000.0 50826900000.0 43235300000.0 58836100000.0 20711200000.0 59360600000.0 17653700000.0 25971900000.0 4211370000.0 32920600000.0 61607600000.0 3304850000.0 20385600000.0 9081970000.0 43271400000.0 32789700000.0 79029100000.0 23062100000.0 67785100000.0 43114400000.0 58141800000.0 21360600000.0 44811200000.0 43113800000.0 59503900000.0 123419000000.0 95613600000.0 97602500000.0 14694100000.0 84020200000.0 37044600000.0 44166200000.0 56457600000.0 17907000000.0 116301000000.0 92689000000.0 32143600000.0 21621400000.0 57848100000.0 51567000000.0 53525400000.0 29850500000.0 84869000000.0 64957100000.0 114159000000.0 79377900000.0 199535000000.0 106185000000.0 92543400000.0 9736110000.0 13258600000.0 52164800000.0 12689300000.0 28700800000.0 16571000000.0 82475200000.0 2048120000.0 83429500000.0 43539000000.0 16763300000.0 77448200000.0 72487700000.0 38892500000.0 106543000000.0 75081700000.0 137460000000.0 84311900000.0 201105000000.0 236259000000.0 186616000000.0 13916200000.0 110342000000.0 89334300000.0 43179500000.0 180325000000.0 28099800000.0 24358400000.0 107014000000.0 98336300000.0 79496400000.0 7919590000.0 46126200000.0 186262000000.0 257081000000.0 43118900000.0 159417000000.0 156697000000.0 122250000000.0 30121500000.0 144862000000.0 172614000000.0 140695000000.0 166261000000.0 130714000000.0 134957000000.0 105103000000.0 107018000000.0 45575200000.0 96432400000.0 42942700000.0 10894600000.0 134633000000.0 135682000000.0 233388000000.0 225776000000.0 248125000000.0 183884000000.0 203636000000.0 151093000000.0 218544000000.0 124072000000.0 445513000000.0 269572000000.0 197197000000.0 190479000000.0 165303000000.0 131413000000.0 56218500000.0 73571900000.0 81277400000.0 168546000000.0 143817000000.0 122449000000.0 346963000000.0 209244000000.0 406942000000.0 296667000000.0 372947000000.0 300507000000.0 318128000000.0 250642000000.0 227347000000.0 278680000000.0 349670000000.0 192067000000.0 187169000000.0 156097000000.0 124998000000.0 173188000000.0 314181000000.0 578127000000.0 444796000000.0 437947000000.0 386547000000.0 307239000000.0 242164000000.0 229770000000.0 122317000000.0 221098000000.0 189935000000.0 180197000000.0 174899000000.0 158152000000.0 143143000000.0 127744000000.0 75950100000.0 59150700000.0 292052000000.0 578622000000.0 341153000000.0 463862000000.0 443545000000.0 369179000000.0 277033000000.0 224635000000.0 212735000000.0 134138000000.0 125298000000.0 54314000000.0 149031000000.0 133129000000.0 182781000000.0 169517000000.0 164612000000.0 137460000000.0 107640000000.0 77911700000.0 242419000000.0 354240000000.0 517284000000.0 248010000000.0 203146000000.0 187092000000.0 369996000000.0 410213000000.0 463753000000.0 453894000000.0 424539000000.0 385994000000.0 329284000000.0 264903000000.0 144713000000.0 51406300000.0 64911000000.0 131343000000.0 157916000000.0 142967000000.0 113138000000.0 233448000000.0 258793000000.0 92628500000.0 273993000000.0 433232000000.0 427886000000.0 325347000000.0 173420000000.0 60458600000.0 10546000000.0 74300800000.0 131524000000.0 123699000000.0 140161000000.0 113142000000.0 114746000000.0 81389600000.0 152277000000.0 152027000000.0 187801000000.0 90380000000.0 120182000000.0 352353000000.0 434716000000.0 384452000000.0 234007000000.0 116893000000.0 76174900000.0 3498400000.0 331607000.0 26145400000.0 14722100000.0 31423000000.0 87009600000.0 91440300000.0 103524000000.0 76710500000.0 209188000000.0 278639000000.0 106383000000.0 16244300000.0 70441800000.0 45585700000.0 15210400000.0 61605600000.0 229579000000.0 321382000000.0 397280000000.0 406251000000.0 416672000000.0 386252000000.0 317935000000.0 210704000000.0 18581100000.0 35080400000.0 26637300000.0 45309300000.0 80477600000.0 70727100000.0 34658700000.0 44161600000.0 96792300000.0 91938600000.0 210093000000.0 361427000000.0 400748000000.0 339711000000.0 72160300000.0 23728400000.0 54926600000.0 12613300000.0 16435400000.0 40653600000.0 18985500000.0 55297400000.0 20670300000.0 27014400000.0 21978500000.0 275823000000.0 413571000000.0 181661000000.0 142768000000.0 197380000000.0 38914600000.0 295234000000.0 351845000000.0 411559000000.0 225686000000.0 62232000000.0 2621310000.0 32952900000.0 33356700000.0 75893300000.0 80824000000.0 94274500000.0 49890800000.0 2761830000.0 25639500000.0 347132000000.0 533949000000.0 276543000000.0 250940000000.0 352705000000.0 256084000000.0 247995000000.0 205895000000.0 225851000000.0 284580000000.0 205516000000.0 355544000000.0 450299000000.0 442295000000.0 340887000000.0 58752100000.0 78453400000.0 215399000000.0 164611000000.0 68352300000.0 23614100000.0 78974100000.0 285967000000.0 382954000000.0 430925000000.0 175943000000.0 133177000000.0 146496000000.0 723358000000.0 160780000000.0 213979000000.0 28610200000.0 61338400000.0 418490000000.0 537382000000.0 202505000000.0 166301000000.0 55952300000.0 33076600000.0 64209400000.0 121722000000.0 414977000000.0 627255000000.0 339080000000.0 371649000000.0 481104000000.0 496416000000.0 466739000000.0 91539700000.0 90609700000.0 222085000000.0 811726000000.0 661482000000.0 268014000000.0 283825000000.0 219223000000.0 193295000000.0 66155300000.0 527989000000.0 71435700000.0 61044700000.0 467614000000.0 694798000000.0 395541000000.0 629455000000.0 611889000000.0 718405000000.0 128620000000.0 160853000000.0 232397000000.0 163253000000.0 25794900000.0 84838800000.0 280274000000.0 100228000000.0 70774200000.0 229749000000.0 259342000000.0 22522700000.0 191413000000.0 387538000000.0 138425000000.0 40377500000.0 131041000000.0 343424000000.0 467965000000.0 859822000000.0 46646300000.0 122049000000.0 61064700000.0 201144000000.0 344579000000.0 57734600000.0 172463000000.0 314455000000.0 380342000000.0 245719000000.0 216519000000.0 440089000000.0 167462000000.0 18005200000.0 72139400000.0 484388000000.0 755513000000.0 329890000000.0 358069000000.0 379220000000.0 543640000000.0 581119000000.0 1.13653e+12 91664900000.0 27543400000.0 62418200000.0 114789000000.0 659558000000.0 192748000000.0 361676000000.0 259006000000.0 248171000000.0 735531000000.0 1.01605e+12 204989000000.0 422267000000.0 848223000000.0 314932000000.0 358346000000.0 422261000000.0 473149000000.0 67968200000.0 34191500000.0 13857600000.0 58555500000.0 27542500000.0 25652300000.0 784976000000.0 168153000000.0 206506000000.0 426543000000.0 103815000000.0 116215000000.0 86414300000.0 361744000000.0 562061000000.0 1.16843e+12 123734000000.0 1.02535e+12 338426000000.0 325102000000.0 332724000000.0 334734000000.0 226186000000.0 212120000000.0 730179000000.0 44062700000.0 70408600000.0 47778300000.0 257178000000.0 361411000000.0 38660600000.0 109476000000.0 380034000000.0 448963000000.0 540537000000.0 125363000000.0 202187000000.0 841078000000.0 642068000000.0 331865000000.0 290474000000.0 390375000000.0 427500000000.0 377768000000.0 191600000000.0 105018000000.0 501215000000.0 319783000000.0 340843000000.0 545739000000.0 779653000000.0 237134000000.0 623256000000.0 209730000000.0 326662000000.0 106638000000.0 48486600000.0 450256000000.0 907871000000.0 1.09217e+12 137363000000.0 82176200000.0 1.3586e+12 483605000000.0 432703000000.0 571946000000.0 556627000000.0 469309000000.0 339411000000.0 282877000000.0 433568000000.0 521834000000.0 711205000000.0 231115000000.0 288869000000.0 483210000000.0 828759000000.0 564945000000.0 84627900000.0 206735000000.0 1.41151e+12 367403000000.0 1.78635e+12 867323000000.0 769415000000.0 622060000000.0 487015000000.0 30438500000.0 287962000000.0 397068000000.0 523518000000.0 559444000000.0 672437000000.0 677129000000.0 448749000000.0 394385000000.0 844987000000.0 1.26856e+12 201898000000.0 101573000000.0 448509000000.0 1.35234e+12 387893000000.0 515770000000.0 207801000000.0 2.1109e+12 521326000000.0 357250000000.0 619187000000.0 470261000000.0 354544000000.0 296649000000.0 14401200000.0 397709000000.0 632595000000.0 765342000000.0 718272000000.0 427224000000.0 589712000000.0 634291000000.0 20891000000.0 101033000000.0 238356000000.0 232084000000.0 784672000000.0 504536000000.0 346733000000.0 2.00306e+12 413053000000.0 16051500000.0 326977000000.0 220337000000.0 197294000000.0 394976000000.0 504401000000.0 744920000000.0 821779000000.0 632267000000.0 669331000000.0 521343000000.0 1.08347e+12 1.35573e+12 533943000000.0 130878000000.0 534256000000.0 1.03285e+12 566193000000.0 373496000000.0 776633000000.0 490516000000.0 158445000000.0 475826000000.0 604834000000.0 96089100000.0 332658000000.0 77582700000.0 137664000000.0 162864000000.0 23262000000.0 613602000000.0 266875000000.0 379946000000.0 626452000000.0 862174000000.0 881672000000.0 836961000000.0 949246000000.0 1.05294e+12 247750000000.0 188261000000.0 90566200000.0 349447000000.0 612435000000.0 826110000000.0 831643000000.0 49018200000.0 1.0136e+12 221162000000.0 400762000000.0 873557000000.0 304922000000.0 602068000000.0 1.26753e+12 996241000000.0 381882000000.0 249374000000.0 425866000000.0 147585000000.0 382814000000.0 258635000000.0 797840000000.0 969052000000.0 953718000000.0 1.01781e+12 955604000000.0 1.05233e+12 197255000000.0 90254900000.0 360939000000.0 763957000000.0 644519000000.0 631655000000.0 329398000000.0 29387700000.0 522463000000.0 416468000000.0 963514000000.0 938304000000.0 826032000000.0 753336000000.0 750283000000.0 694437000000.0 439175000000.0 499395000000.0 89996800000.0 173422000000.0 839276000000.0 883083000000.0 1.04563e+12 1.06922e+12 1.04622e+12 1.00056e+12 875013000000.0 181890000000.0 163090000000.0 576426000000.0 825127000000.0 494840000000.0 1.02386e+12 513360000000.0 784088000000.0 38418200000.0 343479000000.0 349236000000.0 730977000000.0 728065000000.0 143752000000.0 654639000000.0 1.22141e+12 719020000000.0 493684000000.0 743999000000.0 786816000000.0 694555000000.0 520182000000.0 1.21061e+12 1.03305e+12 138824000000.0 580642000000.0 718123000000.0 975371000000.0 1.08704e+12 1.06017e+12 832118000000.0 453862000000.0 311472000000.0 390374000000.0 548313000000.0 710137000000.0 679443000000.0 627728000000.0 521039000000.0 753234000000.0 947002000000.0 234719000000.0 189543000000.0 59646800000.0 14908100000.0 948294000000.0 1.13778e+12 154609000000.0 455563000000.0 1.00409e+12 668227000000.0 834092000000.0 785286000000.0 666698000000.0 793633000000.0 340935000000.0 154329000000.0 49419600000.0 678306000000.0 815668000000.0 848829000000.0 1.03357e+12 1.05169e+12 1.08782e+12 972623000000.0 600160000000.0 387887000000.0 427037000000.0 438021000000.0 579910000000.0 563248000000.0 525647000000.0 649545000000.0 1.01967e+12 268251000000.0 572930000000.0 486296000000.0 49862100000.0 183735000000.0 112568000000.0 464566000000.0 530482000000.0 516710000000.0 618926000000.0 104684000000.0 76252900000.0 194246000000.0 433600000000.0 894020000000.0 872500000000.0 819427000000.0 788116000000.0 73168900000.0 321348000000.0 670496000000.0 638588000000.0 884704000000.0 1.03194e+12 1.04034e+12 954915000000.0 834359000000.0 518914000000.0 455435000000.0 482940000000.0 425781000000.0 509567000000.0 353395000000.0 430531000000.0 466278000000.0 330796000000.0 904053000000.0 199262000000.0 632691000000.0 473453000000.0 359878000000.0 57195800000.0 258957000000.0 272736000000.0 8133060000.0 323644000000.0 704822000000.0 333819000000.0 674185000000.0 332019000000.0 1.35414e+12 1.30018e+12 1.05321e+12 794110000000.0 809022000000.0 519245000000.0 761857000000.0 287306000000.0 517449000000.0 580660000000.0 900052000000.0 984934000000.0 845734000000.0 682721000000.0 588904000000.0 490744000000.0 424401000000.0 258071000000.0 189034000000.0 332440000000.0 182543000000.0 623435000000.0 645263000000.0 504307000000.0 280096000000.0 247801000000.0 63144900000.0 79324400000.0 357005000000.0 71395400000.0 160159000000.0 119878000000.0 585672000000.0 365544000000.0 815513000000.0 303530000000.0 207002000000.0 1.01972e+12 744579000000.0 721699000000.0 784810000000.0 755676000000.0 714769000000.0 743139000000.0 576252000000.0 814376000000.0 325908000000.0 492402000000.0 333657000000.0 275893000000.0 400748000000.0 241137000000.0 567657000000.0 576301000000.0 872327000000.0 929269000000.0 727873000000.0 513498000000.0 450706000000.0 375805000000.0 327675000000.0 176852000000.0 52686600000.0 617859000000.0 286705000000.0 739049000000.0 1.03185e+12 329829000000.0 543567000000.0 454427000000.0 108208000000.0 195783000000.0 159729000000.0 90380400000.0 489593000000.0 57373000000.0 58925200000.0 202464000000.0 437791000000.0 888374000000.0 678842000000.0 391912000000.0 1.15927e+12 238003000000.0 344352000000.0 268649000000.0 432339000000.0 703903000000.0 788192000000.0 832836000000.0 684511000000.0 493515000000.0 176142000000.0 39024900000.0 522727000000.0 866084000000.0 875593000000.0 854960000000.0 763608000000.0 625156000000.0 423436000000.0 279260000000.0 3850780000.0 421341000000.0 947177000000.0 702158000000.0 1266030000.0 205141000000.0 360827000000.0 137482000000.0 113014000000.0 51593200000.0 174110000000.0 67828800000.0 107607000000.0 605689000000.0 152208000000.0 105832000000.0 66966200000.0 165595000000.0 502265000000.0 969991000000.0 22834800000.0 886228000000.0 506506000000.0 197215000000.0 603632000000.0 127712000000.0 483458000000.0 596756000000.0 751560000000.0 840390000000.0 871457000000.0 929992000000.0 707980000000.0 467946000000.0 42263500000.0 195641000000.0 631842000000.0 860407000000.0 673097000000.0 518558000000.0 383351000000.0 309714000000.0 188171000000.0 206940000000.0 341549000000.0 279823000000.0 1.27822e+12 793083000000.0 351034000000.0 101504000000.0 50446600000.0 546277000000.0 260957000000.0 72618200000.0 146288000000.0 41320700000.0 170397000000.0 282379000000.0 5308040000.0 44545400000.0 29136200000.0 793490000000.0 266341000000.0 138344000000.0 319213000000.0 157209000000.0 65045200000.0 334564000000.0 603665000000.0 1.01161e+12 395056000000.0 40411200000.0 37004700000.0 83789200000.0 323502000000.0 732722000000.0 938177000000.0 950820000000.0 982610000000.0 887271000000.0 871146000000.0 702334000000.0 724006000000.0 447753000000.0 511162000000.0 145803000000.0 130450000000.0 239182000000.0 762274000000.0 804544000000.0 576896000000.0 192185000000.0 129652000000.0 556582000000.0 415086000000.0 267449000000.0 582233000000.0 364712000000.0 539065000000.0 537093000000.0 402945000000.0 493648000000.0 24685700000.0 384965000000.0 406513000000.0 66423300000.0 302297000000.0 202005000000.0 640805000000.0 891105000000.0 202440000000.0 95281700000.0 47589700000.0 177826000000.0 313304000000.0 426919000000.0 186619000000.0 97224800000.0 632386000000.0 6958530000.0 43330000000.0 185426000000.0 344480000000.0 537790000000.0 869734000000.0 976080000000.0 951322000000.0 868285000000.0 751656000000.0 545348000000.0 498205000000.0 39728000000.0 414787000000.0 859911000000.0 849924000000.0 748034000000.0 690678000000.0 458719000000.0 310065000000.0 83283100000.0 527696000000.0 319739000000.0 431781000000.0 303259000000.0 915382000000.0 262753000000.0 30715900000.0 806940000000.0 205509000000.0 276363000000.0 297103000000.0 423310000000.0 483102000000.0 417765000000.0 421568000000.0 102544000000.0 222196000000.0 282433000000.0 213973000000.0 613493000000.0 1.11502e+12 13575700000.0 235966000000.0 32622500000.0 302797000000.0 315629000000.0 686132000000.0 289141000000.0 1.26511e+12 258112000000.0 242177000000.0 369087000000.0 183277000000.0 397975000000.0 54039200000.0 642320000000.0 762966000000.0 888997000000.0 955544000000.0 950117000000.0 921595000000.0 863540000000.0 735526000000.0 618308000000.0 876253000000.0 783099000000.0 837571000000.0 619970000000.0 136337000000.0 253886000000.0 874277000000.0 826209000000.0 198415000000.0 271157000000.0 37836100000.0 230813000000.0 88236300000.0 769441000000.0 228019000000.0 46599400000.0 312192000000.0 119753000000.0 232841000000.0 596365000000.0 502190000000.0 489737000000.0 433321000000.0 149826000000.0 157403000000.0 195547000000.0 293387000000.0 373133000000.0 198876000000.0 545570000000.0 1.03907e+12 222277000000.0 165354000000.0 672198000000.0 1.09908e+12 803136000000.0 476308000000.0 74198200000.0 1.01684e+12 944672000000.0 249460000000.0 467184000000.0 839469000000.0 950148000000.0 920387000000.0 828384000000.0 898127000000.0 864205000000.0 899285000000.0 878870000000.0 842238000000.0 805343000000.0 716539000000.0 714918000000.0 709673000000.0 1.1472e+12 914964000000.0 792701000000.0 747823000000.0 562105000000.0 511143000000.0 239136000000.0 1.09096e+12 273006000000.0 496410000000.0 112506000000.0 465013000000.0 1.30233e+12 895501000000.0 635712000000.0 176581000000.0 233608000000.0 498558000000.0 705150000000.0 575247000000.0 511085000000.0 487298000000.0 143278000000.0 189534000000.0 330643000000.0 334442000000.0 440123000000.0 550735000000.0 445408000000.0 350017000000.0 190016000000.0 134899000000.0 1.11701e+12 954630000000.0 870436000000.0 405792000000.0 408404000000.0 226439000000.0 74646200000.0 464757000000.0 722616000000.0 906464000000.0 781766000000.0 763830000000.0 851420000000.0 850969000000.0 772585000000.0 756598000000.0 836274000000.0 971962000000.0 1.22549e+12 1.06798e+12 887756000000.0 825199000000.0 709334000000.0 613213000000.0 174801000000.0 31656900000.0 1.33284e+12 409041000000.0 375651000000.0 5343950000.0 757981000000.0 209672000000.0 975414000000.0 656418000000.0 169289000000.0 336972000000.0 125854000000.0 467607000000.0 652587000000.0 551025000000.0 589846000000.0 472366000000.0 419976000000.0 102861000000.0 164720000000.0 182564000000.0 301844000000.0 464520000000.0 557023000000.0 584847000000.0 580016000000.0 637834000000.0 309589000000.0 333204000000.0 497040000000.0 432914000000.0 909143000000.0 14020100000.0 548869000000.0 858230000000.0 735528000000.0 362073000000.0 124652000000.0 636046000000.0 64655200000.0 754206000000.0 927606000000.0 913127000000.0 969283000000.0 519249000000.0 623017000000.0 755834000000.0 843093000000.0 816223000000.0 766012000000.0 843095000000.0 1.05168e+12 914865000000.0 743884000000.0 639771000000.0 723983000000.0 352596000000.0 251585000000.0 726668000000.0 555539000000.0 240332000000.0 281208000000.0 211904000000.0 193990000000.0 459577000000.0 798409000000.0 117858000000.0 461734000000.0 882121000000.0 714735000000.0 578774000000.0 556617000000.0 641095000000.0 537478000000.0 353582000000.0 39242800000.0 28660100000.0 85108700000.0 261914000000.0 437708000000.0 562528000000.0 604510000000.0 565763000000.0 327945000000.0 172149000000.0 245097000000.0 439671000000.0 132761000000.0 122015000000.0 395169000000.0 855214000000.0 1.39721e+12 1.07567e+12 1.33325e+12 451601000000.0 206159000000.0 405955000000.0 1.09415e+12 1.1347e+12 322561000000.0 586293000000.0 666654000000.0 781553000000.0 774887000000.0 819529000000.0 794451000000.0 791657000000.0 791324000000.0 800556000000.0 850657000000.0 928140000000.0 930359000000.0 951530000000.0 827379000000.0 775284000000.0 575138000000.0 413008000000.0 253295000000.0 107346000000.0 306926000000.0 201396000000.0 1.50427e+12 151325000000.0 234045000000.0 350833000000.0 126301000000.0 376609000000.0 575366000000.0 702452000000.0 670981000000.0 1.06343e+12 632319000000.0 464014000000.0 1.12979e+12 442385000000.0 459085000000.0 554123000000.0 503955000000.0 426843000000.0 362648000000.0 325342000000.0 115169000000.0 47150700000.0 397164000000.0 245529000000.0 281447000000.0 367312000000.0 517374000000.0 638043000000.0 554226000000.0 571789000000.0 592560000000.0 335025000000.0 236563000000.0 112687000000.0 115322000000.0 480412000000.0 8176860000.0 302559000000.0 344345000000.0 693437000000.0 1.03609e+12 1.47627e+12 448735000000.0 1.63881e+12 320221000000.0 605718000000.0 220061000000.0 513190000000.0 925796000000.0 106246000000.0 506499000000.0 682981000000.0 758689000000.0 779568000000.0 805813000000.0 861479000000.0 849780000000.0 622477000000.0 227282000000.0 15295700000.0 122739000000.0 423535000000.0 89146200000.0 980046000000.0 102360000000.0 225853000000.0 302980000000.0 184107000000.0 84548600000.0 596736000000.0 339941000000.0 903238000000.0 1.12041e+12 582392000000.0 190977000000.0 67159600000.0 490938000000.0 402221000000.0 314728000000.0 293804000000.0 204760000000.0 105981000000.0 55748600000.0 452811000000.0 239363000000.0 402597000000.0 581851000000.0 499338000000.0 531545000000.0 714252000000.0 368562000000.0 566163000000.0 116530000000.0 879915000000.0 315072000000.0 221335000000.0 495121000000.0 540865000000.0 586954000000.0 565793000000.0 1.10984e+12 27495700000.0 506365000000.0 541608000000.0 195228000000.0 40122500000.0 1.06458e+12 244116000000.0 305056000000.0 316506000000.0 532652000000.0 672021000000.0 744005000000.0 772804000000.0 804047000000.0 810839000000.0 791096000000.0 642136000000.0 208312000000.0 486042000000.0 221050000000.0 754834000000.0 561432000000.0 6248170000.0 640936000000.0 104180000000.0 231555000000.0 111835000000.0 662826000000.0 655276000000.0 396247000000.0 324558000000.0 197107000000.0 222903000000.0 202929000000.0 373606000000.0 304733000000.0 190942000000.0 400470000000.0 618746000000.0 548074000000.0 258990000000.0 420686000000.0 737858000000.0 293686000000.0 373269000000.0 439847000000.0 145547000000.0 1.27845e+12 114503000000.0 583176000000.0 692185000000.0 546830000000.0 432221000000.0 497846000000.0 135456000000.0 221337000000.0 592152000000.0 558949000000.0 517199000000.0 170103000000.0 51570200000.0 286331000000.0 533859000000.0 546398000000.0 674037000000.0 659731000000.0 727455000000.0 706318000000.0 757066000000.0 717103000000.0 757069000000.0 646961000000.0 726564000000.0 807729000000.0 384551000000.0 1.26452e+12 1.31172e+12 892017000000.0 45612400000.0 329130000000.0 58020100000.0 241185000000.0 282989000000.0 221069000000.0 215447000000.0 314172000000.0 209812000000.0 524725000000.0 628231000000.0 514354000000.0 130991000000.0 1.21119e+12 613255000000.0 15842200000.0 52368500000.0 121901000000.0 6719760000.0 148352000000.0 369791000000.0 282115000000.0 225563000000.0 29496600000.0 260475000000.0 496941000000.0 789943000000.0 124764000000.0 183655000000.0 689369000000.0 937848000000.0 209264000000.0 799389000000.0 1.20001e+12 997242000000.0 182881000000.0 856510000000.0 713759000000.0 627890000000.0 740217000000.0 369437000000.0 345602000000.0 584872000000.0 363915000000.0 153164000000.0 611864000000.0 941957000000.0 229174000000.0 157586000000.0 383468000000.0 567456000000.0 629003000000.0 671102000000.0 626363000000.0 489571000000.0 781791000000.0 569250000000.0 115052000000.0 161741000000.0 643176000000.0 482467000000.0 143395000000.0 2482350000.0 182728000000.0 315136000000.0 344276000000.0 312028000000.0 33533200000.0 141856000000.0 36820900000.0 144958000000.0 464506000000.0 850762000000.0 690599000000.0 682215000000.0 626554000000.0 44816600000.0 92125500000.0 86592000000.0 58049400000.0 150650000000.0 750487000000.0 632680000000.0 153046000000.0 125982000000.0 59867000000.0 46700400000.0 190387000000.0 357334000000.0 835791000000.0 1.31821e+12 303453000000.0 98702500000.0 485679000000.0 848743000000.0 1.40016e+12 414146000000.0 1.36964e+12 370252000000.0 719466000000.0 56259900000.0 833749000000.0 814928000000.0 602049000000.0 512219000000.0 562324000000.0 628845000000.0 743706000000.0 462807000000.0 727875000000.0 819575000000.0 310541000000.0 78303000000.0 398309000000.0 538737000000.0 593233000000.0 631305000000.0 421388000000.0 876308000000.0 864490000000.0 239238000000.0 361373000000.0 366526000000.0 157196000000.0 302169000000.0 200256000000.0 196099000000.0 365607000000.0 449001000000.0 438354000000.0 272163000000.0 249453000000.0 207244000000.0 266925000000.0 549352000000.0 653524000000.0 516523000000.0 345702000000.0 253201000000.0 443234000000.0 6839770000.0 130603000000.0 159496000000.0 805690000000.0 1.11637e+12 390137000000.0 136209000000.0 172286000000.0 133844000000.0 115543000000.0 98789800000.0 588748000000.0 952971000.0 126891000000.0 501838000000.0 1.00129e+12 722466000000.0 254038000000.0 317068000000.0 794680000000.0 808283000000.0 1137750000.0 565678000000.0 66079900000.0 625259000000.0 564456000000.0 307501000000.0 30956400000.0 465599000000.0 626380000000.0 783513000000.0 915893000000.0 828448000000.0 679012000000.0 591551000000.0 630265000000.0 746561000000.0 932231000000.0 859513000000.0 445440000000.0 47680000000.0 274502000000.0 234705000000.0 457544000000.0 371409000000.0 472009000000.0 419596000000.0 550300000000.0 563169000000.0 560502000000.0 331088000000.0 24168900000.0 938698000000.0 187510000000.0 397137000000.0 217988000000.0 158475000000.0 400581000000.0 579789000000.0 500482000000.0 546085000000.0 621376000000.0 596502000000.0 441831000000.0 369936000000.0 331848000000.0 386763000000.0 574944000000.0 717042000000.0 594591000000.0 177763000000.0 382137000000.0 511440000000.0 353233000000.0 18517500000.0 552389000000.0 96270700000.0 70638200000.0 211577000000.0 139248000000.0 143987000000.0 59978800000.0 156799000000.0 128940000000.0 6401790000.0 774877000000.0 558324000000.0 397463000000.0 237615000000.0 372323000000.0 554277000000.0 112354000000.0 201921000000.0 477998000000.0 739478000000.0 452532000000.0 29628200000.0 83846200000.0 654493000000.0 199452000000.0 159426000000.0 110181000000.0 450838000000.0 696539000000.0 864698000000.0 893500000000.0 542992000000.0 269298000000.0 136124000000.0 428738000000.0 120007000000.0 904030000000.0 366518000000.0 362258000000.0 347831000000.0 256181000000.0 325601000000.0 640392000000.0 584823000000.0 123791000000.0 547016000000.0 643393000000.0 465852000000.0 447565000000.0 761757000000.0 1.34046e+12 1.73555e+12 1.44655e+12 959334000000.0 596136000000.0 450576000000.0 407710000000.0 449912000000.0 591970000000.0 753523000000.0 820493000000.0 539055000000.0 478130000000.0 488245000000.0 455293000000.0 248916000000.0 56533400000.0 324450000000.0 430715000000.0 611593000000.0 711156000000.0 541252000000.0 305812000000.0 166403000000.0 88918500000.0 177502000000.0 29805500000.0 100375000000.0 177546000000.0 575534000000.0 387596000000.0 274389000000.0 313643000000.0 809409000000.0 434060000000.0 595067000000.0 265919000000.0 966476000000.0 57350100000.0 426751000000.0 304262000000.0 143067000000.0 328078000000.0 260778000000.0 1.12596e+12 437629000000.0 76247900000.0 81269300000.0 200996000000.0 496303000000.0 718690000000.0 826108000000.0 837044000000.0 740915000000.0 371740000000.0 111962000000.0 27491700000.0 127631000000.0 510656000000.0 17914000000.0 300984000000.0 144588000000.0 142590000000.0 374933000000.0 171992000000.0 203336000000.0 342761000000.0 604726000000.0 476855000000.0 511182000000.0 259125000000.0 665876000000.0 567886000000.0 319599000000.0 155129000000.0 41711300000.0 308108000000.0 1.00958e+12 628460000000.0 490009000000.0 472265000000.0 389599000000.0 194379000000.0 106241000000.0 575795000000.0 819229000000.0 505548000000.0 194087000000.0 189648000000.0 308597000000.0 483836000000.0 103705000000.0 72895000000.0 549114000000.0 522675000000.0 677183000000.0 357815000000.0 1.09134e+12 567748000000.0 52985900000.0 259292000000.0 558463000000.0 119065000000.0 632169000000.0 379306000000.0 79602100000.0 629035000000.0 538735000000.0 147984000000.0 137311000000.0 118801000000.0 33971700000.0 252824000000.0 512083000000.0 685868000000.0 762583000000.0 734800000000.0 598761000000.0 237780000000.0 58630300000.0 90900500000.0 354088000000.0 877564000000.0 355390000000.0 126671000000.0 52028900000.0 411977000000.0 875724000000.0 217927000000.0 15052000000.0 235102000000.0 6645150000.0 118522000000.0 387680000000.0 60845000000.0 395384000000.0 532325000000.0 447008000000.0 247505000000.0 425124000000.0 473512000000.0 300529000000.0 64068400000.0 232841000000.0 324413000000.0 416024000000.0 549306000000.0 706735000000.0 858332000000.0 491616000000.0 432533000000.0 390338000000.0 232213000000.0 82891700000.0 1.32002e+12 514018000000.0 369331000000.0 59931800000.0 481279000000.0 568477000000.0 137182000000.0 75669900000.0 249916000000.0 305863000000.0 390037000000.0 755684000000.0 1.05434e+12 711443000000.0 499376000000.0 86811200000.0 88611400000.0 166659000000.0 31684500000.0 179268000000.0 106902000000.0 106148000000.0 458646000000.0 502572000000.0 341396000000.0 70342900000.0 299242000000.0 513654000000.0 650012000000.0 687392000000.0 617322000000.0 454894000000.0 29720700000.0 103310000000.0 202501000000.0 281991000000.0 179999000000.0 949162000000.0 527363000000.0 1.1268e+12 197154000000.0 30986000000.0 271048000000.0 316698000000.0 512893000000.0 162004000000.0 288353000000.0 6374680000.0 84825300000.0 22863800000.0 103619000000.0 52064900000.0 144831000000.0 117579000000.0 173994000000.0 19178200000.0 181620000000.0 314151000000.0 446996000000.0 576736000000.0 693293000000.0 833316000000.0 1.24076e+12 424253000000.0 404060000000.0 438286000000.0 268536000000.0 555759000000.0 1.11679e+12 664598000000.0 566683000000.0 467130000000.0 284684000000.0 156847000000.0 337293000000.0 1.0763e+12 798189000000.0 407007000000.0 15692500000.0 50936600000.0 79349000000.0 46895400000.0 123830000000.0 480987000000.0 946761000000.0 964433000000.0 11302800000.0 315724000000.0 250662000000.0 241995000000.0 232612000000.0 229589000000.0 366198000000.0 316280000000.0 8465000000.0 584844000000.0 365954000000.0 7495040000.0 247916000000.0 205213000000.0 112476000000.0 338154000000.0 524135000000.0 626545000000.0 613308000000.0 508110000000.0 345030000000.0 176352000000.0 9156310000.0 192776000000.0 203105000000.0 434435000000.0 416985000000.0 858671000000.0 587972000000.0 471090000000.0 361245000000.0 722943000000.0 377773000000.0 621081000000.0 356246000000.0 514020000000.0 531969000000.0 98905200000.0 221755000000.0 153052000000.0 3107420000.0 105063000000.0 138953000000.0 285663000000.0 404766000000.0 278571000000.0 45474500000.0 10641900000.0 99127700000.0 225181000000.0 341683000000.0 437643000000.0 499184000000.0 512410000000.0 526069000000.0 807588000000.0 234571000000.0 168483000000.0 314750000000.0 213411000000.0 589039000000.0 839969000000.0 759280000000.0 678106000000.0 527696000000.0 1.07876e+12 436967000000.0 461814000000.0 264272000000.0 285886000000.0 15000200000.0 248147000000.0 345982000000.0 1.22906e+12 3585020000.0 21472500000.0 124962000000.0 258694000000.0 413031000000.0 480250000000.0 412373000000.0 169035000000.0 121401000000.0 250322000000.0 260288000000.0 122138000000.0 227602000000.0 373381000000.0 341203000000.0 175668000000.0 53554100000.0 73674100000.0 22413600000.0 132894000000.0 562108000000.0 598776000000.0 532572000000.0 409073000000.0 266996000000.0 134442000000.0 31415400000.0 505951000000.0 185589000000.0 480390000000.0 29224500000.0 206979000000.0 163313000000.0 203173000000.0 215539000000.0 334355000000.0 472853000000.0 599345000000.0 522991000000.0 329284000000.0 152750000000.0 128375000000.0 198549000000.0 289563000000.0 368942000000.0 420519000000.0 434442000000.0 423438000000.0 492055000000.0 155152000000.0 639181000000.0 144703000000.0 340482000000.0 597123000000.0 955560000000.0 806743000000.0 715969000000.0 687887000000.0 494361000000.0 78355000000.0 124960000000.0 193278000000.0 219482000000.0 209533000000.0 5976620000.0 160780000000.0 220142000000.0 80228100000.0 974275000000.0 1.12445e+12 130026000000.0 697297000000.0 1.10014e+12 53381600000.0 320008000000.0 427673000000.0 280462000000.0 290581000000.0 252692000000.0 217132000000.0 236379000000.0 189279000000.0 37034800000.0 304502000000.0 93539600000.0 380363000000.0 216412000000.0 66545100000.0 41130800000.0 41065300000.0 146450000000.0 371236000000.0 568204000000.0 532047000000.0 433824000000.0 314029000000.0 196664000000.0 100315000000.0 46800400000.0 85580900000.0 37985700000.0 283927000000.0 91409000000.0 371416000000.0 105514000000.0 418381000000.0 640845000000.0 550787000000.0 617602000000.0 460798000000.0 69684400000.0 167135000000.0 48066600000.0 269794000000.0 32658200000.0 301646000000.0 208363000000.0 428086000000.0 578279000000.0 724314000000.0 807516000000.0 558376000000.0 344000000000.0 253473000000.0 248211000000.0 294632000000.0 355004000000.0 407310000000.0 436949000000.0 454509000000.0 510256000000.0 467520000000.0 359222000000.0 299438000000.0 48553300000.0 53745700000.0 355233000000.0 764488000000.0 845121000000.0 744181000000.0 952743000000.0 827135000000.0 940435000000.0 207064000000.0 141507000000.0 202805000000.0 346008000000.0 68543200000.0 178732000000.0 115947000000.0 1.18943e+12 736555000000.0 1.01157e+12 489961000000.0 448845000000.0 669608000000.0 26835000000.0 262132000000.0 367707000000.0 363798000000.0 351978000000.0 314916000000.0 279310000000.0 253546000000.0 50028200000.0 87766700000.0 285587000000.0 348419000000.0 244023000000.0 204595000000.0 224510000000.0 4907540000.0 89018600000.0 464257000000.0 426367000000.0 325967000000.0 223665000000.0 134285000000.0 70736300000.0 46360300000.0 7557620000.0 156238000000.0 153124000000.0 219288000000.0 78296500000.0 2072340000.0 353108000000.0 351082000000.0 441001000000.0 463756000000.0 405782000000.0 500167000000.0 203242000000.0 39777100000.0 370156000000.0 182609000000.0 128988000000.0 391377000000.0 577127000000.0 726018000000.0 518060000000.0 588144000000.0 626892000000.0 450037000000.0 457465000000.0 179128000000.0 90907300000.0 150270000000.0 560752000000.0 400839000000.0 63763100000.0 121766000000.0 750277000000.0 166579000000.0 219053000000.0 165906000000.0 462916000000.0 428524000000.0 9407340000.0 97851000000.0 129213000000.0 40861900000.0 56568700000.0 214831000000.0 38384700000.0 748179000000.0 617032000000.0 463877000000.0 119906000000.0 415931000000.0 205853000000.0 270350000000.0 23609600000.0 427938000000.0 414177000000.0 414635000000.0 400891000000.0 376621000000.0 192665000000.0 336902000000.0 148410000000.0 109672000000.0 465627000000.0 497067000000.0 150318000000.0 84272400000.0 37962700000.0 15046700000.0 99562400000.0 140172000000.0 182294000000.0 135629000000.0 101855000000.0 245816000000.0 276556000000.0 362504000000.0 260233000000.0 333446000000.0 350855000000.0 286067000000.0 270549000000.0 669393000000.0 13303300000.0 155076000000.0 319624000000.0 866342000000.0 1.04698e+12 541464000000.0 418231000000.0 349588000000.0 348060000000.0 382020000000.0 426832000000.0 471038000000.0 725178000000.0 382078000000.0 100739000000.0 102192000000.0 47943900000.0 222872000000.0 482080000000.0 428271000000.0 249458000000.0 14463800000.0 251847000000.0 365525000000.0 395025000000.0 503757000000.0 90033700000.0 8199630000.0 714481000.0 277987000000.0 49245600000.0 63566400000.0 88644600000.0 24896500000.0 178264000000.0 389695000000.0 477625000000.0 464370000000.0 92702000000.0 212317000000.0 257521000000.0 124118000000.0 43190500000.0 377585000000.0 416535000000.0 436347000000.0 445786000000.0 445105000000.0 353463000000.0 330025000000.0 155087000000.0 196484000000.0 285830000000.0 363941000000.0 379875000000.0 389493000000.0 585614000000.0 275390000000.0 456711000000.0 413338000000.0 325156000000.0 232940000000.0 4233930000.0 63293700000.0 108842000000.0 147802000000.0 149456000000.0 144446000000.0 199602000000.0 240105000000.0 275110000000.0 44552600000.0 274001000000.0 821028000000.0 222971000000.0 498968000000.0 633174000000.0 719444000000.0 779369000000.0 988753000000.0 274885000000.0 375242000000.0 390528000000.0 415861000000.0 454912000000.0 510393000000.0 583553000000.0 672421000000.0 741276000000.0 280354000000.0 49138400000.0 18740900000.0 127871000000.0 342180000000.0 456943000000.0 408238000000.0 407486000000.0 594193000000.0 461145000000.0 133966000000.0 787693000000.0 132988000000.0 50608400000.0 160773000000.0 122428000000.0 147458000000.0 105307000000.0 52458400000.0 12197200000.0 169465000000.0 261388000000.0 49561400000.0 360970000000.0 285734000000.0 78439200000.0 135583000000.0 201173000000.0 146915000000.0 232904000000.0 367059000000.0 433445000000.0 456335000000.0 467815000000.0 441145000000.0 446654000000.0 286431000000.0 294513000000.0 341361000000.0 402525000000.0 454121000000.0 421184000000.0 878825000000.0 515331000000.0 228589000000.0 215382000000.0 508739000000.0 474523000000.0 360015000000.0 256597000000.0 169840000000.0 100464000000.0 46609500000.0 247260000000.0 219377000000.0 236898000000.0 173903000000.0 9598310000.0 288655000000.0 839477000000.0 217660000000.0 287401000000.0 413911000000.0 535271000000.0 613162000000.0 648112000000.0 704367000000.0 808625000000.0 64830000000.0 332530000000.0 411837000000.0 461235000000.0 529196000000.0 633125000000.0 750983000000.0 815907000000.0 819416000000.0 654833000000.0 43191200000.0 114470000000.0 243412000000.0 385545000000.0 429823000000.0 533611000000.0 701468000000.0 700746000000.0 358068000000.0 236027000000.0 839135000000.0 44796900000.0 58407200000.0 12363300000.0 65547700000.0 230168000000.0 19255800000.0 46891300000.0 408805000000.0 299424000000.0 159426000000.0 8736740000.0 153897000000.0 246049000000.0 60121600000.0 95923000000.0 241642000000.0 358828000000.0 433214000000.0 481300000000.0 507472000000.0 461951000000.0 389490000000.0 370089000000.0 396022000000.0 367481000000.0 181562000000.0 804049000000.0 500498000000.0 325492000000.0 134138000000.0 155333000000.0 727887000000.0 515908000000.0 345510000000.0 224877000000.0 136650000000.0 72258800000.0 20658700000.0 27991800000.0 70897200000.0 109449000000.0 132928000000.0 148130000000.0 177162000000.0 202429000000.0 221098000000.0 205491000000.0 176820000000.0 143495000000.0 84001500000.0 63431200000.0 325701000000.0 712699000000.0 372629000000.0 254155000000.0 261822000000.0 344620000000.0 448087000000.0 531951000000.0 580366000000.0 614082000000.0 650343000000.0 567938000000.0 39926300000.0 326619000000.0 431340000000.0 505468000000.0 645636000000.0 829633000000.0 881249000000.0 882108000000.0 790341000000.0 541910000000.0 245109000000.0 92821100000.0 182439000000.0 284167000000.0 391094000000.0 466853000000.0 767102000000.0 682721000000.0 367544000000.0 986786000000.0 335724000000.0 35769600000.0 160275000000.0 145575000000.0 132870000000.0 114286000000.0 83399900000.0 254296000000.0 61850600000.0 108682000000.0 163139000000.0 34710700000.0 84608500000.0 186377000000.0 285791000000.0 367881000000.0 468477000000.0 489800000000.0 516925000000.0 561787000000.0 631811000000.0 443905000000.0 362733000000.0 295307000000.0 25445900000.0 591577000000.0 526712000000.0 379351000000.0 255996000000.0 142971000000.0 729519000.0 873201000000.0 559716000000.0 354507000000.0 217063000000.0 123232000000.0 59587500000.0 12814300000.0 26298400000.0 64112900000.0 98577000000.0 128404000000.0 155462000000.0 174233000000.0 183257000000.0 172066000000.0 143550000000.0 102050000000.0 37451100000.0 70348300000.0 240442000000.0 435538000000.0 325461000000.0 184856000000.0 200016000000.0 273421000000.0 369011000000.0 459160000000.0 529269000000.0 581508000000.0 620032000000.0 613742000000.0 938711000000.0 947279000000.0 929934000000.0 866294000000.0 704953000000.0 476160000000.0 230689000000.0 281974000000.0 438741000000.0 545851000000.0 700348000000.0 646873000000.0 485569000000.0 25292700000.0 163807000000.0 390604000000.0 207865000000.0 304752000000.0 241065000000.0 68393200000.0 100743000000.0 229980000000.0 220012000000.0 39395600000.0 39463400000.0 151634000000.0 253734000000.0 422690000000.0 457741000000.0 484746000000.0 568852000000.0 672652000000.0 862407000000.0 471164000000.0 353067000000.0 258564000000.0 209338000000.0 183547000000.0 367600000000.0 215702000000.0 114561000000.0 56719900000.0 21570900000.0 11413400000.0 51324200000.0 94689200000.0 129275000000.0 149631000000.0 156118000000.0 146085000000.0 120122000000.0 79541700000.0 20711600000.0 64556700000.0 267733000000.0 189348000000.0 159798000000.0 212484000000.0 297552000000.0 389784000000.0 341261000000.0 7155410000.0 373312000000.0 457140000000.0 605861000000.0 943583000000.0 893624000000.0 789521000000.0 622155000000.0 414756000000.0 230491000000.0 150675000000.0 198338000000.0 314997000000.0 492602000000.0 639885000000.0 708036000000.0 332256000000.0 506992000000.0 397392000000.0 74785100000.0 247754000000.0 86439700000.0 101972000000.0 114295000000.0 191933000000.0 74468100000.0 22481500000.0 84192800000.0 326359000000.0 378234000000.0 417327000000.0 438751000000.0 517940000000.0 572738000000.0 657937000000.0 419116000000.0 285182000000.0 2712050000.0 371774000000.0 558990000000.0 925491000000.0 584651000000.0 6247290000.0 52991900000.0 100152000000.0 125634000000.0 177242000000.0 288098000000.0 213965000000.0 180182000000.0 474432000000.0 547272000000.0 607839000000.0 639896000000.0 580341000000.0 179886000000.0 176502000000.0 436340000000.0 463548000000.0 1.02258e+12 973550000000.0 809060000000.0 697580000000.0 537107000000.0 369691000000.0 237472000000.0 183389000000.0 173549000000.0 556038000000.0 634406000000.0 549393000000.0 254618000000.0 316604000000.0 362535000000.0 199144000000.0 196043000000.0 64787800000.0 95178900000.0 61601100000.0 6356740000.0 143546000000.0 179655000000.0 28360500000.0 122724000000.0 205654000000.0 298635000000.0 346891000000.0 368321000000.0 380485000000.0 456230000000.0 483606000000.0 895414000000.0 185490000000.0 50063600000.0 226679000000.0 564995000000.0 555160000000.0 451767000000.0 347728000000.0 283862000000.0 286813000000.0 347909000000.0 897200000000.0 584167000000.0 376545000000.0 198965000000.0 94385000000.0 59459500000.0 42702700000.0 134368000000.0 126949000000.0 104301000000.0 67673900000.0 16387700000.0 51025700000.0 131332000000.0 203955000000.0 156153000000.0 176047000000.0 241415000000.0 325461000000.0 412273000000.0 495280000000.0 571009000000.0 630348000000.0 644203000000.0 543524000000.0 101980000000.0 482810000000.0 374320000000.0 1.0103e+12 943915000000.0 904243000000.0 868598000000.0 612002000000.0 480983000000.0 334590000000.0 211946000000.0 141635000000.0 101863000000.0 327816000000.0 526025000000.0 548760000000.0 381581000000.0 47924600000.0 520640000000.0 41918600000.0 81860500000.0 233173000000.0 60665100000.0 163961000000.0 264998000000.0 326937000000.0 334313000000.0 333839000000.0 386723000000.0 392163000000.0 529084000000.0 610137000000.0 872708000000.0 37300800000.0 158376000000.0 531352000000.0 583052000000.0 515594000000.0 415191000000.0 333716000000.0 301747000000.0 343293000000.0 469356000000.0 817061000000.0 574849000000.0 371159000000.0 135592000000.0 50798800000.0 75892300000.0 70988400000.0 8996650000.0 73374600000.0 103575000000.0 115613000000.0 111523000000.0 92931800000.0 61585200000.0 18510400000.0 35514100000.0 96260900000.0 150222000000.0 171456000000.0 163333000000.0 151495000000.0 161270000000.0 202756000000.0 270292000000.0 349807000000.0 431633000000.0 509531000000.0 576755000000.0 617841000000.0 601279000000.0 474838000000.0 90046200000.0 104485000000.0 655970000000.0 851190000000.0 810620000000.0 786484000000.0 761969000000.0 706407000000.0 422208000000.0 300313000000.0 192182000000.0 109863000000.0 22090100000.0 430424000000.0 462545000000.0 317855000000.0 334420000000.0 66635800000.0 50265300000.0 135669000000.0 288313000000.0 85020800000.0 144835000000.0 264247000000.0 308720000000.0 313567000000.0 325091000000.0 421305000000.0 526636000000.0 735662000000.0 1.04576e+12 158073000000.0 442747000000.0 519684000000.0 503390000000.0 435460000000.0 357370000000.0 302176000000.0 292908000000.0 347495000000.0 496595000000.0 682516000000.0 544145000000.0 348415000000.0 19270600000.0 9969390000.0 128068000000.0 27100900000.0 58078300000.0 84111100000.0 97807100000.0 97436500000.0 83707100000.0 58101900000.0 22324000000.0 21379600000.0 68800000000.0 111552000000.0 136863000000.0 143175000000.0 142270000000.0 150183000000.0 178028000000.0 228256000000.0 294215000000.0 366321000000.0 437613000000.0 500596000000.0 542792000000.0 542344000000.0 463841000000.0 258019000000.0 25829600000.0 940905000000.0 1.00912e+12 736363000000.0 661825000000.0 660018000000.0 654547000000.0 616265000000.0 533896000000.0 278761000000.0 173809000000.0 11847500000.0 68388800000.0 334516000000.0 430926000000.0 270775000000.0 417655000000.0 42086000000.0 4632620000.0 33864600000.0 182205000000.0 179708000000.0 322506000000.0 314743000000.0 295341000000.0 291686000000.0 304620000000.0 262574000000.0 185191000000.0 31058200000.0 73502600000.0 17803100000.0 681776000000.0 265624000000.0 329609000000.0 460041000000.0 567804000000.0 531865000000.0 383964000000.0 293329000000.0 12475000000.0 27921400000.0 63909800000.0 59695800000.0 74590200000.0 79908600000.0 72287700000.0 53684000000.0 25966700000.0 8805070000.0 47031000000.0 82632900000.0 108126000000.0 121637000000.0 128728000000.0 138203000000.0 159656000000.0 197050000000.0 248050000000.0 351457000000.0 466923000000.0 536313000000.0 564156000000.0 549295000000.0 489429000000.0 388736000000.0 184956000000.0 126880000000.0 130507000000.0 329984000000.0 385431000000.0 367543000000.0 125261000000.0 138152000000.0 278185000000.0 266383000000.0 276222000000.0 259730000000.0 228712000000.0 168600000000.0 73666000000.0 182494000000.0 214573000000.0 359812000000.0 379519000000.0 342003000000.0 291845000000.0 259460000000.0 307498000000.0 368487000000.0 423277000000.0 461554000000.0 468297000000.0 423480000000.0 307756000000.0 148908000000.0 423304000000.0 308545000000.0 55832100000.0 170694000000.0 476091000000.0 505495000000.0 501321000000.0 457346000000.0 363951000000.0 280783000000.0 56362700000.0 179960000000.0 327023000000.0 323772000000.0 227777000000.0 277397000000.0 9458580000.0 4020460.0 245224000000.0 203107000000.0 239166000000.0 226175000000.0 223378000000.0 216757000000.0 42581300000.0 253840000000.0 116555000000.0 272176000000.0 1612060000.0 198423000000.0 283130000000.0 293677000000.0 267135000000.0 233992000000.0 217938000000.0 238394000000.0 308455000000.0 412268000000.0 508929000000.0 580701000000.0 591555000000.0 544236000000.0 43861400000.0 35051100000.0 21398100000.0 49029400000.0 53956800000.0 44960400000.0 26227600000.0 454775000.0 29343500000.0 59049600000.0 83757800000.0 100889000000.0 112399000000.0 124382000000.0 143038000000.0 171624000000.0 210928000000.0 258139000000.0 308141000000.0 354188000000.0 387593000000.0 396991000000.0 368432000000.0 288074000000.0 150721000000.0 191902000000.0 117315000000.0 477921000000.0 275871000000.0 234727000000.0 331673000000.0 417433000000.0 450034000000.0 446853000000.0 392973000000.0 312561000000.0 253097000000.0 54467400000.0 296167000000.0 211160000000.0 171292000000.0 8477740000.0 12365400000.0 26387800000.0 192834000000.0 258093000000.0 235083000000.0 68663900000.0 221898000000.0 200132000000.0 210606000000.0 190685000000.0 201259000000.0 315724000000.0 393449000000.0 181418000000.0 24485200000.0 118036000000.0 201531000000.0 236529000000.0 233098000000.0 210013000000.0 186581000000.0 179672000000.0 201233000000.0 250815000000.0 314592000000.0 358415000000.0 340582000000.0 301200000000.0 468624000000.0 104331000000.0 208375000000.0 60070700000.0 6042680000.0 27802400000.0 30280800000.0 21711500000.0 5306980000.0 16362600000.0 40008400000.0 62052300000.0 80152700000.0 94683400000.0 108631000000.0 125722000000.0 149251000000.0 180210000000.0 217514000000.0 258014000000.0 296524000000.0 326287000000.0 339117000000.0 325837000000.0 278241000000.0 193048000000.0 47650900000.0 176344000000.0 470700000000.0 514607000000.0 366370000000.0 339607000000.0 370579000000.0 409061000000.0 437663000000.0 345638000000.0 264009000000.0 256961000000.0 106385000000.0 130699000000.0 58083900000.0 210622000000.0 128280000000.0 21056800000.0 192738000000.0 201999000000.0 51575600000.0 109491000000.0 276238000000.0 250403000000.0 290407000000.0 321421000000.0 380768000000.0 432724000000.0 368743000000.0 286020000000.0 165829000000.0 175234000000.0 197809000000.0 203280000000.0 190446000000.0 168412000000.0 148899000000.0 141281000000.0 149646000000.0 176955000000.0 230595000000.0 310921000000.0 607974000000.0 250780000000.0 453984000000.0 124854000000.0 27027200000.0 497347000.0 10816400000.0 11969400000.0 5041640000.0 8020080000.0 24915700000.0 42959100000.0 59868100000.0 75357800000.0 90434000000.0 107108000000.0 127586000000.0 153103000000.0 183463000000.0 216624000000.0 248983000000.0 275840000000.0 291820000000.0 291408000000.0 522621000000.0 472567000000.0 412884000000.0 398284000000.0 396615000000.0 377975000000.0 367530000000.0 230546000000.0 96996700000.0 207897000000.0 5186310000.0 75612600000.0 215311000000.0 203693000000.0 18875800000.0 32899600000.0 61731700000.0 77826000000.0 90998100000.0 124502000000.0 193835000000.0 244036000000.0 306221000000.0 345935000000.0 327337000000.0 387394000000.0 196154000000.0 307740000000.0 270651000000.0 230597000000.0 178831000000.0 241977000000.0 419646000000.0 564925000000.0 416214000000.0 406200000000.0 337584000000.0 275784000000.0 285029000000.0 232359000000.0 46197600000.0 70145000000.0 68484100000.0 216588000000.0 201270000000.0 12135400000.0 6627640000.0 66838700000.0 89228100000.0 76943800000.0 117212000000.0 323854000000.0 144752000000.0 261451000000.0 299962000000.0 326999000000.0 385784000000.0 264058000000.0 199173000000.0 187984000000.0 187960000000.0 179867000000.0 162063000000.0 140218000000.0 120317000000.0 105063000000.0 97287800000.0 114991000000.0 205916000000.0 394171000000.0 813986000000.0 29243100000.0 8135280000.0 16378800000.0 13228700000.0 4124200000.0 467017000.0 4031300000.0 13390900000.0 25965500000.0 40175500000.0 55028400000.0 70042300000.0 86264800000.0 105078000000.0 127329000000.0 153049000000.0 180956000000.0 208616000000.0 232983000000.0 250667000000.0 258640000000.0 255376000000.0 243067000000.0 231834000000.0 271243000000.0 369462000000.0 467575000000.0 485612000000.0 476230000000.0 452290000000.0 206575000000.0 197096000000.0 207793000000.0 187023000000.0 84547600000.0 245900000000.0 57747100000.0 36457200000.0 147981000000.0 161025000000.0 7565330000.0 20722000000.0 78899500000.0 31807100000.0 262011000000.0 116631000000.0 89905100000.0 356986000000.0 75699200000.0 292954000000.0 273659000000.0 264191000000.0 312149000000.0 297763000000.0 240695000000.0 201570000000.0 190116000000.0 180490000000.0 165427000000.0 146647000000.0 126147000000.0 105542000000.0 83126300000.0 63442500000.0 92196600000.0 293513000000.0 530483000000.0 178247000000.0 323195000000.0 111012000000.0 100398000000.0 67330000000.0 34259100000.0 13782600000.0 4622230000.0 4320760000.0 10453400000.0 21010500000.0 33775800000.0 47776600000.0 63066500000.0 80486800000.0 100727000000.0 123722000000.0 148167000000.0 172353000000.0 194354000000.0 212393000000.0 225039000000.0 231951000000.0 235069000000.0 241243000000.0 271735000000.0 332986000000.0 394423000000.0 417815000000.0 413674000000.0 392100000000.0 360901000000.0 364702000000.0 334994000000.0 137967000000.0 143666000000.0 74681600000.0 257274000000.0 128506000000.0 6682610000.0 116068000000.0 33884200000.0 61014600000.0 177342000000.0 156231000000.0 133646000000.0 81427700000.0 381622000000.0 242934000000.0 240366000000.0 230616000000.0 164787000000.0 253524000000.0 268533000000.0 259908000000.0 218598000000.0 204001000000.0 191792000000.0 176121000000.0 160500000000.0 144882000000.0 129057000000.0 113361000000.0 89799700000.0 56201800000.0 86485900000.0 406953000000.0 12469300000.0 140490000000.0 97947800000.0 196776000000.0 136837000000.0 70421000000.0 30528400000.0 7619920000.0 3637420000.0 4967370000.0 1429080000.0 11967300000.0 24443200000.0 37793900000.0 53184600000.0 71539900000.0 92710400000.0 115288000000.0 137415000000.0 157582000000.0 175112000000.0 189656000000.0 201619000000.0 212640000000.0 226613000000.0 251954000000.0 294177000000.0 341736000000.0 360140000000.0 362050000000.0 336370000000.0 302491000000.0 311966000000.0 302533000000.0 216327000000.0 90614100000.0 44989800000.0 229989000000.0 143283000000.0 61243300000.0 19715400000.0 17087700000.0 9035710000.0 348357000000.0 31253000000.0 87621900000.0 116399000000.0 9035750000.0 113707000000.0 39049300000.0 219296000000.0 182367000000.0 133952000000.0 128863000000.0 211924000000.0 110972000000.0 144439000000.0 324590000000.0 31311200000.0 31078600000.0 244705000000.0 184775000000.0 86635800000.0 241736000.0 11040800000.0 23469200000.0 39011600000.0 57996000000.0 254958000000.0 257106000000.0 188261000000.0 111185000000.0 32137500000.0 107680000000.0 70665400000.0 85010400000.0 50246800000.0 11498800000.0 279790000000.0 72790100000.0 90920700000.0 246987000000.0 6561070000.0 115686000000.0 82341900000.0 249920000000.0 452040000000.0 12452400000.0 178689000000.0 231029000000.0 219724000000.0 223295000000.0 209560000000.0 189856000000.0 175199000000.0 163550000000.0 155623000000.0 151988000000.0 156903000000.0 150977000000.0 165314000000.0 38354300000.0 8588390000.0 11048900000.0 20697900000.0 19815200000.0 11413400000.0 79256100000.0 100608000000.0 119974000000.0 136901000000.0 151765000000.0 165762000000.0 180197000000.0 197826000000.0 221489000000.0 250081000000.0 283256000000.0 308125000000.0 308429000000.0 292987000000.0 241996000000.0 97994900000.0 9322340000.0 31238500000.0 194946000000.0 46786700000.0 44295600000.0 153363000000.0 40417500000.0 133445000000.0 10356500000.0 84506300000.0 44697200000.0 4586800000.0 127017000000.0 227605000000.0 156350000000.0 109709000000.0 88814400000.0 175590000000.0 173852000000.0 197003000000.0 199619000000.0 195061000000.0 184730000000.0 175074000000.0 168497000000.0 173481000000.0 189014000000.0 218349000000.0 213322000000.0 179257000000.0 67730600000.0 33496300000.0 9272750000.0 4713130000.0 170430000000.0 32096900000.0 10736900000.0 551461000.0 17260600000.0 35947800000.0 42058900000.0 35692100000.0 24545900000.0 17287400000.0 9477520000.0 1969610000.0 18142700000.0 38269000000.0 59582700000.0 78631800000.0 95093200000.0 109578000000.0 124644000000.0 140732000000.0 159535000000.0 183448000000.0 210641000000.0 229608000000.0 252136000000.0 264670000000.0 247840000000.0 195491000000.0 191629000000.0 210075000000.0 159068000000.0 32514100000.0 228854000000.0 39361700000.0 66950400000.0 108433000000.0 148834000000.0 179956000000.0 111829000000.0 211628000000.0 6998860000.0 9029280000.0 19949700000.0 67619600000.0 20320600000.0 67205800000.0 179149000000.0 145732000000.0 26932500000.0 27653800000.0 55420200000.0 25918900000.0 28648800000.0 139599000000.0 193594000000.0 208557000000.0 212024000000.0 211070000000.0 211402000000.0 211022000000.0 223720000000.0 242332000000.0 250527000000.0 262799000000.0 202997000000.0 168939000000.0 95672400000.0 110403000000.0 312843000000.0 212406000000.0 85115800000.0 32353800000.0 18741500000.0 48486800000.0 62898200000.0 61451200000.0 48565400000.0 46243900000.0 43178000000.0 39794100000.0 28565700000.0 11650300000.0 10750100000.0 30103500000.0 47443600000.0 60804900000.0 77028700000.0 94702900000.0 114755000000.0 137391000000.0 166940000000.0 196240000000.0 201177000000.0 215090000000.0 206121000000.0 158641000000.0 137251000000.0 146563000000.0 141766000000.0 55869000000.0 1183300000.0 64093000000.0 39549000000.0 91425200000.0 46060800000.0 43288900000.0 39267000000.0 15261200000.0 8931490000.0 90970600000.0 96040000000.0 176267000000.0 23285300000.0 79072200000.0 50433400000.0 178173000000.0 5036680000.0 123905000000.0 300243000000.0 13537900000.0 54461800000.0 60224000000.0 242056000000.0 11378600000.0 2016030000.0 30386000000.0 30817400000.0 16016700000.0 91334000000.0 111806000000.0 164853000000.0 22585700000.0 196460000000.0 239316000000.0 273192000000.0 326153000000.0 349896000000.0 323322000000.0 263688000000.0 244464000000.0 222742000000.0 196414000000.0 158132000000.0 100641000000.0 14521300000.0 30916000000.0 59309300000.0 104501000000.0 68277500000.0 30245700000.0 1402980000.0 179986000000.0 166007000000.0 41024500000.0 24352800000.0 12287800000.0 50607800000.0 60008100000.0 92185100000.0 75291800000.0 77997300000.0 80798900000.0 81990400000.0 81447800000.0 69351600000.0 49691100000.0 31218700000.0 10852100000.0 956502000.0 19707600000.0 40589100000.0 65349400000.0 88454500000.0 112698000000.0 143961000000.0 160666000000.0 156706000000.0 153556000000.0 131670000000.0 96922600000.0 115637000000.0 98662400000.0 21395400000.0 60270200000.0 118852000000.0 87114700000.0 44408000000.0 18419600000.0 17181200000.0 175351000000.0 58479600000.0 27375600000.0 30311300000.0 991434000.0 74830500000.0 132007000000.0 173662000000.0 81110600000.0 349409000000.0 31505500000.0 55389800000.0 31760300000.0 24980700000.0 19335400000.0 35462200000.0 90149500000.0 65512000000.0 46943100000.0 26984800000.0 1350210000.0 2565570000.0 2610280000.0 9503560000.0 4808100000.0 25077100000.0 52741800000.0 89248600000.0 16947000000.0 9404680000.0 81749200000.0 115799000000.0 2726200000.0 64215400000.0 69767800000.0 112144000000.0 8401040000.0 125691000000.0 59930100000.0 107536000000.0 108406000000.0 127997000000.0 115950000000.0 131811000000.0 94325200000.0 102644000000.0 63407500000.0 62986500000.0 30024700000.0 8243590000.0 30045500000.0 57782100000.0 88409700000.0 110803000000.0 143735000000.0 129596000000.0 121549000000.0 86173800000.0 18375900000.0 22129900000.0 66186600000.0 119506000000.0 143545000000.0 202218000000.0 177000000000.0 27314400000.0 47355100000.0 20931200000.0 63991800000.0 87721600000.0 72267400000.0 56018400000.0 36832500000.0 11922700000.0 2139030000.0 127468000000.0 40228100000.0 56555100000.0 47905600000.0 15348500000.0 73814100000.0 9035750000.0 9035750000.0 9035750000.0 96294400000.0 105692000000.0 54713700000.0 36304400000.0 25808500000.0 82285900000.0 138439000000.0 44495900000.0 26684300000.0 10214000000.0 3387990000.0 422229000.0 2063920000.0 14053600000.0 71015800000.0 72219900000.0 58222100000.0 40051800000.0 18223200000.0 5840380000.0 10380900000.0 22840700000.0 89115600000.0 89438700000.0 182580000000.0 40856300000.0 4101570000.0 127929000000.0 287911000000.0 200064000000.0 67089700000.0 182471000000.0 113272000000.0 123934000000.0 99285100000.0 104400000000.0 77109300000.0 89849200000.0 35409200000.0 28631300000.0 31528000000.0 41240500000.0 69191500000.0 74066200000.0 90422600000.0 92065800000.0 94432700000.0 91604200000.0 122890000000.0 114027000000.0 107780000000.0 68980600000.0 41266800000.0 56517700000.0 71980000000.0 60363900000.0 59649300000.0 6943380000.0 34988900000.0 130017000000.0 59253600000.0 44307300000.0 27681000000.0 9968040000.0 9562580000.0 9168000000.0 98657700000.0 48066000000.0 2240350000.0 5493220000.0 26468900000.0 95937400000.0 106378000000.0 76909600000.0 31598800000.0 137751000000.0 105171000000.0 69490900000.0 90394000000.0 70447900000.0 49790300000.0 27983000000.0 1361480000.0 60214400000.0 70037400000.0 69640900000.0 75647400000.0 75943800000.0 80189200000.0 78369700000.0 85919200000.0 52249000000.0 80416700000.0 6076470000.0 116254000000.0 9035750000.0 33255200000.0 161966000000.0 98451100000.0 94805500000.0 30155100000.0 97876100000.0 5285730000.0 73671600000.0 3251620000.0 2217720000.0 33984200000.0 33953500000.0 64017100000.0 54406000000.0 102163000000.0 85831200000.0 113970000000.0 82964400000.0 81457600000.0 61678600000.0 60208200000.0 46843600000.0 40820500000.0 33341700000.0 50162200000.0 24078800000.0 11979400000.0 28913500000.0 14272100000.0 13750700000.0 24337900000.0 16936200000.0 17506200000.0 13365600000.0 1545440000.0 145201000000.0 63432300000.0 39453100000.0 11846100000.0 6002930000.0 4580760000.0 2689520000.0 278978000.0 3723580000.0 7256400000.0 76702300000.0 39183900000.0 18042800000.0 30726000000.0 26864400000.0 33567000000.0 44736200000.0 49153200000.0 29448000000.0 195234000000.0 8210930000.0 38594700000.0 8232570000.0 2190660000.0 4404490000.0 11613400000.0 14736300000.0 10922300000.0 16373300000.0 13724800000.0 17222300000.0 14225000000.0 12673100000.0 5166880000.0 17924100000.0 9600900000.0 20964000000.0 55096100000.0 44249500000.0 48644700000.0 50989000000.0 136432000000.0 145311000000.0 10634700000.0 104324000000.0 10463600000.0 78168900000.0 10748400000.0 48039000000.0 36035200000.0 54240400000.0 44308900000.0 63809900000.0 44668900000.0 87528100000.0 75919400000.0 114273000000.0 98583700000.0 108552000000.0 99223500000.0 105887000000.0 100122000000.0 99226500000.0 95715200000.0 120979000000.0 102703000000.0 87760800000.0 41984300000.0 50236700000.0 64607300000.0 64719600000.0 54384600000.0 41283500000.0 5736980000.0 3455370000.0 119670000000.0 62245000000.0 57966400000.0 31680900000.0 14059400000.0 11669000000.0 9709300000.0 9041500000.0 9035750000.0 9035750000.0 60820400000.0 48245100000.0 8883970000.0 9043540000.0 23753700000.0 86833900000.0 100032000000.0 105126000000.0 86622500000.0 195337000000.0 2535980000.0 27933400000.0 3741640000.0 3268020000.0 4037660000.0 5232960000.0 10797400000.0 31198900000.0 40491900000.0 42934300000.0 49689100000.0 50177000000.0 51653500000.0 47131300000.0 60448400000.0 37645600000.0 64193700000.0 10976100000.0 80823300000.0 19244300000.0 12963300000.0 144519000000.0 77242200000.0 29282200000.0 41162100000.0 29263300000.0 24846500000.0 18847100000.0 15793200000.0 14752100000.0 36646700000.0 32086500000.0 54318200000.0 42350500000.0 84790300000.0 75406700000.0 110084000000.0 94058800000.0 101676000000.0 91807700000.0 97113200000.0 91283900000.0 90595100000.0 87375000000.0 109259000000.0 90418400000.0 73080700000.0 38820100000.0 47857100000.0 59514400000.0 56953900000.0 49684400000.0 34470100000.0 8692640000.0 8933430000.0 102546000000.0 57107100000.0 57408400000.0 29520800000.0 13566500000.0 10791400000.0 8643050000.0 7952190000.0 8397020000.0 8831080000.0 43009600000.0 42286600000.0 9035780000.0 9055850000.0 22534600000.0 77106100000.0 90349200000.0 97756000000.0 83718800000.0 176160000000.0 8981350000.0 36806600000.0 15264800000.0 11813200000.0 10424500000.0 9086100000.0 10804500000.0 22576700000.0 29489300000.0 30964400000.0 36541800000.0 36794700000.0 38021500000.0 32526900000.0 42041800000.0 18421800000.0 39774800000.0 1470940000.0 48095100000.0 2147710000.0 6681570000.0 134746000000.0 98477600000.0 24476400000.0 68992400000.0 18054900000.0 49662500000.0 17553400000.0 35153400000.0 31624000000.0 46937200000.0 40090100000.0 56893800000.0 44174200000.0 79868000000.0 70789700000.0 100643000000.0 86080900000.0 92876900000.0 84045900000.0 88507500000.0 83008800000.0 81798700000.0 78630000000.0 97636500000.0 80300500000.0 62451000000.0 38096400000.0 45132700000.0 53979400000.0 49788100000.0 44573500000.0 28152400000.0 9038800000.0 9035750000.0 82380900000.0 49919300000.0 56464700000.0 30716400000.0 16707900000.0 13286800000.0 10434800000.0 9035750000.0 9035750000.0 9037640000.0 29609600000.0 35932000000.0 9035820000.0 9064150000.0 20580800000.0 65759900000.0 77978600000.0 87064300000.0 79273200000.0 149534000000.0 9035760000.0 33685900000.0 16563900000.0 12408700000.0 10773300000.0 9535490000.0 10542000000.0 17698400000.0 23440900000.0 24879000000.0 29970200000.0 30978000000.0 33321900000.0 30285200000.0 40640200000.0 23206500000.0 41154300000.0 12907000000.0 50725900000.0 19222900000.0 11841500000.0 117314000000.0 71461400000.0 19150300000.0 54533800000.0 16822900000.0 39057000000.0 16258100000.0 27924300000.0 25344800000.0 38245600000.0 32660400000.0 46956500000.0 36584100000.0 67022100000.0 59512600000.0 85153100000.0 73013900000.0 79013400000.0 71636300000.0 75479900000.0 70777900000.0 69614400000.0 66719500000.0 82324300000.0 67066300000.0 50518000000.0 34353800000.0 39738800000.0 46439100000.0 41691500000.0 38117800000.0 22481800000.0 9039720000.0 9035750000.0 65170600000.0 42721400000.0 51707500000.0 28522800000.0 16719200000.0 13408900000.0 10536800000.0 9035750000.0 9035750000.0 9037400000.0 20183700000.0 29605000000.0 9035840000.0 9066850000.0 18210800000.0 53526400000.0 64027700000.0 72729800000.0 68149800000.0 119624000000.0 9035760000.0 29393600000.0 16585100000.0 12451800000.0 10808800000.0 9574610000.0 10196800000.0 13828500000.0 17872100000.0 18905400000.0 22875600000.0 23806700000.0 26084000000.0 23888800000.0 32117500000.0 18032100000.0 31509800000.0 12147900000.0 41081000000.0 16924300000.0 11752100000.0 95800400000.0 61186800000.0 21022200000.0 41907100000.0 15279500000.0 30218200000.0 14755700000.0 22014100000.0 20197800000.0 30364800000.0 26001500000.0 37434500000.0 29338200000.0 53742100000.0 47909300000.0 68590900000.0 59024300000.0 63952400000.0 58130200000.0 61240100000.0 57464900000.0 56459500000.0 54025900000.0 66106500000.0 53642500000.0 39646400000.0 29542100000.0 33492900000.0 38318800000.0 33817900000.0 31482700000.0 18021100000.0 9040100000.0 9035750000.0 49998900000.0 34935300000.0 44609600000.0 25362700000.0 15885900000.0 13038800000.0 10442200000.0 9035750000.0 9035750000.0 9037060000.0 14071400000.0 23463500000.0 9035840000.0 9063430000.0 15634000000.0 40833500000.0 48820500000.0 55869400000.0 53465300000.0 88452700000.0 9035760000.0 24177000000.0 15361500000.0 11940800000.0 10548200000.0 9505810000.0 9970830000.0 11658600000.0 13996100000.0 14606500000.0 17480600000.0 18225000000.0 20094600000.0 18656400000.0 24624700000.0 14350200000.0 23590900000.0 11256900000.0 31710800000.0 12052500000.0 71155200000.0 45136100000.0 17852300000.0 31015500000.0 13554100000.0 22888900000.0 13155000000.0 17264400000.0 16088300000.0 23395400000.0 20257800000.0 28571800000.0 22793100000.0 40551800000.0 36396300000.0 51521500000.0 44635000000.0 48285000000.0 44090700000.0 46374500000.0 43621600000.0 42854200000.0 41029900000.0 49572300000.0 40406000000.0 29901800000.0 23995900000.0 26706600000.0 29916900000.0 26299700000.0 24872100000.0 14616900000.0 9039680000.0 9035750000.0 36725400000.0 27207800000.0 35659000000.0 21293500000.0 14384200000.0 12228400000.0 10171800000.0 9035750000.0 9035750000.0 9036690000.0 14681600000.0 10825800000.0 17507600000.0 9035810000.0 9054530000.0 12966300000.0 27931100000.0 32872900000.0 37387600000.0 36296200000.0 56437000000.0 9035760000.0 18272700000.0 13165900000.0 10954500000.0 10038800000.0 9349680000.0 9647170000.0 10410700000.0 11490000000.0 11714300000.0 13431700000.0 13932700000.0 15167600000.0 14359100000.0 17961900000.0 11728700000.0 17092500000.0 10339700000.0 22486500000.0 12388100000.0 11035900000.0 45842300000.0 30009500000.0 14389800000.0 21497100000.0 11738900000.0 16732400000.0 11496400000.0 13483600000.0 12831200000.0 17216600000.0 15339200000.0 20337200000.0 16905500000.0 27586500000.0 25117500000.0 34251900000.0 30133300000.0 32356200000.0 29846100000.0 31229800000.0 29569700000.0 29094400000.0 27977700000.0 33019900000.0 27470400000.0 21055600000.0 18026500000.0 19604900000.0 21419700000.0 19121100000.0 18360100000.0 12023000000.0 9038430000.0 9035750000.0 24881700000.0 19662700000.0 25347500000.0 16564000000.0 12395400000.0 11069500000.0 9763430000.0 9035750000.0 9035750000.0 9036310000.0 9426820000.0 11679200000.0 9035770000.0 9041870000.0 10265800000.0 14944100000.0 23886000000.0 9035760000.0 11950900000.0 10370100000.0 9656560000.0 9361270000.0 9137660000.0 9232730000.0 10319800000.0 10492300000.0 10904400000.0 10655300000.0 11794200000.0 9810240000.0 11482900000.0 9440100000.0 13243700000.0 9672660000.0 20533500000.0 15535200000.0 10724600000.0 12855200000.0 9882830000.0 11367100000.0 9806510000.0 10362500000.0 10166500000.0 11552100000.0 10962600000.0 12532100000.0 11461000000.0 14815300000.0 14043300000.0 16917800000.0 15626600000.0 16328200000.0 15541100000.0 15976800000.0 15454600000.0 15303600000.0 14950800000.0 16523400000.0 14775800000.0 12750200000.0 11855700000.0 12347000000.0 12903400000.0 12167300000.0 11939600000.0 9927170000.0 9036630000.0 9035750000.0 13917600000.0 12329700000.0 11418000000.0 10107200000.0 9687370000.0 9269010000.0 9035750000.0 9035750000.0 9035930000.0 16513000000.0 17963400000.0 17659600000.0 9447950000.0 9737290000.0 9778970000.0 10081600000.0 14192100000.0 